# vtk DataFile Version 2.0
Calculation  at time 5.000000000000e+00 
ASCII
DATASET UNSTRUCTURED_GRID
Field FieldData 1
Time 1 1 double
5.000000000000e+00

POINTS 1163 float
0.0 0.0 0.0 
5.000000000000e+01 -1.000000000000e+01 0.0 
0.0 -2.000000000000e+01 0.0 
5.000000000000e+01 -2.000000000000e+01 0.0 
0.0 -9.999999999991e-01 0.0 
0.0 -1.999999999998e+00 0.0 
0.0 -2.999999999997e+00 0.0 
0.0 -3.999999999994e+00 0.0 
0.0 -4.999999999991e+00 0.0 
0.0 -5.999999999988e+00 0.0 
0.0 -6.999999999985e+00 0.0 
0.0 -7.999999999982e+00 0.0 
0.0 -8.999999999983e+00 0.0 
0.0 -9.999999999985e+00 0.0 
0.0 -1.099999999999e+01 0.0 
0.0 -1.199999999999e+01 0.0 
0.0 -1.299999999999e+01 0.0 
0.0 -1.399999999999e+01 0.0 
0.0 -1.499999999999e+01 0.0 
0.0 -1.599999999999e+01 0.0 
0.0 -1.700000000000e+01 0.0 
0.0 -1.800000000000e+01 0.0 
0.0 -1.900000000000e+01 0.0 
4.900000000001e+01 -2.000000000000e+01 0.0 
4.800000000001e+01 -2.000000000000e+01 0.0 
4.700000000002e+01 -2.000000000000e+01 0.0 
4.600000000003e+01 -2.000000000000e+01 0.0 
4.500000000004e+01 -2.000000000000e+01 0.0 
4.400000000004e+01 -2.000000000000e+01 0.0 
4.300000000005e+01 -2.000000000000e+01 0.0 
4.200000000006e+01 -2.000000000000e+01 0.0 
4.100000000006e+01 -2.000000000000e+01 0.0 
4.000000000007e+01 -2.000000000000e+01 0.0 
3.900000000008e+01 -2.000000000000e+01 0.0 
3.800000000009e+01 -2.000000000000e+01 0.0 
3.700000000009e+01 -2.000000000000e+01 0.0 
3.600000000010e+01 -2.000000000000e+01 0.0 
3.500000000011e+01 -2.000000000000e+01 0.0 
3.400000000011e+01 -2.000000000000e+01 0.0 
3.300000000012e+01 -2.000000000000e+01 0.0 
3.200000000013e+01 -2.000000000000e+01 0.0 
3.100000000013e+01 -2.000000000000e+01 0.0 
3.000000000013e+01 -2.000000000000e+01 0.0 
2.900000000013e+01 -2.000000000000e+01 0.0 
2.800000000013e+01 -2.000000000000e+01 0.0 
2.700000000013e+01 -2.000000000000e+01 0.0 
2.600000000013e+01 -2.000000000000e+01 0.0 
2.500000000013e+01 -2.000000000000e+01 0.0 
2.400000000013e+01 -2.000000000000e+01 0.0 
2.300000000013e+01 -2.000000000000e+01 0.0 
2.200000000013e+01 -2.000000000000e+01 0.0 
2.100000000013e+01 -2.000000000000e+01 0.0 
2.000000000013e+01 -2.000000000000e+01 0.0 
1.900000000013e+01 -2.000000000000e+01 0.0 
1.800000000013e+01 -2.000000000000e+01 0.0 
1.700000000012e+01 -2.000000000000e+01 0.0 
1.600000000011e+01 -2.000000000000e+01 0.0 
1.500000000011e+01 -2.000000000000e+01 0.0 
1.400000000010e+01 -2.000000000000e+01 0.0 
1.300000000009e+01 -2.000000000000e+01 0.0 
1.200000000009e+01 -2.000000000000e+01 0.0 
1.100000000008e+01 -2.000000000000e+01 0.0 
1.000000000007e+01 -2.000000000000e+01 0.0 
9.000000000064e+00 -2.000000000000e+01 0.0 
8.000000000057e+00 -2.000000000000e+01 0.0 
7.000000000050e+00 -2.000000000000e+01 0.0 
6.000000000043e+00 -2.000000000000e+01 0.0 
5.000000000036e+00 -2.000000000000e+01 0.0 
4.000000000028e+00 -2.000000000000e+01 0.0 
3.000000000021e+00 -2.000000000000e+01 0.0 
2.000000000014e+00 -2.000000000000e+01 0.0 
1.000000000007e+00 -2.000000000000e+01 0.0 
5.000000000000e+01 -1.100000000000e+01 0.0 
5.000000000000e+01 -1.200000000000e+01 0.0 
5.000000000000e+01 -1.300000000000e+01 0.0 
5.000000000000e+01 -1.400000000000e+01 0.0 
5.000000000000e+01 -1.500000000000e+01 0.0 
5.000000000000e+01 -1.600000000000e+01 0.0 
5.000000000000e+01 -1.700000000000e+01 0.0 
5.000000000000e+01 -1.800000000000e+01 0.0 
5.000000000000e+01 -1.900000000000e+01 0.0 
2.000000000000e+01 0.0 0.0 
3.500000000000e+01 -1.000000000000e+01 0.0 
2.150000000000e+01 -1.000000000000e+00 0.0 
2.300000000000e+01 -2.000000000000e+00 0.0 
2.450000000000e+01 -3.000000000000e+00 0.0 
2.600000000000e+01 -4.000000000000e+00 0.0 
2.750000000000e+01 -5.000000000000e+00 0.0 
2.900000000000e+01 -6.000000000000e+00 0.0 
3.050000000000e+01 -7.000000000000e+00 0.0 
3.200000000000e+01 -8.000000000000e+00 0.0 
3.350000000000e+01 -9.000000000000e+00 0.0 
5.000000000000e+01 -4.000000000000e+00 0.0 
5.000000000000e+01 -5.000000000000e+00 0.0 
5.000000000000e+01 -6.000000000000e+00 0.0 
5.000000000000e+01 -7.000000000000e+00 0.0 
5.000000000000e+01 -8.000000000000e+00 0.0 
5.000000000000e+01 -9.000000000000e+00 0.0 
4.900000000000e+01 -1.000000000000e+01 0.0 
4.800000000000e+01 -1.000000000000e+01 0.0 
4.700000000000e+01 -1.000000000000e+01 0.0 
4.600000000000e+01 -1.000000000000e+01 0.0 
4.500000000000e+01 -1.000000000000e+01 0.0 
4.400000000000e+01 -1.000000000000e+01 0.0 
4.300000000000e+01 -1.000000000000e+01 0.0 
4.200000000000e+01 -1.000000000000e+01 0.0 
4.100000000000e+01 -1.000000000000e+01 0.0 
4.000000000000e+01 -1.000000000000e+01 0.0 
3.900000000000e+01 -1.000000000000e+01 0.0 
3.800000000000e+01 -1.000000000000e+01 0.0 
3.700000000000e+01 -1.000000000000e+01 0.0 
3.600000000000e+01 -1.000000000000e+01 0.0 
1.900000000000e+01 0.0 0.0 
1.800000000000e+01 0.0 0.0 
1.700000000000e+01 0.0 0.0 
1.600000000000e+01 0.0 0.0 
1.500000000000e+01 0.0 0.0 
1.400000000000e+01 0.0 0.0 
1.300000000000e+01 0.0 0.0 
1.200000000000e+01 0.0 0.0 
1.100000000000e+01 0.0 0.0 
1.000000000000e+01 0.0 0.0 
9.000000000000e+00 0.0 0.0 
8.000000000000e+00 0.0 0.0 
7.000000000000e+00 0.0 0.0 
6.000000000000e+00 0.0 0.0 
5.000000000000e+00 0.0 0.0 
4.000000000000e+00 0.0 0.0 
3.000000000000e+00 0.0 0.0 
2.000000000000e+00 0.0 0.0 
1.000000000000e+00 0.0 0.0 
4.900000000000e+01 -4.000000000000e+00 0.0 
4.800000000000e+01 -4.000000000000e+00 0.0 
4.700000000000e+01 -4.000000000000e+00 0.0 
4.600000000000e+01 -4.000000000000e+00 0.0 
4.500000000000e+01 -4.000000000000e+00 0.0 
4.400000000000e+01 -4.000000000000e+00 0.0 
4.300000000000e+01 -4.000000000000e+00 0.0 
4.200000000000e+01 -4.000000000000e+00 0.0 
4.100000000000e+01 -4.000000000000e+00 0.0 
4.000000000000e+01 -4.000000000000e+00 0.0 
3.900000000000e+01 -4.000000000000e+00 0.0 
3.800000000000e+01 -4.000000000000e+00 0.0 
3.700000000000e+01 -4.000000000000e+00 0.0 
3.600000000000e+01 -4.000000000000e+00 0.0 
3.500000000000e+01 -4.000000000000e+00 0.0 
3.400000000000e+01 -4.000000000000e+00 0.0 
3.300000000000e+01 -4.000000000000e+00 0.0 
3.200000000000e+01 -4.000000000000e+00 0.0 
3.100000000000e+01 -4.000000000000e+00 0.0 
3.000000000000e+01 -4.000000000000e+00 0.0 
2.900000000000e+01 -4.000000000000e+00 0.0 
2.800000000000e+01 -4.000000000000e+00 0.0 
2.700000000000e+01 -4.000000000000e+00 0.0 
2.847826086957e+01 -5.000000000000e+00 0.0 
2.945652173913e+01 -5.000000000000e+00 0.0 
3.043478260870e+01 -5.000000000000e+00 0.0 
3.141304347826e+01 -5.000000000000e+00 0.0 
3.239130434783e+01 -5.000000000000e+00 0.0 
3.336956521739e+01 -5.000000000000e+00 0.0 
3.434782608696e+01 -5.000000000000e+00 0.0 
3.532608695652e+01 -5.000000000000e+00 0.0 
3.630434782609e+01 -5.000000000000e+00 0.0 
3.728260869565e+01 -5.000000000000e+00 0.0 
3.826086956522e+01 -5.000000000000e+00 0.0 
3.923913043478e+01 -5.000000000000e+00 0.0 
4.021739130435e+01 -5.000000000000e+00 0.0 
4.119565217391e+01 -5.000000000000e+00 0.0 
4.217391304348e+01 -5.000000000000e+00 0.0 
4.315217391304e+01 -5.000000000000e+00 0.0 
4.413043478261e+01 -5.000000000000e+00 0.0 
4.510869565217e+01 -5.000000000000e+00 0.0 
4.608695652174e+01 -5.000000000000e+00 0.0 
4.706521739130e+01 -5.000000000000e+00 0.0 
4.804347826087e+01 -5.000000000000e+00 0.0 
4.902173913043e+01 -5.000000000000e+00 0.0 
4.900000000001e+01 -6.000000000000e+00 0.0 
4.800000000003e+01 -6.000000000000e+00 0.0 
4.700000000004e+01 -6.000000000000e+00 0.0 
4.600000000006e+01 -6.000000000000e+00 0.0 
4.500000000007e+01 -6.000000000000e+00 0.0 
4.400000000009e+01 -6.000000000000e+00 0.0 
4.300000000010e+01 -6.000000000000e+00 0.0 
4.200000000012e+01 -6.000000000000e+00 0.0 
4.100000000013e+01 -6.000000000000e+00 0.0 
4.000000000014e+01 -6.000000000000e+00 0.0 
3.900000000014e+01 -6.000000000000e+00 0.0 
3.800000000012e+01 -6.000000000000e+00 0.0 
3.700000000010e+01 -6.000000000000e+00 0.0 
3.600000000008e+01 -6.000000000000e+00 0.0 
3.500000000006e+01 -6.000000000000e+00 0.0 
3.400000000005e+01 -6.000000000000e+00 0.0 
3.300000000003e+01 -6.000000000000e+00 0.0 
3.200000000001e+01 -6.000000000000e+00 0.0 
3.100000000000e+01 -6.000000000000e+00 0.0 
3.000000000000e+01 -6.000000000000e+00 0.0 
3.147499999998e+01 -7.000000000000e+00 0.0 
3.244999999998e+01 -7.000000000000e+00 0.0 
3.342499999998e+01 -7.000000000000e+00 0.0 
3.439999999998e+01 -7.000000000000e+00 0.0 
3.537499999998e+01 -7.000000000000e+00 0.0 
3.634999999998e+01 -7.000000000000e+00 0.0 
3.732499999998e+01 -7.000000000000e+00 0.0 
3.829999999998e+01 -7.000000000000e+00 0.0 
3.927499999999e+01 -7.000000000000e+00 0.0 
4.024999999999e+01 -7.000000000000e+00 0.0 
4.122499999999e+01 -7.000000000000e+00 0.0 
4.219999999999e+01 -7.000000000000e+00 0.0 
4.317499999999e+01 -7.000000000000e+00 0.0 
4.414999999999e+01 -7.000000000000e+00 0.0 
4.512499999999e+01 -7.000000000000e+00 0.0 
4.609999999999e+01 -7.000000000000e+00 0.0 
4.707500000000e+01 -7.000000000000e+00 0.0 
4.805000000000e+01 -7.000000000000e+00 0.0 
4.902500000000e+01 -7.000000000000e+00 0.0 
4.900000000000e+01 -8.000000000000e+00 0.0 
4.800000000000e+01 -8.000000000000e+00 0.0 
4.700000000000e+01 -8.000000000000e+00 0.0 
4.600000000000e+01 -8.000000000000e+00 0.0 
4.500000000000e+01 -8.000000000000e+00 0.0 
4.400000000000e+01 -8.000000000000e+00 0.0 
4.300000000000e+01 -8.000000000000e+00 0.0 
4.200000000000e+01 -8.000000000000e+00 0.0 
4.100000000000e+01 -8.000000000000e+00 0.0 
4.000000000000e+01 -8.000000000000e+00 0.0 
3.900000000000e+01 -8.000000000000e+00 0.0 
3.800000000000e+01 -8.000000000000e+00 0.0 
3.700000000000e+01 -8.000000000000e+00 0.0 
3.600000000000e+01 -8.000000000000e+00 0.0 
3.500000000000e+01 -8.000000000000e+00 0.0 
3.400000000000e+01 -8.000000000000e+00 0.0 
3.300000000000e+01 -8.000000000000e+00 0.0 
3.447058823527e+01 -9.000000000000e+00 0.0 
3.544117647055e+01 -9.000000000000e+00 0.0 
3.641176470582e+01 -9.000000000000e+00 0.0 
3.738235294109e+01 -9.000000000000e+00 0.0 
3.835294117637e+01 -9.000000000000e+00 0.0 
3.932352941164e+01 -9.000000000000e+00 0.0 
4.029411764691e+01 -9.000000000000e+00 0.0 
4.126470588219e+01 -9.000000000000e+00 0.0 
4.223529411748e+01 -9.000000000000e+00 0.0 
4.320588235279e+01 -9.000000000000e+00 0.0 
4.417647058811e+01 -9.000000000000e+00 0.0 
4.514705882342e+01 -9.000000000000e+00 0.0 
4.611764705874e+01 -9.000000000000e+00 0.0 
4.708823529405e+01 -9.000000000000e+00 0.0 
4.805882352937e+01 -9.000000000000e+00 0.0 
4.902941176468e+01 -9.000000000000e+00 0.0 
2.075000000000e+01 -5.000000000006e-01 0.0 
2.225000000000e+01 -1.500000000000e+00 0.0 
2.375000000000e+01 -2.500000000000e+00 0.0 
2.525000000000e+01 -3.500000000000e+00 0.0 
2.675000000000e+01 -4.500000000000e+00 0.0 
2.825000000000e+01 -5.500000000000e+00 0.0 
2.975000000000e+01 -6.500000000000e+00 0.0 
3.125000000000e+01 -7.500000000000e+00 0.0 
3.275000000000e+01 -8.500000000000e+00 0.0 
3.425000000000e+01 -9.500000000000e+00 0.0 
2.226951693683e+01 -2.403913980114e+00 0.0 
1.650149491944e+01 -1.913490915758e+01 0.0 
1.050042386896e+01 -8.504605092970e-01 0.0 
1.553146524712e+01 -8.281255032105e-01 0.0 
1.150000000008e+01 -1.913397459621e+01 0.0 
2.530060260647e+01 -4.428336431260e+00 0.0 
8.651114563942e-01 -1.052096295641e+01 0.0 
2.050000000013e+01 -1.913397459622e+01 0.0 
2.819198729811e+01 -6.399519052838e+00 0.0 
2.445670302931e+01 -1.915649188023e+01 0.0 
3.117591465718e+01 -8.394293040695e+00 0.0 
7.465053044742e+00 -1.920411160581e+01 0.0 
6.398295709691e+00 -8.230098819370e-01 0.0 
2.849659607461e+01 -1.914296187762e+01 0.0 
3.418732642882e+01 -1.040265792588e+01 0.0 
8.386450935063e-01 -6.533605142809e+00 0.0 
9.178661865596e-01 -1.329769195597e+01 0.0 
3.149448624493e+01 -1.910466733764e+01 0.0 
3.552916747426e+01 -1.914628590759e+01 0.0 
4.449210346537e+01 -1.914359085008e+01 0.0 
4.140975975145e+01 -1.906941860733e+01 0.0 
3.847475958753e+01 -1.916622382724e+01 0.0 
3.653774794640e+01 -1.088712800241e+01 0.0 
4.047886341787e+01 -1.090139014048e+01 0.0 
4.348006339825e+01 -1.092792621489e+01 0.0 
4.919519968029e+01 -1.451526755068e+01 0.0 
4.500000000032e+00 -1.913397459621e+01 0.0 
1.856136921614e+01 -8.212235170404e-01 0.0 
3.499895312306e+00 -8.661165539723e-01 0.0 
9.076088696565e-01 -1.642306201891e+01 0.0 
4.655174095477e+01 -1.086183387525e+01 0.0 
9.430688970604e-01 -3.496112672958e+00 0.0 
3.353992337063e+01 -1.901202090820e+01 0.0 
2.249746016977e+01 -1.921262287282e+01 0.0 
2.650122741777e+01 -1.916123026018e+01 0.0 
1.863571384842e+01 -1.908325534840e+01 0.0 
1.450089971693e+01 -1.917691901860e+01 0.0 
1.350044695317e+01 -8.659695299584e-01 0.0 
3.849987469880e+01 -1.084154983397e+01 0.0 
9.454419857884e+00 -1.900818879936e+01 0.0 
4.917398660523e+01 -1.645692866081e+01 0.0 
8.500000000000e+00 -8.660254037844e-01 0.0 
8.660319230785e-01 -8.500111697188e+00 0.0 
4.649022621545e+01 -1.930506220113e+01 0.0 
2.667688107845e+01 -5.420288124331e+00 0.0 
2.379251615665e+01 -3.412225477429e+00 0.0 
2.966631491830e+01 -7.389030232731e+00 0.0 
3.267915035995e+01 -9.396934932445e+00 0.0 
2.074836922338e+01 -1.320054020319e+00 0.0 
4.915985743621e+01 -1.261973384855e+01 0.0 
2.527129768623e+00 -1.931592414663e+01 0.0 
1.538676247410e+00 -8.436956619311e-01 0.0 
4.908096641539e+01 -1.842484004551e+01 0.0 
3.478612492673e+01 -1.090889364140e+01 0.0 
3.409757055860e+01 -1.131991530427e+01 0.0 
3.501895309466e+01 -1.177687842717e+01 0.0 
3.407758073088e+01 -1.224293381580e+01 0.0 
3.484541875390e+01 -1.277051428430e+01 0.0 
3.400322025842e+01 -1.319022775640e+01 0.0 
3.321672625034e+01 -1.266779191233e+01 0.0 
3.315244139236e+01 -1.360984106532e+01 0.0 
3.236335186892e+01 -1.308463225210e+01 0.0 
3.478337442841e+01 -1.372341158982e+01 0.0 
3.230105923633e+01 -1.403023731610e+01 0.0 
3.150954055289e+01 -1.350301767700e+01 0.0 
3.144604792090e+01 -1.444931742516e+01 0.0 
3.065653897123e+01 -1.392357262981e+01 0.0 
3.071897610812e+01 -1.297447031198e+01 0.0 
2.986790411740e+01 -1.339226181535e+01 0.0 
2.993181466745e+01 -1.244703272398e+01 0.0 
2.908023061869e+01 -1.286254537734e+01 0.0 
2.901619051372e+01 -1.380881655279e+01 0.0 
2.822986160390e+01 -1.327695262116e+01 0.0 
2.829453476870e+01 -1.233265343811e+01 0.0 
2.744542905518e+01 -1.274510491105e+01 0.0 
2.751120089246e+01 -1.180368086886e+01 0.0 
2.666218649885e+01 -1.221619339205e+01 0.0 
2.672371209234e+01 -1.127125228527e+01 0.0 
2.587763216302e+01 -1.168539979114e+01 0.0 
2.581165585299e+01 -1.262994410089e+01 0.0 
2.502890882577e+01 -1.209827323619e+01 0.0 
2.509631327757e+01 -1.115492410304e+01 0.0 
2.424662989877e+01 -1.156630981079e+01 0.0 
2.431704046904e+01 -1.062389179334e+01 0.0 
2.346445438728e+01 -1.103427680694e+01 0.0 
2.339382552877e+01 -1.197964871788e+01 0.0 
2.260936050780e+01 -1.144513277642e+01 0.0 
2.268075012022e+01 -1.049911928216e+01 0.0 
2.182525737661e+01 -1.090920811464e+01 0.0 
2.189682319817e+01 -9.961716944568e+00 0.0 
2.104174127792e+01 -1.037266986667e+01 0.0 
2.111304367575e+01 -9.424179358711e+00 0.0 
2.025306185381e+01 -9.832727364719e+00 0.0 
2.018141124247e+01 -1.079140628871e+01 0.0 
1.938594498257e+01 -1.025147354112e+01 0.0 
1.946106490453e+01 -9.288010758448e+00 0.0 
1.858929958352e+01 -9.706319802516e+00 0.0 
1.851540991219e+01 -1.067205988724e+01 0.0 
1.771485303178e+01 -1.012504443115e+01 0.0 
1.764134552256e+01 -1.109360378538e+01 0.0 
1.683745148095e+01 -1.054496365337e+01 0.0 
1.691852964353e+01 -9.582555261178e+00 0.0 
1.603603813062e+01 -1.000160132379e+01 0.0 
1.595824239350e+01 -1.096750698862e+01 0.0 
1.515080624291e+01 -1.041639501931e+01 0.0 
1.523171602559e+01 -9.451711491453e+00 0.0 
1.434621060709e+01 -9.871956467464e+00 0.0 
1.426777178765e+01 -1.083749501371e+01 0.0 
1.345775282374e+01 -1.028803175500e+01 0.0 
1.354103873368e+01 -9.324918457162e+00 0.0 
1.265072018622e+01 -9.742612837270e+00 0.0 
1.257285762070e+01 -1.071557782384e+01 0.0 
1.175874815690e+01 -1.015972324288e+01 0.0 
1.184203019714e+01 -9.193604071377e+00 0.0 
1.094927709905e+01 -9.612103238656e+00 0.0 
1.086938022910e+01 -1.058685085646e+01 0.0 
1.005424098961e+01 -1.002939116380e+01 0.0 
9.977974613295e+00 -1.101324897989e+01 0.0 
1.012915646404e+01 -9.051815821181e+00 0.0 
9.237127782494e+00 -9.471239055559e+00 0.0 
9.308426593771e+00 -8.483376461131e+00 0.0 
8.418806073345e+00 -8.910712374517e+00 0.0 
2.253688464062e+01 -1.239459402279e+01 0.0 
8.495126726666e+00 -7.921646665254e+00 0.0 
9.389727383206e+00 -7.512103628377e+00 0.0 
7.601560812974e+00 -8.349460349344e+00 0.0 
7.525680547759e+00 -9.339736686940e+00 0.0 
7.677888324502e+00 -7.359727833346e+00 0.0 
6.782001206724e+00 -7.788454494773e+00 0.0 
6.858778622885e+00 -6.797338062822e+00 0.0 
2.196596590865e+01 -8.979025665442e+00 0.0 
2.816540108272e+01 -1.422634142353e+01 0.0 
5.961601194403e+00 -7.226824010712e+00 0.0 
6.038171749656e+00 -6.234825887079e+00 0.0 
6.936257279557e+00 -5.805287640737e+00 0.0 
6.115068918323e+00 -5.242109758768e+00 0.0 
3.564391741903e+01 -1.329240553876e+01 0.0 
3.558115605778e+01 -1.425902892003e+01 0.0 
3.645445282201e+01 -1.381970786460e+01 0.0 
3.639744204358e+01 -1.479198128612e+01 0.0 
3.727266909778e+01 -1.435399586226e+01 0.0 
5.216667013081e+00 -5.671788584287e+00 0.0 
3.220697293295e+01 -1.499594545107e+01 0.0 
3.551112158269e+01 -1.523479869250e+01 0.0 
2.836056961467e+01 -1.139032434851e+01 0.0 
2.516730388602e+01 -1.021382726837e+01 0.0 
1.844436907403e+01 -1.164097215196e+01 0.0 
5.885434318740e+00 -8.218694781467e+00 0.0 
5.064071066867e+00 -7.656614643901e+00 0.0 
4.988089103470e+00 -8.649722082718e+00 0.0 
1.079421050408e+01 -1.157014985435e+01 0.0 
9.902420005256e+00 -1.199903342656e+01 0.0 
1.071994252214e+01 -1.255727909771e+01 0.0 
9.826974788171e+00 -1.298659581767e+01 0.0 
1.064607883789e+01 -1.354595476388e+01 0.0 
9.751541265343e+00 -1.397556905071e+01 0.0 
8.932296185869e+00 -1.341553353988e+01 0.0 
8.856399248106e+00 -1.440570715508e+01 0.0 
8.036186803543e+00 -1.384470558472e+01 0.0 
1.057112875118e+01 -1.453516759081e+01 0.0 
1.146582585687e+01 -1.410539926903e+01 0.0 
7.959894480382e+00 -1.483563350928e+01 0.0 
7.138792279156e+00 -1.427465094140e+01 0.0 
7.062506792418e+00 -1.526615385482e+01 0.0 
6.240693558277e+00 -1.470508863040e+01 0.0 
6.316957575451e+00 -1.371212581281e+01 0.0 
5.418183007107e+00 -1.414253605022e+01 0.0 
5.494748364428e+00 -1.314886770603e+01 0.0 
1.756825565873e+01 -1.206433872514e+01 0.0 
1.837565773345e+01 -1.261356468266e+01 0.0 
1.749574831391e+01 -1.303769280014e+01 0.0 
1.830539187332e+01 -1.358828364284e+01 0.0 
1.742278925170e+01 -1.401367746928e+01 0.0 
1.823303007798e+01 -1.456432294258e+01 0.0 
1.734941694138e+01 -1.499213734361e+01 0.0 
1.653760041637e+01 -1.443920312098e+01 0.0 
3.056237977307e+01 -1.487132260174e+01 0.0 
1.866469084762e+01 -8.742953000418e+00 0.0 
1.953669694916e+01 -8.326038909849e+00 0.0 
1.874194303780e+01 -7.780688158966e+00 0.0 
1.961032016741e+01 -7.366854697285e+00 0.0 
1.881715755159e+01 -6.821102209649e+00 0.0 
1.968369797150e+01 -6.407747217358e+00 0.0 
1.889237123259e+01 -5.858375520026e+00 0.0 
1.802038875366e+01 -6.276202618170e+00 0.0 
1.809793837984e+01 -5.307629520489e+00 0.0 
1.721985207997e+01 -5.728242054488e+00 0.0 
1.729850893523e+01 -4.756990819347e+00 0.0 
1.641745664240e+01 -5.174636548624e+00 0.0 
2.495978509456e+01 -1.304406404294e+01 0.0 
1.911567814831e+01 -1.413854250293e+01 0.0 
1.904387332608e+01 -1.511463127723e+01 0.0 
1.992115934240e+01 -1.468788025898e+01 0.0 
7.013706899628e+00 -4.812582868662e+00 0.0 
5.342091874585e+00 -1.513658157269e+01 0.0 
1.139098043784e+01 -1.509488509480e+01 0.0 
1.228151810610e+01 -1.465617481983e+01 0.0 
1.646373110164e+01 -1.541993323337e+01 0.0 
5.293328636712e+00 -4.678385108584e+00 0.0 
1.975965862987e+01 -5.448124345648e+00 0.0 
2.054318374236e+01 -5.992561293251e+00 0.0 
3.721453439063e+01 -1.533216152738e+01 0.0 
3.809302733893e+01 -1.489235527381e+01 0.0 
1.220852788900e+01 -1.565304565230e+01 0.0 
4.394120899730e+00 -5.108397613210e+00 0.0 
8.779354620288e+00 -1.539524721159e+01 0.0 
1.817791047702e+01 -4.338570146253e+00 0.0 
4.518860013839e+00 -1.457343189307e+01 0.0 
4.442712140414e+00 -1.556841391069e+01 0.0 
8.115343466391e+00 -1.285760324283e+01 0.0 
1.985334703171e+01 -1.566478400426e+01 0.0 
2.071953850276e+01 -1.522074243119e+01 0.0 
1.634012953883e+01 -6.154777738301e+00 0.0 
1.553479994708e+01 -5.593730508879e+00 0.0 
1.561265946942e+01 -4.617761762647e+00 0.0 
1.470674212978e+01 -5.064576488228e+00 0.0 
1.464498299883e+01 -6.026514471420e+00 0.0 
1.383271561817e+01 -5.467796261169e+00 0.0 
1.389241253067e+01 -4.504338666645e+00 0.0 
1.301868735463e+01 -4.907185188626e+00 0.0 
1.294514184846e+01 -5.888160903592e+00 0.0 
1.212955968622e+01 -5.328262335277e+00 0.0 
1.220721122383e+01 -4.341264976687e+00 0.0 
1.131324345897e+01 -4.766773516508e+00 0.0 
5.266597955397e+00 -1.613148974258e+01 0.0 
1.737805990867e+01 -3.786677807525e+00 0.0 
3.078438094513e+01 -1.203225297748e+01 0.0 
1.131569882285e+01 -1.608511932110e+01 0.0 
1.728478341782e+01 -1.596017432313e+01 0.0 
3.803465906019e+01 -1.587509751228e+01 0.0 
3.891681276677e+01 -1.543395196905e+01 0.0 
3.897340985302e+01 -1.444710288980e+01 0.0 
3.980095968193e+01 -1.499059496613e+01 0.0 
3.974334598189e+01 -1.597921884150e+01 0.0 
4.062964983717e+01 -1.553518690417e+01 0.0 
4.068729602479e+01 -1.454434445295e+01 0.0 
4.151772679790e+01 -1.508974196007e+01 0.0 
4.157505195739e+01 -1.409694289912e+01 0.0 
4.240699932656e+01 -1.464347955968e+01 0.0 
4.234898051011e+01 -1.563721375790e+01 0.0 
4.323934606035e+01 -1.519082036405e+01 0.0 
4.329740528208e+01 -1.419587509788e+01 0.0 
4.413056841369e+01 -1.474359631875e+01 0.0 
4.418850110108e+01 -1.374786684042e+01 0.0 
4.502219770667e+01 -1.429605103525e+01 0.0 
4.496411937907e+01 -1.529215882720e+01 0.0 
4.490027319897e+00 -4.154167794594e+00 0.0 
1.565080385988e+01 -1.486411982419e+01 0.0 
1.557610691279e+01 -1.584855627870e+01 0.0 
4.195350646612e+00 -8.089117689096e+00 0.0 
4.124027797830e+00 -9.082831955007e+00 0.0 
4.917944318925e+00 -9.643530901533e+00 0.0 
4.020105689502e+00 -1.007439673661e+01 0.0 
4.587185899277e+01 -1.484039992728e+01 0.0 
4.580078661551e+01 -1.584043391042e+01 0.0 
2.061956522375e+01 -5.046701343981e+00 0.0 
2.139572955529e+01 -5.579553449826e+00 0.0 
3.715344357292e+01 -1.631485124583e+01 0.0 
3.618886196443e+00 -1.500471207167e+01 0.0 
3.695606940204e+00 -1.400939692294e+01 0.0 
2.438890661143e+01 -9.686110599723e+00 0.0 
2.523267572778e+01 -9.276766000622e+00 0.0 
2.446094171539e+01 -8.751904591412e+00 0.0 
2.529089822738e+01 -8.321495612547e+00 0.0 
2.606882688827e+01 -8.864724051119e+00 0.0 
2.452116646430e+01 -7.792756462004e+00 0.0 
1.235543269617e+01 -1.365845617339e+01 0.0 
4.318116874181e+01 -1.618567469992e+01 0.0 
7.835066111909e+00 -5.376366223896e+00 0.0 
7.905687335704e+00 -4.382539065697e+00 0.0 
3.542640009567e+00 -1.600035116542e+01 0.0 
1.572431503071e+01 -1.388358386695e+01 0.0 
2.574684696680e+01 -1.357896141127e+01 0.0 
2.488842657651e+01 -1.399674354505e+01 0.0 
2.568301775611e+01 -1.453552048595e+01 0.0 
2.481535572009e+01 -1.495542756508e+01 0.0 
2.561729699688e+01 -1.549784648532e+01 0.0 
2.474623061296e+01 -1.592058894178e+01 0.0 
2.394234041695e+01 -1.537572575827e+01 0.0 
2.065825452567e+01 -1.621899055217e+01 0.0 
2.387180528935e+01 -1.634552264687e+01 0.0 
4.585364400844e+01 -1.383912334080e+01 0.0 
1.998744432052e+01 -1.370317155541e+01 0.0 
1.205356951443e+01 -6.313580285498e+00 0.0 
5.396543905849e+00 -3.731818611283e+00 0.0 
1.139652573295e+01 -3.745819399350e+00 0.0 
3.574124306703e+00 -4.551456826011e+00 0.0 
3.494140761930e+00 -5.539787055649e+00 0.0 
1.213651452413e+01 -1.664505033022e+01 0.0 
2.555045568519e+01 -1.646529356744e+01 0.0 
2.641671114986e+01 -1.603899382371e+01 0.0 
2.612920721894e+01 -7.906435260873e+00 0.0 
2.690339829698e+01 -8.456969591431e+00 0.0 
1.978024383368e+01 -1.664410216353e+01 0.0 
3.732829979082e+01 -1.336926601859e+01 0.0 
4.074336584605e+01 -1.355133328401e+01 0.0 
4.163204691081e+01 -1.310280943992e+01 0.0 
3.773826114429e+00 -3.493444309145e+00 0.0 
1.228783001032e+01 -3.374822835872e+00 0.0 
4.057110462520e+01 -1.652588478000e+01 0.0 
2.132535497898e+01 -6.523623360525e+00 0.0 
2.216932532211e+01 -6.110044769206e+00 0.0 
1.825781152128e+01 -3.370146817147e+00 0.0 
1.745679445888e+01 -2.812942552063e+00 0.0 
4.666517057280e+01 -1.539981381543e+01 0.0 
4.660575894464e+01 -1.639014410186e+01 0.0 
4.838230979954e+00 -1.063643436446e+01 0.0 
3.938942630206e+00 -1.106778981745e+01 0.0 
1.302967218620e+01 -1.621373452436e+01 0.0 
1.049548003190e+01 -4.204825123240e+00 0.0 
4.573571907195e+01 -1.683820511148e+01 0.0 
1.483686335807e+01 -1.430849689310e+01 0.0 
1.490982658890e+01 -1.332679386284e+01 0.0 
3.190805600162e+00 -9.510968358545e+00 0.0 
2.146625721848e+01 -4.642437303115e+00 0.0 
2.069866208266e+01 -4.111852942193e+00 0.0 
1.286859345584e+01 -6.873252723348e+00 0.0 
1.041794493184e+01 -5.194814260291e+00 0.0 
2.671081808965e+00 -4.976806516331e+00 0.0 
1.295786792925e+01 -1.720506531799e+01 0.0 
3.968438206511e+01 -1.696869067241e+01 0.0 
2.308550456051e+01 -1.579963151273e+01 0.0 
2.315593682844e+01 -1.482967445235e+01 0.0 
2.299471449450e+01 -1.677069968132e+01 0.0 
1.057344714696e+01 -3.214252277840e+00 0.0 
1.124057603753e+01 -1.707713739755e+01 0.0 
2.718402535754e+00 -1.543629882103e+01 0.0 
2.638549692805e+01 -1.696744916809e+01 0.0 
2.723416349007e+01 -1.658104204545e+01 0.0 
2.210193351704e+01 -7.046769643417e+00 0.0 
2.295180925161e+01 -6.657397605239e+00 0.0 
2.301355235833e+01 -5.709111896800e+00 0.0 
2.379052718281e+01 -6.254965406962e+00 0.0 
3.243528601237e+01 -1.214181853533e+01 0.0 
2.287977995457e+01 -7.583722368300e+00 0.0 
2.999876029544e+01 -1.150837653096e+01 0.0 
3.084435366963e+01 -1.109693775882e+01 0.0 
3.006650579669e+01 -1.057778994262e+01 0.0 
2.683802665066e+01 -9.386863216633e+00 0.0 
2.768641973621e+01 -8.988883915666e+00 0.0 
2.040296980397e+01 -7.903629133404e+00 0.0 
1.925235024054e+01 -1.218872783130e+01 0.0 
5.735667000424e+00 -1.020577277283e+01 0.0 
6.396559909872e+00 -1.272326295703e+01 0.0 
1.161199420714e+01 -1.212812778229e+01 0.0 
4.229046132615e+01 -1.663084237572e+01 0.0 
4.312275399692e+01 -1.718087491556e+01 0.0 
4.335502068163e+01 -1.320039231514e+01 0.0 
4.424630298089e+01 -1.275160688731e+01 0.0 
7.090116643816e+00 -3.818998061530e+00 0.0 
7.989472176569e+00 -3.389238711200e+00 0.0 
9.085824861778e+00 -1.144036167408e+01 0.0 
1.041972423731e+01 -1.651614080893e+01 0.0 
3.797525112640e+01 -1.686052038746e+01 0.0 
3.709114253394e+01 -1.730125999865e+01 0.0 
3.626966748340e+01 -1.675477052919e+01 0.0 
1.385164591440e+01 -1.677597757552e+01 0.0 
1.787152588784e+01 -8.198993896093e+00 0.0 
1.668849729812e+01 -1.248560611628e+01 0.0 
1.659546177905e+01 -3.232482605530e+00 0.0 
2.332214717345e+01 -1.292598167641e+01 0.0 
7.168238450786e+00 -2.824711686516e+00 0.0 
2.894878403906e+01 -1.475427524446e+01 0.0 
2.646763248247e+00 -1.643270107952e+01 0.0 
3.467431944285e+00 -1.699648837348e+01 0.0 
2.059475877282e+01 -1.719473628526e+01 0.0 
3.333868355437e+01 -1.080596971682e+01 0.0 
2.246451062637e+01 -1.334557761546e+01 0.0 
2.167821896388e+01 -1.280847834858e+01 0.0 
3.089653185767e+01 -1.017198487212e+01 0.0 
3.012604365669e+01 -9.657298805968e+00 0.0 
2.929627299435e+01 -1.006100135274e+01 0.0 
2.936201435219e+01 -9.136748899251e+00 0.0 
1.198219052702e+01 -7.291887238230e+00 0.0 
1.116702076035e+01 -6.731976101053e+00 0.0 
2.551388807505e+01 -1.746927036981e+01 0.0 
2.378639090370e+01 -1.728678807149e+01 0.0 
2.718543627188e+01 -1.748668016909e+01 0.0 
2.804681050301e+01 -1.712626668293e+01 0.0 
1.970737034667e+01 -1.762317646822e+01 0.0 
1.889535776135e+01 -1.707158098231e+01 0.0 
2.593777711283e+00 -5.971157087874e+00 0.0 
2.773468281110e+01 -8.067164273938e+00 0.0 
4.051205884347e+01 -1.751819982458e+01 0.0 
3.166903145421e+01 -1.068032992414e+01 0.0 
1.033042452886e+01 -1.748285844336e+01 0.0 
9.519274604626e+00 -1.694349240233e+01 0.0 
1.668308673328e+01 -2.255861778986e+00 0.0 
1.570531902832e+01 -2.676795860126e+00 0.0 
4.655826903379e+01 -1.736656245706e+01 0.0 
2.384148070773e+01 -5.328744256413e+00 0.0 
2.460255123641e+01 -5.852182672816e+00 0.0 
2.306638135119e+01 -4.798935440613e+00 0.0 
8.467720450578e-01 -1.849576263072e+01 0.0 
4.849657322345e+01 -1.084860705506e+01 0.0 
2.565860899507e+00 -1.742859793981e+01 0.0 
2.764418872564e+01 -9.927142821799e+00 0.0 
4.565165880064e+01 -1.785336695404e+01 0.0 
2.162231831329e+01 -1.376528337468e+01 0.0 
2.360646352969e+01 -9.136041963102e+00 0.0 
1.392738739903e+01 -1.578285505772e+01 0.0 
4.756405947478e+01 -1.683706841809e+01 0.0 
4.740895034054e+01 -1.793766756892e+01 0.0 
4.080779328826e+01 -1.257387192544e+01 0.0 
4.168907939671e+01 -1.210739129181e+01 0.0 
3.991197722154e+01 -1.300815793917e+01 0.0 
1.905536506762e+01 -3.940076697685e+00 0.0 
1.923879596617e+01 -2.875000734166e+00 0.0 
4.401386745746e+01 -1.673483229438e+01 0.0 
4.247233362525e+00 -7.094581653070e+00 0.0 
3.286051630211e+00 -7.635300020553e+00 0.0 
9.609533347623e+00 -4.594311677967e+00 0.0 
9.523554636369e+00 -5.595597029530e+00 0.0 
5.660336628893e+00 -1.119290329628e+01 0.0 
6.558070063295e+00 -1.076385809362e+01 0.0 
2.809866407414e+01 -1.518037766799e+01 0.0 
2.888868674504e+01 -1.570360690070e+01 0.0 
2.654431550819e+01 -1.411217777162e+01 0.0 
1.402158265969e+01 -1.375404617952e+01 0.0 
1.409592494026e+01 -1.277071998942e+01 0.0 
1.499355196178e+01 -1.235270737023e+01 0.0 
4.221535326155e+01 -1.759335617494e+01 0.0 
4.305583287033e+01 -1.822663146802e+01 0.0 
1.280748808359e+01 -7.834332838285e+00 0.0 
1.368988389326e+01 -7.420529606172e+00 0.0 
1.110091796060e+01 -7.683966794328e+00 0.0 
3.963446145980e+01 -1.794331310122e+01 0.0 
3.423932362213e+00 -1.796415590455e+01 0.0 
4.280814572302e+00 -1.752272834860e+01 0.0 
8.050136380041e+00 -2.421582378631e+00 0.0 
8.888674091650e+00 -2.984264211327e+00 0.0 
2.152839430898e+01 -3.732609965436e+00 0.0 
2.077799585292e+01 -3.183896021866e+00 0.0 
3.618719395821e+01 -1.770276572576e+01 0.0 
3.538165138340e+01 -1.718709995539e+01 0.0 
3.702925326420e+01 -1.828844288807e+01 0.0 
1.756739438711e+00 -5.353284859169e+00 0.0 
2.233710191104e+01 -1.527265621324e+01 0.0 
1.389483555057e+01 -1.771797164730e+01 0.0 
1.475634224300e+01 -1.728357428390e+01 0.0 
1.298797563052e+01 -1.825968924755e+01 0.0 
2.145331271866e+01 -1.673705379077e+01 0.0 
2.133282821169e+01 -1.769400773673e+01 0.0 
2.292139194136e+01 -1.774915400288e+01 0.0 
1.750750053243e+01 -1.861475593469e+00 0.0 
4.830478841772e+01 -1.752611802221e+01 0.0 
4.341203507805e+01 -1.220326745522e+01 0.0 
1.685254151866e+01 -1.443085301632e+00 0.0 
4.431538535165e+01 -1.171841387375e+01 0.0 
4.511308610496e+01 -1.229557320599e+01 0.0 
4.510133242889e+01 -1.123680627466e+01 0.0 
1.846818030617e+00 -4.410877617069e+00 0.0 
3.995468694584e+01 -1.186571542989e+01 0.0 
3.901387459804e+01 -1.242507616755e+01 0.0 
8.966735877533e+00 -1.837818700423e+00 0.0 
4.049310011091e+01 -1.848269508791e+01 0.0 
7.278862053803e+00 -1.918523922691e+00 0.0 
6.429715522129e+00 -2.316676521184e+00 0.0 
9.443505505022e+00 -1.792198868094e+01 0.0 
8.620386951051e+00 -1.737590365556e+01 0.0 
8.571868171503e+00 -1.834436667826e+01 0.0 
7.758629848526e+00 -1.775677907213e+01 0.0 
7.806648388584e+00 -1.680761266021e+01 0.0 
6.908555145436e+00 -1.723746463044e+01 0.0 
4.251709122090e+01 -1.156937480156e+01 0.0 
6.931136405615e+00 -1.832465719263e+01 0.0 
6.015545461353e+00 -1.768865355295e+01 0.0 
5.960535926343e+00 -1.872011001764e+01 0.0 
3.023253444786e+01 -8.761960642196e+00 0.0 
2.454622702599e+01 -6.749421992767e+00 0.0 
2.537499741604e+01 -6.347634963783e+00 0.0 
2.544077378460e+01 -5.431358513649e+00 0.0 
2.801367161747e+01 -1.820907270221e+01 0.0 
2.884507806914e+01 -1.762032095326e+01 0.0 
1.821474531936e+00 -1.588901260460e+01 0.0 
1.821006262604e+00 -1.489370287756e+01 0.0 
4.599962488908e+01 -1.176478780598e+01 0.0 
4.705457470007e+01 -1.172182804229e+01 0.0 
4.667668314802e+01 -1.263464558483e+01 0.0 
4.759648056504e+01 -1.252380987933e+01 0.0 
4.728041618103e+01 -1.341928568376e+01 0.0 
4.825209352360e+01 -1.330491640804e+01 0.0 
4.778118233428e+01 -1.420151961695e+01 0.0 
2.388192727579e+01 -1.826934810142e+01 0.0 
2.381714684947e+01 -4.385917965223e+00 0.0 
3.172733219247e+01 -9.758744265248e+00 0.0 
1.882012070658e+01 -1.805540597212e+01 0.0 
1.805667505243e+01 -1.742221226236e+01 0.0 
2.852599958080e+01 -8.597196079481e+00 0.0 
2.856486123437e+01 -7.661382718527e+00 0.0 
1.111792842875e+01 -1.818223852980e+01 0.0 
2.203322722466e+01 -7.986646678802e+00 0.0 
3.955703676900e+01 -1.903246763601e+01 0.0 
1.944842206513e+01 -8.038750575182e-01 0.0 
1.909882767783e+01 -1.746322740933e+00 0.0 
2.281147422941e+01 -8.525912918334e+00 0.0 
2.850633001468e+01 -9.533271335986e+00 0.0 
2.532883344309e+01 -7.308951659710e+00 0.0 
2.620475466461e+01 -6.979208585400e+00 0.0 
1.396278270396e+01 -1.475095389807e+01 0.0 
9.791001166724e+00 -2.554159793552e+00 0.0 
2.229293380421e+01 -4.269762271052e+00 0.0 
4.677238984118e+01 -1.430071795514e+01 0.0 
2.228658385918e+01 -3.344747535984e+00 0.0 
8.940223674553e-01 -1.543595733415e+01 0.0 
2.118566862474e+01 -8.435876987696e+00 0.0 
2.678325936437e+01 -1.032621195706e+01 0.0 
2.223400220487e+01 -5.179046761770e+00 0.0 
2.375370625384e+01 -7.251580562134e+00 0.0 
3.156971327386e+01 -1.255534750737e+01 0.0 
3.328226391312e+01 -1.172914813316e+01 0.0 
3.250948774219e+01 -1.120157009348e+01 0.0 
2.032993445717e+01 -8.867880112202e+00 0.0 
2.697226974856e+01 -7.536633082045e+00 0.0 
2.707377810386e+01 -6.590835263295e+00 0.0 
2.914099246827e+01 -1.191678458549e+01 0.0 
3.544824072239e+01 -1.621126558525e+01 0.0 
3.456511855436e+01 -1.665054783843e+01 0.0 
3.448395810225e+01 -1.759117813016e+01 0.0 
3.368378673938e+01 -1.708037781328e+01 0.0 
3.375560452567e+01 -1.610973066913e+01 0.0 
3.288001547988e+01 -1.654324255651e+01 0.0 
3.282475929147e+01 -1.749725654692e+01 0.0 
3.199880906313e+01 -1.697294088625e+01 0.0 
3.197001272932e+01 -1.811667776864e+01 0.0 
3.111884713021e+01 -1.742166785755e+01 0.0 
3.120418962865e+01 -1.642155709385e+01 0.0 
3.034666704371e+01 -1.683123833816e+01 0.0 
3.026224379976e+01 -1.772592851714e+01 0.0 
3.046632362943e+01 -1.582232843075e+01 0.0 
1.961344017324e+01 -1.857459447985e+01 0.0 
2.274975894774e+01 -9.532738811922e+00 0.0 
1.833923246887e+01 -2.396746883672e+00 0.0 
1.988859500848e+01 -2.249244376594e+00 0.0 
2.758045562861e+01 -1.086434261689e+01 0.0 
3.247300178163e+01 -1.909930104252e+01 0.0 
3.461947482503e+01 -1.911879848019e+01 0.0 
2.047161538662e+01 -6.941478180358e+00 0.0 
2.750230940214e+01 -1.915490590764e+01 0.0 
3.165081350803e+01 -1.161860780120e+01 0.0 
1.897456727641e+01 -4.889634688522e+00 0.0 
2.549338539756e+01 -1.914858252089e+01 0.0 
3.462873135081e+01 -1.567482276144e+01 0.0 
3.384432415243e+01 -1.512280684518e+01 0.0 
3.471433767690e+01 -1.469086942990e+01 0.0 
3.651470373046e+01 -1.918207952149e+01 0.0 
3.901742690249e+01 -1.345028556517e+01 0.0 
2.153224102692e+01 -1.920169709333e+01 0.0 
1.918382939341e+01 -1.316226275662e+01 0.0 
2.005389162382e+01 -1.271962165174e+01 0.0 
2.011472087878e+01 -1.175029352900e+01 0.0 
3.210679478412e+01 -1.598038618242e+01 0.0 
1.752175226543e+01 -1.914713022656e+01 0.0 
1.696897240059e+01 -1.832772588765e+01 0.0 
1.599682523337e+01 -1.832599992024e+01 0.0 
1.644507199462e+01 -1.743697981535e+01 0.0 
1.549987712903e+01 -1.915192375101e+01 0.0 
3.050250861901e+01 -1.918943550234e+01 0.0 
2.949944061527e+01 -1.922950455235e+01 0.0 
1.375892575273e+01 -6.447160534926e+00 0.0 
1.457223670180e+01 -7.006709243857e+00 0.0 
1.450818793236e+01 -7.965943451779e+00 0.0 
1.538804712402e+01 -7.553409623699e+00 0.0 
1.545817644768e+01 -6.580929593419e+00 0.0 
1.626506893751e+01 -7.129032608911e+00 0.0 
1.619833811522e+01 -8.086588580887e+00 0.0 
1.714448609609e+01 -6.697429609777e+00 0.0 
2.887616543568e+01 -1.668015232137e+01 0.0 
1.349814589130e+01 -1.918225301544e+01 0.0 
1.153887772210e+01 -1.311384581217e+01 0.0 
1.242708159886e+01 -1.267046795531e+01 0.0 
1.249799674267e+01 -1.169005616014e+01 0.0 
6.631723893693e+00 -9.774184881867e+00 0.0 
7.451471631867e+00 -1.033148796006e+01 0.0 
7.377795355458e+00 -1.132196345268e+01 0.0 
5.810931797536e+00 -9.211654212252e+00 0.0 
2.402683899133e+01 -1.441378562320e+01 0.0 
1.249768692036e+01 -1.917388426624e+01 0.0 
1.580373499437e+01 -1.290751860664e+01 0.0 
8.344650507834e+00 -9.898403995170e+00 0.0 
3.750622115305e+01 -1.086526401533e+01 0.0 
3.699391251667e+01 -1.171695900794e+01 0.0 
3.606517829518e+01 -1.173717504500e+01 0.0 
3.650257641795e+01 -1.270047380221e+01 0.0 
3.808951488918e+01 -1.183518714175e+01 0.0 
4.760380962420e+00 -1.162484888315e+01 0.0 
3.861210370848e+00 -1.205657631736e+01 0.0 
3.038284309476e+00 -1.149851280664e+01 0.0 
2.961598794889e+00 -1.248856794980e+01 0.0 
2.138953225512e+00 -1.193212674534e+01 0.0 
2.227383593457e+00 -1.096258903918e+01 0.0 
2.043265419276e+00 -1.292158472959e+01 0.0 
1.252449446028e+00 -1.225502002753e+01 0.0 
3.949985210740e+01 -1.086594001795e+01 0.0 
1.453499444792e+01 -8.768805922472e-01 0.0 
1.403518950933e+01 -1.749965556633e+00 0.0 
1.300715031023e+01 -1.714737233040e+00 0.0 
1.350929389899e+01 -2.527443911291e+00 0.0 
1.449600910711e+01 -2.595486162864e+00 0.0 
1.395693872901e+01 -3.484211041558e+00 0.0 
1.495105865208e+01 -3.364609636216e+00 0.0 
1.508822528740e+01 -1.766586020494e+00 0.0 
1.250223858430e+01 -8.634590186802e-01 0.0 
1.200279523409e+01 -1.709044504992e+00 0.0 
1.150086239419e+01 -8.592789190668e-01 0.0 
1.101482754194e+01 -1.677730591922e+00 0.0 
1.148018564526e+01 -2.659323866909e+00 0.0 
8.800552119754e+00 -3.989875954728e+00 0.0 
3.452790439430e+00 -1.901136170646e+01 0.0 
8.658451825200e-01 -9.503462241795e+00 0.0 
1.694787786797e+00 -9.000589234502e+00 0.0 
1.703436717094e+00 -8.038819004041e+00 0.0 
2.594197971110e+00 -8.563955242845e+00 0.0 
1.630513735412e+00 -9.907244747511e+00 0.0 
8.566859292791e-01 -7.512203837972e+00 0.0 
1.685461277022e+00 -7.164280248030e+00 0.0 
2.506394468801e+00 -8.623386730818e-01 0.0 
2.007475081581e+00 -1.727729545205e+00 0.0 
9.211534699767e-01 -1.628791366312e+00 0.0 
1.500000000020e+00 -2.598063549486e+00 0.0 
2.482078929963e+00 -2.553580088725e+00 0.0 
2.999795253092e+00 -1.732169015019e+00 0.0 
3.999712607169e+00 -1.728832897453e+00 0.0 
4.499752199340e+00 -8.656478679175e-01 0.0 
4.964377774841e+00 -1.730129617941e+00 0.0 
4.425017908337e+00 -2.597541756243e+00 0.0 
5.446573195014e+00 -8.410144840023e-01 0.0 
4.915722346614e+01 -1.550640962770e+01 0.0 
4.826794919243e+01 -1.600000000000e+01 0.0 
1.053139533193e+01 -1.911782884365e+01 0.0 
4.156049861949e+01 -1.095160998589e+01 0.0 
9.494526624416e+00 -8.650570090219e-01 0.0 
4.555762166964e+01 -1.897098103585e+01 0.0 
4.250656411371e+01 -1.914387356218e+01 0.0 
4.350906466345e+01 -1.917234727395e+01 0.0 
8.759665722424e-01 -1.746422130609e+01 0.0 
1.698936011838e+00 -1.795012186674e+01 0.0 
4.742476811029e+01 -1.900090177972e+01 0.0 
7.749196752349e+00 -6.368049313489e+00 0.0 
3.361572113416e+01 -1.798765193915e+01 0.0 
4.484660149212e+01 -1.728661231383e+01 0.0 
1.984038172228e+01 -4.502575320116e+00 0.0 
1.035080352627e+01 -6.166639575753e+00 0.0 
2.753558010652e+00 -1.444909521181e+01 0.0 
7.217069543032e+00 -1.328635391078e+01 0.0 
4.364336727739e+00 -1.655585677381e+01 0.0 
4.595208426108e+00 -1.357919665443e+01 0.0 
6.164967006980e+00 -1.569873454630e+01 0.0 
1.487855768353e+01 -1.826523774028e+01 0.0 
2.791876456372e+00 -4.019632415181e+00 0.0 
4.246464893515e+01 -1.364898659620e+01 0.0 
4.503855590351e+01 -1.329552780944e+01 0.0 
4.407239109604e+01 -1.573900004093e+01 0.0 
5.141054449252e+00 -6.664290382472e+00 0.0 
3.141083947149e+00 -1.055790764912e+01 0.0 
6.196463198741e+00 -4.256497932609e+00 0.0 
2.599618716181e+01 -1.836893455464e+01 0.0 
2.923057372337e+01 -1.098461757645e+01 0.0 
1.168343877486e+01 -1.114079645041e+01 0.0 
6.706222096238e+00 -8.780364234441e+00 0.0 
8.567858614669e+00 -6.943121440850e+00 0.0 
1.123755132901e+01 -5.753525820030e+00 0.0 
2.353456234423e+01 -1.008536320953e+01 0.0 
9.162073319168e+00 -1.045593739109e+01 0.0 
9.676343469685e+00 -1.496493008366e+01 0.0 
4.490637882905e+01 -1.628778970202e+01 0.0 
7.398129387772e+00 -9.639977982323e-01 0.0 
1.049641705805e+01 -1.552503975272e+01 0.0 
9.010356286268e+00 -1.242805042052e+01 0.0 
3.985573925497e+01 -1.399863651620e+01 0.0 
1.816196318262e+01 -1.554066497931e+01 0.0 
1.306332244168e+01 -3.963646550326e+00 0.0 
4.145850903932e+01 -1.608094559275e+01 0.0 
3.794664933633e+01 -1.779020121986e+01 0.0 
3.819614412903e+01 -1.290749321016e+01 0.0 
6.270014188119e+00 -3.255093186826e+00 0.0 
4.251165370388e+01 -1.263870364997e+01 0.0 
1.207347709171e+01 -1.763942826023e+01 0.0 
3.633240829927e+01 -1.577330481104e+01 0.0 
4.319052668832e+00 -6.101812561904e+00 0.0 
1.676492415806e+01 -1.151547901392e+01 0.0 
2.594059220037e+01 -1.074225223009e+01 0.0 
3.340750911501e+01 -9.898764354137e+00 0.0 
4.397619591281e+01 -1.769773736461e+01 0.0 
2.175611595028e+01 -1.185718747128e+01 0.0 
1.641818733106e+01 -1.640685203215e+01 0.0 
1.661211421753e+01 -1.346121366338e+01 0.0 
3.428853504935e+00 -6.551993389271e+00 0.0 
8.700728832502e+00 -1.638460872825e+01 0.0 
1.931369795309e+01 -1.121629383702e+01 0.0 
4.139798872363e+01 -1.706922153459e+01 0.0 
2.647837478700e+01 -1.507353829290e+01 0.0 
1.779469616424e+01 -9.161615782908e+00 0.0 
3.885879219319e+01 -1.642026488918e+01 0.0 
1.338194936770e+01 -1.125916521471e+01 0.0 
1.897071181111e+01 -1.609204322578e+01 0.0 
2.844308548793e+01 -1.046221003096e+01 0.0 
2.659854702194e+01 -1.316109415760e+01 0.0 
2.979604503271e+01 -1.433296157755e+01 0.0 
2.417694041347e+01 -1.251231397779e+01 0.0 
1.807401327411e+00 -1.388891148480e+01 0.0 
9.599810618782e+00 -1.595439365034e+01 0.0 
1.652144692160e+01 -4.205392788472e+00 0.0 
2.367839450246e+01 -8.188385218643e+00 0.0 
3.814894930468e+01 -1.390748338767e+01 0.0 
2.466448215774e+01 -1.685878545680e+01 0.0 
4.134044524611e+01 -1.806610045954e+01 0.0 
2.600511411958e+01 -9.801774120648e+00 0.0 
7.882158050716e+00 -1.582364037353e+01 0.0 
3.881607873422e+01 -1.737970515013e+01 0.0 
8.270182347708e+00 -1.088622154920e+01 0.0 
8.672520392520e-01 -4.532984309881e+00 0.0 
1.993447205337e+01 -3.579061902667e+00 0.0 
1.794616079549e+01 -7.238038888498e+00 0.0 
2.097277068165e+01 -1.132450168636e+01 0.0 
8.194803300681e+00 -1.187214224265e+01 0.0 
3.522279404911e+01 -1.823342818178e+01 0.0 
6.984481050295e+00 -1.625271465557e+01 0.0 
1.309433007797e+01 -1.521718594215e+01 0.0 
2.150246167611e+01 -1.885399038185e+00 0.0 
3.250689370209e+01 -1.028789870535e+01 0.0 
6.085886272238e+00 -1.668342132851e+01 0.0 
1.588455661727e+01 -1.193498985921e+01 0.0 
1.809323400821e+01 -1.651110084195e+01 0.0 
1.348885082381e+00 -1.136065576512e+01 0.0 
2.497670221995e+01 -1.834631276173e+01 0.0 
2.937062818424e+01 -8.233711194470e+00 0.0 
5.185823744469e+00 -1.711566910207e+01 0.0 
1.477497877209e+01 -1.530177014512e+01 0.0 
2.125346158933e+01 -7.473003997367e+00 0.0 
4.751561118290e+01 -1.084897772632e+01 0.0 
5.056026576843e+00 -1.825750475525e+01 0.0 
1.473948554523e+01 -1.634577436309e+01 0.0 
2.410566630936e+01 -1.345970002612e+01 0.0 
1.507337507513e+01 -1.138527895328e+01 0.0 
3.189857338687e+01 -8.887781229006e+00 0.0 
7.298712468334e+00 -1.230231046246e+01 0.0 
2.738235495295e+01 -1.368931690364e+01 0.0 
3.750141041969e+01 -1.920449893070e+01 0.0 
1.557271965640e+01 -1.683317951731e+01 0.0 
3.393731848929e+01 -1.413034777044e+01 0.0 
6.482156824153e+00 -1.174575135362e+01 0.0 
2.077971718439e+01 -1.421279621836e+01 0.0 
3.455084320178e+00 -2.562590040585e+00 0.0 
3.099056096250e+01 -9.270280416035e+00 0.0 
5.580176125418e+00 -1.217387969259e+01 0.0 
1.707247630389e+01 -7.660651981710e+00 0.0 
1.418658814174e+01 -1.180390575393e+01 0.0 
2.049103025389e+01 -1.811296706038e+01 0.0 
4.680386172316e+00 -1.260396879301e+01 0.0 
1.699679896554e+01 -8.624561788199e+00 0.0 
3.779470168555e+00 -1.303424899720e+01 0.0 
3.036589870126e+01 -7.879832518349e+00 0.0 
3.306993001774e+01 -1.457671062095e+01 0.0 
2.840150110165e+00 -1.346530088269e+01 0.0 
2.732011135052e+01 -1.464591214560e+01 0.0 
5.423639259568e+00 -2.659711955016e+00 0.0 
2.324455961696e+01 -1.387269388211e+01 0.0 
1.752768355571e+00 -1.693128613594e+01 0.0 
1.020244783051e+01 -8.076834012808e+00 0.0 
1.330873875224e+01 -1.222417528206e+01 0.0 
3.297727364880e+01 -1.555480372087e+01 0.0 
2.890929955439e+01 -6.868664170731e+00 0.0 
1.323294664622e+01 -1.320754260334e+01 0.0 
2.726532861246e+01 -1.560593120806e+01 0.0 
2.240020643398e+01 -1.429299177247e+01 0.0 
2.090445823633e+01 -1.228128621332e+01 0.0 
1.315809881502e+01 -1.420739326938e+01 0.0 
2.781328038068e+01 -7.181956082300e+00 0.0 
8.614200829057e+00 -5.936933226306e+00 0.0 
8.714765730069e+00 -4.979270529687e+00 0.0 
1.611881701099e+01 -9.041973294003e+00 0.0 
2.806830314340e+01 -1.614622947108e+01 0.0 
2.084435391396e+00 -3.385085422913e+00 0.0 
3.133211811152e+01 -1.542347619750e+01 0.0 
9.693114650768e+00 -3.590281506442e+00 0.0 
1.531883592202e+01 -8.504584946143e+00 0.0 
2.151589117094e+01 -1.578915763018e+01 0.0 
4.918943882696e+01 -1.355538828056e+01 0.0 
1.443236615188e+01 -8.918701794549e+00 0.0 
8.276250966452e-01 -5.537685192197e+00 0.0 
1.362790867918e+01 -8.374718262212e+00 0.0 
2.083767477370e+01 -1.324843956035e+01 0.0 
1.273834678703e+01 -8.790890389337e+00 0.0 
1.192275845670e+01 -8.242261327467e+00 0.0 
4.477236023583e+01 -1.824312396664e+01 0.0 
1.102989384254e+01 -8.649855800911e+00 0.0 
4.849096516045e+01 -1.917293752213e+01 0.0 
1.588996752238e+00 -1.910230934687e+01 0.0 
4.904245197583e+01 -1.159839008158e+01 0.0 
2.753852929608e+01 -5.782128488093e+00 0.0 
1.756133602833e+01 -8.306130313187e-01 0.0 
2.615423700951e+01 -6.153865090092e+00 0.0 
1.028818761294e+01 -7.122020845892e+00 0.0 
2.970818901196e+01 -1.527821347593e+01 0.0 
4.801461623449e+01 -1.164472570985e+01 0.0 
9.455722100419e+00 -6.546069291118e+00 0.0 
3.089099236677e+01 -1.835339328261e+01 0.0 
2.350000000013e+01 -1.920825896750e+01 0.0 
4.830620531887e+01 -1.506626155470e+01 0.0 
1.725381944701e+01 -1.688794487850e+01 0.0 
2.156246225273e+01 -1.475893794002e+01 0.0 
4.919319648787e+01 -1.742767505896e+01 0.0 
4.437935623576e+01 -1.077662927266e+01 0.0 
1.001520521978e+01 -1.652692675208e+00 0.0 
9.067160240050e-01 -1.441937727541e+01 0.0 
2.603365149390e+01 -4.755996613848e+00 0.0 
2.458344439002e+01 -4.873645517696e+00 0.0 
2.304312390142e+01 -3.836552768096e+00 0.0 
2.546923202198e+00 -6.902480355749e+00 0.0 
1.251534969393e+01 -2.490989965776e+00 0.0 
2.454061833377e+01 -3.933354231935e+00 0.0 
1.788186558740e+01 -1.827424884923e+01 0.0 
4.090785243552e+01 -1.166553231904e+01 0.0 
2.230128851568e+01 -1.623015738726e+01 0.0 
2.302362347568e+01 -2.916239960270e+00 0.0 
3.878119254461e+01 -1.830091164002e+01 0.0 
2.210081359958e+01 -1.829238229150e+01 0.0 
8.443704882233e+00 -1.921993252862e+01 0.0 
2.218405824691e+01 -1.724557581508e+01 0.0 
2.151157503963e+01 -2.790636689331e+00 0.0 
3.741658958955e+01 -1.250400191722e+01 0.0 
2.697247663737e+01 -1.838290202309e+01 0.0 
4.743362342862e+01 -1.585850773010e+01 0.0 
6.671345075358e+00 -1.924977576322e+01 0.0 
3.900825404537e+01 -1.157220003875e+01 0.0 
4.649692961375e+01 -1.836335837481e+01 0.0 
1.578831424832e+01 -3.678284023361e+00 0.0 
4.814208768888e+01 -1.841249298770e+01 0.0 
2.964123298315e+01 -1.625739458193e+01 0.0 
4.580760351902e+01 -1.284294554687e+01 0.0 
3.561520879615e+01 -1.245548941949e+01 0.0 
2.555418095658e+00 -1.841101588290e+01 0.0 
3.288468366144e+01 -1.834258164109e+01 0.0 
2.065894391445e+01 -2.240688571739e+00 0.0 
4.739171429915e+01 -1.496536413446e+01 0.0 
3.478086729185e+00 -8.576434653209e+00 0.0 
1.606010630246e+01 -1.588421807951e+00 0.0 
1.018329200594e+01 -1.834320874317e+01 0.0 
2.957213339430e+01 -1.720496954591e+01 0.0 
4.142712790164e+00 -1.837794506222e+01 0.0 
6.698721532573e-01 -2.499999999997e+00 0.0 
8.037039123140e+00 -1.571229354954e+00 0.0 
1.203541361428e+01 -1.847784298001e+01 0.0 
2.899968332038e+01 -1.848264722179e+01 0.0 
1.469229460948e+01 -4.219485753730e+00 0.0 
4.049590781957e+01 -1.932812501995e+01 0.0 
1.996211678340e+01 -1.506329754720e+00 0.0 
4.250588298353e+01 -1.067383247529e+01 0.0 
5.831497011152e+00 -1.635396227234e+00 0.0 
5.317606125670e+00 -1.923927974868e+01 0.0 
4.208546426993e+01 -1.842830665025e+01 0.0 
2.327553405011e+00 -9.459409929662e+00 0.0 
3.568351902251e+01 -1.096637218582e+01 0.0 
1.682104374890e+00 -6.231413350963e+00 0.0 
2.451812238018e+01 -1.766524914339e+01 0.0 
1.058003429638e+01 -2.391839617098e+00 0.0 
4.399988753123e+01 -1.851998776342e+01 0.0 
1.400000000010e+01 -1.852293523028e+01 0.0 
3.604719565984e+01 -1.850662876800e+01 0.0 
1.951297136734e+01 -1.938092349694e+01 0.0 
1.821365318472e+01 -1.531276353287e+00 0.0 
2.298031859732e+01 -1.854635324722e+01 0.0 
1.552168066204e+01 -1.764280741977e+01 0.0 
4.572957713638e+01 -1.073347898229e+01 0.0 
3.429637429624e+01 -1.838861552790e+01 0.0 
2.427434426052e+00 -7.705577451869e+00 0.0 
4.662792031485e+00 -3.359424455416e+00 0.0 
4.926794919243e+01 -1.926794919243e+01 0.0 
7.320508075690e-01 -7.320508075688e-01 0.0 
4.926794919243e+01 -1.073205080757e+01 0.0 
7.320508075705e-01 -1.926794919243e+01 0.0 
2.917460242467e+00 -3.202866455310e+00 0.0 
4.838200575963e+01 -1.232674147454e+01 0.0 
2.998445708009e+01 -1.854403752148e+01 0.0 
5.949940090766e-01 -1.152762038165e+01 0.0 
4.844763495759e+01 -1.678092548787e+01 0.0 
1.301685480160e+01 -3.170056592566e+00 0.0 
1.650046335855e+01 -6.731535384067e-01 0.0 
4.854881540991e+01 -1.405224059779e+01 0.0 
2.119545114693e+01 -1.846813384545e+01 0.0 
3.797852849897e+01 -1.857978513215e+01 0.0 
4.649823708745e+01 -1.338351810816e+01 0.0 
2.012685900976e+01 -2.889659035009e+00 0.0 
2.953271913273e+01 -1.791558075192e+01 0.0 
2.408509097292e+00 -1.021949208421e+01 0.0 
2.642589566221e+01 -1.773216561448e+01 0.0 
1.730010270775e+01 -1.763165076721e+01 0.0 
2.017406551304e+01 -8.513536440582e-01 0.0 
5.254761581934e-01 -1.249999999999e+01 0.0 
6.640448215642e+00 -1.545337834885e+00 0.0 
7.843361506349e+00 -1.852719839527e+01 0.0 
1.588442191088e+00 -1.066158564320e+01 0.0 
2.731250000000e+01 -4.420918367347e+00 0.0 
4.951086956522e+01 -4.500000000000e+00 0.0 
2.880770112393e+01 -5.415638864241e+00 0.0 
4.951086956522e+01 -5.500000000000e+00 0.0 
3.031250000000e+01 -6.420918367347e+00 0.0 
4.951250000000e+01 -6.500000000000e+00 0.0 
3.180701530612e+01 -7.414795918363e+00 0.0 
4.951250000000e+01 -7.500000000000e+00 0.0 
3.331250000000e+01 -8.420918367347e+00 0.0 
4.951470588234e+01 -8.500000000000e+00 0.0 
3.480610198624e+01 -9.413633635267e+00 0.0 
4.951470588234e+01 -9.500000000000e+00 0.0 

CELLS 2186 8744 
3 302 772 1048 
3 772 302 1050 
3 782 275 793 
3 895 660 1084 
3 662 722 888 
3 752 665 791 
3 282 704 706 
3 302 729 1050 
3 704 282 722 
3 655 890 1084 
3 274 849 850 
3 729 302 1064 
3 894 1046 1090 
3 711 842 932 
3 1046 308 1090 
3 301 895 1084 
3 710 281 851 
3 665 752 790 
3 289 709 1031 
3 709 289 969 
3 890 655 1043 
3 1020 266 1026 
3 747 1020 1026 
3 697 696 906 
3 396 552 841 
3 849 274 958 
3 111 82 1111 
3 741 267 983 
3 394 396 841 
3 906 696 1116 
3 646 856 858 
3 299 712 889 
3 782 793 1091 
3 19 287 762 
3 297 716 718 
3 725 66 1082 
3 66 725 1108 
3 744 293 788 
3 708 102 1061 
3 102 708 1122 
3 984 726 1010 
3 262 748 887 
3 1065 263 1069 
3 82 311 1111 
3 703 310 1060 
3 742 1065 1069 
3 856 646 859 
3 310 703 1086 
3 852 853 859 
3 842 711 1083 
3 304 747 984 
3 694 709 969 
3 472 1085 1103 
3 304 984 1010 
3 794 276 974 
3 1067 639 1112 
3 694 969 1038 
3 287 732 762 
3 555 883 1001 
3 890 301 1084 
3 261 1095 1136 
3 1075 701 1077 
3 521 549 755 
3 1085 858 1103 
3 866 685 1090 
3 747 304 1020 
3 1095 705 1136 
3 275 782 1055 
3 582 543 864 
3 271 730 796 
3 958 901 1012 
3 33 32 750 
3 741 983 1113 
3 4 5 876 
3 873 1067 1112 
3 713 278 964 
3 794 974 1123 
3 761 1066 1073 
3 883 555 1125 
3 1066 303 1073 
3 543 556 864 
3 281 710 1071 
3 266 772 1026 
3 772 266 1048 
3 722 662 934 
3 704 722 934 
3 733 958 1063 
3 18 19 762 
3 787 784 1032 
3 662 888 1071 
3 889 712 1062 
3 313 840 1111 
3 886 1057 1081 
3 1081 1057 1093 
3 279 33 750 
3 788 293 1118 
3 710 851 1083 
3 887 748 1096 
3 307 739 1036 
3 755 549 756 
3 888 722 1106 
3 308 866 1090 
3 469 1035 1059 
3 700 1075 1077 
3 590 588 766 
3 853 856 859 
3 893 894 1016 
3 659 886 1081 
3 261 852 859 
3 989 284 1108 
3 434 787 1032 
3 4 876 1127 
3 657 753 789 
3 624 940 978 
3 668 870 1094 
3 728 755 756 
3 523 521 755 
3 297 718 1076 
3 739 307 1131 
3 727 523 755 
3 758 688 1033 
3 311 313 1111 
3 886 659 1134 
3 523 727 766 
3 1078 977 1092 
3 743 993 1002 
3 870 668 1124 
3 993 268 1002 
3 278 713 1104 
3 690 1078 1092 
3 849 958 1012 
3 660 895 1086 
3 597 654 754 
3 268 726 1002 
3 716 297 1096 
3 894 651 1046 
3 733 901 958 
3 754 654 954 
3 698 826 1116 
3 630 746 754 
3 680 891 892 
3 730 271 1102 
3 932 842 1079 
3 539 511 760 
3 746 597 754 
3 726 268 1010 
3 654 792 954 
3 766 592 961 
3 282 706 1061 
3 753 388 789 
3 712 299 1100 
3 1047 1053 1131 
3 877 289 1031 
3 305 743 978 
3 826 698 835 
3 727 590 766 
3 762 733 1063 
3 729 263 1065 
3 1035 695 1059 
3 288 734 735 
3 749 388 753 
3 732 287 1016 
3 582 758 1033 
3 894 653 1016 
3 769 642 797 
3 284 989 1098 
3 1047 652 1053 
3 588 592 766 
3 940 305 978 
3 274 850 1147 
3 263 729 1064 
3 388 749 763 
3 511 562 760 
3 734 288 1122 
3 592 753 961 
3 743 305 993 
3 636 825 1030 
3 870 571 1094 
3 267 741 1056 
3 796 730 1080 
3 728 756 1050 
3 571 870 1110 
3 813 943 997 
3 746 630 984 
3 729 728 1050 
3 769 624 978 
3 753 657 961 
3 277 890 1043 
3 400 809 1019 
3 287 893 1016 
3 742 303 1066 
3 598 763 987 
3 784 809 1032 
3 81 112 751 
3 630 726 984 
3 986 658 990 
3 882 1014 1107 
3 897 290 1123 
3 395 320 802 
3 1017 376 1044 
3 506 986 990 
3 840 313 1089 
3 841 552 1079 
3 696 698 1116 
3 1027 918 1054 
3 764 335 792 
3 594 484 797 
3 401 395 802 
3 591 769 797 
3 642 769 978 
3 540 1000 1040 
3 825 674 1030 
3 751 285 752 
3 756 772 1050 
3 756 549 771 
3 654 764 792 
3 809 779 1019 
3 665 664 970 
3 658 757 976 
3 708 734 1122 
3 763 749 987 
3 454 976 1025 
3 714 924 1148 
3 800 401 802 
3 924 270 1148 
3 882 883 1014 
3 303 742 1069 
3 1027 670 1028 
3 774 401 800 
3 670 669 1028 
3 650 759 765 
3 476 857 929 
3 688 865 1033 
3 943 506 997 
3 642 594 797 
3 685 866 1098 
3 112 285 751 
3 559 589 765 
3 349 388 763 
3 747 746 984 
3 757 658 986 
3 725 989 1108 
3 1011 400 1019 
3 458 440 795 
3 506 990 997 
3 958 274 1063 
3 792 402 954 
3 801 802 998 
3 701 1075 1120 
3 349 763 770 
3 589 650 765 
3 319 591 767 
3 750 32 1104 
3 335 764 939 
3 808 351 947 
3 735 734 736 
3 864 556 1068 
3 591 768 769 
3 558 458 795 
3 664 798 899 
3 646 858 1085 
3 401 774 936 
3 484 767 797 
3 523 766 961 
3 774 613 936 
3 809 400 1032 
3 402 773 915 
3 269 723 1082 
3 599 808 947 
3 327 593 773 
3 657 789 920 
3 599 807 808 
3 441 457 798 
3 839 280 840 
3 353 350 770 
3 470 821 822 
3 801 1011 1019 
3 112 113 285 
3 591 317 768 
3 440 438 795 
3 514 559 765 
3 443 441 798 
3 322 319 767 
3 712 758 1062 
3 550 640 771 
3 599 806 807 
3 767 591 797 
3 839 840 841 
3 560 665 790 
3 470 822 824 
3 471 474 821 
3 756 771 772 
3 801 998 1011 
3 549 550 771 
3 436 353 770 
3 763 598 770 
3 560 664 665 
3 789 345 920 
3 689 759 761 
3 37 276 794 
3 39 290 793 
3 336 335 939 
3 457 440 458 
3 513 514 572 
3 328 327 773 
3 457 458 513 
3 470 471 821 
3 402 915 954 
3 891 680 1109 
3 795 598 987 
3 1000 656 1040 
3 689 572 759 
3 294 57 814 
3 513 458 514 
3 333 402 792 
3 560 464 664 
3 836 529 944 
3 350 349 770 
3 474 818 821 
3 593 484 594 
3 42 815 816 
3 438 436 598 
3 599 427 806 
3 573 572 689 
3 804 489 927 
3 976 757 1025 
3 589 590 648 
3 663 804 927 
3 292 45 796 
3 566 658 976 
3 41 275 815 
3 932 552 962 
3 787 434 1052 
3 650 648 742 
3 595 594 627 
3 327 484 593 
3 327 325 484 
3 403 939 965 
3 267 47 799 
3 394 841 1089 
3 768 624 769 
3 598 436 770 
3 669 865 1028 
3 627 642 743 
3 589 588 590 
3 288 735 988 
3 474 817 818 
3 438 598 795 
3 778 800 801 
3 559 588 589 
3 593 594 595 
3 427 429 806 
3 602 829 916 
3 50 291 805 
3 630 628 726 
3 442 444 824 
3 683 1017 1044 
3 649 728 729 
3 648 590 649 
3 784 781 809 
3 333 331 402 
3 640 746 747 
3 595 627 628 
3 54 293 810 
3 293 744 1070 
3 781 779 809 
3 801 800 802 
3 829 369 916 
3 521 522 549 
3 441 440 457 
3 439 438 440 
3 335 333 792 
3 616 836 944 
3 384 830 831 
3 777 775 778 
3 444 470 824 
3 518 403 519 
3 773 593 915 
3 520 519 521 
3 275 40 793 
3 290 38 794 
3 290 897 1091 
3 602 828 829 
3 613 515 936 
3 589 648 650 
3 437 436 438 
3 664 464 798 
3 550 597 640 
3 838 839 842 
3 804 932 962 
3 814 812 906 
3 785 784 787 
3 319 317 591 
3 326 325 327 
3 464 443 798 
3 861 863 864 
3 388 347 789 
3 341 339 403 
3 347 345 789 
3 258 977 1078 
3 735 736 737 
3 865 669 1033 
3 514 558 559 
3 57 56 814 
3 448 450 540 
3 312 624 768 
3 289 877 1099 
3 939 764 965 
3 349 347 388 
3 325 322 767 
3 271 43 816 
3 627 594 642 
3 331 328 773 
3 384 831 837 
3 775 774 800 
3 602 827 828 
3 44 271 796 
3 41 40 275 
3 37 36 276 
3 39 38 290 
3 324 322 325 
3 778 775 800 
3 783 781 784 
3 521 519 522 
3 549 522 550 
3 833 830 917 
3 777 778 779 
3 46 292 799 
3 692 613 774 
3 806 540 807 
3 692 774 775 
3 533 531 834 
3 341 403 518 
3 640 597 746 
3 513 572 573 
3 279 750 1074 
3 520 521 523 
3 914 633 983 
3 830 384 917 
3 475 478 817 
3 294 814 906 
3 559 587 588 
3 42 41 815 
3 290 794 1123 
3 332 331 333 
3 861 862 863 
3 44 43 271 
3 259 810 811 
3 474 475 817 
3 429 448 806 
3 265 51 805 
3 120 260 862 
3 518 519 520 
3 330 328 331 
3 334 333 335 
3 402 331 773 
3 572 514 765 
3 46 45 292 
3 435 353 436 
3 561 560 790 
3 723 269 1149 
3 862 260 863 
3 629 628 630 
3 856 857 858 
3 743 642 978 
3 259 55 810 
3 48 47 267 
3 484 325 767 
3 853 855 856 
3 702 561 790 
3 856 855 857 
3 946 644 959 
3 838 280 839 
3 314 312 768 
3 50 49 291 
3 296 838 842 
3 276 36 803 
3 536 533 834 
3 663 711 804 
3 649 727 728 
3 448 540 806 
3 664 899 970 
3 52 51 265 
3 40 39 793 
3 38 37 794 
3 602 410 827 
3 405 407 833 
3 341 518 920 
3 410 412 827 
3 54 53 293 
3 514 458 558 
3 821 820 822 
3 818 819 820 
3 553 663 927 
3 58 294 826 
3 853 854 855 
3 56 55 259 
3 817 682 818 
3 43 42 816 
3 783 784 785 
3 119 120 862 
3 518 657 920 
3 612 515 613 
3 45 44 796 
3 324 325 326 
3 579 536 580 
3 573 689 690 
3 812 811 813 
3 574 681 682 
3 818 682 819 
3 852 295 853 
3 47 46 799 
3 798 457 899 
3 566 614 658 
3 663 710 711 
3 900 632 919 
3 818 820 821 
3 326 327 328 
3 51 50 805 
3 407 509 833 
3 418 454 524 
3 338 336 339 
3 677 570 678 
3 822 820 823 
3 827 524 828 
3 339 336 939 
3 675 532 949 
3 448 449 450 
3 340 339 341 
3 377 379 837 
3 559 558 587 
3 405 833 917 
3 580 536 834 
3 404 427 599 
3 56 259 814 
3 691 613 692 
3 575 900 919 
3 55 54 810 
3 259 811 812 
3 346 345 347 
3 853 295 854 
3 59 826 835 
3 776 775 777 
3 478 574 817 
3 58 57 294 
3 412 418 827 
3 550 596 597 
3 317 314 768 
3 404 599 947 
3 408 602 916 
3 570 529 836 
3 802 320 998 
3 629 754 954 
3 450 468 469 
3 737 736 738 
3 379 384 837 
3 429 431 448 
3 574 631 681 
3 601 423 902 
3 118 119 860 
3 588 587 592 
3 574 682 817 
3 830 672 831 
3 344 342 345 
3 418 524 827 
3 553 661 663 
3 478 541 574 
3 59 58 826 
3 330 331 332 
3 600 671 672 
3 332 333 334 
3 600 672 830 
3 860 119 862 
3 316 314 317 
3 869 868 870 
3 270 125 884 
3 509 564 600 
3 418 453 454 
3 898 568 923 
3 678 836 980 
3 678 570 836 
3 312 272 624 
3 296 109 838 
3 693 803 996 
3 334 335 336 
3 125 126 884 
3 688 608 865 
3 854 860 861 
3 670 1027 1054 
3 586 636 1030 
3 666 898 923 
3 463 946 959 
3 387 385 896 
3 425 423 601 
3 566 577 614 
3 483 464 560 
3 300 868 869 
3 273 872 873 
3 262 60 835 
3 60 59 835 
3 868 867 871 
3 600 564 671 
3 408 410 602 
3 614 696 697 
3 608 527 865 
3 461 546 566 
3 882 880 883 
3 509 600 833 
3 831 672 832 
3 286 879 880 
3 300 867 868 
3 612 613 691 
3 126 127 881 
3 110 280 838 
3 110 111 280 
3 529 433 944 
3 273 10 872 
3 574 541 631 
3 759 572 765 
3 719 717 720 
3 799 292 914 
3 603 497 930 
3 649 590 727 
3 712 688 758 
3 595 628 629 
3 106 281 888 
3 105 106 888 
3 126 881 884 
3 881 880 882 
3 875 877 878 
3 451 392 526 
3 286 874 879 
3 867 264 871 
3 261 116 852 
3 392 387 896 
3 740 738 760 
3 108 109 296 
3 636 731 825 
3 412 417 418 
3 737 738 739 
3 10 11 872 
3 875 878 879 
3 30 29 891 
3 278 30 891 
3 663 661 710 
3 281 107 851 
3 872 869 873 
3 28 277 892 
3 526 392 896 
3 109 110 838 
3 108 296 851 
3 627 743 1002 
3 36 35 803 
3 891 29 892 
3 286 880 881 
3 127 286 881 
3 687 608 688 
3 831 832 968 
3 893 651 894 
3 115 116 261 
3 298 885 886 
3 117 295 852 
3 569 529 570 
3 117 118 295 
3 116 117 852 
3 676 570 677 
3 622 685 686 
3 739 738 740 
3 915 629 954 
3 874 875 879 
3 424 425 904 
3 25 24 895 
3 301 25 895 
3 107 108 851 
3 505 433 529 
3 29 28 892 
3 579 580 695 
3 875 876 877 
3 874 309 875 
3 875 309 876 
3 11 12 300 
3 308 69 866 
3 80 79 310 
3 129 309 874 
3 13 264 867 
3 70 69 308 
3 68 284 866 
3 61 262 887 
3 76 283 885 
3 78 77 298 
3 69 68 866 
3 68 67 284 
3 298 77 885 
3 129 130 309 
3 103 104 282 
3 106 107 281 
3 286 128 874 
3 65 64 269 
3 297 62 887 
3 63 62 297 
3 128 129 874 
3 127 128 286 
3 61 60 262 
3 62 61 887 
3 76 75 283 
3 100 101 288 
3 77 76 885 
3 74 73 307 
3 98 99 652 
3 124 125 270 
3 122 123 299 
3 121 122 889 
3 120 121 260 
3 13 14 264 
3 12 13 867 
3 122 299 889 
3 16 17 274 
3 260 121 889 
3 34 33 279 
3 28 27 277 
3 31 30 278 
3 6 7 289 
3 9 10 273 
3 27 26 890 
3 19 20 287 
3 26 25 301 
3 20 21 893 
3 21 22 651 
3 300 12 867 
3 277 27 890 
3 26 301 890 
3 287 20 893 
3 21 651 893 
3 516 517 901 
3 295 118 860 
3 407 508 509 
3 881 882 884 
3 719 720 721 
3 600 830 833 
3 482 466 903 
3 451 526 527 
3 1014 715 1107 
3 622 686 903 
3 509 510 564 
3 300 869 872 
3 466 528 903 
3 659 660 703 
3 11 300 872 
3 454 453 461 
3 416 414 467 
3 516 465 517 
3 584 516 901 
3 435 436 437 
3 629 630 754 
3 345 342 920 
3 424 423 425 
3 528 621 622 
3 732 584 733 
3 575 669 670 
3 647 568 655 
3 563 512 568 
3 708 707 734 
3 422 420 423 
3 465 424 904 
3 659 647 660 
3 563 647 659 
3 467 414 926 
3 622 653 685 
3 525 497 603 
3 732 733 762 
3 723 721 724 
3 655 568 898 
3 502 500 503 
3 418 417 453 
3 462 544 545 
3 481 567 575 
3 687 688 712 
3 854 295 860 
3 563 568 647 
3 622 621 653 
3 861 860 862 
3 780 779 781 
3 706 606 707 
3 452 466 482 
3 528 584 621 
3 631 632 683 
3 621 584 732 
3 706 707 708 
3 448 431 449 
3 723 724 725 
3 694 576 709 
3 718 717 719 
3 511 503 512 
3 545 576 639 
3 575 670 900 
3 847 845 848 
3 499 501 605 
3 386 390 405 
3 562 512 563 
3 502 511 539 
3 671 564 843 
3 733 584 901 
3 528 516 584 
3 511 512 562 
3 504 456 542 
3 564 510 565 
3 537 623 699 
3 503 910 923 
3 509 508 510 
3 416 467 902 
3 716 644 717 
3 502 503 511 
3 645 561 702 
3 619 714 715 
3 445 443 464 
3 528 622 903 
3 501 500 502 
3 849 847 850 
3 605 606 704 
3 566 546 577 
3 843 565 844 
3 466 516 528 
3 545 544 576 
3 719 721 723 
3 564 565 843 
3 639 576 694 
3 565 510 912 
3 405 406 407 
3 391 387 392 
3 846 847 849 
3 124 270 924 
3 299 123 924 
3 517 465 904 
3 462 504 544 
3 422 423 424 
3 423 420 902 
3 379 383 384 
3 478 479 541 
3 525 603 604 
3 791 665 1141 
3 407 507 508 
3 614 577 696 
3 544 504 555 
3 605 501 606 
3 704 606 706 
3 607 527 608 
3 643 610 644 
3 496 494 497 
3 462 456 504 
3 679 603 948 
3 604 603 679 
3 399 456 462 
3 728 727 755 
3 393 392 451 
3 466 465 516 
3 844 845 846 
3 692 775 776 
3 525 604 666 
3 452 424 465 
3 422 424 452 
3 451 527 607 
3 452 465 466 
3 496 497 498 
3 846 845 847 
3 499 500 501 
3 498 497 525 
3 351 352 947 
3 910 666 923 
3 510 571 912 
3 844 565 845 
3 507 406 667 
3 381 378 382 
3 499 498 500 
3 373 375 408 
3 391 393 399 
3 619 608 687 
3 496 498 499 
3 391 392 393 
3 716 717 718 
3 503 500 910 
3 452 482 905 
3 259 812 814 
3 510 508 571 
3 399 393 456 
3 607 608 619 
3 421 420 422 
3 502 539 909 
3 619 687 714 
3 405 390 406 
3 709 576 907 
3 499 605 908 
3 407 406 507 
3 420 416 902 
3 507 667 668 
3 568 512 923 
3 390 387 391 
3 415 419 463 
3 575 567 669 
3 419 416 420 
3 848 845 912 
3 421 422 905 
3 822 823 1004 
3 576 544 907 
3 707 606 909 
3 569 570 676 
3 519 403 965 
3 501 502 909 
3 481 575 919 
3 493 495 553 
3 544 555 907 
3 720 717 946 
3 505 529 569 
3 450 449 468 
3 604 679 680 
3 408 409 410 
3 542 456 913 
3 413 411 414 
3 643 644 716 
3 631 541 632 
3 422 452 905 
3 500 498 910 
3 475 477 478 
3 415 414 416 
3 661 554 662 
3 545 639 945 
3 386 387 390 
3 338 339 340 
3 419 420 421 
3 550 522 596 
3 340 341 342 
3 495 494 496 
3 606 501 909 
3 553 554 661 
3 845 565 912 
3 583 485 610 
3 410 411 412 
3 605 704 934 
3 782 781 783 
3 469 468 537 
3 415 416 419 
3 498 525 910 
3 379 381 383 
3 383 385 386 
3 451 607 913 
3 412 413 417 
3 386 405 917 
3 495 496 908 
3 553 495 554 
3 355 357 404 
3 896 385 918 
3 437 438 439 
3 386 385 387 
3 383 381 385 
3 393 451 913 
3 461 485 546 
3 374 372 376 
3 525 666 910 
3 370 372 373 
3 412 411 413 
3 408 375 409 
3 344 345 346 
3 456 393 913 
3 583 610 643 
3 583 643 748 
3 530 532 675 
3 379 378 381 
3 410 409 411 
3 496 499 908 
3 384 383 917 
3 518 520 657 
3 390 391 911 
3 541 479 919 
3 377 378 379 
3 391 399 911 
3 462 545 937 
3 409 375 609 
3 413 414 415 
3 548 585 586 
3 123 124 924 
3 366 364 367 
3 370 368 371 
3 377 376 378 
3 554 495 908 
3 373 374 375 
3 406 390 911 
3 374 376 377 
3 512 503 923 
3 667 406 911 
3 619 715 933 
3 913 607 933 
3 632 541 919 
3 381 382 918 
3 366 368 369 
3 373 372 374 
3 481 543 567 
3 542 913 933 
3 804 711 932 
3 911 399 937 
3 461 453 485 
3 534 547 548 
3 318 317 319 
3 557 491 578 
3 586 635 636 
3 352 355 947 
3 532 534 949 
3 479 480 481 
3 377 837 921 
3 348 347 349 
3 471 473 474 
3 543 480 556 
3 383 386 917 
3 370 371 372 
3 369 368 370 
3 667 911 937 
3 373 408 916 
3 366 367 368 
3 362 364 365 
3 385 381 918 
3 432 430 433 
3 493 494 495 
3 362 360 363 
3 546 485 583 
3 478 477 479 
3 696 577 698 
3 369 370 916 
3 636 730 731 
3 329 328 330 
3 479 481 919 
3 321 319 322 
3 611 515 612 
3 369 829 952 
3 592 749 753 
3 323 322 324 
3 403 339 939 
3 481 480 543 
3 713 684 750 
3 567 543 582 
3 744 638 745 
3 898 666 941 
3 455 433 505 
3 908 605 934 
3 492 491 557 
3 365 364 366 
3 404 426 427 
3 641 578 684 
3 415 463 922 
3 490 492 493 
3 569 676 757 
3 479 477 480 
3 490 488 491 
3 799 914 983 
3 583 748 935 
3 374 377 921 
3 554 908 934 
3 662 554 934 
3 370 373 916 
3 417 413 922 
3 453 417 925 
3 607 619 933 
3 439 440 441 
3 358 360 361 
3 362 363 364 
3 342 341 920 
3 641 684 713 
3 777 779 780 
3 666 604 941 
3 597 596 654 
3 487 459 515 
3 413 415 922 
3 679 948 964 
3 460 488 489 
3 375 374 921 
3 358 356 359 
3 490 491 492 
3 557 578 641 
3 497 494 930 
3 493 492 494 
3 644 610 959 
3 637 551 638 
3 610 485 925 
3 414 411 926 
3 726 628 1002 
3 432 455 486 
3 397 395 401 
3 399 462 937 
3 361 360 362 
3 678 980 992 
3 427 428 429 
3 444 446 470 
3 358 359 360 
3 429 430 431 
3 595 629 915 
3 609 375 921 
3 489 804 962 
3 722 282 1106 
3 84 249 258 
3 411 409 926 
3 455 505 506 
3 776 777 897 
3 404 357 426 
3 409 609 926 
3 493 553 927 
3 85 250 303 
3 432 433 455 
3 428 426 616 
3 593 595 915 
3 417 922 925 
3 474 473 475 
3 485 453 925 
3 577 546 935 
3 431 430 432 
3 494 492 930 
3 538 536 579 
3 546 583 935 
3 86 251 263 
3 489 490 927 
3 699 623 700 
3 492 557 930 
3 429 428 430 
3 357 356 358 
3 999 671 1003 
3 483 560 561 
3 603 930 948 
3 937 545 945 
3 87 252 302 
3 535 533 536 
3 604 680 941 
3 475 476 477 
3 337 336 338 
3 489 488 490 
3 968 832 973 
3 470 446 471 
3 592 587 749 
3 556 480 929 
3 475 473 476 
3 477 476 929 
3 427 426 428 
3 803 35 996 
3 88 253 266 
3 717 644 946 
3 354 353 435 
3 398 460 962 
3 445 464 483 
3 698 577 935 
3 480 477 929 
3 668 667 945 
3 449 431 928 
3 366 369 952 
3 537 551 623 
3 520 523 961 
3 397 401 936 
3 637 638 744 
3 490 493 927 
3 777 780 897 
3 488 487 951 
3 487 515 611 
3 457 513 899 
3 720 946 966 
3 460 487 488 
3 351 808 972 
3 89 254 304 
3 637 744 788 
3 442 441 443 
3 667 937 945 
3 537 468 551 
3 289 7 969 
3 343 342 344 
3 432 486 928 
3 611 612 931 
3 612 691 693 
3 431 432 928 
3 578 491 951 
3 352 350 353 
3 534 548 949 
3 90 255 268 
3 783 785 786 
3 91 256 305 
3 257 91 940 
3 355 404 947 
3 82 257 272 
3 625 380 626 
3 346 347 348 
3 358 361 938 
3 471 446 472 
3 355 356 357 
3 557 641 948 
3 780 781 782 
3 463 419 966 
3 623 551 637 
3 365 366 952 
3 487 611 951 
3 357 358 938 
3 721 720 975 
3 491 488 951 
3 515 459 936 
3 433 430 944 
3 352 354 355 
3 548 547 585 
3 326 328 329 
3 471 472 473 
3 442 443 444 
3 657 520 961 
3 334 336 337 
3 724 721 979 
3 460 459 487 
3 355 354 356 
3 530 675 955 
3 486 455 943 
3 930 557 948 
3 586 585 635 
3 552 398 962 
3 658 614 990 
3 426 357 938 
3 455 506 943 
3 340 342 343 
3 684 578 967 
3 636 635 730 
3 428 616 944 
3 444 443 445 
3 538 579 581 
3 343 380 618 
3 352 353 354 
3 430 428 944 
3 461 566 976 
3 444 445 446 
3 616 426 938 
3 321 322 323 
3 724 979 985 
3 323 324 434 
3 535 536 538 
3 318 319 321 
3 315 314 316 
3 329 330 389 
3 638 551 953 
3 946 463 966 
3 398 459 460 
3 612 693 931 
3 316 317 318 
3 435 437 615 
3 538 581 634 
3 948 641 964 
3 344 346 942 
3 343 344 380 
3 354 435 950 
3 459 397 936 
3 596 522 965 
3 625 626 656 
3 522 519 965 
3 468 449 953 
3 634 701 741 
3 359 356 950 
3 483 561 617 
3 691 692 974 
3 654 596 764 
3 992 365 1005 
3 634 581 701 
3 398 397 459 
3 922 463 959 
3 348 349 350 
3 617 561 645 
3 985 686 989 
3 337 338 447 
3 450 469 1000 
3 585 547 633 
3 645 702 705 
3 925 922 959 
3 558 795 987 
3 396 398 552 
3 467 973 994 
3 356 354 950 
3 721 975 979 
3 618 380 625 
3 435 615 950 
3 337 447 530 
3 617 645 646 
3 532 533 534 
3 449 928 953 
3 731 730 1102 
3 534 535 547 
3 442 824 971 
3 419 421 966 
3 641 713 964 
3 788 265 1006 
3 551 468 953 
3 351 350 352 
3 530 531 532 
3 903 686 985 
3 847 848 982 
3 534 533 535 
3 460 489 962 
3 720 966 975 
3 610 925 959 
3 100 288 988 
3 652 99 988 
3 321 323 400 
3 532 531 533 
3 601 902 994 
3 329 389 620 
3 626 380 942 
3 813 997 1121 
3 348 350 351 
3 34 279 996 
3 313 312 314 
3 380 344 942 
3 467 926 973 
3 439 441 442 
3 609 921 968 
3 530 447 531 
3 332 334 955 
3 396 397 398 
3 620 389 673 
3 620 673 674 
3 878 877 1031 
3 921 837 968 
3 764 596 965 
3 324 326 956 
3 434 324 956 
3 745 638 981 
3 7 8 969 
3 472 446 960 
3 338 340 957 
3 837 831 968 
3 91 305 940 
3 272 257 940 
3 396 395 397 
3 513 573 899 
3 973 832 994 
3 506 505 986 
3 446 445 960 
3 267 799 983 
3 951 611 967 
3 672 671 999 
3 966 421 975 
3 883 880 1001 
3 569 757 986 
3 447 338 957 
3 879 878 1001 
3 578 951 967 
3 445 483 960 
3 326 329 956 
3 334 337 955 
3 362 365 992 
3 828 524 1021 
3 611 931 967 
3 524 454 1025 
3 343 618 957 
3 340 343 957 
3 249 83 977 
3 483 617 960 
3 535 538 963 
3 315 316 320 
3 538 634 963 
3 587 558 987 
3 779 778 1019 
3 633 547 963 
3 624 272 940 
3 547 535 963 
3 421 905 975 
3 834 531 991 
3 609 968 973 
3 926 609 973 
3 692 776 974 
3 829 828 1018 
3 337 530 955 
3 808 807 1024 
3 454 461 976 
3 942 346 972 
3 971 824 1004 
3 836 616 980 
3 615 437 971 
3 329 620 956 
3 615 971 1004 
3 389 330 995 
3 638 953 981 
3 953 928 981 
3 346 348 972 
3 394 395 396 
3 975 905 979 
3 905 482 979 
3 573 690 970 
3 389 995 1013 
3 724 985 989 
3 640 747 1026 
3 601 999 1003 
3 258 249 977 
3 979 482 985 
3 439 442 971 
3 850 847 982 
3 1000 469 1059 
3 394 320 395 
3 315 320 394 
3 447 957 991 
3 90 268 993 
3 305 256 993 
3 482 903 985 
3 1021 524 1025 
3 678 992 1005 
3 505 569 986 
3 938 361 980 
3 437 439 971 
3 256 90 993 
3 313 314 315 
3 99 100 988 
3 928 486 981 
3 348 351 972 
3 637 788 1006 
3 621 732 1016 
3 616 938 980 
3 725 724 989 
3 1004 823 1008 
3 700 623 1006 
3 957 618 991 
3 580 834 1015 
3 614 697 990 
3 378 376 1017 
3 955 675 995 
3 980 361 992 
3 332 955 995 
3 749 587 987 
3 695 580 1023 
3 361 362 992 
3 902 467 994 
3 330 332 995 
3 1092 306 1105 
3 807 540 1040 
3 761 258 1078 
3 542 933 1014 
3 601 994 999 
3 548 586 1022 
3 320 316 998 
3 89 304 1010 
3 35 34 996 
3 83 248 306 
3 268 255 1010 
3 677 678 1005 
3 671 843 1003 
3 628 627 1002 
3 1034 819 1037 
3 1018 828 1021 
3 531 447 991 
3 540 450 1000 
3 785 1087 1097 
3 899 573 970 
3 832 672 999 
3 1003 843 1007 
3 896 918 1027 
3 311 272 312 
3 316 318 998 
3 18 762 1063 
3 880 879 1001 
3 705 702 1049 
3 865 527 1028 
3 843 844 1007 
3 359 1008 1029 
3 820 819 1034 
3 824 822 1004 
3 425 601 1003 
3 321 400 1011 
3 1007 844 1009 
3 359 950 1008 
3 995 675 1013 
3 711 710 1083 
3 469 537 1035 
3 844 846 1009 
3 425 1003 1007 
3 88 266 1020 
3 363 360 1029 
3 1009 846 1012 
3 283 75 1036 
3 74 307 1036 
3 304 254 1020 
3 904 425 1007 
3 682 681 1039 
3 761 759 1066 
3 623 637 1006 
3 669 567 1033 
3 1039 681 1041 
3 1024 807 1040 
3 255 89 1010 
3 846 849 1012 
3 9 273 1038 
3 311 312 313 
3 904 1007 1009 
3 365 952 1005 
3 994 832 999 
3 752 791 1105 
3 1060 298 1134 
3 367 364 1037 
3 943 813 1058 
3 580 1015 1023 
3 517 904 1009 
3 517 1009 1012 
3 1008 823 1029 
3 582 864 1114 
3 791 1092 1105 
3 901 517 1012 
3 990 697 997 
3 631 683 1042 
3 675 949 1013 
3 772 771 1026 
3 673 389 1013 
3 748 262 1101 
3 113 114 1049 
3 24 23 1045 
3 71 70 1046 
3 73 72 1047 
3 371 368 1041 
3 834 991 1015 
3 950 615 1008 
3 933 715 1014 
3 83 306 977 
3 898 941 1043 
3 318 321 1011 
3 82 272 311 
3 48 267 1056 
3 969 8 1038 
3 291 49 1056 
3 998 318 1011 
3 376 372 1044 
3 991 618 1015 
3 371 1041 1042 
3 650 742 1066 
3 1042 683 1044 
3 400 323 1032 
3 653 621 1016 
3 367 1037 1039 
3 673 1013 1022 
3 1049 114 1136 
3 363 1029 1034 
3 778 801 1019 
3 382 378 1017 
3 683 632 1051 
3 618 625 1015 
3 857 476 1103 
3 87 302 1048 
3 266 253 1048 
3 382 1051 1054 
3 677 1005 1018 
3 942 972 1024 
3 1013 949 1022 
3 782 783 1055 
3 254 88 1020 
3 885 283 1057 
3 730 635 1080 
3 615 1004 1008 
3 258 761 1073 
3 771 640 1026 
3 952 829 1018 
3 620 674 1052 
3 1005 952 1018 
3 665 970 1141 
3 676 677 1021 
3 742 648 1065 
3 972 808 1024 
3 677 1018 1021 
3 1015 625 1023 
3 539 760 1140 
3 918 382 1054 
3 689 761 1078 
3 676 1021 1025 
3 649 729 1065 
3 1049 702 1119 
3 310 79 1060 
3 78 298 1060 
3 863 260 1062 
3 757 676 1025 
3 526 1027 1028 
3 526 896 1027 
3 1022 586 1030 
3 625 656 1023 
3 949 548 1022 
3 363 1034 1037 
3 102 103 1061 
3 297 887 1096 
3 527 526 1028 
3 486 943 1058 
3 626 942 1024 
3 709 907 1031 
3 434 956 1052 
3 360 359 1029 
3 861 864 1068 
3 823 820 1034 
3 17 18 1063 
3 323 434 1032 
3 567 582 1033 
3 850 982 1133 
3 674 673 1030 
3 537 699 1035 
3 1017 683 1051 
3 1038 273 1112 
3 626 1024 1040 
3 75 74 1036 
3 855 854 1068 
3 914 292 1080 
3 793 290 1091 
3 307 1047 1131 
3 750 684 1074 
3 815 275 1055 
3 364 363 1037 
3 367 1039 1041 
3 811 810 1070 
3 285 113 1049 
3 8 9 1038 
3 850 1133 1147 
3 382 1017 1051 
3 819 682 1039 
3 86 263 1064 
3 302 252 1064 
3 710 661 1071 
3 1029 823 1034 
3 945 639 1067 
3 579 695 1072 
3 269 64 1076 
3 63 297 1076 
3 368 367 1041 
3 296 842 1083 
3 705 1049 1136 
3 85 303 1069 
3 858 857 1103 
3 263 251 1069 
3 656 626 1040 
3 681 631 1042 
3 1037 819 1039 
3 859 646 1095 
3 703 1060 1134 
3 1041 681 1042 
3 655 898 1043 
3 563 659 1081 
3 895 24 1045 
3 70 308 1046 
3 307 73 1047 
3 371 1042 1044 
3 253 87 1048 
3 372 371 1044 
3 66 65 1082 
3 84 258 1073 
3 303 250 1073 
3 745 981 1058 
3 888 281 1071 
3 660 647 1084 
3 673 1022 1030 
3 699 700 1077 
3 785 787 1087 
3 736 734 1088 
3 1051 900 1054 
3 632 900 1051 
3 1057 283 1137 
3 1072 699 1077 
3 280 111 1111 
3 652 988 1053 
3 735 737 1053 
3 734 707 1088 
3 617 646 1085 
3 900 670 1054 
3 680 892 1115 
3 909 539 1088 
3 265 788 1118 
3 783 786 1055 
3 956 620 1052 
3 967 931 1074 
3 571 508 1094 
3 507 668 1094 
3 748 643 1096 
3 261 859 1095 
3 694 1038 1112 
3 49 48 1056 
3 6 289 1099 
3 988 735 1053 
3 812 813 1121 
3 687 712 1100 
3 270 884 1107 
3 31 278 1104 
3 105 888 1106 
3 964 278 1109 
3 811 1070 1145 
3 282 104 1106 
3 285 1049 1119 
3 895 1045 1086 
3 542 1014 1125 
3 680 679 1109 
3 67 66 1108 
3 780 782 1091 
3 472 960 1085 
3 842 839 1079 
3 870 868 1110 
3 695 1035 1072 
3 52 265 1118 
3 886 885 1057 
3 293 53 1118 
3 646 645 1095 
3 723 725 1082 
3 473 472 1103 
3 878 1031 1130 
3 294 906 1116 
3 803 693 1117 
3 713 750 1104 
3 706 708 1061 
3 313 315 1089 
3 759 650 1066 
3 815 1055 1132 
3 873 869 1124 
3 690 1092 1141 
3 1035 699 1072 
3 101 102 1122 
3 693 691 1117 
3 3 80 1126 
3 23 3 1126 
3 130 0 1127 
3 0 4 1127 
3 72 1 1128 
3 1 98 1128 
3 2 71 1129 
3 22 2 1129 
3 876 309 1127 
3 115 261 1136 
3 989 686 1098 
3 634 741 1113 
3 555 504 1125 
3 719 723 1149 
3 16 274 1147 
3 264 14 1133 
3 760 738 1140 
3 929 857 1135 
3 695 1023 1059 
3 1014 883 1125 
3 912 571 1143 
3 1055 786 1132 
3 79 78 1060 
3 982 264 1133 
3 737 739 1131 
3 633 914 1144 
3 1087 825 1097 
3 1052 674 1087 
3 103 282 1061 
3 656 1000 1059 
3 974 776 1123 
3 639 694 1112 
3 260 889 1062 
3 585 633 1144 
3 981 486 1058 
3 857 855 1135 
3 740 1057 1137 
3 866 284 1098 
3 633 963 1113 
3 983 633 1113 
3 274 17 1063 
3 751 752 1105 
3 252 86 1064 
3 648 649 1065 
3 839 841 1079 
3 1023 656 1059 
3 941 680 1115 
3 810 293 1070 
3 854 861 1068 
3 863 1062 1114 
3 251 85 1069 
3 760 562 1093 
3 668 945 1067 
3 931 693 1139 
3 1031 907 1130 
3 744 745 1070 
3 661 662 1071 
3 805 291 1075 
3 581 579 1072 
3 841 840 1089 
3 835 698 1101 
3 693 996 1139 
3 1045 310 1086 
3 250 84 1073 
3 684 967 1074 
3 292 796 1080 
3 1070 745 1145 
3 581 1072 1077 
3 64 63 1076 
3 787 1052 1087 
3 81 751 1146 
3 690 689 1078 
3 786 785 1097 
3 552 932 1079 
3 653 894 1090 
3 701 581 1077 
3 269 1076 1149 
3 562 563 1081 
3 265 805 1138 
3 935 748 1101 
3 698 935 1101 
3 1067 873 1124 
3 65 269 1082 
3 851 296 1083 
3 647 655 1084 
3 864 863 1114 
3 659 703 1134 
3 740 760 1093 
3 876 5 1099 
3 960 617 1085 
3 674 825 1087 
3 278 891 1109 
3 703 660 1086 
3 1006 265 1138 
3 707 909 1088 
3 299 924 1100 
3 790 752 1119 
3 924 714 1100 
3 758 582 1114 
3 248 81 1146 
3 571 1110 1143 
3 685 653 1090 
3 897 780 1091 
3 315 394 1089 
3 508 507 1094 
3 643 716 1096 
3 697 906 1121 
3 1075 291 1120 
3 914 1080 1144 
3 825 731 1097 
3 1062 758 1114 
3 645 705 1095 
3 686 685 1098 
3 877 876 1099 
3 5 6 1099 
3 977 306 1092 
3 714 687 1100 
3 262 835 1101 
3 271 816 1102 
3 1043 941 1115 
3 291 1056 1120 
3 997 697 1121 
3 1088 539 1140 
3 32 31 1104 
3 476 473 1103 
3 104 105 1106 
3 855 1068 1135 
3 884 882 1107 
3 284 67 1108 
3 840 280 1111 
3 1001 878 1130 
3 868 871 1110 
3 1102 816 1132 
3 679 964 1109 
3 276 803 1117 
3 273 873 1112 
3 702 790 1119 
3 1076 718 1149 
3 1045 23 1126 
3 71 1046 1129 
3 1047 72 1128 
3 906 812 1121 
3 555 1001 1130 
3 1074 931 1139 
3 270 1107 1148 
3 826 294 1116 
3 974 276 1117 
3 752 285 1119 
3 963 634 1113 
3 562 1081 1093 
3 892 277 1115 
3 53 52 1118 
3 283 1036 1137 
3 816 815 1132 
3 691 974 1117 
3 1057 740 1093 
3 1102 1132 1142 
3 869 870 1124 
3 288 101 1122 
3 741 701 1120 
3 80 310 1126 
3 309 130 1127 
3 98 652 1128 
3 651 22 1129 
3 504 542 1125 
3 813 811 1145 
3 776 897 1123 
3 277 1043 1115 
3 907 555 1130 
3 1092 791 1141 
3 14 15 1133 
3 298 886 1134 
3 114 115 1136 
3 996 279 1139 
3 739 740 1137 
3 556 929 1135 
3 738 736 1140 
3 1056 741 1120 
3 1133 15 1147 
3 306 248 1146 
3 668 1067 1124 
3 848 912 1143 
3 15 16 1147 
3 700 1006 1138 
3 871 264 1150 
3 982 848 1150 
3 715 714 1148 
3 718 719 1149 
3 635 585 1144 
3 970 690 1141 
3 310 1045 1126 
3 1046 651 1129 
3 652 1047 1128 
3 1036 739 1137 
3 1143 871 1150 
3 848 1143 1150 
3 264 982 1150 
3 745 1058 1145 
3 1068 556 1135 
3 1080 635 1144 
3 1053 737 1131 
3 279 1074 1139 
3 1058 813 1145 
3 736 1088 1140 
3 786 1097 1142 
3 1075 700 1138 
3 805 1075 1138 
3 1105 306 1146 
3 1097 731 1142 
3 731 1102 1142 
3 1107 715 1148 
3 1110 871 1143 
3 751 1105 1146 
3 1132 786 1142 
3 131 174 175 
3 131 132 174 
3 132 173 174 
3 132 133 173 
3 133 172 173 
3 133 134 172 
3 134 171 172 
3 134 135 171 
3 135 170 171 
3 135 136 170 
3 136 169 170 
3 136 137 169 
3 137 168 169 
3 137 138 168 
3 168 138 167 
3 138 139 167 
3 139 166 167 
3 139 140 166 
3 87 152 1151 
3 140 165 166 
3 140 141 165 
3 141 164 165 
3 152 153 1151 
3 164 141 142 
3 152 87 154 
3 163 164 142 
3 143 163 142 
3 162 163 143 
3 144 162 143 
3 162 144 161 
3 144 145 161 
3 161 145 160 
3 145 146 160 
3 252 87 1151 
3 160 146 159 
3 146 147 159 
3 159 147 158 
3 147 148 158 
3 148 149 157 
3 148 157 158 
3 149 150 156 
3 157 149 156 
3 150 151 155 
3 151 152 154 
3 156 150 155 
3 155 151 154 
3 153 252 1151 
3 93 92 1152 
3 131 175 1152 
3 92 131 1152 
3 175 93 1152 
3 252 153 86 
3 174 175 176 
3 174 176 177 
3 173 174 177 
3 173 177 178 
3 172 173 178 
3 179 172 178 
3 179 171 172 
3 179 180 171 
3 180 170 171 
3 180 181 170 
3 181 169 170 
3 181 182 169 
3 182 168 169 
3 182 183 168 
3 168 183 167 
3 183 184 167 
3 184 166 167 
3 155 88 1153 
3 184 185 166 
3 185 165 166 
3 195 88 155 
3 185 186 165 
3 186 164 165 
3 186 187 164 
3 164 187 163 
3 187 188 163 
3 154 155 1153 
3 163 188 162 
3 188 189 162 
3 162 189 161 
3 189 190 161 
3 161 190 160 
3 190 191 160 
3 160 191 159 
3 191 192 159 
3 159 192 158 
3 192 193 158 
3 88 253 1153 
3 193 194 157 
3 193 157 158 
3 194 195 156 
3 157 194 156 
3 156 195 155 
3 253 154 1153 
3 93 94 1154 
3 176 175 1154 
3 94 176 1154 
3 175 93 1154 
3 253 87 154 
3 213 214 176 
3 177 213 176 
3 212 213 177 
3 178 212 177 
3 211 212 178 
3 179 211 178 
3 210 211 179 
3 180 210 179 
3 209 210 180 
3 209 180 181 
3 208 209 181 
3 182 208 181 
3 207 208 182 
3 183 207 182 
3 206 207 183 
3 184 206 183 
3 89 194 1155 
3 205 206 184 
3 205 184 185 
3 194 195 1155 
3 205 185 204 
3 204 185 186 
3 194 89 196 
3 203 204 186 
3 203 186 187 
3 202 203 187 
3 202 187 188 
3 201 202 188 
3 189 201 188 
3 254 89 1155 
3 200 201 189 
3 200 189 190 
3 199 200 190 
3 199 190 191 
3 198 191 192 
3 198 199 191 
3 192 193 197 
3 198 192 197 
3 193 194 196 
3 193 196 197 
3 195 254 1155 
3 95 94 1156 
3 176 214 1156 
3 94 176 1156 
3 214 95 1156 
3 195 88 254 
3 213 214 215 
3 216 213 215 
3 212 213 216 
3 217 212 216 
3 211 212 217 
3 218 211 217 
3 210 211 218 
3 219 210 218 
3 209 210 219 
3 220 209 219 
3 208 209 220 
3 221 208 220 
3 207 208 221 
3 207 221 222 
3 206 207 222 
3 197 90 1157 
3 223 206 222 
3 90 197 231 
3 206 223 205 
3 223 224 205 
3 205 224 204 
3 224 225 204 
3 225 203 204 
3 203 225 226 
3 196 197 1157 
3 203 226 202 
3 226 227 202 
3 227 201 202 
3 227 228 201 
3 228 200 201 
3 229 200 228 
3 200 229 199 
3 199 229 230 
3 198 230 231 
3 198 199 230 
3 90 255 1157 
3 197 198 231 
3 255 196 1157 
3 95 96 1158 
3 215 214 1158 
3 96 215 1158 
3 214 95 1158 
3 89 196 255 
3 246 247 215 
3 216 246 215 
3 245 246 216 
3 217 245 216 
3 244 245 217 
3 218 244 217 
3 243 244 218 
3 219 243 218 
3 242 243 219 
3 220 242 219 
3 241 242 220 
3 221 241 220 
3 240 241 221 
3 91 230 1159 
3 240 221 222 
3 239 240 222 
3 230 231 1159 
3 223 239 222 
3 239 223 238 
3 230 91 232 
3 223 224 238 
3 224 237 238 
3 224 225 237 
3 225 236 237 
3 225 226 236 
3 256 91 1159 
3 226 235 236 
3 226 227 235 
3 227 228 234 
3 227 234 235 
3 228 229 233 
3 228 233 234 
3 229 230 232 
3 229 232 233 
3 231 256 1159 
3 97 96 1160 
3 215 247 1160 
3 96 215 1160 
3 247 97 1160 
3 90 256 231 
3 246 247 98 
3 246 98 99 
3 245 246 99 
3 245 99 100 
3 244 245 100 
3 244 100 101 
3 243 244 101 
3 243 101 102 
3 242 243 102 
3 242 102 103 
3 241 242 103 
3 241 103 104 
3 233 82 1161 
3 240 241 104 
3 111 82 233 
3 240 104 105 
3 239 240 105 
3 106 239 105 
3 238 239 106 
3 107 238 106 
3 237 238 107 
3 237 107 108 
3 232 233 1161 
3 237 108 236 
3 108 109 236 
3 109 235 236 
3 109 110 235 
3 110 111 234 
3 235 110 234 
3 234 111 233 
3 82 257 1161 
3 257 232 1161 
3 97 1 1162 
3 98 247 1162 
3 1 98 1162 
3 247 97 1162 
3 257 91 232 

CELL_TYPES 2186
5
5
5
5
5
5
5
5
5
5
5
5
5
5
5
5
5
5
5
5
5
5
5
5
5
5
5
5
5
5
5
5
5
5
5
5
5
5
5
5
5
5
5
5
5
5
5
5
5
5
5
5
5
5
5
5
5
5
5
5
5
5
5
5
5
5
5
5
5
5
5
5
5
5
5
5
5
5
5
5
5
5
5
5
5
5
5
5
5
5
5
5
5
5
5
5
5
5
5
5
5
5
5
5
5
5
5
5
5
5
5
5
5
5
5
5
5
5
5
5
5
5
5
5
5
5
5
5
5
5
5
5
5
5
5
5
5
5
5
5
5
5
5
5
5
5
5
5
5
5
5
5
5
5
5
5
5
5
5
5
5
5
5
5
5
5
5
5
5
5
5
5
5
5
5
5
5
5
5
5
5
5
5
5
5
5
5
5
5
5
5
5
5
5
5
5
5
5
5
5
5
5
5
5
5
5
5
5
5
5
5
5
5
5
5
5
5
5
5
5
5
5
5
5
5
5
5
5
5
5
5
5
5
5
5
5
5
5
5
5
5
5
5
5
5
5
5
5
5
5
5
5
5
5
5
5
5
5
5
5
5
5
5
5
5
5
5
5
5
5
5
5
5
5
5
5
5
5
5
5
5
5
5
5
5
5
5
5
5
5
5
5
5
5
5
5
5
5
5
5
5
5
5
5
5
5
5
5
5
5
5
5
5
5
5
5
5
5
5
5
5
5
5
5
5
5
5
5
5
5
5
5
5
5
5
5
5
5
5
5
5
5
5
5
5
5
5
5
5
5
5
5
5
5
5
5
5
5
5
5
5
5
5
5
5
5
5
5
5
5
5
5
5
5
5
5
5
5
5
5
5
5
5
5
5
5
5
5
5
5
5
5
5
5
5
5
5
5
5
5
5
5
5
5
5
5
5
5
5
5
5
5
5
5
5
5
5
5
5
5
5
5
5
5
5
5
5
5
5
5
5
5
5
5
5
5
5
5
5
5
5
5
5
5
5
5
5
5
5
5
5
5
5
5
5
5
5
5
5
5
5
5
5
5
5
5
5
5
5
5
5
5
5
5
5
5
5
5
5
5
5
5
5
5
5
5
5
5
5
5
5
5
5
5
5
5
5
5
5
5
5
5
5
5
5
5
5
5
5
5
5
5
5
5
5
5
5
5
5
5
5
5
5
5
5
5
5
5
5
5
5
5
5
5
5
5
5
5
5
5
5
5
5
5
5
5
5
5
5
5
5
5
5
5
5
5
5
5
5
5
5
5
5
5
5
5
5
5
5
5
5
5
5
5
5
5
5
5
5
5
5
5
5
5
5
5
5
5
5
5
5
5
5
5
5
5
5
5
5
5
5
5
5
5
5
5
5
5
5
5
5
5
5
5
5
5
5
5
5
5
5
5
5
5
5
5
5
5
5
5
5
5
5
5
5
5
5
5
5
5
5
5
5
5
5
5
5
5
5
5
5
5
5
5
5
5
5
5
5
5
5
5
5
5
5
5
5
5
5
5
5
5
5
5
5
5
5
5
5
5
5
5
5
5
5
5
5
5
5
5
5
5
5
5
5
5
5
5
5
5
5
5
5
5
5
5
5
5
5
5
5
5
5
5
5
5
5
5
5
5
5
5
5
5
5
5
5
5
5
5
5
5
5
5
5
5
5
5
5
5
5
5
5
5
5
5
5
5
5
5
5
5
5
5
5
5
5
5
5
5
5
5
5
5
5
5
5
5
5
5
5
5
5
5
5
5
5
5
5
5
5
5
5
5
5
5
5
5
5
5
5
5
5
5
5
5
5
5
5
5
5
5
5
5
5
5
5
5
5
5
5
5
5
5
5
5
5
5
5
5
5
5
5
5
5
5
5
5
5
5
5
5
5
5
5
5
5
5
5
5
5
5
5
5
5
5
5
5
5
5
5
5
5
5
5
5
5
5
5
5
5
5
5
5
5
5
5
5
5
5
5
5
5
5
5
5
5
5
5
5
5
5
5
5
5
5
5
5
5
5
5
5
5
5
5
5
5
5
5
5
5
5
5
5
5
5
5
5
5
5
5
5
5
5
5
5
5
5
5
5
5
5
5
5
5
5
5
5
5
5
5
5
5
5
5
5
5
5
5
5
5
5
5
5
5
5
5
5
5
5
5
5
5
5
5
5
5
5
5
5
5
5
5
5
5
5
5
5
5
5
5
5
5
5
5
5
5
5
5
5
5
5
5
5
5
5
5
5
5
5
5
5
5
5
5
5
5
5
5
5
5
5
5
5
5
5
5
5
5
5
5
5
5
5
5
5
5
5
5
5
5
5
5
5
5
5
5
5
5
5
5
5
5
5
5
5
5
5
5
5
5
5
5
5
5
5
5
5
5
5
5
5
5
5
5
5
5
5
5
5
5
5
5
5
5
5
5
5
5
5
5
5
5
5
5
5
5
5
5
5
5
5
5
5
5
5
5
5
5
5
5
5
5
5
5
5
5
5
5
5
5
5
5
5
5
5
5
5
5
5
5
5
5
5
5
5
5
5
5
5
5
5
5
5
5
5
5
5
5
5
5
5
5
5
5
5
5
5
5
5
5
5
5
5
5
5
5
5
5
5
5
5
5
5
5
5
5
5
5
5
5
5
5
5
5
5
5
5
5
5
5
5
5
5
5
5
5
5
5
5
5
5
5
5
5
5
5
5
5
5
5
5
5
5
5
5
5
5
5
5
5
5
5
5
5
5
5
5
5
5
5
5
5
5
5
5
5
5
5
5
5
5
5
5
5
5
5
5
5
5
5
5
5
5
5
5
5
5
5
5
5
5
5
5
5
5
5
5
5
5
5
5
5
5
5
5
5
5
5
5
5
5
5
5
5
5
5
5
5
5
5
5
5
5
5
5
5
5
5
5
5
5
5
5
5
5
5
5
5
5
5
5
5
5
5
5
5
5
5
5
5
5
5
5
5
5
5
5
5
5
5
5
5
5
5
5
5
5
5
5
5
5
5
5
5
5
5
5
5
5
5
5
5
5
5
5
5
5
5
5
5
5
5
5
5
5
5
5
5
5
5
5
5
5
5
5
5
5
5
5
5
5
5
5
5
5
5
5
5
5
5
5
5
5
5
5
5
5
5
5
5
5
5
5
5
5
5
5
5
5
5
5
5
5
5
5
5
5
5
5
5
5
5
5
5
5
5
5
5
5
5
5
5
5
5
5
5
5
5
5
5
5
5
5
5
5
5
5
5
5
5
5
5
5
5
5
5
5
5
5
5
5
5
5
5
5
5
5
5
5
5
5
5
5
5
5
5
5
5
5
5
5
5
5
5
5
5
5
5
5
5
5
5
5
5
5
5
5
5
5
5
5
5
5
5
5
5
5
5
5
5
5
5
5
5
5
5
5
5
5
5
5
5
5
5
5
5
5
5
5
5
5
5
5
5
5
5
5
5
5
5
5
5
5
5
5
5
5
5
5
5
5
5
5
5
5
5
5
5
5
5
5
5
5
5
5
5
5
5
5
5
5
5
5
5
5
5
5
5
5
5
5
5
5
5
5
5
5
5
5
5
5
5
5
5
5
5
5
5
5
5
5
5
5
5
5
5
5
5
5
5
5
5
5
5
5
5
5
5
5
5
5
5
5
5
5
5
5
5
5
5
5
5
5
5
5
5
5
5
5
5
5
5
5
5
5
5
5
5
5
5
5
5
5
5
5
5
5
5
5
5
5
5
5
5
5
5
5
5
5
5
5
5
5
5
5
5
5
5
5
5
5
5
5
5
5
5
5
5
5
5
5
5
5
5
5
5
5
5
5
5
5
5
5
5
5
5
5
5
5
5
5
5
5
5
5
5
5
5
5
5
5
5
5
5
5
5
5
5
5
5
5
5
5
5
5
5
5
5
5
5
5
5
5
5
5
5
5
5
5
5
5
5
5
5
5
5
5
5
5
5
5
5
5
5
5
5
5
5
5
5
5
5
5
5
5
5
5
5
5
5
5
5
5
5
5
5
5
5
5
5
5
5
5
5
5
5
5
5
5
5
5
5
5
5
5
5
5
5
5
5
5
5
5
5
5
5
5
5
5
5
5
5
5
5
5
5
5
5
5
5
5
5
5
5
5
5
5
5
5
5
5
5
5
5
5
5
5
5
5
5
5
5
5
5
5
5
5
5
5
5
5
5
5
5
5
5
5
5
5
5
5
5
5
5
5
5
5
5
5
5
5
5
5
5
5
5
5
5
5
5
5
5
5
5
5
5
5
5
5
5
5
5
5
5
5
5
5
5
5
5
5
5
5
5
5
5
5
5
5
5
5
5
5
5
5
5
5
5
5
5
5
5
5
5
5
5
5
5
5
5
5
5
5
5
5
5
5
5
5
5
5
5
5
5
5
5
5
5
5
5
5
5
5
5
5
5
5
5
5
5
5
5
5
5
5
5
5
5
5
5
5
5
5
5
5
5
5
5
5
5
5
5
5
5
5
5
5
5
5
5
5
5
5
5
5
5
5
5
5
5
5
5
5
5
5
5
5
5
5
5
5
5
5
5
5
5
5
5
5
5
5
5
5
5
5
5
5
5
5
5
5
5
5
5
5
5
5
5
5
5
5
5
5
5
5
5
5
5
5
5
5
5
5
5
5
5
5
5
5
5
5
5
5
5
5
5
5
5
5
5
5
5
5
5
5
5
5
5
5
5
5
5
5
5
5
5
5
5
5
5
5
5
5
5
5
5
5
5
5
5
5
5
5
5
5
5
5
5
5
5
5
5
5
5
5
5
5
5
5
5
5
5
5
5
5
5
5
5
5
5
5
5
5
5
5
5
5
5
5
5
5
5
5
5
5
5
5
5
5
5
5
5
5
5
5
5
5
5
5
5
5
5
5
5
5
5
5
5
5
5
5
5
5
5
5
5
5
5
5
5
5
5
5
5
5
5
5
5
5
5
5
5
5
5
5

POINT_DATA 1163

VECTORS coord float
0.0 0.0 0.0 
5.000000000000e+01 -1.000000000000e+01 0.0 
0.0 -2.000000000000e+01 0.0 
5.000000000000e+01 -2.000000000000e+01 0.0 
0.0 -9.999999999991e-01 0.0 
0.0 -1.999999999998e+00 0.0 
0.0 -2.999999999997e+00 0.0 
0.0 -3.999999999994e+00 0.0 
0.0 -4.999999999991e+00 0.0 
0.0 -5.999999999988e+00 0.0 
0.0 -6.999999999985e+00 0.0 
0.0 -7.999999999982e+00 0.0 
0.0 -8.999999999983e+00 0.0 
0.0 -9.999999999985e+00 0.0 
0.0 -1.099999999999e+01 0.0 
0.0 -1.199999999999e+01 0.0 
0.0 -1.299999999999e+01 0.0 
0.0 -1.399999999999e+01 0.0 
0.0 -1.499999999999e+01 0.0 
0.0 -1.599999999999e+01 0.0 
0.0 -1.700000000000e+01 0.0 
0.0 -1.800000000000e+01 0.0 
0.0 -1.900000000000e+01 0.0 
4.900000000001e+01 -2.000000000000e+01 0.0 
4.800000000001e+01 -2.000000000000e+01 0.0 
4.700000000002e+01 -2.000000000000e+01 0.0 
4.600000000003e+01 -2.000000000000e+01 0.0 
4.500000000004e+01 -2.000000000000e+01 0.0 
4.400000000004e+01 -2.000000000000e+01 0.0 
4.300000000005e+01 -2.000000000000e+01 0.0 
4.200000000006e+01 -2.000000000000e+01 0.0 
4.100000000006e+01 -2.000000000000e+01 0.0 
4.000000000007e+01 -2.000000000000e+01 0.0 
3.900000000008e+01 -2.000000000000e+01 0.0 
3.800000000009e+01 -2.000000000000e+01 0.0 
3.700000000009e+01 -2.000000000000e+01 0.0 
3.600000000010e+01 -2.000000000000e+01 0.0 
3.500000000011e+01 -2.000000000000e+01 0.0 
3.400000000011e+01 -2.000000000000e+01 0.0 
3.300000000012e+01 -2.000000000000e+01 0.0 
3.200000000013e+01 -2.000000000000e+01 0.0 
3.100000000013e+01 -2.000000000000e+01 0.0 
3.000000000013e+01 -2.000000000000e+01 0.0 
2.900000000013e+01 -2.000000000000e+01 0.0 
2.800000000013e+01 -2.000000000000e+01 0.0 
2.700000000013e+01 -2.000000000000e+01 0.0 
2.600000000013e+01 -2.000000000000e+01 0.0 
2.500000000013e+01 -2.000000000000e+01 0.0 
2.400000000013e+01 -2.000000000000e+01 0.0 
2.300000000013e+01 -2.000000000000e+01 0.0 
2.200000000013e+01 -2.000000000000e+01 0.0 
2.100000000013e+01 -2.000000000000e+01 0.0 
2.000000000013e+01 -2.000000000000e+01 0.0 
1.900000000013e+01 -2.000000000000e+01 0.0 
1.800000000013e+01 -2.000000000000e+01 0.0 
1.700000000012e+01 -2.000000000000e+01 0.0 
1.600000000011e+01 -2.000000000000e+01 0.0 
1.500000000011e+01 -2.000000000000e+01 0.0 
1.400000000010e+01 -2.000000000000e+01 0.0 
1.300000000009e+01 -2.000000000000e+01 0.0 
1.200000000009e+01 -2.000000000000e+01 0.0 
1.100000000008e+01 -2.000000000000e+01 0.0 
1.000000000007e+01 -2.000000000000e+01 0.0 
9.000000000064e+00 -2.000000000000e+01 0.0 
8.000000000057e+00 -2.000000000000e+01 0.0 
7.000000000050e+00 -2.000000000000e+01 0.0 
6.000000000043e+00 -2.000000000000e+01 0.0 
5.000000000036e+00 -2.000000000000e+01 0.0 
4.000000000028e+00 -2.000000000000e+01 0.0 
3.000000000021e+00 -2.000000000000e+01 0.0 
2.000000000014e+00 -2.000000000000e+01 0.0 
1.000000000007e+00 -2.000000000000e+01 0.0 
5.000000000000e+01 -1.100000000000e+01 0.0 
5.000000000000e+01 -1.200000000000e+01 0.0 
5.000000000000e+01 -1.300000000000e+01 0.0 
5.000000000000e+01 -1.400000000000e+01 0.0 
5.000000000000e+01 -1.500000000000e+01 0.0 
5.000000000000e+01 -1.600000000000e+01 0.0 
5.000000000000e+01 -1.700000000000e+01 0.0 
5.000000000000e+01 -1.800000000000e+01 0.0 
5.000000000000e+01 -1.900000000000e+01 0.0 
2.000000000000e+01 0.0 0.0 
3.500000000000e+01 -1.000000000000e+01 0.0 
2.150000000000e+01 -1.000000000000e+00 0.0 
2.300000000000e+01 -2.000000000000e+00 0.0 
2.450000000000e+01 -3.000000000000e+00 0.0 
2.600000000000e+01 -4.000000000000e+00 0.0 
2.750000000000e+01 -5.000000000000e+00 0.0 
2.900000000000e+01 -6.000000000000e+00 0.0 
3.050000000000e+01 -7.000000000000e+00 0.0 
3.200000000000e+01 -8.000000000000e+00 0.0 
3.350000000000e+01 -9.000000000000e+00 0.0 
5.000000000000e+01 -4.000000000000e+00 0.0 
5.000000000000e+01 -5.000000000000e+00 0.0 
5.000000000000e+01 -6.000000000000e+00 0.0 
5.000000000000e+01 -7.000000000000e+00 0.0 
5.000000000000e+01 -8.000000000000e+00 0.0 
5.000000000000e+01 -9.000000000000e+00 0.0 
4.900000000000e+01 -1.000000000000e+01 0.0 
4.800000000000e+01 -1.000000000000e+01 0.0 
4.700000000000e+01 -1.000000000000e+01 0.0 
4.600000000000e+01 -1.000000000000e+01 0.0 
4.500000000000e+01 -1.000000000000e+01 0.0 
4.400000000000e+01 -1.000000000000e+01 0.0 
4.300000000000e+01 -1.000000000000e+01 0.0 
4.200000000000e+01 -1.000000000000e+01 0.0 
4.100000000000e+01 -1.000000000000e+01 0.0 
4.000000000000e+01 -1.000000000000e+01 0.0 
3.900000000000e+01 -1.000000000000e+01 0.0 
3.800000000000e+01 -1.000000000000e+01 0.0 
3.700000000000e+01 -1.000000000000e+01 0.0 
3.600000000000e+01 -1.000000000000e+01 0.0 
1.900000000000e+01 0.0 0.0 
1.800000000000e+01 0.0 0.0 
1.700000000000e+01 0.0 0.0 
1.600000000000e+01 0.0 0.0 
1.500000000000e+01 0.0 0.0 
1.400000000000e+01 0.0 0.0 
1.300000000000e+01 0.0 0.0 
1.200000000000e+01 0.0 0.0 
1.100000000000e+01 0.0 0.0 
1.000000000000e+01 0.0 0.0 
9.000000000000e+00 0.0 0.0 
8.000000000000e+00 0.0 0.0 
7.000000000000e+00 0.0 0.0 
6.000000000000e+00 0.0 0.0 
5.000000000000e+00 0.0 0.0 
4.000000000000e+00 0.0 0.0 
3.000000000000e+00 0.0 0.0 
2.000000000000e+00 0.0 0.0 
1.000000000000e+00 0.0 0.0 
4.900000000000e+01 -4.000000000000e+00 0.0 
4.800000000000e+01 -4.000000000000e+00 0.0 
4.700000000000e+01 -4.000000000000e+00 0.0 
4.600000000000e+01 -4.000000000000e+00 0.0 
4.500000000000e+01 -4.000000000000e+00 0.0 
4.400000000000e+01 -4.000000000000e+00 0.0 
4.300000000000e+01 -4.000000000000e+00 0.0 
4.200000000000e+01 -4.000000000000e+00 0.0 
4.100000000000e+01 -4.000000000000e+00 0.0 
4.000000000000e+01 -4.000000000000e+00 0.0 
3.900000000000e+01 -4.000000000000e+00 0.0 
3.800000000000e+01 -4.000000000000e+00 0.0 
3.700000000000e+01 -4.000000000000e+00 0.0 
3.600000000000e+01 -4.000000000000e+00 0.0 
3.500000000000e+01 -4.000000000000e+00 0.0 
3.400000000000e+01 -4.000000000000e+00 0.0 
3.300000000000e+01 -4.000000000000e+00 0.0 
3.200000000000e+01 -4.000000000000e+00 0.0 
3.100000000000e+01 -4.000000000000e+00 0.0 
3.000000000000e+01 -4.000000000000e+00 0.0 
2.900000000000e+01 -4.000000000000e+00 0.0 
2.800000000000e+01 -4.000000000000e+00 0.0 
2.700000000000e+01 -4.000000000000e+00 0.0 
2.847826086957e+01 -5.000000000000e+00 0.0 
2.945652173913e+01 -5.000000000000e+00 0.0 
3.043478260870e+01 -5.000000000000e+00 0.0 
3.141304347826e+01 -5.000000000000e+00 0.0 
3.239130434783e+01 -5.000000000000e+00 0.0 
3.336956521739e+01 -5.000000000000e+00 0.0 
3.434782608696e+01 -5.000000000000e+00 0.0 
3.532608695652e+01 -5.000000000000e+00 0.0 
3.630434782609e+01 -5.000000000000e+00 0.0 
3.728260869565e+01 -5.000000000000e+00 0.0 
3.826086956522e+01 -5.000000000000e+00 0.0 
3.923913043478e+01 -5.000000000000e+00 0.0 
4.021739130435e+01 -5.000000000000e+00 0.0 
4.119565217391e+01 -5.000000000000e+00 0.0 
4.217391304348e+01 -5.000000000000e+00 0.0 
4.315217391304e+01 -5.000000000000e+00 0.0 
4.413043478261e+01 -5.000000000000e+00 0.0 
4.510869565217e+01 -5.000000000000e+00 0.0 
4.608695652174e+01 -5.000000000000e+00 0.0 
4.706521739130e+01 -5.000000000000e+00 0.0 
4.804347826087e+01 -5.000000000000e+00 0.0 
4.902173913043e+01 -5.000000000000e+00 0.0 
4.900000000001e+01 -6.000000000000e+00 0.0 
4.800000000003e+01 -6.000000000000e+00 0.0 
4.700000000004e+01 -6.000000000000e+00 0.0 
4.600000000006e+01 -6.000000000000e+00 0.0 
4.500000000007e+01 -6.000000000000e+00 0.0 
4.400000000009e+01 -6.000000000000e+00 0.0 
4.300000000010e+01 -6.000000000000e+00 0.0 
4.200000000012e+01 -6.000000000000e+00 0.0 
4.100000000013e+01 -6.000000000000e+00 0.0 
4.000000000014e+01 -6.000000000000e+00 0.0 
3.900000000014e+01 -6.000000000000e+00 0.0 
3.800000000012e+01 -6.000000000000e+00 0.0 
3.700000000010e+01 -6.000000000000e+00 0.0 
3.600000000008e+01 -6.000000000000e+00 0.0 
3.500000000006e+01 -6.000000000000e+00 0.0 
3.400000000005e+01 -6.000000000000e+00 0.0 
3.300000000003e+01 -6.000000000000e+00 0.0 
3.200000000001e+01 -6.000000000000e+00 0.0 
3.100000000000e+01 -6.000000000000e+00 0.0 
3.000000000000e+01 -6.000000000000e+00 0.0 
3.147499999998e+01 -7.000000000000e+00 0.0 
3.244999999998e+01 -7.000000000000e+00 0.0 
3.342499999998e+01 -7.000000000000e+00 0.0 
3.439999999998e+01 -7.000000000000e+00 0.0 
3.537499999998e+01 -7.000000000000e+00 0.0 
3.634999999998e+01 -7.000000000000e+00 0.0 
3.732499999998e+01 -7.000000000000e+00 0.0 
3.829999999998e+01 -7.000000000000e+00 0.0 
3.927499999999e+01 -7.000000000000e+00 0.0 
4.024999999999e+01 -7.000000000000e+00 0.0 
4.122499999999e+01 -7.000000000000e+00 0.0 
4.219999999999e+01 -7.000000000000e+00 0.0 
4.317499999999e+01 -7.000000000000e+00 0.0 
4.414999999999e+01 -7.000000000000e+00 0.0 
4.512499999999e+01 -7.000000000000e+00 0.0 
4.609999999999e+01 -7.000000000000e+00 0.0 
4.707500000000e+01 -7.000000000000e+00 0.0 
4.805000000000e+01 -7.000000000000e+00 0.0 
4.902500000000e+01 -7.000000000000e+00 0.0 
4.900000000000e+01 -8.000000000000e+00 0.0 
4.800000000000e+01 -8.000000000000e+00 0.0 
4.700000000000e+01 -8.000000000000e+00 0.0 
4.600000000000e+01 -8.000000000000e+00 0.0 
4.500000000000e+01 -8.000000000000e+00 0.0 
4.400000000000e+01 -8.000000000000e+00 0.0 
4.300000000000e+01 -8.000000000000e+00 0.0 
4.200000000000e+01 -8.000000000000e+00 0.0 
4.100000000000e+01 -8.000000000000e+00 0.0 
4.000000000000e+01 -8.000000000000e+00 0.0 
3.900000000000e+01 -8.000000000000e+00 0.0 
3.800000000000e+01 -8.000000000000e+00 0.0 
3.700000000000e+01 -8.000000000000e+00 0.0 
3.600000000000e+01 -8.000000000000e+00 0.0 
3.500000000000e+01 -8.000000000000e+00 0.0 
3.400000000000e+01 -8.000000000000e+00 0.0 
3.300000000000e+01 -8.000000000000e+00 0.0 
3.447058823527e+01 -9.000000000000e+00 0.0 
3.544117647055e+01 -9.000000000000e+00 0.0 
3.641176470582e+01 -9.000000000000e+00 0.0 
3.738235294109e+01 -9.000000000000e+00 0.0 
3.835294117637e+01 -9.000000000000e+00 0.0 
3.932352941164e+01 -9.000000000000e+00 0.0 
4.029411764691e+01 -9.000000000000e+00 0.0 
4.126470588219e+01 -9.000000000000e+00 0.0 
4.223529411748e+01 -9.000000000000e+00 0.0 
4.320588235279e+01 -9.000000000000e+00 0.0 
4.417647058811e+01 -9.000000000000e+00 0.0 
4.514705882342e+01 -9.000000000000e+00 0.0 
4.611764705874e+01 -9.000000000000e+00 0.0 
4.708823529405e+01 -9.000000000000e+00 0.0 
4.805882352937e+01 -9.000000000000e+00 0.0 
4.902941176468e+01 -9.000000000000e+00 0.0 
2.075000000000e+01 -5.000000000006e-01 0.0 
2.225000000000e+01 -1.500000000000e+00 0.0 
2.375000000000e+01 -2.500000000000e+00 0.0 
2.525000000000e+01 -3.500000000000e+00 0.0 
2.675000000000e+01 -4.500000000000e+00 0.0 
2.825000000000e+01 -5.500000000000e+00 0.0 
2.975000000000e+01 -6.500000000000e+00 0.0 
3.125000000000e+01 -7.500000000000e+00 0.0 
3.275000000000e+01 -8.500000000000e+00 0.0 
3.425000000000e+01 -9.500000000000e+00 0.0 
2.226951693683e+01 -2.403913980114e+00 0.0 
1.650149491944e+01 -1.913490915758e+01 0.0 
1.050042386896e+01 -8.504605092970e-01 0.0 
1.553146524712e+01 -8.281255032105e-01 0.0 
1.150000000008e+01 -1.913397459621e+01 0.0 
2.530060260647e+01 -4.428336431260e+00 0.0 
8.651114563942e-01 -1.052096295641e+01 0.0 
2.050000000013e+01 -1.913397459622e+01 0.0 
2.819198729811e+01 -6.399519052838e+00 0.0 
2.445670302931e+01 -1.915649188023e+01 0.0 
3.117591465718e+01 -8.394293040695e+00 0.0 
7.465053044742e+00 -1.920411160581e+01 0.0 
6.398295709691e+00 -8.230098819370e-01 0.0 
2.849659607461e+01 -1.914296187762e+01 0.0 
3.418732642882e+01 -1.040265792588e+01 0.0 
8.386450935063e-01 -6.533605142809e+00 0.0 
9.178661865596e-01 -1.329769195597e+01 0.0 
3.149448624493e+01 -1.910466733764e+01 0.0 
3.552916747426e+01 -1.914628590759e+01 0.0 
4.449210346537e+01 -1.914359085008e+01 0.0 
4.140975975145e+01 -1.906941860733e+01 0.0 
3.847475958753e+01 -1.916622382724e+01 0.0 
3.653774794640e+01 -1.088712800241e+01 0.0 
4.047886341787e+01 -1.090139014048e+01 0.0 
4.348006339825e+01 -1.092792621489e+01 0.0 
4.919519968029e+01 -1.451526755068e+01 0.0 
4.500000000032e+00 -1.913397459621e+01 0.0 
1.856136921614e+01 -8.212235170404e-01 0.0 
3.499895312306e+00 -8.661165539723e-01 0.0 
9.076088696565e-01 -1.642306201891e+01 0.0 
4.655174095477e+01 -1.086183387525e+01 0.0 
9.430688970604e-01 -3.496112672958e+00 0.0 
3.353992337063e+01 -1.901202090820e+01 0.0 
2.249746016977e+01 -1.921262287282e+01 0.0 
2.650122741777e+01 -1.916123026018e+01 0.0 
1.863571384842e+01 -1.908325534840e+01 0.0 
1.450089971693e+01 -1.917691901860e+01 0.0 
1.350044695317e+01 -8.659695299584e-01 0.0 
3.849987469880e+01 -1.084154983397e+01 0.0 
9.454419857884e+00 -1.900818879936e+01 0.0 
4.917398660523e+01 -1.645692866081e+01 0.0 
8.500000000000e+00 -8.660254037844e-01 0.0 
8.660319230785e-01 -8.500111697188e+00 0.0 
4.649022621545e+01 -1.930506220113e+01 0.0 
2.667688107845e+01 -5.420288124331e+00 0.0 
2.379251615665e+01 -3.412225477429e+00 0.0 
2.966631491830e+01 -7.389030232731e+00 0.0 
3.267915035995e+01 -9.396934932445e+00 0.0 
2.074836922338e+01 -1.320054020319e+00 0.0 
4.915985743621e+01 -1.261973384855e+01 0.0 
2.527129768623e+00 -1.931592414663e+01 0.0 
1.538676247410e+00 -8.436956619311e-01 0.0 
4.908096641539e+01 -1.842484004551e+01 0.0 
3.478612492673e+01 -1.090889364140e+01 0.0 
3.409757055860e+01 -1.131991530427e+01 0.0 
3.501895309466e+01 -1.177687842717e+01 0.0 
3.407758073088e+01 -1.224293381580e+01 0.0 
3.484541875390e+01 -1.277051428430e+01 0.0 
3.400322025842e+01 -1.319022775640e+01 0.0 
3.321672625034e+01 -1.266779191233e+01 0.0 
3.315244139236e+01 -1.360984106532e+01 0.0 
3.236335186892e+01 -1.308463225210e+01 0.0 
3.478337442841e+01 -1.372341158982e+01 0.0 
3.230105923633e+01 -1.403023731610e+01 0.0 
3.150954055289e+01 -1.350301767700e+01 0.0 
3.144604792090e+01 -1.444931742516e+01 0.0 
3.065653897123e+01 -1.392357262981e+01 0.0 
3.071897610812e+01 -1.297447031198e+01 0.0 
2.986790411740e+01 -1.339226181535e+01 0.0 
2.993181466745e+01 -1.244703272398e+01 0.0 
2.908023061869e+01 -1.286254537734e+01 0.0 
2.901619051372e+01 -1.380881655279e+01 0.0 
2.822986160390e+01 -1.327695262116e+01 0.0 
2.829453476870e+01 -1.233265343811e+01 0.0 
2.744542905518e+01 -1.274510491105e+01 0.0 
2.751120089246e+01 -1.180368086886e+01 0.0 
2.666218649885e+01 -1.221619339205e+01 0.0 
2.672371209234e+01 -1.127125228527e+01 0.0 
2.587763216302e+01 -1.168539979114e+01 0.0 
2.581165585299e+01 -1.262994410089e+01 0.0 
2.502890882577e+01 -1.209827323619e+01 0.0 
2.509631327757e+01 -1.115492410304e+01 0.0 
2.424662989877e+01 -1.156630981079e+01 0.0 
2.431704046904e+01 -1.062389179334e+01 0.0 
2.346445438728e+01 -1.103427680694e+01 0.0 
2.339382552877e+01 -1.197964871788e+01 0.0 
2.260936050780e+01 -1.144513277642e+01 0.0 
2.268075012022e+01 -1.049911928216e+01 0.0 
2.182525737661e+01 -1.090920811464e+01 0.0 
2.189682319817e+01 -9.961716944568e+00 0.0 
2.104174127792e+01 -1.037266986667e+01 0.0 
2.111304367575e+01 -9.424179358711e+00 0.0 
2.025306185381e+01 -9.832727364719e+00 0.0 
2.018141124247e+01 -1.079140628871e+01 0.0 
1.938594498257e+01 -1.025147354112e+01 0.0 
1.946106490453e+01 -9.288010758448e+00 0.0 
1.858929958352e+01 -9.706319802516e+00 0.0 
1.851540991219e+01 -1.067205988724e+01 0.0 
1.771485303178e+01 -1.012504443115e+01 0.0 
1.764134552256e+01 -1.109360378538e+01 0.0 
1.683745148095e+01 -1.054496365337e+01 0.0 
1.691852964353e+01 -9.582555261178e+00 0.0 
1.603603813062e+01 -1.000160132379e+01 0.0 
1.595824239350e+01 -1.096750698862e+01 0.0 
1.515080624291e+01 -1.041639501931e+01 0.0 
1.523171602559e+01 -9.451711491453e+00 0.0 
1.434621060709e+01 -9.871956467464e+00 0.0 
1.426777178765e+01 -1.083749501371e+01 0.0 
1.345775282374e+01 -1.028803175500e+01 0.0 
1.354103873368e+01 -9.324918457162e+00 0.0 
1.265072018622e+01 -9.742612837270e+00 0.0 
1.257285762070e+01 -1.071557782384e+01 0.0 
1.175874815690e+01 -1.015972324288e+01 0.0 
1.184203019714e+01 -9.193604071377e+00 0.0 
1.094927709905e+01 -9.612103238656e+00 0.0 
1.086938022910e+01 -1.058685085646e+01 0.0 
1.005424098961e+01 -1.002939116380e+01 0.0 
9.977974613295e+00 -1.101324897989e+01 0.0 
1.012915646404e+01 -9.051815821181e+00 0.0 
9.237127782494e+00 -9.471239055559e+00 0.0 
9.308426593771e+00 -8.483376461131e+00 0.0 
8.418806073345e+00 -8.910712374517e+00 0.0 
2.253688464062e+01 -1.239459402279e+01 0.0 
8.495126726666e+00 -7.921646665254e+00 0.0 
9.389727383206e+00 -7.512103628377e+00 0.0 
7.601560812974e+00 -8.349460349344e+00 0.0 
7.525680547759e+00 -9.339736686940e+00 0.0 
7.677888324502e+00 -7.359727833346e+00 0.0 
6.782001206724e+00 -7.788454494773e+00 0.0 
6.858778622885e+00 -6.797338062822e+00 0.0 
2.196596590865e+01 -8.979025665442e+00 0.0 
2.816540108272e+01 -1.422634142353e+01 0.0 
5.961601194403e+00 -7.226824010712e+00 0.0 
6.038171749656e+00 -6.234825887079e+00 0.0 
6.936257279557e+00 -5.805287640737e+00 0.0 
6.115068918323e+00 -5.242109758768e+00 0.0 
3.564391741903e+01 -1.329240553876e+01 0.0 
3.558115605778e+01 -1.425902892003e+01 0.0 
3.645445282201e+01 -1.381970786460e+01 0.0 
3.639744204358e+01 -1.479198128612e+01 0.0 
3.727266909778e+01 -1.435399586226e+01 0.0 
5.216667013081e+00 -5.671788584287e+00 0.0 
3.220697293295e+01 -1.499594545107e+01 0.0 
3.551112158269e+01 -1.523479869250e+01 0.0 
2.836056961467e+01 -1.139032434851e+01 0.0 
2.516730388602e+01 -1.021382726837e+01 0.0 
1.844436907403e+01 -1.164097215196e+01 0.0 
5.885434318740e+00 -8.218694781467e+00 0.0 
5.064071066867e+00 -7.656614643901e+00 0.0 
4.988089103470e+00 -8.649722082718e+00 0.0 
1.079421050408e+01 -1.157014985435e+01 0.0 
9.902420005256e+00 -1.199903342656e+01 0.0 
1.071994252214e+01 -1.255727909771e+01 0.0 
9.826974788171e+00 -1.298659581767e+01 0.0 
1.064607883789e+01 -1.354595476388e+01 0.0 
9.751541265343e+00 -1.397556905071e+01 0.0 
8.932296185869e+00 -1.341553353988e+01 0.0 
8.856399248106e+00 -1.440570715508e+01 0.0 
8.036186803543e+00 -1.384470558472e+01 0.0 
1.057112875118e+01 -1.453516759081e+01 0.0 
1.146582585687e+01 -1.410539926903e+01 0.0 
7.959894480382e+00 -1.483563350928e+01 0.0 
7.138792279156e+00 -1.427465094140e+01 0.0 
7.062506792418e+00 -1.526615385482e+01 0.0 
6.240693558277e+00 -1.470508863040e+01 0.0 
6.316957575451e+00 -1.371212581281e+01 0.0 
5.418183007107e+00 -1.414253605022e+01 0.0 
5.494748364428e+00 -1.314886770603e+01 0.0 
1.756825565873e+01 -1.206433872514e+01 0.0 
1.837565773345e+01 -1.261356468266e+01 0.0 
1.749574831391e+01 -1.303769280014e+01 0.0 
1.830539187332e+01 -1.358828364284e+01 0.0 
1.742278925170e+01 -1.401367746928e+01 0.0 
1.823303007798e+01 -1.456432294258e+01 0.0 
1.734941694138e+01 -1.499213734361e+01 0.0 
1.653760041637e+01 -1.443920312098e+01 0.0 
3.056237977307e+01 -1.487132260174e+01 0.0 
1.866469084762e+01 -8.742953000418e+00 0.0 
1.953669694916e+01 -8.326038909849e+00 0.0 
1.874194303780e+01 -7.780688158966e+00 0.0 
1.961032016741e+01 -7.366854697285e+00 0.0 
1.881715755159e+01 -6.821102209649e+00 0.0 
1.968369797150e+01 -6.407747217358e+00 0.0 
1.889237123259e+01 -5.858375520026e+00 0.0 
1.802038875366e+01 -6.276202618170e+00 0.0 
1.809793837984e+01 -5.307629520489e+00 0.0 
1.721985207997e+01 -5.728242054488e+00 0.0 
1.729850893523e+01 -4.756990819347e+00 0.0 
1.641745664240e+01 -5.174636548624e+00 0.0 
2.495978509456e+01 -1.304406404294e+01 0.0 
1.911567814831e+01 -1.413854250293e+01 0.0 
1.904387332608e+01 -1.511463127723e+01 0.0 
1.992115934240e+01 -1.468788025898e+01 0.0 
7.013706899628e+00 -4.812582868662e+00 0.0 
5.342091874585e+00 -1.513658157269e+01 0.0 
1.139098043784e+01 -1.509488509480e+01 0.0 
1.228151810610e+01 -1.465617481983e+01 0.0 
1.646373110164e+01 -1.541993323337e+01 0.0 
5.293328636712e+00 -4.678385108584e+00 0.0 
1.975965862987e+01 -5.448124345648e+00 0.0 
2.054318374236e+01 -5.992561293251e+00 0.0 
3.721453439063e+01 -1.533216152738e+01 0.0 
3.809302733893e+01 -1.489235527381e+01 0.0 
1.220852788900e+01 -1.565304565230e+01 0.0 
4.394120899730e+00 -5.108397613210e+00 0.0 
8.779354620288e+00 -1.539524721159e+01 0.0 
1.817791047702e+01 -4.338570146253e+00 0.0 
4.518860013839e+00 -1.457343189307e+01 0.0 
4.442712140414e+00 -1.556841391069e+01 0.0 
8.115343466391e+00 -1.285760324283e+01 0.0 
1.985334703171e+01 -1.566478400426e+01 0.0 
2.071953850276e+01 -1.522074243119e+01 0.0 
1.634012953883e+01 -6.154777738301e+00 0.0 
1.553479994708e+01 -5.593730508879e+00 0.0 
1.561265946942e+01 -4.617761762647e+00 0.0 
1.470674212978e+01 -5.064576488228e+00 0.0 
1.464498299883e+01 -6.026514471420e+00 0.0 
1.383271561817e+01 -5.467796261169e+00 0.0 
1.389241253067e+01 -4.504338666645e+00 0.0 
1.301868735463e+01 -4.907185188626e+00 0.0 
1.294514184846e+01 -5.888160903592e+00 0.0 
1.212955968622e+01 -5.328262335277e+00 0.0 
1.220721122383e+01 -4.341264976687e+00 0.0 
1.131324345897e+01 -4.766773516508e+00 0.0 
5.266597955397e+00 -1.613148974258e+01 0.0 
1.737805990867e+01 -3.786677807525e+00 0.0 
3.078438094513e+01 -1.203225297748e+01 0.0 
1.131569882285e+01 -1.608511932110e+01 0.0 
1.728478341782e+01 -1.596017432313e+01 0.0 
3.803465906019e+01 -1.587509751228e+01 0.0 
3.891681276677e+01 -1.543395196905e+01 0.0 
3.897340985302e+01 -1.444710288980e+01 0.0 
3.980095968193e+01 -1.499059496613e+01 0.0 
3.974334598189e+01 -1.597921884150e+01 0.0 
4.062964983717e+01 -1.553518690417e+01 0.0 
4.068729602479e+01 -1.454434445295e+01 0.0 
4.151772679790e+01 -1.508974196007e+01 0.0 
4.157505195739e+01 -1.409694289912e+01 0.0 
4.240699932656e+01 -1.464347955968e+01 0.0 
4.234898051011e+01 -1.563721375790e+01 0.0 
4.323934606035e+01 -1.519082036405e+01 0.0 
4.329740528208e+01 -1.419587509788e+01 0.0 
4.413056841369e+01 -1.474359631875e+01 0.0 
4.418850110108e+01 -1.374786684042e+01 0.0 
4.502219770667e+01 -1.429605103525e+01 0.0 
4.496411937907e+01 -1.529215882720e+01 0.0 
4.490027319897e+00 -4.154167794594e+00 0.0 
1.565080385988e+01 -1.486411982419e+01 0.0 
1.557610691279e+01 -1.584855627870e+01 0.0 
4.195350646612e+00 -8.089117689096e+00 0.0 
4.124027797830e+00 -9.082831955007e+00 0.0 
4.917944318925e+00 -9.643530901533e+00 0.0 
4.020105689502e+00 -1.007439673661e+01 0.0 
4.587185899277e+01 -1.484039992728e+01 0.0 
4.580078661551e+01 -1.584043391042e+01 0.0 
2.061956522375e+01 -5.046701343981e+00 0.0 
2.139572955529e+01 -5.579553449826e+00 0.0 
3.715344357292e+01 -1.631485124583e+01 0.0 
3.618886196443e+00 -1.500471207167e+01 0.0 
3.695606940204e+00 -1.400939692294e+01 0.0 
2.438890661143e+01 -9.686110599723e+00 0.0 
2.523267572778e+01 -9.276766000622e+00 0.0 
2.446094171539e+01 -8.751904591412e+00 0.0 
2.529089822738e+01 -8.321495612547e+00 0.0 
2.606882688827e+01 -8.864724051119e+00 0.0 
2.452116646430e+01 -7.792756462004e+00 0.0 
1.235543269617e+01 -1.365845617339e+01 0.0 
4.318116874181e+01 -1.618567469992e+01 0.0 
7.835066111909e+00 -5.376366223896e+00 0.0 
7.905687335704e+00 -4.382539065697e+00 0.0 
3.542640009567e+00 -1.600035116542e+01 0.0 
1.572431503071e+01 -1.388358386695e+01 0.0 
2.574684696680e+01 -1.357896141127e+01 0.0 
2.488842657651e+01 -1.399674354505e+01 0.0 
2.568301775611e+01 -1.453552048595e+01 0.0 
2.481535572009e+01 -1.495542756508e+01 0.0 
2.561729699688e+01 -1.549784648532e+01 0.0 
2.474623061296e+01 -1.592058894178e+01 0.0 
2.394234041695e+01 -1.537572575827e+01 0.0 
2.065825452567e+01 -1.621899055217e+01 0.0 
2.387180528935e+01 -1.634552264687e+01 0.0 
4.585364400844e+01 -1.383912334080e+01 0.0 
1.998744432052e+01 -1.370317155541e+01 0.0 
1.205356951443e+01 -6.313580285498e+00 0.0 
5.396543905849e+00 -3.731818611283e+00 0.0 
1.139652573295e+01 -3.745819399350e+00 0.0 
3.574124306703e+00 -4.551456826011e+00 0.0 
3.494140761930e+00 -5.539787055649e+00 0.0 
1.213651452413e+01 -1.664505033022e+01 0.0 
2.555045568519e+01 -1.646529356744e+01 0.0 
2.641671114986e+01 -1.603899382371e+01 0.0 
2.612920721894e+01 -7.906435260873e+00 0.0 
2.690339829698e+01 -8.456969591431e+00 0.0 
1.978024383368e+01 -1.664410216353e+01 0.0 
3.732829979082e+01 -1.336926601859e+01 0.0 
4.074336584605e+01 -1.355133328401e+01 0.0 
4.163204691081e+01 -1.310280943992e+01 0.0 
3.773826114429e+00 -3.493444309145e+00 0.0 
1.228783001032e+01 -3.374822835872e+00 0.0 
4.057110462520e+01 -1.652588478000e+01 0.0 
2.132535497898e+01 -6.523623360525e+00 0.0 
2.216932532211e+01 -6.110044769206e+00 0.0 
1.825781152128e+01 -3.370146817147e+00 0.0 
1.745679445888e+01 -2.812942552063e+00 0.0 
4.666517057280e+01 -1.539981381543e+01 0.0 
4.660575894464e+01 -1.639014410186e+01 0.0 
4.838230979954e+00 -1.063643436446e+01 0.0 
3.938942630206e+00 -1.106778981745e+01 0.0 
1.302967218620e+01 -1.621373452436e+01 0.0 
1.049548003190e+01 -4.204825123240e+00 0.0 
4.573571907195e+01 -1.683820511148e+01 0.0 
1.483686335807e+01 -1.430849689310e+01 0.0 
1.490982658890e+01 -1.332679386284e+01 0.0 
3.190805600162e+00 -9.510968358545e+00 0.0 
2.146625721848e+01 -4.642437303115e+00 0.0 
2.069866208266e+01 -4.111852942193e+00 0.0 
1.286859345584e+01 -6.873252723348e+00 0.0 
1.041794493184e+01 -5.194814260291e+00 0.0 
2.671081808965e+00 -4.976806516331e+00 0.0 
1.295786792925e+01 -1.720506531799e+01 0.0 
3.968438206511e+01 -1.696869067241e+01 0.0 
2.308550456051e+01 -1.579963151273e+01 0.0 
2.315593682844e+01 -1.482967445235e+01 0.0 
2.299471449450e+01 -1.677069968132e+01 0.0 
1.057344714696e+01 -3.214252277840e+00 0.0 
1.124057603753e+01 -1.707713739755e+01 0.0 
2.718402535754e+00 -1.543629882103e+01 0.0 
2.638549692805e+01 -1.696744916809e+01 0.0 
2.723416349007e+01 -1.658104204545e+01 0.0 
2.210193351704e+01 -7.046769643417e+00 0.0 
2.295180925161e+01 -6.657397605239e+00 0.0 
2.301355235833e+01 -5.709111896800e+00 0.0 
2.379052718281e+01 -6.254965406962e+00 0.0 
3.243528601237e+01 -1.214181853533e+01 0.0 
2.287977995457e+01 -7.583722368300e+00 0.0 
2.999876029544e+01 -1.150837653096e+01 0.0 
3.084435366963e+01 -1.109693775882e+01 0.0 
3.006650579669e+01 -1.057778994262e+01 0.0 
2.683802665066e+01 -9.386863216633e+00 0.0 
2.768641973621e+01 -8.988883915666e+00 0.0 
2.040296980397e+01 -7.903629133404e+00 0.0 
1.925235024054e+01 -1.218872783130e+01 0.0 
5.735667000424e+00 -1.020577277283e+01 0.0 
6.396559909872e+00 -1.272326295703e+01 0.0 
1.161199420714e+01 -1.212812778229e+01 0.0 
4.229046132615e+01 -1.663084237572e+01 0.0 
4.312275399692e+01 -1.718087491556e+01 0.0 
4.335502068163e+01 -1.320039231514e+01 0.0 
4.424630298089e+01 -1.275160688731e+01 0.0 
7.090116643816e+00 -3.818998061530e+00 0.0 
7.989472176569e+00 -3.389238711200e+00 0.0 
9.085824861778e+00 -1.144036167408e+01 0.0 
1.041972423731e+01 -1.651614080893e+01 0.0 
3.797525112640e+01 -1.686052038746e+01 0.0 
3.709114253394e+01 -1.730125999865e+01 0.0 
3.626966748340e+01 -1.675477052919e+01 0.0 
1.385164591440e+01 -1.677597757552e+01 0.0 
1.787152588784e+01 -8.198993896093e+00 0.0 
1.668849729812e+01 -1.248560611628e+01 0.0 
1.659546177905e+01 -3.232482605530e+00 0.0 
2.332214717345e+01 -1.292598167641e+01 0.0 
7.168238450786e+00 -2.824711686516e+00 0.0 
2.894878403906e+01 -1.475427524446e+01 0.0 
2.646763248247e+00 -1.643270107952e+01 0.0 
3.467431944285e+00 -1.699648837348e+01 0.0 
2.059475877282e+01 -1.719473628526e+01 0.0 
3.333868355437e+01 -1.080596971682e+01 0.0 
2.246451062637e+01 -1.334557761546e+01 0.0 
2.167821896388e+01 -1.280847834858e+01 0.0 
3.089653185767e+01 -1.017198487212e+01 0.0 
3.012604365669e+01 -9.657298805968e+00 0.0 
2.929627299435e+01 -1.006100135274e+01 0.0 
2.936201435219e+01 -9.136748899251e+00 0.0 
1.198219052702e+01 -7.291887238230e+00 0.0 
1.116702076035e+01 -6.731976101053e+00 0.0 
2.551388807505e+01 -1.746927036981e+01 0.0 
2.378639090370e+01 -1.728678807149e+01 0.0 
2.718543627188e+01 -1.748668016909e+01 0.0 
2.804681050301e+01 -1.712626668293e+01 0.0 
1.970737034667e+01 -1.762317646822e+01 0.0 
1.889535776135e+01 -1.707158098231e+01 0.0 
2.593777711283e+00 -5.971157087874e+00 0.0 
2.773468281110e+01 -8.067164273938e+00 0.0 
4.051205884347e+01 -1.751819982458e+01 0.0 
3.166903145421e+01 -1.068032992414e+01 0.0 
1.033042452886e+01 -1.748285844336e+01 0.0 
9.519274604626e+00 -1.694349240233e+01 0.0 
1.668308673328e+01 -2.255861778986e+00 0.0 
1.570531902832e+01 -2.676795860126e+00 0.0 
4.655826903379e+01 -1.736656245706e+01 0.0 
2.384148070773e+01 -5.328744256413e+00 0.0 
2.460255123641e+01 -5.852182672816e+00 0.0 
2.306638135119e+01 -4.798935440613e+00 0.0 
8.467720450578e-01 -1.849576263072e+01 0.0 
4.849657322345e+01 -1.084860705506e+01 0.0 
2.565860899507e+00 -1.742859793981e+01 0.0 
2.764418872564e+01 -9.927142821799e+00 0.0 
4.565165880064e+01 -1.785336695404e+01 0.0 
2.162231831329e+01 -1.376528337468e+01 0.0 
2.360646352969e+01 -9.136041963102e+00 0.0 
1.392738739903e+01 -1.578285505772e+01 0.0 
4.756405947478e+01 -1.683706841809e+01 0.0 
4.740895034054e+01 -1.793766756892e+01 0.0 
4.080779328826e+01 -1.257387192544e+01 0.0 
4.168907939671e+01 -1.210739129181e+01 0.0 
3.991197722154e+01 -1.300815793917e+01 0.0 
1.905536506762e+01 -3.940076697685e+00 0.0 
1.923879596617e+01 -2.875000734166e+00 0.0 
4.401386745746e+01 -1.673483229438e+01 0.0 
4.247233362525e+00 -7.094581653070e+00 0.0 
3.286051630211e+00 -7.635300020553e+00 0.0 
9.609533347623e+00 -4.594311677967e+00 0.0 
9.523554636369e+00 -5.595597029530e+00 0.0 
5.660336628893e+00 -1.119290329628e+01 0.0 
6.558070063295e+00 -1.076385809362e+01 0.0 
2.809866407414e+01 -1.518037766799e+01 0.0 
2.888868674504e+01 -1.570360690070e+01 0.0 
2.654431550819e+01 -1.411217777162e+01 0.0 
1.402158265969e+01 -1.375404617952e+01 0.0 
1.409592494026e+01 -1.277071998942e+01 0.0 
1.499355196178e+01 -1.235270737023e+01 0.0 
4.221535326155e+01 -1.759335617494e+01 0.0 
4.305583287033e+01 -1.822663146802e+01 0.0 
1.280748808359e+01 -7.834332838285e+00 0.0 
1.368988389326e+01 -7.420529606172e+00 0.0 
1.110091796060e+01 -7.683966794328e+00 0.0 
3.963446145980e+01 -1.794331310122e+01 0.0 
3.423932362213e+00 -1.796415590455e+01 0.0 
4.280814572302e+00 -1.752272834860e+01 0.0 
8.050136380041e+00 -2.421582378631e+00 0.0 
8.888674091650e+00 -2.984264211327e+00 0.0 
2.152839430898e+01 -3.732609965436e+00 0.0 
2.077799585292e+01 -3.183896021866e+00 0.0 
3.618719395821e+01 -1.770276572576e+01 0.0 
3.538165138340e+01 -1.718709995539e+01 0.0 
3.702925326420e+01 -1.828844288807e+01 0.0 
1.756739438711e+00 -5.353284859169e+00 0.0 
2.233710191104e+01 -1.527265621324e+01 0.0 
1.389483555057e+01 -1.771797164730e+01 0.0 
1.475634224300e+01 -1.728357428390e+01 0.0 
1.298797563052e+01 -1.825968924755e+01 0.0 
2.145331271866e+01 -1.673705379077e+01 0.0 
2.133282821169e+01 -1.769400773673e+01 0.0 
2.292139194136e+01 -1.774915400288e+01 0.0 
1.750750053243e+01 -1.861475593469e+00 0.0 
4.830478841772e+01 -1.752611802221e+01 0.0 
4.341203507805e+01 -1.220326745522e+01 0.0 
1.685254151866e+01 -1.443085301632e+00 0.0 
4.431538535165e+01 -1.171841387375e+01 0.0 
4.511308610496e+01 -1.229557320599e+01 0.0 
4.510133242889e+01 -1.123680627466e+01 0.0 
1.846818030617e+00 -4.410877617069e+00 0.0 
3.995468694584e+01 -1.186571542989e+01 0.0 
3.901387459804e+01 -1.242507616755e+01 0.0 
8.966735877533e+00 -1.837818700423e+00 0.0 
4.049310011091e+01 -1.848269508791e+01 0.0 
7.278862053803e+00 -1.918523922691e+00 0.0 
6.429715522129e+00 -2.316676521184e+00 0.0 
9.443505505022e+00 -1.792198868094e+01 0.0 
8.620386951051e+00 -1.737590365556e+01 0.0 
8.571868171503e+00 -1.834436667826e+01 0.0 
7.758629848526e+00 -1.775677907213e+01 0.0 
7.806648388584e+00 -1.680761266021e+01 0.0 
6.908555145436e+00 -1.723746463044e+01 0.0 
4.251709122090e+01 -1.156937480156e+01 0.0 
6.931136405615e+00 -1.832465719263e+01 0.0 
6.015545461353e+00 -1.768865355295e+01 0.0 
5.960535926343e+00 -1.872011001764e+01 0.0 
3.023253444786e+01 -8.761960642196e+00 0.0 
2.454622702599e+01 -6.749421992767e+00 0.0 
2.537499741604e+01 -6.347634963783e+00 0.0 
2.544077378460e+01 -5.431358513649e+00 0.0 
2.801367161747e+01 -1.820907270221e+01 0.0 
2.884507806914e+01 -1.762032095326e+01 0.0 
1.821474531936e+00 -1.588901260460e+01 0.0 
1.821006262604e+00 -1.489370287756e+01 0.0 
4.599962488908e+01 -1.176478780598e+01 0.0 
4.705457470007e+01 -1.172182804229e+01 0.0 
4.667668314802e+01 -1.263464558483e+01 0.0 
4.759648056504e+01 -1.252380987933e+01 0.0 
4.728041618103e+01 -1.341928568376e+01 0.0 
4.825209352360e+01 -1.330491640804e+01 0.0 
4.778118233428e+01 -1.420151961695e+01 0.0 
2.388192727579e+01 -1.826934810142e+01 0.0 
2.381714684947e+01 -4.385917965223e+00 0.0 
3.172733219247e+01 -9.758744265248e+00 0.0 
1.882012070658e+01 -1.805540597212e+01 0.0 
1.805667505243e+01 -1.742221226236e+01 0.0 
2.852599958080e+01 -8.597196079481e+00 0.0 
2.856486123437e+01 -7.661382718527e+00 0.0 
1.111792842875e+01 -1.818223852980e+01 0.0 
2.203322722466e+01 -7.986646678802e+00 0.0 
3.955703676900e+01 -1.903246763601e+01 0.0 
1.944842206513e+01 -8.038750575182e-01 0.0 
1.909882767783e+01 -1.746322740933e+00 0.0 
2.281147422941e+01 -8.525912918334e+00 0.0 
2.850633001468e+01 -9.533271335986e+00 0.0 
2.532883344309e+01 -7.308951659710e+00 0.0 
2.620475466461e+01 -6.979208585400e+00 0.0 
1.396278270396e+01 -1.475095389807e+01 0.0 
9.791001166724e+00 -2.554159793552e+00 0.0 
2.229293380421e+01 -4.269762271052e+00 0.0 
4.677238984118e+01 -1.430071795514e+01 0.0 
2.228658385918e+01 -3.344747535984e+00 0.0 
8.940223674553e-01 -1.543595733415e+01 0.0 
2.118566862474e+01 -8.435876987696e+00 0.0 
2.678325936437e+01 -1.032621195706e+01 0.0 
2.223400220487e+01 -5.179046761770e+00 0.0 
2.375370625384e+01 -7.251580562134e+00 0.0 
3.156971327386e+01 -1.255534750737e+01 0.0 
3.328226391312e+01 -1.172914813316e+01 0.0 
3.250948774219e+01 -1.120157009348e+01 0.0 
2.032993445717e+01 -8.867880112202e+00 0.0 
2.697226974856e+01 -7.536633082045e+00 0.0 
2.707377810386e+01 -6.590835263295e+00 0.0 
2.914099246827e+01 -1.191678458549e+01 0.0 
3.544824072239e+01 -1.621126558525e+01 0.0 
3.456511855436e+01 -1.665054783843e+01 0.0 
3.448395810225e+01 -1.759117813016e+01 0.0 
3.368378673938e+01 -1.708037781328e+01 0.0 
3.375560452567e+01 -1.610973066913e+01 0.0 
3.288001547988e+01 -1.654324255651e+01 0.0 
3.282475929147e+01 -1.749725654692e+01 0.0 
3.199880906313e+01 -1.697294088625e+01 0.0 
3.197001272932e+01 -1.811667776864e+01 0.0 
3.111884713021e+01 -1.742166785755e+01 0.0 
3.120418962865e+01 -1.642155709385e+01 0.0 
3.034666704371e+01 -1.683123833816e+01 0.0 
3.026224379976e+01 -1.772592851714e+01 0.0 
3.046632362943e+01 -1.582232843075e+01 0.0 
1.961344017324e+01 -1.857459447985e+01 0.0 
2.274975894774e+01 -9.532738811922e+00 0.0 
1.833923246887e+01 -2.396746883672e+00 0.0 
1.988859500848e+01 -2.249244376594e+00 0.0 
2.758045562861e+01 -1.086434261689e+01 0.0 
3.247300178163e+01 -1.909930104252e+01 0.0 
3.461947482503e+01 -1.911879848019e+01 0.0 
2.047161538662e+01 -6.941478180358e+00 0.0 
2.750230940214e+01 -1.915490590764e+01 0.0 
3.165081350803e+01 -1.161860780120e+01 0.0 
1.897456727641e+01 -4.889634688522e+00 0.0 
2.549338539756e+01 -1.914858252089e+01 0.0 
3.462873135081e+01 -1.567482276144e+01 0.0 
3.384432415243e+01 -1.512280684518e+01 0.0 
3.471433767690e+01 -1.469086942990e+01 0.0 
3.651470373046e+01 -1.918207952149e+01 0.0 
3.901742690249e+01 -1.345028556517e+01 0.0 
2.153224102692e+01 -1.920169709333e+01 0.0 
1.918382939341e+01 -1.316226275662e+01 0.0 
2.005389162382e+01 -1.271962165174e+01 0.0 
2.011472087878e+01 -1.175029352900e+01 0.0 
3.210679478412e+01 -1.598038618242e+01 0.0 
1.752175226543e+01 -1.914713022656e+01 0.0 
1.696897240059e+01 -1.832772588765e+01 0.0 
1.599682523337e+01 -1.832599992024e+01 0.0 
1.644507199462e+01 -1.743697981535e+01 0.0 
1.549987712903e+01 -1.915192375101e+01 0.0 
3.050250861901e+01 -1.918943550234e+01 0.0 
2.949944061527e+01 -1.922950455235e+01 0.0 
1.375892575273e+01 -6.447160534926e+00 0.0 
1.457223670180e+01 -7.006709243857e+00 0.0 
1.450818793236e+01 -7.965943451779e+00 0.0 
1.538804712402e+01 -7.553409623699e+00 0.0 
1.545817644768e+01 -6.580929593419e+00 0.0 
1.626506893751e+01 -7.129032608911e+00 0.0 
1.619833811522e+01 -8.086588580887e+00 0.0 
1.714448609609e+01 -6.697429609777e+00 0.0 
2.887616543568e+01 -1.668015232137e+01 0.0 
1.349814589130e+01 -1.918225301544e+01 0.0 
1.153887772210e+01 -1.311384581217e+01 0.0 
1.242708159886e+01 -1.267046795531e+01 0.0 
1.249799674267e+01 -1.169005616014e+01 0.0 
6.631723893693e+00 -9.774184881867e+00 0.0 
7.451471631867e+00 -1.033148796006e+01 0.0 
7.377795355458e+00 -1.132196345268e+01 0.0 
5.810931797536e+00 -9.211654212252e+00 0.0 
2.402683899133e+01 -1.441378562320e+01 0.0 
1.249768692036e+01 -1.917388426624e+01 0.0 
1.580373499437e+01 -1.290751860664e+01 0.0 
8.344650507834e+00 -9.898403995170e+00 0.0 
3.750622115305e+01 -1.086526401533e+01 0.0 
3.699391251667e+01 -1.171695900794e+01 0.0 
3.606517829518e+01 -1.173717504500e+01 0.0 
3.650257641795e+01 -1.270047380221e+01 0.0 
3.808951488918e+01 -1.183518714175e+01 0.0 
4.760380962420e+00 -1.162484888315e+01 0.0 
3.861210370848e+00 -1.205657631736e+01 0.0 
3.038284309476e+00 -1.149851280664e+01 0.0 
2.961598794889e+00 -1.248856794980e+01 0.0 
2.138953225512e+00 -1.193212674534e+01 0.0 
2.227383593457e+00 -1.096258903918e+01 0.0 
2.043265419276e+00 -1.292158472959e+01 0.0 
1.252449446028e+00 -1.225502002753e+01 0.0 
3.949985210740e+01 -1.086594001795e+01 0.0 
1.453499444792e+01 -8.768805922472e-01 0.0 
1.403518950933e+01 -1.749965556633e+00 0.0 
1.300715031023e+01 -1.714737233040e+00 0.0 
1.350929389899e+01 -2.527443911291e+00 0.0 
1.449600910711e+01 -2.595486162864e+00 0.0 
1.395693872901e+01 -3.484211041558e+00 0.0 
1.495105865208e+01 -3.364609636216e+00 0.0 
1.508822528740e+01 -1.766586020494e+00 0.0 
1.250223858430e+01 -8.634590186802e-01 0.0 
1.200279523409e+01 -1.709044504992e+00 0.0 
1.150086239419e+01 -8.592789190668e-01 0.0 
1.101482754194e+01 -1.677730591922e+00 0.0 
1.148018564526e+01 -2.659323866909e+00 0.0 
8.800552119754e+00 -3.989875954728e+00 0.0 
3.452790439430e+00 -1.901136170646e+01 0.0 
8.658451825200e-01 -9.503462241795e+00 0.0 
1.694787786797e+00 -9.000589234502e+00 0.0 
1.703436717094e+00 -8.038819004041e+00 0.0 
2.594197971110e+00 -8.563955242845e+00 0.0 
1.630513735412e+00 -9.907244747511e+00 0.0 
8.566859292791e-01 -7.512203837972e+00 0.0 
1.685461277022e+00 -7.164280248030e+00 0.0 
2.506394468801e+00 -8.623386730818e-01 0.0 
2.007475081581e+00 -1.727729545205e+00 0.0 
9.211534699767e-01 -1.628791366312e+00 0.0 
1.500000000020e+00 -2.598063549486e+00 0.0 
2.482078929963e+00 -2.553580088725e+00 0.0 
2.999795253092e+00 -1.732169015019e+00 0.0 
3.999712607169e+00 -1.728832897453e+00 0.0 
4.499752199340e+00 -8.656478679175e-01 0.0 
4.964377774841e+00 -1.730129617941e+00 0.0 
4.425017908337e+00 -2.597541756243e+00 0.0 
5.446573195014e+00 -8.410144840023e-01 0.0 
4.915722346614e+01 -1.550640962770e+01 0.0 
4.826794919243e+01 -1.600000000000e+01 0.0 
1.053139533193e+01 -1.911782884365e+01 0.0 
4.156049861949e+01 -1.095160998589e+01 0.0 
9.494526624416e+00 -8.650570090219e-01 0.0 
4.555762166964e+01 -1.897098103585e+01 0.0 
4.250656411371e+01 -1.914387356218e+01 0.0 
4.350906466345e+01 -1.917234727395e+01 0.0 
8.759665722424e-01 -1.746422130609e+01 0.0 
1.698936011838e+00 -1.795012186674e+01 0.0 
4.742476811029e+01 -1.900090177972e+01 0.0 
7.749196752349e+00 -6.368049313489e+00 0.0 
3.361572113416e+01 -1.798765193915e+01 0.0 
4.484660149212e+01 -1.728661231383e+01 0.0 
1.984038172228e+01 -4.502575320116e+00 0.0 
1.035080352627e+01 -6.166639575753e+00 0.0 
2.753558010652e+00 -1.444909521181e+01 0.0 
7.217069543032e+00 -1.328635391078e+01 0.0 
4.364336727739e+00 -1.655585677381e+01 0.0 
4.595208426108e+00 -1.357919665443e+01 0.0 
6.164967006980e+00 -1.569873454630e+01 0.0 
1.487855768353e+01 -1.826523774028e+01 0.0 
2.791876456372e+00 -4.019632415181e+00 0.0 
4.246464893515e+01 -1.364898659620e+01 0.0 
4.503855590351e+01 -1.329552780944e+01 0.0 
4.407239109604e+01 -1.573900004093e+01 0.0 
5.141054449252e+00 -6.664290382472e+00 0.0 
3.141083947149e+00 -1.055790764912e+01 0.0 
6.196463198741e+00 -4.256497932609e+00 0.0 
2.599618716181e+01 -1.836893455464e+01 0.0 
2.923057372337e+01 -1.098461757645e+01 0.0 
1.168343877486e+01 -1.114079645041e+01 0.0 
6.706222096238e+00 -8.780364234441e+00 0.0 
8.567858614669e+00 -6.943121440850e+00 0.0 
1.123755132901e+01 -5.753525820030e+00 0.0 
2.353456234423e+01 -1.008536320953e+01 0.0 
9.162073319168e+00 -1.045593739109e+01 0.0 
9.676343469685e+00 -1.496493008366e+01 0.0 
4.490637882905e+01 -1.628778970202e+01 0.0 
7.398129387772e+00 -9.639977982323e-01 0.0 
1.049641705805e+01 -1.552503975272e+01 0.0 
9.010356286268e+00 -1.242805042052e+01 0.0 
3.985573925497e+01 -1.399863651620e+01 0.0 
1.816196318262e+01 -1.554066497931e+01 0.0 
1.306332244168e+01 -3.963646550326e+00 0.0 
4.145850903932e+01 -1.608094559275e+01 0.0 
3.794664933633e+01 -1.779020121986e+01 0.0 
3.819614412903e+01 -1.290749321016e+01 0.0 
6.270014188119e+00 -3.255093186826e+00 0.0 
4.251165370388e+01 -1.263870364997e+01 0.0 
1.207347709171e+01 -1.763942826023e+01 0.0 
3.633240829927e+01 -1.577330481104e+01 0.0 
4.319052668832e+00 -6.101812561904e+00 0.0 
1.676492415806e+01 -1.151547901392e+01 0.0 
2.594059220037e+01 -1.074225223009e+01 0.0 
3.340750911501e+01 -9.898764354137e+00 0.0 
4.397619591281e+01 -1.769773736461e+01 0.0 
2.175611595028e+01 -1.185718747128e+01 0.0 
1.641818733106e+01 -1.640685203215e+01 0.0 
1.661211421753e+01 -1.346121366338e+01 0.0 
3.428853504935e+00 -6.551993389271e+00 0.0 
8.700728832502e+00 -1.638460872825e+01 0.0 
1.931369795309e+01 -1.121629383702e+01 0.0 
4.139798872363e+01 -1.706922153459e+01 0.0 
2.647837478700e+01 -1.507353829290e+01 0.0 
1.779469616424e+01 -9.161615782908e+00 0.0 
3.885879219319e+01 -1.642026488918e+01 0.0 
1.338194936770e+01 -1.125916521471e+01 0.0 
1.897071181111e+01 -1.609204322578e+01 0.0 
2.844308548793e+01 -1.046221003096e+01 0.0 
2.659854702194e+01 -1.316109415760e+01 0.0 
2.979604503271e+01 -1.433296157755e+01 0.0 
2.417694041347e+01 -1.251231397779e+01 0.0 
1.807401327411e+00 -1.388891148480e+01 0.0 
9.599810618782e+00 -1.595439365034e+01 0.0 
1.652144692160e+01 -4.205392788472e+00 0.0 
2.367839450246e+01 -8.188385218643e+00 0.0 
3.814894930468e+01 -1.390748338767e+01 0.0 
2.466448215774e+01 -1.685878545680e+01 0.0 
4.134044524611e+01 -1.806610045954e+01 0.0 
2.600511411958e+01 -9.801774120648e+00 0.0 
7.882158050716e+00 -1.582364037353e+01 0.0 
3.881607873422e+01 -1.737970515013e+01 0.0 
8.270182347708e+00 -1.088622154920e+01 0.0 
8.672520392520e-01 -4.532984309881e+00 0.0 
1.993447205337e+01 -3.579061902667e+00 0.0 
1.794616079549e+01 -7.238038888498e+00 0.0 
2.097277068165e+01 -1.132450168636e+01 0.0 
8.194803300681e+00 -1.187214224265e+01 0.0 
3.522279404911e+01 -1.823342818178e+01 0.0 
6.984481050295e+00 -1.625271465557e+01 0.0 
1.309433007797e+01 -1.521718594215e+01 0.0 
2.150246167611e+01 -1.885399038185e+00 0.0 
3.250689370209e+01 -1.028789870535e+01 0.0 
6.085886272238e+00 -1.668342132851e+01 0.0 
1.588455661727e+01 -1.193498985921e+01 0.0 
1.809323400821e+01 -1.651110084195e+01 0.0 
1.348885082381e+00 -1.136065576512e+01 0.0 
2.497670221995e+01 -1.834631276173e+01 0.0 
2.937062818424e+01 -8.233711194470e+00 0.0 
5.185823744469e+00 -1.711566910207e+01 0.0 
1.477497877209e+01 -1.530177014512e+01 0.0 
2.125346158933e+01 -7.473003997367e+00 0.0 
4.751561118290e+01 -1.084897772632e+01 0.0 
5.056026576843e+00 -1.825750475525e+01 0.0 
1.473948554523e+01 -1.634577436309e+01 0.0 
2.410566630936e+01 -1.345970002612e+01 0.0 
1.507337507513e+01 -1.138527895328e+01 0.0 
3.189857338687e+01 -8.887781229006e+00 0.0 
7.298712468334e+00 -1.230231046246e+01 0.0 
2.738235495295e+01 -1.368931690364e+01 0.0 
3.750141041969e+01 -1.920449893070e+01 0.0 
1.557271965640e+01 -1.683317951731e+01 0.0 
3.393731848929e+01 -1.413034777044e+01 0.0 
6.482156824153e+00 -1.174575135362e+01 0.0 
2.077971718439e+01 -1.421279621836e+01 0.0 
3.455084320178e+00 -2.562590040585e+00 0.0 
3.099056096250e+01 -9.270280416035e+00 0.0 
5.580176125418e+00 -1.217387969259e+01 0.0 
1.707247630389e+01 -7.660651981710e+00 0.0 
1.418658814174e+01 -1.180390575393e+01 0.0 
2.049103025389e+01 -1.811296706038e+01 0.0 
4.680386172316e+00 -1.260396879301e+01 0.0 
1.699679896554e+01 -8.624561788199e+00 0.0 
3.779470168555e+00 -1.303424899720e+01 0.0 
3.036589870126e+01 -7.879832518349e+00 0.0 
3.306993001774e+01 -1.457671062095e+01 0.0 
2.840150110165e+00 -1.346530088269e+01 0.0 
2.732011135052e+01 -1.464591214560e+01 0.0 
5.423639259568e+00 -2.659711955016e+00 0.0 
2.324455961696e+01 -1.387269388211e+01 0.0 
1.752768355571e+00 -1.693128613594e+01 0.0 
1.020244783051e+01 -8.076834012808e+00 0.0 
1.330873875224e+01 -1.222417528206e+01 0.0 
3.297727364880e+01 -1.555480372087e+01 0.0 
2.890929955439e+01 -6.868664170731e+00 0.0 
1.323294664622e+01 -1.320754260334e+01 0.0 
2.726532861246e+01 -1.560593120806e+01 0.0 
2.240020643398e+01 -1.429299177247e+01 0.0 
2.090445823633e+01 -1.228128621332e+01 0.0 
1.315809881502e+01 -1.420739326938e+01 0.0 
2.781328038068e+01 -7.181956082300e+00 0.0 
8.614200829057e+00 -5.936933226306e+00 0.0 
8.714765730069e+00 -4.979270529687e+00 0.0 
1.611881701099e+01 -9.041973294003e+00 0.0 
2.806830314340e+01 -1.614622947108e+01 0.0 
2.084435391396e+00 -3.385085422913e+00 0.0 
3.133211811152e+01 -1.542347619750e+01 0.0 
9.693114650768e+00 -3.590281506442e+00 0.0 
1.531883592202e+01 -8.504584946143e+00 0.0 
2.151589117094e+01 -1.578915763018e+01 0.0 
4.918943882696e+01 -1.355538828056e+01 0.0 
1.443236615188e+01 -8.918701794549e+00 0.0 
8.276250966452e-01 -5.537685192197e+00 0.0 
1.362790867918e+01 -8.374718262212e+00 0.0 
2.083767477370e+01 -1.324843956035e+01 0.0 
1.273834678703e+01 -8.790890389337e+00 0.0 
1.192275845670e+01 -8.242261327467e+00 0.0 
4.477236023583e+01 -1.824312396664e+01 0.0 
1.102989384254e+01 -8.649855800911e+00 0.0 
4.849096516045e+01 -1.917293752213e+01 0.0 
1.588996752238e+00 -1.910230934687e+01 0.0 
4.904245197583e+01 -1.159839008158e+01 0.0 
2.753852929608e+01 -5.782128488093e+00 0.0 
1.756133602833e+01 -8.306130313187e-01 0.0 
2.615423700951e+01 -6.153865090092e+00 0.0 
1.028818761294e+01 -7.122020845892e+00 0.0 
2.970818901196e+01 -1.527821347593e+01 0.0 
4.801461623449e+01 -1.164472570985e+01 0.0 
9.455722100419e+00 -6.546069291118e+00 0.0 
3.089099236677e+01 -1.835339328261e+01 0.0 
2.350000000013e+01 -1.920825896750e+01 0.0 
4.830620531887e+01 -1.506626155470e+01 0.0 
1.725381944701e+01 -1.688794487850e+01 0.0 
2.156246225273e+01 -1.475893794002e+01 0.0 
4.919319648787e+01 -1.742767505896e+01 0.0 
4.437935623576e+01 -1.077662927266e+01 0.0 
1.001520521978e+01 -1.652692675208e+00 0.0 
9.067160240050e-01 -1.441937727541e+01 0.0 
2.603365149390e+01 -4.755996613848e+00 0.0 
2.458344439002e+01 -4.873645517696e+00 0.0 
2.304312390142e+01 -3.836552768096e+00 0.0 
2.546923202198e+00 -6.902480355749e+00 0.0 
1.251534969393e+01 -2.490989965776e+00 0.0 
2.454061833377e+01 -3.933354231935e+00 0.0 
1.788186558740e+01 -1.827424884923e+01 0.0 
4.090785243552e+01 -1.166553231904e+01 0.0 
2.230128851568e+01 -1.623015738726e+01 0.0 
2.302362347568e+01 -2.916239960270e+00 0.0 
3.878119254461e+01 -1.830091164002e+01 0.0 
2.210081359958e+01 -1.829238229150e+01 0.0 
8.443704882233e+00 -1.921993252862e+01 0.0 
2.218405824691e+01 -1.724557581508e+01 0.0 
2.151157503963e+01 -2.790636689331e+00 0.0 
3.741658958955e+01 -1.250400191722e+01 0.0 
2.697247663737e+01 -1.838290202309e+01 0.0 
4.743362342862e+01 -1.585850773010e+01 0.0 
6.671345075358e+00 -1.924977576322e+01 0.0 
3.900825404537e+01 -1.157220003875e+01 0.0 
4.649692961375e+01 -1.836335837481e+01 0.0 
1.578831424832e+01 -3.678284023361e+00 0.0 
4.814208768888e+01 -1.841249298770e+01 0.0 
2.964123298315e+01 -1.625739458193e+01 0.0 
4.580760351902e+01 -1.284294554687e+01 0.0 
3.561520879615e+01 -1.245548941949e+01 0.0 
2.555418095658e+00 -1.841101588290e+01 0.0 
3.288468366144e+01 -1.834258164109e+01 0.0 
2.065894391445e+01 -2.240688571739e+00 0.0 
4.739171429915e+01 -1.496536413446e+01 0.0 
3.478086729185e+00 -8.576434653209e+00 0.0 
1.606010630246e+01 -1.588421807951e+00 0.0 
1.018329200594e+01 -1.834320874317e+01 0.0 
2.957213339430e+01 -1.720496954591e+01 0.0 
4.142712790164e+00 -1.837794506222e+01 0.0 
6.698721532573e-01 -2.499999999997e+00 0.0 
8.037039123140e+00 -1.571229354954e+00 0.0 
1.203541361428e+01 -1.847784298001e+01 0.0 
2.899968332038e+01 -1.848264722179e+01 0.0 
1.469229460948e+01 -4.219485753730e+00 0.0 
4.049590781957e+01 -1.932812501995e+01 0.0 
1.996211678340e+01 -1.506329754720e+00 0.0 
4.250588298353e+01 -1.067383247529e+01 0.0 
5.831497011152e+00 -1.635396227234e+00 0.0 
5.317606125670e+00 -1.923927974868e+01 0.0 
4.208546426993e+01 -1.842830665025e+01 0.0 
2.327553405011e+00 -9.459409929662e+00 0.0 
3.568351902251e+01 -1.096637218582e+01 0.0 
1.682104374890e+00 -6.231413350963e+00 0.0 
2.451812238018e+01 -1.766524914339e+01 0.0 
1.058003429638e+01 -2.391839617098e+00 0.0 
4.399988753123e+01 -1.851998776342e+01 0.0 
1.400000000010e+01 -1.852293523028e+01 0.0 
3.604719565984e+01 -1.850662876800e+01 0.0 
1.951297136734e+01 -1.938092349694e+01 0.0 
1.821365318472e+01 -1.531276353287e+00 0.0 
2.298031859732e+01 -1.854635324722e+01 0.0 
1.552168066204e+01 -1.764280741977e+01 0.0 
4.572957713638e+01 -1.073347898229e+01 0.0 
3.429637429624e+01 -1.838861552790e+01 0.0 
2.427434426052e+00 -7.705577451869e+00 0.0 
4.662792031485e+00 -3.359424455416e+00 0.0 
4.926794919243e+01 -1.926794919243e+01 0.0 
7.320508075690e-01 -7.320508075688e-01 0.0 
4.926794919243e+01 -1.073205080757e+01 0.0 
7.320508075705e-01 -1.926794919243e+01 0.0 
2.917460242467e+00 -3.202866455310e+00 0.0 
4.838200575963e+01 -1.232674147454e+01 0.0 
2.998445708009e+01 -1.854403752148e+01 0.0 
5.949940090766e-01 -1.152762038165e+01 0.0 
4.844763495759e+01 -1.678092548787e+01 0.0 
1.301685480160e+01 -3.170056592566e+00 0.0 
1.650046335855e+01 -6.731535384067e-01 0.0 
4.854881540991e+01 -1.405224059779e+01 0.0 
2.119545114693e+01 -1.846813384545e+01 0.0 
3.797852849897e+01 -1.857978513215e+01 0.0 
4.649823708745e+01 -1.338351810816e+01 0.0 
2.012685900976e+01 -2.889659035009e+00 0.0 
2.953271913273e+01 -1.791558075192e+01 0.0 
2.408509097292e+00 -1.021949208421e+01 0.0 
2.642589566221e+01 -1.773216561448e+01 0.0 
1.730010270775e+01 -1.763165076721e+01 0.0 
2.017406551304e+01 -8.513536440582e-01 0.0 
5.254761581934e-01 -1.249999999999e+01 0.0 
6.640448215642e+00 -1.545337834885e+00 0.0 
7.843361506349e+00 -1.852719839527e+01 0.0 
1.588442191088e+00 -1.066158564320e+01 0.0 
2.731250000000e+01 -4.420918367347e+00 0.0 
4.951086956522e+01 -4.500000000000e+00 0.0 
2.880770112393e+01 -5.415638864241e+00 0.0 
4.951086956522e+01 -5.500000000000e+00 0.0 
3.031250000000e+01 -6.420918367347e+00 0.0 
4.951250000000e+01 -6.500000000000e+00 0.0 
3.180701530612e+01 -7.414795918363e+00 0.0 
4.951250000000e+01 -7.500000000000e+00 0.0 
3.331250000000e+01 -8.420918367347e+00 0.0 
4.951470588234e+01 -8.500000000000e+00 0.0 
3.480610198624e+01 -9.413633635267e+00 0.0 
4.951470588234e+01 -9.500000000000e+00 0.0 

SCALARS node_number int
LOOKUP_TABLE default
1
2
3
4
5
6
7
8
9
10
11
12
13
14
15
16
17
18
19
20
21
22
23
24
25
26
27
28
29
30
31
32
33
34
35
36
37
38
39
40
41
42
43
44
45
46
47
48
49
50
51
52
53
54
55
56
57
58
59
60
61
62
63
64
65
66
67
68
69
70
71
72
73
74
75
76
77
78
79
80
81
82
84
85
86
87
88
89
90
91
92
93
97
98
99
100
101
102
104
105
106
107
108
109
110
111
112
113
114
115
116
117
118
119
120
121
122
123
124
125
126
127
128
129
130
131
132
133
134
135
136
245
246
247
248
249
250
251
252
253
254
255
256
257
258
259
260
261
262
263
264
265
266
267
268
269
270
271
272
273
274
275
276
277
278
279
280
281
282
283
284
285
286
287
288
289
290
291
292
293
294
295
296
297
298
299
300
301
302
303
304
305
306
307
308
309
310
311
312
313
314
315
316
317
318
319
320
321
322
323
324
325
326
327
328
329
330
331
332
333
334
335
336
337
338
339
340
341
342
343
344
345
346
347
348
349
350
351
352
353
354
355
356
357
358
359
360
361
362
363
364
365
366
367
368
369
370
371
372
373
374
375
376
377
378
379
380
381
382
383
384
385
386
387
388
389
390
391
392
393
394
395
396
397
398
399
400
401
402
403
404
405
406
407
408
409
410
411
412
413
414
415
416
417
418
419
420
421
422
423
424
425
426
427
428
429
430
431
432
433
434
435
436
437
438
439
440
441
442
443
444
445
446
447
448
449
450
451
452
453
454
455
456
457
458
459
460
461
462
463
464
465
466
467
468
469
470
471
472
473
474
475
476
477
478
479
480
481
482
483
484
485
486
487
488
489
490
491
492
493
494
495
496
497
498
499
500
501
502
503
504
505
506
507
508
509
510
511
512
513
514
515
516
517
518
519
520
521
522
523
524
525
526
527
528
529
530
531
532
533
534
535
536
537
538
539
540
541
542
543
544
545
546
547
548
549
550
551
552
553
554
555
556
557
558
559
560
561
562
563
564
565
566
567
568
569
570
571
572
573
574
575
576
577
578
579
580
581
582
583
584
585
586
587
588
589
590
591
592
593
594
595
596
597
598
599
600
601
602
603
604
605
606
607
608
609
610
611
612
613
614
615
616
617
618
619
620
621
622
623
624
625
626
627
628
629
630
631
632
633
634
635
636
637
638
639
640
641
642
643
644
645
646
647
648
649
650
651
652
653
654
655
656
657
658
659
660
661
662
663
664
665
666
667
668
669
670
671
672
673
674
675
676
677
678
679
680
681
682
683
684
685
686
687
688
689
690
691
692
693
694
695
696
697
698
699
700
701
702
703
704
705
706
707
708
709
710
711
712
713
714
715
716
717
718
719
720
721
722
723
724
725
726
727
728
729
730
731
732
733
734
735
736
737
738
739
740
741
742
743
744
745
746
747
748
749
750
751
752
753
754
755
756
757
758
759
760
761
762
763
764
765
766
767
768
769
770
771
772
773
774
775
776
777
778
779
780
781
782
783
784
785
786
787
788
789
790
791
792
793
794
795
796
797
798
799
800
801
802
803
804
805
806
807
808
809
810
811
812
813
814
815
816
817
818
819
820
821
822
823
824
825
826
827
828
829
830
831
832
833
834
835
836
837
838
839
840
841
842
843
844
845
846
847
848
849
850
851
852
853
854
855
856
857
858
859
860
861
862
863
864
865
866
867
868
869
870
871
872
873
874
875
876
877
878
879
880
881
882
883
884
885
886
887
888
889
890
891
892
893
894
895
896
897
898
899
900
901
902
903
904
905
906
907
908
909
910
911
912
913
914
915
916
917
918
919
920
921
922
923
924
925
926
927
928
929
930
931
932
933
934
935
936
937
938
939
940
941
942
943
944
945
946
947
948
949
950
951
952
953
954
955
956
957
958
959
960
961
962
963
964
965
966
967
968
969
970
971
972
973
974
975
976
977
978
979
980
981
982
983
984
985
986
987
988
989
990
991
992
993
994
995
996
997
998
999
1000
1001
1002
1003
1004
1005
1006
1007
1008
1009
1010
1011
1012
1013
1014
1015
1016
1017
1018
1019
1020
1021
1022
1023
1024
1025
1026
1027
1028
1029
1030
1031
1032
1033
1034
1035
1036
1037
1038
1039
1040
1041
1042
1043
1044
1045
1046
1047
1048
1049
1050
1051
1052
1053
1054
1055
1056
1057
1058
1059
1060
1061
1062
1063
1064
1065
1066
1067
1068
1069
1070
1071
1072
1073
1074
1075
1076
1077
1078
1079
1080
1081
1082
1083
1084
1085
1086
1087
1088
1089
1090
1091
1092
1093
1094
1095
1096
1097
1098
1099
1100
1101
1102
1103
1104
1105
1106
1107
1108
1109
1110
1111
1112
1113
1114
1115
1116
1117
1118
1119
1120
1121
1122
1123
1124
1125
1126
1127
1128
1129
1130
1131
1132
1133
1134
1135
1136
1137
1138
1139
1140
1141
1142
1143
1144
1145
1146
1147
1148
1149
1150
1151
1152
1153
1154
1155
1156
1157
1158
1159
1160
1161
1162
1163
1164
1165
1166
1167
1168
1169
1170
1171
1172
1173
1174
1175
1176
1177
1178
1179
1180
1181
1182
1183
1184
1185
1186
1187
1188
1189
1190
1191
1192
1193
1194
1195
1196
1197
1198
1199
1200
1201
1202
1203
1204
1205
1206
1207
1208
1209
1210
1211
1212
1213
1214
1215
1216
1217
1218
1219
1220
1221
1222
1223
1224
1225
1226
1227
1228
1229
1230
1231
1232
1233
1234
1235
1236
1237
1238
1239
1240
1241
1242
1243
1244
1245
1246
1247
1248
1249
1250
1251
1252
1253
1254
1255
1256
1257
1258
1259
1260
1261
1262
1263
1264
1273
1274
1275
1276
1277
1278
1279
1280
1281
1282
1283
1284

VECTORS node_mesh_deformation float
0.0 1.186766582513e-02 0.0 
0.000000000000e+00 1.532026252036e-02 0.0 
0.0 0.000000000000e+00 0.0 
0.000000000000e+00 0.000000000000e+00 0.0 
0.0 1.185130378625e-02 0.0 
0.0 1.177820010833e-02 0.0 
0.0 1.164850011835e-02 0.0 
0.0 1.146174118510e-02 0.0 
0.0 1.121581500843e-02 0.0 
0.0 1.091184993918e-02 0.0 
0.0 1.054968477661e-02 0.0 
0.0 1.012831907663e-02 0.0 
0.0 9.647190131890e-03 0.0 
0.0 9.104929974029e-03 0.0 
0.0 8.499241062113e-03 0.0 
0.0 7.828811831573e-03 0.0 
0.0 7.093297871375e-03 0.0 
0.0 6.294739717513e-03 0.0 
0.0 5.425881345621e-03 0.0 
0.0 4.486760122802e-03 0.0 
0.0 3.476481267256e-03 0.0 
0.0 2.392167605006e-03 0.0 
0.0 1.231970098278e-03 0.0 
0.000000000000e+00 0.000000000000e+00 0.0 
0.000000000000e+00 0.000000000000e+00 0.0 
0.000000000000e+00 0.000000000000e+00 0.0 
0.000000000000e+00 0.000000000000e+00 0.0 
0.000000000000e+00 0.000000000000e+00 0.0 
0.000000000000e+00 0.000000000000e+00 0.0 
0.000000000000e+00 0.000000000000e+00 0.0 
0.000000000000e+00 0.000000000000e+00 0.0 
0.000000000000e+00 0.000000000000e+00 0.0 
0.000000000000e+00 0.000000000000e+00 0.0 
0.000000000000e+00 0.000000000000e+00 0.0 
0.000000000000e+00 0.000000000000e+00 0.0 
0.000000000000e+00 0.000000000000e+00 0.0 
0.000000000000e+00 0.000000000000e+00 0.0 
0.000000000000e+00 0.000000000000e+00 0.0 
0.000000000000e+00 0.000000000000e+00 0.0 
0.000000000000e+00 0.000000000000e+00 0.0 
0.000000000000e+00 0.000000000000e+00 0.0 
0.000000000000e+00 0.000000000000e+00 0.0 
0.000000000000e+00 0.000000000000e+00 0.0 
0.000000000000e+00 0.000000000000e+00 0.0 
0.000000000000e+00 0.000000000000e+00 0.0 
0.000000000000e+00 0.000000000000e+00 0.0 
0.000000000000e+00 0.000000000000e+00 0.0 
0.000000000000e+00 0.000000000000e+00 0.0 
0.000000000000e+00 0.000000000000e+00 0.0 
0.000000000000e+00 0.000000000000e+00 0.0 
0.000000000000e+00 0.000000000000e+00 0.0 
0.000000000000e+00 0.000000000000e+00 0.0 
0.000000000000e+00 0.000000000000e+00 0.0 
0.000000000000e+00 0.000000000000e+00 0.0 
0.000000000000e+00 0.000000000000e+00 0.0 
0.000000000000e+00 0.000000000000e+00 0.0 
0.000000000000e+00 0.000000000000e+00 0.0 
0.000000000000e+00 0.000000000000e+00 0.0 
0.000000000000e+00 0.000000000000e+00 0.0 
0.000000000000e+00 0.000000000000e+00 0.0 
0.000000000000e+00 0.000000000000e+00 0.0 
0.000000000000e+00 0.000000000000e+00 0.0 
0.000000000000e+00 0.000000000000e+00 0.0 
0.000000000000e+00 0.000000000000e+00 0.0 
0.000000000000e+00 0.000000000000e+00 0.0 
0.000000000000e+00 0.000000000000e+00 0.0 
0.000000000000e+00 0.000000000000e+00 0.0 
0.000000000000e+00 0.000000000000e+00 0.0 
0.000000000000e+00 0.000000000000e+00 0.0 
0.000000000000e+00 0.000000000000e+00 0.0 
0.000000000000e+00 0.000000000000e+00 0.0 
0.000000000000e+00 0.000000000000e+00 0.0 
0.000000000000e+00 1.406304046540e-02 0.0 
0.000000000000e+00 1.274289731730e-02 0.0 
0.000000000000e+00 1.135963256568e-02 0.0 
0.000000000000e+00 9.915646523414e-03 0.0 
0.000000000000e+00 8.410065384661e-03 0.0 
0.000000000000e+00 6.844892438515e-03 0.0 
0.000000000000e+00 5.220536575408e-03 0.0 
0.000000000000e+00 3.537671815593e-03 0.0 
0.000000000000e+00 1.797380339205e-03 0.0 
-1.263435125043e-03 1.499927894357e-02 0.0 
9.954045931906e-04 1.516020178105e-02 0.0 
-8.602427561648e-04 1.608604528611e-02 0.0 
-4.256583223317e-04 1.722307319573e-02 0.0 
5.967743415169e-05 1.822148879339e-02 0.0 
5.185767379565e-04 1.888081686037e-02 0.0 
8.834348644662e-04 1.892757895395e-02 0.0 
1.074697009933e-03 1.857969240466e-02 0.0 
1.149171848109e-03 1.797850796513e-02 0.0 
1.146542247348e-03 1.718466671566e-02 0.0 
1.089555117368e-03 1.623594952971e-02 0.0 
0.000000000000e+00 2.151340924803e-02 0.0 
0.000000000000e+00 2.064214044645e-02 0.0 
0.000000000000e+00 1.970468722268e-02 0.0 
0.000000000000e+00 1.870739491632e-02 0.0 
0.000000000000e+00 1.764057396539e-02 0.0 
0.000000000000e+00 1.651436194645e-02 0.0 
5.580600544164e-05 1.532083668929e-02 0.0 
1.101558949230e-04 1.532244170175e-02 0.0 
1.659800538931e-04 1.532465224899e-02 0.0 
2.227208838690e-04 1.532629874001e-02 0.0 
2.801857071404e-04 1.532946037414e-02 0.0 
3.391148232907e-04 1.533036949485e-02 0.0 
4.001173229753e-04 1.533139950023e-02 0.0 
4.620964498088e-04 1.532958684380e-02 0.0 
5.280464940114e-04 1.532698252549e-02 0.0 
5.969912694468e-04 1.531867721354e-02 0.0 
6.686944305869e-04 1.530520636053e-02 0.0 
7.441303264031e-04 1.528549438242e-02 0.0 
8.232596109039e-04 1.525630820168e-02 0.0 
9.066926420687e-04 1.521481463386e-02 0.0 
-1.149557918136e-03 1.441039548257e-02 0.0 
-1.007587639734e-03 1.392918403479e-02 0.0 
-8.631769668774e-04 1.353300347389e-02 0.0 
-7.280760793211e-04 1.320936009167e-02 0.0 
-6.077537957658e-04 1.294621253800e-02 0.0 
-4.997859329876e-04 1.272868914137e-02 0.0 
-4.042824833821e-04 1.254914725254e-02 0.0 
-3.221246852547e-04 1.240183695773e-02 0.0 
-2.519262171710e-04 1.228179394698e-02 0.0 
-1.927499234089e-04 1.218562960123e-02 0.0 
-1.452869633845e-04 1.210657547332e-02 0.0 
-1.046430816469e-04 1.204617748048e-02 0.0 
-7.046806237110e-05 1.199532785029e-02 0.0 
-4.727765339574e-05 1.195474785349e-02 0.0 
-3.147356221334e-05 1.192504208322e-02 0.0 
-1.910777235281e-05 1.190296049702e-02 0.0 
-9.815809368430e-06 1.188653256939e-02 0.0 
-3.242665478354e-06 1.187563052427e-02 0.0 
-2.073681529158e-06 1.186827871346e-02 0.0 
6.194168853568e-05 2.151866313893e-02 0.0 
1.127295850338e-04 2.151726380813e-02 0.0 
1.633436823596e-04 2.151892457909e-02 0.0 
2.138490980030e-04 2.152113994782e-02 0.0 
2.635283920043e-04 2.152345766332e-02 0.0 
3.117597640170e-04 2.152535775540e-02 0.0 
3.579881485791e-04 2.152614926712e-02 0.0 
4.016882533477e-04 2.152498413357e-02 0.0 
4.423330846421e-04 2.152083341631e-02 0.0 
4.793787201507e-04 2.151245107636e-02 0.0 
5.122575993752e-04 2.149833170824e-02 0.0 
5.403803900847e-04 2.147665804992e-02 0.0 
5.631439947322e-04 2.144524333601e-02 0.0 
5.799305144976e-04 2.140141871092e-02 0.0 
5.901737941230e-04 2.134195363030e-02 0.0 
5.933827088924e-04 2.126287230698e-02 0.0 
5.893211179711e-04 2.115943544789e-02 0.0 
5.779197261120e-04 2.102563664342e-02 0.0 
5.597724114672e-04 2.085423300726e-02 0.0 
5.360074425553e-04 2.063528618162e-02 0.0 
5.098330265625e-04 2.035587889985e-02 0.0 
4.878932756753e-04 2.000044551622e-02 0.0 
4.640028058596e-04 1.954132392465e-02 0.0 
8.335706295917e-04 1.933045849508e-02 0.0 
8.019901551073e-04 1.964516566689e-02 0.0 
7.733331384969e-04 1.988843711403e-02 0.0 
7.505172907365e-04 2.008153012389e-02 0.0 
7.290185491300e-04 2.023158135511e-02 0.0 
7.074243723508e-04 2.034879362578e-02 0.0 
6.841118365628e-04 2.043874347598e-02 0.0 
6.584509891354e-04 2.050714601424e-02 0.0 
6.299795788749e-04 2.055807197725e-02 0.0 
5.985500396335e-04 2.059513954846e-02 0.0 
5.641550030191e-04 2.062121199512e-02 0.0 
5.269476012089e-04 2.063872034646e-02 0.0 
4.871437591945e-04 2.064963402884e-02 0.0 
4.449908779591e-04 2.065558712948e-02 0.0 
4.007589506188e-04 2.065793798931e-02 0.0 
3.547311117416e-04 2.065781234620e-02 0.0 
3.072001091269e-04 2.065614562854e-02 0.0 
2.584395177507e-04 2.065369480269e-02 0.0 
2.086819871110e-04 2.065105504062e-02 0.0 
1.580687279628e-04 2.064860458482e-02 0.0 
1.065136593326e-04 2.064612709355e-02 0.0 
5.347785171494e-05 2.063999272123e-02 0.0 
5.387795493306e-05 1.971004430886e-02 0.0 
1.080556469901e-04 1.971036166057e-02 0.0 
1.616299164908e-04 1.971308391079e-02 0.0 
2.146022038403e-04 1.971605923682e-02 0.0 
2.670214540572e-04 1.971913706025e-02 0.0 
3.188774710665e-04 1.972195237568e-02 0.0 
3.701154253051e-04 1.972390862196e-02 0.0 
4.206288254451e-04 1.972422309792e-02 0.0 
4.703093687795e-04 1.972185937266e-02 0.0 
5.190885532969e-04 1.971556279199e-02 0.0 
5.669464303608e-04 1.970380524101e-02 0.0 
6.138999899648e-04 1.968475776501e-02 0.0 
6.600291519163e-04 1.965619172629e-02 0.0 
7.055084506575e-04 1.961523461107e-02 0.0 
7.509079118577e-04 1.955860962990e-02 0.0 
7.967045674775e-04 1.948206698099e-02 0.0 
8.442556077171e-04 1.938116335205e-02 0.0 
8.939868415183e-04 1.924851447152e-02 0.0 
9.492964250910e-04 1.907932779170e-02 0.0 
1.006741504650e-03 1.885933156430e-02 0.0 
1.072195441214e-03 1.816574055171e-02 0.0 
1.002388041158e-03 1.831498759631e-02 0.0 
9.336049605508e-04 1.842819090876e-02 0.0 
8.698908984002e-04 1.851711552098e-02 0.0 
8.090435303103e-04 1.858342423516e-02 0.0 
7.508435213310e-04 1.863287272467e-02 0.0 
6.941784225987e-04 1.866807523394e-02 0.0 
6.387291974548e-04 1.869255734274e-02 0.0 
5.841537618636e-04 1.870870487581e-02 0.0 
5.302300740695e-04 1.871845066515e-02 0.0 
4.767533756436e-04 1.872338393380e-02 0.0 
4.235122129685e-04 1.872486881183e-02 0.0 
3.704671257623e-04 1.872407978315e-02 0.0 
3.175741808263e-04 1.872193076571e-02 0.0 
2.647548303969e-04 1.871903054357e-02 0.0 
2.119107368159e-04 1.871587892592e-02 0.0 
1.589712283234e-04 1.871276959969e-02 0.0 
1.058853406306e-04 1.870969057250e-02 0.0 
5.290024954263e-05 1.870411330345e-02 0.0 
5.475955766343e-05 1.764541071772e-02 0.0 
1.097528538594e-04 1.764498624406e-02 0.0 
1.648400984635e-04 1.764782793845e-02 0.0 
2.202737297239e-04 1.765090511271e-02 0.0 
2.760373048574e-04 1.765403298009e-02 0.0 
3.324062429186e-04 1.765672202180e-02 0.0 
3.894888441351e-04 1.765848312104e-02 0.0 
4.476414183259e-04 1.765864046610e-02 0.0 
5.067816336961e-04 1.765633742570e-02 0.0 
5.673260645267e-04 1.764989913811e-02 0.0 
6.296793283127e-04 1.763792671730e-02 0.0 
6.940572763412e-04 1.761878000593e-02 0.0 
7.609034336582e-04 1.759016582844e-02 0.0 
8.307962607716e-04 1.754957366317e-02 0.0 
9.035961268680e-04 1.749200577647e-02 0.0 
9.817382886581e-04 1.741628660424e-02 0.0 
1.061246446255e-03 1.731405572073e-02 0.0 
1.004275519890e-03 1.631964706059e-02 0.0 
9.240814117035e-04 1.638695044535e-02 0.0 
8.447853405968e-04 1.643352485383e-02 0.0 
7.702076318665e-04 1.646849271167e-02 0.0 
6.993126834516e-04 1.649302232919e-02 0.0 
6.314350365528e-04 1.650945234011e-02 0.0 
5.663621905825e-04 1.652005625617e-02 0.0 
5.038271153879e-04 1.652564213896e-02 0.0 
4.430909344890e-04 1.652722766545e-02 0.0 
3.844086591940e-04 1.652753912712e-02 0.0 
3.269851898935e-04 1.652594959883e-02 0.0 
2.709886419581e-04 1.652382426382e-02 0.0 
2.156530045880e-04 1.652089911483e-02 0.0 
1.612457089450e-04 1.651839614390e-02 0.0 
1.074631088684e-04 1.651547504092e-02 0.0 
5.337000432348e-05 1.651000551225e-02 0.0 
-1.058256334627e-03 1.552150560339e-02 0.0 
-6.484687817974e-04 1.666035655576e-02 0.0 
-1.828809955420e-04 1.775177972035e-02 0.0 
3.060601967917e-04 1.860992163775e-02 0.0 
7.393233991628e-04 1.896607386028e-02 0.0 
1.001271989857e-03 1.878848545966e-02 0.0 
1.126445473545e-03 1.830567959897e-02 0.0 
1.157941852270e-03 1.760298786799e-02 0.0 
1.125504347876e-03 1.672777225734e-02 0.0 
1.047661316306e-03 1.571253064543e-02 0.0 
-9.837890705811e-05 1.639675464459e-02 0.0 
2.897200022893e-04 1.182801802283e-03 0.0 
-1.293077786055e-04 1.219804731640e-02 0.0 
-4.376364937357e-04 1.303134554155e-02 0.0 
1.945014092026e-04 1.119010835296e-03 0.0 
8.219622846006e-04 1.798057724153e-02 0.0 
6.457965876694e-05 8.799593578450e-03 0.0 
3.459949275673e-04 1.263423038559e-03 0.0 
1.243956945544e-03 1.790905173961e-02 0.0 
3.465540178986e-04 1.317637603286e-03 0.0 
1.267535072866e-03 1.661264840607e-02 0.0 
1.106096606387e-04 1.005250929165e-03 0.0 
-1.844001377371e-05 1.194890923471e-02 0.0 
3.094742822540e-04 1.421837863461e-03 0.0 
1.083068541796e-03 1.460029505714e-02 0.0 
4.381875756598e-05 1.072699747265e-02 0.0 
6.812717397731e-05 6.866737548926e-03 0.0 
2.673635054613e-04 1.534356456734e-03 0.0 
1.775178752581e-04 1.504821298042e-03 0.0 
5.077331078951e-05 1.539760030770e-03 0.0 
9.271516688614e-05 1.667588193694e-03 0.0 
1.245653201494e-04 1.485921046367e-03 0.0 
8.725372724854e-04 1.412185497654e-02 0.0 
5.637469339277e-04 1.418749768225e-02 0.0 
3.678105797533e-04 1.416653761846e-02 0.0 
3.536879842159e-05 9.147855205974e-03 0.0 
6.646879114491e-05 1.079632036923e-03 0.0 
-7.008356733209e-04 1.413257725510e-02 0.0 
3.388923735415e-06 1.187670544799e-02 0.0 
4.747926009618e-05 4.069089723281e-03 0.0 
1.883042335393e-04 1.424639113870e-02 0.0 
2.260827506506e-05 1.156624282466e-02 0.0 
2.479592104336e-04 1.718380530033e-03 0.0 
3.256548281563e-04 1.189650258574e-03 0.0 
3.290528705691e-04 1.352689262518e-03 0.0 
3.428256706854e-04 1.294514529469e-03 0.0 
2.399224577001e-04 1.096653516598e-03 0.0 
-2.833826932953e-04 1.258943119200e-02 0.0 
7.102230797429e-04 1.423662363401e-02 0.0 
1.774047928365e-04 1.259568799888e-03 0.0 
2.564660362481e-05 6.109976345208e-03 0.0 
-6.247166891882e-05 1.204560183651e-02 0.0 
5.778882394591e-05 9.896242400972e-03 0.0 
2.476052799949e-05 1.253535965063e-03 0.0 
1.111290859299e-03 1.812091203277e-02 0.0 
3.848917282561e-04 1.732417109651e-02 0.0 
1.290143437608e-03 1.737365257853e-02 0.0 
1.193453360905e-03 1.567882576910e-02 0.0 
-6.017742173690e-04 1.541625056158e-02 0.0 
4.321704521715e-05 1.189415221512e-02 0.0 
3.079227888270e-05 8.520079270156e-04 0.0 
1.142491518058e-06 1.185955520050e-02 0.0 
1.371529636174e-05 2.806478380577e-03 0.0 
1.031041173043e-03 1.399899059017e-02 0.0 
1.099423738765e-03 1.341837873250e-02 0.0 
1.006673100690e-03 1.287778331843e-02 0.0 
1.087633425506e-03 1.218618550909e-02 0.0 
9.952673590092e-04 1.150865738818e-02 0.0 
1.055162044402e-03 1.086682950509e-02 0.0 
1.157692164988e-03 1.153698241989e-02 0.0 
1.108993512105e-03 1.020943360395e-02 0.0 
1.220471942545e-03 1.088296139432e-02 0.0 
9.509295907506e-04 1.015015091505e-02 0.0 
1.153368839894e-03 9.537536989670e-03 0.0 
1.273451496072e-03 1.021254859526e-02 0.0 
1.186414368210e-03 8.855970826032e-03 0.0 
1.313674747017e-03 9.527718476379e-03 0.0 
1.389374600279e-03 1.085001587153e-02 0.0 
1.436345562322e-03 1.016550478866e-02 0.0 
1.498867034567e-03 1.144280399219e-02 0.0 
1.551632163750e-03 1.075505734336e-02 0.0 
1.467436784989e-03 9.474664121596e-03 0.0 
1.586919795411e-03 1.006229652989e-02 0.0 
1.657347196147e-03 1.129479928127e-02 0.0 
1.695044198769e-03 1.059798848768e-02 0.0 
1.750869721473e-03 1.177882184537e-02 0.0 
1.788980989684e-03 1.107400122883e-02 0.0 
1.830149483151e-03 1.220595002992e-02 0.0 
1.866374895382e-03 1.149246993871e-02 0.0 
1.804503385962e-03 1.037164925624e-02 0.0 
1.878713705334e-03 1.078839180976e-02 0.0 
1.923519887750e-03 1.184856144108e-02 0.0 
1.930966468233e-03 1.114493651554e-02 0.0 
1.957031146738e-03 1.214126413559e-02 0.0 
1.958201128890e-03 1.144061042453e-02 0.0 
1.914496491530e-03 1.045766902271e-02 0.0 
1.935807982679e-03 1.076385932590e-02 0.0 
1.957756714884e-03 1.167909615724e-02 0.0 
1.929442233291e-03 1.101727345384e-02 0.0 
1.927628978773e-03 1.186346003838e-02 0.0 
1.894464351327e-03 1.122112524507e-02 0.0 
1.867283389970e-03 1.199693362756e-02 0.0 
1.830576341060e-03 1.138098414530e-02 0.0 
1.843046688201e-03 1.060533553631e-02 0.0 
1.777454901905e-03 1.079230327622e-02 0.0 
1.738877592249e-03 1.150419964360e-02 0.0 
1.686569558991e-03 1.094825216241e-02 0.0 
1.710171257500e-03 1.023547591246e-02 0.0 
1.621505851180e-03 1.042570469953e-02 0.0 
1.630950744705e-03 9.707461739685e-03 0.0 
1.545830919703e-03 9.931422384861e-03 0.0 
1.513791662067e-03 1.058820974489e-02 0.0 
1.443375508497e-03 1.012836080063e-02 0.0 
1.461625180150e-03 9.460172610952e-03 0.0 
1.364798335484e-03 9.694601945062e-03 0.0 
1.326422081238e-03 1.030970131293e-02 0.0 
1.255975965780e-03 9.906415096282e-03 0.0 
1.280482592277e-03 9.276467288650e-03 0.0 
1.178964352695e-03 9.522389639667e-03 0.0 
1.138367489425e-03 1.010454676579e-02 0.0 
1.070076370272e-03 9.750699246441e-03 0.0 
1.097927480572e-03 9.144668059275e-03 0.0 
9.966168726958e-04 9.408129044704e-03 0.0 
9.564059415244e-04 9.967735570680e-03 0.0 
8.918184928390e-04 9.652775499630e-03 0.0 
9.197612175491e-04 9.067325390717e-03 0.0 
8.225526174108e-04 9.344021609373e-03 0.0 
8.395389863214e-04 8.731090430361e-03 0.0 
7.840586747125e-04 9.890591692560e-03 0.0 
7.235603390754e-04 9.606672023381e-03 0.0 
6.770499705429e-04 1.011991172350e-02 0.0 
6.252254539056e-04 9.856962673828e-03 0.0 
1.875893456887e-03 9.790043003026e-03 0.0 
5.748431796047e-04 1.033415843068e-02 0.0 
6.144231635581e-04 1.056597801651e-02 0.0 
5.300585955359e-04 1.009443431930e-02 0.0 
5.681542829885e-04 9.592123710727e-03 0.0 
4.779455630546e-04 1.053635354155e-02 0.0 
4.396027848426e-04 1.031855447385e-02 0.0 
3.881518673996e-04 1.072656420059e-02 0.0 
1.881709831206e-03 1.267788033671e-02 0.0 
1.480140009939e-03 8.779176983248e-03 0.0 
3.554123660656e-04 1.052966638386e-02 0.0 
3.069971999796e-04 1.090442510351e-02 0.0 
3.269126434846e-04 1.107690923056e-02 0.0 
2.510078199478e-04 1.122180281924e-02 0.0 
8.988514129413e-04 1.081297061298e-02 0.0 
8.445387210116e-04 9.402436833254e-03 0.0 
8.014031625621e-04 1.008317089076e-02 0.0 
7.374896151973e-04 8.632194901329e-03 0.0 
7.029398289049e-04 9.317385455912e-03 0.0 
2.350347937261e-04 1.106948137587e-02 0.0 
1.055914687150e-03 8.113323022368e-03 0.0 
7.645471286395e-04 7.925626703653e-03 0.0 
1.691504143174e-03 1.248231696677e-02 0.0 
1.930291003067e-03 1.286171578586e-02 0.0 
1.694841322006e-03 9.455171511590e-03 0.0 
3.949808522865e-04 1.009658195717e-02 0.0 
3.156767570500e-04 1.032799592998e-02 0.0 
3.449511321030e-04 9.869233355014e-03 0.0 
9.245037849617e-04 8.413259286499e-03 0.0 
8.345375365604e-04 8.052529170328e-03 0.0 
9.050238410939e-04 7.690926048554e-03 0.0 
8.072468381730e-04 7.306764651082e-03 0.0 
8.611302766255e-04 6.900277420590e-03 0.0 
7.576566957859e-04 6.492525376142e-03 0.0 
7.103476573569e-04 6.922495065298e-03 0.0 
6.567307738958e-04 6.082919336871e-03 0.0 
6.153612393618e-04 6.535658133688e-03 0.0 
7.929315465294e-04 6.040643820938e-03 0.0 
9.028692317106e-04 6.471519075960e-03 0.0 
5.594259474115e-04 5.670145630548e-03 0.0 
5.232826034520e-04 6.143904051942e-03 0.0 
4.667270056782e-04 5.251610697822e-03 0.0 
4.351113998879e-04 5.745877103760e-03 0.0 
4.772227618437e-04 6.597399456641e-03 0.0 
3.933421885716e-04 6.219653307827e-03 0.0 
4.233761473174e-04 7.030927216265e-03 0.0 
1.602881031246e-03 8.921227509205e-03 0.0 
1.641718983663e-03 8.606141533063e-03 0.0 
1.538053106138e-03 8.066455856293e-03 0.0 
1.551047539483e-03 7.688792791869e-03 0.0 
1.436737045967e-03 7.142615307517e-03 0.0 
1.423098944226e-03 6.703772422657e-03 0.0 
1.298844053498e-03 6.149494677723e-03 0.0 
1.315594984561e-03 6.613314861850e-03 0.0 
1.207129890847e-03 8.158960925893e-03 0.0 
1.622103837729e-03 1.159413151459e-02 0.0 
1.656998166730e-03 1.215005559220e-02 0.0 
1.514328060839e-03 1.217429370145e-02 0.0 
1.528557808104e-03 1.272819284172e-02 0.0 
1.360360939966e-03 1.268700995967e-02 0.0 
1.349498282266e-03 1.324111477582e-02 0.0 
1.156318634553e-03 1.313660247106e-02 0.0 
1.177698623636e-03 1.262948499537e-02 0.0 
9.533364345806e-04 1.302234284894e-02 0.0 
9.870910898329e-04 1.256554098174e-02 0.0 
7.492856058704e-04 1.290593344838e-02 0.0 
7.954130495911e-04 1.250285986301e-02 0.0 
1.797110662313e-03 9.677993994258e-03 0.0 
1.539187182967e-03 7.273413455238e-03 0.0 
1.384091226640e-03 6.225921331080e-03 0.0 
1.501281319612e-03 6.816662487450e-03 0.0 
2.577436243527e-04 1.137027104878e-02 0.0 
3.516599598505e-04 5.339844460758e-03 0.0 
8.136100684961e-04 5.564415547701e-03 0.0 
9.301806710909e-04 6.026196757105e-03 0.0 
1.169121348781e-03 5.609163969748e-03 0.0 
1.859282976335e-04 1.135422891851e-02 0.0 
1.115456872750e-03 1.369141340301e-02 0.0 
1.316481057472e-03 1.384749180942e-02 0.0 
6.323055637836e-04 7.825597108820e-03 0.0 
6.063434494266e-04 8.521808641287e-03 0.0 
8.171182710015e-04 5.063157963717e-03 0.0 
1.727616380558e-04 1.122094034661e-02 0.0 
5.833173360159e-04 5.174726786588e-03 0.0 
6.803781971527e-04 1.335458650438e-02 0.0 
3.133012039749e-04 5.833895185946e-03 0.0 
2.737115230760e-04 4.925353211178e-03 0.0 
6.535553464442e-04 7.330138952904e-03 0.0 
1.318903406393e-03 5.705911005114e-03 0.0 
1.440200475969e-03 6.333546701661e-03 0.0 
1.004449998018e-03 1.214719779876e-02 0.0 
8.245653215635e-04 1.213510841699e-02 0.0 
6.102562939194e-04 1.244472583326e-02 0.0 
6.574037383267e-04 1.210952006704e-02 0.0 
8.397009112642e-04 1.179008985951e-02 0.0 
6.797695158838e-04 1.181972502188e-02 0.0 
4.977958841188e-04 1.210138652551e-02 0.0 
5.310066760185e-04 1.184968751542e-02 0.0 
6.901771351604e-04 1.154152829576e-02 0.0 
5.517966579358e-04 1.160702252260e-02 0.0 
3.963487404270e-04 1.188189184566e-02 0.0 
4.266075779853e-04 1.167043168811e-02 0.0 
2.988355646085e-04 4.389431737909e-03 0.0 
4.683042288676e-04 1.318746484196e-02 0.0 
1.431227297722e-03 1.211829034575e-02 0.0 
6.985011048624e-04 4.586083070539e-03 0.0 
1.126782399783e-03 5.101707833724e-03 0.0 
5.306338743480e-04 6.991118165224e-03 0.0 
5.128327369732e-04 7.699006451833e-03 0.0 
5.741986499785e-04 9.212591088758e-03 0.0 
4.881038437716e-04 8.397426412873e-03 0.0 
4.236813981962e-04 6.849350632807e-03 0.0 
4.061101833628e-04 7.560018217339e-03 0.0 
4.578284708217e-04 9.086652909000e-03 0.0 
3.823642772076e-04 8.259892292385e-03 0.0 
4.231196537603e-04 9.763481207118e-03 0.0 
3.536059330216e-04 8.947525729013e-03 0.0 
3.115829027394e-04 7.410749139261e-03 0.0 
2.883106640112e-04 8.111633336421e-03 0.0 
3.208163712713e-04 9.623633728445e-03 0.0 
2.602815051063e-04 8.800607380641e-03 0.0 
2.846219094721e-04 1.028659368760e-02 0.0 
2.282264382245e-04 9.476835028666e-03 0.0 
2.044973740638e-04 7.958258988992e-03 0.0 
1.340432668577e-04 1.146442300257e-02 0.0 
1.190117865074e-03 6.098679253808e-03 0.0 
1.036202011383e-03 5.079462100019e-03 0.0 
2.716787701988e-04 1.011959961044e-02 0.0 
2.934577255882e-04 9.634584752051e-03 0.0 
3.655202014485e-04 9.349459631080e-03 0.0 
3.021809375561e-04 9.090271047882e-03 0.0 
1.758781689247e-04 8.655284980099e-03 0.0 
1.536122287291e-04 7.098408149492e-03 0.0 
1.051836865621e-03 1.430061717066e-02 0.0 
1.257826885571e-03 1.451091324816e-02 0.0 
5.399170501548e-04 6.273403285086e-03 0.0 
2.377813651102e-04 5.439090170148e-03 0.0 
2.666535584841e-04 6.307327344921e-03 0.0 
1.944116127810e-03 1.308581282191e-02 0.0 
1.897179571831e-03 1.382448431225e-02 0.0 
1.889578871783e-03 1.398066945489e-02 0.0 
1.818654699850e-03 1.475847363460e-02 0.0 
1.821632886109e-03 1.457887250302e-02 0.0 
1.785357543501e-03 1.484545270657e-02 0.0 
1.015279700532e-03 6.918639986271e-03 0.0 
2.464425034674e-04 6.541448567035e-03 0.0 
3.378086734092e-04 1.124658339369e-02 0.0 
2.537506553733e-04 1.151646456617e-02 0.0 
2.023225833714e-04 4.500864202987e-03 0.0 
1.309144271840e-03 7.045103453184e-03 0.0 
1.705650046773e-03 9.199788549980e-03 0.0 
1.678243972915e-03 8.510636851520e-03 0.0 
1.568901052242e-03 7.970966501018e-03 0.0 
1.521107730383e-03 7.285978754490e-03 0.0 
1.393232778060e-03 6.685288445532e-03 0.0 
1.323764442464e-03 6.002825387950e-03 0.0 
1.452801940076e-03 6.612460093733e-03 0.0 
1.226613171834e-03 5.135791188980e-03 0.0 
1.234325968582e-03 5.328322100656e-03 0.0 
1.960987021903e-04 1.015335857707e-02 0.0 
1.645682310475e-03 7.871094171071e-03 0.0 
6.882292589285e-04 1.127614380374e-02 0.0 
1.371704802677e-04 1.157363477597e-02 0.0 
2.749226727818e-04 1.191928649779e-02 0.0 
1.207564675569e-04 1.135647408809e-02 0.0 
1.513469997438e-04 1.108112457892e-02 0.0 
6.766993970633e-04 4.033221063530e-03 0.0 
1.176710738353e-03 5.342200121490e-03 0.0 
1.249327393236e-03 6.034721288682e-03 0.0 
1.716923900332e-03 1.554354700948e-02 0.0 
1.718059488724e-03 1.533207967738e-02 0.0 
1.095605024329e-03 4.527697275332e-03 0.0 
7.526421749162e-04 1.076410351500e-02 0.0 
4.958536271573e-04 1.055866318851e-02 0.0 
4.520807008888e-04 1.120994782977e-02 0.0 
8.826657175787e-05 1.159109783634e-02 0.0 
2.297085777982e-04 1.209867130492e-02 0.0 
3.403381071294e-04 5.977140984701e-03 0.0 
1.493692253451e-03 1.398682360708e-02 0.0 
1.439225009531e-03 1.469176156358e-02 0.0 
3.599243797545e-04 1.362706673695e-02 0.0 
1.461177246611e-04 1.341234659335e-02 0.0 
1.296050535515e-04 7.792381675747e-03 0.0 
1.099371489275e-04 6.218667266321e-03 0.0 
3.748585697076e-04 8.768978581024e-03 0.0 
3.057607687111e-04 8.482711430020e-03 0.0 
8.008888584978e-04 4.530812926983e-03 0.0 
3.167242811877e-04 1.172994765129e-02 0.0 
1.258926510843e-04 5.486290181114e-03 0.0 
1.188201615170e-03 6.554060552846e-03 0.0 
1.281274473364e-03 7.446211937260e-03 0.0 
2.314497392271e-04 9.396550573296e-03 0.0 
9.563296762458e-04 1.497317321565e-02 0.0 
7.270755034874e-04 1.469296582162e-02 0.0 
8.262351860786e-04 1.117327170060e-02 0.0 
4.426131977429e-04 1.146670406646e-02 0.0 
1.009582643086e-04 1.123487419284e-02 0.0 
6.326730398172e-04 3.449681356390e-03 0.0 
3.433159177959e-04 5.244799739486e-03 0.0 
1.364838890844e-03 5.951147162818e-03 0.0 
1.561355249635e-03 7.174889338341e-03 0.0 
1.127125872987e-03 4.667389160002e-03 0.0 
1.824624024191e-04 1.193857212004e-02 0.0 
5.576393329729e-04 3.534117347517e-03 0.0 
1.682205311697e-04 5.034325283324e-03 0.0 
1.024264681131e-03 4.697268346636e-03 0.0 
1.091216884411e-03 5.336159647573e-03 0.0 
1.641379642134e-03 1.409360705036e-02 0.0 
1.592660511179e-03 1.482248973254e-02 0.0 
1.356376843137e-03 1.545318367603e-02 0.0 
1.509166856287e-03 1.560658393798e-02 0.0 
1.256434256810e-03 1.217853382341e-02 0.0 
1.758015499984e-03 1.414470632195e-02 0.0 
1.526592815317e-03 1.266820361659e-02 0.0 
1.440791972758e-03 1.333222882830e-02 0.0 
1.519905533758e-03 1.384073725210e-02 0.0 
1.797601876770e-03 1.433558014636e-02 0.0 
1.693031495211e-03 1.505768197036e-02 0.0 
1.674318978079e-03 1.275083110543e-02 0.0 
1.735302025946e-03 9.169422230197e-03 0.0 
4.424030255130e-04 9.047765699423e-03 0.0 
5.056790534530e-04 7.378154260650e-03 0.0 
1.002608712353e-03 8.076924650513e-03 0.0 
2.586088402907e-04 5.816715036556e-03 0.0 
1.950514874665e-04 4.913525285296e-03 0.0 
3.445289082151e-04 1.107694737757e-02 0.0 
3.018067564184e-04 1.171306216619e-02 0.0 
1.832247146138e-04 1.160754056058e-02 0.0 
1.656684756313e-04 1.173082520352e-02 0.0 
7.571466464409e-04 8.396057751021e-03 0.0 
5.848604264465e-04 4.108868579920e-03 0.0 
4.349367677250e-04 5.402498009843e-03 0.0 
4.252905337481e-04 4.662955252080e-03 0.0 
5.388104801511e-04 5.544181244318e-03 0.0 
7.622131512406e-04 3.965618482383e-03 0.0 
1.485360400810e-03 1.165987758151e-02 0.0 
1.502134149639e-03 8.411592261790e-03 0.0 
2.704754800646e-04 1.303859861020e-02 0.0 
1.833850853384e-03 9.421538173887e-03 0.0 
1.076136501679e-04 1.178883130487e-02 0.0 
1.348364102427e-03 8.150765028660e-03 0.0 
1.387243740316e-04 4.065953066132e-03 0.0 
1.605038259598e-04 3.490929297421e-03 0.0 
9.759399763887e-04 3.901627671429e-03 0.0 
1.174506422892e-03 1.401700748814e-02 0.0 
1.778983064018e-03 8.759781479794e-03 0.0 
1.817748453860e-03 9.147351681101e-03 0.0 
1.418845356028e-03 1.448723986828e-02 0.0 
1.479993008640e-03 1.495700154756e-02 0.0 
1.588599473866e-03 1.429773229430e-02 0.0 
1.528982099675e-03 1.538364324555e-02 0.0 
8.025659622461e-04 1.089014520507e-02 0.0 
6.744702605399e-04 1.102481042572e-02 0.0 
9.074973788223e-04 3.897415441237e-03 0.0 
9.821385077196e-04 4.028448940211e-03 0.0 
8.565785911649e-04 3.982442543158e-03 0.0 
9.224744905687e-04 4.585421638925e-03 0.0 
8.312044399119e-04 3.285864592474e-03 0.0 
9.550907235969e-04 3.929390578076e-03 0.0 
1.221439567649e-04 1.093356687791e-02 0.0 
1.592409515851e-03 1.605253548590e-02 0.0 
2.603776202221e-04 4.336418595191e-03 0.0 
1.348305259842e-03 1.398013098610e-02 0.0 
4.494257400918e-04 3.061460838371e-03 0.0 
4.783297598863e-04 3.630894114298e-03 0.0 
-4.338661655012e-05 1.322511253574e-02 0.0 
9.508846224016e-05 1.287453634245e-02 0.0 
8.636143690666e-05 4.610531157969e-03 0.0 
1.241691450740e-03 1.625540845115e-02 0.0 
1.388771748100e-03 1.642678758863e-02 0.0 
1.053391240081e-03 1.600341036501e-02 0.0 
2.100793340398e-05 1.828758968706e-03 0.0 
8.125508075807e-05 1.425996309225e-02 0.0 
1.043359471140e-04 3.026380498415e-03 0.0 
1.750493212064e-03 1.400914557268e-02 0.0 
9.184397205786e-05 3.787124962020e-03 0.0 
1.706213285978e-03 8.122431525525e-03 0.0 
1.927488064918e-03 1.325912441734e-02 0.0 
9.286896204728e-04 5.030574910950e-03 0.0 
7.030900335536e-05 5.491714411164e-03 0.0 
5.170227640861e-05 3.645203436541e-03 0.0 
5.197444662741e-04 1.194958443522e-02 0.0 
4.706486586414e-04 1.259754411517e-02 0.0 
5.707378620485e-04 1.133014830965e-02 0.0 
5.925673161755e-04 1.385325973729e-02 0.0 
1.895532946001e-04 1.419806129872e-02 0.0 
1.876861071679e-04 5.652544479631e-03 0.0 
2.443535884531e-04 1.054544669545e-02 0.0 
2.013633192361e-04 1.030986673793e-02 0.0 
3.348904797473e-04 1.156516063450e-02 0.0 
4.429820841043e-04 1.127747295616e-02 0.0 
4.482998926782e-04 8.434490868563e-03 0.0 
5.209152852039e-04 8.732403905798e-03 0.0 
1.336441391448e-03 7.444287803416e-03 0.0 
1.192321945918e-03 6.777694534810e-03 0.0 
1.596023868146e-03 8.669745813622e-03 0.0 
1.165485032990e-03 6.978432090266e-03 0.0 
1.234492169131e-03 7.818918564320e-03 0.0 
1.342299023994e-03 8.265270350206e-03 0.0 
1.973790024579e-04 4.218812669414e-03 0.0 
1.312763015378e-04 3.142960180096e-03 0.0 
9.351795454542e-04 1.075755705257e-02 0.0 
9.693426086272e-04 1.107161245003e-02 0.0 
7.678599420320e-04 1.062939804537e-02 0.0 
2.481909976666e-04 3.612006674775e-03 0.0 
1.155259165162e-04 2.440470045133e-03 0.0 
1.711071831991e-04 2.934472174225e-03 0.0 
7.890718321946e-05 1.188590052008e-02 0.0 
1.370117486204e-04 1.185139484739e-02 0.0 
5.940040355661e-04 1.536570382589e-02 0.0 
3.400884572713e-04 1.502978827626e-02 0.0 
4.092426738822e-04 3.978876978834e-03 0.0 
5.266626513247e-04 4.818048833808e-03 0.0 
2.888864610000e-04 3.000536767928e-03 0.0 
7.256414779433e-05 1.112127846755e-02 0.0 
1.470128826451e-03 6.505921754693e-03 0.0 
5.788445634778e-04 2.892994962437e-03 0.0 
7.148843818765e-04 3.433226803125e-03 0.0 
4.253608739440e-04 2.222359948448e-03 0.0 
1.118209344682e-03 4.565724518326e-03 0.0 
8.453840950331e-04 3.295251893899e-03 0.0 
8.422748896422e-04 3.320299877398e-03 0.0 
-2.033897637261e-04 1.357188442283e-02 0.0 
3.931377793265e-05 4.342920890089e-03 0.0 
3.593946925946e-04 1.247196728824e-02 0.0 
-3.282942729612e-04 1.337844595570e-02 0.0 
3.112569089865e-04 1.312720103820e-02 0.0 
2.596523105538e-04 1.234494199313e-02 0.0 
2.695128408945e-04 1.376227367809e-02 0.0 
5.949151055962e-05 1.137421187002e-02 0.0 
5.936713767909e-04 1.291307924184e-02 0.0 
6.521078346111e-04 1.213416288287e-02 0.0 
1.724924768176e-05 1.200735745517e-02 0.0 
1.678997947536e-04 2.690337134712e-03 0.0 
3.901141505747e-05 1.190781404839e-02 0.0 
6.718584274878e-05 1.183104617955e-02 0.0 
3.460630546854e-04 2.545385305393e-03 0.0 
3.792767832156e-04 3.143792547679e-03 0.0 
2.522303883499e-04 2.046092972655e-03 0.0 
2.954691574182e-04 2.709617142930e-03 0.0 
3.967567037284e-04 3.739611101736e-03 0.0 
3.097010138378e-04 3.268088432193e-03 0.0 
4.227716688092e-04 1.332483377942e-02 0.0 
2.033289745844e-04 2.053508377792e-03 0.0 
2.301116261103e-04 2.765238778576e-03 0.0 
1.341390950502e-04 1.580501241886e-03 0.0 
1.402791544365e-03 1.601242331443e-02 0.0 
1.608177135296e-03 1.570950131222e-02 0.0 
1.481400905369e-03 1.653718230188e-02 0.0 
1.218764405476e-03 1.732637466617e-02 0.0 
6.222064540466e-04 2.909227506617e-03 0.0 
7.609594340146e-04 3.871312926620e-03 0.0 
1.050256426616e-04 4.598381460349e-03 0.0 
1.200741451450e-04 5.526452795991e-03 0.0 
2.147411308258e-04 1.306439375145e-02 0.0 
1.565650025199e-04 1.311980216245e-02 0.0 
1.705854714302e-04 1.187592383910e-02 0.0 
1.230520199584e-04 1.202972739256e-02 0.0 
1.311383099178e-04 1.076506111928e-02 0.0 
8.438244842068e-05 1.092864355267e-02 0.0 
9.988196171662e-05 9.619592006194e-03 0.0 
6.710994847303e-04 2.629026094141e-03 0.0 
8.766603158179e-04 1.680878596796e-02 0.0 
1.311601951606e-03 1.511928361419e-02 0.0 
6.776693668975e-04 2.676273309412e-03 0.0 
8.303238790752e-04 3.441985384981e-03 0.0 
1.570969233498e-03 1.575223640800e-02 0.0 
1.448299868571e-03 1.676358899476e-02 0.0 
3.705773651568e-04 2.275876104914e-03 0.0 
1.785012215088e-03 1.343461249842e-02 0.0 
1.254410409146e-04 1.727425825091e-03 0.0 
-7.785493668244e-04 1.461207120636e-02 0.0 
-3.018668785906e-04 1.431601970097e-02 0.0 
1.871107469658e-03 1.340374634468e-02 0.0 
1.647007804667e-03 1.470605624762e-02 0.0 
1.678928899093e-03 1.568985945635e-02 0.0 
1.560275172405e-03 1.644864029438e-02 0.0 
1.065042456549e-03 6.057511398801e-03 0.0 
9.114373618857e-05 1.197855866169e-02 0.0 
8.342785246391e-04 1.569713585562e-02 0.0 
1.448899716081e-04 9.471145559635e-03 0.0 
4.111269758127e-04 1.607475769203e-02 0.0 
5.509246432889e-05 5.026268671157e-03 0.0 
1.792565802074e-03 1.273987812540e-02 0.0 
1.833558537758e-03 1.329492790032e-02 0.0 
1.171033413605e-03 1.522800504310e-02 0.0 
1.714522651664e-03 1.486410287252e-02 0.0 
1.329034115489e-03 1.152468201740e-02 0.0 
1.178442581185e-03 1.281173652558e-02 0.0 
1.263058503064e-03 1.342363302899e-02 0.0 
1.775787645968e-03 1.209926366153e-02 0.0 
1.591676123990e-03 1.628611494651e-02 0.0 
1.402099856282e-03 1.725108789061e-02 0.0 
1.600893998894e-03 1.199050355533e-02 0.0 
6.583289776216e-04 6.396456608286e-03 0.0 
6.538971170897e-04 5.666352335393e-03 0.0 
5.050240685875e-04 4.130036081740e-03 0.0 
6.365511720645e-04 4.943883657852e-03 0.0 
7.864470257601e-04 6.495144341493e-03 0.0 
7.776515189732e-04 5.773064077957e-03 0.0 
6.045176486111e-04 4.237442091540e-03 0.0 
7.538209188560e-04 5.051604303162e-03 0.0 
5.092405297269e-04 3.196756973747e-03 0.0 
7.062894016165e-04 4.295918400615e-03 0.0 
9.075883768901e-04 5.876365348296e-03 0.0 
8.770006026459e-04 5.188093612894e-03 0.0 
6.737672692374e-04 3.770700948323e-03 0.0 
1.065608624469e-03 6.741254495982e-03 0.0 
5.317652219929e-04 2.017521434148e-03 0.0 
1.938988766110e-03 1.255594758657e-02 0.0 
-9.671056421467e-06 1.384621833926e-02 0.0 
-9.295773525864e-05 1.468407588201e-02 0.0 
1.769574406783e-03 1.291605766767e-02 0.0 
2.481844879512e-04 1.556276903575e-03 0.0 
2.008654444481e-04 1.544714606805e-03 0.0 
1.521881349042e-03 1.333399351647e-02 0.0 
3.200315667051e-04 1.383309900923e-03 0.0 
1.350628337409e-03 1.277872491983e-02 0.0 
8.985099404057e-04 1.352827537029e-02 0.0 
3.430662242074e-04 1.351658371778e-03 0.0 
7.815589802789e-04 7.211251819104e-03 0.0 
9.067521893442e-04 8.023526563429e-03 0.0 
8.801986259925e-04 8.719227789873e-03 0.0 
1.536051124944e-04 1.448615823513e-03 0.0 
6.199626165184e-04 1.068359408059e-02 0.0 
3.255076984132e-04 1.185537362041e-03 0.0 
1.656240275491e-03 8.255340406157e-03 0.0 
1.750988494813e-03 8.859225551609e-03 0.0 
1.816266461141e-03 9.767940171590e-03 0.0 
9.228505940584e-04 6.612939250225e-03 0.0 
3.025782167576e-04 1.182459743085e-03 0.0 
5.450650657259e-04 2.249742992252e-03 0.0 
5.127829386389e-04 2.219532766642e-03 0.0 
7.621183912789e-04 3.336335104503e-03 0.0 
2.668783050339e-04 1.145630584745e-03 0.0 
2.606863113037e-04 1.376677201577e-03 0.0 
2.643917898659e-04 1.295040195618e-03 0.0 
8.387649633459e-04 1.147391169339e-02 0.0 
9.940734619409e-04 1.140288668998e-02 0.0 
1.114418390474e-03 1.096499315230e-02 0.0 
1.149934041052e-03 1.133341273388e-02 0.0 
1.006172878295e-03 1.176184746270e-02 0.0 
1.172906729114e-03 1.173174167667e-02 0.0 
1.300979949907e-03 1.126274704620e-02 0.0 
1.182023888841e-03 1.216459722647e-02 0.0 
9.908741838807e-04 5.321538584020e-03 0.0 
2.218760855808e-04 1.079079053799e-03 0.0 
9.660497481221e-04 7.310708757863e-03 0.0 
1.071079562271e-03 7.732928924788e-03 0.0 
1.098324758146e-03 8.473616247484e-03 0.0 
5.070493393475e-04 9.321478413307e-03 0.0 
5.913239644562e-04 9.027448860911e-03 0.0 
5.986845194439e-04 8.400527636013e-03 0.0 
4.243607952290e-04 9.603142476605e-03 0.0 
1.629639490041e-03 7.835048979743e-03 0.0 
2.031235463491e-04 1.078157264125e-03 0.0 
1.394362202145e-03 7.920310407709e-03 0.0 
6.590919553471e-04 9.319517225087e-03 0.0 
7.905647696447e-04 1.418338288640e-02 0.0 
8.278038646665e-04 1.304787248313e-02 0.0 
9.098578219380e-04 1.298504571528e-02 0.0 
8.488555985480e-04 1.168667427628e-02 0.0 
7.359040190451e-04 1.292162532360e-02 0.0 
3.747192029655e-04 8.128492665008e-03 0.0 
3.010359707867e-04 7.815362594934e-03 0.0 
2.354728794312e-04 8.189161626539e-03 0.0 
2.279352975272e-04 7.493875103100e-03 0.0 
1.648393167493e-04 7.884771404489e-03 0.0 
1.703669239279e-04 8.530522386641e-03 0.0 
1.546204779763e-04 7.162846799849e-03 0.0 
9.531938936114e-05 7.653129183385e-03 0.0 
6.351040498771e-04 1.422277454324e-02 0.0 
-3.509486099897e-04 1.279084680989e-02 0.0 
-1.166842256701e-04 1.261441621996e-02 0.0 
-8.891895440044e-05 1.243910015161e-02 0.0 
6.910422320772e-05 1.242220638061e-02 0.0 
7.778945212955e-05 1.260009271010e-02 0.0 
2.828978229665e-04 1.234101441539e-02 0.0 
2.738171917898e-04 1.257150707433e-02 0.0 
-1.504258669218e-04 1.284055455971e-02 0.0 
-2.238003430808e-04 1.243142295116e-02 0.0 
-5.872191046308e-05 1.229872805456e-02 0.0 
-1.722632046164e-04 1.230189088282e-02 0.0 
-3.893291833990e-05 1.218881333273e-02 0.0 
1.042146017856e-04 1.212110297042e-02 0.0 
2.421865034616e-04 1.165442091065e-02 0.0 
5.930699777235e-05 1.226522975269e-03 0.0 
6.227239343359e-05 9.383189432473e-03 0.0 
1.184950903017e-04 9.650701881068e-03 0.0 
1.080275680352e-04 1.011532886140e-02 0.0 
1.745218189355e-04 9.877043006883e-03 0.0 
1.188668454188e-04 9.160533013185e-03 0.0 
5.127410390116e-05 1.034245518232e-02 0.0 
9.700796433276e-05 1.048901947054e-02 0.0 
3.722547187390e-06 1.186461322409e-02 0.0 
1.471390517604e-05 1.181110644190e-02 0.0 
4.975904296711e-06 1.181334282434e-02 0.0 
2.247992413973e-05 1.171432769710e-02 0.0 
3.587588105791e-05 1.172447041406e-02 0.0 
2.240873839510e-05 1.181890776871e-02 0.0 
2.785879981104e-05 1.183365922094e-02 0.0 
-1.464426713227e-07 1.189509722065e-02 0.0 
3.133310143344e-05 1.185366948991e-02 0.0 
6.392491763130e-05 1.174524312807e-02 0.0 
-6.796496698769e-06 1.191887857474e-02 0.0 
3.145503931279e-05 7.625417040572e-03 0.0 
5.995085924582e-05 6.846043173084e-03 0.0 
1.769226789783e-04 1.130062618163e-03 0.0 
4.902685630412e-04 1.413108407977e-02 0.0 
-9.026850442950e-05 1.211386311530e-02 0.0 
4.754497133064e-05 1.849018316509e-03 0.0 
7.205235699104e-05 1.536945357635e-03 0.0 
5.898876174371e-05 1.488276826336e-03 0.0 
3.463706914686e-05 2.983113136626e-03 0.0 
5.629629039561e-05 2.450872680406e-03 0.0 
2.507999982981e-05 1.796769111756e-03 0.0 
4.126568114957e-04 1.092000288808e-02 0.0 
4.692258837409e-04 3.451188981366e-03 0.0 
1.358422541458e-04 4.741487966655e-03 0.0 
8.276923550277e-04 1.407739958170e-02 0.0 
5.540522382432e-04 1.115433795464e-02 0.0 
1.901756209195e-04 5.924348838882e-03 0.0 
5.642512480755e-04 6.965071036907e-03 0.0 
2.256779866938e-04 3.954119836507e-03 0.0 
3.435043359747e-04 6.673139498732e-03 0.0 
3.795462492251e-04 4.824512853011e-03 0.0 
4.924896380238e-04 2.263848768504e-03 0.0 
8.025256303235e-05 1.147076883339e-02 0.0 
3.851054605519e-04 1.042669995797e-02 0.0 
2.481453019669e-04 1.094203095860e-02 0.0 
2.281179675094e-04 7.256004421572e-03 0.0 
2.790908874735e-04 1.072779124357e-02 0.0 
2.390434626132e-04 8.791449409083e-03 0.0 
1.904438513787e-04 1.148089815081e-02 0.0 
6.143030099715e-04 2.574146453885e-03 0.0 
1.611353412894e-03 1.317211338437e-02 0.0 
1.012578456029e-03 8.777228267395e-03 0.0 
4.796055398915e-04 9.850883702400e-03 0.0 
5.095227693630e-04 1.074735840342e-02 0.0 
5.594970691369e-04 1.137432408658e-02 0.0 
1.963517952095e-03 1.237513320990e-02 0.0 
7.502939645292e-04 9.032912036879e-03 0.0 
6.860475157584e-04 5.609234699715e-03 0.0 
1.736585149885e-04 6.381389820142e-03 0.0 
-2.856247324434e-05 1.198532326801e-02 0.0 
7.008041114958e-04 5.110809232063e-03 0.0 
7.439784248380e-04 7.692346713748e-03 0.0 
5.371997693686e-04 9.893883338824e-03 0.0 
1.257883448336e-03 5.652633797622e-03 0.0 
3.580729466801e-04 1.208917225630e-02 0.0 
3.293958385768e-04 6.701191137036e-03 0.0 
3.254093822136e-04 3.855879222119e-03 0.0 
7.026434312962e-04 1.144362212600e-02 0.0 
1.255662323620e-04 1.168744513408e-02 0.0 
4.077771402038e-04 1.186776859700e-02 0.0 
5.084350319660e-04 2.928238563481e-03 0.0 
6.501972431252e-04 7.114311754165e-03 0.0 
2.108495701059e-04 1.091187007325e-02 0.0 
1.542139890674e-03 9.204950468039e-03 0.0 
1.891238612220e-03 1.256629352727e-02 0.0 
1.144842972224e-03 1.515471354776e-02 0.0 
1.403753591873e-04 4.047649435080e-03 0.0 
1.892503062638e-03 1.011382132296e-02 0.0 
9.874048288090e-04 4.532023556482e-03 0.0 
1.426493594931e-03 7.547006989373e-03 0.0 
1.800607560520e-04 1.074086164315e-02 0.0 
4.907266264080e-04 4.196208701821e-03 0.0 
1.775588529050e-03 1.001524712915e-02 0.0 
2.642388361593e-04 5.091105792150e-03 0.0 
1.442594734108e-03 7.379078331027e-03 0.0 
1.573891913846e-03 1.107618018462e-02 0.0 
4.338103589419e-04 6.131074363285e-03 0.0 
1.191103637844e-03 8.872497915666e-03 0.0 
1.190027740336e-03 5.111697944656e-03 0.0 
1.687266950196e-03 1.361580204155e-02 0.0 
1.711285347923e-03 9.897599985136e-03 0.0 
1.340790595616e-03 8.849320043382e-03 0.0 
1.867438448400e-03 1.009611848572e-02 0.0 
1.297220986327e-04 6.393270764551e-03 0.0 
5.927075922383e-04 4.655733653578e-03 0.0 
5.534376308773e-04 1.280251423877e-02 0.0 
1.845866539462e-03 1.409021990365e-02 0.0 
6.628482390525e-04 1.000066314747e-02 0.0 
1.093110851876e-03 4.704298879812e-03 0.0 
1.863628691936e-04 3.411673749131e-03 0.0 
1.877271894777e-03 1.359492299094e-02 0.0 
4.861770224860e-04 4.737905781587e-03 0.0 
3.392094151380e-04 4.554496258635e-03 0.0 
6.754247026279e-04 8.719584906315e-03 0.0 
2.873880557008e-05 1.133949538605e-02 0.0 
4.901665444379e-04 1.440708563353e-02 0.0 
1.354052727091e-03 1.217681314797e-02 0.0 
1.881617783983e-03 1.038292045458e-02 0.0 
6.737126700962e-04 8.057180272019e-03 0.0 
3.603175168863e-04 3.070321792329e-03 0.0 
3.952366936497e-04 4.294206659814e-03 0.0 
9.390085787402e-04 5.544881716375e-03 0.0 
-3.414884757866e-04 1.589619421852e-02 0.0 
1.249977845312e-03 1.457796962076e-02 0.0 
3.115015716988e-04 3.841536083197e-03 0.0 
1.445538846550e-03 8.725882049179e-03 0.0 
1.055688353489e-03 4.542459984471e-03 0.0 
1.034332638650e-04 8.268034030475e-03 0.0 
6.354613597743e-04 2.564164030897e-03 0.0 
1.439951293349e-03 1.639052255400e-02 0.0 
2.357362637770e-04 3.378972779977e-03 0.0 
1.061727069512e-03 5.582161851583e-03 0.0 
1.669447279887e-03 1.339799465557e-02 0.0 
1.348194075135e-04 1.425980212856e-02 0.0 
1.494269132918e-04 2.117922366761e-03 0.0 
8.944956737622e-04 4.485377385954e-03 0.0 
1.767293336304e-03 8.995569156395e-03 0.0 
1.370129987640e-03 9.012390646221e-03 0.0 
1.238633050658e-03 1.617023382108e-02 0.0 
5.895491333501e-04 7.716471037657e-03 0.0 
1.602762077674e-03 9.370781553736e-03 0.0 
1.335009559327e-04 1.414897795918e-03 0.0 
8.520409630854e-04 3.994437157186e-03 0.0 
9.962712447233e-04 9.509350170260e-03 0.0 
5.206060646561e-04 8.085525671406e-03 0.0 
1.613511470509e-03 7.475969766507e-03 0.0 
5.001675699923e-05 1.173412006460e-02 0.0 
1.361911724647e-03 1.557771604698e-02 0.0 
4.419763417953e-04 7.762282031706e-03 0.0 
1.333632985961e-03 1.170364788140e-02 0.0 
1.273398574183e-03 8.580981000804e-03 0.0 
7.004507467450e-04 2.680310580910e-03 0.0 
3.642503399641e-04 7.431214880876e-03 0.0 
1.443877772147e-03 1.117689919708e-02 0.0 
2.879466140073e-04 7.092320961432e-03 0.0 
1.290687053231e-03 1.701875615946e-02 0.0 
1.030851476784e-03 8.796652169911e-03 0.0 
2.108860152235e-04 6.743986021920e-03 0.0 
1.472449505485e-03 8.082144887920e-03 0.0 
7.846582622673e-05 1.175930130693e-02 0.0 
1.716782683452e-03 8.331560666067e-03 0.0 
8.164993396820e-05 3.550889444107e-03 0.0 
7.248137582181e-04 1.037498475507e-02 0.0 
1.174076914943e-03 8.162434294366e-03 0.0 
9.211984539661e-04 7.317484994468e-03 0.0 
1.274629617800e-03 1.769221018313e-02 0.0 
1.126761784473e-03 7.371925409387e-03 0.0 
1.303536282215e-03 6.743082505807e-03 0.0 
1.646239255265e-03 7.679928176234e-03 0.0 
1.830257863229e-03 9.479932221971e-03 0.0 
1.048366297093e-03 6.498471124173e-03 0.0 
1.446347853207e-03 1.698694631613e-02 0.0 
4.268617923522e-04 1.111113740477e-02 0.0 
3.405269071894e-04 1.140585603657e-02 0.0 
1.390365182679e-03 1.072884913141e-02 0.0 
1.150864765375e-03 6.049961494512e-03 0.0 
4.618015562086e-05 1.159133886105e-02 0.0 
1.066884203077e-03 7.408331189634e-03 0.0 
2.174526620795e-04 1.179687573913e-02 0.0 
1.256172977691e-03 1.085294346697e-02 0.0 
1.346967945860e-03 5.762735566160e-03 0.0 
3.809477557581e-05 1.056538491470e-02 0.0 
1.201498923164e-03 1.046726005223e-02 0.0 
3.551862448492e-05 1.106075255497e-02 0.0 
1.069643189867e-03 1.061885260840e-02 0.0 
1.740420775882e-03 8.506394049915e-03 0.0 
1.017079711984e-03 1.028380996605e-02 0.0 
8.921148606902e-04 1.045924667765e-02 0.0 
9.314549522088e-05 3.117404722698e-03 0.0 
8.414971303807e-04 1.017020637013e-02 0.0 
1.186388591634e-05 1.490702654216e-03 0.0 
2.481517962183e-05 1.115403127578e-03 0.0 
5.080743897423e-05 1.328186110198e-02 0.0 
1.142523340398e-03 1.822492492527e-02 0.0 
-6.090951069240e-04 1.368944619490e-02 0.0 
1.374900047225e-03 1.716170171508e-02 0.0 
6.488832852032e-04 1.079318987122e-02 0.0 
1.211358995349e-03 7.481180964273e-03 0.0 
1.055799742815e-04 1.322064145415e-02 0.0 
5.346748869286e-04 1.095181371360e-02 0.0 
4.883975634584e-04 2.774675736386e-03 0.0 
3.278420896216e-04 1.216592859841e-03 0.0 
6.843144605284e-05 8.311210894027e-03 0.0 
9.282523117982e-04 4.037008541250e-03 0.0 
1.550948665411e-03 6.995561956678e-03 0.0 
1.929140460533e-05 4.507740621872e-03 0.0 
3.140375657651e-04 1.435613083083e-02 0.0 
-1.936974739181e-05 1.209881523629e-02 0.0 
6.255767185404e-05 5.940178321952e-03 0.0 
9.127196070118e-04 1.827986136943e-02 0.0 
1.056203112956e-03 1.710612931057e-02 0.0 
6.386833184209e-04 1.647146807525e-02 0.0 
1.407668572400e-04 1.059913426015e-02 0.0 
7.059632273254e-05 1.227220402694e-02 0.0 
6.250007571680e-04 1.768498066156e-02 0.0 
5.862368851588e-04 2.352093289964e-03 0.0 
5.287697026617e-04 1.318795502299e-02 0.0 
1.259301605138e-03 5.303986899722e-03 0.0 
1.503160757785e-04 1.687052375839e-02 0.0 
2.325697005787e-04 2.994182506061e-03 0.0 
6.619689304195e-04 2.511962497643e-03 0.0 
1.249701513100e-04 9.884692969742e-04 0.0 
9.896864426011e-04 3.959695358347e-03 0.0 
1.449565080200e-04 1.566141935210e-02 0.0 
7.771058224222e-04 1.198785666386e-02 0.0 
5.912396738772e-04 2.591924085831e-03 0.0 
9.219683570194e-05 7.071987179302e-03 0.0 
8.974246759230e-05 9.444684781634e-04 0.0 
6.670683390340e-04 1.328964963749e-02 0.0 
5.692996064965e-05 2.911745637775e-03 0.0 
3.792815741672e-04 1.271423680958e-02 0.0 
2.821086498983e-05 2.826064340887e-03 0.0 
1.037778545591e-03 6.019942527828e-03 0.0 
2.142098254865e-04 1.158390520656e-02 0.0 
9.342665496561e-04 1.198592393143e-02 0.0 
6.820195433033e-05 1.930037336717e-03 0.0 
4.201983410113e-04 2.841335092711e-03 0.0 
-1.125342009658e-04 1.518172873089e-02 0.0 
1.073070495963e-04 8.464044884970e-03 0.0 
2.353616876047e-04 9.878829190612e-03 0.0 
-2.401751281802e-04 1.311428742831e-02 0.0 
3.087136444293e-04 2.066930578437e-03 0.0 
8.331431088671e-04 4.559794596691e-03 0.0 
1.139602209435e-04 1.972268108638e-03 0.0 
9.181513734524e-06 1.172116333559e-02 0.0 
4.166772946235e-06 1.197578177607e-02 0.0 
3.444773231891e-04 1.935221524768e-03 0.0 
5.092971438714e-04 2.507082383829e-03 0.0 
4.721576969011e-04 1.232942281778e-02 0.0 
7.710762736934e-05 1.205368698557e-03 0.0 
-4.554977971551e-04 1.484920291865e-02 0.0 
4.298091611830e-04 1.448717973181e-02 0.0 
2.821913743123e-05 1.188395390325e-02 0.0 
7.194655603193e-05 9.529834702668e-04 0.0 
1.376608839863e-04 2.789742980916e-03 0.0 
1.667292798082e-04 9.412603349444e-03 0.0 
9.484037506624e-04 1.398137753639e-02 0.0 
8.313127115844e-05 1.083866334224e-02 0.0 
8.610774333491e-04 3.542665835592e-03 0.0 
6.784378593672e-05 1.206564003597e-02 0.0 
9.319633273464e-05 2.634750797810e-03 0.0 
3.978592007510e-04 1.919178979023e-03 0.0 
2.832858631123e-04 2.614278746595e-03 0.0 
2.415269247393e-04 8.915041491520e-04 0.0 
-3.644253472928e-04 1.390556340832e-02 0.0 
5.736236519169e-04 2.182293494545e-03 0.0 
6.699693611587e-04 3.043208611818e-03 0.0 
2.358381469350e-04 1.440987013909e-02 0.0 
3.616162851827e-04 2.790651450304e-03 0.0 
1.497619243174e-04 1.026749199170e-02 0.0 
1.020861643815e-04 1.162838237018e-02 0.0 
5.275532778626e-06 1.321078713314e-03 0.0 
-5.782237905150e-07 1.185672818913e-02 0.0 
3.943761000613e-05 1.440581618156e-02 0.0 
9.978215297912e-06 9.097615746967e-04 0.0 
5.953616505971e-05 1.162993411540e-02 0.0 
8.346426539418e-05 1.229856712624e-02 0.0 
4.635528111940e-04 2.435759932734e-03 0.0 
4.459067053786e-05 8.155429331648e-03 0.0 
4.567801371991e-05 5.580799648033e-03 0.0 
2.013422741687e-04 1.223892711636e-02 0.0 
-5.690044557660e-04 1.332079264783e-02 0.0 
6.606685390409e-05 9.839311592144e-03 0.0 
5.909255355689e-04 2.223108981919e-03 0.0 
2.175190215183e-04 2.506296443173e-03 0.0 
1.710735081843e-04 1.081469016049e-02 0.0 
1.992067142602e-04 1.469393132131e-02 0.0 
6.533528986026e-04 3.435854538690e-03 0.0 
1.792762733350e-04 8.986108672605e-03 0.0 
8.055704389065e-04 3.563110881426e-03 0.0 
7.449375690491e-04 3.138846228595e-03 0.0 
-8.099899040523e-04 1.506868264028e-02 0.0 
4.057914507760e-05 7.470424866526e-03 0.0 
1.964408810728e-05 1.191572632963e-02 0.0 
2.061344691038e-04 1.821582806809e-03 0.0 
1.189609402703e-04 8.713193613557e-03 0.0 
6.643227691789e-04 1.934073728119e-02 0.0 
2.746897766315e-05 2.108575974495e-02 0.0 
9.395860126169e-04 1.906304637378e-02 0.0 
2.762460177053e-05 2.018232017622e-02 0.0 
1.067355248573e-03 1.851858166356e-02 0.0 
2.511267505412e-05 1.921481240470e-02 0.0 
1.099932776022e-03 1.778373932403e-02 0.0 
2.774735032318e-05 1.818264650037e-02 0.0 
1.069328310223e-03 1.687784571527e-02 0.0 
2.529775777305e-05 1.708580660575e-02 0.0 
9.945796914934e-04 1.585527043328e-02 0.0 
2.763945850148e-05 1.592470207130e-02 0.0 

VECTORS node_bounda_dof_materi_velocity_x float
1.000000000000e+00 0.0 0.0 
1.000000000000e+00 0.0 0.0 
1.000000000000e+00 0.0 0.0 
1.000000000000e+00 0.0 0.0 
1.000000000000e+00 0.0 0.0 
1.000000000000e+00 0.0 0.0 
1.000000000000e+00 0.0 0.0 
1.000000000000e+00 0.0 0.0 
1.000000000000e+00 0.0 0.0 
1.000000000000e+00 0.0 0.0 
1.000000000000e+00 0.0 0.0 
1.000000000000e+00 0.0 0.0 
1.000000000000e+00 0.0 0.0 
1.000000000000e+00 0.0 0.0 
1.000000000000e+00 0.0 0.0 
1.000000000000e+00 0.0 0.0 
1.000000000000e+00 0.0 0.0 
1.000000000000e+00 0.0 0.0 
1.000000000000e+00 0.0 0.0 
1.000000000000e+00 0.0 0.0 
1.000000000000e+00 0.0 0.0 
1.000000000000e+00 0.0 0.0 
1.000000000000e+00 0.0 0.0 
1.000000000000e+00 0.0 0.0 
1.000000000000e+00 0.0 0.0 
1.000000000000e+00 0.0 0.0 
1.000000000000e+00 0.0 0.0 
1.000000000000e+00 0.0 0.0 
1.000000000000e+00 0.0 0.0 
1.000000000000e+00 0.0 0.0 
1.000000000000e+00 0.0 0.0 
1.000000000000e+00 0.0 0.0 
1.000000000000e+00 0.0 0.0 
1.000000000000e+00 0.0 0.0 
1.000000000000e+00 0.0 0.0 
1.000000000000e+00 0.0 0.0 
1.000000000000e+00 0.0 0.0 
1.000000000000e+00 0.0 0.0 
1.000000000000e+00 0.0 0.0 
1.000000000000e+00 0.0 0.0 
1.000000000000e+00 0.0 0.0 
1.000000000000e+00 0.0 0.0 
1.000000000000e+00 0.0 0.0 
1.000000000000e+00 0.0 0.0 
1.000000000000e+00 0.0 0.0 
1.000000000000e+00 0.0 0.0 
1.000000000000e+00 0.0 0.0 
1.000000000000e+00 0.0 0.0 
1.000000000000e+00 0.0 0.0 
1.000000000000e+00 0.0 0.0 
1.000000000000e+00 0.0 0.0 
1.000000000000e+00 0.0 0.0 
1.000000000000e+00 0.0 0.0 
1.000000000000e+00 0.0 0.0 
1.000000000000e+00 0.0 0.0 
1.000000000000e+00 0.0 0.0 
1.000000000000e+00 0.0 0.0 
1.000000000000e+00 0.0 0.0 
1.000000000000e+00 0.0 0.0 
1.000000000000e+00 0.0 0.0 
1.000000000000e+00 0.0 0.0 
1.000000000000e+00 0.0 0.0 
1.000000000000e+00 0.0 0.0 
1.000000000000e+00 0.0 0.0 
1.000000000000e+00 0.0 0.0 
1.000000000000e+00 0.0 0.0 
1.000000000000e+00 0.0 0.0 
1.000000000000e+00 0.0 0.0 
1.000000000000e+00 0.0 0.0 
1.000000000000e+00 0.0 0.0 
1.000000000000e+00 0.0 0.0 
1.000000000000e+00 0.0 0.0 
1.000000000000e+00 0.0 0.0 
1.000000000000e+00 0.0 0.0 
1.000000000000e+00 0.0 0.0 
1.000000000000e+00 0.0 0.0 
1.000000000000e+00 0.0 0.0 
1.000000000000e+00 0.0 0.0 
1.000000000000e+00 0.0 0.0 
1.000000000000e+00 0.0 0.0 
1.000000000000e+00 0.0 0.0 
0.0 0.0 0.0 
0.0 0.0 0.0 
0.0 0.0 0.0 
0.0 0.0 0.0 
0.0 0.0 0.0 
0.0 0.0 0.0 
0.0 0.0 0.0 
0.0 0.0 0.0 
0.0 0.0 0.0 
0.0 0.0 0.0 
0.0 0.0 0.0 
1.000000000000e+00 0.0 0.0 
1.000000000000e+00 0.0 0.0 
1.000000000000e+00 0.0 0.0 
1.000000000000e+00 0.0 0.0 
1.000000000000e+00 0.0 0.0 
1.000000000000e+00 0.0 0.0 
0.0 0.0 0.0 
0.0 0.0 0.0 
0.0 0.0 0.0 
0.0 0.0 0.0 
0.0 0.0 0.0 
0.0 0.0 0.0 
0.0 0.0 0.0 
0.0 0.0 0.0 
0.0 0.0 0.0 
0.0 0.0 0.0 
0.0 0.0 0.0 
0.0 0.0 0.0 
0.0 0.0 0.0 
0.0 0.0 0.0 
0.0 0.0 0.0 
0.0 0.0 0.0 
0.0 0.0 0.0 
0.0 0.0 0.0 
0.0 0.0 0.0 
0.0 0.0 0.0 
0.0 0.0 0.0 
0.0 0.0 0.0 
0.0 0.0 0.0 
0.0 0.0 0.0 
0.0 0.0 0.0 
0.0 0.0 0.0 
0.0 0.0 0.0 
0.0 0.0 0.0 
0.0 0.0 0.0 
0.0 0.0 0.0 
0.0 0.0 0.0 
0.0 0.0 0.0 
0.0 0.0 0.0 
0.0 0.0 0.0 
0.0 0.0 0.0 
0.0 0.0 0.0 
0.0 0.0 0.0 
0.0 0.0 0.0 
0.0 0.0 0.0 
0.0 0.0 0.0 
0.0 0.0 0.0 
0.0 0.0 0.0 
0.0 0.0 0.0 
0.0 0.0 0.0 
0.0 0.0 0.0 
0.0 0.0 0.0 
0.0 0.0 0.0 
0.0 0.0 0.0 
0.0 0.0 0.0 
0.0 0.0 0.0 
0.0 0.0 0.0 
0.0 0.0 0.0 
0.0 0.0 0.0 
0.0 0.0 0.0 
0.0 0.0 0.0 
0.0 0.0 0.0 
0.0 0.0 0.0 
0.0 0.0 0.0 
0.0 0.0 0.0 
0.0 0.0 0.0 
0.0 0.0 0.0 
0.0 0.0 0.0 
0.0 0.0 0.0 
0.0 0.0 0.0 
0.0 0.0 0.0 
0.0 0.0 0.0 
0.0 0.0 0.0 
0.0 0.0 0.0 
0.0 0.0 0.0 
0.0 0.0 0.0 
0.0 0.0 0.0 
0.0 0.0 0.0 
0.0 0.0 0.0 
0.0 0.0 0.0 
0.0 0.0 0.0 
0.0 0.0 0.0 
0.0 0.0 0.0 
0.0 0.0 0.0 
0.0 0.0 0.0 
0.0 0.0 0.0 
0.0 0.0 0.0 
0.0 0.0 0.0 
0.0 0.0 0.0 
0.0 0.0 0.0 
0.0 0.0 0.0 
0.0 0.0 0.0 
0.0 0.0 0.0 
0.0 0.0 0.0 
0.0 0.0 0.0 
0.0 0.0 0.0 
0.0 0.0 0.0 
0.0 0.0 0.0 
0.0 0.0 0.0 
0.0 0.0 0.0 
0.0 0.0 0.0 
0.0 0.0 0.0 
0.0 0.0 0.0 
0.0 0.0 0.0 
0.0 0.0 0.0 
0.0 0.0 0.0 
0.0 0.0 0.0 
0.0 0.0 0.0 
0.0 0.0 0.0 
0.0 0.0 0.0 
0.0 0.0 0.0 
0.0 0.0 0.0 
0.0 0.0 0.0 
0.0 0.0 0.0 
0.0 0.0 0.0 
0.0 0.0 0.0 
0.0 0.0 0.0 
0.0 0.0 0.0 
0.0 0.0 0.0 
0.0 0.0 0.0 
0.0 0.0 0.0 
0.0 0.0 0.0 
0.0 0.0 0.0 
0.0 0.0 0.0 
0.0 0.0 0.0 
0.0 0.0 0.0 
0.0 0.0 0.0 
0.0 0.0 0.0 
0.0 0.0 0.0 
0.0 0.0 0.0 
0.0 0.0 0.0 
0.0 0.0 0.0 
0.0 0.0 0.0 
0.0 0.0 0.0 
0.0 0.0 0.0 
0.0 0.0 0.0 
0.0 0.0 0.0 
0.0 0.0 0.0 
0.0 0.0 0.0 
0.0 0.0 0.0 
0.0 0.0 0.0 
0.0 0.0 0.0 
0.0 0.0 0.0 
0.0 0.0 0.0 
0.0 0.0 0.0 
0.0 0.0 0.0 
0.0 0.0 0.0 
0.0 0.0 0.0 
0.0 0.0 0.0 
0.0 0.0 0.0 
0.0 0.0 0.0 
0.0 0.0 0.0 
0.0 0.0 0.0 
0.0 0.0 0.0 
0.0 0.0 0.0 
0.0 0.0 0.0 
0.0 0.0 0.0 
0.0 0.0 0.0 
0.0 0.0 0.0 
0.0 0.0 0.0 
0.0 0.0 0.0 
0.0 0.0 0.0 
0.0 0.0 0.0 
0.0 0.0 0.0 
0.0 0.0 0.0 
0.0 0.0 0.0 
0.0 0.0 0.0 
0.0 0.0 0.0 
0.0 0.0 0.0 
0.0 0.0 0.0 
0.0 0.0 0.0 
0.0 0.0 0.0 
0.0 0.0 0.0 
0.0 0.0 0.0 
0.0 0.0 0.0 
0.0 0.0 0.0 
0.0 0.0 0.0 
0.0 0.0 0.0 
0.0 0.0 0.0 
0.0 0.0 0.0 
0.0 0.0 0.0 
0.0 0.0 0.0 
0.0 0.0 0.0 
0.0 0.0 0.0 
0.0 0.0 0.0 
0.0 0.0 0.0 
0.0 0.0 0.0 
0.0 0.0 0.0 
0.0 0.0 0.0 
0.0 0.0 0.0 
0.0 0.0 0.0 
0.0 0.0 0.0 
0.0 0.0 0.0 
0.0 0.0 0.0 
0.0 0.0 0.0 
0.0 0.0 0.0 
0.0 0.0 0.0 
0.0 0.0 0.0 
0.0 0.0 0.0 
0.0 0.0 0.0 
0.0 0.0 0.0 
0.0 0.0 0.0 
0.0 0.0 0.0 
0.0 0.0 0.0 
0.0 0.0 0.0 
0.0 0.0 0.0 
0.0 0.0 0.0 
0.0 0.0 0.0 
0.0 0.0 0.0 
0.0 0.0 0.0 
0.0 0.0 0.0 
0.0 0.0 0.0 
0.0 0.0 0.0 
0.0 0.0 0.0 
0.0 0.0 0.0 
0.0 0.0 0.0 
0.0 0.0 0.0 
0.0 0.0 0.0 
0.0 0.0 0.0 
0.0 0.0 0.0 
0.0 0.0 0.0 
0.0 0.0 0.0 
0.0 0.0 0.0 
0.0 0.0 0.0 
0.0 0.0 0.0 
0.0 0.0 0.0 
0.0 0.0 0.0 
0.0 0.0 0.0 
0.0 0.0 0.0 
0.0 0.0 0.0 
0.0 0.0 0.0 
0.0 0.0 0.0 
0.0 0.0 0.0 
0.0 0.0 0.0 
0.0 0.0 0.0 
0.0 0.0 0.0 
0.0 0.0 0.0 
0.0 0.0 0.0 
0.0 0.0 0.0 
0.0 0.0 0.0 
0.0 0.0 0.0 
0.0 0.0 0.0 
0.0 0.0 0.0 
0.0 0.0 0.0 
0.0 0.0 0.0 
0.0 0.0 0.0 
0.0 0.0 0.0 
0.0 0.0 0.0 
0.0 0.0 0.0 
0.0 0.0 0.0 
0.0 0.0 0.0 
0.0 0.0 0.0 
0.0 0.0 0.0 
0.0 0.0 0.0 
0.0 0.0 0.0 
0.0 0.0 0.0 
0.0 0.0 0.0 
0.0 0.0 0.0 
0.0 0.0 0.0 
0.0 0.0 0.0 
0.0 0.0 0.0 
0.0 0.0 0.0 
0.0 0.0 0.0 
0.0 0.0 0.0 
0.0 0.0 0.0 
0.0 0.0 0.0 
0.0 0.0 0.0 
0.0 0.0 0.0 
0.0 0.0 0.0 
0.0 0.0 0.0 
0.0 0.0 0.0 
0.0 0.0 0.0 
0.0 0.0 0.0 
0.0 0.0 0.0 
0.0 0.0 0.0 
0.0 0.0 0.0 
0.0 0.0 0.0 
0.0 0.0 0.0 
0.0 0.0 0.0 
0.0 0.0 0.0 
0.0 0.0 0.0 
0.0 0.0 0.0 
0.0 0.0 0.0 
0.0 0.0 0.0 
0.0 0.0 0.0 
0.0 0.0 0.0 
0.0 0.0 0.0 
0.0 0.0 0.0 
0.0 0.0 0.0 
0.0 0.0 0.0 
0.0 0.0 0.0 
0.0 0.0 0.0 
0.0 0.0 0.0 
0.0 0.0 0.0 
0.0 0.0 0.0 
0.0 0.0 0.0 
0.0 0.0 0.0 
0.0 0.0 0.0 
0.0 0.0 0.0 
0.0 0.0 0.0 
0.0 0.0 0.0 
0.0 0.0 0.0 
0.0 0.0 0.0 
0.0 0.0 0.0 
0.0 0.0 0.0 
0.0 0.0 0.0 
0.0 0.0 0.0 
0.0 0.0 0.0 
0.0 0.0 0.0 
0.0 0.0 0.0 
0.0 0.0 0.0 
0.0 0.0 0.0 
0.0 0.0 0.0 
0.0 0.0 0.0 
0.0 0.0 0.0 
0.0 0.0 0.0 
0.0 0.0 0.0 
0.0 0.0 0.0 
0.0 0.0 0.0 
0.0 0.0 0.0 
0.0 0.0 0.0 
0.0 0.0 0.0 
0.0 0.0 0.0 
0.0 0.0 0.0 
0.0 0.0 0.0 
0.0 0.0 0.0 
0.0 0.0 0.0 
0.0 0.0 0.0 
0.0 0.0 0.0 
0.0 0.0 0.0 
0.0 0.0 0.0 
0.0 0.0 0.0 
0.0 0.0 0.0 
0.0 0.0 0.0 
0.0 0.0 0.0 
0.0 0.0 0.0 
0.0 0.0 0.0 
0.0 0.0 0.0 
0.0 0.0 0.0 
0.0 0.0 0.0 
0.0 0.0 0.0 
0.0 0.0 0.0 
0.0 0.0 0.0 
0.0 0.0 0.0 
0.0 0.0 0.0 
0.0 0.0 0.0 
0.0 0.0 0.0 
0.0 0.0 0.0 
0.0 0.0 0.0 
0.0 0.0 0.0 
0.0 0.0 0.0 
0.0 0.0 0.0 
0.0 0.0 0.0 
0.0 0.0 0.0 
0.0 0.0 0.0 
0.0 0.0 0.0 
0.0 0.0 0.0 
0.0 0.0 0.0 
0.0 0.0 0.0 
0.0 0.0 0.0 
0.0 0.0 0.0 
0.0 0.0 0.0 
0.0 0.0 0.0 
0.0 0.0 0.0 
0.0 0.0 0.0 
0.0 0.0 0.0 
0.0 0.0 0.0 
0.0 0.0 0.0 
0.0 0.0 0.0 
0.0 0.0 0.0 
0.0 0.0 0.0 
0.0 0.0 0.0 
0.0 0.0 0.0 
0.0 0.0 0.0 
0.0 0.0 0.0 
0.0 0.0 0.0 
0.0 0.0 0.0 
0.0 0.0 0.0 
0.0 0.0 0.0 
0.0 0.0 0.0 
0.0 0.0 0.0 
0.0 0.0 0.0 
0.0 0.0 0.0 
0.0 0.0 0.0 
0.0 0.0 0.0 
0.0 0.0 0.0 
0.0 0.0 0.0 
0.0 0.0 0.0 
0.0 0.0 0.0 
0.0 0.0 0.0 
0.0 0.0 0.0 
0.0 0.0 0.0 
0.0 0.0 0.0 
0.0 0.0 0.0 
0.0 0.0 0.0 
0.0 0.0 0.0 
0.0 0.0 0.0 
0.0 0.0 0.0 
0.0 0.0 0.0 
0.0 0.0 0.0 
0.0 0.0 0.0 
0.0 0.0 0.0 
0.0 0.0 0.0 
0.0 0.0 0.0 
0.0 0.0 0.0 
0.0 0.0 0.0 
0.0 0.0 0.0 
0.0 0.0 0.0 
0.0 0.0 0.0 
0.0 0.0 0.0 
0.0 0.0 0.0 
0.0 0.0 0.0 
0.0 0.0 0.0 
0.0 0.0 0.0 
0.0 0.0 0.0 
0.0 0.0 0.0 
0.0 0.0 0.0 
0.0 0.0 0.0 
0.0 0.0 0.0 
0.0 0.0 0.0 
0.0 0.0 0.0 
0.0 0.0 0.0 
0.0 0.0 0.0 
0.0 0.0 0.0 
0.0 0.0 0.0 
0.0 0.0 0.0 
0.0 0.0 0.0 
0.0 0.0 0.0 
0.0 0.0 0.0 
0.0 0.0 0.0 
0.0 0.0 0.0 
0.0 0.0 0.0 
0.0 0.0 0.0 
0.0 0.0 0.0 
0.0 0.0 0.0 
0.0 0.0 0.0 
0.0 0.0 0.0 
0.0 0.0 0.0 
0.0 0.0 0.0 
0.0 0.0 0.0 
0.0 0.0 0.0 
0.0 0.0 0.0 
0.0 0.0 0.0 
0.0 0.0 0.0 
0.0 0.0 0.0 
0.0 0.0 0.0 
0.0 0.0 0.0 
0.0 0.0 0.0 
0.0 0.0 0.0 
0.0 0.0 0.0 
0.0 0.0 0.0 
0.0 0.0 0.0 
0.0 0.0 0.0 
0.0 0.0 0.0 
0.0 0.0 0.0 
0.0 0.0 0.0 
0.0 0.0 0.0 
0.0 0.0 0.0 
0.0 0.0 0.0 
0.0 0.0 0.0 
0.0 0.0 0.0 
0.0 0.0 0.0 
0.0 0.0 0.0 
0.0 0.0 0.0 
0.0 0.0 0.0 
0.0 0.0 0.0 
0.0 0.0 0.0 
0.0 0.0 0.0 
0.0 0.0 0.0 
0.0 0.0 0.0 
0.0 0.0 0.0 
0.0 0.0 0.0 
0.0 0.0 0.0 
0.0 0.0 0.0 
0.0 0.0 0.0 
0.0 0.0 0.0 
0.0 0.0 0.0 
0.0 0.0 0.0 
0.0 0.0 0.0 
0.0 0.0 0.0 
0.0 0.0 0.0 
0.0 0.0 0.0 
0.0 0.0 0.0 
0.0 0.0 0.0 
0.0 0.0 0.0 
0.0 0.0 0.0 
0.0 0.0 0.0 
0.0 0.0 0.0 
0.0 0.0 0.0 
0.0 0.0 0.0 
0.0 0.0 0.0 
0.0 0.0 0.0 
0.0 0.0 0.0 
0.0 0.0 0.0 
0.0 0.0 0.0 
0.0 0.0 0.0 
0.0 0.0 0.0 
0.0 0.0 0.0 
0.0 0.0 0.0 
0.0 0.0 0.0 
0.0 0.0 0.0 
0.0 0.0 0.0 
0.0 0.0 0.0 
0.0 0.0 0.0 
0.0 0.0 0.0 
0.0 0.0 0.0 
0.0 0.0 0.0 
0.0 0.0 0.0 
0.0 0.0 0.0 
0.0 0.0 0.0 
0.0 0.0 0.0 
0.0 0.0 0.0 
0.0 0.0 0.0 
0.0 0.0 0.0 
0.0 0.0 0.0 
0.0 0.0 0.0 
0.0 0.0 0.0 
0.0 0.0 0.0 
0.0 0.0 0.0 
0.0 0.0 0.0 
0.0 0.0 0.0 
0.0 0.0 0.0 
0.0 0.0 0.0 
0.0 0.0 0.0 
0.0 0.0 0.0 
0.0 0.0 0.0 
0.0 0.0 0.0 
0.0 0.0 0.0 
0.0 0.0 0.0 
0.0 0.0 0.0 
0.0 0.0 0.0 
0.0 0.0 0.0 
0.0 0.0 0.0 
0.0 0.0 0.0 
0.0 0.0 0.0 
0.0 0.0 0.0 
0.0 0.0 0.0 
0.0 0.0 0.0 
0.0 0.0 0.0 
0.0 0.0 0.0 
0.0 0.0 0.0 
0.0 0.0 0.0 
0.0 0.0 0.0 
0.0 0.0 0.0 
0.0 0.0 0.0 
0.0 0.0 0.0 
0.0 0.0 0.0 
0.0 0.0 0.0 
0.0 0.0 0.0 
0.0 0.0 0.0 
0.0 0.0 0.0 
0.0 0.0 0.0 
0.0 0.0 0.0 
0.0 0.0 0.0 
0.0 0.0 0.0 
0.0 0.0 0.0 
0.0 0.0 0.0 
0.0 0.0 0.0 
0.0 0.0 0.0 
0.0 0.0 0.0 
0.0 0.0 0.0 
0.0 0.0 0.0 
0.0 0.0 0.0 
0.0 0.0 0.0 
0.0 0.0 0.0 
0.0 0.0 0.0 
0.0 0.0 0.0 
0.0 0.0 0.0 
0.0 0.0 0.0 
0.0 0.0 0.0 
0.0 0.0 0.0 
0.0 0.0 0.0 
0.0 0.0 0.0 
0.0 0.0 0.0 
0.0 0.0 0.0 
0.0 0.0 0.0 
0.0 0.0 0.0 
0.0 0.0 0.0 
0.0 0.0 0.0 
0.0 0.0 0.0 
0.0 0.0 0.0 
0.0 0.0 0.0 
0.0 0.0 0.0 
0.0 0.0 0.0 
0.0 0.0 0.0 
0.0 0.0 0.0 
0.0 0.0 0.0 
0.0 0.0 0.0 
0.0 0.0 0.0 
0.0 0.0 0.0 
0.0 0.0 0.0 
0.0 0.0 0.0 
0.0 0.0 0.0 
0.0 0.0 0.0 
0.0 0.0 0.0 
0.0 0.0 0.0 
0.0 0.0 0.0 
0.0 0.0 0.0 
0.0 0.0 0.0 
0.0 0.0 0.0 
0.0 0.0 0.0 
0.0 0.0 0.0 
0.0 0.0 0.0 
0.0 0.0 0.0 
0.0 0.0 0.0 
0.0 0.0 0.0 
0.0 0.0 0.0 
0.0 0.0 0.0 
0.0 0.0 0.0 
0.0 0.0 0.0 
0.0 0.0 0.0 
0.0 0.0 0.0 
0.0 0.0 0.0 
0.0 0.0 0.0 
0.0 0.0 0.0 
0.0 0.0 0.0 
0.0 0.0 0.0 
0.0 0.0 0.0 
0.0 0.0 0.0 
0.0 0.0 0.0 
0.0 0.0 0.0 
0.0 0.0 0.0 
0.0 0.0 0.0 
0.0 0.0 0.0 
0.0 0.0 0.0 
0.0 0.0 0.0 
0.0 0.0 0.0 
0.0 0.0 0.0 
0.0 0.0 0.0 
0.0 0.0 0.0 
0.0 0.0 0.0 
0.0 0.0 0.0 
0.0 0.0 0.0 
0.0 0.0 0.0 
0.0 0.0 0.0 
0.0 0.0 0.0 
0.0 0.0 0.0 
0.0 0.0 0.0 
0.0 0.0 0.0 
0.0 0.0 0.0 
0.0 0.0 0.0 
0.0 0.0 0.0 
0.0 0.0 0.0 
0.0 0.0 0.0 
0.0 0.0 0.0 
0.0 0.0 0.0 
0.0 0.0 0.0 
0.0 0.0 0.0 
0.0 0.0 0.0 
0.0 0.0 0.0 
0.0 0.0 0.0 
0.0 0.0 0.0 
0.0 0.0 0.0 
0.0 0.0 0.0 
0.0 0.0 0.0 
0.0 0.0 0.0 
0.0 0.0 0.0 
0.0 0.0 0.0 
0.0 0.0 0.0 
0.0 0.0 0.0 
0.0 0.0 0.0 
0.0 0.0 0.0 
0.0 0.0 0.0 
0.0 0.0 0.0 
0.0 0.0 0.0 
0.0 0.0 0.0 
0.0 0.0 0.0 
0.0 0.0 0.0 
0.0 0.0 0.0 
0.0 0.0 0.0 
0.0 0.0 0.0 
0.0 0.0 0.0 
0.0 0.0 0.0 
0.0 0.0 0.0 
0.0 0.0 0.0 
0.0 0.0 0.0 
0.0 0.0 0.0 
0.0 0.0 0.0 
0.0 0.0 0.0 
0.0 0.0 0.0 
0.0 0.0 0.0 
0.0 0.0 0.0 
0.0 0.0 0.0 
0.0 0.0 0.0 
0.0 0.0 0.0 
0.0 0.0 0.0 
0.0 0.0 0.0 
0.0 0.0 0.0 
0.0 0.0 0.0 
0.0 0.0 0.0 
0.0 0.0 0.0 
0.0 0.0 0.0 
0.0 0.0 0.0 
0.0 0.0 0.0 
0.0 0.0 0.0 
0.0 0.0 0.0 
0.0 0.0 0.0 
0.0 0.0 0.0 
0.0 0.0 0.0 
0.0 0.0 0.0 
0.0 0.0 0.0 
0.0 0.0 0.0 
0.0 0.0 0.0 
0.0 0.0 0.0 
0.0 0.0 0.0 
0.0 0.0 0.0 
0.0 0.0 0.0 
0.0 0.0 0.0 
0.0 0.0 0.0 
0.0 0.0 0.0 
0.0 0.0 0.0 
0.0 0.0 0.0 
0.0 0.0 0.0 
0.0 0.0 0.0 
0.0 0.0 0.0 
0.0 0.0 0.0 
0.0 0.0 0.0 
0.0 0.0 0.0 
0.0 0.0 0.0 
0.0 0.0 0.0 
0.0 0.0 0.0 
0.0 0.0 0.0 
0.0 0.0 0.0 
0.0 0.0 0.0 
0.0 0.0 0.0 
0.0 0.0 0.0 
0.0 0.0 0.0 
0.0 0.0 0.0 
0.0 0.0 0.0 
0.0 0.0 0.0 
0.0 0.0 0.0 
0.0 0.0 0.0 
0.0 0.0 0.0 
0.0 0.0 0.0 
0.0 0.0 0.0 
0.0 0.0 0.0 
0.0 0.0 0.0 
0.0 0.0 0.0 
0.0 0.0 0.0 
0.0 0.0 0.0 
0.0 0.0 0.0 
0.0 0.0 0.0 
0.0 0.0 0.0 
0.0 0.0 0.0 
0.0 0.0 0.0 
0.0 0.0 0.0 
0.0 0.0 0.0 
0.0 0.0 0.0 
0.0 0.0 0.0 
0.0 0.0 0.0 
0.0 0.0 0.0 
0.0 0.0 0.0 
0.0 0.0 0.0 
0.0 0.0 0.0 
0.0 0.0 0.0 
0.0 0.0 0.0 
0.0 0.0 0.0 
0.0 0.0 0.0 
0.0 0.0 0.0 
0.0 0.0 0.0 
0.0 0.0 0.0 
0.0 0.0 0.0 
0.0 0.0 0.0 
0.0 0.0 0.0 
0.0 0.0 0.0 
0.0 0.0 0.0 
0.0 0.0 0.0 
0.0 0.0 0.0 
0.0 0.0 0.0 
0.0 0.0 0.0 
0.0 0.0 0.0 
0.0 0.0 0.0 
0.0 0.0 0.0 
0.0 0.0 0.0 
0.0 0.0 0.0 
0.0 0.0 0.0 
0.0 0.0 0.0 
0.0 0.0 0.0 
0.0 0.0 0.0 
0.0 0.0 0.0 
0.0 0.0 0.0 
0.0 0.0 0.0 
0.0 0.0 0.0 
0.0 0.0 0.0 
0.0 0.0 0.0 
0.0 0.0 0.0 
0.0 0.0 0.0 
0.0 0.0 0.0 
0.0 0.0 0.0 
0.0 0.0 0.0 
0.0 0.0 0.0 
0.0 0.0 0.0 
0.0 0.0 0.0 
0.0 0.0 0.0 
0.0 0.0 0.0 
0.0 0.0 0.0 
0.0 0.0 0.0 
0.0 0.0 0.0 
0.0 0.0 0.0 
0.0 0.0 0.0 
0.0 0.0 0.0 
0.0 0.0 0.0 
0.0 0.0 0.0 
0.0 0.0 0.0 
0.0 0.0 0.0 
0.0 0.0 0.0 
0.0 0.0 0.0 
0.0 0.0 0.0 
0.0 0.0 0.0 
0.0 0.0 0.0 
0.0 0.0 0.0 
0.0 0.0 0.0 
0.0 0.0 0.0 
0.0 0.0 0.0 
0.0 0.0 0.0 
0.0 0.0 0.0 
0.0 0.0 0.0 
0.0 0.0 0.0 
0.0 0.0 0.0 
0.0 0.0 0.0 
0.0 0.0 0.0 
0.0 0.0 0.0 
0.0 0.0 0.0 
0.0 0.0 0.0 
0.0 0.0 0.0 
0.0 0.0 0.0 
0.0 0.0 0.0 
0.0 0.0 0.0 
0.0 0.0 0.0 
0.0 0.0 0.0 
0.0 0.0 0.0 
0.0 0.0 0.0 
0.0 0.0 0.0 
0.0 0.0 0.0 
0.0 0.0 0.0 
0.0 0.0 0.0 
0.0 0.0 0.0 
0.0 0.0 0.0 
0.0 0.0 0.0 
0.0 0.0 0.0 
0.0 0.0 0.0 
0.0 0.0 0.0 
0.0 0.0 0.0 
0.0 0.0 0.0 
0.0 0.0 0.0 
0.0 0.0 0.0 
0.0 0.0 0.0 
0.0 0.0 0.0 
0.0 0.0 0.0 
0.0 0.0 0.0 
0.0 0.0 0.0 
0.0 0.0 0.0 
0.0 0.0 0.0 
0.0 0.0 0.0 
0.0 0.0 0.0 
0.0 0.0 0.0 
0.0 0.0 0.0 
0.0 0.0 0.0 
0.0 0.0 0.0 
0.0 0.0 0.0 
0.0 0.0 0.0 
0.0 0.0 0.0 
0.0 0.0 0.0 
0.0 0.0 0.0 
0.0 0.0 0.0 
0.0 0.0 0.0 
0.0 0.0 0.0 
0.0 0.0 0.0 
0.0 0.0 0.0 
0.0 0.0 0.0 
0.0 0.0 0.0 
0.0 0.0 0.0 
0.0 0.0 0.0 
0.0 0.0 0.0 
0.0 0.0 0.0 
0.0 0.0 0.0 
0.0 0.0 0.0 
0.0 0.0 0.0 
0.0 0.0 0.0 
0.0 0.0 0.0 
0.0 0.0 0.0 
0.0 0.0 0.0 
0.0 0.0 0.0 
0.0 0.0 0.0 
0.0 0.0 0.0 
0.0 0.0 0.0 
0.0 0.0 0.0 
0.0 0.0 0.0 
0.0 0.0 0.0 
0.0 0.0 0.0 
0.0 0.0 0.0 
0.0 0.0 0.0 
0.0 0.0 0.0 
0.0 0.0 0.0 
0.0 0.0 0.0 
0.0 0.0 0.0 
0.0 0.0 0.0 
0.0 0.0 0.0 
0.0 0.0 0.0 
0.0 0.0 0.0 
0.0 0.0 0.0 
0.0 0.0 0.0 
0.0 0.0 0.0 
0.0 0.0 0.0 
0.0 0.0 0.0 
0.0 0.0 0.0 
0.0 0.0 0.0 
0.0 0.0 0.0 
0.0 0.0 0.0 
0.0 0.0 0.0 
0.0 0.0 0.0 
0.0 0.0 0.0 
0.0 0.0 0.0 
0.0 0.0 0.0 
0.0 0.0 0.0 
0.0 0.0 0.0 
0.0 0.0 0.0 
0.0 0.0 0.0 
0.0 0.0 0.0 
0.0 0.0 0.0 
0.0 0.0 0.0 
0.0 0.0 0.0 
0.0 0.0 0.0 
0.0 0.0 0.0 
0.0 0.0 0.0 
0.0 0.0 0.0 
0.0 0.0 0.0 
0.0 0.0 0.0 
0.0 0.0 0.0 
0.0 0.0 0.0 
0.0 0.0 0.0 
0.0 0.0 0.0 
0.0 0.0 0.0 
0.0 0.0 0.0 
0.0 0.0 0.0 
0.0 0.0 0.0 
0.0 0.0 0.0 
0.0 0.0 0.0 
0.0 0.0 0.0 
0.0 0.0 0.0 
0.0 0.0 0.0 
0.0 0.0 0.0 
0.0 0.0 0.0 
0.0 0.0 0.0 
0.0 0.0 0.0 
0.0 0.0 0.0 
0.0 0.0 0.0 
0.0 0.0 0.0 
0.0 0.0 0.0 
0.0 0.0 0.0 
0.0 0.0 0.0 
0.0 0.0 0.0 
0.0 0.0 0.0 
0.0 0.0 0.0 
0.0 0.0 0.0 
0.0 0.0 0.0 
0.0 0.0 0.0 
0.0 0.0 0.0 
0.0 0.0 0.0 
0.0 0.0 0.0 
0.0 0.0 0.0 
0.0 0.0 0.0 
0.0 0.0 0.0 
0.0 0.0 0.0 
0.0 0.0 0.0 
0.0 0.0 0.0 
0.0 0.0 0.0 
0.0 0.0 0.0 
0.0 0.0 0.0 
0.0 0.0 0.0 
0.0 0.0 0.0 
0.0 0.0 0.0 
0.0 0.0 0.0 
0.0 0.0 0.0 
0.0 0.0 0.0 
0.0 0.0 0.0 
0.0 0.0 0.0 
0.0 0.0 0.0 
0.0 0.0 0.0 
0.0 0.0 0.0 
0.0 0.0 0.0 
0.0 0.0 0.0 
0.0 0.0 0.0 
0.0 0.0 0.0 
0.0 0.0 0.0 
0.0 0.0 0.0 
0.0 0.0 0.0 
0.0 0.0 0.0 
0.0 0.0 0.0 
0.0 0.0 0.0 
0.0 0.0 0.0 
0.0 0.0 0.0 
0.0 0.0 0.0 
0.0 0.0 0.0 
0.0 0.0 0.0 
0.0 0.0 0.0 
0.0 0.0 0.0 
0.0 0.0 0.0 
0.0 0.0 0.0 
0.0 0.0 0.0 
0.0 0.0 0.0 
0.0 0.0 0.0 
0.0 0.0 0.0 
0.0 0.0 0.0 
0.0 0.0 0.0 
0.0 0.0 0.0 
0.0 0.0 0.0 
0.0 0.0 0.0 
0.0 0.0 0.0 
0.0 0.0 0.0 
0.0 0.0 0.0 
0.0 0.0 0.0 
0.0 0.0 0.0 
0.0 0.0 0.0 
0.0 0.0 0.0 
0.0 0.0 0.0 
0.0 0.0 0.0 
0.0 0.0 0.0 
0.0 0.0 0.0 
0.0 0.0 0.0 
0.0 0.0 0.0 
0.0 0.0 0.0 
0.0 0.0 0.0 
0.0 0.0 0.0 
0.0 0.0 0.0 
0.0 0.0 0.0 
0.0 0.0 0.0 
0.0 0.0 0.0 
0.0 0.0 0.0 
0.0 0.0 0.0 
0.0 0.0 0.0 
0.0 0.0 0.0 
0.0 0.0 0.0 
0.0 0.0 0.0 
0.0 0.0 0.0 
0.0 0.0 0.0 
0.0 0.0 0.0 
0.0 0.0 0.0 
0.0 0.0 0.0 
0.0 0.0 0.0 
0.0 0.0 0.0 
0.0 0.0 0.0 
0.0 0.0 0.0 
0.0 0.0 0.0 
0.0 0.0 0.0 
0.0 0.0 0.0 
0.0 0.0 0.0 
0.0 0.0 0.0 
0.0 0.0 0.0 
0.0 0.0 0.0 
0.0 0.0 0.0 
0.0 0.0 0.0 
0.0 0.0 0.0 
0.0 0.0 0.0 
0.0 0.0 0.0 
0.0 0.0 0.0 
0.0 0.0 0.0 
0.0 0.0 0.0 
0.0 0.0 0.0 
0.0 0.0 0.0 
0.0 0.0 0.0 
0.0 0.0 0.0 
0.0 0.0 0.0 
0.0 0.0 0.0 
0.0 0.0 0.0 
0.0 0.0 0.0 
0.0 0.0 0.0 
0.0 0.0 0.0 
0.0 0.0 0.0 
0.0 0.0 0.0 
0.0 0.0 0.0 

VECTORS node_bounda_dof_materi_velocity_y float
0.0 0.0 0.0 
0.0 0.0 0.0 
0.0 1.000000000000e+00 0.0 
0.0 1.000000000000e+00 0.0 
0.0 0.0 0.0 
0.0 0.0 0.0 
0.0 0.0 0.0 
0.0 0.0 0.0 
0.0 0.0 0.0 
0.0 0.0 0.0 
0.0 0.0 0.0 
0.0 0.0 0.0 
0.0 0.0 0.0 
0.0 0.0 0.0 
0.0 0.0 0.0 
0.0 0.0 0.0 
0.0 0.0 0.0 
0.0 0.0 0.0 
0.0 0.0 0.0 
0.0 0.0 0.0 
0.0 0.0 0.0 
0.0 0.0 0.0 
0.0 0.0 0.0 
0.0 1.000000000000e+00 0.0 
0.0 1.000000000000e+00 0.0 
0.0 1.000000000000e+00 0.0 
0.0 1.000000000000e+00 0.0 
0.0 1.000000000000e+00 0.0 
0.0 1.000000000000e+00 0.0 
0.0 1.000000000000e+00 0.0 
0.0 1.000000000000e+00 0.0 
0.0 1.000000000000e+00 0.0 
0.0 1.000000000000e+00 0.0 
0.0 1.000000000000e+00 0.0 
0.0 1.000000000000e+00 0.0 
0.0 1.000000000000e+00 0.0 
0.0 1.000000000000e+00 0.0 
0.0 1.000000000000e+00 0.0 
0.0 1.000000000000e+00 0.0 
0.0 1.000000000000e+00 0.0 
0.0 1.000000000000e+00 0.0 
0.0 1.000000000000e+00 0.0 
0.0 1.000000000000e+00 0.0 
0.0 1.000000000000e+00 0.0 
0.0 1.000000000000e+00 0.0 
0.0 1.000000000000e+00 0.0 
0.0 1.000000000000e+00 0.0 
0.0 1.000000000000e+00 0.0 
0.0 1.000000000000e+00 0.0 
0.0 1.000000000000e+00 0.0 
0.0 1.000000000000e+00 0.0 
0.0 1.000000000000e+00 0.0 
0.0 1.000000000000e+00 0.0 
0.0 1.000000000000e+00 0.0 
0.0 1.000000000000e+00 0.0 
0.0 1.000000000000e+00 0.0 
0.0 1.000000000000e+00 0.0 
0.0 1.000000000000e+00 0.0 
0.0 1.000000000000e+00 0.0 
0.0 1.000000000000e+00 0.0 
0.0 1.000000000000e+00 0.0 
0.0 1.000000000000e+00 0.0 
0.0 1.000000000000e+00 0.0 
0.0 1.000000000000e+00 0.0 
0.0 1.000000000000e+00 0.0 
0.0 1.000000000000e+00 0.0 
0.0 1.000000000000e+00 0.0 
0.0 1.000000000000e+00 0.0 
0.0 1.000000000000e+00 0.0 
0.0 1.000000000000e+00 0.0 
0.0 1.000000000000e+00 0.0 
0.0 1.000000000000e+00 0.0 
0.0 0.0 0.0 
0.0 0.0 0.0 
0.0 0.0 0.0 
0.0 0.0 0.0 
0.0 0.0 0.0 
0.0 0.0 0.0 
0.0 0.0 0.0 
0.0 0.0 0.0 
0.0 0.0 0.0 
0.0 0.0 0.0 
0.0 0.0 0.0 
0.0 0.0 0.0 
0.0 0.0 0.0 
0.0 0.0 0.0 
0.0 0.0 0.0 
0.0 0.0 0.0 
0.0 0.0 0.0 
0.0 0.0 0.0 
0.0 0.0 0.0 
0.0 0.0 0.0 
0.0 0.0 0.0 
0.0 0.0 0.0 
0.0 0.0 0.0 
0.0 0.0 0.0 
0.0 0.0 0.0 
0.0 0.0 0.0 
0.0 0.0 0.0 
0.0 0.0 0.0 
0.0 0.0 0.0 
0.0 0.0 0.0 
0.0 0.0 0.0 
0.0 0.0 0.0 
0.0 0.0 0.0 
0.0 0.0 0.0 
0.0 0.0 0.0 
0.0 0.0 0.0 
0.0 0.0 0.0 
0.0 0.0 0.0 
0.0 0.0 0.0 
0.0 0.0 0.0 
0.0 0.0 0.0 
0.0 0.0 0.0 
0.0 0.0 0.0 
0.0 0.0 0.0 
0.0 0.0 0.0 
0.0 0.0 0.0 
0.0 0.0 0.0 
0.0 0.0 0.0 
0.0 0.0 0.0 
0.0 0.0 0.0 
0.0 0.0 0.0 
0.0 0.0 0.0 
0.0 0.0 0.0 
0.0 0.0 0.0 
0.0 0.0 0.0 
0.0 0.0 0.0 
0.0 0.0 0.0 
0.0 0.0 0.0 
0.0 0.0 0.0 
0.0 0.0 0.0 
0.0 0.0 0.0 
0.0 0.0 0.0 
0.0 0.0 0.0 
0.0 0.0 0.0 
0.0 0.0 0.0 
0.0 0.0 0.0 
0.0 0.0 0.0 
0.0 0.0 0.0 
0.0 0.0 0.0 
0.0 0.0 0.0 
0.0 0.0 0.0 
0.0 0.0 0.0 
0.0 0.0 0.0 
0.0 0.0 0.0 
0.0 0.0 0.0 
0.0 0.0 0.0 
0.0 0.0 0.0 
0.0 0.0 0.0 
0.0 0.0 0.0 
0.0 0.0 0.0 
0.0 0.0 0.0 
0.0 0.0 0.0 
0.0 0.0 0.0 
0.0 0.0 0.0 
0.0 0.0 0.0 
0.0 0.0 0.0 
0.0 0.0 0.0 
0.0 0.0 0.0 
0.0 0.0 0.0 
0.0 0.0 0.0 
0.0 0.0 0.0 
0.0 0.0 0.0 
0.0 0.0 0.0 
0.0 0.0 0.0 
0.0 0.0 0.0 
0.0 0.0 0.0 
0.0 0.0 0.0 
0.0 0.0 0.0 
0.0 0.0 0.0 
0.0 0.0 0.0 
0.0 0.0 0.0 
0.0 0.0 0.0 
0.0 0.0 0.0 
0.0 0.0 0.0 
0.0 0.0 0.0 
0.0 0.0 0.0 
0.0 0.0 0.0 
0.0 0.0 0.0 
0.0 0.0 0.0 
0.0 0.0 0.0 
0.0 0.0 0.0 
0.0 0.0 0.0 
0.0 0.0 0.0 
0.0 0.0 0.0 
0.0 0.0 0.0 
0.0 0.0 0.0 
0.0 0.0 0.0 
0.0 0.0 0.0 
0.0 0.0 0.0 
0.0 0.0 0.0 
0.0 0.0 0.0 
0.0 0.0 0.0 
0.0 0.0 0.0 
0.0 0.0 0.0 
0.0 0.0 0.0 
0.0 0.0 0.0 
0.0 0.0 0.0 
0.0 0.0 0.0 
0.0 0.0 0.0 
0.0 0.0 0.0 
0.0 0.0 0.0 
0.0 0.0 0.0 
0.0 0.0 0.0 
0.0 0.0 0.0 
0.0 0.0 0.0 
0.0 0.0 0.0 
0.0 0.0 0.0 
0.0 0.0 0.0 
0.0 0.0 0.0 
0.0 0.0 0.0 
0.0 0.0 0.0 
0.0 0.0 0.0 
0.0 0.0 0.0 
0.0 0.0 0.0 
0.0 0.0 0.0 
0.0 0.0 0.0 
0.0 0.0 0.0 
0.0 0.0 0.0 
0.0 0.0 0.0 
0.0 0.0 0.0 
0.0 0.0 0.0 
0.0 0.0 0.0 
0.0 0.0 0.0 
0.0 0.0 0.0 
0.0 0.0 0.0 
0.0 0.0 0.0 
0.0 0.0 0.0 
0.0 0.0 0.0 
0.0 0.0 0.0 
0.0 0.0 0.0 
0.0 0.0 0.0 
0.0 0.0 0.0 
0.0 0.0 0.0 
0.0 0.0 0.0 
0.0 0.0 0.0 
0.0 0.0 0.0 
0.0 0.0 0.0 
0.0 0.0 0.0 
0.0 0.0 0.0 
0.0 0.0 0.0 
0.0 0.0 0.0 
0.0 0.0 0.0 
0.0 0.0 0.0 
0.0 0.0 0.0 
0.0 0.0 0.0 
0.0 0.0 0.0 
0.0 0.0 0.0 
0.0 0.0 0.0 
0.0 0.0 0.0 
0.0 0.0 0.0 
0.0 0.0 0.0 
0.0 0.0 0.0 
0.0 0.0 0.0 
0.0 0.0 0.0 
0.0 0.0 0.0 
0.0 0.0 0.0 
0.0 0.0 0.0 
0.0 0.0 0.0 
0.0 0.0 0.0 
0.0 0.0 0.0 
0.0 0.0 0.0 
0.0 0.0 0.0 
0.0 0.0 0.0 
0.0 0.0 0.0 
0.0 0.0 0.0 
0.0 0.0 0.0 
0.0 0.0 0.0 
0.0 0.0 0.0 
0.0 0.0 0.0 
0.0 0.0 0.0 
0.0 0.0 0.0 
0.0 0.0 0.0 
0.0 0.0 0.0 
0.0 0.0 0.0 
0.0 0.0 0.0 
0.0 0.0 0.0 
0.0 0.0 0.0 
0.0 0.0 0.0 
0.0 0.0 0.0 
0.0 0.0 0.0 
0.0 0.0 0.0 
0.0 0.0 0.0 
0.0 0.0 0.0 
0.0 0.0 0.0 
0.0 0.0 0.0 
0.0 0.0 0.0 
0.0 0.0 0.0 
0.0 0.0 0.0 
0.0 0.0 0.0 
0.0 0.0 0.0 
0.0 0.0 0.0 
0.0 0.0 0.0 
0.0 0.0 0.0 
0.0 0.0 0.0 
0.0 0.0 0.0 
0.0 0.0 0.0 
0.0 0.0 0.0 
0.0 0.0 0.0 
0.0 0.0 0.0 
0.0 0.0 0.0 
0.0 0.0 0.0 
0.0 0.0 0.0 
0.0 0.0 0.0 
0.0 0.0 0.0 
0.0 0.0 0.0 
0.0 0.0 0.0 
0.0 0.0 0.0 
0.0 0.0 0.0 
0.0 0.0 0.0 
0.0 0.0 0.0 
0.0 0.0 0.0 
0.0 0.0 0.0 
0.0 0.0 0.0 
0.0 0.0 0.0 
0.0 0.0 0.0 
0.0 0.0 0.0 
0.0 0.0 0.0 
0.0 0.0 0.0 
0.0 0.0 0.0 
0.0 0.0 0.0 
0.0 0.0 0.0 
0.0 0.0 0.0 
0.0 0.0 0.0 
0.0 0.0 0.0 
0.0 0.0 0.0 
0.0 0.0 0.0 
0.0 0.0 0.0 
0.0 0.0 0.0 
0.0 0.0 0.0 
0.0 0.0 0.0 
0.0 0.0 0.0 
0.0 0.0 0.0 
0.0 0.0 0.0 
0.0 0.0 0.0 
0.0 0.0 0.0 
0.0 0.0 0.0 
0.0 0.0 0.0 
0.0 0.0 0.0 
0.0 0.0 0.0 
0.0 0.0 0.0 
0.0 0.0 0.0 
0.0 0.0 0.0 
0.0 0.0 0.0 
0.0 0.0 0.0 
0.0 0.0 0.0 
0.0 0.0 0.0 
0.0 0.0 0.0 
0.0 0.0 0.0 
0.0 0.0 0.0 
0.0 0.0 0.0 
0.0 0.0 0.0 
0.0 0.0 0.0 
0.0 0.0 0.0 
0.0 0.0 0.0 
0.0 0.0 0.0 
0.0 0.0 0.0 
0.0 0.0 0.0 
0.0 0.0 0.0 
0.0 0.0 0.0 
0.0 0.0 0.0 
0.0 0.0 0.0 
0.0 0.0 0.0 
0.0 0.0 0.0 
0.0 0.0 0.0 
0.0 0.0 0.0 
0.0 0.0 0.0 
0.0 0.0 0.0 
0.0 0.0 0.0 
0.0 0.0 0.0 
0.0 0.0 0.0 
0.0 0.0 0.0 
0.0 0.0 0.0 
0.0 0.0 0.0 
0.0 0.0 0.0 
0.0 0.0 0.0 
0.0 0.0 0.0 
0.0 0.0 0.0 
0.0 0.0 0.0 
0.0 0.0 0.0 
0.0 0.0 0.0 
0.0 0.0 0.0 
0.0 0.0 0.0 
0.0 0.0 0.0 
0.0 0.0 0.0 
0.0 0.0 0.0 
0.0 0.0 0.0 
0.0 0.0 0.0 
0.0 0.0 0.0 
0.0 0.0 0.0 
0.0 0.0 0.0 
0.0 0.0 0.0 
0.0 0.0 0.0 
0.0 0.0 0.0 
0.0 0.0 0.0 
0.0 0.0 0.0 
0.0 0.0 0.0 
0.0 0.0 0.0 
0.0 0.0 0.0 
0.0 0.0 0.0 
0.0 0.0 0.0 
0.0 0.0 0.0 
0.0 0.0 0.0 
0.0 0.0 0.0 
0.0 0.0 0.0 
0.0 0.0 0.0 
0.0 0.0 0.0 
0.0 0.0 0.0 
0.0 0.0 0.0 
0.0 0.0 0.0 
0.0 0.0 0.0 
0.0 0.0 0.0 
0.0 0.0 0.0 
0.0 0.0 0.0 
0.0 0.0 0.0 
0.0 0.0 0.0 
0.0 0.0 0.0 
0.0 0.0 0.0 
0.0 0.0 0.0 
0.0 0.0 0.0 
0.0 0.0 0.0 
0.0 0.0 0.0 
0.0 0.0 0.0 
0.0 0.0 0.0 
0.0 0.0 0.0 
0.0 0.0 0.0 
0.0 0.0 0.0 
0.0 0.0 0.0 
0.0 0.0 0.0 
0.0 0.0 0.0 
0.0 0.0 0.0 
0.0 0.0 0.0 
0.0 0.0 0.0 
0.0 0.0 0.0 
0.0 0.0 0.0 
0.0 0.0 0.0 
0.0 0.0 0.0 
0.0 0.0 0.0 
0.0 0.0 0.0 
0.0 0.0 0.0 
0.0 0.0 0.0 
0.0 0.0 0.0 
0.0 0.0 0.0 
0.0 0.0 0.0 
0.0 0.0 0.0 
0.0 0.0 0.0 
0.0 0.0 0.0 
0.0 0.0 0.0 
0.0 0.0 0.0 
0.0 0.0 0.0 
0.0 0.0 0.0 
0.0 0.0 0.0 
0.0 0.0 0.0 
0.0 0.0 0.0 
0.0 0.0 0.0 
0.0 0.0 0.0 
0.0 0.0 0.0 
0.0 0.0 0.0 
0.0 0.0 0.0 
0.0 0.0 0.0 
0.0 0.0 0.0 
0.0 0.0 0.0 
0.0 0.0 0.0 
0.0 0.0 0.0 
0.0 0.0 0.0 
0.0 0.0 0.0 
0.0 0.0 0.0 
0.0 0.0 0.0 
0.0 0.0 0.0 
0.0 0.0 0.0 
0.0 0.0 0.0 
0.0 0.0 0.0 
0.0 0.0 0.0 
0.0 0.0 0.0 
0.0 0.0 0.0 
0.0 0.0 0.0 
0.0 0.0 0.0 
0.0 0.0 0.0 
0.0 0.0 0.0 
0.0 0.0 0.0 
0.0 0.0 0.0 
0.0 0.0 0.0 
0.0 0.0 0.0 
0.0 0.0 0.0 
0.0 0.0 0.0 
0.0 0.0 0.0 
0.0 0.0 0.0 
0.0 0.0 0.0 
0.0 0.0 0.0 
0.0 0.0 0.0 
0.0 0.0 0.0 
0.0 0.0 0.0 
0.0 0.0 0.0 
0.0 0.0 0.0 
0.0 0.0 0.0 
0.0 0.0 0.0 
0.0 0.0 0.0 
0.0 0.0 0.0 
0.0 0.0 0.0 
0.0 0.0 0.0 
0.0 0.0 0.0 
0.0 0.0 0.0 
0.0 0.0 0.0 
0.0 0.0 0.0 
0.0 0.0 0.0 
0.0 0.0 0.0 
0.0 0.0 0.0 
0.0 0.0 0.0 
0.0 0.0 0.0 
0.0 0.0 0.0 
0.0 0.0 0.0 
0.0 0.0 0.0 
0.0 0.0 0.0 
0.0 0.0 0.0 
0.0 0.0 0.0 
0.0 0.0 0.0 
0.0 0.0 0.0 
0.0 0.0 0.0 
0.0 0.0 0.0 
0.0 0.0 0.0 
0.0 0.0 0.0 
0.0 0.0 0.0 
0.0 0.0 0.0 
0.0 0.0 0.0 
0.0 0.0 0.0 
0.0 0.0 0.0 
0.0 0.0 0.0 
0.0 0.0 0.0 
0.0 0.0 0.0 
0.0 0.0 0.0 
0.0 0.0 0.0 
0.0 0.0 0.0 
0.0 0.0 0.0 
0.0 0.0 0.0 
0.0 0.0 0.0 
0.0 0.0 0.0 
0.0 0.0 0.0 
0.0 0.0 0.0 
0.0 0.0 0.0 
0.0 0.0 0.0 
0.0 0.0 0.0 
0.0 0.0 0.0 
0.0 0.0 0.0 
0.0 0.0 0.0 
0.0 0.0 0.0 
0.0 0.0 0.0 
0.0 0.0 0.0 
0.0 0.0 0.0 
0.0 0.0 0.0 
0.0 0.0 0.0 
0.0 0.0 0.0 
0.0 0.0 0.0 
0.0 0.0 0.0 
0.0 0.0 0.0 
0.0 0.0 0.0 
0.0 0.0 0.0 
0.0 0.0 0.0 
0.0 0.0 0.0 
0.0 0.0 0.0 
0.0 0.0 0.0 
0.0 0.0 0.0 
0.0 0.0 0.0 
0.0 0.0 0.0 
0.0 0.0 0.0 
0.0 0.0 0.0 
0.0 0.0 0.0 
0.0 0.0 0.0 
0.0 0.0 0.0 
0.0 0.0 0.0 
0.0 0.0 0.0 
0.0 0.0 0.0 
0.0 0.0 0.0 
0.0 0.0 0.0 
0.0 0.0 0.0 
0.0 0.0 0.0 
0.0 0.0 0.0 
0.0 0.0 0.0 
0.0 0.0 0.0 
0.0 0.0 0.0 
0.0 0.0 0.0 
0.0 0.0 0.0 
0.0 0.0 0.0 
0.0 0.0 0.0 
0.0 0.0 0.0 
0.0 0.0 0.0 
0.0 0.0 0.0 
0.0 0.0 0.0 
0.0 0.0 0.0 
0.0 0.0 0.0 
0.0 0.0 0.0 
0.0 0.0 0.0 
0.0 0.0 0.0 
0.0 0.0 0.0 
0.0 0.0 0.0 
0.0 0.0 0.0 
0.0 0.0 0.0 
0.0 0.0 0.0 
0.0 0.0 0.0 
0.0 0.0 0.0 
0.0 0.0 0.0 
0.0 0.0 0.0 
0.0 0.0 0.0 
0.0 0.0 0.0 
0.0 0.0 0.0 
0.0 0.0 0.0 
0.0 0.0 0.0 
0.0 0.0 0.0 
0.0 0.0 0.0 
0.0 0.0 0.0 
0.0 0.0 0.0 
0.0 0.0 0.0 
0.0 0.0 0.0 
0.0 0.0 0.0 
0.0 0.0 0.0 
0.0 0.0 0.0 
0.0 0.0 0.0 
0.0 0.0 0.0 
0.0 0.0 0.0 
0.0 0.0 0.0 
0.0 0.0 0.0 
0.0 0.0 0.0 
0.0 0.0 0.0 
0.0 0.0 0.0 
0.0 0.0 0.0 
0.0 0.0 0.0 
0.0 0.0 0.0 
0.0 0.0 0.0 
0.0 0.0 0.0 
0.0 0.0 0.0 
0.0 0.0 0.0 
0.0 0.0 0.0 
0.0 0.0 0.0 
0.0 0.0 0.0 
0.0 0.0 0.0 
0.0 0.0 0.0 
0.0 0.0 0.0 
0.0 0.0 0.0 
0.0 0.0 0.0 
0.0 0.0 0.0 
0.0 0.0 0.0 
0.0 0.0 0.0 
0.0 0.0 0.0 
0.0 0.0 0.0 
0.0 0.0 0.0 
0.0 0.0 0.0 
0.0 0.0 0.0 
0.0 0.0 0.0 
0.0 0.0 0.0 
0.0 0.0 0.0 
0.0 0.0 0.0 
0.0 0.0 0.0 
0.0 0.0 0.0 
0.0 0.0 0.0 
0.0 0.0 0.0 
0.0 0.0 0.0 
0.0 0.0 0.0 
0.0 0.0 0.0 
0.0 0.0 0.0 
0.0 0.0 0.0 
0.0 0.0 0.0 
0.0 0.0 0.0 
0.0 0.0 0.0 
0.0 0.0 0.0 
0.0 0.0 0.0 
0.0 0.0 0.0 
0.0 0.0 0.0 
0.0 0.0 0.0 
0.0 0.0 0.0 
0.0 0.0 0.0 
0.0 0.0 0.0 
0.0 0.0 0.0 
0.0 0.0 0.0 
0.0 0.0 0.0 
0.0 0.0 0.0 
0.0 0.0 0.0 
0.0 0.0 0.0 
0.0 0.0 0.0 
0.0 0.0 0.0 
0.0 0.0 0.0 
0.0 0.0 0.0 
0.0 0.0 0.0 
0.0 0.0 0.0 
0.0 0.0 0.0 
0.0 0.0 0.0 
0.0 0.0 0.0 
0.0 0.0 0.0 
0.0 0.0 0.0 
0.0 0.0 0.0 
0.0 0.0 0.0 
0.0 0.0 0.0 
0.0 0.0 0.0 
0.0 0.0 0.0 
0.0 0.0 0.0 
0.0 0.0 0.0 
0.0 0.0 0.0 
0.0 0.0 0.0 
0.0 0.0 0.0 
0.0 0.0 0.0 
0.0 0.0 0.0 
0.0 0.0 0.0 
0.0 0.0 0.0 
0.0 0.0 0.0 
0.0 0.0 0.0 
0.0 0.0 0.0 
0.0 0.0 0.0 
0.0 0.0 0.0 
0.0 0.0 0.0 
0.0 0.0 0.0 
0.0 0.0 0.0 
0.0 0.0 0.0 
0.0 0.0 0.0 
0.0 0.0 0.0 
0.0 0.0 0.0 
0.0 0.0 0.0 
0.0 0.0 0.0 
0.0 0.0 0.0 
0.0 0.0 0.0 
0.0 0.0 0.0 
0.0 0.0 0.0 
0.0 0.0 0.0 
0.0 0.0 0.0 
0.0 0.0 0.0 
0.0 0.0 0.0 
0.0 0.0 0.0 
0.0 0.0 0.0 
0.0 0.0 0.0 
0.0 0.0 0.0 
0.0 0.0 0.0 
0.0 0.0 0.0 
0.0 0.0 0.0 
0.0 0.0 0.0 
0.0 0.0 0.0 
0.0 0.0 0.0 
0.0 0.0 0.0 
0.0 0.0 0.0 
0.0 0.0 0.0 
0.0 0.0 0.0 
0.0 0.0 0.0 
0.0 0.0 0.0 
0.0 0.0 0.0 
0.0 0.0 0.0 
0.0 0.0 0.0 
0.0 0.0 0.0 
0.0 0.0 0.0 
0.0 0.0 0.0 
0.0 0.0 0.0 
0.0 0.0 0.0 
0.0 0.0 0.0 
0.0 0.0 0.0 
0.0 0.0 0.0 
0.0 0.0 0.0 
0.0 0.0 0.0 
0.0 0.0 0.0 
0.0 0.0 0.0 
0.0 0.0 0.0 
0.0 0.0 0.0 
0.0 0.0 0.0 
0.0 0.0 0.0 
0.0 0.0 0.0 
0.0 0.0 0.0 
0.0 0.0 0.0 
0.0 0.0 0.0 
0.0 0.0 0.0 
0.0 0.0 0.0 
0.0 0.0 0.0 
0.0 0.0 0.0 
0.0 0.0 0.0 
0.0 0.0 0.0 
0.0 0.0 0.0 
0.0 0.0 0.0 
0.0 0.0 0.0 
0.0 0.0 0.0 
0.0 0.0 0.0 
0.0 0.0 0.0 
0.0 0.0 0.0 
0.0 0.0 0.0 
0.0 0.0 0.0 
0.0 0.0 0.0 
0.0 0.0 0.0 
0.0 0.0 0.0 
0.0 0.0 0.0 
0.0 0.0 0.0 
0.0 0.0 0.0 
0.0 0.0 0.0 
0.0 0.0 0.0 
0.0 0.0 0.0 
0.0 0.0 0.0 
0.0 0.0 0.0 
0.0 0.0 0.0 
0.0 0.0 0.0 
0.0 0.0 0.0 
0.0 0.0 0.0 
0.0 0.0 0.0 
0.0 0.0 0.0 
0.0 0.0 0.0 
0.0 0.0 0.0 
0.0 0.0 0.0 
0.0 0.0 0.0 
0.0 0.0 0.0 
0.0 0.0 0.0 
0.0 0.0 0.0 
0.0 0.0 0.0 
0.0 0.0 0.0 
0.0 0.0 0.0 
0.0 0.0 0.0 
0.0 0.0 0.0 
0.0 0.0 0.0 
0.0 0.0 0.0 
0.0 0.0 0.0 
0.0 0.0 0.0 
0.0 0.0 0.0 
0.0 0.0 0.0 
0.0 0.0 0.0 
0.0 0.0 0.0 
0.0 0.0 0.0 
0.0 0.0 0.0 
0.0 0.0 0.0 
0.0 0.0 0.0 
0.0 0.0 0.0 
0.0 0.0 0.0 
0.0 0.0 0.0 
0.0 0.0 0.0 
0.0 0.0 0.0 
0.0 0.0 0.0 
0.0 0.0 0.0 
0.0 0.0 0.0 
0.0 0.0 0.0 
0.0 0.0 0.0 
0.0 0.0 0.0 
0.0 0.0 0.0 
0.0 0.0 0.0 
0.0 0.0 0.0 
0.0 0.0 0.0 
0.0 0.0 0.0 
0.0 0.0 0.0 
0.0 0.0 0.0 
0.0 0.0 0.0 
0.0 0.0 0.0 
0.0 0.0 0.0 
0.0 0.0 0.0 
0.0 0.0 0.0 
0.0 0.0 0.0 
0.0 0.0 0.0 
0.0 0.0 0.0 
0.0 0.0 0.0 
0.0 0.0 0.0 
0.0 0.0 0.0 
0.0 0.0 0.0 
0.0 0.0 0.0 
0.0 0.0 0.0 
0.0 0.0 0.0 
0.0 0.0 0.0 
0.0 0.0 0.0 
0.0 0.0 0.0 
0.0 0.0 0.0 
0.0 0.0 0.0 
0.0 0.0 0.0 
0.0 0.0 0.0 
0.0 0.0 0.0 
0.0 0.0 0.0 
0.0 0.0 0.0 
0.0 0.0 0.0 
0.0 0.0 0.0 
0.0 0.0 0.0 
0.0 0.0 0.0 
0.0 0.0 0.0 
0.0 0.0 0.0 
0.0 0.0 0.0 
0.0 0.0 0.0 
0.0 0.0 0.0 
0.0 0.0 0.0 
0.0 0.0 0.0 
0.0 0.0 0.0 
0.0 0.0 0.0 
0.0 0.0 0.0 
0.0 0.0 0.0 
0.0 0.0 0.0 
0.0 0.0 0.0 
0.0 0.0 0.0 
0.0 0.0 0.0 
0.0 0.0 0.0 
0.0 0.0 0.0 
0.0 0.0 0.0 
0.0 0.0 0.0 
0.0 0.0 0.0 
0.0 0.0 0.0 
0.0 0.0 0.0 
0.0 0.0 0.0 
0.0 0.0 0.0 
0.0 0.0 0.0 
0.0 0.0 0.0 
0.0 0.0 0.0 
0.0 0.0 0.0 
0.0 0.0 0.0 
0.0 0.0 0.0 
0.0 0.0 0.0 
0.0 0.0 0.0 
0.0 0.0 0.0 
0.0 0.0 0.0 
0.0 0.0 0.0 
0.0 0.0 0.0 
0.0 0.0 0.0 
0.0 0.0 0.0 
0.0 0.0 0.0 
0.0 0.0 0.0 
0.0 0.0 0.0 
0.0 0.0 0.0 
0.0 0.0 0.0 
0.0 0.0 0.0 
0.0 0.0 0.0 
0.0 0.0 0.0 
0.0 0.0 0.0 
0.0 0.0 0.0 
0.0 0.0 0.0 
0.0 0.0 0.0 
0.0 0.0 0.0 
0.0 0.0 0.0 
0.0 0.0 0.0 
0.0 0.0 0.0 
0.0 0.0 0.0 
0.0 0.0 0.0 
0.0 0.0 0.0 
0.0 0.0 0.0 
0.0 0.0 0.0 
0.0 0.0 0.0 
0.0 0.0 0.0 
0.0 0.0 0.0 
0.0 0.0 0.0 
0.0 0.0 0.0 
0.0 0.0 0.0 
0.0 0.0 0.0 
0.0 0.0 0.0 
0.0 0.0 0.0 
0.0 0.0 0.0 
0.0 0.0 0.0 
0.0 0.0 0.0 
0.0 0.0 0.0 
0.0 0.0 0.0 
0.0 0.0 0.0 
0.0 0.0 0.0 
0.0 0.0 0.0 
0.0 0.0 0.0 
0.0 0.0 0.0 
0.0 0.0 0.0 
0.0 0.0 0.0 
0.0 0.0 0.0 
0.0 0.0 0.0 
0.0 0.0 0.0 
0.0 0.0 0.0 
0.0 0.0 0.0 
0.0 0.0 0.0 
0.0 0.0 0.0 
0.0 0.0 0.0 
0.0 0.0 0.0 
0.0 0.0 0.0 
0.0 0.0 0.0 
0.0 0.0 0.0 
0.0 0.0 0.0 
0.0 0.0 0.0 
0.0 0.0 0.0 
0.0 0.0 0.0 
0.0 0.0 0.0 
0.0 0.0 0.0 
0.0 0.0 0.0 
0.0 0.0 0.0 
0.0 0.0 0.0 
0.0 0.0 0.0 
0.0 0.0 0.0 
0.0 0.0 0.0 
0.0 0.0 0.0 
0.0 0.0 0.0 
0.0 0.0 0.0 
0.0 0.0 0.0 
0.0 0.0 0.0 
0.0 0.0 0.0 
0.0 0.0 0.0 
0.0 0.0 0.0 
0.0 0.0 0.0 
0.0 0.0 0.0 
0.0 0.0 0.0 
0.0 0.0 0.0 
0.0 0.0 0.0 
0.0 0.0 0.0 
0.0 0.0 0.0 
0.0 0.0 0.0 
0.0 0.0 0.0 
0.0 0.0 0.0 
0.0 0.0 0.0 
0.0 0.0 0.0 
0.0 0.0 0.0 
0.0 0.0 0.0 
0.0 0.0 0.0 
0.0 0.0 0.0 
0.0 0.0 0.0 
0.0 0.0 0.0 
0.0 0.0 0.0 
0.0 0.0 0.0 
0.0 0.0 0.0 
0.0 0.0 0.0 
0.0 0.0 0.0 
0.0 0.0 0.0 
0.0 0.0 0.0 
0.0 0.0 0.0 
0.0 0.0 0.0 
0.0 0.0 0.0 
0.0 0.0 0.0 
0.0 0.0 0.0 
0.0 0.0 0.0 
0.0 0.0 0.0 
0.0 0.0 0.0 
0.0 0.0 0.0 
0.0 0.0 0.0 
0.0 0.0 0.0 
0.0 0.0 0.0 
0.0 0.0 0.0 
0.0 0.0 0.0 
0.0 0.0 0.0 
0.0 0.0 0.0 
0.0 0.0 0.0 
0.0 0.0 0.0 
0.0 0.0 0.0 
0.0 0.0 0.0 
0.0 0.0 0.0 
0.0 0.0 0.0 
0.0 0.0 0.0 
0.0 0.0 0.0 
0.0 0.0 0.0 
0.0 0.0 0.0 
0.0 0.0 0.0 
0.0 0.0 0.0 
0.0 0.0 0.0 
0.0 0.0 0.0 
0.0 0.0 0.0 
0.0 0.0 0.0 
0.0 0.0 0.0 
0.0 0.0 0.0 
0.0 0.0 0.0 
0.0 0.0 0.0 
0.0 0.0 0.0 
0.0 0.0 0.0 
0.0 0.0 0.0 
0.0 0.0 0.0 
0.0 0.0 0.0 
0.0 0.0 0.0 
0.0 0.0 0.0 
0.0 0.0 0.0 
0.0 0.0 0.0 
0.0 0.0 0.0 
0.0 0.0 0.0 
0.0 0.0 0.0 
0.0 0.0 0.0 
0.0 0.0 0.0 
0.0 0.0 0.0 
0.0 0.0 0.0 
0.0 0.0 0.0 
0.0 0.0 0.0 
0.0 0.0 0.0 
0.0 0.0 0.0 
0.0 0.0 0.0 
0.0 0.0 0.0 
0.0 0.0 0.0 
0.0 0.0 0.0 
0.0 0.0 0.0 
0.0 0.0 0.0 
0.0 0.0 0.0 
0.0 0.0 0.0 
0.0 0.0 0.0 
0.0 0.0 0.0 
0.0 0.0 0.0 
0.0 0.0 0.0 
0.0 0.0 0.0 
0.0 0.0 0.0 
0.0 0.0 0.0 
0.0 0.0 0.0 
0.0 0.0 0.0 
0.0 0.0 0.0 
0.0 0.0 0.0 
0.0 0.0 0.0 
0.0 0.0 0.0 
0.0 0.0 0.0 
0.0 0.0 0.0 
0.0 0.0 0.0 
0.0 0.0 0.0 
0.0 0.0 0.0 
0.0 0.0 0.0 
0.0 0.0 0.0 
0.0 0.0 0.0 
0.0 0.0 0.0 
0.0 0.0 0.0 
0.0 0.0 0.0 
0.0 0.0 0.0 
0.0 0.0 0.0 
0.0 0.0 0.0 
0.0 0.0 0.0 
0.0 0.0 0.0 
0.0 0.0 0.0 
0.0 0.0 0.0 
0.0 0.0 0.0 
0.0 0.0 0.0 
0.0 0.0 0.0 
0.0 0.0 0.0 
0.0 0.0 0.0 
0.0 0.0 0.0 
0.0 0.0 0.0 
0.0 0.0 0.0 
0.0 0.0 0.0 
0.0 0.0 0.0 
0.0 0.0 0.0 
0.0 0.0 0.0 
0.0 0.0 0.0 
0.0 0.0 0.0 
0.0 0.0 0.0 
0.0 0.0 0.0 
0.0 0.0 0.0 
0.0 0.0 0.0 
0.0 0.0 0.0 
0.0 0.0 0.0 
0.0 0.0 0.0 
0.0 0.0 0.0 
0.0 0.0 0.0 
0.0 0.0 0.0 
0.0 0.0 0.0 
0.0 0.0 0.0 
0.0 0.0 0.0 
0.0 0.0 0.0 
0.0 0.0 0.0 
0.0 0.0 0.0 
0.0 0.0 0.0 
0.0 0.0 0.0 
0.0 0.0 0.0 
0.0 0.0 0.0 
0.0 0.0 0.0 
0.0 0.0 0.0 
0.0 0.0 0.0 
0.0 0.0 0.0 
0.0 0.0 0.0 
0.0 0.0 0.0 
0.0 0.0 0.0 
0.0 0.0 0.0 
0.0 0.0 0.0 
0.0 0.0 0.0 
0.0 0.0 0.0 
0.0 0.0 0.0 
0.0 0.0 0.0 
0.0 0.0 0.0 
0.0 0.0 0.0 
0.0 0.0 0.0 
0.0 0.0 0.0 
0.0 0.0 0.0 
0.0 0.0 0.0 
0.0 0.0 0.0 
0.0 0.0 0.0 
0.0 0.0 0.0 
0.0 0.0 0.0 
0.0 0.0 0.0 
0.0 0.0 0.0 
0.0 0.0 0.0 
0.0 0.0 0.0 
0.0 0.0 0.0 
0.0 0.0 0.0 
0.0 0.0 0.0 
0.0 0.0 0.0 

SCALARS node_boundary float
LOOKUP_TABLE default
1.000000000000e+00 
1.000000000000e+00 
1.000000000000e+00 
1.000000000000e+00 
1.000000000000e+00 
1.000000000000e+00 
1.000000000000e+00 
1.000000000000e+00 
1.000000000000e+00 
1.000000000000e+00 
1.000000000000e+00 
1.000000000000e+00 
1.000000000000e+00 
1.000000000000e+00 
1.000000000000e+00 
1.000000000000e+00 
1.000000000000e+00 
1.000000000000e+00 
1.000000000000e+00 
1.000000000000e+00 
1.000000000000e+00 
1.000000000000e+00 
1.000000000000e+00 
1.000000000000e+00 
1.000000000000e+00 
1.000000000000e+00 
1.000000000000e+00 
1.000000000000e+00 
1.000000000000e+00 
1.000000000000e+00 
1.000000000000e+00 
1.000000000000e+00 
1.000000000000e+00 
1.000000000000e+00 
1.000000000000e+00 
1.000000000000e+00 
1.000000000000e+00 
1.000000000000e+00 
1.000000000000e+00 
1.000000000000e+00 
1.000000000000e+00 
1.000000000000e+00 
1.000000000000e+00 
1.000000000000e+00 
1.000000000000e+00 
1.000000000000e+00 
1.000000000000e+00 
1.000000000000e+00 
1.000000000000e+00 
1.000000000000e+00 
1.000000000000e+00 
1.000000000000e+00 
1.000000000000e+00 
1.000000000000e+00 
1.000000000000e+00 
1.000000000000e+00 
1.000000000000e+00 
1.000000000000e+00 
1.000000000000e+00 
1.000000000000e+00 
1.000000000000e+00 
1.000000000000e+00 
1.000000000000e+00 
1.000000000000e+00 
1.000000000000e+00 
1.000000000000e+00 
1.000000000000e+00 
1.000000000000e+00 
1.000000000000e+00 
1.000000000000e+00 
1.000000000000e+00 
1.000000000000e+00 
1.000000000000e+00 
1.000000000000e+00 
1.000000000000e+00 
1.000000000000e+00 
1.000000000000e+00 
1.000000000000e+00 
1.000000000000e+00 
1.000000000000e+00 
1.000000000000e+00 
1.000000000000e+00 
0.0
1.000000000000e+00 
1.000000000000e+00 
1.000000000000e+00 
1.000000000000e+00 
0.0
0.0
0.0
0.0
0.0
1.000000000000e+00 
1.000000000000e+00 
1.000000000000e+00 
1.000000000000e+00 
1.000000000000e+00 
1.000000000000e+00 
0.0
0.0
0.0
0.0
0.0
0.0
0.0
0.0
0.0
0.0
0.0
0.0
0.0
0.0
1.000000000000e+00 
1.000000000000e+00 
1.000000000000e+00 
1.000000000000e+00 
1.000000000000e+00 
1.000000000000e+00 
1.000000000000e+00 
1.000000000000e+00 
1.000000000000e+00 
1.000000000000e+00 
1.000000000000e+00 
1.000000000000e+00 
1.000000000000e+00 
1.000000000000e+00 
1.000000000000e+00 
1.000000000000e+00 
1.000000000000e+00 
1.000000000000e+00 
1.000000000000e+00 
1.000000000000e+00 
1.000000000000e+00 
1.000000000000e+00 
1.000000000000e+00 
1.000000000000e+00 
1.000000000000e+00 
1.000000000000e+00 
1.000000000000e+00 
1.000000000000e+00 
1.000000000000e+00 
1.000000000000e+00 
1.000000000000e+00 
1.000000000000e+00 
1.000000000000e+00 
1.000000000000e+00 
1.000000000000e+00 
1.000000000000e+00 
1.000000000000e+00 
1.000000000000e+00 
1.000000000000e+00 
1.000000000000e+00 
1.000000000000e+00 
1.000000000000e+00 
0.0
0.0
0.0
0.0
0.0
0.0
0.0
0.0
0.0
0.0
0.0
0.0
0.0
0.0
0.0
0.0
0.0
0.0
0.0
0.0
0.0
0.0
0.0
0.0
0.0
0.0
0.0
0.0
0.0
0.0
0.0
0.0
0.0
0.0
0.0
0.0
0.0
0.0
0.0
0.0
0.0
0.0
0.0
0.0
0.0
0.0
0.0
0.0
0.0
0.0
0.0
0.0
0.0
0.0
0.0
0.0
0.0
0.0
0.0
0.0
0.0
0.0
0.0
0.0
0.0
0.0
0.0
0.0
0.0
0.0
0.0
0.0
0.0
0.0
0.0
0.0
0.0
0.0
0.0
0.0
0.0
0.0
0.0
0.0
0.0
0.0
0.0
0.0
0.0
0.0
0.0
0.0
0.0
0.0
1.000000000000e+00 
1.000000000000e+00 
1.000000000000e+00 
1.000000000000e+00 
0.0
0.0
0.0
0.0
0.0
0.0
0.0
0.0
0.0
0.0
0.0
0.0
0.0
0.0
0.0
0.0
0.0
0.0
0.0
0.0
0.0
0.0
0.0
0.0
0.0
0.0
0.0
0.0
0.0
0.0
0.0
0.0
0.0
0.0
0.0
0.0
0.0
0.0
0.0
0.0
0.0
0.0
0.0
0.0
0.0
0.0
0.0
0.0
0.0
0.0
0.0
0.0
0.0
0.0
0.0
0.0
0.0
0.0
0.0
0.0
0.0
0.0
0.0
0.0
0.0
0.0
0.0
0.0
0.0
0.0
0.0
0.0
0.0
0.0
0.0
0.0
0.0
0.0
0.0
0.0
0.0
0.0
0.0
0.0
0.0
0.0
0.0
0.0
0.0
0.0
0.0
0.0
0.0
0.0
0.0
0.0
0.0
0.0
0.0
0.0
0.0
0.0
0.0
0.0
0.0
0.0
0.0
0.0
0.0
0.0
0.0
0.0
0.0
0.0
0.0
0.0
0.0
0.0
0.0
0.0
0.0
0.0
0.0
0.0
0.0
0.0
0.0
0.0
0.0
0.0
0.0
0.0
0.0
0.0
0.0
0.0
0.0
0.0
0.0
0.0
0.0
0.0
0.0
0.0
0.0
0.0
0.0
0.0
0.0
0.0
0.0
0.0
0.0
0.0
0.0
0.0
0.0
0.0
0.0
0.0
0.0
0.0
0.0
0.0
0.0
0.0
0.0
0.0
0.0
0.0
0.0
0.0
0.0
0.0
0.0
0.0
0.0
0.0
0.0
0.0
0.0
0.0
0.0
0.0
0.0
0.0
0.0
0.0
0.0
0.0
0.0
0.0
0.0
0.0
0.0
0.0
0.0
0.0
0.0
0.0
0.0
0.0
0.0
0.0
0.0
0.0
0.0
0.0
0.0
0.0
0.0
0.0
0.0
0.0
0.0
0.0
0.0
0.0
0.0
0.0
0.0
0.0
0.0
0.0
0.0
0.0
0.0
0.0
0.0
0.0
0.0
0.0
0.0
0.0
0.0
0.0
0.0
0.0
0.0
0.0
0.0
0.0
0.0
0.0
0.0
0.0
0.0
0.0
0.0
0.0
0.0
0.0
0.0
0.0
0.0
0.0
0.0
0.0
0.0
0.0
0.0
0.0
0.0
0.0
0.0
0.0
0.0
0.0
0.0
0.0
0.0
0.0
0.0
0.0
0.0
0.0
0.0
0.0
0.0
0.0
0.0
0.0
0.0
0.0
0.0
0.0
0.0
0.0
0.0
0.0
0.0
0.0
0.0
0.0
0.0
0.0
0.0
0.0
0.0
0.0
0.0
0.0
0.0
0.0
0.0
0.0
0.0
0.0
0.0
0.0
0.0
0.0
0.0
0.0
0.0
0.0
0.0
0.0
0.0
0.0
0.0
0.0
0.0
0.0
0.0
0.0
0.0
0.0
0.0
0.0
0.0
0.0
0.0
0.0
0.0
0.0
0.0
0.0
0.0
0.0
0.0
0.0
0.0
0.0
0.0
0.0
0.0
0.0
0.0
0.0
0.0
0.0
0.0
0.0
0.0
0.0
0.0
0.0
0.0
0.0
0.0
0.0
0.0
0.0
0.0
0.0
0.0
0.0
0.0
0.0
0.0
0.0
0.0
0.0
0.0
0.0
0.0
0.0
0.0
0.0
0.0
0.0
0.0
0.0
0.0
0.0
0.0
0.0
0.0
0.0
0.0
0.0
0.0
0.0
0.0
0.0
0.0
0.0
0.0
0.0
0.0
0.0
0.0
0.0
0.0
0.0
0.0
0.0
0.0
0.0
0.0
0.0
0.0
0.0
0.0
0.0
0.0
0.0
0.0
0.0
0.0
0.0
0.0
0.0
0.0
0.0
0.0
0.0
0.0
0.0
0.0
0.0
0.0
0.0
0.0
0.0
0.0
0.0
0.0
0.0
0.0
0.0
0.0
0.0
0.0
0.0
0.0
0.0
0.0
0.0
0.0
0.0
0.0
0.0
0.0
0.0
0.0
0.0
0.0
0.0
0.0
0.0
0.0
0.0
0.0
0.0
0.0
0.0
0.0
0.0
0.0
0.0
0.0
0.0
0.0
0.0
0.0
0.0
0.0
0.0
0.0
0.0
0.0
0.0
0.0
0.0
0.0
0.0
0.0
0.0
0.0
0.0
0.0
0.0
0.0
0.0
0.0
0.0
0.0
0.0
0.0
0.0
0.0
0.0
0.0
0.0
0.0
0.0
0.0
0.0
0.0
0.0
0.0
0.0
0.0
0.0
0.0
0.0
0.0
0.0
0.0
0.0
0.0
0.0
0.0
0.0
0.0
0.0
0.0
0.0
0.0
0.0
0.0
0.0
0.0
0.0
0.0
0.0
0.0
0.0
0.0
0.0
0.0
0.0
0.0
0.0
0.0
0.0
0.0
0.0
0.0
0.0
0.0
0.0
0.0
0.0
0.0
0.0
0.0
0.0
0.0
0.0
0.0
0.0
0.0
0.0
0.0
0.0
0.0
0.0
0.0
0.0
0.0
0.0
0.0
0.0
0.0
0.0
0.0
0.0
0.0
0.0
0.0
0.0
0.0
0.0
0.0
0.0
0.0
0.0
0.0
0.0
0.0
0.0
0.0
0.0
0.0
0.0
0.0
0.0
0.0
0.0
0.0
0.0
0.0
0.0
0.0
0.0
0.0
0.0
0.0
0.0
0.0
0.0
0.0
0.0
0.0
0.0
0.0
0.0
0.0
0.0
0.0
0.0
0.0
0.0
0.0
0.0
0.0
0.0
0.0
0.0
0.0
0.0
0.0
0.0
0.0
0.0
0.0
0.0
0.0
0.0
0.0
0.0
0.0
0.0
0.0
0.0
0.0
0.0
0.0
0.0
0.0
0.0
0.0
0.0
0.0
0.0
0.0
0.0
0.0
0.0
0.0
0.0
0.0
0.0
0.0
0.0
0.0
0.0
0.0
0.0
0.0
0.0
0.0
0.0
0.0
0.0
0.0
0.0
0.0
0.0
0.0
0.0
0.0
0.0
0.0
0.0
0.0
0.0
0.0
0.0
0.0
0.0
0.0
0.0
0.0
0.0
0.0
0.0
0.0
0.0
0.0
0.0
0.0
0.0
0.0
0.0
0.0
0.0
0.0
0.0
0.0
0.0
0.0
0.0
0.0
0.0
0.0
0.0
0.0
0.0
0.0
0.0
0.0
0.0
0.0
0.0
0.0
0.0
0.0
0.0
0.0
0.0
0.0
0.0
0.0
0.0
0.0
0.0
0.0
0.0
0.0
0.0
0.0
0.0
0.0
0.0
0.0
0.0
0.0
0.0
0.0
0.0
0.0
0.0
0.0
0.0
0.0
0.0
0.0
0.0
0.0
0.0
0.0
0.0
0.0
0.0
0.0
0.0
0.0
0.0
0.0
0.0
0.0
0.0
0.0
0.0
0.0
0.0
0.0
0.0
0.0
0.0
0.0
0.0
0.0
0.0
0.0
0.0
0.0
0.0
0.0
0.0
0.0
0.0
0.0
0.0
0.0
0.0
0.0
0.0
0.0
0.0
0.0
0.0
0.0
0.0
0.0
0.0
0.0
0.0
0.0
0.0
0.0
0.0
0.0
0.0
0.0
0.0
0.0
0.0
0.0
0.0
0.0
0.0
0.0
0.0
0.0
0.0
0.0
0.0
0.0
0.0
0.0
0.0
0.0
0.0
0.0
0.0
0.0
0.0
0.0
0.0
0.0
0.0
0.0
0.0
0.0
0.0
0.0
0.0
0.0
0.0
0.0
0.0
0.0
0.0
0.0
0.0
0.0
0.0
0.0
0.0
0.0
0.0
0.0
0.0
0.0
0.0
0.0
0.0
0.0
0.0
0.0
0.0
0.0
0.0
0.0
0.0
0.0
0.0
0.0
0.0
0.0
0.0
0.0
0.0
0.0
0.0
0.0
0.0
0.0
0.0
0.0
0.0
0.0
0.0
0.0
0.0
0.0
0.0
0.0
0.0
0.0
0.0
0.0
0.0
0.0
0.0
0.0

VECTORS node_force_gravity float
0.0 -1.962000000000e+01 0.0 
0.0 -1.962000000000e+01 0.0 
0.0 -1.962000000000e+01 0.0 
0.0 -1.962000000000e+01 0.0 
0.0 -1.962000000000e+01 0.0 
0.0 -1.962000000000e+01 0.0 
0.0 -1.962000000000e+01 0.0 
0.0 -1.962000000000e+01 0.0 
0.0 -1.962000000000e+01 0.0 
0.0 -1.962000000000e+01 0.0 
0.0 -1.962000000000e+01 0.0 
0.0 -1.962000000000e+01 0.0 
0.0 -1.962000000000e+01 0.0 
0.0 -1.962000000000e+01 0.0 
0.0 -1.962000000000e+01 0.0 
0.0 -1.962000000000e+01 0.0 
0.0 -1.962000000000e+01 0.0 
0.0 -1.962000000000e+01 0.0 
0.0 -1.962000000000e+01 0.0 
0.0 -1.962000000000e+01 0.0 
0.0 -1.962000000000e+01 0.0 
0.0 -1.962000000000e+01 0.0 
0.0 -1.962000000000e+01 0.0 
0.0 -1.962000000000e+01 0.0 
0.0 -1.962000000000e+01 0.0 
0.0 -1.962000000000e+01 0.0 
0.0 -1.962000000000e+01 0.0 
0.0 -1.962000000000e+01 0.0 
0.0 -1.962000000000e+01 0.0 
0.0 -1.962000000000e+01 0.0 
0.0 -1.962000000000e+01 0.0 
0.0 -1.962000000000e+01 0.0 
0.0 -1.962000000000e+01 0.0 
0.0 -1.962000000000e+01 0.0 
0.0 -1.962000000000e+01 0.0 
0.0 -1.962000000000e+01 0.0 
0.0 -1.962000000000e+01 0.0 
0.0 -1.962000000000e+01 0.0 
0.0 -1.962000000000e+01 0.0 
0.0 -1.962000000000e+01 0.0 
0.0 -1.962000000000e+01 0.0 
0.0 -1.962000000000e+01 0.0 
0.0 -1.962000000000e+01 0.0 
0.0 -1.962000000000e+01 0.0 
0.0 -1.962000000000e+01 0.0 
0.0 -1.962000000000e+01 0.0 
0.0 -1.962000000000e+01 0.0 
0.0 -1.962000000000e+01 0.0 
0.0 -1.962000000000e+01 0.0 
0.0 -1.962000000000e+01 0.0 
0.0 -1.962000000000e+01 0.0 
0.0 -1.962000000000e+01 0.0 
0.0 -1.962000000000e+01 0.0 
0.0 -1.962000000000e+01 0.0 
0.0 -1.962000000000e+01 0.0 
0.0 -1.962000000000e+01 0.0 
0.0 -1.962000000000e+01 0.0 
0.0 -1.962000000000e+01 0.0 
0.0 -1.962000000000e+01 0.0 
0.0 -1.962000000000e+01 0.0 
0.0 -1.962000000000e+01 0.0 
0.0 -1.962000000000e+01 0.0 
0.0 -1.962000000000e+01 0.0 
0.0 -1.962000000000e+01 0.0 
0.0 -1.962000000000e+01 0.0 
0.0 -1.962000000000e+01 0.0 
0.0 -1.962000000000e+01 0.0 
0.0 -1.962000000000e+01 0.0 
0.0 -1.962000000000e+01 0.0 
0.0 -1.962000000000e+01 0.0 
0.0 -1.962000000000e+01 0.0 
0.0 -1.962000000000e+01 0.0 
0.0 -1.962000000000e+01 0.0 
0.0 -1.962000000000e+01 0.0 
0.0 -1.962000000000e+01 0.0 
0.0 -1.962000000000e+01 0.0 
0.0 -1.962000000000e+01 0.0 
0.0 -1.962000000000e+01 0.0 
0.0 -1.962000000000e+01 0.0 
0.0 -1.962000000000e+01 0.0 
0.0 -1.962000000000e+01 0.0 
0.0 -1.962000000000e+01 0.0 
0.0 -1.962000000000e+01 0.0 
0.0 -1.962000000000e+01 0.0 
0.0 -1.962000000000e+01 0.0 
0.0 -1.962000000000e+01 0.0 
0.0 -1.962000000000e+01 0.0 
0.0 -1.962000000000e+01 0.0 
0.0 -1.962000000000e+01 0.0 
0.0 -1.962000000000e+01 0.0 
0.0 -1.962000000000e+01 0.0 
0.0 -1.962000000000e+01 0.0 
0.0 -1.962000000000e+01 0.0 
0.0 -1.962000000000e+01 0.0 
0.0 -1.962000000000e+01 0.0 
0.0 -1.962000000000e+01 0.0 
0.0 -1.962000000000e+01 0.0 
0.0 -1.962000000000e+01 0.0 
0.0 -1.962000000000e+01 0.0 
0.0 -1.962000000000e+01 0.0 
0.0 -1.962000000000e+01 0.0 
0.0 -1.962000000000e+01 0.0 
0.0 -1.962000000000e+01 0.0 
0.0 -1.962000000000e+01 0.0 
0.0 -1.962000000000e+01 0.0 
0.0 -1.962000000000e+01 0.0 
0.0 -1.962000000000e+01 0.0 
0.0 -1.962000000000e+01 0.0 
0.0 -1.962000000000e+01 0.0 
0.0 -1.962000000000e+01 0.0 
0.0 -1.962000000000e+01 0.0 
0.0 -1.962000000000e+01 0.0 
0.0 -1.962000000000e+01 0.0 
0.0 -1.962000000000e+01 0.0 
0.0 -1.962000000000e+01 0.0 
0.0 -1.962000000000e+01 0.0 
0.0 -1.962000000000e+01 0.0 
0.0 -1.962000000000e+01 0.0 
0.0 -1.962000000000e+01 0.0 
0.0 -1.962000000000e+01 0.0 
0.0 -1.962000000000e+01 0.0 
0.0 -1.962000000000e+01 0.0 
0.0 -1.962000000000e+01 0.0 
0.0 -1.962000000000e+01 0.0 
0.0 -1.962000000000e+01 0.0 
0.0 -1.962000000000e+01 0.0 
0.0 -1.962000000000e+01 0.0 
0.0 -1.962000000000e+01 0.0 
0.0 -1.962000000000e+01 0.0 
0.0 -1.962000000000e+01 0.0 
0.0 -1.962000000000e+01 0.0 
0.0 -1.962000000000e+01 0.0 
0.0 -1.962000000000e+01 0.0 
0.0 -1.962000000000e+01 0.0 
0.0 -1.962000000000e+01 0.0 
0.0 -1.962000000000e+01 0.0 
0.0 -1.962000000000e+01 0.0 
0.0 -1.962000000000e+01 0.0 
0.0 -1.962000000000e+01 0.0 
0.0 -1.962000000000e+01 0.0 
0.0 -1.962000000000e+01 0.0 
0.0 -1.962000000000e+01 0.0 
0.0 -1.962000000000e+01 0.0 
0.0 -1.962000000000e+01 0.0 
0.0 -1.962000000000e+01 0.0 
0.0 -1.962000000000e+01 0.0 
0.0 -1.962000000000e+01 0.0 
0.0 -1.962000000000e+01 0.0 
0.0 -1.962000000000e+01 0.0 
0.0 -1.962000000000e+01 0.0 
0.0 -1.962000000000e+01 0.0 
0.0 -1.962000000000e+01 0.0 
0.0 -1.962000000000e+01 0.0 
0.0 -1.962000000000e+01 0.0 
0.0 -1.962000000000e+01 0.0 
0.0 -1.962000000000e+01 0.0 
0.0 -1.962000000000e+01 0.0 
0.0 -1.962000000000e+01 0.0 
0.0 -1.962000000000e+01 0.0 
0.0 -1.962000000000e+01 0.0 
0.0 -1.962000000000e+01 0.0 
0.0 -1.962000000000e+01 0.0 
0.0 -1.962000000000e+01 0.0 
0.0 -1.962000000000e+01 0.0 
0.0 -1.962000000000e+01 0.0 
0.0 -1.962000000000e+01 0.0 
0.0 -1.962000000000e+01 0.0 
0.0 -1.962000000000e+01 0.0 
0.0 -1.962000000000e+01 0.0 
0.0 -1.962000000000e+01 0.0 
0.0 -1.962000000000e+01 0.0 
0.0 -1.962000000000e+01 0.0 
0.0 -1.962000000000e+01 0.0 
0.0 -1.962000000000e+01 0.0 
0.0 -1.962000000000e+01 0.0 
0.0 -1.962000000000e+01 0.0 
0.0 -1.962000000000e+01 0.0 
0.0 -1.962000000000e+01 0.0 
0.0 -1.962000000000e+01 0.0 
0.0 -1.962000000000e+01 0.0 
0.0 -1.962000000000e+01 0.0 
0.0 -1.962000000000e+01 0.0 
0.0 -1.962000000000e+01 0.0 
0.0 -1.962000000000e+01 0.0 
0.0 -1.962000000000e+01 0.0 
0.0 -1.962000000000e+01 0.0 
0.0 -1.962000000000e+01 0.0 
0.0 -1.962000000000e+01 0.0 
0.0 -1.962000000000e+01 0.0 
0.0 -1.962000000000e+01 0.0 
0.0 -1.962000000000e+01 0.0 
0.0 -1.962000000000e+01 0.0 
0.0 -1.962000000000e+01 0.0 
0.0 -1.962000000000e+01 0.0 
0.0 -1.962000000000e+01 0.0 
0.0 -1.962000000000e+01 0.0 
0.0 -1.962000000000e+01 0.0 
0.0 -1.962000000000e+01 0.0 
0.0 -1.962000000000e+01 0.0 
0.0 -1.962000000000e+01 0.0 
0.0 -1.962000000000e+01 0.0 
0.0 -1.962000000000e+01 0.0 
0.0 -1.962000000000e+01 0.0 
0.0 -1.962000000000e+01 0.0 
0.0 -1.962000000000e+01 0.0 
0.0 -1.962000000000e+01 0.0 
0.0 -1.962000000000e+01 0.0 
0.0 -1.962000000000e+01 0.0 
0.0 -1.962000000000e+01 0.0 
0.0 -1.962000000000e+01 0.0 
0.0 -1.962000000000e+01 0.0 
0.0 -1.962000000000e+01 0.0 
0.0 -1.962000000000e+01 0.0 
0.0 -1.962000000000e+01 0.0 
0.0 -1.962000000000e+01 0.0 
0.0 -1.962000000000e+01 0.0 
0.0 -1.962000000000e+01 0.0 
0.0 -1.962000000000e+01 0.0 
0.0 -1.962000000000e+01 0.0 
0.0 -1.962000000000e+01 0.0 
0.0 -1.962000000000e+01 0.0 
0.0 -1.962000000000e+01 0.0 
0.0 -1.962000000000e+01 0.0 
0.0 -1.962000000000e+01 0.0 
0.0 -1.962000000000e+01 0.0 
0.0 -1.962000000000e+01 0.0 
0.0 -1.962000000000e+01 0.0 
0.0 -1.962000000000e+01 0.0 
0.0 -1.962000000000e+01 0.0 
0.0 -1.962000000000e+01 0.0 
0.0 -1.962000000000e+01 0.0 
0.0 -1.962000000000e+01 0.0 
0.0 -1.962000000000e+01 0.0 
0.0 -1.962000000000e+01 0.0 
0.0 -1.962000000000e+01 0.0 
0.0 -1.962000000000e+01 0.0 
0.0 -1.962000000000e+01 0.0 
0.0 -1.962000000000e+01 0.0 
0.0 -1.962000000000e+01 0.0 
0.0 -1.962000000000e+01 0.0 
0.0 -1.962000000000e+01 0.0 
0.0 -1.962000000000e+01 0.0 
0.0 -1.962000000000e+01 0.0 
0.0 -1.962000000000e+01 0.0 
0.0 -1.962000000000e+01 0.0 
0.0 -1.962000000000e+01 0.0 
0.0 -1.962000000000e+01 0.0 
0.0 -1.962000000000e+01 0.0 
0.0 -1.962000000000e+01 0.0 
0.0 -1.962000000000e+01 0.0 
0.0 -1.962000000000e+01 0.0 
0.0 -1.962000000000e+01 0.0 
0.0 -1.962000000000e+01 0.0 
0.0 -1.962000000000e+01 0.0 
0.0 -1.962000000000e+01 0.0 
0.0 -1.962000000000e+01 0.0 
0.0 -1.962000000000e+01 0.0 
0.0 -1.962000000000e+01 0.0 
0.0 -1.962000000000e+01 0.0 
0.0 -1.962000000000e+01 0.0 
0.0 -1.962000000000e+01 0.0 
0.0 -1.962000000000e+01 0.0 
0.0 -1.962000000000e+01 0.0 
0.0 -1.962000000000e+01 0.0 
0.0 -1.962000000000e+01 0.0 
0.0 -1.962000000000e+01 0.0 
0.0 -1.962000000000e+01 0.0 
0.0 -1.962000000000e+01 0.0 
0.0 -1.962000000000e+01 0.0 
0.0 -1.962000000000e+01 0.0 
0.0 -1.962000000000e+01 0.0 
0.0 -1.962000000000e+01 0.0 
0.0 -1.962000000000e+01 0.0 
0.0 -1.962000000000e+01 0.0 
0.0 -1.962000000000e+01 0.0 
0.0 -1.962000000000e+01 0.0 
0.0 -1.962000000000e+01 0.0 
0.0 -1.962000000000e+01 0.0 
0.0 -1.962000000000e+01 0.0 
0.0 -1.962000000000e+01 0.0 
0.0 -1.962000000000e+01 0.0 
0.0 -1.962000000000e+01 0.0 
0.0 -1.962000000000e+01 0.0 
0.0 -1.962000000000e+01 0.0 
0.0 -1.962000000000e+01 0.0 
0.0 -1.962000000000e+01 0.0 
0.0 -1.962000000000e+01 0.0 
0.0 -1.962000000000e+01 0.0 
0.0 -1.962000000000e+01 0.0 
0.0 -1.962000000000e+01 0.0 
0.0 -1.962000000000e+01 0.0 
0.0 -1.962000000000e+01 0.0 
0.0 -1.962000000000e+01 0.0 
0.0 -1.962000000000e+01 0.0 
0.0 -1.962000000000e+01 0.0 
0.0 -1.962000000000e+01 0.0 
0.0 -1.962000000000e+01 0.0 
0.0 -1.962000000000e+01 0.0 
0.0 -1.962000000000e+01 0.0 
0.0 -1.962000000000e+01 0.0 
0.0 -1.962000000000e+01 0.0 
0.0 -1.962000000000e+01 0.0 
0.0 -1.962000000000e+01 0.0 
0.0 -1.962000000000e+01 0.0 
0.0 -1.962000000000e+01 0.0 
0.0 -1.962000000000e+01 0.0 
0.0 -1.962000000000e+01 0.0 
0.0 -1.962000000000e+01 0.0 
0.0 -1.962000000000e+01 0.0 
0.0 -1.962000000000e+01 0.0 
0.0 -1.962000000000e+01 0.0 
0.0 -1.962000000000e+01 0.0 
0.0 -1.962000000000e+01 0.0 
0.0 -1.962000000000e+01 0.0 
0.0 -1.962000000000e+01 0.0 
0.0 -1.962000000000e+01 0.0 
0.0 -1.962000000000e+01 0.0 
0.0 -1.962000000000e+01 0.0 
0.0 -1.962000000000e+01 0.0 
0.0 -1.962000000000e+01 0.0 
0.0 -1.962000000000e+01 0.0 
0.0 -1.962000000000e+01 0.0 
0.0 -1.962000000000e+01 0.0 
0.0 -1.962000000000e+01 0.0 
0.0 -1.962000000000e+01 0.0 
0.0 -1.962000000000e+01 0.0 
0.0 -1.962000000000e+01 0.0 
0.0 -1.962000000000e+01 0.0 
0.0 -1.962000000000e+01 0.0 
0.0 -1.962000000000e+01 0.0 
0.0 -1.962000000000e+01 0.0 
0.0 -1.962000000000e+01 0.0 
0.0 -1.962000000000e+01 0.0 
0.0 -1.962000000000e+01 0.0 
0.0 -1.962000000000e+01 0.0 
0.0 -1.962000000000e+01 0.0 
0.0 -1.962000000000e+01 0.0 
0.0 -1.962000000000e+01 0.0 
0.0 -1.962000000000e+01 0.0 
0.0 -1.962000000000e+01 0.0 
0.0 -1.962000000000e+01 0.0 
0.0 -1.962000000000e+01 0.0 
0.0 -1.962000000000e+01 0.0 
0.0 -1.962000000000e+01 0.0 
0.0 -1.962000000000e+01 0.0 
0.0 -1.962000000000e+01 0.0 
0.0 -1.962000000000e+01 0.0 
0.0 -1.962000000000e+01 0.0 
0.0 -1.962000000000e+01 0.0 
0.0 -1.962000000000e+01 0.0 
0.0 -1.962000000000e+01 0.0 
0.0 -1.962000000000e+01 0.0 
0.0 -1.962000000000e+01 0.0 
0.0 -1.962000000000e+01 0.0 
0.0 -1.962000000000e+01 0.0 
0.0 -1.962000000000e+01 0.0 
0.0 -1.962000000000e+01 0.0 
0.0 -1.962000000000e+01 0.0 
0.0 -1.962000000000e+01 0.0 
0.0 -1.962000000000e+01 0.0 
0.0 -1.962000000000e+01 0.0 
0.0 -1.962000000000e+01 0.0 
0.0 -1.962000000000e+01 0.0 
0.0 -1.962000000000e+01 0.0 
0.0 -1.962000000000e+01 0.0 
0.0 -1.962000000000e+01 0.0 
0.0 -1.962000000000e+01 0.0 
0.0 -1.962000000000e+01 0.0 
0.0 -1.962000000000e+01 0.0 
0.0 -1.962000000000e+01 0.0 
0.0 -1.962000000000e+01 0.0 
0.0 -1.962000000000e+01 0.0 
0.0 -1.962000000000e+01 0.0 
0.0 -1.962000000000e+01 0.0 
0.0 -1.962000000000e+01 0.0 
0.0 -1.962000000000e+01 0.0 
0.0 -1.962000000000e+01 0.0 
0.0 -1.962000000000e+01 0.0 
0.0 -1.962000000000e+01 0.0 
0.0 -1.962000000000e+01 0.0 
0.0 -1.962000000000e+01 0.0 
0.0 -1.962000000000e+01 0.0 
0.0 -1.962000000000e+01 0.0 
0.0 -1.962000000000e+01 0.0 
0.0 -1.962000000000e+01 0.0 
0.0 -1.962000000000e+01 0.0 
0.0 -1.962000000000e+01 0.0 
0.0 -1.962000000000e+01 0.0 
0.0 -1.962000000000e+01 0.0 
0.0 -1.962000000000e+01 0.0 
0.0 -1.962000000000e+01 0.0 
0.0 -1.962000000000e+01 0.0 
0.0 -1.962000000000e+01 0.0 
0.0 -1.962000000000e+01 0.0 
0.0 -1.962000000000e+01 0.0 
0.0 -1.962000000000e+01 0.0 
0.0 -1.962000000000e+01 0.0 
0.0 -1.962000000000e+01 0.0 
0.0 -1.962000000000e+01 0.0 
0.0 -1.962000000000e+01 0.0 
0.0 -1.962000000000e+01 0.0 
0.0 -1.962000000000e+01 0.0 
0.0 -1.962000000000e+01 0.0 
0.0 -1.962000000000e+01 0.0 
0.0 -1.962000000000e+01 0.0 
0.0 -1.962000000000e+01 0.0 
0.0 -1.962000000000e+01 0.0 
0.0 -1.962000000000e+01 0.0 
0.0 -1.962000000000e+01 0.0 
0.0 -1.962000000000e+01 0.0 
0.0 -1.962000000000e+01 0.0 
0.0 -1.962000000000e+01 0.0 
0.0 -1.962000000000e+01 0.0 
0.0 -1.962000000000e+01 0.0 
0.0 -1.962000000000e+01 0.0 
0.0 -1.962000000000e+01 0.0 
0.0 -1.962000000000e+01 0.0 
0.0 -1.962000000000e+01 0.0 
0.0 -1.962000000000e+01 0.0 
0.0 -1.962000000000e+01 0.0 
0.0 -1.962000000000e+01 0.0 
0.0 -1.962000000000e+01 0.0 
0.0 -1.962000000000e+01 0.0 
0.0 -1.962000000000e+01 0.0 
0.0 -1.962000000000e+01 0.0 
0.0 -1.962000000000e+01 0.0 
0.0 -1.962000000000e+01 0.0 
0.0 -1.962000000000e+01 0.0 
0.0 -1.962000000000e+01 0.0 
0.0 -1.962000000000e+01 0.0 
0.0 -1.962000000000e+01 0.0 
0.0 -1.962000000000e+01 0.0 
0.0 -1.962000000000e+01 0.0 
0.0 -1.962000000000e+01 0.0 
0.0 -1.962000000000e+01 0.0 
0.0 -1.962000000000e+01 0.0 
0.0 -1.962000000000e+01 0.0 
0.0 -1.962000000000e+01 0.0 
0.0 -1.962000000000e+01 0.0 
0.0 -1.962000000000e+01 0.0 
0.0 -1.962000000000e+01 0.0 
0.0 -1.962000000000e+01 0.0 
0.0 -1.962000000000e+01 0.0 
0.0 -1.962000000000e+01 0.0 
0.0 -1.962000000000e+01 0.0 
0.0 -1.962000000000e+01 0.0 
0.0 -1.962000000000e+01 0.0 
0.0 -1.962000000000e+01 0.0 
0.0 -1.962000000000e+01 0.0 
0.0 -1.962000000000e+01 0.0 
0.0 -1.962000000000e+01 0.0 
0.0 -1.962000000000e+01 0.0 
0.0 -1.962000000000e+01 0.0 
0.0 -1.962000000000e+01 0.0 
0.0 -1.962000000000e+01 0.0 
0.0 -1.962000000000e+01 0.0 
0.0 -1.962000000000e+01 0.0 
0.0 -1.962000000000e+01 0.0 
0.0 -1.962000000000e+01 0.0 
0.0 -1.962000000000e+01 0.0 
0.0 -1.962000000000e+01 0.0 
0.0 -1.962000000000e+01 0.0 
0.0 -1.962000000000e+01 0.0 
0.0 -1.962000000000e+01 0.0 
0.0 -1.962000000000e+01 0.0 
0.0 -1.962000000000e+01 0.0 
0.0 -1.962000000000e+01 0.0 
0.0 -1.962000000000e+01 0.0 
0.0 -1.962000000000e+01 0.0 
0.0 -1.962000000000e+01 0.0 
0.0 -1.962000000000e+01 0.0 
0.0 -1.962000000000e+01 0.0 
0.0 -1.962000000000e+01 0.0 
0.0 -1.962000000000e+01 0.0 
0.0 -1.962000000000e+01 0.0 
0.0 -1.962000000000e+01 0.0 
0.0 -1.962000000000e+01 0.0 
0.0 -1.962000000000e+01 0.0 
0.0 -1.962000000000e+01 0.0 
0.0 -1.962000000000e+01 0.0 
0.0 -1.962000000000e+01 0.0 
0.0 -1.962000000000e+01 0.0 
0.0 -1.962000000000e+01 0.0 
0.0 -1.962000000000e+01 0.0 
0.0 -1.962000000000e+01 0.0 
0.0 -1.962000000000e+01 0.0 
0.0 -1.962000000000e+01 0.0 
0.0 -1.962000000000e+01 0.0 
0.0 -1.962000000000e+01 0.0 
0.0 -1.962000000000e+01 0.0 
0.0 -1.962000000000e+01 0.0 
0.0 -1.962000000000e+01 0.0 
0.0 -1.962000000000e+01 0.0 
0.0 -1.962000000000e+01 0.0 
0.0 -1.962000000000e+01 0.0 
0.0 -1.962000000000e+01 0.0 
0.0 -1.962000000000e+01 0.0 
0.0 -1.962000000000e+01 0.0 
0.0 -1.962000000000e+01 0.0 
0.0 -1.962000000000e+01 0.0 
0.0 -1.962000000000e+01 0.0 
0.0 -1.962000000000e+01 0.0 
0.0 -1.962000000000e+01 0.0 
0.0 -1.962000000000e+01 0.0 
0.0 -1.962000000000e+01 0.0 
0.0 -1.962000000000e+01 0.0 
0.0 -1.962000000000e+01 0.0 
0.0 -1.962000000000e+01 0.0 
0.0 -1.962000000000e+01 0.0 
0.0 -1.962000000000e+01 0.0 
0.0 -1.962000000000e+01 0.0 
0.0 -1.962000000000e+01 0.0 
0.0 -1.962000000000e+01 0.0 
0.0 -1.962000000000e+01 0.0 
0.0 -1.962000000000e+01 0.0 
0.0 -1.962000000000e+01 0.0 
0.0 -1.962000000000e+01 0.0 
0.0 -1.962000000000e+01 0.0 
0.0 -1.962000000000e+01 0.0 
0.0 -1.962000000000e+01 0.0 
0.0 -1.962000000000e+01 0.0 
0.0 -1.962000000000e+01 0.0 
0.0 -1.962000000000e+01 0.0 
0.0 -1.962000000000e+01 0.0 
0.0 -1.962000000000e+01 0.0 
0.0 -1.962000000000e+01 0.0 
0.0 -1.962000000000e+01 0.0 
0.0 -1.962000000000e+01 0.0 
0.0 -1.962000000000e+01 0.0 
0.0 -1.962000000000e+01 0.0 
0.0 -1.962000000000e+01 0.0 
0.0 -1.962000000000e+01 0.0 
0.0 -1.962000000000e+01 0.0 
0.0 -1.962000000000e+01 0.0 
0.0 -1.962000000000e+01 0.0 
0.0 -1.962000000000e+01 0.0 
0.0 -1.962000000000e+01 0.0 
0.0 -1.962000000000e+01 0.0 
0.0 -1.962000000000e+01 0.0 
0.0 -1.962000000000e+01 0.0 
0.0 -1.962000000000e+01 0.0 
0.0 -1.962000000000e+01 0.0 
0.0 -1.962000000000e+01 0.0 
0.0 -1.962000000000e+01 0.0 
0.0 -1.962000000000e+01 0.0 
0.0 -1.962000000000e+01 0.0 
0.0 -1.962000000000e+01 0.0 
0.0 -1.962000000000e+01 0.0 
0.0 -1.962000000000e+01 0.0 
0.0 -1.962000000000e+01 0.0 
0.0 -1.962000000000e+01 0.0 
0.0 -1.962000000000e+01 0.0 
0.0 -1.962000000000e+01 0.0 
0.0 -1.962000000000e+01 0.0 
0.0 -1.962000000000e+01 0.0 
0.0 -1.962000000000e+01 0.0 
0.0 -1.962000000000e+01 0.0 
0.0 -1.962000000000e+01 0.0 
0.0 -1.962000000000e+01 0.0 
0.0 -1.962000000000e+01 0.0 
0.0 -1.962000000000e+01 0.0 
0.0 -1.962000000000e+01 0.0 
0.0 -1.962000000000e+01 0.0 
0.0 -1.962000000000e+01 0.0 
0.0 -1.962000000000e+01 0.0 
0.0 -1.962000000000e+01 0.0 
0.0 -1.962000000000e+01 0.0 
0.0 -1.962000000000e+01 0.0 
0.0 -1.962000000000e+01 0.0 
0.0 -1.962000000000e+01 0.0 
0.0 -1.962000000000e+01 0.0 
0.0 -1.962000000000e+01 0.0 
0.0 -1.962000000000e+01 0.0 
0.0 -1.962000000000e+01 0.0 
0.0 -1.962000000000e+01 0.0 
0.0 -1.962000000000e+01 0.0 
0.0 -1.962000000000e+01 0.0 
0.0 -1.962000000000e+01 0.0 
0.0 -1.962000000000e+01 0.0 
0.0 -1.962000000000e+01 0.0 
0.0 -1.962000000000e+01 0.0 
0.0 -1.962000000000e+01 0.0 
0.0 -1.962000000000e+01 0.0 
0.0 -1.962000000000e+01 0.0 
0.0 -1.962000000000e+01 0.0 
0.0 -1.962000000000e+01 0.0 
0.0 -1.962000000000e+01 0.0 
0.0 -1.962000000000e+01 0.0 
0.0 -1.962000000000e+01 0.0 
0.0 -1.962000000000e+01 0.0 
0.0 -1.962000000000e+01 0.0 
0.0 -1.962000000000e+01 0.0 
0.0 -1.962000000000e+01 0.0 
0.0 -1.962000000000e+01 0.0 
0.0 -1.962000000000e+01 0.0 
0.0 -1.962000000000e+01 0.0 
0.0 -1.962000000000e+01 0.0 
0.0 -1.962000000000e+01 0.0 
0.0 -1.962000000000e+01 0.0 
0.0 -1.962000000000e+01 0.0 
0.0 -1.962000000000e+01 0.0 
0.0 -1.962000000000e+01 0.0 
0.0 -1.962000000000e+01 0.0 
0.0 -1.962000000000e+01 0.0 
0.0 -1.962000000000e+01 0.0 
0.0 -1.962000000000e+01 0.0 
0.0 -1.962000000000e+01 0.0 
0.0 -1.962000000000e+01 0.0 
0.0 -1.962000000000e+01 0.0 
0.0 -1.962000000000e+01 0.0 
0.0 -1.962000000000e+01 0.0 
0.0 -1.962000000000e+01 0.0 
0.0 -1.962000000000e+01 0.0 
0.0 -1.962000000000e+01 0.0 
0.0 -1.962000000000e+01 0.0 
0.0 -1.962000000000e+01 0.0 
0.0 -1.962000000000e+01 0.0 
0.0 -1.962000000000e+01 0.0 
0.0 -1.962000000000e+01 0.0 
0.0 -1.962000000000e+01 0.0 
0.0 -1.962000000000e+01 0.0 
0.0 -1.962000000000e+01 0.0 
0.0 -1.962000000000e+01 0.0 
0.0 -1.962000000000e+01 0.0 
0.0 -1.962000000000e+01 0.0 
0.0 -1.962000000000e+01 0.0 
0.0 -1.962000000000e+01 0.0 
0.0 -1.962000000000e+01 0.0 
0.0 -1.962000000000e+01 0.0 
0.0 -1.962000000000e+01 0.0 
0.0 -1.962000000000e+01 0.0 
0.0 -1.962000000000e+01 0.0 
0.0 -1.962000000000e+01 0.0 
0.0 -1.962000000000e+01 0.0 
0.0 -1.962000000000e+01 0.0 
0.0 -1.962000000000e+01 0.0 
0.0 -1.962000000000e+01 0.0 
0.0 -1.962000000000e+01 0.0 
0.0 -1.962000000000e+01 0.0 
0.0 -1.962000000000e+01 0.0 
0.0 -1.962000000000e+01 0.0 
0.0 -1.962000000000e+01 0.0 
0.0 -1.962000000000e+01 0.0 
0.0 -1.962000000000e+01 0.0 
0.0 -1.962000000000e+01 0.0 
0.0 -1.962000000000e+01 0.0 
0.0 -1.962000000000e+01 0.0 
0.0 -1.962000000000e+01 0.0 
0.0 -1.962000000000e+01 0.0 
0.0 -1.962000000000e+01 0.0 
0.0 -1.962000000000e+01 0.0 
0.0 -1.962000000000e+01 0.0 
0.0 -1.962000000000e+01 0.0 
0.0 -1.962000000000e+01 0.0 
0.0 -1.962000000000e+01 0.0 
0.0 -1.962000000000e+01 0.0 
0.0 -1.962000000000e+01 0.0 
0.0 -1.962000000000e+01 0.0 
0.0 -1.962000000000e+01 0.0 
0.0 -1.962000000000e+01 0.0 
0.0 -1.962000000000e+01 0.0 
0.0 -1.962000000000e+01 0.0 
0.0 -1.962000000000e+01 0.0 
0.0 -1.962000000000e+01 0.0 
0.0 -1.962000000000e+01 0.0 
0.0 -1.962000000000e+01 0.0 
0.0 -1.962000000000e+01 0.0 
0.0 -1.962000000000e+01 0.0 
0.0 -1.962000000000e+01 0.0 
0.0 -1.962000000000e+01 0.0 
0.0 -1.962000000000e+01 0.0 
0.0 -1.962000000000e+01 0.0 
0.0 -1.962000000000e+01 0.0 
0.0 -1.962000000000e+01 0.0 
0.0 -1.962000000000e+01 0.0 
0.0 -1.962000000000e+01 0.0 
0.0 -1.962000000000e+01 0.0 
0.0 -1.962000000000e+01 0.0 
0.0 -1.962000000000e+01 0.0 
0.0 -1.962000000000e+01 0.0 
0.0 -1.962000000000e+01 0.0 
0.0 -1.962000000000e+01 0.0 
0.0 -1.962000000000e+01 0.0 
0.0 -1.962000000000e+01 0.0 
0.0 -1.962000000000e+01 0.0 
0.0 -1.962000000000e+01 0.0 
0.0 -1.962000000000e+01 0.0 
0.0 -1.962000000000e+01 0.0 
0.0 -1.962000000000e+01 0.0 
0.0 -1.962000000000e+01 0.0 
0.0 -1.962000000000e+01 0.0 
0.0 -1.962000000000e+01 0.0 
0.0 -1.962000000000e+01 0.0 
0.0 -1.962000000000e+01 0.0 
0.0 -1.962000000000e+01 0.0 
0.0 -1.962000000000e+01 0.0 
0.0 -1.962000000000e+01 0.0 
0.0 -1.962000000000e+01 0.0 
0.0 -1.962000000000e+01 0.0 
0.0 -1.962000000000e+01 0.0 
0.0 -1.962000000000e+01 0.0 
0.0 -1.962000000000e+01 0.0 
0.0 -1.962000000000e+01 0.0 
0.0 -1.962000000000e+01 0.0 
0.0 -1.962000000000e+01 0.0 
0.0 -1.962000000000e+01 0.0 
0.0 -1.962000000000e+01 0.0 
0.0 -1.962000000000e+01 0.0 
0.0 -1.962000000000e+01 0.0 
0.0 -1.962000000000e+01 0.0 
0.0 -1.962000000000e+01 0.0 
0.0 -1.962000000000e+01 0.0 
0.0 -1.962000000000e+01 0.0 
0.0 -1.962000000000e+01 0.0 
0.0 -1.962000000000e+01 0.0 
0.0 -1.962000000000e+01 0.0 
0.0 -1.962000000000e+01 0.0 
0.0 -1.962000000000e+01 0.0 
0.0 -1.962000000000e+01 0.0 
0.0 -1.962000000000e+01 0.0 
0.0 -1.962000000000e+01 0.0 
0.0 -1.962000000000e+01 0.0 
0.0 -1.962000000000e+01 0.0 
0.0 -1.962000000000e+01 0.0 
0.0 -1.962000000000e+01 0.0 
0.0 -1.962000000000e+01 0.0 
0.0 -1.962000000000e+01 0.0 
0.0 -1.962000000000e+01 0.0 
0.0 -1.962000000000e+01 0.0 
0.0 -1.962000000000e+01 0.0 
0.0 -1.962000000000e+01 0.0 
0.0 -1.962000000000e+01 0.0 
0.0 -1.962000000000e+01 0.0 
0.0 -1.962000000000e+01 0.0 
0.0 -1.962000000000e+01 0.0 
0.0 -1.962000000000e+01 0.0 
0.0 -1.962000000000e+01 0.0 
0.0 -1.962000000000e+01 0.0 
0.0 -1.962000000000e+01 0.0 
0.0 -1.962000000000e+01 0.0 
0.0 -1.962000000000e+01 0.0 
0.0 -1.962000000000e+01 0.0 
0.0 -1.962000000000e+01 0.0 
0.0 -1.962000000000e+01 0.0 
0.0 -1.962000000000e+01 0.0 
0.0 -1.962000000000e+01 0.0 
0.0 -1.962000000000e+01 0.0 
0.0 -1.962000000000e+01 0.0 
0.0 -1.962000000000e+01 0.0 
0.0 -1.962000000000e+01 0.0 
0.0 -1.962000000000e+01 0.0 
0.0 -1.962000000000e+01 0.0 
0.0 -1.962000000000e+01 0.0 
0.0 -1.962000000000e+01 0.0 
0.0 -1.962000000000e+01 0.0 
0.0 -1.962000000000e+01 0.0 
0.0 -1.962000000000e+01 0.0 
0.0 -1.962000000000e+01 0.0 
0.0 -1.962000000000e+01 0.0 
0.0 -1.962000000000e+01 0.0 
0.0 -1.962000000000e+01 0.0 
0.0 -1.962000000000e+01 0.0 
0.0 -1.962000000000e+01 0.0 
0.0 -1.962000000000e+01 0.0 
0.0 -1.962000000000e+01 0.0 
0.0 -1.962000000000e+01 0.0 
0.0 -1.962000000000e+01 0.0 
0.0 -1.962000000000e+01 0.0 
0.0 -1.962000000000e+01 0.0 
0.0 -1.962000000000e+01 0.0 
0.0 -1.962000000000e+01 0.0 
0.0 -1.962000000000e+01 0.0 
0.0 -1.962000000000e+01 0.0 
0.0 -1.962000000000e+01 0.0 
0.0 -1.962000000000e+01 0.0 
0.0 -1.962000000000e+01 0.0 
0.0 -1.962000000000e+01 0.0 
0.0 -1.962000000000e+01 0.0 
0.0 -1.962000000000e+01 0.0 
0.0 -1.962000000000e+01 0.0 
0.0 -1.962000000000e+01 0.0 
0.0 -1.962000000000e+01 0.0 
0.0 -1.962000000000e+01 0.0 
0.0 -1.962000000000e+01 0.0 
0.0 -1.962000000000e+01 0.0 
0.0 -1.962000000000e+01 0.0 
0.0 -1.962000000000e+01 0.0 
0.0 -1.962000000000e+01 0.0 
0.0 -1.962000000000e+01 0.0 
0.0 -1.962000000000e+01 0.0 
0.0 -1.962000000000e+01 0.0 
0.0 -1.962000000000e+01 0.0 
0.0 -1.962000000000e+01 0.0 
0.0 -1.962000000000e+01 0.0 
0.0 -1.962000000000e+01 0.0 
0.0 -1.962000000000e+01 0.0 
0.0 -1.962000000000e+01 0.0 
0.0 -1.962000000000e+01 0.0 
0.0 -1.962000000000e+01 0.0 
0.0 -1.962000000000e+01 0.0 
0.0 -1.962000000000e+01 0.0 
0.0 -1.962000000000e+01 0.0 
0.0 -1.962000000000e+01 0.0 
0.0 -1.962000000000e+01 0.0 
0.0 -1.962000000000e+01 0.0 
0.0 -1.962000000000e+01 0.0 
0.0 -1.962000000000e+01 0.0 
0.0 -1.962000000000e+01 0.0 
0.0 -1.962000000000e+01 0.0 
0.0 -1.962000000000e+01 0.0 
0.0 -1.962000000000e+01 0.0 
0.0 -1.962000000000e+01 0.0 
0.0 -1.962000000000e+01 0.0 
0.0 -1.962000000000e+01 0.0 
0.0 -1.962000000000e+01 0.0 
0.0 -1.962000000000e+01 0.0 
0.0 -1.962000000000e+01 0.0 
0.0 -1.962000000000e+01 0.0 
0.0 -1.962000000000e+01 0.0 
0.0 -1.962000000000e+01 0.0 
0.0 -1.962000000000e+01 0.0 
0.0 -1.962000000000e+01 0.0 
0.0 -1.962000000000e+01 0.0 
0.0 -1.962000000000e+01 0.0 
0.0 -1.962000000000e+01 0.0 
0.0 -1.962000000000e+01 0.0 
0.0 -1.962000000000e+01 0.0 
0.0 -1.962000000000e+01 0.0 
0.0 -1.962000000000e+01 0.0 
0.0 -1.962000000000e+01 0.0 
0.0 -1.962000000000e+01 0.0 
0.0 -1.962000000000e+01 0.0 
0.0 -1.962000000000e+01 0.0 
0.0 -1.962000000000e+01 0.0 
0.0 -1.962000000000e+01 0.0 
0.0 -1.962000000000e+01 0.0 
0.0 -1.962000000000e+01 0.0 
0.0 -1.962000000000e+01 0.0 
0.0 -1.962000000000e+01 0.0 
0.0 -1.962000000000e+01 0.0 
0.0 -1.962000000000e+01 0.0 
0.0 -1.962000000000e+01 0.0 
0.0 -1.962000000000e+01 0.0 
0.0 -1.962000000000e+01 0.0 
0.0 -1.962000000000e+01 0.0 
0.0 -1.962000000000e+01 0.0 
0.0 -1.962000000000e+01 0.0 
0.0 -1.962000000000e+01 0.0 
0.0 -1.962000000000e+01 0.0 
0.0 -1.962000000000e+01 0.0 
0.0 -1.962000000000e+01 0.0 
0.0 -1.962000000000e+01 0.0 
0.0 -1.962000000000e+01 0.0 
0.0 -1.962000000000e+01 0.0 
0.0 -1.962000000000e+01 0.0 
0.0 -1.962000000000e+01 0.0 
0.0 -1.962000000000e+01 0.0 
0.0 -1.962000000000e+01 0.0 
0.0 -1.962000000000e+01 0.0 
0.0 -1.962000000000e+01 0.0 
0.0 -1.962000000000e+01 0.0 
0.0 -1.962000000000e+01 0.0 
0.0 -1.962000000000e+01 0.0 
0.0 -1.962000000000e+01 0.0 
0.0 -1.962000000000e+01 0.0 
0.0 -1.962000000000e+01 0.0 
0.0 -1.962000000000e+01 0.0 
0.0 -1.962000000000e+01 0.0 
0.0 -1.962000000000e+01 0.0 
0.0 -1.962000000000e+01 0.0 
0.0 -1.962000000000e+01 0.0 
0.0 -1.962000000000e+01 0.0 
0.0 -1.962000000000e+01 0.0 
0.0 -1.962000000000e+01 0.0 
0.0 -1.962000000000e+01 0.0 
0.0 -1.962000000000e+01 0.0 
0.0 -1.962000000000e+01 0.0 
0.0 -1.962000000000e+01 0.0 
0.0 -1.962000000000e+01 0.0 
0.0 -1.962000000000e+01 0.0 
0.0 -1.962000000000e+01 0.0 
0.0 -1.962000000000e+01 0.0 
0.0 -1.962000000000e+01 0.0 
0.0 -1.962000000000e+01 0.0 
0.0 -1.962000000000e+01 0.0 
0.0 -1.962000000000e+01 0.0 
0.0 -1.962000000000e+01 0.0 
0.0 -1.962000000000e+01 0.0 
0.0 -1.962000000000e+01 0.0 
0.0 -1.962000000000e+01 0.0 
0.0 -1.962000000000e+01 0.0 
0.0 -1.962000000000e+01 0.0 
0.0 -1.962000000000e+01 0.0 
0.0 -1.962000000000e+01 0.0 
0.0 -1.962000000000e+01 0.0 
0.0 -1.962000000000e+01 0.0 
0.0 -1.962000000000e+01 0.0 
0.0 -1.962000000000e+01 0.0 
0.0 -1.962000000000e+01 0.0 
0.0 -1.962000000000e+01 0.0 
0.0 -1.962000000000e+01 0.0 
0.0 -1.962000000000e+01 0.0 
0.0 -1.962000000000e+01 0.0 
0.0 -1.962000000000e+01 0.0 
0.0 -1.962000000000e+01 0.0 
0.0 -1.962000000000e+01 0.0 
0.0 -1.962000000000e+01 0.0 
0.0 -1.962000000000e+01 0.0 
0.0 -1.962000000000e+01 0.0 
0.0 -1.962000000000e+01 0.0 
0.0 -1.962000000000e+01 0.0 
0.0 -1.962000000000e+01 0.0 
0.0 -1.962000000000e+01 0.0 
0.0 -1.962000000000e+01 0.0 
0.0 -1.962000000000e+01 0.0 
0.0 -1.962000000000e+01 0.0 
0.0 -1.962000000000e+01 0.0 
0.0 -1.962000000000e+01 0.0 
0.0 -1.962000000000e+01 0.0 
0.0 -1.962000000000e+01 0.0 
0.0 -1.962000000000e+01 0.0 
0.0 -1.962000000000e+01 0.0 
0.0 -1.962000000000e+01 0.0 
0.0 -1.962000000000e+01 0.0 
0.0 -1.962000000000e+01 0.0 
0.0 -1.962000000000e+01 0.0 
0.0 -1.962000000000e+01 0.0 
0.0 -1.962000000000e+01 0.0 
0.0 -1.962000000000e+01 0.0 
0.0 -1.962000000000e+01 0.0 
0.0 -1.962000000000e+01 0.0 
0.0 -1.962000000000e+01 0.0 
0.0 -1.962000000000e+01 0.0 
0.0 -1.962000000000e+01 0.0 
0.0 -1.962000000000e+01 0.0 
0.0 -1.962000000000e+01 0.0 
0.0 -1.962000000000e+01 0.0 
0.0 -1.962000000000e+01 0.0 
0.0 -1.962000000000e+01 0.0 
0.0 -1.962000000000e+01 0.0 
0.0 -1.962000000000e+01 0.0 
0.0 -1.962000000000e+01 0.0 
0.0 -1.962000000000e+01 0.0 
0.0 -1.962000000000e+01 0.0 
0.0 -1.962000000000e+01 0.0 
0.0 -1.962000000000e+01 0.0 
0.0 -1.962000000000e+01 0.0 
0.0 -1.962000000000e+01 0.0 
0.0 -1.962000000000e+01 0.0 
0.0 -1.962000000000e+01 0.0 
0.0 -1.962000000000e+01 0.0 
0.0 -1.962000000000e+01 0.0 
0.0 -1.962000000000e+01 0.0 
0.0 -1.962000000000e+01 0.0 
0.0 -1.962000000000e+01 0.0 
0.0 -1.962000000000e+01 0.0 
0.0 -1.962000000000e+01 0.0 
0.0 -1.962000000000e+01 0.0 
0.0 -1.962000000000e+01 0.0 
0.0 -1.962000000000e+01 0.0 
0.0 -1.962000000000e+01 0.0 
0.0 -1.962000000000e+01 0.0 
0.0 -1.962000000000e+01 0.0 
0.0 -1.962000000000e+01 0.0 
0.0 -1.962000000000e+01 0.0 
0.0 -1.962000000000e+01 0.0 
0.0 -1.962000000000e+01 0.0 
0.0 -1.962000000000e+01 0.0 
0.0 -1.962000000000e+01 0.0 
0.0 -1.962000000000e+01 0.0 
0.0 -1.962000000000e+01 0.0 
0.0 -1.962000000000e+01 0.0 
0.0 -1.962000000000e+01 0.0 
0.0 -1.962000000000e+01 0.0 
0.0 -1.962000000000e+01 0.0 
0.0 -1.962000000000e+01 0.0 
0.0 -1.962000000000e+01 0.0 
0.0 -1.962000000000e+01 0.0 
0.0 -1.962000000000e+01 0.0 
0.0 -1.962000000000e+01 0.0 
0.0 -1.962000000000e+01 0.0 
0.0 -1.962000000000e+01 0.0 
0.0 -1.962000000000e+01 0.0 
0.0 -1.962000000000e+01 0.0 
0.0 -1.962000000000e+01 0.0 
0.0 -1.962000000000e+01 0.0 
0.0 -1.962000000000e+01 0.0 
0.0 -1.962000000000e+01 0.0 
0.0 -1.962000000000e+01 0.0 
0.0 -1.962000000000e+01 0.0 
0.0 -1.962000000000e+01 0.0 
0.0 -1.962000000000e+01 0.0 
0.0 -1.962000000000e+01 0.0 
0.0 -1.962000000000e+01 0.0 
0.0 -1.962000000000e+01 0.0 
0.0 -1.962000000000e+01 0.0 
0.0 -1.962000000000e+01 0.0 
0.0 -1.962000000000e+01 0.0 
0.0 -1.962000000000e+01 0.0 
0.0 -1.962000000000e+01 0.0 
0.0 -1.962000000000e+01 0.0 
0.0 -1.962000000000e+01 0.0 
0.0 -1.962000000000e+01 0.0 
0.0 -1.962000000000e+01 0.0 
0.0 -1.962000000000e+01 0.0 
0.0 -1.962000000000e+01 0.0 
0.0 -1.962000000000e+01 0.0 
0.0 -1.962000000000e+01 0.0 
0.0 -1.962000000000e+01 0.0 
0.0 -1.962000000000e+01 0.0 
0.0 -1.962000000000e+01 0.0 
0.0 -1.962000000000e+01 0.0 
0.0 -1.962000000000e+01 0.0 
0.0 -1.962000000000e+01 0.0 
0.0 -1.962000000000e+01 0.0 
0.0 -1.962000000000e+01 0.0 
0.0 -1.962000000000e+01 0.0 
0.0 -1.962000000000e+01 0.0 
0.0 -1.962000000000e+01 0.0 
0.0 -1.962000000000e+01 0.0 
0.0 -1.962000000000e+01 0.0 
0.0 -1.962000000000e+01 0.0 
0.0 -1.962000000000e+01 0.0 
0.0 -1.962000000000e+01 0.0 
0.0 -1.962000000000e+01 0.0 
0.0 -1.962000000000e+01 0.0 
0.0 -1.962000000000e+01 0.0 
0.0 -1.962000000000e+01 0.0 
0.0 -1.962000000000e+01 0.0 
0.0 -1.962000000000e+01 0.0 
0.0 -1.962000000000e+01 0.0 
0.0 -1.962000000000e+01 0.0 
0.0 -1.962000000000e+01 0.0 
0.0 -1.962000000000e+01 0.0 
0.0 -1.962000000000e+01 0.0 
0.0 -1.962000000000e+01 0.0 
0.0 -1.962000000000e+01 0.0 
0.0 -1.962000000000e+01 0.0 
0.0 -1.962000000000e+01 0.0 
0.0 -1.962000000000e+01 0.0 
0.0 -1.962000000000e+01 0.0 
0.0 -1.962000000000e+01 0.0 
0.0 -1.962000000000e+01 0.0 
0.0 -1.962000000000e+01 0.0 
0.0 -1.962000000000e+01 0.0 
0.0 -1.962000000000e+01 0.0 
0.0 -1.962000000000e+01 0.0 
0.0 -1.962000000000e+01 0.0 
0.0 -1.962000000000e+01 0.0 
0.0 -1.962000000000e+01 0.0 
0.0 -1.962000000000e+01 0.0 
0.0 -1.962000000000e+01 0.0 
0.0 -1.962000000000e+01 0.0 
0.0 -1.962000000000e+01 0.0 
0.0 -1.962000000000e+01 0.0 
0.0 -1.962000000000e+01 0.0 
0.0 -1.962000000000e+01 0.0 
0.0 -1.962000000000e+01 0.0 
0.0 -1.962000000000e+01 0.0 
0.0 -1.962000000000e+01 0.0 
0.0 -1.962000000000e+01 0.0 
0.0 -1.962000000000e+01 0.0 
0.0 -1.962000000000e+01 0.0 
0.0 -1.962000000000e+01 0.0 
0.0 -1.962000000000e+01 0.0 
0.0 -1.962000000000e+01 0.0 
0.0 -1.962000000000e+01 0.0 
0.0 -1.962000000000e+01 0.0 
0.0 -1.962000000000e+01 0.0 
0.0 -1.962000000000e+01 0.0 
0.0 -1.962000000000e+01 0.0 
0.0 -1.962000000000e+01 0.0 
0.0 -1.962000000000e+01 0.0 
0.0 -1.962000000000e+01 0.0 
0.0 -1.962000000000e+01 0.0 
0.0 -1.962000000000e+01 0.0 
0.0 -1.962000000000e+01 0.0 
0.0 -1.962000000000e+01 0.0 
0.0 -1.962000000000e+01 0.0 
0.0 -1.962000000000e+01 0.0 
0.0 -1.962000000000e+01 0.0 
0.0 -1.962000000000e+01 0.0 
0.0 -1.962000000000e+01 0.0 
0.0 -1.962000000000e+01 0.0 
0.0 -1.962000000000e+01 0.0 
0.0 -1.962000000000e+01 0.0 
0.0 -1.962000000000e+01 0.0 
0.0 -1.962000000000e+01 0.0 
0.0 -1.962000000000e+01 0.0 
0.0 -1.962000000000e+01 0.0 
0.0 -1.962000000000e+01 0.0 
0.0 -1.962000000000e+01 0.0 
0.0 -1.962000000000e+01 0.0 
0.0 -1.962000000000e+01 0.0 
0.0 -1.962000000000e+01 0.0 
0.0 -1.962000000000e+01 0.0 
0.0 -1.962000000000e+01 0.0 
0.0 -1.962000000000e+01 0.0 
0.0 -1.962000000000e+01 0.0 
0.0 -1.962000000000e+01 0.0 
0.0 -1.962000000000e+01 0.0 
0.0 -1.962000000000e+01 0.0 
0.0 -1.962000000000e+01 0.0 
0.0 -1.962000000000e+01 0.0 
0.0 -1.962000000000e+01 0.0 
0.0 -1.962000000000e+01 0.0 
0.0 -1.962000000000e+01 0.0 
0.0 -1.962000000000e+01 0.0 
0.0 -1.962000000000e+01 0.0 
0.0 -1.962000000000e+01 0.0 
0.0 -1.962000000000e+01 0.0 
0.0 -1.962000000000e+01 0.0 
0.0 -1.962000000000e+01 0.0 
0.0 -1.962000000000e+01 0.0 
0.0 -1.962000000000e+01 0.0 
0.0 -1.962000000000e+01 0.0 
0.0 -1.962000000000e+01 0.0 
0.0 -1.962000000000e+01 0.0 
0.0 -1.962000000000e+01 0.0 
0.0 -1.962000000000e+01 0.0 
0.0 -1.962000000000e+01 0.0 
0.0 -1.962000000000e+01 0.0 
0.0 -1.962000000000e+01 0.0 
0.0 -1.962000000000e+01 0.0 
0.0 -1.962000000000e+01 0.0 
0.0 -1.962000000000e+01 0.0 
0.0 -1.962000000000e+01 0.0 
0.0 -1.962000000000e+01 0.0 
0.0 -1.962000000000e+01 0.0 
0.0 -1.962000000000e+01 0.0 
0.0 -1.962000000000e+01 0.0 
0.0 -1.962000000000e+01 0.0 
0.0 -1.962000000000e+01 0.0 
0.0 -1.962000000000e+01 0.0 
0.0 -1.962000000000e+01 0.0 
0.0 -1.962000000000e+01 0.0 
0.0 -1.962000000000e+01 0.0 
0.0 -1.962000000000e+01 0.0 
0.0 -1.962000000000e+01 0.0 
0.0 -1.962000000000e+01 0.0 
0.0 -1.962000000000e+01 0.0 
0.0 -1.962000000000e+01 0.0 
0.0 -1.962000000000e+01 0.0 
0.0 -1.962000000000e+01 0.0 
0.0 -1.962000000000e+01 0.0 
0.0 -1.962000000000e+01 0.0 
0.0 -1.962000000000e+01 0.0 
0.0 -1.962000000000e+01 0.0 
0.0 -1.962000000000e+01 0.0 
0.0 -1.962000000000e+01 0.0 
0.0 -1.962000000000e+01 0.0 
0.0 -1.962000000000e+01 0.0 
0.0 -1.962000000000e+01 0.0 
0.0 -1.962000000000e+01 0.0 
0.0 -1.962000000000e+01 0.0 
0.0 -1.962000000000e+01 0.0 
0.0 -1.962000000000e+01 0.0 
0.0 -1.962000000000e+01 0.0 
0.0 -1.962000000000e+01 0.0 
0.0 -1.962000000000e+01 0.0 
0.0 -1.962000000000e+01 0.0 
0.0 -1.962000000000e+01 0.0 
0.0 -1.962000000000e+01 0.0 

VECTORS node_rhside_materi_fixed float
-1.666636660113e+00 0.0 0.0 
5.562967213704e+01 0.0 0.0 
-8.170504232474e+01 -1.953411237870e+02 0.0 
6.602701196413e+01 -1.581390068624e+02 0.0 
-7.540698063016e+00 0.0 0.0 
-1.556465838333e+01 0.0 0.0 
-2.211554752659e+01 0.0 0.0 
-3.041936996983e+01 0.0 0.0 
-3.765459967402e+01 0.0 0.0 
-4.520109026997e+01 0.0 0.0 
-5.279306722145e+01 0.0 0.0 
-6.043007014222e+01 0.0 0.0 
-6.816415319312e+01 0.0 0.0 
-7.595259176859e+01 0.0 0.0 
-8.434499848400e+01 0.0 0.0 
-9.279712181030e+01 0.0 0.0 
-1.009163864043e+02 0.0 0.0 
-1.098504294536e+02 0.0 0.0 
-1.187975873859e+02 0.0 0.0 
-1.279620751379e+02 0.0 0.0 
-1.373486977171e+02 0.0 0.0 
-1.469233538283e+02 0.0 0.0 
-1.570539512998e+02 0.0 0.0 
2.731067736122e-01 -3.152024461059e+02 0.0 
3.911211688750e-01 -3.163405827498e+02 0.0 
2.055246789538e+00 -3.155859647187e+02 0.0 
9.272049026378e-01 -3.157599091110e+02 0.0 
2.345956672866e+00 -3.164787376964e+02 0.0 
2.697046938893e+00 -3.159970881056e+02 0.0 
2.962616686124e+00 -3.166612367809e+02 0.0 
3.580897697152e+00 -3.172866839817e+02 0.0 
4.950678700620e+00 -3.169666247639e+02 0.0 
4.158911483805e+00 -3.175595255575e+02 0.0 
5.804112844011e+00 -3.188208315469e+02 0.0 
6.509070792213e+00 -3.187599383001e+02 0.0 
7.070113680535e+00 -3.201967625815e+02 0.0 
7.796201808052e+00 -3.208866226366e+02 0.0 
8.810412481681e+00 -3.219763155176e+02 0.0 
9.347949754446e+00 -3.237595630082e+02 0.0 
1.099365801819e+01 -3.252526785419e+02 0.0 
1.180635440235e+01 -3.272005731731e+02 0.0 
1.277997375946e+01 -3.292260528709e+02 0.0 
1.364050985735e+01 -3.312458053963e+02 0.0 
1.403774870704e+01 -3.338399891549e+02 0.0 
1.521055567729e+01 -3.369475511972e+02 0.0 
1.571213221458e+01 -3.397171221746e+02 0.0 
1.634412472888e+01 -3.428277299184e+02 0.0 
1.677540573401e+01 -3.463751604258e+02 0.0 
1.694240692382e+01 -3.495370297736e+02 0.0 
1.697043365832e+01 -3.527524661259e+02 0.0 
1.678410158589e+01 -3.562980646978e+02 0.0 
1.654871227308e+01 -3.598270517476e+02 0.0 
1.639758229492e+01 -3.628390466427e+02 0.0 
1.519047345910e+01 -3.656220919172e+02 0.0 
1.481598846552e+01 -3.692594043194e+02 0.0 
1.412163869495e+01 -3.715252063996e+02 0.0 
1.333980995940e+01 -3.742376325228e+02 0.0 
1.230963922387e+01 -3.764885272960e+02 0.0 
1.149520221339e+01 -3.784898333948e+02 0.0 
1.049432766644e+01 -3.805143187648e+02 0.0 
9.498293517506e+00 -3.821148302564e+02 0.0 
8.623229802655e+00 -3.835843715639e+02 0.0 
7.729770791206e+00 -3.852173302131e+02 0.0 
6.950387036799e+00 -3.861013833503e+02 0.0 
6.005730698403e+00 -3.869772070809e+02 0.0 
5.151284195961e+00 -3.875902770961e+02 0.0 
4.457648561085e+00 -3.890349660431e+02 0.0 
3.450562634984e+00 -3.888007115125e+02 0.0 
2.741153477456e+00 -3.898907966007e+02 0.0 
2.357349971288e+00 -3.897001580054e+02 0.0 
1.371822268341e+00 -3.901355961670e+02 0.0 
6.549061190577e-01 -3.901500718433e+02 0.0 
6.362354600486e+01 0.0 0.0 
7.227593487588e+01 0.0 0.0 
8.041672219027e+01 0.0 0.0 
8.834366268725e+01 0.0 0.0 
9.628980756324e+01 0.0 0.0 
1.044842072537e+02 0.0 0.0 
1.121572056671e+02 0.0 0.0 
1.194289379405e+02 0.0 0.0 
1.278799776950e+02 0.0 0.0 
0.0 0.0 0.0 
0.0 0.0 0.0 
0.0 0.0 0.0 
0.0 0.0 0.0 
0.0 0.0 0.0 
0.0 0.0 0.0 
0.0 0.0 0.0 
0.0 0.0 0.0 
0.0 0.0 0.0 
0.0 0.0 0.0 
0.0 0.0 0.0 
4.289365734327e+00 0.0 0.0 
1.394955679640e+01 0.0 0.0 
2.212437052630e+01 0.0 0.0 
3.052707259401e+01 0.0 0.0 
3.897375737871e+01 0.0 0.0 
4.739774994185e+01 0.0 0.0 
0.0 0.0 0.0 
0.0 0.0 0.0 
0.0 0.0 0.0 
0.0 0.0 0.0 
0.0 0.0 0.0 
0.0 0.0 0.0 
0.0 0.0 0.0 
0.0 0.0 0.0 
0.0 0.0 0.0 
0.0 0.0 0.0 
0.0 0.0 0.0 
0.0 0.0 0.0 
0.0 0.0 0.0 
0.0 0.0 0.0 
0.0 0.0 0.0 
0.0 0.0 0.0 
0.0 0.0 0.0 
0.0 0.0 0.0 
0.0 0.0 0.0 
0.0 0.0 0.0 
0.0 0.0 0.0 
0.0 0.0 0.0 
0.0 0.0 0.0 
0.0 0.0 0.0 
0.0 0.0 0.0 
0.0 0.0 0.0 
0.0 0.0 0.0 
0.0 0.0 0.0 
0.0 0.0 0.0 
0.0 0.0 0.0 
0.0 0.0 0.0 
0.0 0.0 0.0 
0.0 0.0 0.0 
0.0 0.0 0.0 
0.0 0.0 0.0 
0.0 0.0 0.0 
0.0 0.0 0.0 
0.0 0.0 0.0 
0.0 0.0 0.0 
0.0 0.0 0.0 
0.0 0.0 0.0 
0.0 0.0 0.0 
0.0 0.0 0.0 
0.0 0.0 0.0 
0.0 0.0 0.0 
0.0 0.0 0.0 
0.0 0.0 0.0 
0.0 0.0 0.0 
0.0 0.0 0.0 
0.0 0.0 0.0 
0.0 0.0 0.0 
0.0 0.0 0.0 
0.0 0.0 0.0 
0.0 0.0 0.0 
0.0 0.0 0.0 
0.0 0.0 0.0 
0.0 0.0 0.0 
0.0 0.0 0.0 
0.0 0.0 0.0 
0.0 0.0 0.0 
0.0 0.0 0.0 
0.0 0.0 0.0 
0.0 0.0 0.0 
0.0 0.0 0.0 
0.0 0.0 0.0 
0.0 0.0 0.0 
0.0 0.0 0.0 
0.0 0.0 0.0 
0.0 0.0 0.0 
0.0 0.0 0.0 
0.0 0.0 0.0 
0.0 0.0 0.0 
0.0 0.0 0.0 
0.0 0.0 0.0 
0.0 0.0 0.0 
0.0 0.0 0.0 
0.0 0.0 0.0 
0.0 0.0 0.0 
0.0 0.0 0.0 
0.0 0.0 0.0 
0.0 0.0 0.0 
0.0 0.0 0.0 
0.0 0.0 0.0 
0.0 0.0 0.0 
0.0 0.0 0.0 
0.0 0.0 0.0 
0.0 0.0 0.0 
0.0 0.0 0.0 
0.0 0.0 0.0 
0.0 0.0 0.0 
0.0 0.0 0.0 
0.0 0.0 0.0 
0.0 0.0 0.0 
0.0 0.0 0.0 
0.0 0.0 0.0 
0.0 0.0 0.0 
0.0 0.0 0.0 
0.0 0.0 0.0 
0.0 0.0 0.0 
0.0 0.0 0.0 
0.0 0.0 0.0 
0.0 0.0 0.0 
0.0 0.0 0.0 
0.0 0.0 0.0 
0.0 0.0 0.0 
0.0 0.0 0.0 
0.0 0.0 0.0 
0.0 0.0 0.0 
0.0 0.0 0.0 
0.0 0.0 0.0 
0.0 0.0 0.0 
0.0 0.0 0.0 
0.0 0.0 0.0 
0.0 0.0 0.0 
0.0 0.0 0.0 
0.0 0.0 0.0 
0.0 0.0 0.0 
0.0 0.0 0.0 
0.0 0.0 0.0 
0.0 0.0 0.0 
0.0 0.0 0.0 
0.0 0.0 0.0 
0.0 0.0 0.0 
0.0 0.0 0.0 
0.0 0.0 0.0 
0.0 0.0 0.0 
0.0 0.0 0.0 
0.0 0.0 0.0 
0.0 0.0 0.0 
0.0 0.0 0.0 
0.0 0.0 0.0 
0.0 0.0 0.0 
0.0 0.0 0.0 
0.0 0.0 0.0 
0.0 0.0 0.0 
0.0 0.0 0.0 
0.0 0.0 0.0 
0.0 0.0 0.0 
0.0 0.0 0.0 
0.0 0.0 0.0 
0.0 0.0 0.0 
0.0 0.0 0.0 
0.0 0.0 0.0 
0.0 0.0 0.0 
0.0 0.0 0.0 
0.0 0.0 0.0 
0.0 0.0 0.0 
0.0 0.0 0.0 
0.0 0.0 0.0 
0.0 0.0 0.0 
0.0 0.0 0.0 
0.0 0.0 0.0 
0.0 0.0 0.0 
0.0 0.0 0.0 
0.0 0.0 0.0 
0.0 0.0 0.0 
0.0 0.0 0.0 
0.0 0.0 0.0 
0.0 0.0 0.0 
0.0 0.0 0.0 
0.0 0.0 0.0 
0.0 0.0 0.0 
0.0 0.0 0.0 
0.0 0.0 0.0 
0.0 0.0 0.0 
0.0 0.0 0.0 
0.0 0.0 0.0 
0.0 0.0 0.0 
0.0 0.0 0.0 
0.0 0.0 0.0 
0.0 0.0 0.0 
0.0 0.0 0.0 
0.0 0.0 0.0 
0.0 0.0 0.0 
0.0 0.0 0.0 
0.0 0.0 0.0 
0.0 0.0 0.0 
0.0 0.0 0.0 
0.0 0.0 0.0 
0.0 0.0 0.0 
0.0 0.0 0.0 
0.0 0.0 0.0 
0.0 0.0 0.0 
0.0 0.0 0.0 
0.0 0.0 0.0 
0.0 0.0 0.0 
0.0 0.0 0.0 
0.0 0.0 0.0 
0.0 0.0 0.0 
0.0 0.0 0.0 
0.0 0.0 0.0 
0.0 0.0 0.0 
0.0 0.0 0.0 
0.0 0.0 0.0 
0.0 0.0 0.0 
0.0 0.0 0.0 
0.0 0.0 0.0 
0.0 0.0 0.0 
0.0 0.0 0.0 
0.0 0.0 0.0 
0.0 0.0 0.0 
0.0 0.0 0.0 
0.0 0.0 0.0 
0.0 0.0 0.0 
0.0 0.0 0.0 
0.0 0.0 0.0 
0.0 0.0 0.0 
0.0 0.0 0.0 
0.0 0.0 0.0 
0.0 0.0 0.0 
0.0 0.0 0.0 
0.0 0.0 0.0 
0.0 0.0 0.0 
0.0 0.0 0.0 
0.0 0.0 0.0 
0.0 0.0 0.0 
0.0 0.0 0.0 
0.0 0.0 0.0 
0.0 0.0 0.0 
0.0 0.0 0.0 
0.0 0.0 0.0 
0.0 0.0 0.0 
0.0 0.0 0.0 
0.0 0.0 0.0 
0.0 0.0 0.0 
0.0 0.0 0.0 
0.0 0.0 0.0 
0.0 0.0 0.0 
0.0 0.0 0.0 
0.0 0.0 0.0 
0.0 0.0 0.0 
0.0 0.0 0.0 
0.0 0.0 0.0 
0.0 0.0 0.0 
0.0 0.0 0.0 
0.0 0.0 0.0 
0.0 0.0 0.0 
0.0 0.0 0.0 
0.0 0.0 0.0 
0.0 0.0 0.0 
0.0 0.0 0.0 
0.0 0.0 0.0 
0.0 0.0 0.0 
0.0 0.0 0.0 
0.0 0.0 0.0 
0.0 0.0 0.0 
0.0 0.0 0.0 
0.0 0.0 0.0 
0.0 0.0 0.0 
0.0 0.0 0.0 
0.0 0.0 0.0 
0.0 0.0 0.0 
0.0 0.0 0.0 
0.0 0.0 0.0 
0.0 0.0 0.0 
0.0 0.0 0.0 
0.0 0.0 0.0 
0.0 0.0 0.0 
0.0 0.0 0.0 
0.0 0.0 0.0 
0.0 0.0 0.0 
0.0 0.0 0.0 
0.0 0.0 0.0 
0.0 0.0 0.0 
0.0 0.0 0.0 
0.0 0.0 0.0 
0.0 0.0 0.0 
0.0 0.0 0.0 
0.0 0.0 0.0 
0.0 0.0 0.0 
0.0 0.0 0.0 
0.0 0.0 0.0 
0.0 0.0 0.0 
0.0 0.0 0.0 
0.0 0.0 0.0 
0.0 0.0 0.0 
0.0 0.0 0.0 
0.0 0.0 0.0 
0.0 0.0 0.0 
0.0 0.0 0.0 
0.0 0.0 0.0 
0.0 0.0 0.0 
0.0 0.0 0.0 
0.0 0.0 0.0 
0.0 0.0 0.0 
0.0 0.0 0.0 
0.0 0.0 0.0 
0.0 0.0 0.0 
0.0 0.0 0.0 
0.0 0.0 0.0 
0.0 0.0 0.0 
0.0 0.0 0.0 
0.0 0.0 0.0 
0.0 0.0 0.0 
0.0 0.0 0.0 
0.0 0.0 0.0 
0.0 0.0 0.0 
0.0 0.0 0.0 
0.0 0.0 0.0 
0.0 0.0 0.0 
0.0 0.0 0.0 
0.0 0.0 0.0 
0.0 0.0 0.0 
0.0 0.0 0.0 
0.0 0.0 0.0 
0.0 0.0 0.0 
0.0 0.0 0.0 
0.0 0.0 0.0 
0.0 0.0 0.0 
0.0 0.0 0.0 
0.0 0.0 0.0 
0.0 0.0 0.0 
0.0 0.0 0.0 
0.0 0.0 0.0 
0.0 0.0 0.0 
0.0 0.0 0.0 
0.0 0.0 0.0 
0.0 0.0 0.0 
0.0 0.0 0.0 
0.0 0.0 0.0 
0.0 0.0 0.0 
0.0 0.0 0.0 
0.0 0.0 0.0 
0.0 0.0 0.0 
0.0 0.0 0.0 
0.0 0.0 0.0 
0.0 0.0 0.0 
0.0 0.0 0.0 
0.0 0.0 0.0 
0.0 0.0 0.0 
0.0 0.0 0.0 
0.0 0.0 0.0 
0.0 0.0 0.0 
0.0 0.0 0.0 
0.0 0.0 0.0 
0.0 0.0 0.0 
0.0 0.0 0.0 
0.0 0.0 0.0 
0.0 0.0 0.0 
0.0 0.0 0.0 
0.0 0.0 0.0 
0.0 0.0 0.0 
0.0 0.0 0.0 
0.0 0.0 0.0 
0.0 0.0 0.0 
0.0 0.0 0.0 
0.0 0.0 0.0 
0.0 0.0 0.0 
0.0 0.0 0.0 
0.0 0.0 0.0 
0.0 0.0 0.0 
0.0 0.0 0.0 
0.0 0.0 0.0 
0.0 0.0 0.0 
0.0 0.0 0.0 
0.0 0.0 0.0 
0.0 0.0 0.0 
0.0 0.0 0.0 
0.0 0.0 0.0 
0.0 0.0 0.0 
0.0 0.0 0.0 
0.0 0.0 0.0 
0.0 0.0 0.0 
0.0 0.0 0.0 
0.0 0.0 0.0 
0.0 0.0 0.0 
0.0 0.0 0.0 
0.0 0.0 0.0 
0.0 0.0 0.0 
0.0 0.0 0.0 
0.0 0.0 0.0 
0.0 0.0 0.0 
0.0 0.0 0.0 
0.0 0.0 0.0 
0.0 0.0 0.0 
0.0 0.0 0.0 
0.0 0.0 0.0 
0.0 0.0 0.0 
0.0 0.0 0.0 
0.0 0.0 0.0 
0.0 0.0 0.0 
0.0 0.0 0.0 
0.0 0.0 0.0 
0.0 0.0 0.0 
0.0 0.0 0.0 
0.0 0.0 0.0 
0.0 0.0 0.0 
0.0 0.0 0.0 
0.0 0.0 0.0 
0.0 0.0 0.0 
0.0 0.0 0.0 
0.0 0.0 0.0 
0.0 0.0 0.0 
0.0 0.0 0.0 
0.0 0.0 0.0 
0.0 0.0 0.0 
0.0 0.0 0.0 
0.0 0.0 0.0 
0.0 0.0 0.0 
0.0 0.0 0.0 
0.0 0.0 0.0 
0.0 0.0 0.0 
0.0 0.0 0.0 
0.0 0.0 0.0 
0.0 0.0 0.0 
0.0 0.0 0.0 
0.0 0.0 0.0 
0.0 0.0 0.0 
0.0 0.0 0.0 
0.0 0.0 0.0 
0.0 0.0 0.0 
0.0 0.0 0.0 
0.0 0.0 0.0 
0.0 0.0 0.0 
0.0 0.0 0.0 
0.0 0.0 0.0 
0.0 0.0 0.0 
0.0 0.0 0.0 
0.0 0.0 0.0 
0.0 0.0 0.0 
0.0 0.0 0.0 
0.0 0.0 0.0 
0.0 0.0 0.0 
0.0 0.0 0.0 
0.0 0.0 0.0 
0.0 0.0 0.0 
0.0 0.0 0.0 
0.0 0.0 0.0 
0.0 0.0 0.0 
0.0 0.0 0.0 
0.0 0.0 0.0 
0.0 0.0 0.0 
0.0 0.0 0.0 
0.0 0.0 0.0 
0.0 0.0 0.0 
0.0 0.0 0.0 
0.0 0.0 0.0 
0.0 0.0 0.0 
0.0 0.0 0.0 
0.0 0.0 0.0 
0.0 0.0 0.0 
0.0 0.0 0.0 
0.0 0.0 0.0 
0.0 0.0 0.0 
0.0 0.0 0.0 
0.0 0.0 0.0 
0.0 0.0 0.0 
0.0 0.0 0.0 
0.0 0.0 0.0 
0.0 0.0 0.0 
0.0 0.0 0.0 
0.0 0.0 0.0 
0.0 0.0 0.0 
0.0 0.0 0.0 
0.0 0.0 0.0 
0.0 0.0 0.0 
0.0 0.0 0.0 
0.0 0.0 0.0 
0.0 0.0 0.0 
0.0 0.0 0.0 
0.0 0.0 0.0 
0.0 0.0 0.0 
0.0 0.0 0.0 
0.0 0.0 0.0 
0.0 0.0 0.0 
0.0 0.0 0.0 
0.0 0.0 0.0 
0.0 0.0 0.0 
0.0 0.0 0.0 
0.0 0.0 0.0 
0.0 0.0 0.0 
0.0 0.0 0.0 
0.0 0.0 0.0 
0.0 0.0 0.0 
0.0 0.0 0.0 
0.0 0.0 0.0 
0.0 0.0 0.0 
0.0 0.0 0.0 
0.0 0.0 0.0 
0.0 0.0 0.0 
0.0 0.0 0.0 
0.0 0.0 0.0 
0.0 0.0 0.0 
0.0 0.0 0.0 
0.0 0.0 0.0 
0.0 0.0 0.0 
0.0 0.0 0.0 
0.0 0.0 0.0 
0.0 0.0 0.0 
0.0 0.0 0.0 
0.0 0.0 0.0 
0.0 0.0 0.0 
0.0 0.0 0.0 
0.0 0.0 0.0 
0.0 0.0 0.0 
0.0 0.0 0.0 
0.0 0.0 0.0 
0.0 0.0 0.0 
0.0 0.0 0.0 
0.0 0.0 0.0 
0.0 0.0 0.0 
0.0 0.0 0.0 
0.0 0.0 0.0 
0.0 0.0 0.0 
0.0 0.0 0.0 
0.0 0.0 0.0 
0.0 0.0 0.0 
0.0 0.0 0.0 
0.0 0.0 0.0 
0.0 0.0 0.0 
0.0 0.0 0.0 
0.0 0.0 0.0 
0.0 0.0 0.0 
0.0 0.0 0.0 
0.0 0.0 0.0 
0.0 0.0 0.0 
0.0 0.0 0.0 
0.0 0.0 0.0 
0.0 0.0 0.0 
0.0 0.0 0.0 
0.0 0.0 0.0 
0.0 0.0 0.0 
0.0 0.0 0.0 
0.0 0.0 0.0 
0.0 0.0 0.0 
0.0 0.0 0.0 
0.0 0.0 0.0 
0.0 0.0 0.0 
0.0 0.0 0.0 
0.0 0.0 0.0 
0.0 0.0 0.0 
0.0 0.0 0.0 
0.0 0.0 0.0 
0.0 0.0 0.0 
0.0 0.0 0.0 
0.0 0.0 0.0 
0.0 0.0 0.0 
0.0 0.0 0.0 
0.0 0.0 0.0 
0.0 0.0 0.0 
0.0 0.0 0.0 
0.0 0.0 0.0 
0.0 0.0 0.0 
0.0 0.0 0.0 
0.0 0.0 0.0 
0.0 0.0 0.0 
0.0 0.0 0.0 
0.0 0.0 0.0 
0.0 0.0 0.0 
0.0 0.0 0.0 
0.0 0.0 0.0 
0.0 0.0 0.0 
0.0 0.0 0.0 
0.0 0.0 0.0 
0.0 0.0 0.0 
0.0 0.0 0.0 
0.0 0.0 0.0 
0.0 0.0 0.0 
0.0 0.0 0.0 
0.0 0.0 0.0 
0.0 0.0 0.0 
0.0 0.0 0.0 
0.0 0.0 0.0 
0.0 0.0 0.0 
0.0 0.0 0.0 
0.0 0.0 0.0 
0.0 0.0 0.0 
0.0 0.0 0.0 
0.0 0.0 0.0 
0.0 0.0 0.0 
0.0 0.0 0.0 
0.0 0.0 0.0 
0.0 0.0 0.0 
0.0 0.0 0.0 
0.0 0.0 0.0 
0.0 0.0 0.0 
0.0 0.0 0.0 
0.0 0.0 0.0 
0.0 0.0 0.0 
0.0 0.0 0.0 
0.0 0.0 0.0 
0.0 0.0 0.0 
0.0 0.0 0.0 
0.0 0.0 0.0 
0.0 0.0 0.0 
0.0 0.0 0.0 
0.0 0.0 0.0 
0.0 0.0 0.0 
0.0 0.0 0.0 
0.0 0.0 0.0 
0.0 0.0 0.0 
0.0 0.0 0.0 
0.0 0.0 0.0 
0.0 0.0 0.0 
0.0 0.0 0.0 
0.0 0.0 0.0 
0.0 0.0 0.0 
0.0 0.0 0.0 
0.0 0.0 0.0 
0.0 0.0 0.0 
0.0 0.0 0.0 
0.0 0.0 0.0 
0.0 0.0 0.0 
0.0 0.0 0.0 
0.0 0.0 0.0 
0.0 0.0 0.0 
0.0 0.0 0.0 
0.0 0.0 0.0 
0.0 0.0 0.0 
0.0 0.0 0.0 
0.0 0.0 0.0 
0.0 0.0 0.0 
0.0 0.0 0.0 
0.0 0.0 0.0 
0.0 0.0 0.0 
0.0 0.0 0.0 
0.0 0.0 0.0 
0.0 0.0 0.0 
0.0 0.0 0.0 
0.0 0.0 0.0 
0.0 0.0 0.0 
0.0 0.0 0.0 
0.0 0.0 0.0 
0.0 0.0 0.0 
0.0 0.0 0.0 
0.0 0.0 0.0 
0.0 0.0 0.0 
0.0 0.0 0.0 
0.0 0.0 0.0 
0.0 0.0 0.0 
0.0 0.0 0.0 
0.0 0.0 0.0 
0.0 0.0 0.0 
0.0 0.0 0.0 
0.0 0.0 0.0 
0.0 0.0 0.0 
0.0 0.0 0.0 
0.0 0.0 0.0 
0.0 0.0 0.0 
0.0 0.0 0.0 
0.0 0.0 0.0 
0.0 0.0 0.0 
0.0 0.0 0.0 
0.0 0.0 0.0 
0.0 0.0 0.0 
0.0 0.0 0.0 
0.0 0.0 0.0 
0.0 0.0 0.0 
0.0 0.0 0.0 
0.0 0.0 0.0 
0.0 0.0 0.0 
0.0 0.0 0.0 
0.0 0.0 0.0 
0.0 0.0 0.0 
0.0 0.0 0.0 
0.0 0.0 0.0 
0.0 0.0 0.0 
0.0 0.0 0.0 
0.0 0.0 0.0 
0.0 0.0 0.0 
0.0 0.0 0.0 
0.0 0.0 0.0 
0.0 0.0 0.0 
0.0 0.0 0.0 
0.0 0.0 0.0 
0.0 0.0 0.0 
0.0 0.0 0.0 
0.0 0.0 0.0 
0.0 0.0 0.0 
0.0 0.0 0.0 
0.0 0.0 0.0 
0.0 0.0 0.0 
0.0 0.0 0.0 
0.0 0.0 0.0 
0.0 0.0 0.0 
0.0 0.0 0.0 
0.0 0.0 0.0 
0.0 0.0 0.0 
0.0 0.0 0.0 
0.0 0.0 0.0 
0.0 0.0 0.0 
0.0 0.0 0.0 
0.0 0.0 0.0 
0.0 0.0 0.0 
0.0 0.0 0.0 
0.0 0.0 0.0 
0.0 0.0 0.0 
0.0 0.0 0.0 
0.0 0.0 0.0 
0.0 0.0 0.0 
0.0 0.0 0.0 
0.0 0.0 0.0 
0.0 0.0 0.0 
0.0 0.0 0.0 
0.0 0.0 0.0 
0.0 0.0 0.0 
0.0 0.0 0.0 
0.0 0.0 0.0 
0.0 0.0 0.0 
0.0 0.0 0.0 
0.0 0.0 0.0 
0.0 0.0 0.0 
0.0 0.0 0.0 
0.0 0.0 0.0 
0.0 0.0 0.0 
0.0 0.0 0.0 
0.0 0.0 0.0 
0.0 0.0 0.0 
0.0 0.0 0.0 
0.0 0.0 0.0 
0.0 0.0 0.0 
0.0 0.0 0.0 
0.0 0.0 0.0 
0.0 0.0 0.0 
0.0 0.0 0.0 
0.0 0.0 0.0 
0.0 0.0 0.0 
0.0 0.0 0.0 
0.0 0.0 0.0 
0.0 0.0 0.0 
0.0 0.0 0.0 
0.0 0.0 0.0 
0.0 0.0 0.0 
0.0 0.0 0.0 
0.0 0.0 0.0 
0.0 0.0 0.0 
0.0 0.0 0.0 
0.0 0.0 0.0 
0.0 0.0 0.0 
0.0 0.0 0.0 
0.0 0.0 0.0 
0.0 0.0 0.0 
0.0 0.0 0.0 
0.0 0.0 0.0 
0.0 0.0 0.0 
0.0 0.0 0.0 
0.0 0.0 0.0 
0.0 0.0 0.0 
0.0 0.0 0.0 
0.0 0.0 0.0 
0.0 0.0 0.0 
0.0 0.0 0.0 
0.0 0.0 0.0 
0.0 0.0 0.0 
0.0 0.0 0.0 
0.0 0.0 0.0 
0.0 0.0 0.0 
0.0 0.0 0.0 
0.0 0.0 0.0 
0.0 0.0 0.0 
0.0 0.0 0.0 
0.0 0.0 0.0 
0.0 0.0 0.0 
0.0 0.0 0.0 
0.0 0.0 0.0 
0.0 0.0 0.0 
0.0 0.0 0.0 
0.0 0.0 0.0 
0.0 0.0 0.0 
0.0 0.0 0.0 
0.0 0.0 0.0 
0.0 0.0 0.0 
0.0 0.0 0.0 
0.0 0.0 0.0 
0.0 0.0 0.0 
0.0 0.0 0.0 
0.0 0.0 0.0 
0.0 0.0 0.0 
0.0 0.0 0.0 
0.0 0.0 0.0 
0.0 0.0 0.0 
0.0 0.0 0.0 
0.0 0.0 0.0 
0.0 0.0 0.0 
0.0 0.0 0.0 
0.0 0.0 0.0 
0.0 0.0 0.0 
0.0 0.0 0.0 
0.0 0.0 0.0 
0.0 0.0 0.0 
0.0 0.0 0.0 
0.0 0.0 0.0 
0.0 0.0 0.0 
0.0 0.0 0.0 
0.0 0.0 0.0 
0.0 0.0 0.0 
0.0 0.0 0.0 
0.0 0.0 0.0 
0.0 0.0 0.0 
0.0 0.0 0.0 
0.0 0.0 0.0 
0.0 0.0 0.0 
0.0 0.0 0.0 
0.0 0.0 0.0 
0.0 0.0 0.0 
0.0 0.0 0.0 
0.0 0.0 0.0 
0.0 0.0 0.0 
0.0 0.0 0.0 
0.0 0.0 0.0 
0.0 0.0 0.0 
0.0 0.0 0.0 
0.0 0.0 0.0 
0.0 0.0 0.0 
0.0 0.0 0.0 
0.0 0.0 0.0 
0.0 0.0 0.0 
0.0 0.0 0.0 
0.0 0.0 0.0 
0.0 0.0 0.0 
0.0 0.0 0.0 
0.0 0.0 0.0 
0.0 0.0 0.0 
0.0 0.0 0.0 
0.0 0.0 0.0 
0.0 0.0 0.0 
0.0 0.0 0.0 
0.0 0.0 0.0 
0.0 0.0 0.0 
0.0 0.0 0.0 
0.0 0.0 0.0 
0.0 0.0 0.0 
0.0 0.0 0.0 
0.0 0.0 0.0 
0.0 0.0 0.0 
0.0 0.0 0.0 
0.0 0.0 0.0 
0.0 0.0 0.0 
0.0 0.0 0.0 
0.0 0.0 0.0 
0.0 0.0 0.0 
0.0 0.0 0.0 
0.0 0.0 0.0 
0.0 0.0 0.0 
0.0 0.0 0.0 
0.0 0.0 0.0 
0.0 0.0 0.0 
0.0 0.0 0.0 
0.0 0.0 0.0 
0.0 0.0 0.0 
0.0 0.0 0.0 
0.0 0.0 0.0 
0.0 0.0 0.0 
0.0 0.0 0.0 
0.0 0.0 0.0 
0.0 0.0 0.0 
0.0 0.0 0.0 
0.0 0.0 0.0 
0.0 0.0 0.0 
0.0 0.0 0.0 
0.0 0.0 0.0 
0.0 0.0 0.0 
0.0 0.0 0.0 
0.0 0.0 0.0 
0.0 0.0 0.0 
0.0 0.0 0.0 
0.0 0.0 0.0 
0.0 0.0 0.0 
0.0 0.0 0.0 
0.0 0.0 0.0 
0.0 0.0 0.0 
0.0 0.0 0.0 
0.0 0.0 0.0 
0.0 0.0 0.0 
0.0 0.0 0.0 
0.0 0.0 0.0 
0.0 0.0 0.0 
0.0 0.0 0.0 
0.0 0.0 0.0 
0.0 0.0 0.0 
0.0 0.0 0.0 
0.0 0.0 0.0 
0.0 0.0 0.0 
0.0 0.0 0.0 
0.0 0.0 0.0 
0.0 0.0 0.0 
0.0 0.0 0.0 
0.0 0.0 0.0 
0.0 0.0 0.0 
0.0 0.0 0.0 
0.0 0.0 0.0 
0.0 0.0 0.0 
0.0 0.0 0.0 
0.0 0.0 0.0 
0.0 0.0 0.0 
0.0 0.0 0.0 
0.0 0.0 0.0 
0.0 0.0 0.0 
0.0 0.0 0.0 
0.0 0.0 0.0 
0.0 0.0 0.0 
0.0 0.0 0.0 
0.0 0.0 0.0 
0.0 0.0 0.0 
0.0 0.0 0.0 
0.0 0.0 0.0 
0.0 0.0 0.0 
0.0 0.0 0.0 
0.0 0.0 0.0 
0.0 0.0 0.0 
0.0 0.0 0.0 
0.0 0.0 0.0 
0.0 0.0 0.0 
0.0 0.0 0.0 
0.0 0.0 0.0 
0.0 0.0 0.0 
0.0 0.0 0.0 
0.0 0.0 0.0 
0.0 0.0 0.0 
0.0 0.0 0.0 
0.0 0.0 0.0 
0.0 0.0 0.0 
0.0 0.0 0.0 
0.0 0.0 0.0 
0.0 0.0 0.0 
0.0 0.0 0.0 
0.0 0.0 0.0 
0.0 0.0 0.0 
0.0 0.0 0.0 
0.0 0.0 0.0 
0.0 0.0 0.0 
0.0 0.0 0.0 
0.0 0.0 0.0 
0.0 0.0 0.0 
0.0 0.0 0.0 
0.0 0.0 0.0 
0.0 0.0 0.0 
0.0 0.0 0.0 
0.0 0.0 0.0 
0.0 0.0 0.0 
0.0 0.0 0.0 
0.0 0.0 0.0 
0.0 0.0 0.0 
0.0 0.0 0.0 
0.0 0.0 0.0 
0.0 0.0 0.0 
0.0 0.0 0.0 
0.0 0.0 0.0 
0.0 0.0 0.0 
0.0 0.0 0.0 
0.0 0.0 0.0 
0.0 0.0 0.0 
0.0 0.0 0.0 
0.0 0.0 0.0 
0.0 0.0 0.0 
0.0 0.0 0.0 
0.0 0.0 0.0 
0.0 0.0 0.0 
0.0 0.0 0.0 
0.0 0.0 0.0 
0.0 0.0 0.0 
0.0 0.0 0.0 
0.0 0.0 0.0 
0.0 0.0 0.0 
0.0 0.0 0.0 
0.0 0.0 0.0 
0.0 0.0 0.0 
0.0 0.0 0.0 
0.0 0.0 0.0 
0.0 0.0 0.0 
0.0 0.0 0.0 
0.0 0.0 0.0 
0.0 0.0 0.0 
0.0 0.0 0.0 
0.0 0.0 0.0 
0.0 0.0 0.0 
0.0 0.0 0.0 
0.0 0.0 0.0 
0.0 0.0 0.0 
0.0 0.0 0.0 
0.0 0.0 0.0 
0.0 0.0 0.0 
0.0 0.0 0.0 
0.0 0.0 0.0 
0.0 0.0 0.0 
0.0 0.0 0.0 
0.0 0.0 0.0 
0.0 0.0 0.0 
0.0 0.0 0.0 
0.0 0.0 0.0 
0.0 0.0 0.0 
0.0 0.0 0.0 
0.0 0.0 0.0 
0.0 0.0 0.0 
0.0 0.0 0.0 
0.0 0.0 0.0 
0.0 0.0 0.0 
0.0 0.0 0.0 
0.0 0.0 0.0 
0.0 0.0 0.0 
0.0 0.0 0.0 
0.0 0.0 0.0 
0.0 0.0 0.0 
0.0 0.0 0.0 
0.0 0.0 0.0 
0.0 0.0 0.0 
0.0 0.0 0.0 
0.0 0.0 0.0 
0.0 0.0 0.0 
0.0 0.0 0.0 
0.0 0.0 0.0 
0.0 0.0 0.0 
0.0 0.0 0.0 
0.0 0.0 0.0 
0.0 0.0 0.0 
0.0 0.0 0.0 
0.0 0.0 0.0 
0.0 0.0 0.0 
0.0 0.0 0.0 
0.0 0.0 0.0 
0.0 0.0 0.0 
0.0 0.0 0.0 
0.0 0.0 0.0 
0.0 0.0 0.0 
0.0 0.0 0.0 
0.0 0.0 0.0 
0.0 0.0 0.0 
0.0 0.0 0.0 
0.0 0.0 0.0 
0.0 0.0 0.0 
0.0 0.0 0.0 
0.0 0.0 0.0 
0.0 0.0 0.0 
0.0 0.0 0.0 
0.0 0.0 0.0 
0.0 0.0 0.0 
0.0 0.0 0.0 
0.0 0.0 0.0 
0.0 0.0 0.0 
0.0 0.0 0.0 
0.0 0.0 0.0 
0.0 0.0 0.0 
0.0 0.0 0.0 
0.0 0.0 0.0 
0.0 0.0 0.0 
0.0 0.0 0.0 
0.0 0.0 0.0 
0.0 0.0 0.0 
0.0 0.0 0.0 
0.0 0.0 0.0 
0.0 0.0 0.0 
0.0 0.0 0.0 
0.0 0.0 0.0 
0.0 0.0 0.0 
0.0 0.0 0.0 
0.0 0.0 0.0 
0.0 0.0 0.0 
0.0 0.0 0.0 
0.0 0.0 0.0 
0.0 0.0 0.0 
0.0 0.0 0.0 
0.0 0.0 0.0 
0.0 0.0 0.0 
0.0 0.0 0.0 
0.0 0.0 0.0 
0.0 0.0 0.0 
0.0 0.0 0.0 
0.0 0.0 0.0 
0.0 0.0 0.0 
0.0 0.0 0.0 
0.0 0.0 0.0 
0.0 0.0 0.0 
0.0 0.0 0.0 
0.0 0.0 0.0 
0.0 0.0 0.0 

VECTORS node_materi_velocity float
0.0 -1.010417669023e-04 0.0 
0.0 1.486399205537e-03 0.0 
0.0 0.0 0.0 
0.0 0.0 0.0 
0.0 -1.008308895625e-04 0.0 
0.0 -1.001108183751e-04 0.0 
0.0 -9.867046774058e-05 0.0 
0.0 -9.634488409958e-05 0.0 
0.0 -9.286823361893e-05 0.0 
0.0 -8.831688589990e-05 0.0 
0.0 -8.272511783746e-05 0.0 
0.0 -7.613265654872e-05 0.0 
0.0 -6.868644551121e-05 0.0 
0.0 -6.054829121933e-05 0.0 
0.0 -5.193719748869e-05 0.0 
0.0 -4.315987119281e-05 0.0 
0.0 -3.447548128018e-05 0.0 
0.0 -2.605775407593e-05 0.0 
0.0 -1.832635413050e-05 0.0 
0.0 -1.157079370324e-05 0.0 
0.0 -6.059261510342e-06 0.0 
0.0 -2.159923102544e-06 0.0 
0.0 -2.066753381092e-07 0.0 
0.0 0.0 0.0 
0.0 0.0 0.0 
0.0 0.0 0.0 
0.0 0.0 0.0 
0.0 0.0 0.0 
0.0 0.0 0.0 
0.0 0.0 0.0 
0.0 0.0 0.0 
0.0 0.0 0.0 
0.0 0.0 0.0 
0.0 0.0 0.0 
0.0 0.0 0.0 
0.0 0.0 0.0 
0.0 0.0 0.0 
0.0 0.0 0.0 
0.0 0.0 0.0 
0.0 0.0 0.0 
0.0 0.0 0.0 
0.0 0.0 0.0 
0.0 0.0 0.0 
0.0 0.0 0.0 
0.0 0.0 0.0 
0.0 0.0 0.0 
0.0 0.0 0.0 
0.0 0.0 0.0 
0.0 0.0 0.0 
0.0 0.0 0.0 
0.0 0.0 0.0 
0.0 0.0 0.0 
0.0 0.0 0.0 
0.0 0.0 0.0 
0.0 0.0 0.0 
0.0 0.0 0.0 
0.0 0.0 0.0 
0.0 0.0 0.0 
0.0 0.0 0.0 
0.0 0.0 0.0 
0.0 0.0 0.0 
0.0 0.0 0.0 
0.0 0.0 0.0 
0.0 0.0 0.0 
0.0 0.0 0.0 
0.0 0.0 0.0 
0.0 0.0 0.0 
0.0 0.0 0.0 
0.0 0.0 0.0 
0.0 0.0 0.0 
0.0 0.0 0.0 
0.0 0.0 0.0 
0.0 1.334344374836e-03 0.0 
0.0 1.182480942757e-03 0.0 
0.0 1.031027700171e-03 0.0 
0.0 8.801299271831e-04 0.0 
0.0 7.300835240806e-04 0.0 
0.0 5.810686564046e-04 0.0 
0.0 4.333415443601e-04 0.0 
0.0 2.871330342576e-04 0.0 
0.0 1.426835419254e-04 0.0 
-2.283396928538e-04 3.067190075032e-04 0.0 
2.654317683277e-04 1.431874363755e-03 0.0 
-2.001902639063e-04 4.221837005596e-04 0.0 
-1.809964927425e-04 5.916515361340e-04 0.0 
-1.314677891609e-04 8.694176766598e-04 0.0 
-2.373228421948e-05 1.375191316756e-03 0.0 
1.413424088941e-04 1.618315957540e-03 0.0 
2.339305725998e-04 1.691255846632e-03 0.0 
2.774238786239e-04 1.685849024837e-03 0.0 
2.912117025139e-04 1.631080177998e-03 0.0 
2.851136624294e-04 1.542943103782e-03 0.0 
0.0 2.401667516727e-03 0.0 
0.0 2.246827457979e-03 0.0 
0.0 2.094699283819e-03 0.0 
0.0 1.942676622525e-03 0.0 
0.0 1.790641222606e-03 0.0 
0.0 1.638526949833e-03 0.0 
1.497267468396e-05 1.486518270471e-03 0.0 
3.003615537721e-05 1.486865217676e-03 0.0 
4.521518548532e-05 1.487389434085e-03 0.0 
6.057393543358e-05 1.488062364860e-03 0.0 
7.618658119440e-05 1.488713924888e-03 0.0 
9.205024067874e-05 1.489215219869e-03 0.0 
1.083512651874e-04 1.489479385062e-03 0.0 
1.251049953559e-04 1.489089090113e-03 0.0 
1.424592292249e-04 1.487912637067e-03 0.0 
1.605301539355e-04 1.485478754742e-03 0.0 
1.793692136502e-04 1.481215522831e-03 0.0 
1.991606743624e-04 1.474515000366e-03 0.0 
2.199969320422e-04 1.464715223743e-03 0.0 
2.420088959463e-04 1.450818738221e-03 0.0 
-2.111877559710e-04 2.373882015346e-04 0.0 
-1.878856641747e-04 1.740257469028e-04 0.0 
-1.627555460696e-04 1.198088602280e-04 0.0 
-1.373625870736e-04 7.442450422415e-05 0.0 
-1.143225796337e-04 3.688692738216e-05 0.0 
-9.352350034093e-05 6.265267133311e-06 0.0 
-7.501182677361e-05 -1.848253592810e-05 0.0 
-5.892910334380e-05 -3.839760749253e-05 0.0 
-4.517111703268e-05 -5.416871455236e-05 0.0 
-3.368049634363e-05 -6.646819350458e-05 0.0 
-2.431985756132e-05 -7.615164548915e-05 0.0 
-1.676911204189e-05 -8.333386266984e-05 0.0 
-1.107954126146e-05 -8.883808000056e-05 0.0 
-6.698395013820e-06 -9.292491494621e-05 0.0 
-3.619931034024e-06 -9.596162360947e-05 0.0 
-1.635837933830e-06 -9.805180127664e-05 0.0 
-5.277809957250e-07 -9.946923495859e-05 0.0 
-4.390640629009e-08 -1.004251612589e-04 0.0 
8.329364160378e-08 -1.008857684409e-04 0.0 
2.227395378467e-05 2.401110483509e-03 0.0 
3.464013566883e-05 2.399370475104e-03 0.0 
4.856502853710e-05 2.398976051046e-03 0.0 
6.341924511819e-05 2.399241764056e-03 0.0 
7.825684595915e-05 2.399590899957e-03 0.0 
9.252484762086e-05 2.399724916806e-03 0.0 
1.058702016883e-04 2.399388922343e-03 0.0 
1.180215716859e-04 2.398309189566e-03 0.0 
1.287197769399e-04 2.396159687886e-03 0.0 
1.376894344313e-04 2.392538598503e-03 0.0 
1.446257155714e-04 2.386952627846e-03 0.0 
1.491911109986e-04 2.378797943206e-03 0.0 
1.510118575526e-04 2.367350869806e-03 0.0 
1.496432302893e-04 2.351696235004e-03 0.0 
1.446342395669e-04 2.330714224201e-03 0.0 
1.354826259883e-04 2.302939373729e-03 0.0 
1.218572300654e-04 2.266719764511e-03 0.0 
1.032402859063e-04 2.219641443520e-03 0.0 
7.973110434374e-05 2.159229997002e-03 0.0 
5.097631632227e-05 2.080728810282e-03 0.0 
1.906142801176e-05 1.979906908695e-03 0.0 
-1.380748994948e-05 1.847104869207e-03 0.0 
-5.098042877068e-05 1.672502943154e-03 0.0 
1.346974422876e-04 1.774996680972e-03 0.0 
1.374008308074e-04 1.890450091532e-03 0.0 
1.422211007120e-04 1.978351645231e-03 0.0 
1.483817731602e-04 2.046353255684e-03 0.0 
1.541832121837e-04 2.098760622545e-03 0.0 
1.586384776231e-04 2.139214990408e-03 0.0 
1.612436178064e-04 2.170182696507e-03 0.0 
1.617704801504e-04 2.193670508413e-03 0.0 
1.601898246432e-04 2.211237395910e-03 0.0 
1.565748150942e-04 2.224150720954e-03 0.0 
1.510647794091e-04 2.233413605544e-03 0.0 
1.438311032328e-04 2.239828684263e-03 0.0 
1.350587267807e-04 2.244045137839e-03 0.0 
1.249334523938e-04 2.246598607592e-03 0.0 
1.136388995882e-04 2.247929062012e-03 0.0 
1.013573540774e-04 2.248401327509e-03 0.0 
8.827577504327e-05 2.248326046434e-03 0.0 
7.459444906480e-05 2.247988008834e-03 0.0 
6.053074943926e-05 2.247674941941e-03 0.0 
4.627773548454e-05 2.247676410256e-03 0.0 
3.175762137007e-05 2.248032532285e-03 0.0 
1.611637925562e-05 2.247580389472e-03 0.0 
1.552931924153e-05 2.095028989562e-03 0.0 
3.109071216639e-05 2.095709116466e-03 0.0 
4.615738266942e-05 2.095855287816e-03 0.0 
6.087050721770e-05 2.096133473049e-03 0.0 
7.529054751854e-05 2.096621892789e-03 0.0 
8.936937059111e-05 2.097128271506e-03 0.0 
1.030079900016e-04 2.097388454034e-03 0.0 
1.160920355009e-04 2.097105013435e-03 0.0 
1.285076264220e-04 2.095934485536e-03 0.0 
1.401488338572e-04 2.093467328481e-03 0.0 
1.509237801314e-04 2.089205984537e-03 0.0 
1.607606454188e-04 2.082541186077e-03 0.0 
1.696202908918e-04 2.072721959809e-03 0.0 
1.775127428717e-04 2.058802495722e-03 0.0 
1.845367054464e-04 2.039597966944e-03 0.0 
1.908880796990e-04 2.013601989847e-03 0.0 
1.969626117603e-04 1.978951170814e-03 0.0 
2.033164026189e-04 1.933139883794e-03 0.0 
2.109657512512e-04 1.873315238332e-03 0.0 
2.200836719679e-04 1.795035828046e-03 0.0 
2.593519119948e-04 1.753587800293e-03 0.0 
2.440643939253e-04 1.805416353428e-03 0.0 
2.298100489221e-04 1.845061818729e-03 0.0 
2.166965633625e-04 1.875227061956e-03 0.0 
2.041805485076e-04 1.897744578369e-03 0.0 
1.919486378390e-04 1.914322728014e-03 0.0 
1.797344359790e-04 1.926219528095e-03 0.0 
1.673863132104e-04 1.934508511688e-03 0.0 
1.548046117153e-04 1.940018578800e-03 0.0 
1.419373969938e-04 1.943421710409e-03 0.0 
1.287657559265e-04 1.945265682848e-03 0.0 
1.153000637599e-04 1.946001959879e-03 0.0 
1.015712363977e-04 1.946001635725e-03 0.0 
8.761299577490e-05 1.945568479025e-03 0.0 
7.345766293500e-05 1.944952456627e-03 0.0 
5.911203624772e-05 1.944343494464e-03 0.0 
4.454171968613e-05 1.943837059471e-03 0.0 
2.972302662622e-05 1.943385598266e-03 0.0 
1.485350350965e-05 1.942907458776e-03 0.0 
1.515931734694e-05 1.790802360824e-03 0.0 
3.037200066159e-05 1.791251274381e-03 0.0 
4.554842740426e-05 1.791822058777e-03 0.0 
6.064781314702e-05 1.792485840671e-03 0.0 
7.569153783871e-05 1.793204523982e-03 0.0 
9.072065860323e-05 1.793868079195e-03 0.0 
1.057508671508e-04 1.794293014147e-03 0.0 
1.208178236120e-04 1.794201808289e-03 0.0 
1.359406268830e-04 1.793273409366e-03 0.0 
1.511499838306e-04 1.791081191169e-03 0.0 
1.665134352150e-04 1.787096690297e-03 0.0 
1.821264391211e-04 1.780691299077e-03 0.0 
1.981207507385e-04 1.771083303342e-03 0.0 
2.146761463273e-04 1.757324786314e-03 0.0 
2.319776424019e-04 1.738114393698e-03 0.0 
2.503573238372e-04 1.712108555842e-03 0.0 
2.697436493316e-04 1.677315458349e-03 0.0 
2.627286796821e-04 1.572500874448e-03 0.0 
2.420611890995e-04 1.594451722235e-03 0.0 
2.221860088679e-04 1.610633854999e-03 0.0 
2.033899693718e-04 1.622381468745e-03 0.0 
1.854545380961e-04 1.630582061997e-03 0.0 
1.682361382594e-04 1.636041593731e-03 0.0 
1.515944720927e-04 1.639412207285e-03 0.0 
1.354119118671e-04 1.641224132449e-03 0.0 
1.196106117875e-04 1.641969079615e-03 0.0 
1.041409572572e-04 1.642015188192e-03 0.0 
8.890745230388e-05 1.641577553059e-03 0.0 
7.387176314470e-05 1.640955114656e-03 0.0 
5.896454636688e-05 1.640246313796e-03 0.0 
4.413492533685e-05 1.639572320742e-03 0.0 
2.937286432877e-05 1.639030146171e-03 0.0 
1.467910335451e-05 1.638669832395e-03 0.0 
-2.108770781910e-04 3.598005109769e-04 0.0 
-1.911924914974e-04 4.979795203220e-04 0.0 
-1.647488121127e-04 7.105385715964e-04 0.0 
-9.196474912670e-05 1.125885830516e-03 0.0 
7.628848294654e-05 1.526690209228e-03 0.0 
1.977145505042e-04 1.666584156554e-03 0.0 
2.610225696572e-04 1.695720125846e-03 0.0 
2.876241417117e-04 1.663274559836e-03 0.0 
2.904512204150e-04 1.590285100361e-03 0.0 
2.767565102234e-04 1.489687931099e-03 0.0 
-1.281760499927e-04 4.956818614599e-04 0.0 
6.120344234605e-05 1.913761846615e-05 0.0 
-2.673649320025e-05 -6.434442558223e-05 0.0 
-9.382823145372e-05 4.856013110281e-05 0.0 
3.716086919068e-05 7.222171960369e-06 0.0 
9.365247666717e-05 1.087911419549e-03 0.0 
1.103181375014e-05 -5.605191755720e-05 0.0 
8.075147135817e-05 3.618649746470e-05 0.0 
2.875324854173e-04 1.525206365086e-03 0.0 
8.883883021808e-05 5.757969283652e-05 0.0 
3.260806634295e-04 1.523265346804e-03 0.0 
1.990720700673e-05 2.575144556571e-06 0.0 
-3.751277326499e-06 -9.265823630878e-05 0.0 
8.508211590955e-05 8.317286462752e-05 0.0 
2.902695911976e-04 1.350061884391e-03 0.0 
6.974345733108e-06 -8.542910853844e-05 0.0 
1.175821350006e-05 -3.176230678340e-05 0.0 
7.564521001129e-05 1.025390884054e-04 0.0 
5.092353796939e-05 1.112162213258e-04 0.0 
1.409735855020e-05 1.213365198958e-04 0.0 
2.630680698559e-05 1.301930883283e-04 0.0 
3.548260120066e-05 1.138949136749e-04 0.0 
2.354924025171e-04 1.322583915364e-03 0.0 
1.528658294579e-04 1.348553125454e-03 0.0 
9.997710764864e-05 1.347670066647e-03 0.0 
9.503909757124e-06 8.026818862953e-04 0.0 
1.187851926175e-05 9.739252079977e-07 0.0 
-1.524596569540e-04 2.004641510160e-04 0.0 
9.290151931015e-07 -9.907373824080e-05 0.0 
8.241439643153e-06 -8.957558364913e-06 0.0 
5.139640063044e-05 1.356429507301e-03 0.0 
3.411188216864e-06 -9.768103919110e-05 0.0 
7.081619534292e-05 1.224584714476e-04 0.0 
7.983140153757e-05 4.277843075433e-05 0.0 
8.782417733547e-05 6.964542646534e-05 0.0 
7.621247071219e-05 2.878565134249e-05 0.0 
4.855869960110e-05 1.257187486075e-05 0.0 
-6.034168765635e-05 -1.280691977466e-05 0.0 
1.920454840725e-04 1.348853490898e-03 0.0 
3.283250770868e-05 5.058487779628e-06 0.0 
7.181296674899e-06 5.133332439086e-04 0.0 
-1.247878982838e-05 -8.243143619546e-05 0.0 
9.521552731597e-06 -7.245330099449e-05 0.0 
7.100526684793e-06 9.868963635142e-05 0.0 
2.226087715559e-04 1.382270694273e-03 0.0 
-5.623542011589e-05 7.159610736490e-04 0.0 
3.191534033769e-04 1.554481878565e-03 0.0 
3.146121731528e-04 1.450795414424e-03 0.0 
-1.668682933427e-04 3.552790267959e-04 0.0 
1.160182051083e-05 1.088597299414e-03 0.0 
5.331940852387e-06 3.218224101150e-07 0.0 
7.626856979036e-07 -1.006462073729e-04 0.0 
3.919596033481e-06 2.253163742243e-04 0.0 
2.784896540037e-04 1.287771412446e-03 0.0 
2.987779231565e-04 1.208349597372e-03 0.0 
2.747233790410e-04 1.160997038235e-03 0.0 
2.981373137916e-04 1.069436432414e-03 0.0 
2.744081462613e-04 1.007741542616e-03 0.0 
2.915975314256e-04 9.276270347696e-04 0.0 
3.182722337436e-04 9.834576133519e-04 0.0 
3.069517921432e-04 8.458936203550e-04 0.0 
3.359620026819e-04 8.970717444733e-04 0.0 
2.638247864817e-04 8.651321245922e-04 0.0 
3.192596202389e-04 7.633558557325e-04 0.0 
3.503254785769e-04 8.095658970908e-04 0.0 
3.278630293627e-04 6.810782534746e-04 0.0 
3.604264616971e-04 7.220412142544e-04 0.0 
3.795507319955e-04 8.481963946895e-04 0.0 
3.908377368624e-04 7.552684589957e-04 0.0 
4.062145229896e-04 8.776316399261e-04 0.0 
4.182255172681e-04 7.785119013239e-04 0.0 
3.967354486111e-04 6.643492353613e-04 0.0 
4.242360127447e-04 6.822266856069e-04 0.0 
4.418182356866e-04 7.906914219483e-04 0.0 
4.472135227646e-04 6.888501069127e-04 0.0 
4.606186151857e-04 7.903238970833e-04 0.0 
4.646383352516e-04 6.829267740838e-04 0.0 
4.736480617749e-04 7.760673194941e-04 0.0 
4.755363599542e-04 6.642440392230e-04 0.0 
4.615380027860e-04 5.828888903639e-04 0.0 
4.702184057702e-04 5.619886144374e-04 0.0 
4.786683897249e-04 6.328407606860e-04 0.0 
4.708732582127e-04 5.300840462172e-04 0.0 
4.729480070080e-04 5.895585780959e-04 0.0 
4.628362454427e-04 4.885300451775e-04 0.0 
4.573140593583e-04 4.395556599843e-04 0.0 
4.478109457838e-04 4.012877880232e-04 0.0 
4.458885381924e-04 4.394976370366e-04 0.0 
4.302955108459e-04 3.576494730314e-04 0.0 
4.204990195861e-04 3.858665676589e-04 0.0 
4.055504836747e-04 3.109412060932e-04 0.0 
3.879030338599e-04 3.304634761721e-04 0.0 
3.746524154960e-04 2.631096471695e-04 0.0 
3.881918435056e-04 2.480590677143e-04 0.0 
3.593362452048e-04 2.068591333748e-04 0.0 
3.392138911240e-04 2.163083000128e-04 0.0 
3.267684086483e-04 1.668774889439e-04 0.0 
3.421170237459e-04 1.604351650086e-04 0.0 
3.123403437669e-04 1.263016877247e-04 0.0 
3.232320394639e-04 1.224144966219e-04 0.0 
2.961888415255e-04 9.326771454100e-05 0.0 
2.809945216517e-04 9.432791722150e-05 0.0 
2.676787074710e-04 6.586902909741e-05 0.0 
2.786352509070e-04 6.671197449705e-05 0.0 
2.526888829825e-04 4.315615124611e-05 0.0 
2.383990742449e-04 4.047951153927e-05 0.0 
2.262465124882e-04 2.144835269904e-05 0.0 
2.365892596034e-04 2.546703054931e-05 0.0 
2.125544161006e-04 6.721706186689e-06 0.0 
1.998807145819e-04 1.708355707848e-06 0.0 
1.885987949580e-04 -1.028887303061e-05 0.0 
1.979528234843e-04 -4.202322634985e-06 0.0 
1.760342347075e-04 -1.906728886778e-05 0.0 
1.650627482311e-04 -2.559212301077e-05 0.0 
1.546009671975e-04 -3.234327356973e-05 0.0 
1.626405313735e-04 -2.506414606696e-05 0.0 
1.429963183286e-04 -3.678316037319e-05 0.0 
1.484619614325e-04 -2.890480552402e-05 0.0 
1.335632788612e-04 -4.430349272745e-05 0.0 
1.238339160919e-04 -4.726217854895e-05 0.0 
1.134771419362e-04 -5.481822292740e-05 0.0 
1.054737354981e-04 -5.651084810768e-05 0.0 
4.390843803455e-04 3.609436213732e-04 0.0 
9.494398372025e-05 -6.376626084753e-05 0.0 
1.004845157803e-04 -6.137732446599e-05 0.0 
8.824960380126e-05 -6.454499943135e-05 0.0 
9.631116991377e-05 -5.683754656702e-05 0.0 
7.788695325728e-05 -7.140009213086e-05 0.0 
7.231302028106e-05 -7.145411223841e-05 0.0 
6.247026349128e-05 -7.781224769122e-05 0.0 
3.973780793361e-04 4.115245458425e-04 0.0 
3.966868670566e-04 5.768654604589e-04 0.0 
5.782101525388e-05 -7.732953405266e-05 0.0 
4.881053749370e-05 -8.311634294460e-05 0.0 
5.120740920137e-05 -8.302214230363e-05 0.0 
3.881428268374e-05 -8.770746946708e-05 0.0 
2.485489051435e-04 9.434971946358e-04 0.0 
2.351482933683e-04 7.987944623886e-04 0.0 
2.223483495193e-04 8.753616011417e-04 0.0 
2.060136706944e-04 7.299277843586e-04 0.0 
1.956478854609e-04 8.035635777617e-04 0.0 
3.694249913021e-05 -8.745598416741e-05 0.0 
2.936562920574e-04 6.294563837061e-04 0.0 
2.142239239981e-04 6.550075942216e-04 0.0 
4.492887815990e-04 9.031261773697e-04 0.0 
4.768042650419e-04 7.047772489519e-04 0.0 
3.474700293953e-04 1.524594192766e-04 0.0 
6.545959418251e-05 -7.049720849533e-05 0.0 
5.183468009510e-05 -7.600150993522e-05 0.0 
5.750137094859e-05 -6.876423674347e-05 0.0 
1.662159987827e-04 -1.758198973158e-05 0.0 
1.496691456541e-04 -2.101429124523e-05 0.0 
1.649304175464e-04 -1.032628026447e-05 0.0 
1.464226765772e-04 -1.345880545075e-05 0.0 
1.586112356358e-04 -3.673929703111e-06 0.0 
1.386332681714e-04 -6.593833716095e-06 0.0 
1.282090522456e-04 -1.515610393263e-05 0.0 
1.193655393616e-04 -8.210486137701e-06 0.0 
1.104983426087e-04 -1.573804311141e-05 0.0 
1.472228373940e-04 2.001200686605e-06 0.0 
1.690352023537e-04 6.262283483306e-06 0.0 
1.009984053200e-04 -8.840732174341e-06 0.0 
9.347902522467e-05 -1.548552338821e-05 0.0 
8.370577003548e-05 -8.761076204767e-06 0.0 
7.733450383688e-05 -1.462493877935e-05 0.0 
8.441996751587e-05 -2.214418949141e-05 0.0 
6.933026573764e-05 -2.059148845571e-05 0.0 
7.421705530023e-05 -2.868538761182e-05 0.0 
3.247529273263e-04 1.171153399805e-04 0.0 
3.430164116102e-04 1.427083230069e-04 0.0 
3.169889465874e-04 1.102063397480e-04 0.0 
3.288055972817e-04 1.309701005336e-04 0.0 
3.000108377664e-04 1.015052550636e-04 0.0 
3.050005474089e-04 1.172031138907e-04 0.0 
2.738773994234e-04 9.090497660264e-05 0.0 
2.707369487460e-04 7.787993944542e-05 0.0 
3.323579528677e-04 5.987292453776e-04 0.0 
3.012225726935e-04 1.720387109843e-04 0.0 
3.078964512310e-04 2.240569846532e-04 0.0 
2.654447257983e-04 1.764224700660e-04 0.0 
2.651978589113e-04 2.304036300504e-04 0.0 
2.197972296394e-04 1.805403701465e-04 0.0 
2.113642226802e-04 2.363460936881e-04 0.0 
1.650499895272e-04 1.854982261938e-04 0.0 
1.775097376396e-04 1.367301564505e-04 0.0 
1.237782321958e-04 1.414122781637e-04 0.0 
1.390675030390e-04 9.847528616383e-05 0.0 
8.781152239549e-05 1.029947976772e-04 0.0 
1.046659331933e-04 6.522267941786e-05 0.0 
4.518740077544e-04 4.917371132363e-04 0.0 
3.354661638227e-04 1.498111310586e-04 0.0 
3.043702721917e-04 1.302199159068e-04 0.0 
3.360936804552e-04 1.654869762581e-04 0.0 
3.898759609937e-05 -8.695013975943e-05 0.0 
6.220717518862e-05 -1.332513666999e-05 0.0 
1.534141301333e-04 1.034902698012e-05 0.0 
1.771567932242e-04 1.599120434365e-05 0.0 
2.426345953114e-04 6.984172694484e-05 0.0 
2.839246558663e-05 -9.140597364102e-05 0.0 
1.476499327989e-04 2.433547944695e-04 0.0 
1.979347820543e-04 3.026110468032e-04 0.0 
1.771536392874e-04 6.575241899683e-04 0.0 
1.692212321235e-04 7.292034270779e-04 0.0 
1.565972769371e-04 1.809696466747e-05 0.0 
2.685740853152e-05 -9.098128264291e-05 0.0 
1.065174797407e-04 -2.403481202096e-06 0.0 
6.535310753184e-05 1.486529761690e-04 0.0 
5.504732540852e-05 -1.867587845521e-05 0.0 
4.822538710339e-05 -1.171946810790e-05 0.0 
1.164672667484e-04 -2.346217521099e-05 0.0 
2.974226356099e-04 1.395531109453e-04 0.0 
3.307529034309e-04 1.773035857394e-04 0.0 
1.498063720203e-04 6.303416483561e-05 0.0 
1.169718198158e-04 3.426913373800e-05 0.0 
7.437699767829e-05 3.637833475541e-05 0.0 
8.900137902159e-05 8.615227447286e-06 0.0 
1.255087839928e-04 9.115079433587e-06 0.0 
9.788466957739e-05 -1.221210921803e-05 0.0 
6.368507110329e-05 -1.253636157649e-05 0.0 
7.357450580070e-05 -3.037754006564e-05 0.0 
1.038738479680e-04 -2.875646496469e-05 0.0 
8.069798459564e-05 -4.418852526522e-05 0.0 
5.250893704800e-05 -4.542064556357e-05 0.0 
6.055048914295e-05 -5.697797080190e-05 0.0 
5.294985040997e-05 -7.206165757808e-06 0.0 
3.360679313290e-05 1.100184672281e-04 0.0 
3.888705475013e-04 9.774681419767e-04 0.0 
1.323184406754e-04 1.283837845880e-05 0.0 
2.392766842243e-04 7.860908538649e-05 0.0 
1.490257946761e-04 5.829095217414e-04 0.0 
1.434368039235e-04 6.529216563944e-04 0.0 
1.595391448382e-04 8.012020821808e-04 0.0 
1.359397725457e-04 7.230155715015e-04 0.0 
1.187039870342e-04 5.752018226201e-04 0.0 
1.133364528583e-04 6.440391724041e-04 0.0 
1.269931550302e-04 7.930952889910e-04 0.0 
1.063075552694e-04 7.128571756482e-04 0.0 
1.169288889733e-04 8.628451369732e-04 0.0 
9.795617329510e-05 7.814841308444e-04 0.0 
8.678112109257e-05 6.321331337005e-04 0.0 
8.002907577874e-05 7.000161000399e-04 0.0 
8.857971438594e-05 8.499903766013e-04 0.0 
7.205247058296e-05 7.678540572665e-04 0.0 
7.840317429396e-05 9.182502579090e-04 0.0 
6.306222087449e-05 8.356003605666e-04 0.0 
5.668817408685e-05 6.858497882139e-04 0.0 
2.022663532353e-05 -9.419783472080e-05 0.0 
2.414608012837e-04 5.919228391162e-05 0.0 
2.117118798409e-04 5.323354975441e-05 0.0 
4.503060483720e-05 -7.397716127762e-05 0.0 
4.899781874414e-05 -6.635606340679e-05 0.0 
6.169910858121e-05 -6.073577893263e-05 0.0 
5.126618100820e-05 -5.819433309336e-05 0.0 
4.857834007532e-05 7.538245122529e-04 0.0 
4.272600443633e-05 6.042546415146e-04 0.0 
1.248015622624e-04 3.115624987246e-04 0.0 
1.791121632075e-04 3.813374539113e-04 0.0 
1.521989528763e-04 5.131259151998e-04 0.0 
4.169787920652e-05 -1.654225456957e-05 0.0 
4.653786154069e-05 -2.412008232899e-05 0.0 
4.641648619604e-04 6.483945333872e-04 0.0 
4.637250349866e-04 7.766688732578e-04 0.0 
4.434659681813e-04 7.060835170857e-04 0.0 
4.373070680234e-04 8.496072135441e-04 0.0 
4.543463176441e-04 9.205898349942e-04 0.0 
4.076009434765e-04 7.615696202700e-04 0.0 
1.916202317509e-04 1.230927168860e-05 0.0 
6.870813038204e-05 5.513671179210e-04 0.0 
5.187444485839e-05 -8.173429810358e-05 0.0 
3.723566938503e-05 -8.495347994148e-05 0.0 
3.551002451780e-05 -9.991011471775e-06 0.0 
2.629571338695e-04 6.321574171732e-05 0.0 
4.376974058061e-04 5.030988990647e-04 0.0 
4.236234347750e-04 4.217793560806e-04 0.0 
4.038272985742e-04 4.243755079622e-04 0.0 
3.852630132150e-04 3.522667865311e-04 0.0 
3.596540527754e-04 3.466391104804e-04 0.0 
3.363516366107e-04 2.834302045025e-04 0.0 
3.616654519895e-04 2.883029165218e-04 0.0 
2.834279870093e-04 1.439761820435e-04 0.0 
3.083133346253e-04 2.275481614059e-04 0.0 
5.408931942215e-05 9.046612109110e-04 0.0 
3.648576214874e-04 1.895963455447e-04 0.0 
1.069267437651e-04 -4.130170536901e-05 0.0 
2.012618863556e-05 -9.391557488240e-05 0.0 
3.416258104178e-05 -5.773154946581e-05 0.0 
1.858687286659e-05 -9.369734088304e-05 0.0 
2.384514817180e-05 -8.981830473600e-05 0.0 
1.301805341375e-04 1.832588930440e-05 0.0 
3.046304214714e-04 2.698570052950e-04 0.0 
3.280633742409e-04 3.318055367364e-04 0.0 
4.211135933120e-04 1.013570131277e-03 0.0 
4.344033231760e-04 1.076599185809e-03 0.0 
2.483825800252e-04 1.115617160591e-04 0.0 
2.078658702655e-04 9.525147188672e-04 0.0 
1.366431368673e-04 9.438128401609e-04 0.0 
1.240870450570e-04 1.014112569068e-03 0.0 
1.325188672323e-05 -9.652940321942e-05 0.0 
2.399136941019e-05 -4.477476478800e-05 0.0 
9.548723589945e-05 4.967528126624e-04 0.0 
2.523100411418e-04 3.718764526098e-04 0.0 
2.395330270895e-04 4.639134381200e-04 0.0 
4.885922812886e-06 1.585728804345e-04 0.0 
-2.166586534135e-05 1.194161739936e-04 0.0 
3.600995868300e-05 6.701514244723e-04 0.0 
3.063135918859e-05 5.227941649472e-04 0.0 
6.409467041042e-05 -5.222590293765e-05 0.0 
5.236047518849e-05 -4.954893069740e-05 0.0 
1.561220309065e-04 2.485172761372e-05 0.0 
4.347118518737e-05 -6.746215272214e-05 0.0 
3.507068016907e-05 4.563879913861e-04 0.0 
2.357497679267e-04 4.689337259459e-05 0.0 
2.512886050770e-04 4.759902502404e-05 0.0 
3.886268523465e-05 -6.374199816419e-05 0.0 
9.466171999616e-05 3.913918114354e-04 0.0 
4.584997048124e-05 3.232096021230e-04 0.0 
1.315308177538e-04 -2.562735656036e-05 0.0 
6.569840206733e-05 -6.542614530068e-05 0.0 
1.577485924216e-05 -9.261516143432e-05 0.0 
1.236916357029e-04 2.227273728058e-05 0.0 
9.671130626442e-05 4.293519633405e-04 0.0 
3.338281789667e-04 2.331296686448e-04 0.0 
3.802060589656e-04 2.857588527383e-04 0.0 
2.764514151347e-04 1.794487694659e-04 0.0 
2.085845240160e-05 -6.781609789795e-05 0.0 
1.058924400943e-04 1.337907941014e-05 0.0 
2.941976368282e-05 -1.427205551924e-05 0.0 
2.698843787015e-04 2.521015946661e-04 0.0 
2.911266869868e-04 3.085313891976e-04 0.0 
3.077447194856e-04 4.504879111458e-04 0.0 
3.028570431450e-04 5.597174026966e-04 0.0 
2.228889213252e-04 5.765984910101e-04 0.0 
2.924914051721e-04 6.926263376606e-04 0.0 
3.435221025034e-04 1.034009868540e-03 0.0 
3.609464495332e-04 5.363391820962e-04 0.0 
4.115857245075e-04 1.003533368896e-03 0.0 
3.886914218672e-04 1.109548053735e-03 0.0 
4.067933533212e-04 1.132908502120e-03 0.0 
4.597176897144e-04 9.718352529288e-04 0.0 
4.369325911462e-04 1.118009351837e-03 0.0 
3.115400627678e-04 2.866334410697e-04 0.0 
3.678842057310e-04 1.826629620457e-04 0.0 
7.544613346008e-05 -5.444007355782e-05 0.0 
8.885999961286e-05 -3.035197071956e-05 0.0 
1.835040202962e-04 -5.349663185332e-06 0.0 
7.235421581711e-05 4.843338557658e-04 0.0 
5.457113467517e-05 4.043418833760e-04 0.0 
9.454107367218e-05 1.001003382758e-03 0.0 
8.262037735091e-05 1.069518626660e-03 0.0 
2.639876596920e-05 -8.952223173837e-05 0.0 
2.248853551793e-05 -8.665781743212e-05 0.0 
1.337861279111e-04 -3.100843303336e-05 0.0 
1.095314116667e-04 9.094531198119e-06 0.0 
1.228597309655e-04 4.385742979393e-04 0.0 
1.205726499888e-04 3.709591230478e-04 0.0 
1.523807907021e-04 4.436322292723e-04 0.0 
1.512298712388e-04 3.014026339472e-05 0.0 
2.627156699520e-04 1.316734897379e-04 0.0 
3.009595108510e-04 8.855175203324e-05 0.0 
6.723817725777e-06 7.686152744276e-05 0.0 
4.416287874351e-04 3.894470316676e-04 0.0 
1.407799319517e-05 -9.065889051687e-05 0.0 
3.655339482347e-04 5.538317457706e-04 0.0 
2.423178354345e-05 -8.166456261440e-06 0.0 
2.809780456184e-05 -4.773375832564e-06 0.0 
2.263986465545e-04 1.096133947382e-04 0.0 
3.168419112573e-04 1.262993168752e-03 0.0 
4.201993617793e-04 3.190861761218e-04 0.0 
4.172319722352e-04 2.938135395354e-04 0.0 
3.788680707087e-04 1.243602590544e-03 0.0 
3.916925093112e-04 1.264912118162e-03 0.0 
4.212465067623e-04 1.144274186621e-03 0.0 
4.003421836889e-04 1.274576813625e-03 0.0 
1.302825980182e-04 -3.696575895641e-05 0.0 
1.072199391208e-04 -5.045839573555e-05 0.0 
2.358094880621e-04 1.922654618527e-04 0.0 
2.457841141297e-04 1.683989766561e-04 0.0 
2.294589962746e-04 2.242944196471e-04 0.0 
2.496437468894e-04 2.760522362016e-04 0.0 
1.890614951868e-04 8.169875266959e-05 0.0 
2.124630505228e-04 8.483773234728e-05 0.0 
1.946238742465e-05 -8.817691799368e-05 0.0 
4.040685194728e-04 1.235586506132e-03 0.0 
7.335655237967e-05 3.513695198535e-04 0.0 
3.627879238534e-04 1.212710340313e-03 0.0 
8.414763500986e-05 9.787146872424e-06 0.0 
8.853458762064e-05 6.293129469295e-06 0.0 
-4.406491539665e-05 8.580396895771e-05 0.0 
-1.495326453543e-05 4.374511322428e-05 0.0 
2.390835620987e-05 3.789474808684e-04 0.0 
2.012947389696e-04 7.148749103364e-04 0.0 
2.740901556700e-04 8.547259640491e-04 0.0 
1.250804291565e-04 5.882350387668e-04 0.0 
3.680275728358e-06 -7.179775884718e-07 0.0 
2.222623530296e-05 1.357573778747e-03 0.0 
1.817250516034e-05 -3.503617703493e-06 0.0 
4.561460019994e-04 1.005303324465e-03 0.0 
2.573308075766e-05 3.076246413344e-04 0.0 
3.956252582430e-04 2.597887392693e-04 0.0 
4.402397187035e-04 5.819509729545e-04 0.0 
1.835393569964e-04 3.363640578250e-05 0.0 
1.953929694302e-05 4.568991587734e-04 0.0 
1.435831518227e-05 2.958100769337e-04 0.0 
1.421705642263e-04 1.093135756439e-03 0.0 
1.281358030653e-04 1.166222209565e-03 0.0 
1.567998723224e-04 1.023931298343e-03 0.0 
3.799330425514e-05 2.030400101318e-04 0.0 
-3.674061838069e-05 2.238781660324e-04 0.0 
5.236317086042e-05 4.707090658380e-04 0.0 
3.960508182923e-05 -8.074232812210e-05 0.0 
3.299171643859e-05 -7.800317097937e-05 0.0 
4.843576768306e-05 -7.423088713790e-05 0.0 
6.775635711793e-05 -7.126747415463e-05 0.0 
7.733349869517e-05 -4.578653744130e-05 0.0 
8.977727955548e-05 -4.750421424806e-05 0.0 
3.590627159271e-04 4.742230949088e-04 0.0 
3.241794529053e-04 4.466396784042e-04 0.0 
4.168708533920e-04 5.045371955527e-04 0.0 
2.262549576616e-04 3.371585004076e-05 0.0 
2.365661696367e-04 3.174543771339e-05 0.0 
2.593825495799e-04 4.713173838787e-05 0.0 
5.534006279251e-05 3.429591708894e-04 0.0 
3.681096012432e-05 2.519836951240e-04 0.0 
1.552056159275e-04 -2.109659125286e-05 0.0 
1.583540604332e-04 -7.182517575576e-06 0.0 
1.263656231624e-04 -4.528402411932e-05 0.0 
7.042482319010e-05 2.881493825143e-04 0.0 
2.008879703309e-05 -1.264946982756e-06 0.0 
3.001490883465e-05 -1.884560481520e-06 0.0 
8.679293086736e-06 -8.698286325113e-05 0.0 
1.672538344739e-05 -8.193511539714e-05 0.0 
7.169495999005e-06 4.031182379995e-04 0.0 
-3.354582569894e-05 3.380798608277e-04 0.0 
1.163112238619e-04 3.095198686744e-04 0.0 
1.493467511566e-04 3.761041746823e-04 0.0 
8.239067619004e-05 2.318520067509e-04 0.0 
1.141887543353e-05 -9.133385095125e-05 0.0 
3.518712318175e-04 2.316493216353e-04 0.0 
1.153291784776e-04 2.537316532012e-05 0.0 
1.446456153968e-04 3.434125232242e-05 0.0 
8.343225411060e-05 1.723979135891e-05 0.0 
2.643049232952e-04 1.441910402718e-04 0.0 
2.001529055334e-04 1.030314024611e-04 0.0 
2.072228501093e-04 1.258269140968e-04 0.0 
-7.541033162394e-05 1.292727699548e-04 0.0 
1.080636105218e-05 3.559112259864e-04 0.0 
9.815700905507e-05 1.152914681634e-03 0.0 
-8.757420107726e-05 9.974995784800e-05 0.0 
8.476292618015e-05 1.226930774564e-03 0.0 
7.071612748190e-05 1.138880143813e-03 0.0 
7.336281775557e-05 1.300085307543e-03 0.0 
9.288070185310e-06 -9.488456313805e-05 0.0 
1.617191785936e-04 1.198992290281e-03 0.0 
1.784825341164e-04 1.108953412452e-03 0.0 
-1.903313753799e-06 -8.105711111108e-05 0.0 
4.749782937291e-05 2.124713907307e-04 0.0 
3.557656231711e-06 -9.028669759694e-05 0.0 
8.420673884754e-06 -9.344361008017e-05 0.0 
6.397836051446e-05 6.828260005480e-06 0.0 
6.940883568054e-05 4.435842430804e-06 0.0 
4.628625030467e-05 4.995682870154e-06 0.0 
5.353683257978e-05 3.347523952196e-06 0.0 
7.189891894261e-05 9.890626475397e-07 0.0 
5.562573222534e-05 4.332032178544e-07 0.0 
1.150216504142e-04 1.249348790785e-03 0.0 
3.647980602733e-05 2.608355587168e-06 0.0 
4.098342398932e-05 3.216525068291e-07 0.0 
2.394658768855e-05 1.598778679875e-06 0.0 
3.649427791738e-04 1.401498999821e-03 0.0 
3.473262145652e-04 8.113390647791e-04 0.0 
3.273281040289e-04 9.962178505678e-04 0.0 
2.399299426789e-04 1.070897145413e-03 0.0 
1.692403180872e-04 1.695757210642e-04 0.0 
2.083494470282e-04 2.409494804292e-04 0.0 
1.830746163552e-05 -1.184367969159e-05 0.0 
2.089390213583e-05 -1.865024065092e-05 0.0 
5.850236383279e-05 1.219308117353e-03 0.0 
4.279128812657e-05 1.225369676568e-03 0.0 
4.649042108589e-05 1.086914101392e-03 0.0 
3.359749148698e-05 1.103383261815e-03 0.0 
3.607736532089e-05 9.678931572505e-04 0.0 
2.325545745987e-05 9.850038607018e-04 0.0 
2.736871541170e-05 8.498309753174e-04 0.0 
1.693137277476e-04 1.099905158004e-04 0.0 
8.013084237056e-05 7.165626599075e-04 0.0 
3.481958008781e-04 1.351238374307e-03 0.0 
1.511973673972e-04 5.884720407737e-05 0.0 
1.814229516456e-04 6.568011357596e-05 0.0 
4.057212956468e-04 1.263723243771e-03 0.0 
3.640611984899e-04 1.395031998534e-03 0.0 
7.028993995962e-05 1.116522801573e-05 0.0 
3.592609000115e-04 4.332779151601e-04 0.0 
3.574397346189e-05 1.335101642795e-04 0.0 
-1.710567819069e-04 2.614364964773e-04 0.0 
-1.076133419190e-04 2.265928365011e-04 0.0 
4.029641643952e-04 5.085398030676e-04 0.0 
4.316511709899e-04 1.140743664326e-03 0.0 
3.915609915847e-04 9.236886888623e-04 0.0 
3.716154918864e-04 1.110895631542e-03 0.0 
2.088611988353e-04 3.447794104488e-05 0.0 
8.093205035932e-06 -7.511251859081e-05 0.0 
5.934382112998e-05 4.847190053439e-04 0.0 
3.988069637638e-05 8.350296812201e-04 0.0 
-3.975866910540e-05 4.897220737067e-04 0.0 
9.572975313967e-06 -1.512901244441e-05 0.0 
3.562870713907e-04 3.475778780653e-04 0.0 
4.722543827387e-04 8.724283433780e-04 0.0 
1.548991213864e-04 4.745438833527e-04 0.0 
3.634772900461e-04 6.638907305608e-04 0.0 
3.636103144157e-04 9.417004004459e-04 0.0 
3.214134437552e-04 1.123343174879e-03 0.0 
3.422271714685e-04 1.173779169545e-03 0.0 
3.493606512134e-04 2.761625017366e-04 0.0 
3.941455213010e-04 1.187570391725e-03 0.0 
3.317565373694e-04 1.317295500951e-03 0.0 
4.298857056130e-04 8.964819349303e-04 0.0 
1.855807426954e-04 5.139662307403e-04 0.0 
1.846780342635e-04 4.430370173723e-04 0.0 
1.433357509294e-04 3.135881935993e-04 0.0 
1.798496799053e-04 3.749919617715e-04 0.0 
2.210969870561e-04 5.076542723307e-04 0.0 
2.185346378383e-04 4.361223210255e-04 0.0 
1.706540959132e-04 3.105033747560e-04 0.0 
2.115408642672e-04 3.671893450743e-04 0.0 
1.436733743566e-04 2.239859092329e-04 0.0 
1.977094443353e-04 2.987103886253e-04 0.0 
2.527928477120e-04 4.224506966834e-04 0.0 
2.431973794582e-04 3.559167810963e-04 0.0 
1.874989314541e-04 2.509668702715e-04 0.0 
2.944126337377e-04 4.789939852602e-04 0.0 
1.210411206010e-04 5.073137804422e-05 0.0 
4.319778695662e-04 4.756085593949e-04 0.0 
-5.561536599161e-05 1.715071348466e-04 0.0 
-8.897688512761e-05 2.774866303372e-04 0.0 
4.637810668736e-04 8.958269485592e-04 0.0 
7.036693844264e-05 1.076857541814e-04 0.0 
5.774839998511e-05 1.122243628927e-04 0.0 
2.606505442052e-04 2.949007439279e-04 0.0 
8.682864118369e-05 7.614665375747e-05 0.0 
3.669141688691e-04 1.076821614289e-03 0.0 
1.029562520037e-04 1.929014965951e-04 0.0 
8.985143123577e-05 6.443022182834e-05 0.0 
2.194905832436e-04 5.805556608345e-04 0.0 
2.535602921561e-04 6.464355273594e-04 0.0 
2.457317166628e-04 7.227381926609e-04 0.0 
4.418647920598e-05 1.083798170588e-04 0.0 
1.709230708490e-04 9.524767672209e-04 0.0 
7.799072567731e-05 3.823284664732e-05 0.0 
3.566745193060e-04 1.672736474500e-04 0.0 
3.832397347603e-04 2.116219120938e-04 0.0 
3.909116998538e-04 2.309253454387e-04 0.0 
2.577822589740e-04 4.968140761362e-04 0.0 
6.545596725493e-05 2.223873832057e-05 0.0 
1.162946184339e-04 3.737393546927e-05 0.0 
1.071064249450e-04 3.104445580395e-05 0.0 
1.601943577495e-04 4.784329861489e-05 0.0 
5.511652927681e-05 1.582686618099e-05 0.0 
7.323611822647e-05 8.857255562340e-05 0.0 
7.359027812974e-05 7.959336790137e-05 0.0 
1.299952894122e-04 -1.045804763842e-05 0.0 
1.589901197084e-04 1.093211015360e-05 0.0 
1.872838519823e-04 1.407830575206e-05 0.0 
1.901749420081e-04 3.568801965855e-05 0.0 
1.562643164921e-04 3.415340169818e-05 0.0 
1.897014066684e-04 6.265767006198e-05 0.0 
2.229903034234e-04 6.367213323677e-05 0.0 
1.854440588906e-04 9.609197538292e-05 0.0 
2.704233135965e-04 3.408232011510e-04 0.0 
4.392252722215e-05 1.049165499780e-05 0.0 
1.790841632470e-04 8.857336825826e-07 0.0 
1.997448993149e-04 7.462771150851e-06 0.0 
2.017490402402e-04 1.820868111033e-06 0.0 
8.626189475613e-05 -5.604238548937e-05 0.0 
1.017751621719e-04 -4.851567564990e-05 0.0 
1.043618859492e-04 -3.989443678992e-05 0.0 
7.142649125825e-05 -6.279302854074e-05 0.0 
4.042017727461e-04 3.493828936944e-04 0.0 
3.956332501609e-05 8.518147954859e-06 0.0 
2.763839480227e-04 6.570594021786e-05 0.0 
1.131796875049e-04 -4.854759034869e-05 0.0 
2.134124468417e-04 1.337121816176e-03 0.0 
2.258227882282e-04 1.200917499764e-03 0.0 
2.480693182609e-04 1.185729018841e-03 0.0 
2.335140720879e-04 1.044921739301e-03 0.0 
2.008348333927e-04 1.193330880707e-03 0.0 
6.466327405253e-05 -4.348915120327e-05 0.0 
5.194547641258e-05 -4.077844888305e-05 0.0 
4.035226190674e-05 -4.653413586198e-05 0.0 
3.931656468620e-05 -3.777955297368e-05 0.0 
2.828831317729e-05 -4.324187144865e-05 0.0 
2.902153837102e-05 -5.180782840541e-05 0.0 
2.666486982589e-05 -3.457191096412e-05 0.0 
1.645444330296e-05 -4.072037175650e-05 0.0 
1.717744504581e-04 1.350695993393e-03 0.0 
-7.539971565111e-05 1.489991724589e-05 0.0 
-3.822236431421e-05 -4.124452169265e-06 0.0 
-2.941767860972e-05 -2.799581063932e-05 0.0 
-7.110587390500e-06 -1.974047362139e-05 0.0 
-1.031850335040e-05 5.244806526563e-06 0.0 
2.585599538675e-05 -1.111977808855e-05 0.0 
1.904762936737e-05 1.695192761425e-05 0.0 
-4.897983134397e-05 2.687022073516e-05 0.0 
-4.731647517921e-05 -3.416311259862e-05 0.0 
-2.110723080183e-05 -4.656250838472e-05 0.0 
-3.611523860142e-05 -5.118794280157e-05 0.0 
-1.502321600119e-05 -6.071719070212e-05 0.0 
5.822515039203e-06 -5.662739384175e-05 0.0 
3.401639694680e-05 -8.123514254509e-05 0.0 
1.042335145013e-05 6.353277778183e-07 0.0 
1.041241546088e-05 -6.460141360282e-05 0.0 
1.960539703111e-05 -6.848047111897e-05 0.0 
1.784320136260e-05 -7.570844719725e-05 0.0 
2.892990157554e-05 -7.163005547870e-05 0.0 
2.020422088668e-05 -6.111237455083e-05 0.0 
8.354793108705e-06 -7.942387642537e-05 0.0 
1.561247207525e-05 -8.157933896174e-05 0.0 
1.058175404660e-06 -1.000263564806e-04 0.0 
2.615584629330e-06 -9.998465738584e-05 0.0 
1.135521641300e-06 -1.004586021547e-04 0.0 
3.602718772969e-06 -9.931864183891e-05 0.0 
5.656270440085e-06 -9.885141233283e-05 0.0 
3.577577554060e-06 -9.932434629510e-05 0.0 
4.116441664016e-06 -9.839033592851e-05 0.0 
1.824389391507e-07 -9.765869596550e-05 0.0 
4.182135847528e-06 -9.696782269371e-05 0.0 
9.301898515520e-06 -9.721294631053e-05 0.0 
-1.334874843331e-06 -9.561701405249e-05 0.0 
8.772556502070e-06 6.544175757201e-04 0.0 
1.663487658409e-05 5.808536722396e-04 0.0 
3.338950687176e-05 5.800139256066e-06 0.0 
1.330536871411e-04 1.343038354825e-03 0.0 
-1.857305076103e-05 -7.466327324184e-05 0.0 
1.335638645812e-05 1.460393513285e-04 0.0 
2.054580875279e-05 1.204201939838e-04 0.0 
1.643791938402e-05 1.168699504415e-04 0.0 
6.055902467791e-06 -3.941061636113e-06 0.0 
9.832682143730e-06 -2.038969891547e-06 0.0 
7.311008719473e-06 1.421732247215e-04 0.0 
6.552155971812e-05 -7.722835158978e-05 0.0 
1.332750620080e-04 2.544909620787e-04 0.0 
3.794555769797e-05 3.900111753811e-04 0.0 
7.792243699463e-05 2.529214240377e-04 0.0 
8.635489940345e-05 -6.183091379097e-05 0.0 
3.318834561677e-05 -2.145948461742e-05 0.0 
1.001892229698e-04 -2.314218044621e-05 0.0 
3.977183733148e-05 -6.024678904148e-06 0.0 
6.007175089609e-05 -2.654541806208e-05 0.0 
6.764094348784e-05 -8.159946578939e-06 0.0 
1.003846617619e-04 2.581132623542e-05 0.0 
1.222363127440e-05 -9.579140209862e-05 0.0 
1.060218371203e-04 9.321355215084e-04 0.0 
6.820330546479e-05 9.869448050110e-04 0.0 
6.340978815107e-05 6.185995603017e-04 0.0 
4.487572149543e-05 -8.228542736790e-05 0.0 
4.067535095804e-05 -5.478464517997e-05 0.0 
2.838198596715e-05 -9.096706941334e-05 0.0 
1.617157394926e-04 1.298591470773e-04 0.0 
4.305776322143e-04 1.019283512941e-03 0.0 
1.823774665481e-04 -1.216101914862e-05 0.0 
8.034608912143e-05 -6.412856872534e-05 0.0 
8.206729307302e-05 -7.001700753071e-05 0.0 
8.494619908348e-05 -5.448283470353e-05 0.0 
4.575096343394e-04 5.361594708862e-04 0.0 
1.306657965329e-04 -3.923828608101e-05 0.0 
1.263248424508e-04 -7.715418999701e-07 0.0 
4.834105855010e-05 5.374055866145e-04 0.0 
-6.264799485485e-06 -8.879406724953e-05 0.0 
1.308375044446e-04 6.371110042096e-06 0.0 
1.330291958627e-04 -2.285337971473e-05 0.0 
1.485932543858e-04 8.729653188909e-04 0.0 
2.717829352882e-04 1.014900454699e-04 0.0 
4.270503439470e-05 -3.081610370407e-05 0.0 
9.208199287304e-05 5.645655227411e-04 0.0 
9.239165296066e-05 3.050983012822e-04 0.0 
1.929691799492e-04 1.030025667199e-03 0.0 
1.779903858262e-05 -9.302418738727e-05 0.0 
1.114926443757e-04 1.085996660672e-03 0.0 
9.792171060253e-05 1.639237513524e-05 0.0 
1.827864847229e-04 5.854141211557e-04 0.0 
3.354660629568e-05 -8.642859195502e-05 0.0 
3.030047641347e-04 9.159474284922e-05 0.0 
4.795160556151e-04 7.472848781939e-04 0.0 
3.044291820647e-04 1.402645314856e-03 0.0 
3.924346248562e-05 3.293985759975e-04 0.0 
4.290747948830e-04 3.270978619076e-04 0.0 
2.062660356293e-04 6.006017527892e-05 0.0 
2.901801235753e-04 8.403324884262e-05 0.0 
2.896072835149e-05 -8.465831949023e-05 0.0 
8.980468085376e-05 1.921728981323e-06 0.0 
3.686973619857e-04 1.955782438654e-04 0.0 
7.418263359993e-05 4.185598374018e-04 0.0 
3.777645726976e-04 4.172397455716e-04 0.0 
2.922405466276e-04 1.293716428750e-04 0.0 
1.220340695872e-04 5.067091416547e-04 0.0 
2.194756376597e-04 1.187239308869e-05 0.0 
2.634190747040e-04 1.085894124545e-04 0.0 
4.459441075147e-04 1.020057110518e-03 0.0 
4.457344525815e-04 5.924895294034e-04 0.0 
3.660301622952e-04 6.370356080292e-04 0.0 
4.585741811786e-04 4.702128378124e-04 0.0 
2.253925779874e-05 -2.649371189768e-05 0.0 
1.095654695616e-04 3.649338393116e-06 0.0 
5.681744532798e-05 7.048491873945e-05 0.0 
4.094776383736e-04 6.247927203129e-04 0.0 
1.836722032935e-04 8.777689052707e-04 0.0 
2.784528739539e-04 2.169136785454e-04 0.0 
5.228091312287e-05 2.735178052585e-04 0.0 
4.728511610126e-04 8.327009388439e-04 0.0 
8.804630856088e-05 -3.167384328432e-06 0.0 
9.598644994881e-05 3.668496191305e-04 0.0 
1.177244303295e-04 -4.017032836752e-05 0.0 
4.568168797688e-06 -9.458894069486e-05 0.0 
6.812996716537e-06 2.663894570806e-04 0.0 
2.242144979187e-04 1.338414222501e-04 0.0 
4.118422094282e-04 2.888591592173e-04 0.0 
1.188809622440e-04 -3.170206897117e-05 0.0 
1.026848795025e-04 2.315882348643e-04 0.0 
7.101334360978e-05 -3.360694667394e-06 0.0 
1.820767898249e-04 2.521157170560e-05 0.0 
-1.481017571575e-04 4.178781558228e-04 0.0 
3.346793327579e-04 1.309166782021e-03 0.0 
5.555997236953e-05 -3.130536058777e-06 0.0 
2.816689969341e-04 6.685809877057e-05 0.0 
2.294293983770e-04 8.386366429163e-05 0.0 
1.761818405551e-05 -4.860506764458e-05 0.0 
1.641621944435e-04 1.187025168542e-04 0.0 
3.692563591531e-04 1.401839916961e-03 0.0 
4.177657766045e-05 -2.603539762629e-06 0.0 
2.125055567886e-04 4.460498628191e-05 0.0 
3.113111310704e-04 3.608754003127e-04 0.0 
3.686138889349e-05 1.357897318006e-03 0.0 
2.642038372903e-05 6.268138308513e-07 0.0 
1.802147980315e-04 4.026806317329e-05 0.0 
4.364027387962e-04 4.101204050480e-04 0.0 
2.598053419054e-04 4.555058520170e-05 0.0 
3.228547761792e-04 1.490952711613e-03 0.0 
1.038344044411e-04 -3.137806130003e-05 0.0 
4.239233238175e-04 5.906755069894e-04 0.0 
3.803626585379e-05 1.072005289576e-04 0.0 
1.751325654765e-04 4.586727619091e-05 0.0 
2.769873660353e-04 7.895546419660e-04 0.0 
9.070187102690e-05 -3.884695436995e-05 0.0 
3.675504679849e-04 2.089711788897e-04 0.0 
7.473650414769e-06 -9.823815867434e-05 0.0 
3.582610827336e-04 1.380668457173e-03 0.0 
7.693097798649e-05 -3.710603331253e-05 0.0 
2.251701362181e-04 9.520621410997e-05 0.0 
2.401367526066e-04 2.904997227463e-05 0.0 
1.626199602443e-04 7.511406979284e-05 0.0 
6.332645765050e-05 -3.484525866190e-05 0.0 
2.573065247775e-04 9.481613732268e-05 0.0 
4.998743968312e-05 -3.223293890320e-05 0.0 
3.261510228328e-04 1.542706238166e-03 0.0 
2.868779732232e-04 7.073881746788e-04 0.0 
3.655874174793e-05 -2.940872500599e-05 0.0 
3.904023912888e-04 4.942835828227e-04 0.0 
1.095724056907e-05 -9.564010689843e-05 0.0 
4.160438990327e-04 3.383115524992e-04 0.0 
1.422082029336e-05 -6.070487235020e-06 0.0 
1.205108725226e-04 -5.120422663660e-05 0.0 
2.201654962331e-04 1.660200605208e-05 0.0 
2.576550079850e-04 5.706035602040e-04 0.0 
3.058477521892e-04 1.550737330464e-03 0.0 
2.143092889527e-04 2.062341181732e-05 0.0 
3.465519171648e-04 4.005916565062e-04 0.0 
3.916712571606e-04 2.765606202778e-04 0.0 
4.073885313844e-04 2.642880602266e-04 0.0 
2.016178814264e-04 2.359485857855e-05 0.0 
3.554708746343e-04 1.360300869515e-03 0.0 
6.659384846314e-05 -7.541302831583e-05 0.0 
5.100029224018e-05 -7.896122705505e-05 0.0 
2.490813378578e-04 6.479257891448e-05 0.0 
3.102290805673e-04 3.746168054723e-04 0.0 
7.279176354226e-06 -9.757542549245e-05 0.0 
2.960347254351e-04 5.512915507760e-04 0.0 
2.842157258584e-05 -7.558268167956e-05 0.0 
2.176831918375e-04 3.810600106885e-05 0.0 
3.170132869489e-04 1.828403576288e-04 0.0 
1.054086908168e-05 9.471605704896e-04 0.0 
2.098557005105e-04 1.768221186200e-05 0.0 
5.646322138865e-06 -9.051497212036e-05 0.0 
1.818905896723e-04 -2.821743911029e-06 0.0 
3.924538650052e-04 2.373969502825e-04 0.0 
1.744929541012e-04 -1.582123468835e-05 0.0 
1.497711946131e-04 -3.154139903446e-05 0.0 
2.628922043666e-05 2.506018215897e-04 0.0 
1.424852967541e-04 -3.910576559792e-05 0.0 
3.663559303447e-06 1.176292234473e-04 0.0 
4.282252641352e-06 3.235582972296e-07 0.0 
1.384679478715e-05 1.243515641373e-03 0.0 
2.442203393867e-04 1.508453140341e-03 0.0 
-1.320367704754e-04 1.407167711942e-04 0.0 
3.093594753548e-04 1.179548004283e-03 0.0 
1.048353311542e-04 -5.696504934945e-05 0.0 
3.316792580423e-04 5.214932726923e-04 0.0 
2.876322823918e-05 1.236727555431e-03 0.0 
8.488308778766e-05 -6.698724454170e-05 0.0 
1.369244614741e-04 1.859460651702e-04 0.0 
8.235060934470e-05 4.843384756050e-05 0.0 
1.884219562212e-05 7.199799133685e-04 0.0 
1.982046544015e-04 6.516202467003e-05 0.0 
3.625355366059e-04 2.225810702909e-04 0.0 
5.373023408081e-06 3.705542288203e-04 0.0 
8.544642281582e-05 1.370566824921e-03 0.0 
-9.536697076785e-06 -7.182282737774e-05 0.0 
1.084367204797e-05 -2.260068308190e-05 0.0 
1.399946623619e-04 1.293100256654e-03 0.0 
1.581337664210e-04 8.761608574670e-04 0.0 
7.651628220011e-06 5.879611381732e-04 0.0 
2.270474048276e-05 -8.301148037967e-05 0.0 
-2.901284076958e-06 -3.982184048762e-05 0.0 
1.282188671698e-05 8.775996027838e-04 0.0 
1.278933443914e-04 4.519139878737e-05 0.0 
1.437772119792e-04 1.232447359728e-03 0.0 
3.029900101069e-04 1.875014300303e-04 0.0 
-9.930563856400e-05 5.905501365621e-04 0.0 
6.631280454288e-05 2.351207081184e-04 0.0 
1.601255691641e-04 8.645214474330e-05 0.0 
2.267321609770e-05 3.134092107930e-06 0.0 
2.387365058321e-04 1.376835627118e-04 0.0 
-7.844779106005e-05 4.099837498101e-04 0.0 
2.130054987547e-04 1.085003874951e-03 0.0 
1.582972676000e-04 1.406016934272e-04 0.0 
2.542481699962e-05 6.018023578426e-04 0.0 
1.620651127156e-05 1.879258519753e-06 0.0 
1.814794974242e-04 1.239719901782e-03 0.0 
1.591388013211e-05 2.338041707438e-04 0.0 
3.130438414302e-05 4.360917233361e-05 0.0 
8.118527141843e-06 2.270690918861e-04 0.0 
2.851210926023e-04 4.064457012740e-04 0.0 
5.861043855410e-05 1.055561031942e-03 0.0 
2.567828806179e-04 1.069065027561e-03 0.0 
1.185224936213e-05 -4.963999676537e-07 0.0 
1.193902278708e-04 2.034151787022e-04 0.0 
-1.045900152531e-04 3.380374762393e-04 0.0 
2.957847677480e-05 7.352185563602e-04 0.0 
3.910350823277e-05 -7.090919126416e-05 0.0 
-6.879180561098e-05 6.369671278757e-05 0.0 
5.762880262449e-05 8.139331766588e-06 0.0 
2.296350334986e-04 2.984073521461e-04 0.0 
1.996174420760e-05 1.382466928509e-07 0.0 
1.542170586199e-06 -9.947604459619e-05 0.0 
-2.202642176573e-06 -8.630418768379e-05 0.0 
6.646711118349e-05 1.240331753856e-05 0.0 
1.404938845627e-04 1.537408240316e-04 0.0 
5.482505527329e-05 7.817262421106e-06 0.0 
2.199447552298e-05 9.329760299413e-05 0.0 
-1.387711206514e-04 2.913268165631e-04 0.0 
1.166125053450e-04 1.386335130050e-03 0.0 
3.075892438959e-06 -9.504257192069e-05 0.0 
1.273626909166e-05 1.295632170765e-06 0.0 
3.855164786646e-05 2.221796747783e-04 0.0 
2.808601347766e-05 -6.458205453262e-05 0.0 
2.562645159095e-04 1.297160793420e-03 0.0 
1.324002518873e-05 -8.706349112629e-05 0.0 
2.193477206249e-04 1.589499816633e-04 0.0 
2.645122863444e-06 -6.706667637329e-05 0.0 
2.618313069458e-05 2.104420531699e-04 0.0 
7.963330107463e-05 1.881850977777e-05 0.0 
8.097135795546e-05 1.984935766517e-04 0.0 
5.501338197950e-05 2.247421431749e-05 0.0 
-1.051019361374e-04 1.722366474078e-04 0.0 
1.418475436162e-04 8.272152106974e-05 0.0 
1.379832191734e-04 3.704116176828e-05 0.0 
6.414923366547e-05 1.376502924203e-03 0.0 
1.029000787155e-04 2.061761400175e-04 0.0 
2.440917316795e-05 -7.776097309650e-05 0.0 
1.496082137091e-05 -9.577884847993e-05 0.0 
1.544803562025e-06 1.041932308706e-04 0.0 
3.296300644441e-07 -1.008323844310e-04 0.0 
1.083878125913e-05 1.375148697307e-03 0.0 
1.661348934963e-06 1.499587128196e-07 0.0 
9.210797900529e-06 -9.756519472999e-05 0.0 
2.275708998704e-05 1.133132907105e-03 0.0 
1.291743225024e-04 1.562917596640e-04 0.0 
7.783235244989e-06 -4.727878910093e-05 0.0 
1.243258542063e-05 4.654378712009e-04 0.0 
1.652874041664e-05 -3.126151216620e-05 0.0 
-1.187990970988e-04 8.946109834537e-05 0.0 
1.808679401159e-05 8.722917885835e-04 0.0 
1.397685991744e-04 6.865514044330e-05 0.0 
6.206398484625e-05 1.942692842628e-04 0.0 
4.687979163558e-05 9.735291936110e-04 0.0 
-4.726306097985e-05 2.884737151273e-04 0.0 
1.806155050369e-04 2.198531420833e-04 0.0 
3.047363546305e-05 -5.821921601220e-05 0.0 
2.131443084276e-04 1.886419545473e-04 0.0 
1.600014149195e-04 5.299696367520e-05 0.0 
-1.818406572608e-04 3.142293129662e-04 0.0 
6.880052314327e-06 -3.872215600213e-05 0.0 
1.137435701927e-06 -9.253307786405e-05 0.0 
3.739829246180e-05 3.678610030457e-06 0.0 
2.040739457595e-05 -5.465894183110e-05 0.0 
4.639810207183e-05 1.670299585819e-03 0.0 
9.671114216231e-06 2.323499141557e-03 0.0 
1.799870357919e-04 1.754384194630e-03 0.0 
7.764776458462e-06 2.170901950279e-03 0.0 
2.451587176932e-04 1.757421956894e-03 0.0 
7.486784677114e-06 2.018785237386e-03 0.0 
2.719163583571e-04 1.709097513001e-03 0.0 
7.397966065947e-06 1.866745609671e-03 0.0 
2.750377797621e-04 1.624456293460e-03 0.0 
7.346362332732e-06 1.714654013607e-03 0.0 
2.619367108211e-04 1.517099762534e-03 0.0 
7.298558909371e-06 1.562506861411e-03 0.0 

VECTORS node_materi_displacement float
0.0 1.186766582513e-02 0.0 
0.0 1.532026252036e-02 0.0 
0.0 0.0 0.0 
0.0 0.0 0.0 
0.0 1.185130378625e-02 0.0 
0.0 1.177820010833e-02 0.0 
0.0 1.164850011835e-02 0.0 
0.0 1.146174118510e-02 0.0 
0.0 1.121581500843e-02 0.0 
0.0 1.091184993918e-02 0.0 
0.0 1.054968477661e-02 0.0 
0.0 1.012831907663e-02 0.0 
0.0 9.647190131890e-03 0.0 
0.0 9.104929974029e-03 0.0 
0.0 8.499241062113e-03 0.0 
0.0 7.828811831573e-03 0.0 
0.0 7.093297871376e-03 0.0 
0.0 6.294739717512e-03 0.0 
0.0 5.425881345621e-03 0.0 
0.0 4.486760122802e-03 0.0 
0.0 3.476481267256e-03 0.0 
0.0 2.392167605005e-03 0.0 
0.0 1.231970098278e-03 0.0 
0.0 0.0 0.0 
0.0 0.0 0.0 
0.0 0.0 0.0 
0.0 0.0 0.0 
0.0 0.0 0.0 
0.0 0.0 0.0 
0.0 0.0 0.0 
0.0 0.0 0.0 
0.0 0.0 0.0 
0.0 0.0 0.0 
0.0 0.0 0.0 
0.0 0.0 0.0 
0.0 0.0 0.0 
0.0 0.0 0.0 
0.0 0.0 0.0 
0.0 0.0 0.0 
0.0 0.0 0.0 
0.0 0.0 0.0 
0.0 0.0 0.0 
0.0 0.0 0.0 
0.0 0.0 0.0 
0.0 0.0 0.0 
0.0 0.0 0.0 
0.0 0.0 0.0 
0.0 0.0 0.0 
0.0 0.0 0.0 
0.0 0.0 0.0 
0.0 0.0 0.0 
0.0 0.0 0.0 
0.0 0.0 0.0 
0.0 0.0 0.0 
0.0 0.0 0.0 
0.0 0.0 0.0 
0.0 0.0 0.0 
0.0 0.0 0.0 
0.0 0.0 0.0 
0.0 0.0 0.0 
0.0 0.0 0.0 
0.0 0.0 0.0 
0.0 0.0 0.0 
0.0 0.0 0.0 
0.0 0.0 0.0 
0.0 0.0 0.0 
0.0 0.0 0.0 
0.0 0.0 0.0 
0.0 0.0 0.0 
0.0 0.0 0.0 
0.0 0.0 0.0 
0.0 0.0 0.0 
0.0 1.406304046540e-02 0.0 
0.0 1.274289731730e-02 0.0 
0.0 1.135963256568e-02 0.0 
0.0 9.915646523414e-03 0.0 
0.0 8.410065384661e-03 0.0 
0.0 6.844892438516e-03 0.0 
0.0 5.220536575407e-03 0.0 
0.0 3.537671815594e-03 0.0 
0.0 1.797380339206e-03 0.0 
-1.263435125044e-03 1.499927894357e-02 0.0 
9.954045931936e-04 1.516020178105e-02 0.0 
-8.602427561658e-04 1.608604528611e-02 0.0 
-4.256583223312e-04 1.722307319573e-02 0.0 
5.967743415016e-05 1.822148879339e-02 0.0 
5.185767379576e-04 1.888081686037e-02 0.0 
8.834348644658e-04 1.892757895395e-02 0.0 
1.074697009934e-03 1.857969240466e-02 0.0 
1.149171848111e-03 1.797850796512e-02 0.0 
1.146542247345e-03 1.718466671566e-02 0.0 
1.089555117364e-03 1.623594952971e-02 0.0 
0.0 2.151340924803e-02 0.0 
0.0 2.064214044645e-02 0.0 
0.0 1.970468722268e-02 0.0 
0.0 1.870739491632e-02 0.0 
0.0 1.764057396539e-02 0.0 
0.0 1.651436194645e-02 0.0 
5.580600544265e-05 1.532083668929e-02 0.0 
1.101558949195e-04 1.532244170175e-02 0.0 
1.659800538948e-04 1.532465224899e-02 0.0 
2.227208838708e-04 1.532629874001e-02 0.0 
2.801857071386e-04 1.532946037414e-02 0.0 
3.391148232935e-04 1.533036949485e-02 0.0 
4.001173229780e-04 1.533139950023e-02 0.0 
4.620964498100e-04 1.532958684380e-02 0.0 
5.280464940114e-04 1.532698252549e-02 0.0 
5.969912694445e-04 1.531867721354e-02 0.0 
6.686944305843e-04 1.530520636053e-02 0.0 
7.441303264013e-04 1.528549438242e-02 0.0 
8.232596109072e-04 1.525630820168e-02 0.0 
9.066926420684e-04 1.521481463386e-02 0.0 
-1.149557918137e-03 1.441039548257e-02 0.0 
-1.007587639732e-03 1.392918403479e-02 0.0 
-8.631769668789e-04 1.353300347389e-02 0.0 
-7.280760793205e-04 1.320936009167e-02 0.0 
-6.077537957666e-04 1.294621253800e-02 0.0 
-4.997859329881e-04 1.272868914137e-02 0.0 
-4.042824833818e-04 1.254914725254e-02 0.0 
-3.221246852543e-04 1.240183695773e-02 0.0 
-2.519262171710e-04 1.228179394698e-02 0.0 
-1.927499234090e-04 1.218562960123e-02 0.0 
-1.452869633847e-04 1.210657547332e-02 0.0 
-1.046430816465e-04 1.204617748048e-02 0.0 
-7.046806237067e-05 1.199532785029e-02 0.0 
-4.727765339615e-05 1.195474785349e-02 0.0 
-3.147356221341e-05 1.192504208322e-02 0.0 
-1.910777235277e-05 1.190296049702e-02 0.0 
-9.815809368651e-06 1.188653256939e-02 0.0 
-3.242665478463e-06 1.187563052427e-02 0.0 
-2.073681529150e-06 1.186827871346e-02 0.0 
6.194168853651e-05 2.151866313893e-02 0.0 
1.127295850343e-04 2.151726380813e-02 0.0 
1.633436823586e-04 2.151892457909e-02 0.0 
2.138490980050e-04 2.152113994782e-02 0.0 
2.635283920013e-04 2.152345766332e-02 0.0 
3.117597640154e-04 2.152535775540e-02 0.0 
3.579881485817e-04 2.152614926712e-02 0.0 
4.016882533462e-04 2.152498413357e-02 0.0 
4.423330846391e-04 2.152083341631e-02 0.0 
4.793787201489e-04 2.151245107636e-02 0.0 
5.122575993749e-04 2.149833170824e-02 0.0 
5.403803900870e-04 2.147665804992e-02 0.0 
5.631439947320e-04 2.144524333601e-02 0.0 
5.799305145007e-04 2.140141871092e-02 0.0 
5.901737941197e-04 2.134195363030e-02 0.0 
5.933827088910e-04 2.126287230698e-02 0.0 
5.893211179675e-04 2.115943544789e-02 0.0 
5.779197261147e-04 2.102563664342e-02 0.0 
5.597724114683e-04 2.085423300726e-02 0.0 
5.360074425560e-04 2.063528618162e-02 0.0 
5.098330265609e-04 2.035587889985e-02 0.0 
4.878932756765e-04 2.000044551622e-02 0.0 
4.640028058579e-04 1.954132392465e-02 0.0 
8.335706295908e-04 1.933045849508e-02 0.0 
8.019901551074e-04 1.964516566689e-02 0.0 
7.733331384974e-04 1.988843711403e-02 0.0 
7.505172907373e-04 2.008153012389e-02 0.0 
7.290185491308e-04 2.023158135511e-02 0.0 
7.074243723520e-04 2.034879362578e-02 0.0 
6.841118365633e-04 2.043874347598e-02 0.0 
6.584509891329e-04 2.050714601424e-02 0.0 
6.299795788777e-04 2.055807197725e-02 0.0 
5.985500396303e-04 2.059513954846e-02 0.0 
5.641550030182e-04 2.062121199512e-02 0.0 
5.269476012121e-04 2.063872034646e-02 0.0 
4.871437591927e-04 2.064963402884e-02 0.0 
4.449908779578e-04 2.065558712948e-02 0.0 
4.007589506222e-04 2.065793798931e-02 0.0 
3.547311117432e-04 2.065781234620e-02 0.0 
3.072001091300e-04 2.065614562854e-02 0.0 
2.584395177524e-04 2.065369480269e-02 0.0 
2.086819871129e-04 2.065105504062e-02 0.0 
1.580687279629e-04 2.064860458482e-02 0.0 
1.065136593345e-04 2.064612709355e-02 0.0 
5.347785171606e-05 2.063999272123e-02 0.0 
5.387795493454e-05 1.971004430886e-02 0.0 
1.080556469903e-04 1.971036166057e-02 0.0 
1.616299164934e-04 1.971308391079e-02 0.0 
2.146022038387e-04 1.971605923682e-02 0.0 
2.670214540553e-04 1.971913706024e-02 0.0 
3.188774710647e-04 1.972195237568e-02 0.0 
3.701154253074e-04 1.972390862196e-02 0.0 
4.206288254436e-04 1.972422309792e-02 0.0 
4.703093687787e-04 1.972185937266e-02 0.0 
5.190885532974e-04 1.971556279199e-02 0.0 
5.669464303583e-04 1.970380524101e-02 0.0 
6.138999899680e-04 1.968475776501e-02 0.0 
6.600291519136e-04 1.965619172629e-02 0.0 
7.055084506586e-04 1.961523461107e-02 0.0 
7.509079118574e-04 1.955860962990e-02 0.0 
7.967045674774e-04 1.948206698099e-02 0.0 
8.442556077145e-04 1.938116335205e-02 0.0 
8.939868415193e-04 1.924851447152e-02 0.0 
9.492964250897e-04 1.907932779170e-02 0.0 
1.006741504649e-03 1.885933156430e-02 0.0 
1.072195441215e-03 1.816574055171e-02 0.0 
1.002388041159e-03 1.831498759631e-02 0.0 
9.336049605481e-04 1.842819090876e-02 0.0 
8.698908983997e-04 1.851711552098e-02 0.0 
8.090435303082e-04 1.858342423516e-02 0.0 
7.508435213281e-04 1.863287272467e-02 0.0 
6.941784225995e-04 1.866807523394e-02 0.0 
6.387291974531e-04 1.869255734274e-02 0.0 
5.841537618620e-04 1.870870487581e-02 0.0 
5.302300740685e-04 1.871845066515e-02 0.0 
4.767533756446e-04 1.872338393380e-02 0.0 
4.235122129684e-04 1.872486881183e-02 0.0 
3.704671257634e-04 1.872407978315e-02 0.0 
3.175741808257e-04 1.872193076571e-02 0.0 
2.647548303962e-04 1.871903054357e-02 0.0 
2.119107368180e-04 1.871587892592e-02 0.0 
1.589712283216e-04 1.871276959970e-02 0.0 
1.058853406337e-04 1.870969057250e-02 0.0 
5.290024953922e-05 1.870411330345e-02 0.0 
5.475955766290e-05 1.764541071772e-02 0.0 
1.097528538582e-04 1.764498624406e-02 0.0 
1.648400984633e-04 1.764782793845e-02 0.0 
2.202737297266e-04 1.765090511271e-02 0.0 
2.760373048606e-04 1.765403298009e-02 0.0 
3.324062429209e-04 1.765672202180e-02 0.0 
3.894888441380e-04 1.765848312104e-02 0.0 
4.476414183252e-04 1.765864046610e-02 0.0 
5.067816336969e-04 1.765633742570e-02 0.0 
5.673260645270e-04 1.764989913811e-02 0.0 
6.296793283100e-04 1.763792671730e-02 0.0 
6.940572763423e-04 1.761878000593e-02 0.0 
7.609034336590e-04 1.759016582844e-02 0.0 
8.307962607733e-04 1.754957366317e-02 0.0 
9.035961268667e-04 1.749200577647e-02 0.0 
9.817382886564e-04 1.741628660424e-02 0.0 
1.061246446253e-03 1.731405572073e-02 0.0 
1.004275519889e-03 1.631964706059e-02 0.0 
9.240814117069e-04 1.638695044535e-02 0.0 
8.447853405950e-04 1.643352485383e-02 0.0 
7.702076318663e-04 1.646849271167e-02 0.0 
6.993126834518e-04 1.649302232919e-02 0.0 
6.314350365560e-04 1.650945234011e-02 0.0 
5.663621905851e-04 1.652005625617e-02 0.0 
5.038271153863e-04 1.652564213896e-02 0.0 
4.430909344897e-04 1.652722766545e-02 0.0 
3.844086591928e-04 1.652753912712e-02 0.0 
3.269851898941e-04 1.652594959883e-02 0.0 
2.709886419554e-04 1.652382426382e-02 0.0 
2.156530045874e-04 1.652089911483e-02 0.0 
1.612457089467e-04 1.651839614390e-02 0.0 
1.074631088651e-04 1.651547504092e-02 0.0 
5.337000432108e-05 1.651000551225e-02 0.0 
-1.058256334628e-03 1.552150560339e-02 0.0 
-6.484687817980e-04 1.666035655576e-02 0.0 
-1.828809955405e-04 1.775177972035e-02 0.0 
3.060601967921e-04 1.860992163775e-02 0.0 
7.393233991641e-04 1.896607386029e-02 0.0 
1.001271989857e-03 1.878848545966e-02 0.0 
1.126445473546e-03 1.830567959897e-02 0.0 
1.157941852270e-03 1.760298786799e-02 0.0 
1.125504347872e-03 1.672777225734e-02 0.0 
1.047661316303e-03 1.571253064543e-02 0.0 
-9.837890705731e-05 1.639675464459e-02 0.0 
2.897200022910e-04 1.182801802282e-03 0.0 
-1.293077786055e-04 1.219804731640e-02 0.0 
-4.376364937360e-04 1.303134554155e-02 0.0 
1.945014092026e-04 1.119010835297e-03 0.0 
8.219622846011e-04 1.798057724153e-02 0.0 
6.457965876698e-05 8.799593578450e-03 0.0 
3.459949275684e-04 1.263423038557e-03 0.0 
1.243956945545e-03 1.790905173961e-02 0.0 
3.465540178984e-04 1.317637603287e-03 0.0 
1.267535072865e-03 1.661264840606e-02 0.0 
1.106096606386e-04 1.005250929163e-03 0.0 
-1.844001377363e-05 1.194890923471e-02 0.0 
3.094742822552e-04 1.421837863459e-03 0.0 
1.083068541796e-03 1.460029505714e-02 0.0 
4.381875756602e-05 1.072699747265e-02 0.0 
6.812717397725e-05 6.866737548925e-03 0.0 
2.673635054603e-04 1.534356456733e-03 0.0 
1.775178752559e-04 1.504821298042e-03 0.0 
5.077331078884e-05 1.539760030771e-03 0.0 
9.271516688380e-05 1.667588193694e-03 0.0 
1.245653201518e-04 1.485921046368e-03 0.0 
8.725372724871e-04 1.412185497654e-02 0.0 
5.637469339301e-04 1.418749768225e-02 0.0 
3.678105797552e-04 1.416653761846e-02 0.0 
3.536879841887e-05 9.147855205973e-03 0.0 
6.646879114500e-05 1.079632036921e-03 0.0 
-7.008356733200e-04 1.413257725510e-02 0.0 
3.388923735398e-06 1.187670544799e-02 0.0 
4.747926009618e-05 4.069089723282e-03 0.0 
1.883042335425e-04 1.424639113870e-02 0.0 
2.260827506502e-05 1.156624282466e-02 0.0 
2.479592104356e-04 1.718380530032e-03 0.0 
3.256548281574e-04 1.189650258575e-03 0.0 
3.290528705705e-04 1.352689262517e-03 0.0 
3.428256706840e-04 1.294514529468e-03 0.0 
2.399224576998e-04 1.096653516597e-03 0.0 
-2.833826932944e-04 1.258943119200e-02 0.0 
7.102230797416e-04 1.423662363401e-02 0.0 
1.774047928356e-04 1.259568799887e-03 0.0 
2.564660362683e-05 6.109976345209e-03 0.0 
-6.247166891864e-05 1.204560183651e-02 0.0 
5.778882394594e-05 9.896242400971e-03 0.0 
2.476052799691e-05 1.253535965061e-03 0.0 
1.111290859300e-03 1.812091203277e-02 0.0 
3.848917282578e-04 1.732417109651e-02 0.0 
1.290143437607e-03 1.737365257853e-02 0.0 
1.193453360904e-03 1.567882576910e-02 0.0 
-6.017742173696e-04 1.541625056158e-02 0.0 
4.321704521965e-05 1.189415221512e-02 0.0 
3.079227888250e-05 8.520079270146e-04 0.0 
1.142491518069e-06 1.185955520050e-02 0.0 
1.371529636433e-05 2.806478380577e-03 0.0 
1.031041173040e-03 1.399899059017e-02 0.0 
1.099423738766e-03 1.341837873251e-02 0.0 
1.006673100689e-03 1.287778331843e-02 0.0 
1.087633425505e-03 1.218618550908e-02 0.0 
9.952673590057e-04 1.150865738818e-02 0.0 
1.055162044400e-03 1.086682950509e-02 0.0 
1.157692164986e-03 1.153698241989e-02 0.0 
1.108993512105e-03 1.020943360395e-02 0.0 
1.220471942542e-03 1.088296139432e-02 0.0 
9.509295907502e-04 1.015015091505e-02 0.0 
1.153368839892e-03 9.537536989670e-03 0.0 
1.273451496073e-03 1.021254859525e-02 0.0 
1.186414368208e-03 8.855970826031e-03 0.0 
1.313674747016e-03 9.527718476378e-03 0.0 
1.389374600279e-03 1.085001587153e-02 0.0 
1.436345562321e-03 1.016550478866e-02 0.0 
1.498867034567e-03 1.144280399219e-02 0.0 
1.551632163750e-03 1.075505734336e-02 0.0 
1.467436784990e-03 9.474664121596e-03 0.0 
1.586919795410e-03 1.006229652989e-02 0.0 
1.657347196148e-03 1.129479928127e-02 0.0 
1.695044198768e-03 1.059798848768e-02 0.0 
1.750869721474e-03 1.177882184537e-02 0.0 
1.788980989683e-03 1.107400122883e-02 0.0 
1.830149483151e-03 1.220595002992e-02 0.0 
1.866374895383e-03 1.149246993871e-02 0.0 
1.804503385961e-03 1.037164925624e-02 0.0 
1.878713705335e-03 1.078839180976e-02 0.0 
1.923519887749e-03 1.184856144108e-02 0.0 
1.930966468233e-03 1.114493651554e-02 0.0 
1.957031146739e-03 1.214126413559e-02 0.0 
1.958201128891e-03 1.144061042453e-02 0.0 
1.914496491531e-03 1.045766902271e-02 0.0 
1.935807982681e-03 1.076385932590e-02 0.0 
1.957756714883e-03 1.167909615724e-02 0.0 
1.929442233290e-03 1.101727345384e-02 0.0 
1.927628978772e-03 1.186346003838e-02 0.0 
1.894464351328e-03 1.122112524507e-02 0.0 
1.867283389968e-03 1.199693362756e-02 0.0 
1.830576341060e-03 1.138098414530e-02 0.0 
1.843046688202e-03 1.060533553631e-02 0.0 
1.777454901904e-03 1.079230327622e-02 0.0 
1.738877592248e-03 1.150419964360e-02 0.0 
1.686569558991e-03 1.094825216241e-02 0.0 
1.710171257499e-03 1.023547591246e-02 0.0 
1.621505851179e-03 1.042570469953e-02 0.0 
1.630950744706e-03 9.707461739685e-03 0.0 
1.545830919702e-03 9.931422384861e-03 0.0 
1.513791662066e-03 1.058820974489e-02 0.0 
1.443375508499e-03 1.012836080063e-02 0.0 
1.461625180150e-03 9.460172610953e-03 0.0 
1.364798335484e-03 9.694601945062e-03 0.0 
1.326422081238e-03 1.030970131293e-02 0.0 
1.255975965779e-03 9.906415096282e-03 0.0 
1.280482592277e-03 9.276467288650e-03 0.0 
1.178964352694e-03 9.522389639667e-03 0.0 
1.138367489424e-03 1.010454676579e-02 0.0 
1.070076370272e-03 9.750699246441e-03 0.0 
1.097927480572e-03 9.144668059274e-03 0.0 
9.966168726962e-04 9.408129044705e-03 0.0 
9.564059415235e-04 9.967735570680e-03 0.0 
8.918184928393e-04 9.652775499631e-03 0.0 
9.197612175492e-04 9.067325390717e-03 0.0 
8.225526174102e-04 9.344021609373e-03 0.0 
8.395389863213e-04 8.731090430361e-03 0.0 
7.840586747126e-04 9.890591692560e-03 0.0 
7.235603390746e-04 9.606672023382e-03 0.0 
6.770499705437e-04 1.011991172350e-02 0.0 
6.252254539058e-04 9.856962673828e-03 0.0 
1.875893456887e-03 9.790043003026e-03 0.0 
5.748431796038e-04 1.033415843068e-02 0.0 
6.144231635582e-04 1.056597801651e-02 0.0 
5.300585955362e-04 1.009443431930e-02 0.0 
5.681542829881e-04 9.592123710726e-03 0.0 
4.779455630548e-04 1.053635354155e-02 0.0 
4.396027848426e-04 1.031855447385e-02 0.0 
3.881518673992e-04 1.072656420059e-02 0.0 
1.881709831206e-03 1.267788033671e-02 0.0 
1.480140009938e-03 8.779176983249e-03 0.0 
3.554123660653e-04 1.052966638386e-02 0.0 
3.069971999797e-04 1.090442510351e-02 0.0 
3.269126434847e-04 1.107690923056e-02 0.0 
2.510078199479e-04 1.122180281924e-02 0.0 
8.988514129385e-04 1.081297061298e-02 0.0 
8.445387210106e-04 9.402436833254e-03 0.0 
8.014031625587e-04 1.008317089076e-02 0.0 
7.374896152007e-04 8.632194901329e-03 0.0 
7.029398289016e-04 9.317385455912e-03 0.0 
2.350347937257e-04 1.106948137587e-02 0.0 
1.055914687147e-03 8.113323022367e-03 0.0 
7.645471286423e-04 7.925626703654e-03 0.0 
1.691504143176e-03 1.248231696677e-02 0.0 
1.930291003067e-03 1.286171578586e-02 0.0 
1.694841322007e-03 9.455171511590e-03 0.0 
3.949808522862e-04 1.009658195717e-02 0.0 
3.156767570504e-04 1.032799592998e-02 0.0 
3.449511321027e-04 9.869233355013e-03 0.0 
9.245037849624e-04 8.413259286500e-03 0.0 
8.345375365603e-04 8.052529170329e-03 0.0 
9.050238410930e-04 7.690926048554e-03 0.0 
8.072468381734e-04 7.306764651081e-03 0.0 
8.611302766253e-04 6.900277420589e-03 0.0 
7.576566957860e-04 6.492525376142e-03 0.0 
7.103476573568e-04 6.922495065298e-03 0.0 
6.567307738958e-04 6.082919336870e-03 0.0 
6.153612393620e-04 6.535658133687e-03 0.0 
7.929315465300e-04 6.040643820938e-03 0.0 
9.028692317106e-04 6.471519075960e-03 0.0 
5.594259474118e-04 5.670145630548e-03 0.0 
5.232826034520e-04 6.143904051942e-03 0.0 
4.667270056777e-04 5.251610697822e-03 0.0 
4.351113998880e-04 5.745877103760e-03 0.0 
4.772227618440e-04 6.597399456641e-03 0.0 
3.933421885716e-04 6.219653307828e-03 0.0 
4.233761473170e-04 7.030927216265e-03 0.0 
1.602881031247e-03 8.921227509204e-03 0.0 
1.641718983664e-03 8.606141533063e-03 0.0 
1.538053106137e-03 8.066455856292e-03 0.0 
1.551047539482e-03 7.688792791869e-03 0.0 
1.436737045966e-03 7.142615307517e-03 0.0 
1.423098944227e-03 6.703772422657e-03 0.0 
1.298844053496e-03 6.149494677724e-03 0.0 
1.315594984560e-03 6.613314861851e-03 0.0 
1.207129890847e-03 8.158960925893e-03 0.0 
1.622103837728e-03 1.159413151459e-02 0.0 
1.656998166729e-03 1.215005559220e-02 0.0 
1.514328060840e-03 1.217429370145e-02 0.0 
1.528557808105e-03 1.272819284172e-02 0.0 
1.360360939965e-03 1.268700995967e-02 0.0 
1.349498282265e-03 1.324111477582e-02 0.0 
1.156318634553e-03 1.313660247106e-02 0.0 
1.177698623635e-03 1.262948499536e-02 0.0 
9.533364345791e-04 1.302234284894e-02 0.0 
9.870910898332e-04 1.256554098174e-02 0.0 
7.492856058687e-04 1.290593344838e-02 0.0 
7.954130495911e-04 1.250285986301e-02 0.0 
1.797110662313e-03 9.677993994257e-03 0.0 
1.539187182968e-03 7.273413455238e-03 0.0 
1.384091226641e-03 6.225921331080e-03 0.0 
1.501281319613e-03 6.816662487450e-03 0.0 
2.577436243527e-04 1.137027104878e-02 0.0 
3.516599598502e-04 5.339844460759e-03 0.0 
8.136100684959e-04 5.564415547700e-03 0.0 
9.301806710905e-04 6.026196757105e-03 0.0 
1.169121348779e-03 5.609163969748e-03 0.0 
1.859282976338e-04 1.135422891851e-02 0.0 
1.115456872750e-03 1.369141340301e-02 0.0 
1.316481057472e-03 1.384749180942e-02 0.0 
6.323055637855e-04 7.825597108819e-03 0.0 
6.063434494267e-04 8.521808641287e-03 0.0 
8.171182710010e-04 5.063157963716e-03 0.0 
1.727616380560e-04 1.122094034661e-02 0.0 
5.833173360151e-04 5.174726786588e-03 0.0 
6.803781971519e-04 1.335458650438e-02 0.0 
3.133012039749e-04 5.833895185946e-03 0.0 
2.737115230759e-04 4.925353211178e-03 0.0 
6.535553464450e-04 7.330138952903e-03 0.0 
1.318903406392e-03 5.705911005114e-03 0.0 
1.440200475969e-03 6.333546701662e-03 0.0 
1.004449998017e-03 1.214719779876e-02 0.0 
8.245653215629e-04 1.213510841699e-02 0.0 
6.102562939194e-04 1.244472583326e-02 0.0 
6.574037383258e-04 1.210952006704e-02 0.0 
8.397009112642e-04 1.179008985951e-02 0.0 
6.797695158841e-04 1.181972502188e-02 0.0 
4.977958841182e-04 1.210138652551e-02 0.0 
5.310066760182e-04 1.184968751543e-02 0.0 
6.901771351607e-04 1.154152829576e-02 0.0 
5.517966579359e-04 1.160702252260e-02 0.0 
3.963487404274e-04 1.188189184566e-02 0.0 
4.266075779857e-04 1.167043168811e-02 0.0 
2.988355646083e-04 4.389431737911e-03 0.0 
4.683042288687e-04 1.318746484196e-02 0.0 
1.431227297723e-03 1.211829034575e-02 0.0 
6.985011048626e-04 4.586083070539e-03 0.0 
1.126782399782e-03 5.101707833723e-03 0.0 
5.306338743463e-04 6.991118165225e-03 0.0 
5.128327369757e-04 7.699006451833e-03 0.0 
5.741986499796e-04 9.212591088758e-03 0.0 
4.881038437717e-04 8.397426412873e-03 0.0 
4.236813981938e-04 6.849350632807e-03 0.0 
4.061101833601e-04 7.560018217339e-03 0.0 
4.578284708239e-04 9.086652908999e-03 0.0 
3.823642772070e-04 8.259892292385e-03 0.0 
4.231196537578e-04 9.763481207118e-03 0.0 
3.536059330239e-04 8.947525729013e-03 0.0 
3.115829027427e-04 7.410749139260e-03 0.0 
2.883106640119e-04 8.111633336421e-03 0.0 
3.208163712738e-04 9.623633728445e-03 0.0 
2.602815051044e-04 8.800607380642e-03 0.0 
2.846219094695e-04 1.028659368760e-02 0.0 
2.282264382213e-04 9.476835028666e-03 0.0 
2.044973740651e-04 7.958258988993e-03 0.0 
1.340432668575e-04 1.146442300257e-02 0.0 
1.190117865073e-03 6.098679253809e-03 0.0 
1.036202011382e-03 5.079462100018e-03 0.0 
2.716787701986e-04 1.011959961044e-02 0.0 
2.934577255884e-04 9.634584752052e-03 0.0 
3.655202014485e-04 9.349459631079e-03 0.0 
3.021809375560e-04 9.090271047882e-03 0.0 
1.758781689239e-04 8.655284980100e-03 0.0 
1.536122287258e-04 7.098408149493e-03 0.0 
1.051836865622e-03 1.430061717066e-02 0.0 
1.257826885569e-03 1.451091324816e-02 0.0 
5.399170501559e-04 6.273403285085e-03 0.0 
2.377813651101e-04 5.439090170148e-03 0.0 
2.666535584841e-04 6.307327344921e-03 0.0 
1.944116127810e-03 1.308581282191e-02 0.0 
1.897179571832e-03 1.382448431225e-02 0.0 
1.889578871784e-03 1.398066945489e-02 0.0 
1.818654699852e-03 1.475847363459e-02 0.0 
1.821632886108e-03 1.457887250302e-02 0.0 
1.785357543500e-03 1.484545270657e-02 0.0 
1.015279700532e-03 6.918639986271e-03 0.0 
2.464425034687e-04 6.541448567035e-03 0.0 
3.378086734088e-04 1.124658339369e-02 0.0 
2.537506553737e-04 1.151646456617e-02 0.0 
2.023225833712e-04 4.500864202987e-03 0.0 
1.309144271839e-03 7.045103453183e-03 0.0 
1.705650046773e-03 9.199788549980e-03 0.0 
1.678243972915e-03 8.510636851521e-03 0.0 
1.568901052240e-03 7.970966501018e-03 0.0 
1.521107730383e-03 7.285978754490e-03 0.0 
1.393232778062e-03 6.685288445532e-03 0.0 
1.323764442464e-03 6.002825387951e-03 0.0 
1.452801940075e-03 6.612460093733e-03 0.0 
1.226613171835e-03 5.135791188979e-03 0.0 
1.234325968581e-03 5.328322100655e-03 0.0 
1.960987021874e-04 1.015335857707e-02 0.0 
1.645682310475e-03 7.871094171070e-03 0.0 
6.882292589278e-04 1.127614380374e-02 0.0 
1.371704802673e-04 1.157363477597e-02 0.0 
2.749226727823e-04 1.191928649779e-02 0.0 
1.207564675571e-04 1.135647408809e-02 0.0 
1.513469997437e-04 1.108112457892e-02 0.0 
6.766993970631e-04 4.033221063529e-03 0.0 
1.176710738354e-03 5.342200121489e-03 0.0 
1.249327393237e-03 6.034721288680e-03 0.0 
1.716923900332e-03 1.554354700948e-02 0.0 
1.718059488723e-03 1.533207967738e-02 0.0 
1.095605024330e-03 4.527697275332e-03 0.0 
7.526421749177e-04 1.076410351500e-02 0.0 
4.958536271603e-04 1.055866318851e-02 0.0 
4.520807008909e-04 1.120994782977e-02 0.0 
8.826657175789e-05 1.159109783634e-02 0.0 
2.297085777991e-04 1.209867130492e-02 0.0 
3.403381071302e-04 5.977140984700e-03 0.0 
1.493692253453e-03 1.398682360708e-02 0.0 
1.439225009531e-03 1.469176156358e-02 0.0 
3.599243797546e-04 1.362706673695e-02 0.0 
1.461177246626e-04 1.341234659335e-02 0.0 
1.296050535480e-04 7.792381675748e-03 0.0 
1.099371489268e-04 6.218667266319e-03 0.0 
3.748585697076e-04 8.768978581025e-03 0.0 
3.057607687110e-04 8.482711430019e-03 0.0 
8.008888584972e-04 4.530812926985e-03 0.0 
3.167242811885e-04 1.172994765129e-02 0.0 
1.258926510858e-04 5.486290181114e-03 0.0 
1.188201615169e-03 6.554060552846e-03 0.0 
1.281274473363e-03 7.446211937260e-03 0.0 
2.314497392272e-04 9.396550573296e-03 0.0 
9.563296762459e-04 1.497317321565e-02 0.0 
7.270755034883e-04 1.469296582162e-02 0.0 
8.262351860785e-04 1.117327170060e-02 0.0 
4.426131977430e-04 1.146670406646e-02 0.0 
1.009582643086e-04 1.123487419284e-02 0.0 
6.326730398168e-04 3.449681356390e-03 0.0 
3.433159177987e-04 5.244799739485e-03 0.0 
1.364838890843e-03 5.951147162818e-03 0.0 
1.561355249636e-03 7.174889338341e-03 0.0 
1.127125872989e-03 4.667389160001e-03 0.0 
1.824624024183e-04 1.193857212004e-02 0.0 
5.576393329738e-04 3.534117347515e-03 0.0 
1.682205311696e-04 5.034325283324e-03 0.0 
1.024264681131e-03 4.697268346635e-03 0.0 
1.091216884410e-03 5.336159647572e-03 0.0 
1.641379642134e-03 1.409360705036e-02 0.0 
1.592660511179e-03 1.482248973254e-02 0.0 
1.356376843139e-03 1.545318367603e-02 0.0 
1.509166856288e-03 1.560658393798e-02 0.0 
1.256434256807e-03 1.217853382341e-02 0.0 
1.758015499984e-03 1.414470632195e-02 0.0 
1.526592815318e-03 1.266820361659e-02 0.0 
1.440791972758e-03 1.333222882830e-02 0.0 
1.519905533758e-03 1.384073725210e-02 0.0 
1.797601876771e-03 1.433558014636e-02 0.0 
1.693031495210e-03 1.505768197036e-02 0.0 
1.674318978079e-03 1.275083110543e-02 0.0 
1.735302025945e-03 9.169422230198e-03 0.0 
4.424030255126e-04 9.047765699422e-03 0.0 
5.056790534526e-04 7.378154260650e-03 0.0 
1.002608712353e-03 8.076924650514e-03 0.0 
2.586088402875e-04 5.816715036556e-03 0.0 
1.950514874648e-04 4.913525285297e-03 0.0 
3.445289082171e-04 1.107694737758e-02 0.0 
3.018067564192e-04 1.171306216619e-02 0.0 
1.832247146136e-04 1.160754056058e-02 0.0 
1.656684756313e-04 1.173082520352e-02 0.0 
7.571466464409e-04 8.396057751021e-03 0.0 
5.848604264462e-04 4.108868579918e-03 0.0 
4.349367677281e-04 5.402498009842e-03 0.0 
4.252905337455e-04 4.662955252081e-03 0.0 
5.388104801511e-04 5.544181244318e-03 0.0 
7.622131512403e-04 3.965618482382e-03 0.0 
1.485360400810e-03 1.165987758151e-02 0.0 
1.502134149640e-03 8.411592261791e-03 0.0 
2.704754800635e-04 1.303859861020e-02 0.0 
1.833850853382e-03 9.421538173887e-03 0.0 
1.076136501678e-04 1.178883130487e-02 0.0 
1.348364102425e-03 8.150765028660e-03 0.0 
1.387243740317e-04 4.065953066133e-03 0.0 
1.605038259598e-04 3.490929297422e-03 0.0 
9.759399763888e-04 3.901627671430e-03 0.0 
1.174506422890e-03 1.401700748814e-02 0.0 
1.778983064017e-03 8.759781479794e-03 0.0 
1.817748453859e-03 9.147351681102e-03 0.0 
1.418845356026e-03 1.448723986828e-02 0.0 
1.479993008640e-03 1.495700154756e-02 0.0 
1.588599473865e-03 1.429773229430e-02 0.0 
1.528982099675e-03 1.538364324555e-02 0.0 
8.025659622466e-04 1.089014520507e-02 0.0 
6.744702605402e-04 1.102481042572e-02 0.0 
9.074973788236e-04 3.897415441236e-03 0.0 
9.821385077212e-04 4.028448940212e-03 0.0 
8.565785911658e-04 3.982442543158e-03 0.0 
9.224744905671e-04 4.585421638925e-03 0.0 
8.312044399111e-04 3.285864592474e-03 0.0 
9.550907235966e-04 3.929390578076e-03 0.0 
1.221439567648e-04 1.093356687791e-02 0.0 
1.592409515850e-03 1.605253548591e-02 0.0 
2.603776202225e-04 4.336418595191e-03 0.0 
1.348305259842e-03 1.398013098610e-02 0.0 
4.494257400920e-04 3.061460838372e-03 0.0 
4.783297598858e-04 3.630894114298e-03 0.0 
-4.338661654939e-05 1.322511253574e-02 0.0 
9.508846223970e-05 1.287453634245e-02 0.0 
8.636143690893e-05 4.610531157968e-03 0.0 
1.241691450739e-03 1.625540845115e-02 0.0 
1.388771748101e-03 1.642678758863e-02 0.0 
1.053391240080e-03 1.600341036501e-02 0.0 
2.100793340402e-05 1.828758968707e-03 0.0 
8.125508076131e-05 1.425996309224e-02 0.0 
1.043359471141e-04 3.026380498416e-03 0.0 
1.750493212066e-03 1.400914557268e-02 0.0 
9.184397205975e-05 3.787124962020e-03 0.0 
1.706213285976e-03 8.122431525524e-03 0.0 
1.927488064917e-03 1.325912441734e-02 0.0 
9.286896204722e-04 5.030574910950e-03 0.0 
7.030900335529e-05 5.491714411163e-03 0.0 
5.170227640958e-05 3.645203436541e-03 0.0 
5.197444662734e-04 1.194958443522e-02 0.0 
4.706486586403e-04 1.259754411517e-02 0.0 
5.707378620453e-04 1.133014830965e-02 0.0 
5.925673161761e-04 1.385325973729e-02 0.0 
1.895532946011e-04 1.419806129872e-02 0.0 
1.876861071669e-04 5.652544479630e-03 0.0 
2.443535884534e-04 1.054544669545e-02 0.0 
2.013633192359e-04 1.030986673793e-02 0.0 
3.348904797478e-04 1.156516063450e-02 0.0 
4.429820841046e-04 1.127747295616e-02 0.0 
4.482998926784e-04 8.434490868564e-03 0.0 
5.209152852044e-04 8.732403905799e-03 0.0 
1.336441391448e-03 7.444287803417e-03 0.0 
1.192321945918e-03 6.777694534810e-03 0.0 
1.596023868144e-03 8.669745813621e-03 0.0 
1.165485032990e-03 6.978432090266e-03 0.0 
1.234492169131e-03 7.818918564321e-03 0.0 
1.342299023994e-03 8.265270350206e-03 0.0 
1.973790024585e-04 4.218812669416e-03 0.0 
1.312763015379e-04 3.142960180095e-03 0.0 
9.351795454541e-04 1.075755705257e-02 0.0 
9.693426086268e-04 1.107161245003e-02 0.0 
7.678599420323e-04 1.062939804537e-02 0.0 
2.481909976647e-04 3.612006674775e-03 0.0 
1.155259165163e-04 2.440470045134e-03 0.0 
1.711071831990e-04 2.934472174223e-03 0.0 
7.890718321986e-05 1.188590052008e-02 0.0 
1.370117486204e-04 1.185139484739e-02 0.0 
5.940040355666e-04 1.536570382589e-02 0.0 
3.400884572722e-04 1.502978827626e-02 0.0 
4.092426738855e-04 3.978876978836e-03 0.0 
5.266626513259e-04 4.818048833809e-03 0.0 
2.888864610021e-04 3.000536767928e-03 0.0 
7.256414779426e-05 1.112127846755e-02 0.0 
1.470128826450e-03 6.505921754694e-03 0.0 
5.788445634786e-04 2.892994962437e-03 0.0 
7.148843818769e-04 3.433226803126e-03 0.0 
4.253608739445e-04 2.222359948449e-03 0.0 
1.118209344681e-03 4.565724518327e-03 0.0 
8.453840950347e-04 3.295251893899e-03 0.0 
8.422748896411e-04 3.320299877398e-03 0.0 
-2.033897637275e-04 1.357188442283e-02 0.0 
3.931377793475e-05 4.342920890089e-03 0.0 
3.593946925941e-04 1.247196728824e-02 0.0 
-3.282942729622e-04 1.337844595570e-02 0.0 
3.112569089840e-04 1.312720103820e-02 0.0 
2.596523105510e-04 1.234494199313e-02 0.0 
2.695128408980e-04 1.376227367809e-02 0.0 
5.949151055958e-05 1.137421187002e-02 0.0 
5.936713767892e-04 1.291307924184e-02 0.0 
6.521078346124e-04 1.213416288287e-02 0.0 
1.724924768196e-05 1.200735745517e-02 0.0 
1.678997947571e-04 2.690337134712e-03 0.0 
3.901141505753e-05 1.190781404839e-02 0.0 
6.718584274896e-05 1.183104617955e-02 0.0 
3.460630546863e-04 2.545385305394e-03 0.0 
3.792767832149e-04 3.143792547680e-03 0.0 
2.522303883506e-04 2.046092972654e-03 0.0 
2.954691574181e-04 2.709617142929e-03 0.0 
3.967567037280e-04 3.739611101734e-03 0.0 
3.097010138377e-04 3.268088432192e-03 0.0 
4.227716688126e-04 1.332483377942e-02 0.0 
2.033289745845e-04 2.053508377791e-03 0.0 
2.301116261104e-04 2.765238778574e-03 0.0 
1.341390950501e-04 1.580501241886e-03 0.0 
1.402791544365e-03 1.601242331442e-02 0.0 
1.608177135297e-03 1.570950131222e-02 0.0 
1.481400905368e-03 1.653718230188e-02 0.0 
1.218764405477e-03 1.732637466617e-02 0.0 
6.222064540480e-04 2.909227506617e-03 0.0 
7.609594340156e-04 3.871312926620e-03 0.0 
1.050256426616e-04 4.598381460348e-03 0.0 
1.200741451450e-04 5.526452795991e-03 0.0 
2.147411308248e-04 1.306439375145e-02 0.0 
1.565650025226e-04 1.311980216245e-02 0.0 
1.705854714274e-04 1.187592383910e-02 0.0 
1.230520199586e-04 1.202972739256e-02 0.0 
1.311383099180e-04 1.076506111928e-02 0.0 
8.438244842047e-05 1.092864355267e-02 0.0 
9.988196171837e-05 9.619592006193e-03 0.0 
6.710994847313e-04 2.629026094141e-03 0.0 
8.766603158196e-04 1.680878596796e-02 0.0 
1.311601951606e-03 1.511928361419e-02 0.0 
6.776693668973e-04 2.676273309413e-03 0.0 
8.303238790739e-04 3.441985384980e-03 0.0 
1.570969233499e-03 1.575223640800e-02 0.0 
1.448299868571e-03 1.676358899476e-02 0.0 
3.705773651576e-04 2.275876104914e-03 0.0 
1.785012215087e-03 1.343461249842e-02 0.0 
1.254410409175e-04 1.727425825092e-03 0.0 
-7.785493668249e-04 1.461207120636e-02 0.0 
-3.018668785894e-04 1.431601970097e-02 0.0 
1.871107469656e-03 1.340374634468e-02 0.0 
1.647007804666e-03 1.470605624762e-02 0.0 
1.678928899092e-03 1.568985945635e-02 0.0 
1.560275172406e-03 1.644864029438e-02 0.0 
1.065042456549e-03 6.057511398802e-03 0.0 
9.114373618865e-05 1.197855866169e-02 0.0 
8.342785246394e-04 1.569713585562e-02 0.0 
1.448899716104e-04 9.471145559635e-03 0.0 
4.111269758140e-04 1.607475769203e-02 0.0 
5.509246432889e-05 5.026268671157e-03 0.0 
1.792565802073e-03 1.273987812540e-02 0.0 
1.833558537757e-03 1.329492790032e-02 0.0 
1.171033413606e-03 1.522800504310e-02 0.0 
1.714522651664e-03 1.486410287252e-02 0.0 
1.329034115490e-03 1.152468201740e-02 0.0 
1.178442581184e-03 1.281173652558e-02 0.0 
1.263058503067e-03 1.342363302899e-02 0.0 
1.775787645969e-03 1.209926366153e-02 0.0 
1.591676123990e-03 1.628611494651e-02 0.0 
1.402099856281e-03 1.725108789061e-02 0.0 
1.600893998893e-03 1.199050355533e-02 0.0 
6.583289776219e-04 6.396456608284e-03 0.0 
6.538971170889e-04 5.666352335392e-03 0.0 
5.050240685879e-04 4.130036081741e-03 0.0 
6.365511720627e-04 4.943883657850e-03 0.0 
7.864470257584e-04 6.495144341494e-03 0.0 
7.776515189725e-04 5.773064077955e-03 0.0 
6.045176486082e-04 4.237442091538e-03 0.0 
7.538209188572e-04 5.051604303163e-03 0.0 
5.092405297265e-04 3.196756973747e-03 0.0 
7.062894016161e-04 4.295918400616e-03 0.0 
9.075883768910e-04 5.876365348295e-03 0.0 
8.770006026474e-04 5.188093612895e-03 0.0 
6.737672692387e-04 3.770700948323e-03 0.0 
1.065608624468e-03 6.741254495982e-03 0.0 
5.317652219939e-04 2.017521434149e-03 0.0 
1.938988766110e-03 1.255594758657e-02 0.0 
-9.671056420564e-06 1.384621833926e-02 0.0 
-9.295773525965e-05 1.468407588201e-02 0.0 
1.769574406784e-03 1.291605766767e-02 0.0 
2.481844879491e-04 1.556276903574e-03 0.0 
2.008654444508e-04 1.544714606806e-03 0.0 
1.521881349043e-03 1.333399351647e-02 0.0 
3.200315667060e-04 1.383309900923e-03 0.0 
1.350628337409e-03 1.277872491983e-02 0.0 
8.985099404066e-04 1.352827537029e-02 0.0 
3.430662242085e-04 1.351658371779e-03 0.0 
7.815589802755e-04 7.211251819104e-03 0.0 
9.067521893430e-04 8.023526563429e-03 0.0 
8.801986259937e-04 8.719227789874e-03 0.0 
1.536051124959e-04 1.448615823512e-03 0.0 
6.199626165218e-04 1.068359408059e-02 0.0 
3.255076984139e-04 1.185537362039e-03 0.0 
1.656240275491e-03 8.255340406157e-03 0.0 
1.750988494811e-03 8.859225551608e-03 0.0 
1.816266461142e-03 9.767940171590e-03 0.0 
9.228505940554e-04 6.612939250224e-03 0.0 
3.025782167586e-04 1.182459743084e-03 0.0 
5.450650657250e-04 2.249742992253e-03 0.0 
5.127829386394e-04 2.219532766641e-03 0.0 
7.621183912798e-04 3.336335104502e-03 0.0 
2.668783050341e-04 1.145630584745e-03 0.0 
2.606863113026e-04 1.376677201577e-03 0.0 
2.643917898671e-04 1.295040195617e-03 0.0 
8.387649633452e-04 1.147391169339e-02 0.0 
9.940734619404e-04 1.140288668998e-02 0.0 
1.114418390474e-03 1.096499315230e-02 0.0 
1.149934041052e-03 1.133341273388e-02 0.0 
1.006172878295e-03 1.176184746270e-02 0.0 
1.172906729112e-03 1.173174167667e-02 0.0 
1.300979949907e-03 1.126274704620e-02 0.0 
1.182023888842e-03 1.216459722647e-02 0.0 
9.908741838812e-04 5.321538584022e-03 0.0 
2.218760855807e-04 1.079079053798e-03 0.0 
9.660497481219e-04 7.310708757864e-03 0.0 
1.071079562271e-03 7.732928924788e-03 0.0 
1.098324758147e-03 8.473616247483e-03 0.0 
5.070493393473e-04 9.321478413306e-03 0.0 
5.913239644560e-04 9.027448860911e-03 0.0 
5.986845194439e-04 8.400527636013e-03 0.0 
4.243607952291e-04 9.603142476605e-03 0.0 
1.629639490040e-03 7.835048979744e-03 0.0 
2.031235463487e-04 1.078157264125e-03 0.0 
1.394362202145e-03 7.920310407709e-03 0.0 
6.590919553466e-04 9.319517225088e-03 0.0 
7.905647696446e-04 1.418338288640e-02 0.0 
8.278038646691e-04 1.304787248313e-02 0.0 
9.098578219414e-04 1.298504571528e-02 0.0 
8.488555985452e-04 1.168667427628e-02 0.0 
7.359040190485e-04 1.292162532360e-02 0.0 
3.747192029651e-04 8.128492665008e-03 0.0 
3.010359707867e-04 7.815362594935e-03 0.0 
2.354728794314e-04 8.189161626540e-03 0.0 
2.279352975272e-04 7.493875103100e-03 0.0 
1.648393167493e-04 7.884771404489e-03 0.0 
1.703669239280e-04 8.530522386641e-03 0.0 
1.546204779764e-04 7.162846799848e-03 0.0 
9.531938936123e-05 7.653129183385e-03 0.0 
6.351040498738e-04 1.422277454324e-02 0.0 
-3.509486099903e-04 1.279084680989e-02 0.0 
-1.166842256705e-04 1.261441621996e-02 0.0 
-8.891895440067e-05 1.243910015161e-02 0.0 
6.910422320685e-05 1.242220638061e-02 0.0 
7.778945212905e-05 1.260009271010e-02 0.0 
2.828978229669e-04 1.234101441539e-02 0.0 
2.738171917898e-04 1.257150707433e-02 0.0 
-1.504258669216e-04 1.284055455971e-02 0.0 
-2.238003430812e-04 1.243142295116e-02 0.0 
-5.872191046384e-05 1.229872805456e-02 0.0 
-1.722632046160e-04 1.230189088282e-02 0.0 
-3.893291834028e-05 1.218881333273e-02 0.0 
1.042146017859e-04 1.212110297042e-02 0.0 
2.421865034615e-04 1.165442091065e-02 0.0 
5.930699777234e-05 1.226522975270e-03 0.0 
6.227239343362e-05 9.383189432472e-03 0.0 
1.184950903016e-04 9.650701881067e-03 0.0 
1.080275680351e-04 1.011532886140e-02 0.0 
1.745218189356e-04 9.877043006884e-03 0.0 
1.188668454188e-04 9.160533013185e-03 0.0 
5.127410390112e-05 1.034245518232e-02 0.0 
9.700796433269e-05 1.048901947054e-02 0.0 
3.722547187404e-06 1.186461322409e-02 0.0 
1.471390517587e-05 1.181110644190e-02 0.0 
4.975904296688e-06 1.181334282434e-02 0.0 
2.247992413974e-05 1.171432769710e-02 0.0 
3.587588105789e-05 1.172447041406e-02 0.0 
2.240873839501e-05 1.181890776871e-02 0.0 
2.785879981088e-05 1.183365922094e-02 0.0 
-1.464426709263e-07 1.189509722065e-02 0.0 
3.133310143341e-05 1.185366948991e-02 0.0 
6.392491763135e-05 1.174524312807e-02 0.0 
-6.796496698518e-06 1.191887857474e-02 0.0 
3.145503931234e-05 7.625417040572e-03 0.0 
5.995085924527e-05 6.846043173084e-03 0.0 
1.769226789779e-04 1.130062618164e-03 0.0 
4.902685630438e-04 1.413108407977e-02 0.0 
-9.026850442899e-05 1.211386311530e-02 0.0 
4.754497133032e-05 1.849018316509e-03 0.0 
7.205235698838e-05 1.536945357637e-03 0.0 
5.898876174675e-05 1.488276826336e-03 0.0 
3.463706914691e-05 2.983113136625e-03 0.0 
5.629629039554e-05 2.450872680405e-03 0.0 
2.507999983214e-05 1.796769111755e-03 0.0 
4.126568114955e-04 1.092000288808e-02 0.0 
4.692258837404e-04 3.451188981366e-03 0.0 
1.358422541458e-04 4.741487966654e-03 0.0 
8.276923550273e-04 1.407739958170e-02 0.0 
5.540522382425e-04 1.115433795464e-02 0.0 
1.901756209197e-04 5.924348838882e-03 0.0 
5.642512480756e-04 6.965071036906e-03 0.0 
2.256779866936e-04 3.954119836508e-03 0.0 
3.435043359743e-04 6.673139498732e-03 0.0 
3.795462492250e-04 4.824512853011e-03 0.0 
4.924896380241e-04 2.263848768504e-03 0.0 
8.025256303253e-05 1.147076883339e-02 0.0 
3.851054605551e-04 1.042669995797e-02 0.0 
2.481453019668e-04 1.094203095860e-02 0.0 
2.281179675118e-04 7.256004421572e-03 0.0 
2.790908874734e-04 1.072779124357e-02 0.0 
2.390434626133e-04 8.791449409082e-03 0.0 
1.904438513788e-04 1.148089815081e-02 0.0 
6.143030099709e-04 2.574146453886e-03 0.0 
1.611353412894e-03 1.317211338437e-02 0.0 
1.012578456029e-03 8.777228267395e-03 0.0 
4.796055398912e-04 9.850883702400e-03 0.0 
5.095227693632e-04 1.074735840342e-02 0.0 
5.594970691375e-04 1.137432408658e-02 0.0 
1.963517952095e-03 1.237513320990e-02 0.0 
7.502939645291e-04 9.032912036879e-03 0.0 
6.860475157585e-04 5.609234699715e-03 0.0 
1.736585149902e-04 6.381389820141e-03 0.0 
-2.856247324394e-05 1.198532326801e-02 0.0 
7.008041114955e-04 5.110809232062e-03 0.0 
7.439784248380e-04 7.692346713748e-03 0.0 
5.371997693693e-04 9.893883338824e-03 0.0 
1.257883448334e-03 5.652633797621e-03 0.0 
3.580729466801e-04 1.208917225630e-02 0.0 
3.293958385752e-04 6.701191137036e-03 0.0 
3.254093822117e-04 3.855879222119e-03 0.0 
7.026434312946e-04 1.144362212600e-02 0.0 
1.255662323625e-04 1.168744513408e-02 0.0 
4.077771402071e-04 1.186776859700e-02 0.0 
5.084350319665e-04 2.928238563479e-03 0.0 
6.501972431274e-04 7.114311754166e-03 0.0 
2.108495701057e-04 1.091187007325e-02 0.0 
1.542139890675e-03 9.204950468039e-03 0.0 
1.891238612220e-03 1.256629352727e-02 0.0 
1.144842972220e-03 1.515471354776e-02 0.0 
1.403753591847e-04 4.047649435080e-03 0.0 
1.892503062639e-03 1.011382132295e-02 0.0 
9.874048288077e-04 4.532023556483e-03 0.0 
1.426493594931e-03 7.547006989374e-03 0.0 
1.800607560522e-04 1.074086164315e-02 0.0 
4.907266264081e-04 4.196208701820e-03 0.0 
1.775588529050e-03 1.001524712915e-02 0.0 
2.642388361580e-04 5.091105792149e-03 0.0 
1.442594734109e-03 7.379078331027e-03 0.0 
1.573891913847e-03 1.107618018462e-02 0.0 
4.338103589393e-04 6.131074363286e-03 0.0 
1.191103637844e-03 8.872497915666e-03 0.0 
1.190027740335e-03 5.111697944655e-03 0.0 
1.687266950195e-03 1.361580204155e-02 0.0 
1.711285347922e-03 9.897599985135e-03 0.0 
1.340790595618e-03 8.849320043382e-03 0.0 
1.867438448401e-03 1.009611848572e-02 0.0 
1.297220986326e-04 6.393270764552e-03 0.0 
5.927075922379e-04 4.655733653578e-03 0.0 
5.534376308783e-04 1.280251423877e-02 0.0 
1.845866539461e-03 1.409021990365e-02 0.0 
6.628482390536e-04 1.000066314747e-02 0.0 
1.093110851875e-03 4.704298879811e-03 0.0 
1.863628691909e-04 3.411673749130e-03 0.0 
1.877271894779e-03 1.359492299094e-02 0.0 
4.861770224857e-04 4.737905781588e-03 0.0 
3.392094151372e-04 4.554496258636e-03 0.0 
6.754247026281e-04 8.719584906314e-03 0.0 
2.873880557005e-05 1.133949538605e-02 0.0 
4.901665444387e-04 1.440708563353e-02 0.0 
1.354052727090e-03 1.217681314796e-02 0.0 
1.881617783984e-03 1.038292045458e-02 0.0 
6.737126700958e-04 8.057180272019e-03 0.0 
3.603175168892e-04 3.070321792329e-03 0.0 
3.952366936501e-04 4.294206659813e-03 0.0 
9.390085787401e-04 5.544881716374e-03 0.0 
-3.414884757851e-04 1.589619421852e-02 0.0 
1.249977845309e-03 1.457796962076e-02 0.0 
3.115015716991e-04 3.841536083199e-03 0.0 
1.445538846550e-03 8.725882049179e-03 0.0 
1.055688353488e-03 4.542459984470e-03 0.0 
1.034332638649e-04 8.268034030476e-03 0.0 
6.354613597740e-04 2.564164030896e-03 0.0 
1.439951293349e-03 1.639052255400e-02 0.0 
2.357362637767e-04 3.378972779977e-03 0.0 
1.061727069512e-03 5.582161851583e-03 0.0 
1.669447279889e-03 1.339799465557e-02 0.0 
1.348194075104e-04 1.425980212856e-02 0.0 
1.494269132918e-04 2.117922366761e-03 0.0 
8.944956737615e-04 4.485377385953e-03 0.0 
1.767293336305e-03 8.995569156395e-03 0.0 
1.370129987641e-03 9.012390646222e-03 0.0 
1.238633050658e-03 1.617023382108e-02 0.0 
5.895491333498e-04 7.716471037658e-03 0.0 
1.602762077674e-03 9.370781553736e-03 0.0 
1.335009559351e-04 1.414897795919e-03 0.0 
8.520409630862e-04 3.994437157184e-03 0.0 
9.962712447268e-04 9.509350170261e-03 0.0 
5.206060646565e-04 8.085525671406e-03 0.0 
1.613511470508e-03 7.475969766507e-03 0.0 
5.001675699925e-05 1.173412006460e-02 0.0 
1.361911724646e-03 1.557771604698e-02 0.0 
4.419763417952e-04 7.762282031706e-03 0.0 
1.333632985961e-03 1.170364788140e-02 0.0 
1.273398574183e-03 8.580981000804e-03 0.0 
7.004507467441e-04 2.680310580912e-03 0.0 
3.642503399639e-04 7.431214880876e-03 0.0 
1.443877772146e-03 1.117689919708e-02 0.0 
2.879466140071e-04 7.092320961432e-03 0.0 
1.290687053232e-03 1.701875615946e-02 0.0 
1.030851476787e-03 8.796652169911e-03 0.0 
2.108860152237e-04 6.743986021919e-03 0.0 
1.472449505486e-03 8.082144887919e-03 0.0 
7.846582622663e-05 1.175930130693e-02 0.0 
1.716782683453e-03 8.331560666066e-03 0.0 
8.164993396812e-05 3.550889444107e-03 0.0 
7.248137582181e-04 1.037498475507e-02 0.0 
1.174076914942e-03 8.162434294366e-03 0.0 
9.211984539662e-04 7.317484994468e-03 0.0 
1.274629617800e-03 1.769221018313e-02 0.0 
1.126761784473e-03 7.371925409388e-03 0.0 
1.303536282215e-03 6.743082505806e-03 0.0 
1.646239255266e-03 7.679928176235e-03 0.0 
1.830257863228e-03 9.479932221971e-03 0.0 
1.048366297092e-03 6.498471124172e-03 0.0 
1.446347853206e-03 1.698694631613e-02 0.0 
4.268617923525e-04 1.111113740477e-02 0.0 
3.405269071898e-04 1.140585603657e-02 0.0 
1.390365182679e-03 1.072884913141e-02 0.0 
1.150864765375e-03 6.049961494510e-03 0.0 
4.618015562083e-05 1.159133886105e-02 0.0 
1.066884203078e-03 7.408331189635e-03 0.0 
2.174526620790e-04 1.179687573913e-02 0.0 
1.256172977691e-03 1.085294346697e-02 0.0 
1.346967945860e-03 5.762735566159e-03 0.0 
3.809477557886e-05 1.056538491470e-02 0.0 
1.201498923164e-03 1.046726005223e-02 0.0 
3.551862448491e-05 1.106075255497e-02 0.0 
1.069643189866e-03 1.061885260840e-02 0.0 
1.740420775883e-03 8.506394049915e-03 0.0 
1.017079711984e-03 1.028380996605e-02 0.0 
8.921148606905e-04 1.045924667765e-02 0.0 
9.314549522095e-05 3.117404722697e-03 0.0 
8.414971303812e-04 1.017020637013e-02 0.0 
1.186388591564e-05 1.490702654215e-03 0.0 
2.481517962177e-05 1.115403127577e-03 0.0 
5.080743897256e-05 1.328186110198e-02 0.0 
1.142523340399e-03 1.822492492527e-02 0.0 
-6.090951069249e-04 1.368944619490e-02 0.0 
1.374900047225e-03 1.716170171508e-02 0.0 
6.488832852024e-04 1.079318987122e-02 0.0 
1.211358995347e-03 7.481180964274e-03 0.0 
1.055799742823e-04 1.322064145415e-02 0.0 
5.346748869293e-04 1.095181371360e-02 0.0 
4.883975634589e-04 2.774675736386e-03 0.0 
3.278420896233e-04 1.216592859842e-03 0.0 
6.843144605541e-05 8.311210894027e-03 0.0 
9.282523117998e-04 4.037008541248e-03 0.0 
1.550948665410e-03 6.995561956679e-03 0.0 
1.929140460461e-05 4.507740621872e-03 0.0 
3.140375657657e-04 1.435613083083e-02 0.0 
-1.936974739117e-05 1.209881523629e-02 0.0 
6.255767185401e-05 5.940178321952e-03 0.0 
9.127196070115e-04 1.827986136943e-02 0.0 
1.056203112954e-03 1.710612931057e-02 0.0 
6.386833184219e-04 1.647146807525e-02 0.0 
1.407668572400e-04 1.059913426015e-02 0.0 
7.059632273297e-05 1.227220402694e-02 0.0 
6.250007571691e-04 1.768498066156e-02 0.0 
5.862368851598e-04 2.352093289964e-03 0.0 
5.287697026623e-04 1.318795502299e-02 0.0 
1.259301605139e-03 5.303986899722e-03 0.0 
1.503160757779e-04 1.687052375839e-02 0.0 
2.325697005770e-04 2.994182506060e-03 0.0 
6.619689304201e-04 2.511962497641e-03 0.0 
1.249701513100e-04 9.884692969754e-04 0.0 
9.896864425994e-04 3.959695358348e-03 0.0 
1.449565080195e-04 1.566141935210e-02 0.0 
7.771058224244e-04 1.198785666386e-02 0.0 
5.912396738772e-04 2.591924085832e-03 0.0 
9.219683570195e-05 7.071987179301e-03 0.0 
8.974246759195e-05 9.444684781634e-04 0.0 
6.670683390306e-04 1.328964963749e-02 0.0 
5.692996064973e-05 2.911745637776e-03 0.0 
3.792815741664e-04 1.271423680958e-02 0.0 
2.821086499125e-05 2.826064340888e-03 0.0 
1.037778545592e-03 6.019942527828e-03 0.0 
2.142098254880e-04 1.158390520656e-02 0.0 
9.342665496579e-04 1.198592393143e-02 0.0 
6.820195433040e-05 1.930037336717e-03 0.0 
4.201983410142e-04 2.841335092712e-03 0.0 
-1.125342009657e-04 1.518172873089e-02 0.0 
1.073070495982e-04 8.464044884971e-03 0.0 
2.353616876047e-04 9.878829190613e-03 0.0 
-2.401751281808e-04 1.311428742831e-02 0.0 
3.087136444296e-04 2.066930578436e-03 0.0 
8.331431088672e-04 4.559794596690e-03 0.0 
1.139602209432e-04 1.972268108638e-03 0.0 
9.181513734545e-06 1.172116333559e-02 0.0 
4.166772945790e-06 1.197578177607e-02 0.0 
3.444773231894e-04 1.935221524769e-03 0.0 
5.092971438698e-04 2.507082383829e-03 0.0 
4.721576969005e-04 1.232942281778e-02 0.0 
7.710762737134e-05 1.205368698555e-03 0.0 
-4.554977971551e-04 1.484920291865e-02 0.0 
4.298091611833e-04 1.448717973181e-02 0.0 
2.821913743093e-05 1.188395390325e-02 0.0 
7.194655603222e-05 9.529834702660e-04 0.0 
1.376608839837e-04 2.789742980917e-03 0.0 
1.667292798082e-04 9.412603349444e-03 0.0 
9.484037506601e-04 1.398137753639e-02 0.0 
8.313127115852e-05 1.083866334224e-02 0.0 
8.610774333499e-04 3.542665835591e-03 0.0 
6.784378593667e-05 1.206564003597e-02 0.0 
9.319633273396e-05 2.634750797811e-03 0.0 
3.978592007516e-04 1.919178979023e-03 0.0 
2.832858631151e-04 2.614278746597e-03 0.0 
2.415269247411e-04 8.915041491504e-04 0.0 
-3.644253472924e-04 1.390556340832e-02 0.0 
5.736236519179e-04 2.182293494545e-03 0.0 
6.699693611580e-04 3.043208611818e-03 0.0 
2.358381469341e-04 1.440987013909e-02 0.0 
3.616162851803e-04 2.790651450303e-03 0.0 
1.497619243174e-04 1.026749199170e-02 0.0 
1.020861643812e-04 1.162838237018e-02 0.0 
5.275532780311e-06 1.321078713312e-03 0.0 
-5.782237905281e-07 1.185672818913e-02 0.0 
3.943761000667e-05 1.440581618156e-02 0.0 
9.978215297959e-06 9.097615746966e-04 0.0 
5.953616505988e-05 1.162993411540e-02 0.0 
8.346426539661e-05 1.229856712624e-02 0.0 
4.635528111942e-04 2.435759932735e-03 0.0 
4.459067053784e-05 8.155429331648e-03 0.0 
4.567801371894e-05 5.580799648032e-03 0.0 
2.013422741685e-04 1.223892711636e-02 0.0 
-5.690044557676e-04 1.332079264783e-02 0.0 
6.606685390375e-05 9.839311592144e-03 0.0 
5.909255355703e-04 2.223108981918e-03 0.0 
2.175190215156e-04 2.506296443174e-03 0.0 
1.710735081819e-04 1.081469016049e-02 0.0 
1.992067142619e-04 1.469393132131e-02 0.0 
6.533528986011e-04 3.435854538689e-03 0.0 
1.792762733351e-04 8.986108672606e-03 0.0 
8.055704389059e-04 3.563110881426e-03 0.0 
7.449375690475e-04 3.138846228594e-03 0.0 
-8.099899040534e-04 1.506868264028e-02 0.0 
4.057914507765e-05 7.470424866525e-03 0.0 
1.964408810713e-05 1.191572632963e-02 0.0 
2.061344691035e-04 1.821582806809e-03 0.0 
1.189609402703e-04 8.713193613558e-03 0.0 
6.643227691799e-04 1.934073728119e-02 0.0 
2.746897766209e-05 2.108575974495e-02 0.0 
9.395860126152e-04 1.906304637378e-02 0.0 
2.762460177099e-05 2.018232017622e-02 0.0 
1.067355248573e-03 1.851858166356e-02 0.0 
2.511267505729e-05 1.921481240469e-02 0.0 
1.099932776021e-03 1.778373932403e-02 0.0 
2.774735032238e-05 1.818264650037e-02 0.0 
1.069328310222e-03 1.687784571527e-02 0.0 
2.529775777335e-05 1.708580660575e-02 0.0 
9.945796914964e-04 1.585527043328e-02 0.0 
2.763945850019e-05 1.592470207130e-02 0.0 

TENSORS node_materi_stress float
-3.951037234478e+00 2.693359539509e-02 0.0 
2.693359539509e-02 -8.531726100769e+00 0.0 
0.0 0.0 -3.663082275654e+00 
-5.572751421220e+01 4.418560993077e-01 0.0 
4.418560993077e-01 -1.180075853646e+02 0.0 
0.0 0.0 -5.172052987303e+01 
-1.624692017231e+02 -9.252901399598e-02 0.0 
-9.252901399598e-02 -3.819487336360e+02 0.0 
0.0 0.0 -1.629253806077e+02 
-1.313714287848e+02 5.599204724069e-01 0.0 
5.599204724069e-01 -3.067852633538e+02 0.0 
0.0 0.0 -1.310470076416e+02 
-8.450460082646e+00 -2.750257659127e-01 0.0 
-2.750257659127e-01 -2.075539082567e+01 0.0 
0.0 0.0 -8.573924122548e+00 
-1.558167168410e+01 -6.280781707639e-01 0.0 
-6.280781707639e-01 -4.032985075079e+01 0.0 
0.0 0.0 -1.637345673047e+01 
-2.237062216858e+01 -4.946429925370e-01 0.0 
-4.946429925370e-01 -5.855445811611e+01 0.0 
0.0 0.0 -2.387752408541e+01 
-3.026551494886e+01 -4.561291525056e-01 0.0 
-4.561291525056e-01 -7.937899531913e+01 0.0 
0.0 0.0 -3.249335308040e+01 
-3.768070937799e+01 -3.367548235949e-01 0.0 
-3.367548235949e-01 -9.936957642860e+01 0.0 
0.0 0.0 -4.071508574198e+01 
-4.528881809045e+01 -3.146964397245e-01 0.0 
-3.146964397245e-01 -1.190761359843e+02 0.0 
0.0 0.0 -4.890948622242e+01 
-5.285047288713e+01 -3.378363101630e-01 0.0 
-3.378363101630e-01 -1.387620496100e+02 0.0 
0.0 0.0 -5.708375674913e+01 
-6.043125363588e+01 -2.893111426288e-01 0.0 
-2.893111426288e-01 -1.584073621857e+02 0.0 
0.0 0.0 -6.525158474647e+01 
-6.818380998173e+01 -2.697259394643e-01 0.0 
-2.697259394643e-01 -1.780203414406e+02 0.0 
0.0 0.0 -7.346124542669e+01 
-7.605351020003e+01 -3.210398484362e-01 0.0 
-3.210398484362e-01 -1.977810294194e+02 0.0 
0.0 0.0 -8.175036188583e+01 
-8.424294156237e+01 -4.668802617549e-01 0.0 
-4.668802617549e-01 -2.179806158331e+02 0.0 
0.0 0.0 -9.026706721865e+01 
-9.273193450805e+01 -4.810378329166e-01 0.0 
-4.810378329166e-01 -2.374834343947e+02 0.0 
0.0 0.0 -9.866461067082e+01 
-1.006868286032e+02 -6.050454496452e-01 0.0 
-6.050454496452e-01 -2.552164641585e+02 0.0 
0.0 0.0 -1.063709878285e+02 
-1.093341731660e+02 -1.560345554083e-01 0.0 
-1.560345554083e-01 -2.746469088010e+02 0.0 
0.0 0.0 -1.147943245901e+02 
-1.185409582267e+02 -1.178000973685e-01 0.0 
-1.178000973685e-01 -2.945144990339e+02 0.0 
0.0 0.0 -1.235166371782e+02 
-1.277123924293e+02 -1.003983296383e-01 0.0 
-1.003983296383e-01 -3.137247093664e+02 0.0 
0.0 0.0 -1.320311305387e+02 
-1.371354250753e+02 -5.956354990740e-02 0.0 
-5.956354990740e-02 -3.330150086136e+02 0.0 
0.0 0.0 -1.406451301067e+02 
-1.468608828086e+02 -8.329054494853e-02 0.0 
-8.329054494853e-02 -3.523944359195e+02 0.0 
0.0 0.0 -1.493765956184e+02 
-1.563623487200e+02 -1.535423441356e-01 0.0 
-1.535423441356e-01 -3.708300982526e+02 0.0 
0.0 0.0 -1.577577340918e+02 
-1.318044951701e+02 4.690047349923e-01 0.0 
4.690047349923e-01 -3.079153425319e+02 0.0 
0.0 0.0 -1.315159513106e+02 
-1.312507102745e+02 8.212822687682e-01 0.0 
8.212822687682e-01 -3.068965589911e+02 0.0 
0.0 0.0 -1.310441807797e+02 
-1.313981938976e+02 1.459012073899e+00 0.0 
1.459012073899e+00 -3.071997945070e+02 0.0 
0.0 0.0 -1.311793965214e+02 
-1.313724959532e+02 1.494688296291e+00 0.0 
1.494688296291e+00 -3.072565861462e+02 0.0 
0.0 0.0 -1.311887246298e+02 
-1.312213242886e+02 2.061466794401e+00 0.0 
2.061466794401e+00 -3.067265649371e+02 0.0 
0.0 0.0 -1.309843667677e+02 
-1.315841985477e+02 2.500418213983e+00 0.0 
2.500418213983e+00 -3.074975916173e+02 0.0 
0.0 0.0 -1.313245370495e+02 
-1.319644796892e+02 3.006556477717e+00 0.0 
3.006556477717e+00 -3.079564161389e+02 0.0 
0.0 0.0 -1.315762687484e+02 
-1.317803288879e+02 3.619917508775e+00 0.0 
3.619917508775e+00 -3.078889461678e+02 0.0 
0.0 0.0 -1.315007825167e+02 
-1.323395041899e+02 4.323431184159e+00 0.0 
4.323431184159e+00 -3.089798202878e+02 0.0 
0.0 0.0 -1.319957973433e+02 
-1.324286136378e+02 4.657171144625e+00 0.0 
4.657171144625e+00 -3.093495719444e+02 0.0 
0.0 0.0 -1.321334556747e+02 
-1.325118086166e+02 5.434763090195e+00 0.0 
5.434763090195e+00 -3.092361423905e+02 0.0 
0.0 0.0 -1.321243853021e+02 
-1.330049457280e+02 6.160351438413e+00 0.0 
6.160351438413e+00 -3.104490550343e+02 0.0 
0.0 0.0 -1.326362002287e+02 
-1.337751387991e+02 6.922197681788e+00 0.0 
6.922197681788e+00 -3.117423432492e+02 0.0 
0.0 0.0 -1.332552446145e+02 
-1.338326108642e+02 7.726624833225e+00 0.0 
7.726624833225e+00 -3.122816834769e+02 0.0 
0.0 0.0 -1.334342883023e+02 
-1.344134945085e+02 8.584146524690e+00 0.0 
8.584146524690e+00 -3.131503270874e+02 0.0 
0.0 0.0 -1.338691464788e+02 
-1.345142760229e+02 9.332528833492e+00 0.0 
9.332528833492e+00 -3.137476071704e+02 0.0 
0.0 0.0 -1.340785649580e+02 
-1.351775045227e+02 1.026436322438e+01 0.0 
1.026436322438e+01 -3.151627809378e+02 0.0 
0.0 0.0 -1.347020856382e+02 
-1.365132271507e+02 1.119303211293e+01 0.0 
1.119303211293e+01 -3.178135868200e+02 0.0 
0.0 0.0 -1.358980441912e+02 
-1.374265547876e+02 1.211268447787e+01 0.0 
1.211268447787e+01 -3.203039332867e+02 0.0 
0.0 0.0 -1.369191464223e+02 
-1.384680914371e+02 1.298740791516e+01 0.0 
1.298740791516e+01 -3.229855036466e+02 0.0 
0.0 0.0 -1.380360785251e+02 
-1.394216788409e+02 1.367703849566e+01 0.0 
1.367703849566e+01 -3.254605683641e+02 0.0 
0.0 0.0 -1.390646741615e+02 
-1.406618089787e+02 1.447498427253e+01 0.0 
1.447498427253e+01 -3.281450515990e+02 0.0 
0.0 0.0 -1.402420581733e+02 
-1.417525593530e+02 1.506879926997e+01 0.0 
1.506879926997e+01 -3.311236195995e+02 0.0 
0.0 0.0 -1.414628536857e+02 
-1.430039511040e+02 1.557316549828e+01 0.0 
1.557316549828e+01 -3.342737315568e+02 0.0 
0.0 0.0 -1.427833047982e+02 
-1.444317896887e+02 1.592105348922e+01 0.0 
1.592105348922e+01 -3.378438803191e+02 0.0 
0.0 0.0 -1.442827010023e+02 
-1.459842595400e+02 1.616907968490e+01 0.0 
1.616907968490e+01 -3.415285626618e+02 0.0 
0.0 0.0 -1.458538466605e+02 
-1.472278822101e+02 1.620983630928e+01 0.0 
1.620983630928e+01 -3.450729372485e+02 0.0 
0.0 0.0 -1.472902458376e+02 
-1.487704207466e+02 1.609169427627e+01 0.0 
1.609169427627e+01 -3.486334950873e+02 0.0 
0.0 0.0 -1.488211747502e+02 
-1.499016279717e+02 1.582442582930e+01 0.0 
1.582442582930e+01 -3.517972333428e+02 0.0 
0.0 0.0 -1.501096583944e+02 
-1.516364446113e+02 1.557860693923e+01 0.0 
1.557860693923e+01 -3.556856729135e+02 0.0 
0.0 0.0 -1.517966352574e+02 
-1.525873875830e+02 1.475118177902e+01 0.0 
1.475118177902e+01 -3.586459186817e+02 0.0 
0.0 0.0 -1.529699918794e+02 
-1.534115871239e+02 1.419994724851e+01 0.0 
1.419994724851e+01 -3.606265635487e+02 0.0 
0.0 0.0 -1.538114452018e+02 
-1.546238941422e+02 1.346659528947e+01 0.0 
1.346659528947e+01 -3.635029129673e+02 0.0 
0.0 0.0 -1.550380421329e+02 
-1.557970147886e+02 1.272069808785e+01 0.0 
1.272069808785e+01 -3.663190724752e+02 0.0 
0.0 0.0 -1.562348261791e+02 
-1.568356560471e+02 1.186857907272e+01 0.0 
1.186857907272e+01 -3.688016154920e+02 0.0 
0.0 0.0 -1.572911814617e+02 
-1.577301508400e+02 1.101950939949e+01 0.0 
1.101950939949e+01 -3.709797799753e+02 0.0 
0.0 0.0 -1.582129792446e+02 
-1.586096348479e+02 1.011063952887e+01 0.0 
1.011063952887e+01 -3.729791382358e+02 0.0 
0.0 0.0 -1.590766319251e+02 
-1.591550561201e+02 9.187838276001e+00 0.0 
9.187838276001e+00 -3.743982822562e+02 0.0 
0.0 0.0 -1.596660015129e+02 
-1.597051630184e+02 8.336864994956e+00 0.0 
8.336864994956e+00 -3.756089817288e+02 0.0 
0.0 0.0 -1.601942434241e+02 
-1.599969121231e+02 7.402253590083e+00 0.0 
7.402253590083e+00 -3.765023229591e+02 0.0 
0.0 0.0 -1.605497705247e+02 
-1.607084000796e+02 6.664710159231e+00 0.0 
6.664710159231e+00 -3.779440403325e+02 0.0 
0.0 0.0 -1.611957321236e+02 
-1.616214995878e+02 5.745464263622e+00 0.0 
5.745464263622e+00 -3.797668524644e+02 0.0 
0.0 0.0 -1.620165056157e+02 
-1.620990326057e+02 5.068624608924e+00 0.0 
5.068624608924e+00 -3.807689838123e+02 0.0 
0.0 0.0 -1.624604049254e+02 
-1.610152227330e+02 4.198408166141e+00 0.0 
4.198408166141e+00 -3.790485844886e+02 0.0 
0.0 0.0 -1.616191421665e+02 
-1.624663104233e+02 3.369710947107e+00 0.0 
3.369710947107e+00 -3.815999982817e+02 0.0 
0.0 0.0 -1.628198926115e+02 
-1.621539203775e+02 2.692145100908e+00 0.0 
2.692145100908e+00 -3.811970977335e+02 0.0 
0.0 0.0 -1.626053054333e+02 
-1.626137143191e+02 2.218457409464e+00 0.0 
2.218457409464e+00 -3.820181042201e+02 0.0 
0.0 0.0 -1.629895455618e+02 
-1.630057025018e+02 1.303567180958e+00 0.0 
1.303567180958e+00 -3.828668484091e+02 0.0 
0.0 0.0 -1.633617652733e+02 
-1.629780120408e+02 7.701186107378e-01 0.0 
7.701186107378e-01 -3.828921909367e+02 0.0 
0.0 0.0 -1.633610608933e+02 
-6.438399217077e+01 3.202611596738e-01 0.0 
3.202611596738e-01 -1.378270396865e+02 0.0 
0.0 0.0 -6.026330955718e+01 
-7.248853269964e+01 3.779874707102e-01 0.0 
3.779874707102e-01 -1.575594927368e+02 0.0 
0.0 0.0 -6.861440763094e+01 
-8.062955533421e+01 3.823850959286e-01 0.0 
3.823850959286e-01 -1.771399754912e+02 0.0 
0.0 0.0 -7.693085924763e+01 
-8.846497645028e+01 4.250689078052e-01 0.0 
4.250689078052e-01 -1.963583896929e+02 0.0 
0.0 0.0 -8.504700984294e+01 
-9.636234225745e+01 3.968509753710e-01 0.0 
3.968509753710e-01 -2.160411412766e+02 0.0 
0.0 0.0 -9.332104506020e+01 
-1.043973104790e+02 4.492750785205e-01 0.0 
4.492750785205e-01 -2.358561229345e+02 0.0 
0.0 0.0 -1.016760300241e+02 
-1.119972131661e+02 4.199508467191e-01 0.0 
4.199508467191e-01 -2.554613613725e+02 0.0 
0.0 0.0 -1.098375723616e+02 
-1.194578879844e+02 4.954370014539e-01 0.0 
4.954370014539e-01 -2.749445080435e+02 0.0 
0.0 0.0 -1.179207188084e+02 
-1.271939491051e+02 5.436753060099e-01 0.0 
5.436753060099e-01 -2.950351387998e+02 0.0 
0.0 0.0 -1.262687263715e+02 
-1.365754067296e+01 4.155948316948e+00 0.0 
4.155948316948e+00 -6.898218965696e+00 0.0 
0.0 0.0 -6.149182791541e+00 
-6.064867350579e+01 1.481553150555e+00 0.0 
1.481553150555e+00 -1.194424717943e+02 0.0 
0.0 0.0 -5.362734359004e+01 
-1.667344768182e+01 1.024046389596e+01 0.0 
1.024046389596e+01 -1.357840934400e+01 0.0 
0.0 0.0 -8.711416446552e+00 
-1.770432118808e+01 1.204081935681e+01 0.0 
1.204081935681e+01 -1.662706881074e+01 0.0 
0.0 0.0 -9.899416999644e+00 
-1.675448565492e+01 1.193172612358e+01 0.0 
1.193172612358e+01 -1.711864465341e+01 0.0 
0.0 0.0 -9.761939092498e+00 
-1.364083425873e+01 7.530926788226e+00 0.0 
7.530926788226e+00 -1.329415032595e+01 0.0 
0.0 0.0 -7.680495375404e+00 
-1.547355126102e+01 3.917122900306e+00 0.0 
3.917122900306e+00 -2.076428966712e+01 0.0 
0.0 0.0 -1.047135227844e+01 
-2.535028623881e+01 3.053046147183e+00 0.0 
3.053046147183e+00 -4.064901825305e+01 0.0 
0.0 0.0 -1.939979134756e+01 
-3.462921380358e+01 2.267552755042e+00 0.0 
2.267552755042e+00 -6.010343092852e+01 0.0 
0.0 0.0 -2.801979341963e+01 
-4.355970684521e+01 1.738231703210e+00 0.0 
1.738231703210e+00 -7.953367546182e+01 0.0 
0.0 0.0 -3.652801469211e+01 
-5.211653063116e+01 1.510583543742e+00 0.0 
1.510583543742e+00 -9.896068085704e+01 0.0 
0.0 0.0 -4.492316344646e+01 
-9.428366607947e+00 8.633415938256e-01 0.0 
8.633415938256e-01 -7.377481594627e+00 0.0 
0.0 0.0 -4.641754460772e+00 
-1.390547783689e+01 6.579221544254e-01 0.0 
6.579221544254e-01 -1.970584937257e+01 0.0 
0.0 0.0 -9.683398162840e+00 
-2.212363415206e+01 7.760408006214e-01 0.0 
7.760408006214e-01 -3.927049851597e+01 0.0 
0.0 0.0 -1.801823980041e+01 
-3.053101510710e+01 6.296916262996e-01 0.0 
6.296916262996e-01 -5.879295093307e+01 0.0 
0.0 0.0 -2.639718981205e+01 
-3.895533636653e+01 7.705366791950e-01 0.0 
7.705366791950e-01 -7.830635697809e+01 0.0 
0.0 0.0 -3.477850800339e+01 
-4.736222649037e+01 5.474441858200e-01 0.0 
5.474441858200e-01 -9.772666927988e+01 0.0 
0.0 0.0 -4.312666873107e+01 
-5.485740670425e+01 -2.330908097295e-01 0.0 
-2.330908097295e-01 -1.153960234101e+02 0.0 
0.0 0.0 -5.067602903429e+01 
-5.551316521477e+01 -4.082590814887e-02 0.0 
-4.082590814887e-02 -1.165841219816e+02 0.0 
0.0 0.0 -5.122918615890e+01 
-5.553696035805e+01 -4.883545665997e-02 0.0 
-4.883545665997e-02 -1.166187478449e+02 0.0 
0.0 0.0 -5.124671246089e+01 
-5.557797117701e+01 -7.610313610359e-03 0.0 
-7.610313610359e-03 -1.163864191730e+02 0.0 
0.0 0.0 -5.118931710500e+01 
-5.694277414225e+01 -2.696070142989e-02 0.0 
-2.696070142989e-02 -1.190283084676e+02 0.0 
0.0 0.0 -5.239132478294e+01 
-5.604812358640e+01 -4.842458747539e-02 0.0 
-4.842458747539e-02 -1.166861307485e+02 0.0 
0.0 0.0 -5.142027630048e+01 
-5.630626058006e+01 9.216417146942e-03 0.0 
9.216417146942e-03 -1.165157960248e+02 0.0 
0.0 0.0 -5.144661698145e+01 
-5.657091163645e+01 -3.733012748114e-02 0.0 
-3.733012748114e-02 -1.167122497133e+02 0.0 
0.0 0.0 -5.158494840494e+01 
-5.696511458685e+01 5.300513773098e-02 0.0 
5.300513773098e-02 -1.171705342474e+02 0.0 
0.0 0.0 -5.184069465028e+01 
-5.725855456402e+01 8.424978614982e-02 0.0 
8.424978614982e-02 -1.171424874204e+02 0.0 
0.0 0.0 -5.192031259533e+01 
-5.773136900408e+01 2.252747438551e-01 0.0 
2.252747438551e-01 -1.171710299526e+02 0.0 
0.0 0.0 -5.207071968701e+01 
-5.812628786033e+01 4.025198708754e-01 0.0 
4.025198708754e-01 -1.172258107558e+02 0.0 
0.0 0.0 -5.220562958485e+01 
-5.876454549705e+01 5.920064626564e-01 0.0 
5.920064626564e-01 -1.175091285781e+02 0.0 
0.0 0.0 -5.248210222254e+01 
-5.947561505607e+01 8.973878613128e-01 0.0 
8.973878613128e-01 -1.180968215646e+02 0.0 
0.0 0.0 -5.287173098619e+01 
-1.495764005346e+01 1.491068240368e+00 0.0 
1.491068240368e+00 -6.527214380513e+00 0.0 
0.0 0.0 -6.359356171809e+00 
-1.666458754055e+01 1.870699278590e-01 0.0 
1.870699278590e-01 -7.362206576722e+00 0.0 
0.0 0.0 -7.124908962777e+00 
-1.672951796368e+01 -4.707533007618e-01 0.0 
-4.707533007618e-01 -7.068389035583e+00 0.0 
0.0 0.0 -7.039790607526e+00 
-1.575177958268e+01 -4.340408249588e-01 0.0 
-4.340408249588e-01 -7.082521519783e+00 0.0 
0.0 0.0 -6.750432446475e+00 
-1.438726353033e+01 -4.884251523666e-01 0.0 
-4.884251523666e-01 -8.063989916226e+00 0.0 
0.0 0.0 -6.658154489016e+00 
-1.326394110252e+01 -5.938985919354e-01 0.0 
-5.938985919354e-01 -8.455821768066e+00 0.0 
0.0 0.0 -6.442912208087e+00 
-1.207109974648e+01 -5.874203868737e-01 0.0 
-5.874203868737e-01 -8.384833675246e+00 0.0 
0.0 0.0 -6.062272087477e+00 
-1.090131661333e+01 -5.379940398037e-01 0.0 
-5.379940398037e-01 -8.281415636352e+00 0.0 
0.0 0.0 -5.679568334655e+00 
-9.776280381719e+00 -5.046869798371e-01 0.0 
-5.046869798371e-01 -8.262249587468e+00 0.0 
0.0 0.0 -5.334863371685e+00 
-8.783776856106e+00 -4.461240821040e-01 0.0 
-4.461240821040e-01 -8.279650802125e+00 0.0 
0.0 0.0 -5.042974688394e+00 
-7.799577340842e+00 -3.468164003751e-01 0.0 
-3.468164003751e-01 -8.388376518147e+00 0.0 
0.0 0.0 -4.782061981342e+00 
-7.237095460612e+00 -4.080869124744e-01 0.0 
-4.080869124744e-01 -8.955163560413e+00 0.0 
0.0 0.0 -4.794346950976e+00 
-6.260890144230e+00 -4.606938440936e-01 0.0 
-4.606938440936e-01 -8.643447954264e+00 0.0 
0.0 0.0 -4.403191171789e+00 
-5.300878792857e+00 -3.505482467609e-01 0.0 
-3.505482467609e-01 -7.898457611075e+00 0.0 
0.0 0.0 -3.878025850728e+00 
-4.654721343797e+00 -2.698023660253e-01 0.0 
-2.698023660253e-01 -8.035647246211e+00 0.0 
0.0 0.0 -3.730073060549e+00 
-4.199550106777e+00 -2.233864738443e-01 0.0 
-2.233864738443e-01 -8.306990868513e+00 0.0 
0.0 0.0 -3.677713895019e+00 
-3.802843440944e+00 -1.408693058810e-01 0.0 
-1.408693058810e-01 -8.339401299306e+00 0.0 
0.0 0.0 -3.568057336192e+00 
-3.474481099771e+00 -1.497207258098e-01 0.0 
-1.497207258098e-01 -7.929096030427e+00 0.0 
0.0 0.0 -3.343965842950e+00 
-3.305907524422e+00 3.509050166937e-02 0.0 
3.509050166937e-02 -7.327157897225e+00 0.0 
0.0 0.0 -3.098335900883e+00 
-9.482756946553e+00 -1.858619056242e-01 0.0 
-1.858619056242e-01 -9.517419229018e+00 0.0 
0.0 0.0 -5.300052852671e+00 
-9.240040884917e+00 -1.110010859768e-02 0.0 
-1.110010859768e-02 -9.766430510702e+00 0.0 
0.0 0.0 -5.301941418686e+00 
-9.182649694628e+00 -1.322012697092e-02 0.0 
-1.322012697092e-02 -9.713816310140e+00 0.0 
0.0 0.0 -5.268939801431e+00 
-9.112574635774e+00 -5.783645139168e-02 0.0 
-5.783645139168e-02 -9.717301495543e+00 0.0 
0.0 0.0 -5.248962839395e+00 
-8.981015683720e+00 -9.471124633816e-02 0.0 
-9.471124633816e-02 -9.718373457972e+00 0.0 
0.0 0.0 -5.209816742508e+00 
-8.796217695671e+00 -1.267488853041e-01 0.0 
-1.267488853041e-01 -9.716700950765e+00 0.0 
0.0 0.0 -5.153875593931e+00 
-8.563421282483e+00 -1.569392251818e-01 0.0 
-1.569392251818e-01 -9.712715955620e+00 0.0 
0.0 0.0 -5.082841171431e+00 
-8.284506009941e+00 -1.876739410783e-01 0.0 
-1.876739410783e-01 -9.707067541872e+00 0.0 
0.0 0.0 -4.997472065544e+00 
-7.957852680336e+00 -2.199911048449e-01 0.0 
-2.199911048449e-01 -9.700344421384e+00 0.0 
0.0 0.0 -4.897459130516e+00 
-7.581563912087e+00 -2.541515162779e-01 0.0 
-2.541515162779e-01 -9.692650202539e+00 0.0 
0.0 0.0 -4.782264234388e+00 
-7.154402398120e+00 -2.898531582609e-01 0.0 
-2.898531582609e-01 -9.683867835511e+00 0.0 
0.0 0.0 -4.651481070089e+00 
-6.676832504948e+00 -3.269604210095e-01 0.0 
-3.269604210095e-01 -9.673082087195e+00 0.0 
0.0 0.0 -4.504974377643e+00 
-6.149707049086e+00 -3.659299437882e-01 0.0 
-3.659299437882e-01 -9.662209345634e+00 0.0 
0.0 0.0 -4.343574918416e+00 
-5.573588211184e+00 -4.024851305867e-01 0.0 
-4.024851305867e-01 -9.650928504047e+00 0.0 
0.0 0.0 -4.167355014569e+00 
-4.961623189138e+00 -4.339665895954e-01 0.0 
-4.339665895954e-01 -9.643063228848e+00 0.0 
0.0 0.0 -3.981405925396e+00 
-4.333241179940e+00 -4.495534228465e-01 0.0 
-4.495534228465e-01 -9.629761225809e+00 0.0 
0.0 0.0 -3.788900721725e+00 
-3.735289140222e+00 -4.546692182274e-01 0.0 
-4.546692182274e-01 -9.628479486250e+00 0.0 
0.0 0.0 -3.609130587942e+00 
-3.193750231110e+00 -4.162821519342e-01 0.0 
-4.162821519342e-01 -9.614430160513e+00 0.0 
0.0 0.0 -3.442454117487e+00 
-2.843568647683e+00 -3.476495695357e-01 0.0 
-3.476495695357e-01 -9.657642474834e+00 0.0 
0.0 0.0 -3.350363336755e+00 
-2.722878429297e+00 -1.192892948754e-01 0.0 
-1.192892948754e-01 -9.685094322322e+00 0.0 
0.0 0.0 -3.322391825485e+00 
-3.263779316127e+00 2.720119963889e-01 0.0 
2.720119963889e-01 -9.973684644566e+00 0.0 
0.0 0.0 -3.571239188208e+00 
-4.322363238585e+00 1.231006583008e+00 0.0 
1.231006583008e+00 -9.534813238306e+00 0.0 
0.0 0.0 -3.757152943067e+00 
-5.829186920098e+00 2.049238699104e+00 0.0 
2.049238699104e+00 -4.827704912672e+00 0.0 
0.0 0.0 -2.797067549831e+00 
-1.165793365335e+01 1.554632200830e+00 0.0 
1.554632200830e+00 -1.790029961409e+01 0.0 
0.0 0.0 -8.467469980232e+00 
-1.219953753918e+01 9.935695696124e-01 0.0 
9.935695696124e-01 -2.139400316870e+01 0.0 
0.0 0.0 -9.678062212366e+00 
-1.059649765863e+01 1.635418575193e-01 0.0 
1.635418575193e-01 -2.007323343475e+01 0.0 
0.0 0.0 -8.800919328016e+00 
-1.017941053798e+01 -1.572622488839e-01 0.0 
-1.572622488839e-01 -1.979641774681e+01 0.0 
0.0 0.0 -8.592748485438e+00 
-1.014326099421e+01 -3.566584905010e-01 0.0 
-3.566584905010e-01 -1.974273160263e+01 0.0 
0.0 0.0 -8.565797779053e+00 
-1.025356898885e+01 -4.527013611159e-01 0.0 
-4.527013611159e-01 -1.965541674767e+01 0.0 
0.0 0.0 -8.572695720955e+00 
-1.051005241982e+01 -5.011158431526e-01 0.0 
-5.011158431526e-01 -1.962661323842e+01 0.0 
0.0 0.0 -8.640999697473e+00 
-1.081893026437e+01 -5.074308664247e-01 0.0 
-5.074308664247e-01 -1.959107127203e+01 0.0 
0.0 0.0 -8.723000460919e+00 
-1.115835638775e+01 -4.887737661382e-01 0.0 
-4.887737661382e-01 -1.957656004791e+01 0.0 
0.0 0.0 -8.820474930699e+00 
-1.149313287803e+01 -4.554949468511e-01 0.0 
-4.554949468511e-01 -1.956832622988e+01 0.0 
0.0 0.0 -8.918437732373e+00 
-1.181729096638e+01 -4.182085237660e-01 0.0 
-4.182085237660e-01 -1.956718413446e+01 0.0 
0.0 0.0 -9.015342530253e+00 
-1.212300229694e+01 -3.788180823319e-01 0.0 
-3.788180823319e-01 -1.956603627902e+01 0.0 
0.0 0.0 -9.106711572790e+00 
-1.240369432913e+01 -3.376453994550e-01 0.0 
-3.376453994550e-01 -1.956651913052e+01 0.0 
0.0 0.0 -9.191064037896e+00 
-1.265486888980e+01 -2.963924595138e-01 0.0 
-2.963924595138e-01 -1.956856696577e+01 0.0 
0.0 0.0 -9.267030756669e+00 
-1.287528630795e+01 -2.560794564049e-01 0.0 
-2.560794564049e-01 -1.957094913733e+01 0.0 
0.0 0.0 -9.333870633584e+00 
-1.306606729069e+01 -2.168577790145e-01 0.0 
-2.168577790145e-01 -1.957241257564e+01 0.0 
0.0 0.0 -9.391543959900e+00 
-1.322739707919e+01 -1.763530892721e-01 0.0 
-1.763530892721e-01 -1.957190776653e+01 0.0 
0.0 0.0 -9.439791453718e+00 
-1.335787906341e+01 -1.321200536552e-01 0.0 
-1.321200536552e-01 -1.956990938986e+01 0.0 
0.0 0.0 -9.478336535981e+00 
-1.345827551292e+01 -8.193889586123e-02 0.0 
-8.193889586123e-02 -1.956697107793e+01 0.0 
0.0 0.0 -9.507573977253e+00 
-1.353264458076e+01 -2.370525012196e-02 0.0 
-2.370525012196e-02 -1.956280954732e+01 0.0 
0.0 0.0 -9.528636238424e+00 
-1.361438973464e+01 5.086450757440e-02 0.0 
5.086450757440e-02 -1.956001104072e+01 0.0 
0.0 0.0 -9.552320232610e+00 
-1.384533010158e+01 -3.994556810255e-01 0.0 
-3.994556810255e-01 -1.966067021218e+01 0.0 
0.0 0.0 -9.651800094126e+00 
-2.213071619355e+01 -3.635561809931e-01 0.0 
-3.635561809931e-01 -3.920883492605e+01 0.0 
0.0 0.0 -1.800186533588e+01 
-2.208213032704e+01 -1.653150440001e-01 0.0 
-1.653150440001e-01 -3.912850424846e+01 0.0 
0.0 0.0 -1.796319037265e+01 
-2.203206036120e+01 -1.424071428705e-01 0.0 
-1.424071428705e-01 -3.912501880596e+01 0.0 
0.0 0.0 -1.794712375015e+01 
-2.197696372662e+01 -2.021294494060e-01 0.0 
-2.021294494060e-01 -3.913586892612e+01 0.0 
0.0 0.0 -1.793384979582e+01 
-2.191498159035e+01 -2.685602159856e-01 0.0 
-2.685602159856e-01 -3.914594559869e+01 0.0 
0.0 0.0 -1.791827815671e+01 
-2.184175022788e+01 -3.352993598890e-01 0.0 
-3.352993598890e-01 -3.915330391219e+01 0.0 
0.0 0.0 -1.789851624202e+01 
-2.175687000991e+01 -3.993827403047e-01 0.0 
-3.993827403047e-01 -3.915669181992e+01 0.0 
0.0 0.0 -1.787406854895e+01 
-2.166420586490e+01 -4.634058078787e-01 0.0 
-4.634058078787e-01 -3.915459673388e+01 0.0 
0.0 0.0 -1.784564077963e+01 
-2.156540480530e+01 -5.293188968242e-01 0.0 
-5.293188968242e-01 -3.915366594922e+01 0.0 
0.0 0.0 -1.781572122636e+01 
-2.145689880773e+01 -5.935036900630e-01 0.0 
-5.935036900630e-01 -3.915686215039e+01 0.0 
0.0 0.0 -1.778412828744e+01 
-2.134896063297e+01 -6.493756511618e-01 0.0 
-6.493756511618e-01 -3.916471947556e+01 0.0 
0.0 0.0 -1.775410403256e+01 
-2.125369715455e+01 -6.926385989383e-01 0.0 
-6.926385989383e-01 -3.917463821742e+01 0.0 
0.0 0.0 -1.772850061159e+01 
-2.118255815112e+01 -7.219056999375e-01 0.0 
-7.219056999375e-01 -3.918453299819e+01 0.0 
0.0 0.0 -1.771012734479e+01 
-2.115152296387e+01 -7.326001264686e-01 0.0 
-7.326001264686e-01 -3.922477015663e+01 0.0 
0.0 0.0 -1.771288793615e+01 
-2.116243971908e+01 -6.866614328160e-01 0.0 
-6.866614328160e-01 -3.928293911326e+01 0.0 
0.0 0.0 -1.773361364970e+01 
-2.128160240674e+01 -5.740921492999e-01 0.0 
-5.740921492999e-01 -3.940229032183e+01 0.0 
0.0 0.0 -1.780516781857e+01 
-2.151145266679e+01 -3.257446976539e-01 0.0 
-3.257446976539e-01 -3.949156240279e+01 0.0 
0.0 0.0 -1.790090452087e+01 
-2.204394468616e+01 1.209640066823e-02 0.0 
1.209640066823e-02 -3.976106386728e+01 0.0 
0.0 0.0 -1.814150256603e+01 
-2.343697646948e+01 8.093919223860e-01 0.0 
8.093919223860e-01 -4.112491343603e+01 0.0 
0.0 0.0 -1.896856697165e+01 
-2.286177142386e+01 1.410121551563e+00 0.0 
1.410121551563e+00 -3.773234511057e+01 0.0 
0.0 0.0 -1.777823496033e+01 
-3.279258620963e+01 1.093259617483e+00 0.0 
1.093259617483e+00 -5.736898466276e+01 0.0 
0.0 0.0 -2.664847126172e+01 
-3.343783565461e+01 6.859812180028e-01 0.0 
6.859812180028e-01 -6.075259967717e+01 0.0 
0.0 0.0 -2.785713059954e+01 
-3.215986885583e+01 9.035996795259e-03 0.0 
9.035996795259e-03 -5.946149702594e+01 0.0 
0.0 0.0 -2.708640976453e+01 
-3.159512150135e+01 -2.946636491452e-01 0.0 
-2.946636491452e-01 -5.911433958205e+01 0.0 
0.0 0.0 -2.681283832502e+01 
-3.129680622590e+01 -4.913022426921e-01 0.0 
-4.913022426921e-01 -5.897542835367e+01 0.0 
0.0 0.0 -2.668167037387e+01 
-3.102095957813e+01 -5.673679365144e-01 0.0 
-5.673679365144e-01 -5.883886446568e+01 0.0 
0.0 0.0 -2.655794721314e+01 
-3.084135741955e+01 -6.048520372952e-01 0.0 
-6.048520372952e-01 -5.880399018756e+01 0.0 
0.0 0.0 -2.649360428214e+01 
-3.071728852829e+01 -6.142513306287e-01 0.0 
-6.142513306287e-01 -5.877004197990e+01 0.0 
0.0 0.0 -2.644619915246e+01 
-3.063533528760e+01 -5.978320542821e-01 0.0 
-5.978320542821e-01 -5.874058446164e+01 0.0 
0.0 0.0 -2.641277592477e+01 
-3.059220288563e+01 -5.575733116677e-01 0.0 
-5.575733116677e-01 -5.871795429542e+01 0.0 
0.0 0.0 -2.639304715431e+01 
-3.056355963242e+01 -4.983930635522e-01 0.0 
-4.983930635522e-01 -5.871461323148e+01 0.0 
0.0 0.0 -2.638345185917e+01 
-3.053696455778e+01 -4.423569001713e-01 0.0 
-4.423569001713e-01 -5.871986329141e+01 0.0 
0.0 0.0 -2.637704835476e+01 
-3.053349775452e+01 -3.875976998318e-01 0.0 
-3.875976998318e-01 -5.871602760328e+01 0.0 
0.0 0.0 -2.637485760734e+01 
-3.053227440060e+01 -3.247333237032e-01 0.0 
-3.247333237032e-01 -5.870563513722e+01 0.0 
0.0 0.0 -2.637137286134e+01 
-3.053522106330e+01 -2.595074110021e-01 0.0 
-2.595074110021e-01 -5.869895979850e+01 0.0 
0.0 0.0 -2.637025425854e+01 
-3.053921951237e+01 -1.979961454916e-01 0.0 
-1.979961454916e-01 -5.869085776952e+01 0.0 
0.0 0.0 -2.636902318457e+01 
-3.055059242659e+01 -1.351748645952e-01 0.0 
-1.351748645952e-01 -5.869730082343e+01 0.0 
0.0 0.0 -2.637436797501e+01 
-3.054649368192e+01 -6.559783892037e-02 0.0 
-6.559783892037e-02 -5.874016502089e+01 0.0 
0.0 0.0 -2.638599761084e+01 
-3.053538730619e+01 -4.821013011803e-01 0.0 
-4.821013011803e-01 -5.878451368661e+01 0.0 
0.0 0.0 -2.639597029784e+01 
-3.894003508220e+01 -3.523674856958e-01 0.0 
-3.523674856958e-01 -7.833329441960e+01 0.0 
0.0 0.0 -3.478199885054e+01 
-3.900303107445e+01 -1.527716391879e-01 0.0 
-1.527716391879e-01 -7.826221196095e+01 0.0 
0.0 0.0 -3.477957291062e+01 
-3.904025103060e+01 -1.593899585240e-01 0.0 
-1.593899585240e-01 -7.823830556716e+01 0.0 
0.0 0.0 -3.478356697933e+01 
-3.907622985013e+01 -2.110145966018e-01 0.0 
-2.110145966018e-01 -7.825052868519e+01 0.0 
0.0 0.0 -3.479802756060e+01 
-3.914468725567e+01 -2.713029312728e-01 0.0 
-2.713029312728e-01 -7.825144383776e+01 0.0 
0.0 0.0 -3.481883932803e+01 
-3.920606055454e+01 -3.324128577964e-01 0.0 
-3.324128577964e-01 -7.826304859779e+01 0.0 
0.0 0.0 -3.484073274570e+01 
-3.929489724334e+01 -3.871850482457e-01 0.0 
-3.871850482457e-01 -7.828699348008e+01 0.0 
0.0 0.0 -3.487456721703e+01 
-3.939401535488e+01 -4.136088770195e-01 0.0 
-4.136088770195e-01 -7.828447823031e+01 0.0 
0.0 0.0 -3.490354807556e+01 
-3.953555282031e+01 -4.645918093343e-01 0.0 
-4.645918093343e-01 -7.826899587238e+01 0.0 
0.0 0.0 -3.494136460781e+01 
-3.968559224764e+01 -4.990473241575e-01 0.0 
-4.990473241575e-01 -7.831881911739e+01 0.0 
0.0 0.0 -3.500132340951e+01 
-3.988627461682e+01 -4.823971388306e-01 0.0 
-4.823971388306e-01 -7.837595824180e+01 0.0 
0.0 0.0 -3.507866985759e+01 
-4.015281883737e+01 -4.378915760166e-01 0.0 
-4.378915760166e-01 -7.843069741441e+01 0.0 
0.0 0.0 -3.517505487553e+01 
-4.046421678758e+01 -3.480438074854e-01 0.0 
-3.480438074854e-01 -7.852147798954e+01 0.0 
0.0 0.0 -3.529570843314e+01 
-4.084797697021e+01 -1.995021841660e-01 0.0 
-1.995021841660e-01 -7.858654075514e+01 0.0 
0.0 0.0 -3.543035531761e+01 
-4.140938718035e+01 -2.620632726689e-02 0.0 
-2.620632726689e-02 -7.893648110895e+01 0.0 
0.0 0.0 -3.570376048679e+01 
-4.262952673379e+01 5.511981837860e-01 0.0 
5.511981837860e-01 -8.033900292733e+01 0.0 
0.0 0.0 -3.649055889834e+01 
-4.200254627627e+01 8.860083101751e-01 0.0 
8.860083101751e-01 -7.699062630099e+01 0.0 
0.0 0.0 -3.529795177318e+01 
-5.065269214568e+01 8.059541956263e-01 0.0 
8.059541956263e-01 -9.644124706968e+01 0.0 
0.0 0.0 -4.372818176461e+01 
-5.118021328710e+01 6.061027768100e-01 0.0 
6.061027768100e-01 -9.967617425985e+01 0.0 
0.0 0.0 -4.485691626408e+01 
-5.008183101547e+01 1.990215711655e-01 0.0 
1.990215711655e-01 -9.842307733614e+01 0.0 
0.0 0.0 -4.415147250548e+01 
-4.963365657677e+01 7.024485147440e-03 0.0 
7.024485147440e-03 -9.820896105683e+01 0.0 
0.0 0.0 -4.395278529008e+01 
-4.921345008705e+01 -9.299001418301e-02 0.0 
-9.299001418301e-02 -9.811173807659e+01 0.0 
0.0 0.0 -4.379755644909e+01 
-4.885722112282e+01 -1.950336563250e-01 0.0 
-1.950336563250e-01 -9.804731628448e+01 0.0 
0.0 0.0 -4.367136122219e+01 
-4.854655975075e+01 -2.513988706327e-01 0.0 
-2.513988706327e-01 -9.791773546827e+01 0.0 
0.0 0.0 -4.353928856571e+01 
-4.829295376808e+01 -2.223368835369e-01 0.0 
-2.223368835369e-01 -9.787031458688e+01 0.0 
0.0 0.0 -4.344898050649e+01 
-4.817348464764e+01 -2.387140158418e-01 0.0 
-2.387140158418e-01 -9.792909111275e+01 0.0 
0.0 0.0 -4.343077272812e+01 
-4.794672993793e+01 -2.103765461275e-01 0.0 
-2.103765461275e-01 -9.787249093035e+01 0.0 
0.0 0.0 -4.334576626048e+01 
-4.780196310162e+01 -1.947004866184e-01 0.0 
-1.947004866184e-01 -9.784641944153e+01 0.0 
0.0 0.0 -4.329451476294e+01 
-4.768747074649e+01 -1.294170285969e-01 0.0 
-1.294170285969e-01 -9.783752800720e+01 0.0 
0.0 0.0 -4.325749962610e+01 
-4.756544394967e+01 -1.215291279207e-01 0.0 
-1.215291279207e-01 -9.785460974937e+01 0.0 
0.0 0.0 -4.322601610971e+01 
-4.747957623129e+01 -6.393703882736e-02 0.0 
-6.393703882736e-02 -9.779235707701e+01 0.0 
0.0 0.0 -4.318157999249e+01 
-4.743973185444e+01 6.530299004218e-02 0.0 
6.530299004218e-02 -9.792928869954e+01 0.0 
0.0 0.0 -4.321070616620e+01 
-4.733809429204e+01 -4.845627989250e-01 0.0 
-4.845627989250e-01 -9.800587087954e+01 0.0 
0.0 0.0 -4.320318955148e+01 
-1.471704874658e+01 7.886765521506e+00 0.0 
7.886765521506e+00 -9.943842401577e+00 0.0 
0.0 0.0 -7.090666391236e+00 
-1.751588060419e+01 1.146922115033e+01 0.0 
1.146922115033e+01 -1.566490101824e+01 0.0 
0.0 0.0 -9.554234486729e+00 
-1.726869603949e+01 1.211302201769e+01 0.0 
1.211302201769e+01 -1.695586617990e+01 0.0 
0.0 0.0 -9.867368665818e+00 
-1.664472340860e+01 1.108664146015e+01 0.0 
1.108664146015e+01 -1.704299308956e+01 0.0 
0.0 0.0 -9.706314949448e+00 
-1.366760687465e+01 5.173359785191e+00 0.0 
5.173359785191e+00 -1.404409906080e+01 0.0 
0.0 0.0 -7.913511780634e+00 
-2.198419905051e+01 3.525868592246e+00 0.0 
3.525868592246e+00 -3.280961178393e+01 0.0 
0.0 0.0 -1.603814325033e+01 
-3.135508657900e+01 2.658417022571e+00 0.0 
2.658417022571e+00 -5.228143088256e+01 0.0 
0.0 0.0 -2.469095523847e+01 
-4.040247614362e+01 1.943090006624e+00 0.0 
1.943090006624e+00 -7.173480451676e+01 0.0 
0.0 0.0 -3.324118419811e+01 
-4.908049873832e+01 1.581267600059e+00 0.0 
1.581267600059e+00 -9.114826131582e+01 0.0 
0.0 0.0 -4.166862801624e+01 
-5.744602097302e+01 1.420322799317e+00 0.0 
1.420322799317e+00 -1.106895984897e+02 0.0 
0.0 0.0 -5.004068583882e+01 
-1.748310523637e+01 1.116524802244e+01 0.0 
1.116524802244e+01 -2.380560723088e+01 0.0 
0.0 0.0 -1.198661374018e+01 
-1.506145532843e+02 1.283382911204e+01 0.0 
1.283382911204e+01 -3.569270843258e+02 0.0 
0.0 0.0 -1.518624912830e+02 
-1.166594809413e+01 -8.106623057456e-01 0.0 
-8.106623057456e-01 -1.681083143296e+01 0.0 
0.0 0.0 -8.530333882982e+00 
-1.569018943819e+01 -6.827211756403e-01 0.0 
-6.827211756403e-01 -1.607439474225e+01 0.0 
0.0 0.0 -9.516282984696e+00 
-1.546224403306e+02 8.475837439188e+00 0.0 
8.475837439188e+00 -3.669854221243e+02 0.0 
0.0 0.0 -1.560823587365e+02 
-1.955247140110e+01 1.187249128344e+01 0.0 
1.187249128344e+01 -2.691152692950e+01 0.0 
0.0 0.0 -1.353919949918e+01 
-8.043065896863e+01 5.918406128966e-02 0.0 
5.918406128966e-02 -2.086101224927e+02 0.0 
0.0 0.0 -8.631223443841e+01 
-1.460390896565e+02 1.515302823239e+01 0.0 
1.515302823239e+01 -3.443796098200e+02 0.0 
0.0 0.0 -1.467256098429e+02 
-3.147448930117e+01 5.847908461592e+00 0.0 
5.847908461592e+00 -5.058947929514e+01 0.0 
0.0 0.0 -2.421919057889e+01 
-1.419199615190e+02 1.569891479923e+01 0.0 
1.569891479923e+01 -3.314209693932e+02 0.0 
0.0 0.0 -1.416022792736e+02 
-4.855415889510e+01 3.056484393916e+00 0.0 
3.056484393916e+00 -8.904543697537e+01 0.0 
0.0 0.0 -4.087987876114e+01 
-1.575086065683e+02 5.184333693763e+00 0.0 
5.184333693763e+00 -3.727536075305e+02 0.0 
0.0 0.0 -1.586786642296e+02 
-8.588771999853e+00 -5.591880987322e-01 0.0 
-5.591880987322e-01 -1.618697376908e+01 0.0 
0.0 0.0 -7.442407357830e+00 
-1.375258118212e+02 1.380521425437e+01 0.0 
1.380521425437e+01 -3.185163432232e+02 0.0 
0.0 0.0 -1.364126465133e+02 
-6.489516449051e+01 2.188843792586e+00 0.0 
2.188843792586e+00 -1.279553557666e+02 0.0 
0.0 0.0 -5.745515607713e+01 
-4.942619057980e+01 -2.024758152493e-01 0.0 
-2.024758152493e-01 -1.298469882087e+02 0.0 
0.0 0.0 -5.338195363654e+01 
-1.035184706531e+02 1.797731837693e-01 0.0 
1.797731837693e-01 -2.619040025566e+02 0.0 
0.0 0.0 -1.092267419629e+02 
-1.346599699157e+02 1.142793002098e+01 0.0 
1.142793002098e+01 -3.102928607033e+02 0.0 
0.0 0.0 -1.330858491857e+02 
-1.318530135486e+02 7.827869069199e+00 0.0 
7.827869069199e+00 -3.045542578412e+02 0.0 
0.0 0.0 -1.305221814169e+02 
-1.287406020433e+02 2.303833709587e+00 0.0 
2.303833709587e+00 -2.992846504808e+02 0.0 
0.0 0.0 -1.280075757572e+02 
-1.288313569743e+02 3.718298070437e+00 0.0 
3.718298070437e+00 -2.984176212648e+02 0.0 
0.0 0.0 -1.277746934717e+02 
-1.305188521594e+02 5.755501170547e+00 0.0 
5.755501170547e+00 -3.022275491059e+02 0.0 
0.0 0.0 -1.294239203796e+02 
-6.720494534660e+01 1.342211699037e+00 0.0 
1.342211699037e+00 -1.359434089573e+02 0.0 
0.0 0.0 -6.054450629118e+01 
-6.502570360222e+01 4.326713535284e-01 0.0 
4.326713535284e-01 -1.351073674282e+02 0.0 
0.0 0.0 -5.963992130914e+01 
-6.462699545908e+01 2.952884527404e-01 0.0 
2.952884527404e-01 -1.362720779282e+02 0.0 
0.0 0.0 -5.986972201618e+01 
-9.254110047549e+01 3.017635060689e-01 0.0 
3.017635060689e-01 -2.063200338015e+02 0.0 
0.0 0.0 -8.925834028309e+01 
-1.577585436974e+02 3.093767158315e+00 0.0 
3.093767158315e+00 -3.733653513311e+02 0.0 
0.0 0.0 -1.589371685085e+02 
-1.588339280162e+01 1.110640510415e+00 0.0 
1.110640510415e+00 -1.493702449714e+01 0.0 
0.0 0.0 -9.246389063339e+00 
-7.447809476952e+00 -3.198638768822e-01 0.0 
-3.198638768822e-01 -1.720334952250e+01 0.0 
0.0 0.0 -7.384347986406e+00 
-1.320593380338e+02 4.415733514393e-01 0.0 
4.415733514393e-01 -3.226768913864e+02 0.0 
0.0 0.0 -1.360208688261e+02 
-6.286998947271e+01 -3.849144338410e-03 0.0 
-3.849144338410e-03 -1.339251734039e+02 0.0 
0.0 0.0 -5.863854886300e+01 
-2.623346083252e+01 -2.370621253504e-01 0.0 
-2.370621253504e-01 -6.892453014238e+01 0.0 
0.0 0.0 -2.814739729247e+01 
-1.318757173089e+02 9.435719854753e+00 0.0 
9.435719854753e+00 -3.036498245739e+02 0.0 
0.0 0.0 -1.302576625648e+02 
-1.445509380390e+02 1.577688781452e+01 0.0 
1.577688781452e+01 -3.392734259688e+02 0.0 
0.0 0.0 -1.447473092023e+02 
-1.395937910071e+02 1.499924335377e+01 0.0 
1.499924335377e+01 -3.245733098298e+02 0.0 
0.0 0.0 -1.388501302511e+02 
-1.476158911548e+02 1.418670831365e+01 0.0 
1.418670831365e+01 -3.495395393431e+02 0.0 
0.0 0.0 -1.487466291494e+02 
-1.527170258600e+02 1.122705964359e+01 0.0 
1.122705964359e+01 -3.621998956815e+02 0.0 
0.0 0.0 -1.540750764624e+02 
-1.433421780658e+01 -9.925657499611e-01 0.0 
-9.925657499611e-01 -1.717821674615e+01 0.0 
0.0 0.0 -9.442931990038e+00 
-6.571391643019e+01 7.420357199227e-01 0.0 
7.420357199227e-01 -1.347377553242e+02 0.0 
0.0 0.0 -5.973550152632e+01 
-1.542815459447e+02 6.690504219863e+00 0.0 
6.690504219863e+00 -3.667679370161e+02 0.0 
0.0 0.0 -1.559148448882e+02 
-1.079008121465e+02 3.694875881487e-01 0.0 
3.694875881487e-01 -2.451873779983e+02 0.0 
0.0 0.0 -1.055264570435e+02 
-1.019231430886e+01 -7.205874311347e-01 0.0 
-7.205874311347e-01 -1.707629559733e+01 0.0 
0.0 0.0 -8.181451771361e+00 
-6.429303879391e+01 -6.896740228899e-02 0.0 
-6.896740228899e-02 -1.683324388714e+02 0.0 
0.0 0.0 -6.938764329961e+01 
-1.295898077322e+02 1.423340271549e+00 0.0 
1.423340271549e+00 -3.018917047476e+02 0.0 
0.0 0.0 -1.290444537439e+02 
-2.484829082470e+01 9.050802704790e+00 0.0 
9.050802704790e+00 -3.672343076859e+01 0.0 
0.0 0.0 -1.807151647799e+01 
-1.812204715132e+01 1.255869433851e+01 0.0 
1.255869433851e+01 -2.599382232408e+01 0.0 
0.0 0.0 -1.283476084262e+01 
-4.002908346862e+01 4.171734532397e+00 0.0 
4.171734532397e+00 -6.959633305686e+01 0.0 
0.0 0.0 -3.248762495765e+01 
-5.677925838214e+01 2.550251587793e+00 0.0 
2.550251587793e+00 -1.082250255078e+02 0.0 
0.0 0.0 -4.910128516697e+01 
-1.543883118102e+01 7.876098243500e+00 0.0 
7.876098243500e+00 -1.745974589912e+01 0.0 
0.0 0.0 -9.518841157728e+00 
-7.734339190577e+01 1.174545723881e-01 0.0 
1.174545723881e-01 -1.689092007579e+02 0.0 
0.0 0.0 -7.347577779911e+01 
-1.596536170147e+02 1.737080491521e+00 0.0 
1.737080491521e+00 -3.771033699778e+02 0.0 
0.0 0.0 -1.606270960977e+02 
-6.786291393027e+00 -2.119619567579e-01 0.0 
-2.119619567579e-01 -1.636369698798e+01 0.0 
0.0 0.0 -6.900862255779e+00 
-1.228843952543e+02 3.469809866998e-01 0.0 
3.469809866998e-01 -2.838417967861e+02 0.0 
0.0 0.0 -1.216178576121e+02 
-6.877313937908e+01 2.190327557199e+00 0.0 
2.190327557199e+00 -1.370578132472e+02 0.0 
0.0 0.0 -6.134928578787e+01 
-7.280920120762e+01 3.028469544374e+00 0.0 
3.028469544374e+00 -1.458317197093e+02 0.0 
0.0 0.0 -6.519227627508e+01 
-7.623663897501e+01 2.768675773688e+00 0.0 
2.768675773688e+00 -1.547573101006e+02 0.0 
0.0 0.0 -6.889818472268e+01 
-8.087759988777e+01 3.927211153992e+00 0.0 
3.927211153992e+00 -1.651623940912e+02 0.0 
0.0 0.0 -7.341199819370e+01 
-8.467064743335e+01 3.766831382008e+00 0.0 
3.766831382008e+00 -1.749625257003e+02 0.0 
0.0 0.0 -7.748995194010e+01 
-8.877854098854e+01 4.751360316189e+00 0.0 
4.751360316189e+00 -1.844638044853e+02 0.0 
0.0 0.0 -8.157270364216e+01 
-8.516384597336e+01 4.963899459969e+00 0.0 
4.963899459969e+00 -1.748318586320e+02 0.0 
0.0 0.0 -7.759871138159e+01 
-9.295433867242e+01 5.802242629737e+00 0.0 
5.802242629737e+00 -1.942962963572e+02 0.0 
0.0 0.0 -8.577519050889e+01 
-8.927989624268e+01 6.072476227538e+00 0.0 
6.072476227538e+00 -1.847050560205e+02 0.0 
0.0 0.0 -8.179548567895e+01 
-9.265388421236e+01 4.621837249739e+00 0.0 
4.621837249739e+00 -1.945213904601e+02 0.0 
0.0 0.0 -8.575258240173e+01 
-9.698821135537e+01 6.895739108240e+00 0.0 
6.895739108240e+00 -2.043606216323e+02 0.0 
0.0 0.0 -9.000464989630e+01 
-9.331158111144e+01 7.226422527806e+00 0.0 
7.226422527806e+00 -1.949055308633e+02 0.0 
0.0 0.0 -8.606513359242e+01 
-1.009149838384e+02 7.989529737821e+00 0.0 
7.989529737821e+00 -2.146765082902e+02 0.0 
0.0 0.0 -9.427744763857e+01 
-9.723152562233e+01 8.380545204106e+00 0.0 
8.380545204106e+00 -2.054414510564e+02 0.0 
0.0 0.0 -9.040189300361e+01 
-8.960309852207e+01 7.668966344665e+00 0.0 
7.668966344665e+00 -1.857272684710e+02 0.0 
0.0 0.0 -8.219911009791e+01 
-9.347867131893e+01 8.858597853702e+00 0.0 
8.858597853702e+00 -1.964931270674e+02 0.0 
0.0 0.0 -8.659153951591e+01 
-8.581723019731e+01 8.223190567477e+00 0.0 
8.223190567477e+00 -1.767375864192e+02 0.0 
0.0 0.0 -7.836644498495e+01 
-8.963883371620e+01 9.452598424384e+00 0.0 
9.452598424384e+00 -1.878054282237e+02 0.0 
0.0 0.0 -8.283327858196e+01 
-9.723682277579e+01 9.964024333659e+00 0.0 
9.964024333659e+00 -2.075765538169e+02 0.0 
0.0 0.0 -9.104401297780e+01 
-9.332524397331e+01 1.055740204164e+01 0.0 
1.055740204164e+01 -1.991841117238e+02 0.0 
0.0 0.0 -8.735280670913e+01 
-8.564549481606e+01 1.015649451184e+01 0.0 
1.015649451184e+01 -1.793678923039e+02 0.0 
0.0 0.0 -7.910401613599e+01 
-8.923991484358e+01 1.121999168210e+01 0.0 
1.121999168210e+01 -1.910670045938e+02 0.0 
0.0 0.0 -8.369207583121e+01 
-8.151969659656e+01 1.095279216098e+01 0.0 
1.095279216098e+01 -1.712801654263e+02 0.0 
0.0 0.0 -7.543995860686e+01 
-8.501827863589e+01 1.193004763527e+01 0.0 
1.193004763527e+01 -1.833449026150e+02 0.0 
0.0 0.0 -8.010895437527e+01 
-7.722561004498e+01 1.182227122615e+01 0.0 
1.182227122615e+01 -1.635642085240e+02 0.0 
0.0 0.0 -7.183694557070e+01 
-8.062769609159e+01 1.264850974789e+01 0.0 
1.264850974789e+01 -1.760237858608e+02 0.0 
0.0 0.0 -7.659544458571e+01 
-8.843642789151e+01 1.262944743108e+01 0.0 
1.262944743108e+01 -1.955713894940e+02 0.0 
0.0 0.0 -8.480234521564e+01 
-8.394843380637e+01 1.314882840504e+01 0.0 
1.314882840504e+01 -1.885092471609e+02 0.0 
0.0 0.0 -8.133730429019e+01 
-7.606847481186e+01 1.330245908019e+01 0.0 
1.330245908019e+01 -1.691428544285e+02 0.0 
0.0 0.0 -7.316339877212e+01 
-7.932636501103e+01 1.354772530096e+01 0.0 
1.354772530096e+01 -1.818311054517e+02 0.0 
0.0 0.0 -7.794724113882e+01 
-7.137768736403e+01 1.379730004197e+01 0.0 
1.379730004197e+01 -1.627221980637e+02 0.0 
0.0 0.0 -6.982996562832e+01 
-7.460760996778e+01 1.373905799695e+01 0.0 
1.373905799695e+01 -1.754832598256e+02 0.0 
0.0 0.0 -7.462726093801e+01 
-8.262854709446e+01 1.350736730424e+01 0.0 
1.350736730424e+01 -1.943259205385e+02 0.0 
0.0 0.0 -8.268634028988e+01 
-7.793115598211e+01 1.342710442802e+01 0.0 
1.342710442802e+01 -1.879627920908e+02 0.0 
0.0 0.0 -7.936818442186e+01 
-6.983440855257e+01 1.364871010572e+01 0.0 
1.364871010572e+01 -1.693567200651e+02 0.0 
0.0 0.0 -7.135733858531e+01 
-7.323271229511e+01 1.306727382115e+01 0.0 
1.306727382115e+01 -1.817423016106e+02 0.0 
0.0 0.0 -7.609250417173e+01 
-6.510722365462e+01 1.322057501092e+01 0.0 
1.322057501092e+01 -1.633789014359e+02 0.0 
0.0 0.0 -6.814583752714e+01 
-6.863236500347e+01 1.239846006239e+01 0.0 
1.239846006239e+01 -1.755953367736e+02 0.0 
0.0 0.0 -7.286831053312e+01 
-6.053151466426e+01 1.242020608426e+01 0.0 
1.242020608426e+01 -1.574424591721e+02 0.0 
0.0 0.0 -6.499219215092e+01 
-6.416979118136e+01 1.141493917160e+01 0.0 
1.141493917160e+01 -1.693173638712e+02 0.0 
0.0 0.0 -6.964614651577e+01 
-7.228223162367e+01 1.152650767159e+01 0.0 
1.152650767159e+01 -1.873293536503e+02 0.0 
0.0 0.0 -7.748347558218e+01 
-6.793238429888e+01 1.043763556220e+01 0.0 
1.043763556220e+01 -1.807357539536e+02 0.0 
0.0 0.0 -7.420044147576e+01 
-5.993940606277e+01 1.016332617869e+01 0.0 
1.016332617869e+01 -1.628383407718e+02 0.0 
0.0 0.0 -6.643332405037e+01 
-6.377858031392e+01 9.131516976223e+00 0.0 
9.131516976223e+00 -1.738268839733e+02 0.0 
0.0 0.0 -7.088163928618e+01 
-7.181252335960e+01 9.508669621069e+00 0.0 
9.508669621069e+00 -1.917722789004e+02 0.0 
0.0 0.0 -7.867544067800e+01 
-6.770508204503e+01 8.196557465329e+00 0.0 
8.196557465329e+00 -1.844451111312e+02 0.0 
0.0 0.0 -7.524505795288e+01 
-7.579212449371e+01 8.658329052226e+00 0.0 
8.658329052226e+00 -2.024649286507e+02 0.0 
0.0 0.0 -8.307711594331e+01 
-7.171499735851e+01 7.365565946985e+00 0.0 
7.365565946985e+00 -1.947665837872e+02 0.0 
0.0 0.0 -7.954447434370e+01 
-6.385043349267e+01 6.790939222948e+00 0.0 
6.790939222948e+00 -1.768455796656e+02 0.0 
0.0 0.0 -7.180880394749e+01 
-6.785278872721e+01 6.018434210096e+00 0.0 
6.018434210096e+00 -1.867786981078e+02 0.0 
0.0 0.0 -7.598944605050e+01 
-7.579005155481e+01 6.638734143530e+00 0.0 
6.638734143530e+00 -2.048141759668e+02 0.0 
0.0 0.0 -8.378126825649e+01 
-7.189267764660e+01 5.361524410483e+00 0.0 
5.361524410483e+00 -1.964528531420e+02 0.0 
0.0 0.0 -8.010365923658e+01 
-6.418919982121e+01 4.673091689444e+00 0.0 
4.673091689444e+00 -1.784542322926e+02 0.0 
0.0 0.0 -7.239302963415e+01 
-6.818984435324e+01 4.109433861375e+00 0.0 
4.109433861375e+00 -1.878296828264e+02 0.0 
0.0 0.0 -7.640585815388e+01 
-7.599381709578e+01 4.811891593746e+00 0.0 
4.811891593746e+00 -2.059807617687e+02 0.0 
0.0 0.0 -8.419237365933e+01 
-7.222975574624e+01 3.651430861362e+00 0.0 
3.651430861362e+00 -1.970634317389e+02 0.0 
0.0 0.0 -8.038795624555e+01 
-6.463498414106e+01 2.923541434416e+00 0.0 
2.923541434416e+00 -1.788900261701e+02 0.0 
0.0 0.0 -7.265750309336e+01 
-6.859388983338e+01 2.571175269565e+00 0.0 
2.571175269565e+00 -1.878857436938e+02 0.0 
0.0 0.0 -7.654389005814e+01 
-7.634732301264e+01 3.290522860417e+00 0.0 
3.290522860417e+00 -2.062900030803e+02 0.0 
0.0 0.0 -8.439119782788e+01 
-7.258712649673e+01 2.305767589932e+00 0.0 
2.305767589932e+00 -1.968126740076e+02 0.0 
0.0 0.0 -8.041994015131e+01 
-6.503042663788e+01 1.594788932352e+00 0.0 
1.594788932352e+00 -1.783730222859e+02 0.0 
0.0 0.0 -7.262103467713e+01 
-6.890301881974e+01 1.420310011469e+00 0.0 
1.420310011469e+00 -1.870765841729e+02 0.0 
0.0 0.0 -7.639388089779e+01 
-7.664016294110e+01 2.106856956621e+00 0.0 
2.106856956621e+00 -2.057621071046e+02 0.0 
0.0 0.0 -8.432068101372e+01 
-7.281332980151e+01 1.305642987018e+00 0.0 
1.305642987018e+00 -1.957752314204e+02 0.0 
0.0 0.0 -8.017656836659e+01 
-8.071905506522e+01 1.960559524916e+00 0.0 
1.960559524916e+00 -2.146611347890e+02 0.0 
0.0 0.0 -8.821405695626e+01 
-6.520067459872e+01 6.538270659529e-01 0.0 
6.538270659529e-01 -1.769370978053e+02 0.0 
0.0 0.0 -7.224133172120e+01 
-6.899541716933e+01 6.248914609363e-01 0.0 
6.248914609363e-01 -1.855149305418e+02 0.0 
0.0 0.0 -7.595310431334e+01 
-6.148017597063e+01 2.303374009458e-02 0.0 
2.303374009458e-02 -1.664796119690e+02 0.0 
0.0 0.0 -6.798793638188e+01 
-6.519022821430e+01 7.465234847527e-02 0.0 
7.465234847527e-02 -1.750452593423e+02 0.0 
0.0 0.0 -7.167064626697e+01 
-8.602802395343e+01 1.325677919875e+01 0.0 
1.325677919875e+01 -2.065822549180e+02 0.0 
0.0 0.0 -8.738308366143e+01 
-5.776173116705e+01 -4.546996584808e-01 0.0 
-4.546996584808e-01 -1.558489861834e+02 0.0 
0.0 0.0 -6.368321520513e+01 
-5.428393024161e+01 -5.355594120727e-01 0.0 
-5.355594120727e-01 -1.475679422103e+02 0.0 
0.0 0.0 -6.015556173556e+01 
-6.137769742966e+01 -3.392200395155e-01 0.0 
-3.392200395155e-01 -1.644179818449e+02 0.0 
0.0 0.0 -6.733870378235e+01 
-6.897497274319e+01 1.451753353765e-01 0.0 
1.451753353765e-01 -1.837473792160e+02 0.0 
0.0 0.0 -7.541670558776e+01 
-5.399824479346e+01 -7.873080597241e-01 0.0 
-7.873080597241e-01 -1.450618055876e+02 0.0 
0.0 0.0 -5.931801511433e+01 
-5.753446950229e+01 -6.322812391720e-01 0.0 
-6.322812391720e-01 -1.536503472261e+02 0.0 
0.0 0.0 -6.295544501852e+01 
-5.018930073839e+01 -1.001835295484e+00 0.0 
-1.001835295484e+00 -1.341762898658e+02 0.0 
0.0 0.0 -5.490967718127e+01 
-5.686195475786e+01 1.336248463822e+01 0.0 
1.336248463822e+01 -1.447290688910e+02 0.0 
0.0 0.0 -6.007730709464e+01 
-1.009075263692e+02 1.096172435588e+01 0.0 
1.096172435588e+01 -2.189370536393e+02 0.0 
0.0 0.0 -9.555337400255e+01 
-5.364626905049e+01 -8.193698207396e-01 0.0 
-8.193698207396e-01 -1.427824012624e+02 0.0 
0.0 0.0 -5.852860109388e+01 
-4.630470288365e+01 -1.081464410705e+00 0.0 
-1.081464410705e+00 -1.232014919589e+02 0.0 
0.0 0.0 -5.045185845278e+01 
-4.300175306074e+01 -1.284086176980e+00 0.0 
-1.284086176980e+00 -1.146233534090e+02 0.0 
0.0 0.0 -4.688753194091e+01 
-3.914329527150e+01 -1.278277262039e+00 0.0 
-1.278277262039e+00 -1.035859654724e+02 0.0 
0.0 0.0 -4.241877822316e+01 
-8.860386127979e+01 3.784568541058e+00 0.0 
3.784568541058e+00 -1.850968226690e+02 0.0 
0.0 0.0 -8.171020518465e+01 
-9.626816056302e+01 4.463047483481e+00 0.0 
4.463047483481e+00 -2.046565144798e+02 0.0 
0.0 0.0 -8.987740251284e+01 
-9.197074946704e+01 3.627806543090e+00 0.0 
3.627806543090e+00 -1.946765083590e+02 0.0 
0.0 0.0 -8.559417734780e+01 
-9.983811534276e+01 4.380952773628e+00 0.0 
4.380952773628e+00 -2.148115631333e+02 0.0 
0.0 0.0 -9.399490354282e+01 
-9.577391498928e+01 3.590494829872e+00 0.0 
3.590494829872e+00 -2.052902407675e+02 0.0 
0.0 0.0 -8.991924672704e+01 
-4.236991888653e+01 -1.043275218214e+00 0.0 
-1.043275218214e+00 -1.121326568468e+02 0.0 
0.0 0.0 -4.595077272000e+01 
-1.045977854012e+02 7.675398196057e+00 0.0 
7.675398196057e+00 -2.243047382165e+02 0.0 
0.0 0.0 -9.827075708530e+01 
-1.038765455066e+02 5.239315558386e+00 0.0 
5.239315558386e+00 -2.244601215741e+02 0.0 
0.0 0.0 -9.810100012421e+01 
-7.787738917661e+01 9.716621823025e+00 0.0 
9.716621823025e+00 -1.595036324723e+02 0.0 
0.0 0.0 -7.081430649468e+01 
-6.816409727554e+01 1.350339911560e+01 0.0 
1.350339911560e+01 -1.496992516730e+02 0.0 
0.0 0.0 -6.495900468455e+01 
-8.006443839072e+01 9.847036474099e+00 0.0 
9.847036474099e+00 -2.098957563892e+02 0.0 
0.0 0.0 -8.658805843398e+01 
-6.111948792754e+01 -4.659637536800e-01 0.0 
-4.659637536800e-01 -1.622734058438e+02 0.0 
0.0 0.0 -6.661786813140e+01 
-5.716134873743e+01 -6.408329798438e-01 0.0 
-6.408329798438e-01 -1.514347154225e+02 0.0 
0.0 0.0 -6.217881924797e+01 
-6.470034608280e+01 -2.934758288009e-01 0.0 
-2.934758288009e-01 -1.709469794612e+02 0.0 
0.0 0.0 -7.029419766319e+01 
-8.470308359142e+01 2.792895911644e+00 0.0 
2.792895911644e+00 -2.245676748765e+02 0.0 
0.0 0.0 -9.238122754037e+01 
-8.890753813300e+01 2.610789356205e+00 0.0 
2.610789356205e+00 -2.335742877779e+02 0.0 
0.0 0.0 -9.634454777328e+01 
-9.305459685180e+01 3.464440332946e+00 0.0 
3.464440332946e+00 -2.434167296220e+02 0.0 
0.0 0.0 -1.005413979421e+02 
-9.736683994364e+01 3.248193900160e+00 0.0 
3.248193900160e+00 -2.524878159999e+02 0.0 
0.0 0.0 -1.045563967831e+02 
-1.016793429016e+02 4.118907296495e+00 0.0 
4.118907296495e+00 -2.622815703648e+02 0.0 
0.0 0.0 -1.087882739799e+02 
-1.060896458751e+02 3.865643217181e+00 0.0 
3.865643217181e+00 -2.713968191987e+02 0.0 
0.0 0.0 -1.128459395221e+02 
-1.016832308370e+02 3.053465871303e+00 0.0 
3.053465871303e+00 -2.614602609422e+02 0.0 
0.0 0.0 -1.085430475338e+02 
-1.105041416953e+02 3.630034516709e+00 0.0 
3.630034516709e+00 -2.804054972669e+02 0.0 
0.0 0.0 -1.168728916887e+02 
-1.060016310108e+02 2.867001027153e+00 0.0 
2.867001027153e+00 -2.703471887440e+02 0.0 
0.0 0.0 -1.125046459264e+02 
-1.105643406128e+02 4.750113394032e+00 0.0 
4.750113394032e+00 -2.811464035877e+02 0.0 
0.0 0.0 -1.171132232602e+02 
-1.060438242008e+02 5.057559306251e+00 0.0 
5.057559306251e+00 -2.718376228731e+02 0.0 
0.0 0.0 -1.129644341222e+02 
-1.149197429386e+02 3.396044016125e+00 0.0 
3.396044016125e+00 -2.893115371925e+02 0.0 
0.0 0.0 -1.208693840393e+02 
-1.103184004049e+02 2.671919421942e+00 0.0 
2.671919421942e+00 -2.791502331544e+02 0.0 
0.0 0.0 -1.164405900678e+02 
-1.193397737283e+02 3.146391677094e+00 0.0 
3.146391677094e+00 -2.981282874484e+02 0.0 
0.0 0.0 -1.248404183530e+02 
-1.146333678377e+02 2.461036437701e+00 0.0 
2.461036437701e+00 -2.878771501927e+02 0.0 
0.0 0.0 -1.203531554091e+02 
-1.057447257738e+02 2.026611003946e+00 0.0 
2.026611003946e+00 -2.688121971667e+02 0.0 
0.0 0.0 -1.119670768822e+02 
-1.099443456361e+02 1.851468420098e+00 0.0 
1.851468420098e+00 -2.774547417962e+02 0.0 
0.0 0.0 -1.158197262297e+02 
-1.012243649232e+02 1.475671956662e+00 0.0 
1.475671956662e+00 -2.583987271772e+02 0.0 
0.0 0.0 -1.074869276301e+02 
-8.410114365414e+01 9.086308943286e+00 0.0 
9.086308943286e+00 -2.206454013974e+02 0.0 
0.0 0.0 -9.102396351546e+01 
-8.849722845621e+01 1.016987866577e+01 0.0 
1.016987866577e+01 -2.281993178870e+02 0.0 
0.0 0.0 -9.460896390295e+01 
-9.260219157179e+01 9.498109976858e+00 0.0 
9.498109976858e+00 -2.389806599155e+02 0.0 
0.0 0.0 -9.907485544617e+01 
-9.708739685750e+01 1.050278999298e+01 0.0 
1.050278999298e+01 -2.466573293998e+02 0.0 
0.0 0.0 -1.027234178772e+02 
-1.012858176664e+02 9.924169282892e+00 0.0 
9.924169282892e+00 -2.574579328524e+02 0.0 
0.0 0.0 -1.072231251556e+02 
-1.058199819314e+02 1.087358649673e+01 0.0 
1.087358649673e+01 -2.652365103962e+02 0.0 
0.0 0.0 -1.109169476983e+02 
-1.101232365725e+02 1.038427475284e+01 0.0 
1.038427475284e+01 -2.760115736976e+02 0.0 
0.0 0.0 -1.154404430810e+02 
-1.056020586474e+02 9.385424527694e+00 0.0 
9.385424527694e+00 -2.679993210773e+02 0.0 
0.0 0.0 -1.116804139174e+02 
-1.047030451120e+02 9.068262756741e+00 0.0 
9.068262756741e+00 -2.252144369050e+02 0.0 
0.0 0.0 -9.857524460510e+01 
-5.599294934710e+01 8.680251383839e+00 0.0 
8.680251383839e+00 -1.560502730266e+02 0.0 
0.0 0.0 -6.321296671211e+01 
-5.218005227198e+01 9.801886386602e+00 0.0 
9.801886386602e+00 -1.451018309285e+02 0.0 
0.0 0.0 -5.878456496014e+01 
-4.852453410078e+01 8.122797119932e+00 0.0 
8.122797119932e+00 -1.384438029283e+02 0.0 
0.0 0.0 -5.569050110871e+01 
-4.476153920609e+01 9.312402079931e+00 0.0 
9.312402079931e+00 -1.275682790639e+02 0.0 
0.0 0.0 -5.129894548100e+01 
-4.147037423903e+01 7.438612930945e+00 0.0 
7.438612930945e+00 -1.209862546686e+02 0.0 
0.0 0.0 -4.833698867229e+01 
-3.781370179036e+01 8.673985655802e+00 0.0 
8.673985655802e+00 -1.102125306716e+02 0.0 
0.0 0.0 -4.400786973858e+01 
-3.494573812064e+01 6.634573445297e+00 0.0 
6.634573445297e+00 -1.035924222434e+02 0.0 
0.0 0.0 -4.116144810922e+01 
-3.854107130707e+01 5.508228037258e+00 0.0 
5.508228037258e+00 -1.137966799202e+02 0.0 
0.0 0.0 -4.530132536818e+01 
-3.244408266562e+01 4.611021599308e+00 0.0 
4.611021599308e+00 -9.626127128394e+01 0.0 
0.0 0.0 -3.821160618487e+01 
-3.591769710097e+01 3.643900321171e+00 0.0 
3.643900321171e+00 -1.059433625685e+02 0.0 
0.0 0.0 -4.215831790085e+01 
-3.019741824840e+01 2.724675935126e+00 0.0 
2.724675935126e+00 -8.818733355819e+01 0.0 
0.0 0.0 -3.511542554198e+01 
-3.347572018857e+01 1.949838259998e+00 0.0 
1.949838259998e+00 -9.736690645499e+01 0.0 
0.0 0.0 -3.885278799307e+01 
-9.181802639810e+01 1.306785018353e+01 0.0 
1.306785018353e+01 -2.078258378575e+02 0.0 
0.0 0.0 -8.949315927667e+01 
-1.016427297616e+02 1.138600214253e+01 0.0 
1.138600214253e+01 -2.541650573092e+02 0.0 
0.0 0.0 -1.063423361212e+02 
-1.104117643403e+02 1.171250095687e+01 0.0 
1.171250095687e+01 -2.728932060644e+02 0.0 
0.0 0.0 -1.145914911214e+02 
-1.062060124858e+02 1.213335979352e+01 0.0 
1.213335979352e+01 -2.614850400652e+02 0.0 
0.0 0.0 -1.099073157653e+02 
-3.595333973452e+01 -1.456761100537e+00 0.0 
-1.456761100537e+00 -9.503686033639e+01 0.0 
0.0 0.0 -3.889706002127e+01 
-1.189467334851e+02 2.223081504818e+00 0.0 
2.223081504818e+00 -2.965450098872e+02 0.0 
0.0 0.0 -1.242475230117e+02 
-1.151016002837e+02 5.702225350462e+00 0.0 
5.702225350462e+00 -2.906889539149e+02 0.0 
0.0 0.0 -1.213371662596e+02 
-1.104598050137e+02 6.044825015902e+00 0.0 
6.044825015902e+00 -2.811250191913e+02 0.0 
0.0 0.0 -1.170754472615e+02 
-1.145762699058e+02 9.913708692334e+00 0.0 
9.913708692334e+00 -2.865913546621e+02 0.0 
0.0 0.0 -1.199502873704e+02 
-3.524579692251e+01 -1.171691635588e+00 0.0 
-1.171691635588e+00 -9.264354815995e+01 0.0 
0.0 0.0 -3.796680352474e+01 
-3.152330160667e+01 7.917799029119e+00 0.0 
7.917799029119e+00 -9.301100651456e+01 0.0 
0.0 0.0 -3.696029243637e+01 
-3.425238032508e+01 1.000134743863e+01 0.0 
1.000134743863e+01 -9.880457626075e+01 0.0 
0.0 0.0 -3.951708697575e+01 
-1.034235943427e+02 4.298327557448e+00 0.0 
4.298327557448e+00 -2.250855604537e+02 0.0 
0.0 0.0 -9.815274643892e+01 
-9.943153668918e+01 3.541287475219e+00 0.0 
3.541287475219e+00 -2.156267950181e+02 0.0 
0.0 0.0 -9.411749951219e+01 
-1.197205758971e+02 6.695568248301e+00 0.0 
6.695568248301e+00 -3.000410532432e+02 0.0 
0.0 0.0 -1.255284887421e+02 
-3.843975903653e+01 -9.659417260800e-01 0.0 
-9.659417260800e-01 -1.011711033984e+02 0.0 
0.0 0.0 -4.148325873049e+01 
-1.195743456142e+02 4.190072500569e+00 0.0 
4.190072500569e+00 -2.993198354811e+02 0.0 
0.0 0.0 -1.252682543286e+02 
-2.708922576371e+01 3.666762222152e+00 0.0 
3.666762222152e+00 -7.876916985313e+01 0.0 
0.0 0.0 -3.135751868505e+01 
-1.141490239228e+02 1.642423472059e+00 0.0 
1.642423472059e+00 -2.860549091825e+02 0.0 
0.0 0.0 -1.196611799316e+02 
-1.232317268914e+02 1.951449071008e+00 0.0 
1.951449071008e+00 -3.051418318572e+02 0.0 
0.0 0.0 -1.281120676246e+02 
-9.734631903441e+01 2.322806513600e+00 0.0 
2.322806513600e+00 -2.513736742688e+02 0.0 
0.0 0.0 -1.042159979910e+02 
-1.150132033043e+02 1.244728954945e+01 0.0 
1.244728954945e+01 -2.804529370247e+02 0.0 
0.0 0.0 -1.182398420987e+02 
-1.107509712508e+02 1.274064496705e+01 0.0 
1.274064496705e+01 -2.687122269908e+02 0.0 
0.0 0.0 -1.134389594725e+02 
-3.951769215069e+01 2.872853676846e+00 0.0 
2.872853676846e+00 -1.154291233708e+02 0.0 
0.0 0.0 -4.608404465646e+01 
-3.686076458069e+01 1.424767666413e+00 0.0 
1.424767666413e+00 -1.064875959869e+02 0.0 
0.0 0.0 -4.260450817026e+01 
-3.119724694834e+01 5.879025799131e-01 0.0 
5.879025799131e-01 -8.853178258858e+01 0.0 
0.0 0.0 -3.551870886107e+01 
-3.466713606851e+01 1.920780467660e-01 0.0 
1.920780467660e-01 -9.776381459682e+01 0.0 
0.0 0.0 -3.932928519960e+01 
-4.038966614663e+01 9.533479740262e-01 0.0 
9.533479740262e-01 -1.156772638594e+02 0.0 
0.0 0.0 -4.642007900181e+01 
-3.764379378977e+01 -1.783479432181e-01 0.0 
-1.783479432181e-01 -1.058979432991e+02 0.0 
0.0 0.0 -4.266252112666e+01 
-3.191093717268e+01 -8.857061930839e-01 0.0 
-8.857061930839e-01 -8.752870274220e+01 0.0 
0.0 0.0 -3.543189197446e+01 
-3.482375438024e+01 -9.819423392446e-01 0.0 
-9.819423392446e-01 -9.573324932809e+01 0.0 
0.0 0.0 -3.876710111250e+01 
-4.091652017678e+01 -3.652820869866e-01 0.0 
-3.652820869866e-01 -1.144572160926e+02 0.0 
0.0 0.0 -4.621212088080e+01 
-3.788438135348e+01 -1.064880519233e+00 0.0 
-1.064880519233e+00 -1.041211142191e+02 0.0 
0.0 0.0 -4.220164867176e+01 
-3.189516629541e+01 -1.512409456175e+00 0.0 
-1.512409456175e+00 -8.508763840972e+01 0.0 
0.0 0.0 -3.469484141154e+01 
-3.469061862049e+01 -1.498990901933e+00 0.0 
-1.498990901933e+00 -9.339609928997e+01 0.0 
0.0 0.0 -3.802601537314e+01 
-1.281422948451e+02 2.565913927123e+00 0.0 
2.565913927123e+00 -3.155247330903e+02 0.0 
0.0 0.0 -1.327001083806e+02 
-2.528302627319e+01 1.834576646467e+00 0.0 
1.834576646467e+00 -7.041972967042e+01 0.0 
0.0 0.0 -2.831082678308e+01 
-8.181991001528e+01 6.928077633898e+00 0.0 
6.928077633898e+00 -1.660411308726e+02 0.0 
0.0 0.0 -7.395831226636e+01 
-1.244049592472e+02 6.325374343163e+00 0.0 
6.325374343163e+00 -3.095104229142e+02 0.0 
0.0 0.0 -1.297746146484e+02 
-1.190555308862e+02 1.088572431650e+01 0.0 
1.088572431650e+01 -2.944515387873e+02 0.0 
0.0 0.0 -1.236521209020e+02 
-1.070279316580e+02 4.194575554476e+00 0.0 
4.194575554476e+00 -2.354795957392e+02 0.0 
0.0 0.0 -1.023522582192e+02 
-1.031037906446e+02 3.471692321753e+00 0.0 
3.471692321753e+00 -2.261079107838e+02 0.0 
0.0 0.0 -9.836351042853e+01 
-9.534872650363e+01 2.821936416485e+00 0.0 
2.821936416485e+00 -2.062328705987e+02 0.0 
0.0 0.0 -9.007447913071e+01 
-9.912933236757e+01 2.801307898653e+00 0.0 
2.801307898653e+00 -2.168749385380e+02 0.0 
0.0 0.0 -9.440128127168e+01 
-1.067908152491e+02 3.392861266267e+00 0.0 
3.392861266267e+00 -2.367488706406e+02 0.0 
0.0 0.0 -1.026619057669e+02 
-1.029120743336e+02 2.754419875741e+00 0.0 
2.754419875741e+00 -2.275484248108e+02 0.0 
0.0 0.0 -9.873814974332e+01 
-9.512560371408e+01 2.224956349160e+00 0.0 
2.224956349160e+00 -2.077078629689e+02 0.0 
0.0 0.0 -9.045004000489e+01 
-9.901966834861e+01 2.195992048634e+00 0.0 
2.195992048634e+00 -2.183863193776e+02 0.0 
0.0 0.0 -9.482179631787e+01 
-9.114403127472e+01 1.725904971962e+00 0.0 
1.725904971962e+00 -1.985693893645e+02 0.0 
0.0 0.0 -8.651402619178e+01 
-9.511934114822e+01 1.709598894207e+00 0.0 
1.709598894207e+00 -2.092883617294e+02 0.0 
0.0 0.0 -9.092231086329e+01 
-1.029271895062e+02 2.136693877138e+00 0.0 
2.136693877138e+00 -2.291115990498e+02 0.0 
0.0 0.0 -9.921163656677e+01 
-9.910974270238e+01 1.683487650093e+00 0.0 
1.683487650093e+00 -2.200758897615e+02 0.0 
0.0 0.0 -9.535568973916e+01 
-9.120223672041e+01 1.290646543029e+00 0.0 
1.290646543029e+00 -2.002905930713e+02 0.0 
0.0 0.0 -8.704784893753e+01 
-9.527818204779e+01 1.295949795484e+00 0.0 
1.295949795484e+00 -2.110711420341e+02 0.0 
0.0 0.0 -9.150479722456e+01 
-8.728256811625e+01 9.603662076460e-01 0.0 
9.603662076460e-01 -1.912928154444e+02 0.0 
0.0 0.0 -8.317261506821e+01 
-9.145554604179e+01 9.852985948632e-01 0.0 
9.852985948632e-01 -2.020052581518e+02 0.0 
0.0 0.0 -8.763824125807e+01 
-9.937961565059e+01 1.222387138724e+00 0.0 
1.222387138724e+00 -2.218979446519e+02 0.0 
0.0 0.0 -9.598326809075e+01 
-3.159067131472e+01 -1.020104895046e+00 0.0 
-1.020104895046e+00 -8.219402734984e+01 0.0 
0.0 0.0 -3.373540959937e+01 
-1.100330700712e+02 8.887680701798e+00 0.0 
8.887680701798e+00 -2.783313261937e+02 0.0 
0.0 0.0 -1.161093188795e+02 
-1.192018318704e+02 9.461742666216e+00 0.0 
9.461742666216e+00 -2.970816974162e+02 0.0 
0.0 0.0 -1.244850587860e+02 
-6.081466464696e+01 -3.607434676749e-01 0.0 
-3.607434676749e-01 -1.606476126890e+02 0.0 
0.0 0.0 -6.603868320077e+01 
-6.820025067954e+01 -1.040862534022e-01 0.0 
-1.040862534022e-01 -1.793745117538e+02 0.0 
0.0 0.0 -7.387242873002e+01 
-7.241438752562e+01 -2.545145769263e-02 0.0 
-2.545145769263e-02 -1.903465598493e+02 0.0 
0.0 0.0 -7.842828421247e+01 
-7.624029865736e+01 7.974321555176e-02 0.0 
7.974321555176e-02 -1.991327672492e+02 0.0 
0.0 0.0 -8.221191977196e+01 
-9.558207031549e+01 9.158672720585e-01 0.0 
9.158672720585e-01 -2.127283724304e+02 0.0 
0.0 0.0 -9.209313282378e+01 
-1.034148471081e+02 1.091687387293e+00 0.0 
1.091687387293e+00 -2.327416891882e+02 0.0 
0.0 0.0 -1.004469608889e+02 
-2.825741510933e+01 9.291628375572e+00 0.0 
9.291628375572e+00 -8.177931379238e+01 0.0 
0.0 0.0 -3.261101867051e+01 
-3.083034864156e+01 1.132128639712e+01 0.0 
1.132128639712e+01 -8.666940501895e+01 0.0 
0.0 0.0 -3.484992609815e+01 
-1.108911106132e+02 4.981284223403e+00 0.0 
4.981284223403e+00 -2.449762995335e+02 0.0 
0.0 0.0 -1.063602230440e+02 
-1.183458327442e+02 1.411734177996e+00 0.0 
1.411734177996e+00 -2.946573211722e+02 0.0 
0.0 0.0 -1.235009461749e+02 
-1.094121160793e+02 1.144039558143e+00 0.0 
1.144039558143e+00 -2.755351474099e+02 0.0 
0.0 0.0 -1.150841790468e+02 
-6.342158732143e+01 1.409012475588e+01 0.0 
1.409012475588e+01 -1.435794180087e+02 0.0 
0.0 0.0 -6.170030159905e+01 
-6.020173494233e+01 1.370890903237e+01 0.0 
1.370890903237e+01 -1.301000033061e+02 0.0 
0.0 0.0 -5.669052147452e+01 
-5.542602275706e+01 1.440368484178e+01 0.0 
1.440368484178e+01 -1.242939218877e+02 0.0 
0.0 0.0 -5.351598339344e+01 
-5.202452249816e+01 1.387608183119e+01 0.0 
1.387608183119e+01 -1.099474283523e+02 0.0 
0.0 0.0 -4.819158525513e+01 
-5.680515438163e+01 1.277072424249e+01 0.0 
1.277072424249e+01 -1.164337833499e+02 0.0 
0.0 0.0 -5.157168131945e+01 
-4.723112822623e+01 1.471042369455e+01 0.0 
1.471042369455e+01 -1.044155608310e+02 0.0 
0.0 0.0 -4.509400671716e+01 
-1.014563686057e+02 5.375274377649e+00 0.0 
5.375274377649e+00 -2.622109754840e+02 0.0 
0.0 0.0 -1.087002032269e+02 
-1.068521856157e+02 2.058916352218e+00 0.0 
2.058916352218e+00 -2.399291217235e+02 0.0 
0.0 0.0 -1.036343922017e+02 
-3.978508465351e+01 -1.475748425550e+00 0.0 
-1.475748425550e+00 -1.061370769729e+02 0.0 
0.0 0.0 -4.337664848791e+01 
-3.295523288858e+01 -1.618411952586e+00 0.0 
-1.618411952586e+00 -8.662970533137e+01 0.0 
0.0 0.0 -3.547548146599e+01 
-1.274784020415e+02 1.650406671093e+00 0.0 
1.650406671093e+00 -3.137352820238e+02 0.0 
0.0 0.0 -1.319641052196e+02 
-1.011080917774e+02 8.322658446300e+00 0.0 
8.322658446300e+00 -2.597375892394e+02 0.0 
0.0 0.0 -1.078537043050e+02 
-9.622613397514e+01 1.267588644206e+01 0.0 
1.267588644206e+01 -2.150570974017e+02 0.0 
0.0 0.0 -9.298496941306e+01 
-9.969616581135e+01 1.307799867037e+01 0.0 
1.307799867037e+01 -2.271595862480e+02 0.0 
0.0 0.0 -9.765672561781e+01 
-1.040229390335e+02 1.280883255341e+01 0.0 
1.280883255341e+01 -2.345876696063e+02 0.0 
0.0 0.0 -1.011831825920e+02 
-1.075981092079e+02 1.319484882608e+01 0.0 
1.319484882608e+01 -2.465660678536e+02 0.0 
0.0 0.0 -1.058492531185e+02 
-1.118043544797e+02 1.305037281039e+01 0.0 
1.305037281039e+01 -2.541520881326e+02 0.0 
0.0 0.0 -1.093869327837e+02 
-1.154553878469e+02 1.345485098067e+01 0.0 
1.345485098067e+01 -2.659446782316e+02 0.0 
0.0 0.0 -1.140200198236e+02 
-1.112555912946e+02 1.343859490955e+01 0.0 
1.343859490955e+01 -2.585396517024e+02 0.0 
0.0 0.0 -1.105385728991e+02 
-1.195626247726e+02 1.307886752046e+01 0.0 
1.307886752046e+01 -2.879150389056e+02 0.0 
0.0 0.0 -1.218432991035e+02 
-1.192467306616e+02 1.376710879952e+01 0.0 
1.376710879952e+01 -2.777977428425e+02 0.0 
0.0 0.0 -1.187133420512e+02 
-8.760210715906e+01 6.409875808684e-01 0.0 
6.409875808684e-01 -1.926534301828e+02 0.0 
0.0 0.0 -8.367666120257e+01 
-9.749399217556e+01 1.189322171225e+01 0.0 
1.189322171225e+01 -2.426108429852e+02 0.0 
0.0 0.0 -1.016314505482e+02 
-4.428546924164e+01 -4.805707067671e-01 0.0 
-4.805707067671e-01 -1.230877169459e+02 0.0 
0.0 0.0 -4.981195585625e+01 
-2.819470504248e+01 -1.127283450405e+00 0.0 
-1.127283450405e+00 -7.340087706356e+01 0.0 
0.0 0.0 -3.007867463181e+01 
-2.839429786520e+01 -1.773884627925e+00 0.0 
-1.773884627925e+00 -7.368273321133e+01 0.0 
0.0 0.0 -3.022310932296e+01 
-3.430579636838e+01 -8.653942010841e-01 0.0 
-8.653942010841e-01 -8.991472243830e+01 0.0 
0.0 0.0 -3.686615564200e+01 
-4.164988544258e+01 -7.870163399428e-01 0.0 
-7.870163399428e-01 -1.096665189642e+02 0.0 
0.0 0.0 -4.499492132204e+01 
-1.292065581074e+02 7.339276326209e+00 0.0 
7.339276326209e+00 -3.188954669492e+02 0.0 
0.0 0.0 -1.340306075170e+02 
-1.195097536950e+02 1.342162613211e+01 0.0 
1.342162613211e+01 -2.736498811458e+02 0.0 
0.0 0.0 -1.175478904522e+02 
-1.157468848970e+02 1.285282426741e+01 0.0 
1.285282426741e+01 -2.618173727741e+02 0.0 
0.0 0.0 -1.128692773013e+02 
-4.854005258097e+01 1.263130546990e+01 0.0 
1.263130546990e+01 -9.589529326365e+01 0.0 
0.0 0.0 -4.293060375339e+01 
-5.321658952579e+01 1.119878285968e+01 0.0 
1.119878285968e+01 -1.030735739739e+02 0.0 
0.0 0.0 -4.648704904992e+01 
-1.239549868258e+02 1.290258526262e+01 0.0 
1.290258526262e+01 -2.994073296569e+02 0.0 
0.0 0.0 -1.266086949448e+02 
-8.795297911939e+01 2.846242416642e+00 0.0 
2.846242416642e+00 -1.855028300742e+02 0.0 
0.0 0.0 -8.163674275807e+01 
-8.719973428430e+01 1.698201691640e+00 0.0 
1.698201691640e+00 -1.879624899673e+02 0.0 
0.0 0.0 -8.214866727549e+01 
-8.306753912073e+01 1.247736059255e+00 0.0 
1.247736059255e+00 -1.787652638581e+02 0.0 
0.0 0.0 -7.814984089364e+01 
-2.656871274583e+01 -7.870603100399e-01 0.0 
-7.870603100399e-01 -6.865891939800e+01 0.0 
0.0 0.0 -2.816828964315e+01 
-2.621990809682e+01 -1.784562375302e+00 0.0 
-1.784562375302e+00 -6.618726052347e+01 0.0 
0.0 0.0 -2.732215058609e+01 
-1.105170015481e+02 3.271787743708e+00 0.0 
3.271787743708e+00 -2.474542319172e+02 0.0 
0.0 0.0 -1.069913700396e+02 
-3.742402816804e+01 1.185792528155e+01 0.0 
1.185792528155e+01 -1.038544753863e+02 0.0 
0.0 0.0 -4.198355106630e+01 
-3.396849745496e+01 1.306544974971e+01 0.0 
1.306544974971e+01 -9.095247861734e+01 0.0 
0.0 0.0 -3.707629282169e+01 
-2.255259254755e+01 2.819363225871e+00 0.0 
2.819363225871e+00 -6.107349638047e+01 0.0 
0.0 0.0 -2.468782667840e+01 
-2.110498438756e+01 1.070476386083e+00 0.0 
1.070476386083e+00 -5.243938542932e+01 0.0 
0.0 0.0 -2.166331094506e+01 
-9.970135195383e+01 7.114040658980e-01 0.0 
7.114040658980e-01 -2.232890689846e+02 0.0 
0.0 0.0 -9.649712628153e+01 
-1.074656227100e+02 9.065273842314e-01 0.0 
9.065273842314e-01 -2.431731122086e+02 0.0 
0.0 0.0 -1.047916204756e+02 
-8.045261876650e+01 3.317982758466e-01 0.0 
3.317982758466e-01 -2.097662232716e+02 0.0 
0.0 0.0 -8.666565261145e+01 
-8.425750270190e+01 3.983556756016e-01 0.0 
3.983556756016e-01 -2.184699404296e+02 0.0 
0.0 0.0 -9.041823293946e+01 
-1.244428541744e+02 7.722559163784e+00 0.0 
7.722559163784e+00 -3.092484792246e+02 0.0 
0.0 0.0 -1.297074000197e+02 
-3.137149403939e+01 -1.736939437752e+00 0.0 
-1.736939437752e+00 -8.251783350991e+01 0.0 
0.0 0.0 -3.376679826479e+01 
-1.112227388461e+02 1.322483574750e+00 0.0 
1.322483574750e+00 -2.526800920700e+02 0.0 
0.0 0.0 -1.087708492748e+02 
-1.055293646699e+02 7.826569715711e+00 0.0 
7.826569715711e+00 -2.698552781412e+02 0.0 
0.0 0.0 -1.122153928433e+02 
-9.670733909824e+01 7.226257061534e+00 0.0 
7.226257061534e+00 -2.512526240733e+02 0.0 
0.0 0.0 -1.039879889515e+02 
-7.200157373977e+01 -1.433923687572e-01 0.0 
-1.433923687572e-01 -1.880551500863e+02 0.0 
0.0 0.0 -7.761701714782e+01 
-2.520642911771e+01 1.063827976851e+01 0.0 
1.063827976851e+01 -6.978836876355e+01 0.0 
0.0 0.0 -2.809843936438e+01 
-2.321150877187e+01 8.514344748608e+00 0.0 
8.514344748608e+00 -6.502285659289e+01 0.0 
0.0 0.0 -2.607030960943e+01 
-4.740291368256e+01 3.334544613166e-01 0.0 
3.334544613166e-01 -1.331594076721e+02 0.0 
0.0 0.0 -5.376869640639e+01 
-3.775639079282e+01 -1.478038989871e+00 0.0 
-1.478038989871e+00 -1.019116773634e+02 0.0 
0.0 0.0 -4.150042044688e+01 
-3.751164197018e+01 -6.239521201163e-01 0.0 
-6.239521201163e-01 -9.843901408142e+01 0.0 
0.0 0.0 -4.038519681548e+01 
-1.340175507819e+02 8.370333973303e+00 0.0 
8.370333973303e+00 -3.280199544416e+02 0.0 
0.0 0.0 -1.382112515670e+02 
-1.142524057657e+02 3.925004266601e+00 0.0 
3.925004266601e+00 -2.565890765461e+02 0.0 
0.0 0.0 -1.108524446935e+02 
-1.150789892259e+02 1.362090509250e+01 0.0 
1.362090509250e+01 -2.704587164962e+02 0.0 
0.0 0.0 -1.152613117166e+02 
-1.068272287178e+02 1.337121676532e+01 0.0 
1.337121676532e+01 -2.512019159908e+02 0.0 
0.0 0.0 -1.070087434126e+02 
-1.234029920146e+02 1.398611977162e+01 0.0 
1.398611977162e+01 -2.897484343108e+02 0.0 
0.0 0.0 -1.235454278976e+02 
-2.544432289534e+01 -1.800570676649e+00 0.0 
-1.800570676649e+00 -6.314930581930e+01 0.0 
0.0 0.0 -2.617808861439e+01 
-1.340677098730e+02 6.959902393971e+00 0.0 
6.959902393971e+00 -3.285832291741e+02 0.0 
0.0 0.0 -1.383952817141e+02 
-1.225118603376e+02 1.140208584013e+00 0.0 
1.140208584013e+00 -3.032788007699e+02 0.0 
0.0 0.0 -1.273371983322e+02 
-1.229132176271e+02 1.325406743282e+01 0.0 
1.325406743282e+01 -2.806410070902e+02 0.0 
0.0 0.0 -1.206662674152e+02 
-1.195032070691e+02 1.263290402214e+01 0.0 
1.263290402214e+01 -2.697483125638e+02 0.0 
0.0 0.0 -1.163754558899e+02 
-4.108443814925e+01 1.333690065054e+01 0.0 
1.333690065054e+01 -1.084128273102e+02 0.0 
0.0 0.0 -4.444917963783e+01 
-3.780011191311e+01 1.431529173554e+01 0.0 
1.431529173554e+01 -9.507600286967e+01 0.0 
0.0 0.0 -3.946283443483e+01 
-3.064406635786e+01 1.402177950402e+01 0.0 
1.402177950402e+01 -7.721435373322e+01 0.0 
0.0 0.0 -3.195752602733e+01 
-3.438123287573e+01 1.486450431611e+01 0.0 
1.486450431611e+01 -8.071074037272e+01 0.0 
0.0 0.0 -3.412759197453e+01 
-8.137512865302e+01 5.239813887186e+00 0.0 
5.239813887186e+00 -1.651821844047e+02 0.0 
0.0 0.0 -7.356719391731e+01 
-4.541619408814e+01 1.431767896129e+01 0.0 
1.431767896129e+01 -1.131288921096e+02 0.0 
0.0 0.0 -4.716352585933e+01 
-7.796894098427e+01 7.541711876674e+00 0.0 
7.541711876674e+00 -1.569386424287e+02 0.0 
0.0 0.0 -7.007227502389e+01 
-7.383317735146e+01 6.135064690352e+00 0.0 
6.135064690352e+00 -1.463689777171e+02 0.0 
0.0 0.0 -6.566064652058e+01 
-6.996317464064e+01 6.765868274304e+00 0.0 
6.765868274304e+00 -1.372500432975e+02 0.0 
0.0 0.0 -6.176396538144e+01 
-6.135831671576e+01 1.153175642361e+01 0.0 
1.153175642361e+01 -1.234384592467e+02 0.0 
0.0 0.0 -5.503903278873e+01 
-5.763447570306e+01 9.805894290860e+00 0.0 
9.805894290860e+00 -1.109551376989e+02 0.0 
0.0 0.0 -5.017688402060e+01 
-4.840479439287e+01 1.099741504906e+01 0.0 
1.099741504906e+01 -1.335525489585e+02 0.0 
0.0 0.0 -5.418720300541e+01 
-8.447583155015e+01 1.088661297609e+01 0.0 
1.088661297609e+01 -2.170615549670e+02 0.0 
0.0 0.0 -9.006121595514e+01 
-7.659080328131e+01 2.710898670398e-01 0.0 
2.710898670398e-01 -2.011246736913e+02 0.0 
0.0 0.0 -8.291464309177e+01 
-9.714663909496e+01 1.587656928846e+00 0.0 
1.587656928846e+00 -2.497923462805e+02 0.0 
0.0 0.0 -1.036816956126e+02 
-8.873801269056e+01 3.711247332950e+00 0.0 
3.711247332950e+00 -2.342013331160e+02 0.0 
0.0 0.0 -9.648180374197e+01 
-1.105162159118e+02 2.551974342594e+00 0.0 
2.551974342594e+00 -2.488830683954e+02 0.0 
0.0 0.0 -1.074197852922e+02 
-1.144117202004e+02 2.420153076658e+00 0.0 
2.420153076658e+00 -2.598353463464e+02 0.0 
0.0 0.0 -1.118741199640e+02 
-8.314623881862e+01 9.078061393774e-01 0.0 
9.078061393774e-01 -1.805376040314e+02 0.0 
0.0 0.0 -7.870515285500e+01 
-7.925410301191e+01 6.518343561390e-01 0.0 
6.518343561390e-01 -1.714795224624e+02 0.0 
0.0 0.0 -7.482008764229e+01 
-2.906904790776e+01 -1.492780992546e+00 0.0 
-1.492780992546e+00 -7.541631279860e+01 0.0 
0.0 0.0 -3.094560821191e+01 
-2.621226743401e+01 -1.628414257838e+00 0.0 
-1.628414257838e+00 -6.705964399212e+01 0.0 
0.0 0.0 -2.758157342784e+01 
-8.482313940342e+01 1.851901802816e+00 0.0 
1.851901802816e+00 -2.235371112147e+02 0.0 
0.0 0.0 -9.210807518544e+01 
-1.290550550391e+02 5.950297907832e+00 0.0 
5.950297907832e+00 -3.187675238009e+02 0.0 
0.0 0.0 -1.339467736520e+02 
-1.142976554400e+02 4.787036211051e+00 0.0 
4.787036211051e+00 -2.551788656565e+02 0.0 
0.0 0.0 -1.104429563290e+02 
-1.180291268095e+02 5.629554341394e+00 0.0 
5.629554341394e+00 -2.647458505782e+02 0.0 
0.0 0.0 -1.144324932163e+02 
-1.146709805462e+02 5.840830567042e+00 0.0 
5.840830567042e+00 -2.544929948040e+02 0.0 
0.0 0.0 -1.103491926051e+02 
-1.291005762717e+02 8.760281755613e+00 0.0 
8.760281755613e+00 -3.180006230720e+02 0.0 
0.0 0.0 -1.337303598031e+02 
-5.236768462683e+01 7.060145720731e+00 0.0 
7.060145720731e+00 -1.489028126682e+02 0.0 
0.0 0.0 -5.998114918851e+01 
-8.822405165775e+01 8.395489351485e+00 0.0 
8.395489351485e+00 -2.310936337516e+02 0.0 
0.0 0.0 -9.539530562280e+01 
-2.355542075476e+01 4.229432356632e-01 0.0 
4.229432356632e-01 -6.143596655385e+01 0.0 
0.0 0.0 -2.509741619258e+01 
-9.065665644345e+01 1.335296181858e+01 0.0 
1.335296181858e+01 -2.131870745273e+02 0.0 
0.0 0.0 -9.075311929123e+01 
-2.234648862766e+01 -1.376554702949e+00 0.0 
-1.376554702949e+00 -5.597734994137e+01 0.0 
0.0 0.0 -2.309715157071e+01 
-1.046974437350e+02 1.047387464982e+01 0.0 
1.047387464982e+01 -2.272734397911e+02 0.0 
0.0 0.0 -9.919126505782e+01 
-1.318237173541e+02 1.298430834810e+00 0.0 
1.298430834810e+00 -3.223874343498e+02 0.0 
0.0 0.0 -1.358633455112e+02 
-1.368229827446e+02 1.856618331223e+00 0.0 
1.856618331223e+00 -3.326419167713e+02 0.0 
0.0 0.0 -1.404394698548e+02 
-1.283099778602e+02 1.360546051249e+01 0.0 
1.360546051249e+01 -3.068176293551e+02 0.0 
0.0 0.0 -1.301382821646e+02 
-6.913447762515e+01 3.182197929150e+00 0.0 
3.182197929150e+00 -1.366477722720e+02 0.0 
0.0 0.0 -6.133467496914e+01 
-9.415775303993e+01 1.316925934047e+01 0.0 
1.316925934047e+01 -2.252683227723e+02 0.0 
0.0 0.0 -9.542782274366e+01 
-8.957712175390e+01 1.285326420677e+01 0.0 
1.285326420677e+01 -2.186015120470e+02 0.0 
0.0 0.0 -9.205359014026e+01 
-6.568324554202e+01 5.236161881343e+00 0.0 
5.236161881343e+00 -1.269309088208e+02 0.0 
0.0 0.0 -5.738424630884e+01 
-6.175320765519e+01 5.868373591121e+00 0.0 
5.868373591121e+00 -1.177145224060e+02 0.0 
0.0 0.0 -5.344031901835e+01 
-6.599451699230e+01 7.548927175867e+00 0.0 
7.548927175867e+00 -1.282972370415e+02 0.0 
0.0 0.0 -5.788752621013e+01 
-5.775110325592e+01 6.704889079645e+00 0.0 
6.704889079645e+00 -1.086271178642e+02 0.0 
0.0 0.0 -4.951346633603e+01 
-5.094494769584e+01 1.835588763206e-01 0.0 
1.835588763206e-01 -1.417480022145e+02 0.0 
0.0 0.0 -5.740788497311e+01 
-4.764623297917e+01 -5.267288030792e-01 0.0 
-5.267288030792e-01 -1.314985214749e+02 0.0 
0.0 0.0 -5.334342633621e+01 
-1.277360089356e+02 1.400876006239e+01 0.0 
1.400876006239e+01 -2.945265315322e+02 0.0 
0.0 0.0 -1.262787621403e+02 
-1.271811654928e+02 1.417426882131e+01 0.0 
1.417426882131e+01 -2.968281461199e+02 0.0 
0.0 0.0 -1.268027934838e+02 
-1.266370780565e+02 1.328045647474e+01 0.0 
1.328045647474e+01 -2.889162641249e+02 0.0 
0.0 0.0 -1.242660026544e+02 
-1.234783146808e+02 1.246942956472e+01 0.0 
1.246942956472e+01 -2.784769036276e+02 0.0 
0.0 0.0 -1.201865654925e+02 
-1.329945157557e+02 1.352799991003e+01 0.0 
1.352799991003e+01 -3.182141114201e+02 0.0 
0.0 0.0 -1.349625881528e+02 
-1.283965943772e+02 1.269612795102e+01 0.0 
1.269612795102e+01 -3.104176699150e+02 0.0 
0.0 0.0 -1.312442792876e+02 
-4.460118362407e+01 -5.283213284606e-01 0.0 
-5.283213284606e-01 -1.176444985305e+02 0.0 
0.0 0.0 -4.827370464638e+01 
-4.930475180681e+01 9.046919979267e+00 0.0 
9.046919979267e+00 -9.064329426842e+01 0.0 
0.0 0.0 -4.158441382257e+01 
-1.180149749176e+02 3.753934382274e+00 0.0 
3.753934382274e+00 -2.672949658870e+02 0.0 
0.0 0.0 -1.151929822414e+02 
-6.952669353086e+01 4.734812474566e+00 0.0 
4.734812474566e+00 -1.362238005678e+02 0.0 
0.0 0.0 -6.132514822959e+01 
-1.386328807575e+02 6.537569451572e+00 0.0 
6.537569451572e+00 -3.373470985702e+02 0.0 
0.0 0.0 -1.423939937983e+02 
-1.337626492643e+02 5.590209621901e+00 0.0 
5.590209621901e+00 -3.279437757262e+02 0.0 
0.0 0.0 -1.381119274971e+02 
-1.986781338435e+01 -1.019773283309e-01 0.0 
-1.019773283309e-01 -4.312718156099e+01 0.0 
0.0 0.0 -1.849849848360e+01 
-2.168861652769e+01 -7.092097743681e-01 0.0 
-7.092097743681e-01 -5.119387553831e+01 0.0 
0.0 0.0 -2.146474761980e+01 
-1.152440453451e+02 1.118873317954e+00 0.0 
1.118873317954e+00 -2.634005757194e+02 0.0 
0.0 0.0 -1.131933863193e+02 
-2.738354409114e+01 1.445367099488e+01 0.0 
1.445367099488e+01 -6.226279004646e+01 0.0 
0.0 0.0 -2.649390024128e+01 
-3.076178015259e+01 1.471269022392e+01 0.0 
1.471269022392e+01 -6.468923319464e+01 0.0 
0.0 0.0 -2.823530400417e+01 
-2.458783914313e+01 1.338490400270e+01 0.0 
1.338490400270e+01 -5.971349367181e+01 0.0 
0.0 0.0 -2.489039984448e+01 
-1.515410179047e+02 5.100283112637e-01 0.0 
5.100283112637e-01 -3.612886597402e+02 0.0 
0.0 0.0 -1.534489032935e+02 
-6.257686050713e+01 3.937390226024e-02 0.0 
3.937390226024e-02 -1.334417340069e+02 0.0 
0.0 0.0 -5.840557835420e+01 
-1.413882983793e+02 1.439454418529e+00 0.0 
1.439454418529e+00 -3.414177581103e+02 0.0 
0.0 0.0 -1.444418169469e+02 
-6.577172503088e+01 1.029334415049e+01 0.0 
1.029334415049e+01 -1.312631851576e+02 0.0 
0.0 0.0 -5.871047305654e+01 
-1.190592167029e+02 1.514156327332e+00 0.0 
1.514156327332e+00 -2.729993524835e+02 0.0 
0.0 0.0 -1.172175707559e+02 
-9.789976355532e+01 1.286754449148e+01 0.0 
1.286754449148e+01 -2.373041658251e+02 0.0 
0.0 0.0 -1.001611788141e+02 
-5.844528709249e+01 1.433751903784e+01 0.0 
1.433751903784e+01 -1.375970653218e+02 0.0 
0.0 0.0 -5.841270572428e+01 
-1.196342211804e+02 8.113938175773e+00 0.0 
8.113938175773e+00 -2.992774321236e+02 0.0 
0.0 0.0 -1.252734959912e+02 
-1.111008004230e+02 8.026608722374e-01 0.0 
8.026608722374e-01 -2.527542602295e+02 0.0 
0.0 0.0 -1.087565181957e+02 
-1.193098094477e+02 8.308202620582e-01 0.0 
8.308202620582e-01 -2.745771245943e+02 0.0 
0.0 0.0 -1.177660802126e+02 
-7.911210145721e+01 1.154010996988e+00 0.0 
1.154010996988e+00 -1.681944687763e+02 0.0 
0.0 0.0 -7.379197107006e+01 
-7.460202699323e+01 8.870345592750e-01 0.0 
8.870345592750e-01 -1.584774079213e+02 0.0 
0.0 0.0 -6.952383047437e+01 
-8.301118092872e+01 1.621507067829e+00 0.0 
1.621507067829e+00 -1.768424805744e+02 0.0 
0.0 0.0 -7.755609845093e+01 
-2.413222889370e+01 4.853472865148e+00 0.0 
4.853472865148e+00 -6.884680224987e+01 0.0 
0.0 0.0 -2.749370934307e+01 
-1.961071854706e+01 4.200036425697e+00 0.0 
4.200036425697e+00 -4.965686167661e+01 0.0 
0.0 0.0 -2.038027406710e+01 
-1.107308583378e+02 1.915701174828e+00 0.0 
1.915701174828e+00 -2.506922956661e+02 0.0 
0.0 0.0 -1.080269462012e+02 
-5.310082125098e+01 -6.695449328477e-01 0.0 
-6.695449328477e-01 -1.405635811034e+02 0.0 
0.0 0.0 -5.769932070631e+01 
-5.718161793199e+01 -5.222392026101e-01 0.0 
-5.222392026101e-01 -1.512072686419e+02 0.0 
0.0 0.0 -6.211666597217e+01 
-3.409048829461e+01 -1.682664921701e+00 0.0 
-1.682664921701e+00 -9.046281698006e+01 0.0 
0.0 0.0 -3.696599158240e+01 
-4.067960665964e+01 -1.412408656209e+00 0.0 
-1.412408656209e+00 -1.097647326514e+02 0.0 
0.0 0.0 -4.473330179331e+01 
-8.464132446632e+01 6.851616575153e-01 0.0 
6.851616575153e-01 -2.203703755623e+02 0.0 
0.0 0.0 -9.110351000858e+01 
-8.071573520471e+01 6.727281063944e-01 0.0 
6.727281063944e-01 -2.117254970283e+02 0.0 
0.0 0.0 -8.733236966992e+01 
-1.084181014264e+02 1.139114811927e+01 0.0 
1.139114811927e+01 -2.386818668313e+02 0.0 
0.0 0.0 -1.037299904773e+02 
-1.121092582849e+02 1.100782277454e+01 0.0 
1.100782277454e+01 -2.470578718687e+02 0.0 
0.0 0.0 -1.073501390461e+02 
-1.004632405722e+02 1.224377690893e+01 0.0 
1.224377690893e+01 -2.226134961724e+02 0.0 
0.0 0.0 -9.652302102339e+01 
-1.011378914646e+02 6.761444759623e+00 0.0 
6.761444759623e+00 -2.611785810051e+02 0.0 
0.0 0.0 -1.082949417409e+02 
-9.244519072444e+01 6.127382085809e+00 0.0 
6.127382085809e+00 -2.425747985575e+02 0.0 
0.0 0.0 -1.001059967846e+02 
-8.817644086123e+01 6.633878609564e+00 0.0 
6.633878609564e+00 -2.328478714881e+02 0.0 
0.0 0.0 -9.590729370479e+01 
-1.177042760097e+02 2.943339194747e+00 0.0 
2.943339194747e+00 -2.683221958535e+02 0.0 
0.0 0.0 -1.154079415590e+02 
-1.224469530563e+02 2.712600924379e+00 0.0 
2.712600924379e+00 -2.815054369565e+02 0.0 
0.0 0.0 -1.207857170039e+02 
-5.417121496211e+01 1.094411214349e+00 0.0 
1.094411214349e+00 -1.515396472948e+02 0.0 
0.0 0.0 -6.131325867708e+01 
-5.048218959035e+01 1.370371957992e+00 0.0 
1.370371957992e+00 -1.427847245570e+02 0.0 
0.0 0.0 -5.758007424419e+01 
-5.442790040886e+01 8.582075567022e-02 0.0 
8.582075567022e-02 -1.500343776677e+02 0.0 
0.0 0.0 -6.093868342298e+01 
-1.215805388277e+02 4.414364736255e+00 0.0 
4.414364736255e+00 -2.764939448237e+02 0.0 
0.0 0.0 -1.190223450954e+02 
-1.462477356119e+02 1.994795856799e+00 0.0 
1.994795856799e+00 -3.513125618518e+02 0.0 
0.0 0.0 -1.488680892391e+02 
-1.418104390498e+02 2.514868219471e+00 0.0 
2.514868219471e+00 -3.427434929133e+02 0.0 
0.0 0.0 -1.449661795889e+02 
-1.981446331083e+01 -1.391608153233e+00 0.0 
-1.391608153233e+00 -4.781548223703e+01 0.0 
0.0 0.0 -1.988898366436e+01 
-2.337328835082e+01 -1.631933899003e+00 0.0 
-1.631933899003e+00 -5.853339418547e+01 0.0 
0.0 0.0 -2.417200476089e+01 
-2.084784006576e+01 9.965491587066e+00 0.0 
9.965491587066e+00 -5.327131115502e+01 0.0 
0.0 0.0 -2.183574536623e+01 
-1.950332962382e+01 7.915088552839e+00 0.0 
7.915088552839e+00 -4.905890129295e+01 0.0 
0.0 0.0 -2.016866927503e+01 
-1.214573147413e+02 6.486732901497e+00 0.0 
6.486732901497e+00 -2.739201751321e+02 0.0 
0.0 0.0 -1.182132469620e+02 
-1.184792939885e+02 6.766177716678e+00 0.0 
6.766177716678e+00 -2.644082172331e+02 0.0 
0.0 0.0 -1.144662533665e+02 
-1.254728742809e+02 6.262369892622e+00 0.0 
6.262369892622e+00 -2.859175023772e+02 0.0 
0.0 0.0 -1.230171129974e+02 
-4.004773102909e+01 -4.596844810967e-01 0.0 
-4.596844810967e-01 -1.051772258843e+02 0.0 
0.0 0.0 -4.316748707403e+01 
-1.107403272531e+02 1.330499849122e+01 0.0 
1.330499849122e+01 -2.632653314586e+02 0.0 
0.0 0.0 -1.118016976135e+02 
-1.384078086923e+02 9.449431705669e+00 0.0 
9.449431705669e+00 -3.358712323437e+02 0.0 
0.0 0.0 -1.418837123108e+02 
-1.333556488812e+02 9.822436547856e+00 0.0 
9.822436547856e+00 -3.258974268330e+02 0.0 
0.0 0.0 -1.373759227142e+02 
-1.446697480166e+02 9.164961898632e+00 0.0 
9.164961898632e+00 -3.482086574387e+02 0.0 
0.0 0.0 -1.474635216366e+02 
-1.238153580179e+02 1.368110173524e+01 0.0 
1.368110173524e+01 -2.950218389578e+02 0.0 
0.0 0.0 -1.252511590927e+02 
-1.321336294917e+02 1.420886425505e+01 0.0 
1.420886425505e+01 -3.135882092440e+02 0.0 
0.0 0.0 -1.333165516207e+02 
-1.315234398619e+02 1.445914598687e+01 0.0 
1.445914598687e+01 -3.086608210543e+02 0.0 
0.0 0.0 -1.316552782748e+02 
-1.778529026602e+01 4.812559862891e-01 0.0 
4.812559862891e-01 -3.478001094540e+01 0.0 
0.0 0.0 -1.536959036343e+01 
-1.166433752349e+02 6.274876972348e-01 0.0 
6.274876972348e-01 -2.676016815950e+02 0.0 
0.0 0.0 -1.148735170490e+02 
-7.458486643234e+01 5.944591864775e-01 0.0 
5.944591864775e-01 -1.598531416739e+02 0.0 
0.0 0.0 -6.993140243187e+01 
-1.759836997735e+01 -1.992684453828e-01 0.0 
-1.992684453828e-01 -2.759391046326e+01 0.0 
0.0 0.0 -1.329807492313e+01 
-7.070875720736e+01 3.759725819424e-01 0.0 
3.759725819424e-01 -1.509816170822e+02 0.0 
0.0 0.0 -6.610711228687e+01 
-7.519269791461e+01 4.400630315263e-01 0.0 
4.400630315263e-01 -1.623022829681e+02 0.0 
0.0 0.0 -7.084849426481e+01 
-6.623023800870e+01 2.236086256428e-01 0.0 
2.236086256428e-01 -1.409074757268e+02 0.0 
0.0 0.0 -6.174131412066e+01 
-3.282491393988e+01 -4.713712737909e-01 0.0 
-4.713712737909e-01 -8.583777936342e+01 0.0 
0.0 0.0 -3.519880799099e+01 
-7.354208868260e+01 1.078619608431e+00 0.0 
1.078619608431e+00 -1.541245262316e+02 0.0 
0.0 0.0 -6.789998447425e+01 
-7.904280514813e+01 1.657819218827e+00 0.0 
1.657819218827e+00 -1.662118295288e+02 0.0 
0.0 0.0 -7.317639040309e+01 
-1.632136602403e+01 -1.371308907642e+00 0.0 
-1.371308907642e+00 -3.614321774643e+01 0.0 
0.0 0.0 -1.544998838991e+01 
-1.249702532470e+02 4.082335838686e+00 0.0 
4.082335838686e+00 -2.868103640375e+02 0.0 
0.0 0.0 -1.231341851853e+02 
-1.594377850850e+01 -1.087601582688e+00 0.0 
-1.087601582688e+00 -3.760246900274e+01 0.0 
0.0 0.0 -1.566244339623e+01 
-1.859792948245e+01 -1.028421457973e+00 0.0 
-1.028421457973e+00 -4.550602043899e+01 0.0 
0.0 0.0 -1.883118497643e+01 
-1.435214326392e+02 6.091346724689e+00 0.0 
6.091346724689e+00 -3.466538258728e+02 0.0 
0.0 0.0 -1.466525775536e+02 
-1.384123339177e+02 5.207153621623e+00 0.0 
5.207153621623e+00 -3.368541007382e+02 0.0 
0.0 0.0 -1.421799303968e+02 
-1.478594123814e+02 5.694039426277e+00 0.0 
5.694039426277e+00 -3.549536855138e+02 0.0 
0.0 0.0 -1.504439293686e+02 
-1.427174189780e+02 4.758018474081e+00 0.0 
4.758018474081e+00 -3.450042815717e+02 0.0 
0.0 0.0 -1.459165101649e+02 
-1.334214958058e+02 4.382905522466e+00 0.0 
4.382905522466e+00 -3.268978300726e+02 0.0 
0.0 0.0 -1.376957977635e+02 
-1.381256330256e+02 3.997248871571e+00 0.0 
3.997248871571e+00 -3.359731442091e+02 0.0 
0.0 0.0 -1.418296331704e+02 
-7.013286704004e+01 5.727868797814e-01 0.0 
5.727868797814e-01 -1.487253306865e+02 0.0 
0.0 0.0 -6.525745931796e+01 
-1.488799212775e+02 4.457077205161e+00 0.0 
4.457077205161e+00 -3.565961060476e+02 0.0 
0.0 0.0 -1.512428081975e+02 
-1.430138863958e+02 3.584380416186e+00 0.0 
3.584380416186e+00 -3.451965661536e+02 0.0 
0.0 0.0 -1.460631357648e+02 
-1.535759700570e+02 3.964903782149e+00 0.0 
3.964903782149e+00 -3.658940690489e+02 0.0 
0.0 0.0 -1.554410117318e+02 
-5.335723222508e+01 4.805638115906e+00 0.0 
4.805638115906e+00 -9.855771669877e+01 0.0 
0.0 0.0 -4.517448467715e+01 
-3.871168615742e+01 1.493834741250e+01 0.0 
1.493834741250e+01 -8.425969168322e+01 0.0 
0.0 0.0 -3.649141335219e+01 
-3.514399762133e+01 1.382277350541e+01 0.0 
1.382277350541e+01 -6.834747737307e+01 0.0 
0.0 0.0 -3.064744249832e+01 
-2.651710663281e+01 1.269726373313e+01 0.0 
1.269726373313e+01 -4.665940771952e+01 0.0 
0.0 0.0 -2.155295430570e+01 
-1.312972977215e+02 1.326375665187e+01 0.0 
1.326375665187e+01 -3.004907460900e+02 0.0 
0.0 0.0 -1.291364131434e+02 
-1.263371770557e+02 1.213582905719e+01 0.0 
1.213582905719e+01 -2.858704000180e+02 0.0 
0.0 0.0 -1.232622731221e+02 
-1.270092813679e+02 8.094254381081e-01 0.0 
8.094254381081e-01 -3.124356626865e+02 0.0 
0.0 0.0 -1.314334832163e+02 
-1.178035723589e+02 6.675330202891e-01 0.0 
6.675330202891e-01 -2.931551059563e+02 0.0 
0.0 0.0 -1.228876034946e+02 
-7.065332827766e+01 2.157238059976e-01 0.0 
2.157238059976e-01 -1.520816842287e+02 0.0 
0.0 0.0 -6.642050375190e+01 
-7.007972239274e+01 2.005427281350e-01 0.0 
2.005427281350e-01 -1.510398329034e+02 0.0 
0.0 0.0 -6.593586658884e+01 
-7.754063251466e+01 1.917512160891e-01 0.0 
1.917512160891e-01 -1.688802277494e+02 0.0 
0.0 0.0 -7.352625807920e+01 
-7.641227992556e+01 2.469410400938e-01 0.0 
2.469410400938e-01 -1.664729215606e+02 0.0 
0.0 0.0 -7.246556044586e+01 
-8.381869019866e+01 2.435278990381e-01 0.0 
2.435278990381e-01 -1.844305234622e+02 0.0 
0.0 0.0 -8.007476409826e+01 
-8.269828676799e+01 2.867184945592e-01 0.0 
2.867184945592e-01 -1.816969212899e+02 0.0 
0.0 0.0 -7.891856241735e+01 
-9.020504715936e+01 5.044234882745e-01 0.0 
5.044234882745e-01 -2.000337207405e+02 0.0 
0.0 0.0 -8.667163036996e+01 
-1.353045771036e+02 1.484398698575e+01 0.0 
1.484398698575e+01 -3.161590567090e+02 0.0 
0.0 0.0 -1.350390901438e+02 
-2.155812407495e+01 1.356456577836e+01 0.0 
1.356456577836e+01 -4.415953978127e+01 0.0 
0.0 0.0 -1.931529915687e+01 
-6.127641937733e+01 3.786930223217e+00 0.0 
3.786930223217e+00 -1.172320713251e+02 0.0 
0.0 0.0 -5.315254721073e+01 
-1.374892087583e+02 1.339780054778e+01 0.0 
1.339780054778e+01 -3.290128465352e+02 0.0 
0.0 0.0 -1.395506165880e+02 
-1.322087985427e+02 1.240338872794e+01 0.0 
1.240338872794e+01 -3.197974665706e+02 0.0 
0.0 0.0 -1.352018795340e+02 
-5.350171564966e+01 7.759540691716e+00 0.0 
7.759540691716e+00 -9.927217315732e+01 0.0 
0.0 0.0 -4.543216664209e+01 
-4.489097123873e+01 6.538373071051e+00 0.0 
6.538373071051e+00 -7.954184640178e+01 0.0 
0.0 0.0 -3.692984529215e+01 
-1.450235877539e+02 7.554919112170e+00 0.0 
7.554919112170e+00 -3.495309290647e+02 0.0 
0.0 0.0 -1.479663550456e+02 
-4.873340344392e+01 1.342605036103e+01 0.0 
1.342605036103e+01 -1.262436781377e+02 0.0 
0.0 0.0 -5.209312447450e+01 
-1.292329169121e+02 4.887043298382e+00 0.0 
4.887043298382e+00 -2.987165132173e+02 0.0 
0.0 0.0 -1.279848290388e+02 
-1.456877217856e+01 3.019249650745e+00 0.0 
3.019249650745e+00 -1.375574705768e+01 0.0 
0.0 0.0 -8.459061349972e+00 
-1.673557581288e+01 2.934027589759e+00 0.0 
2.934027589759e+00 -3.033191827625e+01 0.0 
0.0 0.0 -1.383254288157e+01 
-5.336494925436e+01 1.414314331825e+01 0.0 
1.414314331825e+01 -1.315592632768e+02 0.0 
0.0 0.0 -5.507726375935e+01 
-6.191949441124e+01 8.565665435203e+00 0.0 
8.565665435203e+00 -1.195228524379e+02 0.0 
0.0 0.0 -5.403270405475e+01 
-4.356693474442e+01 1.397123956648e+01 0.0 
1.397123956648e+01 -8.910230747877e+01 0.0 
0.0 0.0 -3.940077266696e+01 
-4.040701294935e+01 1.243716318550e+01 0.0 
1.243716318550e+01 -7.545225109629e+01 0.0 
0.0 0.0 -3.435777921369e+01 
-1.101877543643e+02 7.416530756312e+00 0.0 
7.416530756312e+00 -2.800993856440e+02 0.0 
0.0 0.0 -1.166861420025e+02 
-2.126905322936e+01 -1.709911217739e+00 0.0 
-1.709911217739e+00 -5.086966435116e+01 0.0 
0.0 0.0 -2.124161527416e+01 
-2.256196441300e+01 1.187339714566e+01 0.0 
1.187339714566e+01 -5.692148429381e+01 0.0 
0.0 0.0 -2.344503461204e+01 
-9.130903546370e+01 4.711085427053e-01 0.0 
4.711085427053e-01 -2.022857370861e+02 0.0 
0.0 0.0 -8.767843176495e+01 
-1.901212761499e+01 1.124157355952e+01 0.0 
1.124157355952e+01 -4.021000601254e+01 0.0 
0.0 0.0 -1.736664008826e+01 
-1.227147144971e+02 3.620766960792e-01 0.0 
3.620766960792e-01 -3.033374721503e+02 0.0 
0.0 0.0 -1.274156559942e+02 
-5.245502607515e+01 1.239005210625e+01 0.0 
1.239005210625e+01 -1.392058261645e+02 0.0 
0.0 0.0 -5.709825567190e+01 
-6.935083243822e+01 1.170906800698e+01 0.0 
1.170906800698e+01 -1.435962548589e+02 0.0 
0.0 0.0 -6.348412618914e+01 
-2.760491684341e+01 1.254130852814e+01 0.0 
1.254130852814e+01 -7.375200381145e+01 0.0 
0.0 0.0 -3.000707619646e+01 
-4.236912811802e+01 1.493094795061e+01 0.0 
1.493094795061e+01 -9.962850080440e+01 0.0 
0.0 0.0 -4.219928867673e+01 
-8.555460249142e+01 6.441956803419e+00 0.0 
6.441956803419e+00 -1.752703488484e+02 0.0 
0.0 0.0 -7.784748540196e+01 
-7.710681268491e+01 4.121186430093e+00 0.0 
4.121186430093e+00 -1.554978828191e+02 0.0 
0.0 0.0 -6.938140865122e+01 
-7.336829245598e+01 4.348296025848e+00 0.0 
4.348296025848e+00 -1.459188552591e+02 0.0 
0.0 0.0 -6.538614431452e+01 
-5.618602434234e+01 1.126809562703e+01 0.0 
1.126809562703e+01 -1.513644619662e+02 0.0 
0.0 0.0 -6.186514589255e+01 
-4.484151965648e+01 1.058746830886e+01 0.0 
1.058746830886e+01 -8.232460626673e+01 0.0 
0.0 0.0 -3.774983777696e+01 
-3.506844476829e+01 9.215627425818e+00 0.0 
9.215627425818e+00 -5.926891190150e+01 0.0 
0.0 0.0 -2.790120700094e+01 
-8.189744037929e+01 8.903793175421e+00 0.0 
8.903793175421e+00 -1.679550907278e+02 0.0 
0.0 0.0 -7.455575933213e+01 
-1.112793839460e+02 5.991445613797e+00 0.0 
5.991445613797e+00 -2.443804142473e+02 0.0 
0.0 0.0 -1.062979394580e+02 
-1.150368697611e+02 6.931225362024e+00 0.0 
6.931225362024e+00 -2.542062102741e+02 0.0 
0.0 0.0 -1.103729240106e+02 
-1.218585327388e+02 7.696659891215e+00 0.0 
7.696659891215e+00 -2.735926394514e+02 0.0 
0.0 0.0 -1.182353516571e+02 
-1.187872021097e+02 7.937832140673e+00 0.0 
7.937832140673e+00 -2.642120802677e+02 0.0 
0.0 0.0 -1.144997847132e+02 
-1.117289976251e+02 7.173814217001e+00 0.0 
7.173814217001e+00 -2.443537436636e+02 0.0 
0.0 0.0 -1.064248223866e+02 
-1.155550222622e+02 8.229464435590e+00 0.0 
8.229464435590e+00 -2.544780783350e+02 0.0 
0.0 0.0 -1.106099301792e+02 
-1.223650087843e+02 8.909376963300e+00 0.0 
8.909376963300e+00 -2.743168350817e+02 0.0 
0.0 0.0 -1.186045531598e+02 
-1.195746255513e+02 9.265675471230e+00 0.0 
9.265675471230e+00 -2.654371136168e+02 0.0 
0.0 0.0 -1.151035217505e+02 
-1.274362128518e+02 1.021765224641e+01 0.0 
1.021765224641e+01 -2.887017524116e+02 0.0 
0.0 0.0 -1.244413895790e+02 
-1.231371002978e+02 1.038970873859e+01 0.0 
1.038970873859e+01 -2.759253418902e+02 0.0 
0.0 0.0 -1.193187326564e+02 
-1.158434533807e+02 9.501504090057e+00 0.0 
9.501504090057e+00 -2.552525078827e+02 0.0 
0.0 0.0 -1.109287883790e+02 
-1.192691826593e+02 1.048819550291e+01 0.0 
1.048819550291e+01 -2.654522316172e+02 0.0 
0.0 0.0 -1.150164242830e+02 
-1.260414318197e+02 1.131816832483e+01 0.0 
1.131816832483e+01 -2.845938087717e+02 0.0 
0.0 0.0 -1.227905721774e+02 
-1.121235805309e+02 9.779120558042e+00 0.0 
9.779120558042e+00 -2.453265379590e+02 0.0 
0.0 0.0 -1.068350355470e+02 
-1.418787147940e+02 1.424409996071e+01 0.0 
1.424409996071e+01 -3.365759919376e+02 0.0 
0.0 0.0 -1.431364120195e+02 
-6.162311237143e+01 1.388775091338e+01 0.0 
1.388775091338e+01 -1.505119800010e+02 0.0 
0.0 0.0 -6.324052771172e+01 
-1.913500795130e+01 1.929816531770e+00 0.0 
1.929816531770e+00 -4.330592072115e+01 0.0 
0.0 0.0 -1.833227860173e+01 
-1.733016092978e+01 4.964530677317e+00 0.0 
4.964530677317e+00 -3.711191482821e+01 0.0 
0.0 0.0 -1.593262272740e+01 
-7.370303236262e+01 1.065539619411e+01 0.0 
1.065539619411e+01 -1.513640957736e+02 0.0 
0.0 0.0 -6.712013844088e+01 
-1.334790966250e+02 1.051101120443e+01 0.0 
1.051101120443e+01 -3.078580426407e+02 0.0 
0.0 0.0 -1.320011417797e+02 
-1.323088288883e+02 8.651123778171e+00 0.0 
8.651123778171e+00 -3.051496423473e+02 0.0 
0.0 0.0 -1.308375413707e+02 
-4.104078052444e+01 1.057895369712e+01 0.0 
1.057895369712e+01 -1.160486904189e+02 0.0 
0.0 0.0 -4.672684128300e+01 
-1.385268179025e+02 1.447307545138e+01 0.0 
1.447307545138e+01 -3.211739158402e+02 0.0 
0.0 0.0 -1.375102201228e+02 
-7.764030964499e+01 5.622133365555e+00 0.0 
5.622133365555e+00 -1.557148996162e+02 0.0 
0.0 0.0 -6.960656277835e+01 
-2.914247021466e+01 5.761786104801e+00 0.0 
5.761786104801e+00 -8.628308555167e+01 0.0 
0.0 0.0 -3.422766672990e+01 
-1.407965145267e+02 1.547285213541e+01 0.0 
1.547285213541e+01 -3.279197991793e+02 0.0 
0.0 0.0 -1.402148941118e+02 
-1.078533628141e+02 6.163578863201e+00 0.0 
6.163578863201e+00 -2.342970886058e+02 0.0 
0.0 0.0 -1.022451354260e+02 
-1.042953755373e+02 6.376494303511e+00 0.0 
6.376494303511e+00 -2.241478127876e+02 0.0 
0.0 0.0 -9.813295649747e+01 
-1.003238175592e+02 5.379287490399e+00 0.0 
5.379287490399e+00 -2.142787763191e+02 0.0 
0.0 0.0 -9.398077816350e+01 
-1.316634705396e+02 7.182026953618e+00 0.0 
7.182026953618e+00 -3.040606064072e+02 0.0 
0.0 0.0 -1.303172230840e+02 
-8.723619865741e+01 2.181844656635e+00 0.0 
2.181844656635e+00 -1.862494186064e+02 0.0 
0.0 0.0 -8.164568517915e+01 
-1.456170823370e+02 1.568592764366e+01 0.0 
1.568592764366e+01 -3.422799019902e+02 0.0 
0.0 0.0 -1.459690952982e+02 
-9.299167011327e+01 1.111830851407e+01 0.0 
1.111830851407e+01 -2.355367933986e+02 0.0 
0.0 0.0 -9.815853905356e+01 
-8.893946963807e+01 1.173555770230e+01 0.0 
1.173555770230e+01 -2.239407435444e+02 0.0 
0.0 0.0 -9.346406395473e+01 
-8.052851520504e+01 1.162130039533e+01 0.0 
1.162130039533e+01 -2.055063266061e+02 0.0 
0.0 0.0 -8.541045254334e+01 
-1.120824112189e+02 8.464961586506e+00 0.0 
8.464961586506e+00 -2.446182273645e+02 0.0 
0.0 0.0 -1.066101915750e+02 
-1.494492485107e+02 1.350812450301e+01 0.0 
1.350812450301e+01 -3.540995750895e+02 0.0 
0.0 0.0 -1.506646470801e+02 
-1.419295390259e+02 1.239395518661e+01 0.0 
1.239395518661e+01 -3.403456294085e+02 0.0 
0.0 0.0 -1.442825505303e+02 
-1.428464213210e+02 1.172520462662e+01 0.0 
1.172520462662e+01 -3.428071319265e+02 0.0 
0.0 0.0 -1.452960659743e+02 
-1.336575523834e+02 1.130706075710e+01 0.0 
1.130706075710e+01 -3.249439493047e+02 0.0 
0.0 0.0 -1.371804505064e+02 
-1.515634306685e+02 1.197655326135e+01 0.0 
1.197655326135e+01 -3.594873585893e+02 0.0 
0.0 0.0 -1.529152367773e+02 
-1.358808847442e+02 1.230117617042e+01 0.0 
1.230117617042e+01 -3.139347447051e+02 0.0 
0.0 0.0 -1.345446888348e+02 
-1.369080725945e+02 1.313996642524e+01 0.0 
1.313996642524e+01 -3.168830590659e+02 0.0 
0.0 0.0 -1.357373394981e+02 
-4.385958769078e+01 5.714509044215e-01 0.0 
5.714509044215e-01 -1.244171122581e+02 0.0 
0.0 0.0 -5.008300998465e+01 
-4.682533777676e+01 1.770657791789e+00 0.0 
1.770657791789e+00 -1.339349669574e+02 0.0 
0.0 0.0 -5.382809142026e+01 
-5.363177091270e+01 2.596872198088e+00 0.0 
2.596872198088e+00 -1.519834739928e+02 0.0 
0.0 0.0 -6.128457347164e+01 
-4.984466024304e+01 3.131265593328e+00 0.0 
3.131265593328e+00 -1.428337745166e+02 0.0 
0.0 0.0 -5.740353042790e+01 
-4.314174400981e+01 2.280020299696e+00 0.0 
2.280020299696e+00 -1.247620754841e+02 0.0 
0.0 0.0 -4.997114584818e+01 
-4.604705170558e+01 3.768798786632e+00 0.0 
3.768798786632e+00 -1.333988295571e+02 0.0 
0.0 0.0 -5.343376437880e+01 
-5.297267326823e+01 4.607686264381e+00 0.0 
4.607686264381e+00 -1.511870870031e+02 0.0 
0.0 0.0 -6.084792808140e+01 
-4.225121153943e+01 4.550757857382e+00 0.0 
4.550757857382e+00 -1.236913283271e+02 0.0 
0.0 0.0 -4.938276195995e+01 
-1.194769444489e+02 1.159028569645e+01 0.0 
1.159028569645e+01 -2.668331504513e+02 0.0 
0.0 0.0 -1.154930284701e+02 
-1.535678643229e+02 1.026302103640e+01 0.0 
1.026302103640e+01 -3.643390468050e+02 0.0 
0.0 0.0 -1.549720733384e+02 
-9.724994343867e+01 4.393152167301e+00 0.0 
4.393152167301e+00 -2.529932941261e+02 0.0 
0.0 0.0 -1.046729712694e+02 
-9.277408686531e+01 4.695857539553e+00 0.0 
4.695857539553e+00 -2.434288758702e+02 0.0 
0.0 0.0 -1.004608888207e+02 
-8.441250759492e+01 3.997452423973e+00 0.0 
3.997452423973e+00 -2.248119476025e+02 0.0 
0.0 0.0 -9.236733655921e+01 
-7.278432239847e+01 2.205632809552e-01 0.0 
2.205632809552e-01 -1.924753534409e+02 0.0 
0.0 0.0 -7.917790275181e+01 
-7.679656368643e+01 6.537488058928e-01 0.0 
6.537488058928e-01 -2.030147702295e+02 0.0 
0.0 0.0 -8.354340017478e+01 
-8.483311150846e+01 1.169490119178e+00 0.0 
1.169490119178e+00 -2.221594112265e+02 0.0 
0.0 0.0 -9.169775682050e+01 
-6.874337773304e+01 -9.865752096649e-02 0.0 
-9.865752096649e-02 -1.817751178476e+02 0.0 
0.0 0.0 -7.475554867420e+01 
-1.032049929003e+02 1.329105398168e+01 0.0 
1.329105398168e+01 -2.392139753268e+02 0.0 
0.0 0.0 -1.023256904681e+02 
-1.542549268861e+02 9.477397585375e+00 0.0 
9.477397585375e+00 -3.659073580206e+02 0.0 
0.0 0.0 -1.556486854720e+02 
-9.242665499167e+01 7.775954890297e+00 0.0 
7.775954890297e+00 -2.412802693744e+02 0.0 
0.0 0.0 -9.971207730981e+01 
-7.287518059257e+01 6.303901115913e-01 0.0 
6.303901115913e-01 -1.942376169040e+02 0.0 
0.0 0.0 -7.973383924897e+01 
-6.643929824582e+01 1.081692650494e+00 0.0 
1.081692650494e+00 -1.353660344383e+02 0.0 
0.0 0.0 -6.014159980525e+01 
-7.431234412625e+01 1.763855618654e+00 0.0 
1.763855618654e+00 -1.528306434816e+02 0.0 
0.0 0.0 -6.774289628235e+01 
-7.520818484341e+01 2.344045912726e+00 0.0 
2.344045912726e+00 -1.535751908978e+02 0.0 
0.0 0.0 -6.823501272238e+01 
-8.290134287149e+01 2.836086137806e+00 0.0 
2.836086137806e+00 -1.721576679943e+02 0.0 
0.0 0.0 -7.611770325974e+01 
-7.446819550229e+01 1.634699631745e+00 0.0 
1.634699631745e+00 -1.542717246295e+02 0.0 
0.0 0.0 -6.822197603954e+01 
-8.853922924513e+01 6.841848446582e-01 0.0 
6.841848446582e-01 -2.290025686421e+02 0.0 
0.0 0.0 -9.486253936617e+01 
-9.242199582450e+01 6.474681141356e-01 0.0 
6.474681141356e-01 -2.375890583221e+02 0.0 
0.0 0.0 -9.860331624397e+01 
-8.808257675288e+01 3.501764096280e-01 0.0 
3.501764096280e-01 -2.271270220480e+02 0.0 
0.0 0.0 -9.416287964027e+01 
-9.632291615883e+01 5.734171039760e-01 0.0 
5.734171039760e-01 -2.461180668668e+02 0.0 
0.0 0.0 -1.023322949077e+02 
-9.172929236890e+01 3.458946918244e-01 0.0 
3.458946918244e-01 -2.352173237362e+02 0.0 
0.0 0.0 -9.768398483154e+01 
-8.422761754722e+01 2.095159632823e-01 0.0 
2.095159632823e-01 -2.175421575574e+02 0.0 
0.0 0.0 -9.013093253138e+01 
-1.000941870248e+02 4.691277695424e-01 0.0 
4.691277695424e-01 -2.542536282970e+02 0.0 
0.0 0.0 -1.059043445965e+02 
-9.476595931183e+01 1.737390278030e-01 0.0 
1.737390278030e-01 -2.420457864243e+02 0.0 
0.0 0.0 -1.006435237208e+02 
-6.535095998930e+01 6.709127678798e-01 0.0 
6.709127678798e-01 -1.347356832968e+02 0.0 
0.0 0.0 -5.962599298582e+01 
-1.511420514934e+01 -9.034808785895e-01 0.0 
-9.034808785895e-01 -1.718673576567e+01 0.0 
0.0 0.0 -9.680142080702e+00 
-1.804319246352e+01 -1.474315634083e+00 0.0 
-1.474315634083e+00 -3.386659818801e+01 0.0 
0.0 0.0 -1.530088002096e+01 
-1.768430796561e+01 -1.483788717245e+00 0.0 
-1.483788717245e+00 -3.349363829263e+01 0.0 
0.0 0.0 -1.508193334066e+01 
-2.159037354197e+01 -1.653315857169e+00 0.0 
-1.653315857169e+00 -4.939179381378e+01 0.0 
0.0 0.0 -2.089465020672e+01 
-2.166482829774e+01 -1.382607995428e+00 0.0 
-1.382607995428e+00 -5.042997919795e+01 0.0 
0.0 0.0 -2.122844224871e+01 
-2.620508187967e+01 -1.288777653869e+00 0.0 
-1.288777653869e+00 -6.741452484597e+01 0.0 
0.0 0.0 -2.768588201769e+01 
-2.525916051251e+01 -7.730994269911e-01 0.0 
-7.730994269911e-01 -6.474206536231e+01 0.0 
0.0 0.0 -2.660036776245e+01 
-1.824195366413e+01 -1.183857737301e+00 0.0 
-1.183857737301e+00 -3.380795105999e+01 0.0 
0.0 0.0 -1.535539776763e+01 
-1.343595223467e+01 -9.609167776728e-01 0.0 
-9.609167776728e-01 -1.699464314443e+01 0.0 
0.0 0.0 -9.119884516984e+00 
-1.708801778133e+01 -1.525407960093e+00 0.0 
-1.525407960093e+00 -3.349502768577e+01 0.0 
0.0 0.0 -1.491167398783e+01 
-1.247214523119e+01 -9.334730523158e-01 0.0 
-9.334730523158e-01 -1.683381898430e+01 0.0 
0.0 0.0 -8.786990589790e+00 
-1.645358079716e+01 -1.511750693953e+00 0.0 
-1.511750693953e+00 -3.304594005648e+01 0.0 
0.0 0.0 -1.458470569982e+01 
-2.194909280468e+01 -1.808341574204e+00 0.0 
-1.808341574204e+00 -5.192586644555e+01 0.0 
0.0 0.0 -2.176248777507e+01 
-3.017363498834e+01 -1.704151799695e+00 0.0 
-1.704151799695e+00 -7.862428327989e+01 0.0 
0.0 0.0 -3.223937548047e+01 
-1.566484421329e+02 2.209935813411e+00 0.0 
2.209935813411e+00 -3.713645797950e+02 0.0 
0.0 0.0 -1.580039065784e+02 
-7.199426927257e+01 -5.952991433788e-02 0.0 
-5.952991433788e-02 -1.877593547162e+02 0.0 
0.0 0.0 -7.752608719662e+01 
-6.807809907638e+01 -2.072106872833e-01 0.0 
-2.072106872833e-01 -1.783049004574e+02 0.0 
0.0 0.0 -7.351489986014e+01 
-6.076952720164e+01 -3.006141587241e-01 0.0 
-3.006141587241e-01 -1.594398292831e+02 0.0 
0.0 0.0 -6.566280694541e+01 
-6.460728862121e+01 -2.384098023192e-01 0.0 
-2.384098023192e-01 -1.696006387045e+02 0.0 
0.0 0.0 -6.986237819771e+01 
-7.496993137044e+01 -1.139788559084e-01 0.0 
-1.139788559084e-01 -1.954986608683e+02 0.0 
0.0 0.0 -8.074057767164e+01 
-5.675562118705e+01 -1.992212183644e-01 0.0 
-1.992212183644e-01 -1.490293536625e+02 0.0 
0.0 0.0 -6.133549245486e+01 
-5.404505932103e+01 -3.948849576281e-01 0.0 
-3.948849576281e-01 -1.420080924791e+02 0.0 
0.0 0.0 -5.841594554004e+01 
-7.144842144505e+00 -1.880940723599e-01 0.0 
-1.880940723599e-01 -1.717790400062e+01 0.0 
0.0 0.0 -7.284711173290e+00 
-1.312687099328e+01 -2.675507996724e-01 0.0 
-2.675507996724e-01 -3.376430538162e+01 0.0 
0.0 0.0 -1.377131318556e+01 
-1.250387216258e+01 -2.828246431626e-01 0.0 
-2.828246431626e-01 -3.211843967846e+01 0.0 
0.0 0.0 -1.302116034003e+01 
-1.925762457832e+01 -3.463074282329e-01 0.0 
-3.463074282329e-01 -5.052891031757e+01 0.0 
0.0 0.0 -2.053596046877e+01 
-1.944330231509e+01 -4.712489229856e-01 0.0 
-4.712489229856e-01 -5.017737477717e+01 0.0 
0.0 0.0 -2.048620312768e+01 
-1.353544384118e+01 -4.654471512713e-01 0.0 
-4.654471512713e-01 -3.406651242038e+01 0.0 
0.0 0.0 -1.400776842751e+01 
-1.370504464073e+01 -6.460060596727e-01 0.0 
-6.460060596727e-01 -3.406481464785e+01 0.0 
0.0 0.0 -1.406461187653e+01 
-7.756039971939e+00 -3.869108469504e-01 0.0 
-3.869108469504e-01 -1.704730034000e+01 0.0 
0.0 0.0 -7.435580698231e+00 
-1.389253374664e+01 -7.126022338003e-01 0.0 
-7.126022338003e-01 -3.392863737793e+01 0.0 
0.0 0.0 -1.410771621244e+01 
-2.000503473304e+01 -8.918559188366e-01 0.0 
-8.918559188366e-01 -5.097491291589e+01 0.0 
0.0 0.0 -2.089398429468e+01 
-8.036935702745e+00 -4.551516494245e-01 0.0 
-4.551516494245e-01 -1.646740365132e+01 0.0 
0.0 0.0 -7.363038826180e+00 
-1.004829194305e+02 3.255736982537e-01 0.0 
3.255736982537e-01 -2.261357332873e+02 0.0 
0.0 0.0 -9.758559581535e+01 
-1.046713368277e+02 5.516741213761e-01 0.0 
5.516741213761e-01 -2.368984011454e+02 0.0 
0.0 0.0 -1.020709213919e+02 
-1.549149711646e+02 7.745441087950e+00 0.0 
7.745441087950e+00 -3.677751785399e+02 0.0 
0.0 0.0 -1.564070449113e+02 
-6.539696069071e+01 5.026236117101e-01 0.0 
5.026236117101e-01 -1.366775272230e+02 0.0 
0.0 0.0 -6.022234637412e+01 
-1.091124260057e+01 -7.874072618237e-01 0.0 
-7.874072618237e-01 -1.710566704157e+01 0.0 
0.0 0.0 -8.389236536482e+00 
-1.274636373070e+02 1.737133619512e+00 0.0 
1.737133619512e+00 -2.959493322281e+02 0.0 
0.0 0.0 -1.266238908605e+02 
-1.292467787128e+02 3.230673487641e+00 0.0 
3.230673487641e+00 -2.997866608028e+02 0.0 
0.0 0.0 -1.283100318547e+02 
-1.292067616258e+02 2.659953865993e+00 0.0 
2.659953865993e+00 -2.998979106023e+02 0.0 
0.0 0.0 -1.283314016684e+02 
-1.417472970815e+02 4.547708646326e-01 0.0 
4.547708646326e-01 -3.422023879290e+02 0.0 
0.0 0.0 -1.447849055031e+02 
-1.465373146269e+02 9.887341180157e-01 0.0 
9.887341180157e-01 -3.516015336784e+02 0.0 
0.0 0.0 -1.490416544916e+02 
-1.274408856752e+02 9.506457872983e-01 0.0 
9.506457872983e-01 -2.963277872343e+02 0.0 
0.0 0.0 -1.267306018729e+02 
-4.678944853719e+01 -1.171945074421e+00 0.0 
-1.171945074421e+00 -1.255948133185e+02 0.0 
0.0 0.0 -5.131527855671e+01 
-1.256705580541e+02 8.669053365723e+00 0.0 
8.669053365723e+00 -2.835924365342e+02 0.0 
0.0 0.0 -1.223788983765e+02 
-1.146600760670e+02 1.720736458842e+00 0.0 
1.720736458842e+00 -2.615272229545e+02 0.0 
0.0 0.0 -1.124561897064e+02 
-2.613254874331e+01 7.085606458396e+00 0.0 
7.085606458396e+00 -7.604669267164e+01 0.0 
0.0 0.0 -3.025377242449e+01 
-4.426956400109e+01 -1.053374759672e+00 0.0 
-1.053374759672e+00 -1.209001328995e+02 0.0 
0.0 0.0 -4.915090907017e+01 
-1.135343552599e+02 9.358584690345e-01 0.0 
9.358584690345e-01 -2.841783158215e+02 0.0 
0.0 0.0 -1.189138013244e+02 
-1.015563107121e+02 2.180799012639e+00 0.0 
2.180799012639e+00 -2.601442840505e+02 0.0 
0.0 0.0 -1.081101784288e+02 
-1.324321223149e+02 2.224174000195e+00 0.0 
2.224174000195e+00 -3.240489299571e+02 0.0 
0.0 0.0 -1.365443156816e+02 
-1.053125609908e+02 1.332052204675e+00 0.0 
1.332052204675e+00 -2.669907438423e+02 0.0 
0.0 0.0 -1.112909914499e+02 
-1.237587670421e+02 2.873281753569e+00 0.0 
2.873281753569e+00 -3.068725665198e+02 0.0 
0.0 0.0 -1.287894000686e+02 
-1.430463794739e+02 1.066111209258e+01 0.0 
1.066111209258e+01 -3.442470488013e+02 0.0 
0.0 0.0 -1.457880284826e+02 
-3.049900197470e+01 -6.245198145329e-01 0.0 
-6.245198145329e-01 -7.926755765266e+01 0.0 
0.0 0.0 -3.252996788821e+01 
-8.712393747189e+01 1.269132469917e+00 0.0 
1.269132469917e+00 -1.894477063575e+02 0.0 
0.0 0.0 -8.257149314883e+01 
-8.342581288773e+01 6.584797127222e-01 0.0 
6.584797127222e-01 -1.822238737121e+02 0.0 
0.0 0.0 -7.929490597995e+01 
-1.031139407289e+02 1.610886675055e+00 0.0 
1.610886675055e+00 -2.309006117210e+02 0.0 
0.0 0.0 -9.980436573496e+01 
-4.963186328012e+01 -8.652819602987e-01 0.0 
-8.652819602987e-01 -1.317916987673e+02 0.0 
0.0 0.0 -5.402706861424e+01 
-8.028972003669e+01 1.914244889710e-01 0.0 
1.914244889710e-01 -2.085707911769e+02 0.0 
0.0 0.0 -8.625815336408e+01 
-3.204450803156e+01 -1.346436434234e+00 0.0 
-1.346436434234e+00 -8.405282553398e+01 0.0 
0.0 0.0 -3.442920006966e+01 
-1.342915097326e+02 1.446736772665e+01 0.0 
1.446736772665e+01 -3.105121721503e+02 0.0 
0.0 0.0 -1.330411045649e+02 
-7.403340910459e+01 8.288432676541e+00 0.0 
8.288432676541e+00 -1.481086093427e+02 0.0 
0.0 0.0 -6.624260553419e+01 
-8.050760631834e+01 3.012011444176e+00 0.0 
3.012011444176e+00 -2.154611553142e+02 0.0 
0.0 0.0 -8.839062848977e+01 
-6.505896590608e+01 -2.174331231014e-01 0.0 
-2.174331231014e-01 -1.730890255896e+02 0.0 
0.0 0.0 -7.104439744870e+01 
-5.056593177548e+01 -9.266697665426e-01 0.0 
-9.266697665426e-01 -1.366239941678e+02 0.0 
0.0 0.0 -5.575697778297e+01 
-4.107100344953e+01 -1.073749672706e+00 0.0 
-1.073749672706e+00 -1.126417935792e+02 0.0 
0.0 0.0 -4.571383910861e+01 
-6.655506219261e+01 1.402254904150e+01 0.0 
1.402254904150e+01 -1.565933477723e+02 0.0 
0.0 0.0 -6.654452298948e+01 
-7.678146507313e+01 1.238534729990e+00 0.0 
1.238534729990e+00 -2.045427479506e+02 0.0 
0.0 0.0 -8.399726390712e+01 
-1.150665495774e+02 4.463512217151e+00 0.0 
4.463512217151e+00 -2.902893643540e+02 0.0 
0.0 0.0 -1.212067741794e+02 
-1.071041378110e+02 1.495068360643e+00 0.0 
1.495068360643e+00 -2.417533136370e+02 0.0 
0.0 0.0 -1.042572354344e+02 
-1.014238475815e+01 -7.754652730329e-01 0.0 
-7.754652730329e-01 -1.904869545172e+01 0.0 
0.0 0.0 -8.642622894083e+00 
-1.197013878524e+02 5.360693130506e+00 0.0 
5.360693130506e+00 -2.999932348007e+02 0.0 
0.0 0.0 -1.255083867959e+02 
-9.312326534709e+01 2.460101832179e+00 0.0 
2.460101832179e+00 -2.425061986826e+02 0.0 
0.0 0.0 -1.002888392089e+02 
-9.122929505822e+01 2.201798643039e+00 0.0 
2.201798643039e+00 -1.970443716429e+02 0.0 
0.0 0.0 -8.608210001033e+01 
-1.146826803570e+02 1.130461983964e+01 0.0 
1.130461983964e+01 -2.838710770351e+02 0.0 
0.0 0.0 -1.191661272176e+02 
-2.946104177773e+01 -1.404148422918e+00 0.0 
-1.404148422918e+00 -7.747296361523e+01 0.0 
0.0 0.0 -3.168020161789e+01 
-1.067253175705e+02 2.655199369458e+00 0.0 
2.655199369458e+00 -2.382425160513e+02 0.0 
0.0 0.0 -1.030903500866e+02 
-1.209903847629e+02 5.297272088753e+00 0.0 
5.297272088753e+00 -2.741432962837e+02 0.0 
0.0 0.0 -1.181401043140e+02 
-8.335475576662e+01 2.267431666728e+00 0.0 
2.267431666728e+00 -1.756295676522e+02 0.0 
0.0 0.0 -7.729529702565e+01 
-2.516662557353e+01 -1.296599160413e+00 0.0 
-1.296599160413e+00 -6.452406884273e+01 0.0 
0.0 0.0 -2.650720832488e+01 
-7.877748718014e+01 8.626958320532e-01 0.0 
8.626958320532e-01 -1.693948252135e+02 0.0 
0.0 0.0 -7.405169371810e+01 
-1.389367971654e+02 7.950136468162e+00 0.0 
7.950136468162e+00 -3.375864540094e+02 0.0 
0.0 0.0 -1.425569753524e+02 
-1.073743582486e+02 5.112472061207e+00 0.0 
5.112472061207e+00 -2.346523647876e+02 0.0 
0.0 0.0 -1.022080169108e+02 
-4.568229316683e+01 -8.209389257717e-01 0.0 
-8.209389257717e-01 -1.207524388386e+02 0.0 
0.0 0.0 -4.953041960162e+01 
-7.985674256150e+01 7.897512822601e+00 0.0 
7.897512822601e+00 -2.128587195596e+02 0.0 
0.0 0.0 -8.741463863634e+01 
-7.277422033544e+01 1.270815801668e+01 0.0 
1.270815801668e+01 -1.563447868654e+02 0.0 
0.0 0.0 -6.833570216024e+01 
-6.094409920178e+01 2.383916256091e+00 0.0 
2.383916256091e+00 -1.179494365465e+02 0.0 
0.0 0.0 -5.326806072450e+01 
-1.179360978667e+02 2.123425130599e+00 0.0 
2.123425130599e+00 -2.700311413844e+02 0.0 
0.0 0.0 -1.159901717753e+02 
-8.137300628992e+01 1.293861236429e+01 0.0 
1.293861236429e+01 -2.000987966609e+02 0.0 
0.0 0.0 -8.404154088525e+01 
-1.237337983310e+02 1.050107696429e+01 0.0 
1.050107696429e+01 -3.052300367780e+02 0.0 
0.0 0.0 -1.282891505327e+02 
-9.680906160434e+01 8.882081468243e+00 0.0 
8.882081468243e+00 -2.494813638985e+02 0.0 
0.0 0.0 -1.034871276509e+02 
-4.906871348770e+01 -6.327631201086e-01 0.0 
-6.327631201086e-01 -1.295200647085e+02 0.0 
0.0 0.0 -5.317663345886e+01 
-1.288922761508e+02 4.728920808533e+00 0.0 
4.728920808533e+00 -3.181882196797e+02 0.0 
0.0 0.0 -1.337241487491e+02 
-7.611555832134e+01 1.066632781505e+01 0.0 
1.066632781505e+01 -1.987983306253e+02 0.0 
0.0 0.0 -8.207416668399e+01 
-1.142644925503e+02 3.104506013016e+00 0.0 
3.104506013016e+00 -2.581279755491e+02 0.0 
0.0 0.0 -1.113177404298e+02 
-1.081571526485e+02 1.250162998583e+01 0.0 
1.250162998583e+01 -2.422704653745e+02 0.0 
0.0 0.0 -1.047282854069e+02 
-5.988582810525e+01 7.675161581092e+00 0.0 
7.675161581092e+00 -1.666027748667e+02 0.0 
0.0 0.0 -6.754658089158e+01 
-1.105781775262e+02 4.067733183696e+00 0.0 
4.067733183696e+00 -2.458974162175e+02 0.0 
0.0 0.0 -1.065426781231e+02 
-8.014931874437e+01 4.360285315148e+00 0.0 
4.360285315148e+00 -2.153788606217e+02 0.0 
0.0 0.0 -8.825845380981e+01 
-1.193126621507e+02 1.213116861236e+01 0.0 
1.213116861236e+01 -2.916866817293e+02 0.0 
0.0 0.0 -1.228998031640e+02 
-6.998497840000e+01 9.193029570958e+00 0.0 
9.193029570958e+00 -1.395591929714e+02 0.0 
0.0 0.0 -6.246325141141e+01 
-9.274805211219e+01 1.205883192233e+01 0.0 
1.205883192233e+01 -2.029894543476e+02 0.0 
0.0 0.0 -8.832125193794e+01 
-1.009972563898e+02 9.468608685796e+00 0.0 
9.468608685796e+00 -2.162035227131e+02 0.0 
0.0 0.0 -9.476023373089e+01 
-8.727215470315e+01 1.336548193984e+01 0.0 
1.336548193984e+01 -2.009229704223e+02 0.0 
0.0 0.0 -8.605853753765e+01 
-1.088216672146e+02 4.859575852872e-01 0.0 
4.859575852872e-01 -2.737403970880e+02 0.0 
0.0 0.0 -1.143686192908e+02 
-1.242920855549e+02 5.041681702327e+00 0.0 
5.041681702327e+00 -3.091607413244e+02 0.0 
0.0 0.0 -1.296358480638e+02 
-2.806925572840e+01 1.130146722711e+00 0.0 
1.130146722711e+00 -7.948344994171e+01 0.0 
0.0 0.0 -3.186581170103e+01 
-5.041338787879e+01 1.467999927372e+01 0.0 
1.467999927372e+01 -1.186572589571e+02 0.0 
0.0 0.0 -5.032119405078e+01 
-9.156887147306e+01 2.846851243449e+00 0.0 
2.846851243449e+00 -1.957268984986e+02 0.0 
0.0 0.0 -8.578873099150e+01 
-1.230180675952e+02 1.386814124696e+01 0.0 
1.386814124696e+01 -2.848478055744e+02 0.0 
0.0 0.0 -1.219597619509e+02 
-1.216049128902e+02 3.448721967905e+00 0.0 
3.448721967905e+00 -2.778378768247e+02 0.0 
0.0 0.0 -1.194328369145e+02 
-6.485086942808e+01 1.277218859434e+01 0.0 
1.277218859434e+01 -1.365228202082e+02 0.0 
0.0 0.0 -6.001210689089e+01 
-1.240784836711e+02 3.908100701667e+00 0.0 
3.908100701667e+00 -3.082037978086e+02 0.0 
0.0 0.0 -1.292846844439e+02 
-1.176319598994e+02 4.580139737854e+00 0.0 
4.580139737854e+00 -2.653202046128e+02 0.0 
0.0 0.0 -1.144856493536e+02 
-8.079774622606e+01 1.196113378312e+00 0.0 
1.196113378312e+00 -2.133579716226e+02 0.0 
0.0 0.0 -8.784671535460e+01 
-3.457285283333e+01 -2.282361247687e-01 0.0 
-2.282361247687e-01 -9.091621162718e+01 0.0 
0.0 0.0 -3.724671933815e+01 
-2.184727164817e+01 6.457455342027e+00 0.0 
6.457455342027e+00 -5.957693726843e+01 0.0 
0.0 0.0 -2.402726267498e+01 
-4.522398856353e+01 6.337591522116e+00 0.0 
6.337591522116e+00 -1.313215057721e+02 0.0 
0.0 0.0 -5.256364830068e+01 
-7.677264766662e+01 1.236566615417e+01 0.0 
1.236566615417e+01 -1.937278067251e+02 0.0 
0.0 0.0 -8.075013631752e+01 
-8.895255763247e+01 1.765835332159e+00 0.0 
1.765835332159e+00 -2.323946863452e+02 0.0 
0.0 0.0 -9.600417319331e+01 
-1.259295951686e+02 7.542859801511e+00 0.0 
7.542859801511e+00 -2.861953079056e+02 0.0 
0.0 0.0 -1.232374709223e+02 
-1.285901191550e+02 3.596593905112e+00 0.0 
3.596593905112e+00 -3.169927309948e+02 0.0 
0.0 0.0 -1.332748550449e+02 
-1.149970245011e+02 7.068224287760e+00 0.0 
7.068224287760e+00 -2.902726082836e+02 0.0 
0.0 0.0 -1.211808898354e+02 
-1.667472662730e+01 9.737130238369e+00 0.0 
9.737130238369e+00 -2.148022985265e+01 0.0 
0.0 0.0 -1.104648694398e+01 
-6.524929589358e+01 3.435972062618e+00 0.0 
3.435972062618e+00 -1.268428918637e+02 0.0 
0.0 0.0 -5.722765632717e+01 
-1.331112596157e+02 3.258960939471e+00 0.0 
3.258960939471e+00 -3.257779730972e+02 0.0 
0.0 0.0 -1.372667698139e+02 
-8.398808402107e+01 7.223170444381e+00 0.0 
7.223170444381e+00 -2.229779557025e+02 0.0 
0.0 0.0 -9.168981191707e+01 
-1.235690457953e+02 1.179158855978e+01 0.0 
1.179158855978e+01 -3.022555201651e+02 0.0 
0.0 0.0 -1.273473697881e+02 
-8.698024103497e+01 1.365121590085e-01 0.0 
1.365121590085e-01 -2.237802653381e+02 0.0 
0.0 0.0 -9.282815191192e+01 
-1.350338548146e+02 1.482903033428e+01 0.0 
1.482903033428e+01 -3.135041872576e+02 0.0 
0.0 0.0 -1.341614126217e+02 
-4.918498188559e+01 5.580545513914e+00 0.0 
5.580545513914e+00 -8.898204512480e+01 0.0 
0.0 0.0 -4.105010810312e+01 
-1.376715625614e+02 2.879894849903e+00 0.0 
2.879894849903e+00 -3.347905384322e+02 0.0 
0.0 0.0 -1.413386302981e+02 
-1.147145523098e+02 8.454233462283e+00 0.0 
8.454233462283e+00 -2.888096137864e+02 0.0 
0.0 0.0 -1.206572498288e+02 
-4.467010980375e+01 1.220145539704e+01 0.0 
1.220145539704e+01 -1.213012882459e+02 0.0 
0.0 0.0 -4.939141941490e+01 
-6.291478839775e+01 3.631767230825e-02 0.0 
3.631767230825e-02 -1.340512781691e+02 0.0 
0.0 0.0 -5.868981997007e+01 
-1.487085682302e+02 3.135793330639e+00 0.0 
3.135793330639e+00 -3.562879882166e+02 0.0 
0.0 0.0 -1.510989669341e+02 
-1.241448813238e+02 9.126340916404e+00 0.0 
9.126340916404e+00 -3.077585728112e+02 0.0 
0.0 0.0 -1.291710362405e+02 
-9.522593655492e+01 1.327670167506e+01 0.0 
1.327670167506e+01 -2.200269714548e+02 0.0 
0.0 0.0 -9.417587240291e+01 
-7.990878506181e+01 6.014373604647e+00 0.0 
6.014373604647e+00 -2.146034874328e+02 0.0 
0.0 0.0 -8.795368174839e+01 
-5.273576727188e+01 2.780046204952e+00 0.0 
2.780046204952e+00 -9.853108359126e+01 0.0 
0.0 0.0 -4.498005525894e+01 
-9.307383752854e+01 1.681939022522e+00 0.0 
1.681939022522e+00 -2.411687346743e+02 0.0 
0.0 0.0 -9.987277166086e+01 
-9.690217046361e+01 1.149773077345e+01 0.0 
1.149773077345e+01 -2.107811942605e+02 0.0 
0.0 0.0 -9.190500941722e+01 
-1.312217423408e+02 6.385766195136e+00 0.0 
6.385766195136e+00 -3.034405223728e+02 0.0 
0.0 0.0 -1.299986794141e+02 
-1.283716102638e+02 1.014869125240e+01 0.0 
1.014869125240e+01 -3.153503969788e+02 0.0 
0.0 0.0 -1.327166021728e+02 
-9.664177658348e+01 5.576910540914e+00 0.0 
5.576910540914e+00 -2.040779140036e+02 0.0 
0.0 0.0 -8.981590717613e+01 
-8.883305490827e+01 1.134880932523e+00 0.0 
1.134880932523e+00 -2.308160693119e+02 0.0 
0.0 0.0 -9.549473726604e+01 
-1.019537627400e+02 1.251545747187e+01 0.0 
1.251545747187e+01 -2.494522295777e+02 0.0 
0.0 0.0 -1.050217976953e+02 
-1.970800334352e+01 -6.744347438803e-01 0.0 
-6.744347438803e-01 -5.030483647847e+01 0.0 
0.0 0.0 -2.060385194659e+01 
-5.737449948572e+01 4.216344330311e+00 0.0 
4.216344330311e+00 -1.078837287517e+02 0.0 
0.0 0.0 -4.917746847123e+01 
-9.281768167871e+01 1.088143554430e+00 0.0 
1.088143554430e+00 -2.394305305749e+02 0.0 
0.0 0.0 -9.927446367610e+01 
-4.907292989120e+01 5.397016737090e+00 0.0 
5.397016737090e+00 -1.413836571393e+02 0.0 
0.0 0.0 -5.673697610914e+01 
-8.408248841994e+01 5.487104323023e+00 0.0 
5.487104323023e+00 -2.242180089417e+02 0.0 
0.0 0.0 -9.209014920848e+01 
-1.369218257104e+02 1.424823969477e+01 0.0 
1.424823969477e+01 -3.252556572824e+02 0.0 
0.0 0.0 -1.382532448978e+02 
-9.680621572634e+01 1.012931796005e+00 0.0 
1.012931796005e+00 -2.480355962528e+02 0.0 
0.0 0.0 -1.030525435937e+02 
-5.629360717436e+01 6.141902184346e+00 0.0 
6.141902184346e+00 -1.590765570374e+02 0.0 
0.0 0.0 -6.421104926352e+01 
-1.007884204039e+02 9.013111157944e-01 0.0 
9.013111157944e-01 -2.565811126243e+02 0.0 
0.0 0.0 -1.068108599085e+02 
-4.436790193385e+01 3.548873350001e+00 0.0 
3.548873350001e+00 -7.924046876462e+01 0.0 
0.0 0.0 -3.668251120954e+01 
-1.006731289695e+02 6.627160174520e+00 0.0 
6.627160174520e+00 -2.141297758562e+02 0.0 
0.0 0.0 -9.404087144770e+01 
-1.047891902163e+02 7.554772520306e-01 0.0 
7.554772520306e-01 -2.650537987048e+02 0.0 
0.0 0.0 -1.105528966763e+02 
-1.045255437125e+02 1.181097649314e+01 0.0 
1.181097649314e+01 -2.304927529658e+02 0.0 
0.0 0.0 -1.001054890035e+02 
-2.078989498131e+01 -9.582448959218e-01 0.0 
-9.582448959218e-01 -5.263512226663e+01 0.0 
0.0 0.0 -2.162750517438e+01 
-9.870700099513e+01 1.331266260552e+01 0.0 
1.331266260552e+01 -2.321030133175e+02 0.0 
0.0 0.0 -9.884300429378e+01 
-1.365877820678e+02 8.850917084843e-01 0.0 
8.850917084843e-01 -3.318629448825e+02 0.0 
0.0 0.0 -1.401352180851e+02 
-5.790228996450e+01 3.201699605941e-02 0.0 
3.201699605941e-02 -1.581798964637e+02 0.0 
0.0 0.0 -6.442465592847e+01 
-8.834424010690e+01 5.044281400298e+00 0.0 
5.044281400298e+00 -2.337652496780e+02 0.0 
0.0 0.0 -9.623284693546e+01 
-1.082231109934e+02 7.427819825040e+00 0.0 
7.427819825040e+00 -2.343112720387e+02 0.0 
0.0 0.0 -1.023603149096e+02 
-3.572447517518e+01 4.911644789603e+00 0.0 
4.911644789603e+00 -5.988360296519e+01 0.0 
0.0 0.0 -2.828242344211e+01 
-9.687488993017e+01 5.714349906436e+00 0.0 
5.714349906436e+00 -2.523598948623e+02 0.0 
0.0 0.0 -1.043704354377e+02 
-1.120975058624e+02 1.218775223978e+01 0.0 
1.218775223978e+01 -2.502209071327e+02 0.0 
0.0 0.0 -1.082955238985e+02 
-1.023747034852e+02 1.318359264392e+01 0.0 
1.318359264392e+01 -2.441220027160e+02 0.0 
0.0 0.0 -1.035490118603e+02 
-8.502783617090e+01 1.235202447290e+01 0.0 
1.235202447290e+01 -2.120658493645e+02 0.0 
0.0 0.0 -8.872810566062e+01 
-1.057649585445e+02 6.383879981291e+00 0.0 
6.383879981291e+00 -2.712290606053e+02 0.0 
0.0 0.0 -1.126982057449e+02 
-4.078800396124e+01 7.701410688511e+00 0.0 
7.701410688511e+00 -7.079295401423e+01 0.0 
0.0 0.0 -3.307428739264e+01 
-4.358391521579e+01 -1.331752041240e+00 0.0 
-1.331752041240e+00 -1.173659720075e+02 0.0 
0.0 0.0 -4.788496616699e+01 
-3.683148575053e+01 -1.582284233070e+00 0.0 
-1.582284233070e+00 -9.814072865205e+01 0.0 
0.0 0.0 -4.009166432077e+01 
-6.023887690098e+01 5.350256735069e+00 0.0 
5.350256735069e+00 -1.689198011621e+02 0.0 
0.0 0.0 -6.834760341892e+01 
-1.159052115088e+02 1.186941100680e+01 0.0 
1.186941100680e+01 -2.584899923818e+02 0.0 
0.0 0.0 -1.119185611672e+02 
-2.558620465622e+01 -3.738645091382e-01 0.0 
-3.738645091382e-01 -6.684129486535e+01 0.0 
0.0 0.0 -2.732824985647e+01 
-1.084507410739e+02 8.759940035188e+00 0.0 
8.759940035188e+00 -2.347877774164e+02 0.0 
0.0 0.0 -1.025715555471e+02 
-2.761090453353e+01 -1.761580910462e+00 0.0 
-1.761580910462e+00 -7.071627379872e+01 0.0 
0.0 0.0 -2.909815349967e+01 
-5.685361500859e+01 3.936963630610e+00 0.0 
3.936963630610e+00 -1.606486163511e+02 0.0 
0.0 0.0 -6.485066940791e+01 
-1.151943202127e+02 1.323244703357e+01 0.0 
1.323244703357e+01 -2.758846264617e+02 0.0 
0.0 0.0 -1.169236840023e+02 
-8.516461751770e+01 3.174719328341e-01 0.0 
3.174719328341e-01 -1.879301436528e+02 0.0 
0.0 0.0 -8.152842835114e+01 
-6.073762709205e+01 3.375691128845e+00 0.0 
3.375691128845e+00 -1.698638658586e+02 0.0 
0.0 0.0 -6.878044788520e+01 
-4.200440076706e+01 -2.336231686299e-01 0.0 
-2.336231686299e-01 -1.104915043103e+02 0.0 
0.0 0.0 -4.534877152321e+01 
-5.740196975290e+01 2.168201848169e+00 0.0 
2.168201848169e+00 -1.608742384854e+02 0.0 
0.0 0.0 -6.508286247150e+01 
-9.339926261127e+01 1.238154183439e+01 0.0 
1.238154183439e+01 -2.305992480011e+02 0.0 
0.0 0.0 -9.679955318370e+01 
-6.121194123993e+01 1.843437833797e+00 0.0 
1.843437833797e+00 -1.696896009620e+02 0.0 
0.0 0.0 -6.887046266059e+01 
-5.783752721189e+01 8.884784401626e-01 0.0 
8.884784401626e-01 -1.600899751302e+02 0.0 
0.0 0.0 -6.497825070263e+01 
-1.220309351778e+02 1.979666735252e+00 0.0 
1.979666735252e+00 -2.811733928472e+02 0.0 
0.0 0.0 -1.205612984075e+02 
-6.150254892276e+01 7.397400814698e-01 0.0 
7.397400814698e-01 -1.685164934072e+02 0.0 
0.0 0.0 -6.860571269898e+01 
-1.289333239584e+02 6.198269857684e-01 0.0 
6.198269857684e-01 -2.997030393410e+02 0.0 
0.0 0.0 -1.281909089898e+02 
-1.575064093905e+02 1.066922357323e+00 0.0 
1.066922357323e+00 -3.729006230738e+02 0.0 
0.0 0.0 -1.587221097393e+02 
-6.907137929298e+01 1.913831783294e-01 0.0 
1.913831783294e-01 -1.489961711126e+02 0.0 
0.0 0.0 -6.502026512168e+01 
-2.595861247729e+01 6.055970547444e+00 0.0 
6.055970547444e+00 -3.984221246260e+01 0.0 
0.0 0.0 -1.934024748197e+01 
-1.660031547363e+01 4.193288954726e-02 0.0 
4.193288954726e-02 -1.687245146381e+01 0.0 
0.0 0.0 -9.906382610664e+00 
-3.313355288277e+01 1.199553309339e+01 0.0 
1.199553309339e+01 -5.704770308229e+01 0.0 
0.0 0.0 -2.665437678952e+01 
-5.094785850534e+01 -5.507472357039e-01 0.0 
-5.507472357039e-01 -1.395680462102e+02 0.0 
0.0 0.0 -5.675477141466e+01 
-1.083936464330e+02 1.007520473879e+01 0.0 
1.007520473879e+01 -2.359653590024e+02 0.0 
0.0 0.0 -1.029077016306e+02 
-6.948928728085e+01 7.521325627916e-02 0.0 
7.521325627916e-02 -1.497518313582e+02 0.0 
0.0 0.0 -6.537233559172e+01 
-4.738252559836e+01 -1.037191399329e+00 0.0 
-1.037191399329e+00 -1.287174300370e+02 0.0 
0.0 0.0 -5.242998669062e+01 
-1.299844525492e+02 1.125280291561e+01 0.0 
1.125280291561e+01 -2.959289761507e+02 0.0 
0.0 0.0 -1.273740286100e+02 
-1.433262403958e+02 1.593322327746e+01 0.0 
1.593322327746e+01 -3.355064817211e+02 0.0 
0.0 0.0 -1.432498166351e+02 
-9.669584566266e+01 4.255864433049e-01 0.0 
4.255864433049e-01 -2.165020630975e+02 0.0 
0.0 0.0 -9.355937262804e+01 
-1.277726649350e+02 1.140553337920e+01 0.0 
1.140553337920e+01 -3.120823273795e+02 0.0 
0.0 0.0 -1.315564976943e+02 
-1.064764287404e+02 1.298184782981e+01 0.0 
1.298184782981e+01 -2.565117904695e+02 0.0 
0.0 0.0 -1.084964657630e+02 
-1.148551777099e+02 3.590925679705e-01 0.0 
3.590925679705e-01 -2.633171571287e+02 0.0 
0.0 0.0 -1.130517004516e+02 
-6.288820111585e+01 3.763838705085e-01 0.0 
3.763838705085e-01 -1.326678474927e+02 0.0 
0.0 0.0 -5.826681458258e+01 
-1.595706539145e+01 -1.408448001199e+00 0.0 
-1.408448001199e+00 -3.298114343399e+01 0.0 
0.0 0.0 -1.440448982311e+01 
-1.134730309736e+02 2.640693539239e-01 0.0 
2.640693539239e-01 -2.836871776466e+02 0.0 
0.0 0.0 -1.187480625861e+02 
-1.879147347659e+01 9.515580229163e+00 0.0 
9.515580229163e+00 -2.468822818425e+01 0.0 
0.0 0.0 -1.264391049825e+01 
-2.377426901695e+01 1.393432150386e+01 0.0 
1.393432150386e+01 -4.570585227412e+01 0.0 
0.0 0.0 -2.044403638732e+01 
-2.012604337454e+01 1.260851203625e+01 0.0 
1.260851203625e+01 -4.237759469420e+01 0.0 
0.0 0.0 -1.835109142062e+01 
-5.163957967213e+01 -4.792329922630e-01 0.0 
-4.792329922630e-01 -1.364473049383e+02 0.0 
0.0 0.0 -5.602606538312e+01 
-2.143518970988e+01 -1.768787852183e+00 0.0 
-1.768787852183e+00 -4.908597322190e+01 0.0 
0.0 0.0 -2.075634887954e+01 
-1.854237330542e+01 1.260581485660e+01 0.0 
1.260581485660e+01 -2.659820445799e+01 0.0 
0.0 0.0 -1.314217332902e+01 
-1.405352131759e+02 1.302261490359e+01 0.0 
1.302261490359e+01 -3.365445153036e+02 0.0 
0.0 0.0 -1.427239185439e+02 
-7.165706328415e+01 9.709595491889e-01 0.0 
9.709595491889e-01 -1.504787862232e+02 0.0 
0.0 0.0 -6.624075485220e+01 
-1.192503210028e+02 1.367184915069e+01 0.0 
1.367184915069e+01 -2.825114311599e+02 0.0 
0.0 0.0 -1.201285256488e+02 
-1.783877749923e+01 1.201123724781e+01 0.0 
1.201123724781e+01 -2.509573479358e+01 0.0 
0.0 0.0 -1.248035368784e+01 
-1.244276331702e+02 5.155796473288e+00 0.0 
5.155796473288e+00 -2.844985097361e+02 0.0 
0.0 0.0 -1.222778428719e+02 
-1.371179517370e+02 1.486906017466e+01 0.0 
1.486906017466e+01 -3.231640602658e+02 0.0 
0.0 0.0 -1.376846036008e+02 
-1.567896601072e+02 6.037387127209e+00 0.0 
6.037387127209e+00 -3.715862135289e+02 0.0 
0.0 0.0 -1.581127620908e+02 
-1.278214379557e+02 1.412335522429e+01 0.0 
1.412335522429e+01 -3.020217421138e+02 0.0 
0.0 0.0 -1.285529540209e+02 
-1.804716517257e+01 9.525346259890e+00 0.0 
9.525346259890e+00 -3.714988107942e+01 0.0 
0.0 0.0 -1.615911387560e+01 
-8.069682478080e+01 2.394757391469e+00 0.0 
2.394757391469e+00 -1.679029958777e+02 0.0 
0.0 0.0 -7.417994619755e+01 
-1.332346668191e+02 1.406415193452e+01 0.0 
1.406415193452e+01 -3.070451216178e+02 0.0 
0.0 0.0 -1.316839365310e+02 
-1.030930434998e+02 6.530506296904e-01 0.0 
6.530506296904e-01 -2.321338488660e+02 0.0 
0.0 0.0 -1.001680677097e+02 
-1.581695225810e+02 4.449054872584e+00 0.0 
4.449054872584e+00 -3.740348064390e+02 0.0 
0.0 0.0 -1.592612987060e+02 
-7.164163782097e+01 1.098219534905e+00 0.0 
1.098219534905e+00 -1.484007741211e+02 0.0 
0.0 0.0 -6.561272358261e+01 
-1.227797832597e+02 1.224445786532e+00 0.0 
1.224445786532e+00 -2.836186457082e+02 0.0 
0.0 0.0 -1.215195286904e+02 
-2.610467538924e+01 -8.609354825048e-02 0.0 
-8.609354825048e-02 -7.081266597255e+01 0.0 
0.0 0.0 -2.867520240854e+01 
-1.227544586120e+02 5.779040447701e-01 0.0 
5.779040447701e-01 -2.837642055064e+02 0.0 
0.0 0.0 -1.215555992355e+02 
-1.157496432713e+02 1.074183243589e+01 0.0 
1.074183243589e+01 -2.559887510633e+02 0.0 
0.0 0.0 -1.111215183004e+02 
-7.983355246448e+01 3.478410975609e-01 0.0 
3.478410975609e-01 -1.737656087390e+02 0.0 
0.0 0.0 -7.567974836104e+01 
-8.155186940276e+01 3.002881101185e+00 0.0 
3.002881101185e+00 -1.678629299578e+02 0.0 
0.0 0.0 -7.442443980818e+01 
-1.511004492174e+02 1.548374696281e+00 0.0 
1.548374696281e+00 -3.603875334592e+02 0.0 
0.0 0.0 -1.530463948030e+02 
-1.281521246689e+02 9.676946962805e+00 0.0 
9.676946962805e+00 -2.916556297481e+02 0.0 
0.0 0.0 -1.255423263251e+02 
-1.696689615371e+01 7.157200274660e+00 0.0 
7.157200274660e+00 -3.334601281984e+01 0.0 
0.0 0.0 -1.469387269206e+01 
-9.652722926411e+01 4.046671981849e-01 0.0 
4.046671981849e-01 -2.154374205376e+02 0.0 
0.0 0.0 -9.318939494052e+01 
-6.447238674927e+01 -2.161685567284e-01 0.0 
-2.161685567284e-01 -1.697739684750e+02 0.0 
0.0 0.0 -6.987390656727e+01 
-1.800429828410e+01 -7.357441441188e-01 0.0 
-7.357441441188e-01 -3.083700441872e+01 0.0 
0.0 0.0 -1.444483058181e+01 
-1.471715097954e+02 6.804878203097e+00 0.0 
6.804878203097e+00 -3.536280318318e+02 0.0 
0.0 0.0 -1.498398624882e+02 
-1.224507577308e+02 1.137054173105e+01 0.0 
1.137054173105e+01 -2.749419225486e+02 0.0 
0.0 0.0 -1.188178040838e+02 
-1.500299719946e+02 2.475237955845e+00 0.0 
2.475237955845e+00 -3.587653161964e+02 0.0 
0.0 0.0 -1.522385864573e+02 
-1.909282038743e+01 -3.020749855692e-01 0.0 
-3.020749855692e-01 -4.984036902362e+01 0.0 
0.0 0.0 -2.027995682331e+01 
-1.432069418150e+01 -1.237417346858e+00 0.0 
-1.237417346858e+00 -3.113178578885e+01 0.0 
0.0 0.0 -1.331766248095e+01 
-1.474172646351e+02 8.524661667673e+00 0.0 
8.524661667673e+00 -3.538000383295e+02 0.0 
0.0 0.0 -1.499651908894e+02 
-1.322162049848e+02 1.274805556010e+01 0.0 
1.274805556010e+01 -3.026773223010e+02 0.0 
0.0 0.0 -1.300680581857e+02 
-2.957167567920e+01 -4.857418417858e-01 0.0 
-4.857418417858e-01 -8.033085365456e+01 0.0 
0.0 0.0 -3.257075880013e+01 
-1.310236081065e+02 4.409261945486e+00 0.0 
4.409261945486e+00 -3.041983755139e+02 0.0 
0.0 0.0 -1.301665950861e+02 
-1.537979281035e+01 5.149126600812e+00 0.0 
5.149126600812e+00 -2.385685358700e+01 0.0 
0.0 0.0 -1.145279790425e+01 
-6.256658256733e+01 1.938471410559e-01 0.0 
1.938471410559e-01 -1.306320106858e+02 0.0 
0.0 0.0 -5.755957797594e+01 
-1.379667211305e+01 -7.407173319540e-01 0.0 
-7.407173319540e-01 -3.233365138339e+01 0.0 
0.0 0.0 -1.361486665360e+01 
-1.584206464526e+02 3.796172089131e+00 0.0 
3.796172089131e+00 -3.744583208547e+02 0.0 
0.0 0.0 -1.594636901922e+02 
-1.238820647519e+02 3.102341860263e+00 0.0 
3.102341860263e+00 -2.852012656828e+02 0.0 
0.0 0.0 -1.223249991304e+02 
-7.150929378559e+01 -2.498888187336e-01 0.0 
-2.498888187336e-01 -1.868623114819e+02 0.0 
0.0 0.0 -7.711148158025e+01 
-6.822317217565e+01 1.699533019043e+00 0.0 
1.699533019043e+00 -1.369764640401e+02 0.0 
0.0 0.0 -6.115989086473e+01 
-4.703072768209e+01 -4.367733831355e-01 0.0 
-4.367733831355e-01 -1.238172936479e+02 0.0 
0.0 0.0 -5.085440639900e+01 
-1.296499307041e+02 1.420403675582e+01 0.0 
1.420403675582e+01 -3.014164939162e+02 0.0 
0.0 0.0 -1.289199273861e+02 
-2.018820611649e+01 -1.766887128283e+00 0.0 
-1.766887128283e+00 -4.620397673047e+01 0.0 
0.0 0.0 -1.951765485409e+01 
-1.241814703537e+02 2.405633563555e+00 0.0 
2.405633563555e+00 -2.867560203879e+02 0.0 
0.0 0.0 -1.228812472225e+02 
-1.464031331170e+02 1.023751238393e+01 0.0 
1.023751238393e+01 -3.511481162326e+02 0.0 
0.0 0.0 -1.488653748049e+02 
-1.273037765994e+02 7.039842885431e+00 0.0 
7.039842885431e+00 -2.909213923036e+02 0.0 
0.0 0.0 -1.250675506709e+02 
-1.495018822082e+02 1.507596408704e+01 0.0 
1.507596408704e+01 -3.524762563099e+02 0.0 
0.0 0.0 -1.501934415554e+02 
-1.710687695988e+01 1.038732075044e+00 0.0 
1.038732075044e+00 -2.818050056315e+01 0.0 
0.0 0.0 -1.328806756384e+01 
-1.384806396032e+02 1.528289361341e+01 0.0 
1.528289361341e+01 -3.249399953448e+02 0.0 
0.0 0.0 -1.386261904844e+02 
-1.362459846377e+02 1.064091363443e+01 0.0 
1.064091363443e+01 -3.309153809929e+02 0.0 
0.0 0.0 -1.397484096892e+02 
-6.247036626678e+01 -9.583477207956e-02 0.0 
-9.583477207956e-02 -1.324633169070e+02 0.0 
0.0 0.0 -5.808010495212e+01 
-1.274748984772e+02 8.207261066848e+00 0.0 
8.207261066848e+00 -2.902376324512e+02 0.0 
0.0 0.0 -1.249137592785e+02 
-5.782137330017e+01 -4.692236899280e-01 0.0 
-4.692236899280e-01 -1.521459915904e+02 0.0 
0.0 0.0 -6.259020946718e+01 
-2.565127555149e+01 -8.349175004005e-01 0.0 
-8.349175004005e-01 -6.587872690311e+01 0.0 
0.0 0.0 -2.705900073638e+01 
-1.296903567972e+02 3.953328754041e-01 0.0 
3.953328754041e-01 -3.017462390444e+02 0.0 
0.0 0.0 -1.290309787525e+02 
-6.063753173683e+00 -3.275155802189e-02 0.0 
-3.275155802189e-02 -1.413620239402e+01 0.0 
0.0 0.0 -5.972337744975e+00 
-6.159886261148e+01 9.987950246375e-02 0.0 
9.987950246375e-02 -1.313681847073e+02 0.0 
0.0 0.0 -5.749011419565e+01 
-1.597467443071e+02 3.189829307241e-01 0.0 
3.189829307241e-01 -3.771195890920e+02 0.0 
0.0 0.0 -1.606599000197e+02 
-2.445071472267e+01 -6.353169559904e-01 0.0 
-6.353169559904e-01 -6.295691383486e+01 0.0 
0.0 0.0 -2.582228856726e+01 
-7.516588138291e+01 2.435382906133e-01 0.0 
2.435382906133e-01 -1.633646257076e+02 0.0 
0.0 0.0 -7.115915212714e+01 
-1.318143764135e+02 1.215377110715e+01 0.0 
1.215377110715e+01 -3.011907097063e+02 0.0 
0.0 0.0 -1.295015258359e+02 
-8.903101932229e+01 3.087202411226e-02 0.0 
3.087202411226e-02 -2.287805205171e+02 0.0 
0.0 0.0 -9.494346195183e+01 
-1.105444691228e+02 7.197773961203e-01 0.0 
7.197773961203e-01 -2.519923788466e+02 0.0 
0.0 0.0 -1.083610543908e+02 
-2.489684149551e+01 -1.705601617695e+00 0.0 
-1.705601617695e+00 -6.155750799923e+01 0.0 
0.0 0.0 -2.553630484842e+01 
-1.625149521452e+01 -4.940713791003e-01 0.0 
-4.940713791003e-01 -1.444366086911e+01 0.0 
0.0 0.0 -9.225819462623e+00 
-8.941653601528e+01 4.271786887647e-01 0.0 
4.271786887647e-01 -1.982642706782e+02 0.0 
0.0 0.0 -8.590424200804e+01 
-1.394375179539e+02 1.468526093388e+01 0.0 
1.468526093388e+01 -3.298581798743e+02 0.0 
0.0 0.0 -1.403887093485e+02 
-1.266728032110e+02 5.820012329400e+00 0.0 
5.820012329400e+00 -2.903995792321e+02 0.0 
0.0 0.0 -1.247217147329e+02 
-8.414607762873e+01 3.145282708112e-01 0.0 
3.145282708112e-01 -1.845754749645e+02 0.0 
0.0 0.0 -8.021646577796e+01 
-1.912119415214e+01 6.167273186938e+00 0.0 
6.167273186938e+00 -4.615190233165e+01 0.0 
0.0 0.0 -1.918192894514e+01 
-1.279924143861e+02 1.193197539363e+01 0.0 
1.193197539363e+01 -2.904662076024e+02 0.0 
0.0 0.0 -1.251375865966e+02 
-7.770515695360e+01 3.374007172780e-02 0.0 
3.374007172780e-02 -2.016257212410e+02 0.0 
0.0 0.0 -8.339926345837e+01 
-1.290337526985e+02 1.390940336268e+01 0.0 
1.390940336268e+01 -2.964804395604e+02 0.0 
0.0 0.0 -1.272542576777e+02 
-1.350310851967e+02 1.212096313012e+01 0.0 
1.212096313012e+01 -3.266080173648e+02 0.0 
0.0 0.0 -1.380917307685e+02 
-1.419512659758e+01 5.662054155951e+00 0.0 
5.662054155951e+00 -1.250030507311e+01 0.0 
0.0 0.0 -7.875708478312e+00 
-9.629509618813e+01 2.993936187183e-02 0.0 
2.993936187183e-02 -2.456361350188e+02 0.0 
0.0 0.0 -1.021793693621e+02 
-1.347682941387e+01 -7.535312316931e-01 0.0 
-7.535312316931e-01 -3.029248080347e+01 0.0 
0.0 0.0 -1.283234461471e+01 
-1.505975436385e+02 5.307843370109e+00 0.0 
5.307843370109e+00 -3.600800390290e+02 0.0 
0.0 0.0 -1.528032748002e+02 
-8.110045476726e+01 1.141872498510e-01 0.0 
1.141872498510e-01 -2.100564405557e+02 0.0 
0.0 0.0 -8.694706859690e+01 
-7.088610775873e+00 2.205717429277e+00 0.0 
2.205717429277e+00 -7.699214161466e+00 0.0 
0.0 0.0 -4.036347481202e+00 
-1.024534020038e+01 8.484648001058e-02 0.0 
8.484648001058e-02 -1.045163524609e+01 0.0 
0.0 0.0 -5.809092633940e+00 
-1.870321789756e+01 2.394754345381e+00 0.0 
2.394754345381e+00 -2.888015124198e+01 0.0 
0.0 0.0 -1.387501074186e+01 
-1.772564801453e+01 -2.962729930103e-02 0.0 
-2.962729930103e-02 -2.893211301623e+01 0.0 
0.0 0.0 -1.359732830923e+01 
-2.872161716811e+01 1.948794427461e+00 0.0 
1.948794427461e+00 -4.861725505916e+01 0.0 
0.0 0.0 -2.280166166818e+01 
-2.655974110079e+01 -2.861633301041e-02 0.0 
-2.861633301041e-02 -4.957029087270e+01 0.0 
0.0 0.0 -2.243900959205e+01 
-3.820290032177e+01 1.550153296081e+00 0.0 
1.550153296081e+00 -6.832229974853e+01 0.0 
0.0 0.0 -3.155756002109e+01 
-3.449841066961e+01 -1.814745217797e-02 0.0 
-1.814745217797e-02 -6.800783172823e+01 0.0 
0.0 0.0 -3.035187271935e+01 
-4.709559477457e+01 1.322707081671e+00 0.0 
1.322707081671e+00 -8.779911108789e+01 0.0 
0.0 0.0 -4.006841175874e+01 
-4.341569734855e+01 -6.187578389214e-02 0.0 
-6.187578389214e-02 -8.864937847850e+01 0.0 
0.0 0.0 -3.921952274812e+01 
-5.558532586785e+01 1.266677486881e+00 0.0 
1.266677486881e+00 -1.073648460475e+02 0.0 
0.0 0.0 -4.848505157460e+01 
-5.117268683995e+01 -1.608678685730e-01 0.0 
-1.608678685730e-01 -1.070410883332e+02 0.0 
0.0 0.0 -4.706413255194e+01 

TENSORS node_materi_strain_total float
-1.431774958038e-06 1.875063578306e-07 0.0 
1.875063578306e-07 1.595800792631e-05 0.0 
0.0 0.0 0.0 
-5.560970592877e-05 -2.674189425881e-06 0.0 
-2.674189425881e-06 1.227343599863e-03 0.0 
0.0 0.0 0.0 
6.815247790670e-06 6.104454931814e-06 0.0 
6.104454931814e-06 1.237363760349e-03 0.0 
0.0 0.0 0.0 
-3.603255898210e-06 -1.005794459887e-08 0.0 
-1.005794459887e-08 1.801003710993e-03 0.0 
0.0 0.0 0.0 
1.994426598539e-06 -8.921949497770e-07 0.0 
-8.921949497770e-07 4.527690489353e-05 0.0 
0.0 0.0 0.0 
9.140538749971e-06 1.342056408124e-06 0.0 
1.342056408124e-06 1.033582059797e-04 0.0 
0.0 0.0 0.0 
1.913603631028e-05 1.383394154018e-06 0.0 
1.383394154018e-06 1.567503292300e-04 0.0 
0.0 0.0 0.0 
2.844872544501e-05 1.157946021355e-06 0.0 
1.157946021355e-06 2.172761532402e-04 0.0 
0.0 0.0 0.0 
3.787456073804e-05 8.555917181557e-07 0.0 
8.555917181557e-07 2.758678172265e-04 0.0 
0.0 0.0 0.0 
4.748178473601e-05 8.474944178444e-07 0.0 
8.474944178444e-07 3.337241710928e-04 0.0 
0.0 0.0 0.0 
5.600472871651e-05 1.071760694888e-06 0.0 
1.071760694888e-06 3.921177314867e-04 0.0 
0.0 0.0 0.0 
6.328191841128e-05 1.119125773456e-06 0.0 
1.119125773456e-06 4.513670529537e-04 0.0 
0.0 0.0 0.0 
6.932143242196e-05 1.367925600955e-06 0.0 
1.367925600955e-06 5.115767382204e-04 0.0 
0.0 0.0 0.0 
7.327383277607e-05 2.054816082160e-06 0.0 
2.054816082160e-06 5.738375632337e-04 0.0 
0.0 0.0 0.0 
7.478466929819e-05 3.311303154399e-06 0.0 
3.311303154399e-06 6.394251845729e-04 0.0 
0.0 0.0 0.0 
7.604899655100e-05 3.704858249115e-06 0.0 
3.704858249115e-06 7.037297855705e-04 0.0 
0.0 0.0 0.0 
7.547769466076e-05 5.116770608082e-06 0.0 
5.116770608082e-06 7.633517633043e-04 0.0 
0.0 0.0 0.0 
7.139369078094e-05 3.052787251216e-06 0.0 
3.052787251216e-06 8.311824584955e-04 0.0 
0.0 0.0 0.0 
6.514208807847e-05 3.297403875266e-06 0.0 
3.297403875266e-06 9.023634643679e-04 0.0 
0.0 0.0 0.0 
5.673472345435e-05 3.656880081023e-06 0.0 
3.656880081023e-06 9.729899765292e-04 0.0 
0.0 0.0 0.0 
4.573396410949e-05 3.800086304918e-06 0.0 
3.800086304918e-06 1.045983666676e-03 0.0 
0.0 0.0 0.0 
3.212181234528e-05 4.600557334574e-06 0.0 
4.600557334574e-06 1.121284081751e-03 0.0 
0.0 0.0 0.0 
1.877533565138e-05 5.337051825968e-06 0.0 
5.337051825968e-06 1.194309790073e-03 0.0 
0.0 0.0 0.0 
-2.424216187976e-06 5.613701283941e-06 0.0 
5.613701283941e-06 1.803610778629e-03 0.0 
0.0 0.0 0.0 
-3.066600538393e-06 1.044782436339e-05 0.0 
1.044782436339e-05 1.800388372842e-03 0.0 
0.0 0.0 0.0 
-3.028442502403e-06 1.417010079733e-05 0.0 
1.417010079733e-05 1.800860178969e-03 0.0 
0.0 0.0 0.0 
-3.104632941805e-06 2.169047978879e-05 0.0 
2.169047978879e-05 1.800062072875e-03 0.0 
0.0 0.0 0.0 
-3.842196783510e-06 2.616915833509e-05 0.0 
2.616915833509e-05 1.797392396274e-03 0.0 
0.0 0.0 0.0 
-3.421334140552e-06 3.258607537947e-05 0.0 
3.258607537947e-05 1.798057138766e-03 0.0 
0.0 0.0 0.0 
-3.605900796029e-06 3.930702777418e-05 0.0 
3.930702777418e-05 1.796694834498e-03 0.0 
0.0 0.0 0.0 
-4.206367626954e-06 4.634465081261e-05 0.0 
4.634465081261e-05 1.793627322414e-03 0.0 
0.0 0.0 0.0 
-4.236899727394e-06 5.298353412860e-05 0.0 
5.298353412860e-05 1.792922225248e-03 0.0 
0.0 0.0 0.0 
-4.148995955170e-06 6.259916838356e-05 0.0 
6.259916838356e-05 1.789377637520e-03 0.0 
0.0 0.0 0.0 
-5.459839106492e-06 7.013556000878e-05 0.0 
7.013556000878e-05 1.783800014124e-03 0.0 
0.0 0.0 0.0 
-5.133316149375e-06 7.972348026351e-05 0.0 
7.972348026351e-05 1.780419654769e-03 0.0 
0.0 0.0 0.0 
-5.442684122947e-06 8.998061856798e-05 0.0 
8.998061856798e-05 1.774822480191e-03 0.0 
0.0 0.0 0.0 
-5.684426067372e-06 1.002329060638e-04 0.0 
1.002329060638e-04 1.766793625068e-03 0.0 
0.0 0.0 0.0 
-6.341989066979e-06 1.108074575012e-04 0.0 
1.108074575012e-04 1.757530631665e-03 0.0 
0.0 0.0 0.0 
-6.569104210004e-06 1.220703548472e-04 0.0 
1.220703548472e-04 1.745663372360e-03 0.0 
0.0 0.0 0.0 
-7.237702246717e-06 1.332448356802e-04 0.0 
1.332448356802e-04 1.733636528592e-03 0.0 
0.0 0.0 0.0 
-7.057407006942e-06 1.456323617703e-04 0.0 
1.456323617703e-04 1.720876483511e-03 0.0 
0.0 0.0 0.0 
-6.572499604562e-06 1.571447902666e-04 0.0 
1.571447902666e-04 1.706207314332e-03 0.0 
0.0 0.0 0.0 
-5.653805129291e-06 1.684612258644e-04 0.0 
1.684612258644e-04 1.689672124661e-03 0.0 
0.0 0.0 0.0 
-4.843132746698e-06 1.790715630165e-04 0.0 
1.790715630165e-04 1.669722552644e-03 0.0 
0.0 0.0 0.0 
-5.020173077538e-06 1.880944958596e-04 0.0 
1.880944958596e-04 1.647972170988e-03 0.0 
0.0 0.0 0.0 
-3.815646380523e-06 1.961362937270e-04 0.0 
1.961362937270e-04 1.624789493049e-03 0.0 
0.0 0.0 0.0 
-2.971437473705e-06 2.023289479791e-04 0.0 
2.023289479791e-04 1.600113645927e-03 0.0 
0.0 0.0 0.0 
-2.155721628094e-06 2.068772764612e-04 0.0 
2.068772764612e-04 1.575039570194e-03 0.0 
0.0 0.0 0.0 
-9.176160292723e-07 2.098324149508e-04 0.0 
2.098324149508e-04 1.549674713750e-03 0.0 
0.0 0.0 0.0 
1.267829855175e-07 2.102917512409e-04 0.0 
2.102917512409e-04 1.523776326358e-03 0.0 
0.0 0.0 0.0 
1.599926699791e-06 2.088530199455e-04 0.0 
2.088530199455e-04 1.497825308788e-03 0.0 
0.0 0.0 0.0 
2.204888636411e-06 2.052778450067e-04 0.0 
2.052778450067e-04 1.471660039846e-03 0.0 
0.0 0.0 0.0 
2.292154393180e-06 1.998348335136e-04 0.0 
1.998348335136e-04 1.449946497129e-03 0.0 
0.0 0.0 0.0 
4.399444441564e-06 1.943542343245e-04 0.0 
1.943542343245e-04 1.424426040472e-03 0.0 
0.0 0.0 0.0 
5.098410465439e-06 1.854207750179e-04 0.0 
1.854207750179e-04 1.398810920443e-03 0.0 
0.0 0.0 0.0 
5.576659654579e-06 1.750622443550e-04 0.0 
1.750622443550e-04 1.376757141082e-03 0.0 
0.0 0.0 0.0 
5.762007462199e-06 1.647486602894e-04 0.0 
1.647486602894e-04 1.359081070193e-03 0.0 
0.0 0.0 0.0 
6.465252546957e-06 1.541482818176e-04 0.0 
1.541482818176e-04 1.341660780095e-03 0.0 
0.0 0.0 0.0 
5.499890298892e-06 1.424573223171e-04 0.0 
1.424573223171e-04 1.325984922216e-03 0.0 
0.0 0.0 0.0 
6.969006625113e-06 1.312821601727e-04 0.0 
1.312821601727e-04 1.312331756710e-03 0.0 
0.0 0.0 0.0 
6.014321120314e-06 1.194116750101e-04 0.0 
1.194116750101e-04 1.298561371629e-03 0.0 
0.0 0.0 0.0 
7.227850868189e-06 1.078747323176e-04 0.0 
1.078747323176e-04 1.286484810051e-03 0.0 
0.0 0.0 0.0 
6.271867288632e-06 9.636942746682e-05 0.0 
9.636942746682e-05 1.275401502093e-03 0.0 
0.0 0.0 0.0 
5.311788217499e-06 8.550681199894e-05 0.0 
8.550681199894e-05 1.268665446971e-03 0.0 
0.0 0.0 0.0 
5.702106383880e-06 7.549360176728e-05 0.0 
7.549360176728e-05 1.265163882010e-03 0.0 
0.0 0.0 0.0 
6.310505116680e-06 6.509350674786e-05 0.0 
6.509350674786e-05 1.260886323259e-03 0.0 
0.0 0.0 0.0 
6.953287815803e-06 5.375156215276e-05 0.0 
5.375156215276e-05 1.245390910490e-03 0.0 
0.0 0.0 0.0 
5.972494761641e-06 4.409047027118e-05 0.0 
4.409047027118e-05 1.249858038210e-03 0.0 
0.0 0.0 0.0 
4.941121175180e-06 3.504474708922e-05 0.0 
3.504474708922e-05 1.243613897720e-03 0.0 
0.0 0.0 0.0 
4.343596538522e-06 2.579756774565e-05 0.0 
2.579756774565e-05 1.242888303597e-03 0.0 
0.0 0.0 0.0 
4.713275761977e-06 1.819751916264e-05 0.0 
1.819751916264e-05 1.243880583716e-03 0.0 
0.0 0.0 0.0 
4.569733716024e-06 9.949154562657e-06 0.0 
9.949154562657e-06 1.242652229888e-03 0.0 
0.0 0.0 0.0 
-5.350175131695e-05 -1.727488713473e-06 0.0 
-1.727488713473e-06 1.291050562891e-03 0.0 
0.0 0.0 0.0 
-5.232428706000e-05 -1.756918288343e-06 0.0 
-1.756918288343e-06 1.354320931120e-03 0.0 
0.0 0.0 0.0 
-4.937040777471e-05 -1.516345505281e-06 0.0 
-1.516345505281e-06 1.415869605931e-03 0.0 
0.0 0.0 0.0 
-4.551189155059e-05 -1.400368961534e-06 0.0 
-1.400368961534e-06 1.475465757150e-03 0.0 
0.0 0.0 0.0 
-4.063390005338e-05 -9.398440715184e-07 0.0 
-9.398440715184e-07 1.535494290963e-03 0.0 
0.0 0.0 0.0 
-3.415603906665e-05 -8.475209075547e-07 0.0 
-8.475209075547e-07 1.594664749568e-03 0.0 
0.0 0.0 0.0 
-2.735218296483e-05 -4.884917027927e-07 0.0 
-4.884917027927e-07 1.652635902326e-03 0.0 
0.0 0.0 0.0 
-1.910134652413e-05 -4.107171933922e-07 0.0 
-4.107171933922e-07 1.709477276563e-03 0.0 
0.0 0.0 0.0 
-1.072815829769e-05 -4.996184402357e-07 0.0 
-4.996184402357e-07 1.766889226874e-03 0.0 
0.0 0.0 0.0 
-9.582767229347e-05 5.645791737561e-05 0.0 
5.645791737561e-05 6.527721051179e-05 0.0 
0.0 0.0 0.0 
-9.192645407168e-05 1.877912566455e-05 0.0 
1.877912566455e-05 1.232125251740e-03 0.0 
0.0 0.0 0.0 
-1.032188035620e-04 1.362727835553e-04 0.0 
1.362727835553e-04 1.867624564769e-04 0.0 
0.0 0.0 0.0 
-1.020971686852e-04 1.615077413233e-04 0.0 
1.615077413233e-04 3.768151746717e-04 0.0 
0.0 0.0 0.0 
-9.203845224333e-05 1.601925071757e-04 0.0 
1.601925071757e-04 5.811825693987e-04 0.0 
0.0 0.0 0.0 
-7.782624416031e-05 1.015731889887e-04 0.0 
1.015731889887e-04 7.995525350989e-04 0.0 
0.0 0.0 0.0 
-6.339586771309e-05 5.214077647453e-05 0.0 
5.214077647453e-05 8.893179901640e-04 0.0 
0.0 0.0 0.0 
-7.417029790746e-05 3.937453528011e-05 0.0 
3.937453528011e-05 9.579787046944e-04 0.0 
0.0 0.0 0.0 
-8.363626043601e-05 2.952657714076e-05 0.0 
2.952657714076e-05 1.027397628069e-03 0.0 
0.0 0.0 0.0 
-8.940312828987e-05 2.262201217261e-05 0.0 
2.262201217261e-05 1.095672501799e-03 0.0 
0.0 0.0 0.0 
-9.158426861455e-05 1.940148574779e-05 0.0 
1.940148574779e-05 1.162666515729e-03 0.0 
0.0 0.0 0.0 
-5.905024365616e-05 -3.980348975108e-06 0.0 
-3.980348975108e-06 8.658537418140e-04 0.0 
0.0 0.0 0.0 
-5.549206480956e-05 -3.806692978176e-06 0.0 
-3.806692978176e-06 9.039002907023e-04 0.0 
0.0 0.0 0.0 
-5.393651327396e-05 -5.258376386689e-06 0.0 
-5.258376386689e-06 9.674359011074e-04 0.0 
0.0 0.0 0.0 
-5.423603841986e-05 -4.287330829068e-06 0.0 
-4.287330829068e-06 1.032111266483e-03 0.0 
0.0 0.0 0.0 
-5.464136749975e-05 -4.995863180899e-06 0.0 
-4.995863180899e-06 1.096672855125e-03 0.0 
0.0 0.0 0.0 
-5.476432575968e-05 -3.514590484321e-06 0.0 
-3.514590484321e-06 1.160630128481e-03 0.0 
0.0 0.0 0.0 
-5.493043860080e-05 1.093776652326e-06 0.0 
1.093776652326e-06 1.218605830303e-03 0.0 
0.0 0.0 0.0 
-5.506085681676e-05 -2.108337085713e-07 0.0 
-2.108337085713e-07 1.222690183287e-03 0.0 
0.0 0.0 0.0 
-5.611922793586e-05 -3.072980221649e-07 0.0 
-3.072980221649e-07 1.223365435322e-03 0.0 
0.0 0.0 0.0 
-5.712212442271e-05 -6.289805268946e-07 0.0 
-6.289805268946e-07 1.222982773022e-03 0.0 
0.0 0.0 0.0 
-5.807626758652e-05 -1.097773952959e-09 0.0 
-1.097773952959e-09 1.232001484192e-03 0.0 
0.0 0.0 0.0 
-5.988345922390e-05 -2.234218193251e-07 0.0 
-2.234218193251e-07 1.225185426683e-03 0.0 
0.0 0.0 0.0 
-6.158256995964e-05 -3.415742147489e-07 0.0 
-3.415742147489e-07 1.225049012387e-03 0.0 
0.0 0.0 0.0 
-6.372732844330e-05 4.008511994688e-07 0.0 
4.008511994688e-07 1.226355738637e-03 0.0 
0.0 0.0 0.0 
-6.702789174849e-05 8.708376269539e-07 0.0 
8.708376269539e-07 1.228681346934e-03 0.0 
0.0 0.0 0.0 
-7.021591219477e-05 2.043890205289e-06 0.0 
2.043890205289e-06 1.229022879473e-03 0.0 
0.0 0.0 0.0 
-7.324108119964e-05 3.460775478533e-06 0.0 
3.460775478533e-06 1.229137696134e-03 0.0 
0.0 0.0 0.0 
-7.714107227075e-05 5.490931330989e-06 0.0 
5.490931330989e-06 1.229276359483e-03 0.0 
0.0 0.0 0.0 
-8.105696698255e-05 8.856395552383e-06 0.0 
8.856395552383e-06 1.229303612946e-03 0.0 
0.0 0.0 0.0 
-8.557582946198e-05 1.324842011338e-05 0.0 
1.324842011338e-05 1.229947003407e-03 0.0 
0.0 0.0 0.0 
-1.111940191082e-04 1.819132979912e-05 0.0 
1.819132979912e-05 6.966458478456e-05 0.0 
0.0 0.0 0.0 
-1.246828826557e-04 2.077701335043e-06 0.0 
2.077701335043e-06 7.185038375179e-05 0.0 
0.0 0.0 0.0 
-1.239931833800e-04 -5.605604881056e-06 0.0 
-5.605604881056e-06 6.871880026993e-05 0.0 
0.0 0.0 0.0 
-1.142702568911e-04 -7.209036576151e-06 0.0 
-7.209036576151e-06 6.389569743215e-05 0.0 
0.0 0.0 0.0 
-1.009638599702e-04 -8.667001207212e-06 0.0 
-8.667001207212e-06 5.946989480221e-05 0.0 
0.0 0.0 0.0 
-9.033521643812e-05 -8.181059992401e-06 0.0 
-8.181059992401e-06 5.575830042822e-05 0.0 
0.0 0.0 0.0 
-7.926301930143e-05 -7.594527473143e-06 0.0 
-7.594527473143e-06 5.122761509146e-05 0.0 
0.0 0.0 0.0 
-6.814144863735e-05 -7.094500281867e-06 0.0 
-7.094500281867e-06 4.635944987008e-05 0.0 
0.0 0.0 0.0 
-5.778483689937e-05 -6.842443416047e-06 0.0 
-6.842443416047e-06 4.195760025979e-05 0.0 
0.0 0.0 0.0 
-4.801592185318e-05 -6.391696755276e-06 0.0 
-6.391696755276e-06 3.770071440878e-05 0.0 
0.0 0.0 0.0 
-3.865973739821e-05 -5.728475045370e-06 0.0 
-5.728475045370e-06 3.436663183328e-05 0.0 
0.0 0.0 0.0 
-3.332404750878e-05 -4.956275051903e-06 0.0 
-4.956275051903e-06 3.252962887212e-05 0.0 
0.0 0.0 0.0 
-2.487485052297e-05 -3.798311239256e-06 0.0 
-3.798311239256e-06 2.836784107959e-05 0.0 
0.0 0.0 0.0 
-1.682026811241e-05 -3.860661578579e-06 0.0 
-3.860661578579e-06 2.399901393576e-05 0.0 
0.0 0.0 0.0 
-1.144824890620e-05 -3.837303179044e-06 0.0 
-3.837303179044e-06 2.177267194980e-05 0.0 
0.0 0.0 0.0 
-8.394134592897e-06 -2.782744593483e-06 0.0 
-2.782744593483e-06 2.078578357530e-05 0.0 
0.0 0.0 0.0 
-5.419917644023e-06 -1.408067224697e-06 0.0 
-1.408067224697e-06 1.947249963400e-05 0.0 
0.0 0.0 0.0 
-1.734294507264e-06 1.179849775461e-07 0.0 
1.179849775461e-07 1.674613325808e-05 0.0 
0.0 0.0 0.0 
-4.938046841430e-07 8.082223199185e-07 0.0 
8.082223199185e-07 1.479469380805e-05 0.0 
0.0 0.0 0.0 
-5.685638777095e-05 3.354699008611e-06 0.0 
3.354699008611e-06 8.722800993073e-04 0.0 
0.0 0.0 0.0 
-5.136757688077e-05 1.185398971429e-06 0.0 
1.185398971429e-06 8.708119473401e-04 0.0 
0.0 0.0 0.0 
-5.095250373766e-05 -2.884903874907e-07 0.0 
-2.884903874907e-07 8.700868600386e-04 0.0 
0.0 0.0 0.0 
-5.034932106181e-05 -1.003833632230e-06 0.0 
-1.003833632230e-06 8.697511543857e-04 0.0 
0.0 0.0 0.0 
-4.925160869507e-05 -1.515751353849e-06 0.0 
-1.515751353849e-06 8.693219234824e-04 0.0 
0.0 0.0 0.0 
-4.768233456535e-05 -1.947047120568e-06 0.0 
-1.947047120568e-06 8.687235533590e-04 0.0 
0.0 0.0 0.0 
-4.565972302458e-05 -2.351015898975e-06 0.0 
-2.351015898975e-06 8.679275420298e-04 0.0 
0.0 0.0 0.0 
-4.318659837051e-05 -2.749326245636e-06 0.0 
-2.749326245636e-06 8.669237449180e-04 0.0 
0.0 0.0 0.0 
-4.026002624387e-05 -3.149733594737e-06 0.0 
-3.149733594737e-06 8.657115286571e-04 0.0 
0.0 0.0 0.0 
-3.687096219263e-05 -3.553866857183e-06 0.0 
-3.553866857183e-06 8.642897793380e-04 0.0 
0.0 0.0 0.0 
-3.301196763184e-05 -3.959671314393e-06 0.0 
-3.959671314393e-06 8.626596553450e-04 0.0 
0.0 0.0 0.0 
-2.868192203868e-05 -4.359441121662e-06 0.0 
-4.359441121662e-06 8.608268729169e-04 0.0 
0.0 0.0 0.0 
-2.389269928889e-05 -4.725383042383e-06 0.0 
-4.725383042383e-06 8.588262396466e-04 0.0 
0.0 0.0 0.0 
-1.871130254953e-05 -5.055813287333e-06 0.0 
-5.055813287333e-06 8.566911442912e-04 0.0 
0.0 0.0 0.0 
-1.322776095821e-05 -5.304079841342e-06 0.0 
-5.304079841342e-06 8.544807478714e-04 0.0 
0.0 0.0 0.0 
-7.659305329126e-06 -5.499769118799e-06 0.0 
-5.499769118799e-06 8.522049552075e-04 0.0 
0.0 0.0 0.0 
-2.203688199217e-06 -5.408007266987e-06 0.0 
-5.408007266987e-06 8.500672809710e-04 0.0 
0.0 0.0 0.0 
2.524071693100e-06 -5.166139019017e-06 0.0 
-5.166139019017e-06 8.479957201559e-04 0.0 
0.0 0.0 0.0 
6.196472319808e-06 -3.814359976363e-06 0.0 
-3.814359976363e-06 8.465914733744e-04 0.0 
0.0 0.0 0.0 
6.881848568711e-06 -1.705266743128e-06 0.0 
-1.705266743128e-06 8.450939271748e-04 0.0 
0.0 0.0 0.0 
5.277301358020e-06 5.709046400356e-06 0.0 
5.709046400356e-06 8.452740704135e-04 0.0 
0.0 0.0 0.0 
-6.494082288117e-06 1.426488588569e-05 0.0 
1.426488588569e-05 8.447666592791e-04 0.0 
0.0 0.0 0.0 
-3.027720314871e-05 2.666400222585e-05 0.0 
2.666400222585e-05 8.389764047148e-04 0.0 
0.0 0.0 0.0 
-3.481388555132e-05 2.201977370173e-05 0.0 
2.201977370173e-05 8.802883258560e-04 0.0 
0.0 0.0 0.0 
-3.110763944349e-05 1.245729706256e-05 0.0 
1.245729706256e-05 8.907073646972e-04 0.0 
0.0 0.0 0.0 
-2.315225370797e-05 2.948543484728e-06 0.0 
2.948543484728e-06 8.877263647595e-04 0.0 
0.0 0.0 0.0 
-2.129349749367e-05 -1.887049718402e-06 0.0 
-1.887049718402e-06 8.879747170598e-04 0.0 
0.0 0.0 0.0 
-2.107181992309e-05 -4.191182640367e-06 0.0 
-4.191182640367e-06 8.888277349790e-04 0.0 
0.0 0.0 0.0 
-2.254978805660e-05 -5.520389140368e-06 0.0 
-5.520389140368e-06 8.897142852374e-04 0.0 
0.0 0.0 0.0 
-2.485482193970e-05 -6.099839550055e-06 0.0 
-6.099839550055e-06 8.909729449288e-04 0.0 
0.0 0.0 0.0 
-2.771885571791e-05 -6.294303842231e-06 0.0 
-6.294303842231e-06 8.922997033436e-04 0.0 
0.0 0.0 0.0 
-3.078833032342e-05 -6.219067675434e-06 0.0 
-6.219067675434e-06 8.937154216407e-04 0.0 
0.0 0.0 0.0 
-3.391124250226e-05 -5.968299434271e-06 0.0 
-5.968299434271e-06 8.951347607928e-04 0.0 
0.0 0.0 0.0 
-3.691059295891e-05 -5.583000130557e-06 0.0 
-5.583000130557e-06 8.965020213518e-04 0.0 
0.0 0.0 0.0 
-3.969699431429e-05 -5.126781069591e-06 0.0 
-5.126781069591e-06 8.977510001980e-04 0.0 
0.0 0.0 0.0 
-4.223013126190e-05 -4.640254789828e-06 0.0 
-4.640254789828e-06 8.988673397188e-04 0.0 
0.0 0.0 0.0 
-4.448905276583e-05 -4.136154608743e-06 0.0 
-4.136154608743e-06 8.998431253048e-04 0.0 
0.0 0.0 0.0 
-4.645743041596e-05 -3.618625872195e-06 0.0 
-3.618625872195e-06 9.006700066423e-04 0.0 
0.0 0.0 0.0 
-4.812369875453e-05 -3.085172892112e-06 0.0 
-3.085172892112e-06 9.013439853753e-04 0.0 
0.0 0.0 0.0 
-4.949170056754e-05 -2.532432738173e-06 0.0 
-2.532432738173e-06 9.018751232456e-04 0.0 
0.0 0.0 0.0 
-5.058556190810e-05 -1.937030979659e-06 0.0 
-1.937030979659e-06 9.023007562632e-04 0.0 
0.0 0.0 0.0 
-5.144670109369e-05 -1.264608135992e-06 0.0 
-1.264608135992e-06 9.026780289237e-04 0.0 
0.0 0.0 0.0 
-5.217763949217e-05 -5.136175593688e-07 0.0 
-5.136175593688e-07 9.031087851775e-04 0.0 
0.0 0.0 0.0 
-5.313263740616e-05 8.620787883825e-08 0.0 
8.620787883825e-08 9.037496272602e-04 0.0 
0.0 0.0 0.0 
-5.505824118696e-05 2.912552311046e-06 0.0 
2.912552311046e-06 9.040131630332e-04 0.0 
0.0 0.0 0.0 
-5.416610196851e-05 7.842464401547e-07 0.0 
7.842464401547e-07 9.679067362642e-04 0.0 
0.0 0.0 0.0 
-5.377528737275e-05 -1.060336314508e-06 0.0 
-1.060336314508e-06 9.681052564548e-04 0.0 
0.0 0.0 0.0 
-5.318800728887e-05 -2.002996453164e-06 0.0 
-2.002996453164e-06 9.677841384013e-04 0.0 
0.0 0.0 0.0 
-5.264089983431e-05 -2.779381896378e-06 0.0 
-2.779381896378e-06 9.674731501146e-04 0.0 
0.0 0.0 0.0 
-5.209473121296e-05 -3.624496184282e-06 0.0 
-3.624496184282e-06 9.672231012565e-04 0.0 
0.0 0.0 0.0 
-5.150406065298e-05 -4.493266874164e-06 0.0 
-4.493266874164e-06 9.669923606610e-04 0.0 
0.0 0.0 0.0 
-5.082643435829e-05 -5.379396678314e-06 0.0 
-5.379396678314e-06 9.667265617275e-04 0.0 
0.0 0.0 0.0 
-5.003484444884e-05 -6.256503166183e-06 0.0 
-6.256503166183e-06 9.663815628104e-04 0.0 
0.0 0.0 0.0 
-4.914282724311e-05 -7.092032145701e-06 0.0 
-7.092032145701e-06 9.659687125050e-04 0.0 
0.0 0.0 0.0 
-4.821147357624e-05 -7.867266024906e-06 0.0 
-7.867266024906e-06 9.655138195260e-04 0.0 
0.0 0.0 0.0 
-4.727198533847e-05 -8.564112243006e-06 0.0 
-8.564112243006e-06 9.650212135216e-04 0.0 
0.0 0.0 0.0 
-4.636596900267e-05 -9.122510972352e-06 0.0 
-9.122510972352e-06 9.644850351725e-04 0.0 
0.0 0.0 0.0 
-4.557715746813e-05 -9.409866129829e-06 0.0 
-9.409866129829e-06 9.639057291487e-04 0.0 
0.0 0.0 0.0 
-4.509232417458e-05 -9.226131351964e-06 0.0 
-9.226131351964e-06 9.634444787715e-04 0.0 
0.0 0.0 0.0 
-4.517181318925e-05 -8.513048864692e-06 0.0 
-8.513048864692e-06 9.630895413902e-04 0.0 
0.0 0.0 0.0 
-4.597895664995e-05 -6.880688587313e-06 0.0 
-6.880688587313e-06 9.629909084170e-04 0.0 
0.0 0.0 0.0 
-4.786422413311e-05 -4.173521444191e-06 0.0 
-4.173521444191e-06 9.627072531030e-04 0.0 
0.0 0.0 0.0 
-5.060924325991e-05 9.790400905977e-07 0.0 
9.790400905977e-07 9.626846632320e-04 0.0 
0.0 0.0 0.0 
-5.698618347078e-05 9.849211980439e-06 0.0 
9.849211980439e-06 9.652593582483e-04 0.0 
0.0 0.0 0.0 
-5.948064954494e-05 1.864407286945e-05 0.0 
1.864407286945e-05 9.533462728172e-04 0.0 
0.0 0.0 0.0 
-7.334569090495e-05 1.490186195316e-05 0.0 
1.490186195316e-05 1.022600608448e-03 0.0 
0.0 0.0 0.0 
-7.172019964113e-05 7.990314946999e-06 0.0 
7.990314946999e-06 1.035297913317e-03 0.0 
0.0 0.0 0.0 
-6.647470143674e-05 1.026856084688e-06 0.0 
1.026856084688e-06 1.033238592700e-03 0.0 
0.0 0.0 0.0 
-6.324157392360e-05 -3.260691461257e-06 0.0 
-3.260691461257e-06 1.033082332932e-03 0.0 
0.0 0.0 0.0 
-6.039984585504e-05 -5.728795514890e-06 0.0 
-5.728795514890e-06 1.033085844194e-03 0.0 
0.0 0.0 0.0 
-5.849880993658e-05 -7.309401010213e-06 0.0 
-7.309401010213e-06 1.032912587687e-03 0.0 
0.0 0.0 0.0 
-5.715890325294e-05 -7.963552029518e-06 0.0 
-7.963552029518e-06 1.033002318277e-03 0.0 
0.0 0.0 0.0 
-5.617051990164e-05 -8.023592638441e-06 0.0 
-8.023592638441e-06 1.032967378540e-03 0.0 
0.0 0.0 0.0 
-5.546224087037e-05 -7.739383039945e-06 0.0 
-7.739383039945e-06 1.032893602015e-03 0.0 
0.0 0.0 0.0 
-5.493868331628e-05 -7.263351612753e-06 0.0 
-7.263351612753e-06 1.032802304666e-03 0.0 
0.0 0.0 0.0 
-5.462153195551e-05 -6.666375144517e-06 0.0 
-6.666375144517e-06 1.032773363306e-03 0.0 
0.0 0.0 0.0 
-5.444817516716e-05 -5.909600624110e-06 0.0 
-5.909600624110e-06 1.032759889730e-03 0.0 
0.0 0.0 0.0 
-5.427155655711e-05 -5.083075256271e-06 0.0 
-5.083075256271e-06 1.032674534164e-03 0.0 
0.0 0.0 0.0 
-5.417844819278e-05 -4.271519001461e-06 0.0 
-4.271519001461e-06 1.032590974477e-03 0.0 
0.0 0.0 0.0 
-5.415472525340e-05 -3.492075667324e-06 0.0 
-3.492075667324e-06 1.032561423318e-03 0.0 
0.0 0.0 0.0 
-5.423298714409e-05 -2.766880119149e-06 0.0 
-2.766880119149e-06 1.032595734228e-03 0.0 
0.0 0.0 0.0 
-5.435825104696e-05 -2.188508382366e-06 0.0 
-2.188508382366e-06 1.032649386583e-03 0.0 
0.0 0.0 0.0 
-5.445874719834e-05 -1.823718284183e-06 0.0 
-1.823718284183e-06 1.032557888814e-03 0.0 
0.0 0.0 0.0 
-5.431977660882e-05 1.615407387787e-06 0.0 
1.615407387787e-06 1.032265241059e-03 0.0 
0.0 0.0 0.0 
-5.491010417671e-05 7.982686770864e-07 0.0 
7.982686770864e-07 1.097019091362e-03 0.0 
0.0 0.0 0.0 
-5.500342028939e-05 -1.515298796263e-06 0.0 
-1.515298796263e-06 1.097125252654e-03 0.0 
0.0 0.0 0.0 
-5.523244751597e-05 -2.373168476947e-06 0.0 
-2.373168476947e-06 1.097274407513e-03 0.0 
0.0 0.0 0.0 
-5.560099299902e-05 -2.989200913032e-06 0.0 
-2.989200913032e-06 1.097501880185e-03 0.0 
0.0 0.0 0.0 
-5.602202202720e-05 -3.592632325651e-06 0.0 
-3.592632325651e-06 1.097717225281e-03 0.0 
0.0 0.0 0.0 
-5.671930454624e-05 -4.255322361777e-06 0.0 
-4.255322361777e-06 1.098069839220e-03 0.0 
0.0 0.0 0.0 
-5.755601575278e-05 -4.877430695418e-06 0.0 
-4.877430695418e-06 1.098478367726e-03 0.0 
0.0 0.0 0.0 
-5.862809517302e-05 -5.582215351408e-06 0.0 
-5.582215351408e-06 1.098864959696e-03 0.0 
0.0 0.0 0.0 
-5.977454428367e-05 -5.976296794546e-06 0.0 
-5.976296794546e-06 1.099106410161e-03 0.0 
0.0 0.0 0.0 
-6.135774767942e-05 -6.116055446766e-06 0.0 
-6.116055446766e-06 1.099603466306e-03 0.0 
0.0 0.0 0.0 
-6.322862910885e-05 -6.090444236489e-06 0.0 
-6.090444236489e-06 1.100092831135e-03 0.0 
0.0 0.0 0.0 
-6.539374850569e-05 -5.604363191153e-06 0.0 
-5.604363191153e-06 1.100449035066e-03 0.0 
0.0 0.0 0.0 
-6.807227635632e-05 -4.508032451994e-06 0.0 
-4.508032451994e-06 1.100783705458e-03 0.0 
0.0 0.0 0.0 
-7.112944761291e-05 -2.481854745285e-06 0.0 
-2.481854745285e-06 1.100582405724e-03 0.0 
0.0 0.0 0.0 
-7.448597424288e-05 1.340246957607e-06 0.0 
1.340246957607e-06 1.100776609720e-03 0.0 
0.0 0.0 0.0 
-7.957012782973e-05 6.815999934681e-06 0.0 
6.815999934681e-06 1.103430624149e-03 0.0 
0.0 0.0 0.0 
-8.135668580197e-05 1.192495228138e-05 0.0 
1.192495228138e-05 1.090902156649e-03 0.0 
0.0 0.0 0.0 
-8.452085599990e-05 1.169319213958e-05 0.0 
1.169319213958e-05 1.157038291238e-03 0.0 
0.0 0.0 0.0 
-8.296295275482e-05 7.704962738828e-06 0.0 
7.704962738828e-06 1.169363153493e-03 0.0 
0.0 0.0 0.0 
-7.839985026503e-05 3.461554963345e-06 0.0 
3.461554963345e-06 1.167167419936e-03 0.0 
0.0 0.0 0.0 
-7.428954679846e-05 8.593584853428e-07 0.0 
8.593584853428e-07 1.166797028316e-03 0.0 
0.0 0.0 0.0 
-7.096158246633e-05 -9.998374327726e-07 0.0 
-9.998374327726e-07 1.166515349647e-03 0.0 
0.0 0.0 0.0 
-6.800250271505e-05 -1.960074590504e-06 0.0 
-1.960074590504e-06 1.166029641871e-03 0.0 
0.0 0.0 0.0 
-6.540647700209e-05 -2.501681950132e-06 0.0 
-2.501681950132e-06 1.165208270754e-03 0.0 
0.0 0.0 0.0 
-6.318395949745e-05 -2.958111852437e-06 0.0 
-2.958111852437e-06 1.164613945445e-03 0.0 
0.0 0.0 0.0 
-6.103434926621e-05 -2.756159983763e-06 0.0 
-2.756159983763e-06 1.164121222607e-03 0.0 
0.0 0.0 0.0 
-5.955555031358e-05 -2.715266383486e-06 0.0 
-2.715266383486e-06 1.163394874875e-03 0.0 
0.0 0.0 0.0 
-5.816867152060e-05 -2.363899927449e-06 0.0 
-2.363899927449e-06 1.162827259359e-03 0.0 
0.0 0.0 0.0 
-5.710669569679e-05 -2.265861215910e-06 0.0 
-2.265861215910e-06 1.162292758385e-03 0.0 
0.0 0.0 0.0 
-5.638523568348e-05 -1.815779810105e-06 0.0 
-1.815779810105e-06 1.162036686532e-03 0.0 
0.0 0.0 0.0 
-5.564135973285e-05 -1.570587605525e-06 0.0 
-1.570587605525e-06 1.161473371962e-03 0.0 
0.0 0.0 0.0 
-5.527208606850e-05 -1.696725215241e-06 0.0 
-1.696725215241e-06 1.161630415765e-03 0.0 
0.0 0.0 0.0 
-5.547837876912e-05 2.131833928887e-06 0.0 
2.131833928887e-06 1.161881261355e-03 0.0 
0.0 0.0 0.0 
-9.763280517553e-05 1.040711385621e-04 0.0 
1.040711385621e-04 1.080242639272e-04 0.0 
0.0 0.0 0.0 
-1.048295050623e-04 1.538999118302e-04 0.0 
1.538999118302e-04 2.798382687469e-04 0.0 
0.0 0.0 0.0 
-9.696900546141e-05 1.637043096366e-04 0.0 
1.637043096366e-04 4.785150197138e-04 0.0 
0.0 0.0 0.0 
-9.150475140673e-05 1.502761558266e-04 0.0 
1.502761558266e-04 6.879963946578e-04 0.0 
0.0 0.0 0.0 
-7.002128145409e-05 6.856381848285e-05 0.0 
6.856381848285e-05 8.592600052927e-04 0.0 
0.0 0.0 0.0 
-7.095957156085e-05 4.823205165280e-05 0.0 
4.823205165280e-05 9.310087930068e-04 0.0 
0.0 0.0 0.0 
-8.196527748348e-05 3.609735767746e-05 0.0 
3.609735767746e-05 1.000332702591e-03 0.0 
0.0 0.0 0.0 
-8.830144944028e-05 2.741593711394e-05 0.0 
2.741593711394e-05 1.068602094546e-03 0.0 
0.0 0.0 0.0 
-9.166324930206e-05 2.226566288540e-05 0.0 
2.226566288540e-05 1.135759836541e-03 0.0 
0.0 0.0 0.0 
-9.146041433076e-05 2.033366881277e-05 0.0 
2.033366881277e-05 1.202071194526e-03 0.0 
0.0 0.0 0.0 
-7.243967593705e-05 1.453707838661e-04 0.0 
1.453707838661e-04 3.355049811320e-04 0.0 
0.0 0.0 0.0 
1.699328022723e-05 1.657600202488e-04 0.0 
1.657600202488e-04 1.334904513473e-03 0.0 
0.0 0.0 0.0 
-4.075227696158e-05 -1.138800683543e-05 0.0 
-1.138800683543e-05 5.528191955480e-05 0.0 
0.0 0.0 0.0 
-8.005626475366e-05 -1.105932510679e-05 0.0 
-1.105932510679e-05 7.070144393443e-05 0.0 
0.0 0.0 0.0 
1.901894934531e-05 1.117486619066e-04 0.0 
1.117486619066e-04 1.259658516150e-03 0.0 
0.0 0.0 0.0 
-8.003578154251e-05 1.562726308937e-04 0.0 
1.562726308937e-04 7.407597420919e-04 0.0 
0.0 0.0 0.0 
7.466325685576e-05 1.445191594435e-07 0.0 
1.445191594435e-07 6.087604237717e-04 0.0 
0.0 0.0 0.0 
8.999063716526e-06 1.979736269276e-04 0.0 
1.979736269276e-04 1.424648451155e-03 0.0 
0.0 0.0 0.0 
-9.522060402952e-05 7.363710045177e-05 0.0 
7.363710045177e-05 9.720900529258e-04 0.0 
0.0 0.0 0.0 
-3.787294237242e-06 2.043789069773e-04 0.0 
2.043789069773e-04 1.535948479014e-03 0.0 
0.0 0.0 0.0 
-1.008629201929e-04 3.999314084120e-05 0.0 
3.999314084120e-05 1.117661703537e-03 0.0 
0.0 0.0 0.0 
1.716556106390e-05 6.831998172863e-05 0.0 
6.831998172863e-05 1.231593605961e-03 0.0 
0.0 0.0 0.0 
-1.436716639961e-05 -6.651194211422e-06 0.0 
-6.651194211422e-06 4.210252160149e-05 0.0 
0.0 0.0 0.0 
-1.450581519282e-05 1.799179498180e-04 0.0 
1.799179498180e-04 1.637489454350e-03 0.0 
0.0 0.0 0.0 
-9.761936316519e-05 2.963954917671e-05 0.0 
2.963954917671e-05 1.254054191613e-03 0.0 
0.0 0.0 0.0 
5.244073849982e-05 -2.125582382788e-06 0.0 
-2.125582382788e-06 3.655427117141e-04 0.0 
0.0 0.0 0.0 
7.392144107927e-05 3.331872091850e-06 0.0 
3.331872091850e-06 7.869019636253e-04 0.0 
0.0 0.0 0.0 
-1.959452715368e-05 1.478404111337e-04 0.0 
1.478404111337e-04 1.692107082359e-03 0.0 
0.0 0.0 0.0 
-1.734968667864e-05 1.030645456501e-04 0.0 
1.030645456501e-04 1.742384775792e-03 0.0 
0.0 0.0 0.0 
-1.036326733126e-05 2.863068378479e-05 0.0 
2.863068378479e-05 1.775516133640e-03 0.0 
0.0 0.0 0.0 
-1.368221285991e-05 4.914783685012e-05 0.0 
4.914783685012e-05 1.766093311477e-03 0.0 
0.0 0.0 0.0 
-1.500826210129e-05 7.318294987374e-05 0.0 
7.318294987374e-05 1.762073676479e-03 0.0 
0.0 0.0 0.0 
-8.631618369300e-05 1.830850776208e-05 0.0 
1.830850776208e-05 1.286780322382e-03 0.0 
0.0 0.0 0.0 
-6.991773608841e-05 6.496330923025e-06 0.0 
6.496330923025e-06 1.287168489733e-03 0.0 
0.0 0.0 0.0 
-6.133855722647e-05 2.907737513749e-06 0.0 
2.907737513749e-06 1.289196984664e-03 0.0 
0.0 0.0 0.0 
-4.306582063305e-05 1.323935576478e-06 0.0 
1.323935576478e-06 1.506049589587e-03 0.0 
0.0 0.0 0.0 
1.566444494076e-05 3.938767572683e-05 0.0 
3.938767572683e-05 1.214740715570e-03 0.0 
0.0 0.0 0.0 
-8.550902539783e-05 1.306635454564e-05 0.0 
1.306635454564e-05 8.111482444484e-05 0.0 
0.0 0.0 0.0 
-1.936138599723e-06 -3.743878344068e-06 0.0 
-3.743878344068e-06 3.956364869899e-05 0.0 
0.0 0.0 0.0 
5.179612744085e-05 5.653560715988e-06 0.0 
5.653560715988e-06 1.006875168291e-03 0.0 
0.0 0.0 0.0 
-5.623488334583e-05 1.420922140190e-06 0.0 
1.420922140190e-06 1.279785042044e-03 0.0 
0.0 0.0 0.0 
2.338388123329e-05 -2.910929684700e-06 0.0 
-2.910929684700e-06 1.869258594603e-04 0.0 
0.0 0.0 0.0 
-2.181884664698e-05 1.230605123384e-04 0.0 
1.230605123384e-04 1.714129207550e-03 0.0 
0.0 0.0 0.0 
2.643522145629e-06 2.061150652510e-04 0.0 
2.061150652510e-04 1.484954337864e-03 0.0 
0.0 0.0 0.0 
-9.941367034379e-06 1.953675643504e-04 0.0 
1.953675643504e-04 1.589936675420e-03 0.0 
0.0 0.0 0.0 
1.448842970807e-05 1.853640624830e-04 0.0 
1.853640624830e-04 1.375789816535e-03 0.0 
0.0 0.0 0.0 
1.715197786933e-05 1.447208941584e-04 0.0 
1.447208941584e-04 1.301935495289e-03 0.0 
0.0 0.0 0.0 
-6.420869087420e-05 -1.271576416530e-05 0.0 
-1.271576416530e-05 6.700454753121e-05 0.0 
0.0 0.0 0.0 
-7.731835963842e-05 1.071458578099e-05 0.0 
1.071458578099e-05 1.285708353982e-03 0.0 
0.0 0.0 0.0 
2.070461445085e-05 8.773976647530e-05 0.0 
8.773976647530e-05 1.228334410035e-03 0.0 
0.0 0.0 0.0 
-3.166174770969e-05 2.530009515774e-06 0.0 
2.530009515774e-06 1.622576872931e-03 0.0 
0.0 0.0 0.0 
-2.604111037548e-05 -1.047929055173e-05 0.0 
-1.047929055173e-05 5.014221457037e-05 0.0 
0.0 0.0 0.0 
6.657765523529e-05 -1.381937440098e-06 0.0 
-1.381937440098e-06 4.817242114723e-04 0.0 
0.0 0.0 0.0 
-8.272657638186e-06 1.772023821973e-05 0.0 
1.772023821973e-05 1.785081900588e-03 0.0 
0.0 0.0 0.0 
-9.022708819198e-05 1.165252606328e-04 0.0 
1.165252606328e-04 8.878576161436e-04 0.0 
0.0 0.0 0.0 
-6.984658972137e-05 1.638212887814e-04 0.0 
1.638212887814e-04 5.322841512967e-04 0.0 
0.0 0.0 0.0 
-9.941627541001e-05 5.366992926274e-05 0.0 
5.366992926274e-05 1.047335830611e-03 0.0 
0.0 0.0 0.0 
-1.004330262260e-04 3.262368285303e-05 0.0 
3.262368285303e-05 1.185899237155e-03 0.0 
0.0 0.0 0.0 
-7.776882893408e-05 1.012976609966e-04 0.0 
1.012976609966e-04 1.582157173287e-04 0.0 
0.0 0.0 0.0 
-5.044724050150e-05 9.135977397428e-07 0.0 
9.135977397428e-07 1.390054581378e-03 0.0 
0.0 0.0 0.0 
1.204503636938e-05 2.162957490834e-05 0.0 
2.162957490834e-05 1.222839739548e-03 0.0 
0.0 0.0 0.0 
2.465109755601e-06 -5.606280499584e-07 0.0 
-5.606280499584e-07 3.501039128577e-05 0.0 
0.0 0.0 0.0 
-1.497724880757e-05 4.500722480519e-06 0.0 
4.500722480519e-06 1.734897380651e-03 0.0 
0.0 0.0 0.0 
-9.587948450493e-05 2.928005208835e-05 0.0 
2.928005208835e-05 1.284822270726e-03 0.0 
0.0 0.0 0.0 
-9.898455186915e-05 3.974256453276e-05 0.0 
3.974256453276e-05 1.306125456066e-03 0.0 
0.0 0.0 0.0 
-9.459624850791e-05 3.762266081123e-05 0.0 
3.762266081123e-05 1.337644344225e-03 0.0 
0.0 0.0 0.0 
-9.796598104996e-05 5.044542443824e-05 0.0 
5.044542443824e-05 1.360179698458e-03 0.0 
0.0 0.0 0.0 
-9.364926089108e-05 4.897819229921e-05 0.0 
4.897819229921e-05 1.394926682298e-03 0.0 
0.0 0.0 0.0 
-9.459415873057e-05 6.121037435622e-05 0.0 
6.121037435622e-05 1.413227149832e-03 0.0 
0.0 0.0 0.0 
-9.902955043267e-05 6.399495380423e-05 0.0 
6.399495380423e-05 1.377540680051e-03 0.0 
0.0 0.0 0.0 
-9.383254323575e-05 7.475278457532e-05 0.0 
7.475278457532e-05 1.429005359179e-03 0.0 
0.0 0.0 0.0 
-9.796757600720e-05 7.852011948769e-05 0.0 
7.852011948769e-05 1.391330925106e-03 0.0 
0.0 0.0 0.0 
-8.912162478703e-05 5.937235173256e-05 0.0 
5.937235173256e-05 1.448492008253e-03 0.0 
0.0 0.0 0.0 
-9.121336657147e-05 8.883568453459e-05 0.0 
8.883568453459e-05 1.441696945225e-03 0.0 
0.0 0.0 0.0 
-9.473822631304e-05 9.346869961095e-05 0.0 
9.346869961095e-05 1.401827804384e-03 0.0 
0.0 0.0 0.0 
-8.658928375823e-05 1.032014359985e-04 0.0 
1.032014359985e-04 1.451229807474e-03 0.0 
0.0 0.0 0.0 
-8.926188758975e-05 1.084238616636e-04 0.0 
1.084238616636e-04 1.409035666435e-03 0.0 
0.0 0.0 0.0 
-9.685982138954e-05 9.943817280447e-05 0.0 
9.943817280447e-05 1.360336985703e-03 0.0 
0.0 0.0 0.0 
-9.012524577403e-05 1.149262523528e-04 0.0 
1.149262523528e-04 1.364764093845e-03 0.0 
0.0 0.0 0.0 
-9.734976107647e-05 1.068583824943e-04 0.0 
1.068583824943e-04 1.316750374458e-03 0.0 
0.0 0.0 0.0 
-8.899776537844e-05 1.227696891993e-04 0.0 
1.227696891993e-04 1.317953417385e-03 0.0 
0.0 0.0 0.0 
-8.104983244080e-05 1.293600389685e-04 0.0 
1.293600389685e-04 1.366015616755e-03 0.0 
0.0 0.0 0.0 
-7.810365749844e-05 1.370005953674e-04 0.0 
1.370005953674e-04 1.315815810681e-03 0.0 
0.0 0.0 0.0 
-8.552204302942e-05 1.319430020331e-04 0.0 
1.319430020331e-04 1.267996331897e-03 0.0 
0.0 0.0 0.0 
-7.250039533800e-05 1.457060973434e-04 0.0 
1.457060973434e-04 1.262177719682e-03 0.0 
0.0 0.0 0.0 
-7.941971361837e-05 1.424120614143e-04 0.0 
1.424120614143e-04 1.214476839291e-03 0.0 
0.0 0.0 0.0 
-6.407748576346e-05 1.550100698378e-04 0.0 
1.550100698378e-04 1.204750905819e-03 0.0 
0.0 0.0 0.0 
-7.037942848318e-05 1.537006455699e-04 0.0 
1.537006455699e-04 1.156507022391e-03 0.0 
0.0 0.0 0.0 
-5.260220452872e-05 1.643568858066e-04 0.0 
1.643568858066e-04 1.142944897757e-03 0.0 
0.0 0.0 0.0 
-4.734317360448e-05 1.640251044784e-04 0.0 
1.640251044784e-04 1.193620812978e-03 0.0 
0.0 0.0 0.0 
-3.404974312058e-05 1.708858238109e-04 0.0 
1.708858238109e-04 1.128858796116e-03 0.0 
0.0 0.0 0.0 
-3.788613797168e-05 1.729524902429e-04 0.0 
1.729524902429e-04 1.076462792185e-03 0.0 
0.0 0.0 0.0 
-1.802913332951e-05 1.761538619168e-04 0.0 
1.761538619168e-04 1.060121256269e-03 0.0 
0.0 0.0 0.0 
-2.021885291777e-05 1.794617040645e-04 0.0 
1.794617040645e-04 1.005278972289e-03 0.0 
0.0 0.0 0.0 
2.081824507782e-07 1.787498386617e-04 0.0 
1.787498386617e-04 9.875727215152e-04 0.0 
0.0 0.0 0.0 
6.900391128865e-07 1.756797909062e-04 0.0 
1.756797909062e-04 1.045785071832e-03 0.0 
0.0 0.0 0.0 
1.862227407275e-05 1.745943420791e-04 0.0 
1.745943420791e-04 9.733742935585e-04 0.0 
0.0 0.0 0.0 
1.976087512075e-05 1.774646408256e-04 0.0 
1.774646408256e-04 9.117741780542e-04 0.0 
0.0 0.0 0.0 
3.703610768605e-05 1.698216639108e-04 0.0 
1.698216639108e-04 8.993508315969e-04 0.0 
0.0 0.0 0.0 
3.933577409646e-05 1.716312968038e-04 0.0 
1.716312968038e-04 8.344791777377e-04 0.0 
0.0 0.0 0.0 
5.486338279955e-05 1.611795045586e-04 0.0 
1.611795045586e-04 8.250617026881e-04 0.0 
0.0 0.0 0.0 
5.780113487393e-05 1.612872746936e-04 0.0 
1.612872746936e-04 7.571929389103e-04 0.0 
0.0 0.0 0.0 
7.098990584079e-05 1.484318093584e-04 0.0 
1.484318093584e-04 7.513319384976e-04 0.0 
0.0 0.0 0.0 
6.739661339050e-05 1.498285933875e-04 0.0 
1.498285933875e-04 8.201824129494e-04 0.0 
0.0 0.0 0.0 
8.126265463933e-05 1.356163891959e-04 0.0 
1.356163891959e-04 7.500292665125e-04 0.0 
0.0 0.0 0.0 
8.421641013800e-05 1.320670525071e-04 0.0 
1.320670525071e-04 6.797502281933e-04 0.0 
0.0 0.0 0.0 
9.217848374525e-05 1.186088798112e-04 0.0 
1.186088798112e-04 6.824508796501e-04 0.0 
0.0 0.0 0.0 
8.907445855725e-05 1.234724479694e-04 0.0 
1.234724479694e-04 7.529210165139e-04 0.0 
0.0 0.0 0.0 
9.790838752914e-05 1.064223629673e-04 0.0 
1.064223629673e-04 6.890347623209e-04 0.0 
0.0 0.0 0.0 
9.461552509675e-05 1.123932497762e-04 0.0 
1.123932497762e-04 7.594599119228e-04 0.0 
0.0 0.0 0.0 
1.016900579409e-04 9.565274794269e-05 0.0 
9.565274794269e-05 6.989303402193e-04 0.0 
0.0 0.0 0.0 
1.033632058938e-04 8.816794532528e-05 0.0 
8.816794532528e-05 6.292863179147e-04 0.0 
0.0 0.0 0.0 
1.056837288563e-04 7.821572077071e-05 0.0 
7.821572077071e-05 6.422606648016e-04 0.0 
0.0 0.0 0.0 
1.038127389447e-04 8.625327758773e-05 0.0 
8.625327758773e-05 7.115071657527e-04 0.0 
0.0 0.0 0.0 
1.066388130746e-04 6.967317217276e-05 0.0 
6.967317217276e-05 6.573617209845e-04 0.0 
0.0 0.0 0.0 
1.065205966361e-04 6.068622938836e-05 0.0 
6.068622938836e-05 5.895501941630e-04 0.0 
0.0 0.0 0.0 
1.067179174222e-04 5.352798016889e-05 0.0 
5.352798016889e-05 6.071148222367e-04 0.0 
0.0 0.0 0.0 
1.064677786858e-04 6.262800573957e-05 0.0 
6.262800573957e-05 6.746220448111e-04 0.0 
0.0 0.0 0.0 
1.060000710625e-04 4.765846089308e-05 0.0 
4.765846089308e-05 6.263664032693e-04 0.0 
0.0 0.0 0.0 
1.042265402132e-04 3.815805825267e-05 0.0 
3.815805825267e-05 5.605178662211e-04 0.0 
0.0 0.0 0.0 
1.033252174081e-04 3.368843236904e-05 0.0 
3.368843236904e-05 5.814090734558e-04 0.0 
0.0 0.0 0.0 
1.045528025994e-04 4.300007751056e-05 0.0 
4.300007751056e-05 6.473912459672e-04 0.0 
0.0 0.0 0.0 
1.018503492640e-04 3.015134596104e-05 0.0 
3.015134596104e-05 6.034134266526e-04 0.0 
0.0 0.0 0.0 
9.872772722863e-05 2.099863804781e-05 0.0 
2.099863804781e-05 5.392185386078e-04 0.0 
0.0 0.0 0.0 
9.749647261870e-05 1.876653983666e-05 0.0 
1.876653983666e-05 5.620837607745e-04 0.0 
0.0 0.0 0.0 
9.993143463645e-05 2.756463382249e-05 0.0 
2.756463382249e-05 6.266742422075e-04 0.0 
0.0 0.0 0.0 
9.591052369828e-05 1.720161449775e-05 0.0 
1.720161449775e-05 5.858048034201e-04 0.0 
0.0 0.0 0.0 
9.757561510012e-05 2.561771407180e-05 0.0 
2.561771407180e-05 6.508037349211e-04 0.0 
0.0 0.0 0.0 
9.173861550168e-05 8.846306377353e-06 0.0 
8.846306377353e-06 5.224752037729e-04 0.0 
0.0 0.0 0.0 
9.073176280994e-05 8.313158730665e-06 0.0 
8.313158730665e-06 5.467680306741e-04 0.0 
0.0 0.0 0.0 
8.490831669827e-05 6.829782399971e-07 0.0 
6.829782399971e-07 4.845484326154e-04 0.0 
0.0 0.0 0.0 
8.465104327560e-05 1.101607015349e-06 0.0 
1.101607015349e-06 5.094596588905e-04 0.0 
0.0 0.0 0.0 
1.751050723390e-05 1.724392753061e-04 0.0 
1.724392753061e-04 1.034460197817e-03 0.0 
0.0 0.0 0.0 
7.746043215421e-05 -5.588908753332e-06 0.0 
-5.588908753332e-06 4.484034243222e-04 0.0 
0.0 0.0 0.0 
7.662727559121e-05 -6.450420212356e-06 0.0 
-6.450420212356e-06 4.244192793384e-04 0.0 
0.0 0.0 0.0 
7.801582942383e-05 -4.410227080147e-06 0.0 
-4.410227080147e-06 4.736229185481e-04 0.0 
0.0 0.0 0.0 
8.411704586401e-05 1.837522641648e-06 0.0 
1.837522641648e-06 5.352528120891e-04 0.0 
0.0 0.0 0.0 
6.969960165396e-05 -1.011599293494e-05 0.0 
-1.011599293494e-05 4.134595836151e-04 0.0 
0.0 0.0 0.0 
7.108448717907e-05 -8.304856195728e-06 0.0 
-8.304856195728e-06 4.388785145913e-04 0.0 
0.0 0.0 0.0 
6.178686745732e-05 -1.286819037821e-05 0.0 
-1.286819037821e-05 3.796171360034e-04 0.0 
0.0 0.0 0.0 
4.159361968459e-05 1.734798082115e-04 0.0 
1.734798082115e-04 7.671968349400e-04 0.0 
0.0 0.0 0.0 
-7.003211922294e-05 1.421571228059e-04 0.0 
1.421571228059e-04 1.364655787566e-03 0.0 
0.0 0.0 0.0 
6.401307581131e-05 -1.059128331037e-05 0.0 
-1.059128331037e-05 4.050609322801e-04 0.0 
0.0 0.0 0.0 
5.404565609616e-05 -1.412889815246e-05 0.0 
-1.412889815246e-05 3.465194690167e-04 0.0 
0.0 0.0 0.0 
5.066576815919e-05 -1.648482772819e-05 0.0 
-1.648482772819e-05 3.214763235965e-04 0.0 
0.0 0.0 0.0 
4.272407638288e-05 -1.659790174500e-05 0.0 
-1.659790174500e-05 2.888987710285e-04 0.0 
0.0 0.0 0.0 
-8.821599977691e-05 4.774241425041e-05 0.0 
4.774241425041e-05 1.428724571439e-03 0.0 
0.0 0.0 0.0 
-8.274594164272e-05 5.808210466456e-05 0.0 
5.808210466456e-05 1.483337476348e-03 0.0 
0.0 0.0 0.0 
-8.227028319530e-05 4.652574173991e-05 0.0 
4.652574173991e-05 1.461183583574e-03 0.0 
0.0 0.0 0.0 
-7.602113303882e-05 5.677082652938e-05 0.0 
5.677082652938e-05 1.517453807404e-03 0.0 
0.0 0.0 0.0 
-7.588155177289e-05 4.598506847147e-05 0.0 
4.598506847147e-05 1.495550407951e-03 0.0 
0.0 0.0 0.0 
4.677013561386e-05 -1.411799742065e-05 0.0 
-1.411799742065e-05 3.137253234008e-04 0.0 
0.0 0.0 0.0 
-8.219295517881e-05 9.918963793912e-05 0.0 
9.918963793912e-05 1.491971854106e-03 0.0 
0.0 0.0 0.0 
-7.503893180353e-05 6.835841689193e-05 0.0 
6.835841689193e-05 1.537106992381e-03 0.0 
0.0 0.0 0.0 
-9.230389719260e-05 1.264089406882e-04 0.0 
1.264089406882e-04 1.221529410291e-03 0.0 
0.0 0.0 0.0 
-4.177488490620e-05 1.756312479001e-04 0.0 
1.756312479001e-04 1.025206902019e-03 0.0 
0.0 0.0 0.0 
8.470311930716e-05 1.277383538027e-04 0.0 
1.277383538027e-04 8.232945843387e-04 0.0 
0.0 0.0 0.0 
7.217775352153e-05 -6.438311623889e-06 0.0 
-6.438311623889e-06 4.646767763987e-04 0.0 
0.0 0.0 0.0 
6.590834673799e-05 -8.235958861235e-06 0.0 
-8.235958861235e-06 4.308595767798e-04 0.0 
0.0 0.0 0.0 
7.290064760113e-05 -4.657651238071e-06 0.0 
-4.657651238071e-06 4.909236878207e-04 0.0 
0.0 0.0 0.0 
9.988850730983e-05 3.636274728435e-05 0.0 
3.636274728435e-05 6.930918243409e-04 0.0 
0.0 0.0 0.0 
9.676426142384e-05 3.400378977169e-05 0.0 
3.400378977169e-05 7.173731930107e-04 0.0 
0.0 0.0 0.0 
9.739364105010e-05 4.506853941055e-05 0.0 
4.506853941055e-05 7.609939628752e-04 0.0 
0.0 0.0 0.0 
9.350768213275e-05 4.225745986705e-05 0.0 
4.225745986705e-05 7.853432810425e-04 0.0 
0.0 0.0 0.0 
9.247599558234e-05 5.356854639907e-05 0.0 
5.356854639907e-05 8.302042266947e-04 0.0 
0.0 0.0 0.0 
8.784739843123e-05 5.031721553110e-05 0.0 
5.031721553110e-05 8.546857553510e-04 0.0 
0.0 0.0 0.0 
8.920202985974e-05 3.966313468610e-05 0.0 
3.966313468610e-05 8.105819027384e-04 0.0 
0.0 0.0 0.0 
8.274433934448e-05 4.713648079296e-05 0.0 
4.713648079296e-05 8.801353878430e-04 0.0 
0.0 0.0 0.0 
8.455093703508e-05 3.714791768334e-05 0.0 
3.714791768334e-05 8.366190677311e-04 0.0 
0.0 0.0 0.0 
8.520793492639e-05 6.184666714926e-05 0.0 
6.184666714926e-05 9.006611748065e-04 0.0 
0.0 0.0 0.0 
9.001572500393e-05 6.568295283519e-05 0.0 
6.568295283519e-05 8.770451436041e-04 0.0 
0.0 0.0 0.0 
7.729756798340e-05 4.394908799554e-05 0.0 
4.394908799554e-05 9.064079360845e-04 0.0 
0.0 0.0 0.0 
7.962702378876e-05 3.460197547436e-05 0.0 
3.460197547436e-05 8.634151462125e-04 0.0 
0.0 0.0 0.0 
7.160018113047e-05 4.069517083785e-05 0.0 
4.069517083785e-05 9.335478267067e-04 0.0 
0.0 0.0 0.0 
7.451172564236e-05 3.182381519836e-05 0.0 
3.182381519836e-05 8.909030848950e-04 0.0 
0.0 0.0 0.0 
8.094947158895e-05 2.625642798059e-05 0.0 
2.625642798059e-05 8.217714302743e-04 0.0 
0.0 0.0 0.0 
7.653175584932e-05 2.400511992421e-05 0.0 
2.400511992421e-05 8.494254930985e-04 0.0 
0.0 0.0 0.0 
8.138254982752e-05 1.900748448423e-05 0.0 
1.900748448423e-05 7.816650401430e-04 0.0 
0.0 0.0 0.0 
8.992406155439e-05 1.178507716889e-04 0.0 
1.178507716889e-04 8.299245616276e-04 0.0 
0.0 0.0 0.0 
7.934789681763e-05 1.318729538980e-04 0.0 
1.318729538980e-04 8.935268770847e-04 0.0 
0.0 0.0 0.0 
8.409016211045e-05 1.231758260557e-04 0.0 
1.231758260557e-04 9.002792330052e-04 0.0 
0.0 0.0 0.0 
7.312777797604e-05 1.361534252478e-04 0.0 
1.361534252478e-04 9.634496924754e-04 0.0 
0.0 0.0 0.0 
7.714404552950e-05 1.286517690189e-04 0.0 
1.286517690189e-04 9.706169823216e-04 0.0 
0.0 0.0 0.0 
6.600850569923e-05 1.409125482624e-04 0.0 
1.409125482624e-04 1.033211622462e-03 0.0 
0.0 0.0 0.0 
6.899819410544e-05 1.345996061718e-04 0.0 
1.345996061718e-04 1.040904252174e-03 0.0 
0.0 0.0 0.0 
7.907667623519e-05 1.217452533657e-04 0.0 
1.217452533657e-04 9.806372534132e-04 0.0 
0.0 0.0 0.0 
-8.008826900261e-05 1.174542288441e-04 0.0 
1.174542288441e-04 1.457470428847e-03 0.0 
0.0 0.0 0.0 
9.369566970770e-05 1.127804334998e-04 0.0 
1.127804334998e-04 6.118690578161e-04 0.0 
0.0 0.0 0.0 
8.566654033311e-05 1.273588080546e-04 0.0 
1.273588080546e-04 6.090004729256e-04 0.0 
0.0 0.0 0.0 
9.295203030117e-05 1.056228553655e-04 0.0 
1.056228553655e-04 5.413291502743e-04 0.0 
0.0 0.0 0.0 
8.476074614513e-05 1.210407777938e-04 0.0 
1.210407777938e-04 5.381914771057e-04 0.0 
0.0 0.0 0.0 
8.898005072729e-05 9.685887250267e-05 0.0 
9.685887250267e-05 4.712843738797e-04 0.0 
0.0 0.0 0.0 
8.021529943584e-05 1.128405710282e-04 0.0 
1.128405710282e-04 4.680720932766e-04 0.0 
0.0 0.0 0.0 
8.033183868561e-05 8.653033639836e-05 0.0 
8.653033639836e-05 4.023993295912e-04 0.0 
0.0 0.0 0.0 
8.763718427796e-05 7.201799658009e-05 0.0 
7.201799658009e-05 4.107764999949e-04 0.0 
0.0 0.0 0.0 
7.451169011415e-05 6.053615563325e-05 0.0 
6.053615563325e-05 3.438826972120e-04 0.0 
0.0 0.0 0.0 
8.114560072499e-05 4.791389558606e-05 0.0 
4.791389558606e-05 3.569714045979e-04 0.0 
0.0 0.0 0.0 
6.358314212599e-05 3.607803775535e-05 0.0 
3.607803775535e-05 2.926736130022e-04 0.0 
0.0 0.0 0.0 
7.017769662236e-05 2.596982337184e-05 0.0 
2.596982337184e-05 3.094739680998e-04 0.0 
0.0 0.0 0.0 
-3.024528593778e-05 1.697599830114e-04 0.0 
1.697599830114e-04 1.182214425621e-03 0.0 
0.0 0.0 0.0 
6.083478843274e-05 1.476396167935e-04 0.0 
1.476396167935e-04 1.028214168311e-03 0.0 
0.0 0.0 0.0 
5.397828282357e-05 1.520547616583e-04 0.0 
1.520547616583e-04 1.097166036715e-03 0.0 
0.0 0.0 0.0 
4.791918035533e-05 1.575061547954e-04 0.0 
1.575061547954e-04 1.093392929621e-03 0.0 
0.0 0.0 0.0 
3.802345872809e-05 -1.889833780885e-05 0.0 
-1.889833780885e-05 2.642594793809e-04 0.0 
0.0 0.0 0.0 
6.931673142193e-05 2.870238580820e-05 0.0 
2.870238580820e-05 9.190322666173e-04 0.0 
0.0 0.0 0.0 
8.116528815401e-05 7.402157665493e-05 0.0 
7.402157665493e-05 9.486374867698e-04 0.0 
0.0 0.0 0.0 
8.600250047227e-05 7.831541553095e-05 0.0 
7.831541553095e-05 9.257586055873e-04 0.0 
0.0 0.0 0.0 
6.985769762942e-05 1.288212033930e-04 0.0 
1.288212033930e-04 1.051808174432e-03 0.0 
0.0 0.0 0.0 
3.551987936860e-05 -1.545546940750e-05 0.0 
-1.545546940750e-05 2.570049474101e-04 0.0 
0.0 0.0 0.0 
7.028301478296e-05 1.029026816592e-04 0.0 
1.029026816592e-04 3.996762564894e-04 0.0 
0.0 0.0 0.0 
6.823699719949e-05 1.300112053103e-04 0.0 
1.300112053103e-04 4.709194928487e-04 0.0 
0.0 0.0 0.0 
-6.859907548947e-05 5.541128695545e-05 0.0 
5.541128695545e-05 1.550807414442e-03 0.0 
0.0 0.0 0.0 
-6.885147951123e-05 4.539450886768e-05 0.0 
4.539450886768e-05 1.528378488192e-03 0.0 
0.0 0.0 0.0 
7.564400547326e-05 8.675029973863e-05 0.0 
8.675029973863e-05 9.986335529570e-04 0.0 
0.0 0.0 0.0 
4.000757012435e-05 -1.292132356278e-05 0.0 
-1.292132356278e-05 2.814965454789e-04 0.0 
0.0 0.0 0.0 
7.381673921492e-05 5.428822001509e-05 0.0 
5.428822001509e-05 9.510975442421e-04 0.0 
0.0 0.0 0.0 
5.493075143492e-05 4.861636194429e-05 0.0 
4.861636194429e-05 2.796599887419e-04 0.0 
0.0 0.0 0.0 
7.209686380497e-05 2.146255227439e-05 0.0 
2.146255227439e-05 8.776285211328e-04 0.0 
0.0 0.0 0.0 
6.403176572486e-05 2.524402993120e-05 0.0 
2.524402993120e-05 9.476400653834e-04 0.0 
0.0 0.0 0.0 
8.937848165136e-05 3.009803027129e-05 0.0 
3.009803027129e-05 7.683635517932e-04 0.0 
0.0 0.0 0.0 
4.176370510182e-05 1.619154777735e-04 0.0 
1.619154777735e-04 1.161546061186e-03 0.0 
0.0 0.0 0.0 
3.502929064947e-05 1.655114049428e-04 0.0 
1.655114049428e-04 1.158335866116e-03 0.0 
0.0 0.0 0.0 
8.546146546714e-05 3.764443521722e-05 0.0 
3.764443521722e-05 3.736570242083e-04 0.0 
0.0 0.0 0.0 
7.445173354244e-05 1.818776923780e-05 0.0 
1.818776923780e-05 3.289776683316e-04 0.0 
0.0 0.0 0.0 
5.592251151965e-05 7.572314510795e-06 0.0 
7.572314510795e-06 2.693910451839e-04 0.0 
0.0 0.0 0.0 
6.076101604173e-05 2.600047183167e-06 0.0 
2.600047183167e-06 2.907401914903e-04 0.0 
0.0 0.0 0.0 
7.814845572492e-05 1.251108948907e-05 0.0 
1.251108948907e-05 3.496294197755e-04 0.0 
0.0 0.0 0.0 
6.561976249838e-05 -1.580856804691e-06 0.0 
-1.580856804691e-06 3.106603663592e-04 0.0 
0.0 0.0 0.0 
4.683409253684e-05 -1.008368805925e-05 0.0 
-1.008368805925e-05 2.529924979390e-04 0.0 
0.0 0.0 0.0 
5.184769348909e-05 -1.220360005945e-05 0.0 
-1.220360005945e-05 2.747372685432e-04 0.0 
0.0 0.0 0.0 
6.922701686385e-05 -4.232559936518e-06 0.0 
-4.232559936518e-06 3.329204531369e-04 0.0 
0.0 0.0 0.0 
5.657440430740e-05 -1.351771586687e-05 0.0 
-1.351771586687e-05 2.974483567518e-04 0.0 
0.0 0.0 0.0 
3.758478456591e-05 -1.961415401895e-05 0.0 
-1.961415401895e-05 2.408151363843e-04 0.0 
0.0 0.0 0.0 
4.369793083074e-05 -1.956204953997e-05 0.0 
-1.956204953997e-05 2.636276809287e-04 0.0 
0.0 0.0 0.0 
5.967212724785e-05 3.305241579835e-05 0.0 
3.305241579835e-05 9.900106191825e-04 0.0 
0.0 0.0 0.0 
3.955019215178e-05 2.427000539595e-05 0.0 
2.427000539595e-05 2.317860403530e-04 0.0 
0.0 0.0 0.0 
-1.028386691180e-04 8.995472678785e-05 0.0 
8.995472678785e-05 1.311759007474e-03 0.0 
0.0 0.0 0.0 
6.999433048797e-05 8.222475189532e-05 0.0 
8.222475189532e-05 1.021259697699e-03 0.0 
0.0 0.0 0.0 
5.938722464479e-05 1.414494174141e-04 0.0 
1.414494174141e-04 1.111020117378e-03 0.0 
0.0 0.0 0.0 
-6.068370336408e-05 5.405842034980e-05 0.0 
5.405842034980e-05 1.583717917594e-03 0.0 
0.0 0.0 0.0 
-6.148175392477e-05 4.464932778532e-05 0.0 
4.464932778532e-05 1.560873149209e-03 0.0 
0.0 0.0 0.0 
-6.824230035242e-05 3.657913799670e-05 0.0 
3.657913799670e-05 1.504017125110e-03 0.0 
0.0 0.0 0.0 
-6.157984453612e-05 3.624920289121e-05 0.0 
3.624920289121e-05 1.536576022302e-03 0.0 
0.0 0.0 0.0 
-5.383042008428e-05 4.354810371225e-05 0.0 
4.354810371225e-05 1.593111986107e-03 0.0 
0.0 0.0 0.0 
-5.462238354276e-05 3.554486296459e-05 0.0 
3.554486296459e-05 1.568729646503e-03 0.0 
0.0 0.0 0.0 
-6.117139192944e-05 2.879926718396e-05 0.0 
2.879926718396e-05 1.511050874757e-03 0.0 
0.0 0.0 0.0 
-5.484076478618e-05 2.843682142163e-05 0.0 
2.843682142163e-05 1.543168792180e-03 0.0 
0.0 0.0 0.0 
-6.027025950437e-05 2.231760778746e-05 0.0 
2.231760778746e-05 1.484439294217e-03 0.0 
0.0 0.0 0.0 
-5.468308097082e-05 2.227953023649e-05 0.0 
2.227953023649e-05 1.516716151115e-03 0.0 
0.0 0.0 0.0 
-4.836302035227e-05 2.767154742771e-05 0.0 
2.767154742771e-05 1.575101648624e-03 0.0 
0.0 0.0 0.0 
-4.893226838230e-05 2.171250183598e-05 0.0 
2.171250183598e-05 1.548841947794e-03 0.0 
0.0 0.0 0.0 
-5.440875527296e-05 1.704032688512e-05 0.0 
1.704032688512e-05 1.489658858507e-03 0.0 
0.0 0.0 0.0 
-4.931447911684e-05 1.655334656558e-05 0.0 
1.655334656558e-05 1.521952787421e-03 0.0 
0.0 0.0 0.0 
-5.406498391488e-05 1.256499228665e-05 0.0 
1.256499228665e-05 1.461991492864e-03 0.0 
0.0 0.0 0.0 
-4.949270275358e-05 1.212815228293e-05 0.0 
1.212815228293e-05 1.494255840958e-03 0.0 
0.0 0.0 0.0 
-4.407932000825e-05 1.576180972947e-05 0.0 
1.576180972947e-05 1.554120417632e-03 0.0 
0.0 0.0 0.0 
2.926433303507e-05 -1.331332789320e-05 0.0 
-1.331332789320e-05 2.264575302817e-04 0.0 
0.0 0.0 0.0 
7.898736108521e-05 1.156023989367e-04 0.0 
1.156023989367e-04 9.933937682877e-04 0.0 
0.0 0.0 0.0 
6.840233270219e-05 1.236782899599e-04 0.0 
1.236782899599e-04 1.066084281775e-03 0.0 
0.0 0.0 0.0 
6.734550257714e-05 -6.433738498405e-06 0.0 
-6.433738498405e-06 4.586866514258e-04 0.0 
0.0 0.0 0.0 
7.375323573392e-05 -3.260196883453e-06 0.0 
-3.260196883453e-06 5.167392308055e-04 0.0 
0.0 0.0 0.0 
7.806599082201e-05 -1.765575432706e-07 0.0 
-1.765575432706e-07 5.521428282120e-04 0.0 
0.0 0.0 0.0 
7.795639889744e-05 8.577628127129e-07 0.0 
8.577628127129e-07 5.793952709529e-04 0.0 
0.0 0.0 0.0 
-4.501720187206e-05 1.138641592052e-05 0.0 
1.138641592052e-05 1.526358753826e-03 0.0 
0.0 0.0 0.0 
-3.903478872217e-05 1.453139482830e-05 0.0 
1.453139482830e-05 1.586240094122e-03 0.0 
0.0 0.0 0.0 
5.656861624592e-05 1.207512318022e-04 0.0 
1.207512318022e-04 4.040135536341e-04 0.0 
0.0 0.0 0.0 
5.223108826854e-05 1.474350007270e-04 0.0 
1.474350007270e-04 4.815552049739e-04 0.0 
0.0 0.0 0.0 
-5.893476508717e-05 6.444264957669e-05 0.0 
6.444264957669e-05 1.604784682477e-03 0.0 
0.0 0.0 0.0 
6.749916568882e-05 1.837688014063e-05 0.0 
1.837688014063e-05 9.067182968252e-04 0.0 
0.0 0.0 0.0 
7.401022527502e-05 1.526216226769e-05 0.0 
1.526216226769e-05 8.377268285845e-04 0.0 
0.0 0.0 0.0 
-2.246078268855e-05 1.832745562649e-04 0.0 
1.832745562649e-04 9.511679057369e-04 0.0 
0.0 0.0 0.0 
-4.575891543357e-05 1.784290578635e-04 0.0 
1.784290578635e-04 9.751408329276e-04 0.0 
0.0 0.0 0.0 
-2.478519159566e-05 1.871527139013e-04 0.0 
1.871527139013e-04 8.973730700924e-04 0.0 
0.0 0.0 0.0 
-4.989726098451e-05 1.807372056629e-04 0.0 
1.807372056629e-04 9.256077216041e-04 0.0 
0.0 0.0 0.0 
-6.843443177538e-05 1.667384135683e-04 0.0 
1.667384135683e-04 1.000124525353e-03 0.0 
0.0 0.0 0.0 
-2.757325574498e-05 1.905302179545e-04 0.0 
1.905302179545e-04 8.427313527004e-04 0.0 
0.0 0.0 0.0 
9.415669835947e-05 6.975846417899e-05 0.0 
6.975846417899e-05 8.539902088097e-04 0.0 
0.0 0.0 0.0 
-4.184345350594e-05 2.638356543715e-05 0.0 
2.638356543715e-05 1.606897210247e-03 0.0 
0.0 0.0 0.0 
4.666821376694e-05 -1.855150244419e-05 0.0 
-1.855150244419e-05 2.969644311419e-04 0.0 
0.0 0.0 0.0 
3.263896734744e-05 -2.068250538252e-05 0.0 
-2.068250538252e-05 2.403319975694e-04 0.0 
0.0 0.0 0.0 
5.844879467365e-05 2.136770028737e-05 0.0 
2.136770028737e-05 9.773541428406e-04 0.0 
0.0 0.0 0.0 
8.769460493892e-05 1.081742444939e-04 0.0 
1.081742444939e-04 9.220106503035e-04 0.0 
0.0 0.0 0.0 
-4.211457461175e-05 1.645196736622e-04 0.0 
1.645196736622e-04 1.245569394700e-03 0.0 
0.0 0.0 0.0 
-2.642339160593e-05 1.698296319812e-04 0.0 
1.698296319812e-04 1.236501879293e-03 0.0 
0.0 0.0 0.0 
-3.682097148490e-05 1.661718634480e-04 0.0 
1.661718634480e-04 1.298631099484e-03 0.0 
0.0 0.0 0.0 
-2.253072423395e-05 1.714040852984e-04 0.0 
1.714040852984e-04 1.291562183727e-03 0.0 
0.0 0.0 0.0 
-3.135104563645e-05 1.692494443434e-04 0.0 
1.692494443434e-04 1.352616978172e-03 0.0 
0.0 0.0 0.0 
-1.863341181028e-05 1.746938255987e-04 0.0 
1.746938255987e-04 1.347243293976e-03 0.0 
0.0 0.0 0.0 
-9.248025783985e-06 1.747405193434e-04 0.0 
1.747405193434e-04 1.285581902484e-03 0.0 
0.0 0.0 0.0 
3.020288907940e-05 1.706021666531e-04 0.0 
1.706021666531e-04 1.225474530113e-03 0.0 
0.0 0.0 0.0 
-7.203404132664e-06 1.787033918775e-04 0.0 
1.787033918775e-04 1.343446780778e-03 0.0 
0.0 0.0 0.0 
-4.956879090475e-05 8.945851707628e-06 0.0 
8.945851707628e-06 1.465205035160e-03 0.0 
0.0 0.0 0.0 
5.360259411621e-05 1.545284979114e-04 0.0 
1.545284979114e-04 1.025128584728e-03 0.0 
0.0 0.0 0.0 
7.210605039698e-05 -5.830583188619e-06 0.0 
-5.830583188619e-06 3.561824282857e-04 0.0 
0.0 0.0 0.0 
2.397049602102e-05 -1.585034303892e-05 0.0 
-1.585034303892e-05 2.014832254692e-04 0.0 
0.0 0.0 0.0 
2.330424568546e-05 -2.305008886072e-05 0.0 
-2.305008886072e-05 2.069447611612e-04 0.0 
0.0 0.0 0.0 
3.392460408443e-05 -1.076536627856e-05 0.0 
-1.076536627856e-05 2.486207595241e-04 0.0 
0.0 0.0 0.0 
4.404403070357e-05 -9.980565399907e-06 0.0 
-9.980565399907e-06 3.063121816881e-04 0.0 
0.0 0.0 0.0 
6.301430022252e-05 9.528664477732e-05 0.0 
9.528664477732e-05 1.072205382286e-03 0.0 
0.0 0.0 0.0 
-2.576454091659e-05 1.740871007327e-04 0.0 
1.740871007327e-04 1.407359899953e-03 0.0 
0.0 0.0 0.0 
-3.758537140197e-05 1.666951852855e-04 0.0 
1.666951852855e-04 1.410510560138e-03 0.0 
0.0 0.0 0.0 
-7.318205824519e-05 1.657523518499e-04 0.0 
1.657523518499e-04 9.558926404398e-04 0.0 
0.0 0.0 0.0 
-8.798068045958e-05 1.460391154502e-04 0.0 
1.460391154502e-04 1.023506817533e-03 0.0 
0.0 0.0 0.0 
3.513082978116e-05 1.679582333595e-04 0.0 
1.679582333595e-04 1.229202845217e-03 0.0 
0.0 0.0 0.0 
-8.023240360531e-05 3.688889194069e-05 0.0 
3.688889194069e-05 1.438503293817e-03 0.0 
0.0 0.0 0.0 
-6.567520873389e-05 2.199082940574e-05 0.0 
2.199082940574e-05 1.452118633944e-03 0.0 
0.0 0.0 0.0 
-6.369635222277e-05 1.635623727953e-05 0.0 
1.635623727953e-05 1.424224287833e-03 0.0 
0.0 0.0 0.0 
2.300050708569e-05 -1.129803932125e-05 0.0 
-1.129803932125e-05 1.869713161970e-04 0.0 
0.0 0.0 0.0 
1.583598923810e-05 -2.283943532212e-05 0.0 
-2.283943532212e-05 1.872458136594e-04 0.0 
0.0 0.0 0.0 
-4.605865227331e-05 4.203905549196e-05 0.0 
4.203905549196e-05 1.625060585658e-03 0.0 
0.0 0.0 0.0 
5.913643013807e-05 1.543144776907e-04 0.0 
1.543144776907e-04 5.488499246737e-04 0.0 
0.0 0.0 0.0 
4.031292731947e-05 1.700909556931e-04 0.0 
1.700909556931e-04 5.664232829353e-04 0.0 
0.0 0.0 0.0 
2.702783795753e-05 3.736161194213e-05 0.0 
3.736161194213e-05 2.187000569489e-04 0.0 
0.0 0.0 0.0 
7.569126637093e-06 1.407771584794e-05 0.0 
1.407771584794e-05 1.744611988899e-04 0.0 
0.0 0.0 0.0 
-4.029241970403e-05 1.067470540452e-05 0.0 
1.067470540452e-05 1.557832421420e-03 0.0 
0.0 0.0 0.0 
-3.373076447094e-05 1.280515082435e-05 0.0 
1.280515082435e-05 1.616827595358e-03 0.0 
0.0 0.0 0.0 
8.143263338956e-05 4.149076886034e-06 0.0 
4.149076886034e-06 6.148038571574e-04 0.0 
0.0 0.0 0.0 
8.012560458148e-05 4.351998945331e-06 0.0 
4.351998945331e-06 6.423001381447e-04 0.0 
0.0 0.0 0.0 
6.873603326988e-05 1.000284227539e-04 0.0 
1.000284227539e-04 1.050934277063e-03 0.0 
0.0 0.0 0.0 
3.104707099866e-05 -2.265477059442e-05 0.0 
-2.265477059442e-05 2.308250473612e-04 0.0 
0.0 0.0 0.0 
-3.143513031983e-05 1.726333855738e-05 0.0 
1.726333855738e-05 1.644510445468e-03 0.0 
0.0 0.0 0.0 
8.674042974144e-05 1.019817786941e-04 0.0 
1.019817786941e-04 9.371897784374e-04 0.0 
0.0 0.0 0.0 
9.454380442690e-05 9.403100001444e-05 0.0 
9.403100001444e-05 8.657769870959e-04 0.0 
0.0 0.0 0.0 
7.439890571779e-05 -7.956985845237e-07 0.0 
-7.956985845237e-07 5.434113802714e-04 0.0 
0.0 0.0 0.0 
3.747046548164e-05 1.388109695352e-04 0.0 
1.388109695352e-04 4.177463133468e-04 0.0 
0.0 0.0 0.0 
3.689587344402e-05 1.110280883255e-04 0.0 
1.110280883255e-04 3.407648873119e-04 0.0 
0.0 0.0 0.0 
8.287468038407e-05 4.890568791634e-06 0.0 
4.890568791634e-06 3.933799650147e-04 0.0 
0.0 0.0 0.0 
4.892574526198e-05 -1.899107857740e-05 0.0 
-1.899107857740e-05 2.870587969008e-04 0.0 
0.0 0.0 0.0 
3.807137313216e-05 -7.988167864494e-06 0.0 
-7.988167864494e-06 2.733823559952e-04 0.0 
0.0 0.0 0.0 
5.479914827152e-05 1.093615966679e-04 0.0 
1.093615966679e-04 1.125420514888e-03 0.0 
0.0 0.0 0.0 
-4.388768711553e-05 5.045611290008e-05 0.0 
5.045611290008e-05 1.647948002779e-03 0.0 
0.0 0.0 0.0 
2.196392887140e-06 1.763081217149e-04 0.0 
1.763081217149e-04 1.281765717322e-03 0.0 
0.0 0.0 0.0 
2.164877323037e-06 1.738281286502e-04 0.0 
1.738281286502e-04 1.221589720500e-03 0.0 
0.0 0.0 0.0 
2.703193745994e-06 1.812240556031e-04 0.0 
1.812240556031e-04 1.341636040680e-03 0.0 
0.0 0.0 0.0 
1.061743060056e-05 -2.382889792214e-05 0.0 
-2.382889792214e-05 1.766788872342e-04 0.0 
0.0 0.0 0.0 
5.606780294753e-05 9.031618398783e-05 0.0 
9.031618398783e-05 1.096139911234e-03 0.0 
0.0 0.0 0.0 
6.250997651998e-05 1.471301771485e-05 0.0 
1.471301771485e-05 9.367353173103e-04 0.0 
0.0 0.0 0.0 
-3.059386538858e-05 1.729464333519e-04 0.0 
1.729464333519e-04 1.462402692107e-03 0.0 
0.0 0.0 0.0 
-4.098906721025e-05 1.641644838435e-04 0.0 
1.641644838435e-04 1.465069563182e-03 0.0 
0.0 0.0 0.0 
4.350228901554e-05 1.737022502762e-04 0.0 
1.737022502762e-04 6.324112170079e-04 0.0 
0.0 0.0 0.0 
2.129232075208e-05 1.857940575969e-04 0.0 
1.857940575969e-04 6.578007876329e-04 0.0 
0.0 0.0 0.0 
1.687808361698e-05 1.824977887943e-04 0.0 
1.824977887943e-04 5.954998145741e-04 0.0 
0.0 0.0 0.0 
-3.792841059613e-06 1.940432696877e-04 0.0 
1.940432696877e-04 6.926993594267e-04 0.0 
0.0 0.0 0.0 
-1.026875690212e-04 6.778059450107e-05 0.0 
6.778059450107e-05 1.340711307034e-03 0.0 
0.0 0.0 0.0 
2.236765812162e-05 1.860601301737e-04 0.0 
1.860601301737e-04 7.210125506510e-04 0.0 
0.0 0.0 0.0 
-1.031505806404e-04 9.797205074382e-05 0.0 
9.797205074382e-05 1.269390509316e-03 0.0 
0.0 0.0 0.0 
-1.068025835507e-04 7.964047520292e-05 0.0 
7.964047520292e-05 1.263263018878e-03 0.0 
0.0 0.0 0.0 
-1.071226995237e-04 8.801139705920e-05 0.0 
8.801139705920e-05 1.222436774125e-03 0.0 
0.0 0.0 0.0 
-8.266067801033e-05 1.500079649590e-04 0.0 
1.500079649590e-04 1.065601997029e-03 0.0 
0.0 0.0 0.0 
-9.739482401422e-05 1.273686520162e-04 0.0 
1.273686520162e-04 1.080956994434e-03 0.0 
0.0 0.0 0.0 
7.496967475136e-05 1.428813036343e-04 0.0 
1.428813036343e-04 6.105872450114e-04 0.0 
0.0 0.0 0.0 
7.246554039516e-05 1.412576785969e-04 0.0 
1.412576785969e-04 8.895980765822e-04 0.0 
0.0 0.0 0.0 
8.237808985871e-05 3.562027521308e-06 0.0 
3.562027521308e-06 5.880076195786e-04 0.0 
0.0 0.0 0.0 
8.500746225463e-05 2.044768544615e-05 0.0 
2.044768544615e-05 7.544831348745e-04 0.0 
0.0 0.0 0.0 
1.007319293045e-04 4.830597568595e-05 0.0 
4.830597568595e-05 7.375079149455e-04 0.0 
0.0 0.0 0.0 
-4.029206213764e-05 3.289185422527e-05 0.0 
3.289185422527e-05 1.631985877935e-03 0.0 
0.0 0.0 0.0 
-3.321263857512e-05 3.078226351206e-05 0.0 
3.078226351206e-05 1.663850741649e-03 0.0 
0.0 0.0 0.0 
-5.830044669451e-05 1.248655874031e-05 0.0 
1.248655874031e-05 1.429250376019e-03 0.0 
0.0 0.0 0.0 
-5.697215913406e-05 8.541716289279e-06 0.0 
8.541716289279e-06 1.400526364910e-03 0.0 
0.0 0.0 0.0 
2.426054530846e-05 -1.953582908850e-05 0.0 
-1.953582908850e-05 2.077009811755e-04 0.0 
0.0 0.0 0.0 
1.692943171242e-05 -2.058748524600e-05 0.0 
-2.058748524600e-05 1.845852343734e-04 0.0 
0.0 0.0 0.0 
9.484008426427e-05 2.411437741851e-05 0.0 
2.411437741851e-05 6.758254935110e-04 0.0 
0.0 0.0 0.0 
6.334811519952e-05 7.768346662206e-05 0.0 
7.768346662206e-05 1.044931391381e-03 0.0 
0.0 0.0 0.0 
-5.017157883536e-05 6.221946252172e-05 0.0 
6.221946252172e-05 1.637139820058e-03 0.0 
0.0 0.0 0.0 
-4.692760055784e-05 7.297213019297e-05 0.0 
7.297213019297e-05 1.656952128963e-03 0.0 
0.0 0.0 0.0 
-5.611868144671e-05 7.568189526059e-05 0.0 
7.568189526059e-05 1.623756688666e-03 0.0 
0.0 0.0 0.0 
6.081149833111e-05 1.139510225275e-04 0.0 
1.139510225275e-04 1.104408754014e-03 0.0 
0.0 0.0 0.0 
9.884239008876e-05 9.179181289872e-05 0.0 
9.179181289872e-05 5.488975551964e-04 0.0 
0.0 0.0 0.0 
9.319229040161e-05 1.089258058365e-04 0.0 
1.089258058365e-04 8.393791187679e-04 0.0 
0.0 0.0 0.0 
1.985900427589e-05 4.696927007595e-06 0.0 
4.696927007595e-06 1.918146814885e-04 0.0 
0.0 0.0 0.0 
1.200858191367e-06 1.736462753663e-04 0.0 
1.736462753663e-04 1.104038714324e-03 0.0 
0.0 0.0 0.0 
9.763115882522e-06 -1.817063156920e-05 0.0 
-1.817063156920e-05 1.524130710804e-04 0.0 
0.0 0.0 0.0 
-7.216419452181e-05 1.360535403043e-04 0.0 
1.360535403043e-04 1.414523794378e-03 0.0 
0.0 0.0 0.0 
5.276553952049e-05 1.692005237665e-05 0.0 
1.692005237665e-05 1.007982639997e-03 0.0 
0.0 0.0 0.0 
4.733674369195e-05 2.413849704549e-05 0.0 
2.413849704549e-05 1.049073479816e-03 0.0 
0.0 0.0 0.0 
2.459810505784e-05 1.770070061108e-04 0.0 
1.770070061108e-04 1.290699922248e-03 0.0 
0.0 0.0 0.0 
-1.018943510192e-04 4.222508583376e-05 0.0 
4.222508583376e-05 1.272917505251e-03 0.0 
0.0 0.0 0.0 
1.636653297658e-05 1.714106802320e-04 0.0 
1.714106802320e-04 1.095505745884e-03 0.0 
0.0 0.0 0.0 
3.198194998955e-05 1.672263909112e-04 0.0 
1.672263909112e-04 1.026917375435e-03 0.0 
0.0 0.0 0.0 
-1.082819987378e-04 6.835018471560e-05 0.0 
6.835018471560e-05 1.214560964845e-03 0.0 
0.0 0.0 0.0 
-1.085081347503e-04 7.658248199396e-05 0.0 
7.658248199396e-05 1.175760742871e-03 0.0 
0.0 0.0 0.0 
-1.058554021444e-04 9.839854274254e-05 0.0 
9.839854274254e-05 1.179335621186e-03 0.0 
0.0 0.0 0.0 
-1.076364012403e-04 8.744864725963e-05 0.0 
8.744864725963e-05 1.133982483177e-03 0.0 
0.0 0.0 0.0 
8.414988630749e-05 2.760141392787e-06 0.0 
2.760141392787e-06 4.160994465320e-04 0.0 
0.0 0.0 0.0 
7.427774562570e-05 -6.614843853834e-06 0.0 
-6.614843853834e-06 3.792639154261e-04 0.0 
0.0 0.0 0.0 
-1.961701810925e-05 1.822661953383e-04 0.0 
1.822661953383e-04 1.466635529500e-03 0.0 
0.0 0.0 0.0 
-5.040596587310e-06 1.859052577356e-04 0.0 
1.859052577356e-04 1.400555316349e-03 0.0 
0.0 0.0 0.0 
-3.149840882192e-05 1.722438400709e-04 0.0 
1.722438400709e-04 1.515573686268e-03 0.0 
0.0 0.0 0.0 
-4.111910419332e-05 1.620706756259e-04 0.0 
1.620706756259e-04 1.518150318212e-03 0.0 
0.0 0.0 0.0 
2.808854000795e-05 1.756393636874e-04 0.0 
1.756393636874e-04 1.295763171984e-03 0.0 
0.0 0.0 0.0 
3.818018144430e-05 1.649638883756e-04 0.0 
1.649638883756e-04 1.234553357774e-03 0.0 
0.0 0.0 0.0 
4.718109189531e-05 -7.300387957107e-06 0.0 
-7.300387957107e-06 3.297496835123e-04 0.0 
0.0 0.0 0.0 
-1.008968961344e-04 1.177838541736e-04 0.0 
1.177838541736e-04 1.039936397450e-03 0.0 
0.0 0.0 0.0 
-3.525862424295e-05 4.803907511492e-05 0.0 
4.803907511492e-05 1.679751331146e-03 0.0 
0.0 0.0 0.0 
-1.069799866034e-04 6.179202248039e-05 0.0 
6.179202248039e-05 1.252159558785e-03 0.0 
0.0 0.0 0.0 
4.806417930621e-05 8.467278559220e-05 0.0 
8.467278559220e-05 1.118599541535e-03 0.0 
0.0 0.0 0.0 
5.625285806439e-05 7.294431418388e-05 0.0 
7.294431418388e-05 1.070666025190e-03 0.0 
0.0 0.0 0.0 
-1.634871616568e-05 -1.811065351474e-06 0.0 
-1.811065351474e-06 1.382604796285e-04 0.0 
0.0 0.0 0.0 
-2.536180751919e-06 -1.085937597449e-05 0.0 
-1.085937597449e-05 1.553445340595e-04 0.0 
0.0 0.0 0.0 
-2.595949996148e-05 1.467708364308e-05 0.0 
1.467708364308e-05 1.675662258547e-03 0.0 
0.0 0.0 0.0 
-1.196976993930e-05 1.878804105684e-04 0.0 
1.878804105684e-04 6.352351142624e-04 0.0 
0.0 0.0 0.0 
-3.375723424248e-05 1.918641751747e-04 0.0 
1.918641751747e-04 7.354290620662e-04 0.0 
0.0 0.0 0.0 
3.706557678636e-06 1.738613491574e-04 0.0 
1.738613491574e-04 5.356733059809e-04 0.0 
0.0 0.0 0.0 
2.478720983630e-05 6.984610314792e-06 0.0 
6.984610314792e-06 1.156312926437e-03 0.0 
0.0 0.0 0.0 
-5.431104000336e-05 2.897959248527e-07 0.0 
2.897959248527e-07 1.277153824452e-03 0.0 
0.0 0.0 0.0 
4.104008800302e-05 1.887817534900e-05 0.0 
1.887817534900e-05 1.080584982040e-03 0.0 
0.0 0.0 0.0 
-9.225793897401e-05 1.338332718818e-04 0.0 
1.338332718818e-04 1.123896971410e-03 0.0 
0.0 0.0 0.0 
-2.258635378440e-05 1.995808721149e-05 0.0 
1.995808721149e-05 1.702873892194e-03 0.0 
0.0 0.0 0.0 
2.923677228261e-05 1.674418291356e-04 0.0 
1.674418291356e-04 1.090950832806e-03 0.0 
0.0 0.0 0.0 
-4.339025015399e-07 1.869873128710e-04 0.0 
1.869873128710e-04 8.706210319418e-04 0.0 
0.0 0.0 0.0 
7.323464967579e-05 1.048246270437e-04 0.0 
1.048246270437e-04 1.030535614183e-03 0.0 
0.0 0.0 0.0 
-2.934129330707e-05 9.176079995812e-06 0.0 
9.176079995812e-06 1.644722704095e-03 0.0 
0.0 0.0 0.0 
-2.078314050199e-05 1.176201470900e-05 0.0 
1.176201470900e-05 1.708136994633e-03 0.0 
0.0 0.0 0.0 
-6.780964786651e-05 1.572102513248e-05 0.0 
1.572102513248e-05 1.391445795392e-03 0.0 
0.0 0.0 0.0 
-6.582931026714e-05 1.018394206335e-05 0.0 
1.018394206335e-05 1.361084575508e-03 0.0 
0.0 0.0 0.0 
-7.073627462915e-05 2.131861700342e-05 0.0 
2.131861700342e-05 1.417802180060e-03 0.0 
0.0 0.0 0.0 
4.347958051816e-05 6.331697116511e-05 0.0 
6.331697116511e-05 2.718271542972e-04 0.0 
0.0 0.0 0.0 
8.900131041061e-06 5.447833777843e-05 0.0 
5.447833777843e-05 2.076075097833e-04 0.0 
0.0 0.0 0.0 
-3.544370085799e-05 2.460617697981e-05 0.0 
2.460617697981e-05 1.638436578008e-03 0.0 
0.0 0.0 0.0 
5.963720636419e-05 -9.004457075712e-06 0.0 
-9.004457075712e-06 3.979029441440e-04 0.0 
0.0 0.0 0.0 
6.218796076880e-05 -5.684163730231e-06 0.0 
-5.684163730231e-06 4.300278655598e-04 0.0 
0.0 0.0 0.0 
3.730074296415e-05 -2.184327390780e-05 0.0 
-2.184327390780e-05 2.528358448469e-04 0.0 
0.0 0.0 0.0 
5.296126521337e-05 -1.812406132303e-05 0.0 
-1.812406132303e-05 3.091143643676e-04 0.0 
0.0 0.0 0.0 
8.435603506940e-05 8.719082516599e-06 0.0 
8.719082516599e-06 6.514287858082e-04 0.0 
0.0 0.0 0.0 
8.619617291528e-05 8.625115453888e-06 0.0 
8.625115453888e-06 6.247308588779e-04 0.0 
0.0 0.0 0.0 
-6.130744453251e-05 1.478199652299e-04 0.0 
1.478199652299e-04 1.414447719447e-03 0.0 
0.0 0.0 0.0 
-6.240280377299e-05 1.431460654624e-04 0.0 
1.431460654624e-04 1.464217306539e-03 0.0 
0.0 0.0 0.0 
-5.129072640401e-05 1.588090439996e-04 0.0 
1.588090439996e-04 1.305410298307e-03 0.0 
0.0 0.0 0.0 
9.289893980013e-05 8.794194623005e-05 0.0 
8.794194623005e-05 8.831224160257e-04 0.0 
0.0 0.0 0.0 
9.944547739390e-05 7.967585614936e-05 0.0 
7.967585614936e-05 8.123295461676e-04 0.0 
0.0 0.0 0.0 
1.004472659579e-04 8.614997697889e-05 0.0 
8.614997697889e-05 7.955830326974e-04 0.0 
0.0 0.0 0.0 
-3.067798992932e-05 3.750053013730e-05 0.0 
3.750053013730e-05 1.686513339715e-03 0.0 
0.0 0.0 0.0 
-2.221761284404e-05 3.513011817363e-05 0.0 
3.513011817363e-05 1.723996361637e-03 0.0 
0.0 0.0 0.0 
9.281006265597e-05 1.451208365507e-05 0.0 
1.451208365507e-05 4.549627378725e-04 0.0 
0.0 0.0 0.0 
9.217114585613e-05 1.820523255013e-05 0.0 
1.820523255013e-05 4.332330229948e-04 0.0 
0.0 0.0 0.0 
8.482428904340e-05 1.426458750345e-06 0.0 
1.426458750345e-06 4.384706777639e-04 0.0 
0.0 0.0 0.0 
-3.197745219315e-05 5.691412031938e-05 0.0 
5.691412031938e-05 1.701582817508e-03 0.0 
0.0 0.0 0.0 
3.457303270797e-05 2.720067631148e-05 0.0 
2.720067631148e-05 1.121779149009e-03 0.0 
0.0 0.0 0.0 
4.000227725528e-05 3.160542344989e-05 0.0 
3.160542344989e-05 1.091092730345e-03 0.0 
0.0 0.0 0.0 
3.349967776696e-07 -1.906555328303e-05 0.0 
-1.906555328303e-05 1.307957983585e-04 0.0 
0.0 0.0 0.0 
8.380891853362e-06 -2.175050014902e-05 0.0 
-2.175050014902e-05 1.617346238815e-04 0.0 
0.0 0.0 0.0 
1.197289533394e-05 1.294928532187e-04 0.0 
1.294928532187e-04 3.573712925105e-04 0.0 
0.0 0.0 0.0 
8.893831471513e-06 1.016230092973e-04 0.0 
1.016230092973e-04 2.797267568268e-04 0.0 
0.0 0.0 0.0 
-4.239587650836e-05 8.434422657323e-05 0.0 
8.434422657323e-05 1.673262564394e-03 0.0 
0.0 0.0 0.0 
-5.222516384205e-05 8.795912514794e-05 0.0 
8.795912514794e-05 1.641032688726e-03 0.0 
0.0 0.0 0.0 
-3.164222396768e-05 8.140067737359e-05 0.0 
8.140067737359e-05 1.710436128978e-03 0.0 
0.0 0.0 0.0 
4.080623182553e-05 -4.959539080181e-06 0.0 
-4.959539080181e-06 2.929708093898e-04 0.0 
0.0 0.0 0.0 
1.379339401434e-05 1.734193143332e-04 0.0 
1.734193143332e-04 1.219575595241e-03 0.0 
0.0 0.0 0.0 
4.557684920918e-05 1.237510551486e-04 0.0 
1.237510551486e-04 1.177781650967e-03 0.0 
0.0 0.0 0.0 
5.217796365808e-05 1.290094417445e-04 0.0 
1.290094417445e-04 1.158549633373e-03 0.0 
0.0 0.0 0.0 
3.664636928643e-05 1.198752598037e-04 0.0 
1.198752598037e-04 1.209441403487e-03 0.0 
0.0 0.0 0.0 
1.942020068476e-05 1.777021659982e-04 0.0 
1.777021659982e-04 1.286431190494e-03 0.0 
0.0 0.0 0.0 
1.483709027272e-05 1.841892629298e-04 0.0 
1.841892629298e-04 1.348112247850e-03 0.0 
0.0 0.0 0.0 
2.097868851969e-06 1.884444269370e-04 0.0 
1.884444269370e-04 1.401751133385e-03 0.0 
0.0 0.0 0.0 
-3.157519816662e-05 5.297622210084e-06 0.0 
5.297622210084e-06 1.202965215554e-04 0.0 
0.0 0.0 0.0 
-2.265461051706e-05 6.897608050768e-06 0.0 
6.897608050768e-06 1.688288138925e-03 0.0 
0.0 0.0 0.0 
-6.050528101189e-05 7.609363993402e-06 0.0 
7.609363993402e-06 1.364522081179e-03 0.0 
0.0 0.0 0.0 
-5.536963745063e-05 -4.956326843857e-06 0.0 
-4.956326843857e-06 9.863317601724e-05 0.0 
0.0 0.0 0.0 
-5.849685552869e-05 4.856435464408e-06 0.0 
4.856435464408e-06 1.335635217833e-03 0.0 
0.0 0.0 0.0 
-5.614493272216e-05 5.592616576546e-06 0.0 
5.592616576546e-06 1.371105004333e-03 0.0 
0.0 0.0 0.0 
-5.758332668754e-05 2.574003820642e-06 0.0 
2.574003820642e-06 1.302878047096e-03 0.0 
0.0 0.0 0.0 
3.158495453752e-05 -5.380832017099e-06 0.0 
-5.380832017099e-06 2.365020484672e-04 0.0 
0.0 0.0 0.0 
-7.216178726732e-05 1.322374240272e-05 0.0 
1.322374240272e-05 1.347556912722e-03 0.0 
0.0 0.0 0.0 
-7.566369876973e-05 2.039015243281e-05 0.0 
2.039015243281e-05 1.384410207945e-03 0.0 
0.0 0.0 0.0 
-1.182522398875e-05 -1.758059549152e-05 0.0 
-1.758059549152e-05 9.893998377059e-05 0.0 
0.0 0.0 0.0 
-2.241859932439e-05 5.332917368915e-05 0.0 
5.332917368915e-05 1.732262168606e-03 0.0 
0.0 0.0 0.0 
-5.096356580599e-06 -1.510382081095e-05 0.0 
-1.510382081095e-05 1.012795624229e-04 0.0 
0.0 0.0 0.0 
3.563823343452e-06 -1.462486798614e-05 0.0 
-1.462486798614e-05 1.217549963973e-04 0.0 
0.0 0.0 0.0 
4.215580556336e-05 8.028847863120e-05 0.0 
8.028847863120e-05 1.144945083915e-03 0.0 
0.0 0.0 0.0 
4.930985305355e-05 6.759190510569e-05 0.0 
6.759190510569e-05 1.096352665841e-03 0.0 
0.0 0.0 0.0 
3.346222124419e-05 7.351920507586e-05 0.0 
7.351920507586e-05 1.169465782651e-03 0.0 
0.0 0.0 0.0 
4.079533416153e-05 6.288635037454e-05 0.0 
6.288635037454e-05 1.121218779943e-03 0.0 
0.0 0.0 0.0 
5.570181373375e-05 5.660440468629e-05 0.0 
5.660440468629e-05 1.049257547579e-03 0.0 
0.0 0.0 0.0 
4.847556843253e-05 5.244778285388e-05 0.0 
5.244778285388e-05 1.078395483245e-03 0.0 
0.0 0.0 0.0 
-6.392966135762e-05 6.347058433137e-06 0.0 
6.347058433137e-06 1.329821756193e-03 0.0 
0.0 0.0 0.0 
3.152594391986e-05 5.926574319028e-05 0.0 
5.926574319028e-05 1.161470002748e-03 0.0 
0.0 0.0 0.0 
4.037254838596e-05 4.693241387821e-05 0.0 
4.693241387821e-05 1.109239509648e-03 0.0 
0.0 0.0 0.0 
2.382854495309e-05 5.228410671239e-05 0.0 
5.228410671239e-05 1.192675846717e-03 0.0 
0.0 0.0 0.0 
-1.068413630739e-04 6.277796766238e-05 0.0 
6.277796766238e-05 1.129185161180e-03 0.0 
0.0 0.0 0.0 
-2.985962285812e-05 1.944278361162e-04 0.0 
1.944278361162e-04 7.875165432179e-04 0.0 
0.0 0.0 0.0 
-5.943646706402e-05 1.798942953221e-04 0.0 
1.798942953221e-04 8.332941027419e-04 0.0 
0.0 0.0 0.0 
-6.549399529795e-05 1.680763507133e-04 0.0 
1.680763507133e-04 7.947223613668e-04 0.0 
0.0 0.0 0.0 
-2.738208840038e-05 1.728349515123e-04 0.0 
1.728349515123e-04 1.575554619063e-03 0.0 
0.0 0.0 0.0 
-3.951648909184e-05 1.594041413362e-04 0.0 
1.594041413362e-04 1.564169741076e-03 0.0 
0.0 0.0 0.0 
5.746788554691e-05 1.060390671479e-05 0.0 
1.060390671479e-05 9.694088878928e-04 0.0 
0.0 0.0 0.0 
6.575551780408e-05 9.016249015149e-06 0.0 
9.016249015149e-06 8.984847991970e-04 0.0 
0.0 0.0 0.0 
-5.586393016267e-05 3.343415057619e-06 0.0 
3.343415057619e-06 1.338121670576e-03 0.0 
0.0 0.0 0.0 
-5.428430787822e-05 1.988209943356e-06 0.0 
1.988209943356e-06 1.334220634894e-03 0.0 
0.0 0.0 0.0 
-5.281667573074e-05 4.877609870083e-06 0.0 
4.877609870083e-06 1.390896273949e-03 0.0 
0.0 0.0 0.0 
-5.189771228387e-05 2.676892167626e-06 0.0 
2.676892167626e-06 1.383001500645e-03 0.0 
0.0 0.0 0.0 
-4.961652465652e-05 5.440792111329e-06 0.0 
5.440792111329e-06 1.439300342005e-03 0.0 
0.0 0.0 0.0 
-4.875439870581e-05 2.664948713705e-06 0.0 
2.664948713705e-06 1.430258447834e-03 0.0 
0.0 0.0 0.0 
-4.551001847582e-05 4.345594549422e-06 0.0 
4.345594549422e-06 1.487024841390e-03 0.0 
0.0 0.0 0.0 
-3.771517395993e-06 1.949263732025e-04 0.0 
1.949263732025e-04 1.464397428131e-03 0.0 
0.0 0.0 0.0 
-2.923990592350e-05 1.770334399675e-04 0.0 
1.770334399675e-04 5.786860071688e-04 0.0 
0.0 0.0 0.0 
-1.057991260621e-04 4.952637345147e-05 0.0 
4.952637345147e-05 1.201922963570e-03 0.0 
0.0 0.0 0.0 
2.840892868431e-05 1.733406240183e-04 0.0 
1.733406240183e-04 1.301872934517e-03 0.0 
0.0 0.0 0.0 
3.852633413977e-05 1.609898473947e-04 0.0 
1.609898473947e-04 1.238295035621e-03 0.0 
0.0 0.0 0.0 
-1.053487572822e-04 1.010270360614e-04 0.0 
1.010270360614e-04 1.088750303794e-03 0.0 
0.0 0.0 0.0 
-1.043663904269e-04 8.581951642847e-05 0.0 
8.581951642847e-05 1.047048640010e-03 0.0 
0.0 0.0 0.0 
3.738438478975e-05 9.926083118832e-05 0.0 
9.926083118832e-05 1.180991987446e-03 0.0 
0.0 0.0 0.0 
4.340980652910e-05 1.746641138638e-04 0.0 
1.746641138638e-04 6.990630595248e-04 0.0 
0.0 0.0 0.0 
-1.619244573663e-05 6.330133742592e-05 0.0 
6.330133742592e-05 1.759193253567e-03 0.0 
0.0 0.0 0.0 
-7.798101413409e-05 3.882874923087e-05 0.0 
3.882874923087e-05 8.558205242567e-05 0.0 
0.0 0.0 0.0 
-3.680568853968e-05 3.900770196612e-05 0.0 
3.900770196612e-05 1.340855142244e-04 0.0 
0.0 0.0 0.0 
2.211766520636e-05 1.840742950763e-04 0.0 
1.840742950763e-04 7.842534417569e-04 0.0 
0.0 0.0 0.0 
-1.029008627783e-04 1.114444676121e-04 0.0 
1.114444676121e-04 1.132381778623e-03 0.0 
0.0 0.0 0.0 
-5.378304769897e-05 1.823108699623e-04 0.0 
1.823108699623e-04 8.766602807474e-04 0.0 
0.0 0.0 0.0 
-7.778340882242e-05 1.619073735371e-04 0.0 
1.619073735371e-04 9.150400032160e-04 0.0 
0.0 0.0 0.0 
8.436433158406e-05 9.646355699222e-05 0.0 
9.646355699222e-05 9.558741121577e-04 0.0 
0.0 0.0 0.0 
1.567919557151e-08 -2.241934616752e-05 0.0 
-2.241934616752e-05 1.416027605006e-04 0.0 
0.0 0.0 0.0 
1.099643101362e-05 1.541851286980e-04 0.0 
1.541851286980e-04 4.428366020934e-04 0.0 
0.0 0.0 0.0 
-4.623125417808e-05 8.266104614485e-06 0.0 
8.266104614485e-06 1.494186307645e-03 0.0 
0.0 0.0 0.0 
-2.147015221867e-05 1.461811210916e-04 0.0 
1.461811210916e-04 3.866751563948e-04 0.0 
0.0 0.0 0.0 
6.137088796713e-05 4.976336218857e-06 0.0 
4.976336218857e-06 9.348216426211e-04 0.0 
0.0 0.0 0.0 
6.015080739223e-05 1.608263319270e-04 0.0 
1.608263319270e-04 6.874144677912e-04 0.0 
0.0 0.0 0.0 
-7.667965754195e-05 1.522267242233e-04 0.0 
1.522267242233e-04 1.110050635660e-03 0.0 
0.0 0.0 0.0 
3.113575734248e-05 1.634588321911e-04 0.0 
1.634588321911e-04 5.029881481118e-04 0.0 
0.0 0.0 0.0 
-2.560238685575e-06 1.934220708283e-04 0.0 
1.934220708283e-04 7.527043655475e-04 0.0 
0.0 0.0 0.0 
-1.010513149273e-04 8.351591407377e-05 0.0 
8.351591407377e-05 1.352306641093e-03 0.0 
0.0 0.0 0.0 
-1.019244147378e-04 5.304065538381e-05 0.0 
5.304065538381e-05 1.325457582947e-03 0.0 
0.0 0.0 0.0 
-1.048189693483e-04 5.684347444353e-05 0.0 
5.684347444353e-05 1.289382757279e-03 0.0 
0.0 0.0 0.0 
7.362437167765e-05 1.462777479433e-04 0.0 
1.462777479433e-04 6.813654974300e-04 0.0 
0.0 0.0 0.0 
-9.253925444221e-05 1.384174056457e-04 0.0 
1.384174056457e-04 9.851593358929e-04 0.0 
0.0 0.0 0.0 
-9.367961924546e-05 1.200374524582e-04 0.0 
1.200374524582e-04 9.446712360639e-04 0.0 
0.0 0.0 0.0 
-9.592263159393e-05 1.158136333312e-04 0.0 
1.158136333312e-04 1.270664377721e-03 0.0 
0.0 0.0 0.0 
-6.480394869775e-05 7.825050284507e-05 0.0 
7.825050284507e-05 1.589703104066e-03 0.0 
0.0 0.0 0.0 
-6.104858916670e-05 9.074387487123e-05 0.0 
9.074387487123e-05 1.605765423672e-03 0.0 
0.0 0.0 0.0 
-4.719247603154e-05 1.000521322379e-04 0.0 
1.000521322379e-04 1.653799323791e-03 0.0 
0.0 0.0 0.0 
-5.627198492094e-05 1.035064916377e-04 0.0 
1.035064916377e-04 1.619221498971e-03 0.0 
0.0 0.0 0.0 
-6.921273818228e-05 9.344371888995e-05 0.0 
9.344371888995e-05 1.569625111253e-03 0.0 
0.0 0.0 0.0 
-6.419486160723e-05 1.065175681604e-04 0.0 
1.065175681604e-04 1.582086207021e-03 0.0 
0.0 0.0 0.0 
-4.929270596199e-05 1.166244401264e-04 0.0 
1.166244401264e-04 1.630932825598e-03 0.0 
0.0 0.0 0.0 
-5.721955622586e-05 1.204505297539e-04 0.0 
1.204505297539e-04 1.593250743124e-03 0.0 
0.0 0.0 0.0 
-3.912916886895e-05 1.319561619613e-04 0.0 
1.319561619613e-04 1.649878044711e-03 0.0 
0.0 0.0 0.0 
-4.950540130553e-05 1.339598727128e-04 0.0 
1.339598727128e-04 1.599972044694e-03 0.0 
0.0 0.0 0.0 
-6.376180050118e-05 1.237400657751e-04 0.0 
1.237400657751e-04 1.550399439418e-03 0.0 
0.0 0.0 0.0 
-5.635326899284e-05 1.364657060843e-04 0.0 
1.364657060843e-04 1.555549794005e-03 0.0 
0.0 0.0 0.0 
-4.311577119241e-05 1.466813280679e-04 0.0 
1.466813280679e-04 1.600164242472e-03 0.0 
0.0 0.0 0.0 
-6.910184348789e-05 1.269772983177e-04 0.0 
1.269772983177e-04 1.506450599196e-03 0.0 
0.0 0.0 0.0 
1.788211161950e-05 1.848371700374e-04 0.0 
1.848371700374e-04 1.361454417617e-03 0.0 
0.0 0.0 0.0 
2.097726193436e-05 1.807263576635e-04 0.0 
1.807263576635e-04 8.487099986261e-04 0.0 
0.0 0.0 0.0 
-9.452471164739e-06 2.567391701120e-05 0.0 
2.567391701120e-05 1.589958255993e-04 0.0 
0.0 0.0 0.0 
-1.884806890917e-05 6.736079570356e-05 0.0 
6.736079570356e-05 1.836015224115e-04 0.0 
0.0 0.0 0.0 
-8.603384474350e-05 1.386668024422e-04 0.0 
1.386668024422e-04 1.168356626342e-03 0.0 
0.0 0.0 0.0 
-1.998204485641e-05 1.368467815658e-04 0.0 
1.368467815658e-04 1.705518839377e-03 0.0 
0.0 0.0 0.0 
-1.950595760016e-05 1.124738813020e-04 0.0 
1.124738813020e-04 1.732539753704e-03 0.0 
0.0 0.0 0.0 
7.371626777190e-05 1.375486386462e-04 0.0 
1.375486386462e-04 5.401547687098e-04 0.0 
0.0 0.0 0.0 
-1.302958186087e-05 1.880658757121e-04 0.0 
1.880658757121e-04 1.614070187879e-03 0.0 
0.0 0.0 0.0 
-1.053060682420e-04 7.290063225872e-05 0.0 
7.290063225872e-05 1.302555497503e-03 0.0 
0.0 0.0 0.0 
6.551016880008e-05 7.515667255539e-05 0.0 
7.515667255539e-05 3.359688341091e-04 0.0 
0.0 0.0 0.0 
-7.301461566263e-06 2.004604288878e-04 0.0 
2.004604288878e-04 1.563753032570e-03 0.0 
0.0 0.0 0.0 
-7.282290006496e-05 8.066743100694e-05 0.0 
8.066743100694e-05 1.554592656090e-03 0.0 
0.0 0.0 0.0 
-8.001813618458e-05 8.279805377881e-05 0.0 
8.279805377881e-05 1.517931652825e-03 0.0 
0.0 0.0 0.0 
-8.210921271340e-05 7.013590589625e-05 0.0 
7.013590589625e-05 1.501818781770e-03 0.0 
0.0 0.0 0.0 
-1.664364855058e-05 9.232207530793e-05 0.0 
9.232207530793e-05 1.751256991911e-03 0.0 
0.0 0.0 0.0 
-7.309336373566e-05 2.838768779592e-05 0.0 
2.838768779592e-05 1.445213963401e-03 0.0 
0.0 0.0 0.0 
4.549111396690e-06 2.032948421492e-04 0.0 
2.032948421492e-04 1.459204809995e-03 0.0 
0.0 0.0 0.0 
6.697692285573e-05 1.441743286056e-04 0.0 
1.441743286056e-04 9.590457347304e-04 0.0 
0.0 0.0 0.0 
5.861830886259e-05 1.524492110688e-04 0.0 
1.524492110688e-04 9.568802663709e-04 0.0 
0.0 0.0 0.0 
6.324942144594e-05 1.510370644494e-04 0.0 
1.510370644494e-04 8.886060105976e-04 0.0 
0.0 0.0 0.0 
-7.086740475409e-05 1.096341752630e-04 0.0 
1.096341752630e-04 1.542201977870e-03 0.0 
0.0 0.0 0.0 
1.548899052054e-05 1.759896086500e-04 0.0 
1.759896086500e-04 1.354916562711e-03 0.0 
0.0 0.0 0.0 
3.005740988504e-05 1.609184662350e-04 0.0 
1.609184662350e-04 1.281873906253e-03 0.0 
0.0 0.0 0.0 
3.207131726679e-05 1.514521489435e-04 0.0 
1.514521489435e-04 1.262413247484e-03 0.0 
0.0 0.0 0.0 
4.408435832565e-05 1.470294914634e-04 0.0 
1.470294914634e-04 1.204653398423e-03 0.0 
0.0 0.0 0.0 
1.801867908539e-05 1.556674614573e-04 0.0 
1.556674614573e-04 1.316361289001e-03 0.0 
0.0 0.0 0.0 
-1.712670792831e-05 1.597294467846e-04 0.0 
1.597294467846e-04 1.678852533141e-03 0.0 
0.0 0.0 0.0 
-1.534257781732e-05 1.705544068565e-04 0.0 
1.705544068565e-04 1.661450792083e-03 0.0 
0.0 0.0 0.0 
8.092686480106e-05 8.028731426376e-06 0.0 
8.028731426376e-06 3.710046751179e-04 0.0 
0.0 0.0 0.0 
9.085559851296e-05 2.320572072021e-05 0.0 
2.320572072021e-05 4.123872397973e-04 0.0 
0.0 0.0 0.0 
9.935801951662e-05 3.382434514219e-05 0.0 
3.382434514219e-05 4.764524742935e-04 0.0 
0.0 0.0 0.0 
9.820820821893e-05 4.069607451118e-05 0.0 
4.069607451118e-05 4.574516999886e-04 0.0 
0.0 0.0 0.0 
8.867267045269e-05 2.960903742682e-05 0.0 
2.960903742682e-05 3.923884567727e-04 0.0 
0.0 0.0 0.0 
9.602463392022e-05 4.914912883197e-05 0.0 
4.914912883197e-05 4.396002464594e-04 0.0 
0.0 0.0 0.0 
1.023122581433e-04 5.976899822700e-05 0.0 
5.976899822700e-05 5.064949778888e-04 0.0 
0.0 0.0 0.0 
9.263245756970e-05 5.947236768631e-05 0.0 
5.947236768631e-05 4.235745560540e-04 0.0 
0.0 0.0 0.0 
-5.154285397709e-05 1.506483856689e-04 0.0 
1.506483856689e-04 1.514949306482e-03 0.0 
0.0 0.0 0.0 
1.833453052713e-05 1.340657154769e-04 0.0 
1.340657154769e-04 1.287225367228e-03 0.0 
0.0 0.0 0.0 
9.657294818529e-05 5.711491032958e-05 0.0 
5.711491032958e-05 8.066277643576e-04 0.0 
0.0 0.0 0.0 
9.991585485443e-05 6.104398689287e-05 0.0 
6.104398689287e-05 7.836892153174e-04 0.0 
0.0 0.0 0.0 
1.034067136928e-04 5.215954683426e-05 0.0 
5.215954683426e-05 7.149009869005e-04 0.0 
0.0 0.0 0.0 
8.332698793068e-05 2.683364276558e-06 0.0 
2.683364276558e-06 5.615512432069e-04 0.0 
0.0 0.0 0.0 
8.792395912594e-05 8.413070745878e-06 0.0 
8.413070745878e-06 5.983049599525e-04 0.0 
0.0 0.0 0.0 
8.939486825665e-05 1.508815129039e-05 0.0 
1.508815129039e-05 6.625615831764e-04 0.0 
0.0 0.0 0.0 
7.820792970559e-05 -1.628449928566e-06 0.0 
-1.628449928566e-06 5.258457036317e-04 0.0 
0.0 0.0 0.0 
-1.139699680750e-05 1.727333583328e-04 0.0 
1.727333583328e-04 1.228111516015e-03 0.0 
0.0 0.0 0.0 
1.836504213870e-05 1.225716448169e-04 0.0 
1.225716448169e-04 1.273493265412e-03 0.0 
0.0 0.0 0.0 
9.469695980642e-05 1.009990037581e-04 0.0 
1.009990037581e-04 8.513413221279e-04 0.0 
0.0 0.0 0.0 
8.945551021515e-05 8.253974721238e-06 0.0 
8.253974721238e-06 5.721722021618e-04 0.0 
0.0 0.0 0.0 
-8.220371785828e-05 1.369007563222e-05 0.0 
1.369007563222e-05 1.287009714060e-03 0.0 
0.0 0.0 0.0 
-8.496179628179e-05 2.399512694452e-05 0.0 
2.399512694452e-05 1.340121021243e-03 0.0 
0.0 0.0 0.0 
-9.048097908480e-05 2.899845932140e-05 0.0 
2.899845932140e-05 1.339655316310e-03 0.0 
0.0 0.0 0.0 
-8.615555619204e-05 3.545089561962e-05 0.0 
3.545089561962e-05 1.396319790090e-03 0.0 
0.0 0.0 0.0 
-8.024390248489e-05 1.911761245956e-05 0.0 
1.911761245956e-05 1.346379016015e-03 0.0 
0.0 0.0 0.0 
8.231019594159e-05 8.597368010794e-06 0.0 
8.597368010794e-06 6.786090142970e-04 0.0 
0.0 0.0 0.0 
8.025931912411e-05 8.163988362743e-06 0.0 
8.163988362743e-06 7.061292897969e-04 0.0 
0.0 0.0 0.0 
7.900245007860e-05 4.619187348895e-06 0.0 
4.619187348895e-06 6.700196116063e-04 0.0 
0.0 0.0 0.0 
7.824184616652e-05 7.213163514587e-06 0.0 
7.213163514587e-06 7.339184096359e-04 0.0 
0.0 0.0 0.0 
7.799165334821e-05 3.646056106031e-06 0.0 
3.646056106031e-06 6.962199647924e-04 0.0 
0.0 0.0 0.0 
7.785009606072e-05 1.794476879265e-06 0.0 
1.794476879265e-06 6.375240431747e-04 0.0 
0.0 0.0 0.0 
7.637024767707e-05 5.431061233472e-06 0.0 
5.431061233472e-06 7.607469648672e-04 0.0 
0.0 0.0 0.0 
7.668449774149e-05 2.818236870335e-06 0.0 
2.818236870335e-06 7.188552089962e-04 0.0 
0.0 0.0 0.0 
-7.379208149042e-05 7.729560092486e-06 0.0 
7.729560092486e-06 1.285981982916e-03 0.0 
0.0 0.0 0.0 
-7.125185181657e-05 -1.235401066880e-05 0.0 
-1.235401066880e-05 7.007970390649e-05 0.0 
0.0 0.0 0.0 
-3.592948846802e-05 -1.839104960257e-05 0.0 
-1.839104960257e-05 1.047862601968e-04 0.0 
0.0 0.0 0.0 
-3.329594521556e-05 -1.993024496126e-05 0.0 
-1.993024496126e-05 1.011941047819e-04 0.0 
0.0 0.0 0.0 
-8.645896802236e-06 -2.180968156853e-05 0.0 
-2.180968156853e-05 1.443072714362e-04 0.0 
0.0 0.0 0.0 
-6.168033519457e-06 -1.651575018672e-05 0.0 
-1.651575018672e-05 1.488462067951e-04 0.0 
0.0 0.0 0.0 
2.030222418164e-05 -1.656438164867e-05 0.0 
-1.656438164867e-05 1.949988091576e-04 0.0 
0.0 0.0 0.0 
1.839678591176e-05 -1.195181921479e-05 0.0 
-1.195181921479e-05 1.900218405143e-04 0.0 
0.0 0.0 0.0 
-3.791782259392e-05 -1.624062028949e-05 0.0 
-1.624062028949e-05 1.067776437868e-04 0.0 
0.0 0.0 0.0 
-5.629208795543e-05 -1.266592779707e-05 0.0 
-1.266592779707e-05 6.282784637738e-05 0.0 
0.0 0.0 0.0 
-2.819027741063e-05 -1.964472140214e-05 0.0 
-1.964472140214e-05 9.865225606927e-05 0.0 
0.0 0.0 0.0 
-4.787805582990e-05 -1.200941089290e-05 0.0 
-1.200941089290e-05 5.869553403637e-05 0.0 
0.0 0.0 0.0 
-2.382211334752e-05 -1.962887681849e-05 0.0 
-1.962887681849e-05 9.481047328933e-05 0.0 
0.0 0.0 0.0 
-1.760768735529e-06 -2.318472917108e-05 0.0 
-2.318472917108e-05 1.469853760830e-04 0.0 
0.0 0.0 0.0 
2.635493787588e-05 -2.217141719707e-05 0.0 
-2.217141719707e-05 2.182867952863e-04 0.0 
0.0 0.0 0.0 
1.656320807407e-05 3.008169422575e-05 0.0 
3.008169422575e-05 1.202285494462e-03 0.0 
0.0 0.0 0.0 
7.149168653782e-05 -4.229320704478e-07 0.0 
-4.229320704478e-07 5.421792540250e-04 0.0 
0.0 0.0 0.0 
6.932745121243e-05 -1.286388978161e-06 0.0 
-1.286388978161e-06 5.127871869012e-04 0.0 
0.0 0.0 0.0 
6.423168736188e-05 -2.568147092462e-06 0.0 
-2.568147092462e-06 4.546179229324e-04 0.0 
0.0 0.0 0.0 
6.766016551693e-05 -3.491211772214e-06 0.0 
-3.491211772214e-06 4.859773279831e-04 0.0 
0.0 0.0 0.0 
7.343014478345e-05 8.848403650964e-08 0.0 
8.848403650964e-08 5.668152469119e-04 0.0 
0.0 0.0 0.0 
6.003564018231e-05 -1.554894778222e-06 0.0 
-1.554894778222e-06 4.230012486841e-04 0.0 
0.0 0.0 0.0 
5.743848749743e-05 -3.429191774870e-06 0.0 
-3.429191774870e-06 4.017065416289e-04 0.0 
0.0 0.0 0.0 
8.709427518627e-07 -2.615357841409e-06 0.0 
-2.615357841409e-06 3.808567558409e-05 0.0 
0.0 0.0 0.0 
7.974675922284e-06 -4.611921661838e-06 0.0 
-4.611921661838e-06 8.270361037192e-05 0.0 
0.0 0.0 0.0 
6.718822020016e-06 -2.380486046218e-06 0.0 
-2.380486046218e-06 7.787452728174e-05 0.0 
0.0 0.0 0.0 
1.475434613663e-05 -3.770213448579e-06 0.0 
-3.770213448579e-06 1.328917600587e-04 0.0 
0.0 0.0 0.0 
1.435287781493e-05 -6.729029886027e-06 0.0 
-6.729029886027e-06 1.319497459586e-04 0.0 
0.0 0.0 0.0 
6.717075917650e-06 -6.008888512047e-06 0.0 
-6.008888512047e-06 8.380676313032e-05 0.0 
0.0 0.0 0.0 
4.623541785801e-06 -7.560804147326e-06 0.0 
-7.560804147326e-06 8.488325116289e-05 0.0 
0.0 0.0 0.0 
-4.670687161571e-06 -5.196865355702e-06 0.0 
-5.196865355702e-06 4.035633288394e-05 0.0 
0.0 0.0 0.0 
2.648096144309e-06 -9.549146572281e-06 0.0 
-9.549146572281e-06 8.568763399345e-05 0.0 
0.0 0.0 0.0 
1.252266235019e-05 -1.078661471625e-05 0.0 
-1.078661471625e-05 1.354470611674e-04 0.0 
0.0 0.0 0.0 
-8.261900343309e-06 -6.302286515662e-06 0.0 
-6.302286515662e-06 4.046090268620e-05 0.0 
0.0 0.0 0.0 
-3.761561587897e-05 2.091805744917e-06 0.0 
2.091805744917e-06 1.565822220700e-03 0.0 
0.0 0.0 0.0 
-3.442988043116e-05 5.472597570728e-06 0.0 
5.472597570728e-06 1.598140747430e-03 0.0 
0.0 0.0 0.0 
1.896573318098e-05 1.003940428554e-04 0.0 
1.003940428554e-04 1.248050612608e-03 0.0 
0.0 0.0 0.0 
-6.639580884385e-05 4.618865988593e-06 0.0 
4.618865988593e-06 1.291461110888e-03 0.0 
0.0 0.0 0.0 
-3.246528877441e-05 -1.008440247289e-05 0.0 
-1.008440247289e-05 5.277817536098e-05 0.0 
0.0 0.0 0.0 
-1.150846064081e-05 2.250518474139e-05 0.0 
2.250518474139e-05 1.767520917645e-03 0.0 
0.0 0.0 0.0 
-1.173803664382e-05 4.110118166164e-05 0.0 
4.110118166164e-05 1.772873427003e-03 0.0 
0.0 0.0 0.0 
-1.028196719508e-05 3.528294039656e-05 0.0 
3.528294039656e-05 1.775416427744e-03 0.0 
0.0 0.0 0.0 
3.953703430319e-05 6.576135731974e-06 0.0 
6.576135731974e-06 1.081410273340e-03 0.0 
0.0 0.0 0.0 
3.354671035087e-05 1.314660946154e-05 0.0 
1.314660946154e-05 1.118620899034e-03 0.0 
0.0 0.0 0.0 
-1.028650478380e-05 1.280401997915e-05 0.0 
1.280401997915e-05 1.770164471243e-03 0.0 
0.0 0.0 0.0 
5.915484313416e-05 -1.497837630630e-05 0.0 
-1.497837630630e-05 3.544801476994e-04 0.0 
0.0 0.0 0.0 
-4.179871004388e-05 1.135179740681e-04 0.0 
1.135179740681e-04 1.666010935359e-03 0.0 
0.0 0.0 0.0 
-2.909629455172e-05 2.256479780583e-05 0.0 
2.256479780583e-05 1.669935236523e-03 0.0 
0.0 0.0 0.0 
5.353297746328e-05 9.205618681241e-05 0.0 
9.205618681241e-05 3.344461694272e-04 0.0 
0.0 0.0 0.0 
6.375721638119e-05 -1.351458102465e-05 0.0 
-1.351458102465e-05 3.439846126563e-04 0.0 
0.0 0.0 0.0 
7.012121140985e-05 1.236470031651e-05 0.0 
1.236470031651e-05 8.671200208544e-04 0.0 
0.0 0.0 0.0 
8.526553467888e-05 2.825910906565e-05 0.0 
2.825910906565e-05 7.948165666557e-04 0.0 
0.0 0.0 0.0 
5.341361749848e-05 2.873389761819e-05 0.0 
2.873389761819e-05 1.018753874123e-03 0.0 
0.0 0.0 0.0 
7.768256061687e-05 1.732095918780e-05 0.0 
1.732095918780e-05 8.094686960794e-04 0.0 
0.0 0.0 0.0 
6.567574969248e-05 3.709765032134e-05 0.0 
3.709765032134e-05 9.614971104882e-04 0.0 
0.0 0.0 0.0 
3.534112506830e-05 1.403245492971e-04 0.0 
1.403245492971e-04 1.236938987599e-03 0.0 
0.0 0.0 0.0 
2.840603160585e-05 -8.472600582445e-06 0.0 
-8.472600582445e-06 2.175714858612e-04 0.0 
0.0 0.0 0.0 
-5.920090398844e-05 1.697381986808e-05 0.0 
1.697381986808e-05 1.456863046699e-03 0.0 
0.0 0.0 0.0 
-5.354703737439e-05 9.052229133148e-06 0.0 
9.052229133148e-06 1.433607876002e-03 0.0 
0.0 0.0 0.0 
-4.309156348705e-05 2.068951640992e-05 0.0 
2.068951640992e-05 1.580844675075e-03 0.0 
0.0 0.0 0.0 
5.685981628341e-05 -1.161224983712e-05 0.0 
-1.161224983712e-05 3.718641512296e-04 0.0 
0.0 0.0 0.0 
7.794044096040e-05 1.472919452694e-06 0.0 
1.472919452694e-06 6.089174646859e-04 0.0 
0.0 0.0 0.0 
3.022270826969e-05 -1.788538385792e-05 0.0 
-1.788538385792e-05 2.323075792957e-04 0.0 
0.0 0.0 0.0 
-1.580962329045e-05 1.884000499771e-04 0.0 
1.884000499771e-04 1.531530951698e-03 0.0 
0.0 0.0 0.0 
-1.017569765466e-04 1.077516831275e-04 0.0 
1.077516831275e-04 1.224685370731e-03 0.0 
0.0 0.0 0.0 
1.025085043194e-04 3.929607431136e-05 0.0 
3.929607431136e-05 6.696994496446e-04 0.0 
0.0 0.0 0.0 
7.827154169060e-05 -3.038701366752e-06 0.0 
-3.038701366752e-06 4.995292995144e-04 0.0 
0.0 0.0 0.0 
6.793911145064e-05 -1.170014063781e-05 0.0 
-1.170014063781e-05 3.888057122580e-04 0.0 
0.0 0.0 0.0 
6.059160483825e-05 -1.375389119632e-05 0.0 
-1.375389119632e-05 3.209982838225e-04 0.0 
0.0 0.0 0.0 
-1.720148502156e-07 1.826584261536e-04 0.0 
1.826584261536e-04 9.293101172589e-04 0.0 
0.0 0.0 0.0 
9.401941150737e-05 1.619862500423e-05 0.0 
1.619862500423e-05 6.105814778407e-04 0.0 
0.0 0.0 0.0 
7.976897513499e-05 5.814970249948e-05 0.0 
5.814970249948e-05 9.253491107702e-04 0.0 
0.0 0.0 0.0 
-3.732728984686e-05 1.922895604346e-05 0.0 
1.922895604346e-05 1.612752652382e-03 0.0 
0.0 0.0 0.0 
-2.048890166210e-05 -8.754213151722e-06 0.0 
-8.754213151722e-06 5.263580590285e-05 0.0 
0.0 0.0 0.0 
7.557387994106e-05 6.992699979266e-05 0.0 
6.992699979266e-05 9.722684047264e-04 0.0 
0.0 0.0 0.0 
9.322736411599e-05 3.196214536305e-05 0.0 
3.196214536305e-05 7.424879661546e-04 0.0 
0.0 0.0 0.0 
-6.728678288535e-05 2.887176499670e-05 0.0 
2.887176499670e-05 1.478588200997e-03 0.0 
0.0 0.0 0.0 
5.783358590380e-05 1.465158125472e-04 0.0 
1.465158125472e-04 1.102831596162e-03 0.0 
0.0 0.0 0.0 
3.072556285011e-05 -1.842631556204e-05 0.0 
-1.842631556204e-05 2.208946922758e-04 0.0 
0.0 0.0 0.0 
-4.749470159560e-05 3.443905793325e-05 0.0 
3.443905793325e-05 1.600528155544e-03 0.0 
0.0 0.0 0.0 
-3.780881830021e-05 6.937814595525e-05 0.0 
6.937814595525e-05 1.687012117148e-03 0.0 
0.0 0.0 0.0 
-7.822280928240e-05 2.756597042665e-05 0.0 
2.756597042665e-05 1.411850308776e-03 0.0 
0.0 0.0 0.0 
1.712537946678e-05 -1.723301241681e-05 0.0 
-1.723301241681e-05 1.759717409410e-04 0.0 
0.0 0.0 0.0 
-6.243397779323e-05 1.159266641592e-05 0.0 
1.159266641592e-05 1.395044296077e-03 0.0 
0.0 0.0 0.0 
4.689920645381e-05 1.036918813535e-04 0.0 
1.036918813535e-04 1.147289834462e-03 0.0 
0.0 0.0 0.0 
-6.729139835645e-05 6.642361431010e-05 0.0 
6.642361431010e-05 1.571349407677e-03 0.0 
0.0 0.0 0.0 
5.035035743724e-05 -1.150367195084e-05 0.0 
-1.150367195084e-05 3.389310655979e-04 0.0 
0.0 0.0 0.0 
9.817989240224e-05 1.024804801100e-04 0.0 
1.024804801100e-04 7.691034506260e-04 0.0 
0.0 0.0 0.0 
-5.791283711530e-05 1.652591613140e-04 0.0 
1.652591613140e-04 1.093640898152e-03 0.0 
0.0 0.0 0.0 
-9.863825286468e-05 3.031120734325e-05 0.0 
3.031120734325e-05 1.219730126681e-03 0.0 
0.0 0.0 0.0 
-2.650136633438e-05 2.820637844118e-05 0.0 
2.820637844118e-05 1.693463508943e-03 0.0 
0.0 0.0 0.0 
3.452824986446e-05 1.681706870398e-04 0.0 
1.681706870398e-04 9.632648813751e-04 0.0 
0.0 0.0 0.0 
5.870430067386e-05 1.370161731684e-04 0.0 
1.370161731684e-04 1.124476065854e-03 0.0 
0.0 0.0 0.0 
8.682868364026e-05 1.152411200185e-04 0.0 
1.152411200185e-04 9.098454800068e-04 0.0 
0.0 0.0 0.0 
5.346395776181e-05 -8.535867093735e-06 0.0 
-8.535867093735e-06 3.649704554550e-04 0.0 
0.0 0.0 0.0 
6.245295670793e-05 6.101224969855e-05 0.0 
6.101224969855e-05 1.023445512714e-03 0.0 
0.0 0.0 0.0 
7.729614701561e-05 1.385400332883e-04 0.0 
1.385400332883e-04 8.199017284742e-04 0.0 
0.0 0.0 0.0 
-3.837499419829e-05 4.012083759437e-05 0.0 
4.012083759437e-05 1.656549206654e-03 0.0 
0.0 0.0 0.0 
-4.456107813518e-05 1.621257884736e-04 0.0 
1.621257884736e-04 1.357544467265e-03 0.0 
0.0 0.0 0.0 
9.946264537231e-05 9.965360828876e-05 0.0 
9.965360828876e-05 6.188796073453e-04 0.0 
0.0 0.0 0.0 
-5.236008220455e-05 5.247834761644e-05 0.0 
5.247834761644e-05 1.615894393486e-03 0.0 
0.0 0.0 0.0 
1.053053909889e-04 5.681988193534e-05 0.0 
5.681988193534e-05 6.937556238383e-04 0.0 
0.0 0.0 0.0 
4.629847425127e-05 1.577799013678e-04 0.0 
1.577799013678e-04 1.166026034650e-03 0.0 
0.0 0.0 0.0 
-9.824614850534e-05 1.196356030093e-04 0.0 
1.196356030093e-04 1.176634672323e-03 0.0 
0.0 0.0 0.0 
-5.772843006685e-05 1.565919626147e-04 0.0 
1.565919626147e-04 1.254386705284e-03 0.0 
0.0 0.0 0.0 
-8.166270348412e-05 1.228320471834e-04 0.0 
1.228320471834e-04 1.412901427225e-03 0.0 
0.0 0.0 0.0 
-1.584838693947e-05 1.737402119903e-04 0.0 
1.737402119903e-04 1.115584528975e-03 0.0 
0.0 0.0 0.0 
7.217602412927e-05 7.613821757554e-06 0.0 
7.613821757554e-06 8.288329440757e-04 0.0 
0.0 0.0 0.0 
6.917359963384e-05 6.573608980967e-05 0.0 
6.573608980967e-05 9.974100172151e-04 0.0 
0.0 0.0 0.0 
4.863128149135e-05 1.473508766657e-05 0.0 
1.473508766657e-05 2.482363897334e-04 0.0 
0.0 0.0 0.0 
-1.194680517291e-06 1.908091852748e-04 0.0 
1.908091852748e-04 8.120148443144e-04 0.0 
0.0 0.0 0.0 
-7.441902308769e-05 3.661885301856e-05 0.0 
3.661885301856e-05 1.471223435044e-03 0.0 
0.0 0.0 0.0 
-1.475192241042e-05 1.797971562779e-04 0.0 
1.797971562779e-04 1.401857050833e-03 0.0 
0.0 0.0 0.0 
-2.748441066991e-05 4.533519871315e-05 0.0 
4.533519871315e-05 1.710716384357e-03 0.0 
0.0 0.0 0.0 
-6.320052387624e-05 1.663096056778e-04 0.0 
1.663096056778e-04 1.046004477152e-03 0.0 
0.0 0.0 0.0 
6.766754957318e-05 5.038925654770e-05 0.0 
5.038925654770e-05 9.774534145883e-04 0.0 
0.0 0.0 0.0 
-4.123634514645e-05 5.971957761172e-05 0.0 
5.971957761172e-05 1.668416451165e-03 0.0 
0.0 0.0 0.0 
9.182857178576e-05 1.557708696297e-05 0.0 
1.557708696297e-05 6.362637272967e-04 0.0 
0.0 0.0 0.0 
3.440475645526e-05 -2.713588786040e-06 0.0 
-2.713588786040e-06 2.510164824805e-04 0.0 
0.0 0.0 0.0 
2.888670962209e-05 8.375527695207e-05 0.0 
8.375527695207e-05 2.746724897231e-04 0.0 
0.0 0.0 0.0 
9.523530665445e-05 8.257266532803e-05 0.0 
8.257266532803e-05 4.793771762343e-04 0.0 
0.0 0.0 0.0 
5.148378096949e-05 1.607529184209e-04 0.0 
1.607529184209e-04 8.916025756771e-04 0.0 
0.0 0.0 0.0 
9.179564143976e-05 2.287286347783e-05 0.0 
2.287286347783e-05 7.016364649669e-04 0.0 
0.0 0.0 0.0 
-3.557497420565e-05 9.870162414187e-05 0.0 
9.870162414187e-05 1.693764595551e-03 0.0 
0.0 0.0 0.0 
6.125212174017e-05 4.647231380643e-05 0.0 
4.647231380643e-05 1.004875903681e-03 0.0 
0.0 0.0 0.0 
8.041257618422e-05 9.137054192500e-05 0.0 
9.137054192500e-05 9.769032943616e-04 0.0 
0.0 0.0 0.0 
-7.328471653565e-05 1.271486677829e-04 0.0 
1.271486677829e-04 2.430259735151e-04 0.0 
0.0 0.0 0.0 
-1.039242363463e-04 4.535352743313e-05 0.0 
4.535352743313e-05 1.237525087956e-03 0.0 
0.0 0.0 0.0 
5.454309344233e-05 4.205048158367e-05 0.0 
4.205048158367e-05 1.033419654072e-03 0.0 
0.0 0.0 0.0 
1.000746417484e-04 9.378796271644e-05 0.0 
9.378796271644e-05 7.812719381349e-04 0.0 
0.0 0.0 0.0 
4.854930765641e-05 1.533959627930e-04 0.0 
1.533959627930e-04 1.171757321425e-03 0.0 
0.0 0.0 0.0 
7.733236274617e-05 1.705491132852e-06 0.0 
1.705491132852e-06 6.577059392409e-04 0.0 
0.0 0.0 0.0 
-1.099033991477e-05 1.920841488382e-04 0.0 
1.920841488382e-04 1.502284257309e-03 0.0 
0.0 0.0 0.0 
-1.059650627307e-04 7.333670801305e-05 0.0 
7.333670801305e-05 1.089523739330e-03 0.0 
0.0 0.0 0.0 
4.747530226027e-05 3.709416155217e-05 0.0 
3.709416155217e-05 1.063750830636e-03 0.0 
0.0 0.0 0.0 
7.706179532981e-05 1.104370215901e-04 0.0 
1.104370215901e-04 1.010641533898e-03 0.0 
0.0 0.0 0.0 
6.117839587331e-05 1.587621076483e-04 0.0 
1.587621076483e-04 6.175958789172e-04 0.0 
0.0 0.0 0.0 
-5.491366686391e-05 7.555569356445e-07 0.0 
7.555569356445e-07 1.279492684032e-03 0.0 
0.0 0.0 0.0 
3.078176431662e-05 4.126573806617e-05 0.0 
4.126573806617e-05 1.148303555115e-03 0.0 
0.0 0.0 0.0 
6.486582491213e-05 1.188069886985e-04 0.0 
1.188069886985e-04 1.085163175987e-03 0.0 
0.0 0.0 0.0 
-1.364733802859e-05 1.725072356178e-04 0.0 
1.725072356178e-04 1.171563316733e-03 0.0 
0.0 0.0 0.0 
1.045196780278e-04 7.811696907646e-05 0.0 
7.811696907646e-05 7.262145944443e-04 0.0 
0.0 0.0 0.0 
-1.006141089995e-04 3.542676669850e-05 0.0 
3.542676669850e-05 1.151863714120e-03 0.0 
0.0 0.0 0.0 
8.851086148035e-05 2.171557869690e-05 0.0 
2.171557869690e-05 7.279470115726e-04 0.0 
0.0 0.0 0.0 
-6.529578443883e-05 1.491169742446e-04 0.0 
1.491169742446e-04 1.311242375355e-03 0.0 
0.0 0.0 0.0 
-1.513798627349e-05 8.314736784232e-05 0.0 
8.314736784232e-05 1.758096937019e-03 0.0 
0.0 0.0 0.0 
5.517534011608e-05 1.316914559133e-04 0.0 
1.316914559133e-04 1.138720569859e-03 0.0 
0.0 0.0 0.0 
-8.848750840829e-05 7.196195007058e-05 0.0 
7.196195007058e-05 1.465532324234e-03 0.0 
0.0 0.0 0.0 
8.676959902391e-05 1.455930550314e-05 0.0 
1.455930550314e-05 6.889922549645e-04 0.0 
0.0 0.0 0.0 
3.974983964465e-05 1.626059310493e-04 0.0 
1.626059310493e-04 1.090674613270e-03 0.0 
0.0 0.0 0.0 
1.373510676091e-05 -9.231221106004e-06 0.0 
-9.231221106004e-06 1.327362135034e-04 0.0 
0.0 0.0 0.0 
-1.065695535582e-04 5.517580705244e-05 0.0 
5.517580705244e-05 1.166478662216e-03 0.0 
0.0 0.0 0.0 
8.396722482266e-05 1.389636366808e-05 0.0 
1.389636366808e-05 7.158930109126e-04 0.0 
0.0 0.0 0.0 
9.953857280846e-05 7.020350978740e-05 0.0 
7.020350978740e-05 4.915095596870e-04 0.0 
0.0 0.0 0.0 
1.039567661082e-04 7.129281417209e-05 0.0 
7.129281417209e-05 7.430463368101e-04 0.0 
0.0 0.0 0.0 
1.837392309945e-05 1.861847046265e-04 0.0 
1.861847046265e-04 1.354390000257e-03 0.0 
0.0 0.0 0.0 
8.109086300201e-05 1.301509938475e-05 0.0 
1.301509938475e-05 7.433477179859e-04 0.0 
0.0 0.0 0.0 
1.028357664290e-04 7.974071554486e-05 0.0 
7.974071554486e-05 5.601630507119e-04 0.0 
0.0 0.0 0.0 
7.816406444972e-05 1.176619804941e-05 0.0 
1.176619804941e-05 7.711727600025e-04 0.0 
0.0 0.0 0.0 
-9.979812715309e-05 4.572965786732e-05 0.0 
4.572965786732e-05 1.083011918409e-03 0.0 
0.0 0.0 0.0 
-8.625426879866e-05 8.539148484772e-05 0.0 
8.539148484772e-05 1.480358159123e-03 0.0 
0.0 0.0 0.0 
7.535522209564e-05 9.831757722265e-06 0.0 
9.831757722265e-06 7.991608728913e-04 0.0 
0.0 0.0 0.0 
-5.765303672585e-05 1.530795285828e-04 0.0 
1.530795285828e-04 1.361538816916e-03 0.0 
0.0 0.0 0.0 
1.126907605215e-05 -1.394400195776e-05 0.0 
-1.394400195776e-05 1.411628971913e-04 0.0 
0.0 0.0 0.0 
1.662672893754e-06 1.729446772639e-04 0.0 
1.729446772639e-04 1.162524453283e-03 0.0 
0.0 0.0 0.0 
4.673106522154e-05 1.217896903010e-05 0.0 
1.217896903010e-05 1.042591204562e-03 0.0 
0.0 0.0 0.0 
8.497227565514e-05 7.201607652217e-07 0.0 
7.201607652217e-07 4.609972027296e-04 0.0 
0.0 0.0 0.0 
1.024049013049e-04 6.570988663618e-05 0.0 
6.570988663618e-05 7.621702303331e-04 0.0 
0.0 0.0 0.0 
-7.630367992238e-05 9.610509394655e-05 0.0 
9.610509394655e-05 1.531614833792e-03 0.0 
0.0 0.0 0.0 
-9.717491915469e-05 6.225967008741e-05 0.0 
6.225967008741e-05 1.011001788343e-03 0.0 
0.0 0.0 0.0 
9.733690847613e-05 7.430466695106e-05 0.0 
7.430466695106e-05 8.319928315402e-04 0.0 
0.0 0.0 0.0 
-4.954706871705e-05 1.580226508365e-04 0.0 
1.580226508365e-04 1.413047036178e-03 0.0 
0.0 0.0 0.0 
1.516514292902e-05 1.717563505959e-04 0.0 
1.717563505959e-04 1.157004366309e-03 0.0 
0.0 0.0 0.0 
4.787613501678e-05 1.606314454857e-04 0.0 
1.606314454857e-04 9.578573887304e-04 0.0 
0.0 0.0 0.0 
9.012698813641e-05 8.287004985958e-05 0.0 
8.287004985958e-05 9.036139369828e-04 0.0 
0.0 0.0 0.0 
-1.010319614596e-04 1.014128702522e-04 0.0 
1.014128702522e-04 1.002952464654e-03 0.0 
0.0 0.0 0.0 
5.611587662047e-05 -1.668873963243e-05 0.0 
-1.668873963243e-05 3.307068663927e-04 0.0 
0.0 0.0 0.0 
4.229162712518e-05 -2.042493089348e-05 0.0 
-2.042493089348e-05 2.742353033242e-04 0.0 
0.0 0.0 0.0 
1.053133446411e-04 6.940654173188e-05 0.0 
6.940654173188e-05 5.739263728805e-04 0.0 
0.0 0.0 0.0 
-5.191124645071e-05 1.540887997535e-04 0.0 
1.540887997535e-04 1.465861479279e-03 0.0 
0.0 0.0 0.0 
2.207256046930e-05 -6.584897528784e-06 0.0 
-6.584897528784e-06 1.812012395484e-04 0.0 
0.0 0.0 0.0 
-7.643453392088e-05 1.132735523294e-04 0.0 
1.132735523294e-04 1.500671974562e-03 0.0 
0.0 0.0 0.0 
1.947211230402e-05 -2.363119478741e-05 0.0 
-2.363119478741e-05 1.966823891274e-04 0.0 
0.0 0.0 0.0 
1.038694855732e-04 5.106962650487e-05 0.0 
5.106962650487e-05 5.231268471168e-04 0.0 
0.0 0.0 0.0 
2.311256157080e-05 1.724225801683e-04 0.0 
1.724225801683e-04 1.222281590921e-03 0.0 
0.0 0.0 0.0 
-4.735981575434e-05 5.196864000013e-07 0.0 
5.196864000013e-07 1.449381239994e-03 0.0 
0.0 0.0 0.0 
1.044561399556e-04 4.393804087006e-05 0.0 
4.393804087006e-05 5.411729096431e-04 0.0 
0.0 0.0 0.0 
4.361430117128e-05 -2.352781101271e-06 0.0 
-2.352781101271e-06 3.084573312335e-04 0.0 
0.0 0.0 0.0 
9.973968259950e-05 2.833554756371e-05 0.0 
2.833554756371e-05 4.963852996137e-04 0.0 
0.0 0.0 0.0 
4.400148640956e-05 1.610606463496e-04 0.0 
1.610606463496e-04 1.023981733156e-03 0.0 
0.0 0.0 0.0 
9.950192052973e-05 2.416535204636e-05 0.0 
2.416535204636e-05 5.174485531025e-04 0.0 
0.0 0.0 0.0 
9.289337907092e-05 1.182469020041e-05 0.0 
1.182469020041e-05 4.769696485421e-04 0.0 
0.0 0.0 0.0 
-1.996663712154e-05 2.532048157345e-05 0.0 
2.532048157345e-05 1.725318338962e-03 0.0 
0.0 0.0 0.0 
9.250600150753e-05 1.000556880512e-05 0.0 
1.000556880512e-05 4.993901437770e-04 0.0 
0.0 0.0 0.0 
-8.136531868208e-06 7.076857608075e-06 0.0 
7.076857608075e-06 1.779828788997e-03 0.0 
0.0 0.0 0.0 
1.588338488547e-05 1.341865938529e-05 0.0 
1.341865938529e-05 1.203857380975e-03 0.0 
0.0 0.0 0.0 
-5.306434799255e-05 -1.381535732402e-07 0.0 
-1.381535732402e-07 1.326965780116e-03 0.0 
0.0 0.0 0.0 
-8.804058415122e-05 8.038661565341e-05 0.0 
8.038661565341e-05 9.336920791212e-04 0.0 
0.0 0.0 0.0 
-8.663183520863e-05 7.981748157186e-07 0.0 
7.981748157186e-07 8.090449443020e-05 0.0 
0.0 0.0 0.0 
-8.307964958907e-05 1.546364921763e-04 0.0 
1.546364921763e-04 8.787738711658e-04 0.0 
0.0 0.0 0.0 
7.570588474122e-05 -6.796466462154e-06 0.0 
-6.796466462154e-06 4.016939117056e-04 0.0 
0.0 0.0 0.0 
-7.189348741708e-05 1.310142748977e-04 0.0 
1.310142748977e-04 1.461353496148e-03 0.0 
0.0 0.0 0.0 
-5.331939469507e-05 1.616540055437e-06 0.0 
1.616540055437e-06 1.329665062079e-03 0.0 
0.0 0.0 0.0 
6.594438711168e-05 -1.272420462214e-05 0.0 
-1.272420462214e-05 3.661265311606e-04 0.0 
0.0 0.0 0.0 
-3.344255985823e-05 1.463719549922e-04 0.0 
1.463719549922e-04 1.644065698839e-03 0.0 
0.0 0.0 0.0 
-1.141231928773e-06 2.058748287002e-04 0.0 
2.058748287002e-04 1.511481859375e-03 0.0 
0.0 0.0 0.0 
-4.074507729614e-05 4.639194196083e-06 0.0 
4.639194196083e-06 1.537159944915e-03 0.0 
0.0 0.0 0.0 
4.765199115383e-05 1.492810847739e-04 0.0 
1.492810847739e-04 1.180053307034e-03 0.0 
0.0 0.0 0.0 
2.634804394256e-05 1.691842317177e-04 0.0 
1.691842317177e-04 1.156347796328e-03 0.0 
0.0 0.0 0.0 
-2.452528411778e-05 3.208383376320e-06 0.0 
3.208383376320e-06 1.676094223682e-03 0.0 
0.0 0.0 0.0 
-5.935289257433e-05 7.218119143617e-07 0.0 
7.218119143617e-07 1.276794347007e-03 0.0 
0.0 0.0 0.0 
-1.970812066360e-05 -1.824582205504e-05 0.0 
-1.824582205504e-05 9.251308092451e-05 0.0 
0.0 0.0 0.0 
6.858227676187e-05 4.240514772487e-06 0.0 
4.240514772487e-06 8.635708906798e-04 0.0 
0.0 0.0 0.0 
-8.137608301491e-05 1.242452468546e-04 0.0 
1.242452468546e-04 8.263438023098e-04 0.0 
0.0 0.0 0.0 
-4.329608034838e-05 1.811895269413e-04 0.0 
1.811895269413e-04 6.808569187827e-04 0.0 
0.0 0.0 0.0 
-2.352312445286e-05 1.637959229946e-04 0.0 
1.637959229946e-04 4.794885106263e-04 0.0 
0.0 0.0 0.0 
5.530569172159e-05 -6.002986962427e-06 0.0 
-6.002986962427e-06 3.854555321189e-04 0.0 
0.0 0.0 0.0 
-7.429297619987e-06 -2.244204157500e-05 0.0 
-2.244204157500e-05 1.414470112677e-04 0.0 
0.0 0.0 0.0 
-6.994290077132e-05 1.645401000196e-04 0.0 
1.645401000196e-04 6.350992822010e-04 0.0 
0.0 0.0 0.0 
2.731153056656e-05 1.679193562189e-04 0.0 
1.679193562189e-04 1.298518684551e-03 0.0 
0.0 0.0 0.0 
-6.856139791021e-05 9.072726862854e-06 0.0 
9.072726862854e-06 1.335796569002e-03 0.0 
0.0 0.0 0.0 
1.203872272748e-05 1.770469290618e-04 0.0 
1.770469290618e-04 1.282310845772e-03 0.0 
0.0 0.0 0.0 
-6.943526051575e-05 1.566638638416e-04 0.0 
1.566638638416e-04 4.318399413789e-04 0.0 
0.0 0.0 0.0 
-2.861264603534e-05 6.592835116157e-05 0.0 
6.592835116157e-05 1.718219520086e-03 0.0 
0.0 0.0 0.0 
6.803930043248e-06 1.937961626539e-04 0.0 
1.937961626539e-04 1.413938479097e-03 0.0 
0.0 0.0 0.0 
1.662850085919e-05 7.718785721365e-05 0.0 
7.718785721365e-05 1.236462849433e-03 0.0 
0.0 0.0 0.0 
1.014756336350e-05 1.833795580405e-04 0.0 
1.833795580405e-04 1.344987717703e-03 0.0 
0.0 0.0 0.0 
-2.529141637107e-05 1.236101605099e-04 0.0 
1.236101605099e-04 2.995881810458e-04 0.0 
0.0 0.0 0.0 
-8.230580653472e-05 2.786254060136e-05 0.0 
2.786254060136e-05 1.386542711983e-03 0.0 
0.0 0.0 0.0 
-2.105155762983e-05 1.821299338705e-04 0.0 
1.821299338705e-04 1.557389048440e-03 0.0 
0.0 0.0 0.0 
-3.693108702172e-05 8.259006836799e-06 0.0 
8.259006836799e-06 1.584049814010e-03 0.0 
0.0 0.0 0.0 
1.569739987737e-05 6.226821883557e-05 0.0 
6.226821883557e-05 1.230214012076e-03 0.0 
0.0 0.0 0.0 
-7.578219306998e-05 1.415052033510e-05 0.0 
1.415052033510e-05 1.329231680920e-03 0.0 
0.0 0.0 0.0 
-1.659220251399e-05 1.677756149536e-05 0.0 
1.677756149536e-05 1.733630102773e-03 0.0 
0.0 0.0 0.0 
3.287556820297e-05 -2.055621427115e-06 0.0 
-2.055621427115e-06 2.118025896874e-04 0.0 
0.0 0.0 0.0 
-1.549867853401e-05 8.875068843783e-06 0.0 
8.875068843783e-06 1.734729938268e-03 0.0 
0.0 0.0 0.0 
-6.088390934630e-05 1.394536514569e-04 0.0 
1.394536514569e-04 1.511013922463e-03 0.0 
0.0 0.0 0.0 
-5.321853962609e-05 6.736972759944e-06 0.0 
6.736972759944e-06 1.406592749508e-03 0.0 
0.0 0.0 0.0 
-9.090651883366e-05 3.999453654552e-05 0.0 
3.999453654552e-05 1.379724905370e-03 0.0 
0.0 0.0 0.0 
2.600239274235e-05 2.077112321288e-05 0.0 
2.077112321288e-05 1.155171758416e-03 0.0 
0.0 0.0 0.0 
-3.540076200321e-05 1.239488418933e-04 0.0 
1.239488418933e-04 1.674304616360e-03 0.0 
0.0 0.0 0.0 
-2.929503212644e-05 9.424344238923e-05 0.0 
9.424344238923e-05 2.158136503682e-04 0.0 
0.0 0.0 0.0 
-4.183955685482e-05 8.049512729198e-06 0.0 
8.049512729198e-06 1.533983978652e-03 0.0 
0.0 0.0 0.0 
6.942742381169e-05 -4.256203973831e-06 0.0 
-4.256203973831e-06 4.865250312803e-04 0.0 
0.0 0.0 0.0 
-4.523472702948e-05 -1.129402519980e-05 0.0 
-1.129402519980e-05 1.030064770849e-04 0.0 
0.0 0.0 0.0 
3.361806455304e-05 9.132572849746e-05 0.0 
9.132572849746e-05 1.183300861644e-03 0.0 
0.0 0.0 0.0 
-4.859465622375e-05 1.476969298463e-04 0.0 
1.476969298463e-04 1.558353113937e-03 0.0 
0.0 0.0 0.0 
2.736997141284e-05 3.497531505106e-05 0.0 
3.497531505106e-05 1.154125651468e-03 0.0 
0.0 0.0 0.0 
1.431986987686e-05 -1.895110654805e-06 0.0 
-1.895110654805e-06 1.307557166122e-04 0.0 
0.0 0.0 0.0 
-1.318216640733e-05 -1.488869984630e-05 0.0 
-1.488869984630e-05 8.376684913523e-05 0.0 
0.0 0.0 0.0 
3.219039287741e-05 1.116277037747e-04 0.0 
1.116277037747e-04 1.214283435154e-03 0.0 
0.0 0.0 0.0 
-2.800440470831e-05 1.662506142579e-04 0.0 
1.662506142579e-04 1.613177973540e-03 0.0 
0.0 0.0 0.0 
4.003896896065e-05 -5.221067519045e-06 0.0 
-5.221067519045e-06 2.370712555269e-04 0.0 
0.0 0.0 0.0 
-1.122974543000e-05 5.697418926724e-05 0.0 
5.697418926724e-05 1.777686644910e-03 0.0 
0.0 0.0 0.0 
-5.107286298336e-05 6.612722543669e-05 0.0 
6.612722543669e-05 1.411611927755e-04 0.0 
0.0 0.0 0.0 
-6.335838955858e-05 2.983797038003e-06 0.0 
2.983797038003e-06 1.271534216411e-03 0.0 
0.0 0.0 0.0 
-1.720264779015e-06 -1.102370605724e-05 0.0 
-1.102370605724e-05 8.272112201472e-05 0.0 
0.0 0.0 0.0 
1.487021750921e-05 4.546193455844e-05 0.0 
4.546193455844e-05 1.222726577824e-03 0.0 
0.0 0.0 0.0 
-2.145511677476e-05 4.216381849474e-05 0.0 
4.216381849474e-05 1.732539371372e-03 0.0 
0.0 0.0 0.0 
7.258536659762e-05 -4.575747675089e-07 0.0 
-4.575747675089e-07 5.394540159081e-04 0.0 
0.0 0.0 0.0 
-9.054640179690e-05 2.417217188451e-05 0.0 
2.417217188451e-05 1.287280107126e-03 0.0 
0.0 0.0 0.0 
4.934937046282e-05 -4.304730966759e-06 0.0 
-4.304730966759e-06 3.477379303923e-04 0.0 
0.0 0.0 0.0 
-1.070467604560e-05 1.876369663407e-04 0.0 
1.876369663407e-04 1.446405098349e-03 0.0 
0.0 0.0 0.0 
-6.556841352645e-06 -2.212888570049e-05 0.0 
-2.212888570049e-05 1.298761928267e-04 0.0 
0.0 0.0 0.0 
-1.835748545274e-05 3.018505009461e-05 0.0 
3.018505009461e-05 1.739857531469e-03 0.0 
0.0 0.0 0.0 
3.093154984097e-05 1.326256653155e-04 0.0 
1.326256653155e-04 1.243713621672e-03 0.0 
0.0 0.0 0.0 
-2.995198680584e-05 9.221395782915e-05 0.0 
9.221395782915e-05 1.714550025367e-03 0.0 
0.0 0.0 0.0 
8.552156635355e-06 1.960748941411e-04 0.0 
1.960748941411e-04 1.419960797950e-03 0.0 
0.0 0.0 0.0 
-4.730906734951e-05 1.605851498284e-05 0.0 
1.605851498284e-05 1.093638558144e-04 0.0 
0.0 0.0 0.0 
5.662414289676e-07 1.979509723750e-04 0.0 
1.979509723750e-04 1.456497481366e-03 0.0 
0.0 0.0 0.0 
4.407099400803e-05 1.406767873854e-04 0.0 
1.406767873854e-04 1.200147031242e-03 0.0 
0.0 0.0 0.0 
-5.727293041276e-05 2.242858635312e-06 0.0 
2.242858635312e-06 1.275424598295e-03 0.0 
0.0 0.0 0.0 
-3.333641048771e-05 1.096991946328e-04 0.0 
1.096991946328e-04 1.692590247425e-03 0.0 
0.0 0.0 0.0 
6.159293108086e-05 -4.022767266891e-06 0.0 
-4.022767266891e-06 4.325953496353e-04 0.0 
0.0 0.0 0.0 
2.010475464012e-05 -1.420650753968e-05 0.0 
-1.420650753968e-05 1.794053798026e-04 0.0 
0.0 0.0 0.0 
-6.398214119607e-06 3.061478746349e-06 0.0 
3.061478746349e-06 1.785991879538e-03 0.0 
0.0 0.0 0.0 
3.166706394886e-07 -7.397210304810e-07 0.0 
-7.397210304810e-07 2.853492014121e-05 0.0 
0.0 0.0 0.0 
-5.443798532838e-05 -3.457652973215e-07 0.0 
-3.457652973215e-07 1.270399962752e-03 0.0 
0.0 0.0 0.0 
1.204177822660e-05 7.245098248705e-06 0.0 
7.245098248705e-06 1.219353620868e-03 0.0 
0.0 0.0 0.0 
2.068811776570e-05 -8.534843430542e-06 0.0 
-8.534843430542e-06 1.699331556609e-04 0.0 
0.0 0.0 0.0 
-5.153532428850e-05 1.211175812754e-06 0.0 
1.211175812754e-06 1.372738349193e-03 0.0 
0.0 0.0 0.0 
-2.936134579951e-05 1.573100732806e-04 0.0 
1.573100732806e-04 1.634623942671e-03 0.0 
0.0 0.0 0.0 
7.627155752702e-05 1.120741149010e-06 0.0 
1.120741149010e-06 6.744752119695e-04 0.0 
0.0 0.0 0.0 
-2.880372384375e-05 4.793454175291e-06 0.0 
4.793454175291e-06 1.642882700222e-03 0.0 
0.0 0.0 0.0 
1.110891860554e-05 -2.124032004634e-05 0.0 
-2.124032004634e-05 1.759377779079e-04 0.0 
0.0 0.0 0.0 
-8.993298814397e-05 -6.601023165565e-06 0.0 
-6.601023165565e-06 7.128733471569e-05 0.0 
0.0 0.0 0.0 
-4.531658894498e-05 2.490995903168e-06 0.0 
2.490995903168e-06 1.481509388985e-03 0.0 
0.0 0.0 0.0 
1.116071593330e-05 1.936111084539e-04 0.0 
1.936111084539e-04 1.399337964892e-03 0.0 
0.0 0.0 0.0 
-2.648763797868e-05 7.442057513810e-05 0.0 
7.442057513810e-05 1.728481183452e-03 0.0 
0.0 0.0 0.0 
-5.055909864473e-05 7.063098226133e-06 0.0 
7.063098226133e-06 1.439952865863e-03 0.0 
0.0 0.0 0.0 
1.849299572410e-06 7.667531420151e-05 0.0 
7.667531420151e-05 2.316345622281e-04 0.0 
0.0 0.0 0.0 
-3.807001639491e-05 1.558532774837e-04 0.0 
1.558532774837e-04 1.595877822132e-03 0.0 
0.0 0.0 0.0 
7.610815108838e-05 2.346955429141e-07 0.0 
2.346955429141e-07 5.859719137181e-04 0.0 
0.0 0.0 0.0 
-2.514990540030e-05 1.796595824521e-04 0.0 
1.796595824521e-04 1.509021165162e-03 0.0 
0.0 0.0 0.0 
3.718733848674e-05 1.569749019957e-04 0.0 
1.569749019957e-04 1.240384428057e-03 0.0 
0.0 0.0 0.0 
-8.098415685960e-05 7.227793005057e-05 0.0 
7.227793005057e-05 9.681325809798e-05 0.0 
0.0 0.0 0.0 
7.569956350726e-05 1.821451248960e-06 0.0 
1.821451248960e-06 7.310826782273e-04 0.0 
0.0 0.0 0.0 
-8.409710573076e-06 -1.203412401217e-05 0.0 
-1.203412401217e-05 7.897508710211e-05 0.0 
0.0 0.0 0.0 
2.760602568266e-05 6.755182370391e-05 0.0 
6.755182370391e-05 1.183722169851e-03 0.0 
0.0 0.0 0.0 
7.606007281664e-05 4.825682485250e-07 0.0 
4.825682485250e-07 6.131976229642e-04 0.0 
0.0 0.0 0.0 
-3.343527427854e-05 2.648869314829e-05 0.0 
2.648869314829e-05 8.600241763022e-04 0.0 
0.0 0.0 0.0 
-5.831208016541e-05 9.683512054675e-07 0.0 
9.683512054675e-07 8.750109669191e-04 0.0 
0.0 0.0 0.0 
-5.536579431387e-05 2.966703166256e-05 0.0 
2.966703166256e-05 9.226307529095e-04 0.0 
0.0 0.0 0.0 
-5.428194252155e-05 -6.578783020602e-07 0.0 
-6.578783020602e-07 9.336505667868e-04 0.0 
0.0 0.0 0.0 
-7.170795023864e-05 2.259636318630e-05 0.0 
2.259636318630e-05 9.920826904504e-04 0.0 
0.0 0.0 0.0 
-5.405016377347e-05 -6.652467764048e-07 0.0 
-6.652467764048e-07 1.001674844078e-03 0.0 
0.0 0.0 0.0 
-8.138414993428e-05 1.747366305364e-05 0.0 
1.747366305364e-05 1.060137739253e-03 0.0 
0.0 0.0 0.0 
-5.452474302528e-05 -5.644803546615e-07 0.0 
-5.644803546615e-07 1.062693441909e-03 0.0 
0.0 0.0 0.0 
-8.669893002630e-05 1.432274700693e-05 0.0 
1.432274700693e-05 1.127380399907e-03 0.0 
0.0 0.0 0.0 
-5.485239856615e-05 -2.322052748324e-07 0.0 
-2.322052748324e-07 1.130892143303e-03 0.0 
0.0 0.0 0.0 
-8.794901705481e-05 1.385458533646e-05 0.0 
1.385458533646e-05 1.193054365671e-03 0.0 
0.0 0.0 0.0 
-5.541110277008e-05 7.004042763078e-07 0.0 
7.004042763078e-07 1.191501861495e-03 0.0 
0.0 0.0 0.0 

TENSORS node_materi_strain_plasti float
-2.612663767757e-06 -3.252607646113e-07 0.0 
-3.252607646113e-07 2.093720605042e-05 0.0 
0.0 0.0 -4.924303274428e-06 
-1.079056608654e-04 -1.683663743376e-05 0.0 
-1.683663743376e-05 6.796608024097e-04 0.0 
0.0 0.0 -1.043867513459e-04 
-1.990082416844e-04 1.461466422752e-05 0.0 
1.461466422752e-05 1.338163054070e-03 0.0 
0.0 0.0 -1.998931639748e-04 
-1.992789450115e-04 -1.457804817178e-05 0.0 
-1.457804817178e-05 1.339096739606e-03 0.0 
0.0 0.0 -1.998931639748e-04 
-1.229078891716e-05 5.366280014175e-06 0.0 
5.366280014175e-06 5.053145956954e-05 0.0 
0.0 0.0 -1.268018299698e-05 
-2.543886988905e-05 1.901414525611e-05 0.0 
1.901414525611e-05 1.267844857367e-04 0.0 
0.0 0.0 -2.428620303623e-05 
-3.444505010393e-05 1.562750611400e-05 0.0 
1.562750611400e-05 1.836714106930e-04 0.0 
0.0 0.0 -3.399136149544e-05 
-4.457783022682e-05 1.417525000785e-05 0.0 
1.417525000785e-05 2.618842628781e-04 0.0 
0.0 0.0 -4.406465996183e-05 
-5.572937533165e-05 1.046680884978e-05 0.0 
1.046680884978e-05 3.321775894220e-04 0.0 
0.0 0.0 -5.415704333790e-05 
-6.374532394610e-05 9.877096268525e-06 0.0 
9.877096268525e-06 3.996726964643e-04 0.0 
0.0 0.0 -6.415842296661e-05 
-7.312975922456e-05 1.092726545402e-05 0.0 
1.092726545402e-05 4.685103703879e-04 0.0 
0.0 0.0 -7.410179773499e-05 
-8.340975388222e-05 9.760341255261e-06 0.0 
9.760341255261e-06 5.380090096821e-04 0.0 
0.0 0.0 -8.402736785582e-05 
-9.329317044903e-05 9.748725627981e-06 0.0 
9.748725627981e-06 6.067337971893e-04 0.0 
0.0 0.0 -9.400794208654e-05 
-1.048395173574e-04 1.245666822366e-05 0.0 
1.245666822366e-05 6.774763461161e-04 0.0 
0.0 0.0 -1.040542782181e-04 
-1.176369272068e-04 1.876149311443e-05 0.0 
1.876149311443e-05 7.541898349339e-04 0.0 
0.0 0.0 -1.141079629734e-04 
-1.251371721908e-04 1.991670015406e-05 0.0 
1.991670015406e-05 8.235151932197e-04 0.0 
0.0 0.0 -1.240613786258e-04 
-1.319668018372e-04 2.596472290694e-05 0.0 
2.596472290694e-05 8.806369836317e-04 0.0 
0.0 0.0 -1.335504265687e-04 
-1.429595426911e-04 1.016247294305e-05 0.0 
1.016247294305e-05 9.540683438175e-04 0.0 
0.0 0.0 -1.433712649586e-04 
-1.532202596459e-04 9.657610282115e-06 0.0 
9.657610282115e-06 1.025836369529e-03 0.0 
0.0 0.0 -1.536785213545e-04 
-1.630955816410e-04 9.924116732642e-06 0.0 
9.924116732642e-06 1.095392565861e-03 0.0 
0.0 0.0 -1.636867096734e-04 
-1.736417197982e-04 9.148824907428e-06 0.0 
9.148824907428e-06 1.166298828267e-03 0.0 
0.0 0.0 -1.737495185000e-04 
-1.844935295981e-04 1.136666883781e-05 0.0 
1.136666883781e-05 1.237760949854e-03 0.0 
0.0 0.0 -1.839110754151e-04 
-1.928395893447e-04 1.466620459946e-05 0.0 
1.466620459946e-05 1.307601711888e-03 0.0 
0.0 0.0 -1.934749151625e-04 
-1.992084498245e-04 -9.667205419172e-07 0.0 
-9.667205419172e-07 1.341308611164e-03 0.0 
0.0 0.0 -2.005353038101e-04 
-2.003235822205e-04 -4.576902611969e-07 0.0 
-4.576902611969e-07 1.339283177977e-03 0.0 
0.0 0.0 -1.999418651152e-04 
-2.004195521241e-04 -9.594112326717e-06 0.0 
-9.594112326717e-06 1.337828695600e-03 0.0 
0.0 0.0 -2.002354755130e-04 
-2.008845907091e-04 4.519063874005e-06 0.0 
4.519063874005e-06 1.338578482993e-03 0.0 
0.0 0.0 -2.001689849711e-04 
-2.005719087583e-04 -1.259819984252e-06 0.0 
-1.259819984252e-06 1.336698736025e-03 0.0 
0.0 0.0 -1.998101597465e-04 
-2.003033749392e-04 1.612771953849e-07 0.0 
1.612771953849e-07 1.336699884288e-03 0.0 
0.0 0.0 -2.002576402756e-04 
-1.988174270910e-04 4.435871277179e-07 0.0 
4.435871277179e-07 1.338020991228e-03 0.0 
0.0 0.0 -2.002582685247e-04 
-2.006018029555e-04 -1.428553602928e-06 0.0 
-1.428553602928e-06 1.338259915715e-03 0.0 
0.0 0.0 -2.000295381545e-04 
-2.002076965602e-04 -6.442142530929e-06 0.0 
-6.442142530929e-06 1.339568721789e-03 0.0 
0.0 0.0 -2.004389858384e-04 
-2.006688150029e-04 4.111887006866e-06 0.0 
4.111887006866e-06 1.340190933063e-03 0.0 
0.0 0.0 -2.003568725688e-04 
-2.004204281591e-04 -1.032720327526e-06 0.0 
-1.032720327526e-06 1.338293566306e-03 0.0 
0.0 0.0 -1.999970921405e-04 
-2.007190085647e-04 -7.221768717101e-07 0.0 
-7.221768717101e-07 1.338675392550e-03 0.0 
0.0 0.0 -2.003793839065e-04 
-1.990986785052e-04 -1.590259053498e-08 0.0 
-1.590259053498e-08 1.341350099485e-03 0.0 
0.0 0.0 -2.004146187826e-04 
-2.007914892723e-04 -4.264335361637e-07 0.0 
-4.264335361637e-07 1.339816171211e-03 0.0 
0.0 0.0 -2.002852565091e-04 
-1.994100966532e-04 -1.572894639505e-06 0.0 
-1.572894639505e-06 1.338161131957e-03 0.0 
0.0 0.0 -2.001446319728e-04 
-2.007511256741e-04 1.494960023589e-06 0.0 
1.494960023589e-06 1.335513206817e-03 0.0 
0.0 0.0 -1.998462653075e-04 
-2.008601944157e-04 -3.837724735001e-07 0.0 
-3.837724735001e-07 1.334384440132e-03 0.0 
0.0 0.0 -1.998029376683e-04 
-1.990688471561e-04 2.458886044847e-07 0.0 
2.458886044847e-07 1.337655076969e-03 0.0 
0.0 0.0 -2.000088186226e-04 
-2.001853082778e-04 -6.402158915260e-07 0.0 
-6.402158915260e-07 1.339281899659e-03 0.0 
0.0 0.0 -2.002091174222e-04 
-2.005241707287e-04 -7.501540653690e-07 0.0 
-7.501540653690e-07 1.339203182872e-03 0.0 
0.0 0.0 -2.004865334549e-04 
-2.005853306472e-04 2.540125145858e-06 0.0 
2.540125145858e-06 1.339503555012e-03 0.0 
0.0 0.0 -2.003832587333e-04 
-1.997808965748e-04 -1.605993664680e-07 0.0 
-1.605993664680e-07 1.339666309980e-03 0.0 
0.0 0.0 -2.002174839672e-04 
-2.003075530794e-04 4.838064349886e-07 0.0 
4.838064349886e-07 1.338766324707e-03 0.0 
0.0 0.0 -2.002580803729e-04 
-2.003470639015e-04 -2.444069971793e-07 0.0 
-2.444069971793e-07 1.338072796155e-03 0.0 
0.0 0.0 -2.002440284024e-04 
-2.004510673748e-04 -1.928377971683e-07 0.0 
-1.928377971683e-07 1.340065919944e-03 0.0 
0.0 0.0 -2.002334986692e-04 
-1.995883615915e-04 -7.312419057629e-07 0.0 
-7.312419057629e-07 1.340320439837e-03 0.0 
0.0 0.0 -2.003661129950e-04 
-2.011747927060e-04 -8.722415594418e-07 0.0 
-8.722415594418e-07 1.340079435223e-03 0.0 
0.0 0.0 -2.004908485340e-04 
-1.995361419384e-04 -6.780112919621e-07 0.0 
-6.780112919621e-07 1.340717740891e-03 0.0 
0.0 0.0 -2.004762665914e-04 
-2.008009995012e-04 -8.793815483886e-07 0.0 
-8.793815483886e-07 1.341377617168e-03 0.0 
0.0 0.0 -2.003014926434e-04 
-2.004900975472e-04 -5.374113392905e-06 0.0 
-5.374113392905e-06 1.342707157093e-03 0.0 
0.0 0.0 -2.006997735404e-04 
-2.011614755125e-04 5.177742394411e-06 0.0 
5.177742394411e-06 1.341994191491e-03 0.0 
0.0 0.0 -2.005870641008e-04 
-2.001672680472e-04 1.642921574497e-06 0.0 
1.642921574497e-06 1.338462129955e-03 0.0 
0.0 0.0 -2.000675234999e-04 
-1.999895739659e-04 -6.988816100808e-09 0.0 
-6.988816100808e-09 1.336248125534e-03 0.0 
0.0 0.0 -2.001823097425e-04 
-2.001225026340e-04 -1.240829705364e-06 0.0 
-1.240829705364e-06 1.339474803775e-03 0.0 
0.0 0.0 -2.001929620191e-04 
-1.997428951088e-04 -2.864922555171e-07 0.0 
-2.864922555171e-07 1.339287980767e-03 0.0 
0.0 0.0 -2.002863172658e-04 
-2.011305945919e-04 -1.592599752619e-06 0.0 
-1.592599752619e-06 1.339001312879e-03 0.0 
0.0 0.0 -2.003537156312e-04 
-1.994489271156e-04 -3.123074052844e-07 0.0 
-3.123074052844e-07 1.340206734430e-03 0.0 
0.0 0.0 -2.003469717371e-04 
-2.008676553467e-04 -6.044515584205e-08 0.0 
-6.044515584205e-08 1.338725412238e-03 0.0 
0.0 0.0 -2.002396863610e-04 
-1.992453131624e-04 -1.009025233623e-06 0.0 
-1.009025233623e-06 1.337264745438e-03 0.0 
0.0 0.0 -2.001151187552e-04 
-2.007508866938e-04 2.802615914654e-07 0.0 
2.802615914654e-07 1.337086357069e-03 0.0 
0.0 0.0 -1.998355947622e-04 
-2.010860201950e-04 -2.268840142145e-06 0.0 
-2.268840142145e-06 1.337518567927e-03 0.0 
0.0 0.0 -2.000624918399e-04 
-1.999308478327e-04 1.605132680389e-06 0.0 
1.605132680389e-06 1.340948129084e-03 0.0 
0.0 0.0 -2.004978758543e-04 
-1.989515291925e-04 -1.597226336294e-06 0.0 
-1.597226336294e-06 1.342999130641e-03 0.0 
0.0 0.0 -2.005641941534e-04 
-2.002462740351e-04 -1.655488014151e-06 0.0 
-1.655488014151e-06 1.333093131656e-03 0.0 
0.0 0.0 -1.993486092159e-04 
-1.990090833406e-04 5.684559175637e-07 0.0 
5.684559175637e-07 1.340609276749e-03 0.0 
0.0 0.0 -2.003850096553e-04 
-2.008054096670e-04 9.372155481800e-08 0.0 
9.372155481800e-08 1.339007845984e-03 0.0 
0.0 0.0 -1.998785251170e-04 
-2.008250670669e-04 -6.084757154766e-06 0.0 
-6.084757154766e-06 1.338299561836e-03 0.0 
0.0 0.0 -2.002828574513e-04 
-2.004005035862e-04 2.502291620358e-06 0.0 
2.502291620358e-06 1.342657178018e-03 0.0 
0.0 0.0 -2.004849633189e-04 
-2.007882536758e-04 -1.247747538696e-07 0.0 
-1.247747538696e-07 1.343259988120e-03 0.0 
0.0 0.0 -2.003783523096e-04 
-1.146671904274e-04 -1.178176757847e-05 0.0 
-1.178176757847e-05 7.450986713540e-04 0.0 
0.0 0.0 -1.147343130870e-04 
-1.264453810116e-04 -1.334151081515e-05 0.0 
-1.334151081515e-05 8.198209596703e-04 0.0 
0.0 0.0 -1.244847198447e-04 
-1.356765189360e-04 -1.297470350471e-05 0.0 
-1.297470350471e-05 8.891398730811e-04 0.0 
0.0 0.0 -1.343891602869e-04 
-1.452353386135e-04 -1.385252952600e-05 0.0 
-1.385252952600e-05 9.563155137830e-04 0.0 
0.0 0.0 -1.441570129583e-04 
-1.551452079967e-04 -1.219781350268e-05 0.0 
-1.219781350268e-05 1.026181140671e-03 0.0 
0.0 0.0 -1.540481715075e-04 
-1.626979226826e-04 -1.337619385664e-05 0.0 
-1.337619385664e-05 1.096146543984e-03 0.0 
0.0 0.0 -1.639185295300e-04 
-1.730204163278e-04 -1.189570542028e-05 0.0 
-1.189570542028e-05 1.165335265964e-03 0.0 
0.0 0.0 -1.737435638217e-04 
-1.827904030233e-04 -1.370279642459e-05 0.0 
-1.370279642459e-05 1.231374955592e-03 0.0 
0.0 0.0 -1.836722557877e-04 
-1.920175721782e-04 -1.513479483673e-05 0.0 
-1.513479483673e-05 1.306410256595e-03 0.0 
0.0 0.0 -1.933173094176e-04 
-2.628312394672e-06 4.861178510582e-06 0.0 
4.861178510582e-06 1.556544794842e-05 0.0 
0.0 0.0 -4.409292559605e-06 
-1.048316007749e-04 -9.621305853345e-07 0.0 
-9.621305853345e-07 6.811678198845e-04 0.0 
0.0 0.0 -1.041824356080e-04 
-1.603258868989e-05 6.293505815657e-06 0.0 
6.293505815657e-06 6.888897348946e-05 0.0 
0.0 0.0 -1.632019118638e-05 
-2.756708965862e-05 9.954179369459e-06 0.0 
9.954179369459e-06 1.392031922928e-04 0.0 
0.0 0.0 -2.693367542308e-05 
-3.812552406380e-05 1.016013513838e-05 0.0 
1.016013513838e-05 2.109572618436e-04 0.0 
0.0 0.0 -3.699017713192e-05 
-4.673239375224e-05 7.342281483562e-06 0.0 
7.342281483562e-06 2.750622784035e-04 0.0 
0.0 0.0 -4.639055507518e-05 
-5.200855234888e-05 2.436357541103e-06 0.0 
2.436357541103e-06 3.241483764866e-04 0.0 
0.0 0.0 -5.364127140931e-05 
-6.051274250007e-05 -6.301292665323e-07 0.0 
-6.301292665323e-07 3.944343599617e-04 0.0 
0.0 0.0 -6.369887817887e-05 
-7.141834889080e-05 9.678265043946e-08 0.0 
9.678265043946e-08 4.646211674391e-04 0.0 
0.0 0.0 -7.370455344612e-05 
-8.170243524055e-05 5.000006177168e-08 0.0 
5.000006177168e-08 5.347878226306e-04 0.0 
0.0 0.0 -8.371130494101e-05 
-9.180060726483e-05 -4.722006417284e-07 0.0 
-4.722006417284e-07 6.049326733472e-04 0.0 
0.0 0.0 -9.373011205136e-05 
-4.415761907621e-05 -3.040757938968e-05 0.0 
-3.040757938968e-05 2.907515278875e-04 0.0 
0.0 0.0 -4.733333333333e-05 
-5.460502904689e-05 -2.471936197141e-05 0.0 
-2.471936197141e-05 3.301921564289e-04 0.0 
0.0 0.0 -5.400000000000e-05 
-6.456638670251e-05 -3.069381358953e-05 0.0 
-3.069381358953e-05 3.997152644097e-04 0.0 
0.0 0.0 -6.400000000000e-05 
-7.449630958426e-05 -2.494664394193e-05 0.0 
-2.494664394193e-05 4.692561610563e-04 0.0 
0.0 0.0 -7.400000000000e-05 
-8.434259877890e-05 -3.002568002087e-05 0.0 
-3.002568002087e-05 5.385348917960e-04 0.0 
0.0 0.0 -8.400000000000e-05 
-9.370207488884e-05 -2.126272979996e-05 0.0 
-2.126272979996e-05 6.064301356153e-04 0.0 
0.0 0.0 -9.400000000000e-05 
-1.036969649510e-04 8.247914357618e-06 0.0 
8.247914357618e-06 6.682236523530e-04 0.0 
0.0 0.0 -1.031244360596e-04 
-1.030331121809e-04 6.398061947281e-07 0.0 
6.398061947281e-07 6.730085857154e-04 0.0 
0.0 0.0 -1.036639830904e-04 
-1.040246848300e-04 6.551258288294e-07 0.0 
6.551258288294e-07 6.737003815122e-04 0.0 
0.0 0.0 -1.036786795573e-04 
-1.036199691061e-04 -1.060092899920e-06 0.0 
-1.060092899920e-06 6.728402332334e-04 0.0 
0.0 0.0 -1.035503476195e-04 
-1.036187730866e-04 6.987826892712e-07 0.0 
6.987826892712e-07 6.843234116976e-04 0.0 
0.0 0.0 -1.047113471711e-04 
-1.033931728263e-04 8.121956357098e-07 0.0 
8.121956357098e-07 6.742373380345e-04 0.0 
0.0 0.0 -1.036717283195e-04 
-1.019647128334e-04 -9.227752753182e-07 0.0 
-9.227752753182e-07 6.731432047700e-04 0.0 
0.0 0.0 -1.035575096558e-04 
-1.024936313905e-04 1.772285713447e-06 0.0 
1.772285713447e-06 6.748371062497e-04 0.0 
0.0 0.0 -1.035838249569e-04 
-1.042470993802e-04 3.635416729023e-07 0.0 
3.635416729023e-07 6.762559263978e-04 0.0 
0.0 0.0 -1.038366668071e-04 
-1.045602445557e-04 1.897285970682e-06 0.0 
1.897285970682e-06 6.765304608455e-04 0.0 
0.0 0.0 -1.037414779538e-04 
-1.033276288020e-04 1.064407616834e-06 0.0 
1.064407616834e-06 6.759918874459e-04 0.0 
0.0 0.0 -1.036749887244e-04 
-1.038467522998e-04 5.163460192194e-07 0.0 
5.163460192194e-07 6.750993881616e-04 0.0 
0.0 0.0 -1.036742376103e-04 
-1.031100844336e-04 2.320623075698e-06 0.0 
2.320623075698e-06 6.745066352922e-04 0.0 
0.0 0.0 -1.037248800197e-04 
-1.035625589850e-04 3.164755832638e-06 0.0 
3.164755832638e-06 6.761520668862e-04 0.0 
0.0 0.0 -1.038372224314e-04 
-3.888660396223e-06 -2.385114651317e-06 0.0 
-2.385114651317e-06 2.042711759429e-05 0.0 
0.0 0.0 -4.472331749510e-06 
-5.169101753905e-06 -7.084154542495e-07 0.0 
-7.084154542495e-07 2.271348961565e-05 0.0 
0.0 0.0 -4.502040609288e-06 
-2.364246160799e-06 1.028376057694e-06 0.0 
1.028376057694e-06 2.131091607623e-05 0.0 
0.0 0.0 -4.337518410806e-06 
-1.587498611084e-06 -3.133011703373e-06 0.0 
-3.133011703373e-06 2.050781746996e-05 0.0 
0.0 0.0 -4.334754490686e-06 
-5.046560316982e-06 -4.634948452893e-06 0.0 
-4.634948452893e-06 2.392890582554e-05 0.0 
0.0 0.0 -4.561117883842e-06 
-6.265007612969e-06 -9.207565944816e-07 0.0 
-9.207565944816e-07 2.697395437511e-05 0.0 
0.0 0.0 -4.603166802451e-06 
-5.736513677339e-06 8.387511243072e-08 0.0 
8.387511243072e-08 2.687139260663e-05 0.0 
0.0 0.0 -4.588253942932e-06 
-4.839540945368e-06 -2.011555288387e-07 0.0 
-2.011555288387e-07 2.583465999306e-05 0.0 
0.0 0.0 -4.580819930830e-06 
-4.612792911559e-06 -5.630253563300e-07 0.0 
-5.630253563300e-07 2.605477154738e-05 0.0 
0.0 0.0 -4.566377142626e-06 
-3.958290915494e-06 -1.184167375848e-06 0.0 
-1.184167375848e-06 2.564531167106e-05 0.0 
0.0 0.0 -4.572797242576e-06 
-4.022129294500e-06 -2.439723680986e-06 0.0 
-2.439723680986e-06 2.664958176089e-05 0.0 
0.0 0.0 -4.590091569785e-06 
-6.268342663527e-06 6.977096205287e-07 0.0 
6.977096205287e-07 2.905288206764e-05 0.0 
0.0 0.0 -4.700025780019e-06 
-5.376994636987e-06 4.381417467922e-06 0.0 
4.381417467922e-06 2.721428218001e-05 0.0 
0.0 0.0 -4.652230755744e-06 
-2.838762493559e-06 1.392931258625e-06 0.0 
1.392931258625e-06 2.367722917541e-05 0.0 
0.0 0.0 -4.515582628821e-06 
-3.990779392774e-06 -6.597448414294e-07 0.0 
-6.597448414294e-07 2.387859913914e-05 0.0 
0.0 0.0 -4.562958168800e-06 
-6.201113197701e-06 2.425591329864e-07 0.0 
2.425591329864e-07 2.634678490736e-05 0.0 
0.0 0.0 -4.590849357655e-06 
-6.954870756755e-06 8.464675035122e-07 0.0 
8.464675035122e-07 2.697964767619e-05 0.0 
0.0 0.0 -4.587172474505e-06 
-4.599856540822e-06 4.128708826148e-06 0.0 
4.128708826148e-06 2.250512897823e-05 0.0 
0.0 0.0 -4.562260372237e-06 
-2.212869655358e-06 7.040915964333e-07 0.0 
7.040915964333e-07 1.983031900883e-05 0.0 
0.0 0.0 -4.417496077222e-06 
-5.064790121716e-05 1.154180756345e-05 0.0 
1.154180756345e-05 3.047725288665e-04 0.0 
0.0 0.0 -4.816666666667e-05 
-4.861672826421e-05 2.659400766399e-06 0.0 
2.659400766399e-06 3.026280833141e-04 0.0 
0.0 0.0 -4.844444444444e-05 
-4.851871957053e-05 -2.332574737374e-07 0.0 
-2.332574737374e-07 3.016480324296e-04 0.0 
0.0 0.0 -4.844444444444e-05 
-4.856681215334e-05 -5.039195282762e-07 0.0 
-5.039195282762e-07 3.016173346934e-04 0.0 
0.0 0.0 -4.844444444444e-05 
-4.867046690375e-05 -5.690103029053e-07 0.0 
-5.690103029053e-07 3.017109385612e-04 0.0 
0.0 0.0 -4.844444444444e-05 
-4.877633168717e-05 -5.986232232292e-07 0.0 
-5.986232232292e-07 3.018180607756e-04 0.0 
0.0 0.0 -4.844444444444e-05 
-4.885662602535e-05 -6.216119432233e-07 0.0 
-6.216119432233e-07 3.018936920020e-04 0.0 
0.0 0.0 -4.844444444444e-05 
-4.889960153779e-05 -6.191300232359e-07 0.0 
-6.191300232359e-07 3.019262638880e-04 0.0 
0.0 0.0 -4.844444444444e-05 
-4.891935454066e-05 -5.796984635074e-07 0.0 
-5.796984635074e-07 3.019268152162e-04 0.0 
0.0 0.0 -4.844444444444e-05 
-4.892451082698e-05 -4.997942911405e-07 0.0 
-4.997942911405e-07 3.019025747017e-04 0.0 
0.0 0.0 -4.844444444444e-05 
-4.891843481188e-05 -3.831605140021e-07 0.0 
-3.831605140021e-07 3.018584610733e-04 0.0 
0.0 0.0 -4.844444444444e-05 
-4.889221082816e-05 -2.179112970767e-07 0.0 
-2.179112970767e-07 3.017900509188e-04 0.0 
0.0 0.0 -4.844444444444e-05 
-4.885742603463e-05 6.341245372575e-08 0.0 
6.341245372575e-08 3.017462649782e-04 0.0 
0.0 0.0 -4.844444444444e-05 
-4.887471543798e-05 3.529868205884e-07 0.0 
3.529868205884e-07 3.017553774322e-04 0.0 
0.0 0.0 -4.844444444444e-05 
-4.892938097401e-05 6.749716467962e-07 0.0 
6.749716467962e-07 3.018600705941e-04 0.0 
0.0 0.0 -4.844444444444e-05 
-4.902732381677e-05 6.888507564109e-07 0.0 
6.888507564109e-07 3.019139195383e-04 0.0 
0.0 0.0 -4.844444444444e-05 
-4.900807146402e-05 1.005385139940e-06 0.0 
1.005385139940e-06 3.020965944268e-04 0.0 
0.0 0.0 -4.844444444444e-05 
-4.915352327425e-05 4.910579122551e-07 0.0 
4.910579122551e-07 3.020091864930e-04 0.0 
0.0 0.0 -4.844444444444e-05 
-4.883630308257e-05 1.410168855202e-06 0.0 
1.410168855202e-06 3.023638799472e-04 0.0 
0.0 0.0 -4.844444444444e-05 
-4.935627002619e-05 -3.090118194974e-07 0.0 
-3.090118194974e-07 3.015868374115e-04 0.0 
0.0 0.0 -4.844444444444e-05 
-4.716412142347e-05 4.345780894601e-06 0.0 
4.345780894601e-06 3.022836391240e-04 0.0 
0.0 0.0 -4.844444444444e-05 
-4.718121239197e-05 -3.476399386823e-06 0.0 
-3.476399386823e-06 2.993881478791e-04 0.0 
0.0 0.0 -4.803486394558e-05 
-3.690613659601e-05 4.779827500179e-08 0.0 
4.779827500179e-08 2.727238967809e-04 0.0 
0.0 0.0 -4.604648526077e-05 
-4.613301209441e-05 3.619110181881e-06 0.0 
3.619110181881e-06 3.157829509857e-04 0.0 
0.0 0.0 -5.279515429360e-05 
-5.272430673223e-05 -9.182146848104e-07 0.0 
-9.182146848104e-07 3.334727456063e-04 0.0 
0.0 0.0 -5.439584653737e-05 
-5.380973540994e-05 1.644998673954e-06 0.0 
1.644998673954e-06 3.302664481471e-04 0.0 
0.0 0.0 -5.400000000000e-05 
-5.466689081061e-05 3.147190341774e-07 0.0 
3.147190341774e-07 3.296224174576e-04 0.0 
0.0 0.0 -5.400000000000e-05 
-5.456479812606e-05 8.907554722933e-07 0.0 
8.907554722933e-07 3.301278746856e-04 0.0 
0.0 0.0 -5.400000000000e-05 
-5.469843557399e-05 7.294571082761e-07 0.0 
7.294571082761e-07 3.297896585847e-04 0.0 
0.0 0.0 -5.400000000000e-05 
-5.455713654919e-05 8.293328218573e-07 0.0 
8.293328218573e-07 3.297859209611e-04 0.0 
0.0 0.0 -5.400000000000e-05 
-5.447176827306e-05 6.045948425803e-07 0.0 
6.045948425803e-07 3.295846238880e-04 0.0 
0.0 0.0 -5.400000000000e-05 
-5.439587138175e-05 2.699825687268e-07 0.0 
2.699825687268e-07 3.295445281644e-04 0.0 
0.0 0.0 -5.400000000000e-05 
-5.444020560872e-05 -9.373025041376e-08 0.0 
-9.373025041376e-08 3.295833112604e-04 0.0 
0.0 0.0 -5.400000000000e-05 
-5.448526328926e-05 -2.925786431972e-07 0.0 
-2.925786431972e-07 3.296759622065e-04 0.0 
0.0 0.0 -5.400000000000e-05 
-5.448521490030e-05 -4.042919985534e-07 0.0 
-4.042919985534e-07 3.297222213790e-04 0.0 
0.0 0.0 -5.400000000000e-05 
-5.446593747581e-05 -5.017291938270e-07 0.0 
-5.017291938270e-07 3.297482559229e-04 0.0 
0.0 0.0 -5.400000000000e-05 
-5.444715703514e-05 -5.661052701272e-07 0.0 
-5.661052701272e-07 3.297630960230e-04 0.0 
0.0 0.0 -5.400000000000e-05 
-5.441902664921e-05 -5.791858778638e-07 0.0 
-5.791858778638e-07 3.297520271910e-04 0.0 
0.0 0.0 -5.400000000000e-05 
-5.435489545421e-05 -5.320435298485e-07 0.0 
-5.320435298485e-07 3.296952773800e-04 0.0 
0.0 0.0 -5.400000000000e-05 
-5.425282743638e-05 -4.796851552699e-07 0.0 
-4.796851552699e-07 3.295926353122e-04 0.0 
0.0 0.0 -5.400000000000e-05 
-5.415150905155e-05 -4.389405642830e-07 0.0 
-4.389405642830e-07 3.294912033637e-04 0.0 
0.0 0.0 -5.400000000000e-05 
-5.408758113007e-05 -3.988049795922e-07 0.0 
-3.988049795922e-07 3.294501912325e-04 0.0 
0.0 0.0 -5.400000000000e-05 
-5.412553104182e-05 -4.108986155667e-07 0.0 
-4.108986155667e-07 3.295530381932e-04 0.0 
0.0 0.0 -5.400000000000e-05 
-5.432573387972e-05 -1.150061439258e-06 0.0 
-1.150061439258e-06 3.298496077656e-04 0.0 
0.0 0.0 -5.400000000000e-05 
-5.454235109009e-05 1.621095232876e-05 0.0 
1.621095232876e-05 3.301284745679e-04 0.0 
0.0 0.0 -5.400000000000e-05 
-6.449104081877e-05 1.102095358613e-05 0.0 
1.102095358613e-05 3.995973409364e-04 0.0 
0.0 0.0 -6.400000000000e-05 
-6.422906796569e-05 2.177518514987e-06 0.0 
2.177518514987e-06 3.992543368403e-04 0.0 
0.0 0.0 -6.400000000000e-05 
-6.408383134524e-05 -3.034071916938e-07 0.0 
-3.034071916938e-07 3.990967741269e-04 0.0 
0.0 0.0 -6.400000000000e-05 
-6.408041873393e-05 -3.033981082000e-07 0.0 
-3.033981082000e-07 3.990993988085e-04 0.0 
0.0 0.0 -6.400000000000e-05 
-6.413758657569e-05 -2.664267529371e-07 0.0 
-2.664267529371e-07 3.991827780022e-04 0.0 
0.0 0.0 -6.400000000000e-05 
-6.424201883682e-05 -2.687503912124e-07 0.0 
-2.687503912124e-07 3.993046003732e-04 0.0 
0.0 0.0 -6.400000000000e-05 
-6.435001536576e-05 -3.748421087071e-07 0.0 
-3.748421087071e-07 3.994006642501e-04 0.0 
0.0 0.0 -6.400000000000e-05 
-6.439349834041e-05 -4.644553275205e-07 0.0 
-4.644553275205e-07 3.993979902157e-04 0.0 
0.0 0.0 -6.400000000000e-05 
-6.439694071681e-05 -4.217729739727e-07 0.0 
-4.217729739727e-07 3.993619939022e-04 0.0 
0.0 0.0 -6.400000000000e-05 
-6.446545681239e-05 -3.034361081742e-07 0.0 
-3.034361081742e-07 3.993593597444e-04 0.0 
0.0 0.0 -6.400000000000e-05 
-6.453884953312e-05 -2.444575558042e-07 0.0 
-2.444575558042e-07 3.993592142806e-04 0.0 
0.0 0.0 -6.400000000000e-05 
-6.453841394424e-05 -2.364183723064e-07 0.0 
-2.364183723064e-07 3.992848240483e-04 0.0 
0.0 0.0 -6.400000000000e-05 
-6.443555698589e-05 -5.018406128308e-08 0.0 
-5.018406128308e-08 3.990730026429e-04 0.0 
0.0 0.0 -6.400000000000e-05 
-6.439006881427e-05 5.953405842576e-07 0.0 
5.953405842576e-07 3.990989476378e-04 0.0 
0.0 0.0 -6.400000000000e-05 
-6.459707428735e-05 8.270995238340e-07 0.0 
8.270995238340e-07 3.992307724164e-04 0.0 
0.0 0.0 -6.400000000000e-05 
-6.478530700370e-05 1.165018707171e-06 0.0 
1.165018707171e-06 3.997535009593e-04 0.0 
0.0 0.0 -6.400000000000e-05 
-6.492709823616e-05 1.223192506190e-07 0.0 
1.223192506190e-07 3.993858055679e-04 0.0 
0.0 0.0 -6.400000000000e-05 
-6.387749569822e-05 1.643573763821e-06 0.0 
1.643573763821e-06 3.997389601482e-04 0.0 
0.0 0.0 -6.400000000000e-05 
-6.329773463465e-05 -1.345766021157e-06 0.0 
-1.345766021157e-06 4.036796173873e-04 0.0 
0.0 0.0 -6.440087463557e-05 
-5.619569592719e-05 6.249853982819e-07 0.0 
6.249853982819e-07 3.855354190560e-04 0.0 
0.0 0.0 -6.280102040816e-05 
-6.626641426913e-05 1.378973851741e-06 0.0 
1.378973851741e-06 4.548482350430e-04 0.0 
0.0 0.0 -7.279421768707e-05 
-7.356607765690e-05 -1.854881774075e-06 0.0 
-1.854881774075e-06 4.734083990815e-04 0.0 
0.0 0.0 -7.439504373177e-05 
-7.451973324986e-05 1.818776252699e-06 0.0 
1.818776252699e-06 4.701147270985e-04 0.0 
0.0 0.0 -7.400000000000e-05 
-7.507189263132e-05 1.139871955262e-06 0.0 
1.139871955262e-06 4.690018492736e-04 0.0 
0.0 0.0 -7.400000000000e-05 
-7.440307977863e-05 1.316267280214e-06 0.0 
1.316267280214e-06 4.689046979315e-04 0.0 
0.0 0.0 -7.400000000000e-05 
-7.447964919173e-05 1.327643289489e-07 0.0 
1.327643289489e-07 4.685645119696e-04 0.0 
0.0 0.0 -7.400000000000e-05 
-7.463811246650e-05 -2.009510893623e-07 0.0 
-2.009510893623e-07 4.690373350481e-04 0.0 
0.0 0.0 -7.400000000000e-05 
-7.464635801585e-05 -7.665068053576e-08 0.0 
-7.665068053576e-08 4.691773352964e-04 0.0 
0.0 0.0 -7.400000000000e-05 
-7.456896915363e-05 6.486733144631e-08 0.0 
6.486733144631e-08 4.691551129947e-04 0.0 
0.0 0.0 -7.400000000000e-05 
-7.434965880918e-05 -2.979712214473e-08 0.0 
-2.979712214473e-08 4.690260974999e-04 0.0 
0.0 0.0 -7.400000000000e-05 
-7.428013090329e-05 -3.745306366773e-07 0.0 
-3.745306366773e-07 4.690784611457e-04 0.0 
0.0 0.0 -7.400000000000e-05 
-7.436926452788e-05 -3.179218437662e-07 0.0 
-3.179218437662e-07 4.692164839065e-04 0.0 
0.0 0.0 -7.400000000000e-05 
-7.420923464376e-05 -8.861031691497e-08 0.0 
-8.861031691497e-08 4.691097441108e-04 0.0 
0.0 0.0 -7.400000000000e-05 
-7.408672818249e-05 -9.997158663720e-08 0.0 
-9.997158663720e-08 4.689363840629e-04 0.0 
0.0 0.0 -7.400000000000e-05 
-7.401015679154e-05 -2.369586485918e-07 0.0 
-2.369586485918e-07 4.688345953373e-04 0.0 
0.0 0.0 -7.400000000000e-05 
-7.402043488264e-05 -3.858604555162e-07 0.0 
-3.858604555162e-07 4.687795838329e-04 0.0 
0.0 0.0 -7.400000000000e-05 
-7.406733317633e-05 -8.624702852559e-07 0.0 
-8.624702852559e-07 4.688475136122e-04 0.0 
0.0 0.0 -7.400000000000e-05 
-7.437229827430e-05 -1.941892756436e-06 0.0 
-1.941892756436e-06 4.691620651443e-04 0.0 
0.0 0.0 -7.400000000000e-05 
-7.450735550024e-05 1.576544860626e-05 0.0 
1.576544860626e-05 4.693163051132e-04 0.0 
0.0 0.0 -7.400000000000e-05 
-8.485563316515e-05 1.075809198226e-05 0.0 
1.075809198226e-05 5.391859337594e-04 0.0 
0.0 0.0 -8.400000000000e-05 
-8.409846415960e-05 9.414650263605e-07 0.0 
9.414650263605e-07 5.383995603087e-04 0.0 
0.0 0.0 -8.400000000000e-05 
-8.389555484943e-05 -6.021980322684e-07 0.0 
-6.021980322684e-07 5.381860091551e-04 0.0 
0.0 0.0 -8.400000000000e-05 
-8.398436323506e-05 -4.920223144165e-07 0.0 
-4.920223144165e-07 5.383843948043e-04 0.0 
0.0 0.0 -8.400000000000e-05 
-8.378599896788e-05 -1.313884382087e-07 0.0 
-1.313884382087e-07 5.383410839076e-04 0.0 
0.0 0.0 -8.400000000000e-05 
-8.397004303126e-05 1.320895791523e-07 0.0 
1.320895791523e-07 5.385599452968e-04 0.0 
0.0 0.0 -8.400000000000e-05 
-8.409172541067e-05 3.119498635538e-07 0.0 
3.119498635538e-07 5.388399091460e-04 0.0 
0.0 0.0 -8.400000000000e-05 
-8.425202054181e-05 -4.105999003094e-07 0.0 
-4.105999003094e-07 5.388170517081e-04 0.0 
0.0 0.0 -8.400000000000e-05 
-8.405009752117e-05 1.267934535994e-07 0.0 
1.267934535994e-07 5.383656166005e-04 0.0 
0.0 0.0 -8.400000000000e-05 
-8.446225278370e-05 7.431195345640e-07 0.0 
7.431195345640e-07 5.387309105085e-04 0.0 
0.0 0.0 -8.400000000000e-05 
-8.472976723877e-05 3.614371366169e-07 0.0 
3.614371366169e-07 5.389575801292e-04 0.0 
0.0 0.0 -8.400000000000e-05 
-8.468281700183e-05 1.764545941254e-07 0.0 
1.764545941254e-07 5.387723880717e-04 0.0 
0.0 0.0 -8.400000000000e-05 
-8.488166774851e-05 3.307409063184e-08 0.0 
3.307409063184e-08 5.387187096913e-04 0.0 
0.0 0.0 -8.400000000000e-05 
-8.470036612902e-05 2.233472977468e-07 0.0 
2.233472977468e-07 5.376128164124e-04 0.0 
0.0 0.0 -8.400000000000e-05 
-8.431282722659e-05 3.361858424154e-06 0.0 
3.361858424154e-06 5.388019778082e-04 0.0 
0.0 0.0 -8.400000000000e-05 
-8.416442060440e-05 -6.991529090742e-07 0.0 
-6.991529090742e-07 5.438481516276e-04 0.0 
0.0 0.0 -8.440087463557e-05 
-7.699797766990e-05 8.136884982108e-07 0.0 
8.136884982108e-07 5.256926397960e-04 0.0 
0.0 0.0 -8.280102040816e-05 
-8.729514730737e-05 2.431575192883e-06 0.0 
2.431575192883e-06 5.952071725442e-04 0.0 
0.0 0.0 -9.279292626141e-05 
-9.515402825116e-05 -3.487467194031e-07 0.0 
-3.487467194031e-07 6.124983923015e-04 0.0 
0.0 0.0 -9.439393679549e-05 
-9.530518963518e-05 1.748549076388e-06 0.0 
1.748549076388e-06 6.086982827348e-04 0.0 
0.0 0.0 -9.400000000000e-05 
-9.443822007151e-05 1.536080356852e-06 0.0 
1.536080356852e-06 6.081273132837e-04 0.0 
0.0 0.0 -9.400000000000e-05 
-9.455496517287e-05 4.180655032130e-07 0.0 
4.180655032130e-07 6.085997108048e-04 0.0 
0.0 0.0 -9.400000000000e-05 
-9.458632400686e-05 1.150725883443e-06 0.0 
1.150725883443e-06 6.089170576803e-04 0.0 
0.0 0.0 -9.400000000000e-05 
-9.431195159654e-05 1.533006736186e-06 0.0 
1.533006736186e-06 6.081280804878e-04 0.0 
0.0 0.0 -9.400000000000e-05 
-9.421230709675e-05 -1.354647329153e-07 0.0 
-1.354647329153e-07 6.080912884899e-04 0.0 
0.0 0.0 -9.400000000000e-05 
-9.337909431243e-05 6.942444443618e-07 0.0 
6.942444443618e-07 6.085993616068e-04 0.0 
0.0 0.0 -9.400000000000e-05 
-9.374302250683e-05 3.925743234368e-08 0.0 
3.925743234368e-08 6.082422955829e-04 0.0 
0.0 0.0 -9.400000000000e-05 
-9.357184311787e-05 3.344127971799e-07 0.0 
3.344127971799e-07 6.080020201806e-04 0.0 
0.0 0.0 -9.400000000000e-05 
-9.351707113181e-05 -1.166879688300e-06 0.0 
-1.166879688300e-06 6.078331273393e-04 0.0 
0.0 0.0 -9.400000000000e-05 
-9.397267376399e-05 -4.718022942719e-07 0.0 
-4.718022942719e-07 6.082084038474e-04 0.0 
0.0 0.0 -9.400000000000e-05 
-9.376740862845e-05 -1.478812201538e-06 0.0 
-1.478812201538e-06 6.074134740605e-04 0.0 
0.0 0.0 -9.400000000000e-05 
-9.429475212128e-05 -5.091328171579e-06 0.0 
-5.091328171579e-06 6.089719886990e-04 0.0 
0.0 0.0 -9.400000000000e-05 
-9.572461714176e-05 1.686230062982e-05 0.0 
1.686230062982e-05 6.103161186201e-04 0.0 
0.0 0.0 -9.400000000000e-05 
-9.168972231207e-06 3.086373565098e-06 0.0 
3.086373565098e-06 3.559574852661e-05 0.0 
0.0 0.0 -1.067913767518e-05 
-2.319324557595e-05 9.600073751645e-06 0.0 
9.600073751645e-06 1.051649730873e-04 0.0 
0.0 0.0 -2.186514004066e-05 
-3.270389502079e-05 1.247004681325e-05 0.0 
1.247004681325e-05 1.753354515574e-04 0.0 
0.0 0.0 -3.195214541711e-05 
-4.333142068931e-05 1.229963368923e-05 0.0 
1.229963368923e-05 2.470095009577e-04 0.0 
0.0 0.0 -4.202597925154e-05 
-4.488160423805e-05 2.620282550735e-06 0.0 
2.620282550735e-06 2.956678138489e-04 0.0 
0.0 0.0 -4.966355900614e-05 
-5.332449771990e-05 4.791519907196e-06 0.0 
4.791519907196e-06 3.657467620854e-04 0.0 
0.0 0.0 -5.966365156130e-05 
-6.508558424635e-05 3.075872768086e-06 0.0 
3.075872768086e-06 4.344526873071e-04 0.0 
0.0 0.0 -6.975401418979e-05 
-7.497012245692e-05 4.311534055672e-06 0.0 
4.311534055672e-06 5.043026023732e-04 0.0 
0.0 0.0 -7.976546830823e-05 
-8.509296828041e-05 3.418368169262e-06 0.0 
3.418368169262e-06 5.740185323213e-04 0.0 
0.0 0.0 -8.978403836533e-05 
-9.498556415872e-05 3.738944843297e-06 0.0 
3.738944843297e-06 6.453839669724e-04 0.0 
0.0 0.0 -9.979450657254e-05 
-2.903947000217e-05 4.451191488364e-07 0.0 
4.451191488364e-07 1.483933272917e-04 0.0 
0.0 0.0 -2.805418351568e-05 
-1.947382551544e-04 -2.159516415369e-06 0.0 
-2.159516415369e-06 1.315627443457e-03 0.0 
0.0 0.0 -1.955083413980e-04 
-8.567559438263e-06 -1.698793721464e-06 0.0 
-1.698793721464e-06 4.448364337142e-05 0.0 
0.0 0.0 -8.578267221574e-06 
-8.136868517871e-06 -4.367899646924e-06 0.0 
-4.367899646924e-06 4.087946457471e-05 0.0 
0.0 0.0 -8.341387659605e-06 
-1.954641214955e-04 3.125550394228e-06 0.0 
3.125550394228e-06 1.316340498285e-03 0.0 
0.0 0.0 -1.955041315648e-04 
-5.006254034077e-05 3.860488417876e-06 0.0 
3.860488417876e-06 2.918098893608e-04 0.0 
0.0 0.0 -4.819929352323e-05 
-1.113057377054e-04 -1.249747274644e-06 0.0 
-1.249747274644e-06 7.175137801225e-04 0.0 
0.0 0.0 -1.095085134540e-04 
-1.950754387674e-04 1.968519813096e-06 0.0 
1.968519813096e-06 1.314054090021e-03 0.0 
0.0 0.0 -1.951497400597e-04 
-6.837076637649e-05 -4.771419097857e-06 0.0 
-4.771419097857e-06 4.223371659246e-04 0.0 
0.0 0.0 -6.746904573659e-05 
-1.952596228174e-04 5.860291744709e-07 0.0 
5.860291744709e-07 1.317160681800e-03 0.0 
0.0 0.0 -1.956021977692e-04 
-8.896698281549e-05 5.176874405716e-07 0.0 
5.176874405716e-07 5.656380992247e-04 0.0 
0.0 0.0 -8.786970436408e-05 
-1.941939648637e-04 1.847287419424e-06 0.0 
1.847287419424e-06 1.320485000250e-03 0.0 
0.0 0.0 -1.961487763302e-04 
-7.650674215329e-06 1.236502144193e-06 0.0 
1.236502144193e-06 3.991553915001e-05 0.0 
0.0 0.0 -8.186248162006e-06 
-1.957069062092e-04 9.003290222844e-07 0.0 
9.003290222844e-07 1.317426151316e-03 0.0 
0.0 0.0 -1.956722400187e-04 
-1.089453835626e-04 2.369159746168e-06 0.0 
2.369159746168e-06 7.099109707760e-04 0.0 
0.0 0.0 -1.080461297714e-04 
-6.859129019067e-05 1.013206430907e-06 0.0 
1.013206430907e-06 4.370886358119e-04 0.0 
0.0 0.0 -6.960710895285e-05 
-1.371687672462e-04 1.989641405698e-06 0.0 
1.989641405698e-06 9.073488131676e-04 0.0 
0.0 0.0 -1.368826812983e-04 
-1.943229683407e-04 -1.445358278171e-06 0.0 
-1.445358278171e-06 1.315110082613e-03 0.0 
0.0 0.0 -1.951920106767e-04 
-1.956930830492e-04 2.604495501023e-06 0.0 
2.604495501023e-06 1.317782772153e-03 0.0 
0.0 0.0 -1.956442140825e-04 
-1.963197173795e-04 -2.638308879700e-06 0.0 
-2.638308879700e-06 1.317317020312e-03 0.0 
0.0 0.0 -1.954857917668e-04 
-1.946046977129e-04 1.619923868870e-06 0.0 
1.619923868870e-06 1.311223827380e-03 0.0 
0.0 0.0 -1.946591103862e-04 
-1.965700765428e-04 -3.277130686746e-06 0.0 
-3.277130686746e-06 1.319377863823e-03 0.0 
0.0 0.0 -1.957959275784e-04 
-1.125606473740e-04 1.719511349206e-06 0.0 
1.719511349206e-06 7.393436574216e-04 0.0 
0.0 0.0 -1.128301714015e-04 
-1.128503086942e-04 1.743206654311e-06 0.0 
1.743206654311e-06 7.389768954601e-04 0.0 
0.0 0.0 -1.129477424158e-04 
-1.131980592598e-04 -1.862024743753e-06 0.0 
-1.862024743753e-06 7.425708164452e-04 0.0 
0.0 0.0 -1.137040567910e-04 
-1.496411633683e-04 -5.197980004835e-06 0.0 
-5.197980004835e-06 9.903344520159e-04 0.0 
0.0 0.0 -1.492512252364e-04 
-1.950888054502e-04 -1.662594662544e-06 0.0 
-1.662594662544e-06 1.318271302421e-03 0.0 
0.0 0.0 -1.954311278458e-04 
-7.420624434335e-06 -2.743944179506e-06 0.0 
-2.743944179506e-06 4.036171462300e-05 0.0 
0.0 0.0 -8.192647634203e-06 
-9.873734262922e-06 8.287041108010e-07 0.0 
8.287041108010e-07 4.596430085012e-05 0.0 
0.0 0.0 -8.762595040287e-06 
-1.681367322331e-04 -1.737857054474e-07 0.0 
-1.737857054474e-07 1.127342030325e-03 0.0 
0.0 0.0 -1.684329593750e-04 
-1.137312378447e-04 2.941922033179e-06 0.0 
2.941922033179e-06 7.354400071240e-04 0.0 
0.0 0.0 -1.125050824252e-04 
-4.041482156002e-05 3.417558897105e-07 0.0 
3.417558897105e-07 2.241831831132e-04 0.0 
0.0 0.0 -3.891752881399e-05 
-1.947641557456e-04 7.923084531915e-07 0.0 
7.923084531915e-07 1.304507022875e-03 0.0 
0.0 0.0 -1.939800207710e-04 
-1.960054809974e-04 2.031047324452e-06 0.0 
2.031047324452e-06 1.320447363547e-03 0.0 
0.0 0.0 -1.960961780200e-04 
-1.959837947468e-04 7.548015026683e-07 0.0 
7.548015026683e-07 1.316397764372e-03 0.0 
0.0 0.0 -1.957100175409e-04 
-1.949003992159e-04 1.873708810936e-06 0.0 
1.873708810936e-06 1.312448359133e-03 0.0 
0.0 0.0 -1.946892349944e-04 
-1.963394652884e-04 -2.461762416477e-06 0.0 
-2.461762416477e-06 1.317843150582e-03 0.0 
0.0 0.0 -1.958367853254e-04 
-9.399904561967e-06 3.751811683983e-07 0.0 
3.751811683983e-07 4.607602797327e-05 0.0 
0.0 0.0 -8.777929302786e-06 
-1.121136777944e-04 2.136242843992e-06 0.0 
2.136242843992e-06 7.375316866664e-04 0.0 
0.0 0.0 -1.125147119063e-04 
-1.945054015985e-04 1.526423234173e-06 0.0 
1.526423234173e-06 1.305744790732e-03 0.0 
0.0 0.0 -1.939771297832e-04 
-1.693349048774e-04 -4.546658260319e-06 0.0 
-4.546658260319e-06 1.130612016236e-03 0.0 
0.0 0.0 -1.685397735077e-04 
-8.598075030748e-06 -2.223307893963e-06 0.0 
-2.223307893963e-06 4.388775337437e-05 0.0 
0.0 0.0 -8.698177642707e-06 
-8.871376934976e-05 -9.707224206822e-07 0.0 
-9.707224206822e-07 5.731446297532e-04 0.0 
0.0 0.0 -8.906156601093e-05 
-1.979802513817e-04 -1.566370620822e-06 0.0 
-1.566370620822e-06 1.328935425363e-03 0.0 
0.0 0.0 -1.967971955909e-04 
-6.059110968862e-05 -2.270349058910e-06 0.0 
-2.270349058910e-06 3.638632698663e-04 0.0 
0.0 0.0 -5.846208800394e-05 
-3.934380255029e-05 1.116524761702e-06 0.0 
1.116524761702e-06 2.201048627676e-04 0.0 
0.0 0.0 -3.823193484201e-05 
-7.905584954535e-05 -1.125239316858e-06 0.0 
-1.125239316858e-06 4.942495490073e-04 0.0 
0.0 0.0 -7.767853477808e-05 
-9.853492259670e-05 -1.059175576559e-06 0.0 
-1.059175576559e-06 6.356901872357e-04 0.0 
0.0 0.0 -9.791554816786e-05 
-1.758731503853e-05 -2.183232337716e-06 0.0 
-2.183232337716e-06 7.214564488676e-05 0.0 
0.0 0.0 -1.677835640721e-05 
-1.304400768820e-04 -1.226623402604e-06 0.0 
-1.226623402604e-06 8.588836031036e-04 0.0 
0.0 0.0 -1.302718197671e-04 
-1.976961881145e-04 -1.904942962871e-06 0.0 
-1.904942962871e-06 1.329827350337e-03 0.0 
0.0 0.0 -1.970859964037e-04 
-7.778984465367e-06 4.389754775789e-06 0.0 
4.389754775789e-06 4.119927433976e-05 0.0 
0.0 0.0 -8.754673005183e-06 
-1.866018908338e-04 -2.006069315689e-08 0.0 
-2.006069315689e-08 1.262553750678e-03 0.0 
0.0 0.0 -1.880896313740e-04 
-1.123534650814e-04 1.611587689509e-06 0.0 
1.611587689509e-06 7.392560460262e-04 0.0 
0.0 0.0 -1.129840772622e-04 
-1.171047806051e-04 7.449209117803e-07 0.0 
7.449209117803e-07 7.664746806855e-04 0.0 
0.0 0.0 -1.171402528589e-04 
-1.209300272193e-04 3.259751506580e-06 0.0 
3.259751506580e-06 8.015413982557e-04 0.0 
0.0 0.0 -1.217336839916e-04 
-1.273390226549e-04 -1.216641127310e-06 0.0 
-1.216641127310e-06 8.349727543367e-04 0.0 
0.0 0.0 -1.264258636278e-04 
-1.320700965903e-04 1.876866623278e-08 0.0 
1.876866623278e-08 8.692918616205e-04 0.0 
0.0 0.0 -1.317698771115e-04 
-1.368244106801e-04 -1.114619508482e-06 0.0 
-1.114619508482e-06 9.001255364591e-04 0.0 
0.0 0.0 -1.359061374524e-04 
-1.313516644010e-04 -1.071478350727e-06 0.0 
-1.071478350727e-06 8.642075030487e-04 0.0 
0.0 0.0 -1.306688636612e-04 
-1.406252513591e-04 -1.352739222539e-06 0.0 
-1.352739222539e-06 9.300768557182e-04 0.0 
0.0 0.0 -1.401216342492e-04 
-1.355168506451e-04 -8.441429406154e-07 0.0 
-8.441429406154e-07 8.933027720166e-04 0.0 
0.0 0.0 -1.348466119664e-04 
-1.406309551036e-04 -1.423065028084e-06 0.0 
-1.423065028084e-06 9.373189590449e-04 0.0 
0.0 0.0 -1.412262538548e-04 
-1.447717080924e-04 -1.617847745048e-06 0.0 
-1.617847745048e-06 9.594996109507e-04 0.0 
0.0 0.0 -1.443446404888e-04 
-1.395639979808e-04 -9.495865010562e-07 0.0 
-9.495865010562e-07 9.223387170950e-04 0.0 
0.0 0.0 -1.390295894150e-04 
-1.488518955481e-04 -1.324901186338e-06 0.0 
-1.324901186338e-06 9.887094425207e-04 0.0 
0.0 0.0 -1.485505823874e-04 
-1.436922961000e-04 -1.046451979584e-06 0.0 
-1.046451979584e-06 9.515310653716e-04 0.0 
0.0 0.0 -1.432156325536e-04 
-1.343600788387e-04 -5.167793523512e-07 0.0 
-5.167793523512e-07 8.856735470671e-04 0.0 
0.0 0.0 -1.337521069633e-04 
-1.385105152453e-04 -4.710394907330e-07 0.0 
-4.710394907330e-07 9.146329712672e-04 0.0 
0.0 0.0 -1.379179829106e-04 
-1.289648752830e-04 -8.618976580076e-08 0.0 
-8.618976580076e-08 8.489207055611e-04 0.0 
0.0 0.0 -1.284753219673e-04 
-1.331501462654e-04 -2.281806353291e-07 0.0 
-2.281806353291e-07 8.778469958775e-04 0.0 
0.0 0.0 -1.326245976321e-04 
-1.426230691977e-04 -3.445547381833e-07 0.0 
-3.445547381833e-07 9.438219498313e-04 0.0 
0.0 0.0 -1.420797641308e-04 
-1.372349024752e-04 -4.912623478834e-07 0.0 
-4.912623478834e-07 9.068017641173e-04 0.0 
0.0 0.0 -1.367729294110e-04 
-1.278087679959e-04 -1.828532417459e-07 0.0 
-1.828532417459e-07 8.408634527744e-04 0.0 
0.0 0.0 -1.273259478075e-04 
-1.318398283045e-04 -3.075890479270e-07 0.0 
-3.075890479270e-07 8.695930318134e-04 0.0 
0.0 0.0 -1.314613401273e-04 
-1.224174681950e-04 5.152664304951e-08 0.0 
5.152664304951e-08 8.039186497448e-04 0.0 
0.0 0.0 -1.220343484428e-04 
-1.264174440320e-04 -1.610988413993e-07 0.0 
-1.610988413993e-07 8.325618017429e-04 0.0 
0.0 0.0 -1.261611736566e-04 
-1.170510544419e-04 2.223926002164e-08 0.0 
2.223926002164e-08 7.668217430428e-04 0.0 
0.0 0.0 -1.167242641243e-04 
-1.210374224200e-04 -1.474818318748e-07 0.0 
-1.474818318748e-07 7.955505097843e-04 0.0 
0.0 0.0 -1.208544874677e-04 
-1.304043414113e-04 -3.154242512106e-07 0.0 
-3.154242512106e-07 8.613589922912e-04 0.0 
0.0 0.0 -1.303042425932e-04 
-1.250914766715e-04 -9.789090931161e-08 0.0 
-9.789090931161e-08 8.242842117775e-04 0.0 
0.0 0.0 -1.249864172613e-04 
-1.156698454984e-04 4.104440089512e-08 0.0 
4.104440089512e-08 7.584999711117e-04 0.0 
0.0 0.0 -1.155496960434e-04 
-1.197696986214e-04 6.686600869325e-08 0.0 
6.686600869325e-08 7.872430335080e-04 0.0 
0.0 0.0 -1.196691756306e-04 
-1.103345672185e-04 1.936070379505e-07 0.0 
1.936070379505e-07 7.215726378401e-04 0.0 
0.0 0.0 -1.102360968649e-04 
-1.143831646187e-04 2.841694026703e-07 0.0 
2.841694026703e-07 7.499983246613e-04 0.0 
0.0 0.0 -1.143358844566e-04 
-1.238585560106e-04 1.680319022194e-07 0.0 
1.680319022194e-07 8.159376449007e-04 0.0 
0.0 0.0 -1.237972835831e-04 
-1.185140209161e-04 8.396902968211e-08 0.0 
8.396902968211e-08 7.787352394438e-04 0.0 
0.0 0.0 -1.184549252722e-04 
-1.089992092054e-04 6.281890232419e-08 0.0 
6.281890232419e-08 7.122982226840e-04 0.0 
0.0 0.0 -1.089619939006e-04 
-1.132389115670e-04 -1.057915283393e-07 0.0 
-1.057915283393e-07 7.414300503039e-04 0.0 
0.0 0.0 -1.130977248571e-04 
-1.037240861722e-04 -4.723566763670e-07 0.0 
-4.723566763670e-07 6.746986895894e-04 0.0 
0.0 0.0 -1.035578799258e-04 
-1.079391861501e-04 -9.525050173906e-10 0.0 
-9.525050173906e-10 7.042191649168e-04 0.0 
0.0 0.0 -1.077352770641e-04 
-9.832371136087e-05 -3.508088035029e-07 0.0 
-3.508088035029e-07 6.371418654706e-04 0.0 
0.0 0.0 -9.813603890825e-05 
-1.025291601956e-04 7.520025507384e-08 0.0 
7.520025507384e-08 6.664875104737e-04 0.0 
0.0 0.0 -1.023264466889e-04 
-1.121330899491e-04 -3.201268622914e-08 0.0 
-3.201268622914e-08 7.333893815298e-04 0.0 
0.0 0.0 -1.119135318789e-04 
-1.067345759512e-04 -1.457462253013e-07 0.0 
-1.457462253013e-07 6.958135066491e-04 0.0 
0.0 0.0 -1.065124872911e-04 
-9.708388481881e-05 -1.123756317371e-07 0.0 
-1.123756317371e-07 6.287043899204e-04 0.0 
0.0 0.0 -9.687936111797e-05 
-1.012280793484e-04 -2.016817593289e-07 0.0 
-2.016817593289e-07 6.578039102236e-04 0.0 
0.0 0.0 -1.010667964543e-04 
-1.108655634829e-04 -2.805142089434e-07 0.0 
-2.805142089434e-07 7.250705567917e-04 0.0 
0.0 0.0 -1.107220969010e-04 
-1.053738009019e-04 -2.657681640372e-07 0.0 
-2.657681640372e-07 6.869604308345e-04 0.0 
0.0 0.0 -1.052625016289e-04 
-1.150267739913e-04 -3.300558054111e-07 0.0 
-3.300558054111e-07 7.543777337130e-04 0.0 
0.0 0.0 -1.149374102432e-04 
-1.095605670490e-04 -1.992187362341e-07 0.0 
-1.992187362341e-07 7.162738244309e-04 0.0 
0.0 0.0 -1.094674241824e-04 
-9.992608341546e-05 -2.285291460902e-07 0.0 
-2.285291460902e-07 6.491377746979e-04 0.0 
0.0 0.0 -9.983047339662e-05 
-1.041038271013e-04 -4.784792107374e-08 0.0 
-4.784792107374e-08 6.783667909797e-04 0.0 
0.0 0.0 -1.040110107548e-04 
-1.137411101647e-04 -1.005325563354e-07 0.0 
-1.005325563354e-07 7.455825181624e-04 0.0 
0.0 0.0 -1.136680319875e-04 
-1.082869868131e-04 -5.329032704075e-08 0.0 
-5.329032704075e-08 7.073386927023e-04 0.0 
0.0 0.0 -1.081830392180e-04 
-9.869624350956e-05 -1.279251488152e-07 0.0 
-1.279251488152e-07 6.404070926404e-04 0.0 
0.0 0.0 -9.856705257735e-05 
-1.028159541346e-04 2.106799420310e-07 0.0 
2.106799420310e-07 6.694648529012e-04 0.0 
0.0 0.0 -1.027256921484e-04 
-1.124881435347e-04 1.468300417498e-07 0.0 
1.468300417498e-07 7.366254737130e-04 0.0 
0.0 0.0 -1.123746868942e-04 
-1.069630032943e-04 3.797193907441e-07 0.0 
3.797193907441e-07 6.984570345631e-04 0.0 
0.0 0.0 -1.069064678657e-04 
-9.735694714147e-05 3.040392105122e-07 0.0 
3.040392105122e-07 6.314702925721e-04 0.0 
0.0 0.0 -9.729074097479e-05 
-1.014698791265e-04 5.263077294053e-07 0.0 
5.263077294053e-07 6.606218601415e-04 0.0 
0.0 0.0 -1.014450936127e-04 
-1.111588134786e-04 4.465606502622e-07 0.0 
4.465606502622e-07 7.280983055299e-04 0.0 
0.0 0.0 -1.111412434799e-04 
-1.056103560307e-04 3.527345838497e-07 0.0 
3.527345838497e-07 6.896411777924e-04 0.0 
0.0 0.0 -1.056341277852e-04 
-9.592602067126e-05 5.327638544791e-07 0.0 
5.327638544791e-07 6.223325700671e-04 0.0 
0.0 0.0 -9.597584338962e-05 
-1.000042351432e-04 6.050193751295e-07 0.0 
6.050193751295e-07 6.512858928885e-04 0.0 
0.0 0.0 -1.001195007473e-04 
-1.097885953069e-04 3.509867728239e-07 0.0 
3.509867728239e-07 7.191866513993e-04 0.0 
0.0 0.0 -1.098732949993e-04 
-1.041219874635e-04 4.565113330363e-07 0.0 
4.565113330363e-07 6.802416856987e-04 0.0 
0.0 0.0 -1.043104098158e-04 
-1.139943776011e-04 2.608804957771e-07 0.0 
2.608804957771e-07 7.487261930972e-04 0.0 
0.0 0.0 -1.141349681178e-04 
-9.432131286435e-05 6.931090399304e-07 0.0 
6.931090399304e-07 6.120807620329e-04 0.0 
0.0 0.0 -9.453138577379e-05 
-9.843300825502e-05 3.791394769862e-07 0.0 
3.791394769862e-07 6.410640369442e-04 0.0 
0.0 0.0 -9.871483819285e-05 
-8.857532524913e-05 7.670792375352e-07 0.0 
7.670792375352e-07 5.725816228305e-04 0.0 
0.0 0.0 -8.888275660121e-05 
-9.270105845016e-05 2.622529703410e-07 0.0 
2.622529703410e-07 6.018362902946e-04 0.0 
0.0 0.0 -9.310666704106e-05 
-1.280450341640e-04 2.022914446801e-07 0.0 
2.022914446801e-07 8.448927114390e-04 0.0 
0.0 0.0 -1.279397651938e-04 
-8.276712932225e-05 6.443736138370e-07 0.0 
6.443736138370e-07 5.330826812988e-04 0.0 
0.0 0.0 -8.324826898147e-05 
-7.884768894366e-05 1.023704289178e-06 0.0 
1.023704289178e-06 5.047676539199e-04 0.0 
0.0 0.0 -7.914375511354e-05 
-8.697616798037e-05 -7.331328903707e-10 0.0 
-7.331328903707e-10 5.626687258914e-04 0.0 
0.0 0.0 -8.749891481923e-05 
-9.702972984445e-05 -9.951343649239e-08 0.0 
-9.951343649239e-08 6.318920870484e-04 0.0 
0.0 0.0 -9.740424872913e-05 
-7.706547232469e-05 2.380236829533e-07 0.0 
2.380236829533e-07 4.936160224660e-04 0.0 
0.0 0.0 -7.760805980730e-05 
-8.127460870577e-05 -1.704001729843e-07 0.0 
-1.704001729843e-07 5.235024448564e-04 0.0 
0.0 0.0 -8.188641417383e-05 
-7.155045226520e-05 3.113369261567e-07 0.0 
3.113369261567e-07 4.544691373911e-04 0.0 
0.0 0.0 -7.197242596511e-05 
-9.398834813403e-05 -4.649841708636e-07 0.0 
-4.649841708636e-07 6.067163141264e-04 0.0 
0.0 0.0 -9.378238744040e-05 
-1.466888889075e-04 -6.905876409825e-07 0.0 
-6.905876409825e-07 9.729931165237e-04 0.0 
0.0 0.0 -1.462607504514e-04 
-7.572467440231e-05 1.210487184868e-07 0.0 
1.210487184868e-07 4.846162633768e-04 0.0 
0.0 0.0 -7.626743364961e-05 
-6.621416197033e-05 -1.397216265960e-07 0.0 
-1.397216265960e-07 4.154095652474e-04 0.0 
0.0 0.0 -6.634679566782e-05 
-6.190172954625e-05 4.165851450949e-07 0.0 
4.165851450949e-07 3.853087909955e-04 0.0 
0.0 0.0 -6.205237226325e-05 
-5.628575454228e-05 3.940532300383e-08 0.0 
3.940532300383e-08 3.460724695174e-04 0.0 
0.0 0.0 -5.642855255362e-05 
-1.354938510920e-04 -2.913953566673e-06 0.0 
-2.913953566673e-06 9.082152710087e-04 0.0 
0.0 0.0 -1.368953805519e-04 
-1.462552660591e-04 1.249747586106e-07 0.0 
1.249747586106e-07 9.752174249571e-04 0.0 
0.0 0.0 -1.465891790687e-04 
-1.414040401139e-04 -1.271486640511e-06 0.0 
-1.271486640511e-06 9.428451641582e-04 0.0 
0.0 0.0 -1.420291944686e-04 
-1.520026480131e-04 -3.631190555519e-07 0.0 
-3.631190555519e-07 1.012864624851e-03 0.0 
0.0 0.0 -1.519432683735e-04 
-1.472985787471e-04 -1.382728633740e-06 0.0 
-1.382728633740e-06 9.819853291120e-04 0.0 
0.0 0.0 -1.475277143832e-04 
-6.049783873772e-05 -1.110839167728e-06 0.0 
-1.110839167728e-06 3.760535738177e-04 0.0 
0.0 0.0 -6.071687451653e-05 
-1.539446624240e-04 -1.181077219234e-06 0.0 
-1.181077219234e-06 1.026370553893e-03 0.0 
0.0 0.0 -1.540030753513e-04 
-1.562964739112e-04 4.946292658219e-07 0.0 
4.946292658219e-07 1.043020722120e-03 0.0 
0.0 0.0 -1.563396320792e-04 
-1.184118913967e-04 1.857139776565e-07 0.0 
1.857139776565e-07 7.754976810309e-04 0.0 
0.0 0.0 -1.179280690692e-04 
-1.062500152817e-04 1.741187945380e-07 0.0 
1.741187945380e-07 6.928514360504e-04 0.0 
0.0 0.0 -1.061413340584e-04 
-1.205167248159e-04 -5.462407212351e-07 0.0 
-5.462407212351e-07 7.925156879070e-04 0.0 
0.0 0.0 -1.204127835607e-04 
-8.548976471001e-05 -7.615656520967e-07 0.0 
-7.615656520967e-07 5.535587085213e-04 0.0 
0.0 0.0 -8.618857558133e-05 
-7.988885271144e-05 1.897397534693e-07 0.0 
1.897397534693e-07 5.152050676733e-04 0.0 
0.0 0.0 -8.057008281249e-05 
-9.032121231226e-05 -1.684930927318e-06 0.0 
-1.684930927318e-06 5.843848000393e-04 0.0 
0.0 0.0 -9.050178936823e-05 
-1.196337930892e-04 1.102008659663e-07 0.0 
1.102008659663e-07 7.876256328336e-04 0.0 
0.0 0.0 -1.197064290626e-04 
-1.239088484819e-04 1.270562820448e-07 0.0 
1.270562820448e-07 8.174720289214e-04 0.0 
0.0 0.0 -1.239919845821e-04 
-1.295076006245e-04 6.163016450203e-08 0.0 
6.163016450203e-08 8.563536897128e-04 0.0 
0.0 0.0 -1.295728275001e-04 
-1.338245653935e-04 6.187832994801e-08 0.0 
6.187832994801e-08 8.862996102706e-04 0.0 
0.0 0.0 -1.338680086136e-04 
-1.393975761356e-04 4.550308926583e-08 0.0 
4.550308926583e-08 9.252125319019e-04 0.0 
0.0 0.0 -1.394574676997e-04 
-1.437406368722e-04 1.277074154763e-07 0.0 
1.277074154763e-07 9.552601406530e-04 0.0 
0.0 0.0 -1.437562178924e-04 
-1.381365115215e-04 -6.384328167055e-08 0.0 
-6.384328167055e-08 9.162527365186e-04 0.0 
0.0 0.0 -1.381609243235e-04 
-1.481035666194e-04 -1.079358485103e-07 0.0 
-1.079358485103e-07 9.853010756590e-04 0.0 
0.0 0.0 -1.480541560501e-04 
-1.424433669279e-04 -2.461913392847e-07 0.0 
-2.461913392847e-07 9.462005835288e-04 0.0 
0.0 0.0 -1.424551100593e-04 
-1.492800736972e-04 1.903860536894e-07 0.0 
1.903860536894e-07 9.941570401524e-04 0.0 
0.0 0.0 -1.493525342080e-04 
-1.449751840430e-04 -1.306362921351e-07 0.0 
-1.306362921351e-07 9.640748764024e-04 0.0 
0.0 0.0 -1.450229800689e-04 
-1.523999948246e-04 -3.989684281703e-07 0.0 
-3.989684281703e-07 1.015224728092e-03 0.0 
0.0 0.0 -1.523522284989e-04 
-1.467103464147e-04 -2.659540217927e-07 0.0 
-2.659540217927e-07 9.761558421408e-04 0.0 
0.0 0.0 -1.467489045856e-04 
-1.565625592364e-04 -4.158419287493e-07 0.0 
-4.158419287493e-07 1.045129081510e-03 0.0 
0.0 0.0 -1.566543602455e-04 
-1.508966779748e-04 -3.393169835015e-07 0.0 
-3.393169835015e-07 1.005998704446e-03 0.0 
0.0 0.0 -1.510511651883e-04 
-1.410712457468e-04 -1.790301414096e-07 0.0 
-1.790301414096e-07 9.369358529960e-04 0.0 
0.0 0.0 -1.411301529270e-04 
-1.452736367783e-04 -1.279390741405e-07 0.0 
-1.279390741405e-07 9.667244667063e-04 0.0 
0.0 0.0 -1.454254449112e-04 
-1.355658465602e-04 -3.525019047488e-07 0.0 
-3.525019047488e-07 8.980272974833e-04 0.0 
0.0 0.0 -1.355350811980e-04 
-1.247169685603e-04 -5.424891476076e-07 0.0 
-5.424891476076e-07 8.219820472476e-04 0.0 
0.0 0.0 -1.246443719175e-04 
-1.302412994967e-04 -6.709375140068e-07 0.0 
-6.709375140068e-07 8.602885817839e-04 0.0 
0.0 0.0 -1.301366355066e-04 
-1.344319823677e-04 -5.992072868322e-07 0.0 
-5.992072868322e-07 8.897694935505e-04 0.0 
0.0 0.0 -1.343775141111e-04 
-1.400237331498e-04 -7.656893218290e-07 0.0 
-7.656893218290e-07 9.282252120942e-04 0.0 
0.0 0.0 -1.398832378697e-04 
-1.441786028548e-04 -7.248633173166e-07 0.0 
-7.248633173166e-07 9.577423680475e-04 0.0 
0.0 0.0 -1.441376510238e-04 
-1.498975004286e-04 -8.881523903678e-07 0.0 
-8.881523903678e-07 9.963296213112e-04 0.0 
0.0 0.0 -1.496454511588e-04 
-1.540303661717e-04 -7.919312302376e-07 0.0 
-7.919312302376e-07 1.025660690864e-03 0.0 
0.0 0.0 -1.539048756661e-04 
-1.483333586792e-04 -5.305309886563e-07 0.0 
-5.305309886563e-07 9.873032168340e-04 0.0 
0.0 0.0 -1.483914164041e-04 
-1.531422374596e-04 -8.663739869804e-07 0.0 
-8.663739869804e-07 1.017764678093e-03 0.0 
0.0 0.0 -1.527153750466e-04 
-9.159847415972e-05 -1.256689801576e-07 0.0 
-1.256689801576e-07 5.906791861929e-04 0.0 
0.0 0.0 -9.143391812226e-05 
-8.744560526880e-05 -1.314299425383e-07 0.0 
-1.314299425383e-07 5.615762013321e-04 0.0 
0.0 0.0 -8.725348065585e-05 
-8.202336977827e-05 5.298561278519e-08 0.0 
5.298561278519e-08 5.236724682599e-04 0.0 
0.0 0.0 -8.181782897632e-05 
-7.787136643021e-05 -4.089849052200e-08 0.0 
-4.089849052200e-08 4.946511796611e-04 0.0 
0.0 0.0 -7.764583100160e-05 
-7.249839660415e-05 3.138088007648e-07 0.0 
3.138088007648e-07 4.567503960433e-04 0.0 
0.0 0.0 -7.221245969917e-05 
-6.836637044469e-05 1.575150055604e-07 0.0 
1.575150055604e-07 4.279278736544e-04 0.0 
0.0 0.0 -6.805748655366e-05 
-6.305635467696e-05 5.617632190065e-07 0.0 
5.617632190065e-07 3.898265041818e-04 0.0 
0.0 0.0 -6.258396351101e-05 
-6.700103591366e-05 8.220641914788e-07 0.0 
8.220641914788e-07 4.186472656110e-04 0.0 
0.0 0.0 -6.675491739715e-05 
-5.754489831194e-05 1.185749684510e-06 0.0 
1.185749684510e-06 3.514253860379e-04 0.0 
0.0 0.0 -5.707878267586e-05 
-6.126290636031e-05 1.086382821669e-06 0.0 
1.086382821669e-06 3.802508716618e-04 0.0 
0.0 0.0 -6.128043668686e-05 
-5.191997638371e-05 1.314501197429e-06 0.0 
1.314501197429e-06 3.126420855080e-04 0.0 
0.0 0.0 -5.156902369321e-05 
-5.548063518944e-05 1.243851983737e-06 0.0 
1.243851983737e-06 3.415672031581e-04 0.0 
0.0 0.0 -5.575645035334e-05 
-1.344754893882e-04 -2.441387490924e-07 0.0 
-2.441387490924e-07 8.901905827652e-04 0.0 
0.0 0.0 -1.344534760290e-04 
-1.456336275119e-04 -7.568221187932e-07 0.0 
-7.568221187932e-07 9.666800779835e-04 0.0 
0.0 0.0 -1.453735332694e-04 
-1.555049783814e-04 -4.155015620933e-07 0.0 
-4.155015620933e-07 1.035032948266e-03 0.0 
0.0 0.0 -1.551468130506e-04 
-1.509958831296e-04 -4.550450407200e-07 0.0 
-4.550450407200e-07 1.004729653599e-03 0.0 
0.0 0.0 -1.507981208515e-04 
-5.237773532105e-05 7.911299625010e-08 0.0 
7.911299625010e-08 3.162172589784e-04 0.0 
0.0 0.0 -5.213283032136e-05 
-1.549595763032e-04 -3.953475088671e-07 0.0 
-3.953475088671e-07 1.035774981690e-03 0.0 
0.0 0.0 -1.553660438793e-04 
-1.548355158551e-04 -2.147058021658e-07 0.0 
-2.147058021658e-07 1.033072477775e-03 0.0 
0.0 0.0 -1.549384463224e-04 
-1.505618374828e-04 -5.346193515462e-07 0.0 
-5.346193515462e-07 1.002549198399e-03 0.0 
0.0 0.0 -1.505609887339e-04 
-1.581943545466e-04 -1.140192146815e-07 0.0 
-1.140192146815e-07 1.055484497313e-03 0.0 
0.0 0.0 -1.581898251365e-04 
-5.074202381651e-05 -4.469562897144e-07 0.0 
-4.469562897144e-07 3.073591846823e-04 0.0 
0.0 0.0 -5.088881735611e-05 
-5.888894202551e-05 -5.741143861347e-08 0.0 
-5.741143861347e-08 3.614604751917e-04 0.0 
0.0 0.0 -5.849107602244e-05 
-6.412075790079e-05 -1.262278375699e-08 0.0 
-1.262278375699e-08 3.988248925712e-04 0.0 
0.0 0.0 -6.391656864161e-05 
-1.574092422667e-04 -9.339425827557e-07 0.0 
-9.339425827557e-07 1.050297343269e-03 0.0 
0.0 0.0 -1.573311895261e-04 
-1.526877283991e-04 -1.284456620320e-06 0.0 
-1.284456620320e-06 1.019137079127e-03 0.0 
0.0 0.0 -1.529187321887e-04 
-1.603825137223e-04 -5.841749785693e-07 0.0 
-5.841749785693e-07 1.071965760526e-03 0.0 
0.0 0.0 -1.605236522104e-04 
-5.469413786455e-05 -7.281622474744e-07 0.0 
-7.281622474744e-07 3.375315586186e-04 0.0 
0.0 0.0 -5.513621196740e-05 
-1.581536908889e-04 -3.654449846176e-07 0.0 
-3.654449846176e-07 1.054473463793e-03 0.0 
0.0 0.0 -1.579496168166e-04 
-4.796468630861e-05 1.896906112626e-06 0.0 
1.896906112626e-06 2.843046372018e-04 0.0 
0.0 0.0 -4.740762976608e-05 
-1.492957563781e-04 2.220942752480e-07 0.0 
2.220942752480e-07 9.964627124321e-04 0.0 
0.0 0.0 -1.497345920687e-04 
-1.590878470858e-04 -2.496159838046e-07 0.0 
-2.496159838046e-07 1.065574434498e-03 0.0 
0.0 0.0 -1.596751832792e-04 
-1.325072402165e-04 -1.969088110070e-07 0.0 
-1.969088110070e-07 8.772948073459e-04 0.0 
0.0 0.0 -1.325798954328e-04 
-1.608189791387e-04 2.014272611918e-07 0.0 
2.014272611918e-07 1.073406976442e-03 0.0 
0.0 0.0 -1.606363799130e-04 
-1.561309716741e-04 -2.339592577671e-07 0.0 
-2.339592577671e-07 1.041858527671e-03 0.0 
0.0 0.0 -1.562164154417e-04 
-6.542148837339e-05 5.946748364299e-07 0.0 
5.946748364299e-07 4.098578497775e-04 0.0 
0.0 0.0 -6.552037126556e-05 
-6.021736437679e-05 -6.684208511404e-07 0.0 
-6.684208511404e-07 3.714517723808e-04 0.0 
0.0 0.0 -6.000043125475e-05 
-5.068915045621e-05 -1.408380561497e-07 0.0 
-1.408380561497e-07 3.045038040978e-04 0.0 
0.0 0.0 -5.043265711026e-05 
-5.453954142818e-05 2.060651504187e-07 0.0 
2.060651504187e-07 3.366924109337e-04 0.0 
0.0 0.0 -5.469261876575e-05 
-6.451407366441e-05 2.351316534634e-07 0.0 
2.351316534634e-07 4.022325511173e-04 0.0 
0.0 0.0 -6.426716227193e-05 
-5.833627625562e-05 1.475332914289e-06 0.0 
1.475332914289e-06 3.627446873596e-04 0.0 
0.0 0.0 -5.871258337438e-05 
-4.807156131251e-05 2.860984901678e-06 0.0 
2.860984901678e-06 2.943856579529e-04 0.0 
0.0 0.0 -4.913324142619e-05 
-5.254361987426e-05 1.123300701462e-06 0.0 
1.123300701462e-06 3.235079135303e-04 0.0 
0.0 0.0 -5.312780584397e-05 
-6.250659233249e-05 1.032214388617e-06 0.0 
1.032214388617e-06 3.916354902735e-04 0.0 
0.0 0.0 -6.289080004402e-05 
-5.683371271564e-05 6.514617663209e-07 0.0 
6.514617663209e-07 3.524304224725e-04 0.0 
0.0 0.0 -5.728364188530e-05 
-4.626688611708e-05 9.433782266075e-08 0.0 
9.433782266075e-08 2.835389789337e-04 0.0 
0.0 0.0 -4.745589417336e-05 
-5.129426302525e-05 -1.503356296708e-07 0.0 
-1.503356296708e-07 3.125902668457e-04 0.0 
0.0 0.0 -5.163203607156e-05 
-1.648607225605e-04 -6.089305084908e-07 0.0 
-6.089305084908e-07 1.104792906558e-03 0.0 
0.0 0.0 -1.652812738464e-04 
-4.167405797836e-05 8.410179837610e-07 0.0 
8.410179837610e-07 2.451219688669e-04 0.0 
0.0 0.0 -4.186284350154e-05 
-1.249684890118e-04 -2.205649056544e-07 0.0 
-2.205649056544e-07 8.202073805391e-04 0.0 
0.0 0.0 -1.243305906297e-04 
-1.646630308387e-04 -1.022913161021e-08 0.0 
-1.022913161021e-08 1.101899429601e-03 0.0 
0.0 0.0 -1.648518411109e-04 
-1.639675080930e-04 -1.299974009233e-07 0.0 
-1.299974009233e-07 1.093025674446e-03 0.0 
0.0 0.0 -1.635990625314e-04 
-1.626548351363e-04 -9.421237167933e-07 0.0 
-9.421237167933e-07 1.087804894673e-03 0.0 
0.0 0.0 -1.627548864773e-04 
-1.581986558715e-04 -9.653447949462e-07 0.0 
-9.653447949462e-07 1.056782727253e-03 0.0 
0.0 0.0 -1.583405447554e-04 
-1.481377693349e-04 -2.120708352151e-07 0.0 
-2.120708352151e-07 9.876266265678e-04 0.0 
0.0 0.0 -1.484606848305e-04 
-1.540154319252e-04 -3.355995825506e-07 0.0 
-3.355995825506e-07 1.026130043866e-03 0.0 
0.0 0.0 -1.539002516356e-04 
-1.639459642661e-04 -1.118185498440e-06 0.0 
-1.118185498440e-06 1.095163385158e-03 0.0 
0.0 0.0 -1.637913674505e-04 
-1.597127986535e-04 -5.251908400988e-07 0.0 
-5.251908400988e-07 1.064343135399e-03 0.0 
0.0 0.0 -1.593514347843e-04 
-1.498284746973e-04 -2.503307102559e-07 0.0 
-2.503307102559e-07 9.952508194671e-04 0.0 
0.0 0.0 -1.494394109873e-04 
-1.551654717719e-04 -2.221504212273e-07 0.0 
-2.221504212273e-07 1.032948984562e-03 0.0 
0.0 0.0 -1.548970433853e-04 
-1.450485534152e-04 -2.383136960808e-07 0.0 
-2.383136960808e-07 9.636019756158e-04 0.0 
0.0 0.0 -1.449683599891e-04 
-1.505550421048e-04 1.094892235923e-07 0.0 
1.094892235923e-07 1.001407844642e-03 0.0 
0.0 0.0 -1.504333548381e-04 
-1.604309941691e-04 -2.109459501862e-07 0.0 
-2.109459501862e-07 1.070618892500e-03 0.0 
0.0 0.0 -1.603701620288e-04 
-1.560376916017e-04 -3.456752304365e-07 0.0 
-3.456752304365e-07 1.039490983705e-03 0.0 
0.0 0.0 -1.559081117414e-04 
-1.463603444154e-04 5.238436514868e-07 0.0 
5.238436514868e-07 9.703937077682e-04 0.0 
0.0 0.0 -1.459586303199e-04 
-1.516966554836e-04 -5.880015514228e-07 0.0 
-5.880015514228e-07 1.008208762980e-03 0.0 
0.0 0.0 -1.514361790689e-04 
-1.421096498293e-04 1.604631745138e-07 0.0 
1.604631745138e-07 9.389173202103e-04 0.0 
0.0 0.0 -1.414740555389e-04 
-1.468086585315e-04 -1.361458900587e-06 0.0 
-1.361458900587e-06 9.758542090481e-04 0.0 
0.0 0.0 -1.469409179663e-04 
-1.568420766373e-04 -2.584461478695e-07 0.0 
-2.584461478695e-07 1.046197364230e-03 0.0 
0.0 0.0 -1.569152749070e-04 
-4.415663167365e-05 -1.039285152091e-07 0.0 
-1.039285152091e-07 2.708684229223e-04 0.0 
0.0 0.0 -4.553936700826e-05 
-1.526637656570e-04 1.250996266671e-07 0.0 
1.250996266671e-07 1.017041372094e-03 0.0 
0.0 0.0 -1.526598922342e-04 
-1.628543927015e-04 1.351270598111e-06 0.0 
1.351270598111e-06 1.085793726948e-03 0.0 
0.0 0.0 -1.625747755015e-04 
-8.563655870662e-05 -3.488146837263e-06 0.0 
-3.488146837263e-06 5.496252535939e-04 0.0 
0.0 0.0 -8.506982008416e-05 
-9.486581924080e-05 -3.814151178450e-06 0.0 
-3.814151178450e-06 6.119359456549e-04 0.0 
0.0 0.0 -9.488074031859e-05 
-1.005495603609e-04 3.086228134672e-07 0.0 
3.086228134672e-07 6.529918919365e-04 0.0 
0.0 0.0 -1.004348942539e-04 
-1.044776236545e-04 -3.577979789199e-07 0.0 
-3.577979789199e-07 6.841250152862e-04 0.0 
0.0 0.0 -1.048029480622e-04 
-1.519826796643e-04 -1.039717232479e-06 0.0 
-1.039717232479e-06 1.014113556129e-03 0.0 
0.0 0.0 -1.523216651845e-04 
-1.628631714461e-04 6.789175869979e-07 0.0 
6.789175869979e-07 1.084318911977e-03 0.0 
0.0 0.0 -1.624109035739e-04 
-5.449179525623e-05 -7.987416053225e-08 0.0 
-7.987416053225e-08 3.327114773236e-04 0.0 
0.0 0.0 -5.446356520677e-05 
-5.983794664642e-05 5.165551288587e-07 0.0 
5.165551288587e-07 3.698050392348e-04 0.0 
0.0 0.0 -5.981452797925e-05 
-1.671906361362e-04 -6.280906550938e-07 0.0 
-6.280906550938e-07 1.118589944564e-03 0.0 
0.0 0.0 -1.671574094483e-04 
-1.535741135101e-04 4.867165336145e-08 0.0 
4.867165336145e-08 1.026955907390e-03 0.0 
0.0 0.0 -1.540568046000e-04 
-1.438756782793e-04 7.792960236787e-07 0.0 
7.792960236787e-07 9.575022276215e-04 0.0 
0.0 0.0 -1.441490849774e-04 
-1.009130978815e-04 2.058688768753e-07 0.0 
2.058688768753e-07 6.559900048877e-04 0.0 
0.0 0.0 -1.008290295839e-04 
-9.685773395831e-05 4.264808855012e-07 0.0 
4.264808855012e-07 6.270397862493e-04 0.0 
0.0 0.0 -9.674459360631e-05 
-9.135164612507e-05 -1.903780837398e-07 0.0 
-1.903780837398e-07 5.899287429268e-04 0.0 
0.0 0.0 -9.139696625653e-05 
-8.725354889556e-05 6.962837147412e-07 0.0 
6.962837147412e-07 5.598510728809e-04 0.0 
0.0 0.0 -8.718447207042e-05 
-9.300425525152e-05 1.437996831778e-06 0.0 
1.437996831778e-06 5.988622257639e-04 0.0 
0.0 0.0 -9.260497328457e-05 
-8.151290837503e-05 -1.410580149273e-06 0.0 
-1.410580149273e-06 5.218003047074e-04 0.0 
0.0 0.0 -8.172223224803e-05 
-1.406089208823e-04 -2.402054608789e-07 0.0 
-2.402054608789e-07 9.332894798307e-04 0.0 
0.0 0.0 -1.405957691658e-04 
-1.658683700673e-04 -7.646942833602e-07 0.0 
-7.646942833602e-07 1.108741460833e-03 0.0 
0.0 0.0 -1.658562309426e-04 
-5.781518420954e-05 1.266454175936e-06 0.0 
1.266454175936e-06 3.557470476378e-04 0.0 
0.0 0.0 -5.779306812918e-05 
-4.802865254420e-05 7.137000022052e-07 0.0 
7.137000022052e-07 2.866754704248e-04 0.0 
0.0 0.0 -4.790438838533e-05 
-1.638603738935e-04 -1.751728736807e-07 0.0 
-1.751728736807e-07 1.096449059773e-03 0.0 
0.0 0.0 -1.639950272516e-04 
-1.428406885554e-04 -4.063061608444e-08 0.0 
-4.063061608444e-08 9.487085255522e-04 0.0 
0.0 0.0 -1.428423306355e-04 
-1.397754667912e-04 -5.337001690441e-07 0.0 
-5.337001690441e-07 9.273626177410e-04 0.0 
0.0 0.0 -1.397960314865e-04 
-1.438858799674e-04 -3.687014672477e-07 0.0 
-3.687014672477e-07 9.563861152014e-04 0.0 
0.0 0.0 -1.439752108775e-04 
-1.492610894434e-04 -6.859194927328e-07 0.0 
-6.859194927328e-07 9.938921068845e-04 0.0 
0.0 0.0 -1.493569516990e-04 
-1.533583656652e-04 -2.578988813187e-07 0.0 
-2.578988813187e-07 1.023001986965e-03 0.0 
0.0 0.0 -1.535627705943e-04 
-1.589055659580e-04 -8.108043834339e-07 0.0 
-8.108043834339e-07 1.060829964530e-03 0.0 
0.0 0.0 -1.589810023698e-04 
-1.631518145122e-04 -4.384743000289e-07 0.0 
-4.384743000289e-07 1.089769235200e-03 0.0 
0.0 0.0 -1.631781870057e-04 
-1.576954622164e-04 7.757103855088e-08 0.0 
7.757103855088e-08 1.052834468886e-03 0.0 
0.0 0.0 -1.577686755743e-04 
-1.655653749574e-04 1.153777774229e-06 0.0 
1.153777774229e-06 1.110734179248e-03 0.0 
0.0 0.0 -1.661194977352e-04 
-1.676568937117e-04 -5.380450323564e-07 0.0 
-5.380450323564e-07 1.120118409862e-03 0.0 
0.0 0.0 -1.673875415144e-04 
-1.408452494755e-04 1.226026312677e-06 0.0 
1.226026312677e-06 9.416014478326e-04 0.0 
0.0 0.0 -1.423072560050e-04 
-1.411610954119e-04 -1.667686956676e-07 0.0 
-1.667686956676e-07 9.361864568386e-04 0.0 
0.0 0.0 -1.409767306836e-04 
-6.685806001299e-05 8.336719987083e-07 0.0 
8.336719987083e-07 4.210903405702e-04 0.0 
0.0 0.0 -6.711978442003e-05 
-4.180859338127e-05 -2.391316367319e-06 0.0 
-2.391316367319e-06 2.386470707080e-04 0.0 
0.0 0.0 -4.128748474099e-05 
-4.202443748219e-05 2.082260459363e-08 0.0 
2.082260459363e-08 2.421619926750e-04 0.0 
0.0 0.0 -4.155413421678e-05 
-4.885629556399e-05 9.695166710736e-07 0.0 
9.695166710736e-07 2.973049205982e-04 0.0 
0.0 0.0 -4.949622909127e-05 
-5.886475257555e-05 5.012940386976e-07 0.0 
5.012940386976e-07 3.671165151901e-04 0.0 
0.0 0.0 -5.942331684616e-05 
-1.701524326179e-04 -2.478949267955e-07 0.0 
-2.478949267955e-07 1.141091287684e-03 0.0 
0.0 0.0 -1.704540905158e-04 
-1.688701131472e-04 -7.880779693720e-07 0.0 
-7.880779693720e-07 1.128148657559e-03 0.0 
0.0 0.0 -1.686097943865e-04 
-1.645187862567e-04 -7.830603816418e-07 0.0 
-7.830603816418e-07 1.098043410909e-03 0.0 
0.0 0.0 -1.643423135982e-04 
-8.335621055865e-05 3.090761482563e-06 0.0 
3.090761482563e-06 5.330757850641e-04 0.0 
0.0 0.0 -8.309698707208e-05 
-8.907622380058e-05 9.098765487225e-07 0.0 
9.098765487225e-07 5.710176681635e-04 0.0 
0.0 0.0 -8.857956952730e-05 
-1.698091735536e-04 4.492498910091e-07 0.0 
4.492498910091e-07 1.141399927452e-03 0.0 
0.0 0.0 -1.704417977873e-04 
-1.357890576857e-04 -2.245189513229e-07 0.0 
-2.245189513229e-07 9.134142540395e-04 0.0 
0.0 0.0 -1.376677267776e-04 
-1.395432965358e-04 -1.715851711574e-07 0.0 
-1.715851711574e-07 9.262509041073e-04 0.0 
0.0 0.0 -1.395319589165e-04 
-1.347947841220e-04 2.713370184276e-07 0.0 
2.713370184276e-07 8.938256624501e-04 0.0 
0.0 0.0 -1.350285088515e-04 
-3.672231146069e-05 -2.132510581459e-06 0.0 
-2.132510581459e-06 2.203530386721e-04 0.0 
0.0 0.0 -3.892831888128e-05 
-3.637712963261e-05 7.197511136289e-07 0.0 
7.197511136289e-07 2.141167117019e-04 0.0 
0.0 0.0 -3.788396651026e-05 
-1.694800178962e-04 -9.883703524795e-07 0.0 
-9.883703524795e-07 1.133513736801e-03 0.0 
0.0 0.0 -1.692545752333e-04 
-6.937545800042e-05 3.228980611410e-07 0.0 
3.228980611410e-07 4.358386743780e-04 0.0 
0.0 0.0 -6.923809046111e-05 
-6.522800914265e-05 4.802178938973e-07 0.0 
4.802178938973e-07 4.068593445534e-04 0.0 
0.0 0.0 -6.513959669466e-05 
-3.835293382449e-05 1.419780011636e-06 0.0 
1.419780011636e-06 2.169955699432e-04 0.0 
0.0 0.0 -3.762272808090e-05 
-3.184713987987e-05 3.230456577081e-07 0.0 
3.230456577081e-07 1.763378694127e-04 0.0 
0.0 0.0 -3.215802126946e-05 
-1.564097184147e-04 2.852905095697e-06 0.0 
2.852905095697e-06 1.049316422252e-03 0.0 
0.0 0.0 -1.577722324506e-04 
-1.666476506988e-04 2.040589658683e-06 0.0 
2.040589658683e-06 1.120282174027e-03 0.0 
0.0 0.0 -1.676789152757e-04 
-1.096907460405e-04 -3.286013999443e-07 0.0 
-3.286013999443e-07 7.221561234987e-04 0.0 
0.0 0.0 -1.103539394458e-04 
-1.146883842954e-04 -1.653249674978e-06 0.0 
-1.653249674978e-06 7.528293944776e-04 0.0 
0.0 0.0 -1.147244957885e-04 
-1.658368221067e-04 -7.296927506317e-07 0.0 
-7.296927506317e-07 1.111095675298e-03 0.0 
0.0 0.0 -1.661337593878e-04 
-4.600380394054e-05 -1.491158073068e-07 0.0 
-1.491158073068e-07 2.738216254214e-04 0.0 
0.0 0.0 -4.591192000902e-05 
-1.719378156417e-04 1.421041712674e-07 0.0 
1.421041712674e-07 1.154049105325e-03 0.0 
0.0 0.0 -1.723772497485e-04 
-1.472965570201e-04 4.727447796770e-07 0.0 
4.727447796770e-07 9.788476002172e-04 0.0 
0.0 0.0 -1.471186205066e-04 
-1.373907042142e-04 1.793164290013e-07 0.0 
1.793164290013e-07 9.102123959892e-04 0.0 
0.0 0.0 -1.372860605493e-04 
-9.767120859221e-05 2.136804418641e-06 0.0 
2.136804418641e-06 6.441362083975e-04 0.0 
0.0 0.0 -9.906935000530e-05 
-5.062215510686e-05 1.026665089058e-06 0.0 
1.026665089058e-06 3.047645721911e-04 0.0 
0.0 0.0 -5.049648738178e-05 
-4.540502709285e-05 6.832131871419e-07 0.0 
6.832131871419e-07 2.672371430162e-04 0.0 
0.0 0.0 -4.513648964862e-05 
-7.256428344436e-05 1.111321589037e-06 0.0 
1.111321589037e-06 4.598861736081e-04 0.0 
0.0 0.0 -7.268378841861e-05 
-5.559787971176e-05 4.468565818418e-07 0.0 
4.468565818418e-07 3.424877842220e-04 0.0 
0.0 0.0 -5.585123947100e-05 
-5.303663475667e-05 2.464193940360e-07 0.0 
2.464193940360e-07 3.275568518533e-04 0.0 
0.0 0.0 -5.375179489994e-05 
-1.757934592010e-04 1.094510029965e-06 0.0 
1.094510029965e-06 1.179890690537e-03 0.0 
0.0 0.0 -1.760744972657e-04 
-1.733244805152e-04 -1.137885131472e-06 0.0 
-1.137885131472e-06 1.163616194136e-03 0.0 
0.0 0.0 -1.736362873376e-04 
-1.621997224677e-04 -1.527288975187e-06 0.0 
-1.527288975187e-06 1.082969057806e-03 0.0 
0.0 0.0 -1.620259229750e-04 
-1.525464893974e-04 4.621401952152e-09 0.0 
4.621401952152e-09 1.015177504387e-03 0.0 
0.0 0.0 -1.523516756879e-04 
-1.708917266004e-04 -1.191002855825e-06 0.0 
-1.191002855825e-06 1.149869569914e-03 0.0 
0.0 0.0 -1.717432538670e-04 
-3.490930834727e-05 -8.429582514125e-07 0.0 
-8.429582514125e-07 2.054757264963e-04 0.0 
0.0 0.0 -3.598778460012e-05 
-1.750597953055e-04 -3.250942675730e-07 0.0 
-3.250942675730e-07 1.172414927759e-03 0.0 
0.0 0.0 -1.748691643181e-04 
-1.586399412700e-04 -2.193877546445e-07 0.0 
-2.193877546445e-07 1.058088814965e-03 0.0 
0.0 0.0 -1.584205238596e-04 
-1.750232827386e-04 1.287113450679e-06 0.0 
1.287113450679e-06 1.163117526416e-03 0.0 
0.0 0.0 -1.736397701047e-04 
-1.700112759458e-04 -1.265368885600e-07 0.0 
-1.265368885600e-07 1.135355063019e-03 0.0 
0.0 0.0 -1.696829740659e-04 
-7.476684779119e-05 6.450836384552e-07 0.0 
6.450836384552e-07 4.725536723755e-04 0.0 
0.0 0.0 -7.452749745521e-05 
-7.091016921093e-05 -6.094699303139e-07 0.0 
-6.094699303139e-07 4.445526167574e-04 0.0 
0.0 0.0 -7.058709718060e-05 
-6.137074756451e-05 4.293104842186e-07 0.0 
4.293104842186e-07 3.794045980526e-04 0.0 
0.0 0.0 -6.117385547845e-05 
-6.706588179639e-05 1.609427156406e-06 0.0 
1.609427156406e-06 4.182950742711e-04 0.0 
0.0 0.0 -6.657037245228e-05 
-1.266094766854e-04 -6.739720647020e-07 0.0 
-6.739720647020e-07 8.277553541706e-04 0.0 
0.0 0.0 -1.254250592285e-04 
-8.035638793885e-05 -1.393926461581e-07 0.0 
-1.393926461581e-07 5.104400494154e-04 0.0 
0.0 0.0 -8.000873303496e-05 
-1.195834177750e-04 -1.404073059010e-07 0.0 
-1.404073059010e-07 7.834003609027e-04 0.0 
0.0 0.0 -1.190894946197e-04 
-1.155376331103e-04 -2.307315433276e-07 0.0 
-2.307315433276e-07 7.547800193782e-04 0.0 
0.0 0.0 -1.149779503611e-04 
-1.103258532928e-04 1.102189864938e-07 0.0 
1.102189864938e-07 7.186555490901e-04 0.0 
0.0 0.0 -1.097928741388e-04 
-9.842809374509e-05 1.902629040635e-07 0.0 
1.902629040635e-07 6.359410459750e-04 0.0 
0.0 0.0 -9.791810678625e-05 
-9.437419777145e-05 -2.159475299136e-07 0.0 
-2.159475299136e-07 6.080813734442e-04 0.0 
0.0 0.0 -9.392806562918e-05 
-8.322610419495e-05 -1.701840068510e-07 0.0 
-1.701840068510e-07 5.319942046353e-04 0.0 
0.0 0.0 -8.302446698330e-05 
-1.259991147617e-04 -5.365801846221e-07 0.0 
-5.365801846221e-07 8.306372732465e-04 0.0 
0.0 0.0 -1.258546578921e-04 
-1.058761433090e-04 7.571849957901e-08 0.0 
7.571849957901e-08 6.921175985289e-04 0.0 
0.0 0.0 -1.060443156317e-04 
-1.312139144854e-04 -3.837092576882e-07 0.0 
-3.837092576882e-07 8.682026054100e-04 0.0 
0.0 0.0 -1.312656420104e-04 
-1.251895528939e-04 1.195207152196e-07 0.0 
1.195207152196e-07 8.263310173887e-04 0.0 
0.0 0.0 -1.252521985300e-04 
-1.703049238627e-04 -5.676244569172e-07 0.0 
-5.676244569172e-07 1.139278121345e-03 0.0 
0.0 0.0 -1.702664597809e-04 
-1.760146123077e-04 -1.359452968980e-06 0.0 
-1.359452968980e-06 1.178275809354e-03 0.0 
0.0 0.0 -1.757907768048e-04 
-1.365524219146e-04 1.370157856815e-06 0.0 
1.370157856815e-06 9.012669428523e-04 0.0 
0.0 0.0 -1.359860927471e-04 
-1.307920283978e-04 1.357393189447e-07 0.0 
1.357393189447e-07 8.686300506088e-04 0.0 
0.0 0.0 -1.314620690688e-04 
-4.233213601894e-05 -2.593523707964e-07 0.0 
-2.593523707964e-07 2.470565775743e-04 0.0 
0.0 0.0 -4.219739737344e-05 
-3.886008786518e-05 1.163800211807e-06 0.0 
1.163800211807e-06 2.179605684997e-04 0.0 
0.0 0.0 -3.798854165781e-05 
-1.182815464932e-04 7.930796381186e-08 0.0 
7.930796381186e-08 7.785584436133e-04 0.0 
0.0 0.0 -1.184174655913e-04 
-1.693736305393e-04 6.591876404938e-07 0.0 
6.591876404938e-07 1.131789490517e-03 0.0 
0.0 0.0 -1.691294037713e-04 
-1.725748694788e-04 -2.401644388833e-08 0.0 
-2.401644388833e-08 1.155505334098e-03 0.0 
0.0 0.0 -1.725143790870e-04 
-1.770772882819e-04 -4.241524903004e-07 0.0 
-4.241524903004e-07 1.186342832568e-03 0.0 
0.0 0.0 -1.769059244357e-04 
-1.714408370001e-04 -4.978042219238e-07 0.0 
-4.978042219238e-07 1.148550534216e-03 0.0 
0.0 0.0 -1.715053987883e-04 
-1.710166963781e-04 1.347194091455e-07 0.0 
1.347194091455e-07 1.148948053295e-03 0.0 
0.0 0.0 -1.716410088010e-04 
-8.613875064520e-05 1.983705843865e-08 0.0 
1.983705843865e-08 5.527937603815e-04 0.0 
0.0 0.0 -8.600610143220e-05 
-1.288985122743e-04 -4.311114656055e-07 0.0 
-4.311114656055e-07 8.513543686181e-04 0.0 
0.0 0.0 -1.288645011303e-04 
-3.653516155706e-05 -1.602670112053e-06 0.0 
-1.602670112053e-06 2.073406842075e-04 0.0 
0.0 0.0 -3.634822514125e-05 
-1.333225735758e-04 1.155434495762e-07 0.0 
1.155434495762e-07 8.819083259488e-04 0.0 
0.0 0.0 -1.332694147460e-04 
-3.243355553450e-05 -5.508408617257e-07 0.0 
-5.508408617257e-07 1.777229056962e-04 0.0 
0.0 0.0 -3.243805315734e-05 
-1.521318087540e-04 -2.136602868641e-07 0.0 
-2.136602868641e-07 1.009920947414e-03 0.0 
0.0 0.0 -1.515479370354e-04 
-1.681720023865e-04 8.090304823283e-08 0.0 
8.090304823283e-08 1.126882532784e-03 0.0 
0.0 0.0 -1.684223758654e-04 
-1.735596513314e-04 4.917479192772e-09 0.0 
4.917479192772e-09 1.165356413454e-03 0.0 
0.0 0.0 -1.738820625913e-04 
-1.749637471521e-04 2.720388968620e-07 0.0 
2.720388968620e-07 1.178416888185e-03 0.0 
0.0 0.0 -1.757938962529e-04 
-1.125612094541e-04 1.713025509613e-06 0.0 
1.713025509613e-06 7.350876687057e-04 0.0 
0.0 0.0 -1.120642929630e-04 
-1.375852130868e-04 4.206176119326e-07 0.0 
4.206176119326e-07 9.112604874474e-04 0.0 
0.0 0.0 -1.374408399149e-04 
-1.323430315928e-04 2.679124462258e-07 0.0 
2.679124462258e-07 8.742078643875e-04 0.0 
0.0 0.0 -1.321308925596e-04 
-1.061253817389e-04 5.601605163015e-07 0.0 
5.601605163015e-07 6.904423550458e-04 0.0 
0.0 0.0 -1.057303730324e-04 
-1.010535408523e-04 5.872506187826e-07 0.0 
5.872506187826e-07 6.547439695766e-04 0.0 
0.0 0.0 -1.006129583810e-04 
-1.050589004756e-04 5.249789125324e-07 0.0 
5.249789125324e-07 6.823405630018e-04 0.0 
0.0 0.0 -1.045943784994e-04 
-9.594121695788e-05 5.701784484997e-07 0.0 
5.701784484997e-07 6.189426135763e-04 0.0 
0.0 0.0 -9.539409567622e-05 
-7.670722250222e-05 7.477520012380e-07 0.0 
7.477520012380e-07 4.887760317978e-04 0.0 
0.0 0.0 -7.683892420519e-05 
-7.103860008569e-05 4.652611723913e-07 0.0 
4.652611723913e-07 4.497405032502e-04 0.0 
0.0 0.0 -7.125283206988e-05 
-1.794791303054e-04 3.046290545188e-07 0.0 
3.046290545188e-07 1.202568044115e-03 0.0 
0.0 0.0 -1.788063205342e-04 
-1.769207863009e-04 3.279526117005e-06 0.0 
3.279526117005e-06 1.187698538996e-03 0.0 
0.0 0.0 -1.767990258301e-04 
-1.796288049769e-04 -8.041882013151e-07 0.0 
-8.041882013151e-07 1.202665816041e-03 0.0 
0.0 0.0 -1.789543763817e-04 
-1.735511399808e-04 -6.381743090030e-08 0.0 
-6.381743090030e-08 1.174777860682e-03 0.0 
0.0 0.0 -1.752247752347e-04 
-1.776329748734e-04 -4.492702858953e-07 0.0 
-4.492702858953e-07 1.208120942378e-03 0.0 
0.0 0.0 -1.801365737201e-04 
-1.734650378150e-04 -1.715499755081e-07 0.0 
-1.715499755081e-07 1.171053020005e-03 0.0 
0.0 0.0 -1.746253154232e-04 
-6.397194449559e-05 -8.644213742386e-07 0.0 
-8.644213742386e-07 3.958263205946e-04 0.0 
0.0 0.0 -6.341026310084e-05 
-8.522640710731e-05 3.477888862430e-07 0.0 
3.477888862430e-07 5.439871764934e-04 0.0 
0.0 0.0 -8.469390476807e-05 
-1.776955029070e-04 -1.524143709276e-06 0.0 
-1.524143709276e-06 1.201358150170e-03 0.0 
0.0 0.0 -1.791227834549e-04 
-1.112229346520e-04 4.789206220836e-07 0.0 
4.789206220836e-07 7.257595216689e-04 0.0 
0.0 0.0 -1.108630369651e-04 
-1.797556034384e-04 -6.312345564761e-07 0.0 
-6.312345564761e-07 1.200035518570e-03 0.0 
0.0 0.0 -1.789253132142e-04 
-1.736948380453e-04 5.431781983200e-07 0.0 
5.431781983200e-07 1.162780945010e-03 0.0 
0.0 0.0 -1.734070790826e-04 
-2.519516585345e-05 -9.707201663460e-07 0.0 
-9.707201663460e-07 1.373677520700e-04 0.0 
0.0 0.0 -2.664754339747e-05 
-3.015018737399e-05 -3.279297815400e-06 0.0 
-3.279297815400e-06 1.664829630556e-04 0.0 
0.0 0.0 -3.052430242461e-05 
-1.769892636273e-04 2.634610193557e-07 0.0 
2.634610193557e-07 1.192719086742e-03 0.0 
0.0 0.0 -1.776883310004e-04 
-5.758327952376e-05 -3.462473019841e-08 0.0 
-3.462473019841e-08 3.517263668732e-04 0.0 
0.0 0.0 -5.717887963261e-05 
-6.329339839047e-05 1.198404527509e-06 0.0 
1.198404527509e-06 3.880051844578e-04 0.0 
0.0 0.0 -6.238035407746e-05 
-5.212222281800e-05 -2.848057552127e-07 0.0 
-2.848057552127e-07 3.138366464287e-04 0.0 
0.0 0.0 -5.189549137910e-05 
-1.887618442225e-04 7.084845367266e-07 0.0 
7.084845367266e-07 1.267778144178e-03 0.0 
0.0 0.0 -1.887465440047e-04 
-1.122732225603e-04 -4.441296090606e-07 0.0 
-4.441296090606e-07 7.339799403067e-04 0.0 
0.0 0.0 -1.121888505450e-04 
-1.770685012225e-04 3.305358162577e-07 0.0 
3.305358162577e-07 1.195492347302e-03 0.0 
0.0 0.0 -1.784128478473e-04 
-1.037318983505e-04 3.959585097184e-08 0.0 
3.959585097184e-08 6.732989381237e-04 0.0 
0.0 0.0 -1.032702350429e-04 
-1.811215610528e-04 5.481099123405e-07 0.0 
5.481099123405e-07 1.225364590535e-03 0.0 
0.0 0.0 -1.824766045798e-04 
-1.418983722809e-04 3.275014927134e-07 0.0 
3.275014927134e-07 9.414952171589e-04 0.0 
0.0 0.0 -1.417367461992e-04 
-9.531983498029e-05 1.199130758146e-06 0.0 
1.199130758146e-06 6.176848429937e-04 0.0 
0.0 0.0 -9.530949026541e-05 
-1.618025468886e-04 -1.313138482705e-06 0.0 
-1.313138482705e-06 1.080414047570e-03 0.0 
0.0 0.0 -1.617266240239e-04 
-1.712367337160e-04 -2.517022686550e-06 0.0 
-2.517022686550e-06 1.155497819449e-03 0.0 
0.0 0.0 -1.723711093632e-04 
-1.839585546077e-04 1.922702604488e-06 0.0 
1.922702604488e-06 1.233266053318e-03 0.0 
0.0 0.0 -1.832438941626e-04 
-1.282285700338e-04 1.437764343269e-06 0.0 
1.437764343269e-06 8.565496247714e-04 0.0 
0.0 0.0 -1.295806172002e-04 
-1.247283955189e-04 -2.695014414448e-06 0.0 
-2.695014414448e-06 8.206621223611e-04 0.0 
0.0 0.0 -1.249156399969e-04 
-1.336973054243e-04 4.780502432986e-07 0.0 
4.780502432986e-07 8.862457055751e-04 0.0 
0.0 0.0 -1.338771030064e-04 
-4.352546499244e-05 4.436478363747e-07 0.0 
4.436478363747e-07 2.551361667223e-04 0.0 
0.0 0.0 -4.330579966881e-05 
-3.389814883689e-05 -2.442715112613e-07 0.0 
-2.442715112613e-07 1.810863350630e-04 0.0 
0.0 0.0 -3.279405811742e-05 
-1.716063829927e-04 -5.958765859028e-07 0.0 
-5.958765859028e-07 1.146696562296e-03 0.0 
0.0 0.0 -1.713135399111e-04 
-7.523536838437e-05 -6.007458973842e-07 0.0 
-6.007458973842e-07 4.758491836951e-04 0.0 
0.0 0.0 -7.509208182934e-05 
-8.235594042686e-05 2.209891807401e-06 0.0 
2.209891807401e-06 5.147698268391e-04 0.0 
0.0 0.0 -8.038827667338e-05 
-5.001146581911e-05 6.274014862647e-08 0.0 
6.274014862647e-08 3.012652504281e-04 0.0 
0.0 0.0 -4.993066604202e-05 
-5.951991557963e-05 4.745024153846e-07 0.0 
4.745024153846e-07 3.695589487495e-04 0.0 
0.0 0.0 -5.978314405524e-05 
-1.155737714789e-04 -3.760380621998e-07 0.0 
-3.760380621998e-07 7.609985150200e-04 0.0 
0.0 0.0 -1.159213944990e-04 
-1.114463395749e-04 -2.406998584791e-07 0.0 
-2.406998584791e-07 7.310738123434e-04 0.0 
0.0 0.0 -1.116262644424e-04 
-1.561658126362e-04 -5.299206413350e-07 0.0 
-5.299206413350e-07 1.039568765867e-03 0.0 
0.0 0.0 -1.558038104416e-04 
-1.616536575182e-04 8.873878670220e-08 0.0 
8.873878670220e-08 1.076746179334e-03 0.0 
0.0 0.0 -1.611194038498e-04 
-1.452021797269e-04 -7.201116330739e-07 0.0 
-7.201116330739e-07 9.647061708381e-04 0.0 
0.0 0.0 -1.451343074576e-04 
-1.417360905196e-04 8.632870990932e-08 0.0 
8.632870990932e-08 9.403024522762e-04 0.0 
0.0 0.0 -1.415933767274e-04 
-1.319020358547e-04 3.977806768535e-08 0.0 
3.977806768535e-08 8.718254866790e-04 0.0 
0.0 0.0 -1.317570344669e-04 
-1.275952978262e-04 -1.808898908879e-07 0.0 
-1.808898908879e-07 8.422298684311e-04 0.0 
0.0 0.0 -1.275414768178e-04 
-1.808056931016e-04 -1.525758788825e-06 0.0 
-1.525758788825e-06 1.206677931101e-03 0.0 
0.0 0.0 -1.799800510317e-04 
-1.870307763930e-04 -2.673876865903e-07 0.0 
-2.673876865903e-07 1.255623469781e-03 0.0 
0.0 0.0 -1.864092322314e-04 
-8.236599237368e-05 5.694757370752e-07 0.0 
5.694757370752e-07 5.272929756111e-04 0.0 
0.0 0.0 -8.232948673513e-05 
-7.828325005813e-05 7.807941924694e-07 0.0 
7.807941924694e-07 4.983469412597e-04 0.0 
0.0 0.0 -7.818189541436e-05 
-8.066781870606e-05 6.215778532638e-07 0.0 
6.215778532638e-07 5.167877030226e-04 0.0 
0.0 0.0 -8.085192856594e-05 
-1.821793884671e-04 -9.452425038887e-07 0.0 
-9.452425038887e-07 1.232295246858e-03 0.0 
0.0 0.0 -1.834584547941e-04 
-1.830922366977e-04 2.536660346183e-06 0.0 
2.536660346183e-06 1.235147881441e-03 0.0 
0.0 0.0 -1.836006722523e-04 
-1.803954664386e-04 -2.175726806454e-06 0.0 
-2.175726806454e-06 1.202974169961e-03 0.0 
0.0 0.0 -1.793731166858e-04 
-2.884547195492e-05 -1.949294581992e-06 0.0 
-1.949294581992e-06 1.508764218898e-04 0.0 
0.0 0.0 -2.821170413667e-05 
-3.570881000968e-05 -1.070718923965e-06 0.0 
-1.070718923965e-06 1.885432469507e-04 0.0 
0.0 0.0 -3.370638853217e-05 
-4.213783208319e-05 -1.170748262369e-07 0.0 
-1.170748262369e-07 2.402822286115e-04 0.0 
0.0 0.0 -4.126795851095e-05 
-3.586246974089e-05 -2.546283779184e-06 0.0 
-2.546283779184e-06 2.018033726068e-04 0.0 
0.0 0.0 -3.610688574664e-05 
-1.813118037091e-04 3.339770754459e-08 0.0 
3.339770754459e-08 1.214209313964e-03 0.0 
0.0 0.0 -1.810888083315e-04 
-1.759503644858e-04 -2.370337744253e-09 0.0 
-2.370337744253e-09 1.179752016776e-03 0.0 
0.0 0.0 -1.758947287297e-04 
-1.868380600491e-04 -2.026246098823e-08 0.0 
-2.026246098823e-08 1.260450932184e-03 0.0 
0.0 0.0 -1.871207327665e-04 
-5.677368414960e-05 2.032718348151e-06 0.0 
2.032718348151e-06 3.527741904510e-04 0.0 
0.0 0.0 -5.702308739092e-05 
-1.568027754872e-04 9.086678946457e-07 0.0 
9.086678946457e-07 1.045425867798e-03 0.0 
0.0 0.0 -1.567983548164e-04 
-1.807947804281e-04 1.816885949765e-06 0.0 
1.816885949765e-06 1.215031055035e-03 0.0 
0.0 0.0 -1.811848825972e-04 
-1.767874529665e-04 2.635533244675e-06 0.0 
2.635533244675e-06 1.187503191795e-03 0.0 
0.0 0.0 -1.767018567944e-04 
-1.863663002342e-04 1.461510242915e-06 0.0 
1.461510242915e-06 1.257417594462e-03 0.0 
0.0 0.0 -1.866936124609e-04 
-1.705605319310e-04 -3.043131196869e-07 0.0 
-3.043131196869e-07 1.147035567734e-03 0.0 
0.0 0.0 -1.713153186433e-04 
-1.813551999588e-04 -1.051944771726e-06 0.0 
-1.051944771726e-06 1.212243561196e-03 0.0 
0.0 0.0 -1.808143025540e-04 
-1.810144852020e-04 9.510582154737e-07 0.0 
9.510582154737e-07 1.215244823925e-03 0.0 
0.0 0.0 -1.813984546852e-04 
-2.289882463440e-05 -1.917411223350e-06 0.0 
-1.917411223350e-06 1.064438362998e-04 0.0 
0.0 0.0 -2.272772520152e-05 
-1.796453692485e-04 -2.519464026569e-06 0.0 
-2.519464026569e-06 1.205769465943e-03 0.0 
0.0 0.0 -1.799989151485e-04 
-1.255838269039e-04 -2.372108616113e-07 0.0 
-2.372108616113e-07 8.274746007515e-04 0.0 
0.0 0.0 -1.255735778981e-04 
-1.648487917531e-05 -4.731674107763e-06 0.0 
-4.731674107763e-06 7.996115120316e-05 0.0 
0.0 0.0 -1.701907742944e-05 
-1.197277503755e-04 -6.241620168612e-08 0.0 
-6.241620168612e-08 7.962718767862e-04 0.0 
0.0 0.0 -1.210522788133e-04 
-1.264445161814e-04 -2.564056665928e-07 0.0 
-2.564056665928e-07 8.371650247824e-04 0.0 
0.0 0.0 -1.267742309066e-04 
-1.154487627705e-04 -6.658166254296e-07 0.0 
-6.658166254296e-07 7.569378951924e-04 0.0 
0.0 0.0 -1.162214466274e-04 
-4.660515595758e-05 1.493989084367e-06 0.0 
1.493989084367e-06 2.841958466787e-04 0.0 
0.0 0.0 -4.732948783071e-05 
-1.214260254664e-04 -1.596625013767e-06 0.0 
-1.596625013767e-06 8.039136548600e-04 0.0 
0.0 0.0 -1.226115929076e-04 
-1.277494935593e-04 -2.322994823893e-06 0.0 
-2.322994823893e-06 8.489823059285e-04 0.0 
0.0 0.0 -1.283491864751e-04 
-2.181725480317e-05 4.928406156629e-07 0.0 
4.928406156629e-07 1.070930809537e-04 0.0 
0.0 0.0 -2.131994005793e-05 
-1.874449477591e-04 5.176155724587e-07 0.0 
5.176155724587e-07 1.267519228381e-03 0.0 
0.0 0.0 -1.888952332360e-04 
-2.478565018414e-05 -1.930000472000e-06 0.0 
-1.930000472000e-06 1.118328058531e-04 0.0 
0.0 0.0 -2.334665006309e-05 
-2.656716960799e-05 -2.510778064998e-06 0.0 
-2.510778064998e-06 1.411464559949e-04 0.0 
0.0 0.0 -2.709867152969e-05 
-1.817312836183e-04 2.201942420487e-06 0.0 
2.201942420487e-06 1.232410437945e-03 0.0 
0.0 0.0 -1.831822052943e-04 
-1.773206336066e-04 -2.021839507971e-07 0.0 
-2.021839507971e-07 1.191992626232e-03 0.0 
0.0 0.0 -1.776517324320e-04 
-1.872954897737e-04 -1.006614931482e-06 0.0 
-1.006614931482e-06 1.259866749947e-03 0.0 
0.0 0.0 -1.871589901852e-04 
-1.824456739670e-04 2.064220422989e-06 0.0 
2.064220422989e-06 1.218220290450e-03 0.0 
0.0 0.0 -1.816528226986e-04 
-1.719240551568e-04 -7.467342115413e-07 0.0 
-7.467342115413e-07 1.152044759436e-03 0.0 
0.0 0.0 -1.720599434401e-04 
-1.761500249536e-04 9.670950468971e-07 0.0 
9.670950468971e-07 1.183630845697e-03 0.0 
0.0 0.0 -1.764735915037e-04 
-1.203392003903e-04 -2.198342008040e-06 0.0 
-2.198342008040e-06 7.898463321084e-04 0.0 
0.0 0.0 -1.197898394197e-04 
-1.865443414806e-04 2.647479046358e-06 0.0 
2.647479046358e-06 1.260124298644e-03 0.0 
0.0 0.0 -1.873527554397e-04 
-1.803841241731e-04 6.709369355739e-07 0.0 
6.709369355739e-07 1.214344074041e-03 0.0 
0.0 0.0 -1.811164307615e-04 
-1.921061091143e-04 1.480715088923e-06 0.0 
1.480715088923e-06 1.296918019707e-03 0.0 
0.0 0.0 -1.916891122952e-04 
-9.208569695246e-05 6.093443112200e-07 0.0 
6.093443112200e-07 5.924864494399e-04 0.0 
0.0 0.0 -9.162005200151e-05 
-7.283645161877e-05 4.586395072899e-07 0.0 
4.586395072899e-07 4.547389083214e-04 0.0 
0.0 0.0 -7.184037522857e-05 
-6.889002091575e-05 3.964795035727e-07 0.0 
3.964795035727e-07 4.246717698014e-04 0.0 
0.0 0.0 -6.790877045087e-05 
-5.909497143754e-05 6.023844365174e-06 0.0 
6.023844365174e-06 3.592168662585e-04 0.0 
0.0 0.0 -5.813495639200e-05 
-1.853176739262e-04 8.122300759658e-07 0.0 
8.122300759658e-07 1.250781756793e-03 0.0 
0.0 0.0 -1.860270850411e-04 
-1.796312402729e-04 3.276727185624e-06 0.0 
3.276727185624e-06 1.208836358275e-03 0.0 
0.0 0.0 -1.800885023177e-04 
-1.631801230170e-04 1.627520387689e-07 0.0 
1.627520387689e-07 1.090569837524e-03 0.0 
0.0 0.0 -1.631333845344e-04 
-1.534477329204e-04 6.766395027793e-07 0.0 
6.766395027793e-07 1.020410487752e-03 0.0 
0.0 0.0 -1.531108459605e-04 
-1.224599435499e-04 1.078011159301e-06 0.0 
1.078011159301e-06 8.009987656653e-04 0.0 
0.0 0.0 -1.216227322220e-04 
-1.215744765480e-04 -1.237691044798e-06 0.0 
-1.237691044798e-06 7.963280792961e-04 0.0 
0.0 0.0 -1.211602941205e-04 
-1.308077100931e-04 4.769688121849e-06 0.0 
4.769688121849e-06 8.600072513362e-04 0.0 
0.0 0.0 -1.301779020232e-04 
-1.297276618714e-04 -1.066682707188e-06 0.0 
-1.066682707188e-06 8.491749556053e-04 0.0 
0.0 0.0 -1.291373028237e-04 
-1.389532460221e-04 4.549858847667e-06 0.0 
4.549858847667e-06 9.158165643447e-04 0.0 
0.0 0.0 -1.380077606708e-04 
-1.362521981567e-04 -2.124783431130e-06 0.0 
-2.124783431130e-06 9.054980890478e-04 0.0 
0.0 0.0 -1.366342160092e-04 
-1.454793170856e-04 -4.423821596291e-06 0.0 
-4.423821596291e-06 9.700799799999e-04 0.0 
0.0 0.0 -1.459037168719e-04 
-1.870833549466e-04 3.909084775636e-06 0.0 
3.909084775636e-06 1.256272641087e-03 0.0 
0.0 0.0 -1.867631680280e-04 
-4.779563930822e-05 1.388169697748e-06 0.0 
1.388169697748e-06 2.856867328083e-04 0.0 
0.0 0.0 -4.771245731983e-05 
-1.019348355349e-04 5.925610993024e-07 0.0 
5.925610993024e-07 6.625121101145e-04 0.0 
0.0 0.0 -1.017460476387e-04 
-1.826285801103e-04 -1.661566205844e-06 0.0 
-1.661566205844e-06 1.237533025725e-03 0.0 
0.0 0.0 -1.842392070075e-04 
-1.784932399449e-04 -5.084121371408e-07 0.0 
-5.084121371408e-07 1.196504370322e-03 0.0 
0.0 0.0 -1.781095211982e-04 
-9.045878749083e-05 3.060141382145e-07 0.0 
3.060141382145e-07 5.804720461946e-04 0.0 
0.0 0.0 -9.001416730698e-05 
-8.189605333165e-05 1.641333009624e-06 0.0 
1.641333009624e-06 5.186644514913e-04 0.0 
0.0 0.0 -8.102430021026e-05 
-1.866907463054e-04 2.093765460227e-06 0.0 
2.093765460227e-06 1.251863261449e-03 0.0 
0.0 0.0 -1.858191563033e-04 
-8.427129088721e-05 2.509183407978e-07 0.0 
2.509183407978e-07 5.389541208829e-04 0.0 
0.0 0.0 -8.400472401885e-05 
-1.942862609106e-04 -4.604509060764e-07 0.0 
-4.604509060764e-07 1.310239742523e-03 0.0 
0.0 0.0 -1.943189575261e-04 
-7.089778492893e-06 -8.429924576269e-07 0.0 
-8.429924576269e-07 3.992716951653e-05 0.0 
0.0 0.0 -8.535005130452e-06 
-1.936791033226e-05 1.730686598500e-06 0.0 
1.730686598500e-06 1.017559906333e-04 0.0 
0.0 0.0 -2.030164989952e-05 
-8.968053387105e-05 4.268638781566e-07 0.0 
4.268638781566e-07 5.769858883096e-04 0.0 
0.0 0.0 -8.953811051246e-05 
-9.967591826382e-05 1.816339090070e-07 0.0 
1.816339090070e-07 6.455070859268e-04 0.0 
0.0 0.0 -9.930333011984e-05 
-7.698272719919e-05 1.369511196201e-06 0.0 
1.369511196201e-06 4.917432221998e-04 0.0 
0.0 0.0 -7.735978650723e-05 
-7.290112700995e-05 4.485042513466e-07 0.0 
4.485042513466e-07 4.686595431743e-04 0.0 
0.0 0.0 -7.375775675111e-05 
-1.516976068027e-04 9.731432031668e-08 0.0 
9.731432031668e-08 1.010085692234e-03 0.0 
0.0 0.0 -1.515828990902e-04 
-2.955388113014e-05 -3.810006738128e-07 0.0 
-3.810006738128e-07 1.597998460951e-04 0.0 
0.0 0.0 -2.992625374333e-05 
-4.708750000530e-05 -3.380683912340e-07 0.0 
-3.380683912340e-07 2.775741899182e-04 0.0 
0.0 0.0 -4.660401843130e-05 
-1.459872513037e-04 4.283387118632e-06 0.0 
4.283387118632e-06 9.787274438894e-04 0.0 
0.0 0.0 -1.469538452094e-04 
-3.739432352920e-05 8.132963554310e-08 0.0 
8.132963554310e-08 2.132217851977e-04 0.0 
0.0 0.0 -3.731550915806e-05 
-1.581113812495e-04 5.386783396549e-07 0.0 
5.386783396549e-07 1.056624836089e-03 0.0 
0.0 0.0 -1.583700297543e-04 
-8.859117282002e-05 -4.886909086429e-07 0.0 
-4.886909086429e-07 5.694929478328e-04 0.0 
0.0 0.0 -8.837999545446e-05 
-1.077149909289e-04 1.768026495217e-08 0.0 
1.768026495217e-08 7.012731036170e-04 0.0 
0.0 0.0 -1.073025146250e-04 
-5.592229804259e-05 8.436426505879e-07 0.0 
8.436426505879e-07 3.420524339702e-04 0.0 
0.0 0.0 -5.582998379547e-05 
-7.655387121575e-05 -1.360505059231e-06 0.0 
-1.360505059231e-06 4.844624894690e-04 0.0 
0.0 0.0 -7.620154526702e-05 
-1.304375061833e-04 -4.590487413421e-07 0.0 
-4.590487413421e-07 8.567018780296e-04 0.0 
0.0 0.0 -1.295787134191e-04 
-1.227913220526e-04 -1.069536414788e-06 0.0 
-1.069536414788e-06 7.988115105914e-04 0.0 
0.0 0.0 -1.212971597528e-04 
-1.171271358387e-04 6.312522150107e-07 0.0 
6.312522150107e-07 7.632427069466e-04 0.0 
0.0 0.0 -1.160760923294e-04 
-9.288654497448e-05 -4.149904162911e-07 0.0 
-4.149904162911e-07 5.993038953958e-04 0.0 
0.0 0.0 -9.268233649937e-05 
-7.967235479004e-05 1.560635261011e-06 0.0 
1.560635261011e-06 5.060818193185e-04 0.0 
0.0 0.0 -7.932496478153e-05 
-6.976412058096e-05 4.685918450985e-07 0.0 
4.685918450985e-07 4.348311074162e-04 0.0 
0.0 0.0 -6.925859231108e-05 
-1.236762265939e-04 1.286441015265e-07 0.0 
1.286441015265e-07 8.121194052814e-04 0.0 
0.0 0.0 -1.231954486131e-04 
-1.661664385129e-04 7.234197314207e-07 0.0 
7.234197314207e-07 1.111077522090e-03 0.0 
0.0 0.0 -1.661212681597e-04 
-1.708685371099e-04 1.275890329840e-06 0.0 
1.275890329840e-06 1.141280747299e-03 0.0 
0.0 0.0 -1.704512426999e-04 
-1.799814060202e-04 -8.892695818734e-09 0.0 
-8.892695818734e-09 1.206980088396e-03 0.0 
0.0 0.0 -1.798902840516e-04 
-1.752252711223e-04 6.293476179297e-07 0.0 
6.293476179297e-07 1.171825368199e-03 0.0 
0.0 0.0 -1.746897123557e-04 
-1.653204529079e-04 3.682681378694e-07 0.0 
3.682681378694e-07 1.103833188294e-03 0.0 
0.0 0.0 -1.650619928257e-04 
-1.692700239592e-04 -9.309390044845e-07 0.0 
-9.309390044845e-07 1.133313101005e-03 0.0 
0.0 0.0 -1.693613594316e-04 
-1.794459408941e-04 1.605079206946e-06 0.0 
1.605079206946e-06 1.200644277872e-03 0.0 
0.0 0.0 -1.790391580507e-04 
-1.729836631084e-04 -6.502744119893e-09 0.0 
-6.502744119893e-09 1.165149049271e-03 0.0 
0.0 0.0 -1.738884562940e-04 
-1.853394956414e-04 -1.746634483939e-06 0.0 
-1.746634483939e-06 1.245260351070e-03 0.0 
0.0 0.0 -1.851430293189e-04 
-1.779629991439e-04 -2.212681777784e-06 0.0 
-2.212681777784e-06 1.194508684255e-03 0.0 
0.0 0.0 -1.780963771770e-04 
-1.680008323397e-04 4.410252086398e-07 0.0 
4.410252086398e-07 1.124792316923e-03 0.0 
0.0 0.0 -1.681296768602e-04 
-1.732313668130e-04 2.383290929430e-07 0.0 
2.383290929430e-07 1.152919895369e-03 0.0 
0.0 0.0 -1.721639567129e-04 
-1.820197878976e-04 -9.097203098576e-07 0.0 
-9.097203098576e-07 1.219293629434e-03 0.0 
0.0 0.0 -1.811651920545e-04 
-1.627398560099e-04 -3.025378736542e-07 0.0 
-3.025378736542e-07 1.085392768176e-03 0.0 
0.0 0.0 -1.623890973126e-04 
-1.881496038472e-04 -6.722589035005e-07 0.0 
-6.722589035005e-07 1.272625835057e-03 0.0 
0.0 0.0 -1.896816515354e-04 
-9.936624462153e-05 3.711915790744e-07 0.0 
3.711915790744e-07 6.447993785367e-04 0.0 
0.0 0.0 -9.931710713211e-05 
-2.678077344496e-05 1.172604196378e-06 0.0 
1.172604196378e-06 1.469601996083e-04 0.0 
0.0 0.0 -2.776378382453e-05 
-2.718822131563e-05 5.643793796885e-06 0.0 
5.643793796885e-06 1.398182331985e-04 0.0 
0.0 0.0 -2.650814903740e-05 
-1.130938350532e-04 2.933038375314e-07 0.0 
2.933038375314e-07 7.386015135744e-04 0.0 
0.0 0.0 -1.126376112924e-04 
-1.957395771822e-04 4.072718166248e-07 0.0 
4.072718166248e-07 1.314065316165e-03 0.0 
0.0 0.0 -1.949709453146e-04 
-1.956422709446e-04 1.854437157923e-08 0.0 
1.854437157923e-08 1.316914351373e-03 0.0 
0.0 0.0 -1.952630510734e-04 
-7.363791568969e-05 4.448116745503e-08 0.0 
4.448116745503e-08 4.652432970724e-04 0.0 
0.0 0.0 -7.343539360029e-05 
-1.953259047097e-04 -1.682103116944e-07 0.0 
-1.682103116944e-07 1.316528916423e-03 0.0 
0.0 0.0 -1.955120939844e-04 
-1.210496703093e-04 -3.742029869829e-07 0.0 
-3.742029869829e-07 7.914115177246e-04 0.0 
0.0 0.0 -1.201823113336e-04 
-5.355766991560e-05 5.069063859747e-07 0.0 
5.069063859747e-07 3.232453025466e-04 0.0 
0.0 0.0 -5.296028401754e-05 
-1.953834150830e-04 -1.373297745112e-06 0.0 
-1.373297745112e-06 1.316914533701e-03 0.0 
0.0 0.0 -1.956430189105e-04 
-1.606320410693e-04 1.081811570651e-06 0.0 
1.081811570651e-06 1.073242688732e-03 0.0 
0.0 0.0 -1.607160970497e-04 
-1.551352503420e-04 -1.927443336718e-07 0.0 
-1.927443336718e-07 1.034924921134e-03 0.0 
0.0 0.0 -1.552285616758e-04 
-1.505583948677e-04 4.103370421327e-07 0.0 
4.103370421327e-07 1.004971037607e-03 0.0 
0.0 0.0 -1.509086942990e-04 
-1.950225372489e-04 -2.088550178189e-06 0.0 
-2.088550178189e-06 1.319599496419e-03 0.0 
0.0 0.0 -1.958801056209e-04 
-1.389109183028e-04 4.741451933547e-08 0.0 
4.741451933547e-08 9.181432809719e-04 0.0 
0.0 0.0 -1.384942297845e-04 
-1.959295069713e-04 -1.244434436796e-06 0.0 
-1.244434436796e-06 1.320610998766e-03 0.0 
0.0 0.0 -1.959024498733e-04 
-1.357909290755e-04 -7.273641547468e-07 0.0 
-7.273641547468e-07 8.985832613114e-04 0.0 
0.0 0.0 -1.355985557075e-04 
-1.314159132553e-04 -2.260781221254e-07 0.0 
-2.260781221254e-07 8.680741570170e-04 0.0 
0.0 0.0 -1.312144960014e-04 
-1.217410062802e-04 -7.968137970655e-08 0.0 
-7.968137970655e-08 8.004989808175e-04 0.0 
0.0 0.0 -1.215252423283e-04 
-1.635653543320e-04 -8.206507231059e-07 0.0 
-8.206507231059e-07 1.094591173860e-03 0.0 
0.0 0.0 -1.638368049481e-04 
-1.957128907948e-04 7.679802216987e-07 0.0 
7.679802216987e-07 1.315946828038e-03 0.0 
0.0 0.0 -1.954016999139e-04 
-1.877918467821e-04 -4.059023819969e-07 0.0 
-4.059023819969e-07 1.261052432127e-03 0.0 
0.0 0.0 -1.872601071101e-04 
-1.870380449284e-04 -1.951022404989e-06 0.0 
-1.951022404989e-06 1.260361361027e-03 0.0 
0.0 0.0 -1.872639817026e-04 
-1.800805456319e-04 7.540324232614e-08 0.0 
7.540324232614e-08 1.200437685780e-03 0.0 
0.0 0.0 -1.783672283586e-04 
-1.950646193177e-04 -5.546188052753e-08 0.0 
-5.546188052753e-08 1.316661406715e-03 0.0 
0.0 0.0 -1.955098189886e-04 
-1.957560602186e-04 -3.716868616248e-07 0.0 
-3.716868616248e-07 1.318924671883e-03 0.0 
0.0 0.0 -1.959998991124e-04 
-1.963981539868e-04 -5.303133434367e-07 0.0 
-5.303133434367e-07 1.320493656548e-03 0.0 
0.0 0.0 -1.962751064225e-04 
-6.844923036856e-05 1.199739337794e-06 0.0 
1.199739337794e-06 4.307455297825e-04 0.0 
0.0 0.0 -6.847160534926e-05 
-7.419643775584e-05 3.743388539179e-07 0.0 
3.743388539179e-07 4.695492771341e-04 0.0 
0.0 0.0 -7.401623890332e-05 
-8.376895134064e-05 1.300131340796e-07 0.0 
1.300131340796e-07 5.365706547931e-04 0.0 
0.0 0.0 -8.364053759108e-05 
-7.953934562445e-05 -2.075640414833e-08 0.0 
-2.075640414833e-08 5.072934929808e-04 0.0 
0.0 0.0 -7.948224144010e-05 
-6.989506786319e-05 -6.245293844846e-08 0.0 
-6.245293844846e-08 4.396733402016e-04 0.0 
0.0 0.0 -6.978551441703e-05 
-7.524805855893e-05 3.094892115024e-07 0.0 
3.094892115024e-07 4.777101055957e-04 0.0 
0.0 0.0 -7.524542772725e-05 
-8.492603218944e-05 -2.618464199117e-07 0.0 
-2.618464199117e-07 5.448643552104e-04 0.0 
0.0 0.0 -8.485997776147e-05 
-7.105462536305e-05 6.250310806945e-07 0.0 
6.250310806945e-07 4.479089343025e-04 0.0 
0.0 0.0 -7.097692746601e-05 
-1.705288852515e-04 -5.065676993716e-08 0.0 
-5.065676993716e-08 1.143493746239e-03 0.0 
0.0 0.0 -1.707769389999e-04 
-1.957870609060e-04 1.292884007357e-06 0.0 
1.292884007357e-06 1.318859783043e-03 0.0 
0.0 0.0 -1.958668742322e-04 
-1.350455497016e-04 7.864309328469e-09 0.0 
7.864309328469e-09 8.951240562794e-04 0.0 
0.0 0.0 -1.351191360868e-04 
-1.307165790976e-04 -4.322242656560e-09 0.0 
-4.322242656560e-09 8.644169275053e-04 0.0 
0.0 0.0 -1.307040085326e-04 
-1.209043728309e-04 3.853306452192e-07 0.0 
3.853306452192e-07 7.961045906332e-04 0.0 
0.0 0.0 -1.208983099878e-04 
-1.015178106691e-04 -3.679167517203e-07 0.0 
-3.679167517203e-07 6.622225460757e-04 0.0 
0.0 0.0 -1.017282540064e-04 
-1.070947291555e-04 -1.713274614578e-07 0.0 
-1.713274614578e-07 7.010953756025e-04 0.0 
0.0 0.0 -1.073098139330e-04 
-1.170318119329e-04 -2.304405178400e-07 0.0 
-2.304405178400e-07 7.699550145936e-04 0.0 
0.0 0.0 -1.171862911330e-04 
-9.606943952016e-05 -6.918043120030e-07 0.0 
-6.918043120030e-07 6.234320450168e-04 0.0 
0.0 0.0 -9.611914699067e-05 
-1.481119786321e-04 -1.006868581403e-07 0.0 
-1.006868581403e-07 9.856164309774e-04 0.0 
0.0 0.0 -1.481459134429e-04 
-1.955042779643e-04 -1.269047585912e-06 0.0 
-1.269047585912e-06 1.318349589731e-03 0.0 
0.0 0.0 -1.957504584866e-04 
-1.330884753948e-04 -1.768196315292e-07 0.0 
-1.768196315292e-07 8.806785880526e-04 0.0 
0.0 0.0 -1.330749450653e-04 
-1.026965489879e-04 1.178065411022e-07 0.0 
1.178065411022e-07 6.708683582992e-04 0.0 
0.0 0.0 -1.029894966699e-04 
-1.130854337220e-04 -7.438576483953e-07 0.0 
-7.438576483953e-07 7.384022260134e-04 0.0 
0.0 0.0 -1.127517955912e-04 
-1.209813153641e-04 2.130007804037e-06 0.0 
2.130007804037e-06 7.983489600902e-04 0.0 
0.0 0.0 -1.214223410530e-04 
-1.212906592670e-04 -2.948275088070e-06 0.0 
-2.948275088070e-06 8.006247840124e-04 0.0 
0.0 0.0 -1.214609177556e-04 
-1.289650632578e-04 -2.836448343722e-06 0.0 
-2.836448343722e-06 8.628838233816e-04 0.0 
0.0 0.0 -1.309968220184e-04 
-1.213818105996e-04 -4.266965506249e-06 0.0 
-4.266965506249e-06 8.042830918570e-04 0.0 
0.0 0.0 -1.223387611305e-04 
-1.201218344436e-04 -5.940699395266e-07 0.0 
-5.940699395266e-07 7.912234115192e-04 0.0 
0.0 0.0 -1.202289988118e-04 
-1.246396976616e-04 -5.061942420403e-07 0.0 
-5.061942420403e-07 8.213580181559e-04 0.0 
0.0 0.0 -1.245418513326e-04 
-1.191093718333e-04 1.337880474637e-07 0.0 
1.337880474637e-07 7.836030816467e-04 0.0 
0.0 0.0 -1.190678843757e-04 
-1.287401379332e-04 -4.825176742022e-07 0.0 
-4.825176742022e-07 8.510925999983e-04 0.0 
0.0 0.0 -1.288600603647e-04 
-1.226230270594e-04 -1.701149775371e-06 0.0 
-1.701149775371e-06 8.113018730487e-04 0.0 
0.0 0.0 -1.232036783932e-04 
-1.130241629680e-04 -1.858461286811e-06 0.0 
-1.858461286811e-06 7.480336692277e-04 0.0 
0.0 0.0 -1.141311642346e-04 
-1.321533265726e-04 -1.335199541160e-06 0.0 
-1.335199541160e-06 8.794062915419e-04 0.0 
0.0 0.0 -1.329915258165e-04 
-1.262846614202e-04 1.119259017791e-06 0.0 
1.119259017791e-06 8.372331183149e-04 0.0 
0.0 0.0 -1.265608218447e-04 
-1.120104832196e-04 -1.984611779904e-06 0.0 
-1.984611779904e-06 7.374063381166e-04 0.0 
0.0 0.0 -1.126429727744e-04 
-9.422976514582e-06 -1.217518494265e-06 0.0 
-1.217518494265e-06 4.558842274141e-05 0.0 
0.0 0.0 -8.813944590281e-06 
-2.032999859278e-05 1.550107281015e-06 0.0 
1.550107281015e-06 1.008000227599e-04 0.0 
0.0 0.0 -2.005057187811e-05 
-1.923634066646e-05 -1.281983274152e-06 0.0 
-1.281983274152e-06 9.903712088906e-05 0.0 
0.0 0.0 -1.977126557535e-05 
-2.892124709552e-05 -6.331508506686e-07 0.0 
-6.331508506686e-07 1.562935872075e-04 0.0 
0.0 0.0 -2.931975365146e-05 
-3.044620434302e-05 2.916307507694e-06 0.0 
2.916307507694e-06 1.611495346811e-04 0.0 
0.0 0.0 -2.995118946101e-05 
-3.774799277366e-05 3.794557032569e-07 0.0 
3.794557032569e-07 2.202737536706e-04 0.0 
0.0 0.0 -3.879981516104e-05 
-3.645995758034e-05 -3.803053327811e-06 0.0 
-3.803053327811e-06 2.139692199118e-04 0.0 
0.0 0.0 -3.742104924291e-05 
-2.033881415161e-05 -1.700939409159e-06 0.0 
-1.700939409159e-06 1.011583560657e-04 0.0 
0.0 0.0 -1.994621821224e-05 
-8.875489974186e-06 -3.480193746507e-07 0.0 
-3.480193746507e-07 4.471598822964e-05 0.0 
0.0 0.0 -8.692282348679e-06 
-1.963315251852e-05 3.711641581478e-07 0.0 
3.711641581478e-07 9.816218701372e-05 0.0 
0.0 0.0 -1.973534442338e-05 
-8.550733775924e-06 2.514775744061e-07 0.0 
2.514775744061e-07 4.381249491722e-05 0.0 
0.0 0.0 -8.579688284227e-06 
-1.901805583189e-05 4.776440578629e-08 0.0 
4.776440578629e-08 9.639762974465e-05 0.0 
0.0 0.0 -1.949131874972e-05 
-2.991788690013e-05 6.474225871532e-07 0.0 
6.474225871532e-07 1.629475291055e-04 0.0 
0.0 0.0 -3.058298354955e-05 
-4.437694804010e-05 -3.488760205635e-08 0.0 
-3.488760205635e-08 2.590089634221e-04 0.0 
0.0 0.0 -4.387725951834e-05 
-1.952890502554e-04 2.705057302809e-06 0.0 
2.705057302809e-06 1.308737158744e-03 0.0 
0.0 0.0 -1.942312205382e-04 
-9.935449687594e-05 7.019136318893e-07 0.0 
7.019136318893e-07 6.421560261642e-04 0.0 
0.0 0.0 -9.893255040107e-05 
-9.532292627254e-05 2.814699913044e-06 0.0 
2.814699913044e-06 6.114496525194e-04 0.0 
0.0 0.0 -9.397196729617e-05 
-8.400669900114e-05 2.679673941902e-06 0.0 
2.679673941902e-06 5.409587176071e-04 0.0 
0.0 0.0 -8.462574969392e-05 
-9.027594374168e-05 -7.837686841303e-07 0.0 
-7.837686841303e-07 5.798954878733e-04 0.0 
0.0 0.0 -8.961994476413e-05 
-1.045740752791e-04 3.140418326638e-06 0.0 
3.140418326638e-06 6.688688744112e-04 0.0 
0.0 0.0 -1.029858181470e-04 
-7.880649475037e-05 2.069962121030e-06 0.0 
2.069962121030e-06 5.047681260686e-04 0.0 
0.0 0.0 -7.930380845106e-05 
-7.495741100239e-05 3.408625348592e-06 0.0 
3.408625348592e-06 4.823631646977e-04 0.0 
0.0 0.0 -7.557437765277e-05 
-9.687066653002e-06 -3.402698014617e-07 0.0 
-3.402698014617e-07 4.591586104220e-05 0.0 
0.0 0.0 -8.739712030662e-06 
-2.047661094667e-05 -2.267522532193e-06 0.0 
-2.267522532193e-06 1.000681362490e-04 0.0 
0.0 0.0 -2.007353836932e-05 
-1.994917007271e-05 2.592468629793e-06 0.0 
2.592468629793e-06 9.445303527474e-05 0.0 
0.0 0.0 -1.994324578594e-05 
-3.151456459980e-05 1.463566236896e-06 0.0 
1.463566236896e-06 1.596924898443e-04 0.0 
0.0 0.0 -2.965054416063e-05 
-2.861510418730e-05 -1.205587774427e-06 0.0 
-1.205587774427e-06 1.581911772624e-04 0.0 
0.0 0.0 -2.941027143855e-05 
-1.937098915206e-05 8.384890895992e-08 0.0 
8.384890895992e-08 1.007669973979e-04 0.0 
0.0 0.0 -1.994784544742e-05 
-1.998172865117e-05 1.674549256837e-06 0.0 
1.674549256837e-06 1.004783062935e-04 0.0 
0.0 0.0 -1.993089637160e-05 
-9.184527398116e-06 -3.340486906928e-07 0.0 
-3.340486906928e-07 4.449611849599e-05 0.0 
0.0 0.0 -8.679810794752e-06 
-1.977844276233e-05 -5.706350657546e-07 0.0 
-5.706350657546e-07 9.957383946922e-05 0.0 
0.0 0.0 -1.962916685114e-05 
-2.895230255585e-05 1.615024457259e-06 0.0 
1.615024457259e-06 1.596384447765e-04 0.0 
0.0 0.0 -2.991862060476e-05 
-7.803011911719e-06 -7.706301462869e-07 0.0 
-7.706301462869e-07 4.106703932536e-05 0.0 
0.0 0.0 -8.301770963759e-06 
-1.590145051585e-04 -4.281304664763e-06 0.0 
-4.281304664763e-06 1.062076659957e-03 0.0 
0.0 0.0 -1.590640962770e-04 
-1.651868147433e-04 -3.398332014324e-06 0.0 
-3.398332014324e-06 1.099025294548e-03 0.0 
0.0 0.0 -1.645623349770e-04 
-1.955657779701e-04 -5.933825758626e-07 0.0 
-5.933825758626e-07 1.315952615564e-03 0.0 
0.0 0.0 -1.951345524439e-04 
-1.128859712793e-04 -3.830481927276e-06 0.0 
-3.830481927276e-06 7.447363822067e-04 0.0 
0.0 0.0 -1.137601485512e-04 
-8.506649409316e-06 3.037838616352e-07 0.0 
3.037838616352e-07 4.456634567568e-05 0.0 
0.0 0.0 -8.827439468020e-06 
-1.944078863341e-04 -1.551046245181e-07 0.0 
-1.551046245181e-07 1.307325842461e-03 0.0 
0.0 0.0 -1.938161294973e-04 
-1.950362438059e-04 -1.795147355396e-06 0.0 
-1.795147355396e-06 1.317406774879e-03 0.0 
0.0 0.0 -1.954759163179e-04 
-1.946257604888e-04 1.407080277293e-06 0.0 
1.407080277293e-06 1.317652425531e-03 0.0 
0.0 0.0 -1.957234727395e-04 
-1.786106491459e-04 1.328228983500e-06 0.0 
1.328228983500e-06 1.198614709334e-03 0.0 
0.0 0.0 -1.786587739673e-04 
-1.826581066041e-04 5.861318546716e-07 0.0 
5.861318546716e-07 1.232821746468e-03 0.0 
0.0 0.0 -1.836483987139e-04 
-1.952382200043e-04 8.912494885484e-07 0.0 
8.912494885484e-07 1.308332215826e-03 0.0 
0.0 0.0 -1.941854046512e-04 
-6.737308308447e-05 5.138193223355e-07 0.0 
5.138193223355e-07 4.244241960940e-04 0.0 
0.0 0.0 -6.769213596492e-05 
-1.828682302183e-04 1.640560627373e-06 0.0 
1.640560627373e-06 1.239731587643e-03 0.0 
0.0 0.0 -1.838610959833e-04 
-1.772400966804e-04 3.904476817882e-07 0.0 
3.904476817882e-07 1.184738121319e-03 0.0 
0.0 0.0 -1.767943248163e-04 
-4.906868359316e-05 -1.133942934727e-07 0.0 
-1.133942934727e-07 2.953935878240e-04 0.0 
0.0 0.0 -4.902575320116e-05 
-6.530462737817e-05 3.585817021726e-07 0.0 
3.585817021726e-07 4.102635123792e-04 0.0 
0.0 0.0 -6.560435786130e-05 
-1.483067082024e-04 3.970804381230e-07 0.0 
3.970804381230e-07 9.886270184883e-04 0.0 
0.0 0.0 -1.484951207735e-04 
-1.367944353413e-04 -1.825561973167e-07 0.0 
-1.825561973167e-07 9.072242838815e-04 0.0 
0.0 0.0 -1.368596897040e-04 
-1.696034640066e-04 -3.607287686916e-07 0.0 
-3.607287686916e-07 1.134493911371e-03 0.0 
0.0 0.0 -1.695585677381e-04 
-1.398704134916e-04 8.561054054672e-09 0.0 
8.561054054672e-09 9.278981832241e-04 0.0 
0.0 0.0 -1.398333781397e-04 
-1.606909834555e-04 -5.100249501151e-07 0.0 
-5.100249501151e-07 1.075019221100e-03 0.0 
0.0 0.0 -1.609685038039e-04 
-1.869198009603e-04 3.460184187221e-06 0.0 
3.460184187221e-06 1.256233406915e-03 0.0 
0.0 0.0 -1.866194889163e-04 
-4.208478570565e-05 -7.076859870355e-07 0.0 
-7.076859870355e-07 2.599245066963e-04 0.0 
0.0 0.0 -4.408826043591e-05 
-1.404915308446e-04 9.501955183076e-07 0.0 
9.501955183076e-07 9.316401756296e-04 0.0 
0.0 0.0 -1.404724030559e-04 
-1.368005256677e-04 9.839857355172e-07 0.0 
9.839857355172e-07 9.063105631980e-04 0.0 
0.0 0.0 -1.369552780944e-04 
-1.614580578208e-04 -5.040207315794e-07 0.0 
-5.040207315794e-07 1.077622303329e-03 0.0 
0.0 0.0 -1.613909692546e-04 
-7.092154026938e-05 -7.271687064730e-07 0.0 
-7.271687064730e-07 4.457927222897e-04 0.0 
0.0 0.0 -7.064368720930e-05 
-1.092130498400e-04 -2.031197807860e-06 0.0 
-2.031197807860e-06 7.170877506305e-04 0.0 
0.0 0.0 -1.095638575444e-04 
-4.734326755177e-05 -7.634204257468e-07 0.0 
-7.634204257468e-07 2.775049997667e-04 0.0 
0.0 0.0 -4.656497932609e-05 
-1.872735419036e-04 6.485390613283e-07 0.0 
6.485390613283e-07 1.262586229201e-03 0.0 
0.0 0.0 -1.877191857934e-04 
-1.143324629321e-04 4.116664924943e-09 0.0 
4.116664924943e-09 7.469603610316e-04 0.0 
0.0 0.0 -1.138559328007e-04 
-1.153850895440e-04 2.798510741524e-07 0.0 
2.798510741524e-07 7.578160194775e-04 0.0 
0.0 0.0 -1.154143056347e-04 
-9.134271070788e-05 -4.241415328680e-07 0.0 
-4.241415328680e-07 5.928584725244e-04 0.0 
0.0 0.0 -9.180364234441e-05 
-7.295992473616e-05 6.931326544943e-07 0.0 
6.931326544943e-07 4.642607920090e-04 0.0 
0.0 0.0 -7.341543808938e-05 
-6.127928487910e-05 4.097090977135e-07 0.0 
4.097090977135e-07 3.818653258479e-04 0.0 
0.0 0.0 -6.151402614941e-05 
-1.048886373049e-04 7.305772282161e-07 0.0 
7.305772282161e-07 6.839939901015e-04 0.0 
0.0 0.0 -1.048536320953e-04 
-1.083489495467e-04 1.953470287276e-07 0.0 
1.953470287276e-07 7.097911034353e-04 0.0 
0.0 0.0 -1.085629762122e-04 
-1.537049609822e-04 2.480873530320e-07 0.0 
2.480873530320e-07 1.024308554960e-03 0.0 
0.0 0.0 -1.536510162914e-04 
-1.672004607334e-04 -4.138652897847e-07 0.0 
-4.138652897847e-07 1.115841044060e-03 0.0 
0.0 0.0 -1.668829017826e-04 
-1.175626501518e-05 2.653670795412e-06 0.0 
2.653670795412e-06 5.212615490244e-05 0.0 
0.0 0.0 -1.076426758597e-05 
-1.591679461113e-04 4.759781921774e-07 0.0 
4.759781921774e-07 1.063059671778e-03 0.0 
0.0 0.0 -1.592508397865e-04 
-1.282088974266e-04 -3.835691054212e-08 0.0 
-3.835691054212e-08 8.473404205640e-04 0.0 
0.0 0.0 -1.282838013392e-04 
-1.443596124248e-04 4.967652743944e-07 0.0 
4.967652743944e-07 9.572886199512e-04 0.0 
0.0 0.0 -1.439863651620e-04 
-1.598472287202e-04 -8.884907360877e-07 0.0 
-8.884907360877e-07 1.064451867688e-03 0.0 
0.0 0.0 -1.593960054358e-04 
-4.175998057522e-05 -3.447721282185e-07 0.0 
-3.447721282185e-07 2.572900811957e-04 0.0 
0.0 0.0 -4.363646550326e-05 
-1.650522666270e-04 -1.570677394041e-07 0.0 
-1.570677394041e-07 1.102136320565e-03 0.0 
0.0 0.0 -1.648121423230e-04 
-1.826232045261e-04 1.027217602921e-06 0.0 
1.027217602921e-06 1.220901163882e-03 0.0 
0.0 0.0 -1.818680320623e-04 
-1.325762676814e-04 -3.821282481616e-06 0.0 
-3.821282481616e-06 8.784259184788e-04 0.0 
0.0 0.0 -1.331264220316e-04 
-3.693963444370e-05 -7.544466628917e-07 0.0 
-7.544466628917e-07 2.092667936724e-04 0.0 
0.0 0.0 -3.663743814291e-05 
-1.313856992864e-04 7.552411984502e-07 0.0 
7.552411984502e-07 8.610864945210e-04 0.0 
0.0 0.0 -1.303870364997e-04 
-1.805690084043e-04 6.802145348002e-07 0.0 
6.802145348002e-07 1.208990479033e-03 0.0 
0.0 0.0 -1.804058984264e-04 
-1.618620090762e-04 -7.704497118788e-08 0.0 
-7.704497118788e-08 1.080863256528e-03 0.0 
0.0 0.0 -1.617330481104e-04 
-6.471559328570e-05 -1.662931831611e-06 0.0 
-1.662931831611e-06 4.062530166876e-04 0.0 
0.0 0.0 -6.504030707074e-05 
-1.192254745372e-04 -3.743731676596e-07 0.0 
-3.743731676596e-07 7.837384510995e-04 0.0 
0.0 0.0 -1.191527179664e-04 
-1.116344855219e-04 1.062141944629e-07 0.0 
1.062141944629e-07 7.298456137402e-04 0.0 
0.0 0.0 -1.114223846842e-04 
-1.018383685965e-04 -1.359407971871e-06 0.0 
-1.359407971871e-06 6.707473892556e-04 0.0 
0.0 0.0 -1.029886159366e-04 
-1.821879658306e-04 1.203703486797e-06 0.0 
1.203703486797e-06 1.214225172284e-03 0.0 
0.0 0.0 -1.809836386841e-04 
-1.227568816259e-04 -6.254739179733e-08 0.0 
-6.254739179733e-08 8.076906619440e-04 0.0 
0.0 0.0 -1.225941817511e-04 
-1.685234158846e-04 1.004345265447e-06 0.0 
1.004345265447e-06 1.124593655933e-03 0.0 
0.0 0.0 -1.680081379364e-04 
-1.385983115983e-04 -4.518781372798e-07 0.0 
-4.518781372798e-07 9.192006383534e-04 0.0 
0.0 0.0 -1.386121366338e-04 
-6.938466731060e-05 -6.198930646466e-07 0.0 
-6.198930646466e-07 4.371957454374e-04 0.0 
0.0 0.0 -6.944566544735e-05 
-1.681992938910e-04 -9.274416247642e-07 0.0 
-9.274416247642e-07 1.123747739326e-03 0.0 
0.0 0.0 -1.678379068203e-04 
-1.163255558547e-04 -2.444566148572e-07 0.0 
-2.444566148572e-07 7.630787415271e-04 0.0 
0.0 0.0 -1.161597941560e-04 
-1.747594319775e-04 -4.754811496893e-07 0.0 
-4.754811496893e-07 1.171391248362e-03 0.0 
0.0 0.0 -1.746922153459e-04 
-1.547158004377e-04 -7.908026844222e-07 0.0 
-7.908026844222e-07 1.031372856638e-03 0.0 
0.0 0.0 -1.547299964433e-04 
-9.575522477032e-05 -2.469845308841e-07 0.0 
-2.469845308841e-07 6.198169541374e-04 0.0 
0.0 0.0 -9.562808392031e-05 
-1.680741224093e-04 -8.043675432310e-07 0.0 
-8.043675432310e-07 1.125048534485e-03 0.0 
0.0 0.0 -1.681755324449e-04 
-1.167097397872e-04 2.723456768358e-07 0.0 
2.723456768358e-07 7.659716634377e-04 0.0 
0.0 0.0 -1.165963749253e-04 
-1.652487966176e-04 1.494188142170e-07 0.0 
1.494188142170e-07 1.103453328263e-03 0.0 
0.0 0.0 -1.649144376955e-04 
-1.090718422596e-04 2.524371737846e-07 0.0 
2.524371737846e-07 7.103678881211e-04 0.0 
0.0 0.0 -1.086081446058e-04 
-1.357966733163e-04 -3.457047510779e-07 0.0 
-3.457047510779e-07 8.984402994021e-04 0.0 
0.0 0.0 -1.356166455148e-04 
-1.479451278654e-04 -5.197314638620e-07 0.0 
-5.197314638620e-07 9.805721187296e-04 0.0 
0.0 0.0 -1.473637189475e-04 
-1.291946076143e-04 -2.210645520780e-08 0.0 
-2.210645520780e-08 8.530967429073e-04 0.0 
0.0 0.0 -1.291232438263e-04 
-1.429493388473e-04 2.592746297642e-06 0.0 
2.592746297642e-06 9.504562516353e-04 0.0 
0.0 0.0 -1.430149859860e-04 
-1.638426906912e-04 3.884553588315e-07 0.0 
3.884553588315e-07 1.093570341671e-03 0.0 
0.0 0.0 -1.635473777094e-04 
-4.679395941113e-05 8.636054265736e-08 0.0 
8.636054265736e-08 2.742855012463e-04 0.0 
0.0 0.0 -4.607001325828e-05 
-8.578179911004e-05 -6.161056704633e-08 0.0 
-6.161056704633e-08 5.513847511004e-04 0.0 
0.0 0.0 -8.578563835690e-05 
-1.423249179194e-04 -7.804262925553e-07 0.0 
-7.804262925553e-07 9.497515173482e-04 0.0 
0.0 0.0 -1.430477210920e-04 
-1.735818036023e-04 -9.773598649859e-07 0.0 
-9.773598649859e-07 1.155171653987e-03 0.0 
0.0 0.0 -1.725878545680e-04 
-1.836468666056e-04 1.003626260766e-06 0.0 
1.003626260766e-06 1.240389692506e-03 0.0 
0.0 0.0 -1.843994436203e-04 
-1.023143520992e-04 5.423079028455e-07 0.0 
5.423079028455e-07 6.643953733865e-04 0.0 
0.0 0.0 -1.020177412065e-04 
-1.622496068517e-04 -8.321051479419e-07 0.0 
-8.321051479419e-07 1.084090239035e-03 0.0 
0.0 0.0 -1.622365463781e-04 
-1.781376606747e-04 3.555220392373e-07 0.0 
3.555220392373e-07 1.192018732814e-03 0.0 
0.0 0.0 -1.778033526228e-04 
-1.126735395111e-04 5.522608983232e-08 0.0 
5.522608983232e-08 7.397928820176e-04 0.0 
0.0 0.0 -1.128655126259e-04 
-5.035207840853e-05 5.069616719063e-07 0.0 
5.069616719063e-07 3.007678980219e-04 0.0 
0.0 0.0 -4.999657030114e-05 
-3.927566979207e-05 -3.832849885569e-07 0.0 
-3.832849885569e-07 2.313033145196e-04 0.0 
0.0 0.0 -3.982249606560e-05 
-7.656825341724e-05 3.679510810453e-07 0.0 
3.679510810453e-07 4.857975545201e-04 0.0 
0.0 0.0 -7.638798348873e-05 
-1.174853009841e-04 -1.483166653533e-09 0.0 
-1.483166653533e-09 7.706480780895e-04 0.0 
0.0 0.0 -1.172617294919e-04 
-1.226008469953e-04 -1.659916804789e-07 0.0 
-1.659916804789e-07 8.085563299237e-04 0.0 
0.0 0.0 -1.227254861441e-04 
-1.869186648422e-04 1.288893444476e-06 0.0 
1.288893444476e-06 1.255438194585e-03 0.0 
0.0 0.0 -1.863413058393e-04 
-1.661774130078e-04 -5.668139200529e-07 0.0 
-5.668139200529e-07 1.113816736532e-03 0.0 
0.0 0.0 -1.665279681784e-04 
-1.561062454374e-04 -1.032747631753e-06 0.0 
-1.032747631753e-06 1.041295622328e-03 0.0 
0.0 0.0 -1.561285722757e-04 
-2.290814551487e-05 1.131949368257e-06 0.0 
1.131949368257e-06 1.115970032557e-04 0.0 
0.0 0.0 -2.279054486229e-05 
-1.065384879856e-04 1.371781238190e-06 0.0 
1.371781238190e-06 6.979852258937e-04 0.0 
0.0 0.0 -1.068955660026e-04 
-1.703396393732e-04 -6.320212589166e-07 0.0 
-6.320212589166e-07 1.144009893404e-03 0.0 
0.0 0.0 -1.708611002394e-04 
-1.234023393735e-04 -2.265061210126e-07 0.0 
-2.265061210126e-07 8.130545487096e-04 0.0 
0.0 0.0 -1.233545184740e-04 
-1.695777077806e-04 2.106230318131e-07 0.0 
2.106230318131e-07 1.131440026902e-03 0.0 
0.0 0.0 -1.690088035303e-04 
-1.159592254194e-04 -1.383338685156e-07 0.0 
-1.383338685156e-07 7.703209590687e-04 0.0 
0.0 0.0 -1.172687467652e-04 
-1.871117190239e-04 -1.386491014739e-06 0.0 
-1.386491014739e-06 1.261256540934e-03 0.0 
0.0 0.0 -1.874631276173e-04 
-8.657535319631e-05 1.579232664336e-06 0.0 
1.579232664336e-06 5.555478256840e-04 0.0 
0.0 0.0 -8.636364963772e-05 
-1.755150914368e-04 -6.889429931338e-07 0.0 
-6.889429931338e-07 1.176166452702e-03 0.0 
0.0 0.0 -1.753185131199e-04 
-1.573111243631e-04 1.063973160771e-06 0.0 
1.063973160771e-06 1.048972338121e-03 0.0 
0.0 0.0 -1.571178519447e-04 
-7.892866904534e-05 2.863749736170e-07 0.0 
2.863749736170e-07 5.022036140890e-04 0.0 
0.0 0.0 -7.873003997367e-05 
-1.124601082612e-04 5.668543912746e-07 0.0 
5.668543912746e-07 7.365972072198e-04 0.0 
0.0 0.0 -1.124710309571e-04 
-1.868644922347e-04 1.000849535727e-06 0.0 
1.000849535727e-06 1.255765804165e-03 0.0 
0.0 0.0 -1.865710734017e-04 
-1.676555622800e-04 3.291135704865e-07 0.0 
3.291135704865e-07 1.118261925556e-03 0.0 
0.0 0.0 -1.671813732751e-04 
-1.386017071923e-04 -1.797723160641e-07 0.0 
-1.797723160641e-07 9.191547604494e-04 0.0 
0.0 0.0 -1.386052031399e-04 
-1.179182420809e-04 -1.397755678998e-07 0.0 
-1.397755678998e-07 7.747023837777e-04 0.0 
0.0 0.0 -1.178542631832e-04 
-9.266051543288e-05 -1.427667931752e-06 0.0 
-1.427667931752e-06 5.998378060181e-04 0.0 
0.0 0.0 -9.287066260160e-05 
-1.268908472920e-04 -2.992571917758e-07 0.0 
-2.992571917758e-07 8.385766200168e-04 0.0 
0.0 0.0 -1.270155650522e-04 
-1.412610616596e-04 -7.070516204549e-07 0.0 
-7.070516204549e-07 9.356355867827e-04 0.0 
0.0 0.0 -1.409283708239e-04 
-1.952715328492e-04 2.648146111005e-07 0.0 
2.648146111005e-07 1.320373790754e-03 0.0 
0.0 0.0 -1.960333646234e-04 
-1.736029799723e-04 -4.830607358395e-07 0.0 
-4.830607358395e-07 1.152851948528e-03 0.0 
0.0 0.0 -1.722934252721e-04 
-1.452011068003e-04 -1.075773922608e-06 0.0 
-1.075773922608e-06 9.666398033647e-04 0.0 
0.0 0.0 -1.454499006876e-04 
-1.212938627555e-04 -3.882932393123e-07 0.0 
-3.882932393123e-07 7.997072957628e-04 0.0 
0.0 0.0 -1.214615911284e-04 
-1.463822189693e-04 -1.900321700037e-07 0.0 
-1.900321700037e-07 9.728037690076e-04 0.0 
0.0 0.0 -1.462476041952e-04 
-2.746226357204e-05 -9.271388711199e-07 0.0 
-9.271388711199e-07 1.571302735165e-04 0.0 
0.0 0.0 -2.955133849294e-05 
-9.672248826247e-05 7.266615167990e-07 0.0 
7.266615167990e-07 6.276593153662e-04 0.0 
0.0 0.0 -9.671433789260e-05 
-1.257056545510e-04 -4.990050790240e-07 0.0 
-4.990050790240e-07 8.296358928903e-04 0.0 
0.0 0.0 -1.257347134077e-04 
-8.071247393308e-05 8.458441046793e-08 0.0 
8.458441046793e-08 5.152581703620e-04 0.0 
0.0 0.0 -8.061844590833e-05 
-1.221886675709e-04 -7.908405440188e-08 0.0 
-7.908405440188e-08 8.040667053497e-04 0.0 
0.0 0.0 -1.220458434280e-04 
-1.840762203294e-04 1.915177188951e-06 0.0 
1.915177188951e-06 1.245437645367e-03 0.0 
0.0 0.0 -1.851416939921e-04 
-1.301442044184e-04 -3.060279266349e-07 0.0 
-3.060279266349e-07 8.596681305344e-04 0.0 
0.0 0.0 -1.300328051442e-04 
-9.031994090937e-05 -2.080257032607e-07 0.0 
-2.080257032607e-07 5.822092092616e-04 0.0 
0.0 0.0 -9.022896017931e-05 
-1.344673763446e-04 9.830708816548e-08 0.0 
9.830708816548e-08 8.894298640129e-04 0.0 
0.0 0.0 -1.343397272354e-04 
-8.268637292058e-05 -8.113913653822e-07 0.0 
-8.113913653822e-07 5.290888140562e-04 0.0 
0.0 0.0 -8.279832518349e-05 
-1.497839366065e-04 -1.523194842093e-06 0.0 
-1.523194842093e-06 9.970276981604e-04 0.0 
0.0 0.0 -1.497490155909e-04 
-1.382259707113e-04 2.110689173297e-08 0.0 
2.110689173297e-08 9.185304756848e-04 0.0 
0.0 0.0 -1.386530088269e-04 
-1.506650140695e-04 -9.263316559377e-07 0.0 
-9.263316559377e-07 1.001955608578e-03 0.0 
0.0 0.0 -1.504726885606e-04 
-3.022468714226e-05 -2.973636621545e-06 0.0 
-2.973636621545e-06 1.677942898081e-04 0.0 
0.0 0.0 -3.060483068446e-05 
-1.428673620023e-04 -2.398732156922e-07 0.0 
-2.398732156922e-07 9.482366823991e-04 0.0 
0.0 0.0 -1.427619920137e-04 
-1.726984643621e-04 1.345553639607e-06 0.0 
1.345553639607e-06 1.160671593896e-03 0.0 
0.0 0.0 -1.733128613594e-04 
-8.463363897670e-05 6.078796328985e-07 0.0 
6.078796328985e-07 5.444031302841e-04 0.0 
0.0 0.0 -8.481515710027e-05 
-1.264518580475e-04 2.684568646023e-07 0.0 
2.684568646023e-07 8.338232778496e-04 0.0 
0.0 0.0 -1.263048705811e-04 
-1.596353680421e-04 -9.131275579431e-07 0.0 
-9.131275579431e-07 1.065304755547e-03 0.0 
0.0 0.0 -1.595480372087e-04 
-7.302589173434e-05 -3.183424354861e-06 0.0 
-3.183424354861e-06 4.574500906094e-04 0.0 
0.0 0.0 -7.259764510955e-05 
-1.362250571880e-04 3.623633479399e-08 0.0 
3.623633479399e-08 9.021775671400e-04 0.0 
0.0 0.0 -1.361198740657e-04 
-1.602145110429e-04 -8.362565613447e-07 0.0 
-8.362565613447e-07 1.068772108230e-03 0.0 
0.0 0.0 -1.600932078566e-04 
-1.471273090538e-04 7.392924497515e-07 0.0 
7.392924497515e-07 9.780830439502e-04 0.0 
0.0 0.0 -1.470264431059e-04 
-1.270633471131e-04 1.102546760643e-07 0.0 
1.102546760643e-07 8.375443541897e-04 0.0 
0.0 0.0 -1.268359787636e-04 
-1.460791581632e-04 -2.407797944151e-07 0.0 
-2.407797944151e-07 9.714799924540e-04 0.0 
0.0 0.0 -1.460739326938e-04 
-7.660927585480e-05 2.589062603144e-06 0.0 
2.589062603144e-06 4.833163137169e-04 0.0 
0.0 0.0 -7.585562978697e-05 
-6.337475630904e-05 1.248073807384e-06 0.0 
1.248073807384e-06 3.958823544252e-04 0.0 
0.0 0.0 -6.357697056388e-05 
-5.388339958482e-05 2.895282728563e-07 0.0 
2.895282728563e-07 3.277752654746e-04 0.0 
0.0 0.0 -5.379270529687e-05 
-9.451957039609e-05 -2.935916480428e-07 0.0 
-2.935916480428e-07 6.114923592848e-04 0.0 
0.0 0.0 -9.441947030406e-05 
-1.655470867204e-04 -4.270866697213e-07 0.0 
-4.270866697213e-07 1.106817959118e-03 0.0 
0.0 0.0 -1.654622947108e-04 
-3.839223720892e-05 -3.449317819975e-06 0.0 
-3.449317819975e-06 2.174158836143e-04 0.0 
0.0 0.0 -3.781821007497e-05 
-1.582398840472e-04 -1.211336256148e-06 0.0 
-1.211336256148e-06 1.056196191213e-03 0.0 
0.0 0.0 -1.582347619750e-04 
-3.976493932031e-05 -1.461285902805e-06 0.0 
-1.461285902805e-06 2.310785421131e-04 0.0 
0.0 0.0 -3.990281506442e-05 
-8.912786947884e-05 -2.218013861212e-07 0.0 
-2.218013861212e-07 5.740010873261e-04 0.0 
0.0 0.0 -8.903564786089e-05 
-1.609314023663e-04 8.015374636601e-07 0.0 
8.015374636601e-07 1.078902557479e-03 0.0 
0.0 0.0 -1.615622346724e-04 
-1.398208268631e-04 -7.214897453684e-06 0.0 
-7.214897453684e-06 9.283629550766e-04 0.0 
0.0 0.0 -1.397314702741e-04 
-9.326712864409e-05 1.081123901448e-07 0.0 
1.081123901448e-07 6.029249672552e-04 0.0 
0.0 0.0 -9.316659828873e-05 
-5.971178892461e-05 1.368640181835e-06 0.0 
1.368640181835e-06 3.694230737418e-04 0.0 
0.0 0.0 -5.984927026599e-05 
-8.786689087998e-05 2.978470750166e-07 0.0 
2.978470750166e-07 5.651036338672e-04 0.0 
0.0 0.0 -8.775496813769e-05 
-1.366866866355e-04 2.012050051266e-07 0.0 
2.012050051266e-07 9.045962273325e-04 0.0 
0.0 0.0 -1.364843956035e-04 
-9.193121234076e-05 4.013204139827e-07 0.0 
4.013204139827e-07 5.938843893935e-04 0.0 
0.0 0.0 -9.187235440198e-05 
-8.634860532519e-05 5.489409565849e-07 0.0 
5.489409565849e-07 5.556459598693e-04 0.0 
0.0 0.0 -8.641257901652e-05 
-1.873076348652e-04 -8.303719696611e-07 0.0 
-8.303719696611e-07 1.255027706073e-03 0.0 
0.0 0.0 -1.864462757575e-04 
-9.029085277060e-05 7.778954920217e-07 0.0 
7.778954920217e-07 5.838501403615e-04 0.0 
0.0 0.0 -9.045572518728e-05 
-1.942906890229e-04 -1.961786413827e-06 0.0 
-1.961786413827e-06 1.320208759113e-03 0.0 
0.0 0.0 -1.958055517464e-04 
-1.946815352992e-04 -9.026625198254e-07 0.0 
-9.026625198254e-07 1.313526635210e-03 0.0 
0.0 0.0 -1.947608156509e-04 
-1.203676963192e-04 -5.252269783046e-06 0.0 
-5.252269783046e-06 7.911029022502e-04 0.0 
0.0 0.0 -1.199678325534e-04 
-6.382312409295e-05 3.317997073278e-06 0.0 
3.317997073278e-06 3.867196355365e-04 0.0 
0.0 0.0 -6.182128488093e-05 
-9.762668327602e-06 5.060945032083e-07 0.0 
5.060945032083e-07 4.694411596940e-05 0.0 
0.0 0.0 -1.015196033753e-05 
-6.438901127768e-05 -2.610876075630e-06 0.0 
-2.610876075630e-06 4.083460003589e-04 0.0 
0.0 0.0 -6.553865090092e-05 
-7.498804079240e-05 7.264952039937e-07 0.0 
7.264952039937e-07 4.774096760748e-04 0.0 
0.0 0.0 -7.520405771235e-05 
-1.574390158364e-04 7.322658693650e-08 0.0 
7.322658693650e-08 1.047023690082e-03 0.0 
0.0 0.0 -1.568628108499e-04 
-1.202462798349e-04 1.277535447616e-06 0.0 
1.277535447616e-06 7.923369076637e-04 0.0 
0.0 0.0 -1.204472570985e-04 
-6.913329999888e-05 1.518567138290e-06 0.0 
1.518567138290e-06 4.374135939075e-04 0.0 
0.0 0.0 -6.946069291118e-05 
-1.870210423738e-04 1.710341786507e-07 0.0 
1.710341786507e-07 1.262084104717e-03 0.0 
0.0 0.0 -1.875139937252e-04 
-1.961583819331e-04 -2.514147813671e-06 0.0 
-2.514147813671e-06 1.318669280984e-03 0.0 
0.0 0.0 -1.960106588935e-04 
-1.542863799404e-04 -1.786859133762e-06 0.0 
-1.786859133762e-06 1.026998591695e-03 0.0 
0.0 0.0 -1.543154520944e-04 
-1.744631732482e-04 2.018301688582e-06 0.0 
2.018301688582e-06 1.157934353510e-03 0.0 
0.0 0.0 -1.729253385307e-04 
-1.515018167516e-04 8.404198603291e-07 0.0 
8.404198603291e-07 1.010295705910e-03 0.0 
0.0 0.0 -1.515893794002e-04 
-1.789376768634e-04 -2.919640014592e-06 0.0 
-2.919640014592e-06 1.191538801034e-03 0.0 
0.0 0.0 -1.778575971036e-04 
-1.110411603683e-04 -8.342356804498e-06 0.0 
-8.342356804498e-06 7.312796766666e-04 0.0 
0.0 0.0 -1.117662927266e-04 
-1.911119346146e-05 1.280039211139e-07 0.0 
1.280039211139e-07 9.580427244612e-05 0.0 
0.0 0.0 -1.958655518621e-05 
-1.481869069540e-04 1.615226342953e-06 0.0 
1.615226342953e-06 9.850665679094e-04 0.0 
0.0 0.0 -1.481937727541e-04 
-5.301773043500e-05 1.085407750924e-06 0.0 
1.085407750924e-06 3.130804062890e-04 0.0 
0.0 0.0 -5.155996613848e-05 
-5.287064574584e-05 8.669478230727e-08 0.0 
8.669478230727e-08 3.211142711540e-04 0.0 
0.0 0.0 -5.286758958265e-05 
-4.293484566845e-05 -2.294669534037e-07 0.0 
-2.294669534037e-07 2.490277005517e-04 0.0 
0.0 0.0 -4.248609661651e-05 
-7.457102542764e-05 4.540838739860e-07 0.0 
4.540838739860e-07 4.629980056454e-04 0.0 
0.0 0.0 -7.285240290645e-05 
-2.774703220549e-05 1.104401006757e-06 0.0 
1.104401006757e-06 1.537348123985e-04 0.0 
0.0 0.0 -2.914266538000e-05 
-4.307384339748e-05 1.329013767483e-06 0.0 
1.329013767483e-06 2.553580944067e-04 0.0 
0.0 0.0 -4.333354231935e-05 
-1.879084470079e-04 -2.749275055617e-06 0.0 
-2.749275055617e-06 1.255451133352e-03 0.0 
0.0 0.0 -1.867668077911e-04 
-1.189011343897e-04 -7.099494553202e-06 0.0 
-7.099494553202e-06 7.923665314969e-04 0.0 
0.0 0.0 -1.207517460948e-04 
-1.659393230097e-04 -1.374219794473e-06 0.0 
-1.374219794473e-06 1.113429222670e-03 0.0 
0.0 0.0 -1.665613853390e-04 
-3.293815057038e-05 1.035559240217e-06 0.0 
1.035559240217e-06 1.835663013155e-04 0.0 
0.0 0.0 -3.316239960270e-05 
-1.877702954761e-04 -2.194005982338e-06 0.0 
-2.194005982338e-06 1.259619262861e-03 0.0 
0.0 0.0 -1.871049233185e-04 
-1.875538609812e-04 9.967607666470e-07 0.0 
9.967607666470e-07 1.259292980625e-03 0.0 
0.0 0.0 -1.869913167940e-04 
-1.965092283334e-04 -2.596350880128e-06 0.0 
-2.596350880128e-06 1.320494070457e-03 0.0 
0.0 0.0 -1.959374034051e-04 
-1.758179036347e-04 -4.481197506714e-07 0.0 
-4.481197506714e-07 1.181701348802e-03 0.0 
0.0 0.0 -1.764557581508e-04 
-3.270582193410e-05 -4.386817373036e-07 0.0 
-4.386817373036e-07 1.770411407639e-04 0.0 
0.0 0.0 -3.195907242369e-05 
-1.266388969174e-04 -6.538610975457e-06 0.0 
-6.538610975457e-06 8.502071903162e-04 0.0 
0.0 0.0 -1.290525119649e-04 
-1.885161697494e-04 -1.408082556477e-06 0.0 
-1.408082556477e-06 1.262346972473e-03 0.0 
0.0 0.0 -1.876241058639e-04 
-1.609443742117e-04 -4.613026983514e-07 0.0 
-4.613026983514e-07 1.083073354588e-03 0.0 
0.0 0.0 -1.620379724609e-04 
-1.949934473796e-04 8.861010983955e-06 0.0 
8.861010983955e-06 1.323301005755e-03 0.0 
0.0 0.0 -1.964977576321e-04 
-1.170915995552e-04 -2.526672373363e-07 0.0 
-2.526672373363e-07 7.818822557443e-04 0.0 
0.0 0.0 -1.196852915840e-04 
-1.881251343584e-04 1.719532540905e-06 0.0 
1.719532540905e-06 1.262091246564e-03 0.0 
0.0 0.0 -1.879162412457e-04 
-4.159837246659e-05 -1.872810599717e-06 0.0 
-1.872810599717e-06 2.367903641582e-04 0.0 
0.0 0.0 -4.105708941867e-05 
-1.880384365163e-04 2.724632523543e-06 0.0 
2.724632523543e-06 1.261692801511e-03 0.0 
0.0 0.0 -1.881249298770e-04 
-1.672657211226e-04 -3.803404194109e-07 0.0 
-3.803404194109e-07 1.114623838802e-03 0.0 
0.0 0.0 -1.665474363985e-04 
-1.318213223878e-04 4.430076983304e-06 0.0 
4.430076983304e-06 8.772776289306e-04 0.0 
0.0 0.0 -1.326022361065e-04 
-1.268048282990e-04 1.914164460218e-06 0.0 
1.914164460218e-06 8.466567585872e-04 0.0 
0.0 0.0 -1.285548941949e-04 
-1.877454760479e-04 1.284504322459e-06 0.0 
1.284504322459e-06 1.264298494462e-03 0.0 
0.0 0.0 -1.884505761775e-04 
-1.888991999446e-04 -3.702937246346e-06 0.0 
-3.702937246346e-06 1.261816131107e-03 0.0 
0.0 0.0 -1.874258164109e-04 
-2.628632611275e-05 2.399677637307e-06 0.0 
2.399677637307e-06 1.387230862011e-04 0.0 
0.0 0.0 -2.654059898772e-05 
-1.521013519928e-04 5.577678305588e-06 0.0 
5.577678305588e-06 1.024057332589e-03 0.0 
0.0 0.0 -1.536536413446e-04 
-9.055668035440e-05 -2.892025472723e-06 0.0 
-2.892025472723e-06 5.805249846311e-04 0.0 
0.0 0.0 -8.976434653209e-05 
-1.704710855302e-05 -3.458702652501e-06 0.0 
-3.458702652501e-06 8.989110359220e-05 0.0 
0.0 0.0 -1.808546165336e-05 
-1.884986873262e-04 5.724623714394e-06 0.0 
5.724623714394e-06 1.260552726885e-03 0.0 
0.0 0.0 -1.874281668734e-04 
-1.771946189262e-04 -2.402253146537e-07 0.0 
-2.402253146537e-07 1.178369612400e-03 0.0 
0.0 0.0 -1.758283601128e-04 
-1.891214672248e-04 5.594443250151e-06 0.0 
5.594443250151e-06 1.262060829366e-03 0.0 
0.0 0.0 -1.877794506222e-04 
-3.041019390796e-05 4.063728315188e-06 0.0 
4.063728315188e-06 1.568790135595e-04 0.0 
0.0 0.0 -2.929729011833e-05 
-1.923826485663e-05 2.395451325704e-06 0.0 
2.395451325704e-06 8.936390066832e-05 0.0 
0.0 0.0 -1.909551055642e-05 
-1.897110782286e-04 1.614204189851e-06 0.0 
1.614204189851e-06 1.273238434675e-03 0.0 
0.0 0.0 -1.887784298001e-04 
-1.886445185701e-04 1.051783953080e-06 0.0 
1.051783953080e-06 1.269174095551e-03 0.0 
0.0 0.0 -1.885660222491e-04 
-4.447382147791e-05 2.187152848341e-06 0.0 
2.187152848341e-06 2.726065505036e-04 0.0 
0.0 0.0 -4.552470986649e-05 
-1.972951013402e-04 -6.924320481766e-07 0.0 
-6.924320481766e-07 1.331208438024e-03 0.0 
0.0 0.0 -1.972065251748e-04 
-1.846003121508e-05 -1.622840747709e-06 0.0 
-1.622840747709e-06 8.564597044111e-05 0.0 
0.0 0.0 -1.843810201100e-05 
-1.091119861245e-04 9.275684085525e-07 0.0 
9.275684085525e-07 7.216506540820e-04 0.0 
0.0 0.0 -1.108446562541e-04 
-1.806806328908e-05 -2.788761483685e-06 0.0 
-2.788761483685e-06 9.325750213385e-05 0.0 
0.0 0.0 -1.871126948293e-05 
-1.949690694268e-04 -7.776605200528e-06 0.0 
-7.776605200528e-06 1.321740719942e-03 0.0 
0.0 0.0 -1.962797183211e-04 
-1.894401262255e-04 3.666748622647e-06 0.0 
3.666748622647e-06 1.266754761130e-03 0.0 
0.0 0.0 -1.882268625302e-04 
-9.871077405525e-05 5.581959752057e-06 0.0 
5.581959752057e-06 6.396670141167e-04 0.0 
0.0 0.0 -9.846769932235e-05 
-1.118450688366e-04 4.156485273902e-06 0.0 
4.156485273902e-06 7.411970212637e-04 0.0 
0.0 0.0 -1.131213240816e-04 
-6.675482278899e-05 2.746646028006e-06 0.0 
2.746646028006e-06 4.187062855815e-04 0.0 
0.0 0.0 -6.639636993191e-05 
-1.817394697373e-04 5.968977030046e-06 0.0 
5.968977030046e-06 1.213512747672e-03 0.0 
0.0 0.0 -1.805248368263e-04 
-2.549001927232e-05 1.681293934372e-06 0.0 
1.681293934372e-06 1.416935565870e-04 0.0 
0.0 0.0 -2.765034433090e-05 
-1.904991185222e-04 -2.176372463226e-06 0.0 
-2.176372463226e-06 1.275606109758e-03 0.0 
0.0 0.0 -1.890445337758e-04 
-1.902901370943e-04 -9.239913511011e-07 0.0 
-9.239913511011e-07 1.276413630327e-03 0.0 
0.0 0.0 -1.892125449932e-04 
-1.899738152617e-04 1.392000637092e-06 0.0 
1.392000637092e-06 1.275351249225e-03 0.0 
0.0 0.0 -1.890927655262e-04 
-1.980969591010e-04 1.747220192365e-07 0.0 
1.747220192365e-07 1.334413570643e-03 0.0 
0.0 0.0 -1.976588442224e-04 
-1.595876566451e-05 5.109996014523e-06 0.0 
5.109996014523e-06 8.560533841461e-05 0.0 
0.0 0.0 -1.829422046362e-05 
-1.907894524984e-04 -1.453289198629e-06 0.0 
-1.453289198629e-06 1.278087489939e-03 0.0 
0.0 0.0 -1.894635324722e-04 
-1.817965180967e-04 4.689820275562e-06 0.0 
4.689820275562e-06 1.212613848096e-03 0.0 
0.0 0.0 -1.803359864353e-04 
-1.117957005377e-04 6.977421344692e-06 0.0 
6.977421344692e-06 7.320600126907e-04 0.0 
0.0 0.0 -1.115961672155e-04 
-1.879277561833e-04 6.009601527580e-06 0.0 
6.009601527580e-06 1.263394424764e-03 0.0 
0.0 0.0 -1.878861552790e-04 
-8.116031042482e-05 4.154281404345e-06 0.0 
4.154281404345e-06 5.182033185543e-04 0.0 
0.0 0.0 -8.075837133452e-05 
-3.557600018319e-05 -6.705160068937e-06 0.0 
-6.705160068937e-06 2.127372360934e-04 0.0 
0.0 0.0 -3.738032741976e-05 
-1.948498336035e-04 -4.155697267809e-06 0.0 
-4.155697267809e-06 1.324960786423e-03 0.0 
0.0 0.0 -1.970235340649e-04 
-6.441570103541e-06 -6.279015523928e-07 0.0 
-6.279015523928e-07 3.480654244499e-05 0.0 
0.0 0.0 -7.946641316233e-06 
-1.120604214633e-04 -3.288397658700e-06 0.0 
-3.288397658700e-06 7.283085618337e-04 0.0 
0.0 0.0 -1.110361655408e-04 
-1.968531726492e-04 6.196640298584e-06 0.0 
6.196640298584e-06 1.326994606246e-03 0.0 
0.0 0.0 -1.970239266115e-04 
-3.317100676700e-05 -5.514460053326e-07 0.0 
-5.514460053326e-07 2.002819803963e-04 0.0 
0.0 0.0 -3.602866455310e-05 
-1.267924167818e-04 -3.909643930437e-06 0.0 
-3.909643930437e-06 8.405854862832e-04 0.0 
0.0 0.0 -1.273445728183e-04 
-1.883260687280e-04 -1.377902224743e-06 0.0 
-1.377902224743e-06 1.272138406880e-03 0.0 
0.0 0.0 -1.890317804362e-04 
-1.203896409836e-04 1.438809671102e-06 0.0 
1.438809671102e-06 7.891647527459e-04 0.0 
0.0 0.0 -1.197994443266e-04 
-1.726861375007e-04 -9.127303948545e-06 0.0 
-9.127303948545e-06 1.150354645725e-03 0.0 
0.0 0.0 -1.722668051730e-04 
-3.289244603068e-05 1.865001967380e-06 0.0 
1.865001967380e-06 1.965766441920e-04 0.0 
0.0 0.0 -3.568834104832e-05 
-5.881706171023e-06 -3.561904745218e-07 0.0 
-3.561904745218e-07 3.491879089690e-05 0.0 
0.0 0.0 -7.282502801701e-06 
-1.446887067247e-04 -6.124654101547e-06 0.0 
-6.124654101547e-06 9.637426034631e-04 0.0 
0.0 0.0 -1.450319398739e-04 
-1.900119233844e-04 5.405432627128e-06 0.0 
5.405432627128e-06 1.271140965081e-03 0.0 
0.0 0.0 -1.888071511890e-04 
-1.907231428786e-04 -2.479170288195e-06 0.0 
-2.479170288195e-06 1.279898250331e-03 0.0 
0.0 0.0 -1.895996551150e-04 
-1.374681624272e-04 5.948461411176e-06 0.0 
5.948461411176e-06 9.167037354941e-04 0.0 
0.0 0.0 -1.379940178424e-04 
-3.140963832924e-05 -6.998474457374e-06 0.0 
-6.998474457374e-06 1.796728179544e-04 0.0 
0.0 0.0 -3.246938559274e-05 
-1.841130626501e-04 1.475194732939e-06 0.0 
1.475194732939e-06 1.232968589940e-03 0.0 
0.0 0.0 -1.831558075192e-04 
-1.038243241623e-04 -4.078507790945e-07 0.0 
-4.078507790945e-07 6.921885952500e-04 0.0 
0.0 0.0 -1.059090906887e-04 
-1.833573372240e-04 -2.325322525301e-06 0.0 
-2.325322525301e-06 1.222189390314e-03 0.0 
0.0 0.0 -1.813408670945e-04 
-1.831720387608e-04 -1.195237391826e-06 0.0 
-1.195237391826e-06 1.215102366402e-03 0.0 
0.0 0.0 -1.805709848148e-04 
-8.505788794989e-06 -2.657547953589e-06 0.0 
-2.657547953589e-06 3.877580200424e-05 0.0 
0.0 0.0 -9.674067485877e-06 
-1.292364309074e-04 2.864479089253e-06 0.0 
2.864479089253e-06 8.498544276161e-04 0.0 
0.0 0.0 -1.284404431535e-04 
-1.837715794025e-05 -4.476436000323e-06 0.0 
-4.476436000323e-06 8.791465953263e-05 0.0 
0.0 0.0 -1.834574975625e-05 
-1.906256035079e-04 -2.900280215013e-06 0.0 
-2.900280215013e-06 1.276520367600e-03 0.0 
0.0 0.0 -1.895571240875e-04 
-1.101124519025e-04 -2.003731999075e-06 0.0 
-2.003731999075e-06 7.232878293546e-04 0.0 
0.0 0.0 -1.101665449339e-04 
-4.165891267230e-05 -4.371266864637e-06 0.0 
-4.371266864637e-06 2.889985860028e-04 0.0 
0.0 0.0 -4.790306122449e-05 
-4.964086180168e-05 -2.693060693399e-07 0.0 
-2.693060693399e-07 3.013640208770e-04 0.0 
0.0 0.0 -4.900000000000e-05 
-5.048456417060e-05 -2.929549654779e-06 0.0 
-2.929549654779e-06 3.593010990798e-04 0.0 
0.0 0.0 -5.788546288080e-05 
-5.961378635258e-05 -5.454468222937e-07 0.0 
-5.454468222937e-07 3.590027679778e-04 0.0 
0.0 0.0 -5.900000000000e-05 
-6.265158996412e-05 -5.475928741402e-06 0.0 
-5.475928741402e-06 4.290425473903e-04 0.0 
0.0 0.0 -6.790306122449e-05 
-6.948065415978e-05 -5.864688945389e-07 0.0 
-5.864688945389e-07 4.403815007264e-04 0.0 
0.0 0.0 -6.900000000000e-05 
-7.287737908661e-05 -5.356659590834e-06 0.0 
-5.356659590834e-06 4.997222128530e-04 0.0 
0.0 0.0 -7.788265306121e-05 
-7.961974967197e-05 -6.571269526958e-07 0.0 
-6.571269526958e-07 4.982209090245e-04 0.0 
0.0 0.0 -7.900000000000e-05 
-8.324861204494e-05 -5.744890109580e-06 0.0 
-5.744890109580e-06 5.692366340431e-04 0.0 
0.0 0.0 -8.790306122449e-05 
-8.930212876051e-05 1.144359831531e-06 0.0 
1.144359831531e-06 5.794802677978e-04 0.0 
0.0 0.0 -8.900000000000e-05 
-9.352423002678e-05 -5.224443985984e-06 0.0 
-5.224443985984e-06 6.401887908398e-04 0.0 
0.0 0.0 -9.787877878422e-05 
-1.009998970260e-04 5.583373135514e-06 0.0 
5.583373135514e-06 6.372022866514e-04 0.0 
0.0 0.0 -9.900000000000e-05 

SCALARS node_materi_plasti_kappa_shear float
LOOKUP_TABLE default
1.731369050501e-05
4.545550431279e-04
8.879540853347e-04
8.885778472785e-04
4.289921439406e-05
9.327668990988e-05
1.307750198866e-04
1.795624514288e-04
2.257201379956e-04
2.695509172566e-04
3.144422750007e-04
3.602182894153e-04
4.054873038985e-04
4.525148308088e-04
5.038541824834e-04
5.495995247736e-04
5.862111262393e-04
6.342650658052e-04
6.814841447557e-04
7.273130426229e-04
7.742201728224e-04
8.215906888973e-04
8.669064806701e-04
8.898091793777e-04
8.888004860446e-04
8.881476431534e-04
8.886611550675e-04
8.873292207379e-04
8.873796625284e-04
8.877145688059e-04
8.882991997087e-04
8.891081577287e-04
8.895674516380e-04
8.882569121584e-04
8.886773248083e-04
8.897614672626e-04
8.893270601288e-04
8.879317372578e-04
8.867155421258e-04
8.860750537291e-04
8.875036930769e-04
8.888199397314e-04
8.889528056051e-04
8.891193998000e-04
8.889269682470e-04
8.885711942666e-04
8.881774963459e-04
8.893558715015e-04
8.892926716099e-04
8.896475655307e-04
8.895391621796e-04
8.902345752377e-04
8.910618100376e-04
8.908268286946e-04
8.883017444198e-04
8.870033247227e-04
8.889101297818e-04
8.887178507321e-04
8.889749525521e-04
8.891814831339e-04
8.887055024058e-04
8.873576980910e-04
8.876113339264e-04
8.880420548052e-04
8.897938021992e-04
8.907165225603e-04
8.860205656141e-04
8.893069775074e-04
8.887535151655e-04
8.885180406596e-04
8.909163501420e-04
8.913403494152e-04
4.970460226215e-04
5.465414378926e-04
5.921313660911e-04
6.364287587029e-04
6.825537522220e-04
7.278134995944e-04
7.735342273327e-04
8.173136017165e-04
8.659377019958e-04
1.387818063272e-05
4.539930109995e-04
5.438054036256e-05
1.009772649362e-04
1.470854780186e-04
1.869539934195e-04
2.183476322774e-04
2.642608575334e-04
3.107394956161e-04
3.570654865109e-04
4.033178026184e-04
1.982098133271e-04
2.254865019445e-04
2.707860879461e-04
3.162883577622e-04
3.616329343761e-04
4.060157178949e-04
4.461572723987e-04
4.482375507592e-04
4.489251939510e-04
4.482810220245e-04
4.560054951225e-04
4.490487455221e-04
4.479848053994e-04
4.491487522400e-04
4.505166080725e-04
4.507339705437e-04
4.500429840668e-04
4.496777136800e-04
4.491474461797e-04
4.502737102712e-04
1.443236451681e-05
1.609184950887e-05
1.444777850682e-05
1.445196928896e-05
1.742545827470e-05
1.883427368882e-05
1.852391460304e-05
1.764215548380e-05
1.771561269883e-05
1.733046749832e-05
1.810073159380e-05
2.048990176091e-05
1.919122443325e-05
1.606222747872e-05
1.631184331598e-05
1.838276961406e-05
1.899682157401e-05
1.674761483558e-05
1.515472777583e-05
2.063054440918e-04
2.028017862618e-04
2.021478331735e-04
2.021442372394e-04
2.022283865880e-04
2.023209149080e-04
2.023878666338e-04
2.024190943550e-04
2.024250110389e-04
2.024122957604e-04
2.023848176143e-04
2.023374991830e-04
2.023020722646e-04
2.023126302348e-04
2.023897529164e-04
2.024491523020e-04
2.025506807613e-04
2.025405834173e-04
2.026600914476e-04
2.023651334216e-04
2.022104185814e-04
2.006662461091e-04
1.814917759328e-04
2.109708302842e-04
2.236620319499e-04
2.218312568736e-04
2.216843488834e-04
2.219428590784e-04
2.217846971553e-04
2.217415831349e-04
2.215999074723e-04
2.215541127844e-04
2.215891944876e-04
2.216558522700e-04
2.216827294030e-04
2.216923896073e-04
2.216956791642e-04
2.216811887582e-04
2.216297808589e-04
2.215409133773e-04
2.214529972215e-04
2.214107640670e-04
2.214815066151e-04
2.218511843967e-04
2.241914065437e-04
2.692547529093e-04
2.675660618296e-04
2.673934583820e-04
2.673939568732e-04
2.674585768179e-04
2.675591031638e-04
2.676459040090e-04
2.676570538580e-04
2.676372015587e-04
2.676553404665e-04
2.676764041519e-04
2.676333042631e-04
2.674812840926e-04
2.674838661980e-04
2.676204239189e-04
2.679795855057e-04
2.678105543472e-04
2.677301033404e-04
2.700799073531e-04
2.570066425718e-04
3.028056095170e-04
3.161844696852e-04
3.143201194648e-04
3.138173456821e-04
3.135666727045e-04
3.133894152578e-04
3.137072245185e-04
3.137903749499e-04
3.137552108189e-04
3.136173653508e-04
3.136276881299e-04
3.137330253685e-04
3.136250543478e-04
3.134895440990e-04
3.134087321469e-04
3.133800931571e-04
3.134342156714e-04
3.138051608859e-04
3.154278010076e-04
3.611485313111e-04
3.593958689772e-04
3.591898798686e-04
3.593297202165e-04
3.592471895824e-04
3.594265497814e-04
3.596237032014e-04
3.596571460670e-04
3.593377794373e-04
3.596684783014e-04
3.598758848307e-04
3.597552388914e-04
3.597821813941e-04
3.590976444273e-04
3.597033129801e-04
3.627706280632e-04
3.496857881406e-04
3.956894430432e-04
4.084843113251e-04
4.060961241034e-04
4.055043726269e-04
4.058070391746e-04
4.060008361141e-04
4.054675210445e-04
4.054158394705e-04
4.054705070724e-04
4.053661824669e-04
4.051783298876e-04
4.050677983318e-04
4.054138231738e-04
4.048987951044e-04
4.060536754366e-04
4.085853059390e-04
3.439412955423e-05
7.855211595374e-05
1.235371244524e-04
1.701785260397e-04
1.987126948131e-04
2.444555121765e-04
2.902585631940e-04
3.362497538655e-04
3.823052700951e-04
4.292533059372e-04
1.065540971725e-04
8.722366970816e-04
3.071877777411e-05
2.955753103127e-05
8.728796448070e-04
1.993419400918e-04
4.786993620079e-04
8.715410235368e-04
2.838574358308e-04
8.733046452917e-04
3.784478368563e-04
8.750925786310e-04
2.796371051266e-05
8.736269387387e-04
4.733271556655e-04
2.936877367691e-04
6.035474916514e-04
8.717572086583e-04
8.738199405046e-04
8.737494710065e-04
8.696287808285e-04
8.750806370792e-04
4.919558859900e-04
4.918398764199e-04
4.949307231399e-04
6.589482462508e-04
8.738674271820e-04
2.813705699443e-05
3.195365789908e-05
7.486411905949e-04
4.900146372998e-04
1.541367175474e-04
8.655890379535e-04
8.755682138923e-04
8.730973644309e-04
8.703784410466e-04
8.740973276145e-04
3.187356296986e-05
4.907091952207e-04
8.662583448289e-04
7.508115515426e-04
3.074176072344e-05
3.834518994422e-04
8.815314033999e-04
2.457863140164e-04
1.527805289882e-04
3.313833785311e-04
4.244970235113e-04
5.636808983146e-05
5.718052096935e-04
8.819662471530e-04
3.001251584579e-05
8.373343036417e-04
4.924452570696e-04
5.108818745462e-04
5.332387487364e-04
5.560142054344e-04
5.787643014481e-04
5.991259251811e-04
5.752635265182e-04
6.186942134972e-04
5.944516730932e-04
6.231926228760e-04
6.380835551574e-04
6.135840024034e-04
6.573144048118e-04
6.328089844586e-04
5.894129404993e-04
6.085043193505e-04
5.651248587261e-04
5.842235601993e-04
6.277370129424e-04
6.033008816137e-04
5.598285256637e-04
5.787470750073e-04
5.354343962972e-04
5.543066005166e-04
5.109771159406e-04
5.298843866555e-04
5.732568666387e-04
5.488106401566e-04
5.054467442157e-04
5.243830125588e-04
4.810781478793e-04
4.998224426771e-04
5.432974154275e-04
5.187745459682e-04
4.750268661506e-04
4.942061513858e-04
4.503195040673e-04
4.696890934292e-04
4.255957344176e-04
4.448505048632e-04
4.889334273357e-04
4.641717549476e-04
4.199472596373e-04
4.391094936345e-04
4.834394634788e-04
4.583112576687e-04
5.027462790146e-04
4.776197235482e-04
4.333642288832e-04
4.526081348578e-04
4.969211450957e-04
4.717210733978e-04
4.275809977385e-04
4.467222286567e-04
4.910180813087e-04
4.658552900682e-04
4.216677957086e-04
4.408729284411e-04
4.853895838457e-04
4.600318407553e-04
4.156094397672e-04
4.346988666159e-04
4.795014301536e-04
4.538188443789e-04
4.989809666093e-04
4.088754149089e-04
4.280167623937e-04
3.828819013324e-04
4.021805478245e-04
5.624042399684e-04
3.568746175437e-04
3.381624883378e-04
3.763715402787e-04
4.219792148569e-04
3.309364607346e-04
3.505799184385e-04
3.052633941202e-04
4.056941669208e-04
6.469586485139e-04
3.250320809889e-04
2.796631607038e-04
2.599302819126e-04
2.342013255709e-04
6.036748186582e-04
6.482174305303e-04
6.269535787043e-04
6.731337752938e-04
6.527067380216e-04
2.538439629180e-04
6.821261244064e-04
6.930466000944e-04
5.166862193674e-04
4.621843229341e-04
5.278976428177e-04
3.703184973447e-04
3.451321418538e-04
3.906862459586e-04
5.246371866953e-04
5.443146240762e-04
5.699547953913e-04
5.897069522284e-04
6.153672919097e-04
6.351883362805e-04
6.094609170451e-04
6.550126832139e-04
6.292102542344e-04
6.608318434088e-04
6.410047653727e-04
6.747478106556e-04
6.489569127364e-04
6.944404496434e-04
6.686255413523e-04
6.230894205853e-04
6.427296395524e-04
5.974326100299e-04
5.473118415211e-04
5.725790691740e-04
5.920079111203e-04
6.173889614791e-04
6.368362109388e-04
6.623309645012e-04
6.816599341203e-04
6.563140336921e-04
6.764880034757e-04
3.948980065668e-04
3.757422617964e-04
3.507921955189e-04
3.317100384563e-04
3.067998146490e-04
2.878591714287e-04
2.628952814348e-04
2.817770972622e-04
2.377365497028e-04
2.565509120403e-04
2.123913595215e-04
2.311386405196e-04
5.922576399657e-04
6.427827676104e-04
6.878682679612e-04
6.678822000469e-04
2.148067718258e-04
6.882180801932e-04
6.864985118878e-04
6.664359755593e-04
7.013124766121e-04
2.087760264216e-04
2.441964081010e-04
2.687157839923e-04
6.978563593589e-04
6.772610625539e-04
7.121601343833e-04
2.283568469402e-04
7.006628053783e-04
1.937776703377e-04
6.622880887680e-04
7.078272471647e-04
5.837558227301e-04
7.131417687537e-04
6.924127382572e-04
2.759772220359e-04
2.508908842006e-04
2.067202652783e-04
2.273131006144e-04
2.708850174899e-04
2.448672349258e-04
1.998980645288e-04
2.191272268305e-04
2.639108306055e-04
2.381925193768e-04
1.928266391849e-04
2.123220651939e-04
7.337275495344e-04
1.682265145296e-04
5.462050413710e-04
7.318865140830e-04
7.261568958084e-04
7.225832230558e-04
7.021288971226e-04
6.565124913041e-04
6.819655065462e-04
7.275032532752e-04
7.072262295563e-04
6.616628008332e-04
6.865235503483e-04
6.407465733666e-04
6.657182290584e-04
7.113460086993e-04
6.908411643582e-04
6.453255735266e-04
6.702622678794e-04
6.246789880058e-04
6.489319520512e-04
6.952190037192e-04
1.840273521277e-04
6.759567359458e-04
7.214607443990e-04
3.679720332759e-04
4.092817550487e-04
4.360686121868e-04
4.564588720529e-04
6.740705970757e-04
7.205777350965e-04
2.252804046805e-04
2.496360743898e-04
7.429139095365e-04
6.823424879043e-04
6.366049028177e-04
4.378451378818e-04
4.188880438556e-04
3.943752891281e-04
3.748640538969e-04
4.003452629813e-04
3.498940421147e-04
6.207438251872e-04
7.364909888472e-04
2.405871186206e-04
1.954370079604e-04
7.282805554458e-04
6.308606560243e-04
6.167686675707e-04
6.359024740525e-04
6.606418547102e-04
6.798245018957e-04
7.048195630290e-04
7.239151784800e-04
6.995250348688e-04
7.376440826471e-04
7.439657402355e-04
6.261993285558e-04
6.226819723499e-04
2.832721408126e-04
1.644730842850e-04
1.669301588230e-04
2.020973455329e-04
2.478170423544e-04
7.577119654081e-04
7.492733009352e-04
7.294398050137e-04
3.569060949549e-04
3.819409900850e-04
7.577870500628e-04
6.069742862614e-04
6.160208837846e-04
5.947078797033e-04
1.502552835389e-04
1.472236624068e-04
7.528104372185e-04
2.930236053531e-04
2.739490413792e-04
1.500905215988e-04
1.240537225359e-04
6.973593058681e-04
7.439041173789e-04
4.813505419260e-04
5.017144862583e-04
7.379119109569e-04
1.870277448814e-04
7.663141417339e-04
6.508032487137e-04
6.054849935165e-04
4.293291398523e-04
2.069471688254e-04
1.825426121622e-04
3.087667916428e-04
2.317056376954e-04
2.217281548421e-04
7.833146767017e-04
7.725249111761e-04
7.195048383756e-04
6.747855449436e-04
7.634484368176e-04
1.418552388890e-04
7.784896772250e-04
7.030108063973e-04
7.725824598691e-04
7.540604595901e-04
3.171474948001e-04
2.987852970653e-04
2.558668176592e-04
2.815832131691e-04
5.513698858348e-04
3.420076733765e-04
5.219255427951e-04
5.030668813377e-04
4.792452590639e-04
4.247335201093e-04
4.063236056300e-04
3.563244576484e-04
5.530404887445e-04
4.617109805981e-04
5.777394579271e-04
5.501611182387e-04
7.566237315057e-04
7.823745579098e-04
5.997434588477e-04
5.780237946273e-04
1.697495562144e-04
1.508805515530e-04
5.186529117619e-04
7.516991623626e-04
7.672690893153e-04
7.876001356161e-04
7.626509320592e-04
7.627778325953e-04
3.699499845101e-04
5.666666454918e-04
1.438245311811e-04
5.868006376027e-04
1.247175489974e-04
6.713548583210e-04
7.483917891977e-04
7.736774679398e-04
7.821572245300e-04
4.899015071153e-04
6.061770746778e-04
5.817931729752e-04
4.605724853742e-04
4.370223372958e-04
4.552736079605e-04
4.133656439147e-04
3.276923247088e-04
3.020339028758e-04
7.979659689173e-04
7.883460447529e-04
7.982408092042e-04
7.795524967648e-04
8.013069214063e-04
7.771428291273e-04
2.665794004091e-04
3.640873967819e-04
7.971681631113e-04
4.838853975756e-04
7.968536680470e-04
7.720983615569e-04
9.810668217613e-05
1.158569237012e-04
7.915840785144e-04
2.380574401883e-04
2.618006099049e-04
2.132008951494e-04
8.415052523991e-04
4.886663809025e-04
7.934056144555e-04
4.492884086887e-04
8.130387548701e-04
6.261760504981e-04
4.125814814439e-04
7.178732318399e-04
7.666642762268e-04
8.185709815988e-04
5.696834584242e-04
5.469719599133e-04
5.897324846543e-04
1.746640571462e-04
1.267235960322e-04
7.616042996353e-04
3.196076646027e-04
3.449992437643e-04
2.048866664362e-04
2.493062780569e-04
5.070116633323e-04
4.873520815403e-04
6.908734956118e-04
7.154878992919e-04
6.414340301825e-04
6.254037858679e-04
5.801902790572e-04
5.606256376154e-04
8.012681753723e-04
8.329963825512e-04
3.530470634913e-04
3.340524441574e-04
3.460614324759e-04
8.175524335045e-04
8.195011765415e-04
7.988609115481e-04
1.072300634752e-04
1.330632502214e-04
1.652810804939e-04
1.397493906304e-04
8.060647275400e-04
7.832275887001e-04
8.359053686964e-04
2.373558503067e-04
6.948259004067e-04
8.063839968108e-04
7.881231808626e-04
8.339301416530e-04
7.615215817857e-04
8.048887775842e-04
8.067360300635e-04
8.088210451328e-05
8.001969768968e-04
5.513628864854e-04
5.991210265794e-05
5.303750343771e-04
5.575493484435e-04
5.056018791105e-04
1.923253731113e-04
5.350945061517e-04
5.648908884563e-04
7.689491788832e-05
8.408831798945e-04
8.340401133038e-05
9.990498025281e-05
8.174634215095e-04
7.911886027123e-04
8.358366351121e-04
8.088717682168e-04
7.649515697637e-04
7.857574983214e-04
5.264350640623e-04
8.358546589261e-04
8.061222461893e-04
8.605711697752e-04
3.958089654574e-04
3.059852068258e-04
2.858172523062e-04
2.426109781750e-04
8.296191495191e-04
8.022538523192e-04
7.244602053986e-04
6.782170569491e-04
5.336023792134e-04
5.298854478294e-04
5.720377334188e-04
5.651841783924e-04
6.088002111604e-04
6.018654128492e-04
6.443068834977e-04
8.334708182106e-04
1.951336418689e-04
4.420082584187e-04
8.207982746555e-04
7.940700745776e-04
3.881584802576e-04
3.471998577605e-04
8.305993334525e-04
3.609425281377e-04
8.689143425974e-04
2.787060135920e-05
7.286647819476e-05
3.859558184678e-04
4.309545412117e-04
3.298825060451e-04
3.137520652760e-04
6.714664482733e-04
1.125731627303e-04
1.894537224626e-04
6.501544121412e-04
1.477430287242e-04
7.019854955118e-04
3.810844111669e-04
4.677711350311e-04
2.313148587081e-04
3.252238421852e-04
5.703579268460e-04
5.324043867603e-04
5.086674172278e-04
4.006419728863e-04
3.391204703335e-04
2.923835719857e-04
5.408511218791e-04
7.379651171000e-04
7.579706773122e-04
8.011548755258e-04
7.780826984350e-04
7.332840892905e-04
7.526479975871e-04
7.971803115054e-04
7.735197813417e-04
8.262472905690e-04
7.929598925790e-04
7.470527542953e-04
7.659248830045e-04
8.091032939205e-04
7.211619544472e-04
8.442167902149e-04
4.306865788467e-04
1.044765289972e-04
9.827683643382e-05
4.923540219683e-04
8.714790847238e-04
8.731736799155e-04
3.123792524490e-04
8.729287150019e-04
5.272649318487e-04
2.191398239417e-04
8.732031985156e-04
7.130087249815e-04
6.877858420163e-04
6.679067510146e-04
8.747254954737e-04
6.109742344751e-04
8.755701857100e-04
5.978551322893e-04
5.777687862342e-04
5.331862976259e-04
7.271016044260e-04
8.726832412974e-04
8.363453721647e-04
8.357287884966e-04
7.967949130083e-04
8.729311769591e-04
8.746048210339e-04
8.757603934564e-04
2.896480078818e-04
3.151536061377e-04
3.591713235696e-04
3.399576539233e-04
2.956226792121e-04
3.205301867894e-04
3.646701735677e-04
3.009725532030e-04
7.593675824400e-04
8.745186206880e-04
5.955179239956e-04
5.752952465899e-04
5.302262826699e-04
4.419860638094e-04
4.675978432361e-04
5.129738354448e-04
4.164548397465e-04
6.551879346242e-04
8.741019856414e-04
5.859901048920e-04
4.476603996913e-04
4.915230817815e-04
5.309240068605e-04
5.323700613709e-04
5.736894063965e-04
5.351590388547e-04
5.269854541203e-04
5.469085242661e-04
5.219164243980e-04
5.664660482549e-04
5.401131126200e-04
4.979524260253e-04
5.848853311671e-04
5.569185072007e-04
4.906420102381e-04
3.170448400109e-05
6.995385727615e-05
6.849074955060e-05
1.073511835087e-04
1.105991917856e-04
1.504731351132e-04
1.458387750102e-04
7.076324639262e-05
3.090762372850e-05
6.811155019588e-05
3.024275800373e-05
6.701952661023e-05
1.132561805515e-04
1.774278331148e-04
8.683268420300e-04
4.289563965157e-04
4.087467011713e-04
3.620022030675e-04
3.871398276738e-04
4.468882401977e-04
3.382483447187e-04
3.227666928477e-04
3.186373403238e-05
6.968070788243e-05
6.930431433067e-05
1.103830641038e-04
1.084283513711e-04
6.955844240917e-05
6.957251263225e-05
3.087829288754e-05
6.916668823128e-05
1.092093195758e-04
2.860096868461e-05
7.056820037004e-04
7.299566898429e-04
8.725577123160e-04
4.959692094609e-04
3.091218048916e-05
8.671852048698e-04
8.733432179252e-04
8.734531321064e-04
7.957971286484e-04
8.182028176353e-04
8.680808008300e-04
2.856246407715e-04
8.221505899075e-04
7.867365561803e-04
2.006879828875e-04
2.760157267466e-04
6.570374827172e-04
6.034788526751e-04
7.534404223277e-04
6.171445062617e-04
7.141191166494e-04
8.333331487220e-04
1.769391207037e-04
6.197356729893e-04
6.031369019689e-04
7.159815276405e-04
2.996957630434e-04
4.779314782195e-04
1.896480084331e-04
8.372249201877e-04
4.978685116583e-04
5.049912460344e-04
3.962534712183e-04
3.116673154321e-04
2.575495564398e-04
4.563132910929e-04
4.733113038568e-04
6.807420950213e-04
7.412727405057e-04
3.900894407946e-05
7.062809791721e-04
5.640134143322e-04
6.366157628327e-04
7.072992914154e-04
1.751116105001e-04
7.321461800821e-04
8.104970881191e-04
5.847505123753e-04
1.450668962481e-04
5.736378135269e-04
8.027337595558e-04
7.180376744355e-04
2.736317130801e-04
5.220914710743e-04
4.865818052908e-04
4.471177866967e-04
8.063363278817e-04
5.378993798996e-04
7.470022916029e-04
6.114026488664e-04
2.939212611736e-04
7.463767332910e-04
5.084976424556e-04
7.777626792266e-04
6.854084072495e-04
4.140791467985e-04
7.471678807682e-04
5.103813785756e-04
7.329713830172e-04
4.737289604077e-04
5.977356866437e-04
6.519892618683e-04
5.678021419543e-04
6.319192717496e-04
7.264774776897e-04
1.875624189713e-04
3.688310981205e-04
6.314501505079e-04
7.672682440834e-04
8.229065015772e-04
4.434680652511e-04
7.201561125460e-04
7.914028017314e-04
4.930979507901e-04
2.040260336769e-04
1.581177402907e-04
3.258736548738e-04
5.134927945261e-04
5.384299011222e-04
8.328361271424e-04
7.396786737532e-04
6.920128991829e-04
8.196000574170e-05
4.652440764187e-04
7.595631118992e-04
5.413940581115e-04
7.514691837904e-04
5.124079232766e-04
8.363223980306e-04
3.713304271161e-04
7.809543171496e-04
6.971423152539e-04
3.367042725643e-04
4.902204304360e-04
8.332513049422e-04
7.429330284218e-04
6.113513461743e-04
5.161141755974e-04
4.006034501526e-04
5.581912762765e-04
6.223072189553e-04
8.752979443997e-04
7.659203639430e-04
6.426709006855e-04
5.325586862055e-04
6.468672484863e-04
1.073528278852e-04
4.189303666797e-04
5.523127417924e-04
3.452338039030e-04
5.354806018552e-04
8.261173123730e-04
5.721454322879e-04
3.892915712256e-04
5.917818965200e-04
3.539736687271e-04
6.627781278346e-04
6.108539446376e-04
6.660506999495e-04
1.163652973912e-04
6.305577701447e-04
7.706780509162e-04
3.642601618824e-04
5.551389630622e-04
7.078379568633e-04
3.068275794996e-04
6.002627334512e-04
7.101300016245e-04
6.503083964526e-04
5.576201452771e-04
6.459702225838e-04
3.237473504565e-04
2.667167922262e-04
2.221184360012e-04
4.085364404529e-04
7.352038309621e-04
1.486189434307e-04
7.017840156360e-04
1.592352416656e-04
3.838129177836e-04
7.166805507109e-04
6.173636955304e-04
4.028477991316e-04
2.492989866975e-04
3.779520455053e-04
6.018674573376e-04
3.968794592392e-04
3.716672737304e-04
8.329159667528e-04
3.902334651909e-04
8.748882416506e-04
8.711247298713e-04
5.265534076551e-04
2.606176973493e-04
3.608218628589e-05
2.743663405466e-04
3.201182020186e-04
6.958586502564e-04
5.269760115519e-04
2.937831755636e-04
8.369611183303e-04
8.745831491043e-04
6.824073644152e-04
7.692285890476e-04
6.715862034514e-04
7.913186766418e-04
4.873605112046e-04
6.716351408429e-05
6.550406917342e-04
2.121979415798e-04
2.182245527634e-04
1.712289286332e-04
3.107224161433e-04
1.057301483358e-04
1.752557479945e-04
8.331013379116e-04
5.272790897640e-04
7.395202468706e-04
1.285853407158e-04
8.358234000511e-04
8.354665319098e-04
8.757509275415e-04
7.846429612781e-04
1.241570316100e-04
5.651773772313e-04
8.374854402619e-04
7.189201776621e-04
8.774612593526e-04
5.201256590730e-04
8.377629979176e-04
1.628222754370e-04
8.372912793325e-04
7.405810874684e-04
5.837048570091e-04
5.629391932633e-04
8.390585364860e-04
8.374355334258e-04
9.795501197394e-05
6.799231894058e-04
3.879757720191e-04
6.464184088928e-05
8.366012277656e-04
7.827055704325e-04
8.377349647591e-04
1.105757531249e-04
6.604595936869e-05
8.445536335797e-04
8.418018754541e-04
1.845877810614e-04
8.826549608499e-04
6.138757031093e-05
4.804799717199e-04
6.556100966196e-05
8.765991424528e-04
8.406352288090e-04
4.268003565694e-04
4.929667183317e-04
2.809817149082e-04
8.054666026434e-04
9.866382460825e-05
8.462920394623e-04
8.466481683937e-04
8.459200057126e-04
8.848347209821e-04
6.317410965350e-05
8.478579638221e-04
8.049072796093e-04
4.880930937126e-04
8.381519655459e-04
3.464907722736e-04
1.453132550396e-04
8.782340449193e-04
2.788672853684e-05
4.852288266984e-04
8.800271141742e-04
1.366420641944e-04
5.591160485789e-04
8.434724703118e-04
5.260519714094e-04
7.639465125205e-04
1.346350386641e-04
2.489926233996e-05
6.405845470091e-04
8.434966522637e-04
8.489495605041e-04
6.092101199237e-04
1.233072216685e-04
8.180905916336e-04
4.606593074043e-04
8.111203909914e-04
8.066949311417e-04
3.153365254742e-05
5.661385301693e-04
6.389298898293e-05
8.469003976225e-04
4.815533645814e-04
1.930912926159e-04
2.061381711949e-04
2.390794373089e-04
2.445931968886e-04
2.856605147877e-04
2.967755800048e-04
3.322884574065e-04
3.356786539240e-04
3.782594336362e-04
3.879906112582e-04
4.250700443092e-04
4.273709822799e-04

SCALARS node_materi_plasti_phimob float
LOOKUP_TABLE default
-5.940836264978e+01
1.254334233390e+01
2.058346263753e+01
1.968629101963e+01
-3.152965173235e+01
-6.251669885214e+00
4.094692233088e+00
1.011999853027e+01
1.365810329224e+01
1.582061038815e+01
1.736615232596e+01
1.850878123226e+01
1.932734894969e+01
1.996470803826e+01
2.045412313318e+01
2.069660472105e+01
2.081733835453e+01
2.095095882084e+01
2.099196253072e+01
2.097409339973e+01
2.091965118345e+01
2.082740855738e+01
2.070814424706e+01
1.970398282485e+01
1.969827243314e+01
1.970251717247e+01
1.970688223416e+01
1.969783346481e+01
1.970828958372e+01
1.970752697601e+01
1.972044703401e+01
1.973509242864e+01
1.974885492847e+01
1.974864479696e+01
1.977502872281e+01
1.979140294043e+01
1.982199286814e+01
1.983682597568e+01
1.986919466131e+01
1.990207499200e+01
1.994407251915e+01
2.000460604322e+01
2.006325069129e+01
2.011573625985e+01
2.016061955652e+01
2.024215398419e+01
2.030916140148e+01
2.037288000813e+01
2.041923494941e+01
2.049713932490e+01
2.051814147437e+01
2.057044164674e+01
2.058009830653e+01
2.062557252055e+01
2.062626511844e+01
2.062822907988e+01
2.063310346037e+01
2.063266167868e+01
2.063413922897e+01
2.062477341460e+01
2.062639462598e+01
2.061465185750e+01
2.062032298248e+01
2.060574720227e+01
2.058699726180e+01
2.057958083042e+01
2.061342916982e+01
2.056936596327e+01
2.058380162756e+01
2.057105241667e+01
2.056995197736e+01
2.057497255636e+01
1.413317598899e+01
1.536701625185e+01
1.631156166190e+01
1.706496508388e+01
1.770907660126e+01
1.824101376703e+01
1.870974449427e+01
1.911525349068e+01
1.947486163831e+01
-3.763059720238e+01
1.212667627839e+01
-1.569557481326e+01
-9.220745813733e+00
-9.749789017921e+00
-2.713381115639e+01
-2.801231307630e+01
-8.325650461902e+00
1.178689113027e+00
6.432733567530e+00
9.736533730842e+00
-5.498730131308e+01
-3.302374921282e+01
-9.271522556976e+00
1.292938903454e+00
6.852369526841e+00
1.017837819145e+01
1.225078653667e+01
1.234015796533e+01
1.234315904794e+01
1.230633248261e+01
1.251124378935e+01
1.228633149041e+01
1.222907629800e+01
1.222188103452e+01
1.223331783807e+01
1.219313187766e+01
1.213768584914e+01
1.209447913548e+01
1.205512959491e+01
1.205331638444e+01
-3.995778884299e+01
-3.707757514165e+01
-3.674001554445e+01
-3.906816399296e+01
-4.269516134981e+01
-4.554991348656e+01
-4.870628064687e+01
-5.194695114344e+01
-5.508172782501e+01
-5.769919132708e+01
-5.911481575265e+01
-5.785856296782e+01
-5.880538778728e+01
-6.126799125782e+01
-6.087662846177e+01
-5.997668043105e+01
-5.986211581565e+01
-6.119796324355e+01
-6.316844355573e+01
-5.345478428185e+01
-5.564360801246e+01
-5.584151789757e+01
-5.580931915438e+01
-5.577441348455e+01
-5.574681263579e+01
-5.572572460050e+01
-5.570746182929e+01
-5.568911308653e+01
-5.566986573420e+01
-5.565005967916e+01
-5.563250520636e+01
-5.561105602623e+01
-5.558933920972e+01
-5.555766473187e+01
-5.551037079727e+01
-5.537198045886e+01
-5.528861707592e+01
-5.504946431116e+01
-5.494721035415e+01
-5.400740680258e+01
-1.461465305585e+01
-4.085577719733e+00
-3.663836754732e+01
-3.269002154722e+01
-3.522768023071e+01
-3.560940447175e+01
-3.568881932846e+01
-3.586186487923e+01
-3.596206672508e+01
-3.606976805253e+01
-3.615475673743e+01
-3.623242015866e+01
-3.629707355462e+01
-3.635814572934e+01
-3.641242208731e+01
-3.645897188894e+01
-3.649932868501e+01
-3.653553987789e+01
-3.657011333639e+01
-3.660229463168e+01
-3.662761265413e+01
-3.661134155328e+01
-3.602028625260e+01
-3.375904497362e+01
-9.995221493125e+00
-1.008190165533e+01
-1.004694664535e+01
-1.001905671293e+01
-9.991329094872e+00
-9.963252832892e+00
-9.935310014637e+00
-9.909062522380e+00
-9.879935943130e+00
-9.845216677483e+00
-9.807059765303e+00
-9.770865331761e+00
-9.740143500074e+00
-9.699009033908e+00
-9.657208435546e+00
-9.605160816915e+00
-9.598803456253e+00
-9.535267881637e+00
-8.650129551402e+00
-1.066569839526e+01
2.190873016089e-01
1.369519672336e+00
1.020164471757e+00
9.903008157860e-01
9.946841621323e-01
9.930767988756e-01
1.013937336449e+00
1.023889836157e+00
1.026233359456e+00
1.023261009385e+00
1.024773075948e+00
1.029768903692e+00
1.026825962947e+00
1.020328154263e+00
1.014435894855e+00
1.008205911333e+00
1.010926769436e+00
1.101270015651e+00
1.350337614179e+00
6.745685129526e+00
6.714148951066e+00
6.704424719343e+00
6.702141891433e+00
6.691446761371e+00
6.684725924766e+00
6.676391699200e+00
6.658971079024e+00
6.630993838993e+00
6.618688580383e+00
6.599574425267e+00
6.568188600335e+00
6.537397201425e+00
6.489605783004e+00
6.487463601415e+00
6.688749645608e+00
5.944140207828e+00
9.430728673182e+00
9.948862253126e+00
9.852137128476e+00
9.877592468796e+00
9.920754755330e+00
9.961159649582e+00
9.982357631881e+00
1.001095380349e+01
1.004117905113e+01
1.006336833552e+01
1.007997330695e+01
1.009513483975e+01
1.011637044492e+01
1.011865599018e+01
1.016795674685e+01
1.025366600005e+01
-2.566429134111e+01
-1.115548931331e+01
-9.075368417362e+00
-1.226325195739e+01
-3.360752337235e+01
-1.422858770556e+01
-1.846589501546e+00
4.628844436506e+00
8.537442320204e+00
1.117403135756e+01
-7.995789743931e+00
2.075514709348e+01
-3.952031921475e+01
-3.412113384459e+01
2.077383248343e+01
-6.274192709885e+00
2.024271810542e+01
2.060124354574e+01
-1.944726239506e+00
2.026153514251e+01
8.171787111157e+00
2.070103323900e+01
-4.157320727388e+01
1.989128403924e+01
1.284311184752e+01
1.672561781088e+01
2.089928736368e+01
1.971651788788e+01
1.961577502307e+01
1.955378741539e+01
1.951993649962e+01
1.958399617732e+01
1.357551081828e+01
1.372344470693e+01
1.390142586492e+01
1.740053905599e+01
2.068857360297e+01
-3.427129541991e+01
-3.970931682974e+01
2.095331938370e+01
1.382845561471e+01
7.507744269078e+00
1.959680902682e+01
2.046289165646e+01
2.006118667321e+01
2.071542997153e+01
2.077565261574e+01
-3.528510972200e+01
1.359919751540e+01
2.078257047768e+01
1.848187918989e+01
-4.000861101932e+01
1.897139765897e+01
1.960319900691e+01
-7.325065359546e+00
-4.087823913409e+00
4.156005205130e+00
1.085559460591e+01
-2.035494774232e+01
1.592789222295e+01
2.066416594642e+01
-4.136593749562e+01
1.928008162768e+01
1.356064883888e+01
1.414359391729e+01
1.471746357747e+01
1.528112330934e+01
1.578027939140e+01
1.619451723038e+01
1.574449942882e+01
1.658746768113e+01
1.619308817043e+01
1.660997596052e+01
1.697206850580e+01
1.662942971423e+01
1.734571369199e+01
1.705491591882e+01
1.628080925551e+01
1.676696818342e+01
1.592507670259e+01
1.648469420536e+01
1.723163088732e+01
1.701219119770e+01
1.621646505841e+01
1.681334457170e+01
1.597226513002e+01
1.664375920261e+01
1.576259729104e+01
1.651040676463e+01
1.724237579926e+01
1.715898033339e+01
1.641795367234e+01
1.726558473259e+01
1.657241302453e+01
1.767997535736e+01
1.817774406905e+01
1.860260257965e+01
1.819554931532e+01
1.905775765494e+01
1.872546393987e+01
1.949916999475e+01
1.920840473762e+01
1.987696874351e+01
2.008679999088e+01
2.038051238650e+01
2.014411499154e+01
2.056525846031e+01
2.075539174650e+01
2.087663036950e+01
2.103003319883e+01
2.110263211952e+01
2.087638449824e+01
2.106836233614e+01
2.126066722109e+01
2.120207297241e+01
2.091309577620e+01
2.103924806211e+01
2.129172975697e+01
2.112544562572e+01
2.076440694498e+01
2.086645858948e+01
2.118317606522e+01
2.093985311364e+01
2.050576934390e+01
2.061029377253e+01
2.099308415498e+01
2.069270939555e+01
2.102800375189e+01
2.018650914073e+01
2.031616691100e+01
1.966324165254e+01
1.985708312943e+01
1.895647610581e+01
1.903728060642e+01
1.872958712858e+01
1.931450199555e+01
2.002882963169e+01
1.830610677064e+01
1.868127237245e+01
1.745524704898e+01
1.831839228233e+01
1.767063195900e+01
1.794998898332e+01
1.646507189506e+01
1.569933380711e+01
1.429977505493e+01
1.624506306348e+01
1.701221126580e+01
1.666496042547e+01
1.738318185553e+01
1.708504908220e+01
1.527792882659e+01
1.763846686920e+01
1.766668115043e+01
1.523180868108e+01
1.549857178713e+01
2.086861752398e+01
1.900262122031e+01
1.837373510038e+01
1.929946753266e+01
2.123403214222e+01
2.123435055193e+01
2.136666091369e+01
2.134126751154e+01
2.141581210281e+01
2.137150324935e+01
2.130655441016e+01
2.131921921996e+01
2.126517530814e+01
2.140037135220e+01
2.145099262595e+01
2.126050197164e+01
2.121856867297e+01
2.119633166765e+01
2.116797623476e+01
2.114997034581e+01
2.111751795610e+01
2.105619376753e+01
2.111258492354e+01
2.093609685390e+01
2.114969023895e+01
2.097283129123e+01
2.115396942541e+01
2.098661104344e+01
2.113289875519e+01
2.127122621143e+01
1.770926784525e+01
2.025192956762e+01
1.976859995348e+01
1.972844378111e+01
1.914143403437e+01
1.883792786085e+01
1.805065687645e+01
1.729369862367e+01
1.815966820022e+01
1.601690613456e+01
1.705859011043e+01
1.416507031496e+01
1.549113795768e+01
1.776931477410e+01
2.076916478509e+01
2.080185985890e+01
2.055171067230e+01
1.311946471248e+01
2.111529909871e+01
2.139669967360e+01
2.144819514662e+01
2.122013258242e+01
1.263078712567e+01
1.611398111550e+01
1.696030306088e+01
1.772729824220e+01
1.745745865731e+01
2.136128955135e+01
1.386795363513e+01
2.127599859852e+01
1.236395097199e+01
2.108182735182e+01
2.106485329897e+01
2.120448818483e+01
2.061370733155e+01
2.033665222539e+01
1.784363771371e+01
1.653263562424e+01
1.351086279345e+01
1.485247701497e+01
1.736266542331e+01
1.586901868157e+01
1.263727208480e+01
1.402711086726e+01
1.671449872988e+01
1.516538254948e+01
1.165211642104e+01
1.324817487246e+01
2.106575837134e+01
9.224256071933e+00
1.534191406486e+01
2.129792904361e+01
2.108583452213e+01
1.804707717985e+01
1.780356679137e+01
1.717548127897e+01
1.755236147767e+01
1.812709477158e+01
1.789594782078e+01
1.728652732692e+01
1.764951889095e+01
1.699685527950e+01
1.738685701489e+01
1.798058080192e+01
1.774207762129e+01
1.710911061539e+01
1.748665000367e+01
1.680568231457e+01
1.720384184529e+01
1.782801772603e+01
1.059353960780e+01
2.133690603624e+01
2.125985760491e+01
1.880376223182e+01
1.955604338056e+01
1.996295881937e+01
2.011394793606e+01
1.756557823301e+01
1.814379283693e+01
1.445518500986e+01
1.542067573648e+01
1.828356502492e+01
2.105012484037e+01
2.103019175995e+01
1.573443771926e+01
1.432774620308e+01
1.470017032377e+01
1.278691015880e+01
1.290954671353e+01
1.337740846099e+01
2.148754599892e+01
1.828586937602e+01
1.478974335834e+01
1.164150730307e+01
2.102483518792e+01
2.138556603695e+01
1.784675699092e+01
1.828608174496e+01
1.835806545892e+01
1.873186882910e+01
1.879768520586e+01
1.912104866629e+01
1.916818539864e+01
2.043428235587e+01
1.951596220381e+01
1.687648423047e+01
2.047210395356e+01
1.740933959454e+01
8.640412003419e+00
8.661601325264e+00
1.211400786749e+01
1.489417345526e+01
2.123707768890e+01
1.917977036978e+01
1.888846114132e+01
1.074835313378e+01
1.115255150004e+01
2.064626649079e+01
1.632298408742e+01
1.656843430247e+01
1.621958822677e+01
7.144151143607e+00
6.160257366541e+00
1.842371049051e+01
1.722612628087e+01
1.567730441588e+01
5.974941735845e+00
8.619638749542e-01
1.788399545310e+01
1.840910362063e+01
2.040331854453e+01
2.051714826003e+01
2.129730833805e+01
1.089084924309e+01
1.862837323048e+01
2.143117713622e+01
2.146177540599e+01
1.972426285679e+01
1.209276461819e+01
1.003485057113e+01
1.847828710983e+01
1.451435499658e+01
1.342937867641e+01
2.115782967996e+01
1.862475193984e+01
1.962432461860e+01
1.933003784685e+01
1.987560536186e+01
4.922720307866e+00
2.116721479262e+01
2.102879867474e+01
1.926011158308e+01
1.899734317867e+01
1.700020777877e+01
1.530778887959e+01
1.346674665383e+01
1.293208465896e+01
1.526158421067e+01
1.638793151334e+01
1.488826235162e+01
1.417539761790e+01
1.358392223563e+01
1.317363328655e+01
1.169011220880e+01
1.911441472984e+01
2.064061261245e+01
2.030652922987e+01
2.106206556594e+01
2.137847176276e+01
1.849236260987e+01
1.876109238947e+01
1.635356206599e+01
1.596665114851e+01
9.072782183106e+00
6.624495854608e+00
2.105045631180e+01
2.122697718898e+01
1.855966040033e+01
1.877244946497e+01
1.851036601288e+01
2.121123818439e+01
2.016479820471e+01
2.128384836708e+01
5.141832699081e+00
1.860954129188e+01
2.354912855139e+00
1.785650152368e+01
2.097427150063e+01
2.094927703697e+01
2.051284552355e+01
1.348262936380e+01
1.926731041813e+01
1.958304166400e+01
1.269849344227e+01
1.189307461069e+01
1.296172458591e+01
1.101688987221e+01
1.888010800145e+01
1.795811336837e+01
1.955182869010e+01
1.981955449193e+01
1.937120151377e+01
1.912100766453e+01
2.065008835810e+01
2.078951590788e+01
1.575554650248e+01
9.057567198565e+00
1.887726337673e+01
1.342859991740e+01
2.107728937429e+01
2.114396034031e+01
-5.408329442553e+00
-5.046886508460e-01
1.886953561135e+01
1.007162439753e+01
9.173702897840e+00
9.878738872780e+00
2.075320612600e+01
1.380836544081e+01
2.087483284578e+01
1.354428356456e+01
1.905636585370e+01
1.979702495145e+01
1.641507069155e+01
2.134153466174e+01
1.863778534516e+01
1.910836706332e+01
1.569622304323e+01
1.523905730600e+01
1.606687435793e+01
9.836186914363e+00
5.303361310265e-01
1.856552817114e+01
1.767636480716e+01
1.830580675488e+01
1.249186203304e+01
1.545097727017e+01
2.066782448845e+01
2.060588321187e+01
1.822730814238e+01
1.839133812965e+01
1.795026577886e+01
2.148641689475e+01
2.148877761939e+01
2.144395044044e+01
1.893992896794e+01
1.921308958293e+01
1.962440977654e+01
1.933226135030e+01
1.919364517235e+01
1.906178021091e+01
2.084882066317e+01
2.091668847208e+01
-1.970053407727e+00
3.312094953290e+00
6.203469373262e+00
2.711849029370e+00
1.897353776201e+01
1.873808487386e+01
1.923263717925e+01
1.431374154506e+01
1.978435231203e+01
2.105476485384e+01
2.113312631156e+01
2.096766533679e+01
2.028979313405e+01
2.042569121785e+01
2.010372781138e+01
-1.259378505873e+01
1.896987378139e+01
1.536964368461e+01
-2.103790957995e+01
1.489430910463e+01
1.554371247014e+01
1.427692307910e+01
1.133670051998e+01
1.490962683028e+01
1.552748814207e+01
-1.149744813861e+01
1.928659737274e+01
-9.177259628735e+00
-3.151571871915e+00
2.098084515141e+01
2.105399013400e+01
2.090334484281e+01
2.096632438781e+01
2.109878143603e+01
2.101567022327e+01
1.471815547255e+01
2.084809493858e+01
2.091852336986e+01
2.079710219237e+01
9.631308846205e+00
1.176504298330e+01
7.641956504886e+00
1.611713697843e+00
1.954562888792e+01
1.924825828493e+01
2.099350452154e+01
2.101259839780e+01
1.500407224861e+01
1.496470195112e+01
1.590552583355e+01
1.580150873301e+01
1.659508286713e+01
1.648324350200e+01
1.717254850756e+01
2.009041044187e+01
4.590396168387e+00
1.178228995628e+01
2.075898049065e+01
2.089453810053e+01
1.001659586137e+01
6.687092481700e+00
2.098074612319e+01
1.778760849930e+01
1.951455172321e+01
-3.461896909157e+01
-1.661435480752e+01
1.713419075775e+01
1.232059701562e+01
1.069998863232e+01
7.639251876800e+00
2.143842930272e+01
-5.374605176087e-01
8.632132966141e+00
1.723137245188e+01
7.734021792838e-01
2.099145085749e+01
1.881678968540e+01
1.464289126072e+01
1.323795890842e+01
1.448855596885e+01
1.577803593418e+01
1.473337367683e+01
1.412048074543e+01
1.957633133951e+01
8.138667239922e+00
2.399396333937e+00
1.557130640519e+01
1.823585901918e+01
1.848330668016e+01
1.894627714533e+01
1.872275175630e+01
1.821733192563e+01
1.847826554865e+01
1.895972156593e+01
1.874447181447e+01
1.926745531259e+01
1.900076930872e+01
1.851477123335e+01
1.878381585439e+01
1.920208380179e+01
1.827996912198e+01
2.064680237005e+01
1.771299850082e+01
-4.740012303608e+00
-7.941042849243e+00
1.491672034748e+01
1.968006663791e+01
1.962150089611e+01
1.833815144088e+01
1.995914008789e+01
1.473702723372e+01
1.460191242134e+01
2.015142059988e+01
1.794299577216e+01
1.763139409735e+01
1.732391220496e+01
1.960086768091e+01
1.643772622226e+01
2.052230559922e+01
2.071669440179e+01
2.036972304219e+01
2.024492905237e+01
1.822475411965e+01
2.074738677822e+01
2.088676893067e+01
2.090807298089e+01
2.103796794102e+01
2.077442557803e+01
1.979498179232e+01
1.985692891839e+01
1.797793021927e+01
1.896533516610e+01
1.998007440313e+01
1.968676426942e+01
1.847800582894e+01
1.930009071083e+01
2.018946170671e+01
1.880304994703e+01
1.885136883499e+01
2.077893448558e+01
2.144950593373e+01
2.146644337979e+01
2.137272476144e+01
2.017995069848e+01
2.052596207150e+01
2.085749622557e+01
1.977683460708e+01
1.878108006830e+01
2.077037532056e+01
2.139637524659e+01
2.042868811421e+01
1.359078427161e+01
1.470831375937e+01
1.470057562738e+01
1.568528492351e+01
1.483345186699e+01
2.073070527517e+01
2.078687129958e+01
2.061002598977e+01
2.082715897678e+01
2.067113630916e+01
2.039823334107e+01
2.085032408459e+01
2.072785018287e+01
1.364137408521e+01
-3.408176223601e+01
-1.381745482856e+01
-1.410837485051e+01
-1.568922402976e+00
-9.174011799291e-01
6.767343900850e+00
6.008732799478e+00
-1.416292530905e+01
-3.682322361640e+01
-1.409335165227e+01
-3.831304864040e+01
-1.437730850468e+01
-2.529787853780e-01
9.894805155103e+00
2.070894892551e+01
1.968010804090e+01
1.941392057427e+01
1.858476342591e+01
1.908425758104e+01
1.995613389598e+01
1.802417350863e+01
1.760749305520e+01
-3.969496677596e+01
-1.241955029308e+01
-1.426176469131e+01
3.447359731452e-01
6.666337858328e-02
-1.237093177495e+01
-1.251446334325e+01
-4.010128353190e+01
-1.295038655290e+01
2.426024536054e-01
-4.126941314180e+01
1.798989786637e+01
1.827814368944e+01
2.077384368264e+01
1.386629539409e+01
-3.984878191633e+01
1.949498260919e+01
1.954729051181e+01
1.955148985656e+01
2.087455837536e+01
2.081951139925e+01
1.951041909446e+01
1.686939101592e+01
1.914861007079e+01
1.882219956429e+01
1.268070718826e+01
1.683402811581e+01
2.101959560265e+01
2.117934395946e+01
2.101190688570e+01
2.104668495895e+01
2.112977329031e+01
2.096226719291e+01
9.957135946397e+00
1.668416697117e+01
1.646082381233e+01
1.806518726717e+01
1.712104361918e+01
2.027967675012e+01
1.111590453973e+01
1.978076891486e+01
1.442967147785e+01
2.121839052729e+01
1.955732630638e+01
1.786973817758e+01
1.610639911528e+01
1.710052610126e+01
2.076044501356e+01
2.134181222528e+01
1.836204499962e+01
-3.594610749161e+01
2.133348294557e+01
2.122345959936e+01
1.688564230451e+01
2.097906089808e+01
9.828265463860e+00
1.820789393286e+01
1.900326007313e+01
1.594002346129e+01
5.853046364413e+00
1.583212633661e+01
2.107038888716e+01
1.798527399302e+01
1.609673324744e+01
2.122628053257e+01
1.560199275077e+01
1.189436411473e+01
1.899892278404e+01
1.933724389897e+01
2.114552726917e+01
2.129505308919e+01
1.680522488950e+01
2.118661587803e+01
2.053514133472e+01
1.869306201186e+01
1.845455100783e+01
2.061093679556e+01
1.834538385250e+01
2.134531857241e+01
2.081384458279e+01
1.397681385920e+01
1.735718863086e+01
1.746450658896e+01
1.784572811709e+01
2.096989816894e+01
2.126470334816e+01
1.171291967755e+01
1.557164897242e+01
1.676807856435e+01
1.948550564006e+01
1.911356157090e+01
1.444598132552e+01
2.120193498895e+01
1.881690740520e+01
2.081485379398e+01
1.232418110137e+01
6.968581732017e+00
1.941766089666e+01
1.972669973155e+01
2.106222134534e+01
1.922703056109e+01
2.112254841009e+01
2.140918604864e+01
-1.268436038653e+01
1.267465639224e+01
2.104599436558e+01
2.136030147590e+01
2.094671094111e+01
2.047086772107e+01
1.990753478852e+01
8.251993219898e+00
2.098625383295e+01
2.136305952736e+01
1.822558329275e+01
1.384178748708e+01
2.084015148639e+01
2.125574042408e+01
1.834280189513e+01
2.136570062935e+01
9.605763674472e+00
2.106504448712e+01
1.750144058006e+01
1.959497555939e+01
2.115224908841e+01
1.695834395238e+01
2.088746057179e+01
2.022048295231e+01
-4.639258195119e-02
1.077847479233e+01
2.091382361255e+01
1.985580787587e+01
2.143036764177e+01
2.057111736340e+01
2.093600396687e+01
2.049217575969e+01
2.095119641802e+01
6.342778566825e+00
1.730584385058e+01
2.095297497414e+01
1.807830471796e+01
7.891852261160e-01
1.899007605089e+01
2.092144089026e+01
1.944695586934e+01
2.146243242171e+01
1.793433545993e+01
1.366572443482e+00
2.150147138207e+01
1.857166681624e+01
1.954167546406e+01
1.991821368366e+01
2.148142310279e+01
5.046256118298e+00
1.619710173605e+01
1.373898362588e+01
2.073596663009e+01
1.870570423213e+01
6.883060453560e+00
1.796553766577e+01
7.652367446985e+00
2.044022860894e+01
2.014529977074e+01
1.674319269623e+01
2.062723244201e+01
1.495615983730e+01
2.020181097996e+01
2.008046528823e+01
2.037457764588e+01
1.985334103908e+01
1.922386473957e+01
2.003535290970e+01
1.955506943926e+01
2.068489727740e+01
1.486035673385e+01
-7.295690195169e+00
-3.191883380024e+01
3.328466469871e+00
1.838390848458e+01
1.805803173074e+01
1.489842436996e+01
1.739168772088e+01
1.941995765280e+01
2.036892891931e+01
1.770856565041e+01
2.101328097587e+01
1.998671775282e+01
1.889051319006e+01
1.368417356386e+01
-1.422946830076e+01
2.098146401832e+01
-1.392880135793e+01
4.456794913150e+00
3.272190786435e+00
1.735204000681e+01
-1.666771407272e+00
-4.039784975385e+00
2.083738345313e+01
1.474874738611e+01
1.998892453545e+01
-5.509344612039e+00
1.923046542780e+01
2.037769787018e+01
2.073782818555e+01
2.018418465282e+01
-3.181532657147e+00
1.552999286669e+01
1.970010036167e+01
1.813312737971e+01
2.068576214111e+01
1.453168468245e+01
1.927842717487e+01
8.724649036993e+00
1.928678080339e+01
1.857745144878e+01
1.610553261824e+01
1.545146090062e+01
2.075716801043e+01
1.934024790688e+01
-9.128581070175e+00
1.766129482447e+01
1.917442476916e+01
-1.765911582871e+01
2.092996048097e+01
1.901723273949e+01
2.081016634468e+01
1.308674761496e-01
-1.549122783725e+01
2.093347069140e+01
1.957002316493e+01
1.106578817862e+01
1.962154063397e+01
-2.057239345634e+01
1.346526153014e+01
-1.477158065560e+01
2.067275316506e+01
1.928338431925e+01
1.969928973805e+01
1.358908264886e+01
1.627716989158e+01
1.977756912770e+01
-3.213008649806e+00
1.932712531055e+01
2.093223000558e+01
1.933504300799e+01
2.066326789240e+01
-1.978874843200e+01
2.030351779995e+01
2.105652894657e+01
1.370619458754e+01
1.930803589754e+01
1.826478995760e+01
6.382868024100e+00
1.959025628323e+01
-4.580245186568e+01
1.367467385322e+01
2.064744346129e+01
5.509731792462e+00
1.564898045421e+01
1.952902366361e+01
2.056728649335e+01
1.864198324025e+01
4.494815891062e+00
-3.486417246150e+01
1.712054244117e+01
2.052981849512e+01
1.934247912727e+01
1.658185723098e+01
-4.530721995004e-01
1.933307091652e+01
2.003954943193e+01
1.953709366073e+01
2.095422981056e+01
-3.087235460142e+01
2.077722530085e+01
-1.639296372028e+01
2.084550514176e+01
2.025550795987e+01
-1.225113756163e+01
-4.968801198356e+01
-1.800863820152e+01
-1.829704647623e+01
-3.309615483018e+00
-2.344320823836e+00
3.908903854247e+00
4.485258280310e+00
8.095110808244e+00
8.889004943126e+00
1.087469809697e+01
1.143471578939e+01

SCALARS node_materi_stress_average_a_sig float
LOOKUP_TABLE default
-5.381948536967e+00
-7.515187648326e+01
-2.357811053223e+02
-1.897345665934e+02
-1.259325834362e+01
-2.409499305512e+01
-3.493420145670e+01
-4.737928778279e+01
-5.925512384952e+01
-7.109148009905e+01
-8.289875974875e+01
-9.469673352268e+01
-1.065551322830e+02
-1.185283005017e+02
-1.308302082047e+02
-1.429599931912e+02
-1.540914268634e+02
-1.662584688524e+02
-1.788573648129e+02
-1.911560774448e+02
-2.035985212652e+02
-2.162106381155e+02
-2.283167270215e+02
-1.904119296709e+02
-1.897304833484e+02
-1.899257949753e+02
-1.899392689097e+02
-1.896440853311e+02
-1.901354424048e+02
-1.904990548588e+02
-1.903900191908e+02
-1.911050406070e+02
-1.913038804190e+02
-1.912907787698e+02
-1.920300669970e+02
-1.929242422210e+02
-1.931828608811e+02
-1.938109893582e+02
-1.941134827171e+02
-1.950141236996e+02
-1.967416193873e+02
-1.982165448322e+02
-1.998298912029e+02
-2.013156404555e+02
-2.030163062503e+02
-2.047796775461e+02
-2.066869958197e+02
-2.088527903367e+02
-2.111222229541e+02
-2.131970217654e+02
-2.154083635280e+02
-2.172695065696e+02
-2.197062509274e+02
-2.214010993814e+02
-2.226165319581e+02
-2.243882830808e+02
-2.261169711476e+02
-2.276428176669e+02
-2.289743033533e+02
-2.302218016696e+02
-2.310731132964e+02
-2.318361293904e+02
-2.323496685356e+02
-2.332827241786e+02
-2.344682858893e+02
-2.351094737811e+02
-2.338943164627e+02
-2.356287337722e+02
-2.353187745148e+02
-2.358737880337e+02
-2.364114387281e+02
-2.364104212903e+02
-8.749144713816e+01
-9.955414435580e+01
-1.115667966910e+02
-1.232901253287e+02
-1.352415095314e+02
-1.473098211459e+02
-1.590987156334e+02
-1.707743716121e+02
-1.828326047588e+02
-8.901647476731e+00
-7.790616296339e+01
-1.298775782412e+01
-1.474360233282e+01
-1.454502313361e+01
-1.153849332003e+01
-1.556973106886e+01
-2.846636527981e+01
-4.091747938391e+01
-5.320713233305e+01
-6.533345831155e+01
-7.149200887782e+00
-1.443157512410e+01
-2.647079082281e+01
-3.857371861741e+01
-5.068006711600e+01
-6.273852150044e+01
-7.364315304954e+01
-7.444215778507e+01
-7.446747355462e+01
-7.438456915167e+01
-7.612080246425e+01
-7.471817687847e+01
-7.475622452876e+01
-7.495603658491e+01
-7.532544782818e+01
-7.544045152659e+01
-7.565770621457e+01
-7.585257606701e+01
-7.625192543256e+01
-7.681472253561e+01
-9.281403535260e+00
-1.038390102668e+01
-1.027923253560e+01
-9.861577849647e+00
-9.703135978523e+00
-9.387558359557e+00
-8.839401836400e+00
-8.287433528113e+00
-7.791131113624e+00
-7.368800782209e+00
-6.990005280110e+00
-6.995535324000e+00
-6.435843090094e+00
-5.692454084887e+00
-5.473480550185e+00
-5.394751623436e+00
-5.236767358814e+00
-4.915847657716e+00
-4.577133774177e+00
-8.100076342747e+00
-8.102804271435e+00
-8.055135268733e+00
-8.026279656904e+00
-7.969735294733e+00
-7.888931413456e+00
-7.786326136511e+00
-7.663015205786e+00
-7.518552077412e+00
-7.352159449671e+00
-7.163250434574e+00
-6.951629656595e+00
-6.718497104378e+00
-6.463957243267e+00
-6.195364114461e+00
-5.917301042492e+00
-5.657633071471e+00
-5.416878169703e+00
-5.283858153091e+00
-5.243454859035e+00
-5.602901049634e+00
-5.871443139986e+00
-4.484653127534e+00
-1.267523441589e+01
-1.442386764008e+01
-1.315688347380e+01
-1.285619225674e+01
-1.281726345863e+01
-1.282722715249e+01
-1.292588845191e+01
-1.304433399910e+01
-1.318513045545e+01
-1.332663228009e+01
-1.346660587703e+01
-1.359858338292e+01
-1.372042583252e+01
-1.383015553741e+01
-1.392670202629e+01
-1.401000794208e+01
-1.407969876648e+01
-1.413537499642e+01
-1.417760685603e+01
-1.420803012217e+01
-1.424224033599e+01
-1.438593346929e+01
-2.644713881850e+01
-2.639127498272e+01
-2.636806763910e+01
-2.634889414952e+01
-2.632640178191e+01
-2.629785679403e+01
-2.626254345959e+01
-2.622148112614e+01
-2.617826399363e+01
-2.613262974852e+01
-2.608926138036e+01
-2.605227866118e+01
-2.602573949804e+01
-2.602972701888e+01
-2.605966416068e+01
-2.616302018238e+01
-2.630130653015e+01
-2.664883703983e+01
-2.784348562572e+01
-2.612411716492e+01
-3.893668071137e+01
-4.068252197711e+01
-3.956925854877e+01
-3.917409980281e+01
-3.898463498448e+01
-3.880592375232e+01
-3.871298396308e+01
-3.864450988688e+01
-3.859623189134e+01
-3.856773477845e+01
-3.855387490769e+01
-3.854462540132e+01
-3.854146098838e+01
-3.853642746639e+01
-3.853481170678e+01
-3.853303348882e+01
-3.854075374168e+01
-3.855755210455e+01
-3.857195709688e+01
-5.068510945078e+01
-5.068160531534e+01
-5.068737452570e+01
-5.070826203197e+01
-5.073832347382e+01
-5.076994729934e+01
-5.081881931348e+01
-5.086068055358e+01
-5.091530443350e+01
-5.100191159151e+01
-5.111363423873e+01
-5.125285704244e+01
-5.142713440342e+01
-5.162162434765e+01
-5.201654292536e+01
-5.315302951982e+01
-5.143037478348e+01
-6.360737365999e+01
-6.523776793701e+01
-6.421879361903e+01
-6.393180097456e+01
-6.370758153758e+01
-6.352529954316e+01
-6.333452792824e+01
-6.320408295381e+01
-6.317778282950e+01
-6.305499570959e+01
-6.298096576870e+01
-6.292749945993e+01
-6.288202326958e+01
-6.281783776693e+01
-6.285990890673e+01
-6.284905157435e+01
-1.058385251313e+01
-1.424500536972e+01
-1.469731029507e+01
-1.446467714920e+01
-1.187507257203e+01
-2.361065136159e+01
-3.610915756668e+01
-4.845948828616e+01
-6.063246269013e+01
-7.272543510052e+01
-1.775844206915e+01
-2.198013762977e+02
-1.233570447002e+01
-1.376028905504e+01
-2.258967403972e+02
-2.000106594326e+01
-1.251176719666e+02
-2.123814364398e+02
-3.542771972507e+01
-2.049810700619e+02
-5.949315821054e+01
-2.296469594428e+02
-1.073938437559e+01
-1.974849338526e+02
-8.343522544474e+01
-7.755171080834e+01
-1.582164050576e+02
-1.926795599349e+02
-1.889764842689e+02
-1.853442760938e+02
-1.850078905703e+02
-1.873901072150e+02
-8.789762019837e+01
-8.659099744653e+01
-8.692293180115e+01
-1.293731581867e+02
-2.300203545123e+02
-1.335560212070e+01
-1.067850232862e+01
-1.969190327488e+02
-8.514457057988e+01
-4.110179608912e+01
-1.885944014826e+02
-2.095238910701e+02
-2.010057436960e+02
-2.153006865491e+02
-2.229973326680e+02
-1.365178884759e+01
-8.672905776024e+01
-2.256547759497e+02
-1.528715490628e+02
-1.181668722585e+01
-1.006710403217e+02
-1.868419887413e+02
-2.654774602376e+01
-1.898354343934e+01
-4.737101382771e+01
-7.136852301896e+01
-1.413913941262e+01
-1.065761234876e+02
-2.324613610301e+02
-1.001695021226e+01
-1.761146832175e+02
-8.906007947137e+01
-9.461106573067e+01
-9.996404459943e+01
-1.064839973909e+02
-1.123743750246e+02
-1.182716830387e+02
-1.125314719956e+02
-1.243419418462e+02
-1.185934793140e+02
-1.243092856914e+02
-1.304511609613e+02
-1.247607485224e+02
-1.366229799224e+02
-1.310249565608e+02
-1.191764923636e+02
-1.255211126341e+02
-1.136404205338e+02
-1.200925135073e+02
-1.319524631901e+02
-1.266207208021e+02
-1.147058010853e+02
-1.213329984229e+02
-1.094132735432e+02
-1.161573785421e+02
-1.042089213799e+02
-1.110823088460e+02
-1.229367208670e+02
-1.179316617525e+02
-1.061249093375e+02
-1.130349038672e+02
-1.013099503520e+02
-1.082393769105e+02
-1.198802693076e+02
-1.150873774982e+02
-1.035161557343e+02
-1.103558393592e+02
-9.887732087254e+01
-1.056986707701e+02
-9.432205532911e+01
-1.010444338561e+02
-1.123650202854e+02
-1.076228599094e+02
-9.640369029498e+01
-1.028290345245e+02
-1.140867476460e+02
-1.091317503764e+02
-1.204447230292e+02
-1.153420184965e+02
-1.041682723686e+02
-1.102069776285e+02
-1.214618319260e+02
-1.161497300084e+02
-1.050121539160e+02
-1.108084617778e+02
-1.220556508413e+02
-1.165603812436e+02
-1.053941711349e+02
-1.110078411951e+02
-1.223428413069e+02
-1.166065802186e+02
-1.053414945336e+02
-1.107911612968e+02
-1.222409836865e+02
-1.162550431962e+02
-1.278647489368e+02
-1.047930347084e+02
-1.101544840082e+02
-9.864924144049e+01
-1.039687112745e+02
-1.266644541776e+02
-9.243131085185e+01
-8.733581139581e+01
-9.771146101896e+01
-1.093796858490e+02
-8.612602183181e+01
-9.138008724898e+01
-7.975842259516e+01
-8.722277691448e+01
-1.384659846703e+02
-8.498575713560e+01
-7.331935109845e+01
-6.817087947020e+01
-6.171601298901e+01
-1.184702963778e+02
-1.302673591852e+02
-1.240804783913e+02
-1.362148606730e+02
-1.303278008279e+02
-6.681778281777e+01
-1.423910935677e+02
-1.421458890683e+02
-1.027317760479e+02
-9.427411787768e+01
-1.255160844046e+02
-9.667025396758e+01
-9.025829446929e+01
-1.019805077357e+02
-1.338839953361e+02
-1.396087912281e+02
-1.456709081387e+02
-1.514703509089e+02
-1.575830624154e+02
-1.634441348653e+02
-1.572288464377e+02
-1.692608435503e+02
-1.629511552271e+02
-1.696079891536e+02
-1.636152937320e+02
-1.750335547235e+02
-1.686364078757e+02
-1.807694931765e+02
-1.742878911465e+02
-1.621746666076e+02
-1.677396045540e+02
-1.557033399102e+02
-1.319235028557e+02
-1.371018367487e+02
-1.435525689778e+02
-1.488227147115e+02
-1.553222918915e+02
-1.606578133420e+02
-1.671917511171e+02
-1.617605978807e+02
-1.428309088740e+02
-9.175206302861e+01
-8.535548272020e+01
-8.088627937925e+01
-7.454292125033e+01
-7.026453919330e+01
-6.401136740017e+01
-5.989986949110e+01
-6.587969219848e+01
-5.563898671148e+01
-6.133979252346e+01
-5.116672578286e+01
-5.656513821221e+01
-1.297123411774e+02
-1.540500410640e+02
-1.659654871754e+02
-1.591994561055e+02
-5.662908669739e+01
-1.799130887947e+02
-1.757092401527e+02
-1.695534238221e+02
-1.737059706461e+02
-5.528538286906e+01
-5.383153351920e+01
-5.752468118720e+01
-1.422206337451e+02
-1.363919437398e+02
-1.817633726274e+02
-6.036470705515e+01
-1.813874784746e+02
-4.573863810063e+01
-1.732883710123e+02
-1.854952087910e+02
-1.509786637647e+02
-1.712353274759e+02
-1.643007192380e+02
-6.701028672600e+01
-6.198428957927e+01
-5.174924613266e+01
-5.725341195497e+01
-6.749566966929e+01
-6.206808607185e+01
-5.162384396311e+01
-5.644136827361e+01
-6.719528571672e+01
-6.140238141477e+01
-5.055921537222e+01
-5.537091109453e+01
-1.921223787720e+02
-4.133786090890e+01
-1.072731177181e+02
-1.878966656033e+02
-1.790530635251e+02
-1.482865952054e+02
-1.425250706190e+02
-1.305520254110e+02
-1.368018507258e+02
-1.487338638855e+02
-1.430662162959e+02
-1.310945022293e+02
-1.374092613480e+02
-1.254091489437e+02
-1.317766712470e+02
-1.437501417076e+02
-1.381804407343e+02
-1.261802262431e+02
-1.326180404355e+02
-1.205826662096e+02
-1.270330151505e+02
-1.390869427978e+02
-4.917336942131e+01
-1.681579050481e+02
-1.802561960242e+02
-9.583365351223e+01
-1.071490637211e+02
-1.137297438625e+02
-1.191949952262e+02
-1.334678585232e+02
-1.455344990617e+02
-4.754924919074e+01
-5.078322658622e+01
-1.540758777302e+02
-1.788347000305e+02
-1.666771475120e+02
-8.956710230974e+01
-8.233075324097e+01
-7.774530934608e+01
-7.005451203518e+01
-7.493687301698e+01
-6.558023192478e+01
-1.574558491055e+02
-1.501385665136e+02
-6.309960337143e+01
-5.168680656198e+01
-1.910592630949e+02
-1.562331284406e+02
-1.347560669300e+02
-1.415041592257e+02
-1.465979304106e+02
-1.533378100600e+02
-1.584477917987e+02
-1.651400286340e+02
-1.601112719654e+02
-1.764403209272e+02
-1.719192718518e+02
-1.213107328482e+02
-1.472454285696e+02
-7.239504734791e+01
-4.389141891262e+01
-4.410004679983e+01
-5.369555814956e+01
-6.543710857628e+01
-1.940442108579e+02
-1.702358417643e+02
-1.634778449908e+02
-6.245531653267e+01
-6.759240418322e+01
-1.833236704758e+02
-1.183641839839e+02
-1.191036305090e+02
-1.133275479575e+02
-4.113197392899e+01
-3.990977306880e+01
-1.549875345016e+02
-6.108735154021e+01
-5.399908963133e+01
-3.610463853547e+01
-3.173589358732e+01
-1.398291824067e+02
-1.518101184647e+02
-1.256281648832e+02
-1.310485586903e+02
-1.877995778062e+02
-4.921870860470e+01
-1.575578933970e+02
-1.625333452182e+02
-1.506493173743e+02
-1.125579136580e+02
-4.103107908188e+01
-3.810155832473e+01
-7.811033925368e+01
-6.038949620104e+01
-5.877861762236e+01
-2.000829189302e+02
-1.605646423351e+02
-1.669330058129e+02
-1.550126293737e+02
-1.788989514077e+02
-3.825723910968e+01
-2.003487402537e+02
-1.843759531466e+02
-1.747401640441e+02
-1.685423251743e+02
-6.464881503242e+01
-5.744631640587e+01
-4.660531537280e+01
-4.973985507432e+01
-1.067081689917e+02
-6.856953735237e+01
-1.016599528123e+02
-9.528760052973e+01
-8.965906110652e+01
-7.994526958372e+01
-7.292216580754e+01
-7.871484878559e+01
-1.305328674908e+02
-1.202100400215e+02
-1.502068936627e+02
-1.398070498495e+02
-1.556063565331e+02
-1.620403955036e+02
-1.141296652350e+02
-1.085179043722e+02
-4.514365630609e+01
-4.028449495132e+01
-1.334894419345e+02
-1.939231174973e+02
-1.599731591418e+02
-1.657358235347e+02
-1.598377226518e+02
-1.936105197156e+02
-8.708388216118e+01
-1.382376636774e+02
-3.669626783373e+01
-1.315322834207e+02
-3.380699671325e+01
-1.437207161946e+02
-1.966914990717e+02
-2.033014564569e+02
-1.884219631266e+02
-8.903897495543e+01
-1.382846328520e+02
-1.334107413137e+02
-8.333280022388e+01
-7.763601635983e+01
-8.405976008130e+01
-7.196389581871e+01
-8.336694496117e+01
-7.749606026341e+01
-1.828471008694e+02
-1.836040350322e+02
-1.799397816119e+02
-1.740472612670e+02
-1.953904051095e+02
-1.900195145266e+02
-7.017312893367e+01
-6.051081996593e+01
-1.668343076820e+02
-8.902521410941e+01
-2.061246577087e+02
-1.999394508292e+02
-2.716449780965e+01
-3.144907989527e+01
-1.639460024613e+02
-3.871341145963e+01
-4.122877245046e+01
-3.639724421981e+01
-2.220928603128e+02
-8.480805762274e+01
-2.090826244788e+02
-8.524846108167e+01
-1.697587133141e+02
-1.451217027315e+02
-8.481835271286e+01
-1.813950497651e+02
-1.575371929494e+02
-1.705510047515e+02
-1.070328471012e+02
-1.008677551296e+02
-1.124699199847e+02
-4.015758016222e+01
-2.988261809692e+01
-1.564833667350e+02
-8.378790768689e+01
-9.016851751536e+01
-5.383976561903e+01
-6.505921370145e+01
-1.320384033457e+02
-1.265912006343e+02
-1.502766529116e+02
-1.555057563999e+02
-1.398665859227e+02
-1.568704714035e+02
-1.450419953555e+02
-1.389772020180e+02
-1.671448044741e+02
-1.749127023389e+02
-8.900804031133e+01
-8.361566279717e+01
-8.846698716653e+01
-1.723656095823e+02
-2.154761289009e+02
-2.098400371840e+02
-2.917297640407e+01
-3.535956243239e+01
-3.198496552900e+01
-2.957696673060e+01
-1.711969122785e+02
-1.657845881960e+02
-1.781358298852e+02
-6.279748132915e+01
-1.619357854418e+02
-2.053875844489e+02
-1.988763328095e+02
-2.134473090306e+02
-1.813627853561e+02
-1.930127967854e+02
-1.906131797303e+02
-2.264496385828e+01
-1.663728579596e+02
-1.014564701794e+02
-1.949678512125e+01
-9.593249552547e+01
-1.027811583825e+02
-8.962634261874e+01
-5.128716709810e+01
-9.852219979614e+01
-1.061436750267e+02
-2.263819072012e+01
-1.783049341566e+02
-2.306956363582e+01
-2.764504496596e+01
-2.122759453552e+02
-2.058154550176e+02
-2.177523424213e+02
-2.112127369048e+02
-1.993383745473e+02
-2.053094701351e+02
-9.470521901483e+01
-2.189062785075e+02
-2.114245294381e+02
-2.249703502792e+02
-6.569647786700e+01
-5.315426373094e+01
-4.471297249757e+01
-3.157648955267e+01
-1.869748189850e+02
-1.784899500653e+02
-1.902928090902e+02
-1.779487606033e+02
-9.638517208608e+01
-9.568514062833e+01
-1.066490394477e+02
-1.051169206440e+02
-1.161079925864e+02
-1.144379234917e+02
-1.256367994233e+02
-1.955009079855e+02
-2.834432100436e+01
-7.722034597105e+01
-2.020175572938e+02
-1.957360482158e+02
-6.606868514969e+01
-5.378755431089e+01
-2.141736239547e+02
-7.569006868538e+01
-1.853114197227e+02
-1.226119352874e+01
-2.030001232357e+01
-8.000049209684e+01
-7.849168363464e+01
-5.735667163005e+01
-5.007234775311e+01
-1.689910940036e+02
-3.112677761823e+01
-3.430949443962e+01
-1.270910681049e+02
-2.552959123860e+01
-1.844892808806e+02
-8.291970263720e+01
-9.214373782876e+01
-4.378799895044e+01
-6.139897253305e+01
-1.128908122473e+02
-1.006620347184e+02
-9.489109734320e+01
-8.980521073369e+01
-5.497198790006e+01
-4.074618789024e+01
-1.081360968131e+02
-1.539859125504e+02
-1.598720013486e+02
-1.712288412824e+02
-1.658330223636e+02
-1.541691878917e+02
-1.602143435922e+02
-1.717621323419e+02
-1.667050869729e+02
-1.801931182808e+02
-1.727937249481e+02
-1.606749165475e+02
-1.665792795198e+02
-1.778086042562e+02
-1.547617180123e+02
-2.071970395837e+02
-9.179187336137e+01
-2.692440242473e+01
-2.345823282846e+01
-9.739575552571e+01
-1.911127603485e+02
-1.894320042021e+02
-6.793877074212e+01
-1.990703179552e+02
-1.009872573465e+02
-4.988440749874e+01
-2.029770692726e+02
-1.481318622819e+02
-1.421920482741e+02
-1.361944573473e+02
-1.886804333436e+02
-1.183771008143e+02
-2.112886932085e+02
-1.422290008551e+02
-1.354480923791e+02
-1.238150981182e+02
-1.544369433861e+02
-2.180711568934e+02
-2.088525729882e+02
-2.103165397406e+02
-1.985939840648e+02
-2.213220086784e+02
-1.947867727614e+02
-1.965094903861e+02
-7.278656997783e+01
-7.819613205148e+01
-8.896660612571e+01
-8.336065506253e+01
-7.262498844737e+01
-7.762654854716e+01
-8.833589611758e+01
-7.177510060882e+01
-1.672677077901e+02
-2.242929948221e+02
-1.516387362781e+02
-1.455546171854e+02
-1.338639305855e+02
-1.148125261971e+02
-1.211182446969e+02
-1.328967598518e+02
-1.084246814183e+02
-1.482482195651e+02
-2.252703234596e+02
-1.444730005586e+02
-1.156155455818e+02
-8.731564416314e+01
-9.829529463006e+01
-9.900612948788e+01
-1.103922380419e+02
-9.898729872377e+01
-1.374681124178e+02
-1.428714567968e+02
-1.364574928137e+02
-1.482577593111e+02
-1.415435336456e+02
-1.306335692120e+02
-1.534173866394e+02
-1.458184231523e+02
-8.657087875730e+01
-1.399369433190e+01
-2.240355689083e+01
-2.208662653297e+01
-3.062560585416e+01
-3.110774991480e+01
-4.043516291444e+01
-3.886719787909e+01
-2.246843416392e+01
-1.318349329869e+01
-2.183157315165e+01
-1.269765160176e+01
-2.136140885115e+01
-3.187914900843e+01
-4.701243124957e+01
-2.286723095021e+02
-1.124265703951e+02
-1.066326331313e+02
-9.529072114338e+01
-1.013567685078e+02
-1.170697233035e+02
-8.904015576814e+01
-8.482303244672e+01
-1.053581910614e+01
-2.022082985349e+01
-1.921449072702e+01
-3.010749845489e+01
-3.003562673998e+01
-2.053657489636e+01
-2.061149038837e+01
-1.074630700339e+01
-2.064296244567e+01
-3.062464398121e+01
-1.062245939341e+01
-1.414014161777e+02
-1.478802197884e+02
-2.263657315386e+02
-8.743227809595e+01
-1.213538205954e+01
-1.833456201318e+02
-1.857811571234e+02
-1.858120246322e+02
-2.095781968379e+02
-2.157268342656e+02
-1.834997582608e+02
-7.456651347081e+01
-1.772139643216e+02
-1.628811629093e+02
-4.414433794648e+01
-7.144020199025e+01
-1.722088241353e+02
-1.566035910638e+02
-1.976751226512e+02
-1.611980987610e+02
-1.864735778768e+02
-2.110271522526e+02
-4.743217583852e+01
-1.197143789928e+02
-1.149815308599e+02
-1.446063060616e+02
-7.848354355390e+01
-1.250395548592e+02
-5.017551121173e+01
-1.926149288159e+02
-9.612820799384e+01
-1.281197967075e+02
-1.030641296481e+02
-8.098230124207e+01
-6.647554537910e+01
-9.656431098480e+01
-1.217738256436e+02
-1.755208960369e+02
-1.510382289608e+02
-1.261123436798e+01
-1.817343364830e+02
-1.453061010795e+02
-1.247852555705e+02
-1.725732948699e+02
-4.620473567028e+01
-1.493527279028e+02
-1.710912617869e+02
-1.120932068148e+02
-3.873263424705e+01
-1.074080020372e+02
-2.063600755091e+02
-1.480782466490e+02
-7.198838386900e+01
-1.267100335858e+02
-9.915156978702e+01
-7.738719882428e+01
-1.679858036755e+02
-1.218377812787e+02
-1.857509952139e+02
-1.499258510512e+02
-7.725513721835e+01
-1.936015481932e+02
-1.189960185435e+02
-1.612367361764e+02
-1.517186344766e+02
-9.801172795450e+01
-1.543394239556e+02
-1.279288777253e+02
-1.779663823480e+02
-9.066914092760e+01
-1.280195861326e+02
-1.373203376113e+02
-1.247512208877e+02
-1.656435611978e+02
-1.876962249810e+02
-4.647283912371e+01
-7.313061362890e+01
-1.243615003211e+02
-1.766085450401e+02
-1.729585422098e+02
-8.712859884239e+01
-1.871889886412e+02
-1.658126046219e+02
-1.273341444011e+02
-5.424526126622e+01
-3.515049053053e+01
-7.636971421210e+01
-1.170835302364e+02
-1.391171390570e+02
-1.784541246655e+02
-1.929525683982e+02
-1.754835075400e+02
-1.640048114131e+01
-8.310661469480e+01
-1.987186675089e+02
-1.328852838802e+02
-1.843906452495e+02
-1.345295527617e+02
-1.942331515646e+02
-5.973904503783e+01
-2.046002437639e+02
-1.747271386417e+02
-7.178760582152e+01
-8.521862884565e+01
-2.186985077936e+02
-1.870248301252e+02
-1.364762601375e+02
-1.274886514143e+02
-6.541563537403e+01
-1.447051146212e+02
-1.331961247138e+02
-1.882203147092e+02
-1.921462031385e+02
-1.301785325877e+02
-1.383812871621e+02
-1.521425966710e+02
-3.020556392286e+01
-7.147856556956e+01
-1.438408919766e+02
-8.239785437987e+01
-1.334635488567e+02
-2.001435759635e+02
-1.492981185243e+02
-9.319373782508e+01
-1.547267976456e+02
-5.343029396934e+01
-1.362812587578e+02
-1.601319618658e+02
-1.450412618939e+02
-3.168417414077e+01
-1.432176728688e+02
-2.028619816785e+02
-9.350228078557e+01
-1.394474455734e+02
-1.482982326472e+02
-4.129683386083e+01
-1.512017400767e+02
-1.568713122979e+02
-1.500152393538e+02
-1.286072637320e+02
-1.632307416316e+02
-4.821841512270e+01
-6.961161779676e+01
-5.835462624112e+01
-9.916876049400e+01
-1.621045883526e+02
-3.991858312601e+01
-1.486033580125e+02
-4.247511061064e+01
-9.411763358921e+01
-1.693342102256e+02
-1.182077298405e+02
-9.979398027862e+01
-6.594822553352e+01
-9.445302356994e+01
-1.402660212653e+02
-9.992400162085e+01
-9.430191768158e+01
-1.745885421442e+02
-9.954158500963e+01
-1.856090907631e+02
-2.297097140679e+02
-9.436260517576e+01
-2.838035747396e+01
-1.445971651603e+01
-3.894521091819e+01
-8.242355871007e+01
-1.490889023553e+02
-9.487115141026e+01
-7.617664744200e+01
-1.844291524366e+02
-2.073608462507e+02
-1.355857604627e+02
-1.904704966696e+02
-1.571615616576e+02
-1.637413450967e+02
-8.460762106372e+01
-2.111423288285e+01
-1.719694237354e+02
-1.870787071969e+01
-2.997471922613e+01
-2.695157649645e+01
-8.137098333117e+01
-3.042583727044e+01
-1.942758369748e+01
-2.066012156745e+02
-9.612553478651e+01
-1.739634259371e+02
-1.847162199355e+01
-1.770679952594e+02
-1.993222052012e+02
-2.288295452423e+02
-1.861320446968e+02
-2.378538670919e+01
-1.075932556187e+02
-1.906545749893e+02
-1.451316533585e+02
-2.304885425753e+02
-9.521837850822e+01
-1.759726525527e+02
-4.186418125678e+01
-1.760247544513e+02
-1.609533042117e+02
-1.097596365215e+02
-1.079464130563e+02
-2.215114591598e+02
-1.817833602474e+02
-2.166892722187e+01
-1.350513482474e+02
-1.013734205972e+02
-2.109537776154e+01
-2.168798013718e+02
-1.720701614544e+02
-2.203446248827e+02
-2.973771541145e+01
-1.959004748377e+01
-2.170608312846e+02
-1.883205284905e+02
-4.749109604463e+01
-1.884628595689e+02
-1.689648143387e+01
-8.358605707635e+01
-1.991506338335e+01
-2.307808858331e+02
-1.771361098551e+02
-1.118276956159e+02
-8.878650902683e+01
-7.390080924300e+01
-1.866621173355e+02
-2.863661256702e+01
-1.779395793214e+02
-2.154722080515e+02
-1.810975731913e+02
-2.173905266912e+02
-1.952514836229e+01
-2.006822751441e+02
-2.023032584399e+02
-8.433792937529e+01
-1.808754300690e+02
-9.085252478593e+01
-3.952966773033e+01
-1.868225248647e+02
-8.724097770891e+00
-8.348572050482e+01
-2.325087444730e+02
-3.774330570826e+01
-1.032298864059e+02
-1.875022039852e+02
-1.375850005971e+02
-1.569659674534e+02
-3.733021811439e+01
-1.330699184875e+01
-1.245283495672e+02
-2.032281357256e+02
-1.805980323920e+02
-1.163126727904e+02
-2.815167514298e+01
-1.811987361950e+02
-1.209100472176e+02
-1.842561499788e+02
-1.999102777767e+02
-1.152371338300e+01
-1.480368668563e+02
-1.886721827735e+01
-2.211602858226e+02
-1.260346546400e+02
-6.274724139514e+00
-8.835356026803e+00
-2.048612662714e+01
-2.008502978000e+01
-3.338017796515e+01
-3.285634718852e+01
-4.602758669713e+01
-4.428603837240e+01
-5.832103920707e+01
-5.709486619172e+01
-7.047840782998e+01
-6.842596924169e+01

SCALARS node_materi_stress_size_dev_sd_sig float
LOOKUP_TABLE default
3.863231538288e+00
5.256744345076e+01
1.790183915778e+02
1.433596109947e+02
1.000447449945e+01
1.991126145565e+01
2.895685595948e+01
3.922842926494e+01
4.917910619521e+01
5.882638427775e+01
6.848539511497e+01
7.810474700577e+01
8.760699370772e+01
9.714898740632e+01
1.068240203513e+02
1.158450798413e+02
1.239205259226e+02
1.328045036590e+02
1.416942676630e+02
1.501464292142e+02
1.585216291448e+02
1.667999354214e+02
1.745454444269e+02
1.439133753709e+02
1.435033249043e+02
1.436456327837e+02
1.436993892036e+02
1.434258969334e+02
1.437822972281e+02
1.439183855381e+02
1.439973730307e+02
1.444961546506e+02
1.447259478353e+02
1.446575665064e+02
1.452947106332e+02
1.458512272297e+02
1.462746564125e+02
1.466640364744e+02
1.471148283196e+02
1.478660781606e+02
1.491254140240e+02
1.505043474841e+02
1.519486629124e+02
1.532714297523e+02
1.546122336801e+02
1.561997660945e+02
1.578056843518e+02
1.595776392368e+02
1.613431341378e+02
1.631330903211e+02
1.647461382122e+02
1.662751047214e+02
1.679910819787e+02
1.693796875601e+02
1.702160690899e+02
1.714412567305e+02
1.726518809167e+02
1.736966879224e+02
1.746176074238e+02
1.754253254855e+02
1.760173836955e+02
1.764796754303e+02
1.768607395909e+02
1.774240684246e+02
1.781392963590e+02
1.785398736966e+02
1.778765805574e+02
1.788412354791e+02
1.787045744864e+02
1.790171932009e+02
1.793801619533e+02
1.794063064296e+02
6.171874077469e+01
7.109655992230e+01
8.035480869268e+01
8.952463069348e+01
9.898388990611e+01
1.084655600664e+02
1.180310297438e+02
1.275883942465e+02
1.374231863700e+02
8.291689849617e+00
5.115600613143e+01
1.555488592473e+01
1.804832665989e+01
1.786379920064e+01
1.165401362900e+01
9.147341663510e+00
1.609260471393e+01
2.417182067838e+01
3.271690015639e+01
4.155263090585e+01
3.608976788603e+00
7.176744023702e+00
1.598062531896e+01
2.495121864811e+01
3.398129247766e+01
4.296306661067e+01
5.122307973243e+01
5.170200471250e+01
5.171366134549e+01
5.153506928235e+01
5.264922037913e+01
5.150414452440e+01
5.126013026840e+01
5.126211763077e+01
5.137754709094e+01
5.121379019607e+01
5.100153962809e+01
5.084749713237e+01
5.073135822289e+01
5.079107995216e+01
7.265682947925e+00
7.698615461419e+00
7.927982052896e+00
7.243869072227e+00
5.863180132442e+00
5.027011863744e+00
4.364983237004e+00
3.769914725720e+00
3.271916769775e+00
2.939272947588e+00
2.779644920237e+00
3.012771852356e+00
3.075756691699e+00
2.925354804192e+00
3.228021239802e+00
3.599675774315e+00
3.808773639009e+00
3.697681481831e+00
3.371639763095e+00
3.439460328352e+00
3.450512791420e+00
3.433037474782e+00
3.429252171379e+00
3.422793348476e+00
3.417099760788e+00
3.416569243887e+00
3.426363089504e+00
3.452553151022e+00
3.502009533914e+00
3.581983447300e+00
3.698884304004e+00
3.859666918688e+00
4.067912632773e+00
4.322847524360e+00
4.607156470784e+00
4.906407857161e+00
5.177516059358e+00
5.391208103433e+00
5.458975152040e+00
5.371300651557e+00
4.829172441505e+00
3.629346941326e+00
7.132688923025e+00
8.833315562243e+00
8.568511412291e+00
8.576613891497e+00
8.569817336190e+00
8.471056854820e+00
8.342570479952e+00
8.185419135261e+00
8.030330179735e+00
7.884642914168e+00
7.752472951944e+00
7.632283553835e+00
7.526866266851e+00
7.436966395638e+00
7.361267149144e+00
7.297645744219e+00
7.244426724154e+00
7.201498638375e+00
7.168355414711e+00
7.143364705696e+00
7.118525592992e+00
7.130655524143e+00
1.590846888322e+01
1.587113749401e+01
1.589004775818e+01
1.592216014439e+01
1.595750995151e+01
1.599666150692e+01
1.603888024914e+01
1.608161772104e+01
1.612860825750e+01
1.618317210545e+01
1.624057514561e+01
1.629317287318e+01
1.633407337749e+01
1.637526355294e+01
1.640438760396e+01
1.642009053119e+01
1.636167849432e+01
1.629449472854e+01
1.660987836527e+01
1.479947604227e+01
2.304105576713e+01
2.491435937865e+01
2.462563469889e+01
2.465823418662e+01
2.470992158118e+01
2.475037621681e+01
2.481241558805e+01
2.484816441235e+01
2.486608575614e+01
2.486936368901e+01
2.487803240673e+01
2.489184899812e+01
2.488910032603e+01
2.488097388320e+01
2.487362990865e+01
2.486524669596e+01
2.486335768177e+01
2.489317709991e+01
2.493698850610e+01
3.399303099824e+01
3.391165392882e+01
3.387759129205e+01
3.386894212004e+01
3.383727794827e+01
3.381648959554e+01
3.379083265271e+01
3.374198143738e+01
3.366484259231e+01
3.362721277334e+01
3.356893520551e+01
3.347723220371e+01
3.338793479437e+01
3.324778172634e+01
3.321600622047e+01
3.358670610657e+01
3.168651924138e+01
4.052614478291e+01
4.242325434073e+01
4.210182100694e+01
4.217252426561e+01
4.231019058071e+01
4.244027694938e+01
4.250482502940e+01
4.259638868865e+01
4.269473934848e+01
4.276750998287e+01
4.282095458465e+01
4.287086375797e+01
4.294260778383e+01
4.294263689133e+01
4.305511533693e+01
4.316272971333e+01
1.241359795191e+01
1.725700227500e+01
1.812434937523e+01
1.672930253589e+01
8.782888020066e+00
1.301816414579e+01
2.070394459274e+01
2.908270563691e+01
3.780594763912e+01
4.683343549961e+01
1.786850709850e+01
1.689241922203e+02
6.022501721886e+00
5.293713682558e+00
1.732159619918e+02
1.927753938130e+01
1.023415234047e+02
1.630789405404e+02
2.096507038901e+01
1.564401947298e+02
3.685291374884e+01
1.754243661511e+02
6.767333589080e+00
1.495148505369e+02
5.486640085429e+01
6.411006224579e+01
1.270552384995e+02
1.449543613474e+02
1.419886236334e+02
1.395868809612e+02
1.389994973885e+02
1.408840236341e+02
5.906251361822e+01
5.954523464357e+01
6.053509354951e+01
9.426984077627e+01
1.756175376724e+02
5.314442501034e+00
8.004191766514e+00
1.540480293637e+02
5.981867093364e+01
3.410426320251e+01
1.415485790923e+02
1.604688517087e+02
1.528189982246e+02
1.656299159842e+02
1.712280532259e+02
5.708436965684e+00
5.895951593325e+01
1.730902824118e+02
1.130770101803e+02
6.674990404202e+00
8.294627352155e+01
1.409214541163e+02
1.849630326618e+01
2.007823000899e+01
2.835825732499e+01
4.560795836507e+01
1.257492064300e+01
7.639126647447e+01
1.771679284089e+02
7.779345148285e+00
1.319421818341e+02
5.910013148974e+01
6.310851859517e+01
6.742188445089e+01
7.227340408618e+01
7.700697461085e+01
8.150587897846e+01
7.681082924266e+01
8.621786181430e+01
8.159576580761e+01
8.637792673212e+01
9.117784854907e+01
8.666679641250e+01
9.637543022088e+01
9.203537904638e+01
8.239262292591e+01
8.795570506337e+01
7.832545780592e+01
8.413928483991e+01
9.378829155666e+01
9.021596883181e+01
8.061937294682e+01
8.695638625494e+01
7.745758443277e+01
8.407108832463e+01
7.469020159457e+01
8.157323261386e+01
9.077059982775e+01
8.843633709427e+01
7.946711693400e+01
8.641416979683e+01
7.771180702882e+01
8.461757090948e+01
9.315649249404e+01
9.125703189375e+01
8.292288043802e+01
8.938476930774e+01
8.120877192226e+01
8.743415304512e+01
7.933946011999e+01
8.524896694816e+01
9.332054512715e+01
9.086129899977e+01
8.275274049486e+01
8.805133654579e+01
9.621300360347e+01
9.311791551145e+01
1.013283774144e+02
9.798747795406e+01
8.970444824605e+01
9.434186908589e+01
1.026717840494e+02
9.881340685787e+01
9.037663026521e+01
9.468858998011e+01
1.031748667678e+02
9.889922002195e+01
9.028696282000e+01
9.439354308009e+01
1.030761659993e+02
9.844204302322e+01
8.963426486240e+01
9.360176111307e+01
1.024794611468e+02
9.754849333093e+01
1.064715643234e+02
8.850304608437e+01
9.243257562406e+01
8.320225527554e+01
8.717122565880e+01
9.966285564656e+01
7.778591007919e+01
7.388962071658e+01
8.180853757330e+01
9.119550886898e+01
7.228782467654e+01
7.636668752365e+01
6.674657101479e+01
7.295712207909e+01
9.984008056383e+01
7.087975328246e+01
6.118235485365e+01
5.698768196653e+01
5.136410966072e+01
8.192098738244e+01
9.143783745292e+01
8.673149063302e+01
9.654853449399e+01
9.204332120811e+01
5.557647718099e+01
1.010079545782e+02
1.011683182958e+02
7.105163313118e+01
7.055308688460e+01
1.043795987261e+02
8.044383532014e+01
7.501493557911e+01
8.455991471887e+01
1.112671204124e+02
1.152629984475e+02
1.199308101161e+02
1.239102044673e+02
1.284595874017e+02
1.324136821822e+02
1.278219758282e+02
1.362950324264e+02
1.316755330881e+02
1.368495448593e+02
1.328277607287e+02
1.401069279526e+02
1.354731607239e+02
1.438560321857e+02
1.392201531447e+02
1.307092862677e+02
1.344627566626e+02
1.258708818995e+02
1.095282961573e+02
1.125773339702e+02
1.177334136305e+02
1.208052867575e+02
1.259449793115e+02
1.290523735270e+02
1.341358764332e+02
1.308611670749e+02
1.018028009665e+02
7.986330550991e+01
7.462173231528e+01
7.160263949970e+01
6.642547223982e+01
6.319240265011e+01
5.806445680488e+01
5.450606758845e+01
5.939350333320e+01
5.034292611659e+01
5.504767374045e+01
4.563692820355e+01
5.019199742164e+01
9.745161602448e+01
1.237127720011e+02
1.320356240396e+02
1.264705408059e+02
4.713080377235e+01
1.429280969375e+02
1.411204228830e+02
1.369937754788e+02
1.390167909233e+02
4.582462691495e+01
4.942378146058e+01
5.263038167409e+01
1.017385682818e+02
9.724424618024e+01
1.452272074782e+02
5.004238709152e+01
1.446146083803e+02
4.089649733654e+01
1.381847503815e+02
1.466031950078e+02
1.230980272216e+02
1.349362997364e+02
1.291545784535e+02
5.962080745991e+01
5.469343326972e+01
4.516039479029e+01
4.972505091519e+01
5.917938587359e+01
5.379815986502e+01
4.406252192281e+01
4.822324427535e+01
5.800709999381e+01
5.243016820684e+01
4.238881752642e+01
4.667899730226e+01
1.512143056646e+02
3.577635765280e+01
7.285202766004e+01
1.492625079236e+02
1.422068016900e+02
1.070049013005e+02
1.025401247242e+02
9.285053034550e+01
9.820601291751e+01
1.079421561904e+02
1.035845056670e+02
9.394275850344e+01
9.926923852655e+01
8.969563610976e+01
9.500919024248e+01
1.046226609662e+02
1.003643939612e+02
9.083215682263e+01
9.613954396561e+01
8.666128472823e+01
9.187210330400e+01
1.014655069033e+02
4.049601158384e+01
1.355865635920e+02
1.437543114314e+02
7.946810311608e+01
8.854875202453e+01
9.393236668035e+01
9.799445872769e+01
9.711388966251e+01
1.068383299740e+02
4.404193038085e+01
4.686307988806e+01
1.115984806444e+02
1.419140336127e+02
1.333934031909e+02
6.909804638551e+01
6.168374633075e+01
6.055506909878e+01
5.272195137084e+01
5.406355303034e+01
5.193602729893e+01
1.286253414889e+02
1.100325909795e+02
5.281232368692e+01
4.289433065750e+01
1.502984260770e+02
1.274011186736e+02
9.999495992439e+01
1.065336849271e+02
1.092952688669e+02
1.157022013479e+02
1.186697726043e+02
1.249218245193e+02
1.220396150045e+02
1.377847357710e+02
1.311281234140e+02
8.742537953947e+01
1.180394007366e+02
6.221216159248e+01
3.620122079717e+01
3.634100455411e+01
4.441303104623e+01
5.423278101714e+01
1.533007498407e+02
1.280777102447e+02
1.218216917589e+02
4.485733807834e+01
4.649557986693e+01
1.433513110844e+02
8.244723349471e+01
8.444429054577e+01
8.023931431601e+01
3.375081245346e+01
3.229142789335e+01
1.133700111373e+02
5.509224747271e+01
4.893434976243e+01
3.087625339190e+01
2.540471541538e+01
1.022471257492e+02
1.119196750644e+02
1.031423306845e+02
1.071589550660e+02
1.491907739947e+02
4.089193364915e+01
1.165283348694e+02
1.319918853677e+02
1.237436038409e+02
9.255029328723e+01
3.835362328716e+01
3.515976329237e+01
6.757280428694e+01
5.096582551338e+01
4.862435461943e+01
1.571647101863e+02
1.177608981494e+02
1.282475492575e+02
1.193153956505e+02
1.371956450707e+02
3.059698993697e+01
1.573924097429e+02
1.456745442897e+02
1.310585664367e+02
1.252519451626e+02
5.687125580238e+01
5.035104202581e+01
4.241996031463e+01
4.336741574304e+01
7.220947956704e+01
5.822218297532e+01
6.876433516923e+01
6.342423677620e+01
5.935082006257e+01
5.588752819447e+01
4.888639267606e+01
6.906058528990e+01
1.071608864194e+02
9.920135768873e+01
1.220749292464e+02
1.158574595507e+02
1.143181374548e+02
1.198361907140e+02
8.140350943920e+01
7.718113792248e+01
3.716003399005e+01
3.288774657343e+01
1.104367164463e+02
1.531729911695e+02
1.168308632744e+02
1.215497010836e+02
1.162626352198e+02
1.528841039486e+02
7.655745548318e+01
1.144553567652e+02
3.032533060116e+01
1.017735977413e+02
2.722789739435e+01
1.034705249467e+02
1.539828995741e+02
1.584514612248e+02
1.462811988341e+02
5.874153216381e+01
1.081522481963e+02
1.059229926719e+02
5.422604619989e+01
5.012841156758e+01
5.551815743058e+01
4.626151945500e+01
7.164826540733e+01
6.626599895782e+01
1.382099683483e+02
1.401122420538e+02
1.347937782651e+02
1.291306178219e+02
1.516457861776e+02
1.485597917202e+02
5.820307852070e+01
3.943912198443e+01
1.231693210118e+02
5.848101757413e+01
1.610016959314e+02
1.570019738293e+02
1.957470866240e+01
2.420364534797e+01
1.218253855695e+02
3.535636846857e+01
3.552052752434e+01
3.426117795076e+01
1.704862051265e+02
5.963685618779e+01
1.621039402228e+02
5.841976339389e+01
1.264682787611e+02
1.143683267123e+02
6.774598284827e+01
1.448860131325e+02
1.166339196403e+02
1.274155504202e+02
7.501953962355e+01
7.065957714796e+01
7.896757162325e+01
3.587992989268e+01
2.494208859592e+01
1.154295405341e+02
6.961813928350e+01
7.484194362643e+01
4.496297163829e+01
5.486420650496e+01
1.082849241006e+02
1.043770457802e+02
1.095158822973e+02
1.132534931146e+02
1.028501800915e+02
1.282081064043e+02
1.198891369051e+02
1.154792345566e+02
1.239970155154e+02
1.306105388935e+02
7.676719790333e+01
7.266644773337e+01
7.554485579988e+01
1.276961656036e+02
1.663992076988e+02
1.628269673324e+02
2.291703424843e+01
2.848131155044e+01
2.964410209047e+01
2.635976580817e+01
1.261646562722e+02
1.212004326559e+02
1.323132016197e+02
5.195529983917e+01
1.255234024682e+02
1.603857787461e+02
1.562132494724e+02
1.655681949405e+02
1.405451761896e+02
1.490373390582e+02
1.460171597082e+02
1.497564921358e+01
1.239889744393e+02
7.160161303707e+01
1.037645617780e+01
6.750169594167e+01
7.296553824593e+01
6.288725737181e+01
4.235421207036e+01
6.823248176650e+01
7.372230950022e+01
1.666491098695e+01
1.330231520271e+02
1.786654238328e+01
2.192405465979e+01
1.648187889856e+02
1.606798565401e+02
1.682394033917e+02
1.640142088610e+02
1.563799110855e+02
1.601508956872e+02
6.625556329378e+01
1.687609421749e+02
1.639291958052e+02
1.726916960425e+02
4.122448932924e+01
4.359007598800e+01
3.507324293269e+01
2.600007783493e+01
1.402960717621e+02
1.326466198551e+02
1.496309197560e+02
1.411473269367e+02
6.828033152036e+01
6.785925979949e+01
7.627065185416e+01
7.519806200827e+01
8.372024510783e+01
8.241945613923e+01
9.115428819008e+01
1.492591920822e+02
2.730735686147e+01
4.962950311288e+01
1.566934333481e+02
1.529673842919e+02
4.250514295817e+01
3.334839950666e+01
1.661351366063e+02
6.480480431485e+01
1.390669554274e+02
6.344017298829e+00
1.312971977844e+01
6.624940259887e+01
5.199208785773e+01
4.371209919959e+01
3.597043106724e+01
1.365602544108e+02
2.430062414816e+01
3.239287195966e+01
9.213246926527e+01
2.402855871023e+01
1.455975634298e+02
7.120391931303e+01
6.528748679034e+01
4.079480855379e+01
5.136269155623e+01
7.713304947747e+01
6.763331016824e+01
6.305093828023e+01
7.716461810549e+01
3.703489629514e+01
2.664914977078e+01
7.451827464170e+01
1.110898336537e+02
1.159973035265e+02
1.258672381158e+02
1.210490309061e+02
1.109814196520e+02
1.160868324538e+02
1.262617324848e+02
1.216705407907e+02
1.336954406084e+02
1.271903207036e+02
1.166619702394e+02
1.220362177855e+02
1.317805212001e+02
1.118401836094e+02
1.597339964968e+02
7.455953093136e+01
2.025590737146e+01
1.816326607279e+01
6.795303382464e+01
1.437575956066e+02
1.422554881036e+02
6.092487770268e+01
1.509416757767e+02
6.773595466306e+01
4.546011016304e+01
1.545801283554e+02
1.059640262409e+02
1.008733268455e+02
9.604026158926e+01
1.416790235628e+02
8.327739847278e+01
1.619574134635e+02
1.154127291929e+02
1.096909593879e+02
1.014505353345e+02
1.111633020075e+02
1.676939870341e+02
1.620050135397e+02
1.631214172119e+02
1.555904085273e+02
1.700655321337e+02
1.469622040103e+02
1.485957495971e+02
6.339233351930e+01
6.849099438858e+01
7.745617236600e+01
7.316936390371e+01
6.411810287966e+01
6.871324795281e+01
7.745243481132e+01
6.410764658443e+01
1.230712041738e+02
1.721365449783e+02
1.243996376115e+02
1.201777907430e+02
1.116732358386e+02
9.522504048016e+01
1.004199980968e+02
1.094441797793e+02
8.993621268925e+01
1.129860340937e+02
1.727679850165e+02
1.191844812945e+02
9.641815457240e+01
5.903753576500e+01
6.699968363588e+01
6.709676118818e+01
7.590486254631e+01
6.789258969982e+01
1.121996584561e+02
1.160908215537e+02
1.111313438504e+02
1.199319541372e+02
1.148047773064e+02
1.065230794244e+02
1.235687686055e+02
1.179274837160e+02
5.913594901554e+01
5.629417954777e+00
1.432512916575e+01
1.424672982431e+01
2.310765323287e+01
2.374744708039e+01
3.310962451546e+01
3.172314509634e+01
1.413669359896e+01
5.740055496162e+00
1.452846284187e+01
5.847627482056e+00
1.452960879096e+01
2.468529783539e+01
3.881888318568e+01
1.747921974133e+02
9.234635987810e+01
8.786487426392e+01
7.864359442287e+01
8.366457070247e+01
9.614220474410e+01
7.354333949867e+01
7.010749480468e+01
8.139808231828e+00
1.659787377354e+01
1.581333680469e+01
2.503213979451e+01
2.468851946023e+01
1.658715290412e+01
1.650415682193e+01
7.739801200420e+00
1.630345034778e+01
2.496369560367e+01
7.203225292538e+00
1.037991617624e+02
1.090428571117e+02
1.735397487872e+02
6.042793575849e+01
6.440176774709e+00
1.379339763084e+02
1.397039568283e+02
1.397781023732e+02
1.624462719160e+02
1.664271370906e+02
1.381930023172e+02
6.260047569483e+01
1.308827395407e+02
1.208508095509e+02
4.044186241504e+01
6.069233979614e+01
1.371931903734e+02
1.269330572228e+02
1.548349370348e+02
1.296516300379e+02
1.475569037008e+02
1.638669832407e+02
3.902665453438e+01
8.548502317457e+01
8.241176126852e+01
1.057389584729e+02
6.537427214965e+01
1.023918236287e+02
4.156895234107e+01
1.458390592166e+02
6.496682021763e+01
1.072006755113e+02
8.586755107211e+01
6.825824419434e+01
5.665745800423e+01
7.614782797452e+01
1.015142530030e+02
1.407707321905e+02
1.111411839378e+02
8.030485253748e+00
1.450933672743e+02
1.192038815958e+02
8.862850797743e+01
1.372823148830e+02
3.837914432359e+01
1.089623711073e+02
1.264506502687e+02
7.799964573977e+01
3.165530078166e+01
7.600134486539e+01
1.611319515374e+02
1.063401955037e+02
5.979675163066e+01
1.062341586150e+02
7.238398235664e+01
5.008761913229e+01
1.250231482764e+02
9.759895343319e+01
1.471182616512e+02
1.226663410757e+02
6.408332271271e+01
1.527715842313e+02
9.898437818824e+01
1.187665188088e+02
1.123294760440e+02
8.487789672219e+01
1.123188962498e+02
1.074344101053e+02
1.403539241746e+02
6.150339467945e+01
9.344169757030e+01
9.763500737150e+01
9.519039756735e+01
1.324509174843e+02
1.489817374830e+02
4.055011740700e+01
5.949808534287e+01
8.759248952712e+01
1.340105106706e+02
1.285521628264e+02
6.322695683747e+01
1.483609612471e+02
1.220637074604e+02
1.054886421946e+02
4.495349669451e+01
3.131693774600e+01
6.809415928410e+01
9.552616021054e+01
1.143772277685e+02
1.323996113416e+02
1.520387689245e+02
1.410100924000e+02
1.562586707930e+01
5.408399088070e+01
1.557111957766e+02
1.109461173856e+02
1.453389627592e+02
1.093877088390e+02
1.475755765427e+02
3.712280489569e+01
1.595229780324e+02
1.402954833788e+02
6.313718025593e+01
5.988212819348e+01
1.685788275176e+02
1.484727794855e+02
1.040392953385e+02
1.071830095811e+02
4.111547414489e+01
1.182650226442e+02
9.646784935919e+01
1.414066771489e+02
1.516058752667e+02
9.097899740829e+01
1.133183495379e+02
1.205061274598e+02
2.464309503094e+01
4.535586662417e+01
1.171720173110e+02
7.284649457793e+01
1.115653888145e+02
1.545524517607e+02
1.210173319398e+02
8.134867958694e+01
1.248247244416e+02
3.246489340574e+01
9.591881643090e+01
1.285715342381e+02
1.060268964125e+02
2.570215171999e+01
1.104779110943e+02
1.580181372095e+02
7.934773868094e+01
1.158696546348e+02
1.059476079093e+02
2.437503958326e+01
1.242692947206e+02
1.156526282731e+02
1.167579894304e+02
1.037303923061e+02
1.326687535079e+02
3.021239603348e+01
5.859619583019e+01
4.883362106708e+01
8.595311354777e+01
1.192683180504e+02
3.300068970766e+01
1.063597044564e+02
3.469376365682e+01
8.186900088366e+01
1.318376936186e+02
8.543204898859e+01
8.613836173355e+01
5.460638326904e+01
8.158778671627e+01
1.120380467659e+02
8.565618062008e+01
8.074141755109e+01
1.305734034019e+02
8.463231582123e+01
1.397397138044e+02
1.753809289609e+02
6.697401592053e+01
1.709713764991e+01
5.580306462347e+00
2.829003046375e+01
7.011209197624e+01
1.074213450650e+02
6.727792733875e+01
6.446464703451e+01
1.374953611432e+02
1.585550187270e+02
9.912846729021e+01
1.498382031773e+02
1.230642066907e+02
1.219626896751e+02
5.895455862775e+01
1.471081391477e+01
1.368770881227e+02
1.592594777674e+01
2.766005561618e+01
2.600898757952e+01
6.752911786495e+01
2.299540484443e+01
2.023662322195e+01
1.602169276051e+02
6.669308536883e+01
1.343436961560e+02
1.920193476967e+01
1.317856154321e+02
1.531259156606e+02
1.750513493136e+02
1.433347091063e+02
2.124055969717e+01
7.408509792345e+01
1.439338116573e+02
1.065795652394e+02
1.759217978816e+02
6.529270158618e+01
1.318532609357e+02
3.550127856551e+01
1.319585940685e+02
1.174269472309e+02
7.844753501788e+01
7.367779999806e+01
1.701074198843e+02
1.352721905515e+02
1.759448326792e+01
9.848237917231e+01
8.386080187332e+01
1.223791154342e+01
1.677685625756e+02
1.270396649104e+02
1.695733595540e+02
2.463863162654e+01
1.426124203327e+01
1.679136736304e+02
1.412216256258e+02
4.028205133649e+01
1.418848649225e+02
1.155023050695e+01
5.772861359369e+01
1.524617469454e+01
1.760516225905e+02
1.324295213796e+02
9.198427860304e+01
5.928009313992e+01
6.119783431185e+01
1.419740335040e+02
2.166534156719e+01
1.333189641624e+02
1.668069924428e+02
1.348833792412e+02
1.668143879688e+02
1.103731234634e+01
1.537111440694e+02
1.582536213739e+02
5.902317302063e+01
1.344549550975e+02
7.514748731866e+01
3.230780708280e+01
1.407541121501e+02
6.628924377067e+00
5.871589585249e+01
1.771131418022e+02
3.090852495375e+01
7.370499214969e+01
1.403057997475e+02
1.117694711239e+02
1.163978011061e+02
2.977356164776e+01
5.206370869757e+00
9.034385513689e+01
1.564752960744e+02
1.347375893835e+02
8.365186203369e+01
2.370832406029e+01
1.348995535800e+02
9.893808038762e+01
1.388523066542e+02
1.561313392474e+02
9.247477180653e+00
1.196066045287e+02
1.404094849534e+01
1.703139036423e+02
1.029883890873e+02
4.175199647873e+00
3.711210295544e+00
1.134966795861e+01
1.122183541278e+01
1.932281846820e+01
2.067669514429e+01
2.779330080082e+01
2.920073230541e+01
3.649143517777e+01
3.876006277535e+01
4.548988764321e+01
4.738336205660e+01

SCALARS node_materi_strain_total_average_a_ept float
LOOKUP_TABLE default
4.842077656090e-06
3.905779646448e-04
4.147263360467e-04
5.991334850317e-04
1.575711049736e-05
3.749958157657e-05
5.862878851342e-05
8.190829289507e-05
1.045807926549e-04
1.270686519429e-04
1.493741534011e-04
1.715496571217e-04
1.936327235475e-04
2.157037986699e-04
2.380699512904e-04
2.599262607072e-04
2.796098193217e-04
3.008587164255e-04
3.225018508155e-04
3.432415666612e-04
3.639058769286e-04
3.844686313655e-04
4.043617085747e-04
6.003955208137e-04
5.991072574345e-04
5.992772454889e-04
5.989858133110e-04
5.978500664968e-04
5.982119348750e-04
5.976963112341e-04
5.964736515955e-04
5.962284418404e-04
5.950762138549e-04
5.927800583393e-04
5.917621128732e-04
5.897932653559e-04
5.870363996669e-04
5.837295475327e-04
5.796980893835e-04
5.754662754485e-04
5.712730255012e-04
5.665449382426e-04
5.613394398438e-04
5.549598066326e-04
5.476506659700e-04
5.403246155561e-04
5.323807361512e-04
5.242946161886e-04
5.162523659069e-04
5.079677031144e-04
4.998084118293e-04
4.912883094942e-04
4.840795505073e-04
4.762751616377e-04
4.679697769696e-04
4.607779335788e-04
4.549476925517e-04
4.493753442139e-04
4.438282708385e-04
4.397669211117e-04
4.348585642499e-04
4.312375536398e-04
4.272244564605e-04
4.246590783961e-04
4.236219961314e-04
4.223989427918e-04
4.174480661021e-04
4.186101776572e-04
4.161850062985e-04
4.157439667117e-04
4.161979531595e-04
4.157406545347e-04
4.125162705246e-04
4.339988813533e-04
4.554997327188e-04
4.766512885333e-04
4.982867969700e-04
5.201695701671e-04
5.417612397872e-04
5.634586433462e-04
5.853870228586e-04
-1.018348726056e-05
3.800662658895e-04
2.784788430499e-05
9.157266866217e-05
1.630480390518e-04
2.405754303129e-04
2.753073741503e-04
2.946028022623e-04
3.145871225444e-04
3.354231245029e-04
3.570274157047e-04
2.689344993860e-04
2.828027419642e-04
3.044997959445e-04
3.259584093544e-04
3.473438292083e-04
3.686219342404e-04
3.878917972341e-04
3.892097754900e-04
3.890820691288e-04
3.886202161999e-04
3.913084055353e-04
3.884339891530e-04
3.878221474759e-04
3.875428033978e-04
3.872178183952e-04
3.862689890927e-04
3.852988716448e-04
3.840450957375e-04
3.827488819878e-04
3.814570579815e-04
-1.384314477453e-05
-1.761083296796e-05
-1.842479437002e-05
-1.679151981965e-05
-1.383132172265e-05
-1.152563866997e-05
-9.345134736654e-06
-7.260666255757e-06
-5.275745546528e-06
-3.438402481465e-06
-1.431035188311e-06
-2.648062122172e-07
1.164330185537e-06
2.392915274448e-06
3.441474347869e-06
4.130549660802e-06
4.684193996660e-06
5.003946250273e-06
4.766963041303e-06
2.718079038454e-04
2.731481234864e-04
2.730447854336e-04
2.731339444413e-04
2.733567715958e-04
2.736804062646e-04
2.740892730017e-04
2.745790488492e-04
2.751505008044e-04
2.758062723818e-04
2.765492292377e-04
2.773816502927e-04
2.783111801192e-04
2.793266139139e-04
2.804176623044e-04
2.815152166261e-04
2.826211975906e-04
2.835065972830e-04
2.842626485647e-04
2.839919252478e-04
2.835171239239e-04
2.794241923303e-04
2.695664005220e-04
2.818248134349e-04
2.865332417512e-04
2.881913703505e-04
2.888937398554e-04
2.892519716853e-04
2.890548323936e-04
2.887060409964e-04
2.881936158752e-04
2.876423637724e-04
2.870745060968e-04
2.865304761310e-04
2.860180019612e-04
2.855457361523e-04
2.851180241796e-04
2.847375254088e-04
2.844067622069e-04
2.841278075594e-04
2.839050647850e-04
2.837437759433e-04
2.836437152284e-04
2.835389966180e-04
2.829849739487e-04
3.045802114319e-04
3.047766563607e-04
3.048653770375e-04
3.049440834268e-04
3.050427900145e-04
3.051627666693e-04
3.053000424564e-04
3.054489061205e-04
3.056086284206e-04
3.057674486499e-04
3.059164093944e-04
3.060396887233e-04
3.061095238935e-04
3.061173848656e-04
3.059725760670e-04
3.056706505890e-04
3.049476763233e-04
3.040251399907e-04
3.027577249258e-04
2.979552077574e-04
3.164183058478e-04
3.211925712253e-04
3.222546304211e-04
3.232802530029e-04
3.242286661130e-04
3.248045925834e-04
3.252811383415e-04
3.255989528793e-04
3.258104537150e-04
3.259545404497e-04
3.260506104500e-04
3.261039048543e-04
3.261343258688e-04
3.261375087613e-04
3.261355660215e-04
3.261209156948e-04
3.260970451786e-04
3.260330472051e-04
3.259818214835e-04
3.473696623949e-04
3.473739441217e-04
3.473473199991e-04
3.473002957285e-04
3.472317344180e-04
3.471168448912e-04
3.469741173245e-04
3.467456215078e-04
3.464439552924e-04
3.460819062089e-04
3.456214006752e-04
3.450184288535e-04
3.442371430339e-04
3.431509860372e-04
3.420968784924e-04
3.412868321063e-04
3.365151569489e-04
3.575058117460e-04
3.621334002462e-04
3.629225232237e-04
3.641691605058e-04
3.651845890603e-04
3.660090463852e-04
3.666005979175e-04
3.671433286491e-04
3.676956244468e-04
3.679464415203e-04
3.682195292795e-04
3.683953542295e-04
3.685504836161e-04
3.686106707430e-04
3.687861098990e-04
3.688009608620e-04
3.463819583876e-06
5.833625456156e-05
1.271820047508e-04
1.988305477504e-04
2.630795746129e-04
2.866830738153e-04
3.061224750358e-04
3.267668817019e-04
3.480321957465e-04
3.702035933985e-04
8.768843506500e-05
4.506325979000e-04
4.843214197741e-06
-3.118273606409e-06
4.262258218318e-04
2.202413201831e-04
2.278078935425e-04
4.778825049571e-04
2.922898162987e-04
5.107203949256e-04
3.389329277813e-04
4.162530556751e-04
9.245118400626e-06
5.409945463856e-04
3.854782761492e-04
1.393278167380e-04
2.869411349015e-04
5.575041850683e-04
5.750116963713e-04
5.883842887695e-04
5.841370328724e-04
5.823551381259e-04
4.001547128963e-04
4.057502512149e-04
4.092861424791e-04
4.876612563180e-04
4.101350535035e-04
-1.464733650998e-06
1.254250336642e-05
3.528904319106e-04
4.078500528994e-04
7.010324689785e-05
5.641034536345e-04
4.958659533365e-04
5.266651027954e-04
4.634260820810e-04
4.396958243860e-04
9.319522190015e-07
4.027966647813e-04
4.163463414952e-04
5.303050417405e-04
8.033701398297e-06
1.827672889025e-04
5.922697476500e-04
2.658768426505e-04
1.541458538585e-04
3.159731850669e-04
3.618220703098e-04
2.681562946487e-05
4.465357802922e-04
4.116282586391e-04
1.249183368046e-05
5.733067106146e-04
3.963142620737e-04
4.023803013989e-04
4.143493652391e-04
4.207379058028e-04
4.337591404691e-04
4.395443303672e-04
4.261703765394e-04
4.450576053143e-04
4.311211163662e-04
4.531234611555e-04
4.501611928847e-04
4.356965260235e-04
4.548801745719e-04
4.399245929485e-04
4.211590547712e-04
4.248796160237e-04
4.064668711272e-04
4.096518840022e-04
4.283219281048e-04
4.125707177276e-04
3.941580962890e-04
3.965591081147e-04
3.783523752241e-04
3.802244733519e-04
3.620425313024e-04
3.634475644093e-04
3.820925464577e-04
3.649363509985e-04
3.461922180713e-04
3.473640409798e-04
3.283533731236e-04
3.292603013220e-04
3.488250369817e-04
3.306655225437e-04
3.105116843916e-04
3.121289797610e-04
2.912716506114e-04
2.933083618292e-04
2.716646912614e-04
2.741072814461e-04
2.958596754466e-04
2.770973070506e-04
2.546555461104e-04
2.582097877984e-04
2.806651583570e-04
2.623143832833e-04
2.846918123398e-04
2.668734660534e-04
2.442165079362e-04
2.493147978860e-04
2.717733015658e-04
2.546668446864e-04
2.320235969330e-04
2.379442465530e-04
2.603632744990e-04
2.441221581106e-04
2.215814688114e-04
2.282447636213e-04
2.506480161889e-04
2.350879253055e-04
2.126487552788e-04
2.198600777977e-04
2.422018922813e-04
2.272384423728e-04
2.494597833404e-04
2.047379397582e-04
2.124999311613e-04
1.898189164379e-04
1.980369007220e-04
3.506569016835e-04
1.752879521588e-04
1.670155183099e-04
1.838795826573e-04
2.064566193177e-04
1.610530617564e-04
1.699876672568e-04
1.471346678202e-04
2.695968182082e-04
4.315412227809e-04
1.563580026971e-04
1.335217083709e-04
1.240473639186e-04
1.105409491371e-04
4.468361905540e-04
4.668638449019e-04
4.596377667929e-04
4.804775581216e-04
4.732229520594e-04
1.201651530049e-04
4.699262996425e-04
4.873560201925e-04
3.764085043660e-04
3.278106723708e-04
3.026659012153e-04
1.789515099734e-04
1.655893078393e-04
1.879414451406e-04
2.643267772169e-04
2.713791514782e-04
2.861292013085e-04
2.929503210584e-04
3.075600740924e-04
3.141777179274e-04
2.999279775327e-04
3.209599090625e-04
3.070566682554e-04
3.286230365776e-04
3.223536228694e-04
3.279018346893e-04
3.143473900004e-04
3.350493359457e-04
3.218049368458e-04
3.009069672877e-04
3.086524163159e-04
2.876825299902e-04
3.066162077273e-04
3.242915913008e-04
3.281231317052e-04
3.455258234838e-04
3.492536759504e-04
3.664067093871e-04
3.699674820931e-04
3.532379765495e-04
4.591273866146e-04
2.351882425079e-04
2.315556710862e-04
2.114270601918e-04
2.076507410836e-04
1.867548082023e-04
1.827624642375e-04
1.609103894256e-04
1.661378947576e-04
1.394647957754e-04
1.460390017743e-04
1.187522517094e-04
1.265505549074e-04
3.839897132279e-04
3.630163189147e-04
3.837147731796e-04
3.804373699920e-04
1.007609793697e-04
3.294496660131e-04
3.432675916413e-04
3.372537020198e-04
3.738886240203e-04
9.750827559289e-05
1.566530904241e-04
1.797188300161e-04
4.940694463173e-04
4.865090028935e-04
3.580925194767e-04
1.071680385344e-04
3.416380944857e-04
1.115302467256e-04
3.165751283126e-04
3.372239437027e-04
2.859140111482e-04
4.011032554292e-04
3.977883855885e-04
1.530394965585e-04
1.344764672913e-04
1.084378522345e-04
1.171670691774e-04
1.425926251668e-04
1.254267096192e-04
9.994219682529e-05
1.088616540108e-04
1.340491566669e-04
1.180075870197e-04
9.279997365008e-05
1.024418705865e-04
3.498942488101e-04
9.044541083494e-05
4.029734461188e-04
3.637513427289e-04
3.901357806742e-04
5.076780714100e-04
4.997971317614e-04
4.785916082526e-04
4.916653925886e-04
5.130938553409e-04
5.047024209866e-04
4.832931609425e-04
4.961093424645e-04
4.747230115710e-04
4.873443567148e-04
5.089128760905e-04
4.999698931373e-04
4.784167010780e-04
4.908794361015e-04
4.693088363165e-04
4.815877127348e-04
5.033470325414e-04
8.524062110560e-05
3.574603764576e-04
3.781622048259e-04
1.753440513343e-04
1.968308221798e-04
2.100696063447e-04
2.191172232834e-04
4.937805173181e-04
5.157351017998e-04
1.535273899600e-04
1.779287644142e-04
5.152833057966e-04
3.247391541713e-04
3.039123512865e-04
3.095690410161e-04
3.097939724980e-04
2.908626261656e-04
2.919034868732e-04
3.105633645257e-04
2.717193656518e-04
3.160489690564e-04
5.216845855803e-04
1.145442149696e-04
9.099032163894e-05
3.452676458381e-04
3.365684184141e-04
4.011516066960e-04
4.033594958957e-04
4.206033759996e-04
4.230104864977e-04
4.404219775118e-04
4.428699607218e-04
4.254446255666e-04
4.185591397309e-04
4.454144588817e-04
4.718787480849e-04
3.595770596148e-04
1.427628262276e-04
7.515124049673e-05
7.674966894888e-05
9.418178786950e-05
1.167854041306e-04
3.784065608360e-04
4.605317863456e-04
4.576417295788e-04
2.942368607315e-04
3.118420456912e-04
4.214445583327e-04
4.527569634040e-04
4.621478084035e-04
4.535093118701e-04
6.999060776091e-05
6.769393429918e-05
5.263339777949e-04
2.026621182706e-04
2.022454034182e-04
8.190929830216e-05
6.067677517566e-05
5.058466672387e-04
5.276989436292e-04
2.320788301823e-04
2.408085809087e-04
3.732234367775e-04
8.729070611995e-05
5.376917717160e-04
3.413100693929e-04
3.201069305076e-04
2.059367619964e-04
1.517389262761e-04
1.258869202520e-04
1.587515484663e-04
1.119948473876e-04
1.038179097091e-04
3.934065543866e-04
5.346867718879e-04
4.279873700696e-04
4.079181992744e-04
4.481130781420e-04
6.243210594493e-05
3.840692380604e-04
3.330817646101e-04
4.772696089061e-04
4.746934986571e-04
2.253045020078e-04
2.263643694617e-04
2.041259660637e-04
2.296355061223e-04
4.126745793375e-04
2.477934029242e-04
3.887466428919e-04
3.854868117758e-04
3.717713582003e-04
3.276471063397e-04
3.278540568067e-04
2.285189732543e-04
3.206878723258e-04
2.234619031458e-04
2.798301990430e-04
2.794132814166e-04
5.305646052659e-04
5.435460343581e-04
4.569833097750e-04
4.478514019254e-04
7.732050882798e-05
6.717155536193e-05
2.568885259251e-04
3.694265021934e-04
5.289894137408e-04
5.366748428018e-04
5.225460024065e-04
3.884067507817e-04
2.159133150950e-04
3.108571363898e-04
7.055789525480e-05
3.684131908383e-04
5.405872898763e-05
4.474531999519e-04
3.535827265057e-04
3.654700745027e-04
4.384326757687e-04
3.903410514107e-04
3.706240929537e-04
3.529664418081e-04
3.687596553689e-04
3.557508693735e-04
3.578267396805e-04
3.421153606457e-04
1.667497776132e-04
1.511805536839e-04
4.823395037968e-04
4.651715732539e-04
4.946917591487e-04
4.923437380061e-04
4.412839039974e-04
4.242445130729e-04
1.256435918025e-04
3.130131671053e-04
5.481642356343e-04
3.817265240604e-04
3.888879069470e-04
3.756396277513e-04
4.063725448762e-05
5.093611776921e-05
5.499009195286e-04
2.077551147744e-04
2.338906092746e-04
1.797932878865e-04
3.937000454246e-04
4.076142614829e-04
3.738750233475e-04
3.438796774788e-04
5.600958461365e-04
3.733958683628e-04
2.900623764801e-04
3.679234212864e-04
5.384604702628e-04
5.624512847103e-04
4.412120491753e-04
4.317517550803e-04
4.490219684771e-04
1.051022449385e-04
7.216921360811e-05
5.343309590500e-04
1.525133835027e-04
1.640719421095e-04
9.671219593701e-05
1.206918765270e-04
2.452616069592e-04
2.369756772644e-04
4.510467583048e-04
4.672715009219e-04
4.180398573010e-04
3.253404519420e-04
3.039250078538e-04
2.986767662184e-04
5.519451165954e-04
5.672595829310e-04
1.825909335095e-04
1.751347229503e-04
1.744316556024e-04
5.565351217718e-04
3.854507272390e-04
3.770316692001e-04
4.371026504538e-05
5.670517191164e-05
1.231147292815e-04
9.620686276611e-05
5.436222292951e-04
5.296025082945e-04
5.595979683369e-04
1.112590137384e-04
4.111229964186e-04
4.077861667255e-04
4.035758656771e-04
4.153625909244e-04
4.352837970596e-04
4.543164460409e-04
4.679496674124e-04
2.957377446291e-05
5.552111761359e-04
4.346722667222e-04
1.442117952220e-05
4.257127874349e-04
4.383200238702e-04
4.150982401360e-04
8.936233433490e-05
4.251317084848e-04
4.362488363917e-04
2.903825326062e-05
5.699478564272e-04
3.206106861409e-05
4.177293991359e-05
3.957002964928e-04
3.818875062981e-04
4.009760012983e-04
3.873380380348e-04
3.683197871044e-04
3.756236838926e-04
4.219640316120e-04
3.976653155559e-04
3.832040193447e-04
4.055014638899e-04
3.407812660353e-04
2.525523067866e-04
2.579525452260e-04
2.430761220230e-04
5.160575102209e-04
5.082177506613e-04
3.422922578132e-04
3.214134390004e-04
4.274192468043e-04
4.266454423385e-04
4.460265327394e-04
4.437012627870e-04
4.632279391162e-04
4.605013497093e-04
4.805049409713e-04
4.868753035784e-04
1.831487004151e-04
3.653746125025e-04
4.434272877337e-04
4.256071232537e-04
3.278005155041e-04
3.142274165276e-04
4.061254574120e-04
2.474909553513e-04
5.810002692768e-04
2.533679430526e-06
3.242660856156e-05
2.687903689878e-04
3.431603052816e-04
2.742924110161e-04
2.790855314645e-04
3.467461479139e-04
4.720614656539e-05
1.512776777024e-04
4.826516844890e-04
1.217350013921e-04
3.320641768627e-04
2.491884250611e-04
3.444569927060e-04
1.780413018181e-04
2.500480422873e-04
4.170851087218e-04
4.078443894032e-04
3.948545959768e-04
2.516632897025e-04
2.975400271502e-04
2.836638722728e-04
3.915805820425e-04
5.082997184559e-04
5.149056115018e-04
5.355356159198e-04
5.209831713500e-04
5.001374576901e-04
5.059637818045e-04
5.272133732121e-04
5.120103956328e-04
5.369162919474e-04
5.168222144627e-04
4.955458796389e-04
4.997321750041e-04
5.190161570931e-04
4.791162519026e-04
4.597788430787e-04
2.898957535202e-04
4.984778481153e-05
5.491781783412e-05
3.607742605328e-04
5.618455981734e-04
5.710112653680e-04
2.046236788272e-04
5.336802020061e-04
3.990831430869e-04
1.338263343030e-04
5.188171903346e-04
4.939232520083e-04
4.793045055467e-04
4.732365230190e-04
5.782044477868e-04
4.573735332217e-04
4.879179737974e-04
3.420075525287e-04
3.384995250778e-04
3.172851440145e-04
4.904448577053e-04
4.568018510772e-04
4.373104387127e-04
4.314948549169e-04
4.162459189163e-04
4.447933226953e-04
5.539086084044e-04
5.487027380886e-04
1.506438466396e-04
1.677476127701e-04
1.919368312700e-04
1.852199694025e-04
1.603537090751e-04
1.785416267932e-04
2.029357453440e-04
1.720690045412e-04
4.878021508349e-04
4.351866325852e-04
3.010669041810e-04
2.945350233906e-04
2.727692335311e-04
2.149594103792e-04
2.287429730261e-04
2.506521504777e-04
2.013512111124e-04
4.055715064025e-04
4.306194358503e-04
3.153460939781e-04
2.205425707923e-04
4.016019987337e-04
4.183864083203e-04
4.163914457416e-04
4.367214112992e-04
4.220450378434e-04
2.536397367462e-04
2.621295363070e-04
2.496740205616e-04
2.707200852675e-04
2.580705393802e-04
2.384580464118e-04
2.790390708481e-04
2.651799022459e-04
4.040633004751e-04
-3.907159700284e-07
2.295225724291e-05
2.263271985544e-05
4.522045821131e-05
4.755939109189e-05
7.176701111308e-05
6.947287547535e-05
2.295327373096e-05
2.178586140649e-06
2.348732621955e-05
3.605826068824e-06
2.366278664727e-05
4.840820244917e-05
8.154724438741e-05
4.062829008455e-04
2.045569801876e-04
1.940382127045e-04
1.729498700981e-04
1.845458311667e-04
2.134151305651e-04
1.610122962888e-04
1.530483430421e-04
1.298553944532e-05
3.022609543140e-05
2.819778310059e-05
4.921536873176e-05
4.876754125786e-05
3.017461301599e-05
2.983559764956e-05
1.189521524079e-05
2.944524337925e-05
4.932324117252e-05
1.073300078097e-05
5.094022016069e-04
5.212369556663e-04
4.223387819296e-04
4.083551006815e-04
6.770962195522e-06
5.853374856681e-04
5.870451301199e-04
5.883781535163e-04
3.736491025478e-04
3.840558697951e-04
5.866259888198e-04
1.378783302779e-04
5.414040751051e-04
5.469463139905e-04
1.293263822968e-04
1.359139430125e-04
3.124137440881e-04
2.933607004448e-04
3.573891638739e-04
2.957170855654e-04
3.423909533936e-04
4.240933708891e-04
8.199250582237e-05
4.658873809035e-04
4.600202795424e-04
5.125843705293e-04
1.429079891710e-04
2.289526352154e-04
8.751009585515e-05
5.052404428027e-04
3.743094647280e-04
2.574026513213e-04
1.926002804017e-04
1.522482745695e-04
1.271966295536e-04
3.097127008029e-04
2.348669631160e-04
3.350393619684e-04
5.251417875118e-04
1.071563474692e-05
3.492807615558e-04
2.785717767569e-04
4.704338060371e-04
3.868883940218e-04
8.387341837531e-05
5.176778179830e-04
5.497344329493e-04
4.445424998312e-04
6.436570680258e-05
4.442034394279e-04
3.980630136387e-04
5.013526697736e-04
1.297604743450e-04
2.890944476761e-04
3.452426870124e-04
3.736972912721e-04
5.556540475362e-04
3.325977104132e-04
3.943934555093e-04
3.322247212157e-04
1.394781377389e-04
3.619661564739e-04
2.990659584966e-04
5.393914041518e-04
4.376611297101e-04
2.394474175725e-04
5.211781037605e-04
2.663536716091e-04
4.041081696338e-04
3.594628412727e-04
3.988860917389e-04
4.437462412469e-04
3.665787140118e-04
3.003363227350e-04
3.555278722830e-04
9.895589040824e-05
2.702733879324e-04
4.656014706520e-04
4.623683761409e-04
5.610773245624e-04
3.276013177586e-04
3.483736547205e-04
5.423933686727e-04
2.426974330275e-04
9.514041297857e-05
1.011863997817e-04
1.915374942962e-04
3.143621188822e-04
2.644773688022e-04
5.527298737819e-04
3.553760084737e-04
3.524386235153e-04
5.658041899315e-05
3.778669505364e-04
3.626542491716e-04
2.937821932944e-04
4.067688763604e-04
2.450127673290e-04
4.970979724647e-04
3.278528921998e-04
3.704087109656e-04
3.625677764094e-04
2.262580915968e-04
4.081930057226e-04
3.930284398106e-04
3.833430002997e-04
3.859719929015e-04
2.769114241573e-04
3.504165350403e-04
2.721526243510e-04
4.153155303053e-04
5.809863169150e-04
3.979653033251e-04
4.590149386087e-04
2.585872846628e-04
3.768081509715e-04
4.882377342144e-05
3.533030362193e-04
2.666200785784e-04
1.970160441651e-04
2.823343676394e-04
4.575879744521e-04
2.748128603293e-04
2.209996057136e-04
2.831122748174e-04
3.277379304186e-04
4.647012967747e-04
2.915053649957e-04
4.346285933968e-04
5.081065774783e-05
3.880623753924e-04
3.631074232613e-04
1.819898261282e-04
2.881917105460e-04
4.851037179565e-04
3.046089563961e-04
3.097765800055e-04
4.544999891538e-04
3.907231697461e-04
3.352445079157e-04
3.312469750397e-04
3.006401677314e-04
1.289409143377e-04
1.055089768165e-04
2.264132391739e-04
4.713167442761e-04
6.775793333924e-05
4.747458135469e-04
7.205150047715e-05
2.089987775633e-04
4.151313841639e-04
4.673404747464e-04
2.152096831996e-04
1.173572108016e-04
1.987083274044e-04
3.559944065218e-04
2.056501578774e-04
1.899543425377e-04
5.684505672800e-04
1.972987150948e-04
5.905640857097e-04
4.065802552868e-04
4.246338107078e-04
2.818838316567e-04
-1.909113592811e-06
2.652314071922e-04
1.591332654823e-04
4.631533362435e-04
4.254485557946e-04
1.440236394241e-04
5.368743796604e-04
5.034468758155e-04
4.988049558728e-04
4.092350993959e-04
3.942319467567e-04
5.505229798549e-04
4.058138181442e-04
2.426832008697e-05
3.107177224806e-04
2.483225730983e-04
2.125202794781e-04
1.519884620578e-04
1.469204079468e-04
4.467257121591e-05
1.883854604766e-04
4.419434050391e-04
4.224117236972e-04
4.314498561666e-04
1.208015602877e-04
5.632022913501e-04
4.735808030467e-04
4.176971167639e-04
4.517117603556e-04
9.143225489158e-05
4.347456351495e-04
5.121124969366e-04
5.157062423293e-04
4.153038039845e-04
4.178164959502e-04
5.723459667529e-04
8.155938596345e-05
5.730770865780e-04
4.833766710388e-04
4.511247366272e-04
4.296061288455e-04
3.937247170528e-04
5.463012847857e-04
6.217287274726e-05
4.973814739323e-04
1.853174850307e-04
1.925725001846e-05
4.056396420657e-04
5.032528192377e-04
3.938318742936e-04
4.835852882968e-05
2.352822757596e-05
4.154912760105e-04
5.283911896105e-04
9.237007482919e-05
5.888189664932e-04
3.002944326405e-05
4.027252756175e-04
2.700028574524e-05
4.125322651111e-04
5.703614181989e-04
2.040131275019e-04
3.989112351098e-04
1.323624336184e-04
4.785668074344e-04
4.110645049133e-05
5.738333486721e-04
4.248817238377e-04
5.615326795204e-04
4.761709848616e-04
2.068492948829e-05
4.856879075983e-04
4.147393417502e-04
4.060505559607e-04
5.530846123125e-04
1.647294269054e-04
6.650337814757e-05
5.931978884727e-04
9.617196926900e-06
4.053206591413e-04
4.104651330316e-04
6.354042447552e-05
4.404010083017e-04
5.350875322906e-04
2.502489231655e-04
5.380263254595e-04
6.234889883783e-05
-6.215217809426e-06
4.787309333468e-04
4.701662269417e-04
5.673311818245e-04
4.631312557394e-04
7.782795393350e-05
5.192692685789e-04
2.206933549355e-04
4.946237532539e-04
4.258572555145e-04
5.276367079462e-06
2.689274139115e-04
2.352179217634e-05
4.037760651779e-04
2.297525652603e-04
2.755296340079e-04
2.722329622512e-04
2.890883195319e-04
2.931228747551e-04
3.067915800706e-04
3.158748934348e-04
3.262511964397e-04
3.360562329613e-04
3.468938232936e-04
3.586799149122e-04
3.683684495389e-04
3.786969195750e-04

SCALARS node_materi_strain_total_size_dev_sd_ept float
LOOKUP_TABLE default
1.365434603678e-05
1.025585498483e-03
1.007569476680e-03
1.471986600485e-03
3.620370539287e-05
8.094080903685e-05
1.209490662655e-04
1.670150684499e-04
2.114889416255e-04
2.553202926269e-04
2.999287068855e-04
3.456175169161e-04
3.924781110291e-04
4.416816294618e-04
4.944161584769e-04
5.462247979625e-04
5.949035269946e-04
6.514845168278e-04
7.116900504234e-04
7.723410836952e-04
8.360142618098e-04
9.027201933936e-04
9.676053855021e-04
1.473654098035e-03
1.471338673942e-03
1.471770528408e-03
1.471333424187e-03
1.469601895863e-03
1.470228664980e-03
1.469521273854e-03
1.467674986982e-03
1.467561754172e-03
1.465394061234e-03
1.462068979595e-03
1.460166076149e-03
1.456931431077e-03
1.451843687728e-03
1.446129376423e-03
1.438414572122e-03
1.430933984340e-03
1.422963330198e-03
1.413384613721e-03
1.402311065147e-03
1.388592433788e-03
1.373620326517e-03
1.356850130554e-03
1.338640642977e-03
1.319733373129e-03
1.300000895873e-03
1.279158312290e-03
1.257496337047e-03
1.235303004359e-03
1.216231469014e-03
1.193332287297e-03
1.169817325947e-03
1.148841151435e-03
1.131585873607e-03
1.114362703049e-03
1.099046786136e-03
1.084688150193e-03
1.071219021255e-03
1.058523424898e-03
1.047711912868e-03
1.040748318584e-03
1.036196865155e-03
1.031060556554e-03
1.016875934091e-03
1.019982981718e-03
1.014606490949e-03
1.013702171981e-03
1.014032155447e-03
1.012858599591e-03
1.076648011853e-03
1.127769525197e-03
1.176727987791e-03
1.223717737994e-03
1.270640154381e-03
1.316204615521e-03
1.360675685831e-03
1.403645549851e-03
1.447058821564e-03
1.396708259438e-04
1.045914585735e-03
2.834578728014e-04
4.235874736030e-04
5.637495412493e-04
7.016735659088e-04
7.569414733192e-04
8.160592542789e-04
8.760076339422e-04
9.338033219373e-04
9.892058499920e-04
7.322868460960e-04
7.617164262532e-04
8.128568718227e-04
8.657282037623e-04
9.185770193295e-04
9.707933559706e-04
1.018155084623e-03
1.021543108806e-03
1.022554631986e-03
1.022679604824e-03
1.030453155259e-03
1.025681513186e-03
1.026313633740e-03
1.028319803390e-03
1.031668159170e-03
1.033356023722e-03
1.034795643832e-03
1.036657854352e-03
1.038472125863e-03
1.041112594197e-03
1.315454873669e-04
1.406645237606e-04
1.383510372374e-04
1.280563421446e-04
1.153546134575e-04
1.049036598051e-04
9.359622771287e-05
8.206684872541e-05
7.148192208968e-05
6.142566530606e-05
5.229845071150e-05
4.709127153428e-05
3.805627331012e-05
2.952126986392e-05
2.447509348637e-05
2.160586281191e-05
1.861972168663e-05
1.443433972229e-05
1.233942643179e-05
7.365386063949e-04
7.328882546704e-04
7.321114010482e-04
7.315720642783e-04
7.307387692457e-04
7.295607615928e-04
7.280242402202e-04
7.261239681834e-04
7.238603234932e-04
7.212310661674e-04
7.182370085040e-04
7.148858842390e-04
7.112149397591e-04
7.072841581177e-04
7.031830435043e-04
6.990135864079e-04
6.950205087058e-04
6.913960646521e-04
6.887444066099e-04
6.872282594880e-04
6.880664297657e-04
6.927093314621e-04
6.987287899155e-04
7.340392412742e-04
7.404956227908e-04
7.344717254767e-04
7.338806812441e-04
7.345024075625e-04
7.358687813049e-04
7.378830751077e-04
7.401889295155e-04
7.426561394469e-04
7.451524256095e-04
7.475569976168e-04
7.497775571092e-04
7.517844372055e-04
7.535610648035e-04
7.550924231407e-04
7.563691478178e-04
7.574002638632e-04
7.582260880324e-04
7.589110582030e-04
7.595835964316e-04
7.605283643526e-04
7.616079623661e-04
8.133088781056e-04
8.132990759533e-04
8.127819094330e-04
8.122918985220e-04
8.118542673104e-04
8.114150172698e-04
8.109112772829e-04
8.102950052370e-04
8.095809184711e-04
8.088163398867e-04
8.080177736729e-04
8.071968491914e-04
8.063866946291e-04
8.057948029264e-04
8.055242079098e-04
8.057646070688e-04
8.063199239797e-04
8.074844370793e-04
8.125148292425e-04
8.042203360907e-04
8.667030015674e-04
8.761388264368e-04
8.720429139437e-04
8.704880823778e-04
8.692568419411e-04
8.682990896932e-04
8.677927801194e-04
8.673300722115e-04
8.669531095143e-04
8.666402279382e-04
8.664676630419e-04
8.663695343730e-04
8.662118534975e-04
8.660940437996e-04
8.660525354179e-04
8.661096486772e-04
8.662051174991e-04
8.661729372274e-04
8.658723585488e-04
9.189506155181e-04
9.190798753931e-04
9.193054608604e-04
9.196560399606e-04
9.200205190560e-04
9.206195494489e-04
9.213261548947e-04
9.221204896021e-04
9.228266829541e-04
9.239314428926e-04
9.251561089137e-04
9.263984510727e-04
9.278478397835e-04
9.290293599553e-04
9.306825852926e-04
9.351755760041e-04
9.258744418712e-04
9.811848081163e-04
9.904493780390e-04
9.865657676093e-04
9.844176891208e-04
9.827086314046e-04
9.810042220978e-04
9.791898912434e-04
9.777283284221e-04
9.763802480782e-04
9.751387041433e-04
9.740662915183e-04
9.731651905450e-04
9.726390763488e-04
9.718537999222e-04
9.718211767190e-04
9.721175645120e-04
2.069468914199e-04
3.556117148249e-04
4.934085802879e-04
6.389657615679e-04
7.382412500169e-04
7.936647532987e-04
8.537311941602e-04
9.115267767463e-04
9.674527633081e-04
1.021281047792e-03
3.701467866746e-04
1.108152690480e-03
7.004171567922e-05
1.078106959142e-04
1.032991515469e-03
6.770925156993e-04
4.695472161197e-04
1.192885678014e-03
8.417665171643e-04
1.288482667186e-03
9.580779332852e-04
1.003320929445e-03
4.255699615468e-05
1.366856895018e-03
1.066844860872e-03
2.795421610272e-04
6.145694735798e-04
1.405308204233e-03
1.437196913019e-03
1.454515780740e-03
1.449294858891e-03
1.448595132144e-03
1.087912267506e-03
1.080683032313e-03
1.078546593554e-03
1.247638983870e-03
9.870718679810e-04
1.192746036565e-04
3.354282351077e-05
8.018412548843e-04
1.068639863113e-03
1.440889800883e-04
1.419283150902e-03
1.245959101641e-03
1.331242292567e-03
1.147796151125e-03
1.075742183193e-03
9.451529551051e-05
1.082828816322e-03
1.002296268051e-03
1.337946435717e-03
5.673086547968e-05
3.691652393158e-04
1.461117202832e-03
7.819954349901e-04
5.201893504755e-04
9.016871405689e-04
1.012831067414e-03
2.223632214635e-04
1.156120981283e-03
9.940343649036e-04
2.764588840334e-05
1.422705872298e-03
1.091091564826e-03
1.110491274392e-03
1.134026270269e-03
1.154865564080e-03
1.181078906709e-03
1.197520269838e-03
1.170791320330e-03
1.211531264223e-03
1.183272562220e-03
1.223584611349e-03
1.222562153459e-03
1.192507833062e-03
1.230495351999e-03
1.198440536271e-03
1.160840037148e-03
1.164281587245e-03
1.127164584461e-03
1.127662452869e-03
1.164326740067e-03
1.124440289138e-03
1.088055519956e-03
1.081217858855e-03
1.045166166236e-03
1.034347602283e-03
9.982410281459e-04
9.832771770096e-04
1.021174005194e-03
9.666177503512e-04
9.276235629895e-04
9.078860957634e-04
8.671561610607e-04
8.449650260124e-04
8.890202197988e-04
8.250767295390e-04
7.781115106509e-04
7.586889261177e-04
7.087311774834e-04
6.910897800123e-04
6.382038659002e-04
6.230560547585e-04
6.778936982557e-04
6.128477600328e-04
5.563163198099e-04
5.498684617217e-04
6.074507500563e-04
5.482516645504e-04
6.065044571622e-04
5.508893210900e-04
4.932618849734e-04
4.994292789905e-04
5.570606835363e-04
5.085659889959e-04
4.525227698347e-04
4.646022139394e-04
5.205071770166e-04
4.788806320550e-04
4.250417425326e-04
4.412430348895e-04
4.952488699230e-04
4.588032983349e-04
4.070960608222e-04
4.255968995502e-04
4.777460054008e-04
4.450235479980e-04
4.976831181437e-04
3.947150294522e-04
4.145564945038e-04
3.659287848751e-04
3.860848716251e-04
8.723556258612e-04
3.390436885999e-04
3.200064527655e-04
3.591781397382e-04
4.070687856528e-04
3.133644240764e-04
3.333434791653e-04
2.886384176805e-04
6.576200782295e-04
1.161431758869e-03
3.083065167596e-04
2.644083717615e-04
2.455489773982e-04
2.217677230365e-04
1.206070850456e-03
1.248998988123e-03
1.229778241678e-03
1.273701327701e-03
1.254925654610e-03
2.401888170597e-04
1.260920569500e-03
1.290397931794e-03
1.052407935991e-03
8.900042093568e-04
6.654343106655e-04
3.537599603906e-04
3.284205999892e-04
3.746972093700e-04
5.323462728143e-04
5.525940681965e-04
5.891094294056e-04
6.096059954599e-04
6.478815081327e-04
6.686894906026e-04
6.310911000512e-04
6.905670370022e-04
6.534438525695e-04
7.086054360112e-04
6.886246733329e-04
7.133403575479e-04
6.765928807191e-04
7.370048520823e-04
7.004359801054e-04
6.415644096264e-04
6.653828426186e-04
6.083273864839e-04
6.652805626886e-04
7.238592488713e-04
7.245164265309e-04
7.826200918540e-04
7.843575045734e-04
8.419230618526e-04
8.448956784880e-04
7.894397714266e-04
1.235245442057e-03
4.926062794501e-04
4.998067403485e-04
4.357585325394e-04
4.435985787584e-04
3.796809419704e-04
3.883112317528e-04
3.250799328183e-04
3.224676611004e-04
2.697874457812e-04
2.731712006789e-04
2.236014701847e-04
2.323849836898e-04
1.006895391557e-03
8.421268413359e-04
9.006759610176e-04
9.017887482819e-04
2.038009453108e-04
7.248872484274e-04
7.509736044053e-04
7.317594249121e-04
8.514647550492e-04
1.981599264875e-04
3.350196467902e-04
4.041419428333e-04
1.297511633064e-03
1.278565454945e-03
7.958338144044e-04
2.161477886519e-04
7.521835603795e-04
2.205384552628e-04
6.897040130216e-04
7.498241914054e-04
5.957704073269e-04
9.595390761494e-04
9.607550578264e-04
2.819471196963e-04
2.453144839233e-04
2.013386178118e-04
2.169122269724e-04
2.601211194218e-04
2.315712335666e-04
1.908839166827e-04
2.071570095692e-04
2.485089694531e-04
2.241969528315e-04
1.853064237690e-04
2.017210953950e-04
7.865041367936e-04
1.786783017110e-04
1.122634578333e-03
8.151363555144e-04
9.062508686650e-04
1.320787078757e-03
1.301806667743e-03
1.257875513867e-03
1.281515268805e-03
1.324726566470e-03
1.304702871123e-03
1.260142310469e-03
1.283597015119e-03
1.237781426782e-03
1.261704129845e-03
1.306843015804e-03
1.285433362519e-03
1.239345372868e-03
1.263500047168e-03
1.216513688465e-03
1.240872295946e-03
1.287499678735e-03
1.752027772299e-04
7.977870951277e-04
8.618510627169e-04
3.503926909636e-04
3.952886445652e-04
4.225734793911e-04
4.446801986005e-04
1.265147934802e-03
1.311547020932e-03
3.533789770540e-04
4.279272429749e-04
1.338118917779e-03
7.148447886485e-04
6.562327850513e-04
8.275898888605e-04
8.536688254682e-04
7.887596638970e-04
8.178926146031e-04
8.781724913854e-04
7.497104135288e-04
6.695045890158e-04
1.329961384197e-03
2.273609035795e-04
1.866616923933e-04
7.758358702521e-04
7.357733458958e-04
1.060463278849e-03
1.048438196619e-03
1.101046362868e-03
1.091139594104e-03
1.142773718501e-03
1.134921211483e-03
1.082065369516e-03
1.017514116188e-03
1.128533927628e-03
1.217141839693e-03
8.447680043969e-04
2.664385904229e-04
1.572558893309e-04
1.635857578786e-04
1.912702787993e-04
2.346268544066e-04
8.614985184719e-04
1.185609445874e-03
1.190890176315e-03
8.451674670408e-04
8.979004776542e-04
1.017716659465e-03
1.209745403743e-03
1.213749217429e-03
1.189955886778e-03
1.450742301976e-04
1.503583941025e-04
1.347366135220e-03
4.786893258554e-04
5.075556367197e-04
1.767048374632e-04
1.408735341574e-04
1.288817550592e-03
1.334240853833e-03
4.723004721340e-04
4.950163046224e-04
8.433929489936e-04
1.800322144604e-04
1.355972527109e-03
7.464391863531e-04
6.846799539864e-04
4.166563834004e-04
3.812858289820e-04
3.075612729599e-04
2.933558972113e-04
2.188361625384e-04
2.097152558690e-04
9.105976326189e-04
1.365679521523e-03
1.074978008608e-03
1.026414534507e-03
1.123949686223e-03
1.441197010165e-04
8.822997171223e-04
7.409339457025e-04
1.231267524685e-03
1.235316611683e-03
5.566821212991e-04
5.903148477929e-04
5.445305819049e-04
6.300436272191e-04
1.142951896769e-03
6.367035753067e-04
1.089870403215e-03
1.083570584291e-03
1.051987225766e-03
9.302082046435e-04
9.423027511900e-04
5.124496134723e-04
7.266507562497e-04
4.502874859229e-04
5.851431143232e-04
5.696634403457e-04
1.350062481190e-03
1.372978729239e-03
1.191623334572e-03
1.167541525146e-03
1.629606873452e-04
1.472071667925e-04
5.185774786889e-04
8.357847909578e-04
1.360513543198e-03
1.376329451930e-03
1.353524146457e-03
8.926404613189e-04
4.336520945453e-04
6.686368914700e-04
1.493188688131e-04
9.338223306024e-04
1.233627489636e-04
1.201025923554e-03
8.026976688584e-04
8.386036855185e-04
1.073547708741e-03
1.084974165795e-03
9.203680190171e-04
8.589269733808e-04
1.043204569484e-03
1.013035561913e-03
1.018470663838e-03
9.806465412527e-04
3.111570737243e-04
2.843925700883e-04
1.232839139932e-03
1.175392850831e-03
1.274021906971e-03
1.277418454599e-03
1.075776502960e-03
1.019831195721e-03
2.524055547218e-04
9.085495246026e-04
1.387793616810e-03
1.072305632159e-03
9.023373251646e-04
8.583801475266e-04
1.201484136638e-04
1.288050631299e-04
1.379048828008e-03
5.871783885586e-04
6.719410154960e-04
5.004380957370e-04
9.342228759126e-04
1.065656412663e-03
8.664371667885e-04
9.760732150949e-04
1.399987219943e-03
9.104002511040e-04
7.586179098416e-04
8.265835947379e-04
1.355109977692e-03
1.403348238438e-03
1.164993405178e-03
1.139238083582e-03
1.187945042782e-03
2.250757822092e-04
1.830045978841e-04
1.352927523032e-03
3.037507422106e-04
3.287812654248e-04
1.954784401571e-04
2.351892044509e-04
5.011663205837e-04
4.789517686030e-04
1.199080023815e-03
1.238458742179e-03
1.110358250105e-03
6.974695387665e-04
6.366741297244e-04
6.247097087330e-04
1.390737476458e-03
1.417665342873e-03
3.405989646594e-04
3.237788130459e-04
3.289020483532e-04
1.404881151975e-03
9.029655131501e-04
8.761407964711e-04
1.100130988748e-04
1.323936058095e-04
3.404741977076e-04
2.668582946631e-04
1.388977153270e-03
1.367389088088e-03
1.414353372996e-03
2.245229016202e-04
1.020116195755e-03
9.596910130463e-04
9.431999930705e-04
9.875491759187e-04
1.072391029300e-03
1.125285671187e-03
1.174309401901e-03
1.135805944332e-04
1.387856936102e-03
1.139682967111e-03
1.105419343860e-04
1.115211349923e-03
1.143140591144e-03
1.088071987148e-03
1.817466769857e-04
1.131041901352e-03
1.162845214999e-03
8.954021738470e-05
1.425623070371e-03
8.749878318645e-05
1.001489789498e-04
9.251122433480e-04
8.809334585404e-04
9.472248007839e-04
9.036663824592e-04
8.387334581067e-04
8.645859027119e-04
1.112848841140e-03
9.394776205246e-04
8.921387638963e-04
9.670658813517e-04
9.726051293810e-04
7.108658571370e-04
7.503446697983e-04
7.177147142992e-04
1.320575600175e-03
1.313069703441e-03
7.692782761741e-04
7.084077298366e-04
1.116087408400e-03
1.112214185403e-03
1.157847409875e-03
1.150994536491e-03
1.195979141841e-03
1.188211236962e-03
1.233165363681e-03
1.228545461144e-03
5.456957076372e-04
1.029670901979e-03
1.079764266035e-03
1.021405925919e-03
9.457954191102e-04
9.086894788123e-04
9.597038243024e-04
6.064926701095e-04
1.445805408288e-03
1.280679944485e-04
1.386446199123e-04
6.830553102463e-04
9.820589765783e-04
7.824266038738e-04
8.137015790611e-04
7.607393910615e-04
1.198805045524e-04
4.184692081371e-04
1.239358205753e-03
3.850431828310e-04
7.395319902346e-04
5.844675993478e-04
9.635799267696e-04
4.607688972897e-04
6.736635223524e-04
1.153696004954e-03
1.128646036123e-03
1.101011724000e-03
5.678649611729e-04
8.670818783779e-04
8.298204733528e-04
1.091150150389e-03
1.329848104817e-03
1.342868221936e-03
1.377281744503e-03
1.353588413126e-03
1.317408220882e-03
1.327332545319e-03
1.362245333948e-03
1.335767469513e-03
1.376087278467e-03
1.340498496630e-03
1.304503752477e-03
1.308036654772e-03
1.340627495857e-03
1.271911078911e-03
1.134908677555e-03
7.307216270700e-04
1.386827921794e-04
1.846397091150e-04
1.010169189675e-03
1.414085021586e-03
1.431507468708e-03
4.576330063169e-04
1.349698564339e-03
1.113807492865e-03
2.733774447701e-04
1.310813409434e-03
1.305065298508e-03
1.278683703295e-03
1.264982706018e-03
1.442658533268e-03
1.211621275313e-03
1.223832141331e-03
7.841680977938e-04
7.885376901462e-04
7.329638007579e-04
1.298398998392e-03
1.127820771222e-03
1.059326392360e-03
1.040205678793e-03
9.882239567316e-04
1.089987675777e-03
1.396216997858e-03
1.384054788022e-03
2.761192529892e-04
3.081837138898e-04
3.586752115177e-04
3.453982335636e-04
2.940153017207e-04
3.341691835623e-04
3.880732880218e-04
3.259553263819e-04
1.276426701436e-03
1.060693319313e-03
6.281521058934e-04
6.093866267950e-04
5.513696055067e-04
4.285731468732e-04
4.570240300951e-04
5.088763081273e-04
4.012587162241e-04
1.036627547893e-03
1.046838427100e-03
6.751456742938e-04
4.354336882200e-04
1.086127890948e-03
1.130996388428e-03
1.133313499045e-03
1.177908525650e-03
1.133816767806e-03
5.238641464583e-04
5.468617304344e-04
5.178793210863e-04
5.700824363617e-04
5.394722559408e-04
4.918508551191e-04
5.924853947211e-04
5.582903070514e-04
1.081440230203e-03
1.014533216273e-04
1.066167507521e-04
1.029882328942e-04
1.253634516858e-04
1.263055457221e-04
1.534078280470e-04
1.491743687400e-04
1.085641913929e-04
8.615538397574e-05
9.820298390146e-05
7.737518918192e-05
9.299097872513e-05
1.251111594911e-04
1.713971762496e-04
9.758981402549e-04
4.165802300299e-04
3.934562493672e-04
3.479675036133e-04
3.722965847650e-04
4.359282877851e-04
3.236731240115e-04
3.072774938424e-04
3.096909290233e-05
6.484729548995e-05
6.111933475555e-05
1.031498040817e-04
1.028225705063e-04
6.640319514580e-05
6.834022478757e-05
3.577674250931e-05
7.021886043018e-05
1.069442808476e-04
3.793664925667e-05
1.294121749949e-03
1.319179772455e-03
1.021292229571e-03
1.082617756855e-03
6.249306624699e-05
1.448245728209e-03
1.453523522188e-03
1.454693241860e-03
8.673274421955e-04
9.001594474539e-04
1.449664030392e-03
2.693935266708e-04
1.386995714539e-03
1.375898912557e-03
2.854693740273e-04
2.594954420985e-04
6.814050513451e-04
6.184005488583e-04
8.119006718538e-04
6.320825874243e-04
7.614773627603e-04
1.015422794080e-03
1.676887324170e-04
1.214651287381e-03
1.193066108931e-03
1.309028139882e-03
2.837562233033e-04
4.686166904878e-04
1.804049521914e-04
1.284921181525e-03
1.055038797313e-03
5.131523501875e-04
3.799866033054e-04
2.941441483403e-04
2.419765115266e-04
8.016106622312e-04
4.654961983049e-04
7.298237594065e-04
1.332584803628e-03
5.476423254356e-05
7.712364628177e-04
5.737736264072e-04
1.236322708405e-03
9.019246817320e-04
1.712113681056e-04
1.327534274924e-03
1.396582329871e-03
1.186636323928e-03
1.393716363863e-04
1.165489288939e-03
9.298467744003e-04
1.314696842587e-03
2.591539167200e-04
6.094564033733e-04
9.468093539907e-04
1.039403496689e-03
1.394223051193e-03
8.085607464946e-04
9.158607360129e-04
7.285597114288e-04
2.790073430347e-04
8.159213094560e-04
6.695363154833e-04
1.369678070513e-03
1.150147998949e-03
4.906743035414e-04
1.343310974989e-03
5.347992649640e-04
9.600203218978e-04
1.017401695525e-03
1.071695069035e-03
1.201000617803e-03
9.497428465022e-04
6.493717332513e-04
7.931292406816e-04
1.871997532182e-04
7.162699996130e-04
1.233841269853e-03
1.178440197562e-03
1.409607466144e-03
9.118495337117e-04
7.752287529475e-04
1.381982289119e-03
4.868708006769e-04
1.924905045102e-04
2.441172852048e-04
3.774240263720e-04
7.435173897457e-04
5.402977592960e-04
1.404655532519e-03
7.993562622019e-04
7.777303072212e-04
2.952317894101e-04
1.057370407283e-03
8.245685557560e-04
6.156859652846e-04
9.623149910827e-04
5.083989041864e-04
1.260734799676e-03
9.415861945656e-04
8.514480889458e-04
8.107782214292e-04
5.310368230056e-04
1.067826573592e-03
9.271139252977e-04
8.770184303939e-04
9.926435461524e-04
5.661066255643e-04
9.854177197236e-04
5.625682217744e-04
1.118316091840e-03
1.446487354529e-03
9.269762594299e-04
1.238502295290e-03
5.310942346716e-04
9.044774134783e-04
1.040514481679e-04
1.001822924630e-03
5.537876098838e-04
3.806582132805e-04
5.778858997421e-04
1.129548183669e-03
5.769870179771e-04
4.365232233162e-04
6.005299768682e-04
9.299572203662e-04
1.251256010521e-03
6.241824282320e-04
1.156404974116e-03
1.126838816221e-04
9.795449811852e-04
8.330281294039e-04
3.469565612220e-04
5.923364045359e-04
1.290023944468e-03
8.723303646177e-04
6.518008315335e-04
1.195570338543e-03
9.694822262576e-04
7.963800498156e-04
7.135840777432e-04
8.749495486807e-04
2.513876945645e-04
2.107878230630e-04
4.430892161834e-04
1.237947070781e-03
1.401227900781e-04
1.267820825702e-03
1.568621557980e-04
3.982779364230e-04
1.018313984956e-03
1.203215738400e-03
4.107245828392e-04
2.360954443330e-04
3.734932105535e-04
8.497998186773e-04
3.898020054733e-04
3.579956918114e-04
1.417390612572e-03
3.759890289577e-04
1.456591592428e-03
9.767100309280e-04
1.105763277203e-03
8.087524809084e-04
1.184945235552e-04
7.848105097163e-04
3.020125412121e-04
1.237545617773e-03
1.108078490308e-03
2.765731072228e-04
1.371939366998e-03
1.268452337895e-03
1.272063186249e-03
9.679597638912e-04
9.637554515977e-04
1.378654151564e-03
1.067554704659e-03
8.857790993037e-05
6.788649841138e-04
7.316745234762e-04
6.289716815612e-04
4.634860301993e-04
2.948727516557e-04
1.228121576339e-04
5.965926176987e-04
1.075801373136e-03
1.119786932785e-03
1.071779049549e-03
4.434129812451e-04
1.417815091874e-03
1.183869034315e-03
1.008771615189e-03
1.124375611216e-03
3.096322105713e-04
1.167825448616e-03
1.305935991290e-03
1.308761000224e-03
1.001995926745e-03
1.117715708012e-03
1.422523072076e-03
1.612258999840e-04
1.422825941558e-03
1.274678605684e-03
1.170848224810e-03
1.166798893446e-03
9.332220188865e-04
1.392817472555e-03
2.315188656294e-04
1.269969288115e-03
3.722032952698e-04
1.086236614485e-04
9.614475145101e-04
1.309451959520e-03
9.326794971524e-04
1.014576614018e-04
7.728692523876e-05
9.912330550686e-04
1.349375487663e-03
1.796210626646e-04
1.458308851119e-03
1.690421165828e-04
1.065020381147e-03
7.001243630802e-05
9.944176050337e-04
1.424700715399e-03
4.140236960532e-04
1.090443392560e-03
2.661477944974e-04
1.214717659936e-03
1.132297309913e-04
1.428778977111e-03
1.020483233549e-03
1.418319036229e-03
1.188711956215e-03
1.158911286301e-04
1.221505701182e-03
9.827761196453e-04
1.065536012219e-03
1.404397779626e-03
3.309946203980e-04
1.404494331035e-04
1.460881744549e-03
2.319407018987e-05
1.060200588820e-03
9.907716001887e-04
1.316769003536e-04
1.142457988090e-03
1.365062064250e-03
5.223629997749e-04
1.353337428338e-03
1.425400175398e-04
1.146345788311e-04
1.228570776707e-03
1.170501166736e-03
1.426124689819e-03
1.196932985988e-03
2.173582910838e-04
1.337136536653e-03
4.505984617756e-04
1.268217076818e-03
1.022328450646e-03
1.621601640414e-04
5.685534977723e-04
7.026808503601e-05
9.601986426729e-04
4.726925020550e-04
7.172259514757e-04
7.394011151748e-04
7.780468966974e-04
7.854219990801e-04
8.414440357330e-04
8.407995918539e-04
9.010030712021e-04
8.907803103001e-04
9.580749338168e-04
9.465580220814e-04
1.012132256314e-03
9.962499619584e-04


CELL_DATA 2186

SCALARS element_number int
LOOKUP_TABLE default
407
408
409
410
411
412
413
414
415
416
417
418
419
420
421
422
423
424
425
426
427
428
429
430
431
432
433
434
435
436
437
438
439
440
441
442
443
444
445
446
447
448
449
450
451
452
453
454
455
456
457
458
459
460
461
462
463
464
465
466
467
468
469
470
471
472
473
474
475
476
477
478
479
480
481
482
483
484
485
486
487
488
489
490
491
492
493
494
495
496
497
498
499
500
501
502
503
504
505
506
507
508
509
510
511
512
513
514
515
516
517
518
519
520
521
522
523
524
525
526
527
528
529
530
531
532
533
534
535
536
537
538
539
540
541
542
543
544
545
546
547
548
549
550
551
552
553
554
555
556
557
558
559
560
561
562
563
564
565
566
567
568
569
570
571
572
573
574
575
576
577
578
579
580
581
582
583
584
585
586
587
588
589
590
591
592
593
594
595
596
597
598
599
600
601
602
603
604
605
606
607
608
609
610
611
612
613
614
615
616
617
618
619
620
621
622
623
624
625
626
627
628
629
630
631
632
633
634
635
636
637
638
639
640
641
642
643
644
645
646
647
648
649
650
651
652
653
654
655
656
657
658
659
660
661
662
663
664
665
666
667
668
669
670
671
672
673
674
675
676
677
678
679
680
681
682
683
684
685
686
687
688
689
690
691
692
693
694
695
696
697
698
699
700
701
702
703
704
705
706
707
708
709
710
711
712
713
714
715
716
717
718
719
720
721
722
723
724
725
726
727
728
729
730
731
732
733
734
735
736
737
738
739
740
741
742
743
744
745
746
747
748
749
750
751
752
753
754
755
756
757
758
759
760
761
762
763
764
765
766
767
768
769
770
771
772
773
774
775
776
777
778
779
780
781
782
783
784
785
786
787
788
789
790
791
792
793
794
795
796
797
798
799
800
801
802
803
804
805
806
807
808
809
810
811
812
813
814
815
816
817
818
819
820
821
822
823
824
825
826
827
828
829
830
831
832
833
834
835
836
837
838
839
840
841
842
843
844
845
846
847
848
849
850
851
852
853
854
855
856
857
858
859
860
861
862
863
864
865
866
867
868
869
870
871
872
873
874
875
876
877
878
879
880
881
882
883
884
885
886
887
888
889
890
891
892
893
894
895
896
897
898
899
900
901
902
903
904
905
906
907
908
909
910
911
912
913
914
915
916
917
918
919
920
921
922
923
924
925
926
927
928
929
930
931
932
933
934
935
936
937
938
939
940
941
942
943
944
945
946
947
948
949
950
951
952
953
954
955
956
957
958
959
960
961
962
963
964
965
966
967
968
969
970
971
972
973
974
975
976
977
978
979
980
981
982
983
984
985
986
987
988
989
990
991
992
993
994
995
996
997
998
999
1000
1001
1002
1003
1004
1005
1006
1007
1008
1009
1010
1011
1012
1013
1014
1015
1016
1017
1018
1019
1020
1021
1022
1023
1024
1025
1026
1027
1028
1029
1030
1031
1032
1033
1034
1035
1036
1037
1038
1039
1040
1041
1042
1043
1044
1045
1046
1047
1048
1049
1050
1051
1052
1053
1054
1055
1056
1057
1058
1059
1060
1061
1062
1063
1064
1065
1066
1067
1068
1069
1070
1071
1072
1073
1074
1075
1076
1077
1078
1079
1080
1081
1082
1083
1084
1085
1086
1087
1088
1089
1090
1091
1092
1093
1094
1095
1096
1097
1098
1099
1100
1101
1102
1103
1104
1105
1106
1107
1108
1109
1110
1111
1112
1113
1114
1115
1116
1117
1118
1119
1120
1121
1122
1123
1124
1125
1126
1127
1128
1129
1130
1131
1132
1133
1134
1135
1136
1137
1138
1139
1140
1141
1142
1143
1144
1145
1146
1147
1148
1149
1150
1151
1152
1153
1154
1155
1156
1157
1158
1159
1160
1161
1162
1163
1164
1165
1166
1167
1168
1169
1170
1171
1172
1173
1174
1175
1176
1177
1178
1179
1180
1181
1182
1183
1184
1185
1186
1187
1188
1189
1190
1191
1192
1193
1194
1195
1196
1197
1198
1199
1200
1201
1202
1203
1204
1205
1206
1207
1208
1209
1210
1211
1212
1213
1214
1215
1216
1217
1218
1219
1220
1221
1222
1223
1224
1225
1226
1227
1228
1229
1230
1231
1232
1233
1234
1235
1236
1237
1238
1239
1240
1241
1242
1243
1244
1245
1246
1247
1248
1249
1250
1251
1252
1253
1254
1255
1256
1257
1258
1259
1260
1261
1262
1263
1264
1265
1266
1267
1268
1269
1270
1271
1272
1273
1274
1275
1276
1277
1278
1279
1280
1281
1282
1283
1284
1285
1286
1287
1288
1289
1290
1291
1292
1293
1294
1295
1296
1297
1298
1299
1300
1301
1302
1303
1304
1305
1306
1307
1308
1309
1310
1311
1312
1313
1314
1315
1316
1317
1318
1319
1320
1321
1322
1323
1324
1325
1326
1327
1328
1329
1330
1331
1332
1333
1334
1335
1336
1337
1338
1339
1340
1341
1342
1343
1344
1345
1346
1347
1348
1349
1350
1351
1352
1353
1354
1355
1356
1357
1358
1359
1360
1361
1362
1363
1364
1365
1366
1367
1368
1369
1370
1371
1372
1373
1374
1375
1376
1377
1378
1379
1380
1381
1382
1383
1384
1385
1386
1387
1388
1389
1390
1391
1392
1393
1394
1395
1396
1397
1398
1399
1400
1401
1402
1403
1404
1405
1406
1407
1408
1409
1410
1411
1412
1413
1414
1415
1416
1417
1418
1419
1420
1421
1422
1423
1424
1425
1426
1427
1428
1429
1430
1431
1432
1433
1434
1435
1436
1437
1438
1439
1440
1441
1442
1443
1444
1445
1446
1447
1448
1449
1450
1451
1452
1453
1454
1455
1456
1457
1458
1459
1460
1461
1462
1463
1464
1465
1466
1467
1468
1469
1470
1471
1472
1473
1474
1475
1476
1477
1478
1479
1480
1481
1482
1483
1484
1485
1486
1487
1488
1489
1490
1491
1492
1493
1494
1495
1496
1497
1498
1499
1500
1501
1502
1503
1504
1505
1506
1507
1508
1509
1510
1511
1512
1513
1514
1515
1516
1517
1518
1519
1520
1521
1522
1523
1524
1525
1526
1527
1528
1529
1530
1531
1532
1533
1534
1535
1536
1537
1538
1539
1540
1541
1542
1543
1544
1545
1546
1547
1548
1549
1550
1551
1552
1553
1554
1555
1556
1557
1558
1559
1560
1561
1562
1563
1564
1565
1566
1567
1568
1569
1570
1571
1572
1573
1574
1575
1576
1577
1578
1579
1580
1581
1582
1583
1584
1585
1586
1587
1588
1589
1590
1591
1592
1593
1594
1595
1596
1597
1598
1599
1600
1601
1602
1603
1604
1605
1606
1607
1608
1609
1610
1611
1612
1613
1614
1615
1616
1617
1618
1619
1620
1621
1622
1623
1624
1625
1626
1627
1628
1629
1630
1631
1632
1633
1634
1635
1636
1637
1638
1639
1640
1641
1642
1643
1644
1645
1646
1647
1648
1649
1650
1651
1652
1653
1654
1655
1656
1657
1658
1659
1660
1661
1662
1663
1664
1665
1666
1667
1668
1669
1670
1671
1672
1673
1674
1675
1676
1677
1678
1679
1680
1681
1682
1683
1684
1685
1686
1687
1688
1689
1690
1691
1692
1693
1694
1695
1696
1697
1698
1699
1700
1701
1702
1703
1704
1705
1706
1707
1708
1709
1710
1711
1712
1713
1714
1715
1716
1717
1718
1719
1720
1721
1722
1723
1724
1725
1726
1727
1728
1729
1730
1731
1732
1733
1734
1735
1736
1737
1738
1739
1740
1741
1742
1743
1744
1745
1746
1747
1748
1749
1750
1751
1752
1753
1754
1755
1756
1757
1758
1759
1760
1761
1762
1763
1764
1765
1766
1767
1768
1769
1770
1771
1772
1773
1774
1775
1776
1777
1778
1779
1780
1781
1782
1783
1784
1785
1786
1787
1788
1789
1790
1791
1792
1793
1794
1795
1796
1797
1798
1799
1800
1801
1802
1803
1804
1805
1806
1807
1808
1809
1810
1811
1812
1813
1814
1815
1816
1817
1818
1819
1820
1821
1822
1823
1824
1825
1826
1827
1828
1829
1830
1831
1832
1833
1834
1835
1836
1837
1838
1839
1840
1841
1842
1843
1844
1845
1846
1847
1848
1849
1850
1851
1852
1853
1854
1855
1856
1857
1858
1859
1860
1861
1862
1863
1864
1865
1866
1867
1868
1869
1870
1871
1872
1873
1874
1875
1876
1877
1878
1879
1880
1881
1882
1883
1884
1885
1886
1887
1888
1889
1890
1891
1892
1893
1894
1895
1896
1897
1898
1899
1900
1901
1902
1903
1904
1905
1906
1907
1908
1909
1910
1911
1912
1913
1914
1915
1916
1917
1918
1919
1920
1921
1922
1923
1924
1925
1926
1927
1928
1929
1930
1931
1932
1933
1934
1935
1936
1937
1938
1939
1940
1941
1942
1943
1944
1945
1946
1947
1948
1949
1950
1951
1952
1953
1954
1955
1956
1957
1958
1959
1960
1961
1962
1963
1964
1965
1966
1967
1968
1969
1970
1971
1972
1973
1974
1975
1976
1977
1978
1979
1980
1981
1982
1983
1984
1985
1986
1987
1988
1989
1990
1991
1992
1993
1994
1995
1996
1997
1998
1999
2000
2001
2002
2003
2004
2005
2006
2007
2008
2009
2010
2011
2012
2013
2014
2015
2016
2017
2018
2019
2020
2021
2022
2023
2024
2025
2026
2027
2028
2029
2030
2031
2032
2033
2034
2035
2036
2037
2038
2039
2040
2041
2042
2043
2044
2045
2046
2047
2048
2049
2050
2051
2052
2053
2054
2055
2056
2057
2058
2059
2060
2061
2062
2063
2064
2065
2066
2067
2068
2069
2070
2071
2072
2073
2074
2075
2076
2077
2078
2079
2080
2081
2082
2083
2084
2085
2086
2087
2088
2089
2090
2091
2092
2093
2094
2095
2096
2097
2098
2099
2100
2101
2102
2103
2104
2105
2106
2107
2108
2109
2110
2111
2112
2113
2114
2115
2116
2117
2118
2119
2120
2121
2122
2123
2124
2125
2126
2127
2128
2129
2130
2131
2132
2133
2134
2135
2136
2137
2138
2139
2140
2141
2142
2143
2144
2145
2146
2147
2148
2149
2150
2151
2152
2153
2154
2155
2156
2157
2158
2159
2160
2161
2162
2163
2164
2165
2166
2167
2168
2169
2170
2171
2172
2173
2174
2175
2176
2177
2178
2179
2180
2181
2182
2183
2184
2185
2186
2187
2188
2189
2190
2191
2192
2193
2194
2195
2196
2197
2198
2199
2200
2201
2202
2203
2204
2205
2206
2207
2208
2209
2210
2211
2212
2213
2214
2215
2216
2217
2218
2219
2220
2221
2222
2223
2224
2225
2226
2227
2228
2229
2230
2231
2232
2233
2234
2235
2236
2237
2238
2239
2240
2241
2242
2243
2244
2245
2246
2247
2248
2249
2250
2251
2252
2253
2254
2255
2256
2257
2258
2259
2260
2261
2262
2263
2264
2265
2266
2267
2268
2269
2270
2271
2272
2273
2274
2275
2276
2277
2278
2279
2280
2281
2282
2283
2284
2285
2286
2287
2288
2289
2290
2291
2292
2293
2294
2295
2296
2297
2298
2299
2300
2301
2302
2303
2304
2305
2306
2307
2308
2309
2310
2311
2312
2313
2314
2315
2316
2317
2318
2319
2320
2321
2322
2323
2324
2325
2564
2565
2566
2567
2568
2569
2570
2571
2572
2573
2574
2575
2576
2577
2578
2579
2580
2581
2582
2583
2584
2585
2586
2587
2588
2589
2590
2591
2592
2593
2594
2595
2596
2597
2598
2599
2600
2601
2602
2603
2604
2605
2606
2607
2608
2609
2610
2611
2612
2613
2614
2615
2616
2617
2618
2619
2620
2621
2622
2623
2624
2625
2626
2627
2628
2629
2630
2631
2632
2633
2634
2635
2636
2637
2638
2639
2640
2641
2642
2643
2644
2645
2646
2647
2648
2649
2650
2651
2652
2653
2654
2655
2656
2657
2658
2659
2660
2661
2662
2663
2664
2665
2666
2667
2668
2669
2670
2671
2672
2673
2674
2675
2676
2677
2678
2679
2680
2681
2682
2683
2684
2685
2686
2687
2688
2689
2690
2691
2692
2693
2694
2695
2696
2697
2698
2699
2700
2701
2702
2703
2704
2705
2706
2707
2708
2709
2710
2711
2712
2713
2714
2715
2716
2717
2718
2719
2720
2721
2722
2723
2724
2725
2726
2727
2728
2729
2730
2731
2732
2733
2734
2735
2736
2737
2738
2739
2740
2741
2742
2743
2744
2745
2746
2747
2748
2749
2750
2751
2752
2753
2754
2755
2756
2757
2758
2759
2760
2761
2762
2763
2764
2765
2766
2767
2768
2769
2770
2771
2772
2773
2774
2775
2776
2777
2778
2779
2780
2781
2782
2783
2784
2785
2786
2787
2788
2789
2790
2791
2792
2793
2794
2795
2796
2797
2798
2799
2800
2801
2802
2803
2804
2805
2806
2807
2808
2809
2810
2811
2812
2813
2814
2815
2816
2817
2818
2819
2820
2821
2822
2823
2824
2825
2826
2827
2828
2829
2830

SCALARS element_group int
LOOKUP_TABLE default
0
0
0
0
0
0
0
0
0
0
0
0
0
0
0
0
0
0
0
0
0
0
0
0
0
0
0
0
0
0
0
0
0
0
0
0
0
0
0
0
0
0
0
0
0
0
0
0
0
0
0
0
0
0
0
0
0
0
0
0
0
0
0
0
0
0
0
0
0
0
0
0
0
0
0
0
0
0
0
0
0
0
0
0
0
0
0
0
0
0
0
0
0
0
0
0
0
0
0
0
0
0
0
0
0
0
0
0
0
0
0
0
0
0
0
0
0
0
0
0
0
0
0
0
0
0
0
0
0
0
0
0
0
0
0
0
0
0
0
0
0
0
0
0
0
0
0
0
0
0
0
0
0
0
0
0
0
0
0
0
0
0
0
0
0
0
0
0
0
0
0
0
0
0
0
0
0
0
0
0
0
0
0
0
0
0
0
0
0
0
0
0
0
0
0
0
0
0
0
0
0
0
0
0
0
0
0
0
0
0
0
0
0
0
0
0
0
0
0
0
0
0
0
0
0
0
0
0
0
0
0
0
0
0
0
0
0
0
0
0
0
0
0
0
0
0
0
0
0
0
0
0
0
0
0
0
0
0
0
0
0
0
0
0
0
0
0
0
0
0
0
0
0
0
0
0
0
0
0
0
0
0
0
0
0
0
0
0
0
0
0
0
0
0
0
0
0
0
0
0
0
0
0
0
0
0
0
0
0
0
0
0
0
0
0
0
0
0
0
0
0
0
0
0
0
0
0
0
0
0
0
0
0
0
0
0
0
0
0
0
0
0
0
0
0
0
0
0
0
0
0
0
0
0
0
0
0
0
0
0
0
0
0
0
0
0
0
0
0
0
0
0
0
0
0
0
0
0
0
0
0
0
0
0
0
0
0
0
0
0
0
0
0
0
0
0
0
0
0
0
0
0
0
0
0
0
0
0
0
0
0
0
0
0
0
0
0
0
0
0
0
0
0
0
0
0
0
0
0
0
0
0
0
0
0
0
0
0
0
0
0
0
0
0
0
0
0
0
0
0
0
0
0
0
0
0
0
0
0
0
0
0
0
0
0
0
0
0
0
0
0
0
0
0
0
0
0
0
0
0
0
0
0
0
0
0
0
0
0
0
0
0
0
0
0
0
0
0
0
0
0
0
0
0
0
0
0
0
0
0
0
0
0
0
0
0
0
0
0
0
0
0
0
0
0
0
0
0
0
0
0
0
0
0
0
0
0
0
0
0
0
0
0
0
0
0
0
0
0
0
0
0
0
0
0
0
0
0
0
0
0
0
0
0
0
0
0
0
0
0
0
0
0
0
0
0
0
0
0
0
0
0
0
0
0
0
0
0
0
0
0
0
0
0
0
0
0
0
0
0
0
0
0
0
0
0
0
0
0
0
0
0
0
0
0
0
0
0
0
0
0
0
0
0
0
0
0
0
0
0
0
0
0
0
0
0
0
0
0
0
0
0
0
0
0
0
0
0
0
0
0
0
0
0
0
0
0
0
0
0
0
0
0
0
0
0
0
0
0
0
0
0
0
0
0
0
0
0
0
0
0
0
0
0
0
0
0
0
0
0
0
0
0
0
0
0
0
0
0
0
0
0
0
0
0
0
0
0
0
0
0
0
0
0
0
0
0
0
0
0
0
0
0
0
0
0
0
0
0
0
0
0
0
0
0
0
0
0
0
0
0
0
0
0
0
0
0
0
0
0
0
0
0
0
0
0
0
0
0
0
0
0
0
0
0
0
0
0
0
0
0
0
0
0
0
0
0
0
0
0
0
0
0
0
0
0
0
0
0
0
0
0
0
0
0
0
0
0
0
0
0
0
0
0
0
0
0
0
0
0
0
0
0
0
0
0
0
0
0
0
0
0
0
0
0
0
0
0
0
0
0
0
0
0
0
0
0
0
0
0
0
0
0
0
0
0
0
0
0
0
0
0
0
0
0
0
0
0
0
0
0
0
0
0
0
0
0
0
0
0
0
0
0
0
0
0
0
0
0
0
0
0
0
0
0
0
0
0
0
0
0
0
0
0
0
0
0
0
0
0
0
0
0
0
0
0
0
0
0
0
0
0
0
0
0
0
0
0
0
0
0
0
0
0
0
0
0
0
0
0
0
0
0
0
0
0
0
0
0
0
0
0
0
0
0
0
0
0
0
0
0
0
0
0
0
0
0
0
0
0
0
0
0
0
0
0
0
0
0
0
0
0
0
0
0
0
0
0
0
0
0
0
0
0
0
0
0
0
0
0
0
0
0
0
0
0
0
0
0
0
0
0
0
0
0
0
0
0
0
0
0
0
0
0
0
0
0
0
0
0
0
0
0
0
0
0
0
0
0
0
0
0
0
0
0
0
0
0
0
0
0
0
0
0
0
0
0
0
0
0
0
0
0
0
0
0
0
0
0
0
0
0
0
0
0
0
0
0
0
0
0
0
0
0
0
0
0
0
0
0
0
0
0
0
0
0
0
0
0
0
0
0
0
0
0
0
0
0
0
0
0
0
0
0
0
0
0
0
0
0
0
0
0
0
0
0
0
0
0
0
0
0
0
0
0
0
0
0
0
0
0
0
0
0
0
0
0
0
0
0
0
0
0
0
0
0
0
0
0
0
0
0
0
0
0
0
0
0
0
0
0
0
0
0
0
0
0
0
0
0
0
0
0
0
0
0
0
0
0
0
0
0
0
0
0
0
0
0
0
0
0
0
0
0
0
0
0
0
0
0
0
0
0
0
0
0
0
0
0
0
0
0
0
0
0
0
0
0
0
0
0
0
0
0
0
0
0
0
0
0
0
0
0
0
0
0
0
0
0
0
0
0
0
0
0
0
0
0
0
0
0
0
0
0
0
0
0
0
0
0
0
0
0
0
0
0
0
0
0
0
0
0
0
0
0
0
0
0
0
0
0
0
0
0
0
0
0
0
0
0
0
0
0
0
0
0
0
0
0
0
0
0
0
0
0
0
0
0
0
0
0
0
0
0
0
0
0
0
0
0
0
0
0
0
0
0
0
0
0
0
0
0
0
0
0
0
0
0
0
0
0
0
0
0
0
0
0
0
0
0
0
0
0
0
0
0
0
0
0
0
0
0
0
0
0
0
0
0
0
0
0
0
0
0
0
0
0
0
0
0
0
0
0
0
0
0
0
0
0
0
0
0
0
0
0
0
0
0
0
0
0
0
0
0
0
0
0
0
0
0
0
0
0
0
0
0
0
0
0
0
0
0
0
0
0
0
0
0
0
0
0
0
0
0
0
0
0
0
0
0
0
0
0
0
0
0
0
0
0
0
0
0
0
0
0
0
0
0
0
0
0
0
0
0
0
0
0
0
0
0
0
0
0
0
0
0
0
0
0
0
0
0
0
0
0
0
0
0
0
0
0
0
0
0
0
0
0
0
0
0
0
0
0
0
0
0
0
0
0
0
0
0
0
0
0
0
0
0
0
0
0
0
0
0
0
0
0
0
0
0
0
0
0
0
0
0
0
0
0
0
0
0
0
0
0
0
0
0
0
0
0
0
0
0
0
0
0
0
0
0
0
0
0
0
0
0
0
0
0
0
0
0
0
0
0
0
0
0
0
0
0
0
0
0
0
0
0
0
0
0
0
0
0
0
0
0
0
0
0
0
0
0
0
0
0
0
0
0
0
0
0
0
0
0
0
0
0
0
0
0
0
0
0
0
0
0
0
0
0
0
0
0
0
0
0
0
0
0
0
0
0
0
0
0
0
0
0
0
0
0
0
0
0
0
0
0
0
0
0
0
0
0
0
0
0
0
0
0
0
0
0
0
0
0
0
0
0
0
0
0
0
0
0
0
0
0
0
0
0
0
0
0
0
0
0
0
0
0
0
0
0
0
0
0
0
0
0
0
0
0
0
0
0
0
0
0
0
0
0
0
0
0
0
0
0
0
0
0
0
0
0
0
0
0
0
0
0
0
0
0
0
0
0
0
0
0
0
0
0
0
0
0
0
0
0
0
0
0
0
0
0
0
0
0
0
0
0
0
0
0
0
0
0
0
0
0
0
0
0
0
0
0
0
0
0
0
0
0
0
0
0
0
0
0
0
0
0
0
0
0
0
0
0
0
0
0
0
0
0
0
0
0
0
0
0
0
0
0
0
0
0
0
0
0
0
0
0
0
0
0
0
0
0
0
0
0
0
0
0
0
0
0
0
0
0
0
0
0
0
0
0
0
0
0
0
0
0
0
0
0
0
0
0
0
0
0
0
0
0
0
0
0
0
0
0
0
0
0
0
0
0
0
0
0
0
0
0
0
0
0
0
0
0
0
0
0
0
0
0
0
0
0
0
0
0
0
0
0
0
0
0
0
0
0
0
0
0
0
0
0
0
0
0
0
0
0
0
0
0
0
0
0
0
0
0
0
0
0
0
0
0
0
0
0
0
0
0
0
0
0
0
0
0
0
0
0
0
0
0
0
0
0
0
0
0
0
0
0
0
0
0
0
0
0
0
0
0
0
0
0
0
0
0
0
0
0
0
0
0
0
0
0
0
0
0
0
0
0
0
0
0
0
0
0
0
0
0
0
0
0
0
0
0
0
0
0
0
0
0
0
0
0
0
0
0
0
0
0
0
0
0
0
0
0
0
0
0
0
0
0
0
0
0
0
0
0
0
0
0
0
0
0
0
0
0
0
0
0
0
0
0
0
0
0
0
0
0
0
0
0
0
0
0
0
0
0
0
0
0
0
0
0
0
0
0
0
0
0
0
0
0
0
0
0
0
0
0
0
0
0
0
0
0
0
0
0
0
0
0
0
0
0
0
0
0
0
0
0
0
0
0
0
0
0
0
0
0
0
0
0
0
0
0
0
0
0
0
0
0
0
0
0
0
0
0
0
0
0
0
0
0
0
0
0
0
0
0
0
0
0
0
0
0
0
0
0
0
0
0
0
0
0
0
0
0
0
0
0
0
0
0
0
0
0
0
0


VECTORS element_materi_velocity float
2.661952161040e-04 1.402673111855e-03 0.0 
2.879082614267e-04 1.293038066502e-03 0.0 
9.656184093683e-05 1.447369172732e-04 0.0 
1.252773467795e-05 2.239291574663e-04 0.0 
1.254037135402e-04 1.252869785058e-03 0.0 
-7.777694847575e-05 2.426525442902e-04 0.0 
9.429901429462e-05 1.242505174282e-03 0.0 
2.572993965299e-04 1.210905281323e-03 0.0 
1.043852557060e-04 1.249977846356e-03 0.0 
1.833444911596e-05 2.291560544689e-04 0.0 
1.829250887630e-05 -3.568486316801e-05 0.0 
2.008444588656e-04 1.248756032113e-03 0.0 
8.655728049071e-06 -7.372705206569e-07 0.0 
1.907621824861e-04 1.110769986786e-03 0.0 
7.155480951957e-06 4.966024656363e-08 0.0 
1.010847184546e-05 1.582223439389e-04 0.0 
1.621198195032e-04 1.299413803043e-03 0.0 
-6.665644209709e-05 2.073260457933e-04 0.0 
6.659478252133e-06 -9.671367594054e-05 0.0 
5.755809066621e-06 -9.571818100800e-05 0.0 
2.179289588415e-05 2.347552714176e-04 0.0 
3.162837040803e-04 1.478748188355e-03 0.0 
3.417932751045e-04 1.435356732838e-03 0.0 
1.201198185454e-04 2.850858129265e-05 0.0 
2.212427639575e-04 9.575993531032e-04 0.0 
2.032078037490e-05 -3.094264321507e-05 0.0 
2.545683933945e-04 1.393284631798e-03 0.0 
1.407715841364e-04 9.542424183037e-05 0.0 
2.348037755835e-04 9.545935116927e-04 0.0 
9.844904710470e-05 2.333433377777e-05 0.0 
-2.074712839484e-06 2.198061578836e-05 0.0 
-1.098505144774e-05 -7.938394018280e-05 0.0 
1.111435135567e-04 1.783622807055e-04 0.0 
5.938138319040e-06 -1.188578817085e-05 0.0 
4.769903950927e-05 5.627476885087e-06 0.0 
1.338436632004e-05 1.159345733209e-06 0.0 
1.222761892674e-05 9.648036168800e-07 0.0 
1.161503195701e-04 4.612141115469e-05 0.0 
7.833194058860e-05 1.386455352451e-03 0.0 
7.123287753848e-05 1.388434052211e-03 0.0 
3.534500537199e-04 1.448681718316e-03 0.0 
4.694677200735e-05 8.062513077387e-06 0.0 
8.820270993505e-05 9.472239599333e-04 0.0 
2.667286460803e-04 1.338935523207e-03 0.0 
6.699660164580e-06 3.172606096770e-04 0.0 
8.369549850285e-05 8.234410400527e-04 0.0 
-2.475053307660e-05 2.528671349533e-05 0.0 
7.614828075834e-06 2.694322306989e-04 0.0 
-5.420063710310e-05 1.254856193726e-05 0.0 
1.869322883111e-04 1.180668064980e-03 0.0 
3.508236536733e-04 1.450451264686e-03 0.0 
8.425038138843e-06 -9.360245159472e-05 0.0 
5.350214569820e-05 2.926825650338e-05 0.0 
3.381869284543e-04 1.499676011230e-03 0.0 
7.045227248567e-05 1.516762730276e-04 0.0 
1.846905103204e-05 -8.608396316655e-05 0.0 
7.211122123362e-06 -9.214592125549e-05 0.0 
1.204062553088e-05 -1.197675016697e-05 0.0 
1.000914521784e-05 -9.732683606810e-05 0.0 
1.212359775834e-05 1.595110528079e-04 0.0 
-9.380637805449e-05 6.723931407858e-05 0.0 
2.020283083685e-04 1.166542071840e-04 0.0 
4.166605509734e-04 9.289553445611e-04 0.0 
3.505902292789e-05 2.279278745632e-05 0.0 
1.412146594845e-05 -3.753397241973e-07 0.0 
3.296874513520e-04 1.500083735854e-03 0.0 
-9.172170126234e-05 8.430258966031e-05 0.0 
1.187476819473e-04 1.708236876028e-04 0.0 
2.028118282753e-05 -6.072501373517e-05 0.0 
1.137170250602e-04 1.096317464831e-04 0.0 
3.076211505448e-05 -2.578730717370e-05 0.0 
1.191465782063e-05 4.450338809318e-05 0.0 
1.842745476054e-04 1.292143381060e-04 0.0 
3.785072137667e-07 -1.004667700308e-04 0.0 
1.718574591558e-05 -8.388477015590e-05 0.0 
4.202851649379e-05 2.053940947725e-04 0.0 
8.777778606771e-05 1.833295792582e-04 0.0 
-4.380422648313e-05 5.560777828140e-04 0.0 
1.250486886989e-05 -9.650706600329e-05 0.0 
-4.929647681996e-05 6.314907827947e-04 0.0 
2.132548849706e-05 -5.304456936519e-05 0.0 
1.527874066769e-04 1.259997591821e-03 0.0 
3.249199658070e-04 1.400934245184e-03 0.0 
2.878364540578e-04 1.450318335459e-03 0.0 
1.182166992851e-04 1.167189220341e-03 0.0 
1.082237679483e-04 1.162753377697e-03 0.0 
1.809227732751e-05 -2.258154521016e-05 0.0 
3.190991771322e-06 -1.500872009272e-05 0.0 
2.810800689616e-04 4.842454109065e-04 0.0 
1.349889007285e-04 1.247235974706e-03 0.0 
-1.000435386387e-05 -7.584773724355e-05 0.0 
2.596857377371e-04 1.214628950165e-03 0.0 
2.030062973528e-05 6.342119811502e-04 0.0 
2.461516313218e-05 6.856669425238e-04 0.0 
2.374219155418e-05 8.246835931815e-05 0.0 
8.408899109755e-05 3.399708123473e-05 0.0 
1.716577088253e-04 1.263136061819e-03 0.0 
5.376941648529e-05 8.368233012793e-06 0.0 
1.513271568412e-05 1.006920576869e-03 0.0 
3.947633589277e-04 1.016051483894e-03 0.0 
1.215626143001e-04 1.326240758553e-03 0.0 
9.202513888216e-06 1.535834067599e-07 0.0 
3.367672423286e-04 1.942416712197e-04 0.0 
1.996716601765e-04 1.090557033054e-04 0.0 
3.196085794544e-04 6.387448236393e-04 0.0 
-3.250689966953e-05 9.330191697487e-06 0.0 
1.003646830163e-05 -4.016839587560e-06 0.0 
2.053299684224e-05 5.465183962852e-04 0.0 
-7.273592614960e-05 3.011008969462e-05 0.0 
1.701172402748e-05 9.654570698713e-07 0.0 
3.076017706802e-04 5.430049271379e-04 0.0 
4.883839019147e-07 -1.007072920494e-04 0.0 
4.250605842217e-04 5.220331118057e-04 0.0 
3.186501420266e-04 1.324935088543e-03 0.0 
3.367504208230e-05 -7.351413924074e-05 0.0 
3.635015291666e-04 1.010267390324e-03 0.0 
4.121563343615e-04 8.449551742255e-04 0.0 
3.393065803702e-05 4.396087585904e-06 0.0 
1.920478931924e-05 1.068911355740e-03 0.0 
3.821627165421e-04 8.321991246371e-04 0.0 
1.774672035639e-05 -7.754343855584e-05 0.0 
2.698258496514e-04 1.248643081367e-03 0.0 
1.620225298258e-05 5.010635674047e-04 0.0 
3.728014826959e-04 7.455998052033e-04 0.0 
-1.103798544902e-04 3.886331272907e-04 0.0 
3.431038865970e-04 1.407619847698e-03 0.0 
2.877693039403e-05 -7.579806651819e-05 0.0 
3.357321741141e-04 1.464962171863e-03 0.0 
3.193303729383e-05 1.453206940177e-04 0.0 
-7.219454400404e-05 3.620336956257e-04 0.0 
2.858762312419e-05 -3.015811595593e-05 0.0 
9.929283681197e-06 2.216841311804e-04 0.0 
4.415765880451e-04 1.088018780210e-03 0.0 
3.497615084456e-04 1.435144267933e-03 0.0 
5.147989028254e-05 6.675359850565e-06 0.0 
5.931736837813e-06 -8.111297275963e-07 0.0 
2.554050185045e-05 -2.220114572200e-05 0.0 
4.445804268346e-04 1.055368033103e-03 0.0 
6.899602746913e-05 1.551665204483e-05 0.0 
4.125715501085e-04 1.226347907241e-03 0.0 
2.459822942037e-05 1.630912798498e-04 0.0 
1.316054395198e-04 1.354964699078e-04 0.0 
2.022698373655e-04 1.102786807619e-03 0.0 
4.751611862462e-05 8.311718014613e-04 0.0 
4.247683525943e-04 1.174158753312e-03 0.0 
3.390581551454e-04 1.489156861597e-03 0.0 
4.552903921292e-04 9.737291278477e-04 0.0 
3.779671259843e-04 6.083408776566e-04 0.0 
9.006215221487e-05 1.315055888711e-03 0.0 
4.107733710992e-04 4.652243027683e-04 0.0 
-5.528248586251e-06 -8.326424499678e-05 0.0 
2.178903767112e-05 1.204458701303e-03 0.0 
4.764361114686e-06 -9.819170217415e-05 0.0 
3.324957689296e-04 1.370400190251e-03 0.0 
5.563936878295e-05 1.208319810386e-05 0.0 
3.344316365944e-04 7.226187110002e-04 0.0 
1.377018316592e-05 -1.879331205908e-05 0.0 
1.639053952557e-04 1.011656474143e-03 0.0 
3.438066851241e-04 2.123569165183e-04 0.0 
5.089668419660e-05 1.267035767074e-03 0.0 
3.865343812476e-04 4.511140880234e-04 0.0 
1.358990719068e-05 -8.957241763840e-06 0.0 
1.912441000779e-05 -7.283709938944e-05 0.0 
1.407533586581e-05 -3.871024943353e-06 0.0 
3.573097547303e-04 1.154437041382e-03 0.0 
1.942021573279e-05 5.796619105666e-07 0.0 
2.161208610977e-05 1.279272325184e-03 0.0 
3.424269275747e-04 5.866491051179e-04 0.0 
3.179068959918e-04 1.387535837101e-03 0.0 
1.169756970578e-05 -3.706827818068e-05 0.0 
1.578590272360e-04 1.150636273872e-03 0.0 
3.709753502461e-04 3.974601130226e-04 0.0 
4.148966504490e-05 7.530018726484e-04 0.0 
5.801599937624e-05 1.317413516286e-03 0.0 
3.911294174340e-04 5.565572351589e-04 0.0 
3.285542500700e-04 1.430995500115e-03 0.0 
2.767653803511e-04 3.304974142749e-04 0.0 
3.563203168099e-05 -6.876041496902e-05 0.0 
1.135010557701e-04 7.200135206579e-05 0.0 
1.381220756237e-04 1.287746894163e-04 0.0 
3.361010237567e-04 1.095553828798e-03 0.0 
3.195953342928e-05 -6.665136939184e-05 0.0 
1.805309862851e-04 5.125691669490e-05 0.0 
3.917732794963e-04 1.313379991452e-03 0.0 
2.922058406875e-04 1.082221000088e-03 0.0 
3.312494718279e-04 1.248646373439e-03 0.0 
4.175605071575e-04 5.717611654450e-04 0.0 
1.791432181499e-05 1.726592309380e-04 0.0 
2.696978530055e-04 5.656246733488e-04 0.0 
9.506054134770e-06 -6.323035745349e-06 0.0 
1.051568349156e-05 6.734949572432e-04 0.0 
3.263794217430e-04 3.316955731492e-04 0.0 
2.688699440404e-04 4.901854411986e-04 0.0 
-2.035280769106e-04 2.685145685050e-04 0.0 
3.781804406719e-04 1.359305243469e-03 0.0 
1.920865706055e-04 3.950315174590e-05 0.0 
6.071756285185e-06 -9.588350050428e-05 0.0 
1.023304453555e-04 1.943751911812e-04 0.0 
2.482349321709e-04 7.955549265472e-04 0.0 
1.321864827126e-04 -4.487116165399e-05 0.0 
2.014774115537e-04 4.603553306987e-05 0.0 
2.598585259733e-04 1.138597028212e-03 0.0 
2.181284803693e-04 1.027480111040e-03 0.0 
9.279824455426e-05 2.047715548560e-05 0.0 
7.784807644127e-05 -7.080576012941e-05 0.0 
4.698945037957e-04 8.481075371438e-04 0.0 
3.814920460792e-04 1.054612603334e-03 0.0 
2.317013113431e-04 7.255134164237e-04 0.0 
3.508878142803e-04 1.094870217458e-03 0.0 
3.465648093599e-04 1.231885430626e-03 0.0 
3.749539848258e-04 2.119881582390e-04 0.0 
3.016106156897e-04 3.873598950092e-04 0.0 
-1.437099269266e-04 2.294978279981e-04 0.0 
3.375771682035e-04 1.202579712259e-03 0.0 
3.956248688331e-04 1.104012051514e-03 0.0 
4.640604838706e-04 9.245195388009e-04 0.0 
2.446573015991e-04 5.011799857886e-04 0.0 
2.688560863664e-06 2.311025444149e-04 0.0 
1.914924485522e-04 3.110863951099e-05 0.0 
6.533813841795e-05 1.298632116367e-03 0.0 
3.422863674909e-04 3.805770645127e-04 0.0 
1.869504881585e-04 2.159921154260e-05 0.0 
-5.232358506160e-07 -9.053794757017e-05 0.0 
2.264820746348e-04 6.527671492390e-04 0.0 
-2.959547036686e-06 -9.132846047412e-05 0.0 
8.147091644039e-06 -9.660695863422e-05 0.0 
1.223910299055e-05 7.700411121134e-04 0.0 
6.178349927375e-05 -7.521390984183e-05 0.0 
2.064317499790e-04 5.831764952655e-04 0.0 
5.573080568039e-05 -7.481986278252e-05 0.0 
1.131077905576e-04 5.158326424878e-04 0.0 
4.408203362825e-05 -1.815741445637e-05 0.0 
2.638778432668e-05 -7.958431320726e-05 0.0 
1.977034936489e-04 5.305366707475e-05 0.0 
3.727978381966e-04 1.133026669446e-03 0.0 
1.682463089694e-05 -1.637908373624e-07 0.0 
-1.782347316106e-04 2.330962830093e-04 0.0 
2.057736899337e-04 5.050186041609e-04 0.0 
3.805227281955e-04 3.631886333600e-04 0.0 
3.796796177633e-04 1.353531719755e-03 0.0 
2.016353708734e-04 3.757311103643e-05 0.0 
2.103441350308e-05 1.173741560497e-06 0.0 
2.793964244219e-04 6.358160395296e-04 0.0 
2.233165163132e-04 2.779526281397e-04 0.0 
1.890197477830e-04 4.645629637287e-05 0.0 
1.504704778225e-05 -2.695223392099e-05 0.0 
4.530046519958e-04 9.396700788158e-04 0.0 
2.587597916181e-04 7.195761206621e-04 0.0 
1.697319876299e-04 9.833352663661e-05 0.0 
3.645169188213e-04 3.180679519913e-04 0.0 
1.676228239560e-04 5.464591377099e-04 0.0 
3.476981398670e-04 9.575940044862e-04 0.0 
1.924614966162e-05 7.560258909122e-05 0.0 
4.751395000429e-04 7.985935136887e-04 0.0 
3.826003017817e-04 2.248542190061e-04 0.0 
4.926135768175e-05 1.177197298438e-03 0.0 
8.970866790810e-06 -4.707466637246e-05 0.0 
3.357209059090e-04 1.110377404321e-03 0.0 
2.369651224671e-04 3.231294144470e-04 0.0 
7.295733108448e-05 2.162876435882e-04 0.0 
1.179958299165e-05 3.476873772405e-05 0.0 
1.941970504722e-04 5.847959820392e-04 0.0 
3.731316769287e-04 9.986633855705e-04 0.0 
3.935186239654e-04 6.834176903812e-04 0.0 
1.735826727068e-04 5.143375270561e-04 0.0 
2.824910921555e-04 5.591873368728e-04 0.0 
4.365840398088e-04 9.396305417471e-04 0.0 
2.419784143520e-05 2.354252887831e-06 0.0 
3.758310891902e-04 2.030555171166e-04 0.0 
4.158953177034e-04 9.258823145841e-04 0.0 
4.432424075364e-04 5.312396677452e-04 0.0 
3.806785467817e-04 2.084034065261e-04 0.0 
1.385520581099e-04 2.072515057528e-04 0.0 
2.364615030021e-04 1.236410144656e-03 0.0 
3.544089859445e-04 2.518601496396e-04 0.0 
1.652573650603e-04 5.328174553193e-05 0.0 
2.660310911214e-04 6.414757540807e-04 0.0 
-1.838443590332e-04 2.039593664845e-04 0.0 
3.277359266674e-04 1.046936885590e-03 0.0 
2.457375419322e-04 2.538834892221e-04 0.0 
1.911814372278e-04 4.399315917946e-04 0.0 
1.305948245756e-04 1.732706669842e-04 0.0 
3.499659318915e-04 8.827793473367e-04 0.0 
-1.115601931551e-06 -7.599748569321e-05 0.0 
4.108724546499e-04 1.166585361222e-03 0.0 
3.692661532658e-04 1.871861738632e-04 0.0 
3.580155285960e-04 1.017510627758e-03 0.0 
2.358020595257e-04 1.143856085969e-03 0.0 
-2.915668718647e-05 1.846527271045e-04 0.0 
1.749839458598e-04 7.392793676017e-05 0.0 
1.329149734336e-04 2.584587162326e-05 0.0 
3.658391835189e-04 1.205253841406e-03 0.0 
2.724752104715e-04 7.144594480014e-04 0.0 
4.165541459297e-04 1.092579902937e-03 0.0 
3.321569978561e-04 2.388425954675e-04 0.0 
3.390625951240e-04 3.034579402905e-04 0.0 
2.046202895780e-06 1.951636855329e-04 0.0 
4.451253473660e-04 4.837552224392e-04 0.0 
8.918216007860e-06 4.591864390167e-04 0.0 
3.622397931817e-05 7.448019473950e-05 0.0 
4.706104459519e-05 7.671474187632e-05 0.0 
4.762334924481e-04 7.291987456370e-04 0.0 
1.856496458445e-04 2.607706449870e-04 0.0 
1.328584818220e-04 3.614305880237e-04 0.0 
4.181085819569e-04 8.508751587267e-04 0.0 
1.567954257052e-04 2.858427799991e-04 0.0 
1.410141694428e-04 4.381890009060e-05 0.0 
4.419368404426e-04 9.808222669432e-04 0.0 
3.196947224785e-05 1.981945212953e-04 0.0 
2.945005793478e-04 3.141365284368e-04 0.0 
3.852098637443e-04 2.353856228138e-04 0.0 
5.372501237505e-05 4.264096849263e-04 0.0 
3.455840962597e-05 9.466247013914e-06 0.0 
1.672828358414e-04 3.318369998130e-04 0.0 
4.578961545527e-04 8.630923410041e-04 0.0 
3.607744486662e-05 1.700886222451e-04 0.0 
2.765070684892e-04 7.098497692593e-05 0.0 
3.706387001898e-04 2.899118750260e-04 0.0 
1.469210733978e-04 1.806686376179e-05 0.0 
3.963825646253e-04 1.030183188203e-03 0.0 
4.894213211874e-05 5.605530784159e-05 0.0 
2.948781243034e-04 2.470313519244e-04 0.0 
3.558583788824e-04 1.642149775008e-04 0.0 
4.922706215880e-05 3.725732171860e-04 0.0 
1.596851566910e-04 8.755480560975e-04 0.0 
1.975186233622e-04 2.776145710968e-05 0.0 
2.388916884889e-04 6.613665796690e-04 0.0 
1.587720658524e-04 9.497911281515e-04 0.0 
5.821760617306e-05 4.859736007427e-05 0.0 
1.739127259093e-04 2.789990170061e-05 0.0 
4.962710941259e-05 6.370388134295e-05 0.0 
1.948357511694e-04 9.534364304456e-04 0.0 
3.194832815492e-04 5.330721677767e-04 0.0 
1.355020034989e-04 6.732242030035e-04 0.0 
3.914509486324e-04 1.162019715467e-03 0.0 
4.022235983328e-04 9.528777169329e-04 0.0 
3.915452674954e-04 9.010987255308e-04 0.0 
4.763904938899e-04 7.615876886632e-04 0.0 
5.956342048462e-05 4.066997155495e-05 0.0 
2.462819526164e-04 1.019161320499e-03 0.0 
3.268275088270e-04 1.186705171059e-03 0.0 
3.229323884041e-04 2.622843091531e-04 0.0 
4.448415229001e-05 -7.814241891268e-05 0.0 
3.632839318134e-04 1.269183768388e-03 0.0 
2.727457898807e-04 6.096474104558e-04 0.0 
4.368302588350e-05 1.313232167292e-03 0.0 
1.381647310378e-04 3.196380649589e-06 0.0 
2.791294886281e-04 2.706459383493e-04 0.0 
2.313826208186e-04 5.782151535082e-04 0.0 
2.550929971866e-04 5.334097772756e-04 0.0 
4.023568332320e-04 1.081996641584e-03 0.0 
3.428321760660e-04 1.469840236635e-04 0.0 
1.892101756949e-04 -5.229938074305e-06 0.0 
5.260737573830e-05 2.700375913388e-05 0.0 
3.856591573913e-04 1.313662643869e-03 0.0 
1.673404331897e-04 1.104324726658e-04 0.0 
1.297872641464e-04 -4.519800545128e-05 0.0 
2.804494007926e-04 9.739469866766e-04 0.0 
2.559587666039e-04 7.540757373487e-04 0.0 
2.407053236511e-04 4.288180392980e-04 0.0 
4.505752108237e-04 8.280471654671e-04 0.0 
3.912836712032e-04 1.298113916146e-03 0.0 
3.924513111137e-04 1.213807736942e-03 0.0 
4.722281265571e-05 1.700812988769e-05 0.0 
1.184343941669e-04 4.427475140241e-05 0.0 
2.292859203598e-04 4.333752474120e-04 0.0 
2.395941973542e-04 6.499097936183e-04 0.0 
1.940264434242e-04 -4.847491224190e-06 0.0 
4.375889929932e-04 9.279223932717e-04 0.0 
1.746880483354e-04 2.217330381171e-04 0.0 
2.321197704103e-04 2.157633646283e-04 0.0 
4.660159146114e-04 8.207393883788e-04 0.0 
2.891745274830e-04 7.943031369791e-05 0.0 
9.478274228059e-05 -5.379853590210e-05 0.0 
1.952082337416e-04 4.418944171582e-04 0.0 
1.581059779833e-04 8.586714212745e-05 0.0 
4.682313873296e-04 7.099468851990e-04 0.0 
4.240163541116e-04 9.730996055892e-04 0.0 
4.481660237304e-04 7.774532012959e-04 0.0 
4.867071615131e-05 7.007494752894e-05 0.0 
4.285486510935e-05 7.822761144677e-05 0.0 
1.078271617406e-04 1.934548707428e-04 0.0 
1.949993199505e-04 1.311325358851e-06 0.0 
1.624554094338e-04 5.140574218759e-04 0.0 
1.830880298171e-04 6.265694800378e-04 0.0 
2.795130119802e-04 2.102943615899e-04 0.0 
6.876755459688e-05 1.815314942986e-04 0.0 
4.251348112650e-04 1.143398347926e-03 0.0 
2.133566894875e-04 1.243790065549e-03 0.0 
1.825214846972e-04 9.534237798968e-04 0.0 
8.753587199459e-05 2.422754940679e-05 0.0 
2.634676203026e-04 4.191204876799e-04 0.0 
3.325854463096e-04 9.715130754549e-04 0.0 
3.922009972825e-04 8.270321645371e-04 0.0 
9.736253057709e-05 1.609889169759e-04 0.0 
-1.010264392127e-05 -5.463569764286e-05 0.0 
4.166183228295e-04 4.243332242988e-04 0.0 
4.761402205916e-04 6.423921959113e-04 0.0 
4.327884757816e-04 4.336575880301e-04 0.0 
-1.182418660701e-04 4.411812556976e-04 0.0 
4.095973356648e-05 1.138555679925e-03 0.0 
3.695791240523e-05 -7.701623712085e-05 0.0 
2.236517438129e-04 4.057091148804e-04 0.0 
1.837217642560e-05 5.275622060329e-06 0.0 
3.454724885884e-04 1.682981509538e-04 0.0 
3.123444260563e-04 1.198228647001e-03 0.0 
2.852025858677e-06 -9.882524187540e-05 0.0 
4.748738664555e-04 8.174713868052e-04 0.0 
4.019267109273e-04 3.759515298912e-04 0.0 
3.644955083293e-04 8.664875640754e-04 0.0 
5.289079801310e-05 5.425541084296e-05 0.0 
3.767824721431e-04 1.188620328198e-03 0.0 
4.299764861892e-04 8.218950860675e-04 0.0 
1.037553398635e-04 -5.130027085520e-05 0.0 
1.965831200675e-04 5.125196363157e-04 0.0 
1.874443609527e-04 9.996138827005e-07 0.0 
5.730358569775e-05 5.310650612833e-05 0.0 
2.521507000376e-05 3.417969613515e-05 0.0 
1.697451265646e-05 3.707207377526e-05 0.0 
2.360539844764e-05 4.081949048253e-05 0.0 
3.634342240898e-04 7.932678353449e-04 0.0 
2.084218681877e-04 5.104156501792e-04 0.0 
2.206810521048e-04 3.627834767943e-04 0.0 
4.517928068847e-04 8.489553072654e-04 0.0 
4.366210780440e-04 1.003586384027e-03 0.0 
7.934482504527e-05 -6.098799425182e-05 0.0 
2.064937682666e-04 4.395895183759e-04 0.0 
5.922520285708e-05 4.469188276456e-05 0.0 
1.624360948514e-04 4.445675448983e-04 0.0 
3.682572918513e-04 1.894973016962e-04 0.0 
1.732018427052e-04 4.443691409316e-04 0.0 
4.043627402454e-04 3.744763454354e-04 0.0 
4.713057113368e-04 6.475767868117e-04 0.0 
4.155741354219e-04 1.205773033914e-03 0.0 
8.843775091327e-05 3.420546374276e-04 0.0 
4.584645973514e-05 1.608419286910e-04 0.0 
4.294579932270e-04 7.724201169666e-04 0.0 
1.872291406661e-04 1.469423752614e-04 0.0 
8.763971793044e-05 -5.900283359391e-05 0.0 
1.105846023192e-04 -1.714220727371e-05 0.0 
6.801996354661e-05 1.807002242572e-05 0.0 
2.833782632400e-04 4.913729173208e-04 0.0 
2.441203940882e-05 2.952418520780e-05 0.0 
7.715489134785e-05 1.469529914526e-04 0.0 
4.498834578789e-04 7.566218086481e-04 0.0 
-2.408189513482e-05 -5.282254729614e-05 0.0 
2.836070530318e-05 2.772428820917e-05 0.0 
8.098467601164e-05 2.625009741867e-05 0.0 
1.177962476608e-04 -4.518359140954e-06 0.0 
3.403154268035e-04 1.493516263474e-04 0.0 
5.291406567849e-05 2.480644803734e-05 0.0 
-3.600761627812e-05 -5.656702764539e-05 0.0 
4.571186217094e-04 7.103823079103e-04 0.0 
4.280932552331e-04 7.504766696264e-04 0.0 
4.663016707374e-04 7.497726635537e-04 0.0 
4.403309076329e-04 8.634331780828e-04 0.0 
1.428910015300e-04 4.157577162331e-04 0.0 
2.927472577849e-05 2.321514215511e-05 0.0 
3.161109716828e-04 2.041346652168e-04 0.0 
-2.413176950669e-05 1.498320630916e-04 0.0 
3.126176849862e-05 2.954036724732e-06 0.0 
-2.595831593429e-05 -5.874985302864e-05 0.0 
4.044270665875e-04 1.227921039469e-03 0.0 
1.152837380124e-05 3.692318684087e-06 0.0 
3.485543524965e-04 1.291038498880e-03 0.0 
4.221980320032e-05 1.379211892891e-05 0.0 
2.961294340603e-05 1.919323094551e-05 0.0 
3.773438646375e-04 9.224549790374e-04 0.0 
-1.855048501837e-05 -6.206706421366e-06 0.0 
-5.089718765230e-05 1.400653595984e-04 0.0 
2.808968215285e-06 -8.538481727794e-06 0.0 
9.596824601200e-05 3.954732281244e-06 0.0 
2.249092125290e-04 1.286874410435e-03 0.0 
3.061095602344e-04 1.133709734888e-03 0.0 
2.661046717919e-05 1.425947691811e-05 0.0 
2.020975881023e-04 1.293102062594e-03 0.0 
3.170333905846e-05 7.319867946154e-05 0.0 
3.837100793169e-04 3.299841989158e-04 0.0 
1.687351590959e-04 1.028453826005e-03 0.0 
3.162481580880e-04 8.874276264653e-04 0.0 
3.523327682054e-04 1.688937080178e-04 0.0 
4.090957932210e-05 2.407836304167e-04 0.0 
2.691715711939e-05 1.206216582157e-05 0.0 
2.345564614755e-05 3.589525139379e-05 0.0 
1.924946666170e-05 3.740812096424e-05 0.0 
1.758395336965e-04 -4.930069922407e-06 0.0 
6.479581879645e-05 -6.735149125985e-05 0.0 
4.648741677693e-04 5.913708607898e-04 0.0 
1.675419388097e-04 -4.371492095000e-06 0.0 
2.540415690406e-05 9.595217114164e-06 0.0 
2.097856621345e-04 3.519416511081e-04 0.0 
1.787135550562e-04 4.416636380624e-05 0.0 
1.788163045663e-04 2.023281185474e-05 0.0 
1.473454211918e-04 9.469031524648e-04 0.0 
3.082707560775e-05 7.687843286186e-06 0.0 
-2.491687677148e-05 -1.728691214333e-05 0.0 
2.040114744868e-05 6.379206155385e-06 0.0 
1.491131565179e-04 -2.236151686799e-06 0.0 
2.453009270991e-05 2.653112263379e-05 0.0 
2.312332238352e-04 3.590259554683e-04 0.0 
-4.673848632597e-05 -4.791808828215e-05 0.0 
4.539714050011e-04 5.888349924093e-04 0.0 
1.417174645224e-04 4.425724225066e-04 0.0 
2.894288039456e-05 2.538221791916e-05 0.0 
3.769383101850e-04 7.751686893132e-04 0.0 
3.585665633073e-04 2.690638126350e-04 0.0 
6.491213593768e-06 3.548025669834e-04 0.0 
1.278651337095e-04 3.875389662937e-05 0.0 
1.483634980382e-04 -1.796882179626e-05 0.0 
1.682093440413e-04 5.942632776694e-06 0.0 
-5.798792254056e-05 -6.771515660121e-07 0.0 
2.995047707859e-05 2.147674060945e-05 0.0 
1.095095405991e-04 2.297259050341e-04 0.0 
1.636304197139e-04 2.954279893031e-05 0.0 
1.656671950108e-04 1.110625667025e-03 0.0 
9.284034586925e-05 -5.559071474335e-05 0.0 
1.684764594029e-04 2.692451050345e-05 0.0 
4.050925923733e-04 8.038040000819e-04 0.0 
2.599690855910e-05 1.274428221577e-05 0.0 
6.354232359602e-05 -6.409768140561e-05 0.0 
1.792707424429e-04 1.152091983852e-05 0.0 
4.748077184831e-04 6.196911381154e-04 0.0 
2.490791080979e-04 4.215873370843e-05 0.0 
2.009555507000e-04 5.400594098577e-05 0.0 
1.901497647709e-04 6.885925507344e-06 0.0 
4.779069350981e-04 6.814565593676e-04 0.0 
3.994875748880e-04 4.487174830288e-04 0.0 
3.253100388232e-04 1.485060077411e-04 0.0 
4.741632183152e-04 5.841611283330e-04 0.0 
1.141624463650e-04 -5.077353900177e-05 0.0 
2.665292625723e-04 4.287592672918e-04 0.0 
7.241072485406e-05 -6.580626858713e-05 0.0 
3.820244279004e-04 3.078148876515e-04 0.0 
3.527902155789e-04 1.592769014430e-04 0.0 
3.877332387428e-05 1.165482821571e-05 0.0 
1.393462552402e-04 3.764187575430e-04 0.0 
7.899983351809e-05 -6.057996459839e-05 0.0 
2.181865575164e-05 7.412912773524e-06 0.0 
9.486816190834e-05 2.918533657979e-05 0.0 
4.322276895415e-04 3.943378925756e-04 0.0 
-4.266057686009e-05 -1.497572752775e-05 0.0 
2.782861741275e-05 6.336600984220e-06 0.0 
1.692878216994e-04 3.772057242477e-04 0.0 
1.217999850447e-04 -2.161395638782e-05 0.0 
1.618623320037e-05 4.190624953585e-06 0.0 
1.689102004121e-04 1.158029154259e-06 0.0 
4.436845346788e-04 1.055481263525e-03 0.0 
3.126076637635e-04 1.058745740215e-03 0.0 
3.613505323707e-04 1.769002083959e-04 0.0 
1.773658285424e-04 -1.169755735518e-05 0.0 
2.635432289898e-04 5.884023565307e-05 0.0 
2.621812897266e-04 7.924749864063e-04 0.0 
4.329472617556e-04 1.101691653822e-03 0.0 
3.214230731653e-04 1.607812243143e-04 0.0 
3.872175929792e-05 1.052730173486e-03 0.0 
1.049881976389e-04 -5.396532834113e-05 0.0 
3.230907695045e-04 1.326614484943e-04 0.0 
1.390063438998e-04 -2.789656892321e-05 0.0 
9.115639669951e-05 -2.521278021906e-05 0.0 
-6.041913509887e-05 -3.034775200642e-05 0.0 
3.238494040546e-04 5.155148319795e-04 0.0 
1.399600558664e-04 -1.442264059145e-05 0.0 
9.260477882783e-05 -5.068742512911e-05 0.0 
4.521785764730e-04 4.431051567458e-04 0.0 
1.799131991172e-04 6.485762951496e-06 0.0 
1.452045244720e-04 1.020293298314e-03 0.0 
1.141104698290e-04 -3.189517563135e-05 0.0 
1.464084240738e-05 3.497218332601e-06 0.0 
4.377559237320e-04 7.205894048227e-04 0.0 
8.085230390358e-05 -4.924360841572e-05 0.0 
4.574901577339e-04 7.207002593599e-04 0.0 
8.382843592390e-05 -5.266222443175e-05 0.0 
-4.745360570815e-05 -4.124955429757e-05 0.0 
3.026690263203e-04 9.935070268451e-04 0.0 
2.212616665642e-05 -7.193965793164e-05 0.0 
-3.928182394550e-06 -9.373338843583e-05 0.0 
6.707997081724e-05 -5.580058514270e-05 0.0 
1.665353752371e-04 1.086750493569e-05 0.0 
4.045243213905e-05 4.612682511272e-04 0.0 
2.724784981789e-04 5.989859245877e-05 0.0 
2.623517008932e-04 5.347890120992e-05 0.0 
3.019631418705e-04 1.273801550172e-03 0.0 
2.015395350922e-04 1.386830102480e-03 0.0 
5.487114041660e-05 1.491441175891e-04 0.0 
4.712742523269e-04 7.077460442669e-04 0.0 
-3.884400297059e-06 -9.483451753605e-05 0.0 
2.441010530404e-05 -8.327602512479e-05 0.0 
-3.261379486359e-05 -3.624047720755e-05 0.0 
7.307776445624e-05 -7.122258233739e-05 0.0 
2.836665048145e-04 3.197334769571e-04 0.0 
4.621659570283e-05 4.660419426112e-04 0.0 
1.019625433854e-04 1.055862057447e-06 0.0 
6.862625882222e-05 -7.548023047062e-05 0.0 
8.249900747632e-05 -2.706051594093e-05 0.0 
1.436811792827e-04 2.575490942968e-05 0.0 
3.461527449254e-05 1.390814412772e-04 0.0 
1.565671704177e-05 -7.221407310357e-05 0.0 
1.031387030569e-05 -8.214410797519e-05 0.0 
2.557473140225e-05 5.246773305076e-06 0.0 
1.318777500536e-05 2.839382651620e-06 0.0 
1.674067779289e-05 -6.473141975754e-05 0.0 
7.229143418856e-05 -5.081750464559e-05 0.0 
1.715501455418e-04 -1.108597772713e-05 0.0 
1.370682217044e-04 2.995156034575e-05 0.0 
3.124686728325e-05 -8.428214663956e-05 0.0 
1.476332806604e-04 2.042486052853e-05 0.0 
5.866825342355e-06 -9.752370164425e-05 0.0 
6.952391109985e-05 -5.932296034373e-05 0.0 
9.863810922550e-05 -4.530477556262e-05 0.0 
2.874344803726e-06 -9.892947348814e-05 0.0 
1.317978840786e-05 -6.851172857210e-05 0.0 
1.297548881843e-04 3.747037403315e-04 0.0 
-1.691110009568e-06 -9.722404028387e-05 0.0 
2.229672604670e-04 1.374806985094e-03 0.0 
2.324994101685e-04 1.412705959109e-03 0.0 
2.746247353969e-04 7.504297666845e-05 0.0 
5.109712947271e-06 -8.252603426709e-05 0.0 
1.229133865124e-04 -3.463160696193e-05 0.0 
1.029682208375e-04 4.502182333773e-04 0.0 
6.494819573431e-05 2.924143010180e-06 0.0 
1.131304493546e-04 8.797826512365e-05 0.0 
8.373910992758e-05 5.603441707358e-04 0.0 
3.046359251358e-04 7.862304554963e-04 0.0 
7.638424909841e-06 -7.936824836635e-05 0.0 
4.065774564649e-04 1.180698268968e-03 0.0 
1.427929152746e-04 1.393168039115e-03 0.0 
1.335393039073e-04 1.440013360668e-03 0.0 
-1.590788979401e-06 -9.641244454248e-05 0.0 
2.827005483565e-06 -9.767228486257e-05 0.0 
3.958191280795e-06 -9.938490385252e-05 0.0 
4.735648338638e-05 -8.390219338888e-05 0.0 
1.854922717274e-06 -9.947481367216e-05 0.0 
1.388281669923e-05 -6.058856857028e-05 0.0 
-9.451684224618e-05 3.344899191029e-05 0.0 
5.973307747025e-05 -7.935424719488e-05 0.0 
3.444225903632e-05 8.842512712627e-04 0.0 
1.901917906951e-04 1.434861338032e-03 0.0 
2.428055025047e-04 2.859416392606e-04 0.0 
1.582897584611e-04 1.529851488933e-06 0.0 
3.097677142258e-05 1.018760093256e-03 0.0 
2.784931036235e-06 -7.942721693718e-05 0.0 
3.949810874492e-06 -9.938680533792e-05 0.0 
6.848602917596e-06 4.014006466126e-05 0.0 
1.561753857946e-05 8.353776077070e-05 0.0 
1.535632050474e-04 1.105353115021e-03 0.0 
1.617234779505e-04 1.394909291196e-03 0.0 
1.393682218218e-05 -7.890388752812e-05 0.0 
1.017842597807e-05 7.940215677912e-05 0.0 
5.620113792596e-05 -8.066159733233e-05 0.0 
2.108566844154e-04 1.425450680095e-03 0.0 
1.810630493936e-04 1.393588335707e-03 0.0 
3.617749847735e-04 1.325169807342e-03 0.0 
1.472882640199e-05 3.612660568628e-05 0.0 
1.232790937893e-05 7.909671480845e-05 0.0 
1.742631932090e-06 -9.837425671160e-05 0.0 
-1.747946005260e-07 -9.826141182765e-05 0.0 
1.596440401735e-05 -8.519193202680e-05 0.0 
1.079538261502e-04 -4.286014693578e-05 0.0 
6.522953446627e-06 -2.232669705377e-06 0.0 
-1.151711327203e-04 5.329052090304e-05 0.0 
1.086290992035e-05 5.828681639561e-04 0.0 
-7.642163454946e-05 2.786088201513e-06 0.0 
2.499985022911e-04 5.256937977865e-05 0.0 
-7.629233825696e-05 -8.341396189819e-06 0.0 
-9.441526520858e-05 1.935070392045e-05 0.0 
2.380365774585e-04 3.768677092606e-05 0.0 
2.606717014319e-05 -2.640961098947e-06 0.0 
2.890051273082e-05 9.342426644232e-04 0.0 
4.325894154971e-04 1.061204936694e-03 0.0 
2.417112529350e-06 -9.977845338717e-05 0.0 
6.787302397799e-05 -2.527409804321e-05 0.0 
2.437002906491e-06 4.739107490715e-05 0.0 
4.803845134756e-06 8.028762035762e-05 0.0 
1.705579393479e-04 1.439130090322e-03 0.0 
2.583849612997e-04 6.676265502479e-05 0.0 
5.479306461339e-06 3.895665014718e-05 0.0 
3.553018232499e-04 2.501792810062e-04 0.0 
2.451275014533e-06 -9.992063379316e-05 0.0 
1.478815243965e-06 -1.002190737464e-04 0.0 
1.504597322845e-06 -1.003631556378e-04 0.0 
3.173850910532e-06 -7.242413435148e-05 0.0 
5.251764100839e-06 3.190500626444e-07 0.0 
1.306532011160e-06 2.183776501358e-04 0.0 
5.923182320911e-07 -1.003659083708e-04 0.0 
7.148076403674e-06 -6.040054079312e-05 0.0 
1.777313617462e-06 1.072741367050e-07 0.0 
7.433956903959e-06 5.364176619387e-07 0.0 
2.351679202081e-05 4.340770405478e-06 0.0 
6.092155419731e-06 7.290609953653e-04 0.0 
2.393765558300e-06 5.092478148911e-04 0.0 
3.474450483377e-06 2.117759259394e-07 0.0 
3.959506420583e-06 3.246417359992e-07 0.0 
5.317951058990e-06 5.829398253444e-04 0.0 
2.673576444058e-07 -1.006523790242e-04 0.0 
1.001262045049e-04 1.442121557193e-03 0.0 
1.519517375394e-04 1.440648172421e-03 0.0 
4.864698673454e-07 -9.952310989332e-05 0.0 
6.635735668908e-06 8.583815188571e-07 0.0 
2.207400486015e-05 3.619542345231e-06 0.0 
1.094416923623e-05 1.686162593209e-06 0.0 
1.621626675482e-07 -9.997358423269e-05 0.0 
-4.115345788179e-07 -9.886492482535e-05 0.0 
1.238695639689e-05 2.407390653456e-06 0.0 
1.112983562392e-05 1.933379752022e-06 0.0 
3.167969919041e-06 8.042984458530e-04 0.0 
5.239517384978e-05 1.443960435415e-03 0.0 
2.924185500690e-06 6.551899187351e-04 0.0 
3.867273503609e-06 1.100701980781e-03 0.0 
2.241168845471e-05 1.443652422298e-03 0.0 
-7.176404533927e-06 -9.147374375185e-05 0.0 
-1.785591981053e-05 -8.063898145148e-05 0.0 
-2.552446822199e-05 -7.242770407852e-05 0.0 
-3.519603552552e-05 -6.166044454639e-05 0.0 
3.677271250048e-06 -5.617913542174e-05 0.0 
3.470805153626e-06 -6.461205011112e-05 0.0 
-1.845723271691e-05 -7.774878497548e-05 0.0 
3.919404500020e-06 -3.076518071317e-05 0.0 
-2.633001343497e-05 -6.849196410955e-05 0.0 
1.182753373355e-05 3.796497122498e-05 0.0 
4.699119516733e-06 4.044550663193e-05 0.0 
8.768935661862e-06 4.339769610944e-05 0.0 
1.137062738955e-06 -9.756546367709e-05 0.0 
2.324781911036e-06 -8.549037075860e-05 0.0 
4.452128819372e-06 4.867978377618e-05 0.0 
2.747146547718e-06 -8.862537859499e-06 0.0 
2.366842228264e-06 3.289654545047e-05 0.0 
2.018634155930e-06 -4.053415416333e-06 0.0 
1.226758576119e-06 -1.028192009708e-06 0.0 
6.644656064159e-06 -6.858038670284e-05 0.0 
9.151248336105e-06 8.912529040811e-05 0.0 
6.818971047636e-06 8.157632922665e-05 0.0 
4.765780703648e-06 -6.319293837123e-06 0.0 
3.245392732050e-06 -2.272987442376e-06 0.0 
4.047469545466e-05 -2.070727383866e-05 0.0 
-6.088999653639e-05 -2.181752276713e-05 0.0 
5.606609942465e-05 -6.528535969430e-05 0.0 
1.009899981116e-06 -9.674784423723e-05 0.0 
6.035382791591e-05 1.589929939197e-06 0.0 
7.771150649149e-05 -5.775849586264e-05 0.0 
4.698235828161e-05 -8.316770923285e-06 0.0 
4.269923678093e-05 -8.454597260150e-05 0.0 
7.484602297594e-06 -9.470876296643e-05 0.0 
3.262818357599e-05 -4.227538406077e-06 0.0 
5.901998666661e-05 -5.705200498788e-05 0.0 
1.190651573430e-05 -7.586187487237e-05 0.0 
4.116908298422e-05 -9.245052827940e-06 0.0 
1.490132439249e-05 3.695401538978e-04 0.0 
5.958781946767e-06 -7.600327798953e-05 0.0 
1.623894000982e-04 1.481239866375e-05 0.0 
1.183915538676e-04 -1.811877408501e-05 0.0 
4.776102205191e-05 -1.977940511793e-05 0.0 
3.476866283537e-05 -1.742459823541e-05 0.0 
2.915212499076e-04 1.908393885678e-04 0.0 
4.177466204804e-04 1.186531554857e-03 0.0 
4.554114726582e-04 4.880623843668e-04 0.0 
7.598909618458e-05 -2.380702185298e-05 0.0 
2.927987087436e-05 -7.643614521926e-06 0.0 
2.287370915139e-05 -1.492199195391e-05 0.0 
6.063017562277e-05 -7.030816886440e-05 0.0 
2.823737237887e-05 3.809867045297e-04 0.0 
3.614268126467e-05 5.278122659493e-04 0.0 
6.752710302342e-05 1.219424522903e-03 0.0 
8.507783219247e-05 -1.741821721966e-05 0.0 
6.148311401409e-05 -2.193759499100e-05 0.0 
1.926865611172e-05 3.772189055252e-04 0.0 
2.469300411382e-05 4.528802681963e-04 0.0 
1.259018382856e-04 -2.049055295278e-05 0.0 
2.211970225176e-05 -3.180646839604e-06 0.0 
7.594782243058e-05 5.559447024624e-04 0.0 
1.625811302844e-05 -1.520764426230e-05 0.0 
4.436298741400e-05 1.121070437284e-06 0.0 
3.291643954157e-05 3.846746027006e-04 0.0 
6.393428851477e-05 7.631014020157e-04 0.0 
1.565573899603e-04 6.204170383344e-06 0.0 
2.309647652330e-05 -9.149897608732e-05 0.0 
5.657335879921e-05 -6.328875627491e-05 0.0 
7.833787593442e-06 -8.332502991979e-05 0.0 
-4.569194714843e-05 -2.498861433754e-05 0.0 
2.987013185584e-05 4.527098790672e-04 0.0 
2.350069775521e-05 -5.481149932499e-06 0.0 
-3.484631486082e-05 -4.397118792830e-05 0.0 
2.002431993396e-04 3.712716802853e-04 0.0 
7.936647700432e-05 1.145109848345e-03 0.0 
5.446080423399e-05 -1.075025684523e-05 0.0 
2.972052391469e-05 -1.080984108415e-05 0.0 
1.212893867671e-04 -4.423605960376e-05 0.0 
2.398633628726e-05 -1.142739715742e-05 0.0 
7.628062380587e-05 1.221965408640e-03 0.0 
3.149456611411e-04 1.324113869520e-04 0.0 
3.380327256840e-05 1.509595591291e-06 0.0 
1.216060162033e-05 -9.294452517454e-05 0.0 
5.641063952166e-05 4.259683084385e-06 0.0 
4.933083953284e-05 6.813096473272e-04 0.0 
1.969413161287e-05 -9.020346138800e-05 0.0 
7.326988619624e-05 -6.617484441543e-05 0.0 
3.255403781835e-05 -4.719461190534e-05 0.0 
8.717465411736e-05 9.230813390895e-04 0.0 
6.519787657248e-05 -7.309361826213e-05 0.0 
3.645577410264e-05 5.990667436447e-04 0.0 
5.524329345732e-05 8.313620279102e-04 0.0 
6.869714771937e-05 -4.716719719407e-05 0.0 
2.783400381181e-05 -1.812726026252e-05 0.0 
3.554255580238e-05 -1.360177385353e-05 0.0 
4.243810106489e-05 6.760768594133e-04 0.0 
2.291509651524e-05 -9.317312774807e-05 0.0 
5.590710886904e-05 -5.332305557613e-05 0.0 
2.580438522863e-04 1.325935390178e-04 0.0 
5.614634026268e-05 6.139516450434e-04 0.0 
5.398770277785e-05 -6.176205847759e-05 0.0 
1.090516107757e-04 -2.078079958953e-05 0.0 
7.397392793855e-05 5.852410635193e-06 0.0 
5.610957834555e-05 7.584248870111e-04 0.0 
-4.704703745398e-05 1.114976376354e-04 0.0 
8.685441103878e-06 -9.146306606466e-05 0.0 
9.231428737437e-05 1.310200173366e-04 0.0 
3.445988880371e-05 -6.929688736162e-06 0.0 
7.117262191713e-05 8.405682252474e-04 0.0 
2.380254210204e-05 -3.951138472309e-05 0.0 
9.177282002605e-05 1.074478897017e-03 0.0 
1.366647335823e-04 2.181678473290e-05 0.0 
5.632307521787e-05 -4.460551026124e-05 0.0 
4.181109694257e-05 -1.275091138308e-05 0.0 
1.940229342685e-05 -9.204360235112e-05 0.0 
4.854745694415e-05 2.129694252406e-06 0.0 
6.037280655048e-05 -4.842132827944e-05 0.0 
1.555204070011e-05 -9.070864345975e-05 0.0 
4.810066905158e-05 -5.417596965691e-05 0.0 
5.826521507540e-05 -7.175431839134e-05 0.0 
5.416273672878e-05 -8.131691097982e-05 0.0 
3.142324922979e-05 -3.853111179548e-05 0.0 
-7.031872691149e-06 -9.009679451963e-05 0.0 
-1.183756711859e-05 -8.485312203828e-05 0.0 
5.388564594844e-05 -2.311379294876e-05 0.0 
2.189030557388e-05 -9.295881941558e-05 0.0 
7.702824569680e-05 -1.912020557549e-05 0.0 
9.269607190344e-05 -2.025729777527e-05 0.0 
9.667816973770e-05 -5.929779803535e-05 0.0 
9.716619210960e-05 -3.808223186631e-05 0.0 
6.521116029144e-05 4.800142856876e-04 0.0 
-5.766018816272e-05 2.632795038323e-04 0.0 
5.050993150998e-05 -6.969915380929e-05 0.0 
1.300835618064e-04 2.592872199848e-05 0.0 
1.735513163778e-05 -9.480819294108e-05 0.0 
8.518820843902e-05 9.962574224423e-04 0.0 
8.851343752871e-05 1.149788027619e-03 0.0 
2.870765695739e-05 -8.704450970399e-05 0.0 
9.407121143239e-05 8.391602513279e-06 0.0 
9.701494988568e-05 7.088248133977e-04 0.0 
2.515883648056e-05 -9.219503033491e-05 0.0 
6.729230406985e-05 4.152842880190e-04 0.0 
6.075513776160e-05 4.105449700104e-04 0.0 
3.073079108279e-05 -8.994774681711e-05 0.0 
3.554051033929e-04 9.104152014030e-04 0.0 
4.300309599482e-05 -8.589325051005e-05 0.0 
4.832353057281e-05 -1.564586704423e-05 0.0 
4.387143433517e-05 -4.169737923957e-05 0.0 
1.591201787832e-04 3.775764618846e-04 0.0 
5.854747863921e-05 4.754726890450e-04 0.0 
6.219492211159e-05 -1.753083452697e-05 0.0 
6.962398158771e-05 -1.618052130168e-05 0.0 
3.420734381787e-05 -8.714195047976e-05 0.0 
5.515996256684e-05 -1.457349441103e-05 0.0 
8.825545672214e-05 7.045444548616e-04 0.0 
3.598571325674e-05 -4.251852009477e-05 0.0 
7.967845308762e-05 8.453648972590e-04 0.0 
7.850610908445e-05 6.278387838871e-04 0.0 
3.720751502320e-04 2.168321483182e-04 0.0 
5.470467252053e-05 5.422380709180e-04 0.0 
4.360140573363e-05 -5.890699214584e-05 0.0 
4.821940450260e-05 -4.562050514748e-05 0.0 
4.549012225384e-05 -7.690699977831e-05 0.0 
1.029685471456e-04 -5.998726941364e-05 0.0 
8.022042024921e-05 7.726201779693e-04 0.0 
1.591061638629e-04 -2.385031377419e-05 0.0 
4.152243976922e-05 -8.609326552636e-05 0.0 
1.508194059994e-05 -8.809985706671e-05 0.0 
8.885498781993e-05 7.771635358286e-04 0.0 
4.627740979294e-05 -8.461531823844e-05 0.0 
5.989114883322e-05 5.419928435479e-06 0.0 
6.405014427363e-05 6.907678019274e-04 0.0 
6.093265636214e-05 -9.563749668912e-06 0.0 
7.447546552263e-05 2.200298015037e-05 0.0 
4.637556166233e-05 -6.276413155478e-05 0.0 
3.471641580019e-05 -8.885647575850e-05 0.0 
2.098843156077e-05 -8.894631322912e-05 0.0 
8.483976636568e-05 -1.295717945744e-05 0.0 
6.178494858715e-05 9.090687921628e-04 0.0 
8.771647504539e-06 -8.930948378831e-05 0.0 
5.837176317716e-05 -7.460941749440e-05 0.0 
1.242885356729e-05 -9.443037555700e-05 0.0 
9.638087505949e-05 9.277097602893e-04 0.0 
5.145555196029e-05 -7.291430265210e-05 0.0 
1.013888636011e-04 -1.812191564861e-05 0.0 
3.920913436834e-05 -7.757422012636e-05 0.0 
4.204591438517e-05 5.326827398384e-04 0.0 
5.636727207962e-05 -7.941937489616e-05 0.0 
1.089604748074e-04 -6.484899838046e-06 0.0 
5.253511831258e-05 -6.903972838691e-05 0.0 
1.016585910511e-04 -1.335476622465e-05 0.0 
3.668305041193e-05 -5.104220314912e-05 0.0 
7.622707245340e-05 -1.051532052102e-05 0.0 
2.126206154366e-04 7.384533913624e-05 0.0 
1.552845446105e-05 -9.403463480533e-05 0.0 
7.384660343253e-05 1.065114525161e-03 0.0 
2.377644435551e-04 4.273608255313e-05 0.0 
4.711268203470e-04 7.713823536845e-04 0.0 
6.988956687775e-05 9.135984744955e-04 0.0 
7.039836343125e-05 -5.896231693537e-05 0.0 
1.268550602903e-04 8.665844220417e-04 0.0 
1.468746362141e-05 -9.533938206703e-05 0.0 
7.703747849230e-05 2.448878019889e-06 0.0 
2.467225676933e-04 5.643379940784e-05 0.0 
3.126288627523e-04 1.450866677034e-04 0.0 
4.890738586400e-05 3.330949164631e-04 0.0 
1.602718539944e-04 -1.630752041376e-05 0.0 
2.563354672978e-05 -9.209620597892e-05 0.0 
1.377549989981e-04 -1.173624769982e-05 0.0 
7.888686104832e-05 7.636178782399e-06 0.0 
1.148097603014e-04 -4.290862002032e-05 0.0 
6.906087417111e-05 -1.203667400943e-05 0.0 
7.183044483759e-05 6.954899058694e-04 0.0 
9.177767444871e-05 -2.378203808279e-05 0.0 
1.193576447386e-04 -1.303487772725e-05 0.0 
1.314644707828e-04 1.091156845024e-03 0.0 
2.408942131598e-05 -8.755118073997e-05 0.0 
6.420143300874e-05 -7.553196466076e-05 0.0 
4.732533512359e-04 5.749711404469e-04 0.0 
9.272773352671e-05 -1.102911058911e-05 0.0 
4.494891101781e-04 9.896747579106e-04 0.0 
4.688858368878e-04 5.360575564969e-04 0.0 
1.070642058459e-04 7.857288144886e-04 0.0 
7.640895236989e-05 9.915712298599e-04 0.0 
1.343002487169e-04 1.017020388556e-03 0.0 
4.446269601776e-05 -5.028923724645e-05 0.0 
1.159140974788e-04 1.177066302235e-05 0.0 
1.566547765864e-04 -9.153005139444e-06 0.0 
1.013969090343e-04 1.079971575021e-03 0.0 
1.843078943197e-04 2.966285476442e-04 0.0 
3.038678420167e-04 1.536109595761e-04 0.0 
1.102874290968e-04 -1.092975380782e-05 0.0 
7.071566477062e-05 6.233275927542e-04 0.0 
9.622244100653e-05 -6.160736946219e-05 0.0 
7.948319244653e-05 -6.913306793354e-05 0.0 
3.125611601191e-05 -8.914648030371e-05 0.0 
1.481557804004e-04 -2.755520910867e-06 0.0 
7.270623452833e-05 -6.869329648636e-05 0.0 
1.069689664629e-04 8.588215964420e-04 0.0 
1.258863569659e-04 9.402568487342e-04 0.0 
3.376063642017e-04 1.451030269690e-04 0.0 
7.515860201614e-05 -7.288181708379e-05 0.0 
2.501466047830e-04 1.957888234210e-04 0.0 
7.089007900987e-05 -7.355548402016e-05 0.0 
8.702684692626e-05 -6.657045080325e-05 0.0 
3.539462158342e-05 -8.854155954661e-05 0.0 
1.396987505834e-04 1.642041081022e-05 0.0 
1.437201881291e-04 -3.780997555679e-05 0.0 
6.149369646451e-05 5.468919146869e-04 0.0 
1.644252444262e-04 -2.549156950149e-05 0.0 
1.478890601281e-04 -7.908856289985e-06 0.0 
1.547823686231e-04 -2.250036216694e-05 0.0 
4.413316649407e-04 3.994782993637e-04 0.0 
3.186291141251e-05 -9.002683750714e-05 0.0 
9.985716225695e-05 1.075358582689e-05 0.0 
8.677667168794e-05 1.144381809943e-05 0.0 
4.194651859241e-04 4.773372008599e-04 0.0 
1.046316203848e-04 -5.836511062754e-05 0.0 
1.536740799259e-04 -1.493312565348e-05 0.0 
9.751924160046e-05 8.545366763180e-04 0.0 
8.830228761215e-05 -6.183703824124e-05 0.0 
4.492901829484e-04 6.454763411425e-04 0.0 
5.050242474767e-05 -8.091043478839e-05 0.0 
9.085697581474e-05 -4.665768844592e-05 0.0 
1.142615978420e-04 -5.286374986134e-05 0.0 
4.354291937311e-05 -8.428591815997e-05 0.0 
2.808305433300e-05 -8.907605977798e-05 0.0 
1.439724116659e-04 -2.697584326754e-05 0.0 
1.287359532595e-04 -9.986807928808e-06 0.0 
2.963581466431e-04 2.974795068667e-04 0.0 
-1.137115092961e-05 -8.698866997331e-05 0.0 
2.128938810569e-04 9.959471531193e-06 0.0 
1.765652592989e-04 -1.831609496972e-05 0.0 
1.236247789631e-04 -4.879463140127e-05 0.0 
1.156792570502e-04 9.363644091833e-04 0.0 
1.513662703782e-04 -3.025070398806e-05 0.0 
5.151047228147e-05 -7.853882378526e-05 0.0 
1.334645044272e-04 -4.278294388320e-05 0.0 
4.925174569110e-05 6.091700054477e-04 0.0 
4.543849447325e-05 -7.967642180841e-05 0.0 
1.343256855418e-05 -9.237556266144e-05 0.0 
2.419326350632e-05 -9.117116284633e-05 0.0 
9.969762732313e-05 -4.874764526936e-05 0.0 
9.249859752453e-05 -6.505353094808e-05 0.0 
1.997020115143e-04 -2.589829826301e-06 0.0 
1.534126056332e-04 -3.139686000329e-05 0.0 
4.606141845736e-05 -6.072389099662e-05 0.0 
2.210240439511e-05 -9.263561056100e-05 0.0 
1.807915949715e-04 1.030485282291e-03 0.0 
3.845494230711e-05 -8.539000116344e-05 0.0 
1.474432825819e-04 1.376145670213e-05 0.0 
3.307826161626e-04 3.161005508373e-04 0.0 
3.203953428562e-04 9.088076593934e-04 0.0 
1.036341763994e-04 5.004355328743e-04 0.0 
2.567431433836e-04 2.696260150154e-04 0.0 
3.567168769788e-04 1.876241807496e-04 0.0 
3.804153080157e-04 3.960847880047e-04 0.0 
6.458580359553e-05 -4.886238054356e-05 0.0 
1.225598000432e-04 -4.501601832621e-05 0.0 
4.046508457069e-04 3.424237499747e-04 0.0 
1.104939942768e-04 1.733314687296e-05 0.0 
3.688762916666e-05 -4.930898660580e-05 0.0 
8.030290440125e-05 -6.670922679836e-05 0.0 
1.652326500454e-04 -2.566756181609e-05 0.0 
1.875286177166e-04 -1.118616151112e-05 0.0 
3.934246987345e-05 -8.315211581501e-05 0.0 
1.704113322348e-04 -1.826905164905e-05 0.0 
2.003446418802e-04 -6.196037120236e-07 0.0 
2.385082183580e-04 3.002384483149e-05 0.0 
8.496607668351e-05 -6.839445350303e-05 0.0 
2.815417286453e-04 9.009672370388e-05 0.0 
1.167431997576e-04 7.895992005375e-04 0.0 
2.529222215661e-04 4.983489729426e-05 0.0 
1.227971383024e-04 1.484778239111e-05 0.0 
8.604877945479e-05 -3.444084343185e-05 0.0 
1.074843560970e-04 2.162856465321e-05 0.0 
1.854548415800e-04 -1.181021021713e-05 0.0 
2.090778373349e-04 2.288591458983e-04 0.0 
4.130656595413e-04 7.083626074307e-04 0.0 
7.539822427402e-05 -5.188311025688e-05 0.0 
3.351823671659e-04 8.233311657655e-04 0.0 
1.318771112769e-04 4.408864453957e-04 0.0 
2.063925004614e-04 3.163646188247e-06 0.0 
3.743905046466e-04 4.927189667746e-04 0.0 
3.462049898789e-04 7.375617882733e-04 0.0 
4.783295701273e-04 6.949676292773e-04 0.0 
4.907400241091e-05 -5.337672194376e-05 0.0 
5.122220867497e-05 2.113769791749e-04 0.0 
3.283073954358e-05 -6.433660002863e-05 0.0 
1.816944565219e-04 6.978835000020e-05 0.0 
4.318406368134e-05 3.967062724055e-04 0.0 
2.516107817804e-04 6.897131676730e-05 0.0 
1.040185183894e-04 1.006378521646e-03 0.0 
1.091758919306e-04 5.719979358955e-04 0.0 
2.251300627307e-04 1.787902981168e-05 0.0 
3.384131227773e-04 1.374276940880e-04 0.0 
8.016422727806e-05 3.562902885695e-04 0.0 
1.174026205177e-04 -3.795169746589e-06 0.0 
1.254231268114e-04 7.200500109655e-04 0.0 
2.236219748079e-04 3.836238789341e-05 0.0 
6.892714248144e-05 -3.999557029814e-05 0.0 
1.326935211678e-04 6.503796835053e-04 0.0 
1.385764550573e-04 1.043306285866e-04 0.0 
9.136803021883e-05 1.364556085370e-05 0.0 
1.324986769845e-04 -4.109454166772e-05 0.0 
1.138671755177e-04 1.010748250416e-03 0.0 
1.212384974993e-04 1.088777146435e-03 0.0 
1.736840775431e-04 -1.876415136112e-05 0.0 
1.373936493387e-04 -1.788058309820e-06 0.0 
1.438248239906e-04 6.240445902941e-06 0.0 
1.942526591566e-05 -9.106843654751e-05 0.0 
1.987371472823e-04 2.007948966761e-04 0.0 
2.808342666345e-04 7.528290604515e-05 0.0 
2.391114899052e-04 3.502800516147e-05 0.0 
4.644312955967e-04 5.380826980532e-04 0.0 
6.375973498089e-05 2.839967643662e-04 0.0 
1.896794712189e-04 3.738725525177e-04 0.0 
4.872592267374e-05 4.014831750705e-04 0.0 
4.509320942866e-04 1.031715976411e-03 0.0 
1.594594622799e-04 5.845198756365e-04 0.0 
1.281078833279e-04 -5.191953917922e-06 0.0 
6.060120317177e-05 3.450122711832e-04 0.0 
1.573990602951e-04 7.277757218844e-04 0.0 
1.407080254313e-04 -3.497541732607e-05 0.0 
2.965079023147e-04 1.046324398291e-04 0.0 
1.226600708127e-04 6.474188555086e-04 0.0 
8.851836484784e-05 4.258247652855e-04 0.0 
9.505688974499e-05 6.365186106966e-04 0.0 
1.155457210526e-04 7.166638790144e-04 0.0 
1.025438229496e-04 6.345666353510e-06 0.0 
2.166357085782e-04 9.269940035867e-05 0.0 
1.242291189289e-04 9.434673233005e-06 0.0 
1.358869748952e-04 -1.715609636604e-05 0.0 
3.716321237395e-04 1.349026525052e-03 0.0 
2.519295596530e-04 7.978526297799e-05 0.0 
2.184619626869e-04 7.279099469896e-04 0.0 
3.244883798580e-05 -8.828861958844e-05 0.0 
2.663342804535e-04 5.857905161352e-05 0.0 
2.669522961398e-04 5.318014078671e-05 0.0 
3.296036518264e-04 1.279615877628e-04 0.0 
1.311799360842e-04 7.557737680576e-05 0.0 
2.816206902161e-04 8.448822028664e-05 0.0 
3.112723274857e-04 1.165594898293e-04 0.0 
4.195391640993e-04 1.098822067228e-03 0.0 
1.376379619588e-04 -3.305050821280e-05 0.0 
1.713781396602e-04 8.771492515575e-04 0.0 
1.105370878026e-04 1.327784662494e-03 0.0 
-1.667883447442e-04 5.284376393053e-04 0.0 
1.430403393647e-04 -1.910882547024e-05 0.0 
2.319357588120e-04 6.075585353696e-05 0.0 
1.521534976142e-04 3.143570391498e-04 0.0 
3.318183320618e-04 1.306630852930e-04 0.0 
1.388281564760e-04 -2.495870133111e-05 0.0 
1.374098487611e-04 8.699578160143e-04 0.0 
-1.174840071298e-04 7.653057739684e-04 0.0 
2.624163144936e-04 7.954221433097e-05 0.0 
3.142337949216e-04 1.052911439206e-04 0.0 
4.163189033477e-04 1.051908461319e-03 0.0 
1.347950614298e-04 2.533589609577e-06 0.0 
1.041316108639e-04 1.839399220947e-06 0.0 
1.388566917511e-04 9.852838493673e-06 0.0 
1.172646268143e-04 1.899700057341e-05 0.0 
2.929629281996e-04 1.032044485190e-04 0.0 
1.039086670002e-04 6.404872902645e-04 0.0 
3.346023218605e-04 2.496602488575e-04 0.0 
1.113315616115e-04 1.603244794993e-05 0.0 
-7.348185559667e-06 1.196329522274e-03 0.0 
1.480240572566e-04 7.990609908577e-04 0.0 
2.302854917944e-04 1.189452791570e-04 0.0 
1.003018938769e-04 5.684525026025e-04 0.0 
3.152684605451e-04 1.142272317817e-04 0.0 
3.105870749188e-04 1.139946329625e-04 0.0 
8.165544923619e-05 -4.057984170793e-05 0.0 
5.608950201479e-06 1.293358405521e-04 0.0 
7.953961409669e-05 4.891530719696e-04 0.0 
2.878416093966e-05 -8.696840539375e-05 0.0 
1.467465544655e-04 1.509092287014e-03 0.0 
3.610933672717e-04 3.079999691852e-04 0.0 
4.354185242837e-05 3.285747181658e-04 0.0 
7.838141549379e-05 -1.837533695339e-05 0.0 
4.690975895035e-04 6.030405146748e-04 0.0 
1.463052404358e-04 7.257131033589e-04 0.0 
1.136557595076e-04 -3.725561137620e-05 0.0 
1.238147083432e-04 5.417532599716e-05 0.0 
3.426506896768e-04 4.733683361340e-04 0.0 
3.973511361763e-05 -4.033717135188e-05 0.0 
8.352370656742e-05 -5.377747782411e-06 0.0 
5.998820376623e-05 -2.457666844873e-05 0.0 
3.282527618413e-04 1.233433342451e-04 0.0 
2.740758168659e-05 7.186011533881e-05 0.0 
2.397258695071e-04 1.627682122757e-03 0.0 
8.258270138498e-05 4.216900293807e-06 0.0 
3.224016241553e-04 1.850748333137e-04 0.0 
1.828471069593e-04 8.035119700368e-04 0.0 
6.225714102008e-05 1.205554136914e-04 0.0 
1.016818668054e-04 1.863496792491e-05 0.0 
5.626282574780e-05 -3.553809644443e-05 0.0 
3.385250887311e-05 -8.113460619723e-05 0.0 
2.937179182963e-04 1.163043584225e-04 0.0 
2.099942924149e-04 4.797258880132e-06 0.0 
2.527364045297e-04 1.217170976136e-04 0.0 
4.201815166771e-04 6.974819525562e-04 0.0 
2.010080264718e-04 6.567831665786e-04 0.0 
1.842406377023e-04 7.512789636475e-05 0.0 
1.371753939872e-04 7.963587264611e-04 0.0 
1.612596126088e-04 3.133287662021e-04 0.0 
1.381655560623e-04 5.808467732635e-04 0.0 
1.413614928393e-04 5.115365782935e-04 0.0 
1.167913106853e-04 2.692795724106e-04 0.0 
8.324996945241e-05 -8.553089985661e-08 0.0 
1.538946102410e-04 6.550115350713e-04 0.0 
3.969819175959e-04 2.559478574568e-04 0.0 
2.858666172193e-04 1.645350343083e-03 0.0 
1.537666610617e-04 6.375911159706e-05 0.0 
1.554459864542e-04 1.545468869360e-04 0.0 
3.403747215880e-05 -8.394307985578e-05 0.0 
2.764110675481e-04 1.316970030160e-04 0.0 
2.659785671517e-06 -9.620495466185e-05 0.0 
4.559870835283e-04 4.431244977283e-04 0.0 
2.616456729787e-04 9.033470248636e-05 0.0 
1.119413446383e-04 3.715439074231e-04 0.0 
1.064248500136e-04 3.041103328244e-04 0.0 
2.835536273735e-04 1.031993786544e-04 0.0 
1.124831209619e-04 5.037543092051e-04 0.0 
3.577341839416e-04 2.287590268523e-04 0.0 
3.551606665713e-04 3.652281309295e-04 0.0 
3.016388358850e-04 1.605873361546e-03 0.0 
2.094685850825e-04 3.018646799977e-04 0.0 
2.967256853324e-04 1.528007872856e-03 0.0 
2.887664515725e-04 1.478425449912e-03 0.0 
3.527614717089e-04 1.694909427168e-04 0.0 
2.774859565829e-04 1.423874726415e-03 0.0 
4.255052381200e-04 3.246144456768e-04 0.0 
4.187816713689e-04 3.514857489279e-04 0.0 
2.926096188557e-04 8.385814396242e-05 0.0 
9.867158356247e-05 4.529004930376e-05 0.0 
3.258964689922e-04 1.363837831184e-04 0.0 
8.100880729301e-05 4.222273899726e-04 0.0 
1.752894448457e-04 3.005595430211e-04 0.0 
9.852073120719e-05 -4.803865901623e-06 0.0 
2.212809072555e-04 1.009579544890e-04 0.0 
2.228731044546e-04 1.468704327490e-05 0.0 
1.313065317429e-04 5.093976537785e-04 0.0 
3.074752150414e-04 1.024256513374e-04 0.0 
6.617933159258e-05 -6.461429340001e-07 0.0 
1.280582868483e-04 5.782775402231e-04 0.0 
1.707130256289e-04 5.853547421079e-04 0.0 
2.869759700292e-04 8.780614778388e-05 0.0 
3.427405591997e-04 1.780572624424e-04 0.0 
3.008593914713e-04 2.845880455658e-04 0.0 
4.019329009139e-04 7.327098652270e-04 0.0 
9.345006550524e-05 2.642089864690e-05 0.0 
1.467851576248e-04 1.255392402594e-04 0.0 
4.310611084195e-04 6.376090701177e-04 0.0 
4.672375659973e-04 6.433532345569e-04 0.0 
5.072304286140e-05 -7.918934446980e-07 0.0 
1.651335553623e-04 6.565457129292e-04 0.0 
3.270752587204e-04 1.512047805591e-04 0.0 
4.334342372599e-04 5.333752080069e-04 0.0 
2.293924383884e-04 6.950366253675e-05 0.0 
8.725062079080e-05 4.932927242684e-04 0.0 
2.634900206543e-04 2.616424678369e-04 0.0 
1.957286530066e-04 8.779490672999e-04 0.0 
1.716613420889e-04 3.468157745017e-05 0.0 
3.169965769750e-04 1.103748598172e-04 0.0 
2.202041702606e-04 6.104515065939e-05 0.0 
4.636745210046e-04 4.860565837930e-04 0.0 
8.770752646778e-05 3.614503216618e-04 0.0 
2.161143537504e-04 2.233074589710e-04 0.0 
3.027095270046e-04 9.426378020795e-05 0.0 
1.168857525434e-04 1.142941206682e-04 0.0 
3.061976429089e-04 2.133755331722e-04 0.0 
4.460090757129e-04 3.966487710084e-04 0.0 
3.417728483257e-04 1.966816407772e-04 0.0 
3.023933026430e-04 9.858161455140e-05 0.0 
1.649320325562e-04 2.272008799560e-05 0.0 
1.105149862093e-04 8.889758775296e-05 0.0 
3.095724007707e-04 9.908727828764e-05 0.0 
3.324827093929e-04 7.513333354326e-04 0.0 
4.610665800643e-05 -1.804141104859e-06 0.0 
3.402158146425e-04 6.672829043689e-04 0.0 
3.354434744085e-04 2.664270941434e-04 0.0 
3.207244716880e-04 8.354404068536e-04 0.0 
2.880476638262e-04 1.001601669933e-03 0.0 
4.058861094708e-04 6.411471271424e-04 0.0 
2.414215684173e-04 1.016629536203e-04 0.0 
9.478948971845e-05 -1.216378849735e-06 0.0 
1.806742522906e-04 7.300970649360e-04 0.0 
9.845165971315e-05 3.026364770270e-04 0.0 
3.056071857708e-04 9.189927561588e-04 0.0 
2.764609894813e-04 1.600448902628e-04 0.0 
2.768496212966e-04 1.917986358426e-04 0.0 
6.660669970082e-05 3.478157208379e-04 0.0 
4.357270838376e-04 3.620117076541e-04 0.0 
4.480697951625e-04 4.005956897936e-04 0.0 
3.067438426565e-04 1.560959476011e-04 0.0 
1.886512649016e-04 6.576220318275e-04 0.0 
4.623050561237e-04 9.083753422556e-04 0.0 
4.110188640858e-04 2.908961516422e-04 0.0 
4.636408378811e-04 8.433198823653e-04 0.0 
2.884039941685e-04 1.261208131022e-04 0.0 
2.074402306622e-04 1.347388021844e-04 0.0 
2.951918040154e-04 1.166670826071e-04 0.0 
6.221581839109e-06 1.020987228881e-04 0.0 
1.227809515070e-04 3.057374260736e-04 0.0 
4.627060248175e-04 9.498556402574e-04 0.0 
2.455104513718e-04 3.335586267521e-05 0.0 
2.431527931246e-04 1.578915534062e-04 0.0 
1.929383984809e-04 7.303385173629e-04 0.0 
1.141359305844e-04 1.581050970166e-07 0.0 
3.893686443435e-04 3.015047764783e-04 0.0 
-1.966898767074e-05 9.402722346470e-05 0.0 
3.273729007471e-05 -1.287095471099e-06 0.0 
4.612101387702e-04 5.455382060125e-04 0.0 
3.447990172903e-04 1.839205802957e-04 0.0 
2.701080960783e-04 2.380746872713e-04 0.0 
-6.901648269928e-05 1.049422322535e-04 0.0 
1.222426054857e-04 3.082968845081e-06 0.0 
2.747572388058e-04 3.425508656168e-04 0.0 
2.086207017486e-04 8.771466325902e-04 0.0 
1.130608778112e-04 -2.884743516073e-05 0.0 
3.104497663476e-04 1.408502731812e-04 0.0 
6.073301606822e-05 -2.019342502773e-06 0.0 
4.336375098533e-04 3.564922763875e-04 0.0 
2.853929297577e-04 1.443612811991e-04 0.0 
4.503698054488e-04 5.259083008883e-04 0.0 
-1.743145406877e-05 6.880353654158e-05 0.0 
3.829147881882e-04 3.744271349912e-04 0.0 
2.798574273946e-04 1.134331246104e-04 0.0 
1.726945498927e-04 1.880886751750e-04 0.0 
3.335453702858e-04 2.999754400927e-04 0.0 
1.957227648163e-04 1.222211846945e-04 0.0 
9.091682797211e-05 -6.923064235847e-06 0.0 
5.771176495848e-05 2.791195719476e-04 0.0 
1.214708507345e-04 5.401064843392e-05 0.0 
2.697414301130e-04 1.199014131530e-04 0.0 
3.740601680688e-04 2.393426160862e-04 0.0 
4.217160463851e-04 4.497512543692e-04 0.0 
3.718777460886e-05 -3.504259716099e-06 0.0 
2.497601186794e-05 -4.788492249954e-05 0.0 
3.604229008670e-04 3.274453671714e-04 0.0 
1.708108600850e-04 8.027248048431e-04 0.0 
7.698619037109e-05 -1.846338782762e-06 0.0 
1.166447952243e-04 6.371659877777e-06 0.0 
4.449099166975e-05 1.400572086464e-03 0.0 
2.970792652455e-05 1.400778771476e-03 0.0 
3.135929805530e-04 6.912968309711e-04 0.0 
4.042379155214e-04 3.994738835246e-04 0.0 
9.762787567460e-05 -2.829073748860e-05 0.0 
3.863187546342e-04 5.983488138636e-04 0.0 
4.284637158212e-04 3.272850076054e-04 0.0 
1.577700474664e-04 4.358391219136e-05 0.0 
3.894649142254e-04 2.740366403257e-04 0.0 
2.450628901815e-05 7.369848087750e-05 0.0 
2.905462053297e-04 1.146261022673e-03 0.0 
4.386567070041e-04 3.631097571013e-04 0.0 
1.227924749517e-04 -2.600587463229e-05 0.0 
1.874523189354e-04 1.675895842636e-04 0.0 
1.273921182578e-04 -3.680568249396e-05 0.0 
4.377316161118e-04 4.722051227939e-04 0.0 
4.525287701992e-04 6.547554701333e-04 0.0 
2.080033018915e-04 8.029509877540e-04 0.0 
3.737611770728e-04 5.349734337128e-04 0.0 
3.495920390224e-04 4.915648396946e-04 0.0 
5.512721855760e-06 -9.858182655473e-05 0.0 
1.205233047891e-04 -4.265206826574e-05 0.0 
4.682744111552e-04 8.923215117169e-04 0.0 
3.724314536182e-04 7.047817604264e-04 0.0 
3.529381922867e-04 6.526020225537e-04 0.0 
2.077718001818e-04 7.812717007163e-05 0.0 
1.522722932563e-06 -9.460068613779e-05 0.0 
7.862012539985e-05 5.736197763757e-05 0.0 
4.665552817205e-04 5.207618328223e-04 0.0 
1.108930933354e-04 -4.574453145537e-05 0.0 
3.013850058823e-04 1.465461277688e-03 0.0 
2.904850944952e-04 1.414131710115e-03 0.0 
2.211701045273e-04 8.013612826296e-04 0.0 
8.285798991276e-05 2.958978416284e-04 0.0 
1.090257508781e-04 -3.432485568704e-05 0.0 
2.218927459711e-04 5.234360664932e-05 0.0 
8.309830030559e-05 7.956746527817e-05 0.0 
1.142841519658e-04 8.023747717303e-05 0.0 
1.136267501672e-04 4.373776862415e-04 0.0 
8.593754975918e-05 -4.404590201977e-05 0.0 
8.092180740205e-05 -5.096385066865e-06 0.0 
6.963996864768e-06 -9.794714697112e-05 0.0 
2.190388411835e-04 4.199209997379e-05 0.0 
4.602221982344e-04 5.079795218287e-04 0.0 
5.569166136304e-06 -9.880463910076e-05 0.0 
1.049106086001e-04 4.343035747086e-04 0.0 
5.941192028546e-05 9.449939454823e-05 0.0 
3.845344492562e-04 6.855511007954e-04 0.0 
4.573035968730e-04 6.194350646170e-04 0.0 
2.496944948304e-04 3.805792233237e-05 0.0 
2.018914733395e-04 1.346515155226e-05 0.0 
1.037459446250e-04 3.701740727840e-04 0.0 
1.901316354672e-04 1.729844487027e-05 0.0 
4.525056759907e-04 4.330718431548e-04 0.0 
4.622538329165e-04 4.799508480047e-04 0.0 
-1.798281708537e-04 4.460137922348e-04 0.0 
3.238268539555e-05 8.578830447009e-05 0.0 
3.077059483966e-04 2.426306814846e-04 0.0 
2.766101547229e-04 9.335002339927e-04 0.0 
2.775167742363e-04 2.042869388692e-04 0.0 
2.904552972326e-04 3.944132546894e-04 0.0 
2.324288776265e-04 5.047933845201e-04 0.0 
2.729642611625e-04 2.263453818977e-04 0.0 
3.038468948399e-04 1.338566789333e-03 0.0 
3.064783106787e-04 2.567336294477e-04 0.0 
7.412001904437e-05 -6.760572483700e-06 0.0 
4.214093154391e-04 3.937608849410e-04 0.0 
1.234638401615e-04 -3.429361012402e-05 0.0 
1.285654286726e-04 -2.852129390642e-05 0.0 
1.317891271962e-04 3.070935343819e-04 0.0 
2.072198119294e-04 8.628548437987e-06 0.0 
4.483232870579e-04 5.594924396107e-04 0.0 
3.938466553329e-04 2.356117725864e-04 0.0 
1.719436199954e-04 1.976658023891e-05 0.0 
4.237375050524e-04 3.245354980521e-04 0.0 
2.116095643425e-04 1.083798705810e-04 0.0 
2.863374852693e-04 7.370526367389e-05 0.0 
2.507916312230e-04 1.473124606847e-04 0.0 
3.760998530470e-04 6.184055297204e-04 0.0 
2.373667680296e-04 1.202403753660e-04 0.0 
4.149487345396e-04 6.165892176851e-04 0.0 
2.351038412012e-04 9.243026969779e-05 0.0 
2.548771361231e-04 9.798104073868e-05 0.0 
4.158960679829e-04 3.191499461140e-04 0.0 
2.353485160103e-04 8.725510860554e-04 0.0 
6.473808648905e-05 -4.883725768370e-06 0.0 
5.871692208911e-05 -6.165549465175e-06 0.0 
6.372380499612e-06 3.092263066771e-04 0.0 
4.036708607210e-04 5.539415167570e-04 0.0 
3.639346179294e-05 -5.516911416495e-07 0.0 
3.745335308657e-04 1.330306458060e-03 0.0 
8.549761620875e-05 -3.543498613402e-05 0.0 
-1.558234328825e-04 4.705131792016e-04 0.0 
5.009546681332e-05 -4.313413859738e-06 0.0 
2.071738217326e-04 1.503706496157e-04 0.0 
2.078698017859e-05 -4.418910361657e-05 0.0 
3.536129693406e-04 2.029519449733e-04 0.0 
2.491739949978e-04 8.691412605389e-04 0.0 
2.622606126288e-04 9.387902872814e-04 0.0 
4.489503092431e-04 4.573567853656e-04 0.0 
3.133823807075e-04 1.548432745472e-03 0.0 
3.093060565823e-04 1.510677742133e-03 0.0 
4.483275513397e-05 -5.278128141528e-06 0.0 
2.025158007100e-04 1.884251402816e-05 0.0 
2.531082146973e-04 4.057743195473e-05 0.0 
2.299053753330e-04 5.023021426271e-05 0.0 
2.877696706586e-04 7.505493870561e-05 0.0 
2.364854844521e-04 1.636014208209e-04 0.0 
3.015058997027e-04 1.570772663324e-03 0.0 
2.824229463646e-04 1.079391671088e-03 0.0 
3.737090991867e-05 1.444050656589e-03 0.0 
2.468296726298e-04 8.798759838269e-05 0.0 
4.018615122028e-04 2.826198110083e-04 0.0 
1.575741920107e-04 6.918140016888e-05 0.0 
1.892002182411e-05 -8.693541062682e-06 0.0 
2.952110906399e-04 8.233486455101e-05 0.0 
3.045013180230e-05 8.490816725185e-07 0.0 
2.351556548063e-04 8.456482822314e-05 0.0 
1.963905041107e-04 9.591962233074e-05 0.0 
4.455352358033e-04 4.232600915093e-04 0.0 
4.001505769148e-04 3.244844329773e-04 0.0 
1.586967615557e-04 3.491652629681e-05 0.0 
1.225170977733e-04 -5.010864743048e-05 0.0 
4.288428765970e-04 5.625674106485e-04 0.0 
2.733698632488e-04 5.970688615644e-05 0.0 
4.389570997212e-04 6.240050477685e-04 0.0 
3.261055835225e-04 4.148804088729e-04 0.0 
3.745828493146e-04 2.646562648838e-04 0.0 
2.637098252650e-04 5.180623698162e-05 0.0 
1.068302980531e-04 -2.599413898574e-05 0.0 
4.317909531090e-04 6.539174331697e-04 0.0 
-1.367431430824e-04 3.282144398661e-04 0.0 
3.801837404176e-04 2.128717359737e-04 0.0 
-8.212750338606e-05 4.651292283256e-04 0.0 
1.629415592908e-05 -9.419328972270e-05 0.0 
9.446542502697e-05 -3.352566212985e-05 0.0 
3.219139927975e-04 3.469761941467e-04 0.0 
2.774698946476e-04 8.607712671093e-04 0.0 
3.075761016112e-04 1.594345713856e-03 0.0 
1.267875528460e-05 3.573350965253e-05 0.0 
-1.926452118133e-04 3.790877461108e-04 0.0 
3.132852759913e-04 1.576415381602e-03 0.0 
2.453618239411e-04 3.597571612530e-05 0.0 
7.297591691140e-05 -4.212724065237e-05 0.0 
3.762738875845e-04 1.296394388626e-03 0.0 
2.049409147768e-04 2.328883956097e-05 0.0 
2.114065615002e-04 1.489606300675e-05 0.0 
4.373000604418e-04 4.412122914550e-04 0.0 
3.561672566425e-04 1.880181668975e-04 0.0 
2.526511685197e-04 3.535899448388e-04 0.0 
4.352846806414e-05 2.808401610804e-04 0.0 
9.494701217718e-05 -4.208186846931e-05 0.0 
6.830690322984e-05 -3.848014772590e-05 0.0 
7.139423375143e-05 -7.421946247877e-05 0.0 
2.891790561193e-04 1.282060964736e-03 0.0 
2.918455632014e-04 8.543584323635e-04 0.0 
6.805549120644e-06 -1.868534988560e-05 0.0 
5.055889877615e-06 -9.865094696598e-05 0.0 
-9.834043439221e-05 1.232464996657e-04 0.0 
4.075078619067e-05 -8.171661651387e-05 0.0 
5.997840270521e-05 -3.970428624941e-05 0.0 
2.624607947623e-04 8.464554448622e-05 0.0 
1.983806619426e-04 2.929077549316e-05 0.0 
2.001052005924e-04 8.465195318496e-05 0.0 
8.000267763319e-05 -3.204779721464e-05 0.0 
2.999312951732e-04 7.000668047058e-04 0.0 
5.508645791540e-05 -3.595221548272e-05 0.0 
2.768471976856e-04 1.061718991397e-04 0.0 
4.103988561661e-04 5.298320951216e-04 0.0 
1.738937367114e-04 1.182555201505e-03 0.0 
3.103980591297e-04 1.680400418039e-04 0.0 
4.708316026063e-05 -3.693031358664e-05 0.0 
7.149149697907e-05 -3.354555986209e-05 0.0 
2.757702700688e-04 1.589066514061e-03 0.0 
2.517197065246e-04 5.704703985039e-05 0.0 
4.195424870575e-05 -3.314040562762e-05 0.0 
6.681592946269e-06 8.766574613226e-04 0.0 
7.380896530836e-06 1.022261856692e-03 0.0 
2.953412417411e-04 1.600313111625e-03 0.0 
6.587175461561e-05 -3.002535477860e-05 0.0 
1.651500886777e-04 -1.036695091315e-05 0.0 
9.078926748195e-06 5.208007390746e-04 0.0 
1.926933673285e-04 8.880873906689e-05 0.0 
4.010950848542e-05 -7.242524051320e-05 0.0 
1.705297199003e-04 -1.324652328408e-05 0.0 
3.943607103833e-04 2.377689742010e-04 0.0 
2.970663477228e-04 1.630609940947e-03 0.0 
3.418005875334e-05 -3.392006298126e-05 0.0 
4.206889290658e-06 -8.808698885290e-05 0.0 
2.839969854004e-04 1.219039349351e-03 0.0 
5.779521607657e-05 -3.120787187573e-05 0.0 
2.320672166232e-04 2.212979863755e-05 0.0 
9.963272047240e-05 -3.670648415330e-05 0.0 
-1.117871158993e-04 2.651354278004e-04 0.0 
8.328968501204e-06 4.497751146433e-04 0.0 
2.119943091935e-04 1.361297342296e-05 0.0 
1.882216825934e-04 5.768849952128e-05 0.0 
3.959737383863e-04 3.002103418385e-04 0.0 
5.219901737330e-05 -2.763281309809e-05 0.0 
4.436134765725e-05 -2.858724874606e-05 0.0 
2.431260553529e-04 7.442694982464e-05 0.0 
9.775363434748e-06 -6.383672270433e-05 0.0 
-1.107793403440e-04 3.022836410465e-04 0.0 
3.876164963513e-05 -2.499609731747e-05 0.0 
1.666643263016e-04 4.015886389554e-05 0.0 
1.354731385979e-04 -3.793039403673e-05 0.0 
3.950126057928e-04 4.720201746490e-04 0.0 
3.604576444349e-04 1.288388920730e-03 0.0 
3.820506580908e-04 5.151240460635e-04 0.0 
5.797264011126e-05 1.026357250489e-05 0.0 
-1.608926602399e-04 1.448504594416e-04 0.0 
1.221186434482e-06 3.920974114910e-05 0.0 
1.427417547117e-06 1.078527657432e-07 0.0 
4.615598262383e-06 1.253446986322e-03 0.0 
1.760514990968e-04 -1.723407690991e-05 0.0 
4.188828035250e-04 3.659382837472e-04 0.0 
2.707542471191e-04 1.186204233119e-04 0.0 
1.239231767881e-05 -9.403596812195e-05 0.0 
-1.717201048022e-04 3.984469610594e-04 0.0 
3.449274687342e-05 3.233371909894e-04 0.0 
3.043631285351e-04 7.722125502554e-04 0.0 
2.780636711763e-04 1.356569220197e-03 0.0 
5.706314652093e-05 3.533784679901e-05 0.0 
3.404830312184e-06 -9.265738214472e-05 0.0 
5.406067029409e-05 3.040409277161e-05 0.0 
2.902723771339e-04 7.809454789999e-04 0.0 
1.435498476043e-04 -3.858417729836e-05 0.0 
4.313584750880e-04 3.792929964049e-04 0.0 
1.631089656485e-04 -2.431825224453e-05 0.0 
7.095429991569e-05 6.309196122825e-04 0.0 
1.395407048432e-04 -3.864372958390e-05 0.0 
3.058513489517e-04 6.206087293189e-04 0.0 
1.887503633238e-05 -5.913520399984e-06 0.0 
1.972090015882e-04 5.522941219607e-06 0.0 
3.653390081269e-04 4.563661114126e-04 0.0 
-1.378638045479e-04 1.166622432558e-04 0.0 
2.350545346467e-04 4.779269717420e-05 0.0 
2.441040957324e-04 5.748977866314e-04 0.0 
1.114908434130e-04 -5.579992467666e-05 0.0 
1.128069644792e-04 -5.090248973477e-05 0.0 
4.259573494157e-04 3.489482534295e-04 0.0 
4.812204058778e-05 -5.279625747977e-06 0.0 
2.027238399456e-04 1.503013264051e-03 0.0 
2.431557917694e-04 1.566747887327e-03 0.0 
9.673431157407e-05 -6.177653945238e-05 0.0 
2.322894728255e-04 2.579913868003e-05 0.0 
4.161018452319e-04 2.934150271172e-04 0.0 
3.715729603837e-04 4.373716616335e-04 0.0 
1.594357600553e-04 2.362141210095e-04 0.0 
2.669336314821e-04 1.645904434314e-03 0.0 
1.237288729377e-05 7.256931251280e-04 0.0 
1.856655273206e-04 1.781572780462e-04 0.0 
2.483974436492e-04 1.072319470569e-04 0.0 
-8.908011922071e-05 5.253180239096e-04 0.0 
3.845616384694e-04 1.261152589124e-03 0.0 
2.137967247110e-04 1.009842241727e-05 0.0 
3.404642197274e-04 5.073215656224e-04 0.0 
2.265926288331e-04 1.917479047180e-05 0.0 
-2.573022754800e-05 2.595804460801e-04 0.0 
2.257101387504e-04 2.869489985715e-05 0.0 
1.465197825870e-04 7.691994759036e-04 0.0 
4.033808135555e-04 2.613575216276e-04 0.0 
2.236803182742e-04 2.299028519426e-05 0.0 
4.093048393242e-04 3.113194496330e-04 0.0 
4.694993581137e-05 9.044066952474e-04 0.0 
8.914496554701e-05 -6.612719217947e-05 0.0 
-3.701232138882e-05 4.342746871721e-04 0.0 
2.140607093469e-04 2.597804014554e-05 0.0 
2.240512882566e-04 9.339279889764e-04 0.0 
-1.041830127456e-04 1.474087295190e-04 0.0 
3.097539813854e-06 2.943345457674e-04 0.0 
4.184773360993e-06 4.390763390297e-04 0.0 
-1.709880209274e-05 -6.562814788736e-05 0.0 
2.122446793078e-04 3.059621655473e-05 0.0 
5.648952852057e-05 -7.870285115815e-05 0.0 
6.132995101322e-05 -7.812522600306e-05 0.0 
3.159692282396e-04 3.612466170587e-04 0.0 
4.024986257276e-04 2.851451785563e-04 0.0 
3.507932880344e-04 3.832123129381e-04 0.0 
2.219793221976e-04 3.208924149004e-05 0.0 
8.456108156299e-05 1.449498656559e-03 0.0 
4.128360573498e-05 6.332652934094e-06 0.0 
4.670346882787e-05 -8.188300170004e-05 0.0 
2.145824580850e-04 6.794376177848e-05 0.0 
4.178984328342e-04 2.950664872232e-04 0.0 
9.596959271314e-06 -9.608379690971e-05 0.0 
3.433557910684e-04 5.857527086997e-04 0.0 
2.659181889935e-04 7.499650841113e-05 0.0 
-6.061999946529e-06 -4.767058090470e-05 0.0 
2.102828124230e-04 4.582205132139e-05 0.0 
3.614557349322e-06 -2.232826376278e-05 0.0 
3.187519025552e-04 6.103663498761e-04 0.0 
3.091707005827e-05 -7.028697743322e-05 0.0 
1.395195420115e-05 -4.553474283400e-05 0.0 
3.311570831332e-04 4.318265262618e-04 0.0 
2.882487324178e-04 1.570025266480e-04 0.0 
1.172372756131e-04 -5.115110003512e-05 0.0 
8.620231020234e-06 -8.766919059503e-05 0.0 
4.056914562083e-04 2.651661833482e-04 0.0 
3.513623027227e-06 9.527727326145e-04 0.0 
-1.314318335906e-05 -2.918604158278e-05 0.0 
1.359457281427e-04 1.133687556566e-04 0.0 
8.685778721878e-05 1.445198014437e-04 0.0 
1.606856842834e-05 1.155081949297e-03 0.0 
5.749386706496e-05 2.189267516374e-04 0.0 
9.526859657063e-05 1.256859030663e-04 0.0 
2.248337624145e-04 2.653669203344e-05 0.0 
1.854214194518e-04 -5.644874297177e-06 0.0 
1.032146433601e-04 3.493469085907e-05 0.0 
-1.574606972014e-04 1.717355563710e-04 0.0 
1.882107379622e-06 -9.056669721306e-05 0.0 
1.037257695409e-05 -4.224043895319e-05 0.0 
1.086102398190e-04 -5.651553348401e-05 0.0 
1.758428340293e-04 1.358014755152e-06 0.0 
6.997161826987e-05 1.252067664320e-03 0.0 
1.462973056215e-04 1.400687053385e-03 0.0 
1.492223182664e-04 1.174858468816e-03 0.0 
2.299182777062e-04 5.552357107337e-05 0.0 
2.370928541963e-05 -8.528223928786e-05 0.0 
3.295631402970e-04 2.174268067702e-04 0.0 
1.419347436814e-05 1.903078888167e-06 0.0 
1.850190793546e-05 2.730859962519e-06 0.0 
1.876574878804e-04 -8.133917337037e-06 0.0 
1.914532716298e-04 1.260634757796e-03 0.0 
-1.128033562172e-04 1.099759424625e-04 0.0 
-5.829377418662e-05 8.209927843642e-04 0.0 
3.324289334247e-05 4.549803982268e-06 0.0 
4.836538085820e-06 1.030465617616e-03 0.0 
4.017703651611e-04 2.636664096958e-04 0.0 
1.450864695196e-04 -2.986791641458e-05 0.0 
1.930100473883e-04 9.646257901011e-06 0.0 
-4.424163383012e-05 4.477068224900e-05 0.0 
9.537323293630e-06 3.973011086692e-04 0.0 
1.598232548806e-04 -2.281974165856e-05 0.0 
2.998928629743e-05 3.160792127684e-04 0.0 
2.519849104374e-05 5.271652271878e-04 0.0 
3.658189340973e-06 8.660081605625e-05 0.0 
3.204731164580e-06 2.151269024482e-07 0.0 
8.482871765991e-06 1.171531294515e-03 0.0 
1.524397465328e-04 -3.207976254772e-05 0.0 
1.944257662617e-04 1.597784418145e-03 0.0 
1.540496707276e-04 -3.234705405947e-05 0.0 
5.402170423854e-06 6.264195065844e-07 0.0 
-1.361593937664e-04 5.592945113853e-04 0.0 
-1.067632902642e-04 6.723499272691e-04 0.0 
2.030190014747e-04 7.156860084587e-05 0.0 
1.432322428594e-04 1.308012946669e-03 0.0 
1.806018384142e-05 3.028539095153e-04 0.0 
3.386145712197e-04 4.164771856291e-04 0.0 
2.343981115536e-04 1.283020018149e-04 0.0 
2.742437019327e-04 4.137854892101e-04 0.0 
5.453440782426e-05 1.120594416896e-03 0.0 
9.202443944844e-05 -6.192773589404e-05 0.0 
9.947005655949e-05 -5.641811962532e-05 0.0 
1.547763313028e-05 7.983178627491e-04 0.0 
2.686771464114e-04 1.564586776713e-04 0.0 
2.445886047909e-04 1.356854482335e-03 0.0 
2.928361747855e-05 1.317399550728e-03 0.0 
3.505066928424e-05 1.188493497938e-03 0.0 
6.260964328960e-05 1.137916431036e-03 0.0 
7.691645777789e-06 5.473860433355e-05 0.0 
7.966478143635e-05 -6.669521082910e-05 0.0 
2.647733673430e-05 1.930985662451e-04 0.0 
6.030102114702e-05 9.823890159546e-04 0.0 
8.560199131288e-05 3.646402994214e-05 0.0 
1.740442790879e-04 2.452077746890e-04 0.0 
3.544144561907e-04 5.707868754974e-04 0.0 
8.489696915078e-05 3.023562095104e-04 0.0 
4.232133740385e-05 -6.700241761171e-05 0.0 
3.904194316952e-05 -7.429650784038e-05 0.0 
7.068879253132e-05 9.697235551579e-06 0.0 
-7.053328946956e-05 4.637568820851e-05 0.0 
1.010174092038e-05 -8.963743806597e-05 0.0 
2.745020311490e-05 1.614461585350e-05 0.0 
1.651119601021e-06 -9.860918384262e-05 0.0 
3.613863508641e-05 1.273331516668e-03 0.0 
1.350946672893e-04 3.864297206237e-05 0.0 
1.524445718788e-06 -8.478138734867e-05 0.0 
-6.700865769571e-07 -9.443927409399e-05 0.0 
1.610042750286e-05 7.449689710748e-05 0.0 
1.249237292807e-04 1.406154191663e-03 0.0 
3.904645599164e-05 2.086301894550e-04 0.0 
1.347297925816e-04 4.518743264395e-05 0.0 
1.083136260604e-04 1.407828193920e-03 0.0 
-1.298661211889e-04 1.711391898727e-04 0.0 
6.364365054921e-06 1.622905133516e-04 0.0 
1.534808352518e-05 -9.511151008692e-05 0.0 
4.356755692776e-05 2.723741802639e-04 0.0 
4.245423030553e-06 4.318773902550e-07 0.0 
1.445725660469e-04 2.459681542304e-04 0.0 
5.416627571643e-05 5.015747527616e-05 0.0 
2.132210401252e-04 1.159750751808e-03 0.0 
2.554043736144e-05 -6.823086037676e-05 0.0 
3.239581762911e-04 2.006637030982e-04 0.0 
4.525495111256e-05 1.955357059406e-05 0.0 
1.474987623609e-05 6.517503871094e-04 0.0 
4.374195089723e-05 1.708662188666e-05 0.0 
-4.260332851435e-05 6.441526498985e-05 0.0 
2.554430166248e-05 2.028797595599e-06 0.0 
7.273447732439e-05 1.760360820793e-05 0.0 
7.382081564947e-06 -9.799734418509e-05 0.0 
7.619222081255e-05 1.906723695798e-05 0.0 
6.918283778383e-05 1.795751334871e-04 0.0 
3.507875945260e-05 1.464263860015e-04 0.0 
8.119072225052e-05 1.299194302343e-03 0.0 
2.686381353067e-04 1.079267869471e-03 0.0 
6.402529283550e-05 5.536383940946e-04 0.0 
1.131116340677e-04 1.436034601525e-04 0.0 
1.928828220193e-05 -7.834958641850e-05 0.0 
-6.179963397730e-05 3.215303507314e-04 0.0 
2.947694067837e-04 1.715109426436e-04 0.0 
6.696991676448e-05 1.451093071317e-03 0.0 
9.322441933581e-05 2.466218173590e-04 0.0 
5.149345206749e-07 8.229225759869e-05 0.0 
5.149345206749e-07 3.473107695688e-05 0.0 
1.376412353493e-07 -1.009199732581e-04 0.0 
1.098766881480e-07 -1.009016802986e-04 0.0 
3.612927086377e-06 1.398630759226e-03 0.0 
8.603818647698e-06 1.449355391105e-03 0.0 
5.537829783209e-07 4.998623760655e-08 0.0 
5.537829783209e-07 -1.890554176318e-08 0.0 
7.426124678826e-07 -1.006457313196e-04 0.0 
-1.166633052087e-04 7.081524455744e-05 0.0 
2.546567892376e-05 -3.731666526059e-07 0.0 
2.114818541674e-04 1.457798247066e-04 0.0 
1.614644780589e-05 -9.550202880672e-05 0.0 
4.247164368964e-05 3.211496523274e-06 0.0 
6.212755271462e-06 -3.498664802191e-05 0.0 
6.271682998377e-06 -5.175596804894e-05 0.0 
4.094595111095e-05 9.254840106939e-04 0.0 
2.836325673270e-05 -2.439913131961e-05 0.0 
3.686926751947e-04 2.435970040680e-04 0.0 
1.173998681850e-05 -9.621063389629e-05 0.0 
3.667055721858e-05 -5.891528645212e-05 0.0 
1.511992384769e-04 1.977348983685e-04 0.0 
1.791007802694e-06 3.636762691460e-04 0.0 
1.214441101688e-05 -5.064525810090e-05 0.0 
2.653667964463e-05 1.073840009874e-03 0.0 
2.035565119941e-04 1.702555211591e-04 0.0 
2.617264798991e-04 3.485587515237e-04 0.0 
3.136599345166e-04 4.581928841235e-04 0.0 
9.249125704773e-05 1.402484037146e-03 0.0 
3.752370876113e-04 2.304469961500e-04 0.0 
1.163069030491e-04 2.504508561603e-04 0.0 
1.470709601564e-05 -8.885808669041e-05 0.0 
-1.828208034602e-05 -7.027684206727e-05 0.0 
2.396127250638e-04 2.110030036887e-04 0.0 
2.223035790009e-04 7.587825811605e-05 0.0 
1.175804947096e-05 -2.070725462538e-05 0.0 
2.143256834847e-05 8.140342257565e-04 0.0 
1.408787163983e-05 5.824998928890e-07 0.0 
2.445366942137e-04 1.893763740205e-04 0.0 
2.064398010435e-04 1.566393201234e-04 0.0 
7.533961849342e-06 -2.680691464708e-05 0.0 
-1.391470814924e-04 2.597853831805e-04 0.0 
6.418362036300e-05 1.398327260879e-03 0.0 
2.111728870202e-04 8.152539106175e-04 0.0 
2.241141196903e-04 1.110281038005e-03 0.0 
3.832773506698e-04 2.529768099460e-04 0.0 
3.407918443484e-05 2.639414414304e-04 0.0 
8.985392745283e-05 3.207192948348e-05 0.0 
-1.780873116284e-05 -3.812671983722e-05 0.0 
-7.304930071512e-06 -6.653556481772e-05 0.0 
-7.020355052355e-05 9.576343699867e-04 0.0 
3.515637727806e-05 7.467998873508e-04 0.0 
2.821906175761e-05 -8.189099028309e-05 0.0 
7.894877133231e-05 2.437398640986e-04 0.0 
9.571201843054e-06 -9.697734077369e-05 0.0 
1.535045544781e-04 5.657290548023e-05 0.0 
1.380278597569e-04 1.163935108577e-03 0.0 
1.059825654597e-04 5.582114071498e-05 0.0 
3.044232014028e-04 2.000266227137e-04 0.0 
2.461220903222e-04 1.099905261901e-03 0.0 
6.315423010339e-05 1.272041895078e-05 0.0 
6.083030896336e-05 1.777739399904e-04 0.0 
5.233894159590e-06 1.900048965192e-04 0.0 
-1.483503144731e-04 6.309134147642e-04 0.0 
7.757469256060e-05 2.967065699211e-04 0.0 
1.109833620397e-04 9.546459121667e-05 0.0 
1.564392369855e-04 5.462282534618e-05 0.0 
2.727259770246e-04 1.682112540693e-04 0.0 
7.557738699234e-06 1.044697369310e-06 0.0 
3.037376614608e-04 4.689776530755e-04 0.0 
-1.937457106738e-04 2.941282723156e-04 0.0 
-3.494137358666e-05 3.837272828791e-04 0.0 
2.201104481370e-04 3.017636678379e-04 0.0 
2.046135163231e-04 1.022514753672e-03 0.0 
1.328581222207e-05 -2.012995854231e-06 0.0 
2.408035903587e-04 1.476530820915e-04 0.0 
2.665957185541e-05 3.129282231653e-06 0.0 
3.068871162374e-05 5.982493157540e-04 0.0 
9.950359873664e-05 4.769149485177e-05 0.0 
7.822625391521e-05 1.332030689651e-05 0.0 
8.260702529887e-05 1.534516134424e-05 0.0 
2.090879524199e-05 -8.078393081264e-05 0.0 
1.203790609276e-05 1.484801025442e-06 0.0 
1.817664773183e-04 1.313089795357e-03 0.0 
2.185177236655e-05 3.067920976489e-04 0.0 
-2.185192699516e-06 -6.147042030572e-05 0.0 
1.425941447194e-05 4.260827519869e-04 0.0 
3.227596285429e-05 8.066930709659e-04 0.0 
8.925640758331e-07 -1.000151550420e-04 0.0 
3.161521573226e-05 6.365187283861e-05 0.0 
2.932412863680e-04 3.979695269431e-04 0.0 
2.846808786828e-05 1.575976523635e-04 0.0 
1.109440112543e-05 2.929301316021e-04 0.0 
1.277133435923e-04 5.998523590028e-05 0.0 
6.584329050027e-05 1.060461993588e-03 0.0 
-6.982077163480e-06 -8.584323037626e-05 0.0 
-8.944354801600e-05 1.901122062518e-04 0.0 
-1.636595143449e-06 -8.846165084342e-05 0.0 
1.053226010032e-05 -6.999843095402e-05 0.0 
-2.070191427685e-04 3.269162771488e-04 0.0 
3.247411139179e-05 -6.218108956967e-05 0.0 
1.670451718519e-05 -1.754988217968e-06 0.0 
1.411064619307e-04 2.561365051790e-04 0.0 
2.599133106742e-04 1.006767921604e-03 0.0 
4.437731060470e-05 -7.041413864952e-05 0.0 
6.858493271627e-05 8.251579548164e-06 0.0 
1.276711654440e-04 3.239791344204e-05 0.0 
1.272681714393e-04 7.065069885579e-05 0.0 
1.777191051734e-04 1.530342650173e-04 0.0 
2.361359313744e-04 2.933933445754e-04 0.0 
4.005436075302e-07 -7.133400744728e-05 0.0 
-6.681030736163e-05 8.308354653109e-05 0.0 
2.335515002511e-05 -1.003753590475e-06 0.0 
2.093470333489e-06 -9.975109619662e-05 0.0 
5.140568620664e-07 -9.941911023729e-05 0.0 
-1.398533552511e-04 3.703982196193e-04 0.0 
3.344769047291e-06 -8.785791617729e-05 0.0 
4.773043513008e-05 9.381212484597e-06 0.0 
9.972209286734e-05 1.055023521868e-04 0.0 
3.057193787229e-05 2.634808169190e-04 0.0 
1.013431848328e-04 5.797793312819e-05 0.0 
1.525871333489e-04 3.908323009387e-05 0.0 
5.319318320395e-05 9.779171454880e-04 0.0 
7.331491840995e-06 3.109920099804e-05 0.0 
6.917050179939e-05 1.298709430634e-06 0.0 
1.166895886294e-04 1.454967868408e-03 0.0 
2.172289649727e-06 -3.027460875840e-05 0.0 
1.974384481052e-06 -9.587580288896e-05 0.0 
8.204929451135e-06 7.565191262542e-07 0.0 
2.466087455625e-04 1.268491242541e-03 0.0 
7.446906251794e-06 -9.821825524572e-05 0.0 
2.263187713182e-05 -6.472496673414e-05 0.0 
1.144194950650e-04 1.298753171990e-04 0.0 
4.872420792728e-05 2.795522169754e-04 0.0 
5.869379171028e-05 1.393632050121e-04 0.0 
1.194228099903e-05 -8.469064620883e-05 0.0 
-7.870921125099e-05 1.576721840698e-04 0.0 
3.545258628806e-05 3.936128336180e-06 0.0 
1.736120955157e-06 7.394081810597e-05 0.0 
1.981200525438e-06 1.578390033498e-07 0.0 
8.228525348760e-06 1.317669571172e-03 0.0 
1.151581019601e-04 3.129898126922e-05 0.0 
9.978778346177e-06 -9.744425220792e-05 0.0 
7.358948078326e-05 2.448294312211e-04 0.0 
1.540169381290e-07 -9.341129536451e-05 0.0 
5.737150929929e-05 1.396067987877e-05 0.0 
7.819325847578e-05 1.804326776139e-04 0.0 
-1.217249783368e-04 1.997645449750e-04 0.0 
2.478615695695e-04 1.814208789550e-04 0.0 
3.033775081914e-05 6.690574462250e-04 0.0 
1.890613620960e-05 1.495495078357e-04 0.0 
1.833779399317e-05 7.491404772496e-06 0.0 
1.271052428347e-05 8.740447484561e-04 0.0 
9.200023961955e-05 1.081525610629e-04 0.0 
9.998915377329e-05 2.465338933968e-04 0.0 
2.526312926954e-05 7.683431483487e-04 0.0 
1.500945707007e-04 1.766285752596e-04 0.0 
2.372742536870e-05 -7.503315859082e-05 0.0 
5.870652324316e-05 1.406998265455e-03 0.0 
1.727947071577e-04 1.061796503223e-04 0.0 
1.821466531835e-06 1.573977156734e-04 0.0 
3.918698013172e-07 -1.007881200816e-04 0.0 
1.601256374869e-05 1.406413582175e-03 0.0 
1.780541554440e-06 -2.582314045871e-07 0.0 
1.843788177667e-05 -9.463075269438e-05 0.0 
1.454967970343e-04 4.607139925312e-05 0.0 
1.265036305510e-04 2.580850985651e-04 0.0 
2.218990322714e-05 1.941267982184e-04 0.0 
1.156210529939e-05 -9.662866668267e-05 0.0 
-8.027665378686e-05 3.013326072346e-04 0.0 
2.594411748330e-06 -4.745861926081e-05 0.0 
1.208291955987e-05 5.198749291164e-04 0.0 
-1.396390767473e-04 9.456482093249e-05 0.0 
4.519428396690e-05 1.384549089651e-04 0.0 
2.290365562772e-05 9.023755415342e-04 0.0 
2.774171474051e-05 -3.561746021942e-05 0.0 
4.314919268079e-05 1.009445484084e-03 0.0 
1.311706269028e-04 8.038196147687e-05 0.0 
4.887762519772e-06 -4.305360543196e-05 0.0 
-1.865286762648e-04 3.431029502463e-04 0.0 
2.670187669643e-05 -7.959187481851e-05 0.0 
3.339017493070e-05 -5.493722986586e-05 0.0 
2.293350771442e-06 -3.878583615838e-05 0.0 
1.675138216507e-04 8.226687089909e-05 0.0 
1.721447640426e-05 -5.727441131304e-05 0.0 
2.234903900083e-05 -5.169061262703e-05 0.0 
4.371921939464e-06 -9.208779518038e-05 0.0 
4.574045844875e-05 4.007272284269e-06 0.0 
2.374958944679e-04 2.216793229535e-04 0.0 
-2.466529665408e-05 2.976476776785e-04 0.0 
3.042652966317e-06 1.490462761807e-04 0.0 
3.207959101558e-06 -8.148685947418e-08 0.0 
1.563727044975e-05 1.325412705809e-03 0.0 
1.729437351771e-05 9.348187399250e-04 0.0 
2.369508364189e-05 -5.799684413138e-05 0.0 
2.663418947000e-05 -5.489532874957e-05 0.0 
1.635246412720e-05 -5.310530901096e-05 0.0 
1.798763403222e-04 6.127970064040e-05 0.0 
1.253960858329e-05 -3.861937248061e-05 0.0 
2.003001907674e-04 1.845126892072e-04 0.0 
2.837260323774e-05 1.157747908117e-03 0.0 
5.461979686326e-05 1.810949686854e-04 0.0 
1.728001423568e-04 5.533409565337e-05 0.0 
5.066021709186e-05 1.038668108982e-03 0.0 
1.992498233299e-04 2.564091215003e-04 0.0 
1.666823579573e-04 8.604622921591e-05 0.0 
1.259616313386e-04 6.444671061130e-05 0.0 
-1.624933570849e-04 3.202783854417e-04 0.0 
2.061999951879e-04 2.530699915528e-04 0.0 
1.764862788759e-04 2.048478155147e-04 0.0 
4.211334008547e-06 -9.367308662164e-05 0.0 
2.625462327580e-05 -6.130454836522e-05 0.0 
-1.638895199397e-04 2.889975420022e-04 0.0 
1.657629196645e-04 2.090372573396e-04 0.0 
2.338265147012e-05 2.298907801755e-03 0.0 
2.955723694119e-05 2.349504496966e-03 0.0 
3.755849750781e-05 2.298359805881e-03 0.0 
4.316096656349e-05 2.348674312135e-03 0.0 
5.179117115363e-05 2.298109134414e-03 0.0 
5.750500769818e-05 2.348630919014e-03 0.0 
6.618148120741e-05 2.298301571610e-03 0.0 
7.209018004738e-05 2.348940224282e-03 0.0 
8.037569002241e-05 2.298634985075e-03 0.0 
8.635248954109e-05 2.349213954399e-03 0.0 
9.405265891384e-05 2.298817430250e-03 0.0 
9.991746779552e-05 2.349171722219e-03 0.0 
1.069554851180e-04 2.298573103955e-03 0.0 
1.125102243208e-04 2.348542391307e-03 0.0 
1.188646412226e-04 2.297612286390e-03 0.0 
1.238916003398e-04 2.347022495015e-03 0.0 
1.295706520381e-04 2.295601144439e-03 0.0 
1.338226460506e-04 2.344247808076e-03 0.0 
5.797767367214e-05 1.711906804189e-03 0.0 
1.388597548149e-04 2.292137473535e-03 0.0 
1.420487510785e-04 2.339773303537e-03 0.0 
1.465071994044e-04 2.286731639218e-03 0.0 
-6.129938882777e-06 1.729969132726e-03 0.0 
1.482938686597e-04 2.333054725532e-03 0.0 
8.741078707738e-05 1.746805835906e-03 0.0 
1.522769018340e-04 2.278787423235e-03 0.0 
1.522592612151e-04 2.323433177989e-03 0.0 
1.559254990967e-04 2.267579662224e-03 0.0 
1.536149708284e-04 2.310094833574e-03 0.0 
1.572011783609e-04 2.252201379776e-03 0.0 
1.520159833355e-04 2.292026989206e-03 0.0 
1.558827791745e-04 2.231522476374e-03 0.0 
1.471201611205e-04 2.267945431479e-03 0.0 
8.800966463747e-05 1.605101917529e-03 0.0 
1.517882404726e-04 2.204112353548e-03 0.0 
1.386594445589e-04 2.236291376216e-03 0.0 
1.448929732907e-04 2.168231792488e-03 0.0 
1.264269093851e-04 2.195040610192e-03 0.0 
1.104510544701e-04 2.141741565402e-03 0.0 
1.352684237501e-04 2.121585107250e-03 0.0 
9.097617379266e-05 2.072770150838e-03 0.0 
1.234446594053e-04 2.061311632639e-03 0.0 
6.914619171382e-05 1.983695270170e-03 0.0 
4.665046011661e-05 1.867336152958e-03 0.0 
1.101994159472e-04 1.983176849015e-03 0.0 
9.705323370225e-05 1.881784560400e-03 0.0 
2.390205208256e-05 1.623164246067e-03 0.0 
3.223704738744e-06 2.323998038754e-03 0.0 
1.602048241884e-05 2.324063338179e-03 0.0 
1.064835600030e-05 2.375425713931e-03 0.0 
8.595831157283e-06 2.272635663003e-03 0.0 
5.252566521270e-07 1.524794823046e-03 0.0 
2.113443995574e-05 2.196880637106e-03 0.0 
2.612588425933e-05 2.146256879438e-03 0.0 
3.637535634033e-05 2.197139353002e-03 0.0 
4.117527677345e-05 2.146413604846e-03 0.0 
5.098862253107e-05 2.197068880004e-03 0.0 
5.585287977546e-05 2.146554567602e-03 0.0 
6.533190190725e-05 2.197265474608e-03 0.0 
7.025183460035e-05 2.146914458224e-03 0.0 
7.938692387554e-05 2.197645316019e-03 0.0 
8.431189771764e-05 2.147358736910e-03 0.0 
9.300083323726e-05 2.197951881816e-03 0.0 
9.791157155670e-05 2.147639351016e-03 0.0 
1.060014145557e-04 2.197906281185e-03 0.0 
1.109129750302e-04 2.147474176494e-03 0.0 
1.182214624943e-04 2.197210894347e-03 0.0 
1.231777047722e-04 2.146546035521e-03 0.0 
1.294999351988e-04 2.195526076989e-03 0.0 
1.837728130663e-04 1.778696710932e-03 0.0 
1.345717290199e-04 2.144482317285e-03 0.0 
1.396795546235e-04 2.192447050194e-03 0.0 
1.971383584583e-04 1.792247255403e-03 0.0 
1.449679057404e-04 2.140833999094e-03 0.0 
1.486065542578e-04 2.187482758115e-03 0.0 
1.542497349864e-04 2.135053592053e-03 0.0 
1.561334133074e-04 2.180035170859e-03 0.0 
1.623185838016e-04 2.126471288947e-03 0.0 
1.506951029623e-04 1.806610322378e-03 0.0 
1.621283102097e-04 2.169370025558e-03 0.0 
1.691076194689e-04 2.114253950481e-03 0.0 
1.664910158884e-04 2.154570133349e-03 0.0 
1.746066428228e-04 2.097356990360e-03 0.0 
1.691836011344e-04 2.134483723955e-03 0.0 
1.788894676506e-04 2.074460884433e-03 0.0 
1.702567250428e-04 2.107666558921e-03 0.0 
1.821630563608e-04 2.043922717023e-03 0.0 
1.699281005224e-04 2.072308927922e-03 0.0 
1.848207421876e-04 2.003617225718e-03 0.0 
2.038773862986e-04 1.704074732605e-03 0.0 
1.875546423434e-04 1.950936125937e-03 0.0 
1.686271293210e-04 2.026084587341e-03 0.0 
1.910901746437e-04 1.882234237203e-03 0.0 
1.671895417078e-04 1.966006713083e-03 0.0 
1.665685344957e-04 1.887945854936e-03 0.0 
1.707996761946e-04 1.731988344052e-03 0.0 
2.588258819487e-06 2.170809564025e-03 0.0 
1.313682498521e-05 2.171170443104e-03 0.0 
7.764698566665e-06 2.120210074553e-03 0.0 
7.960385238027e-06 2.221769932576e-03 0.0 
1.579181338953e-04 1.686632265022e-03 0.0 
2.003528312580e-05 1.993774015535e-03 0.0 
2.544768601138e-05 2.044707901431e-03 0.0 
3.511848615958e-05 1.994310591401e-03 0.0 
4.059660484065e-05 2.045133821251e-03 0.0 
4.993704620109e-05 1.994678613917e-03 0.0 
5.537997537828e-05 2.045444085110e-03 0.0 
6.448006880014e-05 1.995143141380e-03 0.0 
6.987290589041e-05 2.045902607489e-03 0.0 
7.878706874281e-05 1.995714276147e-03 0.0 
8.409097129485e-05 2.046439547773e-03 0.0 
9.285120092125e-05 1.996232795419e-03 0.0 
9.798286566348e-05 2.046839453755e-03 0.0 
1.066264300531e-04 1.996464016546e-03 0.0 
1.114666964208e-04 2.046831809116e-03 0.0 
1.200526183957e-04 1.996124218720e-03 0.0 
1.244551392831e-04 2.046101727273e-03 0.0 
2.445161158561e-04 1.772195406688e-03 0.0 
1.330702597808e-04 1.994873959597e-03 0.0 
1.368646190910e-04 2.044274508142e-03 0.0 
2.254027136374e-04 1.808591007757e-03 0.0 
1.456302808554e-04 1.992302539230e-03 0.0 
1.486257419013e-04 2.040897297273e-03 0.0 
2.492471806233e-04 1.770917354488e-03 0.0 
1.577049016857e-04 1.987911025008e-03 0.0 
1.596902462535e-04 2.035418560768e-03 0.0 
1.692937982027e-04 1.981089741953e-03 0.0 
1.700384574299e-04 2.027160891327e-03 0.0 
1.804344549033e-04 1.971088071973e-03 0.0 
1.796938905342e-04 2.015282394515e-03 0.0 
2.612017219914e-04 1.712997035859e-03 0.0 
1.912139764061e-04 1.956956600702e-03 0.0 
1.887433322752e-04 1.998715013678e-03 0.0 
2.018046057722e-04 1.937523202423e-03 0.0 
1.973737828360e-04 1.976142339582e-03 0.0 
2.058869134605e-04 1.945871659797e-03 0.0 
2.124648973279e-04 1.911296956844e-03 0.0 
2.147811361015e-04 1.905835802679e-03 0.0 
2.236123515359e-04 1.876476447657e-03 0.0 
2.245446886216e-04 1.853347640806e-03 0.0 
2.355775695130e-04 1.830714679172e-03 0.0 
2.420883197727e-04 1.749392636928e-03 0.0 
2.495594892371e-06 2.018720381243e-03 0.0 
1.262320247610e-05 2.018907228575e-03 0.0 
7.672034639549e-06 2.069504503589e-03 0.0 
7.446762728921e-06 1.968123106229e-03 0.0 
2.383456047416e-04 1.727337266841e-03 0.0 
1.991194916094e-05 1.892365139289e-03 0.0 
2.508478154492e-05 1.841813077824e-03 0.0 
3.487891565798e-05 1.892824644039e-03 0.0 
4.015404925066e-05 1.842303464210e-03 0.0 
4.973406111270e-05 1.893334204238e-03 0.0 
5.510275893300e-05 1.842883797971e-03 0.0 
6.440583744325e-05 1.893927263921e-03 0.0 
6.993233797358e-05 1.843547607093e-03 0.0 
7.892073218287e-05 1.894575153211e-03 0.0 
8.467506407228e-05 1.844213694067e-03 0.0 
9.330163025862e-05 1.895146064648e-03 0.0 
9.934758738392e-05 1.844720909689e-03 0.0 
1.075407224361e-04 1.895432203250e-03 0.0 
1.139562515076e-04 1.844832260772e-03 0.0 
1.216278810994e-04 1.895156483672e-03 0.0 
2.690641515988e-04 1.715198014809e-03 0.0 
1.285080688071e-04 1.844246966834e-03 0.0 
2.683399152569e-04 1.704603996592e-03 0.0 
1.355479266011e-04 1.893986934208e-03 0.0 
1.430093359025e-04 1.842592103648e-03 0.0 
1.492973308466e-04 1.891507160126e-03 0.0 
1.574893435870e-04 1.839398820089e-03 0.0 
1.629014533802e-04 1.887207926928e-03 0.0 
1.720087291822e-04 1.834098833687e-03 0.0 
2.584442214257e-04 1.756033888907e-03 0.0 
1.764157294368e-04 1.880473112953e-03 0.0 
1.866605419462e-04 1.825998043505e-03 0.0 
1.899346081855e-04 1.870541853150e-03 0.0 
2.015818449682e-04 1.814243605890e-03 0.0 
2.036017775580e-04 1.856464030899e-03 0.0 
2.169447790789e-04 1.797727919460e-03 0.0 
2.176182514240e-04 1.837028678008e-03 0.0 
2.330105098672e-04 1.775150003832e-03 0.0 
2.499703406970e-04 1.744828610973e-03 0.0 
2.322879787073e-04 1.810799145509e-03 0.0 
2.835840675276e-04 1.667817416945e-03 0.0 
2.478726973930e-04 1.775931210169e-03 0.0 
2.729641373545e-04 1.708653291043e-03 0.0 
2.465988688649e-06 1.866687818267e-03 0.0 
1.247026230751e-05 1.866818476424e-03 0.0 
7.519094470963e-06 1.816063064367e-03 0.0 
7.417156525199e-06 1.917443230324e-03 0.0 
2.747999774435e-04 1.700903794989e-03 0.0 
1.973709501008e-05 1.689500779797e-03 0.0 
2.496806077910e-05 1.740361260459e-03 0.0 
3.462659677574e-05 1.689951247098e-03 0.0 
4.001845113423e-05 1.740881884633e-03 0.0 
4.954929970266e-05 1.690546897772e-03 0.0 
5.505359563939e-05 1.741518071082e-03 0.0 
6.449470755287e-05 1.691229089708e-03 0.0 
7.007037137681e-05 1.742215159770e-03 0.0 
7.949025109577e-05 1.691912397232e-03 0.0 
8.510654958194e-05 1.742883385412e-03 0.0 
9.458968938810e-05 1.692486940149e-03 0.0 
1.002041610037e-04 1.743392093845e-03 0.0 
1.098341453985e-04 1.692759093985e-03 0.0 
2.701695886762e-04 1.626502651028e-03 0.0 
1.153931008501e-04 1.743487967350e-03 0.0 
1.252801157555e-04 1.692465006784e-03 0.0 
2.650462509770e-04 1.671293435884e-03 0.0 
1.307234541207e-04 1.742899783368e-03 0.0 
1.409823369476e-04 1.691303249700e-03 0.0 
2.660665553162e-04 1.609184178024e-03 0.0 
1.462283609354e-04 1.741255602607e-03 0.0 
1.569935313942e-04 1.688844997395e-03 0.0 
1.619665191017e-04 1.738073158399e-03 0.0 
1.734013705235e-04 1.684573448675e-03 0.0 
1.780314708108e-04 1.732790017124e-03 0.0 
2.835342208688e-04 1.585894832535e-03 0.0 
1.903236488630e-04 1.677884943273e-03 0.0 
1.945457197438e-04 1.724718690388e-03 0.0 
2.116609686445e-04 1.713013981552e-03 0.0 
2.078989096594e-04 1.668032875695e-03 0.0 
2.295716592762e-04 1.696630300749e-03 0.0 
2.263077814315e-04 1.654136787849e-03 0.0 
2.483545486404e-04 1.674241274662e-03 0.0 
2.455891703945e-04 1.635022330127e-03 0.0 
2.784108831695e-04 1.630685617390e-03 0.0 
2.448787444244e-06 1.714607395348e-03 0.0 
1.239492767806e-05 1.714708735608e-03 0.0 
7.501893226558e-06 1.765365865679e-03 0.0 
7.341821895747e-06 1.663950265278e-03 0.0 
2.838021907535e-04 1.632893578903e-03 0.0 
1.967488078908e-05 1.588072749679e-03 0.0 
2.479389812998e-05 1.537471211439e-03 0.0 
3.451464834761e-05 1.588489228196e-03 0.0 
3.979542206646e-05 1.537942324168e-03 0.0 
4.943821906302e-05 1.589069356208e-03 0.0 
5.491788909526e-05 1.538566037581e-03 0.0 
6.447008164839e-05 1.589754597771e-03 0.0 
7.021075992423e-05 1.539243801468e-03 0.0 
7.965526554766e-05 1.590415530868e-03 0.0 
8.571475805901e-05 1.539835565939e-03 0.0 
9.503288341327e-05 1.590935987040e-03 0.0 
1.015141543744e-04 1.540236597708e-03 0.0 
2.564765560828e-04 1.514475282841e-03 0.0 
1.107009447440e-04 1.591154550956e-03 0.0 
2.498339511245e-04 1.492381608070e-03 0.0 
1.176889574436e-04 1.540179184930e-03 0.0 
1.267091730035e-04 1.590760767392e-03 0.0 
1.343253788160e-04 1.539408619876e-03 0.0 
1.431552043949e-04 1.589516325600e-03 0.0 
1.515279517510e-04 1.537601199698e-03 0.0 
1.601202547625e-04 1.586977518586e-03 0.0 
1.693785019484e-04 1.534245290434e-03 0.0 
2.555755265342e-04 1.561350786405e-03 0.0 
1.776866300019e-04 1.582613059519e-03 0.0 
1.879948087029e-04 1.528770861731e-03 0.0 
1.960017272768e-04 1.575826177036e-03 0.0 
2.075158585921e-04 1.520537230951e-03 0.0 
2.280639456188e-04 1.508722605654e-03 0.0 
2.151909700939e-04 1.565910182496e-03 0.0 
2.354186979712e-04 1.551968105151e-03 0.0 
2.680416631241e-04 1.479554019129e-03 0.0 
2.671406335755e-04 1.526429522693e-03 0.0 
2.432852969790e-06 1.562477672260e-03 0.0 
1.231677898261e-05 1.562564988092e-03 0.0 
7.423744531111e-06 1.511808112473e-03 0.0 
7.325887421294e-06 1.613234547879e-03 0.0 
2.748662841116e-04 1.535043969776e-03 0.0 

VECTORS element_materi_displacement float
0.0 0.0 0.0 
0.0 0.0 0.0 
0.0 0.0 0.0 
0.0 0.0 0.0 
0.0 0.0 0.0 
0.0 0.0 0.0 
0.0 0.0 0.0 
0.0 0.0 0.0 
0.0 0.0 0.0 
0.0 0.0 0.0 
0.0 0.0 0.0 
0.0 0.0 0.0 
0.0 0.0 0.0 
0.0 0.0 0.0 
0.0 0.0 0.0 
0.0 0.0 0.0 
0.0 0.0 0.0 
0.0 0.0 0.0 
0.0 0.0 0.0 
0.0 0.0 0.0 
0.0 0.0 0.0 
0.0 0.0 0.0 
0.0 0.0 0.0 
0.0 0.0 0.0 
0.0 0.0 0.0 
0.0 0.0 0.0 
0.0 0.0 0.0 
0.0 0.0 0.0 
0.0 0.0 0.0 
0.0 0.0 0.0 
0.0 0.0 0.0 
0.0 0.0 0.0 
0.0 0.0 0.0 
0.0 0.0 0.0 
0.0 0.0 0.0 
0.0 0.0 0.0 
0.0 0.0 0.0 
0.0 0.0 0.0 
0.0 0.0 0.0 
0.0 0.0 0.0 
0.0 0.0 0.0 
0.0 0.0 0.0 
0.0 0.0 0.0 
0.0 0.0 0.0 
0.0 0.0 0.0 
0.0 0.0 0.0 
0.0 0.0 0.0 
0.0 0.0 0.0 
0.0 0.0 0.0 
0.0 0.0 0.0 
0.0 0.0 0.0 
0.0 0.0 0.0 
0.0 0.0 0.0 
0.0 0.0 0.0 
0.0 0.0 0.0 
0.0 0.0 0.0 
0.0 0.0 0.0 
0.0 0.0 0.0 
0.0 0.0 0.0 
0.0 0.0 0.0 
0.0 0.0 0.0 
0.0 0.0 0.0 
0.0 0.0 0.0 
0.0 0.0 0.0 
0.0 0.0 0.0 
0.0 0.0 0.0 
0.0 0.0 0.0 
0.0 0.0 0.0 
0.0 0.0 0.0 
0.0 0.0 0.0 
0.0 0.0 0.0 
0.0 0.0 0.0 
0.0 0.0 0.0 
0.0 0.0 0.0 
0.0 0.0 0.0 
0.0 0.0 0.0 
0.0 0.0 0.0 
0.0 0.0 0.0 
0.0 0.0 0.0 
0.0 0.0 0.0 
0.0 0.0 0.0 
0.0 0.0 0.0 
0.0 0.0 0.0 
0.0 0.0 0.0 
0.0 0.0 0.0 
0.0 0.0 0.0 
0.0 0.0 0.0 
0.0 0.0 0.0 
0.0 0.0 0.0 
0.0 0.0 0.0 
0.0 0.0 0.0 
0.0 0.0 0.0 
0.0 0.0 0.0 
0.0 0.0 0.0 
0.0 0.0 0.0 
0.0 0.0 0.0 
0.0 0.0 0.0 
0.0 0.0 0.0 
0.0 0.0 0.0 
0.0 0.0 0.0 
0.0 0.0 0.0 
0.0 0.0 0.0 
0.0 0.0 0.0 
0.0 0.0 0.0 
0.0 0.0 0.0 
0.0 0.0 0.0 
0.0 0.0 0.0 
0.0 0.0 0.0 
0.0 0.0 0.0 
0.0 0.0 0.0 
0.0 0.0 0.0 
0.0 0.0 0.0 
0.0 0.0 0.0 
0.0 0.0 0.0 
0.0 0.0 0.0 
0.0 0.0 0.0 
0.0 0.0 0.0 
0.0 0.0 0.0 
0.0 0.0 0.0 
0.0 0.0 0.0 
0.0 0.0 0.0 
0.0 0.0 0.0 
0.0 0.0 0.0 
0.0 0.0 0.0 
0.0 0.0 0.0 
0.0 0.0 0.0 
0.0 0.0 0.0 
0.0 0.0 0.0 
0.0 0.0 0.0 
0.0 0.0 0.0 
0.0 0.0 0.0 
0.0 0.0 0.0 
0.0 0.0 0.0 
0.0 0.0 0.0 
0.0 0.0 0.0 
0.0 0.0 0.0 
0.0 0.0 0.0 
0.0 0.0 0.0 
0.0 0.0 0.0 
0.0 0.0 0.0 
0.0 0.0 0.0 
0.0 0.0 0.0 
0.0 0.0 0.0 
0.0 0.0 0.0 
0.0 0.0 0.0 
0.0 0.0 0.0 
0.0 0.0 0.0 
0.0 0.0 0.0 
0.0 0.0 0.0 
0.0 0.0 0.0 
0.0 0.0 0.0 
0.0 0.0 0.0 
0.0 0.0 0.0 
0.0 0.0 0.0 
0.0 0.0 0.0 
0.0 0.0 0.0 
0.0 0.0 0.0 
0.0 0.0 0.0 
0.0 0.0 0.0 
0.0 0.0 0.0 
0.0 0.0 0.0 
0.0 0.0 0.0 
0.0 0.0 0.0 
0.0 0.0 0.0 
0.0 0.0 0.0 
0.0 0.0 0.0 
0.0 0.0 0.0 
0.0 0.0 0.0 
0.0 0.0 0.0 
0.0 0.0 0.0 
0.0 0.0 0.0 
0.0 0.0 0.0 
0.0 0.0 0.0 
0.0 0.0 0.0 
0.0 0.0 0.0 
0.0 0.0 0.0 
0.0 0.0 0.0 
0.0 0.0 0.0 
0.0 0.0 0.0 
0.0 0.0 0.0 
0.0 0.0 0.0 
0.0 0.0 0.0 
0.0 0.0 0.0 
0.0 0.0 0.0 
0.0 0.0 0.0 
0.0 0.0 0.0 
0.0 0.0 0.0 
0.0 0.0 0.0 
0.0 0.0 0.0 
0.0 0.0 0.0 
0.0 0.0 0.0 
0.0 0.0 0.0 
0.0 0.0 0.0 
0.0 0.0 0.0 
0.0 0.0 0.0 
0.0 0.0 0.0 
0.0 0.0 0.0 
0.0 0.0 0.0 
0.0 0.0 0.0 
0.0 0.0 0.0 
0.0 0.0 0.0 
0.0 0.0 0.0 
0.0 0.0 0.0 
0.0 0.0 0.0 
0.0 0.0 0.0 
0.0 0.0 0.0 
0.0 0.0 0.0 
0.0 0.0 0.0 
0.0 0.0 0.0 
0.0 0.0 0.0 
0.0 0.0 0.0 
0.0 0.0 0.0 
0.0 0.0 0.0 
0.0 0.0 0.0 
0.0 0.0 0.0 
0.0 0.0 0.0 
0.0 0.0 0.0 
0.0 0.0 0.0 
0.0 0.0 0.0 
0.0 0.0 0.0 
0.0 0.0 0.0 
0.0 0.0 0.0 
0.0 0.0 0.0 
0.0 0.0 0.0 
0.0 0.0 0.0 
0.0 0.0 0.0 
0.0 0.0 0.0 
0.0 0.0 0.0 
0.0 0.0 0.0 
0.0 0.0 0.0 
0.0 0.0 0.0 
0.0 0.0 0.0 
0.0 0.0 0.0 
0.0 0.0 0.0 
0.0 0.0 0.0 
0.0 0.0 0.0 
0.0 0.0 0.0 
0.0 0.0 0.0 
0.0 0.0 0.0 
0.0 0.0 0.0 
0.0 0.0 0.0 
0.0 0.0 0.0 
0.0 0.0 0.0 
0.0 0.0 0.0 
0.0 0.0 0.0 
0.0 0.0 0.0 
0.0 0.0 0.0 
0.0 0.0 0.0 
0.0 0.0 0.0 
0.0 0.0 0.0 
0.0 0.0 0.0 
0.0 0.0 0.0 
0.0 0.0 0.0 
0.0 0.0 0.0 
0.0 0.0 0.0 
0.0 0.0 0.0 
0.0 0.0 0.0 
0.0 0.0 0.0 
0.0 0.0 0.0 
0.0 0.0 0.0 
0.0 0.0 0.0 
0.0 0.0 0.0 
0.0 0.0 0.0 
0.0 0.0 0.0 
0.0 0.0 0.0 
0.0 0.0 0.0 
0.0 0.0 0.0 
0.0 0.0 0.0 
0.0 0.0 0.0 
0.0 0.0 0.0 
0.0 0.0 0.0 
0.0 0.0 0.0 
0.0 0.0 0.0 
0.0 0.0 0.0 
0.0 0.0 0.0 
0.0 0.0 0.0 
0.0 0.0 0.0 
0.0 0.0 0.0 
0.0 0.0 0.0 
0.0 0.0 0.0 
0.0 0.0 0.0 
0.0 0.0 0.0 
0.0 0.0 0.0 
0.0 0.0 0.0 
0.0 0.0 0.0 
0.0 0.0 0.0 
0.0 0.0 0.0 
0.0 0.0 0.0 
0.0 0.0 0.0 
0.0 0.0 0.0 
0.0 0.0 0.0 
0.0 0.0 0.0 
0.0 0.0 0.0 
0.0 0.0 0.0 
0.0 0.0 0.0 
0.0 0.0 0.0 
0.0 0.0 0.0 
0.0 0.0 0.0 
0.0 0.0 0.0 
0.0 0.0 0.0 
0.0 0.0 0.0 
0.0 0.0 0.0 
0.0 0.0 0.0 
0.0 0.0 0.0 
0.0 0.0 0.0 
0.0 0.0 0.0 
0.0 0.0 0.0 
0.0 0.0 0.0 
0.0 0.0 0.0 
0.0 0.0 0.0 
0.0 0.0 0.0 
0.0 0.0 0.0 
0.0 0.0 0.0 
0.0 0.0 0.0 
0.0 0.0 0.0 
0.0 0.0 0.0 
0.0 0.0 0.0 
0.0 0.0 0.0 
0.0 0.0 0.0 
0.0 0.0 0.0 
0.0 0.0 0.0 
0.0 0.0 0.0 
0.0 0.0 0.0 
0.0 0.0 0.0 
0.0 0.0 0.0 
0.0 0.0 0.0 
0.0 0.0 0.0 
0.0 0.0 0.0 
0.0 0.0 0.0 
0.0 0.0 0.0 
0.0 0.0 0.0 
0.0 0.0 0.0 
0.0 0.0 0.0 
0.0 0.0 0.0 
0.0 0.0 0.0 
0.0 0.0 0.0 
0.0 0.0 0.0 
0.0 0.0 0.0 
0.0 0.0 0.0 
0.0 0.0 0.0 
0.0 0.0 0.0 
0.0 0.0 0.0 
0.0 0.0 0.0 
0.0 0.0 0.0 
0.0 0.0 0.0 
0.0 0.0 0.0 
0.0 0.0 0.0 
0.0 0.0 0.0 
0.0 0.0 0.0 
0.0 0.0 0.0 
0.0 0.0 0.0 
0.0 0.0 0.0 
0.0 0.0 0.0 
0.0 0.0 0.0 
0.0 0.0 0.0 
0.0 0.0 0.0 
0.0 0.0 0.0 
0.0 0.0 0.0 
0.0 0.0 0.0 
0.0 0.0 0.0 
0.0 0.0 0.0 
0.0 0.0 0.0 
0.0 0.0 0.0 
0.0 0.0 0.0 
0.0 0.0 0.0 
0.0 0.0 0.0 
0.0 0.0 0.0 
0.0 0.0 0.0 
0.0 0.0 0.0 
0.0 0.0 0.0 
0.0 0.0 0.0 
0.0 0.0 0.0 
0.0 0.0 0.0 
0.0 0.0 0.0 
0.0 0.0 0.0 
0.0 0.0 0.0 
0.0 0.0 0.0 
0.0 0.0 0.0 
0.0 0.0 0.0 
0.0 0.0 0.0 
0.0 0.0 0.0 
0.0 0.0 0.0 
0.0 0.0 0.0 
0.0 0.0 0.0 
0.0 0.0 0.0 
0.0 0.0 0.0 
0.0 0.0 0.0 
0.0 0.0 0.0 
0.0 0.0 0.0 
0.0 0.0 0.0 
0.0 0.0 0.0 
0.0 0.0 0.0 
0.0 0.0 0.0 
0.0 0.0 0.0 
0.0 0.0 0.0 
0.0 0.0 0.0 
0.0 0.0 0.0 
0.0 0.0 0.0 
0.0 0.0 0.0 
0.0 0.0 0.0 
0.0 0.0 0.0 
0.0 0.0 0.0 
0.0 0.0 0.0 
0.0 0.0 0.0 
0.0 0.0 0.0 
0.0 0.0 0.0 
0.0 0.0 0.0 
0.0 0.0 0.0 
0.0 0.0 0.0 
0.0 0.0 0.0 
0.0 0.0 0.0 
0.0 0.0 0.0 
0.0 0.0 0.0 
0.0 0.0 0.0 
0.0 0.0 0.0 
0.0 0.0 0.0 
0.0 0.0 0.0 
0.0 0.0 0.0 
0.0 0.0 0.0 
0.0 0.0 0.0 
0.0 0.0 0.0 
0.0 0.0 0.0 
0.0 0.0 0.0 
0.0 0.0 0.0 
0.0 0.0 0.0 
0.0 0.0 0.0 
0.0 0.0 0.0 
0.0 0.0 0.0 
0.0 0.0 0.0 
0.0 0.0 0.0 
0.0 0.0 0.0 
0.0 0.0 0.0 
0.0 0.0 0.0 
0.0 0.0 0.0 
0.0 0.0 0.0 
0.0 0.0 0.0 
0.0 0.0 0.0 
0.0 0.0 0.0 
0.0 0.0 0.0 
0.0 0.0 0.0 
0.0 0.0 0.0 
0.0 0.0 0.0 
0.0 0.0 0.0 
0.0 0.0 0.0 
0.0 0.0 0.0 
0.0 0.0 0.0 
0.0 0.0 0.0 
0.0 0.0 0.0 
0.0 0.0 0.0 
0.0 0.0 0.0 
0.0 0.0 0.0 
0.0 0.0 0.0 
0.0 0.0 0.0 
0.0 0.0 0.0 
0.0 0.0 0.0 
0.0 0.0 0.0 
0.0 0.0 0.0 
0.0 0.0 0.0 
0.0 0.0 0.0 
0.0 0.0 0.0 
0.0 0.0 0.0 
0.0 0.0 0.0 
0.0 0.0 0.0 
0.0 0.0 0.0 
0.0 0.0 0.0 
0.0 0.0 0.0 
0.0 0.0 0.0 
0.0 0.0 0.0 
0.0 0.0 0.0 
0.0 0.0 0.0 
0.0 0.0 0.0 
0.0 0.0 0.0 
0.0 0.0 0.0 
0.0 0.0 0.0 
0.0 0.0 0.0 
0.0 0.0 0.0 
0.0 0.0 0.0 
0.0 0.0 0.0 
0.0 0.0 0.0 
0.0 0.0 0.0 
0.0 0.0 0.0 
0.0 0.0 0.0 
0.0 0.0 0.0 
0.0 0.0 0.0 
0.0 0.0 0.0 
0.0 0.0 0.0 
0.0 0.0 0.0 
0.0 0.0 0.0 
0.0 0.0 0.0 
0.0 0.0 0.0 
0.0 0.0 0.0 
0.0 0.0 0.0 
0.0 0.0 0.0 
0.0 0.0 0.0 
0.0 0.0 0.0 
0.0 0.0 0.0 
0.0 0.0 0.0 
0.0 0.0 0.0 
0.0 0.0 0.0 
0.0 0.0 0.0 
0.0 0.0 0.0 
0.0 0.0 0.0 
0.0 0.0 0.0 
0.0 0.0 0.0 
0.0 0.0 0.0 
0.0 0.0 0.0 
0.0 0.0 0.0 
0.0 0.0 0.0 
0.0 0.0 0.0 
0.0 0.0 0.0 
0.0 0.0 0.0 
0.0 0.0 0.0 
0.0 0.0 0.0 
0.0 0.0 0.0 
0.0 0.0 0.0 
0.0 0.0 0.0 
0.0 0.0 0.0 
0.0 0.0 0.0 
0.0 0.0 0.0 
0.0 0.0 0.0 
0.0 0.0 0.0 
0.0 0.0 0.0 
0.0 0.0 0.0 
0.0 0.0 0.0 
0.0 0.0 0.0 
0.0 0.0 0.0 
0.0 0.0 0.0 
0.0 0.0 0.0 
0.0 0.0 0.0 
0.0 0.0 0.0 
0.0 0.0 0.0 
0.0 0.0 0.0 
0.0 0.0 0.0 
0.0 0.0 0.0 
0.0 0.0 0.0 
0.0 0.0 0.0 
0.0 0.0 0.0 
0.0 0.0 0.0 
0.0 0.0 0.0 
0.0 0.0 0.0 
0.0 0.0 0.0 
0.0 0.0 0.0 
0.0 0.0 0.0 
0.0 0.0 0.0 
0.0 0.0 0.0 
0.0 0.0 0.0 
0.0 0.0 0.0 
0.0 0.0 0.0 
0.0 0.0 0.0 
0.0 0.0 0.0 
0.0 0.0 0.0 
0.0 0.0 0.0 
0.0 0.0 0.0 
0.0 0.0 0.0 
0.0 0.0 0.0 
0.0 0.0 0.0 
0.0 0.0 0.0 
0.0 0.0 0.0 
0.0 0.0 0.0 
0.0 0.0 0.0 
0.0 0.0 0.0 
0.0 0.0 0.0 
0.0 0.0 0.0 
0.0 0.0 0.0 
0.0 0.0 0.0 
0.0 0.0 0.0 
0.0 0.0 0.0 
0.0 0.0 0.0 
0.0 0.0 0.0 
0.0 0.0 0.0 
0.0 0.0 0.0 
0.0 0.0 0.0 
0.0 0.0 0.0 
0.0 0.0 0.0 
0.0 0.0 0.0 
0.0 0.0 0.0 
0.0 0.0 0.0 
0.0 0.0 0.0 
0.0 0.0 0.0 
0.0 0.0 0.0 
0.0 0.0 0.0 
0.0 0.0 0.0 
0.0 0.0 0.0 
0.0 0.0 0.0 
0.0 0.0 0.0 
0.0 0.0 0.0 
0.0 0.0 0.0 
0.0 0.0 0.0 
0.0 0.0 0.0 
0.0 0.0 0.0 
0.0 0.0 0.0 
0.0 0.0 0.0 
0.0 0.0 0.0 
0.0 0.0 0.0 
0.0 0.0 0.0 
0.0 0.0 0.0 
0.0 0.0 0.0 
0.0 0.0 0.0 
0.0 0.0 0.0 
0.0 0.0 0.0 
0.0 0.0 0.0 
0.0 0.0 0.0 
0.0 0.0 0.0 
0.0 0.0 0.0 
0.0 0.0 0.0 
0.0 0.0 0.0 
0.0 0.0 0.0 
0.0 0.0 0.0 
0.0 0.0 0.0 
0.0 0.0 0.0 
0.0 0.0 0.0 
0.0 0.0 0.0 
0.0 0.0 0.0 
0.0 0.0 0.0 
0.0 0.0 0.0 
0.0 0.0 0.0 
0.0 0.0 0.0 
0.0 0.0 0.0 
0.0 0.0 0.0 
0.0 0.0 0.0 
0.0 0.0 0.0 
0.0 0.0 0.0 
0.0 0.0 0.0 
0.0 0.0 0.0 
0.0 0.0 0.0 
0.0 0.0 0.0 
0.0 0.0 0.0 
0.0 0.0 0.0 
0.0 0.0 0.0 
0.0 0.0 0.0 
0.0 0.0 0.0 
0.0 0.0 0.0 
0.0 0.0 0.0 
0.0 0.0 0.0 
0.0 0.0 0.0 
0.0 0.0 0.0 
0.0 0.0 0.0 
0.0 0.0 0.0 
0.0 0.0 0.0 
0.0 0.0 0.0 
0.0 0.0 0.0 
0.0 0.0 0.0 
0.0 0.0 0.0 
0.0 0.0 0.0 
0.0 0.0 0.0 
0.0 0.0 0.0 
0.0 0.0 0.0 
0.0 0.0 0.0 
0.0 0.0 0.0 
0.0 0.0 0.0 
0.0 0.0 0.0 
0.0 0.0 0.0 
0.0 0.0 0.0 
0.0 0.0 0.0 
0.0 0.0 0.0 
0.0 0.0 0.0 
0.0 0.0 0.0 
0.0 0.0 0.0 
0.0 0.0 0.0 
0.0 0.0 0.0 
0.0 0.0 0.0 
0.0 0.0 0.0 
0.0 0.0 0.0 
0.0 0.0 0.0 
0.0 0.0 0.0 
0.0 0.0 0.0 
0.0 0.0 0.0 
0.0 0.0 0.0 
0.0 0.0 0.0 
0.0 0.0 0.0 
0.0 0.0 0.0 
0.0 0.0 0.0 
0.0 0.0 0.0 
0.0 0.0 0.0 
0.0 0.0 0.0 
0.0 0.0 0.0 
0.0 0.0 0.0 
0.0 0.0 0.0 
0.0 0.0 0.0 
0.0 0.0 0.0 
0.0 0.0 0.0 
0.0 0.0 0.0 
0.0 0.0 0.0 
0.0 0.0 0.0 
0.0 0.0 0.0 
0.0 0.0 0.0 
0.0 0.0 0.0 
0.0 0.0 0.0 
0.0 0.0 0.0 
0.0 0.0 0.0 
0.0 0.0 0.0 
0.0 0.0 0.0 
0.0 0.0 0.0 
0.0 0.0 0.0 
0.0 0.0 0.0 
0.0 0.0 0.0 
0.0 0.0 0.0 
0.0 0.0 0.0 
0.0 0.0 0.0 
0.0 0.0 0.0 
0.0 0.0 0.0 
0.0 0.0 0.0 
0.0 0.0 0.0 
0.0 0.0 0.0 
0.0 0.0 0.0 
0.0 0.0 0.0 
0.0 0.0 0.0 
0.0 0.0 0.0 
0.0 0.0 0.0 
0.0 0.0 0.0 
0.0 0.0 0.0 
0.0 0.0 0.0 
0.0 0.0 0.0 
0.0 0.0 0.0 
0.0 0.0 0.0 
0.0 0.0 0.0 
0.0 0.0 0.0 
0.0 0.0 0.0 
0.0 0.0 0.0 
0.0 0.0 0.0 
0.0 0.0 0.0 
0.0 0.0 0.0 
0.0 0.0 0.0 
0.0 0.0 0.0 
0.0 0.0 0.0 
0.0 0.0 0.0 
0.0 0.0 0.0 
0.0 0.0 0.0 
0.0 0.0 0.0 
0.0 0.0 0.0 
0.0 0.0 0.0 
0.0 0.0 0.0 
0.0 0.0 0.0 
0.0 0.0 0.0 
0.0 0.0 0.0 
0.0 0.0 0.0 
0.0 0.0 0.0 
0.0 0.0 0.0 
0.0 0.0 0.0 
0.0 0.0 0.0 
0.0 0.0 0.0 
0.0 0.0 0.0 
0.0 0.0 0.0 
0.0 0.0 0.0 
0.0 0.0 0.0 
0.0 0.0 0.0 
0.0 0.0 0.0 
0.0 0.0 0.0 
0.0 0.0 0.0 
0.0 0.0 0.0 
0.0 0.0 0.0 
0.0 0.0 0.0 
0.0 0.0 0.0 
0.0 0.0 0.0 
0.0 0.0 0.0 
0.0 0.0 0.0 
0.0 0.0 0.0 
0.0 0.0 0.0 
0.0 0.0 0.0 
0.0 0.0 0.0 
0.0 0.0 0.0 
0.0 0.0 0.0 
0.0 0.0 0.0 
0.0 0.0 0.0 
0.0 0.0 0.0 
0.0 0.0 0.0 
0.0 0.0 0.0 
0.0 0.0 0.0 
0.0 0.0 0.0 
0.0 0.0 0.0 
0.0 0.0 0.0 
0.0 0.0 0.0 
0.0 0.0 0.0 
0.0 0.0 0.0 
0.0 0.0 0.0 
0.0 0.0 0.0 
0.0 0.0 0.0 
0.0 0.0 0.0 
0.0 0.0 0.0 
0.0 0.0 0.0 
0.0 0.0 0.0 
0.0 0.0 0.0 
0.0 0.0 0.0 
0.0 0.0 0.0 
0.0 0.0 0.0 
0.0 0.0 0.0 
0.0 0.0 0.0 
0.0 0.0 0.0 
0.0 0.0 0.0 
0.0 0.0 0.0 
0.0 0.0 0.0 
0.0 0.0 0.0 
0.0 0.0 0.0 
0.0 0.0 0.0 
0.0 0.0 0.0 
0.0 0.0 0.0 
0.0 0.0 0.0 
0.0 0.0 0.0 
0.0 0.0 0.0 
0.0 0.0 0.0 
0.0 0.0 0.0 
0.0 0.0 0.0 
0.0 0.0 0.0 
0.0 0.0 0.0 
0.0 0.0 0.0 
0.0 0.0 0.0 
0.0 0.0 0.0 
0.0 0.0 0.0 
0.0 0.0 0.0 
0.0 0.0 0.0 
0.0 0.0 0.0 
0.0 0.0 0.0 
0.0 0.0 0.0 
0.0 0.0 0.0 
0.0 0.0 0.0 
0.0 0.0 0.0 
0.0 0.0 0.0 
0.0 0.0 0.0 
0.0 0.0 0.0 
0.0 0.0 0.0 
0.0 0.0 0.0 
0.0 0.0 0.0 
0.0 0.0 0.0 
0.0 0.0 0.0 
0.0 0.0 0.0 
0.0 0.0 0.0 
0.0 0.0 0.0 
0.0 0.0 0.0 
0.0 0.0 0.0 
0.0 0.0 0.0 
0.0 0.0 0.0 
0.0 0.0 0.0 
0.0 0.0 0.0 
0.0 0.0 0.0 
0.0 0.0 0.0 
0.0 0.0 0.0 
0.0 0.0 0.0 
0.0 0.0 0.0 
0.0 0.0 0.0 
0.0 0.0 0.0 
0.0 0.0 0.0 
0.0 0.0 0.0 
0.0 0.0 0.0 
0.0 0.0 0.0 
0.0 0.0 0.0 
0.0 0.0 0.0 
0.0 0.0 0.0 
0.0 0.0 0.0 
0.0 0.0 0.0 
0.0 0.0 0.0 
0.0 0.0 0.0 
0.0 0.0 0.0 
0.0 0.0 0.0 
0.0 0.0 0.0 
0.0 0.0 0.0 
0.0 0.0 0.0 
0.0 0.0 0.0 
0.0 0.0 0.0 
0.0 0.0 0.0 
0.0 0.0 0.0 
0.0 0.0 0.0 
0.0 0.0 0.0 
0.0 0.0 0.0 
0.0 0.0 0.0 
0.0 0.0 0.0 
0.0 0.0 0.0 
0.0 0.0 0.0 
0.0 0.0 0.0 
0.0 0.0 0.0 
0.0 0.0 0.0 
0.0 0.0 0.0 
0.0 0.0 0.0 
0.0 0.0 0.0 
0.0 0.0 0.0 
0.0 0.0 0.0 
0.0 0.0 0.0 
0.0 0.0 0.0 
0.0 0.0 0.0 
0.0 0.0 0.0 
0.0 0.0 0.0 
0.0 0.0 0.0 
0.0 0.0 0.0 
0.0 0.0 0.0 
0.0 0.0 0.0 
0.0 0.0 0.0 
0.0 0.0 0.0 
0.0 0.0 0.0 
0.0 0.0 0.0 
0.0 0.0 0.0 
0.0 0.0 0.0 
0.0 0.0 0.0 
0.0 0.0 0.0 
0.0 0.0 0.0 
0.0 0.0 0.0 
0.0 0.0 0.0 
0.0 0.0 0.0 
0.0 0.0 0.0 
0.0 0.0 0.0 
0.0 0.0 0.0 
0.0 0.0 0.0 
0.0 0.0 0.0 
0.0 0.0 0.0 
0.0 0.0 0.0 
0.0 0.0 0.0 
0.0 0.0 0.0 
0.0 0.0 0.0 
0.0 0.0 0.0 
0.0 0.0 0.0 
0.0 0.0 0.0 
0.0 0.0 0.0 
0.0 0.0 0.0 
0.0 0.0 0.0 
0.0 0.0 0.0 
0.0 0.0 0.0 
0.0 0.0 0.0 
0.0 0.0 0.0 
0.0 0.0 0.0 
0.0 0.0 0.0 
0.0 0.0 0.0 
0.0 0.0 0.0 
0.0 0.0 0.0 
0.0 0.0 0.0 
0.0 0.0 0.0 
0.0 0.0 0.0 
0.0 0.0 0.0 
0.0 0.0 0.0 
0.0 0.0 0.0 
0.0 0.0 0.0 
0.0 0.0 0.0 
0.0 0.0 0.0 
0.0 0.0 0.0 
0.0 0.0 0.0 
0.0 0.0 0.0 
0.0 0.0 0.0 
0.0 0.0 0.0 
0.0 0.0 0.0 
0.0 0.0 0.0 
0.0 0.0 0.0 
0.0 0.0 0.0 
0.0 0.0 0.0 
0.0 0.0 0.0 
0.0 0.0 0.0 
0.0 0.0 0.0 
0.0 0.0 0.0 
0.0 0.0 0.0 
0.0 0.0 0.0 
0.0 0.0 0.0 
0.0 0.0 0.0 
0.0 0.0 0.0 
0.0 0.0 0.0 
0.0 0.0 0.0 
0.0 0.0 0.0 
0.0 0.0 0.0 
0.0 0.0 0.0 
0.0 0.0 0.0 
0.0 0.0 0.0 
0.0 0.0 0.0 
0.0 0.0 0.0 
0.0 0.0 0.0 
0.0 0.0 0.0 
0.0 0.0 0.0 
0.0 0.0 0.0 
0.0 0.0 0.0 
0.0 0.0 0.0 
0.0 0.0 0.0 
0.0 0.0 0.0 
0.0 0.0 0.0 
0.0 0.0 0.0 
0.0 0.0 0.0 
0.0 0.0 0.0 
0.0 0.0 0.0 
0.0 0.0 0.0 
0.0 0.0 0.0 
0.0 0.0 0.0 
0.0 0.0 0.0 
0.0 0.0 0.0 
0.0 0.0 0.0 
0.0 0.0 0.0 
0.0 0.0 0.0 
0.0 0.0 0.0 
0.0 0.0 0.0 
0.0 0.0 0.0 
0.0 0.0 0.0 
0.0 0.0 0.0 
0.0 0.0 0.0 
0.0 0.0 0.0 
0.0 0.0 0.0 
0.0 0.0 0.0 
0.0 0.0 0.0 
0.0 0.0 0.0 
0.0 0.0 0.0 
0.0 0.0 0.0 
0.0 0.0 0.0 
0.0 0.0 0.0 
0.0 0.0 0.0 
0.0 0.0 0.0 
0.0 0.0 0.0 
0.0 0.0 0.0 
0.0 0.0 0.0 
0.0 0.0 0.0 
0.0 0.0 0.0 
0.0 0.0 0.0 
0.0 0.0 0.0 
0.0 0.0 0.0 
0.0 0.0 0.0 
0.0 0.0 0.0 
0.0 0.0 0.0 
0.0 0.0 0.0 
0.0 0.0 0.0 
0.0 0.0 0.0 
0.0 0.0 0.0 
0.0 0.0 0.0 
0.0 0.0 0.0 
0.0 0.0 0.0 
0.0 0.0 0.0 
0.0 0.0 0.0 
0.0 0.0 0.0 
0.0 0.0 0.0 
0.0 0.0 0.0 
0.0 0.0 0.0 
0.0 0.0 0.0 
0.0 0.0 0.0 
0.0 0.0 0.0 
0.0 0.0 0.0 
0.0 0.0 0.0 
0.0 0.0 0.0 
0.0 0.0 0.0 
0.0 0.0 0.0 
0.0 0.0 0.0 
0.0 0.0 0.0 
0.0 0.0 0.0 
0.0 0.0 0.0 
0.0 0.0 0.0 
0.0 0.0 0.0 
0.0 0.0 0.0 
0.0 0.0 0.0 
0.0 0.0 0.0 
0.0 0.0 0.0 
0.0 0.0 0.0 
0.0 0.0 0.0 
0.0 0.0 0.0 
0.0 0.0 0.0 
0.0 0.0 0.0 
0.0 0.0 0.0 
0.0 0.0 0.0 
0.0 0.0 0.0 
0.0 0.0 0.0 
0.0 0.0 0.0 
0.0 0.0 0.0 
0.0 0.0 0.0 
0.0 0.0 0.0 
0.0 0.0 0.0 
0.0 0.0 0.0 
0.0 0.0 0.0 
0.0 0.0 0.0 
0.0 0.0 0.0 
0.0 0.0 0.0 
0.0 0.0 0.0 
0.0 0.0 0.0 
0.0 0.0 0.0 
0.0 0.0 0.0 
0.0 0.0 0.0 
0.0 0.0 0.0 
0.0 0.0 0.0 
0.0 0.0 0.0 
0.0 0.0 0.0 
0.0 0.0 0.0 
0.0 0.0 0.0 
0.0 0.0 0.0 
0.0 0.0 0.0 
0.0 0.0 0.0 
0.0 0.0 0.0 
0.0 0.0 0.0 
0.0 0.0 0.0 
0.0 0.0 0.0 
0.0 0.0 0.0 
0.0 0.0 0.0 
0.0 0.0 0.0 
0.0 0.0 0.0 
0.0 0.0 0.0 
0.0 0.0 0.0 
0.0 0.0 0.0 
0.0 0.0 0.0 
0.0 0.0 0.0 
0.0 0.0 0.0 
0.0 0.0 0.0 
0.0 0.0 0.0 
0.0 0.0 0.0 
0.0 0.0 0.0 
0.0 0.0 0.0 
0.0 0.0 0.0 
0.0 0.0 0.0 
0.0 0.0 0.0 
0.0 0.0 0.0 
0.0 0.0 0.0 
0.0 0.0 0.0 
0.0 0.0 0.0 
0.0 0.0 0.0 
0.0 0.0 0.0 
0.0 0.0 0.0 
0.0 0.0 0.0 
0.0 0.0 0.0 
0.0 0.0 0.0 
0.0 0.0 0.0 
0.0 0.0 0.0 
0.0 0.0 0.0 
0.0 0.0 0.0 
0.0 0.0 0.0 
0.0 0.0 0.0 
0.0 0.0 0.0 
0.0 0.0 0.0 
0.0 0.0 0.0 
0.0 0.0 0.0 
0.0 0.0 0.0 
0.0 0.0 0.0 
0.0 0.0 0.0 
0.0 0.0 0.0 
0.0 0.0 0.0 
0.0 0.0 0.0 
0.0 0.0 0.0 
0.0 0.0 0.0 
0.0 0.0 0.0 
0.0 0.0 0.0 
0.0 0.0 0.0 
0.0 0.0 0.0 
0.0 0.0 0.0 
0.0 0.0 0.0 
0.0 0.0 0.0 
0.0 0.0 0.0 
0.0 0.0 0.0 
0.0 0.0 0.0 
0.0 0.0 0.0 
0.0 0.0 0.0 
0.0 0.0 0.0 
0.0 0.0 0.0 
0.0 0.0 0.0 
0.0 0.0 0.0 
0.0 0.0 0.0 
0.0 0.0 0.0 
0.0 0.0 0.0 
0.0 0.0 0.0 
0.0 0.0 0.0 
0.0 0.0 0.0 
0.0 0.0 0.0 
0.0 0.0 0.0 
0.0 0.0 0.0 
0.0 0.0 0.0 
0.0 0.0 0.0 
0.0 0.0 0.0 
0.0 0.0 0.0 
0.0 0.0 0.0 
0.0 0.0 0.0 
0.0 0.0 0.0 
0.0 0.0 0.0 
0.0 0.0 0.0 
0.0 0.0 0.0 
0.0 0.0 0.0 
0.0 0.0 0.0 
0.0 0.0 0.0 
0.0 0.0 0.0 
0.0 0.0 0.0 
0.0 0.0 0.0 
0.0 0.0 0.0 
0.0 0.0 0.0 
0.0 0.0 0.0 
0.0 0.0 0.0 
0.0 0.0 0.0 
0.0 0.0 0.0 
0.0 0.0 0.0 
0.0 0.0 0.0 
0.0 0.0 0.0 
0.0 0.0 0.0 
0.0 0.0 0.0 
0.0 0.0 0.0 
0.0 0.0 0.0 
0.0 0.0 0.0 
0.0 0.0 0.0 
0.0 0.0 0.0 
0.0 0.0 0.0 
0.0 0.0 0.0 
0.0 0.0 0.0 
0.0 0.0 0.0 
0.0 0.0 0.0 
0.0 0.0 0.0 
0.0 0.0 0.0 
0.0 0.0 0.0 
0.0 0.0 0.0 
0.0 0.0 0.0 
0.0 0.0 0.0 
0.0 0.0 0.0 
0.0 0.0 0.0 
0.0 0.0 0.0 
0.0 0.0 0.0 
0.0 0.0 0.0 
0.0 0.0 0.0 
0.0 0.0 0.0 
0.0 0.0 0.0 
0.0 0.0 0.0 
0.0 0.0 0.0 
0.0 0.0 0.0 
0.0 0.0 0.0 
0.0 0.0 0.0 
0.0 0.0 0.0 
0.0 0.0 0.0 
0.0 0.0 0.0 
0.0 0.0 0.0 
0.0 0.0 0.0 
0.0 0.0 0.0 
0.0 0.0 0.0 
0.0 0.0 0.0 
0.0 0.0 0.0 
0.0 0.0 0.0 
0.0 0.0 0.0 
0.0 0.0 0.0 
0.0 0.0 0.0 
0.0 0.0 0.0 
0.0 0.0 0.0 
0.0 0.0 0.0 
0.0 0.0 0.0 
0.0 0.0 0.0 
0.0 0.0 0.0 
0.0 0.0 0.0 
0.0 0.0 0.0 
0.0 0.0 0.0 
0.0 0.0 0.0 
0.0 0.0 0.0 
0.0 0.0 0.0 
0.0 0.0 0.0 
0.0 0.0 0.0 
0.0 0.0 0.0 
0.0 0.0 0.0 
0.0 0.0 0.0 
0.0 0.0 0.0 
0.0 0.0 0.0 
0.0 0.0 0.0 
0.0 0.0 0.0 
0.0 0.0 0.0 
0.0 0.0 0.0 
0.0 0.0 0.0 
0.0 0.0 0.0 
0.0 0.0 0.0 
0.0 0.0 0.0 
0.0 0.0 0.0 
0.0 0.0 0.0 
0.0 0.0 0.0 
0.0 0.0 0.0 
0.0 0.0 0.0 
0.0 0.0 0.0 
0.0 0.0 0.0 
0.0 0.0 0.0 
0.0 0.0 0.0 
0.0 0.0 0.0 
0.0 0.0 0.0 
0.0 0.0 0.0 
0.0 0.0 0.0 
0.0 0.0 0.0 
0.0 0.0 0.0 
0.0 0.0 0.0 
0.0 0.0 0.0 
0.0 0.0 0.0 
0.0 0.0 0.0 
0.0 0.0 0.0 
0.0 0.0 0.0 
0.0 0.0 0.0 
0.0 0.0 0.0 
0.0 0.0 0.0 
0.0 0.0 0.0 
0.0 0.0 0.0 
0.0 0.0 0.0 
0.0 0.0 0.0 
0.0 0.0 0.0 
0.0 0.0 0.0 
0.0 0.0 0.0 
0.0 0.0 0.0 
0.0 0.0 0.0 
0.0 0.0 0.0 
0.0 0.0 0.0 
0.0 0.0 0.0 
0.0 0.0 0.0 
0.0 0.0 0.0 
0.0 0.0 0.0 
0.0 0.0 0.0 
0.0 0.0 0.0 
0.0 0.0 0.0 
0.0 0.0 0.0 
0.0 0.0 0.0 
0.0 0.0 0.0 
0.0 0.0 0.0 
0.0 0.0 0.0 
0.0 0.0 0.0 
0.0 0.0 0.0 
0.0 0.0 0.0 
0.0 0.0 0.0 
0.0 0.0 0.0 
0.0 0.0 0.0 
0.0 0.0 0.0 
0.0 0.0 0.0 
0.0 0.0 0.0 
0.0 0.0 0.0 
0.0 0.0 0.0 
0.0 0.0 0.0 
0.0 0.0 0.0 
0.0 0.0 0.0 
0.0 0.0 0.0 
0.0 0.0 0.0 
0.0 0.0 0.0 
0.0 0.0 0.0 
0.0 0.0 0.0 
0.0 0.0 0.0 
0.0 0.0 0.0 
0.0 0.0 0.0 
0.0 0.0 0.0 
0.0 0.0 0.0 
0.0 0.0 0.0 
0.0 0.0 0.0 
0.0 0.0 0.0 
0.0 0.0 0.0 
0.0 0.0 0.0 
0.0 0.0 0.0 
0.0 0.0 0.0 
0.0 0.0 0.0 
0.0 0.0 0.0 
0.0 0.0 0.0 
0.0 0.0 0.0 
0.0 0.0 0.0 
0.0 0.0 0.0 
0.0 0.0 0.0 
0.0 0.0 0.0 
0.0 0.0 0.0 
0.0 0.0 0.0 
0.0 0.0 0.0 
0.0 0.0 0.0 
0.0 0.0 0.0 
0.0 0.0 0.0 
0.0 0.0 0.0 
0.0 0.0 0.0 
0.0 0.0 0.0 
0.0 0.0 0.0 
0.0 0.0 0.0 
0.0 0.0 0.0 
0.0 0.0 0.0 
0.0 0.0 0.0 
0.0 0.0 0.0 
0.0 0.0 0.0 
0.0 0.0 0.0 
0.0 0.0 0.0 
0.0 0.0 0.0 
0.0 0.0 0.0 
0.0 0.0 0.0 
0.0 0.0 0.0 
0.0 0.0 0.0 
0.0 0.0 0.0 
0.0 0.0 0.0 
0.0 0.0 0.0 
0.0 0.0 0.0 
0.0 0.0 0.0 
0.0 0.0 0.0 
0.0 0.0 0.0 
0.0 0.0 0.0 
0.0 0.0 0.0 
0.0 0.0 0.0 
0.0 0.0 0.0 
0.0 0.0 0.0 
0.0 0.0 0.0 
0.0 0.0 0.0 
0.0 0.0 0.0 
0.0 0.0 0.0 
0.0 0.0 0.0 
0.0 0.0 0.0 
0.0 0.0 0.0 
0.0 0.0 0.0 
0.0 0.0 0.0 
0.0 0.0 0.0 
0.0 0.0 0.0 
0.0 0.0 0.0 
0.0 0.0 0.0 
0.0 0.0 0.0 
0.0 0.0 0.0 
0.0 0.0 0.0 
0.0 0.0 0.0 
0.0 0.0 0.0 
0.0 0.0 0.0 
0.0 0.0 0.0 
0.0 0.0 0.0 
0.0 0.0 0.0 
0.0 0.0 0.0 
0.0 0.0 0.0 
0.0 0.0 0.0 
0.0 0.0 0.0 
0.0 0.0 0.0 
0.0 0.0 0.0 
0.0 0.0 0.0 
0.0 0.0 0.0 
0.0 0.0 0.0 
0.0 0.0 0.0 
0.0 0.0 0.0 
0.0 0.0 0.0 
0.0 0.0 0.0 
0.0 0.0 0.0 
0.0 0.0 0.0 
0.0 0.0 0.0 
0.0 0.0 0.0 
0.0 0.0 0.0 
0.0 0.0 0.0 
0.0 0.0 0.0 
0.0 0.0 0.0 
0.0 0.0 0.0 
0.0 0.0 0.0 
0.0 0.0 0.0 
0.0 0.0 0.0 
0.0 0.0 0.0 
0.0 0.0 0.0 
0.0 0.0 0.0 
0.0 0.0 0.0 
0.0 0.0 0.0 
0.0 0.0 0.0 
0.0 0.0 0.0 
0.0 0.0 0.0 
0.0 0.0 0.0 
0.0 0.0 0.0 
0.0 0.0 0.0 
0.0 0.0 0.0 
0.0 0.0 0.0 
0.0 0.0 0.0 
0.0 0.0 0.0 
0.0 0.0 0.0 
0.0 0.0 0.0 
0.0 0.0 0.0 
0.0 0.0 0.0 
0.0 0.0 0.0 
0.0 0.0 0.0 
0.0 0.0 0.0 
0.0 0.0 0.0 
0.0 0.0 0.0 
0.0 0.0 0.0 
0.0 0.0 0.0 
0.0 0.0 0.0 
0.0 0.0 0.0 
0.0 0.0 0.0 
0.0 0.0 0.0 
0.0 0.0 0.0 
0.0 0.0 0.0 
0.0 0.0 0.0 
0.0 0.0 0.0 
0.0 0.0 0.0 
0.0 0.0 0.0 
0.0 0.0 0.0 
0.0 0.0 0.0 
0.0 0.0 0.0 
0.0 0.0 0.0 
0.0 0.0 0.0 
0.0 0.0 0.0 
0.0 0.0 0.0 
0.0 0.0 0.0 
0.0 0.0 0.0 
0.0 0.0 0.0 
0.0 0.0 0.0 
0.0 0.0 0.0 
0.0 0.0 0.0 
0.0 0.0 0.0 
0.0 0.0 0.0 
0.0 0.0 0.0 
0.0 0.0 0.0 
0.0 0.0 0.0 
0.0 0.0 0.0 
0.0 0.0 0.0 
0.0 0.0 0.0 
0.0 0.0 0.0 
0.0 0.0 0.0 
0.0 0.0 0.0 
0.0 0.0 0.0 
0.0 0.0 0.0 
0.0 0.0 0.0 
0.0 0.0 0.0 
0.0 0.0 0.0 
0.0 0.0 0.0 
0.0 0.0 0.0 
0.0 0.0 0.0 
0.0 0.0 0.0 
0.0 0.0 0.0 
0.0 0.0 0.0 
0.0 0.0 0.0 
0.0 0.0 0.0 
0.0 0.0 0.0 
0.0 0.0 0.0 
0.0 0.0 0.0 
0.0 0.0 0.0 
0.0 0.0 0.0 
0.0 0.0 0.0 
0.0 0.0 0.0 
0.0 0.0 0.0 
0.0 0.0 0.0 
0.0 0.0 0.0 
0.0 0.0 0.0 
0.0 0.0 0.0 
0.0 0.0 0.0 
0.0 0.0 0.0 
0.0 0.0 0.0 
0.0 0.0 0.0 
0.0 0.0 0.0 
0.0 0.0 0.0 
0.0 0.0 0.0 
0.0 0.0 0.0 
0.0 0.0 0.0 
0.0 0.0 0.0 
0.0 0.0 0.0 
0.0 0.0 0.0 
0.0 0.0 0.0 
0.0 0.0 0.0 
0.0 0.0 0.0 
0.0 0.0 0.0 
0.0 0.0 0.0 
0.0 0.0 0.0 
0.0 0.0 0.0 
0.0 0.0 0.0 
0.0 0.0 0.0 
0.0 0.0 0.0 
0.0 0.0 0.0 
0.0 0.0 0.0 
0.0 0.0 0.0 
0.0 0.0 0.0 
0.0 0.0 0.0 
0.0 0.0 0.0 
0.0 0.0 0.0 
0.0 0.0 0.0 
0.0 0.0 0.0 
0.0 0.0 0.0 
0.0 0.0 0.0 
0.0 0.0 0.0 
0.0 0.0 0.0 
0.0 0.0 0.0 
0.0 0.0 0.0 
0.0 0.0 0.0 
0.0 0.0 0.0 
0.0 0.0 0.0 
0.0 0.0 0.0 
0.0 0.0 0.0 
0.0 0.0 0.0 
0.0 0.0 0.0 
0.0 0.0 0.0 
0.0 0.0 0.0 
0.0 0.0 0.0 
0.0 0.0 0.0 
0.0 0.0 0.0 
0.0 0.0 0.0 
0.0 0.0 0.0 
0.0 0.0 0.0 
0.0 0.0 0.0 
0.0 0.0 0.0 
0.0 0.0 0.0 
0.0 0.0 0.0 
0.0 0.0 0.0 
0.0 0.0 0.0 
0.0 0.0 0.0 
0.0 0.0 0.0 
0.0 0.0 0.0 
0.0 0.0 0.0 
0.0 0.0 0.0 
0.0 0.0 0.0 
0.0 0.0 0.0 
0.0 0.0 0.0 
0.0 0.0 0.0 
0.0 0.0 0.0 
0.0 0.0 0.0 
0.0 0.0 0.0 
0.0 0.0 0.0 
0.0 0.0 0.0 
0.0 0.0 0.0 
0.0 0.0 0.0 
0.0 0.0 0.0 
0.0 0.0 0.0 
0.0 0.0 0.0 
0.0 0.0 0.0 
0.0 0.0 0.0 
0.0 0.0 0.0 
0.0 0.0 0.0 
0.0 0.0 0.0 
0.0 0.0 0.0 
0.0 0.0 0.0 
0.0 0.0 0.0 
0.0 0.0 0.0 
0.0 0.0 0.0 
0.0 0.0 0.0 
0.0 0.0 0.0 
0.0 0.0 0.0 
0.0 0.0 0.0 
0.0 0.0 0.0 
0.0 0.0 0.0 
0.0 0.0 0.0 
0.0 0.0 0.0 
0.0 0.0 0.0 
0.0 0.0 0.0 
0.0 0.0 0.0 
0.0 0.0 0.0 
0.0 0.0 0.0 
0.0 0.0 0.0 
0.0 0.0 0.0 
0.0 0.0 0.0 
0.0 0.0 0.0 
0.0 0.0 0.0 
0.0 0.0 0.0 
0.0 0.0 0.0 
0.0 0.0 0.0 
0.0 0.0 0.0 
0.0 0.0 0.0 
0.0 0.0 0.0 
0.0 0.0 0.0 
0.0 0.0 0.0 
0.0 0.0 0.0 
0.0 0.0 0.0 
0.0 0.0 0.0 
0.0 0.0 0.0 
0.0 0.0 0.0 
0.0 0.0 0.0 
0.0 0.0 0.0 
0.0 0.0 0.0 
0.0 0.0 0.0 
0.0 0.0 0.0 
0.0 0.0 0.0 
0.0 0.0 0.0 
0.0 0.0 0.0 
0.0 0.0 0.0 
0.0 0.0 0.0 
0.0 0.0 0.0 
0.0 0.0 0.0 
0.0 0.0 0.0 
0.0 0.0 0.0 
0.0 0.0 0.0 
0.0 0.0 0.0 
0.0 0.0 0.0 
0.0 0.0 0.0 
0.0 0.0 0.0 
0.0 0.0 0.0 
0.0 0.0 0.0 
0.0 0.0 0.0 
0.0 0.0 0.0 
0.0 0.0 0.0 
0.0 0.0 0.0 
0.0 0.0 0.0 
0.0 0.0 0.0 
0.0 0.0 0.0 
0.0 0.0 0.0 
0.0 0.0 0.0 
0.0 0.0 0.0 
0.0 0.0 0.0 
0.0 0.0 0.0 
0.0 0.0 0.0 
0.0 0.0 0.0 
0.0 0.0 0.0 
0.0 0.0 0.0 
0.0 0.0 0.0 
0.0 0.0 0.0 
0.0 0.0 0.0 
0.0 0.0 0.0 
0.0 0.0 0.0 
0.0 0.0 0.0 
0.0 0.0 0.0 
0.0 0.0 0.0 
0.0 0.0 0.0 
0.0 0.0 0.0 
0.0 0.0 0.0 
0.0 0.0 0.0 
0.0 0.0 0.0 
0.0 0.0 0.0 
0.0 0.0 0.0 
0.0 0.0 0.0 
0.0 0.0 0.0 
0.0 0.0 0.0 
0.0 0.0 0.0 
0.0 0.0 0.0 
0.0 0.0 0.0 
0.0 0.0 0.0 
0.0 0.0 0.0 
0.0 0.0 0.0 
0.0 0.0 0.0 
0.0 0.0 0.0 
0.0 0.0 0.0 
0.0 0.0 0.0 
0.0 0.0 0.0 
0.0 0.0 0.0 
0.0 0.0 0.0 
0.0 0.0 0.0 
0.0 0.0 0.0 
0.0 0.0 0.0 
0.0 0.0 0.0 
0.0 0.0 0.0 
0.0 0.0 0.0 
0.0 0.0 0.0 
0.0 0.0 0.0 
0.0 0.0 0.0 
0.0 0.0 0.0 
0.0 0.0 0.0 
0.0 0.0 0.0 
0.0 0.0 0.0 
0.0 0.0 0.0 
0.0 0.0 0.0 
0.0 0.0 0.0 
0.0 0.0 0.0 
0.0 0.0 0.0 
0.0 0.0 0.0 
0.0 0.0 0.0 
0.0 0.0 0.0 
0.0 0.0 0.0 
0.0 0.0 0.0 
0.0 0.0 0.0 
0.0 0.0 0.0 
0.0 0.0 0.0 
0.0 0.0 0.0 
0.0 0.0 0.0 
0.0 0.0 0.0 
0.0 0.0 0.0 
0.0 0.0 0.0 
0.0 0.0 0.0 
0.0 0.0 0.0 
0.0 0.0 0.0 
0.0 0.0 0.0 
0.0 0.0 0.0 
0.0 0.0 0.0 
0.0 0.0 0.0 
0.0 0.0 0.0 
0.0 0.0 0.0 
0.0 0.0 0.0 
0.0 0.0 0.0 
0.0 0.0 0.0 
0.0 0.0 0.0 
0.0 0.0 0.0 
0.0 0.0 0.0 
0.0 0.0 0.0 
0.0 0.0 0.0 
0.0 0.0 0.0 
0.0 0.0 0.0 
0.0 0.0 0.0 
0.0 0.0 0.0 
0.0 0.0 0.0 
0.0 0.0 0.0 
0.0 0.0 0.0 
0.0 0.0 0.0 
0.0 0.0 0.0 
0.0 0.0 0.0 
0.0 0.0 0.0 
0.0 0.0 0.0 
0.0 0.0 0.0 
0.0 0.0 0.0 
0.0 0.0 0.0 
0.0 0.0 0.0 
0.0 0.0 0.0 
0.0 0.0 0.0 
0.0 0.0 0.0 
0.0 0.0 0.0 
0.0 0.0 0.0 
0.0 0.0 0.0 
0.0 0.0 0.0 
0.0 0.0 0.0 
0.0 0.0 0.0 
0.0 0.0 0.0 
0.0 0.0 0.0 
0.0 0.0 0.0 
0.0 0.0 0.0 
0.0 0.0 0.0 
0.0 0.0 0.0 
0.0 0.0 0.0 
0.0 0.0 0.0 
0.0 0.0 0.0 
0.0 0.0 0.0 
0.0 0.0 0.0 
0.0 0.0 0.0 
0.0 0.0 0.0 
0.0 0.0 0.0 
0.0 0.0 0.0 
0.0 0.0 0.0 
0.0 0.0 0.0 
0.0 0.0 0.0 
0.0 0.0 0.0 
0.0 0.0 0.0 
0.0 0.0 0.0 
0.0 0.0 0.0 
0.0 0.0 0.0 
0.0 0.0 0.0 
0.0 0.0 0.0 
0.0 0.0 0.0 
0.0 0.0 0.0 
0.0 0.0 0.0 
0.0 0.0 0.0 
0.0 0.0 0.0 
0.0 0.0 0.0 
0.0 0.0 0.0 
0.0 0.0 0.0 
0.0 0.0 0.0 
0.0 0.0 0.0 
0.0 0.0 0.0 
0.0 0.0 0.0 
0.0 0.0 0.0 
0.0 0.0 0.0 
0.0 0.0 0.0 
0.0 0.0 0.0 
0.0 0.0 0.0 
0.0 0.0 0.0 
0.0 0.0 0.0 
0.0 0.0 0.0 
0.0 0.0 0.0 
0.0 0.0 0.0 
0.0 0.0 0.0 
0.0 0.0 0.0 
0.0 0.0 0.0 
0.0 0.0 0.0 
0.0 0.0 0.0 
0.0 0.0 0.0 
0.0 0.0 0.0 
0.0 0.0 0.0 
0.0 0.0 0.0 
0.0 0.0 0.0 
0.0 0.0 0.0 
0.0 0.0 0.0 
0.0 0.0 0.0 
0.0 0.0 0.0 
0.0 0.0 0.0 
0.0 0.0 0.0 
0.0 0.0 0.0 
0.0 0.0 0.0 
0.0 0.0 0.0 
0.0 0.0 0.0 
0.0 0.0 0.0 
0.0 0.0 0.0 
0.0 0.0 0.0 
0.0 0.0 0.0 
0.0 0.0 0.0 
0.0 0.0 0.0 
0.0 0.0 0.0 
0.0 0.0 0.0 
0.0 0.0 0.0 
0.0 0.0 0.0 
0.0 0.0 0.0 
0.0 0.0 0.0 
0.0 0.0 0.0 
0.0 0.0 0.0 
0.0 0.0 0.0 
0.0 0.0 0.0 
0.0 0.0 0.0 
0.0 0.0 0.0 
0.0 0.0 0.0 
0.0 0.0 0.0 
0.0 0.0 0.0 
0.0 0.0 0.0 
0.0 0.0 0.0 
0.0 0.0 0.0 
0.0 0.0 0.0 
0.0 0.0 0.0 
0.0 0.0 0.0 
0.0 0.0 0.0 
0.0 0.0 0.0 
0.0 0.0 0.0 
0.0 0.0 0.0 
0.0 0.0 0.0 
0.0 0.0 0.0 
0.0 0.0 0.0 
0.0 0.0 0.0 
0.0 0.0 0.0 
0.0 0.0 0.0 
0.0 0.0 0.0 
0.0 0.0 0.0 
0.0 0.0 0.0 
0.0 0.0 0.0 
0.0 0.0 0.0 
0.0 0.0 0.0 
0.0 0.0 0.0 
0.0 0.0 0.0 
0.0 0.0 0.0 
0.0 0.0 0.0 
0.0 0.0 0.0 
0.0 0.0 0.0 
0.0 0.0 0.0 
0.0 0.0 0.0 
0.0 0.0 0.0 
0.0 0.0 0.0 
0.0 0.0 0.0 
0.0 0.0 0.0 
0.0 0.0 0.0 
0.0 0.0 0.0 
0.0 0.0 0.0 
0.0 0.0 0.0 
0.0 0.0 0.0 
0.0 0.0 0.0 
0.0 0.0 0.0 
0.0 0.0 0.0 
0.0 0.0 0.0 
0.0 0.0 0.0 
0.0 0.0 0.0 
0.0 0.0 0.0 
0.0 0.0 0.0 
0.0 0.0 0.0 
0.0 0.0 0.0 
0.0 0.0 0.0 
0.0 0.0 0.0 
0.0 0.0 0.0 
0.0 0.0 0.0 
0.0 0.0 0.0 
0.0 0.0 0.0 
0.0 0.0 0.0 
0.0 0.0 0.0 
0.0 0.0 0.0 
0.0 0.0 0.0 
0.0 0.0 0.0 
0.0 0.0 0.0 
0.0 0.0 0.0 
0.0 0.0 0.0 
0.0 0.0 0.0 
0.0 0.0 0.0 
0.0 0.0 0.0 
0.0 0.0 0.0 
0.0 0.0 0.0 
0.0 0.0 0.0 
0.0 0.0 0.0 
0.0 0.0 0.0 
0.0 0.0 0.0 
0.0 0.0 0.0 
0.0 0.0 0.0 
0.0 0.0 0.0 
0.0 0.0 0.0 
0.0 0.0 0.0 
0.0 0.0 0.0 
0.0 0.0 0.0 
0.0 0.0 0.0 
0.0 0.0 0.0 
0.0 0.0 0.0 
0.0 0.0 0.0 
0.0 0.0 0.0 
0.0 0.0 0.0 
0.0 0.0 0.0 
0.0 0.0 0.0 
0.0 0.0 0.0 
0.0 0.0 0.0 
0.0 0.0 0.0 
0.0 0.0 0.0 
0.0 0.0 0.0 
0.0 0.0 0.0 
0.0 0.0 0.0 
0.0 0.0 0.0 
0.0 0.0 0.0 
0.0 0.0 0.0 
0.0 0.0 0.0 
0.0 0.0 0.0 
0.0 0.0 0.0 
0.0 0.0 0.0 
0.0 0.0 0.0 
0.0 0.0 0.0 
0.0 0.0 0.0 
0.0 0.0 0.0 
0.0 0.0 0.0 
0.0 0.0 0.0 
0.0 0.0 0.0 
0.0 0.0 0.0 
0.0 0.0 0.0 
0.0 0.0 0.0 
0.0 0.0 0.0 
0.0 0.0 0.0 
0.0 0.0 0.0 
0.0 0.0 0.0 
0.0 0.0 0.0 
0.0 0.0 0.0 
0.0 0.0 0.0 
0.0 0.0 0.0 
0.0 0.0 0.0 
0.0 0.0 0.0 
0.0 0.0 0.0 
0.0 0.0 0.0 
0.0 0.0 0.0 
0.0 0.0 0.0 
0.0 0.0 0.0 
0.0 0.0 0.0 
0.0 0.0 0.0 
0.0 0.0 0.0 
0.0 0.0 0.0 
0.0 0.0 0.0 
0.0 0.0 0.0 
0.0 0.0 0.0 
0.0 0.0 0.0 
0.0 0.0 0.0 
0.0 0.0 0.0 
0.0 0.0 0.0 
0.0 0.0 0.0 
0.0 0.0 0.0 
0.0 0.0 0.0 
0.0 0.0 0.0 
0.0 0.0 0.0 
0.0 0.0 0.0 
0.0 0.0 0.0 
0.0 0.0 0.0 
0.0 0.0 0.0 
0.0 0.0 0.0 
0.0 0.0 0.0 
0.0 0.0 0.0 
0.0 0.0 0.0 
0.0 0.0 0.0 
0.0 0.0 0.0 
0.0 0.0 0.0 
0.0 0.0 0.0 
0.0 0.0 0.0 
0.0 0.0 0.0 
0.0 0.0 0.0 
0.0 0.0 0.0 
0.0 0.0 0.0 
0.0 0.0 0.0 
0.0 0.0 0.0 
0.0 0.0 0.0 
0.0 0.0 0.0 
0.0 0.0 0.0 
0.0 0.0 0.0 
0.0 0.0 0.0 
0.0 0.0 0.0 
0.0 0.0 0.0 
0.0 0.0 0.0 
0.0 0.0 0.0 
0.0 0.0 0.0 
0.0 0.0 0.0 
0.0 0.0 0.0 
0.0 0.0 0.0 
0.0 0.0 0.0 
0.0 0.0 0.0 
0.0 0.0 0.0 
0.0 0.0 0.0 
0.0 0.0 0.0 
0.0 0.0 0.0 
0.0 0.0 0.0 
0.0 0.0 0.0 
0.0 0.0 0.0 
0.0 0.0 0.0 
0.0 0.0 0.0 
0.0 0.0 0.0 
0.0 0.0 0.0 
0.0 0.0 0.0 
0.0 0.0 0.0 
0.0 0.0 0.0 
0.0 0.0 0.0 
0.0 0.0 0.0 
0.0 0.0 0.0 
0.0 0.0 0.0 
0.0 0.0 0.0 
0.0 0.0 0.0 
0.0 0.0 0.0 
0.0 0.0 0.0 
0.0 0.0 0.0 
0.0 0.0 0.0 
0.0 0.0 0.0 
0.0 0.0 0.0 
0.0 0.0 0.0 
0.0 0.0 0.0 
0.0 0.0 0.0 
0.0 0.0 0.0 
0.0 0.0 0.0 
0.0 0.0 0.0 
0.0 0.0 0.0 
0.0 0.0 0.0 
0.0 0.0 0.0 
0.0 0.0 0.0 
0.0 0.0 0.0 
0.0 0.0 0.0 
0.0 0.0 0.0 
0.0 0.0 0.0 
0.0 0.0 0.0 
0.0 0.0 0.0 
0.0 0.0 0.0 
0.0 0.0 0.0 
0.0 0.0 0.0 
0.0 0.0 0.0 
0.0 0.0 0.0 
0.0 0.0 0.0 
0.0 0.0 0.0 
0.0 0.0 0.0 
0.0 0.0 0.0 
0.0 0.0 0.0 
0.0 0.0 0.0 
0.0 0.0 0.0 
0.0 0.0 0.0 
0.0 0.0 0.0 
0.0 0.0 0.0 
0.0 0.0 0.0 
0.0 0.0 0.0 
0.0 0.0 0.0 
0.0 0.0 0.0 
0.0 0.0 0.0 
0.0 0.0 0.0 
0.0 0.0 0.0 
0.0 0.0 0.0 
0.0 0.0 0.0 
0.0 0.0 0.0 
0.0 0.0 0.0 
0.0 0.0 0.0 
0.0 0.0 0.0 
0.0 0.0 0.0 
0.0 0.0 0.0 
0.0 0.0 0.0 
0.0 0.0 0.0 
0.0 0.0 0.0 
0.0 0.0 0.0 
0.0 0.0 0.0 
0.0 0.0 0.0 
0.0 0.0 0.0 
0.0 0.0 0.0 
0.0 0.0 0.0 
0.0 0.0 0.0 
0.0 0.0 0.0 
0.0 0.0 0.0 
0.0 0.0 0.0 
0.0 0.0 0.0 
0.0 0.0 0.0 
0.0 0.0 0.0 
0.0 0.0 0.0 
0.0 0.0 0.0 
0.0 0.0 0.0 
0.0 0.0 0.0 
0.0 0.0 0.0 
0.0 0.0 0.0 
0.0 0.0 0.0 
0.0 0.0 0.0 
0.0 0.0 0.0 
0.0 0.0 0.0 
0.0 0.0 0.0 
0.0 0.0 0.0 
0.0 0.0 0.0 
0.0 0.0 0.0 
0.0 0.0 0.0 
0.0 0.0 0.0 
0.0 0.0 0.0 
0.0 0.0 0.0 
0.0 0.0 0.0 
0.0 0.0 0.0 
0.0 0.0 0.0 
0.0 0.0 0.0 
0.0 0.0 0.0 
0.0 0.0 0.0 
0.0 0.0 0.0 
0.0 0.0 0.0 
0.0 0.0 0.0 
0.0 0.0 0.0 
0.0 0.0 0.0 
0.0 0.0 0.0 
0.0 0.0 0.0 
0.0 0.0 0.0 
0.0 0.0 0.0 
0.0 0.0 0.0 
0.0 0.0 0.0 
0.0 0.0 0.0 
0.0 0.0 0.0 
0.0 0.0 0.0 
0.0 0.0 0.0 
0.0 0.0 0.0 
0.0 0.0 0.0 
0.0 0.0 0.0 
0.0 0.0 0.0 
0.0 0.0 0.0 
0.0 0.0 0.0 
0.0 0.0 0.0 
0.0 0.0 0.0 
0.0 0.0 0.0 
0.0 0.0 0.0 
0.0 0.0 0.0 
0.0 0.0 0.0 
0.0 0.0 0.0 
0.0 0.0 0.0 
0.0 0.0 0.0 
0.0 0.0 0.0 
0.0 0.0 0.0 
0.0 0.0 0.0 
0.0 0.0 0.0 
0.0 0.0 0.0 
0.0 0.0 0.0 
0.0 0.0 0.0 
0.0 0.0 0.0 
0.0 0.0 0.0 
0.0 0.0 0.0 
0.0 0.0 0.0 
0.0 0.0 0.0 
0.0 0.0 0.0 
0.0 0.0 0.0 
0.0 0.0 0.0 
0.0 0.0 0.0 
0.0 0.0 0.0 
0.0 0.0 0.0 
0.0 0.0 0.0 
0.0 0.0 0.0 
0.0 0.0 0.0 
0.0 0.0 0.0 
0.0 0.0 0.0 
0.0 0.0 0.0 
0.0 0.0 0.0 
0.0 0.0 0.0 

TENSORS element_materi_stress float
-2.837985376169e+01 7.466207783718e+00 0.0 
7.466207783718e+00 -4.920223597530e+01 0.0 
0.0 0.0 -2.287462692110e+01 
-3.157980458129e+01 1.123760680025e+01 0.0 
1.123760680025e+01 -4.641478731553e+01 0.0 
0.0 0.0 -2.299837756905e+01 
-1.301559045640e+02 1.049110307397e+01 0.0 
1.049110307397e+01 -2.989195653265e+02 0.0 
0.0 0.0 -1.283226409671e+02 
-1.234277381284e+02 1.684871794705e+00 0.0 
1.684871794705e+00 -2.851213975733e+02 0.0 
0.0 0.0 -1.221647407105e+02 
-6.988731165150e+01 -3.689295877013e-01 0.0 
-3.689295877013e-01 -1.480219606184e+02 0.0 
0.0 0.0 -6.497278168096e+01 
-1.761946197883e+01 4.154742409296e+00 0.0 
4.154742409296e+00 -3.992182025688e+01 0.0 
0.0 0.0 -1.686238467071e+01 
-6.962013152107e+01 -6.989940972023e-01 0.0 
-6.989940972023e-01 -1.482711481997e+02 0.0 
0.0 0.0 -6.496738391624e+01 
-3.011597008324e+01 1.268006954613e+01 0.0 
1.268006954613e+01 -5.031526612668e+01 0.0 
0.0 0.0 -2.372937086297e+01 
-7.013733555169e+01 1.605797344706e+00 0.0 
1.605797344706e+00 -1.488432917242e+02 0.0 
0.0 0.0 -6.529418818277e+01 
-1.228219815109e+02 6.751707465914e-01 0.0 
6.751707465914e-01 -2.835024157393e+02 0.0 
0.0 0.0 -1.214973191750e+02 
-9.896194528088e+01 -3.165927570273e-01 0.0 
-3.165927570273e-01 -2.514978928036e+02 0.0 
0.0 0.0 -1.047379514253e+02 
-2.169460155736e+01 9.818217687241e+00 0.0 
9.818217687241e+00 -3.083330437430e+01 0.0 
0.0 0.0 -1.535837177950e+01 
-1.515316471646e+02 2.190034465552e-01 0.0 
2.190034465552e-01 -3.616023297369e+02 0.0 
0.0 0.0 -1.535401930705e+02 
-7.868470203347e+01 9.680713382594e-01 0.0 
9.680713382594e-01 -1.653500837823e+02 0.0 
0.0 0.0 -7.281043574474e+01 
-1.560563126889e+02 2.265768242500e+00 0.0 
2.265768242500e+00 -3.694315721336e+02 0.0 
0.0 0.0 -1.572463654467e+02 
-1.260130376548e+02 4.556430355137e-01 0.0 
4.556430355137e-01 -2.931786601013e+02 0.0 
0.0 0.0 -1.253575093268e+02 
-6.885700184864e+01 7.427331261013e-01 0.0 
7.427331261013e-01 -1.439597597782e+02 0.0 
0.0 0.0 -6.344502848805e+01 
-1.817034057911e+01 2.740915785332e+00 0.0 
2.740915785332e+00 -4.065521530520e+01 0.0 
0.0 0.0 -1.724766676529e+01 
-2.941236251379e+01 4.201932599496e-02 0.0 
4.201932599496e-02 -7.697207772587e+01 0.0 
0.0 0.0 -3.151533207190e+01 
-3.003555683525e+01 -6.363898540033e-01 0.0 
-6.363898540033e-01 -7.967761286726e+01 0.0 
0.0 0.0 -3.251395091075e+01 
-1.236818575730e+02 2.619494014353e+00 0.0 
2.619494014353e+00 -2.843347926406e+02 0.0 
0.0 0.0 -1.220049950641e+02 
-3.463514600909e+01 4.992015042948e+00 0.0 
4.992015042948e+00 -5.744230091717e+01 0.0 
0.0 0.0 -2.722323407788e+01 
-4.201703061784e+01 7.499176322355e+00 0.0 
7.499176322355e+00 -7.207567353957e+01 0.0 
0.0 0.0 -3.382781124722e+01 
-1.385177087795e+02 1.074417569611e+01 0.0 
1.074417569611e+01 -3.349843546956e+02 0.0 
0.0 0.0 -1.416506190425e+02 
-8.703825484679e+01 2.096649881872e+00 0.0 
2.096649881872e+00 -1.835747924467e+02 0.0 
0.0 0.0 -8.078391418804e+01 
-1.046095118331e+02 1.014376582654e+00 0.0 
1.014376582654e+00 -2.644564965104e+02 0.0 
0.0 0.0 -1.103198025031e+02 
-6.407556591116e+01 1.663370780572e+00 0.0 
1.663370780572e+00 -1.280308434863e+02 0.0 
0.0 0.0 -5.723192281923e+01 
-1.384817340341e+02 1.561609457495e+01 0.0 
1.561609457495e+01 -3.229662294902e+02 0.0 
0.0 0.0 -1.380343890573e+02 
-8.843325398346e+01 4.425106324521e+00 0.0 
4.425106324521e+00 -1.844568159654e+02 0.0 
0.0 0.0 -8.146702098466e+01 
-1.422756189062e+02 9.371697303751e+00 0.0 
9.371697303751e+00 -3.440365967058e+02 0.0 
0.0 0.0 -1.454936646836e+02 
-2.466351684840e+01 -8.731759137594e-01 0.0 
-8.731759137594e-01 -5.803507699543e+01 0.0 
0.0 0.0 -2.440957815315e+01 
-1.353144185655e+01 -1.211006791660e+00 0.0 
-1.211006791660e+00 -2.592936927837e+01 0.0 
0.0 0.0 -1.143824334048e+01 
-1.313136810223e+02 1.022766233365e+01 0.0 
1.022766233365e+01 -2.995708099762e+02 0.0 
0.0 0.0 -1.288653472996e+02 
-1.274003311743e+02 1.072715095548e+00 0.0 
1.072715095548e+00 -3.128735696308e+02 0.0 
0.0 0.0 -1.316821702415e+02 
-1.491477268771e+02 7.154478792127e+00 0.0 
7.154478792127e+00 -3.566388254007e+02 0.0 
0.0 0.0 -1.513359656833e+02 
-1.586573005862e+02 2.815629320502e+00 0.0 
2.815629320502e+00 -3.763699135644e+02 0.0 
0.0 0.0 -1.601081642452e+02 
-1.593784340690e+02 5.607069255658e+00 0.0 
5.607069255658e+00 -3.764323930775e+02 0.0 
0.0 0.0 -1.603432481440e+02 
-1.419040414266e+02 1.303720581986e+01 0.0 
1.303720581986e+01 -3.386360208381e+02 0.0 
0.0 0.0 -1.437620186794e+02 
-6.162905003506e+01 1.371758009290e+00 0.0 
1.371758009290e+00 -1.294802634441e+02 0.0 
0.0 0.0 -5.693279404376e+01 
-6.154640008338e+01 -1.341438816687e+00 0.0 
-1.341438816687e+00 -1.300822548735e+02 0.0 
0.0 0.0 -5.708859648706e+01 
-5.014628621024e+01 5.713731171645e+00 0.0 
5.713731171645e+00 -8.990483523285e+01 0.0 
0.0 0.0 -4.161533643293e+01 
-1.514486804821e+02 7.729538975959e+00 0.0 
7.729538975959e+00 -3.595068176139e+02 0.0 
0.0 0.0 -1.528866494288e+02 
-1.929889550812e+01 1.234299105992e+01 0.0 
1.234299105992e+01 -3.599298758921e+01 0.0 
0.0 0.0 -1.618756492920e+01 
-6.502349828805e+01 1.373175046913e+00 0.0 
1.373175046913e+00 -1.286908193253e+02 0.0 
0.0 0.0 -5.771429528400e+01 
-1.191706143202e+02 7.455444209189e-01 0.0 
7.455444209189e-01 -2.738545524521e+02 0.0 
0.0 0.0 -1.175075500317e+02 
-2.168753290124e+01 1.424635093240e+01 0.0 
1.424635093240e+01 -3.676473612464e+01 0.0 
0.0 0.0 -1.713568070776e+01 
-1.852640968949e+01 -1.409505193750e+00 0.0 
-1.409505193750e+00 -4.334756914942e+01 0.0 
0.0 0.0 -1.816219365167e+01 
-1.193745052704e+02 2.879966216015e-01 0.0 
2.879966216015e-01 -2.754189725600e+02 0.0 
0.0 0.0 -1.180380433491e+02 
-1.495963947347e+01 -1.247592516598e+00 0.0 
-1.247592516598e+00 -2.572054786598e+01 0.0 
0.0 0.0 -1.219392963314e+01 
-7.576692670239e+01 2.189797021783e+00 0.0 
2.189797021783e+00 -1.568650033128e+02 0.0 
0.0 0.0 -6.938957900457e+01 
-4.617068887673e+01 6.505858960153e+00 0.0 
6.505858960153e+00 -8.125729467164e+01 0.0 
0.0 0.0 -3.782839506451e+01 
-3.730332377517e+01 -1.731838783534e-01 0.0 
-1.731838783534e-01 -9.675711524219e+01 0.0 
0.0 0.0 -3.981813170521e+01 
-2.907635184994e+01 -2.456020460100e-02 0.0 
-2.456020460100e-02 -7.963543643585e+01 0.0 
0.0 0.0 -3.221353648574e+01 
-4.345580188004e+01 3.318268750658e+00 0.0 
3.318268750658e+00 -7.701557921481e+01 0.0 
0.0 0.0 -3.574141432845e+01 
-1.285164705514e+02 7.801170257747e+00 0.0 
7.801170257747e+00 -2.955238358240e+02 0.0 
0.0 0.0 -1.268120919126e+02 
-4.858018566298e+01 3.543935757896e-02 0.0 
3.543935757896e-02 -1.276312237749e+02 0.0 
0.0 0.0 -5.246342283137e+01 
-3.775772184801e+01 -7.649513325883e-01 0.0 
-7.649513325883e-01 -9.976834863086e+01 0.0 
0.0 0.0 -4.085782114366e+01 
-1.271065571255e+02 -2.494134592924e-01 0.0 
-2.494134592924e-01 -3.127997097492e+02 0.0 
0.0 0.0 -1.315718800624e+02 
-2.325317499233e+01 -8.725238330777e-01 0.0 
-8.725238330777e-01 -5.902915146378e+01 0.0 
0.0 0.0 -2.428469793683e+01 
-1.263957528857e+02 2.207968726789e+00 0.0 
2.207968726789e+00 -2.933783050186e+02 0.0 
0.0 0.0 -1.255322173713e+02 
-1.832879693652e+01 -5.803477186467e-01 0.0 
-5.803477186467e-01 -2.235342505068e+01 0.0 
0.0 0.0 -1.180466659616e+01 
-1.316349511117e+02 1.350699720182e+01 0.0 
1.350699720182e+01 -3.117163904637e+02 0.0 
0.0 0.0 -1.326054024726e+02 
-4.784920457555e+01 1.231659531393e+01 0.0 
1.231659531393e+01 -9.916643462700e+01 0.0 
0.0 0.0 -4.370469176077e+01 
-2.691011237645e+01 -4.770255091012e-01 0.0 
-4.770255091012e-01 -7.259043866255e+01 0.0 
0.0 0.0 -2.945016531170e+01 
-1.512520172079e+02 2.814657230726e+00 0.0 
2.814657230726e+00 -3.609029378153e+02 0.0 
0.0 0.0 -1.532464865070e+02 
-3.882783830696e+01 4.029794968119e+00 0.0 
4.029794968119e+00 -6.655747346105e+01 0.0 
0.0 0.0 -3.121559353040e+01 
-1.493245601508e+01 -8.439883452712e-01 0.0 
-8.439883452712e-01 -2.101997393590e+01 0.0 
0.0 0.0 -1.108768294005e+01 
-1.326207140951e+02 1.153340108771e+01 0.0 
1.153340108771e+01 -3.010497396241e+02 0.0 
0.0 0.0 -1.297011361158e+02 
-2.544569106685e+01 -1.323303462247e+00 0.0 
-1.323303462247e+00 -6.352424456031e+01 0.0 
0.0 0.0 -2.629098068815e+01 
-1.341480423828e+02 1.336194369912e+01 0.0 
1.336194369912e+01 -3.102742735233e+02 0.0 
0.0 0.0 -1.329266947718e+02 
-1.093447564247e+02 1.456404515289e+00 0.0 
1.456404515289e+00 -2.748308932342e+02 0.0 
0.0 0.0 -1.148526948977e+02 
-1.316319799659e+02 5.014147975199e+00 0.0 
5.014147975199e+00 -3.084746199205e+02 0.0 
0.0 0.0 -1.316319799659e+02 
-1.322614146310e+02 1.416549645593e+01 0.0 
1.416549645593e+01 -3.076261251659e+02 0.0 
0.0 0.0 -1.315662619391e+02 
-1.158338306144e+01 -9.359081574396e-01 0.0 
-9.359081574396e-01 -2.978854301131e+01 0.0 
0.0 0.0 -1.201157782183e+01 
-5.016529796066e+01 -9.061290133094e-01 0.0 
-9.061290133094e-01 -1.328829456203e+02 0.0 
0.0 0.0 -5.451447307428e+01 
-1.255216264977e+02 4.402477341345e+00 0.0 
4.402477341345e+00 -2.879139772758e+02 0.0 
0.0 0.0 -1.236306811321e+02 
-1.304305621013e+02 8.467047659486e+00 0.0 
8.467047659486e+00 -2.970568657778e+02 0.0 
0.0 0.0 -1.278462283637e+02 
-1.897586245171e+01 1.209502320974e+01 0.0 
1.209502320974e+01 -3.408508075999e+01 0.0 
0.0 0.0 -1.551828296351e+01 
-2.268488901486e+01 -9.010617373258e-01 0.0 
-9.010617373258e-01 -5.902581586700e+01 0.0 
0.0 0.0 -2.411321146456e+01 
-1.781004216313e+01 1.231888738032e+01 0.0 
1.231888738032e+01 -3.357231556797e+01 0.0 
0.0 0.0 -1.501470731933e+01 
-2.451574300607e+01 -2.416747211302e+00 0.0 
-2.416747211302e+00 -6.288903804692e+01 0.0 
0.0 0.0 -2.582143431590e+01 
-6.888189933206e+01 5.451767954831e-01 0.0 
5.451767954831e-01 -1.436122545218e+02 0.0 
0.0 0.0 -6.334824615616e+01 
-3.825290598956e+01 8.815717987679e+00 0.0 
8.815717987679e+00 -6.410157985881e+01 0.0 
0.0 0.0 -3.030634575451e+01 
-2.971350407879e+01 5.961871663362e+00 0.0 
5.961871663362e+00 -4.647765310704e+01 0.0 
0.0 0.0 -2.245734715575e+01 
-7.467392187477e+01 1.704726578026e+00 0.0 
1.704726578026e+00 -1.591338276585e+02 0.0 
0.0 0.0 -6.974232485998e+01 
-7.403922936054e+01 -2.686823608253e-01 0.0 
-2.686823608253e-01 -1.588331589540e+02 0.0 
0.0 0.0 -6.946171649436e+01 
-1.132937151111e+02 1.278643394669e+00 0.0 
1.278643394669e+00 -2.833278045615e+02 0.0 
0.0 0.0 -1.185864559018e+02 
-1.232451911636e+02 -6.988783428212e-01 0.0 
-6.988783428212e-01 -3.045910534534e+02 0.0 
0.0 0.0 -1.279508733851e+02 
-1.131828592554e+02 1.031815246027e+01 0.0 
1.031815246027e+01 -2.458546090152e+02 0.0 
0.0 0.0 -1.073112404812e+02 
-7.031323732430e+01 1.833537323026e+00 0.0 
1.833537323026e+00 -1.474963704044e+02 0.0 
0.0 0.0 -6.494288231861e+01 
-1.285592463118e+01 -1.221104010029e+00 0.0 
-1.221104010029e+00 -2.574278914858e+01 0.0 
0.0 0.0 -1.153572935326e+01 
-7.235859140077e+01 2.056522580601e+00 0.0 
2.056522580601e+00 -1.462335450692e+02 0.0 
0.0 0.0 -6.517764094099e+01 
-1.006309720288e+02 8.636022345473e-01 0.0 
8.636022345473e-01 -2.271116800167e+02 0.0 
0.0 0.0 -9.792279561368e+01 
-9.976525515061e+01 1.153024815250e-01 0.0 
1.153024815250e-01 -2.236215527073e+02 0.0 
0.0 0.0 -9.661604235739e+01 
-1.338616464770e+02 5.575328721939e+00 0.0 
5.575328721939e+00 -3.098029419685e+02 0.0 
0.0 0.0 -1.326993765336e+02 
-1.468352703472e+02 1.520582207630e+01 0.0 
1.520582207630e+01 -3.458282094332e+02 0.0 
0.0 0.0 -1.473990439341e+02 
-6.942360033899e+01 1.285036190894e+00 0.0 
1.285036190894e+00 -1.433240346397e+02 0.0 
0.0 0.0 -6.342429049360e+01 
-1.493083452255e+02 7.689760702502e+00 0.0 
7.689760702502e+00 -3.593296284992e+02 0.0 
0.0 0.0 -1.521913921174e+02 
-8.138058354633e+01 7.313660303897e-01 0.0 
7.313660303897e-01 -1.784772578742e+02 0.0 
0.0 0.0 -7.755735242615e+01 
-4.447358646827e+01 1.432065896065e+01 0.0 
1.432065896065e+01 -8.591853568884e+01 0.0 
0.0 0.0 -3.871763664713e+01 
-6.637885065338e+01 1.135624317999e+00 0.0 
1.135624317999e+00 -1.388825091792e+02 0.0 
0.0 0.0 -6.117840794976e+01 
-1.554842359456e+02 9.440629148448e-01 0.0 
9.440629148448e-01 -3.690687525906e+02 0.0 
0.0 0.0 -1.569658965608e+02 
-1.111696403179e+02 1.397262380169e+01 0.0 
1.397262380169e+01 -2.666908973039e+02 0.0 
0.0 0.0 -1.129581612865e+02 
-1.328365365876e+02 1.535387552232e+01 0.0 
1.535387552232e+01 -3.126459000605e+02 0.0 
0.0 0.0 -1.332447309944e+02 
-3.820676602278e+01 1.586266843552e+01 0.0 
1.586266843552e+01 -9.039878229083e+01 0.0 
0.0 0.0 -3.818166449408e+01 
-2.165469214051e+01 -1.592125535948e+00 0.0 
-1.592125535948e+00 -4.254251536168e+01 0.0 
0.0 0.0 -1.885916225066e+01 
-1.415750818170e+02 1.681569774906e+00 0.0 
1.681569774906e+00 -3.417220986779e+02 0.0 
0.0 0.0 -1.445891541485e+02 
-1.071615570575e+02 3.770909345360e-01 0.0 
3.770909345360e-01 -2.426549112259e+02 0.0 
0.0 0.0 -1.045449404850e+02 
-1.843257216404e+01 -1.064798106999e+00 0.0 
-1.064798106999e+00 -2.552619074813e+01 0.0 
0.0 0.0 -1.278762887365e+01 
-1.550293868032e+02 3.627784399675e+00 0.0 
3.627784399675e+00 -3.663719775541e+02 0.0 
0.0 0.0 -1.560204093072e+02 
-1.075548896269e+02 8.318106442620e+00 0.0 
8.318106442620e+00 -2.343750037141e+02 0.0 
0.0 0.0 -1.021789680023e+02 
-8.727970200599e+00 3.840375840072e-01 0.0 
3.840375840072e-01 -2.205565081876e+01 0.0 
0.0 0.0 -8.835086305807e+00 
-5.781290794748e+01 1.321422628625e+01 0.0 
1.321422628625e+01 -1.408945966759e+02 0.0 
0.0 0.0 -5.921225138700e+01 
-6.590016102405e+01 3.818374538475e+00 0.0 
3.818374538475e+00 -1.277161494089e+02 0.0 
0.0 0.0 -5.768489312990e+01 
-6.093454814019e+01 -1.126347718586e-01 0.0 
-1.126347718586e-01 -1.612915328836e+02 0.0 
0.0 0.0 -6.626782430714e+01 
-3.956298554530e+01 1.217436509290e+01 0.0 
1.217436509290e+01 -7.788714505305e+01 0.0 
0.0 0.0 -3.483503917951e+01 
-4.755328528762e+01 1.551438619707e+01 0.0 
1.551438619707e+01 -9.938246038097e+01 0.0 
0.0 0.0 -4.368072370058e+01 
-1.527366873979e+02 5.429501433178e+00 0.0 
5.429501433178e+00 -3.638431703930e+02 0.0 
0.0 0.0 -1.545739573373e+02 
-7.887405339106e+01 -5.780084518173e-01 0.0 
-5.780084518173e-01 -1.718940560369e+02 0.0 
0.0 0.0 -7.483043282838e+01 
-4.320346918469e+01 1.357488507810e+01 0.0 
1.357488507810e+01 -9.419981540554e+01 0.0 
0.0 0.0 -4.082098537707e+01 
-2.448032011661e+01 -1.064098619634e+00 0.0 
-1.064098619634e+00 -6.081615309473e+01 0.0 
0.0 0.0 -2.518894196340e+01 
-7.215079729245e+01 1.861511086959e+00 0.0 
1.861511086959e+00 -1.456629295123e+02 0.0 
0.0 0.0 -6.494411804142e+01 
-1.076709263869e+02 8.987352143571e-01 0.0 
8.987352143571e-01 -2.442495768327e+02 0.0 
0.0 0.0 -1.051761509659e+02 
-4.275850688281e+01 1.610861735189e+01 0.0 
1.610861735189e+01 -9.418325402087e+01 0.0 
0.0 0.0 -4.068252827110e+01 
-1.722528060629e+01 8.455947763966e+00 0.0 
8.455947763966e+00 -2.961972769370e+01 0.0 
0.0 0.0 -1.365350249000e+01 
-5.812456259720e+01 4.533579068032e+00 0.0 
4.533579068032e+00 -1.088667090722e+02 0.0 
0.0 0.0 -4.969738150081e+01 
-6.082778166734e+01 -6.070893181825e-01 0.0 
-6.070893181825e-01 -1.599282608436e+02 0.0 
0.0 0.0 -6.582681275328e+01 
-5.203247803109e+01 2.303904905535e+00 0.0 
2.303904905535e+00 -9.713843016995e+01 0.0 
0.0 0.0 -4.435127246031e+01 
-1.277041587155e+02 3.501403011829e+00 0.0 
3.501403011829e+00 -2.959344692247e+02 0.0 
0.0 0.0 -1.266915883820e+02 
-1.754815635775e+01 8.387655832596e+00 0.0 
8.387655832596e+00 -4.073627373557e+01 0.0 
0.0 0.0 -1.708532902800e+01 
-1.041630151937e+02 -1.235411622449e-01 0.0 
-1.235411622449e-01 -2.634739089494e+02 0.0 
0.0 0.0 -1.098910772429e+02 
-1.230990011476e+02 -3.434516824071e-02 0.0 
-3.434516824071e-02 -2.850536533320e+02 0.0 
0.0 0.0 -1.220457963439e+02 
-6.144194236273e+01 8.484231939884e+00 0.0 
8.484231939884e+00 -1.206776604996e+02 0.0 
0.0 0.0 -5.423588085869e+01 
-5.428281369970e+01 5.019211071929e+00 0.0 
5.019211071929e+00 -9.969266857841e+01 0.0 
0.0 0.0 -4.579264468343e+01 
-1.481333540527e+02 5.587472810040e+00 0.0 
5.587472810040e+00 -3.562491671323e+02 0.0 
0.0 0.0 -1.509147563555e+02 
-1.519693402716e+02 1.974462384878e+00 0.0 
1.974462384878e+00 -3.622670989031e+02 0.0 
0.0 0.0 -1.538709317524e+02 
-1.130809976004e+02 -3.038228976787e-02 0.0 
-3.038228976787e-02 -2.832873165470e+02 0.0 
0.0 0.0 -1.185104942442e+02 
-6.645954399663e+01 1.041750909548e+01 0.0 
1.041750909548e+01 -1.299804692745e+02 0.0 
0.0 0.0 -5.853200398134e+01 
-1.482386554040e+02 9.835072175081e+00 0.0 
9.835072175081e+00 -3.563326695298e+02 0.0 
0.0 0.0 -1.509713974801e+02 
-5.722282124104e+01 6.564434852498e+00 0.0 
6.564434852498e+00 -1.089617147643e+02 0.0 
0.0 0.0 -4.945536080160e+01 
-1.257947049150e+02 2.827802379371e+00 0.0 
2.827802379371e+00 -2.909125083040e+02 0.0 
0.0 0.0 -1.246121639657e+02 
-1.350219431059e+02 1.346664071752e+01 0.0 
1.346664071752e+01 -3.102586407224e+02 0.0 
0.0 0.0 -1.331841751485e+02 
-7.932485704787e+01 3.047269484999e+00 0.0 
3.047269484999e+00 -1.650260075729e+02 0.0 
0.0 0.0 -7.290525938623e+01 
-9.155624486819e+01 -2.312878252978e-02 0.0 
-2.312878252978e-02 -2.027643033752e+02 0.0 
0.0 0.0 -8.789616447303e+01 
-5.830285608425e+01 9.897836447599e+00 0.0 
9.897836447599e+00 -1.096243613999e+02 0.0 
0.0 0.0 -4.997816524526e+01 
-4.780260349709e+01 2.587904350522e+00 0.0 
2.587904350522e+00 -8.758098465318e+01 0.0 
0.0 0.0 -4.021507644508e+01 
-6.947962008403e+01 9.029120522604e+00 0.0 
9.029120522604e+00 -1.408450761833e+02 0.0 
0.0 0.0 -6.269740888020e+01 
-4.586619598492e+01 1.577358185171e+01 0.0 
1.577358185171e+01 -1.093652173002e+02 0.0 
0.0 0.0 -4.616942398554e+01 
-6.688658069376e+01 1.069667557116e+00 0.0 
1.069667557116e+00 -1.416374794070e+02 0.0 
0.0 0.0 -6.215721803022e+01 
-5.708596332690e+01 1.479263528009e+01 0.0 
1.479263528009e+01 -1.408621610764e+02 0.0 
0.0 0.0 -5.898443732099e+01 
-1.203973622397e+01 -9.167325999644e-01 0.0 
-9.167325999644e-01 -2.509353276565e+01 0.0 
0.0 0.0 -1.115815828898e+01 
-7.232692905540e+01 1.662437352791e-01 0.0 
1.662437352791e-01 -1.565741615969e+02 0.0 
0.0 0.0 -6.827032719569e+01 
-2.219780519070e+01 -3.047386758628e-01 0.0 
-3.047386758628e-01 -6.005779727100e+01 0.0 
0.0 0.0 -2.427668073851e+01 
-6.202759523574e+01 4.156943533832e+00 0.0 
4.156943533832e+00 -1.184464384348e+02 0.0 
0.0 0.0 -5.374221010116e+01 
-1.507060015340e+02 9.335109785369e+00 0.0 
9.335109785369e+00 -3.575903455074e+02 0.0 
0.0 0.0 -1.520889041124e+02 
-3.842014720828e+01 1.418245827942e+01 0.0 
1.418245827942e+01 -9.031252673004e+01 0.0 
0.0 0.0 -3.821980218149e+01 
-1.179381599225e+02 -3.980117389043e-01 0.0 
-3.980117389043e-01 -2.935110100341e+02 0.0 
0.0 0.0 -1.230347509870e+02 
-2.394977064902e+01 1.448470073171e+01 0.0 
1.448470073171e+01 -3.791697616733e+01 0.0 
0.0 0.0 -1.816002404490e+01 
-1.106893784106e+02 1.223441268409e+01 0.0 
1.223441268409e+01 -2.662611734541e+02 0.0 
0.0 0.0 -1.126851655594e+02 
-6.666858822518e+01 1.073702588745e-01 0.0 
1.073702588745e-01 -1.431442149924e+02 0.0 
0.0 0.0 -6.254384096529e+01 
-5.289233616154e+01 1.289810548914e+01 0.0 
1.289810548914e+01 -1.353687869449e+02 0.0 
0.0 0.0 -5.607833693194e+01 
-1.317784751876e+02 1.651782934816e+00 0.0 
1.651782934816e+00 -3.221462784468e+02 0.0 
0.0 0.0 -1.357774260903e+02 
-2.415117399013e+01 -2.299585786931e+00 0.0 
-2.299585786931e+00 -6.034272769070e+01 0.0 
0.0 0.0 -2.494817050425e+01 
-1.413183738495e+02 1.720560082495e-01 0.0 
1.720560082495e-01 -3.413845127136e+02 0.0 
0.0 0.0 -1.444108659689e+02 
-7.286371658029e+01 3.958325859508e+00 0.0 
3.958325859508e+00 -1.454898180207e+02 0.0 
0.0 0.0 -6.510606038029e+01 
-1.524294816404e+02 3.001042730223e+00 0.0 
3.001042730223e+00 -3.649171442989e+02 0.0 
0.0 0.0 -1.548039877818e+02 
-6.611188018288e+01 -4.449081430185e-02 0.0 
-4.449081430185e-02 -1.420796126078e+02 0.0 
0.0 0.0 -6.205744783720e+01 
-4.191542781602e+01 1.374489165864e+01 0.0 
1.374489165864e+01 -1.040743278371e+02 0.0 
0.0 0.0 -4.339692669595e+01 
-6.032533475498e+01 1.864817484893e+00 0.0 
1.864817484893e+00 -1.164829189126e+02 0.0 
0.0 0.0 -5.264247610027e+01 
-9.895745115839e+01 6.800781154152e-01 0.0 
6.800781154152e-01 -2.524523259282e+02 0.0 
0.0 0.0 -1.050229331260e+02 
-2.173763363255e+01 1.176435134633e+01 0.0 
1.176435134633e+01 -3.809983811556e+01 0.0 
0.0 0.0 -1.755124152443e+01 
-5.258033750212e+01 1.393296888541e+01 0.0 
1.393296888541e+01 -1.354370432242e+02 0.0 
0.0 0.0 -5.600521421789e+01 
-9.584367247875e+01 1.660002685151e+00 0.0 
1.660002685151e+00 -2.135038103563e+02 0.0 
0.0 0.0 -9.240424485052e+01 
-6.624431804547e+01 -4.827096196100e-01 0.0 
-4.827096196100e-01 -1.418890049581e+02 0.0 
0.0 0.0 -6.203999690109e+01 
-4.974982703146e+01 1.356728625540e+01 0.0 
1.356728625540e+01 -1.221049006998e+02 0.0 
0.0 0.0 -5.115641831937e+01 
-5.601983653387e+01 2.061222701073e+00 0.0 
2.061222701073e+00 -1.066199848912e+02 0.0 
0.0 0.0 -4.839194642751e+01 
-1.192088403351e+02 1.106547359453e+01 0.0 
1.106547359453e+01 -2.681894842972e+02 0.0 
0.0 0.0 -1.158194973897e+02 
-6.820442454860e+01 3.280089341038e-02 0.0 
3.280089341038e-02 -1.782747171069e+02 0.0 
0.0 0.0 -7.354374249665e+01 
-1.390060473685e+02 1.470806487546e+01 0.0 
1.470806487546e+01 -3.250214614279e+02 0.0 
0.0 0.0 -1.388082526389e+02 
-1.361309882414e+02 1.452279006077e+01 0.0 
1.452279006077e+01 -3.126331612174e+02 0.0 
0.0 0.0 -1.342292448376e+02 
-3.624499024045e+01 1.418630382954e+01 0.0 
1.418630382954e+01 -6.541065953724e+01 0.0 
0.0 0.0 -3.009669493331e+01 
-6.846145182953e+01 -4.617252091732e-01 0.0 
-4.617252091732e-01 -1.793570988561e+02 0.0 
0.0 0.0 -7.394556520570e+01 
-1.289262289113e+02 1.150590992954e+01 0.0 
1.150590992954e+01 -3.149575131185e+02 0.0 
0.0 0.0 -1.327651226089e+02 
-5.428524783873e+01 7.808484551495e+00 0.0 
7.808484551495e+00 -9.906699349504e+01 0.0 
0.0 0.0 -4.560567240013e+01 
-3.082331365160e+01 1.120714798899e+01 0.0 
1.120714798899e+01 -5.679033546178e+01 0.0 
0.0 0.0 -2.588409473401e+01 
-6.858215984139e+01 2.749839746800e+00 0.0 
2.749839746800e+00 -1.359488463292e+02 0.0 
0.0 0.0 -6.095930185116e+01 
-5.384032549675e+01 1.550133744638e+01 0.0 
1.550133744638e+01 -1.281460666830e+02 0.0 
0.0 0.0 -5.419591765394e+01 
-1.246920338934e+02 1.493493774418e+00 0.0 
1.493493774418e+00 -2.897781516404e+02 0.0 
0.0 0.0 -1.239410556601e+02 
-1.074195704564e+02 6.960459099970e+00 0.0 
6.960459099970e+00 -2.336293990859e+02 0.0 
0.0 0.0 -1.019146908627e+02 
-1.366757071246e+02 -3.669911938218e-01 0.0 
-3.669911938218e-01 -3.321486868346e+02 0.0 
0.0 0.0 -1.402473181878e+02 
-2.040970628844e+01 1.355948957800e+01 0.0 
1.355948957800e+01 -3.575293809715e+01 0.0 
0.0 0.0 -1.644879331568e+01 
-4.854830650815e+01 1.259695337115e+01 0.0 
1.259695337115e+01 -1.303398122984e+02 0.0 
0.0 0.0 -5.326643564197e+01 
-1.113255633987e+02 8.041316276591e+00 0.0 
8.041316276591e+00 -2.442439914305e+02 0.0 
0.0 0.0 -1.062708664488e+02 
-1.417555365138e+01 2.558386417494e+00 0.0 
2.558386417494e+00 -4.591407573017e+00 0.0 
0.0 0.0 -5.230088367320e+00 
-5.278441360681e+01 4.704717657740e+00 0.0 
4.704717657740e+00 -9.833929845741e+01 0.0 
0.0 0.0 -4.493711361927e+01 
-1.200936304222e+02 9.546020694520e+00 0.0 
9.546020694520e+00 -2.988260400876e+02 0.0 
0.0 0.0 -1.252759011529e+02 
-1.720396379362e+01 -5.711382880305e-01 0.0 
-5.711382880305e-01 -4.256226516431e+01 0.0 
0.0 0.0 -1.752986868738e+01 
-1.285377896837e+02 7.993422158486e+00 0.0 
7.993422158486e+00 -2.929464556429e+02 0.0 
0.0 0.0 -1.260452735980e+02 
-9.565811955620e+01 3.956748122681e+00 0.0 
3.956748122681e+00 -2.037748874639e+02 0.0 
0.0 0.0 -8.942990210602e+01 
-6.073722184590e+01 -1.624117004261e-01 0.0 
-1.624117004261e-01 -1.671153185434e+02 0.0 
0.0 0.0 -6.795576211680e+01 
-1.188503789853e+02 8.047333596596e+00 0.0 
8.047333596596e+00 -2.981487447249e+02 0.0 
0.0 0.0 -1.246997371131e+02 
-7.902076258683e+01 2.963679109827e+00 0.0 
2.963679109827e+00 -1.615911175591e+02 0.0 
0.0 0.0 -7.178356404377e+01 
-8.510366340455e+01 3.361331225528e+00 0.0 
3.361331225528e+00 -1.768216239990e+02 0.0 
0.0 0.0 -7.817758622106e+01 
-1.434199445680e+02 1.023275110580e+01 0.0 
1.023275110580e+01 -3.441871853257e+02 0.0 
0.0 0.0 -1.458821389681e+02 
-4.640465705567e+01 -1.758446013438e+00 0.0 
-1.758446013438e+00 -1.265403969335e+02 0.0 
0.0 0.0 -5.148351619675e+01 
-7.326281556689e+01 1.041330488022e+01 0.0 
1.041330488022e+01 -1.532454650119e+02 0.0 
0.0 0.0 -6.755248417363e+01 
-7.715413572956e+01 5.282662848734e+00 0.0 
5.282662848734e+00 -1.556147444984e+02 0.0 
0.0 0.0 -6.943066406839e+01 
-1.009772503394e+02 5.860022079723e+00 0.0 
5.860022079723e+00 -2.151078757997e+02 0.0 
0.0 0.0 -9.442553784172e+01 
-7.823931619925e+01 5.969808986873e+00 0.0 
5.969808986873e+00 -1.560816593273e+02 0.0 
0.0 0.0 -6.989629265797e+01 
-7.008893327389e+01 5.045094005618e+00 0.0 
5.045094005618e+00 -1.365759776897e+02 0.0 
0.0 0.0 -6.159947328908e+01 
-9.763329712250e+01 1.308940319236e+01 0.0 
1.308940319236e+01 -2.400396963229e+02 0.0 
0.0 0.0 -1.009018980336e+02 
-1.163194526053e+02 1.235741102383e+01 0.0 
1.235741102383e+01 -2.571200122904e+02 0.0 
0.0 0.0 -1.116318394687e+02 
-1.738915088290e+01 2.397129654322e+00 0.0 
2.397129654322e+00 -2.130146503732e+01 0.0 
0.0 0.0 -1.120718477607e+01 
-3.690368585727e+01 1.066653730205e+01 0.0 
1.066653730205e+01 -6.630746697020e+01 0.0 
0.0 0.0 -3.056334584824e+01 
-4.425104135306e+01 1.072777375046e+01 0.0 
1.072777375046e+01 -8.498559164767e+01 0.0 
0.0 0.0 -3.837098990022e+01 
-6.994139823319e+01 1.196255599469e+01 0.0 
1.196255599469e+01 -1.416123222409e+02 0.0 
0.0 0.0 -6.306611614224e+01 
-1.129109494861e+02 8.923763082758e+00 0.0 
8.923763082758e+00 -2.451642781888e+02 0.0 
0.0 0.0 -1.070225683025e+02 
-2.058780154277e+01 4.688698899294e+00 0.0 
4.688698899294e+00 -5.947534510536e+01 0.0 
0.0 0.0 -2.361894399444e+01 
-1.154441224114e+02 8.453049787499e+00 0.0 
8.453049787499e+00 -2.900554137758e+02 0.0 
0.0 0.0 -1.212498608562e+02 
-6.614569774759e+01 1.098303413494e+00 0.0 
1.098303413494e+00 -1.406337950095e+02 0.0 
0.0 0.0 -6.163384782712e+01 
-4.847370472135e+01 1.205830428084e+01 0.0 
1.205830428084e+01 -1.301995558067e+02 0.0 
0.0 0.0 -5.320197815841e+01 
-1.109266813339e+02 7.377191272730e+00 0.0 
7.377191272730e+00 -2.811835484945e+02 0.0 
0.0 0.0 -1.172330689485e+02 
-1.271312330134e+01 -3.048119714238e-01 0.0 
-3.048119714238e-01 -2.865594154760e+01 0.0 
0.0 0.0 -1.201071945468e+01 
-1.032770801127e+02 4.752213003493e+00 0.0 
4.752213003493e+00 -2.236589809194e+02 0.0 
0.0 0.0 -9.768081830960e+01 
-1.185871807384e+01 -9.296350805853e-01 0.0 
-9.296350805853e-01 -2.409134931773e+01 0.0 
0.0 0.0 -1.038502021747e+01 
-1.672111674898e+01 -8.863821940072e-01 0.0 
-8.863821940072e-01 -4.295975920489e+01 0.0 
0.0 0.0 -1.750426278616e+01 
-1.790395666552e+01 1.252631530846e+01 0.0 
1.252631530846e+01 -3.475504759943e+01 0.0 
0.0 0.0 -1.539770127949e+01 
-3.950701732027e+01 -1.985578919834e+00 0.0 
-1.985578919834e+00 -1.072451917122e+02 0.0 
0.0 0.0 -4.362566270975e+01 
-1.084652852227e+02 6.582431836964e+00 0.0 
6.582431836964e+00 -2.349299678909e+02 0.0 
0.0 0.0 -1.026185759341e+02 
-3.798445336471e+01 -1.003294538004e+00 0.0 
-1.003294538004e+00 -1.007044213776e+02 0.0 
0.0 0.0 -4.120666242269e+01 
-2.422405967716e+01 1.224967612056e+01 0.0 
1.224967612056e+01 -6.523543358994e+01 0.0 
0.0 0.0 -2.643784798013e+01 
-2.970146624570e+01 -9.284777346037e-01 0.0 
-9.284777346037e-01 -7.826013930391e+01 0.0 
0.0 0.0 -3.198848166488e+01 
-2.659080432730e+01 -2.302829594129e+00 0.0 
-2.302829594129e+00 -6.851015176656e+01 0.0 
0.0 0.0 -2.813028682816e+01 
-1.233511935070e+02 9.122040364128e+00 0.0 
9.122040364128e+00 -3.061622877415e+02 0.0 
0.0 0.0 -1.284540443746e+02 
-7.437653754287e+01 6.464810831129e+00 0.0 
6.464810831129e+00 -1.462767747644e+02 0.0 
0.0 0.0 -6.579599369219e+01 
-1.508869976459e+02 1.289612354379e+00 0.0 
1.289612354379e+00 -3.608668405713e+02 0.0 
0.0 0.0 -1.531261514651e+02 
-1.299059166703e+01 1.333839222677e+00 0.0 
1.333839222677e+00 -8.573773931965e+00 0.0 
0.0 0.0 -7.011009204551e+00 
-3.027732021518e+01 1.273727266079e+01 0.0 
1.273727266079e+01 -8.225264844640e+01 0.0 
0.0 0.0 -3.335899059847e+01 
-5.655666774476e+01 1.198512186142e+01 0.0 
1.198512186142e+01 -1.483625629359e+02 0.0 
0.0 0.0 -6.107576920420e+01 
-4.826745290098e+01 5.432211991794e+00 0.0 
5.432211991794e+00 -8.830826967705e+01 0.0 
0.0 0.0 -4.057271677341e+01 
-1.142437229529e+02 7.054967812005e+00 0.0 
7.054967812005e+00 -2.894050249845e+02 0.0 
0.0 0.0 -1.206946243812e+02 
-1.533311672898e+02 2.750000448817e+00 0.0 
2.750000448817e+00 -3.664348421910e+02 0.0 
0.0 0.0 -1.555298028442e+02 
-1.054180693146e+02 8.121344555921e+00 0.0 
8.121344555921e+00 -2.248719749062e+02 0.0 
0.0 0.0 -9.868701326623e+01 
-3.802150843522e+01 1.028945955896e+01 0.0 
1.028945955896e+01 -1.077090510111e+02 0.0 
0.0 0.0 -4.331916783391e+01 
-1.243402954087e+02 1.041598030349e+01 0.0 
1.041598030349e+01 -3.065988972188e+02 0.0 
0.0 0.0 -1.288817577883e+02 
-1.084380071245e+02 -6.797555288760e-01 0.0 
-6.797555288760e-01 -2.730659627256e+02 0.0 
0.0 0.0 -1.140511909550e+02 
-7.434366049862e+01 1.089272451805e+01 0.0 
1.089272451805e+01 -1.499755159500e+02 0.0 
0.0 0.0 -6.689575293458e+01 
-9.956617820727e+01 4.847813222443e+00 0.0 
4.847813222443e+00 -2.132617663541e+02 0.0 
0.0 0.0 -9.344838336842e+01 
-1.358323733393e+02 1.533926043994e+01 0.0 
1.533926043994e+01 -3.175604474208e+02 0.0 
0.0 0.0 -1.356178462280e+02 
-5.645197216711e+01 1.285370819508e+01 0.0 
1.285370819508e+01 -1.485009437811e+02 0.0 
0.0 0.0 -6.108587478445e+01 
-2.765063113081e+01 1.405705901085e+01 0.0 
1.405705901085e+01 -6.869931457653e+01 0.0 
0.0 0.0 -2.850498371220e+01 
-8.618679528060e+01 6.823382428800e+00 0.0 
6.823382428800e+00 -1.754805413325e+02 0.0 
0.0 0.0 -7.810020098392e+01 
-1.334141956552e+02 4.472696866835e+00 0.0 
4.472696866835e+00 -3.096815435639e+02 0.0 
0.0 0.0 -1.325287217657e+02 
-7.324406508844e+01 1.313868741718e+01 0.0 
1.313868741718e+01 -1.537289752971e+02 0.0 
0.0 0.0 -6.769191211567e+01 
-7.633227328007e+01 1.205255124727e+01 0.0 
1.205255124727e+01 -1.964957416413e+02 0.0 
0.0 0.0 -8.144840447642e+01 
-7.406444608713e+01 4.774729266911e-01 0.0 
4.774729266911e-01 -1.603550711655e+02 0.0 
0.0 0.0 -6.992585517579e+01 
-2.447139154936e+01 -1.635086180838e+00 0.0 
-1.635086180838e+00 -5.741812298525e+01 0.0 
0.0 0.0 -2.416685436038e+01 
-7.643581466506e+01 3.605285018884e+00 0.0 
3.605285018884e+00 -1.547833496887e+02 0.0 
0.0 0.0 -6.896574930613e+01 
-3.708007209299e+01 1.033207287257e+01 0.0 
1.033207287257e+01 -1.073191657134e+02 0.0 
0.0 0.0 -4.291977134191e+01 
-2.542983079913e+01 5.624463458559e+00 0.0 
5.624463458559e+00 -7.739796291581e+01 0.0 
0.0 0.0 -3.044833811448e+01 
-2.363589384189e+01 -5.948144630156e-01 0.0 
-5.948144630156e-01 -6.147589234980e+01 0.0 
0.0 0.0 -2.513353585751e+01 
-1.068098086617e+02 4.659085676797e+00 0.0 
4.659085676797e+00 -2.338715866214e+02 0.0 
0.0 0.0 -1.018044185849e+02 
-8.243382483316e+01 7.238151397592e+00 0.0 
7.238151397592e+00 -1.660638775594e+02 0.0 
0.0 0.0 -7.414931071777e+01 
-4.704772479333e+01 1.391347012646e+01 0.0 
1.391347012646e+01 -1.094368966473e+02 0.0 
0.0 0.0 -4.654538643219e+01 
-1.118812928963e+02 6.412238083358e+00 0.0 
6.412238083358e+00 -2.450992567663e+02 0.0 
0.0 0.0 -1.066941648988e+02 
-1.093160521554e+02 9.196681722216e+00 0.0 
9.196681722216e+00 -2.350791473856e+02 0.0 
0.0 0.0 -1.029185598623e+02 
-7.851362510650e+01 9.962404409906e+00 0.0 
9.962404409906e+00 -1.585395249971e+02 0.0 
0.0 0.0 -7.071594503107e+01 
-1.545869320970e+02 4.372159414933e+00 0.0 
4.372159414933e+00 -3.658736833102e+02 0.0 
0.0 0.0 -1.557381846222e+02 
-8.022657412738e+01 1.030279325351e+01 0.0 
1.030279325351e+01 -2.078670907042e+02 0.0 
0.0 0.0 -8.602809944948e+01 
-8.254188353099e+01 9.187350437674e+00 0.0 
9.187350437674e+00 -1.673030144208e+02 0.0 
0.0 0.0 -7.455346938554e+01 
-6.201073500059e+01 1.509060261960e+01 0.0 
1.509060261960e+01 -1.471033081935e+02 0.0 
0.0 0.0 -6.233421295824e+01 
-8.469127058461e+01 1.222569617602e+01 0.0 
1.222569617602e+01 -2.147863498011e+02 0.0 
0.0 0.0 -8.944328611571e+01 
-3.091004784165e+01 6.361122688953e+00 0.0 
6.361122688953e+00 -9.462859971444e+01 0.0 
0.0 0.0 -3.726159426683e+01 
-7.070147464052e+01 1.444251719514e+00 0.0 
1.444251719514e+00 -1.443578266536e+02 0.0 
0.0 0.0 -6.411779038825e+01 
-6.018817579648e+01 1.169686423101e+01 0.0 
1.169686423101e+01 -1.604840675414e+02 0.0 
0.0 0.0 -6.580167300138e+01 
-4.368841654879e+01 3.422616375155e+00 0.0 
3.422616375155e+00 -1.249853824605e+02 0.0 
0.0 0.0 -5.020213970278e+01 
-1.035781217064e+02 5.921037215084e+00 0.0 
5.921037215084e+00 -2.234991184776e+02 0.0 
0.0 0.0 -9.772317205520e+01 
-1.770677484196e+01 5.809790809319e-01 0.0 
5.809790809319e-01 -6.416461636557e+00 0.0 
0.0 0.0 -6.836970943557e+00 
-8.201345875121e+01 5.707682238489e+00 0.0 
5.707682238489e+00 -1.656812933319e+02 0.0 
0.0 0.0 -7.390842562494e+01 
-4.066411639379e+01 9.019357104212e+00 0.0 
9.019357104212e+00 -1.187763104853e+02 0.0 
0.0 0.0 -4.743212806372e+01 
-3.095155375450e+01 1.294220142412e+01 0.0 
1.294220142412e+01 -8.257970390714e+01 0.0 
0.0 0.0 -3.365937729849e+01 
-3.285320026008e+01 6.018595891829e+00 0.0 
6.018595891829e+00 -9.536663056468e+01 0.0 
0.0 0.0 -3.806594924743e+01 
-8.871969000911e+01 5.670856979263e+00 0.0 
5.670856979263e+00 -1.844947974666e+02 0.0 
0.0 0.0 -8.156434624271e+01 
-1.882427367419e+01 -1.345040470385e+00 0.0 
-1.345040470385e+00 -4.140933961951e+01 0.0 
0.0 0.0 -1.767008398811e+01 
-4.871512386246e+01 9.092299811346e+00 0.0 
9.092299811346e+00 -9.205686586166e+01 0.0 
0.0 0.0 -4.183159691724e+01 
-8.865384134775e+01 1.046432573597e+01 0.0 
1.046432573597e+01 -2.262108062847e+02 0.0 
0.0 0.0 -9.405939428975e+01 
-8.077432698481e+01 4.819040269492e+00 0.0 
4.819040269492e+00 -1.647625235269e+02 0.0 
0.0 0.0 -7.326105515353e+01 
-7.827261969635e+01 2.491216652490e+00 0.0 
2.491216652490e+00 -1.618876942709e+02 0.0 
0.0 0.0 -7.164809419018e+01 
-1.954839773536e+01 3.052302078081e+00 0.0 
3.052302078081e+00 -5.219671853289e+01 0.0 
0.0 0.0 -2.112353488047e+01 
-4.174404928026e+01 3.235122867632e+00 0.0 
3.235122867632e+00 -1.241201502915e+02 0.0 
0.0 0.0 -4.935925987153e+01 
-4.086058531965e+01 2.017808653975e+00 0.0 
2.017808653975e+00 -1.160915156210e+02 0.0 
0.0 0.0 -4.668563028218e+01 
-4.100578823175e+01 1.254734017737e+01 0.0 
1.254734017737e+01 -7.220410768074e+01 0.0 
0.0 0.0 -3.356296877375e+01 
-1.013557886086e+02 7.091842269325e+00 0.0 
7.091842269325e+00 -2.146189009157e+02 0.0 
0.0 0.0 -9.439240685731e+01 
-4.933110353022e+01 1.291104245625e+01 0.0 
1.291104245625e+01 -9.313647757294e+01 0.0 
0.0 0.0 -4.234027433095e+01 
-5.580575931111e+01 9.773021568333e+00 0.0 
9.773021568333e+00 -1.538841180137e+02 0.0 
0.0 0.0 -6.250696319745e+01 
-5.211916780742e+01 1.091325604362e+01 0.0 
1.091325604362e+01 -1.423950389410e+02 0.0 
0.0 0.0 -5.795426202451e+01 
-2.283841709807e+01 4.131247218774e+00 0.0 
4.131247218774e+00 -6.010686382391e+01 0.0 
0.0 0.0 -2.448358427659e+01 
-6.618183601168e+01 1.302517371363e+01 0.0 
1.302517371363e+01 -1.600468971935e+02 0.0 
0.0 0.0 -6.746861996154e+01 
-2.115409174961e+01 1.133566720209e+01 0.0 
1.133566720209e+01 -4.913689556733e+01 0.0 
0.0 0.0 -2.068729619508e+01 
-1.363449467625e+02 8.821361428041e+00 0.0 
8.821361428041e+00 -3.140280621484e+02 0.0 
0.0 0.0 -1.347119026733e+02 
-1.368294964159e+02 1.066873348680e+01 0.0 
1.066873348680e+01 -3.158479694582e+02 0.0 
0.0 0.0 -1.354032397622e+02 
-7.686541673335e+01 1.145306333014e+01 0.0 
1.145306333014e+01 -1.659924878189e+02 0.0 
0.0 0.0 -7.245737136568e+01 
-3.380133118543e+01 8.423776477345e+00 0.0 
8.423776477345e+00 -1.014436009476e+02 0.0 
0.0 0.0 -4.017347963991e+01 
-2.845374170682e+01 1.085713570729e+01 0.0 
1.085713570729e+01 -7.853660389255e+01 0.0 
0.0 0.0 -3.169710367981e+01 
-8.530307707797e+01 7.913276895997e+00 0.0 
7.913276895997e+00 -1.773776400920e+02 0.0 
0.0 0.0 -7.840421515098e+01 
-3.178965320488e+01 9.521771442466e+00 0.0 
9.521771442466e+00 -9.067113367373e+01 0.0 
0.0 0.0 -3.633823606358e+01 
-3.887518405288e+01 1.671618609223e+00 0.0 
1.671618609223e+00 -1.151734477221e+02 0.0 
0.0 0.0 -4.581458953249e+01 
-7.351017487093e+01 8.083229456229e+00 0.0 
8.083229456229e+00 -1.489076103587e+02 0.0 
0.0 0.0 -6.632533556890e+01 
-1.266481067029e+02 3.236698836908e+00 0.0 
3.236698836908e+00 -2.918097060256e+02 0.0 
0.0 0.0 -1.251373438186e+02 
-4.436001414065e+01 1.068991955595e+01 0.0 
1.068991955595e+01 -1.247109569079e+02 0.0 
0.0 0.0 -5.032129131457e+01 
-9.761455680339e+01 1.176950760316e+01 0.0 
1.176950760316e+01 -2.398047247463e+02 0.0 
0.0 0.0 -1.008257844649e+02 
-2.207074303526e+01 1.057865435236e+01 0.0 
1.057865435236e+01 -6.138695374465e+01 0.0 
0.0 0.0 -2.463730903397e+01 
-1.552369628411e+02 1.221484171326e+01 0.0 
1.221484171326e+01 -3.681081674420e+02 0.0 
0.0 0.0 -1.566035390849e+02 
-3.042098212619e+01 9.803590903037e+00 0.0 
9.803590903037e+00 -9.015707152103e+01 0.0 
0.0 0.0 -3.577341609417e+01 
-7.740746240190e+01 9.464730853657e+00 0.0 
9.464730853657e+00 -1.608878199114e+02 0.0 
0.0 0.0 -7.108858469398e+01 
-2.343491617811e+01 3.516852124109e+00 0.0 
3.516852124109e+00 -6.971304776266e+01 0.0 
0.0 0.0 -2.754438918223e+01 
-9.631389280135e+01 7.523316345182e+00 0.0 
7.523316345182e+00 -2.502360863946e+02 0.0 
0.0 0.0 -1.035649937588e+02 
-6.015796836523e+01 1.098022131483e+01 0.0 
1.098022131483e+01 -1.603076981956e+02 0.0 
0.0 0.0 -6.573969996826e+01 
-4.255965189696e+01 1.163482061732e+00 0.0 
1.163482061732e+00 -1.244667273413e+02 0.0 
0.0 0.0 -4.970791377148e+01 
-7.858869605668e+01 7.835680818590e+00 0.0 
7.835680818590e+00 -1.566932737290e+02 0.0 
0.0 0.0 -7.018459093569e+01 
-1.399703105039e+02 1.342196763765e+01 0.0 
1.342196763765e+01 -3.236105953896e+02 0.0 
0.0 0.0 -1.386742717681e+02 
-4.805269629052e+01 9.466240132095e+00 0.0 
9.466240132095e+00 -1.362425483063e+02 0.0 
0.0 0.0 -5.488857337906e+01 
-8.881739195093e+01 1.153804202911e+01 0.0 
1.153804202911e+01 -2.264966158996e+02 0.0 
0.0 0.0 -9.419420235515e+01 
-2.346740739238e+01 9.959827848096e+00 0.0 
9.959827848096e+00 -6.185920220112e+01 0.0 
0.0 0.0 -2.519798287805e+01 
-9.067187285203e+01 1.536991839880e+00 0.0 
1.536991839880e+00 -1.958136471458e+02 0.0 
0.0 0.0 -8.554565599934e+01 
-1.097300300746e+02 6.067973249562e+00 0.0 
6.067973249562e+00 -2.804379743163e+02 0.0 
0.0 0.0 -1.166504013173e+02 
-3.076793836814e+01 1.547099335419e+01 0.0 
1.547099335419e+01 -7.166978008381e+01 0.0 
0.0 0.0 -3.033131553559e+01 
-8.780759855494e+01 2.785435794793e+00 0.0 
2.785435794793e+00 -1.875583138487e+02 0.0 
0.0 0.0 -8.220977372109e+01 
-1.427664370962e+02 1.553213260991e+01 0.0 
1.553213260991e+01 -3.315579632187e+02 0.0 
0.0 0.0 -1.418973200944e+02 
-1.191754360629e+02 6.751413251854e+00 0.0 
6.751413251854e+00 -2.995093767693e+02 0.0 
0.0 0.0 -1.252054438497e+02 
-1.391835402281e+02 1.250802511149e+01 0.0 
1.250802511149e+01 -3.210208435459e+02 0.0 
0.0 0.0 -1.376613151322e+02 
-8.828776244592e+01 3.487343025875e+00 0.0 
3.487343025875e+00 -1.861655908845e+02 0.0 
0.0 0.0 -8.193600599913e+01 
-1.091403194947e+02 1.048972575818e+01 0.0 
1.048972575818e+01 -2.356706611255e+02 0.0 
0.0 0.0 -1.030432941861e+02 
-2.483642448716e+01 1.465089205839e+01 0.0 
1.465089205839e+01 -5.369379161429e+01 0.0 
0.0 0.0 -2.315906483043e+01 
-7.060368859386e+01 7.033787864690e+00 0.0 
7.033787864690e+00 -1.371491518467e+02 0.0 
0.0 0.0 -6.192585213217e+01 
-8.129658905097e+01 6.604548161109e+00 0.0 
6.604548161109e+00 -1.662470425842e+02 0.0 
0.0 0.0 -7.386308949055e+01 
-8.644385537772e+01 8.535262141429e+00 0.0 
8.535262141429e+00 -1.763647347994e+02 0.0 
0.0 0.0 -7.844257705313e+01 
-6.858957317434e+01 1.407530683194e+01 0.0 
1.407530683194e+01 -1.465541798883e+02 0.0 
0.0 0.0 -6.414312591880e+01 
-1.449248721149e+02 1.650913121700e+01 0.0 
1.650913121700e+01 -3.380004814048e+02 0.0 
0.0 0.0 -1.444776060559e+02 
-8.445608456038e+01 2.614618150514e+00 0.0 
2.614618150514e+00 -1.759084808836e+02 0.0 
0.0 0.0 -7.770936963318e+01 
-7.399981417602e+01 4.761422537407e+00 0.0 
4.761422537407e+00 -1.466334804990e+02 0.0 
0.0 0.0 -6.578998840250e+01 
-5.239310260669e+01 1.139150240932e+01 0.0 
1.139150240932e+01 -1.426149053242e+02 0.0 
0.0 0.0 -5.810240237927e+01 
-3.298520909249e+01 -2.244558174203e+00 0.0 
-2.244558174203e+00 -8.806696167199e+01 0.0 
0.0 0.0 -3.591565122934e+01 
-6.626078426405e+01 5.583533039891e+00 0.0 
5.583533039891e+00 -1.270766825746e+02 0.0 
0.0 0.0 -5.760124005161e+01 
-3.400942401899e+01 1.373208567963e+01 0.0 
1.373208567963e+01 -8.605101121373e+01 0.0 
0.0 0.0 -3.561813056982e+01 
-6.669692861325e+01 2.733018330171e-01 0.0 
2.733018330171e-01 -1.428223106368e+02 0.0 
0.0 0.0 -6.245577177502e+01 
-4.450353731774e+01 1.536392608988e+00 0.0 
1.536392608988e+00 -1.253703213687e+02 0.0 
0.0 0.0 -5.056215760593e+01 
-4.495547900380e+01 1.092661878221e+01 0.0 
1.092661878221e+01 -1.250120319731e+02 0.0 
0.0 0.0 -5.059025329308e+01 
-1.071958705203e+02 5.700410624296e+00 0.0 
5.700410624296e+00 -2.336250192684e+02 0.0 
0.0 0.0 -1.018462669366e+02 
-3.410096516804e+01 1.468217373287e+01 0.0 
1.468217373287e+01 -8.626699163210e+01 0.0 
0.0 0.0 -3.571038704004e+01 
-7.327740789316e+01 5.817097733812e+00 0.0 
5.817097733812e+00 -1.464433915138e+02 0.0 
0.0 0.0 -6.551623982209e+01 
-9.260274383688e+01 9.792280981722e+00 0.0 
9.792280981722e+00 -2.372708010403e+02 0.0 
0.0 0.0 -9.856206346315e+01 
-8.389007163524e+01 2.819831473351e+00 0.0 
2.819831473351e+00 -2.244708047054e+02 0.0 
0.0 0.0 -9.210826290218e+01 
-1.486109480121e+02 1.661878541873e+01 0.0 
1.661878541873e+01 -3.485997520642e+02 0.0 
0.0 0.0 -1.487632100229e+02 
-5.845015759888e+01 6.878843771969e+00 0.0 
6.878843771969e+00 -1.087880959563e+02 0.0 
0.0 0.0 -4.977147606655e+01 
-3.799524840691e+01 4.103503971134e+00 0.0 
4.103503971134e+00 -1.144874568194e+02 0.0 
0.0 0.0 -4.534481156790e+01 
-5.867790175032e+01 8.548006171541e-01 0.0 
8.548006171541e-01 -1.597320741791e+02 0.0 
0.0 0.0 -6.512299277884e+01 
-3.068087426556e+01 1.556705136783e+01 0.0 
1.556705136783e+01 -5.762610597883e+01 0.0 
0.0 0.0 -2.609209407332e+01 
-3.054694999251e+01 1.397646913550e+01 0.0 
1.397646913550e+01 -7.134040618252e+01 0.0 
0.0 0.0 -3.016620685251e+01 
-1.166227868596e+02 9.917941727345e+00 0.0 
9.917941727345e+00 -2.554958985022e+02 0.0 
0.0 0.0 -1.112356056085e+02 
-8.210634473117e+01 1.127555745188e+01 0.0 
1.127555745188e+01 -1.697754937709e+02 0.0 
0.0 0.0 -7.516455155063e+01 
-4.998593654033e+01 9.107995063547e+00 0.0 
9.107995063547e+00 -8.947879212892e+01 0.0 
0.0 0.0 -4.143941860077e+01 
-6.510637825294e+01 4.911352073576e+00 0.0 
4.911352073576e+00 -1.267589411775e+02 0.0 
0.0 0.0 -5.715959582913e+01 
-1.520572880682e+02 1.462763135993e+01 0.0 
1.462763135993e+01 -3.601322529381e+02 0.0 
0.0 0.0 -1.532568623019e+02 
-1.424648121399e+02 1.449258199228e+01 0.0 
1.449258199228e+01 -3.396178730046e+02 0.0 
0.0 0.0 -1.442248055434e+02 
-1.148995449569e+02 7.749607610157e+00 0.0 
7.749607610157e+00 -2.540966495940e+02 0.0 
0.0 0.0 -1.102988583653e+02 
-1.050716742839e+02 6.820868305110e+00 0.0 
6.820868305110e+00 -2.249328641294e+02 0.0 
0.0 0.0 -9.860136152399e+01 
-8.103256895100e+01 4.128886885635e+00 0.0 
4.128886885635e+00 -2.159954501064e+02 0.0 
0.0 0.0 -8.870840571722e+01 
-5.260360441045e+01 1.439288429587e+01 0.0 
1.439288429587e+01 -1.063503054629e+02 0.0 
0.0 0.0 -4.728617296199e+01 
-3.530908073163e+01 8.182644040708e+00 0.0 
8.182644040708e+00 -1.020273646274e+02 0.0 
0.0 0.0 -4.080093360770e+01 
-4.177907713285e+01 9.015645132773e+00 0.0 
9.015645132773e+00 -1.192479965283e+02 0.0 
0.0 0.0 -4.790812209836e+01 
-7.778323739109e+01 1.216994039542e+01 0.0 
1.216994039542e+01 -1.616183753444e+02 0.0 
0.0 0.0 -7.142048382064e+01 
-9.284892151878e+01 9.138119454681e+00 0.0 
9.138119454681e+00 -2.405792116194e+02 0.0 
0.0 0.0 -9.962843994145e+01 
-7.342393463308e+01 1.048694141342e+00 0.0 
1.048694141342e+00 -1.937931407561e+02 0.0 
0.0 0.0 -7.976512261676e+01 
-1.145147182908e+02 6.542960770156e+00 0.0 
6.542960770156e+00 -2.538792790766e+02 0.0 
0.0 0.0 -1.101181992102e+02 
-3.998039624895e+01 4.092838143990e+00 0.0 
4.092838143990e+00 -1.153260339163e+02 0.0 
0.0 0.0 -4.619192904956e+01 
-6.378693244922e+01 1.482899336442e+01 0.0 
1.482899336442e+01 -1.399627866396e+02 0.0 
0.0 0.0 -6.072491572665e+01 
-7.740374802393e+01 7.257737712766e+00 0.0 
7.257737712766e+00 -1.573266887524e+02 0.0 
0.0 0.0 -7.001913103290e+01 
-5.579101805530e+01 1.515694869302e+01 0.0 
1.515694869302e+01 -1.201653358514e+02 0.0 
0.0 0.0 -5.238690617201e+01 
-1.386527160333e+02 1.164216755393e+01 0.0 
1.164216755393e+01 -3.187045078161e+02 0.0 
0.0 0.0 -1.368071671548e+02 
-1.360499030933e+02 9.443999831515e+00 0.0 
9.443999831515e+00 -3.144259965689e+02 0.0 
0.0 0.0 -1.347427698987e+02 
-1.299997640003e+02 1.023618315422e+01 0.0 
1.023618315422e+01 -2.940417306384e+02 0.0 
0.0 0.0 -1.268124483916e+02 
-8.920501286264e+01 4.876596355794e+00 0.0 
4.876596355794e+00 -2.345332864121e+02 0.0 
0.0 0.0 -9.672148978241e+01 
-1.103014292332e+02 4.536759401300e+00 0.0 
4.536759401300e+00 -2.440843047239e+02 0.0 
0.0 0.0 -1.059157201871e+02 
-2.705811924600e+01 1.345109258577e+01 0.0 
1.345109258577e+01 -6.834637644677e+01 0.0 
0.0 0.0 -2.822134870783e+01 
-4.880989167298e+01 9.690673394868e+00 0.0 
9.690673394868e+00 -1.366127532460e+02 0.0 
0.0 0.0 -5.522679347571e+01 
-2.755890517374e+01 4.970601398841e+00 0.0 
4.970601398841e+00 -7.813834261540e+01 0.0 
0.0 0.0 -3.130917433674e+01 
-5.400210087217e+01 1.124749924556e+01 0.0 
1.124749924556e+01 -1.011675827744e+02 0.0 
0.0 0.0 -4.615090509396e+01 
-7.069185136709e+01 1.380718234892e+00 0.0 
1.380718234892e+00 -1.443305009195e+02 0.0 
0.0 0.0 -6.410670568599e+01 
-8.678626786459e+01 1.480681309786e+00 0.0 
1.480681309786e+00 -1.852539817586e+02 0.0 
0.0 0.0 -8.121207488694e+01 
-1.460252323506e+02 1.185001085593e+01 0.0 
1.185001085593e+01 -3.508469550243e+02 0.0 
0.0 0.0 -1.486616562125e+02 
-1.148041496842e+02 8.950269360249e+00 0.0 
8.950269360249e+00 -2.545615833942e+02 0.0 
0.0 0.0 -1.104097199235e+02 
-8.460106003719e+01 4.513684380580e+00 0.0 
4.513684380580e+00 -1.743037392206e+02 0.0 
0.0 0.0 -7.727143977735e+01 
-8.907140347733e+01 7.323354250247e+00 0.0 
7.323354250247e+00 -1.860796122392e+02 0.0 
0.0 0.0 -8.214530471495e+01 
-2.852079584411e+01 4.354947955043e+00 0.0 
4.354947955043e+00 -8.719721385260e+01 0.0 
0.0 0.0 -3.431540290901e+01 
-1.999984302749e+01 -1.854858184640e+00 0.0 
-1.854858184640e+00 -4.204342003488e+01 0.0 
0.0 0.0 -1.821297891871e+01 
-6.128369402262e+01 1.269321458036e+01 0.0 
1.269321458036e+01 -1.541615627931e+02 0.0 
0.0 0.0 -6.423357704472e+01 
-7.174919067419e+01 1.455205378794e+01 0.0 
1.455205378794e+01 -1.594808867236e+02 0.0 
0.0 0.0 -6.896902321935e+01 
-6.536353791930e+01 1.451065300036e+01 0.0 
1.451065300036e+01 -1.600033540734e+02 0.0 
0.0 0.0 -6.721006759782e+01 
-1.704805717111e+01 1.027369090095e+01 0.0 
1.027369090095e+01 -2.949150177081e+01 0.0 
0.0 0.0 -1.356186768258e+01 
-7.336963466857e+01 -9.261193891062e-02 0.0 
-9.261193891062e-02 -1.594344518442e+02 0.0 
0.0 0.0 -6.944122595383e+01 
-3.125088516859e+01 -1.195660029096e+00 0.0 
-1.195660029096e+00 -8.097423414923e+01 0.0 
0.0 0.0 -3.326753579534e+01 
-3.360703520308e+01 1.159195249249e+01 0.0 
1.159195249249e+01 -9.518118113692e+01 0.0 
0.0 0.0 -3.823646490200e+01 
-1.571743774540e+02 1.210398752417e+01 0.0 
1.210398752417e+01 -3.680735473928e+02 0.0 
0.0 0.0 -1.571743774540e+02 
-1.019720910798e+02 1.268413639312e+01 0.0 
1.268413639312e+01 -2.523191822819e+02 0.0 
0.0 0.0 -1.058873820085e+02 
-7.209076260445e+01 2.525274235644e+00 0.0 
2.525274235644e+00 -1.454300588810e+02 0.0 
0.0 0.0 -6.485624644565e+01 
-2.297755407593e+01 -7.728267212685e-01 0.0 
-7.728267212685e-01 -5.910577660513e+01 0.0 
0.0 0.0 -2.422499920432e+01 
-6.900706125599e+01 1.143358975126e+01 0.0 
1.143358975126e+01 -1.462126317551e+02 0.0 
0.0 0.0 -6.416590790333e+01 
-6.077272978921e+01 1.387286173293e+01 0.0 
1.387286173293e+01 -1.541822963712e+02 0.0 
0.0 0.0 -6.408650784812e+01 
-9.021061879730e+01 8.028149309427e+00 0.0 
8.028149309427e+00 -1.855572411401e+02 0.0 
0.0 0.0 -8.233035798122e+01 
-1.406857292753e+02 1.400646515253e+01 0.0 
1.400646515253e+01 -3.260299881813e+02 0.0 
0.0 0.0 -1.396147152370e+02 
-6.899859829266e+01 4.376348045158e+00 0.0 
4.376348045158e+00 -1.360365299505e+02 0.0 
0.0 0.0 -6.111053847296e+01 
-8.623924108585e+01 1.048090534775e+01 0.0 
1.048090534775e+01 -1.782478462587e+02 0.0 
0.0 0.0 -7.894612620336e+01 
-7.223493259275e+01 -2.567318897910e-01 0.0 
-2.567318897910e-01 -1.930092589786e+02 0.0 
0.0 0.0 -7.917325747142e+01 
-1.107313463352e+02 5.593696065998e+00 0.0 
5.593696065998e+00 -2.437868194528e+02 0.0 
0.0 0.0 -1.059554497364e+02 
-9.231051309245e+01 3.488004437829e+00 0.0 
3.488004437829e+00 -2.432622281533e+02 0.0 
0.0 0.0 -1.002718223737e+02 
-1.421271665614e+02 1.500301492673e+01 0.0 
1.500301492673e+01 -3.287658805895e+02 0.0 
0.0 0.0 -1.408679141453e+02 
-1.360089941201e+02 1.147126557755e+01 0.0 
1.147126557755e+01 -3.186876529469e+02 0.0 
0.0 0.0 -1.360089941201e+02 
-1.332276576413e+02 8.036184456105e+00 0.0 
8.036184456105e+00 -3.121978678296e+02 0.0 
0.0 0.0 -1.332276576413e+02 
-1.338250458535e+02 9.658692979037e+00 0.0 
9.658692979037e+00 -3.135917736583e+02 0.0 
0.0 0.0 -1.338250458535e+02 
-9.278522361699e+01 6.847048315106e+00 0.0 
6.847048315106e+00 -1.950466777538e+02 0.0 
0.0 0.0 -8.594957041124e+01 
-1.123789204096e+02 7.531853343345e+00 0.0 
7.531853343345e+00 -2.448488799740e+02 0.0 
0.0 0.0 -1.067683401151e+02 
-1.186924024144e+02 8.834326957192e+00 0.0 
8.834326957192e+00 -2.650533430427e+02 0.0 
0.0 0.0 -1.147237236371e+02 
-5.646797701941e+01 1.245728016885e+01 0.0 
1.245728016885e+01 -1.199825373160e+02 0.0 
0.0 0.0 -5.253515430061e+01 
-5.273177514828e+01 1.111887804222e+01 0.0 
1.111887804222e+01 -1.058144145826e+02 0.0 
0.0 0.0 -4.716385691926e+01 
-6.942135366091e+01 6.730668285333e-01 0.0 
6.730668285333e-01 -1.831849433952e+02 0.0 
0.0 0.0 -7.538188911682e+01 
-1.162725215327e+02 8.627345567702e+00 0.0 
8.627345567702e+00 -2.550664220886e+02 0.0 
0.0 0.0 -1.110016830864e+02 
-1.437772847120e+02 1.613381395174e+01 0.0 
1.613381395174e+01 -3.346072012705e+02 0.0 
0.0 0.0 -1.431153457947e+02 
-1.141208379980e+02 5.407482717684e+00 0.0 
5.407482717684e+00 -2.537846495344e+02 0.0 
0.0 0.0 -1.099716462597e+02 
-9.325667434300e+01 1.243430957319e+01 0.0 
1.243430957319e+01 -2.334496077854e+02 0.0 
0.0 0.0 -9.761188463851e+01 
-1.156677325623e+02 7.293739301983e+00 0.0 
7.293739301983e+00 -2.548102052179e+02 0.0 
0.0 0.0 -1.107433813341e+02 
-1.036508004467e+02 1.409668913080e+01 0.0 
1.409668913080e+01 -2.370511280568e+02 0.0 
0.0 0.0 -1.018105785511e+02 
-6.787345844447e+01 1.292389635503e+01 0.0 
1.292389635503e+01 -1.531236279780e+02 0.0 
0.0 0.0 -6.589912592673e+01 
-5.294597929262e+01 7.746281243364e+00 0.0 
7.746281243364e+00 -1.001929074787e+02 0.0 
0.0 0.0 -4.554166603139e+01 
-2.472074628896e+01 9.172418750800e+00 0.0 
9.172418750800e+00 -7.320253039431e+01 0.0 
0.0 0.0 -2.897698300498e+01 
-1.264137115127e+02 4.777306683402e+00 0.0 
4.777306683402e+00 -2.925819493567e+02 0.0 
0.0 0.0 -1.252986982608e+02 
-5.188204564061e+01 1.341839631842e+01 0.0 
1.341839631842e+01 -1.146374964754e+02 0.0 
0.0 0.0 -4.955586263481e+01 
-1.313949114754e+02 1.395857737516e+01 0.0 
1.395857737516e+01 -3.035171204429e+02 0.0 
0.0 0.0 -1.300736095755e+02 
-6.832493423643e+01 -6.774103064159e-01 0.0 
-6.774103064159e-01 -1.824301535812e+02 0.0 
0.0 0.0 -7.482652634529e+01 
-4.159734059689e+01 4.442626671095e-01 0.0 
4.442626671095e-01 -1.156268511189e+02 0.0 
0.0 0.0 -4.676725751473e+01 
-1.488492115659e+02 1.074263447308e+01 0.0 
1.074263447308e+01 -3.534315468929e+02 0.0 
0.0 0.0 -1.502842275376e+02 
-3.738202953361e+01 1.297821556707e+01 0.0 
1.297821556707e+01 -9.964410640024e+01 0.0 
0.0 0.0 -4.070784078015e+01 
-1.370871300146e+02 1.235876274458e+01 0.0 
1.235876274458e+01 -3.212033033674e+02 0.0 
0.0 0.0 -1.370871300146e+02 
-1.288432116995e+02 8.478269802310e+00 0.0 
8.478269802310e+00 -2.966380424806e+02 0.0 
0.0 0.0 -1.272443762540e+02 
-8.518290855159e+01 9.835976025022e+00 0.0 
9.835976025022e+00 -1.807898909030e+02 0.0 
0.0 0.0 -7.939183983638e+01 
-1.339993832697e+01 -1.322887883137e+00 0.0 
-1.322887883137e+00 -2.483575622693e+01 0.0 
0.0 0.0 -1.149775719499e+01 
-1.392324734548e+02 1.384315697119e+01 0.0 
1.384315697119e+01 -3.262091047279e+02 0.0 
0.0 0.0 -1.392324734548e+02 
-1.469982206070e+02 1.252496225454e+01 0.0 
1.252496225454e+01 -3.483554463499e+02 0.0 
0.0 0.0 -1.482061000871e+02 
-3.966729383163e+01 -8.541421371725e-02 0.0 
-8.541421371725e-02 -1.146943522658e+02 0.0 
0.0 0.0 -4.590849382922e+01 
-9.743110876973e+01 1.183756797320e+01 0.0 
1.183756797320e+01 -2.450673640267e+02 0.0 
0.0 0.0 -1.023495418389e+02 
-1.492058781692e+02 1.629789285715e+01 0.0 
1.629789285715e+01 -3.515606866212e+02 0.0 
0.0 0.0 -1.498299694371e+02 
-9.467209960139e+00 -5.468260420335e-01 0.0 
-5.468260420335e-01 -8.913587417511e+00 0.0 
0.0 0.0 -6.084152356083e+00 
-5.997852103618e+01 1.318691057375e+01 0.0 
1.318691057375e+01 -1.340203201042e+02 0.0 
0.0 0.0 -5.779965234210e+01 
-8.915390898665e+01 9.118638607460e+00 0.0 
9.118638607460e+00 -1.888464129382e+02 0.0 
0.0 0.0 -8.300009657746e+01 
-8.109629412505e+01 1.062022168797e+01 0.0 
1.062022168797e+01 -1.731641412691e+02 0.0 
0.0 0.0 -7.587813061824e+01 
-8.138306745054e+01 8.621084248432e+00 0.0 
8.621084248432e+00 -1.689358298459e+02 0.0 
0.0 0.0 -7.469566918893e+01 
-2.714804415301e+01 1.109542447844e+01 0.0 
1.109542447844e+01 -7.803443495843e+01 0.0 
0.0 0.0 -3.115474373343e+01 
-1.418654540430e+02 1.509548428032e+01 0.0 
1.509548428032e+01 -3.323527261004e+02 0.0 
0.0 0.0 -1.418654540430e+02 
-5.627384255677e+01 1.021981415848e+01 0.0 
1.021981415848e+01 -1.541829882608e+02 0.0 
0.0 0.0 -6.273704924528e+01 
-2.173159624405e+01 1.835958149421e+00 0.0 
1.835958149421e+00 -5.282830174596e+01 0.0 
0.0 0.0 -2.196796939700e+01 
-1.522284806456e+02 4.888100973186e+00 0.0 
4.888100973186e+00 -3.646428088292e+02 0.0 
0.0 0.0 -1.546613868424e+02 
-1.505841260498e+01 -1.267755124282e+00 0.0 
-1.267755124282e+00 -2.516220295201e+01 0.0 
0.0 0.0 -1.166618466710e+01 
-6.113525234858e+01 5.611237988602e+00 0.0 
5.611237988602e+00 -1.176757306918e+02 0.0 
0.0 0.0 -5.324329491210e+01 
-2.243238242974e+01 -1.250924746012e+00 0.0 
-1.250924746012e+00 -5.858021147041e+01 0.0 
0.0 0.0 -2.390377817004e+01 
-6.457159123142e+01 2.980763066090e+00 0.0 
2.980763066090e+00 -1.258870204067e+02 0.0 
0.0 0.0 -5.673758349144e+01 
-1.531865915598e+02 1.391784328931e+01 0.0 
1.391784328931e+01 -3.629101935456e+02 0.0 
0.0 0.0 -1.544290355316e+02 
-1.450013823942e+02 1.576383098788e+01 0.0 
1.576383098788e+01 -3.396698922531e+02 0.0 
0.0 0.0 -1.450013823942e+02 
-8.500235904357e+01 6.072160435936e+00 0.0 
6.072160435936e+00 -1.752631120652e+02 0.0 
0.0 0.0 -7.767964133263e+01 
-1.794069094114e+01 -1.596201425427e+00 0.0 
-1.596201425427e+00 -4.199001620589e+01 0.0 
0.0 0.0 -1.757921214411e+01 
-1.833664037455e+01 1.028394725878e+00 0.0 
1.028394725878e+00 -4.320757324135e+01 0.0 
0.0 0.0 -1.806326408477e+01 
-2.477127773717e+01 -1.573715157672e+00 0.0 
-1.573715157672e+00 -5.808448600484e+01 0.0 
0.0 0.0 -2.445672912260e+01 
-1.294326381323e+02 6.013066261832e+00 0.0 
6.013066261832e+00 -3.189707414166e+02 0.0 
0.0 0.0 -1.341210138647e+02 
-7.063362673571e+01 1.416334347852e+00 0.0 
1.416334347852e+00 -1.443983454030e+02 0.0 
0.0 0.0 -6.410959164162e+01 
-7.761617507143e+01 4.675343166501e+00 0.0 
4.675343166501e+00 -1.558777497255e+02 0.0 
0.0 0.0 -6.964817743907e+01 
-1.481264731036e+02 1.587450242834e+01 0.0 
1.587450242834e+01 -3.469617705751e+02 0.0 
0.0 0.0 -1.481264731036e+02 
-6.984307669496e+01 1.394079986818e+00 0.0 
1.394079986818e+00 -1.442361205903e+02 0.0 
0.0 0.0 -6.382375918558e+01 
-1.352308752045e+02 7.813010996246e+00 0.0 
7.813010996246e+00 -3.128888165254e+02 0.0 
0.0 0.0 -1.340359075190e+02 
-1.071754837273e+02 1.240909075071e+01 0.0 
1.240909075071e+01 -2.486085498849e+02 0.0 
0.0 0.0 -1.063352100836e+02 
-8.248552000413e+01 9.351009642722e-01 0.0 
9.351009642722e-01 -1.758812819034e+02 0.0 
0.0 0.0 -7.711004057226e+01 
-3.479274461999e+01 1.387522599701e+01 0.0 
1.387522599701e+01 -7.431116449027e+01 0.0 
0.0 0.0 -3.233117273308e+01 
-9.718826043134e+01 1.064332479125e+01 0.0 
1.064332479125e+01 -2.447255653549e+02 0.0 
0.0 0.0 -1.021741477359e+02 
-2.494350257039e+01 6.188974091312e+00 0.0 
6.188974091312e+00 -6.824925127608e+01 0.0 
0.0 0.0 -2.755782615394e+01 
-1.509251646220e+02 1.539358964900e+01 0.0 
1.539358964900e+01 -3.534920507847e+02 0.0 
0.0 0.0 -1.509251646220e+02 
-1.348779712987e+02 1.046566320731e+01 0.0 
1.046566320731e+01 -3.160485996969e+02 0.0 
0.0 0.0 -1.348779712987e+02 
-1.336678791218e+02 8.894893689925e+00 0.0 
8.894893689925e+00 -3.132250512841e+02 0.0 
0.0 0.0 -1.336678791218e+02 
-9.359766146373e+01 4.620161266270e+00 0.0 
4.620161266270e+00 -2.440485745977e+02 0.0 
0.0 0.0 -1.008938708184e+02 
-6.537878127120e+01 4.103349074116e-01 0.0 
4.103349074116e-01 -1.723890642188e+02 0.0 
0.0 0.0 -7.093035364699e+01 
-6.691737428656e+01 1.497353323427e+01 0.0 
1.497353323427e+01 -1.531683833092e+02 0.0 
0.0 0.0 -6.562572727872e+01 
-9.669795099513e+01 3.194776912407e+00 0.0 
3.194776912407e+00 -2.524890956121e+02 0.0 
0.0 0.0 -1.043561139822e+02 
-1.534478531638e+02 1.436223115548e+01 0.0 
1.436223115548e+01 -3.593783240489e+02 0.0 
0.0 0.0 -1.534478531638e+02 
-3.440073490577e+01 1.163741337737e+01 0.0 
1.163741337737e+01 -9.552743469766e+01 0.0 
0.0 0.0 -3.857845088103e+01 
-4.551875388960e+01 2.521885750432e+00 0.0 
2.521885750432e+00 -1.335023719875e+02 0.0 
0.0 0.0 -5.330633776312e+01 
-4.930051736590e+01 1.970037587631e+00 0.0 
1.970037587631e+00 -1.426740708873e+02 0.0 
0.0 0.0 -5.719237647595e+01 
-8.664788118978e+01 1.056366876787e+00 0.0 
1.056366876787e+00 -1.867834629046e+02 0.0 
0.0 0.0 -8.162940322832e+01 
-1.560389061996e+02 1.136993235944e+01 0.0 
1.136993235944e+01 -3.702523985116e+02 0.0 
0.0 0.0 -1.574873914134e+02 
-2.122933659099e+01 -1.678958455962e+00 0.0 
-1.678958455962e+00 -4.167259283480e+01 0.0 
0.0 0.0 -1.847057882774e+01 
-1.559554707273e+02 1.287196334896e+01 0.0 
1.287196334896e+01 -3.652294316971e+02 0.0 
0.0 0.0 -1.559554707273e+02 
-4.617262238502e+01 6.803368303635e-01 0.0 
6.803368303635e-01 -1.332401703355e+02 0.0 
0.0 0.0 -5.342383781617e+01 
-1.383468337927e+02 1.318149336324e+01 0.0 
1.318149336324e+01 -3.241426121829e+02 0.0 
0.0 0.0 -1.383468337927e+02 
-1.204329586717e+02 1.094701775869e+01 0.0 
1.094701775869e+01 -2.663056219113e+02 0.0 
0.0 0.0 -1.156215741749e+02 
-1.053109745125e+01 -5.282295333750e-01 0.0 
-5.282295333750e-01 -7.874744234666e+00 0.0 
0.0 0.0 -5.121752505776e+00 
-6.304493986816e+01 1.329188150465e+01 0.0 
1.329188150465e+01 -1.471514835386e+02 0.0 
0.0 0.0 -6.265892702202e+01 
-1.153274743236e+02 6.251635479842e+00 0.0 
6.251635479842e+00 -2.554420837112e+02 0.0 
0.0 0.0 -1.108308674105e+02 
-1.406257869198e+02 1.457878091966e+01 0.0 
1.457878091966e+01 -3.294601694795e+02 0.0 
0.0 0.0 -1.406257869198e+02 
-9.410513081953e+01 9.207823615843e+00 0.0 
9.207823615843e+00 -1.960522328281e+02 0.0 
0.0 0.0 -8.664720909428e+01 
-1.107951231237e+02 1.253824659492e+01 0.0 
1.253824659492e+01 -2.605523723088e+02 0.0 
0.0 0.0 -1.110042486298e+02 
-2.019040545503e+01 8.554406262532e+00 0.0 
8.554406262532e+00 -5.663181385938e+01 0.0 
0.0 0.0 -2.264666579432e+01 
-1.393419970659e+02 1.137783718102e+01 0.0 
1.137783718102e+01 -3.343300603267e+02 0.0 
0.0 0.0 -1.417016172178e+02 
-4.988215031983e+01 3.749635630688e-01 0.0 
3.749635630688e-01 -1.420386519929e+02 0.0 
0.0 0.0 -5.717624069382e+01 
-5.106782534397e+01 2.390987314359e+00 0.0 
2.390987314359e+00 -1.435055040393e+02 0.0 
0.0 0.0 -5.797199881499e+01 
-1.784999644524e+01 -1.397767616681e+00 0.0 
-1.397767616681e+00 -2.584108969326e+01 0.0 
0.0 0.0 -1.270732584155e+01 
-1.433691145569e+02 1.549019826278e+01 0.0 
1.549019826278e+01 -3.358612672995e+02 0.0 
0.0 0.0 -1.433691145569e+02 
-2.958204136924e+01 7.240985235578e+00 0.0 
7.240985235578e+00 -8.496976364710e+01 0.0 
0.0 0.0 -3.396554150490e+01 
-1.249323924876e+02 9.120156773103e+00 0.0 
9.120156773103e+00 -3.092985206455e+02 0.0 
0.0 0.0 -1.298692739399e+02 
-7.913500174534e+01 2.379132075539e+00 0.0 
2.379132075539e+00 -1.664463196250e+02 0.0 
0.0 0.0 -7.327439641110e+01 
-4.505857988633e+01 -3.645973688914e-01 0.0 
-3.645973688914e-01 -1.225874065115e+02 0.0 
0.0 0.0 -4.989379591936e+01 
-4.734787235096e+01 2.882710347658e+00 0.0 
2.882710347658e+00 -1.343530077725e+02 0.0 
0.0 0.0 -5.411026403703e+01 
-9.024657266889e+01 9.775351518409e+00 0.0 
9.775351518409e+00 -1.870534743795e+02 0.0 
0.0 0.0 -8.279001411452e+01 
-1.495738411240e+02 1.578179498174e+01 0.0 
1.578179498174e+01 -3.503389626226e+02 0.0 
0.0 0.0 -1.495738411240e+02 
-6.809071172275e+01 -8.575407515698e-01 0.0 
-8.575407515698e-01 -1.804303256205e+02 0.0 
0.0 0.0 -7.415631120297e+01 
-1.065027260668e+02 6.324341151965e+00 0.0 
6.324341151965e+00 -2.720735707826e+02 0.0 
0.0 0.0 -1.131728890548e+02 
-8.027826302553e+01 1.213046537368e+01 0.0 
1.213046537368e+01 -1.786915927400e+02 0.0 
0.0 0.0 -7.729095672966e+01 
-9.288764791801e+01 7.419205675358e+00 0.0 
7.419205675358e+00 -2.423850240453e+02 0.0 
0.0 0.0 -1.001818015890e+02 
-5.029366376161e+01 4.323620350235e+00 0.0 
4.323620350235e+00 -1.427850846275e+02 0.0 
0.0 0.0 -5.752362451672e+01 
-9.768840406254e+01 5.604367861684e+00 0.0 
5.604367861684e+00 -2.532135010246e+02 0.0 
0.0 0.0 -1.048705715261e+02 
-7.649843843490e+01 1.390092653575e+01 0.0 
1.390092653575e+01 -1.663043214023e+02 0.0 
0.0 0.0 -7.244082795117e+01 
-1.044901996809e+02 1.342677191932e+01 0.0 
1.342677191932e+01 -2.326804824994e+02 0.0 
0.0 0.0 -1.007512046541e+02 
-1.058589859719e+02 1.088000092665e+01 0.0 
1.088000092665e+01 -2.633554804624e+02 0.0 
0.0 0.0 -1.103643399303e+02 
-7.574407401387e+01 1.267449529948e+01 0.0 
1.267449529948e+01 -1.722121590247e+02 0.0 
0.0 0.0 -7.398686991158e+01 
-6.832192596981e+01 -2.677817150133e-01 0.0 
-2.677817150133e-01 -1.842525010716e+02 0.0 
0.0 0.0 -7.537232811241e+01 
-3.749208085537e+01 1.346088262090e+01 0.0 
1.346088262090e+01 -9.979024018123e+01 0.0 
0.0 0.0 -4.078469631098e+01 
-6.438492446601e+01 -9.781086750583e-01 0.0 
-9.781086750583e-01 -1.716693384135e+02 0.0 
0.0 0.0 -7.041627886386e+01 
-1.072452029319e+02 1.426696274901e+01 0.0 
1.426696274901e+01 -2.491058184759e+02 0.0 
0.0 0.0 -1.065053064223e+02 
-8.409846139406e+01 9.534430906190e+00 0.0 
9.534430906190e+00 -2.189096432262e+02 0.0 
0.0 0.0 -9.050243138608e+01 
-1.542611961844e+02 1.318614339042e+01 0.0 
1.318614339042e+01 -3.656542383357e+02 0.0 
0.0 0.0 -1.555746303560e+02 
-1.190882000728e+02 7.089649506102e+00 0.0 
7.089649506102e+00 -2.648673351402e+02 0.0 
0.0 0.0 -1.147866605639e+02 
-4.035269166305e+01 -1.763292563801e+00 0.0 
-1.763292563801e+00 -1.112113529685e+02 0.0 
0.0 0.0 -4.506921338945e+01 
-1.547296201396e+02 1.360997923013e+01 0.0 
1.360997923013e+01 -3.623691136591e+02 0.0 
0.0 0.0 -1.547296201396e+02 
-1.454522370120e+02 1.274036077775e+01 0.0 
1.274036077775e+01 -3.486034995785e+02 0.0 
0.0 0.0 -1.478167209771e+02 
-6.953736193778e+01 1.254156217931e+01 0.0 
1.254156217931e+01 -1.726574699394e+02 0.0 
0.0 0.0 -7.225844956316e+01 
-1.462479918981e+01 -1.333248253884e+00 0.0 
-1.333248253884e+00 -2.543282716644e+01 0.0 
0.0 0.0 -1.199507142857e+01 
-1.569753739268e+02 1.038119366337e+01 0.0 
1.038119366337e+01 -3.722791766012e+02 0.0 
0.0 0.0 -1.583763651584e+02 
-1.193266334453e+02 8.185612633699e+00 0.0 
8.185612633699e+00 -2.645362924778e+02 0.0 
0.0 0.0 -1.147588777769e+02 
-4.320177363440e+01 -3.801390815323e-01 0.0 
-3.801390815323e-01 -1.234365199428e+02 0.0 
0.0 0.0 -4.959148807316e+01 
-1.580956278462e+02 1.128690798073e+01 0.0 
1.128690798073e+01 -3.702231316412e+02 0.0 
0.0 0.0 -1.580956278462e+02 
-1.022137163734e+02 5.325847422599e+00 0.0 
5.325847422599e+00 -2.628589929863e+02 0.0 
0.0 0.0 -1.091218128079e+02 
-5.713139471126e+01 9.757855602264e+00 0.0 
9.757855602264e+00 -1.127457254501e+02 0.0 
0.0 0.0 -5.056313604840e+01 
-8.048485084129e+01 3.452111383632e+00 0.0 
3.452111383632e+00 -1.645813647888e+02 0.0 
0.0 0.0 -7.311986468902e+01 
-8.036744989619e+01 1.125438975576e+01 0.0 
1.125438975576e+01 -2.080988238860e+02 0.0 
0.0 0.0 -8.613988213464e+01 
-8.525992927368e+01 3.906929186932e+00 0.0 
3.906929186932e+00 -2.252772772308e+02 0.0 
0.0 0.0 -9.276116195134e+01 
-9.715185276348e+01 8.564216055766e+00 0.0 
8.564216055766e+00 -2.508333457176e+02 0.0 
0.0 0.0 -1.039955595443e+02 
-9.739260285604e+01 6.038060208944e+00 0.0 
6.038060208944e+00 -2.049362832481e+02 0.0 
0.0 0.0 -9.029866583125e+01 
-6.546107588132e+01 7.368364620194e+00 0.0 
7.368364620194e+00 -1.289620348690e+02 0.0 
0.0 0.0 -5.792693322511e+01 
-1.104392764061e+02 1.156137800009e+01 0.0 
1.156137800009e+01 -2.708342375548e+02 0.0 
0.0 0.0 -1.139820541883e+02 
-8.048937836661e+01 3.954397715981e-01 0.0 
3.954397715981e-01 -1.761169518659e+02 0.0 
0.0 0.0 -7.658189906975e+01 
-6.962599929029e+01 9.646650318384e-01 0.0 
9.646650318384e-01 -1.850703908093e+02 0.0 
0.0 0.0 -7.600891702987e+01 
-1.012279842328e+02 1.008786221404e+01 0.0 
1.008786221404e+01 -2.557574561028e+02 0.0 
0.0 0.0 -1.066956321007e+02 
-5.159411739688e+01 1.028724230752e+00 0.0 
1.028724230752e+00 -1.428856592106e+02 0.0 
0.0 0.0 -5.794393298224e+01 
-1.009172112615e+02 1.131866869550e+00 0.0 
1.131866869550e+00 -2.589325448416e+02 0.0 
0.0 0.0 -1.075549268309e+02 
-1.179094882011e+01 -5.229461846894e-01 0.0 
-5.229461846894e-01 -8.010003945395e+00 0.0 
0.0 0.0 -5.540285829652e+00 
-4.118605891922e+01 1.489171533951e+01 0.0 
1.489171533951e+01 -1.040207978440e+02 0.0 
0.0 0.0 -4.316205702895e+01 
-4.801495837898e+01 1.233266615318e+00 0.0 
1.233266615318e+00 -1.341344585167e+02 0.0 
0.0 0.0 -5.424482506872e+01 
-7.616849019646e+01 -2.226512285033e-01 0.0 
-2.226512285033e-01 -2.017816747031e+02 0.0 
0.0 0.0 -8.298504946986e+01 
-7.430147463827e+01 1.279337574726e+01 0.0 
1.279337574726e+01 -1.787102929980e+02 0.0 
0.0 0.0 -7.550353029089e+01 
-1.009914146448e+02 4.125755103016e+00 0.0 
4.125755103016e+00 -2.620873723830e+02 0.0 
0.0 0.0 -1.085236361083e+02 
-8.387624060142e+01 2.261984309722e+00 0.0 
2.261984309722e+00 -1.785962651507e+02 0.0 
0.0 0.0 -7.834175172565e+01 
-4.497080945555e+01 3.196735243583e-01 0.0 
3.196735243583e-01 -1.243417107126e+02 0.0 
0.0 0.0 -5.039375605044e+01 
-1.590559184742e+02 1.040168785831e+01 0.0 
1.040168785831e+01 -3.724638097732e+02 0.0 
0.0 0.0 -1.590559184742e+02 
-8.980749809059e+01 1.160680539052e+01 0.0 
1.160680539052e+01 -1.896118801067e+02 0.0 
0.0 0.0 -8.342581345917e+01 
-8.008758597122e+01 -2.095197135665e-01 0.0 
-2.095197135665e-01 -2.104197613535e+02 0.0 
0.0 0.0 -8.675220419742e+01 
-8.554193237854e+01 1.235032655195e+01 0.0 
1.235032655195e+01 -1.814452713591e+02 0.0 
0.0 0.0 -7.969616112128e+01 
-7.722831102171e+01 1.104348132824e+00 0.0 
1.104348132824e+00 -2.025139187360e+02 0.0 
0.0 0.0 -8.352266892730e+01 
-1.038190356863e+01 -5.628064013466e-01 0.0 
-5.628064013466e-01 -8.959498728994e+00 0.0 
0.0 0.0 -6.376666668538e+00 
-8.575407168248e+01 5.377620404226e+00 0.0 
5.377620404226e+00 -1.754140764794e+02 0.0 
0.0 0.0 -7.795044444857e+01 
-6.416043333234e+01 -9.850458325546e-01 0.0 
-9.850458325546e-01 -1.686685683360e+02 0.0 
0.0 0.0 -6.944870050050e+01 
-5.811718101052e+00 -3.636002374375e-01 0.0 
-3.636002374375e-01 -8.771681612088e+00 0.0 
0.0 0.0 -4.929694702588e+00 
-7.593438749162e+01 -5.863010748472e-01 0.0 
-5.863010748472e-01 -1.996853930488e+02 0.0 
0.0 0.0 -8.228593416211e+01 
-1.099587289203e+02 4.757195792240e+00 0.0 
4.757195792240e+00 -2.809433657098e+02 0.0 
0.0 0.0 -1.168706283890e+02 
-1.106164533874e+02 7.848627016943e-01 0.0 
7.848627016943e-01 -2.513892256598e+02 0.0 
0.0 0.0 -1.082017037142e+02 
-8.861926058888e+01 7.964855358346e+00 0.0 
7.964855358346e+00 -2.324540439826e+02 0.0 
0.0 0.0 -9.592199137145e+01 
-9.190132293203e+01 6.433200273748e+00 0.0 
6.433200273748e+00 -2.417253691707e+02 0.0 
0.0 0.0 -9.968800763080e+01 
-6.980978845580e+01 3.595023442989e+00 0.0 
3.595023442989e+00 -1.375402025006e+02 0.0 
0.0 0.0 -6.180499728691e+01 
-6.205288797560e+01 6.547019426932e-01 0.0 
6.547019426932e-01 -1.261570618830e+02 0.0 
0.0 0.0 -5.606298495757e+01 
-1.279914098652e+02 6.523250563666e+00 0.0 
6.523250563666e+00 -2.946822156752e+02 0.0 
0.0 0.0 -1.264020876621e+02 
-8.110183136505e+01 1.313840964596e+01 0.0 
1.313840964596e+01 -1.736358064027e+02 0.0 
0.0 0.0 -7.602129133034e+01 
-4.621242992110e+00 -2.600617843761e-01 0.0 
-2.600617843761e-01 -7.319877686255e+00 0.0 
0.0 0.0 -3.182336203509e+00 
-2.708475349651e+01 -1.097514544228e+00 0.0 
-1.097514544228e+00 -6.902151128781e+01 0.0 
0.0 0.0 -2.843187943530e+01 
-1.419849994479e+01 -1.314095690471e+00 0.0 
-1.314095690471e+00 -2.517857779148e+01 0.0 
0.0 0.0 -1.180663657828e+01 
-4.468539958701e+01 -8.001471150160e-01 0.0 
-8.001471150160e-01 -1.197396983847e+02 0.0 
0.0 0.0 -4.892752939151e+01 
-1.201050361558e+02 1.317533328852e+01 0.0 
1.317533328852e+01 -2.687054439397e+02 0.0 
0.0 0.0 -1.162431440287e+02 
-1.113007063786e+02 2.458006821629e+00 0.0 
2.458006821629e+00 -2.519670101670e+02 0.0 
0.0 0.0 -1.085803149637e+02 
-1.237205284441e+02 3.782641768842e+00 0.0 
3.782641768842e+00 -3.084386748167e+02 0.0 
0.0 0.0 -1.292477609782e+02 
-5.090130864072e+01 -3.530830785760e-01 0.0 
-3.530830785760e-01 -1.357148169820e+02 0.0 
0.0 0.0 -5.558483768683e+01 
-1.018208924789e+02 2.478926851229e+00 0.0 
2.478926851229e+00 -2.596257253739e+02 0.0 
0.0 0.0 -1.080339853559e+02 
-1.287381398013e+02 7.381660347646e+00 0.0 
7.381660347646e+00 -3.183295226113e+02 0.0 
0.0 0.0 -1.337202987238e+02 
-2.590868178020e+01 2.819973776714e+00 0.0 
2.819973776714e+00 -7.059468871953e+01 0.0 
0.0 0.0 -2.855101114992e+01 
-6.446875479020e+01 6.788212175672e-01 0.0 
6.788212175672e-01 -1.688434377745e+02 0.0 
0.0 0.0 -6.959365776940e+01 
-5.294523054050e+01 -9.170154407852e-01 0.0 
-9.170154407852e-01 -1.391152570260e+02 0.0 
0.0 0.0 -5.721814626994e+01 
-1.573702894682e+02 9.369654932456e+00 0.0 
9.369654932456e+00 -3.736401293536e+02 0.0 
0.0 0.0 -1.589031256465e+02 
-1.597976121427e+02 9.549037064943e+00 0.0 
9.549037064943e+00 -3.741944283330e+02 0.0 
0.0 0.0 -1.597976121427e+02 
-7.174666099657e+01 5.573186838868e-01 0.0 
5.573186838868e-01 -1.873628614856e+02 0.0 
0.0 0.0 -7.733285674464e+01 
-8.111003992596e+01 1.157709292945e+00 0.0 
1.157709292945e+00 -2.111519335716e+02 0.0 
0.0 0.0 -8.727859204927e+01 
-8.816488781563e+01 2.555961277522e+00 0.0 
2.555961277522e+00 -2.336158275970e+02 0.0 
0.0 0.0 -9.613421462379e+01 
-1.334346743106e+02 8.553279953514e+00 0.0 
8.553279953514e+00 -3.271091109653e+02 0.0 
0.0 0.0 -1.377631355828e+02 
-2.918206400177e+01 -2.274633846275e+00 0.0 
-2.274633846275e+00 -7.641709766646e+01 0.0 
0.0 0.0 -3.127974850047e+01 
-1.239307528511e+02 6.343574662904e+00 0.0 
6.343574662904e+00 -3.091668075415e+02 0.0 
0.0 0.0 -1.295292681178e+02 
-1.745484844993e+01 -9.167695905442e-01 0.0 
-9.167695905442e-01 -4.293192869021e+01 0.0 
0.0 0.0 -1.771603314204e+01 
-7.304558463516e+01 7.629704469333e-01 0.0 
7.629704469333e-01 -1.918287459640e+02 0.0 
0.0 0.0 -7.906229917974e+01 
-8.134309801419e+01 1.563528369213e+00 0.0 
1.563528369213e+00 -2.130258785246e+02 0.0 
0.0 0.0 -8.791069296165e+01 
-1.031489059112e+01 -4.902435271889e-01 0.0 
-4.902435271889e-01 -2.554718340319e+01 0.0 
0.0 0.0 -1.073921736806e+01 
-6.823482709680e+01 -8.229036514537e-01 0.0 
-8.229036514537e-01 -1.780217584066e+02 0.0 
0.0 0.0 -7.347697565102e+01 
-1.173066487533e+02 5.347218213967e+00 0.0 
5.347218213967e+00 -2.636803389479e+02 0.0 
0.0 0.0 -1.138960963103e+02 
-3.998817419905e+00 -2.403410108712e-01 0.0 
-2.403410108712e-01 -7.797079333715e+00 0.0 
0.0 0.0 -3.138769026086e+00 
-6.295649726507e+01 8.250013041946e-01 0.0 
8.250013041946e-01 -1.265567370438e+02 0.0 
0.0 0.0 -5.645397029267e+01 
-6.320749327680e+01 1.125064203446e+00 0.0 
1.125064203446e+00 -1.271068977958e+02 0.0 
0.0 0.0 -5.669431732179e+01 
-1.015338998360e+02 9.680907635536e+00 0.0 
9.680907635536e+00 -2.590421146168e+02 0.0 
0.0 0.0 -1.077728043358e+02 
-5.298770905403e+01 5.776407999633e-01 0.0 
5.776407999633e-01 -1.390547115586e+02 0.0 
0.0 0.0 -5.721272618379e+01 
-4.675367290972e+01 -5.757620840645e-01 0.0 
-5.757620840645e-01 -1.321194456569e+02 0.0 
0.0 0.0 -5.326193556999e+01 
-2.537789212982e+01 1.216621747407e+01 0.0 
1.216621747407e+01 -6.571048739027e+01 0.0 
0.0 0.0 -2.692651385603e+01 
-1.377735273864e+02 3.950175992803e+00 0.0 
3.950175992803e+00 -3.358242703317e+02 0.0 
0.0 0.0 -1.416793393154e+02 
-1.366459605406e+02 1.445073355668e+01 0.0 
1.445073355668e+01 -3.178215896255e+02 0.0 
0.0 0.0 -1.359402650498e+02 
-1.072915307111e+02 3.188125785400e+00 0.0 
3.188125785400e+00 -2.393758558946e+02 0.0 
0.0 0.0 -1.036002159817e+02 
-3.433617164365e+01 1.596235101240e+01 0.0 
1.596235101240e+01 -7.449193573537e+01 0.0 
0.0 0.0 -3.224843221371e+01 
-1.957244171031e+01 -2.367711650351e+00 0.0 
-2.367711650351e+00 -4.763314560611e+01 0.0 
0.0 0.0 -1.976167619493e+01 
-6.667446154614e+01 7.772976706592e+00 0.0 
7.772976706592e+00 -1.279553944915e+02 0.0 
0.0 0.0 -5.798895681129e+01 
-6.142964029593e+01 2.356930247106e-01 0.0 
2.356930247106e-01 -1.267421247843e+02 0.0 
0.0 0.0 -5.605152952406e+01 
-6.075722893722e+01 3.325906947154e-01 0.0 
3.325906947154e-01 -1.264860899391e+02 0.0 
0.0 0.0 -5.577299566289e+01 
-5.344103619376e+00 -3.090043028286e-01 0.0 
-3.090043028286e-01 -8.989984718661e+00 0.0 
0.0 0.0 -4.869113952051e+00 
-1.052701554679e+01 -5.803688107321e-01 0.0 
-5.803688107321e-01 -2.540145621909e+01 0.0 
0.0 0.0 -1.079987089972e+01 
-1.571545603907e+01 -1.622472357709e-01 0.0 
-1.622472357709e-01 -4.206478838800e+01 0.0 
0.0 0.0 -1.693407332812e+01 
-3.905393129996e+01 -2.063913319964e+00 0.0 
-2.063913319964e+00 -1.045139048750e+02 0.0 
0.0 0.0 -4.267035085250e+01 
-1.036530150101e+01 -3.714248300182e-01 0.0 
-3.714248300182e-01 -2.584095903109e+01 0.0 
0.0 0.0 -1.046187815963e+01 
-7.567480899467e+01 -7.222156796182e-01 0.0 
-7.222156796182e-01 -1.975693960747e+02 0.0 
0.0 0.0 -8.157326152080e+01 
-1.281219738867e+01 -5.546899377500e-01 0.0 
-5.546899377500e-01 -8.872103310738e+00 0.0 
0.0 0.0 -7.073625574976e+00 
-4.608126637765e+01 -1.844028693722e+00 0.0 
-1.844028693722e+00 -1.240587236913e+02 0.0 
0.0 0.0 -5.064199702069e+01 
-8.738566202964e+01 1.840179181864e-01 0.0 
1.840179181864e-01 -1.931462010751e+02 0.0 
0.0 0.0 -8.375955893141e+01 
-6.190015168184e+01 5.262641961549e-01 0.0 
5.262641961549e-01 -1.264002389475e+02 0.0 
0.0 0.0 -5.609011718880e+01 
-1.237975537518e+02 1.289906325161e+01 0.0 
1.289906325161e+01 -2.768205863374e+02 0.0 
0.0 0.0 -1.197854420268e+02 
-1.055014690350e+02 3.814025293101e+00 0.0 
3.814025293101e+00 -2.713686044293e+02 0.0 
0.0 0.0 -1.126610220393e+02 
-7.996885826970e+01 -4.749687080695e-02 0.0 
-4.749687080695e-02 -1.754779203378e+02 0.0 
0.0 0.0 -7.623403358224e+01 
-5.653058834560e+01 -7.852666976624e-01 0.0 
-7.852666976624e-01 -1.485049769839e+02 0.0 
0.0 0.0 -6.111066959885e+01 
-1.695510435711e+01 -4.127036412432e-01 0.0 
-4.127036412432e-01 -4.268579291015e+01 0.0 
0.0 0.0 -1.749226918018e+01 
-1.312663457114e+02 3.356770315672e+00 0.0 
3.356770315672e+00 -3.076214733266e+02 0.0 
0.0 0.0 -1.312663457114e+02 
-1.327581608031e+02 3.632141412301e+00 0.0 
3.632141412301e+00 -3.083069114949e+02 0.0 
0.0 0.0 -1.319195216894e+02 
-7.811484347673e+01 3.110223858604e-01 0.0 
3.110223858604e-01 -1.657892400138e+02 0.0 
0.0 0.0 -7.277122504715e+01 
-6.133639922373e+01 3.400930363109e-01 0.0 
3.400930363109e-01 -1.262702307263e+02 0.0 
0.0 0.0 -5.588198898501e+01 
-5.746706542337e+01 1.617350807921e-01 0.0 
1.617350807921e-01 -1.505540075352e+02 0.0 
0.0 0.0 -6.200632188758e+01 
-1.324911753111e+02 2.630132001276e+00 0.0 
2.630132001276e+00 -3.078827940768e+02 0.0 
0.0 0.0 -1.317121908164e+02 
-4.372179526051e+01 -6.946486447049e-01 0.0 
-6.946486447049e-01 -1.161915379170e+02 0.0 
0.0 0.0 -4.757399995324e+01 
-6.245784943650e+01 8.193200865145e-01 0.0 
8.193200865145e-01 -1.265174407904e+02 0.0 
0.0 0.0 -5.629258706807e+01 
-6.209056649459e+01 4.290662933228e-01 0.0 
4.290662933228e-01 -1.262226786806e+02 0.0 
0.0 0.0 -5.609397355255e+01 
-6.065414640172e+01 3.405539930384e+00 0.0 
3.405539930384e+00 -1.164955925710e+02 0.0 
0.0 0.0 -5.274492169183e+01 
-1.330392997467e+02 7.330679047324e+00 0.0 
7.330679047324e+00 -3.117583660757e+02 0.0 
0.0 0.0 -1.330392997467e+02 
-1.333228070622e+02 2.999917475017e+00 0.0 
2.999917475017e+00 -3.085377737376e+02 0.0 
0.0 0.0 -1.321581742400e+02 
-1.065439122549e+01 -5.033754798890e-01 0.0 
-5.033754798890e-01 -2.564073036504e+01 0.0 
0.0 0.0 -1.048853647716e+01 
-5.110612253286e+00 -2.136104415778e-01 0.0 
-2.136104415778e-01 -9.096822583628e+00 0.0 
0.0 0.0 -4.839485258371e+00 
-2.269310334748e+01 -2.136526247078e+00 0.0 
-2.136526247078e+00 -5.718069207271e+01 0.0 
0.0 0.0 -2.356213862606e+01 
-8.019930540729e+01 2.526526487054e-01 0.0 
2.526526487054e-01 -2.122616004258e+02 0.0 
0.0 0.0 -8.733827174993e+01 
-1.465683770371e+02 -3.537328534303e-01 0.0 
-3.537328534303e-01 -3.518994214083e+02 0.0 
0.0 0.0 -1.491403395336e+02 
-1.583822949984e+01 -3.599493129373e-01 0.0 
-3.599493129373e-01 -7.185130695939e+00 0.0 
0.0 0.0 -6.507008058734e+00 
-1.042153941109e+02 1.118777784731e+00 0.0 
1.118777784731e+00 -2.356013930141e+02 0.0 
0.0 0.0 -1.015450361375e+02 
-1.211946172214e+01 -6.054008870972e-01 0.0 
-6.054008870972e-01 -9.025747233928e+00 0.0 
0.0 0.0 -6.924512727557e+00 
-1.005898916362e+02 6.970200417016e+00 0.0 
6.970200417016e+00 -2.602250544988e+02 0.0 
0.0 0.0 -1.078444838405e+02 
-1.316099788295e+01 -6.256586822965e-01 0.0 
-6.256586822965e-01 -8.206982328269e+00 0.0 
0.0 0.0 -6.010394063365e+00 
-1.451136370246e+01 -5.506362064125e-01 0.0 
-5.506362064125e-01 -8.134735742002e+00 0.0 
0.0 0.0 -6.393829833340e+00 
-9.616861759290e+01 5.896569240722e+00 0.0 
5.896569240722e+00 -2.514820258525e+02 0.0 
0.0 0.0 -1.038951930336e+02 
-1.413692984747e+02 1.268007731874e+00 0.0 
1.268007731874e+00 -3.418621888787e+02 0.0 
0.0 0.0 -1.445694462060e+02 
-8.709573506394e+01 7.284982568240e-01 0.0 
7.284982568240e-01 -1.919315298655e+02 0.0 
0.0 0.0 -8.330817947884e+01 
-7.065579506844e+01 9.367229213189e+00 0.0 
9.367229213189e+00 -1.386844511927e+02 0.0 
0.0 0.0 -6.240207387834e+01 
-1.007807694744e+01 -2.681505556876e-01 0.0 
-2.681505556876e-01 -2.553830716849e+01 0.0 
0.0 0.0 -1.066740935927e+01 
-1.058890332939e+02 2.352413553386e+00 0.0 
2.352413553386e+00 -2.682145439650e+02 0.0 
0.0 0.0 -1.118310731776e+02 
-1.306013300306e+02 1.111495315695e+00 0.0 
1.111495315695e+00 -3.060697700714e+02 0.0 
0.0 0.0 -1.306013300306e+02 
-1.320833785680e+02 1.773763295994e+00 0.0 
1.773763295994e+00 -3.073399095628e+02 0.0 
0.0 0.0 -1.314269864392e+02 
-6.144119154973e+01 3.504246069363e-01 0.0 
3.504246069363e-01 -1.263017372668e+02 0.0 
0.0 0.0 -5.592287864497e+01 
-1.051121970987e+02 8.024714609358e+00 0.0 
8.024714609358e+00 -2.687443038531e+02 0.0 
0.0 0.0 -1.117569502855e+02 
-1.313042862939e+02 2.662981642461e+00 0.0 
2.662981642461e+00 -3.077100013525e+02 0.0 
0.0 0.0 -1.313042862939e+02 
-1.110753757931e+02 1.437061425070e+01 0.0 
1.437061425070e+01 -2.610522902345e+02 0.0 
0.0 0.0 -1.112382998083e+02 
-1.624013572404e+01 -4.591774320982e-01 0.0 
-4.591774320982e-01 -4.154015679044e+01 0.0 
0.0 0.0 -1.693408775434e+01 
-1.008602271300e+01 -2.421858773337e-01 0.0 
-2.421858773337e-01 -2.562739861031e+01 0.0 
0.0 0.0 -1.031402639700e+01 
-9.686430179005e+00 -6.084005590085e-02 0.0 
-6.084005590085e-02 -2.512938842235e+01 0.0 
0.0 0.0 -1.028601309443e+01 
-6.427708925106e+01 -7.477749678483e-01 0.0 
-7.477749678483e-01 -1.681855797593e+02 0.0 
0.0 0.0 -6.933880070311e+01 
-1.612377638393e+02 2.608348613216e+00 0.0 
2.608348613216e+00 -3.813130947179e+02 0.0 
0.0 0.0 -1.623652575671e+02 
-1.236917323261e+02 1.000403064520e+00 0.0 
1.000403064520e+00 -2.857657637028e+02 0.0 
0.0 0.0 -1.224372488087e+02 
-4.420342029888e+00 -4.040322256066e-02 0.0 
-4.040322256066e-02 -9.069625984091e+00 0.0 
0.0 0.0 -4.615668515865e+00 
-7.603497785323e+01 6.920240117024e-01 0.0 
6.920240117024e-01 -1.977266677678e+02 0.0 
0.0 0.0 -8.172849368630e+01 
-1.637491093733e+02 1.699569294972e+00 0.0 
1.699569294972e+00 -3.834145885377e+02 0.0 
0.0 0.0 -1.637491093733e+02 
-1.605728042186e+02 2.615854482705e+00 0.0 
2.615854482705e+00 -3.805170604012e+02 0.0 
0.0 0.0 -1.619269593860e+02 
-1.580006034171e+02 8.534200779846e+00 0.0 
8.534200779846e+00 -3.748922120313e+02 0.0 
0.0 0.0 -1.594678446345e+02 
-9.636535362593e+01 -7.075294716001e-01 0.0 
-7.075294716001e-01 -2.160483586275e+02 0.0 
0.0 0.0 -9.332411367602e+01 
-1.083378611271e+02 9.078871020297e-01 0.0 
9.078871020297e-01 -2.458593363081e+02 0.0 
0.0 0.0 -1.058591592306e+02 
-1.628542697449e+02 2.347454320204e+00 0.0 
2.347454320204e+00 -3.813266294047e+02 0.0 
0.0 0.0 -1.628542697449e+02 
-1.630346871690e+02 3.113126499816e+00 0.0 
3.113126499816e+00 -3.817476033944e+02 0.0 
0.0 0.0 -1.630346871690e+02 
-1.043393044486e+02 -5.052060163153e-01 0.0 
-5.052060163153e-01 -2.357363060654e+02 0.0 
0.0 0.0 -1.016226831542e+02 
-2.836232237407e+00 -3.266800198453e-01 0.0 
-3.266800198453e-01 -6.793859961347e+00 0.0 
0.0 0.0 -2.489027659626e+00 
-6.000249277015e+01 9.443186701455e-02 0.0 
9.443186701455e-02 -1.256605258497e+02 0.0 
0.0 0.0 -5.529890558595e+01 
-6.110904829874e+01 1.552000245507e-01 0.0 
1.552000245507e-01 -1.265516375148e+02 0.0 
0.0 0.0 -5.589820574407e+01 
-4.752440643672e+00 -1.243210135355e-01 0.0 
-1.243210135355e-01 -9.067331063879e+00 0.0 
0.0 0.0 -4.722083254617e+00 
-1.625517007144e+02 5.284359690676e+00 0.0 
5.284359690676e+00 -3.806206350004e+02 0.0 
0.0 0.0 -1.625517007144e+02 
-1.580662816835e+02 7.499336174789e+00 0.0 
7.499336174789e+00 -3.756832412771e+02 0.0 
0.0 0.0 -1.597248568882e+02 
-1.611068357972e+02 6.875853221042e+00 0.0 
6.875853221042e+00 -3.772492835268e+02 0.0 
0.0 0.0 -1.611068357972e+02 
-3.166869032019e+00 -8.207893502355e-02 0.0 
-8.207893502355e-02 -7.923802145844e+00 0.0 
0.0 0.0 -2.927201353359e+00 
-3.489220647140e+00 -2.162079690839e-01 0.0 
-2.162079690839e-01 -8.027070688196e+00 0.0 
0.0 0.0 -3.054887400601e+00 
-1.602972667494e+02 8.644822830603e+00 0.0 
8.644822830603e+00 -3.753602890819e+02 0.0 
0.0 0.0 -1.602972667494e+02 
-1.608176188886e+02 7.831571374419e+00 0.0 
7.831571374419e+00 -3.765744440733e+02 0.0 
0.0 0.0 -1.608176188886e+02 
-9.220690728517e+01 9.529382478659e-01 0.0 
9.529382478659e-01 -2.061023387720e+02 0.0 
0.0 0.0 -8.909277381715e+01 
-5.931631778998e+01 -1.076683129139e-01 0.0 
-1.076683129139e-01 -1.253118736115e+02 0.0 
0.0 0.0 -5.498845742044e+01 
-1.005147658612e+02 9.451441498472e-01 0.0 
9.451441498472e-01 -2.259727264302e+02 0.0 
0.0 0.0 -9.754624768743e+01 
-7.612586203693e+01 9.066011752629e-01 0.0 
9.066011752629e-01 -1.666542366420e+02 0.0 
0.0 0.0 -7.243402960369e+01 
-5.939486612757e+01 -5.097840052735e-02 0.0 
-5.097840052735e-02 -1.254183655645e+02 0.0 
0.0 0.0 -5.504396950762e+01 
-5.469675285409e+00 -4.279827184690e-01 0.0 
-4.279827184690e-01 -7.603813534881e+00 0.0 
0.0 0.0 -3.522046646087e+00 
-7.404705038359e+00 -2.368192668797e-01 0.0 
-2.368192668797e-01 -8.292520456627e+00 0.0 
0.0 0.0 -4.309167648496e+00 
-8.248397020536e+00 -3.833308276857e-01 0.0 
-3.833308276857e-01 -7.869659068391e+00 0.0 
0.0 0.0 -4.435416826678e+00 
-9.330533733765e+00 -4.390053641028e-01 0.0 
-4.390053641028e-01 -7.998417110226e+00 0.0 
0.0 0.0 -4.798685253197e+00 
-8.002563991934e+01 -8.832666659715e-01 0.0 
-8.832666659715e-01 -2.077376643451e+02 0.0 
0.0 0.0 -8.592899127933e+01 
-7.209991282753e+01 -7.718768910396e-01 0.0 
-7.718768910396e-01 -1.878787561453e+02 0.0 
0.0 0.0 -7.759360069185e+01 
-7.745629963629e+00 -4.202991065600e-01 0.0 
-4.202991065600e-01 -9.002950029424e+00 0.0 
0.0 0.0 -5.601601468851e+00 
-1.050556627565e+02 -8.057606061499e-01 0.0 
-8.057606061499e-01 -2.654063364893e+02 0.0 
0.0 0.0 -1.107385997737e+02 
-8.772399814018e+00 -5.160360545235e-01 0.0 
-5.160360545235e-01 -8.970876227759e+00 0.0 
0.0 0.0 -5.894821985306e+00 
-1.320417994069e+02 5.714812573449e+00 0.0 
5.714812573449e+00 -3.094308652827e+02 0.0 
0.0 0.0 -1.320417994069e+02 
-1.309571340382e+02 2.208140998212e+00 0.0 
2.208140998212e+00 -3.068999794225e+02 0.0 
0.0 0.0 -1.309571340382e+02 
-1.313164801494e+02 3.870840798352e+00 0.0 
3.870840798352e+00 -3.077384536818e+02 0.0 
0.0 0.0 -1.313164801494e+02 
-2.644522627145e+01 -9.477250370760e-01 0.0 
-9.477250370760e-01 -6.886687576765e+01 0.0 
0.0 0.0 -2.819363061173e+01 
-4.903312126174e+01 -8.058830327899e-01 0.0 
-8.058830327899e-01 -1.287264602874e+02 0.0 
0.0 0.0 -5.292787446475e+01 
-1.306606183070e+02 1.804738589425e+00 0.0 
1.804738589425e+00 -3.062081093831e+02 0.0 
0.0 0.0 -1.306606183070e+02 
-1.324916549501e+02 -6.750317416416e-01 0.0 
-6.750317416416e-01 -3.237095050149e+02 0.0 
0.0 0.0 -1.364603479895e+02 
-1.315098730943e+02 1.491777610008e+00 0.0 
1.491777610008e+00 -3.081897038868e+02 0.0 
0.0 0.0 -1.315098730943e+02 
-1.420113176348e+02 -7.200373811090e-01 0.0 
-7.200373811090e-01 -3.429519221838e+02 0.0 
0.0 0.0 -1.450889719456e+02 
-1.518213345567e+02 -8.012726219592e-01 0.0 
-8.012726219592e-01 -3.621227857473e+02 0.0 
0.0 0.0 -1.537832360912e+02 
-6.817442786660e+01 7.104740404950e-01 0.0 
7.104740404950e-01 -1.779966884171e+02 0.0 
0.0 0.0 -7.345133488511e+01 
-1.320462205206e+02 2.171520795567e+00 0.0 
2.171520795567e+00 -3.070716060058e+02 0.0 
0.0 0.0 -1.313353479579e+02 
-1.319469964582e+02 1.187548689441e+00 0.0 
1.187548689441e+00 -3.073719451687e+02 0.0 
0.0 0.0 -1.313956824881e+02 
-1.369033026410e+02 1.216378473028e+00 0.0 
1.216378473028e+00 -3.323835986420e+02 0.0 
0.0 0.0 -1.403860703849e+02 
-1.467499962342e+02 1.271438368223e+00 0.0 
1.271438368223e+00 -3.521085998274e+02 0.0 
0.0 0.0 -1.492575788185e+02 
-1.140804635233e+02 1.959927505199e+00 0.0 
1.959927505199e+00 -2.853059115027e+02 0.0 
0.0 0.0 -1.194159125078e+02 
-1.126135253638e+01 -6.136562936351e-01 0.0 
-6.136562936351e-01 -8.937514752073e+00 0.0 
0.0 0.0 -6.636136369414e+00 
-6.873594751375e+01 5.487698735258e-01 0.0 
5.487698735258e-01 -1.809884320951e+02 0.0 
0.0 0.0 -7.451731388266e+01 
-1.090129976680e+01 -4.747650358040e-01 0.0 
-4.747650358040e-01 -2.535772881986e+01 0.0 
0.0 0.0 -1.047770857600e+01 
-1.383849854893e+02 5.235372325582e+00 0.0 
5.235372325582e+00 -3.362710156467e+02 0.0 
0.0 0.0 -1.419968003408e+02 
-7.213891064219e+01 -6.026678820491e-01 0.0 
-6.026678820491e-01 -1.911482894738e+02 0.0 
0.0 0.0 -7.858616003480e+01 
-1.275736393591e+02 1.404241066395e+00 0.0 
1.404241066395e+00 -3.143833603297e+02 0.0 
0.0 0.0 -1.321870999066e+02 
-3.666376157101e+01 -9.197047017097e-01 0.0 
-9.197047017097e-01 -9.661251240843e+01 0.0 
0.0 0.0 -3.958288219383e+01 
-1.681633932133e+01 -1.353481210693e+00 0.0 
-1.353481210693e+00 -4.149505293588e+01 0.0 
0.0 0.0 -1.709341767716e+01 
-1.372749679697e+02 3.041128350493e+00 0.0 
3.041128350493e+00 -3.336336678159e+02 0.0 
0.0 0.0 -1.408725907357e+02 
-7.695947650635e+01 8.615363967748e-01 0.0 
8.615363967748e-01 -2.004523336062e+02 0.0 
0.0 0.0 -8.282354303375e+01 
-6.011705044780e+01 -8.975292901183e-01 0.0 
-8.975292901183e-01 -1.584156390574e+02 0.0 
0.0 0.0 -6.515980685156e+01 
-1.280299720608e+02 2.779043476790e+00 0.0 
2.779043476790e+00 -3.148891965174e+02 0.0 
0.0 0.0 -1.324757505735e+02 
-1.151117228650e+02 -1.667932458480e-02 0.0 
-1.667932458480e-02 -2.636115994577e+02 0.0 
0.0 0.0 -1.132169966968e+02 
-6.048608331098e+01 6.651082376242e-01 0.0 
6.651082376242e-01 -1.585315298139e+02 0.0 
0.0 0.0 -6.530528393745e+01 
-1.155929175065e+02 7.015903209891e+00 0.0 
7.015903209891e+00 -2.909980330402e+02 0.0 
0.0 0.0 -1.215772851640e+02 
-1.010761383567e+02 1.941790568754e+00 0.0 
1.941790568754e+00 -2.604952087952e+02 0.0 
0.0 0.0 -1.080714041456e+02 
-1.135408610114e+02 5.578108863534e-01 0.0 
5.578108863534e-01 -2.847676952814e+02 0.0 
0.0 0.0 -1.190925668878e+02 
-1.177885941440e+02 3.690031739060e-01 0.0 
3.690031739060e-01 -2.935498818071e+02 0.0 
0.0 0.0 -1.230015427853e+02 
-5.174502119382e+01 8.270066656516e+00 0.0 
8.270066656516e+00 -1.470736724198e+02 0.0 
0.0 0.0 -5.924560808408e+01 
-6.262872690148e+01 8.661615655563e+00 0.0 
8.661615655563e+00 -1.189308738203e+02 0.0 
0.0 0.0 -5.406788021652e+01 
-7.012751755725e+01 1.475029264290e+01 0.0 
1.475029264290e+01 -1.660345896691e+02 0.0 
0.0 0.0 -7.044863216790e+01 
-1.051164767983e+02 9.682827127188e-01 0.0 
9.682827127188e-01 -2.675817055815e+02 0.0 
0.0 0.0 -1.114094547140e+02 
-1.323079505298e+02 2.488810542519e+00 0.0 
2.488810542519e+00 -3.235376806665e+02 0.0 
0.0 0.0 -1.363536893589e+02 
-1.220867907387e+02 4.855088596683e-02 0.0 
4.855088596683e-02 -3.024432040559e+02 0.0 
0.0 0.0 -1.269589984384e+02 
-3.682951710301e+01 -2.155223913740e+00 0.0 
-2.155223913740e+00 -9.993291431183e+01 0.0 
0.0 0.0 -4.062872942445e+01 
-1.150135078003e+02 4.891574328342e-01 0.0 
4.891574328342e-01 -2.625145983012e+02 0.0 
0.0 0.0 -1.128584318305e+02 
-1.069869527851e+02 3.349108838918e-01 0.0 
3.349108838918e-01 -2.424057516328e+02 0.0 
0.0 0.0 -1.044178113254e+02 
-7.066918981142e+01 -6.324055323625e-01 0.0 
-6.324055323625e-01 -1.520328356964e+02 0.0 
0.0 0.0 -6.641060765235e+01 
-1.097081581725e+02 1.558616405293e+00 0.0 
1.558616405293e+00 -2.780280170182e+02 0.0 
0.0 0.0 -1.159208525572e+02 
-1.093332368298e+02 7.814947757603e-01 0.0 
7.814947757603e-01 -2.762107603805e+02 0.0 
0.0 0.0 -1.152631991631e+02 
-1.155842098611e+02 1.718401231808e+00 0.0 
1.718401231808e+00 -2.645110156802e+02 0.0 
0.0 0.0 -1.136285676624e+02 
-1.111730791134e+02 2.724993625295e-01 0.0 
2.724993625295e-01 -2.532027663199e+02 0.0 
0.0 0.0 -1.089127536300e+02 
-9.793064941357e+01 3.388694086412e+00 0.0 
3.388694086412e+00 -2.523934269534e+02 0.0 
0.0 0.0 -1.046972229101e+02 
-1.416990915846e+02 2.641074306827e+00 0.0 
2.641074306827e+00 -3.421794899862e+02 0.0 
0.0 0.0 -1.447635744713e+02 
-1.062783792629e+02 1.499917120523e+00 0.0 
1.499917120523e+00 -2.386600237000e+02 0.0 
0.0 0.0 -1.030815208889e+02 
-1.223766006547e+02 1.400165565216e+00 0.0 
1.400165565216e+00 -3.025655913895e+02 0.0 
0.0 0.0 -1.270826576132e+02 
-1.434305804204e+02 5.006211974171e+00 0.0 
5.006211974171e+00 -3.459717688031e+02 0.0 
0.0 0.0 -1.464207047671e+02 
-1.153822645026e+02 2.315344845152e+00 0.0 
2.315344845152e+00 -2.631038889218e+02 0.0 
0.0 0.0 -1.131458460273e+02 
-9.580290867856e+01 1.948537497472e+00 0.0 
1.948537497472e+00 -2.122417499289e+02 0.0 
0.0 0.0 -9.201339758223e+01 
-1.110948901644e+02 5.998191074582e+00 0.0 
5.998191074582e+00 -2.816938309476e+02 0.0 
0.0 0.0 -1.174366163336e+02 
-3.771311511293e+01 -1.540480848124e+00 0.0 
-1.540480848124e+00 -9.953602333744e+01 0.0 
0.0 0.0 -4.077474153511e+01 
-3.402505229955e+01 -2.121517753571e+00 0.0 
-2.121517753571e+00 -9.208845936002e+01 0.0 
0.0 0.0 -3.743405349787e+01 
-1.981830710669e+01 -8.229227385963e-01 0.0 
-8.229227385963e-01 -4.803871128488e+01 0.0 
0.0 0.0 -1.995710551747e+01 
-1.698869906296e+01 -1.379662766173e+00 0.0 
-1.379662766173e+00 -2.562513930295e+01 0.0 
0.0 0.0 -1.238415150977e+01 
-1.116732859173e+02 1.910161464962e+00 0.0 
1.910161464962e+00 -2.536439781984e+02 0.0 
0.0 0.0 -1.091951792347e+02 
-1.363585915238e+02 6.648860378818e-01 0.0 
6.648860378818e-01 -3.315760585923e+02 0.0 
0.0 0.0 -1.399803950348e+02 
-1.599430947516e+01 -1.372333329721e+00 0.0 
-1.372333329721e+00 -2.525712434568e+01 0.0 
0.0 0.0 -1.197543014625e+01 
-1.200459050411e+02 9.581922601234e+00 0.0 
9.581922601234e+00 -2.649414411976e+02 0.0 
0.0 0.0 -1.150962038716e+02 
-7.487400637402e+01 -3.822815708016e-01 0.0 
-3.822815708016e-01 -1.610811068499e+02 0.0 
0.0 0.0 -7.038653396717e+01 
-1.238235615791e+02 3.098376796825e+00 0.0 
3.098376796825e+00 -3.063681469617e+02 0.0 
0.0 0.0 -1.286575125622e+02 
-1.268932465496e+02 5.194679113628e-01 0.0 
5.194679113628e-01 -3.125047954719e+02 0.0 
0.0 0.0 -1.314194126064e+02 
-5.021497128002e+01 -6.631007952620e-01 0.0 
-6.631007952620e-01 -1.404423082996e+02 0.0 
0.0 0.0 -5.679718387390e+01 
-1.272034610933e+02 1.945287790342e+00 0.0 
1.945287790342e+00 -3.129299787463e+02 0.0 
0.0 0.0 -1.316400319519e+02 
-7.114271787365e+01 1.426898151716e+00 0.0 
1.426898151716e+00 -1.521704082831e+02 0.0 
0.0 0.0 -6.659393784703e+01 
-1.061779480841e+02 1.218312055690e+01 0.0 
1.218312055690e+01 -2.637652956264e+02 0.0 
0.0 0.0 -1.105829731131e+02 
-1.479032001648e+02 2.980449275208e+00 0.0 
2.980449275208e+00 -3.547351583848e+02 0.0 
0.0 0.0 -1.503915075649e+02 
-3.648678753869e+01 -9.740429904285e-01 0.0 
-9.740429904285e-01 -9.619371396390e+01 0.0 
0.0 0.0 -3.940415045078e+01 
-1.433348419793e+02 6.047031708862e+00 0.0 
6.047031708862e+00 -3.463197410927e+02 0.0 
0.0 0.0 -1.464963749216e+02 
-9.992156255049e+01 1.786642063236e+00 0.0 
1.786642063236e+00 -2.231408733448e+02 0.0 
0.0 0.0 -9.651873076860e+01 
-4.094400221361e+01 -1.379804036522e+00 0.0 
-1.379804036522e+00 -1.080686440289e+02 0.0 
0.0 0.0 -4.430379387275e+01 
-4.167807418866e+01 -8.334265844686e-01 0.0 
-8.334265844686e-01 -1.119581254947e+02 0.0 
0.0 0.0 -4.569085990500e+01 
-8.746444419079e+01 -5.114421506379e-01 0.0 
-5.114421506379e-01 -2.256907497713e+02 0.0 
0.0 0.0 -9.354655818861e+01 
-8.673711542141e+01 2.627837807880e-01 0.0 
2.627837807880e-01 -1.900938918899e+02 0.0 
0.0 0.0 -8.264930219339e+01 
-5.684295290985e+01 -1.340588076074e+00 0.0 
-1.340588076074e+00 -1.521568781227e+02 0.0 
0.0 0.0 -6.229994930975e+01 
-1.039861987556e+02 1.729463962267e+00 0.0 
1.729463962267e+00 -2.339357734699e+02 0.0 
0.0 0.0 -1.009765916676e+02 
-9.185148079832e+01 1.708091191636e+00 0.0 
1.708091191636e+00 -2.028007578390e+02 0.0 
0.0 0.0 -8.799567159120e+01 
-8.402981073614e+01 -1.772098952028e-01 0.0 
-1.772098952028e-01 -2.190988945212e+02 0.0 
0.0 0.0 -9.053861157721e+01 
-1.180451701259e+02 1.706232304555e+00 0.0 
1.706232304555e+00 -2.937957091500e+02 0.0 
0.0 0.0 -1.231522637828e+02 
-1.230538993742e+02 2.252709437947e+00 0.0 
2.252709437947e+00 -3.044492353880e+02 0.0 
0.0 0.0 -1.278509404287e+02 
-9.910419458090e+01 8.168257425125e-02 0.0 
8.168257425125e-02 -2.224469952150e+02 0.0 
0.0 0.0 -9.606535693876e+01 
-3.199952112716e+01 -5.361524524655e-01 0.0 
-5.361524524655e-01 -8.331748502771e+01 0.0 
0.0 0.0 -3.419510184646e+01 
-7.981325721791e+01 -4.748617230567e-01 0.0 
-4.748617230567e-01 -2.084416234860e+02 0.0 
0.0 0.0 -8.607646421118e+01 
-1.236195141790e+02 1.255872108482e+01 0.0 
1.255872108482e+01 -2.972270569350e+02 0.0 
0.0 0.0 -1.258539713342e+02 
-1.036645756993e+02 2.190529308021e+00 0.0 
2.190529308021e+00 -2.321323337548e+02 0.0 
0.0 0.0 -1.003390728362e+02 
-7.172021728411e+01 -8.821436369726e-01 0.0 
-8.821436369726e-01 -1.886941287612e+02 0.0 
0.0 0.0 -7.772430381361e+01 
-1.021493725547e+02 3.244851637873e+00 0.0 
3.244851637873e+00 -2.612488953162e+02 0.0 
0.0 0.0 -1.086194803613e+02 
-1.389760325700e+02 6.556906407942e+00 0.0 
6.556906407942e+00 -3.376447473266e+02 0.0 
0.0 0.0 -1.425862339690e+02 
-9.521526661630e+01 2.819139006071e-01 0.0 
2.819139006071e-01 -2.117134944523e+02 0.0 
0.0 0.0 -9.167862832058e+01 
-2.014816589206e+01 5.770877887823e-01 0.0 
5.770877887823e-01 -4.391093458241e+01 0.0 
0.0 0.0 -1.881773014234e+01 
-1.895230250046e+01 -5.582352520686e-01 0.0 
-5.582352520686e-01 -4.670325893963e+01 0.0 
0.0 0.0 -1.929666843203e+01 
-3.070357563679e+01 3.921511832542e+00 0.0 
3.921511832542e+00 -8.801802227986e+01 0.0 
0.0 0.0 -3.521647937499e+01 
-1.319279963852e+02 1.035803017743e+00 0.0 
1.035803017743e+00 -3.230624146885e+02 0.0 
0.0 0.0 -1.360971233221e+02 
-9.091402077512e+01 3.057746132323e-01 0.0 
3.057746132323e-01 -2.008896175321e+02 0.0 
0.0 0.0 -8.714109149217e+01 
-9.630484042560e+01 1.171264322581e+00 0.0 
1.171264322581e+00 -2.453426398024e+02 0.0 
0.0 0.0 -1.020942440684e+02 
-7.878701827634e+01 -2.870692983551e-02 0.0 
-2.870692983551e-02 -1.704754945280e+02 0.0 
0.0 0.0 -7.437875384129e+01 
-1.296702118213e+02 8.695619504673e+00 0.0 
8.695619504673e+00 -3.189975166385e+02 0.0 
0.0 0.0 -1.342003185379e+02 
-8.794034571893e+01 -1.915296134736e-01 0.0 
-1.915296134736e-01 -2.277244378561e+02 0.0 
0.0 0.0 -9.429943507251e+01 
-1.226573473493e+02 8.266056401950e-01 0.0 
8.266056401950e-01 -3.039683694105e+02 0.0 
0.0 0.0 -1.275877150279e+02 
-3.825264540030e+01 -1.184491913004e-01 0.0 
-1.184491913004e-01 -1.000940894931e+02 0.0 
0.0 0.0 -4.110402046801e+01 
-1.428087581489e+02 3.408554582083e+00 0.0 
3.408554582083e+00 -3.458003207924e+02 0.0 
0.0 0.0 -1.461827236824e+02 
-8.486874072104e+01 1.209916658467e+00 0.0 
1.209916658467e+00 -2.197671613961e+02 0.0 
0.0 0.0 -9.099077063515e+01 
-4.138553867766e+01 1.562713755117e-01 0.0 
1.562713755117e-01 -1.085977746794e+02 0.0 
0.0 0.0 -4.459499400712e+01 
-8.054274251570e+01 9.957901097631e-01 0.0 
9.957901097631e-01 -2.090945626278e+02 0.0 
0.0 0.0 -8.649119154304e+01 
-6.042884983697e+01 -1.163939145154e+00 0.0 
-1.163939145154e+00 -1.607642183509e+02 0.0 
0.0 0.0 -6.595792045637e+01 
-4.701173594210e+01 -4.873463182244e-01 0.0 
-4.873463182244e-01 -1.247563767570e+02 0.0 
0.0 0.0 -5.113043380972e+01 
-9.569617119497e+01 -3.162214344213e-01 0.0 
-3.162214344213e-01 -2.446737911139e+02 0.0 
0.0 0.0 -1.017109886927e+02 
-6.722829562966e+00 -3.989386617561e-01 0.0 
-3.989386617561e-01 -9.275621988965e+00 0.0 
0.0 0.0 -5.395204692302e+00 
-7.716415759162e+00 -4.322813184877e-01 0.0 
-4.322813184877e-01 -9.522061885667e+00 0.0 
0.0 0.0 -5.781551027454e+00 
-1.099669491352e+02 2.182718929952e+00 0.0 
2.182718929952e+00 -2.767875049765e+02 0.0 
0.0 0.0 -1.156263362335e+02 
-3.524066864847e+01 -3.891503505728e-01 0.0 
-3.891503505728e-01 -9.188160658975e+01 0.0 
0.0 0.0 -3.773668257147e+01 
-1.105476778150e+02 2.930690524829e+00 0.0 
2.930690524829e+00 -2.786856112770e+02 0.0 
0.0 0.0 -1.163699867276e+02 
-1.063579381165e+02 3.091282660055e+00 0.0 
3.091282660055e+00 -2.700195789082e+02 0.0 
0.0 0.0 -1.125132551074e+02 
-6.451617605488e+01 -7.503363640935e-01 0.0 
-7.503363640935e-01 -1.736929367734e+02 0.0 
0.0 0.0 -7.106273384847e+01 
-4.021403999686e+01 -1.191647782233e+00 0.0 
-1.191647782233e+00 -1.132301826988e+02 0.0 
0.0 0.0 -4.563326680871e+01 
-1.111534811995e+02 3.100264492352e+00 0.0 
3.100264492352e+00 -2.502270195043e+02 0.0 
0.0 0.0 -1.080141502111e+02 
-1.725438392295e+01 4.609618433331e+00 0.0 
4.609618433331e+00 -4.287199456548e+01 0.0 
0.0 0.0 -1.763791354653e+01 
-6.402263306127e+01 -9.726106492479e-01 0.0 
-9.726106492479e-01 -1.695574002632e+02 0.0 
0.0 0.0 -6.967400999735e+01 
-1.342182707092e+02 9.687511797034e+00 0.0 
9.687511797034e+00 -3.272948764727e+02 0.0 
0.0 0.0 -1.380539441546e+02 
-3.034491781433e+01 -1.583013018267e+00 0.0 
-1.583013018267e+00 -7.931439610343e+01 0.0 
0.0 0.0 -3.249779417533e+01 
-8.365398848178e+01 1.614655552746e+00 0.0 
1.614655552746e+00 -1.817529131851e+02 0.0 
0.0 0.0 -7.922207050006e+01 
-7.548073428058e+01 1.422008922419e+00 0.0 
1.422008922419e+00 -1.616842626990e+02 0.0 
0.0 0.0 -7.074949909386e+01 
-2.983140515836e+01 -1.016986405106e+00 0.0 
-1.016986405106e+00 -7.699562367042e+01 0.0 
0.0 0.0 -3.164810864864e+01 
-1.342250803123e+02 6.898724649000e+00 0.0 
6.898724649000e+00 -3.284674663503e+02 0.0 
0.0 0.0 -1.384077639988e+02 
-9.957242004251e+01 2.784898712478e+00 0.0 
2.784898712478e+00 -2.195475851133e+02 0.0 
0.0 0.0 -9.533600154675e+01 
-3.461325990004e+01 -1.670600547250e+00 0.0 
-1.670600547250e+00 -9.124832980085e+01 0.0 
0.0 0.0 -3.735847691027e+01 
-1.147538743690e+02 3.534230951227e+00 0.0 
3.534230951227e+00 -2.590263171284e+02 0.0 
0.0 0.0 -1.117340574492e+02 
-1.136291098018e+02 2.000027012363e+00 0.0 
2.000027012363e+00 -2.582069317755e+02 0.0 
0.0 0.0 -1.111508124732e+02 
-3.907085416364e+01 -3.841303588331e-01 0.0 
-3.841303588331e-01 -1.025697818352e+02 0.0 
0.0 0.0 -4.209219079966e+01 
-3.875907740507e+01 1.592654675620e+01 0.0 
1.592654675620e+01 -7.805945371724e+01 0.0 
0.0 0.0 -3.464555933669e+01 
-3.984549090614e+01 -7.235470217894e-01 0.0 
-7.235470217894e-01 -1.051487648297e+02 0.0 
0.0 0.0 -4.309827672074e+01 
-1.189538310634e+02 2.504348424374e+00 0.0 
2.504348424374e+00 -2.959028336434e+02 0.0 
0.0 0.0 -1.240569994120e+02 
-9.183272688090e+01 -2.435174169617e-01 0.0 
-2.435174169617e-01 -2.363039353919e+02 0.0 
0.0 0.0 -9.804099868185e+01 
-1.176018675232e+02 6.439490056962e+00 0.0 
6.439490056962e+00 -2.633757854456e+02 0.0 
0.0 0.0 -1.138932958906e+02 
-1.102163413779e+02 1.381628924353e+00 0.0 
1.381628924353e+00 -2.495393790953e+02 0.0 
0.0 0.0 -1.075267161420e+02 
-1.147472555602e+02 2.732088794446e+00 0.0 
2.732088794446e+00 -2.873215765325e+02 0.0 
0.0 0.0 -1.202206496278e+02 
-1.140323935196e+02 1.343840159449e+00 0.0 
1.343840159449e+00 -2.867142530409e+02 0.0 
0.0 0.0 -1.198239939682e+02 
-3.221097264548e+01 -2.173222820951e+00 0.0 
-2.173222820951e+00 -8.497479156966e+01 0.0 
0.0 0.0 -3.475572926454e+01 
-1.183520099366e+02 1.096079021469e+00 0.0 
1.096079021469e+00 -2.953390842803e+02 0.0 
0.0 0.0 -1.237073282651e+02 
-9.855068628234e+01 1.069504180709e+00 0.0 
1.069504180709e+00 -2.188259773071e+02 0.0 
0.0 0.0 -9.481299907682e+01 
-9.244608250139e+01 1.152608062313e+00 0.0 
1.152608062313e+00 -2.368735526694e+02 0.0 
0.0 0.0 -9.839589055124e+01 
-9.172794843770e+01 1.963367011972e+00 0.0 
1.963367011972e+00 -2.015121362683e+02 0.0 
0.0 0.0 -8.757202541180e+01 
-1.034979499327e+02 2.727204211961e+00 0.0 
2.727204211961e+00 -2.303362270144e+02 0.0 
0.0 0.0 -9.975025308411e+01 
-7.194116197373e+01 1.015446697368e+01 0.0 
1.015446697368e+01 -1.896928506126e+02 0.0 
0.0 0.0 -7.809020377589e+01 
-1.065529174243e+02 9.195864924005e-01 0.0 
9.195864924005e-01 -2.405105707740e+02 0.0 
0.0 0.0 -1.037190464595e+02 
-7.584096558501e+01 -7.646665523658e-01 0.0 
-7.646665523658e-01 -1.985764455367e+02 0.0 
0.0 0.0 -8.192522333651e+01 
-8.860246660179e+01 1.224032112397e+00 0.0 
1.224032112397e+00 -2.283236495575e+02 0.0 
0.0 0.0 -9.467783484780e+01 
-5.653357495536e+01 -1.426379949158e+00 0.0 
-1.426379949158e+00 -1.501510106337e+02 0.0 
0.0 0.0 -6.160537567672e+01 
-5.850342467169e+01 2.760826701293e-01 0.0 
2.760826701293e-01 -1.574003999432e+02 0.0 
0.0 0.0 -6.437114738447e+01 
-9.472502506680e+01 6.472987644401e-01 0.0 
6.472987644401e-01 -2.098346637047e+02 0.0 
0.0 0.0 -9.096790663144e+01 
-8.131565932874e+01 2.991576355267e+00 0.0 
2.991576355267e+00 -2.155998393705e+02 0.0 
0.0 0.0 -8.867464960977e+01 
-4.309237206542e+01 -4.923056558777e-01 0.0 
-4.923056558777e-01 -1.137184393849e+02 0.0 
0.0 0.0 -4.664324343509e+01 
-2.304599707818e+01 -1.051040941799e+00 0.0 
-1.051040941799e+00 -5.752555795125e+01 0.0 
0.0 0.0 -2.377146650883e+01 
-9.567605942503e+01 2.332989966129e+00 0.0 
2.332989966129e+00 -2.105210620673e+02 0.0 
0.0 0.0 -9.145913644771e+01 
-4.229629857807e+01 -1.891033063476e+00 0.0 
-1.891033063476e+00 -1.130708123838e+02 0.0 
0.0 0.0 -4.621013328855e+01 
-1.431293597640e+02 4.727826794330e+00 0.0 
4.727826794330e+00 -3.460430653917e+02 0.0 
0.0 0.0 -1.463517275467e+02 
-9.884717506626e+01 6.097393428602e-01 0.0 
6.097393428602e-01 -2.206615846700e+02 0.0 
0.0 0.0 -9.545262792088e+01 
-1.231966667405e+02 1.703505540837e+00 0.0 
1.703505540837e+00 -3.057992742818e+02 0.0 
0.0 0.0 -1.282987823067e+02 
-1.478336036152e+02 1.176170161124e+01 0.0 
1.176170161124e+01 -3.508096964478e+02 0.0 
0.0 0.0 -1.491929900189e+02 
-7.256513283511e+01 7.428046991679e-01 0.0 
7.428046991679e-01 -1.895375094771e+02 0.0 
0.0 0.0 -7.823079269367e+01 
-3.842444492863e+01 -1.855487858334e+00 0.0 
-1.855487858334e+00 -1.019706535585e+02 0.0 
0.0 0.0 -4.171852954613e+01 
-2.543628152175e+01 -2.193783562545e+00 0.0 
-2.193783562545e+00 -6.521738130406e+01 0.0 
0.0 0.0 -2.679609884774e+01 
-1.152158944200e+02 3.590675110671e+00 0.0 
3.590675110671e+00 -2.890047961026e+02 0.0 
0.0 0.0 -1.208662071568e+02 
-8.717424865369e+01 -1.657973357028e-02 0.0 
-1.657973357028e-02 -1.920244969539e+02 0.0 
0.0 0.0 -8.335962368228e+01 
-1.916107867453e+01 -1.876234584524e+00 0.0 
-1.876234584524e+00 -4.632752101785e+01 0.0 
0.0 0.0 -1.924657990771e+01 
-5.788196312378e+01 3.703598388368e-02 0.0 
3.703598388368e-02 -1.529001749429e+02 0.0 
0.0 0.0 -6.283464142000e+01 
-3.440250396845e+01 2.485801833625e-02 0.0 
2.485801833625e-02 -8.927516526361e+01 0.0 
0.0 0.0 -3.670330076962e+01 
-8.769855720352e+01 1.915500893192e+00 0.0 
1.915500893192e+00 -1.907769957381e+02 0.0 
0.0 0.0 -8.314266588249e+01 
-6.154515309084e+01 2.741307922283e-01 0.0 
2.741307922283e-01 -1.615524362186e+02 0.0 
0.0 0.0 -6.652927679282e+01 
-1.053970900224e+02 1.760018872603e+00 0.0 
1.760018872603e+00 -2.693106466468e+02 0.0 
0.0 0.0 -1.120123210008e+02 
-5.700518201663e+01 1.888332715166e-01 0.0 
1.888332715166e-01 -1.505931088428e+02 0.0 
0.0 0.0 -6.187948725783e+01 
-1.076639686840e+02 2.100464119965e+00 0.0 
2.100464119965e+00 -2.430231097060e+02 0.0 
0.0 0.0 -1.048061235170e+02 
-4.949925247539e+01 -1.668762995913e+00 0.0 
-1.668762995913e+00 -1.326771438202e+02 0.0 
0.0 0.0 -5.425291888868e+01 
-1.154864813971e+02 4.574403605310e+00 0.0 
4.574403605310e+00 -2.902540055362e+02 0.0 
0.0 0.0 -1.213221460800e+02 
-3.517466272434e+01 -1.145469191630e+00 0.0 
-1.145469191630e+00 -9.279436303555e+01 0.0 
0.0 0.0 -3.799070772797e+01 
-1.108979003164e+02 3.798911842249e+00 0.0 
3.798911842249e+00 -2.802069213748e+02 0.0 
0.0 0.0 -1.169314465074e+02 
-8.437227690637e+01 8.525913411442e-01 0.0 
8.525913411442e-01 -2.181020372437e+02 0.0 
0.0 0.0 -9.034229424503e+01 
-1.187675695243e+02 1.977797710077e+00 0.0 
1.977797710077e+00 -2.971024994916e+02 0.0 
0.0 0.0 -1.243610207048e+02 
-4.861512275242e+01 4.068331375118e+00 0.0 
4.068331375118e+00 -1.420214416211e+02 0.0 
0.0 0.0 -5.679096931205e+01 
-3.359837402238e+01 -1.452545896295e+00 0.0 
-1.452545896295e+00 -8.840469705966e+01 0.0 
0.0 0.0 -3.620092132461e+01 
-7.984188580603e+01 1.353767974970e+00 0.0 
1.353767974970e+00 -1.727364559257e+02 0.0 
0.0 0.0 -7.537350251951e+01 
-1.015447017469e+02 8.074150706593e+00 0.0 
8.074150706593e+00 -2.608649251548e+02 0.0 
0.0 0.0 -1.083228880705e+02 
-6.454466158539e+01 1.239277012050e+01 0.0 
1.239277012050e+01 -1.397979037779e+02 0.0 
0.0 0.0 -6.090276960897e+01 
-8.777535072875e+01 1.684054099802e+00 0.0 
1.684054099802e+00 -1.923614322044e+02 0.0 
0.0 0.0 -8.364103487995e+01 
-3.847834677833e+01 -8.493039320128e-01 0.0 
-8.493039320128e-01 -1.034848490101e+02 0.0 
0.0 0.0 -4.218895873652e+01 
-9.061021178407e+01 1.093687527432e+00 0.0 
1.093687527432e+00 -1.974287030824e+02 0.0 
0.0 0.0 -8.601167445995e+01 
-3.068505721185e+01 -1.087259019463e-01 0.0 
-1.087259019463e-01 -8.025752204645e+01 0.0 
0.0 0.0 -3.288277377749e+01 
-1.340085829623e+02 5.675534004236e+00 0.0 
5.675534004236e+00 -3.279679545077e+02 0.0 
0.0 0.0 -1.381929612410e+02 
-1.059468165290e+02 9.172595614942e+00 0.0 
9.172595614942e+00 -2.693446303553e+02 0.0 
0.0 0.0 -1.121874340653e+02 
-1.107784530684e+02 1.296925123602e+01 0.0 
1.296925123602e+01 -2.712580635866e+02 0.0 
0.0 0.0 -1.142109549965e+02 
-1.186847639911e+02 3.453480918032e+00 0.0 
3.453480918032e+00 -2.704637900710e+02 0.0 
0.0 0.0 -1.163445662186e+02 
-8.948396830979e+01 3.701000425587e+00 0.0 
3.701000425587e+00 -2.344217750155e+02 0.0 
0.0 0.0 -9.677172299760e+01 
-3.143877050919e+01 -1.913844593214e+00 0.0 
-1.913844593214e+00 -8.265121854235e+01 0.0 
0.0 0.0 -3.382699671546e+01 
-1.022560306501e+02 4.182858288319e+00 0.0 
4.182858288319e+00 -2.623508237219e+02 0.0 
0.0 0.0 -1.089820563116e+02 
-1.381659793832e+02 5.156551272229e+00 0.0 
5.156551272229e+00 -3.369909432308e+02 0.0 
0.0 0.0 -1.421470767842e+02 
-4.839775158884e+01 2.398086108193e-01 0.0 
2.398086108193e-01 -1.329872942694e+02 0.0 
0.0 0.0 -5.401551375749e+01 
-1.195285135745e+02 3.364598715884e+00 0.0 
3.364598715884e+00 -2.977277242260e+02 0.0 
0.0 0.0 -1.247768713401e+02 
-9.965201426232e+01 2.300981542927e+00 0.0 
2.300981542927e+00 -2.212871001004e+02 0.0 
0.0 0.0 -9.588173430882e+01 
-3.692017128228e+01 -1.019700095589e+00 0.0 
-1.019700095589e+00 -1.046285972594e+02 0.0 
0.0 0.0 -4.206463056249e+01 
-1.065795731640e+02 3.991435196523e+00 0.0 
3.991435196523e+00 -2.713274277647e+02 0.0 
0.0 0.0 -1.129721002786e+02 
-7.953084467589e+01 1.876753794823e+00 0.0 
1.876753794823e+00 -1.692682711990e+02 0.0 
0.0 0.0 -7.423973476248e+01 
-4.560640080585e+01 -1.568676560280e-02 0.0 
-1.568676560280e-02 -1.198078077061e+02 0.0 
0.0 0.0 -4.922426255359e+01 
-5.435366020874e+01 -1.625047160060e-01 0.0 
-1.625047160060e-01 -1.442988274994e+02 0.0 
0.0 0.0 -5.919574631245e+01 
-7.970011539702e+01 1.430943925050e+01 0.0 
1.430943925050e+01 -1.788920416501e+02 0.0 
0.0 0.0 -7.717764711414e+01 
-1.143334213814e+02 2.232011640783e+00 0.0 
2.232011640783e+00 -2.883314388760e+02 0.0 
0.0 0.0 -1.203994580772e+02 
-5.738803903035e+01 1.306512200047e+01 0.0 
1.306512200047e+01 -1.135203776021e+02 0.0 
0.0 0.0 -5.087252498972e+01 
-7.493405633368e+01 1.465601104111e+01 0.0 
1.465601104111e+01 -1.722927066166e+02 0.0 
0.0 0.0 -7.376802888508e+01 
-9.457917204306e+01 1.089954504399e+00 0.0 
1.089954504399e+00 -2.080949508101e+02 0.0 
0.0 0.0 -9.040223685595e+01 
-8.288698485273e+01 -6.843781266433e-02 0.0 
-6.843781266433e-02 -1.811469015869e+02 0.0 
0.0 0.0 -7.881016593187e+01 
-8.260073283902e+01 5.753539781040e-01 0.0 
5.753539781040e-01 -1.777359273488e+02 0.0 
0.0 0.0 -7.770099805635e+01 
-8.377746343602e+01 -3.732134904869e-01 0.0 
-3.732134904869e-01 -2.174682076543e+02 0.0 
0.0 0.0 -8.997370132710e+01 
-1.295847434585e+02 7.277160218534e+00 0.0 
7.277160218534e+00 -3.192612516439e+02 0.0 
0.0 0.0 -1.342537985307e+02 
-9.792967469614e+01 4.390814726349e+00 0.0 
4.390814726349e+00 -2.532672655972e+02 0.0 
0.0 0.0 -1.049590820880e+02 
-7.944474960382e+01 1.535332239603e+00 0.0 
1.535332239603e+00 -1.710114939385e+02 0.0 
0.0 0.0 -7.473687306270e+01 
-1.244816752189e+02 1.098467031269e+01 0.0 
1.098467031269e+01 -2.769863088704e+02 0.0 
0.0 0.0 -1.200403952268e+02 
-1.153831731215e+02 1.367433093197e+01 0.0 
1.367433093197e+01 -2.786296708618e+02 0.0 
0.0 0.0 -1.178038531950e+02 
-1.099097116504e+02 2.464998044915e+00 0.0 
2.464998044915e+00 -2.794940325663e+02 0.0 
0.0 0.0 -1.164211232650e+02 
-1.025567212451e+02 1.022947234389e+00 0.0 
1.022947234389e+00 -2.296503083750e+02 0.0 
0.0 0.0 -9.926210888605e+01 
-6.206091318502e+01 4.203456910761e-01 0.0 
4.203456910761e-01 -1.658426261661e+02 0.0 
0.0 0.0 -6.797106180535e+01 
-5.822289968800e+01 6.900931255465e-02 0.0 
6.900931255465e-02 -1.551332035392e+02 0.0 
0.0 0.0 -6.360683096817e+01 
-3.267264774014e+01 -8.228227694851e-01 0.0 
-8.228227694851e-01 -8.546788585320e+01 0.0 
0.0 0.0 -3.504216007800e+01 
-1.066400105580e+02 5.055527436705e+00 0.0 
5.055527436705e+00 -2.721206232291e+02 0.0 
0.0 0.0 -1.132281901361e+02 
-6.179945595742e+01 2.394824829104e-01 0.0 
2.394824829104e-01 -1.637607610141e+02 0.0 
0.0 0.0 -6.726806509144e+01 
-9.168899432839e+01 2.358307159876e+00 0.0 
2.358307159876e+00 -1.997357863188e+02 0.0 
0.0 0.0 -8.702743419416e+01 
-8.770397561308e+01 2.366290099699e+00 0.0 
2.366290099699e+00 -1.890309892453e+02 0.0 
0.0 0.0 -8.262048945752e+01 
-7.612714062968e+01 1.008482659958e+01 0.0 
1.008482659958e+01 -2.010430211292e+02 0.0 
0.0 0.0 -8.275104852767e+01 
-4.979494438342e+01 -1.627919655267e+00 0.0 
-1.627919655267e+00 -1.349828467832e+02 0.0 
0.0 0.0 -5.503333735000e+01 
-4.430797474263e+01 7.755877933428e+00 0.0 
7.755877933428e+00 -1.295180338443e+02 0.0 
0.0 0.0 -5.174780257607e+01 
-5.328858078573e+01 -1.495285970461e+00 0.0 
-1.495285970461e+00 -1.435518504450e+02 0.0 
0.0 0.0 -5.865212936922e+01 
-5.704306853436e+01 -1.212709808053e+00 0.0 
-1.212709808053e+00 -1.543501674567e+02 0.0 
0.0 0.0 -6.301797079733e+01 
-3.527323424439e+01 -2.037355969323e+00 0.0 
-2.037355969323e+00 -9.350330248235e+01 0.0 
0.0 0.0 -3.823296101802e+01 
-1.249095270156e+02 7.680549931187e+00 0.0 
7.680549931187e+00 -3.098599928428e+02 0.0 
0.0 0.0 -1.300308559575e+02 
-6.821917126858e+01 4.452244241402e-01 0.0 
4.452244241402e-01 -1.859317304178e+02 0.0 
0.0 0.0 -7.584527050591e+01 
-1.074102406759e+02 2.621536129730e+00 0.0 
2.621536129730e+00 -2.411617726518e+02 0.0 
0.0 0.0 -1.041716039983e+02 
-7.197045641457e+01 1.249761695895e+00 0.0 
1.249761695895e+00 -1.959976263419e+02 0.0 
0.0 0.0 -7.999042482693e+01 
-1.010932357518e+02 2.932451987808e+00 0.0 
2.932451987808e+00 -2.615848403346e+02 0.0 
0.0 0.0 -1.084034228259e+02 
-8.408840160158e+01 1.698976327444e+00 0.0 
1.698976327444e+00 -2.237274116811e+02 0.0 
0.0 0.0 -9.194474398481e+01 
-7.349472325112e+01 1.427120335088e+01 0.0 
1.427120335088e+01 -1.786877165173e+02 0.0 
0.0 0.0 -7.525473193052e+01 
-3.592793090638e+01 -6.699340034324e-01 0.0 
-6.699340034324e-01 -9.410382019506e+01 0.0 
0.0 0.0 -3.860952533043e+01 
-1.333061565581e+02 5.585790598648e+00 0.0 
5.585790598648e+00 -3.277322768857e+02 0.0 
0.0 0.0 -1.379115300332e+02 
-1.395325158833e+02 8.025431206797e+00 0.0 
8.025431206797e+00 -3.389952691708e+02 0.0 
0.0 0.0 -1.431583355162e+02 
-1.000825523604e+02 1.169302172131e+01 0.0 
1.169302172131e+01 -2.245699721485e+02 0.0 
0.0 0.0 -9.699575735267e+01 
-6.075190422947e+01 -8.173858494390e-01 0.0 
-8.173858494390e-01 -1.650144208636e+02 0.0 
0.0 0.0 -6.732989752791e+01 
-9.245343783037e+01 2.323927389541e+00 0.0 
2.323927389541e+00 -2.426578393126e+02 0.0 
0.0 0.0 -1.001333831429e+02 
-9.064871476799e+01 6.219388416519e-01 0.0 
6.219388416519e-01 -1.990048087598e+02 0.0 
0.0 0.0 -8.649605705834e+01 
-6.572385965171e+01 5.421713993785e-01 0.0 
5.421713993785e-01 -1.744883943973e+02 0.0 
0.0 0.0 -7.166367621471e+01 
-5.892829784401e+01 1.533553350316e+01 0.0 
1.533553350316e+01 -1.340499064830e+02 0.0 
0.0 0.0 -5.749346129809e+01 
-5.032900388463e+01 -2.677545747665e-01 0.0 
-2.677545747665e-01 -1.333384717692e+02 0.0 
0.0 0.0 -5.470024269616e+01 
-4.180070845688e+01 -3.932201450328e-01 0.0 
-3.932201450328e-01 -1.140788429712e+02 0.0 
0.0 0.0 -4.636386542841e+01 
-6.586445055636e+01 8.984072964830e-01 0.0 
8.984072964830e-01 -1.763986803697e+02 0.0 
0.0 0.0 -7.227893927782e+01 
-4.559955435626e+01 -1.681583855971e+00 0.0 
-1.681583855971e+00 -1.216477076386e+02 0.0 
0.0 0.0 -4.977417859845e+01 
-4.232368330137e+01 -1.966346945545e-01 0.0 
-1.966346945545e-01 -1.111859615547e+02 0.0 
0.0 0.0 -4.565289345681e+01 
-8.542237357216e+01 2.870294502591e+00 0.0 
2.870294502591e+00 -2.245498473994e+02 0.0 
0.0 0.0 -9.259166629146e+01 
-1.054973384338e+02 2.692404499170e+00 0.0 
2.692404499170e+00 -2.705836101575e+02 0.0 
0.0 0.0 -1.124242845774e+02 
-1.191025949706e+02 1.214164364832e+01 0.0 
1.214164364832e+01 -2.711702912309e+02 0.0 
0.0 0.0 -1.166818658605e+02 
-6.590165584315e+00 -5.551601520558e-01 0.0 
-5.551601520558e-01 -9.050908338945e+00 0.0 
0.0 0.0 -4.292322176978e+00 
-6.761160148817e+01 2.901585135784e+00 0.0 
2.901585135784e+00 -1.875419408878e+02 0.0 
0.0 0.0 -7.614606271279e+01 
-6.796114761789e+01 1.489864106371e+00 0.0 
1.489864106371e+00 -1.871149230460e+02 0.0 
0.0 0.0 -7.612282119917e+01 
-6.446204575475e+01 -2.579134809233e-01 0.0 
-2.579134809233e-01 -1.755646438653e+02 0.0 
0.0 0.0 -7.160800688600e+01 
-8.661866327956e+01 6.104912471594e-01 0.0 
6.104912471594e-01 -1.882807595340e+02 0.0 
0.0 0.0 -8.206982684407e+01 
-7.600311763081e+01 1.063706344036e+00 0.0 
1.063706344036e+00 -2.048029800392e+02 0.0 
0.0 0.0 -8.384182930102e+01 
-5.297078170057e+01 -1.513644545561e+00 0.0 
-1.513644545561e+00 -1.413229114202e+02 0.0 
0.0 0.0 -5.788810793624e+01 
-6.966334957871e+01 1.514968298929e+00 0.0 
1.514968298929e+00 -1.867785388901e+02 0.0 
0.0 0.0 -7.653256654064e+01 
-1.028262052927e+02 5.169607201456e-01 0.0 
5.169607201456e-01 -2.314976317606e+02 0.0 
0.0 0.0 -9.989715111600e+01 
-5.360776971709e+01 -5.220101530213e-02 0.0 
-5.220101530213e-02 -1.419175409685e+02 0.0 
0.0 0.0 -5.825759320567e+01 
-2.166695829079e+01 -1.833826208324e+00 0.0 
-1.833826208324e+00 -5.438622326719e+01 0.0 
0.0 0.0 -2.241595446740e+01 
-2.844666668057e+01 -2.003662728756e+00 0.0 
-2.003662728756e+00 -7.413803722600e+01 0.0 
0.0 0.0 -3.037541117197e+01 
-4.357583304196e+01 -1.282276364450e+00 0.0 
-1.282276364450e+00 -1.217688253662e+02 0.0 
0.0 0.0 -4.920339752245e+01 
-5.347240965326e+01 -1.290671496056e+00 0.0 
-1.290671496056e+00 -1.458483543510e+02 0.0 
0.0 0.0 -5.939622920128e+01 
-7.166697555098e+01 2.481103947151e+00 0.0 
2.481103947151e+00 -1.966865977358e+02 0.0 
0.0 0.0 -8.010607198603e+01 
-7.344456624814e+01 2.269695450798e+00 0.0 
2.269695450798e+00 -1.968608282520e+02 0.0 
0.0 0.0 -8.069161835004e+01 
-3.198581818486e+01 -1.110480578841e+00 0.0 
-1.110480578841e+00 -8.387388525695e+01 0.0 
0.0 0.0 -3.435791103254e+01 
-2.850779810866e+01 -6.309985411945e-01 0.0 
-6.309985411945e-01 -7.445268890492e+01 0.0 
0.0 0.0 -3.048814610407e+01 
-8.356383407411e+01 2.906651351808e+00 0.0 
2.906651351808e+00 -1.763238877406e+02 0.0 
0.0 0.0 -7.756631654441e+01 
-4.635531471253e+01 -2.314900231230e-01 0.0 
-2.314900231230e-01 -1.222844413909e+02 0.0 
0.0 0.0 -5.019192683102e+01 
-1.191843808855e+02 5.373663520910e+00 0.0 
5.373663520910e+00 -2.997721496892e+02 0.0 
0.0 0.0 -1.252869591724e+02 
-1.153952131684e+02 1.223586395467e+01 0.0 
1.223586395467e+01 -2.636067463387e+02 0.0 
0.0 0.0 -1.133005878521e+02 
-8.991294191844e+01 6.463717149540e+00 0.0 
6.463717149540e+00 -1.850800109367e+02 0.0 
0.0 0.0 -8.209788585653e+01 
-1.099317243777e+02 2.771502235765e+00 0.0 
2.771502235765e+00 -2.462847318635e+02 0.0 
0.0 0.0 -1.064649368724e+02 
-1.227153714529e+02 1.196093043422e+01 0.0 
1.196093043422e+01 -2.789596911315e+02 0.0 
0.0 0.0 -1.201025187753e+02 
-7.210403268706e+01 1.096064113443e+01 0.0 
1.096064113443e+01 -1.899347987924e+02 0.0 
0.0 0.0 -7.821164944382e+01 
-1.077423893682e+02 1.190306785911e+01 0.0 
1.190306785911e+01 -2.440715530375e+02 0.0 
0.0 0.0 -1.051441827217e+02 
-3.550069704298e+01 -9.419066687334e-01 0.0 
-9.419066687334e-01 -9.500591931281e+01 0.0 
0.0 0.0 -3.875198490674e+01 
-7.351124464863e+01 1.518813226557e+00 0.0 
1.518813226557e+00 -1.954645436260e+02 0.0 
0.0 0.0 -8.029273648239e+01 
-6.482142432632e+01 1.195761264229e+01 0.0 
1.195761264229e+01 -1.666355479624e+02 0.0 
0.0 0.0 -6.903709168663e+01 
-3.637939282839e+01 4.750275227669e-01 0.0 
4.750275227669e-01 -1.062849957238e+02 0.0 
0.0 0.0 -4.239931656564e+01 
-2.957341095777e+01 -1.274990029279e+00 0.0 
-1.274990029279e+00 -7.590931593548e+01 0.0 
0.0 0.0 -3.124481806797e+01 
-6.069926746400e+01 -1.103800467956e+00 0.0 
-1.103800467956e+00 -1.630005627363e+02 0.0 
0.0 0.0 -6.670994906009e+01 
-6.948187744426e+01 2.405371212931e+00 0.0 
2.405371212931e+00 -1.879836137791e+02 0.0 
0.0 0.0 -7.683964736700e+01 
-7.315186467268e+01 3.376119302369e+00 0.0 
3.376119302369e+00 -1.975203994000e+02 0.0 
0.0 0.0 -8.080167922181e+01 
-4.892875530966e+01 -1.445017747069e+00 0.0 
-1.445017747069e+00 -1.302391194166e+02 0.0 
0.0 0.0 -5.335036241789e+01 
-7.990565521910e+01 1.902931897111e+00 0.0 
1.902931897111e+00 -2.147639183640e+02 0.0 
0.0 0.0 -8.800087207494e+01 
-6.909956230706e+01 3.671932007168e+00 0.0 
3.671932007168e+00 -1.883614701020e+02 0.0 
0.0 0.0 -7.683830972273e+01 
-7.135261272528e+01 4.083383037702e+00 0.0 
4.083383037702e+00 -1.965558716876e+02 0.0 
0.0 0.0 -7.997254532386e+01 
-5.473866672851e+01 -1.038591585426e-01 0.0 
-1.038591585426e-01 -1.466379483196e+02 0.0 
0.0 0.0 -6.001298451443e+01 
-1.060032465142e+02 1.074210251968e+01 0.0 
1.074210251968e+01 -2.670404154279e+02 0.0 
0.0 0.0 -1.115130985826e+02 
-9.566317060019e+01 2.836699293204e+00 0.0 
2.836699293204e+00 -2.088451471966e+02 0.0 
0.0 0.0 -9.095249533903e+01 
-6.731117192415e+01 4.686572710564e+00 0.0 
4.686572710564e+00 -1.870834753157e+02 0.0 
0.0 0.0 -7.591839417196e+01 
-1.286595387272e+02 5.975573096909e+00 0.0 
5.975573096909e+00 -3.185867673683e+02 0.0 
0.0 0.0 -1.337738918286e+02 
-3.859498609470e+01 -3.641417540324e-01 0.0 
-3.641417540324e-01 -1.054794348230e+02 0.0 
0.0 0.0 -4.282232627531e+01 
-1.385806348805e+02 8.107174377806e+00 0.0 
8.107174377806e+00 -3.376152698970e+02 0.0 
0.0 0.0 -1.424587714333e+02 
-7.575589002577e+01 2.150019225407e+00 0.0 
2.150019225407e+00 -2.057120312187e+02 0.0 
0.0 0.0 -8.404037637335e+01 
-1.268636095149e+02 1.175603468088e+01 0.0 
1.175603468088e+01 -2.887152529278e+02 0.0 
0.0 0.0 -1.242736587328e+02 
-9.391542545686e+01 1.092209147291e+01 0.0 
1.092209147291e+01 -1.980875167277e+02 0.0 
0.0 0.0 -8.720088265538e+01 
-3.715986087066e+01 -1.789807662046e+00 0.0 
-1.789807662046e+00 -1.027194846475e+02 0.0 
0.0 0.0 -4.156380365545e+01 
-9.392836000783e+01 7.596270575546e+00 0.0 
7.596270575546e+00 -1.949853695315e+02 0.0 
0.0 0.0 -8.627411886179e+01 
-1.138199375842e+02 4.381868794745e+00 0.0 
4.381868794745e+00 -2.544629264480e+02 0.0 
0.0 0.0 -1.100848592097e+02 
-7.964209212432e+01 3.162808068027e+00 0.0 
3.162808068027e+00 -2.151936649093e+02 0.0 
0.0 0.0 -8.805072711008e+01 
-4.880833556202e+01 1.488526915222e+01 0.0 
1.488526915222e+01 -1.219790675809e+02 0.0 
0.0 0.0 -5.083622094287e+01 
-9.785353161429e+01 8.732507906861e+00 0.0 
8.732507906861e+00 -2.052052467734e+02 0.0 
0.0 0.0 -9.051763351631e+01 
-7.244076732565e+01 1.224737423379e+01 0.0 
1.224737423379e+01 -1.592761250304e+02 0.0 
0.0 0.0 -6.911506770680e+01 
-3.099393654657e+01 -2.180928816395e+00 0.0 
-2.180928816395e+00 -8.320399815249e+01 0.0 
0.0 0.0 -3.385938040972e+01 
-1.248748713281e+02 3.707711419145e+00 0.0 
3.707711419145e+00 -2.866804505240e+02 0.0 
0.0 0.0 -1.230665965556e+02 
-2.785118742908e+01 -2.336857669485e+00 0.0 
-2.336857669485e+00 -7.269591731585e+01 0.0 
0.0 0.0 -2.976413142348e+01 
-1.334058369371e+02 1.381484619014e+01 0.0 
1.381484619014e+01 -3.202650083170e+02 0.0 
0.0 0.0 -1.357012535762e+02 
-1.140509904023e+02 1.232905138040e+00 0.0 
1.232905138040e+00 -2.602238125520e+02 0.0 
0.0 0.0 -1.118824408863e+02 
-1.104512576405e+02 1.024984666329e+01 0.0 
1.024984666329e+01 -2.776269365006e+02 0.0 
0.0 0.0 -1.160234582423e+02 
-8.255600392484e+01 1.472712997702e-01 0.0 
1.472712997702e-01 -1.791148349088e+02 0.0 
0.0 0.0 -7.810125165010e+01 
-1.073676018824e+02 3.910056696512e+00 0.0 
3.910056696512e+00 -2.379049279207e+02 0.0 
0.0 0.0 -1.031817589409e+02 
-7.272580763409e+01 4.836524083703e+00 0.0 
4.836524083703e+00 -1.973122719546e+02 0.0 
0.0 0.0 -8.061142387660e+01 
-8.444422032325e+01 1.048132309469e+01 0.0 
1.048132309469e+01 -2.192479540650e+02 0.0 
0.0 0.0 -9.070765231646e+01 
-1.174692053684e+02 3.265504711875e+00 0.0 
3.265504711875e+00 -2.661660511479e+02 0.0 
0.0 0.0 -1.146905769549e+02 
-1.144896204961e+02 3.246456134762e+00 0.0 
3.246456134762e+00 -2.895355481584e+02 0.0 
0.0 0.0 -1.208075505963e+02 
-9.968602627653e+01 3.372622746252e+00 0.0 
3.372622746252e+00 -2.180303348259e+02 0.0 
0.0 0.0 -9.491490833073e+01 
-1.050244318938e+02 6.474792067203e+00 0.0 
6.474792067203e+00 -2.702276597198e+02 0.0 
0.0 0.0 -1.121756274841e+02 
-3.403599565879e+01 -1.708559103320e+00 0.0 
-1.708559103320e+00 -9.421282086115e+01 0.0 
0.0 0.0 -3.807464495598e+01 
-1.036975152088e+02 4.001000485332e+00 0.0 
4.001000485332e+00 -2.272427236672e+02 0.0 
0.0 0.0 -9.888207166278e+01 
-1.383571714035e+02 1.540699359294e+01 0.0 
1.540699359294e+01 -3.199921567604e+02 0.0 
0.0 0.0 -1.371047984492e+02 
-1.387597386358e+02 6.505847567515e+00 0.0 
6.505847567515e+00 -3.381874812930e+02 0.0 
0.0 0.0 -1.426841659787e+02 
-7.214948650774e+01 3.428551395848e-01 0.0 
3.428551395848e-01 -1.946306754282e+02 0.0 
0.0 0.0 -7.963404858078e+01 
-8.353269132702e+01 1.961285377853e+00 0.0 
1.961285377853e+00 -1.797730528857e+02 0.0 
0.0 0.0 -7.859172326381e+01 
-7.841832698984e+01 9.624185789247e-02 0.0 
9.624185789247e-02 -1.685025829356e+02 0.0 
0.0 0.0 -7.367627297762e+01 
-7.720152280523e+01 3.163469996620e+00 0.0 
3.163469996620e+00 -2.065474502602e+02 0.0 
0.0 0.0 -8.472469191962e+01 
-1.099891348269e+02 3.520107471513e+00 0.0 
3.520107471513e+00 -2.805026583307e+02 0.0 
0.0 0.0 -1.167475379473e+02 
-1.145570700265e+02 4.413512890319e+00 0.0 
4.413512890319e+00 -2.902355844492e+02 0.0 
0.0 0.0 -1.210377963427e+02 
-2.581631370023e+01 -7.462076684354e-01 0.0 
-7.462076684354e-01 -6.570415716825e+01 0.0 
0.0 0.0 -2.705614126054e+01 
-3.730709686324e+01 7.113031620811e+00 0.0 
7.113031620811e+00 -1.120708604298e+02 0.0 
0.0 0.0 -4.441338718790e+01 
-7.122976231557e+01 5.989822203455e+00 0.0 
5.989822203455e+00 -1.955309095132e+02 0.0 
0.0 0.0 -7.962820154864e+01 
-6.863376468102e+01 5.346407522234e+00 0.0 
5.346407522234e+00 -1.878012797880e+02 0.0 
0.0 0.0 -7.653051334071e+01 
-7.104797043140e+01 1.300381053397e+01 0.0 
1.300381053397e+01 -1.660554247302e+02 0.0 
0.0 0.0 -7.073101854847e+01 
-1.221943431763e+02 4.771746227738e+00 0.0 
4.771746227738e+00 -2.773318373995e+02 0.0 
0.0 0.0 -1.194578541727e+02 
-1.181938774572e+02 7.730826939988e+00 0.0 
7.730826939988e+00 -2.638460249477e+02 0.0 
0.0 0.0 -1.142119707215e+02 
-1.148539537678e+02 2.880543542816e+00 0.0 
2.880543542816e+00 -2.607512287565e+02 0.0 
0.0 0.0 -1.122815547573e+02 
-6.198258089533e+01 1.170166126650e+01 0.0 
1.170166126650e+01 -1.213225885911e+02 0.0 
0.0 0.0 -5.459155084592e+01 
-1.064455359309e+02 3.707646248895e+00 0.0 
3.707646248895e+00 -2.345047935986e+02 0.0 
0.0 0.0 -1.018850988588e+02 
-1.110621250303e+02 4.810509619572e+00 0.0 
4.810509619572e+00 -2.812383594184e+02 0.0 
0.0 0.0 -1.172901453346e+02 
-1.174523963660e+02 2.403725589405e+00 0.0 
2.403725589405e+00 -2.677605961013e+02 0.0 
0.0 0.0 -1.151638977402e+02 
-9.999892293776e+01 4.071142115596e+00 0.0 
4.071142115596e+00 -2.166131626528e+02 0.0 
0.0 0.0 -9.458362567716e+01 
-7.740028757509e+01 2.197408264619e+00 0.0 
2.197408264619e+00 -2.056466354953e+02 0.0 
0.0 0.0 -8.451407692113e+01 
-6.723816024684e+01 6.781097044341e+00 0.0 
6.781097044341e+00 -1.855494374596e+02 0.0 
0.0 0.0 -7.543627931194e+01 
-1.023390242124e+02 2.206532584387e+00 0.0 
2.206532584387e+00 -2.263650620383e+02 0.0 
0.0 0.0 -9.821122587523e+01 
-1.148887220866e+02 4.422463970653e+00 0.0 
4.422463970653e+00 -2.578454943558e+02 0.0 
0.0 0.0 -1.114202649327e+02 
-1.023721708054e+02 1.550513251761e+00 0.0 
1.550513251761e+00 -2.279239252692e+02 0.0 
0.0 0.0 -9.868882882238e+01 
-9.846356143906e+01 1.607858139212e+00 0.0 
1.607858139212e+00 -2.172160287830e+02 0.0 
0.0 0.0 -9.430387706661e+01 
-1.285245063438e+02 4.630562318845e+00 0.0 
4.630562318845e+00 -3.182639302537e+02 0.0 
0.0 0.0 -1.336365309792e+02 
-1.289373617841e+02 1.397648934852e+01 0.0 
1.397648934852e+01 -3.092675907371e+02 0.0 
0.0 0.0 -1.310614857564e+02 
-1.238699511978e+02 4.990413676609e+00 0.0 
4.990413676609e+00 -3.090916162879e+02 0.0 
0.0 0.0 -1.294884702457e+02 
-9.675965500396e+01 2.123612588639e+00 0.0 
2.123612588639e+00 -2.516110682605e+02 0.0 
0.0 0.0 -1.041112169793e+02 
-5.667711873773e+01 3.929420671628e+00 0.0 
3.929420671628e+00 -1.070404173145e+02 0.0 
0.0 0.0 -4.871526081565e+01 
-1.149226575977e+02 1.124874585917e+01 0.0 
1.124874585917e+01 -2.855768881414e+02 0.0 
0.0 0.0 -1.197498637217e+02 
-9.929126247346e+01 3.884275169907e+00 0.0 
3.884275169907e+00 -2.139863576593e+02 0.0 
0.0 0.0 -9.358328603984e+01 
-4.167697309270e+01 -1.614653557145e+00 0.0 
-1.614653557145e+00 -1.106049172727e+02 0.0 
0.0 0.0 -4.528456710961e+01 
-7.234072088638e+01 6.673037985539e+00 0.0 
6.673037985539e+00 -1.961587945956e+02 0.0 
0.0 0.0 -8.014985464459e+01 
-8.347022485746e+01 5.890669002838e+00 0.0 
5.890669002838e+00 -2.234221637581e+02 0.0 
0.0 0.0 -9.166771658467e+01 
-9.295889224987e+01 1.086641946769e+01 0.0 
1.086641946769e+01 -2.376436523784e+02 0.0 
0.0 0.0 -9.878076338848e+01 
-3.531273500333e+01 2.363968318105e+00 0.0 
2.363968318105e+00 -1.060107670772e+02 0.0 
0.0 0.0 -4.199705062417e+01 
-6.824074943989e+01 7.380041832284e+00 0.0 
7.380041832284e+00 -1.861178981352e+02 0.0 
0.0 0.0 -7.590759427254e+01 
-1.016541773054e+02 1.127005683238e+01 0.0 
1.127005683238e+01 -2.561892012628e+02 0.0 
0.0 0.0 -1.069530135705e+02 
-6.941179020783e+01 6.512138871062e+00 0.0 
6.512138871062e+00 -1.375749371835e+02 0.0 
0.0 0.0 -6.169601821741e+01 
-8.008449068296e+01 9.413953555420e-01 0.0 
9.413953555420e-01 -2.136400947483e+02 0.0 
0.0 0.0 -8.771737562936e+01 
-9.210209859470e+01 3.446206679271e+00 0.0 
3.446206679271e+00 -1.966653992415e+02 0.0 
0.0 0.0 -8.623024935087e+01 
-6.568055314833e+01 -3.718150135159e-01 0.0 
-3.718150135159e-01 -1.386372359847e+02 0.0 
0.0 0.0 -6.089533673992e+01 
-1.810512668212e+01 1.216601967445e+01 0.0 
1.216601967445e+01 -1.631613270050e+01 0.0 
0.0 0.0 -9.926377814787e+00 
-9.370900572944e+01 3.535498420301e+00 0.0 
3.535498420301e+00 -2.434550587728e+02 0.0 
0.0 0.0 -1.007492193507e+02 
-1.141197889237e+02 8.554517498146e+00 0.0 
8.554517498146e+00 -2.873502723385e+02 0.0 
0.0 0.0 -1.200410183787e+02 
-1.215729984479e+02 7.272470067939e+00 0.0 
7.272470067939e+00 -2.734887637204e+02 0.0 
0.0 0.0 -1.181185286505e+02 
-7.962750013748e+01 8.454123962695e+00 0.0 
8.454123962695e+00 -2.113744179137e+02 0.0 
0.0 0.0 -8.690057541534e+01 
-8.828804175469e+01 1.535039071768e+00 0.0 
1.535039071768e+00 -2.326337944861e+02 0.0 
0.0 0.0 -9.587655087224e+01 
-9.175936367844e+01 2.835527358098e+00 0.0 
2.835527358098e+00 -1.981995920720e+02 0.0 
0.0 0.0 -8.658768672513e+01 
-1.648685133777e+01 1.188841673941e+01 0.0 
1.188841673941e+01 -1.679115629783e+01 0.0 
0.0 0.0 -9.583402290677e+00 
-1.096890519867e+02 9.043010230001e+00 0.0 
9.043010230001e+00 -2.770434687185e+02 0.0 
0.0 0.0 -1.156197562116e+02 
-8.860816478657e+01 9.774732523642e+00 0.0 
9.774732523642e+00 -2.300654814006e+02 0.0 
0.0 0.0 -9.520209385616e+01 
-7.470532134992e+01 8.547856396095e+00 0.0 
8.547856396095e+00 -1.476184435719e+02 0.0 
0.0 0.0 -6.629712947654e+01 
-1.156034690661e+02 5.699316197970e+00 0.0 
5.699316197970e+00 -2.909571201405e+02 0.0 
0.0 0.0 -1.215681767620e+02 
-3.836753568541e+01 6.127912104126e-01 0.0 
6.127912104126e-01 -1.071556708361e+02 0.0 
0.0 0.0 -4.325696195645e+01 
-1.202216141988e+02 6.654885614832e+00 0.0 
6.654885614832e+00 -3.004907596534e+02 0.0 
0.0 0.0 -1.258137121557e+02 
-1.335057522545e+02 6.950729086161e+00 0.0 
6.950729086161e+00 -3.280253886218e+02 0.0 
0.0 0.0 -1.380593422629e+02 
-1.053830350871e+02 9.552632007515e+00 0.0 
9.552632007515e+00 -2.665220045034e+02 0.0 
0.0 0.0 -1.111715118771e+02 
-1.034675151614e+02 3.306028390753e+00 0.0 
3.306028390753e+00 -2.286902790936e+02 0.0 
0.0 0.0 -9.924733827650e+01 
-1.155372525782e+02 1.450606038842e+01 0.0 
1.450606038842e+01 -2.685124239488e+02 0.0 
0.0 0.0 -1.148149029581e+02 
-1.345635659747e+02 8.389611675422e+00 0.0 
8.389611675422e+00 -3.287363286826e+02 0.0 
0.0 0.0 -1.385899683972e+02 
-1.596572536677e+01 9.553757784755e+00 0.0 
9.553757784755e+00 -1.687150461207e+01 0.0 
0.0 0.0 -9.451168993653e+00 
-9.591776556795e+01 3.393126957912e+00 0.0 
3.393126957912e+00 -2.073838420327e+02 0.0 
0.0 0.0 -9.059048228019e+01 
-1.286323846017e+02 1.470753798208e+01 0.0 
1.470753798208e+01 -3.050494087750e+02 0.0 
0.0 0.0 -1.297045380130e+02 
-1.061487170298e+02 2.123420697330e+00 0.0 
2.123420697330e+00 -2.370839162033e+02 0.0 
0.0 0.0 -1.025697899699e+02 
-9.664947475035e+01 9.162552488816e+00 0.0 
9.162552488816e+00 -2.480155015881e+02 0.0 
0.0 0.0 -1.029994929015e+02 
-7.207273808574e+01 8.778212747852e+00 0.0 
8.778212747852e+00 -1.937146238050e+02 0.0 
0.0 0.0 -7.933620856722e+01 
-8.822097583127e+01 2.186863798918e-01 0.0 
2.186863798918e-01 -2.295867935886e+02 0.0 
0.0 0.0 -9.494233082597e+01 
-2.185354624951e+01 1.559846008124e+00 0.0 
1.559846008124e+00 -6.100135769785e+01 0.0 
0.0 0.0 -2.445647118421e+01 
-1.099909201267e+02 1.989280693702e+00 0.0 
1.989280693702e+00 -2.478022623693e+02 0.0 
0.0 0.0 -1.069379547488e+02 
-4.505946582142e+01 -1.471042503553e+00 0.0 
-1.471042503553e+00 -1.193065876651e+02 0.0 
0.0 0.0 -4.890981604596e+01 
-1.683197637744e+01 4.109683102819e+00 0.0 
4.109683102819e+00 -2.293288385882e+01 0.0 
0.0 0.0 -1.152945807088e+01 
-1.117079355078e+02 1.424405210831e+01 0.0 
1.424405210831e+01 -2.565264708620e+02 0.0 
0.0 0.0 -1.100703219109e+02 
-1.179326710641e+02 1.704973570032e+00 0.0 
1.704973570032e+00 -2.698237288760e+02 0.0 
0.0 0.0 -1.159269199820e+02 
-3.551078085593e+01 -2.728726018197e-01 0.0 
-2.728726018197e-01 -9.704730930244e+01 0.0 
0.0 0.0 -3.936742704751e+01 
-8.437995158025e+01 1.378228305357e+01 0.0 
1.378228305357e+01 -1.859331895805e+02 0.0 
0.0 0.0 -8.069394234822e+01 
-9.856437443349e+01 2.231221587271e+00 0.0 
2.231221587271e+00 -2.157002968105e+02 0.0 
0.0 0.0 -9.387940137320e+01 
-8.542421196881e+01 2.111560607726e+00 0.0 
2.111560607726e+00 -2.232932967101e+02 0.0 
0.0 0.0 -9.221525260367e+01 
-3.750537176994e+01 2.450957746974e+00 0.0 
2.450957746974e+00 -1.069589587575e+02 0.0 
0.0 0.0 -4.293929915824e+01 
-4.497131921520e+01 1.304332951025e+01 0.0 
1.304332951025e+01 -1.172290413958e+02 0.0 
0.0 0.0 -4.826010818329e+01 
-2.848281480579e+01 -1.968581050715e+00 0.0 
-1.968581050715e+00 -7.528232801342e+01 0.0 
0.0 0.0 -3.072954284577e+01 
-3.379964048648e+01 -7.491546257043e-01 0.0 
-7.491546257043e-01 -9.623487901215e+01 0.0 
0.0 0.0 -3.861035584959e+01 
-3.109644962916e+01 -1.526889412097e+00 0.0 
-1.526889412097e+00 -8.611988553964e+01 0.0 
0.0 0.0 -3.476490055064e+01 
-8.806166098226e+01 8.806775515233e+00 0.0 
8.806775515233e+00 -2.296272407123e+02 0.0 
0.0 0.0 -9.490667050838e+01 
-1.355983091388e+02 7.059477642909e+00 0.0 
7.059477642909e+00 -3.125304461440e+02 0.0 
0.0 0.0 -1.340386265848e+02 
-2.512677130374e+01 2.591272872415e+00 0.0 
2.591272872415e+00 -4.066967601562e+01 0.0 
0.0 0.0 -1.933893419581e+01 
-1.332516588441e+02 4.285446821562e+00 0.0 
4.285446821562e+00 -3.273248257791e+02 0.0 
0.0 0.0 -1.377729453870e+02 
-5.951803582999e+01 8.677573417564e+00 0.0 
8.677573417564e+00 -1.647926178460e+02 0.0 
0.0 0.0 -6.689319610281e+01 
-9.631637877698e+01 4.150772254424e+00 0.0 
4.150772254424e+00 -2.061591734853e+02 0.0 
0.0 0.0 -9.034266567869e+01 
-2.640847996929e+01 2.416686245663e+00 0.0 
2.416686245663e+00 -7.895370388870e+01 0.0 
0.0 0.0 -3.120865515740e+01 
-1.393922952245e+02 9.399308726499e+00 0.0 
9.399308726499e+00 -3.378571524081e+02 0.0 
0.0 0.0 -1.427748342898e+02 
-3.278414276058e+01 -9.994910686084e-01 0.0 
-9.994910686084e-01 -8.691144818297e+01 0.0 
0.0 0.0 -3.550867728306e+01 
-5.278007874385e+01 -1.315709127889e+00 0.0 
-1.315709127889e+00 -1.395871010272e+02 0.0 
0.0 0.0 -5.731015393132e+01 
-1.099778464799e+02 1.043545030458e+01 0.0 
1.043545030458e+01 -2.743489429291e+02 0.0 
0.0 0.0 -1.148980368227e+02 
-7.683454675111e+01 4.444199733913e+00 0.0 
4.444199733913e+00 -2.066318751116e+02 0.0 
0.0 0.0 -8.463992655882e+01 
-1.243557326384e+02 1.411653018004e+01 0.0 
1.411653018004e+01 -2.978301932242e+02 0.0 
0.0 0.0 -1.262557777588e+02 
-5.094173756833e+01 1.573278709536e+01 0.0 
1.573278709536e+01 -1.146534420557e+02 0.0 
0.0 0.0 -4.927855388719e+01 
-1.044385862300e+02 5.697865583434e+00 0.0 
5.697865583434e+00 -2.252059605537e+02 0.0 
0.0 0.0 -9.849336403509e+01 
-1.326505791316e+02 1.226656052912e+01 0.0 
1.226656052912e+01 -3.196057950072e+02 0.0 
0.0 0.0 -1.352769122417e+02 
-9.457128850620e+01 1.603343030764e+00 0.0 
1.603343030764e+00 -2.065273718535e+02 0.0 
0.0 0.0 -8.992959810791e+01 
-1.228424634844e+02 9.267776864553e+00 0.0 
9.267776864553e+00 -2.744556992951e+02 0.0 
0.0 0.0 -1.187894488339e+02 
-1.076129285305e+02 4.686564083050e+00 0.0 
4.686564083050e+00 -2.364632357588e+02 0.0 
0.0 0.0 -1.028228492868e+02 
-1.114881718174e+02 5.434422398854e+00 0.0 
5.434422398854e+00 -2.458805787729e+02 0.0 
0.0 0.0 -1.068106251771e+02 
-2.774765530721e+01 7.776494289665e+00 0.0 
7.776494289665e+00 -8.432557647712e+01 0.0 
0.0 0.0 -3.322196953530e+01 
-1.283015680784e+02 3.475811174938e+00 0.0 
3.475811174938e+00 -3.172904270446e+02 0.0 
0.0 0.0 -1.332775985369e+02 
-1.025517897089e+02 2.947342533752e+00 0.0 
2.947342533752e+00 -2.250694581125e+02 0.0 
0.0 0.0 -9.788637434641e+01 
-7.646025308990e+01 1.109227626426e+01 0.0 
1.109227626426e+01 -1.963588676624e+02 0.0 
0.0 0.0 -8.144573622570e+01 
-3.410039304077e+01 1.675500865329e+00 0.0 
1.675500865329e+00 -5.974929111508e+01 0.0 
0.0 0.0 -2.775490524676e+01 
-1.381724101856e+02 1.466505649849e+01 0.0 
1.466505649849e+01 -3.280858050658e+02 0.0 
0.0 0.0 -1.394774645754e+02 
-3.438754091133e+01 5.157194351914e+00 0.0 
5.157194351914e+00 -1.047432664957e+02 0.0 
0.0 0.0 -4.133924222211e+01 
-4.974956676330e+01 3.320497081398e-02 0.0 
3.320497081398e-02 -1.308936057314e+02 0.0 
0.0 0.0 -5.379295174841e+01 
-1.191678044752e+02 1.188552830352e+01 0.0 
1.188552830352e+01 -2.896897512922e+02 0.0 
0.0 0.0 -1.222572667302e+02 
-3.062650492859e+01 3.990131362568e-01 0.0 
3.990131362568e-01 -8.014510072503e+01 0.0 
0.0 0.0 -3.283148169609e+01 
-7.822785108602e+01 1.447587239538e+01 0.0 
1.447587239538e+01 -1.849222443931e+02 0.0 
0.0 0.0 -7.854502864374e+01 
-1.142425278499e+02 1.000676083568e+01 0.0 
1.000676083568e+01 -2.850505034422e+02 0.0 
0.0 0.0 -1.193879093876e+02 
-1.184283235131e+02 5.912128708948e+00 0.0 
5.912128708948e+00 -2.652261123161e+02 0.0 
0.0 0.0 -1.146963307488e+02 
-1.222226005322e+02 6.788680815653e+00 0.0 
6.788680815653e+00 -2.752288750138e+02 0.0 
0.0 0.0 -1.188354426638e+02 
-1.104989003994e+02 1.171239706500e+01 0.0 
1.171239706500e+01 -2.748361619524e+02 0.0 
0.0 0.0 -1.152005187055e+02 
-1.112118127655e+02 4.575192470088e+00 0.0 
4.575192470088e+00 -2.471371906526e+02 0.0 
0.0 0.0 -1.071047010254e+02 
-6.378419876671e+01 9.983841557282e+00 0.0 
9.983841557282e+00 -1.717113214330e+02 0.0 
0.0 0.0 -7.024865605991e+01 
-1.122898939347e+02 1.369798898197e+01 0.0 
1.369798898197e+01 -2.524008444798e+02 0.0 
0.0 0.0 -1.090072215243e+02 
-4.296379387193e+01 1.076582037745e+00 0.0 
1.076582037745e+00 -7.912033617890e+01 0.0 
0.0 0.0 -3.622523901525e+01 
-1.218328653245e+02 9.870591891680e+00 0.0 
9.870591891680e+00 -2.746503950591e+02 0.0 
0.0 0.0 -1.185449781151e+02 
-5.143200423754e+01 8.354121638138e-01 0.0 
8.354121638138e-01 -9.849148959808e+01 0.0 
0.0 0.0 -4.457704815069e+01 
-5.604659208500e+01 8.926999886621e-01 0.0 
8.926999886621e-01 -1.081735191170e+02 0.0 
0.0 0.0 -4.886603336059e+01 
-7.572185796364e+01 9.273124525681e+00 0.0 
9.273124525681e+00 -2.007006781152e+02 0.0 
0.0 0.0 -8.252676082366e+01 
-5.975325446910e+01 6.879951042358e-01 0.0 
6.879951042358e-01 -1.180756041116e+02 0.0 
0.0 0.0 -5.294865757422e+01 
-8.986220899738e+01 1.397115200671e+01 0.0 
1.397115200671e+01 -2.160174676534e+02 0.0 
0.0 0.0 -9.136390299525e+01 
-6.886459393247e+01 1.374754593028e+01 0.0 
1.374754593028e+01 -1.726331774755e+02 0.0 
0.0 0.0 -7.204933142240e+01 
-7.618631436649e+01 8.008050856663e+00 0.0 
8.008050856663e+00 -2.041069590835e+02 0.0 
0.0 0.0 -8.368798203501e+01 
-3.277223724953e+01 8.272229065735e-01 0.0 
8.272229065735e-01 -9.675320148057e+01 0.0 
0.0 0.0 -3.845763161903e+01 
-7.136970720312e+01 8.082592113412e+00 0.0 
8.082592113412e+00 -1.932654276701e+02 0.0 
0.0 0.0 -7.899054046196e+01 
-1.136841923234e+02 2.629455464184e+00 0.0 
2.629455464184e+00 -2.570274636823e+02 0.0 
0.0 0.0 -1.108134968017e+02 
-1.227054388171e+02 8.525583618765e+00 0.0 
8.525583618765e+00 -2.760490404941e+02 0.0 
0.0 0.0 -1.192263437934e+02 
-1.189921451198e+02 2.978119213568e+00 0.0 
2.978119213568e+00 -2.984473166752e+02 0.0 
0.0 0.0 -1.248318385385e+02 
-1.280444204589e+02 1.242286896485e+01 0.0 
1.242286896485e+01 -3.085577702167e+02 0.0 
0.0 0.0 -1.305806572027e+02 
-7.544004074607e+01 3.573240260452e+00 0.0 
3.573240260452e+00 -2.058464346418e+02 0.0 
0.0 0.0 -8.398594261636e+01 
-1.100734737576e+02 3.588312222626e+00 0.0 
3.588312222626e+00 -2.449599989056e+02 0.0 
0.0 0.0 -1.061100417990e+02 
-7.532225969651e+01 7.256170997315e+00 0.0 
7.256170997315e+00 -2.035796747264e+02 0.0 
0.0 0.0 -8.327058032688e+01 
-1.329375639439e+02 3.127217527784e+00 0.0 
3.127217527784e+00 -3.260965140981e+02 0.0 
0.0 0.0 -1.373102234126e+02 
-1.061972130480e+02 2.892883125516e+00 0.0 
2.892883125516e+00 -2.355585877013e+02 0.0 
0.0 0.0 -1.021267402248e+02 
-1.079641147898e+02 5.575373016781e+00 0.0 
5.575373016781e+00 -2.354831099465e+02 0.0 
0.0 0.0 -1.026341674209e+02 
-1.008226988083e+02 8.571965508298e+00 0.0 
8.571965508298e+00 -2.584986873470e+02 0.0 
0.0 0.0 -1.073964158466e+02 
-6.752005436100e+01 8.999820170257e+00 0.0 
8.999820170257e+00 -1.826649686369e+02 0.0 
0.0 0.0 -7.465550689937e+01 
-1.197795006868e+02 1.396611322506e+01 0.0 
1.396611322506e+01 -2.716351045756e+02 0.0 
0.0 0.0 -1.170243815787e+02 
-9.297477702098e+01 8.505326703778e+00 0.0 
8.505326703778e+00 -1.972196789459e+02 0.0 
0.0 0.0 -8.665833679007e+01 
-3.477181626371e+01 1.105970558968e+00 0.0 
1.105970558968e+00 -9.766345661624e+01 0.0 
0.0 0.0 -3.933058186399e+01 
-3.636034419739e+01 4.954588110205e+00 0.0 
4.954588110205e+00 -1.055319255097e+02 0.0 
0.0 0.0 -4.216768091214e+01 
-5.503451639795e+01 1.359153286699e+01 0.0 
1.359153286699e+01 -1.282370303568e+02 0.0 
0.0 0.0 -5.458146402642e+01 
-8.464227541043e+01 1.148591054823e+01 0.0 
1.148591054823e+01 -1.855853172202e+02 0.0 
0.0 0.0 -8.066827778919e+01 
-1.375863819453e+02 2.715579383605e+00 0.0 
2.715579383605e+00 -3.350186131205e+02 0.0 
0.0 0.0 -1.413814985198e+02 
-1.039956902027e+02 4.803165839680e+00 0.0 
4.803165839680e+00 -2.259995092867e+02 0.0 
0.0 0.0 -9.859855984684e+01 
-6.803234731313e+01 9.651013183052e+00 0.0 
9.651013183052e+00 -1.830247790586e+02 0.0 
0.0 0.0 -7.491713791153e+01 
-9.667004851656e+01 1.324957447418e+01 0.0 
1.324957447418e+01 -2.129521236533e+02 0.0 
0.0 0.0 -9.248665165097e+01 
-1.187547641730e+02 9.564946850520e+00 0.0 
9.564946850520e+00 -2.957290536031e+02 0.0 
0.0 0.0 -1.239451453328e+02 
-1.110810515888e+02 3.773827397803e+00 0.0 
3.773827397803e+00 -2.485788574780e+02 0.0 
0.0 0.0 -1.074979727200e+02 
-1.233856725902e+02 1.372198380717e+01 0.0 
1.372198380717e+01 -2.795164339845e+02 0.0 
0.0 0.0 -1.204706319724e+02 
-9.108339652035e+01 2.263174872358e+00 0.0 
2.263174872358e+00 -1.948963699126e+02 0.0 
0.0 0.0 -8.539392992989e+01 
-1.239160227452e+02 7.758020735655e+00 0.0 
7.758020735655e+00 -3.085702164787e+02 0.0 
0.0 0.0 -1.293458717672e+02 
-8.023340120974e+01 9.294047892501e+00 0.0 
9.294047892501e+00 -2.118124066596e+02 0.0 
0.0 0.0 -8.721374236081e+01 
-1.195200991132e+02 1.082118505287e+01 0.0 
1.082118505287e+01 -2.962215086708e+02 0.0 
0.0 0.0 -1.243224823352e+02 
-7.900678976006e+01 1.275498562111e+01 0.0 
1.275498562111e+01 -1.848843005465e+02 0.0 
0.0 0.0 -7.876732709196e+01 
-1.184340080411e+02 5.005928153027e+00 0.0 
5.005928153027e+00 -2.668324569091e+02 0.0 
0.0 0.0 -1.151799394851e+02 
-1.281794768740e+02 1.395974213855e+01 0.0 
1.395974213855e+01 -2.894709631320e+02 0.0 
0.0 0.0 -1.248951320018e+02 
-9.213268312871e+01 8.132473525092e+00 0.0 
8.132473525092e+00 -2.400502964279e+02 0.0 
0.0 0.0 -9.925489386698e+01 
-3.183903914402e+01 3.259291454313e+00 0.0 
3.259291454313e+00 -9.671056900107e+01 0.0 
0.0 0.0 -3.816488244353e+01 
-1.188389219746e+02 1.288433504689e+01 0.0 
1.288433504689e+01 -2.796920897970e+02 0.0 
0.0 0.0 -1.191593035315e+02 
-8.633248116371e+01 1.427208919599e+01 0.0 
1.427208919599e+01 -2.038006458318e+02 0.0 
0.0 0.0 -8.663993809864e+01 
-6.406642411554e+01 1.062884213948e+01 0.0 
1.062884213948e+01 -1.719749315358e+02 0.0 
0.0 0.0 -7.041240669541e+01 
-9.720227353298e+01 1.024570634067e+01 0.0 
1.024570634067e+01 -2.484817869854e+02 0.0 
0.0 0.0 -1.033052181555e+02 
-1.202101920223e+02 8.042930442526e+00 0.0 
8.042930442526e+00 -3.001891311417e+02 0.0 
0.0 0.0 -1.257197969492e+02 
-3.401841960524e+01 3.089211929280e+00 0.0 
3.089211929280e+00 -9.759342308753e+01 0.0 
0.0 0.0 -3.908355280783e+01 
-8.363191448553e+01 7.706850670958e+00 0.0 
7.706850670958e+00 -2.217449076331e+02 0.0 
0.0 0.0 -9.121304663558e+01 
-9.637206262313e+01 6.483702080632e+00 0.0 
6.483702080632e+00 -2.041438525145e+02 0.0 
0.0 0.0 -8.975477454128e+01 
-1.381715579682e+02 4.170124876472e+00 0.0 
4.170124876472e+00 -3.355584743485e+02 0.0 
0.0 0.0 -1.417190096950e+02 
-1.002973446594e+02 7.618188503859e+00 0.0 
7.618188503859e+00 -2.146702078102e+02 0.0 
0.0 0.0 -9.409026574088e+01 
-1.150725498989e+02 1.266715686593e+01 0.0 
1.266715686593e+01 -2.679322747338e+02 0.0 
0.0 0.0 -1.145014473898e+02 
-9.233053020291e+01 5.366945851500e+00 0.0 
5.366945851500e+00 -1.938858776351e+02 0.0 
0.0 0.0 -8.546492235140e+01 
-8.375593421798e+01 3.170870120386e+00 0.0 
3.170870120386e+00 -1.740715702939e+02 0.0 
0.0 0.0 -7.694825135355e+01 
-9.675707128658e+01 9.582110937664e+00 0.0 
9.582110937664e+00 -2.086331323552e+02 0.0 
0.0 0.0 -9.121706109254e+01 
-1.235106536818e+02 1.162756256398e+01 0.0 
1.162756256398e+01 -3.008564535978e+02 0.0 
0.0 0.0 -1.269101321839e+02 
-1.246386804437e+02 5.141024819790e+00 0.0 
5.141024819790e+00 -3.091366945135e+02 0.0 
0.0 0.0 -1.297326124871e+02 
-9.888911387290e+01 3.022372788877e+00 0.0 
3.022372788877e+00 -2.146985908624e+02 0.0 
0.0 0.0 -9.367631142059e+01 
-1.210697761508e+02 5.095794035210e+00 0.0 
5.095794035210e+00 -2.744347670325e+02 0.0 
0.0 0.0 -1.182513629550e+02 
-8.821669260954e+01 4.268581203345e+00 0.0 
4.268581203345e+00 -1.839306670343e+02 0.0 
0.0 0.0 -8.124420789316e+01 
-5.268504934514e+01 8.563295026637e+00 0.0 
8.563295026637e+00 -1.475390279968e+02 0.0 
0.0 0.0 -5.966722320258e+01 
-1.236577900935e+02 1.487725090934e+01 0.0 
1.487725090934e+01 -2.878195630003e+02 0.0 
0.0 0.0 -1.230432059281e+02 
-1.186245205281e+02 4.296515981777e+00 0.0 
4.296515981777e+00 -2.685723565352e+02 0.0 
0.0 0.0 -1.157590631190e+02 
-7.759473840706e+01 1.235061634861e+01 0.0 
1.235061634861e+01 -1.909055592140e+02 0.0 
0.0 0.0 -8.015008928633e+01 
-8.230400855463e+01 1.257272393763e+01 0.0 
1.257272393763e+01 -1.972442226757e+02 0.0 
0.0 0.0 -8.346446936911e+01 
-6.020768672038e+01 9.158660663162e+00 0.0 
9.158660663162e+00 -1.651925771499e+02 0.0 
0.0 0.0 -6.722007916109e+01 
-1.028509176806e+02 3.793510605575e+00 0.0 
3.793510605575e+00 -2.241699701136e+02 0.0 
0.0 0.0 -9.770626633826e+01 
-6.099823117281e+01 1.135962967388e+01 0.0 
1.135962967388e+01 -1.262639289883e+02 0.0 
0.0 0.0 -5.577864804832e+01 
-9.382538323043e+01 1.211702465950e+01 0.0 
1.211702465950e+01 -2.277979420842e+02 0.0 
0.0 0.0 -9.608699759440e+01 
-6.064129950850e+01 1.423055127366e+01 0.0 
1.423055127366e+01 -1.266711361474e+02 0.0 
0.0 0.0 -5.579373069677e+01 
-1.145965648380e+02 1.120671661034e+01 0.0 
1.120671661034e+01 -2.820636799794e+02 0.0 
0.0 0.0 -1.185980734452e+02 
-1.315255728556e+02 1.514019732312e+01 0.0 
1.514019732312e+01 -3.063309432830e+02 0.0 
0.0 0.0 -1.309569548416e+02 
-6.419060587785e+01 8.213237419490e+00 0.0 
8.213237419490e+00 -1.758049691814e+02 0.0 
0.0 0.0 -7.159867251777e+01 
-2.421614314465e+01 1.261103371985e+00 0.0 
1.261103371985e+00 -6.193204362010e+01 0.0 
0.0 0.0 -2.544445602943e+01 
-1.213103576597e+02 6.181883842605e+00 0.0 
6.181883842605e+00 -2.740031313506e+02 0.0 
0.0 0.0 -1.181940467031e+02 
-6.532526461338e+01 1.016498608376e+01 0.0 
1.016498608376e+01 -1.331409941562e+02 0.0 
0.0 0.0 -5.913987763087e+01 
-7.937488170694e+01 4.719812470946e+00 0.0 
4.719812470946e+00 -2.147693262884e+02 0.0 
0.0 0.0 -8.784326239862e+01 
-1.272139078239e+02 1.333758514486e+01 0.0 
1.333758514486e+01 -2.991157141443e+02 0.0 
0.0 0.0 -1.274988865905e+02 
-1.003961935792e+02 4.887896844883e+00 0.0 
4.887896844883e+00 -2.156573889146e+02 0.0 
0.0 0.0 -9.441607474814e+01 
-1.201186177843e+02 5.417789461142e+00 0.0 
5.417789461142e+00 -3.001067731866e+02 0.0 
0.0 0.0 -1.256676172913e+02 
-6.442832559295e+01 1.287171075899e+01 0.0 
1.287171075899e+01 -1.666657057866e+02 0.0 
0.0 0.0 -6.892820941387e+01 
-2.034381442058e+01 1.604682723103e-01 0.0 
1.604682723103e-01 -5.175610168822e+01 0.0 
0.0 0.0 -2.122997483264e+01 
-1.428575637269e+02 3.849547952139e+00 0.0 
3.849547952139e+00 -3.453887641711e+02 0.0 
0.0 0.0 -1.460738983694e+02 
-8.806503525427e+01 1.205506650083e+01 0.0 
1.205506650083e+01 -1.979950123675e+02 0.0 
0.0 0.0 -8.541801428654e+01 
-1.064384770531e+02 1.336211196671e+01 0.0 
1.336211196671e+01 -2.591773505720e+02 0.0 
0.0 0.0 -1.092847482875e+02 
-1.231372612759e+02 1.277342198750e+01 0.0 
1.277342198750e+01 -2.834080885967e+02 0.0 
0.0 0.0 -1.215636049618e+02 
-1.727309856243e+01 4.625153494305e-02 0.0 
4.625153494305e-02 -3.456020770985e+01 0.0 
0.0 0.0 -1.514999188169e+01 
-1.191363302608e+02 4.086894417947e+00 0.0 
4.086894417947e+00 -2.993957268892e+02 0.0 
0.0 0.0 -1.251596171450e+02 
-4.116349308020e+01 1.221629430878e+01 0.0 
1.221629430878e+01 -1.127646264226e+02 0.0 
0.0 0.0 -4.577843585083e+01 
-9.272368636500e+01 4.154382004584e+00 0.0 
4.154382004584e+00 -1.959007490279e+02 0.0 
0.0 0.0 -8.618733061787e+01 
-9.366839457672e+01 2.683007942762e+00 0.0 
2.683007942762e+00 -2.422932124752e+02 0.0 
0.0 0.0 -1.003884821156e+02 
-6.332693354347e+01 7.673192283827e+00 0.0 
7.673192283827e+00 -1.753114296127e+02 0.0 
0.0 0.0 -7.119150894685e+01 
-1.336055282060e+02 4.490557436204e+00 0.0 
4.490557436204e+00 -3.266806327941e+02 0.0 
0.0 0.0 -1.376858483000e+02 
-9.032967549758e+01 1.242704694833e+01 0.0 
1.242704694833e+01 -2.158790073715e+02 0.0 
0.0 0.0 -9.146260486074e+01 
-5.552806043650e+01 7.192098380672e+00 0.0 
7.192098380672e+00 -1.575207544863e+02 0.0 
0.0 0.0 -6.351464447684e+01 
-9.225568533306e+01 1.373278195665e+01 0.0 
1.373278195665e+01 -2.054643125667e+02 0.0 
0.0 0.0 -8.891599936993e+01 
-2.255567319529e+01 -1.946678357371e-01 0.0 
-1.946678357371e-01 -5.259810109451e+01 0.0 
0.0 0.0 -2.214613228694e+01 
-1.080603339691e+02 1.391172978389e+01 0.0 
1.391172978389e+01 -2.445993266672e+02 0.0 
0.0 0.0 -1.053978981909e+02 
-1.150807875996e+02 1.260046610675e+01 0.0 
1.260046610675e+01 -2.825677738027e+02 0.0 
0.0 0.0 -1.188945684207e+02 
-1.297209557112e+02 1.308461785738e+01 0.0 
1.308461785738e+01 -2.948175277325e+02 0.0 
0.0 0.0 -1.269615450331e+02 
-1.159636433402e+02 1.419122490501e+01 0.0 
1.419122490501e+01 -2.642349215044e+02 0.0 
0.0 0.0 -1.136595694534e+02 
-4.262860347862e+01 5.919123451509e+00 0.0 
5.919123451509e+00 -1.229994502219e+02 0.0 
0.0 0.0 -4.928841611015e+01 
-1.198987977668e+02 4.327819749923e+00 0.0 
4.327819749923e+00 -2.991355081266e+02 0.0 
0.0 0.0 -1.253102917680e+02 
-1.212288660228e+02 3.137919937417e+00 0.0 
3.137919937417e+00 -2.768265922013e+02 0.0 
0.0 0.0 -1.190166374672e+02 
-1.420437610550e+02 1.538015189504e+01 0.0 
1.538015189504e+01 -3.349701093342e+02 0.0 
0.0 0.0 -1.427041611167e+02 
-1.197139479163e+02 1.338653221478e+01 0.0 
1.338653221478e+01 -2.902422188733e+02 0.0 
0.0 0.0 -1.225868500369e+02 
-6.817843388925e+01 1.189820139807e+01 0.0 
1.189820139807e+01 -1.784356527112e+02 0.0 
0.0 0.0 -7.358422598014e+01 
-1.001427103236e+02 1.377323423173e+01 0.0 
1.377323423173e+01 -2.249928884023e+02 0.0 
0.0 0.0 -9.714067961775e+01 
-1.367784297695e+02 1.694551365496e+00 0.0 
1.694551365496e+00 -3.330904835665e+02 0.0 
0.0 0.0 -1.405606740008e+02 
-8.788451338589e+01 9.380429568139e-01 0.0 
9.380429568139e-01 -2.262469988870e+02 0.0 
0.0 0.0 -9.383945368186e+01 
-1.113746530977e+02 1.236236137769e+01 0.0 
1.236236137769e+01 -2.559991367678e+02 0.0 
0.0 0.0 -1.098121369597e+02 
-9.483732463584e+01 2.252929318983e+00 0.0 
2.252929318983e+00 -2.052208757091e+02 0.0 
0.0 0.0 -8.961746010348e+01 
-1.291227469747e+02 4.833322109453e+00 0.0 
4.833322109453e+00 -3.179367988071e+02 0.0 
0.0 0.0 -1.337178637345e+02 
-1.248198923642e+02 6.319135985357e+00 0.0 
6.319135985357e+00 -3.097886013837e+02 0.0 
0.0 0.0 -1.299825481244e+02 
-5.930833353931e+01 6.174967272895e-02 0.0 
6.174967272895e-02 -1.255952301053e+02 0.0 
0.0 0.0 -5.507106909337e+01 
-5.924563014287e+01 -1.272618416041e-01 0.0 
-1.272618416041e-01 -1.255527694827e+02 0.0 
0.0 0.0 -5.503951988767e+01 
-1.016418821264e+02 8.417396626143e+00 0.0 
8.417396626143e+00 -2.148658296897e+02 0.0 
0.0 0.0 -9.455231354483e+01 
-1.036194484991e+02 1.214516980509e+01 0.0 
1.214516980509e+01 -2.366117948831e+02 0.0 
0.0 0.0 -1.016693730147e+02 
-9.777718170948e+01 2.580455126399e+00 0.0 
2.580455126399e+00 -2.510515751464e+02 0.0 
0.0 0.0 -1.042486270568e+02 
-1.014654659713e+02 1.136463727759e+01 0.0 
1.136463727759e+01 -2.178112396419e+02 0.0 
0.0 0.0 -9.538301168395e+01 
-8.567562955167e+01 1.219882831550e+01 0.0 
1.219882831550e+01 -2.092454692293e+02 0.0 
0.0 0.0 -8.807632963429e+01 
-1.322919154909e+02 9.936777369069e+00 0.0 
9.936777369069e+00 -3.234407678027e+02 0.0 
0.0 0.0 -1.363198049881e+02 
-6.828164467751e+01 1.105879576942e+01 0.0 
1.105879576942e+01 -1.782997375595e+02 0.0 
0.0 0.0 -7.357441467110e+01 
-1.342852302652e+02 6.389805386657e+00 0.0 
6.389805386657e+00 -3.109780822923e+02 0.0 
0.0 0.0 -1.331789937673e+02 
-7.632222681658e+01 2.549096082478e+00 0.0 
2.549096082478e+00 -1.551921033480e+02 0.0 
0.0 0.0 -6.905429904936e+01 
-8.166413995559e+01 1.409883478837e+01 0.0 
1.409883478837e+01 -1.973067167463e+02 0.0 
0.0 0.0 -8.329125701058e+01 
-9.251428869648e+01 1.402175936441e+00 0.0 
1.402175936441e+00 -2.415088386292e+02 0.0 
0.0 0.0 -9.980693819771e+01 
-3.890746211593e+01 6.974852077563e+00 0.0 
6.974852077563e+00 -1.127178116287e+02 0.0 
0.0 0.0 -4.508758212338e+01 
-8.139592124519e+01 2.144361172069e+00 0.0 
2.144361172069e+00 -2.144625994559e+02 0.0 
0.0 0.0 -8.835755621033e+01 
-9.583303609637e+01 1.205256806195e+01 0.0 
1.205256806195e+01 -2.172751811244e+02 0.0 
0.0 0.0 -9.353246516624e+01 
-8.882448998604e+01 1.081891305684e+01 0.0 
1.081891305684e+01 -1.928764807252e+02 0.0 
0.0 0.0 -8.411029121337e+01 
-9.523472082119e+01 3.064370214108e+00 0.0 
3.064370214108e+00 -2.044291724024e+02 0.0 
0.0 0.0 -8.949916796707e+01 
-1.042593949153e+02 1.005556556281e+01 0.0 
1.005556556281e+01 -2.283802093649e+02 0.0 
0.0 0.0 -9.939188128403e+01 
-1.088922133051e+02 1.181912169851e+01 0.0 
1.181912169851e+01 -2.374499582402e+02 0.0 
0.0 0.0 -1.035026514636e+02 
-2.302909658178e+01 -2.841970416616e-02 0.0 
-2.841970416616e-02 -5.915635361366e+01 0.0 
0.0 0.0 -2.425563505863e+01 
-7.614735977915e+01 2.863752215660e-01 0.0 
2.863752215660e-01 -2.034119389499e+02 0.0 
0.0 0.0 -8.346778961870e+01 
-6.532438987145e+01 1.314128391479e+01 0.0 
1.314128391479e+01 -1.336371406923e+02 0.0 
0.0 0.0 -5.928845916913e+01 
-9.664983722507e+01 8.015114317165e+00 0.0 
8.015114317165e+00 -2.057753531167e+02 0.0 
0.0 0.0 -9.032755710252e+01 
-1.016980857987e+02 9.862588565802e+00 0.0 
9.862588565802e+00 -2.158989880561e+02 0.0 
0.0 0.0 -9.487912215644e+01 
-1.277458015615e+02 1.138562772509e+01 0.0 
1.138562772509e+01 -3.110668574315e+02 0.0 
0.0 0.0 -1.312437976979e+02 
-3.372481364654e+01 -8.196755566976e-01 0.0 
-8.196755566976e-01 -8.912500946471e+01 0.0 
0.0 0.0 -3.645494693337e+01 
-3.173812622719e+01 1.442506444816e+00 0.0 
1.442506444816e+00 -8.889728589223e+01 0.0 
0.0 0.0 -3.579062363583e+01 
-8.360898094731e+01 1.248034574022e+01 0.0 
1.248034574022e+01 -1.912857924090e+02 0.0 
0.0 0.0 -8.206843200688e+01 
-7.740962127480e+01 1.537000794390e+00 0.0 
1.537000794390e+00 -2.042170679887e+02 0.0 
0.0 0.0 -8.408800677904e+01 
-5.743249229160e+01 3.200504001883e+00 0.0 
3.200504001883e+00 -1.094370875632e+02 0.0 
0.0 0.0 -4.966087395645e+01 
-6.153583540590e+01 2.883848449049e+00 0.0 
2.883848449049e+00 -1.192690482643e+02 0.0 
0.0 0.0 -5.384146510105e+01 
-9.681701127209e+01 4.957798223859e+00 0.0 
4.957798223859e+00 -2.054205291562e+02 0.0 
0.0 0.0 -9.027126212850e+01 
-2.641171202191e+01 8.618359160175e+00 0.0 
8.618359160175e+00 -7.378296679555e+01 0.0 
0.0 0.0 -2.965840364524e+01 
-8.836044138726e+01 7.779467911033e-01 0.0 
7.779467911033e-01 -2.313364390583e+02 0.0 
0.0 0.0 -9.550906413366e+01 
-1.150292352847e+02 9.809399182065e+00 0.0 
9.809399182065e+00 -2.880084738027e+02 0.0 
0.0 0.0 -1.205113127262e+02 
-2.950743127619e+01 1.525162214237e+00 0.0 
1.525162214237e+00 -8.798780243486e+01 0.0 
0.0 0.0 -3.484857011332e+01 
-1.377046838325e+02 1.484624223131e+01 0.0 
1.484624223131e+01 -3.212360987154e+02 0.0 
0.0 0.0 -1.372822347644e+02 
-1.147946751008e+02 5.154013142698e+00 0.0 
5.154013142698e+00 -2.559969499390e+02 0.0 
0.0 0.0 -1.108374875119e+02 
-8.526128489010e+01 1.558572621432e+00 0.0 
1.558572621432e+00 -2.216752770785e+02 0.0 
0.0 0.0 -9.168096859059e+01 
-1.235169636431e+02 2.692507142330e+00 0.0 
2.692507142330e+00 -3.072760416844e+02 0.0 
0.0 0.0 -1.288379015983e+02 
-1.610912491730e+01 -7.273360113670e-01 0.0 
-7.273360113670e-01 -4.235333094459e+01 0.0 
0.0 0.0 -1.713873675857e+01 
-1.105312212631e+02 8.752668845527e+00 0.0 
8.752668845527e+00 -2.795560588064e+02 0.0 
0.0 0.0 -1.166261840209e+02 
-8.765825663387e+01 1.413537051146e+01 0.0 
1.413537051146e+01 -1.982578542185e+02 0.0 
0.0 0.0 -8.537483325570e+01 
-1.632929253665e+01 -5.922174151750e-01 0.0 
-5.922174151750e-01 -4.227257374437e+01 0.0 
0.0 0.0 -1.718055988431e+01 
-1.135789619549e+02 3.509434058200e+00 0.0 
3.509434058200e+00 -2.552685343479e+02 0.0 
0.0 0.0 -1.102542488908e+02 
-2.870756385888e+01 2.136191934719e+00 0.0 
2.136191934719e+00 -7.986048065714e+01 0.0 
0.0 0.0 -3.217041335481e+01 
-9.782430670178e+01 1.032461671677e+01 0.0 
1.032461671677e+01 -2.067784108953e+02 0.0 
0.0 0.0 -9.098081527912e+01 
-8.890284855022e+01 1.316650432069e+01 0.0 
1.316650432069e+01 -1.933623987137e+02 0.0 
0.0 0.0 -8.427957417919e+01 
-7.645067655549e+01 6.080989761898e+00 0.0 
6.080989761898e+00 -2.058989259021e+02 0.0 
0.0 0.0 -8.430488073727e+01 
-9.641250749291e+01 4.459477791668e+00 0.0 
4.459477791668e+00 -2.524344211426e+02 0.0 
0.0 0.0 -1.042540785907e+02 
-1.171813508669e+02 4.251471998438e+00 0.0 
4.251471998438e+00 -2.645466275575e+02 0.0 
0.0 0.0 -1.141183935273e+02 
-1.052820911532e+02 5.077530946193e+00 0.0 
5.077530946193e+00 -2.712913919165e+02 0.0 
0.0 0.0 -1.125720449209e+02 
-8.693597838811e+01 1.255745782196e+01 0.0 
1.255745782196e+01 -2.036844773203e+02 0.0 
0.0 0.0 -8.678613671252e+01 
-8.296417361423e+01 1.441107485334e+01 0.0 
1.441107485334e+01 -1.914196324634e+02 0.0 
0.0 0.0 -8.191514182330e+01 
-1.788169530329e+01 1.156311900495e+01 0.0 
1.156311900495e+01 -1.493191335061e+01 0.0 
0.0 0.0 -9.444082596172e+00 
-2.460374263661e+01 8.136585415962e-01 0.0 
8.136585415962e-01 -7.017610343919e+01 0.0 
0.0 0.0 -2.803395382274e+01 
-1.196058732614e+02 1.450689596448e+01 0.0 
1.450689596448e+01 -2.758324393153e+02 0.0 
0.0 0.0 -1.182314937730e+02 
-8.943881860765e+01 5.325960115583e+00 0.0 
5.325960115583e+00 -1.852218400152e+02 0.0 
0.0 0.0 -8.199819758686e+01 
-1.227679961632e+02 1.316095362204e+01 0.0 
1.316095362204e+01 -2.869976662596e+02 0.0 
0.0 0.0 -1.225296987268e+02 
-4.080075287082e+01 1.190893601718e+01 0.0 
1.190893601718e+01 -1.125442041660e+02 0.0 
0.0 0.0 -4.560348711104e+01 
-1.110073350993e+02 6.763320811701e+00 0.0 
6.763320811701e+00 -2.437536539936e+02 0.0 
0.0 0.0 -1.060282967279e+02 
-1.237752317232e+02 1.460571805784e+01 0.0 
1.460571805784e+01 -2.838715996531e+02 0.0 
0.0 0.0 -1.218940494129e+02 
-6.442417964918e+01 1.643253073585e+00 0.0 
1.643253073585e+00 -1.266178960133e+02 0.0 
0.0 0.0 -5.691262269874e+01 
-1.190076719756e+02 1.275741466258e+01 0.0 
1.275741466258e+01 -2.751428262063e+02 0.0 
0.0 0.0 -1.178451494546e+02 
-1.243059956341e+02 4.057538708780e+00 0.0 
4.057538708780e+00 -3.079194404091e+02 0.0 
0.0 0.0 -1.292676308129e+02 
-9.928578202266e+01 1.233236194572e+01 0.0 
1.233236194572e+01 -2.293986228984e+02 0.0 
0.0 0.0 -9.820532147630e+01 
-8.421005768114e+01 8.447298254127e-01 0.0 
8.447298254127e-01 -2.225013262052e+02 0.0 
0.0 0.0 -9.161341516589e+01 
-8.953795148440e+01 2.775590889511e+00 0.0 
2.775590889511e+00 -2.334350049934e+02 0.0 
0.0 0.0 -9.649188694334e+01 
-1.230867681149e+02 8.184820874734e+00 0.0 
8.184820874734e+00 -2.756081967103e+02 0.0 
0.0 0.0 -1.192084894476e+02 
-8.787958365224e+01 3.825199707879e+00 0.0 
3.825199707879e+00 -2.337531459597e+02 0.0 
0.0 0.0 -9.608981888359e+01 
-9.237277122085e+01 1.155413820651e+01 0.0 
1.155413820651e+01 -2.050881065151e+02 0.0 
0.0 0.0 -8.883826332078e+01 
-8.473392280922e+01 1.111490251110e+01 0.0 
1.111490251110e+01 -2.146049930200e+02 0.0 
0.0 0.0 -8.940167474876e+01 
-1.144956851015e+02 5.716787722390e+00 0.0 
5.716787722390e+00 -2.902602052039e+02 0.0 
0.0 0.0 -1.210267670916e+02 
-7.700627758222e+01 1.364037422129e+01 0.0 
1.364037422129e+01 -1.909253063746e+02 0.0 
0.0 0.0 -7.997947518706e+01 
-4.473666782105e+01 4.912742708805e+00 0.0 
4.912742708805e+00 -1.322363323588e+02 0.0 
0.0 0.0 -5.269190005395e+01 
-8.772467934548e+01 7.032021854059e+00 0.0 
7.032021854059e+00 -2.318535593614e+02 0.0 
0.0 0.0 -9.547347161205e+01 
-4.804586180275e+01 6.624705148265e+00 0.0 
6.624705148265e+00 -1.398566733280e+02 0.0 
0.0 0.0 -5.597076053922e+01 
-1.004838902172e+02 9.085362893254e+00 0.0 
9.085362893254e+00 -2.169293443351e+02 0.0 
0.0 0.0 -9.482397036571e+01 
-4.941216369921e+01 6.796707003022e+00 0.0 
6.796707003022e+00 -1.404737531433e+02 0.0 
0.0 0.0 -5.656577505276e+01 
-9.747379690623e+01 1.194192773573e+01 0.0 
1.194192773573e+01 -2.093962874618e+02 0.0 
0.0 0.0 -9.166102531040e+01 
-1.241293331669e+02 1.310568134929e+01 0.0 
1.310568134929e+01 -3.014443143992e+02 0.0 
0.0 0.0 -1.272720942698e+02 
-1.188446857013e+02 1.086005282900e+01 0.0 
1.086005282900e+01 -2.929456497236e+02 0.0 
0.0 0.0 -1.231371006275e+02 
-7.289857866001e+01 1.185234089655e+01 0.0 
1.185234089655e+01 -1.846445801430e+02 0.0 
0.0 0.0 -7.686294764090e+01 
-9.157756951371e+01 3.068532609592e+00 0.0 
3.068532609592e+00 -1.942769911553e+02 0.0 
0.0 0.0 -8.535636820069e+01 
-1.280519165280e+02 2.378420506121e+00 0.0 
2.378420506121e+00 -3.160469581759e+02 0.0 
0.0 0.0 -1.328296624112e+02 
-1.287019402512e+02 3.757829339716e+00 0.0 
3.757829339716e+00 -3.166395025341e+02 0.0 
0.0 0.0 -1.332024328356e+02 
-2.179823108097e+01 7.716693954960e+00 0.0 
7.716693954960e+00 -5.710599138879e+01 0.0 
0.0 0.0 -2.327126674093e+01 
-1.004086720494e+02 1.051530640267e+01 0.0 
1.051530640267e+01 -2.202208328718e+02 0.0 
0.0 0.0 -9.578885147636e+01 
-1.426638627630e+02 2.133614086345e+00 0.0 
2.133614086345e+00 -3.447473940727e+02 0.0 
0.0 0.0 -1.458233770507e+02 
-4.407688018958e+01 6.655201120337e+00 0.0 
6.655201120337e+00 -7.957357493246e+01 0.0 
0.0 0.0 -3.669513653661e+01 
-9.341249070421e+01 2.016030771333e+00 0.0 
2.016030771333e+00 -2.406691555069e+02 0.0 
0.0 0.0 -9.982449386334e+01 
-1.656081982715e+01 1.067852477161e+01 0.0 
1.067852477161e+01 -1.574665700361e+01 0.0 
0.0 0.0 -9.292243049230e+00 
-1.325502327955e+02 2.041254094708e+00 0.0 
2.041254094708e+00 -3.247236576099e+02 0.0 
0.0 0.0 -1.367821671216e+02 
-4.096722873222e+01 5.940106261219e+00 0.0 
5.940106261219e+00 -1.223001688458e+02 0.0 
0.0 0.0 -4.858021927340e+01 
-9.057970251475e+01 -3.588836057032e-01 0.0 
-3.588836057032e-01 -2.324762101734e+02 0.0 
0.0 0.0 -9.651677380646e+01 
-1.061156473771e+02 1.180868610510e+01 0.0 
1.180868610510e+01 -2.587745414183e+02 0.0 
0.0 0.0 -1.090670566386e+02 
-9.328775022332e+01 5.050908695124e+00 0.0 
5.050908695124e+00 -1.953724456443e+02 0.0 
0.0 0.0 -8.619805876030e+01 
-8.817146191835e+01 3.235874824936e+00 0.0 
3.235874824936e+00 -1.842935504606e+02 0.0 
0.0 0.0 -8.133950371368e+01 
-9.145092759137e+01 1.236334522338e+01 0.0 
1.236334522338e+01 -2.103347647446e+02 0.0 
0.0 0.0 -9.013570770079e+01 
-4.921465083897e+01 3.595492268586e+00 0.0 
3.595492268586e+00 -9.011052123081e+01 0.0 
0.0 0.0 -4.139755162093e+01 
-5.343828723913e+01 3.182609641262e+00 0.0 
3.182609641262e+00 -9.987223364677e+01 0.0 
0.0 0.0 -4.559315626577e+01 
-1.330077283451e+02 3.390276724256e+00 0.0 
3.390276724256e+00 -3.252344568245e+02 0.0 
0.0 0.0 -1.370726555509e+02 
-1.018610682138e+02 6.660173411364e+00 0.0 
6.660173411364e+00 -2.621655956547e+02 0.0 
0.0 0.0 -1.088079991606e+02 
-8.454203441983e+01 6.764495014367e+00 0.0 
6.764495014367e+00 -2.240821392278e+02 0.0 
0.0 0.0 -9.218725209430e+01 
-1.095391249504e+02 7.515010642986e+00 0.0 
7.515010642986e+00 -2.789133403123e+02 0.0 
0.0 0.0 -1.161357395788e+02 
-7.936861892924e+01 6.531218437693e+00 0.0 
6.531218437693e+00 -2.136400231881e+02 0.0 
0.0 0.0 -8.750259263521e+01 
-4.555340584734e+01 7.832164559877e+00 0.0 
7.832164559877e+00 -1.300626567347e+02 0.0 
0.0 0.0 -5.228481877461e+01 
-4.758478839100e+01 1.003468645222e+00 0.0 
1.003468645222e+00 -8.857862253669e+01 0.0 
0.0 0.0 -4.044902327831e+01 
-8.133234069684e+01 4.338225766728e+00 0.0 
4.338225766728e+00 -1.658374999118e+02 0.0 
0.0 0.0 -7.375095218260e+01 
-5.940192951169e+01 -2.109477081696e-02 0.0 
-2.109477081696e-02 -1.257726149788e+02 0.0 
0.0 0.0 -5.515236334714e+01 
-1.194513341119e+02 1.221259189682e+01 0.0 
1.221259189682e+01 -2.934774303606e+02 0.0 
0.0 0.0 -1.234786293417e+02 
-7.249962283155e+01 1.290275437681e+01 0.0 
1.290275437681e+01 -1.846932717146e+02 0.0 
0.0 0.0 -7.675786836385e+01 
-1.369258211022e+02 1.317008340344e+01 0.0 
1.317008340344e+01 -3.271380483721e+02 0.0 
0.0 0.0 -1.388191608423e+02 
-1.315038034076e+02 6.017891160127e-02 0.0 
6.017891160127e-02 -3.217292137310e+02 0.0 
0.0 0.0 -1.355699051416e+02 
-8.439794668147e+01 8.588738080477e+00 0.0 
8.588738080477e+00 -2.222683460671e+02 0.0 
0.0 0.0 -9.159988782457e+01 
-1.483277351130e+02 4.500302901317e+00 0.0 
4.500302901317e+00 -3.551479881921e+02 0.0 
0.0 0.0 -1.506427169915e+02 
-5.334249120047e+01 5.935932481008e+00 0.0 
5.935932481008e+00 -1.506342532261e+02 0.0 
0.0 0.0 -6.079302332797e+01 
-1.319713134112e+02 1.316016414741e+01 0.0 
1.316016414741e+01 -3.156116878580e+02 0.0 
0.0 0.0 -1.338749003808e+02 
-9.101461104400e+01 1.424529748868e+01 0.0 
1.424529748868e+01 -2.105553013783e+02 0.0 
0.0 0.0 -9.007097372670e+01 
-1.027603841150e+02 1.244074336545e+01 0.0 
1.244074336545e+01 -2.413522080425e+02 0.0 
0.0 0.0 -1.028337776472e+02 
-1.293639575763e+02 1.006106092672e+01 0.0 
1.006106092672e+01 -3.174014912585e+02 0.0 
0.0 0.0 -1.336296346504e+02 
-6.221124657978e+01 8.422356910779e-01 0.0 
8.422356910779e-01 -1.679565265816e+02 0.0 
0.0 0.0 -6.865033194841e+01 
-9.647925745767e+01 1.102877051301e+01 0.0 
1.102877051301e+01 -2.125085527625e+02 0.0 
0.0 0.0 -9.229634306606e+01 
-8.034777372387e+01 7.331519932872e+00 0.0 
7.331519932872e+00 -2.142295978576e+02 0.0 
0.0 0.0 -8.797321147443e+01 
-9.323889694180e+01 1.253509096274e+01 0.0 
1.253509096274e+01 -2.011490637157e+02 0.0 
0.0 0.0 -8.791638819724e+01 
-4.467438750131e+01 1.373832484833e+01 0.0 
1.373832484833e+01 -1.172485738740e+02 0.0 
0.0 0.0 -4.817688841258e+01 
-1.063681349535e+02 1.238527899374e+01 0.0 
1.238527899374e+01 -2.533400206302e+02 0.0 
0.0 0.0 -1.075124466751e+02 
-7.526711910728e+01 5.298755444961e+00 0.0 
5.298755444961e+00 -2.052187715629e+02 0.0 
0.0 0.0 -8.374576720106e+01 
-9.673907060832e+01 1.276318909355e+00 0.0 
1.276318909355e+00 -2.503024634434e+02 0.0 
0.0 0.0 -1.037124602155e+02 
-9.284376311292e+01 1.017283810556e+01 0.0 
1.017283810556e+01 -2.005294407532e+02 0.0 
0.0 0.0 -8.761196115984e+01 
-1.617141368896e+01 6.401671762668e+00 0.0 
6.401671762668e+00 -2.476999726913e+01 0.0 
0.0 0.0 -1.188242328743e+01 
-9.316483874115e+01 1.116487608505e+01 0.0 
1.116487608505e+01 -2.331650802321e+02 0.0 
0.0 0.0 -9.749897569197e+01 
-1.825710413800e+01 1.067038920451e+01 0.0 
1.067038920451e+01 -3.243878171875e+01 0.0 
0.0 0.0 -1.480876575703e+01 
-2.454894616053e+01 -1.915440003744e+00 0.0 
-1.915440003744e+00 -6.335391889187e+01 0.0 
0.0 0.0 -2.597085951572e+01 
-9.243196575085e+01 7.047435241613e-01 0.0 
7.047435241613e-01 -2.399259370567e+02 0.0 
0.0 0.0 -9.930737084225e+01 
-1.162366989464e+02 1.343295376172e+01 0.0 
1.343295376172e+01 -2.603266322632e+02 0.0 
0.0 0.0 -1.125689993629e+02 
-9.197455211258e+01 4.123471531165e+00 0.0 
4.123471531165e+00 -1.935293359283e+02 0.0 
0.0 0.0 -8.525116641226e+01 
-4.092542278258e+01 4.497106645000e+00 0.0 
4.497106645000e+00 -7.125764209344e+01 0.0 
0.0 0.0 -3.325491946281e+01 
-1.326878075119e+02 6.376436355132e+00 0.0 
6.376436355132e+00 -3.109382175278e+02 0.0 
0.0 0.0 -1.326878075119e+02 
-1.663841749617e+01 1.002376559224e+01 0.0 
1.002376559224e+01 -1.187272191256e+01 0.0 
0.0 0.0 -8.260919839038e+00 
-4.502861343182e+01 3.755811729181e+00 0.0 
3.755811729181e+00 -8.062968104093e+01 0.0 
0.0 0.0 -3.729748834183e+01 
-8.763815445115e+01 5.330846332729e+00 0.0 
5.330846332729e+00 -2.330184887439e+02 0.0 
0.0 0.0 -9.579699295850e+01 
-8.913824944325e+01 1.562731259593e+00 0.0 
1.562731259593e+00 -2.302895932601e+02 0.0 
0.0 0.0 -9.542835281101e+01 
-6.247587744689e+01 6.106410334357e+00 0.0 
6.106410334357e+00 -1.180685548043e+02 0.0 
0.0 0.0 -5.376332967535e+01 
-5.633756278194e+01 2.732159885836e+00 0.0 
2.732159885836e+00 -1.606060038005e+02 0.0 
0.0 0.0 -6.468306997475e+01 
-9.314850002906e+01 5.921499082466e+00 0.0 
5.921499082466e+00 -2.433766725289e+02 0.0 
0.0 0.0 -1.005575517674e+02 
-9.564521747969e+01 1.406796884693e+01 0.0 
1.406796884693e+01 -2.176279021231e+02 0.0 
0.0 0.0 -9.358193588084e+01 
-1.017487913356e+02 1.134328023855e+01 0.0 
1.134328023855e+01 -2.519659259337e+02 0.0 
0.0 0.0 -1.057144151808e+02 
-1.182901501286e+02 9.969607429232e+00 0.0 
9.969607429232e+00 -2.651168978053e+02 0.0 
0.0 0.0 -1.146221143801e+02 
-2.268055039198e+01 7.064362515084e+00 0.0 
7.064362515084e+00 -6.755463491821e+01 0.0 
0.0 0.0 -2.667055559306e+01 
-8.420564113457e+01 2.420904569670e-01 0.0 
2.420904569670e-01 -2.209364717744e+02 0.0 
0.0 0.0 -9.114263387269e+01 
-9.224136311510e+01 1.698147272864e-01 0.0 
1.698147272864e-01 -2.382442300822e+02 0.0 
0.0 0.0 -9.874567795918e+01 
-4.753049765365e+01 -4.863256434643e-01 0.0 
-4.863256434643e-01 -1.271885019139e+02 0.0 
0.0 0.0 -5.201569987025e+01 
-6.817278194564e+01 1.432071372167e+00 0.0 
1.432071372167e+00 -1.362442701124e+02 0.0 
0.0 0.0 -6.092511561741e+01 
-9.353117670103e+01 6.241658522432e+00 0.0 
6.241658522432e+00 -1.946153371609e+02 0.0 
0.0 0.0 -8.604395415857e+01 
-1.182214469423e+02 1.045883056729e+00 0.0 
1.045883056729e+00 -2.936838986449e+02 0.0 
0.0 0.0 -1.231716036762e+02 
-1.716999711378e+01 -6.579429383148e-01 0.0 
-6.579429383148e-01 -4.251425826500e+01 0.0 
0.0 0.0 -1.750527661363e+01 
-1.683808841526e+01 1.454563085035e-01 0.0 
1.454563085035e-01 -2.588418957533e+01 0.0 
0.0 0.0 -1.241668339718e+01 
-3.394809384340e+01 -1.109714610241e+00 0.0 
-1.109714610241e+00 -8.875574313729e+01 0.0 
0.0 0.0 -3.641115109421e+01 
-9.301686573632e+01 1.531385931279e+00 0.0 
1.531385931279e+00 -2.388910947368e+02 0.0 
0.0 0.0 -9.917238814194e+01 
-6.062728763293e+01 6.696048422897e+00 0.0 
6.696048422897e+00 -1.683249140798e+02 0.0 
0.0 0.0 -6.828566051383e+01 
-5.411675924030e+01 3.737678192362e+00 0.0 
3.737678192362e+00 -1.522292570027e+02 0.0 
0.0 0.0 -6.150380487290e+01 
-4.642230400081e+01 5.041216001223e+00 0.0 
5.041216001223e+00 -1.329785463546e+02 0.0 
0.0 0.0 -5.342025510663e+01 
-9.652009266482e+01 6.139184304024e-01 0.0 
6.139184304024e-01 -2.485491397571e+02 0.0 
0.0 0.0 -1.031207697266e+02 
-9.995210358460e+01 6.156183955185e+00 0.0 
6.156183955185e+00 -2.135227754613e+02 0.0 
0.0 0.0 -9.364246371376e+01 
-9.624304391622e+01 9.020526232043e-02 0.0 
9.020526232043e-02 -2.468416515835e+02 0.0 
0.0 0.0 -1.025254086499e+02 
-5.943553944912e+01 6.256882826977e+00 0.0 
6.256882826977e+00 -1.677178678467e+02 0.0 
0.0 0.0 -6.774602218874e+01 
-1.009686363137e+02 1.279245092096e+01 0.0 
1.279245092096e+01 -2.208829879978e+02 0.0 
0.0 0.0 -9.615548729344e+01 
-7.462084632933e+01 5.681625613020e-01 0.0 
5.681625613020e-01 -1.564044008089e+02 0.0 
0.0 0.0 -6.890757414146e+01 
-1.149596132292e+02 1.206473899674e+01 0.0 
1.206473899674e+01 -2.781666642342e+02 0.0 
0.0 0.0 -1.175378832390e+02 
-9.689652609286e+01 1.474232409253e+00 0.0 
1.474232409253e+00 -2.474495808065e+02 0.0 
0.0 0.0 -1.029038320698e+02 
-9.737291831361e+01 1.947679758075e+00 0.0 
1.947679758075e+00 -2.492442712547e+02 0.0 
0.0 0.0 -1.035851568705e+02 
-3.262123107798e+01 5.869781855964e+00 0.0 
5.869781855964e+00 -5.195551669683e+01 0.0 
0.0 0.0 -2.497302433244e+01 
-6.462406948786e+01 5.962802737034e+00 0.0 
5.962802737034e+00 -1.782227197960e+02 0.0 
0.0 0.0 -7.245403678515e+01 
-1.002363520626e+02 -1.208006204028e-02 0.0 
-1.208006204028e-02 -2.553305006164e+02 0.0 
0.0 0.0 -1.062700558037e+02 
-8.865103300385e+01 -5.539605528425e-01 0.0 
-5.539605528425e-01 -1.967417338691e+02 0.0 
0.0 0.0 -8.521783006188e+01 
-8.122581490389e+01 -6.356749158692e-01 0.0 
-6.356749158692e-01 -1.785345933941e+02 0.0 
0.0 0.0 -7.752812248941e+01 
-3.669435592467e+01 5.003877005126e+00 0.0 
5.003877005126e+00 -6.174071778514e+01 0.0 
0.0 0.0 -2.913052211294e+01 
-1.006267759898e+02 4.928104341609e-01 0.0 
4.928104341609e-01 -2.571769771310e+02 0.0 
0.0 0.0 -1.069411259362e+02 
-5.472703687855e+01 2.050920188200e+00 0.0 
2.050920188200e+00 -1.523077909091e+02 0.0 
0.0 0.0 -6.171044833630e+01 
-1.980284902628e+01 1.177696780886e+01 0.0 
1.177696780886e+01 -4.854918793677e+01 0.0 
0.0 0.0 -2.010561108891e+01 
-1.332365018720e+02 1.466694071573e+01 0.0 
1.466694071573e+01 -3.166296591218e+02 0.0 
0.0 0.0 -1.345598482982e+02 
-3.031820231456e+01 -2.351783683531e+00 0.0 
-2.351783683531e+00 -8.030400733418e+01 0.0 
0.0 0.0 -3.278666289462e+01 
-5.683255680293e+01 1.117790653431e+00 0.0 
1.117790653431e+00 -1.602789797761e+02 0.0 
0.0 0.0 -6.473346097370e+01 
-8.913627000271e+01 1.300923613247e+01 0.0 
1.300923613247e+01 -2.214276241429e+02 0.0 
0.0 0.0 -9.276916824368e+01 
-3.884868380132e+01 1.420417453002e+00 0.0 
1.420417453002e+00 -6.905409035253e+01 0.0 
0.0 0.0 -3.197083224615e+01 
-1.008296382202e+02 1.385481065713e+00 0.0 
1.385481065713e+00 -2.560770406024e+02 0.0 
0.0 0.0 -1.066720036468e+02 
-4.550521448862e+01 6.781533644772e-01 0.0 
6.781533644772e-01 -1.195423106773e+02 0.0 
0.0 0.0 -4.911425754977e+01 
-7.284347235180e+01 3.394008966466e+00 0.0 
3.394008966466e+00 -1.447059336885e+02 0.0 
0.0 0.0 -6.486482181208e+01 
-1.013363272870e+02 1.845694662909e+00 0.0 
1.845694662909e+00 -2.578153527286e+02 0.0 
0.0 0.0 -1.073455040047e+02 
-8.061888320678e+01 5.577399947773e+00 0.0 
5.577399947773e+00 -2.155017401375e+02 0.0 
0.0 0.0 -8.843618700329e+01 
-8.946597113861e+01 2.069161841351e+00 0.0 
2.069161841351e+00 -2.321027808660e+02 0.0 
0.0 0.0 -9.607062560139e+01 
-1.761753907074e+01 4.044578065363e+00 0.0 
4.044578065363e+00 -3.116130224191e+01 0.0 
0.0 0.0 -1.423365239379e+01 
-1.113065628600e+02 1.087054235094e+00 0.0 
1.087054235094e+00 -2.544912972857e+02 0.0 
0.0 0.0 -1.093393580437e+02 
-6.515304517736e+01 4.058127156936e+00 0.0 
4.058127156936e+00 -1.792791485604e+02 0.0 
0.0 0.0 -7.292965812134e+01 
-1.280009178358e+02 1.023835644109e+01 0.0 
1.023835644109e+01 -3.146560108677e+02 0.0 
0.0 0.0 -1.323970786111e+02 
-1.027191513894e+02 1.422545463812e+01 0.0 
1.422545463812e+01 -2.418087862532e+02 0.0 
0.0 0.0 -1.029583812928e+02 
-1.047230434092e+02 3.371808718832e-01 0.0 
3.371808718832e-01 -2.657393238724e+02 0.0 
0.0 0.0 -1.107387101845e+02 
-1.052952296557e+02 1.672633550441e+00 0.0 
1.672633550441e+00 -2.663102661384e+02 0.0 
0.0 0.0 -1.110816487382e+02 
-5.582135228625e+01 4.778480609401e+00 0.0 
4.778480609401e+00 -1.597556400168e+02 0.0 
0.0 0.0 -6.427309769091e+01 
-2.314510000842e+01 -2.148086359671e+00 0.0 
-2.148086359671e+00 -5.447054882474e+01 0.0 
0.0 0.0 -2.288469464995e+01 
-1.471310327818e+01 5.397389755498e+00 0.0 
5.397389755498e+00 -3.032398834154e+01 0.0 
0.0 0.0 -1.311112748592e+01 
-1.088661497411e+02 1.539656050260e-01 0.0 
1.539656050260e-01 -2.743001826881e+02 0.0 
0.0 0.0 -1.145498997287e+02 
-1.283050028053e+02 8.929629241444e+00 0.0 
8.929629241444e+00 -3.170060470988e+02 0.0 
0.0 0.0 -1.331933149712e+02 
-5.516264844593e+01 9.042790382611e-01 0.0 
9.042790382611e-01 -1.514363214290e+02 0.0 
0.0 0.0 -6.157969096247e+01 
-1.040887491040e+02 1.127207190481e+01 0.0 
1.127207190481e+01 -2.320868579730e+02 0.0 
0.0 0.0 -1.004526821231e+02 
-3.964357087766e+01 7.814110266293e+00 0.0 
7.814110266293e+00 -7.017455240290e+01 0.0 
0.0 0.0 -3.254543698417e+01 
-1.050807570866e+02 1.231079821880e+01 0.0 
1.231079821880e+01 -2.291806201400e+02 0.0 
0.0 0.0 -9.987841316799e+01 
-1.490066080275e+02 7.938596518881e+00 0.0 
7.938596518881e+00 -3.585477502681e+02 0.0 
0.0 0.0 -1.518663074887e+02 
-1.814564455965e+01 -3.714252940365e-01 0.0 
-3.714252940365e-01 -6.987961114856e+00 0.0 
0.0 0.0 -7.140081702351e+00 
-1.311801865988e+02 7.492292620404e-01 0.0 
7.492292620404e-01 -3.074204353971e+02 0.0 
0.0 0.0 -1.311801865988e+02 
-1.635273349058e+02 1.043478855831e+00 0.0 
1.043478855831e+00 -3.828971147803e+02 0.0 
0.0 0.0 -1.635273349058e+02 
-6.811389757904e+01 7.858148496055e-01 0.0 
7.858148496055e-01 -1.468464285284e+02 0.0 
0.0 0.0 -6.408809783223e+01 
-6.562235706968e+01 2.588557986762e+00 0.0 
2.588557986762e+00 -1.792461264087e+02 0.0 
0.0 0.0 -7.306054504352e+01 
-9.911230415840e+01 1.420047594840e+01 0.0 
1.420047594840e+01 -2.297675246023e+02 0.0 
0.0 0.0 -9.826394862822e+01 
-5.662614260416e+01 7.556897912427e+00 0.0 
7.556897912427e+00 -1.580690509231e+02 0.0 
0.0 0.0 -6.400855805819e+01 
-2.201307050036e+01 -6.494598120231e-01 0.0 
-6.494598120231e-01 -5.510938759818e+01 0.0 
0.0 0.0 -2.273673742956e+01 
-1.550023024600e+01 9.134507090692e+00 0.0 
9.134507090692e+00 -1.393059276882e+01 0.0 
0.0 0.0 -8.429246904447e+00 
-1.185494136403e+02 2.528754425215e+00 0.0 
2.528754425215e+00 -2.715126782942e+02 0.0 
0.0 0.0 -1.166186275803e+02 
-9.770432958730e+01 7.353935560433e+00 0.0 
7.353935560433e+00 -2.047600249619e+02 0.0 
0.0 0.0 -9.033930636476e+01 
-6.567514701747e+01 2.890871313492e+00 0.0 
2.890871313492e+00 -1.299851135974e+02 0.0 
0.0 0.0 -5.829807818446e+01 
-1.464010493695e+02 1.675012490881e+01 0.0 
1.675012490881e+01 -3.416316530677e+02 0.0 
0.0 0.0 -1.460098107312e+02 
-3.798919596644e+01 6.257707367737e-01 0.0 
6.257707367737e-01 -1.000240828330e+02 0.0 
0.0 0.0 -4.100398363984e+01 
-1.470068266703e+02 1.676172334148e+01 0.0 
1.676172334148e+01 -3.449728985057e+02 0.0 
0.0 0.0 -1.471939175528e+02 
-9.603036101532e+01 5.118617491175e+00 0.0 
5.118617491175e+00 -2.035058604145e+02 0.0 
0.0 0.0 -8.946086642894e+01 
-6.591101256459e+01 1.540859162920e+00 0.0 
1.540859162920e+00 -1.782758285335e+02 0.0 
0.0 0.0 -7.285605232943e+01 
-9.484677703338e+01 1.245076059728e+01 0.0 
1.245076059728e+01 -2.224777129819e+02 0.0 
0.0 0.0 -9.479734700460e+01 
-6.057295805356e+01 8.382786650293e-01 0.0 
8.382786650293e-01 -1.688108659983e+02 0.0 
0.0 0.0 -6.841514721557e+01 
-2.101564945782e+01 1.276750432454e+01 0.0 
1.276750432454e+01 -5.079609826939e+01 0.0 
0.0 0.0 -2.114352431816e+01 
-5.714493773383e+01 -4.146921384812e-02 0.0 
-4.146921384812e-02 -1.588931347037e+02 0.0 
0.0 0.0 -6.441142173125e+01 
-1.038390347695e+02 7.200323216907e+00 0.0 
7.200323216907e+00 -2.238593027704e+02 0.0 
0.0 0.0 -9.790950126197e+01 
-1.366752510208e+02 2.111953815155e+00 0.0 
2.111953815155e+00 -3.320468788909e+02 0.0 
0.0 0.0 -1.402166389735e+02 
-6.014682418113e+01 2.220269002274e+00 0.0 
2.220269002274e+00 -1.694657813401e+02 0.0 
0.0 0.0 -6.848378165637e+01 
-1.079521715931e+02 1.090773429449e+01 0.0 
1.090773429449e+01 -2.399667823116e+02 0.0 
0.0 0.0 -1.039756861714e+02 
-1.447852308412e+01 -5.083225663180e-01 0.0 
-5.083225663180e-01 -8.402627829474e+00 0.0 
0.0 0.0 -7.365600797320e+00 
-5.971727893070e+01 4.057789410508e+00 0.0 
4.057789410508e+00 -1.691898940841e+02 0.0 
0.0 0.0 -6.827215190445e+01 
-1.090046198975e+02 7.876994184809e+00 0.0 
7.876994184809e+00 -2.349492075802e+02 0.0 
0.0 0.0 -1.027861482433e+02 
-5.708798403176e+01 -8.032238867604e-01 0.0 
-8.032238867604e-01 -1.565430001905e+02 0.0 
0.0 0.0 -6.368929526666e+01 
-5.176584338075e+01 1.892699777210e-01 0.0 
1.892699777210e-01 -1.412703028551e+02 0.0 
0.0 0.0 -5.751084387077e+01 
-9.448041553394e+01 1.416511885925e+01 0.0 
1.416511885925e+01 -2.227253022801e+02 0.0 
0.0 0.0 -9.476171534420e+01 
-2.810526163569e+01 -1.451142448099e+00 0.0 
-1.451142448099e+00 -7.748665410292e+01 0.0 
0.0 0.0 -3.127757472158e+01 
-2.357635889663e+01 7.306626517157e+00 0.0 
7.306626517157e+00 -3.083776071591e+01 0.0 
0.0 0.0 -1.592423588376e+01 
-2.849737734786e+01 6.856791347184e+00 0.0 
6.856791347184e+00 -4.289014917539e+01 0.0 
0.0 0.0 -2.101625795697e+01 
-5.008706219764e+01 -1.292303472578e+00 0.0 
-1.292303472578e+00 -1.377696473235e+02 0.0 
0.0 0.0 -5.595701285635e+01 
-8.878634344107e+01 6.297400344751e+00 0.0 
6.297400344751e+00 -2.337622438446e+02 0.0 
0.0 0.0 -9.636457618569e+01 
-8.104435649695e+01 1.176666824633e+01 0.0 
1.176666824633e+01 -2.028198976484e+02 0.0 
0.0 0.0 -8.475927624361e+01 
-1.086542761281e+02 1.306749721709e+01 0.0 
1.306749721709e+01 -2.406184365007e+02 0.0 
0.0 0.0 -1.043818137886e+02 
-1.253657239503e+02 9.887197146537e+00 0.0 
9.887197146537e+00 -2.850854720367e+02 0.0 
0.0 0.0 -1.227353587961e+02 
-2.955124911455e+01 2.075223543107e+00 0.0 
2.075223543107e+00 -4.952993539141e+01 0.0 
0.0 0.0 -2.332435535179e+01 
-9.666603061378e+01 1.206328975264e+00 0.0 
1.206328975264e+00 -2.163865076892e+02 0.0 
0.0 0.0 -9.351576149089e+01 
-1.290160682205e+02 1.269452740886e+01 0.0 
1.269452740886e+01 -2.972654033742e+02 0.0 
0.0 0.0 -1.274844414784e+02 
-5.190882987324e+01 5.627170853364e+00 0.0 
5.627170853364e+00 -1.499576161317e+02 0.0 
0.0 0.0 -6.015993380147e+01 
-1.751260694401e+01 1.145108271908e+01 0.0 
1.145108271908e+01 -3.207944309771e+01 0.0 
0.0 0.0 -1.447761501252e+01 
-4.610249008371e+01 1.043224339145e+01 0.0 
1.043224339145e+01 -8.139004243447e+01 0.0 
0.0 0.0 -3.784775975546e+01 
-8.482571634407e+01 5.171392053153e+00 0.0 
5.171392053153e+00 -2.249253335219e+02 0.0 
0.0 0.0 -9.252531495980e+01 
-1.077978634596e+02 9.630498022457e+00 0.0 
9.630498022457e+00 -2.365879978301e+02 0.0 
0.0 0.0 -1.029157583869e+02 
-8.353463329388e+01 4.232671827569e+00 0.0 
4.232671827569e+00 -2.241741154078e+02 0.0 
0.0 0.0 -9.191262461051e+01 
-2.125622697233e+01 6.022730155771e+00 0.0 
6.022730155771e+00 -5.237007414652e+01 0.0 
0.0 0.0 -2.168789033566e+01 
-9.729971706241e+01 7.002745535324e+00 0.0 
7.002745535324e+00 -2.522010220538e+02 0.0 
0.0 0.0 -1.044502217349e+02 
-2.349547464952e+01 1.363684246834e+01 0.0 
1.363684246834e+01 -5.319462698271e+01 0.0 
0.0 0.0 -2.260703048967e+01 
-8.072679733906e+01 1.293958291978e+01 0.0 
1.293958291978e+01 -2.029249168075e+02 0.0 
0.0 0.0 -8.469551424398e+01 
-9.189066388110e+01 4.817525385971e+00 0.0 
4.817525385971e+00 -2.425999868048e+02 0.0 
0.0 0.0 -9.994719520576e+01 
-9.832297374066e+01 1.239342222462e+01 0.0 
1.239342222462e+01 -2.344865457448e+02 0.0 
0.0 0.0 -9.944285584562e+01 
-8.741403120663e+01 1.224995392955e+00 0.0 
1.224995392955e+00 -1.919640081402e+02 0.0 
0.0 0.0 -8.341341180405e+01 
-5.145441517837e+01 -2.927966324876e-01 0.0 
-2.927966324876e-01 -1.385459167054e+02 0.0 
0.0 0.0 -5.660009956513e+01 
-1.837025138036e+01 1.012031121286e+01 0.0 
1.012031121286e+01 -4.497064699471e+01 0.0 
0.0 0.0 -1.860226951252e+01 
-1.006368829017e+02 5.424678231820e+00 0.0 
5.424678231820e+00 -2.613816709889e+02 0.0 
0.0 0.0 -1.082055661672e+02 
-2.661758259032e+01 1.335930746368e+01 0.0 
1.335930746368e+01 -5.503402781215e+01 0.0 
0.0 0.0 -2.409548312074e+01 
-1.543881582687e+01 2.720928154377e-01 0.0 
2.720928154377e-01 -2.530653791603e+01 0.0 
0.0 0.0 -1.182360612287e+01 
-1.186814001295e+02 -4.135568674230e-01 0.0 
-4.135568674230e-01 -2.732752100494e+02 0.0 
0.0 0.0 -1.171869830537e+02 
-1.116532468734e+02 -5.474993691377e-01 0.0 
-5.474993691377e-01 -2.547321974309e+02 0.0 
0.0 0.0 -1.095156332913e+02 
-1.305347013437e+01 -1.121684469048e+00 0.0 
-1.121684469048e+00 -2.470154639337e+01 0.0 
0.0 0.0 -1.130855279189e+01 
-1.061529975897e+02 7.695732776077e+00 0.0 
7.695732776077e+00 -2.709141822609e+02 0.0 
0.0 0.0 -1.127201539552e+02 
-4.066904077090e+01 -9.343498249003e-01 0.0 
-9.343498249003e-01 -1.080495904772e+02 0.0 
0.0 0.0 -4.421558937444e+01 
-4.270687890723e+01 -2.025664730789e+00 0.0 
-2.025664730789e+00 -1.154324526236e+02 0.0 
0.0 0.0 -4.704179945925e+01 
-1.154738682988e+02 1.136457919288e+01 0.0 
1.136457919288e+01 -2.598113828328e+02 0.0 
0.0 0.0 -1.121855753395e+02 
-9.812586123962e+01 1.394179134440e+01 0.0 
1.394179134440e+01 -2.347036714996e+02 0.0 
0.0 0.0 -9.944885982177e+01 
-1.116774076749e+02 1.164238203269e+01 0.0 
1.164238203269e+01 -2.517646177563e+02 0.0 
0.0 0.0 -1.086326076294e+02 
-6.118667948999e+01 4.554401524429e+00 0.0 
4.554401524429e+00 -1.699404406921e+02 0.0 
0.0 0.0 -6.893813605461e+01 
-5.981054434191e+01 -2.012156421438e-02 0.0 
-2.012156421438e-02 -1.256305305148e+02 0.0 
0.0 0.0 -5.523232245702e+01 
-1.518482972910e+02 7.188238520182e+00 0.0 
7.188238520182e+00 -3.606647277444e+02 0.0 
0.0 0.0 -1.533539075106e+02 
-3.589510011144e+01 -2.216209331235e+00 0.0 
-2.216209331235e+00 -9.602246353597e+01 0.0 
0.0 0.0 -3.917526909422e+01 
-1.238495864458e+02 1.175402314757e+01 0.0 
1.175402314757e+01 -3.036538466665e+02 0.0 
0.0 0.0 -1.278510299337e+02 
-8.525289574604e+01 1.357635226562e+01 0.0 
1.357635226562e+01 -2.093898307528e+02 0.0 
0.0 0.0 -8.799281794964e+01 
-2.930894900794e+01 -1.111488264292e+00 0.0 
-1.111488264292e+00 -7.615099111766e+01 0.0 
0.0 0.0 -3.123798203768e+01 
-1.040415838546e+02 8.635907177463e+00 0.0 
8.635907177463e+00 -2.253571505414e+02 0.0 
0.0 0.0 -9.841962031882e+01 
-6.337025830939e+01 5.418327791700e+00 0.0 
5.418327791700e+00 -1.775583912910e+02 0.0 
0.0 0.0 -7.187859488012e+01 
-1.816375558554e+01 -1.724215648347e+00 0.0 
-1.724215648347e+00 -4.201321055194e+01 0.0 
0.0 0.0 -1.765308984124e+01 
-5.249039484986e+01 3.351661331648e+00 0.0 
3.351661331648e+00 -1.514588548225e+02 0.0 
0.0 0.0 -6.078477490171e+01 
-1.141562365740e+02 -7.004050060139e-01 0.0 
-7.004050060139e-01 -2.852685450035e+02 0.0 
0.0 0.0 -1.194274344733e+02 
-1.054860472376e+02 9.485060092521e+00 0.0 
9.485060092521e+00 -2.253146101829e+02 0.0 
0.0 0.0 -9.884019722614e+01 
-2.887404128397e+01 -1.355527749451e+00 0.0 
-1.355527749451e+00 -7.335036875692e+01 0.0 
0.0 0.0 -3.026732301227e+01 
-9.121917099046e+01 5.922700830386e-01 0.0 
5.922700830386e-01 -2.330386616523e+02 0.0 
0.0 0.0 -9.687734979282e+01 
-1.117334591247e+02 1.054230200119e+01 0.0 
1.054230200119e+01 -2.482760397992e+02 0.0 
0.0 0.0 -1.076028496772e+02 
-1.198899109921e+02 1.417335562569e+01 0.0 
1.417335562569e+01 -2.859468968862e+02 0.0 
0.0 0.0 -1.213510423635e+02 
-5.360109986232e+01 -7.288550900048e-01 0.0 
-7.288550900048e-01 -1.484321245399e+02 0.0 
0.0 0.0 -6.020996732065e+01 
-4.525644265896e+01 -9.418171118248e-01 0.0 
-9.418171118248e-01 -1.194869366044e+02 0.0 
0.0 0.0 -4.902301377902e+01 
-8.927277463142e+01 1.170540476211e+01 0.0 
1.170540476211e+01 -2.212278338153e+02 0.0 
0.0 0.0 -9.275018253402e+01 
-8.453698906181e+01 8.762290283921e-01 0.0 
8.762290283921e-01 -1.862310964375e+02 0.0 
0.0 0.0 -8.083042564978e+01 
-1.829275267709e+01 -1.632710112735e+00 0.0 
-1.632710112735e+00 -4.141061549641e+01 0.0 
0.0 0.0 -1.751101045205e+01 
-1.371451234376e+02 1.494350523190e+01 0.0 
1.494350523190e+01 -3.167483317509e+02 0.0 
0.0 0.0 -1.357680365566e+02 
-1.290448104158e+02 9.570737570900e+00 0.0 
9.570737570900e+00 -2.980568035704e+02 0.0 
0.0 0.0 -1.277304841959e+02 
-7.322819907343e+01 8.388972091000e-01 0.0 
8.388972091000e-01 -1.587172475602e+02 0.0 
0.0 0.0 -6.918363399010e+01 
-1.261363597040e+02 5.689354327509e+00 0.0 
5.689354327509e+00 -2.876192295881e+02 0.0 
0.0 0.0 -1.237266767876e+02 
-1.313379504534e+02 1.092161772126e+01 0.0 
1.092161772126e+01 -3.033748549602e+02 0.0 
0.0 0.0 -1.300138416241e+02 
-6.366223441352e+01 3.430576231892e+00 0.0 
3.430576231892e+00 -1.784875840799e+02 0.0 
0.0 0.0 -7.224494554801e+01 
-6.173743991066e+01 2.869861036769e+00 0.0 
2.869861036769e+00 -1.703068706605e+02 0.0 
0.0 0.0 -6.921329317135e+01 
-1.444207845863e+02 1.361233221152e+01 0.0 
1.361233221152e+01 -3.458366944829e+02 0.0 
0.0 0.0 -1.466772437208e+02 
-1.414134322004e+01 3.516559966817e-01 0.0 
3.516559966817e-01 -8.682196978754e+00 0.0 
0.0 0.0 -7.397674242424e+00 
-4.132811852100e+01 -8.163596508606e-01 0.0 
-8.163596508606e-01 -1.089596369881e+02 0.0 
0.0 0.0 -4.468632665272e+01 
-9.257264550089e+01 -7.257019914867e-01 0.0 
-7.257019914867e-01 -2.374669881856e+02 0.0 
0.0 0.0 -9.861189010595e+01 
-5.509828571694e+01 1.895563453158e-01 0.0 
1.895563453158e-01 -1.493003347479e+02 0.0 
0.0 0.0 -6.091958613946e+01 
-5.302854423577e+01 1.491757236641e+00 0.0 
1.491757236641e+00 -1.514817715481e+02 0.0 
0.0 0.0 -6.095309473517e+01 
-1.777555411950e+01 1.047667657044e+01 0.0 
1.047667657044e+01 -1.507617732060e+01 0.0 
0.0 0.0 -9.455519432028e+00 
-2.175947051526e+01 1.073720749622e+01 0.0 
1.073720749622e+01 -2.652777701356e+01 0.0 
0.0 0.0 -1.408617425865e+01 
-7.576142770710e+01 1.719074123838e+00 0.0 
1.719074123838e+00 -1.593356742336e+02 0.0 
0.0 0.0 -7.012913058222e+01 
-5.727301475878e+01 5.188091438877e+00 0.0 
5.188091438877e+00 -1.604672477048e+02 0.0 
0.0 0.0 -6.492207873906e+01 
-4.792767116870e+01 -1.146482858764e+00 0.0 
-1.146482858764e+00 -1.271828483324e+02 0.0 
0.0 0.0 -5.213315585033e+01 
-1.145614285669e+02 1.262715082922e+01 0.0 
1.262715082922e+01 -2.723891736032e+02 0.0 
0.0 0.0 -1.156851806510e+02 
-1.602260721209e+02 5.932404431218e+00 0.0 
5.932404431218e+00 -3.791442285607e+02 0.0 
0.0 0.0 -1.614110902045e+02 
-1.589316385135e+02 7.098648587681e+00 0.0 
7.098648587681e+00 -3.770471436385e+02 0.0 
0.0 0.0 -1.603936346456e+02 
-6.406143178198e+01 1.819474267568e+00 0.0 
1.819474267568e+00 -1.783849454700e+02 0.0 
0.0 0.0 -7.233391317560e+01 
-6.943981525403e+01 5.699785468343e-01 0.0 
5.699785468343e-01 -1.430747731548e+02 0.0 
0.0 0.0 -6.335437652266e+01 
-1.835208600318e+01 -8.959648242696e-02 0.0 
-8.959648242696e-02 -2.082350453522e+01 0.0 
0.0 0.0 -1.135267716152e+01 
-1.839540989862e+01 1.281306524312e+01 0.0 
1.281306524312e+01 -1.781898077804e+01 0.0 
0.0 0.0 -1.046431720300e+01 
-2.865389706606e+01 -6.695565030674e-01 0.0 
-6.695565030674e-01 -7.302870733337e+01 0.0 
0.0 0.0 -3.010478131983e+01 
-1.858724913066e+01 1.261247020750e+01 0.0 
1.261247020750e+01 -1.751167777225e+01 0.0 
0.0 0.0 -1.042967807087e+01 
-9.357383836645e+01 1.355082323121e+01 0.0 
1.355082323121e+01 -2.279305287468e+02 0.0 
0.0 0.0 -9.605131013397e+01 
-5.354652455367e+01 1.674042574180e-01 0.0 
1.674042574180e-01 -1.506169844217e+02 0.0 
0.0 0.0 -6.084905269260e+01 
-5.793941650835e+01 3.258612971702e+00 0.0 
3.258612971702e+00 -1.614042366787e+02 0.0 
0.0 0.0 -6.540309595611e+01 
-2.100179087816e+01 -6.622442130113e-01 0.0 
-6.622442130113e-01 -4.144922028774e+01 0.0 
0.0 0.0 -1.833530334977e+01 
-1.123187105785e+02 3.835481811058e-01 0.0 
3.835481811058e-01 -2.577571351756e+02 0.0 
0.0 0.0 -1.106227537262e+02 
-5.844490382080e+01 1.826664393225e+00 0.0 
1.826664393225e+00 -1.611098174585e+02 0.0 
0.0 0.0 -6.546641638379e+01 
-1.180606280911e+02 1.004544821319e+00 0.0 
1.004544821319e+00 -2.709667221320e+02 0.0 
0.0 0.0 -1.163082050669e+02 
-1.071304653476e+02 1.294941129462e+00 0.0 
1.294941129462e+00 -2.422898050371e+02 0.0 
0.0 0.0 -1.044260811154e+02 
-1.319706141943e+02 6.031222285694e-01 0.0 
6.031222285694e-01 -3.071994715047e+02 0.0 
0.0 0.0 -1.313510257097e+02 
-1.617406632262e+02 1.167653392073e+00 0.0 
1.167653392073e+00 -3.822888419094e+02 0.0 
0.0 0.0 -1.628088515407e+02 
-7.322583848296e+01 -5.584536127377e-01 0.0 
-5.584536127377e-01 -1.591778130400e+02 0.0 
0.0 0.0 -6.932109545690e+01 
-6.215319066357e+01 1.635713500891e+00 0.0 
1.635713500891e+00 -1.696727267701e+02 0.0 
0.0 0.0 -6.914777523010e+01 
-1.962596830148e+01 2.688355425797e+00 0.0 
2.688355425797e+00 -2.980326333938e+01 0.0 
0.0 0.0 -1.442876949226e+01 
-6.439102897833e+01 6.109481221284e-01 0.0 
6.109481221284e-01 -1.774098777131e+02 0.0 
0.0 0.0 -7.214027200744e+01 
-1.628948082008e+02 4.730161806567e+00 0.0 
4.730161806567e+00 -3.814212191351e+02 0.0 
0.0 0.0 -1.628948082008e+02 
-1.741491665585e+01 1.175178086404e+01 0.0 
1.175178086404e+01 -1.676112709391e+01 0.0 
0.0 0.0 -9.852813124928e+00 
-1.772631655444e+01 1.224599178172e+01 0.0 
1.224599178172e+01 -1.727249560409e+01 0.0 
0.0 0.0 -1.009964364756e+01 
-1.281308050916e+02 1.265830024921e+01 0.0 
1.265830024921e+01 -3.113773585661e+02 0.0 
0.0 0.0 -1.314524490973e+02 
-6.854023261420e+01 5.771321140139e-01 0.0 
5.771321140139e-01 -1.435081972440e+02 0.0 
0.0 0.0 -6.321452895747e+01 
-1.186251286386e+02 3.417943118486e-01 0.0 
3.417943118486e-01 -2.729573986508e+02 0.0 
0.0 0.0 -1.170747581868e+02 
-1.125906125333e+02 1.271136693983e+01 0.0 
1.271136693983e+01 -2.488375911317e+02 0.0 
0.0 0.0 -1.080284610995e+02 
-1.274536251574e+02 1.307379734339e+01 0.0 
1.307379734339e+01 -3.039678646684e+02 0.0 
0.0 0.0 -1.290264469478e+02 
-1.167430256629e+02 1.134242872700e+01 0.0 
1.134242872700e+01 -2.561856478370e+02 0.0 
0.0 0.0 -1.114786020500e+02 
-7.515526195163e+01 -3.956838302167e-01 0.0 
-3.956838302167e-01 -1.627166723559e+02 0.0 
0.0 0.0 -7.096158029227e+01 
-4.827044117727e+01 -3.826742962658e-01 0.0 
-3.826742962658e-01 -1.307008762477e+02 0.0 
0.0 0.0 -5.329139522749e+01 
-4.686441869709e+01 -1.279476878412e+00 0.0 
-1.279476878412e+00 -1.299349915471e+02 0.0 
0.0 0.0 -5.263982307327e+01 
-9.258110922688e+01 -4.570574797901e-01 0.0 
-4.570574797901e-01 -2.058788932544e+02 0.0 
0.0 0.0 -8.913800074439e+01 
-1.239620160006e+02 1.478693719443e+01 0.0 
1.478693719443e+01 -2.924910076524e+02 0.0 
0.0 0.0 -1.245359070959e+02 
-6.379209013273e+01 1.040063986464e+00 0.0 
1.040063986464e+00 -1.273240428395e+02 0.0 
0.0 0.0 -5.693483989168e+01 
-6.640275467082e+01 2.924416956430e-02 0.0 
2.924416956430e-02 -1.422523370019e+02 0.0 
0.0 0.0 -6.219652750183e+01 
-7.324558285378e+01 4.357563181776e-01 0.0 
4.357563181776e-01 -1.581705419721e+02 0.0 
0.0 0.0 -6.902483744777e+01 
-7.562579607517e+01 1.337719025113e+00 0.0 
1.337719025113e+00 -1.638001954229e+02 0.0 
0.0 0.0 -7.142779744943e+01 
-2.314702389562e+01 -2.835223136816e-01 0.0 
-2.835223136816e-01 -6.119520116032e+01 0.0 
0.0 0.0 -2.490266751678e+01 
-4.339317839417e+01 -1.696780866191e+00 0.0 
-1.696780866191e+00 -1.190080446274e+02 0.0 
0.0 0.0 -4.832036690647e+01 
-1.264207449465e+02 2.315079022236e+00 0.0 
2.315079022236e+00 -2.918293303719e+02 0.0 
0.0 0.0 -1.250750225955e+02 
-8.387381573779e+01 1.461393607272e+00 0.0 
1.461393607272e+00 -1.830812599712e+02 0.0 
0.0 0.0 -7.968652271270e+01 
-1.453909846475e+02 1.400628007109e+01 0.0 
1.400628007109e+01 -3.447977585824e+02 0.0 
0.0 0.0 -1.466566229690e+02 
-1.280169762073e+02 1.181444836474e+01 0.0 
1.181444836474e+01 -2.874709104209e+02 0.0 
0.0 0.0 -1.242463659884e+02 
-1.052858345415e+02 1.088806244433e+01 0.0 
1.088806244433e+01 -2.264818893343e+02 0.0 
0.0 0.0 -9.913031716274e+01 
-1.214283180841e+02 5.514047496522e+00 0.0 
5.514047496522e+00 -2.749430155499e+02 0.0 
0.0 0.0 -1.185114000902e+02 
-6.744151629990e+01 -7.725746338052e-01 0.0 
-7.725746338052e-01 -1.772718722089e+02 0.0 
0.0 0.0 -7.301401655264e+01 
-6.106538767454e+01 -9.396710983077e-01 0.0 
-9.396710983077e-01 -1.618339924580e+02 0.0 
0.0 0.0 -6.646981403978e+01 
-1.429914092199e+02 6.194074711297e+00 0.0 
6.194074711297e+00 -3.455404290287e+02 0.0 
0.0 0.0 -1.461595514746e+02 
-1.487661763912e+01 -1.126880857500e+00 0.0 
-1.126880857500e+00 -2.426166294701e+01 0.0 
0.0 0.0 -1.179416884687e+01 
-4.418971111934e+01 -1.825350177564e-01 0.0 
-1.825350177564e-01 -1.151677101281e+02 0.0 
0.0 0.0 -4.740722637423e+01 
-1.465503468563e+02 1.599328315801e+01 0.0 
1.599328315801e+01 -3.432841426647e+02 0.0 
0.0 0.0 -1.465503468563e+02 
-2.193921601196e+01 5.612129485056e-01 0.0 
5.612129485056e-01 -5.764647003469e+01 0.0 
0.0 0.0 -2.347570581400e+01 
-6.643315390855e+01 1.966970960211e-03 0.0 
1.966970960211e-03 -1.423124068093e+02 0.0 
0.0 0.0 -6.222366821536e+01 
-1.379552138301e+02 1.185962513537e+01 0.0 
1.185962513537e+01 -3.348376286731e+02 0.0 
0.0 0.0 -1.414378527510e+02 
-1.760743696531e+01 -1.714644092511e+00 0.0 
-1.714644092511e+00 -3.915563652193e+01 0.0 
0.0 0.0 -1.662892204617e+01 
-1.099629156344e+01 -4.772890524169e-01 0.0 
-4.772890524169e-01 -2.400646290182e+01 0.0 
0.0 0.0 -1.010082633958e+01 
-1.334623671279e+02 4.614784162284e+00 0.0 
4.614784162284e+00 -3.093084548326e+02 0.0 
0.0 0.0 -1.324312465882e+02 
-6.047222335846e+01 -2.272826047936e-01 0.0 
-2.272826047936e-01 -1.256054383917e+02 0.0 
0.0 0.0 -5.542329852506e+01 
-1.253661584441e+02 2.675729260373e+00 0.0 
2.675729260373e+00 -2.881894904156e+02 0.0 
0.0 0.0 -1.236666946579e+02 
-1.384360574961e+02 1.192289046062e+01 0.0 
1.192289046062e+01 -3.324454243498e+02 0.0 
0.0 0.0 -1.408644445538e+02 
-6.019541652115e+01 3.258526891205e-01 0.0 
3.258526891205e-01 -1.253091972888e+02 0.0 
0.0 0.0 -5.525138414299e+01 
-1.880770720630e+01 4.936694489894e-01 0.0 
4.936694489894e-01 -2.202014229700e+01 0.0 
0.0 0.0 -1.184835485099e+01 
-1.248911000029e+02 1.059970008852e+00 0.0 
1.059970008852e+00 -2.903316484948e+02 0.0 
0.0 0.0 -1.241668245493e+02 
-2.441877406944e+01 -2.847506162572e-01 0.0 
-2.847506162572e-01 -6.341598074636e+01 0.0 
0.0 0.0 -2.595042644474e+01 
-1.202696020478e+02 2.492607000341e+00 0.0 
2.492607000341e+00 -2.767112916263e+02 0.0 
0.0 0.0 -1.186942681023e+02 
-1.631303480760e+02 3.640772281837e+00 0.0 
3.640772281837e+00 -3.819708121774e+02 0.0 
0.0 0.0 -1.631303480760e+02 
-1.254103522950e+02 9.873948151549e+00 0.0 
9.873948151549e+00 -2.832513305532e+02 0.0 
0.0 0.0 -1.221985048545e+02 
-2.739254313571e+01 8.274182338971e-02 0.0 
8.274182338971e-02 -7.902077890602e+01 0.0 
0.0 0.0 -3.152399661252e+01 
-7.752613941623e+01 1.892982808630e+00 0.0 
1.892982808630e+00 -1.610195830737e+02 0.0 
0.0 0.0 -7.116371674698e+01 
-6.861588218201e+01 3.133469137584e-01 0.0 
3.133469137584e-01 -1.800971340408e+02 0.0 
0.0 0.0 -7.421390486683e+01 
-1.151226811500e+02 1.416328991220e+01 0.0 
1.416328991220e+01 -2.727933280621e+02 0.0 
0.0 0.0 -1.159748027636e+02 
-1.509688464611e+02 1.627640410622e+01 0.0 
1.627640410622e+01 -3.551958815375e+02 0.0 
0.0 0.0 -1.514494183996e+02 
-1.007966679228e+02 -1.040732324053e-01 0.0 
-1.040732324053e-01 -2.270691078974e+02 0.0 
0.0 0.0 -9.795973274605e+01 
-1.512989868346e+02 1.482548711911e+01 0.0 
1.482548711911e+01 -3.581903455780e+02 0.0 
0.0 0.0 -1.524467997238e+02 
-1.829000734497e+01 -9.465384876214e-01 0.0 
-9.465384876214e-01 -4.025606773095e+01 0.0 
0.0 0.0 -1.716382252278e+01 
-1.538579831190e+02 5.135971491390e+00 0.0 
5.135971491390e+00 -3.662441188837e+02 0.0 
0.0 0.0 -1.556306306008e+02 
-3.143240696393e+01 9.353395033259e-02 0.0 
9.353395033259e-02 -8.922053620055e+01 0.0 
0.0 0.0 -3.579588294934e+01 
-2.186801547474e+01 -8.807796716036e-01 0.0 
-8.807796716036e-01 -5.760789429265e+01 0.0 
0.0 0.0 -2.344277293022e+01 
-1.476891163080e+02 1.149291095817e+01 0.0 
1.149291095817e+01 -3.540682486947e+02 0.0 
0.0 0.0 -1.501272095008e+02 
-1.299046704349e+02 7.190762119446e+00 0.0 
7.190762119446e+00 -2.961786264581e+02 0.0 
0.0 0.0 -1.274249890679e+02 
-1.282976537415e+02 4.972757094643e+00 0.0 
4.972757094643e+00 -2.961748575997e+02 0.0 
0.0 0.0 -1.269417534023e+02 
-6.624837250110e+01 -5.814634715930e-01 0.0 
-5.814634715930e-01 -1.410452970545e+02 0.0 
0.0 0.0 -6.178810086667e+01 
-7.962828167980e+01 2.217686822754e+00 0.0 
2.217686822754e+00 -1.640780416154e+02 0.0 
0.0 0.0 -7.271189698856e+01 
-2.274215085985e+01 1.313319991606e+01 0.0 
1.313319991606e+01 -5.150994753393e+01 0.0 
0.0 0.0 -2.187562951813e+01 
-1.345602846834e+02 1.248070555562e+01 0.0 
1.248070555562e+01 -3.064109318435e+02 0.0 
0.0 0.0 -1.318913649580e+02 
-5.735736056768e+01 -9.131448363968e-01 0.0 
-9.131448363968e-01 -1.505701641310e+02 0.0 
0.0 0.0 -6.197825740960e+01 
-1.783172613669e+01 6.524420186756e+00 0.0 
6.524420186756e+00 -4.153064743536e+01 0.0 
0.0 0.0 -1.740871207162e+01 
-1.193346971766e+02 1.278626118100e+01 0.0 
1.278626118100e+01 -2.854487988297e+02 0.0 
0.0 0.0 -1.210350488019e+02 
-5.942996483440e+01 1.218098605322e-01 0.0 
1.218098605322e-01 -1.249231235742e+02 0.0 
0.0 0.0 -5.490592652258e+01 
-1.237195577659e+02 5.997676348119e+00 0.0 
5.997676348119e+00 -2.822103442670e+02 0.0 
0.0 0.0 -1.213789706098e+02 
-1.313426009341e+02 7.954198016274e-01 0.0 
7.954198016274e-01 -3.056365945584e+02 0.0 
0.0 0.0 -1.306937586478e+02 
-1.314002566354e+02 3.244211431865e-01 0.0 
3.244211431865e-01 -3.079339321493e+02 0.0 
0.0 0.0 -1.314002566354e+02 
-2.862047483060e+00 3.270739150958e-01 0.0 
3.270739150958e-01 -6.641473554600e+00 0.0 
0.0 0.0 -2.451056311298e+00 
-5.040026985896e+00 -2.732067243056e-01 0.0 
-2.732067243056e-01 -1.042197864694e+01 0.0 
0.0 0.0 -4.875108240010e+00 
-6.001383596745e+01 6.685238325173e-01 0.0 
6.685238325173e-01 -1.273644061095e+02 0.0 
0.0 0.0 -5.581347262309e+01 
-5.865020220550e+01 -1.053014175276e-01 0.0 
-1.053014175276e-01 -1.248589136212e+02 0.0 
0.0 0.0 -5.465273474802e+01 
-1.637484424557e+02 4.561788846418e-01 0.0 
4.561788846418e-01 -3.834130323966e+02 0.0 
0.0 0.0 -1.637484424557e+02 
-1.611899609905e+02 -6.412369126338e-01 0.0 
-6.412369126338e-01 -3.804844348754e+02 0.0 
0.0 0.0 -1.621023187598e+02 
-9.469278346060e+00 -7.065401746645e-01 0.0 
-7.065401746645e-01 -2.301576877405e+01 0.0 
0.0 0.0 -9.345514136034e+00 
-1.385272300093e+01 -4.096611200083e-01 0.0 
-4.096611200083e-01 -8.247855700992e+00 0.0 
0.0 0.0 -7.130599957783e+00 
-1.463207802754e+02 2.088260795959e+00 0.0 
2.088260795959e+00 -3.510078070363e+02 0.0 
0.0 0.0 -1.487985761935e+02 
-1.310333929309e+02 1.369604437300e+01 0.0 
1.369604437300e+01 -3.065266494323e+02 0.0 
0.0 0.0 -1.308680127090e+02 
-2.909124011838e+01 -4.591985061691e-01 0.0 
-4.591985061691e-01 -7.418837630914e+01 0.0 
0.0 0.0 -3.058388492826e+01 
-1.473435143465e+02 5.408092725159e+00 0.0 
5.408092725159e+00 -3.529048833299e+02 0.0 
0.0 0.0 -1.496745193029e+02 
-9.981609625122e+01 3.280045344306e-01 0.0 
3.280045344306e-01 -2.531831585291e+02 0.0 
0.0 0.0 -1.054997764341e+02 
-8.463666927379e+01 7.930555304565e-01 0.0 
7.930555304565e-01 -2.188320824212e+02 0.0 
0.0 0.0 -9.064062550851e+01 
-8.740846123331e+01 9.060178428069e-02 0.0 
9.060178428069e-02 -1.929693926001e+02 0.0 
0.0 0.0 -8.371335615002e+01 
-2.689993591018e+01 -1.677728317575e+00 0.0 
-1.677728317575e+00 -6.896972949568e+01 0.0 
0.0 0.0 -2.836089962176e+01 
-1.066249646446e+02 1.404924427739e+01 0.0 
1.404924427739e+01 -2.537560027676e+02 0.0 
0.0 0.0 -1.077142902236e+02 
-2.380705427487e+01 -1.047062146698e+00 0.0 
-1.047062146698e+00 -5.954949132489e+01 0.0 
0.0 0.0 -2.460696367993e+01 
-7.670156230083e+01 7.211472167509e-01 0.0 
7.211472167509e-01 -1.991454955403e+02 0.0 
0.0 0.0 -8.235411735235e+01 
-1.280050659056e+02 1.087944761780e+01 0.0 
1.087944761780e+01 -2.921819480190e+02 0.0 
0.0 0.0 -1.256561041774e+02 
-1.160005314977e+02 8.994648072651e-01 0.0 
8.994648072651e-01 -2.657925503784e+02 0.0 
0.0 0.0 -1.141379245628e+02 
-8.475055344625e+01 -3.686582558014e-01 0.0 
-3.686582558014e-01 -2.179549851167e+02 0.0 
0.0 0.0 -9.041166156887e+01 
-7.898480238099e+01 9.279998025091e-01 0.0 
9.279998025091e-01 -1.725157351826e+02 0.0 
0.0 0.0 -7.505016126908e+01 
-1.313411524519e+02 1.424147647103e+01 0.0 
1.424147647103e+01 -3.030142872972e+02 0.0 
0.0 0.0 -1.299066319247e+02 
-1.202358831610e+02 1.218531395793e+01 0.0 
1.218531395793e+01 -2.664050150176e+02 0.0 
0.0 0.0 -1.155922694536e+02 
-1.127800377864e+02 1.155099443037e+01 0.0 
1.155099443037e+01 -2.463827325152e+02 0.0 
0.0 0.0 -1.073488310905e+02 
-5.986645800743e+01 4.207882194404e-02 0.0 
4.207882194404e-02 -1.255456670432e+02 0.0 
0.0 0.0 -5.522363751520e+01 
-1.021718067486e+02 1.371975572533e+01 0.0 
1.371975572533e+01 -2.469511384730e+02 0.0 
0.0 0.0 -1.043368835665e+02 
-1.234846118045e+02 7.329301368528e+00 0.0 
7.329301368528e+00 -2.812823024483e+02 0.0 
0.0 0.0 -1.210300742759e+02 
-4.316330321563e+01 -8.196650429652e-01 0.0 
-8.196650429652e-01 -1.145786926615e+02 0.0 
0.0 0.0 -4.692259876315e+01 
-1.431366231750e+01 -9.726667804843e-01 0.0 
-9.726667804843e-01 -2.511835849691e+01 0.0 
0.0 0.0 -1.142960624432e+01 
-1.264369927531e+02 1.415706515055e+01 0.0 
1.415706515055e+01 -2.891232703527e+02 0.0 
0.0 0.0 -1.242680789318e+02 
-1.231123151386e+02 1.052727730927e+01 0.0 
1.052727730927e+01 -3.032215105099e+02 0.0 
0.0 0.0 -1.275001476946e+02 
-2.287135213316e+01 -1.469898670055e+00 0.0 
-1.469898670055e+00 -5.749174621063e+01 0.0 
0.0 0.0 -2.370892950314e+01 
-9.314142702834e+01 9.784189112822e-01 0.0 
9.784189112822e-01 -2.070981398079e+02 0.0 
0.0 0.0 -8.967187005086e+01 
-1.542510063283e+02 2.849560777802e+00 0.0 
2.849560777802e+00 -3.655567430644e+02 0.0 
0.0 0.0 -1.555423248178e+02 
-1.260632993583e+02 1.334428361927e+01 0.0 
1.334428361927e+01 -2.930639614119e+02 0.0 
0.0 0.0 -1.253381782311e+02 
-1.320032135111e+02 1.498077777537e+01 0.0 
1.498077777537e+01 -3.056873929707e+02 0.0 
0.0 0.0 -1.309071819445e+02 
-1.087906201674e+02 1.038061945939e+00 0.0 
1.038061945939e+00 -2.732658449102e+02 0.0 
0.0 0.0 -1.142169395233e+02 
-1.374160893729e+01 3.591181847395e+00 0.0 
3.591181847395e+00 -2.151842513713e+01 0.0 
0.0 0.0 -1.045480127155e+01 
-1.099010755827e+01 4.781448045584e+00 0.0 
4.781448045584e+00 -1.290404409722e+01 0.0 
0.0 0.0 -6.768245496646e+00 
-2.759635780350e+01 1.553573636711e+01 0.0 
1.553573636711e+01 -5.533175896868e+01 0.0 
0.0 0.0 -2.447843503165e+01 
-7.804835290160e+01 1.957629948547e+00 0.0 
1.957629948547e+00 -1.609899105686e+02 0.0 
0.0 0.0 -7.131147904106e+01 
-1.020871349434e+02 1.210636438527e+01 0.0 
1.210636438527e+01 -2.466369894004e+02 0.0 
0.0 0.0 -1.042172373032e+02 
-1.213780777271e+02 2.957564743732e+00 0.0 
2.957564743732e+00 -2.789877034206e+02 0.0 
0.0 0.0 -1.197097343443e+02 
-1.453029861034e+02 1.275599867263e+01 0.0 
1.275599867263e+01 -3.449937495611e+02 0.0 
0.0 0.0 -1.466890206993e+02 
-2.077176032805e+01 -1.564057024244e+00 0.0 
-1.564057024244e+00 -4.164207716371e+01 0.0 
0.0 0.0 -1.832415124753e+01 
-1.930769530012e+01 -1.947224530223e+00 0.0 
-1.947224530223e+00 -4.041023461690e+01 0.0 
0.0 0.0 -1.751537897510e+01 
-1.538119572836e+01 1.109369638821e+01 0.0 
1.109369638821e+01 -1.674579688436e+01 0.0 
0.0 0.0 -9.238097783817e+00 
-9.540403449340e+01 -4.700918243522e-01 0.0 
-4.700918243522e-01 -2.127226906575e+02 0.0 
0.0 0.0 -9.203801754527e+01 
-5.328909762307e+01 1.191375643433e-01 0.0 
1.191375643433e-01 -1.403424377887e+02 0.0 
0.0 0.0 -5.768946062354e+01 
-1.243833544195e+02 6.226307670492e+00 0.0 
6.226307670492e+00 -2.829705030148e+02 0.0 
0.0 0.0 -1.218061572303e+02 
-2.770099916837e+01 4.021993510002e-02 0.0 
4.021993510002e-02 -7.110265517126e+01 0.0 
0.0 0.0 -2.924109630189e+01 
-1.363375727287e+02 1.211055225681e+01 0.0 
1.211055225681e+01 -3.278665769786e+02 0.0 
0.0 0.0 -1.388612449122e+02 
-7.478851944308e+01 1.798773895835e-01 0.0 
1.798773895835e-01 -1.584414347120e+02 0.0 
0.0 0.0 -6.956898624654e+01 
-1.418144336764e+02 1.491311936927e+01 0.0 
1.491311936927e+01 -3.326085935286e+02 0.0 
0.0 0.0 -1.419269081615e+02 
-1.196658333187e+02 1.479902344482e+01 0.0 
1.479902344482e+01 -2.805539490852e+02 0.0 
0.0 0.0 -1.196659347212e+02 
-7.895717070728e+01 2.906050781172e+00 0.0 
2.906050781172e+00 -1.614643578261e+02 0.0 
0.0 0.0 -7.172645856001e+01 
-1.490690904056e+02 9.591179468728e+00 0.0 
9.591179468728e+00 -3.577747339309e+02 0.0 
0.0 0.0 -1.516531473009e+02 
-1.290187507980e+02 6.014117695765e+00 0.0 
6.014117695765e+00 -2.957171851790e+02 0.0 
0.0 0.0 -1.270207807931e+02 
-1.263966305935e+02 2.850200348245e-01 0.0 
2.850200348245e-01 -2.918090702736e+02 0.0 
0.0 0.0 -1.250617102601e+02 
-1.759292022627e+01 1.220465753195e+01 0.0 
1.220465753195e+01 -1.680394663780e+01 0.0 
0.0 0.0 -9.919060059219e+00 
-1.203744453485e+02 4.045943578238e+00 0.0 
4.045943578238e+00 -2.743336433733e+02 0.0 
0.0 0.0 -1.180124266165e+02 
-1.353624862133e+02 1.383979049208e+01 0.0 
1.383979049208e+01 -3.143520470129e+02 0.0 
0.0 0.0 -1.345143599679e+02 
-1.362490660009e+02 1.324133382770e+01 0.0 
1.324133382770e+01 -3.285067734447e+02 0.0 
0.0 0.0 -1.390267518337e+02 
-1.228552698038e+02 1.286843234247e+01 0.0 
1.286843234247e+01 -2.913923297265e+02 0.0 
0.0 0.0 -1.238742798591e+02 
-1.620867259280e+02 6.019628668971e+00 0.0 
6.019628668971e+00 -3.795356938321e+02 0.0 
0.0 0.0 -1.620867259280e+02 
-1.113162394609e+02 9.256040599930e+00 0.0 
9.256040599930e+00 -2.453117226681e+02 0.0 
0.0 0.0 -1.065883886387e+02 
-1.342781235739e+01 3.213801633533e+00 0.0 
3.213801633533e+00 -9.175311541089e+00 0.0 
0.0 0.0 -7.332680070070e+00 
-1.983414138190e+01 9.244082644453e+00 0.0 
9.244082644453e+00 -4.564235456294e+01 0.0 
0.0 0.0 -1.924294878345e+01 
-1.235119464841e+02 1.184925785061e+01 0.0 
1.184925785061e+01 -2.758932436963e+02 0.0 
0.0 0.0 -1.194215570541e+02 
-8.348111113375e+01 1.714573489638e+00 0.0 
1.714573489638e+00 -1.756578541743e+02 0.0 
0.0 0.0 -7.734168959243e+01 
-1.462610676215e+02 2.239045946936e+00 0.0 
2.239045946936e+00 -3.507337406305e+02 0.0 
0.0 0.0 -1.486984424756e+02 
-1.281862290729e+02 1.515009174132e+01 0.0 
1.515009174132e+01 -2.999169601115e+02 0.0 
0.0 0.0 -1.280309567553e+02 
-1.546078649298e+02 5.437625323037e+00 0.0 
5.437625323037e+00 -3.659751921811e+02 0.0 
0.0 0.0 -1.557749171333e+02 
-1.038437543412e+02 -1.028124977232e-01 0.0 
-1.028124977232e-01 -2.335605985933e+02 0.0 
0.0 0.0 -1.008213058804e+02 
-1.429567131031e+02 1.475235814901e+01 0.0 
1.475235814901e+01 -3.361756937154e+02 0.0 
0.0 0.0 -1.433397220455e+02 
-1.441178168031e+02 8.801184102239e+00 0.0 
8.801184102239e+00 -3.466091275793e+02 0.0 
0.0 0.0 -1.468180833147e+02 
-1.432816140996e+02 7.654137651136e+00 0.0 
7.654137651136e+00 -3.461032454717e+02 0.0 
0.0 0.0 -1.464154578714e+02 
-5.550597595905e+01 1.117793446680e-02 0.0 
1.117793446680e-02 -1.457699274638e+02 0.0 
0.0 0.0 -5.998277102686e+01 
-1.608505889020e+02 5.191352329528e+00 0.0 
5.191352329528e+00 -3.802650973013e+02 0.0 
0.0 0.0 -1.619347058610e+02 
-6.895700048014e+01 8.781233537134e-01 0.0 
8.781233537134e-01 -1.423356586891e+02 0.0 
0.0 0.0 -6.298779775076e+01 
-1.193950607398e+02 1.981226103742e+00 0.0 
1.981226103742e+00 -2.735736971659e+02 0.0 
0.0 0.0 -1.174906273717e+02 
-1.790212538902e+01 -1.556093972386e+00 0.0 
-1.556093972386e+00 -4.112248011480e+01 0.0 
0.0 0.0 -1.730738165114e+01 
-1.138736423295e+02 1.073637557554e+00 0.0 
1.073637557554e+00 -2.587601470530e+02 0.0 
0.0 0.0 -1.113901368147e+02 
-9.415114193595e+01 6.313626252463e-01 0.0 
6.313626252463e-01 -2.089297533985e+02 0.0 
0.0 0.0 -9.052426860033e+01 
-1.643420776853e+01 1.490905341885e-01 0.0 
1.490905341885e-01 -4.205098069508e+01 0.0 
0.0 0.0 -1.714555653908e+01 
-2.646612723582e+01 7.806193775068e-01 0.0 
7.806193775068e-01 -7.095824832078e+01 0.0 
0.0 0.0 -2.882731266698e+01 
-1.151325234282e+02 1.014660947091e+01 0.0 
1.014660947091e+01 -2.565304905368e+02 0.0 
0.0 0.0 -1.110989041895e+02 
-1.256905470824e+02 3.330710506578e+00 0.0 
3.330710506578e+00 -2.915315919280e+02 0.0 
0.0 0.0 -1.247666417031e+02 
-1.200110560459e+02 1.290878726814e+00 0.0 
1.290878726814e+00 -2.762076828715e+02 0.0 
0.0 0.0 -1.184656216752e+02 
-1.407822795372e+02 1.396452089922e+01 0.0 
1.396452089922e+01 -3.344650881646e+02 0.0 
0.0 0.0 -1.421742103106e+02 
-7.900259154739e+01 -4.633198594767e-01 0.0 
-4.633198594767e-01 -1.719926956306e+02 0.0 
0.0 0.0 -7.489858615339e+01 
-1.271595701147e+01 -1.106385503257e+00 0.0 
-1.106385503257e+00 -2.461733916824e+01 0.0 
0.0 0.0 -1.079998885391e+01 
-1.834614024976e+01 2.103075707717e+00 0.0 
2.103075707717e+00 -3.513709285409e+01 0.0 
0.0 0.0 -1.564496993116e+01 
-1.267948401397e+01 -1.701044223665e+00 0.0 
-1.701044223665e+00 -2.812764591486e+01 0.0 
0.0 0.0 -1.183355383578e+01 
-2.319874359356e+01 -1.340063032107e+00 0.0 
-1.340063032107e+00 -5.451202776727e+01 0.0 
0.0 0.0 -2.291323140825e+01 
-1.336925601010e+01 6.695656899816e+00 0.0 
6.695656899816e+00 -6.927937782981e+00 0.0 
0.0 0.0 -5.884779937233e+00 
-7.479596277938e+01 -5.015329952856e-01 0.0 
-5.015329952856e-01 -1.942229118780e+02 0.0 
0.0 0.0 -8.030566239722e+01 
-1.460174146757e+02 8.077103961244e-01 0.0 
8.077103961244e-01 -3.505858678480e+02 0.0 
0.0 0.0 -1.485809847571e+02 
-1.249920156111e+02 8.476203603711e+00 0.0 
8.476203603711e+00 -2.833574740024e+02 0.0 
0.0 0.0 -1.221048468840e+02 
-8.569704747950e+01 4.312370641658e+00 0.0 
4.312370641658e+00 -1.762726519050e+02 0.0 
0.0 0.0 -7.819090981536e+01 
-6.471605708312e+01 7.112368269191e-01 0.0 
7.112368269191e-01 -1.701977277174e+02 0.0 
0.0 0.0 -7.007413544015e+01 
-1.435761431881e+02 7.364844271464e+00 0.0 
7.364844271464e+00 -3.463562067547e+02 0.0 
0.0 0.0 -1.465797049828e+02 
-1.374975243554e+02 9.664663162611e+00 0.0 
9.664663162611e+00 -3.349466880874e+02 0.0 
0.0 0.0 -1.413332637328e+02 
-1.408300475990e+02 1.540832017592e+01 0.0 
1.540832017592e+01 -3.316863237399e+02 0.0 
0.0 0.0 -1.413549114017e+02 
-1.308647390864e+02 1.380292013217e+01 0.0 
1.380292013217e+01 -3.019795470247e+02 0.0 
0.0 0.0 -1.294532858333e+02 
-1.221674134122e+02 1.088784287989e+01 0.0 
1.088784287989e+01 -2.759333142282e+02 0.0 
0.0 0.0 -1.190302182921e+02 
-1.738736629133e+01 -1.842967747027e+00 0.0 
-1.842967747027e+00 -4.050459232866e+01 0.0 
0.0 0.0 -1.696758758600e+01 
-2.059612089078e+01 -2.544652426622e-01 0.0 
-2.544652426622e-01 -3.568167656002e+01 0.0 
0.0 0.0 -1.648333923524e+01 
-1.462615940829e+02 3.147713120863e+00 0.0 
3.147713120863e+00 -3.514780460111e+02 0.0 
0.0 0.0 -1.489218920282e+02 
-1.538569985841e+01 -3.504348002309e-01 0.0 
-3.504348002309e-01 -4.124858923719e+01 0.0 
0.0 0.0 -1.659028672868e+01 
-1.872742422233e+01 -1.097416889041e+00 0.0 
-1.097416889041e+00 -4.915002854598e+01 0.0 
0.0 0.0 -1.996323583049e+01 
-1.583227660993e+01 8.316991898042e+00 0.0 
8.316991898042e+00 -2.516098652832e+01 0.0 
0.0 0.0 -1.189797894147e+01 
-1.656085669278e+01 -7.482803148920e-01 0.0 
-7.482803148920e-01 -3.866477457358e+01 0.0 
0.0 0.0 -1.616768937991e+01 
-1.516111938394e+02 8.638210597382e+00 0.0 
8.638210597382e+00 -3.599653343972e+02 0.0 
0.0 0.0 -1.530729584710e+02 
-1.339395161469e+02 1.315006405914e+01 0.0 
1.315006405914e+01 -3.095601715948e+02 0.0 
0.0 0.0 -1.326499063225e+02 
-1.208514805987e+02 1.435809363757e+00 0.0 
1.435809363757e+00 -2.788876964072e+02 0.0 
0.0 0.0 -1.195217531018e+02 
-1.409168991728e+02 1.508487615340e+01 0.0 
1.508487615340e+01 -3.308112173993e+02 0.0 
0.0 0.0 -1.411184349716e+02 
-1.330150254599e+02 1.098181030673e+01 0.0 
1.098181030673e+01 -3.239368688924e+02 0.0 
0.0 0.0 -1.366855683057e+02 
-8.374282168971e+01 -5.088461905526e-01 0.0 
-5.088461905526e-01 -1.832857548175e+02 0.0 
0.0 0.0 -7.970857295216e+01 
-1.322396652924e+02 4.484668591841e+00 0.0 
4.484668591841e+00 -3.098925523488e+02 0.0 
0.0 0.0 -1.322396652924e+02 
-3.325202418313e+01 -3.857003361794e-01 0.0 
-3.857003361794e-01 -9.002334919213e+01 0.0 
0.0 0.0 -3.658261201258e+01 
-6.010586915533e+01 1.068563164693e-01 0.0 
1.068563164693e-01 -1.247256725845e+02 0.0 
0.0 0.0 -5.504946252196e+01 
-2.443683117225e+01 -1.968411321162e+00 0.0 
-1.968411321162e+00 -5.570130613008e+01 0.0 
0.0 0.0 -2.364144119070e+01 
-1.054695817370e+01 -8.461894836837e-01 0.0 
-8.461894836837e-01 -2.435868616921e+01 0.0 
0.0 0.0 -1.061855318335e+01 
-1.612338960247e+02 3.355234059669e+00 0.0 
3.355234059669e+00 -3.810815792733e+02 0.0 
0.0 0.0 -1.622946425894e+02 
-7.193849002873e+01 2.202554632749e+00 0.0 
2.202554632749e+00 -1.459166040082e+02 0.0 
0.0 0.0 -6.495652821107e+01 
-2.276284890118e+01 -7.511258699547e-01 0.0 
-7.511258699547e-01 -5.727684571421e+01 0.0 
0.0 0.0 -2.361190838461e+01 
-7.124203606038e+01 -9.848014549036e-01 0.0 
-9.848014549036e-01 -1.868356427011e+02 0.0 
0.0 0.0 -7.702330362845e+01 
-1.353599532664e+02 1.296383008701e+01 0.0 
1.296383008701e+01 -3.099670479223e+02 0.0 
0.0 0.0 -1.331981003566e+02 
-1.214359094824e+02 3.775963697115e+00 0.0 
3.775963697115e+00 -2.777642484187e+02 0.0 
0.0 0.0 -1.193600473703e+02 
-1.282162588477e+02 7.174981352114e+00 0.0 
7.174981352114e+00 -2.963251675647e+02 0.0 
0.0 0.0 -1.269624279237e+02 
-5.082942547494e+01 1.940665294636e-01 0.0 
1.940665294636e-01 -1.331562530982e+02 0.0 
0.0 0.0 -5.479570357196e+01 
-1.867693252497e+01 8.182527441903e-01 0.0 
8.182527441903e-01 -3.581062264741e+01 0.0 
0.0 0.0 -1.594626655171e+01 
-1.521489717530e+02 6.306514319167e+00 0.0 
6.306514319167e+00 -3.639718525681e+02 0.0 
0.0 0.0 -1.544362472963e+02 
-1.328330422761e+02 3.333637997499e-01 0.0 
3.333637997499e-01 -3.083916600492e+02 0.0 
0.0 0.0 -1.319674106976e+02 
-1.616582587608e+02 8.106980917410e-01 0.0 
8.106980917410e-01 -3.823664256333e+02 0.0 
0.0 0.0 -1.628074053182e+02 
-6.502424296581e+01 -4.935552031014e-01 0.0 
-4.935552031014e-01 -1.392702844216e+02 0.0 
0.0 0.0 -6.088835821623e+01 
-1.404702440521e+02 1.076169219838e+01 0.0 
1.076169219838e+01 -3.374149515087e+02 0.0 
0.0 0.0 -1.429655586682e+02 
-2.262358159987e+01 -4.454623953927e-01 0.0 
-4.454623953927e-01 -5.838285873885e+01 0.0 
0.0 0.0 -2.390193210162e+01 
-1.234511855432e+02 4.783882622906e+00 0.0 
4.783882622906e+00 -2.827387522312e+02 0.0 
0.0 0.0 -1.214569813323e+02 
-1.067339941241e+01 -7.576828417283e-01 0.0 
-7.576828417283e-01 -2.337291325898e+01 0.0 
0.0 0.0 -1.032165154895e+01 
-1.503923303989e+02 1.025513037685e+01 0.0 
1.025513037685e+01 -3.571158809068e+02 0.0 
0.0 0.0 -1.518524633917e+02 
-1.295818722844e+02 7.320505924940e+00 0.0 
7.320505924940e+00 -2.963617971551e+02 0.0 
0.0 0.0 -1.273831008318e+02 
-1.426478899151e+01 1.506569658888e+00 0.0 
1.506569658888e+00 -2.262810710123e+01 0.0 
0.0 0.0 -1.117714036245e+01 
-1.268883330894e+02 1.483358155553e+01 0.0 
1.483358155553e+01 -2.941783406000e+02 0.0 
0.0 0.0 -1.259200021068e+02 
-1.000262570732e+02 1.370179495795e+00 0.0 
1.370179495795e+00 -2.235645456156e+02 0.0 
0.0 0.0 -9.667724080663e+01 
-1.259068512261e+02 2.523810675598e+00 0.0 
2.523810675598e+00 -2.925150557707e+02 0.0 
0.0 0.0 -1.251265720991e+02 
-1.530153227507e+02 1.506582706247e+01 0.0 
1.506582706247e+01 -3.583690864182e+02 0.0 
0.0 0.0 -1.530153227507e+02 
-8.877616909732e+01 1.369861317516e+00 0.0 
1.369861317516e+00 -1.967623705966e+02 0.0 
0.0 0.0 -8.526156190818e+01 
-1.331460925817e+02 1.211597825190e+01 0.0 
1.211597825190e+01 -3.079879391241e+02 0.0 
0.0 0.0 -1.319402095117e+02 
-1.250965236642e+02 7.515288682535e+00 0.0 
7.515288682535e+00 -2.835310260733e+02 0.0 
0.0 0.0 -1.221882649212e+02 
-9.328945766742e+01 3.765832127108e-01 0.0 
3.765832127108e-01 -2.083485603092e+02 0.0 
0.0 0.0 -9.009140539300e+01 
-1.296068049900e+02 1.197719707063e+01 0.0 
1.197719707063e+01 -2.960289636954e+02 0.0 
0.0 0.0 -1.272907306056e+02 
-6.104649864843e+01 1.514787083659e-01 0.0 
1.514787083659e-01 -1.595871588644e+02 0.0 
0.0 0.0 -6.579009725385e+01 
-5.898545062306e+01 1.248613018728e-01 0.0 
1.248613018728e-01 -1.247884061195e+02 0.0 
0.0 0.0 -5.473215702277e+01 
-1.347476049676e+02 1.428074407015e+01 0.0 
1.428074407015e+01 -3.173244709024e+02 0.0 
0.0 0.0 -1.352216227610e+02 
-1.265475140551e+02 -1.647969481175e-01 0.0 
-1.647969481175e-01 -2.937030581383e+02 0.0 
0.0 0.0 -1.256751716580e+02 
-4.219442852798e+00 1.048776097576e-01 0.0 
1.048776097576e-01 -8.546140175727e+00 0.0 
0.0 0.0 -4.354923731724e+00 
-5.883736420734e+01 -2.154957840320e-01 0.0 
-2.154957840320e-01 -1.250396693509e+02 0.0 
0.0 0.0 -5.476311006748e+01 
-1.560757506127e+02 9.818825021860e-01 0.0 
9.818825021860e-01 -3.698830741351e+02 0.0 
0.0 0.0 -1.573876474244e+02 
-2.825442027991e+01 -1.482514495553e+00 0.0 
-1.482514495553e+00 -7.321397026816e+01 0.0 
0.0 0.0 -3.004051716442e+01 
-1.369279373883e+02 1.218534823424e+01 0.0 
1.218534823424e+01 -3.325026513630e+02 0.0 
0.0 0.0 -1.404291766254e+02 
-1.260783170972e+02 8.768264345431e+00 0.0 
8.768264345431e+00 -2.832644959062e+02 0.0 
0.0 0.0 -1.224028439010e+02 
-1.263501972703e+02 2.795904012454e+00 0.0 
2.795904012454e+00 -2.915603159688e+02 0.0 
0.0 0.0 -1.249731539717e+02 
-2.729812846921e+01 -1.139436778101e+00 0.0 
-1.139436778101e+00 -7.041431525731e+01 0.0 
0.0 0.0 -2.891373311796e+01 
-1.944631639819e+01 6.616324723095e+00 0.0 
6.616324723095e+00 -4.128046873524e+01 0.0 
0.0 0.0 -1.781803554003e+01 
-8.806651549399e+01 -1.310429649750e+00 0.0 
-1.310429649750e+00 -2.273721007331e+02 0.0 
0.0 0.0 -9.423158486812e+01 
-1.075525034592e+02 1.559117924907e-01 0.0 
1.559117924907e-01 -2.447037378858e+02 0.0 
0.0 0.0 -1.052768724035e+02 
-1.756438624728e+01 -5.325120419308e-01 0.0 
-5.325120419308e-01 -5.814578162418e+00 0.0 
0.0 0.0 -6.613689322909e+00 
-1.277489464659e+02 5.951509526688e+00 0.0 
5.951509526688e+00 -2.957969874182e+02 0.0 
0.0 0.0 -1.266637801652e+02 
-8.616685923086e+01 1.276600053971e-01 0.0 
1.276600053971e-01 -1.907481399870e+02 0.0 
0.0 0.0 -8.267449976534e+01 
-2.780144131495e+01 -1.323722953908e+00 0.0 
-1.323722953908e+00 -6.929425115574e+01 0.0 
0.0 0.0 -2.872870774121e+01 
-8.056404622878e+01 1.101065341464e-01 0.0 
1.101065341464e-01 -1.769411450288e+02 0.0 
0.0 0.0 -7.685155737729e+01 
-1.400762729374e+02 1.630126722762e+01 0.0 
1.630126722762e+01 -3.273175172615e+02 0.0 
0.0 0.0 -1.398181370597e+02 
-9.294056122838e+01 1.204696428216e+00 0.0 
1.204696428216e+00 -2.380183049941e+02 0.0 
0.0 0.0 -9.888765986673e+01 
-1.414347273349e+01 6.940874072463e+00 0.0 
6.940874072463e+00 -1.103086750919e+01 0.0 
0.0 0.0 -7.126299397438e+00 
-5.436924965834e+01 -9.885409378934e-01 0.0 
-9.885409378934e-01 -1.448744466494e+02 0.0 
0.0 0.0 -5.937310889232e+01 
-8.050330947622e+01 -2.831016909792e-01 0.0 
-2.831016909792e-01 -2.090379984586e+02 0.0 
0.0 0.0 -8.646239238044e+01 
-9.718872680179e+01 -1.337380277216e+00 0.0 
-1.337380277216e+00 -2.470598974570e+02 0.0 
0.0 0.0 -1.028745872776e+02 
-1.365712772847e+02 1.514757710779e+01 0.0 
1.514757710779e+01 -3.227193508438e+02 0.0 
0.0 0.0 -1.373871884386e+02 
-7.825579687527e+01 6.739752256069e-01 0.0 
6.739752256069e-01 -2.037683149440e+02 0.0 
0.0 0.0 -8.420723354578e+01 
-8.381133945464e+01 -2.130724869500e-01 0.0 
-2.130724869500e-01 -2.162829894195e+02 0.0 
0.0 0.0 -8.962829866225e+01 
-1.559582586793e+01 -1.337003149556e+00 0.0 
-1.337003149556e+00 -3.713567202291e+01 0.0 
0.0 0.0 -1.541944936725e+01 
-1.466588865174e+02 4.498883509995e+00 0.0 
4.498883509995e+00 -3.529054582366e+02 0.0 
0.0 0.0 -1.494693034262e+02 
-1.256372834858e+02 1.276417677829e+01 0.0 
1.276417677829e+01 -2.889928538007e+02 0.0 
0.0 0.0 -1.239890411860e+02 
-1.981731733056e+01 7.063272435739e+00 0.0 
7.063272435739e+00 -5.270632677563e+01 0.0 
0.0 0.0 -2.135709323186e+01 
-1.263283700851e+02 6.882565805744e-01 0.0 
6.882565805744e-01 -2.930659503267e+02 0.0 
0.0 0.0 -1.254182961235e+02 
-1.560613087158e+02 -1.260791231476e-02 0.0 
-1.260791231476e-02 -3.694509784197e+02 0.0 
0.0 0.0 -1.572536861407e+02 
-6.546866771131e+01 6.452260844625e-01 0.0 
6.452260844625e-01 -1.403076500334e+02 0.0 
0.0 0.0 -6.133289532341e+01 
-8.641711549302e+01 1.170106894188e-01 0.0 
1.170106894188e-01 -1.908338097451e+02 0.0 
0.0 0.0 -8.277527757143e+01 
-7.846914921914e+01 -5.934185623580e-01 0.0 
-5.934185623580e-01 -2.036569800713e+02 0.0 
0.0 0.0 -8.423783878713e+01 
-8.132982186940e+01 4.740778103030e-01 0.0 
4.740778103030e-01 -2.098921715641e+02 0.0 
0.0 0.0 -8.696659803006e+01 
-8.363616641785e+01 2.293742626529e-01 0.0 
2.293742626529e-01 -2.166817467797e+02 0.0 
0.0 0.0 -8.969537395927e+01 
-1.313837089365e+02 1.120967211871e+01 0.0 
1.120967211871e+01 -3.197022246857e+02 0.0 
0.0 0.0 -1.349257800867e+02 
-2.247464694699e+01 -2.088246825774e+00 0.0 
-2.088246825774e+00 -5.633050700404e+01 0.0 
0.0 0.0 -2.324154618531e+01 
-1.308885957152e+02 1.458137828133e+01 0.0 
1.458137828133e+01 -2.992922393265e+02 0.0 
0.0 0.0 -1.286542505125e+02 
-7.241542301368e+01 -1.374408420045e-01 0.0 
-1.374408420045e-01 -1.571219281612e+02 0.0 
0.0 0.0 -6.846120535247e+01 
-1.287617788285e+02 6.124244131149e+00 0.0 
6.124244131149e+00 -2.947744683172e+02 0.0 
0.0 0.0 -1.266608741437e+02 
-1.321586561617e+02 1.204557100935e+01 0.0 
1.204557100935e+01 -3.198830129809e+02 0.0 
0.0 0.0 -1.352125007428e+02 
-8.160102778520e+01 6.557838332263e-01 0.0 
6.557838332263e-01 -1.777170742358e+02 0.0 
0.0 0.0 -7.739543060630e+01 
-1.246736799428e+02 1.098979616421e+01 0.0 
1.098979616421e+01 -2.827989278010e+02 0.0 
0.0 0.0 -1.218417823231e+02 
-1.353366399073e+02 1.381023342730e+01 0.0 
1.381023342730e+01 -3.215350432583e+02 0.0 
0.0 0.0 -1.366615049497e+02 
-1.415406799374e+02 1.575161508605e+01 0.0 
1.575161508605e+01 -3.343957233892e+02 0.0 
0.0 0.0 -1.423809209980e+02 
-1.434717631156e+01 6.438779044898e+00 0.0 
6.438779044898e+00 -1.799330940672e+01 0.0 
0.0 0.0 -9.516178576544e+00 
-1.258254732559e+02 1.234143210441e+01 0.0 
1.234143210441e+01 -2.835041367433e+02 0.0 
0.0 0.0 -1.223988829997e+02 
-1.296480566881e+02 1.184598356894e+01 0.0 
1.184598356894e+01 -2.954315821388e+02 0.0 
0.0 0.0 -1.271238916481e+02 
-1.654308041383e+01 -4.385231151720e-01 0.0 
-4.385231151720e-01 -3.820652787015e+01 0.0 
0.0 0.0 -1.602488248519e+01 
-7.443113607665e+01 3.852686519357e-01 0.0 
3.852686519357e-01 -1.937987699334e+02 0.0 
0.0 0.0 -8.006897180302e+01 
-1.568791557537e+01 5.021159129047e+00 0.0 
5.021159129047e+00 -1.737409912555e+01 0.0 
0.0 0.0 -9.518604410276e+00 
-1.302080570537e+02 1.250546805998e+01 0.0 
1.250546805998e+01 -2.945674276337e+02 0.0 
0.0 0.0 -1.270326454062e+02 
-1.025429206007e+01 4.491643468383e-01 0.0 
4.491643468383e-01 -1.148292283431e+01 0.0 
0.0 0.0 -6.121164468316e+00 
-9.167062293187e+00 -1.260365966466e-01 0.0 
-1.260365966466e-01 -9.766826549096e+00 0.0 
0.0 0.0 -5.280166652685e+00 
-9.419060122412e+00 8.920349889457e-02 0.0 
8.920349889457e-02 -9.847676853477e+00 0.0 
0.0 0.0 -5.380021092767e+00 
-9.134000239152e+00 3.532771959013e-03 0.0 
3.532771959013e-03 -9.684788129534e+00 0.0 
0.0 0.0 -5.245636510606e+00 
-9.284187795607e+00 -4.247300580485e-03 0.0 
-4.247300580485e-03 -9.750084158797e+00 0.0 
0.0 0.0 -5.310281586321e+00 
-9.129761049125e+00 -3.894585229130e-02 0.0 
-3.894585229130e-02 -9.706576642090e+00 0.0 
0.0 0.0 -5.250901307365e+00 
-9.176181913690e+00 -5.496353764885e-02 0.0 
-5.496353764885e-02 -9.730176316529e+00 0.0 
0.0 0.0 -5.271907469066e+00 
-9.031780944506e+00 -7.959996423489e-02 0.0 
-7.959996423489e-02 -9.715151528011e+00 0.0 
0.0 0.0 -5.224079741755e+00 
-9.051672284160e+00 -8.794375463569e-02 0.0 
-8.794375463569e-02 -9.726087992405e+00 0.0 
0.0 0.0 -5.233328082970e+00 
-8.859593822494e+00 -1.165900201439e-01 0.0 
-1.165900201439e-01 -9.713880853499e+00 0.0 
0.0 0.0 -5.172042402798e+00 
-8.903289053707e+00 -1.117549705590e-01 0.0 
-1.117549705590e-01 -9.730180952507e+00 0.0 
0.0 0.0 -5.190041001864e+00 
-8.625770210812e+00 -1.519016652095e-01 0.0 
-1.519016652095e-01 -9.706041046289e+00 0.0 
0.0 0.0 -5.099543377130e+00 
-8.728666418732e+00 -1.314022877815e-01 0.0 
-1.314022877815e-01 -9.739172702492e+00 0.0 
0.0 0.0 -5.140351736367e+00 
-8.335827217904e+00 -1.875137225544e-01 0.0 
-1.875137225544e-01 -9.692934118078e+00 0.0 
0.0 0.0 -5.008628400795e+00 
-8.527905554801e+00 -1.503565509068e-01 0.0 
-1.503565509068e-01 -9.751742969279e+00 0.0 
0.0 0.0 -5.083894557224e+00 
-7.989785257118e+00 -2.251515497737e-01 0.0 
-2.251515497737e-01 -9.676525538258e+00 0.0 
0.0 0.0 -4.899893238613e+00 
-8.298793465925e+00 -1.697785203248e-01 0.0 
-1.697785203248e-01 -9.767670282019e+00 0.0 
0.0 0.0 -5.019939124383e+00 
-7.584979317966e+00 -2.650432444362e-01 0.0 
-2.650432444362e-01 -9.656837443875e+00 0.0 
0.0 0.0 -4.772545028552e+00 
-6.145548452255e+00 2.822829620791e+00 0.0 
2.822829620791e+00 -1.202829381913e+01 0.0 
0.0 0.0 -5.052152681417e+00 
-8.041728814319e+00 -1.902565204636e-01 0.0 
-1.902565204636e-01 -9.787190482401e+00 0.0 
0.0 0.0 -4.948675789016e+00 
-7.117983603976e+00 -3.071547839339e-01 0.0 
-3.071547839339e-01 -9.633922681341e+00 0.0 
0.0 0.0 -4.625571885595e+00 
-7.759332660986e+00 -2.114239182700e-01 0.0 
-2.114239182700e-01 -9.811046690042e+00 0.0 
0.0 0.0 -4.871113805308e+00 
3.832421552896e-01 -9.995521807631e-02 0.0 
-9.995521807631e-02 -5.193548705441e+00 0.0 
0.0 0.0 -1.043091965045e+00 
-6.585890929399e+00 -3.509807725788e-01 0.0 
-3.509807725788e-01 -9.606634135151e+00 0.0 
0.0 0.0 -4.457757519365e+00 
-1.047850635527e+01 1.538477940702e+00 0.0 
1.538477940702e+00 -1.083992271161e+01 0.0 
0.0 0.0 -5.995528720062e+00 
-7.458338199477e+00 -2.331432610916e-01 0.0 
-2.331432610916e-01 -9.840148898395e+00 0.0 
0.0 0.0 -4.789546129361e+00 
-5.986268385969e+00 -3.967572293582e-01 0.0 
-3.967572293582e-01 -9.572463228039e+00 0.0 
0.0 0.0 -4.267619484202e+00 
-7.148249440253e+00 -2.577144512752e-01 0.0 
-2.577144512752e-01 -9.875761411848e+00 0.0 
0.0 0.0 -4.707203255630e+00 
-5.314603321035e+00 -4.433181507311e-01 0.0 
-4.433181507311e-01 -9.538403397015e+00 0.0 
0.0 0.0 -4.055902015415e+00 
-6.830651994289e+00 -2.783361563370e-01 0.0 
-2.783361563370e-01 -9.919371486880e+00 0.0 
0.0 0.0 -4.625007044351e+00 
-4.575509318228e+00 -4.858010846920e-01 0.0 
-4.858010846920e-01 -9.495010628248e+00 0.0 
0.0 0.0 -3.821155983943e+00 
-6.533105356349e+00 -2.982169309291e-01 0.0 
-2.982169309291e-01 -9.972830856602e+00 0.0 
0.0 0.0 -4.551780863885e+00 
-3.776254892837e+00 -5.178817531651e-01 0.0 
-5.178817531651e-01 -9.461348201696e+00 0.0 
0.0 0.0 -3.571280928360e+00 
-1.455328388133e+01 5.164148751135e+00 0.0 
5.164148751135e+00 -1.261032336262e+01 0.0 
0.0 0.0 -7.749082173185e+00 
-6.271620753616e+00 -2.951083792846e-01 0.0 
-2.951083792846e-01 -1.003737090169e+01 0.0 
0.0 0.0 -4.492697496590e+00 
-2.951847893369e+00 -5.356701360898e-01 0.0 
-5.356701360898e-01 -9.390564574047e+00 0.0 
0.0 0.0 -3.302723740225e+00 
-6.141389621247e+00 -3.022043753476e-01 0.0 
-3.022043753476e-01 -1.011794811475e+01 0.0 
0.0 0.0 -4.477801320798e+00 
-2.112629906050e+00 -5.261331432450e-01 0.0 
-5.261331432450e-01 -9.376925769959e+00 0.0 
0.0 0.0 -3.046866702803e+00 
-1.359388457921e+00 -4.847969408008e-01 0.0 
-4.847969408008e-01 -9.256110317982e+00 0.0 
0.0 0.0 -2.784649632771e+00 
-6.109232329360e+00 -2.379163717569e-01 0.0 
-2.379163717569e-01 -1.021025439360e+01 0.0 
0.0 0.0 -4.495846016888e+00 
-7.136160790717e-01 -3.400327010393e-01 0.0 
-3.400327010393e-01 -9.381303733946e+00 0.0 
0.0 0.0 -2.628475943905e+00 
-6.457701406056e+00 -2.181190667669e-01 0.0 
-2.181190667669e-01 -1.033551337257e+01 0.0 
0.0 0.0 -4.637964433589e+00 
-5.463607657396e-01 -8.123704484129e-02 0.0 
-8.123704484129e-02 -9.223265099324e+00 0.0 
0.0 0.0 -2.530887759519e+00 
-1.048640302106e+00 6.626739886142e-01 0.0 
6.626739886142e-01 -1.007748771704e+01 0.0 
0.0 0.0 -2.937838405745e+00 
-6.908658443079e+00 6.340186125450e-02 0.0 
6.340186125450e-02 -1.045071413369e+01 0.0 
0.0 0.0 -4.807811773032e+00 
-8.196336880536e+00 2.345990453938e-01 0.0 
2.345990453938e-01 -1.062030111733e+01 0.0 
0.0 0.0 -5.244991399359e+00 
-8.038852925200e+00 9.358465632603e-01 0.0 
9.358465632603e-01 -9.646907586679e-01 0.0 
0.0 0.0 -2.301063105160e+00 
-1.044098541644e+01 1.493838502316e+00 0.0 
1.493838502316e+00 -9.457921630977e+00 0.0 
0.0 0.0 -5.569672114224e+00 
-1.009392563349e+01 -1.299420058024e+00 0.0 
-1.299420058024e+00 -1.152288597439e+01 0.0 
0.0 0.0 -6.085043482364e+00 
-8.415747799457e+00 2.328446853352e-01 0.0 
2.328446853352e-01 -5.297041558277e+00 0.0 
0.0 0.0 -3.713836807320e+00 
-1.203070195213e+01 -8.787720958510e-02 0.0 
-8.787720958510e-02 -1.552869182071e+01 0.0 
0.0 0.0 -7.867818131853e+00 
-9.831949990383e+00 5.311824752128e+00 0.0 
5.311824752128e+00 -8.324875273908e+00 0.0 
0.0 0.0 -5.047047579287e+00 
-1.719002816659e+01 2.110047075081e-01 0.0 
2.110047075081e-01 -2.766630708285e+01 0.0 
0.0 0.0 -1.305690057483e+01 
-1.790909637520e+01 -2.841876707246e-01 0.0 
-2.841876707246e-01 -2.931726444583e+01 0.0 
0.0 0.0 -1.376790824631e+01 
-1.774679939040e+01 -3.396124042331e-02 0.0 
-3.396124042331e-02 -2.927906847877e+01 0.0 
0.0 0.0 -1.370776036075e+01 
-1.792394327651e+01 -1.050586396296e-01 0.0 
-1.050586396296e-01 -2.945654815320e+01 0.0 
0.0 0.0 -1.381414742891e+01 
-1.768787666047e+01 -9.170059095195e-02 0.0 
-9.170059095195e-02 -2.935869151015e+01 0.0 
0.0 0.0 -1.371397045119e+01 
-1.787916742905e+01 -1.532865858268e-01 0.0 
-1.532865858268e-01 -2.948809678646e+01 0.0 
0.0 0.0 -1.381017926465e+01 
-1.759247822955e+01 -1.484895078680e-01 0.0 
-1.484895078680e-01 -2.936820105353e+01 0.0 
0.0 0.0 -1.368820378492e+01 
-1.782553776310e+01 -2.191790969965e-01 0.0 
-2.191790969965e-01 -2.951186587994e+01 0.0 
0.0 0.0 -1.380122109291e+01 
-1.746962324545e+01 -2.025444605473e-01 0.0 
-2.025444605473e-01 -2.936797356875e+01 0.0 
0.0 0.0 -1.365127904426e+01 
-1.776410919939e+01 -2.863410376907e-01 0.0 
-2.863410376907e-01 -2.953326204164e+01 0.0 
0.0 0.0 -1.378921137231e+01 
-1.731609486995e+01 -2.529442920562e-01 0.0 
-2.529442920562e-01 -2.936006119040e+01 0.0 
0.0 0.0 -1.360284681810e+01 
-1.769073682000e+01 -3.527810431712e-01 0.0 
-3.527810431712e-01 -2.955242697111e+01 0.0 
0.0 0.0 -1.377294913733e+01 
-1.713184637097e+01 -3.003624153094e-01 0.0 
-3.003624153094e-01 -2.934659259104e+01 0.0 
0.0 0.0 -1.354353168860e+01 
-1.761087465098e+01 -4.188221296560e-01 0.0 
-4.188221296560e-01 -2.956989462161e+01 0.0 
0.0 0.0 -1.375423078178e+01 
-1.691659763431e+01 -3.480196322209e-01 0.0 
-3.480196322209e-01 -2.932535782148e+01 0.0 
0.0 0.0 -1.347258663674e+01 
-1.752565232470e+01 -4.886555807449e-01 0.0 
-4.886555807449e-01 -2.958850175083e+01 0.0 
0.0 0.0 -1.373424622266e+01 
-1.667047910194e+01 -3.963929231118e-01 0.0 
-3.963929231118e-01 -2.930160343272e+01 0.0 
0.0 0.0 -1.339162476040e+01 
-1.852210960053e+01 2.994146528813e+00 0.0 
2.994146528813e+00 -3.243731812184e+01 0.0 
0.0 0.0 -1.488782831671e+01 
-1.743130909415e+01 -5.600095093430e-01 0.0 
-5.600095093430e-01 -2.960794547192e+01 0.0 
0.0 0.0 -1.371177636982e+01 
-1.639487618051e+01 -4.443916790505e-01 0.0 
-4.443916790505e-01 -2.927786767017e+01 0.0 
0.0 0.0 -1.330182315520e+01 
-2.100770123126e+01 1.359774287588e+00 0.0 
1.359774287588e+00 -3.069734055548e+01 0.0 
0.0 0.0 -1.511151253602e+01 
-1.733073563206e+01 -6.305931652099e-01 0.0 
-6.305931652099e-01 -2.962908692620e+01 0.0 
0.0 0.0 -1.368794676748e+01 
-1.609335688982e+01 -4.890884270635e-01 0.0 
-4.890884270635e-01 -2.925710322398e+01 0.0 
0.0 0.0 -1.320513803414e+01 
-1.723584749986e+01 -6.959496966594e-01 0.0 
-6.959496966594e-01 -2.965185964919e+01 0.0 
0.0 0.0 -1.366631214471e+01 
-1.577097961875e+01 -5.286650669327e-01 0.0 
-5.286650669327e-01 -2.923631221002e+01 0.0 
0.0 0.0 -1.310218754863e+01 
-1.716027435216e+01 -7.536353355817e-01 0.0 
-7.536353355817e-01 -2.967448861272e+01 0.0 
0.0 0.0 -1.365042888946e+01 
-1.473890120250e+01 1.355817888371e+00 0.0 
1.355817888371e+00 -2.588628453524e+01 0.0 
0.0 0.0 -1.178755572132e+01 
-1.543468727157e+01 -5.630543368673e-01 0.0 
-5.630543368673e-01 -2.921078301825e+01 0.0 
0.0 0.0 -1.299364108695e+01 
-1.712574974677e+01 -8.089925536808e-01 0.0 
-8.089925536808e-01 -2.970939885057e+01 0.0 
0.0 0.0 -1.365054457920e+01 
-1.509619655258e+01 -5.812269479379e-01 0.0 
-5.812269479379e-01 -2.920564212290e+01 0.0 
0.0 0.0 -1.289055160265e+01 
-1.709921016176e+01 -8.315733628455e-01 0.0 
-8.315733628455e-01 -2.974053503873e+01 0.0 
0.0 0.0 -1.365192356015e+01 
-1.477890820301e+01 -5.694307158066e-01 0.0 
-5.694307158066e-01 -2.921303749880e+01 0.0 
0.0 0.0 -1.279758371054e+01 
-1.718496496765e+01 -8.237487607614e-01 0.0 
-8.237487607614e-01 -2.980209535577e+01 0.0 
0.0 0.0 -1.369611809703e+01 
-1.451546034546e+01 -5.023085189687e-01 0.0 
-5.023085189687e-01 -2.927299661598e+01 0.0 
0.0 0.0 -1.273653708843e+01 
-1.728272960292e+01 -7.077034644799e-01 0.0 
-7.077034644799e-01 -2.982272794258e+01 0.0 
0.0 0.0 -1.373163726365e+01 
-1.435836571648e+01 -3.732132925246e-01 0.0 
-3.732132925246e-01 -2.929089233696e+01 0.0 
0.0 0.0 -1.269477741603e+01 
-1.775864296341e+01 -5.800874829161e-01 0.0 
-5.800874829161e-01 -2.995327737513e+01 0.0 
0.0 0.0 -1.391357610156e+01 
-2.316986017027e+01 3.482567566179e+00 0.0 
3.482567566179e+00 -3.351678056988e+01 0.0 
0.0 0.0 -1.660599222204e+01 
-1.808617036282e+01 -1.535010986698e-01 0.0 
-1.535010986698e-01 -2.993777444582e+01 0.0 
0.0 0.0 -1.400718344259e+01 
-1.437930542871e+01 -1.203962772160e-01 0.0 
-1.203962772160e-01 -2.950709162541e+01 0.0 
0.0 0.0 -1.276591911624e+01 
-1.933765012994e+01 1.763603690528e-01 0.0 
1.763603690528e-01 -3.029730842482e+01 0.0 
0.0 0.0 -1.449048756643e+01 
-1.468466524302e+01 2.711562619073e-01 0.0 
2.711562619073e-01 -2.953176232548e+01 0.0 
0.0 0.0 -1.286492827055e+01 
-1.547669465064e+01 1.028484420708e+00 0.0 
1.028484420708e+00 -3.044279861801e+01 0.0 
0.0 0.0 -1.337584798059e+01 
-1.838200061694e+01 1.746485398159e+00 0.0 
1.746485398159e+00 -2.368022174097e+01 0.0 
0.0 0.0 -1.221866670737e+01 
-1.752989401155e+01 1.429422509324e+00 0.0 
1.429422509324e+00 -2.993229351552e+01 0.0 
0.0 0.0 -1.383865625812e+01 
-1.788270282973e+01 -1.465910688537e+00 0.0 
-1.465910688537e+00 -2.785872303771e+01 0.0 
0.0 0.0 -1.332242776023e+01 
-1.986966524942e+01 1.216741663625e-01 0.0 
1.216741663625e-01 -3.403294498859e+01 0.0 
0.0 0.0 -1.577078307140e+01 
-1.562032996744e+01 -2.036951843534e-01 0.0 
-2.036951843534e-01 -2.390449052309e+01 0.0 
0.0 0.0 -1.145744614716e+01 
-1.710321656274e+01 3.789738943742e+00 0.0 
3.789738943742e+00 -2.629757986236e+01 0.0 
0.0 0.0 -1.262023892753e+01 
-2.710236905575e+01 2.072641517716e-01 0.0 
2.072641517716e-01 -5.076073037258e+01 0.0 
0.0 0.0 -2.295892982850e+01 
-2.633074278071e+01 -3.325327360227e-01 0.0 
-3.325327360227e-01 -4.896777272535e+01 0.0 
0.0 0.0 -2.218955465182e+01 
-2.636738618130e+01 -8.818984647342e-02 0.0 
-8.818984647342e-02 -4.894845861066e+01 0.0 
0.0 0.0 -2.219475343759e+01 
-2.621481395812e+01 -1.479601307270e-01 0.0 
-1.479601307270e-01 -4.880191307695e+01 0.0 
0.0 0.0 -2.210501811052e+01 
-2.633508721866e+01 -1.564031161932e-01 0.0 
-1.564031161932e-01 -4.885471873349e+01 0.0 
0.0 0.0 -2.215694178564e+01 
-2.615147362437e+01 -2.000337938946e-01 0.0 
-2.000337938946e-01 -4.879014457553e+01 0.0 
0.0 0.0 -2.208248545997e+01 
-2.632646810616e+01 -2.188056609558e-01 0.0 
-2.188056609558e-01 -4.886909401106e+01 0.0 
0.0 0.0 -2.215866863517e+01 
-2.608665720750e+01 -2.729820508943e-01 0.0 
-2.729820508943e-01 -4.878781125022e+01 0.0 
0.0 0.0 -2.206234053732e+01 
-2.632993436609e+01 -2.806023659078e-01 0.0 
-2.806023659078e-01 -4.889168883389e+01 0.0 
0.0 0.0 -2.216648695999e+01 
-2.601402776055e+01 -3.497122838772e-01 0.0 
-3.497122838772e-01 -4.878307201767e+01 0.0 
0.0 0.0 -2.203912993347e+01 
-2.633478609305e+01 -3.434584911414e-01 0.0 
-3.434584911414e-01 -4.891188473775e+01 0.0 
0.0 0.0 -2.217400124924e+01 
-2.593074662434e+01 -4.265590113975e-01 0.0 
-4.265590113975e-01 -4.877911651458e+01 0.0 
0.0 0.0 -2.201295894168e+01 
-2.634110872086e+01 -3.987158302157e-01 0.0 
-3.987158302157e-01 -4.893048374972e+01 0.0 
0.0 0.0 -2.218147774117e+01 
-2.583590687234e+01 -4.990560120782e-01 0.0 
-4.990560120782e-01 -4.876163647145e+01 0.0 
0.0 0.0 -2.197926300314e+01 
-2.636354003400e+01 -4.539218575418e-01 0.0 
-4.539218575418e-01 -4.894399484091e+01 0.0 
0.0 0.0 -2.219226046247e+01 
-2.573266367306e+01 -5.719596350303e-01 0.0 
-5.719596350303e-01 -4.873819489701e+01 0.0 
0.0 0.0 -2.194125757102e+01 
-2.872047752711e+01 2.389576359620e+00 0.0 
2.389576359620e+00 -5.208019604080e+01 0.0 
0.0 0.0 -2.384020207037e+01 
-2.640788898177e+01 -5.133028062343e-01 0.0 
-5.133028062343e-01 -4.896050935945e+01 0.0 
0.0 0.0 -2.221051950237e+01 
-2.562443565620e+01 -6.455929264809e-01 0.0 
-6.455929264809e-01 -4.872524078338e+01 0.0 
0.0 0.0 -2.190490293188e+01 
-2.583455092463e+01 1.208257004574e+00 0.0 
1.208257004574e+00 -4.545674361242e+01 0.0 
0.0 0.0 -2.098738836111e+01 
-2.644670087592e+01 -5.702182130060e-01 0.0 
-5.702182130060e-01 -4.897921231495e+01 0.0 
0.0 0.0 -2.222777395726e+01 
-2.551333540757e+01 -7.102166472880e-01 0.0 
-7.102166472880e-01 -4.872181973572e+01 0.0 
0.0 0.0 -2.187054654299e+01 
-3.063829506035e+01 1.100250505363e+00 0.0 
1.100250505363e+00 -5.040083818059e+01 0.0 
0.0 0.0 -2.391173997228e+01 
-2.651167553971e+01 -6.121320927323e-01 0.0 
-6.121320927323e-01 -4.900633523484e+01 0.0 
0.0 0.0 -2.225540323236e+01 
-2.540881282882e+01 -7.582738780179e-01 0.0 
-7.582738780179e-01 -4.872211208343e+01 0.0 
0.0 0.0 -2.183927747367e+01 
-2.662198574771e+01 -6.347542395771e-01 0.0 
-6.347542395771e-01 -4.903921490485e+01 0.0 
0.0 0.0 -2.229836019577e+01 
-2.532428287999e+01 -7.845533768613e-01 0.0 
-7.845533768613e-01 -4.872384184431e+01 0.0 
0.0 0.0 -2.181443741729e+01 
-2.677797668317e+01 -6.353872971019e-01 0.0 
-6.353872971019e-01 -4.907048761802e+01 0.0 
0.0 0.0 -2.235453929035e+01 
-2.527237797308e+01 -7.858112995318e-01 0.0 
-7.858112995318e-01 -4.871819804529e+01 0.0 
0.0 0.0 -2.179717280551e+01 
-3.227048978733e+01 2.508047494411e+00 0.0 
2.508047494411e+00 -5.316876155108e+01 0.0 
0.0 0.0 -2.523177540152e+01 
-2.703140137375e+01 -6.432895837727e-01 0.0 
-6.432895837727e-01 -4.913599761208e+01 0.0 
0.0 0.0 -2.245021969575e+01 
-2.528420197526e+01 -7.447070110431e-01 0.0 
-7.447070110431e-01 -4.883884927023e+01 0.0 
0.0 0.0 -2.183691537364e+01 
-2.725908920064e+01 -5.365551545021e-01 0.0 
-5.365551545021e-01 -4.920665820374e+01 0.0 
0.0 0.0 -2.253972422132e+01 
-2.536826380616e+01 -6.139535919375e-01 0.0 
-6.139535919375e-01 -4.889645931229e+01 0.0 
0.0 0.0 -2.187941693554e+01 
-2.561370300668e+01 -3.606086921393e-01 0.0 
-3.606086921393e-01 -4.926166588470e+01 0.0 
0.0 0.0 -2.206261066741e+01 
-2.772449271159e+01 -4.362298675124e-01 0.0 
-4.362298675124e-01 -4.935779681963e+01 0.0 
0.0 0.0 -2.272468685937e+01 
-2.600627190690e+01 5.311516731773e-02 0.0 
5.311516731773e-02 -4.919774490995e+01 0.0 
0.0 0.0 -2.216120504506e+01 
-2.804900280437e+01 1.402957881902e-02 0.0 
1.402957881902e-02 -4.942306596741e+01 0.0 
0.0 0.0 -2.284162063153e+01 
-2.675702603847e+01 6.736440548555e-01 0.0 
6.736440548555e-01 -5.016977102232e+01 0.0 
0.0 0.0 -2.267803911824e+01 
-2.927625141667e+01 1.998040406381e-01 0.0 
1.998040406381e-01 -4.980072382507e+01 0.0 
0.0 0.0 -2.332309257252e+01 
-2.806095043336e+01 1.689296851241e+00 0.0 
1.689296851241e+00 -4.376331903236e+01 0.0 
0.0 0.0 -2.114728083972e+01 
-2.674769663440e+01 1.443426461379e+00 0.0 
1.443426461379e+00 -4.863604115646e+01 0.0 
0.0 0.0 -2.221512133726e+01 
-2.641384437818e+01 -1.475401443722e+00 0.0 
-1.475401443722e+00 -5.058622235223e+01 0.0 
0.0 0.0 -2.270002001912e+01 
-2.434728071286e+01 1.096400654201e-01 0.0 
1.096400654201e-01 -4.448071440329e+01 0.0 
0.0 0.0 -2.024839853485e+01 
-2.873014267774e+01 -1.921304151183e-01 0.0 
-1.921304151183e-01 -5.457818557883e+01 0.0 
0.0 0.0 -2.459249847697e+01 
-2.745308117333e+01 2.998556376212e+00 0.0 
2.998556376212e+00 -4.573656042032e+01 0.0 
0.0 0.0 -2.155689247809e+01 
-3.398017664204e+01 2.153324973331e-01 0.0 
2.153324973331e-01 -6.680894807392e+01 0.0 
0.0 0.0 -2.983673741479e+01 
-3.475673104970e+01 -2.948222600185e-01 0.0 
-2.948222600185e-01 -6.846689126376e+01 0.0 
0.0 0.0 -3.056708669404e+01 
-3.474155638204e+01 -1.006388401123e-01 0.0 
-1.006388401123e-01 -6.848818907905e+01 0.0 
0.0 0.0 -3.056892363833e+01 
-3.488324213396e+01 -1.441561616069e-01 0.0 
-1.441561616069e-01 -6.857424995101e+01 0.0 
0.0 0.0 -3.063724762549e+01 
-3.476146868549e+01 -1.737010924585e-01 0.0 
-1.737010924585e-01 -6.851627548942e+01 0.0 
0.0 0.0 -3.058332325247e+01 
-3.491161884206e+01 -2.153963296419e-01 0.0 
-2.153963296419e-01 -6.859277731681e+01 0.0 
0.0 0.0 -3.065131884766e+01 
-3.474920059750e+01 -2.236368798057e-01 0.0 
-2.236368798057e-01 -6.852213649084e+01 0.0 
0.0 0.0 -3.058140112650e+01 
-3.498106358451e+01 -2.791858493920e-01 0.0 
-2.791858493920e-01 -6.861251368322e+01 0.0 
0.0 0.0 -3.067807318032e+01 
-3.473800251803e+01 -2.818316590572e-01 0.0 
-2.818316590572e-01 -6.851051452175e+01 0.0 
0.0 0.0 -3.057455511193e+01 
-3.504410851682e+01 -3.526830118367e-01 0.0 
-3.526830118367e-01 -6.862943017715e+01 0.0 
0.0 0.0 -3.070206160819e+01 
-3.473278714905e+01 -3.401121303991e-01 0.0 
-3.401121303991e-01 -6.850722053509e+01 0.0 
0.0 0.0 -3.057200230524e+01 
-3.512774229071e+01 -4.264495659038e-01 0.0 
-4.264495659038e-01 -6.865399350023e+01 0.0 
0.0 0.0 -3.073452073728e+01 
-3.473381564911e+01 -3.902911699334e-01 0.0 
-3.902911699334e-01 -6.851346658230e+01 0.0 
0.0 0.0 -3.057418466942e+01 
-3.519858422308e+01 -4.797819742083e-01 0.0 
-4.797819742083e-01 -6.865992236554e+01 0.0 
0.0 0.0 -3.075755197659e+01 
-3.474883184728e+01 -4.323745570505e-01 0.0 
-4.323745570505e-01 -6.850967573856e+01 0.0 
0.0 0.0 -3.057755227575e+01 
-3.830889426889e+01 2.069097925918e+00 0.0 
2.069097925918e+00 -7.160562904256e+01 0.0 
0.0 0.0 -3.257435699343e+01 
-3.535993369110e+01 -5.325195517008e-01 0.0 
-5.325195517008e-01 -6.866670382730e+01 0.0 
0.0 0.0 -3.080799125552e+01 
-3.973350869320e+01 7.946624178122e-01 0.0 
7.946624178122e-01 -7.016402290323e+01 0.0 
0.0 0.0 -3.256925947893e+01 
-3.476849956729e+01 -4.862799737554e-01 0.0 
-4.862799737554e-01 -6.846860072565e+01 0.0 
0.0 0.0 -3.057113008788e+01 
-3.549752722404e+01 -6.084386133329e-01 0.0 
-6.084386133329e-01 -6.868486729796e+01 0.0 
0.0 0.0 -3.085471835660e+01 
-3.480816500856e+01 -5.216073371968e-01 0.0 
-5.216073371968e-01 -6.848929529111e+01 0.0 
0.0 0.0 -3.058923808990e+01 
-3.565285979972e+01 -6.460148566173e-01 0.0 
-6.460148566173e-01 -6.871610999811e+01 0.0 
0.0 0.0 -3.091069093935e+01 
-3.487927509411e+01 -5.268031788524e-01 0.0 
-5.268031788524e-01 -6.853073419511e+01 0.0 
0.0 0.0 -3.062300278677e+01 
-3.589181009999e+01 -6.472272814235e-01 0.0 
-6.472272814235e-01 -6.875687296244e+01 0.0 
0.0 0.0 -3.099460491873e+01 
-3.582967588715e+01 1.007756401163e+00 0.0 
1.007756401163e+00 -6.509204758951e+01 0.0 
0.0 0.0 -2.987651704300e+01 
-3.499017185938e+01 -5.063173131690e-01 0.0 
-5.063173131690e-01 -6.856498249874e+01 0.0 
0.0 0.0 -3.066654630743e+01 
-3.617508136904e+01 -6.210175590913e-01 0.0 
-6.210175590913e-01 -6.880003162005e+01 0.0 
0.0 0.0 -3.109253389673e+01 
-3.515864597805e+01 -4.470824379705e-01 0.0 
-4.470824379705e-01 -6.862538263941e+01 0.0 
0.0 0.0 -3.073520858524e+01 
-3.648842173433e+01 -5.318821445346e-01 0.0 
-5.318821445346e-01 -6.882754777764e+01 0.0 
0.0 0.0 -3.119479085359e+01 
-3.539693372642e+01 -3.607548561749e-01 0.0 
-3.607548561749e-01 -6.865557310165e+01 0.0 
0.0 0.0 -3.081575204842e+01 
-3.707059240820e+01 -4.966259409927e-01 0.0 
-4.966259409927e-01 -6.902326496605e+01 0.0 
0.0 0.0 -3.142815721228e+01 
-3.573861867115e+01 -1.658809096671e-01 0.0 
-1.658809096671e-01 -6.899222696826e+01 0.0 
0.0 0.0 -3.101925369182e+01 
-3.727740370059e+01 -1.536693796184e-01 0.0 
-1.536693796184e-01 -6.909224022053e+01 0.0 
0.0 0.0 -3.151089317634e+01 
-3.850790908926e+01 3.531495888603e-02 0.0 
3.531495888603e-02 -6.960083401358e+01 0.0 
0.0 0.0 -3.203262293085e+01 
-3.620286091796e+01 1.383070083662e-01 0.0 
1.383070083662e-01 -6.914065596783e+01 0.0 
0.0 0.0 -3.120305506574e+01 
-4.131949690148e+01 1.827626116932e+00 0.0 
1.827626116932e+00 -7.285419216909e+01 0.0 
0.0 0.0 -3.385210672117e+01 
-3.686124460511e+01 6.634029943520e-01 0.0 
6.634029943520e-01 -6.998496350248e+01 0.0 
0.0 0.0 -3.165386243228e+01 
-3.735353422958e+01 1.296132740313e+00 0.0 
1.296132740313e+00 -6.373733019296e+01 0.0 
0.0 0.0 -2.992725932676e+01 
-3.430734942815e+01 1.452154007889e+00 0.0 
1.452154007889e+00 -6.895902372733e+01 0.0 
0.0 0.0 -3.057991194665e+01 
-3.464691939534e+01 -1.462989048395e+00 0.0 
-1.462989048395e+00 -6.697444247242e+01 0.0 
0.0 0.0 -3.008640856033e+01 
-3.670050216682e+01 1.229287807451e-01 0.0 
1.229287807451e-01 -7.309930744350e+01 0.0 
0.0 0.0 -3.253994288310e+01 
-3.233887168810e+01 -1.846835489515e-01 0.0 
-1.846835489515e-01 -6.299855326967e+01 0.0 
0.0 0.0 -2.820122748733e+01 
-3.690073462559e+01 2.281969962568e+00 0.0 
2.281969962568e+00 -6.501319716615e+01 0.0 
0.0 0.0 -3.017417953752e+01 
-4.383934333921e+01 2.757806381638e-01 0.0 
2.757806381638e-01 -8.989190757176e+01 0.0 
0.0 0.0 -3.971937527329e+01 
-4.315918466670e+01 -2.595791467703e-01 0.0 
-2.595791467703e-01 -8.807261637009e+01 0.0 
0.0 0.0 -3.896954031104e+01 
-4.332505196057e+01 -1.654383197082e-02 0.0 
-1.654383197082e-02 -8.810232620462e+01 0.0 
0.0 0.0 -3.902821344956e+01 
-4.315242025373e+01 -1.008895946486e-01 0.0 
-1.008895946486e-01 -8.786899889715e+01 0.0 
0.0 0.0 -3.890642574526e+01 
-4.333865754594e+01 -1.457244925322e-01 0.0 
-1.457244925322e-01 -8.795896804428e+01 0.0 
0.0 0.0 -3.898928767707e+01 
-4.319409872241e+01 -1.764720802561e-01 0.0 
-1.764720802561e-01 -8.791856370429e+01 0.0 
0.0 0.0 -3.893379872801e+01 
-4.339000059817e+01 -1.575296826103e-01 0.0 
-1.575296826103e-01 -8.799388983226e+01 0.0 
0.0 0.0 -3.901516712913e+01 
-4.323139675614e+01 -2.138667579049e-01 0.0 
-2.138667579049e-01 -8.786329108370e+01 0.0 
0.0 0.0 -3.892840635195e+01 
-4.357642370974e+01 -2.172273626680e-01 0.0 
-2.172273626680e-01 -8.800643687568e+01 0.0 
0.0 0.0 -3.907485817563e+01 
-4.329712844878e+01 -2.830229467782e-01 0.0 
-2.830229467782e-01 -8.788647668505e+01 0.0 
0.0 0.0 -3.895508154015e+01 
-4.366824491424e+01 -2.591297236663e-01 0.0 
-2.591297236663e-01 -8.802375451608e+01 0.0 
0.0 0.0 -3.910759982910e+01 
-4.336635200766e+01 -3.330797681942e-01 0.0 
-3.330797681942e-01 -8.787741617312e+01 0.0 
0.0 0.0 -3.897313045423e+01 
-4.387652053330e+01 -3.124867460246e-01 0.0 
-3.124867460246e-01 -8.806574264982e+01 0.0 
0.0 0.0 -3.918267895494e+01 
-4.725169791953e+01 1.777521771936e+00 0.0 
1.777521771936e+00 -9.104621861338e+01 0.0 
0.0 0.0 -4.108937495987e+01 
-4.346636875620e+01 -3.810210652100e-01 0.0 
-3.810210652100e-01 -8.795141960948e+01 0.0 
0.0 0.0 -3.902533650970e+01 
-4.401591652563e+01 -2.702509578781e-01 0.0 
-2.702509578781e-01 -8.808522275893e+01 0.0 
0.0 0.0 -3.923034178537e+01 
-4.489558356756e+01 8.478839149432e-01 0.0 
8.478839149432e-01 -8.450540779630e+01 0.0 
0.0 0.0 -3.842029740916e+01 
-4.357445708599e+01 -3.857051560690e-01 0.0 
-3.857051560690e-01 -8.783392508203e+01 0.0 
0.0 0.0 -3.902251465041e+01 
-4.428197964676e+01 -3.450950345363e-01 0.0 
-3.450950345363e-01 -8.806376187725e+01 0.0 
0.0 0.0 -3.930372245720e+01 
-4.828511333078e+01 7.288887550264e-01 0.0 
7.288887550264e-01 -8.957508886859e+01 0.0 
0.0 0.0 -4.095806065981e+01 
-4.373091970666e+01 -4.295125266111e-01 0.0 
-4.295125266111e-01 -8.789611642409e+01 0.0 
0.0 0.0 -3.908811083923e+01 
-4.450235238526e+01 -3.678978897133e-01 0.0 
-3.678978897133e-01 -8.811638671721e+01 0.0 
0.0 0.0 -3.938562173074e+01 
-4.392172936161e+01 -4.208127214736e-01 0.0 
-4.208127214736e-01 -8.801013897585e+01 0.0 
0.0 0.0 -3.917956050124e+01 
-4.481175680002e+01 -2.969354892869e-01 0.0 
-2.969354892869e-01 -8.819207198404e+01 0.0 
0.0 0.0 -3.950114863522e+01 
-4.416021654548e+01 -3.565893053297e-01 0.0 
-3.565893053297e-01 -8.804982133523e+01 0.0 
0.0 0.0 -3.926301136421e+01 
-5.001088085971e+01 1.491329575000e+00 0.0 
1.491329575000e+00 -9.225869252303e+01 0.0 
0.0 0.0 -4.228087201482e+01 
-4.523118252167e+01 -2.321975801591e-01 0.0 
-2.321975801591e-01 -8.826124951081e+01 0.0 
0.0 0.0 -3.964772960974e+01 
-4.446845062866e+01 -2.640004169270e-01 0.0 
-2.640004169270e-01 -8.815122655917e+01 0.0 
0.0 0.0 -3.938590315635e+01 
-4.486487776031e+01 -8.814840970382e-02 0.0 
-8.814840970382e-02 -8.837261183827e+01 0.0 
0.0 0.0 -3.957124687957e+01 
-4.562982325512e+01 -1.361318766853e-01 0.0 
-1.361318766853e-01 -8.835206750268e+01 0.0 
0.0 0.0 -3.979456722734e+01 
-4.531647175245e+01 1.326541620733e-01 0.0 
1.326541620733e-01 -8.826365010263e+01 0.0 
0.0 0.0 -3.967403655652e+01 
-4.595056443957e+01 1.477440843365e-01 0.0 
1.477440843365e-01 -8.837659674462e+01 0.0 
0.0 0.0 -3.989814835526e+01 
-4.598611861084e+01 4.841402569630e-01 0.0 
4.841402569630e-01 -8.941257501111e+01 0.0 
0.0 0.0 -4.021960808659e+01 
-4.706711793887e+01 4.214384764061e-02 0.0 
4.214384764061e-02 -8.883492938511e+01 0.0 
0.0 0.0 -4.037061419720e+01 
-4.622421675149e+01 1.174093064803e+00 0.0 
1.174093064803e+00 -8.338612541887e+01 0.0 
0.0 0.0 -3.848310265111e+01 
-4.362934556564e+01 1.414760885821e+00 0.0 
1.414760885821e+00 -8.760594830781e+01 0.0 
0.0 0.0 -3.897058816203e+01 
-4.325327509229e+01 -1.507894388950e+00 0.0 
-1.507894388950e+00 -8.979109372765e+01 0.0 
0.0 0.0 -3.951331064598e+01 
-4.118414830550e+01 9.230304232515e-02 0.0 
9.230304232515e-02 -8.356114843374e+01 0.0 
0.0 0.0 -3.702358902177e+01 
-4.559602043077e+01 -2.466726747640e-01 0.0 
-2.466726747640e-01 -9.363932344481e+01 0.0 
0.0 0.0 -4.137060316267e+01 
-4.579281495102e+01 1.800692510254e+00 0.0 
1.800692510254e+00 -8.430240417148e+01 0.0 
0.0 0.0 -3.862856573675e+01 
-5.089519820605e+01 4.190830885339e-01 0.0 
4.190830885339e-01 -1.063555689277e+02 0.0 
0.0 0.0 -4.677523014013e+01 
-5.175700878859e+01 -1.378314803789e-02 0.0 
-1.378314803789e-02 -1.075966984402e+02 0.0 
0.0 0.0 -4.740611216864e+01 
-5.166260416553e+01 -1.313965966561e-02 0.0 
-1.313965966561e-02 -1.075566146829e+02 0.0 
0.0 0.0 -4.736576565452e+01 
-5.161695255235e+01 -1.869762824129e-02 0.0 
-1.869762824129e-02 -1.076076687403e+02 0.0 
0.0 0.0 -4.736738638780e+01 
-5.178177090962e+01 -8.862702590558e-02 0.0 
-8.862702590558e-02 -1.076595658928e+02 0.0 
0.0 0.0 -4.743240104074e+01 
-5.179645784538e+01 -1.186746748111e-01 0.0 
-1.186746748111e-01 -1.077655337407e+02 0.0 
0.0 0.0 -4.746859747584e+01 
-5.189167807652e+01 -4.214681140887e-02 0.0 
-4.214681140887e-02 -1.078311372818e+02 0.0 
0.0 0.0 -4.751684460749e+01 
-5.204795789273e+01 -2.384324493337e-02 0.0 
-2.384324493337e-02 -1.076984407103e+02 0.0 
0.0 0.0 -4.752391958091e+01 
-5.198736744564e+01 -1.218883120562e-01 0.0 
-1.218883120562e-01 -1.076319722595e+02 0.0 
0.0 0.0 -4.748580191153e+01 
-5.214813436263e+01 -1.750008419403e-01 0.0 
-1.750008419403e-01 -1.077515738965e+02 0.0 
0.0 0.0 -4.756991247774e+01 
-5.213447972867e+01 -1.119337326014e-01 0.0 
-1.119337326014e-01 -1.077783024164e+02 0.0 
0.0 0.0 -4.757383464352e+01 
-5.232663230763e+01 -1.200020750548e-01 0.0 
-1.200020750548e-01 -1.077501847705e+02 0.0 
0.0 0.0 -4.762304512343e+01 
-5.576670457390e+01 1.799230125750e+00 0.0 
1.799230125750e+00 -1.105251066016e+02 0.0 
0.0 0.0 -4.948754335265e+01 
-5.230815013605e+01 -1.256272312237e-01 0.0 
-1.256272312237e-01 -1.077395450562e+02 0.0 
0.0 0.0 -4.761430855768e+01 
-5.589281468295e+01 6.215736253998e-01 0.0 
6.215736253998e-01 -1.089377572871e+02 0.0 
0.0 0.0 -4.904917159101e+01 
-5.289900259007e+01 -2.262130634442e-01 0.0 
-2.262130634442e-01 -1.079096505989e+02 0.0 
0.0 0.0 -4.784259595670e+01 
-5.247494934457e+01 -1.166850312703e-01 0.0 
-1.166850312703e-01 -1.078229660031e+02 0.0 
0.0 0.0 -4.768937460431e+01 
-5.271619643304e+01 -9.324707656350e-02 0.0 
-9.324707656350e-02 -1.077236807627e+02 0.0 
0.0 0.0 -4.773196315871e+01 
-5.269422357248e+01 -1.230380449041e-01 0.0 
-1.230380449041e-01 -1.076923310373e+02 0.0 
0.0 0.0 -4.771596638292e+01 
-5.308434998369e+01 -1.891677961233e-01 0.0 
-1.891677961233e-01 -1.078273414464e+02 0.0 
0.0 0.0 -4.787350742902e+01 
-5.298553320965e+01 -5.368193190787e-02 0.0 
-5.368193190787e-02 -1.079104753075e+02 0.0 
0.0 0.0 -4.786880255513e+01 
-5.359480511857e+01 -9.736922286778e-02 0.0 
-9.736922286778e-02 -1.079935022608e+02 0.0 
0.0 0.0 -4.807649221380e+01 
-5.359108871331e+01 8.578151176966e-01 0.0 
8.578151176966e-01 -1.040575278588e+02 0.0 
0.0 0.0 -4.689458497164e+01 
-5.332714986182e+01 6.649531729943e-02 0.0 
6.649531729943e-02 -1.080613224616e+02 0.0 
0.0 0.0 -4.801654169701e+01 
-5.403434931796e+01 7.676727228475e-02 0.0 
7.676727228475e-02 -1.080467000985e+02 0.0 
0.0 0.0 -4.822431482493e+01 
-5.371604547537e+01 1.845197000935e-01 0.0 
1.845197000935e-01 -1.080592630694e+02 0.0 
0.0 0.0 -4.813259256344e+01 
-5.459644327473e+01 1.535460275114e-01 0.0 
1.535460275114e-01 -1.081741597463e+02 0.0 
0.0 0.0 -4.843118090631e+01 
-5.520899542413e+01 2.926960972210e-01 0.0 
2.926960972210e-01 -1.084437361396e+02 0.0 
0.0 0.0 -4.869581946912e+01 
-5.415999430508e+01 3.364110570512e-01 0.0 
3.364110570512e-01 -1.082557999526e+02 0.0 
0.0 0.0 -4.832473827730e+01 
-5.467673090862e+01 6.415584747733e-01 0.0 
6.415584747733e-01 -1.087376518391e+02 0.0 
0.0 0.0 -4.862431482431e+01 
-5.835372959786e+01 1.334656057523e+00 0.0 
1.334656057523e+00 -1.118520581510e+02 0.0 
0.0 0.0 -5.066173632467e+01 
-5.462978058633e+01 1.075008646556e+00 0.0 
1.075008646556e+00 -1.030246915785e+02 0.0 
0.0 0.0 -4.689634164944e+01 
-5.103835792551e+01 1.288045689906e+00 0.0 
1.288045689906e+00 -1.076473715016e+02 0.0 
0.0 0.0 -4.720571882812e+01 
-5.125954664436e+01 -1.581316298850e+00 0.0 
-1.581316298850e+00 -1.063432977400e+02 0.0 
0.0 0.0 -4.688085331531e+01 
-5.320766075035e+01 -8.384370766545e-02 0.0 
-8.384370766545e-02 -1.121596502259e+02 0.0 
0.0 0.0 -4.921019329287e+01 
-4.918518203956e+01 -2.663571576831e-01 0.0 
-2.663571576831e-01 -1.020140338653e+02 0.0 
0.0 0.0 -4.495976477147e+01 
-5.435693369394e+01 1.647728549875e+00 0.0 
1.647728549875e+00 -1.037426697160e+02 0.0 
0.0 0.0 -4.702988102297e+01 

TENSORS element_materi_strain_total float
-7.938544995012e-05 1.146321384903e-04 0.0 
1.146321384903e-04 9.141932698296e-04 0.0 
0.0 0.0 0.0 
-1.054741491576e-04 1.263119060581e-04 0.0 
1.263119060581e-04 9.251131513244e-04 0.0 
0.0 0.0 0.0 
-2.099814859524e-05 1.340664595724e-04 0.0 
1.340664595724e-04 1.676251807368e-03 0.0 
0.0 0.0 0.0 
-1.729893138425e-05 8.793968892272e-06 0.0 
8.793968892272e-06 1.738394530854e-03 0.0 
0.0 0.0 0.0 
-6.421019264358e-05 1.247709057072e-05 0.0 
1.247709057072e-05 1.328525016967e-03 0.0 
0.0 0.0 0.0 
-1.383031141089e-05 7.056870386603e-05 0.0 
7.056870386603e-05 1.762191221650e-04 0.0 
0.0 0.0 0.0 
-5.850487249603e-05 1.112744321325e-05 0.0 
1.112744321325e-05 1.328050505889e-03 0.0 
0.0 0.0 0.0 
-8.426456174404e-05 1.679015966506e-04 0.0 
1.679015966506e-04 8.550852259288e-04 0.0 
0.0 0.0 0.0 
-6.373464244491e-05 -7.078833904599e-07 0.0 
-7.078833904599e-07 1.329328008788e-03 0.0 
0.0 0.0 0.0 
-1.655001088274e-05 2.559292776134e-05 0.0 
2.559292776134e-05 1.733292034132e-03 0.0 
0.0 0.0 0.0 
7.632517029421e-05 6.987567509317e-06 0.0 
6.987567509317e-06 7.502330018785e-04 0.0 
0.0 0.0 0.0 
-8.354357980722e-05 1.276532622434e-04 0.0 
1.276532622434e-04 8.542625072621e-04 0.0 
0.0 0.0 0.0 
2.720680412471e-05 1.978994649472e-05 0.0 
1.978994649472e-05 1.157655891814e-03 0.0 
0.0 0.0 0.0 
-7.566015326255e-05 2.653608199837e-05 0.0 
2.653608199837e-05 1.381281999682e-03 0.0 
0.0 0.0 0.0 
1.567310188055e-05 1.570862296190e-05 0.0 
1.570862296190e-05 1.191608381738e-03 0.0 
0.0 0.0 0.0 
-1.080133758347e-05 2.122070308405e-05 0.0 
2.122070308405e-05 1.760802742993e-03 0.0 
0.0 0.0 0.0 
-7.258196387094e-05 1.000723211835e-05 0.0 
1.000723211835e-05 1.315263460220e-03 0.0 
0.0 0.0 0.0 
-1.071667460950e-05 2.074749863509e-05 0.0 
2.074749863509e-05 1.638145010678e-04 0.0 
0.0 0.0 0.0 
2.241983762241e-05 -8.370121785588e-06 0.0 
-8.370121785588e-06 2.113364138856e-04 0.0 
0.0 0.0 0.0 
3.242679726778e-05 -1.374910462406e-08 0.0 
-1.374910462406e-08 2.180805019381e-04 0.0 
0.0 0.0 0.0 
-1.978769981292e-05 1.700335560846e-05 0.0 
1.700335560846e-05 1.734760425842e-03 0.0 
0.0 0.0 0.0 
-9.602021208510e-05 7.182302396525e-05 0.0 
7.182302396525e-05 1.006275030804e-03 0.0 
0.0 0.0 0.0 
-1.073887001197e-04 8.998696268044e-05 0.0 
8.998696268044e-05 1.018322092479e-03 0.0 
0.0 0.0 0.0 
4.109661793006e-05 1.282665352442e-04 0.0 
1.282665352442e-04 1.194316900854e-03 0.0 
0.0 0.0 0.0 
-7.941500025599e-05 4.373377842624e-05 0.0 
4.373377842624e-05 1.430888155057e-03 0.0 
0.0 0.0 0.0 
7.430887554727e-05 2.305810282007e-06 0.0 
2.305810282007e-06 7.963035602123e-04 0.0 
0.0 0.0 0.0 
-8.871195112525e-05 2.025145121628e-05 0.0 
2.025145121628e-05 1.258472859907e-03 0.0 
0.0 0.0 0.0 
-7.160425092634e-06 2.039993969969e-04 0.0 
2.039993969969e-04 1.508539595638e-03 0.0 
0.0 0.0 0.0 
-9.012408374387e-05 3.853168644013e-05 0.0 
3.853168644013e-05 1.431355300964e-03 0.0 
0.0 0.0 0.0 
4.022099722123e-05 1.330876493521e-04 0.0 
1.330876493521e-04 1.214478206866e-03 0.0 
0.0 0.0 0.0 
-2.949116279405e-06 -8.834901321186e-06 0.0 
-8.834901321186e-06 1.785385606998e-04 0.0 
0.0 0.0 0.0 
-2.785690836515e-05 -1.342374141640e-05 0.0 
-1.342374141640e-05 7.228580290497e-05 0.0 
0.0 0.0 0.0 
-3.632600717973e-05 1.371318715485e-04 0.0 
1.371318715485e-04 1.683406361950e-03 0.0 
0.0 0.0 0.0 
5.626856352681e-05 1.216295827231e-07 0.0 
1.216295827231e-07 9.695698512264e-04 0.0 
0.0 0.0 0.0 
3.225149985653e-05 7.739460312257e-05 0.0 
7.739460312257e-05 1.183766839325e-03 0.0 
0.0 0.0 0.0 
1.600496053777e-05 6.563537591927e-05 0.0 
6.563537591927e-05 1.235673556117e-03 0.0 
0.0 0.0 0.0 
1.180819072544e-05 4.227199789847e-05 0.0 
4.227199789847e-05 1.234236775300e-03 0.0 
0.0 0.0 0.0 
2.620796549668e-05 1.826469594049e-04 0.0 
1.826469594049e-04 1.336385922415e-03 0.0 
0.0 0.0 0.0 
-5.926530984035e-05 -5.972501089787e-06 0.0 
-5.972501089787e-06 1.265835977049e-03 0.0 
0.0 0.0 0.0 
-5.678727139324e-05 9.321246045599e-06 0.0 
9.321246045599e-06 1.268325398298e-03 0.0 
0.0 0.0 0.0 
-1.107403411966e-04 6.403464488924e-05 0.0 
6.403464488924e-05 1.104757108549e-03 0.0 
0.0 0.0 0.0 
2.137541198377e-05 1.012487743334e-04 0.0 
1.012487743334e-04 1.219109072131e-03 0.0 
0.0 0.0 0.0 
-4.072099554986e-05 1.768049398095e-04 0.0 
1.768049398095e-04 6.526848014419e-04 0.0 
0.0 0.0 0.0 
-9.319273155917e-05 2.200089873709e-05 0.0 
2.200089873709e-05 1.263189283609e-03 0.0 
0.0 0.0 0.0 
-2.344944337229e-05 2.329646505266e-06 0.0 
2.329646505266e-06 1.706501067519e-03 0.0 
0.0 0.0 0.0 
-5.929596048648e-05 1.709204945818e-04 0.0 
1.709204945818e-04 6.521873130019e-04 0.0 
0.0 0.0 0.0 
-4.014055705048e-06 -1.865192228894e-05 0.0 
-1.865192228894e-05 1.220912193334e-04 0.0 
0.0 0.0 0.0 
-1.523772110412e-05 8.481666367231e-06 0.0 
8.481666367231e-06 1.711002405901e-03 0.0 
0.0 0.0 0.0 
-3.595237815723e-05 -1.587490658313e-05 0.0 
-1.587490658313e-05 7.843367874671e-05 0.0 
0.0 0.0 0.0 
-7.979469021246e-05 1.487738329031e-05 0.0 
1.487738329031e-05 1.354895884612e-03 0.0 
0.0 0.0 0.0 
-1.091858888060e-04 7.607821987702e-05 0.0 
7.607821987702e-05 1.061938918744e-03 0.0 
0.0 0.0 0.0 
3.352277444879e-05 -7.533548890064e-06 0.0 
-7.533548890064e-06 2.681987717819e-04 0.0 
0.0 0.0 0.0 
4.038947631613e-05 -1.132775378270e-05 0.0 
-1.132775378270e-05 2.437296113884e-04 0.0 
0.0 0.0 0.0 
-9.926903420188e-05 5.283910879941e-05 0.0 
5.283910879941e-05 1.076993747085e-03 0.0 
0.0 0.0 0.0 
-1.981550591101e-05 1.008232207131e-04 0.0 
1.008232207131e-04 1.717645426247e-03 0.0 
0.0 0.0 0.0 
4.920743544634e-05 -1.043069267458e-05 0.0 
-1.043069267458e-05 3.590130034219e-04 0.0 
0.0 0.0 0.0 
4.153629718839e-05 8.869487208340e-07 0.0 
8.869487208340e-07 2.770378889385e-04 0.0 
0.0 0.0 0.0 
5.799662835493e-05 1.046080716141e-05 0.0 
1.046080716141e-05 9.698541405894e-04 0.0 
0.0 0.0 0.0 
1.301921308960e-05 -9.708049229112e-06 0.0 
-9.708049229112e-06 1.595416177740e-04 0.0 
0.0 0.0 0.0 
-1.216272427484e-05 1.326707562126e-05 0.0 
1.326707562126e-05 1.760916045737e-03 0.0 
0.0 0.0 0.0 
-8.462417533561e-05 -1.702006241700e-05 0.0 
-1.702006241700e-05 8.873520063846e-05 0.0 
0.0 0.0 0.0 
1.317334983386e-05 1.927039190379e-04 0.0 
1.927039190379e-04 1.377163265407e-03 0.0 
0.0 0.0 0.0 
-5.403119016800e-05 1.770934397515e-04 0.0 
1.770934397515e-04 9.014834298955e-04 0.0 
0.0 0.0 0.0 
3.506592156555e-05 2.885985771906e-06 0.0 
2.885985771906e-06 2.079927750973e-04 0.0 
0.0 0.0 0.0 
2.649144895450e-05 2.290543442169e-05 0.0 
2.290543442169e-05 1.158987829360e-03 0.0 
0.0 0.0 0.0 
-1.001804085735e-04 6.023207709122e-05 0.0 
6.023207709122e-05 1.042818374686e-03 0.0 
0.0 0.0 0.0 
-4.969334047589e-05 -7.567684454531e-06 0.0 
-7.567684454531e-06 7.155389584335e-05 0.0 
0.0 0.0 0.0 
-3.845154752014e-05 1.439830965708e-04 0.0 
1.439830965708e-04 1.670749105236e-03 0.0 
0.0 0.0 0.0 
1.034882010709e-05 -3.297823708726e-05 0.0 
-3.297823708726e-05 1.786691537393e-04 0.0 
0.0 0.0 0.0 
-1.455025309904e-05 1.734212671466e-04 0.0 
1.734212671466e-04 1.602764780851e-03 0.0 
0.0 0.0 0.0 
7.257551695150e-05 6.221165507213e-06 0.0 
6.221165507213e-06 8.333342648168e-04 0.0 
0.0 0.0 0.0 
0.0 6.482524284759e-05 0.0 
6.482524284759e-05 1.785393325721e-03 0.0 
0.0 0.0 0.0 
-9.724343389972e-06 1.842774333123e-04 0.0 
1.842774333123e-04 1.466239590756e-03 0.0 
0.0 0.0 0.0 
5.401818979012e-06 4.345638305177e-06 0.0 
4.345638305177e-06 7.310367791447e-05 0.0 
0.0 0.0 0.0 
5.525629471914e-05 -3.863443398462e-07 0.0 
-3.863443398462e-07 3.748557768153e-04 0.0 
0.0 0.0 0.0 
-2.330833621422e-05 4.424472315302e-05 0.0 
4.424472315302e-05 1.738093843138e-03 0.0 
0.0 0.0 0.0 
-3.563850934662e-05 1.096618896273e-04 0.0 
1.096618896273e-04 1.712946925543e-03 0.0 
0.0 0.0 0.0 
-4.479423673265e-05 1.429546721733e-04 0.0 
1.429546721733e-04 4.509309356702e-04 0.0 
0.0 0.0 0.0 
2.205905727437e-05 -1.261596311113e-05 0.0 
-1.261596311113e-05 1.589929626900e-04 0.0 
0.0 0.0 0.0 
-3.773924716322e-05 1.751527135457e-04 0.0 
1.751527135457e-04 4.522922510275e-04 0.0 
0.0 0.0 0.0 
1.515659594320e-05 -1.511832994240e-05 0.0 
-1.511832994240e-05 1.758902309139e-04 0.0 
0.0 0.0 0.0 
-6.950853700327e-05 9.487244239671e-06 0.0 
9.487244239671e-06 1.314920663850e-03 0.0 
0.0 0.0 0.0 
-1.059424331085e-04 1.071534289821e-04 0.0 
1.071534289821e-04 9.743989614879e-04 0.0 
0.0 0.0 0.0 
-9.594200585916e-05 7.911885284354e-05 0.0 
7.911885284354e-05 9.604791389581e-04 0.0 
0.0 0.0 0.0 
-6.715481448261e-05 3.661623304225e-06 0.0 
3.661623304225e-06 1.362633644457e-03 0.0 
0.0 0.0 0.0 
-6.066609564259e-05 1.321901956436e-05 0.0 
1.321901956436e-05 1.362536278318e-03 0.0 
0.0 0.0 0.0 
6.836999795490e-05 2.767784771224e-06 0.0 
2.767784771224e-06 8.626169147739e-04 0.0 
0.0 0.0 0.0 
6.162313867564e-05 5.483145970377e-06 0.0 
5.483145970377e-06 9.391212228174e-04 0.0 
0.0 0.0 0.0 
-7.657326815380e-05 1.183869078575e-04 0.0 
1.183869078575e-04 1.526278053540e-03 0.0 
0.0 0.0 0.0 
-6.914677944980e-05 1.818228089752e-06 0.0 
1.818228089752e-06 1.326214516169e-03 0.0 
0.0 0.0 0.0 
-1.704312539252e-05 -1.309486281866e-05 0.0 
-1.309486281866e-05 6.874554549374e-05 0.0 
0.0 0.0 0.0 
-9.269370141085e-05 2.829750122677e-05 0.0 
2.829750122677e-05 1.318577039814e-03 0.0 
0.0 0.0 0.0 
-3.685280978227e-05 2.961597432190e-06 0.0 
2.961597432190e-06 1.569332771915e-03 0.0 
0.0 0.0 0.0 
-4.085556520117e-05 9.932543800194e-06 0.0 
9.932543800194e-06 1.558832829014e-03 0.0 
0.0 0.0 0.0 
-1.637951731948e-05 7.088194094649e-05 0.0 
7.088194094649e-05 1.783848512919e-03 0.0 
0.0 0.0 0.0 
6.394690059253e-06 1.865080904853e-04 0.0 
1.865080904853e-04 1.394746420986e-03 0.0 
0.0 0.0 0.0 
-7.532656059750e-05 8.465195439762e-06 0.0 
8.465195439762e-06 1.314428443933e-03 0.0 
0.0 0.0 0.0 
3.423806910341e-05 9.984147085439e-05 0.0 
9.984147085439e-05 1.215818314501e-03 0.0 
0.0 0.0 0.0 
-4.832706933333e-05 -2.089206076515e-06 0.0 
-2.089206076515e-06 1.419890618526e-03 0.0 
0.0 0.0 0.0 
-7.413637447973e-05 1.758398912328e-04 0.0 
1.758398912328e-04 9.342029307229e-04 0.0 
0.0 0.0 0.0 
-6.601839765008e-05 1.177209136116e-06 0.0 
1.177209136116e-06 1.297865538834e-03 0.0 
0.0 0.0 0.0 
1.738146306485e-05 2.677643240737e-05 0.0 
2.677643240737e-05 1.190914730910e-03 0.0 
0.0 0.0 0.0 
2.349272648394e-05 1.650030976624e-04 0.0 
1.650030976624e-04 1.190648118380e-03 0.0 
0.0 0.0 0.0 
4.799612499218e-06 1.834770417869e-04 0.0 
1.834770417869e-04 1.378683707783e-03 0.0 
0.0 0.0 0.0 
-6.933195123571e-07 1.908996888121e-04 0.0 
1.908996888121e-04 7.232849359300e-04 0.0 
0.0 0.0 0.0 
-3.598202886090e-05 -1.636666828227e-05 0.0 
-1.636666828227e-05 1.351439340616e-04 0.0 
0.0 0.0 0.0 
3.977033434222e-05 6.900353387150e-06 0.0 
6.900353387150e-06 1.080154826649e-03 0.0 
0.0 0.0 0.0 
-3.566203350258e-05 1.037115441158e-05 0.0 
1.037115441158e-05 1.615312010577e-03 0.0 
0.0 0.0 0.0 
-7.372452440035e-05 -1.717330077964e-05 0.0 
-1.717330077964e-05 9.142363730286e-05 0.0 
0.0 0.0 0.0 
1.746351831078e-05 4.071094551494e-05 0.0 
4.071094551494e-05 1.185991289104e-03 0.0 
0.0 0.0 0.0 
-7.035481597151e-05 1.218654791208e-04 0.0 
1.218654791208e-04 1.481874714458e-03 0.0 
0.0 0.0 0.0 
1.371329203526e-06 -7.732698277891e-06 0.0 
-7.732698277891e-06 4.636499787991e-05 0.0 
0.0 0.0 0.0 
1.831480763825e-05 1.874623000461e-04 0.0 
1.874623000461e-04 8.148677845599e-04 0.0 
0.0 0.0 0.0 
-1.060863187783e-04 3.861085115249e-05 0.0 
3.861085115249e-05 1.246349256230e-03 0.0 
0.0 0.0 0.0 
6.851940057540e-05 -6.816016775742e-06 0.0 
-6.816016775742e-06 4.597345355952e-04 0.0 
0.0 0.0 0.0 
-5.917925327581e-05 1.708291832172e-04 0.0 
1.708291832172e-04 8.552812223757e-04 0.0 
0.0 0.0 0.0 
-5.023943246529e-05 1.848629143329e-04 0.0 
1.848629143329e-04 9.008959369459e-04 0.0 
0.0 0.0 0.0 
2.210679517711e-05 7.887758195118e-05 0.0 
7.887758195118e-05 1.205641566172e-03 0.0 
0.0 0.0 0.0 
-4.961314562535e-05 6.447949312172e-06 0.0 
6.447949312172e-06 1.399527078413e-03 0.0 
0.0 0.0 0.0 
-3.048603119860e-05 1.941696223011e-04 0.0 
1.941696223011e-04 8.147714516398e-04 0.0 
0.0 0.0 0.0 
7.617648711600e-06 -3.128715143249e-05 0.0 
-3.128715143249e-05 1.696757737790e-04 0.0 
0.0 0.0 0.0 
-9.186615836732e-05 3.382241441094e-05 0.0 
3.382241441094e-05 1.308960495234e-03 0.0 
0.0 0.0 0.0 
-2.861939528853e-05 4.799173082169e-06 0.0 
4.799173082169e-06 1.619703030012e-03 0.0 
0.0 0.0 0.0 
-2.699475150969e-05 1.905916252605e-04 0.0 
1.905916252605e-04 8.149413220619e-04 0.0 
0.0 0.0 0.0 
-4.489858422951e-05 9.841690468599e-05 0.0 
9.841690468599e-05 2.667476609652e-04 0.0 
0.0 0.0 0.0 
-1.095486323768e-04 4.751334721940e-05 0.0 
4.751334721940e-05 1.175732432060e-03 0.0 
0.0 0.0 0.0 
6.148155233832e-05 -2.484348548543e-06 0.0 
-2.484348548543e-06 4.571865424881e-04 0.0 
0.0 0.0 0.0 
-9.922787956973e-05 4.163662833260e-05 0.0 
4.163662833260e-05 1.145472568427e-03 0.0 
0.0 0.0 0.0 
-1.331063418042e-05 5.794320435385e-05 0.0 
5.794320435385e-05 1.756493772727e-03 0.0 
0.0 0.0 0.0 
-8.192137343932e-06 1.223318103030e-04 0.0 
1.223318103030e-04 2.526712520794e-04 0.0 
0.0 0.0 0.0 
7.559280505154e-05 1.102547002077e-05 0.0 
1.102547002077e-05 7.919749822836e-04 0.0 
0.0 0.0 0.0 
-1.597948429488e-05 1.677044332883e-05 0.0 
1.677044332883e-05 1.738631571362e-03 0.0 
0.0 0.0 0.0 
-9.398665503046e-05 1.235198982089e-04 0.0 
1.235198982089e-04 1.103848790123e-03 0.0 
0.0 0.0 0.0 
-1.104975435228e-04 5.362132093536e-05 0.0 
5.362132093536e-05 1.140905355481e-03 0.0 
0.0 0.0 0.0 
3.814127607571e-05 9.154263068002e-05 0.0 
9.154263068002e-05 1.184050568995e-03 0.0 
0.0 0.0 0.0 
2.547164480782e-05 5.994636643314e-06 0.0 
5.994636643314e-06 1.160304327480e-03 0.0 
0.0 0.0 0.0 
7.014101560698e-05 1.291504218331e-05 0.0 
1.291504218331e-05 8.628913790247e-04 0.0 
0.0 0.0 0.0 
-1.034512470403e-04 1.223011167967e-04 0.0 
1.223011167967e-04 1.154531465938e-03 0.0 
0.0 0.0 0.0 
3.527149305160e-05 1.333330553844e-04 0.0 
1.333330553844e-04 1.253951030037e-03 0.0 
0.0 0.0 0.0 
-1.012751007061e-04 9.877576821188e-05 0.0 
9.877576821188e-05 1.111810695574e-03 0.0 
0.0 0.0 0.0 
-1.100986367530e-05 3.616211329890e-05 0.0 
3.616211329890e-05 1.750220123683e-03 0.0 
0.0 0.0 0.0 
-2.521742239014e-05 1.807913589408e-04 0.0 
1.807913589408e-04 1.613239535917e-03 0.0 
0.0 0.0 0.0 
-8.377646590685e-05 1.939974168620e-05 0.0 
1.939974168620e-05 1.379942991302e-03 0.0 
0.0 0.0 0.0 
-4.601197909904e-05 1.429689516774e-05 0.0 
1.429689516774e-05 1.496331635217e-03 0.0 
0.0 0.0 0.0 
-1.085523938305e-04 1.149693877012e-04 0.0 
1.149693877012e-04 1.111133362062e-03 0.0 
0.0 0.0 0.0 
-9.972099566669e-05 4.581549390274e-05 0.0 
4.581549390274e-05 1.110014154336e-03 0.0 
0.0 0.0 0.0 
-8.873650019747e-05 1.309482307230e-04 0.0 
1.309482307230e-04 1.147549793812e-03 0.0 
0.0 0.0 0.0 
3.629269489602e-06 1.923849911902e-04 0.0 
1.923849911902e-04 7.838606161268e-04 0.0 
0.0 0.0 0.0 
-6.098847077862e-05 -8.580472812472e-07 0.0 
-8.580472812472e-07 1.305493269947e-03 0.0 
0.0 0.0 0.0 
2.439301087231e-05 1.760760776042e-04 0.0 
1.760760776042e-04 8.162408266084e-04 0.0 
0.0 0.0 0.0 
-1.096120492983e-05 -1.741208484480e-05 0.0 
-1.741208484480e-05 6.455737222799e-05 0.0 
0.0 0.0 0.0 
-5.345296215686e-05 1.139469770942e-06 0.0 
1.139469770942e-06 1.351254573215e-03 0.0 
0.0 0.0 0.0 
2.199298855987e-05 -3.726445808390e-06 0.0 
-3.726445808390e-06 1.609711324599e-04 0.0 
0.0 0.0 0.0 
-1.079467905362e-04 4.249817920718e-05 0.0 
4.249817920718e-05 1.210915321842e-03 0.0 
0.0 0.0 0.0 
2.068461964555e-05 1.216714383408e-04 0.0 
1.216714383408e-04 1.245514137232e-03 0.0 
0.0 0.0 0.0 
-3.713472889189e-06 2.015047468949e-04 0.0 
2.015047468949e-04 7.225054298150e-04 0.0 
0.0 0.0 0.0 
6.628863443869e-05 1.015580130517e-05 0.0 
1.015580130517e-05 8.988318459415e-04 0.0 
0.0 0.0 0.0 
-7.451167770145e-05 1.716445324573e-04 0.0 
1.716445324573e-04 7.569464831125e-04 0.0 
0.0 0.0 0.0 
2.618872143434e-05 1.768085645032e-04 0.0 
1.768085645032e-04 1.189575276862e-03 0.0 
0.0 0.0 0.0 
-5.533133815505e-05 1.875050171461e-06 0.0 
1.875050171461e-06 1.309525790755e-03 0.0 
0.0 0.0 0.0 
4.117470547294e-05 1.832847959800e-04 0.0 
1.832847959800e-04 7.309047785362e-04 0.0 
0.0 0.0 0.0 
5.186176317173e-05 5.275539271480e-06 0.0 
5.275539271480e-06 1.005564364905e-03 0.0 
0.0 0.0 0.0 
1.284288744197e-05 -1.672077369857e-05 0.0 
-1.672077369857e-05 1.668768501830e-04 0.0 
0.0 0.0 0.0 
4.177134706018e-05 1.874255330413e-05 0.0 
1.874255330413e-05 1.078897824871e-03 0.0 
0.0 0.0 0.0 
-1.017395311541e-04 6.495106027488e-05 0.0 
6.495106027488e-05 1.277905435022e-03 0.0 
0.0 0.0 0.0 
2.875704836525e-05 3.998228641787e-05 0.0 
3.998228641787e-05 1.182370666219e-03 0.0 
0.0 0.0 0.0 
-5.336825827862e-05 1.241598223684e-06 0.0 
1.241598223684e-06 1.305044344500e-03 0.0 
0.0 0.0 0.0 
1.862590514001e-05 1.908689866820e-04 0.0 
1.908689866820e-04 6.880147216539e-04 0.0 
0.0 0.0 0.0 
-9.746700242752e-05 3.581823259444e-05 0.0 
3.581823259444e-05 1.213106561595e-03 0.0 
0.0 0.0 0.0 
7.457462547866e-05 -5.152843063838e-07 0.0 
-5.152843063838e-07 7.552284404921e-04 0.0 
0.0 0.0 0.0 
-5.655394958248e-05 1.714628514115e-04 0.0 
1.714628514115e-04 7.565449939213e-04 0.0 
0.0 0.0 0.0 
4.432631562024e-05 1.652789401203e-04 0.0 
1.652789401203e-04 7.333310970168e-04 0.0 
0.0 0.0 0.0 
-4.539945056636e-05 4.183608026186e-06 0.0 
4.183608026186e-06 1.528376869143e-03 0.0 
0.0 0.0 0.0 
-5.695007224338e-05 5.293571867236e-06 0.0 
5.293571867236e-06 1.305950452194e-03 0.0 
0.0 0.0 0.0 
1.812903853482e-05 1.892139433881e-04 0.0 
1.892139433881e-04 7.501907285636e-04 0.0 
0.0 0.0 0.0 
-9.973671321628e-05 3.772657681907e-05 0.0 
3.772657681907e-05 1.179201522137e-03 0.0 
0.0 0.0 0.0 
-4.339327738545e-05 1.593705761512e-04 0.0 
1.593705761512e-04 1.492513140999e-03 0.0 
0.0 0.0 0.0 
6.859343515742e-05 -3.816627946139e-06 0.0 
-3.816627946139e-06 5.132147125200e-04 0.0 
0.0 0.0 0.0 
-2.283501132627e-07 1.952237255316e-04 0.0 
1.952237255316e-04 1.494258313466e-03 0.0 
0.0 0.0 0.0 
-2.593734114675e-05 1.862105165358e-04 0.0 
1.862105165358e-04 1.592264274073e-03 0.0 
0.0 0.0 0.0 
-7.960998151346e-05 1.741700537646e-04 0.0 
1.741700537646e-04 8.993241708122e-04 0.0 
0.0 0.0 0.0 
7.417341683946e-05 -6.095873425213e-07 0.0 
-6.095873425213e-07 5.150408958750e-04 0.0 
0.0 0.0 0.0 
4.917974739893e-05 1.349382741886e-04 0.0 
1.349382741886e-04 1.162020765270e-03 0.0 
0.0 0.0 0.0 
-1.131552573793e-04 8.974563047255e-05 0.0 
8.974563047255e-05 1.112349187872e-03 0.0 
0.0 0.0 0.0 
-6.658532588510e-05 1.580450115345e-04 0.0 
1.580450115345e-04 8.183793617735e-04 0.0 
0.0 0.0 0.0 
-9.982721640889e-05 4.904649721411e-05 0.0 
4.904649721411e-05 1.263724504180e-03 0.0 
0.0 0.0 0.0 
4.552804746094e-06 1.888206064817e-04 0.0 
1.888206064817e-04 8.417722242020e-04 0.0 
0.0 0.0 0.0 
-1.121830033923e-05 2.865416966112e-05 0.0 
2.865416966112e-05 1.749925399673e-03 0.0 
0.0 0.0 0.0 
-7.154135082355e-05 1.050235370503e-04 0.0 
1.050235370503e-04 1.517218568198e-03 0.0 
0.0 0.0 0.0 
4.698945942305e-05 1.236732755433e-05 0.0 
1.236732755433e-05 1.042625315246e-03 0.0 
0.0 0.0 0.0 
-5.194246952167e-05 1.599720388330e-04 0.0 
1.599720388330e-04 5.502125217403e-04 0.0 
0.0 0.0 0.0 
6.119506695024e-05 1.490104706150e-04 0.0 
1.490104706150e-04 6.532038201865e-04 0.0 
0.0 0.0 0.0 
-6.518415400292e-05 1.190917132967e-04 0.0 
1.190917132967e-04 1.525910269164e-03 0.0 
0.0 0.0 0.0 
-1.138772069075e-04 3.191734959170e-05 0.0 
3.191734959170e-05 7.761481505231e-05 0.0 
0.0 0.0 0.0 
-1.029362176098e-04 7.282651828725e-05 0.0 
7.282651828725e-05 1.112671031724e-03 0.0 
0.0 0.0 0.0 
6.734066964409e-05 1.067248598905e-04 0.0 
1.067248598905e-04 1.048666825023e-03 0.0 
0.0 0.0 0.0 
1.848422216622e-06 -1.358798193222e-05 0.0 
-1.358798193222e-05 1.126892053456e-04 0.0 
0.0 0.0 0.0 
-2.956446466873e-05 1.215733666350e-04 0.0 
1.215733666350e-04 1.689739613509e-03 0.0 
0.0 0.0 0.0 
-8.042057596302e-05 6.603515382777e-05 0.0 
6.603515382777e-05 1.475256935900e-03 0.0 
0.0 0.0 0.0 
9.403977115863e-05 1.198168376130e-05 0.0 
1.198168376130e-05 4.899220488690e-04 0.0 
0.0 0.0 0.0 
7.570976984272e-05 1.225569482999e-04 0.0 
1.225569482999e-04 1.047580658379e-03 0.0 
0.0 0.0 0.0 
-9.347016953509e-05 3.776068661854e-05 0.0 
3.776068661854e-05 1.359009215872e-03 0.0 
0.0 0.0 0.0 
-8.647383715454e-05 3.158568729855e-05 0.0 
3.158568729855e-05 1.411651096264e-03 0.0 
0.0 0.0 0.0 
3.241062854165e-05 1.223526210310e-04 0.0 
1.223526210310e-04 1.211806560024e-03 0.0 
0.0 0.0 0.0 
6.643577877874e-05 -7.586642218092e-06 0.0 
-7.586642218092e-06 3.583158959095e-04 0.0 
0.0 0.0 0.0 
-7.465121503669e-05 1.492771111348e-04 0.0 
1.492771111348e-04 1.134020054631e-03 0.0 
0.0 0.0 0.0 
-1.009977371687e-04 8.191118261466e-05 0.0 
8.191118261466e-05 1.288458969730e-03 0.0 
0.0 0.0 0.0 
-8.501948827788e-05 6.176276687049e-05 0.0 
6.176276687049e-05 1.510938100386e-03 0.0 
0.0 0.0 0.0 
-1.096052659357e-04 6.395130772373e-05 0.0 
6.395130772373e-05 1.315368520921e-03 0.0 
0.0 0.0 0.0 
-1.105026749700e-04 5.349658813655e-05 0.0 
5.349658813655e-05 1.263749859086e-03 0.0 
0.0 0.0 0.0 
4.240575952474e-05 1.553108422265e-04 0.0 
1.553108422265e-04 1.057597205900e-03 0.0 
0.0 0.0 0.0 
-6.118719046733e-05 1.450995012509e-04 0.0 
1.450995012509e-04 1.490063896994e-03 0.0 
0.0 0.0 0.0 
-7.828481382055e-05 3.077805948357e-05 0.0 
3.077805948357e-05 1.144485112843e-04 0.0 
0.0 0.0 0.0 
-7.946422964511e-05 1.467538928737e-04 0.0 
1.467538928737e-04 8.959674459899e-04 0.0 
0.0 0.0 0.0 
-7.721698752172e-05 1.533757339620e-04 0.0 
1.533757339620e-04 9.378839957557e-04 0.0 
0.0 0.0 0.0 
-8.987905301261e-05 1.420560835933e-04 0.0 
1.420560835933e-04 1.146044326344e-03 0.0 
0.0 0.0 0.0 
-7.658397914256e-05 1.002639899064e-04 0.0 
1.002639899064e-04 1.557785040459e-03 0.0 
0.0 0.0 0.0 
4.186835543707e-05 7.463512072943e-05 0.0 
7.463512072943e-05 2.316170148888e-04 0.0 
0.0 0.0 0.0 
7.557787403845e-05 9.330218412485e-05 0.0 
9.330218412485e-05 9.932316170949e-04 0.0 
0.0 0.0 0.0 
-5.785351997356e-05 -3.306000681129e-06 0.0 
-3.306000681129e-06 1.301508808831e-03 0.0 
0.0 0.0 0.0 
6.114204083651e-05 1.714895785567e-04 0.0 
1.714895785567e-04 6.500387115282e-04 0.0 
0.0 0.0 0.0 
8.203319859001e-05 8.013001836774e-05 0.0 
8.013001836774e-05 9.407331622104e-04 0.0 
0.0 0.0 0.0 
-1.029377883732e-05 -1.841062928326e-05 0.0 
-1.841062928326e-05 7.711772922248e-05 0.0 
0.0 0.0 0.0 
-7.241204020003e-05 7.697246716772e-05 0.0 
7.697246716772e-05 1.528444970453e-03 0.0 
0.0 0.0 0.0 
-1.843007909563e-05 -6.938045659698e-06 0.0 
-6.938045659698e-06 6.103347639641e-05 0.0 
0.0 0.0 0.0 
1.176631269728e-05 -1.192252344722e-05 0.0 
-1.192252344722e-05 1.119140233214e-04 0.0 
0.0 0.0 0.0 
-3.141817059371e-05 1.802163396436e-04 0.0 
1.802163396436e-04 5.512235949547e-04 0.0 
0.0 0.0 0.0 
5.368264458983e-05 -1.281181380493e-05 0.0 
-1.281181380493e-05 3.003797340901e-04 0.0 
0.0 0.0 0.0 
-7.596332594684e-05 7.163890544589e-05 0.0 
7.163890544589e-05 1.564116847300e-03 0.0 
0.0 0.0 0.0 
4.168560174600e-05 -2.750912308977e-05 0.0 
-2.750912308977e-05 2.824656034679e-04 0.0 
0.0 0.0 0.0 
2.863857473145e-05 1.724832743842e-04 0.0 
1.724832743842e-04 4.694532863767e-04 0.0 
0.0 0.0 0.0 
2.991091469551e-05 -2.564002250136e-05 0.0 
-2.564002250136e-05 2.246990953976e-04 0.0 
0.0 0.0 0.0 
1.989266704872e-05 -1.574223456496e-05 0.0 
-1.574223456496e-05 1.893159175543e-04 0.0 
0.0 0.0 0.0 
6.590610449075e-05 1.335629681137e-04 0.0 
1.335629681137e-04 1.101693369407e-03 0.0 
0.0 0.0 0.0 
-1.119966848405e-04 6.993474398869e-05 0.0 
6.993474398869e-05 1.277715771871e-03 0.0 
0.0 0.0 0.0 
2.919013619995e-05 3.535391246571e-05 0.0 
3.535391246571e-05 1.159671870790e-03 0.0 
0.0 0.0 0.0 
-7.773457201221e-05 1.733990989480e-05 0.0 
1.733990989480e-05 5.010499677449e-05 0.0 
0.0 0.0 0.0 
3.999163872170e-05 1.794824368256e-04 0.0 
1.794824368256e-04 5.308450271353e-04 0.0 
0.0 0.0 0.0 
5.862024431047e-05 1.711542930380e-04 0.0 
1.711542930380e-04 7.207115373566e-04 0.0 
0.0 0.0 0.0 
-1.005036371906e-04 8.449612575284e-05 0.0 
8.449612575284e-05 1.068432442007e-03 0.0 
0.0 0.0 0.0 
8.358676225839e-05 1.084431115060e-04 0.0 
1.084431115060e-04 9.921834943787e-04 0.0 
0.0 0.0 0.0 
2.716189422491e-05 5.043109302526e-05 0.0 
5.043109302526e-05 1.190482404363e-03 0.0 
0.0 0.0 0.0 
-8.753583562215e-05 9.015640494856e-05 0.0 
9.015640494856e-05 1.506621406044e-03 0.0 
0.0 0.0 0.0 
6.864870224921e-05 1.196313439596e-04 0.0 
1.196313439596e-04 5.063800600591e-04 0.0 
0.0 0.0 0.0 
5.833930892218e-05 1.210651318467e-04 0.0 
1.210651318467e-04 1.101779447941e-03 0.0 
0.0 0.0 0.0 
7.206793366343e-05 1.044765778080e-05 0.0 
1.044765778080e-05 8.258765633427e-04 0.0 
0.0 0.0 0.0 
-9.731982538053e-05 1.281981980942e-04 0.0 
1.281981980942e-04 1.198845364865e-03 0.0 
0.0 0.0 0.0 
-7.897623262665e-05 7.835943442146e-05 0.0 
7.835943442146e-05 1.491573675471e-03 0.0 
0.0 0.0 0.0 
-3.204980461247e-06 1.874761396482e-04 0.0 
1.874761396482e-04 1.430328885151e-03 0.0 
0.0 0.0 0.0 
5.999893015463e-05 1.516605717961e-04 0.0 
1.516605717961e-04 7.235690669130e-04 0.0 
0.0 0.0 0.0 
1.097326246047e-05 1.699076331153e-04 0.0 
1.699076331153e-04 5.654451644197e-04 0.0 
0.0 0.0 0.0 
-1.059604994217e-04 7.443094563544e-05 0.0 
7.443094563544e-05 1.366324580049e-03 0.0 
0.0 0.0 0.0 
-1.244698786551e-05 6.558984022978e-05 0.0 
6.558984022978e-05 1.788702400832e-03 0.0 
0.0 0.0 0.0 
-7.248538355831e-05 1.567157545434e-04 0.0 
1.567157545434e-04 1.133074033370e-03 0.0 
0.0 0.0 0.0 
6.632569916198e-05 1.423212593416e-04 0.0 
1.423212593416e-04 8.551238735972e-04 0.0 
0.0 0.0 0.0 
-5.545528059747e-05 2.289126573704e-06 0.0 
2.289126573704e-06 1.363930262825e-03 0.0 
0.0 0.0 0.0 
-3.341217083341e-06 -3.007133216707e-05 0.0 
-3.007133216707e-05 1.657018710006e-04 0.0 
0.0 0.0 0.0 
-9.933438024035e-05 6.069220896444e-05 0.0 
6.069220896444e-05 1.315818952286e-03 0.0 
0.0 0.0 0.0 
7.571990717081e-05 1.484017554529e-04 0.0 
1.484017554529e-04 5.020000444420e-04 0.0 
0.0 0.0 0.0 
6.470433526973e-05 8.627829738355e-05 0.0 
8.627829738355e-05 2.996812249256e-04 0.0 
0.0 0.0 0.0 
2.028046453884e-05 -2.213332183366e-05 0.0 
-2.213332183366e-05 1.797702183548e-04 0.0 
0.0 0.0 0.0 
-6.515719527800e-05 7.517832054568e-05 0.0 
7.517832054568e-05 1.563616185016e-03 0.0 
0.0 0.0 0.0 
-1.085147128735e-04 8.043762668473e-05 0.0 
8.043762668473e-05 1.327612534423e-03 0.0 
0.0 0.0 0.0 
-6.215062831827e-06 1.942823861301e-04 0.0 
1.942823861301e-04 7.836191676973e-04 0.0 
0.0 0.0 0.0 
-6.755195332764e-05 6.895698090257e-05 0.0 
6.895698090257e-05 1.598496054698e-03 0.0 
0.0 0.0 0.0 
-8.270615142547e-05 1.039041721695e-04 0.0 
1.039041721695e-04 1.517562000628e-03 0.0 
0.0 0.0 0.0 
-1.019270507483e-04 1.161164118718e-04 0.0 
1.161164118718e-04 1.247296595057e-03 0.0 
0.0 0.0 0.0 
1.954261354409e-05 6.251359882316e-05 0.0 
6.251359882316e-05 1.196636341976e-03 0.0 
0.0 0.0 0.0 
7.523649766195e-05 1.484261350343e-04 0.0 
1.484261350343e-04 8.533885679816e-04 0.0 
0.0 0.0 0.0 
-1.042245689886e-04 1.056949245107e-04 0.0 
1.056949245107e-04 1.293043247674e-03 0.0 
0.0 0.0 0.0 
4.300756529352e-06 1.827452579274e-04 0.0 
1.827452579274e-04 9.006010348225e-04 0.0 
0.0 0.0 0.0 
6.161380881720e-05 1.440329126529e-04 0.0 
1.440329126529e-04 9.233746842312e-04 0.0 
0.0 0.0 0.0 
8.206509443798e-05 9.705938110087e-05 0.0 
9.705938110087e-05 3.646693910226e-04 0.0 
0.0 0.0 0.0 
-8.846516949734e-05 2.214298987212e-05 0.0 
2.214298987212e-05 1.315662054162e-03 0.0 
0.0 0.0 0.0 
7.274044847128e-05 1.376704849298e-04 0.0 
1.376704849298e-04 7.175256246095e-04 0.0 
0.0 0.0 0.0 
8.474921320256e-05 3.018424534129e-05 0.0 
3.018424534129e-05 4.079590842505e-04 0.0 
0.0 0.0 0.0 
-7.611059282087e-05 9.157595980196e-05 0.0 
9.157595980196e-05 1.506249921412e-03 0.0 
0.0 0.0 0.0 
-1.419702784048e-04 5.316729910863e-06 0.0 
5.316729910863e-06 8.127394252688e-05 0.0 
0.0 0.0 0.0 
-1.064755227207e-04 5.923773480402e-05 0.0 
5.923773480402e-05 1.351871267201e-03 0.0 
0.0 0.0 0.0 
8.776909721009e-05 1.315385164883e-04 0.0 
1.315385164883e-04 4.998668198335e-04 0.0 
0.0 0.0 0.0 
3.526446502877e-05 1.548240782022e-04 0.0 
1.548240782022e-04 5.342938974235e-04 0.0 
0.0 0.0 0.0 
6.706606753348e-05 6.436878452447e-05 0.0 
6.436878452447e-05 3.703248578009e-04 0.0 
0.0 0.0 0.0 
-9.370690266408e-05 8.737587511348e-05 0.0 
8.737587511348e-05 1.377594698065e-03 0.0 
0.0 0.0 0.0 
-1.389014959985e-05 -2.626905785881e-05 0.0 
-2.626905785881e-05 1.168368121882e-04 0.0 
0.0 0.0 0.0 
-8.991330049801e-05 1.319174746967e-04 0.0 
1.319174746967e-04 1.007099391949e-03 0.0 
0.0 0.0 0.0 
7.009221471455e-05 1.503537128092e-04 0.0 
1.503537128092e-04 9.231345311449e-04 0.0 
0.0 0.0 0.0 
-9.898247747953e-05 7.621787226564e-05 0.0 
7.621787226564e-05 1.328271753050e-03 0.0 
0.0 0.0 0.0 
-8.885058094465e-05 3.045831622712e-05 0.0 
3.045831622712e-05 1.365063213639e-03 0.0 
0.0 0.0 0.0 
1.876776739684e-05 5.390395534120e-05 0.0 
5.390395534120e-05 1.842313725244e-04 0.0 
0.0 0.0 0.0 
9.896996624104e-05 5.675260934477e-05 0.0 
5.675260934477e-05 4.037808007515e-04 0.0 
0.0 0.0 0.0 
7.530773614084e-05 1.101601743853e-05 0.0 
1.101601743853e-05 3.616586208142e-04 0.0 
0.0 0.0 0.0 
-9.709362649868e-05 1.504754861723e-04 0.0 
1.504754861723e-04 9.675802536400e-04 0.0 
0.0 0.0 0.0 
-9.065540081188e-05 7.626318296312e-05 0.0 
7.626318296312e-05 1.492069058395e-03 0.0 
0.0 0.0 0.0 
-9.132502337050e-05 1.550339344065e-04 0.0 
1.550339344065e-04 1.003647554029e-03 0.0 
0.0 0.0 0.0 
8.694266893405e-05 1.412574268058e-04 0.0 
1.412574268058e-04 6.419462982712e-04 0.0 
0.0 0.0 0.0 
7.562224648128e-05 1.563641374357e-04 0.0 
1.563641374357e-04 6.436325737460e-04 0.0 
0.0 0.0 0.0 
1.896510172172e-05 3.843104812754e-05 0.0 
3.843104812754e-05 2.447667150232e-04 0.0 
0.0 0.0 0.0 
1.673821139314e-05 1.841757718865e-04 0.0 
1.841757718865e-04 8.795803018073e-04 0.0 
0.0 0.0 0.0 
-7.160260642736e-06 1.331555600695e-04 0.0 
1.331555600695e-04 4.132020840184e-04 0.0 
0.0 0.0 0.0 
-1.902596720094e-05 1.144819036166e-04 0.0 
1.144819036166e-04 1.756951871251e-03 0.0 
0.0 0.0 0.0 
-2.171310674015e-05 1.364731473781e-04 0.0 
1.364731473781e-04 1.733766556053e-03 0.0 
0.0 0.0 0.0 
-5.760196280769e-05 1.629174493687e-04 0.0 
1.629174493687e-04 1.118818447915e-03 0.0 
0.0 0.0 0.0 
8.255540688307e-05 1.237250245178e-04 0.0 
1.237250245178e-04 4.298353203656e-04 0.0 
0.0 0.0 0.0 
4.233440575963e-05 1.273625718028e-04 0.0 
1.273625718028e-04 4.496553756348e-04 0.0 
0.0 0.0 0.0 
-9.020359273804e-05 1.168093113802e-04 0.0 
1.168093113802e-04 1.295008374315e-03 0.0 
0.0 0.0 0.0 
5.884661058575e-05 1.096325643807e-04 0.0 
1.096325643807e-04 4.383774331862e-04 0.0 
0.0 0.0 0.0 
9.032298893774e-05 3.658328372413e-05 0.0 
3.658328372413e-05 3.575992502447e-04 0.0 
0.0 0.0 0.0 
-9.389056194198e-05 1.183966426567e-04 0.0 
1.183966426567e-04 1.200561112465e-03 0.0 
0.0 0.0 0.0 
-2.284159846633e-05 3.918203348005e-05 0.0 
3.918203348005e-05 1.750846085556e-03 0.0 
0.0 0.0 0.0 
7.728286994046e-05 1.535561818898e-04 0.0 
1.535561818898e-04 5.724945694405e-04 0.0 
0.0 0.0 0.0 
4.144771658243e-05 1.677105713349e-04 0.0 
1.677105713349e-04 1.056110225215e-03 0.0 
0.0 0.0 0.0 
3.290128198952e-05 1.512069114262e-04 0.0 
1.512069114262e-04 3.834295324829e-04 0.0 
0.0 0.0 0.0 
1.939575764087e-05 1.593549332430e-04 0.0 
1.593549332430e-04 1.341748133577e-03 0.0 
0.0 0.0 0.0 
6.946118063134e-05 1.414598149926e-04 0.0 
1.414598149926e-04 4.331678918379e-04 0.0 
0.0 0.0 0.0 
-8.254629037219e-05 1.369798013398e-04 0.0 
1.369798013398e-04 1.192396179732e-03 0.0 
0.0 0.0 0.0 
5.215827408556e-05 6.124024934898e-05 0.0 
6.124024934898e-05 2.436027671699e-04 0.0 
0.0 0.0 0.0 
9.429361530722e-05 1.119835566088e-04 0.0 
1.119835566088e-04 8.849245567144e-04 0.0 
0.0 0.0 0.0 
7.240041722523e-05 1.571416300137e-04 0.0 
1.571416300137e-04 7.144251207427e-04 0.0 
0.0 0.0 0.0 
9.265184856377e-05 2.946150044567e-05 0.0 
2.946150044567e-05 3.784549645933e-04 0.0 
0.0 0.0 0.0 
-1.098718056209e-04 8.799355534360e-05 0.0 
8.799355534360e-05 1.287715447183e-03 0.0 
0.0 0.0 0.0 
-1.696141538787e-05 1.730056844622e-04 0.0 
1.730056844622e-04 1.689809636474e-03 0.0 
0.0 0.0 0.0 
8.860576054248e-05 1.372215169398e-04 0.0 
1.372215169398e-04 5.708732181089e-04 0.0 
0.0 0.0 0.0 
6.977118991847e-05 1.352156055446e-04 0.0 
1.352156055446e-04 9.252670690052e-04 0.0 
0.0 0.0 0.0 
2.233874295610e-05 1.168023717420e-04 0.0 
1.168023717420e-04 3.881781478201e-04 0.0 
0.0 0.0 0.0 
-6.676667756622e-05 3.572770896558e-05 0.0 
3.572770896558e-05 1.474701832278e-03 0.0 
0.0 0.0 0.0 
9.003737785207e-05 9.442033272849e-05 0.0 
9.442033272849e-05 9.388963657966e-04 0.0 
0.0 0.0 0.0 
-6.000354761726e-06 1.877274227381e-04 0.0 
1.877274227381e-04 6.639841425151e-04 0.0 
0.0 0.0 0.0 
-7.383476870093e-05 2.215332974355e-05 0.0 
2.215332974355e-05 1.449716627516e-03 0.0 
0.0 0.0 0.0 
-1.144693914157e-05 2.029100869831e-04 0.0 
2.029100869831e-04 1.624791288180e-03 0.0 
0.0 0.0 0.0 
7.827650852610e-05 1.020035087622e-04 0.0 
1.020035087622e-04 1.013007518060e-03 0.0 
0.0 0.0 0.0 
-1.971749881369e-05 1.613193716954e-04 0.0 
1.613193716954e-04 1.706476324097e-03 0.0 
0.0 0.0 0.0 
-8.081696604290e-05 2.960160338547e-05 0.0 
2.960160338547e-05 1.442237215062e-03 0.0 
0.0 0.0 0.0 
-7.967039746204e-05 1.222190770999e-04 0.0 
1.222190770999e-04 1.481898321539e-03 0.0 
0.0 0.0 0.0 
-2.209570436851e-05 1.758074093252e-04 0.0 
1.758074093252e-04 6.060170456763e-04 0.0 
0.0 0.0 0.0 
-1.132792555089e-04 7.791193521391e-05 0.0 
7.791193521391e-05 1.238955881841e-03 0.0 
0.0 0.0 0.0 
-9.707528085878e-05 9.964075592298e-05 0.0 
9.964075592298e-05 1.293870457019e-03 0.0 
0.0 0.0 0.0 
-1.044752476179e-04 9.695411533247e-05 0.0 
9.695411533247e-05 1.336179525636e-03 0.0 
0.0 0.0 0.0 
-5.793386641229e-05 1.690633860206e-04 0.0 
1.690633860206e-04 1.069786866794e-03 0.0 
0.0 0.0 0.0 
-6.467164884283e-06 2.137399066388e-04 0.0 
2.137399066388e-04 1.575487430050e-03 0.0 
0.0 0.0 0.0 
-8.537794377073e-05 4.478037565011e-05 0.0 
4.478037565011e-05 1.403239459322e-03 0.0 
0.0 0.0 0.0 
-1.079047473809e-04 4.892318434751e-05 0.0 
4.892318434751e-05 1.299729272177e-03 0.0 
0.0 0.0 0.0 
7.404151879942e-05 1.335722366785e-04 0.0 
1.335722366785e-04 6.470943002974e-04 0.0 
0.0 0.0 0.0 
3.787645266873e-05 -1.500751163000e-05 0.0 
-1.500751163000e-05 2.449288999598e-04 0.0 
0.0 0.0 0.0 
-1.128250222748e-04 5.899550101504e-05 0.0 
5.899550101504e-05 1.226546738969e-03 0.0 
0.0 0.0 0.0 
2.065202086632e-05 1.925469270056e-04 0.0 
1.925469270056e-04 6.237039517174e-04 0.0 
0.0 0.0 0.0 
-5.554870637015e-05 4.478772160732e-07 0.0 
4.478772160732e-07 1.307931181908e-03 0.0 
0.0 0.0 0.0 
7.859287459722e-05 6.080434717827e-06 0.0 
6.080434717827e-06 3.820029080399e-04 0.0 
0.0 0.0 0.0 
7.307058579431e-05 1.275632782472e-04 0.0 
1.275632782472e-04 5.762249882890e-04 0.0 
0.0 0.0 0.0 
-6.942543302035e-05 8.960569974418e-05 0.0 
8.960569974418e-05 1.544041355908e-03 0.0 
0.0 0.0 0.0 
2.084283871429e-05 1.771160096893e-04 0.0 
1.771160096893e-04 6.257125641260e-04 0.0 
0.0 0.0 0.0 
-1.015694267417e-04 8.936800888345e-05 0.0 
8.936800888345e-05 1.246997519683e-03 0.0 
0.0 0.0 0.0 
7.733972326429e-05 1.413978804973e-04 0.0 
1.413978804973e-04 9.270594816504e-04 0.0 
0.0 0.0 0.0 
1.068620062894e-04 5.149956415351e-05 0.0 
5.149956415351e-05 7.020073529158e-04 0.0 
0.0 0.0 0.0 
4.799780099374e-06 2.158870184941e-04 0.0 
2.158870184941e-04 1.497501101779e-03 0.0 
0.0 0.0 0.0 
-1.136567999419e-04 7.683844823107e-05 0.0 
7.683844823107e-05 1.151870794662e-03 0.0 
0.0 0.0 0.0 
9.535246771120e-05 6.807594095965e-05 0.0 
6.807594095965e-05 3.868862537086e-04 0.0 
0.0 0.0 0.0 
8.394552536140e-05 -2.312416842225e-06 0.0 
-2.312416842225e-06 4.696885641406e-04 0.0 
0.0 0.0 0.0 
-6.111856221780e-05 1.912533156939e-04 0.0 
1.912533156939e-04 8.135833674987e-04 0.0 
0.0 0.0 0.0 
-5.164118001444e-06 1.963480181572e-04 0.0 
1.963480181572e-04 6.630331347828e-04 0.0 
0.0 0.0 0.0 
-7.005334787891e-05 1.138782557004e-04 0.0 
1.138782557004e-04 1.567624647707e-03 0.0 
0.0 0.0 0.0 
-9.062464388565e-05 1.325771025554e-04 0.0 
1.325771025554e-04 1.244598339895e-03 0.0 
0.0 0.0 0.0 
-1.117858731916e-04 1.043117119206e-04 0.0 
1.043117119206e-04 1.066806128973e-03 0.0 
0.0 0.0 0.0 
-1.038401378448e-04 7.771808079285e-05 0.0 
7.771808079285e-05 1.200259550295e-03 0.0 
0.0 0.0 0.0 
1.529523139632e-05 1.918941246233e-04 0.0 
1.918941246233e-04 1.397907047012e-03 0.0 
0.0 0.0 0.0 
2.240261472886e-05 1.775530130642e-04 0.0 
1.775530130642e-04 1.338336223188e-03 0.0 
0.0 0.0 0.0 
-5.913544525116e-05 1.156433834548e-04 0.0 
1.156433834548e-04 1.567111341065e-03 0.0 
0.0 0.0 0.0 
-8.391603437508e-05 7.403296878725e-05 0.0 
7.403296878725e-05 1.529043536015e-03 0.0 
0.0 0.0 0.0 
9.982152022014e-05 3.951176973258e-05 0.0 
3.951176973258e-05 6.819355854615e-04 0.0 
0.0 0.0 0.0 
-6.941832340757e-05 1.736474737120e-04 0.0 
1.736474737120e-04 9.781720053577e-04 0.0 
0.0 0.0 0.0 
7.090683489253e-05 9.224526086761e-05 0.0 
9.224526086761e-05 4.348919815140e-04 0.0 
0.0 0.0 0.0 
7.941899651431e-05 1.030639903910e-04 0.0 
1.030639903910e-04 5.042726584290e-04 0.0 
0.0 0.0 0.0 
-8.307018446152e-05 1.445413897677e-04 0.0 
1.445413897677e-04 1.191284038667e-03 0.0 
0.0 0.0 0.0 
8.812695733096e-05 1.042241555382e-04 0.0 
1.042241555382e-04 8.754118838228e-04 0.0 
0.0 0.0 0.0 
8.271496937629e-05 -1.262007292822e-06 0.0 
-1.262007292822e-06 5.673490670524e-04 0.0 
0.0 0.0 0.0 
-5.771690055922e-05 1.002592194545e-04 0.0 
1.002592194545e-04 1.595077397504e-03 0.0 
0.0 0.0 0.0 
8.083387382296e-05 3.915907529760e-05 0.0 
3.915907529760e-05 3.914713145403e-04 0.0 
0.0 0.0 0.0 
-3.983282344555e-05 1.788224456667e-04 0.0 
1.788224456667e-04 1.000212442325e-03 0.0 
0.0 0.0 0.0 
-9.637364917581e-05 1.079810106519e-04 0.0 
1.079810106519e-04 1.248808932432e-03 0.0 
0.0 0.0 0.0 
-4.422392284564e-05 1.823279280515e-04 0.0 
1.823279280515e-04 9.506513557427e-04 0.0 
0.0 0.0 0.0 
-2.117222102083e-05 1.498142216282e-04 0.0 
1.498142216282e-04 1.721046995486e-03 0.0 
0.0 0.0 0.0 
-1.970731263001e-05 1.267504989779e-04 0.0 
1.267504989779e-04 1.744737686672e-03 0.0 
0.0 0.0 0.0 
-3.921580637511e-05 1.161634765189e-04 0.0 
1.161634765189e-04 1.690593061751e-03 0.0 
0.0 0.0 0.0 
9.778845465624e-05 4.883024913126e-05 0.0 
4.883024913126e-05 7.499204090171e-04 0.0 
0.0 0.0 0.0 
-5.705573641113e-05 7.343891672210e-05 0.0 
7.343891672210e-05 1.597880140895e-03 0.0 
0.0 0.0 0.0 
1.480909570084e-05 1.882063033921e-04 0.0 
1.882063033921e-04 5.633080375311e-04 0.0 
0.0 0.0 0.0 
8.324574122343e-05 1.118156333486e-04 0.0 
1.118156333486e-04 5.748049086047e-04 0.0 
0.0 0.0 0.0 
4.810832699031e-05 5.159770607873e-05 0.0 
5.159770607873e-05 3.057033206995e-04 0.0 
0.0 0.0 0.0 
-1.024769387761e-04 1.329130020165e-04 0.0 
1.329130020165e-04 1.059990585567e-03 0.0 
0.0 0.0 0.0 
-8.319846676785e-05 1.660834913036e-05 0.0 
1.660834913036e-05 1.317058214338e-03 0.0 
0.0 0.0 0.0 
-7.212194522110e-05 3.530069708899e-05 0.0 
3.530069708899e-05 1.441679907078e-03 0.0 
0.0 0.0 0.0 
3.323803715727e-05 1.538863566591e-04 0.0 
1.538863566591e-04 1.282169633055e-03 0.0 
0.0 0.0 0.0 
-5.686371015146e-05 1.324395182546e-04 0.0 
1.324395182546e-04 1.531001138235e-03 0.0 
0.0 0.0 0.0 
-9.576726832916e-05 7.215349761317e-05 0.0 
7.215349761317e-05 1.366612768695e-03 0.0 
0.0 0.0 0.0 
-9.067007441921e-05 1.090233256478e-04 0.0 
1.090233256478e-04 1.341455585867e-03 0.0 
0.0 0.0 0.0 
7.470491768768e-05 7.138049330485e-05 0.0 
7.138049330485e-05 3.073162734049e-04 0.0 
0.0 0.0 0.0 
-2.502825985706e-05 -2.126351992567e-05 0.0 
-2.126351992567e-05 1.235804951925e-04 0.0 
0.0 0.0 0.0 
3.817071522039e-05 1.800724753863e-04 0.0 
1.800724753863e-04 7.999483891583e-04 0.0 
0.0 0.0 0.0 
-3.623753691684e-05 1.752187384712e-04 0.0 
1.752187384712e-04 1.050881658393e-03 0.0 
0.0 0.0 0.0 
2.394606995271e-05 1.738262631305e-04 0.0 
1.738262631305e-04 8.810216548003e-04 0.0 
0.0 0.0 0.0 
-4.662863168892e-05 1.478635407090e-04 0.0 
1.478635407090e-04 2.677434315941e-04 0.0 
0.0 0.0 0.0 
-5.244349468281e-05 4.760390263292e-06 0.0 
4.760390263292e-06 1.361367969900e-03 0.0 
0.0 0.0 0.0 
2.560845325772e-05 -3.031918883652e-05 0.0 
-3.031918883652e-05 2.259184647146e-04 0.0 
0.0 0.0 0.0 
6.008895219645e-05 1.651301795971e-04 0.0 
1.651301795971e-04 5.115618785225e-04 0.0 
0.0 0.0 0.0 
0.0 1.573433434504e-04 0.0 
1.573433434504e-04 1.350857999041e-03 0.0 
0.0 0.0 0.0 
5.062661264543e-05 1.496529548103e-04 0.0 
1.496529548103e-04 1.060299917820e-03 0.0 
0.0 0.0 0.0 
-9.777847840442e-05 4.663720495547e-05 0.0 
4.663720495547e-05 1.299970863914e-03 0.0 
0.0 0.0 0.0 
1.491049467184e-05 5.437644599471e-07 0.0 
5.437644599471e-07 1.583986204317e-04 0.0 
0.0 0.0 0.0 
-6.326010452129e-05 1.627770010408e-04 0.0 
1.627770010408e-04 1.070674496315e-03 0.0 
0.0 0.0 0.0 
4.287672661119e-05 1.650122671402e-04 0.0 
1.650122671402e-04 8.020443809635e-04 0.0 
0.0 0.0 0.0 
-1.030460665563e-04 8.984203991466e-05 0.0 
8.984203991466e-05 1.377319170115e-03 0.0 
0.0 0.0 0.0 
-1.452939824009e-05 1.850933790249e-04 0.0 
1.850933790249e-04 1.669365201819e-03 0.0 
0.0 0.0 0.0 
-1.031005914238e-04 7.072342517317e-05 0.0 
7.072342517317e-05 1.239734522960e-03 0.0 
0.0 0.0 0.0 
-9.529191708590e-05 1.220946539618e-04 0.0 
1.220946539618e-04 1.294350247121e-03 0.0 
0.0 0.0 0.0 
9.048364576114e-05 1.135323430044e-05 0.0 
1.135323430044e-05 5.654176710439e-04 0.0 
0.0 0.0 0.0 
-6.207604780095e-05 8.767309783790e-05 0.0 
8.767309783790e-05 1.580696931341e-03 0.0 
0.0 0.0 0.0 
1.035705260715e-04 6.005173302065e-05 0.0 
6.005173302065e-05 7.705899725292e-04 0.0 
0.0 0.0 0.0 
-1.506051923261e-05 1.943880547484e-04 0.0 
1.943880547484e-04 1.648032087986e-03 0.0 
0.0 0.0 0.0 
0.0 1.493095900001e-04 0.0 
1.493095900001e-04 1.713727781018e-03 0.0 
0.0 0.0 0.0 
0.0 1.039679893034e-04 0.0 
1.039679893034e-04 1.762675949030e-03 0.0 
0.0 0.0 0.0 
0.0 1.254880859800e-04 0.0 
1.254880859800e-04 1.739288355695e-03 0.0 
0.0 0.0 0.0 
-8.937759256211e-05 1.027403272103e-04 0.0 
1.027403272103e-04 1.385324649668e-03 0.0 
0.0 0.0 0.0 
-7.314451904650e-05 8.408144705868e-05 0.0 
8.408144705868e-05 1.581212295521e-03 0.0 
0.0 0.0 0.0 
-5.083550919915e-05 1.304756623072e-04 0.0 
1.304756623072e-04 1.575549862177e-03 0.0 
0.0 0.0 0.0 
-5.138617562661e-05 1.771785167049e-04 0.0 
1.771785167049e-04 9.513056616652e-04 0.0 
0.0 0.0 0.0 
-7.296445052363e-05 1.595236380347e-04 0.0 
1.595236380347e-04 9.799659268783e-04 0.0 
0.0 0.0 0.0 
7.781885656977e-05 -6.297984611883e-06 0.0 
-6.297984611883e-06 5.311339252099e-04 0.0 
0.0 0.0 0.0 
-6.893925534246e-05 9.710527511028e-05 0.0 
9.710527511028e-05 1.595605551944e-03 0.0 
0.0 0.0 0.0 
-8.914312421116e-06 2.093670673210e-04 0.0 
2.093670673210e-04 1.600095711132e-03 0.0 
0.0 0.0 0.0 
-5.379646033143e-05 8.493146106538e-05 0.0 
8.493146106538e-05 1.615362100098e-03 0.0 
0.0 0.0 0.0 
5.636530669362e-05 1.463632200257e-04 0.0 
1.463632200257e-04 9.918579718495e-04 0.0 
0.0 0.0 0.0 
-6.427870950165e-05 8.112425127301e-05 0.0 
8.112425127301e-05 1.615930505940e-03 0.0 
0.0 0.0 0.0 
-2.380350509223e-05 1.689319833780e-04 0.0 
1.689319833780e-04 1.264316034089e-03 0.0 
0.0 0.0 0.0 
-2.575939211069e-05 1.818230314053e-04 0.0 
1.818230314053e-04 9.784446390155e-04 0.0 
0.0 0.0 0.0 
-9.682028139513e-05 1.138635923094e-04 0.0 
1.138635923094e-04 1.061970006279e-03 0.0 
0.0 0.0 0.0 
5.530175907209e-05 1.334383916208e-04 0.0 
1.334383916208e-04 3.673233108270e-04 0.0 
0.0 0.0 0.0 
-1.528550749119e-05 6.915535173957e-05 0.0 
6.915535173957e-05 1.740163663578e-03 0.0 
0.0 0.0 0.0 
-3.008452139397e-05 1.893129614247e-04 0.0 
1.893129614247e-04 8.711379400175e-04 0.0 
0.0 0.0 0.0 
-1.368537064217e-05 1.807481288559e-04 0.0 
1.807481288559e-04 1.493867142245e-03 0.0 
0.0 0.0 0.0 
8.486516387007e-05 5.775212222156e-06 0.0 
5.775212222156e-06 5.292842826525e-04 0.0 
0.0 0.0 0.0 
6.757403028490e-05 -7.911805108476e-06 0.0 
-7.911805108476e-06 3.416765473205e-04 0.0 
0.0 0.0 0.0 
2.026180828807e-05 1.429065050640e-04 0.0 
1.429065050640e-04 1.273153465239e-03 0.0 
0.0 0.0 0.0 
4.296491761058e-05 1.827183656584e-04 0.0 
1.827183656584e-04 5.965197963809e-04 0.0 
0.0 0.0 0.0 
0.0 1.608054091042e-04 0.0 
1.608054091042e-04 1.698417837882e-03 0.0 
0.0 0.0 0.0 
-2.284845051237e-05 1.091532952935e-04 0.0 
1.091532952935e-04 1.709992537798e-03 0.0 
0.0 0.0 0.0 
-7.577193600328e-05 1.416909957379e-04 0.0 
1.416909957379e-04 1.239019969786e-03 0.0 
0.0 0.0 0.0 
-2.472790300911e-05 -1.736238897121e-05 0.0 
-1.736238897121e-05 7.076101033032e-05 0.0 
0.0 0.0 0.0 
0.0 1.805487259977e-04 0.0 
1.805487259977e-04 1.659013556488e-03 0.0 
0.0 0.0 0.0 
1.627924281156e-05 1.611519676660e-04 0.0 
1.611519676660e-04 1.312894139469e-03 0.0 
0.0 0.0 0.0 
8.102633820495e-05 1.388760927238e-05 0.0 
1.388760927238e-05 3.383152422196e-04 0.0 
0.0 0.0 0.0 
6.376126667185e-05 1.390608182539e-04 0.0 
1.390608182539e-04 9.944285065624e-04 0.0 
0.0 0.0 0.0 
6.614665909233e-06 2.121984657282e-04 0.0 
2.121984657282e-04 1.471032771760e-03 0.0 
0.0 0.0 0.0 
-4.397974885273e-05 -7.108738546436e-06 0.0 
-7.108738546436e-06 3.730605276386e-05 0.0 
0.0 0.0 0.0 
-2.836691826913e-05 1.852550539904e-04 0.0 
1.852550539904e-04 9.249771211839e-04 0.0 
0.0 0.0 0.0 
-8.053023295340e-05 1.324313217442e-04 0.0 
1.324313217442e-04 1.292549432797e-03 0.0 
0.0 0.0 0.0 
-6.821496458387e-05 1.521250297459e-04 0.0 
1.521250297459e-04 1.181220073532e-03 0.0 
0.0 0.0 0.0 
-8.751501082693e-05 1.261854876111e-04 0.0 
1.261854876111e-04 1.245478869731e-03 0.0 
0.0 0.0 0.0 
5.204735031827e-05 1.586166312097e-04 0.0 
1.586166312097e-04 4.448959792236e-04 0.0 
0.0 0.0 0.0 
0.0 1.961520873652e-04 0.0 
1.961520873652e-04 1.612706322478e-03 0.0 
0.0 0.0 0.0 
8.386341716382e-05 1.185898890981e-04 0.0 
1.185898890981e-04 6.455296616641e-04 0.0 
0.0 0.0 0.0 
2.641241563017e-06 1.070213289746e-05 0.0 
1.070213289746e-05 1.915715177265e-04 0.0 
0.0 0.0 0.0 
3.060966050694e-05 6.801857462688e-05 0.0 
6.801857462688e-05 1.199241497933e-03 0.0 
0.0 0.0 0.0 
-4.414147701692e-05 -1.611160509785e-05 0.0 
-1.611160509785e-05 7.612173590976e-05 0.0 
0.0 0.0 0.0 
-1.030718709115e-04 8.685932268386e-05 0.0 
8.685932268386e-05 1.158484229920e-03 0.0 
0.0 0.0 0.0 
2.009835577765e-05 -1.535287076772e-05 0.0 
-1.535287076772e-05 1.627582098349e-04 0.0 
0.0 0.0 0.0 
-1.017154149568e-04 5.265081629403e-05 0.0 
5.265081629403e-05 1.227305024800e-03 0.0 
0.0 0.0 0.0 
1.672997896374e-05 1.803478220619e-04 0.0 
1.803478220619e-04 1.376565907753e-03 0.0 
0.0 0.0 0.0 
0.0 2.054242334940e-04 0.0 
2.054242334940e-04 1.562092376361e-03 0.0 
0.0 0.0 0.0 
-9.609723056836e-05 9.279112482868e-05 0.0 
9.279112482868e-05 1.336717110856e-03 0.0 
0.0 0.0 0.0 
-7.334221004962e-06 -2.273331530977e-05 0.0 
-2.273331530977e-05 1.196946086632e-04 0.0 
0.0 0.0 0.0 
-3.377338389177e-06 2.803667162025e-05 0.0 
2.803667162025e-05 1.451207108922e-04 0.0 
0.0 0.0 0.0 
-6.827135044074e-06 -1.715482315042e-05 0.0 
-1.715482315042e-05 1.748507081778e-04 0.0 
0.0 0.0 0.0 
6.044955685591e-05 6.332310854343e-05 0.0 
6.332310854343e-05 1.034837638099e-03 0.0 
0.0 0.0 0.0 
-8.480550191747e-05 2.059035527424e-05 0.0 
2.059035527424e-05 1.312849190052e-03 0.0 
0.0 0.0 0.0 
-1.044663369107e-04 4.492458325180e-05 0.0 
4.492458325180e-05 1.333340238874e-03 0.0 
0.0 0.0 0.0 
0.0 2.067972366206e-04 0.0 
2.067972366206e-04 1.510902739630e-03 0.0 
0.0 0.0 0.0 
-8.103672990289e-05 1.491864373612e-05 0.0 
1.491864373612e-05 1.314244086630e-03 0.0 
0.0 0.0 0.0 
-1.705327820212e-05 1.028309449048e-04 0.0 
1.028309449048e-04 1.766608760267e-03 0.0 
0.0 0.0 0.0 
-1.071577979461e-05 1.757130816808e-04 0.0 
1.757130816808e-04 1.256322615879e-03 0.0 
0.0 0.0 0.0 
-7.040377007617e-05 2.726630748458e-05 0.0 
2.726630748458e-05 1.414981180378e-03 0.0 
0.0 0.0 0.0 
-3.549967488559e-05 1.939980387846e-04 0.0 
1.939980387846e-04 7.598697810864e-04 0.0 
0.0 0.0 0.0 
6.453183587163e-05 1.526547345030e-04 0.0 
1.526547345030e-04 9.925268481699e-04 0.0 
0.0 0.0 0.0 
3.507308960460e-05 6.771940532244e-05 0.0 
6.771940532244e-05 3.055918830761e-04 0.0 
0.0 0.0 0.0 
0.0 1.997602645698e-04 0.0 
1.997602645698e-04 1.458875262823e-03 0.0 
0.0 0.0 0.0 
0.0 1.377732736826e-04 0.0 
1.377732736826e-04 1.727854674028e-03 0.0 
0.0 0.0 0.0 
0.0 1.139724795837e-04 0.0 
1.139724795837e-04 1.752964074714e-03 0.0 
0.0 0.0 0.0 
9.493887143375e-05 4.548744433437e-05 0.0 
4.548744433437e-05 7.727981017485e-04 0.0 
0.0 0.0 0.0 
7.258117093234e-05 -9.913230677596e-06 0.0 
-9.913230677596e-06 4.957971686896e-04 0.0 
0.0 0.0 0.0 
-1.687817635487e-05 1.810424799367e-04 0.0 
1.810424799367e-04 9.785121152877e-04 0.0 
0.0 0.0 0.0 
9.963255581225e-05 5.616991577268e-05 0.0 
5.616991577268e-05 7.940726075637e-04 0.0 
0.0 0.0 0.0 
0.0 1.869799131558e-04 0.0 
1.869799131558e-04 1.412077536761e-03 0.0 
0.0 0.0 0.0 
5.419017567676e-05 1.372167285578e-04 0.0 
1.372167285578e-04 5.157562072013e-04 0.0 
0.0 0.0 0.0 
1.012597368502e-04 4.729315917309e-05 0.0 
4.729315917309e-05 4.225507601407e-04 0.0 
0.0 0.0 0.0 
1.023940566851e-04 3.950337070390e-05 0.0 
3.950337070390e-05 4.423943954797e-04 0.0 
0.0 0.0 0.0 
-6.551858867554e-05 2.816021792149e-05 0.0 
2.816021792149e-05 1.449007692601e-03 0.0 
0.0 0.0 0.0 
1.649967089667e-05 1.459623570739e-04 0.0 
1.459623570739e-04 1.326002853817e-03 0.0 
0.0 0.0 0.0 
-3.439930693194e-05 -2.037191601278e-05 0.0 
-2.037191601278e-05 1.288832230046e-04 0.0 
0.0 0.0 0.0 
0.0 1.674506237286e-04 0.0 
1.674506237286e-04 1.367257337935e-03 0.0 
0.0 0.0 0.0 
9.407375740578e-05 2.351572724827e-05 0.0 
2.351572724827e-05 3.999813017599e-04 0.0 
0.0 0.0 0.0 
0.0 1.715725840268e-04 0.0 
1.715725840268e-04 1.680788899626e-03 0.0 
0.0 0.0 0.0 
-6.306081362084e-05 1.281683372339e-04 0.0 
1.281683372339e-04 1.576032665685e-03 0.0 
0.0 0.0 0.0 
-7.019846808332e-05 -6.791948789884e-06 0.0 
-6.791948789884e-06 4.658335384300e-05 0.0 
0.0 0.0 0.0 
-5.155731928275e-06 1.868371711073e-04 0.0 
1.868371711073e-04 9.000354422959e-04 0.0 
0.0 0.0 0.0 
-5.842893725316e-05 6.636949039873e-05 0.0 
6.636949039873e-05 1.631826473831e-03 0.0 
0.0 0.0 0.0 
0.0 1.893467068328e-04 0.0 
1.893467068328e-04 1.636870868489e-03 0.0 
0.0 0.0 0.0 
-9.749271661330e-05 1.052781038929e-04 0.0 
1.052781038929e-04 1.385025872077e-03 0.0 
0.0 0.0 0.0 
2.516065096714e-06 1.777754267497e-04 0.0 
1.777754267497e-04 1.250526341422e-03 0.0 
0.0 0.0 0.0 
3.146169152957e-05 1.256950741341e-04 0.0 
1.256950741341e-04 3.055968111783e-04 0.0 
0.0 0.0 0.0 
3.367482782624e-05 1.483791621529e-04 0.0 
1.483791621529e-04 1.239439175487e-03 0.0 
0.0 0.0 0.0 
9.469865054768e-05 1.919663873594e-05 0.0 
1.919663873594e-05 4.225183979547e-04 0.0 
0.0 0.0 0.0 
8.967655480485e-05 1.755727276738e-05 0.0 
1.755727276738e-05 4.453818083185e-04 0.0 
0.0 0.0 0.0 
-6.773057505571e-05 -1.695268924602e-05 0.0 
-1.695268924602e-05 9.008164442359e-05 0.0 
0.0 0.0 0.0 
0.0 2.014676892510e-04 0.0 
2.014676892510e-04 1.587538904171e-03 0.0 
0.0 0.0 0.0 
5.641227088127e-05 8.025537293989e-05 0.0 
8.025537293989e-05 3.681179368009e-04 0.0 
0.0 0.0 0.0 
6.425678575117e-05 1.031694473523e-04 0.0 
1.031694473523e-04 1.069005395441e-03 0.0 
0.0 0.0 0.0 
-7.573112163706e-05 1.356397640553e-05 0.0 
1.356397640553e-05 1.385409392864e-03 0.0 
0.0 0.0 0.0 
6.299869939475e-05 -1.877138012980e-05 0.0 
-1.877138012980e-05 3.511200967239e-04 0.0 
0.0 0.0 0.0 
8.774449902105e-05 2.311601843822e-05 0.0 
2.311601843822e-05 4.261080605927e-04 0.0 
0.0 0.0 0.0 
-9.744980183624e-05 1.130278621717e-04 0.0 
1.130278621717e-04 1.340945056237e-03 0.0 
0.0 0.0 0.0 
0.0 2.038748047219e-04 0.0 
2.038748047219e-04 1.485072084956e-03 0.0 
0.0 0.0 0.0 
7.858417896145e-05 2.997563040758e-06 0.0 
2.997563040758e-06 5.207363028148e-04 0.0 
0.0 0.0 0.0 
8.673607825904e-05 6.706836697509e-05 0.0 
6.706836697509e-05 8.903893483754e-04 0.0 
0.0 0.0 0.0 
-3.899920398742e-05 1.716685516069e-04 0.0 
1.716685516069e-04 1.102896560483e-03 0.0 
0.0 0.0 0.0 
9.471907425906e-05 8.229977437507e-05 0.0 
8.229977437507e-05 8.313849411241e-04 0.0 
0.0 0.0 0.0 
9.408625202179e-05 4.222892314705e-05 0.0 
4.222892314705e-05 4.741194352598e-04 0.0 
0.0 0.0 0.0 
9.343915732152e-05 5.802259888515e-05 0.0 
5.802259888515e-05 8.193777118048e-04 0.0 
0.0 0.0 0.0 
-5.284523004634e-05 1.666984037487e-04 0.0 
1.666984037487e-04 1.118292453672e-03 0.0 
0.0 0.0 0.0 
-4.859167357263e-05 1.598194960446e-04 0.0 
1.598194960446e-04 1.331793713532e-03 0.0 
0.0 0.0 0.0 
5.837779712969e-05 1.557809708860e-04 0.0 
1.557809708860e-04 1.061605857748e-03 0.0 
0.0 0.0 0.0 
-2.298605101980e-05 1.787432725123e-04 0.0 
1.787432725123e-04 1.032689371294e-03 0.0 
0.0 0.0 0.0 
9.195107524773e-05 1.120052489133e-05 0.0 
1.120052489133e-05 5.393684066990e-04 0.0 
0.0 0.0 0.0 
4.272475164502e-05 1.612746641861e-04 0.0 
1.612746641861e-04 5.996065340232e-04 0.0 
0.0 0.0 0.0 
7.880806494409e-05 1.611727807133e-06 0.0 
1.611727807133e-06 4.940326603915e-04 0.0 
0.0 0.0 0.0 
-9.792269759279e-06 1.711977178052e-04 0.0 
1.711977178052e-04 1.257108765487e-03 0.0 
0.0 0.0 0.0 
8.312331007776e-05 1.380039082325e-04 0.0 
1.380039082325e-04 8.569000343948e-04 0.0 
0.0 0.0 0.0 
1.728602238660e-05 1.694520136891e-04 0.0 
1.694520136891e-04 1.359127873603e-03 0.0 
0.0 0.0 0.0 
-5.519850716651e-05 7.795993486730e-05 0.0 
7.795993486730e-05 1.649916769751e-03 0.0 
0.0 0.0 0.0 
6.154288731408e-05 -8.655921660036e-06 0.0 
-8.655921660036e-06 3.144020622947e-04 0.0 
0.0 0.0 0.0 
0.0 1.773882872745e-04 0.0 
1.773882872745e-04 1.386448177557e-03 0.0 
0.0 0.0 0.0 
3.373398816198e-05 1.650960777090e-04 0.0 
1.650960777090e-04 1.302471192587e-03 0.0 
0.0 0.0 0.0 
3.529248359135e-05 1.769544389207e-04 0.0 
1.769544389207e-04 8.660039255504e-04 0.0 
0.0 0.0 0.0 
-3.417842079734e-05 -1.804680218147e-05 0.0 
-1.804680218147e-05 7.648047228082e-05 0.0 
0.0 0.0 0.0 
2.090701987534e-05 1.352445229459e-04 0.0 
1.352445229459e-04 1.312327287858e-03 0.0 
0.0 0.0 0.0 
-6.003355268724e-05 9.382680285512e-05 0.0 
9.382680285512e-05 1.631195420611e-03 0.0 
0.0 0.0 0.0 
8.326945041626e-05 1.015506087897e-05 0.0 
1.015506087897e-05 3.610160213046e-04 0.0 
0.0 0.0 0.0 
0.0 1.457465687594e-04 0.0 
1.457465687594e-04 1.332376207666e-03 0.0 
0.0 0.0 0.0 
8.988305726687e-05 5.451979662072e-05 0.0 
5.451979662072e-05 8.425114632287e-04 0.0 
0.0 0.0 0.0 
-8.596567547459e-05 1.404147138347e-04 0.0 
1.404147138347e-04 1.046296532219e-03 0.0 
0.0 0.0 0.0 
-9.558702276979e-05 5.782901597964e-05 0.0 
5.782901597964e-05 1.352014903232e-03 0.0 
0.0 0.0 0.0 
7.495622118103e-05 1.315137973080e-04 0.0 
1.315137973080e-04 8.555235727357e-04 0.0 
0.0 0.0 0.0 
9.757997559268e-05 3.614659989253e-05 0.0 
3.614659989253e-05 7.042778756416e-04 0.0 
0.0 0.0 0.0 
8.895373963225e-05 9.711110959835e-05 0.0 
9.711110959835e-05 8.873801771052e-04 0.0 
0.0 0.0 0.0 
-9.191090483773e-05 6.365264430284e-05 0.0 
6.365264430284e-05 1.475655472397e-03 0.0 
0.0 0.0 0.0 
-9.841661916987e-05 1.094544390830e-04 0.0 
1.094544390830e-04 1.156257398729e-03 0.0 
0.0 0.0 0.0 
4.596663606637e-05 1.652230784583e-04 0.0 
1.652230784583e-04 1.126811784531e-03 0.0 
0.0 0.0 0.0 
-5.283728016670e-05 3.260779106955e-06 0.0 
3.260779106955e-06 1.413377443730e-03 0.0 
0.0 0.0 0.0 
8.337853016505e-05 -2.044600403197e-06 0.0 
-2.044600403197e-06 5.414056091666e-04 0.0 
0.0 0.0 0.0 
7.081913497586e-05 1.451342593047e-04 0.0 
1.451342593047e-04 9.970110507778e-04 0.0 
0.0 0.0 0.0 
8.272292482636e-05 3.620186849417e-08 0.0 
3.620186849417e-08 4.250032457704e-04 0.0 
0.0 0.0 0.0 
8.636275694496e-05 2.910522569242e-05 0.0 
2.910522569242e-05 7.866191019883e-04 0.0 
0.0 0.0 0.0 
-8.215779812748e-05 -7.175068838212e-06 0.0 
-7.175068838212e-06 5.141983525081e-05 0.0 
0.0 0.0 0.0 
2.536156169364e-05 1.806143677339e-04 0.0 
1.806143677339e-04 6.895687559894e-04 0.0 
0.0 0.0 0.0 
8.102473789728e-05 2.445361549291e-06 0.0 
2.445361549291e-06 4.030360300626e-04 0.0 
0.0 0.0 0.0 
8.878816298497e-05 1.157189166885e-05 0.0 
1.157189166885e-05 5.919643413126e-04 0.0 
0.0 0.0 0.0 
1.560602699135e-05 1.804482585631e-04 0.0 
1.804482585631e-04 9.418944133641e-04 0.0 
0.0 0.0 0.0 
9.797352120589e-05 6.843797334391e-05 0.0 
6.843797334391e-05 8.404167292706e-04 0.0 
0.0 0.0 0.0 
-7.104328443264e-05 1.539818242609e-05 0.0 
1.539818242609e-05 1.422883384748e-03 0.0 
0.0 0.0 0.0 
7.071003533876e-05 -9.867445292802e-06 0.0 
-9.867445292802e-06 3.642036317142e-04 0.0 
0.0 0.0 0.0 
0.0 1.356630411179e-04 0.0 
1.356630411179e-04 1.319575705167e-03 0.0 
0.0 0.0 0.0 
-8.339851742134e-05 1.366784505883e-04 0.0 
1.366784505883e-04 1.291981132050e-03 0.0 
0.0 0.0 0.0 
8.691225514035e-05 1.182422785635e-05 0.0 
1.182422785635e-05 6.185035686883e-04 0.0 
0.0 0.0 0.0 
-7.629026240374e-05 1.465580493391e-04 0.0 
1.465580493391e-04 1.238342434131e-03 0.0 
0.0 0.0 0.0 
8.182671235324e-05 -3.142684131962e-07 0.0 
-3.142684131962e-07 5.937720911424e-04 0.0 
0.0 0.0 0.0 
-5.206807970126e-05 -7.316483217506e-06 0.0 
-7.316483217506e-06 4.107516051644e-05 0.0 
0.0 0.0 0.0 
-1.022617855413e-04 5.588147153572e-05 0.0 
5.588147153572e-05 1.387310790612e-03 0.0 
0.0 0.0 0.0 
6.787268284003e-05 2.854606097581e-06 0.0 
2.854606097581e-06 4.829409110312e-04 0.0 
0.0 0.0 0.0 
-1.146630418003e-05 -4.726803086688e-06 0.0 
-4.726803086688e-06 2.216189270055e-05 0.0 
0.0 0.0 0.0 
8.297380564848e-05 7.617861203752e-06 0.0 
7.617861203752e-06 5.821168589482e-04 0.0 
0.0 0.0 0.0 
8.980614095089e-05 7.646365591610e-05 0.0 
7.646365591610e-05 9.114843267930e-04 0.0 
0.0 0.0 0.0 
-3.122724850069e-05 2.484676410893e-05 0.0 
2.484676410893e-05 1.641238618532e-03 0.0 
0.0 0.0 0.0 
9.489606519875e-05 8.928748971473e-05 0.0 
8.928748971473e-05 8.172041756291e-04 0.0 
0.0 0.0 0.0 
1.012052225966e-04 9.781964248458e-05 0.0 
9.781964248458e-05 8.286690728991e-04 0.0 
0.0 0.0 0.0 
-1.041138418916e-04 3.548213075996e-05 0.0 
3.548213075996e-05 1.280841028502e-03 0.0 
0.0 0.0 0.0 
-8.067279279234e-05 7.937445369811e-06 0.0 
7.937445369811e-06 1.260316415456e-03 0.0 
0.0 0.0 0.0 
-1.671666578196e-05 8.311330022375e-05 0.0 
8.311330022375e-05 1.733630655144e-03 0.0 
0.0 0.0 0.0 
-6.625286045103e-05 1.566271388591e-04 0.0 
1.566271388591e-04 1.180625486228e-03 0.0 
0.0 0.0 0.0 
-1.580409118274e-05 -4.014060443850e-06 0.0 
-4.014060443850e-06 2.310222901736e-05 0.0 
0.0 0.0 0.0 
1.586020423106e-05 -2.911207959581e-05 0.0 
-2.911207959581e-05 1.916900878076e-04 0.0 
0.0 0.0 0.0 
-3.106862873159e-05 -1.834481372412e-05 0.0 
-1.834481372412e-05 7.412750509594e-05 0.0 
0.0 0.0 0.0 
5.542329533803e-05 -2.231237562482e-05 0.0 
-2.231237562482e-05 3.386464841071e-04 0.0 
0.0 0.0 0.0 
-5.054778561131e-05 1.559003398057e-04 0.0 
1.559003398057e-04 1.492668789487e-03 0.0 
0.0 0.0 0.0 
-3.575253148325e-05 1.704054985314e-05 0.0 
1.704054985314e-05 1.642189196521e-03 0.0 
0.0 0.0 0.0 
7.136002291364e-05 6.362773833941e-05 0.0 
6.362773833941e-05 9.859135538872e-04 0.0 
0.0 0.0 0.0 
6.139014578821e-05 -1.920998565154e-05 0.0 
-1.920998565154e-05 3.845798006268e-04 0.0 
0.0 0.0 0.0 
8.075073745561e-05 1.758834179904e-05 0.0 
1.758834179904e-05 7.885096603404e-04 0.0 
0.0 0.0 0.0 
6.575828531474e-05 1.102700306530e-04 0.0 
1.102700306530e-04 1.086557682852e-03 0.0 
0.0 0.0 0.0 
3.483778525237e-05 2.379663579775e-05 0.0 
2.379663579775e-05 2.498993422662e-04 0.0 
0.0 0.0 0.0 
6.631723598449e-05 -7.997404069916e-06 0.0 
-7.997404069916e-06 4.831362149944e-04 0.0 
0.0 0.0 0.0 
5.793233852747e-05 2.619892749227e-06 0.0 
2.619892749227e-06 3.931693315875e-04 0.0 
0.0 0.0 0.0 
1.804296336094e-05 1.230006676158e-04 0.0 
1.230006676158e-04 1.298469423823e-03 0.0 
0.0 0.0 0.0 
0.0 1.229389164544e-04 0.0 
1.229389164544e-04 1.305092277105e-03 0.0 
0.0 0.0 0.0 
7.113244638157e-05 -5.473027122671e-06 0.0 
-5.473027122671e-06 5.410235096073e-04 0.0 
0.0 0.0 0.0 
8.110045918430e-05 4.131196107465e-07 0.0 
4.131196107465e-07 6.202790340082e-04 0.0 
0.0 0.0 0.0 
1.036517417832e-04 4.782026358341e-05 0.0 
4.782026358341e-05 7.254537778207e-04 0.0 
0.0 0.0 0.0 
5.840554596581e-05 1.245334329703e-04 0.0 
1.245334329703e-04 1.141045054032e-03 0.0 
0.0 0.0 0.0 
2.698685546543e-05 -1.459873622214e-05 0.0 
-1.459873622214e-05 2.105974202495e-04 0.0 
0.0 0.0 0.0 
7.325715162376e-05 9.699813176713e-05 0.0 
9.699813176713e-05 1.034044664796e-03 0.0 
0.0 0.0 0.0 
3.548089438699e-06 -9.443023060555e-06 0.0 
-9.443023060555e-06 1.120079895522e-04 0.0 
0.0 0.0 0.0 
7.750724439615e-05 -4.796117216052e-06 0.0 
-4.796117216052e-06 5.575704128129e-04 0.0 
0.0 0.0 0.0 
8.548346762494e-05 5.515237630362e-06 0.0 
5.515237630362e-06 6.311034944781e-04 0.0 
0.0 0.0 0.0 
5.534446719135e-06 -5.299649840812e-06 0.0 
-5.299649840812e-06 5.833040807346e-05 0.0 
0.0 0.0 0.0 
7.054340781698e-05 4.016919946428e-06 0.0 
4.016919946428e-06 5.113373726591e-04 0.0 
0.0 0.0 0.0 
-4.468049419037e-05 8.243458760744e-05 0.0 
8.243458760744e-05 1.649058592723e-03 0.0 
0.0 0.0 0.0 
-1.236578986064e-05 -3.480793156509e-06 0.0 
-3.480793156509e-06 2.183173821479e-05 0.0 
0.0 0.0 0.0 
-8.437953126317e-05 1.174680691333e-05 0.0 
1.174680691333e-05 1.260517440514e-03 0.0 
0.0 0.0 0.0 
-8.343303116121e-05 1.471012879679e-05 0.0 
1.471012879679e-05 1.257172285372e-03 0.0 
0.0 0.0 0.0 
8.117505016836e-05 1.112615541301e-04 0.0 
1.112615541301e-04 9.459198965622e-04 0.0 
0.0 0.0 0.0 
5.591302724794e-05 -6.809965254201e-06 0.0 
-6.809965254201e-06 3.928223319043e-04 0.0 
0.0 0.0 0.0 
8.482228327811e-05 7.377595009921e-06 0.0 
7.377595009921e-06 3.845024632816e-04 0.0 
0.0 0.0 0.0 
1.989925279422e-05 1.454389394095e-04 0.0 
1.454389394095e-04 4.729955340921e-04 0.0 
0.0 0.0 0.0 
5.123346679881e-05 6.444366452203e-05 0.0 
6.444366452203e-05 1.083903374759e-03 0.0 
0.0 0.0 0.0 
-9.461872362504e-06 1.872662787469e-04 0.0 
1.872662787469e-04 1.554757516181e-03 0.0 
0.0 0.0 0.0 
-4.797884028029e-05 2.673852224844e-05 0.0 
2.673852224844e-05 1.604412226857e-03 0.0 
0.0 0.0 0.0 
-2.783780205928e-05 1.952328145180e-04 0.0 
1.952328145180e-04 7.596845617996e-04 0.0 
0.0 0.0 0.0 
-1.073836086274e-06 -1.287760144805e-05 0.0 
-1.287760144805e-05 1.306858023520e-04 0.0 
0.0 0.0 0.0 
-1.133589169353e-04 8.756931458281e-05 0.0 
8.756931458281e-05 1.199025006629e-03 0.0 
0.0 0.0 0.0 
-6.794763374296e-05 3.022285400672e-06 0.0 
3.022285400672e-06 1.260460733610e-03 0.0 
0.0 0.0 0.0 
-6.595004420129e-05 1.729341638344e-06 0.0 
1.729341638344e-06 1.258244638343e-03 0.0 
0.0 0.0 0.0 
-6.174865675224e-06 -4.017055936772e-06 0.0 
-4.017055936772e-06 2.038404861726e-05 0.0 
0.0 0.0 0.0 
3.555181878223e-06 -6.840445870346e-06 0.0 
-6.840445870346e-06 5.911343356235e-05 0.0 
0.0 0.0 0.0 
1.442556843756e-05 -5.949835925307e-06 0.0 
-5.949835925307e-06 1.080284157580e-04 0.0 
0.0 0.0 0.0 
4.712817895314e-05 -1.187757475195e-05 0.0 
-1.187757475195e-05 2.916480283317e-04 0.0 
0.0 0.0 0.0 
-4.183978848937e-07 -4.661011840402e-06 0.0 
-4.661011840402e-06 5.957779966259e-05 0.0 
0.0 0.0 0.0 
7.278663275523e-05 4.681017493919e-06 0.0 
4.681017493919e-06 5.735497520327e-04 0.0 
0.0 0.0 0.0 
-7.460143357807e-05 -7.210969190750e-06 0.0 
-7.210969190750e-06 5.050338690493e-05 0.0 
0.0 0.0 0.0 
5.952323493363e-05 -8.778815936641e-06 0.0 
-8.778815936641e-06 3.493395421246e-04 0.0 
0.0 0.0 0.0 
-4.566996797961e-05 6.845539002012e-06 0.0 
6.845539002012e-06 1.466257535981e-03 0.0 
0.0 0.0 0.0 
-7.543589581704e-05 7.597507805412e-06 0.0 
7.597507805412e-06 1.258064852254e-03 0.0 
0.0 0.0 0.0 
-4.995792623763e-05 1.525478655460e-04 0.0 
1.525478655460e-04 1.540569041181e-03 0.0 
0.0 0.0 0.0 
9.315066144611e-05 6.423367244710e-05 0.0 
6.423367244710e-05 8.639629379048e-04 0.0 
0.0 0.0 0.0 
-4.909545993304e-05 5.255459191411e-06 0.0 
5.255459191411e-06 1.411503220757e-03 0.0 
0.0 0.0 0.0 
5.985169377576e-05 5.016736088896e-06 0.0 
5.016736088896e-06 4.213656999810e-04 0.0 
0.0 0.0 0.0 
7.659438868490e-06 -6.435096089579e-06 0.0 
-6.435096089579e-06 1.097052729255e-04 0.0 
0.0 0.0 0.0 
0.0 4.208044151276e-05 0.0 
4.208044151276e-05 1.795231743516e-03 0.0 
0.0 0.0 0.0 
-1.261910288086e-05 4.713778947698e-05 0.0 
4.713778947698e-05 1.793664904832e-03 0.0 
0.0 0.0 0.0 
-6.788611425257e-05 2.136968803930e-05 0.0 
2.136968803930e-05 1.384814802255e-03 0.0 
0.0 0.0 0.0 
-7.295484962722e-05 3.858198750892e-06 0.0 
3.858198750892e-06 1.260023782362e-03 0.0 
0.0 0.0 0.0 
5.995485811372e-05 -6.942284544846e-06 0.0 
-6.942284544846e-06 4.272485042525e-04 0.0 
0.0 0.0 0.0 
-1.026400242166e-05 3.247890801373e-05 0.0 
3.247890801373e-05 1.798055739312e-03 0.0 
0.0 0.0 0.0 
5.021563713759e-05 -2.341958411583e-05 0.0 
-2.341958411583e-05 3.264632841049e-04 0.0 
0.0 0.0 0.0 
-7.912928450593e-05 1.033885336948e-05 0.0 
1.033885336948e-05 1.257072937367e-03 0.0 
0.0 0.0 0.0 
-7.523382799624e-05 6.119884705104e-06 0.0 
6.119884705104e-06 1.259749761182e-03 0.0 
0.0 0.0 0.0 
-1.030221830116e-04 5.777382015413e-05 0.0 
5.777382015413e-05 1.191836741610e-03 0.0 
0.0 0.0 0.0 
0.0 9.389978398336e-05 0.0 
9.389978398336e-05 1.771096165907e-03 0.0 
0.0 0.0 0.0 
-1.081770238809e-05 4.020446259467e-05 0.0 
4.020446259467e-05 1.796662795161e-03 0.0 
0.0 0.0 0.0 
-3.521620456803e-06 -6.018994583295e-06 0.0 
-6.018994583295e-06 6.053656696148e-05 0.0 
0.0 0.0 0.0 
-3.524650933895e-06 -2.776935740511e-06 0.0 
-2.776935740511e-06 1.969773972021e-05 0.0 
0.0 0.0 0.0 
8.759078856002e-06 -1.325115391232e-05 0.0 
-1.325115391232e-05 1.562646896673e-04 0.0 
0.0 0.0 0.0 
9.300081914554e-05 1.797414534506e-05 0.0 
1.797414534506e-05 6.292083946979e-04 0.0 
0.0 0.0 0.0 
3.355852493048e-05 1.300950944087e-05 0.0 
1.300950944087e-05 1.118668277382e-03 0.0 
0.0 0.0 0.0 
-1.203222835540e-04 -9.748047749907e-06 0.0 
-9.748047749907e-06 6.607787815360e-05 0.0 
0.0 0.0 0.0 
-3.509219008613e-05 -1.470118956975e-06 0.0 
-1.470118956975e-06 1.594180961177e-03 0.0 
0.0 0.0 0.0 
-6.753433692963e-05 -7.870211532263e-06 0.0 
-7.870211532263e-06 4.820745671275e-05 0.0 
0.0 0.0 0.0 
9.424050105489e-05 1.051788550353e-04 0.0 
1.051788550353e-04 8.996706657327e-04 0.0 
0.0 0.0 0.0 
-9.550344960629e-05 -7.630981763960e-06 0.0 
-7.630981763960e-06 5.723902522381e-05 0.0 
0.0 0.0 0.0 
-1.079678627784e-04 -9.041986680980e-06 0.0 
-9.041986680980e-06 6.182841934810e-05 0.0 
0.0 0.0 0.0 
1.002474480529e-04 9.122779086466e-05 0.0 
9.122779086466e-05 8.456766595606e-04 0.0 
0.0 0.0 0.0 
4.188980029252e-05 3.114365116338e-05 0.0 
3.114365116338e-05 1.084762821035e-03 0.0 
0.0 0.0 0.0 
-4.912060421924e-05 2.392233386396e-06 0.0 
2.392233386396e-06 1.461969902398e-03 0.0 
0.0 0.0 0.0 
-1.076621373020e-04 1.085149907024e-04 0.0 
1.085149907024e-04 1.202062898131e-03 0.0 
0.0 0.0 0.0 
7.677760290870e-06 -4.505035750531e-06 0.0 
-4.505035750531e-06 5.714973985049e-05 0.0 
0.0 0.0 0.0 
7.717727011758e-05 1.586080683873e-05 0.0 
1.586080683873e-05 8.158698366663e-04 0.0 
0.0 0.0 0.0 
0.0 1.255131844056e-05 0.0 
1.255131844056e-05 1.798390864174e-03 0.0 
0.0 0.0 0.0 
-9.085327507208e-06 1.214406005672e-05 0.0 
1.214406005672e-05 1.800379364680e-03 0.0 
0.0 0.0 0.0 
-7.170316113969e-05 5.435916466377e-06 0.0 
5.435916466377e-06 1.257783713630e-03 0.0 
0.0 0.0 0.0 
8.643509197626e-05 1.185706527213e-04 0.0 
1.185706527213e-04 9.560473093706e-04 0.0 
0.0 0.0 0.0 
0.0 3.563617921510e-05 0.0 
3.563617921510e-05 1.798189964817e-03 0.0 
0.0 0.0 0.0 
1.877438835951e-06 1.712003453998e-04 0.0 
1.712003453998e-04 1.251484592031e-03 0.0 
0.0 0.0 0.0 
7.740463681571e-06 -2.887234948696e-06 0.0 
-2.887234948696e-06 1.067297516049e-04 0.0 
0.0 0.0 0.0 
2.394839735409e-06 -3.867160773571e-06 0.0 
-3.867160773571e-06 5.817018045007e-05 0.0 
0.0 0.0 0.0 
7.949984519806e-06 -4.027166483344e-06 0.0 
-4.027166483344e-06 5.643830164259e-05 0.0 
0.0 0.0 0.0 
6.672828380339e-05 4.931421835283e-06 0.0 
4.931421835283e-06 4.811289447364e-04 0.0 
0.0 0.0 0.0 
1.303078961556e-05 2.489193819148e-05 0.0 
2.489193819148e-05 1.242558888300e-03 0.0 
0.0 0.0 0.0 
-1.492360735666e-05 -4.435134441534e-06 0.0 
-4.435134441534e-06 1.740291476388e-03 0.0 
0.0 0.0 0.0 
2.539244317701e-06 -5.252418932886e-07 0.0 
-5.252418932886e-07 1.602670743028e-05 0.0 
0.0 0.0 0.0 
7.325161881067e-05 -4.934857707945e-06 0.0 
-4.934857707945e-06 5.735636199262e-04 0.0 
0.0 0.0 0.0 
0.0 2.250647989597e-05 0.0 
2.250647989597e-05 1.245487503782e-03 0.0 
0.0 0.0 0.0 
1.482336352554e-05 3.676418165815e-05 0.0 
3.676418165815e-05 1.243571480177e-03 0.0 
0.0 0.0 0.0 
2.168355260457e-05 1.110519119219e-04 0.0 
1.110519119219e-04 1.286330466742e-03 0.0 
0.0 0.0 0.0 
-4.063129581322e-05 6.870414568945e-06 0.0 
6.870414568945e-06 1.535728787991e-03 0.0 
0.0 0.0 0.0 
-3.104865343506e-05 -4.418000935270e-06 0.0 
-4.418000935270e-06 1.624355863109e-03 0.0 
0.0 0.0 0.0 
0.0 2.999428514951e-05 0.0 
2.999428514951e-05 1.240618518708e-03 0.0 
0.0 0.0 0.0 
0.0 3.837577446000e-05 0.0 
3.837577446000e-05 1.246651694276e-03 0.0 
0.0 0.0 0.0 
-3.409635609819e-05 6.604037391214e-06 0.0 
6.604037391214e-06 1.594465439450e-03 0.0 
0.0 0.0 0.0 
-1.168983949307e-06 1.396720440628e-06 0.0 
1.396720440628e-06 1.503357121813e-05 0.0 
0.0 0.0 0.0 
-6.100249968455e-05 1.113184911605e-06 0.0 
1.113184911605e-06 1.254806034362e-03 0.0 
0.0 0.0 0.0 
-6.894477543318e-05 4.279795544031e-06 0.0 
4.279795544031e-06 1.259339979857e-03 0.0 
0.0 0.0 0.0 
-3.946460577220e-07 -1.616173175961e-06 0.0 
-1.616173175961e-06 1.841150498527e-05 0.0 
0.0 0.0 0.0 
0.0 6.948817286802e-05 0.0 
6.948817286802e-05 1.263055142528e-03 0.0 
0.0 0.0 0.0 
1.881560186590e-05 9.939667860878e-05 0.0 
9.939667860878e-05 1.275234641211e-03 0.0 
0.0 0.0 0.0 
0.0 8.943475972080e-05 0.0 
8.943475972080e-05 1.269968315615e-03 0.0 
0.0 0.0 0.0 
-6.573143890187e-06 -5.175236147011e-07 0.0 
-5.175236147011e-07 1.917812112584e-05 0.0 
0.0 0.0 0.0 
-9.291962984159e-06 -2.090504883428e-06 0.0 
-2.090504883428e-06 2.082787279090e-05 0.0 
0.0 0.0 0.0 
0.0 1.122954409601e-04 0.0 
1.122954409601e-04 1.292122413960e-03 0.0 
0.0 0.0 0.0 
0.0 1.002768440709e-04 0.0 
1.002768440709e-04 1.281001549452e-03 0.0 
0.0 0.0 0.0 
-4.394729668022e-05 -4.961347604891e-06 0.0 
-4.961347604891e-06 1.505581138753e-03 0.0 
0.0 0.0 0.0 
-5.674082997598e-05 9.812847584408e-07 0.0 
9.812847584408e-07 1.251980452121e-03 0.0 
0.0 0.0 0.0 
-3.732310766669e-05 -4.728599178608e-06 0.0 
-4.728599178608e-06 1.565172946146e-03 0.0 
0.0 0.0 0.0 
-5.144013299929e-05 -5.065143865696e-06 0.0 
-5.065143865696e-06 1.383264751616e-03 0.0 
0.0 0.0 0.0 
-5.434988947683e-05 3.241131710626e-07 0.0 
3.241131710626e-07 1.251087410790e-03 0.0 
0.0 0.0 0.0 
-2.319040897447e-05 -2.841121205199e-06 0.0 
-2.841121205199e-06 2.673292008937e-05 0.0 
0.0 0.0 0.0 
-4.064388173830e-05 -5.881558105629e-06 0.0 
-5.881558105629e-06 3.553549382040e-05 0.0 
0.0 0.0 0.0 
-4.746296002422e-05 -5.839978645200e-06 0.0 
-5.839978645200e-06 3.676836174527e-05 0.0 
0.0 0.0 0.0 
-5.917629376206e-05 -6.626642911822e-06 0.0 
-6.626642911822e-06 4.198339417250e-05 0.0 
0.0 0.0 0.0 
7.464894643294e-05 5.898136342868e-06 0.0 
5.898136342868e-06 6.056889119148e-04 0.0 
0.0 0.0 0.0 
7.192093308461e-05 5.201169611557e-06 0.0 
5.201169611557e-06 5.422601578602e-04 0.0 
0.0 0.0 0.0 
-2.787237043211e-05 -5.463888385280e-06 0.0 
-5.463888385280e-06 3.079603993417e-05 0.0 
0.0 0.0 0.0 
7.422342709074e-05 6.081505396228e-06 0.0 
6.081505396228e-06 7.985581538625e-04 0.0 
0.0 0.0 0.0 
-3.740851177325e-05 -6.708468708805e-06 0.0 
-6.708468708805e-06 3.435038730859e-05 0.0 
0.0 0.0 0.0 
0.0 7.469949623224e-05 0.0 
7.469949623224e-05 1.782158203733e-03 0.0 
0.0 0.0 0.0 
0.0 2.964313890958e-05 0.0 
2.964313890958e-05 1.797925712167e-03 0.0 
0.0 0.0 0.0 
0.0 4.981572144810e-05 0.0 
4.981572144810e-05 1.791985318892e-03 0.0 
0.0 0.0 0.0 
2.397308949065e-05 5.511887794281e-06 0.0 
5.511887794281e-06 1.867589332571e-04 0.0 
0.0 0.0 0.0 
5.224946512583e-05 5.008511249969e-06 0.0 
5.008511249969e-06 3.621651625747e-04 0.0 
0.0 0.0 0.0 
0.0 2.310208702976e-05 0.0 
2.310208702976e-05 1.796874869094e-03 0.0 
0.0 0.0 0.0 
5.231246816062e-05 5.365864689968e-06 0.0 
5.365864689968e-06 1.010278855544e-03 0.0 
0.0 0.0 0.0 
0.0 1.781492389471e-05 0.0 
1.781492389471e-05 1.803810308054e-03 0.0 
0.0 0.0 0.0 
3.954154215990e-05 5.704198188771e-06 0.0 
5.704198188771e-06 1.084313662250e-03 0.0 
0.0 0.0 0.0 
2.480943192040e-05 6.952244030250e-06 0.0 
6.952244030250e-06 1.160197506725e-03 0.0 
0.0 0.0 0.0 
6.931508037789e-05 -6.028814643975e-06 0.0 
-6.028814643975e-06 5.113411120647e-04 0.0 
0.0 0.0 0.0 
-1.152659035053e-05 2.576224906593e-05 0.0 
2.576224906593e-05 1.797376607561e-03 0.0 
0.0 0.0 0.0 
-9.313898825414e-06 2.415442844190e-05 0.0 
2.415442844190e-05 1.799501041477e-03 0.0 
0.0 0.0 0.0 
4.534788200794e-05 3.301960360138e-07 0.0 
3.301960360138e-07 1.043358482236e-03 0.0 
0.0 0.0 0.0 
3.201446295553e-05 1.145229784702e-06 0.0 
1.145229784702e-06 1.119341076279e-03 0.0 
0.0 0.0 0.0 
7.016758951783e-05 1.147994618256e-05 0.0 
1.147994618256e-05 8.723731802227e-04 0.0 
0.0 0.0 0.0 
-6.012781017051e-05 -7.977531817257e-06 0.0 
-7.977531817257e-06 4.502398479977e-05 0.0 
0.0 0.0 0.0 
7.253530695106e-05 -8.033144657179e-06 0.0 
-8.033144657179e-06 5.223235707283e-04 0.0 
0.0 0.0 0.0 
-5.992377921094e-06 -8.046966846780e-06 0.0 
-8.046966846780e-06 6.057447022756e-05 0.0 
0.0 0.0 0.0 
4.699654825902e-05 5.505772019755e-05 0.0 
5.505772019755e-05 1.084863892629e-03 0.0 
0.0 0.0 0.0 
8.394806242973e-05 6.627342086244e-06 0.0 
6.627342086244e-06 5.558037518716e-04 0.0 
0.0 0.0 0.0 
6.046030543394e-05 3.223334959567e-05 0.0 
3.223334959567e-05 9.819476311985e-04 0.0 
0.0 0.0 0.0 
3.758924456787e-05 -2.655386987755e-05 0.0 
-2.655386987755e-05 2.691312236858e-04 0.0 
0.0 0.0 0.0 
6.379899289977e-06 -8.545763601954e-06 0.0 
-8.545763601954e-06 1.079553881256e-04 0.0 
0.0 0.0 0.0 
4.692910400772e-05 2.532433690830e-05 0.0 
2.532433690830e-05 1.054734517159e-03 0.0 
0.0 0.0 0.0 
7.806754535089e-05 -3.612990557678e-06 0.0 
-3.612990557678e-06 5.839517761514e-04 0.0 
0.0 0.0 0.0 
6.329614577427e-05 3.377032895406e-06 0.0 
3.377032895406e-06 4.517951102356e-04 0.0 
0.0 0.0 0.0 
5.818699577498e-05 2.180638231017e-05 0.0 
2.180638231017e-05 9.836171734496e-04 0.0 
0.0 0.0 0.0 
-2.309057320071e-05 1.440515564998e-05 0.0 
1.440515564998e-05 1.676513433701e-03 0.0 
0.0 0.0 0.0 
6.326577765470e-05 -6.590780603812e-06 0.0 
-6.590780603812e-06 4.516065141438e-04 0.0 
0.0 0.0 0.0 
7.783323990873e-05 7.596969727333e-05 0.0 
7.596969727333e-05 9.628239310673e-04 0.0 
0.0 0.0 0.0 
9.096085834526e-05 3.972935271993e-05 0.0 
3.972935271993e-05 8.010076904457e-04 0.0 
0.0 0.0 0.0 
7.269764313644e-05 2.242586059276e-05 0.0 
2.242586059276e-05 8.706706847206e-04 0.0 
0.0 0.0 0.0 
6.774546560928e-05 1.876183713576e-05 0.0 
1.876183713576e-05 9.009300803442e-04 0.0 
0.0 0.0 0.0 
9.730013533549e-05 1.216961454566e-04 0.0 
1.216961454566e-04 5.737544506070e-04 0.0 
0.0 0.0 0.0 
-1.117231608929e-04 9.964619567117e-05 0.0 
9.964619567117e-05 1.156708959313e-03 0.0 
0.0 0.0 0.0 
4.182162272492e-06 1.779026064439e-04 0.0 
1.779026064439e-04 9.589378507497e-04 0.0 
0.0 0.0 0.0 
8.187437064966e-05 2.717335965922e-05 0.0 
2.717335965922e-05 8.140986115277e-04 0.0 
0.0 0.0 0.0 
5.264822400153e-05 1.701782269195e-05 0.0 
1.701782269195e-05 1.014150962086e-03 0.0 
0.0 0.0 0.0 
6.281077390002e-05 1.527295571939e-05 0.0 
1.527295571939e-05 9.324519999603e-04 0.0 
0.0 0.0 0.0 
4.988135408523e-05 -1.304772034873e-05 0.0 
-1.304772034873e-05 2.799216198361e-04 0.0 
0.0 0.0 0.0 
-2.517605690056e-05 2.277542771547e-05 0.0 
2.277542771547e-05 1.672965595156e-03 0.0 
0.0 0.0 0.0 
-3.378046456370e-05 2.000895321530e-05 0.0 
2.000895321530e-05 1.615064768629e-03 0.0 
0.0 0.0 0.0 
-5.586369261623e-05 9.338063650688e-06 0.0 
9.338063650688e-06 1.338773417198e-03 0.0 
0.0 0.0 0.0 
8.082457611081e-05 3.480668024720e-05 0.0 
3.480668024720e-05 8.549910048148e-04 0.0 
0.0 0.0 0.0 
7.728987586408e-05 2.494007594624e-05 0.0 
2.494007594624e-05 8.421570673443e-04 0.0 
0.0 0.0 0.0 
-2.685235946698e-05 6.497257019137e-06 0.0 
6.497257019137e-06 1.678817093847e-03 0.0 
0.0 0.0 0.0 
-2.942450242016e-05 1.744103106362e-05 0.0 
1.744103106362e-05 1.646521868011e-03 0.0 
0.0 0.0 0.0 
8.802412187103e-05 2.941600809559e-05 0.0 
2.941600809559e-05 7.771014353810e-04 0.0 
0.0 0.0 0.0 
4.090375815058e-05 1.975271405060e-05 0.0 
1.975271405060e-05 1.085788927750e-03 0.0 
0.0 0.0 0.0 
-4.152727327178e-05 3.399367269168e-05 0.0 
3.399367269168e-05 1.603535273459e-03 0.0 
0.0 0.0 0.0 
6.123891354459e-05 4.641644873156e-06 0.0 
4.641644873156e-06 9.324419967551e-04 0.0 
0.0 0.0 0.0 
3.927897368472e-05 4.866044997310e-05 0.0 
4.866044997310e-05 1.117143300004e-03 0.0 
0.0 0.0 0.0 
-2.933053919463e-05 1.461808597355e-05 0.0 
1.461808597355e-05 1.674345014994e-03 0.0 
0.0 0.0 0.0 
-4.935258701633e-05 9.849213766921e-06 0.0 
9.849213766921e-06 1.524917936462e-03 0.0 
0.0 0.0 0.0 
8.254489089476e-05 6.337425170823e-05 0.0 
6.337425170823e-05 9.135060560523e-04 0.0 
0.0 0.0 0.0 
4.018974417552e-05 -5.755974473107e-06 0.0 
-5.755974473107e-06 2.767642776131e-04 0.0 
0.0 0.0 0.0 
4.458805750795e-05 -1.316185548703e-05 0.0 
-1.316185548703e-05 2.577344686767e-04 0.0 
0.0 0.0 0.0 
-7.704116409268e-07 -2.823277994046e-05 0.0 
-2.823277994046e-05 1.327754721290e-04 0.0 
0.0 0.0 0.0 
-6.017755268573e-05 -1.781636845081e-05 0.0 
-1.781636845081e-05 8.499470174650e-05 0.0 
0.0 0.0 0.0 
-3.156387002257e-05 9.558092446985e-06 0.0 
9.558092446985e-06 1.647293731347e-03 0.0 
0.0 0.0 0.0 
4.760368829171e-05 2.311526845276e-05 0.0 
2.311526845276e-05 1.042591013302e-03 0.0 
0.0 0.0 0.0 
-5.215265831604e-05 -1.736530073453e-05 0.0 
-1.736530073453e-05 8.032589085483e-05 0.0 
0.0 0.0 0.0 
-6.323674235620e-05 1.099704131183e-04 0.0 
1.099704131183e-04 1.607627512054e-03 0.0 
0.0 0.0 0.0 
-5.539406951371e-05 1.103073915992e-05 0.0 
1.103073915992e-05 1.368091467747e-03 0.0 
0.0 0.0 0.0 
6.348907948617e-05 2.527624896840e-05 0.0 
2.527624896840e-05 9.551041780111e-04 0.0 
0.0 0.0 0.0 
5.874189443333e-05 2.120251655697e-05 0.0 
2.120251655697e-05 9.706446298039e-04 0.0 
0.0 0.0 0.0 
8.567290984818e-05 5.288650508430e-06 0.0 
5.288650508430e-06 4.073940194589e-04 0.0 
0.0 0.0 0.0 
5.760594306436e-05 1.039666589472e-05 0.0 
1.039666589472e-05 9.722043390852e-04 0.0 
0.0 0.0 0.0 
-5.842254944088e-05 -1.757344884311e-06 0.0 
-1.757344884311e-06 1.338527385909e-03 0.0 
0.0 0.0 0.0 
5.689208330195e-05 1.435539630029e-04 0.0 
1.435539630029e-04 1.063412828789e-03 0.0 
0.0 0.0 0.0 
3.411729098568e-05 5.550629713093e-05 0.0 
5.550629713093e-05 1.147551187648e-03 0.0 
0.0 0.0 0.0 
3.827195590733e-05 -1.619460367084e-06 0.0 
-1.619460367084e-06 2.670248035981e-04 0.0 
0.0 0.0 0.0 
4.016141021035e-05 6.605372787560e-05 0.0 
6.605372787560e-05 1.133297916241e-03 0.0 
0.0 0.0 0.0 
-4.417112467703e-05 9.114480672429e-06 0.0 
9.114480672429e-06 1.557333884675e-03 0.0 
0.0 0.0 0.0 
4.429239297021e-05 -2.658680074660e-06 0.0 
-2.658680074660e-06 3.015084817670e-04 0.0 
0.0 0.0 0.0 
5.260038025967e-05 -2.430100610419e-05 0.0 
-2.430100610419e-05 3.166065193565e-04 0.0 
0.0 0.0 0.0 
7.927757636272e-05 8.299137072267e-06 0.0 
8.299137072267e-06 6.643866758087e-04 0.0 
0.0 0.0 0.0 
-5.417001157026e-05 1.862635620461e-05 0.0 
1.862635620461e-05 1.459312392277e-03 0.0 
0.0 0.0 0.0 
7.154996403780e-05 -2.940323905688e-06 0.0 
-2.940323905688e-06 4.336001722858e-04 0.0 
0.0 0.0 0.0 
-3.909284612247e-05 7.398788785016e-06 0.0 
7.398788785016e-06 1.589524756985e-03 0.0 
0.0 0.0 0.0 
-4.924662501893e-05 5.413073294377e-06 0.0 
5.413073294377e-06 1.496009480963e-03 0.0 
0.0 0.0 0.0 
8.490224321900e-05 1.179758992106e-05 0.0 
1.179758992106e-05 6.456192252116e-04 0.0 
0.0 0.0 0.0 
6.568377137928e-05 8.344265238637e-06 0.0 
8.344265238637e-06 9.016746587265e-04 0.0 
0.0 0.0 0.0 
6.247201073362e-05 1.429986574362e-05 0.0 
1.429986574362e-05 9.425061959418e-04 0.0 
0.0 0.0 0.0 
-4.059406634527e-05 1.737999703099e-05 0.0 
1.737999703099e-05 1.556140957302e-03 0.0 
0.0 0.0 0.0 
2.891757345469e-05 -2.075680392761e-05 0.0 
-2.075680392761e-05 2.303573998383e-04 0.0 
0.0 0.0 0.0 
8.176914422831e-05 7.848996547755e-06 0.0 
7.848996547755e-06 6.094775753431e-04 0.0 
0.0 0.0 0.0 
2.978966934597e-05 1.788849486809e-04 0.0 
1.788849486809e-04 1.258151427139e-03 0.0 
0.0 0.0 0.0 
-4.326694754520e-05 1.359576123790e-05 0.0 
1.359576123790e-05 1.584153832265e-03 0.0 
0.0 0.0 0.0 
7.872786362406e-05 4.767482926775e-06 0.0 
4.767482926775e-06 5.461580478163e-04 0.0 
0.0 0.0 0.0 
8.417068396982e-05 2.753736661842e-05 0.0 
2.753736661842e-05 8.030067288565e-04 0.0 
0.0 0.0 0.0 
4.691733665663e-05 7.004565772741e-05 0.0 
7.004565772741e-05 1.108702137865e-03 0.0 
0.0 0.0 0.0 
-4.467996552571e-05 1.793044133140e-05 0.0 
1.793044133140e-05 1.523959695657e-03 0.0 
0.0 0.0 0.0 
-1.883397939539e-05 -8.505434362732e-06 0.0 
-8.505434362732e-06 1.490594511415e-04 0.0 
0.0 0.0 0.0 
2.457589584504e-06 -2.270603184313e-05 0.0 
-2.270603184313e-05 1.275657568465e-04 0.0 
0.0 0.0 0.0 
5.793849009339e-05 3.738997367671e-05 0.0 
3.738997367671e-05 3.130406288225e-04 0.0 
0.0 0.0 0.0 
5.404588740765e-05 2.847718900598e-05 0.0 
2.847718900598e-05 1.012412637566e-03 0.0 
0.0 0.0 0.0 
-4.967154282598e-05 1.847865938414e-05 0.0 
1.847865938414e-05 1.491799607886e-03 0.0 
0.0 0.0 0.0 
7.738443596539e-05 -8.847917806556e-07 0.0 
-8.847917806556e-07 7.300624047957e-04 0.0 
0.0 0.0 0.0 
-5.708378099578e-05 1.384877178063e-05 0.0 
1.384877178063e-05 1.398497730371e-03 0.0 
0.0 0.0 0.0 
5.917142996670e-05 9.848207850841e-05 0.0 
9.848207850841e-05 1.088299894569e-03 0.0 
0.0 0.0 0.0 
8.277591295935e-05 1.170435512106e-05 0.0 
1.170435512106e-05 6.729408503705e-04 0.0 
0.0 0.0 0.0 
6.459775569079e-05 2.540242541550e-05 0.0 
2.540242541550e-05 9.407932581960e-04 0.0 
0.0 0.0 0.0 
3.794929857248e-05 -1.522863605538e-05 0.0 
-1.522863605538e-05 2.783121573084e-04 0.0 
0.0 0.0 0.0 
4.358263796855e-05 6.229584075568e-05 0.0 
6.229584075568e-05 1.117707864312e-03 0.0 
0.0 0.0 0.0 
7.978260270636e-05 8.298845905663e-07 0.0 
8.298845905663e-07 6.473786732817e-04 0.0 
0.0 0.0 0.0 
4.114390301768e-05 -1.252603393421e-05 0.0 
-1.252603393421e-05 3.030617526669e-04 0.0 
0.0 0.0 0.0 
7.728233539583e-05 -3.108943573363e-06 0.0 
-3.108943573363e-06 6.112981165700e-04 0.0 
0.0 0.0 0.0 
7.257947698580e-05 -1.181360634715e-06 0.0 
-1.181360634715e-06 4.594471764825e-04 0.0 
0.0 0.0 0.0 
5.370588147580e-05 -2.093747330203e-05 0.0 
-2.093747330203e-05 3.512741957541e-04 0.0 
0.0 0.0 0.0 
7.854658864903e-05 9.975634307841e-06 0.0 
9.975634307841e-06 7.279509711116e-04 0.0 
0.0 0.0 0.0 
-1.725912331862e-05 -5.186202602829e-06 0.0 
-5.186202602829e-06 2.699157461739e-05 0.0 
0.0 0.0 0.0 
-2.515324151220e-05 -5.619657140340e-06 0.0 
-5.619657140340e-06 3.067436426396e-05 0.0 
0.0 0.0 0.0 
7.360322069627e-05 1.390690370889e-05 0.0 
1.390690370889e-05 8.438733058249e-04 0.0 
0.0 0.0 0.0 
3.357068539556e-05 -1.822121574841e-05 0.0 
-1.822121574841e-05 2.544069215893e-04 0.0 
0.0 0.0 0.0 
7.580646863214e-05 2.328660630014e-05 0.0 
2.328660630014e-05 8.567901934313e-04 0.0 
0.0 0.0 0.0 
8.007791974052e-05 2.557835418552e-05 0.0 
2.557835418552e-05 8.296200095432e-04 0.0 
0.0 0.0 0.0 
8.552805806117e-05 4.933455076310e-06 0.0 
4.933455076310e-06 5.030368802681e-04 0.0 
0.0 0.0 0.0 
7.086217456043e-05 -6.273489563071e-07 0.0 
-6.273489563071e-07 3.248055619705e-04 0.0 
0.0 0.0 0.0 
-4.066065497066e-05 2.501150696572e-05 0.0 
2.501150696572e-05 1.636009579632e-03 0.0 
0.0 0.0 0.0 
3.360643882289e-06 5.330302248567e-05 0.0 
5.330302248567e-05 1.935398939708e-04 0.0 
0.0 0.0 0.0 
7.321436198593e-05 3.732646871086e-07 0.0 
3.732646871086e-07 4.860790209300e-04 0.0 
0.0 0.0 0.0 
5.037365615523e-05 1.134535083820e-04 0.0 
1.134535083820e-04 1.140045927779e-03 0.0 
0.0 0.0 0.0 
3.030859226261e-05 -6.414050904368e-06 0.0 
-6.414050904368e-06 2.173041977633e-04 0.0 
0.0 0.0 0.0 
-5.832273597095e-05 6.579631922620e-06 0.0 
6.579631922620e-06 1.432257194043e-03 0.0 
0.0 0.0 0.0 
-6.036355408190e-05 1.775262696051e-06 0.0 
1.775262696051e-06 1.369351382218e-03 0.0 
0.0 0.0 0.0 
2.381310835187e-05 -2.765064389739e-05 0.0 
-2.765064389739e-05 2.128218568582e-04 0.0 
0.0 0.0 0.0 
5.419423339736e-05 7.622922261707e-05 0.0 
7.622922261707e-05 1.081863850096e-03 0.0 
0.0 0.0 0.0 
-5.517714735670e-05 2.130876889083e-05 0.0 
2.130876889083e-05 1.546635287917e-03 0.0 
0.0 0.0 0.0 
3.576524209592e-05 -8.319734778489e-06 0.0 
-8.319734778489e-06 2.523944241917e-04 0.0 
0.0 0.0 0.0 
-3.905237858604e-05 3.207310152741e-05 0.0 
3.207310152741e-05 1.660330809384e-03 0.0 
0.0 0.0 0.0 
-3.264038550987e-05 3.875838158145e-05 0.0 
3.875838158145e-05 1.659248417521e-03 0.0 
0.0 0.0 0.0 
3.974868076018e-05 -2.045888467836e-05 0.0 
-2.045888467836e-05 2.857445499687e-04 0.0 
0.0 0.0 0.0 
-5.462600460637e-05 1.910701689381e-04 0.0 
1.910701689381e-04 8.533267129047e-04 0.0 
0.0 0.0 0.0 
4.238002003309e-05 -2.404547999192e-05 0.0 
-2.404547999192e-05 2.935755804094e-04 0.0 
0.0 0.0 0.0 
6.731452944497e-05 1.789134577356e-05 0.0 
1.789134577356e-05 9.130363815260e-04 0.0 
0.0 0.0 0.0 
8.059999687227e-05 1.114092163483e-05 0.0 
1.114092163483e-05 7.006507871805e-04 0.0 
0.0 0.0 0.0 
-4.904180540466e-05 9.749843074815e-05 0.0 
9.749843074815e-05 1.630479991116e-03 0.0 
0.0 0.0 0.0 
-3.514554467576e-05 3.228136831988e-05 0.0 
3.228136831988e-05 1.635137148079e-03 0.0 
0.0 0.0 0.0 
7.153398516979e-05 2.075670010101e-05 0.0 
2.075670010101e-05 8.846919174621e-04 0.0 
0.0 0.0 0.0 
7.550856466265e-05 3.201317069988e-05 0.0 
3.201317069988e-05 8.829453321595e-04 0.0 
0.0 0.0 0.0 
3.290260803834e-05 -1.344326749440e-05 0.0 
-1.344326749440e-05 2.349068023830e-04 0.0 
0.0 0.0 0.0 
7.014192851829e-05 2.885442752389e-05 0.0 
2.885442752389e-05 9.113417699191e-04 0.0 
0.0 0.0 0.0 
-4.876683336008e-05 2.867183747243e-05 0.0 
2.867183747243e-05 1.545753656391e-03 0.0 
0.0 0.0 0.0 
7.777384646301e-05 7.229822950829e-07 0.0 
7.229822950829e-07 7.022816020725e-04 0.0 
0.0 0.0 0.0 
-5.450206637825e-05 1.055401851626e-05 0.0 
1.055401851626e-05 1.492738088890e-03 0.0 
0.0 0.0 0.0 
-4.866419375338e-05 2.034710775835e-05 0.0 
2.034710775835e-05 1.578553934013e-03 0.0 
0.0 0.0 0.0 
7.971823616582e-05 1.462593835202e-04 0.0 
1.462593835202e-04 7.831831718406e-04 0.0 
0.0 0.0 0.0 
-3.714678092748e-05 2.660451179473e-05 0.0 
2.660451179473e-05 1.609558069838e-03 0.0 
0.0 0.0 0.0 
7.785039658748e-05 5.835900040494e-06 0.0 
5.835900040494e-06 5.768971977700e-04 0.0 
0.0 0.0 0.0 
7.871472512599e-05 9.377152970948e-07 0.0 
9.377152970948e-07 6.746587618696e-04 0.0 
0.0 0.0 0.0 
6.604104637731e-05 -1.748704605854e-06 0.0 
-1.748704605854e-06 4.267560794320e-04 0.0 
0.0 0.0 0.0 
7.670050441688e-05 -1.003293554473e-05 0.0 
-1.003293554473e-05 4.550044803493e-04 0.0 
0.0 0.0 0.0 
-4.928808039495e-05 2.316909918655e-05 0.0 
2.316909918655e-05 1.519052269238e-03 0.0 
0.0 0.0 0.0 
9.580570395418e-05 2.455344851635e-05 0.0 
2.455344851635e-05 6.604925435878e-04 0.0 
0.0 0.0 0.0 
4.647571359362e-05 -2.135948510196e-05 0.0 
-2.135948510196e-05 3.183677831693e-04 0.0 
0.0 0.0 0.0 
8.683633416107e-06 -2.615390312937e-05 0.0 
-2.615390312937e-05 1.578827816340e-04 0.0 
0.0 0.0 0.0 
-5.485818355866e-05 1.555924822301e-05 0.0 
1.555924822301e-05 1.519959369941e-03 0.0 
0.0 0.0 0.0 
5.104165642189e-05 -9.850038270786e-06 0.0 
-9.850038270786e-06 3.165573108541e-04 0.0 
0.0 0.0 0.0 
4.517893293965e-05 7.654157865857e-05 0.0 
7.654157865857e-05 1.132234466571e-03 0.0 
0.0 0.0 0.0 
-4.396766739756e-05 2.256751998616e-05 0.0 
2.256751998616e-05 1.551135903746e-03 0.0 
0.0 0.0 0.0 
6.670313036738e-05 3.654080242358e-05 0.0 
3.654080242358e-05 9.533761569533e-04 0.0 
0.0 0.0 0.0 
1.793044903953e-05 1.510616166382e-04 0.0 
1.510616166382e-04 1.291110629488e-03 0.0 
0.0 0.0 0.0 
7.404110819809e-05 -6.583868507705e-06 0.0 
-6.583868507705e-06 5.485889120662e-04 0.0 
0.0 0.0 0.0 
4.300889582898e-05 -9.525623086981e-06 0.0 
-9.525623086981e-06 2.840376798587e-04 0.0 
0.0 0.0 0.0 
1.747370995409e-05 -1.275839471894e-05 0.0 
-1.275839471894e-05 1.782545700235e-04 0.0 
0.0 0.0 0.0 
7.354948537208e-05 3.185198182501e-05 0.0 
3.185198182501e-05 8.989921378184e-04 0.0 
0.0 0.0 0.0 
-5.003115627211e-05 1.484457767132e-05 0.0 
1.484457767132e-05 1.464283165294e-03 0.0 
0.0 0.0 0.0 
2.176237546614e-06 -1.148141579550e-05 0.0 
-1.148141579550e-05 1.248294415601e-04 0.0 
0.0 0.0 0.0 
6.579461175238e-05 -1.437032187978e-05 0.0 
-1.437032187978e-05 4.353895557756e-04 0.0 
0.0 0.0 0.0 
3.262816785088e-05 -1.279954507308e-05 0.0 
-1.279954507308e-05 2.464300270990e-04 0.0 
0.0 0.0 0.0 
-5.930312846192e-05 1.093122787779e-05 0.0 
1.093122787779e-05 1.460220326276e-03 0.0 
0.0 0.0 0.0 
6.790938979018e-05 -1.218899918680e-05 0.0 
-1.218899918680e-05 4.611588872792e-04 0.0 
0.0 0.0 0.0 
8.600978360018e-05 3.731073985518e-05 0.0 
3.731073985518e-05 8.277242889994e-04 0.0 
0.0 0.0 0.0 
6.200246992538e-05 -1.318360573715e-05 0.0 
-1.318360573715e-05 4.279601366421e-04 0.0 
0.0 0.0 0.0 
-3.753260273687e-05 1.177270788406e-05 0.0 
1.177270788406e-05 1.616154944148e-03 0.0 
0.0 0.0 0.0 
6.215189584835e-05 -6.752449209506e-06 0.0 
-6.752449209506e-06 3.746865739966e-04 0.0 
0.0 0.0 0.0 
7.578964760868e-05 4.468298734066e-05 0.0 
4.468298734066e-05 9.161515410590e-04 0.0 
0.0 0.0 0.0 
3.666133133629e-05 -2.923372007287e-05 0.0 
-2.923372007287e-05 2.603005596256e-04 0.0 
0.0 0.0 0.0 
7.845645884119e-05 3.458928540047e-05 0.0 
3.458928540047e-05 8.719911429438e-04 0.0 
0.0 0.0 0.0 
7.721964857454e-05 -1.285617894772e-06 0.0 
-1.285617894772e-06 6.400929912733e-04 0.0 
0.0 0.0 0.0 
7.285755874920e-05 4.021148698545e-05 0.0 
4.021148698545e-05 9.249655959469e-04 0.0 
0.0 0.0 0.0 
1.061300851835e-04 6.696192954751e-05 0.0 
6.696192954751e-05 4.706137225361e-04 0.0 
0.0 0.0 0.0 
3.414252047440e-05 -3.096651682541e-06 0.0 
-3.096651682541e-06 2.439569135320e-04 0.0 
0.0 0.0 0.0 
-5.691960736065e-05 3.117552733562e-06 0.0 
3.117552733562e-06 1.403683900476e-03 0.0 
0.0 0.0 0.0 
8.789684096566e-05 9.054882772868e-05 0.0 
9.054882772868e-05 9.018804061534e-04 0.0 
0.0 0.0 0.0 
-4.753521520595e-05 1.754769126748e-04 0.0 
1.754769126748e-04 1.000716714736e-03 0.0 
0.0 0.0 0.0 
-5.397433986243e-05 6.252948249407e-06 0.0 
6.252948249407e-06 1.464565159485e-03 0.0 
0.0 0.0 0.0 
4.828046106864e-05 -2.554624779153e-05 0.0 
-2.554624779153e-05 2.933875516149e-04 0.0 
0.0 0.0 0.0 
-6.010602543682e-05 2.873526689299e-05 0.0 
2.873526689299e-05 1.481479085966e-03 0.0 
0.0 0.0 0.0 
2.738678362602e-05 -1.587566880753e-05 0.0 
-1.587566880753e-05 2.209800893382e-04 0.0 
0.0 0.0 0.0 
5.398042036475e-05 5.839531927277e-05 0.0 
5.839531927277e-05 1.060949847061e-03 0.0 
0.0 0.0 0.0 
8.106963149457e-05 1.049397388693e-04 0.0 
1.049397388693e-04 9.581212963357e-04 0.0 
0.0 0.0 0.0 
4.426294350135e-05 1.540503553985e-04 0.0 
1.540503553985e-04 1.128371115236e-03 0.0 
0.0 0.0 0.0 
-3.119458011969e-05 2.941483902277e-05 0.0 
2.941483902277e-05 1.693360572484e-03 0.0 
0.0 0.0 0.0 
9.482317533993e-05 3.357895093548e-05 0.0 
3.357895093548e-05 7.276466801773e-04 0.0 
0.0 0.0 0.0 
3.062196280235e-05 -1.057804702527e-05 0.0 
-1.057804702527e-05 2.281173155032e-04 0.0 
0.0 0.0 0.0 
8.746437837770e-05 3.978628531431e-05 0.0 
3.978628531431e-05 8.205642333619e-04 0.0 
0.0 0.0 0.0 
5.159239267760e-05 8.254290848772e-05 0.0 
8.254290848772e-05 1.106738676134e-03 0.0 
0.0 0.0 0.0 
7.319644796522e-05 -1.072668616180e-05 0.0 
-1.072668616180e-05 3.872061925279e-04 0.0 
0.0 0.0 0.0 
6.852370032728e-05 2.877296513245e-05 0.0 
2.877296513245e-05 9.267342451988e-04 0.0 
0.0 0.0 0.0 
-4.910493068799e-05 1.470156855344e-05 0.0 
1.470156855344e-05 1.552072918305e-03 0.0 
0.0 0.0 0.0 
6.751830916762e-05 1.699806617452e-06 0.0 
1.699806617452e-06 3.013363220545e-04 0.0 
0.0 0.0 0.0 
8.311641381709e-05 3.717585022358e-05 0.0 
3.717585022358e-05 8.458707238514e-04 0.0 
0.0 0.0 0.0 
-6.763402226795e-05 9.914709695273e-06 0.0 
9.914709695273e-06 1.394137955228e-03 0.0 
0.0 0.0 0.0 
4.749345981825e-05 -1.425501855024e-05 0.0 
-1.425501855024e-05 3.359712685427e-04 0.0 
0.0 0.0 0.0 
6.370478308204e-05 -1.679452705517e-05 0.0 
-1.679452705517e-05 4.098651055113e-04 0.0 
0.0 0.0 0.0 
-3.289833051379e-05 1.720030019565e-04 0.0 
1.720030019565e-04 1.102817618422e-03 0.0 
0.0 0.0 0.0 
7.884391906776e-05 4.347481133275e-05 0.0 
4.347481133275e-05 8.971722931552e-04 0.0 
0.0 0.0 0.0 
-8.523869411470e-05 1.564319297123e-04 0.0 
1.564319297123e-04 1.044040914558e-03 0.0 
0.0 0.0 0.0 
-1.523265009129e-05 1.766954324416e-04 0.0 
1.766954324416e-04 1.032952091152e-03 0.0 
0.0 0.0 0.0 
-5.451949750634e-05 2.891555157501e-05 0.0 
2.891555157501e-05 1.513707567594e-03 0.0 
0.0 0.0 0.0 
-5.374920688139e-05 1.489833944289e-05 0.0 
1.489833944289e-05 1.431276514605e-03 0.0 
0.0 0.0 0.0 
-6.371145000084e-05 2.190863813392e-05 0.0 
2.190863813392e-05 1.421993283634e-03 0.0 
0.0 0.0 0.0 
8.042890707305e-05 7.899985688871e-06 0.0 
7.899985688871e-06 6.380468514331e-04 0.0 
0.0 0.0 0.0 
6.073857731015e-05 8.036557073579e-05 0.0 
8.036557073579e-05 1.058662858299e-03 0.0 
0.0 0.0 0.0 
9.143629240427e-05 4.249907768637e-05 0.0 
4.249907768637e-05 7.961610443850e-04 0.0 
0.0 0.0 0.0 
-6.267874041010e-05 6.393570096580e-06 0.0 
6.393570096580e-06 1.399368581487e-03 0.0 
0.0 0.0 0.0 
-5.574733076552e-05 1.237205663439e-04 0.0 
1.237205663439e-04 1.620932470829e-03 0.0 
0.0 0.0 0.0 
3.133628613661e-05 1.625488979282e-04 0.0 
1.625488979282e-04 1.192916626254e-03 0.0 
0.0 0.0 0.0 
8.459142363693e-05 4.654491128248e-05 0.0 
4.654491128248e-05 8.701138312899e-04 0.0 
0.0 0.0 0.0 
-4.291138853874e-05 2.782614982213e-05 0.0 
2.782614982213e-05 1.577659538875e-03 0.0 
0.0 0.0 0.0 
7.736539651693e-05 -9.097074771984e-06 0.0 
-9.097074771984e-06 4.794838210720e-04 0.0 
0.0 0.0 0.0 
7.060165552941e-05 -1.376738953421e-05 0.0 
-1.376738953421e-05 4.441466452629e-04 0.0 
0.0 0.0 0.0 
2.975944962591e-05 -2.575677366725e-05 0.0 
-2.575677366725e-05 2.368192846958e-04 0.0 
0.0 0.0 0.0 
8.567988437269e-05 5.118730829363e-05 0.0 
5.118730829363e-05 8.659828036452e-04 0.0 
0.0 0.0 0.0 
7.175323247677e-05 -1.183636045269e-05 0.0 
-1.183636045269e-05 4.697939247673e-04 0.0 
0.0 0.0 0.0 
-6.044576276942e-05 1.581976395515e-05 0.0 
1.581976395515e-05 1.487570320428e-03 0.0 
0.0 0.0 0.0 
-6.586500559447e-05 1.569001541431e-05 0.0 
1.569001541431e-05 1.455090058746e-03 0.0 
0.0 0.0 0.0 
8.604679190882e-05 1.165551764140e-04 0.0 
1.165551764140e-04 7.889464024564e-04 0.0 
0.0 0.0 0.0 
6.860957601473e-05 -6.412888019567e-06 0.0 
-6.412888019567e-06 3.827020752789e-04 0.0 
0.0 0.0 0.0 
9.645429558613e-05 1.150417313481e-04 0.0 
1.150417313481e-04 5.031062693692e-04 0.0 
0.0 0.0 0.0 
7.024526361588e-05 -4.735891114380e-06 0.0 
-4.735891114380e-06 4.079575980067e-04 0.0 
0.0 0.0 0.0 
7.821593415258e-05 -1.045550085770e-06 0.0 
-1.045550085770e-06 4.421391606200e-04 0.0 
0.0 0.0 0.0 
3.838125115019e-05 -1.171306107005e-05 0.0 
-1.171306107005e-05 2.594759567796e-04 0.0 
0.0 0.0 0.0 
6.669683785998e-05 8.488421218310e-05 0.0 
8.488421218310e-05 1.035838027023e-03 0.0 
0.0 0.0 0.0 
9.929510642692e-05 2.021475728805e-05 0.0 
2.021475728805e-05 5.524088628124e-04 0.0 
0.0 0.0 0.0 
-4.215166582533e-05 1.884158706517e-05 0.0 
1.884158706517e-05 1.610487787421e-03 0.0 
0.0 0.0 0.0 
1.042888299398e-04 3.070652606411e-05 0.0 
3.070652606411e-05 5.925329167924e-04 0.0 
0.0 0.0 0.0 
9.507352219185e-05 5.280150757391e-05 0.0 
5.280150757391e-05 8.185345034410e-04 0.0 
0.0 0.0 0.0 
1.022101823354e-04 3.675479778581e-05 0.0 
3.675479778581e-05 6.825008498179e-04 0.0 
0.0 0.0 0.0 
2.280029652346e-05 1.714805060087e-04 0.0 
1.714805060087e-04 9.432069220532e-04 0.0 
0.0 0.0 0.0 
3.505692126948e-05 -2.309372294830e-05 0.0 
-2.309372294830e-05 2.613783150998e-04 0.0 
0.0 0.0 0.0 
5.886865091909e-05 8.627767917515e-05 0.0 
8.627767917515e-05 1.079967528347e-03 0.0 
0.0 0.0 0.0 
4.570058478537e-05 8.829093966352e-05 0.0 
8.829093966352e-05 1.137201401515e-03 0.0 
0.0 0.0 0.0 
-4.009122407456e-05 1.658139588358e-04 0.0 
1.658139588358e-04 1.272216496616e-03 0.0 
0.0 0.0 0.0 
8.590799761721e-05 4.351943792553e-06 0.0 
4.351943792553e-06 4.773573848329e-04 0.0 
0.0 0.0 0.0 
9.987920952725e-05 4.485558415099e-05 0.0 
4.485558415099e-05 7.498315655563e-04 0.0 
0.0 0.0 0.0 
-5.433106127373e-05 2.340201130248e-05 0.0 
2.340201130248e-05 1.486670704420e-03 0.0 
0.0 0.0 0.0 
7.773190795035e-05 -7.730158052995e-06 0.0 
-7.730158052995e-06 5.050233623514e-04 0.0 
0.0 0.0 0.0 
-1.877165402275e-05 1.858671554827e-04 0.0 
1.858671554827e-04 9.248256743135e-04 0.0 
0.0 0.0 0.0 
5.656071270899e-05 -1.825788058974e-05 0.0 
-1.825788058974e-05 3.764960535815e-04 0.0 
0.0 0.0 0.0 
5.957085776553e-05 -1.921964885575e-05 0.0 
-1.921964885575e-05 3.277404901987e-04 0.0 
0.0 0.0 0.0 
8.377520204550e-05 -2.734606492921e-06 0.0 
-2.734606492921e-06 5.161058513046e-04 0.0 
0.0 0.0 0.0 
5.433807652833e-05 -7.616062440741e-06 0.0 
-7.616062440741e-06 3.417348967445e-04 0.0 
0.0 0.0 0.0 
4.375729697426e-05 -1.759404281198e-05 0.0 
-1.759404281198e-05 3.106309375720e-04 0.0 
0.0 0.0 0.0 
9.334889395785e-05 2.283105164256e-05 0.0 
2.283105164256e-05 6.846872512003e-04 0.0 
0.0 0.0 0.0 
9.004513824951e-05 4.965582340105e-05 0.0 
4.965582340105e-05 8.439168327450e-04 0.0 
0.0 0.0 0.0 
-3.196816627493e-05 1.709616408853e-04 0.0 
1.709616408853e-04 1.437204415531e-03 0.0 
0.0 0.0 0.0 
-3.417501927583e-05 -3.367609909739e-06 0.0 
-3.367609909739e-06 3.137902853201e-05 0.0 
0.0 0.0 0.0 
1.109119099996e-04 5.185925647741e-05 0.0 
5.185925647741e-05 5.910097838269e-04 0.0 
0.0 0.0 0.0 
1.060962483421e-04 3.359138248221e-05 0.0 
3.359138248221e-05 5.690637927687e-04 0.0 
0.0 0.0 0.0 
9.311854232052e-05 1.139843964747e-05 0.0 
1.139843964747e-05 5.140170796205e-04 0.0 
0.0 0.0 0.0 
-5.910770200734e-05 2.288206946300e-05 0.0 
2.288206946300e-05 1.454243188853e-03 0.0 
0.0 0.0 0.0 
1.020373923291e-04 2.853456663967e-05 0.0 
2.853456663967e-05 6.166122023503e-04 0.0 
0.0 0.0 0.0 
6.431648743832e-05 -4.432197222349e-06 0.0 
-4.432197222349e-06 4.003281325298e-04 0.0 
0.0 0.0 0.0 
8.956290870965e-05 5.614245128410e-06 0.0 
5.614245128410e-06 5.547038079894e-04 0.0 
0.0 0.0 0.0 
-3.903762788771e-05 2.151344138203e-05 0.0 
2.151344138203e-05 1.583221252990e-03 0.0 
0.0 0.0 0.0 
5.880906808398e-05 -1.549416963791e-05 0.0 
-1.549416963791e-05 4.020776291795e-04 0.0 
0.0 0.0 0.0 
1.069373900475e-05 -1.048365596273e-05 0.0 
-1.048365596273e-05 1.456960940349e-04 0.0 
0.0 0.0 0.0 
2.452061009151e-05 -1.216550678750e-05 0.0 
-1.216550678750e-05 2.031535907090e-04 0.0 
0.0 0.0 0.0 
7.347450347384e-05 -1.919964874971e-06 0.0 
-1.919964874971e-06 3.486362300216e-04 0.0 
0.0 0.0 0.0 
7.743772539870e-05 -2.185582705905e-06 0.0 
-2.185582705905e-06 4.172034771635e-04 0.0 
0.0 0.0 0.0 
1.096479665905e-04 4.678641548875e-05 0.0 
4.678641548875e-05 6.123892837100e-04 0.0 
0.0 0.0 0.0 
9.435996304030e-05 1.555962364781e-05 0.0 
1.555962364781e-05 5.950827082923e-04 0.0 
0.0 0.0 0.0 
3.056225199338e-05 -3.068688344202e-05 0.0 
-3.068688344202e-05 2.364309374170e-04 0.0 
0.0 0.0 0.0 
2.299605467870e-05 -2.400519164912e-05 0.0 
-2.400519164912e-05 2.049010129872e-04 0.0 
0.0 0.0 0.0 
-8.013365421222e-05 2.040117554212e-05 0.0 
2.040117554212e-05 1.414933722447e-03 0.0 
0.0 0.0 0.0 
5.003567562745e-05 -1.856984032950e-05 0.0 
-1.856984032950e-05 3.434288687252e-04 0.0 
0.0 0.0 0.0 
7.952630534835e-05 8.428254964153e-05 0.0 
8.428254964153e-05 9.835435918475e-04 0.0 
0.0 0.0 0.0 
-2.723759541545e-05 1.730127035983e-04 0.0 
1.730127035983e-04 1.379966861243e-03 0.0 
0.0 0.0 0.0 
-1.022245998916e-04 6.970445697051e-05 0.0 
6.970445697051e-05 1.403704393246e-03 0.0 
0.0 0.0 0.0 
-4.526464216870e-05 5.025618433442e-05 0.0 
5.025618433442e-05 1.620634738762e-03 0.0 
0.0 0.0 0.0 
-3.263992368085e-05 1.685723453355e-04 0.0 
1.685723453355e-04 1.490660636676e-03 0.0 
0.0 0.0 0.0 
7.922145779227e-05 1.279658722702e-04 0.0 
1.279658722702e-04 7.859256423839e-04 0.0 
0.0 0.0 0.0 
-3.376226936591e-05 1.686841633808e-04 0.0 
1.686841633808e-04 1.325594983112e-03 0.0 
0.0 0.0 0.0 
4.271626026653e-05 -2.641250504463e-05 0.0 
-2.641250504463e-05 2.699911125108e-04 0.0 
0.0 0.0 0.0 
8.845665289092e-05 5.298376244487e-06 0.0 
5.298376244487e-06 5.792849851907e-04 0.0 
0.0 0.0 0.0 
5.452796831751e-05 1.693802974294e-04 0.0 
1.693802974294e-04 7.900114324084e-04 0.0 
0.0 0.0 0.0 
7.758588355844e-05 1.951582036583e-05 0.0 
1.951582036583e-05 3.170765928002e-04 0.0 
0.0 0.0 0.0 
2.179970414362e-05 -3.123411671117e-05 0.0 
-3.123411671117e-05 2.149825117113e-04 0.0 
0.0 0.0 0.0 
7.865202433255e-05 2.453548877659e-07 0.0 
2.453548877659e-07 4.679076417140e-04 0.0 
0.0 0.0 0.0 
9.572546615710e-05 1.740869067295e-05 0.0 
1.740869067295e-05 5.719308390806e-04 0.0 
0.0 0.0 0.0 
9.946429218477e-05 2.990538744993e-05 0.0 
2.990538744993e-05 6.151563464252e-04 0.0 
0.0 0.0 0.0 
5.709887731342e-05 -5.303348802479e-06 0.0 
-5.303348802479e-06 3.671193266173e-04 0.0 
0.0 0.0 0.0 
1.052602648537e-04 3.932242299252e-05 0.0 
3.932242299252e-05 6.581792190001e-04 0.0 
0.0 0.0 0.0 
1.005593957262e-04 3.391295129340e-05 0.0 
3.391295129340e-05 5.941910395402e-04 0.0 
0.0 0.0 0.0 
1.119239116316e-04 6.723028808743e-05 0.0 
6.723028808743e-05 6.387075846008e-04 0.0 
0.0 0.0 0.0 
6.913503482298e-05 -1.552425320415e-05 0.0 
-1.552425320415e-05 4.192322218954e-04 0.0 
0.0 0.0 0.0 
7.169199163881e-05 1.248495746240e-04 0.0 
1.248495746240e-04 1.006423932147e-03 0.0 
0.0 0.0 0.0 
-6.157756371183e-05 2.186297942430e-05 0.0 
2.186297942430e-05 1.514545543718e-03 0.0 
0.0 0.0 0.0 
1.117984715482e-04 7.494513352604e-05 0.0 
7.494513352604e-05 6.209232398944e-04 0.0 
0.0 0.0 0.0 
6.684963384052e-05 9.216010615163e-05 0.0 
9.216010615163e-05 1.056841478654e-03 0.0 
0.0 0.0 0.0 
5.542810141512e-05 -1.884362775794e-05 0.0 
-1.884362775794e-05 3.044846344571e-04 0.0 
0.0 0.0 0.0 
5.095364944108e-05 1.208125839119e-04 0.0 
1.208125839119e-04 1.164997256247e-03 0.0 
0.0 0.0 0.0 
1.076908052586e-04 4.258487402258e-05 0.0 
4.258487402258e-05 6.346508016264e-04 0.0 
0.0 0.0 0.0 
-3.013457952161e-05 1.702749201831e-04 0.0 
1.702749201831e-04 1.546102272509e-03 0.0 
0.0 0.0 0.0 
-8.775124715354e-05 1.277354150360e-04 0.0 
1.277354150360e-04 1.342227491186e-03 0.0 
0.0 0.0 0.0 
5.768222001268e-05 -8.410183865815e-06 0.0 
-8.410183865815e-06 2.907032720814e-04 0.0 
0.0 0.0 0.0 
-1.000538799952e-04 8.423934098157e-05 0.0 
8.423934098157e-05 1.416828796124e-03 0.0 
0.0 0.0 0.0 
-4.854803454146e-05 7.129984037591e-05 0.0 
7.129984037591e-05 1.631164261324e-03 0.0 
0.0 0.0 0.0 
1.092489199830e-04 5.563305241146e-05 0.0 
5.563305241146e-05 6.794030273509e-04 0.0 
0.0 0.0 0.0 
2.614162397374e-05 1.795880469576e-04 0.0 
1.795880469576e-04 7.515443080715e-04 0.0 
0.0 0.0 0.0 
-9.566664084315e-05 9.887068108850e-05 0.0 
9.887068108850e-05 1.426894613396e-03 0.0 
0.0 0.0 0.0 
-4.335047534587e-05 1.733829731620e-04 0.0 
1.733829731620e-04 1.051199090849e-03 0.0 
0.0 0.0 0.0 
3.835833413524e-05 -1.315462160877e-05 0.0 
-1.315462160877e-05 2.335187432714e-04 0.0 
0.0 0.0 0.0 
-2.174151802303e-05 6.360743681259e-05 0.0 
6.360743681259e-05 1.729393581939e-03 0.0 
0.0 0.0 0.0 
2.359976779021e-05 -1.512834437272e-05 0.0 
-1.512834437272e-05 2.021769899143e-04 0.0 
0.0 0.0 0.0 
3.189554097682e-05 1.648983664244e-04 0.0 
1.648983664244e-04 1.269876611370e-03 0.0 
0.0 0.0 0.0 
-2.895053285268e-05 3.017053687289e-05 0.0 
3.017053687289e-05 1.666327813098e-03 0.0 
0.0 0.0 0.0 
7.254999400552e-05 1.184879342322e-04 0.0 
1.184879342322e-04 1.016869448998e-03 0.0 
0.0 0.0 0.0 
-5.824428275802e-05 1.853979455965e-05 0.0 
1.853979455965e-05 1.425846031663e-03 0.0 
0.0 0.0 0.0 
-5.470563280285e-05 3.552058289833e-05 0.0 
3.552058289833e-05 1.597655766884e-03 0.0 
0.0 0.0 0.0 
1.024647298444e-04 4.900114649701e-05 0.0 
4.900114649701e-05 6.417318252474e-04 0.0 
0.0 0.0 0.0 
8.134720784692e-05 1.215545397308e-04 0.0 
1.215545397308e-04 8.592331163078e-04 0.0 
0.0 0.0 0.0 
-3.424213838721e-05 5.681491297967e-05 0.0 
5.681491297967e-05 1.674577194434e-03 0.0 
0.0 0.0 0.0 
8.199934540598e-05 5.681320533924e-05 0.0 
5.681320533924e-05 9.142250037082e-04 0.0 
0.0 0.0 0.0 
-6.226128594655e-05 2.887900334639e-05 0.0 
2.887900334639e-05 1.540631297039e-03 0.0 
0.0 0.0 0.0 
9.266664376772e-05 9.942437245710e-05 0.0 
9.942437245710e-05 9.176690411059e-04 0.0 
0.0 0.0 0.0 
5.318681182409e-05 -7.592980720776e-06 0.0 
-7.592980720776e-06 2.669650692924e-04 0.0 
0.0 0.0 0.0 
-6.247128569037e-05 3.683247025250e-05 0.0 
3.683247025250e-05 1.565606277009e-03 0.0 
0.0 0.0 0.0 
-1.285044248422e-05 2.000697500029e-04 0.0 
2.000697500029e-04 1.539652706777e-03 0.0 
0.0 0.0 0.0 
5.135165286552e-05 1.009593749942e-04 0.0 
1.009593749942e-04 1.134319830028e-03 0.0 
0.0 0.0 0.0 
9.752619564529e-05 1.910197296521e-05 0.0 
1.910197296521e-05 5.771280532405e-04 0.0 
0.0 0.0 0.0 
-6.377348666020e-05 1.026805205039e-05 0.0 
1.026805205039e-05 1.426627708556e-03 0.0 
0.0 0.0 0.0 
-6.208644680583e-05 1.747393892030e-05 0.0 
1.747393892030e-05 1.393253531982e-03 0.0 
0.0 0.0 0.0 
9.783645370165e-05 2.671121507446e-05 0.0 
2.671121507446e-05 6.371458632222e-04 0.0 
0.0 0.0 0.0 
8.789740004689e-05 6.052626143294e-05 0.0 
6.052626143294e-05 8.885817645081e-04 0.0 
0.0 0.0 0.0 
8.441213709220e-05 7.208250545189e-05 0.0 
7.208250545189e-05 9.350108393722e-04 0.0 
0.0 0.0 0.0 
1.709378578907e-05 -2.544038796553e-05 0.0 
-2.544038796553e-05 1.802497823833e-04 0.0 
0.0 0.0 0.0 
9.199275886584e-05 1.068392899449e-04 0.0 
1.068392899449e-04 4.331857194582e-04 0.0 
0.0 0.0 0.0 
1.090768440333e-04 9.202316199585e-05 0.0 
9.202316199585e-05 6.747210200060e-04 0.0 
0.0 0.0 0.0 
1.025146333113e-04 5.539234602171e-05 0.0 
5.539234602171e-05 6.242684034581e-04 0.0 
0.0 0.0 0.0 
-4.219311013132e-06 1.832472696200e-04 0.0 
1.832472696200e-04 9.581939585901e-04 0.0 
0.0 0.0 0.0 
-3.287250110140e-05 4.762049498059e-05 0.0 
4.762049498059e-05 1.706701865739e-03 0.0 
0.0 0.0 0.0 
-5.224854987851e-05 1.134627523557e-04 0.0 
1.134627523557e-04 1.607186099710e-03 0.0 
0.0 0.0 0.0 
-3.351514938343e-05 2.269850797308e-05 0.0 
2.269850797308e-05 1.666919453089e-03 0.0 
0.0 0.0 0.0 
-9.656699957861e-05 1.385313180266e-04 0.0 
1.385313180266e-04 1.102502690356e-03 0.0 
0.0 0.0 0.0 
-5.929076832323e-05 6.238216473285e-05 0.0 
6.238216473285e-05 1.577853647582e-03 0.0 
0.0 0.0 0.0 
8.092406734872e-05 4.794610717074e-05 0.0 
4.794610717074e-05 8.905343944046e-04 0.0 
0.0 0.0 0.0 
-3.057332751455e-05 4.626076035300e-05 0.0 
4.626076035300e-05 1.683960637505e-03 0.0 
0.0 0.0 0.0 
-6.999176959266e-05 3.770464655365e-05 0.0 
3.770464655365e-05 1.533226635539e-03 0.0 
0.0 0.0 0.0 
9.268157603848e-05 1.418452131736e-05 0.0 
1.418452131736e-05 6.188931858355e-04 0.0 
0.0 0.0 0.0 
1.064746232731e-04 1.022103816284e-04 0.0 
1.022103816284e-04 6.616597358837e-04 0.0 
0.0 0.0 0.0 
-5.404990254010e-05 4.308412443327e-05 0.0 
4.308412443327e-05 1.564849025482e-03 0.0 
0.0 0.0 0.0 
-4.493276447137e-05 4.173895176851e-05 0.0 
4.173895176851e-05 1.653415556925e-03 0.0 
0.0 0.0 0.0 
-4.806383409139e-05 3.496937550451e-05 0.0 
3.496937550451e-05 1.571719513104e-03 0.0 
0.0 0.0 0.0 
-5.451006286195e-05 3.554625200796e-05 0.0 
3.554625200796e-05 1.539829273518e-03 0.0 
0.0 0.0 0.0 
6.597607744774e-05 7.545350514986e-05 0.0 
7.545350514986e-05 1.032825596396e-03 0.0 
0.0 0.0 0.0 
2.939150145620e-05 1.668153654073e-04 0.0 
1.668153654073e-04 1.263479210130e-03 0.0 
0.0 0.0 0.0 
7.328561383968e-05 7.969927272138e-05 0.0 
7.969927272138e-05 1.007216054881e-03 0.0 
0.0 0.0 0.0 
9.560126849784e-05 4.221548836215e-05 0.0 
4.221548836215e-05 7.750305006455e-04 0.0 
0.0 0.0 0.0 
-1.034962805059e-04 6.353137972865e-05 0.0 
6.353137972865e-05 1.154892522328e-03 0.0 
0.0 0.0 0.0 
6.263400667916e-05 1.318683241430e-04 0.0 
1.318683241430e-04 1.076362258418e-03 0.0 
0.0 0.0 0.0 
-7.414389968041e-05 6.493140829462e-05 0.0 
6.493140829462e-05 1.510427226012e-03 0.0 
0.0 0.0 0.0 
4.701377134464e-05 -7.178088886327e-06 0.0 
-7.178088886327e-06 3.090381619386e-04 0.0 
0.0 0.0 0.0 
1.014461362874e-04 7.264489657717e-05 0.0 
7.264489657717e-05 6.778920392101e-04 0.0 
0.0 0.0 0.0 
1.065018439899e-04 9.055818130648e-05 0.0 
9.055818130648e-05 7.589790757800e-04 0.0 
0.0 0.0 0.0 
7.560286250019e-05 1.265106889139e-04 0.0 
1.265106889139e-04 9.292148931419e-04 0.0 
0.0 0.0 0.0 
8.700131174688e-05 4.569118920519e-05 0.0 
4.569118920519e-05 3.382913015437e-04 0.0 
0.0 0.0 0.0 
9.958403525201e-05 8.177843222153e-05 0.0 
8.177843222153e-05 6.651512220095e-04 0.0 
0.0 0.0 0.0 
6.879123331927e-05 1.316554577109e-04 0.0 
1.316554577109e-04 9.990207852191e-04 0.0 
0.0 0.0 0.0 
-1.008997076550e-04 9.834699373199e-05 0.0 
9.834699373199e-05 1.203475234394e-03 0.0 
0.0 0.0 0.0 
9.936994198578e-05 2.684789852906e-05 0.0 
2.684789852906e-05 6.416363767345e-04 0.0 
0.0 0.0 0.0 
-7.529936663730e-05 2.947690795072e-05 0.0 
2.947690795072e-05 1.475270510707e-03 0.0 
0.0 0.0 0.0 
-6.179382528193e-05 8.255291413871e-06 0.0 
8.255291413871e-06 1.298042049798e-03 0.0 
0.0 0.0 0.0 
-1.102154762967e-04 1.737784742009e-04 0.0 
1.737784742009e-04 3.123183427314e-04 0.0 
0.0 0.0 0.0 
9.159142179760e-05 3.138681611458e-05 0.0 
3.138681611458e-05 7.519378388654e-04 0.0 
0.0 0.0 0.0 
7.707212644603e-05 1.254991978105e-04 0.0 
1.254991978105e-04 1.027705049318e-03 0.0 
0.0 0.0 0.0 
-4.451088028390e-05 1.097134681791e-04 0.0 
1.097134681791e-04 1.642876823872e-03 0.0 
0.0 0.0 0.0 
9.442641469781e-05 1.240489488753e-04 0.0 
1.240489488753e-04 7.928988378314e-04 0.0 
0.0 0.0 0.0 
9.873268558502e-05 3.461553800073e-05 0.0 
3.461553800073e-05 7.076349724471e-04 0.0 
0.0 0.0 0.0 
-6.780689826302e-05 2.205265564567e-05 0.0 
2.205265564567e-05 1.482258297971e-03 0.0 
0.0 0.0 0.0 
-9.445970840782e-05 1.710395471602e-04 0.0 
1.710395471602e-04 5.139101283882e-04 0.0 
0.0 0.0 0.0 
7.713353846350e-05 1.317140887922e-04 0.0 
1.317140887922e-04 1.014851038157e-03 0.0 
0.0 0.0 0.0 
8.568048786328e-05 1.124379820057e-04 0.0 
1.124379820057e-04 8.659057516822e-04 0.0 
0.0 0.0 0.0 
-1.097887524564e-04 9.715404915021e-05 0.0 
9.715404915021e-05 1.245907451906e-03 0.0 
0.0 0.0 0.0 
7.756263570569e-05 5.967600356176e-05 0.0 
5.967600356176e-05 9.369226473563e-04 0.0 
0.0 0.0 0.0 
6.372605328431e-05 -4.894845305799e-06 0.0 
-4.894845305799e-06 3.202681901855e-04 0.0 
0.0 0.0 0.0 
7.286901472914e-05 7.195679993850e-05 0.0 
7.195679993850e-05 9.854561754867e-04 0.0 
0.0 0.0 0.0 
5.921303007961e-05 1.053519068469e-04 0.0 
1.053519068469e-04 1.108361858112e-03 0.0 
0.0 0.0 0.0 
7.511587595577e-05 1.381403656533e-04 0.0 
1.381403656533e-04 1.004411391434e-03 0.0 
0.0 0.0 0.0 
-5.519648318886e-05 2.801800112719e-05 0.0 
2.801800112719e-05 1.572575567228e-03 0.0 
0.0 0.0 0.0 
-9.121616341923e-06 1.735079228836e-04 0.0 
1.735079228836e-04 1.315325053395e-03 0.0 
0.0 0.0 0.0 
5.289771796457e-05 9.384343320674e-05 0.0 
9.384343320674e-05 1.109846370558e-03 0.0 
0.0 0.0 0.0 
-9.041523847197e-05 1.415762266170e-04 0.0 
1.415762266170e-04 7.239221446669e-04 0.0 
0.0 0.0 0.0 
-6.902724874991e-05 2.941723191748e-05 0.0 
2.941723191748e-05 1.508283005286e-03 0.0 
0.0 0.0 0.0 
1.471439669798e-05 1.768738465075e-04 0.0 
1.768738465075e-04 1.318744903100e-03 0.0 
0.0 0.0 0.0 
-4.701093391624e-05 4.222121397437e-05 0.0 
4.222121397437e-05 1.596836948865e-03 0.0 
0.0 0.0 0.0 
8.245244712479e-05 1.331614468060e-04 0.0 
1.331614468060e-04 9.339634375007e-04 0.0 
0.0 0.0 0.0 
9.434265699371e-05 9.969377907433e-05 0.0 
9.969377907433e-05 7.251422972578e-04 0.0 
0.0 0.0 0.0 
8.750895531850e-05 1.687440122244e-05 0.0 
1.687440122244e-05 6.824292980487e-04 0.0 
0.0 0.0 0.0 
3.479685772567e-05 3.609565013988e-05 0.0 
3.609565013988e-05 1.981286269834e-04 0.0 
0.0 0.0 0.0 
-3.989284020722e-05 4.077594033692e-05 0.0 
4.077594033692e-05 1.628378960760e-03 0.0 
0.0 0.0 0.0 
5.058199171071e-05 -4.391040434083e-06 0.0 
-4.391040434083e-06 3.346859673254e-04 0.0 
0.0 0.0 0.0 
-7.341972315300e-05 6.717454793326e-05 0.0 
6.717454793326e-05 8.760422294749e-04 0.0 
0.0 0.0 0.0 
-2.091693092487e-05 1.710466958185e-04 0.0 
1.710466958185e-04 1.319720708754e-03 0.0 
0.0 0.0 0.0 
-2.611951679132e-05 3.652897720949e-05 0.0 
3.652897720949e-05 1.692429279090e-03 0.0 
0.0 0.0 0.0 
5.051706833048e-05 -1.710635806616e-05 0.0 
-1.710635806616e-05 2.825674441020e-04 0.0 
0.0 0.0 0.0 
-4.803569552991e-05 1.650285177792e-04 0.0 
1.650285177792e-04 1.168381210939e-03 0.0 
0.0 0.0 0.0 
-6.090282893334e-05 4.356294161120e-05 0.0 
4.356294161120e-05 1.532524778667e-03 0.0 
0.0 0.0 0.0 
8.844836511934e-05 1.279308814412e-05 0.0 
1.279308814412e-05 6.695235538785e-04 0.0 
0.0 0.0 0.0 
7.089143885164e-05 1.749620839032e-05 0.0 
1.749620839032e-05 3.428403939192e-04 0.0 
0.0 0.0 0.0 
4.231854989789e-05 1.836904450902e-04 0.0 
1.836904450902e-04 6.628961735007e-04 0.0 
0.0 0.0 0.0 
3.254334625935e-05 -1.324578404947e-05 0.0 
-1.324578404947e-05 2.119066454027e-04 0.0 
0.0 0.0 0.0 
6.335677571800e-05 4.840451762458e-06 0.0 
4.840451762458e-06 2.797984522731e-04 0.0 
0.0 0.0 0.0 
4.753161943061e-05 -5.333524450407e-06 0.0 
-5.333524450407e-06 2.455434052357e-04 0.0 
0.0 0.0 0.0 
8.890308729814e-05 1.285551004692e-04 0.0 
1.285551004692e-04 8.634866680084e-04 0.0 
0.0 0.0 0.0 
-1.632805236884e-05 9.213209278535e-05 0.0 
9.213209278535e-05 1.774746643560e-03 0.0 
0.0 0.0 0.0 
-7.858397770322e-05 4.663585234259e-05 0.0 
4.663585234259e-05 9.545826770789e-04 0.0 
0.0 0.0 0.0 
5.838755135112e-05 7.007148257779e-05 0.0 
7.007148257779e-05 1.059028252547e-03 0.0 
0.0 0.0 0.0 
9.570591906383e-05 1.269723006346e-04 0.0 
1.269723006346e-04 6.447435370311e-04 0.0 
0.0 0.0 0.0 
-7.722077819183e-05 3.840447144998e-05 0.0 
3.840447144998e-05 1.500715793739e-03 0.0 
0.0 0.0 0.0 
6.183671450022e-05 4.629311345872e-05 0.0 
4.629311345872e-05 2.583976000887e-04 0.0 
0.0 0.0 0.0 
4.332483867175e-05 1.077994717053e-04 0.0 
1.077994717053e-04 1.164260469769e-03 0.0 
0.0 0.0 0.0 
3.690425076663e-05 -2.604491597886e-05 0.0 
-2.604491597886e-05 2.475267361175e-04 0.0 
0.0 0.0 0.0 
6.025724483205e-05 -2.311243230218e-06 0.0 
-2.311243230218e-06 3.948213615843e-04 0.0 
0.0 0.0 0.0 
6.359720522497e-05 1.496446358906e-04 0.0 
1.496446358906e-04 1.066804362876e-03 0.0 
0.0 0.0 0.0 
1.014433113593e-04 4.357896595803e-05 0.0 
4.357896595803e-05 6.608124312295e-04 0.0 
0.0 0.0 0.0 
2.563092760988e-05 1.690101913896e-04 0.0 
1.690101913896e-04 1.259454219324e-03 0.0 
0.0 0.0 0.0 
-2.141973507053e-05 1.899617982780e-04 0.0 
1.899617982780e-04 8.710222978399e-04 0.0 
0.0 0.0 0.0 
-7.753764143803e-05 5.966663302719e-05 0.0 
5.966663302719e-05 1.545098625120e-03 0.0 
0.0 0.0 0.0 
3.705703930357e-05 1.741401567042e-04 0.0 
1.741401567042e-04 1.268432911741e-03 0.0 
0.0 0.0 0.0 
-6.076651535647e-05 3.571944578644e-05 0.0 
3.571944578644e-05 1.507561750330e-03 0.0 
0.0 0.0 0.0 
-5.418277077429e-05 1.066714318715e-04 0.0 
1.066714318715e-04 1.643387700185e-03 0.0 
0.0 0.0 0.0 
-6.207087007815e-05 4.574143419318e-05 0.0 
4.574143419318e-05 1.589236611472e-03 0.0 
0.0 0.0 0.0 
-6.082673258334e-05 5.552557669452e-05 0.0 
5.552557669452e-05 1.611501005416e-03 0.0 
0.0 0.0 0.0 
7.091187101715e-05 1.144984861486e-04 0.0 
1.144984861486e-04 3.621654760473e-04 0.0 
0.0 0.0 0.0 
6.444685226592e-05 5.888712711856e-05 0.0 
5.888712711856e-05 1.012112066660e-03 0.0 
0.0 0.0 0.0 
-6.050170317395e-05 5.245063937538e-05 0.0 
5.245063937538e-05 1.556129256342e-03 0.0 
0.0 0.0 0.0 
6.453077145152e-05 1.584645333151e-04 0.0 
1.584645333151e-04 8.528870347644e-04 0.0 
0.0 0.0 0.0 
-8.699297816761e-05 3.561361920134e-05 0.0 
3.561361920134e-05 1.025097449870e-03 0.0 
0.0 0.0 0.0 
2.072012233900e-05 1.761047850472e-04 0.0 
1.761047850472e-04 1.329205961908e-03 0.0 
0.0 0.0 0.0 
8.992691359122e-05 8.191065016222e-05 0.0 
8.191065016222e-05 3.733651718010e-04 0.0 
0.0 0.0 0.0 
5.361453165298e-05 -1.598567044066e-05 0.0 
-1.598567044066e-05 3.686831314087e-04 0.0 
0.0 0.0 0.0 
4.026657542733e-05 1.696035693952e-04 0.0 
1.696035693952e-04 1.194571368148e-03 0.0 
0.0 0.0 0.0 
2.823530881746e-05 -7.128262327131e-06 0.0 
-7.128262327131e-06 2.191433497933e-04 0.0 
0.0 0.0 0.0 
4.123288415370e-06 1.743243819361e-04 0.0 
1.743243819361e-04 1.017123682543e-03 0.0 
0.0 0.0 0.0 
6.657825047784e-05 1.436786758066e-04 0.0 
1.436786758066e-04 1.074767577210e-03 0.0 
0.0 0.0 0.0 
-4.856486114602e-05 6.328716546102e-05 0.0 
6.328716546102e-05 1.663378273778e-03 0.0 
0.0 0.0 0.0 
-4.486942979687e-05 7.501259374332e-05 0.0 
7.501259374332e-05 1.683435968427e-03 0.0 
0.0 0.0 0.0 
6.083550141756e-05 1.373466080117e-04 0.0 
1.373466080117e-04 1.068609315676e-03 0.0 
0.0 0.0 0.0 
-5.353899122351e-05 4.399142562897e-05 0.0 
4.399142562897e-05 1.621410772279e-03 0.0 
0.0 0.0 0.0 
8.375176405861e-05 1.440502872504e-04 0.0 
1.440502872504e-04 7.127996337086e-04 0.0 
0.0 0.0 0.0 
-4.265960101490e-05 1.631808367537e-04 0.0 
1.631808367537e-04 1.384573756508e-03 0.0 
0.0 0.0 0.0 
-9.182628644833e-05 2.805861185438e-05 0.0 
2.805861185438e-05 1.093228469963e-03 0.0 
0.0 0.0 0.0 
-4.419917077436e-05 1.417527688216e-04 0.0 
1.417527688216e-04 1.579303652642e-03 0.0 
0.0 0.0 0.0 
-9.351248978695e-05 2.466050424163e-05 0.0 
2.466050424163e-05 1.160182378484e-03 0.0 
0.0 0.0 0.0 
-9.064957184546e-05 2.262655316830e-05 0.0 
2.262655316830e-05 1.192997561538e-03 0.0 
0.0 0.0 0.0 
8.831877013060e-05 1.347537522554e-04 0.0 
1.347537522554e-04 7.862655423061e-04 0.0 
0.0 0.0 0.0 
-9.158660084541e-05 2.419313895158e-05 0.0 
2.419313895158e-05 1.226536828190e-03 0.0 
0.0 0.0 0.0 
1.930436932396e-05 1.676695283600e-04 0.0 
1.676695283600e-04 1.065487011998e-03 0.0 
0.0 0.0 0.0 
4.120068088564e-05 1.645420388159e-04 0.0 
1.645420388159e-04 8.678452835453e-04 0.0 
0.0 0.0 0.0 
9.744644701826e-05 8.966695587450e-05 0.0 
8.966695587450e-05 7.348806715586e-04 0.0 
0.0 0.0 0.0 
7.403813966955e-05 2.549641227152e-05 0.0 
2.549641227152e-05 2.951840461320e-04 0.0 
0.0 0.0 0.0 
9.895971374307e-05 1.192767243735e-04 0.0 
1.192767243735e-04 7.221432611397e-04 0.0 
0.0 0.0 0.0 
-3.761266239111e-05 4.858610556804e-05 0.0 
4.858610556804e-05 1.652574786059e-03 0.0 
0.0 0.0 0.0 
-4.430896190422e-05 1.290148975991e-04 0.0 
1.290148975991e-04 1.620658624914e-03 0.0 
0.0 0.0 0.0 
7.571602055889e-05 5.297189698900e-05 0.0 
5.297189698900e-05 9.405848451254e-04 0.0 
0.0 0.0 0.0 
3.393875646873e-05 1.760424909114e-04 0.0 
1.760424909114e-04 1.262080449955e-03 0.0 
0.0 0.0 0.0 
1.109731128548e-04 6.081202964386e-05 0.0 
6.081202964386e-05 6.580640560616e-04 0.0 
0.0 0.0 0.0 
-5.120285682758e-05 6.108670463228e-05 0.0 
6.108670463228e-05 1.610795502964e-03 0.0 
0.0 0.0 0.0 
1.032157410750e-04 1.085437768615e-04 0.0 
1.085437768615e-04 7.320270946003e-04 0.0 
0.0 0.0 0.0 
5.748143258000e-05 5.486415507155e-05 0.0 
5.486415507155e-05 1.039904018517e-03 0.0 
0.0 0.0 0.0 
-5.295206608014e-05 5.160383472599e-05 0.0 
5.160383472599e-05 1.588515336226e-03 0.0 
0.0 0.0 0.0 
-6.945838141070e-05 5.763990853604e-05 0.0 
5.763990853604e-05 1.578482565812e-03 0.0 
0.0 0.0 0.0 
8.547439115869e-05 1.255877156944e-04 0.0 
1.255877156944e-04 9.437118952436e-04 0.0 
0.0 0.0 0.0 
9.251723520887e-05 1.312006242684e-04 0.0 
1.312006242684e-04 7.155741975196e-04 0.0 
0.0 0.0 0.0 
-3.606047077032e-05 1.678403039295e-04 0.0 
1.678403039295e-04 1.437418916641e-03 0.0 
0.0 0.0 0.0 
-8.275980050354e-05 1.245195709022e-04 0.0 
1.245195709022e-04 1.342639902654e-03 0.0 
0.0 0.0 0.0 
5.856421409645e-05 -9.811267635105e-07 0.0 
-9.811267635105e-07 2.995071060792e-04 0.0 
0.0 0.0 0.0 
7.540992477439e-05 5.062730838373e-05 0.0 
5.062730838373e-05 3.784676880980e-04 0.0 
0.0 0.0 0.0 
-5.844397971910e-06 1.901913861806e-04 0.0 
1.901913861806e-04 8.416240314570e-04 0.0 
0.0 0.0 0.0 
-5.187827434994e-05 1.632012534771e-04 0.0 
1.632012534771e-04 1.168655227303e-03 0.0 
0.0 0.0 0.0 
4.998420175650e-05 5.020576971862e-05 0.0 
5.020576971862e-05 1.069089767868e-03 0.0 
0.0 0.0 0.0 
-7.020928919821e-05 4.716400247057e-05 0.0 
4.716400247057e-05 1.556791481788e-03 0.0 
0.0 0.0 0.0 
8.938278255988e-05 1.110825382351e-04 0.0 
1.110825382351e-04 7.186710532776e-04 0.0 
0.0 0.0 0.0 
-5.436326999131e-05 1.577768721111e-04 0.0 
1.577768721111e-04 1.280099459887e-03 0.0 
0.0 0.0 0.0 
6.753444273877e-05 1.390705134616e-04 0.0 
1.390705134616e-04 1.086935050403e-03 0.0 
0.0 0.0 0.0 
-4.682527788957e-05 3.391129440809e-05 0.0 
3.391129440809e-05 1.629245716453e-03 0.0 
0.0 0.0 0.0 
-4.005493793124e-05 1.676449294594e-04 0.0 
1.676449294594e-04 1.490781900324e-03 0.0 
0.0 0.0 0.0 
-7.358917179789e-05 4.334404725466e-05 0.0 
4.334404725466e-05 1.467341195490e-03 0.0 
0.0 0.0 0.0 
7.036929783655e-05 1.153046506262e-04 0.0 
1.153046506262e-04 1.067118835103e-03 0.0 
0.0 0.0 0.0 
9.070183216209e-05 1.062410930588e-04 0.0 
1.062410930588e-04 7.956015782509e-04 0.0 
0.0 0.0 0.0 
6.222207744355e-05 1.262871619186e-04 0.0 
1.262871619186e-04 1.088126201295e-03 0.0 
0.0 0.0 0.0 
-3.210421870126e-06 1.798810829657e-04 0.0 
1.798810829657e-04 1.016334332692e-03 0.0 
0.0 0.0 0.0 
-4.250128713734e-05 5.090885357835e-05 0.0 
5.090885357835e-05 1.675203884713e-03 0.0 
0.0 0.0 0.0 
-4.004113272305e-05 1.657580067338e-04 0.0 
1.657580067338e-04 1.546388028417e-03 0.0 
0.0 0.0 0.0 
9.256375389666e-05 1.198736845145e-04 0.0 
1.198736845145e-04 8.729341953131e-04 0.0 
0.0 0.0 0.0 
8.202382700473e-05 5.753972374755e-05 0.0 
5.753972374755e-05 3.207815633446e-04 0.0 
0.0 0.0 0.0 
3.724555063256e-06 1.812476735239e-04 0.0 
1.812476735239e-04 1.310969139114e-03 0.0 
0.0 0.0 0.0 
3.926984740277e-06 1.716573181678e-04 0.0 
1.716573181678e-04 1.075318845786e-03 0.0 
0.0 0.0 0.0 
8.229424313644e-05 1.238619263240e-04 0.0 
1.238619263240e-04 7.159566138755e-04 0.0 
0.0 0.0 0.0 
7.933833397966e-05 1.185160536250e-04 0.0 
1.185160536250e-04 9.361704523849e-04 0.0 
0.0 0.0 0.0 
7.169603843682e-05 8.924733948012e-05 0.0 
8.924733948012e-05 1.014690506658e-03 0.0 
0.0 0.0 0.0 
6.625219928980e-05 2.639013592264e-05 0.0 
2.639013592264e-05 3.259303063521e-04 0.0 
0.0 0.0 0.0 
9.848533945811e-05 1.142669659937e-04 0.0 
1.142669659937e-04 8.024214176852e-04 0.0 
0.0 0.0 0.0 
-8.657827525738e-05 9.774393335720e-05 0.0 
9.774393335720e-05 1.427004898934e-03 0.0 
0.0 0.0 0.0 
4.686944608578e-05 3.870403175287e-05 0.0 
3.870403175287e-05 1.070714680177e-03 0.0 
0.0 0.0 0.0 
-8.097116000993e-05 1.122323857803e-04 0.0 
1.122323857803e-04 1.433885402526e-03 0.0 
0.0 0.0 0.0 
-7.457622979934e-06 1.792022711228e-04 0.0 
1.792022711228e-04 1.314487929966e-03 0.0 
0.0 0.0 0.0 
-9.009230574142e-05 8.321660061197e-05 0.0 
8.321660061197e-05 1.416920314457e-03 0.0 
0.0 0.0 0.0 
-9.179050366237e-05 5.612404351319e-05 0.0 
5.612404351319e-05 1.387208184879e-03 0.0 
0.0 0.0 0.0 
-7.254399147649e-05 1.384572828221e-04 0.0 
1.384572828221e-04 1.340690978842e-03 0.0 
0.0 0.0 0.0 
4.458415192277e-05 1.665275505410e-04 0.0 
1.665275505410e-04 1.199571058778e-03 0.0 
0.0 0.0 0.0 
6.609333649621e-05 5.176872233933e-05 0.0 
5.176872233933e-05 9.878317180272e-04 0.0 
0.0 0.0 0.0 
-6.771942627559e-05 5.305790237494e-05 0.0 
5.305790237494e-05 1.523311773558e-03 0.0 
0.0 0.0 0.0 
-3.647384641914e-05 7.942910357143e-05 0.0 
7.942910357143e-05 1.682849203696e-03 0.0 
0.0 0.0 0.0 
-9.186110334347e-05 6.916354592231e-05 0.0 
6.916354592231e-05 1.403729957320e-03 0.0 
0.0 0.0 0.0 
9.060188974486e-05 9.703220001411e-05 0.0 
9.703220001411e-05 5.777577452346e-04 0.0 
0.0 0.0 0.0 
-8.008237097346e-06 1.783140757235e-04 0.0 
1.783140757235e-04 1.373001253800e-03 0.0 
0.0 0.0 0.0 
-3.629347860123e-05 3.911782337274e-05 0.0 
3.911782337274e-05 1.684804329761e-03 0.0 
0.0 0.0 0.0 
3.310131332701e-05 1.745809900965e-04 0.0 
1.745809900965e-04 9.302289355515e-04 0.0 
0.0 0.0 0.0 
1.504780059469e-05 1.776190861958e-04 0.0 
1.776190861958e-04 1.003264091318e-03 0.0 
0.0 0.0 0.0 
9.104731391196e-05 1.046740333120e-04 0.0 
1.046740333120e-04 6.482621083386e-04 0.0 
0.0 0.0 0.0 
-6.698748227318e-05 6.366092612703e-05 0.0 
6.366092612703e-05 1.544522874522e-03 0.0 
0.0 0.0 0.0 
-6.839050977125e-05 1.621354331529e-04 0.0 
1.621354331529e-04 1.024280941743e-03 0.0 
0.0 0.0 0.0 
2.916147294219e-05 1.722504231933e-04 0.0 
1.722504231933e-04 1.057773975901e-03 0.0 
0.0 0.0 0.0 
-6.320843720853e-05 1.715134900928e-04 0.0 
1.715134900928e-04 1.022981701914e-03 0.0 
0.0 0.0 0.0 
5.177672367718e-05 1.603167329483e-04 0.0 
1.603167329483e-04 1.130544707979e-03 0.0 
0.0 0.0 0.0 
-7.146343395159e-06 1.851969209645e-04 0.0 
1.851969209645e-04 1.429563888792e-03 0.0 
0.0 0.0 0.0 
9.616714001459e-05 9.240889839885e-05 0.0 
9.240889839885e-05 6.550944585082e-04 0.0 
0.0 0.0 0.0 
1.747424867737e-05 1.158138492741e-06 0.0 
1.158138492741e-06 2.038918568874e-04 0.0 
0.0 0.0 0.0 
-4.009751074541e-05 9.507400289720e-05 0.0 
9.507400289720e-05 1.666535218577e-03 0.0 
0.0 0.0 0.0 
-8.092717898467e-05 1.456429839423e-04 0.0 
1.456429839423e-04 1.088904761890e-03 0.0 
0.0 0.0 0.0 
1.099818869696e-04 7.545351922578e-05 0.0 
7.545351922578e-05 7.068217582664e-04 0.0 
0.0 0.0 0.0 
6.332337028958e-06 1.884301512528e-04 0.0 
1.884301512528e-04 1.370291911966e-03 0.0 
0.0 0.0 0.0 
-7.792910545590e-05 4.856281749128e-05 0.0 
4.856281749128e-05 1.523882143386e-03 0.0 
0.0 0.0 0.0 
7.194206230610e-05 5.586476974288e-05 0.0 
5.586476974288e-05 9.618786036458e-04 0.0 
0.0 0.0 0.0 
5.838252262458e-05 1.533745887440e-04 0.0 
1.533745887440e-04 7.923960950775e-04 0.0 
0.0 0.0 0.0 
1.271372964107e-05 1.697913630003e-05 0.0 
1.697913630003e-05 1.589950297083e-04 0.0 
0.0 0.0 0.0 
3.943021523201e-05 3.260790600092e-05 0.0 
3.260790600092e-05 1.105075801047e-03 0.0 
0.0 0.0 0.0 
-3.449060546046e-05 1.706541778711e-04 0.0 
1.706541778711e-04 1.155587003591e-03 0.0 
0.0 0.0 0.0 
3.678899227988e-05 1.576517997474e-04 0.0 
1.576517997474e-04 1.124726418870e-03 0.0 
0.0 0.0 0.0 
-2.085303422850e-05 1.799814082794e-04 0.0 
1.799814082794e-04 1.435745293706e-03 0.0 
0.0 0.0 0.0 
-2.931393894656e-05 1.127834028895e-05 0.0 
1.127834028895e-05 1.121423622195e-04 0.0 
0.0 0.0 0.0 
7.828833999657e-05 6.807186774933e-05 0.0 
6.807186774933e-05 9.599522509982e-04 0.0 
0.0 0.0 0.0 
5.980644426651e-05 1.446007558396e-04 0.0 
1.446007558396e-04 5.839621301948e-04 0.0 
0.0 0.0 0.0 
-8.427177533177e-05 3.891171242046e-05 0.0 
3.891171242046e-05 1.467876083945e-03 0.0 
0.0 0.0 0.0 
8.749023919252e-05 2.025062759141e-05 0.0 
2.025062759141e-05 7.355825068345e-04 0.0 
0.0 0.0 0.0 
1.021234085905e-04 1.138618560934e-04 0.0 
1.138618560934e-04 6.514977678582e-04 0.0 
0.0 0.0 0.0 
5.352961634641e-05 4.360276140677e-05 0.0 
4.360276140677e-05 1.041664056142e-03 0.0 
0.0 0.0 0.0 
1.466468890232e-05 1.758522624640e-04 0.0 
1.758522624640e-04 1.064268400684e-03 0.0 
0.0 0.0 0.0 
1.036553430263e-04 1.077180324836e-04 0.0 
1.077180324836e-04 5.811668440212e-04 0.0 
0.0 0.0 0.0 
-4.339976167422e-05 1.642340352459e-04 0.0 
1.642340352459e-04 1.219699440529e-03 0.0 
0.0 0.0 0.0 
-3.401210367793e-06 -1.681895381084e-05 0.0 
-1.681895381084e-05 1.651896619508e-04 0.0 
0.0 0.0 0.0 
-3.439730315102e-05 1.663385497595e-04 0.0 
1.663385497595e-04 1.325918325976e-03 0.0 
0.0 0.0 0.0 
4.896294410628e-05 1.489819118235e-04 0.0 
1.489819118235e-04 1.132257347662e-03 0.0 
0.0 0.0 0.0 
-3.529382766609e-05 1.591177419640e-04 0.0 
1.591177419640e-04 1.587901938497e-03 0.0 
0.0 0.0 0.0 
-2.986801124649e-05 1.697015188359e-04 0.0 
1.697015188359e-04 1.380436959691e-03 0.0 
0.0 0.0 0.0 
8.644503089794e-05 6.306664205632e-05 0.0 
6.306664205632e-05 4.462341941145e-04 0.0 
0.0 0.0 0.0 
7.038793818692e-05 4.143063562786e-05 0.0 
4.143063562786e-05 9.424339629336e-04 0.0 
0.0 0.0 0.0 
-2.559820050541e-05 5.435616202001e-05 0.0 
5.435616202001e-05 1.706434253957e-03 0.0 
0.0 0.0 0.0 
9.556747879058e-06 1.861980265345e-04 0.0 
1.861980265345e-04 1.387955598326e-03 0.0 
0.0 0.0 0.0 
3.697306580208e-05 1.597502325126e-04 0.0 
1.597502325126e-04 1.196060764966e-03 0.0 
0.0 0.0 0.0 
7.007299147399e-05 1.403602415424e-04 0.0 
1.403602415424e-04 7.867363397467e-04 0.0 
0.0 0.0 0.0 
-3.891402592926e-05 1.645597052454e-04 0.0 
1.645597052454e-04 1.272378642505e-03 0.0 
0.0 0.0 0.0 
4.788712665849e-05 3.490194554135e-05 0.0 
3.490194554135e-05 1.053072665491e-03 0.0 
0.0 0.0 0.0 
7.678085472862e-05 -2.218268964810e-06 0.0 
-2.218268964810e-06 6.663260060547e-04 0.0 
0.0 0.0 0.0 
-2.018149362493e-05 1.745788937321e-04 0.0 
1.745788937321e-04 1.319210982502e-03 0.0 
0.0 0.0 0.0 
-6.746591063511e-05 4.358539098157e-05 0.0 
4.358539098157e-05 1.500095988185e-03 0.0 
0.0 0.0 0.0 
6.007216213400e-05 4.797844193526e-05 0.0 
4.797844193526e-05 1.013812085850e-03 0.0 
0.0 0.0 0.0 
6.702553828308e-05 6.807554933311e-05 0.0 
6.807554933311e-05 1.009052460264e-03 0.0 
0.0 0.0 0.0 
-5.552938814468e-05 9.285896703769e-08 0.0 
9.285896703769e-08 1.252576904295e-03 0.0 
0.0 0.0 0.0 
-5.460466815577e-05 8.976053068060e-07 0.0 
8.976053068060e-07 1.251845823390e-03 0.0 
0.0 0.0 0.0 
-9.253081246730e-05 9.396857423329e-05 0.0 
9.396857423329e-05 1.467187120408e-03 0.0 
0.0 0.0 0.0 
-2.516933281604e-05 1.718153074217e-04 0.0 
1.718153074217e-04 1.263884435161e-03 0.0 
0.0 0.0 0.0 
8.423186939943e-05 1.909436170079e-05 0.0 
1.909436170079e-05 7.619688845422e-04 0.0 
0.0 0.0 0.0 
-7.951920973714e-05 1.333060564014e-04 0.0 
1.333060564014e-04 1.390646844177e-03 0.0 
0.0 0.0 0.0 
3.106428125754e-05 1.727246269746e-04 0.0 
1.727246269746e-04 9.938951205923e-04 0.0 
0.0 0.0 0.0 
5.037465379898e-05 1.390279157005e-04 0.0 
1.390279157005e-04 1.171343746050e-03 0.0 
0.0 0.0 0.0 
6.859129119108e-05 1.579936236698e-04 0.0 
1.579936236698e-04 7.841088171006e-04 0.0 
0.0 0.0 0.0 
-1.539994844812e-05 8.056096562305e-05 0.0 
8.056096562305e-05 1.780476129469e-03 0.0 
0.0 0.0 0.0 
-9.332708316545e-05 4.467533818750e-05 0.0 
4.467533818750e-05 1.333345810079e-03 0.0 
0.0 0.0 0.0 
2.105491858462e-05 1.691128296746e-04 0.0 
1.691128296746e-04 1.004527716521e-03 0.0 
0.0 0.0 0.0 
9.488479211117e-05 3.272622026082e-05 0.0 
3.272622026082e-05 7.335225632372e-04 0.0 
0.0 0.0 0.0 
8.003336279261e-05 7.675865179009e-05 0.0 
7.675865179009e-05 4.379588559504e-04 0.0 
0.0 0.0 0.0 
9.069163512043e-05 1.336859049827e-05 0.0 
1.336859049827e-05 6.437765163019e-04 0.0 
0.0 0.0 0.0 
-2.988776270818e-05 1.706383513727e-04 0.0 
1.706383513727e-04 1.209291641917e-03 0.0 
0.0 0.0 0.0 
-6.160525147281e-05 1.546114242709e-04 0.0 
1.546114242709e-04 1.229990904962e-03 0.0 
0.0 0.0 0.0 
-7.455905358433e-05 5.362945983749e-05 0.0 
5.362945983749e-05 1.490175457588e-03 0.0 
0.0 0.0 0.0 
-6.370443701542e-05 1.447535739893e-04 0.0 
1.447535739893e-04 1.389798123903e-03 0.0 
0.0 0.0 0.0 
-7.060230059142e-05 1.391988269162e-04 0.0 
1.391988269162e-04 1.439419371259e-03 0.0 
0.0 0.0 0.0 
1.451615623038e-05 -8.095260837259e-06 0.0 
-8.095260837259e-06 1.586056819491e-04 0.0 
0.0 0.0 0.0 
9.539046736329e-05 1.839039047099e-05 0.0 
1.839039047099e-05 6.027697497411e-04 0.0 
0.0 0.0 0.0 
-7.887501013815e-05 1.568914110849e-04 0.0 
1.568914110849e-04 1.087586141411e-03 0.0 
0.0 0.0 0.0 
-8.285004124686e-05 1.176278358627e-04 0.0 
1.176278358627e-04 1.389426966818e-03 0.0 
0.0 0.0 0.0 
-8.921317426314e-05 1.137938361468e-04 0.0 
1.137938361468e-04 1.433656494128e-03 0.0 
0.0 0.0 0.0 
4.612802555304e-05 1.614952887790e-04 0.0 
1.614952887790e-04 1.204728213768e-03 0.0 
0.0 0.0 0.0 
3.313777802694e-05 5.090212596914e-06 0.0 
5.090212596914e-06 2.459261766701e-04 0.0 
0.0 0.0 0.0 
5.335854923860e-05 5.501718529743e-06 0.0 
5.501718529743e-06 2.805829003203e-04 0.0 
0.0 0.0 0.0 
-2.012163090415e-05 1.762798487164e-04 0.0 
1.762798487164e-04 1.087766412355e-03 0.0 
0.0 0.0 0.0 
8.707268986274e-05 5.325922823377e-06 0.0 
5.325922823377e-06 6.047867911299e-04 0.0 
0.0 0.0 0.0 
-1.018980488430e-04 2.551166554088e-05 0.0 
2.551166554088e-05 1.192522878016e-03 0.0 
0.0 0.0 0.0 
-1.000730720427e-04 2.464929503040e-05 0.0 
2.464929503040e-05 1.226514396201e-03 0.0 
0.0 0.0 0.0 
-8.496961580107e-05 5.017371439868e-05 0.0 
5.017371439868e-05 1.490616517794e-03 0.0 
0.0 0.0 0.0 
4.255587040958e-05 9.811556186756e-05 0.0 
9.811556186756e-05 3.733918342712e-04 0.0 
0.0 0.0 0.0 
9.305310327901e-05 2.444405903021e-05 0.0 
2.444405903021e-05 6.939723214689e-04 0.0 
0.0 0.0 0.0 
7.116460906786e-05 1.130983317698e-04 0.0 
1.130983317698e-04 1.029620964314e-03 0.0 
0.0 0.0 0.0 
6.952454093767e-05 3.524327591162e-05 0.0 
3.524327591162e-05 2.740148603315e-04 0.0 
0.0 0.0 0.0 
-6.114977245453e-06 1.908518813660e-04 0.0 
1.908518813660e-04 1.524985927108e-03 0.0 
0.0 0.0 0.0 
-5.154940971286e-05 5.342033740764e-05 0.0 
5.342033740764e-05 1.642962268412e-03 0.0 
0.0 0.0 0.0 
8.383461853145e-05 5.739094141449e-06 0.0 
5.739094141449e-06 6.574429096573e-04 0.0 
0.0 0.0 0.0 
6.928898779712e-05 4.929871527618e-05 0.0 
4.929871527618e-05 9.679458089336e-04 0.0 
0.0 0.0 0.0 
1.307387467731e-05 -9.854439352498e-06 0.0 
-9.854439352498e-06 1.093218923460e-04 0.0 
0.0 0.0 0.0 
7.893624764477e-05 9.878033985686e-05 0.0 
9.878033985686e-05 9.737987199063e-04 0.0 
0.0 0.0 0.0 
-2.975299232777e-05 1.696808449354e-04 0.0 
1.696808449354e-04 1.155703970906e-03 0.0 
0.0 0.0 0.0 
1.429792905405e-05 -7.244265374507e-06 0.0 
-7.244265374507e-06 1.080881417881e-04 0.0 
0.0 0.0 0.0 
-4.284629930507e-05 5.902634911056e-05 0.0 
5.902634911056e-05 1.642445869563e-03 0.0 
0.0 0.0 0.0 
4.392308093015e-05 1.361200381487e-05 0.0 
1.361200381487e-05 2.638767190737e-04 0.0 
0.0 0.0 0.0 
-8.952904002502e-05 1.200808156393e-04 0.0 
1.200808156393e-04 1.389091179419e-03 0.0 
0.0 0.0 0.0 
-6.022330131938e-05 1.569375233349e-04 0.0 
1.569375233349e-04 1.229671308760e-03 0.0 
0.0 0.0 0.0 
1.019954567814e-04 6.477177605590e-05 0.0 
6.477177605590e-05 6.926767082982e-04 0.0 
0.0 0.0 0.0 
1.018156633852e-04 7.287005578906e-05 0.0 
7.287005578906e-05 8.171801834407e-04 0.0 
0.0 0.0 0.0 
-4.033757820088e-05 6.869715055898e-05 0.0 
6.869715055898e-05 1.663037608453e-03 0.0 
0.0 0.0 0.0 
9.475188546304e-05 8.114088656683e-05 0.0 
8.114088656683e-05 8.882602687281e-04 0.0 
0.0 0.0 0.0 
-2.021701624999e-06 1.772763432632e-04 0.0 
1.772763432632e-04 1.074501766957e-03 0.0 
0.0 0.0 0.0 
-1.372571557789e-05 1.733205329084e-04 0.0 
1.733205329084e-04 1.088167711698e-03 0.0 
0.0 0.0 0.0 
-1.084349236109e-04 1.620924940045e-04 0.0 
1.620924940045e-04 2.169554439377e-04 0.0 
0.0 0.0 0.0 
4.443246582486e-05 2.466449067175e-05 0.0 
2.466449067175e-05 2.165220968189e-04 0.0 
0.0 0.0 0.0 
-1.794909689412e-05 1.752743259684e-04 0.0 
1.752743259684e-04 1.375079964914e-03 0.0 
0.0 0.0 0.0 
-9.746790523235e-05 5.310444977921e-05 0.0 
5.310444977921e-05 1.422186254495e-03 0.0 
0.0 0.0 0.0 
-4.408406545919e-06 1.846740820431e-04 0.0 
1.846740820431e-04 1.371817343479e-03 0.0 
0.0 0.0 0.0 
6.228834987287e-05 1.692627825107e-04 0.0 
1.692627825107e-04 5.802127536580e-04 0.0 
0.0 0.0 0.0 
-6.502519767249e-05 1.026595950172e-04 0.0 
1.026595950172e-04 1.557201696892e-03 0.0 
0.0 0.0 0.0 
-2.514081864746e-05 1.756274216391e-04 0.0 
1.756274216391e-04 1.436068150412e-03 0.0 
0.0 0.0 0.0 
-9.565550325108e-05 3.465064657302e-05 0.0 
3.465064657302e-05 1.246890106505e-03 0.0 
0.0 0.0 0.0 
-1.542731519133e-05 1.783592481143e-04 0.0 
1.783592481143e-04 1.374523218028e-03 0.0 
0.0 0.0 0.0 
6.467319760972e-05 3.790339397984e-05 0.0 
3.790339397984e-05 9.697771614527e-04 0.0 
0.0 0.0 0.0 
-1.398283362708e-05 1.744604961649e-04 0.0 
1.744604961649e-04 1.199556740491e-03 0.0 
0.0 0.0 0.0 
9.636745410324e-05 2.561038449598e-05 0.0 
2.561038449598e-05 6.675173580308e-04 0.0 
0.0 0.0 0.0 
9.052989483327e-05 2.141280134445e-05 0.0 
2.141280134445e-05 7.097004863514e-04 0.0 
0.0 0.0 0.0 
-5.093798990263e-05 9.116667003663e-05 0.0 
9.116667003663e-05 1.667971546872e-03 0.0 
0.0 0.0 0.0 
1.066607632947e-04 6.439338294715e-05 0.0 
6.439338294715e-05 7.476225647047e-04 0.0 
0.0 0.0 0.0 
-4.603140329296e-05 1.640951191624e-04 0.0 
1.640951191624e-04 1.219730686744e-03 0.0 
0.0 0.0 0.0 
6.044560596563e-05 1.592149340642e-04 0.0 
1.592149340642e-04 9.214738183629e-04 0.0 
0.0 0.0 0.0 
8.485445966189e-05 8.911986808660e-05 0.0 
8.911986808660e-05 9.608605963494e-04 0.0 
0.0 0.0 0.0 
3.848472890899e-05 1.631580498668e-04 0.0 
1.631580498668e-04 9.318665755316e-04 0.0 
0.0 0.0 0.0 
1.032408567228e-04 7.830603202142e-05 0.0 
7.830603202142e-05 4.544970973912e-04 0.0 
0.0 0.0 0.0 
1.007061587728e-04 1.055680686039e-04 0.0 
1.055680686039e-04 8.144580665970e-04 0.0 
0.0 0.0 0.0 
1.027846352126e-04 1.003706366122e-04 0.0 
1.003706366122e-04 5.111156240556e-04 0.0 
0.0 0.0 0.0 
-7.419570574907e-05 1.320610930099e-04 0.0 
1.320610930099e-04 1.390797304254e-03 0.0 
0.0 0.0 0.0 
9.296042648854e-05 7.424310973635e-05 0.0 
7.424310973635e-05 5.152334017731e-04 0.0 
0.0 0.0 0.0 
-7.592572904713e-05 1.406893634585e-04 0.0 
1.406893634585e-04 1.340403466053e-03 0.0 
0.0 0.0 0.0 
4.002482945342e-05 1.559066023974e-04 0.0 
1.559066023974e-04 1.201232140859e-03 0.0 
0.0 0.0 0.0 
5.546913054588e-05 1.551963779838e-04 0.0 
1.551963779838e-04 1.136490187656e-03 0.0 
0.0 0.0 0.0 
5.133714287986e-05 1.682139597564e-04 0.0 
1.682139597564e-04 8.569533473495e-04 0.0 
0.0 0.0 0.0 
-8.028217045475e-05 5.417409891645e-05 0.0 
5.417409891645e-05 1.456189986095e-03 0.0 
0.0 0.0 0.0 
6.246733397375e-05 4.518641516899e-05 0.0 
4.518641516899e-05 9.961522911901e-04 0.0 
0.0 0.0 0.0 
5.882957712755e-05 3.397083823773e-05 0.0 
3.397083823773e-05 9.979772121873e-04 0.0 
0.0 0.0 0.0 
1.817674909943e-05 8.664713337590e-05 0.0 
8.664713337590e-05 3.123705583328e-04 0.0 
0.0 0.0 0.0 
-6.047230003836e-05 1.506589275613e-04 0.0 
1.506589275613e-04 1.336621359878e-03 0.0 
0.0 0.0 0.0 
4.211435451329e-05 4.605783045316e-05 0.0 
4.605783045316e-05 1.101983300359e-03 0.0 
0.0 0.0 0.0 
-9.715383468012e-05 9.981200124875e-05 0.0 
9.981200124875e-05 1.023973883169e-03 0.0 
0.0 0.0 0.0 
8.339243684397e-05 1.175201029803e-05 0.0 
1.175201029803e-05 7.222846035064e-04 0.0 
0.0 0.0 0.0 
-9.583811527913e-05 1.258287672851e-04 0.0 
1.258287672851e-04 3.102410195717e-04 0.0 
0.0 0.0 0.0 
5.557838536396e-05 4.063307321702e-05 0.0 
4.063307321702e-05 1.024919916869e-03 0.0 
0.0 0.0 0.0 
9.865540590037e-05 9.166878612852e-05 0.0 
9.166878612852e-05 4.417468362967e-04 0.0 
0.0 0.0 0.0 
7.818661792047e-05 5.981643706463e-06 0.0 
5.981643706463e-06 6.863121289113e-04 0.0 
0.0 0.0 0.0 
3.844150666188e-05 1.698177209891e-04 0.0 
1.698177209891e-04 1.123267813697e-03 0.0 
0.0 0.0 0.0 
-9.163989967920e-05 5.141548567934e-05 0.0 
5.141548567934e-05 1.456596091903e-03 0.0 
0.0 0.0 0.0 
-8.664793598079e-05 5.512660739479e-05 0.0 
5.512660739479e-05 1.421877053139e-03 0.0 
0.0 0.0 0.0 
-1.715770399324e-05 1.747805403388e-04 0.0 
1.747805403388e-04 1.143420715190e-03 0.0 
0.0 0.0 0.0 
-1.028091141270e-04 3.197187339545e-05 0.0 
3.197187339545e-05 1.124846371045e-03 0.0 
0.0 0.0 0.0 
-1.020371125463e-04 2.952693871499e-05 0.0 
2.952693871499e-05 1.159466760858e-03 0.0 
0.0 0.0 0.0 
5.297228570811e-05 2.966018234770e-05 0.0 
2.966018234770e-05 1.026738619875e-03 0.0 
0.0 0.0 0.0 
9.022388452218e-05 7.101090351392e-05 0.0 
7.101090351392e-05 8.683170112387e-04 0.0 
0.0 0.0 0.0 
9.937082370848e-05 7.371379730020e-05 0.0 
7.371379730020e-05 7.618073047337e-04 0.0 
0.0 0.0 0.0 
8.563271352102e-05 1.130185382173e-04 0.0 
1.130185382173e-04 9.719985413903e-04 0.0 
0.0 0.0 0.0 
1.056389496121e-04 9.898011050843e-05 0.0 
9.898011050843e-05 7.445465441540e-04 0.0 
0.0 0.0 0.0 
8.732548470447e-05 8.778078541339e-05 0.0 
8.778078541339e-05 5.074359037747e-04 0.0 
0.0 0.0 0.0 
-9.032520216068e-05 2.418523570948e-05 0.0 
2.418523570948e-05 1.126462630195e-03 0.0 
0.0 0.0 0.0 
-1.003631542501e-04 4.323809416159e-05 0.0 
4.323809416159e-05 1.367858263074e-03 0.0 
0.0 0.0 0.0 
-5.582415897532e-05 2.946958161811e-07 0.0 
2.946958161811e-07 1.252930794965e-03 0.0 
0.0 0.0 0.0 
5.155848365024e-05 1.442466657672e-04 0.0 
1.442466657672e-04 1.138060785888e-03 0.0 
0.0 0.0 0.0 
5.514069089863e-05 1.535725189359e-04 0.0 
1.535725189359e-04 8.590552406471e-04 0.0 
0.0 0.0 0.0 
2.812184732970e-05 1.844554668512e-04 0.0 
1.844554668512e-04 1.327484950640e-03 0.0 
0.0 0.0 0.0 
5.329329124582e-05 1.757582736858e-05 0.0 
1.757582736858e-05 1.003936486062e-03 0.0 
0.0 0.0 0.0 
9.359104508788e-05 9.718397836299e-05 0.0 
9.718397836299e-05 8.051433975071e-04 0.0 
0.0 0.0 0.0 
2.987102328977e-05 4.246010424057e-05 0.0 
4.246010424057e-05 1.148954821832e-03 0.0 
0.0 0.0 0.0 
9.678685733094e-05 6.280372118187e-05 0.0 
6.280372118187e-05 5.270333164238e-04 0.0 
0.0 0.0 0.0 
2.421290707399e-05 1.849526419723e-04 0.0 
1.849526419723e-04 1.321872986441e-03 0.0 
0.0 0.0 0.0 
-1.231057720874e-05 1.711031617798e-04 0.0 
1.711031617798e-04 1.143946596744e-03 0.0 
0.0 0.0 0.0 
8.864879150750e-07 1.757664568009e-04 0.0 
1.757664568009e-04 1.191146276614e-03 0.0 
0.0 0.0 0.0 
5.570541896316e-05 1.169750651814e-04 0.0 
1.169750651814e-04 1.122679628876e-03 0.0 
0.0 0.0 0.0 
8.392670106550e-05 -2.792430905419e-06 0.0 
-2.792430905419e-06 4.922003966825e-04 0.0 
0.0 0.0 0.0 
-5.468317653656e-05 1.574449112401e-04 0.0 
1.574449112401e-04 1.280138357346e-03 0.0 
0.0 0.0 0.0 
9.911378782923e-05 8.114994780213e-05 0.0 
8.114994780213e-05 7.473003691418e-04 0.0 
0.0 0.0 0.0 
-6.946417778808e-05 1.486859255689e-04 0.0 
1.486859255689e-04 1.286689514004e-03 0.0 
0.0 0.0 0.0 
4.535560337326e-05 1.646528764782e-04 0.0 
1.646528764782e-04 6.656632884952e-04 0.0 
0.0 0.0 0.0 
1.466952362184e-05 1.767879947073e-04 0.0 
1.767879947073e-04 1.187119335927e-03 0.0 
0.0 0.0 0.0 
1.101542688879e-04 8.305459276830e-05 0.0 
8.305459276830e-05 6.897023504455e-04 0.0 
0.0 0.0 0.0 
9.074019441835e-05 3.092860634157e-05 0.0 
3.092860634157e-05 7.599603860045e-04 0.0 
0.0 0.0 0.0 
-6.847222693873e-05 1.460117385553e-04 0.0 
1.460117385553e-04 1.287042363160e-03 0.0 
0.0 0.0 0.0 
-6.155824321841e-05 7.549037079287e-05 0.0 
7.549037079287e-05 1.890359150161e-04 0.0 
0.0 0.0 0.0 
5.619394945255e-05 1.605114664310e-04 0.0 
1.605114664310e-04 9.899470811108e-04 0.0 
0.0 0.0 0.0 
-4.432506113528e-05 1.229515054208e-04 0.0 
1.229515054208e-04 3.565455620729e-04 0.0 
0.0 0.0 0.0 
1.683205129477e-05 -9.451422534051e-06 0.0 
-9.451422534051e-06 1.722622838438e-04 0.0 
0.0 0.0 0.0 
8.949812907844e-05 2.318794976433e-05 0.0 
2.318794976433e-05 7.202349840394e-04 0.0 
0.0 0.0 0.0 
-4.801957759382e-05 1.596644011502e-04 0.0 
1.596644011502e-04 1.439635954836e-03 0.0 
0.0 0.0 0.0 
-8.664252702906e-05 6.689976941142e-05 0.0 
6.689976941142e-05 1.439380241685e-03 0.0 
0.0 0.0 0.0 
-1.012392118056e-04 4.382897844883e-05 0.0 
4.382897844883e-05 1.055310752148e-03 0.0 
0.0 0.0 0.0 
0.0 8.390997893523e-05 0.0 
8.390997893523e-05 1.778624631105e-03 0.0 
0.0 0.0 0.0 
-1.069393459641e-04 1.403705416274e-04 0.0 
1.403705416274e-04 1.266865232614e-04 0.0 
0.0 0.0 0.0 
-1.010957018229e-04 3.885491662667e-05 0.0 
3.885491662667e-05 1.091503301970e-03 0.0 
0.0 0.0 0.0 
1.059905659944e-04 8.322097669230e-05 0.0 
8.322097669230e-05 7.754536260185e-04 0.0 
0.0 0.0 0.0 
8.187767902279e-05 5.666062347553e-06 0.0 
5.666062347553e-06 6.842986792348e-04 0.0 
0.0 0.0 0.0 
-1.136248023627e-04 6.697834594453e-05 0.0 
6.697834594453e-05 1.190032353392e-03 0.0 
0.0 0.0 0.0 
1.084032243404e-04 4.919111707668e-05 0.0 
4.919111707668e-05 5.066232142366e-04 0.0 
0.0 0.0 0.0 
9.622056439751e-05 6.209590158394e-05 0.0 
6.209590158394e-05 7.974444504080e-04 0.0 
0.0 0.0 0.0 
-2.678288946278e-05 1.685719483045e-04 0.0 
1.685719483045e-04 1.209583781596e-03 0.0 
0.0 0.0 0.0 
5.149210050925e-05 1.626777694722e-04 0.0 
1.626777694722e-04 1.058542483518e-03 0.0 
0.0 0.0 0.0 
-4.931533324881e-05 1.448403470748e-04 0.0 
1.448403470748e-04 1.535817433698e-03 0.0 
0.0 0.0 0.0 
5.154042759736e-05 1.054699972124e-04 0.0 
1.054699972124e-04 2.977286614423e-04 0.0 
0.0 0.0 0.0 
9.033182085671e-05 1.741450983951e-05 0.0 
1.741450983951e-05 6.555987479886e-04 0.0 
0.0 0.0 0.0 
8.457447959853e-05 1.622079601517e-05 0.0 
1.622079601517e-05 7.098060050812e-04 0.0 
0.0 0.0 0.0 
5.871431215065e-05 -2.156338269763e-05 0.0 
-2.156338269763e-05 3.596197343276e-04 0.0 
0.0 0.0 0.0 
-9.417019920488e-05 3.502126649339e-05 0.0 
3.502126649339e-05 1.280836010517e-03 0.0 
0.0 0.0 0.0 
-9.754112757487e-05 6.608896597548e-05 0.0 
6.608896597548e-05 1.439547470002e-03 0.0 
0.0 0.0 0.0 
6.480944926213e-05 -1.005011579689e-06 0.0 
-1.005011579689e-06 8.991107983967e-04 0.0 
0.0 0.0 0.0 
5.551278458249e-06 -7.908272176449e-06 0.0 
-7.908272176449e-06 1.099892164818e-04 0.0 
0.0 0.0 0.0 
-5.874153958429e-05 -1.709158166568e-05 0.0 
-1.709158166568e-05 9.543439171167e-05 0.0 
0.0 0.0 0.0 
3.190499458361e-05 -2.824875233296e-05 0.0 
-2.824875233296e-05 2.472699814322e-04 0.0 
0.0 0.0 0.0 
7.994825814350e-05 5.365520069349e-06 0.0 
5.365520069349e-06 7.116106526022e-04 0.0 
0.0 0.0 0.0 
9.951081367388e-05 7.293871574786e-05 0.0 
7.293871574786e-05 5.959574274870e-04 0.0 
0.0 0.0 0.0 
9.600905592633e-05 3.481692014790e-05 0.0 
3.481692014790e-05 4.914298642791e-04 0.0 
0.0 0.0 0.0 
9.095255002234e-05 5.147390643813e-05 0.0 
5.147390643813e-05 4.585776758177e-04 0.0 
0.0 0.0 0.0 
8.580884380538e-05 2.195822342230e-05 0.0 
2.195822342230e-05 7.472815748302e-04 0.0 
0.0 0.0 0.0 
-8.194766067393e-05 9.401022340105e-05 0.0 
9.401022340105e-05 1.467078548838e-03 0.0 
0.0 0.0 0.0 
8.155812312993e-05 1.523843799094e-05 0.0 
1.523843799094e-05 7.375550643482e-04 0.0 
0.0 0.0 0.0 
1.078912817329e-04 9.530429069781e-05 0.0 
9.530429069781e-05 5.922468934321e-04 0.0 
0.0 0.0 0.0 
-6.275709628412e-05 1.512109790834e-04 0.0 
1.512109790834e-04 1.336559191689e-03 0.0 
0.0 0.0 0.0 
-7.225880321793e-05 1.969598987594e-05 0.0 
1.969598987594e-05 1.354959067685e-03 0.0 
0.0 0.0 0.0 
3.414959626813e-05 1.728238348713e-04 0.0 
1.728238348713e-04 1.191644434964e-03 0.0 
0.0 0.0 0.0 
7.795889851359e-05 4.596980063184e-06 0.0 
4.596980063184e-06 7.393596224101e-04 0.0 
0.0 0.0 0.0 
8.064095434679e-05 1.090668870301e-05 0.0 
1.090668870301e-05 7.492579047743e-04 0.0 
0.0 0.0 0.0 
-1.008828035787e-04 6.144272171550e-05 0.0 
6.144272171550e-05 9.859001657493e-04 0.0 
0.0 0.0 0.0 
1.016455446006e-04 6.353574704642e-05 0.0 
6.353574704642e-05 6.092682975216e-04 0.0 
0.0 0.0 0.0 
7.850813594623e-05 1.366578572504e-05 0.0 
1.366578572504e-05 7.653106061192e-04 0.0 
0.0 0.0 0.0 
-4.559035136265e-05 5.525626996828e-06 0.0 
5.525626996828e-06 1.476830090432e-03 0.0 
0.0 0.0 0.0 
-4.967306371595e-05 5.281493626388e-06 0.0 
5.281493626388e-06 1.420358023911e-03 0.0 
0.0 0.0 0.0 
-9.963013090541e-05 5.342757215860e-05 0.0 
5.342757215860e-05 1.021855741130e-03 0.0 
0.0 0.0 0.0 
8.204312259008e-05 2.055748648310e-05 0.0 
2.055748648310e-05 7.749726527191e-04 0.0 
0.0 0.0 0.0 
9.077582255235e-05 1.328667836939e-05 0.0 
1.328667836939e-05 4.655609288648e-04 0.0 
0.0 0.0 0.0 
3.423089152799e-06 1.679326386878e-04 0.0 
1.679326386878e-04 4.136790534384e-04 0.0 
0.0 0.0 0.0 
1.930197315048e-05 1.762779172031e-04 0.0 
1.762779172031e-04 1.323895547532e-03 0.0 
0.0 0.0 0.0 
3.209126469095e-05 -1.594237946888e-05 0.0 
-1.594237946888e-05 2.234799214773e-04 0.0 
0.0 0.0 0.0 
1.026154977106e-04 2.848512553704e-05 0.0 
2.848512553704e-05 4.844197801923e-04 0.0 
0.0 0.0 0.0 
4.699896753202e-05 1.542190204299e-04 0.0 
1.542190204299e-04 9.914935115258e-04 0.0 
0.0 0.0 0.0 
-8.672347822480e-05 2.900480453705e-05 0.0 
2.900480453705e-05 1.059492446367e-03 0.0 
0.0 0.0 0.0 
7.606361055501e-05 3.176677061550e-06 0.0 
3.176677061550e-06 7.679568689216e-04 0.0 
0.0 0.0 0.0 
4.727956787720e-05 -7.525724266156e-06 0.0 
-7.525724266156e-06 3.350422814550e-04 0.0 
0.0 0.0 0.0 
-1.000513716378e-04 3.171486354842e-05 0.0 
3.171486354842e-05 1.308418784508e-03 0.0 
0.0 0.0 0.0 
7.778024020322e-05 9.801667046934e-06 0.0 
9.801667046934e-06 7.768840283902e-04 0.0 
0.0 0.0 0.0 
1.014675740330e-04 5.849927492745e-05 0.0 
5.849927492745e-05 7.097303363923e-04 0.0 
0.0 0.0 0.0 
8.605163351438e-05 1.238786775307e-05 0.0 
1.238786775307e-05 6.959629865464e-04 0.0 
0.0 0.0 0.0 
-4.349422687644e-05 4.392988334695e-05 0.0 
4.392988334695e-05 1.657061122933e-04 0.0 
0.0 0.0 0.0 
-3.023149391113e-05 -8.375959597521e-07 0.0 
-8.375959597521e-07 1.650368496593e-03 0.0 
0.0 0.0 0.0 
1.010352680149e-04 3.924166760845e-05 0.0 
3.924166760845e-05 5.752636740897e-04 0.0 
0.0 0.0 0.0 
5.596238499983e-05 1.485921109571e-04 0.0 
1.485921109571e-04 1.162728831411e-03 0.0 
0.0 0.0 0.0 
2.832018227927e-06 1.702408304382e-04 0.0 
1.702408304382e-04 1.192153011521e-03 0.0 
0.0 0.0 0.0 
7.820163423000e-05 1.885881510293e-05 0.0 
1.885881510293e-05 8.030552855318e-04 0.0 
0.0 0.0 0.0 
7.497735467532e-05 8.435502367434e-06 0.0 
8.435502367434e-06 8.048719532152e-04 0.0 
0.0 0.0 0.0 
1.097735997757e-04 7.601066709556e-05 0.0 
7.601066709556e-05 5.376289508348e-04 0.0 
0.0 0.0 0.0 
-1.006464972475e-06 -1.604429990372e-05 0.0 
-1.604429990372e-05 1.536470737233e-04 0.0 
0.0 0.0 0.0 
-2.001457478440e-05 7.911648251418e-05 0.0 
7.911648251418e-05 1.585117451552e-04 0.0 
0.0 0.0 0.0 
7.441390939422e-05 1.646594565158e-05 0.0 
1.646594565158e-05 8.315165619917e-04 0.0 
0.0 0.0 0.0 
6.173048426406e-05 1.302152763463e-04 0.0 
1.302152763463e-04 1.123153660601e-03 0.0 
0.0 0.0 0.0 
8.362925712757e-05 -1.301094391119e-06 0.0 
-1.301094391119e-06 4.473421442166e-04 0.0 
0.0 0.0 0.0 
-4.725791796489e-05 1.607880466824e-04 0.0 
1.607880466824e-04 1.331654570772e-03 0.0 
0.0 0.0 0.0 
-9.245544049907e-05 1.158164617871e-04 0.0 
1.158164617871e-04 9.749664312177e-04 0.0 
0.0 0.0 0.0 
-6.802704802311e-05 1.450775326029e-04 0.0 
1.450775326029e-04 1.389773952541e-03 0.0 
0.0 0.0 0.0 
3.578831529527e-05 1.113670939609e-04 0.0 
1.113670939609e-04 1.224910231008e-03 0.0 
0.0 0.0 0.0 
-1.444106728532e-04 -3.655153862597e-06 0.0 
-3.655153862597e-06 7.939642053856e-05 0.0 
0.0 0.0 0.0 
0.0 7.172303322311e-06 0.0 
7.172303322311e-06 1.802406340627e-03 0.0 
0.0 0.0 0.0 
0.0 1.382167650696e-05 0.0 
1.382167650696e-05 1.242525054358e-03 0.0 
0.0 0.0 0.0 
-5.305993818605e-05 -4.585254445760e-06 0.0 
-4.585254445760e-06 1.320143148104e-03 0.0 
0.0 0.0 0.0 
9.671228405694e-05 2.036407468177e-05 0.0 
2.036407468177e-05 5.504568035994e-04 0.0 
0.0 0.0 0.0 
-1.097408048689e-05 1.703304141670e-04 0.0 
1.703304141670e-04 1.200218663531e-03 0.0 
0.0 0.0 0.0 
9.589138495758e-05 8.395453874694e-05 0.0 
8.395453874694e-05 5.850095719138e-04 0.0 
0.0 0.0 0.0 
1.061603594188e-05 -2.185190960195e-05 0.0 
-2.185190960195e-05 1.495676816876e-04 0.0 
0.0 0.0 0.0 
-9.428214111096e-05 1.063553150340e-04 0.0 
1.063553150340e-04 2.166454022317e-04 0.0 
0.0 0.0 0.0 
-2.729281639569e-05 2.086165630263e-05 0.0 
2.086165630263e-05 1.698313762963e-03 0.0 
0.0 0.0 0.0 
-9.607726529359e-05 7.983543462247e-05 0.0 
7.983543462247e-05 1.455161992591e-03 0.0 
0.0 0.0 0.0 
-1.001169617555e-04 2.384081725189e-05 0.0 
2.384081725189e-05 1.262706779762e-03 0.0 
0.0 0.0 0.0 
-2.752848087817e-06 2.170342978363e-04 0.0 
2.170342978363e-04 1.550327231462e-03 0.0 
0.0 0.0 0.0 
3.756958298218e-05 -7.583133712167e-06 0.0 
-7.583133712167e-06 2.777122057609e-04 0.0 
0.0 0.0 0.0 
3.803489565524e-07 2.170393035800e-04 0.0 
2.170393035800e-04 1.523821706016e-03 0.0 
0.0 0.0 0.0 
-8.519885756952e-05 8.050770334916e-05 0.0 
8.050770334916e-05 1.454968027456e-03 0.0 
0.0 0.0 0.0 
9.048866332884e-05 6.661143344308e-06 0.0 
6.661143344308e-06 5.315990266637e-04 0.0 
0.0 0.0 0.0 
-6.759433928138e-07 1.757968529518e-04 0.0 
1.757968529518e-04 1.132653402847e-03 0.0 
0.0 0.0 0.0 
1.019422946220e-04 2.452687360935e-05 0.0 
2.452687360935e-05 5.060186606001e-04 0.0 
0.0 0.0 0.0 
1.637469491111e-06 1.818700265167e-04 0.0 
1.818700265167e-04 5.055561797296e-04 0.0 
0.0 0.0 0.0 
9.467197900270e-05 1.360219572673e-05 0.0 
1.360219572673e-05 4.672900873905e-04 0.0 
0.0 0.0 0.0 
-7.689592006044e-05 1.080749158320e-04 0.0 
1.080749158320e-04 1.476163480521e-03 0.0 
0.0 0.0 0.0 
4.670019608621e-05 1.221221329492e-05 0.0 
1.221221329492e-05 1.044368409641e-03 0.0 
0.0 0.0 0.0 
1.083032062494e-04 4.250011158359e-05 0.0 
4.250011158359e-05 5.259720861628e-04 0.0 
0.0 0.0 0.0 
-5.187566849429e-05 1.559707229825e-04 0.0 
1.559707229825e-04 1.387237503021e-03 0.0 
0.0 0.0 0.0 
-9.246798972840e-05 -6.608193362134e-06 0.0 
-6.608193362134e-06 5.168186660343e-05 0.0 
0.0 0.0 0.0 
1.110576626417e-04 6.619647431114e-05 0.0 
6.619647431114e-05 5.536286331731e-04 0.0 
0.0 0.0 0.0 
-8.102512345265e-05 8.695107695488e-05 0.0 
8.695107695488e-05 1.544612369747e-03 0.0 
0.0 0.0 0.0 
8.602095272403e-05 3.907458943032e-06 0.0 
3.907458943032e-06 4.526054029024e-04 0.0 
0.0 0.0 0.0 
7.496346130287e-05 -1.078686325669e-05 0.0 
-1.078686325669e-05 4.096781055074e-04 0.0 
0.0 0.0 0.0 
3.621697732159e-06 1.701917135714e-04 0.0 
1.701917135714e-04 1.133543272923e-03 0.0 
0.0 0.0 0.0 
4.395694233295e-05 -3.680632220221e-06 0.0 
-3.680632220221e-06 2.218649004873e-04 0.0 
0.0 0.0 0.0 
-1.050350739167e-04 8.603335991503e-05 0.0 
8.603335991503e-05 9.234368179503e-04 0.0 
0.0 0.0 0.0 
-9.395219184249e-05 7.564872286162e-05 0.0 
7.564872286162e-05 9.509043434761e-04 0.0 
0.0 0.0 0.0 
7.646412746598e-05 -2.931755862738e-06 0.0 
-2.931755862738e-06 3.938057887283e-04 0.0 
0.0 0.0 0.0 
9.828893595332e-05 6.756261084519e-05 0.0 
6.756261084519e-05 7.784580854071e-04 0.0 
0.0 0.0 0.0 
4.806520606060e-05 1.673458363628e-04 0.0 
1.673458363628e-04 9.234651711216e-04 0.0 
0.0 0.0 0.0 
-5.552818955035e-05 1.547709625843e-04 0.0 
1.547709625843e-04 1.387386323597e-03 0.0 
0.0 0.0 0.0 
-3.380069937442e-05 1.384900035486e-04 0.0 
1.384900035486e-04 1.624191649715e-03 0.0 
0.0 0.0 0.0 
-7.894725966573e-05 3.664566291346e-05 0.0 
3.664566291346e-05 9.908393252087e-04 0.0 
0.0 0.0 0.0 
-4.060269701467e-05 -2.840062601843e-06 0.0 
-2.840062601843e-06 1.536472871735e-03 0.0 
0.0 0.0 0.0 
-2.050006225596e-05 1.742708490818e-04 0.0 
1.742708490818e-04 1.540221503179e-03 0.0 
0.0 0.0 0.0 
1.071606611027e-04 8.743235979914e-05 0.0 
8.743235979914e-05 5.231021441801e-04 0.0 
0.0 0.0 0.0 
-3.860536904765e-05 1.646305392753e-04 0.0 
1.646305392753e-04 3.580558131229e-04 0.0 
0.0 0.0 0.0 
-1.072311482653e-04 1.238853428496e-04 0.0 
1.238853428496e-04 1.019778388766e-03 0.0 
0.0 0.0 0.0 
1.000586177131e-04 5.308926262962e-05 0.0 
5.308926262962e-05 7.285169819531e-04 0.0 
0.0 0.0 0.0 
-6.420242681504e-05 1.398694582844e-04 0.0 
1.398694582844e-04 1.439308815312e-03 0.0 
0.0 0.0 0.0 
1.086408099902e-04 6.930670604164e-05 0.0 
6.930670604164e-05 7.260069100425e-04 0.0 
0.0 0.0 0.0 
3.886034869893e-06 6.975901526403e-05 0.0 
6.975901526403e-05 2.590639488429e-04 0.0 
0.0 0.0 0.0 
9.286712362333e-05 7.593252834940e-05 0.0 
7.593252834940e-05 8.480315754118e-04 0.0 
0.0 0.0 0.0 
-1.232460006173e-05 1.934143309048e-04 0.0 
1.934143309048e-04 6.069193879101e-04 0.0 
0.0 0.0 0.0 
5.134414561736e-05 1.537626122881e-04 0.0 
1.537626122881e-04 9.253880846483e-04 0.0 
0.0 0.0 0.0 
1.045597164804e-04 7.781145576955e-05 0.0 
7.781145576955e-05 7.949723894833e-04 0.0 
0.0 0.0 0.0 
1.428585736707e-05 1.753417956542e-04 0.0 
1.753417956542e-04 1.125432092265e-03 0.0 
0.0 0.0 0.0 
-4.870994124939e-05 3.116963112876e-06 0.0 
3.116963112876e-06 1.462515361478e-03 0.0 
0.0 0.0 0.0 
6.730224153806e-05 -1.692809498149e-05 0.0 
-1.692809498149e-05 3.957608689731e-04 0.0 
0.0 0.0 0.0 
2.640925093500e-06 1.454618109227e-04 0.0 
1.454618109227e-04 3.276374900463e-04 0.0 
0.0 0.0 0.0 
9.833449844820e-05 8.610715670049e-05 0.0 
8.610715670049e-05 8.660113792589e-04 0.0 
0.0 0.0 0.0 
-3.188031014756e-05 1.885738850019e-04 0.0 
1.885738850019e-04 7.082545900710e-04 0.0 
0.0 0.0 0.0 
-4.511872235746e-05 1.924743131326e-05 0.0 
1.924743131326e-05 9.160171979339e-05 0.0 
0.0 0.0 0.0 
-1.846952415141e-05 7.493576381256e-06 0.0 
7.493576381256e-06 1.705275593487e-03 0.0 
0.0 0.0 0.0 
-2.709698739511e-05 7.243119346791e-06 0.0 
7.243119346791e-06 1.650687084058e-03 0.0 
0.0 0.0 0.0 
-2.265977370530e-05 -1.579711088464e-05 0.0 
-1.579711088464e-05 6.820703239496e-05 0.0 
0.0 0.0 0.0 
8.538108394296e-05 8.441100127998e-05 0.0 
8.441100127998e-05 9.194654346638e-04 0.0 
0.0 0.0 0.0 
4.596307608540e-05 -2.537262203253e-05 0.0 
-2.537262203253e-05 3.031029001879e-04 0.0 
0.0 0.0 0.0 
5.647615278015e-05 -1.048560141659e-05 0.0 
-1.048560141659e-05 3.241764497337e-04 0.0 
0.0 0.0 0.0 
-4.270401216933e-05 1.622432464249e-04 0.0 
1.622432464249e-04 1.439465682236e-03 0.0 
0.0 0.0 0.0 
1.716111159178e-05 1.671583581493e-04 0.0 
1.671583581493e-04 1.126529721536e-03 0.0 
0.0 0.0 0.0 
-3.956681734241e-05 1.655112253957e-04 0.0 
1.655112253957e-04 1.384263456072e-03 0.0 
0.0 0.0 0.0 
1.006502159830e-04 4.560449910349e-05 0.0 
4.560449910349e-05 5.575049287339e-04 0.0 
0.0 0.0 0.0 
-5.892911615490e-05 1.297968131541e-06 0.0 
1.297968131541e-06 1.254000869776e-03 0.0 
0.0 0.0 0.0 
1.768176352823e-05 9.054857734312e-05 0.0 
9.054857734312e-05 1.210809631610e-03 0.0 
0.0 0.0 0.0 
4.263699307749e-05 -1.359976247067e-05 0.0 
-1.359976247067e-05 2.672647008075e-04 0.0 
0.0 0.0 0.0 
5.142104697131e-05 1.396460103712e-04 0.0 
1.396460103712e-04 1.145352177338e-03 0.0 
0.0 0.0 0.0 
3.539905104799e-05 1.621017892636e-04 0.0 
1.621017892636e-04 9.956057689329e-04 0.0 
0.0 0.0 0.0 
3.024019412790e-05 -1.948566882151e-06 0.0 
-1.948566882151e-06 2.079417725005e-04 0.0 
0.0 0.0 0.0 
-7.342717239789e-05 1.262964692173e-04 0.0 
1.262964692173e-04 1.437264311370e-03 0.0 
0.0 0.0 0.0 
1.105513414164e-04 8.436695325725e-05 0.0 
8.436695325725e-05 6.056081701680e-04 0.0 
0.0 0.0 0.0 
-5.045111556634e-06 -2.088197422535e-05 0.0 
-2.088197422535e-05 1.171169470817e-04 0.0 
0.0 0.0 0.0 
1.077556488092e-04 5.721805545695e-05 0.0 
5.721805545695e-05 4.881076841796e-04 0.0 
0.0 0.0 0.0 
6.899367629765e-05 5.414077235112e-06 0.0 
5.414077235112e-06 8.688583718897e-04 0.0 
0.0 0.0 0.0 
-8.689289391117e-05 1.083181256997e-04 0.0 
1.083181256997e-04 1.476243329058e-03 0.0 
0.0 0.0 0.0 
1.877975267317e-05 -3.177544072301e-05 0.0 
-3.177544072301e-05 2.048274070563e-04 0.0 
0.0 0.0 0.0 
7.790296290167e-05 -1.151162041312e-06 0.0 
-1.151162041312e-06 6.878536292809e-04 0.0 
0.0 0.0 0.0 
-5.404706591872e-05 1.519437884069e-04 0.0 
1.519437884069e-04 1.440164068649e-03 0.0 
0.0 0.0 0.0 
2.004427968849e-05 1.707415576536e-04 0.0 
1.707415576536e-04 1.256109104849e-03 0.0 
0.0 0.0 0.0 
8.606260161770e-05 4.068280756946e-06 0.0 
4.068280756946e-06 4.294311458690e-04 0.0 
0.0 0.0 0.0 
4.939875924070e-05 2.243806884930e-06 0.0 
2.243806884930e-06 3.352582245089e-04 0.0 
0.0 0.0 0.0 
4.500383387707e-05 1.671444805058e-04 0.0 
1.671444805058e-04 9.897179777909e-04 0.0 
0.0 0.0 0.0 
-4.699802660890e-05 -4.765386276537e-06 0.0 
-4.765386276537e-06 1.443986042266e-03 0.0 
0.0 0.0 0.0 
-8.832659153413e-06 -2.235123856642e-05 0.0 
-2.235123856642e-05 1.166770387031e-04 0.0 
0.0 0.0 0.0 
-1.864263973583e-05 1.943912436603e-04 0.0 
1.943912436603e-04 1.567571386855e-03 0.0 
0.0 0.0 0.0 
-1.968278560249e-05 1.258217155853e-04 0.0 
1.258217155853e-04 1.690786641374e-03 0.0 
0.0 0.0 0.0 
-5.115724134042e-05 -3.473150004320e-06 0.0 
-3.473150004320e-06 1.357732122162e-03 0.0 
0.0 0.0 0.0 
-2.981318353534e-05 5.684652859059e-05 0.0 
5.684652859059e-05 1.730395595843e-03 0.0 
0.0 0.0 0.0 
-1.722774697221e-05 1.485497273352e-04 0.0 
1.485497273352e-04 1.664390480946e-03 0.0 
0.0 0.0 0.0 
1.114570517315e-04 5.844317632135e-05 0.0 
5.844317632135e-05 5.717076621972e-04 0.0 
0.0 0.0 0.0 
9.707834374151e-05 2.386397973497e-05 0.0 
2.386397973497e-05 5.294734390153e-04 0.0 
0.0 0.0 0.0 
2.670931700099e-05 1.742015659750e-04 0.0 
1.742015659750e-04 1.325754227866e-03 0.0 
0.0 0.0 0.0 
-8.766769670898e-05 4.571527956862e-06 0.0 
4.571527956862e-06 5.488078818994e-05 0.0 
0.0 0.0 0.0 
4.291632120501e-05 5.059696269720e-06 0.0 
5.059696269720e-06 3.039650692487e-04 0.0 
0.0 0.0 0.0 
7.573317388854e-05 6.491448134579e-06 0.0 
6.491448134579e-06 7.034416486185e-04 0.0 
0.0 0.0 0.0 
7.583810200362e-05 -1.053161112230e-05 0.0 
-1.053161112230e-05 4.321356579138e-04 0.0 
0.0 0.0 0.0 
1.027773519289e-04 3.322971663049e-05 0.0 
3.322971663049e-05 4.629196710082e-04 0.0 
0.0 0.0 0.0 
-1.114461982736e-04 1.263863833513e-04 0.0 
1.263863833513e-04 8.295976254091e-04 0.0 
0.0 0.0 0.0 
-1.004670796152e-04 1.259700131390e-04 0.0 
1.259700131390e-04 8.668701112351e-04 0.0 
0.0 0.0 0.0 
-7.183941029199e-05 9.976870700482e-06 0.0 
9.976870700482e-06 1.363102558245e-03 0.0 
0.0 0.0 0.0 
9.934110573862e-05 5.339069293305e-05 0.0 
5.339069293305e-05 5.414667580985e-04 0.0 
0.0 0.0 0.0 
5.357217826263e-05 -2.165043003181e-06 0.0 
-2.165043003181e-06 3.581702728108e-04 0.0 
0.0 0.0 0.0 
1.398495174598e-05 1.793053344252e-04 0.0 
1.793053344252e-04 1.250085800911e-03 0.0 
0.0 0.0 0.0 
1.710631915164e-05 7.689049005846e-05 0.0 
7.689049005846e-05 1.265277785521e-03 0.0 
0.0 0.0 0.0 
1.593536465250e-05 8.698353390066e-05 0.0 
8.698353390066e-05 1.268869307315e-03 0.0 
0.0 0.0 0.0 
1.074711175479e-04 3.757038281820e-05 0.0 
3.757038281820e-05 5.471971746915e-04 0.0 
0.0 0.0 0.0 
-7.657878561107e-05 1.522309999507e-05 0.0 
1.522309999507e-05 1.313232272204e-03 0.0 
0.0 0.0 0.0 
-9.032393620456e-05 3.468863218824e-06 0.0 
3.468863218824e-06 9.014383106609e-05 0.0 
0.0 0.0 0.0 
-1.041232622496e-04 1.500465852197e-04 0.0 
1.500465852197e-04 6.144329445008e-04 0.0 
0.0 0.0 0.0 
1.948830395615e-05 -1.632398792329e-05 0.0 
-1.632398792329e-05 2.210494385846e-04 0.0 
0.0 0.0 0.0 
-1.065666296757e-04 1.497608517156e-04 0.0 
1.497608517156e-04 7.248624039997e-04 0.0 
0.0 0.0 0.0 
3.195869148853e-05 1.614674971699e-04 0.0 
1.614674971699e-04 1.059024397393e-03 0.0 
0.0 0.0 0.0 
9.485549479948e-05 1.588618152280e-05 0.0 
1.588618152280e-05 4.451486139365e-04 0.0 
0.0 0.0 0.0 
9.688787341422e-05 2.864767352678e-05 0.0 
2.864767352678e-05 5.099658924388e-04 0.0 
0.0 0.0 0.0 
-3.815637634697e-05 -1.949894785968e-05 0.0 
-1.949894785968e-05 1.366359331445e-04 0.0 
0.0 0.0 0.0 
-2.399334781245e-05 7.312147504260e-06 0.0 
7.312147504260e-06 1.660868340625e-03 0.0 
0.0 0.0 0.0 
9.119198549934e-05 1.018167589680e-05 0.0 
1.018167589680e-05 4.871254605163e-04 0.0 
0.0 0.0 0.0 
-2.202409888341e-05 2.785119372388e-05 0.0 
2.785119372388e-05 1.697197013031e-03 0.0 
0.0 0.0 0.0 
-3.297061239638e-05 6.083858703054e-06 0.0 
6.083858703054e-06 1.614121251838e-03 0.0 
0.0 0.0 0.0 
-9.199801615178e-06 1.161985132730e-05 0.0 
1.161985132730e-05 1.800367913725e-03 0.0 
0.0 0.0 0.0 
1.413982728593e-05 1.826440108498e-05 0.0 
1.826440108498e-05 1.243629193009e-03 0.0 
0.0 0.0 0.0 
-5.247278999465e-05 4.379643446427e-06 0.0 
4.379643446427e-06 1.359554893640e-03 0.0 
0.0 0.0 0.0 
9.106926337443e-05 8.052308837888e-06 0.0 
8.052308837888e-06 5.088929245924e-04 0.0 
0.0 0.0 0.0 
-6.588819918762e-05 4.650000415650e-05 0.0 
4.650000415650e-05 9.194468253919e-04 0.0 
0.0 0.0 0.0 
1.008208068192e-04 2.204849800271e-05 0.0 
2.204849800271e-05 5.289482110058e-04 0.0 
0.0 0.0 0.0 
0.0 5.981042946342e-05 0.0 
5.981042946342e-05 1.258914910842e-03 0.0 
0.0 0.0 0.0 
-9.902540217455e-05 1.371718763057e-04 0.0 
1.371718763057e-04 4.081257176993e-04 0.0 
0.0 0.0 0.0 
-9.939668039216e-05 1.465005082863e-04 0.0 
1.465005082863e-04 5.116334671689e-04 0.0 
0.0 0.0 0.0 
4.151825938448e-05 1.533445268960e-04 0.0 
1.533445268960e-04 1.205389745367e-03 0.0 
0.0 0.0 0.0 
-6.756865685287e-05 8.323229484529e-06 0.0 
8.323229484529e-06 1.313002318500e-03 0.0 
0.0 0.0 0.0 
-2.009049392648e-05 1.988316112705e-05 0.0 
1.988316112705e-05 1.703691992913e-03 0.0 
0.0 0.0 0.0 
-5.958814715212e-05 1.499753464814e-04 0.0 
1.499753464814e-04 1.440293297309e-03 0.0 
0.0 0.0 0.0 
2.070470957127e-05 1.847142843429e-04 0.0 
1.847142843429e-04 1.316675657599e-03 0.0 
0.0 0.0 0.0 
-6.916973142057e-05 1.308969886980e-04 0.0 
1.308969886980e-04 1.531540121480e-03 0.0 
0.0 0.0 0.0 
-5.255768564616e-05 8.525573541996e-06 0.0 
8.525573541996e-06 1.371883134368e-03 0.0 
0.0 0.0 0.0 
6.554656428781e-05 -1.782403007997e-05 0.0 
-1.782403007997e-05 3.735639238980e-04 0.0 
0.0 0.0 0.0 
7.536045176937e-05 -2.772819208173e-06 0.0 
-2.772819208173e-06 3.715488483169e-04 0.0 
0.0 0.0 0.0 
-4.196937774681e-05 8.022956470850e-06 0.0 
8.022956470850e-06 1.504976984634e-03 0.0 
0.0 0.0 0.0 
8.234163718424e-06 1.748416972636e-04 0.0 
1.748416972636e-04 1.314053113287e-03 0.0 
0.0 0.0 0.0 
-8.746602983956e-05 1.648516524457e-05 0.0 
1.648516524457e-05 1.260806103275e-03 0.0 
0.0 0.0 0.0 
-5.460481867448e-05 1.086603331284e-06 0.0 
1.086603331284e-06 1.305685192962e-03 0.0 
0.0 0.0 0.0 
-5.355676660079e-05 8.431144591191e-07 0.0 
8.431144591191e-07 1.356582397303e-03 0.0 
0.0 0.0 0.0 
-5.703592190687e-05 -6.114797206212e-07 0.0 
-6.114797206212e-07 1.375279827857e-03 0.0 
0.0 0.0 0.0 
2.096849478050e-05 8.852324210316e-06 0.0 
8.852324210316e-06 1.849011714279e-04 0.0 
0.0 0.0 0.0 
6.449431526145e-05 -8.762328965714e-06 0.0 
-8.762328965714e-06 3.366662253479e-04 0.0 
0.0 0.0 0.0 
-1.948653380435e-05 3.670102112568e-05 0.0 
3.670102112568e-05 1.752683568804e-03 0.0 
0.0 0.0 0.0 
-5.337415837514e-05 2.761788181662e-06 0.0 
2.761788181662e-06 1.435564489339e-03 0.0 
0.0 0.0 0.0 
1.629129661329e-05 1.931096919014e-04 0.0 
1.931096919014e-04 1.392947651425e-03 0.0 
0.0 0.0 0.0 
-4.938888409889e-05 1.411518980213e-04 0.0 
1.411518980213e-04 1.623821967115e-03 0.0 
0.0 0.0 0.0 
-8.076108722277e-05 1.271322332245e-04 0.0 
1.271322332245e-04 1.437172307361e-03 0.0 
0.0 0.0 0.0 
-3.948941154797e-05 6.057828004030e-05 0.0 
6.057828004030e-05 1.693624293464e-03 0.0 
0.0 0.0 0.0 
7.511853594155e-05 1.206011000454e-06 0.0 
1.206011000454e-06 5.095101240151e-04 0.0 
0.0 0.0 0.0 
6.602350968121e-05 -5.634593975537e-07 0.0 
-5.634593975537e-07 4.623900749947e-04 0.0 
0.0 0.0 0.0 
3.917581888380e-05 9.103247049887e-05 0.0 
9.103247049887e-05 1.151647978514e-03 0.0 
0.0 0.0 0.0 
-3.967757209300e-05 -9.877975943304e-06 0.0 
-9.877975943304e-06 7.693746013171e-05 0.0 
0.0 0.0 0.0 
4.298527853419e-05 -7.198280504787e-06 0.0 
-7.198280504787e-06 3.217283174892e-04 0.0 
0.0 0.0 0.0 
0.0 2.070387135220e-04 0.0 
2.070387135220e-04 1.536604533428e-03 0.0 
0.0 0.0 0.0 
1.972865220301e-05 -7.193581021397e-06 0.0 
-7.193581021397e-06 1.537920644561e-04 0.0 
0.0 0.0 0.0 
-5.337026086305e-05 1.713700976485e-06 0.0 
1.713700976485e-06 1.305986206671e-03 0.0 
0.0 0.0 0.0 
4.199841023489e-05 1.507271759939e-04 0.0 
1.507271759939e-04 1.234955395269e-03 0.0 
0.0 0.0 0.0 
-1.118093190666e-05 -1.175404011345e-05 0.0 
-1.175404011345e-05 1.066930790983e-04 0.0 
0.0 0.0 0.0 
-1.129671165689e-05 -9.554894503317e-06 0.0 
-9.554894503317e-06 5.871609360297e-05 0.0 
0.0 0.0 0.0 
-1.271069918218e-05 5.175245886441e-05 0.0 
5.175245886441e-05 1.792744170847e-03 0.0 
0.0 0.0 0.0 
-6.392895736640e-05 3.784677600025e-06 0.0 
3.784677600025e-06 1.255915013796e-03 0.0 
0.0 0.0 0.0 
-2.068676510936e-05 5.130071104801e-05 0.0 
5.130071104801e-05 1.739056260631e-03 0.0 
0.0 0.0 0.0 
2.909031874965e-05 1.558322699233e-04 0.0 
1.558322699233e-04 1.259060598064e-03 0.0 
0.0 0.0 0.0 
-6.307164066244e-05 1.030938007118e-07 0.0 
1.030938007118e-07 1.254314700888e-03 0.0 
0.0 0.0 0.0 
-8.769228902350e-05 5.654330111498e-06 0.0 
5.654330111498e-06 1.031924431083e-04 0.0 
0.0 0.0 0.0 
-9.640651101650e-06 6.527794724332e-06 0.0 
6.527794724332e-06 1.754184310915e-03 0.0 
0.0 0.0 0.0 
1.977138400067e-05 -2.107272248993e-05 0.0 
-2.107272248993e-05 1.728478166947e-04 0.0 
0.0 0.0 0.0 
-2.216091177110e-05 4.176508600706e-05 0.0 
4.176508600706e-05 1.710230620247e-03 0.0 
0.0 0.0 0.0 
0.0 4.728844532988e-05 0.0 
4.728844532988e-05 1.252738399703e-03 0.0 
0.0 0.0 0.0 
-4.427148674335e-05 1.172862385460e-04 0.0 
1.172862385460e-04 1.652956292965e-03 0.0 
0.0 0.0 0.0 
5.358275491751e-05 1.604261088987e-05 0.0 
1.604261088987e-05 2.330334897180e-04 0.0 
0.0 0.0 0.0 
-8.166202573057e-05 2.625998738051e-05 0.0 
2.625998738051e-05 1.363997663336e-03 0.0 
0.0 0.0 0.0 
6.788093618137e-05 -5.836704475854e-06 0.0 
-5.836704475854e-06 5.187118681040e-04 0.0 
0.0 0.0 0.0 
1.176606046349e-05 1.690017647782e-04 0.0 
1.690017647782e-04 1.250859673480e-03 0.0 
0.0 0.0 0.0 
6.876463179539e-06 2.046738985014e-04 0.0 
2.046738985014e-04 1.450909332683e-03 0.0 
0.0 0.0 0.0 
-3.794804859492e-05 8.115163246768e-06 0.0 
8.115163246768e-06 1.568912317699e-03 0.0 
0.0 0.0 0.0 
1.319833332469e-05 2.010124523481e-04 0.0 
2.010124523481e-04 1.421145688774e-03 0.0 
0.0 0.0 0.0 
-1.048146588356e-05 1.070091082595e-06 0.0 
1.070091082595e-06 1.202849735056e-04 0.0 
0.0 0.0 0.0 
2.400790995494e-05 5.739977205987e-05 0.0 
5.739977205987e-05 1.199156335040e-03 0.0 
0.0 0.0 0.0 
5.560193487963e-05 1.070202591984e-05 0.0 
1.070202591984e-05 2.643091174657e-04 0.0 
0.0 0.0 0.0 
2.093371998635e-05 -4.886745599885e-06 0.0 
-4.886745599885e-06 1.540692529760e-04 0.0 
0.0 0.0 0.0 
3.011025069677e-05 1.418351228115e-04 0.0 
1.418351228115e-04 1.272351122173e-03 0.0 
0.0 0.0 0.0 
-3.202724812046e-05 8.920233345890e-05 0.0 
8.920233345890e-05 1.731694641991e-03 0.0 
0.0 0.0 0.0 
-1.768040592187e-05 5.220302081484e-05 0.0 
5.220302081484e-05 1.756455694136e-03 0.0 
0.0 0.0 0.0 
-5.730761686096e-05 7.820559882789e-06 0.0 
7.820559882789e-06 1.304297295289e-03 0.0 
0.0 0.0 0.0 
-9.040210118871e-05 4.384972752485e-05 0.0 
4.384972752485e-05 1.367340800995e-03 0.0 
0.0 0.0 0.0 
-1.172335194355e-05 1.548934482110e-04 0.0 
1.548934482110e-04 5.042601221521e-04 0.0 
0.0 0.0 0.0 
-3.310802272249e-05 1.561799445878e-04 0.0 
1.561799445878e-04 1.660728255536e-03 0.0 
0.0 0.0 0.0 
6.284946677226e-05 1.028970481286e-06 0.0 
1.028970481286e-06 4.275749668123e-04 0.0 
0.0 0.0 0.0 
-5.139066578952e-07 7.212765714474e-05 0.0 
7.212765714474e-05 2.398753580979e-04 0.0 
0.0 0.0 0.0 
2.303398508641e-05 1.801566615409e-04 0.0 
1.801566615409e-04 1.254852936991e-03 0.0 
0.0 0.0 0.0 
-5.746482326785e-05 7.058608396043e-08 0.0 
7.058608396043e-08 1.250592861162e-03 0.0 
0.0 0.0 0.0 
-3.028074940969e-05 8.939010114854e-05 0.0 
8.939010114854e-05 1.694621819824e-03 0.0 
0.0 0.0 0.0 
-7.206511796420e-06 -3.623371787393e-06 0.0 
-3.623371787393e-06 1.797380339206e-03 0.0 
0.0 0.0 0.0 
0.0 3.603255898195e-06 0.0 
3.603255898195e-06 1.804627082781e-03 0.0 
0.0 0.0 0.0 
-2.073681529158e-06 -3.354624077215e-07 0.0 
-3.354624077215e-07 1.555397696640e-05 0.0 
0.0 0.0 0.0 
-7.898683869190e-07 7.104751233826e-07 0.0 
7.104751233826e-07 1.636203888622e-05 0.0 
0.0 0.0 0.0 
-5.387277713365e-05 -4.032562882627e-06 0.0 
-4.032562882627e-06 1.257222054963e-03 0.0 
0.0 0.0 0.0 
-5.580600544264e-05 6.795296917727e-07 0.0 
6.795296917727e-07 1.249731098123e-03 0.0 
0.0 0.0 0.0 
0.0 6.815247790720e-06 0.0 
6.815247790720e-06 1.242757422422e-03 0.0 
0.0 0.0 0.0 
1.363049558134e-05 5.393662072908e-06 0.0 
5.393662072908e-06 1.231970098276e-03 0.0 
0.0 0.0 0.0 
1.314322483958e-06 2.295671482976e-06 0.0 
2.295671482976e-06 5.059705373389e-05 0.0 
0.0 0.0 0.0 
-8.738759956095e-05 -5.325594560108e-06 0.0 
-5.325594560108e-06 5.053110047504e-05 0.0 
0.0 0.0 0.0 
3.067429628034e-05 3.661000081050e-05 0.0 
3.661000081050e-05 1.123266602882e-03 0.0 
0.0 0.0 0.0 
-1.806659020165e-06 1.965012359929e-04 0.0 
1.965012359929e-04 1.431711691495e-03 0.0 
0.0 0.0 0.0 
2.233995510670e-05 -1.693029139282e-05 0.0 
-1.693029139282e-05 2.038687143600e-04 0.0 
0.0 0.0 0.0 
2.954252079412e-05 6.046566896231e-05 0.0 
6.046566896231e-05 1.152853492322e-03 0.0 
0.0 0.0 0.0 
7.498608652612e-05 3.530688586738e-07 0.0 
3.530688586738e-07 7.559831758543e-04 0.0 
0.0 0.0 0.0 
7.476200345158e-05 -4.300778069085e-06 0.0 
-4.300778069085e-06 6.421574112638e-04 0.0 
0.0 0.0 0.0 
-5.044035326907e-05 8.526925465449e-06 0.0 
8.526925465449e-06 1.465904056300e-03 0.0 
0.0 0.0 0.0 
2.116914554096e-05 -1.058775479734e-05 0.0 
-1.058775479734e-05 1.989572165433e-04 0.0 
0.0 0.0 0.0 
1.427366798445e-05 1.674118821857e-04 0.0 
1.674118821857e-04 1.188328892237e-03 0.0 
0.0 0.0 0.0 
1.166942692388e-05 -1.117569009697e-05 0.0 
-1.117569009697e-05 1.609038813206e-04 0.0 
0.0 0.0 0.0 
7.655486748326e-05 -4.819845033116e-06 0.0 
-4.819845033116e-06 5.779122535527e-04 0.0 
0.0 0.0 0.0 
-2.867845846122e-05 1.498770598897e-04 0.0 
1.498770598897e-04 1.620512734488e-03 0.0 
0.0 0.0 0.0 
-2.391090806431e-05 -4.290593519899e-06 0.0 
-4.290593519899e-06 1.682864759813e-03 0.0 
0.0 0.0 0.0 
7.830778563278e-05 3.486101691879e-06 0.0 
3.486101691879e-06 6.377231861381e-04 0.0 
0.0 0.0 0.0 
-5.188997072325e-05 -1.733143586134e-06 0.0 
-1.733143586134e-06 1.401740314356e-03 0.0 
0.0 0.0 0.0 
-2.107607977986e-05 1.912592227833e-04 0.0 
1.912592227833e-04 1.507260900536e-03 0.0 
0.0 0.0 0.0 
-6.046141479499e-05 1.421639361771e-04 0.0 
1.421639361771e-04 1.536267046657e-03 0.0 
0.0 0.0 0.0 
-7.132070283677e-05 1.345125926846e-04 0.0 
1.345125926846e-04 1.486365975382e-03 0.0 
0.0 0.0 0.0 
-6.027394923680e-05 1.321079928512e-06 0.0 
1.321079928512e-06 1.254344322974e-03 0.0 
0.0 0.0 0.0 
2.792296230969e-05 1.624668825255e-04 0.0 
1.624668825255e-04 1.123803532420e-03 0.0 
0.0 0.0 0.0 
-3.282001386495e-05 1.044622276721e-04 0.0 
1.044622276721e-04 1.674584471198e-03 0.0 
0.0 0.0 0.0 
4.737718185677e-05 -1.766859505774e-06 0.0 
-1.766859505774e-06 3.207733218642e-04 0.0 
0.0 0.0 0.0 
-3.714785665920e-05 -1.597547486301e-05 0.0 
-1.597547486301e-05 7.372291477914e-05 0.0 
0.0 0.0 0.0 
-2.977771614310e-05 1.731561038491e-04 0.0 
1.731561038491e-04 1.486378818665e-03 0.0 
0.0 0.0 0.0 
5.659711735140e-05 1.501863149349e-04 0.0 
1.501863149349e-04 1.144642855011e-03 0.0 
0.0 0.0 0.0 
1.431904201232e-05 -2.721058018033e-05 0.0 
-2.721058018033e-05 1.608120950778e-04 0.0 
0.0 0.0 0.0 
-4.572512069090e-05 7.246486474060e-07 0.0 
7.246486474060e-07 1.508684295932e-03 0.0 
0.0 0.0 0.0 
1.502525515806e-05 3.388567528633e-05 0.0 
3.388567528633e-05 1.179675142991e-03 0.0 
0.0 0.0 0.0 
-1.037962668948e-05 1.825327794660e-04 0.0 
1.825327794660e-04 1.426707819603e-03 0.0 
0.0 0.0 0.0 
-1.640648063417e-05 1.925583024953e-04 0.0 
1.925583024953e-04 1.480420581328e-03 0.0 
0.0 0.0 0.0 
7.096396895445e-05 -2.337220877691e-06 0.0 
-2.337220877691e-06 8.261308497344e-04 0.0 
0.0 0.0 0.0 
-4.164513802063e-05 5.045926100821e-05 0.0 
5.045926100821e-05 9.480573016374e-05 0.0 
0.0 0.0 0.0 
-5.486960779599e-05 6.975372412776e-05 0.0 
6.975372412776e-05 8.244437737215e-04 0.0 
0.0 0.0 0.0 
-4.104293814322e-05 1.857789788928e-04 0.0 
1.857789788928e-04 7.081489371588e-04 0.0 
0.0 0.0 0.0 
-8.278903283288e-05 2.791076378280e-05 0.0 
2.791076378280e-05 1.366095791929e-03 0.0 
0.0 0.0 0.0 
2.776867878107e-05 1.735972424406e-04 0.0 
1.735972424406e-04 1.122463144370e-03 0.0 
0.0 0.0 0.0 
-2.271028528023e-05 2.615675707147e-05 0.0 
2.615675707147e-05 1.718204281595e-03 0.0 
0.0 0.0 0.0 
1.792017295066e-05 1.709538842992e-04 0.0 
1.709538842992e-04 1.329929876608e-03 0.0 
0.0 0.0 0.0 
-3.111910299336e-05 -2.265033083195e-05 0.0 
-2.265033083195e-05 1.260016878604e-04 0.0 
0.0 0.0 0.0 
-2.296552276726e-05 -2.130322508549e-05 0.0 
-2.130322508549e-05 1.159007049787e-04 0.0 
0.0 0.0 0.0 
-7.753238607255e-05 1.594913891472e-04 0.0 
1.594913891472e-04 6.152046353070e-04 0.0 
0.0 0.0 0.0 
-4.142265394214e-05 1.488095191116e-05 0.0 
1.488095191116e-05 1.526251924377e-03 0.0 
0.0 0.0 0.0 
5.526434029424e-05 -1.210718690403e-05 0.0 
-1.210718690403e-05 3.974907310580e-04 0.0 
0.0 0.0 0.0 
-3.366125018844e-05 6.963155457948e-05 0.0 
6.963155457948e-05 1.709393569181e-03 0.0 
0.0 0.0 0.0 
2.233246628891e-05 -1.248224425943e-05 0.0 
-1.248224425943e-05 1.942831835193e-04 0.0 
0.0 0.0 0.0 
3.217028926095e-05 1.647004634646e-04 0.0 
1.647004634646e-04 1.268999976478e-03 0.0 
0.0 0.0 0.0 
-6.474360595310e-05 1.575806179984e-05 0.0 
1.575806179984e-05 1.361742788244e-03 0.0 
0.0 0.0 0.0 
4.310315451006e-06 1.939740102043e-04 0.0 
1.939740102043e-04 1.445810874852e-03 0.0 
0.0 0.0 0.0 
1.969629228604e-07 1.748120273069e-04 0.0 
1.748120273069e-04 1.312203377057e-03 0.0 
0.0 0.0 0.0 
-9.005841464160e-05 3.115566151242e-05 0.0 
3.115566151242e-05 1.365945513452e-03 0.0 
0.0 0.0 0.0 
3.333219712309e-05 1.210462408973e-04 0.0 
1.210462408973e-04 1.242546977219e-03 0.0 
0.0 0.0 0.0 
-2.746637805717e-05 8.402575488968e-05 0.0 
8.402575488968e-05 1.737427044587e-03 0.0 
0.0 0.0 0.0 
-1.524853543078e-05 8.373337561786e-06 0.0 
8.373337561786e-06 1.757058058042e-03 0.0 
0.0 0.0 0.0 
-9.705062758425e-05 1.735728734633e-04 0.0 
1.735728734633e-04 4.100014635844e-04 0.0 
0.0 0.0 0.0 
-3.069408497458e-05 6.568649497447e-05 0.0 
6.568649497447e-05 1.693224782383e-03 0.0 
0.0 0.0 0.0 
-1.118243854525e-05 1.821186220258e-04 0.0 
1.821186220258e-04 1.579697827697e-03 0.0 
0.0 0.0 0.0 
3.557647070829e-05 1.642749405872e-04 0.0 
1.642749405872e-04 1.269031205099e-03 0.0 
0.0 0.0 0.0 
1.501621242772e-05 1.841640890557e-04 0.0 
1.841640890557e-04 1.311810172907e-03 0.0 
0.0 0.0 0.0 
0.0 8.010214237535e-05 0.0 
8.010214237535e-05 1.267158717982e-03 0.0 
0.0 0.0 0.0 
-6.197913776795e-05 1.360558188755e-04 0.0 
1.360558188755e-04 1.486111245922e-03 0.0 
0.0 0.0 0.0 
-7.923671973520e-05 4.177942123593e-05 0.0 
4.177942123593e-05 4.777236794506e-05 0.0 
0.0 0.0 0.0 
-1.034500892227e-05 1.046353910180e-04 0.0 
1.046353910180e-04 3.261836895170e-04 0.0 
0.0 0.0 0.0 
-5.551085474098e-05 1.406962764229e-04 0.0 
1.406962764229e-04 1.579603752291e-03 0.0 
0.0 0.0 0.0 
-7.682767104877e-05 3.415652285876e-05 0.0 
3.415652285876e-05 1.411026017085e-03 0.0 
0.0 0.0 0.0 
3.350160683979e-05 1.444265749906e-05 0.0 
1.444265749906e-05 1.116044246011e-03 0.0 
0.0 0.0 0.0 
-1.042667869489e-06 1.803763167558e-04 0.0 
1.803763167558e-04 1.371540389236e-03 0.0 
0.0 0.0 0.0 
1.680325783071e-05 6.702713608313e-05 0.0 
6.702713608313e-05 1.204661951404e-03 0.0 
0.0 0.0 0.0 
-3.555229130037e-05 1.634018073212e-05 0.0 
1.634018073212e-05 1.588439195340e-03 0.0 
0.0 0.0 0.0 
4.011515482460e-06 1.907720157041e-04 0.0 
1.907720157041e-04 1.422636975412e-03 0.0 
0.0 0.0 0.0 
3.406084061108e-05 1.020856940130e-04 0.0 
1.020856940130e-04 1.183937084428e-03 0.0 
0.0 0.0 0.0 
4.054715853030e-05 1.121114073549e-04 0.0 
1.121114073549e-04 1.183013393879e-03 0.0 
0.0 0.0 0.0 
5.676669387222e-05 -8.605369334545e-06 0.0 
-8.605369334545e-06 4.125917320512e-04 0.0 
0.0 0.0 0.0 
1.893151535004e-05 6.598191791214e-05 0.0 
6.598191791214e-05 1.260688916407e-03 0.0 
0.0 0.0 0.0 
-7.495212571096e-05 1.249093307442e-05 0.0 
1.249093307442e-05 1.308642736168e-03 0.0 
0.0 0.0 0.0 
-2.264971703214e-05 1.190753248621e-05 0.0 
1.190753248621e-05 1.704683270009e-03 0.0 
0.0 0.0 0.0 
-3.409743729477e-06 -2.593541094609e-05 0.0 
-2.593541094609e-05 1.142918609298e-04 0.0 
0.0 0.0 0.0 
-2.876957687414e-05 4.634930041143e-06 0.0 
4.634930041143e-06 1.662070240682e-03 0.0 
0.0 0.0 0.0 
-4.596443314098e-05 6.011849615968e-06 0.0 
6.011849615968e-06 1.513666771021e-03 0.0 
0.0 0.0 0.0 
8.313430033713e-06 -6.151344769974e-06 0.0 
-6.151344769974e-06 1.072709500480e-04 0.0 
0.0 0.0 0.0 
2.696629709931e-05 -6.653573818425e-06 0.0 
-6.653573818425e-06 2.213882721378e-04 0.0 
0.0 0.0 0.0 
-5.305713600867e-05 1.482522252315e-04 0.0 
1.482522252315e-04 1.489981711636e-03 0.0 
0.0 0.0 0.0 
-1.313995245233e-05 4.184024960647e-05 0.0 
4.184024960647e-05 1.750614909272e-03 0.0 
0.0 0.0 0.0 
-2.138700073862e-05 4.222102236732e-06 0.0 
4.222102236732e-06 1.712773345120e-03 0.0 
0.0 0.0 0.0 
1.964275695210e-05 1.991030255541e-04 0.0 
1.991030255541e-04 1.388181565655e-03 0.0 
0.0 0.0 0.0 
-5.323375549460e-05 1.243816852004e-05 0.0 
1.243816852004e-05 1.402274026810e-03 0.0 
0.0 0.0 0.0 
-2.375905527530e-05 -1.507481341795e-05 0.0 
-1.507481341795e-05 6.700421427075e-05 0.0 
0.0 0.0 0.0 
-2.996415262280e-05 4.183293750672e-05 0.0 
4.183293750672e-05 1.408163578112e-04 0.0 
0.0 0.0 0.0 
-1.435201431976e-05 -6.682534048238e-06 0.0 
-6.682534048238e-06 7.425025401697e-05 0.0 
0.0 0.0 0.0 
-8.601794365681e-07 -3.032629174755e-05 0.0 
-3.032629174755e-05 1.538758487891e-04 0.0 
0.0 0.0 0.0 
-9.436909023774e-05 9.567698129921e-05 0.0 
9.567698129921e-05 7.044444853799e-05 0.0 
0.0 0.0 0.0 
7.446057981730e-05 3.218127696867e-06 0.0 
3.218127696867e-06 5.627155661010e-04 0.0 
0.0 0.0 0.0 
3.575993158966e-05 2.500364549256e-05 0.0 
2.500364549256e-05 1.115819470663e-03 0.0 
0.0 0.0 0.0 
-3.750772411537e-05 1.233409072677e-04 0.0 
1.233409072677e-04 1.653780723761e-03 0.0 
0.0 0.0 0.0 
-9.522396503214e-05 4.242623142166e-05 0.0 
4.242623142166e-05 1.403089537209e-03 0.0 
0.0 0.0 0.0 
6.888223770285e-05 -1.129092675017e-05 0.0 
-1.129092675017e-05 4.877757092767e-04 0.0 
0.0 0.0 0.0 
3.885339517407e-05 8.366349311089e-05 0.0 
8.366349311089e-05 1.154177814601e-03 0.0 
0.0 0.0 0.0 
5.060797300382e-05 1.427271714408e-04 0.0 
1.427271714408e-04 1.197770125990e-03 0.0 
0.0 0.0 0.0 
5.807211959308e-06 2.068826765325e-04 0.0 
2.068826765325e-04 1.456660690041e-03 0.0 
0.0 0.0 0.0 
-1.914133473813e-05 1.766656758132e-04 0.0 
1.766656758132e-04 1.526076057596e-03 0.0 
0.0 0.0 0.0 
-4.120017896847e-05 1.564562096567e-04 0.0 
1.564562096567e-04 1.540301001423e-03 0.0 
0.0 0.0 0.0 
-4.542295857446e-06 -1.703520081962e-05 0.0 
-1.703520081962e-05 1.116654757123e-04 0.0 
0.0 0.0 0.0 
-4.877543204185e-05 -1.486957160685e-05 0.0 
-1.486957160685e-05 1.238913992456e-04 0.0 
0.0 0.0 0.0 
3.320312106059e-05 2.904470027491e-05 0.0 
2.904470027491e-05 1.125643974457e-03 0.0 
0.0 0.0 0.0 
1.494040523853e-05 -2.506267631772e-06 0.0 
-2.506267631772e-06 1.046169581485e-04 0.0 
0.0 0.0 0.0 
1.370636723719e-05 5.831875689170e-06 0.0 
5.831875689170e-06 1.296999899767e-04 0.0 
0.0 0.0 0.0 
-4.962590329449e-05 1.223349849789e-04 0.0 
1.223349849789e-04 1.798228827903e-04 0.0 
0.0 0.0 0.0 
-5.657625605116e-06 -2.352002680706e-05 0.0 
-2.352002680706e-05 1.063293260621e-04 0.0 
0.0 0.0 0.0 
1.722345282729e-05 1.115280826473e-04 0.0 
1.115280826473e-04 1.237009489237e-03 0.0 
0.0 0.0 0.0 
-1.767729819502e-05 1.652649130495e-04 0.0 
1.652649130495e-04 1.632521563036e-03 0.0 
0.0 0.0 0.0 
-2.041989730295e-05 3.282183521752e-05 0.0 
3.282183521752e-05 1.718586463822e-03 0.0 
0.0 0.0 0.0 
5.634764075335e-07 1.961101460746e-04 0.0 
1.961101460746e-04 1.475028914866e-03 0.0 
0.0 0.0 0.0 
4.552174182160e-05 1.313391692839e-04 0.0 
1.313391692839e-04 1.172332429887e-03 0.0 
0.0 0.0 0.0 
-5.003888541388e-05 1.324181281779e-05 0.0 
1.324181281779e-05 1.436526078666e-03 0.0 
0.0 0.0 0.0 
0.0 5.738242207330e-05 0.0 
5.738242207330e-05 1.794037186006e-03 0.0 
0.0 0.0 0.0 
4.573123471352e-05 -1.358204287981e-05 0.0 
-1.358204287981e-05 2.634816901383e-04 0.0 
0.0 0.0 0.0 
-6.197912683203e-05 1.598713239292e-06 0.0 
1.598713239292e-06 1.251533778740e-03 0.0 
0.0 0.0 0.0 
-8.801100691347e-06 -2.103621619143e-05 0.0 
-2.103621619143e-05 1.649259549905e-04 0.0 
0.0 0.0 0.0 
1.162948556122e-06 -7.453938276562e-06 0.0 
-7.453938276562e-06 5.782668195153e-05 0.0 
0.0 0.0 0.0 
1.791748428492e-05 4.660719102365e-05 0.0 
4.660719102365e-05 1.250184020652e-03 0.0 
0.0 0.0 0.0 
-8.934783847925e-05 2.417560047143e-05 0.0 
2.417560047143e-05 1.313674860918e-03 0.0 
0.0 0.0 0.0 
1.428445431273e-05 -7.762975489623e-06 0.0 
-7.762975489623e-06 1.532017103552e-04 0.0 
0.0 0.0 0.0 
7.221799807011e-05 4.717275755469e-06 0.0 
4.717275755469e-06 5.395732450111e-04 0.0 
0.0 0.0 0.0 
-2.714179140739e-05 1.698733370527e-04 0.0 
1.698733370527e-04 1.642926787629e-03 0.0 
0.0 0.0 0.0 
-2.844635607469e-05 3.673101233213e-05 0.0 
3.673101233213e-05 1.711948981152e-03 0.0 
0.0 0.0 0.0 
-1.773664683014e-05 9.275399649141e-05 0.0 
9.275399649141e-05 1.729765084598e-03 0.0 
0.0 0.0 0.0 
5.187127297979e-05 -8.290015660494e-06 0.0 
-8.290015660494e-06 3.747989382543e-04 0.0 
0.0 0.0 0.0 
-3.406567032682e-05 -1.179693933533e-06 0.0 
-1.179693933533e-06 1.284204935739e-04 0.0 
0.0 0.0 0.0 
2.781926834317e-05 7.324625891313e-05 0.0 
7.324625891313e-05 1.207167768202e-03 0.0 
0.0 0.0 0.0 
-7.272648563927e-06 6.065544631317e-06 0.0 
6.065544631317e-06 1.803798912480e-03 0.0 
0.0 0.0 0.0 
1.370920114807e-05 9.210539390286e-06 0.0 
9.210539390286e-06 1.242674212884e-03 0.0 
0.0 0.0 0.0 
-5.357253863114e-05 3.435351187967e-06 0.0 
3.435351187967e-06 1.295786485606e-03 0.0 
0.0 0.0 0.0 
3.185219118085e-05 1.395625045079e-04 0.0 
1.395625045079e-04 1.224333459016e-03 0.0 
0.0 0.0 0.0 
2.218389097353e-05 -1.290932501384e-05 0.0 
-1.290932501384e-05 1.562747022754e-04 0.0 
0.0 0.0 0.0 
-2.832596229885e-05 7.464562152027e-05 0.0 
7.464562152027e-05 1.709789754318e-03 0.0 
0.0 0.0 0.0 
-4.560371172024e-06 -1.066009821080e-05 0.0 
-1.066009821080e-05 5.697917220227e-05 0.0 
0.0 0.0 0.0 
1.664437969362e-05 1.325198779985e-04 0.0 
1.325198779985e-04 1.265981189260e-03 0.0 
0.0 0.0 0.0 
-3.046672192764e-05 1.035292188713e-04 0.0 
1.035292188713e-04 1.720661563363e-03 0.0 
0.0 0.0 0.0 
-3.970450241697e-05 1.473756991625e-05 0.0 
1.473756991625e-05 8.278826478514e-05 0.0 
0.0 0.0 0.0 
-1.520627049423e-05 1.823150804368e-04 0.0 
1.823150804368e-04 1.426945808562e-03 0.0 
0.0 0.0 0.0 
-3.969320994757e-05 3.864705941653e-06 0.0 
3.864705941653e-06 1.558260825374e-03 0.0 
0.0 0.0 0.0 
-1.011370088111e-05 3.051495813126e-05 0.0 
3.051495813126e-05 1.756686374687e-03 0.0 
0.0 0.0 0.0 
0.0 1.950703374694e-04 0.0 
1.950703374694e-04 1.440054895880e-03 0.0 
0.0 0.0 0.0 
-4.565390518074e-05 -4.673974371019e-06 0.0 
-4.673974371019e-06 1.476707663976e-03 0.0 
0.0 0.0 0.0 
-1.574556367356e-05 1.585165435227e-04 0.0 
1.585165435227e-04 1.653292663913e-03 0.0 
0.0 0.0 0.0 
-3.924856774129e-05 8.619413917559e-05 0.0 
8.619413917559e-05 1.696007017060e-03 0.0 
0.0 0.0 0.0 
-4.126192204223e-05 5.557512377013e-06 0.0 
5.557512377013e-06 1.512907543473e-03 0.0 
0.0 0.0 0.0 
-2.892040073832e-05 1.546283114989e-04 0.0 
1.546283114989e-04 1.611501569517e-03 0.0 
0.0 0.0 0.0 
6.509973468649e-05 -7.729803414282e-06 0.0 
-7.729803414282e-06 4.550118302684e-04 0.0 
0.0 0.0 0.0 
-5.730896518574e-05 -1.651101391079e-07 0.0 
-1.651101391079e-07 1.250745470990e-03 0.0 
0.0 0.0 0.0 
4.475517974889e-06 1.964831139630e-04 0.0 
1.964831139630e-04 1.431618459758e-03 0.0 
0.0 0.0 0.0 
-1.005435573997e-05 6.559650908219e-06 0.0 
6.559650908219e-06 1.762995865027e-03 0.0 
0.0 0.0 0.0 
1.761251426036e-06 1.363408926849e-06 0.0 
1.363408926849e-06 1.379653323963e-05 0.0 
0.0 0.0 0.0 
-5.457189807434e-05 1.293588707901e-06 0.0 
1.293588707901e-06 1.250015281485e-03 0.0 
0.0 0.0 0.0 
1.788607945241e-05 3.665249374746e-06 0.0 
3.665249374746e-06 1.190761765217e-03 0.0 
0.0 0.0 0.0 
2.468394989497e-05 -9.237870607528e-06 0.0 
-9.237870607528e-06 2.004135239477e-04 0.0 
0.0 0.0 0.0 
4.085676475984e-05 1.608497539838e-04 0.0 
1.608497539838e-04 1.251624104045e-03 0.0 
0.0 0.0 0.0 
-4.581061404585e-05 1.036451939362e-04 0.0 
1.036451939362e-04 1.675687689078e-03 0.0 
0.0 0.0 0.0 
-1.905700999505e-05 2.473067892710e-05 0.0 
2.473067892710e-05 1.753126968438e-03 0.0 
0.0 0.0 0.0 
2.370605726698e-05 -4.632926789933e-06 0.0 
-4.632926789933e-06 1.918369291785e-04 0.0 
0.0 0.0 0.0 
-2.026187535642e-05 8.988588630496e-05 0.0 
8.988588630496e-05 2.240307384733e-04 0.0 
0.0 0.0 0.0 
7.494305801004e-05 8.336551189413e-06 0.0 
8.336551189413e-06 6.704292305399e-04 0.0 
0.0 0.0 0.0 
-3.240480533251e-05 8.058616208635e-06 0.0 
8.058616208635e-06 1.621403393200e-03 0.0 
0.0 0.0 0.0 
-1.351008875584e-04 -6.553467418438e-06 0.0 
-6.553467418438e-06 7.507811366780e-05 0.0 
0.0 0.0 0.0 
-1.491687298483e-05 7.514211459686e-05 0.0 
7.514211459686e-05 1.743676518246e-03 0.0 
0.0 0.0 0.0 
-4.531806278196e-05 4.541784267740e-06 0.0 
4.541784267740e-06 1.458662999535e-03 0.0 
0.0 0.0 0.0 
1.629410040760e-05 -2.970589159480e-05 0.0 
-2.970589159480e-05 1.967350549581e-04 0.0 
0.0 0.0 0.0 
-5.053548237144e-05 6.363816515752e-06 0.0 
6.363816515752e-06 1.416789892864e-03 0.0 
0.0 0.0 0.0 
-4.810018735646e-06 2.028027856565e-04 0.0 
2.028027856565e-04 1.488850457014e-03 0.0 
0.0 0.0 0.0 
7.598036127754e-05 -6.137714011413e-06 0.0 
-6.137714011413e-06 7.052461659756e-04 0.0 
0.0 0.0 0.0 
-9.158997932479e-05 7.616589275976e-05 0.0 
7.616589275976e-05 1.269418199821e-04 0.0 
0.0 0.0 0.0 
6.176720773499e-05 -2.323285518372e-06 0.0 
-2.323285518372e-06 4.106116765563e-04 0.0 
0.0 0.0 0.0 
7.830649064822e-05 4.316037488048e-06 0.0 
4.316037488048e-06 6.092573775160e-04 0.0 
0.0 0.0 0.0 
7.722357036544e-05 8.915737569345e-06 0.0 
8.915737569345e-06 7.355139601959e-04 0.0 
0.0 0.0 0.0 
9.407306211351e-06 1.861211496440e-04 0.0 
1.861211496440e-04 1.376949352948e-03 0.0 
0.0 0.0 0.0 
7.435134228806e-05 -4.192629739457e-06 0.0 
-4.192629739457e-06 5.932496490715e-04 0.0 
0.0 0.0 0.0 
7.828148667444e-05 3.759988300967e-06 0.0 
3.759988300967e-06 6.326302490054e-04 0.0 
0.0 0.0 0.0 
-4.908547852511e-06 -7.822287088491e-06 0.0 
-7.822287088491e-06 9.758486682898e-05 0.0 
0.0 0.0 0.0 
3.325542093835e-05 6.900147993409e-05 0.0 
6.900147993409e-05 1.154686139394e-03 0.0 
0.0 0.0 0.0 
-2.484886698340e-05 1.780942137090e-04 0.0 
1.780942137090e-04 1.486886807774e-03 0.0 
0.0 0.0 0.0 
2.277560112418e-05 9.830098980815e-05 0.0 
9.830098980815e-05 2.416628717556e-04 0.0 
0.0 0.0 0.0 
-7.457554497714e-06 2.702314081406e-06 0.0 
2.702314081406e-06 1.761157198194e-03 0.0 
0.0 0.0 0.0 
1.498311495118e-05 1.114079261486e-05 0.0 
1.114079261486e-05 1.188604605541e-03 0.0 
0.0 0.0 0.0 
-5.436670736014e-05 -3.104733191621e-06 0.0 
-3.104733191621e-06 1.299244893585e-03 0.0 
0.0 0.0 0.0 
-4.791647832447e-05 3.839564500863e-06 0.0 
3.839564500863e-06 1.458515000850e-03 0.0 
0.0 0.0 0.0 
7.589854712586e-05 4.575253303302e-06 0.0 
4.575253303302e-06 5.922668212994e-04 0.0 
0.0 0.0 0.0 
7.723451937580e-05 -2.104414726112e-06 0.0 
-2.104414726112e-06 6.124509593899e-04 0.0 
0.0 0.0 0.0 
7.453446861905e-05 3.746441039246e-07 0.0 
3.746441039246e-07 6.353904360548e-04 0.0 
0.0 0.0 0.0 
4.386941895507e-05 1.572254982170e-04 0.0 
1.572254982170e-04 1.211744461645e-03 0.0 
0.0 0.0 0.0 
1.256340575817e-05 -1.766115746779e-05 0.0 
-1.766115746779e-05 1.582585679700e-04 0.0 
0.0 0.0 0.0 
-3.090552935703e-05 1.791226961061e-04 0.0 
1.791226961061e-04 1.538503241238e-03 0.0 
0.0 0.0 0.0 
-5.156330159661e-05 3.674753571110e-06 0.0 
3.674753571110e-06 1.353437657822e-03 0.0 
0.0 0.0 0.0 
-2.806772636410e-05 6.865783010423e-05 0.0 
6.865783010423e-05 1.742119030928e-03 0.0 
0.0 0.0 0.0 
3.654371926087e-05 1.466920472672e-04 0.0 
1.466920472672e-04 1.210461771431e-03 0.0 
0.0 0.0 0.0 
-5.307083091988e-05 4.065973218798e-06 0.0 
4.065973218798e-06 1.418028940007e-03 0.0 
0.0 0.0 0.0 
-3.834342128495e-05 1.518247221200e-04 0.0 
1.518247221200e-04 1.578961703350e-03 0.0 
0.0 0.0 0.0 
1.518360958253e-05 1.889966133252e-04 0.0 
1.889966133252e-04 1.375746879230e-03 0.0 
0.0 0.0 0.0 
7.558391438067e-06 2.030627380424e-04 0.0 
2.030627380424e-04 1.433175051214e-03 0.0 
0.0 0.0 0.0 
-6.261736069180e-05 8.706886078697e-05 0.0 
8.706886078697e-05 1.101617606907e-04 0.0 
0.0 0.0 0.0 
-4.673673430433e-05 1.502000876262e-04 0.0 
1.502000876262e-04 1.579167746201e-03 0.0 
0.0 0.0 0.0 
-3.377568785290e-05 1.678280230414e-04 0.0 
1.678280230414e-04 1.590976446644e-03 0.0 
0.0 0.0 0.0 
-3.855775907891e-06 -1.633955981861e-05 0.0 
-1.633955981861e-05 1.021601908604e-04 0.0 
0.0 0.0 0.0 
7.419390207986e-05 -3.776985471505e-06 0.0 
-3.776985471505e-06 5.612285044496e-04 0.0 
0.0 0.0 0.0 
-7.710763430846e-05 6.069849417100e-05 0.0 
6.069849417100e-05 1.287458933341e-04 0.0 
0.0 0.0 0.0 
-4.257383779405e-05 1.547852431320e-04 0.0 
1.547852431320e-04 1.618781644945e-03 0.0 
0.0 0.0 0.0 
-5.421438112108e-05 5.072858074921e-07 0.0 
5.072858074921e-07 8.785340983157e-04 0.0 
0.0 0.0 0.0 
-5.078789649782e-05 2.703543547354e-06 0.0 
2.703543547354e-06 8.711975550448e-04 0.0 
0.0 0.0 0.0 
-5.270073682018e-05 6.960213455085e-07 0.0 
6.960213455085e-07 8.710266038521e-04 0.0 
0.0 0.0 0.0 
-5.061409732432e-05 1.566320214257e-07 0.0 
1.566320214257e-07 8.702116831234e-04 0.0 
0.0 0.0 0.0 
-5.173799824221e-05 -3.020866288222e-07 0.0 
-3.020866288222e-07 8.701566305529e-04 0.0 
0.0 0.0 0.0 
-5.050541564644e-05 -7.200165550756e-07 0.0 
-7.200165550756e-07 8.698922664394e-04 0.0 
0.0 0.0 0.0 
-5.086325354264e-05 -9.771020837428e-07 0.0 
-9.771020837428e-07 8.698502616813e-04 0.0 
0.0 0.0 0.0 
-4.967929399635e-05 -1.314382257871e-06 0.0 
-1.314382257871e-06 8.695109350365e-04 0.0 
0.0 0.0 0.0 
-4.984416007481e-05 -1.417128945220e-06 0.0 
-1.417128945220e-06 8.694905466506e-04 0.0 
0.0 0.0 0.0 
-4.823137201404e-05 -1.815742858455e-06 0.0 
-1.815742858455e-06 8.689642887600e-04 0.0 
0.0 0.0 0.0 
-4.858724711576e-05 -1.740783978378e-06 0.0 
-1.740783978378e-06 8.689898978365e-04 0.0 
0.0 0.0 0.0 
-4.622838456625e-05 -2.284614524872e-06 0.0 
-2.284614524872e-06 8.682164734806e-04 0.0 
0.0 0.0 0.0 
-4.705067974298e-05 -2.015642196303e-06 0.0 
-2.015642196303e-06 8.683173764310e-04 0.0 
0.0 0.0 0.0 
-4.370010476451e-05 -2.752790975751e-06 0.0 
-2.752790975751e-06 8.672487761778e-04 0.0 
0.0 0.0 0.0 
-4.521485905418e-05 -2.265524931945e-06 0.0 
-2.265524931945e-06 8.674640748936e-04 0.0 
0.0 0.0 0.0 
-4.064483129285e-05 -3.229662829212e-06 0.0 
-3.229662829212e-06 8.660583836826e-04 0.0 
0.0 0.0 0.0 
-4.308961192900e-05 -2.501488898165e-06 0.0 
-2.501488898165e-06 8.664369069558e-04 0.0 
0.0 0.0 0.0 
-3.704563550977e-05 -3.718049056835e-06 0.0 
-3.718049056835e-06 8.646392953331e-04 0.0 
0.0 0.0 0.0 
-2.083422087207e-05 2.557317621316e-05 0.0 
2.557317621316e-05 8.547311468825e-04 0.0 
0.0 0.0 0.0 
-4.068837184212e-05 -2.727064310460e-06 0.0 
-2.727064310460e-06 8.652423102669e-04 0.0 
0.0 0.0 0.0 
-3.287887922598e-05 -4.216487204253e-06 0.0 
-4.216487204253e-06 8.629877324140e-04 0.0 
0.0 0.0 0.0 
-3.803423295734e-05 -2.943859340906e-06 0.0 
-2.943859340906e-06 8.638911809959e-04 0.0 
0.0 0.0 0.0 
2.389046981865e-05 4.733925418330e-07 0.0 
4.733925418330e-07 8.174082375996e-04 0.0 
0.0 0.0 0.0 
-2.812279071218e-05 -4.718667398019e-06 0.0 
-4.718667398019e-06 8.611000526251e-04 0.0 
0.0 0.0 0.0 
-5.097232898332e-05 2.088849776120e-05 0.0 
2.088849776120e-05 8.669503523622e-04 0.0 
0.0 0.0 0.0 
-3.515937075893e-05 -3.147394163356e-06 0.0 
-3.147394163356e-06 8.623987072458e-04 0.0 
0.0 0.0 0.0 
-2.276360464493e-05 -5.212261803612e-06 0.0 
-5.212261803612e-06 8.589818588798e-04 0.0 
0.0 0.0 0.0 
-3.212797345298e-05 -3.297197281661e-06 0.0 
-3.297197281661e-06 8.608121970164e-04 0.0 
0.0 0.0 0.0 
-1.678651976877e-05 -5.666690041876e-06 0.0 
-5.666690041876e-06 8.566846630436e-04 0.0 
0.0 0.0 0.0 
-2.910410826085e-05 -3.424592685914e-06 0.0 
-3.424592685914e-06 8.591903666064e-04 0.0 
0.0 0.0 0.0 
-1.024327961896e-05 -6.076157134209e-06 0.0 
-6.076157134209e-06 8.541984032235e-04 0.0 
0.0 0.0 0.0 
-2.623108848443e-05 -3.454108080763e-06 0.0 
-3.454108080763e-06 8.576084621499e-04 0.0 
0.0 0.0 0.0 
-3.208914771236e-06 -6.381974309054e-06 0.0 
-6.381974309054e-06 8.516353782408e-04 0.0 
0.0 0.0 0.0 
-7.664919889561e-05 6.896601156135e-05 0.0 
6.896601156135e-05 8.886829407801e-04 0.0 
0.0 0.0 0.0 
-2.383059213951e-05 -3.534646764264e-06 0.0 
-3.534646764264e-06 8.561109999572e-04 0.0 
0.0 0.0 0.0 
4.061590923365e-06 -6.582686283078e-06 0.0 
-6.582686283078e-06 8.488684874244e-04 0.0 
0.0 0.0 0.0 
-2.207404737387e-05 -3.222033349762e-06 0.0 
-3.222033349762e-06 8.549220132541e-04 0.0 
0.0 0.0 0.0 
1.140139185285e-05 -6.419302168119e-06 0.0 
-6.419302168119e-06 8.464113422344e-04 0.0 
0.0 0.0 0.0 
1.814731464633e-05 -5.922806572865e-06 0.0 
-5.922806572865e-06 8.435000374361e-04 0.0 
0.0 0.0 0.0 
-2.197649141988e-05 -3.156308316068e-06 0.0 
-3.156308316068e-06 8.540757807973e-04 0.0 
0.0 0.0 0.0 
2.376496891232e-05 -4.023137563497e-06 0.0 
-4.023137563497e-06 8.420433396021e-04 0.0 
0.0 0.0 0.0 
-2.332286659923e-05 -1.497135792726e-06 0.0 
-1.497135792726e-06 8.542310430850e-04 0.0 
0.0 0.0 0.0 
2.617441599506e-05 -4.003284332089e-07 0.0 
-4.003284332089e-07 8.382687311606e-04 0.0 
0.0 0.0 0.0 
2.193975088427e-05 1.012447702657e-05 0.0 
1.012447702657e-05 8.399769002720e-04 0.0 
0.0 0.0 0.0 
-2.929383920125e-05 -6.923342326790e-07 0.0 
-6.923342326790e-07 8.549697107618e-04 0.0 
0.0 0.0 0.0 
-3.228226280527e-05 7.402990607704e-06 0.0 
7.402990607704e-06 8.575765798080e-04 0.0 
0.0 0.0 0.0 
-6.014814716515e-05 1.094219227682e-05 0.0 
1.094219227682e-05 8.792743799466e-04 0.0 
0.0 0.0 0.0 
-5.615879877585e-05 -8.162339882808e-06 0.0 
-8.162339882808e-06 8.712688015848e-04 0.0 
0.0 0.0 0.0 
-6.048158492844e-05 1.000632474701e-05 0.0 
1.000632474701e-05 8.789500618254e-04 0.0 
0.0 0.0 0.0 
-6.194168853646e-05 2.016419325926e-07 0.0 
2.016419325926e-07 8.604386820432e-04 0.0 
0.0 0.0 0.0 
-5.466624842088e-05 1.827778025081e-06 0.0 
1.827778025081e-06 8.893863222228e-04 0.0 
0.0 0.0 0.0 
-5.457393209962e-05 6.857642185890e-05 0.0 
6.857642185890e-05 8.202465965981e-04 0.0 
0.0 0.0 0.0 
-5.421438112108e-05 -2.746110709730e-06 0.0 
-2.746110709730e-06 9.300847317577e-04 0.0 
0.0 0.0 0.0 
-5.417769205662e-05 2.481062320186e-07 0.0 
2.481062320186e-07 9.357792308842e-04 0.0 
0.0 0.0 0.0 
-5.270073682018e-05 -8.915989496139e-07 0.0 
-8.915989496139e-07 9.358755437066e-04 0.0 
0.0 0.0 0.0 
-5.357426950392e-05 -1.394732328296e-06 0.0 
-1.394732328296e-06 9.356982120838e-04 0.0 
0.0 0.0 0.0 
-5.173799824221e-05 -1.345940816415e-06 0.0 
-1.345940816415e-06 9.356840377461e-04 0.0 
0.0 0.0 0.0 
-5.297228734602e-05 -2.144628450138e-06 0.0 
-2.144628450138e-06 9.352545278041e-04 0.0 
0.0 0.0 0.0 
-5.086325354264e-05 -2.097874281759e-06 0.0 
-2.097874281759e-06 9.352304493186e-04 0.0 
0.0 0.0 0.0 
-5.241925021737e-05 -2.981007572828e-06 0.0 
-2.981007572828e-06 9.348922884664e-04 0.0 
0.0 0.0 0.0 
-4.984416007481e-05 -2.834690736533e-06 0.0 
-2.834690736533e-06 9.348300564258e-04 0.0 
0.0 0.0 0.0 
-5.185601701008e-05 -3.864424534981e-06 0.0 
-3.864424534981e-06 9.345604679183e-04 0.0 
0.0 0.0 0.0 
-4.858724711576e-05 -3.521825375469e-06 0.0 
-3.521825375469e-06 9.344154818824e-04 0.0 
0.0 0.0 0.0 
-5.123795424344e-05 -4.771739925488e-06 0.0 
-4.771739925488e-06 9.342014138938e-04 0.0 
0.0 0.0 0.0 
-4.705067974298e-05 -4.176431352163e-06 0.0 
-4.176431352163e-06 9.339232687278e-04 0.0 
0.0 0.0 0.0 
-5.051340013695e-05 -5.699705818291e-06 0.0 
-5.699705818291e-06 9.337695828657e-04 0.0 
0.0 0.0 0.0 
-4.521485905418e-05 -4.801659958716e-06 0.0 
-4.801659958716e-06 9.332969607576e-04 0.0 
0.0 0.0 0.0 
-4.968054333576e-05 -6.617329629330e-06 0.0 
-6.617329629330e-06 9.332652888405e-04 0.0 
0.0 0.0 0.0 
-4.308961192900e-05 -5.401261405090e-06 0.0 
-5.401261405090e-06 9.325371366986e-04 0.0 
0.0 0.0 0.0 
-5.282018280173e-05 2.738660098090e-05 0.0 
2.738660098090e-05 9.269798622995e-04 0.0 
0.0 0.0 0.0 
-4.877918451940e-05 -7.522021451101e-06 0.0 
-7.522021451101e-06 9.327024149623e-04 0.0 
0.0 0.0 0.0 
-4.068837184212e-05 -5.971643617317e-06 0.0 
-5.971643617317e-06 9.316459740962e-04 0.0 
0.0 0.0 0.0 
-6.795550528471e-05 1.897773513178e-05 0.0 
1.897773513178e-05 9.378119067396e-04 0.0 
0.0 0.0 0.0 
-4.785787706085e-05 -8.398501610228e-06 0.0 
-8.398501610228e-06 9.321035171763e-04 0.0 
0.0 0.0 0.0 
-3.803423295734e-05 -6.503130334383e-06 0.0 
-6.503130334383e-06 9.306352862384e-04 0.0 
0.0 0.0 0.0 
-4.695355960871e-05 -9.224378135100e-06 0.0 
-9.224378135100e-06 9.314853233322e-04 0.0 
0.0 0.0 0.0 
-3.515937075893e-05 -6.960571411576e-06 0.0 
-6.960571411576e-06 9.295015776731e-04 0.0 
0.0 0.0 0.0 
-4.612916194480e-05 -9.938285641060e-06 0.0 
-9.938285641060e-06 9.308748112287e-04 0.0 
0.0 0.0 0.0 
-3.228226280527e-05 2.052363289449e-05 0.0 
2.052363289449e-05 8.983598555510e-04 0.0 
0.0 0.0 0.0 
-3.212797345298e-05 -7.254086304362e-06 0.0 
-7.254086304362e-06 9.282394127130e-04 0.0 
0.0 0.0 0.0 
-4.547929874410e-05 -1.036511542906e-05 0.0 
-1.036511542906e-05 9.303721572109e-04 0.0 
0.0 0.0 0.0 
-2.910410826085e-05 -7.306724309723e-06 0.0 
-7.306724309723e-06 9.269937332537e-04 0.0 
0.0 0.0 0.0 
-4.539946119797e-05 -1.051388471561e-05 0.0 
-1.051388471561e-05 9.300717165703e-04 0.0 
0.0 0.0 0.0 
-2.623108848443e-05 -6.990356127167e-06 0.0 
-6.990356127167e-06 9.257355382575e-04 0.0 
0.0 0.0 0.0 
-4.579665561910e-05 -1.006040524720e-05 0.0 
-1.006040524720e-05 9.300529649363e-04 0.0 
0.0 0.0 0.0 
-2.383059213951e-05 -6.177546771878e-06 0.0 
-6.177546771878e-06 9.246943260308e-04 0.0 
0.0 0.0 0.0 
-4.755104023624e-05 -9.177197950582e-06 0.0 
-9.177197950582e-06 9.303398021683e-04 0.0 
0.0 0.0 0.0 
-2.207404737387e-05 -4.428223722643e-06 0.0 
-4.428223722643e-06 9.233500825896e-04 0.0 
0.0 0.0 0.0 
-4.973123380392e-05 -6.429681925816e-06 0.0 
-6.429681925816e-06 9.311607999012e-04 0.0 
0.0 0.0 0.0 
-7.204685103346e-05 4.742868663564e-05 0.0 
4.742868663564e-05 9.422526449512e-04 0.0 
0.0 0.0 0.0 
-5.530958357014e-05 -3.373595877619e-06 0.0 
-3.373595877619e-06 9.323208774752e-04 0.0 
0.0 0.0 0.0 
-2.197649141988e-05 -1.491546359791e-06 0.0 
-1.491546359791e-06 9.230463910974e-04 0.0 
0.0 0.0 0.0 
-5.744507955918e-05 5.781991399708e-06 0.0 
5.781991399708e-06 9.334550160809e-04 0.0 
0.0 0.0 0.0 
-2.332286659923e-05 4.119094608661e-06 0.0 
4.119094608661e-06 9.206741724677e-04 0.0 
0.0 0.0 0.0 
-2.929383920125e-05 1.400278248890e-05 0.0 
1.400278248890e-05 9.209849065597e-04 0.0 
0.0 0.0 0.0 
-6.431388061501e-05 2.332920613920e-05 0.0 
2.332920613920e-05 9.229306488363e-04 0.0 
0.0 0.0 0.0 
-5.647696362066e-05 -9.104260363033e-06 0.0 
-9.104260363033e-06 9.374532237678e-04 0.0 
0.0 0.0 0.0 
-5.210660310939e-05 7.667985688369e-06 0.0 
7.667985688369e-06 9.296309488438e-04 0.0 
0.0 0.0 0.0 
-5.387795493528e-05 -1.407288841636e-06 0.0 
-1.407288841636e-06 9.500252793020e-04 0.0 
0.0 0.0 0.0 
-5.466624842088e-05 2.120503080583e-07 0.0 
2.120503080583e-07 9.174928152338e-04 0.0 
0.0 0.0 0.0 
-5.097232898332e-05 4.984983778123e-05 0.0 
4.984983778123e-05 8.959356183063e-04 0.0 
0.0 0.0 0.0 
-5.434368317381e-05 -3.050581312329e-06 0.0 
-3.050581312329e-06 1.005787998509e-03 0.0 
0.0 0.0 0.0 
-5.417769205662e-05 -4.279649757738e-07 0.0 
-4.279649757738e-07 1.000655220486e-03 0.0 
0.0 0.0 0.0 
-5.444706429525e-05 -1.855011735286e-06 0.0 
-1.855011735286e-06 1.000513189241e-03 0.0 
0.0 0.0 0.0 
-5.357426950392e-05 -2.040816130097e-06 0.0 
-2.040816130097e-06 1.000110142328e-03 0.0 
0.0 0.0 0.0 
-5.429693179115e-05 -2.301317124932e-06 0.0 
-2.301317124932e-06 1.000075132154e-03 0.0 
0.0 0.0 0.0 
-5.297228734602e-05 -2.790543869105e-06 0.0 
-2.790543869105e-06 9.998827782927e-04 0.0 
0.0 0.0 0.0 
-5.419907033644e-05 -2.980434183578e-06 0.0 
-2.980434183578e-06 9.998570680598e-04 0.0 
0.0 0.0 0.0 
-5.241925021737e-05 -3.681803020860e-06 0.0 
-3.681803020860e-06 9.997217887461e-04 0.0 
0.0 0.0 0.0 
-5.417369274807e-05 -3.739837368504e-06 0.0 
-3.739837368504e-06 9.997346933237e-04 0.0 
0.0 0.0 0.0 
-5.185601701008e-05 -4.645213871986e-06 0.0 
-4.645213871986e-06 9.995993126588e-04 0.0 
0.0 0.0 0.0 
-5.424917429508e-05 -4.519103177978e-06 0.0 
-4.519103177978e-06 9.996909919059e-04 0.0 
0.0 0.0 0.0 
-5.123795424344e-05 -5.637294359080e-06 0.0 
-5.637294359080e-06 9.994864957068e-04 0.0 
0.0 0.0 0.0 
-5.440521764599e-05 -5.340936860191e-06 0.0 
-5.340936860191e-06 9.996872182729e-04 0.0 
0.0 0.0 0.0 
-5.051340013695e-05 -6.650271754672e-06 0.0 
-6.650271754672e-06 9.992913908978e-04 0.0 
0.0 0.0 0.0 
-5.460632069343e-05 -6.140849913355e-06 0.0 
-6.140849913355e-06 9.996588764563e-04 0.0 
0.0 0.0 0.0 
-4.968054333576e-05 -7.629201922734e-06 0.0 
-7.629201922734e-06 9.990072770447e-04 0.0 
0.0 0.0 0.0 
-7.112093051798e-05 1.992062499008e-05 0.0 
1.992062499008e-05 9.987417227064e-04 0.0 
0.0 0.0 0.0 
-5.484789581933e-05 -6.862510350286e-06 0.0 
-6.862510350286e-06 9.996138854713e-04 0.0 
0.0 0.0 0.0 
-4.877918451940e-05 -8.519868115663e-06 0.0 
-8.519868115663e-06 9.986862720124e-04 0.0 
0.0 0.0 0.0 
-5.744507955918e-05 1.667202320462e-05 0.0 
1.667202320462e-05 9.728696905917e-04 0.0 
0.0 0.0 0.0 
-5.530634645479e-05 -7.486213002821e-06 0.0 
-7.486213002821e-06 9.996110471890e-04 0.0 
0.0 0.0 0.0 
-4.785787706085e-05 -9.305348352307e-06 0.0 
-9.305348352307e-06 9.983336917194e-04 0.0 
0.0 0.0 0.0 
-7.895016091963e-05 1.581653978847e-05 0.0 
1.581653978847e-05 1.004803115509e-03 0.0 
0.0 0.0 0.0 
-5.597480573438e-05 -8.019415347781e-06 0.0 
-8.019415347781e-06 9.996547976017e-04 0.0 
0.0 0.0 0.0 
-4.695355960871e-05 -9.933899678237e-06 0.0 
-9.933899678237e-06 9.979146650614e-04 0.0 
0.0 0.0 0.0 
-5.687100015006e-05 -8.390326170584e-06 0.0 
-8.390326170584e-06 9.997333788134e-04 0.0 
0.0 0.0 0.0 
-4.612916194480e-05 -1.028760479755e-05 0.0 
-1.028760479755e-05 9.974004549260e-04 0.0 
0.0 0.0 0.0 
-5.811804997802e-05 -8.466249605238e-06 0.0 
-8.466249605238e-06 9.998506620981e-04 0.0 
0.0 0.0 0.0 
-4.547929874410e-05 -1.014785500169e-05 0.0 
-1.014785500169e-05 9.966968767157e-04 0.0 
0.0 0.0 0.0 
-8.147690249682e-05 3.446738679967e-05 0.0 
3.446738679967e-05 1.009247582406e-03 0.0 
0.0 0.0 0.0 
-5.969231690250e-05 -7.755491040887e-06 0.0 
-7.755491040887e-06 1.000112626211e-03 0.0 
0.0 0.0 0.0 
-4.539946119797e-05 -9.267717614803e-06 0.0 
-9.267717614803e-06 9.964197626673e-04 0.0 
0.0 0.0 0.0 
-6.240755701692e-05 -6.764757350912e-06 0.0 
-6.764757350912e-06 1.000688746338e-03 0.0 
0.0 0.0 0.0 
-4.579665561910e-05 -7.481172132457e-06 0.0 
-7.481172132457e-06 9.955685195713e-04 0.0 
0.0 0.0 0.0 
-4.755104023624e-05 -4.327457995565e-06 0.0 
-4.327457995565e-06 9.958564855914e-04 0.0 
0.0 0.0 0.0 
-6.534775604949e-05 -4.060351426191e-06 0.0 
-4.060351426191e-06 1.001433352204e-03 0.0 
0.0 0.0 0.0 
-4.973123380392e-05 9.343128386113e-07 0.0 
9.343128386113e-07 9.932188714463e-04 0.0 
0.0 0.0 0.0 
-7.054674934448e-05 -1.612879909150e-06 0.0 
-1.612879909150e-06 1.002317476921e-03 0.0 
0.0 0.0 0.0 
-5.530958357014e-05 1.000780574917e-05 0.0 
1.000780574917e-05 9.939509129075e-04 0.0 
0.0 0.0 0.0 
-7.159733339146e-05 6.226946119034e-06 0.0 
6.226946119034e-06 1.002410126564e-03 0.0 
0.0 0.0 0.0 
-7.678888838059e-05 1.932541775082e-05 0.0 
1.932541775082e-05 9.874717660978e-04 0.0 
0.0 0.0 0.0 
-5.151317960461e-05 -8.996241225877e-06 0.0 
-8.996241225877e-06 9.972923063626e-04 0.0 
0.0 0.0 0.0 
-5.655285436001e-05 7.515540556530e-06 0.0 
7.515540556530e-06 1.006317685334e-03 0.0 
0.0 0.0 0.0 
-5.387795493528e-05 -1.525715116212e-06 0.0 
-1.525715116212e-06 9.849727949973e-04 0.0 
0.0 0.0 0.0 
-5.425666619396e-05 3.454286799391e-07 0.0 
3.454286799391e-07 1.018116589618e-03 0.0 
0.0 0.0 0.0 
-6.795550528471e-05 3.710448724090e-05 0.0 
3.710448724090e-05 9.674843508336e-04 0.0 
0.0 0.0 0.0 
-5.434368317381e-05 -3.110495992951e-06 0.0 
-3.110495992951e-06 1.058845592629e-03 0.0 
0.0 0.0 0.0 
-5.499329619529e-05 -3.466873767354e-07 0.0 
-3.466873767354e-07 1.064683104752e-03 0.0 
0.0 0.0 0.0 
-5.444706429525e-05 -2.151568312021e-06 0.0 
-2.151568312021e-06 1.064862227266e-03 0.0 
0.0 0.0 0.0 
-5.508724460501e-05 -2.289510593128e-06 0.0 
-2.289510593128e-06 1.065154788323e-03 0.0 
0.0 0.0 0.0 
-5.429693179115e-05 -2.492826398732e-06 0.0 
-2.492826398732e-06 1.065180840185e-03 0.0 
0.0 0.0 0.0 
-5.543363126337e-05 -2.948402022147e-06 0.0 
-2.948402022147e-06 1.065281530635e-03 0.0 
0.0 0.0 0.0 
-5.419907033644e-05 -3.087757116401e-06 0.0 
-3.087757116401e-06 1.065297056045e-03 0.0 
0.0 0.0 0.0 
-5.576357513404e-05 -3.719947475511e-06 0.0 
-3.719947475511e-06 1.065388546902e-03 0.0 
0.0 0.0 0.0 
-5.417369274807e-05 -3.742674839089e-06 0.0 
-3.742674839089e-06 1.065369386831e-03 0.0 
0.0 0.0 0.0 
-5.636893806027e-05 -4.532881547568e-06 0.0 
-4.532881547568e-06 1.065612100164e-03 0.0 
0.0 0.0 0.0 
-5.424917429508e-05 -4.449403203640e-06 0.0 
-4.449403203640e-06 1.065539361976e-03 0.0 
0.0 0.0 0.0 
-5.708260121706e-05 -5.396681202096e-06 0.0 
-5.396681202096e-06 1.065904854478e-03 0.0 
0.0 0.0 0.0 
-5.440521764599e-05 -5.155032734643e-06 0.0 
-5.155032734643e-06 1.065738282642e-03 0.0 
0.0 0.0 0.0 
-5.815257418718e-05 -6.328017787401e-06 0.0 
-6.328017787401e-06 1.066259814744e-03 0.0 
0.0 0.0 0.0 
-5.460632069343e-05 -5.842494694400e-06 0.0 
-5.842494694400e-06 1.065923755367e-03 0.0 
0.0 0.0 0.0 
-8.272619711969e-05 1.490376538139e-05 0.0 
1.490376538139e-05 1.068790153944e-03 0.0 
0.0 0.0 0.0 
-5.914021537179e-05 -7.209334597941e-06 0.0 
-7.209334597941e-06 1.066528324008e-03 0.0 
0.0 0.0 0.0 
-8.529580109240e-05 1.180895468740e-05 0.0 
1.180895468740e-05 1.072095828373e-03 0.0 
0.0 0.0 0.0 
-5.484789581933e-05 -6.313859388387e-06 0.0 
-6.313859388387e-06 1.065908061486e-03 0.0 
0.0 0.0 0.0 
-6.054443083003e-05 -7.760797581785e-06 0.0 
-7.760797581785e-06 1.066941955140e-03 0.0 
0.0 0.0 0.0 
-5.530634645479e-05 -6.636861237573e-06 0.0 
-6.636861237573e-06 1.066052606694e-03 0.0 
0.0 0.0 0.0 
-6.235326378301e-05 -8.202999051379e-06 0.0 
-8.202999051379e-06 1.067485742785e-03 0.0 
0.0 0.0 0.0 
-5.597480573438e-05 -6.785461247808e-06 0.0 
-6.785461247808e-06 1.066223726103e-03 0.0 
0.0 0.0 0.0 
-6.437794803227e-05 -8.433991554251e-06 0.0 
-8.433991554251e-06 1.068033323400e-03 0.0 
0.0 0.0 0.0 
-7.159733339146e-05 1.444768338752e-05 0.0 
1.444768338752e-05 1.043462781570e-03 0.0 
0.0 0.0 0.0 
-5.687100015006e-05 -6.578461831986e-06 0.0 
-6.578461831986e-06 1.066244380258e-03 0.0 
0.0 0.0 0.0 
-6.684615731667e-05 -8.192916218573e-06 0.0 
-8.192916218573e-06 1.068609797820e-03 0.0 
0.0 0.0 0.0 
-5.811804997802e-05 -5.865753553178e-06 0.0 
-5.865753553178e-06 1.066175235750e-03 0.0 
0.0 0.0 0.0 
-6.989282711434e-05 -7.449042343804e-06 0.0 
-7.449042343804e-06 1.069091803662e-03 0.0 
0.0 0.0 0.0 
-5.969231690250e-05 -4.172014516474e-06 0.0 
-4.172014516474e-06 1.065548321683e-03 0.0 
0.0 0.0 0.0 
-7.279986609343e-05 -4.842380039533e-06 0.0 
-4.842380039533e-06 1.069830501182e-03 0.0 
0.0 0.0 0.0 
-6.240755701692e-05 -1.570412526734e-06 0.0 
-1.570412526734e-06 1.065915107084e-03 0.0 
0.0 0.0 0.0 
-7.814216178970e-05 -2.435676654820e-06 0.0 
-2.435676654820e-06 1.070541247848e-03 0.0 
0.0 0.0 0.0 
-7.950815759628e-05 4.190182391272e-06 0.0 
4.190182391272e-06 1.070687062537e-03 0.0 
0.0 0.0 0.0 
-6.534775604949e-05 2.748221323571e-06 0.0 
2.748221323571e-06 1.064347024548e-03 0.0 
0.0 0.0 0.0 
-8.754349598861e-05 2.566509299081e-05 0.0 
2.566509299081e-05 1.076411634837e-03 0.0 
0.0 0.0 0.0 
-7.054674934448e-05 9.223422124191e-06 0.0 
9.223422124191e-06 1.064790154399e-03 0.0 
0.0 0.0 0.0 
-8.366957323735e-05 1.487811045485e-05 0.0 
1.487811045485e-05 1.051886386661e-03 0.0 
0.0 0.0 0.0 
-5.691764168692e-05 -8.884163609810e-06 0.0 
-8.884163609810e-06 1.066820950928e-03 0.0 
0.0 0.0 0.0 
-5.216510655737e-05 7.606899556060e-06 0.0 
7.606899556060e-06 1.058308361241e-03 0.0 
0.0 0.0 0.0 
-5.475955766288e-05 -1.366310204370e-06 0.0 
-1.366310204370e-06 1.079429236443e-03 0.0 
0.0 0.0 0.0 
-5.425666619396e-05 3.856528394745e-07 0.0 
3.856528394745e-07 1.046215219024e-03 0.0 
0.0 0.0 0.0 
-7.895016091963e-05 2.803408621990e-05 0.0 
2.803408621990e-05 1.039090327479e-03 0.0 
0.0 0.0 0.0 
-5.573228952893e-05 -2.942451803977e-06 0.0 
-2.942451803977e-06 1.135239462179e-03 0.0 
0.0 0.0 0.0 
-5.499329619529e-05 -2.603405596740e-07 0.0 
-2.603405596740e-07 1.129536172178e-03 0.0 
0.0 0.0 0.0 
-5.541237584050e-05 -1.989713886202e-06 0.0 
-1.989713886202e-06 1.129334166595e-03 0.0 
0.0 0.0 0.0 
-5.508724460501e-05 -2.053972049815e-06 0.0 
-2.053972049815e-06 1.129181056813e-03 0.0 
0.0 0.0 0.0 
-5.605600156788e-05 -1.965273399927e-06 0.0 
-1.965273399927e-06 1.129204251741e-03 0.0 
0.0 0.0 0.0 
-5.543363126337e-05 -2.489026397930e-06 0.0 
-2.489026397930e-06 1.129643977383e-03 0.0 
0.0 0.0 0.0 
-5.701247486289e-05 -2.550207355224e-06 0.0 
-2.550207355224e-06 1.129651434370e-03 0.0 
0.0 0.0 0.0 
-5.576357513404e-05 -3.139865110978e-06 0.0 
-3.139865110978e-06 1.129748735773e-03 0.0 
0.0 0.0 0.0 
-5.769341302653e-05 -2.812700814598e-06 0.0 
-2.812700814598e-06 1.129886695815e-03 0.0 
0.0 0.0 0.0 
-5.636893806027e-05 -3.607724166163e-06 0.0 
-3.607724166163e-06 1.130297886202e-03 0.0 
0.0 0.0 0.0 
-5.916357442770e-05 -3.328636781622e-06 0.0 
-3.328636781622e-06 1.130483417830e-03 0.0 
0.0 0.0 0.0 
-5.708260121706e-05 -4.216607269574e-06 0.0 
-4.216607269574e-06 1.130581414668e-03 0.0 
0.0 0.0 0.0 
-6.046052606223e-05 -3.523335257807e-06 0.0 
-3.523335257807e-06 1.131010061549e-03 0.0 
0.0 0.0 0.0 
-8.847867228290e-05 1.182946542614e-05 0.0 
1.182946542614e-05 1.136718862816e-03 0.0 
0.0 0.0 0.0 
-5.815257418718e-05 -4.644909920985e-06 0.0 
-4.644909920985e-06 1.131375778277e-03 0.0 
0.0 0.0 0.0 
-6.257667122678e-05 -4.269933020982e-06 0.0 
-4.269933020982e-06 1.131797170702e-03 0.0 
0.0 0.0 0.0 
-7.950815759628e-05 1.200077514466e-05 0.0 
1.200077514466e-05 1.112227911332e-03 0.0 
0.0 0.0 0.0 
-5.914021537179e-05 -5.198602086737e-06 0.0 
-5.198602086737e-06 1.131304915081e-03 0.0 
0.0 0.0 0.0 
-6.443007747903e-05 -4.172675112764e-06 0.0 
-4.172675112764e-06 1.132218709317e-03 0.0 
0.0 0.0 0.0 
-8.786382770376e-05 1.117445242031e-05 0.0 
1.117445242031e-05 1.137220164677e-03 0.0 
0.0 0.0 0.0 
-6.054443083003e-05 -5.202511999659e-06 0.0 
-5.202511999659e-06 1.131736495934e-03 0.0 
0.0 0.0 0.0 
-6.704475039565e-05 -3.914961717383e-06 0.0 
-3.914961717383e-06 1.133056189834e-03 0.0 
0.0 0.0 0.0 
-6.235326378301e-05 -4.978201092815e-06 0.0 
-4.978201092815e-06 1.132347807450e-03 0.0 
0.0 0.0 0.0 
-6.993454528814e-05 -3.726850248679e-06 0.0 
-3.726850248679e-06 1.133951047495e-03 0.0 
0.0 0.0 0.0 
-6.437794803227e-05 -4.415162224002e-06 0.0 
-4.415162224002e-06 1.132515339574e-03 0.0 
0.0 0.0 0.0 
-9.082344213607e-05 2.089491930553e-05 0.0 
2.089491930553e-05 1.142835266461e-03 0.0 
0.0 0.0 0.0 
-7.304328018620e-05 -2.881224536820e-06 0.0 
-2.881224536820e-06 1.134677537655e-03 0.0 
0.0 0.0 0.0 
-6.684615731667e-05 -3.124422781287e-06 0.0 
-3.124422781287e-06 1.132613831692e-03 0.0 
0.0 0.0 0.0 
-6.989282711434e-05 -1.088156974217e-06 0.0 
-1.088156974217e-06 1.132763230332e-03 0.0 
0.0 0.0 0.0 
-7.683763929789e-05 -1.327902840908e-06 0.0 
-1.327902840908e-06 1.135448333492e-03 0.0 
0.0 0.0 0.0 
-7.279986609343e-05 2.482506938202e-06 0.0 
2.482506938202e-06 1.130452928189e-03 0.0 
0.0 0.0 0.0 
-8.169898235943e-05 1.779584641160e-07 0.0 
1.779584641160e-07 1.135807649298e-03 0.0 
0.0 0.0 0.0 
-7.814216178970e-05 8.204579491646e-06 0.0 
8.204579491646e-06 1.132272095282e-03 0.0 
0.0 0.0 0.0 
-8.262423267413e-05 6.202864536884e-06 0.0 
6.202864536884e-06 1.135647778735e-03 0.0 
0.0 0.0 0.0 
-8.798544808997e-05 1.256582815139e-05 0.0 
1.256582815139e-05 1.117739559019e-03 0.0 
0.0 0.0 0.0 
-5.212871298632e-05 -8.591336189346e-06 0.0 
-8.591336189346e-06 1.126212018940e-03 0.0 
0.0 0.0 0.0 
-5.753404643727e-05 7.947178518409e-06 0.0 
7.947178518409e-06 1.135881587281e-03 0.0 
0.0 0.0 0.0 
-5.475955766288e-05 -1.141642720070e-06 0.0 
-1.141642720070e-06 1.114229214188e-03 0.0 
0.0 0.0 0.0 
-5.498727717812e-05 8.569792916778e-07 0.0 
8.569792916778e-07 1.147245752802e-03 0.0 
0.0 0.0 0.0 
-8.529580109240e-05 2.176055118938e-05 0.0 
2.176055118938e-05 1.107872424231e-03 0.0 
0.0 0.0 0.0 
-5.573228952893e-05 -3.216044050692e-06 0.0 
-3.216044050692e-06 1.189334566256e-03 0.0 
0.0 0.0 0.0 
-5.434988947683e-05 -5.503730986112e-07 0.0 
-5.503730986112e-07 1.193127751669e-03 0.0 
0.0 0.0 0.0 
-5.541237584050e-05 -1.221427892291e-06 0.0 
-1.221427892291e-06 1.193210375716e-03 0.0 
0.0 0.0 0.0 
-5.582415897532e-05 -1.009615554576e-06 0.0 
-1.009615554576e-06 1.193938943190e-03 0.0 
0.0 0.0 0.0 
-5.605600156788e-05 -1.183522850337e-06 0.0 
-1.183522850337e-06 1.193971437716e-03 0.0 
0.0 0.0 0.0 
-5.674082997598e-05 -1.019489269737e-06 0.0 
-1.019489269737e-06 1.194794079646e-03 0.0 
0.0 0.0 0.0 
-5.701247486289e-05 -1.687159587473e-06 0.0 
-1.687159587473e-06 1.194954938335e-03 0.0 
0.0 0.0 0.0 
-5.746482326785e-05 -1.953995007452e-06 0.0 
-1.953995007452e-06 1.194828835879e-03 0.0 
0.0 0.0 0.0 
-5.769341302653e-05 -1.451239419738e-06 0.0 
-1.451239419738e-06 1.194685910139e-03 0.0 
0.0 0.0 0.0 
-5.892911615490e-05 -1.319749161795e-06 0.0 
-1.319749161795e-06 1.195740537046e-03 0.0 
0.0 0.0 0.0 
-5.916357442770e-05 -1.663349220779e-06 0.0 
-1.663349220779e-06 1.195869109123e-03 0.0 
0.0 0.0 0.0 
-6.100249968455e-05 -2.089665505035e-06 0.0 
-2.089665505035e-06 1.196351686817e-03 0.0 
0.0 0.0 0.0 
-9.058242199789e-05 1.111621226737e-05 0.0 
1.111621226737e-05 1.203104793954e-03 0.0 
0.0 0.0 0.0 
-6.046052606223e-05 -1.470004266097e-06 0.0 
-1.470004266097e-06 1.196073559260e-03 0.0 
0.0 0.0 0.0 
-8.871195112525e-05 1.121364840607e-05 0.0 
1.121364840607e-05 1.202654758653e-03 0.0 
0.0 0.0 0.0 
-6.197912683203e-05 -1.304767468970e-06 0.0 
-1.304767468970e-06 1.197214314258e-03 0.0 
0.0 0.0 0.0 
-6.257667122678e-05 -1.324009967734e-06 0.0 
-1.324009967734e-06 1.197256451594e-03 0.0 
0.0 0.0 0.0 
-6.595004420129e-05 -2.078847844144e-06 0.0 
-2.078847844144e-06 1.197970235089e-03 0.0 
0.0 0.0 0.0 
-6.443007747903e-05 -7.046030822604e-07 0.0 
-7.046030822604e-07 1.197136190886e-03 0.0 
0.0 0.0 0.0 
-6.894477543318e-05 -1.022945894919e-06 0.0 
-1.022945894919e-06 1.198936303821e-03 0.0 
0.0 0.0 0.0 
-6.704475039565e-05 7.606106193448e-09 0.0 
7.606106193448e-09 1.198165734734e-03 0.0 
0.0 0.0 0.0 
-7.170316113969e-05 -2.952297408426e-07 0.0 
-2.952297408426e-07 1.199887762433e-03 0.0 
0.0 0.0 0.0 
-8.262423267413e-05 1.288194348389e-05 0.0 
1.288194348389e-05 1.178922785613e-03 0.0 
0.0 0.0 0.0 
-6.993454528814e-05 1.147189150504e-06 0.0 
1.147189150504e-06 1.198769309277e-03 0.0 
0.0 0.0 0.0 
-7.543589581704e-05 7.593844846418e-07 0.0 
7.593844846418e-07 1.200570778029e-03 0.0 
0.0 0.0 0.0 
-7.304328018620e-05 3.117638777720e-06 0.0 
3.117638777720e-06 1.198608085855e-03 0.0 
0.0 0.0 0.0 
-7.912928450593e-05 3.194758178874e-06 0.0 
3.194758178874e-06 1.201025087940e-03 0.0 
0.0 0.0 0.0 
-8.343303116121e-05 6.970521941343e-06 0.0 
6.970521941343e-06 1.201624633220e-03 0.0 
0.0 0.0 0.0 
-7.683763929789e-05 6.177304114477e-06 0.0 
6.177304114477e-06 1.198409293263e-03 0.0 
0.0 0.0 0.0 
-8.169898235943e-05 9.859605075261e-06 0.0 
9.859605075261e-06 1.198951380012e-03 0.0 
0.0 0.0 0.0 
-9.058256009331e-05 1.883771282156e-05 0.0 
1.883771282156e-05 1.208211458107e-03 0.0 
0.0 0.0 0.0 
-8.800685345389e-05 1.258247277304e-05 0.0 
1.258247277304e-05 1.181978425012e-03 0.0 
0.0 0.0 0.0 
-5.695403569617e-05 -7.613772378845e-06 0.0 
-7.613772378845e-06 1.194099426088e-03 0.0 
0.0 0.0 0.0 
-5.389709276338e-05 8.855574278674e-06 0.0 
8.855574278674e-06 1.188622883520e-03 0.0 
0.0 0.0 0.0 
-5.580600544264e-05 2.700478661737e-07 0.0 
2.700478661737e-07 1.208321820279e-03 0.0 
0.0 0.0 0.0 
-5.498727717812e-05 1.289767339229e-06 0.0 
1.289767339229e-06 1.174963316094e-03 0.0 
0.0 0.0 0.0 
-8.786382770376e-05 1.911284013173e-05 0.0 
1.911284013173e-05 1.176188498109e-03 0.0 
0.0 0.0 0.0 

TENSORS element_materi_strain_plasti float
-7.112834060814e-05 3.514287460403e-05 0.0 
3.514287460403e-05 4.221004333340e-04 0.0 
0.0 0.0 -6.331083958573e-05 
-5.846555959083e-05 -3.955396469031e-05 0.0 
-3.955396469031e-05 3.778270157352e-04 0.0 
0.0 0.0 -6.454996159239e-05 
-1.889012089990e-04 -4.635760778403e-06 0.0 
-4.635760778403e-06 1.261715003762e-03 0.0 
0.0 0.0 -1.917354871627e-04 
-1.892197240299e-04 -2.621872887778e-05 0.0 
-2.621872887778e-05 1.272074442975e-03 0.0 
0.0 0.0 -1.883397590782e-04 
-1.197492232907e-04 3.454635042166e-05 0.0 
3.454635042166e-05 7.881734594548e-04 0.0 
0.0 0.0 -1.194279202642e-04 
-3.089019924433e-05 3.311410509037e-05 0.0 
3.311410509037e-05 1.513652850395e-04 0.0 
0.0 0.0 -2.690189283898e-05 
-1.181845121128e-04 4.042873295375e-05 0.0 
4.042873295375e-05 7.806844228614e-04 0.0 
0.0 0.0 -1.201653584795e-04 
-6.192381097420e-05 6.121385101827e-06 0.0 
6.121385101827e-06 4.031113170469e-04 0.0 
0.0 0.0 -6.068503909357e-05 
-1.204422882212e-04 -4.316649774326e-05 0.0 
-4.316649774326e-05 7.921064928151e-04 0.0 
0.0 0.0 -1.196685615722e-04 
-1.872884217324e-04 3.363141611130e-05 0.0 
3.363141611130e-05 1.259931992447e-03 0.0 
0.0 0.0 -1.879590212157e-04 
-1.310105652939e-04 2.220654670134e-05 0.0 
2.220654670134e-05 8.586450598517e-04 0.0 
0.0 0.0 -1.322476557103e-04 
-5.719807020115e-05 3.286461856494e-08 0.0 
3.286461856494e-08 3.230799459092e-04 0.0 
0.0 0.0 -5.602547750609e-05 
-1.877824496395e-04 3.388580337900e-05 0.0 
3.388580337900e-05 1.270169470641e-03 0.0 
0.0 0.0 -1.888781569884e-04 
-1.271872132406e-04 2.790230920199e-05 0.0 
2.790230920199e-05 8.458021199286e-04 0.0 
0.0 0.0 -1.278925217316e-04 
-1.932284152260e-04 -2.749272838120e-05 0.0 
-2.749272838120e-05 1.293984431102e-03 0.0 
0.0 0.0 -1.934308312547e-04 
-1.951772105051e-04 3.059468724474e-05 0.0 
3.059468724474e-05 1.293909326463e-03 0.0 
0.0 0.0 -1.928977411855e-04 
-1.183364621444e-04 7.034029580759e-07 0.0 
7.034029580759e-07 7.884128395372e-04 0.0 
0.0 0.0 -1.161101519611e-04 
-2.611548289249e-05 -2.976881314846e-05 0.0 
-2.976881314846e-05 1.366026820107e-04 0.0 
0.0 0.0 -2.739356786257e-05 
-4.655901900947e-05 -1.783274604704e-05 0.0 
-1.783274604704e-05 2.713105741166e-04 0.0 
0.0 0.0 -4.164025237647e-05 
-4.525890771348e-05 1.651863799484e-05 0.0 
1.651863799484e-05 2.466759593770e-04 0.0 
0.0 0.0 -4.546658199970e-05 
-1.855467270519e-04 -3.410013315625e-05 0.0 
-3.410013315625e-05 1.271232436366e-03 0.0 
0.0 0.0 -1.875582398551e-04 
-7.183248799894e-05 1.385365681385e-05 0.0 
1.385365681385e-05 4.407830654411e-04 0.0 
0.0 0.0 -7.216713101957e-05 
-7.730219154025e-05 -1.500465902034e-05 0.0 
-1.500465902034e-05 4.983174969402e-04 0.0 
0.0 0.0 -7.637334323853e-05 
-1.811871610611e-04 -2.281549761052e-05 0.0 
-2.281549761052e-05 1.217872226341e-03 0.0 
0.0 0.0 -1.815559455716e-04 
-1.350733973102e-04 3.295465992380e-05 0.0 
3.295465992380e-05 9.016620137675e-04 0.0 
0.0 0.0 -1.369648256180e-04 
-1.376188637296e-04 -2.176217058498e-05 0.0 
-2.176217058498e-05 9.243651343577e-04 0.0 
0.0 0.0 -1.376939605679e-04 
-1.069658315495e-04 -2.744737862324e-06 0.0 
-2.744737862324e-06 7.297614599069e-04 0.0 
0.0 0.0 -1.072212406194e-04 
-1.912521162051e-04 1.980335045204e-06 0.0 
1.980335045204e-06 1.305953059909e-03 0.0 
0.0 0.0 -1.899071758113e-04 
-1.362716787782e-04 -3.798939155730e-05 0.0 
-3.798939155730e-05 9.083018994538e-04 0.0 
0.0 0.0 -1.367086240186e-04 
-1.873007466112e-04 2.251116880675e-05 0.0 
2.251116880675e-05 1.247916240988e-03 0.0 
0.0 0.0 -1.856871487262e-04 
-3.243755210516e-05 5.032771115372e-06 0.0 
5.032771115372e-06 2.086151015531e-04 0.0 
0.0 0.0 -3.278963886402e-05 
-1.654166470030e-05 4.638693750366e-06 0.0 
4.638693750366e-06 9.012172148024e-05 0.0 
0.0 0.0 -1.589633704410e-05 
-1.936928702910e-04 8.344522422306e-06 0.0 
8.344522422306e-06 1.305844555641e-03 0.0 
0.0 0.0 -1.891952015075e-04 
-1.629254088575e-04 -2.764733331880e-05 0.0 
-2.764733331880e-05 1.087637140145e-03 0.0 
0.0 0.0 -1.635300645102e-04 
-1.844440851533e-04 -3.122724235015e-05 0.0 
-3.122724235015e-05 1.269225288252e-03 0.0 
0.0 0.0 -1.882484805285e-04 
-2.000892196314e-04 5.806438950548e-05 0.0 
5.806438950548e-05 1.337814960827e-03 0.0 
0.0 0.0 -1.972329526028e-04 
-1.979323581362e-04 -6.123980485016e-05 0.0 
-6.123980485016e-05 1.334624137008e-03 0.0 
0.0 0.0 -1.971979658877e-04 
-1.876565914579e-04 2.632656749342e-05 0.0 
2.632656749342e-05 1.265796013128e-03 0.0 
0.0 0.0 -1.897108526679e-04 
-1.089254337778e-04 -4.761071042110e-05 0.0 
-4.761071042110e-05 7.109927537120e-04 0.0 
0.0 0.0 -1.107114518244e-04 
-1.094034421642e-04 5.351990132505e-05 0.0 
5.351990132505e-05 7.212963119965e-04 0.0 
0.0 0.0 -1.105676175232e-04 
-8.675634194158e-05 -2.048772068430e-05 0.0 
-2.048772068430e-05 5.676637230470e-04 0.0 
0.0 0.0 -8.691834785005e-05 
-1.894316575551e-04 1.529535291875e-06 0.0 
1.529535291875e-06 1.267582633286e-03 0.0 
0.0 0.0 -1.921134732322e-04 
-4.839148529355e-05 3.269211206116e-05 0.0 
3.269211206116e-05 2.885062742471e-04 0.0 
0.0 0.0 -4.811778726964e-05 
-1.084239785972e-04 8.299246254447e-06 0.0 
8.299246254447e-06 6.943716908755e-04 0.0 
0.0 0.0 -1.102508860907e-04 
-1.837583847109e-04 -1.472486193336e-05 0.0 
-1.472486193336e-05 1.244009219740e-03 0.0 
0.0 0.0 -1.819287770889e-04 
-4.809827435414e-05 -2.856413507896e-05 0.0 
-2.856413507896e-05 2.876955400614e-04 0.0 
0.0 0.0 -4.797639238285e-05 
-2.674214069171e-05 -6.567095403776e-07 0.0 
-6.567095403776e-07 1.170205921082e-04 0.0 
0.0 0.0 -2.746289347828e-05 
-1.830752196458e-04 9.475420572823e-06 0.0 
9.475420572823e-06 1.215993436390e-03 0.0 
0.0 0.0 -1.852115035180e-04 
-1.474418981779e-05 6.875922652760e-07 0.0 
6.875922652760e-07 4.915161551588e-05 0.0 
0.0 0.0 -1.474603958490e-05 
-1.203307146343e-04 -2.717995598574e-05 0.0 
-2.717995598574e-05 8.158947777103e-04 0.0 
0.0 0.0 -1.234415444935e-04 
-8.234981639965e-05 -1.699589320995e-05 0.0 
-1.699589320995e-05 5.359221535030e-04 0.0 
0.0 0.0 -8.161374715243e-05 
-5.082688459540e-05 -1.056431694294e-05 0.0 
-1.056431694294e-05 3.372053744103e-04 0.0 
0.0 0.0 -5.165715595373e-05 
-4.611236241503e-05 -2.201694224577e-05 0.0 
-2.201694224577e-05 2.721561722188e-04 0.0 
0.0 0.0 -4.571843846580e-05 
-8.132390918315e-05 1.940323008173e-05 0.0 
1.940323008173e-05 5.127711064819e-04 0.0 
0.0 0.0 -8.234191315183e-05 
-1.899869588384e-04 -1.183985275253e-06 0.0 
-1.183985275253e-06 1.270300843848e-03 0.0 
0.0 0.0 -1.923283752319e-04 
-6.895815039131e-05 -2.178280864622e-05 0.0 
-2.178280864622e-05 4.406253786073e-04 0.0 
0.0 0.0 -6.768350264862e-05 
-5.417817485919e-05 2.166263208896e-05 0.0 
2.166263208896e-05 3.190902094138e-04 0.0 
0.0 0.0 -5.541318120416e-05 
-1.632126763507e-04 2.740636426442e-05 0.0 
2.740636426442e-05 1.093574435161e-03 0.0 
0.0 0.0 -1.631601065255e-04 
-3.323583887555e-05 3.269521201795e-06 0.0 
3.269521201795e-06 2.033859620122e-04 0.0 
0.0 0.0 -3.284525368658e-05 
-1.937347679597e-04 -3.087303565399e-05 0.0 
-3.087303565399e-05 1.295743109935e-03 0.0 
0.0 0.0 -1.927980053726e-04 
-1.410948374280e-05 -1.895108414919e-05 0.0 
-1.895108414919e-05 7.768302090073e-05 0.0 
0.0 0.0 -1.429900283189e-05 
-1.810662248895e-04 3.422591082853e-05 0.0 
3.422591082853e-05 1.214874210850e-03 0.0 
0.0 0.0 -1.816237070315e-04 
-8.260879868620e-05 3.395540134069e-05 0.0 
3.395540134069e-05 5.200982356105e-04 0.0 
0.0 0.0 -8.245627511043e-05 
-3.949603130373e-05 1.817463478044e-05 0.0 
1.817463478044e-05 2.392386227040e-04 0.0 
0.0 0.0 -4.154126471103e-05 
-1.880584302466e-04 -2.737021915549e-05 0.0 
-2.737021915549e-05 1.269816799986e-03 0.0 
0.0 0.0 -1.886217783130e-04 
-7.828481688491e-05 1.568948501134e-05 0.0 
1.568948501134e-05 4.753725480920e-04 0.0 
0.0 0.0 -7.706359040663e-05 
-9.040619779534e-06 6.808328067989e-06 0.0 
6.808328067989e-06 3.080905476409e-05 0.0 
0.0 0.0 -9.329329279096e-06 
-1.897461617520e-04 -1.190223513879e-05 0.0 
-1.190223513879e-05 1.300793159363e-03 0.0 
0.0 0.0 -1.892491279630e-04 
-3.670459678346e-05 -3.155058415611e-05 0.0 
-3.155058415611e-05 2.097964586862e-04 0.0 
0.0 0.0 -3.606465181366e-05 
-1.910292024481e-04 -5.680018839650e-07 0.0 
-5.680018839650e-07 1.267292748539e-03 0.0 
0.0 0.0 -1.923564682915e-04 
-1.423720417950e-04 -2.542418638308e-05 0.0 
-2.542418638308e-05 9.582298228247e-04 0.0 
0.0 0.0 -1.433443585977e-04 
-2.007748921200e-04 -7.173616599770e-07 0.0 
-7.173616599770e-07 1.325499155450e-03 0.0 
0.0 0.0 -2.007748921200e-04 
-1.856237250837e-04 2.519587703741e-07 0.0 
2.519587703741e-07 1.217908679066e-03 0.0 
0.0 0.0 -1.849363666885e-04 
-1.959401746035e-05 3.302488870378e-05 0.0 
3.302488870378e-05 8.419396161668e-05 0.0 
0.0 0.0 -1.942930455437e-05 
-7.294356160709e-05 2.278666566635e-05 0.0 
2.278666566635e-05 4.423978020253e-04 0.0 
0.0 0.0 -7.166057984914e-05 
-1.881200936435e-04 -2.597496456892e-05 0.0 
-2.597496456892e-05 1.274260032451e-03 0.0 
0.0 0.0 -1.893940471826e-04 
-1.918449780582e-04 -8.194598920859e-07 0.0 
-8.194598920859e-07 1.307445909733e-03 0.0 
0.0 0.0 -1.898028072996e-04 
-3.750417093390e-05 -2.856125910662e-05 0.0 
-2.856125910662e-05 2.170807613547e-04 0.0 
0.0 0.0 -3.765846754783e-05 
-3.201050297440e-05 -1.804321051782e-06 0.0 
-1.804321051782e-06 1.678376622842e-04 0.0 
0.0 0.0 -3.550136840268e-05 
-3.928328821311e-05 3.001435520315e-05 0.0 
3.001435520315e-05 2.151736419894e-04 0.0 
0.0 0.0 -3.788339401932e-05 
-3.841727809162e-05 3.259876760906e-05 0.0 
3.259876760906e-05 1.973706613177e-04 0.0 
0.0 0.0 -3.659988700710e-05 
-1.163465053479e-04 4.799891796781e-06 0.0 
4.799891796781e-06 7.474963377636e-04 0.0 
0.0 0.0 -1.187754596314e-04 
-7.387818471422e-05 -1.490180971543e-05 0.0 
-1.490180971543e-05 4.683625195835e-04 0.0 
0.0 0.0 -7.124103466145e-05 
-6.818690854033e-05 3.229042439658e-06 0.0 
3.229042439658e-06 3.926939187943e-04 0.0 
0.0 0.0 -6.657494268075e-05 
-1.280956191016e-04 -3.699964442022e-05 0.0 
-3.699964442022e-05 8.260012594816e-04 0.0 
0.0 0.0 -1.250515658111e-04 
-1.265295814047e-04 3.342378051017e-05 0.0 
3.342378051017e-05 8.211688879782e-04 0.0 
0.0 0.0 -1.253711530225e-04 
-1.484422711167e-04 -2.770915871896e-05 0.0 
-2.770915871896e-05 9.841615042540e-04 0.0 
0.0 0.0 -1.480066387926e-04 
-1.583372546511e-04 2.913712885410e-05 0.0 
2.913712885410e-05 1.064432221446e-03 0.0 
0.0 0.0 -1.587865244471e-04 
-1.631334298294e-04 -3.149814825206e-05 0.0 
-3.149814825206e-05 1.098864964118e-03 0.0 
0.0 0.0 -1.628912057403e-04 
-1.190806096983e-04 -4.403551421918e-05 0.0 
-4.403551421918e-05 7.749316267703e-04 0.0 
0.0 0.0 -1.197484453225e-04 
-1.483799586843e-05 5.558978623438e-06 0.0 
5.558978623438e-06 4.973861707578e-05 0.0 
0.0 0.0 -1.495740908886e-05 
-1.182760976271e-04 3.125415357905e-06 0.0 
3.125415357905e-06 7.592172627745e-04 0.0 
0.0 0.0 -1.189347521933e-04 
-1.620624140011e-04 -1.653046323385e-05 0.0 
-1.653046323385e-05 1.054965702531e-03 0.0 
0.0 0.0 -1.604158976160e-04 
-1.568829102868e-04 1.686722308074e-05 0.0 
1.686722308074e-05 1.064364903998e-03 0.0 
0.0 0.0 -1.569671113975e-04 
-1.992656462665e-04 -3.194664877417e-06 0.0 
-3.194664877417e-06 1.366255928620e-03 0.0 
0.0 0.0 -1.979956382108e-04 
-1.950636109885e-04 -2.233519301319e-05 0.0 
-2.233519301319e-05 1.308516150632e-03 0.0 
0.0 0.0 -1.941292444173e-04 
-1.156817175628e-04 -1.648055008373e-05 0.0 
-1.648055008373e-05 7.482785284577e-04 0.0 
0.0 0.0 -1.183461849553e-04 
-1.927191275468e-04 -2.508365562690e-07 0.0 
-2.508365562690e-07 1.307929168688e-03 0.0 
0.0 0.0 -1.894775870554e-04 
-1.342251932282e-04 -2.319392894316e-05 0.0 
-2.319392894316e-05 8.854475909505e-04 0.0 
0.0 0.0 -1.356001284572e-04 
-7.729101182484e-05 -2.065735051107e-05 0.0 
-2.065735051107e-05 5.080668279858e-04 0.0 
0.0 0.0 -7.798198501994e-05 
-1.130620333788e-04 -2.717181399575e-05 0.0 
-2.717181399575e-05 7.549273825549e-04 0.0 
0.0 0.0 -1.146493908758e-04 
-1.950077973870e-04 2.900722902877e-05 0.0 
2.900722902877e-05 1.296464444951e-03 0.0 
0.0 0.0 -1.931276724533e-04 
-1.563208394466e-04 -3.328202351934e-05 0.0 
-3.328202351934e-05 1.049294579874e-03 0.0 
0.0 0.0 -1.565627933380e-04 
-1.819468009343e-04 -3.224668000663e-05 0.0 
-3.224668000663e-05 1.222740499621e-03 0.0 
0.0 0.0 -1.814398861444e-04 
-7.158014488702e-05 -3.063000169944e-05 0.0 
-3.063000169944e-05 4.571234338187e-04 0.0 
0.0 0.0 -7.121314524778e-05 
-2.401359942616e-05 8.661927370116e-06 0.0 
8.661927370116e-06 1.537990966386e-04 0.0 
0.0 0.0 -2.437345913330e-05 
-1.778980369956e-04 -2.992010737325e-05 0.0 
-2.992010737325e-05 1.196087071121e-03 0.0 
0.0 0.0 -1.784854310292e-04 
-1.679646052206e-04 1.093794452522e-05 0.0 
1.093794452522e-05 1.134281409959e-03 0.0 
0.0 0.0 -1.663185871606e-04 
-1.591223534516e-05 -6.661850777305e-06 0.0 
-6.661850777305e-06 9.101730959340e-05 0.0 
0.0 0.0 -1.557197371984e-05 
-1.881889712418e-04 -1.290050336167e-05 0.0 
-1.290050336167e-05 1.273792918307e-03 0.0 
0.0 0.0 -1.927691970005e-04 
-1.581915922847e-04 2.746019073347e-05 0.0 
2.746019073347e-05 1.044290574645e-03 0.0 
0.0 0.0 -1.577237574333e-04 
-1.522398741045e-05 -2.545037373997e-05 0.0 
-2.545037373997e-05 5.739303510054e-05 0.0 
0.0 0.0 -1.520280724627e-05 
-9.452563605332e-05 3.135471664961e-05 0.0 
3.135471664961e-05 6.036525676249e-04 0.0 
0.0 0.0 -9.464897897786e-05 
-1.065966120753e-04 -2.205603569538e-05 0.0 
-2.205603569538e-05 7.064327249630e-04 0.0 
0.0 0.0 -1.073087759210e-04 
-8.739882265024e-05 -1.070352948316e-05 0.0 
-1.070352948316e-05 5.348438843142e-04 0.0 
0.0 0.0 -8.658563305536e-05 
-7.050193455009e-05 2.512487401893e-05 0.0 
2.512487401893e-05 4.479548223167e-04 0.0 
0.0 0.0 -7.278598402964e-05 
-8.197347761458e-05 -3.364821245799e-05 0.0 
-3.364821245799e-05 5.279356728588e-04 0.0 
0.0 0.0 -8.207734578087e-05 
-1.943526740554e-04 1.658812663972e-05 0.0 
1.658812663972e-05 1.282091895606e-03 0.0 
0.0 0.0 -1.925749600208e-04 
-1.285507174143e-04 2.792411837159e-05 0.0 
2.792411837159e-05 8.722892326704e-04 0.0 
0.0 0.0 -1.315046391038e-04 
-7.635084208109e-05 3.539223257155e-05 0.0 
3.539223257155e-05 4.849768366675e-04 0.0 
0.0 0.0 -7.683710038160e-05 
-3.602345366775e-05 -3.490773875451e-05 0.0 
-3.490773875451e-05 2.028232612913e-04 0.0 
0.0 0.0 -3.442901837107e-05 
-1.143531422852e-04 1.924554056095e-05 0.0 
1.924554056095e-05 7.838716458168e-04 0.0 
0.0 0.0 -1.161738141813e-04 
-1.655806278350e-04 -1.376876940895e-05 0.0 
-1.376876940895e-05 1.108151184003e-03 0.0 
0.0 0.0 -1.693933130199e-04 
-7.665289294717e-05 -3.764080062832e-05 0.0 
-3.764080062832e-05 4.894086693533e-04 0.0 
0.0 0.0 -7.664586338968e-05 
-2.552121638192e-05 -2.302083249112e-05 0.0 
-2.302083249112e-05 1.475281213149e-04 0.0 
0.0 0.0 -2.705574766418e-05 
-9.705129782474e-05 -2.284636133005e-05 0.0 
-2.284636133005e-05 6.381494146743e-04 0.0 
0.0 0.0 -9.705601970096e-05 
-8.718862749644e-05 1.081562517566e-05 0.0 
1.081562517566e-05 5.609465076163e-04 0.0 
0.0 0.0 -8.368277571755e-05 
-9.188005610208e-05 2.337172912127e-05 0.0 
2.337172912127e-05 5.885957333175e-04 0.0 
0.0 0.0 -9.250784895245e-05 
-1.937480155634e-04 2.484993040014e-05 0.0 
2.484993040014e-05 1.298240083639e-03 0.0 
0.0 0.0 -1.936007957173e-04 
-3.355945300028e-05 2.658456895858e-05 0.0 
2.658456895858e-05 1.727565400742e-04 0.0 
0.0 0.0 -3.138407094312e-05 
-1.371246585787e-04 2.526301025991e-05 0.0 
2.526301025991e-05 9.050145966039e-04 0.0 
0.0 0.0 -1.382526569903e-04 
-1.907913629677e-04 3.443386103192e-05 0.0 
3.443386103192e-05 1.270684136511e-03 0.0 
0.0 0.0 -1.885035411211e-04 
-9.913884905617e-05 2.644976598076e-05 0.0 
2.644976598076e-05 6.359580153606e-04 0.0 
0.0 0.0 -9.883099357817e-05 
-9.221379330775e-05 -2.325684599943e-05 0.0 
-2.325684599943e-05 6.043674081660e-04 0.0 
0.0 0.0 -9.208844699642e-05 
-1.862615746056e-04 3.781096829900e-05 0.0 
3.781096829900e-05 1.269973218665e-03 0.0 
0.0 0.0 -1.882446207449e-04 
-1.884096905909e-04 -3.934674872020e-05 0.0 
-3.934674872020e-05 1.273205454370e-03 0.0 
0.0 0.0 -1.891606461478e-04 
-1.485481393432e-04 2.662002390059e-05 0.0 
2.662002390059e-05 9.835102888330e-04 0.0 
0.0 0.0 -1.481056985806e-04 
-1.041353074706e-04 -2.625300288913e-05 0.0 
-2.625300288913e-05 6.829723859406e-04 0.0 
0.0 0.0 -1.037420806291e-04 
-1.908037455824e-04 1.095423421666e-05 0.0 
1.095423421666e-05 1.307953283663e-03 0.0 
0.0 0.0 -1.905495916442e-04 
-9.518883604242e-05 2.687623025881e-05 0.0 
2.687623025881e-05 6.089232024020e-04 0.0 
0.0 0.0 -9.489072104906e-05 
-1.881130056819e-04 -1.198635265848e-06 0.0 
-1.198635265848e-06 1.269458159220e-03 0.0 
0.0 0.0 -1.924761743472e-04 
-1.914420449492e-04 1.145005922615e-05 0.0 
1.145005922615e-05 1.305589104302e-03 0.0 
0.0 0.0 -1.901156060054e-04 
-1.284773038693e-04 -4.042952323759e-05 0.0 
-4.042952323759e-05 8.353342118354e-04 0.0 
0.0 0.0 -1.281556075638e-04 
-1.456984047061e-04 2.919513868125e-05 0.0 
2.919513868125e-05 9.798728505287e-04 0.0 
0.0 0.0 -1.472674707441e-04 
-9.472925069399e-05 -2.740497223510e-05 0.0 
-2.740497223510e-05 6.169641832868e-04 0.0 
0.0 0.0 -9.439783777044e-05 
-8.853676466141e-05 2.434547469191e-05 0.0 
2.434547469191e-05 5.534202716498e-04 0.0 
0.0 0.0 -8.745362067080e-05 
-1.087467394465e-04 2.713932785839e-05 0.0 
2.713932785839e-05 7.009636801692e-04 0.0 
0.0 0.0 -1.081789848988e-04 
-8.105832168209e-05 -2.534314576398e-05 0.0 
-2.534314576398e-05 5.269671489274e-04 0.0 
0.0 0.0 -8.074562716359e-05 
-1.149166540237e-04 -2.952745104752e-05 0.0 
-2.952745104752e-05 7.749980976508e-04 0.0 
0.0 0.0 -1.154098978710e-04 
-9.441274236993e-05 -3.245636207382e-05 0.0 
-3.245636207382e-05 6.148929569629e-04 0.0 
0.0 0.0 -9.412559131899e-05 
-1.356916071786e-05 -1.098912209053e-05 0.0 
-1.098912209053e-05 4.639558825144e-05 0.0 
0.0 0.0 -1.406846894296e-05 
-1.232833288672e-04 -2.043397575373e-06 0.0 
-2.043397575373e-06 8.352777480186e-04 0.0 
0.0 0.0 -1.225661908866e-04 
-4.062993237950e-05 4.703139556520e-07 0.0 
4.703139556520e-07 1.797601039323e-04 0.0 
0.0 0.0 -3.559753881786e-05 
-1.023820434635e-04 -2.308417346528e-05 0.0 
-2.308417346528e-05 6.740366547045e-04 0.0 
0.0 0.0 -1.021452596768e-04 
-1.900125356384e-04 6.300222620786e-07 0.0 
6.300222620786e-07 1.270960970669e-03 0.0 
0.0 0.0 -1.927194217641e-04 
-7.262888074723e-05 3.426557852476e-05 0.0 
3.426557852476e-05 4.504323440592e-04 0.0 
0.0 0.0 -7.151989320621e-05 
-1.531305076902e-04 3.065990782185e-05 0.0 
3.065990782185e-05 1.022734797488e-03 0.0 
0.0 0.0 -1.531634582904e-04 
-5.235610672335e-05 -3.331315410991e-05 0.0 
-3.331315410991e-05 3.222309724492e-04 0.0 
0.0 0.0 -5.311113487535e-05 
-1.564923507781e-04 3.552239921985e-05 0.0 
3.552239921985e-05 1.043761629599e-03 0.0 
0.0 0.0 -1.567358392781e-04 
-1.202044561882e-04 9.584736121846e-07 0.0 
9.584736121846e-07 7.504029993438e-04 0.0 
0.0 0.0 -1.184948324117e-04 
-8.921525541755e-05 3.121884924231e-05 0.0 
3.121884924231e-05 5.680733164514e-04 0.0 
0.0 0.0 -8.897195087526e-05 
-1.682691344288e-04 -3.239527776225e-05 0.0 
-3.239527776225e-05 1.126335943431e-03 0.0 
0.0 0.0 -1.681445358648e-04 
-3.271371250102e-05 2.634768306306e-05 0.0 
2.634768306306e-05 1.862670599746e-04 0.0 
0.0 0.0 -3.519564525945e-05 
-1.767977369675e-04 3.301165039377e-05 0.0 
3.301165039377e-05 1.194421621902e-03 0.0 
0.0 0.0 -1.783666864750e-04 
-1.165583599501e-04 2.698564820255e-05 0.0 
2.698564820255e-05 7.555372528015e-04 0.0 
0.0 0.0 -1.156683593961e-04 
-1.920096128522e-04 1.937461849935e-06 0.0 
1.937461849935e-06 1.307268561636e-03 0.0 
0.0 0.0 -1.898980813789e-04 
-1.182997139398e-04 3.639957619216e-06 0.0 
3.639957619216e-06 7.503854203479e-04 0.0 
0.0 0.0 -1.176390761550e-04 
-7.627591541802e-05 2.437079023937e-05 0.0 
2.437079023937e-05 4.698282448248e-04 0.0 
0.0 0.0 -7.564233511891e-05 
-1.002018332227e-04 2.315121058164e-05 0.0 
2.315121058164e-05 6.584644118649e-04 0.0 
0.0 0.0 -1.026119933064e-04 
-1.351190133783e-04 -1.871259961356e-05 0.0 
-1.871259961356e-05 8.920173210254e-04 0.0 
0.0 0.0 -1.308423732783e-04 
-5.484982403945e-05 3.705256781827e-05 0.0 
3.705256781827e-05 3.376111435306e-04 0.0 
0.0 0.0 -5.271897186252e-05 
-8.886891279122e-05 -3.169931078017e-05 0.0 
-3.169931078017e-05 5.765392386080e-04 0.0 
0.0 0.0 -8.867183110647e-05 
-1.531566637255e-04 -3.479285376154e-05 0.0 
-3.479285376154e-05 1.020094408152e-03 0.0 
0.0 0.0 -1.524697723262e-04 
-1.174942329115e-04 2.313759384433e-05 0.0 
2.313759384433e-05 7.831828593042e-04 0.0 
0.0 0.0 -1.152003355451e-04 
-8.515004989233e-05 2.567844413580e-05 0.0 
2.567844413580e-05 5.346133759294e-04 0.0 
0.0 0.0 -8.499340168425e-05 
-9.805234325585e-05 2.186136341024e-05 0.0 
2.186136341024e-05 6.234712022513e-04 0.0 
0.0 0.0 -9.747820142233e-05 
-1.698406473465e-04 3.103883884451e-05 0.0 
3.103883884451e-05 1.138199375279e-03 0.0 
0.0 0.0 -1.705088282513e-04 
-9.365555901584e-05 -8.486079120948e-06 0.0 
-8.486079120948e-06 6.269873305719e-04 0.0 
0.0 0.0 -9.283786084866e-05 
-1.904373484596e-04 8.037764301143e-06 0.0 
8.037764301143e-06 1.268105410096e-03 0.0 
0.0 0.0 -1.927803298305e-04 
-1.910376123415e-04 -5.171508508335e-06 0.0 
-5.171508508335e-06 1.305994090806e-03 0.0 
0.0 0.0 -1.898229354431e-04 
-6.861783798480e-05 -2.050379203895e-05 0.0 
-2.050379203895e-05 4.453059741638e-04 0.0 
0.0 0.0 -6.893569546425e-05 
-9.290116882094e-05 1.078568075346e-05 0.0 
1.078568075346e-05 5.964552685483e-04 0.0 
0.0 0.0 -9.578111177017e-05 
-1.736492418864e-04 -2.927710979079e-05 0.0 
-2.927710979079e-05 1.161594644870e-03 0.0 
0.0 0.0 -1.729233712160e-04 
-9.087963058823e-05 -2.352933739376e-05 0.0 
-2.352933739376e-05 5.915224073559e-04 0.0 
0.0 0.0 -9.055885391067e-05 
-6.615167518160e-05 2.470417535513e-05 0.0 
2.470417535513e-05 3.792937580834e-04 0.0 
0.0 0.0 -6.377619522508e-05 
-1.123815242548e-04 2.659716101140e-05 0.0 
2.659716101140e-05 7.274681183303e-04 0.0 
0.0 0.0 -1.116514617188e-04 
-9.023769363097e-05 -2.539356064248e-05 0.0 
-2.539356064248e-05 5.927749569100e-04 0.0 
0.0 0.0 -9.016780033359e-05 
-1.933145694824e-04 1.847750118737e-05 0.0 
1.847750118737e-05 1.271781840963e-03 0.0 
0.0 0.0 -1.918589861752e-04 
-1.590817006198e-04 2.907513750142e-05 0.0 
2.907513750142e-05 1.054056791896e-03 0.0 
0.0 0.0 -1.591037845145e-04 
-1.728367159342e-04 3.427642614804e-05 0.0 
3.427642614804e-05 1.161809866144e-03 0.0 
0.0 0.0 -1.733952315365e-04 
-4.323292157822e-05 -3.260265136202e-05 0.0 
-3.260265136202e-05 2.542139140644e-04 0.0 
0.0 0.0 -4.278232070249e-05 
-8.351564551766e-05 -2.949984641989e-05 0.0 
-2.949984641989e-05 5.399072445252e-04 0.0 
0.0 0.0 -8.337503372822e-05 
-1.628911585660e-04 2.910920340207e-05 0.0 
2.910920340207e-05 1.083707985150e-03 0.0 
0.0 0.0 -1.634180649126e-04 
-4.265741739718e-06 -2.683347671446e-06 0.0 
-2.683347671446e-06 2.779779537552e-05 0.0 
0.0 0.0 -6.679583525061e-06 
-9.202938689146e-05 2.333037747325e-05 0.0 
2.333037747325e-05 5.833864669440e-04 0.0 
0.0 0.0 -9.110806911972e-05 
-1.621301817421e-04 -3.474681827654e-05 0.0 
-3.474681827654e-05 1.087399984763e-03 0.0 
0.0 0.0 -1.621013318865e-04 
-2.647246740284e-05 -1.232636837565e-05 0.0 
-1.232636837565e-05 1.529325955368e-04 0.0 
0.0 0.0 -2.408412600064e-05 
-1.857893834714e-04 3.531775714936e-05 0.0 
3.531775714936e-05 1.270668189248e-03 0.0 
0.0 0.0 -1.886276279175e-04 
-1.456981155765e-04 2.919485646583e-05 0.0 
2.919485646583e-05 9.663206150300e-04 0.0 
0.0 0.0 -1.462443664659e-04 
-8.972960447932e-05 2.818607173368e-05 0.0 
2.818607173368e-05 5.719993527864e-04 0.0 
0.0 0.0 -8.992835211633e-05 
-1.626522217749e-04 3.588322308841e-05 0.0 
3.588322308841e-05 1.081933053943e-03 0.0 
0.0 0.0 -1.623203359564e-04 
-1.232850647809e-04 -1.534283618420e-06 0.0 
-1.534283618420e-06 8.439287432935e-04 0.0 
0.0 0.0 -1.238984763055e-04 
-1.290139728958e-04 -2.422323726664e-05 0.0 
-2.422323726664e-05 8.899156396031e-04 0.0 
0.0 0.0 -1.325791391267e-04 
-1.852665524105e-04 -2.134628668879e-05 0.0 
-2.134628668879e-05 1.242411010167e-03 0.0 
0.0 0.0 -1.856686537505e-04 
-6.834313658287e-05 3.054631191321e-05 0.0 
3.054631191321e-05 4.235028941011e-04 0.0 
0.0 0.0 -6.875374652758e-05 
-1.126229297884e-04 2.780829538386e-05 0.0 
2.780829538386e-05 7.291444854309e-04 0.0 
0.0 0.0 -1.122060228641e-04 
-1.204186006984e-04 2.647313116222e-05 0.0 
2.647313116222e-05 7.832880835705e-04 0.0 
0.0 0.0 -1.198259951250e-04 
-1.511295492835e-04 -2.883504033183e-05 0.0 
-2.883504033183e-05 1.013855965193e-03 0.0 
0.0 0.0 -1.512823234748e-04 
-1.216859479991e-04 -2.731241821125e-05 0.0 
-2.731241821125e-05 8.002184542220e-04 0.0 
0.0 0.0 -1.205399881000e-04 
-1.113723575775e-04 -2.417926787298e-05 0.0 
-2.417926787298e-05 7.331871425551e-04 0.0 
0.0 0.0 -1.112326624099e-04 
-1.413007434337e-04 -2.970279854823e-05 0.0 
-2.970279854823e-05 9.413829080689e-04 0.0 
0.0 0.0 -1.412146911137e-04 
-1.660148486685e-04 -3.109368411777e-05 0.0 
-3.109368411777e-05 1.112677337996e-03 0.0 
0.0 0.0 -1.657666289772e-04 
-1.315732548335e-05 -7.692520452241e-07 0.0 
-7.692520452241e-07 8.434115995763e-05 0.0 
0.0 0.0 -1.523807105164e-05 
-6.678617265699e-05 1.617781589415e-05 0.0 
1.617781589415e-05 4.361919367653e-04 0.0 
0.0 0.0 -6.974636312929e-05 
-7.951724172922e-05 2.782935041198e-05 0.0 
2.782935041198e-05 4.935008951510e-04 0.0 
0.0 0.0 -7.874092309440e-05 
-1.082260438161e-04 -2.691428867534e-05 0.0 
-2.691428867534e-05 7.109857938248e-04 0.0 
0.0 0.0 -1.077256579858e-04 
-1.642964652876e-04 -3.148986033885e-05 0.0 
-3.148986033885e-05 1.105967087523e-03 0.0 
0.0 0.0 -1.642614415327e-04 
-3.618362754970e-05 2.736407007723e-05 0.0 
2.736407007723e-05 2.086903937200e-04 0.0 
0.0 0.0 -3.864713111506e-05 
-1.564000420693e-04 -3.317492622528e-05 0.0 
-3.317492622528e-05 1.048657376479e-03 0.0 
0.0 0.0 -1.565033163265e-04 
-1.156497145505e-04 -3.516789011310e-05 0.0 
-3.516789011310e-05 7.502047125979e-04 0.0 
0.0 0.0 -1.164502435431e-04 
-8.397727272476e-05 2.946324581154e-05 0.0 
2.946324581154e-05 5.318825966419e-04 0.0 
0.0 0.0 -8.365175887955e-05 
-1.508856871714e-04 -3.154693635550e-05 0.0 
-3.154693635550e-05 1.010987541511e-03 0.0 
0.0 0.0 -1.509358467712e-04 
-1.992206068345e-05 -2.889614730951e-05 0.0 
-2.889614730951e-05 8.287217049266e-05 0.0 
0.0 0.0 -1.875953185269e-05 
-1.556622730397e-04 3.038739624462e-05 0.0 
3.038739624462e-05 1.034138176467e-03 0.0 
0.0 0.0 -1.560016362795e-04 
-1.437982534633e-05 1.029442077582e-05 0.0 
1.029442077582e-05 7.970629733058e-05 0.0 
0.0 0.0 -1.510781838351e-05 
-2.570586355009e-05 -7.991098502523e-07 0.0 
-7.991098502523e-07 1.127575880689e-04 0.0 
0.0 0.0 -2.729127776400e-05 
-4.194184282385e-05 3.474848126707e-05 0.0 
3.474848126707e-05 2.513992056333e-04 0.0 
0.0 0.0 -4.310499224862e-05 
-5.889908142508e-05 2.600142430583e-05 0.0 
2.600142430583e-05 3.528829077978e-04 0.0 
0.0 0.0 -5.903933595174e-05 
-1.610257286591e-04 -2.786541686928e-05 0.0 
-2.786541686928e-05 1.081190214243e-03 0.0 
0.0 0.0 -1.610696234640e-04 
-5.476704679840e-05 -2.893258819142e-05 0.0 
-2.893258819142e-05 3.440414388131e-04 0.0 
0.0 0.0 -5.456393079061e-05 
-5.163315478531e-05 2.647496963403e-05 0.0 
2.647496963403e-05 3.049271572106e-04 0.0 
0.0 0.0 -5.149248157812e-05 
-4.366093994894e-05 -2.713962390303e-05 0.0 
-2.713962390303e-05 2.644614859736e-04 0.0 
0.0 0.0 -4.384065419509e-05 
-3.933534437072e-05 2.838910031743e-05 0.0 
2.838910031743e-05 2.172478170370e-04 0.0 
0.0 0.0 -3.921473890832e-05 
-1.680595828810e-04 2.995288676005e-05 0.0 
2.995288676005e-05 1.117099767863e-03 0.0 
0.0 0.0 -1.676286260939e-04 
-1.157691997288e-04 -2.821559363196e-05 0.0 
-2.821559363196e-05 7.614917365493e-04 0.0 
0.0 0.0 -1.153195849472e-04 
-1.884304056946e-04 3.717790371758e-05 0.0 
3.717790371758e-05 1.273139237753e-03 0.0 
0.0 0.0 -1.885115422441e-04 
0.0 0.0 0.0 
0.0 0.0 0.0 
0.0 0.0 0.0 
-6.073075435371e-05 2.779578447063e-05 0.0 
2.779578447063e-05 3.692130858621e-04 0.0 
0.0 0.0 -6.066067809259e-05 
-9.359168136837e-05 3.069541767913e-05 0.0 
3.069541767913e-05 5.989493619825e-04 0.0 
0.0 0.0 -9.346360670616e-05 
-8.611303417377e-05 2.775473971904e-05 0.0 
2.775473971904e-05 5.420210967722e-04 0.0 
0.0 0.0 -8.564096664159e-05 
-1.570602199792e-04 3.345705989991e-05 0.0 
3.345705989991e-05 1.042425010846e-03 0.0 
0.0 0.0 -1.567852636697e-04 
-1.928100163882e-04 2.936217438128e-05 0.0 
2.936217438128e-05 1.304792838197e-03 0.0 
0.0 0.0 -1.913896484052e-04 
-1.544569729700e-04 -3.084214855682e-05 0.0 
-3.084214855682e-05 1.037077783695e-03 0.0 
0.0 0.0 -1.544248659763e-04 
-6.869349223690e-05 -2.826326061375e-05 0.0 
-2.826326061375e-05 4.368318291179e-04 0.0 
0.0 0.0 -6.847262230322e-05 
-1.681247358756e-04 -2.868522419727e-05 0.0 
-2.868522419727e-05 1.120151786447e-03 0.0 
0.0 0.0 -1.674250338637e-04 
-1.435900585209e-04 3.856895931237e-05 0.0 
3.856895931237e-05 9.474561629382e-04 0.0 
0.0 0.0 -1.426866023873e-04 
-1.135532837026e-04 -2.681444128085e-05 0.0 
-2.681444128085e-05 7.480946909015e-04 0.0 
0.0 0.0 -1.130562566545e-04 
-1.499249798733e-04 3.067572505939e-05 0.0 
3.067572505939e-05 9.944265321611e-04 0.0 
0.0 0.0 -1.504800801517e-04 
-1.863757598195e-04 -2.386849214221e-05 0.0 
-2.386849214221e-05 1.244147855382e-03 0.0 
0.0 0.0 -1.859596318053e-04 
-9.333492539951e-05 -3.087526947971e-05 0.0 
-3.087526947971e-05 6.086612624671e-04 0.0 
0.0 0.0 -9.309312152870e-05 
-5.642363476155e-05 -2.566826805163e-05 0.0 
-2.566826805163e-05 3.519070743608e-04 0.0 
0.0 0.0 -5.629031366394e-05 
-1.307741012141e-04 -2.854605187792e-05 0.0 
-2.854605187792e-05 8.651184174892e-04 0.0 
0.0 0.0 -1.299393276493e-04 
-1.994711361555e-04 1.488956192184e-05 0.0 
1.488956192184e-05 1.364194760264e-03 0.0 
0.0 0.0 -1.985353088532e-04 
-1.121064498204e-04 -2.817436375982e-05 0.0 
-2.817436375982e-05 7.383690860162e-04 0.0 
0.0 0.0 -1.117990549081e-04 
-1.167106519063e-04 -2.872381374577e-05 0.0 
-2.872381374577e-05 7.713662195201e-04 0.0 
0.0 0.0 -1.165266455158e-04 
-1.260578035270e-04 -7.836042946561e-06 0.0 
-7.836042946561e-06 8.498512038137e-04 0.0 
0.0 0.0 -1.244042047770e-04 
-3.179935585513e-05 -1.763042363236e-05 0.0 
-1.763042363236e-05 1.961286519246e-04 0.0 
0.0 0.0 -3.241712222852e-05 
-1.231319864475e-04 2.764700743790e-05 0.0 
2.764700743790e-05 7.907293750341e-04 0.0 
0.0 0.0 -1.209084558732e-04 
-6.905505917890e-05 2.816961621887e-05 0.0 
2.816961621887e-05 4.271679056782e-04 0.0 
0.0 0.0 -6.885887611378e-05 
-4.897721551762e-05 2.632054484457e-05 0.0 
2.632054484457e-05 2.838529677145e-04 0.0 
0.0 0.0 -4.844095568774e-05 
-3.558784672985e-05 -2.880146762892e-05 0.0 
-2.880146762892e-05 1.946353418351e-04 0.0 
0.0 0.0 -3.639896506568e-05 
-1.614850212427e-04 2.922041349465e-05 0.0 
2.922041349465e-05 1.072918812013e-03 0.0 
0.0 0.0 -1.613978969627e-04 
-1.255033903270e-04 -2.731668296794e-05 0.0 
-2.731668296794e-05 8.288788500150e-04 0.0 
0.0 0.0 -1.246873609535e-04 
-8.112707161296e-05 2.681454897224e-05 0.0 
2.681454897224e-05 5.130150958306e-04 0.0 
0.0 0.0 -8.144240747594e-05 
-1.665837591113e-04 -2.880422836215e-05 0.0 
-2.880422836215e-05 1.119259672453e-03 0.0 
0.0 0.0 -1.664644697516e-04 
-1.582047777180e-04 -3.130538043856e-05 0.0 
-3.130538043856e-05 1.066325272985e-03 0.0 
0.0 0.0 -1.586660261033e-04 
-1.188629648026e-04 -2.678969091403e-05 0.0 
-2.678969091403e-05 7.847225641269e-04 0.0 
0.0 0.0 -1.183057550348e-04 
-1.886854844882e-04 1.135105285806e-05 0.0 
1.135105285806e-05 1.274732412044e-03 0.0 
0.0 0.0 -1.932618152055e-04 
-1.213677155165e-04 2.897964547722e-05 0.0 
2.897964547722e-05 7.927140784185e-04 0.0 
0.0 0.0 -1.211843839911e-04 
-1.239491645660e-04 -2.748126235811e-05 0.0 
-2.748126235811e-05 8.207516205795e-04 0.0 
0.0 0.0 -1.235739794681e-04 
-9.975160353529e-05 -2.686515225488e-05 0.0 
-2.686515225488e-05 6.567392202688e-04 0.0 
0.0 0.0 -9.984714661518e-05 
-1.263578697939e-04 -2.980227527077e-05 0.0 
-2.980227527077e-05 8.380978382458e-04 0.0 
0.0 0.0 -1.261954767068e-04 
-5.849212426998e-05 2.872957228896e-05 0.0 
2.872957228896e-05 3.506208493125e-04 0.0 
0.0 0.0 -5.798711518065e-05 
-1.213481477356e-04 6.735435036876e-06 0.0 
6.735435036876e-06 7.521902963625e-04 0.0 
0.0 0.0 -1.184708735178e-04 
-9.753040931020e-05 -2.877750014671e-05 0.0 
-2.877750014671e-05 6.382612359797e-04 0.0 
0.0 0.0 -9.729539411790e-05 
-7.014498760133e-05 -2.861953507146e-05 0.0 
-2.861953507146e-05 4.491200428710e-04 0.0 
0.0 0.0 -7.021579980210e-05 
-1.548439846447e-04 2.920495201174e-05 0.0 
2.920495201174e-05 1.025468902843e-03 0.0 
0.0 0.0 -1.548477372900e-04 
-7.400239448952e-06 -4.471996282504e-06 0.0 
-4.471996282504e-06 3.348355740734e-05 0.0 
0.0 0.0 -6.737411723468e-06 
-1.269059540153e-04 -2.992426859267e-05 0.0 
-2.992426859267e-05 8.357764802867e-04 0.0 
0.0 0.0 -1.257958619361e-04 
-7.326865481566e-05 2.857374826703e-05 0.0 
2.857374826703e-05 4.565907868803e-04 0.0 
0.0 0.0 -7.305360031667e-05 
-6.016605764575e-05 -2.684908062252e-05 0.0 
-2.684908062252e-05 3.790547108985e-04 0.0 
0.0 0.0 -6.022881660267e-05 
-5.821846839884e-05 -2.774592413861e-05 0.0 
-2.774592413861e-05 3.619705275702e-04 0.0 
0.0 0.0 -5.751879909679e-05 
-1.351640918224e-04 2.730946876611e-05 0.0 
2.730946876611e-05 8.850173502736e-04 0.0 
0.0 0.0 -1.344766581215e-04 
-2.303458757806e-05 -1.756706348761e-05 0.0 
-1.756706348761e-05 1.393624808345e-04 0.0 
0.0 0.0 -2.414890389727e-05 
-8.463000670150e-05 2.743515429835e-05 0.0 
2.743515429835e-05 5.331920973471e-04 0.0 
0.0 0.0 -8.420255649138e-05 
-1.310820143303e-04 2.863495648326e-05 0.0 
2.863495648326e-05 8.604743158959e-04 0.0 
0.0 0.0 -1.309020407989e-04 
-1.263625231525e-04 2.714069752448e-05 0.0 
2.714069752448e-05 8.190547291893e-04 0.0 
0.0 0.0 -1.250525794797e-04 
-1.272471088817e-04 -3.855000510512e-06 0.0 
-3.855000510512e-06 8.469629814487e-04 0.0 
0.0 0.0 -1.245153595172e-04 
-3.451533027297e-05 2.844805665229e-05 0.0 
2.844805665229e-05 1.808943530399e-04 0.0 
0.0 0.0 -3.280631478328e-05 
-7.063190463533e-05 2.939202413112e-05 0.0 
2.939202413112e-05 4.392145115516e-04 0.0 
0.0 0.0 -7.060413318996e-05 
-6.508843028441e-05 -3.043099012630e-05 0.0 
-3.043099012630e-05 4.105469834446e-04 0.0 
0.0 0.0 -6.467058191239e-05 
-7.469256331376e-05 -2.527987226695e-05 0.0 
-2.527987226695e-05 4.809368026629e-04 0.0 
0.0 0.0 -7.435558976913e-05 
-1.502309888333e-04 -3.186153307622e-05 0.0 
-3.186153307622e-05 1.005619770116e-03 0.0 
0.0 0.0 -1.500995507885e-04 
-8.411103689448e-05 -2.561923504937e-05 0.0 
-2.561923504937e-05 5.446630925718e-04 0.0 
0.0 0.0 -8.366679311450e-05 
-9.244608085661e-05 2.841629283501e-05 0.0 
2.841629283501e-05 5.900259211260e-04 0.0 
0.0 0.0 -9.227309926833e-05 
-8.825859911860e-05 2.898361773724e-05 0.0 
2.898361773724e-05 5.610179827723e-04 0.0 
0.0 0.0 -8.802462077767e-05 
-4.037281909572e-05 -3.055033143304e-05 0.0 
-3.055033143304e-05 2.285588841850e-04 0.0 
0.0 0.0 -3.795074749666e-05 
-1.043807176337e-04 2.969702721876e-05 0.0 
2.969702721876e-05 6.736275783202e-04 0.0 
0.0 0.0 -1.043907376787e-04 
-4.291565100880e-05 -2.841622711530e-05 0.0 
-2.841622711530e-05 2.495146198089e-04 0.0 
0.0 0.0 -4.182373257491e-05 
-1.960133420005e-04 -3.915898958092e-07 0.0 
-3.915898958092e-07 1.365024672998e-03 0.0 
0.0 0.0 -1.982169479593e-04 
-2.008761767446e-04 -4.440775900705e-06 0.0 
-4.440775900705e-06 1.363686351067e-03 0.0 
0.0 0.0 -1.977044065024e-04 
-1.166270540496e-04 2.805525215369e-05 0.0 
2.805525215369e-05 7.581594275037e-04 0.0 
0.0 0.0 -1.163296810217e-04 
-6.377729921261e-05 2.843186062466e-05 0.0 
2.843186062466e-05 3.894200307401e-04 0.0 
0.0 0.0 -6.349477618752e-05 
-5.472494021236e-05 -2.756038478394e-05 0.0 
-2.756038478394e-05 3.420299138774e-04 0.0 
0.0 0.0 -5.489564032307e-05 
-1.286062633098e-04 2.787342346443e-05 0.0 
2.787342346443e-05 8.404326398301e-04 0.0 
0.0 0.0 -1.280878756227e-04 
-5.924292318693e-05 -2.830092874267e-05 0.0 
-2.830092874267e-05 3.712937095837e-04 0.0 
0.0 0.0 -5.895795660960e-05 
-6.498740843255e-05 2.970448360848e-05 0.0 
2.970448360848e-05 3.998906408149e-04 0.0 
0.0 0.0 -6.509812613533e-05 
-1.139448242020e-04 2.662931945144e-05 0.0 
2.662931945144e-05 7.377302601230e-04 0.0 
0.0 0.0 -1.134571731864e-04 
-1.931977199045e-04 -5.790102799525e-06 0.0 
-5.790102799525e-06 1.309642249160e-03 0.0 
0.0 0.0 -1.899960389348e-04 
-7.860743769092e-05 2.917445532478e-05 0.0 
2.917445532478e-05 4.940483609679e-04 0.0 
0.0 0.0 -7.839370437043e-05 
-1.417199735287e-04 2.941394498762e-05 0.0 
2.941394498762e-05 9.349322217144e-04 0.0 
0.0 0.0 -1.414217305113e-04 
-4.661344112576e-05 2.736880969088e-05 0.0 
2.736880969088e-05 2.670838018736e-04 0.0 
0.0 0.0 -4.614936513201e-05 
-1.967992094278e-04 1.123981941095e-06 0.0 
1.123981941095e-06 1.365295639638e-03 0.0 
0.0 0.0 -1.984294758987e-04 
-5.951651457585e-05 2.802626650619e-05 0.0 
2.802626650619e-05 3.606106616578e-04 0.0 
0.0 0.0 -5.939605362352e-05 
-1.179287062834e-04 2.787660048455e-05 0.0 
2.787660048455e-05 7.663966719587e-04 0.0 
0.0 0.0 -1.175278261142e-04 
-4.409418717161e-05 3.104234347111e-05 0.0 
3.104234347111e-05 2.441849578649e-04 0.0 
0.0 0.0 -4.282931220362e-05 
-1.381450842626e-04 2.836088824292e-05 0.0 
2.836088824292e-05 9.092073412549e-04 0.0 
0.0 0.0 -1.381743871232e-04 
-9.791138306631e-05 2.879750584179e-05 0.0 
2.879750584179e-05 6.273190453691e-04 0.0 
0.0 0.0 -9.774928945211e-05 
-6.965606683394e-05 2.867246728631e-05 0.0 
2.867246728631e-05 4.309923865951e-04 0.0 
0.0 0.0 -6.938051102899e-05 
-1.200769966056e-04 -2.774059059615e-05 0.0 
-2.774059059615e-05 7.919085176899e-04 0.0 
0.0 0.0 -1.194585575575e-04 
-1.988427120039e-04 -2.959789654557e-06 0.0 
-2.959789654557e-06 1.363764641001e-03 0.0 
0.0 0.0 -1.987298001823e-04 
-8.291571741031e-05 2.832079044508e-05 0.0 
2.832079044508e-05 5.233038309385e-04 0.0 
0.0 0.0 -8.265507580179e-05 
-1.306758629051e-04 -2.955788166782e-05 0.0 
-2.955788166782e-05 8.695191991227e-04 0.0 
0.0 0.0 -1.305485175686e-04 
-4.578173906005e-05 -2.535078056645e-05 0.0 
-2.535078056645e-05 2.780519891852e-04 0.0 
0.0 0.0 -4.562300070248e-05 
-1.437792750518e-04 3.149363009429e-05 0.0 
3.149363009429e-05 9.490378851935e-04 0.0 
0.0 0.0 -1.436534165706e-04 
-1.511792253345e-04 3.107336096836e-05 0.0 
3.107336096836e-05 1.002609936336e-03 0.0 
0.0 0.0 -1.512517770320e-04 
-6.196699647241e-05 -2.679098173262e-05 0.0 
-2.679098173262e-05 3.903858421673e-04 0.0 
0.0 0.0 -6.164273853391e-05 
-1.399199792627e-04 -2.811467117751e-05 0.0 
-2.811467117751e-05 9.272505815491e-04 0.0 
0.0 0.0 -1.388569334018e-04 
-1.985355386787e-04 1.984726108435e-06 0.0 
1.984726108435e-06 1.364959960964e-03 0.0 
0.0 0.0 -1.983871205594e-04 
-1.614928444495e-04 2.847027297627e-05 0.0 
2.847027297627e-05 1.071649121551e-03 0.0 
0.0 0.0 -1.613792517474e-04 
-1.982422487002e-04 -2.569909507912e-06 0.0 
-2.569909507912e-06 1.365758727609e-03 0.0 
0.0 0.0 -1.983136761333e-04 
-1.361916076227e-04 -3.146771190181e-05 0.0 
-3.146771190181e-05 9.179571631392e-04 0.0 
0.0 0.0 -1.379474753881e-04 
-1.576486168105e-04 -2.829471551287e-05 0.0 
-2.829471551287e-05 1.056700414691e-03 0.0 
0.0 0.0 -1.572395483614e-04 
-5.266868770523e-05 -2.930837486761e-05 0.0 
-2.930837486761e-05 3.216672696281e-04 0.0 
0.0 0.0 -5.237865887416e-05 
-1.106230900853e-04 -2.705461405413e-05 0.0 
-2.705461405413e-05 7.266788580309e-04 0.0 
0.0 0.0 -1.101557085785e-04 
-1.243986606814e-04 2.756325965713e-05 0.0 
2.756325965713e-05 8.114376097232e-04 0.0 
0.0 0.0 -1.239588741081e-04 
-1.293044827764e-04 -2.800858501220e-05 0.0 
-2.800858501220e-05 8.573256290427e-04 0.0 
0.0 0.0 -1.288458533782e-04 
-1.066562308207e-04 -2.783120558929e-05 0.0 
-2.783120558929e-05 7.017640661734e-04 0.0 
0.0 0.0 -1.065261787303e-04 
-1.990029541207e-04 -1.757598364359e-06 0.0 
-1.757598364359e-06 1.366381337533e-03 0.0 
0.0 0.0 -1.983502480037e-04 
-1.298318789187e-04 2.158067938686e-05 0.0 
2.158067938686e-05 8.815706967553e-04 0.0 
0.0 0.0 -1.321612292015e-04 
-1.176326388033e-04 -2.595061727756e-05 0.0 
-2.595061727756e-05 7.723158987367e-04 0.0 
0.0 0.0 -1.164556264782e-04 
-8.783787209566e-05 -2.903458928538e-05 0.0 
-2.903458928538e-05 5.705379246605e-04 0.0 
0.0 0.0 -8.765849385151e-05 
-4.943082231834e-05 2.834348926926e-05 0.0 
2.834348926926e-05 2.859345548030e-04 0.0 
0.0 0.0 -4.921152720794e-05 
-1.062878110515e-04 -2.718085700709e-05 0.0 
-2.718085700709e-05 6.972114022315e-04 0.0 
0.0 0.0 -1.060368635384e-04 
-6.633274732441e-05 2.805962634071e-05 0.0 
2.805962634071e-05 4.063292376683e-04 0.0 
0.0 0.0 -6.607158303000e-05 
-1.158557996194e-04 -6.210093226299e-06 0.0 
-6.210093226299e-06 7.885063370646e-04 0.0 
0.0 0.0 -1.154421321462e-04 
-6.910380331659e-05 -2.778533839803e-05 0.0 
-2.778533839803e-05 4.414244386129e-04 0.0 
0.0 0.0 -6.893461416735e-05 
-7.822135333654e-05 -2.896553184294e-05 0.0 
-2.896553184294e-05 5.031498839476e-04 0.0 
0.0 0.0 -7.803987337015e-05 
-1.602384540181e-04 3.100072325668e-05 0.0 
3.100072325668e-05 1.064154990020e-03 0.0 
0.0 0.0 -1.603578675858e-04 
-6.566815985925e-05 -2.750449767600e-05 0.0 
-2.750449767600e-05 4.167092244980e-04 0.0 
0.0 0.0 -6.558851423748e-05 
-1.152845892592e-04 2.749147668780e-05 0.0 
2.749147668780e-05 7.465056274970e-04 0.0 
0.0 0.0 -1.146103474413e-04 
-1.353451354842e-04 2.819645546977e-05 0.0 
2.819645546977e-05 8.892812196543e-04 0.0 
0.0 0.0 -1.352137036071e-04 
-1.205044148237e-04 2.968350999990e-05 0.0 
2.968350999990e-05 7.873013113578e-04 0.0 
0.0 0.0 -1.205299346428e-04 
-1.958940259279e-04 -3.143838988157e-07 0.0 
-3.143838988157e-07 1.365374549896e-03 0.0 
0.0 0.0 -1.987143998872e-04 
-9.668730117965e-05 -2.517304160907e-05 0.0 
-2.517304160907e-05 6.291397970161e-04 0.0 
0.0 0.0 -9.585336115805e-05 
-6.653143432307e-05 2.946077866981e-05 0.0 
2.946077866981e-05 4.089865087981e-04 0.0 
0.0 0.0 -6.633958094145e-05 
-8.520951336944e-05 -2.684964973046e-05 0.0 
-2.684964973046e-05 5.564426473023e-04 0.0 
0.0 0.0 -8.536885536016e-05 
-6.423500688610e-05 -2.223670417576e-05 0.0 
-2.223670417576e-05 3.967373019254e-04 0.0 
0.0 0.0 -6.277058716750e-05 
-6.233409830209e-05 2.930783879135e-05 0.0 
2.930783879135e-05 3.806227503841e-04 0.0 
0.0 0.0 -6.211964112063e-05 
-1.686029388230e-04 -3.010997351014e-05 0.0 
-3.010997351014e-05 1.134847194407e-03 0.0 
0.0 0.0 -1.685829472084e-04 
-1.228035280568e-04 -2.801028863811e-05 0.0 
-2.801028863811e-05 8.126298515026e-04 0.0 
0.0 0.0 -1.224221955183e-04 
-8.576695021724e-05 -2.818444781109e-05 0.0 
-2.818444781109e-05 5.521166414815e-04 0.0 
0.0 0.0 -8.508581023982e-05 
-1.058888784043e-04 2.774100767274e-05 0.0 
2.774100767274e-05 6.820542708577e-04 0.0 
0.0 0.0 -1.053569120690e-04 
-1.984005188917e-04 3.469833888433e-06 0.0 
3.469833888433e-06 1.365869131785e-03 0.0 
0.0 0.0 -1.981012852499e-04 
-1.891870000816e-04 -2.170110567076e-05 0.0 
-2.170110567076e-05 1.288510292263e-03 0.0 
0.0 0.0 -1.887097005658e-04 
-1.683150849776e-04 2.979696904543e-05 0.0 
2.979696904543e-05 1.122642711197e-03 0.0 
0.0 0.0 -1.689885654173e-04 
-1.554302986174e-04 -2.927663835836e-05 0.0 
-2.927663835836e-05 1.044556448181e-03 0.0 
0.0 0.0 -1.556283301217e-04 
-1.157857925219e-04 -2.832751956135e-05 0.0 
-2.832751956135e-05 7.671670755825e-04 0.0 
0.0 0.0 -1.158214347813e-04 
-8.793389765940e-05 -2.692004426865e-05 0.0 
-2.692004426865e-05 5.710151647237e-04 0.0 
0.0 0.0 -8.764218308180e-05 
-6.353474277312e-05 -2.825822332319e-05 0.0 
-2.825822332319e-05 4.001707208949e-04 0.0 
0.0 0.0 -6.304749027677e-05 
-7.291093511829e-05 -2.827879267007e-05 0.0 
-2.827879267007e-05 4.665581668852e-04 0.0 
0.0 0.0 -7.265234708097e-05 
-1.174853072823e-04 -2.733567074543e-05 0.0 
-2.733567074543e-05 7.760237591612e-04 0.0 
0.0 0.0 -1.171309192368e-04 
-1.335212434515e-04 -2.914279474533e-05 0.0 
-2.914279474533e-05 8.905694576090e-04 0.0 
0.0 0.0 -1.335144612876e-04 
-1.018718395078e-04 -2.979006226054e-05 0.0 
-2.979006226054e-05 6.715941915170e-04 0.0 
0.0 0.0 -1.021513650962e-04 
-1.706976735812e-04 3.040145888498e-05 0.0 
3.040145888498e-05 1.134074140794e-03 0.0 
0.0 0.0 -1.701355210695e-04 
-6.585088392687e-05 -2.809564114852e-05 0.0 
-2.809564114852e-05 4.191270390209e-04 0.0 
0.0 0.0 -6.593483134188e-05 
-1.012822856145e-04 -2.790893614149e-05 0.0 
-2.790893614149e-05 6.647252503200e-04 0.0 
0.0 0.0 -1.012556795624e-04 
-1.190728906021e-04 2.726084077196e-05 0.0 
2.726084077196e-05 7.740175104497e-04 0.0 
0.0 0.0 -1.186992623097e-04 
-9.180435571147e-05 -2.942480991547e-05 0.0 
-2.942480991547e-05 5.980965186942e-04 0.0 
0.0 0.0 -9.183388734860e-05 
-1.951933135343e-04 -3.067913145712e-06 0.0 
-3.067913145712e-06 1.365527233008e-03 0.0 
0.0 0.0 -1.980132279339e-04 
-2.004839790609e-04 7.957002336378e-06 0.0 
7.957002336378e-06 1.363848061926e-03 0.0 
0.0 0.0 -1.977693979613e-04 
-1.862548850903e-04 -3.381380897180e-05 0.0 
-3.381380897180e-05 1.277935188165e-03 0.0 
0.0 0.0 -1.884741816281e-04 
-1.255545849599e-04 -2.913100698812e-05 0.0 
-2.913100698812e-05 8.346700099746e-04 0.0 
0.0 0.0 -1.256288396591e-04 
-1.668512740992e-04 2.892208901038e-05 0.0 
2.892208901038e-05 1.110735165857e-03 0.0 
0.0 0.0 -1.668097552869e-04 
-5.710219261571e-05 2.668419955422e-05 0.0 
2.668419955422e-05 3.418831237588e-04 0.0 
0.0 0.0 -5.678930531275e-05 
-8.241925476564e-05 -2.832624156936e-05 0.0 
-2.832624156936e-05 5.333885698677e-04 0.0 
0.0 0.0 -8.224527255366e-05 
-4.853944390359e-05 -2.604022421239e-05 0.0 
-2.604022421239e-05 2.959627034739e-04 0.0 
0.0 0.0 -4.789427177487e-05 
-8.945478626281e-05 -2.660897635143e-05 0.0 
-2.660897635143e-05 5.805998989638e-04 0.0 
0.0 0.0 -8.904339260345e-05 
-1.163162734636e-04 -2.681975846469e-06 0.0 
-2.681975846469e-06 7.498217446733e-04 0.0 
0.0 0.0 -1.187247005501e-04 
-1.378749770551e-04 3.210368012353e-05 0.0 
3.210368012353e-05 9.111791288023e-04 0.0 
0.0 0.0 -1.382175405433e-04 
-1.908460110853e-04 -3.275689360253e-07 0.0 
-3.275689360253e-07 1.305230985071e-03 0.0 
0.0 0.0 -1.898105380384e-04 
-1.673198694714e-04 3.217203314276e-05 0.0 
3.217203314276e-05 1.110802916425e-03 0.0 
0.0 0.0 -1.675837462092e-04 
-1.307963472837e-04 2.695120133125e-05 0.0 
2.695120133125e-05 8.556346688023e-04 0.0 
0.0 0.0 -1.303141423325e-04 
-1.340100066794e-04 2.763944078925e-05 0.0 
2.763944078925e-05 8.772925572874e-04 0.0 
0.0 0.0 -1.333792161710e-04 
-5.307775534030e-05 2.953233977858e-05 0.0 
2.953233977858e-05 3.124408790926e-04 0.0 
0.0 0.0 -5.245278118421e-05 
-2.595268965567e-05 5.699272949293e-06 0.0 
5.699272949293e-06 1.472249447242e-04 0.0 
0.0 0.0 -2.415366321274e-05 
-9.908936880668e-05 3.012137168314e-05 0.0 
3.012137168314e-05 6.362497375305e-04 0.0 
0.0 0.0 -9.891160473977e-05 
-1.107375038864e-04 -2.791592154402e-05 0.0 
-2.791592154402e-05 7.305458695935e-04 0.0 
0.0 0.0 -1.106421438825e-04 
-1.040373993302e-04 -2.962445174837e-05 0.0 
-2.962445174837e-05 6.836342105130e-04 0.0 
0.0 0.0 -1.039785834622e-04 
-2.890800069675e-05 2.861111799326e-05 0.0 
2.861111799326e-05 1.404310217184e-04 0.0 
0.0 0.0 -2.759983235877e-05 
-1.283084597460e-04 1.192869093826e-05 0.0 
1.192869093826e-05 8.062000095070e-04 0.0 
0.0 0.0 -1.269342783548e-04 
-4.518956868723e-05 -2.955121691656e-05 0.0 
-2.955121691656e-05 2.739636501554e-04 0.0 
0.0 0.0 -4.458156379712e-05 
-6.480437248805e-05 2.886959438942e-05 0.0 
2.886959438942e-05 3.978928491972e-04 0.0 
0.0 0.0 -6.471073859852e-05 
-2.011730791700e-04 -1.698872757994e-08 0.0 
-1.698872757994e-08 1.328124099864e-03 0.0 
0.0 0.0 -2.011730791700e-04 
-1.460374838192e-04 -3.048163660064e-05 0.0 
-3.048163660064e-05 9.751989198997e-04 0.0 
0.0 0.0 -1.457653143910e-04 
-1.205798788541e-04 2.761727978419e-05 0.0 
2.761727978419e-05 7.635288783755e-04 0.0 
0.0 0.0 -1.168501105142e-04 
-3.395354607204e-05 2.118102367287e-05 0.0 
2.118102367287e-05 2.067871695949e-04 0.0 
0.0 0.0 -3.264725407480e-05 
-1.072259052960e-04 2.828066854900e-05 0.0 
2.828066854900e-05 6.926707853574e-04 0.0 
0.0 0.0 -1.069007943593e-04 
-9.875212805042e-05 -3.066987077576e-05 0.0 
-3.066987077576e-05 6.455932732231e-04 0.0 
0.0 0.0 -9.854973989574e-05 
-1.347121276017e-04 -2.904780221579e-05 0.0 
-2.904780221579e-05 8.937363280174e-04 0.0 
0.0 0.0 -1.341094516545e-04 
-1.991811038418e-04 6.018664084073e-06 0.0 
6.018664084073e-06 1.364715316697e-03 0.0 
0.0 0.0 -1.985748880999e-04 
-1.110533222846e-04 2.766180117225e-05 0.0 
2.766180117225e-05 7.188072929314e-04 0.0 
0.0 0.0 -1.104975085169e-04 
-1.281880349500e-04 -2.831423111803e-05 0.0 
-2.831423111803e-05 8.493800491293e-04 0.0 
0.0 0.0 -1.277066113365e-04 
-1.022800064688e-04 2.938149773544e-05 0.0 
2.938149773544e-05 6.613696873366e-04 0.0 
0.0 0.0 -1.025654288072e-04 
-1.657781793003e-04 2.991009795984e-05 0.0 
2.991009795984e-05 1.103461715683e-03 0.0 
0.0 0.0 -1.657887872837e-04 
-1.303012997508e-04 2.941535065773e-05 0.0 
2.941535065773e-05 8.562179753406e-04 0.0 
0.0 0.0 -1.303748051659e-04 
-1.970164637737e-04 -1.302278598281e-06 0.0 
-1.302278598281e-06 1.366138488450e-03 0.0 
0.0 0.0 -1.983262259508e-04 
-2.010155577921e-04 3.662749840250e-07 0.0 
3.662749840250e-07 1.326332536677e-03 0.0 
0.0 0.0 -2.010155577921e-04 
-2.011542863586e-04 -1.004817252029e-06 0.0 
-1.004817252029e-06 1.325128672458e-03 0.0 
0.0 0.0 -2.011542863586e-04 
-2.007067363607e-04 -1.498454949362e-07 0.0 
-1.498454949362e-07 1.318361508107e-03 0.0 
0.0 0.0 -2.007067363607e-04 
-1.391843029499e-04 2.745739822782e-05 0.0 
2.745739822782e-05 9.142042162451e-04 0.0 
0.0 0.0 -1.386702020626e-04 
-1.656573127809e-04 -2.766529280961e-05 0.0 
-2.766529280961e-05 1.111954587801e-03 0.0 
0.0 0.0 -1.654503375633e-04 
-1.726299045536e-04 3.125882372741e-05 0.0 
3.125882372741e-05 1.154413842026e-03 0.0 
0.0 0.0 -1.733872194588e-04 
-9.246943249656e-05 3.046774901958e-05 0.0 
3.046774901958e-05 5.891823098647e-04 0.0 
0.0 0.0 -9.220995221430e-05 
-8.867527655773e-05 2.995644697180e-05 0.0 
2.995644697180e-05 5.611104943418e-04 0.0 
0.0 0.0 -8.809376301141e-05 
-9.622211545223e-05 -3.009570676563e-05 0.0 
-3.009570676563e-05 6.328174754954e-04 0.0 
0.0 0.0 -9.655401109520e-05 
-1.701961923366e-04 -3.010043453970e-05 0.0 
-3.010043453970e-05 1.143557443824e-03 0.0 
0.0 0.0 -1.697778367964e-04 
-1.986751491008e-04 -7.450281032106e-07 0.0 
-7.450281032106e-07 1.364365235868e-03 0.0 
0.0 0.0 -1.983660426036e-04 
-1.710340879663e-04 2.926837147099e-05 0.0 
2.926837147099e-05 1.140451459410e-03 0.0 
0.0 0.0 -1.711771202328e-04 
-1.362026136940e-04 -3.056560885154e-05 0.0 
-3.056560885154e-05 9.064457611163e-04 0.0 
0.0 0.0 -1.359501865459e-04 
-1.710918547977e-04 -2.738871930552e-05 0.0 
-2.738871930552e-05 1.149183258739e-03 0.0 
0.0 0.0 -1.708297112636e-04 
-1.484338095600e-04 -2.864995064493e-05 0.0 
-2.864995064493e-05 9.946985301084e-04 0.0 
0.0 0.0 -1.485531891111e-04 
-1.058391682515e-04 2.762475757998e-05 0.0 
2.762475757998e-05 6.839177814814e-04 0.0 
0.0 0.0 -1.057460988714e-04 
-9.007502322936e-05 2.632387229137e-05 0.0 
2.632387229137e-05 5.712847458693e-04 0.0 
0.0 0.0 -8.951081423028e-05 
-5.003262353380e-05 2.839389572085e-05 0.0 
2.839389572085e-05 2.942091527215e-04 0.0 
0.0 0.0 -5.000330529763e-05 
-1.931223455613e-04 1.410072971069e-05 0.0 
1.410072971069e-05 1.274197783005e-03 0.0 
0.0 0.0 -1.923320103442e-04 
-8.673133120512e-05 2.974761857028e-05 0.0 
2.974761857028e-05 5.527785355338e-04 0.0 
0.0 0.0 -8.688718888654e-05 
-1.811235048976e-04 -1.426754042441e-06 0.0 
-1.426754042441e-06 1.216021958167e-03 0.0 
0.0 0.0 -1.846150589539e-04 
-9.663648622258e-05 2.916309241112e-05 0.0 
2.916309241112e-05 6.223980992345e-04 0.0 
0.0 0.0 -9.698095267749e-05 
-6.297861531256e-05 -2.737443956180e-05 0.0 
-2.737443956180e-05 4.020391048555e-04 0.0 
0.0 0.0 -6.334372566563e-05 
-1.910403343780e-04 6.504513827889e-06 0.0 
6.504513827889e-06 1.269011526396e-03 0.0 
0.0 0.0 -1.926469350330e-04 
-7.031800198741e-05 2.800312657303e-05 0.0 
2.800312657303e-05 4.340280219417e-04 0.0 
0.0 0.0 -7.004737339288e-05 
-2.012981183411e-04 2.829868493088e-07 0.0 
2.829868493088e-07 1.325754434692e-03 0.0 
0.0 0.0 -2.012981183411e-04 
-1.944617061092e-04 -2.128424273080e-06 0.0 
-2.128424273080e-06 1.270536569317e-03 0.0 
0.0 0.0 -1.923981163876e-04 
-1.274261734323e-04 2.764661482526e-05 0.0 
2.764661482526e-05 8.320608034777e-04 0.0 
0.0 0.0 -1.269381307268e-04 
-1.388257339176e-05 -3.296929808695e-07 0.0 
-3.296929808695e-07 4.627629862134e-05 0.0 
0.0 0.0 -1.388302509839e-05 
-2.011432062587e-04 1.175370744359e-06 0.0 
1.175370744359e-06 1.325704875416e-03 0.0 
0.0 0.0 -2.011432062587e-04 
-1.921224080021e-04 -3.345083285998e-06 0.0 
-3.345083285998e-06 1.269046594870e-03 0.0 
0.0 0.0 -1.926992175726e-04 
-6.391416598869e-05 2.999598810142e-05 0.0 
2.999598810142e-05 3.912627427439e-04 0.0 
0.0 0.0 -6.380490422505e-05 
-1.404753262357e-04 -2.965513079560e-05 0.0 
-2.965513079560e-05 9.376027128924e-04 0.0 
0.0 0.0 -1.402969630079e-04 
-1.999507595383e-04 6.517171705065e-07 0.0 
6.517171705065e-07 1.367200749641e-03 0.0 
0.0 0.0 -1.984522389651e-04 
0.0 0.0 0.0 
0.0 0.0 0.0 
0.0 0.0 0.0 
-9.642422921866e-05 2.765043306328e-05 0.0 
2.765043306328e-05 6.184893464754e-04 0.0 
0.0 0.0 -9.638260397252e-05 
-1.327711764227e-04 2.777803969438e-05 0.0 
2.777803969438e-05 8.691844784454e-04 0.0 
0.0 0.0 -1.322405047887e-04 
-1.220159274826e-04 2.812429560457e-05 0.0 
2.812429560457e-05 7.950189731712e-04 0.0 
0.0 0.0 -1.216370884873e-04 
-1.233780413330e-04 2.822278476293e-05 0.0 
2.822278476293e-05 8.034120475729e-04 0.0 
0.0 0.0 -1.227992079070e-04 
-5.537653594295e-05 2.875222597985e-05 0.0 
2.875222597985e-05 3.316168811288e-04 0.0 
0.0 0.0 -5.533679171570e-05 
-2.012041008673e-04 -1.784165579868e-07 0.0 
-1.784165579868e-07 1.324183447082e-03 0.0 
0.0 0.0 -2.012041008673e-04 
-9.201494534921e-05 -2.853538992438e-05 0.0 
-2.853538992438e-05 6.003334109930e-04 0.0 
0.0 0.0 -9.185667556238e-05 
-3.303106360170e-05 -2.633064609002e-05 0.0 
-2.633064609002e-05 1.883634797952e-04 0.0 
0.0 0.0 -3.259945417627e-05 
-1.918713440306e-04 8.946523950926e-06 0.0 
8.946523950926e-06 1.309054848055e-03 0.0 
0.0 0.0 -1.908532239790e-04 
-1.533408055875e-05 7.384230356388e-07 0.0 
7.384230356388e-07 8.948803933365e-05 0.0 
0.0 0.0 -1.529156673429e-05 
-1.006599210971e-04 2.782645766406e-05 0.0 
2.782645766406e-05 6.455369390174e-04 0.0 
0.0 0.0 -1.001834968599e-04 
-3.451081164849e-05 1.818301860879e-06 0.0 
1.818301860879e-06 1.688175235099e-04 0.0 
0.0 0.0 -3.548102280213e-05 
-1.062965573196e-04 2.780179286973e-05 0.0 
2.780179286973e-05 6.883223029444e-04 0.0 
0.0 0.0 -1.064232429825e-04 
-1.976952572840e-04 -1.168281398261e-06 0.0 
-1.168281398261e-06 1.362992457342e-03 0.0 
0.0 0.0 -1.982734646138e-04 
-2.011883062674e-04 9.888613031943e-07 0.0 
9.888613031943e-07 1.328146716782e-03 0.0 
0.0 0.0 -2.011883062674e-04 
-1.301088029822e-04 2.770607832302e-05 0.0 
2.770607832302e-05 8.484055931934e-04 0.0 
0.0 0.0 -1.292069026561e-04 
-2.954464874618e-05 -3.965393558445e-06 0.0 
-3.965393558445e-06 1.122999320296e-04 0.0 
0.0 0.0 -2.690965210263e-05 
-2.739399671943e-05 2.933508036766e-05 0.0 
2.933508036766e-05 1.380090285650e-04 0.0 
0.0 0.0 -2.757055009735e-05 
-3.542847344044e-05 6.606947798617e-06 0.0 
6.606947798617e-06 2.063449622469e-04 0.0 
0.0 0.0 -3.269047038571e-05 
-1.687743102681e-04 -2.969350572077e-05 0.0 
-2.969350572077e-05 1.134034339831e-03 0.0 
0.0 0.0 -1.682749826031e-04 
-1.155575491131e-04 4.356017504332e-06 0.0 
4.356017504332e-06 7.906999410851e-04 0.0 
0.0 0.0 -1.155645034189e-04 
-1.225223585343e-04 -3.170975582543e-05 0.0 
-3.170975582543e-05 8.033648067797e-04 0.0 
0.0 0.0 -1.216399908441e-04 
-2.013754095761e-04 8.574101042673e-07 0.0 
8.574101042673e-07 1.328505872694e-03 0.0 
0.0 0.0 -2.013754095761e-04 
-1.185922722511e-04 -6.408792185017e-06 0.0 
-6.408792185017e-06 7.903114053093e-04 0.0 
0.0 0.0 -1.158066699702e-04 
-1.999465830534e-04 2.523603907241e-06 0.0 
2.523603907241e-06 1.365706190659e-03 0.0 
0.0 0.0 -1.984278847636e-04 
-1.529420189163e-04 2.878980384314e-05 0.0 
2.878980384314e-05 1.013778882456e-03 0.0 
0.0 0.0 -1.531497964885e-04 
-1.341342697016e-04 3.021998989808e-05 0.0 
3.021998989808e-05 8.804430663277e-04 0.0 
0.0 0.0 -1.336117322397e-04 
-7.066337245358e-05 2.724020164699e-05 0.0 
2.724020164699e-05 4.173118245595e-04 0.0 
0.0 0.0 -6.716413209789e-05 
-1.409646218039e-04 2.858302443344e-05 0.0 
2.858302443344e-05 9.281763591865e-04 0.0 
0.0 0.0 -1.406799227165e-04 
-4.298549671642e-05 -2.547451572923e-05 0.0 
-2.547451572923e-05 2.695670933754e-04 0.0 
0.0 0.0 -4.407237973489e-05 
-2.011132486541e-04 -7.128017343344e-07 0.0 
-7.128017343344e-07 1.328659301781e-03 0.0 
0.0 0.0 -2.011132486541e-04 
-2.009976701417e-04 3.439303975141e-06 0.0 
3.439303975141e-06 1.321105461220e-03 0.0 
0.0 0.0 -2.009976701417e-04 
-2.010626616006e-04 -3.322276770675e-06 0.0 
-3.322276770675e-06 1.324330050416e-03 0.0 
0.0 0.0 -2.010626616006e-04 
-1.299093591511e-04 -2.914930425429e-05 0.0 
-2.914930425429e-05 8.658441252439e-04 0.0 
0.0 0.0 -1.299975089739e-04 
-9.052284020771e-05 -3.049516894790e-05 0.0 
-3.049516894790e-05 5.936904225557e-04 0.0 
0.0 0.0 -9.093357025479e-05 
-1.054046505950e-04 -2.722690421760e-05 0.0 
-2.722690421760e-05 6.941162488956e-04 0.0 
0.0 0.0 -1.053178853420e-04 
-1.346471619318e-04 2.927563182277e-05 0.0 
2.927563182277e-05 8.856709839770e-04 0.0 
0.0 0.0 -1.347235989126e-04 
-2.009441844947e-04 5.418162692693e-07 0.0 
5.418162692693e-07 1.327955075341e-03 0.0 
0.0 0.0 -2.009441844947e-04 
-6.443925901357e-05 -2.813929069584e-05 0.0 
-2.813929069584e-05 4.076252186495e-04 0.0 
0.0 0.0 -6.431912701200e-05 
-7.485675959243e-05 2.901728883495e-05 0.0 
2.901728883495e-05 4.688085198426e-04 0.0 
0.0 0.0 -7.487790608676e-05 
-7.928698614329e-05 2.778576412939e-05 0.0 
2.778576412939e-05 4.984401812577e-04 0.0 
0.0 0.0 -7.908687439778e-05 
-1.394721343079e-04 2.885489704653e-05 0.0 
2.885489704653e-05 9.192978405546e-04 0.0 
0.0 0.0 -1.391937591313e-04 
-2.008612103287e-04 -3.693527197654e-06 0.0 
-3.693527197654e-06 1.364519917838e-03 0.0 
0.0 0.0 -1.985305734468e-04 
-2.250927834624e-05 2.909087829438e-06 0.0 
2.909087829438e-06 1.468758923848e-04 0.0 
0.0 0.0 -2.397382233655e-05 
-2.011163638586e-04 2.302003841696e-07 0.0 
2.302003841696e-07 1.324189736521e-03 0.0 
0.0 0.0 -2.011163638586e-04 
-7.377337448231e-05 2.934269690708e-05 0.0 
2.934269690708e-05 4.594549865471e-04 0.0 
0.0 0.0 -7.358133128319e-05 
-2.014316818412e-04 4.263406091415e-07 0.0 
4.263406091415e-07 1.328090472923e-03 0.0 
0.0 0.0 -2.014316818412e-04 
-1.734276927947e-04 -2.828578725819e-05 0.0 
-2.828578725819e-05 1.166116999412e-03 0.0 
0.0 0.0 -1.729148776319e-04 
-6.741246855669e-06 1.500702879826e-07 0.0 
1.500702879826e-07 3.827256342879e-05 0.0 
0.0 0.0 -6.864263063556e-06 
-1.004959508363e-04 2.808542309375e-05 0.0 
2.808542309375e-05 6.454212743012e-04 0.0 
0.0 0.0 -1.003583859079e-04 
-1.718759866272e-04 -2.980354167843e-05 0.0 
-2.980354167843e-05 1.157131136303e-03 0.0 
0.0 0.0 -1.719029392456e-04 
-2.011830196921e-04 -3.548902454819e-07 0.0 
-3.548902454819e-07 1.327155566075e-03 0.0 
0.0 0.0 -2.011830196921e-04 
-1.388407500422e-04 -2.884720622620e-05 0.0 
-2.884720622620e-05 9.230769586163e-04 0.0 
0.0 0.0 -1.383010158571e-04 
-1.575526722260e-04 2.955644203139e-05 0.0 
2.955644203139e-05 1.043750468826e-03 0.0 
0.0 0.0 -1.573501057445e-04 
-4.123088931291e-05 2.897558544234e-05 0.0 
2.897558544234e-05 2.287469859808e-04 0.0 
0.0 0.0 -4.076119643165e-05 
-1.813025862255e-04 9.345575993616e-07 0.0 
9.345575993616e-07 1.215376006819e-03 0.0 
0.0 0.0 -1.843023520775e-04 
-7.788490820688e-05 2.864422483209e-05 0.0 
2.864422483209e-05 4.890843703452e-04 0.0 
0.0 0.0 -7.776038389268e-05 
-7.872164132443e-05 -2.705112463858e-05 0.0 
-2.705112463858e-05 5.083022021505e-04 0.0 
0.0 0.0 -7.864394100603e-05 
-1.651857613722e-05 2.436579541672e-06 0.0 
2.436579541672e-06 9.382250948335e-05 0.0 
0.0 0.0 -1.564271892946e-05 
-2.011619417363e-04 1.902236696597e-07 0.0 
1.902236696597e-07 1.325669705516e-03 0.0 
0.0 0.0 -2.011619417363e-04 
-5.404101206327e-05 -2.775487024526e-05 0.0 
-2.775487024526e-05 3.346238881161e-04 0.0 
0.0 0.0 -5.346778118095e-05 
-1.664978969876e-04 -3.078518139598e-05 0.0 
-3.078518139598e-05 1.121532468591e-03 0.0 
0.0 0.0 -1.665752238587e-04 
-1.278730840806e-04 -3.472948115295e-05 0.0 
-3.472948115295e-05 8.520267496029e-04 0.0 
0.0 0.0 -1.283298317887e-04 
-6.603291402412e-05 -2.806322866842e-05 0.0 
-2.806322866842e-05 4.217037645698e-04 0.0 
0.0 0.0 -6.617380498945e-05 
-7.463675443451e-05 -2.871843216267e-05 0.0 
-2.871843216267e-05 4.786814676414e-04 0.0 
0.0 0.0 -7.447016153659e-05 
-1.335206736850e-04 -2.810341513530e-05 0.0 
-2.810341513530e-05 8.862841769034e-04 0.0 
0.0 0.0 -1.330061330556e-04 
-2.013389903111e-04 -2.577060081338e-06 0.0 
-2.577060081338e-06 1.328272800082e-03 0.0 
0.0 0.0 -2.013389903111e-04 
-9.595163826972e-05 2.829118562233e-05 0.0 
2.829118562233e-05 6.147361544056e-04 0.0 
0.0 0.0 -9.568302398834e-05 
-1.453761414593e-04 -3.029613600092e-05 0.0 
-3.029613600092e-05 9.724967985982e-04 0.0 
0.0 0.0 -1.454001008742e-04 
-1.206262125757e-04 2.794500349809e-05 0.0 
2.794500349809e-05 7.866369625336e-04 0.0 
0.0 0.0 -1.204619904346e-04 
-1.322723275388e-04 -2.829979880917e-05 0.0 
-2.829979880917e-05 8.816831760065e-04 0.0 
0.0 0.0 -1.321674040750e-04 
-7.980000717296e-05 -2.795628281200e-05 0.0 
-2.795628281200e-05 5.159636454028e-04 0.0 
0.0 0.0 -7.989676937832e-05 
-1.354049195082e-04 -2.966836663350e-05 0.0 
-2.966836663350e-05 9.031731980439e-04 0.0 
0.0 0.0 -1.354758998029e-04 
-1.160382141721e-04 -2.802728243222e-05 0.0 
-2.802728243222e-05 7.673309827378e-04 0.0 
0.0 0.0 -1.159419204142e-04 
-1.497221933922e-04 -2.945707781298e-05 0.0 
-2.945707781298e-05 1.002549953165e-03 0.0 
0.0 0.0 -1.497374551683e-04 
-1.506619844600e-04 2.868191767905e-05 0.0 
2.868191767905e-05 9.959081628399e-04 0.0 
0.0 0.0 -1.504701801305e-04 
-1.152928167139e-04 2.794966723813e-05 0.0 
2.794966723813e-05 7.495122634304e-04 0.0 
0.0 0.0 -1.151504190239e-04 
-9.797200402357e-05 2.936337437301e-05 0.0 
2.936337437301e-05 6.310607353231e-04 0.0 
0.0 0.0 -9.826785141749e-05 
-6.968070852175e-05 -2.743361977117e-05 0.0 
-2.743361977117e-05 4.442581749229e-04 0.0 
0.0 0.0 -6.960145924383e-05 
-9.096858632181e-05 2.865428116578e-05 0.0 
2.865428116578e-05 5.831558172230e-04 0.0 
0.0 0.0 -9.136904409387e-05 
-1.529042345816e-04 -2.854559586381e-05 0.0 
-2.854559586381e-05 1.024686749938e-03 0.0 
0.0 0.0 -1.527306194461e-04 
-1.256058487050e-04 2.811261290406e-05 0.0 
2.811261290406e-05 8.215081039068e-04 0.0 
0.0 0.0 -1.254775488864e-04 
-1.980780648734e-04 -3.935700772682e-06 0.0 
-3.935700772682e-06 1.366110574938e-03 0.0 
0.0 0.0 -1.982894430286e-04 
-1.754272809192e-04 -2.841101742405e-05 0.0 
-2.841101742405e-05 1.186882516095e-03 0.0 
0.0 0.0 -1.761487873678e-04 
-6.082182731614e-05 2.853376333875e-05 0.0 
2.853376333875e-05 3.715508262051e-04 0.0 
0.0 0.0 -6.104993218691e-05 
-2.011571007552e-04 9.171145657893e-07 0.0 
9.171145657893e-07 1.321562182738e-03 0.0 
0.0 0.0 -2.011571007552e-04 
-1.869664199368e-04 -1.057224803579e-06 0.0 
-1.057224803579e-06 1.305229682683e-03 0.0 
0.0 0.0 -1.899621165515e-04 
-1.086484700099e-04 2.782826117920e-05 0.0 
2.782826117920e-05 7.032557878447e-04 0.0 
0.0 0.0 -1.085668144712e-04 
-1.464969908307e-05 -1.429149761968e-06 0.0 
-1.429149761968e-06 4.885109050726e-05 0.0 
0.0 0.0 -1.465773918180e-05 
-1.958263237412e-04 5.780106440858e-07 0.0 
5.780106440858e-07 1.365777430136e-03 0.0 
0.0 0.0 -1.985204576056e-04 
-1.757264082716e-04 -2.517232276593e-05 0.0 
-2.517232276593e-05 1.179270301901e-03 0.0 
0.0 0.0 -1.750736792729e-04 
-6.782541782712e-05 3.019373787777e-05 0.0 
3.019373787777e-05 4.206013080560e-04 0.0 
0.0 0.0 -6.802858053956e-05 
-2.012563967287e-04 -1.966469980067e-06 0.0 
-1.966469980067e-06 1.324444202799e-03 0.0 
0.0 0.0 -2.012563967287e-04 
-1.398061958654e-04 -2.943243974614e-05 0.0 
-2.943243974614e-05 9.347188127772e-04 0.0 
0.0 0.0 -1.398839994836e-04 
-9.402070193648e-05 2.712518201061e-05 0.0 
2.712518201061e-05 5.984767473335e-04 0.0 
0.0 0.0 -9.344238907910e-05 
-1.259751156612e-04 2.590313598485e-05 0.0 
2.590313598485e-05 8.271536243356e-04 0.0 
0.0 0.0 -1.261329128710e-04 
-1.209053773198e-04 -2.958653903370e-05 0.0 
-2.958653903370e-05 8.015101038896e-04 0.0 
0.0 0.0 -1.208199794009e-04 
-1.200662961737e-04 -2.928695907517e-05 0.0 
-2.928695907517e-05 7.971639168788e-04 0.0 
0.0 0.0 -1.201302469568e-04 
-1.377407696400e-04 -2.844739825321e-05 0.0 
-2.844739825321e-05 9.201029016575e-04 0.0 
0.0 0.0 -1.377263211214e-04 
-1.455051528160e-04 -2.968427682686e-05 0.0 
-2.968427682686e-05 9.765284886093e-04 0.0 
0.0 0.0 -1.458154293005e-04 
-1.046610403714e-04 2.733139804099e-05 0.0 
2.733139804099e-05 6.730778598484e-04 0.0 
0.0 0.0 -1.041882757323e-04 
-1.560008307498e-04 2.985032891431e-05 0.0 
2.985032891431e-05 1.035131189223e-03 0.0 
0.0 0.0 -1.559113556481e-04 
-1.346325198006e-04 -3.759875847639e-06 0.0 
-3.759875847639e-06 9.030385431769e-04 0.0 
0.0 0.0 -1.325924704931e-04 
-9.742891063834e-05 -2.917049163419e-05 0.0 
-2.917049163419e-05 6.415916256564e-04 0.0 
0.0 0.0 -9.782951018876e-05 
-1.452307842680e-04 2.798410104444e-05 0.0 
2.798410104444e-05 9.572278053497e-04 0.0 
0.0 0.0 -1.449704969611e-04 
-7.715625378280e-05 -2.667442626255e-05 0.0 
-2.667442626255e-05 4.986036227452e-04 0.0 
0.0 0.0 -7.733157599954e-05 
-1.363333543933e-04 2.878191277654e-05 0.0 
2.878191277654e-05 8.968468110316e-04 0.0 
0.0 0.0 -1.364058089354e-04 
-7.777375980435e-06 -7.535368744987e-07 0.0 
-7.535368744987e-07 3.923141655039e-05 0.0 
0.0 0.0 -6.878196728934e-06 
-7.528604578945e-05 -2.595586335955e-05 0.0 
-2.595586335955e-05 4.832975377931e-04 0.0 
0.0 0.0 -7.495963205652e-05 
-7.310000528410e-05 -2.717420889967e-05 0.0 
-2.717420889967e-05 4.696905978795e-04 0.0 
0.0 0.0 -7.313647621482e-05 
-1.067255440210e-04 2.893271527878e-05 0.0 
2.893271527878e-05 6.917423590188e-04 0.0 
0.0 0.0 -1.068984364518e-04 
-1.139491260445e-04 2.826874769749e-05 0.0 
2.826874769749e-05 7.405843148328e-04 0.0 
0.0 0.0 -1.139284295517e-04 
-1.402043620025e-04 2.960631400939e-05 0.0 
2.960631400939e-05 9.251192422938e-04 0.0 
0.0 0.0 -1.402590041820e-04 
-1.335394728763e-04 -2.801522720058e-05 0.0 
-2.801522720058e-05 8.959684456723e-04 0.0 
0.0 0.0 -1.344445438287e-04 
-6.737158343628e-05 -2.804640221892e-05 0.0 
-2.804640221892e-05 4.313606597416e-04 0.0 
0.0 0.0 -6.758331304146e-05 
-2.012741767181e-04 8.821979198629e-07 0.0 
8.821979198629e-07 1.328039817999e-03 0.0 
0.0 0.0 -2.012741767181e-04 
-1.322856537807e-04 -2.842003897691e-05 0.0 
-2.842003897691e-05 8.785134865185e-04 0.0 
0.0 0.0 -1.318490365677e-04 
-1.109362290093e-04 2.909596826543e-05 0.0 
2.909596826543e-05 7.212635507904e-04 0.0 
0.0 0.0 -1.112084472091e-04 
-1.268451666326e-04 -2.799239167254e-05 0.0 
-2.799239167254e-05 8.413818391972e-04 0.0 
0.0 0.0 -1.265499305732e-04 
-1.064793262471e-04 -2.934158827982e-05 0.0 
-2.934158827982e-05 7.019469370670e-04 0.0 
0.0 0.0 -1.064793858277e-04 
0.0 0.0 0.0 
0.0 0.0 0.0 
0.0 0.0 0.0 
-1.318178097822e-04 -2.805518743843e-05 0.0 
-2.805518743843e-05 8.722935110683e-04 0.0 
0.0 0.0 -1.310031782818e-04 
-9.021933528390e-05 3.132040384158e-05 0.0 
3.132040384158e-05 5.739755637610e-04 0.0 
0.0 0.0 -8.934454493796e-05 
0.0 0.0 0.0 
0.0 0.0 0.0 
0.0 0.0 0.0 
-1.052154278640e-04 3.047955035353e-05 0.0 
3.047955035353e-05 6.816420493296e-04 0.0 
0.0 0.0 -1.056191267961e-04 
-1.502367494217e-04 2.924022123396e-05 0.0 
2.924022123396e-05 9.937951500591e-04 0.0 
0.0 0.0 -1.501881972789e-04 
-1.718775265069e-04 2.928709797380e-05 0.0 
2.928709797380e-05 1.146088071217e-03 0.0 
0.0 0.0 -1.720420237578e-04 
-1.280234877616e-04 -2.851125988754e-05 0.0 
-2.851125988754e-05 8.523441205577e-04 0.0 
0.0 0.0 -1.279840527869e-04 
-1.326450779531e-04 2.837607785170e-05 0.0 
2.837607785170e-05 8.704271803974e-04 0.0 
0.0 0.0 -1.326233994657e-04 
-1.124800331858e-04 -2.250634799779e-05 0.0 
-2.250634799779e-05 7.434000254204e-04 0.0 
0.0 0.0 -1.124284764899e-04 
-1.124934330556e-04 -1.147359770401e-06 0.0 
-1.147359770401e-06 6.878881025193e-04 0.0 
0.0 0.0 -1.096893794977e-04 
-1.889722149430e-04 -3.377914207804e-06 0.0 
-3.377914207804e-06 1.272437990102e-03 0.0 
0.0 0.0 -1.929167378009e-04 
-1.214486582279e-04 -2.834437307674e-05 0.0 
-2.834437307674e-05 8.042147269737e-04 0.0 
0.0 0.0 -1.212428182282e-04 
-3.901684544272e-06 -1.266514493921e-06 0.0 
-1.266514493921e-06 3.364292570627e-05 0.0 
0.0 0.0 -6.803381613341e-06 
-4.019702923064e-05 -2.968878104168e-05 0.0 
-2.968878104168e-05 2.317309542851e-04 0.0 
0.0 0.0 -3.854459625752e-05 
-1.433007491539e-05 -2.523139495984e-06 0.0 
-2.523139495984e-06 4.782663812836e-05 0.0 
0.0 0.0 -1.435566994842e-05 
-6.398639061022e-05 -2.382092625923e-05 0.0 
-2.382092625923e-05 4.115367021604e-04 0.0 
0.0 0.0 -6.426199848985e-05 
-1.705216486236e-04 -3.075798588999e-05 0.0 
-3.075798588999e-05 1.144180239023e-03 0.0 
0.0 0.0 -1.701784606649e-04 
-1.720848907896e-04 -2.982707765609e-05 0.0 
-2.982707765609e-05 1.154451966353e-03 0.0 
0.0 0.0 -1.716974477008e-04 
-1.636081653310e-04 2.890679068895e-05 0.0 
2.890679068895e-05 1.083797119579e-03 0.0 
0.0 0.0 -1.631141653006e-04 
-7.191278251009e-05 -2.923981126011e-05 0.0 
-2.923981126011e-05 4.644308216806e-04 0.0 
0.0 0.0 -7.241705069886e-05 
-1.359669915306e-04 -2.927541453388e-05 0.0 
-2.927541453388e-05 9.079369783679e-04 0.0 
0.0 0.0 -1.359475215862e-04 
-1.703257054035e-04 2.861689226726e-05 0.0 
2.861689226726e-05 1.140054647222e-03 0.0 
0.0 0.0 -1.713159247262e-04 
-4.183047912369e-05 -2.572604659906e-05 0.0 
-2.572604659906e-05 2.560153946945e-04 0.0 
0.0 0.0 -4.231798256975e-05 
-8.943823586418e-05 -3.364415979658e-05 0.0 
-3.364415979658e-05 5.775390913927e-04 0.0 
0.0 0.0 -8.913173311910e-05 
-7.231586338472e-05 2.908218695887e-05 0.0 
2.908218695887e-05 4.640276074048e-04 0.0 
0.0 0.0 -7.470029742937e-05 
-2.002434364986e-04 2.390306987834e-06 0.0 
2.390306987834e-06 1.365017058433e-03 0.0 
0.0 0.0 -1.983595295415e-04 
-2.012462808875e-04 -2.397130779802e-06 0.0 
-2.397130779802e-06 1.326802955155e-03 0.0 
0.0 0.0 -2.012462808875e-04 
-1.001924190894e-04 -2.543634002640e-05 0.0 
-2.543634002640e-05 6.415530807948e-04 0.0 
0.0 0.0 -9.870432074603e-05 
-1.098744198639e-04 -2.927420239507e-05 0.0 
-2.927420239507e-05 7.316606535654e-04 0.0 
0.0 0.0 -1.107837014452e-04 
-1.248013625041e-04 2.918553395126e-05 0.0 
2.918553395126e-05 8.167887655362e-04 0.0 
0.0 0.0 -1.248518557812e-04 
-1.744561955947e-04 2.668158714920e-05 0.0 
2.668158714920e-05 1.182258303691e-03 0.0 
0.0 0.0 -1.765917450224e-04 
-4.348855545644e-05 2.994300755885e-05 0.0 
2.994300755885e-05 2.445057852649e-04 0.0 
0.0 0.0 -4.320551243875e-05 
-1.652296485327e-04 2.906332229875e-05 0.0 
2.906332229875e-05 1.101447253650e-03 0.0 
0.0 0.0 -1.657061016896e-04 
-2.403565913090e-05 4.949963233040e-06 0.0 
4.949963233040e-06 1.531777656687e-04 0.0 
0.0 0.0 -2.418834757213e-05 
-1.015799043054e-04 -2.942946605237e-05 0.0 
-2.942946605237e-05 6.633561862995e-04 0.0 
0.0 0.0 -1.008698596220e-04 
-1.119529650465e-04 -2.962126233882e-05 0.0 
-2.962126233882e-05 7.407931298335e-04 0.0 
0.0 0.0 -1.120576983545e-04 
-1.459957790494e-05 2.147032025287e-06 0.0 
2.147032025287e-06 4.870772312705e-05 0.0 
0.0 0.0 -1.461777652376e-05 
-9.161840063277e-05 2.942933483065e-05 0.0 
2.942933483065e-05 6.062252670522e-04 0.0 
0.0 0.0 -9.401387724495e-05 
-1.768726332775e-04 2.584150165173e-05 0.0 
2.584150165173e-05 1.176843255176e-03 0.0 
0.0 0.0 -1.765293208453e-04 
-8.070653634049e-06 -7.127200303669e-07 0.0 
-7.127200303669e-07 3.799287171116e-05 0.0 
0.0 0.0 -6.885492893058e-06 
-1.096879873477e-04 2.043579917607e-06 0.0 
2.043579917607e-06 6.860751141181e-04 0.0 
0.0 0.0 -1.098413067258e-04 
-1.057188370874e-04 1.685883039911e-07 0.0 
1.685883039911e-07 7.271365247556e-04 0.0 
0.0 0.0 -1.069570933414e-04 
-1.432107105009e-04 -2.918049026374e-05 0.0 
-2.918049026374e-05 9.585008998201e-04 0.0 
0.0 0.0 -1.432800021710e-04 
-7.316489204152e-05 -2.863859130745e-05 0.0 
-2.863859130745e-05 4.706303893412e-04 0.0 
0.0 0.0 -7.415269660255e-05 
-7.204753212898e-05 2.972500420552e-05 0.0 
2.972500420552e-05 4.499764828814e-04 0.0 
0.0 0.0 -7.226240082359e-05 
-5.120365076624e-05 -2.544377550683e-05 0.0 
-2.544377550683e-05 3.155956943602e-04 0.0 
0.0 0.0 -5.097082111979e-05 
-1.766764062378e-04 2.618275323120e-05 0.0 
2.618275323120e-05 1.179907026535e-03 0.0 
0.0 0.0 -1.771343179597e-04 
-1.932169887683e-04 -1.186514980036e-06 0.0 
-1.186514980036e-06 1.270206526665e-03 0.0 
0.0 0.0 -1.929291577857e-04 
-1.651550878866e-04 -2.941422592351e-05 0.0 
-2.941422592351e-05 1.109208798495e-03 0.0 
0.0 0.0 -1.651633390879e-04 
-6.755242304519e-05 -2.455549728632e-05 0.0 
-2.455549728632e-05 4.248768375292e-04 0.0 
0.0 0.0 -6.685523357515e-05 
-3.212136007057e-05 3.580530001302e-05 0.0 
3.580530001302e-05 1.447902451166e-04 0.0 
0.0 0.0 -2.858747568434e-05 
-1.054343223867e-04 -2.695876520577e-05 0.0 
-2.695876520577e-05 6.907711584095e-04 0.0 
0.0 0.0 -1.049869670044e-04 
-1.082088607967e-04 -8.344784113160e-08 0.0 
-8.344784113160e-08 6.889651327617e-04 0.0 
0.0 0.0 -1.101766670879e-04 
-1.083270449213e-04 -5.188674785914e-06 0.0 
-5.188674785914e-06 7.291063979252e-04 0.0 
0.0 0.0 -1.071720332863e-04 
0.0 0.0 0.0 
0.0 0.0 0.0 
0.0 0.0 0.0 
-1.419401195472e-05 1.408697338343e-06 0.0 
1.408697338343e-06 4.733218519253e-05 0.0 
0.0 0.0 -1.420207424477e-05 
-2.834770026484e-05 -7.681243720571e-06 0.0 
-7.681243720571e-06 1.096902963104e-04 0.0 
0.0 0.0 -2.693124394472e-05 
-5.719939767419e-05 2.990659681515e-05 0.0 
2.990659681515e-05 3.452165164042e-04 0.0 
0.0 0.0 -5.731412244432e-05 
-1.720930858718e-05 3.350218996686e-07 0.0 
3.350218996686e-07 9.401005302813e-05 0.0 
0.0 0.0 -1.553541414024e-05 
-1.076654832369e-04 2.813964265791e-05 0.0 
2.813964265791e-05 6.806882370998e-04 0.0 
0.0 0.0 -1.037722331524e-04 
0.0 0.0 0.0 
0.0 0.0 0.0 
0.0 0.0 0.0 
-6.700184681606e-05 3.038711416349e-05 0.0 
3.038711416349e-05 4.144588213805e-04 0.0 
0.0 0.0 -6.723558339016e-05 
-1.422690385554e-04 8.906612131176e-06 0.0 
8.906612131176e-06 9.279461319084e-04 0.0 
0.0 0.0 -1.437384108528e-04 
-1.067106135208e-04 1.512146510798e-06 0.0 
1.512146510798e-06 7.288241095318e-04 0.0 
0.0 0.0 -1.068051661132e-04 
-1.732229403376e-04 -3.027991344990e-05 0.0 
-3.027991344990e-05 1.178111385867e-03 0.0 
0.0 0.0 -1.754224665252e-04 
-1.445452663558e-04 2.930268727359e-05 0.0 
2.930268727359e-05 9.544571665351e-04 0.0 
0.0 0.0 -1.446217387457e-04 
-1.353694455665e-04 1.174583702380e-05 0.0 
1.174583702380e-05 8.660998565929e-04 0.0 
0.0 0.0 -1.348267065705e-04 
-7.873004197628e-05 3.045040631702e-05 0.0 
3.045040631702e-05 5.029221835495e-04 0.0 
0.0 0.0 -7.904067945980e-05 
-2.336863266121e-05 -2.139897506835e-06 0.0 
-2.139897506835e-06 1.525920777976e-04 0.0 
0.0 0.0 -2.404492882983e-05 
-2.011462452073e-04 -3.115145181966e-06 0.0 
-3.115145181966e-06 1.323800969612e-03 0.0 
0.0 0.0 -2.011462452073e-04 
-1.997611016349e-04 -1.600977658654e-07 0.0 
-1.600977658654e-07 1.366080671060e-03 0.0 
0.0 0.0 -1.980443072317e-04 
-1.272448923164e-04 3.465279404623e-05 0.0 
3.465279404623e-05 8.424875497443e-04 0.0 
0.0 0.0 -1.288258176484e-04 
-1.119386170519e-04 -1.126021442298e-06 0.0 
-1.126021442298e-06 6.885955176049e-04 0.0 
0.0 0.0 -1.098911005281e-04 
-7.877315288786e-05 -1.808968119029e-05 0.0 
-1.808968119029e-05 5.143209401366e-04 0.0 
0.0 0.0 -7.971767696681e-05 
-1.985236644042e-04 -3.425616005704e-06 0.0 
-3.425616005704e-06 1.362863135910e-03 0.0 
0.0 0.0 -1.983864604134e-04 
-6.236203446175e-05 -2.877830346934e-05 0.0 
-2.877830346934e-05 3.955051293210e-04 0.0 
0.0 0.0 -6.249901059374e-05 
-1.058650871008e-04 -6.246155104235e-07 0.0 
-6.246155104235e-07 7.256170483752e-04 0.0 
0.0 0.0 -1.068842133844e-04 
-1.069697525894e-04 1.084045783815e-06 0.0 
1.084045783815e-06 6.877400680898e-04 0.0 
0.0 0.0 -1.096916328397e-04 
-1.015389602943e-04 2.700360211827e-05 0.0 
2.700360211827e-05 6.538816838809e-04 0.0 
0.0 0.0 -1.013366985113e-04 
-2.012735984050e-04 -2.798087263703e-06 0.0 
-2.798087263703e-06 1.328613650514e-03 0.0 
0.0 0.0 -2.012735984050e-04 
-1.940648784859e-04 2.411070838906e-06 0.0 
2.411070838906e-06 1.364173949612e-03 0.0 
0.0 0.0 -1.983874027871e-04 
-1.690083312634e-05 1.049773310524e-06 0.0 
1.049773310524e-06 9.202054593460e-05 0.0 
0.0 0.0 -1.553532439781e-05 
0.0 0.0 0.0 
0.0 0.0 0.0 
0.0 0.0 0.0 
-3.585533076935e-05 2.904737459937e-05 0.0 
2.904737459937e-05 1.788685704198e-04 0.0 
0.0 0.0 -3.331695100386e-05 
-1.122713198486e-04 2.937932182379e-05 0.0 
2.937932182379e-05 7.306935959273e-04 0.0 
0.0 0.0 -1.124655765398e-04 
-1.835773402027e-04 3.521607307094e-05 0.0 
3.521607307094e-05 1.234731404255e-03 0.0 
0.0 0.0 -1.837003526785e-04 
-5.776823163620e-06 -1.013741336344e-05 0.0 
-1.013741336344e-05 3.224761562078e-05 0.0 
0.0 0.0 -6.760418344035e-06 
-1.642553307267e-04 -3.202846031696e-05 0.0 
-3.202846031696e-05 1.094624480443e-03 0.0 
0.0 0.0 -1.638777942950e-04 
0.0 0.0 0.0 
0.0 0.0 0.0 
0.0 0.0 0.0 
-1.424654463444e-04 2.913249922816e-05 0.0 
2.913249922816e-05 9.390706018894e-04 0.0 
0.0 0.0 -1.423962487430e-04 
-9.432165051581e-06 1.005162211791e-06 0.0 
1.005162211791e-06 4.138276126950e-05 0.0 
0.0 0.0 -6.886565099861e-06 
-9.362857787326e-06 -3.767431995236e-06 0.0 
-3.767431995236e-06 3.953910185584e-05 0.0 
0.0 0.0 -6.922935307491e-06 
-1.370365661157e-04 2.914478147057e-05 0.0 
2.914478147057e-05 9.005660180564e-04 0.0 
0.0 0.0 -1.368385334393e-04 
-1.786566956368e-04 2.931910129804e-05 0.0 
2.931910129804e-05 1.196344419870e-03 0.0 
0.0 0.0 -1.789445754221e-04 
-1.403014539755e-04 -1.415648790463e-05 0.0 
-1.415648790463e-05 9.602064443499e-04 0.0 
0.0 0.0 -1.404190723625e-04 
-1.093898583646e-04 -2.651797813815e-05 0.0 
-2.651797813815e-05 7.193684517441e-04 0.0 
0.0 0.0 -1.090260965338e-04 
-1.456607726240e-05 -2.038157053184e-06 0.0 
-2.038157053184e-06 4.859194839432e-05 0.0 
0.0 0.0 -1.458251619940e-05 
-1.403045830740e-04 -2.944113871056e-05 0.0 
-2.944113871056e-05 9.375602710699e-04 0.0 
0.0 0.0 -1.402353347023e-04 
-2.006696725991e-04 -3.796241326952e-06 0.0 
-3.796241326952e-06 1.322105168317e-03 0.0 
0.0 0.0 -2.006696725991e-04 
-1.989054431028e-04 -2.182972558240e-05 0.0 
-2.182972558240e-05 1.362302379513e-03 0.0 
0.0 0.0 -1.983532132695e-04 
-1.068515601043e-04 1.760793152409e-06 0.0 
1.760793152409e-06 7.282983415426e-04 0.0 
0.0 0.0 -1.068864667265e-04 
-1.479030554931e-04 2.849872559925e-05 0.0 
2.849872559925e-05 9.774939211832e-04 0.0 
0.0 0.0 -1.479563560404e-04 
-2.012411575798e-04 2.034835726214e-06 0.0 
2.034835726214e-06 1.326088054461e-03 0.0 
0.0 0.0 -2.012411575798e-04 
-1.572471139556e-04 -3.123527971848e-05 0.0 
-3.123527971848e-05 1.052974899250e-03 0.0 
0.0 0.0 -1.570065405944e-04 
-2.512952758235e-05 6.164143337161e-06 0.0 
6.164143337161e-06 1.447280408939e-04 0.0 
0.0 0.0 -2.384861487001e-05 
-1.601508775722e-05 -1.437488736464e-06 0.0 
-1.437488736464e-06 9.300170481307e-05 0.0 
0.0 0.0 -1.544587960073e-05 
-1.543264015197e-05 -6.472491513265e-06 0.0 
-6.472491513265e-06 5.180474928483e-05 0.0 
0.0 0.0 -1.558804677123e-05 
-8.807433739710e-05 2.930499283462e-05 0.0 
2.930499283462e-05 5.721318599330e-04 0.0 
0.0 0.0 -8.900037232384e-05 
-2.000509150237e-04 -1.803318756068e-05 0.0 
-1.803318756068e-05 1.362940764782e-03 0.0 
0.0 0.0 -1.984242861770e-04 
-1.873647884484e-04 -3.488074856058e-05 0.0 
-3.488074856058e-05 1.273069634555e-03 0.0 
0.0 0.0 -1.887494668184e-04 
0.0 0.0 0.0 
0.0 0.0 0.0 
0.0 0.0 0.0 
-1.048455043466e-04 -2.786233972015e-05 0.0 
-2.786233972015e-05 6.764000404035e-04 0.0 
0.0 0.0 -1.040814173273e-04 
-2.017197471554e-04 8.241581226717e-07 0.0 
8.241581226717e-07 1.329062272743e-03 0.0 
0.0 0.0 -2.017197471554e-04 
-2.005984413255e-04 5.516146765968e-06 0.0 
5.516146765968e-06 1.367793765917e-03 0.0 
0.0 0.0 -1.978177876756e-04 
-1.955632613542e-04 2.146035678259e-07 0.0 
2.146035678259e-07 1.364429749039e-03 0.0 
0.0 0.0 -1.981726781329e-04 
-1.551674337257e-04 3.213659539949e-05 0.0 
3.213659539949e-05 1.026132370703e-03 0.0 
0.0 0.0 -1.540722572613e-04 
-1.676819576491e-04 -3.244106652331e-05 0.0 
-3.244106652331e-05 1.132368160945e-03 0.0 
0.0 0.0 -1.688564288694e-04 
-2.007045390215e-04 -1.045242026293e-06 0.0 
-1.045242026293e-06 1.322895647985e-03 0.0 
0.0 0.0 -2.007045390215e-04 
-2.011132486540e-04 -4.189740075221e-06 0.0 
-4.189740075221e-06 1.326334124050e-03 0.0 
0.0 0.0 -2.011132486540e-04 
-1.626580735659e-04 2.634343120663e-05 0.0 
2.634343120663e-05 1.095653417165e-03 0.0 
0.0 0.0 -1.638777942950e-04 
-3.467643311259e-06 1.128712139723e-05 0.0 
1.128712139723e-05 2.762392691705e-05 0.0 
0.0 0.0 -6.812318873104e-06 
-1.069489536729e-04 -2.288587191676e-07 0.0 
-2.288587191676e-07 7.222038744284e-04 0.0 
0.0 0.0 -1.070930873830e-04 
-1.082084560241e-04 4.524390449744e-06 0.0 
4.524390449744e-06 7.317697196541e-04 0.0 
0.0 0.0 -1.070046338016e-04 
0.0 0.0 0.0 
0.0 0.0 0.0 
0.0 0.0 0.0 
-2.013470386860e-04 1.582993778475e-06 0.0 
1.582993778475e-06 1.331092746641e-03 0.0 
0.0 0.0 -2.013470386860e-04 
-2.004992679381e-04 3.810616673030e-06 0.0 
3.810616673030e-06 1.366146148260e-03 0.0 
0.0 0.0 -1.977533921434e-04 
-2.006939626645e-04 9.733569450267e-08 0.0 
9.733569450267e-08 1.322104658797e-03 0.0 
0.0 0.0 -2.006939626645e-04 
-1.033192631121e-05 1.099005081210e-06 0.0 
1.099005081210e-06 3.989146001766e-05 0.0 
0.0 0.0 -6.874462243606e-06 
-1.053268595906e-05 1.440397429326e-06 0.0 
1.440397429326e-06 4.104748301093e-05 0.0 
0.0 0.0 -6.887055179908e-06 
-2.011132486540e-04 -1.745116755585e-07 0.0 
-1.745116755585e-07 1.324356223126e-03 0.0 
0.0 0.0 -2.011132486540e-04 
-2.010594294788e-04 -3.067167593136e-06 0.0 
-3.067167593136e-06 1.323008264150e-03 0.0 
0.0 0.0 -2.010594294788e-04 
-1.525144534316e-04 -3.469908965430e-05 0.0 
-3.469908965430e-05 9.919929974676e-04 0.0 
0.0 0.0 -1.490508918356e-04 
-1.073514247561e-04 4.761945652643e-06 0.0 
4.761945652643e-06 7.219659484264e-04 0.0 
0.0 0.0 -1.068727795842e-04 
-1.577537368329e-04 -3.403094625324e-05 0.0 
-3.403094625324e-05 1.060418053842e-03 0.0 
0.0 0.0 -1.590213654257e-04 
-1.328454241957e-04 -3.370191828823e-05 0.0 
-3.370191828823e-05 8.485398635158e-04 0.0 
0.0 0.0 -1.293991128285e-04 
-1.046169236010e-04 1.973664755836e-06 0.0 
1.973664755836e-06 7.223528969599e-04 0.0 
0.0 0.0 -1.068286901835e-04 
-4.614602936406e-06 5.445308269796e-06 0.0 
5.445308269796e-06 3.738876181996e-05 0.0 
0.0 0.0 -6.743366273123e-06 
-7.288647016025e-06 -5.605815272385e-06 0.0 
-5.605815272385e-06 4.290456148284e-05 0.0 
0.0 0.0 -6.886751345948e-06 
-4.777740867475e-06 -1.713355770572e-06 0.0 
-1.713355770572e-06 3.704418379984e-05 0.0 
0.0 0.0 -6.883523363406e-06 
-7.097131879006e-06 -1.839146356973e-06 0.0 
-1.839146356973e-06 3.989175121334e-05 0.0 
0.0 0.0 -6.834868364323e-06 
-1.111644977682e-04 3.476120600100e-05 0.0 
3.476120600100e-05 7.142233904721e-04 0.0 
0.0 0.0 -1.090698765213e-04 
-9.850854995735e-05 3.047113839014e-05 0.0 
3.047113839014e-05 6.418056074726e-04 0.0 
0.0 0.0 -9.901154080588e-05 
0.0 0.0 0.0 
0.0 0.0 0.0 
0.0 0.0 0.0 
-1.379803939868e-04 3.311278655235e-05 0.0 
3.311278655235e-05 9.246797732210e-04 0.0 
0.0 0.0 -1.383256398532e-04 
0.0 0.0 0.0 
0.0 0.0 0.0 
0.0 0.0 0.0 
-2.012207460908e-04 8.138655548158e-07 0.0 
8.138655548158e-07 1.323125614848e-03 0.0 
0.0 0.0 -2.012207460908e-04 
-2.011453028336e-04 1.874611865645e-06 0.0 
1.874611865645e-06 1.321148462492e-03 0.0 
0.0 0.0 -2.011453028336e-04 
-2.008980620244e-04 -1.010417860953e-06 0.0 
-1.010417860953e-06 1.324898106472e-03 0.0 
0.0 0.0 -2.008980620244e-04 
-3.774320917617e-05 3.566462655254e-05 0.0 
3.566462655254e-05 2.216925288799e-04 0.0 
0.0 0.0 -3.898704224316e-05 
-6.749434365589e-05 3.096998135248e-05 0.0 
3.096998135248e-05 4.319785382730e-04 0.0 
0.0 0.0 -6.911201714261e-05 
-2.005699367862e-04 -7.190292655297e-07 0.0 
-7.190292655297e-07 1.323013138076e-03 0.0 
0.0 0.0 -2.005699367862e-04 
-1.680240814146e-04 2.828255466262e-05 0.0 
2.828255466262e-05 1.134108335992e-03 0.0 
0.0 0.0 -1.687435400630e-04 
-2.016835406704e-04 -3.156370070795e-06 0.0 
-3.156370070795e-06 1.329078538970e-03 0.0 
0.0 0.0 -2.016835406704e-04 
-1.793487015674e-04 3.012936828637e-05 0.0 
3.012936828637e-05 1.204201687729e-03 0.0 
0.0 0.0 -1.788807376869e-04 
-1.896811634642e-04 3.473757623144e-05 0.0 
3.473757623144e-05 1.274809396155e-03 0.0 
0.0 0.0 -1.889858754357e-04 
-9.329662399263e-05 -3.052995434082e-05 0.0 
-3.052995434082e-05 6.062639241622e-04 0.0 
0.0 0.0 -9.401191312989e-05 
-2.000004866553e-04 -4.935042552872e-06 0.0 
-4.935042552872e-06 1.365934607507e-03 0.0 
0.0 0.0 -1.977152396198e-04 
-2.004002946706e-04 1.743259095834e-05 0.0 
1.743259095834e-05 1.363643771933e-03 0.0 
0.0 0.0 -1.982534774566e-04 
-1.735523764126e-04 -3.096544822671e-05 0.0 
-3.096544822671e-05 1.160586461079e-03 0.0 
0.0 0.0 -1.736242777500e-04 
-1.844507237627e-04 -3.076693800438e-05 0.0 
-3.076693800438e-05 1.234271765678e-03 0.0 
0.0 0.0 -1.838666131227e-04 
-1.480705946354e-04 -2.799822277007e-05 0.0 
-2.799822277007e-05 9.966603041907e-04 0.0 
0.0 0.0 -1.488773473547e-04 
0.0 0.0 0.0 
0.0 0.0 0.0 
0.0 0.0 0.0 
-9.787607230901e-05 -3.033430602603e-05 0.0 
-3.033430602603e-05 6.248974769917e-04 0.0 
0.0 0.0 -9.525361646419e-05 
-1.594166567358e-05 -3.750042762657e-06 0.0 
-3.750042762657e-06 8.963110813763e-05 0.0 
0.0 0.0 -1.545597323287e-05 
-1.766298993527e-04 -2.600424007003e-05 0.0 
-2.600424007003e-05 1.189008728009e-03 0.0 
0.0 0.0 -1.766728545426e-04 
-1.011715525641e-04 2.892404910577e-05 0.0 
2.892404910577e-05 6.528362141215e-04 0.0 
0.0 0.0 -1.013053728898e-04 
-1.643672164407e-04 2.795643146507e-05 0.0 
2.795643146507e-05 1.094563530101e-03 0.0 
0.0 0.0 -1.648525347569e-04 
-5.293095072300e-05 -2.919541751065e-05 0.0 
-2.919541751065e-05 3.265136357570e-04 0.0 
0.0 0.0 -5.257162719418e-05 
-2.326140168062e-05 1.809898427410e-05 0.0 
1.809898427410e-05 1.126266936620e-04 0.0 
0.0 0.0 -2.603928234478e-05 
-1.740902369364e-04 -2.842066329623e-05 0.0 
-2.842066329623e-05 1.173125089393e-03 0.0 
0.0 0.0 -1.742502449863e-04 
-1.033465261807e-04 -2.962592743150e-05 0.0 
-2.962592743150e-05 6.925891601377e-04 0.0 
0.0 0.0 -1.051812066754e-04 
-8.643013593859e-05 3.008982733389e-05 0.0 
3.008982733389e-05 5.377346504154e-04 0.0 
0.0 0.0 -8.417044846400e-05 
-1.640235310558e-04 -2.864236577619e-05 0.0 
-2.864236577619e-05 1.105176284391e-03 0.0 
0.0 0.0 -1.644154061664e-04 
-1.767953130454e-04 2.924397373916e-05 0.0 
2.924397373916e-05 1.186936749162e-03 0.0 
0.0 0.0 -1.783361800308e-04 
-8.342488227328e-05 -3.047437538585e-05 0.0 
-3.047437538585e-05 5.389729855638e-04 0.0 
0.0 0.0 -8.404105178381e-05 
-1.553105581953e-04 -3.047408891050e-05 0.0 
-3.047408891050e-05 1.042435393668e-03 0.0 
0.0 0.0 -1.553470185564e-04 
-1.377037381347e-04 2.897215065226e-05 0.0 
2.897215065226e-05 9.063511737441e-04 0.0 
0.0 0.0 -1.377261412248e-04 
-1.487663362168e-04 3.034863814033e-05 0.0 
3.034863814033e-05 9.863621124124e-04 0.0 
0.0 0.0 -1.492918029589e-04 
-1.536565537427e-04 2.792959174996e-05 0.0 
2.792959174996e-05 1.019186869417e-03 0.0 
0.0 0.0 -1.536336870150e-04 
-8.703976113534e-05 2.837055784379e-05 0.0 
2.837055784379e-05 5.518675504069e-04 0.0 
0.0 0.0 -8.683226689744e-05 
-1.002022259484e-04 -2.590961570230e-05 0.0 
-2.590961570230e-05 6.551468687222e-04 0.0 
0.0 0.0 -9.977007195992e-05 
-1.093881919947e-04 -2.770239582758e-05 0.0 
-2.770239582758e-05 7.220131976624e-04 0.0 
0.0 0.0 -1.093958643288e-04 
-1.406127741505e-04 2.917136878775e-05 0.0 
2.917136878775e-05 9.268398262503e-04 0.0 
0.0 0.0 -1.406784318969e-04 
-1.687115161712e-04 -3.067342872161e-05 0.0 
-3.067342872161e-05 1.136830953558e-03 0.0 
0.0 0.0 -1.687651353947e-04 
-1.585913072065e-04 2.928358840365e-05 0.0 
2.928358840365e-05 1.052859338839e-03 0.0 
0.0 0.0 -1.580633810106e-04 
-5.479081598616e-05 2.994038105978e-05 0.0 
2.994038105978e-05 3.289222848753e-04 0.0 
0.0 0.0 -5.528240989263e-05 
-1.746871843674e-04 3.283276217726e-05 0.0 
3.283276217726e-05 1.185116148222e-03 0.0 
0.0 0.0 -1.775271150753e-04 
-1.679442359996e-04 3.131022344942e-05 0.0 
3.131022344942e-05 1.115031446851e-03 0.0 
0.0 0.0 -1.675626104125e-04 
-1.221593488371e-04 3.511867114280e-05 0.0 
3.511867114280e-05 8.006612417280e-04 0.0 
0.0 0.0 -1.216572242888e-04 
-1.462466688388e-04 2.908933395677e-05 0.0 
2.908933395677e-05 9.660970915257e-04 0.0 
0.0 0.0 -1.463062179487e-04 
-1.447835164611e-04 2.956128772271e-05 0.0 
2.956128772271e-05 9.567010152770e-04 0.0 
0.0 0.0 -1.449838819924e-04 
-1.792333390310e-04 -3.168391798873e-05 0.0 
-3.168391798873e-05 1.203028324022e-03 0.0 
0.0 0.0 -1.778043281469e-04 
-1.726861877255e-04 2.779707870147e-05 0.0 
2.779707870147e-05 1.157249200719e-03 0.0 
0.0 0.0 -1.726459165900e-04 
-1.329452909279e-04 -2.927403005553e-05 0.0 
-2.927403005553e-05 8.870966851266e-04 0.0 
0.0 0.0 -1.330039573441e-04 
-1.775653267684e-04 -2.916250387629e-05 0.0 
-2.916250387629e-05 1.203364525945e-03 0.0 
0.0 0.0 -1.786308073928e-04 
-1.654805505207e-04 2.898950024976e-05 0.0 
2.898950024976e-05 1.100881704438e-03 0.0 
0.0 0.0 -1.655124361118e-04 
-1.580020696379e-04 -2.712101494930e-05 0.0 
-2.712101494930e-05 1.052848737751e-03 0.0 
0.0 0.0 -1.580622427210e-04 
-1.810952274087e-04 -3.284061138223e-05 0.0 
-3.284061138223e-05 1.222270948259e-03 0.0 
0.0 0.0 -1.815025845867e-04 
-1.775177136140e-04 -3.096279402686e-05 0.0 
-3.096279402686e-05 1.194150968252e-03 0.0 
0.0 0.0 -1.772606145979e-04 
-1.518616300347e-04 -3.096354740043e-05 0.0 
-3.096354740043e-05 1.015068895178e-03 0.0 
0.0 0.0 -1.517726872707e-04 
-1.496823891535e-04 -2.920446452269e-05 0.0 
-2.920446452269e-05 1.003862088151e-03 0.0 
0.0 0.0 -1.497848398488e-04 
-5.427687096238e-05 2.854055310501e-05 0.0 
2.854055310501e-05 3.273443379495e-04 0.0 
0.0 0.0 -5.466547164957e-05 
-5.095033440368e-05 2.883575061878e-05 0.0 
2.883575061878e-05 3.031424762161e-04 0.0 
0.0 0.0 -5.122137633346e-05 
-3.072034194903e-05 -3.506956867742e-05 0.0 
-3.506956867742e-05 1.557986335542e-04 0.0 
0.0 0.0 -2.814555096794e-05 
-1.579898709992e-05 2.384950188939e-07 0.0 
2.384950188939e-07 9.239980657952e-05 0.0 
0.0 0.0 -1.548055260559e-05 
-1.719981887166e-04 -3.054801319503e-05 0.0 
-3.054801319503e-05 1.160032239923e-03 0.0 
0.0 0.0 -1.726497055680e-04 
-1.730057153277e-04 2.894349992059e-05 0.0 
2.894349992059e-05 1.155971227885e-03 0.0 
0.0 0.0 -1.735259579760e-04 
-1.534650184937e-05 9.500651036844e-07 0.0 
9.500651036844e-07 8.883806811954e-05 0.0 
0.0 0.0 -1.543927480913e-05 
-1.729354271187e-04 -2.918916139558e-05 0.0 
-2.918916139558e-05 1.170988397774e-03 0.0 
0.0 0.0 -1.740447999656e-04 
-1.236089081148e-04 3.200079916068e-05 0.0 
3.200079916068e-05 8.273931967603e-04 0.0 
0.0 0.0 -1.265519798902e-04 
-1.594739007149e-04 -3.000529878065e-05 0.0 
-3.000529878065e-05 1.075639781327e-03 0.0 
0.0 0.0 -1.601216174199e-04 
-1.636627678593e-04 2.889886741851e-05 0.0 
2.889886741851e-05 1.086851557310e-03 0.0 
0.0 0.0 -1.635645035532e-04 
-7.625528765098e-05 2.781792169367e-05 0.0 
2.781792169367e-05 4.777485640918e-04 0.0 
0.0 0.0 -7.635943377870e-05 
-1.632628531148e-04 -2.978415075944e-05 0.0 
-2.978415075944e-05 1.096266397172e-03 0.0 
0.0 0.0 -1.631933750172e-04 
-1.207910536096e-04 -4.061404171323e-05 0.0 
-4.061404171323e-05 8.019844783726e-04 0.0 
0.0 0.0 -1.215026445147e-04 
-1.504315644849e-04 -2.965320847345e-05 0.0 
-2.965320847345e-05 1.005966507733e-03 0.0 
0.0 0.0 -1.500583224091e-04 
-1.846754410923e-04 3.352091310646e-05 0.0 
3.352091310646e-05 1.245792346023e-03 0.0 
0.0 0.0 -1.864447358774e-04 
-5.279032525833e-05 2.208619701697e-05 0.0 
2.208619701697e-05 3.133772429488e-04 0.0 
0.0 0.0 -5.313656330857e-05 
-1.831953493923e-04 -2.511536867923e-05 0.0 
-2.511536867923e-05 1.231406037521e-03 0.0 
0.0 0.0 -1.822568313532e-04 
-1.571776203955e-04 -2.822373229928e-05 0.0 
-2.822373229928e-05 1.054015413805e-03 0.0 
0.0 0.0 -1.572433088830e-04 
-5.834406746481e-05 3.055754480025e-05 0.0 
3.055754480025e-05 3.570231696704e-04 0.0 
0.0 0.0 -5.895916886618e-05 
-6.008933693805e-05 -2.693292101219e-05 0.0 
-2.693292101219e-05 3.827519316289e-04 0.0 
0.0 0.0 -6.052350288525e-05 
-1.184340009129e-04 2.989577006112e-05 0.0 
2.989577006112e-05 7.732438321287e-04 0.0 
0.0 0.0 -1.186440953039e-04 
-1.421755537841e-04 3.042033410873e-05 0.0 
3.042033410873e-05 9.320324598368e-04 0.0 
0.0 0.0 -1.411471141782e-04 
-8.083756678408e-05 2.897464216654e-05 0.0 
2.897464216654e-05 5.134881601291e-04 0.0 
0.0 0.0 -8.144657762318e-05 
-1.627359267385e-04 -3.016848544890e-05 0.0 
-3.016848544890e-05 1.091242501789e-03 0.0 
0.0 0.0 -1.627679727590e-04 
-1.463730196707e-04 -3.358422439378e-05 0.0 
-3.358422439378e-05 9.789488013624e-04 0.0 
0.0 0.0 -1.472519143444e-04 
-1.152261228612e-04 2.820263711739e-05 0.0 
2.820263711739e-05 7.517075314357e-04 0.0 
0.0 0.0 -1.155139551463e-04 
-1.539721025279e-04 -2.767350944115e-05 0.0 
-2.767350944115e-05 1.026348259349e-03 0.0 
0.0 0.0 -1.532636563680e-04 
-1.586940631686e-04 -2.997071389939e-05 0.0 
-2.997071389939e-05 1.067020467702e-03 0.0 
0.0 0.0 -1.588045401937e-04 
-1.586913358411e-04 3.263624713145e-05 0.0 
3.263624713145e-05 1.044672031080e-03 0.0 
0.0 0.0 -1.576021588438e-04 
-4.550621427776e-05 -2.757364409112e-05 0.0 
-2.757364409112e-05 2.786110438531e-04 0.0 
0.0 0.0 -4.588123838153e-05 
-1.095812830794e-04 2.804439789498e-05 0.0 
2.804439789498e-05 7.132223363853e-04 0.0 
0.0 0.0 -1.099287363951e-04 
-1.704275424327e-04 3.124314915643e-05 0.0 
3.124314915643e-05 1.141631777300e-03 0.0 
0.0 0.0 -1.711692687607e-04 
-1.617652388930e-04 -2.976223953276e-05 0.0 
-2.976223953276e-05 1.085248624266e-03 0.0 
0.0 0.0 -1.617298285672e-04 
-9.932779323652e-05 3.247070041484e-05 0.0 
3.247070041484e-05 6.407303244551e-04 0.0 
0.0 0.0 -1.000025319772e-04 
-1.372362599773e-04 -2.929140934786e-05 0.0 
-2.929140934786e-05 9.170515288159e-04 0.0 
0.0 0.0 -1.372955424611e-04 
-1.781532306591e-04 -3.038825115168e-05 0.0 
-3.038825115168e-05 1.202531523701e-03 0.0 
0.0 0.0 -1.781379491294e-04 
-1.507990336472e-04 2.853112124702e-05 0.0 
2.853112124702e-05 1.007077831849e-03 0.0 
0.0 0.0 -1.520953659658e-04 
-2.863924773083e-05 -3.201515123380e-05 0.0 
-3.201515123380e-05 1.478580457183e-04 0.0 
0.0 0.0 -2.710093308172e-05 
-2.955220796048e-05 -3.089794713249e-05 0.0 
-3.089794713249e-05 1.503888673604e-04 0.0 
0.0 0.0 -2.753304043464e-05 
-5.273989345688e-05 -2.717936029267e-05 0.0 
-2.717936029267e-05 3.233117972350e-04 0.0 
0.0 0.0 -5.201063495363e-05 
-1.693284171481e-04 3.002349955065e-05 0.0 
3.002349955065e-05 1.126502264070e-03 0.0 
0.0 0.0 -1.691756543757e-04 
-1.472485094623e-04 2.900717882423e-05 0.0 
2.900717882423e-05 9.697797839987e-04 0.0 
0.0 0.0 -1.466250473148e-04 
-1.255735830660e-04 -3.222245594843e-05 0.0 
-3.222245594843e-05 8.565507458900e-04 0.0 
0.0 0.0 -1.276957716749e-04 
-1.309605655324e-04 2.844392373699e-05 0.0 
2.844392373699e-05 8.631762486065e-04 0.0 
0.0 0.0 -1.311842221922e-04 
-1.705994579248e-04 -2.912195010466e-05 0.0 
-2.912195010466e-05 1.150350461823e-03 0.0 
0.0 0.0 -1.708795005752e-04 
-1.197229653638e-04 2.838848019244e-05 0.0 
2.838848019244e-05 7.818358523863e-04 0.0 
0.0 0.0 -1.198307167265e-04 
-1.587419479579e-04 2.931310418594e-05 0.0 
2.931310418594e-05 1.056312831607e-03 0.0 
0.0 0.0 -1.592449238259e-04 
-5.334541196780e-05 -2.737759313696e-05 0.0 
-2.737759313696e-05 3.380073693947e-04 0.0 
0.0 0.0 -5.422683465997e-05 
-1.820085836177e-04 3.596926237720e-05 0.0 
3.596926237720e-05 1.220521251632e-03 0.0 
0.0 0.0 -1.817296696507e-04 
-1.149006963939e-04 -2.979806393901e-05 0.0 
-2.979806393901e-05 7.621150101384e-04 0.0 
0.0 0.0 -1.150969102169e-04 
-5.891651114318e-05 -2.911512363173e-05 0.0 
-2.911512363173e-05 3.703729731158e-04 0.0 
0.0 0.0 -5.833749487792e-05 
-1.097144826368e-04 -3.210843000057e-05 0.0 
-3.210843000057e-05 7.218042111898e-04 0.0 
0.0 0.0 -1.096669806773e-04 
-8.504854609334e-05 2.789969650457e-05 0.0 
2.789969650457e-05 5.434275787344e-04 0.0 
0.0 0.0 -8.575010502696e-05 
-6.662869610533e-05 -2.920394233023e-05 0.0 
-2.920394233023e-05 4.253303798385e-04 0.0 
0.0 0.0 -6.679150530213e-05 
-1.281203035701e-04 2.817302591064e-05 0.0 
2.817302591064e-05 8.398276961004e-04 0.0 
0.0 0.0 -1.284742647491e-04 
0.0 0.0 0.0 
0.0 0.0 0.0 
0.0 0.0 0.0 
0.0 0.0 0.0 
0.0 0.0 0.0 
0.0 0.0 0.0 
-1.445088964832e-04 -2.893688476098e-05 0.0 
-2.893688476098e-05 9.674073108634e-04 0.0 
0.0 0.0 -1.445400849015e-04 
-4.892423638284e-05 -2.632452238192e-05 0.0 
-2.632452238192e-05 3.096365629157e-04 0.0 
0.0 0.0 -5.004674077938e-05 
-1.457493822096e-04 -2.962474104526e-05 0.0 
-2.962474104526e-05 9.767716228798e-04 0.0 
0.0 0.0 -1.458658349781e-04 
-1.415183033580e-04 -2.921664079038e-05 0.0 
-2.921664079038e-05 9.471227879207e-04 0.0 
0.0 0.0 -1.415771022166e-04 
-9.224355795817e-05 2.937565561905e-05 0.0 
2.937565561905e-05 5.919004124542e-04 0.0 
0.0 0.0 -9.266636470267e-05 
-6.202111907479e-05 2.972814442546e-05 0.0 
2.972814442546e-05 3.814986374049e-04 0.0 
0.0 0.0 -6.243334508123e-05 
-1.705073254263e-04 -3.058386286971e-05 0.0 
-3.058386286971e-05 1.147565254188e-03 0.0 
0.0 0.0 -1.706579733040e-04 
-3.233825504350e-05 -1.324403429526e-05 0.0 
-1.324403429526e-05 1.436007537479e-04 0.0 
0.0 0.0 -3.071301381923e-05 
-9.032577727252e-05 2.603440625466e-05 0.0 
2.603440625466e-05 5.755517471348e-04 0.0 
0.0 0.0 -9.007223908940e-05 
-1.758201471036e-04 -2.496828995894e-05 0.0 
-2.496828995894e-05 1.183557369344e-03 0.0 
0.0 0.0 -1.763300484694e-04 
-4.234236352950e-05 2.833023666619e-05 0.0 
2.833023666619e-05 2.526301394403e-04 0.0 
0.0 0.0 -4.466356309917e-05 
-1.370406890181e-04 -2.882178052615e-05 0.0 
-2.882178052615e-05 9.084977336144e-04 0.0 
0.0 0.0 -1.363328868096e-04 
-1.251017907088e-04 -3.342170659080e-05 0.0 
-3.342170659080e-05 8.360831923250e-04 0.0 
0.0 0.0 -1.262442940543e-04 
-4.243995648314e-05 -2.885964126201e-05 0.0 
-2.885964126201e-05 2.574366796815e-04 0.0 
0.0 0.0 -4.263591946142e-05 
-1.739889600423e-04 -2.690839563986e-05 0.0 
-2.690839563986e-05 1.171323703451e-03 0.0 
0.0 0.0 -1.738083055154e-04 
-1.553384911707e-04 -2.978982874275e-05 0.0 
-2.978982874275e-05 1.040098894659e-03 0.0 
0.0 0.0 -1.552347842588e-04 
-5.039241409165e-05 2.679614467153e-05 0.0 
2.679614467153e-05 2.983848210045e-04 0.0 
0.0 0.0 -5.046983505462e-05 
-1.747728255798e-04 -2.774380167709e-05 0.0 
-2.774380167709e-05 1.177437247902e-03 0.0 
0.0 0.0 -1.749780669508e-04 
-1.757727651253e-04 2.551606084145e-05 0.0 
2.551606084145e-05 1.168074540028e-03 0.0 
0.0 0.0 -1.753502448874e-04 
-5.505726652839e-05 -3.093038002705e-05 0.0 
-3.093038002705e-05 3.465532391474e-04 0.0 
0.0 0.0 -5.552857102027e-05 
-7.317029843834e-05 -3.194987778490e-05 0.0 
-3.194987778490e-05 4.614269377597e-04 0.0 
0.0 0.0 -7.202002872087e-05 
-5.677279645057e-05 -2.927873741732e-05 0.0 
-2.927873741732e-05 3.560995133108e-04 0.0 
0.0 0.0 -5.686660089389e-05 
-1.535151853389e-04 -2.933036748660e-05 0.0 
-2.933036748660e-05 1.036192859014e-03 0.0 
0.0 0.0 -1.544885262514e-04 
-1.242530601195e-04 2.861329611066e-05 0.0 
2.861329611066e-05 8.120316343009e-04 0.0 
0.0 0.0 -1.241455235793e-04 
-1.762597939278e-04 2.757012001528e-05 0.0 
2.757012001528e-05 1.169740478878e-03 0.0 
0.0 0.0 -1.754294197466e-04 
-1.711850229745e-04 2.864038460658e-05 0.0 
2.864038460658e-05 1.139237277346e-03 0.0 
0.0 0.0 -1.710046063662e-04 
-1.497953027623e-04 -2.952090845357e-05 0.0 
-2.952090845357e-05 1.006551656477e-03 0.0 
0.0 0.0 -1.501751650533e-04 
-1.503962620125e-04 2.908649725408e-05 0.0 
2.908649725408e-05 9.959224082837e-04 0.0 
0.0 0.0 -1.506140208444e-04 
-4.755962799573e-05 2.961725835591e-05 0.0 
2.961725835591e-05 2.764290125414e-04 0.0 
0.0 0.0 -4.738039998630e-05 
-1.544053010064e-04 2.921080048960e-05 0.0 
2.921080048960e-05 1.025561320549e-03 0.0 
0.0 0.0 -1.549280912548e-04 
-1.557486119605e-04 2.953656624643e-05 0.0 
2.953656624643e-05 1.031918401575e-03 0.0 
0.0 0.0 -1.555717122721e-04 
-1.233043498576e-04 -2.852184502998e-05 0.0 
-2.852184502998e-05 8.222615261922e-04 0.0 
0.0 0.0 -1.237306916726e-04 
-1.467661945651e-04 -2.993950527874e-05 0.0 
-2.993950527874e-05 9.778837446955e-04 0.0 
0.0 0.0 -1.462911275235e-04 
-1.606564974618e-04 -3.021309399430e-05 0.0 
-3.021309399430e-05 1.078198516753e-03 0.0 
0.0 0.0 -1.607123627396e-04 
-1.117498861518e-04 2.850262572474e-05 0.0 
2.850262572474e-05 7.245894762642e-04 0.0 
0.0 0.0 -1.115305788895e-04 
-1.668451985095e-04 2.929977478704e-05 0.0 
2.929977478704e-05 1.108305524184e-03 0.0 
0.0 0.0 -1.665387401245e-04 
-1.057225299962e-04 3.155313044250e-05 0.0 
3.155313044250e-05 6.826770249726e-04 0.0 
0.0 0.0 -1.044775758143e-04 
-1.196746585436e-04 -2.994940432812e-05 0.0 
-2.994940432812e-05 7.923200024953e-04 0.0 
0.0 0.0 -1.194095964715e-04 
-8.002674295402e-05 3.358846946639e-05 0.0 
3.358846946639e-05 5.079680145232e-04 0.0 
0.0 0.0 -8.013437995356e-05 
-8.330364669841e-05 -2.724402051282e-05 0.0 
-2.724402051282e-05 5.442521817240e-04 0.0 
0.0 0.0 -8.372375584921e-05 
-1.515465133375e-04 2.950843049766e-05 0.0 
2.950843049766e-05 1.000906494757e-03 0.0 
0.0 0.0 -1.511009726023e-04 
-1.144286686682e-04 -2.867408820424e-05 0.0 
-2.867408820424e-05 7.585750249113e-04 0.0 
0.0 0.0 -1.145674989690e-04 
-6.084802831260e-05 -2.991902315111e-05 0.0 
-2.991902315111e-05 3.860715331104e-04 0.0 
0.0 0.0 -6.116241410045e-05 
-3.353257843682e-05 -2.498074177198e-05 0.0 
-2.498074177198e-05 1.896944408225e-04 0.0 
0.0 0.0 -3.278510925449e-05 
-1.508054349256e-04 -2.953924267332e-05 0.0 
-2.953924267332e-05 1.009022901988e-03 0.0 
0.0 0.0 -1.507672500721e-04 
-6.144560576959e-05 2.946678310881e-05 0.0 
2.946678310881e-05 3.752423857179e-04 0.0 
0.0 0.0 -6.160741095528e-05 
-1.795193782850e-04 3.015966066455e-05 0.0 
3.015966066455e-05 1.220916437867e-03 0.0 
0.0 0.0 -1.828075300492e-04 
-1.564210717973e-04 2.928181705796e-05 0.0 
2.928181705796e-05 1.038697099430e-03 0.0 
0.0 0.0 -1.565825172896e-04 
-1.601803915316e-04 2.879046078541e-05 0.0 
2.879046078541e-05 1.065098279090e-03 0.0 
0.0 0.0 -1.605560195386e-04 
-1.924510169718e-04 -3.681008615862e-06 0.0 
-3.681008615862e-06 1.266195614385e-03 0.0 
0.0 0.0 -1.927094427628e-04 
-9.917312679716e-05 -3.248065919378e-05 0.0 
-3.248065919378e-05 6.537270345769e-04 0.0 
0.0 0.0 -9.956065683389e-05 
-5.578848237072e-05 2.919143814272e-05 0.0 
2.919143814272e-05 3.356753976095e-04 0.0 
0.0 0.0 -5.597427817213e-05 
-3.764707681470e-05 3.152158318827e-05 0.0 
3.152158318827e-05 2.055269805242e-04 0.0 
0.0 0.0 -3.744316153082e-05 
-1.513908916278e-04 -2.965358922743e-05 0.0 
-2.965358922743e-05 1.015985434205e-03 0.0 
0.0 0.0 -1.514863114221e-04 
-1.425433722621e-04 3.012022841548e-05 0.0 
3.012022841548e-05 9.394937491690e-04 0.0 
0.0 0.0 -1.421023406183e-04 
-2.681800511095e-05 2.581926760662e-05 0.0 
2.581926760662e-05 1.385235032261e-04 0.0 
0.0 0.0 -2.788272662613e-05 
-7.959731755198e-05 -2.970357934053e-05 0.0 
-2.970357934053e-05 5.241419312225e-04 0.0 
0.0 0.0 -8.100711145360e-05 
-4.597324572621e-05 -2.624539862290e-05 0.0 
-2.624539862290e-05 3.001894932538e-04 0.0 
0.0 0.0 -4.869105516194e-05 
-1.408940546525e-04 -2.794056746742e-05 0.0 
-2.794056746742e-05 9.400214273018e-04 0.0 
0.0 0.0 -1.408175133641e-04 
-8.220239972126e-05 -3.150539897154e-05 0.0 
-3.150539897154e-05 5.540054204137e-04 0.0 
0.0 0.0 -8.531818138572e-05 
-1.420072539078e-04 2.886098902268e-05 0.0 
2.886098902268e-05 9.363360353424e-04 0.0 
0.0 0.0 -1.420190347897e-04 
-8.142682941929e-05 -3.127687653374e-05 0.0 
-3.127687653374e-05 5.123505803199e-04 0.0 
0.0 0.0 -8.006333120906e-05 
-1.676020446456e-04 -3.106665135098e-05 0.0 
-3.106665135098e-05 1.123875757488e-03 0.0 
0.0 0.0 -1.672214290798e-04 
-7.117572739314e-05 2.988293947474e-05 0.0 
2.988293947474e-05 4.447820599446e-04 0.0 
0.0 0.0 -7.152995986871e-05 
-1.528626195223e-04 -2.956851905674e-05 0.0 
-2.956851905674e-05 1.025224946446e-03 0.0 
0.0 0.0 -1.527886262531e-04 
-5.059375724921e-05 -2.868524116335e-05 0.0 
-2.868524116335e-05 3.156970290875e-04 0.0 
0.0 0.0 -5.064650353833e-05 
-1.471629417592e-04 -2.959313709753e-05 0.0 
-2.959313709753e-05 9.860061145689e-04 0.0 
0.0 0.0 -1.471833001180e-04 
-1.144539418112e-04 -2.473861065929e-05 0.0 
-2.473861065929e-05 7.560825404925e-04 0.0 
0.0 0.0 -1.140633649831e-04 
-1.560905633689e-04 2.900023350889e-05 0.0 
2.900023350889e-05 1.035339225371e-03 0.0 
0.0 0.0 -1.562332567718e-04 
-8.041016399686e-05 2.814724334195e-05 0.0 
2.814724334195e-05 5.070504478833e-04 0.0 
0.0 0.0 -8.025424390503e-05 
-4.885024697967e-05 3.157288993858e-05 0.0 
3.157288993858e-05 2.863708627365e-04 0.0 
0.0 0.0 -4.915965252508e-05 
-1.306396509784e-04 -2.896286188210e-05 0.0 
-2.896286188210e-05 8.760759259617e-04 0.0 
0.0 0.0 -1.318090263425e-04 
-1.421840376928e-04 -2.883026291404e-05 0.0 
-2.883026291404e-05 9.494244979280e-04 0.0 
0.0 0.0 -1.419644564515e-04 
-1.018318441446e-04 2.874180221663e-05 0.0 
2.874180221663e-05 6.553763140814e-04 0.0 
0.0 0.0 -1.016412246321e-04 
-1.420263861118e-04 -3.127951009604e-05 0.0 
-3.127951009604e-05 9.447561927313e-04 0.0 
0.0 0.0 -1.417981522837e-04 
-5.634120637729e-05 -2.901059335072e-05 0.0 
-2.901059335072e-05 3.528621573190e-04 0.0 
0.0 0.0 -5.638371198943e-05 
-1.449671090102e-04 2.903465807275e-05 0.0 
2.903465807275e-05 9.569114950414e-04 0.0 
0.0 0.0 -1.446420687869e-04 
-4.539864356175e-05 -2.892446416447e-05 0.0 
-2.892446416447e-05 2.698402511523e-04 0.0 
0.0 0.0 -4.421511183446e-05 
-1.729769140722e-04 -3.077324556460e-05 0.0 
-3.077324556460e-05 1.164178924141e-03 0.0 
0.0 0.0 -1.725604168134e-04 
-1.475790650913e-04 -2.860800824990e-05 0.0 
-2.860800824990e-05 9.878754875081e-04 0.0 
0.0 0.0 -1.475206686141e-04 
-1.559172333653e-04 -2.909982133967e-05 0.0 
-2.909982133967e-05 1.044176401684e-03 0.0 
0.0 0.0 -1.555576518016e-04 
-1.814415509393e-04 -3.096082582331e-05 0.0 
-3.096082582331e-05 1.219536896500e-03 0.0 
0.0 0.0 -1.806695418618e-04 
-1.243391768637e-04 -2.906810919430e-05 0.0 
-2.906810919430e-05 8.271957787415e-04 0.0 
0.0 0.0 -1.244215412621e-04 
-4.664731672080e-05 2.860386537301e-05 0.0 
2.860386537301e-05 2.677194554706e-04 0.0 
0.0 0.0 -4.622233884158e-05 
-1.385662832492e-04 -2.918174486768e-05 0.0 
-2.918174486768e-05 9.260656173097e-04 0.0 
0.0 0.0 -1.385923280275e-04 
-1.786563386237e-04 3.101548389749e-05 0.0 
3.101548389749e-05 1.192786428697e-03 0.0 
0.0 0.0 -1.784944650888e-04 
-7.162593897649e-05 -2.768839620490e-05 0.0 
-2.768839620490e-05 4.607586366936e-04 0.0 
0.0 0.0 -7.179147874927e-05 
-1.555062997913e-04 -2.993363634807e-05 0.0 
-2.993363634807e-05 1.045876444410e-03 0.0 
0.0 0.0 -1.558013491646e-04 
-1.563360137049e-04 -3.042238300922e-05 0.0 
-3.042238300922e-05 1.046916559821e-03 0.0 
0.0 0.0 -1.562447224125e-04 
-5.757013598642e-05 2.991181572022e-05 0.0 
2.991181572022e-05 3.517212459558e-04 0.0 
0.0 0.0 -5.821047451129e-05 
-1.428729262720e-04 -2.942561466243e-05 0.0 
-2.942561466243e-05 9.560791547854e-04 0.0 
0.0 0.0 -1.428864875989e-04 
-1.287965022508e-04 -2.896617927485e-05 0.0 
-2.896617927485e-05 8.622522049021e-04 0.0 
0.0 0.0 -1.299469088572e-04 
-6.374853467835e-05 -2.810218119480e-05 0.0 
-2.810218119480e-05 4.066202706617e-04 0.0 
0.0 0.0 -6.420979177598e-05 
-7.595105816060e-05 -2.936393149418e-05 0.0 
-2.936393149418e-05 4.942830544211e-04 0.0 
0.0 0.0 -7.670872189436e-05 
-1.201712666697e-04 -2.803941660002e-05 0.0 
-2.803941660002e-05 7.961944137223e-04 0.0 
0.0 0.0 -1.200650238334e-04 
-1.519360189963e-04 2.891732000513e-05 0.0 
2.891732000513e-05 1.005387589283e-03 0.0 
0.0 0.0 -1.519214610183e-04 
-9.356553445047e-05 -2.682931258762e-05 0.0 
-2.682931258762e-05 6.080636784229e-04 0.0 
0.0 0.0 -9.302852286394e-05 
-1.148225546297e-04 -2.766542218562e-05 0.0 
-2.766542218562e-05 7.592972424786e-04 0.0 
0.0 0.0 -1.147482613702e-04 
-1.503198881368e-04 2.949228603565e-05 0.0 
2.949228603565e-05 9.943051761167e-04 0.0 
0.0 0.0 -1.501005480629e-04 
-1.374005660342e-04 3.157606201505e-05 0.0 
3.157606201505e-05 9.005540063851e-04 0.0 
0.0 0.0 -1.366500051239e-04 
-1.347749466574e-04 2.885807283713e-05 0.0 
2.885807283713e-05 8.878066807984e-04 0.0 
0.0 0.0 -1.347600488312e-04 
-1.145362197550e-04 2.550352213040e-05 0.0 
2.550352213040e-05 7.456789542705e-04 0.0 
0.0 0.0 -1.144140342440e-04 
-1.695537970541e-04 -2.847502421030e-05 0.0 
-2.847502421030e-05 1.141434530816e-03 0.0 
0.0 0.0 -1.695946584253e-04 
-1.342454359541e-04 -2.916302751234e-05 0.0 
-2.916302751234e-05 8.959753783056e-04 0.0 
0.0 0.0 -1.342994322642e-04 
-1.322842234433e-04 -2.713149803653e-05 0.0 
-2.713149803653e-05 8.716283599231e-04 0.0 
0.0 0.0 -1.308078780678e-04 
-1.770483125758e-04 -3.816029544209e-05 0.0 
-3.816029544209e-05 1.206702644282e-03 0.0 
0.0 0.0 -1.790376217081e-04 
-1.611476114444e-04 -3.043480837471e-05 0.0 
-3.043480837471e-05 1.081441463167e-03 0.0 
0.0 0.0 -1.610150566254e-04 
-1.476770815163e-04 2.899987339716e-05 0.0 
2.899987339716e-05 9.753794939162e-04 0.0 
0.0 0.0 -1.476201541636e-04 
-1.611330782201e-04 2.905567155013e-05 0.0 
2.905567155013e-05 1.069983027336e-03 0.0 
0.0 0.0 -1.610516503497e-04 
-8.740593351110e-05 -2.912313751195e-05 0.0 
-2.912313751195e-05 5.726625862703e-04 0.0 
0.0 0.0 -8.793939796372e-05 
-8.171492670432e-05 -2.932902119484e-05 0.0 
-2.932902119484e-05 5.334328304052e-04 0.0 
0.0 0.0 -8.232547559154e-05 
-4.800447364230e-05 -3.012015532788e-05 0.0 
-3.012015532788e-05 2.869100395093e-04 0.0 
0.0 0.0 -4.696026287600e-05 
-1.441554214945e-04 -2.906909676708e-05 0.0 
-2.906909676708e-05 9.649388349351e-04 0.0 
0.0 0.0 -1.441889713514e-04 
-8.596373130116e-05 -2.989926546104e-05 0.0 
-2.989926546104e-05 5.634483412629e-04 0.0 
0.0 0.0 -8.662504503560e-05 
-1.451435112077e-04 -2.967645824646e-05 0.0 
-2.967645824646e-05 9.706064754812e-04 0.0 
0.0 0.0 -1.452980301833e-04 
-1.396166376490e-04 -3.014351176356e-05 0.0 
-3.014351176356e-05 9.327092269117e-04 0.0 
0.0 0.0 -1.398369520768e-04 
-1.154194635136e-04 -2.909513876125e-05 0.0 
-2.909513876125e-05 7.637657077962e-04 0.0 
0.0 0.0 -1.153554527486e-04 
-7.239252784308e-05 2.950013499781e-05 0.0 
2.950013499781e-05 4.534037638191e-04 0.0 
0.0 0.0 -7.290299529228e-05 
-7.749228313482e-05 2.843063642712e-05 0.0 
2.843063642712e-05 4.849158394470e-04 0.0 
0.0 0.0 -7.722881688633e-05 
-7.663260260600e-05 2.940565300322e-05 0.0 
2.940565300322e-05 4.835296870814e-04 0.0 
0.0 0.0 -7.715173463647e-05 
-8.222724475914e-05 2.943935483783e-05 0.0 
2.943935483783e-05 5.226854242882e-04 0.0 
0.0 0.0 -8.276944949314e-05 
-5.179916544049e-05 2.954513306229e-05 0.0 
2.954513306229e-05 3.061348363473e-04 0.0 
0.0 0.0 -5.170396853346e-05 
-1.651578227306e-04 -2.992587384468e-05 0.0 
-2.992587384468e-05 1.111733425696e-03 0.0 
0.0 0.0 -1.652773843454e-04 
-9.948855107052e-05 2.885367954846e-05 0.0 
2.885367954846e-05 6.405116978971e-04 0.0 
0.0 0.0 -9.964436741213e-05 
-1.662477458002e-04 -3.047676524263e-05 0.0 
-3.047676524263e-05 1.116582984939e-03 0.0 
0.0 0.0 -1.661983567841e-04 
-1.051663505476e-04 2.891924803496e-05 0.0 
2.891924803496e-05 6.798882607135e-04 0.0 
0.0 0.0 -1.051955911267e-04 
-1.389859752123e-04 2.935926346480e-05 0.0 
2.935926346480e-05 9.155140148814e-04 0.0 
0.0 0.0 -1.390270654409e-04 
-1.191970428493e-04 2.933621105808e-05 0.0 
2.933621105808e-05 7.778286910325e-04 0.0 
0.0 0.0 -1.192747742027e-04 
-1.135913502195e-04 -2.809027510556e-05 0.0 
-2.809027510556e-05 7.506742469309e-04 0.0 
0.0 0.0 -1.135115339107e-04 
-5.106044890974e-05 -2.876916180737e-05 0.0 
-2.876916180737e-05 3.172111510085e-04 0.0 
0.0 0.0 -5.125664266653e-05 
-1.752549930891e-04 2.732480278546e-05 0.0 
2.732480278546e-05 1.160084193771e-03 0.0 
0.0 0.0 -1.742537888328e-04 
-1.812425183446e-04 -3.207933204969e-05 0.0 
-3.207933204969e-05 1.217777268391e-03 0.0 
0.0 0.0 -1.798074479024e-04 
-1.447184212035e-04 2.760935291747e-05 0.0 
2.760935291747e-05 9.561038377489e-04 0.0 
0.0 0.0 -1.447555322295e-04 
-8.799170026550e-05 2.995591967052e-05 0.0 
2.995591967052e-05 5.618551981543e-04 0.0 
0.0 0.0 -8.838578500301e-05 
-1.291031073422e-04 2.928905617391e-05 0.0 
2.928905617391e-05 8.466471064723e-04 0.0 
0.0 0.0 -1.291430278065e-04 
-1.459743152275e-04 3.063361272201e-05 0.0 
3.063361272201e-05 9.624952180302e-04 0.0 
0.0 0.0 -1.456278041792e-04 
-9.171757827104e-05 -2.955677248983e-05 0.0 
-2.955677248983e-05 6.024985060915e-04 0.0 
0.0 0.0 -9.223187090242e-05 
-9.603230277326e-05 -2.698956011667e-05 0.0 
-2.698956011667e-05 6.292701278524e-04 0.0 
0.0 0.0 -9.591352384746e-05 
-7.135185944171e-05 -2.955414223554e-05 0.0 
-2.955414223554e-05 4.555824851191e-04 0.0 
0.0 0.0 -7.108646760088e-05 
-6.173474433371e-05 -2.821557394065e-05 0.0 
-2.821557394065e-05 3.922513376835e-04 0.0 
0.0 0.0 -6.198456146935e-05 
-9.316424430426e-05 -2.882780269440e-05 0.0 
-2.882780269440e-05 6.119471839096e-04 0.0 
0.0 0.0 -9.355109297069e-05 
-6.583505479960e-05 2.848905537375e-05 0.0 
2.848905537375e-05 4.054485477537e-04 0.0 
0.0 0.0 -6.590301617946e-05 
-5.935575914896e-05 -3.007558356553e-05 0.0 
-3.007558356553e-05 3.768942854085e-04 0.0 
0.0 0.0 -5.983332410254e-05 
-1.186940583282e-04 -2.896555378225e-05 0.0 
-2.896555378225e-05 7.883535485114e-04 0.0 
0.0 0.0 -1.188421469351e-04 
-1.433278607698e-04 2.930912982368e-05 0.0 
2.930912982368e-05 9.454702771552e-04 0.0 
0.0 0.0 -1.433226991522e-04 
-1.697903046334e-04 2.624054691426e-05 0.0 
2.624054691426e-05 1.127471310275e-03 0.0 
0.0 0.0 -1.692916167909e-04 
-1.151638097456e-05 7.698944133971e-06 0.0 
7.698944133971e-06 4.425408472007e-05 0.0 
0.0 0.0 -7.213325994108e-06 
-1.023191081859e-04 2.827729942445e-05 0.0 
2.827729942445e-05 6.591938883861e-04 0.0 
0.0 0.0 -1.022830222654e-04 
-1.009919753862e-04 2.844629819877e-05 0.0 
2.844629819877e-05 6.501505763727e-04 0.0 
0.0 0.0 -1.009864671718e-04 
-9.380039017869e-05 2.950262979894e-05 0.0 
2.950262979894e-05 6.011532312502e-04 0.0 
0.0 0.0 -9.402143779290e-05 
-1.401352914634e-04 2.989136649985e-05 0.0 
2.989136649985e-05 9.247108301771e-04 0.0 
0.0 0.0 -1.401624631175e-04 
-1.092974960508e-04 2.941276833440e-05 0.0 
2.941276833440e-05 7.090642486070e-04 0.0 
0.0 0.0 -1.094316366672e-04 
-7.543451708232e-05 3.049036373989e-05 0.0 
3.049036373989e-05 4.754198894243e-04 0.0 
0.0 0.0 -7.582576345695e-05 
-9.891173193058e-05 -2.816068551534e-05 0.0 
-2.816068551534e-05 6.514539666403e-04 0.0 
0.0 0.0 -9.917482013514e-05 
-1.630278650561e-04 2.958590404027e-05 0.0 
2.958590404027e-05 1.077076320853e-03 0.0 
0.0 0.0 -1.620679414655e-04 
-7.702359286568e-05 -2.963111287796e-05 0.0 
-2.963111287796e-05 4.862675717220e-04 0.0 
0.0 0.0 -7.538495559814e-05 
-3.103148260616e-05 2.671216949097e-05 0.0 
2.671216949097e-05 1.654737900210e-04 0.0 
0.0 0.0 -3.198827131509e-05 
-4.232169889993e-05 2.776421737267e-05 0.0 
2.776421737267e-05 2.393069009664e-04 0.0 
0.0 0.0 -4.176863060321e-05 
-6.634744212772e-05 2.949925572575e-05 0.0 
2.949925572575e-05 4.106962890164e-04 0.0 
0.0 0.0 -6.666360735527e-05 
-7.816150117384e-05 2.918629348564e-05 0.0 
2.918629348564e-05 4.928270898341e-04 0.0 
0.0 0.0 -7.858957244827e-05 
-1.065476951188e-04 2.906412835157e-05 0.0 
2.906412835157e-05 6.891124057052e-04 0.0 
0.0 0.0 -1.064874080537e-04 
-1.046128651473e-04 -2.789283442515e-05 0.0 
-2.789283442515e-05 6.906263249349e-04 0.0 
0.0 0.0 -1.047611508630e-04 
-4.666634849019e-05 -3.250127183419e-05 0.0 
-3.250127183419e-05 2.826590938430e-04 0.0 
0.0 0.0 -4.639139346366e-05 
-4.422650169735e-05 -3.160442122719e-05 0.0 
-3.160442122719e-05 2.477476152980e-04 0.0 
0.0 0.0 -4.147803243573e-05 
-1.354421094691e-04 -3.477058406277e-05 0.0 
-3.477058406277e-05 8.849155839961e-04 0.0 
0.0 0.0 -1.332761831430e-04 
-6.529992034190e-05 -3.112094005781e-05 0.0 
-3.112094005781e-05 4.161966199991e-04 0.0 
0.0 0.0 -6.545963842888e-05 
-1.599173792757e-04 2.884984773938e-05 0.0 
2.884984773938e-05 1.062308732050e-03 0.0 
0.0 0.0 -1.601101668940e-04 
-1.640145792258e-04 2.789294437519e-05 0.0 
2.789294437519e-05 1.089847340667e-03 0.0 
0.0 0.0 -1.640071129216e-04 
-1.358364218526e-04 -2.864773194701e-05 0.0 
-2.864773194701e-05 9.015663085663e-04 0.0 
0.0 0.0 -1.352075507658e-04 
-1.691090522456e-04 2.845331053896e-05 0.0 
2.845331053896e-05 1.125515006597e-03 0.0 
0.0 0.0 -1.689126476464e-04 
-1.733194685301e-04 2.616049938131e-05 0.0 
2.616049938131e-05 1.162751062090e-03 0.0 
0.0 0.0 -1.746466296582e-04 
-1.113103175969e-04 -2.904492495481e-05 0.0 
-2.904492495481e-05 7.344679781971e-04 0.0 
0.0 0.0 -1.111327575513e-04 
-1.543419338426e-04 2.788856242459e-05 0.0 
2.788856242459e-05 1.022661884889e-03 0.0 
0.0 0.0 -1.543563508806e-04 
-5.167148472389e-05 -2.833543670219e-05 0.0 
-2.833543670219e-05 3.235982211277e-04 0.0 
0.0 0.0 -5.212100276158e-05 
-1.031213424207e-04 -2.889239140152e-05 0.0 
-2.889239140152e-05 6.806580574394e-04 0.0 
0.0 0.0 -1.034186014727e-04 
-1.034709279330e-04 2.786266615920e-05 0.0 
2.786266615920e-05 6.660582760632e-04 0.0 
0.0 0.0 -1.031952205665e-04 
-6.028919658758e-05 2.668092513971e-05 0.0 
2.668092513971e-05 3.649654199911e-04 0.0 
0.0 0.0 -5.961607156176e-05 
-4.213494566204e-05 -2.931849266110e-05 0.0 
-2.931849266110e-05 2.567319807664e-04 0.0 
0.0 0.0 -4.220635737303e-05 
-8.654776667845e-05 2.918952194239e-05 0.0 
2.918952194239e-05 5.528325958387e-04 0.0 
0.0 0.0 -8.706093026186e-05 
-1.004769780148e-04 -2.772227019028e-05 0.0 
-2.772227019028e-05 6.610823099679e-04 0.0 
0.0 0.0 -1.005514351764e-04 
-1.060430099672e-04 -2.796832696173e-05 0.0 
-2.796832696173e-05 6.996637265558e-04 0.0 
0.0 0.0 -1.060597130133e-04 
-7.058429708504e-05 2.696376381882e-05 0.0 
2.696376381882e-05 4.358412197202e-04 0.0 
0.0 0.0 -7.020228199149e-05 
-1.149702114763e-04 2.916861666016e-05 0.0 
2.916861666016e-05 7.482016199016e-04 0.0 
0.0 0.0 -1.149926572041e-04 
-1.018961975089e-04 -2.764432959957e-05 0.0 
-2.764432959957e-05 6.700658488310e-04 0.0 
0.0 0.0 -1.018518768314e-04 
-1.078880338181e-04 2.829261719461e-05 0.0 
2.829261719461e-05 6.977513239732e-04 0.0 
0.0 0.0 -1.077528216683e-04 
-7.751274952550e-05 -2.834816828620e-05 0.0 
-2.834816828620e-05 5.042136075216e-04 0.0 
0.0 0.0 -7.808165313150e-05 
-1.487528116968e-04 -2.959551626362e-05 0.0 
-2.959551626362e-05 9.968448808877e-04 0.0 
0.0 0.0 -1.488167264463e-04 
-1.501088830239e-04 -3.002822277470e-05 0.0 
-3.002822277470e-05 1.002368649967e-03 0.0 
0.0 0.0 -1.497700977071e-04 
-1.036611104552e-04 2.803937657742e-05 0.0 
2.803937657742e-05 6.681495958179e-04 0.0 
0.0 0.0 -1.035656927818e-04 
-1.696613133079e-04 2.895531178363e-05 0.0 
2.895531178363e-05 1.131067865055e-03 0.0 
0.0 0.0 -1.700243568296e-04 
-5.727268235776e-05 -2.821956991103e-05 0.0 
-2.821956991103e-05 3.625919856272e-04 0.0 
0.0 0.0 -5.774536142498e-05 
-1.807378797875e-04 3.083863400090e-05 0.0 
3.083863400090e-05 1.216171179677e-03 0.0 
0.0 0.0 -1.812757540428e-04 
-1.107278423169e-04 2.926924818457e-05 0.0 
2.926924818457e-05 7.182977638167e-04 0.0 
0.0 0.0 -1.107203250571e-04 
-1.769840871489e-04 3.489293866335e-05 0.0 
3.489293866335e-05 1.208578847919e-03 0.0 
0.0 0.0 -1.805188677947e-04 
-1.376232392385e-04 -2.850354822354e-05 0.0 
-2.850354822354e-05 9.154990550666e-04 0.0 
0.0 0.0 -1.371610485043e-04 
-5.639757509564e-05 2.971463148157e-05 0.0 
2.971463148157e-05 3.421275802933e-04 0.0 
0.0 0.0 -5.682853890605e-05 
-1.399417025807e-04 -2.902435300106e-05 0.0 
-2.902435300106e-05 9.305736500539e-04 0.0 
0.0 0.0 -1.393929574840e-04 
-1.722474544452e-04 2.867109208845e-05 0.0 
2.867109208845e-05 1.148502992599e-03 0.0 
0.0 0.0 -1.722554387731e-04 
-1.162793321609e-04 2.903309505420e-05 0.0 
2.903309505420e-05 7.572372561352e-04 0.0 
0.0 0.0 -1.162159973290e-04 
-8.454182586218e-05 -2.784090404248e-05 0.0 
-2.784090404248e-05 5.479081559787e-04 0.0 
0.0 0.0 -8.432093988479e-05 
-1.438863246759e-04 -2.930384340139e-05 0.0 
-2.930384340139e-05 9.596245582464e-04 0.0 
0.0 0.0 -1.435863591065e-04 
-1.111530589725e-04 2.833421624542e-05 0.0 
2.833421624542e-05 7.207793346527e-04 0.0 
0.0 0.0 -1.110366786716e-04 
-4.573862906079e-05 3.039490600873e-05 0.0 
3.039490600873e-05 2.711520722753e-04 0.0 
0.0 0.0 -4.684619297515e-05 
-1.870955320648e-04 3.081437672742e-05 0.0 
3.081437672742e-05 1.264311478356e-03 0.0 
0.0 0.0 -1.888615860838e-04 
-4.248482680505e-05 3.050161066116e-05 0.0 
3.050161066116e-05 2.352616891617e-04 0.0 
0.0 0.0 -4.121632266810e-05 
-1.771088727211e-04 -2.938926809476e-05 0.0 
-2.938926809476e-05 1.212909459550e-03 0.0 
0.0 0.0 -1.791639973893e-04 
-1.771566623871e-04 2.828554015672e-05 0.0 
2.828554015672e-05 1.177203819354e-03 0.0 
0.0 0.0 -1.763972732427e-04 
-1.529661344135e-04 -2.952014478129e-05 0.0 
-2.952014478129e-05 1.026629378024e-03 0.0 
0.0 0.0 -1.530775205951e-04 
-1.359594450574e-04 3.325053532527e-05 0.0 
3.325053532527e-05 8.922454278314e-04 0.0 
0.0 0.0 -1.356269418710e-04 
-1.644239763161e-04 -3.062030831265e-05 0.0 
-3.062030831265e-05 1.103176739090e-03 0.0 
0.0 0.0 -1.641343017522e-04 
-1.073732254289e-04 -2.774733318227e-05 0.0 
-2.774733318227e-05 7.082936325730e-04 0.0 
0.0 0.0 -1.073249441206e-04 
-1.251403265974e-04 -2.940532100017e-05 0.0 
-2.940532100017e-05 8.313761795825e-04 0.0 
0.0 0.0 -1.250629185325e-04 
-1.768873143391e-04 2.872670345058e-05 0.0 
2.872670345058e-05 1.193015524360e-03 0.0 
0.0 0.0 -1.787673453274e-04 
-1.533533607312e-04 2.921855117467e-05 0.0 
2.921855117467e-05 1.014614364332e-03 0.0 
0.0 0.0 -1.532196148344e-04 
-1.544705070620e-04 -2.993018470978e-05 0.0 
-2.993018470978e-05 1.033859279725e-03 0.0 
0.0 0.0 -1.542337544108e-04 
-1.470105554746e-04 3.050415116692e-05 0.0 
3.050415116692e-05 9.703822682050e-04 0.0 
0.0 0.0 -1.467116565689e-04 
-5.190467070806e-05 2.923657524478e-05 0.0 
2.923657524478e-05 3.125147726987e-04 0.0 
0.0 0.0 -5.258904166863e-05 
-1.585497388479e-04 -3.036107211364e-05 0.0 
-3.036107211364e-05 1.064785683487e-03 0.0 
0.0 0.0 -1.586792192556e-04 
-1.867823602022e-04 -4.423334107086e-07 0.0 
-4.423334107086e-07 1.306209639085e-03 0.0 
0.0 0.0 -1.902127661242e-04 
-1.799952498831e-04 3.276671323295e-05 0.0 
3.276671323295e-05 1.203252067028e-03 0.0 
0.0 0.0 -1.803293472919e-04 
-1.036283366723e-04 2.928971230122e-05 0.0 
2.928971230122e-05 6.701110471026e-04 0.0 
0.0 0.0 -1.038552253682e-04 
-1.348425674588e-04 -3.045731572340e-05 0.0 
-3.045731572340e-05 8.997616749557e-04 0.0 
0.0 0.0 -1.353016656203e-04 
-1.306027592527e-04 3.244558953540e-05 0.0 
3.244558953540e-05 8.557133569559e-04 0.0 
0.0 0.0 -1.301630146057e-04 
-1.102559799513e-04 -2.882778976320e-05 0.0 
-2.882778976320e-05 7.287644293276e-04 0.0 
0.0 0.0 -1.102912351658e-04 
-1.488807296024e-04 2.952972860655e-05 0.0 
2.952972860655e-05 9.845338823176e-04 0.0 
0.0 0.0 -1.489188890839e-04 
-1.543542798127e-04 2.941367575548e-05 0.0 
2.941367575548e-05 1.023344437634e-03 0.0 
0.0 0.0 -1.545169747944e-04 
-3.601998227787e-05 -3.147937655175e-05 0.0 
-3.147937655175e-05 2.167298522228e-04 0.0 
0.0 0.0 -3.699600978290e-05 
-6.801309851159e-05 2.873975774867e-05 0.0 
2.873975774867e-05 4.179957074076e-04 0.0 
0.0 0.0 -6.762408315678e-05 
-1.091497725492e-04 2.831094670187e-05 0.0 
2.831094670187e-05 7.067995318092e-04 0.0 
0.0 0.0 -1.090469065526e-04 
-1.032766425254e-04 -2.822190353465e-05 0.0 
-2.822190353465e-05 6.789187616226e-04 0.0 
0.0 0.0 -1.031335432607e-04 
-1.099107092343e-04 2.839546535684e-05 0.0 
2.839546535684e-05 7.120464211608e-04 0.0 
0.0 0.0 -1.098117726994e-04 
-1.811121707674e-04 -2.882441196002e-05 0.0 
-2.882441196002e-05 1.237667273714e-03 0.0 
0.0 0.0 -1.838140267123e-04 
-1.748866853698e-04 2.592400427167e-05 0.0 
2.592400427167e-05 1.162787881872e-03 0.0 
0.0 0.0 -1.744029230557e-04 
-1.761187774956e-04 -2.949711616705e-05 0.0 
-2.949711616705e-05 1.184397801600e-03 0.0 
0.0 0.0 -1.760448152485e-04 
-9.882657544989e-05 -2.718055687570e-05 0.0 
-2.718055687570e-05 6.452046498512e-04 0.0 
0.0 0.0 -9.834296651366e-05 
-1.624121206718e-04 2.836552699441e-05 0.0 
2.836552699441e-05 1.080211199209e-03 0.0 
0.0 0.0 -1.624070342850e-04 
-1.485275509050e-04 -2.918103576740e-05 0.0 
-2.918103576740e-05 9.950382173190e-04 0.0 
0.0 0.0 -1.484873542982e-04 
-1.805851059428e-04 3.002465538148e-05 0.0 
3.002465538148e-05 1.203046068310e-03 0.0 
0.0 0.0 -1.797622605636e-04 
-1.528376056470e-04 -3.044040189818e-05 0.0 
-3.044040189818e-05 1.026184810031e-03 0.0 
0.0 0.0 -1.532447004422e-04 
-1.087929439093e-04 -2.876357224537e-05 0.0 
-2.876357224537e-05 7.196828290104e-04 0.0 
0.0 0.0 -1.089952584493e-04 
-1.049428023921e-04 2.811224010391e-05 0.0 
2.811224010391e-05 6.773445023375e-04 0.0 
0.0 0.0 -1.048418778190e-04 
-1.594051931958e-04 2.879840167248e-05 0.0 
2.879840167248e-05 1.056615529052e-03 0.0 
0.0 0.0 -1.590166690394e-04 
-1.738854057278e-04 -3.150615969996e-05 0.0 
-3.150615969996e-05 1.172347359832e-03 0.0 
0.0 0.0 -1.740425842566e-04 
-1.602067260143e-04 2.962540646325e-05 0.0 
2.962540646325e-05 1.063407039079e-03 0.0 
0.0 0.0 -1.600263377024e-04 
-1.549984104106e-04 2.928819239640e-05 0.0 
2.928819239640e-05 1.025787824362e-03 0.0 
0.0 0.0 -1.545642443906e-04 
-1.691936656852e-04 3.051239000977e-05 0.0 
3.051239000977e-05 1.122993866756e-03 0.0 
0.0 0.0 -1.687134228720e-04 
-1.733516422302e-04 -2.975799224699e-05 0.0 
-2.975799224699e-05 1.180345126224e-03 0.0 
0.0 0.0 -1.751295320469e-04 
-1.641761333923e-04 2.964778985093e-05 0.0 
2.964778985093e-05 1.092162958901e-03 0.0 
0.0 0.0 -1.644209996092e-04 
-1.334029697755e-04 2.921704941968e-05 0.0 
2.921704941968e-05 8.764535109902e-04 0.0 
0.0 0.0 -1.334339325936e-04 
-9.629059373289e-05 2.489782199496e-05 0.0 
2.489782199496e-05 6.169410298163e-04 0.0 
0.0 0.0 -9.629846621400e-05 
-1.586938225999e-04 -2.873074405230e-05 0.0 
-2.873074405230e-05 1.064075480535e-03 0.0 
0.0 0.0 -1.585741496670e-04 
-1.515595690388e-04 2.887166217167e-05 0.0 
2.887166217167e-05 1.004996075128e-03 0.0 
0.0 0.0 -1.516193629955e-04 
-6.015828007311e-05 2.762481471313e-05 0.0 
2.762481471313e-05 3.663761052862e-04 0.0 
0.0 0.0 -6.027332919800e-05 
-1.086909470084e-04 -2.820919446967e-05 0.0 
-2.820919446967e-05 7.173514364266e-04 0.0 
0.0 0.0 -1.086183444390e-04 
-1.229754690729e-04 2.795896853918e-05 0.0 
2.795896853918e-05 8.030480005080e-04 0.0 
0.0 0.0 -1.229099206091e-04 
-1.348799327205e-04 -2.950552833220e-05 0.0 
-2.950552833220e-05 8.992538641476e-04 0.0 
0.0 0.0 -1.347984704188e-04 
-6.075364579538e-05 2.991920213964e-05 0.0 
2.991920213964e-05 3.704456528343e-04 0.0 
0.0 0.0 -6.085885447137e-05 
-1.045153483669e-04 -2.832422319633e-05 0.0 
-2.832422319633e-05 6.878595611022e-04 0.0 
0.0 0.0 -1.044304007945e-04 
-1.446479183094e-04 -2.971056222020e-05 0.0 
-2.971056222020e-05 9.673313026673e-04 0.0 
0.0 0.0 -1.445542801823e-04 
-1.100060346855e-04 2.737837681636e-05 0.0 
2.737837681636e-05 7.101421002689e-04 0.0 
0.0 0.0 -1.094113629060e-04 
-1.135560558010e-04 2.921951781404e-05 0.0 
2.921951781404e-05 7.388528165105e-04 0.0 
0.0 0.0 -1.136984934835e-04 
-1.423148992764e-04 -3.064755775960e-05 0.0 
-3.064755775960e-05 9.560334399626e-04 0.0 
0.0 0.0 -1.433495728088e-04 
-1.141564569451e-04 2.617777317916e-05 0.0 
2.617777317916e-05 7.567005103659e-04 0.0 
0.0 0.0 -1.145704449725e-04 
-2.757145428849e-05 3.124043686616e-05 0.0 
3.124043686616e-05 1.158691705071e-04 0.0 
0.0 0.0 -2.367971326705e-05 
-1.286436208275e-04 -2.914932669868e-05 0.0 
-2.914932669868e-05 8.571420336644e-04 0.0 
0.0 0.0 -1.287122655492e-04 
-1.576792209224e-04 2.858094066912e-05 0.0 
2.858094066912e-05 1.045870248437e-03 0.0 
0.0 0.0 -1.577753644542e-04 
-1.791334658592e-04 3.034271459186e-05 0.0 
3.034271459186e-05 1.201260178593e-03 0.0 
0.0 0.0 -1.795306929420e-04 
-1.201199461226e-04 2.829067472047e-05 0.0 
2.829067472047e-05 7.831094393938e-04 0.0 
0.0 0.0 -1.199963822083e-04 
-1.234760846803e-04 2.932006013550e-05 0.0 
2.932006013550e-05 8.076650151061e-04 0.0 
0.0 0.0 -1.235581517372e-04 
-1.448894787138e-04 -2.961840001921e-05 0.0 
-2.961840001921e-05 9.648117356658e-04 0.0 
0.0 0.0 -1.443143808439e-04 
-3.842228905377e-05 3.298025909580e-05 0.0 
3.298025909580e-05 1.877070748678e-04 0.0 
0.0 0.0 -3.370741825810e-05 
-1.534698621194e-04 2.830991160432e-05 0.0 
2.830991160432e-05 1.016299861510e-03 0.0 
0.0 0.0 -1.535042456599e-04 
-1.293327155133e-04 -2.926708160322e-05 0.0 
-2.926708160322e-05 8.610400331546e-04 0.0 
0.0 0.0 -1.292921254718e-04 
-1.147182049359e-04 -2.793616799804e-05 0.0 
-2.793616799804e-05 7.557812794768e-04 0.0 
0.0 0.0 -1.142359468334e-04 
-1.540623557645e-04 -2.883021402370e-05 0.0 
-2.883021402370e-05 1.033805831342e-03 0.0 
0.0 0.0 -1.540837914240e-04 
-5.903277897526e-05 -2.572226208233e-05 0.0 
-2.572226208233e-05 3.742033353159e-04 0.0 
0.0 0.0 -5.919629073606e-05 
-1.595117392718e-04 -2.911342610863e-05 0.0 
-2.911342610863e-05 1.072689065088e-03 0.0 
0.0 0.0 -1.596834805621e-04 
-1.756154530572e-04 2.998485745368e-05 0.0 
2.998485745368e-05 1.171075078384e-03 0.0 
0.0 0.0 -1.756318130281e-04 
-1.493681148336e-04 2.791229911131e-05 0.0 
2.791229911131e-05 9.866947003208e-04 0.0 
0.0 0.0 -1.492337925182e-04 
-1.600204318750e-04 -2.992073590521e-05 0.0 
-2.992073590521e-05 1.071726323190e-03 0.0 
0.0 0.0 -1.596862481900e-04 
-1.621340043399e-04 -3.014172433171e-05 0.0 
-3.014172433171e-05 1.091751763439e-03 0.0 
0.0 0.0 -1.624029330596e-04 
-1.746509001542e-04 -3.044303714749e-05 0.0 
-3.044303714749e-05 1.180873641495e-03 0.0 
0.0 0.0 -1.752053866267e-04 
-4.948712705896e-05 3.475475083029e-05 0.0 
3.475475083029e-05 2.597308075809e-04 0.0 
0.0 0.0 -4.376112143753e-05 
-1.485603472495e-04 -2.938683707073e-05 0.0 
-2.938683707073e-05 9.955677447018e-04 0.0 
0.0 0.0 -1.487877812405e-04 
-1.753095903577e-04 -2.864829451917e-05 0.0 
-2.864829451917e-05 1.185024325076e-03 0.0 
0.0 0.0 -1.760859927092e-04 
-1.649582730615e-04 2.923348981816e-05 0.0 
2.923348981816e-05 1.094893116976e-03 0.0 
0.0 0.0 -1.644733909230e-04 
-1.395633018813e-04 2.809652890280e-05 0.0 
2.809652890280e-05 9.186543678537e-04 0.0 
0.0 0.0 -1.394655130409e-04 
-1.099611654985e-04 -2.884597329549e-05 0.0 
-2.884597329549e-05 7.257598080870e-04 0.0 
0.0 0.0 -1.098787062330e-04 
-1.209104407542e-04 2.806295656769e-05 0.0 
2.806295656769e-05 7.902223779801e-04 0.0 
0.0 0.0 -1.210417811416e-04 
-3.627372368124e-05 3.163530406853e-05 0.0 
3.163530406853e-05 2.039563500799e-04 0.0 
0.0 0.0 -3.723255725578e-05 
-1.701409886376e-04 2.983058263759e-05 0.0 
2.983058263759e-05 1.132501183017e-03 0.0 
0.0 0.0 -1.699366983435e-04 
-6.411787123099e-05 2.946502422422e-05 0.0 
2.946502422422e-05 3.968096580559e-04 0.0 
0.0 0.0 -6.464531002275e-05 
-5.822127891541e-05 2.749733519323e-05 0.0 
2.749733519323e-05 3.240066522493e-04 0.0 
0.0 0.0 -5.373429374777e-05 
-1.578004283830e-04 -2.825196317906e-05 0.0 
-2.825196317906e-05 1.061236006077e-03 0.0 
0.0 0.0 -1.581724742171e-04 
-1.810622318850e-04 2.872864159815e-05 0.0 
2.872864159815e-05 1.210843086462e-03 0.0 
0.0 0.0 -1.810174791607e-04 
-5.321706588155e-05 -2.711802848501e-05 0.0 
-2.711802848501e-05 3.340376413156e-04 0.0 
0.0 0.0 -5.359773372147e-05 
-1.254962992742e-04 -2.828232383433e-05 0.0 
-2.828232383433e-05 8.331892923083e-04 0.0 
0.0 0.0 -1.253787237607e-04 
-1.535703452329e-04 2.911412195335e-05 0.0 
2.911412195335e-05 1.018186094186e-03 0.0 
0.0 0.0 -1.535721660833e-04 
-1.174362539490e-04 -2.931439951264e-05 0.0 
-2.931439951264e-05 7.791228558505e-04 0.0 
0.0 0.0 -1.176010908151e-04 
-6.016009984886e-05 -2.873248464068e-05 0.0 
-2.873248464068e-05 3.813492115723e-04 0.0 
0.0 0.0 -6.041048265268e-05 
-7.982616898902e-05 2.825432291389e-05 0.0 
2.825432291389e-05 5.000258330386e-04 0.0 
0.0 0.0 -7.939046230173e-05 
-3.959656613655e-05 2.469153921964e-05 0.0 
2.469153921964e-05 2.420385823143e-04 0.0 
0.0 0.0 -4.293244787628e-05 
-5.330489538924e-05 2.915892379323e-05 0.0 
2.915892379323e-05 3.232040539711e-04 0.0 
0.0 0.0 -5.412237138681e-05 
-4.874214390061e-05 2.903207581372e-05 0.0 
2.903207581372e-05 2.849835911649e-04 0.0 
0.0 0.0 -4.858390135199e-05 
-1.298006905679e-04 2.813403754230e-05 0.0 
2.813403754230e-05 8.507929242894e-04 0.0 
0.0 0.0 -1.297186540265e-04 
-1.946741073417e-04 7.177668550595e-07 0.0 
7.177668550595e-07 1.366433303394e-03 0.0 
0.0 0.0 -1.986219281740e-04 
-6.700715880952e-05 2.589861000239e-05 0.0 
2.589861000239e-05 3.925714316040e-04 0.0 
0.0 0.0 -6.366506350946e-05 
-1.734025229933e-04 2.872134779497e-05 0.0 
2.872134779497e-05 1.153015807625e-03 0.0 
0.0 0.0 -1.730133492871e-04 
-9.662877635408e-05 2.832769241253e-05 0.0 
2.832769241253e-05 6.190294534954e-04 0.0 
0.0 0.0 -9.645761187127e-05 
-1.474086229932e-04 -3.111113571506e-05 0.0 
-3.111113571506e-05 9.884847841183e-04 0.0 
0.0 0.0 -1.478461150791e-04 
-4.750635885556e-05 2.975238453019e-05 0.0 
2.975238453019e-05 2.739120908498e-04 0.0 
0.0 0.0 -4.694079591042e-05 
-1.816621119292e-04 -2.878308347844e-05 0.0 
-2.878308347844e-05 1.218135406772e-03 0.0 
0.0 0.0 -1.810139427525e-04 
-4.655502041116e-05 -2.610306417390e-05 0.0 
-2.610306417390e-05 2.951982444198e-04 0.0 
0.0 0.0 -4.804032238546e-05 
-7.357331614798e-05 2.958595086467e-05 0.0 
2.958595086467e-05 4.672675042292e-04 0.0 
0.0 0.0 -7.493958354298e-05 
-1.550973332285e-04 2.796756386232e-05 0.0 
2.796756386232e-05 1.025417246301e-03 0.0 
0.0 0.0 -1.547320639971e-04 
-1.115692087861e-04 -2.839126116568e-05 0.0 
-2.839126116568e-05 7.371116053840e-04 0.0 
0.0 0.0 -1.115425826451e-04 
-1.699290889586e-04 -2.900940190171e-05 0.0 
-2.900940190171e-05 1.149889600330e-03 0.0 
0.0 0.0 -1.708594300032e-04 
-8.624183478928e-05 -2.912886792339e-05 0.0 
-2.912886792339e-05 5.626870180004e-04 0.0 
0.0 0.0 -8.644348757353e-05 
-1.569167022033e-04 -2.881123911490e-05 0.0 
-2.881123911490e-05 1.051025089677e-03 0.0 
0.0 0.0 -1.566669492989e-04 
-1.769191692021e-04 2.934973965132e-05 0.0 
2.934973965132e-05 1.199034094636e-03 0.0 
0.0 0.0 -1.798338780755e-04 
-1.495364599630e-04 2.975197277300e-05 0.0 
2.975197277300e-05 9.877659320422e-04 0.0 
0.0 0.0 -1.491119197843e-04 
-1.807112013151e-04 -2.761933473531e-05 0.0 
-2.761933473531e-05 1.210002262212e-03 0.0 
0.0 0.0 -1.792176209978e-04 
-1.628975544781e-04 -3.036779777295e-05 0.0 
-3.036779777295e-05 1.095193631651e-03 0.0 
0.0 0.0 -1.630977145684e-04 
-1.675201900776e-04 -3.024382898117e-05 0.0 
-3.024382898117e-05 1.126388508701e-03 0.0 
0.0 0.0 -1.675015638186e-04 
-5.424555064715e-05 2.680812076581e-05 0.0 
2.680812076581e-05 3.226336525028e-04 0.0 
0.0 0.0 -5.399133669915e-05 
-1.676277495680e-04 2.740316368874e-05 0.0 
2.740316368874e-05 1.112871955034e-03 0.0 
0.0 0.0 -1.673862058733e-04 
-1.578559859789e-04 2.827037287320e-05 0.0 
2.827037287320e-05 1.049443790061e-03 0.0 
0.0 0.0 -1.580046825171e-04 
-1.171678476607e-04 2.852988375933e-05 0.0 
2.852988375933e-05 7.623350065851e-04 0.0 
0.0 0.0 -1.168873383469e-04 
-7.813173762117e-05 2.766421590413e-05 0.0 
2.766421590413e-05 4.622030552975e-04 0.0 
0.0 0.0 -7.363010077577e-05 
-1.810895077962e-04 -2.908189886640e-05 0.0 
-2.908189886640e-05 1.245299465341e-03 0.0 
0.0 0.0 -1.848439230673e-04 
-6.258589564450e-05 2.973424717467e-05 0.0 
2.973424717467e-05 3.796477966190e-04 0.0 
0.0 0.0 -6.214069219561e-05 
-6.877743183419e-05 -3.283467012249e-05 0.0 
-3.283467012249e-05 4.454002116560e-04 0.0 
0.0 0.0 -6.982795868082e-05 
-1.656560229546e-04 3.018340289880e-05 0.0 
3.018340289880e-05 1.102559420523e-03 0.0 
0.0 0.0 -1.657595890666e-04 
-4.452637910278e-05 -2.463086619694e-05 0.0 
-2.463086619694e-05 2.688625379708e-04 0.0 
0.0 0.0 -4.409698994278e-05 
-1.188635475057e-04 -2.772391840776e-05 0.0 
-2.772391840776e-05 7.879380998938e-04 0.0 
0.0 0.0 -1.188635276708e-04 
-1.592882983328e-04 2.718156988550e-05 0.0 
2.718156988550e-05 1.054709056437e-03 0.0 
0.0 0.0 -1.589765888202e-04 
-1.772222272296e-04 -2.714101551062e-05 0.0 
-2.714101551062e-05 1.191839625875e-03 0.0 
0.0 0.0 -1.771732720199e-04 
-1.824779395496e-04 -2.648051372033e-05 0.0 
-2.648051372033e-05 1.225568720394e-03 0.0 
0.0 0.0 -1.816415620416e-04 
-1.546092874475e-04 -2.982910766663e-05 0.0 
-2.982910766663e-05 1.035340165495e-03 0.0 
0.0 0.0 -1.543237508850e-04 
-1.687071199467e-04 -3.097215296435e-05 0.0 
-3.097215296435e-05 1.133984998622e-03 0.0 
0.0 0.0 -1.685605813437e-04 
-1.021935529673e-04 2.852069401152e-05 0.0 
2.852069401152e-05 6.571110725585e-04 0.0 
0.0 0.0 -1.019073722143e-04 
-1.593527883530e-04 -2.978604002386e-05 0.0 
-2.978604002386e-05 1.069539853505e-03 0.0 
0.0 0.0 -1.593679286731e-04 
-8.787271678042e-05 2.812609072738e-05 0.0 
2.812609072738e-05 5.317977245242e-04 0.0 
0.0 0.0 -8.364764346898e-05 
-1.787194194283e-04 2.687014845945e-05 0.0 
2.687014845945e-05 1.178995119648e-03 0.0 
0.0 0.0 -1.772627823762e-04 
-9.805451043270e-05 2.760029222410e-05 0.0 
2.760029222410e-05 6.018798204524e-04 0.0 
0.0 0.0 -9.365644977482e-05 
-9.596485627522e-05 2.204290663138e-05 0.0 
2.204290663138e-05 6.347192065111e-04 0.0 
0.0 0.0 -9.866254784712e-05 
-1.159093866371e-04 2.840626684317e-05 0.0 
2.840626684317e-05 7.538245928729e-04 0.0 
0.0 0.0 -1.157644195874e-04 
-1.068023676316e-04 3.049840519302e-05 0.0 
3.049840519302e-05 6.737297633016e-04 0.0 
0.0 0.0 -1.036755264196e-04 
-1.327131526045e-04 -2.791089545435e-05 0.0 
-2.791089545435e-05 8.830463531689e-04 0.0 
0.0 0.0 -1.324954999561e-04 
-1.083462229029e-04 -2.835211655561e-05 0.0 
-2.835211655561e-05 7.134008523618e-04 0.0 
0.0 0.0 -1.081453164196e-04 
-1.141683981921e-04 -2.887541052425e-05 0.0 
-2.887541052425e-05 7.550230559135e-04 0.0 
0.0 0.0 -1.140931655197e-04 
-5.515908320108e-05 2.948502897213e-05 0.0 
2.948502897213e-05 3.310071093917e-04 0.0 
0.0 0.0 -5.528709606717e-05 
-1.104134789677e-04 2.840605379835e-05 0.0 
2.840605379835e-05 7.154837500031e-04 0.0 
0.0 0.0 -1.103023603459e-04 
-1.746713077398e-04 2.880636906730e-05 0.0 
2.880636906730e-05 1.164068735679e-03 0.0 
0.0 0.0 -1.743776871305e-04 
-1.783703106015e-04 3.636462111026e-05 0.0 
3.636462111026e-05 1.201299505939e-03 0.0 
0.0 0.0 -1.792895840060e-04 
-1.577150641991e-04 2.851269442524e-05 0.0 
2.851269442524e-05 1.044375076497e-03 0.0 
0.0 0.0 -1.575150703147e-04 
-1.745723709241e-04 2.909038873658e-05 0.0 
2.909038873658e-05 1.170222223010e-03 0.0 
0.0 0.0 -1.755400497234e-04 
-1.120725847370e-04 2.871981251597e-05 0.0 
2.871981251597e-05 7.269648264993e-04 0.0 
0.0 0.0 -1.119489732781e-04 
-1.675311839949e-04 2.887729147629e-05 0.0 
2.887729147629e-05 1.117903748534e-03 0.0 
0.0 0.0 -1.678529426297e-04 
-1.146259152953e-04 2.842710779289e-05 0.0 
2.842710779289e-05 7.448564873363e-04 0.0 
0.0 0.0 -1.145134881756e-04 
-1.710224470009e-04 2.842065442071e-05 0.0 
2.842065442071e-05 1.142895506605e-03 0.0 
0.0 0.0 -1.716593064874e-04 
-1.634807050442e-04 2.799270818855e-05 0.0 
2.799270818855e-05 1.086902354100e-03 0.0 
0.0 0.0 -1.634447856658e-04 
-1.622367908960e-04 -2.967988136421e-05 0.0 
-2.967988136421e-05 1.088570664713e-03 0.0 
0.0 0.0 -1.620677252808e-04 
-1.436975778517e-04 2.830432817314e-05 0.0 
2.830432817314e-05 9.480503595790e-04 0.0 
0.0 0.0 -1.437136475121e-04 
-1.063431585595e-04 2.840592411012e-05 0.0 
2.840592411012e-05 6.863040493332e-04 0.0 
0.0 0.0 -1.060995107696e-04 
-1.691497108962e-04 -2.743833599267e-05 0.0 
-2.743833599267e-05 1.134677276168e-03 0.0 
0.0 0.0 -1.689057885308e-04 
-1.381914899866e-04 2.790064750608e-05 0.0 
2.790064750608e-05 9.063015758904e-04 0.0 
0.0 0.0 -1.375454124849e-04 
-5.561996790627e-05 -3.071748806018e-05 0.0 
-3.071748806018e-05 3.409512690699e-04 0.0 
0.0 0.0 -5.492022919918e-05 
-6.179236649455e-05 -2.756467409787e-05 0.0 
-2.756467409787e-05 3.903060721867e-04 0.0 
0.0 0.0 -6.170691397715e-05 
-9.087582305261e-05 2.700291781954e-05 0.0 
2.700291781954e-05 5.782509110046e-04 0.0 
0.0 0.0 -9.092110591052e-05 
-1.259880962207e-04 2.776883270027e-05 0.0 
2.776883270027e-05 8.237716666486e-04 0.0 
0.0 0.0 -1.257717909469e-04 
-1.753841120844e-04 2.980647546350e-05 0.0 
2.980647546350e-05 1.173927080456e-03 0.0 
0.0 0.0 -1.760317983730e-04 
-1.577119756164e-04 -3.055430689054e-05 0.0 
-3.055430689054e-05 1.057688489879e-03 0.0 
0.0 0.0 -1.576653810449e-04 
-1.057975756223e-04 -2.876126628924e-05 0.0 
-2.876126628924e-05 6.965772625478e-04 0.0 
0.0 0.0 -1.056780804030e-04 
-1.401532218735e-04 -2.893519210654e-05 0.0 
-2.893519210654e-05 9.357130400283e-04 0.0 
0.0 0.0 -1.401741111350e-04 
-1.632303776345e-04 2.945240880963e-05 0.0 
2.945240880963e-05 1.086067743780e-03 0.0 
0.0 0.0 -1.632898652955e-04 
-1.698320922867e-04 -3.029692352669e-05 0.0 
-3.029692352669e-05 1.141081462631e-03 0.0 
0.0 0.0 -1.695868396911e-04 
-1.762766478419e-04 -2.148172006753e-05 0.0 
-2.148172006753e-05 1.172735995291e-03 0.0 
0.0 0.0 -1.741172379421e-04 
-1.423952570170e-04 2.784554782803e-05 0.0 
2.784554782803e-05 9.441048027351e-04 0.0 
0.0 0.0 -1.427691508950e-04 
-1.672340961037e-04 2.890076212539e-05 0.0 
2.890076212539e-05 1.110820323191e-03 0.0 
0.0 0.0 -1.670153566545e-04 
-1.196206745500e-04 -2.916305908743e-05 0.0 
-2.916305908743e-05 7.932912096618e-04 0.0 
0.0 0.0 -1.195780717481e-04 
-1.631267095900e-04 -2.877648753756e-05 0.0 
-2.877648753756e-05 1.093964271595e-03 0.0 
0.0 0.0 -1.629178051474e-04 
-1.193648583036e-04 2.813253978265e-05 0.0 
2.813253978265e-05 7.781106719393e-04 0.0 
0.0 0.0 -1.192674511187e-04 
-1.785040923208e-04 -2.833642482200e-05 0.0 
-2.833642482200e-05 1.202406861450e-03 0.0 
0.0 0.0 -1.783056964125e-04 
-1.774180478980e-04 -3.143728213467e-05 0.0 
-3.143728213467e-05 1.216846253912e-03 0.0 
0.0 0.0 -1.800733985141e-04 
-1.339733609669e-04 2.830305737665e-05 0.0 
2.830305737665e-05 8.799971748813e-04 0.0 
0.0 0.0 -1.339483752660e-04 
-5.685501053660e-05 3.033786968296e-05 0.0 
3.033786968296e-05 3.408752435242e-04 0.0 
0.0 0.0 -5.664287464774e-05 
-1.674932513127e-04 2.750263582860e-05 0.0 
2.750263582860e-05 1.111155514655e-03 0.0 
0.0 0.0 -1.670528461364e-04 
-1.284040368042e-04 -2.775968276020e-05 0.0 
-2.775968276020e-05 8.537309068525e-04 0.0 
0.0 0.0 -1.283340813903e-04 
-1.016895440755e-04 -2.862604297841e-05 0.0 
-2.862604297841e-05 6.674652453701e-04 0.0 
0.0 0.0 -1.014860136736e-04 
-1.390418925560e-04 -2.935625760733e-05 0.0 
-2.935625760733e-05 9.288785969762e-04 0.0 
0.0 0.0 -1.390419464427e-04 
-1.608753793423e-04 -3.062151254544e-05 0.0 
-3.062151254544e-05 1.081540098949e-03 0.0 
0.0 0.0 -1.609465537294e-04 
-5.579409708541e-05 -2.753923831601e-05 0.0 
-2.753923831601e-05 3.517647136068e-04 0.0 
0.0 0.0 -5.619956474153e-05 
-1.242874580104e-04 2.815581454240e-05 0.0 
2.815581454240e-05 8.122824974036e-04 0.0 
0.0 0.0 -1.242180795178e-04 
-1.444954382542e-04 2.691161261798e-05 0.0 
2.691161261798e-05 9.508761997336e-04 0.0 
0.0 0.0 -1.439419080609e-04 
-1.748732396412e-04 -3.101518328253e-05 0.0 
-3.101518328253e-05 1.183866334775e-03 0.0 
0.0 0.0 -1.756258132784e-04 
-1.484265095921e-04 2.639187046033e-05 0.0 
2.639187046033e-05 9.793613921147e-04 0.0 
0.0 0.0 -1.481473755224e-04 
-1.628394148518e-04 2.905846373136e-05 0.0 
2.905846373136e-05 1.081802942582e-03 0.0 
0.0 0.0 -1.628061244897e-04 
-1.405884391169e-04 2.689260908494e-05 0.0 
2.689260908494e-05 9.219062369141e-04 0.0 
0.0 0.0 -1.397490354451e-04 
-1.346362126131e-04 2.980546389634e-05 0.0 
2.980546389634e-05 8.629731244664e-04 0.0 
0.0 0.0 -1.313455861883e-04 
-1.422308942789e-04 2.777968126491e-05 0.0 
2.777968126491e-05 9.352014107076e-04 0.0 
0.0 0.0 -1.417070353249e-04 
-1.696348231764e-04 3.073847441857e-05 0.0 
3.073847441857e-05 1.132512673150e-03 0.0 
0.0 0.0 -1.700257545721e-04 
-1.628061011134e-04 -3.012920063587e-05 0.0 
-3.012920063587e-05 1.094588289745e-03 0.0 
0.0 0.0 -1.626783210446e-04 
-1.525480366069e-04 2.753411223908e-05 0.0 
2.753411223908e-05 1.012270815341e-03 0.0 
0.0 0.0 -1.525950422115e-04 
-1.817674885626e-04 2.636756222739e-05 0.0 
2.636756222739e-05 1.218171265063e-03 0.0 
0.0 0.0 -1.819330136886e-04 
-1.367783378107e-04 2.734398055764e-05 0.0 
2.734398055764e-05 8.928204252328e-04 0.0 
0.0 0.0 -1.355595357802e-04 
-8.657515392004e-05 -2.858127066433e-05 0.0 
-2.858127066433e-05 5.623682383036e-04 0.0 
0.0 0.0 -8.640878351826e-05 
-1.720286776127e-04 -3.018037219568e-05 0.0 
-3.018037219568e-05 1.158953410419e-03 0.0 
0.0 0.0 -1.720100346656e-04 
-1.785542716781e-04 -3.347376878072e-05 0.0 
-3.347376878072e-05 1.210212792631e-03 0.0 
0.0 0.0 -1.795117393957e-04 
-1.181566759780e-04 2.804595512908e-05 0.0 
2.804595512908e-05 7.695120543693e-04 0.0 
0.0 0.0 -1.180384278745e-04 
-1.234361083838e-04 2.834735001336e-05 0.0 
2.834735001336e-05 8.068300268397e-04 0.0 
0.0 0.0 -1.233979183903e-04 
-9.615008310342e-05 -2.877711061827e-05 0.0 
-2.877711061827e-05 6.293964481875e-04 0.0 
0.0 0.0 -9.603629528614e-05 
-1.570985069047e-04 2.869057650911e-05 0.0 
2.869057650911e-05 1.042670134457e-03 0.0 
0.0 0.0 -1.569914920818e-04 
-9.804713378094e-05 2.892049478508e-05 0.0 
2.892049478508e-05 6.274327291699e-04 0.0 
0.0 0.0 -9.751120462800e-05 
-1.373039782519e-04 2.945820523949e-05 0.0 
2.945820523949e-05 9.031137517948e-04 0.0 
0.0 0.0 -1.370644644624e-04 
-9.733425656402e-05 -2.696735292952e-05 0.0 
-2.696735292952e-05 6.363689780604e-04 0.0 
0.0 0.0 -9.714421390796e-05 
-1.604810832406e-04 2.925883402761e-05 0.0 
2.925883402761e-05 1.064262862584e-03 0.0 
0.0 0.0 -1.602381950242e-04 
-1.814386097987e-04 -2.325128847214e-05 0.0 
-2.325128847214e-05 1.217845530327e-03 0.0 
0.0 0.0 -1.816843005860e-04 
-1.003684445551e-04 -2.872637610904e-05 0.0 
-2.872637610904e-05 6.585462596242e-04 0.0 
0.0 0.0 -1.002307182508e-04 
-3.526749537505e-05 -3.047241068612e-05 0.0 
-3.047241068612e-05 2.153990238607e-04 0.0 
0.0 0.0 -3.677367655039e-05 
-1.806631145188e-04 2.941902588667e-05 0.0 
2.941902588667e-05 1.208966272057e-03 0.0 
0.0 0.0 -1.810776462098e-04 
-1.033178748637e-04 2.699632970684e-05 0.0 
2.699632970684e-05 6.637091035959e-04 0.0 
0.0 0.0 -1.028007266516e-04 
-1.175293277585e-04 2.819191420696e-05 0.0 
2.819191420696e-05 7.649488685247e-04 0.0 
0.0 0.0 -1.174222657364e-04 
-1.740611927883e-04 3.008308873920e-05 0.0 
3.008308873920e-05 1.179667388234e-03 0.0 
0.0 0.0 -1.766888058523e-04 
-1.524480229041e-04 -2.995968298439e-05 0.0 
-2.995968298439e-05 1.020372756015e-03 0.0 
0.0 0.0 -1.522604622525e-04 
-1.585768344365e-04 -2.913298650394e-05 0.0 
-2.913298650394e-05 1.064240986158e-03 0.0 
0.0 0.0 -1.583819031520e-04 
-1.028812223476e-04 -2.791530224567e-05 0.0 
-2.791530224567e-05 6.762699737186e-04 0.0 
0.0 0.0 -1.027652553003e-04 
-3.047731217096e-05 2.978609752000e-05 0.0 
2.978609752000e-05 1.644412884572e-04 0.0 
0.0 0.0 -3.167095645526e-05 
-1.827018091400e-04 -3.487243475378e-05 0.0 
-3.487243475378e-05 1.223693620193e-03 0.0 
0.0 0.0 -1.803196740198e-04 
-1.299869374800e-04 2.787662672047e-05 0.0 
2.787662672047e-05 8.523815142426e-04 0.0 
0.0 0.0 -1.299076046001e-04 
-1.512839301296e-04 -3.211131163956e-05 0.0 
-3.211131163956e-05 1.010330699503e-03 0.0 
0.0 0.0 -1.510713963618e-04 
-1.740688791628e-04 2.785384488376e-05 0.0 
2.785384488376e-05 1.160296302710e-03 0.0 
0.0 0.0 -1.736733770178e-04 
-2.424829434384e-05 2.135414066938e-05 0.0 
2.135414066938e-05 1.009887765283e-04 0.0 
0.0 0.0 -2.253474224696e-05 
-1.588289344536e-04 2.988448063203e-05 0.0 
2.988448063203e-05 1.053618048293e-03 0.0 
0.0 0.0 -1.588145449557e-04 
-7.398149687921e-05 -2.842214034926e-05 0.0 
-2.842214034926e-05 4.736710158424e-04 0.0 
0.0 0.0 -7.379368512750e-05 
-1.417757164372e-04 -3.019050727827e-05 0.0 
-3.019050727827e-05 9.514786018212e-04 0.0 
0.0 0.0 -1.424765658182e-04 
-1.273110853056e-04 -2.925695132898e-05 0.0 
-2.925695132898e-05 8.481813906053e-04 0.0 
0.0 0.0 -1.274401864931e-04 
-1.007593383753e-04 2.822071280729e-05 0.0 
2.822071280729e-05 6.480510024074e-04 0.0 
0.0 0.0 -1.006432667219e-04 
-1.707598802574e-04 -2.954897052777e-05 0.0 
-2.954897052777e-05 1.153161559221e-03 0.0 
0.0 0.0 -1.712453353817e-04 
-1.329505705343e-04 2.860130427155e-05 0.0 
2.860130427155e-05 8.732611453068e-04 0.0 
0.0 0.0 -1.328871777156e-04 
-9.118212509623e-05 2.844150706971e-05 0.0 
2.844150706971e-05 5.810800157713e-04 0.0 
0.0 0.0 -9.101187559806e-05 
-1.348270760039e-04 -2.858426038110e-05 0.0 
-2.858426038110e-05 8.990222661828e-04 0.0 
0.0 0.0 -1.348432318503e-04 
-2.929431270807e-05 -2.857654389252e-05 0.0 
-2.857654389252e-05 1.760253783659e-04 0.0 
0.0 0.0 -3.121713414881e-05 
-1.537482864892e-04 -2.902787486223e-05 0.0 
-2.902787486223e-05 1.032059817805e-03 0.0 
0.0 0.0 -1.539626484545e-04 
-1.604406715089e-04 -2.964829512842e-05 0.0 
-2.964829512842e-05 1.074466508454e-03 0.0 
0.0 0.0 -1.598244649411e-04 
-1.844616251081e-04 -2.196458036396e-05 0.0 
-2.196458036396e-05 1.231467805983e-03 0.0 
0.0 0.0 -1.850401362575e-04 
-1.635274807000e-04 -2.956880985849e-05 0.0 
-2.956880985849e-05 1.099342516608e-03 0.0 
0.0 0.0 -1.636124299818e-04 
-7.150477036681e-05 -2.776392562661e-05 0.0 
-2.776392562661e-05 4.572663187996e-04 0.0 
0.0 0.0 -7.137223705482e-05 
-1.570462429545e-04 -2.966204224228e-05 0.0 
-2.966204224228e-05 1.054975147839e-03 0.0 
0.0 0.0 -1.570847591254e-04 
-1.810625471898e-04 2.712640566716e-05 0.0 
2.712640566716e-05 1.230837214805e-03 0.0 
0.0 0.0 -1.842233179068e-04 
-1.891002400454e-04 -2.748789620214e-05 0.0 
-2.748789620214e-05 1.278407905451e-03 0.0 
0.0 0.0 -1.900717871215e-04 
-1.657110930776e-04 -2.854937255919e-05 0.0 
-2.854937255919e-05 1.112870521473e-03 0.0 
0.0 0.0 -1.653364313119e-04 
-1.071209963560e-04 -2.863275326497e-05 0.0 
-2.863275326497e-05 7.049432181714e-04 0.0 
0.0 0.0 -1.069186906485e-04 
-1.442583782278e-04 -2.898467953421e-05 0.0 
-2.898467953421e-05 9.652668360639e-04 0.0 
0.0 0.0 -1.443707514742e-04 
-1.759295624301e-04 2.574555557981e-05 0.0 
2.574555557981e-05 1.162894992702e-03 0.0 
0.0 0.0 -1.746475140816e-04 
-1.188179409512e-04 -2.882565480678e-05 0.0 
-2.882565480678e-05 7.850400880713e-04 0.0 
0.0 0.0 -1.181845718321e-04 
-1.584483271371e-04 2.773639164420e-05 0.0 
2.773639164420e-05 1.051528373706e-03 0.0 
0.0 0.0 -1.585795433073e-04 
-1.477641435519e-04 2.859461966958e-05 0.0 
2.859461966958e-05 9.807497853317e-04 0.0 
0.0 0.0 -1.481564718376e-04 
-1.666109147089e-04 -2.970949097526e-05 0.0 
-2.970949097526e-05 1.123406416293e-03 0.0 
0.0 0.0 -1.669465589644e-04 
-1.640742339727e-04 -2.814643695304e-05 0.0 
-2.814643695304e-05 1.102737689409e-03 0.0 
0.0 0.0 -1.639852473733e-04 
-1.101476556860e-04 -1.419773556877e-06 0.0 
-1.419773556877e-06 6.855531227093e-04 0.0 
0.0 0.0 -1.097027053386e-04 
-1.095838507761e-04 5.104018495320e-06 0.0 
5.104018495320e-06 6.852974449944e-04 0.0 
0.0 0.0 -1.096586159380e-04 
-1.492847548809e-04 -3.091516381313e-05 0.0 
-3.091516381313e-05 9.984061546489e-04 0.0 
0.0 0.0 -1.489183339744e-04 
-1.487773235054e-04 2.785619991096e-05 0.0 
2.785619991096e-05 9.847103116342e-04 0.0 
0.0 0.0 -1.489589719869e-04 
-1.316033445496e-04 -2.890310988479e-05 0.0 
-2.890310988479e-05 8.785172676280e-04 0.0 
0.0 0.0 -1.317064244343e-04 
-1.470787480711e-04 -2.886845641438e-05 0.0 
-2.886845641438e-05 9.813735906609e-04 0.0 
0.0 0.0 -1.466314440693e-04 
-1.276790192920e-04 2.827971774625e-05 0.0 
2.827971774625e-05 8.356151426700e-04 0.0 
0.0 0.0 -1.275341994755e-04 
-1.790311321725e-04 1.969961980520e-05 0.0 
1.969961980520e-05 1.177311147527e-03 0.0 
0.0 0.0 -1.770432225081e-04 
-1.075373971259e-04 2.845855733448e-05 0.0 
2.845855733448e-05 6.950205170450e-04 0.0 
0.0 0.0 -1.073226784003e-04 
-1.995879498343e-04 -5.013008806985e-06 0.0 
-5.013008806985e-06 1.363897218258e-03 0.0 
0.0 0.0 -1.985690758598e-04 
-1.206431140158e-04 2.307417823056e-05 0.0 
2.307417823056e-05 7.999499804229e-04 0.0 
0.0 0.0 -1.217990918242e-04 
-1.230873173652e-04 -2.834404514853e-05 0.0 
-2.834404514853e-05 8.168726937961e-04 0.0 
0.0 0.0 -1.229897142350e-04 
-1.277789710916e-04 2.899586617417e-05 0.0 
2.899586617417e-05 8.376167932335e-04 0.0 
0.0 0.0 -1.278593196867e-04 
-6.749379846372e-05 -2.782885043647e-05 0.0 
-2.782885043647e-05 4.285534232864e-04 0.0 
0.0 0.0 -6.718560115948e-05 
-1.130846881410e-04 -2.901620947727e-05 0.0 
-2.901620947727e-05 7.492911164906e-04 0.0 
0.0 0.0 -1.132750687146e-04 
-1.393795706141e-04 2.790993313463e-05 0.0 
2.790993313463e-05 9.183577294076e-04 0.0 
0.0 0.0 -1.393992299975e-04 
-1.313953089638e-04 2.793110906410e-05 0.0 
2.793110906410e-05 8.609063871163e-04 0.0 
0.0 0.0 -1.310746415357e-04 
-1.472158165240e-04 2.758529410816e-05 0.0 
2.758529410816e-05 9.752002146418e-04 0.0 
0.0 0.0 -1.472189500432e-04 
-1.516300742627e-04 2.806244334544e-05 0.0 
2.806244334544e-05 1.001799986608e-03 0.0 
0.0 0.0 -1.512033144533e-04 
-1.566655293626e-04 -2.889951032878e-05 0.0 
-2.889951032878e-05 1.046948901408e-03 0.0 
0.0 0.0 -1.561275327105e-04 
-3.388460750578e-05 -1.545160936620e-05 0.0 
-1.545160936620e-05 2.099343336454e-04 0.0 
0.0 0.0 -3.245576353708e-05 
-1.079103303358e-04 2.933502518126e-05 0.0 
2.933502518126e-05 7.001507540581e-04 0.0 
0.0 0.0 -1.081352097849e-04 
-1.027907419891e-04 -2.789055961483e-05 0.0 
-2.789055961483e-05 6.727593674768e-04 0.0 
0.0 0.0 -1.023828309811e-04 
-1.434897197293e-04 2.686269947909e-05 0.0 
2.686269947909e-05 9.426378339422e-04 0.0 
0.0 0.0 -1.428293200757e-04 
-1.483261696105e-04 -2.883963041716e-05 0.0 
-2.883963041716e-05 9.902814330651e-04 0.0 
0.0 0.0 -1.477595226970e-04 
-1.733622378423e-04 2.696425670561e-05 0.0 
2.696425670561e-05 1.158199599596e-03 0.0 
0.0 0.0 -1.740163136221e-04 
-5.146390240149e-05 3.149198966797e-05 0.0 
3.149198966797e-05 2.950977217837e-04 0.0 
0.0 0.0 -4.910994769955e-05 
-4.998322073950e-05 -2.650173050573e-05 0.0 
-2.650173050573e-05 3.137392583323e-04 0.0 
0.0 0.0 -5.065930366581e-05 
-1.246841514279e-04 2.807070818710e-05 0.0 
2.807070818710e-05 8.153369030926e-04 0.0 
0.0 0.0 -1.245896567492e-04 
-1.074667000404e-04 -2.931017500739e-05 0.0 
-2.931017500739e-05 7.103792899815e-04 0.0 
0.0 0.0 -1.077203783481e-04 
-9.918600810801e-05 -3.218977296722e-05 0.0 
-3.218977296722e-05 6.451476881974e-04 0.0 
0.0 0.0 -9.831899762194e-05 
-1.033843323464e-04 -2.568146961447e-05 0.0 
-2.568146961447e-05 6.823399375890e-04 0.0 
0.0 0.0 -1.033380742667e-04 
-1.467772705035e-04 -2.855532502296e-05 0.0 
-2.855532502296e-05 9.829234791858e-04 0.0 
0.0 0.0 -1.469023935692e-04 
-4.918821938130e-05 -2.784621442943e-05 0.0 
-2.784621442943e-05 3.054917735983e-04 0.0 
0.0 0.0 -4.953709868763e-05 
-1.222003796169e-04 2.866150149173e-05 0.0 
2.866150149173e-05 7.992287747919e-04 0.0 
0.0 0.0 -1.223213871927e-04 
-1.574838851652e-04 -2.884771519407e-05 0.0 
-2.884771519407e-05 1.055743233401e-03 0.0 
0.0 0.0 -1.573814874934e-04 
-5.103366446644e-05 3.083233425307e-05 0.0 
3.083233425307e-05 3.010972732110e-04 0.0 
0.0 0.0 -5.112340052147e-05 
-1.934610965695e-04 -4.298535282020e-06 0.0 
-4.298535282020e-06 1.268654757538e-03 0.0 
0.0 0.0 -1.928379572095e-04 
-1.729742724807e-04 -2.716366689485e-05 0.0 
-2.716366689485e-05 1.161879060048e-03 0.0 
0.0 0.0 -1.728683014225e-04 
-1.159629787201e-04 -2.904469987433e-05 0.0 
-2.904469987433e-05 7.705849919696e-04 0.0 
0.0 0.0 -1.163417091451e-04 
-1.616915685660e-04 2.859224485179e-05 0.0 
2.859224485179e-05 1.074324548804e-03 0.0 
0.0 0.0 -1.618083629464e-04 
-2.727429490673e-05 -7.981424094550e-07 0.0 
-7.981424094550e-07 1.116265976979e-04 0.0 
0.0 0.0 -2.696321564760e-05 
-1.521690046607e-04 -3.000871026997e-05 0.0 
-3.000871026997e-05 1.017696781759e-03 0.0 
0.0 0.0 -1.518707364543e-04 
-1.295839926014e-04 -2.815794342717e-05 0.0 
-2.815794342717e-05 8.619661847659e-04 0.0 
0.0 0.0 -1.295155041898e-04 
-2.359634361323e-05 9.091220455368e-07 0.0 
9.091220455368e-07 1.106951619002e-04 0.0 
0.0 0.0 -2.682779714776e-05 
-1.728538985111e-04 2.680741270793e-05 0.0 
2.680741270793e-05 1.154427413958e-03 0.0 
0.0 0.0 -1.732288690391e-04 
-4.759083390138e-05 -2.831698267297e-05 0.0 
-2.831698267297e-05 2.848913946214e-04 0.0 
0.0 0.0 -4.649687138448e-05 
-1.430104513494e-04 -2.827840335732e-05 0.0 
-2.827840335732e-05 9.522047249633e-04 0.0 
0.0 0.0 -1.424467998190e-04 
-1.308115066644e-04 -2.845406566805e-05 0.0 
-2.845406566805e-05 8.700772173504e-04 0.0 
0.0 0.0 -1.306907721685e-04 
-1.129064275361e-04 -2.856218169756e-05 0.0 
-2.856218169756e-05 7.462380760800e-04 0.0 
0.0 0.0 -1.127972299543e-04 
-1.359129833258e-04 2.979368899475e-05 0.0 
2.979368899475e-05 8.944895224544e-04 0.0 
0.0 0.0 -1.357882224401e-04 
-1.779538886446e-04 2.685602915856e-05 0.0 
2.685602915856e-05 1.186518068831e-03 0.0 
0.0 0.0 -1.774347558581e-04 
-1.457575943922e-04 3.026596853263e-05 0.0 
3.026596853263e-05 9.632506474158e-04 0.0 
0.0 0.0 -1.457400808753e-04 
-1.288002410826e-04 2.805878315534e-05 0.0 
2.805878315534e-05 8.440094574945e-04 0.0 
0.0 0.0 -1.287264812403e-04 
-1.242825439840e-04 -2.804688037007e-05 0.0 
-2.804688037007e-05 8.250067063846e-04 0.0 
0.0 0.0 -1.241942416882e-04 
-1.736395521226e-05 2.354389388036e-05 0.0 
2.354389388036e-05 7.964528863018e-05 0.0 
0.0 0.0 -1.861799679395e-05 
-4.157545693324e-05 2.817385926199e-05 0.0 
2.817385926199e-05 2.365575590948e-04 0.0 
0.0 0.0 -4.141517733842e-05 
-1.678318203631e-04 -2.663064313971e-05 0.0 
-2.663064313971e-05 1.127397061509e-03 0.0 
0.0 0.0 -1.677496568182e-04 
-1.370203440637e-04 -3.226606344672e-05 0.0 
-3.226606344672e-05 9.081664366392e-04 0.0 
0.0 0.0 -1.362805121017e-04 
-1.736141937904e-04 2.716336991301e-05 0.0 
2.716336991301e-05 1.149649766564e-03 0.0 
0.0 0.0 -1.723036539172e-04 
-7.429185192102e-05 2.889322857484e-05 0.0 
2.889322857484e-05 4.644168819778e-04 0.0 
0.0 0.0 -7.414465667103e-05 
-1.649902886651e-04 2.947284893012e-05 0.0 
2.947284893012e-05 1.093935083842e-03 0.0 
0.0 0.0 -1.646925898217e-04 
-1.739966132604e-04 -2.849382622555e-05 0.0 
-2.849382622555e-05 1.167419998479e-03 0.0 
0.0 0.0 -1.733111646468e-04 
-1.056965695515e-04 2.657671323282e-05 0.0 
2.657671323282e-05 6.973803664085e-04 0.0 
0.0 0.0 -1.076913066561e-04 
-1.684634156381e-04 2.502571500154e-05 0.0 
2.502571500154e-05 1.117308510720e-03 0.0 
0.0 0.0 -1.681488932201e-04 
-1.612200699048e-04 -2.968921846860e-05 0.0 
-2.968921846860e-05 1.084762543557e-03 0.0 
0.0 0.0 -1.613920101890e-04 
-1.435042771724e-04 2.827958174112e-05 0.0 
2.827958174112e-05 9.471256299073e-04 0.0 
0.0 0.0 -1.435674306479e-04 
-1.178719447516e-04 2.925779353124e-05 0.0 
2.925779353124e-05 7.691196797978e-04 0.0 
0.0 0.0 -1.179957515531e-04 
-1.230064472571e-04 -2.933976043839e-05 0.0 
-2.933976043839e-05 8.180684852634e-04 0.0 
0.0 0.0 -1.231351811242e-04 
-1.812260547849e-04 -3.047200266982e-05 0.0 
-3.047200266982e-05 1.223288115478e-03 0.0 
0.0 0.0 -1.807056875578e-04 
-1.260212927046e-04 2.933157348944e-05 0.0 
2.933157348944e-05 8.259598448106e-04 0.0 
0.0 0.0 -1.259489979917e-04 
-1.353161328246e-04 2.778264495549e-05 0.0 
2.778264495549e-05 8.897119970146e-04 0.0 
0.0 0.0 -1.352333322325e-04 
-1.267391738953e-04 2.944240283988e-05 0.0 
2.944240283988e-05 8.300608908324e-04 0.0 
0.0 0.0 -1.265040046469e-04 
-1.558042942572e-04 2.960325539106e-05 0.0 
2.960325539106e-05 1.032329659142e-03 0.0 
0.0 0.0 -1.557546880476e-04 
-1.178031641948e-04 -2.833363001983e-05 0.0 
-2.833363001983e-05 7.792538415973e-04 0.0 
0.0 0.0 -1.176363242409e-04 
-7.616423057155e-05 2.888075361391e-05 0.0 
2.888075361391e-05 4.767557616214e-04 0.0 
0.0 0.0 -7.598706826662e-05 
-1.284551892997e-04 2.830356900228e-05 0.0 
2.830356900228e-05 8.414205268390e-04 0.0 
0.0 0.0 -1.284270486071e-04 
-8.163145150663e-05 2.849893936950e-05 0.0 
2.849893936950e-05 5.141388462768e-04 0.0 
0.0 0.0 -8.139240314519e-05 
-1.476035922618e-04 2.790275079514e-05 0.0 
2.790275079514e-05 9.723513416990e-04 0.0 
0.0 0.0 -1.469868445827e-04 
-8.102880366192e-05 -2.822816260586e-05 0.0 
-2.822816260586e-05 5.241451611897e-04 0.0 
0.0 0.0 -8.099228255434e-05 
-1.416684014624e-04 -2.911139421202e-05 0.0 
-2.911139421202e-05 9.446400297649e-04 0.0 
0.0 0.0 -1.413087031611e-04 
-1.704134817182e-04 -2.893451028680e-05 0.0 
-2.893451028680e-05 1.143317166872e-03 0.0 
0.0 0.0 -1.695824168335e-04 
-1.648116269840e-04 2.803138241354e-05 0.0 
2.803138241354e-05 1.093290237044e-03 0.0 
0.0 0.0 -1.644793634901e-04 
-1.128875860972e-04 2.826705620268e-05 0.0 
2.826705620268e-05 7.324835187191e-04 0.0 
0.0 0.0 -1.126879322255e-04 
-1.413103611302e-04 2.856634998349e-05 0.0 
2.856634998349e-05 9.375047760794e-04 0.0 
0.0 0.0 -1.419038077447e-04 
-1.657595976086e-04 2.853389717882e-05 0.0 
2.853389717882e-05 1.104349844714e-03 0.0 
0.0 0.0 -1.661162351013e-04 
-1.653889785276e-04 -2.976188635714e-05 0.0 
-2.976188635714e-05 1.114688989457e-03 0.0 
0.0 0.0 -1.657121520580e-04 
-4.122208403583e-05 -2.733977607716e-05 0.0 
-2.733977607716e-05 2.407308049745e-04 0.0 
0.0 0.0 -4.024936955576e-05 
-1.462865341652e-04 2.791988865304e-05 0.0 
2.791988865304e-05 9.640304959560e-04 0.0 
0.0 0.0 -1.458719015759e-04 
-1.798320892613e-04 3.664169466135e-05 0.0 
3.664169466135e-05 1.207776909166e-03 0.0 
0.0 0.0 -1.808727580343e-04 
-8.155951077410e-05 2.658877336874e-05 0.0 
2.658877336874e-05 5.082367721589e-04 0.0 
0.0 0.0 -8.036834358255e-05 
-1.261065842356e-04 -2.891277945860e-05 0.0 
-2.891277945860e-05 8.392634847212e-04 0.0 
0.0 0.0 -1.261429800108e-04 
-2.464432722711e-05 -2.598410949159e-05 0.0 
-2.598410949159e-05 1.199804601247e-04 0.0 
0.0 0.0 -2.329771006100e-05 
-1.698720281199e-04 2.819353997162e-05 0.0 
2.819353997162e-05 1.134065551803e-03 0.0 
0.0 0.0 -1.704352672439e-04 
-7.209795018933e-05 2.889480946534e-05 0.0 
2.889480946534e-05 4.471234739761e-04 0.0 
0.0 0.0 -7.178447905439e-05 
-1.214879839983e-04 2.129426116121e-05 0.0 
2.129426116121e-05 7.908873499093e-04 0.0 
0.0 0.0 -1.224926751266e-04 
-1.512350690369e-04 3.260960324541e-05 0.0 
3.260960324541e-05 1.003149541653e-03 0.0 
0.0 0.0 -1.513082552986e-04 
-1.410567308220e-04 -2.849265471453e-05 0.0 
-2.849265471453e-05 9.457036391268e-04 0.0 
0.0 0.0 -1.415828201621e-04 
-1.344535840298e-04 2.612046934124e-05 0.0 
2.612046934124e-05 8.995841949147e-04 0.0 
0.0 0.0 -1.366211047096e-04 
-1.341134389053e-04 2.811410486968e-05 0.0 
2.811410486968e-05 8.812581479058e-04 0.0 
0.0 0.0 -1.340535934895e-04 
-8.946040519151e-05 -2.953905219233e-05 0.0 
-2.953905219233e-05 5.742848433877e-04 0.0 
0.0 0.0 -8.827358089900e-05 
-9.333279709743e-05 -2.369397324284e-05 0.0 
-2.369397324284e-05 6.111413459436e-04 0.0 
0.0 0.0 -9.328238720484e-05 
-1.698818200285e-04 -2.882683013526e-05 0.0 
-2.882683013526e-05 1.144701307571e-03 0.0 
0.0 0.0 -1.700100520615e-04 
-1.409975246060e-04 -3.114270166762e-05 0.0 
-3.114270166762e-05 9.412074701777e-04 0.0 
0.0 0.0 -1.409113068204e-04 
-1.224899796510e-04 -2.844927577316e-05 0.0 
-2.844927577316e-05 8.138192071892e-04 0.0 
0.0 0.0 -1.224729735915e-04 
-1.523712328566e-04 3.064679971689e-05 0.0 
3.064679971689e-05 1.008635964013e-03 0.0 
0.0 0.0 -1.522479562080e-04 
-1.188292947714e-04 2.814854163685e-05 0.0 
2.814854163685e-05 7.741609344605e-04 0.0 
0.0 0.0 -1.187265862058e-04 
-7.698231420718e-05 -2.807470773001e-05 0.0 
-2.807470773001e-05 4.953557652573e-04 0.0 
0.0 0.0 -7.679943085705e-05 
-8.618619312566e-05 2.228028664320e-05 0.0 
2.228028664320e-05 5.633842965339e-04 0.0 
0.0 0.0 -8.862593743002e-05 
-1.284395253225e-04 -2.631768161175e-05 0.0 
-2.631768161175e-05 8.441014789476e-04 0.0 
0.0 0.0 -1.266344217576e-04 
-1.074097245906e-04 1.137855673603e-06 0.0 
1.137855673603e-06 7.273751056144e-04 0.0 
0.0 0.0 -1.068299257544e-04 
-1.648361548193e-04 -2.903405778283e-05 0.0 
-2.903405778283e-05 1.103487992394e-03 0.0 
0.0 0.0 -1.640398004813e-04 
-1.125117604938e-04 -2.832657592519e-05 0.0 
-2.832657592519e-05 7.420818515929e-04 0.0 
0.0 0.0 -1.122952594724e-04 
-1.815273626527e-04 2.648876521301e-05 0.0 
2.648876521301e-05 1.237129381465e-03 0.0 
0.0 0.0 -1.850357933615e-04 
-1.677426973633e-04 3.358700303554e-05 0.0 
3.358700303554e-05 1.121534172788e-03 0.0 
0.0 0.0 -1.681766660669e-04 
-1.238211064038e-04 -2.893923336642e-05 0.0 
-2.893923336642e-05 8.228165218213e-04 0.0 
0.0 0.0 -1.237869166313e-04 
-1.864446355504e-04 -3.208766695310e-05 0.0 
-3.208766695310e-05 1.252430825566e-03 0.0 
0.0 0.0 -1.862208944195e-04 
-8.530940149586e-05 -2.872680214247e-05 0.0 
-2.872680214247e-05 5.536185287289e-04 0.0 
0.0 0.0 -8.523934116932e-05 
-1.812060938045e-04 2.774101611193e-05 0.0 
2.774101611193e-05 1.207038039800e-03 0.0 
0.0 0.0 -1.806723702746e-04 
-1.337032776849e-04 -2.817141114612e-05 0.0 
-2.817141114612e-05 8.910030578001e-04 0.0 
0.0 0.0 -1.336599856011e-04 
-1.477881411962e-04 2.807358610009e-05 0.0 
2.807358610009e-05 9.757986870607e-04 0.0 
0.0 0.0 -1.477205131922e-04 
-1.717661370758e-04 -2.763745373205e-05 0.0 
-2.763745373205e-05 1.155465207730e-03 0.0 
0.0 0.0 -1.720177540750e-04 
-8.915482971043e-05 -2.748298977886e-05 0.0 
-2.748298977886e-05 5.839530331415e-04 0.0 
0.0 0.0 -8.937342098373e-05 
-1.408472522219e-04 2.814178914188e-05 0.0 
2.814178914188e-05 9.273096045331e-04 0.0 
0.0 0.0 -1.405419627762e-04 
-1.183094889317e-04 -2.831962265042e-05 0.0 
-2.831962265042e-05 7.845371880710e-04 0.0 
0.0 0.0 -1.182925860037e-04 
-1.362566173497e-04 -2.854051389334e-05 0.0 
-2.854051389334e-05 9.069235503698e-04 0.0 
0.0 0.0 -1.359850532410e-04 
-7.919830953849e-05 -2.789069310031e-05 0.0 
-2.789069310031e-05 5.092955845790e-04 0.0 
0.0 0.0 -7.902140106529e-05 
-1.521909368861e-04 3.155873557746e-05 0.0 
3.155873557746e-05 1.007096083567e-03 0.0 
0.0 0.0 -1.519844081269e-04 
-1.132987595353e-04 2.834154396761e-05 0.0 
2.834154396761e-05 7.356229622935e-04 0.0 
0.0 0.0 -1.132306032040e-04 
-1.320680958621e-04 2.867292103990e-05 0.0 
2.867292103990e-05 8.674712725503e-04 0.0 
0.0 0.0 -1.321542253869e-04 
-1.368300496681e-04 2.752968636588e-05 0.0 
2.752968636588e-05 8.977721242010e-04 0.0 
0.0 0.0 -1.363712481195e-04 
-2.669160915437e-05 -1.546272424362e-05 0.0 
-1.546272424362e-05 1.161110005952e-04 0.0 
0.0 0.0 -2.089024115593e-05 
-1.363872734664e-04 3.073615465078e-05 0.0 
3.073615465078e-05 8.982822443154e-04 0.0 
0.0 0.0 -1.362374425583e-04 
-3.196098953400e-05 -3.152710847565e-05 0.0 
-3.152710847565e-05 1.832351866553e-04 0.0 
0.0 0.0 -3.246432735143e-05 
-3.780823483309e-05 3.089859502925e-05 0.0 
3.089859502925e-05 2.040662805879e-04 0.0 
0.0 0.0 -3.615541251042e-05 
-1.264532196870e-04 2.805256790047e-05 0.0 
2.805256790047e-05 8.282811887478e-04 0.0 
0.0 0.0 -1.265710825771e-04 
-1.650927065987e-04 -2.992799550430e-05 0.0 
-2.992799550430e-05 1.105940052269e-03 0.0 
0.0 0.0 -1.647532235908e-04 
-1.400518033137e-04 2.658927901254e-05 0.0 
2.658927901254e-05 9.276103799496e-04 0.0 
0.0 0.0 -1.408132903889e-04 
-7.975221115210e-05 -2.926681587233e-05 0.0 
-2.926681587233e-05 5.061325512957e-04 0.0 
0.0 0.0 -7.822954250360e-05 
-2.013483297690e-04 2.032612637039e-06 0.0 
2.032612637039e-06 1.329003344546e-03 0.0 
0.0 0.0 -2.013483297690e-04 
-1.035627632493e-05 2.012317785662e-05 0.0 
2.012317785662e-05 3.911320943316e-05 0.0 
0.0 0.0 -1.232439990353e-05 
-8.383816084979e-05 -1.994127170537e-05 0.0 
-1.994127170537e-05 5.413626143026e-04 0.0 
0.0 0.0 -8.324708519681e-05 
-1.271654449798e-04 2.783994873367e-05 0.0 
2.783994873367e-05 8.320575259278e-04 0.0 
0.0 0.0 -1.270911103786e-04 
-1.205324376648e-04 -2.929888805432e-05 0.0 
-2.929888805432e-05 8.005519843790e-04 0.0 
0.0 0.0 -1.206387729067e-04 
-1.013602283131e-04 -2.480997680423e-05 0.0 
-2.480997680423e-05 6.640206223424e-04 0.0 
0.0 0.0 -1.009985469804e-04 
-8.871913647433e-05 2.734607712163e-05 0.0 
2.734607712163e-05 5.647906116567e-04 0.0 
0.0 0.0 -8.863076730823e-05 
-1.311043943365e-04 -2.976717297625e-05 0.0 
-2.976717297625e-05 8.719910144079e-04 0.0 
0.0 0.0 -1.310072861357e-04 
-1.389619207248e-04 -2.862329341105e-05 0.0 
-2.862329341105e-05 9.281576540868e-04 0.0 
0.0 0.0 -1.390016920470e-04 
-1.460738362541e-04 3.043025274219e-05 0.0 
3.043025274219e-05 9.676325484449e-04 0.0 
0.0 0.0 -1.460128267758e-04 
-1.732762100729e-04 3.047090098963e-05 0.0 
3.047090098963e-05 1.141214836478e-03 0.0 
0.0 0.0 -1.716453415534e-04 
-4.497460723320e-05 2.726656903271e-05 0.0 
2.726656903271e-05 2.561921516371e-04 0.0 
0.0 0.0 -4.464496721659e-05 
-1.166209944052e-04 2.853466779788e-05 0.0 
2.853466779788e-05 7.601119053809e-04 0.0 
0.0 0.0 -1.167719096664e-04 
-1.253239379370e-04 2.802640912089e-05 0.0 
2.802640912089e-05 8.204946388047e-04 0.0 
0.0 0.0 -1.253423245625e-04 
-6.775366326737e-05 -3.048229866519e-05 0.0 
-3.048229866519e-05 4.346213084644e-04 0.0 
0.0 0.0 -6.816034660215e-05 
-1.127220931764e-04 3.280867731043e-05 0.0 
3.280867731043e-05 7.331832316127e-04 0.0 
0.0 0.0 -1.127715562385e-04 
-1.406419564968e-04 -3.010518963226e-05 0.0 
-3.010518963226e-05 9.368893413982e-04 0.0 
0.0 0.0 -1.404347219739e-04 
-1.530603703096e-04 -2.920298263434e-05 0.0 
-2.920298263434e-05 1.018521684544e-03 0.0 
0.0 0.0 -1.535177820318e-04 
-2.288599488340e-05 1.289972043286e-06 0.0 
1.289972043286e-06 1.500050201402e-04 0.0 
0.0 0.0 -2.407863984352e-05 
-1.904718743730e-05 -3.796502735245e-05 0.0 
-3.796502735245e-05 7.353718879473e-05 0.0 
0.0 0.0 -1.778391308807e-05 
-4.862036817725e-05 -2.764492479964e-05 0.0 
-2.764492479964e-05 3.006710189870e-04 0.0 
0.0 0.0 -4.850561850037e-05 
-1.250248464412e-04 -2.908499407456e-05 0.0 
-2.908499407456e-05 8.306354519711e-04 0.0 
0.0 0.0 -1.249513133117e-04 
-9.487833492244e-05 -2.821982749961e-05 0.0 
-2.821982749961e-05 6.208435078207e-04 0.0 
0.0 0.0 -9.483030114460e-05 
-8.410233070287e-05 -2.754579270561e-05 0.0 
-2.754579270561e-05 5.457436342908e-04 0.0 
0.0 0.0 -8.407979340540e-05 
-7.564452835468e-05 -2.812380315554e-05 0.0 
-2.812380315554e-05 4.861034660231e-04 0.0 
0.0 0.0 -7.562371400132e-05 
-1.308199925164e-04 2.795456765413e-05 0.0 
2.795456765413e-05 8.583699019635e-04 0.0 
0.0 0.0 -1.308200345188e-04 
-1.492653203134e-04 2.795966396730e-05 0.0 
2.795966396730e-05 9.867209101107e-04 0.0 
0.0 0.0 -1.493429779604e-04 
-1.297619321001e-04 2.813153916154e-05 0.0 
2.813153916154e-05 8.505758307982e-04 0.0 
0.0 0.0 -1.296493136919e-04 
-9.537410332307e-05 2.792962789421e-05 0.0 
2.792962789421e-05 6.106733548119e-04 0.0 
0.0 0.0 -9.522910944095e-05 
-1.456775150903e-04 -3.018176577816e-05 0.0 
-3.018176577816e-05 9.731377158713e-04 0.0 
0.0 0.0 -1.454913560695e-04 
-1.215295702296e-04 2.461975315803e-05 0.0 
2.461975315803e-05 8.148115380054e-04 0.0 
0.0 0.0 -1.235433054540e-04 
-1.607975492377e-04 3.196445582729e-05 0.0 
3.196445582729e-05 1.071803692603e-03 0.0 
0.0 0.0 -1.614296353785e-04 
-1.294007234012e-04 -2.913608251421e-05 0.0 
-2.913608251421e-05 8.607493369835e-04 0.0 
0.0 0.0 -1.292646442145e-04 
-1.305405341983e-04 -2.882629630394e-05 0.0 
-2.882629630394e-05 8.689129694931e-04 0.0 
0.0 0.0 -1.304223873054e-04 
-6.968339329854e-05 -2.972888482406e-05 0.0 
-2.972888482406e-05 4.334906827197e-04 0.0 
0.0 0.0 -6.822727741190e-05 
-9.912831729497e-05 -2.796137707004e-05 0.0 
-2.796137707004e-05 6.504811582310e-04 0.0 
0.0 0.0 -9.898428703081e-05 
-1.338904054535e-04 2.764565306312e-05 0.0 
2.764565306312e-05 8.796508899650e-04 0.0 
0.0 0.0 -1.339603927656e-04 
-1.451942325546e-04 2.545422836756e-05 0.0 
2.545422836756e-05 9.593435678016e-04 0.0 
0.0 0.0 -1.442355194375e-04 
-1.361868027580e-04 2.709053506538e-05 0.0 
2.709053506538e-05 9.012697796478e-04 0.0 
0.0 0.0 -1.345837404303e-04 
-7.449260603113e-05 -2.324565781608e-05 0.0 
-2.324565781608e-05 4.730958793735e-04 0.0 
0.0 0.0 -7.319231467821e-05 
-1.351502038915e-04 2.830190167801e-05 0.0 
2.830190167801e-05 8.885438377553e-04 0.0 
0.0 0.0 -1.351067771782e-04 
-8.277379542059e-05 -2.675056815443e-05 0.0 
-2.675056815443e-05 5.366126160003e-04 0.0 
0.0 0.0 -8.276526902223e-05 
-4.268302624522e-05 2.966411434536e-05 0.0 
2.966411434536e-05 2.450626322876e-04 0.0 
0.0 0.0 -4.217020858377e-05 
-1.783377964352e-04 -2.878462420289e-05 0.0 
-2.878462420289e-05 1.216695363592e-03 0.0 
0.0 0.0 -1.804362660462e-04 
-4.529678387534e-05 2.926161683405e-05 0.0 
2.926161683405e-05 2.590325448345e-04 0.0 
0.0 0.0 -4.529806102550e-05 
-8.742939480876e-05 2.790769408488e-05 0.0 
2.790769408488e-05 5.558475884308e-04 0.0 
0.0 0.0 -8.733313829944e-05 
-1.317265343520e-04 -2.980209858436e-05 0.0 
-2.980209858436e-05 8.750838916963e-04 0.0 
0.0 0.0 -1.314978247514e-04 
-7.591084973546e-05 2.107875529606e-05 0.0 
2.107875529606e-05 4.931826175602e-04 0.0 
0.0 0.0 -7.859944172783e-05 
-1.334719851974e-04 -2.966915358544e-05 0.0 
-2.966915358544e-05 8.920345164479e-04 0.0 
0.0 0.0 -1.335848452069e-04 
-6.387562636780e-05 -3.268343600872e-05 0.0 
-3.268343600872e-05 4.032800898130e-04 0.0 
0.0 0.0 -6.423763444998e-05 
-1.136812058642e-04 -2.481450603128e-05 0.0 
-2.481450603128e-05 7.554211615018e-04 0.0 
0.0 0.0 -1.173522912428e-04 
-1.350637719422e-04 -2.838472714175e-05 0.0 
-2.838472714175e-05 8.988460543843e-04 0.0 
0.0 0.0 -1.347247148155e-04 
-1.171592619295e-04 -2.801384878721e-05 0.0 
-2.801384878721e-05 7.755561146277e-04 0.0 
0.0 0.0 -1.170018866078e-04 
-1.217089587309e-04 -2.902247236899e-05 0.0 
-2.902247236899e-05 8.097798257773e-04 0.0 
0.0 0.0 -1.219000842292e-04 
-2.184335631700e-05 -1.729926300555e-05 0.0 
-1.729926300555e-05 1.250103729472e-04 0.0 
0.0 0.0 -2.233965624082e-05 
-1.775429286585e-04 -2.993860203194e-05 0.0 
-2.993860203194e-05 1.168952343716e-03 0.0 
0.0 0.0 -1.728850973588e-04 
-9.777928932074e-05 -2.702797086344e-05 0.0 
-2.702797086344e-05 6.417468029030e-04 0.0 
0.0 0.0 -9.771858906392e-05 
-1.742936274983e-04 3.098695444566e-05 0.0 
3.098695444566e-05 1.160612036868e-03 0.0 
0.0 0.0 -1.731059224200e-04 
-1.475958375390e-04 -2.938015971493e-05 0.0 
-2.938015971493e-05 9.867581376832e-04 0.0 
0.0 0.0 -1.473178670231e-04 
-1.394115090974e-04 2.895092753690e-05 0.0 
2.895092753690e-05 9.183306099949e-04 0.0 
0.0 0.0 -1.394094752486e-04 
-1.392759160733e-04 -2.661746757661e-05 0.0 
-2.661746757661e-05 9.284264619517e-04 0.0 
0.0 0.0 -1.390298226761e-04 
-8.994283602845e-05 2.778083834669e-05 0.0 
2.778083834669e-05 5.730895634602e-04 0.0 
0.0 0.0 -8.984374554363e-05 
-2.917258118515e-05 2.376164554401e-05 0.0 
2.376164554401e-05 1.745437757761e-04 0.0 
0.0 0.0 -3.155138587282e-05 
-2.317643182854e-05 1.790083138541e-05 0.0 
1.790083138541e-05 9.845334346925e-05 0.0 
0.0 0.0 -2.398754234351e-05 
-1.432208171698e-04 2.892878557249e-05 0.0 
2.892878557249e-05 9.478265663156e-04 0.0 
0.0 0.0 -1.437459767248e-04 
-1.740260011077e-04 2.826019241499e-05 0.0 
2.826019241499e-05 1.153801197259e-03 0.0 
0.0 0.0 -1.722084272143e-04 
-8.118601345419e-05 -2.611344377703e-05 0.0 
-2.611344377703e-05 5.279662901466e-04 0.0 
0.0 0.0 -8.139371786675e-05 
-1.500944745800e-04 2.850222383989e-05 0.0 
2.850222383989e-05 9.934228736818e-04 0.0 
0.0 0.0 -1.501054273671e-04 
-7.521111464244e-05 2.846605665054e-05 0.0 
2.846605665054e-05 4.657051250380e-04 0.0 
0.0 0.0 -7.503141475880e-05 
-1.512386812048e-04 -2.992568848289e-05 0.0 
-2.992568848289e-05 1.010913185445e-03 0.0 
0.0 0.0 -1.508421041237e-04 
-1.913679647201e-04 1.633067843082e-05 0.0 
1.633067843082e-05 1.304046368860e-03 0.0 
0.0 0.0 -1.899801870201e-04 
-8.107065812765e-06 2.346749919756e-06 0.0 
2.346749919756e-06 3.465691143960e-05 0.0 
0.0 0.0 -6.768710104396e-06 
-2.012431250738e-04 -5.135354168430e-06 0.0 
-5.135354168430e-06 1.328125823973e-03 0.0 
0.0 0.0 -2.012431250738e-04 
-2.010076978229e-04 5.129027623315e-07 0.0 
5.129027623315e-07 1.332224423205e-03 0.0 
0.0 0.0 -2.010076978229e-04 
-1.200525084162e-04 -2.960169498126e-05 0.0 
-2.960169498126e-05 7.774099100136e-04 0.0 
0.0 0.0 -1.193279669386e-04 
-9.640785059628e-05 -2.657435829226e-05 0.0 
-2.657435829226e-05 6.329376874412e-04 0.0 
0.0 0.0 -9.642369099328e-05 
-1.430993903661e-04 -2.855154632445e-05 0.0 
-2.855154632445e-05 9.576101063938e-04 0.0 
0.0 0.0 -1.431539317715e-04 
-9.069725416876e-05 -2.857026822921e-05 0.0 
-2.857026822921e-05 5.911546440220e-04 0.0 
0.0 0.0 -9.061723822400e-05 
-3.022990634783e-05 -2.681786409130e-05 0.0 
-2.681786409130e-05 1.822763229384e-04 0.0 
0.0 0.0 -3.143827221009e-05 
-2.037753453247e-05 -2.478655429001e-05 0.0 
-2.478655429001e-05 8.790842240506e-05 0.0 
0.0 0.0 -1.801817686168e-05 
-1.836175097671e-04 -2.402430245032e-05 0.0 
-2.402430245032e-05 1.223987652140e-03 0.0 
0.0 0.0 -1.814249121503e-04 
-1.450545934085e-04 -3.153145532631e-05 0.0 
-3.153145532631e-05 9.685145142433e-04 0.0 
0.0 0.0 -1.447226300079e-04 
-1.125869054840e-04 -2.748101964700e-05 0.0 
-2.748101964700e-05 7.294325003239e-04 0.0 
0.0 0.0 -1.083718385576e-04 
-1.962159152819e-04 -1.434651956337e-06 0.0 
-1.434651956337e-06 1.365722808943e-03 0.0 
0.0 0.0 -1.985491694924e-04 
-5.585822177885e-05 -3.143630658045e-05 0.0 
-3.143630658045e-05 3.376755851757e-04 0.0 
0.0 0.0 -5.423556500690e-05 
-2.007881053171e-04 -1.726199718447e-06 0.0 
-1.726199718447e-06 1.364640639189e-03 0.0 
0.0 0.0 -1.987362728011e-04 
-1.448517594688e-04 2.793135192776e-05 0.0 
2.793135192776e-05 9.587643079544e-04 0.0 
0.0 0.0 -1.450563315224e-04 
-9.484276981656e-05 -2.674005154729e-05 0.0 
-2.674005154729e-05 6.234132904817e-04 0.0 
0.0 0.0 -9.504591620249e-05 
-1.382279383007e-04 2.787393037445e-05 0.0 
2.787393037445e-05 9.097739666025e-04 0.0 
0.0 0.0 -1.381945852821e-04 
-9.142868377808e-05 2.725850192794e-05 0.0 
2.725850192794e-05 5.832477346610e-04 0.0 
0.0 0.0 -9.142251929393e-05 
-4.742959093977e-05 3.178494059526e-05 0.0 
3.178494059526e-05 2.793740196453e-04 0.0 
0.0 0.0 -4.740468724644e-05 
-8.571259270612e-05 2.828259101351e-05 0.0 
2.828259101351e-05 5.446684396391e-04 0.0 
0.0 0.0 -8.592027974235e-05 
-1.533744480417e-04 2.894142802439e-05 0.0 
2.894142802439e-05 1.015636410024e-03 0.0 
0.0 0.0 -1.535624635791e-04 
-1.726464644829e-04 -3.048637260420e-05 0.0 
-3.048637260420e-05 1.163840887987e-03 0.0 
0.0 0.0 -1.733086171842e-04 
-9.280503597506e-05 2.727322910805e-05 0.0 
2.727322910805e-05 5.925489514016e-04 0.0 
0.0 0.0 -9.272779504641e-05 
-1.556220947506e-04 2.834035430820e-05 0.0 
2.834035430820e-05 1.030951438499e-03 0.0 
0.0 0.0 -1.554407367389e-04 
0.0 0.0 0.0 
0.0 0.0 0.0 
0.0 0.0 0.0 
-9.414991845574e-05 2.689042394907e-05 0.0 
2.689042394907e-05 6.016400273679e-04 0.0 
0.0 0.0 -9.399423243866e-05 
-1.601427960654e-04 -3.089969489527e-05 0.0 
-3.089969489527e-05 1.075322883485e-03 0.0 
0.0 0.0 -1.599578041173e-04 
-8.403714033751e-05 2.869873894183e-05 0.0 
2.869873894183e-05 5.323289088036e-04 0.0 
0.0 0.0 -8.424104700772e-05 
-7.551475753824e-05 -2.649474593413e-05 0.0 
-2.649474593413e-05 4.894460977115e-04 0.0 
0.0 0.0 -7.579321247091e-05 
-1.378493770478e-04 -2.790966319756e-05 0.0 
-2.790966319756e-05 9.196714216363e-04 0.0 
0.0 0.0 -1.378141772466e-04 
-4.197657932346e-05 3.036843921012e-05 0.0 
3.036843921012e-05 2.488746108878e-04 0.0 
0.0 0.0 -4.469345153978e-05 
-6.356553012414e-05 -1.790556961603e-05 0.0 
-1.790556961603e-05 3.571998655218e-04 0.0 
0.0 0.0 -5.800805537475e-05 
-5.963646489739e-05 -2.697912930355e-05 0.0 
-2.697912930355e-05 4.061213774054e-04 0.0 
0.0 0.0 -6.293882513644e-05 
-7.444587698182e-05 2.773637856154e-05 0.0 
2.773637856154e-05 4.649609944167e-04 0.0 
0.0 0.0 -7.460064588462e-05 
-1.268907598115e-04 -2.860718727315e-05 0.0 
-2.860718727315e-05 8.433503837867e-04 0.0 
0.0 0.0 -1.266626700847e-04 
-1.224386685492e-04 2.875829832121e-05 0.0 
2.875829832121e-05 7.993143987396e-04 0.0 
0.0 0.0 -1.222099179032e-04 
-1.550707846259e-04 -3.021300247570e-05 0.0 
-3.021300247570e-05 1.039277942014e-03 0.0 
0.0 0.0 -1.550846054886e-04 
-1.832450820655e-04 1.991288128733e-05 0.0 
1.991288128733e-05 1.215795306098e-03 0.0 
0.0 0.0 -1.836391296960e-04 
-6.655985465225e-05 1.933551370614e-05 0.0 
1.933551370614e-05 4.236408710896e-04 0.0 
0.0 0.0 -6.856221390244e-05 
-1.539423275274e-04 -3.704467856056e-05 0.0 
-3.704467856056e-05 1.025688764769e-03 0.0 
0.0 0.0 -1.542931291103e-04 
-1.848510975897e-04 1.848398553320e-05 0.0 
1.848398553320e-05 1.219703446086e-03 0.0 
0.0 0.0 -1.842621829813e-04 
-8.571771551762e-05 2.855827741082e-05 0.0 
2.855827741082e-05 5.438756567258e-04 0.0 
0.0 0.0 -8.561402555334e-05 
-3.203347885951e-05 3.153292785458e-05 0.0 
3.153292785458e-05 1.785175093333e-04 0.0 
0.0 0.0 -3.288300492123e-05 
-7.987216545887e-05 -2.346764247849e-05 0.0 
-2.346764247849e-05 5.184929031400e-04 0.0 
0.0 0.0 -7.995251146094e-05 
-1.212808198145e-04 -2.827766812275e-05 0.0 
-2.827766812275e-05 8.042920459384e-04 0.0 
0.0 0.0 -1.212446555230e-04 
-1.571887129407e-04 2.934596798488e-05 0.0 
2.934596798488e-05 1.038696799089e-03 0.0 
0.0 0.0 -1.564536520703e-04 
-1.218972312950e-04 2.856394456649e-05 0.0 
2.856394456649e-05 7.946681320418e-04 0.0 
0.0 0.0 -1.216241541690e-04 
-3.687132775950e-05 -1.707295352198e-05 0.0 
-1.707295352198e-05 2.178919936982e-04 0.0 
0.0 0.0 -3.514573890614e-05 
-1.365304663594e-04 -3.020632721963e-05 0.0 
-3.020632721963e-05 9.106175701847e-04 0.0 
0.0 0.0 -1.364410292409e-04 
-5.340251844815e-05 3.227075763275e-05 0.0 
3.227075763275e-05 3.197704478175e-04 0.0 
0.0 0.0 -5.262769246444e-05 
-1.221027789088e-04 -2.890393133813e-05 0.0 
-2.890393133813e-05 8.084198513028e-04 0.0 
0.0 0.0 -1.218536047623e-04 
-1.315166503229e-04 3.036725150384e-05 0.0 
3.036725150384e-05 8.626782461118e-04 0.0 
0.0 0.0 -1.313414595827e-04 
-1.426434875643e-04 2.845461346825e-05 0.0 
2.845461346825e-05 9.398077750181e-04 0.0 
0.0 0.0 -1.423708775668e-04 
-1.391130870296e-04 -2.561595399108e-05 0.0 
-2.561595399108e-05 9.319163416573e-04 0.0 
0.0 0.0 -1.424111980137e-04 
-7.359597002428e-05 -2.624347751830e-05 0.0 
-2.624347751830e-05 4.769960883137e-04 0.0 
0.0 0.0 -7.400431453448e-05 
-3.726862459375e-05 2.779553031089e-05 0.0 
2.779553031089e-05 2.059200017464e-04 0.0 
0.0 0.0 -3.689331396917e-05 
-1.412883241773e-04 3.117267937368e-05 0.0 
3.117267937368e-05 9.320815795036e-04 0.0 
0.0 0.0 -1.412299401741e-04 
-5.695030605691e-05 2.980577594809e-05 0.0 
2.980577594809e-05 3.524536248651e-04 0.0 
0.0 0.0 -5.785728901387e-05 
-1.619887946569e-05 3.142044942513e-05 0.0 
3.142044942513e-05 6.578946746101e-05 0.0 
0.0 0.0 -1.807788326025e-05 
-1.825504858472e-04 2.573963131551e-05 0.0 
2.573963131551e-05 1.217305172889e-03 0.0 
0.0 0.0 -1.835083836816e-04 
-1.729233565602e-04 2.872122229116e-05 0.0 
2.872122229116e-05 1.159887577617e-03 0.0 
0.0 0.0 -1.736153457326e-04 
-1.409164917213e-05 -2.430425574027e-06 0.0 
-2.430425574027e-06 4.702851798331e-05 0.0 
0.0 0.0 -1.411580091908e-05 
-1.463665932977e-04 -3.126704961804e-05 0.0 
-3.126704961804e-05 9.787427797795e-04 0.0 
0.0 0.0 -1.463746444899e-04 
-5.845062236023e-05 -2.645214861765e-05 0.0 
-2.645214861765e-05 3.686249821293e-04 0.0 
0.0 0.0 -5.830856659963e-05 
-6.281564360845e-05 3.169608016734e-05 0.0 
3.169608016734e-05 3.841253318981e-04 0.0 
0.0 0.0 -6.293782921230e-05 
-1.650668794472e-04 2.900743383490e-05 0.0 
2.900743383490e-05 1.099051719168e-03 0.0 
0.0 0.0 -1.651106757487e-04 
-1.420507125182e-04 -2.816985865578e-05 0.0 
-2.816985865578e-05 9.486624777595e-04 0.0 
0.0 0.0 -1.420128425420e-04 
-1.597126278327e-04 2.832051794153e-05 0.0 
2.832051794153e-05 1.060784632571e-03 0.0 
0.0 0.0 -1.597282110823e-04 
-9.370204679761e-05 -2.720544142818e-05 0.0 
-2.720544142818e-05 6.123683048539e-04 0.0 
0.0 0.0 -9.358332744048e-05 
-1.060009958935e-04 3.119096932655e-06 0.0 
3.119096932655e-06 7.289348751363e-04 0.0 
0.0 0.0 -1.065887642422e-04 
-1.941219239478e-04 -5.797046838501e-06 0.0 
-5.797046838501e-06 1.266619729961e-03 0.0 
0.0 0.0 -1.922307546206e-04 
-5.313245642963e-05 3.042191767076e-05 0.0 
3.042191767076e-05 3.144966903172e-04 0.0 
0.0 0.0 -5.312725273093e-05 
-1.687809558173e-04 -2.631258109430e-05 0.0 
-2.631258109430e-05 1.128223470622e-03 0.0 
0.0 0.0 -1.681832374459e-04 
-1.273764443761e-04 -2.878158037897e-05 0.0 
-2.878158037897e-05 8.455758404914e-04 0.0 
0.0 0.0 -1.271565067773e-04 
-3.822255344261e-05 2.500156110728e-05 0.0 
2.500156110728e-05 2.364164359659e-04 0.0 
0.0 0.0 -4.338531818388e-05 
-1.526166386163e-04 2.805935182056e-05 0.0 
2.805935182056e-05 1.007602313688e-03 0.0 
0.0 0.0 -1.522749921841e-04 
-9.947746693308e-05 2.785738393031e-05 0.0 
2.785738393031e-05 6.395594624911e-04 0.0 
0.0 0.0 -9.942043292989e-05 
-2.527098467302e-05 3.065658406321e-06 0.0 
3.065658406321e-06 1.096951272292e-04 0.0 
0.0 0.0 -2.686452779226e-05 
-8.455323570062e-05 2.729291629105e-05 0.0 
2.729291629105e-05 5.361235094493e-04 0.0 
0.0 0.0 -8.448194383576e-05 
-1.482631539770e-04 2.903868462658e-05 0.0 
2.903868462658e-05 9.945552025979e-04 0.0 
0.0 0.0 -1.487312575846e-04 
-1.536438978435e-04 -2.997531100621e-05 0.0 
-2.997531100621e-05 1.028351940357e-03 0.0 
0.0 0.0 -1.531470540813e-04 
-4.003077281978e-05 -2.830715996030e-05 0.0 
-2.830715996030e-05 2.471369193857e-04 0.0 
0.0 0.0 -4.069786302508e-05 
-1.167976821101e-04 -1.770134624163e-05 0.0 
-1.770134624163e-05 8.139301953201e-04 0.0 
0.0 0.0 -1.211443205810e-04 
-1.611165232338e-04 2.978772478272e-05 0.0 
2.978772478272e-05 1.070172218379e-03 0.0 
0.0 0.0 -1.607673801326e-04 
-1.654344347163e-04 -2.702413096073e-05 0.0 
-2.702413096073e-05 1.117079121565e-03 0.0 
0.0 0.0 -1.664840065771e-04 
-8.012874751740e-05 2.708679385402e-05 0.0 
2.708679385402e-05 5.044541792441e-04 0.0 
0.0 0.0 -8.027607217676e-05 
-6.457567760665e-05 2.897485867730e-05 0.0 
2.897485867730e-05 3.931630492274e-04 0.0 
0.0 0.0 -6.500901228657e-05 
-1.319964825975e-04 2.994843719676e-05 0.0 
2.994843719676e-05 8.668112520758e-04 0.0 
0.0 0.0 -1.317940137408e-04 
-1.379973298544e-04 -3.231272729127e-05 0.0 
-3.231272729127e-05 9.176099760799e-04 0.0 
0.0 0.0 -1.391846276019e-04 
-2.511391392826e-05 -2.252014201736e-06 0.0 
-2.252014201736e-06 1.091572524748e-04 0.0 
0.0 0.0 -2.644390370036e-05 
-1.911173997413e-04 2.513512913459e-07 0.0 
2.513512913459e-07 1.307038771946e-03 0.0 
0.0 0.0 -1.903768894597e-04 
-1.947762233824e-04 2.804254327122e-06 0.0 
2.804254327122e-06 1.266513292292e-03 0.0 
0.0 0.0 -1.921796786394e-04 
-1.243941132727e-04 -2.875762744524e-05 0.0 
-2.875762744524e-05 8.122420463557e-04 0.0 
0.0 0.0 -1.258162180156e-04 
-1.867429468804e-04 -3.423015533406e-05 0.0 
-3.423015533406e-05 1.277419804644e-03 0.0 
0.0 0.0 -1.882556412575e-04 
-1.928393192665e-04 1.313739391776e-05 0.0 
1.313739391776e-05 1.270533835261e-03 0.0 
0.0 0.0 -1.928249870753e-04 
-9.825942552837e-05 2.769137061349e-05 0.0 
2.769137061349e-05 6.308847079493e-04 0.0 
0.0 0.0 -9.814123251156e-05 
-9.240950567659e-05 -2.688842748606e-05 0.0 
-2.688842748606e-05 6.034653479681e-04 0.0 
0.0 0.0 -9.230175702903e-05 
-1.924550016248e-04 -5.517505549700e-06 0.0 
-5.517505549700e-06 1.309202189480e-03 0.0 
0.0 0.0 -1.898303498781e-04 
0.0 0.0 0.0 
0.0 0.0 0.0 
0.0 0.0 0.0 
-5.986600181462e-05 3.134474346182e-05 0.0 
3.134474346182e-05 3.637594613067e-04 0.0 
0.0 0.0 -5.912561730725e-05 
-1.277191406744e-04 3.185114804781e-05 0.0 
3.185114804781e-05 8.113680378929e-04 0.0 
0.0 0.0 -1.249421346972e-04 
-7.954199844612e-05 -2.599168722282e-05 0.0 
-2.599168722282e-05 5.172406604270e-04 0.0 
0.0 0.0 -7.970319495692e-05 
-8.344577563047e-05 2.767374510833e-05 0.0 
2.767374510833e-05 5.269368746357e-04 0.0 
0.0 0.0 -8.320397106721e-05 
-5.123352415357e-05 -1.962082412885e-05 0.0 
-1.962082412885e-05 2.833973025222e-04 0.0 
0.0 0.0 -4.794777681703e-05 
-5.363517740645e-05 -2.722736862369e-05 0.0 
-2.722736862369e-05 3.397176592673e-04 0.0 
0.0 0.0 -5.292094912726e-05 
-1.229699465830e-04 -2.474218581881e-05 0.0 
-2.474218581881e-05 8.338820409090e-04 0.0 
0.0 0.0 -1.243503989146e-04 
-8.954054874187e-05 -2.810899154469e-05 0.0 
-2.810899154469e-05 5.833404363378e-04 0.0 
0.0 0.0 -8.944382273678e-05 
-6.985122537492e-05 2.547846832151e-05 0.0 
2.547846832151e-05 4.232868362094e-04 0.0 
0.0 0.0 -6.875210277632e-05 
-1.622986423916e-04 3.030474729067e-05 0.0 
3.030474729067e-05 1.075790270672e-03 0.0 
0.0 0.0 -1.616748170441e-04 
-1.970457297167e-04 -4.615350947610e-07 0.0 
-4.615350947610e-07 1.365353191212e-03 0.0 
0.0 0.0 -1.987468137814e-04 
-2.011643228250e-04 -1.059779547839e-05 0.0 
-1.059779547839e-05 1.364052595584e-03 0.0 
0.0 0.0 -1.980937377599e-04 
-9.693254618166e-05 2.783443467965e-05 0.0 
2.783443467965e-05 6.218009159431e-04 0.0 
0.0 0.0 -9.686140561256e-05 
-1.156312054849e-04 1.562675777246e-05 0.0 
1.562675777246e-05 7.473137010807e-04 0.0 
0.0 0.0 -1.181631233816e-04 
-1.315446083417e-05 9.267234980748e-06 0.0 
9.267234980748e-06 7.174483292748e-05 0.0 
0.0 0.0 -1.382283957119e-05 
-3.950432290439e-05 -3.304652588177e-05 0.0 
-3.304652588177e-05 2.232498512061e-04 0.0 
0.0 0.0 -3.848526569788e-05 
-4.026754611448e-05 -1.523950676683e-05 0.0 
-1.523950676683e-05 2.585395099571e-04 0.0 
0.0 0.0 -4.089435477168e-05 
-4.405717477573e-05 -2.840252196370e-05 0.0 
-2.840252196370e-05 2.593828358352e-04 0.0 
0.0 0.0 -4.353896887732e-05 
-1.369891124347e-04 -2.938640967182e-05 0.0 
-2.938640967182e-05 9.110848461242e-04 0.0 
0.0 0.0 -1.367406709454e-04 
-8.197230901988e-05 2.741985235272e-05 0.0 
2.741985235272e-05 5.176025942286e-04 0.0 
0.0 0.0 -8.189493801327e-05 
-8.833783776842e-05 -2.742859021068e-05 0.0 
-2.742859021068e-05 5.752104247670e-04 0.0 
0.0 0.0 -8.819787836180e-05 
-2.759805077317e-05 -2.177954618106e-05 0.0 
-2.177954618106e-05 1.516326812049e-04 0.0 
0.0 0.0 -2.410601229523e-05 
-1.783949706295e-04 4.652042299768e-06 0.0 
4.652042299768e-06 1.155328432911e-03 0.0 
0.0 0.0 -1.764490618968e-04 
-8.697929300319e-05 -2.712992243026e-05 0.0 
-2.712992243026e-05 5.660070619168e-04 0.0 
0.0 0.0 -8.689161518363e-05 
-1.811862770176e-04 2.958422209347e-05 0.0 
2.958422209347e-05 1.212546250600e-03 0.0 
0.0 0.0 -1.819436774484e-04 
-1.654326848783e-04 -2.150075195991e-05 0.0 
-2.150075195991e-05 1.111682717818e-03 0.0 
0.0 0.0 -1.676190675002e-04 
-1.990579489887e-04 7.558524711792e-06 0.0 
7.558524711792e-06 1.367618541641e-03 0.0 
0.0 0.0 -1.979127976728e-04 
-1.984740657803e-04 6.169813976071e-06 0.0 
6.169813976071e-06 1.366684838106e-03 0.0 
0.0 0.0 -1.987274449783e-04 
-1.264382104229e-04 2.327908082404e-05 0.0 
2.327908082404e-05 8.335131054815e-04 0.0 
0.0 0.0 -1.247270797671e-04 
-9.081273998971e-05 -2.642393334738e-05 0.0 
-2.642393334738e-05 5.943836386239e-04 0.0 
0.0 0.0 -9.095240399918e-05 
-5.659837629473e-05 2.310276724227e-05 0.0 
2.310276724227e-05 3.554825826269e-04 0.0 
0.0 0.0 -5.827376162698e-05 
-9.543789626242e-05 2.821234483008e-05 0.0 
2.821234483008e-05 6.121934733358e-04 0.0 
0.0 0.0 -9.551854370315e-05 
-2.014992525440e-04 -3.363348043908e-06 0.0 
-3.363348043908e-06 1.330768717372e-03 0.0 
0.0 0.0 -2.014992525440e-04 
-2.911856940717e-05 -3.120254985375e-05 0.0 
-3.120254985375e-05 1.523266154115e-04 0.0 
0.0 0.0 -2.840051313461e-05 
-3.367815072839e-05 -2.539476975202e-05 0.0 
-2.539476975202e-05 1.888854888445e-04 0.0 
0.0 0.0 -3.342821812567e-05 
-1.750673059660e-04 -2.242675268741e-05 0.0 
-2.242675268741e-05 1.168754862597e-03 0.0 
0.0 0.0 -1.734041932760e-04 
-1.140629508000e-04 1.641024004697e-06 0.0 
1.641024004697e-06 7.886218254393e-04 0.0 
0.0 0.0 -1.157284414847e-04 
-1.828276393895e-04 3.087967014604e-05 0.0 
3.087967014604e-05 1.221678860241e-03 0.0 
0.0 0.0 -1.828919613360e-04 
-1.607219730026e-04 -3.054484747269e-05 0.0 
-3.054484747269e-05 1.076626864861e-03 0.0 
0.0 0.0 -1.604417944905e-04 
-1.759974315114e-04 2.950983775753e-05 0.0 
2.950983775753e-05 1.175337678647e-03 0.0 
0.0 0.0 -1.762554578086e-04 
-1.677687622884e-04 -3.310916950601e-05 0.0 
-3.310916950601e-05 1.126220187005e-03 0.0 
0.0 0.0 -1.670365378361e-04 
-1.261810872000e-04 2.733892666963e-05 0.0 
2.733892666963e-05 8.227216474371e-04 0.0 
0.0 0.0 -1.281412631256e-04 
-6.984160407426e-05 -2.569852845702e-05 0.0 
-2.569852845702e-05 4.502664572317e-04 0.0 
0.0 0.0 -7.011576570921e-05 
-7.045526019658e-05 2.772076042237e-05 0.0 
2.772076042237e-05 4.380896674180e-04 0.0 
0.0 0.0 -7.073545507566e-05 
-1.466548664850e-04 2.792940741624e-05 0.0 
2.792940741624e-05 9.823660011168e-04 0.0 
0.0 0.0 -1.494458990106e-04 
-1.706023771645e-04 -3.477697252798e-05 0.0 
-3.477697252798e-05 1.150206027511e-03 0.0 
0.0 0.0 -1.713759566437e-04 
-1.085001106667e-04 5.928666841059e-06 0.0 
5.928666841059e-06 6.853690661460e-04 0.0 
0.0 0.0 -1.101783339608e-04 
-1.150649004483e-04 1.412858253897e-06 0.0 
1.412858253897e-06 7.864362268725e-04 0.0 
0.0 0.0 -1.151410349708e-04 
-1.223216217609e-04 -9.643435354381e-06 0.0 
-9.643435354381e-06 8.365929199838e-04 0.0 
0.0 0.0 -1.236345454383e-04 
-1.294729616351e-04 -3.600365409418e-05 0.0 
-3.600365409418e-05 8.499666954327e-04 0.0 
0.0 0.0 -1.270110218628e-04 
-3.781341392471e-05 2.507622857635e-05 0.0 
2.507622857635e-05 2.052845259731e-04 0.0 
0.0 0.0 -3.595854163006e-05 
-6.458682171984e-05 2.659164458955e-05 0.0 
2.659164458955e-05 3.972184272214e-04 0.0 
0.0 0.0 -6.502768632134e-05 
-1.923886982600e-04 1.320998767323e-05 0.0 
1.320998767323e-05 1.306937799646e-03 0.0 
0.0 0.0 -1.903965550180e-04 
-1.361980047059e-04 -3.247265742576e-05 0.0 
-3.247265742576e-05 9.100748945017e-04 0.0 
0.0 0.0 -1.372586556570e-04 
-1.944603101426e-04 2.205610195430e-05 0.0 
2.205610195430e-05 1.300606094326e-03 0.0 
0.0 0.0 -1.942983085767e-04 
-1.827075834453e-04 -2.487186144062e-05 0.0 
-2.487186144062e-05 1.245028194062e-03 0.0 
0.0 0.0 -1.823366321910e-04 
-1.526241956249e-04 -2.882515710348e-05 0.0 
-2.882515710348e-05 1.018355065020e-03 0.0 
0.0 0.0 -1.518848343264e-04 
-1.838055376607e-04 -2.220867482896e-05 0.0 
-2.220867482896e-05 1.227930453973e-03 0.0 
0.0 0.0 -1.822360600334e-04 
-9.189141723329e-05 2.249896247985e-05 0.0 
2.249896247985e-05 5.929179490977e-04 0.0 
0.0 0.0 -9.456744988920e-05 
-8.923687427635e-05 2.330452976089e-05 0.0 
2.330452976089e-05 5.640846174988e-04 0.0 
0.0 0.0 -8.500284120953e-05 
-1.860377161479e-04 2.101899850403e-05 0.0 
2.101899850403e-05 1.219211786622e-03 0.0 
0.0 0.0 -1.840276857211e-04 
-1.302266885565e-05 9.542950408396e-06 0.0 
9.542950408396e-06 4.432884133333e-05 0.0 
0.0 0.0 -1.341693106186e-05 
-5.991703112053e-05 -9.650650547908e-06 0.0 
-9.650650547908e-06 3.995700475142e-04 0.0 
0.0 0.0 -6.107461134110e-05 
-2.013608632250e-04 -1.747935064146e-06 0.0 
-1.747935064146e-06 1.327091793787e-03 0.0 
0.0 0.0 -2.013608632250e-04 
-3.423275746667e-05 -2.897869870394e-05 0.0 
-2.897869870394e-05 1.741934079208e-04 0.0 
0.0 0.0 -3.398704224317e-05 
-1.166987184465e-04 3.376260708005e-06 0.0 
3.376260708005e-06 7.464150060637e-04 0.0 
0.0 0.0 -1.180517715949e-04 
-1.852951862543e-04 -6.895901531864e-06 0.0 
-6.895901531864e-06 1.252882415007e-03 0.0 
0.0 0.0 -1.820192905179e-04 
-2.189567273794e-05 2.107266617838e-05 0.0 
2.107266617838e-05 1.234442803628e-04 0.0 
0.0 0.0 -2.343543478003e-05 
-1.465373239062e-05 -6.700273643796e-06 0.0 
-6.700273643796e-06 8.151640789741e-05 0.0 
0.0 0.0 -1.499806864391e-05 
-1.979646109231e-04 -1.647947049056e-05 0.0 
-1.647947049056e-05 1.362929175419e-03 0.0 
0.0 0.0 -1.986584787576e-04 
-1.077110760694e-04 1.347870292468e-05 0.0 
1.347870292468e-05 6.884288505410e-04 0.0 
0.0 0.0 -1.094181415373e-04 
-1.878064882795e-04 3.303246132633e-05 0.0 
3.303246132633e-05 1.280874072015e-03 0.0 
0.0 0.0 -1.892127523904e-04 
-1.872574646803e-04 1.669387870556e-06 0.0 
1.669387870556e-06 1.214710811889e-03 0.0 
0.0 0.0 -1.847787516803e-04 
-1.081384153803e-04 -8.265982315710e-06 0.0 
-8.265982315710e-06 6.863175329085e-04 0.0 
0.0 0.0 -1.093391956339e-04 
-1.183108474329e-05 -1.526745450730e-06 0.0 
-1.526745450730e-06 8.288041116295e-05 0.0 
0.0 0.0 -1.461037633882e-05 
-1.928461778371e-04 -1.450363078147e-05 0.0 
-1.450363078147e-05 1.269631515360e-03 0.0 
0.0 0.0 -1.926211076318e-04 
-3.664328028393e-05 -3.474192895717e-05 0.0 
-3.474192895717e-05 2.008554549357e-04 0.0 
0.0 0.0 -3.650318340572e-05 
-1.865092181227e-04 1.872239000524e-05 0.0 
1.872239000524e-05 1.228864859043e-03 0.0 
0.0 0.0 -1.848276476440e-04 
-2.014642658289e-04 -8.318866801380e-08 0.0 
-8.318866801380e-08 1.329164711416e-03 0.0 
0.0 0.0 -2.014642658289e-04 
-1.863725232052e-04 -2.215017484820e-05 0.0 
-2.215017484820e-05 1.224672282405e-03 0.0 
0.0 0.0 -1.838550531888e-04 
-4.579760219593e-05 2.993393437161e-05 0.0 
2.993393437161e-05 2.630911927245e-04 0.0 
0.0 0.0 -4.567146191493e-05 
-1.231376912533e-04 3.302421736628e-06 0.0 
3.302421736628e-06 8.455036824614e-04 0.0 
0.0 0.0 -1.241871602230e-04 
-9.897320674459e-05 -1.982042870943e-05 0.0 
-1.982042870943e-05 6.300759750379e-04 0.0 
0.0 0.0 -9.407984802336e-05 
-1.609514246157e-04 -3.024200816091e-05 0.0 
-3.024200816091e-05 1.078541844928e-03 0.0 
0.0 0.0 -1.616399041023e-04 
-1.984206323310e-04 -1.383870975889e-05 0.0 
-1.383870975889e-05 1.364918109129e-03 0.0 
0.0 0.0 -1.990496603105e-04 
-1.603101285724e-04 1.893623053607e-05 0.0 
1.893623053607e-05 1.069942872822e-03 0.0 
0.0 0.0 -1.592422372747e-04 
-2.006038303863e-04 1.656223959945e-05 0.0 
1.656223959945e-05 1.363483438763e-03 0.0 
0.0 0.0 -1.988805961512e-04 
-2.157799468526e-05 2.675018284335e-05 0.0 
2.675018284335e-05 1.121671203490e-04 0.0 
0.0 0.0 -2.573693149021e-05 
-1.906849838871e-04 -1.873571465641e-05 0.0 
-1.873571465641e-05 1.306053010621e-03 0.0 
0.0 0.0 -1.916484765783e-04 
-5.146266627946e-05 1.897216913104e-05 0.0 
1.897216913104e-05 3.060778228498e-04 0.0 
0.0 0.0 -5.033941334868e-05 
-3.400990015803e-05 1.312678026193e-05 0.0 
1.312678026193e-05 1.676110055634e-04 0.0 
0.0 0.0 -3.447177322316e-05 
-1.921352674404e-04 -1.514543928923e-05 0.0 
-1.514543928923e-05 1.307880338866e-03 0.0 
0.0 0.0 -1.905503066306e-04 
-1.903818942750e-04 -8.555148187785e-06 0.0 
-8.555148187785e-06 1.309224873111e-03 0.0 
0.0 0.0 -1.905905039252e-04 
-1.935313273260e-04 -2.488564283104e-05 0.0 
-2.488564283104e-05 1.299799287321e-03 0.0 
0.0 0.0 -1.934776258129e-04 
-1.157635836836e-04 3.075917002700e-05 0.0 
3.075917002700e-05 7.564878727472e-04 0.0 
0.0 0.0 -1.164394980702e-04 
-1.278320406392e-04 3.003959765809e-05 0.0 
3.003959765809e-05 8.242995150328e-04 0.0 
0.0 0.0 -1.273429404365e-04 
-4.747607610046e-05 -3.167630139555e-05 0.0 
-3.167630139555e-05 2.832612339686e-04 0.0 
0.0 0.0 -4.701750159920e-05 
-1.893682873149e-04 -1.213845527048e-05 0.0 
-1.213845527048e-05 1.308095530746e-03 0.0 
0.0 0.0 -1.909562210215e-04 
-7.758444785249e-05 2.579970670889e-05 0.0 
2.579970670889e-05 5.061981746731e-04 0.0 
0.0 0.0 -8.036225567980e-05 
-2.672886924063e-05 -2.537961056617e-05 0.0 
-2.537961056617e-05 1.614624818245e-04 0.0 
0.0 0.0 -3.171414542872e-05 
-1.655918154031e-04 2.787053237580e-05 0.0 
2.787053237580e-05 1.112934476303e-03 0.0 
0.0 0.0 -1.665212293607e-04 
-1.050972551552e-04 -3.025884205917e-06 0.0 
-3.025884205917e-06 7.225874036591e-04 0.0 
0.0 0.0 -1.064449299410e-04 
-1.855125743211e-04 2.284061724598e-05 0.0 
2.284061724598e-05 1.238197266214e-03 0.0 
0.0 0.0 -1.856594579394e-04 
-1.969980593816e-04 -2.792765841710e-05 0.0 
-2.792765841710e-05 1.348466243731e-03 0.0 
0.0 0.0 -1.982264973081e-04 
-2.015598306414e-04 -1.228437926459e-06 0.0 
-1.228437926459e-06 1.329727235481e-03 0.0 
0.0 0.0 -2.015598306414e-04 
-3.170965654814e-06 -9.174846607934e-06 0.0 
-9.174846607934e-06 3.186703010945e-05 0.0 
0.0 0.0 -6.440169358563e-06 
-2.054361880700e-06 8.524325078712e-06 0.0 
8.524325078712e-06 1.000738199139e-05 0.0 
0.0 0.0 -3.408437190294e-06 
-1.090415563488e-04 -2.544674541070e-05 0.0 
-2.544674541070e-05 7.025551525996e-04 0.0 
0.0 0.0 -1.097735026919e-04 
-1.102790978540e-04 4.096896239264e-06 0.0 
4.096896239264e-06 7.242490524547e-04 0.0 
0.0 0.0 -1.064401693586e-04 
-2.015598306414e-04 1.769844580753e-06 0.0 
1.769844580753e-06 1.328559462674e-03 0.0 
0.0 0.0 -2.015598306414e-04 
-1.964566527274e-04 2.745948387429e-05 0.0 
2.745948387429e-05 1.347766645467e-03 0.0 
0.0 0.0 -1.982264973081e-04 
-1.175853557175e-05 2.296138750723e-05 0.0 
2.296138750723e-05 7.476526502358e-05 0.0 
0.0 0.0 -1.468179278604e-05 
0.0 0.0 0.0 
0.0 0.0 0.0 
0.0 0.0 0.0 
-1.860643112087e-04 1.892522092608e-05 0.0 
1.892522092608e-05 1.220604956089e-03 0.0 
0.0 0.0 -1.845272605536e-04 
-1.810613338557e-04 3.690531828789e-05 0.0 
3.690531828789e-05 1.227609320804e-03 0.0 
0.0 0.0 -1.814046177210e-04 
-3.775454928550e-05 -2.192142162525e-05 0.0 
-2.192142162525e-05 2.530653962175e-04 0.0 
0.0 0.0 -4.069012186385e-05 
-1.867893258397e-04 -1.967907292950e-05 0.0 
-1.967907292950e-05 1.242445273872e-03 0.0 
0.0 0.0 -1.860287822001e-04 
-1.322273957044e-04 -7.821980177849e-06 0.0 
-7.821980177849e-06 8.613081851453e-04 0.0 
0.0 0.0 -1.333256398531e-04 
-1.174513720599e-04 -2.922099993004e-05 0.0 
-2.922099993004e-05 7.623791286875e-04 0.0 
0.0 0.0 -1.141619444601e-04 
-1.434157263431e-04 1.469820453960e-05 0.0 
1.469820453960e-05 9.640681819544e-04 0.0 
0.0 0.0 -1.410117391569e-04 
-3.721642999109e-05 2.244542666226e-05 0.0 
2.244542666226e-05 2.273693429633e-04 0.0 
0.0 0.0 -3.939304728150e-05 
-1.516361842959e-04 -3.045658684071e-05 0.0 
-3.045658684071e-05 1.014390478774e-03 0.0 
0.0 0.0 -1.517486197524e-04 
-3.145165589743e-05 4.872235620209e-06 0.0 
4.872235620209e-06 2.090450929269e-04 0.0 
0.0 0.0 -3.272226055558e-05 
-1.018895751593e-04 -2.838951770175e-05 0.0 
-2.838951770175e-05 6.787429923759e-04 0.0 
0.0 0.0 -1.049612269729e-04 
-1.842198203986e-04 1.688848171670e-05 0.0 
1.688848171670e-05 1.232258602772e-03 0.0 
0.0 0.0 -1.860778644041e-04 
-1.784559347742e-04 -3.196727202869e-05 0.0 
-3.196727202869e-05 1.203750059331e-03 0.0 
0.0 0.0 -1.787589168632e-04 
-1.106507503052e-04 1.655731803460e-05 0.0 
1.655731803460e-05 7.326885674445e-04 0.0 
0.0 0.0 -1.153641303439e-04 
-1.319245288081e-04 -2.759428203750e-05 0.0 
-2.759428203750e-05 8.842042796758e-04 0.0 
0.0 0.0 -1.311848925397e-04 
-1.849952147230e-04 1.224005731978e-05 0.0 
1.224005731978e-05 1.253709795229e-03 0.0 
0.0 0.0 -1.825679017964e-04 
-1.712361580956e-04 -3.249029055204e-05 0.0 
-3.249029055204e-05 1.152848638026e-03 0.0 
0.0 0.0 -1.711417214974e-04 
-1.621790656513e-04 -3.130066982025e-05 0.0 
-3.130066982025e-05 1.085309995837e-03 0.0 
0.0 0.0 -1.614640498619e-04 
-1.095991344629e-04 1.548110486480e-06 0.0 
1.548110486480e-06 6.849847840864e-04 0.0 
0.0 0.0 -1.096818516252e-04 
-1.466797614329e-04 -3.177988380746e-05 0.0 
-3.177988380746e-05 9.793946946612e-04 0.0 
0.0 0.0 -1.464567251102e-04 
-1.856217654582e-04 1.836261976242e-05 0.0 
1.836261976242e-05 1.223913084915e-03 0.0 
0.0 0.0 -1.847107394661e-04 
-6.401317792094e-05 1.777757210555e-05 0.0 
1.777757210555e-05 3.770292953028e-04 0.0 
0.0 0.0 -6.251951766002e-05 
-1.488249501970e-05 -6.661613433420e-06 0.0 
-6.661613433420e-06 9.049355169821e-05 0.0 
0.0 0.0 -1.522736731176e-05 
-1.794781203063e-04 -2.177148621612e-05 0.0 
-2.177148621612e-05 1.190948333360e-03 0.0 
0.0 0.0 -1.778962838413e-04 
-1.689754393540e-04 2.666341982877e-05 0.0 
2.666341982877e-05 1.121590302909e-03 0.0 
0.0 0.0 -1.685307334786e-04 
-3.117516894872e-05 -1.620379493923e-05 0.0 
-1.620379493923e-05 1.675088401558e-04 0.0 
0.0 0.0 -3.460570515138e-05 
-1.490209525484e-04 -2.398959439852e-05 0.0 
-2.398959439852e-05 1.009624786866e-03 0.0 
0.0 0.0 -1.484000725648e-04 
-1.941728230886e-04 -6.317229650202e-06 0.0 
-6.317229650202e-06 1.268109449836e-03 0.0 
0.0 0.0 -1.924109378829e-04 
-1.782640686020e-04 1.811418483105e-05 0.0 
1.811418483105e-05 1.176788769021e-03 0.0 
0.0 0.0 -1.773110165667e-04 
-1.844275111855e-04 -4.383617168843e-06 0.0 
-4.383617168843e-06 1.252791151838e-03 0.0 
0.0 0.0 -1.822694409164e-04 
-1.426350801095e-04 -3.166405234979e-05 0.0 
-3.166405234979e-05 9.429700556337e-04 0.0 
0.0 0.0 -1.430568974379e-04 
-1.367048638434e-05 7.547793984128e-06 0.0 
7.547793984128e-06 4.809613176051e-05 0.0 
0.0 0.0 -1.475384801836e-05 
-4.817205637438e-05 1.518979907033e-05 0.0 
1.518979907033e-05 2.815959802160e-04 0.0 
0.0 0.0 -4.818665537949e-05 
-5.802518359896e-05 -3.237118775929e-05 0.0 
-3.237118775929e-05 3.560287674836e-04 0.0 
0.0 0.0 -5.751524148975e-05 
-1.222811217371e-04 4.923148903369e-06 0.0 
4.923148903369e-06 8.049151145100e-04 0.0 
0.0 0.0 -1.270714490912e-04 
-1.466466955193e-04 3.242901086422e-05 0.0 
3.242901086422e-05 9.717833108994e-04 0.0 
0.0 0.0 -1.467240436239e-04 
-1.865030099579e-04 -2.458316919408e-05 0.0 
-2.458316919408e-05 1.244081238438e-03 0.0 
0.0 0.0 -1.854811886535e-04 
-1.924470582108e-04 1.025180310993e-05 0.0 
1.025180310993e-05 1.267008412016e-03 0.0 
0.0 0.0 -1.923487814140e-04 
-2.301609062590e-05 -4.635179033559e-06 0.0 
-4.635179033559e-06 1.491120452597e-04 0.0 
0.0 0.0 -2.371590567936e-05 
-2.273962015617e-05 8.021387614827e-06 0.0 
8.021387614827e-06 1.424948937247e-04 0.0 
0.0 0.0 -2.307420961409e-05 
-3.644996023323e-05 3.054667220110e-05 0.0 
3.054667220110e-05 2.219148594571e-04 0.0 
0.0 0.0 -3.877784743978e-05 
-1.505507532998e-04 4.198429125548e-05 0.0 
4.198429125548e-05 1.006744199268e-03 0.0 
0.0 0.0 -1.528863196834e-04 
-7.623962459717e-05 -2.731195048099e-05 0.0 
-2.731195048099e-05 4.837899918121e-04 0.0 
0.0 0.0 -7.429924588525e-05 
-1.863524508622e-04 -2.262089027383e-05 0.0 
-2.262089027383e-05 1.249803366509e-03 0.0 
0.0 0.0 -1.861947641336e-04 
-3.704741075814e-05 -2.601020683146e-05 0.0 
-2.601020683146e-05 2.394628484622e-04 0.0 
0.0 0.0 -3.935861431135e-05 
-1.838103394031e-04 1.452656825211e-05 0.0 
1.452656825211e-05 1.213648829434e-03 0.0 
0.0 0.0 -1.831728902790e-04 
-1.220456595190e-04 2.683931147050e-05 0.0 
2.683931147050e-05 8.169008266022e-04 0.0 
0.0 0.0 -1.251559851210e-04 
-1.901741937142e-04 2.069168076262e-07 0.0 
2.069168076262e-07 1.274360012601e-03 0.0 
0.0 0.0 -1.930223408588e-04 
-1.664726505804e-04 -3.515055495158e-05 0.0 
-3.515055495158e-05 1.122391429995e-03 0.0 
0.0 0.0 -1.666682952710e-04 
-1.230362842828e-04 -1.324599728564e-05 0.0 
-1.324599728564e-05 8.068584181325e-04 0.0 
0.0 0.0 -1.269771275557e-04 
-1.906319308292e-04 -7.278184392237e-06 0.0 
-7.278184392237e-06 1.308928167031e-03 0.0 
0.0 0.0 -1.903713883127e-04 
-1.924018578301e-04 1.168444968946e-05 0.0 
1.168444968946e-05 1.309753043894e-03 0.0 
0.0 0.0 -1.909090898364e-04 
-1.885954729481e-04 9.336154218136e-06 0.0 
9.336154218136e-06 1.306961112302e-03 0.0 
0.0 0.0 -1.907009018511e-04 
-2.601124528020e-05 2.982465109596e-05 0.0 
2.982465109596e-05 1.494137909599e-04 0.0 
0.0 0.0 -2.872079986757e-05 
-1.827342744304e-04 2.617845691474e-05 0.0 
2.617845691474e-05 1.218950538624e-03 0.0 
0.0 0.0 -1.827464329712e-04 
-1.931535913243e-04 4.402691257463e-06 0.0 
4.402691257463e-06 1.267632643707e-03 0.0 
0.0 0.0 -1.929967939697e-04 
-1.822938180469e-04 -1.572479834584e-05 0.0 
-1.572479834584e-05 1.239626265032e-03 0.0 
0.0 0.0 -1.817603729293e-04 
-1.697190279031e-04 3.374893720717e-05 0.0 
3.374893720717e-05 1.140711286613e-03 0.0 
0.0 0.0 -1.714881096122e-04 
-2.013997750954e-04 3.693939357452e-06 0.0 
3.693939357452e-06 1.326398449399e-03 0.0 
0.0 0.0 -2.013997750954e-04 
-1.623768653750e-04 3.145458215279e-05 0.0 
3.145458215279e-05 1.075477552169e-03 0.0 
0.0 0.0 -1.618597882954e-04 
0.0 0.0 0.0 
0.0 0.0 0.0 
0.0 0.0 0.0 
-3.901664739789e-05 -3.107536671977e-05 0.0 
-3.107536671977e-05 2.123759730741e-04 0.0 
0.0 0.0 -3.635714225545e-05 
-1.788762468223e-04 -2.668815126997e-05 0.0 
-2.668815126997e-05 1.194169313249e-03 0.0 
0.0 0.0 -1.765404546707e-04 
-1.302843948315e-04 2.373413498694e-05 0.0 
2.373413498694e-05 8.753673031711e-04 0.0 
0.0 0.0 -1.332692038199e-04 
-1.814833852286e-04 -2.932987962222e-05 0.0 
-2.932987962222e-05 1.228315456518e-03 0.0 
0.0 0.0 -1.832991189648e-04 
-1.755755594055e-04 -3.314975176265e-05 0.0 
-3.314975176265e-05 1.186338389567e-03 0.0 
0.0 0.0 -1.765514316642e-04 
-1.922058959132e-04 -7.323986232709e-06 0.0 
-7.323986232709e-06 1.275540875639e-03 0.0 
0.0 0.0 -1.938374750990e-04 
-1.590886801341e-04 3.535348640505e-05 0.0 
3.535348640505e-05 1.086454937064e-03 0.0 
0.0 0.0 -1.628282188246e-04 
-1.943136192193e-04 -2.017280466188e-06 0.0 
-2.017280466188e-06 1.274660348820e-03 0.0 
0.0 0.0 -1.933460184500e-04 
-1.860409899402e-04 -2.465939863213e-05 0.0 
-2.465939863213e-05 1.243243537266e-03 0.0 
0.0 0.0 -1.849983659001e-04 
-1.854493454621e-04 2.521523578023e-05 0.0 
2.521523578023e-05 1.237363143253e-03 0.0 
0.0 0.0 -1.852565349593e-04 
-7.800610219477e-05 -1.750136496523e-05 0.0 
-1.750136496523e-05 5.077823231346e-04 0.0 
0.0 0.0 -7.657446018549e-05 
-1.940082963474e-04 -3.011324743449e-06 0.0 
-3.011324743449e-06 1.367135927910e-03 0.0 
0.0 0.0 -1.988462912301e-04 
-1.122847898646e-04 2.150658952302e-06 0.0 
2.150658952302e-06 7.831127334676e-04 0.0 
0.0 0.0 -1.149322996356e-04 
-1.805030425337e-04 -2.769681372488e-05 0.0 
-2.769681372488e-05 1.229209747324e-03 0.0 
0.0 0.0 -1.826109592864e-04 
-2.210772205688e-05 -1.141237861015e-05 0.0 
-1.141237861015e-05 1.058730840806e-04 0.0 
0.0 0.0 -2.642964691976e-05 
-1.709643782764e-04 -1.864471641412e-05 0.0 
-1.864471641412e-05 1.187155150464e-03 0.0 
0.0 0.0 -1.744803730939e-04 
-1.477070854664e-04 -4.391729024467e-06 0.0 
-4.391729024467e-06 1.020449993757e-03 0.0 
0.0 0.0 -1.488920056885e-04 
-2.536340853786e-05 -1.617904342885e-05 0.0 
-1.617904342885e-05 1.410312003150e-04 0.0 
0.0 0.0 -2.442930455436e-05 
-4.478297823031e-05 -3.360325145203e-05 0.0 
-3.360325145203e-05 2.463363294936e-04 0.0 
0.0 0.0 -4.105386472454e-05 
-1.667572652522e-04 3.269260421942e-05 0.0 
3.269260421942e-05 1.106671823298e-03 0.0 
0.0 0.0 -1.661371793467e-04 
-1.939345119211e-04 -2.917973958076e-06 0.0 
-2.917973958076e-06 1.271284650607e-03 0.0 
0.0 0.0 -1.928053293992e-04 
-1.848839491830e-04 -2.511864242369e-05 0.0 
-2.511864242369e-05 1.245193806993e-03 0.0 
0.0 0.0 -1.835875952628e-04 
-1.881692614413e-04 3.512850772842e-05 0.0 
3.512850772842e-05 1.283926120996e-03 0.0 
0.0 0.0 -1.897169183402e-04 
-1.319951739136e-04 3.692265338647e-05 0.0 
3.692265338647e-05 8.669086104393e-04 0.0 
0.0 0.0 -1.321134885410e-04 
-1.418897775030e-05 -1.383603751222e-06 0.0 
-1.383603751222e-06 8.390464903167e-05 0.0 
0.0 0.0 -1.533750852324e-05 
-1.776342507387e-05 2.898590661281e-05 0.0 
2.898590661281e-05 1.254111435077e-04 0.0 
0.0 0.0 -2.291448659297e-05 
-2.228661035164e-05 3.086208171882e-05 0.0 
3.086208171882e-05 7.414588274207e-05 0.0 
0.0 0.0 -1.893168834827e-05 
-2.834935998913e-05 -2.581094466031e-05 0.0 
-2.581094466031e-05 1.798484559935e-04 0.0 
0.0 0.0 -3.120083896163e-05 
-3.619195444299e-06 1.726688320319e-05 0.0 
1.726688320319e-05 1.889854846973e-05 0.0 
0.0 0.0 -6.548294153755e-06 
-9.846508312271e-05 1.947611327116e-05 0.0 
1.947611327116e-05 6.774458586389e-04 0.0 
0.0 0.0 -1.012995679080e-04 
-1.809123785598e-04 2.900682068589e-05 0.0 
2.900682068589e-05 1.227040363573e-03 0.0 
0.0 0.0 -1.833458990909e-04 
-1.833994977543e-04 2.630052083884e-05 0.0 
2.630052083884e-05 1.234115337032e-03 0.0 
0.0 0.0 -1.834249670905e-04 
-1.300388728735e-04 -2.726917383980e-05 0.0 
-2.726917383980e-05 8.766264197221e-04 0.0 
0.0 0.0 -1.323946974752e-04 
-9.060072859628e-05 -4.107401100024e-05 0.0 
-4.107401100024e-05 5.837911416729e-04 0.0 
0.0 0.0 -8.982794765771e-05 
-1.833530943830e-04 -2.415896483629e-05 0.0 
-2.415896483629e-05 1.239029730488e-03 0.0 
0.0 0.0 -1.831601862249e-04 
-1.805620370494e-04 3.417310065365e-05 0.0 
3.417310065365e-05 1.228469068547e-03 0.0 
0.0 0.0 -1.813053981465e-04 
-1.918538788466e-04 1.314902849118e-05 0.0 
1.314902849118e-05 1.311238991232e-03 0.0 
0.0 0.0 -1.908378613718e-04 
-1.864057830892e-04 -5.544571809971e-06 0.0 
-5.544571809971e-06 1.222330684115e-03 0.0 
0.0 0.0 -1.856133406407e-04 
-1.761014518088e-04 2.982850443616e-05 0.0 
2.982850443616e-05 1.172453916966e-03 0.0 
0.0 0.0 -1.756848094018e-04 
-2.508081297429e-05 1.384675978348e-05 0.0 
1.384675978348e-05 1.057075733602e-04 0.0 
0.0 0.0 -2.599564028619e-05 
-1.693383348172e-05 -2.312304690448e-05 0.0 
-2.312304690448e-05 1.227259030012e-04 0.0 
0.0 0.0 -2.162456296189e-05 
-1.849301832798e-04 -2.375114059264e-05 0.0 
-2.375114059264e-05 1.241181941517e-03 0.0 
0.0 0.0 -1.835494310512e-04 
-2.714207379428e-05 4.098769542459e-06 0.0 
4.098769542459e-06 1.072549946886e-04 0.0 
0.0 0.0 -2.642284971932e-05 
-3.135918366895e-05 4.019659049340e-05 0.0 
4.019659049340e-05 1.551282952784e-04 0.0 
0.0 0.0 -2.899999999997e-05 
-2.063383903873e-05 2.842818060864e-05 0.0 
2.842818060864e-05 9.408870534126e-05 0.0 
0.0 0.0 -2.215380543414e-05 
-2.425090272541e-05 -2.758476542693e-05 0.0 
-2.758476542693e-05 1.189291029536e-04 0.0 
0.0 0.0 -2.370445218759e-05 
-1.950651601912e-04 -1.537310237433e-06 0.0 
-1.537310237433e-06 1.272610956963e-03 0.0 
0.0 0.0 -1.932856728082e-04 
-1.944294159836e-04 -1.137183943863e-05 0.0 
-1.137183943863e-05 1.275116374494e-03 0.0 
0.0 0.0 -1.935170455059e-04 
-1.886696034913e-04 2.831262697735e-05 0.0 
2.831262697735e-05 1.244837435708e-03 0.0 
0.0 0.0 -1.855361636489e-04 
-1.959472726026e-04 1.351216090072e-08 0.0 
1.351216090072e-08 1.278564115673e-03 0.0 
0.0 0.0 -1.938907836251e-04 
-1.787271859105e-04 -2.284872940721e-05 0.0 
-2.284872940721e-05 1.187153147202e-03 0.0 
0.0 0.0 -1.765318707366e-04 
-1.351456084785e-04 3.971362658995e-05 0.0 
3.971362658995e-05 9.093020497765e-04 0.0 
0.0 0.0 -1.375519566527e-04 
-2.017604167332e-04 -1.836539241269e-06 0.0 
-1.836539241269e-06 1.330878883476e-03 0.0 
0.0 0.0 -2.017604167332e-04 
-4.752774343128e-05 -1.713587701896e-05 0.0 
-1.713587701896e-05 3.107525644044e-04 0.0 
0.0 0.0 -4.996133636201e-05 
-1.024919488492e-04 4.191622503833e-07 0.0 
4.191622503833e-07 7.218789940397e-04 0.0 
0.0 0.0 -1.062461082510e-04 
-2.975599916326e-05 9.106261967341e-06 0.0 
9.106261967341e-06 1.955746439529e-04 0.0 
0.0 0.0 -3.129496823211e-05 
-1.232098886184e-05 7.093050022653e-06 0.0 
7.093050022653e-06 4.161179421085e-05 0.0 
0.0 0.0 -1.255320229243e-05 
-1.944497355390e-04 5.978296495926e-06 0.0 
5.978296495926e-06 1.366328994781e-03 0.0 
0.0 0.0 -1.985775144829e-04 
-1.145512522937e-04 -8.915219508627e-06 0.0 
-8.915219508627e-06 7.945910020626e-04 0.0 
0.0 0.0 -1.159689174441e-04 
-2.848344092071e-05 4.003321639578e-06 0.0 
4.003321639578e-06 1.986241883576e-04 0.0 
0.0 0.0 -3.173012194873e-05 
-1.014959600204e-04 3.503938933843e-05 0.0 
3.503938933843e-05 6.393289370777e-04 0.0 
0.0 0.0 -9.855747970559e-05 
-1.905583345653e-04 2.687091843219e-06 0.0 
2.687091843219e-06 1.311634272187e-03 0.0 
0.0 0.0 -1.915206309854e-04 
-1.857526928997e-04 -2.471303146073e-05 0.0 
-2.471303146073e-05 1.243107974826e-03 0.0 
0.0 0.0 -1.842925442824e-04 
-1.948868254755e-04 -1.041522172143e-06 0.0 
-1.041522172143e-06 1.275180970734e-03 0.0 
0.0 0.0 -1.934499806569e-04 
-7.012133808743e-05 -2.162576108704e-05 0.0 
-2.162576108704e-05 4.594521408120e-04 0.0 
0.0 0.0 -7.043099580601e-05 
-2.186534210929e-05 -2.363395921601e-05 0.0 
-2.363395921601e-05 1.124805107313e-04 0.0 
0.0 0.0 -2.329832943476e-05 
-1.928869723946e-04 -1.747685447208e-05 0.0 
-1.747685447208e-05 1.309527415302e-03 0.0 
0.0 0.0 -1.909716586738e-04 
-1.948223937585e-04 3.463630469138e-06 0.0 
3.463630469138e-06 1.366072774039e-03 0.0 
0.0 0.0 -1.988029557152e-04 
-1.997972325631e-04 -2.657071604694e-06 0.0 
-2.657071604694e-06 1.368996078479e-03 0.0 
0.0 0.0 -1.985675284643e-04 
-1.149075065172e-04 1.970313765657e-05 0.0 
1.970313765657e-05 7.553309514488e-04 0.0 
0.0 0.0 -1.151014696305e-04 
-1.853670490970e-04 -6.789881419622e-07 0.0 
-6.789881419622e-07 1.217253462195e-03 0.0 
0.0 0.0 -1.847801502676e-04 
-2.929766823262e-05 -1.423662774746e-05 0.0 
-1.423662774746e-05 1.684447109910e-04 0.0 
0.0 0.0 -3.486300268346e-05 
-1.886376341972e-04 2.491029484498e-05 0.0 
2.491029484498e-05 1.251144203043e-03 0.0 
0.0 0.0 -1.862363266401e-04 
-1.225588461862e-05 -1.620442536661e-06 0.0 
-1.620442536661e-06 4.088176785210e-05 0.0 
0.0 0.0 -1.226823567149e-05 
-1.959443734270e-04 -1.593633800896e-06 0.0 
-1.593633800896e-06 1.275907277954e-03 0.0 
0.0 0.0 -1.936070242144e-04 
-1.921705025686e-04 1.672528369413e-05 0.0 
1.672528369413e-05 1.305355282221e-03 0.0 
0.0 0.0 -1.902878095246e-04 
-1.213509693042e-05 -9.695671298578e-06 0.0 
-9.695671298578e-06 4.146515921011e-05 0.0 
0.0 0.0 -1.257002669129e-05 
-1.793207099600e-04 -2.104295957024e-05 0.0 
-2.104295957024e-05 1.192465817629e-03 0.0 
0.0 0.0 -1.767027422389e-04 
-1.542349507493e-04 -2.789525500736e-05 0.0 
-2.789525500736e-05 1.046690456158e-03 0.0 
0.0 0.0 -1.580789522666e-04 
-1.934231585208e-04 -4.589161303043e-06 0.0 
-4.589161303043e-06 1.276393454338e-03 0.0 
0.0 0.0 -1.934530862915e-04 
-2.019364116565e-04 -1.570828685488e-06 0.0 
-1.570828685488e-06 1.334544060367e-03 0.0 
0.0 0.0 -2.019364116565e-04 
-1.443736664853e-04 -4.496434299745e-05 0.0 
-4.496434299745e-05 9.564830102373e-04 0.0 
0.0 0.0 -1.444096547634e-04 
-1.939456756852e-04 2.017652496132e-06 0.0 
2.017652496132e-06 1.279640861987e-03 0.0 
0.0 0.0 -1.938765919206e-04 
-1.869172796684e-04 -2.300922739472e-05 0.0 
-2.300922739472e-05 1.248797853845e-03 0.0 
0.0 0.0 -1.854760755851e-04 
-1.511310601618e-04 1.323861223544e-06 0.0 
1.323861223544e-06 9.820371097651e-04 0.0 
0.0 0.0 -1.514438176870e-04 
-1.859523187257e-04 -2.150500838709e-06 0.0 
-2.150500838709e-06 1.237126209909e-03 0.0 
0.0 0.0 -1.871408849840e-04 
-8.159488617983e-05 -1.939805324608e-05 0.0 
-1.939805324608e-05 5.359838852638e-04 0.0 
0.0 0.0 -8.502783899585e-05 
-1.113338579071e-04 -3.576614126909e-06 0.0 
-3.576614126909e-06 6.830287758959e-04 0.0 
0.0 0.0 -1.093177095251e-04 
-1.875695645106e-04 2.166688210212e-05 0.0 
2.166688210212e-05 1.248595569192e-03 0.0 
0.0 0.0 -1.858828511717e-04 
-1.916898687047e-04 1.740402246749e-05 0.0 
1.740402246749e-05 1.297694891500e-03 0.0 
0.0 0.0 -1.929759641265e-04 
0.0 0.0 0.0 
0.0 0.0 0.0 
0.0 0.0 0.0 
-1.108754537982e-04 8.190067800634e-06 0.0 
8.190067800634e-06 6.858465185805e-04 0.0 
0.0 0.0 -1.092688595421e-04 
-1.923809518426e-04 -1.819844630735e-05 0.0 
-1.819844630735e-05 1.300229094043e-03 0.0 
0.0 0.0 -1.932123727438e-04 
-4.002001247467e-05 2.006963566931e-05 0.0 
2.006963566931e-05 2.328825741027e-04 0.0 
0.0 0.0 -4.148470287098e-05 
-1.866472002231e-04 4.880453877379e-06 0.0 
4.880453877379e-06 1.252749307024e-03 0.0 
0.0 0.0 -1.819878549007e-04 
-1.819209478198e-04 -2.068448510871e-05 0.0 
-2.068448510871e-05 1.244408370608e-03 0.0 
0.0 0.0 -1.838914853240e-04 
-1.915111223810e-04 -2.323214646959e-05 0.0 
-2.323214646959e-05 1.305780620660e-03 0.0 
0.0 0.0 -1.903556752671e-04 
-3.701661376552e-05 2.035950265076e-05 0.0 
2.035950265076e-05 2.272671486071e-04 0.0 
0.0 0.0 -3.971981059879e-05 
-2.769286414478e-05 7.747329809448e-06 0.0 
7.747329809448e-06 1.806614107884e-04 0.0 
0.0 0.0 -2.859863994447e-05 
-1.242949117924e-04 5.074427327232e-05 0.0 
5.074427327232e-05 7.859669856420e-04 0.0 
0.0 0.0 -1.190920679387e-04 
-1.709477821043e-04 1.206352581251e-05 0.0 
1.206352581251e-05 1.132186117532e-03 0.0 
0.0 0.0 -1.681261804956e-04 
1.014327330369e-06 7.383782533250e-07 0.0 
7.383782533250e-07 2.927583678911e-05 0.0 
0.0 0.0 -6.243845128022e-06 
-1.946447373769e-04 -4.455018500166e-06 0.0 
-4.455018500166e-06 1.280717844331e-03 0.0 
0.0 0.0 -1.938350263003e-04 
-1.424463118062e-04 5.764408395156e-06 0.0 
5.764408395156e-06 9.202154133526e-04 0.0 
0.0 0.0 -1.425289220759e-04 
-3.478878306297e-05 -2.499498638801e-05 0.0 
-2.499498638801e-05 2.296892403380e-04 0.0 
0.0 0.0 -3.902841992921e-05 
-1.377312918912e-04 9.864863143696e-06 0.0 
9.864863143696e-06 8.735402280856e-04 0.0 
0.0 0.0 -1.354581645892e-04 
-1.922007867126e-04 -1.822737660514e-05 0.0 
-1.822737660514e-05 1.307890918218e-03 0.0 
0.0 0.0 -1.907465343871e-04 
-1.254239889598e-04 -4.359753515645e-05 0.0 
-4.359753515645e-05 8.286556014884e-04 0.0 
0.0 0.0 -1.240920679387e-04 
-1.353144492439e-05 -2.813094036452e-05 0.0 
-2.813094036452e-05 4.877548767693e-05 0.0 
0.0 0.0 -1.316471896826e-05 
-8.142748840058e-05 2.105549334848e-05 0.0 
2.105549334848e-05 4.801057020835e-04 0.0 
0.0 0.0 -7.814452609390e-05 
-1.089615496817e-04 1.599271894156e-05 0.0 
1.599271894156e-05 7.175407804816e-04 0.0 
0.0 0.0 -1.097999625750e-04 
-1.256926158202e-04 5.260336234632e-05 0.0 
5.260336234632e-05 8.559229925288e-04 0.0 
0.0 0.0 -1.289999999999e-04 
-1.861165675973e-04 -2.159470551463e-05 0.0 
-2.159470551463e-05 1.249429060897e-03 0.0 
0.0 0.0 -1.849170288086e-04 
-1.106499789189e-04 -2.590861534469e-05 0.0 
-2.590861534469e-05 6.926866843830e-04 0.0 
0.0 0.0 -1.076326444904e-04 
-1.112884178496e-04 1.305986126263e-05 0.0 
1.305986126263e-05 7.358491413001e-04 0.0 
0.0 0.0 -1.139494348250e-04 
-2.588411427290e-05 1.911750771148e-05 0.0 
1.911750771148e-05 1.061373083438e-04 0.0 
0.0 0.0 -2.326846092920e-05 
-1.893744793615e-04 2.103198860830e-05 0.0 
2.103198860830e-05 1.246033425132e-03 0.0 
0.0 0.0 -1.860944804855e-04 
-1.813760335911e-04 2.431983118237e-05 0.0 
2.431983118237e-05 1.192575940689e-03 0.0 
0.0 0.0 -1.779543165055e-04 
-3.341687545780e-05 1.295689628708e-05 0.0 
1.295689628708e-05 1.947474497127e-04 0.0 
0.0 0.0 -3.617538986514e-05 
-1.891790155312e-04 -1.249004293212e-05 0.0 
-1.249004293212e-05 1.282842787366e-03 0.0 
0.0 0.0 -1.935524225335e-04 
-1.940711954716e-04 2.260939094991e-05 0.0 
2.260939094991e-05 1.289421750568e-03 0.0 
0.0 0.0 -1.935534039001e-04 
-1.151984927981e-04 -2.298534457927e-05 0.0 
-2.298534457927e-05 7.735611340850e-04 0.0 
0.0 0.0 -1.145968264807e-04 
-1.409477362984e-04 4.636851076838e-06 0.0 
4.636851076838e-06 9.500238057427e-04 0.0 
0.0 0.0 -1.403751509546e-04 
-1.057221588411e-04 2.457938922791e-05 0.0 
2.457938922791e-05 7.039272758311e-04 0.0 
0.0 0.0 -1.066277415830e-04 
-1.061891266013e-04 -1.653485252010e-05 0.0 
-1.653485252010e-05 7.204456328921e-04 0.0 
0.0 0.0 -1.101455558886e-04 
-1.167125773018e-04 -5.214442621127e-06 0.0 
-5.214442621127e-06 7.635304123669e-04 0.0 
0.0 0.0 -1.124773478824e-04 
-1.793168656901e-04 2.299952134744e-05 0.0 
2.299952134744e-05 1.185887205723e-03 0.0 
0.0 0.0 -1.771393596935e-04 
-3.152584898735e-05 1.897210253453e-05 0.0 
1.897210253453e-05 1.627411535502e-04 0.0 
0.0 0.0 -3.411956464738e-05 
-1.845315344105e-04 -2.087044310257e-05 0.0 
-2.087044310257e-05 1.251382198176e-03 0.0 
0.0 0.0 -1.826724926888e-04 
-1.258093955466e-04 1.092296903434e-05 0.0 
1.092296903434e-05 7.989141246955e-04 0.0 
0.0 0.0 -1.256509235457e-04 
-1.915790341267e-04 -2.191468720141e-05 0.0 
-2.191468720141e-05 1.308072793879e-03 0.0 
0.0 0.0 -1.908230686647e-04 
-1.803448451633e-04 -1.980075170866e-05 0.0 
-1.980075170866e-05 1.182538242344e-03 0.0 
0.0 0.0 -1.771885848702e-04 
-1.319350983937e-04 -8.918433226287e-06 0.0 
-8.918433226287e-06 9.046918759966e-04 0.0 
0.0 0.0 -1.335370307995e-04 
-1.816836816126e-04 1.791474397062e-05 0.0 
1.791474397062e-05 1.201235583197e-03 0.0 
0.0 0.0 -1.801549293832e-04 
-1.875547155475e-04 1.892715754060e-05 0.0 
1.892715754060e-05 1.233891763137e-03 0.0 
0.0 0.0 -1.855150795789e-04 
-1.939054531168e-04 -3.416516152567e-06 0.0 
-3.416516152567e-06 1.313797531553e-03 0.0 
0.0 0.0 -1.905407107676e-04 
-1.393318625630e-05 6.729466406601e-06 0.0 
6.729466406601e-06 4.687704386898e-05 0.0 
0.0 0.0 -1.411879611972e-05 
-1.819939651451e-04 -2.047705946231e-05 0.0 
-2.047705946231e-05 1.208295386483e-03 0.0 
0.0 0.0 -1.798029041703e-04 
-1.850233720890e-04 2.766047329041e-05 0.0 
2.766047329041e-05 1.254110806432e-03 0.0 
0.0 0.0 -1.840618297566e-04 
-1.944390477997e-05 -2.127751864275e-05 0.0 
-2.127751864275e-05 1.299757536440e-04 0.0 
0.0 0.0 -2.232470194434e-05 
-1.017184515676e-04 -1.757095589334e-05 0.0 
-1.757095589334e-05 6.550290312805e-04 0.0 
0.0 0.0 -1.026204892046e-04 
-1.144511734995e-05 -9.153149013219e-06 0.0 
-9.153149013219e-06 7.932793000554e-05 0.0 
0.0 0.0 -1.453852818766e-05 
-1.859119756783e-04 -1.557168329532e-05 0.0 
-1.557168329532e-05 1.264074963678e-03 0.0 
0.0 0.0 -1.846184893018e-04 
-5.115038909489e-05 -1.066370140281e-05 0.0 
-1.066370140281e-05 2.909036237404e-04 0.0 
0.0 0.0 -5.066666666667e-05 
-4.759158650463e-05 8.684038607520e-06 0.0 
8.684038607520e-06 3.188574670315e-04 0.0 
0.0 0.0 -4.733333333333e-05 
-5.085989610145e-05 -9.272482802418e-07 0.0 
-9.272482802418e-07 2.717727954080e-04 0.0 
0.0 0.0 -5.066666666667e-05 
-4.739870218655e-05 2.214119719171e-07 0.0 
2.214119719171e-07 3.172539875028e-04 0.0 
0.0 0.0 -4.733333333333e-05 
-5.074388418815e-05 -4.937434425518e-07 0.0 
-4.937434425518e-07 2.705407306617e-04 0.0 
0.0 0.0 -5.066666666667e-05 
-4.741357233689e-05 -4.274409505775e-07 0.0 
-4.274409505775e-07 3.171493791242e-04 0.0 
0.0 0.0 -4.733333333333e-05 
-5.077435242920e-05 -5.251521886155e-07 0.0 
-5.251521886155e-07 2.704744233650e-04 0.0 
0.0 0.0 -5.066666666667e-05 
-4.751251169393e-05 -5.591654456356e-07 0.0 
-5.591654456356e-07 3.172282015912e-04 0.0 
0.0 0.0 -4.733333333333e-05 
-5.087235212600e-05 -5.477202699122e-07 0.0 
-5.477202699122e-07 2.705630921400e-04 0.0 
0.0 0.0 -5.066666666667e-05 
-4.762653689132e-05 -6.001451931681e-07 0.0 
-6.001451931681e-07 3.173415219525e-04 0.0 
0.0 0.0 -4.733333333333e-05 
-5.098168910847e-05 -5.759387222219e-07 0.0 
-5.759387222219e-07 2.706783838615e-04 0.0 
0.0 0.0 -5.066666666667e-05 
-4.772076906172e-05 -6.197857542977e-07 0.0 
-6.197857542977e-07 3.174342765130e-04 0.0 
0.0 0.0 -4.733333333333e-05 
-5.106925553891e-05 -6.148249102859e-07 0.0 
-6.148249102859e-07 2.707687156573e-04 0.0 
0.0 0.0 -5.066666666667e-05 
-4.777985347542e-05 -6.302251650863e-07 0.0 
-6.302251650863e-07 3.174780838358e-04 0.0 
0.0 0.0 -4.733333333333e-05 
-5.110938275235e-05 -6.217795403131e-07 0.0 
-6.217795403131e-07 2.708127709170e-04 0.0 
0.0 0.0 -5.066666666667e-05 
-4.780956838562e-05 -6.053853643083e-07 0.0 
-6.053853643083e-07 3.174879369113e-04 0.0 
0.0 0.0 -4.733333333333e-05 
-5.113117215563e-05 -5.887362678852e-07 0.0 
-5.887362678852e-07 2.708240786717e-04 0.0 
0.0 0.0 -5.066666666667e-05 
-4.781732308072e-05 -5.449737583287e-07 0.0 
-5.449737583287e-07 3.174684300656e-04 0.0 
0.0 0.0 -4.733333333333e-05 
-5.535647040899e-05 -2.224721771426e-05 0.0 
-2.224721771426e-05 3.151114578633e-04 0.0 
0.0 0.0 -4.873639455782e-05 
-5.114534917985e-05 -5.074590888670e-07 0.0 
-5.074590888670e-07 2.708096679475e-04 0.0 
0.0 0.0 -5.066666666667e-05 
-4.781086022037e-05 -4.469500262259e-07 0.0 
-4.469500262259e-07 3.174296260920e-04 0.0 
0.0 0.0 -4.733333333333e-05 
-5.115405450020e-05 -3.906968067935e-07 0.0 
-3.906968067935e-07 2.707769751642e-04 0.0 
0.0 0.0 -5.066666666667e-05 
-4.005493497019e-05 3.545620753650e-06 0.0 
3.545620753650e-06 2.877213180819e-04 0.0 
0.0 0.0 -4.540306122449e-05 
-4.779038971508e-05 -3.118347089870e-07 0.0 
-3.118347089870e-07 3.173687819636e-04 0.0 
0.0 0.0 -4.733333333333e-05 
-4.336028639231e-05 1.776569064140e-06 0.0 
1.776569064140e-06 2.725941409189e-04 0.0 
0.0 0.0 -5.066666666667e-05 
-5.113174051410e-05 -2.330635383312e-07 0.0 
-2.330635383312e-07 2.707232099099e-04 0.0 
0.0 0.0 -5.066666666667e-05 
-4.775450225529e-05 -1.088356439118e-07 0.0 
-1.088356439118e-07 3.172781608830e-04 0.0 
0.0 0.0 -4.733333333333e-05 
-5.106103971955e-05 1.061811698324e-07 0.0 
1.061811698324e-07 2.706701197139e-04 0.0 
0.0 0.0 -5.066666666667e-05 
-4.775673612905e-05 1.928918352567e-07 0.0 
1.928918352567e-07 3.172905143377e-04 0.0 
0.0 0.0 -4.733333333333e-05 
-5.109739057831e-05 3.875546929347e-07 0.0 
3.875546929347e-07 2.706837710260e-04 0.0 
0.0 0.0 -5.066666666667e-05 
-4.777001960659e-05 4.785139335737e-07 0.0 
4.785139335737e-07 3.172918469328e-04 0.0 
0.0 0.0 -4.733333333333e-05 
-5.114053674906e-05 8.454240426302e-07 0.0 
8.454240426302e-07 2.707487787219e-04 0.0 
0.0 0.0 -5.066666666667e-05 
-4.787758656637e-05 7.009769641847e-07 0.0 
7.009769641847e-07 3.175395861276e-04 0.0 
0.0 0.0 -4.733333333333e-05 
-3.859763791424e-05 3.664155593188e-06 0.0 
3.664155593188e-06 2.982362191000e-04 0.0 
0.0 0.0 -5.040306122449e-05 
-5.137125646484e-05 6.035243328694e-07 0.0 
6.035243328694e-07 2.708584208901e-04 0.0 
0.0 0.0 -5.066666666667e-05 
-4.783312841910e-05 7.620509721787e-07 0.0 
7.620509721787e-07 3.173437515974e-04 0.0 
0.0 0.0 -4.733333333333e-05 
-5.111406613470e-05 1.413247059512e-06 0.0 
1.413247059512e-06 2.709105882421e-04 0.0 
0.0 0.0 -5.066666666667e-05 
-4.807701983827e-05 8.408573881303e-07 0.0 
8.408573881303e-07 3.180354434408e-04 0.0 
0.0 0.0 -4.733333333333e-05 
-4.771441396005e-05 7.591073150930e-07 0.0 
7.591073150930e-07 3.169623596771e-04 0.0 
0.0 0.0 -4.733333333333e-05 
-5.166913602441e-05 -1.267909664581e-07 0.0 
-1.267909664581e-07 2.710297563612e-04 0.0 
0.0 0.0 -5.066666666667e-05 
-4.846154266385e-05 7.945751000271e-07 0.0 
7.945751000271e-07 3.191634342060e-04 0.0 
0.0 0.0 -4.733333333333e-05 
-5.033295262382e-05 2.676824150486e-06 0.0 
2.676824150486e-06 2.709658459585e-04 0.0 
0.0 0.0 -5.066666666667e-05 
-4.695776825741e-05 1.311506299456e-06 0.0 
1.311506299456e-06 3.146029699114e-04 0.0 
0.0 0.0 -4.733333333333e-05 
-4.995315779637e-05 3.019430349178e-06 0.0 
3.019430349178e-06 3.221256746523e-04 0.0 
0.0 0.0 -4.733333333333e-05 
-5.264949915731e-05 -3.033116857975e-06 0.0 
-3.033116857975e-06 2.709941081171e-04 0.0 
0.0 0.0 -5.066666666667e-05 
-4.458143821664e-05 8.706406035169e-06 0.0 
8.706406035169e-06 2.701222728083e-04 0.0 
0.0 0.0 -5.066666666667e-05 
-3.262660739579e-05 -2.447626091127e-06 0.0 
-2.447626091127e-06 2.549253489660e-04 0.0 
0.0 0.0 -4.706972789116e-05 
-4.183172584708e-05 -5.516448082583e-05 0.0 
-5.516448082583e-05 2.878160453026e-04 0.0 
0.0 0.0 -4.900000000000e-05 
-5.736611696375e-05 5.379757100263e-05 0.0 
5.379757100263e-05 3.156420142217e-04 0.0 
0.0 0.0 -4.900000000000e-05 
-4.648351230535e-05 -5.650677953531e-06 0.0 
-5.650677953531e-06 2.936870104723e-04 0.0 
0.0 0.0 -4.566666666667e-05 
-5.288209209055e-05 5.940363499374e-06 0.0 
5.940363499374e-06 3.083110135113e-04 0.0 
0.0 0.0 -5.233333333333e-05 
-3.803686742204e-05 -9.545998375182e-07 0.0 
-9.545998375182e-07 2.755250232948e-04 0.0 
0.0 0.0 -4.566666666667e-05 
-5.781705576156e-05 -1.097834381467e-05 0.0 
-1.097834381467e-05 3.693403496953e-04 0.0 
0.0 0.0 -5.733333333333e-05 
-6.100891304768e-05 7.885091902878e-06 0.0 
7.885091902878e-06 3.405875281446e-04 0.0 
0.0 0.0 -6.066666666667e-05 
-5.752656276812e-05 -9.002056482216e-07 0.0 
-9.002056482216e-07 3.876358825742e-04 0.0 
0.0 0.0 -5.733333333333e-05 
-6.081359015182e-05 -5.794002622292e-08 0.0 
-5.794002622292e-08 3.417160881662e-04 0.0 
0.0 0.0 -6.066666666667e-05 
-5.741055085482e-05 -3.076662680791e-07 0.0 
-3.076662680791e-07 3.883987448460e-04 0.0 
0.0 0.0 -5.733333333333e-05 
-6.074210787550e-05 -3.038056687787e-07 0.0 
-3.038056687787e-07 3.417341222542e-04 0.0 
0.0 0.0 -6.066666666667e-05 
-5.744101909586e-05 -3.350213589507e-07 0.0 
-3.350213589507e-07 3.884037471439e-04 0.0 
0.0 0.0 -5.733333333333e-05 
-6.076980017163e-05 -2.633586237472e-07 0.0 
-2.633586237472e-07 3.417973373645e-04 0.0 
0.0 0.0 -6.066666666667e-05 
-5.753901879266e-05 -4.032254988366e-07 0.0 
-4.032254988366e-07 3.884804185775e-04 0.0 
0.0 0.0 -5.733333333333e-05 
-6.084901192467e-05 -2.839820900020e-07 0.0 
-2.839820900020e-07 3.418997932862e-04 0.0 
0.0 0.0 -6.066666666667e-05 
-5.764835577513e-05 -4.670991574783e-07 0.0 
-4.670991574783e-07 3.885926020556e-04 0.0 
0.0 0.0 -5.733333333333e-05 
-6.097338103546e-05 -3.711727285251e-07 0.0 
-3.711727285251e-07 3.420012923996e-04 0.0 
0.0 0.0 -6.066666666667e-05 
-5.773592220557e-05 -5.434399062823e-07 0.0 
-5.434399062823e-07 3.886963937928e-04 0.0 
0.0 0.0 -5.733333333333e-05 
-6.104369650402e-05 -5.100362655251e-07 0.0 
-5.100362655251e-07 3.420398794502e-04 0.0 
0.0 0.0 -6.066666666667e-05 
-5.777604941901e-05 -5.548094796898e-07 0.0 
-5.548094796898e-07 3.887163194926e-04 0.0 
0.0 0.0 -5.733333333333e-05 
-6.105893067594e-05 -5.296141592932e-07 0.0 
-5.296141592932e-07 3.420372773735e-04 0.0 
0.0 0.0 -6.066666666667e-05 
-5.779783882230e-05 -4.963068092733e-07 0.0 
-4.963068092733e-07 3.887001927722e-04 0.0 
0.0 0.0 -5.733333333333e-05 
-6.429332232619e-05 -2.307460778734e-05 0.0 
-2.307460778734e-05 3.850600827683e-04 0.0 
0.0 0.0 -5.871879621414e-05 
-6.109192576982e-05 -4.837956592854e-07 0.0 
-4.837956592854e-07 3.420192799563e-04 0.0 
0.0 0.0 -6.066666666667e-05 
-5.781201584652e-05 -3.891035793225e-07 0.0 
-3.891035793225e-07 3.886678861241e-04 0.0 
0.0 0.0 -5.733333333333e-05 
-5.197171891332e-05 2.601338786256e-06 0.0 
2.601338786256e-06 3.430943376592e-04 0.0 
0.0 0.0 -6.066666666667e-05 
-6.116828848797e-05 -4.015809249984e-07 0.0 
-4.015809249984e-07 3.420050059064e-04 0.0 
0.0 0.0 -6.066666666667e-05 
-5.782072116687e-05 -2.899615651131e-07 0.0 
-2.899615651131e-07 3.886441670397e-04 0.0 
0.0 0.0 -5.733333333333e-05 
-6.121626665852e-05 -3.540641570560e-07 0.0 
-3.540641570560e-07 3.419641075570e-04 0.0 
0.0 0.0 -6.066666666667e-05 
-5.779840718077e-05 -1.758510829021e-07 0.0 
-1.758510829021e-07 3.885785316046e-04 0.0 
0.0 0.0 -5.733333333333e-05 
-6.116783759642e-05 -2.820525569960e-07 0.0 
-2.820525569960e-07 3.418542542977e-04 0.0 
0.0 0.0 -6.066666666667e-05 
-4.930023443078e-05 5.796000691354e-06 0.0 
5.796000691354e-06 3.582468498007e-04 0.0 
0.0 0.0 -5.538546288080e-05 
-5.772770638621e-05 1.312401498261e-07 0.0 
1.312401498261e-07 3.883955911533e-04 0.0 
0.0 0.0 -5.733333333333e-05 
-6.096829823239e-05 3.035755375707e-07 0.0 
3.035755375707e-07 3.418039294054e-04 0.0 
0.0 0.0 -6.066666666667e-05 
-5.776405724498e-05 4.984520269403e-07 0.0 
4.984520269403e-07 3.884232433503e-04 0.0 
0.0 0.0 -5.733333333333e-05 
-6.125140204367e-05 5.931380027650e-07 0.0 
5.931380027650e-07 3.418903324586e-04 0.0 
0.0 0.0 -6.066666666667e-05 
-5.780720341573e-05 8.244863566380e-07 0.0 
8.244863566380e-07 3.884697708382e-04 0.0 
0.0 0.0 -5.733333333333e-05 
-6.110831296764e-05 1.296657285393e-06 0.0 
1.296657285393e-06 3.420973359667e-04 0.0 
0.0 0.0 -6.066666666667e-05 
-5.803792313151e-05 7.049279494282e-07 0.0 
7.049279494282e-07 3.890016332223e-04 0.0 
0.0 0.0 -5.733333333333e-05 
-6.205350649242e-05 4.589417531416e-08 0.0 
4.589417531416e-08 3.421906476610e-04 0.0 
0.0 0.0 -6.066666666667e-05 
-5.778073280136e-05 8.470981603539e-07 0.0 
8.470981603539e-07 3.884329098950e-04 0.0 
0.0 0.0 -5.733333333333e-05 
-6.041203126657e-05 2.222910704188e-06 0.0 
2.222910704188e-06 3.423435831242e-04 0.0 
0.0 0.0 -6.066666666667e-05 
-4.710203058735e-05 4.310616550608e-06 0.0 
4.310616550608e-06 3.686964131418e-04 0.0 
0.0 0.0 -6.038546288080e-05 
-6.294942027381e-05 -2.756163189823e-06 0.0 
-2.756163189823e-06 3.420852271838e-04 0.0 
0.0 0.0 -6.066666666667e-05 
-5.833580269108e-05 1.472104880338e-07 0.0 
1.472104880338e-07 3.900149670501e-04 0.0 
0.0 0.0 -5.733333333333e-05 
-5.509863290017e-05 6.978613204043e-06 0.0 
6.978613204043e-06 3.416103539067e-04 0.0 
0.0 0.0 -6.066666666667e-05 
-5.699961929049e-05 1.188126407733e-06 0.0 
1.188126407733e-06 3.866763485151e-04 0.0 
0.0 0.0 -5.733333333333e-05 
-5.931616582398e-05 1.264970039408e-06 0.0 
1.264970039408e-06 3.921885981794e-04 0.0 
0.0 0.0 -5.733333333333e-05 
-4.124266933807e-05 1.249791926263e-06 0.0 
1.249791926263e-06 3.252010506084e-04 0.0 
0.0 0.0 -5.705212954747e-05 
-6.749087282606e-05 -5.537350596849e-05 0.0 
-5.537350596849e-05 3.726705081140e-04 0.0 
0.0 0.0 -5.900000000000e-05 
-5.182302720593e-05 5.344964927870e-05 0.0 
5.344964927870e-05 3.446027874510e-04 0.0 
0.0 0.0 -5.900000000000e-05 
-6.292581995443e-05 -5.978106008697e-06 0.0 
-5.978106008697e-06 3.667667175588e-04 0.0 
0.0 0.0 -6.233333333333e-05 
-5.621542542388e-05 5.720175409305e-06 0.0 
5.720175409305e-06 3.519710587876e-04 0.0 
0.0 0.0 -5.566666666667e-05 
-4.836028639231e-05 1.166463025180e-06 0.0 
1.166463025180e-06 3.464077171258e-04 0.0 
0.0 0.0 -5.566666666667e-05 
-7.114563988620e-05 -1.149003057072e-05 0.0 
-1.149003057072e-05 4.298780722485e-04 0.0 
0.0 0.0 -7.066666666667e-05 
-6.767557971435e-05 7.789921185043e-06 0.0 
7.789921185043e-06 4.581053887753e-04 0.0 
0.0 0.0 -6.733333333333e-05 
-7.086950529367e-05 -1.417087462263e-06 0.0 
-1.417087462263e-06 4.109780231572e-04 0.0 
0.0 0.0 -7.066666666667e-05 
-6.748025681849e-05 -2.346688612902e-07 0.0 
-2.346688612902e-07 4.565031102245e-04 0.0 
0.0 0.0 -6.733333333333e-05 
-7.064770782861e-05 -5.361532288411e-07 0.0 
-5.361532288411e-07 4.098128991423e-04 0.0 
0.0 0.0 -7.066666666667e-05 
-6.740877454217e-05 -3.802090969509e-07 0.0 
-3.802090969509e-07 4.564156801283e-04 0.0 
0.0 0.0 -6.733333333333e-05 
-7.068434388014e-05 -2.719211823047e-07 0.0 
-2.719211823047e-07 4.097592646131e-04 0.0 
0.0 0.0 -7.066666666667e-05 
-6.743646683829e-05 -2.660727184679e-07 0.0 
-2.660727184679e-07 4.564862413471e-04 0.0 
0.0 0.0 -6.733333333333e-05 
-7.071554313554e-05 -1.840132234043e-07 0.0 
-1.840132234043e-07 4.098289843511e-04 0.0 
0.0 0.0 -7.066666666667e-05 
-6.751567859134e-05 -1.979083631644e-07 0.0 
-1.979083631644e-07 4.566038930868e-04 0.0 
0.0 0.0 -6.733333333333e-05 
-7.082563799221e-05 -1.082855862797e-07 0.0 
-1.082855862797e-07 4.099501439232e-04 0.0 
0.0 0.0 -7.066666666667e-05 
-6.764004770212e-05 -1.840544218251e-07 0.0 
-1.840544218251e-07 4.567798774879e-04 0.0 
0.0 0.0 -6.733333333333e-05 
-7.099668157673e-05 -3.152621347735e-07 0.0 
-3.152621347735e-07 4.100909630507e-04 0.0 
0.0 0.0 -7.066666666667e-05 
-6.771036317068e-05 -3.250871953116e-07 0.0 
-3.250871953116e-07 4.567955793193e-04 0.0 
0.0 0.0 -6.733333333333e-05 
-7.104635293021e-05 -4.797315306229e-07 0.0 
-4.797315306229e-07 4.100980900426e-04 0.0 
0.0 0.0 -7.066666666667e-05 
-6.772559734261e-05 -3.874533346802e-07 0.0 
-3.874533346802e-07 4.567007956159e-04 0.0 
0.0 0.0 -6.733333333333e-05 
-7.641374413823e-05 -2.228773536997e-05 0.0 
-2.228773536997e-05 4.555521205124e-04 0.0 
0.0 0.0 -6.873639455783e-05 
-7.094875925373e-05 -3.791477384794e-07 0.0 
-3.791477384794e-07 4.100304202801e-04 0.0 
0.0 0.0 -7.066666666667e-05 
-6.775859243649e-05 -2.543201428247e-07 0.0 
-2.543201428247e-07 4.566839974153e-04 0.0 
0.0 0.0 -6.733333333333e-05 
-5.983502745799e-05 1.929364290318e-06 0.0 
1.929364290318e-06 4.273284517158e-04 0.0 
0.0 0.0 -6.540306122449e-05 
-7.112696317891e-05 -1.467524674862e-07 0.0 
-1.467524674862e-07 4.100464125056e-04 0.0 
0.0 0.0 -7.066666666667e-05 
-6.783495515464e-05 -1.450638751277e-07 0.0 
-1.450638751277e-07 4.567335765583e-04 0.0 
0.0 0.0 -6.733333333333e-05 
-6.217161144140e-05 3.026566437504e-06 0.0 
3.026566437504e-06 4.118280588832e-04 0.0 
0.0 0.0 -7.066666666667e-05 
-7.130993240556e-05 -1.233962845206e-07 0.0 
-1.233962845206e-07 4.100835803005e-04 0.0 
0.0 0.0 -7.066666666667e-05 
-6.788293332518e-05 -1.526785280095e-07 0.0 
-1.526785280095e-07 4.567248483215e-04 0.0 
0.0 0.0 -6.733333333333e-05 
-7.133053464148e-05 -2.770421121641e-07 0.0 
-2.770421121641e-07 4.100311566981e-04 0.0 
0.0 0.0 -7.066666666667e-05 
-6.783450426309e-05 -1.768217967111e-07 0.0 
-1.768217967111e-07 4.565560458107e-04 0.0 
0.0 0.0 -6.733333333333e-05 
-7.128003053814e-05 -4.124294858267e-07 0.0 
-4.124294858267e-07 4.098246570243e-04 0.0 
0.0 0.0 -7.066666666667e-05 
-6.763496489906e-05 1.353837844384e-07 0.0 
1.353837844384e-07 4.560035381661e-04 0.0 
0.0 0.0 -6.733333333333e-05 
-6.037667670586e-05 3.725538744657e-06 0.0 
3.725538744657e-06 4.387855452071e-04 0.0 
0.0 0.0 -7.040306122449e-05 
-7.080362175516e-05 1.214547096316e-06 0.0 
1.214547096316e-06 4.096944057901e-04 0.0 
0.0 0.0 -7.066666666667e-05 
-6.791806871034e-05 8.269470575155e-07 0.0 
8.269470575155e-07 4.567782366562e-04 0.0 
0.0 0.0 -6.733333333333e-05 
-7.172247895238e-05 4.209193152321e-07 0.0 
4.209193152321e-07 4.100255547766e-04 0.0 
0.0 0.0 -7.066666666667e-05 
-6.777497963431e-05 1.000449125460e-06 0.0 
1.000449125460e-06 4.561234038025e-04 0.0 
0.0 0.0 -6.733333333333e-05 
-6.872017315909e-05 7.209100044906e-07 0.0 
7.209100044906e-07 4.587775367494e-04 0.0 
0.0 0.0 -6.733333333333e-05 
-7.101694663725e-05 3.221273702941e-06 0.0 
3.221273702941e-06 4.103304483538e-04 0.0 
0.0 0.0 -7.066666666667e-05 
-6.707869793323e-05 4.876313269616e-07 0.0 
4.876313269616e-07 4.540272230233e-04 0.0 
0.0 0.0 -6.733333333333e-05 
-7.351744776430e-05 -3.590528867594e-06 0.0 
-3.590528867594e-06 4.105429329544e-04 0.0 
0.0 0.0 -7.066666666667e-05 
-6.961608694047e-05 2.500866072093e-06 0.0 
2.500866072093e-06 4.606767609940e-04 0.0 
0.0 0.0 -6.733333333333e-05 
-6.487293508417e-05 7.258987181476e-06 0.0 
7.258987181476e-06 4.092859995140e-04 0.0 
0.0 0.0 -7.066666666667e-05 
-5.398091155439e-05 -5.270882630615e-06 0.0 
-5.270882630615e-06 3.945040721260e-04 0.0 
0.0 0.0 -6.706972789116e-05 
-6.158970074179e-05 -5.552157044761e-05 0.0 
-5.552157044761e-05 4.267642640122e-04 0.0 
0.0 0.0 -6.900000000000e-05 
-7.727313769225e-05 5.339151864984e-05 0.0 
5.339151864984e-05 4.548383156643e-04 0.0 
0.0 0.0 -6.900000000000e-05 
-6.625915328777e-05 -5.902071933345e-06 0.0 
-5.902071933345e-06 4.326595679538e-04 0.0 
0.0 0.0 -6.566666666667e-05 
-7.280062491732e-05 5.686248152954e-06 0.0 
5.686248152954e-06 4.472638552754e-04 0.0 
0.0 0.0 -7.233333333333e-05 
-5.697171891332e-05 -3.753491299719e-06 0.0 
-3.753491299719e-06 4.144867007492e-04 0.0 
0.0 0.0 -6.566666666667e-05 
-7.781230655286e-05 -1.181963691656e-05 0.0 
-1.181963691656e-05 5.088176645313e-04 0.0 
0.0 0.0 -7.733333333333e-05 
-8.119458623839e-05 6.972004007010e-06 0.0 
6.972004007010e-06 4.800472308251e-04 0.0 
0.0 0.0 -8.066666666667e-05 
-7.753617196034e-05 -1.686526781122e-06 0.0 
-1.686526781122e-06 5.271460113287e-04 0.0 
0.0 0.0 -7.733333333333e-05 
-8.055598266159e-05 -8.309609844759e-07 0.0 
-8.309609844759e-07 4.810024852218e-04 0.0 
0.0 0.0 -8.066666666667e-05 
-7.731437449528e-05 -4.694243935429e-07 0.0 
-4.694243935429e-07 5.276425525984e-04 0.0 
0.0 0.0 -7.733333333333e-05 
-8.071639800283e-05 -2.964994736049e-07 0.0 
-2.964994736049e-07 4.811871574007e-04 0.0 
0.0 0.0 -8.066666666667e-05 
-7.735101054680e-05 -3.609553578528e-07 0.0 
-3.609553578528e-07 5.278599491145e-04 0.0 
0.0 0.0 -7.733333333333e-05 
-8.049136654625e-05 -1.810628668294e-07 0.0 
-1.810628668294e-07 4.812029401063e-04 0.0 
0.0 0.0 -8.066666666667e-05 
-7.738220980221e-05 -1.577265426917e-07 0.0 
-1.577265426917e-07 5.278701924915e-04 0.0 
0.0 0.0 -7.733333333333e-05 
-8.058899491475e-05 1.039952126182e-07 0.0 
1.039952126182e-07 4.813345582273e-04 0.0 
0.0 0.0 -8.066666666667e-05 
-7.749230465888e-05 -5.589101690134e-08 0.0 
-5.589101690134e-08 5.280305322976e-04 0.0 
0.0 0.0 -7.733333333333e-05 
-8.063738768920e-05 2.943263093068e-07 0.0 
2.943263093068e-07 4.815246670627e-04 0.0 
0.0 0.0 -8.066666666667e-05 
-7.766334824340e-05 -1.624950510169e-07 0.0 
-1.624950510169e-07 5.282822808427e-04 0.0 
0.0 0.0 -7.733333333333e-05 
-8.108582164939e-05 -1.817042453861e-07 0.0 
-1.817042453861e-07 4.816572964670e-04 0.0 
0.0 0.0 -8.066666666667e-05 
-7.771301959687e-05 -4.432509054862e-07 0.0 
-4.432509054862e-07 5.283746937170e-04 0.0 
0.0 0.0 -7.733333333333e-05 
-8.689319893331e-05 -2.398901531109e-05 0.0 
-2.398901531109e-05 5.261728810593e-04 0.0 
0.0 0.0 -7.871598639454e-05 
-8.063163037591e-05 -5.731608516611e-07 0.0 
-5.731608516611e-07 4.813582541077e-04 0.0 
0.0 0.0 -8.066666666667e-05 
-7.282722797358e-05 2.956686511685e-06 0.0 
2.956686511685e-06 4.834944195558e-04 0.0 
0.0 0.0 -8.066666666667e-05 
-7.761542592040e-05 1.556054086581e-08 0.0 
1.556054086581e-08 5.279085131106e-04 0.0 
0.0 0.0 -7.733333333333e-05 
-8.085458222001e-05 2.978087830834e-07 0.0 
2.978087830834e-07 4.814005580441e-04 0.0 
0.0 0.0 -8.066666666667e-05 
-7.779362984557e-05 2.880682919728e-07 0.0 
2.880682919728e-07 5.280866836434e-04 0.0 
0.0 0.0 -7.733333333333e-05 
-8.137173526484e-05 3.903881692923e-07 0.0 
3.903881692923e-07 4.816228572156e-04 0.0 
0.0 0.0 -8.066666666667e-05 
-7.797659907223e-05 1.259601545473e-07 0.0 
1.259601545473e-07 5.283575677450e-04 0.0 
0.0 0.0 -7.733333333333e-05 
-8.138094734250e-05 -4.007379149128e-08 0.0 
-4.007379149128e-08 4.816094746352e-04 0.0 
0.0 0.0 -8.066666666667e-05 
-6.958892147872e-05 2.693700344811e-06 0.0 
2.693700344811e-06 4.979075358180e-04 0.0 
0.0 0.0 -7.538265306121e-05 
-7.799720130815e-05 7.326478423484e-09 0.0 
7.326478423484e-09 5.282573840779e-04 0.0 
0.0 0.0 -7.733333333333e-05 
-8.143970684332e-05 -2.393759007723e-07 0.0 
-2.393759007723e-07 4.814739348898e-04 0.0 
0.0 0.0 -8.066666666667e-05 
-7.794669720480e-05 -1.073637191229e-07 0.0 
-1.073637191229e-07 5.280808317875e-04 0.0 
0.0 0.0 -7.733333333333e-05 
-8.174229233143e-05 -1.069148929710e-06 0.0 
-1.069148929710e-06 4.809843103418e-04 0.0 
0.0 0.0 -8.066666666667e-05 
-7.747028842183e-05 1.035597227599e-06 0.0 
1.035597227599e-06 5.267993287079e-04 0.0 
0.0 0.0 -7.733333333333e-05 
-8.011487521303e-05 3.227514386744e-06 0.0 
3.227514386744e-06 4.812335686475e-04 0.0 
0.0 0.0 -8.066666666667e-05 
-7.838914561904e-05 1.172078597877e-06 0.0 
1.172078597877e-06 5.288970930108e-04 0.0 
0.0 0.0 -7.733333333333e-05 
-8.384419164103e-05 -8.759494395606e-07 0.0 
-8.759494395606e-07 4.817654260896e-04 0.0 
0.0 0.0 -8.066666666667e-05 
-7.599610420366e-05 7.462175851506e-06 0.0 
7.462175851506e-06 4.817404732796e-04 0.0 
0.0 0.0 -8.066666666667e-05 
-7.768361330392e-05 1.900460429623e-06 0.0 
1.900460429623e-06 5.268691696083e-04 0.0 
0.0 0.0 -7.733333333333e-05 
-7.085007670582e-05 3.811906941392e-06 0.0 
3.811906941392e-06 5.100816028034e-04 0.0 
0.0 0.0 -8.038265306121e-05 
-8.018411443096e-05 1.198366395229e-06 0.0 
1.198366395229e-06 5.324278016454e-04 0.0 
0.0 0.0 -7.733333333333e-05 
-6.417731922861e-05 -3.943230338449e-06 0.0 
-3.943230338449e-06 4.647268317312e-04 0.0 
0.0 0.0 -7.704931972788e-05 
-8.746095442730e-05 -5.552433142474e-05 0.0 
-5.552433142474e-05 5.117494040768e-04 0.0 
0.0 0.0 -7.900000000000e-05 
-7.187846570217e-05 5.325151437038e-05 0.0 
5.325151437038e-05 4.838528020986e-04 0.0 
0.0 0.0 -7.900000000000e-05 
-8.300562030776e-05 -5.928768708113e-06 0.0 
-5.928768708113e-06 5.060343090617e-04 0.0 
0.0 0.0 -8.233333333333e-05 
-7.613395825065e-05 5.573077951687e-06 0.0 
5.573077951687e-06 4.912471208609e-04 0.0 
0.0 0.0 -7.566666666667e-05 
-6.717161144140e-05 -3.263046586986e-06 0.0 
-3.263046586986e-06 4.846642233179e-04 0.0 
0.0 0.0 -7.566666666667e-05 
-9.283937133862e-05 -1.305520020021e-05 0.0 
-1.305520020021e-05 5.701490487258e-04 0.0 
0.0 0.0 -9.066666666667e-05 
-8.786125290506e-05 6.228376696680e-06 0.0 
6.228376696680e-06 5.972094942788e-04 0.0 
0.0 0.0 -8.733333333333e-05 
-9.022014186398e-05 -3.549288141163e-06 0.0 
-3.549288141163e-06 5.499642990775e-04 0.0 
0.0 0.0 -9.066666666667e-05 
-8.722264932826e-05 -1.484814638766e-06 0.0 
-1.484814638766e-06 5.950278411204e-04 0.0 
0.0 0.0 -8.733333333333e-05 
-9.018085993915e-05 -1.417099940171e-07 0.0 
-1.417099940171e-07 5.484767631814e-04 0.0 
0.0 0.0 -9.066666666667e-05 
-8.738306466949e-05 -3.897787092036e-07 0.0 
-3.897787092036e-07 5.957792554076e-04 0.0 
0.0 0.0 -8.733333333333e-05 
-9.080630643208e-05 -1.004642962581e-06 0.0 
-1.004642962581e-06 5.490414961774e-04 0.0 
0.0 0.0 -9.066666666667e-05 
-8.715803321291e-05 -7.191945164273e-07 0.0 
-7.191945164273e-07 5.952355706191e-04 0.0 
0.0 0.0 -8.733333333333e-05 
-8.983972774977e-05 2.250980017128e-08 0.0 
2.250980017128e-08 5.486638855821e-04 0.0 
0.0 0.0 -9.066666666667e-05 
-8.725566158141e-05 1.431482839066e-07 0.0 
1.431482839066e-07 5.957393564191e-04 0.0 
0.0 0.0 -8.733333333333e-05 
-9.054185498745e-05 8.009925208000e-08 0.0 
8.009925208000e-08 5.490600954273e-04 0.0 
0.0 0.0 -9.066666666667e-05 
-8.730405435587e-05 2.268594339034e-07 0.0 
2.268594339034e-07 5.956704623471e-04 0.0 
0.0 0.0 -8.733333333333e-05 
-9.010725221013e-05 1.077984881025e-06 0.0 
1.077984881025e-06 5.491565562495e-04 0.0 
0.0 0.0 -9.066666666667e-05 
-9.710486836519e-05 -2.255663521806e-05 0.0 
-2.255663521806e-05 5.958483065018e-04 0.0 
0.0 0.0 -8.873639455782e-05 
-8.775248831606e-05 6.167278534911e-07 0.0 
6.167278534911e-07 5.967481919071e-04 0.0 
0.0 0.0 -8.733333333333e-05 
-9.103086627003e-05 -1.513341137134e-06 0.0 
-1.513341137134e-06 5.495772900249e-04 0.0 
0.0 0.0 -9.066666666667e-05 
-8.073249876148e-05 1.956568500794e-06 0.0 
1.956568500794e-06 5.676914892222e-04 0.0 
0.0 0.0 -8.540306122449e-05 
-8.729829704258e-05 -3.688701156799e-07 0.0 
-3.688701156799e-07 5.951865840250e-04 0.0 
0.0 0.0 -8.733333333333e-05 
-9.037940068144e-05 6.271206724163e-07 0.0 
6.271206724163e-07 5.487658884447e-04 0.0 
0.0 0.0 -9.066666666667e-05 
-8.327880964785e-05 3.397797209923e-06 0.0 
3.397797209923e-06 5.519081980575e-04 0.0 
0.0 0.0 -9.066666666667e-05 
-8.752124888667e-05 7.623016925715e-07 0.0 
7.623016925715e-07 5.955739018708e-04 0.0 
0.0 0.0 -8.733333333333e-05 
-9.119391855359e-05 1.735421697781e-06 0.0 
1.735421697781e-06 5.492228013243e-04 0.0 
0.0 0.0 -9.066666666667e-05 
-8.803840193150e-05 9.847285726832e-07 0.0 
9.847285726832e-07 5.964786609531e-04 0.0 
0.0 0.0 -8.733333333333e-05 
-9.156330581238e-05 2.666222241028e-07 0.0 
2.666222241028e-07 5.495997176964e-04 0.0 
0.0 0.0 -9.066666666667e-05 
-8.804761400916e-05 4.409974905671e-07 0.0 
4.409974905671e-07 5.960772025302e-04 0.0 
0.0 0.0 -8.733333333333e-05 
-8.073638837697e-05 3.015269661060e-06 0.0 
3.015269661060e-06 5.789040759249e-04 0.0 
0.0 0.0 -9.040306122449e-05 
-9.112505899787e-05 2.746880104957e-07 0.0 
2.746880104957e-07 5.493199630352e-04 0.0 
0.0 0.0 -9.066666666667e-05 
-8.810637350998e-05 6.151652775298e-07 0.0 
6.151652775298e-07 5.958963692618e-04 0.0 
0.0 0.0 -8.733333333333e-05 
-8.840895899809e-05 1.155447038660e-07 0.0 
1.155447038660e-07 5.965143081286e-04 0.0 
0.0 0.0 -8.733333333333e-05 
-9.164597760345e-05 8.836231120007e-07 0.0 
8.836231120007e-07 5.493625037381e-04 0.0 
0.0 0.0 -9.066666666667e-05 
-8.678154187969e-05 1.516005662498e-06 0.0 
1.516005662498e-06 5.914512376221e-04 0.0 
0.0 0.0 -8.733333333333e-05 
-9.368423993004e-05 -3.485429264516e-06 0.0 
-3.485429264516e-06 5.486941450264e-04 0.0 
0.0 0.0 -9.066666666667e-05 
-9.051085830770e-05 3.821512302252e-06 0.0 
3.821512302252e-06 6.011139986344e-04 0.0 
0.0 0.0 -8.733333333333e-05 
-8.623635069903e-05 1.130998903511e-05 0.0 
1.130998903511e-05 5.483505428446e-04 0.0 
0.0 0.0 -9.066666666667e-05 
-7.442069267613e-05 -5.394763382115e-06 0.0 
-5.394763382115e-06 5.345026645236e-04 0.0 
0.0 0.0 -8.706972789116e-05 
-8.056486673946e-05 -5.396645541003e-05 0.0 
-5.396645541003e-05 5.644717008348e-04 0.0 
0.0 0.0 -8.900000000000e-05 
-9.791450863527e-05 5.509961114953e-05 0.0 
5.509961114953e-05 5.954927673430e-04 0.0 
0.0 0.0 -8.900000000000e-05 
-8.633895364109e-05 -4.683164540594e-06 0.0 
-4.683164540594e-06 5.718841532106e-04 0.0 
0.0 0.0 -8.566666666667e-05 
-9.239018602622e-05 8.127448127221e-06 0.0 
8.127448127221e-06 5.860724498030e-04 0.0 
0.0 0.0 -9.233333333333e-05 
-7.782722797358e-05 -3.296902887834e-06 0.0 
-3.296902887834e-06 5.542989905497e-04 0.0 
0.0 0.0 -8.566666666667e-05 
-9.950603800529e-05 -1.732824840327e-05 0.0 
-1.732824840327e-05 6.532123038277e-04 0.0 
0.0 0.0 -9.733333333333e-05 
-9.845490008412e-05 -7.423843482372e-07 0.0 
-7.423843482372e-07 6.182720398665e-04 0.0 
0.0 0.0 -1.006666666667e-04 
-9.688680853064e-05 -2.101224633275e-06 0.0 
-2.101224633275e-06 6.650247464175e-04 0.0 
0.0 0.0 -9.733333333333e-05 
-1.012464655028e-04 -1.533092774878e-06 0.0 
-1.533092774878e-06 6.197292804394e-04 0.0 
0.0 0.0 -1.006666666667e-04 
-9.684752660582e-05 -6.274302712926e-08 0.0 
-6.274302712926e-08 6.662579141266e-04 0.0 
0.0 0.0 -9.733333333333e-05 
-1.011453118386e-04 1.046563005614e-06 0.0 
1.046563005614e-06 6.213209177569e-04 0.0 
0.0 0.0 -1.006666666667e-04 
-9.747297309875e-05 -2.278502078315e-06 0.0 
-2.278502078315e-06 6.683740764344e-04 0.0 
0.0 0.0 -9.733333333333e-05 
-9.931899188090e-05 -3.288065646636e-06 0.0 
-3.288065646636e-06 6.197642772278e-04 0.0 
0.0 0.0 -1.006666666667e-04 
-9.650639441644e-05 2.666172739854e-07 0.0 
2.666172739854e-07 6.659194579952e-04 0.0 
0.0 0.0 -9.733333333333e-05 
-1.000788983180e-04 1.910523566858e-06 0.0 
1.910523566858e-06 6.207688021561e-04 0.0 
0.0 0.0 -1.006666666667e-04 
-9.720852165412e-05 -4.164213939214e-07 0.0 
-4.164213939214e-07 6.678605235040e-04 0.0 
0.0 0.0 -9.733333333333e-05 
-1.005225329566e-04 -1.059277058645e-06 0.0 
-1.059277058645e-06 6.206711688955e-04 0.0 
0.0 0.0 -1.006666666667e-04 
-1.076654382393e-04 -2.454755873475e-05 0.0 
-2.454755873475e-05 6.666235465443e-04 0.0 
0.0 0.0 -9.871211211756e-05 
-9.677391887680e-05 3.262994796209e-07 0.0 
3.262994796209e-07 6.670349670739e-04 0.0 
0.0 0.0 -9.733333333333e-05 
-1.004112575968e-04 6.266382551746e-06 0.0 
6.266382551746e-06 6.238730393685e-04 0.0 
0.0 0.0 -1.006666666667e-04 
-9.691250726487e-05 3.272004711609e-06 0.0 
3.272004711609e-06 6.207526912737e-04 0.0 
0.0 0.0 -1.006666666667e-04 
-9.769753293670e-05 3.857908775590e-07 0.0 
3.857908775590e-07 6.683264731120e-04 0.0 
0.0 0.0 -9.733333333333e-05 
-1.018216783017e-04 -1.733271697638e-06 0.0 
-1.733271697638e-06 6.205292306068e-04 0.0 
0.0 0.0 -1.006666666667e-04 
-9.704606734811e-05 1.789783002985e-06 0.0 
1.789783002985e-06 6.661622647259e-04 0.0 
0.0 0.0 -9.733333333333e-05 
-1.018704888891e-04 2.872470909369e-06 0.0 
2.872470909369e-06 6.210028127133e-04 0.0 
0.0 0.0 -1.006666666667e-04 
-9.786058522026e-05 1.410942441991e-06 0.0 
1.410942441991e-06 6.680408138480e-04 0.0 
0.0 0.0 -9.733333333333e-05 
-1.006317600444e-04 1.941140312877e-06 0.0 
1.941140312877e-06 6.214755597104e-04 0.0 
0.0 0.0 -1.006666666667e-04 
-9.094846281658e-05 3.460693907673e-06 0.0 
3.460693907673e-06 6.387381401671e-04 0.0 
0.0 0.0 -9.537877878422e-05 
-9.822997247904e-05 5.655000512226e-07 0.0 
5.655000512226e-07 6.686847925497e-04 0.0 
0.0 0.0 -9.733333333333e-05 
-1.005721140742e-04 -4.771801101198e-07 0.0 
-4.771801101198e-07 6.209284532513e-04 0.0 
0.0 0.0 -1.006666666667e-04 
-9.779172566454e-05 1.437765353010e-06 0.0 
1.437765353010e-06 6.669881357659e-04 0.0 
0.0 0.0 -9.733333333333e-05 
-9.964754038308e-05 2.397319642453e-06 0.0 
2.397319642453e-06 6.203504795262e-04 0.0 
0.0 0.0 -1.006666666667e-04 
-9.942841041269e-05 6.330945354939e-06 0.0 
6.330945354939e-06 6.210142166029e-04 0.0 
0.0 0.0 -1.006666666667e-04 
-9.831264427012e-05 3.607920745624e-06 0.0 
3.607920745624e-06 6.668464283750e-04 0.0 
0.0 0.0 -9.733333333333e-05 
-1.003509065967e-04 3.038689806417e-06 0.0 
3.038689806417e-06 6.697580945376e-04 0.0 
0.0 0.0 -9.733333333333e-05 
-9.096542632604e-05 2.974368147523e-06 0.0 
2.974368147523e-06 6.503827388711e-04 0.0 
0.0 0.0 -1.003787787842e-04 
-8.451759272524e-05 -2.785279264380e-06 0.0 
-2.785279264380e-06 6.050107377767e-04 0.0 
0.0 0.0 -9.704544545089e-05 
-1.061297274301e-04 -4.871673269526e-05 0.0 
-4.871673269526e-05 6.458409108431e-04 0.0 
0.0 0.0 -9.900000000000e-05 
-9.597407948562e-05 5.882537232744e-05 0.0 
5.882537232744e-05 6.276346610407e-04 0.0 
0.0 0.0 -9.900000000000e-05 
-1.061722618288e-04 2.720032131649e-06 0.0 
2.720032131649e-06 6.459980937412e-04 0.0 
0.0 0.0 -1.023333333333e-04 
-9.572351935955e-05 9.504820778219e-06 0.0 
9.504820778219e-06 6.293354809804e-04 0.0 
0.0 0.0 -9.566666666667e-05 
-8.827880964785e-05 -4.615262033286e-06 0.0 
-4.615262033286e-06 6.261214177850e-04 0.0 
0.0 0.0 -9.566666666667e-05 

SCALARS element_materi_plasti_kappa_shear float
LOOKUP_TABLE default
2.847132974464e-04
2.567335577462e-04
8.383458615127e-04
8.438320912051e-04
5.252340220499e-04
1.092332508777e-04
5.211056369626e-04
2.682011350187e-04
5.284032086376e-04
8.364231581825e-04
5.721664887116e-04
2.192159031084e-04
8.427469438430e-04
5.626516430071e-04
8.591411753051e-04
8.596118674820e-04
5.228709310720e-04
9.890289689114e-05
1.829897689724e-04
1.694158919351e-04
8.423436282844e-04
2.963793359042e-04
3.324051967767e-04
8.081759085961e-04
6.000118969987e-04
6.135444959901e-04
4.831662702076e-04
8.640260917564e-04
6.044060870881e-04
8.284633969501e-04
1.393644665420e-04
6.157167640348e-05
8.645031697050e-04
7.227162512376e-04
8.409567717064e-04
8.889842858592e-04
8.867272022491e-04
8.401574712595e-04
4.762820424766e-04
4.829160232604e-04
3.784313710213e-04
8.419842235364e-04
1.971583877801e-04
4.640967896192e-04
8.239259452907e-04
1.959288160543e-04
8.321288766212e-05
8.084255947212e-04
3.689720172040e-05
5.421120849717e-04
3.571518168043e-04
2.245192715023e-04
1.849539392691e-04
3.438430703420e-04
8.437751075118e-04
2.946472074171e-04
2.169482347232e-04
7.261086015541e-04
1.365401986572e-04
8.602343425103e-04
5.633449810247e-05
8.068338246298e-04
3.495820234045e-04
1.625404768038e-04
8.423121318073e-04
3.196875078224e-04
2.407380933191e-05
8.605021510781e-04
1.455927549119e-04
8.423461725362e-04
6.362218458080e-04
8.811950242161e-04
8.101315001547e-04
6.837837458653e-05
2.980351712693e-04
8.450728483081e-04
8.650274645366e-04
1.497776459891e-04
1.164171881254e-04
1.495511738586e-04
1.394737434445e-04
4.994656174592e-04
3.126596433046e-04
2.656451840487e-04
5.512146343309e-04
5.478404078236e-04
6.543703068282e-04
7.066969326251e-04
7.292257809066e-04
5.182254199727e-04
3.772961361312e-05
5.068209088843e-04
7.023712359703e-04
7.053137767572e-04
9.034935541177e-04
8.681099508839e-04
4.998503861448e-04
8.654654996241e-04
5.895620793702e-04
3.387865222816e-04
5.023282053966e-04
8.610484090904e-04
6.969273947015e-04
8.114912522944e-04
3.066747276919e-04
1.031286558348e-04
7.940042257422e-04
7.514569823258e-04
6.199677439276e-05
8.454993593349e-04
6.946613572604e-04
4.904031993171e-05
4.043465054525e-04
4.701260917007e-04
3.591769958220e-04
3.010429561774e-04
3.537650535641e-04
8.520744351586e-04
5.793631570773e-04
3.261491376649e-04
1.418039967851e-04
5.194733326263e-04
7.366211917707e-04
3.289742658715e-04
1.029625399055e-04
4.250840810499e-04
3.733497519716e-04
3.937484836423e-04
8.617156175713e-04
1.214391796965e-04
6.025351137927e-04
8.438264723838e-04
4.251430981113e-04
4.028071146060e-04
8.421798094545e-04
8.449973380302e-04
6.540085342923e-04
4.550812470554e-04
8.653037555385e-04
4.073208974334e-04
8.427923186268e-04
8.640045548534e-04
5.578310155526e-04
6.509573146725e-04
4.117138516470e-04
3.711211770560e-04
4.681101004950e-04
3.518672901193e-04
5.147824992523e-04
4.107193794640e-04
3.646113790962e-05
5.532223658631e-04
1.258155624666e-04
4.487912821367e-04
8.442761777728e-04
3.036097253508e-04
6.795876328870e-04
2.190343751187e-04
6.939470314270e-04
5.021535652402e-04
3.806977165922e-04
7.481063603695e-04
1.298522692207e-04
7.928147477738e-04
5.039709184499e-04
8.650019251011e-04
5.013582088109e-04
3.160516627979e-04
4.393239970158e-04
5.920825198174e-04
2.289923969885e-04
3.854224720753e-04
6.780718451192e-04
5.198603884199e-04
3.586956886529e-04
4.169796386473e-04
7.560276412873e-04
4.159140997811e-04
8.428055575623e-04
8.639767009483e-04
2.975132247583e-04
3.989799041527e-04
7.712498508064e-04
3.945945745463e-04
2.576819868644e-04
4.854060291149e-04
3.951341740237e-04
8.456558194475e-04
7.010154264104e-04
7.714816593418e-04
1.746707301352e-04
3.610997931363e-04
7.204647992586e-04
1.945331205908e-05
3.903836025195e-04
7.222445599691e-04
1.036327141325e-04
8.424473339204e-04
6.428453457772e-04
3.831449392291e-04
7.193613777923e-04
5.586004203897e-04
5.898087867421e-04
8.246624455494e-04
2.857235697232e-04
4.866694704310e-04
5.222557039026e-04
6.732665719341e-04
5.326319802480e-04
4.881655111683e-04
6.257681940146e-04
7.388362075692e-04
5.690614774354e-05
2.917017983456e-04
3.317775165376e-04
4.735931798939e-04
7.340526410142e-04
1.447054251006e-04
6.965604954019e-04
5.013674676710e-04
3.566918662294e-04
6.715636749960e-04
6.571013662795e-05
6.877012871154e-04
5.549518836130e-05
8.040745949318e-05
1.732184497000e-04
2.392003364027e-04
7.177475001527e-04
2.320046903568e-04
2.075153724814e-04
1.800041788403e-04
1.507998795129e-04
7.424671531813e-04
5.071426105021e-04
8.446796247734e-04
0.0
2.497594834345e-04
4.009784043095e-04
3.635781274630e-04
6.932515688423e-04
8.647303225506e-04
6.886146806345e-04
2.931670056878e-04
7.441379809633e-04
6.308353337863e-04
4.980516236996e-04
6.615635321969e-04
8.261379668094e-04
4.064024309512e-04
2.371048478647e-04
5.754464620744e-04
9.026357122934e-04
4.917413561400e-04
5.134823346619e-04
5.630191156583e-04
1.329471826665e-04
5.277021269871e-04
2.878196777098e-04
1.938006262720e-04
1.362334838042e-04
7.132570322814e-04
5.514544182274e-04
3.441653812797e-04
7.429062318585e-04
7.078085783757e-04
5.222121837301e-04
8.463050092743e-04
5.284876028695e-04
5.460070011469e-04
4.376131710040e-04
5.575789166973e-04
2.377977007102e-04
5.035541614816e-04
4.257154416742e-04
3.011811086088e-04
6.820805742593e-04
2.384378149136e-05
5.562902183290e-04
3.071842567668e-04
2.550196540710e-04
2.439773196071e-04
5.894366693464e-04
9.570931057482e-05
3.576303071845e-04
5.731391386351e-04
5.461339597621e-04
5.616867596350e-04
1.271009961872e-04
2.958157551279e-04
2.761694005421e-04
3.216903735558e-04
6.680530276719e-04
3.637979337747e-04
3.949989305544e-04
3.759115002993e-04
1.575634516332e-04
4.501668004302e-04
1.708993772794e-04
9.019026024371e-04
9.023973057295e-04
5.057511345693e-04
2.631127598012e-04
2.307674832005e-04
5.600193776098e-04
2.500946570906e-04
2.700679866253e-04
4.922948739685e-04
8.667616329614e-04
3.318462296128e-04
6.222149882880e-04
1.830371105394e-04
9.023475672024e-04
2.441397582287e-04
5.112104398270e-04
1.689503966276e-04
6.053623747982e-04
4.196544349858e-04
2.903890059932e-04
5.270871447235e-04
9.021440381368e-04
3.510699855254e-04
5.781821550489e-04
1.886309360797e-04
6.316875196563e-04
6.668857487106e-04
2.624435093985e-04
6.164660003841e-04
9.026438880277e-04
7.124911027791e-04
9.030006616607e-04
6.099328680256e-04
7.015574955173e-04
2.180182464546e-04
4.840383207087e-04
5.408811792003e-04
5.701871426172e-04
4.675332375955e-04
9.035883904622e-04
5.850053230518e-04
5.141279373987e-04
3.811690988531e-04
1.956242149518e-04
4.646237938930e-04
2.742553589397e-04
5.220512861019e-04
2.960117191843e-04
3.368501384635e-04
7.076177555195e-04
2.798327001462e-04
4.981195041245e-04
5.922020028833e-04
5.249691217824e-04
9.022141612185e-04
4.195717744466e-04
2.760615473356e-04
3.714756492195e-04
2.666495641069e-04
2.573536274962e-04
7.531436391681e-04
5.406886875803e-04
3.691632618911e-04
4.556110258937e-04
9.030518011548e-04
8.532871781874e-04
7.461245423291e-04
6.934880992847e-04
5.105698072065e-04
3.813116805693e-04
2.690679185397e-04
3.126694468458e-04
5.164893174634e-04
5.919748660066e-04
4.476339003619e-04
7.537614717665e-04
2.814322894241e-04
4.431267281225e-04
5.162384399113e-04
3.994083330778e-04
9.019027868779e-04
9.024199943996e-04
8.466674059490e-04
5.551721733312e-04
7.381697029613e-04
2.318050061718e-04
3.566133739436e-04
2.004113789535e-04
3.876518657495e-04
5.007689008681e-04
6.066206779727e-04
8.634617584911e-04
7.387016338322e-04
5.700145676085e-04
5.843478329972e-04
2.129102317008e-04
9.963202888370e-05
4.255642556790e-04
4.864892581303e-04
4.557093610505e-04
1.015080950596e-04
5.392744089157e-04
1.864447400827e-04
2.686669338435e-04
8.829401381496e-04
6.479849204365e-04
5.101152900271e-04
1.402250907171e-04
4.625920286436e-04
4.307827734044e-04
5.943113921106e-04
9.027611341500e-04
4.797580040648e-04
5.649702214781e-04
4.419535104601e-04
7.334092120784e-04
5.703474346401e-04
9.028672049198e-04
8.818149095568e-04
8.812004500203e-04
8.770344726619e-04
6.086454399872e-04
7.380884957385e-04
7.670249911297e-04
3.946547610248e-04
3.761808931614e-04
4.220813725199e-04
7.589723938571e-04
9.023328764655e-04
7.577932565223e-04
6.026760527823e-04
7.626774697069e-04
6.606437481449e-04
4.567756297563e-04
3.825801685651e-04
2.007576887360e-04
8.470469883245e-04
3.704624717408e-04
8.076533810370e-04
4.162571300339e-04
2.699749840163e-04
8.434505841465e-04
2.924500070844e-04
8.816442479766e-04
8.452247512919e-04
5.545088614739e-04
3.473443607641e-05
8.815269345483e-04
8.437795076668e-04
2.644715325930e-04
6.230832692165e-04
9.043633052623e-04
0.0
4.136686690805e-04
5.789929662664e-04
5.300876254499e-04
5.356595073985e-04
2.252617715596e-04
8.806829294995e-04
4.006991802615e-04
1.303841541133e-04
8.663125818618e-04
6.051131586377e-05
4.315774978662e-04
1.176867923368e-04
4.596515473754e-04
9.012311898413e-04
8.829625409697e-04
5.653646595553e-04
8.124087917367e-05
9.994837872237e-05
1.389614691644e-04
7.526188084607e-04
5.232481456078e-04
5.352467886841e-04
8.832777862969e-04
5.239926934470e-04
9.034954834455e-04
6.742815143354e-04
5.863949273689e-04
2.820464387522e-04
6.178481751699e-04
1.825530642902e-04
8.832148814275e-04
8.787933827960e-04
8.806921593160e-04
5.756624678762e-04
3.963242992692e-04
4.623808742286e-04
5.898300044950e-04
8.827105655163e-04
2.739608454354e-04
3.152297798322e-04
3.346486994201e-04
6.118815291473e-04
9.031087235632e-04
9.826315240639e-05
8.806359177385e-04
3.091995583178e-04
8.830701307018e-04
7.737556814763e-04
2.602550826630e-05
4.315307198807e-04
7.678889909001e-04
8.823867652728e-04
6.136211757286e-04
6.941437612341e-04
1.584089862020e-04
8.072406538752e-04
3.285549430036e-04
3.399738602395e-04
6.350089245098e-05
8.815166830728e-04
2.259416864064e-04
7.443039276558e-04
5.669420517884e-04
2.830302926058e-04
3.206987936709e-04
5.893066187854e-04
8.831255390235e-04
4.112126309151e-04
6.461218310913e-04
5.245062035981e-04
5.860608677982e-04
3.451263767299e-04
6.003773440688e-04
5.107552153637e-04
6.659208771778e-04
6.625383459481e-04
5.000360828217e-04
4.220154532181e-04
2.979654696955e-04
3.903746207876e-04
6.804313980790e-04
5.475016889342e-04
9.031543334572e-04
7.872511197512e-04
2.513213857487e-04
8.791428665884e-04
8.623865534780e-04
4.695549206328e-04
3.669236207070e-05
9.023712677026e-04
7.825243345501e-04
2.836634880462e-04
8.808658468444e-04
6.210975252764e-04
4.005662234096e-04
5.509439591359e-04
5.333534302821e-04
5.303907689406e-04
6.114043158285e-04
6.485756697789e-04
4.497226363466e-04
6.883221258394e-04
5.985234349652e-04
4.277851164570e-04
6.370445780655e-04
3.335340985590e-04
5.972217102501e-04
2.690095818511e-05
3.234473257319e-04
3.145667651333e-04
4.619525145775e-04
4.941683527065e-04
6.157927676169e-04
5.953076823754e-04
2.893667186736e-04
8.829502872488e-04
5.841509097848e-04
4.814294041828e-04
5.596214459887e-04
4.676664971932e-04
0.0
5.801676505400e-04
3.844985916664e-04
0.0
4.554300220234e-04
6.611400294946e-04
7.615386503395e-04
5.667217612568e-04
5.798125605848e-04
4.946399896661e-04
4.612945919967e-04
8.448933154629e-04
5.351237915901e-04
2.265059230248e-05
1.593136185292e-04
3.598215869650e-05
2.756541644964e-04
7.595674519950e-04
7.663452637067e-04
7.206272217663e-04
3.111805889127e-04
6.034032161237e-04
7.573752906356e-04
1.740144548794e-04
3.864583664951e-04
3.117083041406e-04
9.031633853049e-04
8.822228944503e-04
4.285735382123e-04
4.870038452020e-04
5.444247428616e-04
7.843706278062e-04
1.688678543700e-04
7.320309974875e-04
1.024779424926e-04
4.424111468176e-04
4.932536473152e-04
3.661873855527e-05
4.046650665538e-04
7.818962903618e-04
2.628493764547e-05
4.594828512294e-04
4.812071489687e-04
6.367624673799e-04
3.155481759348e-04
3.029147364412e-04
2.132280228371e-04
7.837934729915e-04
8.448257163848e-04
7.363444438744e-04
2.851623301377e-04
1.072863423376e-04
4.603504121984e-04
4.608177344525e-04
4.831872055831e-04
0.0
3.555241354687e-05
7.966173186171e-05
2.342846998403e-04
6.373569268983e-05
4.549076851565e-04
0.0
2.796945326255e-04
6.183777696222e-04
4.824258644607e-04
7.814158546744e-04
6.352076666034e-04
5.781612852690e-04
3.372841396968e-04
1.018092465349e-04
8.804341959841e-04
9.035439950554e-04
5.614027168615e-04
4.616000397093e-04
3.431731325220e-04
9.014339937115e-04
2.659509024599e-04
4.803513075401e-04
4.596149613707e-04
4.369192074101e-04
8.832852469207e-04
9.009032309479e-04
6.250414495270e-05
0.0
1.266214781953e-04
4.876279566065e-04
8.196533199701e-04
2.444433938167e-05
7.274110977346e-04
0.0
6.250843933025e-04
2.867078562402e-05
2.783203544243e-05
5.997115799954e-04
7.944815531001e-04
6.355701656843e-04
4.791132808813e-04
3.652595870710e-05
6.229816343343e-04
8.791826602914e-04
9.014687340808e-04
4.821873124554e-04
6.503883133201e-04
8.818062794857e-04
6.993504510242e-04
9.789390783998e-05
6.279365927203e-05
3.939974307887e-05
3.825618914400e-04
9.021047273405e-04
8.443030366409e-04
0.0
4.516920689161e-04
8.837977955305e-04
9.047268419961e-04
9.014166279866e-04
6.824648899155e-04
7.516239818066e-04
8.796515991076e-04
8.818821043928e-04
7.273160736883e-04
2.211575098140e-05
4.787532764467e-04
4.846356056311e-04
0.0
8.847559387122e-04
9.037195635447e-04
8.791881994104e-04
2.812709352533e-05
2.886337119670e-05
8.807302274622e-04
8.799262388240e-04
6.606959234620e-04
4.786921816039e-04
7.045004432885e-04
5.666139951839e-04
4.780950833957e-04
2.553609013369e-05
2.943212211666e-05
2.487007266475e-05
2.712132983020e-05
4.772021594015e-04
4.286502641088e-04
0.0
6.145195953194e-04
0.0
8.800821581416e-04
8.788987143881e-04
8.809194080868e-04
1.543232978874e-04
2.904945093705e-04
8.796413922759e-04
7.525259440061e-04
8.837915350881e-04
7.992262474011e-04
8.460368269156e-04
4.052497561465e-04
9.034475555497e-04
9.025505378386e-04
7.709083270601e-04
8.195089923752e-04
6.617362762152e-04
0.0
4.176416125064e-04
6.092826118018e-05
7.888929342564e-04
4.363249681698e-04
7.275214838645e-04
2.209065391860e-04
8.130906403886e-05
7.783803544764e-04
4.610171208733e-04
3.609674789086e-04
7.334454872421e-04
7.883388593484e-04
3.608088371091e-04
6.922006084626e-04
6.034876983327e-04
6.562206089320e-04
6.777106223571e-04
3.699030016403e-04
4.367455166762e-04
4.808107450877e-04
6.170029851944e-04
7.543946188843e-04
6.998918906108e-04
2.236916744938e-04
7.865894495829e-04
7.412777532416e-04
5.338023001125e-04
6.428876137913e-04
6.366868729429e-04
7.982659732682e-04
7.683299234494e-04
5.896655507063e-04
7.981209395123e-04
7.317182777283e-04
6.996282799597e-04
8.110166413215e-04
7.924641880625e-04
6.744131504159e-04
6.666687721535e-04
2.222812676772e-04
2.065367340502e-04
1.125541859685e-04
6.237733767345e-05
7.698425966602e-04
7.679810230491e-04
6.018528781591e-05
7.767838420586e-04
5.508431979073e-04
7.139111020130e-04
7.225345758280e-04
3.210916204918e-04
7.277792051553e-04
5.345154592761e-04
6.681973168260e-04
8.270717611794e-04
2.126569924615e-04
8.168359037540e-04
6.998709092975e-04
2.419277465397e-04
2.572139128868e-04
5.157383088969e-04
6.206435762795e-04
3.445305893728e-04
7.246223149107e-04
6.508258121004e-04
5.014012835763e-04
6.818156971164e-04
7.083328473163e-04
6.952144219196e-04
1.892569743241e-04
4.759731321316e-04
7.583758524429e-04
7.205684773619e-04
4.286991399852e-04
6.094148028769e-04
7.977133214395e-04
6.694832793452e-04
1.063908867657e-04
1.078325644387e-04
2.185995729447e-04
7.487063186168e-04
6.453888805748e-04
5.685571839540e-04
5.747340170202e-04
7.632873978513e-04
5.213198554590e-04
7.022694847875e-04
2.278532579141e-04
8.104690401052e-04
5.072778477496e-04
2.493887876613e-04
4.811363962896e-04
3.641239825016e-04
2.855768811343e-04
5.596568083914e-04
0.0
0.0
6.426259570283e-04
2.090044132862e-04
6.487981239576e-04
6.292228741945e-04
3.962033144448e-04
2.579044153745e-04
7.616473441749e-04
1.019762165520e-04
3.852520764996e-04
7.853811998397e-04
1.733076863571e-04
6.041255787992e-04
5.562754309982e-04
1.755785073398e-04
7.771304788849e-04
6.907987842018e-04
2.031638653013e-04
7.812508794649e-04
7.761681869909e-04
2.340588006308e-04
3.099693431780e-04
2.401902132467e-04
6.877850878179e-04
5.412899770906e-04
7.773630800326e-04
7.570625316910e-04
6.683791686238e-04
6.625290522613e-04
1.893340517518e-04
6.820308372633e-04
6.862847063831e-04
5.467902184326e-04
6.498698714300e-04
7.159072219897e-04
4.836380743717e-04
7.367030404168e-04
4.559169101876e-04
5.273150536082e-04
3.411674526490e-04
3.634633618335e-04
6.658946142908e-04
5.048839066709e-04
2.598481237302e-04
1.310675626010e-04
6.702674056581e-04
2.538844621688e-04
8.100545142142e-04
6.906694072020e-04
7.081089564605e-04
8.422326803080e-04
4.360105328501e-04
2.279423584864e-04
1.438342882826e-04
6.746645813760e-04
6.253129879063e-04
9.918819555369e-05
3.502385490956e-04
2.023555415197e-04
6.246699331793e-04
3.695628740598e-04
6.232537801749e-04
3.438500574503e-04
7.461722125166e-04
2.994852823397e-04
6.807902368991e-04
2.134297640903e-04
6.549102842848e-04
5.031003560477e-04
6.885245121902e-04
3.402916395449e-04
1.961866029563e-04
5.822861240524e-04
6.308362435894e-04
4.380632245669e-04
6.281676019648e-04
2.380403549025e-04
6.367384190698e-04
1.839508450066e-04
7.725002622058e-04
6.561620715167e-04
6.933815038025e-04
8.092250112126e-04
5.501611933615e-04
1.836188012187e-04
6.153653481655e-04
7.923633784811e-04
3.086645625323e-04
6.943493645374e-04
6.953376833628e-04
2.383737125918e-04
6.351661673105e-04
5.732469191631e-04
2.731502544442e-04
3.307497968412e-04
5.297758459477e-04
6.688023425968e-04
4.058187172305e-04
5.054096064123e-04
6.614441040854e-04
5.998784189862e-04
5.910883509517e-04
4.972646323121e-04
7.574466861930e-04
5.955283378909e-04
5.798186174699e-04
8.003940697799e-04
7.180161900282e-04
6.490287924266e-04
7.113553544645e-04
3.823555630989e-04
3.565404549641e-04
1.953976897051e-04
6.410050228313e-04
3.763189430417e-04
6.449063337001e-04
6.199045494020e-04
5.084125206731e-04
3.051454170769e-04
3.258730291925e-04
3.248932828681e-04
3.506411482378e-04
2.087274372249e-04
7.378551383479e-04
4.282574386795e-04
7.412552030348e-04
4.541815597642e-04
6.095351943613e-04
5.187506594856e-04
4.997510169959e-04
2.146153585684e-04
7.711538397404e-04
8.079476018067e-04
6.361701368165e-04
3.764967077337e-04
5.641220258623e-04
6.406080403220e-04
4.020423173836e-04
4.195882062222e-04
3.055816158326e-04
2.636950223364e-04
4.082271319947e-04
2.736025990170e-04
2.537953830401e-04
5.245273162057e-04
6.292993035880e-04
7.492900454241e-04
3.203758316606e-05
4.405577458711e-04
4.346027194587e-04
4.023785191973e-04
6.155232675037e-04
4.734346387430e-04
3.196066524516e-04
4.342139395113e-04
7.163087986927e-04
3.260933403649e-04
1.168244718053e-04
1.647945889040e-04
2.770873895178e-04
3.310730520104e-04
4.602757153186e-04
4.600207765890e-04
1.928157764076e-04
1.707341749778e-04
5.895058594021e-04
2.797745439378e-04
7.062976887918e-04
7.244525292788e-04
5.994482200641e-04
7.479362706433e-04
7.722073383501e-04
4.891222082220e-04
6.801196645123e-04
2.186358735565e-04
4.535223376976e-04
4.450813002302e-04
2.467733830818e-04
1.750442891068e-04
3.704464435431e-04
4.405809917950e-04
4.660198440887e-04
2.935158266565e-04
4.992118488517e-04
4.465362306875e-04
4.659568211177e-04
3.372178723478e-04
6.620913788087e-04
6.659627664384e-04
4.464589383721e-04
7.516390930913e-04
2.441816649308e-04
8.072504021232e-04
4.795300791222e-04
8.017371460895e-04
6.085549533664e-04
2.321228935279e-04
6.185852731565e-04
7.630767509020e-04
5.051417859831e-04
3.661414466216e-04
6.376993777508e-04
4.811178594329e-04
1.857807587189e-04
8.390465361483e-04
1.628736303485e-04
8.036589317589e-04
7.822328340233e-04
6.817113985780e-04
5.944690303378e-04
7.324063707552e-04
4.717283072585e-04
5.530050660420e-04
7.919782093495e-04
6.749206336022e-04
6.866667910661e-04
6.457616521014e-04
2.126152465348e-04
7.069826387246e-04
8.629714234730e-04
7.993865070988e-04
4.477431927428e-04
5.982374328927e-04
5.702467583064e-04
4.852758503030e-04
6.550541832802e-04
6.806275031619e-04
1.495582113029e-04
2.819536409307e-04
4.719088448474e-04
4.524404810498e-04
4.753774359264e-04
8.204202764357e-04
7.726022105671e-04
7.860269249390e-04
4.302864262974e-04
7.179879766962e-04
6.608709654568e-04
7.991666135651e-04
6.815066276248e-04
4.792430800077e-04
4.524987585418e-04
7.025482517895e-04
7.779314873333e-04
7.070226180185e-04
6.822309135255e-04
7.465300404061e-04
7.826368761699e-04
7.260240088116e-04
5.837814341675e-04
4.125387530949e-04
7.065160572798e-04
6.683788434956e-04
2.478373517059e-04
4.777284192442e-04
5.353515613939e-04
5.977625510039e-04
2.507745920709e-04
4.583293862520e-04
6.426616075672e-04
4.741323037944e-04
4.930461985426e-04
6.351704220665e-04
5.035899061353e-04
8.748336872995e-05
5.699093729231e-04
6.954848808431e-04
7.976626568000e-04
5.222109466484e-04
5.384171766190e-04
6.412047717611e-04
1.333587154635e-04
6.759698665895e-04
5.725287969111e-04
5.032199876639e-04
6.864279124225e-04
2.514950635447e-04
7.120564692623e-04
7.780948302509e-04
6.564610749456e-04
7.116821158201e-04
7.246360851013e-04
7.833643354194e-04
1.802790547338e-04
6.612816129093e-04
7.861355491829e-04
7.278229343817e-04
6.115797601383e-04
4.833414631771e-04
5.268286526492e-04
1.425296761520e-04
7.526132568008e-04
2.678943445110e-04
2.211120256558e-04
7.044851606333e-04
8.041173484503e-04
2.253293374700e-04
5.541855973425e-04
6.771406016496e-04
5.185055617143e-04
2.565916003583e-04
3.358426263350e-04
1.654267237843e-04
2.195587793392e-04
1.948064560472e-04
5.668209511317e-04
9.024478657275e-04
2.656438147348e-04
7.662341416689e-04
4.141061097714e-04
6.566720836641e-04
1.877799869201e-04
8.084989395093e-04
1.994569434083e-04
3.140464818660e-04
6.820386484981e-04
4.908002713549e-04
7.628181862507e-04
3.758479425673e-04
6.979283655874e-04
7.957911377227e-04
6.571731431381e-04
8.029731230695e-04
7.270515574910e-04
7.476451225947e-04
2.191637260577e-04
7.397348748796e-04
6.976508043859e-04
5.085012302089e-04
3.119003519742e-04
8.251246623771e-04
2.569217320374e-04
2.989728286296e-04
7.328562567959e-04
1.824812964156e-04
5.242757088580e-04
7.013386659934e-04
7.908799406318e-04
8.131260850100e-04
6.875825611049e-04
7.527048348785e-04
4.392290927810e-04
7.101308226447e-04
3.576610988848e-04
7.839173444398e-04
4.037880571282e-04
4.232159837033e-04
5.029022043263e-04
4.507734252293e-04
5.870500808989e-04
4.752244134070e-04
5.026363052125e-04
2.249310114461e-04
4.776453301647e-04
7.733738486002e-04
7.976476035845e-04
6.945548351068e-04
7.772416007150e-04
4.852334699188e-04
7.428006378953e-04
4.970035832582e-04
7.593068717160e-04
7.224411528600e-04
7.227149131648e-04
6.309607774765e-04
4.584456414079e-04
7.531944029664e-04
6.034972236900e-04
2.308119231500e-04
2.624460620044e-04
3.872761120802e-04
5.489843774695e-04
7.797820896700e-04
7.023632392718e-04
4.641088760791e-04
6.218312804433e-04
7.219008359154e-04
7.573917115974e-04
7.785266204010e-04
6.280166874005e-04
7.383877363914e-04
5.278638301658e-04
7.262918204668e-04
5.188928070716e-04
7.977154867570e-04
8.063595481927e-04
5.860927408408e-04
2.315643799225e-04
7.386133228481e-04
5.676947967437e-04
4.449348027813e-04
6.172626666964e-04
7.179827493323e-04
2.370266014843e-04
5.414414582278e-04
6.328258620691e-04
7.852987061870e-04
6.515827953541e-04
7.191722898294e-04
6.137788463093e-04
5.757943947390e-04
6.225247935544e-04
7.525361268811e-04
7.265450907645e-04
6.730854564585e-04
8.087327558910e-04
5.947165434318e-04
3.757083337357e-04
7.690299236002e-04
8.027797653313e-04
5.132285230033e-04
5.378259550272e-04
4.198490164914e-04
6.932498007595e-04
4.196989786401e-04
6.013383056530e-04
4.244065472614e-04
7.076412824923e-04
8.082825049946e-04
4.390606027736e-04
1.483230989868e-04
8.029617023960e-04
4.435164002791e-04
5.102475381477e-04
7.829133683486e-04
6.777367698023e-04
7.065388141309e-04
4.506750626244e-04
1.167461404750e-04
8.120451166423e-04
5.678324770761e-04
6.713655535843e-04
7.707853918245e-04
7.492364537136e-05
7.006400612350e-04
3.174082064534e-04
6.321144681099e-04
5.639974680990e-04
4.332125152761e-04
7.650774128591e-04
5.816219672421e-04
3.891223975006e-04
5.975818898240e-04
1.224806412890e-04
6.853035704159e-04
7.134125102004e-04
8.179492543020e-04
7.297421601193e-04
3.065079168190e-04
7.004003726196e-04
8.165253916176e-04
8.479924542833e-04
7.386332535642e-04
4.696607101220e-04
6.412724926972e-04
7.730297312435e-04
5.224557452220e-04
6.991686312028e-04
6.522881639181e-04
7.454810025326e-04
7.319099201394e-04
4.592718609033e-04
4.589748948831e-04
6.632348156822e-04
6.550643866417e-04
5.839389106664e-04
6.520225668259e-04
5.568349206801e-04
7.827592798598e-04
4.641682869918e-04
9.023985271437e-04
5.323389960366e-04
5.433977192185e-04
5.581483784777e-04
2.876533767836e-04
4.987925639303e-04
6.113280308229e-04
5.734936793023e-04
6.486149626944e-04
6.664011184541e-04
6.953526663877e-04
1.412062264109e-04
4.675204502198e-04
4.485143747990e-04
6.274607649306e-04
6.578443530004e-04
7.694390836844e-04
2.018827599834e-04
2.118548485698e-04
5.434196226545e-04
4.731655300954e-04
4.306957946138e-04
4.543511483622e-04
6.528939094235e-04
2.067591147696e-04
5.327937831684e-04
7.010212531473e-04
2.056531891882e-04
8.439841012356e-04
7.711259233898e-04
5.127813030370e-04
7.142204993727e-04
8.010879403205e-05
6.760026335023e-04
5.731440943210e-04
7.848797575394e-05
7.668831780950e-04
1.937244266693e-04
6.327922999710e-04
5.785286832994e-04
4.968174943866e-04
5.956127873224e-04
7.880861604784e-04
6.409960854337e-04
5.623311144195e-04
5.487641104452e-04
6.109272857415e-05
1.629874435700e-04
7.482510755206e-04
6.040877386252e-04
7.640917445135e-04
3.123204989809e-04
7.273523556962e-04
7.747935678475e-04
4.649937047846e-04
7.426717535746e-04
7.200303897050e-04
6.303284010484e-04
5.129756421741e-04
5.441585730997e-04
8.113189037915e-04
5.503878304791e-04
5.924281748206e-04
5.531250535128e-04
6.865936238777e-04
5.186424646122e-04
3.204813496190e-04
5.606647508770e-04
3.450779890533e-04
6.470302402465e-04
3.505252796099e-04
6.277520247305e-04
7.587948185470e-04
7.268103064184e-04
4.888355696636e-04
6.236801479114e-04
7.339558663339e-04
7.397456106695e-04
1.647892676569e-04
6.415300113061e-04
8.022742046257e-04
3.412132358055e-04
5.581165807734e-04
8.708025055710e-05
7.535189856760e-04
3.010719485934e-04
5.274804108231e-04
6.673026496075e-04
6.282397646401e-04
5.981992314315e-04
5.868815627898e-04
3.840091498006e-04
4.074033715262e-04
7.595591585227e-04
6.255621355900e-04
5.413215478798e-04
6.709724982699e-04
5.163063894937e-04
3.315774455480e-04
3.763959762493e-04
5.615934434708e-04
4.817973037771e-04
7.326130562771e-04
4.941499276580e-04
8.205042127968e-04
7.452468947420e-04
5.472972600878e-04
8.312900741524e-04
3.699819044739e-04
8.018291199323e-04
5.922723470957e-04
6.492908331354e-04
7.668482132430e-04
3.896525471501e-04
6.172543904820e-04
5.220226255599e-04
6.028779115149e-04
3.408590409728e-04
6.699987248021e-04
4.909242862165e-04
5.778210378881e-04
5.978296419795e-04
8.229029560999e-05
5.981137410256e-04
1.283223021349e-04
1.425604046919e-04
5.519635169088e-04
7.343432326655e-04
6.172079870032e-04
3.390874049380e-04
8.835512891396e-04
3.541794485888e-05
3.613399971481e-04
5.544855267789e-04
5.326254913468e-04
4.424845602747e-04
3.782682788717e-04
5.798739096979e-04
6.167777849602e-04
6.437007506706e-04
7.590632464972e-04
1.759096795290e-04
5.070291229362e-04
5.467926510370e-04
2.917605163705e-04
4.894986857120e-04
6.227812367473e-04
6.771752748072e-04
1.001730422140e-04
6.527003657202e-05
2.035166912421e-04
5.524955955532e-04
4.141708406182e-04
3.646770521929e-04
3.255364608925e-04
5.717928128404e-04
6.564800500114e-04
5.666644769925e-04
4.085506308660e-04
6.465993337185e-04
5.417387641994e-04
7.125425157821e-04
5.723661868930e-04
5.777202621077e-04
2.916076193924e-04
4.336480661839e-04
5.858412025591e-04
6.379366452071e-04
5.991263956497e-04
3.166301193058e-04
5.916947495787e-04
3.585996022864e-04
1.686121238923e-04
8.065430386563e-04
1.781249146415e-04
3.724154870578e-04
5.819798147523e-04
3.300189918571e-04
5.928518961627e-04
2.717893358977e-04
5.034514971512e-04
5.975048584584e-04
5.161248570229e-04
5.386329409282e-04
8.667360441849e-05
7.766355700003e-04
4.278027150325e-04
7.709884658025e-04
6.554981013868e-04
6.113729652278e-04
6.169416889889e-04
3.837801442347e-04
1.206709874370e-04
7.269670928316e-05
6.307319205139e-04
7.666183021714e-04
3.527221907689e-04
6.608281624570e-04
3.135411494528e-04
6.715213762121e-04
8.631320342243e-04
2.443176703526e-05
8.829965077119e-04
8.852121263970e-04
5.187863560737e-04
4.219301114264e-04
6.361517130024e-04
3.946797178832e-04
1.259295258068e-04
6.663094765465e-05
8.124043100395e-04
6.435964837156e-04
4.857059802391e-04
9.024611897643e-04
2.289087475018e-04
9.032106261994e-04
6.378439507150e-04
4.156051056860e-04
6.056962681492e-04
3.904754317435e-04
1.913315701783e-04
3.651077128310e-04
6.756031953244e-04
7.724144175276e-04
3.966058680347e-04
6.856021964007e-04
0.0
4.025686827041e-04
7.139120631654e-04
3.570731400853e-04
3.273347299656e-04
6.111873319657e-04
1.714241601602e-04
2.420040212522e-04
2.712090176002e-04
3.127039070016e-04
5.608332313648e-04
5.328849272093e-04
6.902231196026e-04
8.080955017943e-04
2.842556977963e-04
6.821682045895e-04
8.109606697113e-04
3.645861892778e-04
1.258230046435e-04
3.462855414954e-04
5.351169772372e-04
6.908562819823e-04
5.298709099370e-04
1.475829349837e-04
6.052995487488e-04
2.176340386909e-04
5.379426478049e-04
5.747509196573e-04
6.255223732288e-04
6.198429424376e-04
3.190834650638e-04
1.430237184057e-04
6.204770996910e-04
2.385014860191e-04
5.727538746632e-05
8.088933360730e-04
7.702342677557e-04
3.537830069708e-05
6.503365910815e-04
2.479462791813e-04
2.600158871832e-04
7.304280687047e-04
6.303423890785e-04
7.052277971026e-04
4.085225165101e-04
4.822303009211e-04
8.428341203802e-04
2.144184038726e-04
7.491156234450e-04
5.624077246742e-04
1.620147722767e-04
6.703416370318e-04
4.275751542475e-04
7.844671194514e-05
3.593652216937e-04
6.605802268349e-04
6.829403826903e-04
1.683856497506e-04
5.389059366488e-04
7.114080209456e-04
7.412554945830e-04
3.386366915786e-04
2.659836531276e-04
5.773807037095e-04
6.106537074396e-04
7.794080869892e-05
8.647472179011e-04
8.429320017221e-04
5.419416684599e-04
8.464641737961e-04
8.449768812639e-04
4.218473016108e-04
4.026312649594e-04
8.662430778611e-04
0.0
2.463689065015e-04
5.423185032493e-04
3.455780040321e-04
3.534199359639e-04
1.932563100895e-04
2.285242578868e-04
5.533910755366e-04
3.894757547290e-04
2.855356333337e-04
7.152732176559e-04
9.025430170280e-04
9.028555141478e-04
4.158729496666e-04
4.991986293731e-04
5.007569812017e-05
1.549723110472e-04
1.733686555641e-04
1.773311158401e-04
6.057473022357e-04
3.472267394595e-04
3.840401147294e-04
1.047743844350e-04
7.694785082956e-04
3.779515105815e-04
8.054340909103e-04
7.382880291593e-04
9.042222901304e-04
9.037391284983e-04
5.542239624201e-04
3.965200569982e-04
2.395169663989e-04
4.095473271816e-04
8.846617183911e-04
1.091075619098e-04
1.309117937249e-04
7.757007018757e-04
5.216493301951e-04
8.114985139276e-04
7.149555952708e-04
7.808260194802e-04
7.476070933347e-04
5.490969887376e-04
3.014610573917e-04
2.949948221418e-04
6.532450277148e-04
7.635848575454e-04
4.588641132707e-04
5.205058156000e-04
5.540928897098e-04
5.659168286544e-04
1.420511469143e-04
2.680728897049e-04
8.651629045309e-04
6.052440982456e-04
8.634119896890e-04
8.245717668539e-04
6.764662760295e-04
8.149161431282e-04
3.967880254959e-04
3.767005960415e-04
8.110139756078e-04
3.456957431072e-05
2.657950424331e-04
8.824542840959e-04
1.237061144379e-04
4.987214213507e-04
8.294168402688e-04
8.695215841111e-05
5.602562008274e-05
9.015334466947e-04
4.603425485765e-04
8.489922161072e-04
8.087138917439e-04
4.591008030381e-04
5.552241480747e-05
8.444214902365e-04
1.414135789209e-04
8.168961864666e-04
8.837090559571e-04
8.142426765288e-04
1.807958899793e-04
5.595583047635e-04
4.199792468794e-04
7.164591502921e-04
9.028817437699e-04
7.102313129860e-04
9.026811156521e-04
8.288145526137e-05
8.646233726606e-04
2.069739792553e-04
1.172764018555e-04
8.657097316282e-04
8.659008612292e-04
8.625184092857e-04
5.047279818662e-04
5.503926425959e-04
1.934303277458e-04
8.651050625011e-04
3.388354453695e-04
1.130064855855e-04
7.389517174799e-04
4.782630476822e-04
8.223389270151e-04
8.930658412704e-04
8.840898532866e-04
2.334843234610e-05
1.127894866393e-05
4.694771593736e-04
4.807281389759e-04
8.834165587509e-04
8.924916119185e-04
5.576594174246e-05
0.0
8.119181321880e-04
8.142322994912e-04
1.701766019211e-04
8.251842060796e-04
5.739886326733e-04
5.078648088346e-04
6.388823889726e-04
1.550243662730e-04
6.739268272391e-04
1.393043346543e-04
4.524792319836e-04
8.185153464905e-04
7.987444324357e-04
4.885491561285e-04
5.870976835179e-04
8.300271616539e-04
7.651236002798e-04
7.207118451451e-04
4.587797315069e-04
6.508513547530e-04
8.137396714987e-04
2.548267730587e-04
6.130172025363e-05
7.910594940571e-04
7.454571359396e-04
1.168423234533e-04
6.691954016891e-04
8.437645600948e-04
7.822748954745e-04
8.291678905268e-04
6.276953752614e-04
3.676099362061e-05
1.910008398258e-04
2.410902129174e-04
5.367277688070e-04
6.465619629803e-04
8.260192756098e-04
8.426510046720e-04
9.968867775761e-05
9.583122356830e-05
1.529254075451e-04
6.701562114990e-04
3.239280242567e-04
8.294279570789e-04
1.624109286017e-04
8.067702666274e-04
5.436640056567e-04
8.463726308532e-04
7.450121923899e-04
5.381792224530e-04
8.657268182902e-04
8.669176791877e-04
8.641188598614e-04
1.063408641689e-04
8.096899185402e-04
8.433515583067e-04
8.209426083778e-04
7.578403458605e-04
8.820824508574e-04
7.152183658321e-04
0.0
1.476863544574e-04
7.925042984467e-04
5.819610102914e-04
8.150003304523e-04
7.872814678585e-04
8.479070143319e-04
7.210640868520e-04
8.478357315245e-04
8.252654922692e-04
8.217924527872e-04
3.382456616413e-04
9.027319105777e-04
5.177284306761e-04
8.149780141979e-04
7.602985457212e-05
7.853489742656e-04
6.747924126657e-04
9.715604780866e-05
1.703587158512e-04
7.357623737217e-04
8.456239339759e-04
8.256639794594e-04
8.510870588008e-04
5.779321806582e-04
5.698562791087e-05
8.903845588755e-05
6.283407249005e-05
1.237561416650e-04
2.218122983909e-05
4.492152745151e-04
8.141022284179e-04
8.188324132241e-04
5.825183578263e-04
3.912991429550e-04
8.215127337613e-04
8.144364166830e-04
8.676175675571e-04
8.131246206762e-04
7.790398171077e-04
7.703091579876e-05
8.521732389425e-05
8.233105816384e-04
7.749586532649e-05
1.142956473345e-04
7.248547269918e-05
8.699680012183e-05
8.468513703275e-04
8.482556314247e-04
8.272172742286e-04
8.507165112290e-04
7.882896166762e-04
6.050128159723e-04
8.848716184046e-04
2.082654753157e-04
4.770383954530e-04
1.308584681555e-04
3.200133854228e-05
9.023297721724e-04
5.253788953819e-04
1.321285258096e-04
4.283053972209e-04
8.675733916602e-04
8.249021745336e-04
8.483302000566e-04
3.066024421432e-04
8.148429218192e-05
8.670431337253e-04
9.023411771345e-04
9.053923630978e-04
5.028745524170e-04
8.096342445588e-04
1.166784308444e-04
8.309395715063e-04
3.072536449822e-05
8.491015123024e-04
8.642157995563e-04
3.254999792424e-05
7.915264275696e-04
6.950269549080e-04
8.486200653357e-04
8.870888049155e-04
6.371787866159e-04
8.507580346646e-04
8.288142407060e-04
6.543265911992e-04
8.219609091343e-04
3.580802034436e-04
4.580585415293e-04
8.289670477400e-04
8.604442280761e-04
0.0
4.595975431844e-04
8.621910031762e-04
1.592545715764e-04
8.297085483634e-04
8.243206064822e-04
8.644406776067e-04
1.547160338610e-04
1.208044010377e-04
5.264955792143e-04
7.516483182700e-04
1.891156848520e-05
8.515789897366e-04
6.135789601255e-04
1.559509946477e-04
5.832862224491e-04
8.658507257749e-04
5.521778443811e-04
4.558321396471e-05
3.239427989419e-04
4.776913424967e-04
5.701251507252e-04
8.287479897685e-04
4.636624967177e-04
4.900391319366e-04
7.786229875005e-05
8.280550521141e-04
7.926388045417e-04
1.331660701839e-04
8.512291248288e-04
8.566440339275e-04
5.134667395409e-04
6.297245589001e-04
4.683583638001e-04
4.786896715519e-04
5.070171589005e-04
7.879088551411e-04
1.144990407912e-04
8.287518740281e-04
5.339553679767e-04
8.658836050112e-04
7.862007520820e-04
5.990262297868e-04
7.981889298720e-04
8.203027348467e-04
8.695097463781e-04
3.580066420134e-05
8.023135303917e-04
8.310675113497e-04
8.967195667714e-05
4.375219600786e-04
5.410315473195e-05
8.369220774202e-04
1.976333862393e-04
2.116731572351e-04
1.862186243852e-04
2.105135771650e-04
1.854721293060e-04
2.104577930494e-04
1.854427323826e-04
2.105321862864e-04
1.855223010247e-04
2.106306724529e-04
1.856205509068e-04
2.107115213645e-04
1.856981488192e-04
2.107539297177e-04
1.857352136190e-04
2.107681397284e-04
1.857479377639e-04
2.107589556243e-04
2.131686355800e-04
1.857434794709e-04
2.107344521858e-04
1.857268407030e-04
1.908372584021e-04
2.106931599542e-04
1.845702532177e-04
1.856890788764e-04
2.106302587185e-04
1.856378609051e-04
2.106380971703e-04
1.856566304066e-04
2.106431631274e-04
1.857081639528e-04
2.108179316691e-04
1.980009761142e-04
1.858373073386e-04
2.106922178983e-04
1.857973773904e-04
2.111624469953e-04
2.104376803483e-04
1.860216229082e-04
2.119249337184e-04
1.856176602761e-04
2.088598079787e-04
2.140888372367e-04
1.863106585679e-04
1.836826105287e-04
1.703583003672e-04
2.001760913214e-04
2.196716975602e-04
1.962435353328e-04
2.084613605653e-04
1.832797690290e-04
2.467242924841e-04
2.318971739121e-04
2.569604721247e-04
2.323582238135e-04
2.573660128964e-04
2.323481834884e-04
2.573777332793e-04
2.323926280916e-04
2.574504022643e-04
2.324746838915e-04
2.575468697238e-04
2.325693421246e-04
2.576322522147e-04
2.326122074981e-04
2.576553806804e-04
2.326151529556e-04
2.576522502379e-04
2.588705843304e-04
2.326142016962e-04
2.576375128508e-04
2.306571559578e-04
2.326278861306e-04
2.576262050767e-04
2.326180735072e-04
2.575817555027e-04
2.325405437276e-04
2.371444383033e-04
2.574556691956e-04
2.324538276695e-04
2.574825913594e-04
2.325861304384e-04
2.575227655495e-04
2.326671156115e-04
2.578962146880e-04
2.329911614336e-04
2.574939041830e-04
2.326152256377e-04
2.440244319060e-04
2.332069693135e-04
2.585665773561e-04
2.307697375987e-04
2.562555830984e-04
2.601089679822e-04
2.162782946957e-04
2.577307751470e-04
2.370799216689e-04
2.479843099940e-04
2.355777807444e-04
2.300605477233e-04
2.893562250950e-04
3.035610020743e-04
2.781398742463e-04
3.024796248070e-04
2.774000520103e-04
3.024086532762e-04
2.773792771481e-04
3.024572659554e-04
2.774284649834e-04
3.025480157212e-04
2.775301685476e-04
3.026855389739e-04
2.776610420386e-04
3.027150412041e-04
2.776797469847e-04
3.026647938250e-04
3.057519497818e-04
2.776123204034e-04
3.026644902344e-04
2.828915978971e-04
2.776728359796e-04
3.027151159073e-04
2.761654015987e-04
2.777471929607e-04
3.027239513287e-04
2.777229964406e-04
3.026125050717e-04
2.775893337710e-04
3.022358251205e-04
2.911528140928e-04
2.773787975288e-04
3.027660250717e-04
2.778333905826e-04
3.023471162595e-04
3.041522434489e-04
2.778236615926e-04
3.009345726581e-04
2.786762187220e-04
3.055181121834e-04
2.755391628935e-04
2.628456973792e-04
2.894887970220e-04
3.094946284243e-04
2.879404696216e-04
3.001784249515e-04
2.747666986158e-04
3.387590509463e-04
3.239558570236e-04
3.490589559299e-04
3.242489538052e-04
3.492778332294e-04
3.244009492226e-04
3.494137940559e-04
3.243450263155e-04
3.494285644229e-04
3.244491555650e-04
3.495528953540e-04
3.245729995313e-04
3.497476816412e-04
3.247790095566e-04
3.498156307860e-04
3.524344535621e-04
3.244756318896e-04
3.234927653718e-04
3.495180048905e-04
3.245640602665e-04
3.496724803304e-04
3.248419696225e-04
3.498816701128e-04
3.248366754099e-04
3.293404958308e-04
3.498297634467e-04
3.247755033259e-04
3.497132450553e-04
3.245820555673e-04
3.488372345038e-04
3.242701434091e-04
3.503144451308e-04
3.256426464242e-04
3.234521601643e-04
3.489428141026e-04
3.382079507074e-04
3.528736187585e-04
3.091709295256e-04
3.479959789487e-04
3.272882465017e-04
3.399401601187e-04
3.274902301269e-04
3.210995550700e-04
3.823738146998e-04
3.954225263856e-04
3.697566624949e-04
3.939322582241e-04
3.688694981486e-04
3.944097865815e-04
3.693773633782e-04
3.940314017453e-04
3.688791821506e-04
3.943498072948e-04
3.693104022334e-04
3.943240387101e-04
3.692423004483e-04
3.983221388088e-04
3.950761893213e-04
3.697532978986e-04
3.757283910689e-04
3.940431169502e-04
3.690941919872e-04
3.688922250286e-04
3.943316706399e-04
3.695967294386e-04
3.950039595106e-04
3.699171745464e-04
3.947738597822e-04
3.836764221872e-04
3.696289525296e-04
3.946866788540e-04
3.951305091693e-04
3.698050963930e-04
3.917401968718e-04
3.700257270424e-04
3.984140208452e-04
3.678384251997e-04
3.553107824800e-04
3.787353646523e-04
4.015883610286e-04
3.798602337846e-04
3.917784855672e-04
3.672570110000e-04
4.343021193814e-04
4.144431140943e-04
4.400238155636e-04
4.160910928413e-04
4.407194433539e-04
4.169792812266e-04
4.421275663542e-04
4.155655137509e-04
4.404257626118e-04
4.163557751547e-04
4.417490498800e-04
4.164243392235e-04
4.451512402664e-04
4.411469643058e-04
4.182864247912e-04
4.154450539294e-04
4.421592365310e-04
4.167200733669e-04
4.407251200889e-04
4.170139093125e-04
4.420435047998e-04
4.169234513539e-04
4.225836555007e-04
4.425201970351e-04
4.165861177248e-04
4.414159334299e-04
4.159924669279e-04
4.163537947849e-04
4.414971076271e-04
4.437645096039e-04
4.307709466435e-04
4.017743348262e-04
4.348445271150e-04
4.227645607119e-04
4.331703470473e-04
4.187044942453e-04
4.146339968586e-04

SCALARS element_materi_plasti_phimob float
LOOKUP_TABLE default
-9.752447999862e-01
-4.065580209090e-01
1.951953656698e+01
1.930618877502e+01
1.469518863964e+01
-6.012843953333e+00
1.475175154355e+01
1.940468124868e+00
1.476215528895e+01
1.927456910427e+01
2.080754943689e+01
-8.685691856056e+00
2.077666068334e+01
1.549819616100e+01
2.065394196318e+01
1.947504204020e+01
1.436543205001e+01
-6.011160498678e+00
9.736766422355e+00
1.059351794487e+01
1.926062697495e+01
8.470861032958e-01
5.408433753058e+00
2.099241615150e+01
1.626095438804e+01
2.092982027410e+01
1.297569744547e+01
2.014817733871e+01
1.623183268086e+01
2.104442211961e+01
2.556333351176e+00
-2.095710611389e+01
1.947442792722e+01
2.095680507396e+01
2.084101667189e+01
2.077059716971e+01
2.068651073256e+01
2.076923560920e+01
1.346067382555e+01
1.354862612838e+01
8.438825050777e+00
2.069490377904e+01
-2.061709281384e-01
1.294639852652e+01
1.909049374908e+01
2.214212919497e+00
-4.329234922379e+00
1.914537856038e+01
-2.186406677788e+01
1.499523016825e+01
7.081645697530e+00
1.303083655239e+01
1.120846280814e+01
5.970223708102e+00
1.945518258536e+01
1.658564725810e+01
1.384121073050e+01
2.100545883165e+01
4.108825344042e+00
1.946295139493e+01
-2.771915135688e+01
2.032053615190e+01
1.142639214139e+01
9.303036749477e+00
2.077698233902e+01
3.480767559845e+00
-2.976268516074e+01
1.947190945207e+01
5.353736963175e+00
1.975205415834e+01
2.097169651368e+01
1.977440387526e+01
1.985755532423e+01
-1.496253662717e+01
1.718284872912e+01
1.930418895257e+01
1.940941214156e+01
-1.584861747089e+00
4.548620481260e+00
-8.345740303715e-01
5.798146763135e+00
1.432298994508e+01
3.887209476886e+00
-3.259015235252e+00
1.532310803909e+01
1.535249995260e+01
2.098557287860e+01
2.100310142992e+01
1.825026304711e+01
1.460154654736e+01
-2.135744598211e+01
1.424493711493e+01
1.804205951050e+01
1.790593462593e+01
1.967337588833e+01
2.058500715896e+01
1.423452862967e+01
2.103663171066e+01
1.636503424151e+01
9.861457918308e+00
1.406427539166e+01
2.071351718298e+01
2.009729847986e+01
2.026094262620e+01
1.441832678739e+01
-5.644005679115e+00
2.086603592054e+01
1.840915202545e+01
-2.262123819975e+01
2.059215262389e+01
1.800714522955e+01
-2.616748069612e+01
1.712596977539e+01
1.276201005652e+01
1.889765089888e+01
8.363910655752e+00
1.221406954940e+01
2.078783305588e+01
1.605555177650e+01
1.193786457669e+01
4.360300257795e+00
1.420219415987e+01
1.845609806635e+01
1.329295029327e+01
-1.049261533385e+01
1.092007400527e+01
1.867540328409e+01
9.476207026627e+00
1.949066152775e+01
-1.348624892644e+00
2.092322912552e+01
1.932167772604e+01
1.257901240739e+01
9.812246368444e+00
2.095688313687e+01
2.076113833480e+01
2.102443585193e+01
1.335393944864e+01
2.102390179161e+01
1.118791906917e+01
1.940222762701e+01
1.970419634751e+01
1.542412308275e+01
1.725525244829e+01
1.146393680249e+01
8.007675609969e+00
1.419477803320e+01
1.570703871797e+01
1.432538927941e+01
1.772685428651e+01
-2.227021118498e+01
1.531013253638e+01
5.586452893674e+00
1.192987014147e+01
2.069898779228e+01
1.345907196006e+01
2.101796278467e+01
2.018696482765e+00
2.006145684125e+01
1.451670956164e+01
1.790180527517e+01
2.096074348519e+01
4.462062260425e+00
2.087941754099e+01
1.414243097515e+01
2.089867624605e+01
1.445959864314e+01
1.551870868063e+01
1.177778169293e+01
2.092048659625e+01
-1.277285950885e+00
1.826553302199e+01
1.760462274699e+01
1.442374067545e+01
1.639070133213e+01
1.071458575651e+01
1.892471740581e+01
1.937498578673e+01
2.019249387230e+01
1.974334979413e+01
6.384981856751e+00
1.947353585513e+01
2.105225037924e+01
9.953608724262e+00
3.384254800101e+00
1.348046087721e+01
1.652158131915e+01
1.941928677650e+01
1.795542731202e+01
2.092692219647e+01
1.188571444827e+00
1.863320471678e+01
1.825822547495e+01
-4.009133248780e+01
9.737877764223e+00
2.124344213336e+01
-4.346630019263e+00
1.935404541198e+01
1.700703982429e+01
2.007244238890e+01
2.139002487298e+01
1.513338560695e+01
1.590525116740e+01
2.087855683503e+01
1.735156253613e+01
1.515437527068e+01
1.478804145960e+01
1.734052848107e+01
1.474426437411e+01
1.344890895675e+01
2.020747396313e+01
1.862879118777e+01
-2.729272652445e+01
5.339185588541e+00
8.963792574261e+00
1.441420168870e+01
1.820958457499e+01
7.354717667063e+00
2.132793657348e+01
1.429445867728e+01
1.852376487059e+01
2.138242753675e+01
-1.717613319177e+01
1.766737447286e+01
-2.344721376867e+01
-3.502008688841e+00
2.097867491497e-01
1.538312376383e+01
1.794632137732e+01
1.404110110318e+01
1.187864297859e+01
1.017159203792e+01
7.509566052225e+00
2.126279103197e+01
1.414513316324e+01
2.082738766702e+01
-4.573275036877e+01
1.487510827833e+01
1.893862344566e+01
8.329778374497e+00
2.148089077982e+01
2.086721178515e+01
1.762640412737e+01
1.760101144175e+01
2.114686147430e+01
2.098463436980e+01
1.474961174888e+01
1.732170897773e+01
2.014327155950e+01
1.914944559518e+01
1.224551764521e+01
1.576267489557e+01
1.968828366645e+01
1.535856274902e+01
2.024561984685e+01
1.549526876472e+01
2.356301015923e+00
1.473976124522e+01
1.802782176646e+01
1.349746606266e+01
5.387485585301e+00
1.798591795390e+01
1.531271888511e+01
1.453523937373e+01
1.824235762748e+01
1.793482994061e+01
1.511085178697e+01
2.063199368277e+01
2.056637489546e+01
1.548190515719e+01
1.713741646306e+01
2.037137486036e+01
1.678560170541e+01
1.421101133045e+01
1.980334875953e+01
1.835307213963e+01
1.764927864319e+01
-3.404928367240e+01
1.527441878519e+01
1.895682158609e+01
1.465853519492e+01
1.574208665309e+01
1.623120645767e+01
-5.845292733125e+00
9.529691336069e+00
2.065559426782e+01
1.528957454510e+01
1.522983003845e+01
2.592217361700e+00
1.910296838014e+01
1.730921238545e+01
6.922182667184e+00
1.730045126108e+01
1.027754337957e+01
2.003010266657e+01
1.939016646222e+01
5.760220272193e+00
1.771444347494e+01
5.001829951787e+00
1.971298408363e+01
1.976981885525e+01
1.600531157144e+01
1.770479743170e+01
1.376018831224e+01
1.602924416750e+01
1.562995590735e+01
1.809863126094e+01
1.458244270739e+01
1.938870528964e+01
1.889965432611e+01
2.009909519286e+01
1.045577050775e+01
2.084552044509e+01
1.642567279635e+01
1.541371205623e+01
1.072449654966e+01
2.145077387186e+01
1.969045830459e+01
1.868958475945e+01
1.483466413325e+01
1.990256255694e+01
1.964040285956e+01
2.071628241467e+01
9.196857352741e+00
1.685332627944e+01
2.153731149491e+01
1.239384264521e+01
1.650488163805e+01
2.011990450681e+01
2.142097938591e+01
1.984429340343e+01
1.636386212868e+01
1.800440697079e+01
8.381109633204e+00
1.354367545779e+01
1.541873471211e+01
1.586289789620e+01
1.521025871092e+01
2.032561728411e+01
1.588059696438e+01
1.416705804411e+01
1.939446624899e+01
1.238464179737e+01
1.270173738390e+01
1.436242332032e+01
1.447762573753e+01
1.796220989255e+01
1.872859376537e+01
1.795527688211e+01
1.485833453551e+01
1.425638909671e+01
2.095454397451e+01
2.145155137108e+01
2.056357262462e+01
1.102285773817e+01
1.854159224548e+01
1.946567484039e+01
7.435106136086e+00
1.134195775164e+01
1.848750605924e+01
1.582265739273e+01
8.825915611162e+00
1.276711460712e+01
2.082383051822e+01
2.080477388037e+01
1.850295135611e+01
1.763416691571e+01
2.116402963792e+01
1.224776987673e+01
1.693160859363e+01
1.849813187285e+01
1.557364328716e+01
2.125940660860e+01
2.019120951615e+01
1.850384193184e+01
1.769622486533e+01
1.511612153531e+01
1.499268711925e+01
1.382324791461e+01
1.978189675828e+01
1.974950534016e+01
1.933587861905e+01
2.132091364412e+01
1.828117719797e+01
1.206525349837e+01
1.941029606226e+01
1.213396680023e+01
1.080458694206e+01
1.420846787010e+01
1.641021085924e+01
2.101490326389e+01
1.854840728574e+01
1.575881141882e+01
1.635828144657e+01
1.521591820365e+01
-5.578439049799e+00
1.834519383996e+01
1.610935362566e+01
1.822811316509e+01
-7.095479132760e+00
1.547844066955e+01
1.040812871801e+01
1.672537968855e+01
2.052833793117e+01
2.055291227039e+01
1.419161005816e+01
4.365669573335e+00
1.495569033823e+01
1.873234382469e+01
1.623761351876e+01
1.995414166934e+01
1.348448239681e+01
1.610157380594e+01
2.044818685269e+01
1.824556655576e+01
2.154042123332e+01
1.998295807857e+01
2.005600093845e+01
1.988150145969e+01
1.994208626005e+01
1.668692920288e+01
1.820926842917e+01
1.878382838553e+01
1.343280751762e+01
1.171316291239e+01
1.979440905064e+01
1.847028620868e+01
2.022595691668e+01
1.851441645350e+01
2.047410651443e+01
1.848057414713e+01
1.855018347224e+01
1.583275213458e+01
1.033841658665e+01
1.337382218291e+01
1.944093170757e+01
1.357717395306e+01
1.966893423161e+01
2.004047835215e+01
1.674849657915e+01
2.071253905288e+01
1.639457353507e+01
2.011352378779e+01
1.948592884222e+01
1.637094576104e+01
-2.283611142975e+01
2.021940138107e+01
2.066849870096e+01
1.749929609359e+01
2.077300118815e+01
2.068643428650e+01
-5.580536176427e+01
1.481206682665e+01
1.660547035057e+01
1.616750896670e+01
1.571157639431e+01
1.458171940518e+01
2.032705823583e+01
1.995375878745e+01
1.012435371118e+00
2.092735672152e+01
-2.238721986097e+01
1.199601832558e+01
4.478525192860e+00
1.264890662858e+01
2.083017620313e+01
2.041855368836e+01
1.583442730286e+01
-5.155533122624e+00
-4.418900361504e+00
2.589508100508e+00
2.117127921159e+01
1.422275859443e+01
1.475171546924e+01
2.048361490856e+01
1.429143643371e+01
1.972508600817e+01
1.889419045286e+01
1.605032551530e+01
9.887248628224e+00
2.072663805118e+01
9.546254134382e+00
2.051765376382e+01
1.999431986072e+01
1.991599238372e+01
2.132514423994e+01
1.933037784032e+01
1.650840929909e+01
2.150586140095e+01
2.052786473126e+01
1.637255902164e+01
1.953261477308e+01
1.986763214934e+01
1.653778182157e+01
2.085746025502e+01
-6.177618836300e+00
2.052741093068e+01
1.910812012257e+01
2.017366572914e+01
1.876039714751e+01
-5.293520382731e+01
1.642407636313e+01
1.852227755442e+01
2.027949920991e+01
1.670470616579e+01
1.943340043240e+01
7.887013830928e+00
2.080827132970e+01
1.943827198097e+01
1.927954441759e+01
-2.189664572135e+01
2.037446905192e+01
1.423643510300e+01
2.123897290658e+01
1.556369548420e+01
1.693505579629e+01
1.888491965509e+01
1.639939683599e+01
2.050723688992e+01
1.978534382476e+01
2.139797171668e+01
1.673768725821e+01
2.139373784325e+01
1.955481864093e+01
2.139289617985e+01
1.619044355588e+01
1.824538010471e+01
2.077211591993e+01
1.667737149491e+01
2.034252749006e+01
1.655189526289e+01
1.956107889994e+01
1.905600446012e+01
2.090683608055e+01
2.084356151927e+01
1.872879780844e+01
1.613842346723e+01
2.052710010584e+01
2.095954395098e+01
1.871558635719e+01
-2.216685883412e+01
2.083738493706e+01
1.871090806765e+01
1.808166282278e+01
2.052412665978e+01
2.137558203134e+01
1.207429201938e+01
1.527567845904e+01
2.062721315585e+01
2.119334116425e+01
2.135053302313e+01
1.697265455806e+01
1.313571675416e+01
2.057078922559e+01
1.625544675958e+01
2.003963487478e+01
2.098249364755e+01
1.887921609735e+01
2.118787966107e+01
-4.938076750594e+01
1.629436641859e+01
1.846779580495e+01
2.053982031519e+01
1.819373007617e+01
2.155713051700e+01
1.615223504586e+01
1.744315713563e+01
2.052083077211e+01
1.668656664591e+01
2.060843519293e+01
1.648512331625e+01
2.032634840679e+01
-5.352488209708e+01
1.576231930612e+01
1.909793340256e+01
-5.862081829910e+01
2.029943758992e+01
2.151145635371e+01
1.861082417127e+01
2.132647865271e+01
2.153605264888e+01
1.355324303647e+01
1.295893648546e+01
1.944227560688e+01
1.631618190123e+01
-6.314121493684e+01
7.316044769697e+00
-2.247045575226e+01
1.634931069866e+01
1.892769382492e+01
1.859706092454e+01
2.129121065183e+01
1.752997756048e+01
2.106041739373e+01
2.127411181344e+01
9.198325542644e+00
1.901601717992e+01
1.744221893299e+01
2.085544005224e+01
2.051610453464e+01
1.970805335714e+01
2.041515616274e+01
2.143945892386e+01
2.118833496818e+01
9.752172501690e+00
2.135781374070e+01
-4.157626345083e+00
2.000235947687e+01
2.061445550900e+01
-2.085975365869e+01
1.932418045946e+01
1.877316943547e+01
-6.153152574999e+01
1.290369743957e+01
1.295032889892e+01
2.125829659187e+01
1.740625576538e+01
1.855961881732e+01
1.118822994830e+01
2.106357823081e+01
1.997780380798e+01
1.823728779489e+01
1.161688548913e+01
-1.308524002987e+00
1.288870146156e+01
1.311390431371e+01
1.316239058673e+01
-5.795714469847e+01
-2.127419056938e+01
-3.562874991487e+00
1.476133902792e+01
-2.040579912372e+01
2.005983057913e+01
-4.707280856809e+01
1.686287356009e+01
1.694145319321e+01
1.301036625567e+01
1.904310305102e+01
2.150110903627e+01
1.625149840831e+01
1.802981230294e+01
-4.021077807762e+00
1.974147644672e+01
1.967093527634e+01
1.559232664259e+01
1.306148717561e+01
1.808321087558e+01
1.966697689482e+01
1.582960534630e+01
1.295940880641e+01
1.296228965123e+01
1.177856582197e+01
1.985939113656e+01
1.964524120261e+01
-2.085147686003e+01
-5.765169968379e+01
3.449311859129e+00
2.083567823983e+01
2.083500022122e+01
-3.883636531806e+01
1.824813196478e+01
-4.885950398572e+01
2.151606576110e+01
-4.561392631069e+01
-4.217631016327e+01
2.157953245290e+01
2.091244952503e+01
1.687969352691e+01
1.384439446291e+01
-2.070560379994e+01
2.105409696669e+01
1.970552211487e+01
1.966793824929e+01
1.305287699537e+01
2.141258943788e+01
1.973586327872e+01
1.953498105590e+01
-4.554887454170e+00
-2.055752245090e+01
-2.111533525425e+01
1.896488358298e+01
2.073410488407e+01
1.931551721255e+01
-5.766134369366e+01
1.997142058360e+01
2.049667254398e+01
2.077881785458e+01
2.083331828404e+01
1.771762494582e+01
1.849162642119e+01
2.048237982196e+01
2.049020720614e+01
1.824546021798e+01
-6.483337024224e+01
1.314320395225e+01
1.312747406541e+01
-5.774035579282e+01
2.050020282266e+01
2.086458296248e+01
2.049338798754e+01
-6.109917579475e+01
-6.074681585937e+01
2.050763929105e+01
2.050299799742e+01
1.742365019605e+01
1.318113228625e+01
1.798595466191e+01
1.586747738164e+01
1.318585971059e+01
-6.204194053750e+01
-5.998716021811e+01
-5.957250498424e+01
-5.650461788345e+01
2.024530182169e+01
1.967740170950e+01
-5.778478205559e+01
2.092985978937e+01
-5.702045111355e+01
1.979815462728e+01
1.972202857762e+01
1.974892937897e+01
7.677176417923e+00
1.666238890956e+01
1.971058335235e+01
2.096237369532e+01
1.973409115324e+01
2.088896683541e+01
2.077044677789e+01
1.933976155658e+01
1.966088846446e+01
1.967597219689e+01
2.090761301964e+01
2.082281205885e+01
2.102146106560e+01
-5.112414812399e+01
1.965743735649e+01
-2.134166362977e+01
2.100714863926e+01
2.018743854994e+01
2.106277868549e+01
1.335666808118e+01
-4.978230865673e+00
2.095817898679e+01
2.009926535876e+01
1.865189536402e+01
2.102936928360e+01
1.889185468640e+01
1.853164781086e+01
2.134985435370e+01
2.133065666734e+01
2.107650833236e+01
2.105295277991e+01
2.018257309602e+01
1.220305761186e+01
1.768957935056e+01
2.115409354124e+01
2.098986562063e+01
2.103137001170e+01
1.448322785008e+01
1.884773365548e+01
1.840855154335e+01
1.503123171459e+01
2.122681367985e+01
2.111669067960e+01
1.890449302012e+01
1.866135718253e+01
2.119199558042e+01
2.088779216044e+01
1.826420176819e+01
2.098777962103e+01
2.092232557551e+01
1.885469951590e+01
1.753023269150e+01
2.136270610072e+01
1.381230685195e+01
1.330518710951e+01
-1.454129216118e+00
-2.204957535614e+01
1.865181807518e+01
2.093571594771e+01
-2.238951286300e+01
1.870204908257e+01
1.548131380330e+01
2.106970698806e+01
2.102020672426e+01
1.893267426380e+01
2.100431451281e+01
1.499913730593e+01
2.080782763333e+01
2.084775514125e+01
1.330947832280e+01
2.098215294621e+01
1.786946196628e+01
1.484705143444e+01
1.563650195253e+01
2.059336267876e+01
1.677594830909e+01
1.867787434942e+01
1.817607132955e+01
1.723716042863e+01
2.067016660656e+01
2.102846923884e+01
2.103547878093e+01
1.788771068052e+01
1.093435350849e+01
2.040790213035e+01
2.048975350069e+01
1.810233473608e+01
1.993390930942e+01
2.117351227531e+01
2.103801241280e+01
1.753926112736e+01
-4.391885729874e+00
-1.928620314046e+00
1.400974607538e+01
2.101165998123e+01
1.718230857498e+01
2.074248920144e+01
1.594146013060e+01
2.118669836037e+01
2.072852956428e+01
2.106243073689e+01
1.366833767896e+01
2.099958245108e+01
2.052798341887e+01
1.475648053290e+01
2.028795348267e+01
1.899522767572e+01
1.657390368879e+01
2.081238052911e+01
-5.707389953602e+01
-5.628820539703e+01
2.104414353194e+01
1.242359593213e+01
2.112093386165e+01
2.114968393735e+01
1.987237567570e+01
1.679385881924e+01
1.852406846113e+01
-2.614533948055e+00
1.931009725195e+01
2.108832162991e+01
1.027085430499e+01
1.642047302820e+01
1.548085187276e+01
9.493120072417e+00
2.112387441766e+01
1.768851530693e+01
1.260009056920e+01
1.871075743977e+01
1.874003331340e+01
1.405667405759e+01
1.039623695240e+01
1.448758709764e+01
2.105191734655e+01
2.078135662917e+01
1.874968094939e+01
1.854763572077e+01
2.108878746724e+01
2.117050522019e+01
1.159568509413e+01
2.111291675324e+01
1.771644408923e+01
2.069544238977e+01
1.716184680771e+01
1.801738378484e+01
2.044234095347e+01
1.834108866396e+01
2.016161581561e+01
2.063065073431e+01
1.838613195095e+01
1.907122427637e+01
1.745973826606e+01
2.100107414358e+01
1.542720720276e+01
3.267466922222e+00
1.743355749267e+01
1.568069412192e+01
2.097723028865e+01
1.780246675477e+01
2.113069630821e+01
2.070169125588e+01
1.979304151956e+01
1.425838390161e+01
6.468859002491e+00
2.116734501264e+01
1.687879428277e+01
-2.234019269745e+00
1.840564786137e+01
1.190726548946e+01
1.674771735478e+01
1.871832124671e+01
2.128095435595e+01
1.827607644704e+01
1.839661242172e+01
1.744846902267e+01
2.124856496072e+01
1.282881074051e+01
2.121240376371e+01
2.043947327688e+01
2.120307777890e+01
2.012483178366e+01
1.208765859989e+01
1.603758485526e+01
2.139473070669e+01
1.483125513718e+01
1.685529396651e+01
1.469397885960e+01
1.697070220814e+01
1.042129383704e+01
2.109898437753e+01
2.132513753584e+01
2.061059716397e+01
1.897974956959e+01
2.120486209799e+01
1.107393066949e+01
2.128581525559e+01
2.110644834089e+01
1.800285897776e+01
2.111918185533e+01
1.778330692699e+01
1.594852238579e+01
2.125218858724e+01
1.577166304272e+01
1.591231565000e+01
1.800863150636e+01
1.690117652024e+01
2.127421128833e+01
1.251603241079e+01
1.717735993614e+01
1.736054623948e+01
1.643822320093e+01
1.619129378185e+01
2.051987022970e+01
2.119306041008e+01
2.131125997384e+01
1.592914331918e+01
1.897685390659e+01
2.040976897125e+01
2.134133619925e+01
1.804203516793e+01
1.934069054719e+01
1.872660240658e+01
1.143202101606e+01
2.134243117998e+01
1.904552069508e+01
1.704622349901e+01
1.662107274577e+01
2.081474488316e+01
1.786891323283e+01
1.961435806006e+01
1.830762695546e+01
1.904487250335e+01
1.308348795795e+01
2.125726960734e+01
2.065376128733e+01
1.831989135326e+01
2.100329506480e+01
2.145862899447e+01
2.128237742217e+01
1.863184346800e+01
1.286129004767e+01
2.120742179561e+01
2.108033149641e+01
1.808196328449e+01
1.967918757189e+01
2.141337884553e+01
1.707585546203e+01
1.958109251867e+01
1.571320015678e+01
1.721406604316e+01
1.619375404663e+01
1.986808261695e+01
1.644609129102e+01
1.506297743514e+01
2.103174029329e+01
2.140324111480e+01
1.908011778285e+01
-5.730032328834e+01
2.115739803165e+01
2.094269633809e+01
2.021818998770e+01
1.665212333563e+01
2.104059975062e+01
1.794524511694e+01
2.031217051408e+01
1.812434908017e+01
1.779183675062e+01
2.220504365899e+00
9.111721489520e+00
1.746278977068e+01
1.872906077457e+01
2.122516303886e+01
2.067404271485e+01
1.120158782930e+01
9.132976057692e+00
1.600097317560e+01
1.622713954176e+01
2.141633830554e+01
1.898487954081e+01
1.618804985965e+01
1.840827095507e+01
1.918420562938e+01
2.049620641249e+01
1.856644613905e+01
1.345115803753e+01
2.042732304183e+01
1.923717023487e+01
1.678115565333e+01
9.158029362675e+00
1.932137832182e+01
2.058271587690e+01
2.089206951305e+01
1.710188297158e+01
2.128307910146e+01
2.080419143667e+01
2.134813599872e+01
1.835864796512e+01
2.113072768204e+01
1.733046364898e+01
2.124391476014e+01
2.128437962810e+01
1.527129463667e+01
2.113653741883e+01
2.126192773442e+01
1.932972583512e+01
1.691118050555e+01
1.521439275124e+01
1.660319901120e+01
1.855942836783e+01
2.144102684705e+01
1.713823255816e+01
1.700768505130e+01
1.589168957913e+01
1.162274464754e+01
1.928926431556e+01
8.835362385755e+00
2.076458332940e+01
1.880532848897e+01
2.121951651730e+01
1.630663025410e+01
1.815835710587e+01
2.104297892847e+01
2.091242953014e+01
1.886328828202e+01
2.137101659383e+01
1.759237284963e+01
2.154526697549e+01
1.406783700560e+01
1.783646174207e+01
1.990120190233e+01
2.112160266121e+01
2.072870781540e+01
1.627645192147e+01
1.580492453320e+01
2.095641415458e+01
2.143993508731e+01
2.144212795960e+01
6.335286424013e+00
1.861157033270e+01
2.130607805667e+01
2.093506085492e+01
1.712923165677e+01
1.906666805531e+01
1.874688587187e+01
1.878216387536e+01
1.288042849484e+01
1.803907798051e+01
2.129896786395e+01
1.893318687673e+01
1.748778511514e+01
2.074697429100e+01
2.112412203225e+01
1.787562868161e+01
1.865124389055e+01
1.795965206746e+01
1.762734359152e+01
2.126016511096e+01
2.063202255903e+01
2.133881134227e+01
2.137542925557e+01
1.076837054565e+01
2.109425399593e+01
1.737828188083e+01
1.525207696477e+01
2.107315836478e+01
2.151210158570e+01
2.096598297063e+01
1.738509262724e+01
2.090811118502e+01
2.098638872710e+01
1.370245889939e+01
2.106525661067e+01
1.680663986590e+01
1.411170552337e+01
-8.775016279016e+00
2.120309274422e+01
2.134546137474e+01
1.895936924246e+01
2.111738875001e+01
2.127065190839e+01
1.693752021163e+01
-9.980065233724e+00
2.128312138926e+01
2.111833925814e+01
1.434519389120e+01
2.131391874931e+01
1.593453375548e+01
2.129771496835e+01
2.121981203260e+01
2.116723602647e+01
1.793059249130e+01
1.937380474476e+01
2.111649276431e+01
-1.694221524520e+01
1.721958242472e+01
2.033703470802e+01
1.819139220475e+01
2.117457723942e+01
2.091440182769e+01
2.089324396660e+01
6.561955317759e+00
1.847782688185e+01
1.606205168108e+01
-2.283655830998e+01
1.894482366475e+01
1.899290339654e+01
1.417073335196e+01
1.697595890678e+01
1.752936171633e+01
2.085386550107e+01
1.642583700899e+01
1.727854137257e+01
9.647214041008e+00
1.491252992344e+01
1.273856239167e+01
2.116050615292e+01
1.968574035773e+01
-7.593670158139e+00
2.116398254797e+01
2.051152008897e+01
1.711455663524e+01
1.290125266040e+01
2.104149682462e+01
1.196571543187e+01
1.762798983249e+01
2.099226571821e+01
2.111483962000e+01
2.047084891048e+01
1.470715301976e+01
1.768166273660e+01
2.078802530753e+01
1.726076145164e+01
1.894521921530e+01
1.806966257344e+01
1.829917613131e+01
1.539548795192e+01
2.120140761355e+01
1.778892501395e+01
2.010092203425e+01
1.381364106031e+00
2.060458305106e+01
1.780569355163e+01
1.687427089029e+01
2.063632874047e+01
1.041189073179e+01
1.816727776260e+01
2.113859892944e+01
1.877635225051e+01
1.898987432815e+01
2.098345450800e+01
1.837464555755e+01
2.027828828449e+01
1.870111289884e+01
6.530316516284e+00
1.902467909555e+01
9.805431882943e+00
1.096390767141e+01
2.083309274418e+01
1.208220236050e+01
1.925911398486e+01
1.909437621740e+01
2.110596315821e+01
1.573537254271e+01
2.102879800368e+01
1.868238662994e+01
1.901364209677e+01
2.129512805836e+01
2.067465247770e+01
2.140810269866e+01
1.833524789469e+01
2.125711645728e+01
2.110285113209e+01
1.810920458729e+01
1.800025291746e+01
2.132310565023e+01
2.071176000256e+01
1.909087644524e+01
1.686129956662e+01
1.484560489400e+01
1.686615605702e+01
1.556818007176e+01
1.683685739423e+01
2.101770708078e+01
1.775037348523e+01
2.064774843291e+01
1.771204425211e+01
2.122257288164e+01
1.845061215689e+01
1.919616977252e+01
1.675700962474e+01
2.133698619129e+01
2.104774927115e+01
2.115586933567e+01
1.772267336192e+01
1.884196510388e+01
1.931660024094e+01
2.133695458536e+01
1.646183626656e+01
1.974977861984e+01
1.858116855127e+01
2.028767136224e+01
2.114178122722e+01
2.130527382128e+01
1.540063860097e+01
2.131909657890e+01
1.700994504357e+01
2.097158415274e+01
1.739497070846e+01
1.930688863693e+01
1.661458737965e+01
1.579753470949e+01
1.733663291529e+01
2.081833393206e+01
2.119283086570e+01
1.744691942201e+01
1.901359485342e+01
1.620771874411e+01
1.990866264635e+01
1.968258528544e+01
1.890360208599e+01
1.904489709130e+01
1.861369500217e+01
2.036695953847e+01
1.772027552473e+01
1.359652927660e+01
1.959921178156e+01
1.395097828708e+01
2.080934756300e+01
1.992320238430e+01
2.067882058370e+01
5.279875413609e+00
1.898812836411e+01
1.384334131460e+01
2.150138904290e+01
1.999340711688e+01
1.740689012323e+01
2.125724046067e+01
1.950238702072e+01
1.128303238615e+00
2.096115848755e+01
1.742475501798e+01
2.031332805220e+01
1.935508307489e+01
-1.158038919507e+01
2.136979459660e+01
1.781500575949e+01
1.670805185516e+01
2.105985978785e+01
2.086589133673e+01
2.104440646089e+01
1.898534307683e+01
2.058810324847e+01
1.761812527500e+01
3.478472104789e-01
1.861576871724e+01
2.081900515496e+01
1.942194971572e+01
1.901432339491e+01
1.859081396281e+01
2.119136755948e+01
1.909639131654e+01
2.052748028195e+01
2.064541232500e+01
2.006680730376e+01
1.815616838484e+01
2.099302875176e+01
2.055329579299e+01
1.890358054430e+01
1.715619227227e+01
2.111871862292e+01
2.123853005731e+01
1.322085733072e+01
1.322294611711e+01
1.731891904622e+01
1.848266612322e+01
2.106275037527e+01
1.758011759162e+01
1.933536394206e+01
2.111773777081e+01
1.992052278797e+01
1.969785421412e+01
1.477579055757e+01
1.896417207766e+01
2.124962164624e+01
1.788563090553e+01
2.080637389271e+01
1.799695407189e+01
1.697361211288e+01
1.707686683282e+01
1.794875566551e+01
1.814513018621e+01
4.335650881234e+00
2.078803442973e+01
1.413117620308e+01
1.712527470330e+01
1.740992968119e+01
2.092334102386e+01
1.227092844111e+01
1.344757105393e+01
1.736533933530e+01
2.052642199615e+01
1.104901953842e+01
1.207207161878e+01
1.703511403499e+01
1.214598290841e+01
2.108126597113e+01
2.125813753978e+01
1.455231591224e+01
2.010347463623e+01
1.857444465204e+01
2.067760906605e+01
2.121215721368e+01
-3.586133323504e+00
2.134526802632e+01
1.754896496184e+01
-3.875756956794e+00
1.860909784996e+01
1.166463237421e+01
1.715285038224e+01
1.708327152435e+01
2.118729955449e+01
2.159345629824e+01
1.881331310563e+01
2.156627343939e+01
1.823206198931e+01
1.774958774702e+01
-1.080962166551e+01
9.739495122973e+00
1.929011455768e+01
1.621745022285e+01
1.969260137821e+01
1.786409618618e+01
1.823783619771e+01
1.936689856368e+01
1.274139411035e+01
1.926656119918e+01
2.112983115285e+01
1.844070018444e+01
2.107874870441e+01
2.104996646133e+01
1.896691152059e+01
2.155620937178e+01
1.751528667720e+01
2.025165440446e+01
2.148118747950e+01
1.936386610718e+01
1.975446168086e+01
2.145500667435e+01
2.010501930687e+01
1.754770436260e+01
1.963779443551e+01
1.739238333075e+01
2.081078929543e+01
2.098017922632e+01
1.949597668857e+01
1.667694276094e+01
2.112732587809e+01
2.106852676848e+01
6.342810182606e+00
1.778067685152e+01
2.092891012783e+01
6.996013894108e+00
2.092017198020e+01
-1.388182999540e+01
2.104641585249e+01
1.926812247886e+01
2.062984726289e+01
2.025595794616e+01
1.663536061264e+01
1.622656572858e+01
1.793727108477e+01
8.441640838713e+00
9.856878623171e+00
2.101642562532e+01
2.141754784235e+01
2.132808107886e+01
2.146059381192e+01
2.141347123276e+01
1.914975351507e+01
8.225195796536e+00
1.532370135457e+01
1.323334485914e+01
2.096086185153e+01
1.974458701896e+01
2.069040909219e+01
2.097136066683e+01
2.121428649714e+01
2.082285814104e+01
2.001846928459e+01
2.059394588334e+01
1.824114358430e+01
1.907444623220e+01
2.114070159695e+01
1.967950969869e+01
1.763601106265e+01
2.124046421272e+01
1.722290615599e+01
1.761777389735e+01
1.962061406604e+01
2.142486830141e+01
2.122128315182e+01
1.714091343815e+01
-1.782021237790e+01
2.038097152053e+01
-4.831821179996e+00
5.979336906462e+00
2.107402628553e+01
1.880468389423e+01
1.660078481669e+01
4.777952781582e+00
1.982907732702e+01
-1.659709348897e+01
6.762636306908e+00
2.156725083323e+01
2.074233593580e+01
1.191538498604e+01
2.059998720116e+01
2.139476355142e+01
1.808981823315e+01
2.049052140171e+01
1.882863697682e+01
1.126261696922e+01
2.086863078124e+01
2.091544933226e+01
1.696088670040e+01
1.354431283327e+01
1.658129558302e+01
2.097759740373e+01
-4.357599302818e+00
-2.199636720497e+01
1.199827709162e+01
2.079976679323e+01
2.056917789844e+01
1.988511943969e+01
1.913223854755e+01
2.106714769983e+01
1.732577455149e+01
2.093352192410e+01
2.088368799795e+01
1.783575264132e+01
1.505650834803e+01
2.037277067730e+01
2.084740215242e+01
2.094459276060e+01
-9.994103661470e-01
2.078452435815e+01
2.093989621976e+01
1.708783166647e+01
1.638379421493e+01
2.244077377688e+00
2.105681424309e+01
1.958607632095e+01
6.162099569939e+00
2.051083766108e+01
1.080526198907e+01
2.030301765517e+01
2.008463668553e+01
4.099357943616e+00
2.088647594045e+01
1.589276302685e+01
1.404489154900e+01
2.096587874797e+01
2.126247231860e+01
2.089108135114e+01
-1.379572055875e+01
1.871580419332e+01
2.068696414274e+01
2.116144989008e+01
1.926078083440e+01
2.104248558440e+01
2.097799387947e+01
2.073250978609e+01
1.286482908648e+00
-1.313608949221e+01
2.101855816596e+01
2.127642627558e+01
1.920490484680e+01
1.819044332787e+01
5.288014661094e+00
1.798522539929e+01
2.103008980961e+01
-3.344199314863e+01
1.972166639864e+01
2.049059023021e+01
1.476414043082e+01
2.047035184405e+01
1.867095560795e+01
2.028215806804e+01
2.338452942893e+00
-1.968000928530e+01
1.903103446722e+01
1.695998600264e+01
1.306544712575e+01
2.038089403538e+01
1.379670220754e+01
2.054954594164e+01
1.697316851771e+01
2.018298096766e+01
1.867692267615e+01
2.044921224526e+01
7.595684640825e+00
1.990137950214e+01
1.766944623747e+01
2.092416553153e+01
2.075150552711e+01
1.832290279716e+01
-4.277837203011e+01
2.092454065920e+01
1.792748190428e+01
1.946325576361e+01
1.843540144042e+01
1.894060787344e+01
1.092390853192e+01
-1.122503298739e+01
-4.550557257682e+00
1.838560771652e+01
2.138016032358e+01
1.972121826746e+01
1.835482729059e+01
1.924716855045e+01
-2.781519766848e+00
1.771578557863e+01
1.955152612365e+01
2.046705152303e+01
-3.247746288107e+00
7.850778821348e+00
2.130261769670e+01
1.813185934825e+01
2.154285225345e+01
2.643736016296e+00
2.141399293007e+01
7.953011622817e+00
1.993362827286e+01
2.159799133331e+01
1.931674308123e+01
1.685582804578e+01
1.794935785645e+01
3.140912769169e+00
2.159107633703e+01
6.466448148020e+00
-2.251751311578e+01
1.909589779950e+01
1.870326160164e+01
-2.300386341766e+01
2.139390196630e+01
1.497363702186e+01
1.616408969540e+01
1.879118816813e+01
1.950284271083e+01
1.866909628595e+01
2.052558360863e+01
1.316298542717e+01
2.071062736218e+01
1.365312097740e+01
2.101823009642e+01
1.959394590818e+01
9.442338387978e+00
1.776583841655e+01
2.109438729206e+01
-5.175568439267e+00
2.039548095838e+01
2.099518875852e+01
1.767331606496e+01
8.368885404376e+00
2.053259500634e+01
1.847453234474e+01
2.022622333504e+01
1.922183614054e+01
1.600271373420e+01
1.992419856349e+01
1.668341338912e+01
-5.675717944728e+00
1.983932179237e+01
1.954039985905e+01
1.542606478006e+01
1.926319254064e+01
1.962547020810e+01
2.106495041618e+01
2.032210316553e+01
2.094200935881e+01
-4.374144860392e+01
1.490667922806e+01
2.073413359340e+01
1.877901638394e+01
2.011375945474e+01
-1.405094384507e+01
-9.086839667362e+00
1.523190671238e+01
2.031065978660e+01
1.678423110429e+01
1.988651292047e+01
2.076059751036e+01
2.082366216689e+01
2.086427936617e+01
1.420052625689e+01
-3.055669956042e+01
-6.608997965853e+00
8.318283118577e+00
-7.187236772781e+00
1.978641580382e+01
1.970137500569e+01
2.013440375626e+01
-6.410211856644e+00
1.880327633685e+01
1.983850159907e+01
1.903424981781e+01
1.839379557100e+01
1.966762878593e+01
2.072259315789e+01
1.546943094309e+01
2.002467303549e+01
-1.646860069553e+01
2.056496672362e+01
2.050085305150e+01
-1.014284558830e+01
-8.501664444484e+00
2.092460487168e+01
1.434938069176e+01
1.908549568102e+01
1.848730246139e+01
2.039133992246e+01
1.853733072984e+01
1.560549418518e+01
1.750168926476e+01
1.797989996129e+01
1.737748477231e+01
2.007189800559e+01
1.290787657169e+01
1.444629728725e+01
1.537051338252e+01
1.566160216139e+01
5.575405477069e+00
1.681259825275e+01
1.939997629765e+01
1.650364158815e+01
2.070409902692e+01
1.921168876671e+01
1.778544198788e+01
1.901632075167e+01
1.946754066594e+01
1.895771231422e+01
2.098018013779e+01
-2.410879441854e+01
1.529689009664e+01
2.045825712451e+01
4.182735899601e+00
1.444965359073e+01
2.111511751727e+01
-7.289427737045e+00
-2.347543722158e+01
1.967247066327e+01
1.307738158778e+01
1.931721246985e+01
2.082818274085e+01
1.307136700260e+01
-2.839944293787e+01
1.942893596989e+01
5.989439053475e+00
1.914905888445e+01
2.049575572550e+01
1.916864868804e+01
1.209343387024e+01
1.521618309625e+01
1.954638496182e+01
1.989153995850e+01
2.067838044571e+01
1.802642982910e+01
2.080459212035e+01
-6.660445400923e+00
2.078768018450e+01
1.373473159167e+01
4.232090850935e+00
2.097922791629e+01
1.939406240249e+01
1.947241006868e+01
1.432741082285e+01
1.529734469940e+01
7.106224840481e+00
1.957557087486e+01
1.813561485530e+01
-2.809892194410e+00
2.022250933250e+01
1.311347935994e+01
1.918845234484e+01
1.964513453729e+01
1.972744750197e+01
-6.535778742581e+01
-5.345893787376e+01
1.337379297909e+01
1.320249084319e+01
2.049387477073e+01
2.067305050433e+01
-2.471388033355e+01
-4.436844520620e+01
2.081009299326e+01
1.996756687470e+01
8.599907507095e+00
2.081997081342e+01
2.079483316475e+01
2.046392656454e+01
1.692672489766e+01
7.466399053519e+00
1.971100903004e+01
4.043937253759e+00
1.998076081726e+01
1.938793806464e+01
1.893434545998e+01
2.031057174215e+01
1.609880239837e+01
1.965771620035e+01
1.879876380623e+01
1.832838219217e+01
1.314440846432e+01
1.995652115781e+01
1.917552959701e+01
1.564755303513e+01
-2.240040124861e+01
1.940940923264e+01
2.108048937783e+01
3.423191270649e+00
1.741224609443e+01
2.064945272896e+01
1.963889422954e+01
1.976586529799e+01
2.092782791463e+01
-2.581890075628e+01
-3.654324547028e+01
8.294571233941e+00
1.516163162657e+01
1.983806306182e+01
1.917900601561e+01
2.069270578237e+01
-6.110022379519e+00
-6.646705610459e+00
-1.266030385419e+01
1.758774541612e+01
1.757049017885e+01
1.918144518681e+01
7.965063285183e+00
2.082268176635e+01
1.523791303399e+01
2.035017632257e+01
1.976746993822e+01
1.512689759889e+01
2.099273092255e+01
1.941875553217e+01
1.939741926928e+01
-8.744375573880e+00
1.904630296805e+01
1.987707477956e+01
2.093394719003e+01
2.009361705746e+01
2.050019145238e+01
1.833226146883e+01
-4.110255491982e+01
1.538431827201e+00
1.900344389085e+01
1.594277536049e+01
2.079881569461e+01
1.996677415330e+01
2.064836207961e+01
1.816302802220e+01
2.044286217847e+01
2.092148326764e+01
2.100144577260e+01
1.785369844189e+01
2.073768661709e+01
1.417163000941e+01
1.906631605380e+01
-5.811511659462e+00
1.874774686427e+01
1.744798041512e+01
-4.216637410212e+00
8.780069731739e+00
1.863933351879e+01
1.943515722858e+01
1.914049249135e+01
2.065179483680e+01
1.605140498036e+01
-2.276420114632e+01
-1.095701094909e+01
-1.757277611311e+01
1.229791924815e+00
-3.169790419951e+01
1.981835953733e+01
2.082309019943e+01
1.918188444104e+01
1.581907963351e+01
1.917423418003e+01
2.096548005736e+01
2.114345127862e+01
2.046675939581e+01
1.963963555452e+01
1.907350404033e+01
-6.123100812575e+00
-1.129340677854e+01
2.086522208810e+01
-4.101595063716e+00
4.241643817396e-01
-1.414660690634e+01
-7.559523004807e+00
2.072160368459e+01
1.973495260059e+01
1.920310046052e+01
2.036368074557e+01
2.105742759855e+01
1.652822858918e+01
1.978387724368e+01
1.290630627191e+01
1.300157814527e+01
1.582636114638e+00
-2.308020006506e+01
2.072213495819e+01
1.425739207465e+01
3.291948295372e+00
1.979095408473e+01
1.966778103151e+01
1.912678772372e+01
1.949865057364e+01
1.694736649632e+01
-1.065765474520e+01
2.090632284817e+01
1.966283457394e+01
2.074045266814e+01
1.426159455704e+01
2.084891056761e+01
4.140360451994e+00
1.921853429076e+01
-2.477993428041e+01
2.073504136538e+01
1.942124542795e+01
-2.641212041204e+01
1.965796391204e+01
1.788479452320e+01
1.945865383856e+01
2.054426071004e+01
1.708085717668e+01
1.970846992281e+01
1.917280429102e+01
1.748001914198e+01
1.945933452223e+01
1.852390887809e+01
1.315066809665e+01
2.027517550238e+01
1.946393316510e+01
-5.931417299916e+01
1.320395564038e+01
2.068093545897e+01
8.732435824911e+00
2.111410750270e+01
1.911526349489e+01
1.939488994040e+01
7.919196078829e+00
-4.146026293871e+00
2.065314101330e+01
1.848699074044e+01
-3.399968145462e+01
1.949615031846e+01
1.687389867374e+01
6.980109827181e+00
1.631568041712e+01
2.026870179650e+01
2.070935104039e+01
-2.869787633485e+01
1.813532432861e+01
2.028838687861e+01
2.072732210946e+01
2.045223642502e+01
2.019606817024e+01
2.034698924547e+01
-8.592485878929e+00
2.092551324608e+01
1.942901319035e+01
4.661355422538e+00
1.945193163786e+01
2.064890390428e+01
1.433153524642e+01
1.685822548867e+01
2.011468293340e+01
2.016789217369e+01
2.045190727657e+01
2.099807042186e+01
3.021743189323e+00
1.954969412578e+01
1.535435077973e+01
1.939751030815e+01
2.089684119736e+01
1.628282420515e+01
1.920970542735e+01
2.051864774205e+01
2.058355129323e+01
-2.518788806057e+01
1.918934229535e+01
1.943192477204e+01
-7.969051481634e+00
1.986721425126e+01
-2.767554949233e+01
1.937504756563e+01
-5.029524383575e+01
-5.560085791145e+01
-5.540118434608e+01
-5.592878177985e+01
-5.574230383664e+01
-5.585346807620e+01
-5.577662004590e+01
-5.579786934103e+01
-5.575945989358e+01
-5.576591121904e+01
-5.572239504292e+01
-5.575213164540e+01
-5.567291813560e+01
-5.575212402051e+01
-5.561185287764e+01
-5.575840858973e+01
-5.553853428435e+01
-5.577039638549e+01
-4.535097313531e+01
-5.545162274504e+01
-5.578757807206e+01
-5.534910888219e+01
8.852607961025e+01
-5.581349208322e+01
-4.855312958075e+01
-5.522860049027e+01
-5.585542304559e+01
-5.508546644283e+01
-5.589227859028e+01
-5.491927507013e+01
-5.595646396876e+01
-5.472436706823e+01
-5.599216315862e+01
-3.239568401704e+01
-5.450969251822e+01
-5.602925671496e+01
-5.425077489215e+01
-5.583590976946e+01
-5.603554771573e+01
-5.399439374257e+01
-5.545929183341e+01
-5.365355338434e+01
-5.599617480365e+01
-5.308058911758e+01
-5.338616442540e+01
-5.294545648650e+01
-5.978397270444e+01
-5.040149724693e+01
-4.834993000099e+01
-5.957310537922e+01
-4.042751530709e+01
-4.099884006502e+01
-1.958341302772e+01
-1.761084343176e+01
-1.763017496286e+01
-1.744999359213e+01
-1.751561080214e+01
-1.739853339610e+01
-1.747913976778e+01
-1.735312332169e+01
-1.744755542010e+01
-1.730766191386e+01
-1.741769652887e+01
-1.726111376566e+01
-1.738698414886e+01
-1.721414622128e+01
-1.735794670619e+01
-1.716307584212e+01
-1.732401303360e+01
-1.329991085706e+01
-1.710754603642e+01
-1.728242003895e+01
-1.642156113460e+01
-1.704750612303e+01
-1.723063851477e+01
-1.698668855756e+01
-1.717391279971e+01
-1.693117994338e+01
-2.123215663510e+01
-1.711993823015e+01
-1.687020734503e+01
-1.704137474617e+01
-1.682161383932e+01
-1.695551362260e+01
-1.676838054137e+01
-1.682228344142e+01
-1.678701496499e+01
-1.677216674366e+01
-1.676097696713e+01
-1.273982465803e+01
-1.689588667675e+01
-1.651869385577e+01
-1.675999379753e+01
-1.655835145535e+01
-1.554872648822e+01
-2.476266065587e+01
-1.653454095868e+01
-1.916672433160e+01
-1.275547727607e+01
-2.473144333856e+01
-1.925621280808e+01
-1.697034748948e+00
-2.566690229148e+00
-2.590335752058e+00
-2.643371964025e+00
-2.638749609818e+00
-2.635420507909e+00
-2.627283883845e+00
-2.620839400256e+00
-2.613348552263e+00
-2.605445961064e+00
-2.600874504063e+00
-2.586724323842e+00
-2.589637903944e+00
-2.573253724236e+00
-2.584886560410e+00
-2.561066080046e+00
-1.137647830786e+00
-2.582914096954e+00
-2.541000569640e+00
-4.621011667634e+00
-2.578222378072e+00
-2.514604918781e+00
-2.634182459592e+00
-2.574841819360e+00
-2.488078658315e+00
-2.579020831997e+00
-2.466311199599e+00
-2.595430768375e+00
-2.457793513899e+00
-1.280561442581e+00
-2.612906716019e+00
-2.390158043008e+00
-2.626547813613e+00
-2.381036753366e+00
-2.227796106500e+00
-2.644453093852e+00
-2.359573767282e+00
-2.685292187960e+00
-1.943832972170e+00
-2.732643050722e+00
-6.199240991070e+00
-2.786370087142e+00
-1.571886993756e+00
-5.009701906004e+00
-9.324308439756e-03
-4.443656292492e+00
4.185358711434e+00
4.633550997294e+00
4.642771115331e+00
4.646056872497e+00
4.649189954687e+00
4.647550106568e+00
4.653949408314e+00
4.641661874169e+00
4.652475923010e+00
4.636258451209e+00
4.652903568751e+00
4.629782473381e+00
4.655506467402e+00
4.619054279249e+00
4.651830864091e+00
5.103243840524e+00
4.591361752921e+00
4.297473848320e+00
4.634312576085e+00
4.572824349468e+00
4.634566175424e+00
4.554895161337e+00
4.635607936190e+00
4.523650497672e+00
3.196156417157e+00
4.626021892751e+00
4.484320358857e+00
4.614044567061e+00
4.432717788302e+00
4.577829436184e+00
4.390699752854e+00
4.629188356396e+00
4.372101878603e+00
4.318703291991e+00
4.592552320547e+00
4.951729977248e+00
4.767272606319e+00
2.384485182058e+00
4.924896547284e+00
4.152359562668e+00
5.821223549173e+00
3.042553462113e+00
3.044540692923e+00
9.124381957650e+00
8.810347809460e+00
8.789631551300e+00
8.762535360516e+00
8.753525736102e+00
8.767690285686e+00
8.753458259609e+00
8.748541414255e+00
8.726143022477e+00
8.743599883104e+00
8.715434880606e+00
8.730376291545e+00
8.691693744486e+00
8.870977547313e+00
8.731936939134e+00
8.673371965940e+00
7.651852222170e+00
8.686270672806e+00
8.625345322263e+00
8.345436452026e+00
8.675848360413e+00
8.602194113888e+00
8.671803321771e+00
8.569566238491e+00
8.641923396143e+00
8.707608340409e+00
8.517818584789e+00
8.615396871798e+00
8.603144488963e+00
8.474759133567e+00
8.504266886488e+00
8.428976345235e+00
8.669623806604e+00
8.358900927545e+00
7.150005123083e+00
8.639719726200e+00
9.214620163819e+00
8.023638284709e+00
9.678041597774e+00
7.479534155086e+00
1.136317463682e+01
1.145691320998e+01
1.146329131586e+01
1.147859257932e+01
1.146435939801e+01
1.148066783420e+01
1.147852115591e+01
1.143352616271e+01
1.143061902356e+01
1.142879659813e+01
1.143524643384e+01
1.140334806679e+01
1.141864721953e+01
1.140411059586e+01
1.111525227213e+01
1.135085002521e+01
1.139511103618e+01
1.134397482596e+01
1.134164899781e+01
1.131051423880e+01
1.133859475811e+01
1.126784403269e+01
1.056749335708e+01
1.131695543255e+01
1.121578272735e+01
1.126248215266e+01
1.115989838532e+01
1.112224435457e+01
1.123519968464e+01
1.124849876388e+01
1.128308899881e+01
1.022956281246e+01
1.157650735275e+01
1.132253355514e+01
1.202057816058e+01
1.081924408910e+01
1.041335468338e+01


