# vtk DataFile Version 2.0
Calculation  at time 6.000000000000e+00 
ASCII
DATASET UNSTRUCTURED_GRID
Field FieldData 1
Time 1 1 double
6.000000000000e+00

POINTS 1137 float
0.0 0.0 0.0 
5.000000000000e+01 -1.000000000000e+01 0.0 
0.0 -2.000000000000e+01 0.0 
5.000000000000e+01 -2.000000000000e+01 0.0 
0.0 -9.999999999991e-01 0.0 
0.0 -1.999999999998e+00 0.0 
0.0 -2.999999999997e+00 0.0 
0.0 -3.999999999994e+00 0.0 
0.0 -4.999999999991e+00 0.0 
0.0 -5.999999999988e+00 0.0 
0.0 -6.999999999985e+00 0.0 
0.0 -7.999999999982e+00 0.0 
0.0 -8.999999999983e+00 0.0 
0.0 -9.999999999985e+00 0.0 
0.0 -1.099999999999e+01 0.0 
0.0 -1.199999999999e+01 0.0 
0.0 -1.299999999999e+01 0.0 
0.0 -1.399999999999e+01 0.0 
0.0 -1.499999999999e+01 0.0 
0.0 -1.599999999999e+01 0.0 
0.0 -1.700000000000e+01 0.0 
0.0 -1.800000000000e+01 0.0 
0.0 -1.900000000000e+01 0.0 
4.900000000001e+01 -2.000000000000e+01 0.0 
4.800000000001e+01 -2.000000000000e+01 0.0 
4.700000000002e+01 -2.000000000000e+01 0.0 
4.600000000003e+01 -2.000000000000e+01 0.0 
4.500000000004e+01 -2.000000000000e+01 0.0 
4.400000000004e+01 -2.000000000000e+01 0.0 
4.300000000005e+01 -2.000000000000e+01 0.0 
4.200000000006e+01 -2.000000000000e+01 0.0 
4.100000000006e+01 -2.000000000000e+01 0.0 
4.000000000007e+01 -2.000000000000e+01 0.0 
3.900000000008e+01 -2.000000000000e+01 0.0 
3.800000000009e+01 -2.000000000000e+01 0.0 
3.700000000009e+01 -2.000000000000e+01 0.0 
3.600000000010e+01 -2.000000000000e+01 0.0 
3.500000000011e+01 -2.000000000000e+01 0.0 
3.400000000011e+01 -2.000000000000e+01 0.0 
3.300000000012e+01 -2.000000000000e+01 0.0 
3.200000000013e+01 -2.000000000000e+01 0.0 
3.100000000013e+01 -2.000000000000e+01 0.0 
3.000000000013e+01 -2.000000000000e+01 0.0 
2.900000000013e+01 -2.000000000000e+01 0.0 
2.800000000013e+01 -2.000000000000e+01 0.0 
2.700000000013e+01 -2.000000000000e+01 0.0 
2.600000000013e+01 -2.000000000000e+01 0.0 
2.500000000013e+01 -2.000000000000e+01 0.0 
2.400000000013e+01 -2.000000000000e+01 0.0 
2.300000000013e+01 -2.000000000000e+01 0.0 
2.200000000013e+01 -2.000000000000e+01 0.0 
2.100000000013e+01 -2.000000000000e+01 0.0 
2.000000000013e+01 -2.000000000000e+01 0.0 
1.900000000013e+01 -2.000000000000e+01 0.0 
1.800000000013e+01 -2.000000000000e+01 0.0 
1.700000000012e+01 -2.000000000000e+01 0.0 
1.600000000011e+01 -2.000000000000e+01 0.0 
1.500000000011e+01 -2.000000000000e+01 0.0 
1.400000000010e+01 -2.000000000000e+01 0.0 
1.300000000009e+01 -2.000000000000e+01 0.0 
1.200000000009e+01 -2.000000000000e+01 0.0 
1.100000000008e+01 -2.000000000000e+01 0.0 
1.000000000007e+01 -2.000000000000e+01 0.0 
9.000000000064e+00 -2.000000000000e+01 0.0 
8.000000000057e+00 -2.000000000000e+01 0.0 
7.000000000050e+00 -2.000000000000e+01 0.0 
6.000000000043e+00 -2.000000000000e+01 0.0 
5.000000000036e+00 -2.000000000000e+01 0.0 
4.000000000028e+00 -2.000000000000e+01 0.0 
3.000000000021e+00 -2.000000000000e+01 0.0 
2.000000000014e+00 -2.000000000000e+01 0.0 
1.000000000007e+00 -2.000000000000e+01 0.0 
5.000000000000e+01 -1.100000000000e+01 0.0 
5.000000000000e+01 -1.200000000000e+01 0.0 
5.000000000000e+01 -1.300000000000e+01 0.0 
5.000000000000e+01 -1.400000000000e+01 0.0 
5.000000000000e+01 -1.500000000000e+01 0.0 
5.000000000000e+01 -1.600000000000e+01 0.0 
5.000000000000e+01 -1.700000000000e+01 0.0 
5.000000000000e+01 -1.800000000000e+01 0.0 
5.000000000000e+01 -1.900000000000e+01 0.0 
2.000000000000e+01 0.0 0.0 
3.500000000000e+01 -1.000000000000e+01 0.0 
2.150000000000e+01 -1.000000000000e+00 0.0 
2.300000000000e+01 -2.000000000000e+00 0.0 
2.450000000000e+01 -3.000000000000e+00 0.0 
2.600000000000e+01 -4.000000000000e+00 0.0 
2.750000000000e+01 -5.000000000000e+00 0.0 
2.900000000000e+01 -6.000000000000e+00 0.0 
3.050000000000e+01 -7.000000000000e+00 0.0 
3.200000000000e+01 -8.000000000000e+00 0.0 
3.350000000000e+01 -9.000000000000e+00 0.0 
5.000000000000e+01 -5.000000000000e+00 0.0 
5.000000000000e+01 -6.000000000000e+00 0.0 
5.000000000000e+01 -7.000000000000e+00 0.0 
5.000000000000e+01 -8.000000000000e+00 0.0 
5.000000000000e+01 -9.000000000000e+00 0.0 
4.900000000000e+01 -1.000000000000e+01 0.0 
4.800000000000e+01 -1.000000000000e+01 0.0 
4.700000000000e+01 -1.000000000000e+01 0.0 
4.600000000000e+01 -1.000000000000e+01 0.0 
4.500000000000e+01 -1.000000000000e+01 0.0 
4.400000000000e+01 -1.000000000000e+01 0.0 
4.300000000000e+01 -1.000000000000e+01 0.0 
4.200000000000e+01 -1.000000000000e+01 0.0 
4.100000000000e+01 -1.000000000000e+01 0.0 
4.000000000000e+01 -1.000000000000e+01 0.0 
3.900000000000e+01 -1.000000000000e+01 0.0 
3.800000000000e+01 -1.000000000000e+01 0.0 
3.700000000000e+01 -1.000000000000e+01 0.0 
3.600000000000e+01 -1.000000000000e+01 0.0 
1.900000000000e+01 0.0 0.0 
1.800000000000e+01 0.0 0.0 
1.700000000000e+01 0.0 0.0 
1.600000000000e+01 0.0 0.0 
1.500000000000e+01 0.0 0.0 
1.400000000000e+01 0.0 0.0 
1.300000000000e+01 0.0 0.0 
1.200000000000e+01 0.0 0.0 
1.100000000000e+01 0.0 0.0 
1.000000000000e+01 0.0 0.0 
9.000000000000e+00 0.0 0.0 
8.000000000000e+00 0.0 0.0 
7.000000000000e+00 0.0 0.0 
6.000000000000e+00 0.0 0.0 
5.000000000000e+00 0.0 0.0 
4.000000000000e+00 0.0 0.0 
3.000000000000e+00 0.0 0.0 
2.000000000000e+00 0.0 0.0 
1.000000000000e+00 0.0 0.0 
2.847826086957e+01 -5.000000000000e+00 0.0 
2.945652173913e+01 -5.000000000000e+00 0.0 
3.043478260870e+01 -5.000000000000e+00 0.0 
3.141304347826e+01 -5.000000000000e+00 0.0 
3.239130434783e+01 -5.000000000000e+00 0.0 
3.336956521739e+01 -5.000000000000e+00 0.0 
3.434782608696e+01 -5.000000000000e+00 0.0 
3.532608695652e+01 -5.000000000000e+00 0.0 
3.630434782609e+01 -5.000000000000e+00 0.0 
3.728260869565e+01 -5.000000000000e+00 0.0 
3.826086956522e+01 -5.000000000000e+00 0.0 
3.923913043478e+01 -5.000000000000e+00 0.0 
4.021739130435e+01 -5.000000000000e+00 0.0 
4.119565217391e+01 -5.000000000000e+00 0.0 
4.217391304348e+01 -5.000000000000e+00 0.0 
4.315217391304e+01 -5.000000000000e+00 0.0 
4.413043478261e+01 -5.000000000000e+00 0.0 
4.510869565217e+01 -5.000000000000e+00 0.0 
4.608695652174e+01 -5.000000000000e+00 0.0 
4.706521739130e+01 -5.000000000000e+00 0.0 
4.804347826087e+01 -5.000000000000e+00 0.0 
4.902173913043e+01 -5.000000000000e+00 0.0 
4.900000000001e+01 -6.000000000000e+00 0.0 
4.800000000003e+01 -6.000000000000e+00 0.0 
4.700000000004e+01 -6.000000000000e+00 0.0 
4.600000000006e+01 -6.000000000000e+00 0.0 
4.500000000007e+01 -6.000000000000e+00 0.0 
4.400000000009e+01 -6.000000000000e+00 0.0 
4.300000000010e+01 -6.000000000000e+00 0.0 
4.200000000012e+01 -6.000000000000e+00 0.0 
4.100000000013e+01 -6.000000000000e+00 0.0 
4.000000000014e+01 -6.000000000000e+00 0.0 
3.900000000014e+01 -6.000000000000e+00 0.0 
3.800000000012e+01 -6.000000000000e+00 0.0 
3.700000000010e+01 -6.000000000000e+00 0.0 
3.600000000008e+01 -6.000000000000e+00 0.0 
3.500000000006e+01 -6.000000000000e+00 0.0 
3.400000000005e+01 -6.000000000000e+00 0.0 
3.300000000003e+01 -6.000000000000e+00 0.0 
3.200000000001e+01 -6.000000000000e+00 0.0 
3.100000000000e+01 -6.000000000000e+00 0.0 
3.000000000000e+01 -6.000000000000e+00 0.0 
3.147499999998e+01 -7.000000000000e+00 0.0 
3.244999999998e+01 -7.000000000000e+00 0.0 
3.342499999998e+01 -7.000000000000e+00 0.0 
3.439999999998e+01 -7.000000000000e+00 0.0 
3.537499999998e+01 -7.000000000000e+00 0.0 
3.634999999998e+01 -7.000000000000e+00 0.0 
3.732499999998e+01 -7.000000000000e+00 0.0 
3.829999999998e+01 -7.000000000000e+00 0.0 
3.927499999999e+01 -7.000000000000e+00 0.0 
4.024999999999e+01 -7.000000000000e+00 0.0 
4.122499999999e+01 -7.000000000000e+00 0.0 
4.219999999999e+01 -7.000000000000e+00 0.0 
4.317499999999e+01 -7.000000000000e+00 0.0 
4.414999999999e+01 -7.000000000000e+00 0.0 
4.512499999999e+01 -7.000000000000e+00 0.0 
4.609999999999e+01 -7.000000000000e+00 0.0 
4.707500000000e+01 -7.000000000000e+00 0.0 
4.805000000000e+01 -7.000000000000e+00 0.0 
4.902500000000e+01 -7.000000000000e+00 0.0 
4.900000000000e+01 -8.000000000000e+00 0.0 
4.800000000000e+01 -8.000000000000e+00 0.0 
4.700000000000e+01 -8.000000000000e+00 0.0 
4.600000000000e+01 -8.000000000000e+00 0.0 
4.500000000000e+01 -8.000000000000e+00 0.0 
4.400000000000e+01 -8.000000000000e+00 0.0 
4.300000000000e+01 -8.000000000000e+00 0.0 
4.200000000000e+01 -8.000000000000e+00 0.0 
4.100000000000e+01 -8.000000000000e+00 0.0 
4.000000000000e+01 -8.000000000000e+00 0.0 
3.900000000000e+01 -8.000000000000e+00 0.0 
3.800000000000e+01 -8.000000000000e+00 0.0 
3.700000000000e+01 -8.000000000000e+00 0.0 
3.600000000000e+01 -8.000000000000e+00 0.0 
3.500000000000e+01 -8.000000000000e+00 0.0 
3.400000000000e+01 -8.000000000000e+00 0.0 
3.300000000000e+01 -8.000000000000e+00 0.0 
3.447058823527e+01 -9.000000000000e+00 0.0 
3.544117647055e+01 -9.000000000000e+00 0.0 
3.641176470582e+01 -9.000000000000e+00 0.0 
3.738235294109e+01 -9.000000000000e+00 0.0 
3.835294117637e+01 -9.000000000000e+00 0.0 
3.932352941164e+01 -9.000000000000e+00 0.0 
4.029411764691e+01 -9.000000000000e+00 0.0 
4.126470588219e+01 -9.000000000000e+00 0.0 
4.223529411748e+01 -9.000000000000e+00 0.0 
4.320588235279e+01 -9.000000000000e+00 0.0 
4.417647058811e+01 -9.000000000000e+00 0.0 
4.514705882342e+01 -9.000000000000e+00 0.0 
4.611764705874e+01 -9.000000000000e+00 0.0 
4.708823529405e+01 -9.000000000000e+00 0.0 
4.805882352937e+01 -9.000000000000e+00 0.0 
4.902941176468e+01 -9.000000000000e+00 0.0 
2.075000000000e+01 -5.000000000006e-01 0.0 
2.225000000000e+01 -1.500000000000e+00 0.0 
2.375000000000e+01 -2.500000000000e+00 0.0 
2.525000000000e+01 -3.500000000000e+00 0.0 
2.675000000000e+01 -4.500000000000e+00 0.0 
2.825000000000e+01 -5.500000000000e+00 0.0 
2.975000000000e+01 -6.500000000000e+00 0.0 
3.125000000000e+01 -7.500000000000e+00 0.0 
3.275000000000e+01 -8.500000000000e+00 0.0 
3.425000000000e+01 -9.500000000000e+00 0.0 
2.226951693683e+01 -2.403913980114e+00 0.0 
1.650149491944e+01 -1.913490915758e+01 0.0 
1.050042386896e+01 -8.504605092970e-01 0.0 
1.553146524712e+01 -8.281255032105e-01 0.0 
1.150000000008e+01 -1.913397459621e+01 0.0 
2.530060260647e+01 -4.428336431260e+00 0.0 
8.651114563942e-01 -1.052096295641e+01 0.0 
2.050000000013e+01 -1.913397459622e+01 0.0 
2.819198729811e+01 -6.399519052838e+00 0.0 
2.445670302931e+01 -1.915649188023e+01 0.0 
3.117591465718e+01 -8.394293040695e+00 0.0 
7.465053044742e+00 -1.920411160581e+01 0.0 
6.398295709691e+00 -8.230098819370e-01 0.0 
2.849659607461e+01 -1.914296187762e+01 0.0 
3.418732642882e+01 -1.040265792588e+01 0.0 
8.386450935063e-01 -6.533605142809e+00 0.0 
9.178661865596e-01 -1.329769195597e+01 0.0 
3.149448624493e+01 -1.910466733764e+01 0.0 
3.552916747426e+01 -1.914628590759e+01 0.0 
4.449210346537e+01 -1.914359085008e+01 0.0 
4.140975975145e+01 -1.906941860733e+01 0.0 
3.847475958753e+01 -1.916622382724e+01 0.0 
3.653774794640e+01 -1.088712800241e+01 0.0 
4.047886341787e+01 -1.090139014048e+01 0.0 
4.348006339825e+01 -1.092792621489e+01 0.0 
4.919519968029e+01 -1.451526755068e+01 0.0 
4.500000000032e+00 -1.913397459621e+01 0.0 
1.856136921614e+01 -8.212235170404e-01 0.0 
3.499895312306e+00 -8.661165539723e-01 0.0 
9.076088696565e-01 -1.642306201891e+01 0.0 
4.655174095477e+01 -1.086183387525e+01 0.0 
9.430688970604e-01 -3.496112672958e+00 0.0 
3.353992337063e+01 -1.901202090820e+01 0.0 
2.249746016977e+01 -1.921262287282e+01 0.0 
2.650122741777e+01 -1.916123026018e+01 0.0 
1.863571384842e+01 -1.908325534840e+01 0.0 
1.450089971693e+01 -1.917691901860e+01 0.0 
1.350044695317e+01 -8.659695299584e-01 0.0 
3.849987469880e+01 -1.084154983397e+01 0.0 
9.454419857884e+00 -1.900818879936e+01 0.0 
4.917398660523e+01 -1.645692866081e+01 0.0 
8.500000000000e+00 -8.660254037844e-01 0.0 
8.660319230785e-01 -8.500111697188e+00 0.0 
4.649022621545e+01 -1.930506220113e+01 0.0 
2.667688107845e+01 -5.420288124331e+00 0.0 
2.379251615665e+01 -3.412225477429e+00 0.0 
2.966631491830e+01 -7.389030232731e+00 0.0 
3.267915035995e+01 -9.396934932445e+00 0.0 
2.074836922338e+01 -1.320054020319e+00 0.0 
4.915985743621e+01 -1.261973384855e+01 0.0 
2.527129768623e+00 -1.931592414663e+01 0.0 
1.538676247410e+00 -8.436956619311e-01 0.0 
4.908096641539e+01 -1.842484004551e+01 0.0 
3.478612492673e+01 -1.090889364140e+01 0.0 
3.409757055860e+01 -1.131991530427e+01 0.0 
3.501895309466e+01 -1.177687842717e+01 0.0 
3.407758073088e+01 -1.224293381580e+01 0.0 
3.484541875390e+01 -1.277051428430e+01 0.0 
3.400322025842e+01 -1.319022775640e+01 0.0 
3.321672625034e+01 -1.266779191233e+01 0.0 
3.315244139236e+01 -1.360984106532e+01 0.0 
3.236335186892e+01 -1.308463225210e+01 0.0 
3.478337442841e+01 -1.372341158982e+01 0.0 
3.230105923633e+01 -1.403023731610e+01 0.0 
3.150954055289e+01 -1.350301767700e+01 0.0 
3.144604792090e+01 -1.444931742516e+01 0.0 
3.065653897123e+01 -1.392357262981e+01 0.0 
3.071897610812e+01 -1.297447031198e+01 0.0 
2.986790411740e+01 -1.339226181535e+01 0.0 
2.993181466745e+01 -1.244703272398e+01 0.0 
2.908023061869e+01 -1.286254537734e+01 0.0 
2.901619051372e+01 -1.380881655279e+01 0.0 
2.822986160390e+01 -1.327695262116e+01 0.0 
2.829453476870e+01 -1.233265343811e+01 0.0 
2.744542905518e+01 -1.274510491105e+01 0.0 
2.751120089246e+01 -1.180368086886e+01 0.0 
2.666218649885e+01 -1.221619339205e+01 0.0 
2.672371209234e+01 -1.127125228527e+01 0.0 
2.587763216302e+01 -1.168539979114e+01 0.0 
2.581165585299e+01 -1.262994410089e+01 0.0 
2.502890882577e+01 -1.209827323619e+01 0.0 
2.509631327757e+01 -1.115492410304e+01 0.0 
2.424662989877e+01 -1.156630981079e+01 0.0 
2.431704046904e+01 -1.062389179334e+01 0.0 
2.346445438728e+01 -1.103427680694e+01 0.0 
2.339382552877e+01 -1.197964871788e+01 0.0 
2.260936050780e+01 -1.144513277642e+01 0.0 
2.268075012022e+01 -1.049911928216e+01 0.0 
2.182525737661e+01 -1.090920811464e+01 0.0 
2.189682319817e+01 -9.961716944568e+00 0.0 
2.104174127792e+01 -1.037266986667e+01 0.0 
2.111304367575e+01 -9.424179358711e+00 0.0 
2.025306185381e+01 -9.832727364719e+00 0.0 
2.018141124247e+01 -1.079140628871e+01 0.0 
1.938594498257e+01 -1.025147354112e+01 0.0 
1.946106490453e+01 -9.288010758448e+00 0.0 
1.858929958352e+01 -9.706319802516e+00 0.0 
1.851540991219e+01 -1.067205988724e+01 0.0 
1.771485303178e+01 -1.012504443115e+01 0.0 
1.764134552256e+01 -1.109360378538e+01 0.0 
1.683745148095e+01 -1.054496365337e+01 0.0 
1.691852964353e+01 -9.582555261178e+00 0.0 
1.603603813062e+01 -1.000160132379e+01 0.0 
1.595824239350e+01 -1.096750698862e+01 0.0 
1.515080624291e+01 -1.041639501931e+01 0.0 
1.523171602559e+01 -9.451711491453e+00 0.0 
1.434621060709e+01 -9.871956467464e+00 0.0 
1.426777178765e+01 -1.083749501371e+01 0.0 
1.345775282374e+01 -1.028803175500e+01 0.0 
1.354103873368e+01 -9.324918457162e+00 0.0 
1.265072018622e+01 -9.742612837270e+00 0.0 
1.257285762070e+01 -1.071557782384e+01 0.0 
1.175874815690e+01 -1.015972324288e+01 0.0 
1.184203019714e+01 -9.193604071377e+00 0.0 
1.094927709905e+01 -9.612103238656e+00 0.0 
1.086938022910e+01 -1.058685085646e+01 0.0 
1.005424098961e+01 -1.002939116380e+01 0.0 
9.977974613295e+00 -1.101324897989e+01 0.0 
1.012915646404e+01 -9.051815821181e+00 0.0 
9.237127782494e+00 -9.471239055559e+00 0.0 
9.308426593771e+00 -8.483376461131e+00 0.0 
8.418806073345e+00 -8.910712374517e+00 0.0 
2.253688464062e+01 -1.239459402279e+01 0.0 
8.495126726666e+00 -7.921646665254e+00 0.0 
9.389727383206e+00 -7.512103628377e+00 0.0 
7.601560812974e+00 -8.349460349344e+00 0.0 
7.525680547759e+00 -9.339736686940e+00 0.0 
7.677888324502e+00 -7.359727833346e+00 0.0 
6.782001206724e+00 -7.788454494773e+00 0.0 
6.858778622885e+00 -6.797338062822e+00 0.0 
2.196596590865e+01 -8.979025665442e+00 0.0 
2.816540108272e+01 -1.422634142353e+01 0.0 
5.961601194403e+00 -7.226824010712e+00 0.0 
6.038171749656e+00 -6.234825887079e+00 0.0 
6.936257279557e+00 -5.805287640737e+00 0.0 
6.115068918323e+00 -5.242109758768e+00 0.0 
3.564391741903e+01 -1.329240553876e+01 0.0 
3.558115605778e+01 -1.425902892003e+01 0.0 
3.645445282201e+01 -1.381970786460e+01 0.0 
3.639744204358e+01 -1.479198128612e+01 0.0 
3.727266909778e+01 -1.435399586226e+01 0.0 
5.216667013081e+00 -5.671788584287e+00 0.0 
3.220697293295e+01 -1.499594545107e+01 0.0 
3.551112158269e+01 -1.523479869250e+01 0.0 
2.836056961467e+01 -1.139032434851e+01 0.0 
2.516730388602e+01 -1.021382726837e+01 0.0 
1.844436907403e+01 -1.164097215196e+01 0.0 
5.885434318740e+00 -8.218694781467e+00 0.0 
5.064071066867e+00 -7.656614643901e+00 0.0 
4.988089103470e+00 -8.649722082718e+00 0.0 
1.079421050408e+01 -1.157014985435e+01 0.0 
9.902420005256e+00 -1.199903342656e+01 0.0 
1.071994252214e+01 -1.255727909771e+01 0.0 
9.826974788171e+00 -1.298659581767e+01 0.0 
1.064607883789e+01 -1.354595476388e+01 0.0 
9.751541265343e+00 -1.397556905071e+01 0.0 
8.932296185869e+00 -1.341553353988e+01 0.0 
8.856399248106e+00 -1.440570715508e+01 0.0 
8.036186803543e+00 -1.384470558472e+01 0.0 
1.057112875118e+01 -1.453516759081e+01 0.0 
1.146582585687e+01 -1.410539926903e+01 0.0 
7.959894480382e+00 -1.483563350928e+01 0.0 
7.138792279156e+00 -1.427465094140e+01 0.0 
7.062506792418e+00 -1.526615385482e+01 0.0 
6.240693558277e+00 -1.470508863040e+01 0.0 
6.316957575451e+00 -1.371212581281e+01 0.0 
5.418183007107e+00 -1.414253605022e+01 0.0 
5.494748364428e+00 -1.314886770603e+01 0.0 
1.756825565873e+01 -1.206433872514e+01 0.0 
1.837565773345e+01 -1.261356468266e+01 0.0 
1.749574831391e+01 -1.303769280014e+01 0.0 
1.830539187332e+01 -1.358828364284e+01 0.0 
1.742278925170e+01 -1.401367746928e+01 0.0 
1.823303007798e+01 -1.456432294258e+01 0.0 
1.734941694138e+01 -1.499213734361e+01 0.0 
1.653760041637e+01 -1.443920312098e+01 0.0 
3.056237977307e+01 -1.487132260174e+01 0.0 
1.866469084762e+01 -8.742953000418e+00 0.0 
1.953669694916e+01 -8.326038909849e+00 0.0 
1.874194303780e+01 -7.780688158966e+00 0.0 
1.961032016741e+01 -7.366854697285e+00 0.0 
1.881715755159e+01 -6.821102209649e+00 0.0 
1.968369797150e+01 -6.407747217358e+00 0.0 
1.889237123259e+01 -5.858375520026e+00 0.0 
1.802038875366e+01 -6.276202618170e+00 0.0 
1.809793837984e+01 -5.307629520489e+00 0.0 
1.721985207997e+01 -5.728242054488e+00 0.0 
1.729850893523e+01 -4.756990819347e+00 0.0 
1.641745664240e+01 -5.174636548624e+00 0.0 
2.495978509456e+01 -1.304406404294e+01 0.0 
1.911567814831e+01 -1.413854250293e+01 0.0 
1.904387332608e+01 -1.511463127723e+01 0.0 
1.992115934240e+01 -1.468788025898e+01 0.0 
7.013706899628e+00 -4.812582868662e+00 0.0 
5.342091874585e+00 -1.513658157269e+01 0.0 
1.139098043784e+01 -1.509488509480e+01 0.0 
1.228151810610e+01 -1.465617481983e+01 0.0 
1.646373110164e+01 -1.541993323337e+01 0.0 
5.293328636712e+00 -4.678385108584e+00 0.0 
1.975965862987e+01 -5.448124345648e+00 0.0 
2.054318374236e+01 -5.992561293251e+00 0.0 
3.721453439063e+01 -1.533216152738e+01 0.0 
3.809302733893e+01 -1.489235527381e+01 0.0 
1.220852788900e+01 -1.565304565230e+01 0.0 
4.394120899730e+00 -5.108397613210e+00 0.0 
8.779354620288e+00 -1.539524721159e+01 0.0 
1.817791047702e+01 -4.338570146253e+00 0.0 
4.518860013839e+00 -1.457343189307e+01 0.0 
4.442712140414e+00 -1.556841391069e+01 0.0 
8.115343466391e+00 -1.285760324283e+01 0.0 
1.985334703171e+01 -1.566478400426e+01 0.0 
2.071953850276e+01 -1.522074243119e+01 0.0 
1.634012953883e+01 -6.154777738301e+00 0.0 
1.553479994708e+01 -5.593730508879e+00 0.0 
1.561265946942e+01 -4.617761762647e+00 0.0 
1.470674212978e+01 -5.064576488228e+00 0.0 
1.464498299883e+01 -6.026514471420e+00 0.0 
1.383271561817e+01 -5.467796261169e+00 0.0 
1.389241253067e+01 -4.504338666645e+00 0.0 
1.301868735463e+01 -4.907185188626e+00 0.0 
1.294514184846e+01 -5.888160903592e+00 0.0 
1.212955968622e+01 -5.328262335277e+00 0.0 
1.220721122383e+01 -4.341264976687e+00 0.0 
1.131324345897e+01 -4.766773516508e+00 0.0 
5.266597955397e+00 -1.613148974258e+01 0.0 
1.737805990867e+01 -3.786677807525e+00 0.0 
3.078438094513e+01 -1.203225297748e+01 0.0 
1.131569882285e+01 -1.608511932110e+01 0.0 
1.728478341782e+01 -1.596017432313e+01 0.0 
3.803465906019e+01 -1.587509751228e+01 0.0 
3.891681276677e+01 -1.543395196905e+01 0.0 
3.897340985302e+01 -1.444710288980e+01 0.0 
3.980095968193e+01 -1.499059496613e+01 0.0 
3.974334598189e+01 -1.597921884150e+01 0.0 
4.062964983717e+01 -1.553518690417e+01 0.0 
4.068729602479e+01 -1.454434445295e+01 0.0 
4.151772679790e+01 -1.508974196007e+01 0.0 
4.157505195739e+01 -1.409694289912e+01 0.0 
4.240699932656e+01 -1.464347955968e+01 0.0 
4.234898051011e+01 -1.563721375790e+01 0.0 
4.323934606035e+01 -1.519082036405e+01 0.0 
4.329740528208e+01 -1.419587509788e+01 0.0 
4.413056841369e+01 -1.474359631875e+01 0.0 
4.418850110108e+01 -1.374786684042e+01 0.0 
4.502219770667e+01 -1.429605103525e+01 0.0 
4.496411937907e+01 -1.529215882720e+01 0.0 
4.490027319897e+00 -4.154167794594e+00 0.0 
1.565080385988e+01 -1.486411982419e+01 0.0 
1.557610691279e+01 -1.584855627870e+01 0.0 
4.195350646612e+00 -8.089117689096e+00 0.0 
4.124027797830e+00 -9.082831955007e+00 0.0 
4.917944318925e+00 -9.643530901533e+00 0.0 
4.020105689502e+00 -1.007439673661e+01 0.0 
4.587185899277e+01 -1.484039992728e+01 0.0 
4.580078661551e+01 -1.584043391042e+01 0.0 
2.061956522375e+01 -5.046701343981e+00 0.0 
2.139572955529e+01 -5.579553449826e+00 0.0 
3.715344357292e+01 -1.631485124583e+01 0.0 
3.618886196443e+00 -1.500471207167e+01 0.0 
3.695606940204e+00 -1.400939692294e+01 0.0 
2.438890661143e+01 -9.686110599723e+00 0.0 
2.523267572778e+01 -9.276766000622e+00 0.0 
2.446094171539e+01 -8.751904591412e+00 0.0 
2.529089822738e+01 -8.321495612547e+00 0.0 
2.606882688827e+01 -8.864724051119e+00 0.0 
2.452116646430e+01 -7.792756462004e+00 0.0 
1.235543269617e+01 -1.365845617339e+01 0.0 
4.318116874181e+01 -1.618567469992e+01 0.0 
7.835066111909e+00 -5.376366223896e+00 0.0 
7.905687335704e+00 -4.382539065697e+00 0.0 
3.542640009567e+00 -1.600035116542e+01 0.0 
1.572431503071e+01 -1.388358386695e+01 0.0 
2.574684696680e+01 -1.357896141127e+01 0.0 
2.488842657651e+01 -1.399674354505e+01 0.0 
2.568301775611e+01 -1.453552048595e+01 0.0 
2.481535572009e+01 -1.495542756508e+01 0.0 
2.561729699688e+01 -1.549784648532e+01 0.0 
2.474623061296e+01 -1.592058894178e+01 0.0 
2.394234041695e+01 -1.537572575827e+01 0.0 
2.065825452567e+01 -1.621899055217e+01 0.0 
2.387180528935e+01 -1.634552264687e+01 0.0 
4.585364400844e+01 -1.383912334080e+01 0.0 
1.998744432052e+01 -1.370317155541e+01 0.0 
1.205356951443e+01 -6.313580285498e+00 0.0 
5.396543905849e+00 -3.731818611283e+00 0.0 
1.139652573295e+01 -3.745819399350e+00 0.0 
3.574124306703e+00 -4.551456826011e+00 0.0 
3.494140761930e+00 -5.539787055649e+00 0.0 
1.213651452413e+01 -1.664505033022e+01 0.0 
2.555045568519e+01 -1.646529356744e+01 0.0 
2.641671114986e+01 -1.603899382371e+01 0.0 
2.612920721894e+01 -7.906435260873e+00 0.0 
2.690339829698e+01 -8.456969591431e+00 0.0 
1.978024383368e+01 -1.664410216353e+01 0.0 
3.732829979082e+01 -1.336926601859e+01 0.0 
4.074336584605e+01 -1.355133328401e+01 0.0 
4.163204691081e+01 -1.310280943992e+01 0.0 
3.773826114429e+00 -3.493444309145e+00 0.0 
1.228783001032e+01 -3.374822835872e+00 0.0 
4.057110462520e+01 -1.652588478000e+01 0.0 
2.132535497898e+01 -6.523623360525e+00 0.0 
2.216932532211e+01 -6.110044769206e+00 0.0 
1.825781152128e+01 -3.370146817147e+00 0.0 
1.745679445888e+01 -2.812942552063e+00 0.0 
4.666517057280e+01 -1.539981381543e+01 0.0 
4.660575894464e+01 -1.639014410186e+01 0.0 
4.838230979954e+00 -1.063643436446e+01 0.0 
3.938942630206e+00 -1.106778981745e+01 0.0 
1.302967218620e+01 -1.621373452436e+01 0.0 
1.049548003190e+01 -4.204825123240e+00 0.0 
4.573571907195e+01 -1.683820511148e+01 0.0 
1.483686335807e+01 -1.430849689310e+01 0.0 
1.490982658890e+01 -1.332679386284e+01 0.0 
3.190805600162e+00 -9.510968358545e+00 0.0 
2.146625721848e+01 -4.642437303115e+00 0.0 
2.069866208266e+01 -4.111852942193e+00 0.0 
1.286859345584e+01 -6.873252723348e+00 0.0 
1.041794493184e+01 -5.194814260291e+00 0.0 
2.671081808965e+00 -4.976806516331e+00 0.0 
1.295786792925e+01 -1.720506531799e+01 0.0 
3.968438206511e+01 -1.696869067241e+01 0.0 
2.308550456051e+01 -1.579963151273e+01 0.0 
2.315593682844e+01 -1.482967445235e+01 0.0 
2.299471449450e+01 -1.677069968132e+01 0.0 
1.057344714696e+01 -3.214252277840e+00 0.0 
1.124057603753e+01 -1.707713739755e+01 0.0 
2.718402535754e+00 -1.543629882103e+01 0.0 
2.638549692805e+01 -1.696744916809e+01 0.0 
2.723416349007e+01 -1.658104204545e+01 0.0 
2.210193351704e+01 -7.046769643417e+00 0.0 
2.295180925161e+01 -6.657397605239e+00 0.0 
2.301355235833e+01 -5.709111896800e+00 0.0 
2.379052718281e+01 -6.254965406962e+00 0.0 
3.243528601237e+01 -1.214181853533e+01 0.0 
2.287977995457e+01 -7.583722368300e+00 0.0 
2.999876029544e+01 -1.150837653096e+01 0.0 
3.084435366963e+01 -1.109693775882e+01 0.0 
3.006650579669e+01 -1.057778994262e+01 0.0 
2.683802665066e+01 -9.386863216633e+00 0.0 
2.768641973621e+01 -8.988883915666e+00 0.0 
2.040296980397e+01 -7.903629133404e+00 0.0 
1.925235024054e+01 -1.218872783130e+01 0.0 
5.735667000424e+00 -1.020577277283e+01 0.0 
6.396559909872e+00 -1.272326295703e+01 0.0 
1.161199420714e+01 -1.212812778229e+01 0.0 
4.229046132615e+01 -1.663084237572e+01 0.0 
4.312275399692e+01 -1.718087491556e+01 0.0 
4.335502068163e+01 -1.320039231514e+01 0.0 
4.424630298089e+01 -1.275160688731e+01 0.0 
7.090116643816e+00 -3.818998061530e+00 0.0 
7.989472176569e+00 -3.389238711200e+00 0.0 
9.085824861778e+00 -1.144036167408e+01 0.0 
1.041972423731e+01 -1.651614080893e+01 0.0 
3.797525112640e+01 -1.686052038746e+01 0.0 
3.709114253394e+01 -1.730125999865e+01 0.0 
3.626966748340e+01 -1.675477052919e+01 0.0 
1.385164591440e+01 -1.677597757552e+01 0.0 
1.787152588784e+01 -8.198993896093e+00 0.0 
1.668849729812e+01 -1.248560611628e+01 0.0 
1.659546177905e+01 -3.232482605530e+00 0.0 
2.332214717345e+01 -1.292598167641e+01 0.0 
7.168238450786e+00 -2.824711686516e+00 0.0 
2.894878403906e+01 -1.475427524446e+01 0.0 
2.646763248247e+00 -1.643270107952e+01 0.0 
3.467431944285e+00 -1.699648837348e+01 0.0 
2.059475877282e+01 -1.719473628526e+01 0.0 
3.333868355437e+01 -1.080596971682e+01 0.0 
2.246451062637e+01 -1.334557761546e+01 0.0 
2.167821896388e+01 -1.280847834858e+01 0.0 
3.089653185767e+01 -1.017198487212e+01 0.0 
3.012604365669e+01 -9.657298805968e+00 0.0 
2.929627299435e+01 -1.006100135274e+01 0.0 
2.936201435219e+01 -9.136748899251e+00 0.0 
1.198219052702e+01 -7.291887238230e+00 0.0 
1.116702076035e+01 -6.731976101053e+00 0.0 
2.551388807505e+01 -1.746927036981e+01 0.0 
2.378639090370e+01 -1.728678807149e+01 0.0 
2.718543627188e+01 -1.748668016909e+01 0.0 
2.804681050301e+01 -1.712626668293e+01 0.0 
1.970737034667e+01 -1.762317646822e+01 0.0 
1.889535776135e+01 -1.707158098231e+01 0.0 
2.593777711283e+00 -5.971157087874e+00 0.0 
2.773468281110e+01 -8.067164273938e+00 0.0 
4.051205884347e+01 -1.751819982458e+01 0.0 
3.166903145421e+01 -1.068032992414e+01 0.0 
1.033042452886e+01 -1.748285844336e+01 0.0 
9.519274604626e+00 -1.694349240233e+01 0.0 
1.668308673328e+01 -2.255861778986e+00 0.0 
1.570531902832e+01 -2.676795860126e+00 0.0 
4.655826903379e+01 -1.736656245706e+01 0.0 
2.384148070773e+01 -5.328744256413e+00 0.0 
2.460255123641e+01 -5.852182672816e+00 0.0 
2.306638135119e+01 -4.798935440613e+00 0.0 
8.467720450578e-01 -1.849576263072e+01 0.0 
4.849657322345e+01 -1.084860705506e+01 0.0 
2.565860899507e+00 -1.742859793981e+01 0.0 
2.764418872564e+01 -9.927142821799e+00 0.0 
4.565165880064e+01 -1.785336695404e+01 0.0 
2.162231831329e+01 -1.376528337468e+01 0.0 
2.360646352969e+01 -9.136041963102e+00 0.0 
1.392738739903e+01 -1.578285505772e+01 0.0 
4.756405947478e+01 -1.683706841809e+01 0.0 
4.740895034054e+01 -1.793766756892e+01 0.0 
4.080779328826e+01 -1.257387192544e+01 0.0 
4.168907939671e+01 -1.210739129181e+01 0.0 
3.991197722154e+01 -1.300815793917e+01 0.0 
1.905536506762e+01 -3.940076697685e+00 0.0 
1.923879596617e+01 -2.875000734166e+00 0.0 
4.401386745746e+01 -1.673483229438e+01 0.0 
4.247233362525e+00 -7.094581653070e+00 0.0 
3.286051630211e+00 -7.635300020553e+00 0.0 
9.609533347623e+00 -4.594311677967e+00 0.0 
9.523554636369e+00 -5.595597029530e+00 0.0 
5.660336628893e+00 -1.119290329628e+01 0.0 
6.558070063295e+00 -1.076385809362e+01 0.0 
2.809866407414e+01 -1.518037766799e+01 0.0 
2.888868674504e+01 -1.570360690070e+01 0.0 
2.654431550819e+01 -1.411217777162e+01 0.0 
1.402158265969e+01 -1.375404617952e+01 0.0 
1.409592494026e+01 -1.277071998942e+01 0.0 
1.499355196178e+01 -1.235270737023e+01 0.0 
4.221535326155e+01 -1.759335617494e+01 0.0 
4.305583287033e+01 -1.822663146802e+01 0.0 
1.280748808359e+01 -7.834332838285e+00 0.0 
1.368988389326e+01 -7.420529606172e+00 0.0 
1.110091796060e+01 -7.683966794328e+00 0.0 
3.963446145980e+01 -1.794331310122e+01 0.0 
3.423932362213e+00 -1.796415590455e+01 0.0 
4.280814572302e+00 -1.752272834860e+01 0.0 
8.050136380041e+00 -2.421582378631e+00 0.0 
8.888674091650e+00 -2.984264211327e+00 0.0 
2.152839430898e+01 -3.732609965436e+00 0.0 
2.077799585292e+01 -3.183896021866e+00 0.0 
3.618719395821e+01 -1.770276572576e+01 0.0 
3.538165138340e+01 -1.718709995539e+01 0.0 
3.702925326420e+01 -1.828844288807e+01 0.0 
1.756739438711e+00 -5.353284859169e+00 0.0 
2.233710191104e+01 -1.527265621324e+01 0.0 
1.389483555057e+01 -1.771797164730e+01 0.0 
1.475634224300e+01 -1.728357428390e+01 0.0 
1.298797563052e+01 -1.825968924755e+01 0.0 
2.145331271866e+01 -1.673705379077e+01 0.0 
2.133282821169e+01 -1.769400773673e+01 0.0 
2.292139194136e+01 -1.774915400288e+01 0.0 
1.750750053243e+01 -1.861475593469e+00 0.0 
4.830478841772e+01 -1.752611802221e+01 0.0 
4.341203507805e+01 -1.220326745522e+01 0.0 
1.685254151866e+01 -1.443085301632e+00 0.0 
4.431538535165e+01 -1.171841387375e+01 0.0 
4.511308610496e+01 -1.229557320599e+01 0.0 
4.510133242889e+01 -1.123680627466e+01 0.0 
1.846818030617e+00 -4.410877617069e+00 0.0 
3.995468694584e+01 -1.186571542989e+01 0.0 
3.901387459804e+01 -1.242507616755e+01 0.0 
8.966735877533e+00 -1.837818700423e+00 0.0 
4.049310011091e+01 -1.848269508791e+01 0.0 
7.278862053803e+00 -1.918523922691e+00 0.0 
6.429715522129e+00 -2.316676521184e+00 0.0 
9.443505505022e+00 -1.792198868094e+01 0.0 
8.620386951051e+00 -1.737590365556e+01 0.0 
8.571868171503e+00 -1.834436667826e+01 0.0 
7.758629848526e+00 -1.775677907213e+01 0.0 
7.806648388584e+00 -1.680761266021e+01 0.0 
6.908555145436e+00 -1.723746463044e+01 0.0 
4.251709122090e+01 -1.156937480156e+01 0.0 
6.931136405615e+00 -1.832465719263e+01 0.0 
6.015545461353e+00 -1.768865355295e+01 0.0 
5.960535926343e+00 -1.872011001764e+01 0.0 
3.023253444786e+01 -8.761960642196e+00 0.0 
2.454622702599e+01 -6.749421992767e+00 0.0 
2.537499741604e+01 -6.347634963783e+00 0.0 
2.544077378460e+01 -5.431358513649e+00 0.0 
2.801367161747e+01 -1.820907270221e+01 0.0 
2.884507806914e+01 -1.762032095326e+01 0.0 
1.821474531936e+00 -1.588901260460e+01 0.0 
1.821006262604e+00 -1.489370287756e+01 0.0 
4.599962488908e+01 -1.176478780598e+01 0.0 
4.705457470007e+01 -1.172182804229e+01 0.0 
4.667668314802e+01 -1.263464558483e+01 0.0 
4.759648056504e+01 -1.252380987933e+01 0.0 
4.728041618103e+01 -1.341928568376e+01 0.0 
4.825209352360e+01 -1.330491640804e+01 0.0 
4.778118233428e+01 -1.420151961695e+01 0.0 
2.388192727579e+01 -1.826934810142e+01 0.0 
2.381714684947e+01 -4.385917965223e+00 0.0 
3.172733219247e+01 -9.758744265248e+00 0.0 
1.882012070658e+01 -1.805540597212e+01 0.0 
1.805667505243e+01 -1.742221226236e+01 0.0 
2.852599958080e+01 -8.597196079481e+00 0.0 
2.856486123437e+01 -7.661382718527e+00 0.0 
1.111792842875e+01 -1.818223852980e+01 0.0 
2.203322722466e+01 -7.986646678802e+00 0.0 
3.955703676900e+01 -1.903246763601e+01 0.0 
1.944842206513e+01 -8.038750575182e-01 0.0 
1.909882767783e+01 -1.746322740933e+00 0.0 
2.281147422941e+01 -8.525912918334e+00 0.0 
2.850633001468e+01 -9.533271335986e+00 0.0 
2.532883344309e+01 -7.308951659710e+00 0.0 
2.620475466461e+01 -6.979208585400e+00 0.0 
1.396278270396e+01 -1.475095389807e+01 0.0 
9.791001166724e+00 -2.554159793552e+00 0.0 
2.229293380421e+01 -4.269762271052e+00 0.0 
4.677238984118e+01 -1.430071795514e+01 0.0 
2.228658385918e+01 -3.344747535984e+00 0.0 
8.940223674553e-01 -1.543595733415e+01 0.0 
2.118566862474e+01 -8.435876987696e+00 0.0 
2.678325936437e+01 -1.032621195706e+01 0.0 
2.223400220487e+01 -5.179046761770e+00 0.0 
2.375370625384e+01 -7.251580562134e+00 0.0 
3.156971327386e+01 -1.255534750737e+01 0.0 
3.328226391312e+01 -1.172914813316e+01 0.0 
3.250948774219e+01 -1.120157009348e+01 0.0 
2.032993445717e+01 -8.867880112202e+00 0.0 
2.697226974856e+01 -7.536633082045e+00 0.0 
2.707377810386e+01 -6.590835263295e+00 0.0 
2.914099246827e+01 -1.191678458549e+01 0.0 
3.544824072239e+01 -1.621126558525e+01 0.0 
3.456511855436e+01 -1.665054783843e+01 0.0 
3.448395810225e+01 -1.759117813016e+01 0.0 
3.368378673938e+01 -1.708037781328e+01 0.0 
3.375560452567e+01 -1.610973066913e+01 0.0 
3.288001547988e+01 -1.654324255651e+01 0.0 
3.282475929147e+01 -1.749725654692e+01 0.0 
3.199880906313e+01 -1.697294088625e+01 0.0 
3.197001272932e+01 -1.811667776864e+01 0.0 
3.111884713021e+01 -1.742166785755e+01 0.0 
3.120418962865e+01 -1.642155709385e+01 0.0 
3.034666704371e+01 -1.683123833816e+01 0.0 
3.026224379976e+01 -1.772592851714e+01 0.0 
3.046632362943e+01 -1.582232843075e+01 0.0 
1.961344017324e+01 -1.857459447985e+01 0.0 
2.274975894774e+01 -9.532738811922e+00 0.0 
1.833923246887e+01 -2.396746883672e+00 0.0 
1.988859500848e+01 -2.249244376594e+00 0.0 
2.758045562861e+01 -1.086434261689e+01 0.0 
3.247300178163e+01 -1.909930104252e+01 0.0 
3.461947482503e+01 -1.911879848019e+01 0.0 
2.047161538662e+01 -6.941478180358e+00 0.0 
2.750230940214e+01 -1.915490590764e+01 0.0 
3.165081350803e+01 -1.161860780120e+01 0.0 
1.897456727641e+01 -4.889634688522e+00 0.0 
2.549338539756e+01 -1.914858252089e+01 0.0 
3.462873135081e+01 -1.567482276144e+01 0.0 
3.384432415243e+01 -1.512280684518e+01 0.0 
3.471433767690e+01 -1.469086942990e+01 0.0 
3.651470373046e+01 -1.918207952149e+01 0.0 
3.901742690249e+01 -1.345028556517e+01 0.0 
2.153224102692e+01 -1.920169709333e+01 0.0 
1.918382939341e+01 -1.316226275662e+01 0.0 
2.005389162382e+01 -1.271962165174e+01 0.0 
2.011472087878e+01 -1.175029352900e+01 0.0 
3.210679478412e+01 -1.598038618242e+01 0.0 
1.752175226543e+01 -1.914713022656e+01 0.0 
1.696897240059e+01 -1.832772588765e+01 0.0 
1.599682523337e+01 -1.832599992024e+01 0.0 
1.644507199462e+01 -1.743697981535e+01 0.0 
1.549987712903e+01 -1.915192375101e+01 0.0 
3.050250861901e+01 -1.918943550234e+01 0.0 
2.949944061527e+01 -1.922950455235e+01 0.0 
1.375892575273e+01 -6.447160534926e+00 0.0 
1.457223670180e+01 -7.006709243857e+00 0.0 
1.450818793236e+01 -7.965943451779e+00 0.0 
1.538804712402e+01 -7.553409623699e+00 0.0 
1.545817644768e+01 -6.580929593419e+00 0.0 
1.626506893751e+01 -7.129032608911e+00 0.0 
1.619833811522e+01 -8.086588580887e+00 0.0 
1.714448609609e+01 -6.697429609777e+00 0.0 
2.887616543568e+01 -1.668015232137e+01 0.0 
1.349814589130e+01 -1.918225301544e+01 0.0 
1.153887772210e+01 -1.311384581217e+01 0.0 
1.242708159886e+01 -1.267046795531e+01 0.0 
1.249799674267e+01 -1.169005616014e+01 0.0 
6.631723893693e+00 -9.774184881867e+00 0.0 
7.451471631867e+00 -1.033148796006e+01 0.0 
7.377795355458e+00 -1.132196345268e+01 0.0 
5.810931797536e+00 -9.211654212252e+00 0.0 
2.402683899133e+01 -1.441378562320e+01 0.0 
1.249768692036e+01 -1.917388426624e+01 0.0 
1.580373499437e+01 -1.290751860664e+01 0.0 
8.344650507834e+00 -9.898403995170e+00 0.0 
3.750622115305e+01 -1.086526401533e+01 0.0 
3.699391251667e+01 -1.171695900794e+01 0.0 
3.606517829518e+01 -1.173717504500e+01 0.0 
3.650257641795e+01 -1.270047380221e+01 0.0 
3.808951488918e+01 -1.183518714175e+01 0.0 
4.760380962420e+00 -1.162484888315e+01 0.0 
3.861210370848e+00 -1.205657631736e+01 0.0 
3.038284309476e+00 -1.149851280664e+01 0.0 
2.961598794889e+00 -1.248856794980e+01 0.0 
2.138953225512e+00 -1.193212674534e+01 0.0 
2.227383593457e+00 -1.096258903918e+01 0.0 
2.043265419276e+00 -1.292158472959e+01 0.0 
1.252449446028e+00 -1.225502002753e+01 0.0 
3.949985210740e+01 -1.086594001795e+01 0.0 
1.453499444792e+01 -8.768805922472e-01 0.0 
1.403518950933e+01 -1.749965556633e+00 0.0 
1.300715031023e+01 -1.714737233040e+00 0.0 
1.350929389899e+01 -2.527443911291e+00 0.0 
1.449600910711e+01 -2.595486162864e+00 0.0 
1.395693872901e+01 -3.484211041558e+00 0.0 
1.495105865208e+01 -3.364609636216e+00 0.0 
1.508822528740e+01 -1.766586020494e+00 0.0 
1.250223858430e+01 -8.634590186802e-01 0.0 
1.200279523409e+01 -1.709044504992e+00 0.0 
1.150086239419e+01 -8.592789190668e-01 0.0 
1.101482754194e+01 -1.677730591922e+00 0.0 
1.148018564526e+01 -2.659323866909e+00 0.0 
8.800552119754e+00 -3.989875954728e+00 0.0 
3.452790439430e+00 -1.901136170646e+01 0.0 
8.658451825200e-01 -9.503462241795e+00 0.0 
1.694787786797e+00 -9.000589234502e+00 0.0 
1.703436717094e+00 -8.038819004041e+00 0.0 
2.594197971110e+00 -8.563955242845e+00 0.0 
1.630513735412e+00 -9.907244747511e+00 0.0 
8.566859292791e-01 -7.512203837972e+00 0.0 
1.685461277022e+00 -7.164280248030e+00 0.0 
2.506394468801e+00 -8.623386730818e-01 0.0 
2.007475081581e+00 -1.727729545205e+00 0.0 
9.211534699767e-01 -1.628791366312e+00 0.0 
1.500000000020e+00 -2.598063549486e+00 0.0 
2.482078929963e+00 -2.553580088725e+00 0.0 
2.999795253092e+00 -1.732169015019e+00 0.0 
3.999712607169e+00 -1.728832897453e+00 0.0 
4.499752199340e+00 -8.656478679175e-01 0.0 
4.964377774841e+00 -1.730129617941e+00 0.0 
4.425017908337e+00 -2.597541756243e+00 0.0 
5.446573195014e+00 -8.410144840023e-01 0.0 
4.915722346614e+01 -1.550640962770e+01 0.0 
4.826794919243e+01 -1.600000000000e+01 0.0 
1.053139533193e+01 -1.911782884365e+01 0.0 
4.156049861949e+01 -1.095160998589e+01 0.0 
9.494526624416e+00 -8.650570090219e-01 0.0 
4.555762166964e+01 -1.897098103585e+01 0.0 
4.250656411371e+01 -1.914387356218e+01 0.0 
4.350906466345e+01 -1.917234727395e+01 0.0 
8.759665722424e-01 -1.746422130609e+01 0.0 
1.698936011838e+00 -1.795012186674e+01 0.0 
4.742476811029e+01 -1.900090177972e+01 0.0 
7.749196752349e+00 -6.368049313489e+00 0.0 
3.361572113416e+01 -1.798765193915e+01 0.0 
4.484660149212e+01 -1.728661231383e+01 0.0 
1.984038172228e+01 -4.502575320116e+00 0.0 
1.035080352627e+01 -6.166639575753e+00 0.0 
2.753558010652e+00 -1.444909521181e+01 0.0 
7.217069543032e+00 -1.328635391078e+01 0.0 
4.364336727739e+00 -1.655585677381e+01 0.0 
4.595208426108e+00 -1.357919665443e+01 0.0 
6.164967006980e+00 -1.569873454630e+01 0.0 
1.487855768353e+01 -1.826523774028e+01 0.0 
2.791876456372e+00 -4.019632415181e+00 0.0 
4.246464893515e+01 -1.364898659620e+01 0.0 
4.503855590351e+01 -1.329552780944e+01 0.0 
4.407239109604e+01 -1.573900004093e+01 0.0 
5.141054449252e+00 -6.664290382472e+00 0.0 
3.141083947149e+00 -1.055790764912e+01 0.0 
6.196463198741e+00 -4.256497932609e+00 0.0 
2.599618716181e+01 -1.836893455464e+01 0.0 
2.923057372337e+01 -1.098461757645e+01 0.0 
1.168343877486e+01 -1.114079645041e+01 0.0 
6.706222096238e+00 -8.780364234441e+00 0.0 
8.567858614669e+00 -6.943121440850e+00 0.0 
1.123755132901e+01 -5.753525820030e+00 0.0 
2.353456234423e+01 -1.008536320953e+01 0.0 
9.162073319168e+00 -1.045593739109e+01 0.0 
9.676343469685e+00 -1.496493008366e+01 0.0 
4.490637882905e+01 -1.628778970202e+01 0.0 
7.398129387772e+00 -9.639977982323e-01 0.0 
1.049641705805e+01 -1.552503975272e+01 0.0 
9.010356286268e+00 -1.242805042052e+01 0.0 
3.985573925497e+01 -1.399863651620e+01 0.0 
1.816196318262e+01 -1.554066497931e+01 0.0 
1.306332244168e+01 -3.963646550326e+00 0.0 
4.145850903932e+01 -1.608094559275e+01 0.0 
3.794664933633e+01 -1.779020121986e+01 0.0 
3.819614412903e+01 -1.290749321016e+01 0.0 
6.270014188119e+00 -3.255093186826e+00 0.0 
4.251165370388e+01 -1.263870364997e+01 0.0 
1.207347709171e+01 -1.763942826023e+01 0.0 
3.633240829927e+01 -1.577330481104e+01 0.0 
4.319052668832e+00 -6.101812561904e+00 0.0 
1.676492415806e+01 -1.151547901392e+01 0.0 
2.594059220037e+01 -1.074225223009e+01 0.0 
3.340750911501e+01 -9.898764354137e+00 0.0 
4.397619591281e+01 -1.769773736461e+01 0.0 
2.175611595028e+01 -1.185718747128e+01 0.0 
1.641818733106e+01 -1.640685203215e+01 0.0 
1.661211421753e+01 -1.346121366338e+01 0.0 
3.428853504935e+00 -6.551993389271e+00 0.0 
8.700728832502e+00 -1.638460872825e+01 0.0 
1.931369795309e+01 -1.121629383702e+01 0.0 
4.139798872363e+01 -1.706922153459e+01 0.0 
2.647837478700e+01 -1.507353829290e+01 0.0 
1.779469616424e+01 -9.161615782908e+00 0.0 
3.885879219319e+01 -1.642026488918e+01 0.0 
1.338194936770e+01 -1.125916521471e+01 0.0 
1.897071181111e+01 -1.609204322578e+01 0.0 
2.844308548793e+01 -1.046221003096e+01 0.0 
2.659854702194e+01 -1.316109415760e+01 0.0 
2.979604503271e+01 -1.433296157755e+01 0.0 
2.417694041347e+01 -1.251231397779e+01 0.0 
1.807401327411e+00 -1.388891148480e+01 0.0 
9.599810618782e+00 -1.595439365034e+01 0.0 
1.652144692160e+01 -4.205392788472e+00 0.0 
2.367839450246e+01 -8.188385218643e+00 0.0 
3.814894930468e+01 -1.390748338767e+01 0.0 
2.466448215774e+01 -1.685878545680e+01 0.0 
4.134044524611e+01 -1.806610045954e+01 0.0 
2.600511411958e+01 -9.801774120648e+00 0.0 
7.882158050716e+00 -1.582364037353e+01 0.0 
3.881607873422e+01 -1.737970515013e+01 0.0 
8.270182347708e+00 -1.088622154920e+01 0.0 
8.672520392520e-01 -4.532984309881e+00 0.0 
1.993447205337e+01 -3.579061902667e+00 0.0 
1.794616079549e+01 -7.238038888498e+00 0.0 
2.097277068165e+01 -1.132450168636e+01 0.0 
8.194803300681e+00 -1.187214224265e+01 0.0 
3.522279404911e+01 -1.823342818178e+01 0.0 
6.984481050295e+00 -1.625271465557e+01 0.0 
1.309433007797e+01 -1.521718594215e+01 0.0 
2.150246167611e+01 -1.885399038185e+00 0.0 
3.250689370209e+01 -1.028789870535e+01 0.0 
6.085886272238e+00 -1.668342132851e+01 0.0 
1.588455661727e+01 -1.193498985921e+01 0.0 
1.809323400821e+01 -1.651110084195e+01 0.0 
1.348885082381e+00 -1.136065576512e+01 0.0 
2.497670221995e+01 -1.834631276173e+01 0.0 
2.937062818424e+01 -8.233711194470e+00 0.0 
5.185823744469e+00 -1.711566910207e+01 0.0 
1.477497877209e+01 -1.530177014512e+01 0.0 
2.125346158933e+01 -7.473003997367e+00 0.0 
4.751561118290e+01 -1.084897772632e+01 0.0 
5.056026576843e+00 -1.825750475525e+01 0.0 
1.473948554523e+01 -1.634577436309e+01 0.0 
2.410566630936e+01 -1.345970002612e+01 0.0 
1.507337507513e+01 -1.138527895328e+01 0.0 
3.189857338687e+01 -8.887781229006e+00 0.0 
7.298712468334e+00 -1.230231046246e+01 0.0 
2.738235495295e+01 -1.368931690364e+01 0.0 
3.750141041969e+01 -1.920449893070e+01 0.0 
1.557271965640e+01 -1.683317951731e+01 0.0 
3.393731848929e+01 -1.413034777044e+01 0.0 
6.482156824153e+00 -1.174575135362e+01 0.0 
2.077971718439e+01 -1.421279621836e+01 0.0 
3.455084320178e+00 -2.562590040585e+00 0.0 
3.099056096250e+01 -9.270280416035e+00 0.0 
5.580176125418e+00 -1.217387969259e+01 0.0 
1.707247630389e+01 -7.660651981710e+00 0.0 
1.418658814174e+01 -1.180390575393e+01 0.0 
2.049103025389e+01 -1.811296706038e+01 0.0 
4.680386172316e+00 -1.260396879301e+01 0.0 
1.699679896554e+01 -8.624561788199e+00 0.0 
3.779470168555e+00 -1.303424899720e+01 0.0 
3.036589870126e+01 -7.879832518349e+00 0.0 
3.306993001774e+01 -1.457671062095e+01 0.0 
2.840150110165e+00 -1.346530088269e+01 0.0 
2.732011135052e+01 -1.464591214560e+01 0.0 
5.423639259568e+00 -2.659711955016e+00 0.0 
2.324455961696e+01 -1.387269388211e+01 0.0 
1.752768355571e+00 -1.693128613594e+01 0.0 
1.020244783051e+01 -8.076834012808e+00 0.0 
1.330873875224e+01 -1.222417528206e+01 0.0 
3.297727364880e+01 -1.555480372087e+01 0.0 
2.890929955439e+01 -6.868664170731e+00 0.0 
1.323294664622e+01 -1.320754260334e+01 0.0 
2.726532861246e+01 -1.560593120806e+01 0.0 
2.240020643398e+01 -1.429299177247e+01 0.0 
2.090445823633e+01 -1.228128621332e+01 0.0 
1.315809881502e+01 -1.420739326938e+01 0.0 
2.781328038068e+01 -7.181956082300e+00 0.0 
8.614200829057e+00 -5.936933226306e+00 0.0 
8.714765730069e+00 -4.979270529687e+00 0.0 
1.611881701099e+01 -9.041973294003e+00 0.0 
2.806830314340e+01 -1.614622947108e+01 0.0 
2.084435391396e+00 -3.385085422913e+00 0.0 
3.133211811152e+01 -1.542347619750e+01 0.0 
9.693114650768e+00 -3.590281506442e+00 0.0 
1.531883592202e+01 -8.504584946143e+00 0.0 
2.151589117094e+01 -1.578915763018e+01 0.0 
4.918943882696e+01 -1.355538828056e+01 0.0 
1.443236615188e+01 -8.918701794549e+00 0.0 
8.276250966452e-01 -5.537685192197e+00 0.0 
1.362790867918e+01 -8.374718262212e+00 0.0 
2.083767477370e+01 -1.324843956035e+01 0.0 
1.273834678703e+01 -8.790890389337e+00 0.0 
1.192275845670e+01 -8.242261327467e+00 0.0 
4.477236023583e+01 -1.824312396664e+01 0.0 
1.102989384254e+01 -8.649855800911e+00 0.0 
4.849096516045e+01 -1.917293752213e+01 0.0 
1.588996752238e+00 -1.910230934687e+01 0.0 
4.904245197583e+01 -1.159839008158e+01 0.0 
2.753852929608e+01 -5.782128488093e+00 0.0 
1.756133602833e+01 -8.306130313187e-01 0.0 
2.615423700951e+01 -6.153865090092e+00 0.0 
1.028818761294e+01 -7.122020845892e+00 0.0 
2.970818901196e+01 -1.527821347593e+01 0.0 
4.801461623449e+01 -1.164472570985e+01 0.0 
9.455722100419e+00 -6.546069291118e+00 0.0 
3.089099236677e+01 -1.835339328261e+01 0.0 
2.350000000013e+01 -1.920825896750e+01 0.0 
4.830620531887e+01 -1.506626155470e+01 0.0 
1.725381944701e+01 -1.688794487850e+01 0.0 
2.156246225273e+01 -1.475893794002e+01 0.0 
4.919319648787e+01 -1.742767505896e+01 0.0 
4.437935623576e+01 -1.077662927266e+01 0.0 
1.001520521978e+01 -1.652692675208e+00 0.0 
9.067160240050e-01 -1.441937727541e+01 0.0 
2.603365149390e+01 -4.755996613848e+00 0.0 
2.458344439002e+01 -4.873645517696e+00 0.0 
2.304312390142e+01 -3.836552768096e+00 0.0 
2.546923202198e+00 -6.902480355749e+00 0.0 
1.251534969393e+01 -2.490989965776e+00 0.0 
2.454061833377e+01 -3.933354231935e+00 0.0 
1.788186558740e+01 -1.827424884923e+01 0.0 
4.090785243552e+01 -1.166553231904e+01 0.0 
2.230128851568e+01 -1.623015738726e+01 0.0 
2.302362347568e+01 -2.916239960270e+00 0.0 
3.878119254461e+01 -1.830091164002e+01 0.0 
2.210081359958e+01 -1.829238229150e+01 0.0 
8.443704882233e+00 -1.921993252862e+01 0.0 
2.218405824691e+01 -1.724557581508e+01 0.0 
2.151157503963e+01 -2.790636689331e+00 0.0 
3.741658958955e+01 -1.250400191722e+01 0.0 
2.697247663737e+01 -1.838290202309e+01 0.0 
4.743362342862e+01 -1.585850773010e+01 0.0 
6.671345075358e+00 -1.924977576322e+01 0.0 
3.900825404537e+01 -1.157220003875e+01 0.0 
4.649692961375e+01 -1.836335837481e+01 0.0 
1.578831424832e+01 -3.678284023361e+00 0.0 
4.814208768888e+01 -1.841249298770e+01 0.0 
2.964123298315e+01 -1.625739458193e+01 0.0 
4.580760351902e+01 -1.284294554687e+01 0.0 
3.561520879615e+01 -1.245548941949e+01 0.0 
2.555418095658e+00 -1.841101588290e+01 0.0 
3.288468366144e+01 -1.834258164109e+01 0.0 
2.065894391445e+01 -2.240688571739e+00 0.0 
4.739171429915e+01 -1.496536413446e+01 0.0 
3.478086729185e+00 -8.576434653209e+00 0.0 
1.606010630246e+01 -1.588421807951e+00 0.0 
1.018329200594e+01 -1.834320874317e+01 0.0 
2.957213339430e+01 -1.720496954591e+01 0.0 
4.142712790164e+00 -1.837794506222e+01 0.0 
6.698721532573e-01 -2.499999999997e+00 0.0 
8.037039123140e+00 -1.571229354954e+00 0.0 
1.203541361428e+01 -1.847784298001e+01 0.0 
2.899968332038e+01 -1.848264722179e+01 0.0 
1.469229460948e+01 -4.219485753730e+00 0.0 
4.049590781957e+01 -1.932812501995e+01 0.0 
1.996211678340e+01 -1.506329754720e+00 0.0 
4.250588298353e+01 -1.067383247529e+01 0.0 
5.831497011152e+00 -1.635396227234e+00 0.0 
5.317606125670e+00 -1.923927974868e+01 0.0 
4.208546426993e+01 -1.842830665025e+01 0.0 
2.327553405011e+00 -9.459409929662e+00 0.0 
3.568351902251e+01 -1.096637218582e+01 0.0 
1.682104374890e+00 -6.231413350963e+00 0.0 
2.451812238018e+01 -1.766524914339e+01 0.0 
1.058003429638e+01 -2.391839617098e+00 0.0 
4.399988753123e+01 -1.851998776342e+01 0.0 
1.400000000010e+01 -1.852293523028e+01 0.0 
3.604719565984e+01 -1.850662876800e+01 0.0 
1.951297136734e+01 -1.938092349694e+01 0.0 
1.821365318472e+01 -1.531276353287e+00 0.0 
2.298031859732e+01 -1.854635324722e+01 0.0 
1.552168066204e+01 -1.764280741977e+01 0.0 
4.572957713638e+01 -1.073347898229e+01 0.0 
3.429637429624e+01 -1.838861552790e+01 0.0 
2.427434426052e+00 -7.705577451869e+00 0.0 
4.662792031485e+00 -3.359424455416e+00 0.0 
4.926794919243e+01 -1.926794919243e+01 0.0 
7.320508075690e-01 -7.320508075688e-01 0.0 
4.926794919243e+01 -1.073205080757e+01 0.0 
7.320508075705e-01 -1.926794919243e+01 0.0 
2.917460242467e+00 -3.202866455310e+00 0.0 
4.838200575963e+01 -1.232674147454e+01 0.0 
2.998445708009e+01 -1.854403752148e+01 0.0 
5.949940090766e-01 -1.152762038165e+01 0.0 
4.844763495759e+01 -1.678092548787e+01 0.0 
1.301685480160e+01 -3.170056592566e+00 0.0 
1.650046335855e+01 -6.731535384067e-01 0.0 
4.854881540991e+01 -1.405224059779e+01 0.0 
2.119545114693e+01 -1.846813384545e+01 0.0 
3.797852849897e+01 -1.857978513215e+01 0.0 
4.649823708745e+01 -1.338351810816e+01 0.0 
2.012685900976e+01 -2.889659035009e+00 0.0 
2.953271913273e+01 -1.791558075192e+01 0.0 
2.408509097292e+00 -1.021949208421e+01 0.0 
2.642589566221e+01 -1.773216561448e+01 0.0 
1.730010270775e+01 -1.763165076721e+01 0.0 
2.017406551304e+01 -8.513536440582e-01 0.0 
5.254761581934e-01 -1.249999999999e+01 0.0 
6.640448215642e+00 -1.545337834885e+00 0.0 
7.843361506349e+00 -1.852719839527e+01 0.0 
1.588442191088e+00 -1.066158564320e+01 0.0 
2.880770112393e+01 -5.415638864241e+00 0.0 
4.951086956522e+01 -5.500000000000e+00 0.0 
3.031250000000e+01 -6.420918367347e+00 0.0 
4.951250000000e+01 -6.500000000000e+00 0.0 
3.180701530612e+01 -7.414795918363e+00 0.0 
4.951250000000e+01 -7.500000000000e+00 0.0 
3.331250000000e+01 -8.420918367347e+00 0.0 
4.951470588234e+01 -8.500000000000e+00 0.0 
3.480610198624e+01 -9.413633635267e+00 0.0 
4.951470588234e+01 -9.500000000000e+00 0.0 

CELLS 2134 8536 
3 278 748 1024 
3 748 278 1026 
3 758 251 769 
3 871 636 1060 
3 638 698 864 
3 728 641 767 
3 258 680 682 
3 278 705 1026 
3 680 258 698 
3 631 866 1060 
3 250 825 826 
3 705 278 1040 
3 870 1022 1066 
3 687 818 908 
3 1022 284 1066 
3 277 871 1060 
3 686 257 827 
3 641 728 766 
3 265 685 1007 
3 685 265 945 
3 866 631 1019 
3 996 242 1002 
3 723 996 1002 
3 673 672 882 
3 372 528 817 
3 825 250 934 
3 110 82 1087 
3 717 243 959 
3 370 372 817 
3 882 672 1092 
3 622 832 834 
3 275 688 865 
3 758 769 1067 
3 19 263 738 
3 273 692 694 
3 701 66 1058 
3 66 701 1084 
3 720 269 764 
3 684 101 1037 
3 101 684 1098 
3 960 702 986 
3 238 724 863 
3 1041 239 1045 
3 82 287 1087 
3 679 286 1036 
3 718 1041 1045 
3 832 622 835 
3 286 679 1062 
3 828 829 835 
3 818 687 1059 
3 280 723 960 
3 670 685 945 
3 448 1061 1079 
3 280 960 986 
3 770 252 950 
3 1043 615 1088 
3 670 945 1014 
3 263 708 738 
3 531 859 977 
3 866 277 1060 
3 237 1071 1112 
3 1051 677 1053 
3 497 525 731 
3 1061 834 1079 
3 842 661 1066 
3 723 280 996 
3 1071 681 1112 
3 251 758 1031 
3 558 519 840 
3 247 706 772 
3 934 877 988 
3 33 32 726 
3 717 959 1089 
3 4 5 852 
3 849 1043 1088 
3 689 254 940 
3 770 950 1099 
3 737 1042 1049 
3 859 531 1101 
3 1042 279 1049 
3 519 532 840 
3 257 686 1047 
3 242 748 1002 
3 748 242 1024 
3 698 638 910 
3 680 698 910 
3 709 934 1039 
3 18 19 738 
3 763 760 1008 
3 638 864 1047 
3 865 688 1038 
3 289 816 1087 
3 862 1033 1057 
3 1057 1033 1069 
3 255 33 726 
3 764 269 1094 
3 686 827 1059 
3 863 724 1072 
3 283 715 1012 
3 731 525 732 
3 864 698 1082 
3 284 842 1066 
3 445 1011 1035 
3 676 1051 1053 
3 566 564 742 
3 829 832 835 
3 869 870 992 
3 635 862 1057 
3 237 828 835 
3 965 260 1084 
3 410 763 1008 
3 4 852 1103 
3 633 729 765 
3 600 916 954 
3 644 846 1070 
3 704 731 732 
3 499 497 731 
3 273 694 1052 
3 715 283 1107 
3 703 499 731 
3 734 664 1009 
3 287 289 1087 
3 862 635 1110 
3 499 703 742 
3 1054 953 1068 
3 719 969 978 
3 846 644 1100 
3 969 244 978 
3 254 689 1080 
3 666 1054 1068 
3 825 934 988 
3 636 871 1062 
3 573 630 730 
3 244 702 978 
3 692 273 1072 
3 870 627 1022 
3 709 877 934 
3 730 630 930 
3 674 802 1092 
3 606 722 730 
3 656 867 868 
3 706 247 1078 
3 908 818 1055 
3 515 487 736 
3 722 573 730 
3 702 244 986 
3 630 768 930 
3 742 568 937 
3 258 682 1037 
3 729 364 765 
3 688 275 1076 
3 1023 1029 1107 
3 853 265 1007 
3 281 719 954 
3 802 674 811 
3 703 566 742 
3 738 709 1039 
3 705 239 1041 
3 1011 671 1035 
3 264 710 711 
3 725 364 729 
3 708 263 992 
3 558 734 1009 
3 870 629 992 
3 745 618 773 
3 260 965 1074 
3 1023 628 1029 
3 564 568 742 
3 916 281 954 
3 250 826 1123 
3 239 705 1040 
3 364 725 739 
3 487 538 736 
3 710 264 1098 
3 568 729 937 
3 719 281 969 
3 612 801 1006 
3 846 547 1070 
3 243 717 1032 
3 772 706 1056 
3 704 732 1026 
3 547 846 1086 
3 789 919 973 
3 722 606 960 
3 705 704 1026 
3 745 600 954 
3 729 633 937 
3 253 866 1019 
3 376 785 995 
3 263 869 992 
3 718 279 1042 
3 574 739 963 
3 760 785 1008 
3 81 111 727 
3 606 702 960 
3 962 634 966 
3 858 990 1083 
3 873 266 1099 
3 371 296 778 
3 993 352 1020 
3 482 962 966 
3 816 289 1065 
3 817 528 1055 
3 672 674 1092 
3 1003 894 1030 
3 740 311 768 
3 570 460 773 
3 377 371 778 
3 567 745 773 
3 618 745 954 
3 516 976 1016 
3 801 650 1006 
3 727 261 728 
3 732 748 1026 
3 732 525 747 
3 630 740 768 
3 785 755 995 
3 641 640 946 
3 634 733 952 
3 684 710 1098 
3 739 725 963 
3 430 952 1001 
3 690 900 1124 
3 776 377 778 
3 900 246 1124 
3 858 859 990 
3 279 718 1045 
3 1003 646 1004 
3 750 377 776 
3 646 645 1004 
3 626 735 741 
3 452 833 905 
3 664 841 1009 
3 919 482 973 
3 618 570 773 
3 661 842 1074 
3 111 261 727 
3 535 565 741 
3 325 364 739 
3 723 722 960 
3 733 634 962 
3 701 965 1084 
3 987 376 995 
3 434 416 771 
3 482 966 973 
3 934 250 1039 
3 768 378 930 
3 777 778 974 
3 677 1051 1096 
3 325 739 746 
3 565 626 741 
3 295 567 743 
3 726 32 1080 
3 311 740 915 
3 784 327 923 
3 711 710 712 
3 840 532 1044 
3 567 744 745 
3 534 434 771 
3 640 774 875 
3 622 834 1061 
3 377 750 912 
3 460 743 773 
3 499 742 937 
3 750 589 912 
3 785 376 1008 
3 378 749 891 
3 245 699 1058 
3 575 784 923 
3 303 569 749 
3 633 765 896 
3 575 783 784 
3 417 433 774 
3 815 256 816 
3 329 326 746 
3 446 797 798 
3 777 987 995 
3 111 112 261 
3 567 293 744 
3 416 414 771 
3 490 535 741 
3 419 417 774 
3 298 295 743 
3 688 734 1038 
3 526 616 747 
3 575 782 783 
3 743 567 773 
3 815 816 817 
3 536 641 766 
3 446 798 800 
3 447 450 797 
3 732 747 748 
3 777 974 987 
3 525 526 747 
3 412 329 746 
3 739 574 746 
3 536 640 641 
3 765 321 896 
3 665 735 737 
3 37 252 770 
3 39 266 769 
3 312 311 915 
3 433 416 434 
3 489 490 548 
3 304 303 749 
3 433 434 489 
3 446 447 797 
3 378 891 930 
3 867 656 1085 
3 771 574 963 
3 976 632 1016 
3 665 548 735 
3 270 57 790 
3 489 434 490 
3 309 378 768 
3 536 440 640 
3 812 505 920 
3 326 325 746 
3 450 794 797 
3 569 460 570 
3 42 791 792 
3 414 412 574 
3 575 403 782 
3 549 548 665 
3 780 465 903 
3 952 733 1001 
3 565 566 624 
3 639 780 903 
3 268 45 772 
3 542 634 952 
3 41 251 791 
3 908 528 938 
3 763 410 1028 
3 626 624 718 
3 571 570 603 
3 303 460 569 
3 303 301 460 
3 379 915 941 
3 243 47 775 
3 370 817 1065 
3 744 600 745 
3 574 412 746 
3 645 841 1004 
3 603 618 719 
3 565 564 566 
3 264 711 964 
3 450 793 794 
3 414 574 771 
3 754 776 777 
3 535 564 565 
3 569 570 571 
3 403 405 782 
3 578 805 892 
3 50 267 781 
3 606 604 702 
3 418 420 800 
3 659 993 1020 
3 625 704 705 
3 624 566 625 
3 760 757 785 
3 309 307 378 
3 616 722 723 
3 571 603 604 
3 54 269 786 
3 269 720 1046 
3 757 755 785 
3 777 776 778 
3 805 345 892 
3 497 498 525 
3 417 416 433 
3 415 414 416 
3 311 309 768 
3 592 812 920 
3 360 806 807 
3 753 751 754 
3 420 446 800 
3 494 379 495 
3 749 569 891 
3 496 495 497 
3 251 40 769 
3 266 38 770 
3 266 873 1067 
3 578 804 805 
3 589 491 912 
3 565 624 626 
3 413 412 414 
3 640 440 774 
3 526 573 616 
3 814 815 818 
3 780 908 938 
3 790 788 882 
3 761 760 763 
3 295 293 567 
3 302 301 303 
3 440 419 774 
3 837 839 840 
3 364 323 765 
3 317 315 379 
3 323 321 765 
3 234 953 1054 
3 711 712 713 
3 841 645 1009 
3 490 534 535 
3 57 56 790 
3 424 426 516 
3 288 600 744 
3 265 853 1075 
3 915 740 941 
3 325 323 364 
3 301 298 743 
3 247 43 792 
3 603 570 618 
3 307 304 749 
3 360 807 813 
3 751 750 776 
3 578 803 804 
3 44 247 772 
3 41 40 251 
3 37 36 252 
3 39 38 266 
3 300 298 301 
3 754 751 776 
3 759 757 760 
3 497 495 498 
3 525 498 526 
3 809 806 893 
3 753 754 755 
3 46 268 775 
3 668 589 750 
3 782 516 783 
3 668 750 751 
3 509 507 810 
3 317 379 494 
3 616 573 722 
3 489 548 549 
3 255 726 1050 
3 496 497 499 
3 890 609 959 
3 806 360 893 
3 451 454 793 
3 270 790 882 
3 535 563 564 
3 42 41 791 
3 266 770 1099 
3 308 307 309 
3 837 838 839 
3 44 43 247 
3 235 786 787 
3 450 451 793 
3 405 424 782 
3 241 51 781 
3 119 236 838 
3 494 495 496 
3 306 304 307 
3 310 309 311 
3 378 307 749 
3 548 490 741 
3 46 45 268 
3 411 329 412 
3 537 536 766 
3 699 245 1125 
3 838 236 839 
3 605 604 606 
3 832 833 834 
3 719 618 954 
3 235 55 786 
3 48 47 243 
3 460 301 743 
3 829 831 832 
3 678 537 766 
3 832 831 833 
3 922 620 935 
3 814 256 815 
3 290 288 744 
3 50 49 267 
3 272 814 818 
3 252 36 779 
3 512 509 810 
3 639 687 780 
3 625 703 704 
3 424 516 782 
3 640 875 946 
3 52 51 241 
3 40 39 769 
3 38 37 770 
3 578 386 803 
3 381 383 809 
3 317 494 896 
3 386 388 803 
3 54 53 269 
3 490 434 534 
3 797 796 798 
3 794 795 796 
3 529 639 903 
3 58 270 802 
3 829 830 831 
3 56 55 235 
3 793 658 794 
3 43 42 792 
3 759 760 761 
3 118 119 838 
3 494 633 896 
3 588 491 589 
3 45 44 772 
3 300 301 302 
3 555 512 556 
3 549 665 666 
3 788 787 789 
3 550 657 658 
3 794 658 795 
3 828 271 829 
3 47 46 775 
3 774 433 875 
3 542 590 634 
3 639 686 687 
3 876 608 895 
3 794 796 797 
3 302 303 304 
3 51 50 781 
3 383 485 809 
3 394 430 500 
3 314 312 315 
3 653 546 654 
3 798 796 799 
3 803 500 804 
3 315 312 915 
3 651 508 925 
3 424 425 426 
3 316 315 317 
3 353 355 813 
3 535 534 563 
3 381 809 893 
3 556 512 810 
3 380 403 575 
3 56 235 790 
3 667 589 668 
3 551 876 895 
3 55 54 786 
3 235 787 788 
3 322 321 323 
3 829 271 830 
3 59 802 811 
3 752 751 753 
3 454 550 793 
3 58 57 270 
3 388 394 803 
3 526 572 573 
3 293 290 744 
3 380 575 923 
3 384 578 892 
3 546 505 812 
3 778 296 974 
3 605 730 930 
3 426 444 445 
3 713 712 714 
3 355 360 813 
3 405 407 424 
3 550 607 657 
3 577 399 878 
3 117 118 836 
3 564 563 568 
3 550 658 793 
3 806 648 807 
3 320 318 321 
3 394 500 803 
3 529 637 639 
3 454 517 550 
3 59 58 802 
3 306 307 308 
3 576 647 648 
3 308 309 310 
3 576 648 806 
3 836 118 838 
3 292 290 293 
3 845 844 846 
3 246 124 860 
3 485 540 576 
3 394 429 430 
3 874 544 899 
3 654 812 956 
3 654 546 812 
3 288 248 600 
3 272 108 814 
3 669 779 972 
3 310 311 312 
3 124 125 860 
3 664 584 841 
3 830 836 837 
3 646 1003 1030 
3 562 612 1006 
3 642 874 899 
3 439 922 935 
3 363 361 872 
3 401 399 577 
3 542 553 590 
3 459 440 536 
3 276 844 845 
3 249 848 849 
3 238 60 811 
3 60 59 811 
3 844 843 847 
3 576 540 647 
3 384 386 578 
3 590 672 673 
3 584 503 841 
3 437 522 542 
3 858 856 859 
3 485 576 809 
3 807 648 808 
3 262 855 856 
3 276 843 844 
3 588 589 667 
3 125 126 857 
3 109 256 814 
3 109 110 256 
3 505 409 920 
3 249 10 848 
3 550 517 607 
3 735 548 741 
3 695 693 696 
3 775 268 890 
3 579 473 906 
3 625 566 703 
3 688 664 734 
3 571 604 605 
3 105 257 864 
3 104 105 864 
3 125 857 860 
3 857 856 858 
3 851 853 854 
3 427 368 502 
3 262 850 855 
3 843 240 847 
3 237 115 828 
3 368 363 872 
3 716 714 736 
3 107 108 272 
3 612 707 801 
3 388 393 394 
3 713 714 715 
3 10 11 848 
3 851 854 855 
3 30 29 867 
3 254 30 867 
3 639 637 686 
3 257 106 827 
3 848 845 849 
3 28 253 868 
3 502 368 872 
3 108 109 814 
3 107 272 827 
3 603 719 978 
3 36 35 779 
3 867 29 868 
3 262 856 857 
3 126 262 857 
3 663 584 664 
3 807 808 944 
3 869 627 870 
3 114 115 237 
3 274 861 862 
3 116 271 828 
3 545 505 546 
3 116 117 271 
3 115 116 828 
3 652 546 653 
3 598 661 662 
3 715 714 716 
3 891 605 930 
3 850 851 855 
3 400 401 880 
3 25 24 871 
3 277 25 871 
3 106 107 827 
3 481 409 505 
3 29 28 868 
3 555 556 671 
3 851 852 853 
3 850 285 851 
3 851 285 852 
3 11 12 276 
3 284 69 842 
3 80 79 286 
3 128 285 850 
3 13 240 843 
3 70 69 284 
3 68 260 842 
3 61 238 863 
3 76 259 861 
3 78 77 274 
3 69 68 842 
3 68 67 260 
3 274 77 861 
3 128 129 285 
3 102 103 258 
3 105 106 257 
3 262 127 850 
3 65 64 245 
3 273 62 863 
3 63 62 273 
3 127 128 850 
3 126 127 262 
3 61 60 238 
3 62 61 863 
3 76 75 259 
3 99 100 264 
3 77 76 861 
3 74 73 283 
3 97 98 628 
3 123 124 246 
3 121 122 275 
3 120 121 865 
3 119 120 236 
3 13 14 240 
3 12 13 843 
3 121 275 865 
3 16 17 250 
3 236 120 865 
3 34 33 255 
3 28 27 253 
3 31 30 254 
3 6 7 265 
3 9 10 249 
3 27 26 866 
3 19 20 263 
3 26 25 277 
3 20 21 869 
3 21 22 627 
3 276 12 843 
3 253 27 866 
3 26 277 866 
3 263 20 869 
3 21 627 869 
3 492 493 877 
3 271 117 836 
3 383 484 485 
3 857 858 860 
3 695 696 697 
3 576 806 809 
3 458 442 879 
3 427 502 503 
3 990 691 1083 
3 598 662 879 
3 485 486 540 
3 276 845 848 
3 442 504 879 
3 635 636 679 
3 11 276 848 
3 430 429 437 
3 392 390 443 
3 492 441 493 
3 560 492 877 
3 411 412 413 
3 605 606 730 
3 321 318 896 
3 400 399 401 
3 504 597 598 
3 708 560 709 
3 551 645 646 
3 623 544 631 
3 539 488 544 
3 684 683 710 
3 398 396 399 
3 441 400 880 
3 635 623 636 
3 539 623 635 
3 443 390 902 
3 598 629 661 
3 501 473 579 
3 708 709 738 
3 699 697 700 
3 631 544 874 
3 478 476 479 
3 394 393 429 
3 438 520 521 
3 457 543 551 
3 663 664 688 
3 830 271 836 
3 539 544 623 
3 598 597 629 
3 837 836 838 
3 756 755 757 
3 682 582 683 
3 428 442 458 
3 504 560 597 
3 607 608 659 
3 597 560 708 
3 682 683 684 
3 424 407 425 
3 699 700 701 
3 670 552 685 
3 694 693 695 
3 487 479 488 
3 521 552 615 
3 551 646 876 
3 823 821 824 
3 475 477 581 
3 362 366 381 
3 538 488 539 
3 478 487 515 
3 647 540 819 
3 709 560 877 
3 504 492 560 
3 487 488 538 
3 480 432 518 
3 540 486 541 
3 513 599 675 
3 479 886 899 
3 485 484 486 
3 392 443 878 
3 692 620 693 
3 478 479 487 
3 621 537 678 
3 595 690 691 
3 421 419 440 
3 504 598 879 
3 477 476 478 
3 825 823 826 
3 581 582 680 
3 542 522 553 
3 819 541 820 
3 442 492 504 
3 521 520 552 
3 695 697 699 
3 540 541 819 
3 615 552 670 
3 541 486 888 
3 381 382 383 
3 367 363 368 
3 822 823 825 
3 123 246 900 
3 275 122 900 
3 493 441 880 
3 438 480 520 
3 398 399 400 
3 399 396 878 
3 355 359 360 
3 454 455 517 
3 501 579 580 
3 767 641 1117 
3 383 483 484 
3 590 553 672 
3 520 480 531 
3 581 477 582 
3 680 582 682 
3 583 503 584 
3 619 586 620 
3 472 470 473 
3 438 432 480 
3 655 579 924 
3 580 579 655 
3 375 432 438 
3 704 703 731 
3 369 368 427 
3 442 441 492 
3 820 821 822 
3 668 751 752 
3 501 580 642 
3 428 400 441 
3 398 400 428 
3 427 503 583 
3 428 441 442 
3 472 473 474 
3 822 821 823 
3 475 476 477 
3 474 473 501 
3 327 328 923 
3 886 642 899 
3 486 547 888 
3 820 541 821 
3 483 382 643 
3 357 354 358 
3 475 474 476 
3 349 351 384 
3 367 369 375 
3 595 584 663 
3 472 474 475 
3 367 368 369 
3 692 693 694 
3 479 476 886 
3 428 458 881 
3 235 788 790 
3 486 484 547 
3 375 369 432 
3 583 584 595 
3 397 396 398 
3 478 515 885 
3 595 663 690 
3 381 366 382 
3 685 552 883 
3 475 581 884 
3 383 382 483 
3 396 392 878 
3 483 643 644 
3 544 488 899 
3 366 363 367 
3 391 395 439 
3 551 543 645 
3 395 392 396 
3 824 821 888 
3 397 398 881 
3 798 799 980 
3 552 520 883 
3 683 582 885 
3 545 546 652 
3 495 379 941 
3 477 478 885 
3 457 551 895 
3 469 471 529 
3 520 531 883 
3 696 693 922 
3 481 505 545 
3 426 425 444 
3 580 655 656 
3 384 385 386 
3 518 432 889 
3 389 387 390 
3 619 620 692 
3 607 517 608 
3 398 428 881 
3 476 474 886 
3 451 453 454 
3 391 390 392 
3 637 530 638 
3 521 615 921 
3 362 363 366 
3 314 315 316 
3 395 396 397 
3 526 498 572 
3 316 317 318 
3 471 470 472 
3 582 477 885 
3 529 530 637 
3 821 541 888 
3 559 461 586 
3 386 387 388 
3 581 680 910 
3 758 757 759 
3 445 444 513 
3 391 392 395 
3 474 501 886 
3 355 357 359 
3 359 361 362 
3 427 583 889 
3 388 389 393 
3 362 381 893 
3 471 472 884 
3 529 471 530 
3 331 333 380 
3 872 361 894 
3 413 414 415 
3 362 361 363 
3 359 357 361 
3 369 427 889 
3 437 461 522 
3 350 348 352 
3 501 642 886 
3 346 348 349 
3 388 387 389 
3 384 351 385 
3 320 321 322 
3 432 369 889 
3 559 586 619 
3 559 619 724 
3 506 508 651 
3 355 354 357 
3 386 385 387 
3 472 475 884 
3 360 359 893 
3 494 496 633 
3 366 367 887 
3 517 455 895 
3 353 354 355 
3 367 375 887 
3 438 521 913 
3 385 351 585 
3 389 390 391 
3 524 561 562 
3 122 123 900 
3 342 340 343 
3 346 344 347 
3 353 352 354 
3 530 471 884 
3 349 350 351 
3 382 366 887 
3 350 352 353 
3 488 479 899 
3 643 382 887 
3 595 691 909 
3 889 583 909 
3 608 517 895 
3 357 358 894 
3 342 344 345 
3 349 348 350 
3 457 519 543 
3 518 889 909 
3 780 687 908 
3 887 375 913 
3 437 429 461 
3 510 523 524 
3 294 293 295 
3 533 467 554 
3 562 611 612 
3 328 331 923 
3 508 510 925 
3 455 456 457 
3 353 813 897 
3 324 323 325 
3 447 449 450 
3 519 456 532 
3 359 362 893 
3 346 347 348 
3 345 344 346 
3 643 887 913 
3 349 384 892 
3 342 343 344 
3 338 340 341 
3 361 357 894 
3 408 406 409 
3 469 470 471 
3 338 336 339 
3 522 461 559 
3 454 453 455 
3 672 553 674 
3 345 346 892 
3 612 706 707 
3 305 304 306 
3 455 457 895 
3 297 295 298 
3 587 491 588 
3 345 805 928 
3 568 725 729 
3 299 298 300 
3 379 315 915 
3 457 456 519 
3 689 660 726 
3 543 519 558 
3 720 614 721 
3 874 642 917 
3 431 409 481 
3 884 581 910 
3 468 467 533 
3 341 340 342 
3 380 402 403 
3 617 554 660 
3 391 439 898 
3 466 468 469 
3 545 652 733 
3 455 453 456 
3 466 464 467 
3 775 890 959 
3 559 724 911 
3 350 353 897 
3 530 884 910 
3 638 530 910 
3 346 349 892 
3 393 389 898 
3 429 393 901 
3 583 595 909 
3 415 416 417 
3 334 336 337 
3 338 339 340 
3 318 317 896 
3 617 660 689 
3 753 755 756 
3 642 580 917 
3 573 572 630 
3 463 435 491 
3 389 391 898 
3 655 924 940 
3 436 464 465 
3 351 350 897 
3 334 332 335 
3 466 467 468 
3 533 554 617 
3 473 470 906 
3 469 468 470 
3 620 586 935 
3 613 527 614 
3 586 461 901 
3 390 387 902 
3 702 604 978 
3 408 431 462 
3 373 371 377 
3 375 438 913 
3 337 336 338 
3 654 956 968 
3 403 404 405 
3 420 422 446 
3 334 335 336 
3 405 406 407 
3 571 605 891 
3 585 351 897 
3 465 780 938 
3 698 258 1082 
3 84 225 234 
3 387 385 902 
3 431 481 482 
3 752 753 873 
3 380 333 402 
3 385 585 902 
3 469 529 903 
3 85 226 279 
3 408 409 431 
3 404 402 592 
3 569 571 891 
3 393 898 901 
3 450 449 451 
3 461 429 901 
3 553 522 911 
3 407 406 408 
3 470 468 906 
3 514 512 555 
3 522 559 911 
3 86 227 239 
3 465 466 903 
3 675 599 676 
3 468 533 906 
3 405 404 406 
3 333 332 334 
3 975 647 979 
3 459 536 537 
3 579 906 924 
3 913 521 921 
3 87 228 278 
3 511 509 512 
3 580 656 917 
3 451 452 453 
3 313 312 314 
3 465 464 466 
3 944 808 949 
3 446 422 447 
3 568 563 725 
3 532 456 905 
3 451 449 452 
3 453 452 905 
3 403 402 404 
3 779 35 972 
3 88 229 242 
3 693 620 922 
3 330 329 411 
3 374 436 938 
3 421 440 459 
3 674 553 911 
3 456 453 905 
3 644 643 921 
3 425 407 904 
3 342 345 928 
3 513 527 599 
3 496 499 937 
3 373 377 912 
3 613 614 720 
3 466 469 903 
3 753 756 873 
3 464 463 927 
3 463 491 587 
3 433 489 875 
3 696 922 942 
3 436 463 464 
3 327 784 948 
3 89 230 280 
3 613 720 764 
3 418 417 419 
3 643 913 921 
3 513 444 527 
3 265 7 945 
3 319 318 320 
3 408 462 904 
3 587 588 907 
3 588 667 669 
3 407 408 904 
3 554 467 927 
3 328 326 329 
3 510 524 925 
3 90 231 244 
3 759 761 762 
3 91 232 281 
3 233 91 916 
3 331 380 923 
3 82 233 248 
3 601 356 602 
3 322 323 324 
3 334 337 914 
3 447 422 448 
3 331 332 333 
3 533 617 924 
3 756 757 758 
3 439 395 942 
3 599 527 613 
3 341 342 928 
3 463 587 927 
3 333 334 914 
3 697 696 951 
3 467 464 927 
3 491 435 912 
3 409 406 920 
3 328 330 331 
3 524 523 561 
3 302 304 305 
3 447 448 449 
3 418 419 420 
3 633 496 937 
3 310 312 313 
3 700 697 955 
3 436 435 463 
3 331 330 332 
3 506 651 931 
3 462 431 919 
3 906 533 924 
3 562 561 611 
3 528 374 938 
3 634 590 966 
3 402 333 914 
3 431 482 919 
3 316 318 319 
3 660 554 943 
3 612 611 706 
3 404 592 920 
3 420 419 421 
3 514 555 557 
3 319 356 594 
3 328 329 330 
3 406 404 920 
3 437 542 952 
3 420 421 422 
3 592 402 914 
3 297 298 299 
3 700 955 961 
3 299 300 410 
3 511 512 514 
3 294 295 297 
3 291 290 292 
3 305 306 365 
3 614 527 929 
3 922 439 942 
3 374 435 436 
3 588 669 907 
3 292 293 294 
3 411 413 591 
3 514 557 610 
3 924 617 940 
3 320 322 918 
3 319 320 356 
3 330 411 926 
3 435 373 912 
3 572 498 941 
3 601 602 632 
3 498 495 941 
3 444 425 929 
3 610 677 717 
3 335 332 926 
3 459 537 593 
3 667 668 950 
3 630 572 740 
3 968 341 981 
3 610 557 677 
3 374 373 435 
3 898 439 935 
3 324 325 326 
3 593 537 621 
3 961 662 965 
3 313 314 423 
3 426 445 976 
3 561 523 609 
3 621 678 681 
3 901 898 935 
3 534 771 963 
3 372 374 528 
3 443 949 970 
3 332 330 926 
3 697 951 955 
3 594 356 601 
3 411 591 926 
3 313 423 506 
3 593 621 622 
3 508 509 510 
3 425 904 929 
3 707 706 1078 
3 510 511 523 
3 418 800 947 
3 395 397 942 
3 617 689 940 
3 764 241 982 
3 527 444 929 
3 327 326 328 
3 506 507 508 
3 879 662 961 
3 823 824 958 
3 510 509 511 
3 436 465 938 
3 696 942 951 
3 586 901 935 
3 99 264 964 
3 628 98 964 
3 297 299 376 
3 508 507 509 
3 577 878 970 
3 305 365 596 
3 602 356 918 
3 789 973 1097 
3 324 326 327 
3 34 255 972 
3 289 288 290 
3 356 320 918 
3 443 902 949 
3 415 417 418 
3 585 897 944 
3 506 423 507 
3 308 310 931 
3 372 373 374 
3 596 365 649 
3 596 649 650 
3 854 853 1007 
3 897 813 944 
3 740 572 941 
3 300 302 932 
3 410 300 932 
3 721 614 957 
3 7 8 945 
3 448 422 936 
3 314 316 933 
3 813 807 944 
3 91 281 916 
3 248 233 916 
3 372 371 373 
3 489 549 875 
3 949 808 970 
3 482 481 962 
3 422 421 936 
3 243 775 959 
3 927 587 943 
3 648 647 975 
3 942 397 951 
3 859 856 977 
3 545 733 962 
3 423 314 933 
3 855 854 977 
3 554 927 943 
3 421 459 936 
3 302 305 932 
3 310 313 931 
3 338 341 968 
3 804 500 997 
3 587 907 943 
3 500 430 1001 
3 319 594 933 
3 316 319 933 
3 225 83 953 
3 459 593 936 
3 511 514 939 
3 291 292 296 
3 514 610 939 
3 563 534 963 
3 755 754 995 
3 609 523 939 
3 600 248 916 
3 523 511 939 
3 397 881 951 
3 810 507 967 
3 585 944 949 
3 902 585 949 
3 668 752 950 
3 805 804 994 
3 313 506 931 
3 784 783 1000 
3 430 437 952 
3 918 322 948 
3 947 800 980 
3 812 592 956 
3 591 413 947 
3 305 596 932 
3 591 947 980 
3 365 306 971 
3 614 929 957 
3 929 904 957 
3 322 324 948 
3 370 371 372 
3 951 881 955 
3 881 458 955 
3 549 666 946 
3 365 971 989 
3 700 961 965 
3 616 723 1002 
3 577 975 979 
3 234 225 953 
3 955 458 961 
3 415 418 947 
3 826 823 958 
3 976 445 1035 
3 370 296 371 
3 291 296 370 
3 423 933 967 
3 90 244 969 
3 281 232 969 
3 458 879 961 
3 997 500 1001 
3 654 968 981 
3 481 545 962 
3 914 337 956 
3 413 415 947 
3 232 90 969 
3 289 290 291 
3 98 99 964 
3 904 462 957 
3 324 327 948 
3 613 764 982 
3 597 708 992 
3 592 914 956 
3 701 700 965 
3 980 799 984 
3 676 599 982 
3 933 594 967 
3 556 810 991 
3 590 673 966 
3 354 352 993 
3 931 651 971 
3 956 337 968 
3 308 931 971 
3 725 563 963 
3 671 556 999 
3 337 338 968 
3 878 443 970 
3 306 308 971 
3 1068 282 1081 
3 783 516 1016 
3 737 234 1054 
3 518 909 990 
3 577 970 975 
3 524 562 998 
3 296 292 974 
3 89 280 986 
3 35 34 972 
3 83 224 282 
3 244 231 986 
3 653 654 981 
3 647 819 979 
3 604 603 978 
3 1010 795 1013 
3 994 804 997 
3 507 423 967 
3 516 426 976 
3 761 1063 1073 
3 875 549 946 
3 808 648 975 
3 979 819 983 
3 872 894 1003 
3 287 248 288 
3 292 294 974 
3 18 738 1039 
3 856 855 977 
3 681 678 1025 
3 841 503 1004 
3 819 820 983 
3 335 984 1005 
3 796 795 1010 
3 800 798 980 
3 401 577 979 
3 297 376 987 
3 983 820 985 
3 335 926 984 
3 971 651 989 
3 687 686 1059 
3 445 513 1011 
3 820 822 985 
3 401 979 983 
3 88 242 996 
3 339 336 1005 
3 985 822 988 
3 259 75 1012 
3 74 283 1012 
3 280 230 996 
3 880 401 983 
3 658 657 1015 
3 737 735 1042 
3 599 613 982 
3 645 543 1009 
3 1015 657 1017 
3 1000 783 1016 
3 231 89 986 
3 822 825 988 
3 9 249 1014 
3 287 288 289 
3 880 983 985 
3 341 928 981 
3 970 808 975 
3 728 767 1081 
3 1036 274 1110 
3 343 340 1013 
3 919 789 1034 
3 556 991 999 
3 493 880 985 
3 493 985 988 
3 984 799 1005 
3 558 840 1090 
3 767 1068 1081 
3 877 493 988 
3 966 673 973 
3 607 659 1018 
3 651 925 989 
3 748 747 1002 
3 649 365 989 
3 724 238 1077 
3 112 113 1025 
3 24 23 1021 
3 71 70 1022 
3 73 72 1023 
3 347 344 1017 
3 810 967 991 
3 926 591 984 
3 909 691 990 
3 83 282 953 
3 874 917 1019 
3 294 297 987 
3 82 248 287 
3 48 243 1032 
3 945 8 1014 
3 267 49 1032 
3 974 294 987 
3 352 348 1020 
3 967 594 991 
3 347 1017 1018 
3 626 718 1042 
3 1018 659 1020 
3 376 299 1008 
3 629 597 992 
3 343 1013 1015 
3 649 989 998 
3 1025 113 1112 
3 339 1005 1010 
3 754 777 995 
3 358 354 993 
3 659 608 1027 
3 594 601 991 
3 833 452 1079 
3 87 278 1024 
3 242 229 1024 
3 358 1027 1030 
3 653 981 994 
3 918 948 1000 
3 989 925 998 
3 758 759 1031 
3 230 88 996 
3 861 259 1033 
3 706 611 1056 
3 591 980 984 
3 234 737 1049 
3 747 616 1002 
3 928 805 994 
3 596 650 1028 
3 981 928 994 
3 641 946 1117 
3 652 653 997 
3 718 624 1041 
3 948 784 1000 
3 653 994 997 
3 991 601 999 
3 515 736 1116 
3 894 358 1030 
3 665 737 1054 
3 652 997 1001 
3 625 705 1041 
3 1025 678 1095 
3 286 79 1036 
3 78 274 1036 
3 839 236 1038 
3 733 652 1001 
3 502 1003 1004 
3 502 872 1003 
3 998 562 1006 
3 601 632 999 
3 925 524 998 
3 339 1010 1013 
3 101 102 1037 
3 273 863 1072 
3 503 502 1004 
3 462 919 1034 
3 602 918 1000 
3 685 883 1007 
3 410 932 1028 
3 336 335 1005 
3 837 840 1044 
3 799 796 1010 
3 17 18 1039 
3 299 410 1008 
3 543 558 1009 
3 826 958 1109 
3 650 649 1006 
3 513 675 1011 
3 993 659 1027 
3 1014 249 1088 
3 602 1000 1016 
3 75 74 1012 
3 831 830 1044 
3 890 268 1056 
3 769 266 1067 
3 283 1023 1107 
3 726 660 1050 
3 791 251 1031 
3 340 339 1013 
3 343 1015 1017 
3 787 786 1046 
3 261 112 1025 
3 8 9 1014 
3 826 1109 1123 
3 358 993 1027 
3 795 658 1015 
3 86 239 1040 
3 278 228 1040 
3 686 637 1047 
3 1005 799 1010 
3 921 615 1043 
3 555 671 1048 
3 245 64 1052 
3 63 273 1052 
3 344 343 1017 
3 272 818 1059 
3 681 1025 1112 
3 85 279 1045 
3 834 833 1079 
3 239 227 1045 
3 632 602 1016 
3 657 607 1018 
3 1013 795 1015 
3 835 622 1071 
3 679 1036 1110 
3 1017 657 1018 
3 631 874 1019 
3 539 635 1057 
3 871 24 1021 
3 70 284 1022 
3 283 73 1023 
3 347 1018 1020 
3 229 87 1024 
3 348 347 1020 
3 66 65 1058 
3 84 234 1049 
3 279 226 1049 
3 721 957 1034 
3 864 257 1047 
3 636 623 1060 
3 649 998 1006 
3 675 676 1053 
3 761 763 1063 
3 712 710 1064 
3 1027 876 1030 
3 608 876 1027 
3 1033 259 1113 
3 1048 675 1053 
3 256 110 1087 
3 628 964 1029 
3 711 713 1029 
3 710 683 1064 
3 593 622 1061 
3 876 646 1030 
3 656 868 1091 
3 885 515 1064 
3 241 764 1094 
3 759 762 1031 
3 932 596 1028 
3 943 907 1050 
3 547 484 1070 
3 483 644 1070 
3 724 619 1072 
3 237 835 1071 
3 670 1014 1088 
3 49 48 1032 
3 6 265 1075 
3 964 711 1029 
3 788 789 1097 
3 663 688 1076 
3 246 860 1083 
3 31 254 1080 
3 104 864 1082 
3 940 254 1085 
3 787 1046 1121 
3 258 103 1082 
3 261 1025 1095 
3 871 1021 1062 
3 518 990 1101 
3 656 655 1085 
3 67 66 1084 
3 756 758 1067 
3 448 936 1061 
3 818 815 1055 
3 846 844 1086 
3 671 1011 1048 
3 52 241 1094 
3 862 861 1033 
3 269 53 1094 
3 622 621 1071 
3 699 701 1058 
3 449 448 1079 
3 854 1007 1106 
3 270 882 1092 
3 779 669 1093 
3 689 726 1080 
3 682 684 1037 
3 289 291 1065 
3 735 626 1042 
3 791 1031 1108 
3 849 845 1100 
3 666 1068 1117 
3 1011 675 1048 
3 100 101 1098 
3 669 667 1093 
3 3 80 1102 
3 23 3 1102 
3 129 0 1103 
3 0 4 1103 
3 72 1 1104 
3 1 97 1104 
3 2 71 1105 
3 22 2 1105 
3 852 285 1103 
3 114 237 1112 
3 965 662 1074 
3 610 717 1089 
3 531 480 1101 
3 695 699 1125 
3 16 250 1123 
3 240 14 1109 
3 736 714 1116 
3 905 833 1111 
3 671 999 1035 
3 990 859 1101 
3 888 547 1119 
3 1031 762 1108 
3 79 78 1036 
3 958 240 1109 
3 713 715 1107 
3 609 890 1120 
3 1063 801 1073 
3 1028 650 1063 
3 102 258 1037 
3 632 976 1035 
3 950 752 1099 
3 615 670 1088 
3 236 865 1038 
3 561 609 1120 
3 957 462 1034 
3 833 831 1111 
3 716 1033 1113 
3 842 260 1074 
3 609 939 1089 
3 959 609 1089 
3 250 17 1039 
3 727 728 1081 
3 228 86 1040 
3 624 625 1041 
3 815 817 1055 
3 999 632 1035 
3 917 656 1091 
3 786 269 1046 
3 830 837 1044 
3 839 1038 1090 
3 227 85 1045 
3 736 538 1069 
3 644 921 1043 
3 907 669 1115 
3 1007 883 1106 
3 720 721 1046 
3 637 638 1047 
3 781 267 1051 
3 557 555 1048 
3 817 816 1065 
3 811 674 1077 
3 669 972 1115 
3 1021 286 1062 
3 226 84 1049 
3 660 943 1050 
3 268 772 1056 
3 1046 721 1121 
3 557 1048 1053 
3 64 63 1052 
3 763 1028 1063 
3 81 727 1122 
3 666 665 1054 
3 762 761 1073 
3 528 908 1055 
3 629 870 1066 
3 677 557 1053 
3 245 1052 1125 
3 538 539 1057 
3 241 781 1114 
3 911 724 1077 
3 674 911 1077 
3 1043 849 1100 
3 65 245 1058 
3 827 272 1059 
3 623 631 1060 
3 840 839 1090 
3 635 679 1110 
3 716 736 1069 
3 852 5 1075 
3 936 593 1061 
3 650 801 1063 
3 254 867 1085 
3 679 636 1062 
3 982 241 1114 
3 683 885 1064 
3 275 900 1076 
3 766 728 1095 
3 900 690 1076 
3 734 558 1090 
3 224 81 1122 
3 547 1086 1119 
3 661 629 1066 
3 873 756 1067 
3 291 370 1065 
3 484 483 1070 
3 619 692 1072 
3 673 882 1097 
3 1051 267 1096 
3 890 1056 1120 
3 801 707 1073 
3 1038 734 1090 
3 621 681 1071 
3 662 661 1074 
3 853 852 1075 
3 5 6 1075 
3 953 282 1068 
3 690 663 1076 
3 238 811 1077 
3 247 792 1078 
3 1019 917 1091 
3 267 1032 1096 
3 973 673 1097 
3 1064 515 1116 
3 32 31 1080 
3 452 449 1079 
3 103 104 1082 
3 831 1044 1111 
3 860 858 1083 
3 260 67 1084 
3 816 256 1087 
3 977 854 1106 
3 844 847 1086 
3 1078 792 1108 
3 655 940 1085 
3 252 779 1093 
3 249 849 1088 
3 678 766 1095 
3 1052 694 1125 
3 1021 23 1102 
3 71 1022 1105 
3 1023 72 1104 
3 882 788 1097 
3 531 977 1106 
3 1050 907 1115 
3 246 1083 1124 
3 802 270 1092 
3 950 252 1093 
3 728 261 1095 
3 939 610 1089 
3 538 1057 1069 
3 868 253 1091 
3 53 52 1094 
3 259 1012 1113 
3 792 791 1108 
3 667 950 1093 
3 1033 716 1069 
3 1078 1108 1118 
3 845 846 1100 
3 264 100 1098 
3 717 677 1096 
3 80 286 1102 
3 285 129 1103 
3 97 628 1104 
3 627 22 1105 
3 480 518 1101 
3 789 787 1121 
3 752 873 1099 
3 253 1019 1091 
3 883 531 1106 
3 1068 767 1117 
3 14 15 1109 
3 274 862 1110 
3 113 114 1112 
3 972 255 1115 
3 715 716 1113 
3 532 905 1111 
3 714 712 1116 
3 1032 717 1096 
3 1109 15 1123 
3 282 224 1122 
3 644 1043 1100 
3 824 888 1119 
3 15 16 1123 
3 676 982 1114 
3 847 240 1126 
3 958 824 1126 
3 691 690 1124 
3 694 695 1125 
3 611 561 1120 
3 946 666 1117 
3 286 1021 1102 
3 1022 627 1105 
3 628 1023 1104 
3 1012 715 1113 
3 1119 847 1126 
3 824 1119 1126 
3 240 958 1126 
3 721 1034 1121 
3 1044 532 1111 
3 1056 611 1120 
3 1029 713 1107 
3 255 1050 1115 
3 1034 789 1121 
3 712 1064 1116 
3 762 1073 1118 
3 1051 676 1114 
3 781 1051 1114 
3 1081 282 1122 
3 1073 707 1118 
3 707 1078 1118 
3 1083 691 1124 
3 1086 847 1119 
3 727 1081 1122 
3 1108 762 1118 
3 150 151 152 
3 150 152 153 
3 149 150 153 
3 149 153 154 
3 148 149 154 
3 155 148 154 
3 155 147 148 
3 155 156 147 
3 156 146 147 
3 156 157 146 
3 157 145 146 
3 157 158 145 
3 158 144 145 
3 158 159 144 
3 144 159 143 
3 159 160 143 
3 160 142 143 
3 131 88 1127 
3 160 161 142 
3 161 141 142 
3 171 88 131 
3 161 162 141 
3 162 140 141 
3 162 163 140 
3 140 163 139 
3 163 164 139 
3 130 131 1127 
3 139 164 138 
3 164 165 138 
3 138 165 137 
3 165 166 137 
3 137 166 136 
3 166 167 136 
3 136 167 135 
3 167 168 135 
3 135 168 134 
3 168 169 134 
3 88 229 1127 
3 169 170 133 
3 169 133 134 
3 170 171 132 
3 133 170 132 
3 132 171 131 
3 229 130 1127 
3 92 93 1128 
3 152 151 1128 
3 93 152 1128 
3 151 92 1128 
3 229 87 130 
3 189 190 152 
3 153 189 152 
3 188 189 153 
3 154 188 153 
3 187 188 154 
3 155 187 154 
3 186 187 155 
3 156 186 155 
3 185 186 156 
3 185 156 157 
3 184 185 157 
3 158 184 157 
3 183 184 158 
3 159 183 158 
3 182 183 159 
3 160 182 159 
3 89 170 1129 
3 181 182 160 
3 181 160 161 
3 170 171 1129 
3 181 161 180 
3 180 161 162 
3 170 89 172 
3 179 180 162 
3 179 162 163 
3 178 179 163 
3 178 163 164 
3 177 178 164 
3 165 177 164 
3 230 89 1129 
3 176 177 165 
3 176 165 166 
3 175 176 166 
3 175 166 167 
3 174 167 168 
3 174 175 167 
3 168 169 173 
3 174 168 173 
3 169 170 172 
3 169 172 173 
3 171 230 1129 
3 94 93 1130 
3 152 190 1130 
3 93 152 1130 
3 190 94 1130 
3 171 88 230 
3 189 190 191 
3 192 189 191 
3 188 189 192 
3 193 188 192 
3 187 188 193 
3 194 187 193 
3 186 187 194 
3 195 186 194 
3 185 186 195 
3 196 185 195 
3 184 185 196 
3 197 184 196 
3 183 184 197 
3 183 197 198 
3 182 183 198 
3 173 90 1131 
3 199 182 198 
3 90 173 207 
3 182 199 181 
3 199 200 181 
3 181 200 180 
3 200 201 180 
3 201 179 180 
3 179 201 202 
3 172 173 1131 
3 179 202 178 
3 202 203 178 
3 203 177 178 
3 203 204 177 
3 204 176 177 
3 205 176 204 
3 176 205 175 
3 175 205 206 
3 174 206 207 
3 174 175 206 
3 90 231 1131 
3 173 174 207 
3 231 172 1131 
3 94 95 1132 
3 191 190 1132 
3 95 191 1132 
3 190 94 1132 
3 89 172 231 
3 222 223 191 
3 192 222 191 
3 221 222 192 
3 193 221 192 
3 220 221 193 
3 194 220 193 
3 219 220 194 
3 195 219 194 
3 218 219 195 
3 196 218 195 
3 217 218 196 
3 197 217 196 
3 216 217 197 
3 91 206 1133 
3 216 197 198 
3 215 216 198 
3 206 207 1133 
3 199 215 198 
3 215 199 214 
3 206 91 208 
3 199 200 214 
3 200 213 214 
3 200 201 213 
3 201 212 213 
3 201 202 212 
3 232 91 1133 
3 202 211 212 
3 202 203 211 
3 203 204 210 
3 203 210 211 
3 204 205 209 
3 204 209 210 
3 205 206 208 
3 205 208 209 
3 207 232 1133 
3 96 95 1134 
3 191 223 1134 
3 95 191 1134 
3 223 96 1134 
3 90 232 207 
3 222 223 97 
3 222 97 98 
3 221 222 98 
3 221 98 99 
3 220 221 99 
3 220 99 100 
3 219 220 100 
3 219 100 101 
3 218 219 101 
3 218 101 102 
3 217 218 102 
3 217 102 103 
3 209 82 1135 
3 216 217 103 
3 110 82 209 
3 216 103 104 
3 215 216 104 
3 105 215 104 
3 214 215 105 
3 106 214 105 
3 213 214 106 
3 213 106 107 
3 208 209 1135 
3 213 107 212 
3 107 108 212 
3 108 211 212 
3 108 109 211 
3 109 110 210 
3 211 109 210 
3 210 110 209 
3 82 233 1135 
3 233 208 1135 
3 96 1 1136 
3 97 223 1136 
3 1 97 1136 
3 223 96 1136 
3 233 91 208 

CELL_TYPES 2134
5
5
5
5
5
5
5
5
5
5
5
5
5
5
5
5
5
5
5
5
5
5
5
5
5
5
5
5
5
5
5
5
5
5
5
5
5
5
5
5
5
5
5
5
5
5
5
5
5
5
5
5
5
5
5
5
5
5
5
5
5
5
5
5
5
5
5
5
5
5
5
5
5
5
5
5
5
5
5
5
5
5
5
5
5
5
5
5
5
5
5
5
5
5
5
5
5
5
5
5
5
5
5
5
5
5
5
5
5
5
5
5
5
5
5
5
5
5
5
5
5
5
5
5
5
5
5
5
5
5
5
5
5
5
5
5
5
5
5
5
5
5
5
5
5
5
5
5
5
5
5
5
5
5
5
5
5
5
5
5
5
5
5
5
5
5
5
5
5
5
5
5
5
5
5
5
5
5
5
5
5
5
5
5
5
5
5
5
5
5
5
5
5
5
5
5
5
5
5
5
5
5
5
5
5
5
5
5
5
5
5
5
5
5
5
5
5
5
5
5
5
5
5
5
5
5
5
5
5
5
5
5
5
5
5
5
5
5
5
5
5
5
5
5
5
5
5
5
5
5
5
5
5
5
5
5
5
5
5
5
5
5
5
5
5
5
5
5
5
5
5
5
5
5
5
5
5
5
5
5
5
5
5
5
5
5
5
5
5
5
5
5
5
5
5
5
5
5
5
5
5
5
5
5
5
5
5
5
5
5
5
5
5
5
5
5
5
5
5
5
5
5
5
5
5
5
5
5
5
5
5
5
5
5
5
5
5
5
5
5
5
5
5
5
5
5
5
5
5
5
5
5
5
5
5
5
5
5
5
5
5
5
5
5
5
5
5
5
5
5
5
5
5
5
5
5
5
5
5
5
5
5
5
5
5
5
5
5
5
5
5
5
5
5
5
5
5
5
5
5
5
5
5
5
5
5
5
5
5
5
5
5
5
5
5
5
5
5
5
5
5
5
5
5
5
5
5
5
5
5
5
5
5
5
5
5
5
5
5
5
5
5
5
5
5
5
5
5
5
5
5
5
5
5
5
5
5
5
5
5
5
5
5
5
5
5
5
5
5
5
5
5
5
5
5
5
5
5
5
5
5
5
5
5
5
5
5
5
5
5
5
5
5
5
5
5
5
5
5
5
5
5
5
5
5
5
5
5
5
5
5
5
5
5
5
5
5
5
5
5
5
5
5
5
5
5
5
5
5
5
5
5
5
5
5
5
5
5
5
5
5
5
5
5
5
5
5
5
5
5
5
5
5
5
5
5
5
5
5
5
5
5
5
5
5
5
5
5
5
5
5
5
5
5
5
5
5
5
5
5
5
5
5
5
5
5
5
5
5
5
5
5
5
5
5
5
5
5
5
5
5
5
5
5
5
5
5
5
5
5
5
5
5
5
5
5
5
5
5
5
5
5
5
5
5
5
5
5
5
5
5
5
5
5
5
5
5
5
5
5
5
5
5
5
5
5
5
5
5
5
5
5
5
5
5
5
5
5
5
5
5
5
5
5
5
5
5
5
5
5
5
5
5
5
5
5
5
5
5
5
5
5
5
5
5
5
5
5
5
5
5
5
5
5
5
5
5
5
5
5
5
5
5
5
5
5
5
5
5
5
5
5
5
5
5
5
5
5
5
5
5
5
5
5
5
5
5
5
5
5
5
5
5
5
5
5
5
5
5
5
5
5
5
5
5
5
5
5
5
5
5
5
5
5
5
5
5
5
5
5
5
5
5
5
5
5
5
5
5
5
5
5
5
5
5
5
5
5
5
5
5
5
5
5
5
5
5
5
5
5
5
5
5
5
5
5
5
5
5
5
5
5
5
5
5
5
5
5
5
5
5
5
5
5
5
5
5
5
5
5
5
5
5
5
5
5
5
5
5
5
5
5
5
5
5
5
5
5
5
5
5
5
5
5
5
5
5
5
5
5
5
5
5
5
5
5
5
5
5
5
5
5
5
5
5
5
5
5
5
5
5
5
5
5
5
5
5
5
5
5
5
5
5
5
5
5
5
5
5
5
5
5
5
5
5
5
5
5
5
5
5
5
5
5
5
5
5
5
5
5
5
5
5
5
5
5
5
5
5
5
5
5
5
5
5
5
5
5
5
5
5
5
5
5
5
5
5
5
5
5
5
5
5
5
5
5
5
5
5
5
5
5
5
5
5
5
5
5
5
5
5
5
5
5
5
5
5
5
5
5
5
5
5
5
5
5
5
5
5
5
5
5
5
5
5
5
5
5
5
5
5
5
5
5
5
5
5
5
5
5
5
5
5
5
5
5
5
5
5
5
5
5
5
5
5
5
5
5
5
5
5
5
5
5
5
5
5
5
5
5
5
5
5
5
5
5
5
5
5
5
5
5
5
5
5
5
5
5
5
5
5
5
5
5
5
5
5
5
5
5
5
5
5
5
5
5
5
5
5
5
5
5
5
5
5
5
5
5
5
5
5
5
5
5
5
5
5
5
5
5
5
5
5
5
5
5
5
5
5
5
5
5
5
5
5
5
5
5
5
5
5
5
5
5
5
5
5
5
5
5
5
5
5
5
5
5
5
5
5
5
5
5
5
5
5
5
5
5
5
5
5
5
5
5
5
5
5
5
5
5
5
5
5
5
5
5
5
5
5
5
5
5
5
5
5
5
5
5
5
5
5
5
5
5
5
5
5
5
5
5
5
5
5
5
5
5
5
5
5
5
5
5
5
5
5
5
5
5
5
5
5
5
5
5
5
5
5
5
5
5
5
5
5
5
5
5
5
5
5
5
5
5
5
5
5
5
5
5
5
5
5
5
5
5
5
5
5
5
5
5
5
5
5
5
5
5
5
5
5
5
5
5
5
5
5
5
5
5
5
5
5
5
5
5
5
5
5
5
5
5
5
5
5
5
5
5
5
5
5
5
5
5
5
5
5
5
5
5
5
5
5
5
5
5
5
5
5
5
5
5
5
5
5
5
5
5
5
5
5
5
5
5
5
5
5
5
5
5
5
5
5
5
5
5
5
5
5
5
5
5
5
5
5
5
5
5
5
5
5
5
5
5
5
5
5
5
5
5
5
5
5
5
5
5
5
5
5
5
5
5
5
5
5
5
5
5
5
5
5
5
5
5
5
5
5
5
5
5
5
5
5
5
5
5
5
5
5
5
5
5
5
5
5
5
5
5
5
5
5
5
5
5
5
5
5
5
5
5
5
5
5
5
5
5
5
5
5
5
5
5
5
5
5
5
5
5
5
5
5
5
5
5
5
5
5
5
5
5
5
5
5
5
5
5
5
5
5
5
5
5
5
5
5
5
5
5
5
5
5
5
5
5
5
5
5
5
5
5
5
5
5
5
5
5
5
5
5
5
5
5
5
5
5
5
5
5
5
5
5
5
5
5
5
5
5
5
5
5
5
5
5
5
5
5
5
5
5
5
5
5
5
5
5
5
5
5
5
5
5
5
5
5
5
5
5
5
5
5
5
5
5
5
5
5
5
5
5
5
5
5
5
5
5
5
5
5
5
5
5
5
5
5
5
5
5
5
5
5
5
5
5
5
5
5
5
5
5
5
5
5
5
5
5
5
5
5
5
5
5
5
5
5
5
5
5
5
5
5
5
5
5
5
5
5
5
5
5
5
5
5
5
5
5
5
5
5
5
5
5
5
5
5
5
5
5
5
5
5
5
5
5
5
5
5
5
5
5
5
5
5
5
5
5
5
5
5
5
5
5
5
5
5
5
5
5
5
5
5
5
5
5
5
5
5
5
5
5
5
5
5
5
5
5
5
5
5
5
5
5
5
5
5
5
5
5
5
5
5
5
5
5
5
5
5
5
5
5
5
5
5
5
5
5
5
5
5
5
5
5
5
5
5
5
5
5
5
5
5
5
5
5
5
5
5
5
5
5
5
5
5
5
5
5
5
5
5
5
5
5
5
5
5
5
5
5
5
5
5
5
5
5
5
5
5
5
5
5
5
5
5
5
5
5
5
5
5
5
5
5
5
5
5
5
5
5
5
5
5
5
5
5
5
5
5
5
5
5
5
5
5
5
5
5
5
5
5
5
5
5
5
5
5
5
5
5
5
5
5
5
5
5
5
5
5
5
5
5
5
5
5
5
5
5
5
5
5
5
5
5
5
5
5
5
5
5
5
5
5
5
5
5
5
5
5
5
5
5
5
5
5
5
5
5
5
5
5
5
5
5
5
5
5
5
5
5
5
5
5
5
5
5
5
5
5
5
5
5
5
5
5
5
5
5
5
5
5
5
5
5
5
5
5
5
5
5
5
5
5
5
5
5
5
5
5
5
5
5
5
5
5
5
5
5
5
5
5
5
5
5
5
5
5
5
5
5
5
5
5
5
5
5
5
5
5
5
5
5
5
5
5
5
5
5
5
5
5
5
5
5
5
5
5
5
5
5
5
5
5
5
5
5
5
5
5
5
5
5
5
5
5
5
5
5
5
5
5
5
5
5
5
5
5
5
5
5
5
5
5
5
5
5
5
5
5
5
5
5
5
5
5
5
5
5
5
5
5
5
5
5
5
5
5
5
5
5
5
5
5
5
5
5
5
5
5
5
5
5
5
5
5
5
5
5
5
5
5
5
5
5
5
5
5
5
5
5
5
5
5
5
5
5
5
5
5
5
5
5
5
5
5
5
5
5
5
5
5
5
5
5
5
5
5
5
5
5
5
5
5
5
5
5
5
5
5
5
5
5
5
5
5
5
5
5
5
5
5
5
5
5
5
5
5
5
5
5
5
5
5
5
5
5
5
5
5
5
5
5
5
5
5
5
5
5
5
5
5
5
5
5
5
5
5
5
5
5
5
5
5
5
5
5
5
5
5

POINT_DATA 1137

VECTORS coord float
0.0 0.0 0.0 
5.000000000000e+01 -1.000000000000e+01 0.0 
0.0 -2.000000000000e+01 0.0 
5.000000000000e+01 -2.000000000000e+01 0.0 
0.0 -9.999999999991e-01 0.0 
0.0 -1.999999999998e+00 0.0 
0.0 -2.999999999997e+00 0.0 
0.0 -3.999999999994e+00 0.0 
0.0 -4.999999999991e+00 0.0 
0.0 -5.999999999988e+00 0.0 
0.0 -6.999999999985e+00 0.0 
0.0 -7.999999999982e+00 0.0 
0.0 -8.999999999983e+00 0.0 
0.0 -9.999999999985e+00 0.0 
0.0 -1.099999999999e+01 0.0 
0.0 -1.199999999999e+01 0.0 
0.0 -1.299999999999e+01 0.0 
0.0 -1.399999999999e+01 0.0 
0.0 -1.499999999999e+01 0.0 
0.0 -1.599999999999e+01 0.0 
0.0 -1.700000000000e+01 0.0 
0.0 -1.800000000000e+01 0.0 
0.0 -1.900000000000e+01 0.0 
4.900000000001e+01 -2.000000000000e+01 0.0 
4.800000000001e+01 -2.000000000000e+01 0.0 
4.700000000002e+01 -2.000000000000e+01 0.0 
4.600000000003e+01 -2.000000000000e+01 0.0 
4.500000000004e+01 -2.000000000000e+01 0.0 
4.400000000004e+01 -2.000000000000e+01 0.0 
4.300000000005e+01 -2.000000000000e+01 0.0 
4.200000000006e+01 -2.000000000000e+01 0.0 
4.100000000006e+01 -2.000000000000e+01 0.0 
4.000000000007e+01 -2.000000000000e+01 0.0 
3.900000000008e+01 -2.000000000000e+01 0.0 
3.800000000009e+01 -2.000000000000e+01 0.0 
3.700000000009e+01 -2.000000000000e+01 0.0 
3.600000000010e+01 -2.000000000000e+01 0.0 
3.500000000011e+01 -2.000000000000e+01 0.0 
3.400000000011e+01 -2.000000000000e+01 0.0 
3.300000000012e+01 -2.000000000000e+01 0.0 
3.200000000013e+01 -2.000000000000e+01 0.0 
3.100000000013e+01 -2.000000000000e+01 0.0 
3.000000000013e+01 -2.000000000000e+01 0.0 
2.900000000013e+01 -2.000000000000e+01 0.0 
2.800000000013e+01 -2.000000000000e+01 0.0 
2.700000000013e+01 -2.000000000000e+01 0.0 
2.600000000013e+01 -2.000000000000e+01 0.0 
2.500000000013e+01 -2.000000000000e+01 0.0 
2.400000000013e+01 -2.000000000000e+01 0.0 
2.300000000013e+01 -2.000000000000e+01 0.0 
2.200000000013e+01 -2.000000000000e+01 0.0 
2.100000000013e+01 -2.000000000000e+01 0.0 
2.000000000013e+01 -2.000000000000e+01 0.0 
1.900000000013e+01 -2.000000000000e+01 0.0 
1.800000000013e+01 -2.000000000000e+01 0.0 
1.700000000012e+01 -2.000000000000e+01 0.0 
1.600000000011e+01 -2.000000000000e+01 0.0 
1.500000000011e+01 -2.000000000000e+01 0.0 
1.400000000010e+01 -2.000000000000e+01 0.0 
1.300000000009e+01 -2.000000000000e+01 0.0 
1.200000000009e+01 -2.000000000000e+01 0.0 
1.100000000008e+01 -2.000000000000e+01 0.0 
1.000000000007e+01 -2.000000000000e+01 0.0 
9.000000000064e+00 -2.000000000000e+01 0.0 
8.000000000057e+00 -2.000000000000e+01 0.0 
7.000000000050e+00 -2.000000000000e+01 0.0 
6.000000000043e+00 -2.000000000000e+01 0.0 
5.000000000036e+00 -2.000000000000e+01 0.0 
4.000000000028e+00 -2.000000000000e+01 0.0 
3.000000000021e+00 -2.000000000000e+01 0.0 
2.000000000014e+00 -2.000000000000e+01 0.0 
1.000000000007e+00 -2.000000000000e+01 0.0 
5.000000000000e+01 -1.100000000000e+01 0.0 
5.000000000000e+01 -1.200000000000e+01 0.0 
5.000000000000e+01 -1.300000000000e+01 0.0 
5.000000000000e+01 -1.400000000000e+01 0.0 
5.000000000000e+01 -1.500000000000e+01 0.0 
5.000000000000e+01 -1.600000000000e+01 0.0 
5.000000000000e+01 -1.700000000000e+01 0.0 
5.000000000000e+01 -1.800000000000e+01 0.0 
5.000000000000e+01 -1.900000000000e+01 0.0 
2.000000000000e+01 0.0 0.0 
3.500000000000e+01 -1.000000000000e+01 0.0 
2.150000000000e+01 -1.000000000000e+00 0.0 
2.300000000000e+01 -2.000000000000e+00 0.0 
2.450000000000e+01 -3.000000000000e+00 0.0 
2.600000000000e+01 -4.000000000000e+00 0.0 
2.750000000000e+01 -5.000000000000e+00 0.0 
2.900000000000e+01 -6.000000000000e+00 0.0 
3.050000000000e+01 -7.000000000000e+00 0.0 
3.200000000000e+01 -8.000000000000e+00 0.0 
3.350000000000e+01 -9.000000000000e+00 0.0 
5.000000000000e+01 -5.000000000000e+00 0.0 
5.000000000000e+01 -6.000000000000e+00 0.0 
5.000000000000e+01 -7.000000000000e+00 0.0 
5.000000000000e+01 -8.000000000000e+00 0.0 
5.000000000000e+01 -9.000000000000e+00 0.0 
4.900000000000e+01 -1.000000000000e+01 0.0 
4.800000000000e+01 -1.000000000000e+01 0.0 
4.700000000000e+01 -1.000000000000e+01 0.0 
4.600000000000e+01 -1.000000000000e+01 0.0 
4.500000000000e+01 -1.000000000000e+01 0.0 
4.400000000000e+01 -1.000000000000e+01 0.0 
4.300000000000e+01 -1.000000000000e+01 0.0 
4.200000000000e+01 -1.000000000000e+01 0.0 
4.100000000000e+01 -1.000000000000e+01 0.0 
4.000000000000e+01 -1.000000000000e+01 0.0 
3.900000000000e+01 -1.000000000000e+01 0.0 
3.800000000000e+01 -1.000000000000e+01 0.0 
3.700000000000e+01 -1.000000000000e+01 0.0 
3.600000000000e+01 -1.000000000000e+01 0.0 
1.900000000000e+01 0.0 0.0 
1.800000000000e+01 0.0 0.0 
1.700000000000e+01 0.0 0.0 
1.600000000000e+01 0.0 0.0 
1.500000000000e+01 0.0 0.0 
1.400000000000e+01 0.0 0.0 
1.300000000000e+01 0.0 0.0 
1.200000000000e+01 0.0 0.0 
1.100000000000e+01 0.0 0.0 
1.000000000000e+01 0.0 0.0 
9.000000000000e+00 0.0 0.0 
8.000000000000e+00 0.0 0.0 
7.000000000000e+00 0.0 0.0 
6.000000000000e+00 0.0 0.0 
5.000000000000e+00 0.0 0.0 
4.000000000000e+00 0.0 0.0 
3.000000000000e+00 0.0 0.0 
2.000000000000e+00 0.0 0.0 
1.000000000000e+00 0.0 0.0 
2.847826086957e+01 -5.000000000000e+00 0.0 
2.945652173913e+01 -5.000000000000e+00 0.0 
3.043478260870e+01 -5.000000000000e+00 0.0 
3.141304347826e+01 -5.000000000000e+00 0.0 
3.239130434783e+01 -5.000000000000e+00 0.0 
3.336956521739e+01 -5.000000000000e+00 0.0 
3.434782608696e+01 -5.000000000000e+00 0.0 
3.532608695652e+01 -5.000000000000e+00 0.0 
3.630434782609e+01 -5.000000000000e+00 0.0 
3.728260869565e+01 -5.000000000000e+00 0.0 
3.826086956522e+01 -5.000000000000e+00 0.0 
3.923913043478e+01 -5.000000000000e+00 0.0 
4.021739130435e+01 -5.000000000000e+00 0.0 
4.119565217391e+01 -5.000000000000e+00 0.0 
4.217391304348e+01 -5.000000000000e+00 0.0 
4.315217391304e+01 -5.000000000000e+00 0.0 
4.413043478261e+01 -5.000000000000e+00 0.0 
4.510869565217e+01 -5.000000000000e+00 0.0 
4.608695652174e+01 -5.000000000000e+00 0.0 
4.706521739130e+01 -5.000000000000e+00 0.0 
4.804347826087e+01 -5.000000000000e+00 0.0 
4.902173913043e+01 -5.000000000000e+00 0.0 
4.900000000001e+01 -6.000000000000e+00 0.0 
4.800000000003e+01 -6.000000000000e+00 0.0 
4.700000000004e+01 -6.000000000000e+00 0.0 
4.600000000006e+01 -6.000000000000e+00 0.0 
4.500000000007e+01 -6.000000000000e+00 0.0 
4.400000000009e+01 -6.000000000000e+00 0.0 
4.300000000010e+01 -6.000000000000e+00 0.0 
4.200000000012e+01 -6.000000000000e+00 0.0 
4.100000000013e+01 -6.000000000000e+00 0.0 
4.000000000014e+01 -6.000000000000e+00 0.0 
3.900000000014e+01 -6.000000000000e+00 0.0 
3.800000000012e+01 -6.000000000000e+00 0.0 
3.700000000010e+01 -6.000000000000e+00 0.0 
3.600000000008e+01 -6.000000000000e+00 0.0 
3.500000000006e+01 -6.000000000000e+00 0.0 
3.400000000005e+01 -6.000000000000e+00 0.0 
3.300000000003e+01 -6.000000000000e+00 0.0 
3.200000000001e+01 -6.000000000000e+00 0.0 
3.100000000000e+01 -6.000000000000e+00 0.0 
3.000000000000e+01 -6.000000000000e+00 0.0 
3.147499999998e+01 -7.000000000000e+00 0.0 
3.244999999998e+01 -7.000000000000e+00 0.0 
3.342499999998e+01 -7.000000000000e+00 0.0 
3.439999999998e+01 -7.000000000000e+00 0.0 
3.537499999998e+01 -7.000000000000e+00 0.0 
3.634999999998e+01 -7.000000000000e+00 0.0 
3.732499999998e+01 -7.000000000000e+00 0.0 
3.829999999998e+01 -7.000000000000e+00 0.0 
3.927499999999e+01 -7.000000000000e+00 0.0 
4.024999999999e+01 -7.000000000000e+00 0.0 
4.122499999999e+01 -7.000000000000e+00 0.0 
4.219999999999e+01 -7.000000000000e+00 0.0 
4.317499999999e+01 -7.000000000000e+00 0.0 
4.414999999999e+01 -7.000000000000e+00 0.0 
4.512499999999e+01 -7.000000000000e+00 0.0 
4.609999999999e+01 -7.000000000000e+00 0.0 
4.707500000000e+01 -7.000000000000e+00 0.0 
4.805000000000e+01 -7.000000000000e+00 0.0 
4.902500000000e+01 -7.000000000000e+00 0.0 
4.900000000000e+01 -8.000000000000e+00 0.0 
4.800000000000e+01 -8.000000000000e+00 0.0 
4.700000000000e+01 -8.000000000000e+00 0.0 
4.600000000000e+01 -8.000000000000e+00 0.0 
4.500000000000e+01 -8.000000000000e+00 0.0 
4.400000000000e+01 -8.000000000000e+00 0.0 
4.300000000000e+01 -8.000000000000e+00 0.0 
4.200000000000e+01 -8.000000000000e+00 0.0 
4.100000000000e+01 -8.000000000000e+00 0.0 
4.000000000000e+01 -8.000000000000e+00 0.0 
3.900000000000e+01 -8.000000000000e+00 0.0 
3.800000000000e+01 -8.000000000000e+00 0.0 
3.700000000000e+01 -8.000000000000e+00 0.0 
3.600000000000e+01 -8.000000000000e+00 0.0 
3.500000000000e+01 -8.000000000000e+00 0.0 
3.400000000000e+01 -8.000000000000e+00 0.0 
3.300000000000e+01 -8.000000000000e+00 0.0 
3.447058823527e+01 -9.000000000000e+00 0.0 
3.544117647055e+01 -9.000000000000e+00 0.0 
3.641176470582e+01 -9.000000000000e+00 0.0 
3.738235294109e+01 -9.000000000000e+00 0.0 
3.835294117637e+01 -9.000000000000e+00 0.0 
3.932352941164e+01 -9.000000000000e+00 0.0 
4.029411764691e+01 -9.000000000000e+00 0.0 
4.126470588219e+01 -9.000000000000e+00 0.0 
4.223529411748e+01 -9.000000000000e+00 0.0 
4.320588235279e+01 -9.000000000000e+00 0.0 
4.417647058811e+01 -9.000000000000e+00 0.0 
4.514705882342e+01 -9.000000000000e+00 0.0 
4.611764705874e+01 -9.000000000000e+00 0.0 
4.708823529405e+01 -9.000000000000e+00 0.0 
4.805882352937e+01 -9.000000000000e+00 0.0 
4.902941176468e+01 -9.000000000000e+00 0.0 
2.075000000000e+01 -5.000000000006e-01 0.0 
2.225000000000e+01 -1.500000000000e+00 0.0 
2.375000000000e+01 -2.500000000000e+00 0.0 
2.525000000000e+01 -3.500000000000e+00 0.0 
2.675000000000e+01 -4.500000000000e+00 0.0 
2.825000000000e+01 -5.500000000000e+00 0.0 
2.975000000000e+01 -6.500000000000e+00 0.0 
3.125000000000e+01 -7.500000000000e+00 0.0 
3.275000000000e+01 -8.500000000000e+00 0.0 
3.425000000000e+01 -9.500000000000e+00 0.0 
2.226951693683e+01 -2.403913980114e+00 0.0 
1.650149491944e+01 -1.913490915758e+01 0.0 
1.050042386896e+01 -8.504605092970e-01 0.0 
1.553146524712e+01 -8.281255032105e-01 0.0 
1.150000000008e+01 -1.913397459621e+01 0.0 
2.530060260647e+01 -4.428336431260e+00 0.0 
8.651114563942e-01 -1.052096295641e+01 0.0 
2.050000000013e+01 -1.913397459622e+01 0.0 
2.819198729811e+01 -6.399519052838e+00 0.0 
2.445670302931e+01 -1.915649188023e+01 0.0 
3.117591465718e+01 -8.394293040695e+00 0.0 
7.465053044742e+00 -1.920411160581e+01 0.0 
6.398295709691e+00 -8.230098819370e-01 0.0 
2.849659607461e+01 -1.914296187762e+01 0.0 
3.418732642882e+01 -1.040265792588e+01 0.0 
8.386450935063e-01 -6.533605142809e+00 0.0 
9.178661865596e-01 -1.329769195597e+01 0.0 
3.149448624493e+01 -1.910466733764e+01 0.0 
3.552916747426e+01 -1.914628590759e+01 0.0 
4.449210346537e+01 -1.914359085008e+01 0.0 
4.140975975145e+01 -1.906941860733e+01 0.0 
3.847475958753e+01 -1.916622382724e+01 0.0 
3.653774794640e+01 -1.088712800241e+01 0.0 
4.047886341787e+01 -1.090139014048e+01 0.0 
4.348006339825e+01 -1.092792621489e+01 0.0 
4.919519968029e+01 -1.451526755068e+01 0.0 
4.500000000032e+00 -1.913397459621e+01 0.0 
1.856136921614e+01 -8.212235170404e-01 0.0 
3.499895312306e+00 -8.661165539723e-01 0.0 
9.076088696565e-01 -1.642306201891e+01 0.0 
4.655174095477e+01 -1.086183387525e+01 0.0 
9.430688970604e-01 -3.496112672958e+00 0.0 
3.353992337063e+01 -1.901202090820e+01 0.0 
2.249746016977e+01 -1.921262287282e+01 0.0 
2.650122741777e+01 -1.916123026018e+01 0.0 
1.863571384842e+01 -1.908325534840e+01 0.0 
1.450089971693e+01 -1.917691901860e+01 0.0 
1.350044695317e+01 -8.659695299584e-01 0.0 
3.849987469880e+01 -1.084154983397e+01 0.0 
9.454419857884e+00 -1.900818879936e+01 0.0 
4.917398660523e+01 -1.645692866081e+01 0.0 
8.500000000000e+00 -8.660254037844e-01 0.0 
8.660319230785e-01 -8.500111697188e+00 0.0 
4.649022621545e+01 -1.930506220113e+01 0.0 
2.667688107845e+01 -5.420288124331e+00 0.0 
2.379251615665e+01 -3.412225477429e+00 0.0 
2.966631491830e+01 -7.389030232731e+00 0.0 
3.267915035995e+01 -9.396934932445e+00 0.0 
2.074836922338e+01 -1.320054020319e+00 0.0 
4.915985743621e+01 -1.261973384855e+01 0.0 
2.527129768623e+00 -1.931592414663e+01 0.0 
1.538676247410e+00 -8.436956619311e-01 0.0 
4.908096641539e+01 -1.842484004551e+01 0.0 
3.478612492673e+01 -1.090889364140e+01 0.0 
3.409757055860e+01 -1.131991530427e+01 0.0 
3.501895309466e+01 -1.177687842717e+01 0.0 
3.407758073088e+01 -1.224293381580e+01 0.0 
3.484541875390e+01 -1.277051428430e+01 0.0 
3.400322025842e+01 -1.319022775640e+01 0.0 
3.321672625034e+01 -1.266779191233e+01 0.0 
3.315244139236e+01 -1.360984106532e+01 0.0 
3.236335186892e+01 -1.308463225210e+01 0.0 
3.478337442841e+01 -1.372341158982e+01 0.0 
3.230105923633e+01 -1.403023731610e+01 0.0 
3.150954055289e+01 -1.350301767700e+01 0.0 
3.144604792090e+01 -1.444931742516e+01 0.0 
3.065653897123e+01 -1.392357262981e+01 0.0 
3.071897610812e+01 -1.297447031198e+01 0.0 
2.986790411740e+01 -1.339226181535e+01 0.0 
2.993181466745e+01 -1.244703272398e+01 0.0 
2.908023061869e+01 -1.286254537734e+01 0.0 
2.901619051372e+01 -1.380881655279e+01 0.0 
2.822986160390e+01 -1.327695262116e+01 0.0 
2.829453476870e+01 -1.233265343811e+01 0.0 
2.744542905518e+01 -1.274510491105e+01 0.0 
2.751120089246e+01 -1.180368086886e+01 0.0 
2.666218649885e+01 -1.221619339205e+01 0.0 
2.672371209234e+01 -1.127125228527e+01 0.0 
2.587763216302e+01 -1.168539979114e+01 0.0 
2.581165585299e+01 -1.262994410089e+01 0.0 
2.502890882577e+01 -1.209827323619e+01 0.0 
2.509631327757e+01 -1.115492410304e+01 0.0 
2.424662989877e+01 -1.156630981079e+01 0.0 
2.431704046904e+01 -1.062389179334e+01 0.0 
2.346445438728e+01 -1.103427680694e+01 0.0 
2.339382552877e+01 -1.197964871788e+01 0.0 
2.260936050780e+01 -1.144513277642e+01 0.0 
2.268075012022e+01 -1.049911928216e+01 0.0 
2.182525737661e+01 -1.090920811464e+01 0.0 
2.189682319817e+01 -9.961716944568e+00 0.0 
2.104174127792e+01 -1.037266986667e+01 0.0 
2.111304367575e+01 -9.424179358711e+00 0.0 
2.025306185381e+01 -9.832727364719e+00 0.0 
2.018141124247e+01 -1.079140628871e+01 0.0 
1.938594498257e+01 -1.025147354112e+01 0.0 
1.946106490453e+01 -9.288010758448e+00 0.0 
1.858929958352e+01 -9.706319802516e+00 0.0 
1.851540991219e+01 -1.067205988724e+01 0.0 
1.771485303178e+01 -1.012504443115e+01 0.0 
1.764134552256e+01 -1.109360378538e+01 0.0 
1.683745148095e+01 -1.054496365337e+01 0.0 
1.691852964353e+01 -9.582555261178e+00 0.0 
1.603603813062e+01 -1.000160132379e+01 0.0 
1.595824239350e+01 -1.096750698862e+01 0.0 
1.515080624291e+01 -1.041639501931e+01 0.0 
1.523171602559e+01 -9.451711491453e+00 0.0 
1.434621060709e+01 -9.871956467464e+00 0.0 
1.426777178765e+01 -1.083749501371e+01 0.0 
1.345775282374e+01 -1.028803175500e+01 0.0 
1.354103873368e+01 -9.324918457162e+00 0.0 
1.265072018622e+01 -9.742612837270e+00 0.0 
1.257285762070e+01 -1.071557782384e+01 0.0 
1.175874815690e+01 -1.015972324288e+01 0.0 
1.184203019714e+01 -9.193604071377e+00 0.0 
1.094927709905e+01 -9.612103238656e+00 0.0 
1.086938022910e+01 -1.058685085646e+01 0.0 
1.005424098961e+01 -1.002939116380e+01 0.0 
9.977974613295e+00 -1.101324897989e+01 0.0 
1.012915646404e+01 -9.051815821181e+00 0.0 
9.237127782494e+00 -9.471239055559e+00 0.0 
9.308426593771e+00 -8.483376461131e+00 0.0 
8.418806073345e+00 -8.910712374517e+00 0.0 
2.253688464062e+01 -1.239459402279e+01 0.0 
8.495126726666e+00 -7.921646665254e+00 0.0 
9.389727383206e+00 -7.512103628377e+00 0.0 
7.601560812974e+00 -8.349460349344e+00 0.0 
7.525680547759e+00 -9.339736686940e+00 0.0 
7.677888324502e+00 -7.359727833346e+00 0.0 
6.782001206724e+00 -7.788454494773e+00 0.0 
6.858778622885e+00 -6.797338062822e+00 0.0 
2.196596590865e+01 -8.979025665442e+00 0.0 
2.816540108272e+01 -1.422634142353e+01 0.0 
5.961601194403e+00 -7.226824010712e+00 0.0 
6.038171749656e+00 -6.234825887079e+00 0.0 
6.936257279557e+00 -5.805287640737e+00 0.0 
6.115068918323e+00 -5.242109758768e+00 0.0 
3.564391741903e+01 -1.329240553876e+01 0.0 
3.558115605778e+01 -1.425902892003e+01 0.0 
3.645445282201e+01 -1.381970786460e+01 0.0 
3.639744204358e+01 -1.479198128612e+01 0.0 
3.727266909778e+01 -1.435399586226e+01 0.0 
5.216667013081e+00 -5.671788584287e+00 0.0 
3.220697293295e+01 -1.499594545107e+01 0.0 
3.551112158269e+01 -1.523479869250e+01 0.0 
2.836056961467e+01 -1.139032434851e+01 0.0 
2.516730388602e+01 -1.021382726837e+01 0.0 
1.844436907403e+01 -1.164097215196e+01 0.0 
5.885434318740e+00 -8.218694781467e+00 0.0 
5.064071066867e+00 -7.656614643901e+00 0.0 
4.988089103470e+00 -8.649722082718e+00 0.0 
1.079421050408e+01 -1.157014985435e+01 0.0 
9.902420005256e+00 -1.199903342656e+01 0.0 
1.071994252214e+01 -1.255727909771e+01 0.0 
9.826974788171e+00 -1.298659581767e+01 0.0 
1.064607883789e+01 -1.354595476388e+01 0.0 
9.751541265343e+00 -1.397556905071e+01 0.0 
8.932296185869e+00 -1.341553353988e+01 0.0 
8.856399248106e+00 -1.440570715508e+01 0.0 
8.036186803543e+00 -1.384470558472e+01 0.0 
1.057112875118e+01 -1.453516759081e+01 0.0 
1.146582585687e+01 -1.410539926903e+01 0.0 
7.959894480382e+00 -1.483563350928e+01 0.0 
7.138792279156e+00 -1.427465094140e+01 0.0 
7.062506792418e+00 -1.526615385482e+01 0.0 
6.240693558277e+00 -1.470508863040e+01 0.0 
6.316957575451e+00 -1.371212581281e+01 0.0 
5.418183007107e+00 -1.414253605022e+01 0.0 
5.494748364428e+00 -1.314886770603e+01 0.0 
1.756825565873e+01 -1.206433872514e+01 0.0 
1.837565773345e+01 -1.261356468266e+01 0.0 
1.749574831391e+01 -1.303769280014e+01 0.0 
1.830539187332e+01 -1.358828364284e+01 0.0 
1.742278925170e+01 -1.401367746928e+01 0.0 
1.823303007798e+01 -1.456432294258e+01 0.0 
1.734941694138e+01 -1.499213734361e+01 0.0 
1.653760041637e+01 -1.443920312098e+01 0.0 
3.056237977307e+01 -1.487132260174e+01 0.0 
1.866469084762e+01 -8.742953000418e+00 0.0 
1.953669694916e+01 -8.326038909849e+00 0.0 
1.874194303780e+01 -7.780688158966e+00 0.0 
1.961032016741e+01 -7.366854697285e+00 0.0 
1.881715755159e+01 -6.821102209649e+00 0.0 
1.968369797150e+01 -6.407747217358e+00 0.0 
1.889237123259e+01 -5.858375520026e+00 0.0 
1.802038875366e+01 -6.276202618170e+00 0.0 
1.809793837984e+01 -5.307629520489e+00 0.0 
1.721985207997e+01 -5.728242054488e+00 0.0 
1.729850893523e+01 -4.756990819347e+00 0.0 
1.641745664240e+01 -5.174636548624e+00 0.0 
2.495978509456e+01 -1.304406404294e+01 0.0 
1.911567814831e+01 -1.413854250293e+01 0.0 
1.904387332608e+01 -1.511463127723e+01 0.0 
1.992115934240e+01 -1.468788025898e+01 0.0 
7.013706899628e+00 -4.812582868662e+00 0.0 
5.342091874585e+00 -1.513658157269e+01 0.0 
1.139098043784e+01 -1.509488509480e+01 0.0 
1.228151810610e+01 -1.465617481983e+01 0.0 
1.646373110164e+01 -1.541993323337e+01 0.0 
5.293328636712e+00 -4.678385108584e+00 0.0 
1.975965862987e+01 -5.448124345648e+00 0.0 
2.054318374236e+01 -5.992561293251e+00 0.0 
3.721453439063e+01 -1.533216152738e+01 0.0 
3.809302733893e+01 -1.489235527381e+01 0.0 
1.220852788900e+01 -1.565304565230e+01 0.0 
4.394120899730e+00 -5.108397613210e+00 0.0 
8.779354620288e+00 -1.539524721159e+01 0.0 
1.817791047702e+01 -4.338570146253e+00 0.0 
4.518860013839e+00 -1.457343189307e+01 0.0 
4.442712140414e+00 -1.556841391069e+01 0.0 
8.115343466391e+00 -1.285760324283e+01 0.0 
1.985334703171e+01 -1.566478400426e+01 0.0 
2.071953850276e+01 -1.522074243119e+01 0.0 
1.634012953883e+01 -6.154777738301e+00 0.0 
1.553479994708e+01 -5.593730508879e+00 0.0 
1.561265946942e+01 -4.617761762647e+00 0.0 
1.470674212978e+01 -5.064576488228e+00 0.0 
1.464498299883e+01 -6.026514471420e+00 0.0 
1.383271561817e+01 -5.467796261169e+00 0.0 
1.389241253067e+01 -4.504338666645e+00 0.0 
1.301868735463e+01 -4.907185188626e+00 0.0 
1.294514184846e+01 -5.888160903592e+00 0.0 
1.212955968622e+01 -5.328262335277e+00 0.0 
1.220721122383e+01 -4.341264976687e+00 0.0 
1.131324345897e+01 -4.766773516508e+00 0.0 
5.266597955397e+00 -1.613148974258e+01 0.0 
1.737805990867e+01 -3.786677807525e+00 0.0 
3.078438094513e+01 -1.203225297748e+01 0.0 
1.131569882285e+01 -1.608511932110e+01 0.0 
1.728478341782e+01 -1.596017432313e+01 0.0 
3.803465906019e+01 -1.587509751228e+01 0.0 
3.891681276677e+01 -1.543395196905e+01 0.0 
3.897340985302e+01 -1.444710288980e+01 0.0 
3.980095968193e+01 -1.499059496613e+01 0.0 
3.974334598189e+01 -1.597921884150e+01 0.0 
4.062964983717e+01 -1.553518690417e+01 0.0 
4.068729602479e+01 -1.454434445295e+01 0.0 
4.151772679790e+01 -1.508974196007e+01 0.0 
4.157505195739e+01 -1.409694289912e+01 0.0 
4.240699932656e+01 -1.464347955968e+01 0.0 
4.234898051011e+01 -1.563721375790e+01 0.0 
4.323934606035e+01 -1.519082036405e+01 0.0 
4.329740528208e+01 -1.419587509788e+01 0.0 
4.413056841369e+01 -1.474359631875e+01 0.0 
4.418850110108e+01 -1.374786684042e+01 0.0 
4.502219770667e+01 -1.429605103525e+01 0.0 
4.496411937907e+01 -1.529215882720e+01 0.0 
4.490027319897e+00 -4.154167794594e+00 0.0 
1.565080385988e+01 -1.486411982419e+01 0.0 
1.557610691279e+01 -1.584855627870e+01 0.0 
4.195350646612e+00 -8.089117689096e+00 0.0 
4.124027797830e+00 -9.082831955007e+00 0.0 
4.917944318925e+00 -9.643530901533e+00 0.0 
4.020105689502e+00 -1.007439673661e+01 0.0 
4.587185899277e+01 -1.484039992728e+01 0.0 
4.580078661551e+01 -1.584043391042e+01 0.0 
2.061956522375e+01 -5.046701343981e+00 0.0 
2.139572955529e+01 -5.579553449826e+00 0.0 
3.715344357292e+01 -1.631485124583e+01 0.0 
3.618886196443e+00 -1.500471207167e+01 0.0 
3.695606940204e+00 -1.400939692294e+01 0.0 
2.438890661143e+01 -9.686110599723e+00 0.0 
2.523267572778e+01 -9.276766000622e+00 0.0 
2.446094171539e+01 -8.751904591412e+00 0.0 
2.529089822738e+01 -8.321495612547e+00 0.0 
2.606882688827e+01 -8.864724051119e+00 0.0 
2.452116646430e+01 -7.792756462004e+00 0.0 
1.235543269617e+01 -1.365845617339e+01 0.0 
4.318116874181e+01 -1.618567469992e+01 0.0 
7.835066111909e+00 -5.376366223896e+00 0.0 
7.905687335704e+00 -4.382539065697e+00 0.0 
3.542640009567e+00 -1.600035116542e+01 0.0 
1.572431503071e+01 -1.388358386695e+01 0.0 
2.574684696680e+01 -1.357896141127e+01 0.0 
2.488842657651e+01 -1.399674354505e+01 0.0 
2.568301775611e+01 -1.453552048595e+01 0.0 
2.481535572009e+01 -1.495542756508e+01 0.0 
2.561729699688e+01 -1.549784648532e+01 0.0 
2.474623061296e+01 -1.592058894178e+01 0.0 
2.394234041695e+01 -1.537572575827e+01 0.0 
2.065825452567e+01 -1.621899055217e+01 0.0 
2.387180528935e+01 -1.634552264687e+01 0.0 
4.585364400844e+01 -1.383912334080e+01 0.0 
1.998744432052e+01 -1.370317155541e+01 0.0 
1.205356951443e+01 -6.313580285498e+00 0.0 
5.396543905849e+00 -3.731818611283e+00 0.0 
1.139652573295e+01 -3.745819399350e+00 0.0 
3.574124306703e+00 -4.551456826011e+00 0.0 
3.494140761930e+00 -5.539787055649e+00 0.0 
1.213651452413e+01 -1.664505033022e+01 0.0 
2.555045568519e+01 -1.646529356744e+01 0.0 
2.641671114986e+01 -1.603899382371e+01 0.0 
2.612920721894e+01 -7.906435260873e+00 0.0 
2.690339829698e+01 -8.456969591431e+00 0.0 
1.978024383368e+01 -1.664410216353e+01 0.0 
3.732829979082e+01 -1.336926601859e+01 0.0 
4.074336584605e+01 -1.355133328401e+01 0.0 
4.163204691081e+01 -1.310280943992e+01 0.0 
3.773826114429e+00 -3.493444309145e+00 0.0 
1.228783001032e+01 -3.374822835872e+00 0.0 
4.057110462520e+01 -1.652588478000e+01 0.0 
2.132535497898e+01 -6.523623360525e+00 0.0 
2.216932532211e+01 -6.110044769206e+00 0.0 
1.825781152128e+01 -3.370146817147e+00 0.0 
1.745679445888e+01 -2.812942552063e+00 0.0 
4.666517057280e+01 -1.539981381543e+01 0.0 
4.660575894464e+01 -1.639014410186e+01 0.0 
4.838230979954e+00 -1.063643436446e+01 0.0 
3.938942630206e+00 -1.106778981745e+01 0.0 
1.302967218620e+01 -1.621373452436e+01 0.0 
1.049548003190e+01 -4.204825123240e+00 0.0 
4.573571907195e+01 -1.683820511148e+01 0.0 
1.483686335807e+01 -1.430849689310e+01 0.0 
1.490982658890e+01 -1.332679386284e+01 0.0 
3.190805600162e+00 -9.510968358545e+00 0.0 
2.146625721848e+01 -4.642437303115e+00 0.0 
2.069866208266e+01 -4.111852942193e+00 0.0 
1.286859345584e+01 -6.873252723348e+00 0.0 
1.041794493184e+01 -5.194814260291e+00 0.0 
2.671081808965e+00 -4.976806516331e+00 0.0 
1.295786792925e+01 -1.720506531799e+01 0.0 
3.968438206511e+01 -1.696869067241e+01 0.0 
2.308550456051e+01 -1.579963151273e+01 0.0 
2.315593682844e+01 -1.482967445235e+01 0.0 
2.299471449450e+01 -1.677069968132e+01 0.0 
1.057344714696e+01 -3.214252277840e+00 0.0 
1.124057603753e+01 -1.707713739755e+01 0.0 
2.718402535754e+00 -1.543629882103e+01 0.0 
2.638549692805e+01 -1.696744916809e+01 0.0 
2.723416349007e+01 -1.658104204545e+01 0.0 
2.210193351704e+01 -7.046769643417e+00 0.0 
2.295180925161e+01 -6.657397605239e+00 0.0 
2.301355235833e+01 -5.709111896800e+00 0.0 
2.379052718281e+01 -6.254965406962e+00 0.0 
3.243528601237e+01 -1.214181853533e+01 0.0 
2.287977995457e+01 -7.583722368300e+00 0.0 
2.999876029544e+01 -1.150837653096e+01 0.0 
3.084435366963e+01 -1.109693775882e+01 0.0 
3.006650579669e+01 -1.057778994262e+01 0.0 
2.683802665066e+01 -9.386863216633e+00 0.0 
2.768641973621e+01 -8.988883915666e+00 0.0 
2.040296980397e+01 -7.903629133404e+00 0.0 
1.925235024054e+01 -1.218872783130e+01 0.0 
5.735667000424e+00 -1.020577277283e+01 0.0 
6.396559909872e+00 -1.272326295703e+01 0.0 
1.161199420714e+01 -1.212812778229e+01 0.0 
4.229046132615e+01 -1.663084237572e+01 0.0 
4.312275399692e+01 -1.718087491556e+01 0.0 
4.335502068163e+01 -1.320039231514e+01 0.0 
4.424630298089e+01 -1.275160688731e+01 0.0 
7.090116643816e+00 -3.818998061530e+00 0.0 
7.989472176569e+00 -3.389238711200e+00 0.0 
9.085824861778e+00 -1.144036167408e+01 0.0 
1.041972423731e+01 -1.651614080893e+01 0.0 
3.797525112640e+01 -1.686052038746e+01 0.0 
3.709114253394e+01 -1.730125999865e+01 0.0 
3.626966748340e+01 -1.675477052919e+01 0.0 
1.385164591440e+01 -1.677597757552e+01 0.0 
1.787152588784e+01 -8.198993896093e+00 0.0 
1.668849729812e+01 -1.248560611628e+01 0.0 
1.659546177905e+01 -3.232482605530e+00 0.0 
2.332214717345e+01 -1.292598167641e+01 0.0 
7.168238450786e+00 -2.824711686516e+00 0.0 
2.894878403906e+01 -1.475427524446e+01 0.0 
2.646763248247e+00 -1.643270107952e+01 0.0 
3.467431944285e+00 -1.699648837348e+01 0.0 
2.059475877282e+01 -1.719473628526e+01 0.0 
3.333868355437e+01 -1.080596971682e+01 0.0 
2.246451062637e+01 -1.334557761546e+01 0.0 
2.167821896388e+01 -1.280847834858e+01 0.0 
3.089653185767e+01 -1.017198487212e+01 0.0 
3.012604365669e+01 -9.657298805968e+00 0.0 
2.929627299435e+01 -1.006100135274e+01 0.0 
2.936201435219e+01 -9.136748899251e+00 0.0 
1.198219052702e+01 -7.291887238230e+00 0.0 
1.116702076035e+01 -6.731976101053e+00 0.0 
2.551388807505e+01 -1.746927036981e+01 0.0 
2.378639090370e+01 -1.728678807149e+01 0.0 
2.718543627188e+01 -1.748668016909e+01 0.0 
2.804681050301e+01 -1.712626668293e+01 0.0 
1.970737034667e+01 -1.762317646822e+01 0.0 
1.889535776135e+01 -1.707158098231e+01 0.0 
2.593777711283e+00 -5.971157087874e+00 0.0 
2.773468281110e+01 -8.067164273938e+00 0.0 
4.051205884347e+01 -1.751819982458e+01 0.0 
3.166903145421e+01 -1.068032992414e+01 0.0 
1.033042452886e+01 -1.748285844336e+01 0.0 
9.519274604626e+00 -1.694349240233e+01 0.0 
1.668308673328e+01 -2.255861778986e+00 0.0 
1.570531902832e+01 -2.676795860126e+00 0.0 
4.655826903379e+01 -1.736656245706e+01 0.0 
2.384148070773e+01 -5.328744256413e+00 0.0 
2.460255123641e+01 -5.852182672816e+00 0.0 
2.306638135119e+01 -4.798935440613e+00 0.0 
8.467720450578e-01 -1.849576263072e+01 0.0 
4.849657322345e+01 -1.084860705506e+01 0.0 
2.565860899507e+00 -1.742859793981e+01 0.0 
2.764418872564e+01 -9.927142821799e+00 0.0 
4.565165880064e+01 -1.785336695404e+01 0.0 
2.162231831329e+01 -1.376528337468e+01 0.0 
2.360646352969e+01 -9.136041963102e+00 0.0 
1.392738739903e+01 -1.578285505772e+01 0.0 
4.756405947478e+01 -1.683706841809e+01 0.0 
4.740895034054e+01 -1.793766756892e+01 0.0 
4.080779328826e+01 -1.257387192544e+01 0.0 
4.168907939671e+01 -1.210739129181e+01 0.0 
3.991197722154e+01 -1.300815793917e+01 0.0 
1.905536506762e+01 -3.940076697685e+00 0.0 
1.923879596617e+01 -2.875000734166e+00 0.0 
4.401386745746e+01 -1.673483229438e+01 0.0 
4.247233362525e+00 -7.094581653070e+00 0.0 
3.286051630211e+00 -7.635300020553e+00 0.0 
9.609533347623e+00 -4.594311677967e+00 0.0 
9.523554636369e+00 -5.595597029530e+00 0.0 
5.660336628893e+00 -1.119290329628e+01 0.0 
6.558070063295e+00 -1.076385809362e+01 0.0 
2.809866407414e+01 -1.518037766799e+01 0.0 
2.888868674504e+01 -1.570360690070e+01 0.0 
2.654431550819e+01 -1.411217777162e+01 0.0 
1.402158265969e+01 -1.375404617952e+01 0.0 
1.409592494026e+01 -1.277071998942e+01 0.0 
1.499355196178e+01 -1.235270737023e+01 0.0 
4.221535326155e+01 -1.759335617494e+01 0.0 
4.305583287033e+01 -1.822663146802e+01 0.0 
1.280748808359e+01 -7.834332838285e+00 0.0 
1.368988389326e+01 -7.420529606172e+00 0.0 
1.110091796060e+01 -7.683966794328e+00 0.0 
3.963446145980e+01 -1.794331310122e+01 0.0 
3.423932362213e+00 -1.796415590455e+01 0.0 
4.280814572302e+00 -1.752272834860e+01 0.0 
8.050136380041e+00 -2.421582378631e+00 0.0 
8.888674091650e+00 -2.984264211327e+00 0.0 
2.152839430898e+01 -3.732609965436e+00 0.0 
2.077799585292e+01 -3.183896021866e+00 0.0 
3.618719395821e+01 -1.770276572576e+01 0.0 
3.538165138340e+01 -1.718709995539e+01 0.0 
3.702925326420e+01 -1.828844288807e+01 0.0 
1.756739438711e+00 -5.353284859169e+00 0.0 
2.233710191104e+01 -1.527265621324e+01 0.0 
1.389483555057e+01 -1.771797164730e+01 0.0 
1.475634224300e+01 -1.728357428390e+01 0.0 
1.298797563052e+01 -1.825968924755e+01 0.0 
2.145331271866e+01 -1.673705379077e+01 0.0 
2.133282821169e+01 -1.769400773673e+01 0.0 
2.292139194136e+01 -1.774915400288e+01 0.0 
1.750750053243e+01 -1.861475593469e+00 0.0 
4.830478841772e+01 -1.752611802221e+01 0.0 
4.341203507805e+01 -1.220326745522e+01 0.0 
1.685254151866e+01 -1.443085301632e+00 0.0 
4.431538535165e+01 -1.171841387375e+01 0.0 
4.511308610496e+01 -1.229557320599e+01 0.0 
4.510133242889e+01 -1.123680627466e+01 0.0 
1.846818030617e+00 -4.410877617069e+00 0.0 
3.995468694584e+01 -1.186571542989e+01 0.0 
3.901387459804e+01 -1.242507616755e+01 0.0 
8.966735877533e+00 -1.837818700423e+00 0.0 
4.049310011091e+01 -1.848269508791e+01 0.0 
7.278862053803e+00 -1.918523922691e+00 0.0 
6.429715522129e+00 -2.316676521184e+00 0.0 
9.443505505022e+00 -1.792198868094e+01 0.0 
8.620386951051e+00 -1.737590365556e+01 0.0 
8.571868171503e+00 -1.834436667826e+01 0.0 
7.758629848526e+00 -1.775677907213e+01 0.0 
7.806648388584e+00 -1.680761266021e+01 0.0 
6.908555145436e+00 -1.723746463044e+01 0.0 
4.251709122090e+01 -1.156937480156e+01 0.0 
6.931136405615e+00 -1.832465719263e+01 0.0 
6.015545461353e+00 -1.768865355295e+01 0.0 
5.960535926343e+00 -1.872011001764e+01 0.0 
3.023253444786e+01 -8.761960642196e+00 0.0 
2.454622702599e+01 -6.749421992767e+00 0.0 
2.537499741604e+01 -6.347634963783e+00 0.0 
2.544077378460e+01 -5.431358513649e+00 0.0 
2.801367161747e+01 -1.820907270221e+01 0.0 
2.884507806914e+01 -1.762032095326e+01 0.0 
1.821474531936e+00 -1.588901260460e+01 0.0 
1.821006262604e+00 -1.489370287756e+01 0.0 
4.599962488908e+01 -1.176478780598e+01 0.0 
4.705457470007e+01 -1.172182804229e+01 0.0 
4.667668314802e+01 -1.263464558483e+01 0.0 
4.759648056504e+01 -1.252380987933e+01 0.0 
4.728041618103e+01 -1.341928568376e+01 0.0 
4.825209352360e+01 -1.330491640804e+01 0.0 
4.778118233428e+01 -1.420151961695e+01 0.0 
2.388192727579e+01 -1.826934810142e+01 0.0 
2.381714684947e+01 -4.385917965223e+00 0.0 
3.172733219247e+01 -9.758744265248e+00 0.0 
1.882012070658e+01 -1.805540597212e+01 0.0 
1.805667505243e+01 -1.742221226236e+01 0.0 
2.852599958080e+01 -8.597196079481e+00 0.0 
2.856486123437e+01 -7.661382718527e+00 0.0 
1.111792842875e+01 -1.818223852980e+01 0.0 
2.203322722466e+01 -7.986646678802e+00 0.0 
3.955703676900e+01 -1.903246763601e+01 0.0 
1.944842206513e+01 -8.038750575182e-01 0.0 
1.909882767783e+01 -1.746322740933e+00 0.0 
2.281147422941e+01 -8.525912918334e+00 0.0 
2.850633001468e+01 -9.533271335986e+00 0.0 
2.532883344309e+01 -7.308951659710e+00 0.0 
2.620475466461e+01 -6.979208585400e+00 0.0 
1.396278270396e+01 -1.475095389807e+01 0.0 
9.791001166724e+00 -2.554159793552e+00 0.0 
2.229293380421e+01 -4.269762271052e+00 0.0 
4.677238984118e+01 -1.430071795514e+01 0.0 
2.228658385918e+01 -3.344747535984e+00 0.0 
8.940223674553e-01 -1.543595733415e+01 0.0 
2.118566862474e+01 -8.435876987696e+00 0.0 
2.678325936437e+01 -1.032621195706e+01 0.0 
2.223400220487e+01 -5.179046761770e+00 0.0 
2.375370625384e+01 -7.251580562134e+00 0.0 
3.156971327386e+01 -1.255534750737e+01 0.0 
3.328226391312e+01 -1.172914813316e+01 0.0 
3.250948774219e+01 -1.120157009348e+01 0.0 
2.032993445717e+01 -8.867880112202e+00 0.0 
2.697226974856e+01 -7.536633082045e+00 0.0 
2.707377810386e+01 -6.590835263295e+00 0.0 
2.914099246827e+01 -1.191678458549e+01 0.0 
3.544824072239e+01 -1.621126558525e+01 0.0 
3.456511855436e+01 -1.665054783843e+01 0.0 
3.448395810225e+01 -1.759117813016e+01 0.0 
3.368378673938e+01 -1.708037781328e+01 0.0 
3.375560452567e+01 -1.610973066913e+01 0.0 
3.288001547988e+01 -1.654324255651e+01 0.0 
3.282475929147e+01 -1.749725654692e+01 0.0 
3.199880906313e+01 -1.697294088625e+01 0.0 
3.197001272932e+01 -1.811667776864e+01 0.0 
3.111884713021e+01 -1.742166785755e+01 0.0 
3.120418962865e+01 -1.642155709385e+01 0.0 
3.034666704371e+01 -1.683123833816e+01 0.0 
3.026224379976e+01 -1.772592851714e+01 0.0 
3.046632362943e+01 -1.582232843075e+01 0.0 
1.961344017324e+01 -1.857459447985e+01 0.0 
2.274975894774e+01 -9.532738811922e+00 0.0 
1.833923246887e+01 -2.396746883672e+00 0.0 
1.988859500848e+01 -2.249244376594e+00 0.0 
2.758045562861e+01 -1.086434261689e+01 0.0 
3.247300178163e+01 -1.909930104252e+01 0.0 
3.461947482503e+01 -1.911879848019e+01 0.0 
2.047161538662e+01 -6.941478180358e+00 0.0 
2.750230940214e+01 -1.915490590764e+01 0.0 
3.165081350803e+01 -1.161860780120e+01 0.0 
1.897456727641e+01 -4.889634688522e+00 0.0 
2.549338539756e+01 -1.914858252089e+01 0.0 
3.462873135081e+01 -1.567482276144e+01 0.0 
3.384432415243e+01 -1.512280684518e+01 0.0 
3.471433767690e+01 -1.469086942990e+01 0.0 
3.651470373046e+01 -1.918207952149e+01 0.0 
3.901742690249e+01 -1.345028556517e+01 0.0 
2.153224102692e+01 -1.920169709333e+01 0.0 
1.918382939341e+01 -1.316226275662e+01 0.0 
2.005389162382e+01 -1.271962165174e+01 0.0 
2.011472087878e+01 -1.175029352900e+01 0.0 
3.210679478412e+01 -1.598038618242e+01 0.0 
1.752175226543e+01 -1.914713022656e+01 0.0 
1.696897240059e+01 -1.832772588765e+01 0.0 
1.599682523337e+01 -1.832599992024e+01 0.0 
1.644507199462e+01 -1.743697981535e+01 0.0 
1.549987712903e+01 -1.915192375101e+01 0.0 
3.050250861901e+01 -1.918943550234e+01 0.0 
2.949944061527e+01 -1.922950455235e+01 0.0 
1.375892575273e+01 -6.447160534926e+00 0.0 
1.457223670180e+01 -7.006709243857e+00 0.0 
1.450818793236e+01 -7.965943451779e+00 0.0 
1.538804712402e+01 -7.553409623699e+00 0.0 
1.545817644768e+01 -6.580929593419e+00 0.0 
1.626506893751e+01 -7.129032608911e+00 0.0 
1.619833811522e+01 -8.086588580887e+00 0.0 
1.714448609609e+01 -6.697429609777e+00 0.0 
2.887616543568e+01 -1.668015232137e+01 0.0 
1.349814589130e+01 -1.918225301544e+01 0.0 
1.153887772210e+01 -1.311384581217e+01 0.0 
1.242708159886e+01 -1.267046795531e+01 0.0 
1.249799674267e+01 -1.169005616014e+01 0.0 
6.631723893693e+00 -9.774184881867e+00 0.0 
7.451471631867e+00 -1.033148796006e+01 0.0 
7.377795355458e+00 -1.132196345268e+01 0.0 
5.810931797536e+00 -9.211654212252e+00 0.0 
2.402683899133e+01 -1.441378562320e+01 0.0 
1.249768692036e+01 -1.917388426624e+01 0.0 
1.580373499437e+01 -1.290751860664e+01 0.0 
8.344650507834e+00 -9.898403995170e+00 0.0 
3.750622115305e+01 -1.086526401533e+01 0.0 
3.699391251667e+01 -1.171695900794e+01 0.0 
3.606517829518e+01 -1.173717504500e+01 0.0 
3.650257641795e+01 -1.270047380221e+01 0.0 
3.808951488918e+01 -1.183518714175e+01 0.0 
4.760380962420e+00 -1.162484888315e+01 0.0 
3.861210370848e+00 -1.205657631736e+01 0.0 
3.038284309476e+00 -1.149851280664e+01 0.0 
2.961598794889e+00 -1.248856794980e+01 0.0 
2.138953225512e+00 -1.193212674534e+01 0.0 
2.227383593457e+00 -1.096258903918e+01 0.0 
2.043265419276e+00 -1.292158472959e+01 0.0 
1.252449446028e+00 -1.225502002753e+01 0.0 
3.949985210740e+01 -1.086594001795e+01 0.0 
1.453499444792e+01 -8.768805922472e-01 0.0 
1.403518950933e+01 -1.749965556633e+00 0.0 
1.300715031023e+01 -1.714737233040e+00 0.0 
1.350929389899e+01 -2.527443911291e+00 0.0 
1.449600910711e+01 -2.595486162864e+00 0.0 
1.395693872901e+01 -3.484211041558e+00 0.0 
1.495105865208e+01 -3.364609636216e+00 0.0 
1.508822528740e+01 -1.766586020494e+00 0.0 
1.250223858430e+01 -8.634590186802e-01 0.0 
1.200279523409e+01 -1.709044504992e+00 0.0 
1.150086239419e+01 -8.592789190668e-01 0.0 
1.101482754194e+01 -1.677730591922e+00 0.0 
1.148018564526e+01 -2.659323866909e+00 0.0 
8.800552119754e+00 -3.989875954728e+00 0.0 
3.452790439430e+00 -1.901136170646e+01 0.0 
8.658451825200e-01 -9.503462241795e+00 0.0 
1.694787786797e+00 -9.000589234502e+00 0.0 
1.703436717094e+00 -8.038819004041e+00 0.0 
2.594197971110e+00 -8.563955242845e+00 0.0 
1.630513735412e+00 -9.907244747511e+00 0.0 
8.566859292791e-01 -7.512203837972e+00 0.0 
1.685461277022e+00 -7.164280248030e+00 0.0 
2.506394468801e+00 -8.623386730818e-01 0.0 
2.007475081581e+00 -1.727729545205e+00 0.0 
9.211534699767e-01 -1.628791366312e+00 0.0 
1.500000000020e+00 -2.598063549486e+00 0.0 
2.482078929963e+00 -2.553580088725e+00 0.0 
2.999795253092e+00 -1.732169015019e+00 0.0 
3.999712607169e+00 -1.728832897453e+00 0.0 
4.499752199340e+00 -8.656478679175e-01 0.0 
4.964377774841e+00 -1.730129617941e+00 0.0 
4.425017908337e+00 -2.597541756243e+00 0.0 
5.446573195014e+00 -8.410144840023e-01 0.0 
4.915722346614e+01 -1.550640962770e+01 0.0 
4.826794919243e+01 -1.600000000000e+01 0.0 
1.053139533193e+01 -1.911782884365e+01 0.0 
4.156049861949e+01 -1.095160998589e+01 0.0 
9.494526624416e+00 -8.650570090219e-01 0.0 
4.555762166964e+01 -1.897098103585e+01 0.0 
4.250656411371e+01 -1.914387356218e+01 0.0 
4.350906466345e+01 -1.917234727395e+01 0.0 
8.759665722424e-01 -1.746422130609e+01 0.0 
1.698936011838e+00 -1.795012186674e+01 0.0 
4.742476811029e+01 -1.900090177972e+01 0.0 
7.749196752349e+00 -6.368049313489e+00 0.0 
3.361572113416e+01 -1.798765193915e+01 0.0 
4.484660149212e+01 -1.728661231383e+01 0.0 
1.984038172228e+01 -4.502575320116e+00 0.0 
1.035080352627e+01 -6.166639575753e+00 0.0 
2.753558010652e+00 -1.444909521181e+01 0.0 
7.217069543032e+00 -1.328635391078e+01 0.0 
4.364336727739e+00 -1.655585677381e+01 0.0 
4.595208426108e+00 -1.357919665443e+01 0.0 
6.164967006980e+00 -1.569873454630e+01 0.0 
1.487855768353e+01 -1.826523774028e+01 0.0 
2.791876456372e+00 -4.019632415181e+00 0.0 
4.246464893515e+01 -1.364898659620e+01 0.0 
4.503855590351e+01 -1.329552780944e+01 0.0 
4.407239109604e+01 -1.573900004093e+01 0.0 
5.141054449252e+00 -6.664290382472e+00 0.0 
3.141083947149e+00 -1.055790764912e+01 0.0 
6.196463198741e+00 -4.256497932609e+00 0.0 
2.599618716181e+01 -1.836893455464e+01 0.0 
2.923057372337e+01 -1.098461757645e+01 0.0 
1.168343877486e+01 -1.114079645041e+01 0.0 
6.706222096238e+00 -8.780364234441e+00 0.0 
8.567858614669e+00 -6.943121440850e+00 0.0 
1.123755132901e+01 -5.753525820030e+00 0.0 
2.353456234423e+01 -1.008536320953e+01 0.0 
9.162073319168e+00 -1.045593739109e+01 0.0 
9.676343469685e+00 -1.496493008366e+01 0.0 
4.490637882905e+01 -1.628778970202e+01 0.0 
7.398129387772e+00 -9.639977982323e-01 0.0 
1.049641705805e+01 -1.552503975272e+01 0.0 
9.010356286268e+00 -1.242805042052e+01 0.0 
3.985573925497e+01 -1.399863651620e+01 0.0 
1.816196318262e+01 -1.554066497931e+01 0.0 
1.306332244168e+01 -3.963646550326e+00 0.0 
4.145850903932e+01 -1.608094559275e+01 0.0 
3.794664933633e+01 -1.779020121986e+01 0.0 
3.819614412903e+01 -1.290749321016e+01 0.0 
6.270014188119e+00 -3.255093186826e+00 0.0 
4.251165370388e+01 -1.263870364997e+01 0.0 
1.207347709171e+01 -1.763942826023e+01 0.0 
3.633240829927e+01 -1.577330481104e+01 0.0 
4.319052668832e+00 -6.101812561904e+00 0.0 
1.676492415806e+01 -1.151547901392e+01 0.0 
2.594059220037e+01 -1.074225223009e+01 0.0 
3.340750911501e+01 -9.898764354137e+00 0.0 
4.397619591281e+01 -1.769773736461e+01 0.0 
2.175611595028e+01 -1.185718747128e+01 0.0 
1.641818733106e+01 -1.640685203215e+01 0.0 
1.661211421753e+01 -1.346121366338e+01 0.0 
3.428853504935e+00 -6.551993389271e+00 0.0 
8.700728832502e+00 -1.638460872825e+01 0.0 
1.931369795309e+01 -1.121629383702e+01 0.0 
4.139798872363e+01 -1.706922153459e+01 0.0 
2.647837478700e+01 -1.507353829290e+01 0.0 
1.779469616424e+01 -9.161615782908e+00 0.0 
3.885879219319e+01 -1.642026488918e+01 0.0 
1.338194936770e+01 -1.125916521471e+01 0.0 
1.897071181111e+01 -1.609204322578e+01 0.0 
2.844308548793e+01 -1.046221003096e+01 0.0 
2.659854702194e+01 -1.316109415760e+01 0.0 
2.979604503271e+01 -1.433296157755e+01 0.0 
2.417694041347e+01 -1.251231397779e+01 0.0 
1.807401327411e+00 -1.388891148480e+01 0.0 
9.599810618782e+00 -1.595439365034e+01 0.0 
1.652144692160e+01 -4.205392788472e+00 0.0 
2.367839450246e+01 -8.188385218643e+00 0.0 
3.814894930468e+01 -1.390748338767e+01 0.0 
2.466448215774e+01 -1.685878545680e+01 0.0 
4.134044524611e+01 -1.806610045954e+01 0.0 
2.600511411958e+01 -9.801774120648e+00 0.0 
7.882158050716e+00 -1.582364037353e+01 0.0 
3.881607873422e+01 -1.737970515013e+01 0.0 
8.270182347708e+00 -1.088622154920e+01 0.0 
8.672520392520e-01 -4.532984309881e+00 0.0 
1.993447205337e+01 -3.579061902667e+00 0.0 
1.794616079549e+01 -7.238038888498e+00 0.0 
2.097277068165e+01 -1.132450168636e+01 0.0 
8.194803300681e+00 -1.187214224265e+01 0.0 
3.522279404911e+01 -1.823342818178e+01 0.0 
6.984481050295e+00 -1.625271465557e+01 0.0 
1.309433007797e+01 -1.521718594215e+01 0.0 
2.150246167611e+01 -1.885399038185e+00 0.0 
3.250689370209e+01 -1.028789870535e+01 0.0 
6.085886272238e+00 -1.668342132851e+01 0.0 
1.588455661727e+01 -1.193498985921e+01 0.0 
1.809323400821e+01 -1.651110084195e+01 0.0 
1.348885082381e+00 -1.136065576512e+01 0.0 
2.497670221995e+01 -1.834631276173e+01 0.0 
2.937062818424e+01 -8.233711194470e+00 0.0 
5.185823744469e+00 -1.711566910207e+01 0.0 
1.477497877209e+01 -1.530177014512e+01 0.0 
2.125346158933e+01 -7.473003997367e+00 0.0 
4.751561118290e+01 -1.084897772632e+01 0.0 
5.056026576843e+00 -1.825750475525e+01 0.0 
1.473948554523e+01 -1.634577436309e+01 0.0 
2.410566630936e+01 -1.345970002612e+01 0.0 
1.507337507513e+01 -1.138527895328e+01 0.0 
3.189857338687e+01 -8.887781229006e+00 0.0 
7.298712468334e+00 -1.230231046246e+01 0.0 
2.738235495295e+01 -1.368931690364e+01 0.0 
3.750141041969e+01 -1.920449893070e+01 0.0 
1.557271965640e+01 -1.683317951731e+01 0.0 
3.393731848929e+01 -1.413034777044e+01 0.0 
6.482156824153e+00 -1.174575135362e+01 0.0 
2.077971718439e+01 -1.421279621836e+01 0.0 
3.455084320178e+00 -2.562590040585e+00 0.0 
3.099056096250e+01 -9.270280416035e+00 0.0 
5.580176125418e+00 -1.217387969259e+01 0.0 
1.707247630389e+01 -7.660651981710e+00 0.0 
1.418658814174e+01 -1.180390575393e+01 0.0 
2.049103025389e+01 -1.811296706038e+01 0.0 
4.680386172316e+00 -1.260396879301e+01 0.0 
1.699679896554e+01 -8.624561788199e+00 0.0 
3.779470168555e+00 -1.303424899720e+01 0.0 
3.036589870126e+01 -7.879832518349e+00 0.0 
3.306993001774e+01 -1.457671062095e+01 0.0 
2.840150110165e+00 -1.346530088269e+01 0.0 
2.732011135052e+01 -1.464591214560e+01 0.0 
5.423639259568e+00 -2.659711955016e+00 0.0 
2.324455961696e+01 -1.387269388211e+01 0.0 
1.752768355571e+00 -1.693128613594e+01 0.0 
1.020244783051e+01 -8.076834012808e+00 0.0 
1.330873875224e+01 -1.222417528206e+01 0.0 
3.297727364880e+01 -1.555480372087e+01 0.0 
2.890929955439e+01 -6.868664170731e+00 0.0 
1.323294664622e+01 -1.320754260334e+01 0.0 
2.726532861246e+01 -1.560593120806e+01 0.0 
2.240020643398e+01 -1.429299177247e+01 0.0 
2.090445823633e+01 -1.228128621332e+01 0.0 
1.315809881502e+01 -1.420739326938e+01 0.0 
2.781328038068e+01 -7.181956082300e+00 0.0 
8.614200829057e+00 -5.936933226306e+00 0.0 
8.714765730069e+00 -4.979270529687e+00 0.0 
1.611881701099e+01 -9.041973294003e+00 0.0 
2.806830314340e+01 -1.614622947108e+01 0.0 
2.084435391396e+00 -3.385085422913e+00 0.0 
3.133211811152e+01 -1.542347619750e+01 0.0 
9.693114650768e+00 -3.590281506442e+00 0.0 
1.531883592202e+01 -8.504584946143e+00 0.0 
2.151589117094e+01 -1.578915763018e+01 0.0 
4.918943882696e+01 -1.355538828056e+01 0.0 
1.443236615188e+01 -8.918701794549e+00 0.0 
8.276250966452e-01 -5.537685192197e+00 0.0 
1.362790867918e+01 -8.374718262212e+00 0.0 
2.083767477370e+01 -1.324843956035e+01 0.0 
1.273834678703e+01 -8.790890389337e+00 0.0 
1.192275845670e+01 -8.242261327467e+00 0.0 
4.477236023583e+01 -1.824312396664e+01 0.0 
1.102989384254e+01 -8.649855800911e+00 0.0 
4.849096516045e+01 -1.917293752213e+01 0.0 
1.588996752238e+00 -1.910230934687e+01 0.0 
4.904245197583e+01 -1.159839008158e+01 0.0 
2.753852929608e+01 -5.782128488093e+00 0.0 
1.756133602833e+01 -8.306130313187e-01 0.0 
2.615423700951e+01 -6.153865090092e+00 0.0 
1.028818761294e+01 -7.122020845892e+00 0.0 
2.970818901196e+01 -1.527821347593e+01 0.0 
4.801461623449e+01 -1.164472570985e+01 0.0 
9.455722100419e+00 -6.546069291118e+00 0.0 
3.089099236677e+01 -1.835339328261e+01 0.0 
2.350000000013e+01 -1.920825896750e+01 0.0 
4.830620531887e+01 -1.506626155470e+01 0.0 
1.725381944701e+01 -1.688794487850e+01 0.0 
2.156246225273e+01 -1.475893794002e+01 0.0 
4.919319648787e+01 -1.742767505896e+01 0.0 
4.437935623576e+01 -1.077662927266e+01 0.0 
1.001520521978e+01 -1.652692675208e+00 0.0 
9.067160240050e-01 -1.441937727541e+01 0.0 
2.603365149390e+01 -4.755996613848e+00 0.0 
2.458344439002e+01 -4.873645517696e+00 0.0 
2.304312390142e+01 -3.836552768096e+00 0.0 
2.546923202198e+00 -6.902480355749e+00 0.0 
1.251534969393e+01 -2.490989965776e+00 0.0 
2.454061833377e+01 -3.933354231935e+00 0.0 
1.788186558740e+01 -1.827424884923e+01 0.0 
4.090785243552e+01 -1.166553231904e+01 0.0 
2.230128851568e+01 -1.623015738726e+01 0.0 
2.302362347568e+01 -2.916239960270e+00 0.0 
3.878119254461e+01 -1.830091164002e+01 0.0 
2.210081359958e+01 -1.829238229150e+01 0.0 
8.443704882233e+00 -1.921993252862e+01 0.0 
2.218405824691e+01 -1.724557581508e+01 0.0 
2.151157503963e+01 -2.790636689331e+00 0.0 
3.741658958955e+01 -1.250400191722e+01 0.0 
2.697247663737e+01 -1.838290202309e+01 0.0 
4.743362342862e+01 -1.585850773010e+01 0.0 
6.671345075358e+00 -1.924977576322e+01 0.0 
3.900825404537e+01 -1.157220003875e+01 0.0 
4.649692961375e+01 -1.836335837481e+01 0.0 
1.578831424832e+01 -3.678284023361e+00 0.0 
4.814208768888e+01 -1.841249298770e+01 0.0 
2.964123298315e+01 -1.625739458193e+01 0.0 
4.580760351902e+01 -1.284294554687e+01 0.0 
3.561520879615e+01 -1.245548941949e+01 0.0 
2.555418095658e+00 -1.841101588290e+01 0.0 
3.288468366144e+01 -1.834258164109e+01 0.0 
2.065894391445e+01 -2.240688571739e+00 0.0 
4.739171429915e+01 -1.496536413446e+01 0.0 
3.478086729185e+00 -8.576434653209e+00 0.0 
1.606010630246e+01 -1.588421807951e+00 0.0 
1.018329200594e+01 -1.834320874317e+01 0.0 
2.957213339430e+01 -1.720496954591e+01 0.0 
4.142712790164e+00 -1.837794506222e+01 0.0 
6.698721532573e-01 -2.499999999997e+00 0.0 
8.037039123140e+00 -1.571229354954e+00 0.0 
1.203541361428e+01 -1.847784298001e+01 0.0 
2.899968332038e+01 -1.848264722179e+01 0.0 
1.469229460948e+01 -4.219485753730e+00 0.0 
4.049590781957e+01 -1.932812501995e+01 0.0 
1.996211678340e+01 -1.506329754720e+00 0.0 
4.250588298353e+01 -1.067383247529e+01 0.0 
5.831497011152e+00 -1.635396227234e+00 0.0 
5.317606125670e+00 -1.923927974868e+01 0.0 
4.208546426993e+01 -1.842830665025e+01 0.0 
2.327553405011e+00 -9.459409929662e+00 0.0 
3.568351902251e+01 -1.096637218582e+01 0.0 
1.682104374890e+00 -6.231413350963e+00 0.0 
2.451812238018e+01 -1.766524914339e+01 0.0 
1.058003429638e+01 -2.391839617098e+00 0.0 
4.399988753123e+01 -1.851998776342e+01 0.0 
1.400000000010e+01 -1.852293523028e+01 0.0 
3.604719565984e+01 -1.850662876800e+01 0.0 
1.951297136734e+01 -1.938092349694e+01 0.0 
1.821365318472e+01 -1.531276353287e+00 0.0 
2.298031859732e+01 -1.854635324722e+01 0.0 
1.552168066204e+01 -1.764280741977e+01 0.0 
4.572957713638e+01 -1.073347898229e+01 0.0 
3.429637429624e+01 -1.838861552790e+01 0.0 
2.427434426052e+00 -7.705577451869e+00 0.0 
4.662792031485e+00 -3.359424455416e+00 0.0 
4.926794919243e+01 -1.926794919243e+01 0.0 
7.320508075690e-01 -7.320508075688e-01 0.0 
4.926794919243e+01 -1.073205080757e+01 0.0 
7.320508075705e-01 -1.926794919243e+01 0.0 
2.917460242467e+00 -3.202866455310e+00 0.0 
4.838200575963e+01 -1.232674147454e+01 0.0 
2.998445708009e+01 -1.854403752148e+01 0.0 
5.949940090766e-01 -1.152762038165e+01 0.0 
4.844763495759e+01 -1.678092548787e+01 0.0 
1.301685480160e+01 -3.170056592566e+00 0.0 
1.650046335855e+01 -6.731535384067e-01 0.0 
4.854881540991e+01 -1.405224059779e+01 0.0 
2.119545114693e+01 -1.846813384545e+01 0.0 
3.797852849897e+01 -1.857978513215e+01 0.0 
4.649823708745e+01 -1.338351810816e+01 0.0 
2.012685900976e+01 -2.889659035009e+00 0.0 
2.953271913273e+01 -1.791558075192e+01 0.0 
2.408509097292e+00 -1.021949208421e+01 0.0 
2.642589566221e+01 -1.773216561448e+01 0.0 
1.730010270775e+01 -1.763165076721e+01 0.0 
2.017406551304e+01 -8.513536440582e-01 0.0 
5.254761581934e-01 -1.249999999999e+01 0.0 
6.640448215642e+00 -1.545337834885e+00 0.0 
7.843361506349e+00 -1.852719839527e+01 0.0 
1.588442191088e+00 -1.066158564320e+01 0.0 
2.880770112393e+01 -5.415638864241e+00 0.0 
4.951086956522e+01 -5.500000000000e+00 0.0 
3.031250000000e+01 -6.420918367347e+00 0.0 
4.951250000000e+01 -6.500000000000e+00 0.0 
3.180701530612e+01 -7.414795918363e+00 0.0 
4.951250000000e+01 -7.500000000000e+00 0.0 
3.331250000000e+01 -8.420918367347e+00 0.0 
4.951470588234e+01 -8.500000000000e+00 0.0 
3.480610198624e+01 -9.413633635267e+00 0.0 
4.951470588234e+01 -9.500000000000e+00 0.0 

SCALARS node_number int
LOOKUP_TABLE default
1
2
3
4
5
6
7
8
9
10
11
12
13
14
15
16
17
18
19
20
21
22
23
24
25
26
27
28
29
30
31
32
33
34
35
36
37
38
39
40
41
42
43
44
45
46
47
48
49
50
51
52
53
54
55
56
57
58
59
60
61
62
63
64
65
66
67
68
69
70
71
72
73
74
75
76
77
78
79
80
81
82
84
85
86
87
88
89
90
91
92
93
98
99
100
101
102
104
105
106
107
108
109
110
111
112
113
114
115
116
117
118
119
120
121
122
123
124
125
126
127
128
129
130
131
132
133
134
135
136
268
269
270
271
272
273
274
275
276
277
278
279
280
281
282
283
284
285
286
287
288
289
290
291
292
293
294
295
296
297
298
299
300
301
302
303
304
305
306
307
308
309
310
311
312
313
314
315
316
317
318
319
320
321
322
323
324
325
326
327
328
329
330
331
332
333
334
335
336
337
338
339
340
341
342
343
344
345
346
347
348
349
350
351
352
353
354
355
356
357
358
359
360
361
362
363
364
365
366
367
368
369
370
371
372
373
374
375
376
377
378
379
380
381
382
383
384
385
386
387
388
389
390
391
392
393
394
395
396
397
398
399
400
401
402
403
404
405
406
407
408
409
410
411
412
413
414
415
416
417
418
419
420
421
422
423
424
425
426
427
428
429
430
431
432
433
434
435
436
437
438
439
440
441
442
443
444
445
446
447
448
449
450
451
452
453
454
455
456
457
458
459
460
461
462
463
464
465
466
467
468
469
470
471
472
473
474
475
476
477
478
479
480
481
482
483
484
485
486
487
488
489
490
491
492
493
494
495
496
497
498
499
500
501
502
503
504
505
506
507
508
509
510
511
512
513
514
515
516
517
518
519
520
521
522
523
524
525
526
527
528
529
530
531
532
533
534
535
536
537
538
539
540
541
542
543
544
545
546
547
548
549
550
551
552
553
554
555
556
557
558
559
560
561
562
563
564
565
566
567
568
569
570
571
572
573
574
575
576
577
578
579
580
581
582
583
584
585
586
587
588
589
590
591
592
593
594
595
596
597
598
599
600
601
602
603
604
605
606
607
608
609
610
611
612
613
614
615
616
617
618
619
620
621
622
623
624
625
626
627
628
629
630
631
632
633
634
635
636
637
638
639
640
641
642
643
644
645
646
647
648
649
650
651
652
653
654
655
656
657
658
659
660
661
662
663
664
665
666
667
668
669
670
671
672
673
674
675
676
677
678
679
680
681
682
683
684
685
686
687
688
689
690
691
692
693
694
695
696
697
698
699
700
701
702
703
704
705
706
707
708
709
710
711
712
713
714
715
716
717
718
719
720
721
722
723
724
725
726
727
728
729
730
731
732
733
734
735
736
737
738
739
740
741
742
743
744
745
746
747
748
749
750
751
752
753
754
755
756
757
758
759
760
761
762
763
764
765
766
767
768
769
770
771
772
773
774
775
776
777
778
779
780
781
782
783
784
785
786
787
788
789
790
791
792
793
794
795
796
797
798
799
800
801
802
803
804
805
806
807
808
809
810
811
812
813
814
815
816
817
818
819
820
821
822
823
824
825
826
827
828
829
830
831
832
833
834
835
836
837
838
839
840
841
842
843
844
845
846
847
848
849
850
851
852
853
854
855
856
857
858
859
860
861
862
863
864
865
866
867
868
869
870
871
872
873
874
875
876
877
878
879
880
881
882
883
884
885
886
887
888
889
890
891
892
893
894
895
896
897
898
899
900
901
902
903
904
905
906
907
908
909
910
911
912
913
914
915
916
917
918
919
920
921
922
923
924
925
926
927
928
929
930
931
932
933
934
935
936
937
938
939
940
941
942
943
944
945
946
947
948
949
950
951
952
953
954
955
956
957
958
959
960
961
962
963
964
965
966
967
968
969
970
971
972
973
974
975
976
977
978
979
980
981
982
983
984
985
986
987
988
989
990
991
992
993
994
995
996
997
998
999
1000
1001
1002
1003
1004
1005
1006
1007
1008
1009
1010
1011
1012
1013
1014
1015
1016
1017
1018
1019
1020
1021
1022
1023
1024
1025
1026
1027
1028
1029
1030
1031
1032
1033
1034
1035
1036
1037
1038
1039
1040
1041
1042
1043
1044
1045
1046
1047
1048
1049
1050
1051
1052
1053
1054
1055
1056
1057
1058
1059
1060
1061
1062
1063
1064
1065
1066
1067
1068
1069
1070
1071
1072
1073
1074
1075
1076
1077
1078
1079
1080
1081
1082
1083
1084
1085
1086
1087
1088
1089
1090
1091
1092
1093
1094
1095
1096
1097
1098
1099
1100
1101
1102
1103
1104
1105
1106
1107
1108
1109
1110
1111
1112
1113
1114
1115
1116
1117
1118
1119
1120
1121
1122
1123
1124
1125
1126
1127
1128
1129
1130
1131
1132
1133
1134
1135
1136
1137
1138
1139
1140
1141
1142
1143
1144
1145
1146
1147
1148
1149
1150
1151
1152
1153
1154
1155
1156
1157
1158
1159
1160
1161
1162
1163
1164
1165
1166
1167
1168
1169
1170
1171
1172
1173
1174
1175
1176
1177
1178
1179
1180
1181
1182
1183
1184
1185
1186
1187
1188
1189
1190
1191
1192
1193
1194
1195
1196
1197
1198
1199
1200
1201
1202
1203
1204
1205
1206
1207
1208
1209
1210
1211
1212
1213
1214
1215
1216
1217
1218
1219
1220
1221
1222
1223
1224
1225
1226
1227
1228
1229
1230
1231
1232
1233
1234
1235
1236
1237
1238
1239
1240
1241
1242
1243
1244
1245
1246
1247
1248
1249
1250
1251
1252
1253
1254
1255
1256
1257
1258
1259
1260
1261
1262
1263
1264
1275
1276
1277
1278
1279
1280
1281
1282
1283
1284

VECTORS node_mesh_deformation float
0.0 1.178379692442e-02 0.0 
0.000000000000e+00 1.680574990607e-02 0.0 
0.0 0.000000000000e+00 0.0 
0.000000000000e+00 0.000000000000e+00 0.0 
0.0 1.176798422215e-02 0.0 
0.0 1.169576663250e-02 0.0 
0.0 1.156746267929e-02 0.0 
0.0 1.138274085013e-02 0.0 
0.0 1.113970220388e-02 0.0 
0.0 1.083943675717e-02 0.0 
0.0 1.048176935449e-02 0.0 
0.0 1.006567883627e-02 0.0 
0.0 9.590498631633e-03 0.0 
0.0 9.054742561094e-03 0.0 
0.0 8.455947272891e-03 0.0 
0.0 7.792566315338e-03 0.0 
0.0 7.064055565197e-03 0.0 
0.0 6.272319425346e-03 0.0 
0.0 5.409772720409e-03 0.0 
0.0 4.476226526808e-03 0.0 
0.0 3.470577107009e-03 0.0 
0.0 2.389662950456e-03 0.0 
0.0 1.231381153762e-03 0.0 
0.000000000000e+00 0.000000000000e+00 0.0 
0.000000000000e+00 0.000000000000e+00 0.0 
0.000000000000e+00 0.000000000000e+00 0.0 
0.000000000000e+00 0.000000000000e+00 0.0 
0.000000000000e+00 0.000000000000e+00 0.0 
0.000000000000e+00 0.000000000000e+00 0.0 
0.000000000000e+00 0.000000000000e+00 0.0 
0.000000000000e+00 0.000000000000e+00 0.0 
0.000000000000e+00 0.000000000000e+00 0.0 
0.000000000000e+00 0.000000000000e+00 0.0 
0.000000000000e+00 0.000000000000e+00 0.0 
0.000000000000e+00 0.000000000000e+00 0.0 
0.000000000000e+00 0.000000000000e+00 0.0 
0.000000000000e+00 0.000000000000e+00 0.0 
0.000000000000e+00 0.000000000000e+00 0.0 
0.000000000000e+00 0.000000000000e+00 0.0 
0.000000000000e+00 0.000000000000e+00 0.0 
0.000000000000e+00 0.000000000000e+00 0.0 
0.000000000000e+00 0.000000000000e+00 0.0 
0.000000000000e+00 0.000000000000e+00 0.0 
0.000000000000e+00 0.000000000000e+00 0.0 
0.000000000000e+00 0.000000000000e+00 0.0 
0.000000000000e+00 0.000000000000e+00 0.0 
0.000000000000e+00 0.000000000000e+00 0.0 
0.000000000000e+00 0.000000000000e+00 0.0 
0.000000000000e+00 0.000000000000e+00 0.0 
0.000000000000e+00 0.000000000000e+00 0.0 
0.000000000000e+00 0.000000000000e+00 0.0 
0.000000000000e+00 0.000000000000e+00 0.0 
0.000000000000e+00 0.000000000000e+00 0.0 
0.000000000000e+00 0.000000000000e+00 0.0 
0.000000000000e+00 0.000000000000e+00 0.0 
0.000000000000e+00 0.000000000000e+00 0.0 
0.000000000000e+00 0.000000000000e+00 0.0 
0.000000000000e+00 0.000000000000e+00 0.0 
0.000000000000e+00 0.000000000000e+00 0.0 
0.000000000000e+00 0.000000000000e+00 0.0 
0.000000000000e+00 0.000000000000e+00 0.0 
0.000000000000e+00 0.000000000000e+00 0.0 
0.000000000000e+00 0.000000000000e+00 0.0 
0.000000000000e+00 0.000000000000e+00 0.0 
0.000000000000e+00 0.000000000000e+00 0.0 
0.000000000000e+00 0.000000000000e+00 0.0 
0.000000000000e+00 0.000000000000e+00 0.0 
0.000000000000e+00 0.000000000000e+00 0.0 
0.000000000000e+00 0.000000000000e+00 0.0 
0.000000000000e+00 0.000000000000e+00 0.0 
0.000000000000e+00 0.000000000000e+00 0.0 
0.000000000000e+00 0.000000000000e+00 0.0 
0.000000000000e+00 1.539662237117e-02 0.0 
0.000000000000e+00 1.392469362153e-02 0.0 
0.000000000000e+00 1.238999693788e-02 0.0 
0.000000000000e+00 1.079509293963e-02 0.0 
0.000000000000e+00 9.139431051093e-03 0.0 
0.000000000000e+00 7.425223332238e-03 0.0 
0.000000000000e+00 5.653167414511e-03 0.0 
0.000000000000e+00 3.824207328417e-03 0.0 
0.000000000000e+00 1.939699632391e-03 0.0 
-1.421342313911e-03 1.518196122695e-02 0.0 
1.268704634512e-03 1.657413874099e-02 0.0 
-1.001658690008e-03 1.634423769233e-02 0.0 
-5.602697299807e-04 1.758892549720e-02 0.0 
-6.250488891624e-05 1.874931515005e-02 0.0 
4.522176608788e-04 1.967556846220e-02 0.0 
8.996812273949e-04 2.021471098758e-02 0.0 
1.239639822330e-03 2.010595604658e-02 0.0 
1.395426386082e-03 1.956813962153e-02 0.0 
1.427416658196e-03 1.875895903909e-02 0.0 
1.376051901822e-03 1.774610404847e-02 0.0 
0.000000000000e+00 2.289143610118e-02 0.0 
0.000000000000e+00 2.179820225640e-02 0.0 
0.000000000000e+00 2.064852068863e-02 0.0 
0.000000000000e+00 1.942988742571e-02 0.0 
0.000000000000e+00 1.815177459011e-02 0.0 
7.150286526780e-05 1.680657117336e-02 0.0 
1.417148525888e-04 1.680892792796e-02 0.0 
2.135596778103e-04 1.681218133228e-02 0.0 
2.865004746724e-04 1.681501062726e-02 0.0 
3.603676487458e-04 1.681924445847e-02 0.0 
4.358766061117e-04 1.682093999132e-02 0.0 
5.137931288886e-04 1.682233547060e-02 0.0 
5.930021984071e-04 1.682001457191e-02 0.0 
6.766971679681e-04 1.681580875019e-02 0.0 
7.640023239759e-04 1.680423490711e-02 0.0 
8.547558903587e-04 1.678508600995e-02 0.0 
9.501595263046e-04 1.675649278837e-02 0.0 
1.050328779108e-03 1.671426602799e-02 0.0 
1.156064515612e-03 1.665421266170e-02 0.0 
-1.295401826148e-03 1.454677595125e-02 0.0 
-1.136695780644e-03 1.402269379902e-02 0.0 
-9.740043945463e-04 1.358971712016e-02 0.0 
-8.203251551109e-04 1.323531699653e-02 0.0 
-6.830264183240e-04 1.294685227515e-02 0.0 
-5.597127789727e-04 1.270887440194e-02 0.0 
-4.506114179943e-04 1.251306980142e-02 0.0 
-3.567402415534e-04 1.235292994797e-02 0.0 
-2.766522031461e-04 1.222298534575e-02 0.0 
-2.093709677577e-04 1.211935273643e-02 0.0 
-1.554900945031e-04 1.203462538354e-02 0.0 
-1.098639818826e-04 1.197025527346e-02 0.0 
-7.217184829234e-05 1.191652854615e-02 0.0 
-4.652417147089e-05 1.187397126870e-02 0.0 
-2.929162947840e-05 1.184289980117e-02 0.0 
-1.635981624393e-05 1.181999353780e-02 0.0 
-7.196294399048e-06 1.180308335484e-02 0.0 
-1.247227122247e-06 1.179188086079e-02 0.0 
-9.904346400802e-07 1.178442684552e-02 0.0 
8.094482516192e-04 2.091028689537e-02 0.0 
8.130659162333e-04 2.139348275224e-02 0.0 
8.145277099167e-04 2.176238257777e-02 0.0 
8.217994935578e-04 2.204933313216e-02 0.0 
8.270878365835e-04 2.227212997531e-02 0.0 
8.271995912850e-04 2.244454230930e-02 0.0 
8.204145820301e-04 2.257702378265e-02 0.0 
8.061561792729e-04 2.267754686393e-02 0.0 
7.844127821528e-04 2.275275368860e-02 0.0 
7.555817208384e-04 2.280786582290e-02 0.0 
7.202325242801e-04 2.284715671662e-02 0.0 
6.790004288604e-04 2.287406721584e-02 0.0 
6.325285855695e-04 2.289144669663e-02 0.0 
5.814718644643e-04 2.290163877484e-02 0.0 
5.264751806635e-04 2.290656398679e-02 0.0 
4.681632705683e-04 2.290780025884e-02 0.0 
4.071408475781e-04 2.290663960502e-02 0.0 
3.440197263203e-04 2.290413809356e-02 0.0 
2.794612306189e-04 2.290111676655e-02 0.0 
2.142384007087e-04 2.289801794224e-02 0.0 
1.491682995862e-04 2.289418348017e-02 0.0 
7.848906668073e-05 2.288841301616e-02 0.0 
7.269061283210e-05 2.180455151106e-02 0.0 
1.444407630657e-04 2.180649546753e-02 0.0 
2.143997325916e-04 2.181032738422e-02 0.0 
2.830986549824e-04 2.181407237432e-02 0.0 
3.507092648150e-04 2.181774896321e-02 0.0 
4.171343663870e-04 2.182089368250e-02 0.0 
4.821482182891e-04 2.182267195879e-02 0.0 
5.454413744346e-04 2.182198220973e-02 0.0 
6.066900393478e-04 2.181739468194e-02 0.0 
6.656012624759e-04 2.180715564258e-02 0.0 
7.219297976775e-04 2.178910743938e-02 0.0 
7.754724639071e-04 2.176062748673e-02 0.0 
8.261037200015e-04 2.171851601362e-02 0.0 
8.738546968701e-04 2.165868092643e-02 0.0 
9.192453154583e-04 2.157624552163e-02 0.0 
9.629288178559e-04 2.146483377758e-02 0.0 
1.006694614354e-03 2.131727520029e-02 0.0 
1.052065435033e-03 2.112240125561e-02 0.0 
1.104227247378e-03 2.087080161778e-02 0.0 
1.161327738107e-03 2.054025969150e-02 0.0 
1.302930807277e-03 1.985106154964e-02 0.0 
1.222356858804e-03 2.007163795931e-02 0.0 
1.144208274809e-03 2.023856135914e-02 0.0 
1.072410336761e-03 2.036792080312e-02 0.0 
1.003775255882e-03 2.046424437331e-02 0.0 
9.375479176441e-04 2.053577571536e-02 0.0 
8.722266437005e-04 2.058692276945e-02 0.0 
8.073114036193e-04 2.062266185038e-02 0.0 
7.423843286247e-04 2.064646921558e-02 0.0 
6.772228427465e-04 2.066114856570e-02 0.0 
6.116621918295e-04 2.066899193425e-02 0.0 
5.455615614451e-04 2.067192656704e-02 0.0 
4.789716809768e-04 2.067157318427e-02 0.0 
4.119353324086e-04 2.066919055360e-02 0.0 
3.444476754240e-04 2.066564835387e-02 0.0 
2.764489586582e-04 2.066161030917e-02 0.0 
2.078674462354e-04 2.065740306226e-02 0.0 
1.386803616796e-04 2.065294977251e-02 0.0 
6.928960983288e-05 2.064606175197e-02 0.0 
7.091798887870e-05 1.943514104202e-02 0.0 
1.422786101557e-04 1.943593679654e-02 0.0 
2.136520518761e-04 1.944014003650e-02 0.0 
2.851558220698e-04 1.944447836652e-02 0.0 
3.567272495530e-04 1.944868847025e-02 0.0 
4.286391449639e-04 1.945218533247e-02 0.0 
5.009842559502e-04 1.945429746254e-02 0.0 
5.741251318838e-04 1.945404935028e-02 0.0 
6.479675114761e-04 1.945020912423e-02 0.0 
7.229351749487e-04 1.944057566087e-02 0.0 
7.994848781223e-04 1.942308563894e-02 0.0 
8.779257554679e-04 1.939528183587e-02 0.0 
9.588599331849e-04 1.935383402725e-02 0.0 
1.043121362734e-03 1.929493828800e-02 0.0 
1.130879907898e-03 1.921177745638e-02 0.0 
1.225127578842e-03 1.910119590275e-02 0.0 
1.321932058723e-03 1.895186280592e-02 0.0 
1.268623598662e-03 1.786980504322e-02 0.0 
1.168388421696e-03 1.796659384349e-02 0.0 
1.069899239667e-03 1.803477293622e-02 0.0 
9.772699010071e-04 1.808537308095e-02 0.0 
8.891281786703e-04 1.812081877204e-02 0.0 
8.045876316061e-04 1.814456058895e-02 0.0 
7.232534018087e-04 1.815975085663e-02 0.0 
6.447138361096e-04 1.816788894151e-02 0.0 
5.681465809886e-04 1.817060657732e-02 0.0 
4.937567316006e-04 1.817109539079e-02 0.0 
4.206628681800e-04 1.816898684447e-02 0.0 
3.490122684937e-04 1.816597242946e-02 0.0 
2.780019602682e-04 1.816191112566e-02 0.0 
2.079018136811e-04 1.815816976518e-02 0.0 
1.384761229630e-04 1.815408236307e-02 0.0 
6.885945742852e-05 1.814775881613e-02 0.0 
-1.205286191734e-03 1.573907665028e-02 0.0 
-7.862420221585e-04 1.696725803905e-02 0.0 
-3.129458472557e-04 1.818990842062e-02 0.0 
2.006336707829e-04 1.925175970835e-02 0.0 
7.038191608366e-04 2.001463364013e-02 0.0 
1.106437844577e-03 2.022560415529e-02 0.0 
1.341081799136e-03 1.987565028805e-02 0.0 
1.426576824120e-03 1.919217504953e-02 0.0 
1.412469883867e-03 1.827461630156e-02 0.0 
1.329623768044e-03 1.717771170160e-02 0.0 
-1.998001154142e-04 1.670200969867e-02 0.0 
3.411943538367e-04 1.196201101092e-03 0.0 
-1.418703100402e-04 1.213266361541e-02 0.0 
-4.997818330672e-04 1.303932289669e-02 0.0 
2.240349409846e-04 1.123548274780e-03 0.0 
8.193110549044e-04 1.863236514344e-02 0.0 
7.310393290827e-05 8.752944630988e-03 0.0 
4.185631437892e-04 1.290885272621e-03 0.0 
1.485124968816e-03 1.920712927208e-02 0.0 
4.329446789590e-04 1.365231859708e-03 0.0 
1.589499920495e-03 1.806001217667e-02 0.0 
1.259959155799e-04 1.006631858615e-03 0.0 
-1.597046036395e-05 1.186819185511e-02 0.0 
3.985558906265e-04 1.496568425829e-03 0.0 
1.384248040239e-03 1.592530537009e-02 0.0 
4.936337670569e-05 1.065684715569e-02 0.0 
7.716513161704e-05 6.839639776929e-03 0.0 
3.495047435287e-04 1.630907941827e-03 0.0 
2.340364421727e-04 1.613473727677e-03 0.0 
6.613690477764e-05 1.660729126506e-03 0.0 
1.216930984427e-04 1.797121766522e-03 0.0 
1.639522380898e-04 1.598612639949e-03 0.0 
1.118630777640e-03 1.543563207643e-02 0.0 
7.240500687402e-04 1.553646745815e-02 0.0 
4.730252610514e-04 1.551546931264e-02 0.0 
4.547032597202e-05 9.949861353235e-03 0.0 
7.553524098203e-05 1.079903467158e-03 0.0 
-8.069220611446e-04 1.424358112453e-02 0.0 
7.110932563670e-06 1.179361616484e-02 0.0 
5.377986084254e-05 4.060707418159e-03 0.0 
2.423763157182e-04 1.560308144640e-02 0.0 
2.570558126069e-05 1.148602364320e-02 0.0 
3.259705493761e-04 1.836285724359e-03 0.0 
4.002871859576e-04 1.223508270815e-03 0.0 
4.178851545475e-04 1.412793581579e-03 0.0 
4.090517531381e-04 1.315542909566e-03 0.0 
2.796939501142e-04 1.105094505011e-03 0.0 
-3.205126647359e-04 1.255654785249e-02 0.0 
9.110277346096e-04 1.558306309546e-02 0.0 
2.030891349669e-04 1.262507871747e-03 0.0 
3.333919158166e-05 6.622583413968e-03 0.0 
-6.527357154518e-05 1.196989367902e-02 0.0 
6.520623136164e-05 9.836476113218e-03 0.0 
3.245426164256e-05 1.351945577589e-03 0.0 
1.242841767983e-03 1.908866172192e-02 0.0 
3.114634475629e-04 1.776370430423e-02 0.0 
1.589194268632e-03 1.879885617717e-02 0.0 
1.513520583757e-03 1.708516242951e-02 0.0 
-7.212619833865e-04 1.563070061137e-02 0.0 
5.545143289254e-05 1.298213493339e-02 0.0 
3.484332715065e-05 8.519320605274e-04 0.0 
3.074329834041e-06 1.177611719232e-02 0.0 
1.793393968086e-05 3.031267553411e-03 0.0 
1.322191849027e-03 1.526707216231e-02 0.0 
1.413704950600e-03 1.460125642974e-02 0.0 
1.297156208466e-03 1.402120826205e-02 0.0 
1.404327755601e-03 1.323101035400e-02 0.0 
1.288281673276e-03 1.249832940248e-02 0.0 
1.367273600174e-03 1.177095633244e-02 0.0 
1.496527092471e-03 1.248874338183e-02 0.0 
1.437685194524e-03 1.102609836776e-02 0.0 
1.578038079799e-03 1.174110893129e-02 0.0 
1.234682908738e-03 1.099807999100e-02 0.0 
1.494643685589e-03 1.026610776779e-02 0.0 
1.645209398969e-03 1.097633191535e-02 0.0 
1.535461649986e-03 9.497305532204e-03 0.0 
1.694029384652e-03 1.019813460644e-02 0.0 
1.788759403901e-03 1.163889467383e-02 0.0 
1.844601752065e-03 1.085481604251e-02 0.0 
1.922060155163e-03 1.224479513807e-02 0.0 
1.983228568587e-03 1.145081608681e-02 0.0 
1.877783592594e-03 1.006848985024e-02 0.0 
2.019495772227e-03 1.065759895200e-02 0.0 
2.106618494974e-03 1.198359231536e-02 0.0 
2.143338942318e-03 1.118203602310e-02 0.0 
2.210736986200e-03 1.244622770110e-02 0.0 
2.245243568048e-03 1.163368217070e-02 0.0 
2.292139399682e-03 1.283712947744e-02 0.0 
2.321862396840e-03 1.201582355972e-02 0.0 
2.250129302940e-03 1.083560178707e-02 0.0 
2.321375424685e-03 1.121804367933e-02 0.0 
2.368748209300e-03 1.232560710461e-02 0.0 
2.361796859915e-03 1.153265579240e-02 0.0 
2.382423225434e-03 1.256484065433e-02 0.0 
2.368749706619e-03 1.178140296434e-02 0.0 
2.326986023395e-03 1.077018116822e-02 0.0 
2.328498938319e-03 1.103599804807e-02 0.0 
2.340633651450e-03 1.197083767591e-02 0.0 
2.296187072108e-03 1.124796401126e-02 0.0 
2.277193462664e-03 1.210677559994e-02 0.0 
2.230726438320e-03 1.141125192704e-02 0.0 
2.180022084982e-03 1.219451239556e-02 0.0 
2.133384251636e-03 1.153270054495e-02 0.0 
2.164223582177e-03 1.075191483481e-02 0.0 
2.068387723771e-03 1.090651056585e-02 0.0 
2.006996203615e-03 1.162077645903e-02 0.0 
1.946222450968e-03 1.103283213206e-02 0.0 
1.987364705084e-03 1.031941775014e-02 0.0 
1.870536699016e-03 1.048459577967e-02 0.0 
1.892774976326e-03 9.767250947483e-03 0.0 
1.782413652098e-03 9.969965218957e-03 0.0 
1.734943748058e-03 1.062464372007e-02 0.0 
1.654770926887e-03 1.014771778340e-02 0.0 
1.684307188706e-03 9.482908114588e-03 0.0 
1.564705736257e-03 9.700844475855e-03 0.0 
1.513038589135e-03 1.031183624595e-02 0.0 
1.433565605597e-03 9.897920148743e-03 0.0 
1.467756724521e-03 9.273025391794e-03 0.0 
1.346020316511e-03 9.506179533247e-03 0.0 
1.294373587450e-03 1.008298234864e-02 0.0 
1.217534724363e-03 9.723178424927e-03 0.0 
1.253546523515e-03 9.123285556301e-03 0.0 
1.134334043659e-03 9.376784294119e-03 0.0 
1.085025431163e-03 9.930243049228e-03 0.0 
1.012379473345e-03 9.612717143160e-03 0.0 
1.046969375270e-03 9.033965035865e-03 0.0 
9.340541358309e-04 9.302882081091e-03 0.0 
9.555484811568e-04 8.697058259255e-03 0.0 
8.880419328872e-04 9.842815969595e-03 0.0 
8.199588862698e-04 9.558691053256e-03 0.0 
7.653992168901e-04 1.006545270013e-02 0.0 
7.073123699648e-04 9.803030015442e-03 0.0 
2.267033492490e-03 1.003976560538e-02 0.0 
6.488993343829e-04 1.027410795149e-02 0.0 
6.928332394587e-04 1.050594490020e-02 0.0 
5.988289539980e-04 1.003539855808e-02 0.0 
6.430454666670e-04 9.539547637521e-03 0.0 
5.389328180216e-04 1.047160984737e-02 0.0 
4.961218971200e-04 1.025518304688e-02 0.0 
4.373756141787e-04 1.065793933048e-02 0.0 
2.200582440057e-03 1.293138310537e-02 0.0 
1.885610439476e-03 9.283507742312e-03 0.0 
4.008277050263e-04 1.046264142940e-02 0.0 
3.458129282725e-04 1.083263642484e-02 0.0 
3.678818842863e-04 1.100396671155e-02 0.0 
2.825886146267e-04 1.114620180856e-02 0.0 
1.165446073102e-03 1.174353863581e-02 0.0 
1.098567469391e-03 1.018891031765e-02 0.0 
1.040880814507e-03 1.094950874588e-02 0.0 
9.609143742679e-04 9.353490600391e-03 0.0 
9.144281367170e-04 1.011477160712e-02 0.0 
2.647969501117e-04 1.099513259414e-02 0.0 
1.370937657946e-03 8.712645751709e-03 0.0 
9.973881844161e-04 8.569355761695e-03 0.0 
2.146793017658e-03 1.326799404922e-02 0.0 
2.366528060335e-03 1.338439107589e-02 0.0 
1.980928121331e-03 9.537921901238e-03 0.0 
4.460440580702e-04 1.003517165450e-02 0.0 
3.562699165371e-04 1.026304455481e-02 0.0 
3.897174556089e-04 9.810196529823e-03 0.0 
1.054913691156e-03 8.386968402561e-03 0.0 
9.517460746924e-04 8.025784209293e-03 0.0 
1.034794523314e-03 7.671717912912e-03 0.0 
9.221321852451e-04 7.287187003573e-03 0.0 
9.862173100217e-04 6.887822851031e-03 0.0 
8.665828500067e-04 6.479674811690e-03 0.0 
8.106351681789e-04 6.903338233030e-03 0.0 
7.501587092769e-04 6.070369767123e-03 0.0 
7.015183579000e-04 6.517496618759e-03 0.0 
9.092223181817e-04 6.034264647250e-03 0.0 
1.036990271965e-03 6.466469898028e-03 0.0 
6.381715276778e-04 5.658384849154e-03 0.0 
5.959317708024e-04 6.127127031554e-03 0.0 
5.317393398592e-04 5.240946817741e-03 0.0 
4.950190405975e-04 5.730729639494e-03 0.0 
5.426632865397e-04 6.575665566505e-03 0.0 
4.469399528295e-04 6.200000197435e-03 0.0 
4.807962293878e-04 7.004369256091e-03 0.0 
1.869422689566e-03 8.981366537716e-03 0.0 
1.927843623310e-03 8.686682339313e-03 0.0 
1.801020402922e-03 8.126005776694e-03 0.0 
1.828154997270e-03 7.765679949186e-03 0.0 
1.687723400245e-03 7.200274928294e-03 0.0 
1.682171744232e-03 6.775299613192e-03 0.0 
1.529416432405e-03 6.203682877420e-03 0.0 
1.540424495943e-03 6.656058985508e-03 0.0 
1.558646749075e-03 8.713861608117e-03 0.0 
1.855961199681e-03 1.167929004150e-02 0.0 
1.893311747349e-03 1.226881349214e-02 0.0 
1.714850477835e-03 1.226060774164e-02 0.0 
1.724966952494e-03 1.284954279898e-02 0.0 
1.521186076925e-03 1.277559299040e-02 0.0 
1.499303248469e-03 1.336638549913e-02 0.0 
1.272510188109e-03 1.322928382843e-02 0.0 
1.306966233056e-03 1.268989586733e-02 0.0 
1.040640441534e-03 1.308697918649e-02 0.0 
1.088589674779e-03 1.260161411227e-02 0.0 
8.119649871823e-04 1.294613113387e-02 0.0 
8.725716410751e-04 1.251787919490e-02 0.0 
2.226320325949e-03 1.005859269963e-02 0.0 
1.826736652635e-03 7.367157071574e-03 0.0 
1.646834971748e-03 6.310025911628e-03 0.0 
1.794516089141e-03 6.925805439193e-03 0.0 
2.898757064749e-04 1.129403148889e-02 0.0 
3.996979696739e-04 5.326472698965e-03 0.0 
9.355402067701e-04 5.564498253259e-03 0.0 
1.071732876005e-03 6.028599608504e-03 0.0 
1.371595185812e-03 5.649879287420e-03 0.0 
2.095825270256e-04 1.127657505319e-02 0.0 
1.214076917247e-03 1.382280368757e-02 0.0 
1.450232688715e-03 1.401665858078e-02 0.0 
8.250904156029e-04 8.477151910194e-03 0.0 
7.898402344679e-04 9.246830537267e-03 0.0 
9.424530608211e-04 5.069460948151e-03 0.0 
1.947933037574e-04 1.114452035735e-02 0.0 
6.666870916057e-04 5.167920341863e-03 0.0 
7.242065025537e-04 1.342572828212e-02 0.0 
3.557461257717e-04 5.816423399406e-03 0.0 
3.108419728681e-04 4.913830354223e-03 0.0 
7.443290943048e-04 7.304972254335e-03 0.0 
1.580012563807e-03 5.800459603002e-03 0.0 
1.734043755320e-03 6.455862661234e-03 0.0 
1.116240240471e-03 1.216016724702e-02 0.0 
9.125136144892e-04 1.212993879806e-02 0.0 
6.662739711398e-04 1.244151280258e-02 0.0 
7.253986762521e-04 1.208821242498e-02 0.0 
9.353014695765e-04 1.176899340446e-02 0.0 
7.551917721962e-04 1.178536962520e-02 0.0 
5.478135307460e-04 1.206692225952e-02 0.0 
5.888392271398e-04 1.180413361968e-02 0.0 
7.706604975937e-04 1.149726858442e-02 0.0 
6.152389297913e-04 1.155336324257e-02 0.0 
4.390504497280e-04 1.182720577564e-02 0.0 
4.753383387897e-04 1.160911077742e-02 0.0 
3.396609830277e-04 4.381454786127e-03 0.0 
4.915095869009e-04 1.323378269525e-02 0.0 
1.838882849519e-03 1.302950241649e-02 0.0 
8.037360626485e-04 4.590026870648e-03 0.0 
1.329108096680e-03 5.150761993635e-03 0.0 
6.932755991187e-04 7.569923273643e-03 0.0 
6.687743166509e-04 8.349094832765e-03 0.0 
7.464703144819e-04 1.001118119159e-02 0.0 
6.352595476713e-04 9.118725169404e-03 0.0 
5.529963984827e-04 7.422595957024e-03 0.0 
5.290325555265e-04 8.202871136275e-03 0.0 
5.946785870563e-04 9.878936283089e-03 0.0 
4.971394715483e-04 8.972180742234e-03 0.0 
5.485587056597e-04 1.062618506404e-02 0.0 
4.588903383365e-04 9.728887287554e-03 0.0 
4.054015010695e-04 8.042381904778e-03 0.0 
3.744435716726e-04 8.811434624997e-03 0.0 
4.156145527503e-04 1.047377974674e-02 0.0 
3.374987438676e-04 9.568406593765e-03 0.0 
3.681945415011e-04 1.120512074481e-02 0.0 
2.955392665385e-04 1.031242515879e-02 0.0 
2.653105295920e-04 8.643834848156e-03 0.0 
1.514211144906e-04 1.138526040130e-02 0.0 
1.389153720192e-03 6.130030015473e-03 0.0 
1.211329593325e-03 5.109887908532e-03 0.0 
3.068468694130e-04 1.005706222269e-02 0.0 
3.315273969866e-04 9.578240245720e-03 0.0 
4.133902063144e-04 9.296991640658e-03 0.0 
3.418922115168e-04 9.040595228926e-03 0.0 
2.277866540581e-04 9.408835645306e-03 0.0 
1.994806470620e-04 7.702202368721e-03 0.0 
1.128062713537e-03 1.447785830808e-02 0.0 
1.370072077954e-03 1.473231846447e-02 0.0 
7.065462644036e-04 6.781088357901e-03 0.0 
2.698553069367e-04 5.423814648342e-03 0.0 
3.025000452554e-04 6.285705484018e-03 0.0 
2.351734896465e-03 1.354221587630e-02 0.0 
2.311415746298e-03 1.438918618549e-02 0.0 
2.265659081878e-03 1.446600745265e-02 0.0 
2.194763961803e-03 1.536082503895e-02 0.0 
2.236277253377e-03 1.527376269364e-02 0.0 
2.111988529837e-03 1.535395424172e-02 0.0 
1.167966968795e-03 6.915909922084e-03 0.0 
3.207823546418e-04 7.092296132498e-03 0.0 
3.796201394737e-04 1.117323561043e-02 0.0 
2.849947166963e-04 1.144038761154e-02 0.0 
2.295873220604e-04 4.491150925752e-03 0.0 
1.524773968749e-03 7.075755594654e-03 0.0 
2.130878645040e-03 9.603909611522e-03 0.0 
2.083371886368e-03 8.840719871948e-03 0.0 
1.963171714557e-03 8.314745672436e-03 0.0 
1.891496477203e-03 7.564506929254e-03 0.0 
1.745778631541e-03 6.968350872009e-03 0.0 
1.648497468782e-03 6.229208312586e-03 0.0 
1.795224152598e-03 6.835179153816e-03 0.0 
1.479794762922e-03 5.237513351894e-03 0.0 
1.527483757322e-03 5.506249640739e-03 0.0 
2.536271631683e-04 1.105797108065e-02 0.0 
1.961295546117e-03 7.992727114035e-03 0.0 
7.713721459837e-04 1.122487960149e-02 0.0 
1.550313147485e-04 1.149376179565e-02 0.0 
3.045070417400e-04 1.185724310710e-02 0.0 
1.363818322986e-04 1.127846054039e-02 0.0 
1.706743344196e-04 1.100634576233e-02 0.0 
7.809483336416e-04 4.041862626160e-03 0.0 
1.476308674249e-03 5.564294393341e-03 0.0 
1.576723480671e-03 6.313607156251e-03 0.0 
2.086952519171e-03 1.629205505584e-02 0.0 
2.124164392235e-03 1.618139209176e-02 0.0 
1.314563496518e-03 4.605308840013e-03 0.0 
9.755933978965e-04 1.171051766230e-02 0.0 
6.420785097632e-04 1.150212190282e-02 0.0 
5.843067934848e-04 1.222437664042e-02 0.0 
1.002899477149e-04 1.151054620503e-02 0.0 
2.518301563104e-04 1.204440695566e-02 0.0 
4.445114598610e-04 6.472484706563e-03 0.0 
1.667953777211e-03 1.420112809920e-02 0.0 
1.594888772388e-03 1.496648174853e-02 0.0 
3.606645913479e-04 1.370665342090e-02 0.0 
1.304071836508e-04 1.346637436691e-02 0.0 
1.681268876652e-04 8.462049407989e-03 0.0 
1.428416592049e-04 6.740868319991e-03 0.0 
4.244894242884e-04 8.723507887643e-03 0.0 
3.462417933551e-04 8.440101975994e-03 0.0 
9.268335817119e-04 4.542821798164e-03 0.0 
3.530450372651e-04 1.166247655776e-02 0.0 
1.636999365857e-04 5.942098048852e-03 0.0 
1.380358073458e-03 6.575280862522e-03 0.0 
1.484998920407e-03 7.464617121794e-03 0.0 
2.615875594127e-04 9.342933753956e-03 0.0 
1.004246850968e-03 1.520403881400e-02 0.0 
7.460073489298e-04 1.488086878727e-02 0.0 
9.278774255748e-04 1.113164337870e-02 0.0 
4.951361720895e-04 1.140098565585e-02 0.0 
1.139914151178e-04 1.115830155514e-02 0.0 
7.324835026150e-04 3.462035413779e-03 0.0 
4.492818716173e-04 5.672171718494e-03 0.0 
1.676332313089e-03 6.127493763657e-03 0.0 
1.914189435585e-03 7.387875390451e-03 0.0 
1.386026620921e-03 4.805030174971e-03 0.0 
2.026135528901e-04 1.187065001148e-02 0.0 
6.418247369364e-04 3.540306027777e-03 0.0 
1.907996282644e-04 5.021226630424e-03 0.0 
1.294464535139e-03 4.910558737407e-03 0.0 
1.386688323134e-03 5.602330790925e-03 0.0 
1.861402414391e-03 1.436159823108e-02 0.0 
1.800556448430e-03 1.516279206154e-02 0.0 
1.488310808895e-03 1.580104465695e-02 0.0 
1.698788036574e-03 1.603440260196e-02 0.0 
1.619964029892e-03 1.317043402769e-02 0.0 
2.028989355363e-03 1.447632531197e-02 0.0 
1.953857211632e-03 1.358706062564e-02 0.0 
1.845984076184e-03 1.436957481964e-02 0.0 
1.939792337296e-03 1.488101171042e-02 0.0 
2.236067296661e-03 1.511107352002e-02 0.0 
2.118536651871e-03 1.598893199396e-02 0.0 
1.909595382649e-03 1.291053960317e-02 0.0 
2.043813946869e-03 9.276570928373e-03 0.0 
5.009139551504e-04 8.999607296833e-03 0.0 
5.745863365609e-04 7.349329047305e-03 0.0 
1.147345858215e-03 8.059164037698e-03 0.0 
3.372493915208e-04 6.300275443710e-03 0.0 
2.543779985231e-04 5.317165726119e-03 0.0 
4.451249002813e-04 1.207849058093e-02 0.0 
3.894160119273e-04 1.278318311987e-02 0.0 
2.064011891934e-04 1.152905704181e-02 0.0 
1.864575611590e-04 1.165316955647e-02 0.0 
8.615356839101e-04 8.362388141812e-03 0.0 
6.714268587835e-04 4.111320568370e-03 0.0 
5.698081343795e-04 5.837335005378e-03 0.0 
5.580310876283e-04 5.029358426057e-03 0.0 
7.060132111079e-04 5.981084284539e-03 0.0 
8.852848039620e-04 3.982474900234e-03 0.0 
1.686653550202e-03 1.171759553768e-02 0.0 
1.748247223436e-03 8.454027937796e-03 0.0 
2.762432551719e-04 1.306350846637e-02 0.0 
2.237175747435e-03 9.703224311894e-03 0.0 
1.222100327780e-04 1.170919190759e-02 0.0 
1.727218861930e-03 8.646026963376e-03 0.0 
1.572827204734e-04 4.058014687786e-03 0.0 
1.820277651556e-04 3.485748205208e-03 0.0 
1.178857150990e-03 3.980885589410e-03 0.0 
1.505566074222e-03 1.524590363539e-02 0.0 
2.157765936413e-03 8.984718203104e-03 0.0 
2.185320951412e-03 9.345283925512e-03 0.0 
1.810152720765e-03 1.565392814862e-02 0.0 
1.880239682766e-03 1.612269794463e-02 0.0 
2.017903894235e-03 1.532442269507e-02 0.0 
1.932283229653e-03 1.653087585193e-02 0.0 
9.036215710108e-04 1.084254967657e-02 0.0 
7.580166143200e-04 1.096893402998e-02 0.0 
1.140226753101e-03 4.057126196439e-03 0.0 
1.216504828186e-03 4.161599230454e-03 0.0 
1.090013744918e-03 4.176814979711e-03 0.0 
1.179759993004e-03 4.828949243333e-03 0.0 
9.982789324141e-04 3.344203146515e-03 0.0 
1.139966122889e-03 3.987642313376e-03 0.0 
1.377689179587e-04 1.086064450099e-02 0.0 
1.978064847375e-03 1.707674743955e-02 0.0 
3.408354155141e-04 4.686371928294e-03 0.0 
1.726232363765e-03 1.513361909129e-02 0.0 
5.158477145066e-04 3.065954643898e-03 0.0 
5.478725792472e-04 3.632302059223e-03 0.0 
-7.310248049919e-05 1.325708396747e-02 0.0 
8.700618404056e-05 1.287787913310e-02 0.0 
1.121352181315e-04 4.988858612396e-03 0.0 
1.343987576739e-03 1.669119799291e-02 0.0 
1.551752541822e-03 1.696018554950e-02 0.0 
1.106380923584e-03 1.635967107303e-02 0.0 
2.380490276876e-05 1.827557596940e-03 0.0 
1.045784857894e-04 1.561699552940e-02 0.0 
1.182186763180e-04 3.022491541579e-03 0.0 
2.200120541350e-03 1.485102459012e-02 0.0 
1.196903492513e-04 4.094162751006e-03 0.0 
2.058715535441e-03 8.301220498923e-03 0.0 
2.296740205917e-03 1.364728475740e-02 0.0 
1.077857875028e-03 5.047373177266e-03 0.0 
9.129745546943e-05 5.947948704549e-03 0.0 
6.718072768308e-05 3.940420858385e-03 0.0 
6.707858480937e-04 1.304283991607e-02 0.0 
6.062752311919e-04 1.376450332935e-02 0.0 
7.380074927568e-04 1.235321040994e-02 0.0 
6.138707048535e-04 1.396158976320e-02 0.0 
1.587090717905e-04 1.432261510047e-02 0.0 
2.443599557793e-04 6.122684560250e-03 0.0 
2.755481299852e-04 1.047742785252e-02 0.0 
2.272212964805e-04 1.024474592218e-02 0.0 
3.747019380036e-04 1.149434448994e-02 0.0 
4.969136246711e-04 1.120918882751e-02 0.0 
5.082091526987e-04 8.393532596315e-03 0.0 
5.905764738703e-04 8.688988922108e-03 0.0 
1.704298427185e-03 7.859738756496e-03 0.0 
1.529071491007e-03 7.177503166162e-03 0.0 
2.009299435738e-03 9.088778594725e-03 0.0 
1.348044447102e-03 6.989311716264e-03 0.0 
1.424360980574e-03 7.825385590463e-03 0.0 
1.551171525392e-03 8.280076649472e-03 0.0 
2.578058978671e-04 4.560889382763e-03 0.0 
1.714751593980e-04 3.394246710528e-03 0.0 
1.055374925301e-03 1.071983764505e-02 0.0 
1.091400036460e-03 1.104148514442e-02 0.0 
8.660995984719e-04 1.057790496190e-02 0.0 
3.257590973433e-04 3.898429153889e-03 0.0 
1.308755334430e-04 2.438477895915e-03 0.0 
1.941144381137e-04 2.931667130351e-03 0.0 
9.011990299435e-05 1.180774740955e-02 0.0 
1.540229869335e-04 1.177584379443e-02 0.0 
5.812984428104e-04 1.560761113228e-02 0.0 
3.051118903379e-04 1.523028223518e-02 0.0 
5.375155603673e-04 4.283110939607e-03 0.0 
6.907135181393e-04 5.186323825978e-03 0.0 
3.800763435393e-04 3.229100012707e-03 0.0 
8.188675470389e-05 1.104614108174e-02 0.0 
1.792466343112e-03 6.675166968389e-03 0.0 
6.727942443732e-04 2.908479946477e-03 0.0 
8.338416774887e-04 3.454148363264e-03 0.0 
4.926813618873e-04 2.232990560046e-03 0.0 
1.358406668384e-03 4.671426622505e-03 0.0 
1.027567828455e-03 3.372225001701e-03 0.0 
1.036811002354e-03 3.418315540411e-03 0.0 
-2.560270713836e-04 1.363369947353e-02 0.0 
5.093167153802e-05 4.698175620121e-03 0.0 
4.632663577766e-04 1.362577683011e-02 0.0 
-3.880491446715e-04 1.342060794676e-02 0.0 
4.007296701261e-04 1.435503067382e-02 0.0 
3.344189789090e-04 1.348435119010e-02 0.0 
3.468056601648e-04 1.506313995043e-02 0.0 
6.736668937868e-05 1.129611579479e-02 0.0 
7.645684278117e-04 1.411171422412e-02 0.0 
8.417032236068e-04 1.324123382394e-02 0.0 
2.142694141938e-05 1.193217829781e-02 0.0 
2.202301236878e-04 2.901659183735e-03 0.0 
4.648468785717e-05 1.182811762695e-02 0.0 
7.757101061223e-05 1.175009719091e-02 0.0 
3.962412721119e-04 2.548462104784e-03 0.0 
4.334784657907e-04 3.144658783597e-03 0.0 
2.882994014595e-04 2.048430110097e-03 0.0 
3.370474303814e-04 2.710300719780e-03 0.0 
4.527027600165e-04 3.737543255962e-03 0.0 
3.527717100180e-04 3.266299206771e-03 0.0 
5.441196774996e-04 1.457529243232e-02 0.0 
2.315090382270e-04 2.054278650583e-03 0.0 
2.616936928899e-04 2.763929259086e-03 0.0 
1.525406642795e-04 1.580898087941e-03 0.0 
1.768892128588e-03 1.731190505878e-02 0.0 
1.856863414929e-03 1.623104505891e-02 0.0 
1.710530921272e-03 1.719134375115e-02 0.0 
1.343468428438e-03 1.799681604098e-02 0.0 
7.972824494900e-04 3.059521005433e-03 0.0 
9.787451225520e-04 4.088027243867e-03 0.0 
1.190484235001e-04 4.587487861405e-03 0.0 
1.361069859200e-04 5.509916457573e-03 0.0 
2.764219139095e-04 1.428405290279e-02 0.0 
2.016252714938e-04 1.434512403675e-02 0.0 
2.197156082744e-04 1.296280947015e-02 0.0 
1.585021741874e-04 1.313281532286e-02 0.0 
1.693560544140e-04 1.173264934635e-02 0.0 
1.089798139944e-04 1.191314789478e-02 0.0 
1.289620116509e-04 1.046893240089e-02 0.0 
8.333880912481e-04 2.717522226057e-03 0.0 
8.869556629527e-04 1.724533099174e-02 0.0 
1.669236508519e-03 1.640950621742e-02 0.0 
8.093830562288e-04 2.717918711397e-03 0.0 
9.862506629013e-04 3.486658524249e-03 0.0 
1.971048582799e-03 1.685031700315e-02 0.0 
1.796781026638e-03 1.797812204611e-02 0.0 
4.263456323930e-04 2.282192157526e-03 0.0 
2.059418925096e-03 1.369596489829e-02 0.0 
1.650267582463e-04 1.859860410740e-03 0.0 
-8.983565145080e-04 1.476427981850e-02 0.0 
-3.793551716633e-04 1.444400421090e-02 0.0 
2.192542469963e-03 1.372521288335e-02 0.0 
2.079031130332e-03 1.569811691118e-02 0.0 
1.992794456747e-03 1.632216048138e-02 0.0 
1.866879870086e-03 1.724844424121e-02 0.0 
1.234272252486e-03 6.071956352896e-03 0.0 
1.022843178919e-04 1.190656667296e-02 0.0 
8.500544749701e-04 1.598993559069e-02 0.0 
1.873357166247e-04 1.030585023854e-02 0.0 
3.626966905443e-04 1.637437264335e-02 0.0 
6.242633060183e-05 5.012753534720e-03 0.0 
2.068978208708e-03 1.294355323068e-02 0.0 
2.289981602370e-03 1.399828747448e-02 0.0 
1.256393015645e-03 1.551080805746e-02 0.0 
1.983914146575e-03 1.528462868094e-02 0.0 
1.713322523504e-03 1.241518648482e-02 0.0 
1.517970466956e-03 1.390178362478e-02 0.0 
1.622239210342e-03 1.455319712149e-02 0.0 
2.049815424051e-03 1.225528348838e-02 0.0 
1.947692913792e-03 1.721042064879e-02 0.0 
1.682520044078e-03 1.826216212239e-02 0.0 
2.043287769666e-03 1.279188564952e-02 0.0 
8.611447449809e-04 6.900667078408e-03 0.0 
8.557764349391e-04 6.097988911606e-03 0.0 
6.624147585796e-04 4.434942833186e-03 0.0 
8.329060917518e-04 5.306257109147e-03 0.0 
1.026780630660e-03 6.986633914313e-03 0.0 
1.014628599663e-03 6.191224491090e-03 0.0 
7.903222472549e-04 4.534713689825e-03 0.0 
9.822467174416e-04 5.399759448849e-03 0.0 
6.651645958335e-04 3.408961585780e-03 0.0 
9.185534290062e-04 4.575651627430e-03 0.0 
1.178129225181e-03 6.272388024950e-03 0.0 
1.135401568046e-03 5.517067960714e-03 0.0 
8.734665615755e-04 4.002542456291e-03 0.0 
1.377683211320e-03 7.184576589514e-03 0.0 
6.387325701773e-04 2.054726091043e-03 0.0 
2.299127051518e-03 1.286437015251e-02 0.0 
-5.065116917891e-05 1.393612442248e-02 0.0 
-1.604231783965e-04 1.484576604449e-02 0.0 
2.230191650924e-03 1.366950979150e-02 0.0 
3.252433759755e-04 1.658870192742e-03 0.0 
2.647864769827e-04 1.653670652029e-03 0.0 
1.709462142280e-03 1.349761695519e-02 0.0 
4.094281276892e-04 1.450431372913e-03 0.0 
1.736243946908e-03 1.380023508390e-02 0.0 
9.670411837170e-04 1.362766226598e-02 0.0 
4.322299242041e-04 1.406109459094e-03 0.0 
1.020319697020e-03 7.777934505706e-03 0.0 
1.181126557903e-03 8.650737658266e-03 0.0 
1.146094356358e-03 9.426177472051e-03 0.0 
2.027134446081e-04 1.555028305710e-03 0.0 
8.031183887596e-04 1.163381844171e-02 0.0 
3.969340232679e-04 1.215153934901e-03 0.0 
1.959065589574e-03 8.356676392582e-03 0.0 
2.078735670882e-03 8.991255938684e-03 0.0 
2.145705877862e-03 9.908065614448e-03 0.0 
1.200305997749e-03 7.084938098995e-03 0.0 
3.584707930422e-04 1.198286655576e-03 0.0 
6.435772947704e-04 2.275356504448e-03 0.0 
6.022625498936e-04 2.240292946407e-03 0.0 
8.966603980980e-04 3.367499224588e-03 0.0 
3.126009113270e-04 1.156519993469e-03 0.0 
3.394119181088e-04 1.458947717182e-03 0.0 
3.425501133734e-04 1.367831107313e-03 0.0 
9.386399010456e-04 1.144095897302e-02 0.0 
1.115764677168e-03 1.138331805759e-02 0.0 
1.258871024419e-03 1.094833084987e-02 0.0 
1.295511329547e-03 1.132954504613e-02 0.0 
1.124545955944e-03 1.175649255502e-02 0.0 
1.316526878707e-03 1.174448357133e-02 0.0 
1.472301914365e-03 1.127690543826e-02 0.0 
1.320193482595e-03 1.219857815389e-02 0.0 
1.272670495766e-03 5.627370543852e-03 0.0 
2.574703284530e-04 1.086034543945e-03 0.0 
1.107776262788e-03 7.299570269728e-03 0.0 
1.229644310328e-03 7.724278103028e-03 0.0 
1.257749048063e-03 8.458621818122e-03 0.0 
5.740447464184e-04 9.270905229378e-03 0.0 
6.704074591832e-04 8.981906249604e-03 0.0 
6.797779343257e-04 8.362347045184e-03 0.0 
4.798680791112e-04 9.548075181517e-03 0.0 
2.010339957291e-03 8.101738485381e-03 0.0 
2.348383299360e-04 1.083642101378e-03 0.0 
1.619454351129e-03 7.949096869714e-03 0.0 
7.471360951090e-04 9.272368634292e-03 0.0 
1.013610131828e-03 1.551543203610e-02 0.0 
1.066194686750e-03 1.424173937408e-02 0.0 
1.171896716080e-03 1.415960576900e-02 0.0 
1.097974300457e-03 1.272249542617e-02 0.0 
9.481358677306e-04 1.411133866818e-02 0.0 
4.247283715051e-04 8.090239567927e-03 0.0 
3.411422868158e-04 7.779949269993e-03 0.0 
2.666234591406e-04 8.149504292989e-03 0.0 
2.582425442492e-04 7.461360372647e-03 0.0 
1.866465065214e-04 7.848129148762e-03 0.0 
1.927794526591e-04 8.486943005334e-03 0.0 
1.751443768230e-04 7.133254178502e-03 0.0 
1.079917941484e-04 7.618733999141e-03 0.0 
8.149764450067e-04 1.557282312463e-02 0.0 
-3.993609412625e-04 1.277623064259e-02 0.0 
-1.391816203657e-04 1.258671438848e-02 0.0 
-1.045764638086e-04 1.239594105307e-02 0.0 
6.862602873881e-05 1.238394388667e-02 0.0 
7.429227500388e-05 1.257804598817e-02 0.0 
3.054802715816e-04 1.230781237153e-02 0.0 
2.906403348497e-04 1.255662713674e-02 0.0 
-1.813637211541e-04 1.283335047400e-02 0.0 
-2.512797691878e-04 1.238475071582e-02 0.0 
-6.812381466581e-05 1.224385245868e-02 0.0 
-1.915565375548e-04 1.224450372574e-02 0.0 
-4.382659263058e-05 1.212529122862e-02 0.0 
1.136525429750e-04 1.205975607563e-02 0.0 
2.714211802388e-04 1.157967475360e-02 0.0 
6.724316770512e-05 1.226512536096e-03 0.0 
7.034451398935e-05 9.329697360085e-03 0.0 
1.337263792085e-04 9.593926970782e-03 0.0 
1.219719522401e-04 1.005277114718e-02 0.0 
1.970498729778e-04 9.817409256446e-03 0.0 
1.345114078084e-04 9.109671125829e-03 0.0 
5.783261916992e-05 1.027711692591e-02 0.0 
1.093089189463e-04 1.042176686490e-02 0.0 
6.707119756033e-06 1.178131386762e-02 0.0 
1.819556057381e-05 1.172833597499e-02 0.0 
6.543944149895e-06 1.173046493721e-02 0.0 
2.616738641525e-05 1.163248743685e-02 0.0 
4.174757556097e-05 1.164262403785e-02 0.0 
2.734360543322e-05 1.173620291249e-02 0.0 
3.391026336619e-05 1.175105057212e-02 0.0 
3.825525136669e-06 1.181239257629e-02 0.0 
3.808500794911e-05 1.177138095117e-02 0.0 
7.370454567468e-05 1.166346074945e-02 0.0 
-3.218060316001e-06 1.183690296679e-02 0.0 
4.081480465601e-05 8.279119073141e-03 0.0 
7.774822118733e-05 7.426208103478e-03 0.0 
2.032332585546e-04 1.133574883031e-03 0.0 
6.300485034103e-04 1.547518058733e-02 0.0 
-9.714951906226e-05 1.204246405583e-02 0.0 
6.204707332813e-05 1.994642038831e-03 0.0 
9.460483460089e-05 1.656872598961e-03 0.0 
7.696538449409e-05 1.604744505112e-03 0.0 
3.925474767164e-05 2.979008120516e-03 0.0 
6.378786620242e-05 2.448398825582e-03 0.0 
3.297850592077e-05 1.938559023110e-03 0.0 
4.644651733265e-04 1.085043030497e-02 0.0 
6.152868543339e-04 3.696701712681e-03 0.0 
1.769092027430e-04 5.130893497732e-03 0.0 
8.740341618179e-04 1.421755016356e-02 0.0 
6.218953614336e-04 1.109160634084e-02 0.0 
2.156884655871e-04 5.905275061352e-03 0.0 
6.421289689342e-04 6.941478200670e-03 0.0 
2.562402844584e-04 3.947566583427e-03 0.0 
3.898753816971e-04 6.649022826002e-03 0.0 
4.318852324365e-04 4.815143073325e-03 0.0 
5.752017232652e-04 2.280630473184e-03 0.0 
9.086359311539e-05 1.139149136692e-02 0.0 
4.983589070235e-04 1.135913773632e-02 0.0 
3.205855358388e-04 1.192924936709e-02 0.0 
2.964252351632e-04 7.874250761006e-03 0.0 
3.145949849168e-04 1.065769787752e-02 0.0 
2.704984175326e-04 8.745071684530e-03 0.0 
2.145835264162e-04 1.140251808837e-02 0.0 
7.759190793699e-04 2.684229048771e-03 0.0 
2.052914655671e-03 1.408487614774e-02 0.0 
1.155858967342e-03 8.752591289499e-03 0.0 
5.421373920003e-04 9.793579218156e-03 0.0 
5.738857086435e-04 1.068208567238e-02 0.0 
6.262652198856e-04 1.131509062032e-02 0.0 
2.360063168169e-03 1.274127904541e-02 0.0 
8.521075100809e-04 8.991931940185e-03 0.0 
7.853755007048e-04 5.602346206404e-03 0.0 
2.257597512170e-04 6.918307901749e-03 0.0 
-2.746622775618e-05 1.190636965222e-02 0.0 
8.042300876756e-04 5.109507067836e-03 0.0 
8.479218052226e-04 7.666060088757e-03 0.0 
6.969292381953e-04 1.076551786858e-02 0.0 
1.490060342569e-03 5.716961306609e-03 0.0 
3.933471828823e-04 1.204338440235e-02 0.0 
4.294002822789e-04 7.264854812405e-03 0.0 
4.273500116838e-04 4.157925151706e-03 0.0 
9.086400785279e-04 1.246995099119e-02 0.0 
1.423032415371e-04 1.160721189230e-02 0.0 
5.261263596523e-04 1.295448801286e-02 0.0 
5.867930876082e-04 2.937364389712e-03 0.0 
8.496496456232e-04 7.691847606418e-03 0.0 
2.376628441256e-04 1.083920933446e-02 0.0 
1.787295107871e-03 9.245744001872e-03 0.0 
2.345592262039e-03 1.314811299295e-02 0.0 
1.457908318869e-03 1.652347998282e-02 0.0 
1.830158131142e-04 4.376401082453e-03 0.0 
2.265167808602e-03 1.032956212558e-02 0.0 
1.160130062605e-03 4.569063636762e-03 0.0 
1.665856457095e-03 7.590202665529e-03 0.0 
2.030500378782e-04 1.067029727646e-02 0.0 
5.609614700131e-04 4.193971961552e-03 0.0 
2.079952973386e-03 1.012637386462e-02 0.0 
3.452351956525e-04 5.508591193308e-03 0.0 
1.818409403956e-03 7.727675645349e-03 0.0 
1.802626559027e-03 1.113429404638e-02 0.0 
5.672974268194e-04 6.634948584860e-03 0.0 
1.364748422073e-03 8.862115897832e-03 0.0 
1.418543229018e-03 5.184039731166e-03 0.0 
2.137125517418e-03 1.450305871161e-02 0.0 
2.151245807067e-03 1.038645295293e-02 0.0 
1.723951181997e-03 9.430182951965e-03 0.0 
2.292326041008e-03 1.044552494330e-02 0.0 
1.470440189373e-04 6.370306699976e-03 0.0 
6.788518478924e-04 4.653712254424e-03 0.0 
5.951225810250e-04 1.282200033479e-02 0.0 
2.173130335983e-03 1.449640027716e-02 0.0 
8.605719493815e-04 1.087441513659e-02 0.0 
1.362746493825e-03 4.879198358399e-03 0.0 
2.437210253561e-04 3.684168813759e-03 0.0 
2.318597145297e-03 1.423425143004e-02 0.0 
5.547786349958e-04 4.731597115766e-03 0.0 
4.447765033362e-04 4.918788570706e-03 0.0 
7.670438305887e-04 8.679665953858e-03 0.0 
3.258504619719e-05 1.126189399715e-02 0.0 
4.863352513702e-04 1.455873304331e-02 0.0 
1.521778278324e-03 1.223510266900e-02 0.0 
2.230530565832e-03 1.056380667715e-02 0.0 
7.663022508808e-04 8.024676203355e-03 0.0 
4.736987746696e-04 3.296449853249e-03 0.0 
4.503241985692e-04 4.288618944052e-03 0.0 
1.085651892735e-03 5.554637040088e-03 0.0 
-4.515571446753e-04 1.615145811911e-02 0.0 
1.596965948991e-03 1.584085218979e-02 0.0 
3.544197334788e-04 3.836814907952e-03 0.0 
1.672978804589e-03 8.751953122418e-03 0.0 
1.252412806974e-03 4.597591982272e-03 0.0 
1.170217821012e-04 8.227274797516e-03 0.0 
7.962086857560e-04 2.662362645172e-03 0.0 
1.803662278434e-03 1.765571392749e-02 0.0 
2.678784526244e-04 3.375199577533e-03 0.0 
1.235632141482e-03 5.604977195260e-03 0.0 
1.899231569638e-03 1.360665984569e-02 0.0 
1.735534672065e-04 1.561752634341e-02 0.0 
1.696833365363e-04 2.117373993151e-03 0.0 
1.042401475020e-03 4.508180196485e-03 0.0 
2.175452966725e-03 9.304650625104e-03 0.0 
1.577637556545e-03 9.023027241387e-03 0.0 
1.562761016686e-03 1.760239258943e-02 0.0 
6.702502633944e-04 7.685657380478e-03 0.0 
2.029138173281e-03 9.873580644596e-03 0.0 
1.757785042642e-04 1.520610388273e-03 0.0 
9.973132974466e-04 4.022508230761e-03 0.0 
1.294477808358e-03 1.027723213199e-02 0.0 
5.909587116637e-04 8.049433984549e-03 0.0 
1.937513448574e-03 7.616637824391e-03 0.0 
5.786254325546e-05 1.165222768341e-02 0.0 
1.726114391566e-03 1.687962279362e-02 0.0 
5.015330601310e-04 7.728602011024e-03 0.0 
1.504728670223e-03 1.173735592544e-02 0.0 
1.464915356800e-03 8.582670308899e-03 0.0 
8.463998209507e-04 2.735728908839e-03 0.0 
4.131799027833e-04 7.400146581649e-03 0.0 
1.643035405031e-03 1.121157572539e-02 0.0 
3.264963741807e-04 7.063959716300e-03 0.0 
1.605534605048e-03 1.846074662860e-02 0.0 
1.339486249755e-03 9.477944886576e-03 0.0 
2.390278400357e-04 6.718353165990e-03 0.0 
1.866289884028e-03 8.504561855702e-03 0.0 
9.000718809560e-05 1.167784955005e-02 0.0 
2.100266122621e-03 8.580104549116e-03 0.0 
9.251601283777e-05 3.544879139405e-03 0.0 
8.186119822486e-04 1.032124401543e-02 0.0 
1.349297390403e-03 8.157856024004e-03 0.0 
1.199523856506e-03 7.865773527850e-03 0.0 
1.548940269402e-03 1.907241519772e-02 0.0 
1.298184137715e-03 7.372883282759e-03 0.0 
1.654143801328e-03 7.086895504562e-03 0.0 
2.002519742035e-03 7.878407204169e-03 0.0 
2.181206237246e-03 9.649478889731e-03 0.0 
1.210284664074e-03 6.504330988568e-03 0.0 
1.773235798872e-03 1.811279941293e-02 0.0 
4.797282774831e-04 1.104143332156e-02 0.0 
3.819924761910e-04 1.133311501113e-02 0.0 
1.584484562457e-03 1.074526607687e-02 0.0 
1.469623433202e-03 6.379238459431e-03 0.0 
5.283746627471e-05 1.151085197041e-02 0.0 
1.382877524140e-03 7.926258028116e-03 0.0 
2.428916482220e-04 1.172479655194e-02 0.0 
1.424690390261e-03 1.085176899598e-02 0.0 
1.633895741406e-03 5.894149188009e-03 0.0 
4.925166678049e-05 1.151190885210e-02 0.0 
1.364780793921e-03 1.045435969436e-02 0.0 
4.010165898971e-05 1.098649504214e-02 0.0 
1.210652096020e-03 1.059270387378e-02 0.0 
2.082925153843e-03 8.662414050441e-03 0.0 
1.152801263380e-03 1.025090004301e-02 0.0 
1.008447323180e-03 1.041634070240e-02 0.0 
1.216972852873e-04 3.367428644957e-03 0.0 
9.523547009422e-04 1.012408369094e-02 0.0 
1.581583289578e-05 1.608004446240e-03 0.0 
2.806398146782e-05 1.115248835767e-03 0.0 
6.535741226799e-05 1.452474717558e-02 0.0 
1.315276405460e-03 1.943136670021e-02 0.0 
-6.999824551137e-04 1.375986621186e-02 0.0 
1.596167155583e-03 1.797899109539e-02 0.0 
7.306635867916e-04 1.073451261829e-02 0.0 
1.559215946450e-03 7.956304678222e-03 0.0 
1.358303918906e-04 1.445698868937e-02 0.0 
6.013266846665e-04 1.088709585113e-02 0.0 
6.356317565057e-04 2.948255001819e-03 0.0 
4.063167530326e-04 1.255732725880e-03 0.0 
8.851234523632e-05 9.030551732662e-03 0.0 
1.096329539450e-03 4.079420983405e-03 0.0 
1.876811414064e-03 7.152043707171e-03 0.0 
2.506338058339e-05 4.877622097744e-03 0.0 
4.039794444992e-04 1.572780114830e-02 0.0 
-2.034882981938e-05 1.202879572616e-02 0.0 
7.088021436286e-05 5.920530261109e-03 0.0 
9.453519427431e-04 1.908872336408e-02 0.0 
1.111877870795e-03 1.763922253299e-02 0.0 
6.124533261378e-04 1.683151897157e-02 0.0 
1.587120068960e-04 1.053039561262e-02 0.0 
7.360005849755e-05 1.222123255503e-02 0.0 
5.800913164329e-04 1.821546892558e-02 0.0 
6.960186308547e-04 2.383658207503e-03 0.0 
6.804819931077e-04 1.442091370306e-02 0.0 
1.538435423889e-03 5.443438498265e-03 0.0 
6.079777783086e-05 1.723526805952e-02 0.0 
3.058524046722e-04 3.227312150031e-03 0.0 
8.101447832303e-04 2.578630767527e-03 0.0 
1.425916931890e-04 9.902197073473e-04 0.0 
1.210201585103e-03 4.063834707420e-03 0.0 
7.748943582442e-05 1.591043304867e-02 0.0 
1.003756263778e-03 1.306711437429e-02 0.0 
7.522255688279e-04 2.713779169415e-03 0.0 
1.194126705357e-04 7.673178943529e-03 0.0 
1.022181609329e-04 9.453951046510e-04 0.0 
8.583194581959e-04 1.452774838819e-02 0.0 
7.413526886069e-05 3.145018849285e-03 0.0 
4.038000588036e-04 1.271654387802e-02 0.0 
3.695907001600e-05 3.052611105847e-03 0.0 
1.337545187766e-03 6.390297306186e-03 0.0 
2.762687002473e-04 1.263966043538e-02 0.0 
1.207639389897e-03 1.304142408146e-02 0.0 
7.722966369039e-05 1.928912101459e-03 0.0 
5.506926640066e-04 3.036083979786e-03 0.0 
-1.926688648730e-04 1.538403026493e-02 0.0 
1.388528206832e-04 9.198748093249e-03 0.0 
2.658141482037e-04 9.819271284035e-03 0.0 
-2.859625921410e-04 1.313194478821e-02 0.0 
3.541151533231e-04 2.071352940892e-03 0.0 
1.075212187651e-03 4.831820632283e-03 0.0 
1.292221454410e-04 1.971503944269e-03 0.0 
1.078585077929e-05 1.163932696814e-02 0.0 
8.022744168557e-06 1.189798765916e-02 0.0 
3.976294181705e-04 1.942704267641e-03 0.0 
6.569352365595e-04 2.646194646459e-03 0.0 
5.150230930564e-04 1.230800184610e-02 0.0 
1.014213083863e-04 1.298056433317e-03 0.0 
-5.552795784176e-04 1.502104079010e-02 0.0 
5.522956952007e-04 1.587483310436e-02 0.0 
3.475563086131e-05 1.180227332473e-02 0.0 
8.169835400462e-05 9.535253677235e-04 0.0 
1.799173792207e-04 3.011130219324e-03 0.0 
1.885125506043e-04 9.358725787955e-03 0.0 
1.216492806172e-03 1.526518811897e-02 0.0 
9.371264578872e-05 1.076700787532e-02 0.0 
1.073539174776e-03 3.671572876996e-03 0.0 
7.519642972653e-05 1.199823124248e-02 0.0 
1.217264840534e-04 2.844636827177e-03 0.0 
4.628149502075e-04 1.931294639206e-03 0.0 
3.729148032505e-04 2.808989807047e-03 0.0 
2.900817869289e-04 9.082675789038e-04 0.0 
-4.383784241675e-04 1.399685795628e-02 0.0 
7.072653255236e-04 2.247656782192e-03 0.0 
7.845335321246e-04 3.066914714999e-03 0.0 
3.033699145405e-04 1.578701546255e-02 0.0 
4.749516761891e-04 2.990590093923e-03 0.0 
1.688869010903e-04 1.020301384219e-02 0.0 
1.158986436351e-04 1.154768209857e-02 0.0 
6.941340082278e-06 1.424986227679e-03 0.0 
3.287027442456e-07 1.177325568369e-02 0.0 
5.080469750141e-05 1.578023205515e-02 0.0 
1.123784575063e-05 9.095561853982e-04 0.0 
6.815817153072e-05 1.154902909149e-02 0.0 
1.074432683836e-04 1.343121789193e-02 0.0 
6.011076628276e-04 2.579623443776e-03 0.0 
5.059250422312e-05 8.115843752604e-03 0.0 
5.901870750336e-05 6.045541235004e-03 0.0 
2.178537244433e-04 1.219310152804e-02 0.0 
-6.494084893802e-04 1.335651040165e-02 0.0 
8.526022165256e-05 1.071101470860e-02 0.0 
7.181152267002e-04 2.275091615651e-03 0.0 
2.862528986469e-04 2.698406025178e-03 0.0 
2.207838498762e-04 1.178811624816e-02 0.0 
1.581446962469e-04 1.486195416806e-02 0.0 
8.441196662226e-04 3.636412602003e-03 0.0 
2.028526756339e-04 8.937305591374e-03 0.0 
1.019694706528e-03 3.723818119720e-03 0.0 
8.809807130632e-04 3.174427789464e-03 0.0 
-9.378437082468e-04 1.525613548588e-02 0.0 
4.587240954157e-05 7.437731847958e-03 0.0 
2.528859324169e-05 1.183502457698e-02 0.0 
2.351517792443e-04 1.823200987715e-03 0.0 
1.347287681404e-04 8.667513656677e-03 0.0 
1.011294596740e-03 2.064317437715e-02 0.0 
3.872013715522e-05 2.235281483526e-02 0.0 
1.264099752486e-03 2.017306884730e-02 0.0 
3.378076092986e-05 2.123230369142e-02 0.0 
1.352015515032e-03 1.943176738200e-02 0.0 
3.572345716663e-05 2.004808384609e-02 0.0 
1.340238850872e-03 1.846692936555e-02 0.0 
3.308260998836e-05 1.879932839109e-02 0.0 
1.260972314483e-03 1.735278700684e-02 0.0 
3.530570747756e-05 1.748626118621e-02 0.0 

VECTORS node_bounda_dof_materi_velocity_x float
1.000000000000e+00 0.0 0.0 
1.000000000000e+00 0.0 0.0 
1.000000000000e+00 0.0 0.0 
1.000000000000e+00 0.0 0.0 
1.000000000000e+00 0.0 0.0 
1.000000000000e+00 0.0 0.0 
1.000000000000e+00 0.0 0.0 
1.000000000000e+00 0.0 0.0 
1.000000000000e+00 0.0 0.0 
1.000000000000e+00 0.0 0.0 
1.000000000000e+00 0.0 0.0 
1.000000000000e+00 0.0 0.0 
1.000000000000e+00 0.0 0.0 
1.000000000000e+00 0.0 0.0 
1.000000000000e+00 0.0 0.0 
1.000000000000e+00 0.0 0.0 
1.000000000000e+00 0.0 0.0 
1.000000000000e+00 0.0 0.0 
1.000000000000e+00 0.0 0.0 
1.000000000000e+00 0.0 0.0 
1.000000000000e+00 0.0 0.0 
1.000000000000e+00 0.0 0.0 
1.000000000000e+00 0.0 0.0 
1.000000000000e+00 0.0 0.0 
1.000000000000e+00 0.0 0.0 
1.000000000000e+00 0.0 0.0 
1.000000000000e+00 0.0 0.0 
1.000000000000e+00 0.0 0.0 
1.000000000000e+00 0.0 0.0 
1.000000000000e+00 0.0 0.0 
1.000000000000e+00 0.0 0.0 
1.000000000000e+00 0.0 0.0 
1.000000000000e+00 0.0 0.0 
1.000000000000e+00 0.0 0.0 
1.000000000000e+00 0.0 0.0 
1.000000000000e+00 0.0 0.0 
1.000000000000e+00 0.0 0.0 
1.000000000000e+00 0.0 0.0 
1.000000000000e+00 0.0 0.0 
1.000000000000e+00 0.0 0.0 
1.000000000000e+00 0.0 0.0 
1.000000000000e+00 0.0 0.0 
1.000000000000e+00 0.0 0.0 
1.000000000000e+00 0.0 0.0 
1.000000000000e+00 0.0 0.0 
1.000000000000e+00 0.0 0.0 
1.000000000000e+00 0.0 0.0 
1.000000000000e+00 0.0 0.0 
1.000000000000e+00 0.0 0.0 
1.000000000000e+00 0.0 0.0 
1.000000000000e+00 0.0 0.0 
1.000000000000e+00 0.0 0.0 
1.000000000000e+00 0.0 0.0 
1.000000000000e+00 0.0 0.0 
1.000000000000e+00 0.0 0.0 
1.000000000000e+00 0.0 0.0 
1.000000000000e+00 0.0 0.0 
1.000000000000e+00 0.0 0.0 
1.000000000000e+00 0.0 0.0 
1.000000000000e+00 0.0 0.0 
1.000000000000e+00 0.0 0.0 
1.000000000000e+00 0.0 0.0 
1.000000000000e+00 0.0 0.0 
1.000000000000e+00 0.0 0.0 
1.000000000000e+00 0.0 0.0 
1.000000000000e+00 0.0 0.0 
1.000000000000e+00 0.0 0.0 
1.000000000000e+00 0.0 0.0 
1.000000000000e+00 0.0 0.0 
1.000000000000e+00 0.0 0.0 
1.000000000000e+00 0.0 0.0 
1.000000000000e+00 0.0 0.0 
1.000000000000e+00 0.0 0.0 
1.000000000000e+00 0.0 0.0 
1.000000000000e+00 0.0 0.0 
1.000000000000e+00 0.0 0.0 
1.000000000000e+00 0.0 0.0 
1.000000000000e+00 0.0 0.0 
1.000000000000e+00 0.0 0.0 
1.000000000000e+00 0.0 0.0 
1.000000000000e+00 0.0 0.0 
0.0 0.0 0.0 
0.0 0.0 0.0 
0.0 0.0 0.0 
0.0 0.0 0.0 
0.0 0.0 0.0 
0.0 0.0 0.0 
0.0 0.0 0.0 
0.0 0.0 0.0 
0.0 0.0 0.0 
0.0 0.0 0.0 
0.0 0.0 0.0 
1.000000000000e+00 0.0 0.0 
1.000000000000e+00 0.0 0.0 
1.000000000000e+00 0.0 0.0 
1.000000000000e+00 0.0 0.0 
1.000000000000e+00 0.0 0.0 
0.0 0.0 0.0 
0.0 0.0 0.0 
0.0 0.0 0.0 
0.0 0.0 0.0 
0.0 0.0 0.0 
0.0 0.0 0.0 
0.0 0.0 0.0 
0.0 0.0 0.0 
0.0 0.0 0.0 
0.0 0.0 0.0 
0.0 0.0 0.0 
0.0 0.0 0.0 
0.0 0.0 0.0 
0.0 0.0 0.0 
0.0 0.0 0.0 
0.0 0.0 0.0 
0.0 0.0 0.0 
0.0 0.0 0.0 
0.0 0.0 0.0 
0.0 0.0 0.0 
0.0 0.0 0.0 
0.0 0.0 0.0 
0.0 0.0 0.0 
0.0 0.0 0.0 
0.0 0.0 0.0 
0.0 0.0 0.0 
0.0 0.0 0.0 
0.0 0.0 0.0 
0.0 0.0 0.0 
0.0 0.0 0.0 
0.0 0.0 0.0 
0.0 0.0 0.0 
0.0 0.0 0.0 
0.0 0.0 0.0 
0.0 0.0 0.0 
0.0 0.0 0.0 
0.0 0.0 0.0 
0.0 0.0 0.0 
0.0 0.0 0.0 
0.0 0.0 0.0 
0.0 0.0 0.0 
0.0 0.0 0.0 
0.0 0.0 0.0 
0.0 0.0 0.0 
0.0 0.0 0.0 
0.0 0.0 0.0 
0.0 0.0 0.0 
0.0 0.0 0.0 
0.0 0.0 0.0 
0.0 0.0 0.0 
0.0 0.0 0.0 
0.0 0.0 0.0 
0.0 0.0 0.0 
0.0 0.0 0.0 
0.0 0.0 0.0 
0.0 0.0 0.0 
0.0 0.0 0.0 
0.0 0.0 0.0 
0.0 0.0 0.0 
0.0 0.0 0.0 
0.0 0.0 0.0 
0.0 0.0 0.0 
0.0 0.0 0.0 
0.0 0.0 0.0 
0.0 0.0 0.0 
0.0 0.0 0.0 
0.0 0.0 0.0 
0.0 0.0 0.0 
0.0 0.0 0.0 
0.0 0.0 0.0 
0.0 0.0 0.0 
0.0 0.0 0.0 
0.0 0.0 0.0 
0.0 0.0 0.0 
0.0 0.0 0.0 
0.0 0.0 0.0 
0.0 0.0 0.0 
0.0 0.0 0.0 
0.0 0.0 0.0 
0.0 0.0 0.0 
0.0 0.0 0.0 
0.0 0.0 0.0 
0.0 0.0 0.0 
0.0 0.0 0.0 
0.0 0.0 0.0 
0.0 0.0 0.0 
0.0 0.0 0.0 
0.0 0.0 0.0 
0.0 0.0 0.0 
0.0 0.0 0.0 
0.0 0.0 0.0 
0.0 0.0 0.0 
0.0 0.0 0.0 
0.0 0.0 0.0 
0.0 0.0 0.0 
0.0 0.0 0.0 
0.0 0.0 0.0 
0.0 0.0 0.0 
0.0 0.0 0.0 
0.0 0.0 0.0 
0.0 0.0 0.0 
0.0 0.0 0.0 
0.0 0.0 0.0 
0.0 0.0 0.0 
0.0 0.0 0.0 
0.0 0.0 0.0 
0.0 0.0 0.0 
0.0 0.0 0.0 
0.0 0.0 0.0 
0.0 0.0 0.0 
0.0 0.0 0.0 
0.0 0.0 0.0 
0.0 0.0 0.0 
0.0 0.0 0.0 
0.0 0.0 0.0 
0.0 0.0 0.0 
0.0 0.0 0.0 
0.0 0.0 0.0 
0.0 0.0 0.0 
0.0 0.0 0.0 
0.0 0.0 0.0 
0.0 0.0 0.0 
0.0 0.0 0.0 
0.0 0.0 0.0 
0.0 0.0 0.0 
0.0 0.0 0.0 
0.0 0.0 0.0 
0.0 0.0 0.0 
0.0 0.0 0.0 
0.0 0.0 0.0 
0.0 0.0 0.0 
0.0 0.0 0.0 
0.0 0.0 0.0 
0.0 0.0 0.0 
0.0 0.0 0.0 
0.0 0.0 0.0 
0.0 0.0 0.0 
0.0 0.0 0.0 
0.0 0.0 0.0 
0.0 0.0 0.0 
0.0 0.0 0.0 
0.0 0.0 0.0 
0.0 0.0 0.0 
0.0 0.0 0.0 
0.0 0.0 0.0 
0.0 0.0 0.0 
0.0 0.0 0.0 
0.0 0.0 0.0 
0.0 0.0 0.0 
0.0 0.0 0.0 
0.0 0.0 0.0 
0.0 0.0 0.0 
0.0 0.0 0.0 
0.0 0.0 0.0 
0.0 0.0 0.0 
0.0 0.0 0.0 
0.0 0.0 0.0 
0.0 0.0 0.0 
0.0 0.0 0.0 
0.0 0.0 0.0 
0.0 0.0 0.0 
0.0 0.0 0.0 
0.0 0.0 0.0 
0.0 0.0 0.0 
0.0 0.0 0.0 
0.0 0.0 0.0 
0.0 0.0 0.0 
0.0 0.0 0.0 
0.0 0.0 0.0 
0.0 0.0 0.0 
0.0 0.0 0.0 
0.0 0.0 0.0 
0.0 0.0 0.0 
0.0 0.0 0.0 
0.0 0.0 0.0 
0.0 0.0 0.0 
0.0 0.0 0.0 
0.0 0.0 0.0 
0.0 0.0 0.0 
0.0 0.0 0.0 
0.0 0.0 0.0 
0.0 0.0 0.0 
0.0 0.0 0.0 
0.0 0.0 0.0 
0.0 0.0 0.0 
0.0 0.0 0.0 
0.0 0.0 0.0 
0.0 0.0 0.0 
0.0 0.0 0.0 
0.0 0.0 0.0 
0.0 0.0 0.0 
0.0 0.0 0.0 
0.0 0.0 0.0 
0.0 0.0 0.0 
0.0 0.0 0.0 
0.0 0.0 0.0 
0.0 0.0 0.0 
0.0 0.0 0.0 
0.0 0.0 0.0 
0.0 0.0 0.0 
0.0 0.0 0.0 
0.0 0.0 0.0 
0.0 0.0 0.0 
0.0 0.0 0.0 
0.0 0.0 0.0 
0.0 0.0 0.0 
0.0 0.0 0.0 
0.0 0.0 0.0 
0.0 0.0 0.0 
0.0 0.0 0.0 
0.0 0.0 0.0 
0.0 0.0 0.0 
0.0 0.0 0.0 
0.0 0.0 0.0 
0.0 0.0 0.0 
0.0 0.0 0.0 
0.0 0.0 0.0 
0.0 0.0 0.0 
0.0 0.0 0.0 
0.0 0.0 0.0 
0.0 0.0 0.0 
0.0 0.0 0.0 
0.0 0.0 0.0 
0.0 0.0 0.0 
0.0 0.0 0.0 
0.0 0.0 0.0 
0.0 0.0 0.0 
0.0 0.0 0.0 
0.0 0.0 0.0 
0.0 0.0 0.0 
0.0 0.0 0.0 
0.0 0.0 0.0 
0.0 0.0 0.0 
0.0 0.0 0.0 
0.0 0.0 0.0 
0.0 0.0 0.0 
0.0 0.0 0.0 
0.0 0.0 0.0 
0.0 0.0 0.0 
0.0 0.0 0.0 
0.0 0.0 0.0 
0.0 0.0 0.0 
0.0 0.0 0.0 
0.0 0.0 0.0 
0.0 0.0 0.0 
0.0 0.0 0.0 
0.0 0.0 0.0 
0.0 0.0 0.0 
0.0 0.0 0.0 
0.0 0.0 0.0 
0.0 0.0 0.0 
0.0 0.0 0.0 
0.0 0.0 0.0 
0.0 0.0 0.0 
0.0 0.0 0.0 
0.0 0.0 0.0 
0.0 0.0 0.0 
0.0 0.0 0.0 
0.0 0.0 0.0 
0.0 0.0 0.0 
0.0 0.0 0.0 
0.0 0.0 0.0 
0.0 0.0 0.0 
0.0 0.0 0.0 
0.0 0.0 0.0 
0.0 0.0 0.0 
0.0 0.0 0.0 
0.0 0.0 0.0 
0.0 0.0 0.0 
0.0 0.0 0.0 
0.0 0.0 0.0 
0.0 0.0 0.0 
0.0 0.0 0.0 
0.0 0.0 0.0 
0.0 0.0 0.0 
0.0 0.0 0.0 
0.0 0.0 0.0 
0.0 0.0 0.0 
0.0 0.0 0.0 
0.0 0.0 0.0 
0.0 0.0 0.0 
0.0 0.0 0.0 
0.0 0.0 0.0 
0.0 0.0 0.0 
0.0 0.0 0.0 
0.0 0.0 0.0 
0.0 0.0 0.0 
0.0 0.0 0.0 
0.0 0.0 0.0 
0.0 0.0 0.0 
0.0 0.0 0.0 
0.0 0.0 0.0 
0.0 0.0 0.0 
0.0 0.0 0.0 
0.0 0.0 0.0 
0.0 0.0 0.0 
0.0 0.0 0.0 
0.0 0.0 0.0 
0.0 0.0 0.0 
0.0 0.0 0.0 
0.0 0.0 0.0 
0.0 0.0 0.0 
0.0 0.0 0.0 
0.0 0.0 0.0 
0.0 0.0 0.0 
0.0 0.0 0.0 
0.0 0.0 0.0 
0.0 0.0 0.0 
0.0 0.0 0.0 
0.0 0.0 0.0 
0.0 0.0 0.0 
0.0 0.0 0.0 
0.0 0.0 0.0 
0.0 0.0 0.0 
0.0 0.0 0.0 
0.0 0.0 0.0 
0.0 0.0 0.0 
0.0 0.0 0.0 
0.0 0.0 0.0 
0.0 0.0 0.0 
0.0 0.0 0.0 
0.0 0.0 0.0 
0.0 0.0 0.0 
0.0 0.0 0.0 
0.0 0.0 0.0 
0.0 0.0 0.0 
0.0 0.0 0.0 
0.0 0.0 0.0 
0.0 0.0 0.0 
0.0 0.0 0.0 
0.0 0.0 0.0 
0.0 0.0 0.0 
0.0 0.0 0.0 
0.0 0.0 0.0 
0.0 0.0 0.0 
0.0 0.0 0.0 
0.0 0.0 0.0 
0.0 0.0 0.0 
0.0 0.0 0.0 
0.0 0.0 0.0 
0.0 0.0 0.0 
0.0 0.0 0.0 
0.0 0.0 0.0 
0.0 0.0 0.0 
0.0 0.0 0.0 
0.0 0.0 0.0 
0.0 0.0 0.0 
0.0 0.0 0.0 
0.0 0.0 0.0 
0.0 0.0 0.0 
0.0 0.0 0.0 
0.0 0.0 0.0 
0.0 0.0 0.0 
0.0 0.0 0.0 
0.0 0.0 0.0 
0.0 0.0 0.0 
0.0 0.0 0.0 
0.0 0.0 0.0 
0.0 0.0 0.0 
0.0 0.0 0.0 
0.0 0.0 0.0 
0.0 0.0 0.0 
0.0 0.0 0.0 
0.0 0.0 0.0 
0.0 0.0 0.0 
0.0 0.0 0.0 
0.0 0.0 0.0 
0.0 0.0 0.0 
0.0 0.0 0.0 
0.0 0.0 0.0 
0.0 0.0 0.0 
0.0 0.0 0.0 
0.0 0.0 0.0 
0.0 0.0 0.0 
0.0 0.0 0.0 
0.0 0.0 0.0 
0.0 0.0 0.0 
0.0 0.0 0.0 
0.0 0.0 0.0 
0.0 0.0 0.0 
0.0 0.0 0.0 
0.0 0.0 0.0 
0.0 0.0 0.0 
0.0 0.0 0.0 
0.0 0.0 0.0 
0.0 0.0 0.0 
0.0 0.0 0.0 
0.0 0.0 0.0 
0.0 0.0 0.0 
0.0 0.0 0.0 
0.0 0.0 0.0 
0.0 0.0 0.0 
0.0 0.0 0.0 
0.0 0.0 0.0 
0.0 0.0 0.0 
0.0 0.0 0.0 
0.0 0.0 0.0 
0.0 0.0 0.0 
0.0 0.0 0.0 
0.0 0.0 0.0 
0.0 0.0 0.0 
0.0 0.0 0.0 
0.0 0.0 0.0 
0.0 0.0 0.0 
0.0 0.0 0.0 
0.0 0.0 0.0 
0.0 0.0 0.0 
0.0 0.0 0.0 
0.0 0.0 0.0 
0.0 0.0 0.0 
0.0 0.0 0.0 
0.0 0.0 0.0 
0.0 0.0 0.0 
0.0 0.0 0.0 
0.0 0.0 0.0 
0.0 0.0 0.0 
0.0 0.0 0.0 
0.0 0.0 0.0 
0.0 0.0 0.0 
0.0 0.0 0.0 
0.0 0.0 0.0 
0.0 0.0 0.0 
0.0 0.0 0.0 
0.0 0.0 0.0 
0.0 0.0 0.0 
0.0 0.0 0.0 
0.0 0.0 0.0 
0.0 0.0 0.0 
0.0 0.0 0.0 
0.0 0.0 0.0 
0.0 0.0 0.0 
0.0 0.0 0.0 
0.0 0.0 0.0 
0.0 0.0 0.0 
0.0 0.0 0.0 
0.0 0.0 0.0 
0.0 0.0 0.0 
0.0 0.0 0.0 
0.0 0.0 0.0 
0.0 0.0 0.0 
0.0 0.0 0.0 
0.0 0.0 0.0 
0.0 0.0 0.0 
0.0 0.0 0.0 
0.0 0.0 0.0 
0.0 0.0 0.0 
0.0 0.0 0.0 
0.0 0.0 0.0 
0.0 0.0 0.0 
0.0 0.0 0.0 
0.0 0.0 0.0 
0.0 0.0 0.0 
0.0 0.0 0.0 
0.0 0.0 0.0 
0.0 0.0 0.0 
0.0 0.0 0.0 
0.0 0.0 0.0 
0.0 0.0 0.0 
0.0 0.0 0.0 
0.0 0.0 0.0 
0.0 0.0 0.0 
0.0 0.0 0.0 
0.0 0.0 0.0 
0.0 0.0 0.0 
0.0 0.0 0.0 
0.0 0.0 0.0 
0.0 0.0 0.0 
0.0 0.0 0.0 
0.0 0.0 0.0 
0.0 0.0 0.0 
0.0 0.0 0.0 
0.0 0.0 0.0 
0.0 0.0 0.0 
0.0 0.0 0.0 
0.0 0.0 0.0 
0.0 0.0 0.0 
0.0 0.0 0.0 
0.0 0.0 0.0 
0.0 0.0 0.0 
0.0 0.0 0.0 
0.0 0.0 0.0 
0.0 0.0 0.0 
0.0 0.0 0.0 
0.0 0.0 0.0 
0.0 0.0 0.0 
0.0 0.0 0.0 
0.0 0.0 0.0 
0.0 0.0 0.0 
0.0 0.0 0.0 
0.0 0.0 0.0 
0.0 0.0 0.0 
0.0 0.0 0.0 
0.0 0.0 0.0 
0.0 0.0 0.0 
0.0 0.0 0.0 
0.0 0.0 0.0 
0.0 0.0 0.0 
0.0 0.0 0.0 
0.0 0.0 0.0 
0.0 0.0 0.0 
0.0 0.0 0.0 
0.0 0.0 0.0 
0.0 0.0 0.0 
0.0 0.0 0.0 
0.0 0.0 0.0 
0.0 0.0 0.0 
0.0 0.0 0.0 
0.0 0.0 0.0 
0.0 0.0 0.0 
0.0 0.0 0.0 
0.0 0.0 0.0 
0.0 0.0 0.0 
0.0 0.0 0.0 
0.0 0.0 0.0 
0.0 0.0 0.0 
0.0 0.0 0.0 
0.0 0.0 0.0 
0.0 0.0 0.0 
0.0 0.0 0.0 
0.0 0.0 0.0 
0.0 0.0 0.0 
0.0 0.0 0.0 
0.0 0.0 0.0 
0.0 0.0 0.0 
0.0 0.0 0.0 
0.0 0.0 0.0 
0.0 0.0 0.0 
0.0 0.0 0.0 
0.0 0.0 0.0 
0.0 0.0 0.0 
0.0 0.0 0.0 
0.0 0.0 0.0 
0.0 0.0 0.0 
0.0 0.0 0.0 
0.0 0.0 0.0 
0.0 0.0 0.0 
0.0 0.0 0.0 
0.0 0.0 0.0 
0.0 0.0 0.0 
0.0 0.0 0.0 
0.0 0.0 0.0 
0.0 0.0 0.0 
0.0 0.0 0.0 
0.0 0.0 0.0 
0.0 0.0 0.0 
0.0 0.0 0.0 
0.0 0.0 0.0 
0.0 0.0 0.0 
0.0 0.0 0.0 
0.0 0.0 0.0 
0.0 0.0 0.0 
0.0 0.0 0.0 
0.0 0.0 0.0 
0.0 0.0 0.0 
0.0 0.0 0.0 
0.0 0.0 0.0 
0.0 0.0 0.0 
0.0 0.0 0.0 
0.0 0.0 0.0 
0.0 0.0 0.0 
0.0 0.0 0.0 
0.0 0.0 0.0 
0.0 0.0 0.0 
0.0 0.0 0.0 
0.0 0.0 0.0 
0.0 0.0 0.0 
0.0 0.0 0.0 
0.0 0.0 0.0 
0.0 0.0 0.0 
0.0 0.0 0.0 
0.0 0.0 0.0 
0.0 0.0 0.0 
0.0 0.0 0.0 
0.0 0.0 0.0 
0.0 0.0 0.0 
0.0 0.0 0.0 
0.0 0.0 0.0 
0.0 0.0 0.0 
0.0 0.0 0.0 
0.0 0.0 0.0 
0.0 0.0 0.0 
0.0 0.0 0.0 
0.0 0.0 0.0 
0.0 0.0 0.0 
0.0 0.0 0.0 
0.0 0.0 0.0 
0.0 0.0 0.0 
0.0 0.0 0.0 
0.0 0.0 0.0 
0.0 0.0 0.0 
0.0 0.0 0.0 
0.0 0.0 0.0 
0.0 0.0 0.0 
0.0 0.0 0.0 
0.0 0.0 0.0 
0.0 0.0 0.0 
0.0 0.0 0.0 
0.0 0.0 0.0 
0.0 0.0 0.0 
0.0 0.0 0.0 
0.0 0.0 0.0 
0.0 0.0 0.0 
0.0 0.0 0.0 
0.0 0.0 0.0 
0.0 0.0 0.0 
0.0 0.0 0.0 
0.0 0.0 0.0 
0.0 0.0 0.0 
0.0 0.0 0.0 
0.0 0.0 0.0 
0.0 0.0 0.0 
0.0 0.0 0.0 
0.0 0.0 0.0 
0.0 0.0 0.0 
0.0 0.0 0.0 
0.0 0.0 0.0 
0.0 0.0 0.0 
0.0 0.0 0.0 
0.0 0.0 0.0 
0.0 0.0 0.0 
0.0 0.0 0.0 
0.0 0.0 0.0 
0.0 0.0 0.0 
0.0 0.0 0.0 
0.0 0.0 0.0 
0.0 0.0 0.0 
0.0 0.0 0.0 
0.0 0.0 0.0 
0.0 0.0 0.0 
0.0 0.0 0.0 
0.0 0.0 0.0 
0.0 0.0 0.0 
0.0 0.0 0.0 
0.0 0.0 0.0 
0.0 0.0 0.0 
0.0 0.0 0.0 
0.0 0.0 0.0 
0.0 0.0 0.0 
0.0 0.0 0.0 
0.0 0.0 0.0 
0.0 0.0 0.0 
0.0 0.0 0.0 
0.0 0.0 0.0 
0.0 0.0 0.0 
0.0 0.0 0.0 
0.0 0.0 0.0 
0.0 0.0 0.0 
0.0 0.0 0.0 
0.0 0.0 0.0 
0.0 0.0 0.0 
0.0 0.0 0.0 
0.0 0.0 0.0 
0.0 0.0 0.0 
0.0 0.0 0.0 
0.0 0.0 0.0 
0.0 0.0 0.0 
0.0 0.0 0.0 
0.0 0.0 0.0 
0.0 0.0 0.0 
0.0 0.0 0.0 
0.0 0.0 0.0 
0.0 0.0 0.0 
0.0 0.0 0.0 
0.0 0.0 0.0 
0.0 0.0 0.0 
0.0 0.0 0.0 
0.0 0.0 0.0 
0.0 0.0 0.0 
0.0 0.0 0.0 
0.0 0.0 0.0 
0.0 0.0 0.0 
0.0 0.0 0.0 
0.0 0.0 0.0 
0.0 0.0 0.0 
0.0 0.0 0.0 
0.0 0.0 0.0 
0.0 0.0 0.0 
0.0 0.0 0.0 
0.0 0.0 0.0 
0.0 0.0 0.0 
0.0 0.0 0.0 
0.0 0.0 0.0 
0.0 0.0 0.0 
0.0 0.0 0.0 
0.0 0.0 0.0 
0.0 0.0 0.0 
0.0 0.0 0.0 
0.0 0.0 0.0 
0.0 0.0 0.0 
0.0 0.0 0.0 
0.0 0.0 0.0 
0.0 0.0 0.0 
0.0 0.0 0.0 
0.0 0.0 0.0 
0.0 0.0 0.0 
0.0 0.0 0.0 
0.0 0.0 0.0 
0.0 0.0 0.0 
0.0 0.0 0.0 
0.0 0.0 0.0 
0.0 0.0 0.0 
0.0 0.0 0.0 
0.0 0.0 0.0 
0.0 0.0 0.0 
0.0 0.0 0.0 
0.0 0.0 0.0 
0.0 0.0 0.0 
0.0 0.0 0.0 
0.0 0.0 0.0 
0.0 0.0 0.0 
0.0 0.0 0.0 
0.0 0.0 0.0 
0.0 0.0 0.0 
0.0 0.0 0.0 
0.0 0.0 0.0 
0.0 0.0 0.0 
0.0 0.0 0.0 
0.0 0.0 0.0 
0.0 0.0 0.0 
0.0 0.0 0.0 
0.0 0.0 0.0 
0.0 0.0 0.0 
0.0 0.0 0.0 
0.0 0.0 0.0 
0.0 0.0 0.0 
0.0 0.0 0.0 
0.0 0.0 0.0 
0.0 0.0 0.0 
0.0 0.0 0.0 
0.0 0.0 0.0 
0.0 0.0 0.0 
0.0 0.0 0.0 
0.0 0.0 0.0 
0.0 0.0 0.0 
0.0 0.0 0.0 
0.0 0.0 0.0 
0.0 0.0 0.0 
0.0 0.0 0.0 
0.0 0.0 0.0 
0.0 0.0 0.0 
0.0 0.0 0.0 
0.0 0.0 0.0 
0.0 0.0 0.0 
0.0 0.0 0.0 
0.0 0.0 0.0 
0.0 0.0 0.0 
0.0 0.0 0.0 
0.0 0.0 0.0 
0.0 0.0 0.0 
0.0 0.0 0.0 
0.0 0.0 0.0 
0.0 0.0 0.0 
0.0 0.0 0.0 
0.0 0.0 0.0 
0.0 0.0 0.0 
0.0 0.0 0.0 
0.0 0.0 0.0 
0.0 0.0 0.0 
0.0 0.0 0.0 
0.0 0.0 0.0 
0.0 0.0 0.0 
0.0 0.0 0.0 
0.0 0.0 0.0 
0.0 0.0 0.0 
0.0 0.0 0.0 
0.0 0.0 0.0 
0.0 0.0 0.0 
0.0 0.0 0.0 
0.0 0.0 0.0 
0.0 0.0 0.0 
0.0 0.0 0.0 
0.0 0.0 0.0 
0.0 0.0 0.0 
0.0 0.0 0.0 
0.0 0.0 0.0 
0.0 0.0 0.0 
0.0 0.0 0.0 
0.0 0.0 0.0 
0.0 0.0 0.0 
0.0 0.0 0.0 
0.0 0.0 0.0 
0.0 0.0 0.0 
0.0 0.0 0.0 
0.0 0.0 0.0 
0.0 0.0 0.0 
0.0 0.0 0.0 
0.0 0.0 0.0 
0.0 0.0 0.0 
0.0 0.0 0.0 
0.0 0.0 0.0 
0.0 0.0 0.0 
0.0 0.0 0.0 
0.0 0.0 0.0 
0.0 0.0 0.0 
0.0 0.0 0.0 
0.0 0.0 0.0 
0.0 0.0 0.0 
0.0 0.0 0.0 
0.0 0.0 0.0 
0.0 0.0 0.0 
0.0 0.0 0.0 
0.0 0.0 0.0 
0.0 0.0 0.0 
0.0 0.0 0.0 
0.0 0.0 0.0 
0.0 0.0 0.0 
0.0 0.0 0.0 
0.0 0.0 0.0 
0.0 0.0 0.0 
0.0 0.0 0.0 
0.0 0.0 0.0 
0.0 0.0 0.0 
0.0 0.0 0.0 
0.0 0.0 0.0 
0.0 0.0 0.0 
0.0 0.0 0.0 
0.0 0.0 0.0 
0.0 0.0 0.0 
0.0 0.0 0.0 
0.0 0.0 0.0 
0.0 0.0 0.0 
0.0 0.0 0.0 
0.0 0.0 0.0 
0.0 0.0 0.0 
0.0 0.0 0.0 
0.0 0.0 0.0 
0.0 0.0 0.0 
0.0 0.0 0.0 
0.0 0.0 0.0 
0.0 0.0 0.0 
0.0 0.0 0.0 
0.0 0.0 0.0 
0.0 0.0 0.0 
0.0 0.0 0.0 
0.0 0.0 0.0 
0.0 0.0 0.0 
0.0 0.0 0.0 
0.0 0.0 0.0 
0.0 0.0 0.0 
0.0 0.0 0.0 
0.0 0.0 0.0 
0.0 0.0 0.0 
0.0 0.0 0.0 
0.0 0.0 0.0 
0.0 0.0 0.0 
0.0 0.0 0.0 
0.0 0.0 0.0 
0.0 0.0 0.0 
0.0 0.0 0.0 
0.0 0.0 0.0 
0.0 0.0 0.0 
0.0 0.0 0.0 
0.0 0.0 0.0 
0.0 0.0 0.0 
0.0 0.0 0.0 
0.0 0.0 0.0 
0.0 0.0 0.0 
0.0 0.0 0.0 
0.0 0.0 0.0 
0.0 0.0 0.0 
0.0 0.0 0.0 
0.0 0.0 0.0 
0.0 0.0 0.0 
0.0 0.0 0.0 
0.0 0.0 0.0 
0.0 0.0 0.0 
0.0 0.0 0.0 
0.0 0.0 0.0 
0.0 0.0 0.0 
0.0 0.0 0.0 
0.0 0.0 0.0 
0.0 0.0 0.0 
0.0 0.0 0.0 
0.0 0.0 0.0 
0.0 0.0 0.0 
0.0 0.0 0.0 
0.0 0.0 0.0 
0.0 0.0 0.0 
0.0 0.0 0.0 
0.0 0.0 0.0 
0.0 0.0 0.0 
0.0 0.0 0.0 
0.0 0.0 0.0 
0.0 0.0 0.0 
0.0 0.0 0.0 
0.0 0.0 0.0 
0.0 0.0 0.0 
0.0 0.0 0.0 
0.0 0.0 0.0 
0.0 0.0 0.0 
0.0 0.0 0.0 
0.0 0.0 0.0 
0.0 0.0 0.0 
0.0 0.0 0.0 
0.0 0.0 0.0 
0.0 0.0 0.0 
0.0 0.0 0.0 
0.0 0.0 0.0 
0.0 0.0 0.0 
0.0 0.0 0.0 
0.0 0.0 0.0 
0.0 0.0 0.0 
0.0 0.0 0.0 
0.0 0.0 0.0 
0.0 0.0 0.0 
0.0 0.0 0.0 
0.0 0.0 0.0 
0.0 0.0 0.0 
0.0 0.0 0.0 
0.0 0.0 0.0 
0.0 0.0 0.0 
0.0 0.0 0.0 
0.0 0.0 0.0 
0.0 0.0 0.0 
0.0 0.0 0.0 
0.0 0.0 0.0 
0.0 0.0 0.0 
0.0 0.0 0.0 
0.0 0.0 0.0 
0.0 0.0 0.0 
0.0 0.0 0.0 
0.0 0.0 0.0 
0.0 0.0 0.0 
0.0 0.0 0.0 
0.0 0.0 0.0 
0.0 0.0 0.0 
0.0 0.0 0.0 
0.0 0.0 0.0 
0.0 0.0 0.0 
0.0 0.0 0.0 
0.0 0.0 0.0 
0.0 0.0 0.0 
0.0 0.0 0.0 
0.0 0.0 0.0 
0.0 0.0 0.0 
0.0 0.0 0.0 
0.0 0.0 0.0 
0.0 0.0 0.0 
0.0 0.0 0.0 
0.0 0.0 0.0 
0.0 0.0 0.0 
0.0 0.0 0.0 
0.0 0.0 0.0 
0.0 0.0 0.0 
0.0 0.0 0.0 
0.0 0.0 0.0 
0.0 0.0 0.0 
0.0 0.0 0.0 
0.0 0.0 0.0 
0.0 0.0 0.0 
0.0 0.0 0.0 
0.0 0.0 0.0 
0.0 0.0 0.0 
0.0 0.0 0.0 
0.0 0.0 0.0 
0.0 0.0 0.0 
0.0 0.0 0.0 
0.0 0.0 0.0 
0.0 0.0 0.0 
0.0 0.0 0.0 
0.0 0.0 0.0 
0.0 0.0 0.0 
0.0 0.0 0.0 
0.0 0.0 0.0 
0.0 0.0 0.0 
0.0 0.0 0.0 
0.0 0.0 0.0 
0.0 0.0 0.0 
0.0 0.0 0.0 
0.0 0.0 0.0 
0.0 0.0 0.0 
0.0 0.0 0.0 
0.0 0.0 0.0 
0.0 0.0 0.0 
0.0 0.0 0.0 
0.0 0.0 0.0 
0.0 0.0 0.0 
0.0 0.0 0.0 
0.0 0.0 0.0 
0.0 0.0 0.0 
0.0 0.0 0.0 
0.0 0.0 0.0 
0.0 0.0 0.0 
0.0 0.0 0.0 
0.0 0.0 0.0 
0.0 0.0 0.0 
0.0 0.0 0.0 
0.0 0.0 0.0 
0.0 0.0 0.0 
0.0 0.0 0.0 
0.0 0.0 0.0 
0.0 0.0 0.0 
0.0 0.0 0.0 
0.0 0.0 0.0 
0.0 0.0 0.0 
0.0 0.0 0.0 
0.0 0.0 0.0 
0.0 0.0 0.0 
0.0 0.0 0.0 
0.0 0.0 0.0 
0.0 0.0 0.0 
0.0 0.0 0.0 
0.0 0.0 0.0 
0.0 0.0 0.0 
0.0 0.0 0.0 
0.0 0.0 0.0 
0.0 0.0 0.0 
0.0 0.0 0.0 
0.0 0.0 0.0 
0.0 0.0 0.0 
0.0 0.0 0.0 
0.0 0.0 0.0 
0.0 0.0 0.0 
0.0 0.0 0.0 
0.0 0.0 0.0 
0.0 0.0 0.0 
0.0 0.0 0.0 
0.0 0.0 0.0 
0.0 0.0 0.0 
0.0 0.0 0.0 
0.0 0.0 0.0 
0.0 0.0 0.0 
0.0 0.0 0.0 
0.0 0.0 0.0 
0.0 0.0 0.0 
0.0 0.0 0.0 
0.0 0.0 0.0 
0.0 0.0 0.0 
0.0 0.0 0.0 
0.0 0.0 0.0 
0.0 0.0 0.0 
0.0 0.0 0.0 
0.0 0.0 0.0 
0.0 0.0 0.0 
0.0 0.0 0.0 
0.0 0.0 0.0 
0.0 0.0 0.0 
0.0 0.0 0.0 
0.0 0.0 0.0 
0.0 0.0 0.0 

VECTORS node_bounda_dof_materi_velocity_y float
0.0 0.0 0.0 
0.0 0.0 0.0 
0.0 1.000000000000e+00 0.0 
0.0 1.000000000000e+00 0.0 
0.0 0.0 0.0 
0.0 0.0 0.0 
0.0 0.0 0.0 
0.0 0.0 0.0 
0.0 0.0 0.0 
0.0 0.0 0.0 
0.0 0.0 0.0 
0.0 0.0 0.0 
0.0 0.0 0.0 
0.0 0.0 0.0 
0.0 0.0 0.0 
0.0 0.0 0.0 
0.0 0.0 0.0 
0.0 0.0 0.0 
0.0 0.0 0.0 
0.0 0.0 0.0 
0.0 0.0 0.0 
0.0 0.0 0.0 
0.0 0.0 0.0 
0.0 1.000000000000e+00 0.0 
0.0 1.000000000000e+00 0.0 
0.0 1.000000000000e+00 0.0 
0.0 1.000000000000e+00 0.0 
0.0 1.000000000000e+00 0.0 
0.0 1.000000000000e+00 0.0 
0.0 1.000000000000e+00 0.0 
0.0 1.000000000000e+00 0.0 
0.0 1.000000000000e+00 0.0 
0.0 1.000000000000e+00 0.0 
0.0 1.000000000000e+00 0.0 
0.0 1.000000000000e+00 0.0 
0.0 1.000000000000e+00 0.0 
0.0 1.000000000000e+00 0.0 
0.0 1.000000000000e+00 0.0 
0.0 1.000000000000e+00 0.0 
0.0 1.000000000000e+00 0.0 
0.0 1.000000000000e+00 0.0 
0.0 1.000000000000e+00 0.0 
0.0 1.000000000000e+00 0.0 
0.0 1.000000000000e+00 0.0 
0.0 1.000000000000e+00 0.0 
0.0 1.000000000000e+00 0.0 
0.0 1.000000000000e+00 0.0 
0.0 1.000000000000e+00 0.0 
0.0 1.000000000000e+00 0.0 
0.0 1.000000000000e+00 0.0 
0.0 1.000000000000e+00 0.0 
0.0 1.000000000000e+00 0.0 
0.0 1.000000000000e+00 0.0 
0.0 1.000000000000e+00 0.0 
0.0 1.000000000000e+00 0.0 
0.0 1.000000000000e+00 0.0 
0.0 1.000000000000e+00 0.0 
0.0 1.000000000000e+00 0.0 
0.0 1.000000000000e+00 0.0 
0.0 1.000000000000e+00 0.0 
0.0 1.000000000000e+00 0.0 
0.0 1.000000000000e+00 0.0 
0.0 1.000000000000e+00 0.0 
0.0 1.000000000000e+00 0.0 
0.0 1.000000000000e+00 0.0 
0.0 1.000000000000e+00 0.0 
0.0 1.000000000000e+00 0.0 
0.0 1.000000000000e+00 0.0 
0.0 1.000000000000e+00 0.0 
0.0 1.000000000000e+00 0.0 
0.0 1.000000000000e+00 0.0 
0.0 1.000000000000e+00 0.0 
0.0 0.0 0.0 
0.0 0.0 0.0 
0.0 0.0 0.0 
0.0 0.0 0.0 
0.0 0.0 0.0 
0.0 0.0 0.0 
0.0 0.0 0.0 
0.0 0.0 0.0 
0.0 0.0 0.0 
0.0 0.0 0.0 
0.0 0.0 0.0 
0.0 0.0 0.0 
0.0 0.0 0.0 
0.0 0.0 0.0 
0.0 0.0 0.0 
0.0 0.0 0.0 
0.0 0.0 0.0 
0.0 0.0 0.0 
0.0 0.0 0.0 
0.0 0.0 0.0 
0.0 0.0 0.0 
0.0 0.0 0.0 
0.0 0.0 0.0 
0.0 0.0 0.0 
0.0 0.0 0.0 
0.0 0.0 0.0 
0.0 0.0 0.0 
0.0 0.0 0.0 
0.0 0.0 0.0 
0.0 0.0 0.0 
0.0 0.0 0.0 
0.0 0.0 0.0 
0.0 0.0 0.0 
0.0 0.0 0.0 
0.0 0.0 0.0 
0.0 0.0 0.0 
0.0 0.0 0.0 
0.0 0.0 0.0 
0.0 0.0 0.0 
0.0 0.0 0.0 
0.0 0.0 0.0 
0.0 0.0 0.0 
0.0 0.0 0.0 
0.0 0.0 0.0 
0.0 0.0 0.0 
0.0 0.0 0.0 
0.0 0.0 0.0 
0.0 0.0 0.0 
0.0 0.0 0.0 
0.0 0.0 0.0 
0.0 0.0 0.0 
0.0 0.0 0.0 
0.0 0.0 0.0 
0.0 0.0 0.0 
0.0 0.0 0.0 
0.0 0.0 0.0 
0.0 0.0 0.0 
0.0 0.0 0.0 
0.0 0.0 0.0 
0.0 0.0 0.0 
0.0 0.0 0.0 
0.0 0.0 0.0 
0.0 0.0 0.0 
0.0 0.0 0.0 
0.0 0.0 0.0 
0.0 0.0 0.0 
0.0 0.0 0.0 
0.0 0.0 0.0 
0.0 0.0 0.0 
0.0 0.0 0.0 
0.0 0.0 0.0 
0.0 0.0 0.0 
0.0 0.0 0.0 
0.0 0.0 0.0 
0.0 0.0 0.0 
0.0 0.0 0.0 
0.0 0.0 0.0 
0.0 0.0 0.0 
0.0 0.0 0.0 
0.0 0.0 0.0 
0.0 0.0 0.0 
0.0 0.0 0.0 
0.0 0.0 0.0 
0.0 0.0 0.0 
0.0 0.0 0.0 
0.0 0.0 0.0 
0.0 0.0 0.0 
0.0 0.0 0.0 
0.0 0.0 0.0 
0.0 0.0 0.0 
0.0 0.0 0.0 
0.0 0.0 0.0 
0.0 0.0 0.0 
0.0 0.0 0.0 
0.0 0.0 0.0 
0.0 0.0 0.0 
0.0 0.0 0.0 
0.0 0.0 0.0 
0.0 0.0 0.0 
0.0 0.0 0.0 
0.0 0.0 0.0 
0.0 0.0 0.0 
0.0 0.0 0.0 
0.0 0.0 0.0 
0.0 0.0 0.0 
0.0 0.0 0.0 
0.0 0.0 0.0 
0.0 0.0 0.0 
0.0 0.0 0.0 
0.0 0.0 0.0 
0.0 0.0 0.0 
0.0 0.0 0.0 
0.0 0.0 0.0 
0.0 0.0 0.0 
0.0 0.0 0.0 
0.0 0.0 0.0 
0.0 0.0 0.0 
0.0 0.0 0.0 
0.0 0.0 0.0 
0.0 0.0 0.0 
0.0 0.0 0.0 
0.0 0.0 0.0 
0.0 0.0 0.0 
0.0 0.0 0.0 
0.0 0.0 0.0 
0.0 0.0 0.0 
0.0 0.0 0.0 
0.0 0.0 0.0 
0.0 0.0 0.0 
0.0 0.0 0.0 
0.0 0.0 0.0 
0.0 0.0 0.0 
0.0 0.0 0.0 
0.0 0.0 0.0 
0.0 0.0 0.0 
0.0 0.0 0.0 
0.0 0.0 0.0 
0.0 0.0 0.0 
0.0 0.0 0.0 
0.0 0.0 0.0 
0.0 0.0 0.0 
0.0 0.0 0.0 
0.0 0.0 0.0 
0.0 0.0 0.0 
0.0 0.0 0.0 
0.0 0.0 0.0 
0.0 0.0 0.0 
0.0 0.0 0.0 
0.0 0.0 0.0 
0.0 0.0 0.0 
0.0 0.0 0.0 
0.0 0.0 0.0 
0.0 0.0 0.0 
0.0 0.0 0.0 
0.0 0.0 0.0 
0.0 0.0 0.0 
0.0 0.0 0.0 
0.0 0.0 0.0 
0.0 0.0 0.0 
0.0 0.0 0.0 
0.0 0.0 0.0 
0.0 0.0 0.0 
0.0 0.0 0.0 
0.0 0.0 0.0 
0.0 0.0 0.0 
0.0 0.0 0.0 
0.0 0.0 0.0 
0.0 0.0 0.0 
0.0 0.0 0.0 
0.0 0.0 0.0 
0.0 0.0 0.0 
0.0 0.0 0.0 
0.0 0.0 0.0 
0.0 0.0 0.0 
0.0 0.0 0.0 
0.0 0.0 0.0 
0.0 0.0 0.0 
0.0 0.0 0.0 
0.0 0.0 0.0 
0.0 0.0 0.0 
0.0 0.0 0.0 
0.0 0.0 0.0 
0.0 0.0 0.0 
0.0 0.0 0.0 
0.0 0.0 0.0 
0.0 0.0 0.0 
0.0 0.0 0.0 
0.0 0.0 0.0 
0.0 0.0 0.0 
0.0 0.0 0.0 
0.0 0.0 0.0 
0.0 0.0 0.0 
0.0 0.0 0.0 
0.0 0.0 0.0 
0.0 0.0 0.0 
0.0 0.0 0.0 
0.0 0.0 0.0 
0.0 0.0 0.0 
0.0 0.0 0.0 
0.0 0.0 0.0 
0.0 0.0 0.0 
0.0 0.0 0.0 
0.0 0.0 0.0 
0.0 0.0 0.0 
0.0 0.0 0.0 
0.0 0.0 0.0 
0.0 0.0 0.0 
0.0 0.0 0.0 
0.0 0.0 0.0 
0.0 0.0 0.0 
0.0 0.0 0.0 
0.0 0.0 0.0 
0.0 0.0 0.0 
0.0 0.0 0.0 
0.0 0.0 0.0 
0.0 0.0 0.0 
0.0 0.0 0.0 
0.0 0.0 0.0 
0.0 0.0 0.0 
0.0 0.0 0.0 
0.0 0.0 0.0 
0.0 0.0 0.0 
0.0 0.0 0.0 
0.0 0.0 0.0 
0.0 0.0 0.0 
0.0 0.0 0.0 
0.0 0.0 0.0 
0.0 0.0 0.0 
0.0 0.0 0.0 
0.0 0.0 0.0 
0.0 0.0 0.0 
0.0 0.0 0.0 
0.0 0.0 0.0 
0.0 0.0 0.0 
0.0 0.0 0.0 
0.0 0.0 0.0 
0.0 0.0 0.0 
0.0 0.0 0.0 
0.0 0.0 0.0 
0.0 0.0 0.0 
0.0 0.0 0.0 
0.0 0.0 0.0 
0.0 0.0 0.0 
0.0 0.0 0.0 
0.0 0.0 0.0 
0.0 0.0 0.0 
0.0 0.0 0.0 
0.0 0.0 0.0 
0.0 0.0 0.0 
0.0 0.0 0.0 
0.0 0.0 0.0 
0.0 0.0 0.0 
0.0 0.0 0.0 
0.0 0.0 0.0 
0.0 0.0 0.0 
0.0 0.0 0.0 
0.0 0.0 0.0 
0.0 0.0 0.0 
0.0 0.0 0.0 
0.0 0.0 0.0 
0.0 0.0 0.0 
0.0 0.0 0.0 
0.0 0.0 0.0 
0.0 0.0 0.0 
0.0 0.0 0.0 
0.0 0.0 0.0 
0.0 0.0 0.0 
0.0 0.0 0.0 
0.0 0.0 0.0 
0.0 0.0 0.0 
0.0 0.0 0.0 
0.0 0.0 0.0 
0.0 0.0 0.0 
0.0 0.0 0.0 
0.0 0.0 0.0 
0.0 0.0 0.0 
0.0 0.0 0.0 
0.0 0.0 0.0 
0.0 0.0 0.0 
0.0 0.0 0.0 
0.0 0.0 0.0 
0.0 0.0 0.0 
0.0 0.0 0.0 
0.0 0.0 0.0 
0.0 0.0 0.0 
0.0 0.0 0.0 
0.0 0.0 0.0 
0.0 0.0 0.0 
0.0 0.0 0.0 
0.0 0.0 0.0 
0.0 0.0 0.0 
0.0 0.0 0.0 
0.0 0.0 0.0 
0.0 0.0 0.0 
0.0 0.0 0.0 
0.0 0.0 0.0 
0.0 0.0 0.0 
0.0 0.0 0.0 
0.0 0.0 0.0 
0.0 0.0 0.0 
0.0 0.0 0.0 
0.0 0.0 0.0 
0.0 0.0 0.0 
0.0 0.0 0.0 
0.0 0.0 0.0 
0.0 0.0 0.0 
0.0 0.0 0.0 
0.0 0.0 0.0 
0.0 0.0 0.0 
0.0 0.0 0.0 
0.0 0.0 0.0 
0.0 0.0 0.0 
0.0 0.0 0.0 
0.0 0.0 0.0 
0.0 0.0 0.0 
0.0 0.0 0.0 
0.0 0.0 0.0 
0.0 0.0 0.0 
0.0 0.0 0.0 
0.0 0.0 0.0 
0.0 0.0 0.0 
0.0 0.0 0.0 
0.0 0.0 0.0 
0.0 0.0 0.0 
0.0 0.0 0.0 
0.0 0.0 0.0 
0.0 0.0 0.0 
0.0 0.0 0.0 
0.0 0.0 0.0 
0.0 0.0 0.0 
0.0 0.0 0.0 
0.0 0.0 0.0 
0.0 0.0 0.0 
0.0 0.0 0.0 
0.0 0.0 0.0 
0.0 0.0 0.0 
0.0 0.0 0.0 
0.0 0.0 0.0 
0.0 0.0 0.0 
0.0 0.0 0.0 
0.0 0.0 0.0 
0.0 0.0 0.0 
0.0 0.0 0.0 
0.0 0.0 0.0 
0.0 0.0 0.0 
0.0 0.0 0.0 
0.0 0.0 0.0 
0.0 0.0 0.0 
0.0 0.0 0.0 
0.0 0.0 0.0 
0.0 0.0 0.0 
0.0 0.0 0.0 
0.0 0.0 0.0 
0.0 0.0 0.0 
0.0 0.0 0.0 
0.0 0.0 0.0 
0.0 0.0 0.0 
0.0 0.0 0.0 
0.0 0.0 0.0 
0.0 0.0 0.0 
0.0 0.0 0.0 
0.0 0.0 0.0 
0.0 0.0 0.0 
0.0 0.0 0.0 
0.0 0.0 0.0 
0.0 0.0 0.0 
0.0 0.0 0.0 
0.0 0.0 0.0 
0.0 0.0 0.0 
0.0 0.0 0.0 
0.0 0.0 0.0 
0.0 0.0 0.0 
0.0 0.0 0.0 
0.0 0.0 0.0 
0.0 0.0 0.0 
0.0 0.0 0.0 
0.0 0.0 0.0 
0.0 0.0 0.0 
0.0 0.0 0.0 
0.0 0.0 0.0 
0.0 0.0 0.0 
0.0 0.0 0.0 
0.0 0.0 0.0 
0.0 0.0 0.0 
0.0 0.0 0.0 
0.0 0.0 0.0 
0.0 0.0 0.0 
0.0 0.0 0.0 
0.0 0.0 0.0 
0.0 0.0 0.0 
0.0 0.0 0.0 
0.0 0.0 0.0 
0.0 0.0 0.0 
0.0 0.0 0.0 
0.0 0.0 0.0 
0.0 0.0 0.0 
0.0 0.0 0.0 
0.0 0.0 0.0 
0.0 0.0 0.0 
0.0 0.0 0.0 
0.0 0.0 0.0 
0.0 0.0 0.0 
0.0 0.0 0.0 
0.0 0.0 0.0 
0.0 0.0 0.0 
0.0 0.0 0.0 
0.0 0.0 0.0 
0.0 0.0 0.0 
0.0 0.0 0.0 
0.0 0.0 0.0 
0.0 0.0 0.0 
0.0 0.0 0.0 
0.0 0.0 0.0 
0.0 0.0 0.0 
0.0 0.0 0.0 
0.0 0.0 0.0 
0.0 0.0 0.0 
0.0 0.0 0.0 
0.0 0.0 0.0 
0.0 0.0 0.0 
0.0 0.0 0.0 
0.0 0.0 0.0 
0.0 0.0 0.0 
0.0 0.0 0.0 
0.0 0.0 0.0 
0.0 0.0 0.0 
0.0 0.0 0.0 
0.0 0.0 0.0 
0.0 0.0 0.0 
0.0 0.0 0.0 
0.0 0.0 0.0 
0.0 0.0 0.0 
0.0 0.0 0.0 
0.0 0.0 0.0 
0.0 0.0 0.0 
0.0 0.0 0.0 
0.0 0.0 0.0 
0.0 0.0 0.0 
0.0 0.0 0.0 
0.0 0.0 0.0 
0.0 0.0 0.0 
0.0 0.0 0.0 
0.0 0.0 0.0 
0.0 0.0 0.0 
0.0 0.0 0.0 
0.0 0.0 0.0 
0.0 0.0 0.0 
0.0 0.0 0.0 
0.0 0.0 0.0 
0.0 0.0 0.0 
0.0 0.0 0.0 
0.0 0.0 0.0 
0.0 0.0 0.0 
0.0 0.0 0.0 
0.0 0.0 0.0 
0.0 0.0 0.0 
0.0 0.0 0.0 
0.0 0.0 0.0 
0.0 0.0 0.0 
0.0 0.0 0.0 
0.0 0.0 0.0 
0.0 0.0 0.0 
0.0 0.0 0.0 
0.0 0.0 0.0 
0.0 0.0 0.0 
0.0 0.0 0.0 
0.0 0.0 0.0 
0.0 0.0 0.0 
0.0 0.0 0.0 
0.0 0.0 0.0 
0.0 0.0 0.0 
0.0 0.0 0.0 
0.0 0.0 0.0 
0.0 0.0 0.0 
0.0 0.0 0.0 
0.0 0.0 0.0 
0.0 0.0 0.0 
0.0 0.0 0.0 
0.0 0.0 0.0 
0.0 0.0 0.0 
0.0 0.0 0.0 
0.0 0.0 0.0 
0.0 0.0 0.0 
0.0 0.0 0.0 
0.0 0.0 0.0 
0.0 0.0 0.0 
0.0 0.0 0.0 
0.0 0.0 0.0 
0.0 0.0 0.0 
0.0 0.0 0.0 
0.0 0.0 0.0 
0.0 0.0 0.0 
0.0 0.0 0.0 
0.0 0.0 0.0 
0.0 0.0 0.0 
0.0 0.0 0.0 
0.0 0.0 0.0 
0.0 0.0 0.0 
0.0 0.0 0.0 
0.0 0.0 0.0 
0.0 0.0 0.0 
0.0 0.0 0.0 
0.0 0.0 0.0 
0.0 0.0 0.0 
0.0 0.0 0.0 
0.0 0.0 0.0 
0.0 0.0 0.0 
0.0 0.0 0.0 
0.0 0.0 0.0 
0.0 0.0 0.0 
0.0 0.0 0.0 
0.0 0.0 0.0 
0.0 0.0 0.0 
0.0 0.0 0.0 
0.0 0.0 0.0 
0.0 0.0 0.0 
0.0 0.0 0.0 
0.0 0.0 0.0 
0.0 0.0 0.0 
0.0 0.0 0.0 
0.0 0.0 0.0 
0.0 0.0 0.0 
0.0 0.0 0.0 
0.0 0.0 0.0 
0.0 0.0 0.0 
0.0 0.0 0.0 
0.0 0.0 0.0 
0.0 0.0 0.0 
0.0 0.0 0.0 
0.0 0.0 0.0 
0.0 0.0 0.0 
0.0 0.0 0.0 
0.0 0.0 0.0 
0.0 0.0 0.0 
0.0 0.0 0.0 
0.0 0.0 0.0 
0.0 0.0 0.0 
0.0 0.0 0.0 
0.0 0.0 0.0 
0.0 0.0 0.0 
0.0 0.0 0.0 
0.0 0.0 0.0 
0.0 0.0 0.0 
0.0 0.0 0.0 
0.0 0.0 0.0 
0.0 0.0 0.0 
0.0 0.0 0.0 
0.0 0.0 0.0 
0.0 0.0 0.0 
0.0 0.0 0.0 
0.0 0.0 0.0 
0.0 0.0 0.0 
0.0 0.0 0.0 
0.0 0.0 0.0 
0.0 0.0 0.0 
0.0 0.0 0.0 
0.0 0.0 0.0 
0.0 0.0 0.0 
0.0 0.0 0.0 
0.0 0.0 0.0 
0.0 0.0 0.0 
0.0 0.0 0.0 
0.0 0.0 0.0 
0.0 0.0 0.0 
0.0 0.0 0.0 
0.0 0.0 0.0 
0.0 0.0 0.0 
0.0 0.0 0.0 
0.0 0.0 0.0 
0.0 0.0 0.0 
0.0 0.0 0.0 
0.0 0.0 0.0 
0.0 0.0 0.0 
0.0 0.0 0.0 
0.0 0.0 0.0 
0.0 0.0 0.0 
0.0 0.0 0.0 
0.0 0.0 0.0 
0.0 0.0 0.0 
0.0 0.0 0.0 
0.0 0.0 0.0 
0.0 0.0 0.0 
0.0 0.0 0.0 
0.0 0.0 0.0 
0.0 0.0 0.0 
0.0 0.0 0.0 
0.0 0.0 0.0 
0.0 0.0 0.0 
0.0 0.0 0.0 
0.0 0.0 0.0 
0.0 0.0 0.0 
0.0 0.0 0.0 
0.0 0.0 0.0 
0.0 0.0 0.0 
0.0 0.0 0.0 
0.0 0.0 0.0 
0.0 0.0 0.0 
0.0 0.0 0.0 
0.0 0.0 0.0 
0.0 0.0 0.0 
0.0 0.0 0.0 
0.0 0.0 0.0 
0.0 0.0 0.0 
0.0 0.0 0.0 
0.0 0.0 0.0 
0.0 0.0 0.0 
0.0 0.0 0.0 
0.0 0.0 0.0 
0.0 0.0 0.0 
0.0 0.0 0.0 
0.0 0.0 0.0 
0.0 0.0 0.0 
0.0 0.0 0.0 
0.0 0.0 0.0 
0.0 0.0 0.0 
0.0 0.0 0.0 
0.0 0.0 0.0 
0.0 0.0 0.0 
0.0 0.0 0.0 
0.0 0.0 0.0 
0.0 0.0 0.0 
0.0 0.0 0.0 
0.0 0.0 0.0 
0.0 0.0 0.0 
0.0 0.0 0.0 
0.0 0.0 0.0 
0.0 0.0 0.0 
0.0 0.0 0.0 
0.0 0.0 0.0 
0.0 0.0 0.0 
0.0 0.0 0.0 
0.0 0.0 0.0 
0.0 0.0 0.0 
0.0 0.0 0.0 
0.0 0.0 0.0 
0.0 0.0 0.0 
0.0 0.0 0.0 
0.0 0.0 0.0 
0.0 0.0 0.0 
0.0 0.0 0.0 
0.0 0.0 0.0 
0.0 0.0 0.0 
0.0 0.0 0.0 
0.0 0.0 0.0 
0.0 0.0 0.0 
0.0 0.0 0.0 
0.0 0.0 0.0 
0.0 0.0 0.0 
0.0 0.0 0.0 
0.0 0.0 0.0 
0.0 0.0 0.0 
0.0 0.0 0.0 
0.0 0.0 0.0 
0.0 0.0 0.0 
0.0 0.0 0.0 
0.0 0.0 0.0 
0.0 0.0 0.0 
0.0 0.0 0.0 
0.0 0.0 0.0 
0.0 0.0 0.0 
0.0 0.0 0.0 
0.0 0.0 0.0 
0.0 0.0 0.0 
0.0 0.0 0.0 
0.0 0.0 0.0 
0.0 0.0 0.0 
0.0 0.0 0.0 
0.0 0.0 0.0 
0.0 0.0 0.0 
0.0 0.0 0.0 
0.0 0.0 0.0 
0.0 0.0 0.0 
0.0 0.0 0.0 
0.0 0.0 0.0 
0.0 0.0 0.0 
0.0 0.0 0.0 
0.0 0.0 0.0 
0.0 0.0 0.0 
0.0 0.0 0.0 
0.0 0.0 0.0 
0.0 0.0 0.0 
0.0 0.0 0.0 
0.0 0.0 0.0 
0.0 0.0 0.0 
0.0 0.0 0.0 
0.0 0.0 0.0 
0.0 0.0 0.0 
0.0 0.0 0.0 
0.0 0.0 0.0 
0.0 0.0 0.0 
0.0 0.0 0.0 
0.0 0.0 0.0 
0.0 0.0 0.0 
0.0 0.0 0.0 
0.0 0.0 0.0 
0.0 0.0 0.0 
0.0 0.0 0.0 
0.0 0.0 0.0 
0.0 0.0 0.0 
0.0 0.0 0.0 
0.0 0.0 0.0 
0.0 0.0 0.0 
0.0 0.0 0.0 
0.0 0.0 0.0 
0.0 0.0 0.0 
0.0 0.0 0.0 
0.0 0.0 0.0 
0.0 0.0 0.0 
0.0 0.0 0.0 
0.0 0.0 0.0 
0.0 0.0 0.0 
0.0 0.0 0.0 
0.0 0.0 0.0 
0.0 0.0 0.0 
0.0 0.0 0.0 
0.0 0.0 0.0 
0.0 0.0 0.0 
0.0 0.0 0.0 
0.0 0.0 0.0 
0.0 0.0 0.0 
0.0 0.0 0.0 
0.0 0.0 0.0 
0.0 0.0 0.0 
0.0 0.0 0.0 
0.0 0.0 0.0 
0.0 0.0 0.0 
0.0 0.0 0.0 
0.0 0.0 0.0 
0.0 0.0 0.0 
0.0 0.0 0.0 
0.0 0.0 0.0 
0.0 0.0 0.0 
0.0 0.0 0.0 
0.0 0.0 0.0 
0.0 0.0 0.0 
0.0 0.0 0.0 
0.0 0.0 0.0 
0.0 0.0 0.0 
0.0 0.0 0.0 
0.0 0.0 0.0 
0.0 0.0 0.0 
0.0 0.0 0.0 
0.0 0.0 0.0 
0.0 0.0 0.0 
0.0 0.0 0.0 
0.0 0.0 0.0 
0.0 0.0 0.0 
0.0 0.0 0.0 
0.0 0.0 0.0 
0.0 0.0 0.0 
0.0 0.0 0.0 
0.0 0.0 0.0 
0.0 0.0 0.0 
0.0 0.0 0.0 
0.0 0.0 0.0 
0.0 0.0 0.0 
0.0 0.0 0.0 
0.0 0.0 0.0 
0.0 0.0 0.0 
0.0 0.0 0.0 
0.0 0.0 0.0 
0.0 0.0 0.0 
0.0 0.0 0.0 
0.0 0.0 0.0 
0.0 0.0 0.0 
0.0 0.0 0.0 
0.0 0.0 0.0 
0.0 0.0 0.0 
0.0 0.0 0.0 
0.0 0.0 0.0 
0.0 0.0 0.0 
0.0 0.0 0.0 
0.0 0.0 0.0 
0.0 0.0 0.0 
0.0 0.0 0.0 
0.0 0.0 0.0 
0.0 0.0 0.0 
0.0 0.0 0.0 
0.0 0.0 0.0 
0.0 0.0 0.0 
0.0 0.0 0.0 
0.0 0.0 0.0 
0.0 0.0 0.0 
0.0 0.0 0.0 
0.0 0.0 0.0 
0.0 0.0 0.0 
0.0 0.0 0.0 
0.0 0.0 0.0 
0.0 0.0 0.0 
0.0 0.0 0.0 
0.0 0.0 0.0 
0.0 0.0 0.0 
0.0 0.0 0.0 
0.0 0.0 0.0 
0.0 0.0 0.0 
0.0 0.0 0.0 
0.0 0.0 0.0 
0.0 0.0 0.0 
0.0 0.0 0.0 
0.0 0.0 0.0 
0.0 0.0 0.0 
0.0 0.0 0.0 
0.0 0.0 0.0 
0.0 0.0 0.0 
0.0 0.0 0.0 
0.0 0.0 0.0 
0.0 0.0 0.0 
0.0 0.0 0.0 
0.0 0.0 0.0 
0.0 0.0 0.0 
0.0 0.0 0.0 
0.0 0.0 0.0 
0.0 0.0 0.0 
0.0 0.0 0.0 
0.0 0.0 0.0 
0.0 0.0 0.0 
0.0 0.0 0.0 
0.0 0.0 0.0 
0.0 0.0 0.0 
0.0 0.0 0.0 
0.0 0.0 0.0 
0.0 0.0 0.0 
0.0 0.0 0.0 
0.0 0.0 0.0 
0.0 0.0 0.0 
0.0 0.0 0.0 
0.0 0.0 0.0 
0.0 0.0 0.0 
0.0 0.0 0.0 
0.0 0.0 0.0 
0.0 0.0 0.0 
0.0 0.0 0.0 
0.0 0.0 0.0 
0.0 0.0 0.0 
0.0 0.0 0.0 
0.0 0.0 0.0 
0.0 0.0 0.0 
0.0 0.0 0.0 
0.0 0.0 0.0 
0.0 0.0 0.0 
0.0 0.0 0.0 
0.0 0.0 0.0 
0.0 0.0 0.0 
0.0 0.0 0.0 
0.0 0.0 0.0 
0.0 0.0 0.0 
0.0 0.0 0.0 
0.0 0.0 0.0 
0.0 0.0 0.0 
0.0 0.0 0.0 
0.0 0.0 0.0 
0.0 0.0 0.0 
0.0 0.0 0.0 
0.0 0.0 0.0 
0.0 0.0 0.0 
0.0 0.0 0.0 
0.0 0.0 0.0 
0.0 0.0 0.0 
0.0 0.0 0.0 
0.0 0.0 0.0 
0.0 0.0 0.0 
0.0 0.0 0.0 
0.0 0.0 0.0 
0.0 0.0 0.0 
0.0 0.0 0.0 
0.0 0.0 0.0 
0.0 0.0 0.0 
0.0 0.0 0.0 
0.0 0.0 0.0 
0.0 0.0 0.0 
0.0 0.0 0.0 
0.0 0.0 0.0 
0.0 0.0 0.0 
0.0 0.0 0.0 
0.0 0.0 0.0 
0.0 0.0 0.0 
0.0 0.0 0.0 
0.0 0.0 0.0 
0.0 0.0 0.0 
0.0 0.0 0.0 
0.0 0.0 0.0 
0.0 0.0 0.0 
0.0 0.0 0.0 
0.0 0.0 0.0 
0.0 0.0 0.0 
0.0 0.0 0.0 
0.0 0.0 0.0 
0.0 0.0 0.0 
0.0 0.0 0.0 
0.0 0.0 0.0 
0.0 0.0 0.0 
0.0 0.0 0.0 
0.0 0.0 0.0 
0.0 0.0 0.0 
0.0 0.0 0.0 
0.0 0.0 0.0 
0.0 0.0 0.0 
0.0 0.0 0.0 
0.0 0.0 0.0 
0.0 0.0 0.0 
0.0 0.0 0.0 
0.0 0.0 0.0 
0.0 0.0 0.0 
0.0 0.0 0.0 
0.0 0.0 0.0 
0.0 0.0 0.0 
0.0 0.0 0.0 
0.0 0.0 0.0 
0.0 0.0 0.0 
0.0 0.0 0.0 
0.0 0.0 0.0 
0.0 0.0 0.0 
0.0 0.0 0.0 
0.0 0.0 0.0 
0.0 0.0 0.0 
0.0 0.0 0.0 
0.0 0.0 0.0 
0.0 0.0 0.0 
0.0 0.0 0.0 
0.0 0.0 0.0 
0.0 0.0 0.0 
0.0 0.0 0.0 
0.0 0.0 0.0 
0.0 0.0 0.0 
0.0 0.0 0.0 
0.0 0.0 0.0 
0.0 0.0 0.0 
0.0 0.0 0.0 
0.0 0.0 0.0 
0.0 0.0 0.0 
0.0 0.0 0.0 
0.0 0.0 0.0 
0.0 0.0 0.0 
0.0 0.0 0.0 
0.0 0.0 0.0 
0.0 0.0 0.0 
0.0 0.0 0.0 
0.0 0.0 0.0 
0.0 0.0 0.0 
0.0 0.0 0.0 
0.0 0.0 0.0 
0.0 0.0 0.0 
0.0 0.0 0.0 
0.0 0.0 0.0 
0.0 0.0 0.0 
0.0 0.0 0.0 
0.0 0.0 0.0 
0.0 0.0 0.0 
0.0 0.0 0.0 
0.0 0.0 0.0 
0.0 0.0 0.0 
0.0 0.0 0.0 
0.0 0.0 0.0 
0.0 0.0 0.0 
0.0 0.0 0.0 
0.0 0.0 0.0 
0.0 0.0 0.0 
0.0 0.0 0.0 
0.0 0.0 0.0 
0.0 0.0 0.0 
0.0 0.0 0.0 
0.0 0.0 0.0 
0.0 0.0 0.0 
0.0 0.0 0.0 
0.0 0.0 0.0 
0.0 0.0 0.0 
0.0 0.0 0.0 
0.0 0.0 0.0 
0.0 0.0 0.0 
0.0 0.0 0.0 
0.0 0.0 0.0 
0.0 0.0 0.0 
0.0 0.0 0.0 
0.0 0.0 0.0 
0.0 0.0 0.0 
0.0 0.0 0.0 
0.0 0.0 0.0 
0.0 0.0 0.0 
0.0 0.0 0.0 
0.0 0.0 0.0 
0.0 0.0 0.0 
0.0 0.0 0.0 
0.0 0.0 0.0 
0.0 0.0 0.0 
0.0 0.0 0.0 
0.0 0.0 0.0 
0.0 0.0 0.0 
0.0 0.0 0.0 
0.0 0.0 0.0 
0.0 0.0 0.0 
0.0 0.0 0.0 
0.0 0.0 0.0 
0.0 0.0 0.0 
0.0 0.0 0.0 
0.0 0.0 0.0 
0.0 0.0 0.0 
0.0 0.0 0.0 
0.0 0.0 0.0 
0.0 0.0 0.0 
0.0 0.0 0.0 
0.0 0.0 0.0 
0.0 0.0 0.0 
0.0 0.0 0.0 
0.0 0.0 0.0 
0.0 0.0 0.0 
0.0 0.0 0.0 
0.0 0.0 0.0 
0.0 0.0 0.0 
0.0 0.0 0.0 
0.0 0.0 0.0 
0.0 0.0 0.0 
0.0 0.0 0.0 
0.0 0.0 0.0 
0.0 0.0 0.0 
0.0 0.0 0.0 
0.0 0.0 0.0 
0.0 0.0 0.0 
0.0 0.0 0.0 
0.0 0.0 0.0 
0.0 0.0 0.0 
0.0 0.0 0.0 
0.0 0.0 0.0 
0.0 0.0 0.0 
0.0 0.0 0.0 
0.0 0.0 0.0 
0.0 0.0 0.0 
0.0 0.0 0.0 
0.0 0.0 0.0 
0.0 0.0 0.0 
0.0 0.0 0.0 
0.0 0.0 0.0 
0.0 0.0 0.0 
0.0 0.0 0.0 
0.0 0.0 0.0 
0.0 0.0 0.0 
0.0 0.0 0.0 
0.0 0.0 0.0 
0.0 0.0 0.0 
0.0 0.0 0.0 
0.0 0.0 0.0 
0.0 0.0 0.0 
0.0 0.0 0.0 
0.0 0.0 0.0 
0.0 0.0 0.0 
0.0 0.0 0.0 
0.0 0.0 0.0 
0.0 0.0 0.0 
0.0 0.0 0.0 
0.0 0.0 0.0 
0.0 0.0 0.0 
0.0 0.0 0.0 
0.0 0.0 0.0 
0.0 0.0 0.0 
0.0 0.0 0.0 
0.0 0.0 0.0 
0.0 0.0 0.0 
0.0 0.0 0.0 
0.0 0.0 0.0 
0.0 0.0 0.0 
0.0 0.0 0.0 
0.0 0.0 0.0 
0.0 0.0 0.0 
0.0 0.0 0.0 
0.0 0.0 0.0 
0.0 0.0 0.0 

SCALARS node_boundary float
LOOKUP_TABLE default
1.000000000000e+00 
1.000000000000e+00 
1.000000000000e+00 
1.000000000000e+00 
1.000000000000e+00 
1.000000000000e+00 
1.000000000000e+00 
1.000000000000e+00 
1.000000000000e+00 
1.000000000000e+00 
1.000000000000e+00 
1.000000000000e+00 
1.000000000000e+00 
1.000000000000e+00 
1.000000000000e+00 
1.000000000000e+00 
1.000000000000e+00 
1.000000000000e+00 
1.000000000000e+00 
1.000000000000e+00 
1.000000000000e+00 
1.000000000000e+00 
1.000000000000e+00 
1.000000000000e+00 
1.000000000000e+00 
1.000000000000e+00 
1.000000000000e+00 
1.000000000000e+00 
1.000000000000e+00 
1.000000000000e+00 
1.000000000000e+00 
1.000000000000e+00 
1.000000000000e+00 
1.000000000000e+00 
1.000000000000e+00 
1.000000000000e+00 
1.000000000000e+00 
1.000000000000e+00 
1.000000000000e+00 
1.000000000000e+00 
1.000000000000e+00 
1.000000000000e+00 
1.000000000000e+00 
1.000000000000e+00 
1.000000000000e+00 
1.000000000000e+00 
1.000000000000e+00 
1.000000000000e+00 
1.000000000000e+00 
1.000000000000e+00 
1.000000000000e+00 
1.000000000000e+00 
1.000000000000e+00 
1.000000000000e+00 
1.000000000000e+00 
1.000000000000e+00 
1.000000000000e+00 
1.000000000000e+00 
1.000000000000e+00 
1.000000000000e+00 
1.000000000000e+00 
1.000000000000e+00 
1.000000000000e+00 
1.000000000000e+00 
1.000000000000e+00 
1.000000000000e+00 
1.000000000000e+00 
1.000000000000e+00 
1.000000000000e+00 
1.000000000000e+00 
1.000000000000e+00 
1.000000000000e+00 
1.000000000000e+00 
1.000000000000e+00 
1.000000000000e+00 
1.000000000000e+00 
1.000000000000e+00 
1.000000000000e+00 
1.000000000000e+00 
1.000000000000e+00 
1.000000000000e+00 
1.000000000000e+00 
0.0
1.000000000000e+00 
1.000000000000e+00 
1.000000000000e+00 
1.000000000000e+00 
1.000000000000e+00 
0.0
0.0
0.0
0.0
1.000000000000e+00 
1.000000000000e+00 
1.000000000000e+00 
1.000000000000e+00 
1.000000000000e+00 
0.0
0.0
0.0
0.0
0.0
0.0
0.0
0.0
0.0
0.0
0.0
0.0
0.0
0.0
1.000000000000e+00 
1.000000000000e+00 
1.000000000000e+00 
1.000000000000e+00 
1.000000000000e+00 
1.000000000000e+00 
1.000000000000e+00 
1.000000000000e+00 
1.000000000000e+00 
1.000000000000e+00 
1.000000000000e+00 
1.000000000000e+00 
1.000000000000e+00 
1.000000000000e+00 
1.000000000000e+00 
1.000000000000e+00 
1.000000000000e+00 
1.000000000000e+00 
1.000000000000e+00 
1.000000000000e+00 
1.000000000000e+00 
1.000000000000e+00 
1.000000000000e+00 
1.000000000000e+00 
1.000000000000e+00 
1.000000000000e+00 
1.000000000000e+00 
1.000000000000e+00 
1.000000000000e+00 
1.000000000000e+00 
1.000000000000e+00 
1.000000000000e+00 
1.000000000000e+00 
1.000000000000e+00 
1.000000000000e+00 
1.000000000000e+00 
1.000000000000e+00 
1.000000000000e+00 
1.000000000000e+00 
1.000000000000e+00 
1.000000000000e+00 
0.0
0.0
0.0
0.0
0.0
0.0
0.0
0.0
0.0
0.0
0.0
0.0
0.0
0.0
0.0
0.0
0.0
0.0
0.0
0.0
0.0
0.0
0.0
0.0
0.0
0.0
0.0
0.0
0.0
0.0
0.0
0.0
0.0
0.0
0.0
0.0
0.0
0.0
0.0
0.0
0.0
0.0
0.0
0.0
0.0
0.0
0.0
0.0
0.0
0.0
0.0
0.0
0.0
0.0
0.0
0.0
0.0
0.0
0.0
0.0
0.0
0.0
0.0
0.0
0.0
0.0
0.0
0.0
0.0
0.0
0.0
0.0
1.000000000000e+00 
1.000000000000e+00 
1.000000000000e+00 
1.000000000000e+00 
1.000000000000e+00 
0.0
0.0
0.0
0.0
0.0
0.0
0.0
0.0
0.0
0.0
0.0
0.0
0.0
0.0
0.0
0.0
0.0
0.0
0.0
0.0
0.0
0.0
0.0
0.0
0.0
0.0
0.0
0.0
0.0
0.0
0.0
0.0
0.0
0.0
0.0
0.0
0.0
0.0
0.0
0.0
0.0
0.0
0.0
0.0
0.0
0.0
0.0
0.0
0.0
0.0
0.0
0.0
0.0
0.0
0.0
0.0
0.0
0.0
0.0
0.0
0.0
0.0
0.0
0.0
0.0
0.0
0.0
0.0
0.0
0.0
0.0
0.0
0.0
0.0
0.0
0.0
0.0
0.0
0.0
0.0
0.0
0.0
0.0
0.0
0.0
0.0
0.0
0.0
0.0
0.0
0.0
0.0
0.0
0.0
0.0
0.0
0.0
0.0
0.0
0.0
0.0
0.0
0.0
0.0
0.0
0.0
0.0
0.0
0.0
0.0
0.0
0.0
0.0
0.0
0.0
0.0
0.0
0.0
0.0
0.0
0.0
0.0
0.0
0.0
0.0
0.0
0.0
0.0
0.0
0.0
0.0
0.0
0.0
0.0
0.0
0.0
0.0
0.0
0.0
0.0
0.0
0.0
0.0
0.0
0.0
0.0
0.0
0.0
0.0
0.0
0.0
0.0
0.0
0.0
0.0
0.0
0.0
0.0
0.0
0.0
0.0
0.0
0.0
0.0
0.0
0.0
0.0
0.0
0.0
0.0
0.0
0.0
0.0
0.0
0.0
0.0
0.0
0.0
0.0
0.0
0.0
0.0
0.0
0.0
0.0
0.0
0.0
0.0
0.0
0.0
0.0
0.0
0.0
0.0
0.0
0.0
0.0
0.0
0.0
0.0
0.0
0.0
0.0
0.0
0.0
0.0
0.0
0.0
0.0
0.0
0.0
0.0
0.0
0.0
0.0
0.0
0.0
0.0
0.0
0.0
0.0
0.0
0.0
0.0
0.0
0.0
0.0
0.0
0.0
0.0
0.0
0.0
0.0
0.0
0.0
0.0
0.0
0.0
0.0
0.0
0.0
0.0
0.0
0.0
0.0
0.0
0.0
0.0
0.0
0.0
0.0
0.0
0.0
0.0
0.0
0.0
0.0
0.0
0.0
0.0
0.0
0.0
0.0
0.0
0.0
0.0
0.0
0.0
0.0
0.0
0.0
0.0
0.0
0.0
0.0
0.0
0.0
0.0
0.0
0.0
0.0
0.0
0.0
0.0
0.0
0.0
0.0
0.0
0.0
0.0
0.0
0.0
0.0
0.0
0.0
0.0
0.0
0.0
0.0
0.0
0.0
0.0
0.0
0.0
0.0
0.0
0.0
0.0
0.0
0.0
0.0
0.0
0.0
0.0
0.0
0.0
0.0
0.0
0.0
0.0
0.0
0.0
0.0
0.0
0.0
0.0
0.0
0.0
0.0
0.0
0.0
0.0
0.0
0.0
0.0
0.0
0.0
0.0
0.0
0.0
0.0
0.0
0.0
0.0
0.0
0.0
0.0
0.0
0.0
0.0
0.0
0.0
0.0
0.0
0.0
0.0
0.0
0.0
0.0
0.0
0.0
0.0
0.0
0.0
0.0
0.0
0.0
0.0
0.0
0.0
0.0
0.0
0.0
0.0
0.0
0.0
0.0
0.0
0.0
0.0
0.0
0.0
0.0
0.0
0.0
0.0
0.0
0.0
0.0
0.0
0.0
0.0
0.0
0.0
0.0
0.0
0.0
0.0
0.0
0.0
0.0
0.0
0.0
0.0
0.0
0.0
0.0
0.0
0.0
0.0
0.0
0.0
0.0
0.0
0.0
0.0
0.0
0.0
0.0
0.0
0.0
0.0
0.0
0.0
0.0
0.0
0.0
0.0
0.0
0.0
0.0
0.0
0.0
0.0
0.0
0.0
0.0
0.0
0.0
0.0
0.0
0.0
0.0
0.0
0.0
0.0
0.0
0.0
0.0
0.0
0.0
0.0
0.0
0.0
0.0
0.0
0.0
0.0
0.0
0.0
0.0
0.0
0.0
0.0
0.0
0.0
0.0
0.0
0.0
0.0
0.0
0.0
0.0
0.0
0.0
0.0
0.0
0.0
0.0
0.0
0.0
0.0
0.0
0.0
0.0
0.0
0.0
0.0
0.0
0.0
0.0
0.0
0.0
0.0
0.0
0.0
0.0
0.0
0.0
0.0
0.0
0.0
0.0
0.0
0.0
0.0
0.0
0.0
0.0
0.0
0.0
0.0
0.0
0.0
0.0
0.0
0.0
0.0
0.0
0.0
0.0
0.0
0.0
0.0
0.0
0.0
0.0
0.0
0.0
0.0
0.0
0.0
0.0
0.0
0.0
0.0
0.0
0.0
0.0
0.0
0.0
0.0
0.0
0.0
0.0
0.0
0.0
0.0
0.0
0.0
0.0
0.0
0.0
0.0
0.0
0.0
0.0
0.0
0.0
0.0
0.0
0.0
0.0
0.0
0.0
0.0
0.0
0.0
0.0
0.0
0.0
0.0
0.0
0.0
0.0
0.0
0.0
0.0
0.0
0.0
0.0
0.0
0.0
0.0
0.0
0.0
0.0
0.0
0.0
0.0
0.0
0.0
0.0
0.0
0.0
0.0
0.0
0.0
0.0
0.0
0.0
0.0
0.0
0.0
0.0
0.0
0.0
0.0
0.0
0.0
0.0
0.0
0.0
0.0
0.0
0.0
0.0
0.0
0.0
0.0
0.0
0.0
0.0
0.0
0.0
0.0
0.0
0.0
0.0
0.0
0.0
0.0
0.0
0.0
0.0
0.0
0.0
0.0
0.0
0.0
0.0
0.0
0.0
0.0
0.0
0.0
0.0
0.0
0.0
0.0
0.0
0.0
0.0
0.0
0.0
0.0
0.0
0.0
0.0
0.0
0.0
0.0
0.0
0.0
0.0
0.0
0.0
0.0
0.0
0.0
0.0
0.0
0.0
0.0
0.0
0.0
0.0
0.0
0.0
0.0
0.0
0.0
0.0
0.0
0.0
0.0
0.0
0.0
0.0
0.0
0.0
0.0
0.0
0.0
0.0
0.0
0.0
0.0
0.0
0.0
0.0
0.0
0.0
0.0
0.0
0.0
0.0
0.0
0.0
0.0
0.0
0.0
0.0
0.0
0.0
0.0
0.0
0.0
0.0
0.0
0.0
0.0
0.0
0.0
0.0
0.0
0.0
0.0
0.0
0.0
0.0
0.0
0.0
0.0
0.0
0.0
0.0
0.0
0.0
0.0
0.0
0.0
0.0
0.0
0.0
0.0
0.0
0.0
0.0
0.0
0.0
0.0
0.0
0.0
0.0
0.0
0.0
0.0
0.0
0.0
0.0
0.0
0.0
0.0
0.0
0.0
0.0
0.0
0.0
0.0
0.0
0.0
0.0
0.0
0.0
0.0
0.0
0.0
0.0
0.0
0.0
0.0
0.0
0.0
0.0
0.0
0.0
0.0
0.0
0.0
0.0
0.0
0.0
0.0
0.0
0.0
0.0
0.0
0.0
0.0
0.0
0.0
0.0
0.0
0.0
0.0
0.0
0.0
0.0
0.0
0.0
0.0
0.0
0.0
0.0
0.0
0.0
0.0
0.0
0.0
0.0
0.0
0.0
0.0
0.0
0.0
0.0
0.0
0.0
0.0
0.0
0.0
0.0
0.0
0.0
0.0
0.0
0.0
0.0
0.0
0.0
0.0
0.0
0.0
0.0
0.0
0.0
0.0
0.0
0.0
0.0
0.0
0.0
0.0
0.0
0.0
0.0
0.0
0.0
0.0
0.0
0.0
0.0
0.0
0.0
0.0
0.0
0.0
0.0
0.0
0.0
0.0
0.0
0.0
0.0
0.0
0.0
0.0
0.0
0.0
0.0
0.0
0.0
0.0
0.0
0.0
0.0
0.0
0.0
0.0
0.0
0.0
0.0
0.0
0.0
0.0
0.0
0.0
0.0
0.0
0.0
0.0
0.0
0.0
0.0
0.0
0.0
0.0

VECTORS node_force_gravity float
0.0 -1.962000000000e+01 0.0 
0.0 -1.962000000000e+01 0.0 
0.0 -1.962000000000e+01 0.0 
0.0 -1.962000000000e+01 0.0 
0.0 -1.962000000000e+01 0.0 
0.0 -1.962000000000e+01 0.0 
0.0 -1.962000000000e+01 0.0 
0.0 -1.962000000000e+01 0.0 
0.0 -1.962000000000e+01 0.0 
0.0 -1.962000000000e+01 0.0 
0.0 -1.962000000000e+01 0.0 
0.0 -1.962000000000e+01 0.0 
0.0 -1.962000000000e+01 0.0 
0.0 -1.962000000000e+01 0.0 
0.0 -1.962000000000e+01 0.0 
0.0 -1.962000000000e+01 0.0 
0.0 -1.962000000000e+01 0.0 
0.0 -1.962000000000e+01 0.0 
0.0 -1.962000000000e+01 0.0 
0.0 -1.962000000000e+01 0.0 
0.0 -1.962000000000e+01 0.0 
0.0 -1.962000000000e+01 0.0 
0.0 -1.962000000000e+01 0.0 
0.0 -1.962000000000e+01 0.0 
0.0 -1.962000000000e+01 0.0 
0.0 -1.962000000000e+01 0.0 
0.0 -1.962000000000e+01 0.0 
0.0 -1.962000000000e+01 0.0 
0.0 -1.962000000000e+01 0.0 
0.0 -1.962000000000e+01 0.0 
0.0 -1.962000000000e+01 0.0 
0.0 -1.962000000000e+01 0.0 
0.0 -1.962000000000e+01 0.0 
0.0 -1.962000000000e+01 0.0 
0.0 -1.962000000000e+01 0.0 
0.0 -1.962000000000e+01 0.0 
0.0 -1.962000000000e+01 0.0 
0.0 -1.962000000000e+01 0.0 
0.0 -1.962000000000e+01 0.0 
0.0 -1.962000000000e+01 0.0 
0.0 -1.962000000000e+01 0.0 
0.0 -1.962000000000e+01 0.0 
0.0 -1.962000000000e+01 0.0 
0.0 -1.962000000000e+01 0.0 
0.0 -1.962000000000e+01 0.0 
0.0 -1.962000000000e+01 0.0 
0.0 -1.962000000000e+01 0.0 
0.0 -1.962000000000e+01 0.0 
0.0 -1.962000000000e+01 0.0 
0.0 -1.962000000000e+01 0.0 
0.0 -1.962000000000e+01 0.0 
0.0 -1.962000000000e+01 0.0 
0.0 -1.962000000000e+01 0.0 
0.0 -1.962000000000e+01 0.0 
0.0 -1.962000000000e+01 0.0 
0.0 -1.962000000000e+01 0.0 
0.0 -1.962000000000e+01 0.0 
0.0 -1.962000000000e+01 0.0 
0.0 -1.962000000000e+01 0.0 
0.0 -1.962000000000e+01 0.0 
0.0 -1.962000000000e+01 0.0 
0.0 -1.962000000000e+01 0.0 
0.0 -1.962000000000e+01 0.0 
0.0 -1.962000000000e+01 0.0 
0.0 -1.962000000000e+01 0.0 
0.0 -1.962000000000e+01 0.0 
0.0 -1.962000000000e+01 0.0 
0.0 -1.962000000000e+01 0.0 
0.0 -1.962000000000e+01 0.0 
0.0 -1.962000000000e+01 0.0 
0.0 -1.962000000000e+01 0.0 
0.0 -1.962000000000e+01 0.0 
0.0 -1.962000000000e+01 0.0 
0.0 -1.962000000000e+01 0.0 
0.0 -1.962000000000e+01 0.0 
0.0 -1.962000000000e+01 0.0 
0.0 -1.962000000000e+01 0.0 
0.0 -1.962000000000e+01 0.0 
0.0 -1.962000000000e+01 0.0 
0.0 -1.962000000000e+01 0.0 
0.0 -1.962000000000e+01 0.0 
0.0 -1.962000000000e+01 0.0 
0.0 -1.962000000000e+01 0.0 
0.0 -1.962000000000e+01 0.0 
0.0 -1.962000000000e+01 0.0 
0.0 -1.962000000000e+01 0.0 
0.0 -1.962000000000e+01 0.0 
0.0 -1.962000000000e+01 0.0 
0.0 -1.962000000000e+01 0.0 
0.0 -1.962000000000e+01 0.0 
0.0 -1.962000000000e+01 0.0 
0.0 -1.962000000000e+01 0.0 
0.0 -1.962000000000e+01 0.0 
0.0 -1.962000000000e+01 0.0 
0.0 -1.962000000000e+01 0.0 
0.0 -1.962000000000e+01 0.0 
0.0 -1.962000000000e+01 0.0 
0.0 -1.962000000000e+01 0.0 
0.0 -1.962000000000e+01 0.0 
0.0 -1.962000000000e+01 0.0 
0.0 -1.962000000000e+01 0.0 
0.0 -1.962000000000e+01 0.0 
0.0 -1.962000000000e+01 0.0 
0.0 -1.962000000000e+01 0.0 
0.0 -1.962000000000e+01 0.0 
0.0 -1.962000000000e+01 0.0 
0.0 -1.962000000000e+01 0.0 
0.0 -1.962000000000e+01 0.0 
0.0 -1.962000000000e+01 0.0 
0.0 -1.962000000000e+01 0.0 
0.0 -1.962000000000e+01 0.0 
0.0 -1.962000000000e+01 0.0 
0.0 -1.962000000000e+01 0.0 
0.0 -1.962000000000e+01 0.0 
0.0 -1.962000000000e+01 0.0 
0.0 -1.962000000000e+01 0.0 
0.0 -1.962000000000e+01 0.0 
0.0 -1.962000000000e+01 0.0 
0.0 -1.962000000000e+01 0.0 
0.0 -1.962000000000e+01 0.0 
0.0 -1.962000000000e+01 0.0 
0.0 -1.962000000000e+01 0.0 
0.0 -1.962000000000e+01 0.0 
0.0 -1.962000000000e+01 0.0 
0.0 -1.962000000000e+01 0.0 
0.0 -1.962000000000e+01 0.0 
0.0 -1.962000000000e+01 0.0 
0.0 -1.962000000000e+01 0.0 
0.0 -1.962000000000e+01 0.0 
0.0 -1.962000000000e+01 0.0 
0.0 -1.962000000000e+01 0.0 
0.0 -1.962000000000e+01 0.0 
0.0 -1.962000000000e+01 0.0 
0.0 -1.962000000000e+01 0.0 
0.0 -1.962000000000e+01 0.0 
0.0 -1.962000000000e+01 0.0 
0.0 -1.962000000000e+01 0.0 
0.0 -1.962000000000e+01 0.0 
0.0 -1.962000000000e+01 0.0 
0.0 -1.962000000000e+01 0.0 
0.0 -1.962000000000e+01 0.0 
0.0 -1.962000000000e+01 0.0 
0.0 -1.962000000000e+01 0.0 
0.0 -1.962000000000e+01 0.0 
0.0 -1.962000000000e+01 0.0 
0.0 -1.962000000000e+01 0.0 
0.0 -1.962000000000e+01 0.0 
0.0 -1.962000000000e+01 0.0 
0.0 -1.962000000000e+01 0.0 
0.0 -1.962000000000e+01 0.0 
0.0 -1.962000000000e+01 0.0 
0.0 -1.962000000000e+01 0.0 
0.0 -1.962000000000e+01 0.0 
0.0 -1.962000000000e+01 0.0 
0.0 -1.962000000000e+01 0.0 
0.0 -1.962000000000e+01 0.0 
0.0 -1.962000000000e+01 0.0 
0.0 -1.962000000000e+01 0.0 
0.0 -1.962000000000e+01 0.0 
0.0 -1.962000000000e+01 0.0 
0.0 -1.962000000000e+01 0.0 
0.0 -1.962000000000e+01 0.0 
0.0 -1.962000000000e+01 0.0 
0.0 -1.962000000000e+01 0.0 
0.0 -1.962000000000e+01 0.0 
0.0 -1.962000000000e+01 0.0 
0.0 -1.962000000000e+01 0.0 
0.0 -1.962000000000e+01 0.0 
0.0 -1.962000000000e+01 0.0 
0.0 -1.962000000000e+01 0.0 
0.0 -1.962000000000e+01 0.0 
0.0 -1.962000000000e+01 0.0 
0.0 -1.962000000000e+01 0.0 
0.0 -1.962000000000e+01 0.0 
0.0 -1.962000000000e+01 0.0 
0.0 -1.962000000000e+01 0.0 
0.0 -1.962000000000e+01 0.0 
0.0 -1.962000000000e+01 0.0 
0.0 -1.962000000000e+01 0.0 
0.0 -1.962000000000e+01 0.0 
0.0 -1.962000000000e+01 0.0 
0.0 -1.962000000000e+01 0.0 
0.0 -1.962000000000e+01 0.0 
0.0 -1.962000000000e+01 0.0 
0.0 -1.962000000000e+01 0.0 
0.0 -1.962000000000e+01 0.0 
0.0 -1.962000000000e+01 0.0 
0.0 -1.962000000000e+01 0.0 
0.0 -1.962000000000e+01 0.0 
0.0 -1.962000000000e+01 0.0 
0.0 -1.962000000000e+01 0.0 
0.0 -1.962000000000e+01 0.0 
0.0 -1.962000000000e+01 0.0 
0.0 -1.962000000000e+01 0.0 
0.0 -1.962000000000e+01 0.0 
0.0 -1.962000000000e+01 0.0 
0.0 -1.962000000000e+01 0.0 
0.0 -1.962000000000e+01 0.0 
0.0 -1.962000000000e+01 0.0 
0.0 -1.962000000000e+01 0.0 
0.0 -1.962000000000e+01 0.0 
0.0 -1.962000000000e+01 0.0 
0.0 -1.962000000000e+01 0.0 
0.0 -1.962000000000e+01 0.0 
0.0 -1.962000000000e+01 0.0 
0.0 -1.962000000000e+01 0.0 
0.0 -1.962000000000e+01 0.0 
0.0 -1.962000000000e+01 0.0 
0.0 -1.962000000000e+01 0.0 
0.0 -1.962000000000e+01 0.0 
0.0 -1.962000000000e+01 0.0 
0.0 -1.962000000000e+01 0.0 
0.0 -1.962000000000e+01 0.0 
0.0 -1.962000000000e+01 0.0 
0.0 -1.962000000000e+01 0.0 
0.0 -1.962000000000e+01 0.0 
0.0 -1.962000000000e+01 0.0 
0.0 -1.962000000000e+01 0.0 
0.0 -1.962000000000e+01 0.0 
0.0 -1.962000000000e+01 0.0 
0.0 -1.962000000000e+01 0.0 
0.0 -1.962000000000e+01 0.0 
0.0 -1.962000000000e+01 0.0 
0.0 -1.962000000000e+01 0.0 
0.0 -1.962000000000e+01 0.0 
0.0 -1.962000000000e+01 0.0 
0.0 -1.962000000000e+01 0.0 
0.0 -1.962000000000e+01 0.0 
0.0 -1.962000000000e+01 0.0 
0.0 -1.962000000000e+01 0.0 
0.0 -1.962000000000e+01 0.0 
0.0 -1.962000000000e+01 0.0 
0.0 -1.962000000000e+01 0.0 
0.0 -1.962000000000e+01 0.0 
0.0 -1.962000000000e+01 0.0 
0.0 -1.962000000000e+01 0.0 
0.0 -1.962000000000e+01 0.0 
0.0 -1.962000000000e+01 0.0 
0.0 -1.962000000000e+01 0.0 
0.0 -1.962000000000e+01 0.0 
0.0 -1.962000000000e+01 0.0 
0.0 -1.962000000000e+01 0.0 
0.0 -1.962000000000e+01 0.0 
0.0 -1.962000000000e+01 0.0 
0.0 -1.962000000000e+01 0.0 
0.0 -1.962000000000e+01 0.0 
0.0 -1.962000000000e+01 0.0 
0.0 -1.962000000000e+01 0.0 
0.0 -1.962000000000e+01 0.0 
0.0 -1.962000000000e+01 0.0 
0.0 -1.962000000000e+01 0.0 
0.0 -1.962000000000e+01 0.0 
0.0 -1.962000000000e+01 0.0 
0.0 -1.962000000000e+01 0.0 
0.0 -1.962000000000e+01 0.0 
0.0 -1.962000000000e+01 0.0 
0.0 -1.962000000000e+01 0.0 
0.0 -1.962000000000e+01 0.0 
0.0 -1.962000000000e+01 0.0 
0.0 -1.962000000000e+01 0.0 
0.0 -1.962000000000e+01 0.0 
0.0 -1.962000000000e+01 0.0 
0.0 -1.962000000000e+01 0.0 
0.0 -1.962000000000e+01 0.0 
0.0 -1.962000000000e+01 0.0 
0.0 -1.962000000000e+01 0.0 
0.0 -1.962000000000e+01 0.0 
0.0 -1.962000000000e+01 0.0 
0.0 -1.962000000000e+01 0.0 
0.0 -1.962000000000e+01 0.0 
0.0 -1.962000000000e+01 0.0 
0.0 -1.962000000000e+01 0.0 
0.0 -1.962000000000e+01 0.0 
0.0 -1.962000000000e+01 0.0 
0.0 -1.962000000000e+01 0.0 
0.0 -1.962000000000e+01 0.0 
0.0 -1.962000000000e+01 0.0 
0.0 -1.962000000000e+01 0.0 
0.0 -1.962000000000e+01 0.0 
0.0 -1.962000000000e+01 0.0 
0.0 -1.962000000000e+01 0.0 
0.0 -1.962000000000e+01 0.0 
0.0 -1.962000000000e+01 0.0 
0.0 -1.962000000000e+01 0.0 
0.0 -1.962000000000e+01 0.0 
0.0 -1.962000000000e+01 0.0 
0.0 -1.962000000000e+01 0.0 
0.0 -1.962000000000e+01 0.0 
0.0 -1.962000000000e+01 0.0 
0.0 -1.962000000000e+01 0.0 
0.0 -1.962000000000e+01 0.0 
0.0 -1.962000000000e+01 0.0 
0.0 -1.962000000000e+01 0.0 
0.0 -1.962000000000e+01 0.0 
0.0 -1.962000000000e+01 0.0 
0.0 -1.962000000000e+01 0.0 
0.0 -1.962000000000e+01 0.0 
0.0 -1.962000000000e+01 0.0 
0.0 -1.962000000000e+01 0.0 
0.0 -1.962000000000e+01 0.0 
0.0 -1.962000000000e+01 0.0 
0.0 -1.962000000000e+01 0.0 
0.0 -1.962000000000e+01 0.0 
0.0 -1.962000000000e+01 0.0 
0.0 -1.962000000000e+01 0.0 
0.0 -1.962000000000e+01 0.0 
0.0 -1.962000000000e+01 0.0 
0.0 -1.962000000000e+01 0.0 
0.0 -1.962000000000e+01 0.0 
0.0 -1.962000000000e+01 0.0 
0.0 -1.962000000000e+01 0.0 
0.0 -1.962000000000e+01 0.0 
0.0 -1.962000000000e+01 0.0 
0.0 -1.962000000000e+01 0.0 
0.0 -1.962000000000e+01 0.0 
0.0 -1.962000000000e+01 0.0 
0.0 -1.962000000000e+01 0.0 
0.0 -1.962000000000e+01 0.0 
0.0 -1.962000000000e+01 0.0 
0.0 -1.962000000000e+01 0.0 
0.0 -1.962000000000e+01 0.0 
0.0 -1.962000000000e+01 0.0 
0.0 -1.962000000000e+01 0.0 
0.0 -1.962000000000e+01 0.0 
0.0 -1.962000000000e+01 0.0 
0.0 -1.962000000000e+01 0.0 
0.0 -1.962000000000e+01 0.0 
0.0 -1.962000000000e+01 0.0 
0.0 -1.962000000000e+01 0.0 
0.0 -1.962000000000e+01 0.0 
0.0 -1.962000000000e+01 0.0 
0.0 -1.962000000000e+01 0.0 
0.0 -1.962000000000e+01 0.0 
0.0 -1.962000000000e+01 0.0 
0.0 -1.962000000000e+01 0.0 
0.0 -1.962000000000e+01 0.0 
0.0 -1.962000000000e+01 0.0 
0.0 -1.962000000000e+01 0.0 
0.0 -1.962000000000e+01 0.0 
0.0 -1.962000000000e+01 0.0 
0.0 -1.962000000000e+01 0.0 
0.0 -1.962000000000e+01 0.0 
0.0 -1.962000000000e+01 0.0 
0.0 -1.962000000000e+01 0.0 
0.0 -1.962000000000e+01 0.0 
0.0 -1.962000000000e+01 0.0 
0.0 -1.962000000000e+01 0.0 
0.0 -1.962000000000e+01 0.0 
0.0 -1.962000000000e+01 0.0 
0.0 -1.962000000000e+01 0.0 
0.0 -1.962000000000e+01 0.0 
0.0 -1.962000000000e+01 0.0 
0.0 -1.962000000000e+01 0.0 
0.0 -1.962000000000e+01 0.0 
0.0 -1.962000000000e+01 0.0 
0.0 -1.962000000000e+01 0.0 
0.0 -1.962000000000e+01 0.0 
0.0 -1.962000000000e+01 0.0 
0.0 -1.962000000000e+01 0.0 
0.0 -1.962000000000e+01 0.0 
0.0 -1.962000000000e+01 0.0 
0.0 -1.962000000000e+01 0.0 
0.0 -1.962000000000e+01 0.0 
0.0 -1.962000000000e+01 0.0 
0.0 -1.962000000000e+01 0.0 
0.0 -1.962000000000e+01 0.0 
0.0 -1.962000000000e+01 0.0 
0.0 -1.962000000000e+01 0.0 
0.0 -1.962000000000e+01 0.0 
0.0 -1.962000000000e+01 0.0 
0.0 -1.962000000000e+01 0.0 
0.0 -1.962000000000e+01 0.0 
0.0 -1.962000000000e+01 0.0 
0.0 -1.962000000000e+01 0.0 
0.0 -1.962000000000e+01 0.0 
0.0 -1.962000000000e+01 0.0 
0.0 -1.962000000000e+01 0.0 
0.0 -1.962000000000e+01 0.0 
0.0 -1.962000000000e+01 0.0 
0.0 -1.962000000000e+01 0.0 
0.0 -1.962000000000e+01 0.0 
0.0 -1.962000000000e+01 0.0 
0.0 -1.962000000000e+01 0.0 
0.0 -1.962000000000e+01 0.0 
0.0 -1.962000000000e+01 0.0 
0.0 -1.962000000000e+01 0.0 
0.0 -1.962000000000e+01 0.0 
0.0 -1.962000000000e+01 0.0 
0.0 -1.962000000000e+01 0.0 
0.0 -1.962000000000e+01 0.0 
0.0 -1.962000000000e+01 0.0 
0.0 -1.962000000000e+01 0.0 
0.0 -1.962000000000e+01 0.0 
0.0 -1.962000000000e+01 0.0 
0.0 -1.962000000000e+01 0.0 
0.0 -1.962000000000e+01 0.0 
0.0 -1.962000000000e+01 0.0 
0.0 -1.962000000000e+01 0.0 
0.0 -1.962000000000e+01 0.0 
0.0 -1.962000000000e+01 0.0 
0.0 -1.962000000000e+01 0.0 
0.0 -1.962000000000e+01 0.0 
0.0 -1.962000000000e+01 0.0 
0.0 -1.962000000000e+01 0.0 
0.0 -1.962000000000e+01 0.0 
0.0 -1.962000000000e+01 0.0 
0.0 -1.962000000000e+01 0.0 
0.0 -1.962000000000e+01 0.0 
0.0 -1.962000000000e+01 0.0 
0.0 -1.962000000000e+01 0.0 
0.0 -1.962000000000e+01 0.0 
0.0 -1.962000000000e+01 0.0 
0.0 -1.962000000000e+01 0.0 
0.0 -1.962000000000e+01 0.0 
0.0 -1.962000000000e+01 0.0 
0.0 -1.962000000000e+01 0.0 
0.0 -1.962000000000e+01 0.0 
0.0 -1.962000000000e+01 0.0 
0.0 -1.962000000000e+01 0.0 
0.0 -1.962000000000e+01 0.0 
0.0 -1.962000000000e+01 0.0 
0.0 -1.962000000000e+01 0.0 
0.0 -1.962000000000e+01 0.0 
0.0 -1.962000000000e+01 0.0 
0.0 -1.962000000000e+01 0.0 
0.0 -1.962000000000e+01 0.0 
0.0 -1.962000000000e+01 0.0 
0.0 -1.962000000000e+01 0.0 
0.0 -1.962000000000e+01 0.0 
0.0 -1.962000000000e+01 0.0 
0.0 -1.962000000000e+01 0.0 
0.0 -1.962000000000e+01 0.0 
0.0 -1.962000000000e+01 0.0 
0.0 -1.962000000000e+01 0.0 
0.0 -1.962000000000e+01 0.0 
0.0 -1.962000000000e+01 0.0 
0.0 -1.962000000000e+01 0.0 
0.0 -1.962000000000e+01 0.0 
0.0 -1.962000000000e+01 0.0 
0.0 -1.962000000000e+01 0.0 
0.0 -1.962000000000e+01 0.0 
0.0 -1.962000000000e+01 0.0 
0.0 -1.962000000000e+01 0.0 
0.0 -1.962000000000e+01 0.0 
0.0 -1.962000000000e+01 0.0 
0.0 -1.962000000000e+01 0.0 
0.0 -1.962000000000e+01 0.0 
0.0 -1.962000000000e+01 0.0 
0.0 -1.962000000000e+01 0.0 
0.0 -1.962000000000e+01 0.0 
0.0 -1.962000000000e+01 0.0 
0.0 -1.962000000000e+01 0.0 
0.0 -1.962000000000e+01 0.0 
0.0 -1.962000000000e+01 0.0 
0.0 -1.962000000000e+01 0.0 
0.0 -1.962000000000e+01 0.0 
0.0 -1.962000000000e+01 0.0 
0.0 -1.962000000000e+01 0.0 
0.0 -1.962000000000e+01 0.0 
0.0 -1.962000000000e+01 0.0 
0.0 -1.962000000000e+01 0.0 
0.0 -1.962000000000e+01 0.0 
0.0 -1.962000000000e+01 0.0 
0.0 -1.962000000000e+01 0.0 
0.0 -1.962000000000e+01 0.0 
0.0 -1.962000000000e+01 0.0 
0.0 -1.962000000000e+01 0.0 
0.0 -1.962000000000e+01 0.0 
0.0 -1.962000000000e+01 0.0 
0.0 -1.962000000000e+01 0.0 
0.0 -1.962000000000e+01 0.0 
0.0 -1.962000000000e+01 0.0 
0.0 -1.962000000000e+01 0.0 
0.0 -1.962000000000e+01 0.0 
0.0 -1.962000000000e+01 0.0 
0.0 -1.962000000000e+01 0.0 
0.0 -1.962000000000e+01 0.0 
0.0 -1.962000000000e+01 0.0 
0.0 -1.962000000000e+01 0.0 
0.0 -1.962000000000e+01 0.0 
0.0 -1.962000000000e+01 0.0 
0.0 -1.962000000000e+01 0.0 
0.0 -1.962000000000e+01 0.0 
0.0 -1.962000000000e+01 0.0 
0.0 -1.962000000000e+01 0.0 
0.0 -1.962000000000e+01 0.0 
0.0 -1.962000000000e+01 0.0 
0.0 -1.962000000000e+01 0.0 
0.0 -1.962000000000e+01 0.0 
0.0 -1.962000000000e+01 0.0 
0.0 -1.962000000000e+01 0.0 
0.0 -1.962000000000e+01 0.0 
0.0 -1.962000000000e+01 0.0 
0.0 -1.962000000000e+01 0.0 
0.0 -1.962000000000e+01 0.0 
0.0 -1.962000000000e+01 0.0 
0.0 -1.962000000000e+01 0.0 
0.0 -1.962000000000e+01 0.0 
0.0 -1.962000000000e+01 0.0 
0.0 -1.962000000000e+01 0.0 
0.0 -1.962000000000e+01 0.0 
0.0 -1.962000000000e+01 0.0 
0.0 -1.962000000000e+01 0.0 
0.0 -1.962000000000e+01 0.0 
0.0 -1.962000000000e+01 0.0 
0.0 -1.962000000000e+01 0.0 
0.0 -1.962000000000e+01 0.0 
0.0 -1.962000000000e+01 0.0 
0.0 -1.962000000000e+01 0.0 
0.0 -1.962000000000e+01 0.0 
0.0 -1.962000000000e+01 0.0 
0.0 -1.962000000000e+01 0.0 
0.0 -1.962000000000e+01 0.0 
0.0 -1.962000000000e+01 0.0 
0.0 -1.962000000000e+01 0.0 
0.0 -1.962000000000e+01 0.0 
0.0 -1.962000000000e+01 0.0 
0.0 -1.962000000000e+01 0.0 
0.0 -1.962000000000e+01 0.0 
0.0 -1.962000000000e+01 0.0 
0.0 -1.962000000000e+01 0.0 
0.0 -1.962000000000e+01 0.0 
0.0 -1.962000000000e+01 0.0 
0.0 -1.962000000000e+01 0.0 
0.0 -1.962000000000e+01 0.0 
0.0 -1.962000000000e+01 0.0 
0.0 -1.962000000000e+01 0.0 
0.0 -1.962000000000e+01 0.0 
0.0 -1.962000000000e+01 0.0 
0.0 -1.962000000000e+01 0.0 
0.0 -1.962000000000e+01 0.0 
0.0 -1.962000000000e+01 0.0 
0.0 -1.962000000000e+01 0.0 
0.0 -1.962000000000e+01 0.0 
0.0 -1.962000000000e+01 0.0 
0.0 -1.962000000000e+01 0.0 
0.0 -1.962000000000e+01 0.0 
0.0 -1.962000000000e+01 0.0 
0.0 -1.962000000000e+01 0.0 
0.0 -1.962000000000e+01 0.0 
0.0 -1.962000000000e+01 0.0 
0.0 -1.962000000000e+01 0.0 
0.0 -1.962000000000e+01 0.0 
0.0 -1.962000000000e+01 0.0 
0.0 -1.962000000000e+01 0.0 
0.0 -1.962000000000e+01 0.0 
0.0 -1.962000000000e+01 0.0 
0.0 -1.962000000000e+01 0.0 
0.0 -1.962000000000e+01 0.0 
0.0 -1.962000000000e+01 0.0 
0.0 -1.962000000000e+01 0.0 
0.0 -1.962000000000e+01 0.0 
0.0 -1.962000000000e+01 0.0 
0.0 -1.962000000000e+01 0.0 
0.0 -1.962000000000e+01 0.0 
0.0 -1.962000000000e+01 0.0 
0.0 -1.962000000000e+01 0.0 
0.0 -1.962000000000e+01 0.0 
0.0 -1.962000000000e+01 0.0 
0.0 -1.962000000000e+01 0.0 
0.0 -1.962000000000e+01 0.0 
0.0 -1.962000000000e+01 0.0 
0.0 -1.962000000000e+01 0.0 
0.0 -1.962000000000e+01 0.0 
0.0 -1.962000000000e+01 0.0 
0.0 -1.962000000000e+01 0.0 
0.0 -1.962000000000e+01 0.0 
0.0 -1.962000000000e+01 0.0 
0.0 -1.962000000000e+01 0.0 
0.0 -1.962000000000e+01 0.0 
0.0 -1.962000000000e+01 0.0 
0.0 -1.962000000000e+01 0.0 
0.0 -1.962000000000e+01 0.0 
0.0 -1.962000000000e+01 0.0 
0.0 -1.962000000000e+01 0.0 
0.0 -1.962000000000e+01 0.0 
0.0 -1.962000000000e+01 0.0 
0.0 -1.962000000000e+01 0.0 
0.0 -1.962000000000e+01 0.0 
0.0 -1.962000000000e+01 0.0 
0.0 -1.962000000000e+01 0.0 
0.0 -1.962000000000e+01 0.0 
0.0 -1.962000000000e+01 0.0 
0.0 -1.962000000000e+01 0.0 
0.0 -1.962000000000e+01 0.0 
0.0 -1.962000000000e+01 0.0 
0.0 -1.962000000000e+01 0.0 
0.0 -1.962000000000e+01 0.0 
0.0 -1.962000000000e+01 0.0 
0.0 -1.962000000000e+01 0.0 
0.0 -1.962000000000e+01 0.0 
0.0 -1.962000000000e+01 0.0 
0.0 -1.962000000000e+01 0.0 
0.0 -1.962000000000e+01 0.0 
0.0 -1.962000000000e+01 0.0 
0.0 -1.962000000000e+01 0.0 
0.0 -1.962000000000e+01 0.0 
0.0 -1.962000000000e+01 0.0 
0.0 -1.962000000000e+01 0.0 
0.0 -1.962000000000e+01 0.0 
0.0 -1.962000000000e+01 0.0 
0.0 -1.962000000000e+01 0.0 
0.0 -1.962000000000e+01 0.0 
0.0 -1.962000000000e+01 0.0 
0.0 -1.962000000000e+01 0.0 
0.0 -1.962000000000e+01 0.0 
0.0 -1.962000000000e+01 0.0 
0.0 -1.962000000000e+01 0.0 
0.0 -1.962000000000e+01 0.0 
0.0 -1.962000000000e+01 0.0 
0.0 -1.962000000000e+01 0.0 
0.0 -1.962000000000e+01 0.0 
0.0 -1.962000000000e+01 0.0 
0.0 -1.962000000000e+01 0.0 
0.0 -1.962000000000e+01 0.0 
0.0 -1.962000000000e+01 0.0 
0.0 -1.962000000000e+01 0.0 
0.0 -1.962000000000e+01 0.0 
0.0 -1.962000000000e+01 0.0 
0.0 -1.962000000000e+01 0.0 
0.0 -1.962000000000e+01 0.0 
0.0 -1.962000000000e+01 0.0 
0.0 -1.962000000000e+01 0.0 
0.0 -1.962000000000e+01 0.0 
0.0 -1.962000000000e+01 0.0 
0.0 -1.962000000000e+01 0.0 
0.0 -1.962000000000e+01 0.0 
0.0 -1.962000000000e+01 0.0 
0.0 -1.962000000000e+01 0.0 
0.0 -1.962000000000e+01 0.0 
0.0 -1.962000000000e+01 0.0 
0.0 -1.962000000000e+01 0.0 
0.0 -1.962000000000e+01 0.0 
0.0 -1.962000000000e+01 0.0 
0.0 -1.962000000000e+01 0.0 
0.0 -1.962000000000e+01 0.0 
0.0 -1.962000000000e+01 0.0 
0.0 -1.962000000000e+01 0.0 
0.0 -1.962000000000e+01 0.0 
0.0 -1.962000000000e+01 0.0 
0.0 -1.962000000000e+01 0.0 
0.0 -1.962000000000e+01 0.0 
0.0 -1.962000000000e+01 0.0 
0.0 -1.962000000000e+01 0.0 
0.0 -1.962000000000e+01 0.0 
0.0 -1.962000000000e+01 0.0 
0.0 -1.962000000000e+01 0.0 
0.0 -1.962000000000e+01 0.0 
0.0 -1.962000000000e+01 0.0 
0.0 -1.962000000000e+01 0.0 
0.0 -1.962000000000e+01 0.0 
0.0 -1.962000000000e+01 0.0 
0.0 -1.962000000000e+01 0.0 
0.0 -1.962000000000e+01 0.0 
0.0 -1.962000000000e+01 0.0 
0.0 -1.962000000000e+01 0.0 
0.0 -1.962000000000e+01 0.0 
0.0 -1.962000000000e+01 0.0 
0.0 -1.962000000000e+01 0.0 
0.0 -1.962000000000e+01 0.0 
0.0 -1.962000000000e+01 0.0 
0.0 -1.962000000000e+01 0.0 
0.0 -1.962000000000e+01 0.0 
0.0 -1.962000000000e+01 0.0 
0.0 -1.962000000000e+01 0.0 
0.0 -1.962000000000e+01 0.0 
0.0 -1.962000000000e+01 0.0 
0.0 -1.962000000000e+01 0.0 
0.0 -1.962000000000e+01 0.0 
0.0 -1.962000000000e+01 0.0 
0.0 -1.962000000000e+01 0.0 
0.0 -1.962000000000e+01 0.0 
0.0 -1.962000000000e+01 0.0 
0.0 -1.962000000000e+01 0.0 
0.0 -1.962000000000e+01 0.0 
0.0 -1.962000000000e+01 0.0 
0.0 -1.962000000000e+01 0.0 
0.0 -1.962000000000e+01 0.0 
0.0 -1.962000000000e+01 0.0 
0.0 -1.962000000000e+01 0.0 
0.0 -1.962000000000e+01 0.0 
0.0 -1.962000000000e+01 0.0 
0.0 -1.962000000000e+01 0.0 
0.0 -1.962000000000e+01 0.0 
0.0 -1.962000000000e+01 0.0 
0.0 -1.962000000000e+01 0.0 
0.0 -1.962000000000e+01 0.0 
0.0 -1.962000000000e+01 0.0 
0.0 -1.962000000000e+01 0.0 
0.0 -1.962000000000e+01 0.0 
0.0 -1.962000000000e+01 0.0 
0.0 -1.962000000000e+01 0.0 
0.0 -1.962000000000e+01 0.0 
0.0 -1.962000000000e+01 0.0 
0.0 -1.962000000000e+01 0.0 
0.0 -1.962000000000e+01 0.0 
0.0 -1.962000000000e+01 0.0 
0.0 -1.962000000000e+01 0.0 
0.0 -1.962000000000e+01 0.0 
0.0 -1.962000000000e+01 0.0 
0.0 -1.962000000000e+01 0.0 
0.0 -1.962000000000e+01 0.0 
0.0 -1.962000000000e+01 0.0 
0.0 -1.962000000000e+01 0.0 
0.0 -1.962000000000e+01 0.0 
0.0 -1.962000000000e+01 0.0 
0.0 -1.962000000000e+01 0.0 
0.0 -1.962000000000e+01 0.0 
0.0 -1.962000000000e+01 0.0 
0.0 -1.962000000000e+01 0.0 
0.0 -1.962000000000e+01 0.0 
0.0 -1.962000000000e+01 0.0 
0.0 -1.962000000000e+01 0.0 
0.0 -1.962000000000e+01 0.0 
0.0 -1.962000000000e+01 0.0 
0.0 -1.962000000000e+01 0.0 
0.0 -1.962000000000e+01 0.0 
0.0 -1.962000000000e+01 0.0 
0.0 -1.962000000000e+01 0.0 
0.0 -1.962000000000e+01 0.0 
0.0 -1.962000000000e+01 0.0 
0.0 -1.962000000000e+01 0.0 
0.0 -1.962000000000e+01 0.0 
0.0 -1.962000000000e+01 0.0 
0.0 -1.962000000000e+01 0.0 
0.0 -1.962000000000e+01 0.0 
0.0 -1.962000000000e+01 0.0 
0.0 -1.962000000000e+01 0.0 
0.0 -1.962000000000e+01 0.0 
0.0 -1.962000000000e+01 0.0 
0.0 -1.962000000000e+01 0.0 
0.0 -1.962000000000e+01 0.0 
0.0 -1.962000000000e+01 0.0 
0.0 -1.962000000000e+01 0.0 
0.0 -1.962000000000e+01 0.0 
0.0 -1.962000000000e+01 0.0 
0.0 -1.962000000000e+01 0.0 
0.0 -1.962000000000e+01 0.0 
0.0 -1.962000000000e+01 0.0 
0.0 -1.962000000000e+01 0.0 
0.0 -1.962000000000e+01 0.0 
0.0 -1.962000000000e+01 0.0 
0.0 -1.962000000000e+01 0.0 
0.0 -1.962000000000e+01 0.0 
0.0 -1.962000000000e+01 0.0 
0.0 -1.962000000000e+01 0.0 
0.0 -1.962000000000e+01 0.0 
0.0 -1.962000000000e+01 0.0 
0.0 -1.962000000000e+01 0.0 
0.0 -1.962000000000e+01 0.0 
0.0 -1.962000000000e+01 0.0 
0.0 -1.962000000000e+01 0.0 
0.0 -1.962000000000e+01 0.0 
0.0 -1.962000000000e+01 0.0 
0.0 -1.962000000000e+01 0.0 
0.0 -1.962000000000e+01 0.0 
0.0 -1.962000000000e+01 0.0 
0.0 -1.962000000000e+01 0.0 
0.0 -1.962000000000e+01 0.0 
0.0 -1.962000000000e+01 0.0 
0.0 -1.962000000000e+01 0.0 
0.0 -1.962000000000e+01 0.0 
0.0 -1.962000000000e+01 0.0 
0.0 -1.962000000000e+01 0.0 
0.0 -1.962000000000e+01 0.0 
0.0 -1.962000000000e+01 0.0 
0.0 -1.962000000000e+01 0.0 
0.0 -1.962000000000e+01 0.0 
0.0 -1.962000000000e+01 0.0 
0.0 -1.962000000000e+01 0.0 
0.0 -1.962000000000e+01 0.0 
0.0 -1.962000000000e+01 0.0 
0.0 -1.962000000000e+01 0.0 
0.0 -1.962000000000e+01 0.0 
0.0 -1.962000000000e+01 0.0 
0.0 -1.962000000000e+01 0.0 
0.0 -1.962000000000e+01 0.0 
0.0 -1.962000000000e+01 0.0 
0.0 -1.962000000000e+01 0.0 
0.0 -1.962000000000e+01 0.0 
0.0 -1.962000000000e+01 0.0 
0.0 -1.962000000000e+01 0.0 
0.0 -1.962000000000e+01 0.0 
0.0 -1.962000000000e+01 0.0 
0.0 -1.962000000000e+01 0.0 
0.0 -1.962000000000e+01 0.0 
0.0 -1.962000000000e+01 0.0 
0.0 -1.962000000000e+01 0.0 
0.0 -1.962000000000e+01 0.0 
0.0 -1.962000000000e+01 0.0 
0.0 -1.962000000000e+01 0.0 
0.0 -1.962000000000e+01 0.0 
0.0 -1.962000000000e+01 0.0 
0.0 -1.962000000000e+01 0.0 
0.0 -1.962000000000e+01 0.0 
0.0 -1.962000000000e+01 0.0 
0.0 -1.962000000000e+01 0.0 
0.0 -1.962000000000e+01 0.0 
0.0 -1.962000000000e+01 0.0 
0.0 -1.962000000000e+01 0.0 
0.0 -1.962000000000e+01 0.0 
0.0 -1.962000000000e+01 0.0 
0.0 -1.962000000000e+01 0.0 
0.0 -1.962000000000e+01 0.0 
0.0 -1.962000000000e+01 0.0 
0.0 -1.962000000000e+01 0.0 
0.0 -1.962000000000e+01 0.0 
0.0 -1.962000000000e+01 0.0 
0.0 -1.962000000000e+01 0.0 
0.0 -1.962000000000e+01 0.0 
0.0 -1.962000000000e+01 0.0 
0.0 -1.962000000000e+01 0.0 
0.0 -1.962000000000e+01 0.0 
0.0 -1.962000000000e+01 0.0 
0.0 -1.962000000000e+01 0.0 
0.0 -1.962000000000e+01 0.0 
0.0 -1.962000000000e+01 0.0 
0.0 -1.962000000000e+01 0.0 
0.0 -1.962000000000e+01 0.0 
0.0 -1.962000000000e+01 0.0 
0.0 -1.962000000000e+01 0.0 
0.0 -1.962000000000e+01 0.0 
0.0 -1.962000000000e+01 0.0 
0.0 -1.962000000000e+01 0.0 
0.0 -1.962000000000e+01 0.0 
0.0 -1.962000000000e+01 0.0 
0.0 -1.962000000000e+01 0.0 
0.0 -1.962000000000e+01 0.0 
0.0 -1.962000000000e+01 0.0 
0.0 -1.962000000000e+01 0.0 
0.0 -1.962000000000e+01 0.0 
0.0 -1.962000000000e+01 0.0 
0.0 -1.962000000000e+01 0.0 
0.0 -1.962000000000e+01 0.0 
0.0 -1.962000000000e+01 0.0 
0.0 -1.962000000000e+01 0.0 
0.0 -1.962000000000e+01 0.0 
0.0 -1.962000000000e+01 0.0 
0.0 -1.962000000000e+01 0.0 
0.0 -1.962000000000e+01 0.0 
0.0 -1.962000000000e+01 0.0 
0.0 -1.962000000000e+01 0.0 
0.0 -1.962000000000e+01 0.0 
0.0 -1.962000000000e+01 0.0 
0.0 -1.962000000000e+01 0.0 
0.0 -1.962000000000e+01 0.0 
0.0 -1.962000000000e+01 0.0 
0.0 -1.962000000000e+01 0.0 
0.0 -1.962000000000e+01 0.0 
0.0 -1.962000000000e+01 0.0 
0.0 -1.962000000000e+01 0.0 
0.0 -1.962000000000e+01 0.0 
0.0 -1.962000000000e+01 0.0 
0.0 -1.962000000000e+01 0.0 
0.0 -1.962000000000e+01 0.0 
0.0 -1.962000000000e+01 0.0 
0.0 -1.962000000000e+01 0.0 
0.0 -1.962000000000e+01 0.0 
0.0 -1.962000000000e+01 0.0 
0.0 -1.962000000000e+01 0.0 
0.0 -1.962000000000e+01 0.0 
0.0 -1.962000000000e+01 0.0 
0.0 -1.962000000000e+01 0.0 
0.0 -1.962000000000e+01 0.0 
0.0 -1.962000000000e+01 0.0 
0.0 -1.962000000000e+01 0.0 
0.0 -1.962000000000e+01 0.0 
0.0 -1.962000000000e+01 0.0 
0.0 -1.962000000000e+01 0.0 
0.0 -1.962000000000e+01 0.0 
0.0 -1.962000000000e+01 0.0 
0.0 -1.962000000000e+01 0.0 
0.0 -1.962000000000e+01 0.0 
0.0 -1.962000000000e+01 0.0 
0.0 -1.962000000000e+01 0.0 
0.0 -1.962000000000e+01 0.0 
0.0 -1.962000000000e+01 0.0 
0.0 -1.962000000000e+01 0.0 
0.0 -1.962000000000e+01 0.0 
0.0 -1.962000000000e+01 0.0 
0.0 -1.962000000000e+01 0.0 
0.0 -1.962000000000e+01 0.0 
0.0 -1.962000000000e+01 0.0 
0.0 -1.962000000000e+01 0.0 
0.0 -1.962000000000e+01 0.0 
0.0 -1.962000000000e+01 0.0 
0.0 -1.962000000000e+01 0.0 
0.0 -1.962000000000e+01 0.0 
0.0 -1.962000000000e+01 0.0 
0.0 -1.962000000000e+01 0.0 
0.0 -1.962000000000e+01 0.0 
0.0 -1.962000000000e+01 0.0 
0.0 -1.962000000000e+01 0.0 
0.0 -1.962000000000e+01 0.0 
0.0 -1.962000000000e+01 0.0 
0.0 -1.962000000000e+01 0.0 
0.0 -1.962000000000e+01 0.0 
0.0 -1.962000000000e+01 0.0 
0.0 -1.962000000000e+01 0.0 
0.0 -1.962000000000e+01 0.0 
0.0 -1.962000000000e+01 0.0 
0.0 -1.962000000000e+01 0.0 
0.0 -1.962000000000e+01 0.0 
0.0 -1.962000000000e+01 0.0 
0.0 -1.962000000000e+01 0.0 
0.0 -1.962000000000e+01 0.0 
0.0 -1.962000000000e+01 0.0 
0.0 -1.962000000000e+01 0.0 
0.0 -1.962000000000e+01 0.0 
0.0 -1.962000000000e+01 0.0 
0.0 -1.962000000000e+01 0.0 
0.0 -1.962000000000e+01 0.0 
0.0 -1.962000000000e+01 0.0 
0.0 -1.962000000000e+01 0.0 
0.0 -1.962000000000e+01 0.0 
0.0 -1.962000000000e+01 0.0 
0.0 -1.962000000000e+01 0.0 
0.0 -1.962000000000e+01 0.0 
0.0 -1.962000000000e+01 0.0 
0.0 -1.962000000000e+01 0.0 
0.0 -1.962000000000e+01 0.0 
0.0 -1.962000000000e+01 0.0 
0.0 -1.962000000000e+01 0.0 
0.0 -1.962000000000e+01 0.0 
0.0 -1.962000000000e+01 0.0 
0.0 -1.962000000000e+01 0.0 
0.0 -1.962000000000e+01 0.0 
0.0 -1.962000000000e+01 0.0 
0.0 -1.962000000000e+01 0.0 
0.0 -1.962000000000e+01 0.0 
0.0 -1.962000000000e+01 0.0 
0.0 -1.962000000000e+01 0.0 
0.0 -1.962000000000e+01 0.0 
0.0 -1.962000000000e+01 0.0 
0.0 -1.962000000000e+01 0.0 
0.0 -1.962000000000e+01 0.0 
0.0 -1.962000000000e+01 0.0 
0.0 -1.962000000000e+01 0.0 
0.0 -1.962000000000e+01 0.0 
0.0 -1.962000000000e+01 0.0 
0.0 -1.962000000000e+01 0.0 
0.0 -1.962000000000e+01 0.0 
0.0 -1.962000000000e+01 0.0 
0.0 -1.962000000000e+01 0.0 
0.0 -1.962000000000e+01 0.0 
0.0 -1.962000000000e+01 0.0 
0.0 -1.962000000000e+01 0.0 
0.0 -1.962000000000e+01 0.0 
0.0 -1.962000000000e+01 0.0 
0.0 -1.962000000000e+01 0.0 
0.0 -1.962000000000e+01 0.0 
0.0 -1.962000000000e+01 0.0 
0.0 -1.962000000000e+01 0.0 
0.0 -1.962000000000e+01 0.0 
0.0 -1.962000000000e+01 0.0 
0.0 -1.962000000000e+01 0.0 
0.0 -1.962000000000e+01 0.0 
0.0 -1.962000000000e+01 0.0 
0.0 -1.962000000000e+01 0.0 
0.0 -1.962000000000e+01 0.0 
0.0 -1.962000000000e+01 0.0 
0.0 -1.962000000000e+01 0.0 
0.0 -1.962000000000e+01 0.0 
0.0 -1.962000000000e+01 0.0 
0.0 -1.962000000000e+01 0.0 
0.0 -1.962000000000e+01 0.0 
0.0 -1.962000000000e+01 0.0 
0.0 -1.962000000000e+01 0.0 
0.0 -1.962000000000e+01 0.0 
0.0 -1.962000000000e+01 0.0 
0.0 -1.962000000000e+01 0.0 
0.0 -1.962000000000e+01 0.0 
0.0 -1.962000000000e+01 0.0 
0.0 -1.962000000000e+01 0.0 
0.0 -1.962000000000e+01 0.0 
0.0 -1.962000000000e+01 0.0 
0.0 -1.962000000000e+01 0.0 
0.0 -1.962000000000e+01 0.0 
0.0 -1.962000000000e+01 0.0 
0.0 -1.962000000000e+01 0.0 
0.0 -1.962000000000e+01 0.0 
0.0 -1.962000000000e+01 0.0 
0.0 -1.962000000000e+01 0.0 
0.0 -1.962000000000e+01 0.0 
0.0 -1.962000000000e+01 0.0 
0.0 -1.962000000000e+01 0.0 
0.0 -1.962000000000e+01 0.0 
0.0 -1.962000000000e+01 0.0 
0.0 -1.962000000000e+01 0.0 
0.0 -1.962000000000e+01 0.0 
0.0 -1.962000000000e+01 0.0 
0.0 -1.962000000000e+01 0.0 
0.0 -1.962000000000e+01 0.0 
0.0 -1.962000000000e+01 0.0 
0.0 -1.962000000000e+01 0.0 
0.0 -1.962000000000e+01 0.0 
0.0 -1.962000000000e+01 0.0 
0.0 -1.962000000000e+01 0.0 
0.0 -1.962000000000e+01 0.0 
0.0 -1.962000000000e+01 0.0 
0.0 -1.962000000000e+01 0.0 
0.0 -1.962000000000e+01 0.0 
0.0 -1.962000000000e+01 0.0 
0.0 -1.962000000000e+01 0.0 
0.0 -1.962000000000e+01 0.0 
0.0 -1.962000000000e+01 0.0 
0.0 -1.962000000000e+01 0.0 
0.0 -1.962000000000e+01 0.0 
0.0 -1.962000000000e+01 0.0 
0.0 -1.962000000000e+01 0.0 
0.0 -1.962000000000e+01 0.0 
0.0 -1.962000000000e+01 0.0 
0.0 -1.962000000000e+01 0.0 
0.0 -1.962000000000e+01 0.0 
0.0 -1.962000000000e+01 0.0 
0.0 -1.962000000000e+01 0.0 
0.0 -1.962000000000e+01 0.0 
0.0 -1.962000000000e+01 0.0 
0.0 -1.962000000000e+01 0.0 
0.0 -1.962000000000e+01 0.0 
0.0 -1.962000000000e+01 0.0 
0.0 -1.962000000000e+01 0.0 
0.0 -1.962000000000e+01 0.0 
0.0 -1.962000000000e+01 0.0 
0.0 -1.962000000000e+01 0.0 
0.0 -1.962000000000e+01 0.0 
0.0 -1.962000000000e+01 0.0 
0.0 -1.962000000000e+01 0.0 
0.0 -1.962000000000e+01 0.0 
0.0 -1.962000000000e+01 0.0 
0.0 -1.962000000000e+01 0.0 
0.0 -1.962000000000e+01 0.0 
0.0 -1.962000000000e+01 0.0 
0.0 -1.962000000000e+01 0.0 
0.0 -1.962000000000e+01 0.0 
0.0 -1.962000000000e+01 0.0 
0.0 -1.962000000000e+01 0.0 
0.0 -1.962000000000e+01 0.0 
0.0 -1.962000000000e+01 0.0 
0.0 -1.962000000000e+01 0.0 
0.0 -1.962000000000e+01 0.0 
0.0 -1.962000000000e+01 0.0 
0.0 -1.962000000000e+01 0.0 
0.0 -1.962000000000e+01 0.0 
0.0 -1.962000000000e+01 0.0 
0.0 -1.962000000000e+01 0.0 
0.0 -1.962000000000e+01 0.0 
0.0 -1.962000000000e+01 0.0 
0.0 -1.962000000000e+01 0.0 
0.0 -1.962000000000e+01 0.0 
0.0 -1.962000000000e+01 0.0 
0.0 -1.962000000000e+01 0.0 
0.0 -1.962000000000e+01 0.0 
0.0 -1.962000000000e+01 0.0 
0.0 -1.962000000000e+01 0.0 
0.0 -1.962000000000e+01 0.0 
0.0 -1.962000000000e+01 0.0 
0.0 -1.962000000000e+01 0.0 
0.0 -1.962000000000e+01 0.0 
0.0 -1.962000000000e+01 0.0 
0.0 -1.962000000000e+01 0.0 
0.0 -1.962000000000e+01 0.0 
0.0 -1.962000000000e+01 0.0 
0.0 -1.962000000000e+01 0.0 
0.0 -1.962000000000e+01 0.0 
0.0 -1.962000000000e+01 0.0 
0.0 -1.962000000000e+01 0.0 
0.0 -1.962000000000e+01 0.0 
0.0 -1.962000000000e+01 0.0 
0.0 -1.962000000000e+01 0.0 
0.0 -1.962000000000e+01 0.0 
0.0 -1.962000000000e+01 0.0 
0.0 -1.962000000000e+01 0.0 
0.0 -1.962000000000e+01 0.0 
0.0 -1.962000000000e+01 0.0 
0.0 -1.962000000000e+01 0.0 
0.0 -1.962000000000e+01 0.0 
0.0 -1.962000000000e+01 0.0 
0.0 -1.962000000000e+01 0.0 
0.0 -1.962000000000e+01 0.0 
0.0 -1.962000000000e+01 0.0 
0.0 -1.962000000000e+01 0.0 
0.0 -1.962000000000e+01 0.0 
0.0 -1.962000000000e+01 0.0 
0.0 -1.962000000000e+01 0.0 
0.0 -1.962000000000e+01 0.0 
0.0 -1.962000000000e+01 0.0 
0.0 -1.962000000000e+01 0.0 
0.0 -1.962000000000e+01 0.0 
0.0 -1.962000000000e+01 0.0 
0.0 -1.962000000000e+01 0.0 
0.0 -1.962000000000e+01 0.0 
0.0 -1.962000000000e+01 0.0 
0.0 -1.962000000000e+01 0.0 
0.0 -1.962000000000e+01 0.0 
0.0 -1.962000000000e+01 0.0 
0.0 -1.962000000000e+01 0.0 
0.0 -1.962000000000e+01 0.0 
0.0 -1.962000000000e+01 0.0 
0.0 -1.962000000000e+01 0.0 
0.0 -1.962000000000e+01 0.0 
0.0 -1.962000000000e+01 0.0 
0.0 -1.962000000000e+01 0.0 
0.0 -1.962000000000e+01 0.0 
0.0 -1.962000000000e+01 0.0 
0.0 -1.962000000000e+01 0.0 
0.0 -1.962000000000e+01 0.0 
0.0 -1.962000000000e+01 0.0 
0.0 -1.962000000000e+01 0.0 
0.0 -1.962000000000e+01 0.0 
0.0 -1.962000000000e+01 0.0 
0.0 -1.962000000000e+01 0.0 
0.0 -1.962000000000e+01 0.0 
0.0 -1.962000000000e+01 0.0 
0.0 -1.962000000000e+01 0.0 
0.0 -1.962000000000e+01 0.0 
0.0 -1.962000000000e+01 0.0 
0.0 -1.962000000000e+01 0.0 
0.0 -1.962000000000e+01 0.0 
0.0 -1.962000000000e+01 0.0 
0.0 -1.962000000000e+01 0.0 
0.0 -1.962000000000e+01 0.0 
0.0 -1.962000000000e+01 0.0 
0.0 -1.962000000000e+01 0.0 
0.0 -1.962000000000e+01 0.0 
0.0 -1.962000000000e+01 0.0 
0.0 -1.962000000000e+01 0.0 
0.0 -1.962000000000e+01 0.0 
0.0 -1.962000000000e+01 0.0 
0.0 -1.962000000000e+01 0.0 
0.0 -1.962000000000e+01 0.0 
0.0 -1.962000000000e+01 0.0 
0.0 -1.962000000000e+01 0.0 
0.0 -1.962000000000e+01 0.0 
0.0 -1.962000000000e+01 0.0 
0.0 -1.962000000000e+01 0.0 
0.0 -1.962000000000e+01 0.0 

VECTORS node_rhside_materi_fixed float
-1.605414934145e+00 0.0 0.0 
4.897690059409e+01 0.0 0.0 
-8.167127869772e+01 -1.953130544966e+02 0.0 
6.198775106280e+01 -1.486486985180e+02 0.0 
-7.390037776006e+00 0.0 0.0 
-1.536156283993e+01 0.0 0.0 
-2.182610854899e+01 0.0 0.0 
-3.004706234790e+01 0.0 0.0 
-3.717922979112e+01 0.0 0.0 
-4.462474544825e+01 0.0 0.0 
-5.211839729595e+01 0.0 0.0 
-5.966391731964e+01 0.0 0.0 
-6.732082422268e+01 0.0 0.0 
-7.505030414084e+01 0.0 0.0 
-8.340852210168e+01 0.0 0.0 
-9.184845962481e+01 0.0 0.0 
-9.997925405569e+01 0.0 0.0 
-1.089619656231e+02 0.0 0.0 
-1.179818001549e+02 0.0 0.0 
-1.272504878711e+02 0.0 0.0 
-1.367719308122e+02 0.0 0.0 
-1.465108283354e+02 0.0 0.0 
-1.568082164085e+02 0.0 0.0 
3.861167330793e-01 -2.961959706521e+02 0.0 
5.981535507966e-01 -2.973797454100e+02 0.0 
2.477922793835e+00 -2.966232437956e+02 0.0 
1.362886537406e+00 -2.968230081266e+02 0.0 
3.013391155877e+00 -2.976206406987e+02 0.0 
3.486963770227e+00 -2.971711973564e+02 0.0 
3.907461152504e+00 -2.979488591065e+02 0.0 
4.699154252002e+00 -2.986908263661e+02 0.0 
6.348993266786e+00 -2.984898682515e+02 0.0 
5.615979522301e+00 -2.992443315171e+02 0.0 
7.619826997574e+00 -3.007863220542e+02 0.0 
8.537075220848e+00 -3.009454555500e+02 0.0 
9.349353877895e+00 -3.027661761269e+02 0.0 
1.033143450389e+01 -3.038195414807e+02 0.0 
1.163710621642e+01 -3.053874174666e+02 0.0 
1.243647219766e+01 -3.077373273224e+02 0.0 
1.443654934904e+01 -3.098562444271e+02 0.0 
1.547578494643e+01 -3.125294712524e+02 0.0 
1.669486187748e+01 -3.153532279295e+02 0.0 
1.773414365828e+01 -3.182185326471e+02 0.0 
1.826060419580e+01 -3.217112131766e+02 0.0 
1.956278245227e+01 -3.258071487729e+02 0.0 
2.009755191679e+01 -3.295548184746e+02 0.0 
2.070863070521e+01 -3.336495415379e+02 0.0 
2.106691739624e+01 -3.381533264280e+02 0.0 
2.108603848791e+01 -3.422608743674e+02 0.0 
2.094289027772e+01 -3.463651412529e+02 0.0 
2.055226800439e+01 -3.507163116192e+02 0.0 
2.011073397729e+01 -3.549827504721e+02 0.0 
1.962025326552e+01 -3.586900570954e+02 0.0 
1.830437966588e+01 -3.620870248008e+02 0.0 
1.761184034874e+01 -3.662249858721e+02 0.0 
1.665393112720e+01 -3.689894882543e+02 0.0 
1.562485371319e+01 -3.721008510483e+02 0.0 
1.437233451433e+01 -3.747092611202e+02 0.0 
1.332934180993e+01 -3.770378642517e+02 0.0 
1.214595140956e+01 -3.792915035286e+02 0.0 
1.095828134597e+01 -3.811409554666e+02 0.0 
9.906687796605e+00 -3.827867350874e+02 0.0 
8.870916525236e+00 -3.845727269439e+02 0.0 
7.882658960136e+00 -3.856084258690e+02 0.0 
6.839420768273e+00 -3.865827946890e+02 0.0 
5.846889357347e+00 -3.872941130249e+02 0.0 
5.060707027576e+00 -3.888097561494e+02 0.0 
3.938008284255e+00 -3.886337886183e+02 0.0 
3.129686308998e+00 -3.897607568830e+02 0.0 
2.596146236419e+00 -3.896266122448e+02 0.0 
1.576635583296e+00 -3.900706020261e+02 0.0 
7.309687533246e-01 -3.901064103723e+02 0.0 
5.693672960865e+01 0.0 0.0 
6.553799644536e+01 0.0 0.0 
7.360864536979e+01 0.0 0.0 
8.143397542354e+01 0.0 0.0 
8.925147094024e+01 0.0 0.0 
9.729249553371e+01 0.0 0.0 
1.047726577597e+02 0.0 0.0 
1.118084044492e+02 0.0 0.0 
1.200368102472e+02 0.0 0.0 
0.0 0.0 0.0 
0.0 0.0 0.0 
0.0 0.0 0.0 
0.0 0.0 0.0 
0.0 0.0 0.0 
0.0 0.0 0.0 
0.0 0.0 0.0 
0.0 0.0 0.0 
0.0 0.0 0.0 
0.0 0.0 0.0 
0.0 0.0 0.0 
5.051851525150e+00 0.0 0.0 
1.594225914462e+01 0.0 0.0 
2.403948030442e+01 0.0 0.0 
3.238889944725e+01 0.0 0.0 
4.077607869900e+01 0.0 0.0 
0.0 0.0 0.0 
0.0 0.0 0.0 
0.0 0.0 0.0 
0.0 0.0 0.0 
0.0 0.0 0.0 
0.0 0.0 0.0 
0.0 0.0 0.0 
0.0 0.0 0.0 
0.0 0.0 0.0 
0.0 0.0 0.0 
0.0 0.0 0.0 
0.0 0.0 0.0 
0.0 0.0 0.0 
0.0 0.0 0.0 
0.0 0.0 0.0 
0.0 0.0 0.0 
0.0 0.0 0.0 
0.0 0.0 0.0 
0.0 0.0 0.0 
0.0 0.0 0.0 
0.0 0.0 0.0 
0.0 0.0 0.0 
0.0 0.0 0.0 
0.0 0.0 0.0 
0.0 0.0 0.0 
0.0 0.0 0.0 
0.0 0.0 0.0 
0.0 0.0 0.0 
0.0 0.0 0.0 
0.0 0.0 0.0 
0.0 0.0 0.0 
0.0 0.0 0.0 
0.0 0.0 0.0 
0.0 0.0 0.0 
0.0 0.0 0.0 
0.0 0.0 0.0 
0.0 0.0 0.0 
0.0 0.0 0.0 
0.0 0.0 0.0 
0.0 0.0 0.0 
0.0 0.0 0.0 
0.0 0.0 0.0 
0.0 0.0 0.0 
0.0 0.0 0.0 
0.0 0.0 0.0 
0.0 0.0 0.0 
0.0 0.0 0.0 
0.0 0.0 0.0 
0.0 0.0 0.0 
0.0 0.0 0.0 
0.0 0.0 0.0 
0.0 0.0 0.0 
0.0 0.0 0.0 
0.0 0.0 0.0 
0.0 0.0 0.0 
0.0 0.0 0.0 
0.0 0.0 0.0 
0.0 0.0 0.0 
0.0 0.0 0.0 
0.0 0.0 0.0 
0.0 0.0 0.0 
0.0 0.0 0.0 
0.0 0.0 0.0 
0.0 0.0 0.0 
0.0 0.0 0.0 
0.0 0.0 0.0 
0.0 0.0 0.0 
0.0 0.0 0.0 
0.0 0.0 0.0 
0.0 0.0 0.0 
0.0 0.0 0.0 
0.0 0.0 0.0 
0.0 0.0 0.0 
0.0 0.0 0.0 
0.0 0.0 0.0 
0.0 0.0 0.0 
0.0 0.0 0.0 
0.0 0.0 0.0 
0.0 0.0 0.0 
0.0 0.0 0.0 
0.0 0.0 0.0 
0.0 0.0 0.0 
0.0 0.0 0.0 
0.0 0.0 0.0 
0.0 0.0 0.0 
0.0 0.0 0.0 
0.0 0.0 0.0 
0.0 0.0 0.0 
0.0 0.0 0.0 
0.0 0.0 0.0 
0.0 0.0 0.0 
0.0 0.0 0.0 
0.0 0.0 0.0 
0.0 0.0 0.0 
0.0 0.0 0.0 
0.0 0.0 0.0 
0.0 0.0 0.0 
0.0 0.0 0.0 
0.0 0.0 0.0 
0.0 0.0 0.0 
0.0 0.0 0.0 
0.0 0.0 0.0 
0.0 0.0 0.0 
0.0 0.0 0.0 
0.0 0.0 0.0 
0.0 0.0 0.0 
0.0 0.0 0.0 
0.0 0.0 0.0 
0.0 0.0 0.0 
0.0 0.0 0.0 
0.0 0.0 0.0 
0.0 0.0 0.0 
0.0 0.0 0.0 
0.0 0.0 0.0 
0.0 0.0 0.0 
0.0 0.0 0.0 
0.0 0.0 0.0 
0.0 0.0 0.0 
0.0 0.0 0.0 
0.0 0.0 0.0 
0.0 0.0 0.0 
0.0 0.0 0.0 
0.0 0.0 0.0 
0.0 0.0 0.0 
0.0 0.0 0.0 
0.0 0.0 0.0 
0.0 0.0 0.0 
0.0 0.0 0.0 
0.0 0.0 0.0 
0.0 0.0 0.0 
0.0 0.0 0.0 
0.0 0.0 0.0 
0.0 0.0 0.0 
0.0 0.0 0.0 
0.0 0.0 0.0 
0.0 0.0 0.0 
0.0 0.0 0.0 
0.0 0.0 0.0 
0.0 0.0 0.0 
0.0 0.0 0.0 
0.0 0.0 0.0 
0.0 0.0 0.0 
0.0 0.0 0.0 
0.0 0.0 0.0 
0.0 0.0 0.0 
0.0 0.0 0.0 
0.0 0.0 0.0 
0.0 0.0 0.0 
0.0 0.0 0.0 
0.0 0.0 0.0 
0.0 0.0 0.0 
0.0 0.0 0.0 
0.0 0.0 0.0 
0.0 0.0 0.0 
0.0 0.0 0.0 
0.0 0.0 0.0 
0.0 0.0 0.0 
0.0 0.0 0.0 
0.0 0.0 0.0 
0.0 0.0 0.0 
0.0 0.0 0.0 
0.0 0.0 0.0 
0.0 0.0 0.0 
0.0 0.0 0.0 
0.0 0.0 0.0 
0.0 0.0 0.0 
0.0 0.0 0.0 
0.0 0.0 0.0 
0.0 0.0 0.0 
0.0 0.0 0.0 
0.0 0.0 0.0 
0.0 0.0 0.0 
0.0 0.0 0.0 
0.0 0.0 0.0 
0.0 0.0 0.0 
0.0 0.0 0.0 
0.0 0.0 0.0 
0.0 0.0 0.0 
0.0 0.0 0.0 
0.0 0.0 0.0 
0.0 0.0 0.0 
0.0 0.0 0.0 
0.0 0.0 0.0 
0.0 0.0 0.0 
0.0 0.0 0.0 
0.0 0.0 0.0 
0.0 0.0 0.0 
0.0 0.0 0.0 
0.0 0.0 0.0 
0.0 0.0 0.0 
0.0 0.0 0.0 
0.0 0.0 0.0 
0.0 0.0 0.0 
0.0 0.0 0.0 
0.0 0.0 0.0 
0.0 0.0 0.0 
0.0 0.0 0.0 
0.0 0.0 0.0 
0.0 0.0 0.0 
0.0 0.0 0.0 
0.0 0.0 0.0 
0.0 0.0 0.0 
0.0 0.0 0.0 
0.0 0.0 0.0 
0.0 0.0 0.0 
0.0 0.0 0.0 
0.0 0.0 0.0 
0.0 0.0 0.0 
0.0 0.0 0.0 
0.0 0.0 0.0 
0.0 0.0 0.0 
0.0 0.0 0.0 
0.0 0.0 0.0 
0.0 0.0 0.0 
0.0 0.0 0.0 
0.0 0.0 0.0 
0.0 0.0 0.0 
0.0 0.0 0.0 
0.0 0.0 0.0 
0.0 0.0 0.0 
0.0 0.0 0.0 
0.0 0.0 0.0 
0.0 0.0 0.0 
0.0 0.0 0.0 
0.0 0.0 0.0 
0.0 0.0 0.0 
0.0 0.0 0.0 
0.0 0.0 0.0 
0.0 0.0 0.0 
0.0 0.0 0.0 
0.0 0.0 0.0 
0.0 0.0 0.0 
0.0 0.0 0.0 
0.0 0.0 0.0 
0.0 0.0 0.0 
0.0 0.0 0.0 
0.0 0.0 0.0 
0.0 0.0 0.0 
0.0 0.0 0.0 
0.0 0.0 0.0 
0.0 0.0 0.0 
0.0 0.0 0.0 
0.0 0.0 0.0 
0.0 0.0 0.0 
0.0 0.0 0.0 
0.0 0.0 0.0 
0.0 0.0 0.0 
0.0 0.0 0.0 
0.0 0.0 0.0 
0.0 0.0 0.0 
0.0 0.0 0.0 
0.0 0.0 0.0 
0.0 0.0 0.0 
0.0 0.0 0.0 
0.0 0.0 0.0 
0.0 0.0 0.0 
0.0 0.0 0.0 
0.0 0.0 0.0 
0.0 0.0 0.0 
0.0 0.0 0.0 
0.0 0.0 0.0 
0.0 0.0 0.0 
0.0 0.0 0.0 
0.0 0.0 0.0 
0.0 0.0 0.0 
0.0 0.0 0.0 
0.0 0.0 0.0 
0.0 0.0 0.0 
0.0 0.0 0.0 
0.0 0.0 0.0 
0.0 0.0 0.0 
0.0 0.0 0.0 
0.0 0.0 0.0 
0.0 0.0 0.0 
0.0 0.0 0.0 
0.0 0.0 0.0 
0.0 0.0 0.0 
0.0 0.0 0.0 
0.0 0.0 0.0 
0.0 0.0 0.0 
0.0 0.0 0.0 
0.0 0.0 0.0 
0.0 0.0 0.0 
0.0 0.0 0.0 
0.0 0.0 0.0 
0.0 0.0 0.0 
0.0 0.0 0.0 
0.0 0.0 0.0 
0.0 0.0 0.0 
0.0 0.0 0.0 
0.0 0.0 0.0 
0.0 0.0 0.0 
0.0 0.0 0.0 
0.0 0.0 0.0 
0.0 0.0 0.0 
0.0 0.0 0.0 
0.0 0.0 0.0 
0.0 0.0 0.0 
0.0 0.0 0.0 
0.0 0.0 0.0 
0.0 0.0 0.0 
0.0 0.0 0.0 
0.0 0.0 0.0 
0.0 0.0 0.0 
0.0 0.0 0.0 
0.0 0.0 0.0 
0.0 0.0 0.0 
0.0 0.0 0.0 
0.0 0.0 0.0 
0.0 0.0 0.0 
0.0 0.0 0.0 
0.0 0.0 0.0 
0.0 0.0 0.0 
0.0 0.0 0.0 
0.0 0.0 0.0 
0.0 0.0 0.0 
0.0 0.0 0.0 
0.0 0.0 0.0 
0.0 0.0 0.0 
0.0 0.0 0.0 
0.0 0.0 0.0 
0.0 0.0 0.0 
0.0 0.0 0.0 
0.0 0.0 0.0 
0.0 0.0 0.0 
0.0 0.0 0.0 
0.0 0.0 0.0 
0.0 0.0 0.0 
0.0 0.0 0.0 
0.0 0.0 0.0 
0.0 0.0 0.0 
0.0 0.0 0.0 
0.0 0.0 0.0 
0.0 0.0 0.0 
0.0 0.0 0.0 
0.0 0.0 0.0 
0.0 0.0 0.0 
0.0 0.0 0.0 
0.0 0.0 0.0 
0.0 0.0 0.0 
0.0 0.0 0.0 
0.0 0.0 0.0 
0.0 0.0 0.0 
0.0 0.0 0.0 
0.0 0.0 0.0 
0.0 0.0 0.0 
0.0 0.0 0.0 
0.0 0.0 0.0 
0.0 0.0 0.0 
0.0 0.0 0.0 
0.0 0.0 0.0 
0.0 0.0 0.0 
0.0 0.0 0.0 
0.0 0.0 0.0 
0.0 0.0 0.0 
0.0 0.0 0.0 
0.0 0.0 0.0 
0.0 0.0 0.0 
0.0 0.0 0.0 
0.0 0.0 0.0 
0.0 0.0 0.0 
0.0 0.0 0.0 
0.0 0.0 0.0 
0.0 0.0 0.0 
0.0 0.0 0.0 
0.0 0.0 0.0 
0.0 0.0 0.0 
0.0 0.0 0.0 
0.0 0.0 0.0 
0.0 0.0 0.0 
0.0 0.0 0.0 
0.0 0.0 0.0 
0.0 0.0 0.0 
0.0 0.0 0.0 
0.0 0.0 0.0 
0.0 0.0 0.0 
0.0 0.0 0.0 
0.0 0.0 0.0 
0.0 0.0 0.0 
0.0 0.0 0.0 
0.0 0.0 0.0 
0.0 0.0 0.0 
0.0 0.0 0.0 
0.0 0.0 0.0 
0.0 0.0 0.0 
0.0 0.0 0.0 
0.0 0.0 0.0 
0.0 0.0 0.0 
0.0 0.0 0.0 
0.0 0.0 0.0 
0.0 0.0 0.0 
0.0 0.0 0.0 
0.0 0.0 0.0 
0.0 0.0 0.0 
0.0 0.0 0.0 
0.0 0.0 0.0 
0.0 0.0 0.0 
0.0 0.0 0.0 
0.0 0.0 0.0 
0.0 0.0 0.0 
0.0 0.0 0.0 
0.0 0.0 0.0 
0.0 0.0 0.0 
0.0 0.0 0.0 
0.0 0.0 0.0 
0.0 0.0 0.0 
0.0 0.0 0.0 
0.0 0.0 0.0 
0.0 0.0 0.0 
0.0 0.0 0.0 
0.0 0.0 0.0 
0.0 0.0 0.0 
0.0 0.0 0.0 
0.0 0.0 0.0 
0.0 0.0 0.0 
0.0 0.0 0.0 
0.0 0.0 0.0 
0.0 0.0 0.0 
0.0 0.0 0.0 
0.0 0.0 0.0 
0.0 0.0 0.0 
0.0 0.0 0.0 
0.0 0.0 0.0 
0.0 0.0 0.0 
0.0 0.0 0.0 
0.0 0.0 0.0 
0.0 0.0 0.0 
0.0 0.0 0.0 
0.0 0.0 0.0 
0.0 0.0 0.0 
0.0 0.0 0.0 
0.0 0.0 0.0 
0.0 0.0 0.0 
0.0 0.0 0.0 
0.0 0.0 0.0 
0.0 0.0 0.0 
0.0 0.0 0.0 
0.0 0.0 0.0 
0.0 0.0 0.0 
0.0 0.0 0.0 
0.0 0.0 0.0 
0.0 0.0 0.0 
0.0 0.0 0.0 
0.0 0.0 0.0 
0.0 0.0 0.0 
0.0 0.0 0.0 
0.0 0.0 0.0 
0.0 0.0 0.0 
0.0 0.0 0.0 
0.0 0.0 0.0 
0.0 0.0 0.0 
0.0 0.0 0.0 
0.0 0.0 0.0 
0.0 0.0 0.0 
0.0 0.0 0.0 
0.0 0.0 0.0 
0.0 0.0 0.0 
0.0 0.0 0.0 
0.0 0.0 0.0 
0.0 0.0 0.0 
0.0 0.0 0.0 
0.0 0.0 0.0 
0.0 0.0 0.0 
0.0 0.0 0.0 
0.0 0.0 0.0 
0.0 0.0 0.0 
0.0 0.0 0.0 
0.0 0.0 0.0 
0.0 0.0 0.0 
0.0 0.0 0.0 
0.0 0.0 0.0 
0.0 0.0 0.0 
0.0 0.0 0.0 
0.0 0.0 0.0 
0.0 0.0 0.0 
0.0 0.0 0.0 
0.0 0.0 0.0 
0.0 0.0 0.0 
0.0 0.0 0.0 
0.0 0.0 0.0 
0.0 0.0 0.0 
0.0 0.0 0.0 
0.0 0.0 0.0 
0.0 0.0 0.0 
0.0 0.0 0.0 
0.0 0.0 0.0 
0.0 0.0 0.0 
0.0 0.0 0.0 
0.0 0.0 0.0 
0.0 0.0 0.0 
0.0 0.0 0.0 
0.0 0.0 0.0 
0.0 0.0 0.0 
0.0 0.0 0.0 
0.0 0.0 0.0 
0.0 0.0 0.0 
0.0 0.0 0.0 
0.0 0.0 0.0 
0.0 0.0 0.0 
0.0 0.0 0.0 
0.0 0.0 0.0 
0.0 0.0 0.0 
0.0 0.0 0.0 
0.0 0.0 0.0 
0.0 0.0 0.0 
0.0 0.0 0.0 
0.0 0.0 0.0 
0.0 0.0 0.0 
0.0 0.0 0.0 
0.0 0.0 0.0 
0.0 0.0 0.0 
0.0 0.0 0.0 
0.0 0.0 0.0 
0.0 0.0 0.0 
0.0 0.0 0.0 
0.0 0.0 0.0 
0.0 0.0 0.0 
0.0 0.0 0.0 
0.0 0.0 0.0 
0.0 0.0 0.0 
0.0 0.0 0.0 
0.0 0.0 0.0 
0.0 0.0 0.0 
0.0 0.0 0.0 
0.0 0.0 0.0 
0.0 0.0 0.0 
0.0 0.0 0.0 
0.0 0.0 0.0 
0.0 0.0 0.0 
0.0 0.0 0.0 
0.0 0.0 0.0 
0.0 0.0 0.0 
0.0 0.0 0.0 
0.0 0.0 0.0 
0.0 0.0 0.0 
0.0 0.0 0.0 
0.0 0.0 0.0 
0.0 0.0 0.0 
0.0 0.0 0.0 
0.0 0.0 0.0 
0.0 0.0 0.0 
0.0 0.0 0.0 
0.0 0.0 0.0 
0.0 0.0 0.0 
0.0 0.0 0.0 
0.0 0.0 0.0 
0.0 0.0 0.0 
0.0 0.0 0.0 
0.0 0.0 0.0 
0.0 0.0 0.0 
0.0 0.0 0.0 
0.0 0.0 0.0 
0.0 0.0 0.0 
0.0 0.0 0.0 
0.0 0.0 0.0 
0.0 0.0 0.0 
0.0 0.0 0.0 
0.0 0.0 0.0 
0.0 0.0 0.0 
0.0 0.0 0.0 
0.0 0.0 0.0 
0.0 0.0 0.0 
0.0 0.0 0.0 
0.0 0.0 0.0 
0.0 0.0 0.0 
0.0 0.0 0.0 
0.0 0.0 0.0 
0.0 0.0 0.0 
0.0 0.0 0.0 
0.0 0.0 0.0 
0.0 0.0 0.0 
0.0 0.0 0.0 
0.0 0.0 0.0 
0.0 0.0 0.0 
0.0 0.0 0.0 
0.0 0.0 0.0 
0.0 0.0 0.0 
0.0 0.0 0.0 
0.0 0.0 0.0 
0.0 0.0 0.0 
0.0 0.0 0.0 
0.0 0.0 0.0 
0.0 0.0 0.0 
0.0 0.0 0.0 
0.0 0.0 0.0 
0.0 0.0 0.0 
0.0 0.0 0.0 
0.0 0.0 0.0 
0.0 0.0 0.0 
0.0 0.0 0.0 
0.0 0.0 0.0 
0.0 0.0 0.0 
0.0 0.0 0.0 
0.0 0.0 0.0 
0.0 0.0 0.0 
0.0 0.0 0.0 
0.0 0.0 0.0 
0.0 0.0 0.0 
0.0 0.0 0.0 
0.0 0.0 0.0 
0.0 0.0 0.0 
0.0 0.0 0.0 
0.0 0.0 0.0 
0.0 0.0 0.0 
0.0 0.0 0.0 
0.0 0.0 0.0 
0.0 0.0 0.0 
0.0 0.0 0.0 
0.0 0.0 0.0 
0.0 0.0 0.0 
0.0 0.0 0.0 
0.0 0.0 0.0 
0.0 0.0 0.0 
0.0 0.0 0.0 
0.0 0.0 0.0 
0.0 0.0 0.0 
0.0 0.0 0.0 
0.0 0.0 0.0 
0.0 0.0 0.0 
0.0 0.0 0.0 
0.0 0.0 0.0 
0.0 0.0 0.0 
0.0 0.0 0.0 
0.0 0.0 0.0 
0.0 0.0 0.0 
0.0 0.0 0.0 
0.0 0.0 0.0 
0.0 0.0 0.0 
0.0 0.0 0.0 
0.0 0.0 0.0 
0.0 0.0 0.0 
0.0 0.0 0.0 
0.0 0.0 0.0 
0.0 0.0 0.0 
0.0 0.0 0.0 
0.0 0.0 0.0 
0.0 0.0 0.0 
0.0 0.0 0.0 
0.0 0.0 0.0 
0.0 0.0 0.0 
0.0 0.0 0.0 
0.0 0.0 0.0 
0.0 0.0 0.0 
0.0 0.0 0.0 
0.0 0.0 0.0 
0.0 0.0 0.0 
0.0 0.0 0.0 
0.0 0.0 0.0 
0.0 0.0 0.0 
0.0 0.0 0.0 
0.0 0.0 0.0 
0.0 0.0 0.0 
0.0 0.0 0.0 
0.0 0.0 0.0 
0.0 0.0 0.0 
0.0 0.0 0.0 
0.0 0.0 0.0 
0.0 0.0 0.0 
0.0 0.0 0.0 
0.0 0.0 0.0 
0.0 0.0 0.0 
0.0 0.0 0.0 
0.0 0.0 0.0 
0.0 0.0 0.0 
0.0 0.0 0.0 
0.0 0.0 0.0 
0.0 0.0 0.0 
0.0 0.0 0.0 
0.0 0.0 0.0 
0.0 0.0 0.0 
0.0 0.0 0.0 
0.0 0.0 0.0 
0.0 0.0 0.0 
0.0 0.0 0.0 
0.0 0.0 0.0 
0.0 0.0 0.0 
0.0 0.0 0.0 
0.0 0.0 0.0 
0.0 0.0 0.0 
0.0 0.0 0.0 
0.0 0.0 0.0 
0.0 0.0 0.0 
0.0 0.0 0.0 
0.0 0.0 0.0 
0.0 0.0 0.0 
0.0 0.0 0.0 
0.0 0.0 0.0 
0.0 0.0 0.0 
0.0 0.0 0.0 
0.0 0.0 0.0 
0.0 0.0 0.0 
0.0 0.0 0.0 
0.0 0.0 0.0 
0.0 0.0 0.0 
0.0 0.0 0.0 
0.0 0.0 0.0 
0.0 0.0 0.0 
0.0 0.0 0.0 
0.0 0.0 0.0 
0.0 0.0 0.0 
0.0 0.0 0.0 
0.0 0.0 0.0 
0.0 0.0 0.0 
0.0 0.0 0.0 
0.0 0.0 0.0 
0.0 0.0 0.0 
0.0 0.0 0.0 
0.0 0.0 0.0 
0.0 0.0 0.0 
0.0 0.0 0.0 
0.0 0.0 0.0 
0.0 0.0 0.0 
0.0 0.0 0.0 
0.0 0.0 0.0 
0.0 0.0 0.0 
0.0 0.0 0.0 
0.0 0.0 0.0 
0.0 0.0 0.0 
0.0 0.0 0.0 
0.0 0.0 0.0 
0.0 0.0 0.0 
0.0 0.0 0.0 
0.0 0.0 0.0 
0.0 0.0 0.0 
0.0 0.0 0.0 
0.0 0.0 0.0 
0.0 0.0 0.0 
0.0 0.0 0.0 
0.0 0.0 0.0 
0.0 0.0 0.0 
0.0 0.0 0.0 
0.0 0.0 0.0 
0.0 0.0 0.0 
0.0 0.0 0.0 
0.0 0.0 0.0 
0.0 0.0 0.0 
0.0 0.0 0.0 
0.0 0.0 0.0 
0.0 0.0 0.0 
0.0 0.0 0.0 
0.0 0.0 0.0 
0.0 0.0 0.0 
0.0 0.0 0.0 
0.0 0.0 0.0 
0.0 0.0 0.0 
0.0 0.0 0.0 
0.0 0.0 0.0 
0.0 0.0 0.0 
0.0 0.0 0.0 
0.0 0.0 0.0 
0.0 0.0 0.0 
0.0 0.0 0.0 
0.0 0.0 0.0 
0.0 0.0 0.0 
0.0 0.0 0.0 
0.0 0.0 0.0 
0.0 0.0 0.0 
0.0 0.0 0.0 
0.0 0.0 0.0 
0.0 0.0 0.0 
0.0 0.0 0.0 
0.0 0.0 0.0 
0.0 0.0 0.0 
0.0 0.0 0.0 
0.0 0.0 0.0 
0.0 0.0 0.0 
0.0 0.0 0.0 
0.0 0.0 0.0 
0.0 0.0 0.0 
0.0 0.0 0.0 
0.0 0.0 0.0 
0.0 0.0 0.0 
0.0 0.0 0.0 
0.0 0.0 0.0 
0.0 0.0 0.0 
0.0 0.0 0.0 
0.0 0.0 0.0 
0.0 0.0 0.0 
0.0 0.0 0.0 
0.0 0.0 0.0 
0.0 0.0 0.0 
0.0 0.0 0.0 
0.0 0.0 0.0 
0.0 0.0 0.0 
0.0 0.0 0.0 
0.0 0.0 0.0 
0.0 0.0 0.0 
0.0 0.0 0.0 
0.0 0.0 0.0 
0.0 0.0 0.0 
0.0 0.0 0.0 
0.0 0.0 0.0 
0.0 0.0 0.0 
0.0 0.0 0.0 
0.0 0.0 0.0 
0.0 0.0 0.0 
0.0 0.0 0.0 
0.0 0.0 0.0 
0.0 0.0 0.0 
0.0 0.0 0.0 
0.0 0.0 0.0 
0.0 0.0 0.0 
0.0 0.0 0.0 
0.0 0.0 0.0 
0.0 0.0 0.0 
0.0 0.0 0.0 
0.0 0.0 0.0 
0.0 0.0 0.0 
0.0 0.0 0.0 
0.0 0.0 0.0 
0.0 0.0 0.0 
0.0 0.0 0.0 
0.0 0.0 0.0 
0.0 0.0 0.0 
0.0 0.0 0.0 
0.0 0.0 0.0 
0.0 0.0 0.0 
0.0 0.0 0.0 
0.0 0.0 0.0 
0.0 0.0 0.0 
0.0 0.0 0.0 
0.0 0.0 0.0 
0.0 0.0 0.0 
0.0 0.0 0.0 
0.0 0.0 0.0 
0.0 0.0 0.0 
0.0 0.0 0.0 
0.0 0.0 0.0 
0.0 0.0 0.0 
0.0 0.0 0.0 
0.0 0.0 0.0 
0.0 0.0 0.0 
0.0 0.0 0.0 
0.0 0.0 0.0 
0.0 0.0 0.0 
0.0 0.0 0.0 
0.0 0.0 0.0 
0.0 0.0 0.0 
0.0 0.0 0.0 
0.0 0.0 0.0 
0.0 0.0 0.0 
0.0 0.0 0.0 
0.0 0.0 0.0 
0.0 0.0 0.0 
0.0 0.0 0.0 
0.0 0.0 0.0 
0.0 0.0 0.0 
0.0 0.0 0.0 
0.0 0.0 0.0 
0.0 0.0 0.0 
0.0 0.0 0.0 
0.0 0.0 0.0 
0.0 0.0 0.0 
0.0 0.0 0.0 
0.0 0.0 0.0 
0.0 0.0 0.0 
0.0 0.0 0.0 
0.0 0.0 0.0 
0.0 0.0 0.0 
0.0 0.0 0.0 
0.0 0.0 0.0 
0.0 0.0 0.0 
0.0 0.0 0.0 
0.0 0.0 0.0 
0.0 0.0 0.0 
0.0 0.0 0.0 
0.0 0.0 0.0 
0.0 0.0 0.0 
0.0 0.0 0.0 
0.0 0.0 0.0 
0.0 0.0 0.0 
0.0 0.0 0.0 
0.0 0.0 0.0 
0.0 0.0 0.0 
0.0 0.0 0.0 
0.0 0.0 0.0 
0.0 0.0 0.0 
0.0 0.0 0.0 
0.0 0.0 0.0 
0.0 0.0 0.0 
0.0 0.0 0.0 
0.0 0.0 0.0 
0.0 0.0 0.0 
0.0 0.0 0.0 
0.0 0.0 0.0 
0.0 0.0 0.0 
0.0 0.0 0.0 
0.0 0.0 0.0 
0.0 0.0 0.0 
0.0 0.0 0.0 
0.0 0.0 0.0 
0.0 0.0 0.0 
0.0 0.0 0.0 
0.0 0.0 0.0 
0.0 0.0 0.0 
0.0 0.0 0.0 
0.0 0.0 0.0 
0.0 0.0 0.0 
0.0 0.0 0.0 
0.0 0.0 0.0 
0.0 0.0 0.0 
0.0 0.0 0.0 
0.0 0.0 0.0 
0.0 0.0 0.0 
0.0 0.0 0.0 
0.0 0.0 0.0 
0.0 0.0 0.0 
0.0 0.0 0.0 
0.0 0.0 0.0 
0.0 0.0 0.0 
0.0 0.0 0.0 
0.0 0.0 0.0 
0.0 0.0 0.0 
0.0 0.0 0.0 
0.0 0.0 0.0 
0.0 0.0 0.0 
0.0 0.0 0.0 
0.0 0.0 0.0 
0.0 0.0 0.0 
0.0 0.0 0.0 
0.0 0.0 0.0 
0.0 0.0 0.0 
0.0 0.0 0.0 
0.0 0.0 0.0 
0.0 0.0 0.0 
0.0 0.0 0.0 
0.0 0.0 0.0 
0.0 0.0 0.0 
0.0 0.0 0.0 
0.0 0.0 0.0 
0.0 0.0 0.0 
0.0 0.0 0.0 
0.0 0.0 0.0 
0.0 0.0 0.0 
0.0 0.0 0.0 
0.0 0.0 0.0 
0.0 0.0 0.0 
0.0 0.0 0.0 
0.0 0.0 0.0 
0.0 0.0 0.0 
0.0 0.0 0.0 
0.0 0.0 0.0 
0.0 0.0 0.0 
0.0 0.0 0.0 
0.0 0.0 0.0 
0.0 0.0 0.0 
0.0 0.0 0.0 
0.0 0.0 0.0 
0.0 0.0 0.0 
0.0 0.0 0.0 
0.0 0.0 0.0 
0.0 0.0 0.0 
0.0 0.0 0.0 
0.0 0.0 0.0 
0.0 0.0 0.0 
0.0 0.0 0.0 
0.0 0.0 0.0 
0.0 0.0 0.0 
0.0 0.0 0.0 
0.0 0.0 0.0 
0.0 0.0 0.0 
0.0 0.0 0.0 
0.0 0.0 0.0 
0.0 0.0 0.0 
0.0 0.0 0.0 
0.0 0.0 0.0 
0.0 0.0 0.0 
0.0 0.0 0.0 
0.0 0.0 0.0 
0.0 0.0 0.0 
0.0 0.0 0.0 
0.0 0.0 0.0 
0.0 0.0 0.0 
0.0 0.0 0.0 
0.0 0.0 0.0 
0.0 0.0 0.0 
0.0 0.0 0.0 
0.0 0.0 0.0 
0.0 0.0 0.0 
0.0 0.0 0.0 
0.0 0.0 0.0 
0.0 0.0 0.0 
0.0 0.0 0.0 
0.0 0.0 0.0 
0.0 0.0 0.0 
0.0 0.0 0.0 
0.0 0.0 0.0 
0.0 0.0 0.0 
0.0 0.0 0.0 
0.0 0.0 0.0 
0.0 0.0 0.0 
0.0 0.0 0.0 
0.0 0.0 0.0 
0.0 0.0 0.0 
0.0 0.0 0.0 
0.0 0.0 0.0 
0.0 0.0 0.0 
0.0 0.0 0.0 
0.0 0.0 0.0 
0.0 0.0 0.0 
0.0 0.0 0.0 
0.0 0.0 0.0 
0.0 0.0 0.0 
0.0 0.0 0.0 
0.0 0.0 0.0 
0.0 0.0 0.0 
0.0 0.0 0.0 
0.0 0.0 0.0 
0.0 0.0 0.0 
0.0 0.0 0.0 
0.0 0.0 0.0 
0.0 0.0 0.0 
0.0 0.0 0.0 
0.0 0.0 0.0 
0.0 0.0 0.0 
0.0 0.0 0.0 
0.0 0.0 0.0 
0.0 0.0 0.0 
0.0 0.0 0.0 
0.0 0.0 0.0 
0.0 0.0 0.0 
0.0 0.0 0.0 
0.0 0.0 0.0 
0.0 0.0 0.0 
0.0 0.0 0.0 
0.0 0.0 0.0 
0.0 0.0 0.0 
0.0 0.0 0.0 
0.0 0.0 0.0 
0.0 0.0 0.0 
0.0 0.0 0.0 
0.0 0.0 0.0 
0.0 0.0 0.0 
0.0 0.0 0.0 
0.0 0.0 0.0 
0.0 0.0 0.0 
0.0 0.0 0.0 
0.0 0.0 0.0 
0.0 0.0 0.0 
0.0 0.0 0.0 

VECTORS node_materi_velocity float
0.0 -8.386890071511e-05 0.0 
0.0 1.485487385702e-03 0.0 
0.0 0.0 0.0 
0.0 0.0 0.0 
0.0 -8.331956409773e-05 0.0 
0.0 -8.243347583314e-05 0.0 
0.0 -8.103743906469e-05 0.0 
0.0 -7.900033496581e-05 0.0 
0.0 -7.611280454671e-05 0.0 
0.0 -7.241318201086e-05 0.0 
0.0 -6.791542211678e-05 0.0 
0.0 -6.264024036092e-05 0.0 
0.0 -5.669150025734e-05 0.0 
0.0 -5.018741293435e-05 0.0 
0.0 -4.329378922152e-05 0.0 
0.0 -3.624551623508e-05 0.0 
0.0 -2.924230617986e-05 0.0 
0.0 -2.242029216628e-05 0.0 
0.0 -1.610862521129e-05 0.0 
0.0 -1.053359599212e-05 0.0 
0.0 -5.904160246489e-06 0.0 
0.0 -2.504654547893e-06 0.0 
0.0 -5.889445178924e-07 0.0 
0.0 0.0 0.0 
0.0 0.0 0.0 
0.0 0.0 0.0 
0.0 0.0 0.0 
0.0 0.0 0.0 
0.0 0.0 0.0 
0.0 0.0 0.0 
0.0 0.0 0.0 
0.0 0.0 0.0 
0.0 0.0 0.0 
0.0 0.0 0.0 
0.0 0.0 0.0 
0.0 0.0 0.0 
0.0 0.0 0.0 
0.0 0.0 0.0 
0.0 0.0 0.0 
0.0 0.0 0.0 
0.0 0.0 0.0 
0.0 0.0 0.0 
0.0 0.0 0.0 
0.0 0.0 0.0 
0.0 0.0 0.0 
0.0 0.0 0.0 
0.0 0.0 0.0 
0.0 0.0 0.0 
0.0 0.0 0.0 
0.0 0.0 0.0 
0.0 0.0 0.0 
0.0 0.0 0.0 
0.0 0.0 0.0 
0.0 0.0 0.0 
0.0 0.0 0.0 
0.0 0.0 0.0 
0.0 0.0 0.0 
0.0 0.0 0.0 
0.0 0.0 0.0 
0.0 0.0 0.0 
0.0 0.0 0.0 
0.0 0.0 0.0 
0.0 0.0 0.0 
0.0 0.0 0.0 
0.0 0.0 0.0 
0.0 0.0 0.0 
0.0 0.0 0.0 
0.0 0.0 0.0 
0.0 0.0 0.0 
0.0 0.0 0.0 
0.0 0.0 0.0 
0.0 0.0 0.0 
0.0 1.333581905769e-03 0.0 
0.0 1.181796304235e-03 0.0 
0.0 1.030364372194e-03 0.0 
0.0 8.794464162132e-04 0.0 
0.0 7.293656664323e-04 0.0 
0.0 5.803308937220e-04 0.0 
0.0 4.326308391045e-04 0.0 
0.0 2.865355128238e-04 0.0 
0.0 1.423192931843e-04 0.0 
-1.579071888675e-04 1.826822833785e-04 0.0 
2.733000413208e-04 1.413936959943e-03 0.0 
-1.414159338421e-04 2.581924062188e-04 0.0 
-1.346114076505e-04 3.658523014722e-04 0.0 
-1.221823230674e-04 5.278263566550e-04 0.0 
-6.635907707992e-05 7.947516018275e-04 0.0 
1.624636292903e-05 1.287132033636e-03 0.0 
1.649428123952e-04 1.526263641914e-03 0.0 
2.462545379708e-04 1.589631656408e-03 0.0 
2.808744108501e-04 1.574292323431e-03 0.0 
2.864967844603e-04 1.510154518755e-03 0.0 
0.0 2.249295654730e-03 0.0 
0.0 2.093515033719e-03 0.0 
0.0 1.941125772313e-03 0.0 
0.0 1.789313460317e-03 0.0 
0.0 1.637412643660e-03 0.0 
1.569685982182e-05 1.485734484067e-03 0.0 
3.155895767039e-05 1.486486226206e-03 0.0 
4.757962391344e-05 1.487529083279e-03 0.0 
6.377959079925e-05 1.488711887251e-03 0.0 
8.018194160591e-05 1.489784084336e-03 0.0 
9.676178281934e-05 1.490570496468e-03 0.0 
1.136758059125e-04 1.490935970363e-03 0.0 
1.309057485954e-04 1.490427728112e-03 0.0 
1.486506739586e-04 1.488826224695e-03 0.0 
1.670110545323e-04 1.485557693568e-03 0.0 
1.860614597778e-04 1.479879649419e-03 0.0 
2.060291999011e-04 1.470998405952e-03 0.0 
2.270691681976e-04 1.457957826312e-03 0.0 
2.493718735464e-04 1.439398027843e-03 0.0 
-1.458439080103e-04 1.363804686752e-04 0.0 
-1.291081409120e-04 9.350976422838e-05 0.0 
-1.108274276683e-04 5.671364627475e-05 0.0 
-9.224907579048e-05 2.595690486328e-05 0.0 
-7.527262255731e-05 6.397371484647e-07 0.0 
-5.992684598612e-05 -1.981473942637e-05 0.0 
-4.632893461298e-05 -3.607745111914e-05 0.0 
-3.461555629869e-05 -4.890700976759e-05 0.0 
-2.472598597572e-05 -5.880860123266e-05 0.0 
-1.662104434848e-05 -6.627686479522e-05 0.0 
-1.020313111802e-05 -7.195008977970e-05 0.0 
-5.220900235757e-06 -7.592220702294e-05 0.0 
-1.703785921854e-06 -7.879930413055e-05 0.0 
7.534819255386e-07 -8.077658479204e-05 0.0 
2.181932734726e-06 -8.214228204523e-05 0.0 
2.747956108260e-06 -8.296695921929e-05 0.0 
2.619514968437e-06 -8.344921454533e-05 0.0 
1.995438355028e-06 -8.374966347809e-05 0.0 
1.083246888115e-06 -8.385186794304e-05 0.0 
-2.412237797397e-05 1.579828400291e-03 0.0 
1.107576112562e-05 1.748317085351e-03 0.0 
4.119457141838e-05 1.873945463740e-03 0.0 
7.128220282122e-05 1.967803008271e-03 0.0 
9.806928745346e-05 2.040548620200e-03 0.0 
1.197752189306e-04 2.095748683517e-03 0.0 
1.363027454661e-04 2.138280306666e-03 0.0 
1.477051901444e-04 2.170400849697e-03 0.0 
1.544332032792e-04 2.194681711345e-03 0.0 
1.570316812072e-04 2.212726274440e-03 0.0 
1.560775212588e-04 2.225944721502e-03 0.0 
1.520528276497e-04 2.235346869370e-03 0.0 
1.453848263749e-04 2.241812667788e-03 0.0 
1.364809865097e-04 2.246051645356e-03 0.0 
1.257162300382e-04 2.248625997477e-03 0.0 
1.134321588243e-04 2.249987912643e-03 0.0 
9.994073844843e-05 2.250493976474e-03 0.0 
8.558020856472e-05 2.250443290874e-03 0.0 
7.077924350791e-05 2.250061725931e-03 0.0 
5.616967274642e-05 2.249413357421e-03 0.0 
4.265464025625e-05 2.248056386617e-03 0.0 
2.501121496151e-05 2.248420294921e-03 0.0 
1.881265789821e-05 2.094507202197e-03 0.0 
3.638511607458e-05 2.096133806962e-03 0.0 
5.276981609919e-05 2.097243473433e-03 0.0 
6.849645114681e-05 2.098013137504e-03 0.0 
8.368781076019e-05 2.098611902961e-03 0.0 
9.825689532198e-05 2.098941306818e-03 0.0 
1.120327929817e-04 2.098763336838e-03 0.0 
1.248125489920e-04 2.097759111809e-03 0.0 
1.363806705703e-04 2.095535309281e-03 0.0 
1.465127091809e-04 2.091592850586e-03 0.0 
1.549833673174e-04 2.085302198363e-03 0.0 
1.615724739422e-04 2.075869721719e-03 0.0 
1.660745680899e-04 2.062324287333e-03 0.0 
1.683462462144e-04 2.043446315363e-03 0.0 
1.683374035985e-04 2.017635891736e-03 0.0 
1.662242503784e-04 1.982766796589e-03 0.0 
1.624390066394e-04 1.936111848238e-03 0.0 
1.580785935166e-04 1.873886784091e-03 0.0 
1.549308222865e-04 1.791473826074e-03 0.0 
1.545862334574e-04 1.680928127198e-03 0.0 
2.307353660628e-04 1.685320997939e-03 0.0 
2.199688176473e-04 1.756650363006e-03 0.0 
2.106033142579e-04 1.810370450390e-03 0.0 
2.025194383640e-04 1.850805282137e-03 0.0 
1.947317255728e-04 1.880820138143e-03 0.0 
1.867043963130e-04 1.902902990685e-03 0.0 
1.780482210985e-04 1.918847535504e-03 0.0 
1.685822061685e-04 1.930104507632e-03 0.0 
1.582305667618e-04 1.937764339772e-03 0.0 
1.469927686810e-04 1.942697900557e-03 0.0 
1.349088161867e-04 1.945608000454e-03 0.0 
1.220493484789e-04 1.947057755210e-03 0.0 
1.085045552147e-04 1.947493401120e-03 0.0 
9.436115158177e-05 1.947259787889e-03 0.0 
7.969284502812e-05 1.946617810295e-03 0.0 
6.453822183851e-05 1.945731383250e-03 0.0 
4.889621791003e-05 1.944633462569e-03 0.0 
3.279502104347e-05 1.943259200011e-03 0.0 
1.638936029245e-05 1.941948448513e-03 0.0 
1.615843121446e-05 1.789730324295e-03 0.0 
3.252575629698e-05 1.790950552476e-03 0.0 
4.881195341443e-05 1.792312098045e-03 0.0 
6.488209234491e-05 1.793573253802e-03 0.0 
8.068994469192e-05 1.794655490161e-03 0.0 
9.623290204649e-05 1.795463310666e-03 0.0 
1.114954118136e-04 1.795814341498e-03 0.0 
1.264837135573e-04 1.795408884183e-03 0.0 
1.411858777818e-04 1.793871698534e-03 0.0 
1.556091104194e-04 1.790676522761e-03 0.0 
1.698055498100e-04 1.785158921636e-03 0.0 
1.838684791282e-04 1.776501829935e-03 0.0 
1.979564995253e-04 1.763668198811e-03 0.0 
2.123251019611e-04 1.745364624836e-03 0.0 
2.272837810347e-04 1.719771679909e-03 0.0 
2.433892901872e-04 1.684909298512e-03 0.0 
2.606856124715e-04 1.637807085196e-03 0.0 
2.643480787749e-04 1.550157982627e-03 0.0 
2.443070099901e-04 1.579643398142e-03 0.0 
2.251138990756e-04 1.601248082397e-03 0.0 
2.070622691409e-04 1.616880369284e-03 0.0 
1.898154952173e-04 1.627796442846e-03 0.0 
1.731525950480e-04 1.635108248834e-03 0.0 
1.568912112252e-04 1.639694600463e-03 0.0 
1.408867207223e-04 1.642246802556e-03 0.0 
1.250556465024e-04 1.643378911868e-03 0.0 
1.093480724100e-04 1.643556263673e-03 0.0 
9.367767828354e-05 1.643037245646e-03 0.0 
7.802362653551e-05 1.642148165641e-03 0.0 
6.234895567928e-05 1.641012010835e-03 0.0 
4.665610473375e-05 1.639773621282e-03 0.0 
3.101301409684e-05 1.638607322144e-03 0.0 
1.548945310988e-05 1.637753303875e-03 0.0 
-1.470298571056e-04 2.175710468892e-04 0.0 
-1.377732403593e-04 3.069014832864e-04 0.0 
-1.300648517164e-04 4.381287002708e-04 0.0 
-1.054265260088e-04 6.418380705956e-04 0.0 
-3.550423832677e-05 1.048559779842e-03 0.0 
1.051658547203e-04 1.437118695636e-03 0.0 
2.146363255905e-04 1.569970689075e-03 0.0 
2.686349718497e-04 1.589187181544e-03 0.0 
2.869655359926e-04 1.546844044216e-03 0.0 
2.819624517381e-04 1.465181056169e-03 0.0 
-1.014212083558e-04 3.052550540895e-04 0.0 
5.147435154443e-05 1.339929880823e-05 0.0 
-1.256253143429e-05 -6.538370099004e-05 0.0 
-6.214533933262e-05 7.977355147663e-06 0.0 
2.953353178191e-05 4.537439482407e-06 0.0 
-2.651229698234e-06 6.517879019133e-04 0.0 
8.524274140910e-06 -4.664894746193e-05 0.0 
7.256821622067e-05 2.746223406274e-05 0.0 
2.411680232718e-04 1.298077532475e-03 0.0 
8.639066105926e-05 4.759425641959e-05 0.0 
3.219648476296e-04 1.447363770601e-03 0.0 
1.538625494093e-05 1.380929453506e-06 0.0 
2.469553409880e-06 -8.071737960085e-05 0.0 
8.908160837131e-05 7.473056237026e-05 0.0 
3.011794984441e-04 1.325010312950e-03 0.0 
5.544619139721e-06 -7.015031695765e-05 0.0 
9.037957639830e-06 -2.709777199626e-05 0.0 
8.214123806685e-05 9.655148509433e-05 0.0 
5.651856691905e-05 1.086524296334e-04 0.0 
1.536359399157e-05 1.209690957354e-04 0.0 
2.897793156082e-05 1.295335728299e-04 0.0 
3.938691793752e-05 1.126915935808e-04 0.0 
2.460935051511e-04 1.313777099891e-03 0.0 
1.603031348119e-04 1.348969775902e-03 0.0 
1.052146812944e-04 1.348931694179e-03 0.0 
1.010152755381e-05 8.020061472604e-04 0.0 
9.066449837682e-06 2.714302384228e-07 0.0 
-1.060863878239e-04 1.110038694242e-04 0.0 
3.722008827691e-06 -8.308928315142e-05 0.0 
6.300600746165e-06 -8.382305124299e-06 0.0 
5.407208217626e-05 1.356690307701e-03 0.0 
3.097306195186e-06 -8.021918146100e-05 0.0 
7.801133893995e-05 1.179051943262e-04 0.0 
7.463235779987e-05 3.385801224154e-05 0.0 
8.883228397878e-05 6.010431906220e-05 0.0 
6.622608245462e-05 2.102838009971e-05 0.0 
3.977149241482e-05 8.440988413165e-06 0.0 
-3.712997144246e-05 -3.288333951182e-05 0.0 
2.008046548659e-04 1.346439461451e-03 0.0 
2.568434213117e-05 2.939071859764e-06 0.0 
7.692587953610e-06 5.126070687599e-04 0.0 
-2.801902627140e-06 -7.570815749346e-05 0.0 
7.417407415291e-06 -5.976628775232e-05 0.0 
7.693733645821e-06 9.840961252650e-05 0.0 
1.315509086824e-04 9.677496891497e-04 0.0 
-7.342828069484e-05 4.395332077158e-04 0.0 
2.990508310260e-04 1.425203598638e-03 0.0 
3.200672228547e-04 1.406336660415e-03 0.0 
-1.194877660169e-04 2.144500497955e-04 0.0 
1.223438767564e-05 1.087982718262e-03 0.0 
4.051048267597e-06 -7.586648625263e-08 0.0 
1.931838315295e-06 -8.343800817792e-05 0.0 
4.218643314671e-06 2.247891728335e-04 0.0 
2.911506759860e-04 1.268081572144e-03 0.0 
3.142812118316e-04 1.182877697235e-03 0.0 
2.904831077783e-04 1.143424943614e-03 0.0 
3.166943300943e-04 1.044824844919e-03 0.0 
2.930143142663e-04 9.896720143034e-04 0.0 
3.121115557709e-04 9.041268273510e-04 0.0 
3.388349274842e-04 9.517609619339e-04 0.0 
3.286916824189e-04 8.166647638042e-04 0.0 
3.575661372556e-04 8.581475369645e-04 0.0 
2.837533179886e-04 8.479290759589e-04 0.0 
3.412748456968e-04 7.285707781229e-04 0.0 
3.717579028950e-04 7.637833200951e-04 0.0 
3.490472817792e-04 6.413347061727e-04 0.0 
3.803546376361e-04 6.704161300579e-04 0.0 
3.993848036215e-04 7.888788023067e-04 0.0 
4.082561897450e-04 6.893112538551e-04 0.0 
4.231931205951e-04 8.019911458742e-04 0.0 
4.315964048354e-04 6.957587434538e-04 0.0 
4.103468076036e-04 5.938257286466e-04 0.0 
4.325759768169e-04 5.953024221162e-04 0.0 
4.492712988237e-04 6.887930340963e-04 0.0 
4.482947435500e-04 5.840475354203e-04 0.0 
4.598672647246e-04 6.674058557267e-04 0.0 
4.562625783661e-04 5.596809418677e-04 0.0 
4.619899165297e-04 6.311794475180e-04 0.0 
4.554875014585e-04 5.233536210109e-04 0.0 
4.456259169778e-04 4.639525308363e-04 0.0 
4.426617193515e-04 4.296518695710e-04 0.0 
4.452283215499e-04 4.770456635290e-04 0.0 
4.308303916823e-04 3.877192768609e-04 0.0 
4.253920786949e-04 4.235765187400e-04 0.0 
4.105485777289e-04 3.407925398037e-04 0.0 
4.124895318645e-04 3.125121455063e-04 0.0 
3.926909556371e-04 2.721387221669e-04 0.0 
3.828769365680e-04 2.917415186781e-04 0.0 
3.667448388198e-04 2.306905574157e-04 0.0 
3.495644838931e-04 2.433155615578e-04 0.0 
3.362620869926e-04 1.901266819632e-04 0.0 
3.127386950126e-04 1.975787680090e-04 0.0 
3.028079105755e-04 1.517163996444e-04 0.0 
3.211768939744e-04 1.465792985088e-04 0.0 
2.909328218666e-04 1.142072896212e-04 0.0 
2.681186113670e-04 1.165768154356e-04 0.0 
2.596528919764e-04 8.457996964696e-05 0.0 
2.771934475862e-04 8.394183768737e-05 0.0 
2.490308478372e-04 5.889108014790e-05 0.0 
2.618242316202e-04 5.978920779795e-05 0.0 
2.365827323956e-04 3.854283409633e-05 0.0 
2.211520859930e-04 3.643397518312e-05 0.0 
2.113954183873e-04 1.935698277268e-05 0.0 
2.226820085543e-04 2.273550363630e-05 0.0 
1.999074007715e-04 6.242530792100e-06 0.0 
1.866165078945e-04 2.134933024494e-06 0.0 
1.775896398165e-04 -8.494947538672e-06 0.0 
1.872741322443e-04 -3.441896855571e-06 0.0 
1.670559638148e-04 -1.621010641992e-05 0.0 
1.560060980237e-04 -2.156441714649e-05 0.0 
1.474583540895e-04 -2.752082151238e-05 0.0 
1.556190429410e-04 -2.138250297316e-05 0.0 
1.377171709615e-04 -3.134475058512e-05 0.0 
1.286194896382e-04 -3.749252145186e-05 0.0 
1.205609805039e-04 -4.005835647126e-05 0.0 
1.272081577205e-04 -3.336035485146e-05 0.0 
1.115015184208e-04 -4.113952828129e-05 0.0 
1.160094948351e-04 -3.403217110700e-05 0.0 
1.039832581731e-04 -4.777572296402e-05 0.0 
9.639854719530e-05 -4.798097012558e-05 0.0 
8.834924634464e-05 -5.445902336786e-05 0.0 
8.208691605805e-05 -5.393265838518e-05 0.0 
3.911400356040e-04 2.497226023536e-04 0.0 
7.405615477893e-05 -6.005047918997e-05 0.0 
7.841007590081e-05 -6.003311631084e-05 0.0 
6.877035846101e-05 -5.903576122146e-05 0.0 
7.489118367821e-05 -5.257607320563e-05 0.0 
6.098725496715e-05 -6.474369417472e-05 0.0 
5.651911227706e-05 -6.337142697496e-05 0.0 
4.922374677956e-05 -6.862487010881e-05 0.0 
3.188726088518e-04 2.535027686645e-04 0.0 
4.054704295384e-04 5.043307590626e-04 0.0 
4.541533896108e-05 -6.702495446233e-05 0.0 
3.881572829286e-05 -7.178867867356e-05 0.0 
4.096924080049e-05 -7.294251900292e-05 0.0 
3.158079467894e-05 -7.560101068575e-05 0.0 
2.665946601634e-04 9.305680228237e-04 0.0 
2.540287483824e-04 7.864734843927e-04 0.0 
2.394776519455e-04 8.663378551235e-04 0.0 
2.234247590664e-04 7.212956990626e-04 0.0 
2.114883078122e-04 7.973861512044e-04 0.0 
2.976215638657e-05 -7.434878173582e-05 0.0 
3.150229708004e-04 5.993227293427e-04 0.0 
2.328410557770e-04 6.437290580410e-04 0.0 
4.552888744816e-04 7.856770824522e-04 0.0 
4.362370572675e-04 5.226752900334e-04 0.0 
2.860867993223e-04 8.275038964941e-05 0.0 
5.106320578510e-05 -6.141030266576e-05 0.0 
4.059315948657e-05 -6.495137516876e-05 0.0 
4.476632350579e-05 -5.903682518945e-05 0.0 
1.304099061935e-04 -2.629088393892e-05 0.0 
1.172085381312e-04 -2.674496103597e-05 0.0 
1.297706822184e-04 -1.920813564262e-05 0.0 
1.148853470709e-04 -1.957764750707e-05 0.0 
1.250870333959e-04 -1.245456955779e-05 0.0 
1.089261542197e-04 -1.285056445144e-05 0.0 
1.002875108212e-04 -1.915683226831e-05 0.0 
9.342793538005e-05 -1.254956974722e-05 0.0 
8.615711853875e-05 -1.816151492706e-05 0.0 
1.162907716515e-04 -6.379173688864e-06 0.0 
1.341210402542e-04 -5.049177931904e-06 0.0 
7.874558026523e-05 -1.176078139334e-05 0.0 
7.264916734990e-05 -1.677702038585e-05 0.0 
6.501233418060e-05 -1.066388008037e-05 0.0 
5.990764070889e-05 -1.514746426564e-05 0.0 
6.544052469549e-05 -2.173389013537e-05 0.0 
5.359776425774e-05 -1.965311039286e-05 0.0 
5.742008207059e-05 -2.655796017418e-05 0.0 
2.665416583190e-04 6.013902851134e-05 0.0 
2.861246396440e-04 8.054080624990e-05 0.0 
2.629672967844e-04 5.954992040146e-05 0.0 
2.771074577865e-04 7.688715731697e-05 0.0 
2.509863542805e-04 5.765962077722e-05 0.0 
2.590728000034e-04 7.152719053602e-05 0.0 
2.305723789103e-04 5.418819969558e-05 0.0 
2.248295113845e-04 4.274412365703e-05 0.0 
3.515168582266e-04 5.549006822235e-04 0.0 
2.338573619524e-04 8.515852691579e-05 0.0 
2.363135806198e-04 1.187578999366e-04 0.0 
2.005224169933e-04 8.631404019260e-05 0.0 
1.964091443885e-04 1.213499572613e-04 0.0 
1.608251369598e-04 8.858303072642e-05 0.0 
1.498049662044e-04 1.252707233103e-04 0.0 
1.161915535564e-04 9.268135736762e-05 0.0 
1.292676094202e-04 6.041087196845e-05 0.0 
8.730400695387e-05 6.463633754121e-05 0.0 
1.014985849435e-04 3.607313052358e-05 0.0 
6.267938131374e-05 4.019768549468e-05 0.0 
7.715859148398e-05 1.501933188521e-05 0.0 
4.292096636370e-04 3.805987053712e-04 0.0 
2.875494696683e-04 9.374361633670e-05 0.0 
2.627437451045e-04 8.410458054703e-05 0.0 
2.932347695291e-04 1.091429517438e-04 0.0 
3.213208212214e-05 -7.623955988930e-05 0.0 
4.803800982353e-05 -1.337176179378e-05 0.0 
1.219301382738e-04 8.270555909039e-08 0.0 
1.415522049129e-04 2.402851399270e-06 0.0 
2.024738370333e-04 4.071531767185e-05 0.0 
2.365422939198e-05 -7.765386532138e-05 0.0 
9.862004449773e-05 1.313902845553e-04 0.0 
1.337516312420e-04 1.691667713621e-04 0.0 
1.927848518192e-04 6.515548013758e-04 0.0 
1.834967850443e-04 7.250218959803e-04 0.0 
1.253347898191e-04 6.302984435385e-06 0.0 
2.203166570065e-05 -7.641998925275e-05 0.0 
8.336975558981e-05 -6.806444724607e-06 0.0 
4.382830540265e-05 7.114177773718e-05 0.0 
4.244492179604e-05 -1.747178653983e-05 0.0 
3.713044979283e-05 -1.152285695511e-05 0.0 
9.077374785960e-05 -2.516669856681e-05 0.0 
2.611091574130e-04 9.454859788841e-05 0.0 
2.938432793504e-04 1.223159595720e-04 0.0 
1.117902424530e-04 1.296944826104e-05 0.0 
8.794829292584e-05 -5.169618931756e-06 0.0 
5.601767721897e-05 -3.213030684915e-06 0.0 
6.799493792609e-05 -2.130764205881e-05 0.0 
9.560055831175e-05 -2.109645504743e-05 0.0 
7.542225631075e-05 -3.435539667988e-05 0.0 
5.001764662734e-05 -3.446426597950e-05 0.0 
5.783255112155e-05 -4.555389574796e-05 0.0 
8.048336243207e-05 -4.425971133375e-05 0.0 
6.344227185376e-05 -5.365928003075e-05 0.0 
4.270170929930e-05 -5.468607001899e-05 0.0 
4.873076080280e-05 -6.132091068767e-05 0.0 
4.082541841991e-05 -7.976951784312e-06 0.0 
2.320535803149e-05 4.631785329421e-05 0.0 
4.076555517976e-04 9.112120707384e-04 0.0 
1.052349577855e-04 3.943800109084e-06 0.0 
2.023256968998e-04 4.905415991149e-05 0.0 
1.626417247732e-04 5.788051084180e-04 0.0 
1.559415796754e-04 6.500883809322e-04 0.0 
1.722716645049e-04 7.985901028363e-04 0.0 
1.471557038973e-04 7.212987565305e-04 0.0 
1.293150002891e-04 5.732453242160e-04 0.0 
1.229223721660e-04 6.428529189353e-04 0.0 
1.368501162298e-04 7.922833740906e-04 0.0 
1.147751943411e-04 7.122884498477e-04 0.0 
1.254390519031e-04 8.627038569247e-04 0.0 
1.052844053163e-04 7.813615585406e-04 0.0 
9.381859832654e-05 6.316327655165e-04 0.0 
8.613290766020e-05 6.998012885758e-04 0.0 
9.479818147418e-05 8.501460182970e-04 0.0 
7.721723876330e-05 7.677992131232e-04 0.0 
8.357263203231e-05 9.185270572140e-04 0.0 
6.731282831682e-05 8.355901301274e-04 0.0 
6.081315552416e-05 6.855758591629e-04 0.0 
1.737784763281e-05 -7.916260126109e-05 0.0 
1.990358551197e-04 3.135076166448e-05 0.0 
1.751275819426e-04 3.042580851278e-05 0.0 
3.516809921416e-05 -6.253738774563e-05 0.0 
3.806967139758e-05 -5.634450633247e-05 0.0 
4.787000486557e-05 -5.246799041942e-05 0.0 
3.971127396081e-05 -4.967581895456e-05 0.0 
5.190848513377e-05 7.535506652074e-04 0.0 
4.586841833333e-05 6.037942192279e-04 0.0 
7.622584791610e-05 1.772411374195e-04 0.0 
1.122451923863e-04 2.214052163143e-04 0.0 
1.666292142509e-04 5.076850728159e-04 0.0 
3.207394182626e-05 -1.527552180578e-05 0.0 
3.584648677015e-05 -2.162186090367e-05 0.0 
4.076187686535e-04 4.564030543934e-04 0.0 
4.142361744656e-04 5.647018732425e-04 0.0 
3.760802100940e-04 4.853379977548e-04 0.0 
3.761092619520e-04 6.023514043601e-04 0.0 
4.146443672698e-04 6.948901906183e-04 0.0 
3.266309863353e-04 5.085015351569e-04 0.0 
1.526872682636e-04 -2.730064185888e-06 0.0 
7.433985117436e-05 5.508475654636e-04 0.0 
4.181146606540e-05 -7.334778326546e-05 0.0 
3.124406132289e-05 -7.607695462356e-05 0.0 
2.726473868929e-05 -9.713277235820e-06 0.0 
2.156296969093e-04 3.065214147054e-05 0.0 
4.252285982680e-04 4.041210615427e-04 0.0 
4.051279134538e-04 3.300830204286e-04 0.0 
3.942706623157e-04 3.437791714198e-04 0.0 
3.703887468195e-04 2.785281747642e-04 0.0 
3.525458534807e-04 2.830624264777e-04 0.0 
3.247330263177e-04 2.263829246349e-04 0.0 
3.424222125238e-04 2.227190600828e-04 0.0 
2.531815910866e-04 1.017221629158e-04 0.0 
2.931577887427e-04 1.779275400848e-04 0.0 
5.752846098275e-05 9.046125035803e-04 0.0 
3.156132356430e-04 1.216329429646e-04 0.0 
8.314288705630e-05 -5.126420225467e-05 0.0 
1.786083448096e-05 -7.987298031860e-05 0.0 
2.958436895719e-05 -6.204339069090e-05 0.0 
1.562536474152e-05 -7.801354769982e-05 0.0 
1.932733467642e-05 -7.477881658618e-05 0.0 
1.042489365778e-04 8.641562631192e-06 0.0 
2.995979358952e-04 2.220942718527e-04 0.0 
3.273960874323e-04 2.788858675706e-04 0.0 
3.700286188405e-04 7.485080463610e-04 0.0 
4.061049035124e-04 8.493124143818e-04 0.0 
2.189584721859e-04 7.761156467995e-05 0.0 
2.229512229805e-04 9.464141473022e-04 0.0 
1.462248825994e-04 9.434587143181e-04 0.0 
1.322260925916e-04 1.014428810648e-03 0.0 
1.202337595706e-05 -8.055163130652e-05 0.0 
2.212157851004e-05 -5.426434925283e-05 0.0 
1.041733527278e-04 4.953437218646e-04 0.0 
1.742615237568e-04 2.143044921235e-04 0.0 
1.556637628583e-04 2.747201849548e-04 0.0 
7.402115937464e-07 7.958668394806e-05 0.0 
-1.571054101255e-05 5.402777355256e-05 0.0 
3.852183411614e-05 6.696677322410e-04 0.0 
3.290451027488e-05 5.222010536724e-04 0.0 
4.963085458106e-05 -4.547069338039e-05 0.0 
4.048102464344e-05 -4.260945402374e-05 0.0 
1.259447232136e-04 1.200887117865e-05 0.0 
3.632075607581e-05 -6.747109352970e-05 0.0 
3.780728550231e-05 4.558078677372e-04 0.0 
1.921564582895e-04 2.122030967737e-05 0.0 
2.037244470449e-04 1.840518453557e-05 0.0 
3.013782018518e-05 -5.361681933923e-05 0.0 
4.791717472330e-05 2.308655983467e-04 0.0 
1.893184544151e-05 1.879029656523e-04 0.0 
1.016422394958e-04 -4.162832190451e-05 0.0 
5.252297434566e-05 -6.571841060513e-05 0.0 
1.303315080853e-05 -7.657263770734e-05 0.0 
9.981046279790e-05 1.235405738824e-05 0.0 
1.059659538154e-04 4.273719790095e-04 0.0 
3.114934222457e-04 1.763466008387e-04 0.0 
3.528341859493e-04 2.129860521113e-04 0.0 
2.589007479308e-04 1.376410149699e-04 0.0 
2.015115047128e-05 -6.792210855920e-05 0.0 
8.418540396231e-05 6.188680261265e-06 0.0 
2.257909709472e-05 -1.309865289876e-05 0.0 
2.701998540095e-04 2.132903907729e-04 0.0 
2.954714387243e-04 2.661711433536e-04 0.0 
2.200227722565e-04 2.679911807121e-04 0.0 
2.078959372506e-04 3.403023290090e-04 0.0 
1.319339657580e-04 3.478609809155e-04 0.0 
1.896211802840e-04 4.278186639789e-04 0.0 
3.635297730843e-04 9.919002042710e-04 0.0 
2.709738553789e-04 3.316189900160e-04 0.0 
4.272643963140e-04 9.188570090578e-04 0.0 
4.051921034270e-04 1.037345991347e-03 0.0 
4.198868035384e-04 1.040274458324e-03 0.0 
4.384654198901e-04 7.754933736604e-04 0.0 
4.255051566603e-04 9.312500235952e-04 0.0 
2.352764045714e-04 1.597084977310e-04 0.0 
3.085119209252e-04 1.071486981757e-04 0.0 
5.851092963671e-05 -4.815840258906e-05 0.0 
6.890728310798e-05 -2.882521334472e-05 0.0 
1.447371458602e-04 -1.776061281504e-05 0.0 
7.864055123385e-05 4.835604071524e-04 0.0 
5.932651106009e-05 4.036404408202e-04 0.0 
1.005959920666e-04 1.001543203353e-03 0.0 
8.760925550647e-05 1.070120953682e-03 0.0 
2.317647458021e-05 -7.848351876940e-05 0.0 
2.078908552783e-05 -7.765564704916e-05 0.0 
1.043890374694e-04 -3.366960920936e-05 0.0 
8.656643233629e-05 2.451988451271e-06 0.0 
1.348713666486e-04 4.348369955378e-04 0.0 
1.327405538851e-04 3.664031739754e-04 0.0 
1.672027309588e-04 4.369030402210e-04 0.0 
1.230716527217e-04 1.685641785294e-05 0.0 
2.012931493921e-04 5.771795617658e-05 0.0 
2.461130737950e-04 4.243567600713e-05 0.0 
5.767775107844e-06 2.490985616744e-05 0.0 
4.033248940540e-04 2.816861380056e-04 0.0 
1.459638260975e-05 -7.963939727866e-05 0.0 
3.788547595071e-04 4.952619347162e-04 0.0 
1.855834644175e-05 -7.938378345633e-06 0.0 
2.152393919595e-05 -5.181092214894e-06 0.0 
2.029171746015e-04 7.925791798068e-05 0.0 
3.310596513349e-04 1.228896147259e-03 0.0 
3.787828723971e-04 2.249367233086e-04 0.0 
3.675724975551e-04 1.979322444111e-04 0.0 
3.913073647387e-04 1.166688280333e-03 0.0 
4.002466741244e-04 1.165696397072e-03 0.0 
4.293044203695e-04 1.026690400772e-03 0.0 
4.033011299778e-04 1.147232606373e-03 0.0 
1.010556087626e-04 -4.759552849870e-05 0.0 
8.354635377888e-05 -5.587639574374e-05 0.0 
2.327293742763e-04 1.597107552028e-04 0.0 
2.343663204633e-04 1.331502902417e-04 0.0 
2.334351537508e-04 1.943724365525e-04 0.0 
2.572855024367e-04 2.435276044064e-04 0.0 
1.670744925041e-04 5.833855404015e-05 0.0 
1.848753992906e-04 5.825173530123e-05 0.0 
1.562496119383e-05 -7.292237692473e-05 0.0 
3.856553315247e-04 1.024211953647e-03 0.0 
8.045779529292e-05 3.499533331038e-04 0.0 
3.779271039235e-04 1.153488105189e-03 0.0 
6.642197441510e-05 4.493805525230e-06 0.0 
6.954281936072e-05 1.407944925378e-06 0.0 
-2.971586395092e-05 3.197143173133e-05 0.0 
-8.082278199975e-06 3.342790649770e-06 0.0 
2.577378122193e-05 3.783274544292e-04 0.0 
1.022961260006e-04 4.357895417564e-04 0.0 
1.629807937198e-04 5.333979608694e-04 0.0 
5.298968350609e-05 3.562607080172e-04 0.0 
2.796969364967e-06 -1.201371765549e-06 0.0 
2.332340502909e-05 1.357032437155e-03 0.0 
1.388272920352e-05 -3.888956837793e-06 0.0 
4.496273292823e-04 8.418790174391e-04 0.0 
2.784637718824e-05 3.070377889862e-04 0.0 
3.525022494650e-04 1.787889733998e-04 0.0 
3.692521409982e-04 3.881603400571e-04 0.0 
1.491682545550e-04 1.679826631614e-05 0.0 
2.098845211131e-05 4.562342933849e-04 0.0 
1.547845127204e-05 2.952174218449e-04 0.0 
1.510413818199e-04 1.093255480856e-03 0.0 
1.356265725496e-04 1.166959214183e-03 0.0 
1.672696307132e-04 1.023062100298e-03 0.0 
2.130338867628e-05 1.083300259140e-04 0.0 
-3.084422281202e-05 1.245538017556e-04 0.0 
5.667384860922e-05 4.701400806211e-04 0.0 
3.119454153156e-05 -6.801884293520e-05 0.0 
2.585797724493e-05 -6.512081575024e-05 0.0 
3.981145825585e-05 -7.081614456692e-05 0.0 
5.393154056605e-05 -6.828412865281e-05 0.0 
5.990926001946e-05 -4.095827224837e-05 0.0 
6.966118866534e-05 -4.341498369016e-05 0.0 
3.678570357356e-04 4.154509530800e-04 0.0 
3.367495450883e-04 3.998086313517e-04 0.0 
4.132755675924e-04 4.190327811044e-04 0.0 
1.825594141108e-04 1.087962599879e-05 0.0 
1.898688114414e-04 6.467026142618e-06 0.0 
2.088725013974e-04 1.480629926664e-05 0.0 
6.042689541041e-05 3.420767133453e-04 0.0 
4.019885785934e-05 2.512865304341e-04 0.0 
1.201953798443e-04 -3.771940751736e-05 0.0 
1.220574278319e-04 -3.012730560707e-05 0.0 
9.823965643954e-05 -5.149308346728e-05 0.0 
7.756809967911e-05 2.864224791132e-04 0.0 
1.534961692624e-05 -1.992149219734e-06 0.0 
2.300725491589e-05 -2.805043873287e-06 0.0 
1.121271977462e-05 -7.815311053666e-05 0.0 
1.701123831249e-05 -7.555105295721e-05 0.0 
-1.270559275638e-05 2.419073063825e-04 0.0 
-3.497656693611e-05 2.004939589173e-04 0.0 
1.282728864840e-04 3.042339607704e-04 0.0 
1.640508668115e-04 3.682749921686e-04 0.0 
9.118988253849e-05 2.285632447785e-04 0.0 
9.322606909558e-06 -7.513738580711e-05 0.0 
3.223375166635e-04 1.692452136951e-04 0.0 
9.394968089313e-05 1.548498404153e-05 0.0 
1.189572956123e-04 2.092156013741e-05 0.0 
6.732048794094e-05 1.063061159819e-05 0.0 
2.401973237034e-04 1.057021041774e-04 0.0 
1.821837334201e-04 7.697310780102e-05 0.0 
1.945361127117e-04 9.801566301278e-05 0.0 
-5.263730765777e-05 6.181505070168e-05 0.0 
1.161789360441e-05 3.552547300308e-04 0.0 
1.038716651812e-04 1.153809541871e-03 0.0 
-5.975487171133e-05 4.216199106230e-05 0.0 
8.947276114185e-05 1.227829635616e-03 0.0 
7.476666836152e-05 1.139409196969e-03 0.0 
7.729281926351e-05 1.300866272340e-03 0.0 
7.875178819306e-06 -7.809607522466e-05 0.0 
1.708970510202e-04 1.198634982277e-03 0.0 
1.895953889939e-04 1.107070941064e-03 0.0 
4.177693736267e-06 -7.517915736748e-05 0.0 
5.233032893034e-05 2.113220490218e-04 0.0 
7.473272799439e-06 -7.969642143461e-05 0.0 
1.038516786362e-05 -8.094898864560e-05 0.0 
5.017821742612e-05 3.076799388987e-06 0.0 
5.420168257445e-05 8.662359186644e-07 0.0 
3.606901310867e-05 2.337137444773e-06 0.0 
4.157827296284e-05 6.835768525906e-07 0.0 
5.594605628793e-05 -2.067845772179e-06 0.0 
4.307069618022e-05 -1.789225419576e-06 0.0 
1.213480086843e-04 1.250458652904e-03 0.0 
2.818006364285e-05 7.702727929649e-07 0.0 
3.158206677984e-05 -1.309519488883e-06 0.0 
1.840156922930e-05 3.968460549393e-07 0.0 
3.661005842222e-04 1.299481744357e-03 0.0 
2.486862796310e-04 5.215437466899e-04 0.0 
2.291300159045e-04 6.541614492713e-04 0.0 
1.247040229619e-04 6.704413748115e-04 0.0 
1.750759954427e-04 1.502934988172e-04 0.0 
2.177856885366e-04 2.167143172463e-04 0.0 
1.402278083918e-05 -1.089359894307e-05 0.0 
1.603284077485e-05 -1.653633841706e-05 0.0 
6.168078308422e-05 1.219659151339e-03 0.0 
4.506026897076e-05 1.225321874300e-03 0.0 
4.913013684867e-05 1.086885631052e-03 0.0 
3.545015423006e-05 1.103087930301e-03 0.0 
3.821774449865e-05 9.675882270686e-04 0.0 
2.459736557284e-05 9.845043421134e-04 0.0 
2.908004993259e-05 8.493403946922e-04 0.0 
1.622886065166e-04 8.849613191694e-05 0.0 
1.029534713326e-05 4.365450237833e-04 0.0 
3.576345569128e-04 1.290222603225e-03 0.0 
1.317136893327e-04 4.164540198526e-05 0.0 
1.559267838275e-04 4.467313926876e-05 0.0 
4.000793492989e-04 1.098080595157e-03 0.0 
3.484811580683e-04 1.214533051353e-03 0.0 
5.576826723571e-05 6.316052614485e-06 0.0 
2.744067100080e-04 2.613523998720e-04 0.0 
3.958571732913e-05 1.324345856487e-04 0.0 
-1.198071476829e-04 1.522086121365e-04 0.0 
-7.748829307585e-05 1.279845099347e-04 0.0 
3.214350003076e-04 3.214665386699e-04 0.0 
4.320233256653e-04 9.920606635600e-04 0.0 
3.138655576549e-04 6.323010250301e-04 0.0 
3.066046976788e-04 7.998039468330e-04 0.0 
1.692297959364e-04 1.444495409484e-05 0.0 
1.114058170327e-05 -7.199198873023e-05 0.0 
1.577595033124e-05 2.927997350721e-04 0.0 
4.244574501235e-05 8.347046789056e-04 0.0 
-4.843028526877e-05 2.996149513242e-04 0.0 
7.333866273106e-06 -1.351513643495e-05 0.0 
2.764124066360e-04 2.036751052859e-04 0.0 
4.564230646114e-04 7.033595741606e-04 0.0 
8.535960203971e-05 2.828030143661e-04 0.0 
2.693914949088e-04 4.205258084195e-04 0.0 
3.842884080147e-04 8.905044674210e-04 0.0 
3.395278857738e-04 1.090047099204e-03 0.0 
3.591807072723e-04 1.129564092507e-03 0.0 
2.740277780825e-04 1.560198268415e-04 0.0 
3.560167898003e-04 9.243057022701e-04 0.0 
2.804201877959e-04 1.011074231779e-03 0.0 
4.423937707725e-04 8.013820941941e-04 0.0 
2.028157673585e-04 5.042104701261e-04 0.0 
2.018793178526e-04 4.316365762118e-04 0.0 
1.573906899925e-04 3.049067514435e-04 0.0 
1.963549196901e-04 3.623734512983e-04 0.0 
2.403336049043e-04 4.914895728177e-04 0.0 
2.369770806909e-04 4.181604131336e-04 0.0 
1.858045986450e-04 2.972715982874e-04 0.0 
2.284257985856e-04 3.481551456858e-04 0.0 
1.559240661069e-04 2.122046120329e-04 0.0 
2.122640273910e-04 2.797332268144e-04 0.0 
2.705408482897e-04 3.960226766566e-04 0.0 
2.584009653989e-04 3.289743478207e-04 0.0 
1.996992923364e-04 2.318415079675e-04 0.0 
3.120745868535e-04 4.433220935326e-04 0.0 
1.069673481831e-04 3.720465689261e-05 0.0 
3.601382854092e-04 3.084225659424e-04 0.0 
-4.098011275842e-05 8.990608322133e-05 0.0 
-6.746544313675e-05 1.616901624840e-04 0.0 
4.606172441391e-04 7.534521238321e-04 0.0 
7.705888802623e-05 1.025932891681e-04 0.0 
6.392103252923e-05 1.089560452218e-04 0.0 
1.875807932357e-04 1.636234387175e-04 0.0 
8.939656098213e-05 6.712147198862e-05 0.0 
3.856156094987e-04 1.021510164075e-03 0.0 
6.853124330836e-05 9.938689568649e-05 0.0 
8.916369999644e-05 5.445108731364e-05 0.0 
2.387607167458e-04 5.666826866029e-04 0.0 
2.743743685567e-04 6.272110948370e-04 0.0 
2.658957303658e-04 7.069496821767e-04 0.0 
4.910833211239e-05 1.064124821970e-04 0.0 
1.831557722392e-04 9.502243611277e-04 0.0 
7.142632485418e-05 2.961657286019e-05 0.0 
3.028253140853e-04 1.013359864256e-04 0.0 
3.277471760709e-04 1.320303870745e-04 0.0 
3.294394167202e-04 1.401254428576e-04 0.0 
2.774554036945e-04 4.719988487699e-04 0.0 
5.589257628377e-05 1.582691249295e-05 0.0 
9.851222904361e-05 2.561351219584e-05 0.0 
8.947961125452e-05 2.076017976782e-05 0.0 
1.345420068189e-04 3.116412008502e-05 0.0 
4.572260629215e-05 1.088940872479e-05 0.0 
7.872560680798e-05 8.227051560681e-05 0.0 
7.815832350701e-05 7.279091169648e-05 0.0 
9.987493769923e-05 -3.295272037204e-05 0.0 
1.216912152264e-04 -1.956863238941e-05 0.0 
1.444526339436e-04 -1.666230243538e-05 0.0 
1.455772884943e-04 -3.867687748928e-06 0.0 
1.183730776485e-04 -5.354907672093e-06 0.0 
1.436201495930e-04 1.274189465475e-05 0.0 
1.713219644596e-04 1.415839206391e-05 0.0 
1.381695937522e-04 3.398092742518e-05 0.0 
2.817963118830e-04 3.058319598317e-04 0.0 
3.559424287320e-05 6.955490146330e-06 0.0 
1.417265146659e-04 -1.113848813565e-05 0.0 
1.585647480557e-04 -8.650821759664e-06 0.0 
1.594242899154e-04 -1.499442936117e-05 0.0 
6.699540707127e-05 -5.057318392702e-05 0.0 
7.908349472650e-05 -4.554261130596e-05 0.0 
8.109341488209e-05 -3.818059082936e-05 0.0 
5.550728388221e-05 -5.506729508812e-05 0.0 
3.807004672498e-04 2.666895056379e-04 0.0 
3.171478358677e-05 5.484837254040e-06 0.0 
2.250921489842e-04 2.878646200717e-05 0.0 
8.804413976174e-05 -4.714859079606e-05 0.0 
2.230453621805e-04 1.332049149703e-03 0.0 
2.383908220819e-04 1.193866890958e-03 0.0 
2.620388941395e-04 1.174560053720e-03 0.0 
2.491187019104e-04 1.035821149886e-03 0.0 
2.122318486820e-04 1.189713344580e-03 0.0 
5.000916853964e-05 -3.825309708005e-05 0.0 
4.010631602856e-05 -3.541332493976e-05 0.0 
3.115057970912e-05 -3.965733354981e-05 0.0 
3.030724672156e-05 -3.251473045322e-05 0.0 
2.180718977197e-05 -3.664225572763e-05 0.0 
2.241252873034e-05 -4.357938130576e-05 0.0 
2.052389884687e-05 -2.959262134674e-05 0.0 
1.267240478780e-05 -3.439518424359e-05 0.0 
1.798723951298e-04 1.350048581399e-03 0.0 
-4.841233127312e-05 -1.461616729588e-05 0.0 
-2.249739469579e-05 -2.770183148207e-05 0.0 
-1.565750940927e-05 -4.315909853811e-05 0.0 
-4.781944680301e-07 -3.826249393976e-05 0.0 
-3.497177124991e-06 -2.204672192808e-05 0.0 
2.258244861320e-05 -3.320204386012e-05 0.0 
1.682314305927e-05 -1.487993759480e-05 0.0 
-3.093785423399e-05 -7.204085712230e-06 0.0 
-2.747942610609e-05 -4.667223534937e-05 0.0 
-9.401904203366e-06 -5.487559587541e-05 0.0 
-1.929333293901e-05 -5.738715707302e-05 0.0 
-4.893674289719e-06 -6.352210410440e-05 0.0 
9.437941189179e-06 -6.134689478845e-05 0.0 
2.923467677782e-05 -7.474615704453e-05 0.0 
7.936169933048e-06 -1.043917442051e-08 0.0 
8.072120555337e-06 -5.349207238676e-05 0.0 
1.523128890584e-05 -5.677491028371e-05 0.0 
1.394438420460e-05 -6.255771422769e-05 0.0 
2.252805404235e-05 -5.963375043747e-05 0.0 
1.564456238911e-05 -5.086188735407e-05 0.0 
6.558515268660e-06 -6.533825640662e-05 0.0 
1.230095461336e-05 -6.725260564125e-05 0.0 
2.984572567688e-06 -8.329935646644e-05 0.0 
3.481655397039e-06 -8.277046691267e-05 0.0 
1.568039853050e-06 -8.287788712362e-05 0.0 
3.687462275609e-06 -8.184026024913e-05 0.0 
5.871694502199e-06 -8.184637620169e-05 0.0 
4.934867037406e-06 -8.270485622378e-05 0.0 
6.051463554484e-06 -8.260864882414e-05 0.0 
3.971967806929e-06 -8.270464435498e-05 0.0 
6.751906516064e-06 -8.228853874270e-05 0.0 
9.779628042278e-06 -8.178237862176e-05 0.0 
3.578436382085e-06 -8.197560794806e-05 0.0 
9.359765342533e-06 6.537020325690e-04 0.0 
1.779736194035e-05 5.801649303943e-04 0.0 
2.631057957718e-05 3.512264868385e-06 0.0 
1.397799403644e-04 1.344096507559e-03 0.0 
-6.881014632829e-06 -7.139905947274e-05 0.0 
1.450210199601e-05 1.456237223211e-04 0.0 
2.255247761439e-05 1.199272413226e-04 0.0 
1.797662274780e-05 1.164676787769e-04 0.0 
4.617678524403e-06 -4.105016110060e-06 0.0 
7.491575806470e-06 -2.473854823610e-06 0.0 
7.898506091176e-06 1.417899113539e-04 0.0 
5.180836183004e-05 -6.957258310431e-05 0.0 
1.460609705919e-04 2.455127313160e-04 0.0 
4.106694859626e-05 3.894055310772e-04 0.0 
4.634180679129e-05 1.401505818602e-04 0.0 
6.784312318933e-05 -6.273161379544e-05 0.0 
2.551284466787e-05 -1.907377752983e-05 0.0 
7.787772085875e-05 -2.359283623517e-05 0.0 
3.056229776542e-05 -6.553253079728e-06 0.0 
4.637104572174e-05 -2.411667273045e-05 0.0 
5.233898321156e-05 -9.369779684678e-06 0.0 
8.271208524121e-05 1.678170468246e-05 0.0 
1.061103008224e-05 -7.927746646222e-05 0.0 
1.132534464677e-04 9.324377783527e-04 0.0 
7.244023387076e-05 9.872184084984e-04 0.0 
6.830726765510e-05 6.182463394332e-04 0.0 
3.550409744365e-05 -7.009336605290e-05 0.0 
3.145495491924e-05 -4.637772455278e-05 0.0 
2.413967503746e-05 -7.838006243961e-05 0.0 
1.616160693976e-04 1.100825948862e-04 0.0 
4.415612427779e-04 9.127627633742e-04 0.0 
1.432805113133e-04 -2.463697789666e-05 0.0 
6.253185210992e-05 -5.730448424470e-05 0.0 
6.436293928026e-05 -6.527273103231e-05 0.0 
6.676815074766e-05 -5.923346625789e-05 0.0 
3.965452160751e-04 3.661458355078e-04 0.0 
1.018135455513e-04 -4.098009669196e-05 0.0 
9.932798494512e-05 -6.888493310819e-06 0.0 
5.210123622962e-05 5.369180816061e-04 0.0 
1.096245487938e-06 -7.895361578702e-05 0.0 
1.034259761800e-04 -1.302164225967e-06 0.0 
1.039433803849e-04 -2.628662498980e-05 0.0 
1.597294688288e-04 8.716345297583e-04 0.0 
2.321768942339e-04 6.432750898871e-05 0.0 
3.527423620173e-05 -4.578785395721e-05 0.0 
1.000044437017e-04 5.636636753700e-04 0.0 
1.019406294700e-04 3.020459295884e-04 0.0 
2.059966472299e-04 1.026328865196e-03 0.0 
1.673700917465e-05 -8.023324178297e-05 0.0 
1.183492194424e-04 1.086719415857e-03 0.0 
7.835805564105e-05 9.125826233848e-06 0.0 
1.994524024979e-04 5.775358522525e-04 0.0 
2.681327401979e-05 -7.266073878962e-05 0.0 
2.451552171958e-04 4.079353383304e-05 0.0 
4.543536498180e-04 5.818194656795e-04 0.0 
3.130653466494e-04 1.368766435055e-03 0.0 
4.264045392623e-05 3.287516473726e-04 0.0 
3.726647459644e-04 2.157408026259e-04 0.0 
1.727252337958e-04 3.704008028123e-05 0.0 
2.393628621628e-04 4.319567615587e-05 0.0 
2.298928182683e-05 -7.056436668344e-05 0.0 
7.023484360441e-05 -2.236740270340e-06 0.0 
3.043644443362e-04 1.111267354649e-04 0.0 
8.099635949143e-05 4.174854011590e-04 0.0 
3.758146698459e-04 3.485973143208e-04 0.0 
2.287346451798e-04 5.811386176167e-05 0.0 
1.334870678817e-04 5.038742215756e-04 0.0 
1.736447842271e-04 -1.038201783312e-05 0.0 
2.285154886819e-04 7.234178650959e-05 0.0 
4.498585672237e-04 8.872566700668e-04 0.0 
4.399604591459e-04 4.888529677913e-04 0.0 
3.831605863785e-04 5.808629085831e-04 0.0 
4.248875926060e-04 3.494064575783e-04 0.0 
1.732192030506e-05 -2.296406457505e-05 0.0 
8.614425565437e-05 -2.021399154362e-06 0.0 
4.168495014703e-05 1.948609602102e-05 0.0 
3.272637965229e-04 4.061803735060e-04 0.0 
1.977237103274e-04 8.737519891128e-04 0.0 
2.696356419496e-04 1.748994785891e-04 0.0 
5.735815616655e-05 2.724950646275e-04 0.0 
4.413252505186e-04 6.393284390997e-04 0.0 
6.860161250952e-05 -6.308665820281e-06 0.0 
1.055670881984e-04 3.642923120717e-04 0.0 
9.161912795979e-05 -3.991895245528e-05 0.0 
3.846240627494e-06 -7.760138890110e-05 0.0 
-3.831293069220e-06 1.516474097872e-04 0.0 
1.677255512326e-04 5.828952103883e-05 0.0 
3.489127818485e-04 1.808862225711e-04 0.0 
9.258958078530e-05 -3.250406866391e-05 0.0 
1.133812577800e-04 2.261280609183e-04 0.0 
5.508750491807e-05 -5.587715762003e-06 0.0 
1.466433139931e-04 9.755323714109e-06 0.0 
-1.100686688913e-04 2.552639005934e-04 0.0 
3.469881036799e-04 1.262882569027e-03 0.0 
4.291816177899e-05 -4.721175246294e-06 0.0 
2.274399580378e-04 2.607107324064e-05 0.0 
1.967244534866e-04 5.513199779999e-05 0.0 
1.358851823586e-05 -4.075923295902e-05 0.0 
1.607473259812e-04 9.819861427712e-05 0.0 
3.637109850854e-04 1.265191373484e-03 0.0 
3.214218884775e-05 -3.773202443369e-06 0.0 
1.739050719691e-04 2.281534367657e-05 0.0 
2.297842897501e-04 2.086651901203e-04 0.0 
3.873405969565e-05 1.357724214848e-03 0.0 
2.025642324515e-05 -5.483736073194e-07 0.0 
1.479058012595e-04 2.280281053133e-05 0.0 
4.081596304208e-04 3.090814687103e-04 0.0 
2.075075689033e-04 1.063659516533e-05 0.0 
3.241279660282e-04 1.432158768354e-03 0.0 
8.070113004419e-05 -3.081365717976e-05 0.0 
4.263760956069e-04 5.027990908612e-04 0.0 
4.227754833070e-05 1.057125923532e-04 0.0 
1.452723343602e-04 2.807107357708e-05 0.0 
2.982065636307e-04 7.678819617282e-04 0.0 
7.035264700715e-05 -3.609168685733e-05 0.0 
3.240019780666e-04 1.406680578838e-04 0.0 
7.845786255947e-06 -8.189238119476e-05 0.0 
3.642026669201e-04 1.301906746636e-03 0.0 
5.955671833596e-05 -3.368002068155e-05 0.0 
1.710956842626e-04 3.370804403120e-05 0.0 
1.915167826169e-04 1.689308094402e-06 0.0 
1.459490742051e-04 5.541832792902e-05 0.0 
4.892956281963e-05 -3.106829922762e-05 0.0 
1.991576328845e-04 3.467652831046e-05 0.0 
3.854976017266e-05 -2.836124513282e-05 0.0 
3.148475518171e-04 1.441990469134e-03 0.0 
3.086347729690e-04 6.812927166665e-04 0.0 
2.814182481254e-05 -2.563285593012e-05 0.0 
3.938403785438e-04 4.224169677835e-04 0.0 
1.154136186893e-05 -8.145175688011e-05 0.0 
3.834834391679e-04 2.485438830495e-04 0.0 
1.086607886900e-05 -6.010304703151e-06 0.0 
9.379822403050e-05 -5.374073964308e-05 0.0 
1.752204754609e-04 -4.578270360836e-06 0.0 
2.783254025406e-04 5.482885333822e-04 0.0 
2.743106516002e-04 1.380205014596e-03 0.0 
1.714223532401e-04 9.578733722826e-07 0.0 
3.506075191121e-04 3.438129987555e-04 0.0 
3.562804867678e-04 1.984790279350e-04 0.0 
3.509483740177e-04 1.695466677590e-04 0.0 
1.619183669806e-04 5.859864395912e-06 0.0 
3.268879456643e-04 1.125853096801e-03 0.0 
5.286648513020e-05 -6.970408320856e-05 0.0 
4.146556900190e-05 -7.274102543422e-05 0.0 
1.941193797774e-04 1.641694545555e-05 0.0 
3.187586678259e-04 3.292769649210e-04 0.0 
6.657310653846e-06 -8.048689063971e-05 0.0 
3.159933210608e-04 5.179268384824e-04 0.0 
2.543898614195e-05 -7.207918718696e-05 0.0 
1.685174125678e-04 -1.174470990208e-06 0.0 
2.869277955472e-04 1.314136218489e-04 0.0 
1.115689120055e-05 9.465239373988e-04 0.0 
1.632818707539e-04 -1.290035786894e-05 0.0 
4.583034504879e-06 -7.425751283643e-05 0.0 
1.410089061526e-04 -2.614873461814e-05 0.0 
3.425043779607e-04 1.560200005255e-04 0.0 
1.357215513944e-04 -3.290992304243e-05 0.0 
1.163324624882e-04 -4.290597524756e-05 0.0 
2.855179006847e-05 2.500239222591e-04 0.0 
1.108575705613e-04 -4.612267918834e-05 0.0 
3.951946982640e-06 1.173017920239e-04 0.0 
3.248801845961e-06 -1.542918095494e-07 0.0 
1.454997329426e-05 1.242886073604e-03 0.0 
1.727530650598e-04 1.206441774942e-03 0.0 
-9.088734818980e-05 7.042001695907e-05 0.0 
2.212671083581e-04 8.172893803124e-04 0.0 
8.178030158862e-05 -5.867725292409e-05 0.0 
3.478569511024e-04 4.751237139481e-04 0.0 
3.025041760919e-05 1.236347235214e-03 0.0 
6.665179773749e-05 -6.471786247189e-05 0.0 
1.472341930478e-04 1.735792654327e-04 0.0 
7.847466340960e-05 3.913986603780e-05 0.0 
2.008089918139e-05 7.193408386358e-04 0.0 
1.680772276490e-04 4.241244215870e-05 0.0 
3.258627486561e-04 1.564817504906e-04 0.0 
5.771975976565e-06 3.698814758716e-04 0.0 
8.994187873092e-05 1.371670317468e-03 0.0 
-9.790824278229e-07 -7.001951012933e-05 0.0 
8.322542508993e-06 -1.964806084114e-05 0.0 
3.263233573060e-05 8.088619946499e-04 0.0 
5.567475784044e-05 5.330932224138e-04 0.0 
-2.622999228307e-05 3.600508963153e-04 0.0 
1.794514965637e-05 -6.873864752521e-05 0.0 
3.003735763702e-06 -5.097147191558e-05 0.0 
-4.490944073698e-05 5.304882640274e-04 0.0 
1.097817456960e-04 3.156491753968e-05 0.0 
1.517122904435e-04 1.232958680061e-03 0.0 
2.791338187504e-04 1.394515985422e-04 0.0 
-8.951829794625e-05 3.647443011209e-04 0.0 
7.328270409326e-05 2.331296439724e-04 0.0 
1.481758528087e-04 6.666826988709e-05 0.0 
1.762154187779e-05 1.750410373207e-06 0.0 
2.205151425029e-04 1.041393490737e-04 0.0 
-6.746707219486e-05 2.490136965735e-04 0.0 
2.266504413545e-04 1.079257710424e-03 0.0 
1.609858949515e-04 1.218550835839e-04 0.0 
2.721583483391e-05 6.011917642271e-04 0.0 
1.247569334164e-05 9.266264893536e-07 0.0 
1.912511191687e-04 1.238098750700e-03 0.0 
1.720530821330e-05 2.332732115092e-04 0.0 
2.451848463741e-05 2.307068439796e-06 0.0 
8.748205023620e-06 2.265467649577e-04 0.0 
2.997666421731e-04 3.703547783594e-04 0.0 
6.205887475994e-05 1.055755228820e-03 0.0 
2.733728402414e-04 1.055500150040e-03 0.0 
9.027709359345e-06 -1.125235257035e-06 0.0 
1.304943229900e-04 1.947488870750e-04 0.0 
-8.013466390843e-05 2.023015340359e-04 0.0 
3.154577108312e-05 7.347032082769e-04 0.0 
3.045246059909e-05 -5.955790657719e-05 0.0 
-4.578746396064e-05 1.765735989756e-05 0.0 
4.540150889421e-05 4.422362453911e-06 0.0 
2.420690787843e-04 2.720260355943e-04 0.0 
1.526192449778e-05 -7.641643687135e-07 0.0 
1.604337044558e-06 -8.183636745398e-05 0.0 
3.855971222297e-06 -7.779411691308e-05 0.0 
5.315209498077e-05 7.482742873025e-06 0.0 
1.476380926883e-04 1.391122626290e-04 0.0 
4.286539615533e-05 -2.142097168415e-05 0.0 
2.431368101225e-05 9.268773476230e-05 0.0 
-9.978178126163e-05 1.718378714527e-04 0.0 
1.224865340207e-04 1.387653372552e-03 0.0 
6.536493430909e-06 -8.168057851365e-05 0.0 
9.751797972371e-06 5.418974574839e-07 0.0 
4.225649523694e-05 2.213872384093e-04 0.0 
2.178327079608e-05 -5.387756148821e-05 0.0 
2.680890555147e-04 1.283810582581e-03 0.0 
1.058137462987e-05 -7.165546691572e-05 0.0 
2.124617414274e-04 1.289070414052e-04 0.0 
7.352643788684e-06 -6.740879348643e-05 0.0 
2.853015132188e-05 2.098860293650e-04 0.0 
6.495574945641e-05 1.211566018465e-05 0.0 
8.962894013561e-05 1.947110604509e-04 0.0 
4.855486218766e-05 1.676342975371e-05 0.0 
-7.395307687647e-05 9.129454796266e-05 0.0 
1.336416736062e-04 6.536328764686e-05 0.0 
1.145641709669e-04 2.370610318339e-05 0.0 
6.753176760752e-05 1.377145323453e-03 0.0 
1.133353910058e-04 1.999386436190e-04 0.0 
1.912497677307e-05 -6.447814951410e-05 0.0 
1.381247925332e-05 -8.070027160835e-05 0.0 
1.665807302196e-06 1.039075143678e-04 0.0 
9.069265339318e-07 -8.347250544117e-05 0.0 
1.136708749501e-05 1.374415873591e-03 0.0 
1.259630452535e-06 -2.053892983215e-07 0.0 
8.622006470920e-06 -8.090502391738e-05 0.0 
2.397900298753e-05 1.132650765691e-03 0.0 
1.375548516333e-04 1.438635110410e-04 0.0 
6.001833685201e-06 -3.958557904384e-05 0.0 
1.334069378312e-05 4.647415869729e-04 0.0 
1.651145027278e-05 -4.582558831782e-05 0.0 
-8.040403361191e-05 3.571775381439e-05 0.0 
1.919336775115e-05 8.717031164552e-04 0.0 
1.271896911307e-04 5.198263373231e-05 0.0 
6.873387713079e-05 1.921095820039e-04 0.0 
4.971034169507e-05 9.734260876693e-04 0.0 
-4.106201801699e-05 1.680228467593e-04 0.0 
1.907667676204e-04 2.005580633122e-04 0.0 
2.357640229826e-05 -4.880308123083e-05 0.0 
2.141242676222e-04 1.607072382940e-04 0.0 
1.360431440151e-04 3.558156086790e-05 0.0 
-1.278538041941e-04 1.874528456005e-04 0.0 
5.293264464193e-06 -3.269301856838e-05 0.0 
5.644505134960e-06 -8.070175264725e-05 0.0 
2.901731014067e-05 1.618180904260e-06 0.0 
1.576782786947e-05 -4.567995688058e-05 0.0 
7.170858412454e-05 1.580128003371e-03 0.0 
1.109553538776e-05 2.170494659039e-03 0.0 
1.967445039126e-04 1.654487183742e-03 0.0 
8.668085875800e-06 2.017491286721e-03 0.0 
2.520827390098e-04 1.648028057976e-03 0.0 
7.976106846282e-06 1.865437345718e-03 0.0 
2.709105406514e-04 1.589083650284e-03 0.0 
7.784852217583e-06 1.713521785340e-03 0.0 
2.663926229883e-04 1.497516573565e-03 0.0 
7.666248980799e-06 1.561559114908e-03 0.0 

VECTORS node_materi_displacement float
0.0 1.178379692442e-02 0.0 
0.0 1.680574990607e-02 0.0 
0.0 0.0 0.0 
0.0 0.0 0.0 
0.0 1.176798422215e-02 0.0 
0.0 1.169576663250e-02 0.0 
0.0 1.156746267929e-02 0.0 
0.0 1.138274085013e-02 0.0 
0.0 1.113970220388e-02 0.0 
0.0 1.083943675717e-02 0.0 
0.0 1.048176935449e-02 0.0 
0.0 1.006567883627e-02 0.0 
0.0 9.590498631632e-03 0.0 
0.0 9.054742561095e-03 0.0 
0.0 8.455947272892e-03 0.0 
0.0 7.792566315338e-03 0.0 
0.0 7.064055565196e-03 0.0 
0.0 6.272319425345e-03 0.0 
0.0 5.409772720408e-03 0.0 
0.0 4.476226526809e-03 0.0 
0.0 3.470577107010e-03 0.0 
0.0 2.389662950457e-03 0.0 
0.0 1.231381153761e-03 0.0 
0.0 0.0 0.0 
0.0 0.0 0.0 
0.0 0.0 0.0 
0.0 0.0 0.0 
0.0 0.0 0.0 
0.0 0.0 0.0 
0.0 0.0 0.0 
0.0 0.0 0.0 
0.0 0.0 0.0 
0.0 0.0 0.0 
0.0 0.0 0.0 
0.0 0.0 0.0 
0.0 0.0 0.0 
0.0 0.0 0.0 
0.0 0.0 0.0 
0.0 0.0 0.0 
0.0 0.0 0.0 
0.0 0.0 0.0 
0.0 0.0 0.0 
0.0 0.0 0.0 
0.0 0.0 0.0 
0.0 0.0 0.0 
0.0 0.0 0.0 
0.0 0.0 0.0 
0.0 0.0 0.0 
0.0 0.0 0.0 
0.0 0.0 0.0 
0.0 0.0 0.0 
0.0 0.0 0.0 
0.0 0.0 0.0 
0.0 0.0 0.0 
0.0 0.0 0.0 
0.0 0.0 0.0 
0.0 0.0 0.0 
0.0 0.0 0.0 
0.0 0.0 0.0 
0.0 0.0 0.0 
0.0 0.0 0.0 
0.0 0.0 0.0 
0.0 0.0 0.0 
0.0 0.0 0.0 
0.0 0.0 0.0 
0.0 0.0 0.0 
0.0 0.0 0.0 
0.0 0.0 0.0 
0.0 0.0 0.0 
0.0 0.0 0.0 
0.0 0.0 0.0 
0.0 0.0 0.0 
0.0 1.539662237117e-02 0.0 
0.0 1.392469362153e-02 0.0 
0.0 1.238999693788e-02 0.0 
0.0 1.079509293963e-02 0.0 
0.0 9.139431051093e-03 0.0 
0.0 7.425223332237e-03 0.0 
0.0 5.653167414511e-03 0.0 
0.0 3.824207328418e-03 0.0 
0.0 1.939699632390e-03 0.0 
-1.421342313912e-03 1.518196122695e-02 0.0 
1.268704634515e-03 1.657413874099e-02 0.0 
-1.001658690008e-03 1.634423769233e-02 0.0 
-5.602697299817e-04 1.758892549720e-02 0.0 
-6.250488891737e-05 1.874931515005e-02 0.0 
4.522176608777e-04 1.967556846220e-02 0.0 
8.996812273954e-04 2.021471098758e-02 0.0 
1.239639822329e-03 2.010595604658e-02 0.0 
1.395426386082e-03 1.956813962153e-02 0.0 
1.427416658196e-03 1.875895903909e-02 0.0 
1.376051901824e-03 1.774610404847e-02 0.0 
0.0 2.289143610118e-02 0.0 
0.0 2.179820225640e-02 0.0 
0.0 2.064852068863e-02 0.0 
0.0 1.942988742571e-02 0.0 
0.0 1.815177459011e-02 0.0 
7.150286526467e-05 1.680657117336e-02 0.0 
1.417148525895e-04 1.680892792796e-02 0.0 
2.135596778082e-04 1.681218133227e-02 0.0 
2.865004746695e-04 1.681501062726e-02 0.0 
3.603676487445e-04 1.681924445847e-02 0.0 
4.358766061129e-04 1.682093999132e-02 0.0 
5.137931288910e-04 1.682233547060e-02 0.0 
5.930021984059e-04 1.682001457191e-02 0.0 
6.766971679696e-04 1.681580875019e-02 0.0 
7.640023239761e-04 1.680423490711e-02 0.0 
8.547558903618e-04 1.678508600995e-02 0.0 
9.501595263024e-04 1.675649278837e-02 0.0 
1.050328779105e-03 1.671426602799e-02 0.0 
1.156064515615e-03 1.665421266170e-02 0.0 
-1.295401826147e-03 1.454677595125e-02 0.0 
-1.136695780644e-03 1.402269379902e-02 0.0 
-9.740043945470e-04 1.358971712016e-02 0.0 
-8.203251551107e-04 1.323531699653e-02 0.0 
-6.830264183237e-04 1.294685227515e-02 0.0 
-5.597127789730e-04 1.270887440194e-02 0.0 
-4.506114179937e-04 1.251306980142e-02 0.0 
-3.567402415528e-04 1.235292994797e-02 0.0 
-2.766522031467e-04 1.222298534575e-02 0.0 
-2.093709677570e-04 1.211935273643e-02 0.0 
-1.554900945027e-04 1.203462538354e-02 0.0 
-1.098639818828e-04 1.197025527346e-02 0.0 
-7.217184829264e-05 1.191652854615e-02 0.0 
-4.652417147057e-05 1.187397126870e-02 0.0 
-2.929162947805e-05 1.184289980117e-02 0.0 
-1.635981624382e-05 1.181999353780e-02 0.0 
-7.196294398879e-06 1.180308335484e-02 0.0 
-1.247227122343e-06 1.179188086079e-02 0.0 
-9.904346401277e-07 1.178442684552e-02 0.0 
8.094482516178e-04 2.091028689537e-02 0.0 
8.130659162338e-04 2.139348275224e-02 0.0 
8.145277099162e-04 2.176238257777e-02 0.0 
8.217994935589e-04 2.204933313216e-02 0.0 
8.270878365838e-04 2.227212997531e-02 0.0 
8.271995912820e-04 2.244454230930e-02 0.0 
8.204145820287e-04 2.257702378265e-02 0.0 
8.061561792758e-04 2.267754686393e-02 0.0 
7.844127821556e-04 2.275275368860e-02 0.0 
7.555817208370e-04 2.280786582290e-02 0.0 
7.202325242767e-04 2.284715671662e-02 0.0 
6.790004288617e-04 2.287406721584e-02 0.0 
6.325285855675e-04 2.289144669663e-02 0.0 
5.814718644669e-04 2.290163877484e-02 0.0 
5.264751806603e-04 2.290656398679e-02 0.0 
4.681632705673e-04 2.290780025884e-02 0.0 
4.071408475781e-04 2.290663960502e-02 0.0 
3.440197263167e-04 2.290413809356e-02 0.0 
2.794612306210e-04 2.290111676655e-02 0.0 
2.142384007088e-04 2.289801794224e-02 0.0 
1.491682995897e-04 2.289418348017e-02 0.0 
7.848906667768e-05 2.288841301616e-02 0.0 
7.269061283280e-05 2.180455151106e-02 0.0 
1.444407630645e-04 2.180649546753e-02 0.0 
2.143997325924e-04 2.181032738422e-02 0.0 
2.830986549851e-04 2.181407237432e-02 0.0 
3.507092648146e-04 2.181774896321e-02 0.0 
4.171343663864e-04 2.182089368250e-02 0.0 
4.821482182891e-04 2.182267195879e-02 0.0 
5.454413744351e-04 2.182198220973e-02 0.0 
6.066900393489e-04 2.181739468194e-02 0.0 
6.656012624779e-04 2.180715564258e-02 0.0 
7.219297976758e-04 2.178910743938e-02 0.0 
7.754724639097e-04 2.176062748673e-02 0.0 
8.261037200030e-04 2.171851601362e-02 0.0 
8.738546968729e-04 2.165868092643e-02 0.0 
9.192453154549e-04 2.157624552163e-02 0.0 
9.629288178553e-04 2.146483377758e-02 0.0 
1.006694614353e-03 2.131727520029e-02 0.0 
1.052065435036e-03 2.112240125561e-02 0.0 
1.104227247377e-03 2.087080161778e-02 0.0 
1.161327738107e-03 2.054025969150e-02 0.0 
1.302930807278e-03 1.985106154964e-02 0.0 
1.222356858806e-03 2.007163795931e-02 0.0 
1.144208274806e-03 2.023856135914e-02 0.0 
1.072410336763e-03 2.036792080312e-02 0.0 
1.003775255880e-03 2.046424437331e-02 0.0 
9.375479176410e-04 2.053577571536e-02 0.0 
8.722266436975e-04 2.058692276945e-02 0.0 
8.073114036218e-04 2.062266185038e-02 0.0 
7.423843286238e-04 2.064646921558e-02 0.0 
6.772228427493e-04 2.066114856570e-02 0.0 
6.116621918309e-04 2.066899193425e-02 0.0 
5.455615614468e-04 2.067192656704e-02 0.0 
4.789716809778e-04 2.067157318427e-02 0.0 
4.119353324072e-04 2.066919055360e-02 0.0 
3.444476754239e-04 2.066564835387e-02 0.0 
2.764489586562e-04 2.066161030917e-02 0.0 
2.078674462320e-04 2.065740306226e-02 0.0 
1.386803616767e-04 2.065294977251e-02 0.0 
6.928960983145e-05 2.064606175197e-02 0.0 
7.091798887710e-05 1.943514104202e-02 0.0 
1.422786101552e-04 1.943593679654e-02 0.0 
2.136520518778e-04 1.944014003650e-02 0.0 
2.851558220720e-04 1.944447836651e-02 0.0 
3.567272495521e-04 1.944868847025e-02 0.0 
4.286391449669e-04 1.945218533247e-02 0.0 
5.009842559519e-04 1.945429746254e-02 0.0 
5.741251318821e-04 1.945404935028e-02 0.0 
6.479675114779e-04 1.945020912423e-02 0.0 
7.229351749462e-04 1.944057566087e-02 0.0 
7.994848781195e-04 1.942308563894e-02 0.0 
8.779257554708e-04 1.939528183587e-02 0.0 
9.588599331841e-04 1.935383402725e-02 0.0 
1.043121362734e-03 1.929493828800e-02 0.0 
1.130879907901e-03 1.921177745638e-02 0.0 
1.225127578844e-03 1.910119590275e-02 0.0 
1.321932058724e-03 1.895186280592e-02 0.0 
1.268623598664e-03 1.786980504322e-02 0.0 
1.168388421697e-03 1.796659384349e-02 0.0 
1.069899239670e-03 1.803477293622e-02 0.0 
9.772699010070e-04 1.808537308095e-02 0.0 
8.891281786692e-04 1.812081877204e-02 0.0 
8.045876316038e-04 1.814456058895e-02 0.0 
7.232534018104e-04 1.815975085663e-02 0.0 
6.447138361080e-04 1.816788894151e-02 0.0 
5.681465809918e-04 1.817060657732e-02 0.0 
4.937567316030e-04 1.817109539079e-02 0.0 
4.206628681773e-04 1.816898684447e-02 0.0 
3.490122684909e-04 1.816597242946e-02 0.0 
2.780019602669e-04 1.816191112567e-02 0.0 
2.079018136804e-04 1.815816976518e-02 0.0 
1.384761229614e-04 1.815408236307e-02 0.0 
6.885945743070e-05 1.814775881613e-02 0.0 
-1.205286191734e-03 1.573907665028e-02 0.0 
-7.862420221574e-04 1.696725803905e-02 0.0 
-3.129458472575e-04 1.818990842062e-02 0.0 
2.006336707833e-04 1.925175970835e-02 0.0 
7.038191608371e-04 2.001463364013e-02 0.0 
1.106437844578e-03 2.022560415529e-02 0.0 
1.341081799137e-03 1.987565028805e-02 0.0 
1.426576824119e-03 1.919217504953e-02 0.0 
1.412469883865e-03 1.827461630156e-02 0.0 
1.329623768042e-03 1.717771170160e-02 0.0 
-1.998001154131e-04 1.670200969867e-02 0.0 
3.411943538361e-04 1.196201101091e-03 0.0 
-1.418703100396e-04 1.213266361541e-02 0.0 
-4.997818330679e-04 1.303932289669e-02 0.0 
2.240349409847e-04 1.123548274779e-03 0.0 
8.193110549030e-04 1.863236514344e-02 0.0 
7.310393290830e-05 8.752944630988e-03 0.0 
4.185631437887e-04 1.290885272620e-03 0.0 
1.485124968817e-03 1.920712927208e-02 0.0 
4.329446789576e-04 1.365231859708e-03 0.0 
1.589499920495e-03 1.806001217667e-02 0.0 
1.259959155799e-04 1.006631858617e-03 0.0 
-1.597046036371e-05 1.186819185511e-02 0.0 
3.985558906267e-04 1.496568425829e-03 0.0 
1.384248040240e-03 1.592530537009e-02 0.0 
4.936337670574e-05 1.065684715569e-02 0.0 
7.716513161705e-05 6.839639776929e-03 0.0 
3.495047435272e-04 1.630907941828e-03 0.0 
2.340364421747e-04 1.613473727676e-03 0.0 
6.613690478025e-05 1.660729126506e-03 0.0 
1.216930984445e-04 1.797121766524e-03 0.0 
1.639522380894e-04 1.598612639949e-03 0.0 
1.118630777639e-03 1.543563207643e-02 0.0 
7.240500687421e-04 1.553646745815e-02 0.0 
4.730252610497e-04 1.551546931264e-02 0.0 
4.547032597281e-05 9.949861353234e-03 0.0 
7.553524098241e-05 1.079903467159e-03 0.0 
-8.069220611436e-04 1.424358112453e-02 0.0 
7.110932563722e-06 1.179361616484e-02 0.0 
5.377986084251e-05 4.060707418158e-03 0.0 
2.423763157186e-04 1.560308144640e-02 0.0 
2.570558126069e-05 1.148602364320e-02 0.0 
3.259705493751e-04 1.836285724358e-03 0.0 
4.002871859575e-04 1.223508270817e-03 0.0 
4.178851545493e-04 1.412793581579e-03 0.0 
4.090517531387e-04 1.315542909568e-03 0.0 
2.796939501149e-04 1.105094505010e-03 0.0 
-3.205126647363e-04 1.255654785249e-02 0.0 
9.110277346071e-04 1.558306309546e-02 0.0 
2.030891349665e-04 1.262507871747e-03 0.0 
3.333919158038e-05 6.622583413968e-03 0.0 
-6.527357154567e-05 1.196989367902e-02 0.0 
6.520623136165e-05 9.836476113219e-03 0.0 
3.245426164266e-05 1.351945577588e-03 0.0 
1.242841767982e-03 1.908866172192e-02 0.0 
3.114634475628e-04 1.776370430423e-02 0.0 
1.589194268633e-03 1.879885617717e-02 0.0 
1.513520583759e-03 1.708516242951e-02 0.0 
-7.212619833866e-04 1.563070061137e-02 0.0 
5.545143289486e-05 1.298213493339e-02 0.0 
3.484332715060e-05 8.519320605283e-04 0.0 
3.074329834014e-06 1.177611719232e-02 0.0 
1.793393967906e-05 3.031267553410e-03 0.0 
1.322191849026e-03 1.526707216231e-02 0.0 
1.413704950598e-03 1.460125642974e-02 0.0 
1.297156208467e-03 1.402120826205e-02 0.0 
1.404327755600e-03 1.323101035400e-02 0.0 
1.288281673272e-03 1.249832940248e-02 0.0 
1.367273600172e-03 1.177095633244e-02 0.0 
1.496527092471e-03 1.248874338183e-02 0.0 
1.437685194524e-03 1.102609836776e-02 0.0 
1.578038079799e-03 1.174110893129e-02 0.0 
1.234682908739e-03 1.099807999100e-02 0.0 
1.494643685589e-03 1.026610776779e-02 0.0 
1.645209398968e-03 1.097633191535e-02 0.0 
1.535461649988e-03 9.497305532204e-03 0.0 
1.694029384653e-03 1.019813460644e-02 0.0 
1.788759403901e-03 1.163889467383e-02 0.0 
1.844601752066e-03 1.085481604251e-02 0.0 
1.922060155163e-03 1.224479513807e-02 0.0 
1.983228568586e-03 1.145081608681e-02 0.0 
1.877783592593e-03 1.006848985024e-02 0.0 
2.019495772227e-03 1.065759895200e-02 0.0 
2.106618494972e-03 1.198359231536e-02 0.0 
2.143338942318e-03 1.118203602310e-02 0.0 
2.210736986198e-03 1.244622770110e-02 0.0 
2.245243568049e-03 1.163368217070e-02 0.0 
2.292139399681e-03 1.283712947744e-02 0.0 
2.321862396841e-03 1.201582355972e-02 0.0 
2.250129302938e-03 1.083560178707e-02 0.0 
2.321375424686e-03 1.121804367933e-02 0.0 
2.368748209299e-03 1.232560710460e-02 0.0 
2.361796859916e-03 1.153265579240e-02 0.0 
2.382423225434e-03 1.256484065433e-02 0.0 
2.368749706620e-03 1.178140296434e-02 0.0 
2.326986023395e-03 1.077018116822e-02 0.0 
2.328498938317e-03 1.103599804807e-02 0.0 
2.340633651451e-03 1.197083767591e-02 0.0 
2.296187072110e-03 1.124796401126e-02 0.0 
2.277193462666e-03 1.210677559994e-02 0.0 
2.230726438320e-03 1.141125192704e-02 0.0 
2.180022084981e-03 1.219451239556e-02 0.0 
2.133384251635e-03 1.153270054495e-02 0.0 
2.164223582176e-03 1.075191483482e-02 0.0 
2.068387723770e-03 1.090651056585e-02 0.0 
2.006996203616e-03 1.162077645903e-02 0.0 
1.946222450967e-03 1.103283213206e-02 0.0 
1.987364705084e-03 1.031941775014e-02 0.0 
1.870536699016e-03 1.048459577967e-02 0.0 
1.892774976326e-03 9.767250947482e-03 0.0 
1.782413652097e-03 9.969965218957e-03 0.0 
1.734943748059e-03 1.062464372007e-02 0.0 
1.654770926887e-03 1.014771778340e-02 0.0 
1.684307188705e-03 9.482908114589e-03 0.0 
1.564705736257e-03 9.700844475854e-03 0.0 
1.513038589134e-03 1.031183624595e-02 0.0 
1.433565605597e-03 9.897920148743e-03 0.0 
1.467756724522e-03 9.273025391794e-03 0.0 
1.346020316510e-03 9.506179533247e-03 0.0 
1.294373587450e-03 1.008298234864e-02 0.0 
1.217534724364e-03 9.723178424928e-03 0.0 
1.253546523514e-03 9.123285556301e-03 0.0 
1.134334043659e-03 9.376784294119e-03 0.0 
1.085025431163e-03 9.930243049227e-03 0.0 
1.012379473344e-03 9.612717143159e-03 0.0 
1.046969375271e-03 9.033965035865e-03 0.0 
9.340541358314e-04 9.302882081091e-03 0.0 
9.555484811569e-04 8.697058259254e-03 0.0 
8.880419328870e-04 9.842815969596e-03 0.0 
8.199588862706e-04 9.558691053255e-03 0.0 
7.653992168894e-04 1.006545270013e-02 0.0 
7.073123699647e-04 9.803030015442e-03 0.0 
2.267033492491e-03 1.003976560538e-02 0.0 
6.488993343836e-04 1.027410795149e-02 0.0 
6.928332394593e-04 1.050594490020e-02 0.0 
5.988289539977e-04 1.003539855808e-02 0.0 
6.430454666666e-04 9.539547637521e-03 0.0 
5.389328180219e-04 1.047160984737e-02 0.0 
4.961218971196e-04 1.025518304688e-02 0.0 
4.373756141789e-04 1.065793933048e-02 0.0 
2.200582440059e-03 1.293138310537e-02 0.0 
1.885610439477e-03 9.283507742311e-03 0.0 
4.008277050259e-04 1.046264142940e-02 0.0 
3.458129282724e-04 1.083263642484e-02 0.0 
3.678818842861e-04 1.100396671155e-02 0.0 
2.825886146266e-04 1.114620180856e-02 0.0 
1.165446073102e-03 1.174353863581e-02 0.0 
1.098567469393e-03 1.018891031765e-02 0.0 
1.040880814504e-03 1.094950874588e-02 0.0 
9.609143742675e-04 9.353490600391e-03 0.0 
9.144281367136e-04 1.011477160712e-02 0.0 
2.647969501121e-04 1.099513259414e-02 0.0 
1.370937657948e-03 8.712645751708e-03 0.0 
9.973881844193e-04 8.569355761695e-03 0.0 
2.146793017658e-03 1.326799404922e-02 0.0 
2.366528060335e-03 1.338439107589e-02 0.0 
1.980928121329e-03 9.537921901239e-03 0.0 
4.460440580705e-04 1.003517165450e-02 0.0 
3.562699165370e-04 1.026304455481e-02 0.0 
3.897174556088e-04 9.810196529824e-03 0.0 
1.054913691157e-03 8.386968402561e-03 0.0 
9.517460746923e-04 8.025784209293e-03 0.0 
1.034794523313e-03 7.671717912912e-03 0.0 
9.221321852445e-04 7.287187003574e-03 0.0 
9.862173100224e-04 6.887822851031e-03 0.0 
8.665828500065e-04 6.479674811690e-03 0.0 
8.106351681781e-04 6.903338233030e-03 0.0 
7.501587092767e-04 6.070369767123e-03 0.0 
7.015183579004e-04 6.517496618760e-03 0.0 
9.092223181820e-04 6.034264647249e-03 0.0 
1.036990271965e-03 6.466469898027e-03 0.0 
6.381715276781e-04 5.658384849154e-03 0.0 
5.959317708020e-04 6.127127031555e-03 0.0 
5.317393398592e-04 5.240946817741e-03 0.0 
4.950190405974e-04 5.730729639494e-03 0.0 
5.426632865401e-04 6.575665566505e-03 0.0 
4.469399528292e-04 6.200000197435e-03 0.0 
4.807962293881e-04 7.004369256091e-03 0.0 
1.869422689566e-03 8.981366537716e-03 0.0 
1.927843623308e-03 8.686682339312e-03 0.0 
1.801020402921e-03 8.126005776693e-03 0.0 
1.828154997269e-03 7.765679949185e-03 0.0 
1.687723400246e-03 7.200274928294e-03 0.0 
1.682171744230e-03 6.775299613192e-03 0.0 
1.529416432406e-03 6.203682877419e-03 0.0 
1.540424495944e-03 6.656058985507e-03 0.0 
1.558646749074e-03 8.713861608116e-03 0.0 
1.855961199680e-03 1.167929004150e-02 0.0 
1.893311747349e-03 1.226881349214e-02 0.0 
1.714850477834e-03 1.226060774164e-02 0.0 
1.724966952493e-03 1.284954279898e-02 0.0 
1.521186076925e-03 1.277559299040e-02 0.0 
1.499303248469e-03 1.336638549913e-02 0.0 
1.272510188110e-03 1.322928382843e-02 0.0 
1.306966233055e-03 1.268989586733e-02 0.0 
1.040640441534e-03 1.308697918648e-02 0.0 
1.088589674778e-03 1.260161411227e-02 0.0 
8.119649871827e-04 1.294613113388e-02 0.0 
8.725716410757e-04 1.251787919490e-02 0.0 
2.226320325949e-03 1.005859269963e-02 0.0 
1.826736652636e-03 7.367157071574e-03 0.0 
1.646834971746e-03 6.310025911628e-03 0.0 
1.794516089142e-03 6.925805439194e-03 0.0 
2.898757064747e-04 1.129403148889e-02 0.0 
3.996979696742e-04 5.326472698965e-03 0.0 
9.355402067697e-04 5.564498253259e-03 0.0 
1.071732876004e-03 6.028599608503e-03 0.0 
1.371595185812e-03 5.649879287419e-03 0.0 
2.095825270258e-04 1.127657505319e-02 0.0 
1.214076917248e-03 1.382280368757e-02 0.0 
1.450232688714e-03 1.401665858078e-02 0.0 
8.250904156046e-04 8.477151910194e-03 0.0 
7.898402344709e-04 9.246830537267e-03 0.0 
9.424530608209e-04 5.069460948151e-03 0.0 
1.947933037569e-04 1.114452035735e-02 0.0 
6.666870916055e-04 5.167920341863e-03 0.0 
7.242065025547e-04 1.342572828212e-02 0.0 
3.557461257713e-04 5.816423399406e-03 0.0 
3.108419728684e-04 4.913830354223e-03 0.0 
7.443290943052e-04 7.304972254336e-03 0.0 
1.580012563805e-03 5.800459603002e-03 0.0 
1.734043755320e-03 6.455862661234e-03 0.0 
1.116240240472e-03 1.216016724702e-02 0.0 
9.125136144896e-04 1.212993879806e-02 0.0 
6.662739711391e-04 1.244151280258e-02 0.0 
7.253986762524e-04 1.208821242498e-02 0.0 
9.353014695769e-04 1.176899340446e-02 0.0 
7.551917721955e-04 1.178536962520e-02 0.0 
5.478135307462e-04 1.206692225953e-02 0.0 
5.888392271404e-04 1.180413361968e-02 0.0 
7.706604975934e-04 1.149726858442e-02 0.0 
6.152389297907e-04 1.155336324257e-02 0.0 
4.390504497277e-04 1.182720577564e-02 0.0 
4.753383387891e-04 1.160911077742e-02 0.0 
3.396609830279e-04 4.381454786126e-03 0.0 
4.915095869010e-04 1.323378269525e-02 0.0 
1.838882849521e-03 1.302950241649e-02 0.0 
8.037360626481e-04 4.590026870648e-03 0.0 
1.329108096682e-03 5.150761993634e-03 0.0 
6.932755991194e-04 7.569923273642e-03 0.0 
6.687743166513e-04 8.349094832765e-03 0.0 
7.464703144847e-04 1.001118119159e-02 0.0 
6.352595476695e-04 9.118725169404e-03 0.0 
5.529963984828e-04 7.422595957023e-03 0.0 
5.290325555261e-04 8.202871136275e-03 0.0 
5.946785870538e-04 9.878936283090e-03 0.0 
4.971394715484e-04 8.972180742234e-03 0.0 
5.485587056610e-04 1.062618506404e-02 0.0 
4.588903383400e-04 9.728887287554e-03 0.0 
4.054015010694e-04 8.042381904777e-03 0.0 
3.744435716724e-04 8.811434624997e-03 0.0 
4.156145527480e-04 1.047377974674e-02 0.0 
3.374987438683e-04 9.568406593765e-03 0.0 
3.681945415018e-04 1.120512074481e-02 0.0 
2.955392665381e-04 1.031242515879e-02 0.0 
2.653105295891e-04 8.643834848156e-03 0.0 
1.514211144904e-04 1.138526040130e-02 0.0 
1.389153720192e-03 6.130030015473e-03 0.0 
1.211329593325e-03 5.109887908531e-03 0.0 
3.068468694130e-04 1.005706222269e-02 0.0 
3.315273969863e-04 9.578240245719e-03 0.0 
4.133902063147e-04 9.296991640659e-03 0.0 
3.418922115169e-04 9.040595228927e-03 0.0 
2.277866540574e-04 9.408835645307e-03 0.0 
1.994806470587e-04 7.702202368721e-03 0.0 
1.128062713538e-03 1.447785830808e-02 0.0 
1.370072077956e-03 1.473231846447e-02 0.0 
7.065462644068e-04 6.781088357900e-03 0.0 
2.698553069366e-04 5.423814648342e-03 0.0 
3.025000452554e-04 6.285705484018e-03 0.0 
2.351734896464e-03 1.354221587630e-02 0.0 
2.311415746299e-03 1.438918618549e-02 0.0 
2.265659081879e-03 1.446600745265e-02 0.0 
2.194763961804e-03 1.536082503895e-02 0.0 
2.236277253378e-03 1.527376269364e-02 0.0 
2.111988529836e-03 1.535395424172e-02 0.0 
1.167966968796e-03 6.915909922084e-03 0.0 
3.207823546435e-04 7.092296132499e-03 0.0 
3.796201394738e-04 1.117323561043e-02 0.0 
2.849947166963e-04 1.144038761154e-02 0.0 
2.295873220605e-04 4.491150925751e-03 0.0 
1.524773968748e-03 7.075755594653e-03 0.0 
2.130878645041e-03 9.603909611522e-03 0.0 
2.083371886368e-03 8.840719871949e-03 0.0 
1.963171714556e-03 8.314745672437e-03 0.0 
1.891496477202e-03 7.564506929254e-03 0.0 
1.745778631542e-03 6.968350872010e-03 0.0 
1.648497468781e-03 6.229208312586e-03 0.0 
1.795224152599e-03 6.835179153816e-03 0.0 
1.479794762922e-03 5.237513351894e-03 0.0 
1.527483757322e-03 5.506249640740e-03 0.0 
2.536271631700e-04 1.105797108065e-02 0.0 
1.961295546118e-03 7.992727114035e-03 0.0 
7.713721459840e-04 1.122487960149e-02 0.0 
1.550313147485e-04 1.149376179565e-02 0.0 
3.045070417405e-04 1.185724310710e-02 0.0 
1.363818322986e-04 1.127846054039e-02 0.0 
1.706743344198e-04 1.100634576233e-02 0.0 
7.809483336420e-04 4.041862626160e-03 0.0 
1.476308674249e-03 5.564294393341e-03 0.0 
1.576723480669e-03 6.313607156252e-03 0.0 
2.086952519173e-03 1.629205505584e-02 0.0 
2.124164392236e-03 1.618139209177e-02 0.0 
1.314563496516e-03 4.605308840012e-03 0.0 
9.755933978978e-04 1.171051766230e-02 0.0 
6.420785097598e-04 1.150212190282e-02 0.0 
5.843067934824e-04 1.222437664042e-02 0.0 
1.002899477149e-04 1.151054620503e-02 0.0 
2.518301563102e-04 1.204440695566e-02 0.0 
4.445114598580e-04 6.472484706565e-03 0.0 
1.667953777210e-03 1.420112809921e-02 0.0 
1.594888772390e-03 1.496648174853e-02 0.0 
3.606645913487e-04 1.370665342090e-02 0.0 
1.304071836505e-04 1.346637436691e-02 0.0 
1.681268876642e-04 8.462049407989e-03 0.0 
1.428416592015e-04 6.740868319991e-03 0.0 
4.244894242886e-04 8.723507887643e-03 0.0 
3.462417933549e-04 8.440101975995e-03 0.0 
9.268335817113e-04 4.542821798163e-03 0.0 
3.530450372649e-04 1.166247655776e-02 0.0 
1.636999365881e-04 5.942098048851e-03 0.0 
1.380358073459e-03 6.575280862522e-03 0.0 
1.484998920408e-03 7.464617121795e-03 0.0 
2.615875594126e-04 9.342933753956e-03 0.0 
1.004246850969e-03 1.520403881400e-02 0.0 
7.460073489301e-04 1.488086878727e-02 0.0 
9.278774255750e-04 1.113164337870e-02 0.0 
4.951361720893e-04 1.140098565585e-02 0.0 
1.139914151177e-04 1.115830155514e-02 0.0 
7.324835026153e-04 3.462035413778e-03 0.0 
4.492818716140e-04 5.672171718495e-03 0.0 
1.676332313089e-03 6.127493763656e-03 0.0 
1.914189435585e-03 7.387875390452e-03 0.0 
1.386026620919e-03 4.805030174970e-03 0.0 
2.026135528905e-04 1.187065001148e-02 0.0 
6.418247369363e-04 3.540306027776e-03 0.0 
1.907996282643e-04 5.021226630424e-03 0.0 
1.294464535140e-03 4.910558737409e-03 0.0 
1.386688323134e-03 5.602330790926e-03 0.0 
1.861402414391e-03 1.436159823108e-02 0.0 
1.800556448430e-03 1.516279206154e-02 0.0 
1.488310808897e-03 1.580104465695e-02 0.0 
1.698788036572e-03 1.603440260196e-02 0.0 
1.619964029891e-03 1.317043402769e-02 0.0 
2.028989355363e-03 1.447632531197e-02 0.0 
1.953857211632e-03 1.358706062564e-02 0.0 
1.845984076185e-03 1.436957481964e-02 0.0 
1.939792337296e-03 1.488101171042e-02 0.0 
2.236067296661e-03 1.511107352002e-02 0.0 
2.118536651871e-03 1.598893199396e-02 0.0 
1.909595382650e-03 1.291053960317e-02 0.0 
2.043813946870e-03 9.276570928374e-03 0.0 
5.009139551501e-04 8.999607296832e-03 0.0 
5.745863365611e-04 7.349329047304e-03 0.0 
1.147345858214e-03 8.059164037698e-03 0.0 
3.372493915214e-04 6.300275443709e-03 0.0 
2.543779985250e-04 5.317165726118e-03 0.0 
4.451249002836e-04 1.207849058093e-02 0.0 
3.894160119256e-04 1.278318311987e-02 0.0 
2.064011891931e-04 1.152905704181e-02 0.0 
1.864575611592e-04 1.165316955647e-02 0.0 
8.615356839103e-04 8.362388141812e-03 0.0 
6.714268587826e-04 4.111320568369e-03 0.0 
5.698081343767e-04 5.837335005379e-03 0.0 
5.580310876306e-04 5.029358426056e-03 0.0 
7.060132111098e-04 5.981084284538e-03 0.0 
8.852848039628e-04 3.982474900235e-03 0.0 
1.686653550202e-03 1.171759553768e-02 0.0 
1.748247223435e-03 8.454027937797e-03 0.0 
2.762432551720e-04 1.306350846637e-02 0.0 
2.237175747436e-03 9.703224311893e-03 0.0 
1.222100327778e-04 1.170919190759e-02 0.0 
1.727218861932e-03 8.646026963376e-03 0.0 
1.572827204734e-04 4.058014687786e-03 0.0 
1.820277651555e-04 3.485748205206e-03 0.0 
1.178857150990e-03 3.980885589410e-03 0.0 
1.505566074225e-03 1.524590363539e-02 0.0 
2.157765936414e-03 8.984718203103e-03 0.0 
2.185320951414e-03 9.345283925513e-03 0.0 
1.810152720765e-03 1.565392814862e-02 0.0 
1.880239682765e-03 1.612269794463e-02 0.0 
2.017903894235e-03 1.532442269507e-02 0.0 
1.932283229653e-03 1.653087585193e-02 0.0 
9.036215710102e-04 1.084254967657e-02 0.0 
7.580166143199e-04 1.096893402998e-02 0.0 
1.140226753100e-03 4.057126196439e-03 0.0 
1.216504828184e-03 4.161599230454e-03 0.0 
1.090013744916e-03 4.176814979711e-03 0.0 
1.179759993004e-03 4.828949243332e-03 0.0 
9.982789324148e-04 3.344203146514e-03 0.0 
1.139966122887e-03 3.987642313378e-03 0.0 
1.377689179587e-04 1.086064450099e-02 0.0 
1.978064847375e-03 1.707674743955e-02 0.0 
3.408354155154e-04 4.686371928295e-03 0.0 
1.726232363765e-03 1.513361909129e-02 0.0 
5.158477145071e-04 3.065954643897e-03 0.0 
5.478725792465e-04 3.632302059223e-03 0.0 
-7.310248049987e-05 1.325708396747e-02 0.0 
8.700618404036e-05 1.287787913310e-02 0.0 
1.121352181310e-04 4.988858612397e-03 0.0 
1.343987576739e-03 1.669119799291e-02 0.0 
1.551752541821e-03 1.696018554950e-02 0.0 
1.106380923586e-03 1.635967107303e-02 0.0 
2.380490276879e-05 1.827557596941e-03 0.0 
1.045784857905e-04 1.561699552940e-02 0.0 
1.182186763179e-04 3.022491541578e-03 0.0 
2.200120541348e-03 1.485102459012e-02 0.0 
1.196903492479e-04 4.094162751007e-03 0.0 
2.058715535441e-03 8.301220498924e-03 0.0 
2.296740205916e-03 1.364728475740e-02 0.0 
1.077857875028e-03 5.047373177266e-03 0.0 
9.129745546603e-05 5.947948704547e-03 0.0 
6.718072768159e-05 3.940420858386e-03 0.0 
6.707858480933e-04 1.304283991607e-02 0.0 
6.062752311904e-04 1.376450332935e-02 0.0 
7.380074927588e-04 1.235321040994e-02 0.0 
6.138707048526e-04 1.396158976320e-02 0.0 
1.587090717892e-04 1.432261510047e-02 0.0 
2.443599557760e-04 6.122684560251e-03 0.0 
2.755481299851e-04 1.047742785252e-02 0.0 
2.272212964804e-04 1.024474592218e-02 0.0 
3.747019380043e-04 1.149434448994e-02 0.0 
4.969136246705e-04 1.120918882751e-02 0.0 
5.082091526989e-04 8.393532596315e-03 0.0 
5.905764738702e-04 8.688988922108e-03 0.0 
1.704298427184e-03 7.859738756497e-03 0.0 
1.529071491006e-03 7.177503166162e-03 0.0 
2.009299435736e-03 9.088778594725e-03 0.0 
1.348044447101e-03 6.989311716264e-03 0.0 
1.424360980574e-03 7.825385590463e-03 0.0 
1.551171525391e-03 8.280076649472e-03 0.0 
2.578058978687e-04 4.560889382761e-03 0.0 
1.714751593971e-04 3.394246710529e-03 0.0 
1.055374925300e-03 1.071983764505e-02 0.0 
1.091400036460e-03 1.104148514442e-02 0.0 
8.660995984726e-04 1.057790496190e-02 0.0 
3.257590973440e-04 3.898429153888e-03 0.0 
1.308755334429e-04 2.438477895914e-03 0.0 
1.941144381141e-04 2.931667130350e-03 0.0 
9.011990299479e-05 1.180774740955e-02 0.0 
1.540229869327e-04 1.177584379443e-02 0.0 
5.812984428103e-04 1.560761113228e-02 0.0 
3.051118903366e-04 1.523028223518e-02 0.0 
5.375155603692e-04 4.283110939606e-03 0.0 
6.907135181370e-04 5.186323825977e-03 0.0 
3.800763435402e-04 3.229100012706e-03 0.0 
8.188675470388e-05 1.104614108174e-02 0.0 
1.792466343112e-03 6.675166968389e-03 0.0 
6.727942443724e-04 2.908479946478e-03 0.0 
8.338416774894e-04 3.454148363263e-03 0.0 
4.926813618864e-04 2.232990560046e-03 0.0 
1.358406668385e-03 4.671426622504e-03 0.0 
1.027567828454e-03 3.372225001700e-03 0.0 
1.036811002353e-03 3.418315540411e-03 0.0 
-2.560270713846e-04 1.363369947353e-02 0.0 
5.093167153934e-05 4.698175620119e-03 0.0 
4.632663577752e-04 1.362577683011e-02 0.0 
-3.880491446727e-04 1.342060794676e-02 0.0 
4.007296701257e-04 1.435503067382e-02 0.0 
3.344189789125e-04 1.348435119010e-02 0.0 
3.468056601613e-04 1.506313995043e-02 0.0 
6.736668937870e-05 1.129611579479e-02 0.0 
7.645684278093e-04 1.411171422412e-02 0.0 
8.417032236067e-04 1.324123382393e-02 0.0 
2.142694141854e-05 1.193217829781e-02 0.0 
2.202301236872e-04 2.901659183734e-03 0.0 
4.648468785717e-05 1.182811762695e-02 0.0 
7.757101061224e-05 1.175009719091e-02 0.0 
3.962412721121e-04 2.548462104782e-03 0.0 
4.334784657901e-04 3.144658783598e-03 0.0 
2.882994014601e-04 2.048430110098e-03 0.0 
3.370474303818e-04 2.710300719782e-03 0.0 
4.527027600169e-04 3.737543255962e-03 0.0 
3.527717100182e-04 3.266299206773e-03 0.0 
5.441196774970e-04 1.457529243232e-02 0.0 
2.315090382272e-04 2.054278650584e-03 0.0 
2.616936928899e-04 2.763929259085e-03 0.0 
1.525406642792e-04 1.580898087941e-03 0.0 
1.768892128587e-03 1.731190505878e-02 0.0 
1.856863414928e-03 1.623104505891e-02 0.0 
1.710530921273e-03 1.719134375115e-02 0.0 
1.343468428438e-03 1.799681604098e-02 0.0 
7.972824494904e-04 3.059521005434e-03 0.0 
9.787451225521e-04 4.088027243866e-03 0.0 
1.190484235001e-04 4.587487861405e-03 0.0 
1.361069859199e-04 5.509916457573e-03 0.0 
2.764219139090e-04 1.428405290279e-02 0.0 
2.016252714930e-04 1.434512403675e-02 0.0 
2.197156082762e-04 1.296280947015e-02 0.0 
1.585021741890e-04 1.313281532286e-02 0.0 
1.693560544167e-04 1.173264934635e-02 0.0 
1.089798139930e-04 1.191314789478e-02 0.0 
1.289620116511e-04 1.046893240089e-02 0.0 
8.333880912476e-04 2.717522226058e-03 0.0 
8.869556629530e-04 1.724533099174e-02 0.0 
1.669236508518e-03 1.640950621742e-02 0.0 
8.093830562296e-04 2.717918711398e-03 0.0 
9.862506629018e-04 3.486658524249e-03 0.0 
1.971048582798e-03 1.685031700315e-02 0.0 
1.796781026639e-03 1.797812204611e-02 0.0 
4.263456323937e-04 2.282192157528e-03 0.0 
2.059418925095e-03 1.369596489829e-02 0.0 
1.650267582468e-04 1.859860410740e-03 0.0 
-8.983565145081e-04 1.476427981850e-02 0.0 
-3.793551716650e-04 1.444400421090e-02 0.0 
2.192542469965e-03 1.372521288335e-02 0.0 
2.079031130332e-03 1.569811691118e-02 0.0 
1.992794456747e-03 1.632216048138e-02 0.0 
1.866879870085e-03 1.724844424121e-02 0.0 
1.234272252486e-03 6.071956352896e-03 0.0 
1.022843178918e-04 1.190656667296e-02 0.0 
8.500544749708e-04 1.598993559069e-02 0.0 
1.873357166231e-04 1.030585023854e-02 0.0 
3.626966905454e-04 1.637437264335e-02 0.0 
6.242633060183e-05 5.012753534721e-03 0.0 
2.068978208709e-03 1.294355323068e-02 0.0 
2.289981602369e-03 1.399828747448e-02 0.0 
1.256393015646e-03 1.551080805746e-02 0.0 
1.983914146573e-03 1.528462868094e-02 0.0 
1.713322523505e-03 1.241518648482e-02 0.0 
1.517970466959e-03 1.390178362478e-02 0.0 
1.622239210340e-03 1.455319712149e-02 0.0 
2.049815424051e-03 1.225528348838e-02 0.0 
1.947692913791e-03 1.721042064879e-02 0.0 
1.682520044077e-03 1.826216212239e-02 0.0 
2.043287769666e-03 1.279188564952e-02 0.0 
8.611447449802e-04 6.900667078410e-03 0.0 
8.557764349414e-04 6.097988911604e-03 0.0 
6.624147585803e-04 4.434942833185e-03 0.0 
8.329060917527e-04 5.306257109148e-03 0.0 
1.026780630663e-03 6.986633914311e-03 0.0 
1.014628599664e-03 6.191224491089e-03 0.0 
7.903222472533e-04 4.534713689825e-03 0.0 
9.822467174430e-04 5.399759448849e-03 0.0 
6.651645958340e-04 3.408961585779e-03 0.0 
9.185534290075e-04 4.575651627431e-03 0.0 
1.178129225181e-03 6.272388024951e-03 0.0 
1.135401568046e-03 5.517067960715e-03 0.0 
8.734665615758e-04 4.002542456291e-03 0.0 
1.377683211322e-03 7.184576589515e-03 0.0 
6.387325701768e-04 2.054726091041e-03 0.0 
2.299127051519e-03 1.286437015251e-02 0.0 
-5.065116917838e-05 1.393612442249e-02 0.0 
-1.604231783962e-04 1.484576604449e-02 0.0 
2.230191650923e-03 1.366950979150e-02 0.0 
3.252433759755e-04 1.658870192742e-03 0.0 
2.647864769801e-04 1.653670652029e-03 0.0 
1.709462142278e-03 1.349761695519e-02 0.0 
4.094281276886e-04 1.450431372911e-03 0.0 
1.736243946908e-03 1.380023508390e-02 0.0 
9.670411837153e-04 1.362766226598e-02 0.0 
4.322299242053e-04 1.406109459093e-03 0.0 
1.020319697021e-03 7.777934505706e-03 0.0 
1.181126557900e-03 8.650737658266e-03 0.0 
1.146094356359e-03 9.426177472050e-03 0.0 
2.027134446086e-04 1.555028305708e-03 0.0 
8.031183887613e-04 1.163381844171e-02 0.0 
3.969340232684e-04 1.215153934900e-03 0.0 
1.959065589576e-03 8.356676392582e-03 0.0 
2.078735670881e-03 8.991255938683e-03 0.0 
2.145705877862e-03 9.908065614449e-03 0.0 
1.200305997750e-03 7.084938098994e-03 0.0 
3.584707930423e-04 1.198286655577e-03 0.0 
6.435772947693e-04 2.275356504448e-03 0.0 
6.022625498945e-04 2.240292946409e-03 0.0 
8.966603980991e-04 3.367499224586e-03 0.0 
3.126009113266e-04 1.156519993470e-03 0.0 
3.394119181105e-04 1.458947717184e-03 0.0 
3.425501133740e-04 1.367831107313e-03 0.0 
9.386399010453e-04 1.144095897302e-02 0.0 
1.115764677168e-03 1.138331805759e-02 0.0 
1.258871024419e-03 1.094833084987e-02 0.0 
1.295511329547e-03 1.132954504613e-02 0.0 
1.124545955945e-03 1.175649255502e-02 0.0 
1.316526878705e-03 1.174448357133e-02 0.0 
1.472301914366e-03 1.127690543826e-02 0.0 
1.320193482594e-03 1.219857815389e-02 0.0 
1.272670495764e-03 5.627370543853e-03 0.0 
2.574703284539e-04 1.086034543944e-03 0.0 
1.107776262789e-03 7.299570269728e-03 0.0 
1.229644310328e-03 7.724278103027e-03 0.0 
1.257749048063e-03 8.458621818121e-03 0.0 
5.740447464187e-04 9.270905229379e-03 0.0 
6.704074591831e-04 8.981906249604e-03 0.0 
6.797779343257e-04 8.362347045183e-03 0.0 
4.798680791111e-04 9.548075181516e-03 0.0 
2.010339957289e-03 8.101738485381e-03 0.0 
2.348383299355e-04 1.083642101379e-03 0.0 
1.619454351129e-03 7.949096869715e-03 0.0 
7.471360951082e-04 9.272368634291e-03 0.0 
1.013610131825e-03 1.551543203610e-02 0.0 
1.066194686751e-03 1.424173937408e-02 0.0 
1.171896716081e-03 1.415960576900e-02 0.0 
1.097974300455e-03 1.272249542617e-02 0.0 
9.481358677302e-04 1.411133866818e-02 0.0 
4.247283715049e-04 8.090239567928e-03 0.0 
3.411422868160e-04 7.779949269994e-03 0.0 
2.666234591407e-04 8.149504292990e-03 0.0 
2.582425442494e-04 7.461360372647e-03 0.0 
1.866465065212e-04 7.848129148762e-03 0.0 
1.927794526589e-04 8.486943005335e-03 0.0 
1.751443768230e-04 7.133254178501e-03 0.0 
1.079917941483e-04 7.618733999141e-03 0.0 
8.149764450034e-04 1.557282312463e-02 0.0 
-3.993609412625e-04 1.277623064259e-02 0.0 
-1.391816203658e-04 1.258671438848e-02 0.0 
-1.045764638094e-04 1.239594105307e-02 0.0 
6.862602873937e-05 1.238394388667e-02 0.0 
7.429227500472e-05 1.257804598817e-02 0.0 
3.054802715809e-04 1.230781237153e-02 0.0 
2.906403348499e-04 1.255662713674e-02 0.0 
-1.813637211548e-04 1.283335047400e-02 0.0 
-2.512797691871e-04 1.238475071581e-02 0.0 
-6.812381466657e-05 1.224385245868e-02 0.0 
-1.915565375546e-04 1.224450372574e-02 0.0 
-4.382659262972e-05 1.212529122862e-02 0.0 
1.136525429759e-04 1.205975607563e-02 0.0 
2.714211802397e-04 1.157967475360e-02 0.0 
6.724316770495e-05 1.226512536095e-03 0.0 
7.034451398931e-05 9.329697360085e-03 0.0 
1.337263792086e-04 9.593926970782e-03 0.0 
1.219719522401e-04 1.005277114718e-02 0.0 
1.970498729778e-04 9.817409256446e-03 0.0 
1.345114078084e-04 9.109671125830e-03 0.0 
5.783261916991e-05 1.027711692591e-02 0.0 
1.093089189463e-04 1.042176686490e-02 0.0 
6.707119756088e-06 1.178131386762e-02 0.0 
1.819556057373e-05 1.172833597499e-02 0.0 
6.543944149859e-06 1.173046493721e-02 0.0 
2.616738641535e-05 1.163248743685e-02 0.0 
4.174757556116e-05 1.164262403785e-02 0.0 
2.734360543334e-05 1.173620291249e-02 0.0 
3.391026336604e-05 1.175105057212e-02 0.0 
3.825525136306e-06 1.181239257629e-02 0.0 
3.808500794947e-05 1.177138095117e-02 0.0 
7.370454567434e-05 1.166346074945e-02 0.0 
-3.218060316401e-06 1.183690296679e-02 0.0 
4.081480465495e-05 8.279119073140e-03 0.0 
7.774822118519e-05 7.426208103478e-03 0.0 
2.032332585548e-04 1.133574883032e-03 0.0 
6.300485034084e-04 1.547518058733e-02 0.0 
-9.714951906161e-05 1.204246405583e-02 0.0 
6.204707332618e-05 1.994642038830e-03 0.0 
9.460483460270e-05 1.656872598960e-03 0.0 
7.696538449476e-05 1.604744505113e-03 0.0 
3.925474767162e-05 2.979008120515e-03 0.0 
6.378786620236e-05 2.448398825581e-03 0.0 
3.297850592340e-05 1.938559023110e-03 0.0 
4.644651733262e-04 1.085043030497e-02 0.0 
6.152868543321e-04 3.696701712682e-03 0.0 
1.769092027418e-04 5.130893497731e-03 0.0 
8.740341618192e-04 1.421755016356e-02 0.0 
6.218953614329e-04 1.109160634084e-02 0.0 
2.156884655873e-04 5.905275061352e-03 0.0 
6.421289689345e-04 6.941478200670e-03 0.0 
2.562402844583e-04 3.947566583427e-03 0.0 
3.898753816967e-04 6.649022826001e-03 0.0 
4.318852324370e-04 4.815143073325e-03 0.0 
5.752017232656e-04 2.280630473185e-03 0.0 
9.086359311523e-05 1.139149136692e-02 0.0 
4.983589070229e-04 1.135913773632e-02 0.0 
3.205855358373e-04 1.192924936709e-02 0.0 
2.964252351666e-04 7.874250761005e-03 0.0 
3.145949849167e-04 1.065769787752e-02 0.0 
2.704984175326e-04 8.745071684529e-03 0.0 
2.145835264163e-04 1.140251808837e-02 0.0 
7.759190793686e-04 2.684229048773e-03 0.0 
2.052914655672e-03 1.408487614774e-02 0.0 
1.155858967343e-03 8.752591289498e-03 0.0 
5.421373920001e-04 9.793579218155e-03 0.0 
5.738857086441e-04 1.068208567238e-02 0.0 
6.262652198864e-04 1.131509062032e-02 0.0 
2.360063168170e-03 1.274127904541e-02 0.0 
8.521075100802e-04 8.991931940186e-03 0.0 
7.853755007046e-04 5.602346206404e-03 0.0 
2.257597512198e-04 6.918307901748e-03 0.0 
-2.746622775621e-05 1.190636965222e-02 0.0 
8.042300876761e-04 5.109507067836e-03 0.0 
8.479218052230e-04 7.666060088758e-03 0.0 
6.969292381984e-04 1.076551786858e-02 0.0 
1.490060342568e-03 5.716961306610e-03 0.0 
3.933471828827e-04 1.204338440235e-02 0.0 
4.294002822768e-04 7.264854812406e-03 0.0 
4.273500116816e-04 4.157925151707e-03 0.0 
9.086400785245e-04 1.246995099119e-02 0.0 
1.423032415368e-04 1.160721189230e-02 0.0 
5.261263596500e-04 1.295448801286e-02 0.0 
5.867930876085e-04 2.937364389713e-03 0.0 
8.496496456252e-04 7.691847606418e-03 0.0 
2.376628441256e-04 1.083920933446e-02 0.0 
1.787295107871e-03 9.245744001871e-03 0.0 
2.345592262038e-03 1.314811299295e-02 0.0 
1.457908318869e-03 1.652347998282e-02 0.0 
1.830158131110e-04 4.376401082453e-03 0.0 
2.265167808604e-03 1.032956212558e-02 0.0 
1.160130062604e-03 4.569063636763e-03 0.0 
1.665856457094e-03 7.590202665529e-03 0.0 
2.030500378784e-04 1.067029727646e-02 0.0 
5.609614700130e-04 4.193971961550e-03 0.0 
2.079952973386e-03 1.012637386462e-02 0.0 
3.452351956492e-04 5.508591193308e-03 0.0 
1.818409403955e-03 7.727675645348e-03 0.0 
1.802626559026e-03 1.113429404638e-02 0.0 
5.672974268213e-04 6.634948584861e-03 0.0 
1.364748422073e-03 8.862115897832e-03 0.0 
1.418543229017e-03 5.184039731164e-03 0.0 
2.137125517419e-03 1.450305871161e-02 0.0 
2.151245807068e-03 1.038645295293e-02 0.0 
1.723951181997e-03 9.430182951965e-03 0.0 
2.292326041007e-03 1.044552494330e-02 0.0 
1.470440189373e-04 6.370306699976e-03 0.0 
6.788518478922e-04 4.653712254423e-03 0.0 
5.951225810263e-04 1.282200033479e-02 0.0 
2.173130335985e-03 1.449640027716e-02 0.0 
8.605719493809e-04 1.087441513659e-02 0.0 
1.362746493824e-03 4.879198358400e-03 0.0 
2.437210253574e-04 3.684168813757e-03 0.0 
2.318597145298e-03 1.423425143004e-02 0.0 
5.547786349961e-04 4.731597115767e-03 0.0 
4.447765033356e-04 4.918788570707e-03 0.0 
7.670438305879e-04 8.679665953859e-03 0.0 
3.258504619724e-05 1.126189399715e-02 0.0 
4.863352513695e-04 1.455873304331e-02 0.0 
1.521778278323e-03 1.223510266900e-02 0.0 
2.230530565832e-03 1.056380667715e-02 0.0 
7.663022508812e-04 8.024676203355e-03 0.0 
4.736987746691e-04 3.296449853248e-03 0.0 
4.503241985695e-04 4.288618944052e-03 0.0 
1.085651892734e-03 5.554637040088e-03 0.0 
-4.515571446764e-04 1.615145811911e-02 0.0 
1.596965948989e-03 1.584085218979e-02 0.0 
3.544197334786e-04 3.836814907952e-03 0.0 
1.672978804588e-03 8.751953122418e-03 0.0 
1.252412806974e-03 4.597591982270e-03 0.0 
1.170217821012e-04 8.227274797517e-03 0.0 
7.962086857552e-04 2.662362645173e-03 0.0 
1.803662278434e-03 1.765571392749e-02 0.0 
2.678784526242e-04 3.375199577534e-03 0.0 
1.235632141481e-03 5.604977195259e-03 0.0 
1.899231569639e-03 1.360665984569e-02 0.0 
1.735534672063e-04 1.561752634341e-02 0.0 
1.696833365366e-04 2.117373993153e-03 0.0 
1.042401475021e-03 4.508180196484e-03 0.0 
2.175452966725e-03 9.304650625105e-03 0.0 
1.577637556545e-03 9.023027241388e-03 0.0 
1.562761016686e-03 1.760239258943e-02 0.0 
6.702502633941e-04 7.685657380477e-03 0.0 
2.029138173281e-03 9.873580644597e-03 0.0 
1.757785042654e-04 1.520610388272e-03 0.0 
9.973132974468e-04 4.022508230761e-03 0.0 
1.294477808358e-03 1.027723213199e-02 0.0 
5.909587116637e-04 8.049433984549e-03 0.0 
1.937513448574e-03 7.616637824391e-03 0.0 
5.786254325549e-05 1.165222768341e-02 0.0 
1.726114391565e-03 1.687962279362e-02 0.0 
5.015330601314e-04 7.728602011024e-03 0.0 
1.504728670224e-03 1.173735592544e-02 0.0 
1.464915356801e-03 8.582670308898e-03 0.0 
8.463998209497e-04 2.735728908840e-03 0.0 
4.131799027836e-04 7.400146581648e-03 0.0 
1.643035405031e-03 1.121157572539e-02 0.0 
3.264963741809e-04 7.063959716299e-03 0.0 
1.605534605048e-03 1.846074662860e-02 0.0 
1.339486249756e-03 9.477944886577e-03 0.0 
2.390278400359e-04 6.718353165989e-03 0.0 
1.866289884029e-03 8.504561855702e-03 0.0 
9.000718809553e-05 1.167784955005e-02 0.0 
2.100266122621e-03 8.580104549116e-03 0.0 
9.251601283770e-05 3.544879139404e-03 0.0 
8.186119822494e-04 1.032124401543e-02 0.0 
1.349297390404e-03 8.157856024005e-03 0.0 
1.199523856507e-03 7.865773527850e-03 0.0 
1.548940269400e-03 1.907241519772e-02 0.0 
1.298184137714e-03 7.372883282759e-03 0.0 
1.654143801327e-03 7.086895504562e-03 0.0 
2.002519742034e-03 7.878407204170e-03 0.0 
2.181206237245e-03 9.649478889731e-03 0.0 
1.210284664074e-03 6.504330988568e-03 0.0 
1.773235798871e-03 1.811279941293e-02 0.0 
4.797282774829e-04 1.104143332156e-02 0.0 
3.819924761917e-04 1.133311501113e-02 0.0 
1.584484562456e-03 1.074526607687e-02 0.0 
1.469623433201e-03 6.379238459431e-03 0.0 
5.283746627464e-05 1.151085197041e-02 0.0 
1.382877524139e-03 7.926258028116e-03 0.0 
2.428916482212e-04 1.172479655194e-02 0.0 
1.424690390261e-03 1.085176899598e-02 0.0 
1.633895741407e-03 5.894149188008e-03 0.0 
4.925166677934e-05 1.151190885210e-02 0.0 
1.364780793920e-03 1.045435969437e-02 0.0 
4.010165898973e-05 1.098649504214e-02 0.0 
1.210652096021e-03 1.059270387378e-02 0.0 
2.082925153843e-03 8.662414050441e-03 0.0 
1.152801263381e-03 1.025090004301e-02 0.0 
1.008447323180e-03 1.041634070240e-02 0.0 
1.216972852893e-04 3.367428644957e-03 0.0 
9.523547009430e-04 1.012408369094e-02 0.0 
1.581583289806e-05 1.608004446239e-03 0.0 
2.806398146776e-05 1.115248835768e-03 0.0 
6.535741226656e-05 1.452474717558e-02 0.0 
1.315276405459e-03 1.943136670021e-02 0.0 
-6.999824551143e-04 1.375986621186e-02 0.0 
1.596167155584e-03 1.797899109539e-02 0.0 
7.306635867919e-04 1.073451261829e-02 0.0 
1.559215946449e-03 7.956304678222e-03 0.0 
1.358303918915e-04 1.445698868937e-02 0.0 
6.013266846665e-04 1.088709585113e-02 0.0 
6.356317565069e-04 2.948255001818e-03 0.0 
4.063167530323e-04 1.255732725880e-03 0.0 
8.851234523684e-05 9.030551732663e-03 0.0 
1.096329539449e-03 4.079420983407e-03 0.0 
1.876811414065e-03 7.152043707171e-03 0.0 
2.506338058108e-05 4.877622097744e-03 0.0 
4.039794444967e-04 1.572780114830e-02 0.0 
-2.034882981891e-05 1.202879572616e-02 0.0 
7.088021436281e-05 5.920530261110e-03 0.0 
9.453519427421e-04 1.908872336408e-02 0.0 
1.111877870794e-03 1.763922253299e-02 0.0 
6.124533261392e-04 1.683151897157e-02 0.0 
1.587120068959e-04 1.053039561262e-02 0.0 
7.360005849717e-05 1.222123255503e-02 0.0 
5.800913164320e-04 1.821546892558e-02 0.0 
6.960186308556e-04 2.383658207504e-03 0.0 
6.804819931060e-04 1.442091370306e-02 0.0 
1.538435423889e-03 5.443438498264e-03 0.0 
6.079777783190e-05 1.723526805952e-02 0.0 
3.058524046704e-04 3.227312150031e-03 0.0 
8.101447832288e-04 2.578630767528e-03 0.0 
1.425916931883e-04 9.902197073483e-04 0.0 
1.210201585102e-03 4.063834707421e-03 0.0 
7.748943582451e-05 1.591043304867e-02 0.0 
1.003756263778e-03 1.306711437429e-02 0.0 
7.522255688287e-04 2.713779169415e-03 0.0 
1.194126705359e-04 7.673178943529e-03 0.0 
1.022181609330e-04 9.453951046527e-04 0.0 
8.583194581989e-04 1.452774838819e-02 0.0 
7.413526886295e-05 3.145018849285e-03 0.0 
4.038000588044e-04 1.271654387802e-02 0.0 
3.695907001495e-05 3.052611105846e-03 0.0 
1.337545187765e-03 6.390297306187e-03 0.0 
2.762687002479e-04 1.263966043538e-02 0.0 
1.207639389900e-03 1.304142408146e-02 0.0 
7.722966369022e-05 1.928912101460e-03 0.0 
5.506926640042e-04 3.036083979786e-03 0.0 
-1.926688648736e-04 1.538403026493e-02 0.0 
1.388528206815e-04 9.198748093249e-03 0.0 
2.658141482036e-04 9.819271284035e-03 0.0 
-2.859625921408e-04 1.313194478821e-02 0.0 
3.541151533237e-04 2.071352940891e-03 0.0 
1.075212187651e-03 4.831820632284e-03 0.0 
1.292221454408e-04 1.971503944269e-03 0.0 
1.078585077934e-05 1.163932696814e-02 0.0 
8.022744167820e-06 1.189798765916e-02 0.0 
3.976294181705e-04 1.942704267643e-03 0.0 
6.569352365584e-04 2.646194646458e-03 0.0 
5.150230930558e-04 1.230800184610e-02 0.0 
1.014213083835e-04 1.298056433317e-03 0.0 
-5.552795784170e-04 1.502104079010e-02 0.0 
5.522956952041e-04 1.587483310436e-02 0.0 
3.475563086151e-05 1.180227332473e-02 0.0 
8.169835400432e-05 9.535253677229e-04 0.0 
1.799173792199e-04 3.011130219326e-03 0.0 
1.885125506044e-04 9.358725787955e-03 0.0 
1.216492806175e-03 1.526518811897e-02 0.0 
9.371264578867e-05 1.076700787532e-02 0.0 
1.073539174777e-03 3.671572876995e-03 0.0 
7.519642972585e-05 1.199823124248e-02 0.0 
1.217264840561e-04 2.844636827176e-03 0.0 
4.628149502079e-04 1.931294639207e-03 0.0 
3.729148032507e-04 2.808989807048e-03 0.0 
2.900817869287e-04 9.082675789034e-04 0.0 
-4.383784241685e-04 1.399685795628e-02 0.0 
7.072653255235e-04 2.247656782191e-03 0.0 
7.845335321252e-04 3.066914715000e-03 0.0 
3.033699145412e-04 1.578701546255e-02 0.0 
4.749516761859e-04 2.990590093922e-03 0.0 
1.688869010902e-04 1.020301384219e-02 0.0 
1.158986436351e-04 1.154768209857e-02 0.0 
6.941340082531e-06 1.424986227681e-03 0.0 
3.287027442021e-07 1.177325568369e-02 0.0 
5.080469750137e-05 1.578023205516e-02 0.0 
1.123784575058e-05 9.095561853984e-04 0.0 
6.815817153066e-05 1.154902909149e-02 0.0 
1.074432683841e-04 1.343121789193e-02 0.0 
6.011076628273e-04 2.579623443776e-03 0.0 
5.059250422312e-05 8.115843752604e-03 0.0 
5.901870750207e-05 6.045541235005e-03 0.0 
2.178537244424e-04 1.219310152804e-02 0.0 
-6.494084893790e-04 1.335651040165e-02 0.0 
8.526022165494e-05 1.071101470860e-02 0.0 
7.181152267005e-04 2.275091615650e-03 0.0 
2.862528986462e-04 2.698406025177e-03 0.0 
2.207838498770e-04 1.178811624815e-02 0.0 
1.581446962451e-04 1.486195416806e-02 0.0 
8.441196662214e-04 3.636412602001e-03 0.0 
2.028526756337e-04 8.937305591374e-03 0.0 
1.019694706528e-03 3.723818119720e-03 0.0 
8.809807130632e-04 3.174427789462e-03 0.0 
-9.378437082478e-04 1.525613548588e-02 0.0 
4.587240954160e-05 7.437731847957e-03 0.0 
2.528859324166e-05 1.183502457698e-02 0.0 
2.351517792443e-04 1.823200987714e-03 0.0 
1.347287681403e-04 8.667513656676e-03 0.0 
1.011294596740e-03 2.064317437715e-02 0.0 
3.872013715861e-05 2.235281483526e-02 0.0 
1.264099752486e-03 2.017306884730e-02 0.0 
3.378076093298e-05 2.123230369142e-02 0.0 
1.352015515031e-03 1.943176738200e-02 0.0 
3.572345716863e-05 2.004808384609e-02 0.0 
1.340238850873e-03 1.846692936555e-02 0.0 
3.308260999093e-05 1.879932839109e-02 0.0 
1.260972314485e-03 1.735278700684e-02 0.0 
3.530570748098e-05 1.748626118621e-02 0.0 

TENSORS node_materi_stress float
-3.825714624409e+00 2.411714101379e-02 0.0 
2.411714101379e-02 -8.537015853531e+00 0.0 
0.0 0.0 -3.627072418462e+00 
-4.907321647198e+01 4.357835796275e-01 0.0 
4.357835796275e-01 -9.846046954502e+01 0.0 
0.0 0.0 -4.386010580510e+01 
-1.623784683016e+02 -5.350853868814e-02 0.0 
-5.350853868814e-02 -3.819576232420e+02 0.0 
0.0 0.0 -1.629008274631e+02 
-1.233247937202e+02 6.109690109841e-01 0.0 
6.109690109841e-01 -2.877180462682e+02 0.0 
0.0 0.0 -1.229128519965e+02 
-8.295866102152e+00 -2.819967765468e-01 0.0 
-2.819967765468e-01 -2.076576260902e+01 0.0 
0.0 0.0 -8.530657463404e+00 
-1.537741214230e+01 -6.393536694342e-01 0.0 
-6.393536694342e-01 -4.036968779782e+01 0.0 
0.0 0.0 -1.632412998203e+01 
-2.208206756102e+01 -5.079457389769e-01 0.0 
-5.079457389769e-01 -5.861585709221e+01 0.0 
0.0 0.0 -2.380937739597e+01 
-2.989109226030e+01 -4.729014039611e-01 0.0 
-4.729014039611e-01 -7.949155553455e+01 0.0 
0.0 0.0 -3.241479433845e+01 
-3.720253401872e+01 -3.518042558068e-01 0.0 
-3.518042558068e-01 -9.952795690033e+01 0.0 
0.0 0.0 -4.061914727572e+01 
-4.470959883240e+01 -3.294312240100e-01 0.0 
-3.294312240100e-01 -1.192792023521e+02 0.0 
0.0 0.0 -4.879664035535e+01 
-5.217351638338e+01 -3.525168958160e-01 0.0 
-3.525168958160e-01 -1.390099827459e+02 0.0 
0.0 0.0 -5.695504973877e+01 
-5.966393092126e+01 -3.020457315552e-01 0.0 
-3.020457315552e-01 -1.586962204911e+02 0.0 
0.0 0.0 -6.510804542370e+01 
-6.733962922467e+01 -2.799646772468e-01 0.0 
-2.799646772468e-01 -1.783437548871e+02 0.0 
0.0 0.0 -7.330501523352e+01 
-7.515007885611e+01 -3.282063726630e-01 0.0 
-3.282063726630e-01 -1.981309568354e+02 0.0 
0.0 0.0 -8.158431070746e+01 
-8.330509041908e+01 -4.698673518142e-01 0.0 
-4.698673518142e-01 -2.183464732947e+02 0.0 
0.0 0.0 -9.009546911413e+01 
-9.178150576199e+01 -4.797319856241e-01 0.0 
-4.797319856241e-01 -2.378504992506e+02 0.0 
0.0 0.0 -9.848960150378e+01 
-9.974862767142e+01 -5.990013960027e-01 0.0 
-5.990013960027e-01 -2.555764122122e+02 0.0 
0.0 0.0 -1.061975119651e+02 
-1.084375958910e+02 -1.458845542699e-01 0.0 
-1.458845542699e-01 -2.749870230175e+02 0.0 
0.0 0.0 -1.146273856726e+02 
-1.177185771436e+02 -1.031250617403e-01 0.0 
-1.031250617403e-01 -2.948184268008e+02 0.0 
0.0 0.0 -1.233611011833e+02 
-1.269935058576e+02 -8.128901587894e-02 0.0 
-8.128901587894e-02 -3.139809042044e+02 0.0 
0.0 0.0 -1.318923230186e+02 
-1.365500971507e+02 -3.678804464261e-02 0.0 
-3.678804464261e-02 -3.332086026296e+02 0.0 
0.0 0.0 -1.405276099341e+02 
-1.464409996711e+02 -5.499549646915e-02 0.0 
-5.499549646915e-02 -3.525121799092e+02 0.0 
0.0 0.0 -1.492859538741e+02 
-1.561057930832e+02 -1.225061552296e-01 0.0 
-1.225061552296e-01 -3.708594051744e+02 0.0 
0.0 0.0 -1.576895594773e+02 
-1.237329792308e+02 6.020262515472e-01 0.0 
6.020262515472e-01 -2.888638621540e+02 0.0 
0.0 0.0 -1.233790524155e+02 
-1.231856823672e+02 1.064540453038e+00 0.0 
1.064540453038e+00 -2.878495821203e+02 0.0 
0.0 0.0 -1.229105793462e+02 
-1.233413224908e+02 1.821963783745e+00 0.0 
1.821963783745e+00 -2.881669313659e+02 0.0 
0.0 0.0 -1.230524761570e+02 
-1.233250468204e+02 1.984358362695e+00 0.0 
1.984358362695e+00 -2.882516999843e+02 0.0 
0.0 0.0 -1.230730240414e+02 
-1.232164969159e+02 2.679367919436e+00 0.0 
2.679367919436e+00 -2.877589710335e+02 0.0 
0.0 0.0 -1.228926403848e+02 
-1.235955738156e+02 3.268547164865e+00 0.0 
3.268547164865e+00 -2.885807743131e+02 0.0 
0.0 0.0 -1.232529044386e+02 
-1.240387221769e+02 3.938676111838e+00 0.0 
3.938676111838e+00 -2.891313788111e+02 0.0 
0.0 0.0 -1.235510302964e+02 
-1.238995294763e+02 4.733526930802e+00 0.0 
4.733526930802e+00 -2.891659737701e+02 0.0 
0.0 0.0 -1.235196509739e+02 
-1.245319337825e+02 5.623144483297e+00 0.0 
5.623144483297e+00 -2.903997594010e+02 0.0 
0.0 0.0 -1.240795079550e+02 
-1.246805077529e+02 6.158525811846e+00 0.0 
6.158525811846e+00 -2.909328798899e+02 0.0 
0.0 0.0 -1.242840162928e+02 
-1.248992496362e+02 7.146491465440e+00 0.0 
7.146491465440e+00 -2.910251227900e+02 0.0 
0.0 0.0 -1.243773117279e+02 
-1.254933727575e+02 8.113347047672e+00 0.0 
8.113347047672e+00 -2.925000058050e+02 0.0 
0.0 0.0 -1.249980135687e+02 
-1.264425514032e+02 9.129390955073e+00 0.0 
9.129390955073e+00 -2.941513858716e+02 0.0 
0.0 0.0 -1.257781811824e+02 
-1.266444152817e+02 1.018772630877e+01 0.0 
1.018772630877e+01 -2.950631501665e+02 0.0 
0.0 0.0 -1.261122696344e+02 
-1.274521017049e+02 1.130371176965e+01 0.0 
1.130371176965e+01 -2.963921974260e+02 0.0 
0.0 0.0 -1.267532897393e+02 
-1.277600885838e+02 1.230155886708e+01 0.0 
1.230155886708e+01 -2.975181625826e+02 0.0 
0.0 0.0 -1.271834753499e+02 
-1.287090108971e+02 1.348825652275e+01 0.0 
1.348825652275e+01 -2.995715767235e+02 0.0 
0.0 0.0 -1.280841762862e+02 
-1.303695384840e+02 1.467253611372e+01 0.0 
1.467253611372e+01 -3.029928870156e+02 0.0 
0.0 0.0 -1.296087276499e+02 
-1.315918439304e+02 1.581266447002e+01 0.0 
1.581266447002e+01 -3.062952171207e+02 0.0 
0.0 0.0 -1.309661183153e+02 
-1.329660027111e+02 1.687622678633e+01 0.0 
1.687622678633e+01 -3.098568357361e+02 0.0 
0.0 0.0 -1.324468515342e+02 
-1.342755370121e+02 1.770295123632e+01 0.0 
1.770295123632e+01 -3.132798174337e+02 0.0 
0.0 0.0 -1.338666063337e+02 
-1.359255561755e+02 1.859332394163e+01 0.0 
1.859332394163e+01 -3.169590646616e+02 0.0 
0.0 0.0 -1.354653862511e+02 
-1.373991040311e+02 1.922352380945e+01 0.0 
1.922352380945e+01 -3.209565817198e+02 0.0 
0.0 0.0 -1.371067057253e+02 
-1.390477007539e+02 1.970657937380e+01 0.0 
1.970657937380e+01 -3.251273345581e+02 0.0 
0.0 0.0 -1.388525105936e+02 
-1.408709853108e+02 1.998422695456e+01 0.0 
1.998422695456e+01 -3.296963844413e+02 0.0 
0.0 0.0 -1.407702109256e+02 
-1.427991541385e+02 2.012276640486e+01 0.0 
2.012276640486e+01 -3.343372374804e+02 0.0 
0.0 0.0 -1.427409174857e+02 
-1.444080901524e+02 2.000384417336e+01 0.0 
2.000384417336e+01 -3.387849187821e+02 0.0 
0.0 0.0 -1.445579026803e+02 
-1.462661797905e+02 1.969598215391e+01 0.0 
1.969598215391e+01 -3.431631964449e+02 0.0 
0.0 0.0 -1.464288128706e+02 
-1.477156406726e+02 1.920940704836e+01 0.0 
1.920940704836e+01 -3.470866979528e+02 0.0 
0.0 0.0 -1.480407015876e+02 
-1.497573424976e+02 1.874714866057e+01 0.0 
1.874714866057e+01 -3.516371689083e+02 0.0 
0.0 0.0 -1.500183534218e+02 
-1.509320320988e+02 1.767804781804e+01 0.0 
1.767804781804e+01 -3.552150078716e+02 0.0 
0.0 0.0 -1.514441119911e+02 
-1.519791483951e+02 1.688970388705e+01 0.0 
1.688970388705e+01 -3.577411863208e+02 0.0 
0.0 0.0 -1.525161004148e+02 
-1.534148040975e+02 1.590309752197e+01 0.0 
1.590309752197e+01 -3.611157446716e+02 0.0 
0.0 0.0 -1.539591646307e+02 
-1.547651822235e+02 1.493110117947e+01 0.0 
1.493110117947e+01 -3.643199035151e+02 0.0 
0.0 0.0 -1.553255257216e+02 
-1.559592121163e+02 1.386282992835e+01 0.0 
1.386282992835e+01 -3.671563427036e+02 0.0 
0.0 0.0 -1.565346664460e+02 
-1.570129345086e+02 1.280428868012e+01 0.0 
1.280428868012e+01 -3.696414409961e+02 0.0 
0.0 0.0 -1.575963126514e+02 
-1.579834055860e+02 1.170560250929e+01 0.0 
1.170560250929e+01 -3.718786439499e+02 0.0 
0.0 0.0 -1.585586148608e+02 
-1.586496049963e+02 1.059655533069e+01 0.0 
1.059655533069e+01 -3.735295302462e+02 0.0 
0.0 0.0 -1.592537405728e+02 
-1.592665344223e+02 9.579641233297e+00 0.0 
9.579641233297e+00 -3.749153215864e+02 0.0 
0.0 0.0 -1.598545568026e+02 
-1.596440724025e+02 8.483997978446e+00 0.0 
8.483997978446e+00 -3.759703735896e+02 0.0 
0.0 0.0 -1.602843337976e+02 
-1.604300106263e+02 7.609624762158e+00 0.0 
7.609624762158e+00 -3.775357492698e+02 0.0 
0.0 0.0 -1.609897279688e+02 
-1.613885205354e+02 6.558651338858e+00 0.0 
6.558651338858e+00 -3.794476018243e+02 0.0 
0.0 0.0 -1.618508367079e+02 
-1.618954141325e+02 5.763982017556e+00 0.0 
5.763982017556e+00 -3.805198300464e+02 0.0 
0.0 0.0 -1.623245732537e+02 
-1.608355431228e+02 4.764453868589e+00 0.0 
4.764453868589e+00 -3.789005872101e+02 0.0 
0.0 0.0 -1.615208390999e+02 
-1.623301049835e+02 3.825122289777e+00 0.0 
3.825122289777e+00 -3.814840897057e+02 0.0 
0.0 0.0 -1.627442584068e+02 
-1.620483652213e+02 3.051188131621e+00 0.0 
3.051188131621e+00 -3.811353442221e+02 0.0 
0.0 0.0 -1.625551128330e+02 
-1.625348161704e+02 2.490571978187e+00 0.0 
2.490571978187e+00 -3.819905914899e+02 0.0 
0.0 0.0 -1.629576222981e+02 
-1.629298895918e+02 1.483926142287e+00 0.0 
1.483926142287e+00 -3.828501788145e+02 0.0 
0.0 0.0 -1.633340205219e+02 
-1.629080221504e+02 8.707157054170e-01 0.0 
8.707157054170e-01 -3.828876197727e+02 0.0 
0.0 0.0 -1.633386925769e+02 
-5.769298715637e+01 3.180643695334e-01 0.0 
3.180643695334e-01 -1.182721643676e+02 0.0 
0.0 0.0 -5.238954545719e+01 
-6.574800283445e+01 3.802053786468e-01 0.0 
3.802053786468e-01 -1.380091129226e+02 0.0 
0.0 0.0 -6.072713472711e+01 
-7.381804788710e+01 3.892447632105e-01 0.0 
3.892447632105e-01 -1.576078630905e+02 0.0 
0.0 0.0 -6.902777329327e+01 
-8.155457610494e+01 4.380488305541e-01 0.0 
4.380488305541e-01 -1.768562773465e+02 0.0 
0.0 0.0 -7.712325603542e+01 
-8.932482226562e+01 4.151743113511e-01 0.0 
4.151743113511e-01 -1.965873260441e+02 0.0 
0.0 0.0 -8.537364449290e+01 
-9.720949239334e+01 4.744413781234e-01 0.0 
4.744413781234e-01 -2.164689418623e+02 0.0 
0.0 0.0 -9.370353027669e+01 
-1.046230905106e+02 4.491214923993e-01 0.0 
4.491214923993e-01 -2.361538117018e+02 0.0 
0.0 0.0 -1.018330706637e+02 
-1.118549894749e+02 5.333827495530e-01 0.0 
5.333827495530e-01 -2.557218229275e+02 0.0 
0.0 0.0 -1.098730437207e+02 
-1.193749701342e+02 5.850230184550e-01 0.0 
5.850230184550e-01 -2.759365302377e+02 0.0 
0.0 0.0 -1.181934501116e+02 
-1.498800160674e+01 4.541317464031e+00 0.0 
4.541317464031e+00 -6.917196725937e+00 0.0 
0.0 0.0 -6.554014399750e+00 
-5.515230139124e+01 2.002902040274e+00 0.0 
2.002902040274e+00 -1.002430339841e+02 0.0 
0.0 0.0 -4.621860061259e+01 
-1.861112757292e+01 1.121691739136e+01 0.0 
1.121691739136e+01 -1.401862029927e+01 0.0 
0.0 0.0 -9.424783700466e+00 
-2.055601888889e+01 1.358797416904e+01 0.0 
1.358797416904e+01 -1.745986269669e+01 0.0 
0.0 0.0 -1.100476447567e+01 
-2.040450133517e+01 1.409586899449e+01 0.0 
1.409586899449e+01 -1.829630364372e+01 0.0 
0.0 0.0 -1.121024149367e+01 
-1.877453550896e+01 1.306290768228e+01 0.0 
1.306290768228e+01 -1.706860447787e+01 0.0 
0.0 0.0 -1.035294199605e+01 
-1.768757787099e+01 8.721331638241e+00 0.0 
8.721331638241e+00 -1.457593219561e+01 0.0 
0.0 0.0 -9.279053019980e+00 
-1.897515558882e+01 4.697756458984e+00 0.0 
4.697756458984e+00 -2.144333623095e+01 0.0 
0.0 0.0 -1.172554754593e+01 
-2.838610416431e+01 3.459458790282e+00 0.0 
3.459458790282e+00 -4.089031358647e+01 0.0 
0.0 0.0 -2.038292532523e+01 
-3.767979741730e+01 2.594926128246e+00 0.0 
2.594926128246e+00 -6.033969310931e+01 0.0 
0.0 0.0 -2.900584715798e+01 
-4.648578241046e+01 2.153012261778e+00 0.0 
2.153012261778e+00 -7.977694111064e+01 0.0 
0.0 0.0 -3.747881705633e+01 
-1.080815833745e+01 7.201098490852e-01 0.0 
7.201098490852e-01 -7.276112290173e+00 0.0 
0.0 0.0 -5.025281188287e+00 
-1.589340000788e+01 8.175843682447e-01 0.0 
8.175843682447e-01 -1.972750279146e+01 0.0 
0.0 0.0 -1.028627083980e+01 
-2.403774383064e+01 6.191076074299e-01 0.0 
6.191076074299e-01 -3.929832216057e+01 0.0 
0.0 0.0 -1.860081979736e+01 
-3.237076961367e+01 7.580730520935e-01 0.0 
7.580730520935e-01 -5.879367424055e+01 0.0 
0.0 0.0 -2.694933315627e+01 
-4.074222557518e+01 5.376686135001e-01 0.0 
5.376686135001e-01 -7.819305857236e+01 0.0 
0.0 0.0 -3.528058524426e+01 
-4.821205504132e+01 -2.431932308183e-01 0.0 
-2.431932308183e-01 -9.584257562779e+01 0.0 
0.0 0.0 -4.281638920073e+01 
-4.887742119683e+01 -5.781426384571e-02 0.0 
-5.781426384571e-02 -9.701556622642e+01 0.0 
0.0 0.0 -4.336789622697e+01 
-4.891296933846e+01 -6.734363199944e-02 0.0 
-6.734363199944e-02 -9.703744416345e+01 0.0 
0.0 0.0 -4.338512405057e+01 
-4.897102985530e+01 -2.593746158453e-02 0.0 
-2.593746158453e-02 -9.679973091454e+01 0.0 
0.0 0.0 -4.333122823095e+01 
-5.035708153143e+01 -4.021628484117e-02 0.0 
-4.021628484117e-02 -9.943665784182e+01 0.0 
0.0 0.0 -4.453812181198e+01 
-4.948538439501e+01 -6.774506151772e-02 0.0 
-6.774506151772e-02 -9.709137925501e+01 0.0 
0.0 0.0 -4.357302909501e+01 
-4.978236295218e+01 -1.072511496439e-02 0.0 
-1.072511496439e-02 -9.692510177876e+01 0.0 
0.0 0.0 -4.361223941928e+01 
-5.008556444162e+01 -5.684190703814e-02 0.0 
-5.684190703814e-02 -9.712443819273e+01 0.0 
0.0 0.0 -4.376300079030e+01 
-5.054793567322e+01 4.315622472932e-02 0.0 
4.315622472932e-02 -9.759186817039e+01 0.0 
0.0 0.0 -4.404194115308e+01 
-5.092101695940e+01 9.085825949560e-02 0.0 
9.085825949560e-02 -9.758217187188e+01 0.0 
0.0 0.0 -4.415095664938e+01 
-5.148852720162e+01 2.653214366283e-01 0.0 
2.653214366283e-01 -9.763606704148e+01 0.0 
0.0 0.0 -4.433737827293e+01 
-5.200498603405e+01 4.955794669802e-01 0.0 
4.955794669802e-01 -9.772906341588e+01 0.0 
0.0 0.0 -4.452021483498e+01 
-5.279619093830e+01 7.722523191544e-01 0.0 
7.722523191544e-01 -9.807545447553e+01 0.0 
0.0 0.0 -4.486149362415e+01 
-5.369141990663e+01 1.210311309380e+00 0.0 
1.210311309380e+00 -9.874826340424e+01 0.0 
0.0 0.0 -4.533190499326e+01 
-1.651805389163e+01 1.700513829027e+00 0.0 
1.700513829027e+00 -6.452512039867e+00 0.0 
0.0 0.0 -6.805069621067e+00 
-1.846392777997e+01 2.662629038615e-01 0.0 
2.662629038615e-01 -7.299423000346e+00 0.0 
0.0 0.0 -7.645875961691e+00 
-1.861243869514e+01 -4.795543528594e-01 0.0 
-4.795543528594e-01 -7.034266542152e+00 0.0 
0.0 0.0 -7.594430078935e+00 
-1.757044984310e+01 -4.682698153238e-01 0.0 
-4.682698153238e-01 -7.062823304208e+00 0.0 
0.0 0.0 -7.290124059928e+00 
-1.602930962657e+01 -5.526553124491e-01 0.0 
-5.526553124491e-01 -8.055061424424e+00 0.0 
0.0 0.0 -7.148089770348e+00 
-1.473192518996e+01 -6.767456954564e-01 0.0 
-6.767456954564e-01 -8.457245928720e+00 0.0 
0.0 0.0 -6.883734682514e+00 
-1.335626334973e+01 -6.755675899215e-01 0.0 
-6.755675899215e-01 -8.390387757038e+00 0.0 
0.0 0.0 -6.449487392989e+00 
-1.199694252032e+01 -6.247799202175e-01 0.0 
-6.247799202175e-01 -8.288109232295e+00 0.0 
0.0 0.0 -6.010264185533e+00 
-1.068811613040e+01 -5.884735080563e-01 0.0 
-5.884735080563e-01 -8.269086428918e+00 0.0 
0.0 0.0 -5.610465148724e+00 
-9.522159741219e+00 -5.229381830305e-01 0.0 
-5.229381830305e-01 -8.288477335639e+00 0.0 
0.0 0.0 -5.267137513982e+00 
-8.370064145273e+00 -4.158453002420e-01 0.0 
-4.158453002420e-01 -8.395094763548e+00 0.0 
0.0 0.0 -4.955223496291e+00 
-7.667007795711e+00 -4.716098616928e-01 0.0 
-4.716098616928e-01 -8.964435368896e+00 0.0 
0.0 0.0 -4.926102194051e+00 
-6.552837539996e+00 -5.192394163726e-01 0.0 
-5.192394163726e-01 -8.652199866935e+00 0.0 
0.0 0.0 -4.493400964320e+00 
-5.487316658982e+00 -3.975209714719e-01 0.0 
-3.975209714719e-01 -7.906026928836e+00 0.0 
0.0 0.0 -3.936228005894e+00 
-4.743241985377e+00 -3.090378407422e-01 0.0 
-3.090378407422e-01 -8.040329380441e+00 0.0 
0.0 0.0 -3.758033893292e+00 
-4.208807527997e+00 -2.556581581613e-01 0.0 
-2.556581581613e-01 -8.312609254517e+00 0.0 
0.0 0.0 -3.682176637186e+00 
-3.750859855846e+00 -1.643651167370e-01 0.0 
-1.643651167370e-01 -8.345590002251e+00 0.0 
0.0 0.0 -3.554318871546e+00 
-3.380524634278e+00 -1.648564380051e-01 0.0 
-1.648564380051e-01 -7.933301663657e+00 0.0 
0.0 0.0 -3.317040593271e+00 
-3.188714967523e+00 2.610632812662e-02 0.0 
2.610632812662e-02 -7.330334006992e+00 0.0 
0.0 0.0 -3.064130966744e+00 
-9.033614240922e+00 2.430473919002e+00 0.0 
2.430473919002e+00 -4.934730012383e+00 0.0 
0.0 0.0 -3.790503275992e+00 
-7.058873777470e+00 1.545225894179e+00 0.0 
1.545225894179e+00 -9.731595585770e+00 0.0 
0.0 0.0 -4.637140808972e+00 
-5.668045287359e+00 4.694044207481e-01 0.0 
4.694044207481e-01 -1.010648607842e+01 0.0 
0.0 0.0 -4.332359409734e+00 
-4.956048110739e+00 7.973411059535e-03 0.0 
7.973411059535e-03 -9.788807743419e+00 0.0 
0.0 0.0 -4.023456756248e+00 
-5.027635057566e+00 -2.334057385767e-01 0.0 
-2.334057385767e-01 -9.760593992333e+00 0.0 
0.0 0.0 -4.036468714970e+00 
-5.354835182276e+00 -3.247417217416e-01 0.0 
-3.247417217416e-01 -9.721237946167e+00 0.0 
0.0 0.0 -4.122821938533e+00 
-5.928048882966e+00 -3.716665563517e-01 0.0 
-3.716665563517e-01 -9.731734607089e+00 0.0 
0.0 0.0 -4.297935047017e+00 
-6.555160586892e+00 -3.736813035493e-01 0.0 
-3.736813035493e-01 -9.731004695887e+00 0.0 
0.0 0.0 -4.485849584834e+00 
-7.206598067064e+00 -3.546484819405e-01 0.0 
-3.546484819405e-01 -9.745089196516e+00 0.0 
0.0 0.0 -4.685506179074e+00 
-7.819475798762e+00 -3.241111456794e-01 0.0 
-3.241111456794e-01 -9.760219248899e+00 0.0 
0.0 0.0 -4.873908514298e+00 
-8.392483145096e+00 -2.944079808251e-01 0.0 
-2.944079808251e-01 -9.777015969013e+00 0.0 
0.0 0.0 -5.050849734233e+00 
-8.917845987283e+00 -2.647751723498e-01 0.0 
-2.647751723498e-01 -9.790037375917e+00 0.0 
0.0 0.0 -5.212365008960e+00 
-9.389315181556e+00 -2.336642931007e-01 0.0 
-2.336642931007e-01 -9.802535265489e+00 0.0 
0.0 0.0 -5.357555134113e+00 
-9.801932514633e+00 -2.026806215819e-01 0.0 
-2.026806215819e-01 -9.814823169262e+00 0.0 
0.0 0.0 -5.485026705169e+00 
-1.015594538119e+01 -1.726340959752e-01 0.0 
-1.726340959752e-01 -9.825634606987e+00 0.0 
0.0 0.0 -5.594473996452e+00 
-1.045509150087e+01 -1.433615802314e-01 0.0 
-1.433615802314e-01 -9.833185008737e+00 0.0 
0.0 0.0 -5.686482952882e+00 
-1.069946949500e+01 -1.102129582530e-01 0.0 
-1.102129582530e-01 -9.835143514649e+00 0.0 
0.0 0.0 -5.760383902893e+00 
-1.088279145250e+01 -6.712926654084e-02 0.0 
-6.712926654084e-02 -9.828133313783e+00 0.0 
0.0 0.0 -5.813277429885e+00 
-1.099741628260e+01 -5.516553367370e-03 0.0 
-5.516553367370e-03 -9.805600987031e+00 0.0 
0.0 0.0 -5.840905180889e+00 
-1.103380456120e+01 8.402747736714e-02 0.0 
8.402747736714e-02 -9.751532985867e+00 0.0 
0.0 0.0 -5.835601264120e+00 
-1.102761369598e+01 1.931651917744e-01 0.0 
1.931651917744e-01 -9.158710770341e+00 0.0 
0.0 0.0 -5.655897339895e+00 
-1.089055025173e+01 -2.886588358738e-01 0.0 
-2.886588358738e-01 -6.884185844237e+00 0.0 
0.0 0.0 -4.932420828790e+00 
-1.578173237080e+01 -2.570361756587e-01 0.0 
-2.570361756587e-01 -1.967881174976e+01 0.0 
0.0 0.0 -1.023816323617e+01 
-1.549456045419e+01 -4.849707842215e-02 0.0 
-4.849707842215e-02 -1.955905783500e+01 0.0 
0.0 0.0 -1.011608548676e+01 
-1.538114956615e+01 -4.852415412632e-02 0.0 
-4.852415412632e-02 -1.953785178048e+01 0.0 
0.0 0.0 -1.007570040399e+01 
-1.527932071037e+01 -1.146816706371e-01 0.0 
-1.146816706371e-01 -1.955465624788e+01 0.0 
0.0 0.0 -1.005019308748e+01 
-1.515965434272e+01 -1.790085839371e-01 0.0 
-1.790085839371e-01 -1.956962825594e+01 0.0 
0.0 0.0 -1.001878477960e+01 
-1.500950494787e+01 -2.386002148466e-01 0.0 
-2.386002148466e-01 -1.957946453357e+01 0.0 
0.0 0.0 -9.976690844434e+00 
-1.482597764548e+01 -2.932456949885e-01 0.0 
-2.932456949885e-01 -1.958459025291e+01 0.0 
0.0 0.0 -9.923170369518e+00 
-1.461192555286e+01 -3.474860178202e-01 0.0 
-3.474860178202e-01 -1.958436463363e+01 0.0 
0.0 0.0 -9.858887055947e+00 
-1.436736573398e+01 -4.042606438410e-01 0.0 
-4.042606438410e-01 -1.958491577500e+01 0.0 
0.0 0.0 -9.785684452693e+00 
-1.408782612958e+01 -4.607587973202e-01 0.0 
-4.607587973202e-01 -1.958853362253e+01 0.0 
0.0 0.0 -9.702907925633e+00 
-1.378347525143e+01 -5.111970320847e-01 0.0 
-5.111970320847e-01 -1.959522252439e+01 0.0 
0.0 0.0 -9.613609332744e+00 
-1.346761310948e+01 -5.523767172489e-01 0.0 
-5.523767172489e-01 -1.960255756923e+01 0.0 
0.0 0.0 -9.521051203613e+00 
-1.315423620008e+01 -5.846566437905e-01 0.0 
-5.846566437905e-01 -1.960693344203e+01 0.0 
0.0 0.0 -9.428350892633e+00 
-1.286390250797e+01 -6.031171390485e-01 0.0 
-6.031171390485e-01 -1.963565128551e+01 0.0 
0.0 0.0 -9.349866138046e+00 
-1.261419138416e+01 -5.711315013096e-01 0.0 
-5.711315013096e-01 -1.967516420678e+01 0.0 
0.0 0.0 -9.286806677282e+00 
-1.249505263372e+01 -4.724115829061e-01 0.0 
-4.724115829061e-01 -1.977215470000e+01 0.0 
0.0 0.0 -9.280162200118e+00 
-1.256117359740e+01 -2.365657550940e-01 0.0 
-2.365657550940e-01 -1.984150759686e+01 0.0 
0.0 0.0 -9.320804358279e+00 
-1.304371258429e+01 1.294763822656e-01 0.0 
1.294763822656e-01 -2.010052691687e+01 0.0 
0.0 0.0 -9.543271850350e+00 
-1.479439843254e+01 1.077853846428e+00 0.0 
1.077853846428e+00 -2.149924254691e+01 0.0 
0.0 0.0 -1.048809229384e+01 
-1.450979695863e+01 1.862287128063e+00 0.0 
1.862287128063e+00 -1.801846341458e+01 0.0 
0.0 0.0 -9.358478111963e+00 
-2.571229695054e+01 1.646850026905e+00 0.0 
1.646850026905e+00 -3.784692028601e+01 0.0 
0.0 0.0 -1.866776517096e+01 
-2.620605941253e+01 1.033333173362e+00 0.0 
1.033333173362e+00 -4.123606523385e+01 0.0 
0.0 0.0 -1.983263739391e+01 
-2.466724683627e+01 1.513236340247e-01 0.0 
1.513236340247e-01 -3.987167483172e+01 0.0 
0.0 0.0 -1.896167650040e+01 
-2.404736684140e+01 -2.417491334692e-01 0.0 
-2.417491334692e-01 -3.951361884000e+01 0.0 
0.0 0.0 -1.866829570442e+01 
-2.376495248369e+01 -4.784069027761e-01 0.0 
-4.784069027761e-01 -3.937584875199e+01 0.0 
0.0 0.0 -1.854224037070e+01 
-2.355614691879e+01 -5.700554737401e-01 0.0 
-5.700554737401e-01 -3.924734202802e+01 0.0 
0.0 0.0 -1.844104668404e+01 
-2.346832104379e+01 -6.097712234101e-01 0.0 
-6.097712234101e-01 -3.921716864766e+01 0.0 
0.0 0.0 -1.840564690744e+01 
-2.344738601142e+01 -6.160383604195e-01 0.0 
-6.160383604195e-01 -3.918712266355e+01 0.0 
0.0 0.0 -1.839035260249e+01 
-2.347003224596e+01 -5.947892475709e-01 0.0 
-5.947892475709e-01 -3.916029945238e+01 0.0 
0.0 0.0 -1.838909950950e+01 
-2.352718383394e+01 -5.492272625347e-01 0.0 
-5.492272625347e-01 -3.913911669582e+01 0.0 
0.0 0.0 -1.839989015893e+01 
-2.359098949772e+01 -4.847529328736e-01 0.0 
-4.847529328736e-01 -3.913604035473e+01 0.0 
0.0 0.0 -1.841810895574e+01 
-2.364660205178e+01 -4.236778483995e-01 0.0 
-4.236778483995e-01 -3.914104118930e+01 0.0 
0.0 0.0 -1.843629297233e+01 
-2.371438645762e+01 -3.645189953986e-01 0.0 
-3.645189953986e-01 -3.913661796372e+01 0.0 
0.0 0.0 -1.845530132640e+01 
-2.377438465194e+01 -2.974344427086e-01 0.0 
-2.974344427086e-01 -3.912470495917e+01 0.0 
0.0 0.0 -1.846972688334e+01 
-2.383003432517e+01 -2.282832974570e-01 0.0 
-2.282832974570e-01 -3.911444491130e+01 0.0 
0.0 0.0 -1.848334377094e+01 
-2.388282374662e+01 -1.651778507833e-01 0.0 
-1.651778507833e-01 -3.910074874240e+01 0.0 
0.0 0.0 -1.849507174670e+01 
-2.394578921412e+01 -1.080893499487e-01 0.0 
-1.080893499487e-01 -3.910724054204e+01 0.0 
0.0 0.0 -1.851590892685e+01 
-2.400474500791e+01 -5.304568826690e-02 0.0 
-5.304568826690e-02 -3.917606269461e+01 0.0 
0.0 0.0 -1.855424231076e+01 
-2.403281710522e+01 -4.820549285924e-01 0.0 
-4.820549285924e-01 -3.926427457281e+01 0.0 
0.0 0.0 -1.858912750341e+01 
-3.236117021162e+01 -3.672795369997e-01 0.0 
-3.672795369997e-01 -5.879845712734e+01 0.0 
0.0 0.0 -2.694788820169e+01 
-3.241060707745e+01 -1.684953308546e-01 0.0 
-1.684953308546e-01 -5.869449544845e+01 0.0 
0.0 0.0 -2.693153075777e+01 
-3.242280569177e+01 -1.702901776073e-01 0.0 
-1.702901776073e-01 -5.865554230086e+01 0.0 
0.0 0.0 -2.692350439779e+01 
-3.243102326220e+01 -2.218909183181e-01 0.0 
-2.218909183181e-01 -5.866603610367e+01 0.0 
0.0 0.0 -2.692911780976e+01 
-3.247138168040e+01 -2.878674926347e-01 0.0 
-2.878674926347e-01 -5.866866872062e+01 0.0 
0.0 0.0 -2.694201512031e+01 
-3.250401245367e+01 -3.588529230718e-01 0.0 
-3.588529230718e-01 -5.868210543046e+01 0.0 
0.0 0.0 -2.695583536524e+01 
-3.256250273645e+01 -4.247239651468e-01 0.0 
-4.247239651468e-01 -5.870724903825e+01 0.0 
0.0 0.0 -2.698092553241e+01 
-3.263072255795e+01 -4.633821396430e-01 0.0 
-4.633821396430e-01 -5.870513122017e+01 0.0 
0.0 0.0 -2.700075613344e+01 
-3.274094351967e+01 -5.259482675738e-01 0.0 
-5.259482675738e-01 -5.869122946068e+01 0.0 
0.0 0.0 -2.702965189410e+01 
-3.286202648141e+01 -5.687872893402e-01 0.0 
-5.687872893402e-01 -5.874248857582e+01 0.0 
0.0 0.0 -2.708135451717e+01 
-3.304094154917e+01 -5.555151245426e-01 0.0 
-5.555151245426e-01 -5.880079475849e+01 0.0 
0.0 0.0 -2.715252089230e+01 
-3.329900436141e+01 -5.059565502657e-01 0.0 
-5.059565502657e-01 -5.885812021287e+01 0.0 
0.0 0.0 -2.724713737228e+01 
-3.362393723473e+01 -3.969228787793e-01 0.0 
-3.969228787793e-01 -5.895441445534e+01 0.0 
0.0 0.0 -2.737350550702e+01 
-3.405627692856e+01 -2.048298288108e-01 0.0 
-2.048298288108e-01 -5.903571751394e+01 0.0 
0.0 0.0 -2.752759833275e+01 
-3.470524700471e+01 5.618950242094e-02 0.0 
5.618950242094e-02 -5.941467761844e+01 0.0 
0.0 0.0 -2.783597738695e+01 
-3.614395106573e+01 8.145805690778e-01 0.0 
8.145805690778e-01 -6.089938947781e+01 0.0 
0.0 0.0 -2.871300216306e+01 
-3.564460496735e+01 1.323552071340e+00 0.0 
1.323552071340e+00 -5.756875917966e+01 0.0 
0.0 0.0 -2.756400924411e+01 
-4.468569844060e+01 1.154407072205e+00 0.0 
1.154407072205e+00 -7.708125608025e+01 0.0 
0.0 0.0 -3.613008635625e+01 
-4.509491900604e+01 8.273238521845e-01 0.0 
8.273238521845e-01 -8.027444789882e+01 0.0 
0.0 0.0 -3.721081007146e+01 
-4.380398530612e+01 2.865528055882e-01 0.0 
2.865528055882e-01 -7.892784561663e+01 0.0 
0.0 0.0 -3.641954927683e+01 
-4.323786661033e+01 2.530629804602e-02 0.0 
2.530629804602e-02 -7.867587448496e+01 0.0 
0.0 0.0 -3.617412232858e+01 
-4.273497259462e+01 -1.147495423965e-01 0.0 
-1.147495423965e-01 -7.855489959456e+01 0.0 
0.0 0.0 -3.598696165675e+01 
-4.232119346140e+01 -2.375355945348e-01 0.0 
-2.375355945348e-01 -7.847646440043e+01 0.0 
0.0 0.0 -3.583929735855e+01 
-4.197319889959e+01 -3.022786510916e-01 0.0 
-3.022786510916e-01 -7.833754863608e+01 0.0 
0.0 0.0 -3.569322426070e+01 
-4.169413420083e+01 -2.724368011210e-01 0.0 
-2.724368011210e-01 -7.828299853687e+01 0.0 
0.0 0.0 -3.559313982131e+01 
-4.155809786622e+01 -2.828488630876e-01 0.0 
-2.828488630876e-01 -7.833904442283e+01 0.0 
0.0 0.0 -3.556914268672e+01 
-4.132455545161e+01 -2.486470316234e-01 0.0 
-2.486470316234e-01 -7.828253831094e+01 0.0 
0.0 0.0 -3.548212812877e+01 
-4.117610163447e+01 -2.258706592573e-01 0.0 
-2.258706592573e-01 -7.825487338652e+01 0.0 
0.0 0.0 -3.542929250630e+01 
-4.106425409980e+01 -1.558382504296e-01 0.0 
-1.558382504296e-01 -7.824804135211e+01 0.0 
0.0 0.0 -3.539368863557e+01 
-4.094638590285e+01 -1.464288314703e-01 0.0 
-1.464288314703e-01 -7.826884989030e+01 0.0 
0.0 0.0 -3.536457073795e+01 
-4.086463569546e+01 -8.926710483308e-02 0.0 
-8.926710483308e-02 -7.821741486518e+01 0.0 
0.0 0.0 -3.532461516819e+01 
-4.082585523520e+01 4.113889250599e-02 0.0 
4.113889250599e-02 -7.837504606853e+01 0.0 
0.0 0.0 -3.536027039112e+01 
-4.071988388888e+01 -4.981373312884e-01 0.0 
-4.981373312884e-01 -7.846775602164e+01 0.0 
0.0 0.0 -3.535629197316e+01 
-1.620019891690e+01 8.548779061064e+00 0.0 
8.548779061064e+00 -1.014271003194e+01 0.0 
0.0 0.0 -7.595271731439e+00 
-1.991300920226e+01 1.273730876261e+01 0.0 
1.273730876261e+01 -1.631345047305e+01 0.0 
0.0 0.0 -1.046793790259e+01 
-2.059302416373e+01 1.395933724113e+01 0.0 
1.395933724113e+01 -1.797732201653e+01 0.0 
0.0 0.0 -1.117110385408e+01 
-1.989961775258e+01 1.376819772822e+01 0.0 
1.376819772822e+01 -1.835756690186e+01 0.0 
0.0 0.0 -1.107715539633e+01 
-1.999251210808e+01 1.315827086940e+01 0.0 
1.315827086940e+01 -1.792567150192e+01 0.0 
0.0 0.0 -1.097545508300e+01 
-1.720040052178e+01 5.841548514307e+00 0.0 
5.841548514307e+00 -1.440890097804e+01 0.0 
0.0 0.0 -9.082790449946e+00 
-2.516240284374e+01 4.135835882642e+00 0.0 
4.135835882642e+00 -3.303000679347e+01 0.0 
0.0 0.0 -1.705772289116e+01 
-3.447923716988e+01 2.998938248460e+00 0.0 
2.998938248460e+00 -5.251055552000e+01 0.0 
0.0 0.0 -2.569693780696e+01 
-4.344067072211e+01 2.349273230563e+00 0.0 
2.349273230563e+00 -7.196032086565e+01 0.0 
0.0 0.0 -3.422029747633e+01 
-5.193944149200e+01 2.008777429947e+00 0.0 
2.008777429947e+00 -9.150111868056e+01 0.0 
0.0 0.0 -4.263216805177e+01 
-1.978148984591e+01 1.220839646369e+01 0.0 
1.220839646369e+01 -2.419444077284e+01 0.0 
0.0 0.0 -1.279277918563e+01 
-1.491621764357e+02 1.508798893289e+01 0.0 
1.508798893289e+01 -3.547830188045e+02 0.0 
0.0 0.0 -1.507835585721e+02 
-1.234664995518e+01 -9.546362565846e-01 0.0 
-9.546362565846e-01 -1.681780645229e+01 0.0 
0.0 0.0 -8.736636947096e+00 
-1.714970061399e+01 -7.842623063911e-01 0.0 
-7.842623063911e-01 -1.604965123191e+01 0.0 
0.0 0.0 -9.946713284334e+00 
-1.539001371023e+02 9.766950372541e+00 0.0 
9.766950372541e+00 -3.662292233701e+02 0.0 
0.0 0.0 -1.556388081417e+02 
-2.116748060549e+01 1.443386661800e+01 0.0 
1.443386661800e+01 -2.742204707818e+01 0.0 
0.0 0.0 -1.417685830510e+01 
-7.950193901294e+01 4.582776350560e-02 0.0 
4.582776350560e-02 -2.089700047046e+02 0.0 
0.0 0.0 -8.614158311526e+01 
-1.436510879068e+02 1.832338867807e+01 0.0 
1.832338867807e+01 -3.400945593990e+02 0.0 
0.0 0.0 -1.447236941917e+02 
-2.734416900663e+01 9.816296105132e+00 0.0 
9.816296105132e+00 -3.493284986137e+01 0.0 
0.0 0.0 -1.828310566040e+01 
-1.383816734421e+02 1.961591792291e+01 0.0 
1.961591792291e+01 -3.238073397406e+02 0.0 
0.0 0.0 -1.382567039548e+02 
-4.356277398567e+01 4.637355999201e+00 0.0 
4.637355999201e+00 -7.055080357671e+01 0.0 
0.0 0.0 -3.383407326872e+01 
-1.571168486887e+02 5.910871943970e+00 0.0 
5.910871943970e+00 -3.724969223979e+02 0.0 
0.0 0.0 -1.584841313260e+02 
-8.761085657546e+00 -6.489682197049e-01 0.0 
-6.489682197049e-01 -1.619440783239e+01 0.0 
0.0 0.0 -7.496331674133e+00 
-1.327082606345e+02 1.779772414087e+01 0.0 
1.779772414087e+01 -3.068174682476e+02 0.0 
0.0 0.0 -1.314577186647e+02 
-5.979633855438e+01 3.042420694896e+00 0.0 
3.042420694896e+00 -1.090772624687e+02 0.0 
0.0 0.0 -5.026208030692e+01 
-4.879156560423e+01 -2.414687482616e-01 0.0 
-2.414687482616e-01 -1.300751199816e+02 0.0 
0.0 0.0 -5.326000567575e+01 
-1.025881029235e+02 1.979023084059e-01 0.0 
1.979023084059e-01 -2.622588839607e+02 0.0 
0.0 0.0 -1.090540960653e+02 
-1.289972992967e+02 1.494023709388e+01 0.0 
1.494023709388e+01 -2.958435677092e+02 0.0 
0.0 0.0 -1.270522601018e+02 
-1.251359832921e+02 1.034146475208e+01 0.0 
1.034146475208e+01 -2.875037759295e+02 0.0 
0.0 0.0 -1.233919277665e+02 
-1.209662863388e+02 2.983903242820e+00 0.0 
2.983903242820e+00 -2.803302626229e+02 0.0 
0.0 0.0 -1.199889646885e+02 
-1.213067799308e+02 4.886555105005e+00 0.0 
4.886555105005e+00 -2.797233655871e+02 0.0 
0.0 0.0 -1.199090436554e+02 
-1.232910465004e+02 7.549286267205e+00 0.0 
7.549286267205e+00 -2.841280526862e+02 0.0 
0.0 0.0 -1.218257297560e+02 
-6.160459698398e+01 1.760024865372e+00 0.0 
1.760024865372e+00 -1.166799199789e+02 0.0 
0.0 0.0 -5.308535508885e+01 
-5.878121051633e+01 5.230780190895e-01 0.0 
5.230780190895e-01 -1.155546150388e+02 0.0 
0.0 0.0 -5.190074766653e+01 
-5.813872551707e+01 3.327597626797e-01 0.0 
3.327597626797e-01 -1.166812380476e+02 0.0 
0.0 0.0 -5.204598906940e+01 
-8.557256424507e+01 3.435483737160e-01 0.0 
3.435483737160e-01 -1.868363417600e+02 0.0 
0.0 0.0 -8.132267180151e+01 
-1.574890553514e+02 3.501372777657e+00 0.0 
3.501372777657e+00 -3.732965964826e+02 0.0 
0.0 0.0 -1.588356955502e+02 
-1.746431821114e+01 1.272342642193e+00 0.0 
1.272342642193e+00 -1.481462050449e+01 0.0 
0.0 0.0 -9.683945488397e+00 
-7.393764871703e+00 -3.709792419851e-01 0.0 
-3.709792419851e-01 -1.721519891699e+01 0.0 
0.0 0.0 -7.371689423179e+00 
-1.313983208326e+02 4.952833441323e-01 0.0 
4.952833441323e-01 -3.229051966256e+02 0.0 
0.0 0.0 -1.358910552375e+02 
-5.623946052495e+01 -2.096331082261e-03 0.0 
-2.096331082261e-03 -1.143412399636e+02 0.0 
0.0 0.0 -5.077421014657e+01 
-2.590593382591e+01 -2.781536607294e-01 0.0 
-2.781536607294e-01 -6.901132222681e+01 0.0 
0.0 0.0 -2.807517681582e+01 
-1.256904794659e+02 1.241771488911e+01 0.0 
1.241771488911e+01 -2.876416529523e+02 0.0 
0.0 0.0 -1.235996397254e+02 
-1.416270594702e+02 1.939617311473e+01 0.0 
1.939617311473e+01 -3.334323325280e+02 0.0 
0.0 0.0 -1.421178175995e+02 
-1.354156779795e+02 1.906034200448e+01 0.0 
1.906034200448e+01 -3.149257170606e+02 0.0 
0.0 0.0 -1.347024185120e+02 
-1.456587001209e+02 1.692100499750e+01 0.0 
1.692100499750e+01 -3.463945616511e+02 0.0 
0.0 0.0 -1.472159785316e+02 
-1.516441234215e+02 1.306296251433e+01 0.0 
1.306296251433e+01 -3.607499681789e+02 0.0 
0.0 0.0 -1.533182274801e+02 
-1.547945871473e+01 -1.147135064842e+00 0.0 
-1.147135064842e+00 -1.717248724493e+01 0.0 
0.0 0.0 -9.784785412116e+00 
-5.972875602293e+01 9.340763849989e-01 0.0 
9.340763849989e-01 -1.152723233172e+02 0.0 
0.0 0.0 -5.210032380202e+01 
-1.537109062761e+02 7.657836483688e+00 0.0 
7.657836483688e+00 -3.663448733445e+02 0.0 
0.0 0.0 -1.556167338862e+02 
-1.006319664745e+02 4.394333590631e-01 0.0 
4.394333590631e-01 -2.258370634246e+02 0.0 
0.0 0.0 -9.754070896974e+01 
-1.058200507661e+01 -8.482067929941e-01 0.0 
-8.482067929941e-01 -1.708164765754e+01 0.0 
0.0 0.0 -8.299964619750e+00 
-6.348241671794e+01 -9.920550871835e-02 0.0 
-9.920550871835e-02 -1.686397841548e+02 0.0 
0.0 0.0 -6.923666026183e+01 
-1.217083917550e+02 1.839997812630e+00 0.0 
1.839997812630e+00 -2.828790745799e+02 0.0 
0.0 0.0 -1.209762399005e+02 
-2.377893779634e+01 1.416005164818e+01 0.0 
1.416005164818e+01 -3.034934742626e+01 0.0 
0.0 0.0 -1.583848556678e+01 
-2.079997446148e+01 1.399011435360e+01 0.0 
1.399011435360e+01 -2.661126709364e+01 0.0 
0.0 0.0 -1.382337246654e+01 
-3.521769094376e+01 6.608870944466e+00 0.0 
6.608870944466e+00 -5.164885325580e+01 0.0 
0.0 0.0 -2.565996325987e+01 
-5.174825256475e+01 3.674531507497e+00 0.0 
3.674531507497e+00 -8.948978263468e+01 0.0 
0.0 0.0 -4.197141055983e+01 
-1.717133076724e+01 8.552197329060e+00 0.0 
8.552197329060e+00 -1.759402585009e+01 0.0 
0.0 0.0 -1.007887501889e+01 
-7.056846068637e+01 1.343414602893e-01 0.0 
1.343414602893e-01 -1.493651629449e+02 0.0 
0.0 0.0 -6.558008708938e+01 
-1.594629788118e+02 1.959086226203e+00 0.0 
1.959086226203e+00 -3.770796583874e+02 0.0 
0.0 0.0 -1.605627911597e+02 
-6.658543203355e+00 -2.335167818522e-01 0.0 
-2.335167818522e-01 -1.637258656502e+01 0.0 
0.0 0.0 -6.865204671991e+00 
-1.151749661720e+02 4.494900817809e-01 0.0 
4.494900817809e-01 -2.646683521266e+02 0.0 
0.0 0.0 -1.135529954896e+02 
-6.365943671197e+01 2.981864975306e+00 0.0 
2.981864975306e+00 -1.181286374385e+02 0.0 
0.0 0.0 -5.413642224513e+01 
-6.795907920680e+01 4.154492622654e+00 0.0 
4.154492622654e+00 -1.272586404238e+02 0.0 
0.0 0.0 -5.816531588918e+01 
-7.122144073585e+01 3.750256085255e+00 0.0 
3.750256085255e+00 -1.360238158710e+02 0.0 
0.0 0.0 -6.177357698204e+01 
-7.615595995470e+01 5.323102505994e+00 0.0 
5.323102505994e+00 -1.469539127781e+02 0.0 
0.0 0.0 -6.653296181985e+01 
-7.978935074189e+01 5.046558966041e+00 0.0 
5.046558966041e+00 -1.565609356678e+02 0.0 
0.0 0.0 -7.050508592291e+01 
-8.409373918898e+01 6.392710932524e+00 0.0 
6.392710932524e+00 -1.665994734670e+02 0.0 
0.0 0.0 -7.480796379678e+01 
-8.066212630873e+01 6.763747701715e+00 0.0 
6.763747701715e+00 -1.572431883016e+02 0.0 
0.0 0.0 -7.097159438311e+01 
-8.842862482823e+01 7.821894575887e+00 0.0 
7.821894575887e+00 -1.770916294582e+02 0.0 
0.0 0.0 -7.925607628592e+01 
-8.492719391199e+01 8.280406234407e+00 0.0 
8.280406234407e+00 -1.678823268823e+02 0.0 
0.0 0.0 -7.544285623828e+01 
-8.778224184981e+01 6.150916138815e+00 0.0 
6.150916138815e+00 -1.764414346458e+02 0.0 
0.0 0.0 -7.886710294867e+01 
-9.256552546009e+01 9.281948923355e+00 0.0 
9.281948923355e+00 -1.879372741438e+02 0.0 
0.0 0.0 -8.375083988116e+01 
-8.904494887263e+01 9.816770855032e+00 0.0 
9.816770855032e+00 -1.789824736066e+02 0.0 
0.0 0.0 -8.000822674377e+01 
-9.654569194248e+01 1.071134921992e+01 0.0 
1.071134921992e+01 -1.991466218066e+02 0.0 
0.0 0.0 -8.830769412472e+01 
-9.299464363606e+01 1.130469085644e+01 0.0 
1.130469085644e+01 -1.905298934335e+02 0.0 
0.0 0.0 -8.465736112087e+01 
-8.544959822226e+01 1.050897196899e+01 0.0 
1.050897196899e+01 -1.704137021186e+02 0.0 
0.0 0.0 -7.635899010227e+01 
-8.931793659469e+01 1.201321221006e+01 0.0 
1.201321221006e+01 -1.823196981306e+02 0.0 
0.0 0.0 -8.109129041758e+01 
-8.172494396541e+01 1.135147599109e+01 0.0 
1.135147599109e+01 -1.621605449751e+02 0.0 
0.0 0.0 -7.276564668217e+01 
-8.549529496394e+01 1.285372562333e+01 0.0 
1.285372562333e+01 -1.745128888650e+02 0.0 
0.0 0.0 -7.760245514868e+01 
-9.302964809321e+01 1.333823019713e+01 0.0 
1.333823019713e+01 -1.945984142086e+02 0.0 
0.0 0.0 -8.588841869054e+01 
-8.910161903176e+01 1.410816144235e+01 0.0 
1.410816144235e+01 -1.872013798688e+02 0.0 
0.0 0.0 -8.249089967016e+01 
-8.145209606870e+01 1.379478063655e+01 0.0 
1.379478063655e+01 -1.671288749042e+02 0.0 
0.0 0.0 -7.417429129187e+01 
-8.493842874663e+01 1.490782085835e+01 0.0 
1.490782085835e+01 -1.802273792775e+02 0.0 
0.0 0.0 -7.914974240725e+01 
-7.721622650434e+01 1.477733089630e+01 0.0 
1.477733089630e+01 -1.602865980665e+02 0.0 
0.0 0.0 -7.085084737125e+01 
-8.060019714036e+01 1.566781650821e+01 0.0 
1.566781650821e+01 -1.737960290360e+02 0.0 
0.0 0.0 -7.591886785292e+01 
-7.277480858715e+01 1.571963864012e+01 0.0 
1.571963864012e+01 -1.540117365417e+02 0.0 
0.0 0.0 -6.763596353864e+01 
-7.608279613012e+01 1.630581446028e+01 0.0 
1.630581446028e+01 -1.678791228692e+02 0.0 
0.0 0.0 -7.278857569981e+01 
-8.395389014206e+01 1.617835020436e+01 0.0 
1.617835020436e+01 -1.873022843927e+02 0.0 
0.0 0.0 -8.097685236043e+01 
-7.937980935715e+01 1.650675433756e+01 0.0 
1.650675433756e+01 -1.815501890811e+02 0.0 
0.0 0.0 -7.787899953146e+01 
-7.142701439477e+01 1.671852367055e+01 0.0 
1.671852367055e+01 -1.624504616034e+02 0.0 
0.0 0.0 -6.976324279946e+01 
-7.472572172129e+01 1.658064415774e+01 0.0 
1.658064415774e+01 -1.761634243378e+02 0.0 
0.0 0.0 -7.486674381774e+01 
-6.672812482868e+01 1.679885607709e+01 0.0 
1.679885607709e+01 -1.574381746181e+02 0.0 
0.0 0.0 -6.684988983402e+01 
-7.007187828623e+01 1.632478709170e+01 0.0 
1.632478709170e+01 -1.710217208692e+02 0.0 
0.0 0.0 -7.192807974664e+01 
-7.812972690068e+01 1.619269451687e+01 0.0 
1.619269451687e+01 -1.894927867498e+02 0.0 
0.0 0.0 -7.988675409513e+01 
-7.354683518955e+01 1.566829888676e+01 0.0 
1.566829888676e+01 -1.841558911394e+02 0.0 
0.0 0.0 -7.691081789869e+01 
-6.548790837724e+01 1.570327303841e+01 0.0 
1.570327303841e+01 -1.659540800015e+02 0.0 
0.0 0.0 -6.903259651361e+01 
-6.906460159783e+01 1.482189321982e+01 0.0 
1.482189321982e+01 -1.788194742485e+02 0.0 
0.0 0.0 -7.396522275390e+01 
-6.107455668911e+01 1.471711478518e+01 0.0 
1.471711478518e+01 -1.608468457696e+02 0.0 
0.0 0.0 -6.617642073762e+01 
-6.477761866030e+01 1.366587546593e+01 0.0 
1.366587546593e+01 -1.733972847068e+02 0.0 
0.0 0.0 -7.105247101012e+01 
-5.692575904072e+01 1.339158547485e+01 0.0 
1.339158547485e+01 -1.555849982547e+02 0.0 
0.0 0.0 -6.335322718861e+01 
-6.070990344029e+01 1.223093269013e+01 0.0 
1.223093269013e+01 -1.676884374166e+02 0.0 
0.0 0.0 -6.811950225706e+01 
-6.860840298344e+01 1.262196521822e+01 0.0 
1.262196521822e+01 -1.854285755232e+02 0.0 
0.0 0.0 -7.581109355199e+01 
-6.461978875352e+01 1.114314231269e+01 0.0 
1.114314231269e+01 -1.793250037658e+02 0.0 
0.0 0.0 -7.278343775580e+01 
-5.692359131036e+01 1.059652339042e+01 0.0 
1.059652339042e+01 -1.616373392289e+02 0.0 
0.0 0.0 -6.516827916177e+01 
-6.086006020595e+01 9.506220140956e+00 0.0 
9.506220140956e+00 -1.727918553808e+02 0.0 
0.0 0.0 -6.969557467603e+01 
-6.864729857745e+01 1.013781681093e+01 0.0 
1.013781681093e+01 -1.905674630468e+02 0.0 
0.0 0.0 -7.736442848728e+01 
-6.489048621989e+01 8.535671666206e+00 0.0 
8.535671666206e+00 -1.835730226507e+02 0.0 
0.0 0.0 -7.413905266117e+01 
-7.277904963300e+01 9.236885161759e+00 0.0 
9.236885161759e+00 -2.014537770621e+02 0.0 
0.0 0.0 -8.186984800852e+01 
-6.901363853743e+01 7.685890946359e+00 0.0 
7.685890946359e+00 -1.940505868979e+02 0.0 
0.0 0.0 -7.851926763059e+01 
-6.138710384590e+01 6.896710912586e+00 0.0 
6.896710912586e+00 -1.762276127999e+02 0.0 
0.0 0.0 -7.088441499375e+01 
-6.546348426874e+01 6.128009786851e+00 0.0 
6.128009786851e+00 -1.862913136129e+02 0.0 
0.0 0.0 -7.512643936450e+01 
-7.321165625527e+01 6.952172897803e+00 0.0 
6.952172897803e+00 -2.042443744918e+02 0.0 
0.0 0.0 -8.283680922411e+01 
-6.959117859503e+01 5.481955467902e+00 0.0 
5.481955467902e+00 -1.960879134488e+02 0.0 
0.0 0.0 -7.930372761316e+01 
-6.210077527355e+01 4.615614020586e+00 0.0 
4.615614020586e+00 -1.781439212651e+02 0.0 
0.0 0.0 -7.167340896158e+01 
-6.615642507677e+01 4.075551578496e+00 0.0 
4.075551578496e+00 -1.876231075155e+02 0.0 
0.0 0.0 -7.573385977768e+01 
-7.379151634245e+01 4.949503160104e+00 0.0 
4.949503160104e+00 -2.057267853002e+02 0.0 
0.0 0.0 -8.345549049281e+01 
-7.026512754367e+01 3.645032851740e+00 0.0 
3.645032851740e+00 -1.969499426698e+02 0.0 
0.0 0.0 -7.976452106403e+01 
-6.285375650092e+01 2.769080895445e+00 0.0 
2.769080895445e+00 -1.788042980214e+02 0.0 
0.0 0.0 -7.209741635669e+01 
-6.685496639429e+01 2.451354689384e+00 0.0 
2.451354689384e+00 -1.878791855272e+02 0.0 
0.0 0.0 -7.602024557645e+01 
-7.446272582429e+01 3.315059689972e+00 0.0 
3.315059689972e+00 -2.062585762116e+02 0.0 
0.0 0.0 -8.381639061076e+01 
-7.090307662461e+01 2.222250227571e+00 0.0 
2.222250227571e+00 -1.968753898447e+02 0.0 
0.0 0.0 -7.993353994080e+01 
-6.350259890279e+01 1.387859791772e+00 0.0 
1.387859791772e+00 -1.784456791820e+02 0.0 
0.0 0.0 -7.218448342544e+01 
-6.740828540180e+01 1.253817142852e+00 0.0 
1.253817142852e+00 -1.872077188927e+02 0.0 
0.0 0.0 -7.598480128836e+01 
-7.502087242825e+01 2.060940705621e+00 0.0 
2.060940705621e+00 -2.058844490630e+02 0.0 
0.0 0.0 -8.387159644738e+01 
-7.136187943435e+01 1.180199789718e+00 0.0 
1.180199789718e+00 -1.959564552394e+02 0.0 
0.0 0.0 -7.979550040211e+01 
-7.917289150222e+01 1.951475437955e+00 0.0 
1.951475437955e+00 -2.148338296531e+02 0.0 
0.0 0.0 -8.780201634658e+01 
-6.388332287473e+01 4.258915881135e-01 0.0 
4.258915881135e-01 -1.771157180043e+02 0.0 
0.0 0.0 -7.189971226370e+01 
-6.770106013444e+01 4.408419555229e-01 0.0 
4.408419555229e-01 -1.857355919230e+02 0.0 
0.0 0.0 -7.563099561723e+01 
-6.032739158352e+01 -2.461488673810e-01 0.0 
-2.461488673810e-01 -1.666876255145e+02 0.0 
0.0 0.0 -6.770450512941e+01 
-6.404180054349e+01 -1.485086000834e-01 0.0 
-1.485086000834e-01 -1.752887475512e+02 0.0 
0.0 0.0 -7.139916442840e+01 
-8.167649283574e+01 1.564514155709e+01 0.0 
1.564514155709e+01 -2.024368238508e+02 0.0 
0.0 0.0 -8.483399500595e+01 
-5.675795432987e+01 -7.461123547714e-01 0.0 
-7.461123547714e-01 -1.560705239999e+02 0.0 
0.0 0.0 -6.344854349892e+01 
-5.330158776931e+01 -8.720492597183e-01 0.0 
-8.720492597183e-01 -1.477550479277e+02 0.0 
0.0 0.0 -5.991699070911e+01 
-6.036244310742e+01 -5.837628457196e-01 0.0 
-5.837628457196e-01 -1.646708159322e+02 0.0 
0.0 0.0 -6.710997771188e+01 
-6.783975259260e+01 -3.226335426291e-02 0.0 
-3.226335426291e-02 -1.840216216905e+02 0.0 
0.0 0.0 -7.515841228493e+01 
-5.312814709119e+01 -1.084853397615e+00 0.0 
-1.084853397615e+00 -1.452857459811e+02 0.0 
0.0 0.0 -5.912416792168e+01 
-5.663970059536e+01 -8.831642554832e-01 0.0 
-8.831642554832e-01 -1.539020976434e+02 0.0 
0.0 0.0 -6.276253947162e+01 
-4.943864959716e+01 -1.291644497614e+00 0.0 
-1.291644497614e+00 -1.343931187214e+02 0.0 
0.0 0.0 -5.474953049555e+01 
-5.311231964432e+01 1.454348856867e+01 0.0 
1.454348856867e+01 -1.426306557765e+02 0.0 
0.0 0.0 -5.832289262624e+01 
-9.664430460230e+01 1.445835402706e+01 0.0 
1.445835402706e+01 -2.071653746293e+02 0.0 
0.0 0.0 -9.074290376949e+01 
-5.285964645315e+01 -1.063269858775e+00 0.0 
-1.063269858775e+00 -1.430245921663e+02 0.0 
0.0 0.0 -5.836527158584e+01 
-4.565838546067e+01 -1.351266463335e+00 0.0 
-1.351266463335e+00 -1.234035533341e+02 0.0 
0.0 0.0 -5.031858163843e+01 
-4.241173625151e+01 -1.596337118501e+00 0.0 
-1.596337118501e+00 -1.148004063791e+02 0.0 
0.0 0.0 -4.676364278919e+01 
-3.864980845311e+01 -1.559054277699e+00 0.0 
-1.559054277699e+00 -1.037450554994e+02 0.0 
0.0 0.0 -4.231845918575e+01 
-8.355295633886e+01 4.991368041130e+00 0.0 
4.991368041130e+00 -1.665665375687e+02 0.0 
0.0 0.0 -7.463584817227e+01 
-9.115503661817e+01 5.903674272476e+00 0.0 
5.903674272476e+00 -1.863810512250e+02 0.0 
0.0 0.0 -8.286082635295e+01 
-8.669065882813e+01 4.757065286784e+00 0.0 
4.757065286784e+00 -1.759925980328e+02 0.0 
0.0 0.0 -7.840497705827e+01 
-9.447095829695e+01 5.756258142606e+00 0.0 
5.756258142606e+00 -1.963675861246e+02 0.0 
0.0 0.0 -8.685156332647e+01 
-9.026595137625e+01 4.680320103618e+00 0.0 
4.680320103618e+00 -1.865006890053e+02 0.0 
0.0 0.0 -8.262999211446e+01 
-4.181432716622e+01 -1.283323096140e+00 0.0 
-1.283323096140e+00 -1.123147644383e+02 0.0 
0.0 0.0 -4.583872748135e+01 
-1.000430227531e+02 1.023036513287e+01 0.0 
1.023036513287e+01 -2.082560333400e+02 0.0 
0.0 0.0 -9.208971682792e+01 
-9.863337356447e+01 6.918623392708e+00 0.0 
6.918623392708e+00 -2.064515583337e+02 0.0 
0.0 0.0 -9.112547956946e+01 
-7.370811052059e+01 1.346556415959e+01 0.0 
1.346556415959e+01 -1.469411337778e+02 0.0 
0.0 0.0 -6.579477328952e+01 
-6.346644662851e+01 1.697969332692e+01 0.0 
1.697969332692e+01 -1.433668759695e+02 0.0 
0.0 0.0 -6.164999677939e+01 
-7.675421220864e+01 1.072913933938e+01 0.0 
1.072913933938e+01 -2.085087772270e+02 0.0 
0.0 0.0 -8.517889683068e+01 
-6.020929367336e+01 -6.702641124334e-01 0.0 
-6.702641124334e-01 -1.625499497079e+02 0.0 
0.0 0.0 -6.642777301439e+01 
-5.634825848664e+01 -8.387882492828e-01 0.0 
-8.387882492828e-01 -1.517004741235e+02 0.0 
0.0 0.0 -6.201461978303e+01 
-6.378117784801e+01 -4.529478182383e-01 0.0 
-4.529478182383e-01 -1.712463023512e+02 0.0 
0.0 0.0 -7.010824405977e+01 
-8.300350257992e+01 2.881421522041e+00 0.0 
2.881421522041e+00 -2.246682629683e+02 0.0 
0.0 0.0 -9.190152966448e+01 
-8.731026604608e+01 2.728540864613e+00 0.0 
2.728540864613e+00 -2.337253042153e+02 0.0 
0.0 0.0 -9.591067107841e+01 
-9.132387853628e+01 3.696637785506e+00 0.0 
3.696637785506e+00 -2.434814581439e+02 0.0 
0.0 0.0 -1.000416010040e+02 
-9.576566133748e+01 3.499048917951e+00 0.0 
3.499048917951e+00 -2.526031170869e+02 0.0 
0.0 0.0 -1.041106335273e+02 
-9.996985936810e+01 4.499013405977e+00 0.0 
4.499013405977e+00 -2.622960861822e+02 0.0 
0.0 0.0 -1.082797836651e+02 
-1.045332782270e+02 4.251443402921e+00 0.0 
4.251443402921e+00 -2.714615984632e+02 0.0 
0.0 0.0 -1.123984630070e+02 
-1.002110056379e+02 3.317828994783e+00 0.0 
3.317828994783e+00 -2.616153617205e+02 0.0 
0.0 0.0 -1.081479102075e+02 
-1.090977268137e+02 4.015575309178e+00 0.0 
4.015575309178e+00 -2.805094169821e+02 0.0 
0.0 0.0 -1.164821431387e+02 
-1.046562853060e+02 3.138926318054e+00 0.0 
3.138926318054e+00 -2.705328993828e+02 0.0 
0.0 0.0 -1.121567554066e+02 
-1.089287715164e+02 5.277604765679e+00 0.0 
5.277604765679e+00 -2.810957520458e+02 0.0 
0.0 0.0 -1.166073570687e+02 
-1.042295676425e+02 5.588576360253e+00 0.0 
5.588576360253e+00 -2.717227708788e+02 0.0 
0.0 0.0 -1.123857015564e+02 
-1.136585751686e+02 3.774922119001e+00 0.0 
3.774922119001e+00 -2.894451236150e+02 0.0 
0.0 0.0 -1.205311096351e+02 
-1.090962503498e+02 2.944760372176e+00 0.0 
2.944760372176e+00 -2.793576393565e+02 0.0 
0.0 0.0 -1.161361669119e+02 
-1.182173191514e+02 3.512054565016e+00 0.0 
3.512054565016e+00 -2.982814851608e+02 0.0 
0.0 0.0 -1.245496412937e+02 
-1.135294025330e+02 2.727150341831e+00 0.0 
2.727150341831e+00 -2.880982507154e+02 0.0 
0.0 0.0 -1.200882959745e+02 
-1.045656321680e+02 2.210225757268e+00 0.0 
2.210225757268e+00 -2.690760074451e+02 0.0 
0.0 0.0 -1.116924918840e+02 
-1.088629299335e+02 2.034051753601e+00 0.0 
2.034051753601e+00 -2.777283575151e+02 0.0 
0.0 0.0 -1.155773862346e+02 
-1.000899193496e+02 1.587089849956e+00 0.0 
1.587089849956e+00 -2.587039631283e+02 0.0 
0.0 0.0 -1.072381647434e+02 
-8.097990572772e+01 9.905898996031e+00 0.0 
9.905898996031e+00 -2.194824937696e+02 0.0 
0.0 0.0 -8.973871984918e+01 
-8.513203287340e+01 1.129768425726e+01 0.0 
1.129768425726e+01 -2.266241619136e+02 0.0 
0.0 0.0 -9.312685843608e+01 
-8.945637862805e+01 1.055488411988e+01 0.0 
1.055488411988e+01 -2.376592283318e+02 0.0 
0.0 0.0 -9.773468208795e+01 
-9.375001173649e+01 1.186589166859e+01 0.0 
1.186589166859e+01 -2.448965251474e+02 0.0 
0.0 0.0 -1.011939610652e+02 
-9.819418981935e+01 1.121148937759e+01 0.0 
1.121148937759e+01 -2.559757208081e+02 0.0 
0.0 0.0 -1.058509731882e+02 
-1.025858005003e+02 1.246194158700e+01 0.0 
1.246194158700e+01 -2.632942516589e+02 0.0 
0.0 0.0 -1.093640156477e+02 
-1.071611945875e+02 1.189488197130e+01 0.0 
1.189488197130e+01 -2.743693530188e+02 0.0 
0.0 0.0 -1.140591642819e+02 
-1.027629843472e+02 1.061437545149e+01 0.0 
1.061437545149e+01 -2.667598593185e+02 0.0 
0.0 0.0 -1.104568530997e+02 
-1.003500385689e+02 1.208185202298e+01 0.0 
1.208185202298e+01 -2.106725806845e+02 0.0 
0.0 0.0 -9.290678577601e+01 
-5.342857576892e+01 8.811497907134e+00 0.0 
8.811497907134e+00 -1.551623624222e+02 0.0 
0.0 0.0 -6.217728145733e+01 
-4.958759829970e+01 9.971950001482e+00 0.0 
9.971950001482e+00 -1.440865741388e+02 0.0 
0.0 0.0 -5.770225173155e+01 
-4.642486030376e+01 8.039167439936e+00 0.0 
8.039167439936e+00 -1.376741465105e+02 0.0 
0.0 0.0 -5.482970204429e+01 
-4.272468895811e+01 9.250831188368e+00 0.0 
9.250831188368e+00 -1.267024046815e+02 0.0 
0.0 0.0 -5.042812809189e+01 
-3.993690037120e+01 7.192021479945e+00 0.0 
7.192021479945e+00 -1.203000345978e+02 0.0 
0.0 0.0 -4.767108049070e+01 
-3.645328759019e+01 8.447036107220e+00 0.0 
8.447036107220e+00 -1.094525750432e+02 0.0 
0.0 0.0 -4.337175879002e+01 
-3.405733546393e+01 6.302739224102e+00 0.0 
6.302739224102e+00 -1.029591247379e+02 0.0 
0.0 0.0 -4.070493806056e+01 
-3.743416653672e+01 5.157433260078e+00 0.0 
5.157433260078e+00 -1.132511836137e+02 0.0 
0.0 0.0 -4.480560504512e+01 
-3.193191028783e+01 4.239020424592e+00 0.0 
4.239020424592e+00 -9.574475355652e+01 0.0 
0.0 0.0 -3.790299915331e+01 
-3.516105717017e+01 3.239948121643e+00 0.0 
3.239948121643e+00 -1.055190644736e+02 0.0 
0.0 0.0 -4.180403649312e+01 
-2.997681555104e+01 2.342439432802e+00 0.0 
2.342439432802e+00 -8.778630993054e+01 0.0 
0.0 0.0 -3.492893764447e+01 
-3.300641873417e+01 1.521665336600e+00 0.0 
1.521665336600e+00 -9.705282341276e+01 0.0 
0.0 0.0 -3.861777264408e+01 
-8.733331313958e+01 1.638235752813e+01 0.0 
1.638235752813e+01 -2.006696036686e+02 0.0 
0.0 0.0 -8.600087504245e+01 
-9.814708184676e+01 1.307331618326e+01 0.0 
1.307331618326e+01 -2.518826395508e+02 0.0 
0.0 0.0 -1.046089164193e+02 
-1.070669502322e+02 1.361515700208e+01 0.0 
1.361515700208e+01 -2.704153428126e+02 0.0 
0.0 0.0 -1.128446879134e+02 
-1.025898329683e+02 1.415009969949e+01 0.0 
1.415009969949e+01 -2.586032892610e+02 0.0 
0.0 0.0 -1.079579366688e+02 
-3.553437424882e+01 -1.773229456422e+00 0.0 
-1.773229456422e+00 -9.517295162058e+01 0.0 
0.0 0.0 -3.881219776082e+01 
-1.179544873151e+02 2.474306865194e+00 0.0 
2.474306865194e+00 -2.967729546815e+02 0.0 
0.0 0.0 -1.240182325990e+02 
-1.133946651132e+02 6.391721147370e+00 0.0 
6.391721147370e+00 -2.904925105080e+02 0.0 
0.0 0.0 -1.207661526864e+02 
-1.085495310829e+02 6.747905684824e+00 0.0 
6.747905684824e+00 -2.808492313468e+02 0.0 
0.0 0.0 -1.164196287289e+02 
-1.118920160820e+02 1.136160523445e+01 0.0 
1.136160523445e+01 -2.852026082833e+02 0.0 
0.0 0.0 -1.187283873096e+02 
-3.483219584033e+01 -1.413406311195e+00 0.0 
-1.413406311195e+00 -9.278100061004e+01 0.0 
0.0 0.0 -3.788395893511e+01 
-3.091858370732e+01 7.626373969103e+00 0.0 
7.626373969103e+00 -9.232315792803e+01 0.0 
0.0 0.0 -3.657252249060e+01 
-3.312881417936e+01 9.820351180387e+00 0.0 
9.820351180387e+00 -9.800977924474e+01 0.0 
0.0 0.0 -3.894157802723e+01 
-9.778516547955e+01 5.620467850775e+00 0.0 
5.620467850775e+00 -2.065062842715e+02 0.0 
0.0 0.0 -9.088743492530e+01 
-9.367541253089e+01 4.600815266923e+00 0.0 
4.600815266923e+00 -1.967458499249e+02 0.0 
0.0 0.0 -8.672637873674e+01 
-1.179556153570e+02 7.567279661237e+00 0.0 
7.567279661237e+00 -2.996662143267e+02 0.0 
0.0 0.0 -1.248865489051e+02 
-3.796276335651e+01 -1.170416703865e+00 0.0 
-1.170416703865e+00 -1.013312564947e+02 0.0 
0.0 0.0 -4.138820595537e+01 
-1.182806690978e+02 4.692750275128e+00 0.0 
4.692750275128e+00 -2.993578072713e+02 0.0 
0.0 0.0 -1.248915429107e+02 
-2.717093111410e+01 3.355978777989e+00 0.0 
3.355978777989e+00 -7.828386789818e+01 0.0 
0.0 0.0 -3.123643970369e+01 
-1.131600233837e+02 1.816260783585e+00 0.0 
1.816260783585e+00 -2.863327202898e+02 0.0 
0.0 0.0 -1.194478231021e+02 
-1.223446029131e+02 2.180274989889e+00 0.0 
2.180274989889e+00 -3.053720004042e+02 0.0 
0.0 0.0 -1.279149809952e+02 
-9.596016864413e+01 2.486029248308e+00 0.0 
2.486029248308e+00 -2.515971809195e+02 0.0 
0.0 0.0 -1.038672048691e+02 
-1.115889529079e+02 1.466684649451e+01 0.0 
1.466684649451e+01 -2.773698917373e+02 0.0 
0.0 0.0 -1.162876533936e+02 
-1.070546335946e+02 1.507686391819e+01 0.0 
1.507686391819e+01 -2.651592329318e+02 0.0 
0.0 0.0 -1.112641599579e+02 
-3.857336107846e+01 2.456515570559e+00 0.0 
2.456515570559e+00 -1.151004588558e+02 0.0 
0.0 0.0 -4.570214598029e+01 
-3.619420047237e+01 9.786155321902e-01 0.0 
9.786155321902e-01 -1.062610590637e+02 0.0 
0.0 0.0 -4.233657786082e+01 
-3.095888912831e+01 1.536117544233e-01 0.0 
1.536117544233e-01 -8.831644960391e+01 0.0 
0.0 0.0 -3.538260161967e+01 
-3.423979723064e+01 -2.672735762126e-01 0.0 
-2.672735762126e-01 -9.763410692690e+01 0.0 
0.0 0.0 -3.916217124726e+01 
-3.956568294659e+01 5.031194844034e-01 0.0 
5.031194844034e-01 -1.155421222734e+02 0.0 
0.0 0.0 -4.613234156601e+01 
-3.704685548183e+01 -6.497781360946e-01 0.0 
-6.497781360946e-01 -1.058313366944e+02 0.0 
0.0 0.0 -4.246345765287e+01 
-3.166842274719e+01 -1.351887105923e+00 0.0 
-1.351887105923e+00 -8.746412068796e+01 0.0 
0.0 0.0 -3.533976303055e+01 
-3.442830043597e+01 -1.453752094026e+00 0.0 
-1.453752094026e+00 -9.572285040865e+01 0.0 
0.0 0.0 -3.864534525339e+01 
-4.019084589779e+01 -8.283737983093e-01 0.0 
-8.283737983093e-01 -1.144537292122e+02 0.0 
0.0 0.0 -4.599337253301e+01 
-3.735094233623e+01 -1.531587830854e+00 0.0 
-1.531587830854e+00 -1.041573198910e+02 0.0 
0.0 0.0 -4.205247866816e+01 
-3.167383650758e+01 -1.972496808082e+00 0.0 
-1.972496808082e+00 -8.510970152877e+01 0.0 
0.0 0.0 -3.463506141090e+01 
-3.432415476889e+01 -1.950912261736e+00 0.0 
-1.950912261736e+00 -9.345559841641e+01 0.0 
0.0 0.0 -3.793392595559e+01 
-1.272746081495e+02 2.880243793119e+00 0.0 
2.880243793119e+00 -3.156934450081e+02 0.0 
0.0 0.0 -1.324904159473e+02 
-2.557952113879e+01 1.536932387638e+00 0.0 
1.536932387638e+00 -7.005136760737e+01 0.0 
0.0 0.0 -2.828926662385e+01 
-7.771222203249e+01 9.671270360036e+00 0.0 
9.671270360036e+00 -1.502598572987e+02 0.0 
0.0 0.0 -6.799162379936e+01 
-1.228619681003e+02 7.166408004506e+00 0.0 
7.166408004506e+00 -3.092187271350e+02 0.0 
0.0 0.0 -1.292242085706e+02 
-1.162971531660e+02 1.261352482691e+01 0.0 
1.261352482691e+01 -2.926472750246e+02 0.0 
0.0 0.0 -1.222833284572e+02 
-1.011028162491e+02 5.472456107201e+00 0.0 
5.472456107201e+00 -2.167910177010e+02 0.0 
0.0 0.0 -9.496815018506e+01 
-9.708821265862e+01 4.505283487273e+00 0.0 
4.505283487273e+00 -2.071588880439e+02 0.0 
0.0 0.0 -9.087413021076e+01 
-8.946064434922e+01 3.646471484499e+00 0.0 
3.646471484499e+00 -1.871220064734e+02 0.0 
0.0 0.0 -8.257479524679e+01 
-9.301393455170e+01 3.616117161163e+00 0.0 
3.616117161163e+00 -1.977286572647e+02 0.0 
0.0 0.0 -8.682277754493e+01 
-1.005056344016e+02 4.399737120182e+00 0.0 
4.399737120182e+00 -2.177555296732e+02 0.0 
0.0 0.0 -9.507834922244e+01 
-9.656002790698e+01 3.555308440842e+00 0.0 
3.555308440842e+00 -2.083804306767e+02 0.0 
0.0 0.0 -9.108213757510e+01 
-8.890798531192e+01 2.850903938419e+00 0.0 
2.850903938419e+00 -1.884136015252e+02 0.0 
0.0 0.0 -8.279647605112e+01 
-9.259780290216e+01 2.817898895674e+00 0.0 
2.817898895674e+00 -1.990855298468e+02 0.0 
0.0 0.0 -8.710499982467e+01 
-8.482778260571e+01 2.192150566116e+00 0.0 
2.192150566116e+00 -1.791662864539e+02 0.0 
0.0 0.0 -7.879822071788e+01 
-8.862900469008e+01 2.180086248546e+00 0.0 
2.180086248546e+00 -1.898903080310e+02 0.0 
0.0 0.0 -8.315579381633e+01 
-9.629539624878e+01 2.747266955795e+00 0.0 
2.747266955795e+00 -2.098134973633e+02 0.0 
0.0 0.0 -9.143266808362e+01 
-9.243895585905e+01 2.149983899230e+00 0.0 
2.149983899230e+00 -2.006925344695e+02 0.0 
0.0 0.0 -8.753944709858e+01 
-8.464930665652e+01 1.635619334194e+00 0.0 
1.635619334194e+00 -1.808265056643e+02 0.0 
0.0 0.0 -7.924274369626e+01 
-8.857205883080e+01 1.641318876752e+00 0.0 
1.641318876752e+00 -1.916260004734e+02 0.0 
0.0 0.0 -8.365941779127e+01 
-8.067639892633e+01 1.204182628202e+00 0.0 
1.204182628202e+00 -1.717832488501e+02 0.0 
0.0 0.0 -7.533789433292e+01 
-8.472212439422e+01 1.231864254495e+00 0.0 
1.231864254495e+00 -1.825165625720e+02 0.0 
0.0 0.0 -7.977160608985e+01 
-9.251635423323e+01 1.556540000768e+00 0.0 
1.556540000768e+00 -2.024783812345e+02 0.0 
0.0 0.0 -8.809842064032e+01 
-3.124651685082e+01 -1.219399751340e+00 0.0 
-1.219399751340e+00 -8.231042592764e+01 0.0 
0.0 0.0 -3.366708283354e+01 
-1.074529420001e+02 1.007035643223e+01 0.0 
1.007035643223e+01 -2.773020274676e+02 0.0 
0.0 0.0 -1.150264908403e+02 
-1.168032293917e+02 1.085660969221e+01 0.0 
1.085660969221e+01 -2.959080813407e+02 0.0 
0.0 0.0 -1.234133932197e+02 
-5.997947988613e+01 -5.131783376994e-01 0.0 
-5.131783376994e-01 -1.609380761861e+02 0.0 
0.0 0.0 -6.587526682166e+01 
-6.727199700695e+01 -2.224379433479e-01 0.0 
-2.224379433479e-01 -1.796897227848e+02 0.0 
0.0 0.0 -7.368851593752e+01 
-7.141011874583e+01 -1.390043370639e-01 0.0 
-1.390043370639e-01 -1.906694197283e+02 0.0 
0.0 0.0 -7.822386154223e+01 
-7.524871063574e+01 2.676941630402e-03 0.0 
2.676941630402e-03 -1.994720653773e+02 0.0 
0.0 0.0 -8.201623280391e+01 
-8.871776948923e+01 1.152350418464e+00 0.0 
1.152350418464e+00 -1.932669535524e+02 0.0 
0.0 0.0 -8.419541691249e+01 
-9.639214440286e+01 1.402084829512e+00 0.0 
1.402084829512e+00 -2.133532534305e+02 0.0 
0.0 0.0 -9.252361935002e+01 
-2.801013419558e+01 9.082312272989e+00 0.0 
9.082312272989e+00 -8.109031222330e+01 0.0 
0.0 0.0 -3.233013392566e+01 
-3.002512496900e+01 1.123098386523e+01 0.0 
1.123098386523e+01 -8.590186861536e+01 0.0 
0.0 0.0 -3.437809807531e+01 
-1.050411949532e+02 6.527202985984e+00 0.0 
6.527202985984e+00 -2.266185295380e+02 0.0 
0.0 0.0 -9.909791734734e+01 
-1.174432857383e+02 1.568636865878e+00 0.0 
1.568636865878e+00 -2.949326640565e+02 0.0 
0.0 0.0 -1.233127849384e+02 
-1.084300154468e+02 1.255363172638e+00 0.0 
1.255363172638e+00 -2.758493904326e+02 0.0 
0.0 0.0 -1.148838217638e+02 
-5.877121948402e+01 1.702246726293e+01 0.0 
1.702246726293e+01 -1.387883267682e+02 0.0 
0.0 0.0 -5.886786387565e+01 
-5.549273835244e+01 1.722194496104e+01 0.0 
1.722194496104e+01 -1.242631284674e+02 0.0 
0.0 0.0 -5.352676004594e+01 
-5.087455484068e+01 1.719409664959e+01 0.0 
1.719409664959e+01 -1.201397780920e+02 0.0 
0.0 0.0 -5.090429987981e+01 
-4.741768944643e+01 1.735441338063e+01 0.0 
1.735441338063e+01 -1.048088459676e+02 0.0 
0.0 0.0 -4.526796062421e+01 
-5.213200676851e+01 1.690769081909e+01 0.0 
1.690769081909e+01 -1.090836540956e+02 0.0 
0.0 0.0 -4.796469825924e+01 
-4.300107653119e+01 1.720705051994e+01 0.0 
1.720705051994e+01 -1.011095131078e+02 0.0 
0.0 0.0 -4.283317689171e+01 
-9.946073718547e+01 5.903551838939e+00 0.0 
5.903551838939e+00 -2.620181201842e+02 0.0 
0.0 0.0 -1.080436572109e+02 
-1.000088982913e+02 2.648737145454e+00 0.0 
2.648737145454e+00 -2.206475353777e+02 0.0 
0.0 0.0 -9.579693010068e+01 
-3.926454411631e+01 -1.826450196940e+00 0.0 
-1.826450196940e+00 -1.062886758920e+02 0.0 
0.0 0.0 -4.326596600249e+01 
-3.262741281709e+01 -1.964105044196e+00 0.0 
-1.964105044196e+00 -8.674311572929e+01 0.0 
0.0 0.0 -3.541115856391e+01 
-1.266884693476e+02 1.849634112575e+00 0.0 
1.849634112575e+00 -3.139590567857e+02 0.0 
0.0 0.0 -1.317942578400e+02 
-9.841687069532e+01 9.288926504887e+00 0.0 
9.288926504887e+00 -2.588385674040e+02 0.0 
0.0 0.0 -1.067766314298e+02 
-9.180994954983e+01 1.615073187969e+01 0.0 
1.615073187969e+01 -2.066999803752e+02 0.0 
0.0 0.0 -8.915297897750e+01 
-9.530500506005e+01 1.637201043393e+01 0.0 
1.637201043393e+01 -2.198573602048e+02 0.0 
0.0 0.0 -9.414870957947e+01 
-9.967853693871e+01 1.624806194347e+01 0.0 
1.624806194347e+01 -2.261726460184e+02 0.0 
0.0 0.0 -9.735535488713e+01 
-1.033127160163e+02 1.649936652822e+01 0.0 
1.649936652822e+01 -2.391605601026e+02 0.0 
0.0 0.0 -1.023419828357e+02 
-1.075375351379e+02 1.649598120055e+01 0.0 
1.649598120055e+01 -2.457001475075e+02 0.0 
0.0 0.0 -1.055713047936e+02 
-1.112917703233e+02 1.680777656217e+01 0.0 
1.680777656217e+01 -2.584619194405e+02 0.0 
0.0 0.0 -1.105261069291e+02 
-1.070856600611e+02 1.660025440392e+01 0.0 
1.660025440392e+01 -2.520314513195e+02 0.0 
0.0 0.0 -1.073351334142e+02 
-1.160864676407e+02 1.561063291532e+01 0.0 
1.561063291532e+01 -2.841621393002e+02 0.0 
0.0 0.0 -1.196745820823e+02 
-1.152393223313e+02 1.702308309832e+01 0.0 
1.702308309832e+01 -2.711773681654e+02 0.0 
0.0 0.0 -1.155250071490e+02 
-8.085514865530e+01 8.081856963749e-01 0.0 
8.081856963749e-01 -1.731334359182e+02 0.0 
0.0 0.0 -7.579657537205e+01 
-9.374800965246e+01 1.370119273385e+01 0.0 
1.370119273385e+01 -2.399468714988e+02 0.0 
0.0 0.0 -9.970846434539e+01 
-4.345773963973e+01 -9.233914038601e-01 0.0 
-9.233914038601e-01 -1.231394614773e+02 0.0 
0.0 0.0 -4.957916033511e+01 
-2.791620491157e+01 -1.354764209967e+00 0.0 
-1.354764209967e+00 -7.349364359569e+01 0.0 
0.0 0.0 -3.002295455218e+01 
-2.832674236649e+01 -2.200491020259e+00 0.0 
-2.200491020259e+00 -7.372397857026e+01 0.0 
0.0 0.0 -3.021521628103e+01 
-3.389278064537e+01 -1.030200254409e+00 0.0 
-1.030200254409e+00 -9.004787767977e+01 0.0 
0.0 0.0 -3.678219749754e+01 
-4.111775595113e+01 -9.508671846215e-01 0.0 
-9.508671846215e-01 -1.098460817659e+02 0.0 
0.0 0.0 -4.488915131511e+01 
-1.276471116486e+02 8.372094158892e+00 0.0 
8.372094158892e+00 -3.184102711134e+02 0.0 
0.0 0.0 -1.334172148286e+02 
-1.153285829875e+02 1.692360556576e+01 0.0 
1.692360556576e+01 -2.651670589383e+02 0.0 
0.0 0.0 -1.137486925778e+02 
-1.114742777025e+02 1.638533159848e+01 0.0 
1.638533159848e+01 -2.523425631243e+02 0.0 
0.0 0.0 -1.087450522480e+02 
-4.392783637876e+01 1.693012577669e+01 0.0 
1.693012577669e+01 -8.907496627270e+01 0.0 
0.0 0.0 -3.950084079544e+01 
-4.869810382357e+01 1.581270874206e+01 0.0 
1.581270874206e+01 -9.359987830638e+01 0.0 
0.0 0.0 -4.228939463898e+01 
-1.207893689643e+02 1.532588465924e+01 0.0 
1.532588465924e+01 -2.961411523852e+02 0.0 
0.0 0.0 -1.246791564048e+02 
-8.248112187124e+01 3.704533458339e+00 0.0 
3.704533458339e+00 -1.665166152915e+02 0.0 
0.0 0.0 -7.429932114882e+01 
-8.104927789740e+01 2.152980769464e+00 0.0 
2.152980769464e+00 -1.685638120746e+02 0.0 
0.0 0.0 -7.448392699161e+01 
-7.679091183137e+01 1.565891638560e+00 0.0 
1.565891638560e+00 -1.592816225063e+02 0.0 
0.0 0.0 -7.042176030131e+01 
-2.628320665507e+01 -9.429452451245e-01 0.0 
-9.429452451245e-01 -6.874006692442e+01 0.0 
0.0 0.0 -2.810698207385e+01 
-2.631493318771e+01 -2.208986009798e+00 0.0 
-2.208986009798e+00 -6.619431640245e+01 0.0 
0.0 0.0 -2.735277487705e+01 
-1.039606640083e+02 4.244980991408e+00 0.0 
4.244980991408e+00 -2.284341744674e+02 0.0 
0.0 0.0 -9.931845154271e+01 
-3.565376326717e+01 1.191158428069e+01 0.0 
1.191158428069e+01 -1.028938156997e+02 0.0 
0.0 0.0 -4.116427369005e+01 
-3.242137191059e+01 1.325271933354e+01 0.0 
1.325271933354e+01 -9.002661189241e+01 0.0 
0.0 0.0 -3.633439514090e+01 
-2.319253879393e+01 2.642548850197e+00 0.0 
2.642548850197e+00 -6.063518386607e+01 0.0 
0.0 0.0 -2.474831679800e+01 
-2.186814090588e+01 8.975278986241e-01 0.0 
8.975278986241e-01 -5.212674615845e+01 0.0 
0.0 0.0 -2.179846611930e+01 
-9.270493207077e+01 9.259828236421e-01 0.0 
9.259828236421e-01 -2.038549277889e+02 0.0 
0.0 0.0 -8.856795795789e+01 
-1.002949004026e+02 1.179456587910e+00 0.0 
1.179456587910e+00 -2.238182854861e+02 0.0 
0.0 0.0 -9.683395576661e+01 
-7.939134471237e+01 2.713690181081e-01 0.0 
2.713690181081e-01 -2.101042143995e+02 0.0 
0.0 0.0 -8.644866773357e+01 
-8.322446886013e+01 3.670706935924e-01 0.0 
3.670706935924e-01 -2.188211460028e+02 0.0 
0.0 0.0 -9.021368445889e+01 
-1.226346137031e+02 8.797948431518e+00 0.0 
8.797948431518e+00 -3.086544869626e+02 0.0 
0.0 0.0 -1.289867301997e+02 
-3.115411450087e+01 -2.160486729011e+00 0.0 
-2.160486729011e+00 -8.259107658293e+01 0.0 
0.0 0.0 -3.372355732514e+01 
-1.040084101802e+02 1.706485009510e+00 0.0 
1.706485009510e+00 -2.333861459391e+02 0.0 
0.0 0.0 -1.008183668358e+02 
-1.030707932769e+02 8.764254963702e+00 0.0 
8.764254963702e+00 -2.691236473224e+02 0.0 
0.0 0.0 -1.112583321798e+02 
-9.418261165885e+01 7.953931768535e+00 0.0 
7.953931768535e+00 -2.506336213187e+02 0.0 
0.0 0.0 -1.030448698933e+02 
-7.107924702019e+01 -2.226068818152e-01 0.0 
-2.226068818152e-01 -1.883880028314e+02 0.0 
0.0 0.0 -7.744017495547e+01 
-2.541993000154e+01 1.057821075167e+01 0.0 
1.057821075167e+01 -6.918231978328e+01 0.0 
0.0 0.0 -2.798067493545e+01 
-2.380895881915e+01 8.423569676226e+00 0.0 
8.423569676226e+00 -6.444333013044e+01 0.0 
0.0 0.0 -2.607568668488e+01 
-4.636779084030e+01 -8.729102811683e-02 0.0 
-8.729102811683e-02 -1.331639899094e+02 0.0 
0.0 0.0 -5.345953422491e+01 
-3.727270898514e+01 -1.913060350555e+00 0.0 
-1.913060350555e+00 -1.020099766948e+02 0.0 
0.0 0.0 -4.138480570397e+01 
-3.704545216667e+01 -7.483925858155e-01 0.0 
-7.483925858155e-01 -9.859267428345e+01 0.0 
0.0 0.0 -4.029143793504e+01 
-1.324543856333e+02 9.617652246328e+00 0.0 
9.617652246328e+00 -3.272951209988e+02 0.0 
0.0 0.0 -1.375248519896e+02 
-1.077239576136e+02 5.113500880294e+00 0.0 
5.113500880294e+00 -2.377678728374e+02 0.0 
0.0 0.0 -1.032475491353e+02 
-1.110878068004e+02 1.664620174609e+01 0.0 
1.664620174609e+01 -2.647405665662e+02 0.0 
0.0 0.0 -1.123485120100e+02 
-1.026576270905e+02 1.629376222711e+01 0.0 
1.629376222711e+01 -2.456439959032e+02 0.0 
0.0 0.0 -1.040904868981e+02 
-1.196215166176e+02 1.714383914303e+01 0.0 
1.714383914303e+01 -2.839089688500e+02 0.0 
0.0 0.0 -1.206591456403e+02 
-2.551279061180e+01 -2.184557051117e+00 0.0 
-2.184557051117e+00 -6.319635923477e+01 0.0 
0.0 0.0 -2.621274495397e+01 
-1.327494027506e+02 7.942953366578e+00 0.0 
7.942953366578e+00 -3.281815531842e+02 0.0 
0.0 0.0 -1.378792867804e+02 
-1.216910829281e+02 1.271352075280e+00 0.0 
1.271352075280e+00 -3.035463260428e+02 0.0 
0.0 0.0 -1.271712226913e+02 
-1.186850669547e+02 1.686233000579e+01 0.0 
1.686233000579e+01 -2.711727923906e+02 0.0 
0.0 0.0 -1.165573578036e+02 
-1.151851137966e+02 1.621117974929e+01 0.0 
1.621117974929e+01 -2.593039180982e+02 0.0 
0.0 0.0 -1.119467095684e+02 
-3.855476678653e+01 1.379945740467e+01 0.0 
1.379945740467e+01 -1.071492889408e+02 0.0 
0.0 0.0 -4.331121671821e+01 
-3.533424076123e+01 1.501589678394e+01 0.0 
1.501589678394e+01 -9.378824141549e+01 0.0 
0.0 0.0 -3.833674465301e+01 
-2.940627947294e+01 1.443228997546e+01 0.0 
1.443228997546e+01 -7.638030661899e+01 0.0 
0.0 0.0 -3.133597582758e+01 
-3.205580086883e+01 1.592027391490e+01 0.0 
1.592027391490e+01 -7.940365554484e+01 0.0 
0.0 0.0 -3.303783692410e+01 
-7.702150203743e+01 7.246525977188e+00 0.0 
7.246525977188e+00 -1.479181199449e+02 0.0 
0.0 0.0 -6.708188659469e+01 
-4.207715772587e+01 1.540613580233e+01 0.0 
1.540613580233e+01 -1.113043721070e+02 0.0 
0.0 0.0 -4.561445894985e+01 
-7.390874007578e+01 1.063090825773e+01 0.0 
1.063090825773e+01 -1.418638547973e+02 0.0 
0.0 0.0 -6.433177846192e+01 
-6.970643847860e+01 8.746774264076e+00 0.0 
8.746774264076e+00 -1.300338754836e+02 0.0 
0.0 0.0 -5.952209418866e+01 
-6.589090561103e+01 9.776747312964e+00 0.0 
9.776747312964e+00 -1.215858845456e+02 0.0 
0.0 0.0 -5.584303704699e+01 
-5.684954326956e+01 1.587449676314e+01 0.0 
1.587449676314e+01 -1.139096078664e+02 0.0 
0.0 0.0 -5.082774534079e+01 
-5.333010306926e+01 1.423781268087e+01 0.0 
1.423781268087e+01 -9.918659603278e+01 0.0 
0.0 0.0 -4.535500973061e+01 
-4.580202501162e+01 1.122845615932e+01 0.0 
1.122845615932e+01 -1.324260154452e+02 0.0 
0.0 0.0 -5.306841213704e+01 
-8.089767582366e+01 1.211071104027e+01 0.0 
1.211071104027e+01 -2.152039351035e+02 0.0 
0.0 0.0 -8.843048327816e+01 
-7.550088414500e+01 1.762140018350e-01 0.0 
1.762140018350e-01 -2.014459717571e+02 0.0 
0.0 0.0 -8.268405677063e+01 
-9.593047931899e+01 1.687521004174e+00 0.0 
1.687521004174e+00 -2.500846939923e+02 0.0 
0.0 0.0 -1.034045519934e+02 
-8.688036857423e+01 3.920831273334e+00 0.0 
3.920831273334e+00 -2.342039711793e+02 0.0 
0.0 0.0 -9.592530192607e+01 
-1.036817375203e+02 3.301446367353e+00 0.0 
3.301446367353e+00 -2.297039302512e+02 0.0 
0.0 0.0 -9.961570033145e+01 
-1.073397906894e+02 3.129157906749e+00 0.0 
3.129157906749e+00 -2.406755602695e+02 0.0 
0.0 0.0 -1.040046052877e+02 
-7.666152306192e+01 1.139281458688e+00 0.0 
1.139281458688e+00 -1.610133030615e+02 0.0 
0.0 0.0 -7.090244783702e+01 
-7.270692775725e+01 8.018210934254e-01 0.0 
8.018210934254e-01 -1.519238474654e+02 0.0 
0.0 0.0 -6.698923256680e+01 
-2.882821587271e+01 -1.792040049842e+00 0.0 
-1.792040049842e+00 -7.551255498024e+01 0.0 
0.0 0.0 -3.090223125588e+01 
-2.608460055096e+01 -1.944783769785e+00 0.0 
-1.944783769785e+00 -6.713616729753e+01 0.0 
0.0 0.0 -2.756623035455e+01 
-8.335587076108e+01 1.877337056901e+00 0.0 
1.877337056901e+00 -2.237512122912e+02 0.0 
0.0 0.0 -9.173212491569e+01 
-1.277294927793e+02 6.754599414616e+00 0.0 
6.754599414616e+00 -3.185465591164e+02 0.0 
0.0 0.0 -1.334828155687e+02 
-1.081161987042e+02 6.270214008245e+00 0.0 
6.270214008245e+00 -2.366910526003e+02 0.0 
0.0 0.0 -1.030421753913e+02 
-1.118802379969e+02 7.389853902970e+00 0.0 
7.389853902970e+00 -2.466155851874e+02 0.0 
0.0 0.0 -1.071487469553e+02 
-1.088788485126e+02 7.674489112072e+00 0.0 
7.674489112072e+00 -2.365351553126e+02 0.0 
0.0 0.0 -1.032242011476e+02 
-1.272612686671e+02 1.006161261582e+01 0.0 
1.006161261582e+01 -3.171454755639e+02 0.0 
0.0 0.0 -1.329220232693e+02 
-5.023432192921e+01 6.968854666076e+00 0.0 
6.968854666076e+00 -1.482448786552e+02 0.0 
0.0 0.0 -5.914376017534e+01 
-8.529650898043e+01 9.172129227905e+00 0.0 
9.172129227905e+00 -2.301335139193e+02 0.0 
0.0 0.0 -9.422900686991e+01 
-2.402828257880e+01 1.333823168517e-01 0.0 
1.333823168517e-01 -6.118636018208e+01 0.0 
0.0 0.0 -2.516439282826e+01 
-8.623720703085e+01 1.611702755620e+01 0.0 
1.611702755620e+01 -2.080562248605e+02 0.0 
0.0 0.0 -8.788802956740e+01 
-2.227919991968e+01 -1.638143455379e+00 0.0 
-1.638143455379e+00 -5.603419428686e+01 0.0 
0.0 0.0 -2.309401826196e+01 
-1.004136040860e+02 1.384716677486e+01 0.0 
1.384716677486e+01 -2.145637922408e+02 0.0 
0.0 0.0 -9.409321889806e+01 
-1.311278752022e+02 1.459382174355e+00 0.0 
1.459382174355e+00 -3.225997708177e+02 0.0 
0.0 0.0 -1.357182938060e+02 
-1.361762286299e+02 2.093065476391e+00 0.0 
2.093065476391e+00 -3.328010721780e+02 0.0 
0.0 0.0 -1.402931902424e+02 
-1.251248278954e+02 1.632963631508e+01 0.0 
1.632963631508e+01 -3.028992518072e+02 0.0 
0.0 0.0 -1.280072239108e+02 
-6.439668165354e+01 4.463648952548e+00 0.0 
4.463648952548e+00 -1.182524506620e+02 0.0 
0.0 0.0 -5.439473969465e+01 
-8.988753595238e+01 1.568594276549e+01 0.0 
1.568594276549e+01 -2.208364974114e+02 0.0 
0.0 0.0 -9.281721000913e+01 
-8.540527690983e+01 1.499692456502e+01 0.0 
1.499692456502e+01 -2.150295763538e+02 0.0 
0.0 0.0 -8.973045597909e+01 
-6.145955184133e+01 7.648829516481e+00 0.0 
7.648829516481e+00 -1.099813096749e+02 0.0 
0.0 0.0 -5.103225845488e+01 
-5.758778435065e+01 8.721627567982e+00 0.0 
8.721627567982e+00 -1.013423939640e+02 0.0 
0.0 0.0 -4.727905349441e+01 
-6.191709515858e+01 1.101979886511e+01 0.0 
1.101979886511e+01 -1.135285380811e+02 0.0 
0.0 0.0 -5.223368997191e+01 
-5.362692157647e+01 1.011419494701e+01 0.0 
1.011419494701e+01 -9.313932393347e+01 0.0 
0.0 0.0 -4.362987365298e+01 
-4.984907853663e+01 -2.062092702199e-01 0.0 
-2.062092702199e-01 -1.418129663689e+02 0.0 
0.0 0.0 -5.709861347167e+01 
-4.674390002703e+01 -9.393511025474e-01 0.0 
-9.393511025474e-01 -1.316007177939e+02 0.0 
0.0 0.0 -5.310338534629e+01 
-1.236637588147e+02 1.765015470366e+01 0.0 
1.765015470366e+01 -2.860016156056e+02 0.0 
0.0 0.0 -1.224996123261e+02 
-1.233561823170e+02 1.757835907845e+01 0.0 
1.757835907845e+01 -2.901158014910e+02 0.0 
0.0 0.0 -1.236415951424e+02 
-1.222925831470e+02 1.697828422423e+01 0.0 
1.697828422423e+01 -2.785397581868e+02 0.0 
0.0 0.0 -1.198497024001e+02 
-1.190458158869e+02 1.607854874255e+01 0.0 
1.607854874255e+01 -2.671155738978e+02 0.0 
0.0 0.0 -1.154484169354e+02 
-1.301474417439e+02 1.615564365268e+01 0.0 
1.615564365268e+01 -3.147839951270e+02 0.0 
0.0 0.0 -1.330794310613e+02 
-1.255485800452e+02 1.501870551540e+01 0.0 
1.501870551540e+01 -3.075762421563e+02 0.0 
0.0 0.0 -1.295374466605e+02 
-4.402406665259e+01 -6.486377206776e-01 0.0 
-6.486377206776e-01 -1.178436665632e+02 0.0 
0.0 0.0 -4.816031996475e+01 
-4.502353114790e+01 1.370773163480e+01 0.0 
1.370773163480e+01 -7.843880047627e+01 0.0 
0.0 0.0 -3.663869948725e+01 
-1.111881068277e+02 4.889322854765e+00 0.0 
4.889322854765e+00 -2.484374272569e+02 0.0 
0.0 0.0 -1.074876602254e+02 
-6.520631623211e+01 6.789680592360e+00 0.0 
6.789680592360e+00 -1.188311779872e+02 0.0 
0.0 0.0 -5.481124826580e+01 
-1.375530362743e+02 7.458720264030e+00 0.0 
7.458720264030e+00 -3.370202657192e+02 0.0 
0.0 0.0 -1.419719905981e+02 
-1.326392416553e+02 6.351970462331e+00 0.0 
6.351970462331e+00 -3.277678808847e+02 0.0 
0.0 0.0 -1.377221367620e+02 
-2.079064145095e+01 -2.815929267928e-01 0.0 
-2.815929267928e-01 -4.294264143159e+01 0.0 
0.0 0.0 -1.871998486476e+01 
-2.232492661508e+01 -1.007410941209e+00 0.0 
-1.007410941209e+00 -5.105620598744e+01 0.0 
0.0 0.0 -2.161433978076e+01 
-1.078645693136e+02 1.448089957245e+00 0.0 
1.448089957245e+00 -2.441486416280e+02 0.0 
0.0 0.0 -1.052039632825e+02 
-2.666676648620e+01 1.522735164016e+01 0.0 
1.522735164016e+01 -6.163816254002e+01 0.0 
0.0 0.0 -2.609147870787e+01 
-2.879630049042e+01 1.628276626102e+01 0.0 
1.628276626102e+01 -6.345669781310e+01 0.0 
0.0 0.0 -2.727589949106e+01 
-2.480652371185e+01 1.376073516046e+01 0.0 
1.376073516046e+01 -5.928027287907e+01 0.0 
0.0 0.0 -2.482603897727e+01 
-1.512160900948e+02 5.790069367449e-01 0.0 
5.790069367449e-01 -3.613724441466e+02 0.0 
0.0 0.0 -1.533765602724e+02 
-5.590934814795e+01 3.493495485292e-02 0.0 
3.493495485292e-02 -1.138810491838e+02 0.0 
0.0 0.0 -5.053711919953e+01 
-1.408454549291e+02 1.625837634341e+00 0.0 
1.625837634341e+00 -3.415626788130e+02 0.0 
0.0 0.0 -1.443224401226e+02 
-6.146971088843e+01 1.449348077923e+01 0.0 
1.449348077923e+01 -1.198174450448e+02 0.0 
0.0 0.0 -5.398614677996e+01 
-1.116144826438e+02 1.967812091034e+00 0.0 
1.967812091034e+00 -2.538194681161e+02 0.0 
0.0 0.0 -1.092301852280e+02 
-9.381521128129e+01 1.517813610224e+01 0.0 
1.517813610224e+01 -2.334636530100e+02 0.0 
0.0 0.0 -9.778365928738e+01 
-5.405329270972e+01 1.657214411853e+01 0.0 
1.657214411853e+01 -1.341463487158e+02 0.0 
0.0 0.0 -5.605989242764e+01 
-1.175741298775e+02 9.228089013520e+00 0.0 
9.228089013520e+00 -2.985609409824e+02 0.0 
0.0 0.0 -1.244405212580e+02 
-1.038006639830e+02 1.013670608659e+00 0.0 
1.013670608659e+00 -2.334414869892e+02 0.0 
0.0 0.0 -1.007726452917e+02 
-1.117626317585e+02 1.090907512788e+00 0.0 
1.090907512788e+00 -2.553749117346e+02 0.0 
0.0 0.0 -1.097412630479e+02 
-7.295589321529e+01 1.450869544892e+00 0.0 
1.450869544892e+00 -1.487136858244e+02 0.0 
0.0 0.0 -6.610087371190e+01 
-6.832015682265e+01 1.072368301105e+00 0.0 
1.072368301105e+00 -1.389388395405e+02 0.0 
0.0 0.0 -6.177769890895e+01 
-7.701038738841e+01 2.057959389557e+00 0.0 
2.057959389557e+00 -1.574543842846e+02 0.0 
0.0 0.0 -6.993943150191e+01 
-2.456046423544e+01 4.640404504832e+00 0.0 
4.640404504832e+00 -6.829502007517e+01 0.0 
0.0 0.0 -2.745664529318e+01 
-2.065434109766e+01 4.204518850363e+00 0.0 
4.204518850363e+00 -4.919051433503e+01 0.0 
0.0 0.0 -2.055345662981e+01 
-1.036759537731e+02 2.470447049451e+00 0.0 
2.470447049451e+00 -2.314325914296e+02 0.0 
0.0 0.0 -1.001325635608e+02 
-5.237075466747e+01 -8.495962577480e-01 0.0 
-8.495962577480e-01 -1.408105240523e+02 0.0 
0.0 0.0 -5.755438361593e+01 
-5.641109089978e+01 -6.530566813645e-01 0.0 
-6.530566813645e-01 -1.514787891540e+02 0.0 
0.0 0.0 -6.196696401614e+01 
-3.374823207989e+01 -2.091406209303e+00 0.0 
-2.091406209303e+00 -9.056044850682e+01 0.0 
0.0 0.0 -3.689260417601e+01 
-4.010459108355e+01 -1.820517205604e+00 0.0 
-1.820517205604e+00 -1.098947481613e+02 0.0 
0.0 0.0 -4.459980177344e+01 
-8.350441097828e+01 6.559879588114e-01 0.0 
6.559879588114e-01 -2.206983890652e+02 0.0 
0.0 0.0 -9.086084001304e+01 
-7.953302157729e+01 6.114497551575e-01 0.0 
6.114497551575e-01 -2.120349608224e+02 0.0 
0.0 0.0 -8.707039471991e+01 
-1.041087512863e+02 1.487343255377e+01 0.0 
1.487343255377e+01 -2.270884936091e+02 0.0 
0.0 0.0 -9.895917346861e+01 
-1.077357098860e+02 1.441479004755e+01 0.0 
1.441479004755e+01 -2.345661242943e+02 0.0 
0.0 0.0 -1.022905502541e+02 
-9.611526276194e+01 1.578734947674e+01 0.0 
1.578734947674e+01 -2.130933711809e+02 0.0 
0.0 0.0 -9.236259018285e+01 
-9.881827123280e+01 7.476905748501e+00 0.0 
7.476905748501e+00 -2.606949851978e+02 0.0 
0.0 0.0 -1.074539769292e+02 
-9.009919218476e+01 6.644431577451e+00 0.0 
6.644431577451e+00 -2.421828048044e+02 0.0 
0.0 0.0 -9.928459909676e+01 
-8.565576995902e+01 7.153135904992e+00 0.0 
7.153135904992e+00 -2.323274200837e+02 0.0 
0.0 0.0 -9.499495701281e+01 
-1.106042151452e+02 3.819956689008e+00 0.0 
3.819956689008e+00 -2.492820084094e+02 0.0 
0.0 0.0 -1.075658670664e+02 
-1.150745885700e+02 3.534180667308e+00 0.0 
3.534180667308e+00 -2.625153285948e+02 0.0 
0.0 0.0 -1.128769751494e+02 
-5.286042731719e+01 7.481699118964e-01 0.0 
7.481699118964e-01 -1.515481726621e+02 0.0 
0.0 0.0 -6.092257999380e+01 
-4.921404970557e+01 9.928489494879e-01 0.0 
9.928489494879e-01 -1.427212250022e+02 0.0 
0.0 0.0 -5.718058241232e+01 
-5.329646171130e+01 -2.673518042088e-01 0.0 
-2.673518042088e-01 -1.501535898700e+02 0.0 
0.0 0.0 -6.063501547439e+01 
-1.147412612274e+02 5.774671843471e+00 0.0 
5.774671843471e+00 -2.578615524564e+02 0.0 
0.0 0.0 -1.113808441051e+02 
-1.457623311039e+02 2.264635577081e+00 0.0 
2.264635577081e+00 -3.513912361504e+02 0.0 
0.0 0.0 -1.487460701763e+02 
-1.412325760796e+02 2.835064283073e+00 0.0 
2.835064283073e+00 -3.428427053838e+02 0.0 
0.0 0.0 -1.448225844390e+02 
-1.988286446056e+01 -1.656513823185e+00 0.0 
-1.656513823185e+00 -4.785522369072e+01 0.0 
0.0 0.0 -1.992142644539e+01 
-2.337667388501e+01 -1.955009131212e+00 0.0 
-1.955009131212e+00 -5.858921668212e+01 0.0 
0.0 0.0 -2.418976717014e+01 
-2.196860368563e+01 1.012015580571e+01 0.0 
1.012015580571e+01 -5.285716543498e+01 0.0 
0.0 0.0 -2.204773073618e+01 
-2.076629275664e+01 8.059714306489e+00 0.0 
8.059714306489e+00 -4.862936305726e+01 0.0 
0.0 0.0 -2.041869674417e+01 
-1.153160560677e+02 8.532997171724e+00 0.0 
8.532997171724e+00 -2.562140485146e+02 0.0 
0.0 0.0 -1.110590313747e+02 
-1.127335378528e+02 8.907219954348e+00 0.0 
8.907219954348e+00 -2.469436981319e+02 0.0 
0.0 0.0 -1.075031707954e+02 
-1.189305748543e+02 8.239849671520e+00 0.0 
8.239849671520e+00 -2.680658285920e+02 0.0 
0.0 0.0 -1.156989210339e+02 
-3.954639868260e+01 -5.426630189616e-01 0.0 
-5.426630189616e-01 -1.053491392831e+02 0.0 
0.0 0.0 -4.306866138970e+01 
-1.067537665398e+02 1.607126435127e+01 0.0 
1.607126435127e+01 -2.583844838025e+02 0.0 
0.0 0.0 -1.091414751027e+02 
-1.368510632270e+02 1.092961263761e+01 0.0 
1.092961263761e+01 -3.348551270622e+02 0.0 
0.0 0.0 -1.411118570868e+02 
-1.314764694251e+02 1.137462303812e+01 0.0 
1.137462303812e+01 -3.247140976496e+02 0.0 
0.0 0.0 -1.364571701224e+02 
-1.434315778344e+02 1.058743620143e+01 0.0 
1.058743620143e+01 -3.472910837798e+02 0.0 
0.0 0.0 -1.468167984842e+02 
-1.203133007736e+02 1.650302748825e+01 0.0 
1.650302748825e+01 -2.905674819975e+02 0.0 
0.0 0.0 -1.228642348313e+02 
-1.289618863330e+02 1.720089872381e+01 0.0 
1.720089872381e+01 -3.090071150181e+02 0.0 
0.0 0.0 -1.309907004053e+02 
-1.280132503549e+02 1.778196292424e+01 0.0 
1.778196292424e+01 -3.027001757313e+02 0.0 
0.0 0.0 -1.288140278259e+02 
-1.895454218515e+01 4.298826263754e-01 0.0 
4.298826263754e-01 -3.458160798158e+01 0.0 
0.0 0.0 -1.566084505002e+01 
-1.091389701574e+02 7.910290417567e-01 0.0 
7.910290417567e-01 -2.483434698630e+02 0.0 
0.0 0.0 -1.068447320061e+02 
-6.812181461392e+01 7.213637139654e-01 0.0 
7.213637139654e-01 -1.402863092411e+02 0.0 
0.0 0.0 -6.212243715652e+01 
-1.889948512689e+01 -2.782204456022e-01 0.0 
-2.782204456022e-01 -2.747393998072e+01 0.0 
0.0 0.0 -1.365241832323e+01 
-6.417423275398e+01 4.474157685890e-01 0.0 
4.474157685890e-01 -1.313982562812e+02 0.0 
0.0 0.0 -5.827174671055e+01 
-6.859647445724e+01 5.302281590235e-01 0.0 
5.302281590235e-01 -1.427316179867e+02 0.0 
0.0 0.0 -6.299842773317e+01 
-5.965334337668e+01 2.550386528487e-01 0.0 
2.550386528487e-01 -1.213192471884e+02 0.0 
0.0 0.0 -5.389177716953e+01 
-3.242616745599e+01 -5.550569383884e-01 0.0 
-5.550569383884e-01 -8.596272601093e+01 0.0 
0.0 0.0 -3.511666804008e+01 
-6.748248106653e+01 1.329732608935e+00 0.0 
1.329732608935e+00 -1.346414246242e+02 0.0 
0.0 0.0 -6.023717170721e+01 
-7.318652268457e+01 2.087054791884e+00 0.0 
2.087054791884e+00 -1.468514508323e+02 0.0 
0.0 0.0 -6.561139205507e+01 
-1.658186379406e+01 -1.611758104466e+00 0.0 
-1.611758104466e+00 -3.616917970446e+01 0.0 
0.0 0.0 -1.553592630833e+01 
-1.177747205716e+02 5.353067889798e+00 0.0 
5.353067889798e+00 -2.681228415514e+02 0.0 
0.0 0.0 -1.153692686369e+02 
-1.602980308593e+01 -1.292536003015e+00 0.0 
-1.292536003015e+00 -3.762366900090e+01 0.0 
0.0 0.0 -1.569461076890e+01 
-1.857957714828e+01 -1.233609288269e+00 0.0 
-1.233609288269e+00 -4.554768528033e+01 0.0 
0.0 0.0 -1.883817872858e+01 
-1.426199000097e+02 6.957762401445e+00 0.0 
6.957762401445e+00 -3.463635998565e+02 0.0 
0.0 0.0 -1.462950499599e+02 
-1.374723882632e+02 5.916103018463e+00 0.0 
5.916103018463e+00 -3.367169702614e+02 0.0 
0.0 0.0 -1.418568075574e+02 
-1.471546715366e+02 6.486845408370e+00 0.0 
6.486845408370e+00 -3.547074234624e+02 0.0 
0.0 0.0 -1.501586284997e+02 
-1.419645993760e+02 5.414443640686e+00 0.0 
5.414443640686e+00 -3.449020035803e+02 0.0 
0.0 0.0 -1.456599808869e+02 
-1.324574387508e+02 4.956687055246e+00 0.0 
4.956687055246e+00 -3.268879104475e+02 0.0 
0.0 0.0 -1.374036047595e+02 
-1.373192526689e+02 4.530990544672e+00 0.0 
4.530990544672e+00 -3.359756562978e+02 0.0 
0.0 0.0 -1.415884726900e+02 
-6.374209174272e+01 6.758749182218e-01 0.0 
6.758749182218e-01 -1.291546055191e+02 0.0 
0.0 0.0 -5.746900917854e+01 
-1.483080025811e+02 5.075299078036e+00 0.0 
5.075299078036e+00 -3.564815031216e+02 0.0 
0.0 0.0 -1.510368517108e+02 
-1.423675263567e+02 4.064145860033e+00 0.0 
4.064145860033e+00 -3.452046121416e+02 0.0 
0.0 0.0 -1.458716415495e+02 
-1.531411565215e+02 4.506882221777e+00 0.0 
4.506882221777e+00 -3.657812786785e+02 0.0 
0.0 0.0 -1.552767305600e+02 
-4.898909900313e+01 7.340302812952e+00 0.0 
7.340302812952e+00 -8.136076372183e+01 0.0 
0.0 0.0 -3.870495881749e+01 
-3.526841602692e+01 1.698542420059e+01 0.0 
1.698542420059e+01 -8.195806846124e+01 0.0 
0.0 0.0 -3.476794534645e+01 
-3.185774878423e+01 1.676509379488e+01 0.0 
1.676509379488e+01 -6.556504953532e+01 0.0 
0.0 0.0 -2.882683949586e+01 
-2.525123361457e+01 1.560897674278e+01 0.0 
1.560897674278e+01 -4.523937615399e+01 0.0 
0.0 0.0 -2.074718293057e+01 
-1.267506201866e+02 1.705320313058e+01 0.0 
1.705320313058e+01 -2.892263316128e+02 0.0 
0.0 0.0 -1.243930855398e+02 
-1.217205300822e+02 1.574047657808e+01 0.0 
1.574047657808e+01 -2.736621453068e+02 0.0 
0.0 0.0 -1.182148026167e+02 
-1.262673893682e+02 9.067049203844e-01 0.0 
9.067049203844e-01 -3.126877799590e+02 0.0 
0.0 0.0 -1.312865507982e+02 
-1.169592885270e+02 7.424917321213e-01 0.0 
7.424917321213e-01 -2.934566738638e+02 0.0 
0.0 0.0 -1.227247887173e+02 
-6.402605651688e+01 2.585109613672e-01 0.0 
2.585109613672e-01 -1.325077082941e+02 0.0 
0.0 0.0 -5.856012944331e+01 
-6.340897425176e+01 2.259031277346e-01 0.0 
2.259031277346e-01 -1.314700949346e+02 0.0 
0.0 0.0 -5.806372075590e+01 
-7.083888890030e+01 2.578964993686e-01 0.0 
2.578964993686e-01 -1.493250847597e+02 0.0 
0.0 0.0 -6.564919209799e+01 
-6.967662905880e+01 2.897827709331e-01 0.0 
2.897827709331e-01 -1.469161238484e+02 0.0 
0.0 0.0 -6.457782587215e+01 
-7.702896915903e+01 3.278459612220e-01 0.0 
3.278459612220e-01 -1.648977504453e+02 0.0 
0.0 0.0 -7.217801588131e+01 
-7.588753784239e+01 3.387185100300e-01 0.0 
3.387185100300e-01 -1.621641707765e+02 0.0 
0.0 0.0 -7.101551258566e+01 
-8.331911738925e+01 6.008197837039e-01 0.0 
6.008197837039e-01 -1.805361735624e+02 0.0 
0.0 0.0 -7.875658728551e+01 
-1.317051341991e+02 1.845317523074e+01 0.0 
1.845317523074e+01 -3.092434901239e+02 0.0 
0.0 0.0 -1.318845872969e+02 
-2.268996789573e+01 1.443353781737e+01 0.0 
1.443353781737e+01 -4.411254133359e+01 0.0 
0.0 0.0 -1.964075276879e+01 
-5.673072306514e+01 5.535721098816e+00 0.0 
5.535721098816e+00 -9.925582533951e+01 0.0 
0.0 0.0 -4.639596452139e+01 
-1.350086292373e+02 1.592149500305e+01 0.0 
1.592149500305e+01 -3.260230970035e+02 0.0 
0.0 0.0 -1.379095178722e+02 
-1.296867561787e+02 1.461613152662e+01 0.0 
1.461613152662e+01 -3.173329442876e+02 0.0 
0.0 0.0 -1.337059101399e+02 
-4.933457219266e+01 1.180685583451e+01 0.0 
1.180685583451e+01 -8.506291213379e+01 0.0 
0.0 0.0 -3.991924529793e+01 
-4.070941221222e+01 1.041357633074e+01 0.0 
1.041357633074e+01 -6.432458455572e+01 0.0 
0.0 0.0 -3.111019903038e+01 
-1.440165329646e+02 8.672777374564e+00 0.0 
8.672777374564e+00 -3.489773458753e+02 0.0 
0.0 0.0 -1.474981636520e+02 
-4.547190246793e+01 1.424659912774e+01 0.0 
1.424659912774e+01 -1.245827489900e+02 0.0 
0.0 0.0 -5.061639543739e+01 
-1.219343651808e+02 6.418879086054e+00 0.0 
6.418879086054e+00 -2.803327553851e+02 0.0 
0.0 0.0 -1.202801361698e+02 
-1.604956349279e+01 3.342781501185e+00 0.0 
3.342781501185e+00 -1.364279891596e+01 0.0 
0.0 0.0 -8.869414301725e+00 
-1.813225119785e+01 3.129043803324e+00 0.0 
3.129043803324e+00 -3.003508524287e+01 0.0 
0.0 0.0 -1.416249558705e+01 
-4.946647108641e+01 1.562186970945e+01 0.0 
1.562186970945e+01 -1.291742855471e+02 0.0 
0.0 0.0 -5.319222699004e+01 
-5.778012512160e+01 1.254307505120e+01 0.0 
1.254307505120e+01 -1.060139288896e+02 0.0 
0.0 0.0 -4.873821620335e+01 
-3.926174907915e+01 1.727459334906e+01 0.0 
1.727459334906e+01 -8.493062555941e+01 0.0 
0.0 0.0 -3.685771239157e+01 
-3.606280945935e+01 1.679249174193e+01 0.0 
1.679249174193e+01 -6.933936261648e+01 0.0 
0.0 0.0 -3.122065162275e+01 
-1.079583222141e+02 8.334199213127e+00 0.0 
8.334199213127e+00 -2.795063926836e+02 0.0 
0.0 0.0 -1.158394144693e+02 
-2.142407749934e+01 -2.036718936638e+00 0.0 
-2.036718936638e+00 -5.090407141927e+01 0.0 
0.0 0.0 -2.129844467558e+01 
-2.336872079102e+01 1.208347720140e+01 0.0 
1.208347720140e+01 -5.651932945618e+01 0.0 
0.0 0.0 -2.356641507416e+01 
-8.446195401910e+01 6.203096160821e-01 0.0 
6.203096160821e-01 -1.827948327545e+02 0.0 
0.0 0.0 -7.977703603208e+01 
-2.078542110958e+01 1.180370385465e+01 0.0 
1.180370385465e+01 -4.012171000236e+01 0.0 
0.0 0.0 -1.787213933358e+01 
-1.219358400442e+02 4.054012145703e-01 0.0 
4.054012145703e-01 -3.036210599995e+02 0.0 
0.0 0.0 -1.272670700131e+02 
-4.926486261279e+01 1.303766077078e+01 0.0 
1.303766077078e+01 -1.376893401819e+02 0.0 
0.0 0.0 -5.568626083841e+01 
-6.487082031136e+01 1.580845799525e+01 0.0 
1.580845799525e+01 -1.340453911828e+02 0.0 
0.0 0.0 -5.927486344826e+01 
-2.722943779826e+01 1.261873985614e+01 0.0 
1.261873985614e+01 -7.309288468303e+01 0.0 
0.0 0.0 -2.969669674439e+01 
-3.893238194850e+01 1.643106334941e+01 0.0 
1.643106334941e+01 -9.759849300940e+01 0.0 
0.0 0.0 -4.055926248737e+01 
-8.134197345472e+01 8.889901534032e+00 0.0 
8.889901534032e+00 -1.589141359085e+02 0.0 
0.0 0.0 -7.167683280897e+01 
-7.253287319105e+01 5.679340518576e+00 0.0 
5.679340518576e+00 -1.374984029112e+02 0.0 
0.0 0.0 -6.260938283068e+01 
-6.893185163843e+01 6.120283026861e+00 0.0 
6.120283026861e+00 -1.281981459686e+02 0.0 
0.0 0.0 -5.873899928210e+01 
-5.307858594392e+01 1.178986082287e+01 0.0 
1.178986082287e+01 -1.500007299315e+02 0.0 
0.0 0.0 -6.052379476263e+01 
-4.043055618683e+01 1.548780418994e+01 0.0 
1.548780418994e+01 -7.290142746544e+01 0.0 
0.0 0.0 -3.359959509568e+01 
-3.128070656528e+01 1.426460625533e+01 0.0 
1.426460625533e+01 -4.996083406247e+01 0.0 
0.0 0.0 -2.397246218833e+01 
-7.779908622866e+01 1.234492799166e+01 0.0 
1.234492799166e+01 -1.542768451894e+02 0.0 
0.0 0.0 -6.922277942542e+01 
-1.058231036390e+02 7.899811084936e+00 0.0 
7.899811084936e+00 -2.266406040040e+02 0.0 
0.0 0.0 -9.933911229290e+01 
-1.096338728190e+02 9.149181837496e+00 0.0 
9.149181837496e+00 -2.370093299521e+02 0.0 
0.0 0.0 -1.035929608313e+02 
-1.161383236870e+02 1.013314007848e+01 0.0 
1.013314007848e+01 -2.566844942579e+02 0.0 
0.0 0.0 -1.114468453835e+02 
-1.134357612640e+02 1.046441348000e+01 0.0 
1.046441348000e+01 -2.476534593714e+02 0.0 
0.0 0.0 -1.079267661906e+02 
-1.066533840359e+02 9.487416249803e+00 0.0 
9.487416249803e+00 -2.274924757981e+02 0.0 
0.0 0.0 -9.984375795020e+01 
-1.105290483300e+02 1.085342656061e+01 0.0 
1.085342656061e+01 -2.383170512530e+02 0.0 
0.0 0.0 -1.042538298749e+02 
-1.170130005377e+02 1.173102509415e+01 0.0 
1.173102509415e+01 -2.584353470203e+02 0.0 
0.0 0.0 -1.122345042674e+02 
-1.145779994695e+02 1.219041086864e+01 0.0 
1.219041086864e+01 -2.500724934946e+02 0.0 
0.0 0.0 -1.089951478892e+02 
-1.220635339274e+02 1.338157182061e+01 0.0 
1.338157182061e+01 -2.736413655891e+02 0.0 
0.0 0.0 -1.183114698549e+02 
-1.181701758310e+02 1.359282008047e+01 0.0 
1.359282008047e+01 -2.614316187799e+02 0.0 
0.0 0.0 -1.134805383833e+02 
-1.111165349778e+02 1.251920890817e+01 0.0 
1.251920890817e+01 -2.404396383400e+02 0.0 
0.0 0.0 -1.050668519953e+02 
-1.145667569070e+02 1.374248637890e+01 0.0 
1.374248637890e+01 -2.515388689444e+02 0.0 
0.0 0.0 -1.094316877554e+02 
-1.211562876686e+02 1.475494036855e+01 0.0 
1.475494036855e+01 -2.709877661023e+02 0.0 
0.0 0.0 -1.172432161313e+02 
-1.076181628603e+02 1.290371918336e+01 0.0 
1.290371918336e+01 -2.311229721543e+02 0.0 
0.0 0.0 -1.012223405044e+02 
-1.394693886545e+02 1.707110495945e+01 0.0 
1.707110495945e+01 -3.330046872897e+02 0.0 
0.0 0.0 -1.413422227833e+02 
-5.741677585093e+01 1.569170701024e+01 0.0 
1.569170701024e+01 -1.475855687748e+02 0.0 
0.0 0.0 -6.110070338773e+01 
-2.021730610409e+01 1.910188815040e+00 0.0 
1.910188815040e+00 -4.296071302554e+01 0.0 
0.0 0.0 -1.855340573889e+01 
-1.878494831362e+01 5.202734734272e+00 0.0 
5.202734734272e+00 -3.675883593926e+01 0.0 
0.0 0.0 -1.626313527586e+01 
-6.939637564324e+01 1.465247822923e+01 0.0 
1.465247822923e+01 -1.401719226152e+02 0.0 
0.0 0.0 -6.247048947753e+01 
-1.275311641132e+02 1.379819971287e+01 0.0 
1.379819971287e+01 -2.926388961942e+02 0.0 
0.0 0.0 -1.256510180922e+02 
-1.258454531813e+02 1.139875937678e+01 0.0 
1.139875937678e+01 -2.885728843791e+02 0.0 
0.0 0.0 -1.239255012681e+02 
-3.910887263885e+01 1.055845011341e+01 0.0 
1.055845011341e+01 -1.151131010387e+02 0.0 
0.0 0.0 -4.586659210326e+01 
-1.340353768890e+02 1.852643856377e+01 0.0 
1.852643856377e+01 -3.104859251122e+02 0.0 
0.0 0.0 -1.329563906003e+02 
-7.342098691068e+01 7.896505696790e+00 0.0 
7.896505696790e+00 -1.388675387613e+02 0.0 
0.0 0.0 -6.328655770159e+01 
-2.893100477204e+01 5.440795802021e+00 0.0 
5.440795802021e+00 -8.568545511883e+01 0.0 
0.0 0.0 -3.398493796726e+01 
-1.369430952957e+02 1.948524054226e+01 0.0 
1.948524054226e+01 -3.192945212279e+02 0.0 
0.0 0.0 -1.364712849571e+02 
-1.027085412156e+02 8.158366824643e+00 0.0 
8.158366824643e+00 -2.168144298266e+02 0.0 
0.0 0.0 -9.545689131266e+01 
-9.943060924211e+01 8.471885961914e+00 0.0 
8.471885961914e+00 -2.069653023306e+02 0.0 
0.0 0.0 -9.151877347182e+01 
-9.535273292756e+01 7.143823410755e+00 0.0 
7.143823410755e+00 -1.964984517723e+02 0.0 
0.0 0.0 -8.715535540996e+01 
-1.247729856285e+02 9.450679863034e+00 0.0 
9.450679863034e+00 -2.866031907170e+02 0.0 
0.0 0.0 -1.230128529037e+02 
-8.139706862162e+01 2.799169501499e+00 0.0 
2.799169501499e+00 -1.669996188084e+02 0.0 
0.0 0.0 -7.411900622899e+01 
-1.429789860733e+02 1.911397090954e+01 0.0 
1.911397090954e+01 -3.371888681370e+02 0.0 
0.0 0.0 -1.436503562631e+02 
-8.941538800714e+01 1.258049844267e+01 0.0 
1.258049844267e+01 -2.334609877522e+02 0.0 
0.0 0.0 -9.646291272780e+01 
-8.513828423532e+01 1.332333772624e+01 0.0 
1.332333772624e+01 -2.215151241087e+02 0.0 
0.0 0.0 -9.159602250320e+01 
-7.674667061023e+01 1.297324300627e+01 0.0 
1.297324300627e+01 -2.033361302819e+02 0.0 
0.0 0.0 -8.362484026763e+01 
-1.073354406065e+02 1.119463274852e+01 0.0 
1.119463274852e+01 -2.289273377242e+02 0.0 
0.0 0.0 -1.004788334992e+02 
-1.477907839888e+02 1.599003751551e+01 0.0 
1.599003751551e+01 -3.515220732754e+02 0.0 
0.0 0.0 -1.493938571792e+02 
-1.399977048812e+02 1.458086551262e+01 0.0 
1.458086551262e+01 -3.381801771413e+02 0.0 
0.0 0.0 -1.430533646067e+02 
-1.411237716743e+02 1.371549951036e+01 0.0 
1.371549951036e+01 -3.410229571642e+02 0.0 
0.0 0.0 -1.442440186515e+02 
-1.315048595239e+02 1.320304356318e+01 0.0 
1.320304356318e+01 -3.231589364544e+02 0.0 
0.0 0.0 -1.359991387935e+02 
-1.502963447418e+02 1.401364066737e+01 0.0 
1.401364066737e+01 -3.577199272019e+02 0.0 
0.0 0.0 -1.520048815831e+02 
-1.304587980714e+02 1.602537630114e+01 0.0 
1.602537630114e+01 -3.003445476925e+02 0.0 
0.0 0.0 -1.288410037292e+02 
-1.317695329303e+02 1.703024794017e+01 0.0 
1.703024794017e+01 -3.042061145273e+02 0.0 
0.0 0.0 -1.303926942373e+02 
-4.291275704074e+01 1.287286400426e-01 0.0 
1.287286400426e-01 -1.243537197972e+02 0.0 
0.0 0.0 -4.977994305137e+01 
-4.562854653008e+01 1.371239796016e+00 0.0 
1.371239796016e+00 -1.337927909877e+02 0.0 
0.0 0.0 -5.342640125533e+01 
-5.210508071887e+01 2.288334589829e+00 0.0 
2.288334589829e+00 -1.518294608654e+02 0.0 
0.0 0.0 -6.078036247529e+01 
-4.836582643383e+01 2.799882008573e+00 0.0 
2.799882008573e+00 -1.425861265011e+02 0.0 
0.0 0.0 -5.688558588048e+01 
-4.204988339152e+01 1.868004222537e+00 0.0 
1.868004222537e+00 -1.245282518733e+02 0.0 
0.0 0.0 -4.957344057945e+01 
-4.465202131314e+01 3.420551686042e+00 0.0 
3.420551686042e+00 -1.330524694625e+02 0.0 
0.0 0.0 -5.291134723270e+01 
-5.117995801776e+01 4.376638124608e+00 0.0 
4.376638124608e+00 -1.508106247719e+02 0.0 
0.0 0.0 -6.019717483690e+01 
-4.097850258005e+01 4.194766286825e+00 0.0 
4.194766286825e+00 -1.232440775379e+02 0.0 
0.0 0.0 -4.886677403540e+01 
-1.149950707167e+02 1.507067917598e+01 0.0 
1.507067917598e+01 -2.545049675597e+02 0.0 
0.0 0.0 -1.104500114829e+02 
-1.526199387122e+02 1.190503283545e+01 0.0 
1.190503283545e+01 -3.631524432450e+02 0.0 
0.0 0.0 -1.543317145872e+02 
-9.538523246798e+01 4.762507358430e+00 0.0 
4.762507358430e+00 -2.529445205620e+02 0.0 
0.0 0.0 -1.040989259090e+02 
-9.075722713768e+01 5.049555914746e+00 0.0 
5.049555914746e+00 -2.433044051312e+02 0.0 
0.0 0.0 -9.981848968067e+01 
-8.243342352759e+01 4.181647646734e+00 0.0 
4.181647646734e+00 -2.247411519368e+02 0.0 
0.0 0.0 -9.175237263930e+01 
-7.166922108050e+01 8.651096738991e-02 0.0 
8.651096738991e-02 -1.927756069373e+02 0.0 
0.0 0.0 -7.893344840534e+01 
-7.557120451114e+01 5.551277500750e-01 0.0 
5.551277500750e-01 -2.033004083144e+02 0.0 
0.0 0.0 -8.326148384765e+01 
-8.355175515594e+01 1.158124826178e+00 0.0 
1.158124826178e+00 -2.224450125960e+02 0.0 
0.0 0.0 -9.139903032559e+01 
-6.773041593867e+01 -2.524204249805e-01 0.0 
-2.524204249805e-01 -1.820791481543e+02 0.0 
0.0 0.0 -7.454286922788e+01 
-9.889601284285e+01 1.639343485398e+01 0.0 
1.639343485398e+01 -2.328433618521e+02 0.0 
0.0 0.0 -9.912181240848e+01 
-1.534369304071e+02 1.094092540352e+01 0.0 
1.094092540352e+01 -3.649533592784e+02 0.0 
0.0 0.0 -1.551170869056e+02 
-8.969821127813e+01 8.523413264593e+00 0.0 
8.523413264593e+00 -2.405019380841e+02 0.0 
0.0 0.0 -9.866004480868e+01 
-7.161205730337e+01 4.901863388185e-01 0.0 
4.901863388185e-01 -1.944937407934e+02 0.0 
0.0 0.0 -7.943173942902e+01 
-6.064292508832e+01 1.370607749686e+00 0.0 
1.370607749686e+00 -1.159806249440e+02 0.0 
0.0 0.0 -5.258706500970e+01 
-6.877879095299e+01 2.303320806595e+00 0.0 
2.303320806595e+00 -1.336210144069e+02 0.0 
0.0 0.0 -6.031994160797e+01 
-6.993602831288e+01 3.070770201260e+00 0.0 
3.070770201260e+00 -1.345465991762e+02 0.0 
0.0 0.0 -6.094478824673e+01 
-7.760702928247e+01 3.698319068841e+00 0.0 
3.698319068841e+00 -1.532175710114e+02 0.0 
0.0 0.0 -6.884738008816e+01 
-6.873832763975e+01 2.054445769198e+00 0.0 
2.054445769198e+00 -1.349434499122e+02 0.0 
0.0 0.0 -6.070453326557e+01 
-8.744827207135e+01 6.812782623782e-01 0.0 
6.812782623782e-01 -2.293445725442e+02 0.0 
0.0 0.0 -9.463785338468e+01 
-9.137492501290e+01 6.636725392462e-01 0.0 
6.636725392462e-01 -2.379404609401e+02 0.0 
0.0 0.0 -9.839461578591e+01 
-8.707586928420e+01 3.409806329896e-01 0.0 
3.409806329896e-01 -2.274874113298e+02 0.0 
0.0 0.0 -9.396898418420e+01 
-9.531819256643e+01 6.003555684544e-01 0.0 
6.003555684544e-01 -2.464748101505e+02 0.0 
0.0 0.0 -1.021379008151e+02 
-9.074781276955e+01 3.489758419086e-01 0.0 
3.489758419086e-01 -2.355831842154e+02 0.0 
0.0 0.0 -9.749929909549e+01 
-8.325700135968e+01 1.878010326338e-01 0.0 
1.878010326338e-01 -2.179059848163e+02 0.0 
0.0 0.0 -8.994889585279e+01 
-9.912911855787e+01 4.971698192622e-01 0.0 
4.971698192622e-01 -2.546123028825e+02 0.0 
0.0 0.0 -1.057224264321e+02 
-9.380733135226e+01 1.801486615292e-01 0.0 
1.801486615292e-01 -2.424135191580e+02 0.0 
0.0 0.0 -1.004662551531e+02 
-5.924063557418e+01 8.042059647542e-01 0.0 
8.042059647542e-01 -1.152230702735e+02 0.0 
0.0 0.0 -5.193911175430e+01 
-1.640876341933e+01 -1.042557210171e+00 0.0 
-1.042557210171e+00 -1.717007230211e+01 0.0 
0.0 0.0 -1.006351052263e+01 
-1.890369882355e+01 -1.736874907887e+00 0.0 
-1.736874907887e+00 -3.383959157137e+01 0.0 
0.0 0.0 -1.555092994398e+01 
-1.844135702577e+01 -1.756810725127e+00 0.0 
-1.756810725127e+00 -3.348668824988e+01 0.0 
0.0 0.0 -1.530696304588e+01 
-2.208388781421e+01 -2.014082355425e+00 0.0 
-2.014082355425e+00 -4.936179703526e+01 0.0 
0.0 0.0 -2.103370545484e+01 
-2.222832959433e+01 -1.715188180293e+00 0.0 
-1.715188180293e+00 -5.037335500038e+01 0.0 
0.0 0.0 -2.138050537841e+01 
-2.636504053823e+01 -1.706093408358e+00 0.0 
-1.706093408358e+00 -6.734788001422e+01 0.0 
0.0 0.0 -2.771387616573e+01 
-2.555099603537e+01 -1.157290214644e+00 0.0 
-1.157290214644e+00 -6.462585546844e+01 0.0 
0.0 0.0 -2.665305545114e+01 
-1.921910760705e+01 -1.416807116971e+00 0.0 
-1.416807116971e+00 -3.375533875307e+01 0.0 
0.0 0.0 -1.563276025843e+01 
-1.442437059338e+01 -1.118445093387e+00 0.0 
-1.118445093387e+00 -1.699578543695e+01 0.0 
0.0 0.0 -9.416752712352e+00 
-1.771895395336e+01 -1.796654381675e+00 0.0 
-1.796654381675e+00 -3.350018429682e+01 0.0 
0.0 0.0 -1.510250182276e+01 
-1.329888670763e+01 -1.086612181138e+00 0.0 
-1.086612181138e+00 -1.683747519420e+01 0.0 
0.0 0.0 -9.036109895690e+00 
-1.696847263397e+01 -1.777756652983e+00 0.0 
-1.777756652983e+00 -3.305831280496e+01 0.0 
0.0 0.0 -1.474288507541e+01 
-2.222423942404e+01 -2.170156410572e+00 0.0 
-2.170156410572e+00 -5.194419857094e+01 0.0 
0.0 0.0 -2.185053139849e+01 
-2.995210280269e+01 -2.071009690431e+00 0.0 
-2.071009690431e+00 -7.871318517199e+01 0.0 
0.0 0.0 -3.219958639240e+01 
-1.563884367495e+02 2.512110680681e+00 0.0 
2.512110680681e+00 -3.713500165709e+02 0.0 
0.0 0.0 -1.579215359961e+02 
-7.111587171972e+01 -8.258849701596e-02 0.0 
-8.258849701596e-02 -1.880968712164e+02 0.0 
0.0 0.0 -7.736382288083e+01 
-6.722322871492e+01 -2.600921303865e-01 0.0 
-2.600921303865e-01 -1.786293204420e+02 0.0 
0.0 0.0 -7.335576474708e+01 
-5.998768116554e+01 -3.661152637823e-01 0.0 
-3.661152637823e-01 -1.597285662183e+02 0.0 
0.0 0.0 -6.551487421516e+01 
-6.377428051946e+01 -3.277631026221e-01 0.0 
-3.277631026221e-01 -1.699098995637e+02 0.0 
0.0 0.0 -6.970525402494e+01 
-7.405588750847e+01 -1.515224836916e-01 0.0 
-1.515224836916e-01 -1.958426713351e+02 0.0 
0.0 0.0 -8.056956765308e+01 
-5.602750273359e+01 -2.354514216575e-01 0.0 
-2.354514216575e-01 -1.492990693280e+02 0.0 
0.0 0.0 -6.119797161849e+01 
-5.335096704020e+01 -4.687133234058e-01 0.0 
-4.687133234058e-01 -1.422672503511e+02 0.0 
0.0 0.0 -5.828546521739e+01 
-7.045637494899e+00 -2.234872289809e-01 0.0 
-2.234872289809e-01 -1.718999375330e+01 0.0 
0.0 0.0 -7.258576704213e+00 
-1.296242880007e+01 -3.186115004999e-01 0.0 
-3.186115004999e-01 -3.379125731127e+01 0.0 
0.0 0.0 -1.373006610649e+01 
-1.232546287804e+01 -3.079998833450e-01 0.0 
-3.079998833450e-01 -3.214204646919e+01 0.0 
0.0 0.0 -1.297471959189e+01 
-1.901678085490e+01 -3.979581205539e-01 0.0 
-3.979581205539e-01 -5.058012390665e+01 0.0 
0.0 0.0 -2.047907142846e+01 
-1.922895360684e+01 -5.571715027464e-01 0.0 
-5.571715027464e-01 -5.023027380436e+01 0.0 
0.0 0.0 -2.043776822336e+01 
-1.340356465358e+01 -5.434327193714e-01 0.0 
-5.434327193714e-01 -3.409662073331e+01 0.0 
0.0 0.0 -1.397723716511e+01 
-1.361072953239e+01 -7.505454548878e-01 0.0 
-7.505454548878e-01 -3.409330647109e+01 0.0 
0.0 0.0 -1.404486489100e+01 
-7.760747537271e+00 -4.521510865842e-01 0.0 
-4.521510865842e-01 -1.705671653734e+01 0.0 
0.0 0.0 -7.439817827033e+00 
-1.384781360959e+01 -8.411247861628e-01 0.0 
-8.411247861628e-01 -3.395479100646e+01 0.0 
0.0 0.0 -1.410214625989e+01 
-1.984252384972e+01 -1.044583943412e+00 0.0 
-1.044583943412e+00 -5.102668122810e+01 0.0 
0.0 0.0 -2.086076152335e+01 
-8.116448406514e+00 -5.317962491548e-01 0.0 
-5.317962491548e-01 -1.647460045641e+01 0.0 
0.0 0.0 -7.389051678839e+00 
-9.337768933123e+01 3.828724202576e-01 0.0 
3.828724202576e-01 -2.067128675116e+02 0.0 
0.0 0.0 -8.962716705284e+01 
-9.747803264847e+01 6.799067210794e-01 0.0 
6.799067210794e-01 -2.175092449292e+02 0.0 
0.0 0.0 -9.409618327329e+01 
-1.542805458519e+02 8.884286049704e+00 0.0 
8.884286049704e+00 -3.671783466675e+02 0.0 
0.0 0.0 -1.560376677558e+02 
-5.905831185243e+01 5.740429386720e-01 0.0 
5.740429386720e-01 -1.171104582737e+02 0.0 
0.0 0.0 -5.245063103783e+01 
-1.144344365359e+01 -9.200705087136e-01 0.0 
-9.200705087136e-01 -1.711481108269e+01 0.0 
0.0 0.0 -8.551640064722e+00 
-1.196951999544e+02 2.260589598756e+00 0.0 
2.260589598756e+00 -2.769244658824e+02 0.0 
0.0 0.0 -1.185858997510e+02 
-1.216084570197e+02 4.212661045227e+00 0.0 
4.212661045227e+00 -2.809858219665e+02 0.0 
0.0 0.0 -1.203782836958e+02 
-1.214808655711e+02 3.486780928293e+00 0.0 
3.486780928293e+00 -2.810070031336e+02 0.0 
0.0 0.0 -1.203463606114e+02 
-1.412382703989e+02 5.174560642062e-01 0.0 
5.174560642062e-01 -3.423638209197e+02 0.0 
0.0 0.0 -1.446806273956e+02 
-1.460989805765e+02 1.118974579998e+00 0.0 
1.118974579998e+00 -3.517186460997e+02 0.0 
0.0 0.0 -1.489452880029e+02 
-1.195965127817e+02 1.242574782496e+00 0.0 
1.242574782496e+00 -2.772487126757e+02 0.0 
0.0 0.0 -1.186535676372e+02 
-4.608616502230e+01 -1.505647584607e+00 0.0 
-1.505647584607e+00 -1.257840907101e+02 0.0 
0.0 0.0 -5.116107671973e+01 
-1.200142453667e+02 1.141988606037e+01 0.0 
1.141988606037e+01 -2.673353342104e+02 0.0 
0.0 0.0 -1.158048738731e+02 
-1.073989218724e+02 2.230433007889e+00 0.0 
2.230433007889e+00 -2.422988182191e+02 0.0 
0.0 0.0 -1.045093220275e+02 
-2.628549150229e+01 6.849274315510e+00 0.0 
6.849274315510e+00 -7.541961866995e+01 0.0 
0.0 0.0 -3.011153305167e+01 
-4.354043638679e+01 -1.471376016214e+00 0.0 
-1.471376016214e+00 -1.210237450862e+02 0.0 
0.0 0.0 -4.896925444188e+01 
-1.126219142840e+02 1.033333806120e+00 0.0 
1.033333806120e+00 -2.844888179829e+02 0.0 
0.0 0.0 -1.187332196801e+02 
-1.002750641894e+02 2.357868337451e+00 0.0 
2.357868337451e+00 -2.603915914517e+02 0.0 
0.0 0.0 -1.077999966923e+02 
-1.316804305348e+02 2.502191674847e+00 0.0 
2.502191674847e+00 -3.242199060926e+02 0.0 
0.0 0.0 -1.363701009882e+02 
-1.042563499597e+02 1.447525954181e+00 0.0 
1.447525954181e+00 -2.673031966685e+02 0.0 
0.0 0.0 -1.110678639885e+02 
-1.227681478647e+02 3.217572913186e+00 0.0 
3.217572913186e+00 -3.070368224999e+02 0.0 
0.0 0.0 -1.285414911094e+02 
-1.414948852649e+02 1.242160791946e+01 0.0 
1.242160791946e+01 -3.428435365543e+02 0.0 
0.0 0.0 -1.449015265458e+02 
-3.014559513268e+01 -7.468230406935e-01 0.0 
-7.468230406935e-01 -7.937609540618e+01 0.0 
0.0 0.0 -3.245650716166e+01 
-8.071635549420e+01 1.604278101239e+00 0.0 
1.604278101239e+00 -1.699703123093e+02 0.0 
0.0 0.0 -7.480600034104e+01 
-7.678022480658e+01 8.222058539112e-01 0.0 
8.222058539112e-01 -1.626829352845e+02 0.0 
0.0 0.0 -7.143894802733e+01 
-9.625916199168e+01 2.062141476164e+00 0.0 
2.062141476164e+00 -2.115389623693e+02 0.0 
0.0 0.0 -9.193943730829e+01 
-4.894041920891e+01 -1.090372530013e+00 0.0 
-1.090372530013e+00 -1.320173145379e+02 0.0 
0.0 0.0 -5.388732012405e+01 
-7.930735874979e+01 1.462455675345e-01 0.0 
1.462455675345e-01 -2.089249596092e+02 0.0 
0.0 0.0 -8.606969550770e+01 
-3.170675586568e+01 -1.620898993654e+00 0.0 
-1.620898993654e+00 -8.416925688081e+01 0.0 
0.0 0.0 -3.436280382395e+01 
-1.302096969951e+02 1.829861759814e+01 0.0 
1.829861759814e+01 -3.014309494603e+02 0.0 
0.0 0.0 -1.290921939366e+02 
-6.996221928196e+01 1.176052949491e+01 0.0 
1.176052949491e+01 -1.339402109795e+02 0.0 
0.0 0.0 -6.077072907845e+01 
-7.871144879276e+01 3.068827647971e+00 0.0 
3.068827647971e+00 -2.155007532437e+02 0.0 
0.0 0.0 -8.786366061095e+01 
-6.404141917317e+01 -4.155396973533e-01 0.0 
-4.155396973533e-01 -1.733692678123e+02 0.0 
0.0 0.0 -7.082320609565e+01 
-4.973156378479e+01 -1.269195453151e+00 0.0 
-1.269195453151e+00 -1.368172766900e+02 0.0 
0.0 0.0 -5.556465214244e+01 
-4.042589766895e+01 -1.520036065865e+00 0.0 
-1.520036065865e+00 -1.127233064107e+02 0.0 
0.0 0.0 -4.554476122390e+01 
-6.204268258733e+01 1.646647597237e+01 0.0 
1.646647597237e+01 -1.525878129164e+02 0.0 
0.0 0.0 -6.398914865111e+01 
-7.538111496273e+01 1.153881065111e+00 0.0 
1.153881065111e+00 -2.047659895267e+02 0.0 
0.0 0.0 -8.364413134683e+01 
-1.136047161377e+02 4.982258550810e+00 0.0 
4.982258550810e+00 -2.902890415622e+02 0.0 
0.0 0.0 -1.207681273100e+02 
-1.000649978333e+02 1.919785531205e+00 0.0 
1.919785531205e+00 -2.224203170079e+02 0.0 
0.0 0.0 -9.634559445236e+01 
-1.040278866497e+01 -8.954941259444e-01 0.0 
-8.954941259444e-01 -1.905990660020e+01 0.0 
0.0 0.0 -8.724107410676e+00 
-1.181931650775e+02 6.031307844300e+00 0.0 
6.031307844300e+00 -2.998636644200e+02 0.0 
0.0 0.0 -1.250170488492e+02 
-9.163127800350e+01 2.603157113225e+00 0.0 
2.603157113225e+00 -2.426979133548e+02 0.0 
0.0 0.0 -9.989875740750e+01 
-8.520769422318e+01 2.825545343078e+00 0.0 
2.825545343078e+00 -1.777671396590e+02 0.0 
0.0 0.0 -7.849245016466e+01 
-1.116238086982e+02 1.311042194448e+01 0.0 
1.311042194448e+01 -2.817535858332e+02 0.0 
0.0 0.0 -1.176132183594e+02 
-2.940810944919e+01 -1.854933895105e+00 0.0 
-1.854933895105e+00 -7.745646338648e+01 0.0 
0.0 0.0 -3.165937185070e+01 
-1.001340743375e+02 3.433439717201e+00 0.0 
3.433439717201e+00 -2.190658242313e+02 0.0 
0.0 0.0 -9.535996957065e+01 
-1.144757662044e+02 6.962784453922e+00 0.0 
6.962784453922e+00 -2.558629525342e+02 0.0 
0.0 0.0 -1.107016156216e+02 
-7.768303201052e+01 2.889237978063e+00 0.0 
2.889237978063e+00 -1.564149778007e+02 0.0 
0.0 0.0 -6.982940294338e+01 
-2.499071324017e+01 -1.545199922846e+00 0.0 
-1.545199922846e+00 -6.460260826382e+01 0.0 
0.0 0.0 -2.647799645120e+01 
-7.240137131400e+01 1.071369944234e+00 0.0 
1.071369944234e+00 -1.498605328141e+02 0.0 
0.0 0.0 -6.627857123843e+01 
-1.376592035728e+02 9.127723017599e+00 0.0 
9.127723017599e+00 -3.369743811775e+02 0.0 
0.0 0.0 -1.419900754251e+02 
-1.018362748288e+02 6.719759661226e+00 0.0 
6.719759661226e+00 -2.164496073142e+02 0.0 
0.0 0.0 -9.508576464289e+01 
-4.507573005871e+01 -1.018564875588e+00 0.0 
-1.018564875588e+00 -1.209569051082e+02 0.0 
0.0 0.0 -4.940979055008e+01 
-7.700133329922e+01 8.444269370638e+00 0.0 
8.444269370638e+00 -2.120266451949e+02 0.0 
0.0 0.0 -8.630839354825e+01 
-6.817078542761e+01 1.650618990642e+01 0.0 
1.650618990642e+01 -1.483768751123e+02 0.0 
0.0 0.0 -6.456429816198e+01 
-5.586995366634e+01 3.348223784362e+00 0.0 
3.348223784362e+00 -9.912120980224e+01 0.0 
0.0 0.0 -4.609734904057e+01 
-1.106293644696e+02 2.767326637316e+00 0.0 
2.767326637316e+00 -2.508909283322e+02 0.0 
0.0 0.0 -1.080560878405e+02 
-7.716877845416e+01 1.490296626411e+01 0.0 
1.490296626411e+01 -1.968306248047e+02 0.0 
0.0 0.0 -8.179982097765e+01 
-1.212728080131e+02 1.216597016913e+01 0.0 
1.216597016913e+01 -3.036724294531e+02 0.0 
0.0 0.0 -1.270835712399e+02 
-9.388787204392e+01 9.886863430401e+00 0.0 
9.886863430401e+00 -2.483847466903e+02 0.0 
0.0 0.0 -1.022817856203e+02 
-4.841890318332e+01 -7.859754794951e-01 0.0 
-7.859754794951e-01 -1.297447449782e+02 0.0 
0.0 0.0 -5.304909444846e+01 
-1.277573453996e+02 5.340307877660e+00 0.0 
5.340307877660e+00 -3.181452051851e+02 0.0 
0.0 0.0 -1.333707651754e+02 
-7.262111275529e+01 1.163770432775e+01 0.0 
1.163770432775e+01 -1.971651890757e+02 0.0 
0.0 0.0 -8.053589054931e+01 
-1.074432222077e+02 4.034879328104e+00 0.0 
4.034879328104e+00 -2.390968420370e+02 0.0 
0.0 0.0 -1.035620192734e+02 
-1.038456082207e+02 1.601498154958e+01 0.0 
1.601498154958e+01 -2.327761310978e+02 0.0 
0.0 0.0 -1.005865217955e+02 
-5.736412940005e+01 7.786600763427e+00 0.0 
7.786600763427e+00 -1.658497344227e+02 0.0 
0.0 0.0 -6.656415914682e+01 
-1.043501349386e+02 5.302892650438e+00 0.0 
5.302892650438e+00 -2.271250622153e+02 0.0 
0.0 0.0 -9.904255914617e+01 
-7.805551415936e+01 4.519347076622e+00 0.0 
4.519347076622e+00 -2.152229258936e+02 0.0 
0.0 0.0 -8.758353201588e+01 
-1.161853438465e+02 1.424446451615e+01 0.0 
1.424446451615e+01 -2.890240556353e+02 0.0 
0.0 0.0 -1.211628198445e+02 
-6.583109232080e+01 1.305771185371e+01 0.0 
1.305771185371e+01 -1.265733765937e+02 0.0 
0.0 0.0 -5.732134067435e+01 
-8.836401610195e+01 1.567831449124e+01 0.0 
1.567831449124e+01 -1.934518763655e+02 0.0 
0.0 0.0 -8.414476774022e+01 
-9.674777693002e+01 1.265787007208e+01 0.0 
1.265787007208e+01 -2.023797737708e+02 0.0 
0.0 0.0 -8.933826521024e+01 
-8.274847646743e+01 1.641554045126e+01 0.0 
1.641554045126e+01 -1.949563804429e+02 0.0 
0.0 0.0 -8.291145707311e+01 
-1.079017829856e+02 5.375013515105e-01 0.0 
5.375013515105e-01 -2.740769117294e+02 0.0 
0.0 0.0 -1.141936084145e+02 
-1.229754179507e+02 5.687626797823e+00 0.0 
5.687626797823e+00 -3.090804422532e+02 0.0 
0.0 0.0 -1.292167580612e+02 
-2.807805703813e+01 7.500484174652e-01 0.0 
7.500484174652e-01 -7.919828410853e+01 0.0 
0.0 0.0 -3.178290234400e+01 
-4.632713574422e+01 1.660418101050e+01 0.0 
1.660418101050e+01 -1.158683117836e+02 0.0 
0.0 0.0 -4.825863425834e+01 
-8.589074683176e+01 3.683245831607e+00 0.0 
3.683245831607e+00 -1.766673875503e+02 0.0 
0.0 0.0 -7.836744031461e+01 
-1.189965895522e+02 1.731222839056e+01 0.0 
1.731222839056e+01 -2.773115334207e+02 0.0 
0.0 0.0 -1.184924368919e+02 
-1.144945910178e+02 4.513829407206e+00 0.0 
4.513829407206e+00 -2.589689818019e+02 0.0 
0.0 0.0 -1.116390718459e+02 
-6.019546682563e+01 1.673752636380e+01 0.0 
1.673752636380e+01 -1.288066083614e+02 0.0 
0.0 0.0 -5.630062255612e+01 
-1.229449310206e+02 4.388410856751e+00 0.0 
4.388410856751e+00 -3.082715986923e+02 0.0 
0.0 0.0 -1.289649589139e+02 
-1.111115042070e+02 6.000386664089e+00 0.0 
6.000386664089e+00 -2.467358276177e+02 0.0 
0.0 0.0 -1.069541995474e+02 
-7.945477053648e+01 1.150067400759e+00 0.0 
1.150067400759e+00 -2.136157991230e+02 0.0 
0.0 0.0 -8.752117089785e+01 
-3.413562469012e+01 -2.697566105238e-01 0.0 
-2.697566105238e-01 -9.105307414383e+01 0.0 
0.0 0.0 -3.715660965019e+01 
-2.269276975912e+01 6.385304235380e+00 0.0 
6.385304235380e+00 -5.902568721025e+01 0.0 
0.0 0.0 -2.411553709081e+01 
-4.356802345571e+01 6.085882432417e+00 0.0 
6.085882432417e+00 -1.307322114504e+02 0.0 
0.0 0.0 -5.189007047184e+01 
-7.279546604174e+01 1.389011330840e+01 0.0 
1.389011330840e+01 -1.912089696590e+02 0.0 
0.0 0.0 -7.880133071021e+01 
-8.756785736526e+01 1.821969043872e+00 0.0 
1.821969043872e+00 -2.326420723824e+02 0.0 
0.0 0.0 -9.566297892431e+01 
-1.197791418516e+02 9.942843633042e+00 0.0 
9.942843633042e+00 -2.690809286222e+02 0.0 
0.0 0.0 -1.162580211421e+02 
-1.276073175300e+02 4.048937610590e+00 0.0 
4.048937610590e+00 -3.170781218378e+02 0.0 
0.0 0.0 -1.330056318104e+02 
-1.130036608037e+02 7.965719551848e+00 0.0 
7.965719551848e+00 -2.897982564593e+02 0.0 
0.0 0.0 -1.204405751789e+02 
-1.868229071699e+01 1.059656239031e+01 0.0 
1.059656239031e+01 -2.174073870021e+01 0.0 
0.0 0.0 -1.172690882516e+01 
-6.060567691536e+01 4.921607690995e+00 0.0 
4.921607690995e+00 -1.086270195289e+02 0.0 
0.0 0.0 -5.036980893327e+01 
-1.322704385091e+02 3.674905745156e+00 0.0 
3.674905745156e+00 -3.258720242505e+02 0.0 
0.0 0.0 -1.370427388279e+02 
-8.129660320801e+01 7.751712292514e+00 0.0 
7.751712292514e+00 -2.223096780744e+02 0.0 
0.0 0.0 -9.068188438473e+01 
-1.207509530645e+02 1.380797042108e+01 0.0 
1.380797042108e+01 -2.999652184097e+02 0.0 
0.0 0.0 -1.258148514422e+02 
-8.602272080745e+01 1.282760141706e-01 0.0 
1.282760141706e-01 -2.241478152228e+02 0.0 
0.0 0.0 -9.265116080908e+01 
-1.311950954210e+02 1.858303927959e+01 0.0 
1.858303927959e+01 -3.054540732926e+02 0.0 
0.0 0.0 -1.305947506141e+02 
-4.489985463762e+01 8.720812251888e+00 0.0 
8.720812251888e+00 -7.251425370774e+01 0.0 
0.0 0.0 -3.482423250361e+01 
-1.369628066801e+02 3.250522839587e+00 0.0 
3.250522839587e+00 -3.348863736527e+02 0.0 
0.0 0.0 -1.411547540998e+02 
-1.123892858902e+02 9.603711414375e+00 0.0 
9.603711414375e+00 -2.879475927303e+02 0.0 
0.0 0.0 -1.197010635861e+02 
-4.208840835141e+01 1.252251123738e+01 0.0 
1.252251123738e+01 -1.200897930815e+02 0.0 
0.0 0.0 -4.825346042988e+01 
-5.626271549323e+01 3.408474182214e-02 0.0 
3.408474182214e-02 -1.144787555568e+02 0.0 
0.0 0.0 -5.082244131501e+01 
-1.482232570152e+02 3.556923737428e+00 0.0 
3.556923737428e+00 -3.562860925343e+02 0.0 
0.0 0.0 -1.509528048649e+02 
-1.220330599443e+02 1.047709272271e+01 0.0 
1.047709272271e+01 -3.067530250690e+02 0.0 
0.0 0.0 -1.282358255040e+02 
-9.080042998817e+01 1.634605879547e+01 0.0 
1.634605879547e+01 -2.138306399426e+02 0.0 
0.0 0.0 -9.098932097923e+01 
-7.746226483305e+01 6.329401252622e+00 0.0 
6.329401252622e+00 -2.141678397629e+02 0.0 
0.0 0.0 -8.708903137878e+01 
-4.770762744713e+01 4.095516107624e+00 0.0 
4.095516107624e+00 -7.987487943282e+01 0.0 
0.0 0.0 -3.787475206398e+01 
-9.177344420649e+01 1.763328651590e+00 0.0 
1.763328651590e+00 -2.414419149910e+02 0.0 
0.0 0.0 -9.956460775924e+01 
-9.260100515444e+01 1.508858770129e+01 0.0 
1.508858770129e+01 -2.000691167264e+02 0.0 
0.0 0.0 -8.740103656425e+01 
-1.241349114420e+02 8.416893479070e+00 0.0 
8.416893479070e+00 -2.856326649008e+02 0.0 
0.0 0.0 -1.225302729029e+02 
-1.262347808046e+02 1.174271215052e+01 0.0 
1.174271215052e+01 -3.140182218641e+02 0.0 
0.0 0.0 -1.316759008006e+02 
-9.191226517730e+01 7.450147796130e+00 0.0 
7.450147796130e+00 -1.865574655743e+02 0.0 
0.0 0.0 -8.314091922547e+01 
-8.761606870085e+01 1.152401864958e+00 0.0 
1.152401864958e+00 -2.311232346579e+02 0.0 
0.0 0.0 -9.522179100763e+01 
-9.808732246367e+01 1.466284091458e+01 0.0 
1.466284091458e+01 -2.461204676120e+02 0.0 
0.0 0.0 -1.028623370227e+02 
-1.951647251616e+01 -7.956843319627e-01 0.0 
-7.956843319627e-01 -5.035507255232e+01 0.0 
0.0 0.0 -2.056146352055e+01 
-5.290682317511e+01 6.300587401870e+00 0.0 
6.300587401870e+00 -9.020638364864e+01 0.0 
0.0 0.0 -4.253396204713e+01 
-9.166520628854e+01 1.128436056919e+00 0.0 
1.128436056919e+00 -2.397536082499e+02 0.0 
0.0 0.0 -9.902564436152e+01 
-4.733166810979e+01 5.151284510407e+00 0.0 
5.151284510407e+00 -1.408998737666e+02 0.0 
0.0 0.0 -5.606946256291e+01 
-8.177572071115e+01 5.810333383941e+00 0.0 
5.810333383941e+00 -2.239021954513e+02 0.0 
0.0 0.0 -9.130337484873e+01 
-1.340698913208e+02 1.717935481848e+01 0.0 
1.717935481848e+01 -3.211821559406e+02 0.0 
0.0 0.0 -1.361756141784e+02 
-9.571624887534e+01 1.069013516887e+00 0.0 
1.069013516887e+00 -2.483692898854e+02 0.0 
0.0 0.0 -1.028256616282e+02 
-5.415157692537e+01 6.054628422659e+00 0.0 
6.054628422659e+00 -1.585364636597e+02 0.0 
0.0 0.0 -6.340641217552e+01 
-9.975848851740e+01 9.653283468245e-01 0.0 
9.653283468245e-01 -2.569205428917e+02 0.0 
0.0 0.0 -1.066037094227e+02 
-3.939028836891e+01 5.486852599126e+00 0.0 
5.486852599126e+00 -6.089822454010e+01 0.0 
0.0 0.0 -2.968655387270e+01 
-9.605161759588e+01 8.851492728790e+00 0.0 
8.851492728790e+00 -1.972932945310e+02 0.0 
0.0 0.0 -8.760347363805e+01 
-1.038164853373e+02 8.181368794140e-01 0.0 
8.181368794140e-01 -2.653949418435e+02 0.0 
0.0 0.0 -1.103634281543e+02 
-1.002207101680e+02 1.534697783063e+01 0.0 
1.534697783063e+01 -2.198915036124e+02 0.0 
0.0 0.0 -9.563366413413e+01 
-2.066417129190e+01 -1.149051656153e+00 0.0 
-1.149051656153e+00 -5.269084622185e+01 0.0 
0.0 0.0 -2.160650525412e+01 
-9.439871541815e+01 1.615206816186e+01 0.0 
1.615206816186e+01 -2.267343639448e+02 0.0 
0.0 0.0 -9.593992380890e+01 
-1.359826696084e+02 1.001145704957e+00 0.0 
1.001145704957e+00 -3.320533975763e+02 0.0 
0.0 0.0 -1.400108201554e+02 
-5.675407931552e+01 -2.808111228900e-01 0.0 
-2.808111228900e-01 -1.583467308800e+02 0.0 
0.0 0.0 -6.413024305867e+01 
-8.618013968232e+01 5.381015083961e+00 0.0 
5.381015083961e+00 -2.335519969435e+02 0.0 
0.0 0.0 -9.551964098775e+01 
-1.034305116435e+02 9.851983300242e+00 0.0 
9.851983300242e+00 -2.178273009004e+02 0.0 
0.0 0.0 -9.597734376315e+01 
-3.103580763763e+01 7.956483715218e+00 0.0 
7.956483715218e+00 -4.258056444885e+01 0.0 
0.0 0.0 -2.168491162594e+01 
-9.470230742720e+01 6.235820727991e+00 0.0 
6.235820727991e+00 -2.520751362019e+02 0.0 
0.0 0.0 -1.036332330887e+02 
-1.077858486647e+02 1.571805972670e+01 0.0 
1.571805972670e+01 -2.397111622593e+02 0.0 
0.0 0.0 -1.038491032772e+02 
-9.822566751367e+01 1.582438993756e+01 0.0 
1.582438993756e+01 -2.394492623141e+02 0.0 
0.0 0.0 -1.009024789483e+02 
-8.101742947703e+01 1.410275440650e+01 0.0 
1.410275440650e+01 -2.092485292371e+02 0.0 
0.0 0.0 -8.667978761423e+01 
-1.036464658090e+02 7.094319314096e+00 0.0 
7.094319314096e+00 -2.708571790161e+02 0.0 
0.0 0.0 -1.119510934475e+02 
-3.668684754881e+01 1.236160861927e+01 0.0 
1.236160861927e+01 -5.771260395940e+01 0.0 
0.0 0.0 -2.791983545246e+01 
-4.293983758801e+01 -1.705411456193e+00 0.0 
-1.705411456193e+00 -1.175265370408e+02 0.0 
0.0 0.0 -4.773991238864e+01 
-3.639166006401e+01 -1.964810735758e+00 0.0 
-1.964810735758e+00 -9.826582443769e+01 0.0 
0.0 0.0 -3.999724535051e+01 
-5.811265934495e+01 5.274886125358e+00 0.0 
5.274886125358e+00 -1.684972222154e+02 0.0 
0.0 0.0 -6.758296446809e+01 
-1.115421130876e+02 1.538218920072e+01 0.0 
1.538218920072e+01 -2.470239126165e+02 0.0 
0.0 0.0 -1.071698077112e+02 
-2.528275624727e+01 -4.583337517436e-01 0.0 
-4.583337517436e-01 -6.692298320112e+01 0.0 
0.0 0.0 -2.726172183452e+01 
-1.039340574141e+02 1.162235268961e+01 0.0 
1.162235268961e+01 -2.196322402285e+02 0.0 
0.0 0.0 -9.666988929278e+01 
-2.751273054803e+01 -2.143356730240e+00 0.0 
-2.143356730240e+00 -7.078111652774e+01 0.0 
0.0 0.0 -2.908815412273e+01 
-5.504086684869e+01 3.726424147354e+00 0.0 
3.726424147354e+00 -1.603764586452e+02 0.0 
0.0 0.0 -6.422519764816e+01 
-1.114418313237e+02 1.587659380606e+01 0.0 
1.587659380606e+01 -2.715958418060e+02 0.0 
0.0 0.0 -1.145113019389e+02 
-7.831296836734e+01 3.467351393891e-01 0.0 
3.467351393891e-01 -1.684139309134e+02 0.0 
0.0 0.0 -7.361806978422e+01 
-5.893074761797e+01 3.190889901623e+00 0.0 
3.190889901623e+00 -1.696896205415e+02 0.0 
0.0 0.0 -6.818611044784e+01 
-4.146803872665e+01 -2.742026553601e-01 0.0 
-2.742026553601e-01 -1.106746325616e+02 0.0 
0.0 0.0 -4.524280138648e+01 
-5.585399095090e+01 1.888519646421e+00 0.0 
1.888519646421e+00 -1.608040178968e+02 0.0 
0.0 0.0 -6.459740265432e+01 
-8.942931698224e+01 1.433506985121e+01 0.0 
1.433506985121e+01 -2.275128446956e+02 0.0 
0.0 0.0 -9.468264850336e+01 
-5.966509117061e+01 1.598625123851e+00 0.0 
1.598625123851e+00 -1.696952522033e+02 0.0 
0.0 0.0 -6.840810301217e+01 
-5.650732288042e+01 5.785348907917e-01 0.0 
5.785348907917e-01 -1.601625624042e+02 0.0 
0.0 0.0 -6.460096558537e+01 
-1.145214638772e+02 2.567457170101e+00 0.0 
2.567457170101e+00 -2.620809190595e+02 0.0 
0.0 0.0 -1.125807148810e+02 
-6.017188265360e+01 4.696090776971e-01 0.0 
4.696090776971e-01 -1.686456631469e+02 0.0 
0.0 0.0 -6.824526374014e+01 
-1.210465433459e+02 7.895480386683e-01 0.0 
7.895480386683e-01 -2.806365881455e+02 0.0 
0.0 0.0 -1.201049394474e+02 
-1.572810142728e+02 1.203583567740e+00 0.0 
1.203583567740e+00 -3.729155477166e+02 0.0 
0.0 0.0 -1.586589685968e+02 
-6.236480022521e+01 1.974069866441e-01 0.0 
1.974069866441e-01 -1.294416218812e+02 0.0 
0.0 0.0 -5.714192663193e+01 
-2.260195937977e+01 1.076518512173e+01 0.0 
1.076518512173e+01 -2.644730262823e+01 0.0 
0.0 0.0 -1.431477860240e+01 
-1.818520461222e+01 6.987863957969e-02 0.0 
6.987863957969e-02 -1.678458194539e+01 0.0 
0.0 0.0 -1.035548849671e+01 
-2.980372090164e+01 1.610859195745e+01 0.0 
1.610859195745e+01 -5.240294347532e+01 0.0 
0.0 0.0 -2.426199931309e+01 
-4.999678720848e+01 -9.276900796630e-01 0.0 
-9.276900796630e-01 -1.397157511148e+02 0.0 
0.0 0.0 -5.651376149699e+01 
-1.040318005409e+02 1.332017511378e+01 0.0 
1.332017511378e+01 -2.224505545893e+02 0.0 
0.0 0.0 -9.754470653907e+01 
-6.279476721692e+01 8.983527646220e-02 0.0 
8.983527646220e-02 -1.301880323993e+02 0.0 
0.0 0.0 -5.749483988486e+01 
-4.659506506812e+01 -1.420486048192e+00 0.0 
-1.420486048192e+00 -1.288779925697e+02 0.0 
0.0 0.0 -5.224191729136e+01 
-1.247642734730e+02 1.469479377914e+01 0.0 
1.469479377914e+01 -2.818363830256e+02 0.0 
0.0 0.0 -1.215801969496e+02 
-1.401233501432e+02 1.972304135160e+01 0.0 
1.972304135160e+01 -3.288096923776e+02 0.0 
0.0 0.0 -1.402799127562e+02 
-8.967445313385e+01 5.256478811340e-01 0.0 
5.256478811340e-01 -1.970413857709e+02 0.0 
0.0 0.0 -8.561475167142e+01 
-1.252869375180e+02 1.333731516668e+01 0.0 
1.333731516668e+01 -3.101011307338e+02 0.0 
0.0 0.0 -1.302164204755e+02 
-1.025304562413e+02 1.545842523863e+01 0.0 
1.545842523863e+01 -2.524328458268e+02 0.0 
0.0 0.0 -1.060889906204e+02 
-1.073836910154e+02 4.406998018253e-01 0.0 
4.406998018253e-01 -2.440341432235e+02 0.0 
0.0 0.0 -1.050253502717e+02 
-5.634463812663e+01 3.940088778829e-01 0.0 
3.940088778829e-01 -1.130761576598e+02 0.0 
0.0 0.0 -5.042623873593e+01 
-1.636811242046e+01 -1.656935457595e+00 0.0 
-1.656935457595e+00 -3.299979618152e+01 0.0 
0.0 0.0 -1.453339975608e+01 
-1.126061543502e+02 2.954204509001e-01 0.0 
2.954204509001e-01 -2.840127560820e+02 0.0 
0.0 0.0 -1.185856731297e+02 
-2.061541822257e+01 1.416412435179e+01 0.0 
1.416412435179e+01 -2.424227308374e+01 0.0 
0.0 0.0 -1.305730739189e+01 
-2.391233487764e+01 1.531202982108e+01 0.0 
1.531202982108e+01 -4.537931021993e+01 0.0 
0.0 0.0 -2.038749352927e+01 
-2.173710484823e+01 1.327800290378e+01 0.0 
1.327800290378e+01 -4.233128462825e+01 0.0 
0.0 0.0 -1.882051684294e+01 
-5.096005415398e+01 -5.913157855490e-01 0.0 
-5.913157855490e-01 -1.366917052805e+02 0.0 
0.0 0.0 -5.589552783035e+01 
-2.185187230811e+01 -2.129004462368e+00 0.0 
-2.129004462368e+00 -4.908278723018e+01 0.0 
0.0 0.0 -2.088039786149e+01 
-2.098964005422e+01 1.434648903539e+01 0.0 
1.434648903539e+01 -2.731283697042e+01 0.0 
0.0 0.0 -1.409074310739e+01 
-1.384021913484e+02 1.539238422709e+01 0.0 
1.539238422709e+01 -3.339780333399e+02 0.0 
0.0 0.0 -1.413140674065e+02 
-6.545501862208e+01 1.144890463678e+00 0.0 
1.144890463678e+00 -1.309499605817e+02 0.0 
0.0 0.0 -5.852149376114e+01 
-1.154729767325e+02 1.658411149675e+01 0.0 
1.658411149675e+01 -2.774574966720e+02 0.0 
0.0 0.0 -1.174791420214e+02 
-2.038209422992e+01 1.324113948352e+01 0.0 
1.324113948352e+01 -2.560308997187e+01 0.0 
0.0 0.0 -1.339555526054e+01 
-1.175681710581e+02 6.751884772584e+00 0.0 
6.751884772584e+00 -2.661402157812e+02 0.0 
0.0 0.0 -1.147125160518e+02 
-1.339628535246e+02 1.817307208670e+01 0.0 
1.817307208670e+01 -3.178238159385e+02 0.0 
0.0 0.0 -1.351360008389e+02 
-1.563464169833e+02 6.878645749487e+00 0.0 
6.878645749487e+00 -3.712472741983e+02 0.0 
0.0 0.0 -1.578781073545e+02 
-1.243113931177e+02 1.720280822966e+01 0.0 
1.720280822966e+01 -2.968387134365e+02 0.0 
0.0 0.0 -1.259450319662e+02 
-1.981188346245e+01 1.001600639544e+01 0.0 
1.001600639544e+01 -3.700014653020e+01 0.0 
0.0 0.0 -1.664360899779e+01 
-7.518047541872e+01 3.050723729291e+00 0.0 
3.050723729291e+00 -1.487523199113e+02 0.0 
0.0 0.0 -6.677983859901e+01 
-1.289208490903e+02 1.791749580653e+01 0.0 
1.791749580653e+01 -2.969244198439e+02 0.0 
0.0 0.0 -1.273535806803e+02 
-9.599632276744e+01 8.301013001607e-01 0.0 
8.301013001607e-01 -2.127330392020e+02 0.0 
0.0 0.0 -9.221880859085e+01 
-1.578357818515e+02 5.092462358070e+00 0.0 
5.092462358070e+00 -3.738395251810e+02 0.0 
0.0 0.0 -1.591025921097e+02 
-6.570695810186e+01 1.370774432697e+00 0.0 
1.370774432697e+00 -1.289518212226e+02 0.0 
0.0 0.0 -5.799763379735e+01 
-1.151304011205e+02 1.603354917987e+00 0.0 
1.603354917987e+00 -2.644762467199e+02 0.0 
0.0 0.0 -1.134819943521e+02 
-2.627940744537e+01 -4.665636850247e-01 0.0 
-4.665636850247e-01 -7.062657634834e+01 0.0 
0.0 0.0 -2.867179513811e+01 
-1.150521796703e+02 7.708451092731e-01 0.0 
7.708451092731e-01 -2.645934106768e+02 0.0 
0.0 0.0 -1.134936771041e+02 
-1.112533739289e+02 1.407250439444e+01 0.0 
1.407250439444e+01 -2.427357846268e+02 0.0 
0.0 0.0 -1.057967475667e+02 
-7.316595098697e+01 4.518729420341e-01 0.0 
4.518729420341e-01 -1.542132156303e+02 0.0 
0.0 0.0 -6.781374998518e+01 
-7.646455062450e+01 4.004321032560e+00 0.0 
4.004321032560e+00 -1.491014133290e+02 0.0 
0.0 0.0 -6.726978918605e+01 
-1.507467042083e+02 1.756037371488e+00 0.0 
1.756037371488e+00 -3.604540710804e+02 0.0 
0.0 0.0 -1.529602325866e+02 
-1.224669947618e+02 1.268003961586e+01 0.0 
1.268003961586e+01 -2.759499017075e+02 0.0 
0.0 0.0 -1.191250689408e+02 
-1.862078657805e+01 7.560882046679e+00 0.0 
7.560882046679e+00 -3.312105482409e+01 0.0 
0.0 0.0 -1.512255242064e+01 
-8.956143092702e+01 5.514909346292e-01 0.0 
5.514909346292e-01 -1.959783403026e+02 0.0 
0.0 0.0 -8.526193136888e+01 
-6.360937494258e+01 -3.303291628502e-01 0.0 
-3.303291628502e-01 -1.700809226350e+02 0.0 
0.0 0.0 -6.970708927329e+01 
-1.915132651245e+01 -9.006479628847e-01 0.0 
-9.006479628847e-01 -3.074411859320e+01 0.0 
0.0 0.0 -1.476107330266e+01 
-1.463309489958e+02 7.810712266150e+00 0.0 
7.810712266150e+00 -3.532000082207e+02 0.0 
0.0 0.0 -1.494592871650e+02 
-1.177838579680e+02 1.480937367002e+01 0.0 
1.480937367002e+01 -2.618909770868e+02 0.0 
0.0 0.0 -1.135024505164e+02 
-1.496166702903e+02 2.823028440792e+00 0.0 
2.823028440792e+00 -3.587923153891e+02 0.0 
0.0 0.0 -1.521226957038e+02 
-1.884862469208e+01 -3.279148609856e-01 0.0 
-3.279148609856e-01 -4.989053605934e+01 0.0 
0.0 0.0 -2.022174822543e+01 
-1.453982649977e+01 -1.437721820394e+00 0.0 
-1.437721820394e+00 -3.115006860891e+01 0.0 
0.0 0.0 -1.338888702245e+01 
-1.463883156756e+02 9.821151919635e+00 0.0 
9.821151919635e+00 -3.530419363049e+02 0.0 
0.0 0.0 -1.494290755942e+02 
-1.274092047625e+02 1.649789671937e+01 0.0 
1.649789671937e+01 -2.903590305370e+02 0.0 
0.0 0.0 -1.249304705898e+02 
-2.952919965408e+01 -9.171606443034e-01 0.0 
-9.171606443034e-01 -8.020246057340e+01 0.0 
0.0 0.0 -3.251949806824e+01 
-1.235013136239e+02 5.785693701947e+00 0.0 
5.785693701947e+00 -2.857077742578e+02 0.0 
0.0 0.0 -1.223627263645e+02 
-1.693901281673e+01 5.551764146389e+00 0.0 
5.551764146389e+00 -2.364823935773e+01 0.0 
0.0 0.0 -1.185797963738e+01 
-5.612783518665e+01 2.213329314917e-01 0.0 
2.213329314917e-01 -1.110429948994e+02 0.0 
0.0 0.0 -4.975124902580e+01 
-1.382448798927e+01 -8.870295357060e-01 0.0 
-8.870295357060e-01 -3.235322100082e+01 0.0 
0.0 0.0 -1.362908230170e+01 
-1.581455809849e+02 4.279514423594e+00 0.0 
4.279514423594e+00 -3.743507441516e+02 0.0 
0.0 0.0 -1.593488975409e+02 
-1.165285971248e+02 4.082960263036e+00 0.0 
4.082960263036e+00 -2.663117652094e+02 0.0 
0.0 0.0 -1.144521087003e+02 
-7.061133595703e+01 -3.121009969818e-01 0.0 
-3.121009969818e-01 -1.871959458671e+02 0.0 
0.0 0.0 -7.694218454723e+01 
-6.284665475774e+01 2.296301043841e+00 0.0 
2.296301043841e+00 -1.178681210830e+02 0.0 
0.0 0.0 -5.381443275223e+01 
-4.642942527725e+01 -5.163788089922e-01 0.0 
-5.163788089922e-01 -1.240348491543e+02 0.0 
0.0 0.0 -5.073928232946e+01 
-1.257756993274e+02 1.777604121500e+01 0.0 
1.777604121500e+01 -2.939214735866e+02 0.0 
0.0 0.0 -1.255091518742e+02 
-2.047738792833e+01 -2.093149281136e+00 0.0 
-2.093149281136e+00 -4.622833774451e+01 0.0 
0.0 0.0 -1.961171770185e+01 
-1.166556177665e+02 3.116897329982e+00 0.0 
3.116897329982e+00 -2.677509057316e+02 0.0 
0.0 0.0 -1.149219570494e+02 
-1.451069953321e+02 1.187147481395e+01 0.0 
1.187147481395e+01 -3.499449933048e+02 0.0 
0.0 0.0 -1.481155965911e+02 
-1.208538936351e+02 9.283250681396e+00 0.0 
9.283250681396e+00 -2.734881832432e+02 0.0 
0.0 0.0 -1.179026230635e+02 
-1.474639896592e+02 1.809721242702e+01 0.0 
1.809721242702e+01 -3.487284896534e+02 0.0 
0.0 0.0 -1.484577437938e+02 
-1.848780097398e+01 1.124555805857e+00 0.0 
1.124555805857e+00 -2.798154729005e+01 0.0 
0.0 0.0 -1.364265878613e+01 
-1.351962233533e+02 1.881827374527e+01 0.0 
1.881827374527e+01 -3.187985521615e+02 0.0 
0.0 0.0 -1.357984326544e+02 
-1.343477332576e+02 1.240331544962e+01 0.0 
1.240331544962e+01 -3.294298728977e+02 0.0 
0.0 0.0 -1.387332818466e+02 
-5.587124893623e+01 -9.060829046124e-02 0.0 
-9.060829046124e-02 -1.128746574934e+02 0.0 
0.0 0.0 -5.022377192888e+01 
-1.214338602036e+02 1.085198197319e+01 0.0 
1.085198197319e+01 -2.736312816154e+02 0.0 
0.0 0.0 -1.181195425457e+02 
-5.706941465055e+01 -5.665959970400e-01 0.0 
-5.665959970400e-01 -1.524230487778e+02 0.0 
0.0 0.0 -6.244773902850e+01 
-2.541317966064e+01 -1.023636612807e+00 0.0 
-1.023636612807e+00 -6.595597258018e+01 0.0 
0.0 0.0 -2.701074567225e+01 
-1.217490683870e+02 4.803041028538e-01 0.0 
4.803041028538e-01 -2.826730280806e+02 0.0 
0.0 0.0 -1.209266289403e+02 
-5.931305419375e+00 -4.299641223458e-02 0.0 
-4.299641223458e-02 -1.414344190132e+01 0.0 
0.0 0.0 -5.934775270874e+00 
-5.492678955715e+01 9.719864488694e-02 0.0 
9.719864488694e-02 -1.118143402551e+02 0.0 
0.0 0.0 -4.962233894366e+01 
-1.595774112088e+02 3.823950784813e-01 0.0 
3.823950784813e-01 -3.771293333336e+02 0.0 
0.0 0.0 -1.606120233627e+02 
-2.418159601235e+01 -7.519676226886e-01 0.0 
-7.519676226886e-01 -6.302739820390e+01 0.0 
0.0 0.0 -2.576269826488e+01 
-6.842708396148e+01 2.693626499221e-01 0.0 
2.693626499221e-01 -1.438124152721e+02 0.0 
0.0 0.0 -6.327184977008e+01 
-1.267706706070e+02 1.578841273821e+01 0.0 
1.578841273821e+01 -2.879688040674e+02 0.0 
0.0 0.0 -1.240218424023e+02 
-8.808235273376e+01 2.862785743257e-02 0.0 
2.862785743257e-02 -2.291501769590e+02 0.0 
0.0 0.0 -9.476975890783e+01 
-1.031974098862e+02 8.559042944578e-01 0.0 
8.559042944578e-01 -2.326580909238e+02 0.0 
0.0 0.0 -1.003566502430e+02 
-2.511866004579e+01 -2.117889936176e+00 0.0 
-2.117889936176e+00 -6.153669926087e+01 0.0 
0.0 0.0 -2.559660779200e+01 
-1.785280116531e+01 -5.412587032053e-01 0.0 
-5.412587032053e-01 -1.440636921141e+01 0.0 
0.0 0.0 -9.695023750549e+00 
-8.251614544862e+01 4.925639360113e-01 0.0 
4.925639360113e-01 -1.787608655394e+02 0.0 
0.0 0.0 -7.798310329642e+01 
-1.365776158798e+02 1.785179461861e+01 0.0 
1.785179461861e+01 -3.252128457535e+02 0.0 
0.0 0.0 -1.381371384900e+02 
-1.198518109893e+02 7.634705731765e+00 0.0 
7.634705731765e+00 -2.723211544493e+02 0.0 
0.0 0.0 -1.172518896316e+02 
-7.740549656945e+01 4.254692899836e-01 0.0 
4.254692899836e-01 -1.650437294034e+02 0.0 
0.0 0.0 -7.233476779184e+01 
-2.039753520431e+01 6.283666236829e+00 0.0 
6.283666236829e+00 -4.569783058214e+01 0.0 
0.0 0.0 -1.942860973594e+01 
-1.231990129572e+02 1.551142151916e+01 0.0 
1.551142151916e+01 -2.775959652756e+02 0.0 
0.0 0.0 -1.198384934698e+02 
-7.676813454283e+01 -1.127200730105e-02 0.0 
-1.127200730105e-02 -2.019790447612e+02 0.0 
0.0 0.0 -8.322415379120e+01 
-1.248291820794e+02 1.765004726976e+01 0.0 
1.765004726976e+01 -2.869278979062e+02 0.0 
0.0 0.0 -1.231271239957e+02 
-1.327791774773e+02 1.423729866905e+01 0.0 
1.423729866905e+01 -3.244264581678e+02 0.0 
0.0 0.0 -1.367616906935e+02 
-1.567236022692e+01 6.161488531105e+00 0.0 
6.161488531105e+00 -1.253127003277e+01 0.0 
0.0 0.0 -8.328168055015e+00 
-9.534739787875e+01 3.530262425124e-02 0.0 
3.530262425124e-02 -2.460028933260e+02 0.0 
0.0 0.0 -1.020050873614e+02 
-1.358749984547e+01 -9.120967641680e-01 0.0 
-9.120967641680e-01 -3.030902949603e+01 0.0 
0.0 0.0 -1.287051035196e+01 
-1.500238441961e+02 6.033445378286e+00 0.0 
6.033445378286e+00 -3.598710903388e+02 0.0 
0.0 0.0 -1.525684803605e+02 
-8.015742138092e+01 8.991680824605e-02 0.0 
8.991680824605e-02 -2.104175094110e+02 0.0 
0.0 0.0 -8.677247923757e+01 
-1.004637687423e+01 2.580049412995e+00 0.0 
2.580049412995e+00 -7.823794111553e+00 0.0 
0.0 0.0 -4.961051295735e+00 
-1.177624131160e+01 9.635994353964e-02 0.0 
9.635994353964e-02 -9.364479080944e+00 0.0 
0.0 0.0 -5.942216117762e+00 
-2.141736707911e+01 2.765361445307e+00 0.0 
2.765361445307e+00 -2.890059969853e+01 0.0 
0.0 0.0 -1.469539003329e+01 
-2.016252166901e+01 -2.601935496699e-02 0.0 
-2.601935496699e-02 -3.007493312075e+01 0.0 
0.0 0.0 -1.467123643693e+01 
-3.169307539070e+01 2.240996399942e+00 0.0 
2.240996399942e+00 -4.886089119474e+01 0.0 
0.0 0.0 -2.376618997563e+01 
-2.794648658693e+01 -2.998045072766e-02 0.0 
-2.998045072766e-02 -4.849405668014e+01 0.0 
0.0 0.0 -2.253216298012e+01 
-4.108846653423e+01 1.845372117615e+00 0.0 
1.845372117615e+00 -6.843732851947e+01 0.0 
0.0 0.0 -3.245773851611e+01 
-3.681217463188e+01 -7.288704383844e-02 0.0 
-7.288704383844e-02 -6.912340526528e+01 0.0 
0.0 0.0 -3.138067396915e+01 
-4.983875192666e+01 1.683188635905e+00 0.0 
1.683188635905e+00 -8.805723140571e+01 0.0 
0.0 0.0 -4.096879499971e+01 
-4.453531901881e+01 -1.673996448325e-01 0.0 
-1.673996448325e-01 -8.749577980311e+01 0.0 
0.0 0.0 -3.920932964657e+01 

TENSORS node_materi_strain_total float
-2.707091706355e-07 1.508924508736e-07 0.0 
1.508924508736e-07 1.542111299691e-05 0.0 
0.0 0.0 0.0 
-7.128934818890e-05 -2.753132181723e-06 0.0 
-2.753132181723e-06 1.379270592634e-03 0.0 
0.0 0.0 0.0 
7.675591389478e-06 6.611721110816e-06 0.0 
6.611721110816e-06 1.236929004591e-03 0.0 
0.0 0.0 0.0 
-4.741023444554e-06 6.535730569043e-07 0.0 
6.535730569043e-07 1.943133509721e-03 0.0 
0.0 0.0 0.0 
3.441681776091e-06 -9.828180880202e-07 0.0 
-9.828180880202e-07 4.457960514115e-05 0.0 
0.0 0.0 0.0 
1.115466506378e-05 1.195474925410e-06 0.0 
1.195474925410e-06 1.021990766388e-04 0.0 
0.0 0.0 0.0 
2.200133924579e-05 1.210458450299e-06 0.0 
1.210458450299e-06 1.550662355780e-04 0.0 
0.0 0.0 0.0 
3.229495675106e-05 9.399067524333e-07 0.0 
9.399067524333e-07 2.147916067945e-04 0.0 
0.0 0.0 0.0 
4.284364034716e-05 6.599490994008e-07 0.0 
6.599490994008e-07 2.725616710326e-04 0.0 
0.0 0.0 0.0 
5.354463881879e-05 6.559422221320e-07 0.0 
6.559422221320e-07 3.296173120392e-04 0.0 
0.0 0.0 0.0 
6.313197213056e-05 8.809130813992e-07 0.0 
8.809130813992e-07 3.872214095855e-04 0.0 
0.0 0.0 0.0 
7.139110250520e-05 9.535761174134e-07 0.0 
9.535761174134e-07 4.457458837879e-04 0.0 
0.0 0.0 0.0 
7.826478975267e-05 1.234822009782e-06 0.0 
1.234822009782e-06 5.053413709046e-04 0.0 
0.0 0.0 0.0 
8.285977492835e-05 1.961651267212e-06 0.0 
1.961651267212e-06 5.671298415064e-04 0.0 
0.0 0.0 0.0 
8.474595880211e-05 3.272470983628e-06 0.0 
3.272470983628e-06 6.324382622140e-04 0.0 
0.0 0.0 0.0 
8.612945107826e-05 3.721834263918e-06 0.0 
3.721834263918e-06 6.966828232720e-04 0.0 
0.0 0.0 0.0 
8.541912054934e-05 5.195343305435e-06 0.0 
5.195343305435e-06 7.564172523811e-04 0.0 
0.0 0.0 0.0 
8.087898942747e-05 3.184737266015e-06 0.0 
3.184737266015e-06 8.245907677531e-04 0.0 
0.0 0.0 0.0 
7.381107422525e-05 3.488179338433e-06 0.0 
3.488179338433e-06 8.963904354653e-04 0.0 
0.0 0.0 0.0 
6.427575112548e-05 3.905301159895e-06 0.0 
3.905301159895e-06 9.678549458737e-04 0.0 
0.0 0.0 0.0 
5.181546488608e-05 4.096167873360e-06 0.0 
4.096167873360e-06 1.041939182225e-03 0.0 
0.0 0.0 0.0 
3.640195045633e-05 4.968392964806e-06 0.0 
4.968392964806e-06 1.118575067209e-03 0.0 
0.0 0.0 0.0 
2.122428894036e-05 5.740522281746e-06 0.0 
5.740522281746e-06 1.193042530102e-03 0.0 
0.0 0.0 0.0 
-3.274194614248e-06 7.342980999155e-06 0.0 
7.342980999155e-06 1.945500337904e-03 0.0 
0.0 0.0 0.0 
-3.958056378169e-06 1.361018075889e-05 0.0 
1.361018075889e-05 1.942262253528e-03 0.0 
0.0 0.0 0.0 
-3.939078950318e-06 1.888847302533e-05 0.0 
1.888847302533e-05 1.942637435066e-03 0.0 
0.0 0.0 0.0 
-3.991901864805e-06 2.805619065203e-05 0.0 
2.805619065203e-05 1.941621485330e-03 0.0 
0.0 0.0 0.0 
-4.971883916349e-06 3.420187296054e-05 0.0 
3.420187296054e-05 1.938778674044e-03 0.0 
0.0 0.0 0.0 
-4.500436564192e-06 4.257175174094e-05 0.0 
4.257175174094e-05 1.939044539778e-03 0.0 
0.0 0.0 0.0 
-4.899153012309e-06 5.142458301775e-05 0.0 
5.142458301775e-05 1.937092219883e-03 0.0 
0.0 0.0 0.0 
-5.510685331796e-06 6.082157329896e-05 0.0 
6.082157329896e-05 1.933271253527e-03 0.0 
0.0 0.0 0.0 
-5.650246478435e-06 6.987980701739e-05 0.0 
6.987980701739e-05 1.931551254729e-03 0.0 
0.0 0.0 0.0 
-5.466331414850e-06 8.211677905744e-05 0.0 
8.211677905744e-05 1.926751922265e-03 0.0 
0.0 0.0 0.0 
-7.208528827000e-06 9.238802888696e-05 0.0 
9.238802888696e-05 1.919831312466e-03 0.0 
0.0 0.0 0.0 
-6.779294111747e-06 1.051124231839e-04 0.0 
1.051124231839e-04 1.914460868171e-03 0.0 
0.0 0.0 0.0 
-7.320872592365e-06 1.186741311207e-04 0.0 
1.186741311207e-04 1.906303101482e-03 0.0 
0.0 0.0 0.0 
-7.424126176973e-06 1.322272252459e-04 0.0 
1.322272252459e-04 1.895448315421e-03 0.0 
0.0 0.0 0.0 
-8.350020234027e-06 1.461618056857e-04 0.0 
1.461618056857e-04 1.882880179650e-03 0.0 
0.0 0.0 0.0 
-8.400832407200e-06 1.606677452839e-04 0.0 
1.606677452839e-04 1.867009987098e-03 0.0 
0.0 0.0 0.0 
-9.180106689895e-06 1.751554485590e-04 0.0 
1.751554485590e-04 1.850289361803e-03 0.0 
0.0 0.0 0.0 
-8.950569377368e-06 1.908659137806e-04 0.0 
1.908659137806e-04 1.831784465930e-03 0.0 
0.0 0.0 0.0 
-8.110623851791e-06 2.052445301645e-04 0.0 
2.052445301645e-04 1.810931259101e-03 0.0 
0.0 0.0 0.0 
-6.786602574138e-06 2.190158711895e-04 0.0 
2.190158711895e-04 1.787684856615e-03 0.0 
0.0 0.0 0.0 
-5.518170733095e-06 2.314084286450e-04 0.0 
2.314084286450e-04 1.760497432979e-03 0.0 
0.0 0.0 0.0 
-5.545621624618e-06 2.416329115579e-04 0.0 
2.416329115579e-04 1.731293266185e-03 0.0 
0.0 0.0 0.0 
-3.850650682609e-06 2.501477127404e-04 0.0 
2.501477127404e-04 1.700331061999e-03 0.0 
0.0 0.0 0.0 
-2.640507583399e-06 2.560633283609e-04 0.0 
2.560633283609e-04 1.667916482250e-03 0.0 
0.0 0.0 0.0 
-1.527635713187e-06 2.596985315107e-04 0.0 
2.596985315107e-04 1.635294645609e-03 0.0 
0.0 0.0 0.0 
2.067491718568e-08 2.612303423103e-04 0.0 
2.612303423103e-04 1.602693861835e-03 0.0 
0.0 0.0 0.0 
1.263618691238e-06 2.596138534740e-04 0.0 
2.596138534740e-04 1.570000105377e-03 0.0 
0.0 0.0 0.0 
3.054354694794e-06 2.557087623549e-04 0.0 
2.557087623549e-04 1.537838486705e-03 0.0 
0.0 0.0 0.0 
3.726285037716e-06 2.492826008545e-04 0.0 
2.492826008545e-04 1.506000561429e-03 0.0 
0.0 0.0 0.0 
3.602818007857e-06 2.410258758909e-04 0.0 
2.410258758909e-04 1.479459385332e-03 0.0 
0.0 0.0 0.0 
6.082627188819e-06 2.324034928318e-04 0.0 
2.324034928318e-04 1.449191442455e-03 0.0 
0.0 0.0 0.0 
6.880631708099e-06 2.203876113189e-04 0.0 
2.203876113189e-04 1.419481342176e-03 0.0 
0.0 0.0 0.0 
7.269422708308e-06 2.067367733776e-04 0.0 
2.067367733776e-04 1.393764921398e-03 0.0 
0.0 0.0 0.0 
7.354924859963e-06 1.934839004805e-04 0.0 
1.934839004805e-04 1.373249360726e-03 0.0 
0.0 0.0 0.0 
8.024328442972e-06 1.800735429407e-04 0.0 
1.800735429407e-04 1.353214631138e-03 0.0 
0.0 0.0 0.0 
6.807036895558e-06 1.656594529653e-04 0.0 
1.656594529653e-04 1.335366663235e-03 0.0 
0.0 0.0 0.0 
8.375765193488e-06 1.520166789182e-04 0.0 
1.520166789182e-04 1.319903960590e-03 0.0 
0.0 0.0 0.0 
7.225793507907e-06 1.377249967211e-04 0.0 
1.377249967211e-04 1.304495755537e-03 0.0 
0.0 0.0 0.0 
8.514096536683e-06 1.240308234161e-04 0.0 
1.240308234161e-04 1.291086465823e-03 0.0 
0.0 0.0 0.0 
7.408106205290e-06 1.104321045155e-04 0.0 
1.104321045155e-04 1.278866166445e-03 0.0 
0.0 0.0 0.0 
6.252797097872e-06 9.779070183699e-05 0.0 
9.779070183699e-05 1.271295176773e-03 0.0 
0.0 0.0 0.0 
6.577138264019e-06 8.606503374535e-05 0.0 
8.606503374535e-05 1.267160444531e-03 0.0 
0.0 0.0 0.0 
7.191733536101e-06 7.413315306008e-05 0.0 
7.413315306008e-05 1.262359510483e-03 0.0 
0.0 0.0 0.0 
8.011182883239e-06 6.111015628458e-05 0.0 
6.111015628458e-05 1.246036935244e-03 0.0 
0.0 0.0 0.0 
6.759920816890e-06 5.001081772588e-05 0.0 
5.001081772588e-05 1.250381605037e-03 0.0 
0.0 0.0 0.0 
5.660834402565e-06 3.971230648848e-05 0.0 
3.971230648848e-05 1.243764189564e-03 0.0 
0.0 0.0 0.0 
4.954270044655e-06 2.933505713905e-05 0.0 
2.933505713905e-05 1.242830966661e-03 0.0 
0.0 0.0 0.0 
5.338161824279e-06 2.054218565990e-05 0.0 
2.054218565990e-05 1.243736606678e-03 0.0 
0.0 0.0 0.0 
5.188814178029e-06 1.125691679349e-05 0.0 
1.125691679349e-05 1.242420866909e-03 0.0 
0.0 0.0 0.0 
-6.887761942972e-05 -1.756046985299e-06 0.0 
-1.756046985299e-06 1.442905008737e-03 0.0 
0.0 0.0 0.0 
-6.723194656237e-05 -1.728085485168e-06 0.0 
-1.728085485168e-06 1.505941320955e-03 0.0 
0.0 0.0 0.0 
-6.356092836894e-05 -1.427169830617e-06 0.0 
-1.427169830617e-06 1.567046949734e-03 0.0 
0.0 0.0 0.0 
-5.868548655900e-05 -1.231629965797e-06 0.0 
-1.231629965797e-06 1.625984418156e-03 0.0 
0.0 0.0 0.0 
-5.246234753450e-05 -7.016407037776e-07 0.0 
-7.016407037776e-07 1.685077681611e-03 0.0 
0.0 0.0 0.0 
-4.435690066903e-05 -5.203590127176e-07 0.0 
-5.203590127176e-07 1.743055606792e-03 0.0 
0.0 0.0 0.0 
-3.554711051553e-05 -1.092733089497e-07 0.0 
-1.092733089497e-07 1.799575525973e-03 0.0 
0.0 0.0 0.0 
-2.488344203988e-05 8.257753189620e-08 0.0 
8.257753189620e-08 1.854752406931e-03 0.0 
0.0 0.0 0.0 
-1.406002305463e-05 3.790182155029e-08 0.0 
3.790182155029e-08 1.910192546802e-03 0.0 
0.0 0.0 0.0 
-1.078608535260e-04 6.146771628770e-05 0.0 
6.146771628770e-05 7.029331053536e-05 0.0 
0.0 0.0 0.0 
-1.167872752894e-04 2.555666123089e-05 0.0 
2.555666123089e-05 1.385404284567e-03 0.0 
0.0 0.0 0.0 
-1.191348678455e-04 1.489666789955e-04 0.0 
1.489666789955e-04 1.903134883593e-04 0.0 
0.0 0.0 0.0 
-1.247997216074e-04 1.816207538822e-04 0.0 
1.816207538822e-04 3.803583713427e-04 0.0 
0.0 0.0 0.0 
-1.206607248715e-04 1.883263644975e-04 0.0 
1.883263644975e-04 5.847009337399e-04 0.0 
0.0 0.0 0.0 
-1.124797669855e-04 1.748717541650e-04 0.0 
1.748717541650e-04 7.884503348016e-04 0.0 
0.0 0.0 0.0 
-1.095764966407e-04 1.176099357777e-04 0.0 
1.176099357777e-04 1.014804496054e-03 0.0 
0.0 0.0 0.0 
-9.105876887876e-05 6.075576933353e-05 0.0 
6.075576933353e-05 1.107887401561e-03 0.0 
0.0 0.0 0.0 
-1.017551203527e-04 4.502135559889e-05 0.0 
4.502135559889e-05 1.177888868289e-03 0.0 
0.0 0.0 0.0 
-1.107524836707e-04 3.375903969808e-05 0.0 
3.375903969808e-05 1.247406094437e-03 0.0 
0.0 0.0 0.0 
-1.151610448171e-04 2.775305908224e-05 0.0 
2.775305908224e-05 1.315278629360e-03 0.0 
0.0 0.0 0.0 
-7.969721873075e-05 -3.051904601687e-06 0.0 
-3.051904601687e-06 1.083726645793e-03 0.0 
0.0 0.0 0.0 
-7.345906588754e-05 -4.718310007587e-06 0.0 
-4.718310007587e-06 1.120979249038e-03 0.0 
0.0 0.0 0.0 
-7.117632201684e-05 -4.424923074374e-06 0.0 
-4.424923074374e-06 1.184188630335e-03 0.0 
0.0 0.0 0.0 
-7.082127272512e-05 -5.157890333219e-06 0.0 
-5.157890333219e-06 1.248558457700e-03 0.0 
0.0 0.0 0.0 
-7.070339919074e-05 -3.641672924480e-06 0.0 
-3.641672924480e-06 1.312567982350e-03 0.0 
0.0 0.0 0.0 
-7.071618481896e-05 9.624451781716e-07 0.0 
9.624451781716e-07 1.370625333636e-03 0.0 
0.0 0.0 0.0 
-7.099295369859e-05 -4.316823326302e-07 0.0 
-4.316823326302e-07 1.374884638989e-03 0.0 
0.0 0.0 0.0 
-7.220799401521e-05 -5.479043015780e-07 0.0 
-5.479043015780e-07 1.375721733847e-03 0.0 
0.0 0.0 0.0 
-7.338704260316e-05 -8.672334505589e-07 0.0 
-8.672334505589e-07 1.375454565020e-03 0.0 
0.0 0.0 0.0 
-7.455390226842e-05 -1.734203582996e-07 0.0 
-1.734203582996e-07 1.384601303704e-03 0.0 
0.0 0.0 0.0 
-7.658206340690e-05 -4.745879818755e-07 0.0 
-4.745879818755e-07 1.377902982427e-03 0.0 
0.0 0.0 0.0 
-7.861880910537e-05 -6.008141321962e-07 0.0 
-6.008141321962e-07 1.377881129277e-03 0.0 
0.0 0.0 0.0 
-8.110313390075e-05 1.471980652277e-07 0.0 
1.471980652277e-07 1.379311969414e-03 0.0 
0.0 0.0 0.0 
-8.498836133482e-05 7.428017579323e-07 0.0 
7.428017579323e-07 1.381820210472e-03 0.0 
0.0 0.0 0.0 
-8.882955063211e-05 2.129800358784e-06 0.0 
2.129800358784e-06 1.382305354307e-03 0.0 
0.0 0.0 0.0 
-9.261757615063e-05 3.981382484584e-06 0.0 
3.981382484584e-06 1.382558775596e-03 0.0 
0.0 0.0 0.0 
-9.747454027744e-05 6.700706080353e-06 0.0 
6.700706080353e-06 1.382823683154e-03 0.0 
0.0 0.0 0.0 
-1.025362694979e-04 1.119959168686e-05 0.0 
1.119959168686e-05 1.382873464500e-03 0.0 
0.0 0.0 0.0 
-1.083990304273e-04 1.731642493825e-05 0.0 
1.731642493825e-05 1.383460521583e-03 0.0 
0.0 0.0 0.0 
-1.256851241640e-04 2.091412245169e-05 0.0 
2.091412245169e-05 7.642999005331e-05 0.0 
0.0 0.0 0.0 
-1.413017347823e-04 3.107210023075e-06 0.0 
3.107210023075e-06 7.943914123058e-05 0.0 
0.0 0.0 0.0 
-1.412608397607e-04 -5.720018558326e-06 0.0 
-5.720018558326e-06 7.637270581284e-05 0.0 
0.0 0.0 0.0 
-1.308969793016e-04 -7.654013450896e-06 0.0 
-7.654013450896e-06 7.116776520951e-05 0.0 
0.0 0.0 0.0 
-1.159413005640e-04 -9.501993288284e-06 0.0 
-9.501993288284e-06 6.595512385295e-05 0.0 
0.0 0.0 0.0 
-1.036883174073e-04 -9.258072338174e-06 0.0 
-9.258072338174e-06 6.147047850728e-05 0.0 
0.0 0.0 0.0 
-9.093634717198e-05 -8.740441112764e-06 0.0 
-8.740441112764e-06 5.618921099981e-05 0.0 
0.0 0.0 0.0 
-7.808553936672e-05 -8.222716727247e-06 0.0 
-8.222716727247e-06 5.057147918423e-05 0.0 
0.0 0.0 0.0 
-6.605587853070e-05 -7.931668282897e-06 0.0 
-7.931668282897e-06 4.545154442244e-05 0.0 
0.0 0.0 0.0 
-5.470078262700e-05 -7.390280067320e-06 0.0 
-7.390280067320e-06 4.050008620575e-05 0.0 
0.0 0.0 0.0 
-4.382496616147e-05 -6.625850743639e-06 0.0 
-6.625850743639e-06 3.653039433741e-05 0.0 
0.0 0.0 0.0 
-3.720008970509e-05 -5.782073391742e-06 0.0 
-5.782073391742e-06 3.412191352181e-05 0.0 
0.0 0.0 0.0 
-2.749743936503e-05 -4.559403678882e-06 0.0 
-4.559403678882e-06 2.942679351777e-05 0.0 
0.0 0.0 0.0 
-1.848733235488e-05 -4.471306999823e-06 0.0 
-4.471306999823e-06 2.465724082201e-05 0.0 
0.0 0.0 0.0 
-1.223552642108e-05 -4.347364350363e-06 0.0 
-4.347364350363e-06 2.207529503047e-05 0.0 
0.0 0.0 0.0 
-8.456465420581e-06 -3.202276489604e-06 0.0 
-3.202276489604e-06 2.077076020542e-05 0.0 
0.0 0.0 0.0 
-4.922731078142e-06 -1.713512765825e-06 0.0 
-1.713512765825e-06 1.921344645532e-05 0.0 
0.0 0.0 0.0 
-8.628887016767e-07 -7.877928099176e-08 0.0 
-7.877928099176e-08 1.634143178027e-05 0.0 
0.0 0.0 0.0 
5.850344117301e-07 6.914280638628e-07 0.0 
6.914280638628e-07 1.430874023726e-05 0.0 
0.0 0.0 0.0 
-5.842675289950e-05 3.296487022083e-05 0.0 
3.296487022083e-05 1.060896800715e-03 0.0 
0.0 0.0 0.0 
-2.967682419031e-05 1.841139934054e-05 0.0 
1.841139934054e-05 1.063784461836e-03 0.0 
0.0 0.0 0.0 
-1.605761130289e-05 7.674209078256e-06 0.0 
7.674209078256e-06 1.064650342396e-03 0.0 
0.0 0.0 0.0 
-1.310752391574e-05 -1.331500385688e-07 0.0 
-1.331500385688e-07 1.064198173639e-03 0.0 
0.0 0.0 0.0 
-1.328357359565e-05 -2.498071376068e-06 0.0 
-2.498071376068e-06 1.065405746973e-03 0.0 
0.0 0.0 0.0 
-1.686244853264e-05 -3.955322335124e-06 0.0 
-3.955322335124e-06 1.066651211049e-03 0.0 
0.0 0.0 0.0 
-2.173151526119e-05 -4.360653300662e-06 0.0 
-4.360653300662e-06 1.068772407950e-03 0.0 
0.0 0.0 0.0 
-2.739748615044e-05 -4.538510881750e-06 0.0 
-4.538510881750e-06 1.070962987994e-03 0.0 
0.0 0.0 0.0 
-3.314977072063e-05 -4.454885646171e-06 0.0 
-4.454885646171e-06 1.073321897632e-03 0.0 
0.0 0.0 0.0 
-3.874591397472e-05 -4.267888808844e-06 0.0 
-4.267888808844e-06 1.075642975024e-03 0.0 
0.0 0.0 0.0 
-4.394192156550e-05 -3.963949884905e-06 0.0 
-3.963949884905e-06 1.077844329904e-03 0.0 
0.0 0.0 0.0 
-4.866048344088e-05 -3.622184918787e-06 0.0 
-3.622184918787e-06 1.079818167809e-03 0.0 
0.0 0.0 0.0 
-5.286902965185e-05 -3.265836818289e-06 0.0 
-3.265836818289e-06 1.081566600132e-03 0.0 
0.0 0.0 0.0 
-5.655293738434e-05 -2.898303155275e-06 0.0 
-2.898303155275e-06 1.083086131402e-03 0.0 
0.0 0.0 0.0 
-5.970657293330e-05 -2.512290856261e-06 0.0 
-2.512290856261e-06 1.084367998530e-03 0.0 
0.0 0.0 0.0 
-6.233335301812e-05 -2.093985841723e-06 0.0 
-2.093985841723e-06 1.085411858245e-03 0.0 
0.0 0.0 0.0 
-6.444246375037e-05 -1.625152915009e-06 0.0 
-1.625152915009e-06 1.086241285243e-03 0.0 
0.0 0.0 0.0 
-6.604251720295e-05 -1.039614711953e-06 0.0 
-1.039614711953e-06 1.086922930094e-03 0.0 
0.0 0.0 0.0 
-6.712142581985e-05 -2.294640764105e-07 0.0 
-2.294640764105e-07 1.087526714824e-03 0.0 
0.0 0.0 0.0 
-6.771576634249e-05 8.813885486855e-07 0.0 
8.813885486855e-07 1.087898681702e-03 0.0 
0.0 0.0 0.0 
-7.017204537707e-05 1.845571233065e-06 0.0 
1.845571233065e-06 1.086540234431e-03 0.0 
0.0 0.0 0.0 
-7.540751862867e-05 4.279348612530e-06 0.0 
4.279348612530e-06 1.080598453444e-03 0.0 
0.0 0.0 0.0 
-7.255743956895e-05 2.169006509502e-06 0.0 
2.169006509502e-06 1.120868910260e-03 0.0 
0.0 0.0 0.0 
-7.014924254228e-05 4.582972380056e-07 0.0 
4.582972380056e-07 1.120495696313e-03 0.0 
0.0 0.0 0.0 
-6.905467045337e-05 -7.825175994891e-07 0.0 
-7.825175994891e-07 1.120088806233e-03 0.0 
0.0 0.0 0.0 
-6.805907783162e-05 -1.642560772382e-06 0.0 
-1.642560772382e-06 1.119541377723e-03 0.0 
0.0 0.0 0.0 
-6.696889089628e-05 -2.460324967650e-06 0.0 
-2.460324967650e-06 1.119021812810e-03 0.0 
0.0 0.0 0.0 
-6.566860218155e-05 -3.236177988612e-06 0.0 
-3.236177988612e-06 1.118468542414e-03 0.0 
0.0 0.0 0.0 
-6.408650995330e-05 -3.999615089204e-06 0.0 
-3.999615089204e-06 1.117802205766e-03 0.0 
0.0 0.0 0.0 
-6.218299880023e-05 -4.749545895423e-06 0.0 
-4.749545895423e-06 1.116966781706e-03 0.0 
0.0 0.0 0.0 
-5.995879737355e-05 -5.466274856920e-06 0.0 
-5.466274856920e-06 1.115971986712e-03 0.0 
0.0 0.0 0.0 
-5.746939346374e-05 -6.141582419250e-06 0.0 
-6.141582419250e-06 1.114846225685e-03 0.0 
0.0 0.0 0.0 
-5.474710647600e-05 -6.767790195004e-06 0.0 
-6.767790195004e-06 1.113598242789e-03 0.0 
0.0 0.0 0.0 
-5.184371872052e-05 -7.299106510389e-06 0.0 
-7.299106510389e-06 1.112225241295e-03 0.0 
0.0 0.0 0.0 
-4.887206598272e-05 -7.625628399918e-06 0.0 
-7.625628399918e-06 1.110751429501e-03 0.0 
0.0 0.0 0.0 
-4.607254162333e-05 -7.542852515502e-06 0.0 
-7.542852515502e-06 1.109383740721e-03 0.0 
0.0 0.0 0.0 
-4.385307547670e-05 -7.011159755108e-06 0.0 
-7.011159755108e-06 1.108182124533e-03 0.0 
0.0 0.0 0.0 
-4.257888264057e-05 -5.558841224193e-06 0.0 
-5.558841224193e-06 1.107357598461e-03 0.0 
0.0 0.0 0.0 
-4.305189834475e-05 -3.014195190913e-06 0.0 
-3.014195190913e-06 1.106616663466e-03 0.0 
0.0 0.0 0.0 
-4.538322523947e-05 2.504979851363e-06 0.0 
2.504979851363e-06 1.106494644283e-03 0.0 
0.0 0.0 0.0 
-5.487883980226e-05 1.333921699298e-05 0.0 
1.333921699298e-05 1.110146908995e-03 0.0 
0.0 0.0 0.0 
-6.036182052567e-05 2.452222536395e-05 0.0 
2.452222536395e-05 1.100169895836e-03 0.0 
0.0 0.0 0.0 
-8.505110971653e-05 2.209853727564e-05 0.0 
2.209853727564e-05 1.172638266166e-03 0.0 
0.0 0.0 0.0 
-8.202552016710e-05 1.250589036667e-05 0.0 
1.250589036667e-05 1.184694449407e-03 0.0 
0.0 0.0 0.0 
-7.469214761620e-05 2.876595368670e-06 0.0 
2.876595368670e-06 1.182284748791e-03 0.0 
0.0 0.0 0.0 
-7.099981741201e-05 -2.572802757468e-06 0.0 
-2.572802757468e-06 1.182012648511e-03 0.0 
0.0 0.0 0.0 
-6.829833724747e-05 -5.561156095983e-06 0.0 
-5.561156095983e-06 1.182067788975e-03 0.0 
0.0 0.0 0.0 
-6.697595224342e-05 -7.344338994146e-06 0.0 
-7.344338994146e-06 1.182082672498e-03 0.0 
0.0 0.0 0.0 
-6.645287623908e-05 -8.027501449012e-06 0.0 
-8.027501449012e-06 1.182487552425e-03 0.0 
0.0 0.0 0.0 
-6.638779233194e-05 -8.046824025721e-06 0.0 
-8.046824025721e-06 1.182819324503e-03 0.0 
0.0 0.0 0.0 
-6.662109472759e-05 -7.699826552698e-06 0.0 
-7.699826552698e-06 1.183129513737e-03 0.0 
0.0 0.0 0.0 
-6.700447658436e-05 -7.154852974024e-06 0.0 
-7.154852974024e-06 1.183416152520e-03 0.0 
0.0 0.0 0.0 
-6.752757794913e-05 -6.489053445695e-06 0.0 
-6.489053445695e-06 1.183745352959e-03 0.0 
0.0 0.0 0.0 
-6.810328256085e-05 -5.666772951077e-06 0.0 
-5.666772951077e-06 1.184054757086e-03 0.0 
0.0 0.0 0.0 
-6.857734134961e-05 -4.783052098639e-06 0.0 
-4.783052098639e-06 1.184252627826e-03 0.0 
0.0 0.0 0.0 
-6.904727917439e-05 -3.916633548531e-06 0.0 
-3.916633548531e-06 1.184421669077e-03 0.0 
0.0 0.0 0.0 
-6.951713399650e-05 -3.086162191237e-06 0.0 
-3.086162191237e-06 1.184630280513e-03 0.0 
0.0 0.0 0.0 
-7.006121088149e-05 -2.340242287941e-06 0.0 
-2.340242287941e-06 1.184905782889e-03 0.0 
0.0 0.0 0.0 
-7.065577691088e-05 -1.836396691961e-06 0.0 
-1.836396691961e-06 1.185160202615e-03 0.0 
0.0 0.0 0.0 
-7.122883333736e-05 -1.660540325688e-06 0.0 
-1.660540325688e-06 1.185078400154e-03 0.0 
0.0 0.0 0.0 
-7.127532032380e-05 1.616010231431e-06 0.0 
1.616010231431e-06 1.184539393211e-03 0.0 
0.0 0.0 0.0 
-7.122829929432e-05 6.044120101363e-07 0.0 
6.044120101363e-07 1.249128537726e-03 0.0 
0.0 0.0 0.0 
-7.132645631547e-05 -1.719706787930e-06 0.0 
-1.719706787930e-06 1.249481019330e-03 0.0 
0.0 0.0 0.0 
-7.138647167121e-05 -2.514871325029e-06 0.0 
-2.514871325029e-06 1.249669516415e-03 0.0 
0.0 0.0 0.0 
-7.150913411682e-05 -3.130593095344e-06 0.0 
-3.130593095344e-06 1.249804456983e-03 0.0 
0.0 0.0 0.0 
-7.166776424909e-05 -3.807971623356e-06 0.0 
-3.807971623356e-06 1.249894587103e-03 0.0 
0.0 0.0 0.0 
-7.209634518085e-05 -4.599043210357e-06 0.0 
-4.599043210357e-06 1.250118434449e-03 0.0 
0.0 0.0 0.0 
-7.265222906320e-05 -5.365436615131e-06 0.0 
-5.365436615131e-06 1.250397703570e-03 0.0 
0.0 0.0 0.0 
-7.344158406049e-05 -6.229267765514e-06 0.0 
-6.229267765514e-06 1.250660175581e-03 0.0 
0.0 0.0 0.0 
-7.429688865357e-05 -6.773930751659e-06 0.0 
-6.773930751659e-06 1.250765108235e-03 0.0 
0.0 0.0 0.0 
-7.561098831882e-05 -7.022674994141e-06 0.0 
-7.022674994141e-06 1.251136167746e-03 0.0 
0.0 0.0 0.0 
-7.727923577810e-05 -7.040978050746e-06 0.0 
-7.040978050746e-06 1.251530019869e-03 0.0 
0.0 0.0 0.0 
-7.935708786042e-05 -6.489207856392e-06 0.0 
-6.489207856392e-06 1.251829611144e-03 0.0 
0.0 0.0 0.0 
-8.213728020876e-05 -5.143460378815e-06 0.0 
-5.143460378815e-06 1.252166893363e-03 0.0 
0.0 0.0 0.0 
-8.557318787450e-05 -2.551114125666e-06 0.0 
-2.551114125666e-06 1.252007267057e-03 0.0 
0.0 0.0 0.0 
-8.961333225752e-05 2.411392743549e-06 0.0 
2.411392743549e-06 1.252278874799e-03 0.0 
0.0 0.0 0.0 
-9.636588170348e-05 1.023997094347e-05 0.0 
1.023997094347e-05 1.255037361434e-03 0.0 
0.0 0.0 0.0 
-9.924470166397e-05 1.761302117653e-05 0.0 
1.761302117653e-05 1.242845176348e-03 0.0 
0.0 0.0 0.0 
-1.057251781424e-04 1.622307953510e-05 0.0 
1.622307953510e-05 1.309942933792e-03 0.0 
0.0 0.0 0.0 
-1.032535076053e-04 1.058083671870e-05 0.0 
1.058083671870e-05 1.322186215683e-03 0.0 
0.0 0.0 0.0 
-9.730285801607e-05 4.599461010841e-06 0.0 
4.599461010841e-06 1.320090430317e-03 0.0 
0.0 0.0 0.0 
-9.226689573414e-05 1.097022053024e-06 0.0 
1.097022053024e-06 1.319604535251e-03 0.0 
0.0 0.0 0.0 
-8.827910736512e-05 -1.282711299548e-06 0.0 
-1.282711299548e-06 1.319216517613e-03 0.0 
0.0 0.0 0.0 
-8.485097334389e-05 -2.512599787232e-06 0.0 
-2.512599787232e-06 1.318633886136e-03 0.0 
0.0 0.0 0.0 
-8.195162190213e-05 -3.163119096098e-06 0.0 
-3.163119096098e-06 1.317751863608e-03 0.0 
0.0 0.0 0.0 
-7.952523403054e-05 -3.609410781031e-06 0.0 
-3.609410781031e-06 1.317123125188e-03 0.0 
0.0 0.0 0.0 
-7.723551164605e-05 -3.329912997958e-06 0.0 
-3.329912997958e-06 1.316590639037e-03 0.0 
0.0 0.0 0.0 
-7.569457770379e-05 -3.212782694933e-06 0.0 
-3.212782694933e-06 1.315836963215e-03 0.0 
0.0 0.0 0.0 
-7.428036178414e-05 -2.769112171754e-06 0.0 
-2.769112171754e-06 1.315269468738e-03 0.0 
0.0 0.0 0.0 
-7.323442216680e-05 -2.609337099735e-06 0.0 
-2.609337099735e-06 1.314726542024e-03 0.0 
0.0 0.0 0.0 
-7.253627090773e-05 -2.139475956250e-06 0.0 
-2.139475956250e-06 1.314452774867e-03 0.0 
0.0 0.0 0.0 
-7.178767548297e-05 -1.899878463599e-06 0.0 
-1.899878463599e-06 1.313807078000e-03 0.0 
0.0 0.0 0.0 
-7.134735509432e-05 -2.010858483212e-06 0.0 
-2.010858483212e-06 1.313779904893e-03 0.0 
0.0 0.0 0.0 
-7.145131204613e-05 1.955365008162e-06 0.0 
1.955365008162e-06 1.313867085990e-03 0.0 
0.0 0.0 0.0 
-1.103538879670e-04 1.126773145764e-04 0.0 
1.126773145764e-04 1.119988541551e-04 0.0 
0.0 0.0 0.0 
-1.241140324310e-04 1.703850507897e-04 0.0 
1.703850507897e-04 2.832852702406e-04 0.0 
0.0 0.0 0.0 
-1.232367136292e-04 1.877064075413e-04 0.0 
1.877064075413e-04 4.821846512850e-04 0.0 
0.0 0.0 0.0 
-1.159974520690e-04 1.851363873114e-04 0.0 
1.851363873114e-04 6.887278609075e-04 0.0 
0.0 0.0 0.0 
-1.189506128066e-04 1.736341489088e-04 0.0 
1.736341489088e-04 8.953494756527e-04 0.0 
0.0 0.0 0.0 
-9.918977709245e-05 7.833589063959e-05 0.0 
7.833589063959e-05 1.079798447078e-03 0.0 
0.0 0.0 0.0 
-1.006924094401e-04 5.530380285839e-05 0.0 
5.530380285839e-05 1.151369195234e-03 0.0 
0.0 0.0 0.0 
-1.093745458666e-04 4.114196425782e-05 0.0 
4.114196425782e-05 1.220442128419e-03 0.0 
0.0 0.0 0.0 
-1.151737821102e-04 3.224973608195e-05 0.0 
3.224973608195e-05 1.288374765375e-03 0.0 
0.0 0.0 0.0 
-1.161856123092e-04 2.798357901096e-05 0.0 
2.798357901096e-05 1.355210700814e-03 0.0 
0.0 0.0 0.0 
-9.183852507016e-05 1.589317136023e-04 0.0 
1.589317136023e-04 3.409302958774e-04 0.0 
0.0 0.0 0.0 
2.184805401669e-05 1.950640979198e-04 0.0 
1.950640979198e-04 1.348751240007e-03 0.0 
0.0 0.0 0.0 
-4.691946132176e-05 -1.325966819633e-05 0.0 
-1.325966819633e-05 5.787318413701e-05 0.0 
0.0 0.0 0.0 
-9.343431614378e-05 -1.237935980655e-05 0.0 
-1.237935980655e-05 7.661870346417e-05 0.0 
0.0 0.0 0.0 
2.264273358210e-05 1.285331300401e-04 0.0 
1.285331300401e-04 1.263722942223e-03 0.0 
0.0 0.0 0.0 
-9.274133672260e-05 1.895705102430e-04 0.0 
1.895705102430e-04 7.424125446360e-04 0.0 
0.0 0.0 0.0 
8.451814907866e-05 -2.911271174933e-08 0.0 
-2.911271174933e-08 6.018634878168e-04 0.0 
0.0 0.0 0.0 
1.401818299656e-05 2.391883127214e-04 0.0 
2.391883127214e-04 1.454329203163e-03 0.0 
0.0 0.0 0.0 
-1.186955441409e-04 1.252261398178e-04 0.0 
1.252261398178e-04 1.098457131624e-03 0.0 
0.0 0.0 0.0 
-1.282028382676e-06 2.552999475850e-04 0.0 
2.552999475850e-04 1.591433185353e-03 0.0 
0.0 0.0 0.0 
-1.275703877719e-04 6.054447170990e-05 0.0 
6.054447170990e-05 1.266496466318e-03 0.0 
0.0 0.0 0.0 
1.972948575054e-05 7.776497898133e-05 0.0 
7.776497898133e-05 1.232401584938e-03 0.0 
0.0 0.0 0.0 
-1.590622783768e-05 -7.818335784067e-06 0.0 
-7.818335784067e-06 4.270689489031e-05 0.0 
0.0 0.0 0.0 
-1.629171179908e-05 2.318205783425e-04 0.0 
2.318205783425e-04 1.725160767000e-03 0.0 
0.0 0.0 0.0 
-1.248446110082e-04 4.073604890673e-05 0.0 
4.073604890673e-05 1.405959419473e-03 0.0 
0.0 0.0 0.0 
5.910553969191e-05 -2.632490511947e-06 0.0 
-2.632490511947e-06 3.609916751757e-04 0.0 
0.0 0.0 0.0 
8.377182489481e-05 3.567550712126e-06 0.0 
3.567550712126e-06 7.800441087022e-04 0.0 
0.0 0.0 0.0 
-2.441646719768e-05 1.935004030813e-04 0.0 
1.935004030813e-04 1.801511233191e-03 0.0 
0.0 0.0 0.0 
-2.272159079991e-05 1.357412895276e-04 0.0 
1.357412895276e-04 1.871347743189e-03 0.0 
0.0 0.0 0.0 
-1.353910706712e-05 3.747158771681e-05 0.0 
3.747158771681e-05 1.917681231900e-03 0.0 
0.0 0.0 0.0 
-1.811615890706e-05 6.433517829950e-05 0.0 
6.433517829950e-05 1.906865187674e-03 0.0 
0.0 0.0 0.0 
-1.982326664170e-05 9.650215613029e-05 0.0 
9.650215613029e-05 1.898590651828e-03 0.0 
0.0 0.0 0.0 
-1.104806206092e-04 2.374007892444e-05 0.0 
2.374007892444e-05 1.440236713472e-03 0.0 
0.0 0.0 0.0 
-8.934858332567e-05 7.671617575319e-06 0.0 
7.671617575319e-06 1.440745013442e-03 0.0 
0.0 0.0 0.0 
-7.869957628848e-05 3.394864542959e-06 0.0 
3.394864542959e-06 1.442169374803e-03 0.0 
0.0 0.0 0.0 
-5.563853989811e-05 1.867138855890e-06 0.0 
1.867138855890e-06 1.656173895866e-03 0.0 
0.0 0.0 0.0 
1.784864497963e-05 4.468654877827e-05 0.0 
4.468654877827e-05 1.214315380142e-03 0.0 
0.0 0.0 0.0 
-1.003728221957e-04 1.516848225875e-05 0.0 
1.516848225875e-05 8.839430987506e-05 0.0 
0.0 0.0 0.0 
-1.398120053453e-06 -4.408378090406e-06 0.0 
-4.408378090406e-06 3.924504524866e-05 0.0 
0.0 0.0 0.0 
5.870177440537e-05 6.351790620997e-06 0.0 
6.351790620997e-06 1.002219623529e-03 0.0 
0.0 0.0 0.0 
-7.227441033843e-05 1.443708712520e-06 0.0 
1.443708712520e-06 1.432139773454e-03 0.0 
0.0 0.0 0.0 
2.670286612275e-05 -3.445119644627e-06 0.0 
-3.445119644627e-06 1.848586961661e-04 0.0 
0.0 0.0 0.0 
-2.796505160035e-05 1.618264477851e-04 0.0 
1.618264477851e-04 1.835681141720e-03 0.0 
0.0 0.0 0.0 
6.470552702790e-06 2.531657741538e-04 0.0 
2.531657741538e-04 1.526705161756e-03 0.0 
0.0 0.0 0.0 
-9.546150282536e-06 2.481618468096e-04 0.0 
2.481618468096e-04 1.661435128812e-03 0.0 
0.0 0.0 0.0 
2.003345511741e-05 2.209099193729e-04 0.0 
2.209099193729e-04 1.396776068500e-03 0.0 
0.0 0.0 0.0 
2.126067279947e-05 1.685876314781e-04 0.0 
1.685876314781e-04 1.310945516052e-03 0.0 
0.0 0.0 0.0 
-7.465272819313e-05 -1.472516525875e-05 0.0 
-1.472516525875e-05 7.152312553412e-05 0.0 
0.0 0.0 0.0 
-9.876858475984e-05 1.321111442698e-05 0.0 
1.321111442698e-05 1.439501659658e-03 0.0 
0.0 0.0 0.0 
2.424748711546e-05 1.003150859050e-04 0.0 
1.003150859050e-04 1.229958794739e-03 0.0 
0.0 0.0 0.0 
-4.098147893165e-05 3.439304537660e-06 0.0 
3.439304537660e-06 1.770316237431e-03 0.0 
0.0 0.0 0.0 
-2.956642332726e-05 -1.213834225590e-05 0.0 
-1.213834225590e-05 5.161330481673e-05 0.0 
0.0 0.0 0.0 
7.515296273175e-05 -1.775032823680e-06 0.0 
-1.775032823680e-06 4.757659432973e-04 0.0 
0.0 0.0 0.0 
-1.070102989946e-05 2.313678625378e-05 0.0 
2.313678625378e-05 1.927359312803e-03 0.0 
0.0 0.0 0.0 
-1.053549006690e-04 1.829454968968e-04 0.0 
1.829454968968e-04 9.416912977482e-04 0.0 
0.0 0.0 0.0 
-9.180769364257e-05 1.824297489777e-04 0.0 
1.824297489777e-04 5.371093204034e-04 0.0 
0.0 0.0 0.0 
-1.256277746579e-04 8.535270261963e-05 0.0 
8.535270261963e-05 1.191893465953e-03 0.0 
0.0 0.0 0.0 
-1.277183204928e-04 4.723932180918e-05 0.0 
4.723932180918e-05 1.336769024613e-03 0.0 
0.0 0.0 0.0 
-9.301088335995e-05 1.100869491089e-04 0.0 
1.100869491089e-04 1.637505181612e-04 0.0 
0.0 0.0 0.0 
-6.501711387576e-05 1.133127282459e-06 0.0 
1.133127282459e-06 1.541483093721e-03 0.0 
0.0 0.0 0.0 
1.368736881298e-05 2.451564945920e-05 0.0 
2.451564945920e-05 1.222312026030e-03 0.0 
0.0 0.0 0.0 
3.662287632082e-06 -8.408407761842e-07 0.0 
-8.408407761842e-07 3.443127819495e-05 0.0 
0.0 0.0 0.0 
-1.959787833098e-05 5.833340716573e-06 0.0 
5.833340716573e-06 1.879308953632e-03 0.0 
0.0 0.0 0.0 
-1.231685758882e-04 3.957003852374e-05 0.0 
3.957003852374e-05 1.437134330184e-03 0.0 
0.0 0.0 0.0 
-1.272834508752e-04 5.438086455039e-05 0.0 
5.438086455039e-05 1.456225001761e-03 0.0 
0.0 0.0 0.0 
-1.220185720272e-04 5.038320486161e-05 0.0 
5.038320486161e-05 1.488559868582e-03 0.0 
0.0 0.0 0.0 
-1.260121347801e-04 6.859201201427e-05 0.0 
6.859201201427e-05 1.507462482669e-03 0.0 
0.0 0.0 0.0 
-1.209956621256e-04 6.561465089165e-05 0.0 
6.561465089165e-05 1.543344094498e-03 0.0 
0.0 0.0 0.0 
-1.216333533261e-04 8.254793236857e-05 0.0 
8.254793236857e-05 1.557521835081e-03 0.0 
0.0 0.0 0.0 
-1.266597157728e-04 8.739298094693e-05 0.0 
8.739298094693e-05 1.520040873365e-03 0.0 
0.0 0.0 0.0 
-1.197467481600e-04 1.010082598753e-04 0.0 
1.010082598753e-04 1.567917543968e-03 0.0 
0.0 0.0 0.0 
-1.239666284369e-04 1.072232095770e-04 0.0 
1.072232095770e-04 1.527442221174e-03 0.0 
0.0 0.0 0.0 
-1.153015069636e-04 7.925037729055e-05 0.0 
7.925037729055e-05 1.594020200950e-03 0.0 
0.0 0.0 0.0 
-1.150179801297e-04 1.198564121311e-04 0.0 
1.198564121311e-04 1.573900932379e-03 0.0 
0.0 0.0 0.0 
-1.180117962410e-04 1.271432278649e-04 0.0 
1.271432278649e-04 1.530087759688e-03 0.0 
0.0 0.0 0.0 
-1.073952847915e-04 1.385850892658e-04 0.0 
1.385850892658e-04 1.575511536081e-03 0.0 
0.0 0.0 0.0 
-1.088613362439e-04 1.464377551439e-04 0.0 
1.464377551439e-04 1.528207001057e-03 0.0 
0.0 0.0 0.0 
-1.187858774354e-04 1.363582459207e-04 0.0 
1.363582459207e-04 1.483491788340e-03 0.0 
0.0 0.0 0.0 
-1.075389326372e-04 1.559362389854e-04 0.0 
1.559362389854e-04 1.477515431746e-03 0.0 
0.0 0.0 0.0 
-1.169604179978e-04 1.475260930013e-04 0.0 
1.475260930013e-04 1.433441535294e-03 0.0 
0.0 0.0 0.0 
-1.031324662318e-04 1.669843427856e-04 0.0 
1.669843427856e-04 1.422755724415e-03 0.0 
0.0 0.0 0.0 
-9.337928730161e-05 1.732247151936e-04 0.0 
1.732247151936e-04 1.467708705929e-03 0.0 
0.0 0.0 0.0 
-8.640132476504e-05 1.831604675767e-04 0.0 
1.831604675767e-04 1.408386533290e-03 0.0 
0.0 0.0 0.0 
-9.509428228721e-05 1.792407216542e-04 0.0 
1.792407216542e-04 1.363017135119e-03 0.0 
0.0 0.0 0.0 
-7.563141058921e-05 1.936478766346e-04 0.0 
1.936478766346e-04 1.344042514282e-03 0.0 
0.0 0.0 0.0 
-8.313304848240e-05 1.921310649734e-04 0.0 
1.921310649734e-04 1.297734768905e-03 0.0 
0.0 0.0 0.0 
-6.111355111216e-05 2.036010651861e-04 0.0 
2.036010651861e-04 1.274415137555e-03 0.0 
0.0 0.0 0.0 
-6.713177594808e-05 2.043664219516e-04 0.0 
2.043664219516e-04 1.226076391744e-03 0.0 
0.0 0.0 0.0 
-4.300780054634e-05 2.119018470677e-04 0.0 
2.119018470677e-04 1.199336221130e-03 0.0 
0.0 0.0 0.0 
-3.880158997938e-05 2.101608405311e-04 0.0 
2.101608405311e-04 1.251387772176e-03 0.0 
0.0 0.0 0.0 
-1.961558714408e-05 2.145388609337e-04 0.0 
2.145388609337e-04 1.174368589291e-03 0.0 
0.0 0.0 0.0 
-2.174918019397e-05 2.173613299176e-04 0.0 
2.173613299176e-04 1.119261871267e-03 0.0 
0.0 0.0 0.0 
1.732764262963e-06 2.155818070550e-04 0.0 
2.155818070550e-04 1.093754645575e-03 0.0 
0.0 0.0 0.0 
1.484474715874e-06 2.184819325212e-04 0.0 
2.184819325212e-04 1.035230291756e-03 0.0 
0.0 0.0 0.0 
2.408333882320e-05 2.123643168934e-04 0.0 
2.123643168934e-04 1.010483372460e-03 0.0 
0.0 0.0 0.0 
2.278008110031e-05 2.105890446704e-04 0.0 
2.105890446704e-04 1.072221190554e-03 0.0 
0.0 0.0 0.0 
4.367267957491e-05 2.037298700428e-04 0.0 
2.037298700428e-04 9.909182411246e-04 0.0 
0.0 0.0 0.0 
4.604373046794e-05 2.041739589505e-04 0.0 
2.041739589505e-04 9.257868519498e-04 0.0 
0.0 0.0 0.0 
6.356688831895e-05 1.926317160934e-04 0.0 
1.926317160934e-04 9.096929288730e-04 0.0 
0.0 0.0 0.0 
6.615802638436e-05 1.910863138692e-04 0.0 
1.910863138692e-04 8.417934831348e-04 0.0 
0.0 0.0 0.0 
8.136917146177e-05 1.776559048046e-04 0.0 
1.776559048046e-04 8.300304657579e-04 0.0 
0.0 0.0 0.0 
8.336941347002e-05 1.739152067713e-04 0.0 
1.739152067713e-04 7.600333863275e-04 0.0 
0.0 0.0 0.0 
9.612207111135e-05 1.590397250992e-04 0.0 
1.590397250992e-04 7.526616070447e-04 0.0 
0.0 0.0 0.0 
9.341541932099e-05 1.640695414938e-04 0.0 
1.640695414938e-04 8.231515622090e-04 0.0 
0.0 0.0 0.0 
1.059053483696e-04 1.447879769523e-04 0.0 
1.447879769523e-04 7.499479705947e-04 0.0 
0.0 0.0 0.0 
1.069764183675e-04 1.376986162596e-04 0.0 
1.376986162596e-04 6.789176646996e-04 0.0 
0.0 0.0 0.0 
1.147004052170e-04 1.234800209528e-04 0.0 
1.234800209528e-04 6.804874114208e-04 0.0 
0.0 0.0 0.0 
1.131792222458e-04 1.316513614376e-04 0.0 
1.316513614376e-04 7.515404641312e-04 0.0 
0.0 0.0 0.0 
1.201200644637e-04 1.108308475787e-04 0.0 
1.108308475787e-04 6.859938437759e-04 0.0 
0.0 0.0 0.0 
1.180910151336e-04 1.199144792002e-04 0.0 
1.199144792002e-04 7.569103994223e-04 0.0 
0.0 0.0 0.0 
1.234800353445e-04 9.981697293455e-05 0.0 
9.981697293455e-05 6.949106125096e-04 0.0 
0.0 0.0 0.0 
1.233694349031e-04 8.954297729058e-05 0.0 
8.954297729058e-05 6.253028307703e-04 0.0 
0.0 0.0 0.0 
1.255255998983e-04 7.964020326853e-05 0.0 
7.964020326853e-05 6.373775763169e-04 0.0 
0.0 0.0 0.0 
1.250539104177e-04 9.032798139327e-05 0.0 
9.032798139327e-05 7.066366175076e-04 0.0 
0.0 0.0 0.0 
1.261591896407e-04 7.123877591921e-05 0.0 
7.123877591921e-05 6.517068258910e-04 0.0 
0.0 0.0 0.0 
1.243150470122e-04 5.993901969322e-05 0.0 
5.993901969322e-05 5.842291687781e-04 0.0 
0.0 0.0 0.0 
1.244163891257e-04 5.308751049146e-05 0.0 
5.308751049146e-05 6.010643223874e-04 0.0 
0.0 0.0 0.0 
1.255182073142e-04 6.441695610222e-05 0.0 
6.441695610222e-05 6.683442577359e-04 0.0 
0.0 0.0 0.0 
1.234355803361e-04 4.757528676799e-05 0.0 
4.757528676799e-05 6.197371038087e-04 0.0 
0.0 0.0 0.0 
1.201013719584e-04 3.615007124604e-05 0.0 
3.615007124604e-05 5.543512045783e-04 0.0 
0.0 0.0 0.0 
1.191238438542e-04 3.213076482670e-05 0.0 
3.213076482670e-05 5.746869513591e-04 0.0 
0.0 0.0 0.0 
1.215800722253e-04 4.331905629477e-05 0.0 
4.331905629477e-05 6.403273014381e-04 0.0 
0.0 0.0 0.0 
1.174197948650e-04 2.906562025035e-05 0.0 
2.906562025035e-05 5.962749180337e-04 0.0 
0.0 0.0 0.0 
1.129143215128e-04 1.830855922028e-05 0.0 
1.830855922028e-05 5.325988326864e-04 0.0 
0.0 0.0 0.0 
1.116099721293e-04 1.660213254463e-05 0.0 
1.660213254463e-05 5.550609744941e-04 0.0 
0.0 0.0 0.0 
1.151441119410e-04 2.696772255949e-05 0.0 
2.696772255949e-05 6.192456973863e-04 0.0 
0.0 0.0 0.0 
1.098254949333e-04 1.557085293285e-05 0.0 
1.557085293285e-05 5.784950102360e-04 0.0 
0.0 0.0 0.0 
1.123192134933e-04 2.549962094130e-05 0.0 
2.549962094130e-05 6.432021737622e-04 0.0 
0.0 0.0 0.0 
1.044231349661e-04 5.883145165441e-06 0.0 
5.883145165441e-06 5.157120882383e-04 0.0 
0.0 0.0 0.0 
1.033709912140e-04 5.920515160291e-06 0.0 
5.920515160291e-06 5.397120196693e-04 0.0 
0.0 0.0 0.0 
9.620990744863e-05 -2.816395657186e-06 0.0 
-2.816395657186e-06 4.781596502412e-04 0.0 
0.0 0.0 0.0 
9.605133909470e-05 -1.799485315914e-06 0.0 
-1.799485315914e-06 5.027650482734e-04 0.0 
0.0 0.0 0.0 
4.094225924252e-05 2.034879859645e-04 0.0 
2.034879859645e-04 1.055212649170e-03 0.0 
0.0 0.0 0.0 
8.745879885685e-05 -9.377273805110e-06 0.0 
-9.377273805110e-06 4.424727005272e-04 0.0 
0.0 0.0 0.0 
8.629630438720e-05 -1.082478823175e-05 0.0 
-1.082478823175e-05 4.188854816675e-04 0.0 
0.0 0.0 0.0 
8.824069669688e-05 -7.589283560800e-06 0.0 
-7.589283560800e-06 4.673626364965e-04 0.0 
0.0 0.0 0.0 
9.551709488498e-05 -4.691803236640e-07 0.0 
-4.691803236640e-07 5.283298469839e-04 0.0 
0.0 0.0 0.0 
7.849085827893e-05 -1.398408232751e-05 0.0 
-1.398408232751e-05 4.080283449962e-04 0.0 
0.0 0.0 0.0 
8.020871085942e-05 -1.156633540777e-05 0.0 
-1.156633540777e-05 4.330979870573e-04 0.0 
0.0 0.0 0.0 
6.946342537906e-05 -1.663571000591e-05 0.0 
-1.663571000591e-05 3.747164539673e-04 0.0 
0.0 0.0 0.0 
6.753148807126e-05 1.888328593073e-04 0.0 
1.888328593073e-04 7.716688173390e-04 0.0 
0.0 0.0 0.0 
-7.714634928270e-05 1.876133085313e-04 0.0 
1.876133085313e-04 1.455151501665e-03 0.0 
0.0 0.0 0.0 
7.211588597230e-05 -1.376198380484e-05 0.0 
-1.376198380484e-05 3.997891669251e-04 0.0 
0.0 0.0 0.0 
6.071518400848e-05 -1.763632483665e-05 0.0 
-1.763632483665e-05 3.421600725529e-04 0.0 
0.0 0.0 0.0 
5.672542770692e-05 -2.054408996796e-05 0.0 
-2.054408996796e-05 3.175640760118e-04 0.0 
0.0 0.0 0.0 
4.783525753567e-05 -2.024800294859e-05 0.0 
-2.024800294859e-05 2.855264531908e-04 0.0 
0.0 0.0 0.0 
-1.145208767057e-04 6.343080775135e-05 0.0 
6.343080775135e-05 1.577651636582e-03 0.0 
0.0 0.0 0.0 
-1.074908204382e-04 7.681025292149e-05 0.0 
7.681025292149e-05 1.629703008582e-03 0.0 
0.0 0.0 0.0 
-1.070887086534e-04 6.120610540793e-05 0.0 
6.120610540793e-05 1.610614814051e-03 0.0 
0.0 0.0 0.0 
-9.911151425575e-05 7.464979632611e-05 0.0 
7.464979632611e-05 1.664362085704e-03 0.0 
0.0 0.0 0.0 
-9.903833476708e-05 6.015279703016e-05 0.0 
6.015279703016e-05 1.645054270897e-03 0.0 
0.0 0.0 0.0 
5.253623987556e-05 -1.723861983369e-05 0.0 
-1.723861983369e-05 3.099013366090e-04 0.0 
0.0 0.0 0.0 
-1.033345641000e-04 1.324042081177e-04 0.0 
1.324042081177e-04 1.620251494155e-03 0.0 
0.0 0.0 0.0 
-9.755946376705e-05 9.018941873811e-05 0.0 
9.018941873811e-05 1.680536547294e-03 0.0 
0.0 0.0 0.0 
-1.033572063313e-04 1.751451910635e-04 0.0 
1.751451910635e-04 1.319587961652e-03 0.0 
0.0 0.0 0.0 
-2.372252926188e-05 2.208230726472e-04 0.0 
2.208230726472e-04 1.064510683397e-03 0.0 
0.0 0.0 0.0 
1.094169588313e-04 1.392056910514e-04 0.0 
1.392056910514e-04 8.230062126051e-04 0.0 
0.0 0.0 0.0 
8.153904230475e-05 -9.094216287682e-06 0.0 
-9.094216287682e-06 4.586104696437e-04 0.0 
0.0 0.0 0.0 
7.434392695408e-05 -1.080937736394e-05 0.0 
-1.080937736394e-05 4.252701206226e-04 0.0 
0.0 0.0 0.0 
8.243243780892e-05 -6.730787100756e-06 0.0 
-6.730787100756e-06 4.846150934056e-04 0.0 
0.0 0.0 0.0 
1.157469880727e-04 3.751358021952e-05 0.0 
3.751358021952e-05 6.855481067602e-04 0.0 
0.0 0.0 0.0 
1.118884015204e-04 3.553455938099e-05 0.0 
3.553455938099e-05 7.097695822919e-04 0.0 
0.0 0.0 0.0 
1.133956189566e-04 4.808710629383e-05 0.0 
4.808710629383e-05 7.536551318958e-04 0.0 
0.0 0.0 0.0 
1.085280816881e-04 4.551857509834e-05 0.0 
4.551857509834e-05 7.780494445867e-04 0.0 
0.0 0.0 0.0 
1.080889074251e-04 5.850992582233e-05 0.0 
5.850992582233e-05 8.234051469752e-04 0.0 
0.0 0.0 0.0 
1.022629831612e-04 5.533261794572e-05 0.0 
5.533261794572e-05 8.480264302161e-04 0.0 
0.0 0.0 0.0 
1.032041722072e-04 4.309985529134e-05 0.0 
4.309985529134e-05 8.034288073793e-04 0.0 
0.0 0.0 0.0 
9.594800165595e-05 5.214851109505e-05 0.0 
5.214851109505e-05 8.737047003968e-04 0.0 
0.0 0.0 0.0 
9.751785443971e-05 4.068294646506e-05 0.0 
4.068294646506e-05 8.296822526697e-04 0.0 
0.0 0.0 0.0 
9.989407268995e-05 6.870405498067e-05 0.0 
6.870405498067e-05 8.947433843622e-04 0.0 
0.0 0.0 0.0 
1.060775369066e-04 7.258617453722e-05 0.0 
7.258617453722e-05 8.710146961749e-04 0.0 
0.0 0.0 0.0 
8.929518173835e-05 4.887450333292e-05 0.0 
4.887450333292e-05 9.002737453369e-04 0.0 
0.0 0.0 0.0 
9.155747347792e-05 3.814890782739e-05 0.0 
3.814890782739e-05 8.567613645587e-04 0.0 
0.0 0.0 0.0 
8.241198885872e-05 4.544878838084e-05 0.0 
4.544878838084e-05 9.277761546737e-04 0.0 
0.0 0.0 0.0 
8.542010195293e-05 3.528329595205e-05 0.0 
3.528329595205e-05 8.845856054508e-04 0.0 
0.0 0.0 0.0 
9.270808348705e-05 2.864341977378e-05 0.0 
2.864341977378e-05 8.147722916784e-04 0.0 
0.0 0.0 0.0 
8.743974004651e-05 2.637870325974e-05 0.0 
2.637870325974e-05 8.427180688167e-04 0.0 
0.0 0.0 0.0 
9.289642475703e-05 2.045591709706e-05 0.0 
2.045591709706e-05 7.744630552506e-04 0.0 
0.0 0.0 0.0 
1.137919869363e-04 1.285054423746e-04 0.0 
1.285054423746e-04 8.283341931279e-04 0.0 
0.0 0.0 0.0 
1.038280683249e-04 1.465344265874e-04 0.0 
1.465344265874e-04 8.947365336698e-04 0.0 
0.0 0.0 0.0 
1.075634767221e-04 1.369138899150e-04 0.0 
1.369138899150e-04 9.000355899362e-04 0.0 
0.0 0.0 0.0 
9.663084599243e-05 1.538737470308e-04 0.0 
1.538737470308e-04 9.664572092012e-04 0.0 
0.0 0.0 0.0 
9.949723196434e-05 1.453869302500e-04 0.0 
1.453869302500e-04 9.720477633219e-04 0.0 
0.0 0.0 0.0 
8.786474764729e-05 1.615611644359e-04 0.0 
1.615611644359e-04 1.038272869390e-03 0.0 
0.0 0.0 0.0 
8.954811552138e-05 1.542375000118e-04 0.0 
1.542375000118e-04 1.044296496610e-03 0.0 
0.0 0.0 0.0 
1.000783515072e-04 1.377216153751e-04 0.0 
1.377216153751e-04 9.808439656480e-04 0.0 
0.0 0.0 0.0 
-9.718914872076e-05 1.566308893053e-04 0.0 
1.566308893053e-04 1.572824594936e-03 0.0 
0.0 0.0 0.0 
1.135686179119e-04 1.144866383027e-04 0.0 
1.144866383027e-04 6.099479873615e-04 0.0 
0.0 0.0 0.0 
1.052983700012e-04 1.295696350480e-04 0.0 
1.295696350480e-04 6.081287392196e-04 0.0 
0.0 0.0 0.0 
1.090574018249e-04 1.045356695256e-04 0.0 
1.045356695256e-04 5.401442958672e-04 0.0 
0.0 0.0 0.0 
9.991917331054e-05 1.202403562035e-04 0.0 
1.202403562035e-04 5.381272180182e-04 0.0 
0.0 0.0 0.0 
1.002584046485e-04 9.365318363967e-05 0.0 
9.365318363967e-05 4.715484284393e-04 0.0 
0.0 0.0 0.0 
8.963124170680e-05 1.098902268966e-04 0.0 
1.098902268966e-04 4.696820741139e-04 0.0 
0.0 0.0 0.0 
8.594644259026e-05 8.221649152283e-05 0.0 
8.221649152283e-05 4.046975665301e-04 0.0 
0.0 0.0 0.0 
9.558258209267e-05 6.745766447676e-05 0.0 
6.745766447676e-05 4.114235877798e-04 0.0 
0.0 0.0 0.0 
7.715803961509e-05 5.570014036196e-05 0.0 
5.570014036196e-05 3.465855362581e-04 0.0 
0.0 0.0 0.0 
8.637626152500e-05 4.266251699220e-05 0.0 
4.266251699220e-05 3.578816215319e-04 0.0 
0.0 0.0 0.0 
6.402663452417e-05 3.110896322514e-05 0.0 
3.110896322514e-05 2.954625774941e-04 0.0 
0.0 0.0 0.0 
7.322341599270e-05 2.040357536767e-05 0.0 
2.040357536767e-05 3.105018481120e-04 0.0 
0.0 0.0 0.0 
-1.734370862192e-05 2.128485784911e-04 0.0 
2.128485784911e-04 1.229845775032e-03 0.0 
0.0 0.0 0.0 
8.374375520026e-05 1.695746993230e-04 0.0 
1.695746993230e-04 1.035351143044e-03 0.0 
0.0 0.0 0.0 
7.475242452578e-05 1.767892902460e-04 0.0 
1.767892902460e-04 1.106669817285e-03 0.0 
0.0 0.0 0.0 
6.958758582835e-05 1.837237735731e-04 0.0 
1.837237735731e-04 1.105513761821e-03 0.0 
0.0 0.0 0.0 
4.236680065632e-05 -2.301242643536e-05 0.0 
-2.301242643536e-05 2.613870833005e-04 0.0 
0.0 0.0 0.0 
7.923515626607e-05 3.196831549309e-05 0.0 
3.196831549309e-05 9.130882089269e-04 0.0 
0.0 0.0 0.0 
9.593226891806e-05 8.298502201473e-05 0.0 
8.298502201473e-05 9.437680746081e-04 0.0 
0.0 0.0 0.0 
1.023104206494e-04 8.745546422693e-05 0.0 
8.745546422693e-05 9.208182066416e-04 0.0 
0.0 0.0 0.0 
8.886829654912e-05 1.476438584406e-04 0.0 
1.476438584406e-04 1.053977176566e-03 0.0 
0.0 0.0 0.0 
3.981971377180e-05 -1.859776019039e-05 0.0 
-1.859776019039e-05 2.541410858937e-04 0.0 
0.0 0.0 0.0 
7.310333817963e-05 9.911415587903e-05 0.0 
9.911415587903e-05 4.035772788193e-04 0.0 
0.0 0.0 0.0 
7.536174076310e-05 1.276582539531e-04 0.0 
1.276582539531e-04 4.737702377261e-04 0.0 
0.0 0.0 0.0 
-8.974854994577e-05 7.259911076869e-05 0.0 
7.259911076869e-05 1.697888955134e-03 0.0 
0.0 0.0 0.0 
-9.010643553429e-05 5.916837015983e-05 0.0 
5.916837015983e-05 1.677746204323e-03 0.0 
0.0 0.0 0.0 
9.024327461304e-05 9.808254810680e-05 0.0 
9.808254810680e-05 9.951612409912e-04 0.0 
0.0 0.0 0.0 
4.497282788810e-05 -1.557949827398e-05 0.0 
-1.557949827398e-05 2.781788691504e-04 0.0 
0.0 0.0 0.0 
8.573728549558e-05 6.082303108435e-05 0.0 
6.082303108435e-05 9.457066625374e-04 0.0 
0.0 0.0 0.0 
5.229455512209e-05 4.457617717017e-05 0.0 
4.457617717017e-05 2.843948873984e-04 0.0 
0.0 0.0 0.0 
8.218023202899e-05 2.372243732422e-05 0.0 
2.372243732422e-05 8.712433379533e-04 0.0 
0.0 0.0 0.0 
7.300225126087e-05 2.821876687666e-05 0.0 
2.821876687666e-05 9.420857480897e-04 0.0 
0.0 0.0 0.0 
1.028641261407e-04 3.221992582250e-05 0.0 
3.221992582250e-05 7.609236547496e-04 0.0 
0.0 0.0 0.0 
6.090050708751e-05 1.907697180592e-04 0.0 
1.907697180592e-04 1.176247196755e-03 0.0 
0.0 0.0 0.0 
5.480928649049e-05 1.958822513076e-04 0.0 
1.958822513076e-04 1.176252395194e-03 0.0 
0.0 0.0 0.0 
9.277308661596e-05 3.223203983549e-05 0.0 
3.223203983549e-05 3.729649801132e-04 0.0 
0.0 0.0 0.0 
7.963397292784e-05 1.238779149290e-05 0.0 
1.238779149290e-05 3.284395543098e-04 0.0 
0.0 0.0 0.0 
5.725176904166e-05 1.926533779428e-06 0.0 
1.926533779428e-06 2.704209798463e-04 0.0 
0.0 0.0 0.0 
6.414393955364e-05 -3.371523915555e-06 0.0 
-3.371523915555e-06 2.902539098189e-04 0.0 
0.0 0.0 0.0 
8.511965065997e-05 6.658119123976e-06 0.0 
6.658119123976e-06 3.476456737278e-04 0.0 
0.0 0.0 0.0 
7.079213534233e-05 -7.709449312086e-06 0.0 
-7.709449312086e-06 3.089384270609e-04 0.0 
0.0 0.0 0.0 
4.878910379732e-05 -1.614403992615e-05 0.0 
-1.614403992615e-05 2.526343883731e-04 0.0 
0.0 0.0 0.0 
5.540576859608e-05 -1.833712687161e-05 0.0 
-1.833712687161e-05 2.732896283275e-04 0.0 
0.0 0.0 0.0 
7.581705396934e-05 -1.025275218371e-05 0.0 
-1.025275218371e-05 3.301220540598e-04 0.0 
0.0 0.0 0.0 
6.156990148480e-05 -1.958491091795e-05 0.0 
-1.958491091795e-05 2.950384729702e-04 0.0 
0.0 0.0 0.0 
3.968493179951e-05 -2.559528959374e-05 0.0 
-2.559528959374e-05 2.397511758284e-04 0.0 
0.0 0.0 0.0 
4.726479847346e-05 -2.543702721740e-05 0.0 
-2.543702721740e-05 2.616570298568e-04 0.0 
0.0 0.0 0.0 
6.822605265714e-05 3.713870405630e-05 0.0 
3.713870405630e-05 9.850913626174e-04 0.0 
0.0 0.0 0.0 
3.541547682895e-05 2.040063003117e-05 0.0 
2.040063003117e-05 2.362944651026e-04 0.0 
0.0 0.0 0.0 
-1.270056754128e-04 1.256162322276e-04 0.0 
1.256162322276e-04 1.439348613864e-03 0.0 
0.0 0.0 0.0 
8.289793638579e-05 9.315818949278e-05 0.0 
9.315818949278e-05 1.017896463817e-03 0.0 
0.0 0.0 0.0 
7.745183322357e-05 1.639108240494e-04 0.0 
1.639108240494e-04 1.116681244510e-03 0.0 
0.0 0.0 0.0 
-7.965060749217e-05 7.067086753521e-05 0.0 
7.067086753521e-05 1.730676027646e-03 0.0 
0.0 0.0 0.0 
-8.064118293832e-05 5.808601293708e-05 0.0 
5.808601293708e-05 1.709848501997e-03 0.0 
0.0 0.0 0.0 
-8.919312283603e-05 4.729809388088e-05 0.0 
4.729809388088e-05 1.654962468248e-03 0.0 
0.0 0.0 0.0 
-8.060022137759e-05 4.684172330384e-05 0.0 
4.684172330384e-05 1.686957130407e-03 0.0 
0.0 0.0 0.0 
-7.070930414432e-05 5.663748981315e-05 0.0 
5.663748981315e-05 1.741439183605e-03 0.0 
0.0 0.0 0.0 
-7.157393818354e-05 4.595641431090e-05 0.0 
4.595641431090e-05 1.718385412059e-03 0.0 
0.0 0.0 0.0 
-7.983868410035e-05 3.693658584432e-05 0.0 
3.693658584432e-05 1.662379942126e-03 0.0 
0.0 0.0 0.0 
-7.167486839392e-05 3.652161043314e-05 0.0 
3.652161043314e-05 1.693760701670e-03 0.0 
0.0 0.0 0.0 
-7.846449796783e-05 2.837880051146e-05 0.0 
2.837880051146e-05 1.636374160895e-03 0.0 
0.0 0.0 0.0 
-7.127342862540e-05 2.839586584290e-05 0.0 
2.839586584290e-05 1.667926127584e-03 0.0 
0.0 0.0 0.0 
-6.327629828736e-05 3.560899745025e-05 0.0 
3.560899745025e-05 1.724850380267e-03 0.0 
0.0 0.0 0.0 
-6.382319374652e-05 2.777695307478e-05 0.0 
2.777695307478e-05 1.699214412262e-03 0.0 
0.0 0.0 0.0 
-7.068703257892e-05 2.152497317026e-05 0.0 
2.152497317026e-05 1.641225626662e-03 0.0 
0.0 0.0 0.0 
-6.412480992872e-05 2.104314462206e-05 0.0 
2.104314462206e-05 1.672749695077e-03 0.0 
0.0 0.0 0.0 
-7.003615400467e-05 1.573460575389e-05 0.0 
1.573460575389e-05 1.613764489032e-03 0.0 
0.0 0.0 0.0 
-6.422447852193e-05 1.533350585814e-05 0.0 
1.533350585814e-05 1.645342626309e-03 0.0 
0.0 0.0 0.0 
-5.735993843808e-05 2.010579693605e-05 0.0 
2.010579693605e-05 1.704071725203e-03 0.0 
0.0 0.0 0.0 
3.285009310990e-05 -1.590416102502e-05 0.0 
-1.590416102502e-05 2.240561008146e-04 0.0 
0.0 0.0 0.0 
9.845226149952e-05 1.309771834323e-04 0.0 
1.309771834323e-04 9.926978872191e-04 0.0 
0.0 0.0 0.0 
8.565251256402e-05 1.418115612978e-04 0.0 
1.418115612978e-04 1.067409638396e-03 0.0 
0.0 0.0 0.0 
7.607849153942e-05 -8.415391808724e-06 0.0 
-8.415391808724e-06 4.527862130348e-04 0.0 
0.0 0.0 0.0 
8.342966717523e-05 -4.798768852748e-06 0.0 
-4.798768852748e-06 5.102506211007e-04 0.0 
0.0 0.0 0.0 
8.846399024616e-05 -1.652744975097e-06 0.0 
-1.652744975097e-06 5.452881550720e-04 0.0 
0.0 0.0 0.0 
8.830311259389e-05 -1.440987482647e-07 0.0 
-1.440987482647e-07 5.724404647026e-04 0.0 
0.0 0.0 0.0 
-5.845159797737e-05 1.446069682379e-05 0.0 
1.446069682379e-05 1.676686892394e-03 0.0 
0.0 0.0 0.0 
-5.074309355905e-05 1.856656157716e-05 0.0 
1.856656157716e-05 1.735286318966e-03 0.0 
0.0 0.0 0.0 
5.613176644159e-05 1.180301224686e-04 0.0 
1.180301224686e-04 4.093190723491e-04 0.0 
0.0 0.0 0.0 
5.656523171486e-05 1.462610678124e-04 0.0 
1.462610678124e-04 4.853994139236e-04 0.0 
0.0 0.0 0.0 
-7.729583556385e-05 8.453959349024e-05 0.0 
8.453959349024e-05 1.749025718362e-03 0.0 
0.0 0.0 0.0 
7.678618069133e-05 2.041661508310e-05 0.0 
2.041661508310e-05 9.006927432554e-04 0.0 
0.0 0.0 0.0 
8.417288881931e-05 1.670936925614e-05 0.0 
1.670936925614e-05 8.310370246113e-04 0.0 
0.0 0.0 0.0 
1.172308793633e-06 2.213950088565e-04 0.0 
2.213950088565e-04 9.766304014603e-04 0.0 
0.0 0.0 0.0 
-2.567085833651e-05 2.240985249363e-04 0.0 
2.240985249363e-04 1.009891307259e-03 0.0 
0.0 0.0 0.0 
4.320056401312e-07 2.234280674028e-04 0.0 
2.234280674028e-04 9.174250537595e-04 0.0 
0.0 0.0 0.0 
-2.801555151401e-05 2.259555158056e-04 0.0 
2.259555158056e-04 9.544021724028e-04 0.0 
0.0 0.0 0.0 
-5.457429258743e-05 2.205189790640e-04 0.0 
2.205189790640e-04 1.048785425875e-03 0.0 
0.0 0.0 0.0 
-1.973371440274e-06 2.229863666846e-04 0.0 
2.229863666846e-04 8.563191853701e-04 0.0 
0.0 0.0 0.0 
1.115648086142e-04 7.662607117577e-05 0.0 
7.662607117577e-05 8.479622294989e-04 0.0 
0.0 0.0 0.0 
-5.476772560253e-05 3.405123574922e-05 0.0 
3.405123574922e-05 1.755670825428e-03 0.0 
0.0 0.0 0.0 
5.199636844000e-05 -2.311062547225e-05 0.0 
-2.311062547225e-05 2.935547728828e-04 0.0 
0.0 0.0 0.0 
3.606443054982e-05 -2.517651557345e-05 0.0 
-2.517651557345e-05 2.380214646696e-04 0.0 
0.0 0.0 0.0 
6.650990375930e-05 2.395765702663e-05 0.0 
2.395765702663e-05 9.722370550012e-04 0.0 
0.0 0.0 0.0 
1.086785316284e-04 1.207357292555e-04 0.0 
1.207357292555e-04 9.196959867848e-04 0.0 
0.0 0.0 0.0 
-3.452005274492e-05 2.096926643514e-04 0.0 
2.096926643514e-04 1.304396040382e-03 0.0 
0.0 0.0 0.0 
-1.494251033751e-05 2.126517849075e-04 0.0 
2.126517849075e-04 1.285826609356e-03 0.0 
0.0 0.0 0.0 
-3.010550441503e-05 2.108818455188e-04 0.0 
2.108818455188e-04 1.358264645964e-03 0.0 
0.0 0.0 0.0 
-1.241512641921e-05 2.143628154262e-04 0.0 
2.143628154262e-04 1.342239270814e-03 0.0 
0.0 0.0 0.0 
-2.548555806340e-05 2.140423534154e-04 0.0 
2.140423534154e-04 1.412889042427e-03 0.0 
0.0 0.0 0.0 
-9.927251630515e-06 2.182818581581e-04 0.0 
2.182818581581e-04 1.399098290633e-03 0.0 
0.0 0.0 0.0 
3.316366947855e-06 2.158420927702e-04 0.0 
2.158420927702e-04 1.328543794157e-03 0.0 
0.0 0.0 0.0 
4.719961051854e-05 2.035151167862e-04 0.0 
2.035151167862e-04 1.246068903708e-03 0.0 
0.0 0.0 0.0 
3.444550432978e-06 2.210310577620e-04 0.0 
2.210310577620e-04 1.388063297850e-03 0.0 
0.0 0.0 0.0 
-6.429944615268e-05 1.111942720921e-05 0.0 
1.111942720921e-05 1.616523844803e-03 0.0 
0.0 0.0 0.0 
7.730154627975e-05 1.780321211923e-04 0.0 
1.780321211923e-04 1.034761393414e-03 0.0 
0.0 0.0 0.0 
7.984019344702e-05 -1.158725225083e-05 0.0 
-1.158725225083e-05 3.524834076020e-04 0.0 
0.0 0.0 0.0 
2.686663668764e-05 -1.880759291323e-05 0.0 
-1.880759291323e-05 1.995528995162e-04 0.0 
0.0 0.0 0.0 
2.407985762357e-05 -2.859597196107e-05 0.0 
-2.859597196107e-05 2.063059619499e-04 0.0 
0.0 0.0 0.0 
3.820235260547e-05 -1.290784497177e-05 0.0 
-1.290784497177e-05 2.457982855070e-04 0.0 
0.0 0.0 0.0 
4.958670400242e-05 -1.211062638073e-05 0.0 
-1.211062638073e-05 3.026028551760e-04 0.0 
0.0 0.0 0.0 
7.531299923791e-05 1.087132766022e-04 0.0 
1.087132766022e-04 1.070538823202e-03 0.0 
0.0 0.0 0.0 
-2.079889408781e-05 2.196128333702e-04 0.0 
2.196128333702e-04 1.468247016282e-03 0.0 
0.0 0.0 0.0 
-3.565640356669e-05 2.126177805894e-04 0.0 
2.126177805894e-04 1.480068159893e-03 0.0 
0.0 0.0 0.0 
-5.781016606980e-05 2.216370158383e-04 0.0 
2.216370158383e-04 9.999699728688e-04 0.0 
0.0 0.0 0.0 
-8.380987367292e-05 2.060201519212e-04 0.0 
2.060201519212e-04 1.092095353870e-03 0.0 
0.0 0.0 0.0 
5.119986096088e-05 1.994611255156e-04 0.0 
1.994611255156e-04 1.246579148730e-03 0.0 
0.0 0.0 0.0 
-1.044847402996e-04 4.804667548275e-05 0.0 
4.804667548275e-05 1.589937605072e-03 0.0 
0.0 0.0 0.0 
-8.536089939459e-05 2.790295741745e-05 0.0 
2.790295741745e-05 1.604659822859e-03 0.0 
0.0 0.0 0.0 
-8.256524516131e-05 2.049225981049e-05 0.0 
2.049225981049e-05 1.577046577705e-03 0.0 
0.0 0.0 0.0 
2.591508786473e-05 -1.332454347735e-05 0.0 
-1.332454347735e-05 1.851193999526e-04 0.0 
0.0 0.0 0.0 
1.499877883904e-05 -2.835694257056e-05 0.0 
-2.835694257056e-05 1.875522030152e-04 0.0 
0.0 0.0 0.0 
-6.057420471510e-05 5.469056771206e-05 0.0 
5.469056771206e-05 1.772573392046e-03 0.0 
0.0 0.0 0.0 
7.149926795820e-05 1.550120446796e-04 0.0 
1.550120446796e-04 5.506878947085e-04 0.0 
0.0 0.0 0.0 
5.078088954598e-05 1.725254602830e-04 0.0 
1.725254602830e-04 5.688148805091e-04 0.0 
0.0 0.0 0.0 
1.949490830936e-05 3.506302505838e-05 0.0 
3.506302505838e-05 2.251844911908e-04 0.0 
0.0 0.0 0.0 
-5.948908359810e-07 1.182938551097e-05 0.0 
1.182938551097e-05 1.802825266762e-04 0.0 
0.0 0.0 0.0 
-5.241814943158e-05 1.346422925520e-05 0.0 
1.346422925520e-05 1.707397068758e-03 0.0 
0.0 0.0 0.0 
-4.396101569123e-05 1.635323047217e-05 0.0 
1.635323047217e-05 1.764990701534e-03 0.0 
0.0 0.0 0.0 
9.240839268088e-05 3.363496535433e-06 0.0 
3.363496535433e-06 6.075891690825e-04 0.0 
0.0 0.0 0.0 
9.089591427702e-05 3.945294179212e-06 0.0 
3.945294179212e-06 6.350753354457e-04 0.0 
0.0 0.0 0.0 
8.287445173664e-05 1.140084832344e-04 0.0 
1.140084832344e-04 1.049287468809e-03 0.0 
0.0 0.0 0.0 
3.331087278402e-05 -2.816088538080e-05 0.0 
-2.816088538080e-05 2.293107551965e-04 0.0 
0.0 0.0 0.0 
-4.103112937058e-05 2.225535720926e-05 0.0 
2.225535720926e-05 1.791949473462e-03 0.0 
0.0 0.0 0.0 
1.062600692243e-04 1.141716869180e-04 0.0 
1.141716869180e-04 9.342591904563e-04 0.0 
0.0 0.0 0.0 
1.151047133825e-04 1.034907712055e-04 0.0 
1.034907712055e-04 8.615634751489e-04 0.0 
0.0 0.0 0.0 
8.409020457169e-05 -1.825487254277e-06 0.0 
-1.825487254277e-06 5.367853460849e-04 0.0 
0.0 0.0 0.0 
3.316401641566e-05 1.380300723163e-04 0.0 
1.380300723163e-04 4.240940125142e-04 0.0 
0.0 0.0 0.0 
2.919892481024e-05 1.098480123845e-04 0.0 
1.098480123845e-04 3.483686333046e-04 0.0 
0.0 0.0 0.0 
9.231216897421e-05 -5.791225710000e-07 0.0 
-5.791225710000e-07 3.893012875702e-04 0.0 
0.0 0.0 0.0 
5.371061710398e-05 -2.464635626630e-05 0.0 
-2.464635626630e-05 2.842779139358e-04 0.0 
0.0 0.0 0.0 
4.291297513207e-05 -9.605893918584e-06 0.0 
-9.605893918584e-06 2.701659079231e-04 0.0 
0.0 0.0 0.0 
6.619710069714e-05 1.255767342172e-04 0.0 
1.255767342172e-04 1.125920155138e-03 0.0 
0.0 0.0 0.0 
-5.788150339575e-05 6.590656887809e-05 0.0 
6.590656887809e-05 1.793760008736e-03 0.0 
0.0 0.0 0.0 
1.621536823223e-05 2.156369782115e-04 0.0 
2.156369782115e-04 1.318235270225e-03 0.0 
0.0 0.0 0.0 
1.843236378977e-05 2.118212196534e-04 0.0 
2.118212196534e-04 1.255905346951e-03 0.0 
0.0 0.0 0.0 
1.434070456174e-05 2.222744074315e-04 0.0 
2.222744074315e-04 1.380027422325e-03 0.0 
0.0 0.0 0.0 
1.017788270110e-05 -2.882072079023e-05 0.0 
-2.882072079023e-05 1.765177252477e-04 0.0 
0.0 0.0 0.0 
6.649786140056e-05 1.030958466317e-04 0.0 
1.030958466317e-04 1.094653764965e-03 0.0 
0.0 0.0 0.0 
7.102239951122e-05 1.641788310131e-05 0.0 
1.641788310131e-05 9.310998054296e-04 0.0 
0.0 0.0 0.0 
-2.904373159829e-05 2.198538468007e-04 0.0 
2.198538468007e-04 1.532073658251e-03 0.0 
0.0 0.0 0.0 
-4.242755684614e-05 2.106820682965e-04 0.0 
2.106820682965e-04 1.543272989055e-03 0.0 
0.0 0.0 0.0 
6.159449877589e-05 1.797154880800e-04 0.0 
1.797154880800e-04 6.340436978544e-04 0.0 
0.0 0.0 0.0 
3.870947856288e-05 1.949019232261e-04 0.0 
1.949019232261e-04 6.599025193736e-04 0.0 
0.0 0.0 0.0 
2.488916052423e-05 1.878344249231e-04 0.0 
1.878344249231e-04 5.982622744625e-04 0.0 
0.0 0.0 0.0 
1.227095937445e-05 2.077682744719e-04 0.0 
2.077682744719e-04 6.955246465334e-04 0.0 
0.0 0.0 0.0 
-1.303994182125e-04 9.386785167110e-05 0.0 
9.386785167110e-05 1.480835149817e-03 0.0 
0.0 0.0 0.0 
4.563726100792e-05 2.002100691072e-04 0.0 
2.002100691072e-04 7.245934408623e-04 0.0 
0.0 0.0 0.0 
-1.249944241354e-04 1.381316036975e-04 0.0 
1.381316036975e-04 1.390736293219e-03 0.0 
0.0 0.0 0.0 
-1.329561585185e-04 1.135926996613e-04 0.0 
1.135926996613e-04 1.395818167599e-03 0.0 
0.0 0.0 0.0 
-1.311552704866e-04 1.271528245618e-04 0.0 
1.271528245618e-04 1.349098769551e-03 0.0 
0.0 0.0 0.0 
-7.879336003282e-05 2.064635893729e-04 0.0 
2.064635893729e-04 1.134730328149e-03 0.0 
0.0 0.0 0.0 
-1.041223455447e-04 1.849835910864e-04 0.0 
1.849835910864e-04 1.171263670325e-03 0.0 
0.0 0.0 0.0 
9.426139541879e-05 1.458848380678e-04 0.0 
1.458848380678e-04 6.106878993957e-04 0.0 
0.0 0.0 0.0 
9.778204003874e-05 1.571709534312e-04 0.0 
1.571709534312e-04 8.925476100063e-04 0.0 
0.0 0.0 0.0 
9.354941645586e-05 2.328641273645e-06 0.0 
2.328641273645e-06 5.808331225479e-04 0.0 
0.0 0.0 0.0 
9.721467229236e-05 2.174591842541e-05 0.0 
2.174591842541e-05 7.470797475700e-04 0.0 
0.0 0.0 0.0 
1.176467792099e-04 5.103056691095e-05 0.0 
5.103056691095e-05 7.302390965158e-04 0.0 
0.0 0.0 0.0 
-5.289694753626e-05 4.263499054713e-05 0.0 
4.263499054713e-05 1.779861569320e-03 0.0 
0.0 0.0 0.0 
-4.358124572542e-05 3.999932630325e-05 0.0 
3.999932630325e-05 1.810624269857e-03 0.0 
0.0 0.0 0.0 
-7.543430709115e-05 1.549573789135e-05 0.0 
1.549573789135e-05 1.581631123394e-03 0.0 
0.0 0.0 0.0 
-7.365999680496e-05 1.049154387400e-05 0.0 
1.049154387400e-05 1.552949023890e-03 0.0 
0.0 0.0 0.0 
2.682746133583e-05 -2.342619683334e-05 0.0 
-2.342619683334e-05 2.058859323858e-04 0.0 
0.0 0.0 0.0 
1.838964123927e-05 -2.470028890130e-05 0.0 
-2.470028890130e-05 1.833909714503e-04 0.0 
0.0 0.0 0.0 
1.090272231081e-04 2.444503572162e-05 0.0 
2.444503572162e-05 6.681548260094e-04 0.0 
0.0 0.0 0.0 
7.454896949473e-05 8.813938621025e-05 0.0 
8.813938621025e-05 1.041772477196e-03 0.0 
0.0 0.0 0.0 
-6.602279345850e-05 8.150077388524e-05 0.0 
8.150077388524e-05 1.781271237600e-03 0.0 
0.0 0.0 0.0 
-6.168074738707e-05 9.585602449346e-05 0.0 
9.585602449346e-05 1.797956877651e-03 0.0 
0.0 0.0 0.0 
-7.344585395724e-05 9.951945634597e-05 0.0 
9.951945634597e-05 1.764583713106e-03 0.0 
0.0 0.0 0.0 
7.421412225202e-05 1.308683237102e-04 0.0 
1.308683237102e-04 1.105017296679e-03 0.0 
0.0 0.0 0.0 
1.156900479867e-04 9.060502918821e-05 0.0 
9.060502918821e-05 5.465646401935e-04 0.0 
0.0 0.0 0.0 
1.160884614193e-04 1.190221242300e-04 0.0 
1.190221242300e-04 8.366987928002e-04 0.0 
0.0 0.0 0.0 
1.458249682723e-05 9.326350630454e-07 0.0 
9.326350630454e-07 1.959302605854e-04 0.0 
0.0 0.0 0.0 
2.140753414540e-05 2.095791299554e-04 0.0 
2.095791299554e-04 1.133493593583e-03 0.0 
0.0 0.0 0.0 
1.059713607247e-05 -2.157128535079e-05 0.0 
-2.157128535079e-05 1.516333615754e-04 0.0 
0.0 0.0 0.0 
-8.274887916230e-05 1.799063379298e-04 0.0 
1.799063379298e-04 1.513474612454e-03 0.0 
0.0 0.0 0.0 
5.992581532780e-05 1.901241979073e-05 0.0 
1.901241979073e-05 1.003336593747e-03 0.0 
0.0 0.0 0.0 
5.384291222210e-05 2.721230993267e-05 0.0 
2.721230993267e-05 1.045102824568e-03 0.0 
0.0 0.0 0.0 
3.830129730061e-05 2.124212915445e-04 0.0 
2.124212915445e-04 1.313935073072e-03 0.0 
0.0 0.0 0.0 
-1.305221619567e-04 5.888394913793e-05 0.0 
5.888394913793e-05 1.421837527613e-03 0.0 
0.0 0.0 0.0 
3.794138956581e-05 2.041275647574e-04 0.0 
2.041275647574e-04 1.119181510027e-03 0.0 
0.0 0.0 0.0 
5.601518886711e-05 1.950939755684e-04 0.0 
1.950939755684e-04 1.043151795351e-03 0.0 
0.0 0.0 0.0 
-1.359498227303e-04 9.971486397240e-05 0.0 
9.971486397240e-05 1.352329911639e-03 0.0 
0.0 0.0 0.0 
-1.344540836025e-04 1.136747836932e-04 0.0 
1.136747836932e-04 1.308501960805e-03 0.0 
0.0 0.0 0.0 
-1.263487894030e-04 1.435198747027e-04 0.0 
1.435198747027e-04 1.297828836574e-03 0.0 
0.0 0.0 0.0 
-1.305087442870e-04 1.317696235353e-04 0.0 
1.317696235353e-04 1.258837099397e-03 0.0 
0.0 0.0 0.0 
9.437565585846e-05 -2.306844512240e-06 0.0 
-2.306844512240e-06 4.112343830061e-04 0.0 
0.0 0.0 0.0 
8.288754113454e-05 -1.197893374692e-05 0.0 
-1.197893374692e-05 3.748148304091e-04 0.0 
0.0 0.0 0.0 
-1.580671412305e-05 2.296043256748e-04 0.0 
2.296043256748e-04 1.528330488960e-03 0.0 
0.0 0.0 0.0 
3.588606259745e-06 2.301584310784e-04 0.0 
2.301584310784e-04 1.446720218086e-03 0.0 
0.0 0.0 0.0 
-3.243187830395e-05 2.203156008143e-04 0.0 
2.203156008143e-04 1.593056360157e-03 0.0 
0.0 0.0 0.0 
-4.509255111507e-05 2.089892249377e-04 0.0 
2.089892249377e-04 1.604251673457e-03 0.0 
0.0 0.0 0.0 
4.061945997291e-05 2.097987323419e-04 0.0 
2.097987323419e-04 1.315873641605e-03 0.0 
0.0 0.0 0.0 
5.301554360622e-05 1.951573967124e-04 0.0 
1.951573967124e-04 1.249303094483e-03 0.0 
0.0 0.0 0.0 
5.320961166329e-05 -8.864501055928e-06 0.0 
-8.864501055928e-06 3.256864982259e-04 0.0 
0.0 0.0 0.0 
-1.095353139277e-04 1.783744056955e-04 0.0 
1.783744056955e-04 1.134300530389e-03 0.0 
0.0 0.0 0.0 
-4.667852528254e-05 6.279912525731e-05 0.0 
6.279912525731e-05 1.824730147129e-03 0.0 
0.0 0.0 0.0 
-1.354957812489e-04 8.850530801172e-05 0.0 
8.850530801172e-05 1.393582952803e-03 0.0 
0.0 0.0 0.0 
5.661611598429e-05 9.664774615415e-05 0.0 
9.664774615415e-05 1.117362326994e-03 0.0 
0.0 0.0 0.0 
6.578987742408e-05 8.284720510946e-05 0.0 
8.284720510946e-05 1.067885378572e-03 0.0 
0.0 0.0 0.0 
-2.546615807643e-05 -4.146068131479e-06 0.0 
-4.146068131479e-06 1.435388242658e-04 0.0 
0.0 0.0 0.0 
-8.863513795587e-06 -1.473599114342e-05 0.0 
-1.473599114342e-05 1.590789363133e-04 0.0 
0.0 0.0 0.0 
-3.388881103174e-05 1.895689995387e-05 0.0 
1.895689995387e-05 1.822074902256e-03 0.0 
0.0 0.0 0.0 
-7.883141009487e-06 1.979382589570e-04 0.0 
1.979382589570e-04 6.381237919117e-04 0.0 
0.0 0.0 0.0 
-2.067825730469e-05 2.122751636570e-04 0.0 
2.122751636570e-04 7.389797633557e-04 0.0 
0.0 0.0 0.0 
2.696701166075e-08 1.787471542083e-04 0.0 
1.787471542083e-04 5.404684850128e-04 0.0 
0.0 0.0 0.0 
2.807081209107e-05 7.881332446047e-06 0.0 
7.881332446047e-06 1.154283269881e-03 0.0 
0.0 0.0 0.0 
-6.992334834471e-05 2.320896085577e-07 0.0 
2.320896085577e-07 1.429152758141e-03 0.0 
0.0 0.0 0.0 
4.654515414071e-05 2.130115715456e-05 0.0 
2.130115715456e-05 1.077149114189e-03 0.0 
0.0 0.0 0.0 
-9.774799671760e-05 1.884350480554e-04 0.0 
1.884350480554e-04 1.211275351281e-03 0.0 
0.0 0.0 0.0 
-2.964082287887e-05 2.585561213962e-05 0.0 
2.585561213962e-05 1.848376377106e-03 0.0 
0.0 0.0 0.0 
5.142819799756e-05 1.974795200754e-04 0.0 
1.974795200754e-04 1.109969745554e-03 0.0 
0.0 0.0 0.0 
2.607545161815e-05 2.160374389199e-04 0.0 
2.160374389199e-04 8.848937749639e-04 0.0 
0.0 0.0 0.0 
8.918716508096e-05 1.193085879344e-04 0.0 
1.193085879344e-04 1.029021327487e-03 0.0 
0.0 0.0 0.0 
-3.822986734003e-05 1.191920656930e-05 0.0 
1.191920656930e-05 1.791998408466e-03 0.0 
0.0 0.0 0.0 
-2.699245368256e-05 1.514314896848e-05 0.0 
1.514314896848e-05 1.853443138668e-03 0.0 
0.0 0.0 0.0 
-8.776320637764e-05 1.958018625524e-05 0.0 
1.958018625524e-05 1.544711708112e-03 0.0 
0.0 0.0 0.0 
-8.486470839995e-05 1.259328070714e-05 0.0 
1.259328070714e-05 1.514386254108e-03 0.0 
0.0 0.0 0.0 
-9.174262894227e-05 2.699249718589e-05 0.0 
2.699249718589e-05 1.570830761490e-03 0.0 
0.0 0.0 0.0 
3.743068842706e-05 6.054708248101e-05 0.0 
6.054708248101e-05 2.785184899197e-04 0.0 
0.0 0.0 0.0 
-2.415588801525e-06 5.453660929908e-05 0.0 
5.453660929908e-05 2.159213985390e-04 0.0 
0.0 0.0 0.0 
-4.635691584189e-05 3.181787334991e-05 0.0 
3.181787334991e-05 1.786185758758e-03 0.0 
0.0 0.0 0.0 
6.724388977493e-05 -1.134512429942e-05 0.0 
-1.134512429942e-05 3.928085036331e-04 0.0 
0.0 0.0 0.0 
7.025868675927e-05 -7.384790954038e-06 0.0 
-7.384790954038e-06 4.245519734738e-04 0.0 
0.0 0.0 0.0 
4.079603747253e-05 -2.715691064663e-05 0.0 
-2.715691064663e-05 2.506125987159e-04 0.0 
0.0 0.0 0.0 
5.870096744417e-05 -2.342947246516e-05 0.0 
-2.342947246516e-05 3.056886624812e-04 0.0 
0.0 0.0 0.0 
9.598120047198e-05 8.339824433449e-06 0.0 
8.339824433449e-06 6.440099003283e-04 0.0 
0.0 0.0 0.0 
9.816577572171e-05 7.828496887809e-06 0.0 
7.828496887809e-06 6.173021552048e-04 0.0 
0.0 0.0 0.0 
-6.730651382445e-05 1.930896628784e-04 0.0 
1.930896628784e-04 1.503140950222e-03 0.0 
0.0 0.0 0.0 
-7.132132888340e-05 1.874366400115e-04 0.0 
1.874366400115e-04 1.560835370710e-03 0.0 
0.0 0.0 0.0 
-4.885261579753e-05 2.048754873811e-04 0.0 
2.048754873811e-04 1.375086322270e-03 0.0 
0.0 0.0 0.0 
1.121214602607e-04 9.724293908547e-05 0.0 
9.724293908547e-05 8.784766189685e-04 0.0 
0.0 0.0 0.0 
1.192652884681e-04 8.639749954070e-05 0.0 
8.639749954070e-05 8.067472950154e-04 0.0 
0.0 0.0 0.0 
1.213556106908e-04 9.290032181946e-05 0.0 
9.290032181946e-05 7.904885239588e-04 0.0 
0.0 0.0 0.0 
-4.032416709491e-05 4.889655756269e-05 0.0 
4.889655756269e-05 1.832088808086e-03 0.0 
0.0 0.0 0.0 
-2.919051862861e-05 4.581065483171e-05 0.0 
4.581065483171e-05 1.868054126232e-03 0.0 
0.0 0.0 0.0 
1.047714791574e-04 1.001094672319e-05 0.0 
1.001094672319e-05 4.497730852145e-04 0.0 
0.0 0.0 0.0 
1.034635705441e-04 1.329743343958e-05 0.0 
1.329743343958e-05 4.288651233926e-04 0.0 
0.0 0.0 0.0 
9.558530878014e-05 -3.164784528082e-06 0.0 
-3.164784528082e-06 4.329732358026e-04 0.0 
0.0 0.0 0.0 
-4.240635626275e-05 7.459811271318e-05 0.0 
7.459811271318e-05 1.844464405409e-03 0.0 
0.0 0.0 0.0 
3.929704349548e-05 3.070859267514e-05 0.0 
3.070859267514e-05 1.119170135311e-03 0.0 
0.0 0.0 0.0 
4.564775891935e-05 3.576797227672e-05 0.0 
3.576797227672e-05 1.087936231279e-03 0.0 
0.0 0.0 0.0 
-1.324620155785e-07 -2.250932699240e-05 0.0 
-2.250932699240e-05 1.307009156139e-04 0.0 
0.0 0.0 0.0 
8.567791229171e-06 -2.595047816774e-05 0.0 
-2.595047816774e-05 1.612398427453e-04 0.0 
0.0 0.0 0.0 
1.587780849022e-07 1.315034880611e-04 0.0 
1.315034880611e-04 3.655109966804e-04 0.0 
0.0 0.0 0.0 
-4.274332156366e-06 1.035031440948e-04 0.0 
1.035031440948e-04 2.885611109896e-04 0.0 
0.0 0.0 0.0 
-5.556431638659e-05 1.109456620862e-04 0.0 
1.109456620862e-04 1.810437407786e-03 0.0 
0.0 0.0 0.0 
-6.805040750220e-05 1.157926742377e-04 0.0 
1.157926742377e-04 1.777551363618e-03 0.0 
0.0 0.0 0.0 
-4.172882694843e-05 1.071079144993e-04 0.0 
1.071079144993e-04 1.847371392660e-03 0.0 
0.0 0.0 0.0 
4.603881843364e-05 -6.038260072425e-06 0.0 
-6.038260072425e-06 2.894512013100e-04 0.0 
0.0 0.0 0.0 
3.103579064708e-05 2.093807705139e-04 0.0 
2.093807705139e-04 1.248443722130e-03 0.0 
0.0 0.0 0.0 
5.578042234640e-05 1.429934072639e-04 0.0 
1.429934072639e-04 1.180956901714e-03 0.0 
0.0 0.0 0.0 
6.466351289306e-05 1.491878661179e-04 0.0 
1.491878661179e-04 1.161989129063e-03 0.0 
0.0 0.0 0.0 
4.433518067502e-05 1.383674257400e-04 0.0 
1.383674257400e-04 1.212962460072e-03 0.0 
0.0 0.0 0.0 
3.391692946308e-05 2.143872007875e-04 0.0 
2.143872007875e-04 1.313307815580e-03 0.0 
0.0 0.0 0.0 
2.583368553503e-05 2.230857110237e-04 0.0 
2.230857110237e-04 1.377430406987e-03 0.0 
0.0 0.0 0.0 
1.079407660559e-05 2.316410471229e-04 0.0 
2.316410471229e-04 1.442303266747e-03 0.0 
0.0 0.0 0.0 
-4.298916218963e-05 4.629768531205e-06 0.0 
4.629768531205e-06 1.266620710108e-04 0.0 
0.0 0.0 0.0 
-2.947155006633e-05 9.023645529553e-06 0.0 
9.023645529553e-06 1.834270685884e-03 0.0 
0.0 0.0 0.0 
-7.800215595200e-05 9.259122850744e-06 0.0 
9.259122850744e-06 1.517374354225e-03 0.0 
0.0 0.0 0.0 
-6.767767019338e-05 -5.982702846711e-06 0.0 
-5.982702846711e-06 1.047992564916e-04 0.0 
0.0 0.0 0.0 
-7.540779012686e-05 5.785196890814e-06 0.0 
5.785196890814e-06 1.488359155754e-03 0.0 
0.0 0.0 0.0 
-7.244489268763e-05 6.764763234009e-06 0.0 
6.764763234009e-06 1.523472784180e-03 0.0 
0.0 0.0 0.0 
-7.412767683601e-05 2.982594174319e-06 0.0 
2.982594174319e-06 1.455481037730e-03 0.0 
0.0 0.0 0.0 
3.570083946621e-05 -6.468745656866e-06 0.0 
-6.468745656866e-06 2.338099226876e-04 0.0 
0.0 0.0 0.0 
-9.300345423004e-05 1.648821140927e-05 0.0 
1.648821140927e-05 1.501220667647e-03 0.0 
0.0 0.0 0.0 
-9.787700526777e-05 2.597021488254e-05 0.0 
2.597021488254e-05 1.537750152475e-03 0.0 
0.0 0.0 0.0 
-1.409450205977e-05 -2.070643505022e-05 0.0 
-2.070643505022e-05 9.971967125571e-05 0.0 
0.0 0.0 0.0 
-2.982058967471e-05 6.984869035360e-05 0.0 
6.984869035360e-05 1.874256045796e-03 0.0 
0.0 0.0 0.0 
-5.796500242368e-06 -1.776796827520e-05 0.0 
-1.776796827520e-05 1.014221382916e-04 0.0 
0.0 0.0 0.0 
3.893322465642e-06 -1.729230978000e-05 0.0 
-1.729230978000e-05 1.213042722379e-04 0.0 
0.0 0.0 0.0 
4.922787102790e-05 9.155188242902e-05 0.0 
9.155188242902e-05 1.144070163408e-03 0.0 
0.0 0.0 0.0 
5.732854964994e-05 7.680824726462e-05 0.0 
7.680824726462e-05 1.093934765128e-03 0.0 
0.0 0.0 0.0 
3.891494093148e-05 8.382568284307e-05 0.0 
8.382568284307e-05 1.168958278024e-03 0.0 
0.0 0.0 0.0 
4.724710837349e-05 7.141987754041e-05 0.0 
7.141987754041e-05 1.119213513217e-03 0.0 
0.0 0.0 0.0 
6.443604639642e-05 6.406356461243e-05 0.0 
6.406356461243e-05 1.045587993654e-03 0.0 
0.0 0.0 0.0 
5.582342682442e-05 5.938642460419e-05 0.0 
5.938642460419e-05 1.075227739847e-03 0.0 
0.0 0.0 0.0 
-8.209943430493e-05 7.687202932864e-06 0.0 
7.687202932864e-06 1.482991331557e-03 0.0 
0.0 0.0 0.0 
3.628345264484e-05 6.730262753765e-05 0.0 
6.730262753765e-05 1.160282406459e-03 0.0 
0.0 0.0 0.0 
4.628580409527e-05 5.316936464821e-05 0.0 
5.316936464821e-05 1.106645487005e-03 0.0 
0.0 0.0 0.0 
2.734546568117e-05 5.932982642756e-05 0.0 
5.932982642756e-05 1.192006466299e-03 0.0 
0.0 0.0 0.0 
-1.341594673643e-04 9.572860872398e-05 0.0 
9.572860872398e-05 1.268641713705e-03 0.0 
0.0 0.0 0.0 
-7.502195236301e-06 2.210398343613e-04 0.0 
2.210398343613e-04 7.950325610290e-04 0.0 
0.0 0.0 0.0 
-4.038307121364e-05 2.181444590852e-04 0.0 
2.181444590852e-04 8.457978256007e-04 0.0 
0.0 0.0 0.0 
-5.951267393752e-05 2.059286198387e-04 0.0 
2.059286198387e-04 8.027077438420e-04 0.0 
0.0 0.0 0.0 
-2.993853929274e-05 2.220977557355e-04 0.0 
2.220977557355e-04 1.660328748418e-03 0.0 
0.0 0.0 0.0 
-4.511719500666e-05 2.062645591079e-04 0.0 
2.062645591079e-04 1.657259935751e-03 0.0 
0.0 0.0 0.0 
6.520236010695e-05 1.186853998438e-05 0.0 
1.186853998438e-05 9.642212419136e-04 0.0 
0.0 0.0 0.0 
7.461461551302e-05 9.990712268967e-06 0.0 
9.990712268967e-06 8.924478242946e-04 0.0 
0.0 0.0 0.0 
-7.189426328432e-05 3.899648077424e-06 0.0 
3.899648077424e-06 1.490398491713e-03 0.0 
0.0 0.0 0.0 
-6.990247787362e-05 2.317895138150e-06 0.0 
2.317895138150e-06 1.486289332660e-03 0.0 
0.0 0.0 0.0 
-6.809586649994e-05 5.737498552716e-06 0.0 
5.737498552716e-06 1.542711275059e-03 0.0 
0.0 0.0 0.0 
-6.687480047420e-05 3.233834668536e-06 0.0 
3.233834668536e-06 1.534699321446e-03 0.0 
0.0 0.0 0.0 
-6.400787796161e-05 6.536926919720e-06 0.0 
6.536926919720e-06 1.590568664404e-03 0.0 
0.0 0.0 0.0 
-6.295431048512e-05 3.340948914825e-06 0.0 
3.340948914825e-06 1.581444556696e-03 0.0 
0.0 0.0 0.0 
-5.888849156236e-05 5.598746390005e-06 0.0 
5.598746390005e-06 1.637597394607e-03 0.0 
0.0 0.0 0.0 
2.012703352348e-06 2.418458203875e-04 0.0 
2.418458203875e-04 1.513291256729e-03 0.0 
0.0 0.0 0.0 
-3.972297863852e-05 1.883300764747e-04 0.0 
1.883300764747e-04 5.835278839437e-04 0.0 
0.0 0.0 0.0 
-1.345406489649e-04 7.226065483426e-05 0.0 
7.226065483426e-05 1.347778586421e-03 0.0 
0.0 0.0 0.0 
3.932217915170e-05 2.061486519367e-04 0.0 
2.061486519367e-04 1.319405395123e-03 0.0 
0.0 0.0 0.0 
5.186528274818e-05 1.897555037775e-04 0.0 
1.897555037775e-04 1.250886223177e-03 0.0 
0.0 0.0 0.0 
-1.228438698153e-04 1.536421329177e-04 0.0 
1.536421329177e-04 1.201802719626e-03 0.0 
0.0 0.0 0.0 
-1.256615244853e-04 1.361971588044e-04 0.0 
1.361971588044e-04 1.169217642606e-03 0.0 
0.0 0.0 0.0 
4.438960893410e-05 1.137929885994e-04 0.0 
1.137929885994e-04 1.182102080791e-03 0.0 
0.0 0.0 0.0 
6.661184173462e-05 1.853312478310e-04 0.0 
1.853312478310e-04 7.014576609624e-04 0.0 
0.0 0.0 0.0 
-2.147228052816e-05 8.321520266567e-05 0.0 
8.321520266567e-05 1.898021098089e-03 0.0 
0.0 0.0 0.0 
-9.189671284624e-05 4.303466328659e-05 0.0 
4.303466328659e-05 9.238496664077e-05 0.0 
0.0 0.0 0.0 
-5.067308337314e-05 4.154291274246e-05 0.0 
4.154291274246e-05 1.422337288296e-04 0.0 
0.0 0.0 0.0 
4.829240338870e-05 2.032977381619e-04 0.0 
2.032977381619e-04 7.907526742426e-04 0.0 
0.0 0.0 0.0 
-1.179174040812e-04 1.631507926201e-04 0.0 
1.631507926201e-04 1.239169442684e-03 0.0 
0.0 0.0 0.0 
-3.087541763055e-05 2.252544691359e-04 0.0 
2.252544691359e-04 8.978323621190e-04 0.0 
0.0 0.0 0.0 
-6.209142213470e-05 2.185266447708e-04 0.0 
2.185266447708e-04 9.537248947713e-04 0.0 
0.0 0.0 0.0 
1.023394916055e-04 1.083932469308e-04 0.0 
1.083932469308e-04 9.525755627108e-04 0.0 
0.0 0.0 0.0 
-1.260854095630e-06 -2.666784651320e-05 0.0 
-2.666784651320e-05 1.418942508338e-04 0.0 
0.0 0.0 0.0 
2.086544106827e-06 1.569161694226e-04 0.0 
1.569161694226e-04 4.496425609902e-04 0.0 
0.0 0.0 0.0 
-5.993733992565e-05 1.020571856838e-05 0.0 
1.020571856838e-05 1.644849919429e-03 0.0 
0.0 0.0 0.0 
-3.795147745915e-05 1.534888149283e-04 0.0 
1.534888149283e-04 3.943944947164e-04 0.0 
0.0 0.0 0.0 
6.956463810078e-05 5.539554959242e-06 0.0 
5.539554959242e-06 9.292033828266e-04 0.0 
0.0 0.0 0.0 
8.326699956751e-05 1.692452445659e-04 0.0 
1.692452445659e-04 6.887728527298e-04 0.0 
0.0 0.0 0.0 
-7.315991552424e-05 2.055187940707e-04 0.0 
2.055187940707e-04 1.179491447818e-03 0.0 
0.0 0.0 0.0 
3.198205205250e-05 1.644654394551e-04 0.0 
1.644654394551e-04 5.075217639044e-04 0.0 
0.0 0.0 0.0 
2.079712105655e-05 2.129235710127e-04 0.0 
2.129235710127e-04 7.577741264209e-04 0.0 
0.0 0.0 0.0 
-1.265056211590e-04 1.153391955717e-04 0.0 
1.153391955717e-04 1.484718925603e-03 0.0 
0.0 0.0 0.0 
-1.304995369846e-04 7.329665853409e-05 0.0 
7.329665853409e-05 1.471414486084e-03 0.0 
0.0 0.0 0.0 
-1.335581241416e-04 7.987930545670e-05 0.0 
7.987930545670e-05 1.433339092634e-03 0.0 
0.0 0.0 0.0 
9.658350616815e-05 1.530606954892e-04 0.0 
1.530606954892e-04 6.816564491915e-04 0.0 
0.0 0.0 0.0 
-8.914988419351e-05 2.021217720997e-04 0.0 
2.021217720997e-04 1.053707505453e-03 0.0 
0.0 0.0 0.0 
-9.551270517031e-05 1.856741772418e-04 0.0 
1.856741772418e-04 1.014602565407e-03 0.0 
0.0 0.0 0.0 
-1.119727664229e-04 1.605483859424e-04 0.0 
1.605483859424e-04 1.379152830933e-03 0.0 
0.0 0.0 0.0 
-8.433705785299e-05 1.030592539699e-04 0.0 
1.030592539699e-04 1.729855884083e-03 0.0 
0.0 0.0 0.0 
-7.894915024938e-05 1.195773090524e-04 0.0 
1.195773090524e-04 1.741185346528e-03 0.0 
0.0 0.0 0.0 
-6.108033991490e-05 1.317263746723e-04 0.0 
1.317263746723e-04 1.785354629750e-03 0.0 
0.0 0.0 0.0 
-7.215249472063e-05 1.363520490489e-04 0.0 
1.363520490489e-04 1.749034329829e-03 0.0 
0.0 0.0 0.0 
-8.878359919601e-05 1.235205453164e-04 0.0 
1.235205453164e-04 1.703267755830e-03 0.0 
0.0 0.0 0.0 
-8.148650444425e-05 1.406290757857e-04 0.0 
1.406290757857e-04 1.709550255132e-03 0.0 
0.0 0.0 0.0 
-6.252723435674e-05 1.533058658274e-04 0.0 
1.533058658274e-04 1.754581534795e-03 0.0 
0.0 0.0 0.0 
-7.167227735812e-05 1.584720899202e-04 0.0 
1.584720899202e-04 1.713581944518e-03 0.0 
0.0 0.0 0.0 
-4.897329926466e-05 1.730871164259e-04 0.0 
1.730871164259e-04 1.765974116991e-03 0.0 
0.0 0.0 0.0 
-6.083190878710e-05 1.756003201573e-04 0.0 
1.756003201573e-04 1.712493919576e-03 0.0 
0.0 0.0 0.0 
-7.851703425201e-05 1.629702284106e-04 0.0 
1.629702284106e-04 1.666761570486e-03 0.0 
0.0 0.0 0.0 
-6.782330907094e-05 1.787714874722e-04 0.0 
1.787714874722e-04 1.663821933894e-03 0.0 
0.0 0.0 0.0 
-5.172452582830e-05 1.913593646362e-04 0.0 
1.913593646362e-04 1.704927168574e-03 0.0 
0.0 0.0 0.0 
-8.349644932470e-05 1.675970804469e-04 0.0 
1.675970804469e-04 1.618131919104e-03 0.0 
0.0 0.0 0.0 
2.587889136222e-05 2.215882350212e-04 0.0 
2.215882350212e-04 1.384556917968e-03 0.0 
0.0 0.0 0.0 
4.784192048901e-05 2.041777869227e-04 0.0 
2.041777869227e-04 8.589356283539e-04 0.0 
0.0 0.0 0.0 
-2.064769436807e-05 2.541875669371e-05 0.0 
2.541875669371e-05 1.663581784253e-04 0.0 
0.0 0.0 0.0 
-3.346364176908e-05 7.045744844398e-05 0.0 
7.045744844398e-05 1.924882110980e-04 0.0 
0.0 0.0 0.0 
-9.049274391515e-05 1.906288688987e-04 0.0 
1.906288688987e-04 1.253409440878e-03 0.0 
0.0 0.0 0.0 
-2.521053014076e-05 1.795802321757e-04 0.0 
1.795802321757e-04 1.820816135244e-03 0.0 
0.0 0.0 0.0 
-2.533859474235e-05 1.481931440839e-04 0.0 
1.481931440839e-04 1.858181085958e-03 0.0 
0.0 0.0 0.0 
8.764783094795e-05 1.372820920580e-04 0.0 
1.372820920580e-04 5.411341913159e-04 0.0 
0.0 0.0 0.0 
-1.384063247741e-05 2.407595961731e-04 0.0 
2.407595961731e-04 1.693814283552e-03 0.0 
0.0 0.0 0.0 
-1.326149386939e-04 1.024674725648e-04 0.0 
1.024674725648e-04 1.439411122619e-03 0.0 
0.0 0.0 0.0 
6.510374563984e-05 7.098379861927e-05 0.0 
7.098379861927e-05 3.405825558217e-04 0.0 
0.0 0.0 0.0 
-5.873930574996e-06 2.526214781768e-04 0.0 
2.526214781768e-04 1.627214726927e-03 0.0 
0.0 0.0 0.0 
-9.418739275828e-05 1.065996745057e-04 0.0 
1.065996745057e-04 1.693620046747e-03 0.0 
0.0 0.0 0.0 
-1.027605536799e-04 1.100381453380e-04 0.0 
1.100381453380e-04 1.655319909431e-03 0.0 
0.0 0.0 0.0 
-1.062156082975e-04 9.307487286088e-05 0.0 
9.307487286088e-05 1.644232505082e-03 0.0 
0.0 0.0 0.0 
-2.202415705112e-05 1.218145631303e-04 0.0 
1.218145631303e-04 1.883246583538e-03 0.0 
0.0 0.0 0.0 
-9.503149962244e-05 3.641291077915e-05 0.0 
3.641291077915e-05 1.597614534424e-03 0.0 
0.0 0.0 0.0 
8.700755369850e-06 2.478594046056e-04 0.0 
2.478594046056e-04 1.495244642630e-03 0.0 
0.0 0.0 0.0 
9.142544800045e-05 1.631827976774e-04 0.0 
1.631827976774e-04 9.639880658990e-04 0.0 
0.0 0.0 0.0 
8.374918022847e-05 1.730903513800e-04 0.0 
1.730903513800e-04 9.641287801649e-04 0.0 
0.0 0.0 0.0 
8.920044159414e-05 1.686123183916e-04 0.0 
1.686123183916e-04 8.936056032284e-04 0.0 
0.0 0.0 0.0 
-8.886444177897e-05 1.451199003692e-04 0.0 
1.451199003692e-04 1.666475888209e-03 0.0 
0.0 0.0 0.0 
2.052876059511e-05 2.082544778124e-04 0.0 
2.082544778124e-04 1.371903817584e-03 0.0 
0.0 0.0 0.0 
3.919183676049e-05 1.893483004730e-04 0.0 
1.893483004730e-04 1.294045368720e-03 0.0 
0.0 0.0 0.0 
4.078914747896e-05 1.773259824322e-04 0.0 
1.773259824322e-04 1.271930904198e-03 0.0 
0.0 0.0 0.0 
5.671231323112e-05 1.716772679425e-04 0.0 
1.716772679425e-04 1.212501513209e-03 0.0 
0.0 0.0 0.0 
2.265617860790e-05 1.821495977355e-04 0.0 
1.821495977355e-04 1.327503279512e-03 0.0 
0.0 0.0 0.0 
-2.078748755552e-05 2.081440484840e-04 0.0 
2.081440484840e-04 1.781377187932e-03 0.0 
0.0 0.0 0.0 
-1.802195057397e-05 2.211280665505e-04 0.0 
2.211280665505e-04 1.756770682694e-03 0.0 
0.0 0.0 0.0 
8.929579311897e-05 2.273341989451e-06 0.0 
2.273341989451e-06 3.678889069768e-04 0.0 
0.0 0.0 0.0 
1.011919125758e-04 1.801328677517e-05 0.0 
1.801328677517e-05 4.090135552598e-04 0.0 
0.0 0.0 0.0 
1.126502490839e-04 2.981335623481e-05 0.0 
2.981335623481e-05 4.718999019962e-04 0.0 
0.0 0.0 0.0 
1.106997686222e-04 3.638808790937e-05 0.0 
3.638808790937e-05 4.539378450739e-04 0.0 
0.0 0.0 0.0 
9.769668999700e-05 2.425282842376e-05 0.0 
2.425282842376e-05 3.902579952196e-04 0.0 
0.0 0.0 0.0 
1.073686061226e-04 4.462191652430e-05 0.0 
4.462191652430e-05 4.373115047895e-04 0.0 
0.0 0.0 0.0 
1.171577642209e-04 5.676537240995e-05 0.0 
5.676537240995e-05 5.029291947158e-04 0.0 
0.0 0.0 0.0 
1.024698310225e-04 5.484447726907e-05 0.0 
5.484447726907e-05 4.226809732935e-04 0.0 
0.0 0.0 0.0 
-5.883771629078e-05 1.958935009028e-04 0.0 
1.958935009028e-04 1.609656463239e-03 0.0 
0.0 0.0 0.0 
2.233289970055e-05 1.554118688646e-04 0.0 
1.554118688646e-04 1.294326549743e-03 0.0 
0.0 0.0 0.0 
1.133516011184e-04 6.191652781426e-05 0.0 
6.191652781426e-05 7.997992310056e-04 0.0 
0.0 0.0 0.0 
1.177838424938e-04 6.564206577036e-05 0.0 
6.564206577036e-05 7.769561461044e-04 0.0 
0.0 0.0 0.0 
1.211402756092e-04 5.455408473015e-05 0.0 
5.455408473015e-05 7.078267995959e-04 0.0 
0.0 0.0 0.0 
9.464539856015e-05 9.406842002087e-07 0.0 
9.406842002087e-07 5.544700412495e-04 0.0 
0.0 0.0 0.0 
1.001887161520e-04 7.130997020246e-06 0.0 
7.130997020246e-06 5.909267525965e-04 0.0 
0.0 0.0 0.0 
1.021690564056e-04 1.494040248139e-05 0.0 
1.494040248139e-05 6.549653209392e-04 0.0 
0.0 0.0 0.0 
8.861160023025e-05 -3.627367680747e-06 0.0 
-3.627367680747e-06 5.191284768433e-04 0.0 
0.0 0.0 0.0 
2.969329163919e-06 2.130643096727e-04 0.0 
2.130643096727e-04 1.269279076411e-03 0.0 
0.0 0.0 0.0 
2.208821500297e-05 1.415975064528e-04 0.0 
1.415975064528e-04 1.278984467698e-03 0.0 
0.0 0.0 0.0 
1.164903055677e-04 1.107159626239e-04 0.0 
1.107159626239e-04 8.477832063863e-04 0.0 
0.0 0.0 0.0 
1.019488153154e-04 6.431325675191e-06 0.0 
6.431325675191e-06 5.649152939407e-04 0.0 
0.0 0.0 0.0 
-1.050598191530e-04 1.744597192172e-05 0.0 
1.744597192172e-05 1.440811085144e-03 0.0 
0.0 0.0 0.0 
-1.095240157962e-04 3.100817438776e-05 0.0 
3.100817438776e-05 1.493347788446e-03 0.0 
0.0 0.0 0.0 
-1.167158623713e-04 3.844587507235e-05 0.0 
3.844587507235e-05 1.492254090507e-03 0.0 
0.0 0.0 0.0 
-1.118436807653e-04 4.665992372307e-05 0.0 
4.665992372307e-05 1.548026849637e-03 0.0 
0.0 0.0 0.0 
-1.034823763333e-04 2.457431224645e-05 0.0 
2.457431224645e-05 1.499919831279e-03 0.0 
0.0 0.0 0.0 
9.357172144138e-05 8.559582441153e-06 0.0 
8.559582441153e-06 6.712420458097e-04 0.0 
0.0 0.0 0.0 
9.115813372022e-05 8.374645889181e-06 0.0 
8.374645889181e-06 6.988479498071e-04 0.0 
0.0 0.0 0.0 
8.956900624246e-05 4.499642252597e-06 0.0 
4.499642252597e-06 6.628139100144e-04 0.0 
0.0 0.0 0.0 
8.877612966392e-05 7.563363552807e-06 0.0 
7.563363552807e-06 7.267536237436e-04 0.0 
0.0 0.0 0.0 
8.834997357103e-05 3.686111057126e-06 0.0 
3.686111057126e-06 6.890628639945e-04 0.0 
0.0 0.0 0.0 
8.810162967698e-05 1.512182780834e-06 0.0 
1.512182780834e-06 6.304278119873e-04 0.0 
0.0 0.0 0.0 
8.655120160891e-05 5.795607879828e-06 0.0 
5.795607879828e-06 7.537192591189e-04 0.0 
0.0 0.0 0.0 
8.684216983523e-05 2.901562108775e-06 0.0 
2.901562108775e-06 7.117701920766e-04 0.0 
0.0 0.0 0.0 
-9.428732010364e-05 9.462371651852e-06 0.0 
9.462371651852e-06 1.439716496209e-03 0.0 
0.0 0.0 0.0 
-8.309731958137e-05 -1.416200297935e-05 0.0 
-1.416200297935e-05 7.528011867789e-05 0.0 
0.0 0.0 0.0 
-4.386542214914e-05 -2.180432016202e-05 0.0 
-2.180432016202e-05 1.083879952123e-04 0.0 
0.0 0.0 0.0 
-4.021219682968e-05 -2.347953106373e-05 0.0 
-2.347953106373e-05 1.042098415055e-04 0.0 
0.0 0.0 0.0 
-1.325386411584e-05 -2.649964604586e-05 0.0 
-2.649964604586e-05 1.465049477824e-04 0.0 
0.0 0.0 0.0 
-1.151672968891e-05 -2.083929258997e-05 0.0 
-2.083929258997e-05 1.515591420496e-04 0.0 
0.0 0.0 0.0 
1.858668554497e-05 -2.198948645702e-05 0.0 
-2.198948645702e-05 1.962291158949e-04 0.0 
0.0 0.0 0.0 
1.528786406759e-05 -1.694629945428e-05 0.0 
-1.694629945428e-05 1.922175090877e-04 0.0 
0.0 0.0 0.0 
-4.701511147150e-05 -1.926896222521e-05 0.0 
-1.926896222521e-05 1.110673161572e-04 0.0 
0.0 0.0 0.0 
-6.528224007885e-05 -1.471379590135e-05 0.0 
-1.471379590135e-05 6.667228311441e-05 0.0 
0.0 0.0 0.0 
-3.391168579298e-05 -2.317092488270e-05 0.0 
-2.317092488270e-05 1.010659819796e-04 0.0 
0.0 0.0 0.0 
-5.538714404688e-05 -1.400021956759e-05 0.0 
-1.400021956759e-05 6.188655428441e-05 0.0 
0.0 0.0 0.0 
-2.845937534348e-05 -2.308695428589e-05 0.0 
-2.308695428589e-05 9.670595944174e-05 0.0 
0.0 0.0 0.0 
-4.193107682658e-06 -2.788832204386e-05 0.0 
-2.788832204386e-05 1.478916255575e-04 0.0 
0.0 0.0 0.0 
2.871759814453e-05 -2.694056977663e-05 0.0 
-2.694056977663e-05 2.166138125442e-04 0.0 
0.0 0.0 0.0 
1.887246048885e-05 3.400996750026e-05 0.0 
3.400996750026e-05 1.201403998807e-03 0.0 
0.0 0.0 0.0 
8.080141861958e-05 -7.226936452629e-07 0.0 
-7.226936452629e-07 5.356821034170e-04 0.0 
0.0 0.0 0.0 
7.837200944168e-05 -1.973847738503e-06 0.0 
-1.973847738503e-06 5.065009706316e-04 0.0 
0.0 0.0 0.0 
7.247256033786e-05 -3.419661458219e-06 0.0 
-3.419661458219e-06 4.489412172808e-04 0.0 
0.0 0.0 0.0 
7.644665659364e-05 -4.652804676153e-06 0.0 
-4.652804676153e-06 4.799143225678e-04 0.0 
0.0 0.0 0.0 
8.308958474790e-05 -3.995831246719e-07 0.0 
-3.995831246719e-07 5.601199806025e-04 0.0 
0.0 0.0 0.0 
6.771340920431e-05 -2.025887421032e-06 0.0 
-2.025887421032e-06 4.177071741593e-04 0.0 
0.0 0.0 0.0 
6.476544295383e-05 -4.388960529980e-06 0.0 
-4.388960529980e-06 3.966412450984e-04 0.0 
0.0 0.0 0.0 
1.820855098737e-06 -3.075468877483e-06 0.0 
-3.075468877483e-06 3.758876070122e-05 0.0 
0.0 0.0 0.0 
9.576212406085e-06 -5.275710772596e-06 0.0 
-5.275710772596e-06 8.181702325864e-05 0.0 
0.0 0.0 0.0 
8.434412993268e-06 -2.707764168588e-06 0.0 
-2.707764168588e-06 7.696390927630e-05 0.0 
0.0 0.0 0.0 
1.714575701717e-05 -4.441672448752e-06 0.0 
-4.441672448752e-06 1.314864258767e-04 0.0 
0.0 0.0 0.0 
1.650975726604e-05 -7.846023422917e-06 0.0 
-7.846023422917e-06 1.306324048490e-04 0.0 
0.0 0.0 0.0 
8.034598945235e-06 -7.022700897348e-06 0.0 
-7.022700897348e-06 8.301844865103e-05 0.0 
0.0 0.0 0.0 
5.592927382355e-06 -8.919816285123e-06 0.0 
-8.919816285123e-06 8.425614664886e-05 0.0 
0.0 0.0 0.0 
-4.676802836464e-06 -6.044988470941e-06 0.0 
-6.044988470941e-06 4.028900499294e-05 0.0 
0.0 0.0 0.0 
3.157048542720e-06 -1.121993975299e-05 0.0 
-1.121993975299e-05 8.527522743932e-05 0.0 
0.0 0.0 0.0 
1.420340780600e-05 -1.277207903572e-05 0.0 
-1.277207903572e-05 1.343421770814e-04 0.0 
0.0 0.0 0.0 
-8.957398407727e-06 -7.298666312156e-06 0.0 
-7.298666312156e-06 4.070551130453e-05 0.0 
0.0 0.0 0.0 
-4.870719850070e-05 2.836689130968e-06 0.0 
2.836689130968e-06 1.714859901872e-03 0.0 
0.0 0.0 0.0 
-4.458852164372e-05 7.139621366871e-06 0.0 
7.139621366871e-06 1.746528182699e-03 0.0 
0.0 0.0 0.0 
2.241135922484e-05 1.151990273582e-04 0.0 
1.151990273582e-04 1.251007523926e-03 0.0 
0.0 0.0 0.0 
-8.502567331790e-05 5.547317239097e-06 0.0 
5.547317239097e-06 1.444800707858e-03 0.0 
0.0 0.0 0.0 
-3.727265659657e-05 -1.180902468246e-05 0.0 
-1.180902468246e-05 5.477054869363e-05 0.0 
0.0 0.0 0.0 
-1.501265948045e-05 2.931011247156e-05 0.0 
2.931011247156e-05 1.910350295715e-03 0.0 
0.0 0.0 0.0 
-1.555258069793e-05 5.386701991025e-05 0.0 
5.386701991025e-05 1.914171605811e-03 0.0 
0.0 0.0 0.0 
-1.365085222553e-05 4.603169220645e-05 0.0 
4.603169220645e-05 1.917192691096e-03 0.0 
0.0 0.0 0.0 
4.479876577782e-05 7.391043326430e-06 0.0 
7.391043326430e-06 1.077956029063e-03 0.0 
0.0 0.0 0.0 
3.799228865238e-05 1.483973546731e-05 0.0 
1.483973546731e-05 1.115845673204e-03 0.0 
0.0 0.0 0.0 
-1.331110223138e-05 1.659909691673e-05 0.0 
1.659909691673e-05 1.913190995442e-03 0.0 
0.0 0.0 0.0 
6.629290494705e-05 -1.931650893872e-05 0.0 
-1.931650893872e-05 3.500149177276e-04 0.0 
0.0 0.0 0.0 
-5.372896365115e-05 1.492787990986e-04 0.0 
1.492787990986e-04 1.791890947025e-03 0.0 
0.0 0.0 0.0 
-3.801056984848e-05 2.919085294345e-05 0.0 
2.919085294345e-05 1.816595218256e-03 0.0 
0.0 0.0 0.0 
4.969560974995e-05 8.898386895490e-05 0.0 
8.898386895490e-05 3.407490196027e-04 0.0 
0.0 0.0 0.0 
7.087436519937e-05 -1.894859735969e-05 0.0 
-1.894859735969e-05 3.400161440619e-04 0.0 
0.0 0.0 0.0 
7.963538271956e-05 1.363187969863e-05 0.0 
1.363187969863e-05 8.607359313802e-04 0.0 
0.0 0.0 0.0 
9.788937690058e-05 3.056101028820e-05 0.0 
3.056101028820e-05 7.875692078655e-04 0.0 
0.0 0.0 0.0 
6.092081962576e-05 3.234812738867e-05 0.0 
3.234812738867e-05 1.014266393347e-03 0.0 
0.0 0.0 0.0 
8.851264702214e-05 1.882211793139e-05 0.0 
1.882211793139e-05 8.025061523399e-04 0.0 
0.0 0.0 0.0 
7.533098252936e-05 4.157343539636e-05 0.0 
4.157343539636e-05 9.561389662771e-04 0.0 
0.0 0.0 0.0 
4.398602460725e-05 1.632109950466e-04 0.0 
1.632109950466e-04 1.243660121631e-03 0.0 
0.0 0.0 0.0 
3.204533110701e-05 -1.006254252253e-05 0.0 
-1.006254252253e-05 2.152055056203e-04 0.0 
0.0 0.0 0.0 
-7.685374477973e-05 2.133071307526e-05 0.0 
2.133071307526e-05 1.609117762825e-03 0.0 
0.0 0.0 0.0 
-6.928184570350e-05 1.118066896860e-05 0.0 
1.118066896860e-05 1.585512622176e-03 0.0 
0.0 0.0 0.0 
-5.622350945026e-05 2.655582882434e-05 0.0 
2.655582882434e-05 1.730302047100e-03 0.0 
0.0 0.0 0.0 
6.403185883671e-05 -1.453842724341e-05 0.0 
-1.453842724341e-05 3.671144158396e-04 0.0 
0.0 0.0 0.0 
8.826118555727e-05 8.855934740183e-07 0.0 
8.855934740183e-07 6.018633229328e-04 0.0 
0.0 0.0 0.0 
3.375033523182e-05 -2.145339713037e-05 0.0 
-2.145339713037e-05 2.299308205927e-04 0.0 
0.0 0.0 0.0 
-1.408189587062e-05 2.382062983065e-04 0.0 
2.382062983065e-04 1.598251008501e-03 0.0 
0.0 0.0 0.0 
-1.199659027770e-04 1.528889417663e-04 0.0 
1.528889417663e-04 1.337740155527e-03 0.0 
0.0 0.0 0.0 
1.190079697270e-04 4.003468496070e-05 0.0 
4.003468496070e-05 6.623340941366e-04 0.0 
0.0 0.0 0.0 
8.862416162873e-05 -5.614086832026e-06 0.0 
-5.614086832026e-06 4.930106630293e-04 0.0 
0.0 0.0 0.0 
7.628566200272e-05 -1.615297456372e-05 0.0 
-1.615297456372e-05 3.837928061418e-04 0.0 
0.0 0.0 0.0 
6.677996748461e-05 -1.955561430739e-05 0.0 
-1.955561430739e-05 3.177406045111e-04 0.0 
0.0 0.0 0.0 
2.526905361966e-05 2.144294762549e-04 0.0 
2.144294762549e-04 9.481622039874e-04 0.0 
0.0 0.0 0.0 
1.076332396589e-04 1.509812736081e-05 0.0 
1.509812736081e-05 6.030886140674e-04 0.0 
0.0 0.0 0.0 
9.307040054877e-05 6.489340483704e-05 0.0 
6.489340483704e-05 9.196508977605e-04 0.0 
0.0 0.0 0.0 
-4.866980290362e-05 2.475027926078e-05 0.0 
2.475027926078e-05 1.761230275795e-03 0.0 
0.0 0.0 0.0 
-2.281485373509e-05 -1.031458823957e-05 0.0 
-1.031458823957e-05 5.354935968823e-05 0.0 
0.0 0.0 0.0 
8.879338270773e-05 7.864499107198e-05 0.0 
7.864499107198e-05 9.675654263687e-04 0.0 
0.0 0.0 0.0 
1.075521361645e-04 3.382186401665e-05 0.0 
3.382186401665e-05 7.349246119969e-04 0.0 
0.0 0.0 0.0 
-8.767142002353e-05 3.698047209721e-05 0.0 
3.698047209721e-05 1.630526768793e-03 0.0 
0.0 0.0 0.0 
7.741110231174e-05 1.699912399102e-04 0.0 
1.699912399102e-04 1.110171166629e-03 0.0 
0.0 0.0 0.0 
3.114289614773e-05 -2.428652670047e-05 0.0 
-2.428652670047e-05 2.208384082761e-04 0.0 
0.0 0.0 0.0 
-6.230348627304e-05 4.455618245392e-05 0.0 
4.455618245392e-05 1.749330202498e-03 0.0 
0.0 0.0 0.0 
-4.981913004065e-05 9.102980670245e-05 0.0 
9.102980670245e-05 1.827956232890e-03 0.0 
0.0 0.0 0.0 
-1.015470235227e-04 3.564945247401e-05 0.0 
3.564945247401e-05 1.564583353776e-03 0.0 
0.0 0.0 0.0 
1.903248544255e-05 -2.046482232844e-05 0.0 
-2.046482232844e-05 1.745709741090e-04 0.0 
0.0 0.0 0.0 
-8.059506376908e-05 1.430542987427e-05 0.0 
1.430542987427e-05 1.547939505034e-03 0.0 
0.0 0.0 0.0 
5.613822410196e-05 1.190005064962e-04 0.0 
1.190005064962e-04 1.147877082222e-03 0.0 
0.0 0.0 0.0 
-8.788559338283e-05 8.731835311035e-05 0.0 
8.731835311035e-05 1.715395975348e-03 0.0 
0.0 0.0 0.0 
5.666750017282e-05 -1.407280929845e-05 0.0 
-1.407280929845e-05 3.347048264223e-04 0.0 
0.0 0.0 0.0 
1.209190266667e-04 1.095883152345e-04 0.0 
1.095883152345e-04 7.655392312219e-04 0.0 
0.0 0.0 0.0 
-4.709643529086e-05 2.146335758806e-04 0.0 
2.146335758806e-04 1.148195498965e-03 0.0 
0.0 0.0 0.0 
-1.258936127949e-04 4.284720521077e-05 0.0 
4.284720521077e-05 1.371277822466e-03 0.0 
0.0 0.0 0.0 
-3.465692332472e-05 3.657709802850e-05 0.0 
3.657709802850e-05 1.839143187470e-03 0.0 
0.0 0.0 0.0 
6.004085293058e-05 1.937072877376e-04 0.0 
1.937072877376e-04 9.766087567074e-04 0.0 
0.0 0.0 0.0 
7.502464400004e-05 1.586597848315e-04 0.0 
1.586597848315e-04 1.129052430271e-03 0.0 
0.0 0.0 0.0 
1.091347015282e-04 1.283032855266e-04 0.0 
1.283032855266e-04 9.084320573156e-04 0.0 
0.0 0.0 0.0 
6.025348458349e-05 -1.052762776576e-05 0.0 
-1.052762776576e-05 3.603916048135e-04 0.0 
0.0 0.0 0.0 
7.261307001494e-05 6.896028159720e-05 0.0 
6.896028159720e-05 1.019410714684e-03 0.0 
0.0 0.0 0.0 
1.027263496235e-04 1.511679279533e-04 0.0 
1.511679279533e-04 8.211349788673e-04 0.0 
0.0 0.0 0.0 
-5.052285477769e-05 5.221569069051e-05 0.0 
5.221569069051e-05 1.803129567278e-03 0.0 
0.0 0.0 0.0 
-4.235392752109e-05 2.077993588023e-04 0.0 
2.077993588023e-04 1.427127885915e-03 0.0 
0.0 0.0 0.0 
1.194732458579e-04 1.011023176591e-04 0.0 
1.011023176591e-04 6.158976504357e-04 0.0 
0.0 0.0 0.0 
-6.889707526557e-05 6.853542068408e-05 0.0 
6.853542068408e-05 1.762433448814e-03 0.0 
0.0 0.0 0.0 
1.237508672729e-04 5.888768483450e-05 0.0 
5.888768483450e-05 6.870087919824e-04 0.0 
0.0 0.0 0.0 
6.437282905262e-05 1.852527481171e-04 0.0 
1.852527481171e-04 1.178059390719e-03 0.0 
0.0 0.0 0.0 
-1.110904690575e-04 1.698764726851e-04 0.0 
1.698764726851e-04 1.278605445651e-03 0.0 
0.0 0.0 0.0 
-5.503025650400e-05 2.036452360106e-04 0.0 
2.036452360106e-04 1.324080924481e-03 0.0 
0.0 0.0 0.0 
-9.690506127495e-05 1.642924452051e-04 0.0 
1.642924452051e-04 1.522124572707e-03 0.0 
0.0 0.0 0.0 
2.047384085898e-06 2.133909726387e-04 0.0 
2.133909726387e-04 1.152238152668e-03 0.0 
0.0 0.0 0.0 
8.185937771462e-05 8.283890718458e-06 0.0 
8.283890718458e-06 8.221831123456e-04 0.0 
0.0 0.0 0.0 
8.084210845412e-05 7.413337605111e-05 0.0 
7.413337605111e-05 9.930057351065e-04 0.0 
0.0 0.0 0.0 
4.743904282345e-05 9.793809698376e-06 0.0 
9.793809698376e-06 2.508657239232e-04 0.0 
0.0 0.0 0.0 
2.511331993042e-05 2.158235478529e-04 0.0 
2.158235478529e-04 8.214578802690e-04 0.0 
0.0 0.0 0.0 
-9.708018155028e-05 4.749198266462e-05 0.0 
4.749198266462e-05 1.622520298572e-03 0.0 
0.0 0.0 0.0 
-7.547933619012e-06 2.245702891448e-04 0.0 
2.245702891448e-04 1.454753363064e-03 0.0 
0.0 0.0 0.0 
-3.636917221998e-05 5.918159542406e-05 0.0 
5.918159542406e-05 1.854693073762e-03 0.0 
0.0 0.0 0.0 
-5.092958639643e-05 2.178589966808e-04 0.0 
2.178589966808e-04 1.098065934808e-03 0.0 
0.0 0.0 0.0 
7.824730213923e-05 5.663328856380e-05 0.0 
5.663328856380e-05 9.724155712095e-04 0.0 
0.0 0.0 0.0 
-5.437926862698e-05 7.818278765278e-05 0.0 
7.818278765278e-05 1.812104504620e-03 0.0 
0.0 0.0 0.0 
1.050551778126e-04 1.497848925478e-05 0.0 
1.497848925478e-05 6.286798918534e-04 0.0 
0.0 0.0 0.0 
3.891729637347e-05 -3.253355100856e-06 0.0 
-3.253355100856e-06 2.480658438203e-04 0.0 
0.0 0.0 0.0 
1.904280158549e-05 8.281731256566e-05 0.0 
8.281731256566e-05 2.829863078853e-04 0.0 
0.0 0.0 0.0 
1.080063412811e-04 7.930044716195e-05 0.0 
7.930044716195e-05 4.782814906409e-04 0.0 
0.0 0.0 0.0 
7.785266919791e-05 1.805707314258e-04 0.0 
1.805707314258e-04 8.990129846419e-04 0.0 
0.0 0.0 0.0 
1.053612194165e-04 2.360260173010e-05 0.0 
2.360260173010e-05 6.939849209861e-04 0.0 
0.0 0.0 0.0 
-4.635192822566e-05 1.299014139518e-04 0.0 
1.299014139518e-04 1.825518679094e-03 0.0 
0.0 0.0 0.0 
7.052864081480e-05 5.235278197765e-05 0.0 
5.235278197765e-05 1.000265920672e-03 0.0 
0.0 0.0 0.0 
9.670221371586e-05 1.030379803581e-04 0.0 
1.030379803581e-04 9.734457775427e-04 0.0 
0.0 0.0 0.0 
-9.053756524635e-05 1.383212857581e-04 0.0 
1.383212857581e-04 2.484848429521e-04 0.0 
0.0 0.0 0.0 
-1.327092057502e-04 6.466679060204e-05 0.0 
6.466679060204e-05 1.385179412187e-03 0.0 
0.0 0.0 0.0 
6.256136501096e-05 4.745776405757e-05 0.0 
4.745776405757e-05 1.029284586261e-03 0.0 
0.0 0.0 0.0 
1.219608343978e-04 1.006590067422e-04 0.0 
1.006590067422e-04 7.768564893793e-04 0.0 
0.0 0.0 0.0 
6.526177466056e-05 1.796089269900e-04 0.0 
1.796089269900e-04 1.181608505749e-03 0.0 
0.0 0.0 0.0 
8.747924136706e-05 1.598421249961e-06 0.0 
1.598421249961e-06 6.506269064026e-04 0.0 
0.0 0.0 0.0 
-7.453073896158e-06 2.408862651272e-04 0.0 
2.408862651272e-04 1.560569132755e-03 0.0 
0.0 0.0 0.0 
-1.311947913007e-04 1.141601756067e-04 0.0 
1.141601756067e-04 1.222668644958e-03 0.0 
0.0 0.0 0.0 
5.429873813974e-05 4.191232541807e-05 0.0 
4.191232541807e-05 1.060114582193e-03 0.0 
0.0 0.0 0.0 
9.485983762895e-05 1.253802349673e-04 0.0 
1.253802349673e-04 1.009417386473e-03 0.0 
0.0 0.0 0.0 
7.994704794845e-05 1.629358335727e-04 0.0 
1.629358335727e-04 6.185518492490e-04 0.0 
0.0 0.0 0.0 
-7.071264162082e-05 7.265288393251e-07 0.0 
7.265288393251e-07 1.431659555476e-03 0.0 
0.0 0.0 0.0 
3.519070321218e-05 4.674043335443e-05 0.0 
4.674043335443e-05 1.146428092086e-03 0.0 
0.0 0.0 0.0 
8.016176327071e-05 1.363667621805e-04 0.0 
1.363667621805e-04 1.086077557062e-03 0.0 
0.0 0.0 0.0 
2.459078831285e-06 2.124088781831e-04 0.0 
2.124088781831e-04 1.210690457884e-03 0.0 
0.0 0.0 0.0 
1.250839861968e-04 8.221232850013e-05 0.0 
8.221232850013e-05 7.206375593484e-04 0.0 
0.0 0.0 0.0 
-1.276172328122e-04 5.252787543323e-05 0.0 
5.252787543323e-05 1.302025426646e-03 0.0 
0.0 0.0 0.0 
1.014098439459e-04 2.277364387478e-05 0.0 
2.277364387478e-05 7.203895367351e-04 0.0 
0.0 0.0 0.0 
-6.793228250810e-05 1.957981143065e-04 0.0 
1.957981143065e-04 1.391947736209e-03 0.0 
0.0 0.0 0.0 
-2.009846923514e-05 1.095520225335e-04 0.0 
1.095520225335e-04 1.892509799508e-03 0.0 
0.0 0.0 0.0 
6.942500524791e-05 1.524137275888e-04 0.0 
1.524137275888e-04 1.142509728512e-03 0.0 
0.0 0.0 0.0 
-1.137787034866e-04 9.631403438838e-05 0.0 
9.631403438838e-05 1.606523310457e-03 0.0 
0.0 0.0 0.0 
9.904211836109e-05 1.478707762480e-05 0.0 
1.478707762480e-05 6.814508041063e-04 0.0 
0.0 0.0 0.0 
6.194057449327e-05 1.905219158046e-04 0.0 
1.905219158046e-04 1.105914530080e-03 0.0 
0.0 0.0 0.0 
1.567395797786e-05 -1.080746575107e-05 0.0 
-1.080746575107e-05 1.315320950046e-04 0.0 
0.0 0.0 0.0 
-1.348553450337e-04 8.227096698270e-05 0.0 
8.227096698270e-05 1.309918565043e-03 0.0 
0.0 0.0 0.0 
9.571475380536e-05 1.442016620043e-05 0.0 
1.442016620043e-05 7.084583500492e-04 0.0 
0.0 0.0 0.0 
1.134972998658e-04 6.700899084052e-05 0.0 
6.700899084052e-05 4.891210674310e-04 0.0 
0.0 0.0 0.0 
1.237166796456e-04 7.549479196403e-05 0.0 
7.549479196403e-05 7.369238455083e-04 0.0 
0.0 0.0 0.0 
2.843987081202e-05 2.242892012348e-04 0.0 
2.242892012348e-04 1.380336318347e-03 0.0 
0.0 0.0 0.0 
9.231096651330e-05 1.374416175621e-05 0.0 
1.374416175621e-05 7.360602352102e-04 0.0 
0.0 0.0 0.0 
1.202218775219e-04 7.860615664293e-05 0.0 
7.860615664293e-05 5.567239824776e-04 0.0 
0.0 0.0 0.0 
8.886022266004e-05 1.259842205280e-05 0.0 
1.259842205280e-05 7.640672102116e-04 0.0 
0.0 0.0 0.0 
-1.260365961878e-04 7.092338810595e-05 0.0 
7.092338810595e-05 1.230513647949e-03 0.0 
0.0 0.0 0.0 
-1.098607924673e-04 1.143078080532e-04 0.0 
1.143078080532e-04 1.615546244825e-03 0.0 
0.0 0.0 0.0 
8.553729473578e-05 1.064633287825e-05 0.0 
1.064633287825e-05 7.922629213007e-04 0.0 
0.0 0.0 0.0 
-5.982392394921e-05 1.990475459703e-04 0.0 
1.990475459703e-04 1.441221335209e-03 0.0 
0.0 0.0 0.0 
1.263048505115e-05 -1.642448984076e-05 0.0 
-1.642448984076e-05 1.401654868101e-04 0.0 
0.0 0.0 0.0 
1.993033909113e-05 2.098569494964e-04 0.0 
2.098569494964e-04 1.194576848824e-03 0.0 
0.0 0.0 0.0 
5.298035410850e-05 1.368767098424e-05 0.0 
1.368767098424e-05 1.038498146457e-03 0.0 
0.0 0.0 0.0 
9.607164678453e-05 -3.346604781121e-06 0.0 
-3.346604781121e-06 4.550009880100e-04 0.0 
0.0 0.0 0.0 
1.212665295044e-04 7.008742452379e-05 0.0 
7.008742452379e-05 7.556708385605e-04 0.0 
0.0 0.0 0.0 
-9.697851327728e-05 1.276192191242e-04 0.0 
1.276192191242e-04 1.662927833686e-03 0.0 
0.0 0.0 0.0 
-1.219898947767e-04 1.018425761204e-04 0.0 
1.018425761204e-04 1.150173635445e-03 0.0 
0.0 0.0 0.0 
1.159968504777e-04 8.108378763128e-05 0.0 
8.108378763128e-05 8.261110635880e-04 0.0 
0.0 0.0 0.0 
-5.129899322385e-05 2.039166481664e-04 0.0 
2.039166481664e-04 1.491870251456e-03 0.0 
0.0 0.0 0.0 
3.469768270248e-05 2.060867154131e-04 0.0 
2.060867154131e-04 1.183345063678e-03 0.0 
0.0 0.0 0.0 
7.338328743419e-05 1.833909346225e-04 0.0 
1.833909346225e-04 9.678544157836e-04 0.0 
0.0 0.0 0.0 
1.079549338317e-04 9.210576118605e-05 0.0 
9.210576118605e-05 8.987359377764e-04 0.0 
0.0 0.0 0.0 
-1.147248033203e-04 1.619954433521e-04 0.0 
1.619954433521e-04 1.105989140144e-03 0.0 
0.0 0.0 0.0 
6.260318666303e-05 -2.154631202682e-05 0.0 
-2.154631202682e-05 3.267338218415e-04 0.0 
0.0 0.0 0.0 
4.678191443652e-05 -2.539777542843e-05 0.0 
-2.539777542843e-05 2.713816114975e-04 0.0 
0.0 0.0 0.0 
1.230138665088e-04 6.842672380563e-05 0.0 
6.842672380563e-05 5.694795928272e-04 0.0 
0.0 0.0 0.0 
-5.692476190281e-05 1.997549162746e-04 0.0 
1.997549162746e-04 1.553186721301e-03 0.0 
0.0 0.0 0.0 
2.515252550028e-05 -7.682997682655e-06 0.0 
-7.682997682655e-06 1.792744268979e-04 0.0 
0.0 0.0 0.0 
-9.443930764937e-05 1.504849168369e-04 0.0 
1.504849168369e-04 1.620972296698e-03 0.0 
0.0 0.0 0.0 
2.061838221523e-05 -2.859428044452e-05 0.0 
-2.859428044452e-05 1.957094417499e-04 0.0 
0.0 0.0 0.0 
1.193040787751e-04 4.833261322254e-05 0.0 
4.833261322254e-05 5.185337644174e-04 0.0 
0.0 0.0 0.0 
4.053395030412e-05 2.067964882106e-04 0.0 
2.067964882106e-04 1.246674824621e-03 0.0 
0.0 0.0 0.0 
-6.112303816961e-05 9.001080852159e-07 0.0 
9.001080852159e-07 1.600257344235e-03 0.0 
0.0 0.0 0.0 
1.202191864330e-04 4.153562491617e-05 0.0 
4.153562491617e-05 5.357117120798e-04 0.0 
0.0 0.0 0.0 
4.920939591913e-05 -2.880314428763e-06 0.0 
-2.880314428763e-06 3.046990521890e-04 0.0 
0.0 0.0 0.0 
1.135524294022e-04 2.469967894098e-05 0.0 
2.469967894098e-05 4.909871896422e-04 0.0 
0.0 0.0 0.0 
6.809101874261e-05 1.864565105683e-04 0.0 
1.864565105683e-04 1.036585215282e-03 0.0 
0.0 0.0 0.0 
1.136002960015e-04 2.098278681705e-05 0.0 
2.098278681705e-05 5.113644115367e-04 0.0 
0.0 0.0 0.0 
1.052813288558e-04 7.795424058585e-06 0.0 
7.795424058585e-06 4.711213074564e-04 0.0 
0.0 0.0 0.0 
-2.609109605841e-05 3.296175722649e-05 0.0 
3.296175722649e-05 1.869772912357e-03 0.0 
0.0 0.0 0.0 
1.051188265417e-04 6.493865756073e-06 0.0 
6.493865756073e-06 4.930251006960e-04 0.0 
0.0 0.0 0.0 
-1.072598795685e-05 9.283231295775e-06 0.0 
9.283231295775e-06 1.922575050488e-03 0.0 
0.0 0.0 0.0 
1.799268656406e-05 1.519525512070e-05 0.0 
1.519525512070e-05 1.202842525766e-03 0.0 
0.0 0.0 0.0 
-6.829722047836e-05 -5.984406514923e-08 0.0 
-5.984406514923e-08 1.478756519757e-03 0.0 
0.0 0.0 0.0 
-1.097351893179e-04 1.416064051192e-04 0.0 
1.416064051192e-04 1.042494811534e-03 0.0 
0.0 0.0 0.0 
-1.013970174916e-04 1.161469566140e-06 0.0 
1.161469566140e-06 8.788517468832e-05 0.0 
0.0 0.0 0.0 
-7.089274102792e-05 2.081062574090e-04 0.0 
2.081062574090e-04 9.080548388627e-04 0.0 
0.0 0.0 0.0 
8.493668267059e-05 -1.169672343362e-05 0.0 
-1.169672343362e-05 3.966406190159e-04 0.0 
0.0 0.0 0.0 
-8.490842701018e-05 1.731988897726e-04 0.0 
1.731988897726e-04 1.567327017328e-03 0.0 
0.0 0.0 0.0 
-6.869807805312e-05 1.806626317817e-06 0.0 
1.806626317817e-06 1.481587004356e-03 0.0 
0.0 0.0 0.0 
7.373647181441e-05 -1.770703505735e-05 0.0 
-1.770703505735e-05 3.615943160450e-04 0.0 
0.0 0.0 0.0 
-4.090004345255e-05 1.911178362182e-04 0.0 
1.911178362182e-04 1.751949597880e-03 0.0 
0.0 0.0 0.0 
1.887590929598e-06 2.551424636639e-04 0.0 
2.551424636639e-04 1.559931370416e-03 0.0 
0.0 0.0 0.0 
-5.274704685759e-05 5.939992887861e-06 0.0 
5.939992887861e-06 1.686868677724e-03 0.0 
0.0 0.0 0.0 
6.254544373089e-05 1.743942480112e-04 0.0 
1.743942480112e-04 1.188387859583e-03 0.0 
0.0 0.0 0.0 
4.634850957756e-05 2.013797380324e-04 0.0 
2.013797380324e-04 1.178076899830e-03 0.0 
0.0 0.0 0.0 
-3.173850942804e-05 4.269277416433e-06 0.0 
4.269277416433e-06 1.822430852111e-03 0.0 
0.0 0.0 0.0 
-7.621405972082e-05 9.509370102291e-07 0.0 
9.509370102291e-07 1.429558828829e-03 0.0 
0.0 0.0 0.0 
-2.337590291224e-05 -2.147615898818e-05 0.0 
-2.147615898818e-05 9.394642433513e-05 0.0 
0.0 0.0 0.0 
7.774060993278e-05 4.648079033178e-06 0.0 
4.648079033178e-06 8.572273080865e-04 0.0 
0.0 0.0 0.0 
-9.971320509530e-05 1.846763204488e-04 0.0 
1.846763204488e-04 8.375153782337e-04 0.0 
0.0 0.0 0.0 
-4.582599369198e-05 1.990997350651e-04 0.0 
1.990997350651e-04 6.843669083325e-04 0.0 
0.0 0.0 0.0 
-3.836439312060e-05 1.724993042725e-04 0.0 
1.724993042725e-04 4.861930719738e-04 0.0 
0.0 0.0 0.0 
6.244253527173e-05 -7.460063275144e-06 0.0 
-7.460063275144e-06 3.805813394833e-04 0.0 
0.0 0.0 0.0 
-1.123353463160e-05 -2.712485750740e-05 0.0 
-2.712485750740e-05 1.431010659255e-04 0.0 
0.0 0.0 0.0 
-8.942596138689e-05 1.871688643439e-04 0.0 
1.871688643439e-04 6.381404666581e-04 0.0 
0.0 0.0 0.0 
3.671274953809e-05 1.987263574244e-04 0.0 
1.987263574244e-04 1.313554885293e-03 0.0 
0.0 0.0 0.0 
-8.828521148703e-05 1.133382875121e-05 0.0 
1.133382875121e-05 1.489320908157e-03 0.0 
0.0 0.0 0.0 
2.670221108425e-05 2.149063395605e-04 0.0 
2.149063395605e-04 1.313570006958e-03 0.0 
0.0 0.0 0.0 
-9.060075756971e-05 1.726525929059e-04 0.0 
1.726525929059e-04 4.371419445061e-04 0.0 
0.0 0.0 0.0 
-3.778888723971e-05 8.667749905243e-05 0.0 
8.667749905243e-05 1.858528092838e-03 0.0 
0.0 0.0 0.0 
1.468837089961e-05 2.367483175104e-04 0.0 
2.367483175104e-04 1.450229819447e-03 0.0 
0.0 0.0 0.0 
1.934014989709e-05 8.812421930327e-05 0.0 
8.812421930327e-05 1.237818549158e-03 0.0 
0.0 0.0 0.0 
2.187515954751e-05 2.234124471102e-04 0.0 
2.234124471102e-04 1.378464103799e-03 0.0 
0.0 0.0 0.0 
-4.193431755097e-05 1.299887422721e-04 0.0 
1.299887422721e-04 3.078331667743e-04 0.0 
0.0 0.0 0.0 
-1.067946636086e-04 3.639010299305e-05 0.0 
3.639010299305e-05 1.539300100765e-03 0.0 
0.0 0.0 0.0 
-2.126655321651e-05 2.322234042067e-04 0.0 
2.322234042067e-04 1.632663545440e-03 0.0 
0.0 0.0 0.0 
-4.801408604653e-05 1.056066555291e-05 0.0 
1.056066555291e-05 1.732919971095e-03 0.0 
0.0 0.0 0.0 
1.797284361005e-05 7.063251614689e-05 0.0 
7.063251614689e-05 1.230689482678e-03 0.0 
0.0 0.0 0.0 
-9.762752392990e-05 1.769373400639e-05 0.0 
1.769373400639e-05 1.483071901392e-03 0.0 
0.0 0.0 0.0 
-2.163818110137e-05 2.170338020429e-05 0.0 
2.170338020429e-05 1.877993343223e-03 0.0 
0.0 0.0 0.0 
3.055975695772e-05 -7.001733205180e-06 0.0 
-7.001733205180e-06 2.141774602866e-04 0.0 
0.0 0.0 0.0 
-2.017403999999e-05 1.138330268232e-05 0.0 
1.138330268232e-05 1.879145283345e-03 0.0 
0.0 0.0 0.0 
-7.165442743255e-05 1.827523869180e-04 0.0 
1.827523869180e-04 1.614080466599e-03 0.0 
0.0 0.0 0.0 
-6.879769930461e-05 8.089386738096e-06 0.0 
8.089386738096e-06 1.558515881034e-03 0.0 
0.0 0.0 0.0 
-1.177818328040e-04 5.301325565339e-05 0.0 
5.301325565339e-05 1.530614163457e-03 0.0 
0.0 0.0 0.0 
2.948096904765e-05 2.347073799058e-05 0.0 
2.347073799058e-05 1.153186660528e-03 0.0 
0.0 0.0 0.0 
-4.491841920711e-05 1.629890463830e-04 0.0 
1.629890463830e-04 1.795054734892e-03 0.0 
0.0 0.0 0.0 
-4.522277117130e-05 9.949130542549e-05 0.0 
9.949130542549e-05 2.243109407844e-04 0.0 
0.0 0.0 0.0 
-5.434120490404e-05 9.958221302973e-06 0.0 
9.958221302973e-06 1.683894995276e-03 0.0 
0.0 0.0 0.0 
7.847795247682e-05 -5.740291853415e-06 0.0 
-5.740291853415e-06 4.803660023776e-04 0.0 
0.0 0.0 0.0 
-5.603493862696e-05 -1.343777484375e-05 0.0 
-1.343777484375e-05 1.083251481877e-04 0.0 
0.0 0.0 0.0 
3.959787574588e-05 1.044015713171e-04 0.0 
1.044015713171e-04 1.183917689387e-03 0.0 
0.0 0.0 0.0 
-5.702455568379e-05 1.924017450529e-04 0.0 
1.924017450529e-04 1.658915808564e-03 0.0 
0.0 0.0 0.0 
3.123631377360e-05 3.949659135537e-05 0.0 
3.949659135537e-05 1.152268082167e-03 0.0 
0.0 0.0 0.0 
1.673770214383e-05 -2.231029035219e-06 0.0 
-2.231029035219e-06 1.293468333752e-04 0.0 
0.0 0.0 0.0 
-1.510496750539e-05 -1.749265800227e-05 0.0 
-1.749265800227e-05 8.445509151400e-05 0.0 
0.0 0.0 0.0 
3.859723051227e-05 1.284820770502e-04 0.0 
1.284820770502e-04 1.217169262636e-03 0.0 
0.0 0.0 0.0 
-3.230204056600e-05 2.149985493283e-04 0.0 
2.149985493283e-04 1.706527127726e-03 0.0 
0.0 0.0 0.0 
3.992476777274e-05 -1.082951195177e-05 0.0 
-1.082951195177e-05 2.380739760675e-04 0.0 
0.0 0.0 0.0 
-1.489021053720e-05 7.486780210122e-05 0.0 
7.486780210122e-05 1.916614167858e-03 0.0 
0.0 0.0 0.0 
-6.607536053558e-05 7.136151352920e-05 0.0 
7.136151352920e-05 1.491405402868e-04 0.0 
0.0 0.0 0.0 
-8.116294996146e-05 3.341112313669e-06 0.0 
3.341112313669e-06 1.424683145283e-03 0.0 
0.0 0.0 0.0 
-1.897067744653e-06 -1.292576470602e-05 0.0 
-1.292576470602e-05 8.265152041342e-05 0.0 
0.0 0.0 0.0 
1.695376412267e-05 5.174538490646e-05 0.0 
5.174538490646e-05 1.222632770499e-03 0.0 
0.0 0.0 0.0 
-2.820761321416e-05 5.491185773079e-05 0.0 
5.491185773079e-05 1.875755301934e-03 0.0 
0.0 0.0 0.0 
8.205795693961e-05 -1.266333084735e-06 0.0 
-1.266333084735e-06 5.329159074718e-04 0.0 
0.0 0.0 0.0 
-1.161426308266e-04 3.193015620688e-05 0.0 
3.193015620688e-05 1.440197610106e-03 0.0 
0.0 0.0 0.0 
5.566968882172e-05 -5.339601502896e-06 0.0 
-5.339601502896e-06 3.434130959054e-04 0.0 
0.0 0.0 0.0 
-4.679749802738e-06 2.340730243100e-04 0.0 
2.340730243100e-04 1.499500280979e-03 0.0 
0.0 0.0 0.0 
-9.093387885684e-06 -2.637029368758e-05 0.0 
-2.637029368758e-05 1.307823166651e-04 0.0 
0.0 0.0 0.0 
-2.399217406857e-05 3.943147905816e-05 0.0 
3.943147905816e-05 1.883453249751e-03 0.0 
0.0 0.0 0.0 
3.803422426598e-05 1.538671769057e-04 0.0 
1.538671769057e-04 1.249607102953e-03 0.0 
0.0 0.0 0.0 
-3.924756716676e-05 1.213782591767e-04 0.0 
1.213782591767e-04 1.848037684256e-03 0.0 
0.0 0.0 0.0 
1.248068887105e-05 2.353511225608e-04 0.0 
2.353511225608e-04 1.446117693582e-03 0.0 
0.0 0.0 0.0 
-6.065139364284e-05 1.717422348340e-05 0.0 
1.717422348340e-05 1.165599342545e-04 0.0 
0.0 0.0 0.0 
6.502800889052e-06 2.439109140892e-04 0.0 
2.439109140892e-04 1.499575390959e-03 0.0 
0.0 0.0 0.0 
5.555159999502e-05 1.635880109828e-04 0.0 
1.635880109828e-04 1.206261974526e-03 0.0 
0.0 0.0 0.0 
-7.361673441768e-05 2.310802896350e-06 0.0 
2.310802896350e-06 1.427944841369e-03 0.0 
0.0 0.0 0.0 
-4.312773045683e-05 1.440805664153e-04 0.0 
1.440805664153e-04 1.820147990763e-03 0.0 
0.0 0.0 0.0 
6.951627782308e-05 -5.288607259348e-06 0.0 
-5.288607259348e-06 4.271414904969e-04 0.0 
0.0 0.0 0.0 
2.257268538743e-05 -1.665985600096e-05 0.0 
-1.665985600096e-05 1.777738701669e-04 0.0 
0.0 0.0 0.0 
-8.518012346381e-06 4.166104703195e-06 0.0 
4.166104703195e-06 1.928587074509e-03 0.0 
0.0 0.0 0.0 
1.550179282184e-06 -8.729041352460e-07 0.0 
-8.729041352460e-07 2.795249438292e-05 0.0 
0.0 0.0 0.0 
-6.998211389777e-05 -3.806164458201e-07 0.0 
-3.806164458201e-07 1.422318862356e-03 0.0 
0.0 0.0 0.0 
1.362071196351e-05 8.069456169549e-06 0.0 
8.069456169549e-06 1.218604549187e-03 0.0 
0.0 0.0 0.0 
2.341198706888e-05 -1.005130209762e-05 0.0 
-1.005130209762e-05 1.682421849323e-04 0.0 
0.0 0.0 0.0 
-6.646588845172e-05 1.546892483768e-06 0.0 
1.546892483768e-06 1.524382154213e-03 0.0 
0.0 0.0 0.0 
-3.502905495234e-05 2.045604144844e-04 0.0 
2.045604144844e-04 1.735272831341e-03 0.0 
0.0 0.0 0.0 
8.634608360591e-05 1.091566982174e-06 0.0 
1.091566982174e-06 6.674115386534e-04 0.0 
0.0 0.0 0.0 
-3.734920768974e-05 6.563103853679e-06 0.0 
6.563103853679e-06 1.790171189297e-03 0.0 
0.0 0.0 0.0 
9.009215718292e-06 -2.660006818659e-05 0.0 
-2.660006818659e-05 1.769922297732e-04 0.0 
0.0 0.0 0.0 
-1.046503097612e-04 -7.214458378930e-06 0.0 
-7.214458378930e-06 7.787178200891e-05 0.0 
0.0 0.0 0.0 
-5.858631482940e-05 3.341004117373e-06 0.0 
3.341004117373e-06 1.632078852538e-03 0.0 
0.0 0.0 0.0 
1.906902173725e-05 2.347760463555e-04 0.0 
2.347760463555e-04 1.430456887301e-03 0.0 
0.0 0.0 0.0 
-3.492246541366e-05 9.801158936885e-05 0.0 
9.801158936885e-05 1.866392979311e-03 0.0 
0.0 0.0 0.0 
-6.539361869369e-05 8.505331475375e-06 0.0 
8.505331475375e-06 1.591403484338e-03 0.0 
0.0 0.0 0.0 
-1.153628382538e-05 7.818842385009e-05 0.0 
7.818842385009e-05 2.407443452520e-04 0.0 
0.0 0.0 0.0 
-4.464400846653e-05 2.023860771155e-04 0.0 
2.023860771155e-04 1.694302761733e-03 0.0 
0.0 0.0 0.0 
8.601301675519e-05 -3.504614844610e-07 0.0 
-3.504614844610e-07 5.791022822823e-04 0.0 
0.0 0.0 0.0 
-2.414322521760e-05 2.282879532442e-04 0.0 
2.282879532442e-04 1.579551468800e-03 0.0 
0.0 0.0 0.0 
4.917161786504e-05 1.844872640018e-04 0.0 
1.844872640018e-04 1.251454176644e-03 0.0 
0.0 0.0 0.0 
-9.430621954394e-05 7.877057692757e-05 0.0 
7.877057692757e-05 1.022926881195e-04 0.0 
0.0 0.0 0.0 
8.575397552084e-05 1.891173659893e-06 0.0 
1.891173659893e-06 7.240491542249e-04 0.0 
0.0 0.0 0.0 
-9.352271599616e-06 -1.409547593435e-05 0.0 
-1.409547593435e-05 7.925610868305e-05 0.0 
0.0 0.0 0.0 
3.201179071670e-05 7.698464981021e-05 0.0 
7.698464981021e-05 1.183386175106e-03 0.0 
0.0 0.0 0.0 
8.604984516785e-05 1.670525076613e-07 0.0 
1.670525076613e-07 6.062340661746e-04 0.0 
0.0 0.0 0.0 
-5.870833381022e-05 3.207586754154e-05 0.0 
3.207586754154e-05 1.080481922805e-03 0.0 
0.0 0.0 0.0 
-7.645611387241e-05 9.799558548684e-07 0.0 
9.799558548684e-07 1.088513349456e-03 0.0 
0.0 0.0 0.0 
-8.213423033523e-05 3.321173441828e-05 0.0 
3.321173441828e-05 1.143017678885e-03 0.0 
0.0 0.0 0.0 
-7.186736217682e-05 -6.314860618404e-07 0.0 
-6.314860618404e-07 1.154133443837e-03 0.0 
0.0 0.0 0.0 
-9.804423642132e-05 2.645462340383e-05 0.0 
2.645462340383e-05 1.211848239862e-03 0.0 
0.0 0.0 0.0 
-7.100595656045e-05 -7.183093358075e-07 0.0 
-7.183093358075e-07 1.214716290924e-03 0.0 
0.0 0.0 0.0 
-1.075450150561e-04 2.111739247421e-05 0.0 
2.111739247421e-05 1.280144821142e-03 0.0 
0.0 0.0 0.0 
-7.091163737599e-05 -3.753516541343e-07 0.0 
-3.753516541343e-07 1.282824760948e-03 0.0 
0.0 0.0 0.0 
-1.109548912929e-04 1.926923027377e-05 0.0 
1.926923027377e-05 1.346342020541e-03 0.0 
0.0 0.0 0.0 
-7.123775886506e-05 6.154911849343e-07 0.0 
6.154911849343e-07 1.343478434616e-03 0.0 
0.0 0.0 0.0 

TENSORS node_materi_strain_plasti float
-2.612663767757e-06 -3.252607646113e-07 0.0 
-3.252607646113e-07 2.093720605042e-05 0.0 
0.0 0.0 -4.924303274428e-06 
-1.079056608654e-04 -1.683663743376e-05 0.0 
-1.683663743376e-05 6.796608024097e-04 0.0 
0.0 0.0 -1.043867513459e-04 
-1.990082416844e-04 1.461466422752e-05 0.0 
1.461466422752e-05 1.338163054070e-03 0.0 
0.0 0.0 -1.998931639748e-04 
-1.992789450115e-04 -1.457804817178e-05 0.0 
-1.457804817178e-05 1.339096739606e-03 0.0 
0.0 0.0 -1.998931639748e-04 
-1.229078891716e-05 5.366280014175e-06 0.0 
5.366280014175e-06 5.053145956954e-05 0.0 
0.0 0.0 -1.268018299698e-05 
-2.543886988905e-05 1.901414525611e-05 0.0 
1.901414525611e-05 1.267844857367e-04 0.0 
0.0 0.0 -2.428620303623e-05 
-3.444505010393e-05 1.562750611400e-05 0.0 
1.562750611400e-05 1.836714106930e-04 0.0 
0.0 0.0 -3.399136149544e-05 
-4.457783022682e-05 1.417525000785e-05 0.0 
1.417525000785e-05 2.618842628781e-04 0.0 
0.0 0.0 -4.406465996183e-05 
-5.572937533165e-05 1.046680884978e-05 0.0 
1.046680884978e-05 3.321775894220e-04 0.0 
0.0 0.0 -5.415704333790e-05 
-6.374532394610e-05 9.877096268524e-06 0.0 
9.877096268524e-06 3.996726964643e-04 0.0 
0.0 0.0 -6.415842296661e-05 
-7.312975922456e-05 1.092726545402e-05 0.0 
1.092726545402e-05 4.685103703879e-04 0.0 
0.0 0.0 -7.410179773499e-05 
-8.340975388222e-05 9.760341255261e-06 0.0 
9.760341255261e-06 5.380090096821e-04 0.0 
0.0 0.0 -8.402736785582e-05 
-9.329317044903e-05 9.748725627981e-06 0.0 
9.748725627981e-06 6.067337971893e-04 0.0 
0.0 0.0 -9.400794208654e-05 
-1.048395173574e-04 1.245666822366e-05 0.0 
1.245666822366e-05 6.774763461161e-04 0.0 
0.0 0.0 -1.040542782181e-04 
-1.176369272068e-04 1.876149311443e-05 0.0 
1.876149311443e-05 7.541898349339e-04 0.0 
0.0 0.0 -1.141079629734e-04 
-1.251371721908e-04 1.991670015406e-05 0.0 
1.991670015406e-05 8.235151932197e-04 0.0 
0.0 0.0 -1.240613786258e-04 
-1.319668018372e-04 2.596472290694e-05 0.0 
2.596472290694e-05 8.806369836317e-04 0.0 
0.0 0.0 -1.335504265687e-04 
-1.429595426911e-04 1.016247294305e-05 0.0 
1.016247294305e-05 9.540683438175e-04 0.0 
0.0 0.0 -1.433712649586e-04 
-1.532202596459e-04 9.657610282115e-06 0.0 
9.657610282115e-06 1.025836369529e-03 0.0 
0.0 0.0 -1.536785213545e-04 
-1.630955816410e-04 9.924116732642e-06 0.0 
9.924116732642e-06 1.095392565861e-03 0.0 
0.0 0.0 -1.636867096734e-04 
-1.736417197982e-04 9.148824907428e-06 0.0 
9.148824907428e-06 1.166298828267e-03 0.0 
0.0 0.0 -1.737495185000e-04 
-1.844935295981e-04 1.136666883781e-05 0.0 
1.136666883781e-05 1.237760949854e-03 0.0 
0.0 0.0 -1.839110754151e-04 
-1.928395893447e-04 1.466620459946e-05 0.0 
1.466620459946e-05 1.307601711888e-03 0.0 
0.0 0.0 -1.934749151625e-04 
-1.992084498245e-04 -9.667205419172e-07 0.0 
-9.667205419172e-07 1.341308611164e-03 0.0 
0.0 0.0 -2.005353038101e-04 
-2.003235822205e-04 -4.576902611969e-07 0.0 
-4.576902611969e-07 1.339283177977e-03 0.0 
0.0 0.0 -1.999418651152e-04 
-2.004195521241e-04 -9.594112326717e-06 0.0 
-9.594112326717e-06 1.337828695600e-03 0.0 
0.0 0.0 -2.002354755130e-04 
-2.008845907091e-04 4.519063874005e-06 0.0 
4.519063874005e-06 1.338578482993e-03 0.0 
0.0 0.0 -2.001689849711e-04 
-2.005719087583e-04 -1.259819984252e-06 0.0 
-1.259819984252e-06 1.336698736025e-03 0.0 
0.0 0.0 -1.998101597465e-04 
-2.003033749392e-04 1.612771953849e-07 0.0 
1.612771953849e-07 1.336699884288e-03 0.0 
0.0 0.0 -2.002576402756e-04 
-1.988174270910e-04 4.435871277180e-07 0.0 
4.435871277180e-07 1.338020991228e-03 0.0 
0.0 0.0 -2.002582685247e-04 
-2.006018029555e-04 -1.428553602928e-06 0.0 
-1.428553602928e-06 1.338259915715e-03 0.0 
0.0 0.0 -2.000295381545e-04 
-2.002076965602e-04 -6.442142530929e-06 0.0 
-6.442142530929e-06 1.339568721789e-03 0.0 
0.0 0.0 -2.004389858384e-04 
-2.006688150029e-04 4.111887006866e-06 0.0 
4.111887006866e-06 1.340190933063e-03 0.0 
0.0 0.0 -2.003568725688e-04 
-2.004204281591e-04 -1.032720327526e-06 0.0 
-1.032720327526e-06 1.338293566306e-03 0.0 
0.0 0.0 -1.999970921405e-04 
-2.007190085647e-04 -7.221768717101e-07 0.0 
-7.221768717101e-07 1.338675392550e-03 0.0 
0.0 0.0 -2.003793839065e-04 
-1.990986785052e-04 -1.590259053493e-08 0.0 
-1.590259053493e-08 1.341350099485e-03 0.0 
0.0 0.0 -2.004146187826e-04 
-2.007914892723e-04 -4.264335361638e-07 0.0 
-4.264335361638e-07 1.339816171211e-03 0.0 
0.0 0.0 -2.002852565091e-04 
-1.994100966532e-04 -1.572894639505e-06 0.0 
-1.572894639505e-06 1.338161131957e-03 0.0 
0.0 0.0 -2.001446319728e-04 
-2.007511256741e-04 1.494960023589e-06 0.0 
1.494960023589e-06 1.335513206817e-03 0.0 
0.0 0.0 -1.998462653075e-04 
-2.008601944157e-04 -3.837724735002e-07 0.0 
-3.837724735002e-07 1.334384440132e-03 0.0 
0.0 0.0 -1.998029376683e-04 
-1.990688471561e-04 2.458886044847e-07 0.0 
2.458886044847e-07 1.337655076969e-03 0.0 
0.0 0.0 -2.000088186226e-04 
-2.001853082778e-04 -6.402158915262e-07 0.0 
-6.402158915262e-07 1.339281899659e-03 0.0 
0.0 0.0 -2.002091174222e-04 
-2.005241707287e-04 -7.501540653690e-07 0.0 
-7.501540653690e-07 1.339203182872e-03 0.0 
0.0 0.0 -2.004865334549e-04 
-2.005853306472e-04 2.540125145858e-06 0.0 
2.540125145858e-06 1.339503555012e-03 0.0 
0.0 0.0 -2.003832587333e-04 
-1.997808965748e-04 -1.605993664682e-07 0.0 
-1.605993664682e-07 1.339666309980e-03 0.0 
0.0 0.0 -2.002174839672e-04 
-2.003075530794e-04 4.838064349887e-07 0.0 
4.838064349887e-07 1.338766324707e-03 0.0 
0.0 0.0 -2.002580803729e-04 
-2.003470639015e-04 -2.444069971791e-07 0.0 
-2.444069971791e-07 1.338072796155e-03 0.0 
0.0 0.0 -2.002440284024e-04 
-2.004510673748e-04 -1.928377971683e-07 0.0 
-1.928377971683e-07 1.340065919944e-03 0.0 
0.0 0.0 -2.002334986692e-04 
-1.995883615915e-04 -7.312419057630e-07 0.0 
-7.312419057630e-07 1.340320439837e-03 0.0 
0.0 0.0 -2.003661129950e-04 
-2.011747927060e-04 -8.722415594416e-07 0.0 
-8.722415594416e-07 1.340079435223e-03 0.0 
0.0 0.0 -2.004908485340e-04 
-1.995361419384e-04 -6.780112919620e-07 0.0 
-6.780112919620e-07 1.340717740891e-03 0.0 
0.0 0.0 -2.004762665914e-04 
-2.008009995012e-04 -8.793815483885e-07 0.0 
-8.793815483885e-07 1.341377617168e-03 0.0 
0.0 0.0 -2.003014926434e-04 
-2.004900975472e-04 -5.374113392905e-06 0.0 
-5.374113392905e-06 1.342707157093e-03 0.0 
0.0 0.0 -2.006997735404e-04 
-2.011614755125e-04 5.177742394411e-06 0.0 
5.177742394411e-06 1.341994191491e-03 0.0 
0.0 0.0 -2.005870641008e-04 
-2.001672680472e-04 1.642921574497e-06 0.0 
1.642921574497e-06 1.338462129955e-03 0.0 
0.0 0.0 -2.000675234999e-04 
-1.999895739659e-04 -6.988816100715e-09 0.0 
-6.988816100715e-09 1.336248125534e-03 0.0 
0.0 0.0 -2.001823097425e-04 
-2.001225026340e-04 -1.240829705364e-06 0.0 
-1.240829705364e-06 1.339474803775e-03 0.0 
0.0 0.0 -2.001929620191e-04 
-1.997428951088e-04 -2.864922555171e-07 0.0 
-2.864922555171e-07 1.339287980767e-03 0.0 
0.0 0.0 -2.002863172658e-04 
-2.011305945919e-04 -1.592599752619e-06 0.0 
-1.592599752619e-06 1.339001312879e-03 0.0 
0.0 0.0 -2.003537156312e-04 
-1.994489271156e-04 -3.123074052845e-07 0.0 
-3.123074052845e-07 1.340206734430e-03 0.0 
0.0 0.0 -2.003469717371e-04 
-2.008676553467e-04 -6.044515584208e-08 0.0 
-6.044515584208e-08 1.338725412238e-03 0.0 
0.0 0.0 -2.002396863610e-04 
-1.992453131624e-04 -1.009025233623e-06 0.0 
-1.009025233623e-06 1.337264745438e-03 0.0 
0.0 0.0 -2.001151187552e-04 
-2.007508866938e-04 2.802615914653e-07 0.0 
2.802615914653e-07 1.337086357069e-03 0.0 
0.0 0.0 -1.998355947622e-04 
-2.010860201950e-04 -2.268840142145e-06 0.0 
-2.268840142145e-06 1.337518567927e-03 0.0 
0.0 0.0 -2.000624918399e-04 
-1.999308478327e-04 1.605132680389e-06 0.0 
1.605132680389e-06 1.340948129084e-03 0.0 
0.0 0.0 -2.004978758543e-04 
-1.989515291925e-04 -1.597226336294e-06 0.0 
-1.597226336294e-06 1.342999130641e-03 0.0 
0.0 0.0 -2.005641941534e-04 
-2.002462740351e-04 -1.655488014151e-06 0.0 
-1.655488014151e-06 1.333093131656e-03 0.0 
0.0 0.0 -1.993486092159e-04 
-1.990090833406e-04 5.684559175637e-07 0.0 
5.684559175637e-07 1.340609276749e-03 0.0 
0.0 0.0 -2.003850096553e-04 
-2.008054096670e-04 9.372155481796e-08 0.0 
9.372155481796e-08 1.339007845984e-03 0.0 
0.0 0.0 -1.998785251170e-04 
-2.008250670669e-04 -6.084757154766e-06 0.0 
-6.084757154766e-06 1.338299561836e-03 0.0 
0.0 0.0 -2.002828574513e-04 
-2.004005035862e-04 2.502291620358e-06 0.0 
2.502291620358e-06 1.342657178018e-03 0.0 
0.0 0.0 -2.004849633189e-04 
-2.007882536758e-04 -1.247747538696e-07 0.0 
-1.247747538696e-07 1.343259988120e-03 0.0 
0.0 0.0 -2.003783523096e-04 
-1.146671904274e-04 -1.178176757847e-05 0.0 
-1.178176757847e-05 7.450986713540e-04 0.0 
0.0 0.0 -1.147343130870e-04 
-1.264453810116e-04 -1.334151081515e-05 0.0 
-1.334151081515e-05 8.198209596703e-04 0.0 
0.0 0.0 -1.244847198447e-04 
-1.356765189360e-04 -1.297470350471e-05 0.0 
-1.297470350471e-05 8.891398730811e-04 0.0 
0.0 0.0 -1.343891602869e-04 
-1.452353386135e-04 -1.385252952600e-05 0.0 
-1.385252952600e-05 9.563155137830e-04 0.0 
0.0 0.0 -1.441570129583e-04 
-1.551452079967e-04 -1.219781350268e-05 0.0 
-1.219781350268e-05 1.026181140671e-03 0.0 
0.0 0.0 -1.540481715075e-04 
-1.626979226826e-04 -1.337619385664e-05 0.0 
-1.337619385664e-05 1.096146543984e-03 0.0 
0.0 0.0 -1.639185295300e-04 
-1.730204163278e-04 -1.189570542028e-05 0.0 
-1.189570542028e-05 1.165335265964e-03 0.0 
0.0 0.0 -1.737435638217e-04 
-1.827904030233e-04 -1.370279642459e-05 0.0 
-1.370279642459e-05 1.231374955592e-03 0.0 
0.0 0.0 -1.836722557877e-04 
-1.920175721782e-04 -1.513479483673e-05 0.0 
-1.513479483673e-05 1.306410256595e-03 0.0 
0.0 0.0 -1.933173094176e-04 
-2.628312394672e-06 4.861178510582e-06 0.0 
4.861178510582e-06 1.556544794842e-05 0.0 
0.0 0.0 -4.409292559605e-06 
-1.048316007749e-04 -9.621305853345e-07 0.0 
-9.621305853345e-07 6.811678198845e-04 0.0 
0.0 0.0 -1.041824356080e-04 
-1.603258868989e-05 6.293505815657e-06 0.0 
6.293505815657e-06 6.888897348946e-05 0.0 
0.0 0.0 -1.632019118638e-05 
-2.756708965862e-05 9.954179369459e-06 0.0 
9.954179369459e-06 1.392031922928e-04 0.0 
0.0 0.0 -2.693367542308e-05 
-3.812552406380e-05 1.016013513838e-05 0.0 
1.016013513838e-05 2.109572618436e-04 0.0 
0.0 0.0 -3.699017713192e-05 
-4.963090252897e-05 1.010790859059e-05 0.0 
1.010790859059e-05 2.749080301063e-04 0.0 
0.0 0.0 -4.663185121135e-05 
-5.668636793165e-05 8.465248961163e-06 0.0 
8.465248961163e-06 3.457742043809e-04 0.0 
0.0 0.0 -5.642069435404e-05 
-6.051274250007e-05 -6.301292665323e-07 0.0 
-6.301292665323e-07 3.944343599617e-04 0.0 
0.0 0.0 -6.369887817887e-05 
-7.141834889080e-05 9.678265043945e-08 0.0 
9.678265043945e-08 4.646211674391e-04 0.0 
0.0 0.0 -7.370455344612e-05 
-8.170243524055e-05 5.000006177167e-08 0.0 
5.000006177167e-08 5.347878226306e-04 0.0 
0.0 0.0 -8.371130494101e-05 
-9.180060726483e-05 -4.722006417284e-07 0.0 
-4.722006417284e-07 6.049326733472e-04 0.0 
0.0 0.0 -9.373011205136e-05 
-6.185314912497e-05 -2.482666527959e-05 0.0 
-2.482666527959e-05 3.623207834508e-04 0.0 
0.0 0.0 -5.733333333333e-05 
-6.456638670251e-05 -3.069381358953e-05 0.0 
-3.069381358953e-05 3.997152644097e-04 0.0 
0.0 0.0 -6.400000000000e-05 
-7.449630958426e-05 -2.494664394193e-05 0.0 
-2.494664394193e-05 4.692561610563e-04 0.0 
0.0 0.0 -7.400000000000e-05 
-8.434259877890e-05 -3.002568002087e-05 0.0 
-3.002568002087e-05 5.385348917960e-04 0.0 
0.0 0.0 -8.400000000000e-05 
-9.370207488883e-05 -2.126272979996e-05 0.0 
-2.126272979996e-05 6.064301356153e-04 0.0 
0.0 0.0 -9.400000000000e-05 
-1.036969649510e-04 8.247914357618e-06 0.0 
8.247914357618e-06 6.682236523530e-04 0.0 
0.0 0.0 -1.031244360596e-04 
-1.030331121809e-04 6.398061947281e-07 0.0 
6.398061947281e-07 6.730085857154e-04 0.0 
0.0 0.0 -1.036639830904e-04 
-1.040246848300e-04 6.551258288294e-07 0.0 
6.551258288294e-07 6.737003815122e-04 0.0 
0.0 0.0 -1.036786795573e-04 
-1.036199691061e-04 -1.060092899920e-06 0.0 
-1.060092899920e-06 6.728402332334e-04 0.0 
0.0 0.0 -1.035503476195e-04 
-1.036187730866e-04 6.987826892712e-07 0.0 
6.987826892712e-07 6.843234116976e-04 0.0 
0.0 0.0 -1.047113471711e-04 
-1.033931728263e-04 8.121956357098e-07 0.0 
8.121956357098e-07 6.742373380345e-04 0.0 
0.0 0.0 -1.036717283195e-04 
-1.019647128334e-04 -9.227752753182e-07 0.0 
-9.227752753182e-07 6.731432047700e-04 0.0 
0.0 0.0 -1.035575096558e-04 
-1.024936313905e-04 1.772285713447e-06 0.0 
1.772285713447e-06 6.748371062497e-04 0.0 
0.0 0.0 -1.035838249569e-04 
-1.042470993802e-04 3.635416729023e-07 0.0 
3.635416729023e-07 6.762559263978e-04 0.0 
0.0 0.0 -1.038366668071e-04 
-1.045602445557e-04 1.897285970682e-06 0.0 
1.897285970682e-06 6.765304608455e-04 0.0 
0.0 0.0 -1.037414779538e-04 
-1.033276288020e-04 1.064407616834e-06 0.0 
1.064407616834e-06 6.759918874459e-04 0.0 
0.0 0.0 -1.036749887244e-04 
-1.038467522998e-04 5.163460192194e-07 0.0 
5.163460192194e-07 6.750993881616e-04 0.0 
0.0 0.0 -1.036742376103e-04 
-1.031100844336e-04 2.320623075698e-06 0.0 
2.320623075698e-06 6.745066352922e-04 0.0 
0.0 0.0 -1.037248800197e-04 
-1.035625589850e-04 3.164755832638e-06 0.0 
3.164755832638e-06 6.761520668862e-04 0.0 
0.0 0.0 -1.038372224314e-04 
-3.888660396223e-06 -2.385114651317e-06 0.0 
-2.385114651317e-06 2.042711759429e-05 0.0 
0.0 0.0 -4.472331749510e-06 
-5.169101753906e-06 -7.084154542495e-07 0.0 
-7.084154542495e-07 2.271348961565e-05 0.0 
0.0 0.0 -4.502040609288e-06 
-2.364246160799e-06 1.028376057694e-06 0.0 
1.028376057694e-06 2.131091607623e-05 0.0 
0.0 0.0 -4.337518410806e-06 
-1.587498611084e-06 -3.133011703373e-06 0.0 
-3.133011703373e-06 2.050781746996e-05 0.0 
0.0 0.0 -4.334754490686e-06 
-5.046560316982e-06 -4.634948452893e-06 0.0 
-4.634948452893e-06 2.392890582554e-05 0.0 
0.0 0.0 -4.561117883842e-06 
-6.265007612969e-06 -9.207565944816e-07 0.0 
-9.207565944816e-07 2.697395437511e-05 0.0 
0.0 0.0 -4.603166802451e-06 
-5.736513677339e-06 8.387511243074e-08 0.0 
8.387511243074e-08 2.687139260663e-05 0.0 
0.0 0.0 -4.588253942932e-06 
-4.839540945368e-06 -2.011555288387e-07 0.0 
-2.011555288387e-07 2.583465999306e-05 0.0 
0.0 0.0 -4.580819930830e-06 
-4.612792911559e-06 -5.630253563300e-07 0.0 
-5.630253563300e-07 2.605477154738e-05 0.0 
0.0 0.0 -4.566377142626e-06 
-3.958290915494e-06 -1.184167375848e-06 0.0 
-1.184167375848e-06 2.564531167106e-05 0.0 
0.0 0.0 -4.572797242576e-06 
-4.022129294500e-06 -2.439723680986e-06 0.0 
-2.439723680986e-06 2.664958176089e-05 0.0 
0.0 0.0 -4.590091569785e-06 
-6.268342663527e-06 6.977096205287e-07 0.0 
6.977096205287e-07 2.905288206764e-05 0.0 
0.0 0.0 -4.700025780019e-06 
-5.376994636987e-06 4.381417467922e-06 0.0 
4.381417467922e-06 2.721428218001e-05 0.0 
0.0 0.0 -4.652230755744e-06 
-2.838762493559e-06 1.392931258625e-06 0.0 
1.392931258625e-06 2.367722917541e-05 0.0 
0.0 0.0 -4.515582628821e-06 
-3.990779392774e-06 -6.597448414294e-07 0.0 
-6.597448414294e-07 2.387859913914e-05 0.0 
0.0 0.0 -4.562958168800e-06 
-6.201113197701e-06 2.425591329864e-07 0.0 
2.425591329864e-07 2.634678490736e-05 0.0 
0.0 0.0 -4.590849357655e-06 
-6.954870756755e-06 8.464675035122e-07 0.0 
8.464675035122e-07 2.697964767619e-05 0.0 
0.0 0.0 -4.587172474505e-06 
-4.599856540822e-06 4.128708826148e-06 0.0 
4.128708826148e-06 2.250512897823e-05 0.0 
0.0 0.0 -4.562260372237e-06 
-2.212869655358e-06 7.040915964333e-07 0.0 
7.040915964333e-07 1.983031900883e-05 0.0 
0.0 0.0 -4.417496077222e-06 
-4.630106338705e-05 2.737418547599e-06 0.0 
2.737418547599e-06 3.432852058450e-04 0.0 
0.0 0.0 -5.603475303165e-05 
-5.622036037357e-05 -3.353074567581e-06 0.0 
-3.353074567581e-06 3.696474671019e-04 0.0 
0.0 0.0 -5.802606477374e-05 
-5.713813933821e-05 3.143903217061e-06 0.0 
3.143903217061e-06 3.734917668670e-04 0.0 
0.0 0.0 -5.844444444444e-05 
-5.942828075179e-05 -4.736087646855e-07 0.0 
-4.736087646855e-07 3.729255142496e-04 0.0 
0.0 0.0 -5.844444444444e-05 
-5.884285558634e-05 1.072406450858e-06 0.0 
1.072406450858e-06 3.735971533564e-04 0.0 
0.0 0.0 -5.844444444444e-05 
-5.929072080843e-05 5.326400950321e-07 0.0 
5.326400950321e-07 3.732083969261e-04 0.0 
0.0 0.0 -5.844444444444e-05 
-5.898447983829e-05 9.420238638199e-07 0.0 
9.420238638199e-07 3.731895800091e-04 0.0 
0.0 0.0 -5.844444444444e-05 
-5.894088756813e-05 6.386921287811e-07 0.0 
6.386921287811e-07 3.729277822157e-04 0.0 
0.0 0.0 -5.844444444444e-05 
-5.882002062120e-05 3.110892381124e-07 0.0 
3.110892381124e-07 3.728742546364e-04 0.0 
0.0 0.0 -5.844444444444e-05 
-5.889798372113e-05 -1.088878300240e-07 0.0 
-1.088878300240e-07 3.729427923519e-04 0.0 
0.0 0.0 -5.844444444444e-05 
-5.894513166872e-05 -2.732922683571e-07 0.0 
-2.732922683571e-07 3.730622687338e-04 0.0 
0.0 0.0 -5.844444444444e-05 
-5.893367516712e-05 -3.602153564780e-07 0.0 
-3.602153564780e-07 3.731056863567e-04 0.0 
0.0 0.0 -5.844444444444e-05 
-5.890059347954e-05 -4.564020159604e-07 0.0 
-4.564020159604e-07 3.731291196175e-04 0.0 
0.0 0.0 -5.844444444444e-05 
-5.887760630575e-05 -5.269101494188e-07 0.0 
-5.269101494188e-07 3.731512632127e-04 0.0 
0.0 0.0 -5.844444444444e-05 
-5.885188937620e-05 -5.360952171658e-07 0.0 
-5.360952171658e-07 3.731508642452e-04 0.0 
0.0 0.0 -5.844444444444e-05 
-5.878588633872e-05 -4.605705974286e-07 0.0 
-4.605705974286e-07 3.730967627493e-04 0.0 
0.0 0.0 -5.844444444444e-05 
-5.867879549749e-05 -3.847689154390e-07 0.0 
-3.847689154390e-07 3.729909379731e-04 0.0 
0.0 0.0 -5.844444444444e-05 
-5.858327935338e-05 -3.338684938448e-07 0.0 
-3.338684938448e-07 3.728938343620e-04 0.0 
0.0 0.0 -5.844444444444e-05 
-5.853122594206e-05 -3.154977652695e-07 0.0 
-3.154977652695e-07 3.728455380814e-04 0.0 
0.0 0.0 -5.844444444444e-05 
-5.858356792492e-05 -4.219373141746e-07 0.0 
-4.219373141746e-07 3.725835718621e-04 0.0 
0.0 0.0 -5.844444444444e-05 
-5.878417719245e-05 -1.331152520005e-06 0.0 
-1.331152520005e-06 3.658545868047e-04 0.0 
0.0 0.0 -5.844444444444e-05 
-5.528516946379e-05 1.606382695778e-05 0.0 
1.606382695778e-05 3.553047319780e-04 0.0 
0.0 0.0 -5.733333333333e-05 
-6.449104081877e-05 1.102095358613e-05 0.0 
1.102095358613e-05 3.995973409364e-04 0.0 
0.0 0.0 -6.400000000000e-05 
-6.422906796569e-05 2.177518514987e-06 0.0 
2.177518514987e-06 3.992543368403e-04 0.0 
0.0 0.0 -6.400000000000e-05 
-6.408383134524e-05 -3.034071916938e-07 0.0 
-3.034071916938e-07 3.990967741269e-04 0.0 
0.0 0.0 -6.400000000000e-05 
-6.408041873393e-05 -3.033981082000e-07 0.0 
-3.033981082000e-07 3.990993988085e-04 0.0 
0.0 0.0 -6.400000000000e-05 
-6.413758657569e-05 -2.664267529371e-07 0.0 
-2.664267529371e-07 3.991827780022e-04 0.0 
0.0 0.0 -6.400000000000e-05 
-6.424201883682e-05 -2.687503912124e-07 0.0 
-2.687503912124e-07 3.993046003732e-04 0.0 
0.0 0.0 -6.400000000000e-05 
-6.435001536576e-05 -3.748421087071e-07 0.0 
-3.748421087071e-07 3.994006642501e-04 0.0 
0.0 0.0 -6.400000000000e-05 
-6.439349834041e-05 -4.644553275205e-07 0.0 
-4.644553275205e-07 3.993979902157e-04 0.0 
0.0 0.0 -6.400000000000e-05 
-6.439694071681e-05 -4.217729739727e-07 0.0 
-4.217729739727e-07 3.993619939022e-04 0.0 
0.0 0.0 -6.400000000000e-05 
-6.446545681239e-05 -3.034361081742e-07 0.0 
-3.034361081742e-07 3.993593597444e-04 0.0 
0.0 0.0 -6.400000000000e-05 
-6.453884953312e-05 -2.444575558042e-07 0.0 
-2.444575558042e-07 3.993592142806e-04 0.0 
0.0 0.0 -6.400000000000e-05 
-6.453841394424e-05 -2.364183723064e-07 0.0 
-2.364183723064e-07 3.992848240483e-04 0.0 
0.0 0.0 -6.400000000000e-05 
-6.443555698589e-05 -5.018406128308e-08 0.0 
-5.018406128308e-08 3.990730026429e-04 0.0 
0.0 0.0 -6.400000000000e-05 
-6.439006881427e-05 5.953405842576e-07 0.0 
5.953405842576e-07 3.990989476378e-04 0.0 
0.0 0.0 -6.400000000000e-05 
-6.459707428735e-05 8.270995238340e-07 0.0 
8.270995238340e-07 3.992307724164e-04 0.0 
0.0 0.0 -6.400000000000e-05 
-6.478530700370e-05 1.165018707171e-06 0.0 
1.165018707171e-06 3.997535009593e-04 0.0 
0.0 0.0 -6.400000000000e-05 
-6.492709823616e-05 1.223192506190e-07 0.0 
1.223192506190e-07 3.993858055679e-04 0.0 
0.0 0.0 -6.400000000000e-05 
-6.387749569822e-05 1.643573763821e-06 0.0 
1.643573763821e-06 3.997389601482e-04 0.0 
0.0 0.0 -6.400000000000e-05 
-6.329773463465e-05 -1.345766021157e-06 0.0 
-1.345766021157e-06 4.036796173873e-04 0.0 
0.0 0.0 -6.440087463557e-05 
-5.619569592719e-05 6.249853982819e-07 0.0 
6.249853982819e-07 3.855354190560e-04 0.0 
0.0 0.0 -6.280102040816e-05 
-6.626641426913e-05 1.378973851741e-06 0.0 
1.378973851741e-06 4.548482350430e-04 0.0 
0.0 0.0 -7.279421768707e-05 
-7.356607765690e-05 -1.854881774075e-06 0.0 
-1.854881774075e-06 4.734083990815e-04 0.0 
0.0 0.0 -7.439504373177e-05 
-7.451973324986e-05 1.818776252699e-06 0.0 
1.818776252699e-06 4.701147270985e-04 0.0 
0.0 0.0 -7.400000000000e-05 
-7.507189263132e-05 1.139871955262e-06 0.0 
1.139871955262e-06 4.690018492736e-04 0.0 
0.0 0.0 -7.400000000000e-05 
-7.440307977863e-05 1.316267280214e-06 0.0 
1.316267280214e-06 4.689046979315e-04 0.0 
0.0 0.0 -7.400000000000e-05 
-7.447964919174e-05 1.327643289489e-07 0.0 
1.327643289489e-07 4.685645119696e-04 0.0 
0.0 0.0 -7.400000000000e-05 
-7.463811246650e-05 -2.009510893623e-07 0.0 
-2.009510893623e-07 4.690373350481e-04 0.0 
0.0 0.0 -7.400000000000e-05 
-7.464635801585e-05 -7.665068053576e-08 0.0 
-7.665068053576e-08 4.691773352964e-04 0.0 
0.0 0.0 -7.400000000000e-05 
-7.456896915363e-05 6.486733144631e-08 0.0 
6.486733144631e-08 4.691551129947e-04 0.0 
0.0 0.0 -7.400000000000e-05 
-7.434965880918e-05 -2.979712214473e-08 0.0 
-2.979712214473e-08 4.690260974999e-04 0.0 
0.0 0.0 -7.400000000000e-05 
-7.428013090329e-05 -3.745306366773e-07 0.0 
-3.745306366773e-07 4.690784611457e-04 0.0 
0.0 0.0 -7.400000000000e-05 
-7.436926452788e-05 -3.179218437662e-07 0.0 
-3.179218437662e-07 4.692164839065e-04 0.0 
0.0 0.0 -7.400000000000e-05 
-7.420923464376e-05 -8.861031691497e-08 0.0 
-8.861031691497e-08 4.691097441108e-04 0.0 
0.0 0.0 -7.400000000000e-05 
-7.408672818249e-05 -9.997158663720e-08 0.0 
-9.997158663720e-08 4.689363840629e-04 0.0 
0.0 0.0 -7.400000000000e-05 
-7.401015679154e-05 -2.369586485918e-07 0.0 
-2.369586485918e-07 4.688345953373e-04 0.0 
0.0 0.0 -7.400000000000e-05 
-7.402043488264e-05 -3.858604555162e-07 0.0 
-3.858604555162e-07 4.687795838329e-04 0.0 
0.0 0.0 -7.400000000000e-05 
-7.406733317633e-05 -8.624702852559e-07 0.0 
-8.624702852559e-07 4.688475136122e-04 0.0 
0.0 0.0 -7.400000000000e-05 
-7.437229827430e-05 -1.941892756436e-06 0.0 
-1.941892756436e-06 4.691620651443e-04 0.0 
0.0 0.0 -7.400000000000e-05 
-7.450735550024e-05 1.576544860626e-05 0.0 
1.576544860626e-05 4.693163051132e-04 0.0 
0.0 0.0 -7.400000000000e-05 
-8.485563316515e-05 1.075809198226e-05 0.0 
1.075809198226e-05 5.391859337594e-04 0.0 
0.0 0.0 -8.400000000000e-05 
-8.409846415960e-05 9.414650263605e-07 0.0 
9.414650263605e-07 5.383995603087e-04 0.0 
0.0 0.0 -8.400000000000e-05 
-8.389555484943e-05 -6.021980322684e-07 0.0 
-6.021980322684e-07 5.381860091551e-04 0.0 
0.0 0.0 -8.400000000000e-05 
-8.398436323506e-05 -4.920223144165e-07 0.0 
-4.920223144165e-07 5.383843948043e-04 0.0 
0.0 0.0 -8.400000000000e-05 
-8.378599896788e-05 -1.313884382087e-07 0.0 
-1.313884382087e-07 5.383410839076e-04 0.0 
0.0 0.0 -8.400000000000e-05 
-8.397004303126e-05 1.320895791523e-07 0.0 
1.320895791523e-07 5.385599452968e-04 0.0 
0.0 0.0 -8.400000000000e-05 
-8.409172541067e-05 3.119498635538e-07 0.0 
3.119498635538e-07 5.388399091460e-04 0.0 
0.0 0.0 -8.400000000000e-05 
-8.425202054181e-05 -4.105999003094e-07 0.0 
-4.105999003094e-07 5.388170517081e-04 0.0 
0.0 0.0 -8.400000000000e-05 
-8.405009752117e-05 1.267934535994e-07 0.0 
1.267934535994e-07 5.383656166005e-04 0.0 
0.0 0.0 -8.400000000000e-05 
-8.446225278370e-05 7.431195345640e-07 0.0 
7.431195345640e-07 5.387309105085e-04 0.0 
0.0 0.0 -8.400000000000e-05 
-8.472976723877e-05 3.614371366169e-07 0.0 
3.614371366169e-07 5.389575801292e-04 0.0 
0.0 0.0 -8.400000000000e-05 
-8.468281700183e-05 1.764545941254e-07 0.0 
1.764545941254e-07 5.387723880717e-04 0.0 
0.0 0.0 -8.400000000000e-05 
-8.488166774851e-05 3.307409063184e-08 0.0 
3.307409063184e-08 5.387187096913e-04 0.0 
0.0 0.0 -8.400000000000e-05 
-8.470036612902e-05 2.233472977468e-07 0.0 
2.233472977468e-07 5.376128164124e-04 0.0 
0.0 0.0 -8.400000000000e-05 
-8.431282722659e-05 3.361858424154e-06 0.0 
3.361858424154e-06 5.388019778082e-04 0.0 
0.0 0.0 -8.400000000000e-05 
-8.416442060440e-05 -6.991529090742e-07 0.0 
-6.991529090742e-07 5.438481516276e-04 0.0 
0.0 0.0 -8.440087463557e-05 
-7.699797766990e-05 8.136884982108e-07 0.0 
8.136884982108e-07 5.256926397960e-04 0.0 
0.0 0.0 -8.280102040816e-05 
-8.729514730737e-05 2.431575192883e-06 0.0 
2.431575192883e-06 5.952071725442e-04 0.0 
0.0 0.0 -9.279292626141e-05 
-9.515402825116e-05 -3.487467194031e-07 0.0 
-3.487467194031e-07 6.124983923015e-04 0.0 
0.0 0.0 -9.439393679549e-05 
-9.530518963518e-05 1.748549076388e-06 0.0 
1.748549076388e-06 6.086982827348e-04 0.0 
0.0 0.0 -9.400000000000e-05 
-9.443822007151e-05 1.536080356852e-06 0.0 
1.536080356852e-06 6.081273132837e-04 0.0 
0.0 0.0 -9.400000000000e-05 
-9.455496517287e-05 4.180655032130e-07 0.0 
4.180655032130e-07 6.085997108048e-04 0.0 
0.0 0.0 -9.400000000000e-05 
-9.458632400686e-05 1.150725883443e-06 0.0 
1.150725883443e-06 6.089170576803e-04 0.0 
0.0 0.0 -9.400000000000e-05 
-9.431195159654e-05 1.533006736186e-06 0.0 
1.533006736186e-06 6.081280804878e-04 0.0 
0.0 0.0 -9.400000000000e-05 
-9.421230709675e-05 -1.354647329153e-07 0.0 
-1.354647329153e-07 6.080912884899e-04 0.0 
0.0 0.0 -9.400000000000e-05 
-9.337909431243e-05 6.942444443618e-07 0.0 
6.942444443618e-07 6.085993616068e-04 0.0 
0.0 0.0 -9.400000000000e-05 
-9.374302250683e-05 3.925743234368e-08 0.0 
3.925743234368e-08 6.082422955829e-04 0.0 
0.0 0.0 -9.400000000000e-05 
-9.357184311787e-05 3.344127971799e-07 0.0 
3.344127971799e-07 6.080020201806e-04 0.0 
0.0 0.0 -9.400000000000e-05 
-9.351707113181e-05 -1.166879688300e-06 0.0 
-1.166879688300e-06 6.078331273393e-04 0.0 
0.0 0.0 -9.400000000000e-05 
-9.397267376399e-05 -4.718022942719e-07 0.0 
-4.718022942719e-07 6.082084038474e-04 0.0 
0.0 0.0 -9.400000000000e-05 
-9.376740862845e-05 -1.478812201538e-06 0.0 
-1.478812201538e-06 6.074134740605e-04 0.0 
0.0 0.0 -9.400000000000e-05 
-9.429475212128e-05 -5.091328171579e-06 0.0 
-5.091328171579e-06 6.089719886990e-04 0.0 
0.0 0.0 -9.400000000000e-05 
-9.572461714176e-05 1.686230062982e-05 0.0 
1.686230062982e-05 6.103161186201e-04 0.0 
0.0 0.0 -9.400000000000e-05 
-9.168972231207e-06 3.086373565098e-06 0.0 
3.086373565098e-06 3.559574852661e-05 0.0 
0.0 0.0 -1.067913767518e-05 
-2.319324557595e-05 9.600073751645e-06 0.0 
9.600073751645e-06 1.051649730873e-04 0.0 
0.0 0.0 -2.186514004066e-05 
-3.270389502079e-05 1.247004681325e-05 0.0 
1.247004681325e-05 1.753354515574e-04 0.0 
0.0 0.0 -3.195214541711e-05 
-4.333142068931e-05 1.229963368923e-05 0.0 
1.229963368923e-05 2.470095009577e-04 0.0 
0.0 0.0 -4.202597925154e-05 
-5.334283756541e-05 5.153255213289e-06 0.0 
5.153255213289e-06 3.151067639109e-04 0.0 
0.0 0.0 -5.161396608484e-05 
-5.332449771990e-05 4.791519907196e-06 0.0 
4.791519907196e-06 3.657467620854e-04 0.0 
0.0 0.0 -5.966365156130e-05 
-6.508558424635e-05 3.075872768086e-06 0.0 
3.075872768086e-06 4.344526873071e-04 0.0 
0.0 0.0 -6.975401418979e-05 
-7.497012245692e-05 4.311534055672e-06 0.0 
4.311534055672e-06 5.043026023732e-04 0.0 
0.0 0.0 -7.976546830823e-05 
-8.509296828041e-05 3.418368169261e-06 0.0 
3.418368169261e-06 5.740185323213e-04 0.0 
0.0 0.0 -8.978403836533e-05 
-9.498556415872e-05 3.738944843297e-06 0.0 
3.738944843297e-06 6.453839669724e-04 0.0 
0.0 0.0 -9.979450657254e-05 
-2.903947000217e-05 4.451191488364e-07 0.0 
4.451191488364e-07 1.483933272917e-04 0.0 
0.0 0.0 -2.805418351568e-05 
-1.947382551544e-04 -2.159516415369e-06 0.0 
-2.159516415369e-06 1.315627443457e-03 0.0 
0.0 0.0 -1.955083413980e-04 
-8.567559438263e-06 -1.698793721464e-06 0.0 
-1.698793721464e-06 4.448364337142e-05 0.0 
0.0 0.0 -8.578267221574e-06 
-8.136868517871e-06 -4.367899646924e-06 0.0 
-4.367899646924e-06 4.087946457471e-05 0.0 
0.0 0.0 -8.341387659605e-06 
-1.954641214955e-04 3.125550394228e-06 0.0 
3.125550394228e-06 1.316340498285e-03 0.0 
0.0 0.0 -1.955041315648e-04 
-5.006254034077e-05 3.860488417876e-06 0.0 
3.860488417876e-06 2.918098893608e-04 0.0 
0.0 0.0 -4.819929352323e-05 
-1.113057377054e-04 -1.249747274644e-06 0.0 
-1.249747274644e-06 7.175137801225e-04 0.0 
0.0 0.0 -1.095085134540e-04 
-1.950754387674e-04 1.968519813096e-06 0.0 
1.968519813096e-06 1.314054090021e-03 0.0 
0.0 0.0 -1.951497400597e-04 
-6.837076637649e-05 -4.771419097857e-06 0.0 
-4.771419097857e-06 4.223371659246e-04 0.0 
0.0 0.0 -6.746904573659e-05 
-1.952596228174e-04 5.860291744709e-07 0.0 
5.860291744709e-07 1.317160681800e-03 0.0 
0.0 0.0 -1.956021977691e-04 
-8.896698281549e-05 5.176874405716e-07 0.0 
5.176874405716e-07 5.656380992247e-04 0.0 
0.0 0.0 -8.786970436408e-05 
-1.941939648637e-04 1.847287419424e-06 0.0 
1.847287419424e-06 1.320485000250e-03 0.0 
0.0 0.0 -1.961487763302e-04 
-7.650674215329e-06 1.236502144193e-06 0.0 
1.236502144193e-06 3.991553915001e-05 0.0 
0.0 0.0 -8.186248162006e-06 
-1.957069062092e-04 9.003290222843e-07 0.0 
9.003290222843e-07 1.317426151316e-03 0.0 
0.0 0.0 -1.956722400187e-04 
-1.089453835626e-04 2.369159746168e-06 0.0 
2.369159746168e-06 7.099109707760e-04 0.0 
0.0 0.0 -1.080461297714e-04 
-6.859129019067e-05 1.013206430907e-06 0.0 
1.013206430907e-06 4.370886358119e-04 0.0 
0.0 0.0 -6.960710895285e-05 
-1.371687672462e-04 1.989641405698e-06 0.0 
1.989641405698e-06 9.073488131676e-04 0.0 
0.0 0.0 -1.368826812983e-04 
-1.943229683407e-04 -1.445358278171e-06 0.0 
-1.445358278171e-06 1.315110082613e-03 0.0 
0.0 0.0 -1.951920106767e-04 
-1.956930830492e-04 2.604495501023e-06 0.0 
2.604495501023e-06 1.317782772153e-03 0.0 
0.0 0.0 -1.956442140825e-04 
-1.963197173795e-04 -2.638308879700e-06 0.0 
-2.638308879700e-06 1.317317020312e-03 0.0 
0.0 0.0 -1.954857917668e-04 
-1.946046977129e-04 1.619923868870e-06 0.0 
1.619923868870e-06 1.311223827380e-03 0.0 
0.0 0.0 -1.946591103862e-04 
-1.965700765428e-04 -3.277130686746e-06 0.0 
-3.277130686746e-06 1.319377863823e-03 0.0 
0.0 0.0 -1.957959275784e-04 
-1.125606473740e-04 1.719511349206e-06 0.0 
1.719511349206e-06 7.393436574216e-04 0.0 
0.0 0.0 -1.128301714015e-04 
-1.128503086942e-04 1.743206654311e-06 0.0 
1.743206654311e-06 7.389768954601e-04 0.0 
0.0 0.0 -1.129477424158e-04 
-1.131980592598e-04 -1.862024743753e-06 0.0 
-1.862024743753e-06 7.425708164452e-04 0.0 
0.0 0.0 -1.137040567910e-04 
-1.496411633683e-04 -5.197980004835e-06 0.0 
-5.197980004835e-06 9.903344520159e-04 0.0 
0.0 0.0 -1.492512252364e-04 
-1.950888054502e-04 -1.662594662544e-06 0.0 
-1.662594662544e-06 1.318271302421e-03 0.0 
0.0 0.0 -1.954311278458e-04 
-7.420624434335e-06 -2.743944179506e-06 0.0 
-2.743944179506e-06 4.036171462300e-05 0.0 
0.0 0.0 -8.192647634203e-06 
-9.873734262922e-06 8.287041108010e-07 0.0 
8.287041108010e-07 4.596430085012e-05 0.0 
0.0 0.0 -8.762595040287e-06 
-1.681367322331e-04 -1.737857054475e-07 0.0 
-1.737857054475e-07 1.127342030325e-03 0.0 
0.0 0.0 -1.684329593750e-04 
-1.137312378447e-04 2.941922033179e-06 0.0 
2.941922033179e-06 7.354400071240e-04 0.0 
0.0 0.0 -1.125050824252e-04 
-4.041482156002e-05 3.417558897105e-07 0.0 
3.417558897105e-07 2.241831831132e-04 0.0 
0.0 0.0 -3.891752881399e-05 
-1.947641557456e-04 7.923084531915e-07 0.0 
7.923084531915e-07 1.304507022875e-03 0.0 
0.0 0.0 -1.939800207710e-04 
-1.960054809974e-04 2.031047324452e-06 0.0 
2.031047324452e-06 1.320447363547e-03 0.0 
0.0 0.0 -1.960961780200e-04 
-1.959837947468e-04 7.548015026684e-07 0.0 
7.548015026684e-07 1.316397764372e-03 0.0 
0.0 0.0 -1.957100175409e-04 
-1.949003992159e-04 1.873708810936e-06 0.0 
1.873708810936e-06 1.312448359133e-03 0.0 
0.0 0.0 -1.946892349944e-04 
-1.963394652884e-04 -2.461762416476e-06 0.0 
-2.461762416476e-06 1.317843150582e-03 0.0 
0.0 0.0 -1.958367853254e-04 
-9.399904561967e-06 3.751811683983e-07 0.0 
3.751811683983e-07 4.607602797327e-05 0.0 
0.0 0.0 -8.777929302786e-06 
-1.121136777944e-04 2.136242843992e-06 0.0 
2.136242843992e-06 7.375316866664e-04 0.0 
0.0 0.0 -1.125147119063e-04 
-1.945054015985e-04 1.526423234173e-06 0.0 
1.526423234173e-06 1.305744790732e-03 0.0 
0.0 0.0 -1.939771297832e-04 
-1.693349048774e-04 -4.546658260319e-06 0.0 
-4.546658260319e-06 1.130612016236e-03 0.0 
0.0 0.0 -1.685397735077e-04 
-8.598075030748e-06 -2.223307893963e-06 0.0 
-2.223307893963e-06 4.388775337437e-05 0.0 
0.0 0.0 -8.698177642707e-06 
-8.871376934976e-05 -9.707224206822e-07 0.0 
-9.707224206822e-07 5.731446297532e-04 0.0 
0.0 0.0 -8.906156601093e-05 
-1.979802513817e-04 -1.566370620822e-06 0.0 
-1.566370620822e-06 1.328935425363e-03 0.0 
0.0 0.0 -1.967971955909e-04 
-6.059110968862e-05 -2.270349058910e-06 0.0 
-2.270349058910e-06 3.638632698663e-04 0.0 
0.0 0.0 -5.846208800394e-05 
-3.934380255029e-05 1.116524761702e-06 0.0 
1.116524761702e-06 2.201048627676e-04 0.0 
0.0 0.0 -3.823193484201e-05 
-7.905584954535e-05 -1.125239316858e-06 0.0 
-1.125239316858e-06 4.942495490073e-04 0.0 
0.0 0.0 -7.767853477808e-05 
-9.853492259670e-05 -1.059175576559e-06 0.0 
-1.059175576559e-06 6.356901872357e-04 0.0 
0.0 0.0 -9.791554816786e-05 
-1.758731503853e-05 -2.183232337716e-06 0.0 
-2.183232337716e-06 7.214564488676e-05 0.0 
0.0 0.0 -1.677835640721e-05 
-1.304400768820e-04 -1.226623402604e-06 0.0 
-1.226623402604e-06 8.588836031036e-04 0.0 
0.0 0.0 -1.302718197671e-04 
-1.976961881145e-04 -1.904942962871e-06 0.0 
-1.904942962871e-06 1.329827350337e-03 0.0 
0.0 0.0 -1.970859964037e-04 
-7.778984465367e-06 4.389754775789e-06 0.0 
4.389754775789e-06 4.119927433976e-05 0.0 
0.0 0.0 -8.754673005183e-06 
-1.866018908338e-04 -2.006069315689e-08 0.0 
-2.006069315689e-08 1.262553750678e-03 0.0 
0.0 0.0 -1.880896313740e-04 
-1.123534650814e-04 1.611587689509e-06 0.0 
1.611587689509e-06 7.392560460262e-04 0.0 
0.0 0.0 -1.129840772622e-04 
-1.171047806051e-04 7.449209117803e-07 0.0 
7.449209117803e-07 7.664746806855e-04 0.0 
0.0 0.0 -1.171402528589e-04 
-1.209300272193e-04 3.259751506580e-06 0.0 
3.259751506580e-06 8.015413982557e-04 0.0 
0.0 0.0 -1.217336839916e-04 
-1.273390226549e-04 -1.216641127310e-06 0.0 
-1.216641127310e-06 8.349727543367e-04 0.0 
0.0 0.0 -1.264258636278e-04 
-1.320700965903e-04 1.876866623285e-08 0.0 
1.876866623285e-08 8.692918616205e-04 0.0 
0.0 0.0 -1.317698771115e-04 
-1.368244106801e-04 -1.114619508482e-06 0.0 
-1.114619508482e-06 9.001255364591e-04 0.0 
0.0 0.0 -1.359061374524e-04 
-1.313516644010e-04 -1.071478350728e-06 0.0 
-1.071478350728e-06 8.642075030487e-04 0.0 
0.0 0.0 -1.306688636612e-04 
-1.406252513591e-04 -1.352739222539e-06 0.0 
-1.352739222539e-06 9.300768557182e-04 0.0 
0.0 0.0 -1.401216342492e-04 
-1.355168506451e-04 -8.441429406154e-07 0.0 
-8.441429406154e-07 8.933027720166e-04 0.0 
0.0 0.0 -1.348466119664e-04 
-1.406309551036e-04 -1.423065028084e-06 0.0 
-1.423065028084e-06 9.373189590449e-04 0.0 
0.0 0.0 -1.412262538548e-04 
-1.447717080924e-04 -1.617847745048e-06 0.0 
-1.617847745048e-06 9.594996109507e-04 0.0 
0.0 0.0 -1.443446404888e-04 
-1.395639979808e-04 -9.495865010563e-07 0.0 
-9.495865010563e-07 9.223387170950e-04 0.0 
0.0 0.0 -1.390295894150e-04 
-1.488518955481e-04 -1.324901186338e-06 0.0 
-1.324901186338e-06 9.887094425207e-04 0.0 
0.0 0.0 -1.485505823874e-04 
-1.436922961000e-04 -1.046451979584e-06 0.0 
-1.046451979584e-06 9.515310653716e-04 0.0 
0.0 0.0 -1.432156325536e-04 
-1.343600788387e-04 -5.167793523513e-07 0.0 
-5.167793523513e-07 8.856735470671e-04 0.0 
0.0 0.0 -1.337521069633e-04 
-1.385105152453e-04 -4.710394907329e-07 0.0 
-4.710394907329e-07 9.146329712672e-04 0.0 
0.0 0.0 -1.379179829106e-04 
-1.289648752830e-04 -8.618976580074e-08 0.0 
-8.618976580074e-08 8.489207055611e-04 0.0 
0.0 0.0 -1.284753219673e-04 
-1.331501462654e-04 -2.281806353289e-07 0.0 
-2.281806353289e-07 8.778469958775e-04 0.0 
0.0 0.0 -1.326245976321e-04 
-1.426230691977e-04 -3.445547381831e-07 0.0 
-3.445547381831e-07 9.438219498313e-04 0.0 
0.0 0.0 -1.420797641308e-04 
-1.372349024752e-04 -4.912623478833e-07 0.0 
-4.912623478833e-07 9.068017641173e-04 0.0 
0.0 0.0 -1.367729294110e-04 
-1.278087679959e-04 -1.828532417458e-07 0.0 
-1.828532417458e-07 8.408634527744e-04 0.0 
0.0 0.0 -1.273259478075e-04 
-1.318398283045e-04 -3.075890479270e-07 0.0 
-3.075890479270e-07 8.695930318134e-04 0.0 
0.0 0.0 -1.314613401273e-04 
-1.224174681950e-04 5.152664304941e-08 0.0 
5.152664304941e-08 8.039186497448e-04 0.0 
0.0 0.0 -1.220343484428e-04 
-1.264174440320e-04 -1.610988413994e-07 0.0 
-1.610988413994e-07 8.325618017429e-04 0.0 
0.0 0.0 -1.261611736566e-04 
-1.170510544419e-04 2.223926002146e-08 0.0 
2.223926002146e-08 7.668217430428e-04 0.0 
0.0 0.0 -1.167242641243e-04 
-1.210374224200e-04 -1.474818318748e-07 0.0 
-1.474818318748e-07 7.955505097843e-04 0.0 
0.0 0.0 -1.208544874677e-04 
-1.304043414113e-04 -3.154242512106e-07 0.0 
-3.154242512106e-07 8.613589922912e-04 0.0 
0.0 0.0 -1.303042425932e-04 
-1.250914766715e-04 -9.789090931159e-08 0.0 
-9.789090931159e-08 8.242842117775e-04 0.0 
0.0 0.0 -1.249864172613e-04 
-1.156698454984e-04 4.104440089520e-08 0.0 
4.104440089520e-08 7.584999711117e-04 0.0 
0.0 0.0 -1.155496960434e-04 
-1.197696986214e-04 6.686600869323e-08 0.0 
6.686600869323e-08 7.872430335080e-04 0.0 
0.0 0.0 -1.196691756306e-04 
-1.103345672185e-04 1.936070379504e-07 0.0 
1.936070379504e-07 7.215726378401e-04 0.0 
0.0 0.0 -1.102360968649e-04 
-1.143831646187e-04 2.841694026702e-07 0.0 
2.841694026702e-07 7.499983246613e-04 0.0 
0.0 0.0 -1.143358844566e-04 
-1.238585560106e-04 1.680319022195e-07 0.0 
1.680319022195e-07 8.159376449007e-04 0.0 
0.0 0.0 -1.237972835831e-04 
-1.185140209161e-04 8.396902968214e-08 0.0 
8.396902968214e-08 7.787352394438e-04 0.0 
0.0 0.0 -1.184549252722e-04 
-1.089992092054e-04 6.281890232405e-08 0.0 
6.281890232405e-08 7.122982226840e-04 0.0 
0.0 0.0 -1.089619939006e-04 
-1.132389115670e-04 -1.057915283394e-07 0.0 
-1.057915283394e-07 7.414300503039e-04 0.0 
0.0 0.0 -1.130977248571e-04 
-1.037240861722e-04 -4.723566763672e-07 0.0 
-4.723566763672e-07 6.746986895894e-04 0.0 
0.0 0.0 -1.035578799258e-04 
-1.079391861501e-04 -9.525050174838e-10 0.0 
-9.525050174838e-10 7.042191649168e-04 0.0 
0.0 0.0 -1.077352770641e-04 
-9.832371136087e-05 -3.508088035030e-07 0.0 
-3.508088035030e-07 6.371418654706e-04 0.0 
0.0 0.0 -9.813603890825e-05 
-1.025291601956e-04 7.520025507379e-08 0.0 
7.520025507379e-08 6.664875104737e-04 0.0 
0.0 0.0 -1.023264466889e-04 
-1.121330899491e-04 -3.201268622911e-08 0.0 
-3.201268622911e-08 7.333893815298e-04 0.0 
0.0 0.0 -1.119135318789e-04 
-1.067345759512e-04 -1.457462253013e-07 0.0 
-1.457462253013e-07 6.958135066491e-04 0.0 
0.0 0.0 -1.065124872911e-04 
-9.708388481881e-05 -1.123756317371e-07 0.0 
-1.123756317371e-07 6.287043899204e-04 0.0 
0.0 0.0 -9.687936111797e-05 
-1.012280793484e-04 -2.016817593289e-07 0.0 
-2.016817593289e-07 6.578039102236e-04 0.0 
0.0 0.0 -1.010667964543e-04 
-1.108655634829e-04 -2.805142089433e-07 0.0 
-2.805142089433e-07 7.250705567917e-04 0.0 
0.0 0.0 -1.107220969010e-04 
-1.053738009019e-04 -2.657681640372e-07 0.0 
-2.657681640372e-07 6.869604308345e-04 0.0 
0.0 0.0 -1.052625016289e-04 
-1.150267739913e-04 -3.300558054110e-07 0.0 
-3.300558054110e-07 7.543777337130e-04 0.0 
0.0 0.0 -1.149374102432e-04 
-1.095605670490e-04 -1.992187362342e-07 0.0 
-1.992187362342e-07 7.162738244309e-04 0.0 
0.0 0.0 -1.094674241824e-04 
-9.992608341546e-05 -2.285291460902e-07 0.0 
-2.285291460902e-07 6.491377746979e-04 0.0 
0.0 0.0 -9.983047339662e-05 
-1.041038271013e-04 -4.784792107381e-08 0.0 
-4.784792107381e-08 6.783667909797e-04 0.0 
0.0 0.0 -1.040110107548e-04 
-1.137411101647e-04 -1.005325563354e-07 0.0 
-1.005325563354e-07 7.455825181624e-04 0.0 
0.0 0.0 -1.136680319875e-04 
-1.082869868131e-04 -5.329032704077e-08 0.0 
-5.329032704077e-08 7.073386927023e-04 0.0 
0.0 0.0 -1.081830392180e-04 
-9.869624350956e-05 -1.279251488152e-07 0.0 
-1.279251488152e-07 6.404070926404e-04 0.0 
0.0 0.0 -9.856705257735e-05 
-1.028159541346e-04 2.106799420310e-07 0.0 
2.106799420310e-07 6.694648529012e-04 0.0 
0.0 0.0 -1.027256921484e-04 
-1.124881435347e-04 1.468300417498e-07 0.0 
1.468300417498e-07 7.366254737130e-04 0.0 
0.0 0.0 -1.123746868942e-04 
-1.069630032943e-04 3.797193907441e-07 0.0 
3.797193907441e-07 6.984570345631e-04 0.0 
0.0 0.0 -1.069064678657e-04 
-9.735694714147e-05 3.040392105123e-07 0.0 
3.040392105123e-07 6.314702925721e-04 0.0 
0.0 0.0 -9.729074097479e-05 
-1.014698791265e-04 5.263077294053e-07 0.0 
5.263077294053e-07 6.606218601415e-04 0.0 
0.0 0.0 -1.014450936127e-04 
-1.111588134786e-04 4.465606502622e-07 0.0 
4.465606502622e-07 7.280983055299e-04 0.0 
0.0 0.0 -1.111412434799e-04 
-1.056103560307e-04 3.527345838497e-07 0.0 
3.527345838497e-07 6.896411777924e-04 0.0 
0.0 0.0 -1.056341277852e-04 
-9.592602067126e-05 5.327638544791e-07 0.0 
5.327638544791e-07 6.223325700671e-04 0.0 
0.0 0.0 -9.597584338962e-05 
-1.000042351432e-04 6.050193751295e-07 0.0 
6.050193751295e-07 6.512858928885e-04 0.0 
0.0 0.0 -1.001195007473e-04 
-1.097885953069e-04 3.509867728239e-07 0.0 
3.509867728239e-07 7.191866513993e-04 0.0 
0.0 0.0 -1.098732949993e-04 
-1.041219874635e-04 4.565113330363e-07 0.0 
4.565113330363e-07 6.802416856987e-04 0.0 
0.0 0.0 -1.043104098158e-04 
-1.139943776011e-04 2.608804957771e-07 0.0 
2.608804957771e-07 7.487261930972e-04 0.0 
0.0 0.0 -1.141349681178e-04 
-9.432131286435e-05 6.931090399304e-07 0.0 
6.931090399304e-07 6.120807620329e-04 0.0 
0.0 0.0 -9.453138577379e-05 
-9.843300825502e-05 3.791394769862e-07 0.0 
3.791394769862e-07 6.410640369442e-04 0.0 
0.0 0.0 -9.871483819285e-05 
-8.857532524913e-05 7.670792375352e-07 0.0 
7.670792375352e-07 5.725816228305e-04 0.0 
0.0 0.0 -8.888275660121e-05 
-9.270105845016e-05 2.622529703410e-07 0.0 
2.622529703410e-07 6.018362902946e-04 0.0 
0.0 0.0 -9.310666704106e-05 
-1.280450341640e-04 2.022914446802e-07 0.0 
2.022914446802e-07 8.448927114390e-04 0.0 
0.0 0.0 -1.279397651938e-04 
-8.276712932225e-05 6.443736138370e-07 0.0 
6.443736138370e-07 5.330826812988e-04 0.0 
0.0 0.0 -8.324826898147e-05 
-7.884768894366e-05 1.023704289178e-06 0.0 
1.023704289178e-06 5.047676539199e-04 0.0 
0.0 0.0 -7.914375511354e-05 
-8.697616798037e-05 -7.331328903668e-10 0.0 
-7.331328903668e-10 5.626687258914e-04 0.0 
0.0 0.0 -8.749891481923e-05 
-9.702972984445e-05 -9.951343649238e-08 0.0 
-9.951343649238e-08 6.318920870484e-04 0.0 
0.0 0.0 -9.740424872913e-05 
-7.706547232469e-05 2.380236829533e-07 0.0 
2.380236829533e-07 4.936160224660e-04 0.0 
0.0 0.0 -7.760805980730e-05 
-8.127460870577e-05 -1.704001729843e-07 0.0 
-1.704001729843e-07 5.235024448564e-04 0.0 
0.0 0.0 -8.188641417383e-05 
-7.155045226520e-05 3.113369261567e-07 0.0 
3.113369261567e-07 4.544691373911e-04 0.0 
0.0 0.0 -7.197242596511e-05 
-9.398834813403e-05 -4.649841708638e-07 0.0 
-4.649841708638e-07 6.067163141264e-04 0.0 
0.0 0.0 -9.378238744040e-05 
-1.466888889075e-04 -6.905876409824e-07 0.0 
-6.905876409824e-07 9.729931165237e-04 0.0 
0.0 0.0 -1.462607504514e-04 
-7.572467440231e-05 1.210487184868e-07 0.0 
1.210487184868e-07 4.846162633768e-04 0.0 
0.0 0.0 -7.626743364961e-05 
-6.621416197033e-05 -1.397216265960e-07 0.0 
-1.397216265960e-07 4.154095652474e-04 0.0 
0.0 0.0 -6.634679566782e-05 
-6.190172954625e-05 4.165851450949e-07 0.0 
4.165851450949e-07 3.853087909955e-04 0.0 
0.0 0.0 -6.205237226325e-05 
-5.628575454228e-05 3.940532300384e-08 0.0 
3.940532300384e-08 3.460724695174e-04 0.0 
0.0 0.0 -5.642855255362e-05 
-1.354938510920e-04 -2.913953566673e-06 0.0 
-2.913953566673e-06 9.082152710087e-04 0.0 
0.0 0.0 -1.368953805519e-04 
-1.462552660591e-04 1.249747586106e-07 0.0 
1.249747586106e-07 9.752174249571e-04 0.0 
0.0 0.0 -1.465891790687e-04 
-1.414040401139e-04 -1.271486640511e-06 0.0 
-1.271486640511e-06 9.428451641582e-04 0.0 
0.0 0.0 -1.420291944686e-04 
-1.520026480131e-04 -3.631190555519e-07 0.0 
-3.631190555519e-07 1.012864624851e-03 0.0 
0.0 0.0 -1.519432683735e-04 
-1.472985787471e-04 -1.382728633740e-06 0.0 
-1.382728633740e-06 9.819853291120e-04 0.0 
0.0 0.0 -1.475277143832e-04 
-6.049783873772e-05 -1.110839167728e-06 0.0 
-1.110839167728e-06 3.760535738177e-04 0.0 
0.0 0.0 -6.071687451653e-05 
-1.539446624240e-04 -1.181077219234e-06 0.0 
-1.181077219234e-06 1.026370553893e-03 0.0 
0.0 0.0 -1.540030753513e-04 
-1.562964739112e-04 4.946292658218e-07 0.0 
4.946292658218e-07 1.043020722120e-03 0.0 
0.0 0.0 -1.563396320792e-04 
-1.184118913967e-04 1.857139776564e-07 0.0 
1.857139776564e-07 7.754976810309e-04 0.0 
0.0 0.0 -1.179280690692e-04 
-1.062500152817e-04 1.741187945379e-07 0.0 
1.741187945379e-07 6.928514360504e-04 0.0 
0.0 0.0 -1.061413340584e-04 
-1.205167248159e-04 -5.462407212351e-07 0.0 
-5.462407212351e-07 7.925156879070e-04 0.0 
0.0 0.0 -1.204127835607e-04 
-8.548976471001e-05 -7.615656520967e-07 0.0 
-7.615656520967e-07 5.535587085213e-04 0.0 
0.0 0.0 -8.618857558133e-05 
-7.988885271144e-05 1.897397534693e-07 0.0 
1.897397534693e-07 5.152050676733e-04 0.0 
0.0 0.0 -8.057008281249e-05 
-9.032121231226e-05 -1.684930927318e-06 0.0 
-1.684930927318e-06 5.843848000393e-04 0.0 
0.0 0.0 -9.050178936823e-05 
-1.196337930892e-04 1.102008659663e-07 0.0 
1.102008659663e-07 7.876256328336e-04 0.0 
0.0 0.0 -1.197064290626e-04 
-1.239088484819e-04 1.270562820447e-07 0.0 
1.270562820447e-07 8.174720289214e-04 0.0 
0.0 0.0 -1.239919845821e-04 
-1.295076006245e-04 6.163016450203e-08 0.0 
6.163016450203e-08 8.563536897128e-04 0.0 
0.0 0.0 -1.295728275001e-04 
-1.338245653935e-04 6.187832994797e-08 0.0 
6.187832994797e-08 8.862996102706e-04 0.0 
0.0 0.0 -1.338680086136e-04 
-1.393975761356e-04 4.550308926581e-08 0.0 
4.550308926581e-08 9.252125319019e-04 0.0 
0.0 0.0 -1.394574676997e-04 
-1.437406368722e-04 1.277074154763e-07 0.0 
1.277074154763e-07 9.552601406530e-04 0.0 
0.0 0.0 -1.437562178924e-04 
-1.381365115215e-04 -6.384328167060e-08 0.0 
-6.384328167060e-08 9.162527365186e-04 0.0 
0.0 0.0 -1.381609243235e-04 
-1.481035666194e-04 -1.079358485103e-07 0.0 
-1.079358485103e-07 9.853010756590e-04 0.0 
0.0 0.0 -1.480541560501e-04 
-1.424433669279e-04 -2.461913392847e-07 0.0 
-2.461913392847e-07 9.462005835288e-04 0.0 
0.0 0.0 -1.424551100593e-04 
-1.492800736972e-04 1.903860536894e-07 0.0 
1.903860536894e-07 9.941570401524e-04 0.0 
0.0 0.0 -1.493525342080e-04 
-1.449751840430e-04 -1.306362921352e-07 0.0 
-1.306362921352e-07 9.640748764024e-04 0.0 
0.0 0.0 -1.450229800689e-04 
-1.523999948246e-04 -3.989684281703e-07 0.0 
-3.989684281703e-07 1.015224728092e-03 0.0 
0.0 0.0 -1.523522284989e-04 
-1.467103464147e-04 -2.659540217927e-07 0.0 
-2.659540217927e-07 9.761558421408e-04 0.0 
0.0 0.0 -1.467489045856e-04 
-1.565625592364e-04 -4.158419287494e-07 0.0 
-4.158419287494e-07 1.045129081510e-03 0.0 
0.0 0.0 -1.566543602455e-04 
-1.508966779748e-04 -3.393169835015e-07 0.0 
-3.393169835015e-07 1.005998704446e-03 0.0 
0.0 0.0 -1.510511651883e-04 
-1.410712457468e-04 -1.790301414096e-07 0.0 
-1.790301414096e-07 9.369358529960e-04 0.0 
0.0 0.0 -1.411301529270e-04 
-1.452736367783e-04 -1.279390741405e-07 0.0 
-1.279390741405e-07 9.667244667063e-04 0.0 
0.0 0.0 -1.454254449112e-04 
-1.355658465602e-04 -3.525019047488e-07 0.0 
-3.525019047488e-07 8.980272974833e-04 0.0 
0.0 0.0 -1.355350811980e-04 
-1.247169685603e-04 -5.424891476076e-07 0.0 
-5.424891476076e-07 8.219820472476e-04 0.0 
0.0 0.0 -1.246443719175e-04 
-1.302412994967e-04 -6.709375140068e-07 0.0 
-6.709375140068e-07 8.602885817839e-04 0.0 
0.0 0.0 -1.301366355066e-04 
-1.344319823677e-04 -5.992072868323e-07 0.0 
-5.992072868323e-07 8.897694935505e-04 0.0 
0.0 0.0 -1.343775141111e-04 
-1.400237331498e-04 -7.656893218291e-07 0.0 
-7.656893218291e-07 9.282252120942e-04 0.0 
0.0 0.0 -1.398832378697e-04 
-1.441786028548e-04 -7.248633173167e-07 0.0 
-7.248633173167e-07 9.577423680475e-04 0.0 
0.0 0.0 -1.441376510238e-04 
-1.498975004286e-04 -8.881523903679e-07 0.0 
-8.881523903679e-07 9.963296213112e-04 0.0 
0.0 0.0 -1.496454511588e-04 
-1.540303661717e-04 -7.919312302377e-07 0.0 
-7.919312302377e-07 1.025660690864e-03 0.0 
0.0 0.0 -1.539048756661e-04 
-1.483333586792e-04 -5.305309886563e-07 0.0 
-5.305309886563e-07 9.873032168340e-04 0.0 
0.0 0.0 -1.483914164041e-04 
-1.531422374596e-04 -8.663739869803e-07 0.0 
-8.663739869803e-07 1.017764678093e-03 0.0 
0.0 0.0 -1.527153750466e-04 
-9.159847415972e-05 -1.256689801575e-07 0.0 
-1.256689801575e-07 5.906791861929e-04 0.0 
0.0 0.0 -9.143391812226e-05 
-8.744560526880e-05 -1.314299425383e-07 0.0 
-1.314299425383e-07 5.615762013321e-04 0.0 
0.0 0.0 -8.725348065585e-05 
-8.202336977827e-05 5.298561278526e-08 0.0 
5.298561278526e-08 5.236724682599e-04 0.0 
0.0 0.0 -8.181782897632e-05 
-7.787136643021e-05 -4.089849052201e-08 0.0 
-4.089849052201e-08 4.946511796611e-04 0.0 
0.0 0.0 -7.764583100160e-05 
-7.249839660415e-05 3.138088007648e-07 0.0 
3.138088007648e-07 4.567503960433e-04 0.0 
0.0 0.0 -7.221245969917e-05 
-6.836637044469e-05 1.575150055603e-07 0.0 
1.575150055603e-07 4.279278736544e-04 0.0 
0.0 0.0 -6.805748655366e-05 
-6.305635467696e-05 5.617632190065e-07 0.0 
5.617632190065e-07 3.898265041818e-04 0.0 
0.0 0.0 -6.258396351101e-05 
-6.700103591366e-05 8.220641914788e-07 0.0 
8.220641914788e-07 4.186472656110e-04 0.0 
0.0 0.0 -6.675491739715e-05 
-5.754489831194e-05 1.185749684510e-06 0.0 
1.185749684510e-06 3.514253860379e-04 0.0 
0.0 0.0 -5.707878267586e-05 
-6.126290636031e-05 1.086382821669e-06 0.0 
1.086382821669e-06 3.802508716618e-04 0.0 
0.0 0.0 -6.128043668686e-05 
-5.191997638371e-05 1.314501197429e-06 0.0 
1.314501197429e-06 3.126420855080e-04 0.0 
0.0 0.0 -5.156902369321e-05 
-5.548063518944e-05 1.243851983737e-06 0.0 
1.243851983737e-06 3.415672031581e-04 0.0 
0.0 0.0 -5.575645035334e-05 
-1.344754893882e-04 -2.441387490924e-07 0.0 
-2.441387490924e-07 8.901905827652e-04 0.0 
0.0 0.0 -1.344534760290e-04 
-1.456336275119e-04 -7.568221187933e-07 0.0 
-7.568221187933e-07 9.666800779835e-04 0.0 
0.0 0.0 -1.453735332694e-04 
-1.555049783814e-04 -4.155015620933e-07 0.0 
-4.155015620933e-07 1.035032948266e-03 0.0 
0.0 0.0 -1.551468130506e-04 
-1.509958831296e-04 -4.550450407200e-07 0.0 
-4.550450407200e-07 1.004729653599e-03 0.0 
0.0 0.0 -1.507981208515e-04 
-5.237773532105e-05 7.911299625010e-08 0.0 
7.911299625010e-08 3.162172589784e-04 0.0 
0.0 0.0 -5.213283032136e-05 
-1.549595763032e-04 -3.953475088671e-07 0.0 
-3.953475088671e-07 1.035774981690e-03 0.0 
0.0 0.0 -1.553660438793e-04 
-1.548355158551e-04 -2.147058021658e-07 0.0 
-2.147058021658e-07 1.033072477775e-03 0.0 
0.0 0.0 -1.549384463224e-04 
-1.505618374828e-04 -5.346193515462e-07 0.0 
-5.346193515462e-07 1.002549198399e-03 0.0 
0.0 0.0 -1.505609887339e-04 
-1.581943545466e-04 -1.140192146813e-07 0.0 
-1.140192146813e-07 1.055484497313e-03 0.0 
0.0 0.0 -1.581898251365e-04 
-5.074202381651e-05 -4.469562897143e-07 0.0 
-4.469562897143e-07 3.073591846823e-04 0.0 
0.0 0.0 -5.088881735611e-05 
-5.888894202551e-05 -5.741143861349e-08 0.0 
-5.741143861349e-08 3.614604751917e-04 0.0 
0.0 0.0 -5.849107602244e-05 
-6.412075790079e-05 -1.262278375702e-08 0.0 
-1.262278375702e-08 3.988248925712e-04 0.0 
0.0 0.0 -6.391656864161e-05 
-1.574092422667e-04 -9.339425827557e-07 0.0 
-9.339425827557e-07 1.050297343269e-03 0.0 
0.0 0.0 -1.573311895261e-04 
-1.526877283991e-04 -1.284456620320e-06 0.0 
-1.284456620320e-06 1.019137079127e-03 0.0 
0.0 0.0 -1.529187321887e-04 
-1.603825137223e-04 -5.841749785693e-07 0.0 
-5.841749785693e-07 1.071965760526e-03 0.0 
0.0 0.0 -1.605236522104e-04 
-5.469413786455e-05 -7.281622474744e-07 0.0 
-7.281622474744e-07 3.375315586186e-04 0.0 
0.0 0.0 -5.513621196740e-05 
-1.581536908889e-04 -3.654449846176e-07 0.0 
-3.654449846176e-07 1.054473463793e-03 0.0 
0.0 0.0 -1.579496168166e-04 
-4.796468630861e-05 1.896906112626e-06 0.0 
1.896906112626e-06 2.843046372018e-04 0.0 
0.0 0.0 -4.740762976608e-05 
-1.492957563781e-04 2.220942752480e-07 0.0 
2.220942752480e-07 9.964627124321e-04 0.0 
0.0 0.0 -1.497345920687e-04 
-1.590878470858e-04 -2.496159838046e-07 0.0 
-2.496159838046e-07 1.065574434498e-03 0.0 
0.0 0.0 -1.596751832792e-04 
-1.325072402165e-04 -1.969088110070e-07 0.0 
-1.969088110070e-07 8.772948073459e-04 0.0 
0.0 0.0 -1.325798954328e-04 
-1.608189791387e-04 2.014272611918e-07 0.0 
2.014272611918e-07 1.073406976442e-03 0.0 
0.0 0.0 -1.606363799130e-04 
-1.561309716741e-04 -2.339592577673e-07 0.0 
-2.339592577673e-07 1.041858527671e-03 0.0 
0.0 0.0 -1.562164154417e-04 
-6.542148837339e-05 5.946748364299e-07 0.0 
5.946748364299e-07 4.098578497775e-04 0.0 
0.0 0.0 -6.552037126556e-05 
-6.021736437679e-05 -6.684208511404e-07 0.0 
-6.684208511404e-07 3.714517723808e-04 0.0 
0.0 0.0 -6.000043125475e-05 
-5.068915045621e-05 -1.408380561498e-07 0.0 
-1.408380561498e-07 3.045038040978e-04 0.0 
0.0 0.0 -5.043265711026e-05 
-5.453954142818e-05 2.060651504186e-07 0.0 
2.060651504186e-07 3.366924109337e-04 0.0 
0.0 0.0 -5.469261876575e-05 
-6.451407366441e-05 2.351316534634e-07 0.0 
2.351316534634e-07 4.022325511173e-04 0.0 
0.0 0.0 -6.426716227193e-05 
-5.833627625562e-05 1.475332914289e-06 0.0 
1.475332914289e-06 3.627446873596e-04 0.0 
0.0 0.0 -5.871258337438e-05 
-4.807156131251e-05 2.860984901678e-06 0.0 
2.860984901678e-06 2.943856579529e-04 0.0 
0.0 0.0 -4.913324142619e-05 
-5.254361987426e-05 1.123300701462e-06 0.0 
1.123300701462e-06 3.235079135303e-04 0.0 
0.0 0.0 -5.312780584397e-05 
-6.250659233249e-05 1.032214388617e-06 0.0 
1.032214388617e-06 3.916354902735e-04 0.0 
0.0 0.0 -6.289080004402e-05 
-5.683371271564e-05 6.514617663209e-07 0.0 
6.514617663209e-07 3.524304224725e-04 0.0 
0.0 0.0 -5.728364188530e-05 
-4.626688611708e-05 9.433782266076e-08 0.0 
9.433782266076e-08 2.835389789337e-04 0.0 
0.0 0.0 -4.745589417336e-05 
-5.129426302525e-05 -1.503356296708e-07 0.0 
-1.503356296708e-07 3.125902668457e-04 0.0 
0.0 0.0 -5.163203607156e-05 
-1.648607225605e-04 -6.089305084908e-07 0.0 
-6.089305084908e-07 1.104792906558e-03 0.0 
0.0 0.0 -1.652812738464e-04 
-4.167405797836e-05 8.410179837610e-07 0.0 
8.410179837610e-07 2.451219688669e-04 0.0 
0.0 0.0 -4.186284350154e-05 
-1.249684890118e-04 -2.205649056545e-07 0.0 
-2.205649056545e-07 8.202073805391e-04 0.0 
0.0 0.0 -1.243305906297e-04 
-1.646630308387e-04 -1.022913161014e-08 0.0 
-1.022913161014e-08 1.101899429601e-03 0.0 
0.0 0.0 -1.648518411109e-04 
-1.639675080930e-04 -1.299974009234e-07 0.0 
-1.299974009234e-07 1.093025674446e-03 0.0 
0.0 0.0 -1.635990625314e-04 
-1.626548351363e-04 -9.421237167933e-07 0.0 
-9.421237167933e-07 1.087804894673e-03 0.0 
0.0 0.0 -1.627548864773e-04 
-1.581986558715e-04 -9.653447949462e-07 0.0 
-9.653447949462e-07 1.056782727253e-03 0.0 
0.0 0.0 -1.583405447554e-04 
-1.481377693349e-04 -2.120708352150e-07 0.0 
-2.120708352150e-07 9.876266265678e-04 0.0 
0.0 0.0 -1.484606848305e-04 
-1.540154319252e-04 -3.355995825506e-07 0.0 
-3.355995825506e-07 1.026130043866e-03 0.0 
0.0 0.0 -1.539002516356e-04 
-1.639459642661e-04 -1.118185498440e-06 0.0 
-1.118185498440e-06 1.095163385158e-03 0.0 
0.0 0.0 -1.637913674505e-04 
-1.597127986535e-04 -5.251908400988e-07 0.0 
-5.251908400988e-07 1.064343135399e-03 0.0 
0.0 0.0 -1.593514347843e-04 
-1.498284746973e-04 -2.503307102559e-07 0.0 
-2.503307102559e-07 9.952508194671e-04 0.0 
0.0 0.0 -1.494394109873e-04 
-1.551654717719e-04 -2.221504212274e-07 0.0 
-2.221504212274e-07 1.032948984562e-03 0.0 
0.0 0.0 -1.548970433853e-04 
-1.450485534152e-04 -2.383136960808e-07 0.0 
-2.383136960808e-07 9.636019756158e-04 0.0 
0.0 0.0 -1.449683599891e-04 
-1.505550421048e-04 1.094892235923e-07 0.0 
1.094892235923e-07 1.001407844642e-03 0.0 
0.0 0.0 -1.504333548381e-04 
-1.604309941691e-04 -2.109459501862e-07 0.0 
-2.109459501862e-07 1.070618892500e-03 0.0 
0.0 0.0 -1.603701620288e-04 
-1.560376916017e-04 -3.456752304365e-07 0.0 
-3.456752304365e-07 1.039490983705e-03 0.0 
0.0 0.0 -1.559081117414e-04 
-1.463603444154e-04 5.238436514868e-07 0.0 
5.238436514868e-07 9.703937077682e-04 0.0 
0.0 0.0 -1.459586303199e-04 
-1.516966554836e-04 -5.880015514228e-07 0.0 
-5.880015514228e-07 1.008208762980e-03 0.0 
0.0 0.0 -1.514361790689e-04 
-1.421096498293e-04 1.604631745138e-07 0.0 
1.604631745138e-07 9.389173202103e-04 0.0 
0.0 0.0 -1.414740555389e-04 
-1.468086585315e-04 -1.361458900587e-06 0.0 
-1.361458900587e-06 9.758542090481e-04 0.0 
0.0 0.0 -1.469409179663e-04 
-1.568420766373e-04 -2.584461478695e-07 0.0 
-2.584461478695e-07 1.046197364230e-03 0.0 
0.0 0.0 -1.569152749070e-04 
-4.415663167365e-05 -1.039285152091e-07 0.0 
-1.039285152091e-07 2.708684229223e-04 0.0 
0.0 0.0 -4.553936700826e-05 
-1.526637656570e-04 1.250996266671e-07 0.0 
1.250996266671e-07 1.017041372094e-03 0.0 
0.0 0.0 -1.526598922342e-04 
-1.628543927015e-04 1.351270598111e-06 0.0 
1.351270598111e-06 1.085793726948e-03 0.0 
0.0 0.0 -1.625747755015e-04 
-8.563655870662e-05 -3.488146837263e-06 0.0 
-3.488146837263e-06 5.496252535939e-04 0.0 
0.0 0.0 -8.506982008416e-05 
-9.486581924080e-05 -3.814151178450e-06 0.0 
-3.814151178450e-06 6.119359456549e-04 0.0 
0.0 0.0 -9.488074031859e-05 
-1.005495603609e-04 3.086228134672e-07 0.0 
3.086228134672e-07 6.529918919365e-04 0.0 
0.0 0.0 -1.004348942539e-04 
-1.044776236545e-04 -3.577979789199e-07 0.0 
-3.577979789199e-07 6.841250152862e-04 0.0 
0.0 0.0 -1.048029480622e-04 
-1.519826796643e-04 -1.039717232479e-06 0.0 
-1.039717232479e-06 1.014113556129e-03 0.0 
0.0 0.0 -1.523216651845e-04 
-1.628631714461e-04 6.789175869979e-07 0.0 
6.789175869979e-07 1.084318911977e-03 0.0 
0.0 0.0 -1.624109035739e-04 
-5.449179525623e-05 -7.987416053230e-08 0.0 
-7.987416053230e-08 3.327114773236e-04 0.0 
0.0 0.0 -5.446356520677e-05 
-5.983794664642e-05 5.165551288587e-07 0.0 
5.165551288587e-07 3.698050392348e-04 0.0 
0.0 0.0 -5.981452797925e-05 
-1.671906361362e-04 -6.280906550938e-07 0.0 
-6.280906550938e-07 1.118589944564e-03 0.0 
0.0 0.0 -1.671574094483e-04 
-1.535741135101e-04 4.867165336144e-08 0.0 
4.867165336144e-08 1.026955907390e-03 0.0 
0.0 0.0 -1.540568046000e-04 
-1.438756782793e-04 7.792960236787e-07 0.0 
7.792960236787e-07 9.575022276215e-04 0.0 
0.0 0.0 -1.441490849774e-04 
-1.009130978815e-04 2.058688768753e-07 0.0 
2.058688768753e-07 6.559900048877e-04 0.0 
0.0 0.0 -1.008290295839e-04 
-9.685773395831e-05 4.264808855012e-07 0.0 
4.264808855012e-07 6.270397862493e-04 0.0 
0.0 0.0 -9.674459360631e-05 
-9.135164612507e-05 -1.903780837398e-07 0.0 
-1.903780837398e-07 5.899287429268e-04 0.0 
0.0 0.0 -9.139696625653e-05 
-8.725354889556e-05 6.962837147412e-07 0.0 
6.962837147412e-07 5.598510728809e-04 0.0 
0.0 0.0 -8.718447207042e-05 
-9.300425525152e-05 1.437996831778e-06 0.0 
1.437996831778e-06 5.988622257639e-04 0.0 
0.0 0.0 -9.260497328457e-05 
-8.151290837503e-05 -1.410580149273e-06 0.0 
-1.410580149273e-06 5.218003047074e-04 0.0 
0.0 0.0 -8.172223224803e-05 
-1.406089208823e-04 -2.402054608790e-07 0.0 
-2.402054608790e-07 9.332894798307e-04 0.0 
0.0 0.0 -1.405957691658e-04 
-1.658683700673e-04 -7.646942833602e-07 0.0 
-7.646942833602e-07 1.108741460833e-03 0.0 
0.0 0.0 -1.658562309426e-04 
-5.781518420954e-05 1.266454175936e-06 0.0 
1.266454175936e-06 3.557470476378e-04 0.0 
0.0 0.0 -5.779306812918e-05 
-4.802865254420e-05 7.137000022052e-07 0.0 
7.137000022052e-07 2.866754704248e-04 0.0 
0.0 0.0 -4.790438838533e-05 
-1.638603738935e-04 -1.751728736807e-07 0.0 
-1.751728736807e-07 1.096449059773e-03 0.0 
0.0 0.0 -1.639950272516e-04 
-1.428406885554e-04 -4.063061608451e-08 0.0 
-4.063061608451e-08 9.487085255522e-04 0.0 
0.0 0.0 -1.428423306355e-04 
-1.397754667912e-04 -5.337001690440e-07 0.0 
-5.337001690440e-07 9.273626177410e-04 0.0 
0.0 0.0 -1.397960314865e-04 
-1.438858799674e-04 -3.687014672477e-07 0.0 
-3.687014672477e-07 9.563861152014e-04 0.0 
0.0 0.0 -1.439752108775e-04 
-1.492610894434e-04 -6.859194927329e-07 0.0 
-6.859194927329e-07 9.938921068845e-04 0.0 
0.0 0.0 -1.493569516990e-04 
-1.533583656652e-04 -2.578988813189e-07 0.0 
-2.578988813189e-07 1.023001986965e-03 0.0 
0.0 0.0 -1.535627705943e-04 
-1.589055659580e-04 -8.108043834340e-07 0.0 
-8.108043834340e-07 1.060829964530e-03 0.0 
0.0 0.0 -1.589810023698e-04 
-1.631518145122e-04 -4.384743000289e-07 0.0 
-4.384743000289e-07 1.089769235200e-03 0.0 
0.0 0.0 -1.631781870057e-04 
-1.576954622164e-04 7.757103855077e-08 0.0 
7.757103855077e-08 1.052834468886e-03 0.0 
0.0 0.0 -1.577686755743e-04 
-1.655653749574e-04 1.153777774229e-06 0.0 
1.153777774229e-06 1.110734179248e-03 0.0 
0.0 0.0 -1.661194977352e-04 
-1.676568937117e-04 -5.380450323564e-07 0.0 
-5.380450323564e-07 1.120118409862e-03 0.0 
0.0 0.0 -1.673875415144e-04 
-1.408452494755e-04 1.226026312677e-06 0.0 
1.226026312677e-06 9.416014478326e-04 0.0 
0.0 0.0 -1.423072560050e-04 
-1.411610954119e-04 -1.667686956677e-07 0.0 
-1.667686956677e-07 9.361864568386e-04 0.0 
0.0 0.0 -1.409767306836e-04 
-6.685806001299e-05 8.336719987082e-07 0.0 
8.336719987082e-07 4.210903405702e-04 0.0 
0.0 0.0 -6.711978442003e-05 
-4.180859338127e-05 -2.391316367319e-06 0.0 
-2.391316367319e-06 2.386470707080e-04 0.0 
0.0 0.0 -4.128748474099e-05 
-4.202443748219e-05 2.082260459362e-08 0.0 
2.082260459362e-08 2.421619926750e-04 0.0 
0.0 0.0 -4.155413421678e-05 
-4.885629556399e-05 9.695166710736e-07 0.0 
9.695166710736e-07 2.973049205982e-04 0.0 
0.0 0.0 -4.949622909127e-05 
-5.886475257555e-05 5.012940386976e-07 0.0 
5.012940386976e-07 3.671165151901e-04 0.0 
0.0 0.0 -5.942331684616e-05 
-1.701524326179e-04 -2.478949267954e-07 0.0 
-2.478949267954e-07 1.141091287684e-03 0.0 
0.0 0.0 -1.704540905158e-04 
-1.688701131472e-04 -7.880779693720e-07 0.0 
-7.880779693720e-07 1.128148657559e-03 0.0 
0.0 0.0 -1.686097943865e-04 
-1.645187862567e-04 -7.830603816418e-07 0.0 
-7.830603816418e-07 1.098043410909e-03 0.0 
0.0 0.0 -1.643423135982e-04 
-8.335621055865e-05 3.090761482562e-06 0.0 
3.090761482562e-06 5.330757850641e-04 0.0 
0.0 0.0 -8.309698707208e-05 
-8.907622380058e-05 9.098765487225e-07 0.0 
9.098765487225e-07 5.710176681635e-04 0.0 
0.0 0.0 -8.857956952730e-05 
-1.698091735536e-04 4.492498910092e-07 0.0 
4.492498910092e-07 1.141399927452e-03 0.0 
0.0 0.0 -1.704417977873e-04 
-1.357890576857e-04 -2.245189513229e-07 0.0 
-2.245189513229e-07 9.134142540395e-04 0.0 
0.0 0.0 -1.376677267776e-04 
-1.395432965358e-04 -1.715851711574e-07 0.0 
-1.715851711574e-07 9.262509041073e-04 0.0 
0.0 0.0 -1.395319589165e-04 
-1.347947841220e-04 2.713370184276e-07 0.0 
2.713370184276e-07 8.938256624501e-04 0.0 
0.0 0.0 -1.350285088515e-04 
-3.672231146069e-05 -2.132510581459e-06 0.0 
-2.132510581459e-06 2.203530386721e-04 0.0 
0.0 0.0 -3.892831888128e-05 
-3.637712963261e-05 7.197511136289e-07 0.0 
7.197511136289e-07 2.141167117019e-04 0.0 
0.0 0.0 -3.788396651026e-05 
-1.694800178962e-04 -9.883703524795e-07 0.0 
-9.883703524795e-07 1.133513736801e-03 0.0 
0.0 0.0 -1.692545752333e-04 
-6.937545800042e-05 3.228980611411e-07 0.0 
3.228980611411e-07 4.358386743780e-04 0.0 
0.0 0.0 -6.923809046111e-05 
-6.522800914265e-05 4.802178938973e-07 0.0 
4.802178938973e-07 4.068593445534e-04 0.0 
0.0 0.0 -6.513959669466e-05 
-3.835293382449e-05 1.419780011636e-06 0.0 
1.419780011636e-06 2.169955699432e-04 0.0 
0.0 0.0 -3.762272808090e-05 
-3.184713987987e-05 3.230456577081e-07 0.0 
3.230456577081e-07 1.763378694127e-04 0.0 
0.0 0.0 -3.215802126946e-05 
-1.564097184147e-04 2.852905095697e-06 0.0 
2.852905095697e-06 1.049316422252e-03 0.0 
0.0 0.0 -1.577722324506e-04 
-1.666476506988e-04 2.040589658683e-06 0.0 
2.040589658683e-06 1.120282174027e-03 0.0 
0.0 0.0 -1.676789152757e-04 
-1.096907460405e-04 -3.286013999443e-07 0.0 
-3.286013999443e-07 7.221561234986e-04 0.0 
0.0 0.0 -1.103539394458e-04 
-1.146883842954e-04 -1.653249674978e-06 0.0 
-1.653249674978e-06 7.528293944776e-04 0.0 
0.0 0.0 -1.147244957885e-04 
-1.658368221067e-04 -7.296927506317e-07 0.0 
-7.296927506317e-07 1.111095675298e-03 0.0 
0.0 0.0 -1.661337593878e-04 
-4.600380394054e-05 -1.491158073068e-07 0.0 
-1.491158073068e-07 2.738216254214e-04 0.0 
0.0 0.0 -4.591192000902e-05 
-1.719378156417e-04 1.421041712674e-07 0.0 
1.421041712674e-07 1.154049105325e-03 0.0 
0.0 0.0 -1.723772497485e-04 
-1.472965570201e-04 4.727447796769e-07 0.0 
4.727447796769e-07 9.788476002172e-04 0.0 
0.0 0.0 -1.471186205066e-04 
-1.373907042142e-04 1.793164290013e-07 0.0 
1.793164290013e-07 9.102123959892e-04 0.0 
0.0 0.0 -1.372860605493e-04 
-9.767120859221e-05 2.136804418641e-06 0.0 
2.136804418641e-06 6.441362083975e-04 0.0 
0.0 0.0 -9.906935000530e-05 
-5.062215510686e-05 1.026665089058e-06 0.0 
1.026665089058e-06 3.047645721911e-04 0.0 
0.0 0.0 -5.049648738178e-05 
-4.540502709285e-05 6.832131871419e-07 0.0 
6.832131871419e-07 2.672371430162e-04 0.0 
0.0 0.0 -4.513648964862e-05 
-7.256428344436e-05 1.111321589037e-06 0.0 
1.111321589037e-06 4.598861736081e-04 0.0 
0.0 0.0 -7.268378841861e-05 
-5.559787971176e-05 4.468565818418e-07 0.0 
4.468565818418e-07 3.424877842220e-04 0.0 
0.0 0.0 -5.585123947100e-05 
-5.303663475667e-05 2.464193940360e-07 0.0 
2.464193940360e-07 3.275568518533e-04 0.0 
0.0 0.0 -5.375179489994e-05 
-1.757934592010e-04 1.094510029965e-06 0.0 
1.094510029965e-06 1.179890690537e-03 0.0 
0.0 0.0 -1.760744972657e-04 
-1.733244805152e-04 -1.137885131472e-06 0.0 
-1.137885131472e-06 1.163616194136e-03 0.0 
0.0 0.0 -1.736362873376e-04 
-1.621997224677e-04 -1.527288975187e-06 0.0 
-1.527288975187e-06 1.082969057806e-03 0.0 
0.0 0.0 -1.620259229750e-04 
-1.525464893974e-04 4.621401952040e-09 0.0 
4.621401952040e-09 1.015177504387e-03 0.0 
0.0 0.0 -1.523516756879e-04 
-1.708917266004e-04 -1.191002855825e-06 0.0 
-1.191002855825e-06 1.149869569914e-03 0.0 
0.0 0.0 -1.717432538670e-04 
-3.490930834727e-05 -8.429582514125e-07 0.0 
-8.429582514125e-07 2.054757264963e-04 0.0 
0.0 0.0 -3.598778460012e-05 
-1.750597953055e-04 -3.250942675730e-07 0.0 
-3.250942675730e-07 1.172414927759e-03 0.0 
0.0 0.0 -1.748691643181e-04 
-1.586399412700e-04 -2.193877546445e-07 0.0 
-2.193877546445e-07 1.058088814965e-03 0.0 
0.0 0.0 -1.584205238596e-04 
-1.750232827386e-04 1.287113450679e-06 0.0 
1.287113450679e-06 1.163117526416e-03 0.0 
0.0 0.0 -1.736397701047e-04 
-1.700112759458e-04 -1.265368885601e-07 0.0 
-1.265368885601e-07 1.135355063019e-03 0.0 
0.0 0.0 -1.696829740659e-04 
-7.476684779119e-05 6.450836384553e-07 0.0 
6.450836384553e-07 4.725536723755e-04 0.0 
0.0 0.0 -7.452749745521e-05 
-7.091016921093e-05 -6.094699303137e-07 0.0 
-6.094699303137e-07 4.445526167574e-04 0.0 
0.0 0.0 -7.058709718060e-05 
-6.137074756451e-05 4.293104842187e-07 0.0 
4.293104842187e-07 3.794045980526e-04 0.0 
0.0 0.0 -6.117385547845e-05 
-6.706588179639e-05 1.609427156406e-06 0.0 
1.609427156406e-06 4.182950742711e-04 0.0 
0.0 0.0 -6.657037245228e-05 
-1.266094766854e-04 -6.739720647020e-07 0.0 
-6.739720647020e-07 8.277553541706e-04 0.0 
0.0 0.0 -1.254250592285e-04 
-8.035638793885e-05 -1.393926461579e-07 0.0 
-1.393926461579e-07 5.104400494154e-04 0.0 
0.0 0.0 -8.000873303496e-05 
-1.195834177750e-04 -1.404073059008e-07 0.0 
-1.404073059008e-07 7.834003609027e-04 0.0 
0.0 0.0 -1.190894946197e-04 
-1.155376331103e-04 -2.307315433276e-07 0.0 
-2.307315433276e-07 7.547800193782e-04 0.0 
0.0 0.0 -1.149779503611e-04 
-1.103258532928e-04 1.102189864938e-07 0.0 
1.102189864938e-07 7.186555490901e-04 0.0 
0.0 0.0 -1.097928741388e-04 
-9.842809374509e-05 1.902629040635e-07 0.0 
1.902629040635e-07 6.359410459750e-04 0.0 
0.0 0.0 -9.791810678625e-05 
-9.437419777145e-05 -2.159475299136e-07 0.0 
-2.159475299136e-07 6.080813734442e-04 0.0 
0.0 0.0 -9.392806562918e-05 
-8.322610419495e-05 -1.701840068510e-07 0.0 
-1.701840068510e-07 5.319942046353e-04 0.0 
0.0 0.0 -8.302446698330e-05 
-1.259991147617e-04 -5.365801846220e-07 0.0 
-5.365801846220e-07 8.306372732465e-04 0.0 
0.0 0.0 -1.258546578921e-04 
-1.058761433090e-04 7.571849957902e-08 0.0 
7.571849957902e-08 6.921175985289e-04 0.0 
0.0 0.0 -1.060443156317e-04 
-1.312139144854e-04 -3.837092576882e-07 0.0 
-3.837092576882e-07 8.682026054100e-04 0.0 
0.0 0.0 -1.312656420104e-04 
-1.251895528939e-04 1.195207152196e-07 0.0 
1.195207152196e-07 8.263310173887e-04 0.0 
0.0 0.0 -1.252521985300e-04 
-1.703049238627e-04 -5.676244569172e-07 0.0 
-5.676244569172e-07 1.139278121345e-03 0.0 
0.0 0.0 -1.702664597809e-04 
-1.760146123077e-04 -1.359452968980e-06 0.0 
-1.359452968980e-06 1.178275809354e-03 0.0 
0.0 0.0 -1.757907768048e-04 
-1.365524219146e-04 1.370157856815e-06 0.0 
1.370157856815e-06 9.012669428523e-04 0.0 
0.0 0.0 -1.359860927471e-04 
-1.307920283978e-04 1.357393189447e-07 0.0 
1.357393189447e-07 8.686300506088e-04 0.0 
0.0 0.0 -1.314620690688e-04 
-4.233213601894e-05 -2.593523707964e-07 0.0 
-2.593523707964e-07 2.470565775743e-04 0.0 
0.0 0.0 -4.219739737344e-05 
-3.886008786518e-05 1.163800211807e-06 0.0 
1.163800211807e-06 2.179605684997e-04 0.0 
0.0 0.0 -3.798854165781e-05 
-1.182815464932e-04 7.930796381185e-08 0.0 
7.930796381185e-08 7.785584436133e-04 0.0 
0.0 0.0 -1.184174655913e-04 
-1.693736305393e-04 6.591876404938e-07 0.0 
6.591876404938e-07 1.131789490517e-03 0.0 
0.0 0.0 -1.691294037713e-04 
-1.725748694788e-04 -2.401644388834e-08 0.0 
-2.401644388834e-08 1.155505334098e-03 0.0 
0.0 0.0 -1.725143790870e-04 
-1.770772882819e-04 -4.241524903004e-07 0.0 
-4.241524903004e-07 1.186342832568e-03 0.0 
0.0 0.0 -1.769059244357e-04 
-1.714408370001e-04 -4.978042219239e-07 0.0 
-4.978042219239e-07 1.148550534216e-03 0.0 
0.0 0.0 -1.715053987883e-04 
-1.710166963781e-04 1.347194091456e-07 0.0 
1.347194091456e-07 1.148948053295e-03 0.0 
0.0 0.0 -1.716410088010e-04 
-8.613875064520e-05 1.983705843868e-08 0.0 
1.983705843868e-08 5.527937603815e-04 0.0 
0.0 0.0 -8.600610143220e-05 
-1.288985122743e-04 -4.311114656054e-07 0.0 
-4.311114656054e-07 8.513543686181e-04 0.0 
0.0 0.0 -1.288645011303e-04 
-3.653516155706e-05 -1.602670112053e-06 0.0 
-1.602670112053e-06 2.073406842075e-04 0.0 
0.0 0.0 -3.634822514125e-05 
-1.333225735758e-04 1.155434495761e-07 0.0 
1.155434495761e-07 8.819083259488e-04 0.0 
0.0 0.0 -1.332694147460e-04 
-3.243355553450e-05 -5.508408617257e-07 0.0 
-5.508408617257e-07 1.777229056962e-04 0.0 
0.0 0.0 -3.243805315734e-05 
-1.521318087540e-04 -2.136602868640e-07 0.0 
-2.136602868640e-07 1.009920947414e-03 0.0 
0.0 0.0 -1.515479370354e-04 
-1.681720023865e-04 8.090304823283e-08 0.0 
8.090304823283e-08 1.126882532784e-03 0.0 
0.0 0.0 -1.684223758654e-04 
-1.735596513314e-04 4.917479192757e-09 0.0 
4.917479192757e-09 1.165356413454e-03 0.0 
0.0 0.0 -1.738820625913e-04 
-1.749637471521e-04 2.720388968619e-07 0.0 
2.720388968619e-07 1.178416888185e-03 0.0 
0.0 0.0 -1.757938962529e-04 
-1.125612094541e-04 1.713025509613e-06 0.0 
1.713025509613e-06 7.350876687057e-04 0.0 
0.0 0.0 -1.120642929630e-04 
-1.375852130868e-04 4.206176119327e-07 0.0 
4.206176119327e-07 9.112604874474e-04 0.0 
0.0 0.0 -1.374408399149e-04 
-1.323430315928e-04 2.679124462258e-07 0.0 
2.679124462258e-07 8.742078643875e-04 0.0 
0.0 0.0 -1.321308925596e-04 
-1.061253817389e-04 5.601605163016e-07 0.0 
5.601605163016e-07 6.904423550458e-04 0.0 
0.0 0.0 -1.057303730324e-04 
-1.010535408523e-04 5.872506187825e-07 0.0 
5.872506187825e-07 6.547439695766e-04 0.0 
0.0 0.0 -1.006129583810e-04 
-1.050589004756e-04 5.249789125323e-07 0.0 
5.249789125323e-07 6.823405630018e-04 0.0 
0.0 0.0 -1.045943784994e-04 
-9.594121695788e-05 5.701784484997e-07 0.0 
5.701784484997e-07 6.189426135763e-04 0.0 
0.0 0.0 -9.539409567622e-05 
-7.670722250222e-05 7.477520012380e-07 0.0 
7.477520012380e-07 4.887760317978e-04 0.0 
0.0 0.0 -7.683892420519e-05 
-7.103860008569e-05 4.652611723913e-07 0.0 
4.652611723913e-07 4.497405032502e-04 0.0 
0.0 0.0 -7.125283206988e-05 
-1.794791303054e-04 3.046290545188e-07 0.0 
3.046290545188e-07 1.202568044115e-03 0.0 
0.0 0.0 -1.788063205342e-04 
-1.769207863009e-04 3.279526117005e-06 0.0 
3.279526117005e-06 1.187698538996e-03 0.0 
0.0 0.0 -1.767990258301e-04 
-1.796288049769e-04 -8.041882013151e-07 0.0 
-8.041882013151e-07 1.202665816041e-03 0.0 
0.0 0.0 -1.789543763817e-04 
-1.735511399808e-04 -6.381743090014e-08 0.0 
-6.381743090014e-08 1.174777860682e-03 0.0 
0.0 0.0 -1.752247752347e-04 
-1.776329748734e-04 -4.492702858953e-07 0.0 
-4.492702858953e-07 1.208120942378e-03 0.0 
0.0 0.0 -1.801365737201e-04 
-1.734650378150e-04 -1.715499755080e-07 0.0 
-1.715499755080e-07 1.171053020005e-03 0.0 
0.0 0.0 -1.746253154232e-04 
-6.397194449559e-05 -8.644213742386e-07 0.0 
-8.644213742386e-07 3.958263205946e-04 0.0 
0.0 0.0 -6.341026310084e-05 
-8.522640710731e-05 3.477888862430e-07 0.0 
3.477888862430e-07 5.439871764934e-04 0.0 
0.0 0.0 -8.469390476807e-05 
-1.776955029070e-04 -1.524143709276e-06 0.0 
-1.524143709276e-06 1.201358150170e-03 0.0 
0.0 0.0 -1.791227834549e-04 
-1.112229346520e-04 4.789206220835e-07 0.0 
4.789206220835e-07 7.257595216689e-04 0.0 
0.0 0.0 -1.108630369651e-04 
-1.797556034384e-04 -6.312345564762e-07 0.0 
-6.312345564762e-07 1.200035518570e-03 0.0 
0.0 0.0 -1.789253132142e-04 
-1.736948380453e-04 5.431781983200e-07 0.0 
5.431781983200e-07 1.162780945010e-03 0.0 
0.0 0.0 -1.734070790826e-04 
-2.519516585345e-05 -9.707201663460e-07 0.0 
-9.707201663460e-07 1.373677520700e-04 0.0 
0.0 0.0 -2.664754339747e-05 
-3.015018737399e-05 -3.279297815400e-06 0.0 
-3.279297815400e-06 1.664829630556e-04 0.0 
0.0 0.0 -3.052430242461e-05 
-1.769892636273e-04 2.634610193557e-07 0.0 
2.634610193557e-07 1.192719086742e-03 0.0 
0.0 0.0 -1.776883310004e-04 
-5.758327952376e-05 -3.462473019841e-08 0.0 
-3.462473019841e-08 3.517263668732e-04 0.0 
0.0 0.0 -5.717887963261e-05 
-6.329339839047e-05 1.198404527509e-06 0.0 
1.198404527509e-06 3.880051844578e-04 0.0 
0.0 0.0 -6.238035407746e-05 
-5.212222281800e-05 -2.848057552126e-07 0.0 
-2.848057552126e-07 3.138366464287e-04 0.0 
0.0 0.0 -5.189549137910e-05 
-1.887618442224e-04 7.084845367266e-07 0.0 
7.084845367266e-07 1.267778144178e-03 0.0 
0.0 0.0 -1.887465440047e-04 
-1.122732225603e-04 -4.441296090606e-07 0.0 
-4.441296090606e-07 7.339799403067e-04 0.0 
0.0 0.0 -1.121888505450e-04 
-1.770685012225e-04 3.305358162577e-07 0.0 
3.305358162577e-07 1.195492347302e-03 0.0 
0.0 0.0 -1.784128478473e-04 
-1.037318983505e-04 3.959585097194e-08 0.0 
3.959585097194e-08 6.732989381237e-04 0.0 
0.0 0.0 -1.032702350429e-04 
-1.811215610528e-04 5.481099123405e-07 0.0 
5.481099123405e-07 1.225364590535e-03 0.0 
0.0 0.0 -1.824766045798e-04 
-1.418983722809e-04 3.275014927135e-07 0.0 
3.275014927135e-07 9.414952171589e-04 0.0 
0.0 0.0 -1.417367461992e-04 
-9.531983498029e-05 1.199130758146e-06 0.0 
1.199130758146e-06 6.176848429937e-04 0.0 
0.0 0.0 -9.530949026541e-05 
-1.618025468886e-04 -1.313138482705e-06 0.0 
-1.313138482705e-06 1.080414047570e-03 0.0 
0.0 0.0 -1.617266240239e-04 
-1.712367337160e-04 -2.517022686550e-06 0.0 
-2.517022686550e-06 1.155497819449e-03 0.0 
0.0 0.0 -1.723711093632e-04 
-1.839585546077e-04 1.922702604488e-06 0.0 
1.922702604488e-06 1.233266053318e-03 0.0 
0.0 0.0 -1.832438941626e-04 
-1.282285700338e-04 1.437764343269e-06 0.0 
1.437764343269e-06 8.565496247714e-04 0.0 
0.0 0.0 -1.295806172002e-04 
-1.247283955189e-04 -2.695014414448e-06 0.0 
-2.695014414448e-06 8.206621223611e-04 0.0 
0.0 0.0 -1.249156399969e-04 
-1.336973054243e-04 4.780502432985e-07 0.0 
4.780502432985e-07 8.862457055751e-04 0.0 
0.0 0.0 -1.338771030064e-04 
-4.352546499244e-05 4.436478363747e-07 0.0 
4.436478363747e-07 2.551361667223e-04 0.0 
0.0 0.0 -4.330579966881e-05 
-3.389814883689e-05 -2.442715112613e-07 0.0 
-2.442715112613e-07 1.810863350630e-04 0.0 
0.0 0.0 -3.279405811742e-05 
-1.716063829927e-04 -5.958765859028e-07 0.0 
-5.958765859028e-07 1.146696562296e-03 0.0 
0.0 0.0 -1.713135399111e-04 
-7.523536838437e-05 -6.007458973842e-07 0.0 
-6.007458973842e-07 4.758491836951e-04 0.0 
0.0 0.0 -7.509208182934e-05 
-8.235594042686e-05 2.209891807401e-06 0.0 
2.209891807401e-06 5.147698268391e-04 0.0 
0.0 0.0 -8.038827667338e-05 
-5.001146581911e-05 6.274014862645e-08 0.0 
6.274014862645e-08 3.012652504281e-04 0.0 
0.0 0.0 -4.993066604202e-05 
-5.951991557963e-05 4.745024153846e-07 0.0 
4.745024153846e-07 3.695589487495e-04 0.0 
0.0 0.0 -5.978314405524e-05 
-1.155737714789e-04 -3.760380621998e-07 0.0 
-3.760380621998e-07 7.609985150200e-04 0.0 
0.0 0.0 -1.159213944990e-04 
-1.114463395749e-04 -2.406998584791e-07 0.0 
-2.406998584791e-07 7.310738123434e-04 0.0 
0.0 0.0 -1.116262644424e-04 
-1.561658126362e-04 -5.299206413350e-07 0.0 
-5.299206413350e-07 1.039568765867e-03 0.0 
0.0 0.0 -1.558038104416e-04 
-1.616536575182e-04 8.873878670224e-08 0.0 
8.873878670224e-08 1.076746179334e-03 0.0 
0.0 0.0 -1.611194038498e-04 
-1.452021797269e-04 -7.201116330739e-07 0.0 
-7.201116330739e-07 9.647061708381e-04 0.0 
0.0 0.0 -1.451343074576e-04 
-1.417360905196e-04 8.632870990928e-08 0.0 
8.632870990928e-08 9.403024522762e-04 0.0 
0.0 0.0 -1.415933767274e-04 
-1.319020358547e-04 3.977806768538e-08 0.0 
3.977806768538e-08 8.718254866790e-04 0.0 
0.0 0.0 -1.317570344669e-04 
-1.275952978262e-04 -1.808898908878e-07 0.0 
-1.808898908878e-07 8.422298684311e-04 0.0 
0.0 0.0 -1.275414768178e-04 
-1.808056931016e-04 -1.525758788825e-06 0.0 
-1.525758788825e-06 1.206677931101e-03 0.0 
0.0 0.0 -1.799800510317e-04 
-1.870307763930e-04 -2.673876865902e-07 0.0 
-2.673876865902e-07 1.255623469781e-03 0.0 
0.0 0.0 -1.864092322314e-04 
-8.236599237368e-05 5.694757370752e-07 0.0 
5.694757370752e-07 5.272929756111e-04 0.0 
0.0 0.0 -8.232948673513e-05 
-7.828325005813e-05 7.807941924694e-07 0.0 
7.807941924694e-07 4.983469412597e-04 0.0 
0.0 0.0 -7.818189541436e-05 
-8.066781870606e-05 6.215778532638e-07 0.0 
6.215778532638e-07 5.167877030226e-04 0.0 
0.0 0.0 -8.085192856594e-05 
-1.821793884671e-04 -9.452425038886e-07 0.0 
-9.452425038886e-07 1.232295246858e-03 0.0 
0.0 0.0 -1.834584547941e-04 
-1.830922366977e-04 2.536660346183e-06 0.0 
2.536660346183e-06 1.235147881441e-03 0.0 
0.0 0.0 -1.836006722523e-04 
-1.803954664386e-04 -2.175726806454e-06 0.0 
-2.175726806454e-06 1.202974169961e-03 0.0 
0.0 0.0 -1.793731166858e-04 
-2.884547195492e-05 -1.949294581992e-06 0.0 
-1.949294581992e-06 1.508764218898e-04 0.0 
0.0 0.0 -2.821170413667e-05 
-3.570881000968e-05 -1.070718923965e-06 0.0 
-1.070718923965e-06 1.885432469507e-04 0.0 
0.0 0.0 -3.370638853217e-05 
-4.213783208319e-05 -1.170748262368e-07 0.0 
-1.170748262368e-07 2.402822286115e-04 0.0 
0.0 0.0 -4.126795851095e-05 
-3.586246974089e-05 -2.546283779184e-06 0.0 
-2.546283779184e-06 2.018033726068e-04 0.0 
0.0 0.0 -3.610688574664e-05 
-1.813118037091e-04 3.339770754453e-08 0.0 
3.339770754453e-08 1.214209313964e-03 0.0 
0.0 0.0 -1.810888083315e-04 
-1.759503644858e-04 -2.370337744316e-09 0.0 
-2.370337744316e-09 1.179752016776e-03 0.0 
0.0 0.0 -1.758947287297e-04 
-1.868380600491e-04 -2.026246098820e-08 0.0 
-2.026246098820e-08 1.260450932184e-03 0.0 
0.0 0.0 -1.871207327665e-04 
-5.677368414960e-05 2.032718348151e-06 0.0 
2.032718348151e-06 3.527741904510e-04 0.0 
0.0 0.0 -5.702308739092e-05 
-1.568027754872e-04 9.086678946456e-07 0.0 
9.086678946456e-07 1.045425867798e-03 0.0 
0.0 0.0 -1.567983548164e-04 
-1.807947804281e-04 1.816885949765e-06 0.0 
1.816885949765e-06 1.215031055035e-03 0.0 
0.0 0.0 -1.811848825972e-04 
-1.767874529665e-04 2.635533244675e-06 0.0 
2.635533244675e-06 1.187503191795e-03 0.0 
0.0 0.0 -1.767018567944e-04 
-1.863663002342e-04 1.461510242915e-06 0.0 
1.461510242915e-06 1.257417594462e-03 0.0 
0.0 0.0 -1.866936124609e-04 
-1.705605319310e-04 -3.043131196868e-07 0.0 
-3.043131196868e-07 1.147035567734e-03 0.0 
0.0 0.0 -1.713153186433e-04 
-1.813551999588e-04 -1.051944771726e-06 0.0 
-1.051944771726e-06 1.212243561196e-03 0.0 
0.0 0.0 -1.808143025540e-04 
-1.810144852020e-04 9.510582154737e-07 0.0 
9.510582154737e-07 1.215244823925e-03 0.0 
0.0 0.0 -1.813984546852e-04 
-2.289882463440e-05 -1.917411223350e-06 0.0 
-1.917411223350e-06 1.064438362998e-04 0.0 
0.0 0.0 -2.272772520152e-05 
-1.796453692485e-04 -2.519464026569e-06 0.0 
-2.519464026569e-06 1.205769465943e-03 0.0 
0.0 0.0 -1.799989151485e-04 
-1.255838269039e-04 -2.372108616113e-07 0.0 
-2.372108616113e-07 8.274746007515e-04 0.0 
0.0 0.0 -1.255735778981e-04 
-1.648487917531e-05 -4.731674107763e-06 0.0 
-4.731674107763e-06 7.996115120316e-05 0.0 
0.0 0.0 -1.701907742944e-05 
-1.197277503755e-04 -6.241620168612e-08 0.0 
-6.241620168612e-08 7.962718767862e-04 0.0 
0.0 0.0 -1.210522788133e-04 
-1.264445161814e-04 -2.564056665928e-07 0.0 
-2.564056665928e-07 8.371650247824e-04 0.0 
0.0 0.0 -1.267742309066e-04 
-1.154487627705e-04 -6.658166254296e-07 0.0 
-6.658166254296e-07 7.569378951924e-04 0.0 
0.0 0.0 -1.162214466274e-04 
-4.660515595758e-05 1.493989084367e-06 0.0 
1.493989084367e-06 2.841958466787e-04 0.0 
0.0 0.0 -4.732948783071e-05 
-1.214260254664e-04 -1.596625013767e-06 0.0 
-1.596625013767e-06 8.039136548600e-04 0.0 
0.0 0.0 -1.226115929076e-04 
-1.277494935593e-04 -2.322994823893e-06 0.0 
-2.322994823893e-06 8.489823059285e-04 0.0 
0.0 0.0 -1.283491864751e-04 
-2.181725480317e-05 4.928406156629e-07 0.0 
4.928406156629e-07 1.070930809537e-04 0.0 
0.0 0.0 -2.131994005793e-05 
-1.874449477591e-04 5.176155724588e-07 0.0 
5.176155724588e-07 1.267519228381e-03 0.0 
0.0 0.0 -1.888952332360e-04 
-2.478565018414e-05 -1.930000472000e-06 0.0 
-1.930000472000e-06 1.118328058531e-04 0.0 
0.0 0.0 -2.334665006309e-05 
-2.656716960799e-05 -2.510778064998e-06 0.0 
-2.510778064998e-06 1.411464559949e-04 0.0 
0.0 0.0 -2.709867152969e-05 
-1.817312836183e-04 2.201942420487e-06 0.0 
2.201942420487e-06 1.232410437945e-03 0.0 
0.0 0.0 -1.831822052943e-04 
-1.773206336066e-04 -2.021839507971e-07 0.0 
-2.021839507971e-07 1.191992626232e-03 0.0 
0.0 0.0 -1.776517324320e-04 
-1.872954897737e-04 -1.006614931482e-06 0.0 
-1.006614931482e-06 1.259866749947e-03 0.0 
0.0 0.0 -1.871589901852e-04 
-1.824456739670e-04 2.064220422989e-06 0.0 
2.064220422989e-06 1.218220290450e-03 0.0 
0.0 0.0 -1.816528226986e-04 
-1.719240551568e-04 -7.467342115413e-07 0.0 
-7.467342115413e-07 1.152044759436e-03 0.0 
0.0 0.0 -1.720599434401e-04 
-1.761500249536e-04 9.670950468970e-07 0.0 
9.670950468970e-07 1.183630845697e-03 0.0 
0.0 0.0 -1.764735915037e-04 
-1.203392003903e-04 -2.198342008040e-06 0.0 
-2.198342008040e-06 7.898463321084e-04 0.0 
0.0 0.0 -1.197898394197e-04 
-1.865443414806e-04 2.647479046358e-06 0.0 
2.647479046358e-06 1.260124298644e-03 0.0 
0.0 0.0 -1.873527554397e-04 
-1.803841241731e-04 6.709369355739e-07 0.0 
6.709369355739e-07 1.214344074041e-03 0.0 
0.0 0.0 -1.811164307615e-04 
-1.921061091143e-04 1.480715088923e-06 0.0 
1.480715088923e-06 1.296918019707e-03 0.0 
0.0 0.0 -1.916891122952e-04 
-9.208569695246e-05 6.093443112199e-07 0.0 
6.093443112199e-07 5.924864494399e-04 0.0 
0.0 0.0 -9.162005200151e-05 
-7.283645161877e-05 4.586395072897e-07 0.0 
4.586395072897e-07 4.547389083214e-04 0.0 
0.0 0.0 -7.184037522857e-05 
-6.889002091575e-05 3.964795035726e-07 0.0 
3.964795035726e-07 4.246717698014e-04 0.0 
0.0 0.0 -6.790877045087e-05 
-5.909497143754e-05 6.023844365174e-06 0.0 
6.023844365174e-06 3.592168662585e-04 0.0 
0.0 0.0 -5.813495639200e-05 
-1.853176739262e-04 8.122300759660e-07 0.0 
8.122300759660e-07 1.250781756793e-03 0.0 
0.0 0.0 -1.860270850411e-04 
-1.796312402729e-04 3.276727185624e-06 0.0 
3.276727185624e-06 1.208836358275e-03 0.0 
0.0 0.0 -1.800885023177e-04 
-1.631801230170e-04 1.627520387689e-07 0.0 
1.627520387689e-07 1.090569837524e-03 0.0 
0.0 0.0 -1.631333845344e-04 
-1.534477329204e-04 6.766395027793e-07 0.0 
6.766395027793e-07 1.020410487752e-03 0.0 
0.0 0.0 -1.531108459605e-04 
-1.224599435499e-04 1.078011159301e-06 0.0 
1.078011159301e-06 8.009987656654e-04 0.0 
0.0 0.0 -1.216227322220e-04 
-1.215744765480e-04 -1.237691044798e-06 0.0 
-1.237691044798e-06 7.963280792961e-04 0.0 
0.0 0.0 -1.211602941205e-04 
-1.308077100931e-04 4.769688121849e-06 0.0 
4.769688121849e-06 8.600072513362e-04 0.0 
0.0 0.0 -1.301779020232e-04 
-1.297276618714e-04 -1.066682707188e-06 0.0 
-1.066682707188e-06 8.491749556053e-04 0.0 
0.0 0.0 -1.291373028237e-04 
-1.389532460221e-04 4.549858847667e-06 0.0 
4.549858847667e-06 9.158165643447e-04 0.0 
0.0 0.0 -1.380077606708e-04 
-1.362521981567e-04 -2.124783431130e-06 0.0 
-2.124783431130e-06 9.054980890478e-04 0.0 
0.0 0.0 -1.366342160092e-04 
-1.454793170856e-04 -4.423821596291e-06 0.0 
-4.423821596291e-06 9.700799799999e-04 0.0 
0.0 0.0 -1.459037168719e-04 
-1.870833549466e-04 3.909084775636e-06 0.0 
3.909084775636e-06 1.256272641087e-03 0.0 
0.0 0.0 -1.867631680280e-04 
-4.779563930822e-05 1.388169697748e-06 0.0 
1.388169697748e-06 2.856867328083e-04 0.0 
0.0 0.0 -4.771245731983e-05 
-1.019348355349e-04 5.925610993024e-07 0.0 
5.925610993024e-07 6.625121101145e-04 0.0 
0.0 0.0 -1.017460476387e-04 
-1.826285801103e-04 -1.661566205844e-06 0.0 
-1.661566205844e-06 1.237533025725e-03 0.0 
0.0 0.0 -1.842392070075e-04 
-1.784932399449e-04 -5.084121371409e-07 0.0 
-5.084121371409e-07 1.196504370322e-03 0.0 
0.0 0.0 -1.781095211982e-04 
-9.045878749083e-05 3.060141382145e-07 0.0 
3.060141382145e-07 5.804720461946e-04 0.0 
0.0 0.0 -9.001416730698e-05 
-8.189605333165e-05 1.641333009624e-06 0.0 
1.641333009624e-06 5.186644514913e-04 0.0 
0.0 0.0 -8.102430021026e-05 
-1.866907463054e-04 2.093765460227e-06 0.0 
2.093765460227e-06 1.251863261449e-03 0.0 
0.0 0.0 -1.858191563033e-04 
-8.427129088721e-05 2.509183407977e-07 0.0 
2.509183407977e-07 5.389541208829e-04 0.0 
0.0 0.0 -8.400472401885e-05 
-1.942862609106e-04 -4.604509060763e-07 0.0 
-4.604509060763e-07 1.310239742523e-03 0.0 
0.0 0.0 -1.943189575261e-04 
-7.089778492893e-06 -8.429924576269e-07 0.0 
-8.429924576269e-07 3.992716951653e-05 0.0 
0.0 0.0 -8.535005130452e-06 
-1.936791033226e-05 1.730686598500e-06 0.0 
1.730686598500e-06 1.017559906333e-04 0.0 
0.0 0.0 -2.030164989952e-05 
-8.968053387105e-05 4.268638781565e-07 0.0 
4.268638781565e-07 5.769858883096e-04 0.0 
0.0 0.0 -8.953811051246e-05 
-9.967591826382e-05 1.816339090071e-07 0.0 
1.816339090071e-07 6.455070859268e-04 0.0 
0.0 0.0 -9.930333011984e-05 
-7.698272719919e-05 1.369511196201e-06 0.0 
1.369511196201e-06 4.917432221998e-04 0.0 
0.0 0.0 -7.735978650723e-05 
-7.290112700995e-05 4.485042513465e-07 0.0 
4.485042513465e-07 4.686595431743e-04 0.0 
0.0 0.0 -7.375775675111e-05 
-1.516976068027e-04 9.731432031664e-08 0.0 
9.731432031664e-08 1.010085692234e-03 0.0 
0.0 0.0 -1.515828990902e-04 
-2.955388113014e-05 -3.810006738129e-07 0.0 
-3.810006738129e-07 1.597998460951e-04 0.0 
0.0 0.0 -2.992625374333e-05 
-4.708750000530e-05 -3.380683912339e-07 0.0 
-3.380683912339e-07 2.775741899182e-04 0.0 
0.0 0.0 -4.660401843130e-05 
-1.459872513037e-04 4.283387118632e-06 0.0 
4.283387118632e-06 9.787274438894e-04 0.0 
0.0 0.0 -1.469538452094e-04 
-3.739432352920e-05 8.132963554317e-08 0.0 
8.132963554317e-08 2.132217851977e-04 0.0 
0.0 0.0 -3.731550915806e-05 
-1.581113812495e-04 5.386783396549e-07 0.0 
5.386783396549e-07 1.056624836089e-03 0.0 
0.0 0.0 -1.583700297543e-04 
-8.859117282002e-05 -4.886909086431e-07 0.0 
-4.886909086431e-07 5.694929478328e-04 0.0 
0.0 0.0 -8.837999545446e-05 
-1.077149909289e-04 1.768026495201e-08 0.0 
1.768026495201e-08 7.012731036170e-04 0.0 
0.0 0.0 -1.073025146250e-04 
-5.592229804259e-05 8.436426505879e-07 0.0 
8.436426505879e-07 3.420524339702e-04 0.0 
0.0 0.0 -5.582998379547e-05 
-7.655387121575e-05 -1.360505059231e-06 0.0 
-1.360505059231e-06 4.844624894690e-04 0.0 
0.0 0.0 -7.620154526702e-05 
-1.304375061833e-04 -4.590487413422e-07 0.0 
-4.590487413422e-07 8.567018780296e-04 0.0 
0.0 0.0 -1.295787134191e-04 
-1.227913220526e-04 -1.069536414788e-06 0.0 
-1.069536414788e-06 7.988115105914e-04 0.0 
0.0 0.0 -1.212971597528e-04 
-1.171271358387e-04 6.312522150107e-07 0.0 
6.312522150107e-07 7.632427069466e-04 0.0 
0.0 0.0 -1.160760923294e-04 
-9.288654497448e-05 -4.149904162912e-07 0.0 
-4.149904162912e-07 5.993038953958e-04 0.0 
0.0 0.0 -9.268233649937e-05 
-7.967235479004e-05 1.560635261010e-06 0.0 
1.560635261010e-06 5.060818193185e-04 0.0 
0.0 0.0 -7.932496478153e-05 
-6.976412058096e-05 4.685918450985e-07 0.0 
4.685918450985e-07 4.348311074162e-04 0.0 
0.0 0.0 -6.925859231108e-05 
-1.236762265939e-04 1.286441015267e-07 0.0 
1.286441015267e-07 8.121194052814e-04 0.0 
0.0 0.0 -1.231954486131e-04 
-1.661664385129e-04 7.234197314207e-07 0.0 
7.234197314207e-07 1.111077522090e-03 0.0 
0.0 0.0 -1.661212681597e-04 
-1.708685371099e-04 1.275890329840e-06 0.0 
1.275890329840e-06 1.141280747299e-03 0.0 
0.0 0.0 -1.704512426999e-04 
-1.799814060202e-04 -8.892695818768e-09 0.0 
-8.892695818768e-09 1.206980088396e-03 0.0 
0.0 0.0 -1.798902840516e-04 
-1.752252711223e-04 6.293476179297e-07 0.0 
6.293476179297e-07 1.171825368199e-03 0.0 
0.0 0.0 -1.746897123557e-04 
-1.653204529079e-04 3.682681378694e-07 0.0 
3.682681378694e-07 1.103833188294e-03 0.0 
0.0 0.0 -1.650619928257e-04 
-1.692700239592e-04 -9.309390044845e-07 0.0 
-9.309390044845e-07 1.133313101005e-03 0.0 
0.0 0.0 -1.693613594316e-04 
-1.794459408941e-04 1.605079206946e-06 0.0 
1.605079206946e-06 1.200644277872e-03 0.0 
0.0 0.0 -1.790391580507e-04 
-1.729836631084e-04 -6.502744119956e-09 0.0 
-6.502744119956e-09 1.165149049271e-03 0.0 
0.0 0.0 -1.738884562940e-04 
-1.853394956414e-04 -1.746634483939e-06 0.0 
-1.746634483939e-06 1.245260351070e-03 0.0 
0.0 0.0 -1.851430293189e-04 
-1.779629991439e-04 -2.212681777784e-06 0.0 
-2.212681777784e-06 1.194508684255e-03 0.0 
0.0 0.0 -1.780963771770e-04 
-1.680008323397e-04 4.410252086397e-07 0.0 
4.410252086397e-07 1.124792316923e-03 0.0 
0.0 0.0 -1.681296768602e-04 
-1.732313668130e-04 2.383290929428e-07 0.0 
2.383290929428e-07 1.152919895369e-03 0.0 
0.0 0.0 -1.721639567129e-04 
-1.820197878976e-04 -9.097203098576e-07 0.0 
-9.097203098576e-07 1.219293629434e-03 0.0 
0.0 0.0 -1.811651920545e-04 
-1.627398560099e-04 -3.025378736543e-07 0.0 
-3.025378736543e-07 1.085392768176e-03 0.0 
0.0 0.0 -1.623890973126e-04 
-1.881496038472e-04 -6.722589035005e-07 0.0 
-6.722589035005e-07 1.272625835057e-03 0.0 
0.0 0.0 -1.896816515354e-04 
-9.936624462153e-05 3.711915790744e-07 0.0 
3.711915790744e-07 6.447993785367e-04 0.0 
0.0 0.0 -9.931710713211e-05 
-2.678077344496e-05 1.172604196378e-06 0.0 
1.172604196378e-06 1.469601996083e-04 0.0 
0.0 0.0 -2.776378382453e-05 
-2.718822131563e-05 5.643793796886e-06 0.0 
5.643793796886e-06 1.398182331985e-04 0.0 
0.0 0.0 -2.650814903740e-05 
-1.130938350532e-04 2.933038375314e-07 0.0 
2.933038375314e-07 7.386015135744e-04 0.0 
0.0 0.0 -1.126376112924e-04 
-1.957395771822e-04 4.072718166248e-07 0.0 
4.072718166248e-07 1.314065316165e-03 0.0 
0.0 0.0 -1.949709453146e-04 
-1.956422709446e-04 1.854437157923e-08 0.0 
1.854437157923e-08 1.316914351373e-03 0.0 
0.0 0.0 -1.952630510734e-04 
-7.363791568969e-05 4.448116745503e-08 0.0 
4.448116745503e-08 4.652432970724e-04 0.0 
0.0 0.0 -7.343539360029e-05 
-1.953259047097e-04 -1.682103116943e-07 0.0 
-1.682103116943e-07 1.316528916423e-03 0.0 
0.0 0.0 -1.955120939844e-04 
-1.210496703093e-04 -3.742029869830e-07 0.0 
-3.742029869830e-07 7.914115177246e-04 0.0 
0.0 0.0 -1.201823113336e-04 
-5.355766991560e-05 5.069063859747e-07 0.0 
5.069063859747e-07 3.232453025466e-04 0.0 
0.0 0.0 -5.296028401754e-05 
-1.953834150830e-04 -1.373297745112e-06 0.0 
-1.373297745112e-06 1.316914533701e-03 0.0 
0.0 0.0 -1.956430189105e-04 
-1.606320410693e-04 1.081811570651e-06 0.0 
1.081811570651e-06 1.073242688732e-03 0.0 
0.0 0.0 -1.607160970497e-04 
-1.551352503420e-04 -1.927443336718e-07 0.0 
-1.927443336718e-07 1.034924921134e-03 0.0 
0.0 0.0 -1.552285616758e-04 
-1.505583948677e-04 4.103370421326e-07 0.0 
4.103370421326e-07 1.004971037607e-03 0.0 
0.0 0.0 -1.509086942990e-04 
-1.950225372489e-04 -2.088550178189e-06 0.0 
-2.088550178189e-06 1.319599496419e-03 0.0 
0.0 0.0 -1.958801056209e-04 
-1.389109183028e-04 4.741451933547e-08 0.0 
4.741451933547e-08 9.181432809719e-04 0.0 
0.0 0.0 -1.384942297845e-04 
-1.959295069713e-04 -1.244434436796e-06 0.0 
-1.244434436796e-06 1.320610998766e-03 0.0 
0.0 0.0 -1.959024498733e-04 
-1.357909290755e-04 -7.273641547469e-07 0.0 
-7.273641547469e-07 8.985832613114e-04 0.0 
0.0 0.0 -1.355985557075e-04 
-1.314159132553e-04 -2.260781221254e-07 0.0 
-2.260781221254e-07 8.680741570170e-04 0.0 
0.0 0.0 -1.312144960014e-04 
-1.217410062802e-04 -7.968137970638e-08 0.0 
-7.968137970638e-08 8.004989808175e-04 0.0 
0.0 0.0 -1.215252423283e-04 
-1.635653543320e-04 -8.206507231058e-07 0.0 
-8.206507231058e-07 1.094591173860e-03 0.0 
0.0 0.0 -1.638368049481e-04 
-1.957128907948e-04 7.679802216987e-07 0.0 
7.679802216987e-07 1.315946828038e-03 0.0 
0.0 0.0 -1.954016999139e-04 
-1.877918467821e-04 -4.059023819968e-07 0.0 
-4.059023819968e-07 1.261052432127e-03 0.0 
0.0 0.0 -1.872601071101e-04 
-1.870380449284e-04 -1.951022404988e-06 0.0 
-1.951022404988e-06 1.260361361027e-03 0.0 
0.0 0.0 -1.872639817026e-04 
-1.800805456319e-04 7.540324232612e-08 0.0 
7.540324232612e-08 1.200437685780e-03 0.0 
0.0 0.0 -1.783672283586e-04 
-1.950646193177e-04 -5.546188052748e-08 0.0 
-5.546188052748e-08 1.316661406715e-03 0.0 
0.0 0.0 -1.955098189886e-04 
-1.957560602186e-04 -3.716868616248e-07 0.0 
-3.716868616248e-07 1.318924671883e-03 0.0 
0.0 0.0 -1.959998991124e-04 
-1.963981539868e-04 -5.303133434367e-07 0.0 
-5.303133434367e-07 1.320493656548e-03 0.0 
0.0 0.0 -1.962751064225e-04 
-6.844923036856e-05 1.199739337794e-06 0.0 
1.199739337794e-06 4.307455297825e-04 0.0 
0.0 0.0 -6.847160534926e-05 
-7.419643775584e-05 3.743388539179e-07 0.0 
3.743388539179e-07 4.695492771341e-04 0.0 
0.0 0.0 -7.401623890332e-05 
-8.376895134064e-05 1.300131340796e-07 0.0 
1.300131340796e-07 5.365706547931e-04 0.0 
0.0 0.0 -8.364053759108e-05 
-7.953934562445e-05 -2.075640414836e-08 0.0 
-2.075640414836e-08 5.072934929808e-04 0.0 
0.0 0.0 -7.948224144010e-05 
-6.989506786319e-05 -6.245293844845e-08 0.0 
-6.245293844845e-08 4.396733402016e-04 0.0 
0.0 0.0 -6.978551441703e-05 
-7.524805855893e-05 3.094892115024e-07 0.0 
3.094892115024e-07 4.777101055957e-04 0.0 
0.0 0.0 -7.524542772725e-05 
-8.492603218944e-05 -2.618464199117e-07 0.0 
-2.618464199117e-07 5.448643552104e-04 0.0 
0.0 0.0 -8.485997776147e-05 
-7.105462536305e-05 6.250310806945e-07 0.0 
6.250310806945e-07 4.479089343025e-04 0.0 
0.0 0.0 -7.097692746601e-05 
-1.705288852515e-04 -5.065676993713e-08 0.0 
-5.065676993713e-08 1.143493746239e-03 0.0 
0.0 0.0 -1.707769389999e-04 
-1.957870609060e-04 1.292884007357e-06 0.0 
1.292884007357e-06 1.318859783043e-03 0.0 
0.0 0.0 -1.958668742322e-04 
-1.350455497016e-04 7.864309328394e-09 0.0 
7.864309328394e-09 8.951240562794e-04 0.0 
0.0 0.0 -1.351191360868e-04 
-1.307165790976e-04 -4.322242656593e-09 0.0 
-4.322242656593e-09 8.644169275053e-04 0.0 
0.0 0.0 -1.307040085326e-04 
-1.209043728309e-04 3.853306452192e-07 0.0 
3.853306452192e-07 7.961045906332e-04 0.0 
0.0 0.0 -1.208983099878e-04 
-1.015178106691e-04 -3.679167517203e-07 0.0 
-3.679167517203e-07 6.622225460757e-04 0.0 
0.0 0.0 -1.017282540064e-04 
-1.070947291555e-04 -1.713274614578e-07 0.0 
-1.713274614578e-07 7.010953756025e-04 0.0 
0.0 0.0 -1.073098139330e-04 
-1.170318119329e-04 -2.304405178400e-07 0.0 
-2.304405178400e-07 7.699550145936e-04 0.0 
0.0 0.0 -1.171862911330e-04 
-9.606943952016e-05 -6.918043120030e-07 0.0 
-6.918043120030e-07 6.234320450168e-04 0.0 
0.0 0.0 -9.611914699067e-05 
-1.481119786321e-04 -1.006868581403e-07 0.0 
-1.006868581403e-07 9.856164309774e-04 0.0 
0.0 0.0 -1.481459134429e-04 
-1.955042779643e-04 -1.269047585912e-06 0.0 
-1.269047585912e-06 1.318349589731e-03 0.0 
0.0 0.0 -1.957504584866e-04 
-1.330884753948e-04 -1.768196315292e-07 0.0 
-1.768196315292e-07 8.806785880526e-04 0.0 
0.0 0.0 -1.330749450653e-04 
-1.026965489879e-04 1.178065411022e-07 0.0 
1.178065411022e-07 6.708683582992e-04 0.0 
0.0 0.0 -1.029894966699e-04 
-1.130854337220e-04 -7.438576483953e-07 0.0 
-7.438576483953e-07 7.384022260134e-04 0.0 
0.0 0.0 -1.127517955912e-04 
-1.209813153641e-04 2.130007804037e-06 0.0 
2.130007804037e-06 7.983489600902e-04 0.0 
0.0 0.0 -1.214223410530e-04 
-1.212906592670e-04 -2.948275088070e-06 0.0 
-2.948275088070e-06 8.006247840124e-04 0.0 
0.0 0.0 -1.214609177556e-04 
-1.289650632578e-04 -2.836448343722e-06 0.0 
-2.836448343722e-06 8.628838233816e-04 0.0 
0.0 0.0 -1.309968220184e-04 
-1.213818105996e-04 -4.266965506249e-06 0.0 
-4.266965506249e-06 8.042830918570e-04 0.0 
0.0 0.0 -1.223387611305e-04 
-1.201218344436e-04 -5.940699395266e-07 0.0 
-5.940699395266e-07 7.912234115192e-04 0.0 
0.0 0.0 -1.202289988118e-04 
-1.246396976616e-04 -5.061942420403e-07 0.0 
-5.061942420403e-07 8.213580181559e-04 0.0 
0.0 0.0 -1.245418513326e-04 
-1.191093718333e-04 1.337880474637e-07 0.0 
1.337880474637e-07 7.836030816467e-04 0.0 
0.0 0.0 -1.190678843757e-04 
-1.287401379332e-04 -4.825176742022e-07 0.0 
-4.825176742022e-07 8.510925999983e-04 0.0 
0.0 0.0 -1.288600603647e-04 
-1.226230270594e-04 -1.701149775371e-06 0.0 
-1.701149775371e-06 8.113018730487e-04 0.0 
0.0 0.0 -1.232036783932e-04 
-1.130241629680e-04 -1.858461286811e-06 0.0 
-1.858461286811e-06 7.480336692277e-04 0.0 
0.0 0.0 -1.141311642346e-04 
-1.321533265726e-04 -1.335199541160e-06 0.0 
-1.335199541160e-06 8.794062915419e-04 0.0 
0.0 0.0 -1.329915258165e-04 
-1.262846614202e-04 1.119259017791e-06 0.0 
1.119259017791e-06 8.372331183149e-04 0.0 
0.0 0.0 -1.265608218447e-04 
-1.120104832196e-04 -1.984611779904e-06 0.0 
-1.984611779904e-06 7.374063381166e-04 0.0 
0.0 0.0 -1.126429727744e-04 
-9.422976514582e-06 -1.217518494265e-06 0.0 
-1.217518494265e-06 4.558842274141e-05 0.0 
0.0 0.0 -8.813944590281e-06 
-2.032999859278e-05 1.550107281015e-06 0.0 
1.550107281015e-06 1.008000227599e-04 0.0 
0.0 0.0 -2.005057187811e-05 
-1.923634066646e-05 -1.281983274152e-06 0.0 
-1.281983274152e-06 9.903712088906e-05 0.0 
0.0 0.0 -1.977126557535e-05 
-2.892124709552e-05 -6.331508506686e-07 0.0 
-6.331508506686e-07 1.562935872075e-04 0.0 
0.0 0.0 -2.931975365146e-05 
-3.044620434302e-05 2.916307507694e-06 0.0 
2.916307507694e-06 1.611495346811e-04 0.0 
0.0 0.0 -2.995118946101e-05 
-3.774799277366e-05 3.794557032569e-07 0.0 
3.794557032569e-07 2.202737536706e-04 0.0 
0.0 0.0 -3.879981516104e-05 
-3.645995758034e-05 -3.803053327811e-06 0.0 
-3.803053327811e-06 2.139692199118e-04 0.0 
0.0 0.0 -3.742104924291e-05 
-2.033881415161e-05 -1.700939409159e-06 0.0 
-1.700939409159e-06 1.011583560657e-04 0.0 
0.0 0.0 -1.994621821224e-05 
-8.875489974186e-06 -3.480193746507e-07 0.0 
-3.480193746507e-07 4.471598822964e-05 0.0 
0.0 0.0 -8.692282348679e-06 
-1.963315251852e-05 3.711641581478e-07 0.0 
3.711641581478e-07 9.816218701372e-05 0.0 
0.0 0.0 -1.973534442338e-05 
-8.550733775924e-06 2.514775744061e-07 0.0 
2.514775744061e-07 4.381249491722e-05 0.0 
0.0 0.0 -8.579688284227e-06 
-1.901805583189e-05 4.776440578631e-08 0.0 
4.776440578631e-08 9.639762974465e-05 0.0 
0.0 0.0 -1.949131874972e-05 
-2.991788690013e-05 6.474225871532e-07 0.0 
6.474225871532e-07 1.629475291055e-04 0.0 
0.0 0.0 -3.058298354955e-05 
-4.437694804010e-05 -3.488760205635e-08 0.0 
-3.488760205635e-08 2.590089634221e-04 0.0 
0.0 0.0 -4.387725951834e-05 
-1.952890502554e-04 2.705057302809e-06 0.0 
2.705057302809e-06 1.308737158744e-03 0.0 
0.0 0.0 -1.942312205382e-04 
-9.935449687594e-05 7.019136318893e-07 0.0 
7.019136318893e-07 6.421560261642e-04 0.0 
0.0 0.0 -9.893255040107e-05 
-9.532292627254e-05 2.814699913044e-06 0.0 
2.814699913044e-06 6.114496525194e-04 0.0 
0.0 0.0 -9.397196729617e-05 
-8.400669900114e-05 2.679673941902e-06 0.0 
2.679673941902e-06 5.409587176071e-04 0.0 
0.0 0.0 -8.462574969392e-05 
-9.027594374168e-05 -7.837686841303e-07 0.0 
-7.837686841303e-07 5.798954878733e-04 0.0 
0.0 0.0 -8.961994476413e-05 
-1.045740752791e-04 3.140418326638e-06 0.0 
3.140418326638e-06 6.688688744112e-04 0.0 
0.0 0.0 -1.029858181470e-04 
-7.880649475037e-05 2.069962121030e-06 0.0 
2.069962121030e-06 5.047681260686e-04 0.0 
0.0 0.0 -7.930380845106e-05 
-7.495741100239e-05 3.408625348592e-06 0.0 
3.408625348592e-06 4.823631646977e-04 0.0 
0.0 0.0 -7.557437765277e-05 
-9.687066653002e-06 -3.402698014617e-07 0.0 
-3.402698014617e-07 4.591586104220e-05 0.0 
0.0 0.0 -8.739712030662e-06 
-2.047661094667e-05 -2.267522532193e-06 0.0 
-2.267522532193e-06 1.000681362490e-04 0.0 
0.0 0.0 -2.007353836932e-05 
-1.994917007271e-05 2.592468629793e-06 0.0 
2.592468629793e-06 9.445303527474e-05 0.0 
0.0 0.0 -1.994324578594e-05 
-3.151456459980e-05 1.463566236896e-06 0.0 
1.463566236896e-06 1.596924898443e-04 0.0 
0.0 0.0 -2.965054416063e-05 
-2.861510418730e-05 -1.205587774427e-06 0.0 
-1.205587774427e-06 1.581911772624e-04 0.0 
0.0 0.0 -2.941027143855e-05 
-1.937098915206e-05 8.384890895992e-08 0.0 
8.384890895992e-08 1.007669973979e-04 0.0 
0.0 0.0 -1.994784544742e-05 
-1.998172865117e-05 1.674549256837e-06 0.0 
1.674549256837e-06 1.004783062935e-04 0.0 
0.0 0.0 -1.993089637160e-05 
-9.184527398116e-06 -3.340486906928e-07 0.0 
-3.340486906928e-07 4.449611849599e-05 0.0 
0.0 0.0 -8.679810794752e-06 
-1.977844276233e-05 -5.706350657546e-07 0.0 
-5.706350657546e-07 9.957383946922e-05 0.0 
0.0 0.0 -1.962916685114e-05 
-2.895230255585e-05 1.615024457259e-06 0.0 
1.615024457259e-06 1.596384447765e-04 0.0 
0.0 0.0 -2.991862060476e-05 
-7.803011911719e-06 -7.706301462869e-07 0.0 
-7.706301462869e-07 4.106703932536e-05 0.0 
0.0 0.0 -8.301770963759e-06 
-1.590145051585e-04 -4.281304664763e-06 0.0 
-4.281304664763e-06 1.062076659957e-03 0.0 
0.0 0.0 -1.590640962770e-04 
-1.651868147433e-04 -3.398332014324e-06 0.0 
-3.398332014324e-06 1.099025294548e-03 0.0 
0.0 0.0 -1.645623349770e-04 
-1.955657779701e-04 -5.933825758627e-07 0.0 
-5.933825758627e-07 1.315952615564e-03 0.0 
0.0 0.0 -1.951345524439e-04 
-1.128859712793e-04 -3.830481927276e-06 0.0 
-3.830481927276e-06 7.447363822067e-04 0.0 
0.0 0.0 -1.137601485512e-04 
-8.506649409316e-06 3.037838616352e-07 0.0 
3.037838616352e-07 4.456634567568e-05 0.0 
0.0 0.0 -8.827439468020e-06 
-1.944078863341e-04 -1.551046245181e-07 0.0 
-1.551046245181e-07 1.307325842461e-03 0.0 
0.0 0.0 -1.938161294973e-04 
-1.950362438059e-04 -1.795147355396e-06 0.0 
-1.795147355396e-06 1.317406774879e-03 0.0 
0.0 0.0 -1.954759163179e-04 
-1.946257604888e-04 1.407080277293e-06 0.0 
1.407080277293e-06 1.317652425531e-03 0.0 
0.0 0.0 -1.957234727395e-04 
-1.786106491459e-04 1.328228983500e-06 0.0 
1.328228983500e-06 1.198614709334e-03 0.0 
0.0 0.0 -1.786587739673e-04 
-1.826581066041e-04 5.861318546716e-07 0.0 
5.861318546716e-07 1.232821746468e-03 0.0 
0.0 0.0 -1.836483987139e-04 
-1.952382200043e-04 8.912494885484e-07 0.0 
8.912494885484e-07 1.308332215826e-03 0.0 
0.0 0.0 -1.941854046512e-04 
-6.737308308447e-05 5.138193223355e-07 0.0 
5.138193223355e-07 4.244241960940e-04 0.0 
0.0 0.0 -6.769213596492e-05 
-1.828682302183e-04 1.640560627373e-06 0.0 
1.640560627373e-06 1.239731587643e-03 0.0 
0.0 0.0 -1.838610959833e-04 
-1.772400966804e-04 3.904476817882e-07 0.0 
3.904476817882e-07 1.184738121319e-03 0.0 
0.0 0.0 -1.767943248163e-04 
-4.906868359316e-05 -1.133942934728e-07 0.0 
-1.133942934728e-07 2.953935878240e-04 0.0 
0.0 0.0 -4.902575320116e-05 
-6.530462737817e-05 3.585817021726e-07 0.0 
3.585817021726e-07 4.102635123792e-04 0.0 
0.0 0.0 -6.560435786130e-05 
-1.483067082024e-04 3.970804381230e-07 0.0 
3.970804381230e-07 9.886270184883e-04 0.0 
0.0 0.0 -1.484951207735e-04 
-1.367944353413e-04 -1.825561973167e-07 0.0 
-1.825561973167e-07 9.072242838815e-04 0.0 
0.0 0.0 -1.368596897040e-04 
-1.696034640066e-04 -3.607287686916e-07 0.0 
-3.607287686916e-07 1.134493911371e-03 0.0 
0.0 0.0 -1.695585677381e-04 
-1.398704134916e-04 8.561054054637e-09 0.0 
8.561054054637e-09 9.278981832241e-04 0.0 
0.0 0.0 -1.398333781397e-04 
-1.606909834555e-04 -5.100249501152e-07 0.0 
-5.100249501152e-07 1.075019221100e-03 0.0 
0.0 0.0 -1.609685038039e-04 
-1.869198009603e-04 3.460184187222e-06 0.0 
3.460184187222e-06 1.256233406915e-03 0.0 
0.0 0.0 -1.866194889163e-04 
-4.208478570565e-05 -7.076859870355e-07 0.0 
-7.076859870355e-07 2.599245066963e-04 0.0 
0.0 0.0 -4.408826043591e-05 
-1.404915308446e-04 9.501955183076e-07 0.0 
9.501955183076e-07 9.316401756296e-04 0.0 
0.0 0.0 -1.404724030559e-04 
-1.368005256677e-04 9.839857355172e-07 0.0 
9.839857355172e-07 9.063105631980e-04 0.0 
0.0 0.0 -1.369552780944e-04 
-1.614580578208e-04 -5.040207315794e-07 0.0 
-5.040207315794e-07 1.077622303329e-03 0.0 
0.0 0.0 -1.613909692546e-04 
-7.092154026938e-05 -7.271687064730e-07 0.0 
-7.271687064730e-07 4.457927222897e-04 0.0 
0.0 0.0 -7.064368720930e-05 
-1.092130498400e-04 -2.031197807860e-06 0.0 
-2.031197807860e-06 7.170877506305e-04 0.0 
0.0 0.0 -1.095638575444e-04 
-4.734326755177e-05 -7.634204257468e-07 0.0 
-7.634204257468e-07 2.775049997667e-04 0.0 
0.0 0.0 -4.656497932609e-05 
-1.872735419036e-04 6.485390613283e-07 0.0 
6.485390613283e-07 1.262586229201e-03 0.0 
0.0 0.0 -1.877191857934e-04 
-1.143324629321e-04 4.116664924970e-09 0.0 
4.116664924970e-09 7.469603610316e-04 0.0 
0.0 0.0 -1.138559328007e-04 
-1.153850895440e-04 2.798510741524e-07 0.0 
2.798510741524e-07 7.578160194775e-04 0.0 
0.0 0.0 -1.154143056347e-04 
-9.134271070788e-05 -4.241415328680e-07 0.0 
-4.241415328680e-07 5.928584725244e-04 0.0 
0.0 0.0 -9.180364234441e-05 
-7.295992473616e-05 6.931326544943e-07 0.0 
6.931326544943e-07 4.642607920090e-04 0.0 
0.0 0.0 -7.341543808938e-05 
-6.127928487910e-05 4.097090977135e-07 0.0 
4.097090977135e-07 3.818653258479e-04 0.0 
0.0 0.0 -6.151402614941e-05 
-1.048886373049e-04 7.305772282160e-07 0.0 
7.305772282160e-07 6.839939901015e-04 0.0 
0.0 0.0 -1.048536320953e-04 
-1.083489495467e-04 1.953470287276e-07 0.0 
1.953470287276e-07 7.097911034353e-04 0.0 
0.0 0.0 -1.085629762122e-04 
-1.537049609822e-04 2.480873530320e-07 0.0 
2.480873530320e-07 1.024308554960e-03 0.0 
0.0 0.0 -1.536510162914e-04 
-1.672004607334e-04 -4.138652897847e-07 0.0 
-4.138652897847e-07 1.115841044060e-03 0.0 
0.0 0.0 -1.668829017826e-04 
-1.175626501518e-05 2.653670795412e-06 0.0 
2.653670795412e-06 5.212615490244e-05 0.0 
0.0 0.0 -1.076426758597e-05 
-1.591679461113e-04 4.759781921775e-07 0.0 
4.759781921775e-07 1.063059671778e-03 0.0 
0.0 0.0 -1.592508397865e-04 
-1.282088974266e-04 -3.835691054213e-08 0.0 
-3.835691054213e-08 8.473404205640e-04 0.0 
0.0 0.0 -1.282838013392e-04 
-1.443596124248e-04 4.967652743944e-07 0.0 
4.967652743944e-07 9.572886199512e-04 0.0 
0.0 0.0 -1.439863651620e-04 
-1.598472287202e-04 -8.884907360877e-07 0.0 
-8.884907360877e-07 1.064451867688e-03 0.0 
0.0 0.0 -1.593960054358e-04 
-4.175998057522e-05 -3.447721282185e-07 0.0 
-3.447721282185e-07 2.572900811957e-04 0.0 
0.0 0.0 -4.363646550326e-05 
-1.650522666270e-04 -1.570677394041e-07 0.0 
-1.570677394041e-07 1.102136320565e-03 0.0 
0.0 0.0 -1.648121423230e-04 
-1.826232045261e-04 1.027217602921e-06 0.0 
1.027217602921e-06 1.220901163882e-03 0.0 
0.0 0.0 -1.818680320623e-04 
-1.325762676814e-04 -3.821282481616e-06 0.0 
-3.821282481616e-06 8.784259184788e-04 0.0 
0.0 0.0 -1.331264220316e-04 
-3.693963444370e-05 -7.544466628917e-07 0.0 
-7.544466628917e-07 2.092667936724e-04 0.0 
0.0 0.0 -3.663743814291e-05 
-1.313856992864e-04 7.552411984502e-07 0.0 
7.552411984502e-07 8.610864945210e-04 0.0 
0.0 0.0 -1.303870364997e-04 
-1.805690084043e-04 6.802145348003e-07 0.0 
6.802145348003e-07 1.208990479033e-03 0.0 
0.0 0.0 -1.804058984264e-04 
-1.618620090762e-04 -7.704497118785e-08 0.0 
-7.704497118785e-08 1.080863256528e-03 0.0 
0.0 0.0 -1.617330481104e-04 
-6.471559328570e-05 -1.662931831611e-06 0.0 
-1.662931831611e-06 4.062530166876e-04 0.0 
0.0 0.0 -6.504030707074e-05 
-1.192254745372e-04 -3.743731676595e-07 0.0 
-3.743731676595e-07 7.837384510995e-04 0.0 
0.0 0.0 -1.191527179664e-04 
-1.116344855219e-04 1.062141944629e-07 0.0 
1.062141944629e-07 7.298456137402e-04 0.0 
0.0 0.0 -1.114223846842e-04 
-1.018383685965e-04 -1.359407971871e-06 0.0 
-1.359407971871e-06 6.707473892556e-04 0.0 
0.0 0.0 -1.029886159366e-04 
-1.821879658306e-04 1.203703486797e-06 0.0 
1.203703486797e-06 1.214225172284e-03 0.0 
0.0 0.0 -1.809836386841e-04 
-1.227568816259e-04 -6.254739179733e-08 0.0 
-6.254739179733e-08 8.076906619440e-04 0.0 
0.0 0.0 -1.225941817511e-04 
-1.685234158846e-04 1.004345265447e-06 0.0 
1.004345265447e-06 1.124593655933e-03 0.0 
0.0 0.0 -1.680081379364e-04 
-1.385983115983e-04 -4.518781372798e-07 0.0 
-4.518781372798e-07 9.192006383534e-04 0.0 
0.0 0.0 -1.386121366338e-04 
-6.938466731060e-05 -6.198930646466e-07 0.0 
-6.198930646466e-07 4.371957454374e-04 0.0 
0.0 0.0 -6.944566544735e-05 
-1.681992938910e-04 -9.274416247642e-07 0.0 
-9.274416247642e-07 1.123747739326e-03 0.0 
0.0 0.0 -1.678379068203e-04 
-1.163255558547e-04 -2.444566148570e-07 0.0 
-2.444566148570e-07 7.630787415271e-04 0.0 
0.0 0.0 -1.161597941560e-04 
-1.747594319775e-04 -4.754811496894e-07 0.0 
-4.754811496894e-07 1.171391248362e-03 0.0 
0.0 0.0 -1.746922153459e-04 
-1.547158004377e-04 -7.908026844221e-07 0.0 
-7.908026844221e-07 1.031372856638e-03 0.0 
0.0 0.0 -1.547299964433e-04 
-9.575522477032e-05 -2.469845308841e-07 0.0 
-2.469845308841e-07 6.198169541374e-04 0.0 
0.0 0.0 -9.562808392031e-05 
-1.680741224093e-04 -8.043675432310e-07 0.0 
-8.043675432310e-07 1.125048534485e-03 0.0 
0.0 0.0 -1.681755324449e-04 
-1.167097397872e-04 2.723456768358e-07 0.0 
2.723456768358e-07 7.659716634377e-04 0.0 
0.0 0.0 -1.165963749253e-04 
-1.652487966176e-04 1.494188142171e-07 0.0 
1.494188142171e-07 1.103453328263e-03 0.0 
0.0 0.0 -1.649144376955e-04 
-1.090718422596e-04 2.524371737846e-07 0.0 
2.524371737846e-07 7.103678881211e-04 0.0 
0.0 0.0 -1.086081446058e-04 
-1.357966733163e-04 -3.457047510779e-07 0.0 
-3.457047510779e-07 8.984402994021e-04 0.0 
0.0 0.0 -1.356166455148e-04 
-1.479451278654e-04 -5.197314638619e-07 0.0 
-5.197314638619e-07 9.805721187296e-04 0.0 
0.0 0.0 -1.473637189475e-04 
-1.291946076143e-04 -2.210645520779e-08 0.0 
-2.210645520779e-08 8.530967429073e-04 0.0 
0.0 0.0 -1.291232438263e-04 
-1.429493388473e-04 2.592746297642e-06 0.0 
2.592746297642e-06 9.504562516353e-04 0.0 
0.0 0.0 -1.430149859860e-04 
-1.638426906912e-04 3.884553588315e-07 0.0 
3.884553588315e-07 1.093570341671e-03 0.0 
0.0 0.0 -1.635473777094e-04 
-4.679395941113e-05 8.636054265736e-08 0.0 
8.636054265736e-08 2.742855012463e-04 0.0 
0.0 0.0 -4.607001325828e-05 
-8.578179911004e-05 -6.161056704638e-08 0.0 
-6.161056704638e-08 5.513847511004e-04 0.0 
0.0 0.0 -8.578563835690e-05 
-1.423249179194e-04 -7.804262925553e-07 0.0 
-7.804262925553e-07 9.497515173482e-04 0.0 
0.0 0.0 -1.430477210920e-04 
-1.735818036023e-04 -9.773598649859e-07 0.0 
-9.773598649859e-07 1.155171653987e-03 0.0 
0.0 0.0 -1.725878545680e-04 
-1.836468666056e-04 1.003626260766e-06 0.0 
1.003626260766e-06 1.240389692506e-03 0.0 
0.0 0.0 -1.843994436203e-04 
-1.023143520992e-04 5.423079028454e-07 0.0 
5.423079028454e-07 6.643953733865e-04 0.0 
0.0 0.0 -1.020177412065e-04 
-1.622496068517e-04 -8.321051479419e-07 0.0 
-8.321051479419e-07 1.084090239035e-03 0.0 
0.0 0.0 -1.622365463781e-04 
-1.781376606747e-04 3.555220392373e-07 0.0 
3.555220392373e-07 1.192018732814e-03 0.0 
0.0 0.0 -1.778033526228e-04 
-1.126735395111e-04 5.522608983234e-08 0.0 
5.522608983234e-08 7.397928820176e-04 0.0 
0.0 0.0 -1.128655126259e-04 
-5.035207840853e-05 5.069616719063e-07 0.0 
5.069616719063e-07 3.007678980219e-04 0.0 
0.0 0.0 -4.999657030114e-05 
-3.927566979207e-05 -3.832849885569e-07 0.0 
-3.832849885569e-07 2.313033145196e-04 0.0 
0.0 0.0 -3.982249606560e-05 
-7.656825341724e-05 3.679510810453e-07 0.0 
3.679510810453e-07 4.857975545201e-04 0.0 
0.0 0.0 -7.638798348873e-05 
-1.174853009841e-04 -1.483166653503e-09 0.0 
-1.483166653503e-09 7.706480780895e-04 0.0 
0.0 0.0 -1.172617294919e-04 
-1.226008469953e-04 -1.659916804789e-07 0.0 
-1.659916804789e-07 8.085563299237e-04 0.0 
0.0 0.0 -1.227254861441e-04 
-1.869186648422e-04 1.288893444476e-06 0.0 
1.288893444476e-06 1.255438194585e-03 0.0 
0.0 0.0 -1.863413058393e-04 
-1.661774130078e-04 -5.668139200530e-07 0.0 
-5.668139200530e-07 1.113816736532e-03 0.0 
0.0 0.0 -1.665279681784e-04 
-1.561062454374e-04 -1.032747631753e-06 0.0 
-1.032747631753e-06 1.041295622328e-03 0.0 
0.0 0.0 -1.561285722757e-04 
-2.290814551487e-05 1.131949368257e-06 0.0 
1.131949368257e-06 1.115970032557e-04 0.0 
0.0 0.0 -2.279054486229e-05 
-1.065384879856e-04 1.371781238190e-06 0.0 
1.371781238190e-06 6.979852258937e-04 0.0 
0.0 0.0 -1.068955660026e-04 
-1.703396393732e-04 -6.320212589166e-07 0.0 
-6.320212589166e-07 1.144009893404e-03 0.0 
0.0 0.0 -1.708611002394e-04 
-1.234023393735e-04 -2.265061210125e-07 0.0 
-2.265061210125e-07 8.130545487096e-04 0.0 
0.0 0.0 -1.233545184740e-04 
-1.695777077806e-04 2.106230318132e-07 0.0 
2.106230318132e-07 1.131440026902e-03 0.0 
0.0 0.0 -1.690088035303e-04 
-1.159592254194e-04 -1.383338685156e-07 0.0 
-1.383338685156e-07 7.703209590687e-04 0.0 
0.0 0.0 -1.172687467652e-04 
-1.871117190239e-04 -1.386491014739e-06 0.0 
-1.386491014739e-06 1.261256540934e-03 0.0 
0.0 0.0 -1.874631276173e-04 
-8.657535319631e-05 1.579232664336e-06 0.0 
1.579232664336e-06 5.555478256840e-04 0.0 
0.0 0.0 -8.636364963772e-05 
-1.755150914368e-04 -6.889429931338e-07 0.0 
-6.889429931338e-07 1.176166452702e-03 0.0 
0.0 0.0 -1.753185131199e-04 
-1.573111243631e-04 1.063973160771e-06 0.0 
1.063973160771e-06 1.048972338121e-03 0.0 
0.0 0.0 -1.571178519447e-04 
-7.892866904534e-05 2.863749736169e-07 0.0 
2.863749736169e-07 5.022036140890e-04 0.0 
0.0 0.0 -7.873003997367e-05 
-1.124601082612e-04 5.668543912746e-07 0.0 
5.668543912746e-07 7.365972072198e-04 0.0 
0.0 0.0 -1.124710309571e-04 
-1.868644922347e-04 1.000849535727e-06 0.0 
1.000849535727e-06 1.255765804165e-03 0.0 
0.0 0.0 -1.865710734017e-04 
-1.676555622800e-04 3.291135704865e-07 0.0 
3.291135704865e-07 1.118261925556e-03 0.0 
0.0 0.0 -1.671813732751e-04 
-1.386017071923e-04 -1.797723160640e-07 0.0 
-1.797723160640e-07 9.191547604494e-04 0.0 
0.0 0.0 -1.386052031399e-04 
-1.179182420809e-04 -1.397755678998e-07 0.0 
-1.397755678998e-07 7.747023837777e-04 0.0 
0.0 0.0 -1.178542631832e-04 
-9.266051543288e-05 -1.427667931752e-06 0.0 
-1.427667931752e-06 5.998378060181e-04 0.0 
0.0 0.0 -9.287066260160e-05 
-1.268908472920e-04 -2.992571917758e-07 0.0 
-2.992571917758e-07 8.385766200168e-04 0.0 
0.0 0.0 -1.270155650522e-04 
-1.412610616596e-04 -7.070516204549e-07 0.0 
-7.070516204549e-07 9.356355867827e-04 0.0 
0.0 0.0 -1.409283708239e-04 
-1.952715328492e-04 2.648146111005e-07 0.0 
2.648146111005e-07 1.320373790754e-03 0.0 
0.0 0.0 -1.960333646234e-04 
-1.736029799723e-04 -4.830607358397e-07 0.0 
-4.830607358397e-07 1.152851948528e-03 0.0 
0.0 0.0 -1.722934252721e-04 
-1.452011068003e-04 -1.075773922608e-06 0.0 
-1.075773922608e-06 9.666398033647e-04 0.0 
0.0 0.0 -1.454499006876e-04 
-1.212938627555e-04 -3.882932393123e-07 0.0 
-3.882932393123e-07 7.997072957628e-04 0.0 
0.0 0.0 -1.214615911284e-04 
-1.463822189693e-04 -1.900321700037e-07 0.0 
-1.900321700037e-07 9.728037690076e-04 0.0 
0.0 0.0 -1.462476041952e-04 
-2.746226357204e-05 -9.271388711199e-07 0.0 
-9.271388711199e-07 1.571302735165e-04 0.0 
0.0 0.0 -2.955133849294e-05 
-9.672248826247e-05 7.266615167990e-07 0.0 
7.266615167990e-07 6.276593153662e-04 0.0 
0.0 0.0 -9.671433789260e-05 
-1.257056545510e-04 -4.990050790239e-07 0.0 
-4.990050790239e-07 8.296358928903e-04 0.0 
0.0 0.0 -1.257347134077e-04 
-8.071247393308e-05 8.458441046793e-08 0.0 
8.458441046793e-08 5.152581703620e-04 0.0 
0.0 0.0 -8.061844590833e-05 
-1.221886675709e-04 -7.908405440186e-08 0.0 
-7.908405440186e-08 8.040667053497e-04 0.0 
0.0 0.0 -1.220458434280e-04 
-1.840762203294e-04 1.915177188951e-06 0.0 
1.915177188951e-06 1.245437645367e-03 0.0 
0.0 0.0 -1.851416939921e-04 
-1.301442044184e-04 -3.060279266349e-07 0.0 
-3.060279266349e-07 8.596681305344e-04 0.0 
0.0 0.0 -1.300328051442e-04 
-9.031994090937e-05 -2.080257032607e-07 0.0 
-2.080257032607e-07 5.822092092616e-04 0.0 
0.0 0.0 -9.022896017931e-05 
-1.344673763446e-04 9.830708816546e-08 0.0 
9.830708816546e-08 8.894298640129e-04 0.0 
0.0 0.0 -1.343397272354e-04 
-8.268637292058e-05 -8.113913653823e-07 0.0 
-8.113913653823e-07 5.290888140562e-04 0.0 
0.0 0.0 -8.279832518349e-05 
-1.497839366065e-04 -1.523194842093e-06 0.0 
-1.523194842093e-06 9.970276981604e-04 0.0 
0.0 0.0 -1.497490155909e-04 
-1.382259707113e-04 2.110689173296e-08 0.0 
2.110689173296e-08 9.185304756848e-04 0.0 
0.0 0.0 -1.386530088269e-04 
-1.506650140695e-04 -9.263316559378e-07 0.0 
-9.263316559378e-07 1.001955608578e-03 0.0 
0.0 0.0 -1.504726885606e-04 
-3.022468714226e-05 -2.973636621545e-06 0.0 
-2.973636621545e-06 1.677942898081e-04 0.0 
0.0 0.0 -3.060483068446e-05 
-1.428673620023e-04 -2.398732156922e-07 0.0 
-2.398732156922e-07 9.482366823991e-04 0.0 
0.0 0.0 -1.427619920137e-04 
-1.726984643621e-04 1.345553639607e-06 0.0 
1.345553639607e-06 1.160671593896e-03 0.0 
0.0 0.0 -1.733128613594e-04 
-8.463363897670e-05 6.078796328985e-07 0.0 
6.078796328985e-07 5.444031302841e-04 0.0 
0.0 0.0 -8.481515710027e-05 
-1.264518580475e-04 2.684568646023e-07 0.0 
2.684568646023e-07 8.338232778496e-04 0.0 
0.0 0.0 -1.263048705811e-04 
-1.596353680421e-04 -9.131275579431e-07 0.0 
-9.131275579431e-07 1.065304755547e-03 0.0 
0.0 0.0 -1.595480372087e-04 
-7.302589173434e-05 -3.183424354861e-06 0.0 
-3.183424354861e-06 4.574500906094e-04 0.0 
0.0 0.0 -7.259764510955e-05 
-1.362250571880e-04 3.623633479398e-08 0.0 
3.623633479398e-08 9.021775671400e-04 0.0 
0.0 0.0 -1.361198740657e-04 
-1.602145110429e-04 -8.362565613447e-07 0.0 
-8.362565613447e-07 1.068772108230e-03 0.0 
0.0 0.0 -1.600932078566e-04 
-1.471273090538e-04 7.392924497516e-07 0.0 
7.392924497516e-07 9.780830439502e-04 0.0 
0.0 0.0 -1.470264431059e-04 
-1.270633471131e-04 1.102546760644e-07 0.0 
1.102546760644e-07 8.375443541897e-04 0.0 
0.0 0.0 -1.268359787636e-04 
-1.460791581632e-04 -2.407797944151e-07 0.0 
-2.407797944151e-07 9.714799924540e-04 0.0 
0.0 0.0 -1.460739326938e-04 
-7.660927585480e-05 2.589062603144e-06 0.0 
2.589062603144e-06 4.833163137169e-04 0.0 
0.0 0.0 -7.585562978697e-05 
-6.337475630904e-05 1.248073807384e-06 0.0 
1.248073807384e-06 3.958823544252e-04 0.0 
0.0 0.0 -6.357697056388e-05 
-5.388339958482e-05 2.895282728563e-07 0.0 
2.895282728563e-07 3.277752654746e-04 0.0 
0.0 0.0 -5.379270529687e-05 
-9.451957039609e-05 -2.935916480428e-07 0.0 
-2.935916480428e-07 6.114923592848e-04 0.0 
0.0 0.0 -9.441947030406e-05 
-1.655470867204e-04 -4.270866697213e-07 0.0 
-4.270866697213e-07 1.106817959118e-03 0.0 
0.0 0.0 -1.654622947108e-04 
-3.839223720892e-05 -3.449317819975e-06 0.0 
-3.449317819975e-06 2.174158836143e-04 0.0 
0.0 0.0 -3.781821007497e-05 
-1.582398840472e-04 -1.211336256148e-06 0.0 
-1.211336256148e-06 1.056196191213e-03 0.0 
0.0 0.0 -1.582347619750e-04 
-3.976493932031e-05 -1.461285902805e-06 0.0 
-1.461285902805e-06 2.310785421131e-04 0.0 
0.0 0.0 -3.990281506442e-05 
-8.912786947884e-05 -2.218013861212e-07 0.0 
-2.218013861212e-07 5.740010873261e-04 0.0 
0.0 0.0 -8.903564786089e-05 
-1.609314023663e-04 8.015374636601e-07 0.0 
8.015374636601e-07 1.078902557479e-03 0.0 
0.0 0.0 -1.615622346724e-04 
-1.398208268631e-04 -7.214897453684e-06 0.0 
-7.214897453684e-06 9.283629550766e-04 0.0 
0.0 0.0 -1.397314702741e-04 
-9.326712864409e-05 1.081123901449e-07 0.0 
1.081123901449e-07 6.029249672552e-04 0.0 
0.0 0.0 -9.316659828873e-05 
-5.971178892461e-05 1.368640181835e-06 0.0 
1.368640181835e-06 3.694230737418e-04 0.0 
0.0 0.0 -5.984927026599e-05 
-8.786689087998e-05 2.978470750166e-07 0.0 
2.978470750166e-07 5.651036338672e-04 0.0 
0.0 0.0 -8.775496813769e-05 
-1.366866866355e-04 2.012050051265e-07 0.0 
2.012050051265e-07 9.045962273325e-04 0.0 
0.0 0.0 -1.364843956035e-04 
-9.193121234076e-05 4.013204139827e-07 0.0 
4.013204139827e-07 5.938843893935e-04 0.0 
0.0 0.0 -9.187235440198e-05 
-8.634860532519e-05 5.489409565849e-07 0.0 
5.489409565849e-07 5.556459598693e-04 0.0 
0.0 0.0 -8.641257901652e-05 
-1.873076348652e-04 -8.303719696611e-07 0.0 
-8.303719696611e-07 1.255027706073e-03 0.0 
0.0 0.0 -1.864462757575e-04 
-9.029085277060e-05 7.778954920217e-07 0.0 
7.778954920217e-07 5.838501403615e-04 0.0 
0.0 0.0 -9.045572518728e-05 
-1.942906890229e-04 -1.961786413827e-06 0.0 
-1.961786413827e-06 1.320208759113e-03 0.0 
0.0 0.0 -1.958055517464e-04 
-1.946815352992e-04 -9.026625198254e-07 0.0 
-9.026625198254e-07 1.313526635210e-03 0.0 
0.0 0.0 -1.947608156509e-04 
-1.203676963192e-04 -5.252269783046e-06 0.0 
-5.252269783046e-06 7.911029022502e-04 0.0 
0.0 0.0 -1.199678325534e-04 
-6.382312409295e-05 3.317997073278e-06 0.0 
3.317997073278e-06 3.867196355365e-04 0.0 
0.0 0.0 -6.182128488093e-05 
-9.762668327602e-06 5.060945032082e-07 0.0 
5.060945032082e-07 4.694411596940e-05 0.0 
0.0 0.0 -1.015196033753e-05 
-6.438901127768e-05 -2.610876075630e-06 0.0 
-2.610876075630e-06 4.083460003589e-04 0.0 
0.0 0.0 -6.553865090092e-05 
-7.498804079240e-05 7.264952039937e-07 0.0 
7.264952039937e-07 4.774096760748e-04 0.0 
0.0 0.0 -7.520405771235e-05 
-1.574390158364e-04 7.322658693655e-08 0.0 
7.322658693655e-08 1.047023690082e-03 0.0 
0.0 0.0 -1.568628108499e-04 
-1.202462798349e-04 1.277535447616e-06 0.0 
1.277535447616e-06 7.923369076637e-04 0.0 
0.0 0.0 -1.204472570985e-04 
-6.913329999888e-05 1.518567138290e-06 0.0 
1.518567138290e-06 4.374135939075e-04 0.0 
0.0 0.0 -6.946069291118e-05 
-1.870210423738e-04 1.710341786506e-07 0.0 
1.710341786506e-07 1.262084104717e-03 0.0 
0.0 0.0 -1.875139937252e-04 
-1.961583819331e-04 -2.514147813671e-06 0.0 
-2.514147813671e-06 1.318669280984e-03 0.0 
0.0 0.0 -1.960106588935e-04 
-1.542863799404e-04 -1.786859133762e-06 0.0 
-1.786859133762e-06 1.026998591695e-03 0.0 
0.0 0.0 -1.543154520944e-04 
-1.744631732482e-04 2.018301688582e-06 0.0 
2.018301688582e-06 1.157934353510e-03 0.0 
0.0 0.0 -1.729253385307e-04 
-1.515018167516e-04 8.404198603291e-07 0.0 
8.404198603291e-07 1.010295705910e-03 0.0 
0.0 0.0 -1.515893794002e-04 
-1.789376768634e-04 -2.919640014592e-06 0.0 
-2.919640014592e-06 1.191538801034e-03 0.0 
0.0 0.0 -1.778575971036e-04 
-1.110411603683e-04 -8.342356804498e-06 0.0 
-8.342356804498e-06 7.312796766666e-04 0.0 
0.0 0.0 -1.117662927266e-04 
-1.911119346146e-05 1.280039211139e-07 0.0 
1.280039211139e-07 9.580427244612e-05 0.0 
0.0 0.0 -1.958655518621e-05 
-1.481869069540e-04 1.615226342953e-06 0.0 
1.615226342953e-06 9.850665679094e-04 0.0 
0.0 0.0 -1.481937727541e-04 
-5.301773043500e-05 1.085407750924e-06 0.0 
1.085407750924e-06 3.130804062890e-04 0.0 
0.0 0.0 -5.155996613848e-05 
-5.287064574584e-05 8.669478230726e-08 0.0 
8.669478230726e-08 3.211142711540e-04 0.0 
0.0 0.0 -5.286758958265e-05 
-4.293484566845e-05 -2.294669534036e-07 0.0 
-2.294669534036e-07 2.490277005517e-04 0.0 
0.0 0.0 -4.248609661651e-05 
-7.457102542764e-05 4.540838739860e-07 0.0 
4.540838739860e-07 4.629980056454e-04 0.0 
0.0 0.0 -7.285240290645e-05 
-2.774703220549e-05 1.104401006757e-06 0.0 
1.104401006757e-06 1.537348123985e-04 0.0 
0.0 0.0 -2.914266538000e-05 
-4.307384339748e-05 1.329013767483e-06 0.0 
1.329013767483e-06 2.553580944067e-04 0.0 
0.0 0.0 -4.333354231935e-05 
-1.879084470079e-04 -2.749275055618e-06 0.0 
-2.749275055618e-06 1.255451133352e-03 0.0 
0.0 0.0 -1.867668077911e-04 
-1.189011343897e-04 -7.099494553202e-06 0.0 
-7.099494553202e-06 7.923665314969e-04 0.0 
0.0 0.0 -1.207517460948e-04 
-1.659393230097e-04 -1.374219794473e-06 0.0 
-1.374219794473e-06 1.113429222670e-03 0.0 
0.0 0.0 -1.665613853390e-04 
-3.293815057038e-05 1.035559240217e-06 0.0 
1.035559240217e-06 1.835663013155e-04 0.0 
0.0 0.0 -3.316239960270e-05 
-1.877702954761e-04 -2.194005982338e-06 0.0 
-2.194005982338e-06 1.259619262861e-03 0.0 
0.0 0.0 -1.871049233185e-04 
-1.875538609812e-04 9.967607666471e-07 0.0 
9.967607666471e-07 1.259292980625e-03 0.0 
0.0 0.0 -1.869913167940e-04 
-1.965092283334e-04 -2.596350880128e-06 0.0 
-2.596350880128e-06 1.320494070457e-03 0.0 
0.0 0.0 -1.959374034051e-04 
-1.758179036347e-04 -4.481197506713e-07 0.0 
-4.481197506713e-07 1.181701348802e-03 0.0 
0.0 0.0 -1.764557581508e-04 
-3.270582193410e-05 -4.386817373036e-07 0.0 
-4.386817373036e-07 1.770411407639e-04 0.0 
0.0 0.0 -3.195907242369e-05 
-1.266388969174e-04 -6.538610975457e-06 0.0 
-6.538610975457e-06 8.502071903162e-04 0.0 
0.0 0.0 -1.290525119649e-04 
-1.885161697494e-04 -1.408082556477e-06 0.0 
-1.408082556477e-06 1.262346972473e-03 0.0 
0.0 0.0 -1.876241058639e-04 
-1.609443742117e-04 -4.613026983514e-07 0.0 
-4.613026983514e-07 1.083073354588e-03 0.0 
0.0 0.0 -1.620379724609e-04 
-1.949934473796e-04 8.861010983955e-06 0.0 
8.861010983955e-06 1.323301005755e-03 0.0 
0.0 0.0 -1.964977576321e-04 
-1.170915995552e-04 -2.526672373363e-07 0.0 
-2.526672373363e-07 7.818822557443e-04 0.0 
0.0 0.0 -1.196852915840e-04 
-1.881251343584e-04 1.719532540905e-06 0.0 
1.719532540905e-06 1.262091246564e-03 0.0 
0.0 0.0 -1.879162412457e-04 
-4.159837246659e-05 -1.872810599717e-06 0.0 
-1.872810599717e-06 2.367903641582e-04 0.0 
0.0 0.0 -4.105708941867e-05 
-1.880384365163e-04 2.724632523543e-06 0.0 
2.724632523543e-06 1.261692801511e-03 0.0 
0.0 0.0 -1.881249298770e-04 
-1.672657211226e-04 -3.803404194109e-07 0.0 
-3.803404194109e-07 1.114623838802e-03 0.0 
0.0 0.0 -1.665474363985e-04 
-1.318213223878e-04 4.430076983304e-06 0.0 
4.430076983304e-06 8.772776289306e-04 0.0 
0.0 0.0 -1.326022361065e-04 
-1.268048282990e-04 1.914164460218e-06 0.0 
1.914164460218e-06 8.466567585872e-04 0.0 
0.0 0.0 -1.285548941949e-04 
-1.877454760479e-04 1.284504322459e-06 0.0 
1.284504322459e-06 1.264298494462e-03 0.0 
0.0 0.0 -1.884505761775e-04 
-1.888991999446e-04 -3.702937246346e-06 0.0 
-3.702937246346e-06 1.261816131107e-03 0.0 
0.0 0.0 -1.874258164109e-04 
-2.628632611275e-05 2.399677637307e-06 0.0 
2.399677637307e-06 1.387230862011e-04 0.0 
0.0 0.0 -2.654059898772e-05 
-1.521013519928e-04 5.577678305588e-06 0.0 
5.577678305588e-06 1.024057332589e-03 0.0 
0.0 0.0 -1.536536413446e-04 
-9.055668035440e-05 -2.892025472723e-06 0.0 
-2.892025472723e-06 5.805249846311e-04 0.0 
0.0 0.0 -8.976434653209e-05 
-1.704710855302e-05 -3.458702652501e-06 0.0 
-3.458702652501e-06 8.989110359220e-05 0.0 
0.0 0.0 -1.808546165336e-05 
-1.884986873262e-04 5.724623714394e-06 0.0 
5.724623714394e-06 1.260552726885e-03 0.0 
0.0 0.0 -1.874281668734e-04 
-1.771946189262e-04 -2.402253146538e-07 0.0 
-2.402253146538e-07 1.178369612400e-03 0.0 
0.0 0.0 -1.758283601128e-04 
-1.891214672248e-04 5.594443250151e-06 0.0 
5.594443250151e-06 1.262060829366e-03 0.0 
0.0 0.0 -1.877794506222e-04 
-3.041019390796e-05 4.063728315188e-06 0.0 
4.063728315188e-06 1.568790135595e-04 0.0 
0.0 0.0 -2.929729011833e-05 
-1.923826485663e-05 2.395451325704e-06 0.0 
2.395451325704e-06 8.936390066832e-05 0.0 
0.0 0.0 -1.909551055642e-05 
-1.897110782286e-04 1.614204189851e-06 0.0 
1.614204189851e-06 1.273238434675e-03 0.0 
0.0 0.0 -1.887784298001e-04 
-1.886445185701e-04 1.051783953080e-06 0.0 
1.051783953080e-06 1.269174095551e-03 0.0 
0.0 0.0 -1.885660222491e-04 
-4.447382147791e-05 2.187152848341e-06 0.0 
2.187152848341e-06 2.726065505036e-04 0.0 
0.0 0.0 -4.552470986649e-05 
-1.972951013402e-04 -6.924320481766e-07 0.0 
-6.924320481766e-07 1.331208438024e-03 0.0 
0.0 0.0 -1.972065251748e-04 
-1.846003121508e-05 -1.622840747709e-06 0.0 
-1.622840747709e-06 8.564597044111e-05 0.0 
0.0 0.0 -1.843810201100e-05 
-1.091119861245e-04 9.275684085525e-07 0.0 
9.275684085525e-07 7.216506540820e-04 0.0 
0.0 0.0 -1.108446562541e-04 
-1.806806328908e-05 -2.788761483685e-06 0.0 
-2.788761483685e-06 9.325750213385e-05 0.0 
0.0 0.0 -1.871126948293e-05 
-1.949690694268e-04 -7.776605200528e-06 0.0 
-7.776605200528e-06 1.321740719942e-03 0.0 
0.0 0.0 -1.962797183211e-04 
-1.894401262255e-04 3.666748622647e-06 0.0 
3.666748622647e-06 1.266754761130e-03 0.0 
0.0 0.0 -1.882268625302e-04 
-9.871077405525e-05 5.581959752057e-06 0.0 
5.581959752057e-06 6.396670141167e-04 0.0 
0.0 0.0 -9.846769932235e-05 
-1.118450688366e-04 4.156485273902e-06 0.0 
4.156485273902e-06 7.411970212637e-04 0.0 
0.0 0.0 -1.131213240816e-04 
-6.675482278899e-05 2.746646028006e-06 0.0 
2.746646028006e-06 4.187062855815e-04 0.0 
0.0 0.0 -6.639636993191e-05 
-1.817394697373e-04 5.968977030046e-06 0.0 
5.968977030046e-06 1.213512747672e-03 0.0 
0.0 0.0 -1.805248368263e-04 
-2.549001927232e-05 1.681293934372e-06 0.0 
1.681293934372e-06 1.416935565870e-04 0.0 
0.0 0.0 -2.765034433090e-05 
-1.904991185222e-04 -2.176372463226e-06 0.0 
-2.176372463226e-06 1.275606109758e-03 0.0 
0.0 0.0 -1.890445337758e-04 
-1.902901370943e-04 -9.239913511012e-07 0.0 
-9.239913511012e-07 1.276413630327e-03 0.0 
0.0 0.0 -1.892125449932e-04 
-1.899738152617e-04 1.392000637092e-06 0.0 
1.392000637092e-06 1.275351249225e-03 0.0 
0.0 0.0 -1.890927655262e-04 
-1.980969591010e-04 1.747220192364e-07 0.0 
1.747220192364e-07 1.334413570643e-03 0.0 
0.0 0.0 -1.976588442224e-04 
-1.595876566451e-05 5.109996014523e-06 0.0 
5.109996014523e-06 8.560533841461e-05 0.0 
0.0 0.0 -1.829422046362e-05 
-1.907894524984e-04 -1.453289198629e-06 0.0 
-1.453289198629e-06 1.278087489939e-03 0.0 
0.0 0.0 -1.894635324722e-04 
-1.817965180967e-04 4.689820275562e-06 0.0 
4.689820275562e-06 1.212613848096e-03 0.0 
0.0 0.0 -1.803359864353e-04 
-1.117957005377e-04 6.977421344692e-06 0.0 
6.977421344692e-06 7.320600126907e-04 0.0 
0.0 0.0 -1.115961672155e-04 
-1.879277561833e-04 6.009601527580e-06 0.0 
6.009601527580e-06 1.263394424764e-03 0.0 
0.0 0.0 -1.878861552790e-04 
-8.116031042482e-05 4.154281404345e-06 0.0 
4.154281404345e-06 5.182033185543e-04 0.0 
0.0 0.0 -8.075837133452e-05 
-3.557600018319e-05 -6.705160068937e-06 0.0 
-6.705160068937e-06 2.127372360934e-04 0.0 
0.0 0.0 -3.738032741976e-05 
-1.948498336035e-04 -4.155697267809e-06 0.0 
-4.155697267809e-06 1.324960786423e-03 0.0 
0.0 0.0 -1.970235340649e-04 
-6.441570103541e-06 -6.279015523928e-07 0.0 
-6.279015523928e-07 3.480654244499e-05 0.0 
0.0 0.0 -7.946641316233e-06 
-1.120604214633e-04 -3.288397658700e-06 0.0 
-3.288397658700e-06 7.283085618337e-04 0.0 
0.0 0.0 -1.110361655408e-04 
-1.968531726492e-04 6.196640298584e-06 0.0 
6.196640298584e-06 1.326994606246e-03 0.0 
0.0 0.0 -1.970239266115e-04 
-3.317100676700e-05 -5.514460053326e-07 0.0 
-5.514460053326e-07 2.002819803963e-04 0.0 
0.0 0.0 -3.602866455310e-05 
-1.267924167818e-04 -3.909643930437e-06 0.0 
-3.909643930437e-06 8.405854862832e-04 0.0 
0.0 0.0 -1.273445728183e-04 
-1.883260687280e-04 -1.377902224743e-06 0.0 
-1.377902224743e-06 1.272138406880e-03 0.0 
0.0 0.0 -1.890317804362e-04 
-1.203896409836e-04 1.438809671102e-06 0.0 
1.438809671102e-06 7.891647527459e-04 0.0 
0.0 0.0 -1.197994443266e-04 
-1.726861375007e-04 -9.127303948545e-06 0.0 
-9.127303948545e-06 1.150354645725e-03 0.0 
0.0 0.0 -1.722668051730e-04 
-3.289244603068e-05 1.865001967380e-06 0.0 
1.865001967380e-06 1.965766441920e-04 0.0 
0.0 0.0 -3.568834104832e-05 
-5.881706171023e-06 -3.561904745218e-07 0.0 
-3.561904745218e-07 3.491879089690e-05 0.0 
0.0 0.0 -7.282502801701e-06 
-1.446887067247e-04 -6.124654101547e-06 0.0 
-6.124654101547e-06 9.637426034631e-04 0.0 
0.0 0.0 -1.450319398739e-04 
-1.900119233844e-04 5.405432627128e-06 0.0 
5.405432627128e-06 1.271140965081e-03 0.0 
0.0 0.0 -1.888071511890e-04 
-1.907231428786e-04 -2.479170288195e-06 0.0 
-2.479170288195e-06 1.279898250331e-03 0.0 
0.0 0.0 -1.895996551150e-04 
-1.374681624272e-04 5.948461411176e-06 0.0 
5.948461411176e-06 9.167037354941e-04 0.0 
0.0 0.0 -1.379940178424e-04 
-3.140963832924e-05 -6.998474457374e-06 0.0 
-6.998474457374e-06 1.796728179544e-04 0.0 
0.0 0.0 -3.246938559274e-05 
-1.841130626501e-04 1.475194732939e-06 0.0 
1.475194732939e-06 1.232968589940e-03 0.0 
0.0 0.0 -1.831558075192e-04 
-1.038243241623e-04 -4.078507790945e-07 0.0 
-4.078507790945e-07 6.921885952500e-04 0.0 
0.0 0.0 -1.059090906887e-04 
-1.833573372240e-04 -2.325322525301e-06 0.0 
-2.325322525301e-06 1.222189390314e-03 0.0 
0.0 0.0 -1.813408670945e-04 
-1.831720387608e-04 -1.195237391827e-06 0.0 
-1.195237391827e-06 1.215102366402e-03 0.0 
0.0 0.0 -1.805709848148e-04 
-8.505788794989e-06 -2.657547953589e-06 0.0 
-2.657547953589e-06 3.877580200424e-05 0.0 
0.0 0.0 -9.674067485877e-06 
-1.292364309074e-04 2.864479089253e-06 0.0 
2.864479089253e-06 8.498544276161e-04 0.0 
0.0 0.0 -1.284404431535e-04 
-1.837715794025e-05 -4.476436000323e-06 0.0 
-4.476436000323e-06 8.791465953263e-05 0.0 
0.0 0.0 -1.834574975625e-05 
-1.906256035079e-04 -2.900280215013e-06 0.0 
-2.900280215013e-06 1.276520367600e-03 0.0 
0.0 0.0 -1.895571240875e-04 
-1.101124519025e-04 -2.003731999075e-06 0.0 
-2.003731999075e-06 7.232878293546e-04 0.0 
0.0 0.0 -1.101665449339e-04 
-5.048456417060e-05 -2.929549654779e-06 0.0 
-2.929549654779e-06 3.593010990798e-04 0.0 
0.0 0.0 -5.788546288080e-05 
-5.961378635258e-05 -5.454468222937e-07 0.0 
-5.454468222937e-07 3.590027679778e-04 0.0 
0.0 0.0 -5.900000000000e-05 
-6.265158996412e-05 -5.475928741402e-06 0.0 
-5.475928741402e-06 4.290425473903e-04 0.0 
0.0 0.0 -6.790306122449e-05 
-6.948065415978e-05 -5.864688945389e-07 0.0 
-5.864688945389e-07 4.403815007264e-04 0.0 
0.0 0.0 -6.900000000000e-05 
-7.287737908661e-05 -5.356659590834e-06 0.0 
-5.356659590834e-06 4.997222128530e-04 0.0 
0.0 0.0 -7.788265306121e-05 
-7.961974967197e-05 -6.571269526958e-07 0.0 
-6.571269526958e-07 4.982209090245e-04 0.0 
0.0 0.0 -7.900000000000e-05 
-8.324861204494e-05 -5.744890109580e-06 0.0 
-5.744890109580e-06 5.692366340431e-04 0.0 
0.0 0.0 -8.790306122449e-05 
-8.930212876051e-05 1.144359831531e-06 0.0 
1.144359831531e-06 5.794802677978e-04 0.0 
0.0 0.0 -8.900000000000e-05 
-9.352423002678e-05 -5.224443985984e-06 0.0 
-5.224443985984e-06 6.401887908398e-04 0.0 
0.0 0.0 -9.787877878422e-05 
-1.009998970260e-04 5.583373135514e-06 0.0 
5.583373135514e-06 6.372022866514e-04 0.0 
0.0 0.0 -9.900000000000e-05 

SCALARS node_materi_plasti_kappa_shear float
LOOKUP_TABLE default
1.731369050501e-05
4.545550431279e-04
8.879540853347e-04
8.885778472785e-04
4.289921439406e-05
9.327668990988e-05
1.307750198866e-04
1.795624514288e-04
2.257201379956e-04
2.695509172566e-04
3.144422750007e-04
3.602182894153e-04
4.054873038985e-04
4.525148308088e-04
5.038541824834e-04
5.495995247736e-04
5.862111262393e-04
6.342650658052e-04
6.814841447557e-04
7.273130426229e-04
7.742201728224e-04
8.215906888973e-04
8.669064806701e-04
8.898091793777e-04
8.888004860446e-04
8.881476431534e-04
8.886611550675e-04
8.873292207379e-04
8.873796625285e-04
8.877145688059e-04
8.882991997087e-04
8.891081577287e-04
8.895674516380e-04
8.882569121584e-04
8.886773248083e-04
8.897614672626e-04
8.893270601288e-04
8.879317372578e-04
8.867155421258e-04
8.860750537291e-04
8.875036930769e-04
8.888199397314e-04
8.889528056051e-04
8.891193998000e-04
8.889269682470e-04
8.885711942666e-04
8.881774963459e-04
8.893558715015e-04
8.892926716100e-04
8.896475655307e-04
8.895391621796e-04
8.902345752377e-04
8.910618100376e-04
8.908268286946e-04
8.883017444198e-04
8.870033247227e-04
8.889101297818e-04
8.887178507321e-04
8.889749525521e-04
8.891814831339e-04
8.887055024058e-04
8.873576980910e-04
8.876113339264e-04
8.880420548052e-04
8.897938021992e-04
8.907165225603e-04
8.860205656141e-04
8.893069775074e-04
8.887535151655e-04
8.885180406596e-04
8.909163501420e-04
8.913403494152e-04
4.970460226215e-04
5.465414378926e-04
5.921313660911e-04
6.364287587029e-04
6.825537522220e-04
7.278134995944e-04
7.735342273327e-04
8.173136017165e-04
8.659377019958e-04
1.387818063272e-05
4.539930109995e-04
5.438054036256e-05
1.009772649362e-04
1.470854780186e-04
1.881787348830e-04
2.331733902575e-04
2.642608575334e-04
3.107394956161e-04
3.570654865109e-04
4.033178026184e-04
2.466542779457e-04
2.707860879461e-04
3.162883577622e-04
3.616329343761e-04
4.060157178949e-04
4.461572723987e-04
4.482375507592e-04
4.489251939510e-04
4.482810220245e-04
4.560054951225e-04
4.490487455221e-04
4.479848053994e-04
4.491487522400e-04
4.505166080725e-04
4.507339705437e-04
4.500429840668e-04
4.496777136800e-04
4.491474461797e-04
4.502737102712e-04
1.443236451681e-05
1.609184950887e-05
1.444777850682e-05
1.445196928896e-05
1.742545827470e-05
1.883427368882e-05
1.852391460304e-05
1.764215548380e-05
1.771561269883e-05
1.733046749832e-05
1.810073159380e-05
2.048990176091e-05
1.919122443325e-05
1.606222747872e-05
1.631184331598e-05
1.838276961406e-05
1.899682157401e-05
1.674761483558e-05
1.515472777583e-05
2.278277602408e-04
2.466952866434e-04
2.490447628931e-04
2.493430432560e-04
2.495585690589e-04
2.494604267682e-04
2.493620319497e-04
2.491971624491e-04
2.491306960748e-04
2.491926561420e-04
2.492753446955e-04
2.492972013527e-04
2.493013215950e-04
2.493075946246e-04
2.492999467977e-04
2.492494880210e-04
2.491573186265e-04
2.490735878784e-04
2.490306432214e-04
2.488949029449e-04
2.451939795070e-04
2.397939982992e-04
2.692547529093e-04
2.675660618296e-04
2.673934583820e-04
2.673939568732e-04
2.674585768179e-04
2.675591031638e-04
2.676459040090e-04
2.676570538580e-04
2.676372015587e-04
2.676553404665e-04
2.676764041519e-04
2.676333042631e-04
2.674812840926e-04
2.674838661980e-04
2.676204239189e-04
2.679795855057e-04
2.678105543472e-04
2.677301033404e-04
2.700799073531e-04
2.570066425718e-04
3.028056095170e-04
3.161844696852e-04
3.143201194648e-04
3.138173456821e-04
3.135666727045e-04
3.133894152578e-04
3.137072245185e-04
3.137903749499e-04
3.137552108189e-04
3.136173653508e-04
3.136276881299e-04
3.137330253685e-04
3.136250543478e-04
3.134895440990e-04
3.134087321469e-04
3.133800931571e-04
3.134342156714e-04
3.138051608859e-04
3.154278010076e-04
3.611485313111e-04
3.593958689772e-04
3.591898798686e-04
3.593297202165e-04
3.592471895824e-04
3.594265497814e-04
3.596237032014e-04
3.596571460670e-04
3.593377794373e-04
3.596684783014e-04
3.598758848307e-04
3.597552388914e-04
3.597821813941e-04
3.590976444273e-04
3.597033129801e-04
3.627706280632e-04
3.496857881406e-04
3.956894430432e-04
4.084843113251e-04
4.060961241034e-04
4.055043726269e-04
4.058070391746e-04
4.060008361141e-04
4.054675210445e-04
4.054158394705e-04
4.054705070724e-04
4.053661824669e-04
4.051783298876e-04
4.050677983318e-04
4.054138231738e-04
4.048987951044e-04
4.060536754366e-04
4.085853059390e-04
3.439412955423e-05
7.855211595374e-05
1.235371244524e-04
1.701785260397e-04
2.135457077895e-04
2.444555121765e-04
2.902585631940e-04
3.362497538655e-04
3.823052700951e-04
4.292533059372e-04
1.065540971725e-04
8.722366970816e-04
3.071877777411e-05
2.955753103127e-05
8.728796448070e-04
1.993419400918e-04
4.786993620079e-04
8.715410235368e-04
2.838574358308e-04
8.733046452917e-04
3.784478368563e-04
8.750925786310e-04
2.796371051266e-05
8.736269387387e-04
4.733271556655e-04
2.936877367691e-04
6.035474916514e-04
8.717572086583e-04
8.738199405046e-04
8.737494710065e-04
8.696287808285e-04
8.750806370792e-04
4.919558859900e-04
4.918398764199e-04
4.949307231399e-04
6.589482462508e-04
8.738674271820e-04
2.813705699443e-05
3.195365789908e-05
7.486411905949e-04
4.900146372998e-04
1.541367175474e-04
8.655890379535e-04
8.755682138923e-04
8.730973644309e-04
8.703784410466e-04
8.740973276145e-04
3.187356296986e-05
4.907091952207e-04
8.662583448289e-04
7.508115515426e-04
3.074176072344e-05
3.834518994422e-04
8.815314033999e-04
2.457863140164e-04
1.527805289882e-04
3.313833785311e-04
4.244970235113e-04
5.636808983146e-05
5.718052096935e-04
8.819662471530e-04
3.001251584579e-05
8.373343036417e-04
4.924452570696e-04
5.108818745462e-04
5.332387487364e-04
5.560142054344e-04
5.787643014481e-04
5.991259251811e-04
5.752635265182e-04
6.186942134972e-04
5.944516730932e-04
6.231926228760e-04
6.380835551574e-04
6.135840024034e-04
6.573144048118e-04
6.328089844586e-04
5.894129404993e-04
6.085043193505e-04
5.651248587261e-04
5.842235601993e-04
6.277370129424e-04
6.033008816137e-04
5.598285256637e-04
5.787470750073e-04
5.354343962972e-04
5.543066005166e-04
5.109771159406e-04
5.298843866555e-04
5.732568666387e-04
5.488106401566e-04
5.054467442157e-04
5.243830125588e-04
4.810781478793e-04
4.998224426771e-04
5.432974154275e-04
5.187745459682e-04
4.750268661506e-04
4.942061513858e-04
4.503195040673e-04
4.696890934292e-04
4.255957344176e-04
4.448505048632e-04
4.889334273357e-04
4.641717549476e-04
4.199472596373e-04
4.391094936345e-04
4.834394634788e-04
4.583112576687e-04
5.027462790146e-04
4.776197235482e-04
4.333642288832e-04
4.526081348578e-04
4.969211450957e-04
4.717210733978e-04
4.275809977385e-04
4.467222286567e-04
4.910180813087e-04
4.658552900682e-04
4.216677957086e-04
4.408729284411e-04
4.853895838457e-04
4.600318407553e-04
4.156094397672e-04
4.346988666159e-04
4.795014301536e-04
4.538188443789e-04
4.989809666093e-04
4.088754149089e-04
4.280167623937e-04
3.828819013324e-04
4.021805478245e-04
5.624042399684e-04
3.568746175437e-04
3.381624883378e-04
3.763715402787e-04
4.219792148569e-04
3.309364607346e-04
3.505799184385e-04
3.052633941202e-04
4.056941669208e-04
6.469586485139e-04
3.250320809889e-04
2.796631607038e-04
2.599302819126e-04
2.342013255709e-04
6.036748186582e-04
6.482174305303e-04
6.269535787043e-04
6.731337752938e-04
6.527067380216e-04
2.538439629180e-04
6.821261244064e-04
6.930466000944e-04
5.166862193674e-04
4.621843229341e-04
5.278976428177e-04
3.703184973447e-04
3.451321418538e-04
3.906862459586e-04
5.246371866953e-04
5.443146240762e-04
5.699547953913e-04
5.897069522284e-04
6.153672919097e-04
6.351883362805e-04
6.094609170451e-04
6.550126832139e-04
6.292102542344e-04
6.608318434088e-04
6.410047653727e-04
6.747478106556e-04
6.489569127364e-04
6.944404496434e-04
6.686255413523e-04
6.230894205853e-04
6.427296395524e-04
5.974326100299e-04
5.473118415211e-04
5.725790691740e-04
5.920079111204e-04
6.173889614791e-04
6.368362109388e-04
6.623309645012e-04
6.816599341203e-04
6.563140336921e-04
6.764880034757e-04
3.948980065668e-04
3.757422617964e-04
3.507921955189e-04
3.317100384563e-04
3.067998146490e-04
2.878591714287e-04
2.628952814348e-04
2.817770972622e-04
2.377365497028e-04
2.565509120403e-04
2.123913595215e-04
2.311386405196e-04
5.922576399657e-04
6.427827676104e-04
6.878682679612e-04
6.678822000469e-04
2.148067718258e-04
6.882180801932e-04
6.864985118878e-04
6.664359755593e-04
7.013124766121e-04
2.087760264216e-04
2.441964081010e-04
2.687157839923e-04
6.978563593589e-04
6.772610625539e-04
7.121601343833e-04
2.283568469402e-04
7.006628053783e-04
1.937776703377e-04
6.622880887680e-04
7.078272471647e-04
5.837558227301e-04
7.131417687537e-04
6.924127382572e-04
2.759772220359e-04
2.508908842006e-04
2.067202652783e-04
2.273131006144e-04
2.708850174899e-04
2.448672349258e-04
1.998980645288e-04
2.191272268305e-04
2.639108306055e-04
2.381925193768e-04
1.928266391849e-04
2.123220651939e-04
7.337275495344e-04
1.682265145296e-04
5.462050413710e-04
7.318865140830e-04
7.261568958084e-04
7.225832230558e-04
7.021288971226e-04
6.565124913041e-04
6.819655065462e-04
7.275032532752e-04
7.072262295564e-04
6.616628008332e-04
6.865235503483e-04
6.407465733666e-04
6.657182290584e-04
7.113460086993e-04
6.908411643582e-04
6.453255735266e-04
6.702622678794e-04
6.246789880058e-04
6.489319520512e-04
6.952190037192e-04
1.840273521277e-04
6.759567359458e-04
7.214607443990e-04
3.679720332759e-04
4.092817550487e-04
4.360686121869e-04
4.564588720529e-04
6.740705970757e-04
7.205777350965e-04
2.252804046805e-04
2.496360743898e-04
7.429139095365e-04
6.823424879043e-04
6.366049028177e-04
4.378451378818e-04
4.188880438556e-04
3.943752891281e-04
3.748640538969e-04
4.003452629813e-04
3.498940421147e-04
6.207438251872e-04
7.364909888472e-04
2.405871186206e-04
1.954370079604e-04
7.282805554458e-04
6.308606560243e-04
6.167686675707e-04
6.359024740525e-04
6.606418547102e-04
6.798245018957e-04
7.048195630290e-04
7.239151784800e-04
6.995250348688e-04
7.376440826471e-04
7.439657402355e-04
6.261993285558e-04
6.226819723499e-04
2.832721408126e-04
1.644730842850e-04
1.669301588230e-04
2.020973455329e-04
2.478170423544e-04
7.577119654081e-04
7.492733009352e-04
7.294398050137e-04
3.569060949549e-04
3.819409900850e-04
7.577870500628e-04
6.069742862614e-04
6.160208837846e-04
5.947078797033e-04
1.502552835389e-04
1.472236624068e-04
7.528104372185e-04
2.930236053531e-04
2.739490413792e-04
1.500905215988e-04
1.240537225359e-04
6.973593058681e-04
7.439041173789e-04
4.813505419260e-04
5.017144862583e-04
7.379119109569e-04
1.870277448814e-04
7.663141417339e-04
6.508032487137e-04
6.054849935165e-04
4.293291398523e-04
2.069471688254e-04
1.825426121622e-04
3.087667916428e-04
2.317056376954e-04
2.217281548421e-04
7.833146767017e-04
7.725249111761e-04
7.195048383756e-04
6.747855449436e-04
7.634484368176e-04
1.418552388890e-04
7.784896772250e-04
7.030108063973e-04
7.725824598691e-04
7.540604595901e-04
3.171474948001e-04
2.987852970653e-04
2.558668176592e-04
2.815832131691e-04
5.513698858348e-04
3.420076733765e-04
5.219255427951e-04
5.030668813377e-04
4.792452590639e-04
4.247335201093e-04
4.063236056300e-04
3.563244576484e-04
5.530404887445e-04
4.617109805981e-04
5.777394579271e-04
5.501611182387e-04
7.566237315057e-04
7.823745579098e-04
5.997434588477e-04
5.780237946273e-04
1.697495562144e-04
1.508805515530e-04
5.186529117619e-04
7.516991623626e-04
7.672690893153e-04
7.876001356161e-04
7.626509320592e-04
7.627778325953e-04
3.699499845101e-04
5.666666454918e-04
1.438245311811e-04
5.868006376027e-04
1.247175489974e-04
6.713548583210e-04
7.483917891977e-04
7.736774679398e-04
7.821572245300e-04
4.899015071153e-04
6.061770746778e-04
5.817931729752e-04
4.605724853742e-04
4.370223372958e-04
4.552736079605e-04
4.133656439147e-04
3.276923247088e-04
3.020339028758e-04
7.979659689173e-04
7.883460447530e-04
7.982408092042e-04
7.795524967648e-04
8.013069214063e-04
7.771428291273e-04
2.665794004091e-04
3.640873967819e-04
7.971681631113e-04
4.838853975756e-04
7.968536680470e-04
7.720983615569e-04
9.810668217613e-05
1.158569237012e-04
7.915840785144e-04
2.380574401883e-04
2.618006099049e-04
2.132008951494e-04
8.415052523991e-04
4.886663809025e-04
7.934056144555e-04
4.492884086887e-04
8.130387548701e-04
6.261760504981e-04
4.125814814439e-04
7.178732318399e-04
7.666642762268e-04
8.185709815988e-04
5.696834584242e-04
5.469719599133e-04
5.897324846543e-04
1.746640571462e-04
1.267235960322e-04
7.616042996353e-04
3.196076646027e-04
3.449992437643e-04
2.048866664362e-04
2.493062780569e-04
5.070116633323e-04
4.873520815403e-04
6.908734956118e-04
7.154878992919e-04
6.414340301825e-04
6.254037858679e-04
5.801902790572e-04
5.606256376154e-04
8.012681753723e-04
8.329963825512e-04
3.530470634913e-04
3.340524441574e-04
3.460614324759e-04
8.175524335045e-04
8.195011765415e-04
7.988609115481e-04
1.072300634752e-04
1.330632502214e-04
1.652810804939e-04
1.397493906304e-04
8.060647275400e-04
7.832275887001e-04
8.359053686964e-04
2.373558503067e-04
6.948259004067e-04
8.063839968108e-04
7.881231808626e-04
8.339301416530e-04
7.615215817857e-04
8.048887775842e-04
8.067360300635e-04
8.088210451328e-05
8.001969768968e-04
5.513628864854e-04
5.991210265794e-05
5.303750343771e-04
5.575493484435e-04
5.056018791105e-04
1.923253731113e-04
5.350945061517e-04
5.648908884563e-04
7.689491788832e-05
8.408831798945e-04
8.340401133038e-05
9.990498025281e-05
8.174634215095e-04
7.911886027123e-04
8.358366351121e-04
8.088717682168e-04
7.649515697637e-04
7.857574983214e-04
5.264350640623e-04
8.358546589261e-04
8.061222461893e-04
8.605711697752e-04
3.958089654574e-04
3.059852068258e-04
2.858172523062e-04
2.426109781750e-04
8.296191495191e-04
8.022538523192e-04
7.244602053986e-04
6.782170569491e-04
5.336023792134e-04
5.298854478294e-04
5.720377334188e-04
5.651841783924e-04
6.088002111604e-04
6.018654128492e-04
6.443068834977e-04
8.334708182106e-04
1.951336418689e-04
4.420082584187e-04
8.207982746555e-04
7.940700745776e-04
3.881584802576e-04
3.471998577605e-04
8.305993334525e-04
3.609425281377e-04
8.689143425974e-04
2.787060135920e-05
7.286647819476e-05
3.859558184678e-04
4.309545412117e-04
3.298825060451e-04
3.137520652760e-04
6.714664482733e-04
1.125731627303e-04
1.894537224626e-04
6.501544121412e-04
1.477430287242e-04
7.019854955118e-04
3.810844111669e-04
4.677711350311e-04
2.313148587081e-04
3.252238421852e-04
5.703579268460e-04
5.324043867603e-04
5.086674172278e-04
4.006419728863e-04
3.391204703335e-04
2.923835719857e-04
5.408511218791e-04
7.379651171000e-04
7.579706773122e-04
8.011548755258e-04
7.780826984350e-04
7.332840892905e-04
7.526479975871e-04
7.971803115054e-04
7.735197813417e-04
8.262472905690e-04
7.929598925790e-04
7.470527542953e-04
7.659248830045e-04
8.091032939205e-04
7.211619544472e-04
8.442167902149e-04
4.306865788467e-04
1.044765289972e-04
9.827683643382e-05
4.923540219683e-04
8.714790847238e-04
8.731736799155e-04
3.123792524490e-04
8.729287150019e-04
5.272649318487e-04
2.191398239417e-04
8.732031985156e-04
7.130087249815e-04
6.877858420163e-04
6.679067510146e-04
8.747254954737e-04
6.109742344751e-04
8.755701857100e-04
5.978551322893e-04
5.777687862342e-04
5.331862976259e-04
7.271016044260e-04
8.726832412974e-04
8.363453721647e-04
8.357287884966e-04
7.967949130083e-04
8.729311769591e-04
8.746048210340e-04
8.757603934564e-04
2.896480078818e-04
3.151536061377e-04
3.591713235696e-04
3.399576539233e-04
2.956226792121e-04
3.205301867894e-04
3.646701735677e-04
3.009725532030e-04
7.593675824400e-04
8.745186206880e-04
5.955179239956e-04
5.752952465899e-04
5.302262826699e-04
4.419860638094e-04
4.675978432361e-04
5.129738354448e-04
4.164548397465e-04
6.551879346242e-04
8.741019856414e-04
5.859901048920e-04
4.476603996913e-04
4.915230817815e-04
5.309240068605e-04
5.323700613709e-04
5.736894063965e-04
5.351590388547e-04
5.269854541203e-04
5.469085242661e-04
5.219164243980e-04
5.664660482549e-04
5.401131126200e-04
4.979524260253e-04
5.848853311671e-04
5.569185072007e-04
4.906420102381e-04
3.170448400109e-05
6.995385727615e-05
6.849074955060e-05
1.073511835087e-04
1.105991917856e-04
1.504731351132e-04
1.458387750102e-04
7.076324639262e-05
3.090762372850e-05
6.811155019588e-05
3.024275800373e-05
6.701952661023e-05
1.132561805515e-04
1.774278331148e-04
8.683268420300e-04
4.289563965157e-04
4.087467011713e-04
3.620022030675e-04
3.871398276738e-04
4.468882401977e-04
3.382483447187e-04
3.227666928477e-04
3.186373403238e-05
6.968070788243e-05
6.930431433067e-05
1.103830641038e-04
1.084283513711e-04
6.955844240917e-05
6.957251263225e-05
3.087829288754e-05
6.916668823128e-05
1.092093195758e-04
2.860096868461e-05
7.056820037004e-04
7.299566898429e-04
8.725577123160e-04
4.959692094609e-04
3.091218048916e-05
8.671852048698e-04
8.733432179252e-04
8.734531321064e-04
7.957971286484e-04
8.182028176353e-04
8.680808008300e-04
2.856246407715e-04
8.221505899075e-04
7.867365561803e-04
2.006879828875e-04
2.760157267466e-04
6.570374827172e-04
6.034788526751e-04
7.534404223277e-04
6.171445062617e-04
7.141191166494e-04
8.333331487220e-04
1.769391207037e-04
6.197356729893e-04
6.031369019689e-04
7.159815276405e-04
2.996957630434e-04
4.779314782195e-04
1.896480084331e-04
8.372249201877e-04
4.978685116583e-04
5.049912460344e-04
3.962534712183e-04
3.116673154321e-04
2.575495564398e-04
4.563132910929e-04
4.733113038568e-04
6.807420950213e-04
7.412727405057e-04
3.900894407946e-05
7.062809791721e-04
5.640134143322e-04
6.366157628327e-04
7.072992914154e-04
1.751116105001e-04
7.321461800821e-04
8.104970881191e-04
5.847505123753e-04
1.450668962481e-04
5.736378135269e-04
8.027337595558e-04
7.180376744355e-04
2.736317130801e-04
5.220914710743e-04
4.865818052908e-04
4.471177866967e-04
8.063363278817e-04
5.378993798996e-04
7.470022916029e-04
6.114026488664e-04
2.939212611736e-04
7.463767332910e-04
5.084976424556e-04
7.777626792266e-04
6.854084072495e-04
4.140791467985e-04
7.471678807682e-04
5.103813785756e-04
7.329713830172e-04
4.737289604077e-04
5.977356866437e-04
6.519892618683e-04
5.678021419543e-04
6.319192717496e-04
7.264774776897e-04
1.875624189713e-04
3.688310981205e-04
6.314501505079e-04
7.672682440834e-04
8.229065015772e-04
4.434680652511e-04
7.201561125460e-04
7.914028017314e-04
4.930979507901e-04
2.040260336769e-04
1.581177402907e-04
3.258736548738e-04
5.134927945261e-04
5.384299011222e-04
8.328361271424e-04
7.396786737532e-04
6.920128991829e-04
8.196000574170e-05
4.652440764187e-04
7.595631118992e-04
5.413940581115e-04
7.514691837904e-04
5.124079232766e-04
8.363223980306e-04
3.713304271161e-04
7.809543171496e-04
6.971423152539e-04
3.367042725643e-04
4.902204304360e-04
8.332513049422e-04
7.429330284218e-04
6.113513461743e-04
5.161141755974e-04
4.006034501526e-04
5.581912762765e-04
6.223072189553e-04
8.752979443997e-04
7.659203639431e-04
6.426709006855e-04
5.325586862055e-04
6.468672484863e-04
1.073528278852e-04
4.189303666797e-04
5.523127417924e-04
3.452338039030e-04
5.354806018552e-04
8.261173123730e-04
5.721454322879e-04
3.892915712256e-04
5.917818965200e-04
3.539736687271e-04
6.627781278346e-04
6.108539446376e-04
6.660506999495e-04
1.163652973912e-04
6.305577701447e-04
7.706780509162e-04
3.642601618824e-04
5.551389630622e-04
7.078379568633e-04
3.068275794996e-04
6.002627334512e-04
7.101300016245e-04
6.503083964526e-04
5.576201452771e-04
6.459702225838e-04
3.237473504565e-04
2.667167922262e-04
2.221184360012e-04
4.085364404529e-04
7.352038309621e-04
1.486189434307e-04
7.017840156360e-04
1.592352416656e-04
3.838129177836e-04
7.166805507109e-04
6.173636955304e-04
4.028477991316e-04
2.492989866975e-04
3.779520455053e-04
6.018674573376e-04
3.968794592392e-04
3.716672737304e-04
8.329159667528e-04
3.902334651909e-04
8.748882416506e-04
8.711247298713e-04
5.265534076551e-04
2.606176973493e-04
3.608218628589e-05
2.743663405466e-04
3.201182020186e-04
6.958586502564e-04
5.269760115519e-04
2.937831755636e-04
8.369611183303e-04
8.745831491043e-04
6.824073644152e-04
7.692285890476e-04
6.715862034514e-04
7.913186766418e-04
4.873605112046e-04
6.716351408429e-05
6.550406917342e-04
2.121979415798e-04
2.182245527634e-04
1.712289286332e-04
3.107224161433e-04
1.057301483358e-04
1.752557479945e-04
8.331013379116e-04
5.272790897640e-04
7.395202468706e-04
1.285853407158e-04
8.358234000511e-04
8.354665319098e-04
8.757509275415e-04
7.846429612781e-04
1.241570316100e-04
5.651773772313e-04
8.374854402620e-04
7.189201776621e-04
8.774612593526e-04
5.201256590730e-04
8.377629979176e-04
1.628222754370e-04
8.372912793325e-04
7.405810874684e-04
5.837048570091e-04
5.629391932633e-04
8.390585364860e-04
8.374355334258e-04
9.795501197394e-05
6.799231894058e-04
3.879757720191e-04
6.464184088928e-05
8.366012277656e-04
7.827055704325e-04
8.377349647591e-04
1.105757531249e-04
6.604595936869e-05
8.445536335797e-04
8.418018754541e-04
1.845877810614e-04
8.826549608500e-04
6.138757031093e-05
4.804799717199e-04
6.556100966196e-05
8.765991424528e-04
8.406352288090e-04
4.268003565694e-04
4.929667183317e-04
2.809817149082e-04
8.054666026434e-04
9.866382460825e-05
8.462920394623e-04
8.466481683937e-04
8.459200057126e-04
8.848347209821e-04
6.317410965350e-05
8.478579638221e-04
8.049072796093e-04
4.880930937126e-04
8.381519655460e-04
3.464907722736e-04
1.453132550396e-04
8.782340449193e-04
2.788672853684e-05
4.852288266984e-04
8.800271141742e-04
1.366420641944e-04
5.591160485789e-04
8.434724703118e-04
5.260519714094e-04
7.639465125205e-04
1.346350386641e-04
2.489926233996e-05
6.405845470091e-04
8.434966522637e-04
8.489495605041e-04
6.092101199237e-04
1.233072216685e-04
8.180905916336e-04
4.606593074043e-04
8.111203909914e-04
8.066949311417e-04
3.153365254742e-05
5.661385301693e-04
6.389298898293e-05
8.469003976225e-04
4.815533645814e-04
2.390794373089e-04
2.445931968886e-04
2.856605147877e-04
2.967755800048e-04
3.322884574065e-04
3.356786539240e-04
3.782594336362e-04
3.879906112582e-04
4.250700443092e-04
4.273709822799e-04

SCALARS node_materi_plasti_phimob float
LOOKUP_TABLE default
-5.938435645891e+01
1.005675951108e+01
2.059834272409e+01
1.941732936323e+01
-3.141553725528e+01
-6.031966131703e+00
4.362161609463e+00
1.041781640712e+01
1.398254195319e+01
1.615979955372e+01
1.771427516202e+01
1.885975010480e+01
1.967396825113e+01
2.030052548508e+01
2.077141885503e+01
2.099052431626e+01
2.108594342272e+01
2.118846838305e+01
2.119336755102e+01
2.113763599009e+01
2.104317280795e+01
2.090901935867e+01
2.075197286019e+01
1.943963579201e+01
1.943287820988e+01
1.943877646541e+01
1.944500702605e+01
1.943558906803e+01
1.945078861907e+01
1.945363414677e+01
1.947298748200e+01
1.949604498398e+01
1.951925499190e+01
1.952668009614e+01
1.956888183514e+01
1.960159784935e+01
1.965252410991e+01
1.968661721356e+01
1.974312515610e+01
1.980131570230e+01
1.987270818888e+01
1.996457601799e+01
2.006284736637e+01
2.016958217462e+01
2.023938176941e+01
2.035291166172e+01
2.043960338040e+01
2.051529985687e+01
2.056905576141e+01
2.064738434885e+01
2.066635736946e+01
2.071020026553e+01
2.070555831036e+01
2.074380047501e+01
2.073558174422e+01
2.072375436142e+01
2.071632054160e+01
2.070573476459e+01
2.069441244594e+01
2.067944655675e+01
2.067145240437e+01
2.065598744543e+01
2.065466791556e+01
2.063343709828e+01
2.061025763701e+01
2.060076204922e+01
2.063607096050e+01
2.058544111086e+01
2.059792788019e+01
2.058269716261e+01
2.058107698236e+01
2.058574093185e+01
1.232585283143e+01
1.399556729063e+01
1.523577174241e+01
1.619997551895e+01
1.700835055631e+01
1.766785690813e+01
1.824021785892e+01
1.873157547611e+01
1.916332336670e+01
-3.396131016045e+01
9.543647111923e+00
-1.155580498809e+01
-3.897700548133e+00
-2.523751619243e+00
-5.881434369653e+00
-1.994819155494e+01
-2.482051017050e+01
-8.525600948599e+00
7.424529126298e-01
6.024927009167e+00
-5.100344931540e+01
-3.305846731731e+01
-9.724506157466e+00
9.418060068209e-01
6.488740654487e+00
9.635641066286e+00
9.766379824123e+00
9.767019175719e+00
9.716650638573e+00
1.001664447329e+01
9.692858592967e+00
9.619035017878e+00
9.610387263906e+00
9.625465221187e+00
9.572465019499e+00
9.502496099500e+00
9.445554830748e+00
9.401155289649e+00
9.410723905259e+00
-3.589494919567e+01
-3.277533822409e+01
-3.227303227104e+01
-3.472144489144e+01
-3.871581518387e+01
-4.181090281460e+01
-4.525217873886e+01
-4.886109040634e+01
-5.246782031395e+01
-5.572035216870e+01
-5.822083035735e+01
-5.762569767951e+01
-5.868078904648e+01
-6.118966858277e+01
-6.084021794438e+01
-5.994527701385e+01
-5.982914327246e+01
-6.116692986297e+01
-6.314326379965e+01
2.699046250675e+00
-1.214013601911e+01
-5.386418883664e+01
-5.509506421910e+01
-5.511406173625e+01
-5.529901716732e+01
-5.526419030090e+01
-5.530531839633e+01
-5.529830772079e+01
-5.529165086576e+01
-5.525431167644e+01
-5.519473509986e+01
-5.507830770330e+01
-5.482719193346e+01
-5.429794514526e+01
-5.357347574746e+01
-5.290694160574e+01
-5.239760817004e+01
-5.207250967499e+01
-5.193879738137e+01
-5.181522043401e+01
-5.163391002059e+01
-3.341882830543e+01
-3.471366843482e+01
-3.487010420046e+01
-3.499267875798e+01
-3.515672328253e+01
-3.537374815697e+01
-3.563560036206e+01
-3.589419882468e+01
-3.604127285894e+01
-3.610535714268e+01
-3.611420813915e+01
-3.608947643608e+01
-3.604792958039e+01
-3.597213120383e+01
-3.589259863999e+01
-3.577755987539e+01
-3.572665883722e+01
-3.546936036399e+01
-3.277955817403e+01
-3.531764746319e+01
-1.113762880118e+01
-9.204572045375e+00
-1.009326211008e+01
-1.021703378114e+01
-1.024861559547e+01
-1.029736028386e+01
-1.030333430073e+01
-1.032518237804e+01
-1.035714553383e+01
-1.039358711530e+01
-1.041940869145e+01
-1.043599375955e+01
-1.046088098204e+01
-1.049043956316e+01
-1.051851937139e+01
-1.054841039356e+01
-1.055395461016e+01
-1.031376311731e+01
-9.619675137183e+00
6.929203840437e-01
6.317061367214e-01
6.196803567294e-01
6.247314394451e-01
6.206743743747e-01
6.226494681218e-01
6.238455366438e-01
6.115697929500e-01
5.864559365282e-01
5.855810960510e-01
5.756706786069e-01
5.484055501447e-01
5.205403749072e-01
4.698021933434e-01
4.975639930298e-01
9.103388177204e-01
-2.390784178829e-01
5.507201677362e+00
6.243731483180e+00
6.059792097756e+00
6.087399856158e+00
6.139120317409e+00
6.187973206704e+00
6.209337455383e+00
6.241703417932e+00
6.281554568678e+00
6.304689497902e+00
6.322197696638e+00
6.338606495649e+00
6.363844238630e+00
6.366684192813e+00
6.449116242278e+00
6.598503562762e+00
-2.195976826600e+01
-6.498163926854e+00
-2.853848034746e+00
-3.563621725890e+00
-5.417910564674e+00
-2.767853367605e+01
-1.375686981627e+01
-2.259182253862e+00
4.192608538278e+00
8.192307475457e+00
-5.408831916504e+00
2.090505005117e+01
-3.855287990394e+01
-3.226161532206e+01
2.086040886591e+01
-1.196038340389e-01
2.057053641539e+01
2.080188828431e+01
-7.187230067091e+00
2.043911921449e+01
3.940313874634e+00
2.075342510378e+01
-4.152990813661e+01
1.988798471656e+01
1.061189345607e+01
1.707132439033e+01
2.115878607913e+01
1.956953586130e+01
1.938193885472e+01
1.925908086973e+01
1.922317976604e+01
1.931502394780e+01
1.157291173267e+01
1.175395769068e+01
1.199678905044e+01
1.662328462273e+01
2.072970542860e+01
-3.224218861964e+01
-3.964885461687e+01
2.109862269940e+01
1.189341389643e+01
7.791324201149e+00
1.938621263484e+01
2.066022199154e+01
2.017575515859e+01
2.090400278256e+01
2.089206184850e+01
-3.365159647719e+01
1.158882496972e+01
2.085948151555e+01
1.796128467039e+01
-3.987623336311e+01
1.932212929028e+01
1.931681976476e+01
-8.359146626731e-01
-7.222216757800e-01
-1.664602688611e+00
7.825552563100e+00
-1.783360836898e+01
1.473811264276e+01
2.069359130738e+01
-4.129006567476e+01
1.893046985762e+01
1.159537085958e+01
1.243060674022e+01
1.317302569494e+01
1.396470020065e+01
1.458674910861e+01
1.515923436419e+01
1.462058146464e+01
1.570479894632e+01
1.525599567033e+01
1.566376297483e+01
1.623706636389e+01
1.586993298361e+01
1.675017667209e+01
1.645946108695e+01
1.551643965579e+01
1.619301408345e+01
1.518239807459e+01
1.595949406574e+01
1.682036568281e+01
1.666361286186e+01
1.577359096559e+01
1.655265266072e+01
1.564766728988e+01
1.649295057392e+01
1.558755693496e+01
1.653502910527e+01
1.723813907159e+01
1.756723287552e+01
1.697026222306e+01
1.816347787384e+01
1.769893084744e+01
1.880115148782e+01
1.911338150940e+01
1.966384417480e+01
1.942587554812e+01
2.018648203779e+01
1.998202729999e+01
2.063575714668e+01
2.041248284601e+01
2.096789070847e+01
2.112143759886e+01
2.137753576111e+01
2.114917569471e+01
2.149710385026e+01
2.167129746905e+01
2.174284384582e+01
2.187248530061e+01
2.190695381487e+01
2.168097125967e+01
2.182520117681e+01
2.200525160417e+01
2.191005272155e+01
2.161794437436e+01
2.170629042899e+01
2.195000292072e+01
2.175167912010e+01
2.138920515524e+01
2.145891040747e+01
2.176666400445e+01
2.149687653522e+01
2.106399594926e+01
2.113976089204e+01
2.151292251878e+01
2.119103654238e+01
2.150997832255e+01
2.068820404235e+01
2.079266216093e+01
2.013698145959e+01
2.031138657183e+01
1.986364929114e+01
1.948350195095e+01
1.918520538263e+01
1.974696745987e+01
2.046129505435e+01
1.872590335868e+01
1.909258960478e+01
1.784933167405e+01
1.966736967694e+01
1.739326457510e+01
1.834094498320e+01
1.683482540188e+01
1.606055248197e+01
1.463253282480e+01
1.517241653009e+01
1.615348160146e+01
1.569390525564e+01
1.660630965696e+01
1.621810268293e+01
1.562454065034e+01
1.705959190643e+01
1.697804421321e+01
1.465687134405e+01
1.628864514076e+01
2.173476181471e+01
1.940212415384e+01
1.875767986126e+01
1.968572330923e+01
2.173106913473e+01
2.168885345005e+01
2.182967644560e+01
2.175887847881e+01
2.183546199347e+01
2.174453807580e+01
2.168121362506e+01
2.164865396477e+01
2.159956963014e+01
2.176930659894e+01
2.187003353680e+01
2.154950268891e+01
2.151547183867e+01
2.144803477201e+01
2.143023595433e+01
2.145334917924e+01
2.138930173905e+01
2.136505086389e+01
2.190478597833e+01
2.173195266002e+01
2.187461949722e+01
2.168642019399e+01
2.180077435340e+01
2.161143665694e+01
2.169491865245e+01
2.185233987491e+01
1.724244727042e+01
2.114922747988e+01
2.071485908738e+01
2.051882302793e+01
1.992937339010e+01
1.942471816776e+01
1.854807212778e+01
1.755887635162e+01
1.857181176722e+01
1.609777079812e+01
1.732633247762e+01
1.410686590953e+01
1.564128238459e+01
1.809340877279e+01
2.145649594537e+01
2.139222562835e+01
2.119789126003e+01
1.342905814664e+01
2.134588131824e+01
2.175842138290e+01
2.186300134051e+01
2.171902084464e+01
1.293746557381e+01
1.617367671400e+01
1.732745119119e+01
1.702773419628e+01
1.668176578517e+01
2.171173133587e+01
1.419288097951e+01
2.155500502381e+01
1.202323136818e+01
2.132468063483e+01
2.126671586659e+01
2.157885711931e+01
2.115851012634e+01
2.092689995858e+01
1.823631028538e+01
1.682597854632e+01
1.356808393411e+01
1.506089737192e+01
1.775559364464e+01
1.618767323294e+01
1.278206705745e+01
1.427556952249e+01
1.710244346340e+01
1.549137740633e+01
1.183087324141e+01
1.351345741442e+01
2.125224521819e+01
8.771833757383e+00
1.434335106448e+01
2.159708196274e+01
2.155858052934e+01
1.741990958204e+01
1.711166459193e+01
1.632181184536e+01
1.679478783843e+01
1.751249183000e+01
1.722401736611e+01
1.646004335698e+01
1.691719736257e+01
1.609525966630e+01
1.658978890433e+01
1.733152221640e+01
1.703682962103e+01
1.624182778374e+01
1.671997153528e+01
1.585905507594e+01
1.636746247276e+01
1.714881375578e+01
1.087322300985e+01
2.185341584390e+01
2.169541890964e+01
1.917903182290e+01
1.992981330959e+01
2.034249697250e+01
2.047462223839e+01
1.682432286532e+01
1.754154245538e+01
1.425598418651e+01
1.562030764279e+01
1.772095246117e+01
2.126652047721e+01
2.128440396450e+01
1.716274831139e+01
1.548638294454e+01
1.650124013647e+01
1.446138028163e+01
1.338332779979e+01
1.554868394029e+01
2.196025855927e+01
1.771122063938e+01
1.513384543003e+01
1.191363606865e+01
2.120056944737e+01
2.197643149194e+01
1.783638077351e+01
1.856256440281e+01
1.835578894027e+01
1.898507421039e+01
1.881481706605e+01
1.937128923511e+01
1.959348393603e+01
2.092413368830e+01
1.987790745346e+01
1.595663048468e+01
2.122196396715e+01
1.783972145988e+01
8.892484635172e+00
8.769031205649e+00
1.242085888790e+01
1.523026857797e+01
2.151874589432e+01
1.924078962248e+01
1.881385204765e+01
1.175554360782e+01
1.096407697581e+01
2.109203015230e+01
1.524505809406e+01
1.554741880585e+01
1.510024697776e+01
7.399194179655e+00
6.169326583908e+00
1.787885641795e+01
1.796552031837e+01
1.639245034437e+01
5.203110910676e+00
2.514019187640e-01
1.722346335303e+01
1.787058880638e+01
2.076684756549e+01
2.085939417570e+01
2.163191969628e+01
1.109429763750e+01
1.813702062467e+01
2.195803837385e+01
2.205381722221e+01
2.008116799654e+01
1.161728767187e+01
9.220985318794e+00
1.896464920474e+01
1.483879989472e+01
1.374938595513e+01
2.141830023007e+01
1.812872891896e+01
2.008104523170e+01
1.987957460933e+01
2.025226867801e+01
4.979052900483e+00
2.139878381086e+01
2.122087370103e+01
1.922084266493e+01
1.888500485585e+01
1.815359250647e+01
1.662257030085e+01
1.420476211905e+01
1.452198974766e+01
1.405086449513e+01
1.793187759403e+01
1.390408318643e+01
1.283642504312e+01
1.223754162628e+01
1.295425875942e+01
1.097269158886e+01
2.011611845168e+01
2.151122577674e+01
2.069299715116e+01
2.140168051398e+01
2.188876083434e+01
1.796418964057e+01
1.829490256489e+01
1.527678452780e+01
1.477913267932e+01
9.304603701680e+00
6.791561963336e+00
2.149482583668e+01
2.147829426650e+01
1.805551575421e+01
1.832496138264e+01
1.801167071187e+01
2.152675595566e+01
2.094683898909e+01
2.200646152538e+01
4.679460268910e+00
1.939139318158e+01
2.478848540157e+00
1.753156987760e+01
2.112553050923e+01
2.108255283484e+01
2.090645875781e+01
1.157050917418e+01
2.003917729417e+01
2.044543794063e+01
1.084124800556e+01
9.965631551145e+00
1.168474307294e+01
9.148433704086e+00
1.937981380613e+01
1.841046799850e+01
1.966700851363e+01
2.012290783784e+01
1.929360346755e+01
1.898118098830e+01
2.100072534827e+01
2.118745191834e+01
1.609844719294e+01
8.030000098459e+00
1.843832624453e+01
1.168961689326e+01
2.126214645813e+01
2.135128243881e+01
-5.840404918716e+00
-7.802734733489e-01
1.843203427183e+01
1.099854629292e+01
1.130490645194e+01
9.884823666988e+00
2.081418093439e+01
1.187253022077e+01
2.098410203662e+01
1.300898421905e+01
1.865807836206e+01
2.053872087373e+01
1.800180336355e+01
2.173293040456e+01
1.815133375965e+01
1.872114845887e+01
1.441922803577e+01
1.381425815243e+01
1.489977688777e+01
9.146852992852e+00
-4.286111651128e-01
1.805658146118e+01
1.804680517194e+01
1.867288181433e+01
1.276263869154e+01
1.581170640809e+01
2.103468558799e+01
2.099971215192e+01
1.800575782494e+01
1.813384145030e+01
1.784159590500e+01
2.201673280348e+01
2.207484640862e+01
2.209031854311e+01
1.851302536115e+01
1.884603194262e+01
2.017305907584e+01
1.987726040043e+01
1.969285167607e+01
1.866646159420e+01
2.094017844904e+01
2.102951551092e+01
-1.923317645763e+00
3.390030741402e+00
5.278787629355e+00
1.603630772102e+00
1.858190902930e+01
1.830451590349e+01
1.889059503288e+01
1.464023733638e+01
2.033214605773e+01
2.129161263605e+01
2.142941915357e+01
2.114371881692e+01
2.072018687277e+01
2.076277183244e+01
2.040197281500e+01
-1.306552252095e+01
1.855525817940e+01
1.399008335653e+01
-2.145231343008e+01
1.335990665503e+01
1.422576180112e+01
1.251850351858e+01
1.163890102128e+01
1.337407443406e+01
1.419758443092e+01
-1.149822782077e+01
1.894007430387e+01
-9.147858712174e+00
-3.063538462006e+00
2.112914233448e+01
2.122300063568e+01
2.101535786875e+01
2.109889005164e+01
2.128595366369e+01
2.116823967167e+01
1.311679577938e+01
2.094301333336e+01
2.103752820500e+01
2.086526770483e+01
6.685892578902e+00
1.414143831788e+01
1.064776437035e+01
5.743986684207e+00
1.945731866062e+01
1.908840622173e+01
2.116226206927e+01
2.121967740885e+01
1.350494985349e+01
1.345609467356e+01
1.470402075358e+01
1.456952337458e+01
1.559796819730e+01
1.545793812169e+01
1.633536365613e+01
2.032812895743e+01
5.238010756226e+00
9.352160194727e+00
2.106043967795e+01
2.124340720008e+01
8.402490954187e+00
3.851889202899e+00
2.113324202442e+01
1.912982995896e+01
1.922336662651e+01
-3.226417003586e+01
-1.682726213739e+01
1.867352110095e+01
1.124169651310e+01
1.305243662348e+01
9.707132081872e+00
2.190410033631e+01
-5.189124181278e-01
8.047866455530e+00
1.640746264555e+01
5.702995102057e-01
2.117588352030e+01
2.001702386658e+01
1.444289119769e+01
1.326656667660e+01
1.635868735902e+01
1.479928122552e+01
1.328173919733e+01
1.252722455544e+01
2.066808029556e+01
8.224655351233e+00
2.960722902698e+00
1.488791164123e+01
1.768585399951e+01
1.800770796349e+01
1.857444749298e+01
1.831969996015e+01
1.770319098902e+01
1.804736695329e+01
1.862695277882e+01
1.839517392784e+01
1.901496631043e+01
1.872714054988e+01
1.815396928008e+01
1.850272748964e+01
1.898845477050e+01
1.791580980982e+01
2.089565515439e+01
1.911598881674e+01
-5.403324265812e+00
-8.517878215807e+00
1.450518164475e+01
1.950708046657e+01
1.940039180110e+01
1.910900007826e+01
2.000580450911e+01
1.345052191311e+01
1.442579300380e+01
2.030269819511e+01
1.734178020127e+01
1.698011857459e+01
1.656916289503e+01
1.935279709106e+01
1.537958712073e+01
2.071847809749e+01
2.149889486052e+01
2.122178768767e+01
2.119492236960e+01
1.777188674110e+01
2.091203553307e+01
2.112713469847e+01
2.112985445390e+01
2.135273560532e+01
2.090964685729e+01
1.968718292058e+01
1.980219748639e+01
1.843156297549e+01
1.948864418383e+01
2.058618403114e+01
2.028455842815e+01
1.895357042115e+01
1.986753270444e+01
2.086772167457e+01
1.931175345191e+01
1.864767283672e+01
2.088483350181e+01
2.191878465696e+01
2.198766392613e+01
2.193165887438e+01
2.058950118820e+01
2.094744718271e+01
2.125853526276e+01
2.017460542976e+01
1.928744294220e+01
2.086480379182e+01
2.205248767166e+01
2.087802944081e+01
1.158083466072e+01
1.311725573853e+01
1.312128625307e+01
1.442447062328e+01
1.327798868171e+01
2.107218540741e+01
2.110493336880e+01
2.093266438009e+01
2.112338680617e+01
2.097608720187e+01
2.072476537820e+01
2.112687032925e+01
2.101816197321e+01
1.164455912165e+01
-3.233290560401e+01
-1.394294991727e+01
-1.419247404406e+01
-1.672422629495e+00
-1.068533722242e+00
6.687023638574e+00
5.812807871869e+00
-1.435494345376e+01
-3.534480352843e+01
-1.414469601568e+01
-3.704858431327e+01
-1.440541937092e+01
-2.696238749562e-01
1.011128589113e+01
2.075173908194e+01
2.002318608337e+01
1.976471387743e+01
1.893961013601e+01
1.944190323154e+01
2.029873553387e+01
1.837595631712e+01
1.795891377780e+01
-3.961311948614e+01
-1.224127973767e+01
-1.408645343109e+01
5.878147917143e-01
2.918466890704e-01
-1.221407865130e+01
-1.238888025444e+01
-4.006188410933e+01
-1.285841630713e+01
4.311315310743e-01
-4.123828357993e+01
1.735736857599e+01
1.771161389858e+01
2.085292293390e+01
1.195192753484e+01
-3.926904667022e+01
1.918733935035e+01
1.925428303727e+01
1.925836053962e+01
2.097832586290e+01
2.090476565105e+01
1.920545988611e+01
1.726089027064e+01
1.883607240179e+01
1.837170024090e+01
1.219233606349e+01
1.724017525209e+01
2.124967980892e+01
2.151694574649e+01
2.117058052398e+01
2.132709005002e+01
2.134720161539e+01
2.117197743025e+01
1.024155563266e+01
1.569933480109e+01
1.542087963438e+01
1.744050303636e+01
1.749311843667e+01
2.062301824079e+01
1.139470939733e+01
1.989035562167e+01
1.351348183432e+01
2.175867548804e+01
1.997310627366e+01
1.829280943182e+01
1.648324290124e+01
1.844124180567e+01
2.122639292658e+01
2.166413596298e+01
1.780848210325e+01
-3.588456097158e+01
2.164596606482e+01
2.163689124767e+01
1.595178649198e+01
2.151178031251e+01
9.887597113343e+00
1.761201334072e+01
1.860177627651e+01
1.473985113303e+01
6.050161083243e+00
1.459628429774e+01
2.127630183469e+01
1.736059393575e+01
1.645008598293e+01
2.200023729785e+01
1.569482316397e+01
9.298925611627e+00
1.858573920790e+01
2.033008903389e+01
2.155735480998e+01
2.195183880573e+01
1.716054752233e+01
2.141124366046e+01
2.148121206965e+01
1.821035143765e+01
1.836396593819e+01
2.146205983571e+01
1.778597844074e+01
2.195367678313e+01
2.130730852908e+01
1.320474142527e+01
1.722858092007e+01
1.701486403053e+01
1.857622832035e+01
2.121338224798e+01
2.153131795877e+01
1.155211183361e+01
1.737753381076e+01
1.580816936296e+01
1.973223891085e+01
1.872585104975e+01
1.467564978027e+01
2.144140365044e+01
1.836807468224e+01
2.124806849473e+01
1.264044934123e+01
5.941589622417e+00
2.005907623628e+01
2.076205869533e+01
2.146993974222e+01
1.890351469830e+01
2.132577169162e+01
2.181497192593e+01
-1.029146142958e+01
1.051446337216e+01
2.121610074108e+01
2.206923819682e+01
2.138647147077e+01
2.078483976348e+01
2.008845406852e+01
5.190327037714e+00
2.112645219230e+01
2.181677985661e+01
1.929094944280e+01
1.191703030085e+01
2.092585288890e+01
2.162832179526e+01
1.894789447168e+01
2.205224390501e+01
6.027002443151e+00
2.143768290635e+01
1.729014939235e+01
1.933664876992e+01
2.150086134480e+01
1.613657710004e+01
2.125753138245e+01
2.091883903243e+01
1.605522571349e-01
8.068958956577e+00
2.125462401585e+01
2.052589225088e+01
2.206013904750e+01
2.087535486980e+01
2.124956142599e+01
2.125633298889e+01
2.123951367629e+01
1.301643642125e+00
1.660853979188e+01
2.121798214184e+01
1.790677275673e+01
9.495476780023e-01
1.964539107378e+01
2.104907840749e+01
1.993638612667e+01
2.203728624174e+01
1.738485506134e+01
-5.005211403765e+00
2.202991774329e+01
1.843276425901e+01
2.019550718598e+01
2.084095563032e+01
2.195325260998e+01
3.093014637849e+00
1.657827282564e+01
1.405432681761e+01
2.147384746053e+01
1.852817414787e+01
7.154041998025e+00
1.749930121830e+01
7.793589767528e+00
2.111086586632e+01
2.067032083526e+01
1.579185065905e+01
2.127880347603e+01
1.529045367774e+01
2.080132194409e+01
2.088934069445e+01
2.095690296177e+01
2.039360047184e+01
1.885949477258e+01
2.055893329791e+01
1.926001849287e+01
2.072291272001e+01
1.331855034873e+01
-9.730019383057e+00
-3.039838681070e+01
6.742117114264e+00
1.884297414181e+01
1.770449437965e+01
1.337038089564e+01
1.781067761117e+01
1.922162790413e+01
2.055734805949e+01
1.700733529971e+01
2.139374395479e+01
2.061635169817e+01
1.845850696294e+01
1.170007488605e+01
-1.424412090639e+01
2.120307851032e+01
-1.344008771880e+00
6.271459799909e+00
3.347017468096e+00
1.770828265525e+01
-1.733098204990e+00
1.325743122321e-01
2.109466011170e+01
1.316307611884e+01
2.044242903391e+01
-2.597538810961e+00
1.887626304224e+01
2.065218449307e+01
2.079561190145e+01
2.055031881261e+01
-3.484279593397e+00
1.421296122034e+01
1.970323018810e+01
1.753257616253e+01
2.073116413964e+01
1.287259681267e+01
1.892675703931e+01
8.499547225549e+00
1.893774268691e+01
1.830091501379e+01
1.496441526233e+01
1.413536755746e+01
2.082249756127e+01
1.908031667418e+01
-9.285518139772e+00
1.694854387914e+01
1.954316317553e+01
-1.793417624252e+01
2.105712918928e+01
1.880132012794e+01
2.088390045297e+01
3.773652426665e-01
-1.547505222212e+01
2.107716360364e+01
1.944522066846e+01
1.104601491340e+01
1.935048142181e+01
-1.990645189817e+01
1.139835325484e+01
-1.472551930681e+01
2.071301265598e+01
1.893183060223e+01
2.005041999487e+01
1.161044967110e+01
1.662029114888e+01
2.001795223941e+01
-3.221145682221e+00
1.898405944362e+01
2.110251773313e+01
1.902435700525e+01
2.083246207527e+01
-2.023638277241e+01
2.054459786883e+01
2.133454568131e+01
1.172758300026e+01
1.901597370000e+01
1.862238733970e+01
6.611964605677e+00
1.930281312358e+01
-4.574731616455e+01
1.168660415226e+01
2.067516492665e+01
5.760506788829e+00
1.437292078394e+01
1.937166022491e+01
2.087239157731e+01
1.815713341429e+01
4.419182704063e+00
-3.289439758750e+01
1.627104467449e+01
2.079489574578e+01
1.901746566632e+01
1.558142029659e+01
-1.557592446714e+00
1.915981480733e+01
2.037956940210e+01
1.953765561532e+01
2.126246536720e+01
-2.798472692795e+01
2.106023490791e+01
-1.637888663737e+01
2.093456063729e+01
2.058510292837e+01
-7.264014219996e+00
-4.826012791941e+01
-1.794048126627e+01
-1.742303603375e+01
-3.731835023828e+00
-3.301700760037e+00
3.436744277078e+00
4.439105855255e+00
7.733807091443e+00
8.431237244533e+00

SCALARS node_materi_stress_average_a_sig float
LOOKUP_TABLE default
-5.329934298801e+00
-6.379793060737e+01
-2.357456396689e+02
-1.779852306616e+02
-1.253076205819e+01
-2.402374330738e+01
-3.483576734973e+01
-4.726581404443e+01
-5.911654606492e+01
-7.092848051328e+01
-8.271284962267e+01
-9.448939894534e+01
-1.063294664484e+02
-1.182884487997e+02
-1.305823442760e+02
-1.427072021721e+02
-1.538408506162e+02
-1.660173348604e+02
-1.786327017092e+02
-1.909555776935e+02
-2.034287699048e+02
-2.160797111515e+02
-2.282182525783e+02
-1.786586312668e+02
-1.779819479446e+02
-1.781869100046e+02
-1.782165902820e+02
-1.779560361114e+02
-1.784764175224e+02
-1.789070437615e+02
-1.788617180734e+02
-1.796704003795e+02
-1.799658013119e+02
-1.801005613847e+02
-1.809971307104e+02
-1.821240394858e+02
-1.826066116942e+02
-1.835325296234e+02
-1.841539088388e+02
-1.854549213023e+02
-1.876570510499e+02
-1.896177264555e+02
-1.917565633271e+02
-1.938073202599e+02
-1.961166690294e+02
-1.984874638254e+02
-2.010091819685e+02
-2.037791935592e+02
-2.066257697015e+02
-2.092503038716e+02
-2.119527297020e+02
-2.142810134044e+02
-2.171376216092e+02
-2.191970506538e+02
-2.207454783769e+02
-2.228299044666e+02
-2.248035371534e+02
-2.265500737553e+02
-2.280835627187e+02
-2.294735547989e+02
-2.304776252718e+02
-2.313454709371e+02
-2.319662599299e+02
-2.329851626216e+02
-2.342289863559e+02
-2.349132724775e+02
-2.337523231443e+02
-2.355194843653e+02
-2.352462740922e+02
-2.358276766528e+02
-2.363713629761e+02
-2.363781115000e+02
-7.611823232705e+01
-8.816141682804e+01
-1.001512280903e+02
-1.118447031623e+02
-1.237619309342e+02
-1.357939881774e+02
-1.475366576254e+02
-1.591499520411e+02
-1.711683168278e+02
-9.486404244143e+00
-6.720464532930e+01
-1.401817719089e+01
-1.634021535375e+01
-1.663701549085e+01
-1.539869399429e+01
-1.384752102886e+01
-1.738134645523e+01
-2.988644769200e+01
-4.234177922820e+01
-5.458051352581e+01
-7.703183938636e+00
-1.530239121305e+01
-2.731229526286e+01
-3.937125900350e+01
-5.140528979726e+01
-6.229033995661e+01
-6.308696121674e+01
-6.311184585083e+01
-6.303399633360e+01
-6.477728706174e+01
-6.338326424835e+01
-6.343990138341e+01
-6.365766780822e+01
-6.406058166556e+01
-6.421804849356e+01
-6.448732417201e+01
-6.475142142831e+01
-6.524437967933e+01
-6.592386276804e+01
-9.925211850855e+00
-1.113640891400e+01
-1.108037843874e+01
-1.064113240241e+01
-1.041082027378e+01
-1.002430193373e+01
-9.398712833251e+00
-8.765105312715e+00
-8.189222569347e+00
-7.692591530280e+00
-7.240127468371e+00
-7.185848452886e+00
-6.566146123751e+00
-5.776523864571e+00
-5.513868419703e+00
-5.401197806567e+00
-5.216922909881e+00
-4.876955630402e+00
-4.527726647086e+00
-5.919615843099e+00
-7.142536724071e+00
-6.702296925171e+00
-6.256104203469e+00
-6.274899254956e+00
-6.399631688992e+00
-6.652572845691e+00
-6.924004955871e+00
-7.212397814218e+00
-7.484534520653e+00
-7.740116282781e+00
-7.973416124053e+00
-8.183135193719e+00
-8.367260796355e+00
-8.525351328208e+00
-8.658253154163e+00
-8.764998970846e+00
-8.841400732057e+00
-8.881307483506e+00
-8.873646270395e+00
-8.614073935404e+00
-7.569052308252e+00
-1.523290245224e+01
-1.505656792532e+01
-1.499823391687e+01
-1.496139001524e+01
-1.491602245942e+01
-1.485522010863e+01
-1.477791275597e+01
-1.468505908081e+01
-1.457932198722e+01
-1.445975589258e+01
-1.433076903619e+01
-1.419707396077e+01
-1.406317351158e+01
-1.394980664384e+01
-1.385872075607e+01
-1.384912317795e+01
-1.390782851751e+01
-1.422917045050e+01
-1.559391109110e+01
-1.396224616172e+01
-2.740899413584e+01
-2.909158734676e+01
-2.783353272280e+01
-2.740976046194e+01
-2.722768053546e+01
-2.708151187695e+01
-2.703037886630e+01
-2.700828709249e+01
-2.700647706928e+01
-2.702206356290e+01
-2.704837960273e+01
-2.707464540447e+01
-2.710210191592e+01
-2.712293883148e+01
-2.714260766914e+01
-2.715954807857e+01
-2.718964622767e+01
-2.724501667109e+01
-2.729540639381e+01
-3.936917184688e+01
-3.934554442789e+01
-3.933395079681e+01
-3.934205905854e+01
-3.936068850711e+01
-3.938065108312e+01
-3.941689243571e+01
-3.944553663719e+01
-3.948727495815e+01
-3.956195652480e+01
-3.966475239998e+01
-3.980142064885e+01
-3.998395239903e+01
-4.020653092508e+01
-4.065196733670e+01
-4.191878090220e+01
-4.025912446371e+01
-5.263234695904e+01
-5.419339232544e+01
-5.305046006653e+01
-5.269595447462e+01
-5.242561128198e+01
-5.221231840679e+01
-5.200132393212e+01
-5.185675751967e+01
-5.182209499192e+01
-5.169640729711e+01
-5.162008917576e+01
-5.156866136250e+01
-5.152660217703e+01
-5.146888857628e+01
-5.152039056495e+01
-5.151464396123e+01
-1.131272689342e+01
-1.556479919263e+01
-1.658048334478e+01
-1.644478001692e+01
-1.629787956433e+01
-1.356403064992e+01
-2.508337750946e+01
-3.756224349895e+01
-4.987376302136e+01
-6.202424274144e+01
-1.892290326813e+01
-2.182429179374e+02
-1.263369778486e+01
-1.438202171008e+01
-2.252560562047e+02
-2.092212866293e+01
-1.248711756109e+02
-2.094897804991e+02
-2.685337484280e+01
-2.001485723792e+02
-4.931588361037e+01
-2.293659674709e+02
-1.081727505469e+01
-1.903278158489e+02
-7.304522710999e+01
-7.737556375386e+01
-1.579670276499e+02
-1.839643757025e+02
-1.786772289960e+02
-1.737618378834e+02
-1.736463963911e+02
-1.764149429809e+02
-7.712329068390e+01
-7.541219107388e+01
-7.562198421135e+01
-1.179105259355e+02
-2.298737824614e+02
-1.398762806801e+01
-1.066021773729e+01
-1.967315242319e+02
-7.378497021172e+01
-4.099747762284e+01
-1.789772573812e+02
-2.057257365326e+02
-1.950146045174e+02
-2.130897467679e+02
-2.219041063602e+02
-1.414557712392e+01
-7.570046771403e+01
-2.252241711690e+02
-1.413365796230e+02
-1.198787245130e+01
-1.004529537115e+02
-1.751879020784e+02
-2.332225692979e+01
-2.041153800722e+01
-3.750883581981e+01
-6.106981525309e+01
-1.494807721207e+01
-9.517123690689e+01
-2.323684761196e+02
-9.965444813457e+00
-1.644654379294e+02
-7.864149879852e+01
-8.446101183993e+01
-8.967294452962e+01
-9.654761151756e+01
-1.022851241109e+02
-1.085003921509e+02
-1.029589696645e+02
-1.149254435241e+02
-1.094174590109e+02
-1.143635931481e+02
-1.214178798283e+02
-1.160118830743e+02
-1.280000026246e+02
-1.227272993968e+02
-1.107407634811e+02
-1.175763083809e+02
-1.055503785409e+02
-1.125368796592e+02
-1.245054936641e+02
-1.195979661902e+02
-1.075850874216e+02
-1.147718501438e+02
-1.027845573140e+02
-1.101050313431e+02
-9.814083622248e+01
-1.055834982331e+02
-1.174110089651e+02
-1.129363326566e+02
-1.012135729326e+02
-1.085852966256e+02
-9.700539642692e+01
-1.043405596340e+02
-1.158364225819e+02
-1.115378480759e+02
-1.001581949641e+02
-1.072830995334e+02
-9.603260773212e+01
-1.030757914591e+02
-9.195466149466e+01
-9.883928103798e+01
-1.099493573529e+02
-1.055760767584e+02
-9.457640323367e+01
-1.011158300876e+02
-1.121930633705e+02
-1.075341871772e+02
-1.187008915679e+02
-1.138611643553e+02
-1.028330438799e+02
-1.089604124154e+02
-1.200976133237e+02
-1.149942732190e+02
-1.039727018334e+02
-1.098377974566e+02
-1.209912640452e+02
-1.156598637591e+02
-1.045851569597e+02
-1.102514658326e+02
-1.215125642155e+02
-1.159040021367e+02
-1.047109205034e+02
-1.102002685276e+02
-1.215923059795e+02
-1.157046116919e+02
-1.272695791673e+02
-1.042995843809e+02
-1.096892158916e+02
-9.823984074248e+01
-1.035765708410e+02
-1.229824372308e+02
-9.209234060955e+01
-8.699120880205e+01
-9.738107891717e+01
-1.090065955227e+02
-8.584602033131e+01
-9.110144590345e+01
-7.952709960469e+01
-8.468862268234e+01
-1.315175276670e+02
-8.474983673511e+01
-7.312684014440e+01
-6.799192847328e+01
-6.157110771275e+01
-1.082517806933e+02
-1.201323047320e+02
-1.136960779731e+02
-1.258967025827e+02
-1.197988774987e+02
-6.665593969528e+01
-1.334629243070e+02
-1.320701371559e+02
-9.548133919598e+01
-8.949443979246e+01
-1.234806287554e+02
-9.639567213190e+01
-9.002111746438e+01
-1.017119080863e+02
-1.331910984043e+02
-1.389820804466e+02
-1.449489792281e+02
-1.508264706506e+02
-1.568485764051e+02
-1.627977798991e+02
-1.566580925220e+02
-1.686964289782e+02
-1.624486466985e+02
-1.688772935436e+02
-1.627793466926e+02
-1.745449361395e+02
-1.681966855394e+02
-1.803494818686e+02
-1.739053164076e+02
-1.617780438324e+02
-1.673895578944e+02
-1.553440157404e+02
-1.300670397821e+02
-1.349610177410e+02
-1.416167630159e+02
-1.466134993163e+02
-1.533402946052e+02
-1.584146892690e+02
-1.651965706294e+02
-1.599932322551e+02
-1.346431350098e+02
-9.025607321615e+01
-8.379214139002e+01
-7.964290295286e+01
-7.328507391051e+01
-6.930267181990e+01
-6.309254047448e+01
-5.924046608747e+01
-6.516365173184e+01
-5.519322099922e+01
-6.082805271229e+01
-5.089735437535e+01
-5.622567159700e+01
-1.246679306169e+02
-1.515462126056e+02
-1.634423269861e+02
-1.563836862993e+02
-5.650650787674e+01
-1.795818915319e+02
-1.748844427692e+02
-1.686061303862e+02
-1.719410038916e+02
-5.516571846183e+01
-5.327142137532e+01
-5.669339048378e+01
-1.317262948921e+02
-1.257158803975e+02
-1.808361261963e+02
-6.022740860221e+01
-1.808433397599e+02
-4.556374623866e+01
-1.729801889252e+02
-1.852105281042e+02
-1.504748514776e+02
-1.684154993463e+02
-1.611593421614e+02
-6.645865530486e+01
-6.159727913230e+01
-5.155264678396e+01
-5.701202513494e+01
-6.708004892867e+01
-6.178054994304e+01
-5.149076882190e+01
-5.626549869934e+01
-6.687931588101e+01
-6.118691363179e+01
-5.047286648242e+01
-5.523789304696e+01
-1.918194897016e+02
-4.130671845667e+01
-9.865456771018e+01
-1.871016346020e+02
-1.770759188826e+02
-1.376206613784e+02
-1.317070769711e+02
-1.197191486898e+02
-1.258551231205e+02
-1.377798377657e+02
-1.320075320529e+02
-1.200393542961e+02
-1.262627775245e+02
-1.142640965925e+02
-1.205583688458e+02
-1.325138538986e+02
-1.268903124757e+02
-1.149061853390e+02
-1.212858256985e+02
-1.092658473698e+02
-1.156700976853e+02
-1.276977187027e+02
-4.907467520400e+01
-1.665938201027e+02
-1.787082346507e+02
-9.559760763129e+01
-1.068834119098e+02
-1.134344666721e+02
-1.189123362723e+02
-1.220600466514e+02
-1.340896723945e+02
-4.714352678152e+01
-5.010169721989e+01
-1.435858806128e+02
-1.785629115777e+02
-1.663877425477e+02
-8.547580337594e+01
-7.776087562191e+01
-7.397287760417e+01
-6.583149867942e+01
-6.972678637446e+01
-6.231458884358e+01
-1.565075048602e+02
-1.388177879232e+02
-6.293972867027e+01
-5.159389570343e+01
-1.908139279911e+02
-1.546773565097e+02
-1.292209696342e+02
-1.364370249481e+02
-1.410688459481e+02
-1.482717529849e+02
-1.529363291463e+02
-1.600932655643e+02
-1.554840815983e+02
-1.733077296744e+02
-1.673138992153e+02
-1.099283866485e+02
-1.444677818322e+02
-7.205878715072e+01
-4.381093435314e+01
-4.408864573926e+01
-5.357428527423e+01
-6.528432967739e+01
-1.931581991969e+02
-1.647481115012e+02
-1.575206310249e+02
-5.750121448230e+01
-6.152912558964e+01
-1.805365592514e+02
-1.077656861039e+02
-1.080323389879e+02
-1.021647648797e+02
-4.104341855111e+01
-3.995400815574e+01
-1.439044300061e+02
-5.990395088563e+01
-5.292745964797e+01
-3.619201315267e+01
-3.193111772788e+01
-1.283759392725e+02
-1.403157138851e+02
-1.253147422818e+02
-1.307530997740e+02
-1.867586102885e+02
-4.915624946964e+01
-1.460709743184e+02
-1.611509242597e+02
-1.492870342903e+02
-1.123024749357e+02
-4.086097490676e+01
-3.810932521149e+01
-7.766377165821e+01
-6.022249712796e+01
-5.864318812839e+01
-1.990914528739e+02
-1.495797931954e+02
-1.627256284589e+02
-1.507973699639e+02
-1.747298770360e+02
-3.830729826685e+01
-1.996034142384e+02
-1.841362105540e+02
-1.688050723829e+02
-1.621452471544e+02
-6.300509081519e+01
-5.581974227658e+01
-4.570752063984e+01
-4.816576444592e+01
-9.734050285900e+01
-6.633199626090e+01
-9.336812444500e+01
-8.642080271695e+01
-8.110660906788e+01
-7.386229882559e+01
-6.595723627755e+01
-7.709881753128e+01
-1.281773647351e+02
-1.198769708909e+02
-1.498065751016e+02
-1.390032138932e+02
-1.443337893676e+02
-1.506733187489e+02
-1.028590913201e+02
-9.720666926315e+01
-4.508100070294e+01
-4.026233273434e+01
-1.329464026560e+02
-1.932529558215e+02
-1.492831422319e+02
-1.552148567132e+02
-1.495460683243e+02
-1.924429225001e+02
-8.587432025327e+01
-1.365530099232e+02
-3.679301186305e+01
-1.273938204862e+02
-3.380247082283e+01
-1.363568717416e+02
-1.964819799419e+02
-2.030901636834e+02
-1.853437678711e+02
-7.901462400338e+01
-1.345137477910e+02
-1.300551030809e+02
-7.415770665705e+01
-6.873641060303e+01
-7.589310773720e+01
-6.346537305430e+01
-8.292021945907e+01
-7.714933438909e+01
-1.773883289154e+02
-1.790378596501e+02
-1.735606812446e+02
-1.672032689067e+02
-1.926702893107e+02
-1.875540896207e+02
-7.000935106020e+01
-5.336701037047e+01
-1.557043981033e+02
-7.961624749504e+01
-2.055150975305e+02
-1.993764197673e+02
-2.748442258244e+01
-3.166515746109e+01
-1.524057247414e+02
-3.813213591136e+01
-3.984296593153e+01
-3.630427852273e+01
-2.219883648379e+02
-7.344250551043e+01
-2.089101912883e+02
-7.842443423773e+01
-1.582213786626e+02
-1.416875078596e+02
-8.141984461771e+01
-1.801918640393e+02
-1.460049320880e+02
-1.589596021803e+02
-9.592348425053e+01
-8.967889842404e+01
-1.014680677250e+02
-4.010404320126e+01
-3.013277068750e+01
-1.450803695878e+02
-8.357855411190e+01
-8.995228135665e+01
-5.373376158758e+01
-6.486638033942e+01
-1.316878800188e+02
-1.262127923732e+02
-1.433854727880e+02
-1.481974614781e+02
-1.338570747086e+02
-1.556557444532e+02
-1.438555320287e+02
-1.376593823518e+02
-1.558173635404e+02
-1.634889641047e+02
-8.844372665771e+01
-8.303861904002e+01
-8.802835568523e+01
-1.613278859297e+02
-2.152998791435e+02
-2.096326219675e+02
-2.921983819889e+01
-3.538521924576e+01
-3.229116661893e+01
-2.993811751936e+01
-1.608630453190e+02
-1.557268022600e+02
-1.675651081601e+02
-6.265473311845e+01
-1.580932418150e+02
-2.042726824586e+02
-1.975492457324e+02
-2.125131533661e+02
-1.779150058674e+02
-1.896532339188e+02
-1.865091513041e+02
-2.306566507225e+01
-1.547757240088e+02
-9.017685367052e+01
-2.000861447695e+01
-8.461474524857e+01
-9.144217339236e+01
-7.828812257821e+01
-5.116852050233e+01
-8.745369246596e+01
-9.521645519065e+01
-2.276232326895e+01
-1.670889435866e+02
-2.311602761858e+01
-2.765514705240e+01
-2.117595166087e+02
-2.053487220273e+02
-2.173402411662e+02
-2.108421946144e+02
-1.989163179859e+02
-2.049611272189e+02
-8.345523548011e+01
-2.186087858045e+02
-2.111479266826e+02
-2.247330552533e+02
-5.635160718082e+01
-5.066480994487e+01
-4.208321260514e+01
-3.041259756637e+01
-1.801233457797e+02
-1.711991593352e+02
-1.900805733751e+02
-1.777135837027e+02
-8.503129808478e+01
-8.431426331408e+01
-9.527105525265e+01
-9.372352625978e+01
-1.047015784952e+02
-1.030224070682e+02
-1.142039594124e+02
-1.909444038733e+02
-2.881442066604e+01
-6.746083764201e+01
-1.996470813710e+02
-1.935752035354e+02
-5.810557654146e+01
-4.538139859944e+01
-2.134973474973e+02
-7.355701563179e+01
-1.741824189119e+02
-1.285392557016e+01
-2.077661067592e+01
-7.727766120784e+01
-7.084409007151e+01
-5.368336234338e+01
-4.554094123286e+01
-1.677680431224e+02
-3.120886453140e+01
-3.448482177379e+01
-1.156779409352e+02
-2.625975681518e+01
-1.842746566856e+02
-8.088015454437e+01
-8.606369164748e+01
-4.333967307522e+01
-5.903004581509e+01
-1.039776473907e+02
-9.088021964431e+01
-8.528966562970e+01
-8.786770354602e+01
-4.897719291598e+01
-3.507133427203e+01
-1.004329036145e+02
-1.439342733120e+02
-1.500787212008e+02
-1.614232211095e+02
-1.563386622754e+02
-1.446632059281e+02
-1.510333098193e+02
-1.625609506085e+02
-1.578818802845e+02
-1.713387897905e+02
-1.643607776647e+02
-1.522076751044e+02
-1.585124378689e+02
-1.697957566341e+02
-1.466544918397e+02
-2.046054329092e+02
-8.870101600450e+01
-2.724380828951e+01
-2.393563984291e+01
-9.067959591199e+01
-1.819403594666e+02
-1.794479462762e+02
-6.669618859360e+01
-1.924925642005e+02
-9.185836112451e+01
-4.953379928604e+01
-1.975696338269e+02
-1.383266207850e+02
-1.326382283482e+02
-1.263355133699e+02
-1.781296764164e+02
-1.075052312197e+02
-2.079394034911e+02
-1.397797628290e+02
-1.327498102824e+02
-1.212358803866e+02
-1.455805372766e+02
-2.162355714811e+02
-2.070770822097e+02
-2.087969158300e+02
-1.968876449239e+02
-2.200070511756e+02
-1.865481164977e+02
-1.887894472316e+02
-7.234880662976e+01
-7.761591292437e+01
-8.823830135320e+01
-8.261251293848e+01
-7.205052528143e+01
-7.687194600278e+01
-8.739591920886e+01
-7.102978471780e+01
-1.599833499198e+02
-2.233680321814e+02
-1.508095596463e+02
-1.446267073165e+02
-1.329756493679e+02
-1.144594254744e+02
-1.207110322244e+02
-1.324652660259e+02
-1.081174777736e+02
-1.436203957011e+02
-2.245024588637e+02
-1.429533980570e+02
-1.151791791753e+02
-7.640353834734e+01
-8.757324898929e+01
-8.847580524527e+01
-9.989066012735e+01
-8.812877027250e+01
-1.371435660001e+02
-1.425700005797e+02
-1.361774215994e+02
-1.479769678440e+02
-1.412767653602e+02
-1.303706273429e+02
-1.531546159575e+02
-1.455623685545e+02
-7.546760586732e+01
-1.454744874802e+01
-2.276474011296e+01
-2.241166944051e+01
-3.082646343477e+01
-3.132739665771e+01
-4.047559890606e+01
-3.894330231832e+01
-2.286906887285e+01
-1.361230291423e+01
-2.210721335765e+01
-1.305749059917e+01
-2.158989017145e+01
-3.200632313115e+01
-4.695495812236e+01
-2.285533297722e+02
-1.121921886056e+02
-1.064027713013e+02
-9.507704053301e+01
-1.011298113694e+02
-1.168227088322e+02
-8.884151456004e+01
-8.463456086956e+01
-1.049806931747e+01
-2.016125073928e+01
-1.914740964637e+01
-3.002532539667e+01
-2.996566521152e+01
-2.049247418400e+01
-2.058296696483e+01
-1.075242730055e+01
-2.063491695865e+01
-3.057665553372e+01
-1.066003351392e+01
-1.299059079652e+02
-1.363611536170e+02
-2.258321867584e+02
-7.620646705465e+01
-1.236996493367e+01
-1.717351885293e+02
-1.743241875607e+02
-1.742780764387e+02
-2.094275729047e+02
-2.155876382264e+02
-1.718329310315e+02
-7.434377748405e+01
-1.677181511501e+02
-1.514023540397e+02
-4.393888107464e+01
-7.117781197161e+01
-1.719479839823e+02
-1.561555507778e+02
-1.974234792052e+02
-1.608758035389e+02
-1.861154871580e+02
-2.097466494550e+02
-4.732606590017e+01
-1.084975560482e+02
-1.036340360395e+02
-1.332458538898e+02
-7.828168462363e+01
-1.247673379556e+02
-5.007960552348e+01
-1.869109467973e+02
-8.822438644665e+01
-1.273586208825e+02
-1.027446310270e+02
-8.070449753908e+01
-6.623132176785e+01
-9.287321471827e+01
-1.212637452788e+02
-1.748872950033e+02
-1.396103030979e+02
-1.272893422528e+01
-1.810246261156e+02
-1.447426495886e+02
-1.138224280156e+02
-1.703302042970e+02
-4.617464822879e+01
-1.381866227132e+02
-1.603467781201e+02
-1.013091375849e+02
-3.869043931839e+01
-9.618015845551e+01
-2.055412200584e+02
-1.377905489286e+02
-7.181414190567e+01
-1.251121240141e+02
-9.370398623397e+01
-6.702950416972e+01
-1.565254602141e+02
-1.185997414122e+02
-1.840096029020e+02
-1.481848014515e+02
-7.707091420333e+01
-1.930911052534e+02
-1.167740641268e+02
-1.500340278394e+02
-1.457360870380e+02
-9.659267432318e+01
-1.435059187667e+02
-1.269539906896e+02
-1.754574064421e+02
-8.324193652962e+01
-1.219868867359e+02
-1.294886053037e+02
-1.202054379945e+02
-1.653907677099e+02
-1.870908727551e+02
-4.635308116355e+01
-7.015136059538e+01
-1.136418582322e+02
-1.716001866216e+02
-1.617008815552e+02
-8.176756591439e+01
-1.867271628756e+02
-1.549338437907e+02
-1.268639135191e+02
-5.411510282805e+01
-3.527799802006e+01
-7.539676845932e+01
-1.142685888036e+02
-1.386243028907e+02
-1.683726972053e+02
-1.925636903927e+02
-1.744141641473e+02
-1.738331274745e+01
-7.320083512583e+01
-1.983950671958e+02
-1.314293885557e+02
-1.821770076388e+02
-1.342738989464e+02
-1.890813064425e+02
-5.074611361632e+01
-2.043346448109e+02
-1.733459807355e+02
-7.014388728761e+01
-7.385463745502e+01
-2.184873848048e+02
-1.856739701724e+02
-1.318734636367e+02
-1.262397119916e+02
-5.515241964798e+01
-1.442599889856e+02
-1.266903861484e+02
-1.774326164152e+02
-1.906429678231e+02
-1.205368833257e+02
-1.379870314555e+02
-1.490233756995e+02
-3.014433619634e+01
-6.188238962363e+01
-1.434814863000e+02
-8.143366814642e+01
-1.323270970037e+02
-1.971425538133e+02
-1.489704001297e+02
-9.203148425353e+01
-1.544275802773e+02
-4.332502226057e+01
-1.269827952550e+02
-1.598582851117e+02
-1.385819593048e+02
-3.165384092262e+01
-1.390243343906e+02
-2.026822957800e+02
-9.307701775141e+01
-1.384172592045e+02
-1.390783854357e+02
-3.176709457081e+01
-1.501368922393e+02
-1.504487047337e+02
-1.461924695920e+02
-1.256485821094e+02
-1.621515794242e+02
-4.077309565355e+01
-6.940209567248e+01
-5.821824328407e+01
-9.806428200947e+01
-1.552452778051e+02
-3.982248709430e+01
-1.400787289785e+02
-4.246066706617e+01
-9.321417438067e+01
-1.658496583562e+02
-1.067816563550e+02
-9.893549286911e+01
-6.579515755825e+01
-9.375180383402e+01
-1.372082700604e+02
-9.925614879535e+01
-9.375695028998e+01
-1.630610326059e+02
-9.902093651353e+01
-1.739293569796e+02
-2.296185101954e+02
-8.298278291279e+01
-2.112134687014e+01
-1.510842501810e+01
-3.548955456335e+01
-8.207543327343e+01
-1.413423538898e+02
-8.349254650036e+01
-7.590499164307e+01
-1.760602844827e+02
-2.030709850924e+02
-1.241101968587e+02
-1.885348295758e+02
-1.536840975628e+02
-1.521477281702e+02
-7.328234484079e+01
-2.130043611935e+01
-1.717348611873e+02
-1.930499956607e+01
-2.989304620895e+01
-2.762963543981e+01
-8.118242908829e+01
-3.060501913326e+01
-2.079774004401e+01
-2.045647640316e+02
-8.497549098832e+01
-1.701365384753e+02
-1.979357982078e+01
-1.661403009637e+02
-1.956408901007e+02
-2.284905995120e+02
-1.823650461735e+02
-2.448521299681e+01
-9.690421130968e+01
-1.843996165382e+02
-1.336493901868e+02
-2.302592997141e+02
-8.421880437395e+01
-1.643628807308e+02
-4.185925964394e+01
-1.643797558171e+02
-1.532619687075e+02
-9.839763886748e+01
-9.761191771318e+01
-2.213870026251e+02
-1.725139884700e+02
-2.228813127426e+01
-1.236005675328e+02
-1.011324622836e+02
-2.155217280277e+01
-2.163300814605e+02
-1.643924285238e+02
-2.201772271277e+02
-2.965363632562e+01
-1.969292737704e+01
-2.162864425249e+02
-1.808995686298e+02
-4.741705276524e+01
-1.771906047487e+02
-1.748174393728e+01
-7.230735970394e+01
-1.993559709726e+01
-2.306150742258e+02
-1.657641570115e+02
-1.115831554571e+02
-7.817640286433e+01
-7.373451892033e+01
-1.817354415961e+02
-2.877248112490e+01
-1.664428268492e+02
-2.143891950760e+02
-1.707482333140e+02
-2.148834077021e+02
-2.003733568339e+01
-1.965977360564e+02
-2.008369626673e+02
-7.298989278616e+01
-1.710615614549e+02
-9.064673415227e+01
-3.945996597102e+01
-1.751162418026e+02
-8.669840863857e+00
-7.212115625196e+01
-2.324395893017e+02
-3.765723082704e+01
-9.183711633455e+01
-1.795871056922e+02
-1.373340962002e+02
-1.454040503510e+02
-3.741732236622e+01
-1.398473137576e+01
-1.130867047615e+02
-1.999758667078e+02
-1.698082850234e+02
-1.049279979216e+02
-2.850799184080e+01
-1.735444905676e+02
-1.206571110317e+02
-1.782947346604e+02
-1.979891087795e+02
-1.217726610490e+01
-1.477851261887e+02
-1.892234656449e+01
-2.208211382984e+02
-1.257824700098e+02
-7.610407427172e+00
-9.027645503434e+00
-2.167111893697e+01
-2.163623040889e+01
-3.477338552036e+01
-3.299090208240e+01
-4.732784452327e+01
-4.577208462210e+01
-5.962159277736e+01
-5.708014282283e+01

SCALARS node_materi_stress_size_dev_sd_sig float
LOOKUP_TABLE default
3.930515333136e+00
4.261696240320e+01
1.790727739397e+02
1.343977962828e+02
1.009502149397e+01
2.005119785673e+01
2.915899208856e+01
3.951429398897e+01
4.955509402781e+01
5.928960665723e+01
6.903427310962e+01
7.873230311702e+01
8.830082833444e+01
9.789358632089e+01
1.075979074410e+02
1.166247402065e+02
1.246864002189e+02
1.335319763913e+02
1.423538702702e+02
1.507144945427e+02
1.589720745408e+02
1.671070935904e+02
1.747026954412e+02
1.349762085543e+02
1.345683837037e+02
1.347222641887e+02
1.347942697771e+02
1.345341489833e+02
1.349291650783e+02
1.351119954572e+02
1.352605927291e+02
1.358485490401e+02
1.361854334182e+02
1.362302036061e+02
1.370441980623e+02
1.378118346141e+02
1.384826006830e+02
1.391465015492e+02
1.399285674295e+02
1.410601924852e+02
1.427739074042e+02
1.446400073405e+02
1.465989779455e+02
1.484499543568e+02
1.503191808844e+02
1.524373895750e+02
1.545467285134e+02
1.567847319452e+02
1.589817022638e+02
1.611494445393e+02
1.630955441608e+02
1.649062771491e+02
1.668476477648e+02
1.684532127648e+02
1.694768548979e+02
1.708520576041e+02
1.721721733656e+02
1.733196641540e+02
1.743158602532e+02
1.751942402513e+02
1.758423377201e+02
1.763580589615e+02
1.767765214532e+02
1.773648149163e+02
1.780977487245e+02
1.785173478314e+02
1.778978996465e+02
1.788514688250e+02
1.787293458548e+02
1.790471775555e+02
1.794116801344e+02
1.794412523686e+02
5.176578557825e+01
6.115621701376e+01
7.045334446731e+01
7.968663149609e+01
8.923820875430e+01
9.883960897588e+01
1.085531921249e+02
1.182866113242e+02
1.283197191015e+02
9.312058828718e+00
4.105157031494e+01
1.714155560897e+01
2.041469396608e+01
2.106618399705e+01
1.951726503419e+01
1.372117962914e+01
9.755300164046e+00
1.541391393979e+01
2.317268534030e+01
3.165633555231e+01
4.246355583325e+00
6.813901663089e+00
1.520012898366e+01
2.411826396316e+01
3.304345270322e+01
4.127109967796e+01
4.173618902738e+01
4.173376257177e+01
4.154626667188e+01
4.264787632596e+01
4.149509220785e+01
4.124225273354e+01
4.123143154829e+01
4.132418746050e+01
4.114219806905e+01
4.091416609402e+01
4.074051306205e+01
4.061393438752e+01
4.066979674664e+01
8.428759828787e+00
8.985577654880e+00
9.258225202904e+00
8.513961847895e+00
6.955090832655e+00
5.949496901205e+00
5.127342331497e+00
4.363730804094e+00
3.686928157602e+00
3.183104711320e+00
2.859606115504e+00
2.991014979669e+00
3.031054103249e+00
2.884641884439e+00
3.201692325251e+00
3.603313359137e+00
3.841377698792e+00
3.750766190330e+00
3.433807753509e+00
5.197548786351e+00
4.214579468637e+00
4.326137432968e+00
4.376640483244e+00
4.338809000199e+00
4.185623595071e+00
3.978286483725e+00
3.773482576552e+00
3.612657152606e+00
3.509471592237e+00
3.461220816750e+00
3.457698017934e+00
3.488613970116e+00
3.541631260847e+00
3.605443185888e+00
3.671732032935e+00
3.733549390638e+00
3.784106324004e+00
3.817897583322e+00
3.831554204313e+00
3.866165776409e+00
4.315074051230e+00
6.719142712360e+00
6.699053925826e+00
6.707518178472e+00
6.733894389225e+00
6.764793303781e+00
6.801190859319e+00
6.844484531889e+00
6.895068737263e+00
6.957492994625e+00
7.035260668310e+00
7.126586945745e+00
7.226810850981e+00
7.329711364988e+00
7.442779743161e+00
7.545505185229e+00
7.631353698674e+00
7.627236999133e+00
7.607188118208e+00
7.994065518446e+00
6.699523656819e+00
1.391626377637e+01
1.561019934956e+01
1.528717967008e+01
1.530814064117e+01
1.534480673591e+01
1.535393065599e+01
1.537321516008e+01
1.536332821276e+01
1.533585944817e+01
1.529648117463e+01
1.526488228077e+01
1.524235962850e+01
1.520983567176e+01
1.517597498654e+01
1.514546489542e+01
1.511479120569e+01
1.509333455354e+01
1.511239247567e+01
1.517110214777e+01
2.410741150227e+01
2.401332501770e+01
2.398259790399e+01
2.398662306836e+01
2.397185500859e+01
2.396805989701e+01
2.396068800589e+01
2.393064316388e+01
2.387572976851e+01
2.385779404682e+01
2.381671931108e+01
2.373944457013e+01
2.365727562251e+01
2.352027070461e+01
2.348741562488e+01
2.386067552805e+01
2.203603355398e+01
3.059229145180e+01
3.244658234840e+01
3.212301039939e+01
3.220844435969e+01
3.235589161662e+01
3.249351292219e+01
3.256220021719e+01
3.265392520478e+01
3.275388083436e+01
3.282414008975e+01
3.287449676600e+01
3.292127279447e+01
3.299004292525e+01
3.299374696659e+01
3.311643816875e+01
3.323530826295e+01
1.361025503022e+01
1.923339473586e+01
2.090548303666e+01
2.057990740701e+01
1.977140367120e+01
1.011265956790e+01
1.271914191011e+01
1.979216260807e+01
2.802266702034e+01
3.680641745222e+01
1.908388294533e+01
1.685864999853e+02
5.882083451926e+00
5.598493574093e+00
1.732121500317e+02
2.246065048643e+01
1.031065769951e+02
1.620446876470e+02
1.821229386412e+01
1.539701672358e+02
2.768964949421e+01
1.755007604902e+02
6.709132297342e+00
1.448760110258e+02
4.484891353944e+01
6.462170635746e+01
1.278130267362e+02
1.386497146181e+02
1.340904121385e+02
1.305891598223e+02
1.301046454423e+02
1.323564430863e+02
4.888327421579e+01
4.940990698644e+01
5.047351449238e+01
8.447140921317e+01
1.757287151128e+02
5.876281663233e+00
8.045319276327e+00
1.545647966077e+02
4.982119041054e+01
3.434633576868e+01
1.342479474286e+02
1.587954831722e+02
1.493146342836e+02
1.650124658468e+02
1.710553808209e+02
5.708744787314e+00
4.878256984079e+01
1.731810609808e+02
1.035164807357e+02
6.554584855523e+00
8.361065190334e+01
1.319208935657e+02
2.250798785834e+01
2.175863157621e+01
2.080719993647e+01
3.586557544987e+01
1.348826115087e+01
6.646766476978e+01
1.772576380337e+02
7.855419326372e+00
1.227300105823e+02
4.900997976621e+01
5.319712432519e+01
5.740526820177e+01
6.256328553783e+01
6.717759955265e+01
7.202847487699e+01
6.751751150637e+01
7.720999872604e+01
7.286506534824e+01
7.678473153579e+01
8.275507973955e+01
7.862259256367e+01
8.863498428829e+01
8.477107317797e+01
7.485643572968e+01
8.130211044787e+01
7.144867342244e+01
7.825039016252e+01
8.803886422458e+01
8.529515552066e+01
7.566550805002e+01
8.299325353016e+01
7.359840404954e+01
8.115869116058e+01
7.203994861104e+01
7.973896405000e+01
8.862897369934e+01
8.722307053040e+01
7.864691307700e+01
8.602354609419e+01
7.773410811352e+01
8.487806539160e+01
9.307975213421e+01
9.168816519818e+01
8.362485101333e+01
9.015300573006e+01
8.214334800920e+01
8.837911410163e+01
8.032779675020e+01
8.623776439195e+01
9.428804776352e+01
9.186957154488e+01
8.369177832763e+01
8.902779624064e+01
9.724898263347e+01
9.413469138649e+01
1.023915108247e+02
9.903958583858e+01
9.066627169343e+01
9.535142253014e+01
1.037497148114e+02
9.985758961796e+01
9.132622915354e+01
9.568132294492e+01
1.042394081181e+02
9.991900300517e+01
9.121830732744e+01
9.535781954478e+01
1.041083790471e+02
9.942434242701e+01
9.053596978616e+01
9.452588822556e+01
1.034669545769e+02
9.848292396929e+01
1.074527540608e+02
8.936318028413e+01
9.330813245860e+01
8.399393395336e+01
8.798331628234e+01
9.981996367655e+01
7.850673400347e+01
7.457726822421e+01
8.255488617318e+01
9.201991468227e+01
7.293799712540e+01
7.704665680349e+01
6.732651409022e+01
7.397648243540e+01
9.497050275366e+01
7.149362013836e+01
6.169386022983e+01
5.745534383713e+01
5.176440483041e+01
7.204513323627e+01
8.177682018535e+01
7.681712191176e+01
8.685916616132e+01
8.213806801274e+01
5.602217552590e+01
9.290835278542e+01
9.177588278015e+01
6.607661444828e+01
7.022555649796e+01
1.054058611566e+02
8.114687864010e+01
7.565695945148e+01
8.528173418473e+01
1.122866870025e+02
1.162595846758e+02
1.209475245976e+02
1.248880883304e+02
1.294363768090e+02
1.333372352542e+02
1.287538571926e+02
1.371595090466e+02
1.325561871819e+02
1.377485397566e+02
1.337861358356e+02
1.409084651887e+02
1.362984222953e+02
1.445913355190e+02
1.399872265897e+02
1.315463635137e+02
1.352508511891e+02
1.267103172616e+02
1.105771097466e+02
1.135360381396e+02
1.187152434508e+02
1.216496391722e+02
1.268138565839e+02
1.297426529218e+02
1.348510735928e+02
1.317330509871e+02
9.481749952975e+01
8.070188649649e+01
7.539848343682e+01
7.222198385444e+01
6.693985421739e+01
6.351736481032e+01
5.822814326155e+01
5.448418141891e+01
5.957334447751e+01
5.020364258257e+01
5.512702525238e+01
4.543598094612e+01
5.020616560966e+01
9.592722466531e+01
1.243535230835e+02
1.324850002803e+02
1.268389914661e+02
4.747948563950e+01
1.436358131371e+02
1.419743483958e+02
1.379123208804e+02
1.397276875815e+02
4.616293145403e+01
4.919211180046e+01
5.263400684689e+01
9.205997435633e+01
8.737484989499e+01
1.460117499740e+02
5.042713601206e+01
1.453768005936e+02
4.045613561976e+01
1.389228576199e+02
1.472521337436e+02
1.240250360267e+02
1.350846441949e+02
1.291799118582e+02
5.988753045186e+01
5.489134388364e+01
4.513532547707e+01
4.987472352784e+01
5.953927771188e+01
5.409456472618e+01
4.417598481021e+01
4.846073079996e+01
5.842254932550e+01
5.277714908582e+01
4.256443852352e+01
4.695760691172e+01
1.518134682399e+02
3.532390075884e+01
6.503053764218e+01
1.499727651687e+02
1.427278063489e+02
9.736852980264e+01
9.273276799593e+01
8.285540913906e+01
8.828377645281e+01
9.822224814053e+01
9.375240553585e+01
8.394931271590e+01
8.936272396739e+01
7.966323009831e+01
8.505798173899e+01
9.481439940072e+01
9.050635011654e+01
8.085913003749e+01
8.625001540494e+01
7.667977672779e+01
8.196318439751e+01
9.166692934320e+01
4.077776514954e+01
1.364403321796e+02
1.444343628683e+02
8.013720797635e+01
8.928506689093e+01
9.471593926178e+01
9.878109445983e+01
8.728411679686e+01
9.713643675147e+01
4.362206269799e+01
4.673566724154e+01
1.021983425173e+02
1.426009315944e+02
1.341519892431e+02
6.959074061376e+01
6.195815193649e+01
6.154956062034e+01
5.369834631544e+01
5.388754775461e+01
5.338303563250e+01
1.296351496539e+02
1.003347562295e+02
5.322945018548e+01
4.318323216342e+01
1.508872458146e+02
1.283816493641e+02
9.762027291971e+01
1.047625050408e+02
1.067458795498e+02
1.137369431717e+02
1.159907617780e+02
1.228001788446e+02
1.205539709473e+02
1.375749657565e+02
1.294644422141e+02
7.750108573333e+01
1.186068873214e+02
6.272395183280e+01
3.643466496510e+01
3.645335260755e+01
4.474127182423e+01
5.465843605612e+01
1.539121608114e+02
1.252996902794e+02
1.184376660085e+02
4.558958396124e+01
4.542487272360e+01
1.432618708337e+02
7.237696863253e+01
7.434320022519e+01
7.013337448441e+01
3.397201593270e+01
3.229749930556e+01
1.037532232924e+02
5.541793263743e+01
4.922850455531e+01
3.018905833638e+01
2.476708807075e+01
9.249804715216e+01
1.023122206803e+02
1.039660139632e+02
1.079752990225e+02
1.498762476526e+02
4.110313759519e+01
1.069898180351e+02
1.329447464744e+02
1.247898069761e+02
9.329437894373e+01
3.781829790120e+01
3.441949741638e+01
6.815844034645e+01
5.133287876537e+01
4.899316851164e+01
1.576455646855e+02
1.082959878543e+02
1.271438482567e+02
1.184306700004e+02
1.358987561096e+02
3.064290424972e+01
1.579172112013e+02
1.463093030524e+02
1.276309722164e+02
1.212046176432e+02
5.757801055557e+01
5.116514651161e+01
4.277468353438e+01
4.439708550029e+01
6.317883569819e+01
5.928512608197e+01
6.164126305690e+01
5.529939175600e+01
5.195678032929e+01
5.410924839832e+01
4.575496914396e+01
6.978685327393e+01
1.080839773649e+02
1.000305650324e+02
1.229519338110e+02
1.169034966423e+02
1.047003192792e+02
1.103437819152e+02
7.135858682102e+01
6.714600687235e+01
3.738573028020e+01
3.304491575801e+01
1.114019738830e+02
1.538035439384e+02
1.074789198688e+02
1.124791231010e+02
1.071654560354e+02
1.534424461456e+02
7.727838474443e+01
1.155167380108e+02
2.988702257259e+01
1.013928744102e+02
2.733264137798e+01
9.786697763185e+01
1.545100039713e+02
1.589170104374e+02
1.458300581256e+02
4.898242855096e+01
1.080454290980e+02
1.062551680711e+02
4.578612463839e+01
4.242633341699e+01
4.913648876158e+01
3.969104941436e+01
7.231110828078e+01
6.685369114569e+01
1.353477100253e+02
1.382949814398e+02
1.308067964481e+02
1.244878031451e+02
1.513074474262e+02
1.485498374556e+02
5.866496711824e+01
3.679468036001e+01
1.138146723954e+02
4.952720872776e+01
1.614355675962e+02
1.575441649209e+02
1.899308277991e+01
2.379708731884e+01
1.123960743957e+02
3.595427493026e+01
3.698412178062e+01
3.421345246725e+01
1.707187355296e+02
4.967239257853e+01
1.625003233191e+02
5.493810928298e+01
1.171284724850e+02
1.144679743373e+02
6.871252792750e+01
1.456390966860e+02
1.071184680823e+02
1.181028831096e+02
6.486843426800e+01
6.052697352026e+01
6.881257926534e+01
3.520450831860e+01
2.408645751800e+01
1.058467918732e+02
7.020061400748e+01
7.546226587979e+01
4.525482075952e+01
5.529975486757e+01
1.091431410832e+02
1.052488509892e+02
1.047138510875e+02
1.077947869839e+02
9.961479860302e+01
1.292244523682e+02
1.209663657771e+02
1.165718703889e+02
1.146178855087e+02
1.213949212880e+02
7.750403426671e+01
7.332615155187e+01
7.626524256443e+01
1.185346490738e+02
1.667213084041e+02
1.632173665535e+02
2.294352214133e+01
2.855893778297e+01
2.897030718790e+01
2.557386147096e+01
1.174410742743e+02
1.124861708974e+02
1.236592263012e+02
5.235466178113e+01
1.249276649941e+02
1.607036163406e+02
1.566126340144e+02
1.657635462336e+02
1.399422167617e+02
1.481952201566e+02
1.445103742620e+02
1.430801279669e+01
1.146135585984e+02
6.152620013075e+01
9.875084585443e+00
5.745315821862e+01
6.294554819487e+01
5.286061331311e+01
4.266369274416e+01
5.805003644123e+01
6.353473113037e+01
1.659392118247e+01
1.239837754631e+02
1.786350926610e+01
2.198388972629e+01
1.651694981506e+02
1.611398060141e+02
1.685030692996e+02
1.643882869675e+02
1.569282080696e+02
1.606156378286e+02
5.615370004885e+01
1.690223946725e+02
1.643044927845e+02
1.728722253864e+02
3.314858559260e+01
4.523313551875e+01
3.733396501689e+01
2.876062570816e+01
1.357924693618e+02
1.274741758540e+02
1.502099559877e+02
1.418182550458e+02
5.827594808129e+01
5.787829140226e+01
6.630502738538e+01
6.524833716203e+01
7.380616177509e+01
7.251703315292e+01
8.130851284072e+01
1.472177508505e+02
2.779121494707e+01
4.038655589763e+01
1.564210394238e+02
1.530010032484e+02
3.759221718676e+01
2.830590101213e+01
1.663993387958e+02
6.576170826925e+01
1.303288653918e+02
7.004222245608e+00
1.249161066521e+01
6.734178258463e+01
4.702033459745e+01
4.543456871906e+01
3.775243163812e+01
1.374705848705e+02
2.429312868675e+01
3.194244319517e+01
8.227247138339e+01
2.389830692697e+01
1.462186228999e+02
7.212145127169e+01
6.299870864099e+01
4.061267383386e+01
5.265520614525e+01
6.878804275756e+01
5.808295933041e+01
5.374541260167e+01
7.808000163520e+01
3.690025298195e+01
2.768048061704e+01
6.848595534790e+01
1.020114738990e+02
1.073361890148e+02
1.175943505566e+02
1.128794519182e+02
1.024413957281e+02
1.080877430495e+02
1.186360010445e+02
1.142867450594e+02
1.267434315605e+02
1.204767535975e+02
1.095859458146e+02
1.156363768426e+02
1.257092151170e+02
1.051468090782e+02
1.591042167610e+02
7.550053530462e+01
1.947340664992e+01
1.743468396952e+01
6.424647686722e+01
1.369810102008e+02
1.346257208422e+02
6.133588867741e+01
1.468696353446e+02
5.908347573783e+01
4.508202488207e+01
1.516076608211e+02
9.695316066987e+01
9.198703803428e+01
8.671749427199e+01
1.335287785103e+02
7.315414566327e+01
1.605896923956e+02
1.162137235404e+02
1.104300468900e+02
1.023276171247e+02
1.034126677565e+02
1.672312885584e+02
1.619009081424e+02
1.631155628216e+02
1.558056436362e+02
1.698277896392e+02
1.412068540456e+02
1.433963638544e+02
6.387784243619e+01
6.905017240911e+01
7.819115397111e+01
7.380530681923e+01
6.454570875210e+01
6.922344548136e+01
7.817353992626e+01
6.446551871924e+01
1.177543367578e+02
1.720303666988e+02
1.254218981727e+02
1.212352314235e+02
1.127375489929e+02
9.605485873191e+01
1.013000202180e+02
1.103539965714e+02
9.071287240682e+01
1.117077501273e+02
1.727150899639e+02
1.202457104001e+02
9.729981401101e+01
4.884387625107e+01
5.680652858196e+01
5.694784928654e+01
6.581306854667e+01
5.768997976692e+01
1.130411948429e+02
1.169136690717e+02
1.119386501122e+02
1.207340568045e+02
1.156009766742e+02
1.073131840754e+02
1.243492000950e+02
1.187116405414e+02
4.897647440086e+01
5.711584692024e+00
1.398686886725e+01
1.396671196454e+01
2.289109836782e+01
2.345987932033e+01
3.301379145365e+01
3.150676456291e+01
1.371903554640e+01
5.675551801136e+00
1.430309494626e+01
5.734065786728e+00
1.435564467296e+01
2.461234044367e+01
3.903820220659e+01
1.749289491132e+02
9.306886349328e+01
8.856608208609e+01
7.927971160667e+01
8.434366531453e+01
9.688906875174e+01
7.413603470497e+01
7.067463735882e+01
8.203373916794e+00
1.670817999731e+01
1.592769205604e+01
2.520189478731e+01
2.484618760871e+01
1.668425585151e+01
1.658356970246e+01
7.750901452177e+00
1.635774713507e+01
2.509992114650e+01
7.179411577142e+00
9.410786334516e+01
9.941912333306e+01
1.735727806930e+02
5.032091533283e+01
6.296401428364e+00
1.288720757544e+02
1.307719620964e+02
1.308111406700e+02
1.628328268097e+02
1.667454104260e+02
1.291211178949e+02
6.313929086442e+01
1.231058964500e+02
1.113883986640e+02
3.984594927448e+01
6.120450554975e+01
1.379092765576e+02
1.278168989369e+02
1.553689777206e+02
1.304514240513e+02
1.482239026214e+02
1.639712393145e+02
3.930130065933e+01
7.543847300267e+01
7.242772547047e+01
9.598203539564e+01
6.592336931824e+01
1.031826792555e+02
4.185616342870e+01
1.426273106156e+02
5.876875677743e+01
1.082324819203e+02
8.663198396083e+01
6.887089479710e+01
5.709622890680e+01
7.676544720060e+01
1.024487129962e+02
1.416038406739e+02
1.014915550151e+02
7.945729774786e+00
1.458770426803e+02
1.201689602644e+02
7.856146565009e+01
1.377840983954e+02
3.843492669501e+01
9.923276128412e+01
1.174269654001e+02
6.784184236732e+01
3.182832135791e+01
6.590458174069e+01
1.615178709712e+02
9.692247537513e+01
6.028253272512e+01
1.073178598546e+02
7.095843257224e+01
4.018693147296e+01
1.156541803371e+02
9.815817214540e+01
1.476200942699e+02
1.236558634612e+02
6.460459366976e+01
1.533968216159e+02
9.998146645076e+01
1.092628467490e+02
1.090056145119e+02
8.578107680022e+01
1.027548940340e+02
1.085050595189e+02
1.405854647032e+02
5.651226558273e+01
9.034039646291e+01
9.120075351792e+01
9.444844262003e+01
1.331892946216e+02
1.496875344172e+02
4.032615924400e+01
6.073156046266e+01
7.754842802353e+01
1.317645128696e+02
1.193166010876e+02
6.234486149636e+01
1.490510365097e+02
1.127920973433e+02
1.064143467827e+02
4.529160297131e+01
3.047105949270e+01
6.856909682767e+01
9.635164248673e+01
1.153187587049e+02
1.241657812653e+02
1.526536083662e+02
1.418618777603e+02
1.665063599430e+01
4.453484875060e+01
1.562496693102e+02
1.120404407918e+02
1.456201755341e+02
1.101725113546e+02
1.449302252851e+02
3.022651316177e+01
1.599860895967e+02
1.411080713499e+02
6.383197292352e+01
4.990269604370e+01
1.688542401202e+02
1.490938710883e+02
1.030042389334e+02
1.082750822560e+02
3.160204503265e+01
1.191765911738e+02
9.244191660808e+01
1.330558204759e+02
1.520617158762e+02
8.177746376560e+01
1.142064275182e+02
1.207607803726e+02
2.478957495174e+01
3.655907388736e+01
1.180343888758e+02
7.345468267206e+01
1.126583597798e+02
1.538545151830e+02
1.218514110778e+02
8.216149625676e+01
1.256284335669e+02
2.388552892467e+01
8.722231869127e+01
1.293435301715e+02
1.019727559007e+02
2.582475602991e+01
1.098295961937e+02
1.584785176414e+02
8.010970467676e+01
1.169506360649e+02
9.759090908444e+01
1.859375138418e+01
1.253186339304e+02
1.115954446674e+02
1.164029612026e+02
1.043898139339e+02
1.336431937179e+02
2.782929029505e+01
5.908705442848e+01
4.919282691071e+01
8.684290866791e+01
1.145327845122e+02
3.322700145826e+01
9.894283178506e+01
3.483533726583e+01
8.268075399636e+01
1.314618813877e+02
7.555837073237e+01
8.701962020895e+01
5.503204253549e+01
8.239754700903e+01
1.125040510443e+02
8.652070426189e+01
8.153515138727e+01
1.213362015060e+02
8.546598530764e+01
1.306955999864e+02
1.755132702943e+02
5.702063416664e+01
1.756888758956e+01
5.905611428169e+00
3.103905435926e+01
7.075709191305e+01
1.012111933311e+02
5.731285510793e+01
6.503220180808e+01
1.312243027587e+02
1.565034911460e+02
8.937130788785e+01
1.501181741785e+02
1.229277443490e+02
1.125514958816e+02
4.891978658659e+01
1.457691648800e+01
1.375773978235e+02
2.159565608295e+01
2.889403618873e+01
2.609735040789e+01
6.807935350752e+01
2.284029492076e+01
2.234078370979e+01
1.599993184519e+02
5.654322429292e+01
1.335243796475e+02
2.063218421115e+01
1.228626376242e+02
1.518361297086e+02
1.751142679042e+02
1.423008726427e+02
2.099035711431e+01
6.392369457708e+01
1.401286855557e+02
9.690122938007e+01
1.759988365517e+02
5.509118877174e+01
1.226398352531e+02
3.527938333273e+01
1.227459482020e+02
1.114419299377e+02
6.846750557850e+01
6.364819896096e+01
1.703469737963e+02
1.279673132652e+02
1.721862493675e+01
8.869985411144e+01
8.455557091040e+01
1.174722504468e+01
1.680088479190e+02
1.212713930807e+02
1.698243006799e+02
2.480838480595e+01
1.420195573561e+01
1.680792395837e+02
1.360863474247e+02
4.023030893889e+01
1.331599069206e+02
1.147131718743e+01
4.765608621211e+01
1.526069492523e+01
1.761455837831e+02
1.232892100007e+02
9.271556366851e+01
4.913741198796e+01
6.168472712529e+01
1.396802400735e+02
2.159161031010e+01
1.241608761162e+02
1.668815487688e+02
1.265304645238e+02
1.659134440385e+02
1.043708292620e+01
1.520131420853e+02
1.584976524393e+02
4.901178533398e+01
1.265774253845e+02
7.575998166360e+01
3.250275867922e+01
1.317326572990e+02
6.704041011127e+00
4.875869950855e+01
1.772103572175e+02
3.111027068144e+01
6.376190776420e+01
1.346187757925e+02
1.125506613425e+02
1.068896697366e+02
2.969346132176e+01
5.841853801549e+00
8.050094760231e+01
1.554510874145e+02
1.260289246786e+02
7.371614443791e+01
2.286206825647e+01
1.293325907267e+02
9.970318803642e+01
1.353744550249e+02
1.561823822748e+02
1.015305074046e+01
1.203838011500e+02
1.401448180479e+01
1.705238289991e+02
1.037618933277e+02
5.129510588959e+00
4.148093628040e+00
1.078355338797e+01
1.104065287708e+01
1.841598789393e+01
1.936958831356e+01
2.669215243185e+01
2.885632492952e+01
3.546664111830e+01
3.744202967325e+01

SCALARS node_materi_strain_total_average_a_ept float
LOOKUP_TABLE default
5.050134608757e-06
4.359937481484e-04
4.148681986602e-04
6.461308287588e-04
1.600709563908e-05
3.778458056752e-05
5.902252494128e-05
8.236218784852e-05
1.051351037933e-04
1.277206502860e-04
1.501177939054e-04
1.723789954310e-04
1.945353868857e-04
2.166632054783e-04
2.390614070054e-04
2.609374247834e-04
2.806121243102e-04
3.018232523935e-04
3.234005032302e-04
3.440435656664e-04
3.645848823702e-04
3.849923392216e-04
4.047556063473e-04
6.474087144300e-04
6.461013990499e-04
6.462327853720e-04
6.458765278218e-04
6.446022633758e-04
6.448480344047e-04
6.440643556235e-04
6.425868560652e-04
6.419670027503e-04
6.404285302833e-04
6.375409278795e-04
6.358938580197e-04
6.329940762967e-04
6.293413964146e-04
6.248433864719e-04
6.195363848968e-04
6.137030850376e-04
6.076112988510e-04
6.009402117496e-04
5.936327513470e-04
5.849930874152e-04
5.752492148536e-04
5.654934704388e-04
5.550919915557e-04
5.445890032985e-04
5.342381789174e-04
5.237545746895e-04
5.136309471334e-04
5.032422821554e-04
4.943540677800e-04
4.850913565480e-04
4.754539912946e-04
4.670114480355e-04
4.602014285287e-04
4.537463198604e-04
4.473912333769e-04
4.427599085946e-04
4.372405163484e-04
4.332001874532e-04
4.287580908834e-04
4.258493246238e-04
4.245791942649e-04
4.231837480062e-04
4.180160393759e-04
4.190471752846e-04
4.164750079888e-04
4.159284122352e-04
4.163582561674e-04
4.158698936957e-04
4.580091297690e-04
4.795697914644e-04
5.011620071218e-04
5.224329771989e-04
5.442051113588e-04
5.662329020408e-04
5.880094718193e-04
6.099563216304e-04
6.320441745825e-04
-1.252251433021e-05
4.228723364259e-04
2.372620683793e-05
8.518621657844e-05
1.546800696228e-04
2.253235226054e-04
3.017426664712e-04
3.389428775606e-04
3.587112493120e-04
3.788845369223e-04
4.000391948477e-04
3.346764756874e-04
3.491733943835e-04
3.710041027726e-04
3.925790616584e-04
4.139548610531e-04
4.333030496058e-04
4.346305617633e-04
4.345045799439e-04
4.340225074722e-04
4.366824671453e-04
4.337736396735e-04
4.330874400573e-04
4.327362785045e-04
4.322772830457e-04
4.311586012248e-04
4.299803998150e-04
4.284497142924e-04
4.267790650007e-04
4.250204970517e-04
-1.641837803691e-05
-2.062086451724e-05
-2.162937798261e-05
-1.990973803071e-05
-1.666205890368e-05
-1.407261296666e-05
-1.158237872406e-05
-9.171353394165e-06
-6.868111369419e-06
-4.733565473752e-06
-2.431523941354e-06
-1.026058727760e-06
6.431180509124e-07
2.056636155712e-06
3.279922869797e-06
4.104764928280e-06
4.763571792391e-06
5.159514359532e-06
4.964591549663e-06
3.341566826051e-04
3.447025458818e-04
3.495309103645e-04
3.503635499076e-04
3.507073911258e-04
3.499295875055e-04
3.490136308964e-04
3.478551672813e-04
3.467240423037e-04
3.456323536832e-04
3.446341361128e-04
3.437192281225e-04
3.428991901600e-04
3.421777313391e-04
3.415538085324e-04
3.410261684091e-04
3.405996071641e-04
3.402934709635e-04
3.401350963346e-04
3.400609717864e-04
3.387893963513e-04
3.350636449384e-04
3.494371568969e-04
3.501154845903e-04
3.503447119264e-04
3.504940999639e-04
3.506843073045e-04
3.509333134110e-04
3.512385652709e-04
3.515945943018e-04
3.520043964462e-04
3.524589440737e-04
3.529503787711e-04
3.534605075249e-04
3.539597878394e-04
3.544370663658e-04
3.547763496854e-04
3.549262386067e-04
3.545215883739e-04
3.537038063480e-04
3.517560230643e-04
3.466026917702e-04
3.625290521500e-04
3.675563097467e-04
3.691975337250e-04
3.703376103663e-04
3.712564839091e-04
3.717022400848e-04
3.720115587287e-04
3.721438440569e-04
3.721694730033e-04
3.721372253120e-04
3.720725916699e-04
3.719838248417e-04
3.718917621587e-04
3.717914633009e-04
3.717043821720e-04
3.716148573358e-04
3.715014752346e-04
3.712831889390e-04
3.710880242957e-04
3.926334128105e-04
3.927181876715e-04
3.927610149146e-04
3.927651076222e-04
3.927422742848e-04
3.926740297560e-04
3.925818248356e-04
3.924061971734e-04
3.921560731938e-04
3.918417264758e-04
3.914169280302e-04
3.908241744279e-04
3.900098710515e-04
3.888113597275e-04
3.875551808471e-04
3.862238265768e-04
3.812001582280e-04
4.014059185498e-04
4.063109026925e-04
4.075958574338e-04
4.091125465056e-04
4.103124700827e-04
4.112609709306e-04
4.119334139019e-04
4.125326303857e-04
4.131183757971e-04
4.133807951703e-04
4.136630356512e-04
4.138307066192e-04
4.139721679863e-04
4.140064675056e-04
4.141441832661e-04
4.141385913145e-04
5.483220627051e-07
5.305707926990e-05
1.196493125520e-04
1.909101362795e-04
2.587996209487e-04
3.268695566620e-04
3.502255952647e-04
3.703558608508e-04
3.910669944215e-04
4.130083628348e-04
8.303059026907e-05
4.568664313411e-04
3.651240938417e-06
-5.605204226538e-06
4.287885586017e-04
2.165570693045e-04
2.287938789651e-04
4.894491287197e-04
3.265871958278e-04
5.300503856567e-04
3.796420261820e-04
4.173770235629e-04
8.933555684210e-06
5.696230184002e-04
4.270382694882e-04
1.400324049559e-04
2.879386445324e-04
5.923649219977e-04
6.162087174630e-04
6.347140416110e-04
6.295830095890e-04
6.262557950622e-04
4.432520309542e-04
4.504654767055e-04
4.544899328383e-04
5.335117853227e-04
4.107213417071e-04
-3.992837440224e-06
1.261564173174e-05
3.536404659781e-04
4.532884543720e-04
7.052052076296e-05
6.025720300399e-04
5.110585714864e-04
5.506296595098e-04
4.722698412059e-04
4.440687296173e-04
-1.043200886335e-06
4.469110249661e-04
4.180687606181e-04
5.764449194998e-04
7.348960496491e-06
1.836396353430e-04
6.388860943012e-04
2.787787990264e-04
1.484338755869e-04
3.554218970985e-04
4.030169013733e-04
2.357987826707e-05
4.921553266150e-04
4.119997982808e-04
1.269785527568e-05
6.199036917671e-04
4.379885847651e-04
4.429805169618e-04
4.555137655184e-04
4.604834492962e-04
4.741161441240e-04
4.786294939183e-04
4.644603858640e-04
4.827235986026e-04
4.678251975790e-04
4.929062313287e-04
4.862943174166e-04
4.706919878157e-04
4.893720837630e-04
4.731152216044e-04
4.549019703015e-04
4.566588330363e-04
4.388270390988e-04
4.398744193945e-04
4.581098062090e-04
4.406617361750e-04
4.226409509439e-04
4.228037012309e-04
4.048672401409e-04
4.044338621477e-04
3.863148719321e-04
3.854428068611e-04
4.041953940656e-04
3.849176673822e-04
3.658375636910e-04
3.651624699460e-04
3.455715888240e-04
3.448555704277e-04
3.650004238847e-04
3.448636402332e-04
3.239435274726e-04
3.244199390640e-04
3.026505031730e-04
3.037998790732e-04
2.811342665992e-04
2.829278927187e-04
3.055223271767e-04
2.852844396548e-04
2.619646943557e-04
2.650626055459e-04
2.882398954590e-04
2.687046360799e-04
2.916671381853e-04
2.727968826180e-04
2.495574218911e-04
2.543010587384e-04
2.772301759751e-04
2.592886718439e-04
2.361814052634e-04
2.418269038377e-04
2.646208216834e-04
2.477242280483e-04
2.248175255122e-04
2.312702650711e-04
2.539691245545e-04
2.378982376329e-04
2.151710513997e-04
2.222236488745e-04
2.447966031091e-04
2.294401683898e-04
2.518404624185e-04
2.067117410682e-04
2.143610036278e-04
1.914565192299e-04
1.996054624560e-04
3.653849694707e-04
1.766438331280e-04
1.683939286849e-04
1.852011110645e-04
2.079489806230e-04
1.621730677584e-04
1.711022326389e-04
1.480599597821e-04
2.797334351368e-04
4.593350507941e-04
1.573016842991e-04
1.342917521871e-04
1.247631679062e-04
1.111205702421e-04
4.877102532921e-04
5.074040627146e-04
5.011753684657e-04
5.217501904827e-04
5.153386453766e-04
1.208125254948e-04
5.056389766851e-04
5.276590278422e-04
4.054102517736e-04
3.469293847117e-04
3.108077238121e-04
1.800498373162e-04
1.665380158589e-04
1.890158437382e-04
2.670983649443e-04
2.738859946041e-04
2.890169169508e-04
2.955258420916e-04
3.104980181334e-04
3.167631377924e-04
3.022109931955e-04
3.232175673509e-04
3.090667023698e-04
3.315458190174e-04
3.256974110272e-04
3.298563090251e-04
3.161062793455e-04
3.367293811775e-04
3.233352358012e-04
3.024934583885e-04
3.100526029544e-04
2.891198266692e-04
3.140420600214e-04
3.328548673316e-04
3.358663555528e-04
3.543626850645e-04
3.571816650954e-04
3.753792056791e-04
3.779482040437e-04
3.603074390517e-04
4.918784820716e-04
2.411722017578e-04
2.378090364069e-04
2.164005658974e-04
2.126821304429e-04
1.906022776959e-04
1.864377719402e-04
1.635480030401e-04
1.690020566242e-04
1.412478586244e-04
1.480859610190e-04
1.198297373394e-04
1.279084213682e-04
4.041673554701e-04
3.730316327482e-04
3.938074139369e-04
3.917004492165e-04
1.012512946523e-04
3.307744550643e-04
3.465667811754e-04
3.410428757637e-04
3.809484910383e-04
9.798693322184e-05
1.588935389997e-04
1.830439928297e-04
5.360468017294e-04
5.292132562628e-04
3.618015052014e-04
1.077172323462e-04
3.438146493443e-04
1.122298141735e-04
3.178078566608e-04
3.383626664502e-04
2.879292602968e-04
4.123825679476e-04
4.103538938949e-04
1.552460222431e-04
1.360245090792e-04
1.092242496293e-04
1.181326164575e-04
1.442551081292e-04
1.265768541344e-04
1.004744973901e-04
1.095651323079e-04
1.353130360097e-04
1.188694581516e-04
9.314536920931e-05
1.029739427768e-04
3.511058050915e-04
9.056998064387e-05
4.374476461504e-04
3.669314667342e-04
3.980443592445e-04
5.503418067181e-04
5.430691063529e-04
5.219231151375e-04
5.354523030099e-04
5.569099598201e-04
5.489371579585e-04
5.275137526754e-04
5.406952777586e-04
5.193032209757e-04
5.322175663194e-04
5.538580273265e-04
5.451304061717e-04
5.235128646942e-04
5.362082950494e-04
5.145761116759e-04
5.270393825956e-04
5.489039289217e-04
8.563539797482e-05
3.637167162395e-04
3.843540503198e-04
1.762882348581e-04
1.978934294253e-04
2.112507151061e-04
2.202478590988e-04
5.394117648055e-04
5.615144084689e-04
1.551502795969e-04
1.806548818795e-04
5.572432942662e-04
3.258263079822e-04
3.050699711435e-04
3.259342367513e-04
3.280734829743e-04
3.059523531332e-04
3.087955402962e-04
3.314037110958e-04
2.847819379766e-04
3.198423460377e-04
5.669676999419e-04
1.151837137743e-04
9.136196507313e-05
3.462489862535e-04
3.427915061377e-04
4.232919958792e-04
4.236280330062e-04
4.427197138497e-04
4.432747147983e-04
4.624678281212e-04
4.630570130008e-04
4.439533870350e-04
4.310895047422e-04
4.638359494278e-04
5.174081328835e-04
3.706876465645e-04
1.441078670164e-04
7.547317873462e-05
7.679527319117e-05
9.466687937083e-05
1.173965197261e-04
3.819506074801e-04
4.824827073982e-04
4.814705854422e-04
3.140532689330e-04
3.360951600655e-04
4.325930032303e-04
4.951509549241e-04
5.064329744881e-04
4.981604441814e-04
7.034482927243e-05
6.751699395142e-05
5.706663957770e-04
2.073957208889e-04
2.065319233517e-04
8.155979983339e-05
5.989587861342e-05
5.516596397753e-04
5.736765619477e-04
2.333325205878e-04
2.419904165742e-04
3.773873068487e-04
8.754054266017e-05
5.836394480305e-04
3.468397532269e-04
3.255560628438e-04
2.069585168855e-04
1.524193429766e-04
1.258558527050e-04
1.605378188481e-04
1.126628436799e-04
1.043596276850e-04
3.973724186116e-04
5.786261684467e-04
4.448168794858e-04
4.247792369136e-04
4.647893756288e-04
6.223186931625e-05
3.870505421217e-04
3.340407349803e-04
5.010099755509e-04
5.002818107364e-04
2.318793988767e-04
2.328706659788e-04
2.077171449956e-04
2.359318686360e-04
4.501452438681e-04
2.567435672901e-04
4.219139563610e-04
4.209540030269e-04
4.059811663549e-04
3.519789893722e-04
3.557137749266e-04
2.349830982715e-04
3.301098833483e-04
2.247941796679e-04
2.814314732875e-04
2.826286252419e-04
5.756548739279e-04
5.890143413770e-04
5.020656054344e-04
4.930963423616e-04
7.757113124055e-05
6.726020422984e-05
2.590606830392e-04
3.721071488968e-04
5.717494813804e-04
5.787587100879e-04
5.637126197164e-04
3.930771396438e-04
2.207515627267e-04
3.175957514065e-04
7.017091913754e-05
3.849670425760e-04
5.407683254928e-05
4.769085777638e-04
3.544208030248e-04
3.663152455969e-04
4.507454567907e-04
4.304384552189e-04
3.857076331976e-04
3.663889947393e-04
4.054600296362e-04
3.913492924008e-04
3.904933490569e-04
3.761094517033e-04
1.685366796215e-04
1.525674571812e-04
5.041745916124e-04
4.834362747821e-04
5.202081606177e-04
5.197197074472e-04
4.521643671927e-04
4.341062126966e-04
1.262987032964e-04
3.415884054872e-04
5.926838739489e-04
4.193623905179e-04
3.913261476595e-04
3.778917519988e-04
3.935755539647e-05
5.007180750590e-05
5.960620304082e-04
2.100802169674e-04
2.394338353503e-04
1.801651506748e-04
3.941180273239e-04
4.530764699322e-04
3.745647561098e-04
3.711757848546e-04
6.062451847425e-04
3.871326478505e-04
3.036564088607e-04
3.727361641894e-04
5.845895137086e-04
6.088168949950e-04
4.856495005780e-04
4.765071819026e-04
4.930293775158e-04
1.053163927823e-04
7.116860324582e-05
5.799429476386e-04
1.533507978027e-04
1.649368867444e-04
9.713621206282e-05
1.214632099751e-04
2.466637002668e-04
2.384893103088e-04
4.786114787993e-04
4.965046806088e-04
4.420779021574e-04
3.301993597431e-04
3.086708611612e-04
3.039480448832e-04
5.972548803303e-04
6.129545358677e-04
1.848481881240e-04
1.774428979789e-04
1.761861815276e-04
6.006860163822e-04
3.861557262687e-04
3.778613300662e-04
4.352281786611e-05
5.660254465817e-05
1.218899249218e-04
9.476225961106e-05
5.849576971331e-04
5.698336520386e-04
6.018808552373e-04
1.118300065812e-04
4.264931709257e-04
4.122457746867e-04
4.088842139854e-04
4.190992135824e-04
4.490749150144e-04
4.677546975075e-04
4.843657811175e-04
2.789096960704e-05
6.015997119391e-04
4.797907327576e-04
1.237386209940e-05
4.709837885425e-04
4.836759638308e-04
4.604511202981e-04
8.983692071794e-05
4.694057378055e-04
4.799577157358e-04
2.854172306531e-05
6.148118187071e-04
3.187521268306e-05
4.173253156784e-05
3.977660114787e-04
3.837544382592e-04
4.026244063186e-04
3.888202071967e-04
3.700080133501e-04
3.770170555572e-04
4.669639657508e-04
3.988552863681e-04
3.843104303666e-04
4.064506439935e-04
3.781607487801e-04
2.625101219309e-04
2.684715847957e-04
2.477316899682e-04
5.434634030419e-04
5.373809135815e-04
3.431412006735e-04
3.223541466025e-04
4.728347428095e-04
4.721289515955e-04
4.915384695198e-04
4.892748403239e-04
5.088535954807e-04
5.061634154035e-04
5.262363010149e-04
5.051013200271e-04
1.812683017684e-04
4.044126458187e-04
4.529091914250e-04
4.342505019752e-04
3.596529499370e-04
3.478520393734e-04
4.088305632419e-04
2.560231675657e-04
6.255162725201e-04
1.627512648415e-07
3.052021515214e-05
2.796816925438e-04
3.737506795341e-04
2.889856481628e-04
2.972111575455e-04
3.516383514388e-04
4.687779891271e-05
1.505763683657e-04
5.283041931679e-04
1.188143390857e-04
3.329226736425e-04
2.573466174324e-04
3.687771774312e-04
1.798346053190e-04
2.595237491592e-04
4.527377681480e-04
4.469716496997e-04
4.332603228308e-04
2.594133184532e-04
3.215192070865e-04
3.063632867457e-04
4.223933548368e-04
5.485062754099e-04
5.540787320928e-04
5.747580966118e-04
5.589606117028e-04
5.381613855448e-04
5.426879168959e-04
5.640181001459e-04
5.473032223865e-04
5.723336059088e-04
5.505540035964e-04
5.294148454112e-04
5.319995416077e-04
5.510675475818e-04
5.115451565930e-04
4.701452697768e-04
3.022591829476e-04
4.857016135242e-05
5.300818977631e-05
3.876388989877e-04
5.985352017011e-04
6.109474970717e-04
2.095940074213e-04
5.599912170248e-04
4.355987279749e-04
1.352287671539e-04
5.404469321175e-04
5.331442179962e-04
5.175197852505e-04
5.126722989283e-04
6.204074754957e-04
5.008610116004e-04
5.013151326667e-04
3.518045046331e-04
3.492926534645e-04
3.276020149409e-04
5.258704821433e-04
4.641441927263e-04
4.444124018267e-04
4.375733505591e-04
4.230712754799e-04
4.500531527065e-04
5.868632334589e-04
5.795829107066e-04
1.523949000319e-04
1.700684892785e-04
1.948500503601e-04
1.882125378987e-04
1.626515617389e-04
1.815600369707e-04
2.066956529789e-04
1.750502681053e-04
5.169395823161e-04
4.388864831478e-04
3.043836107080e-04
2.982466628661e-04
2.763223584017e-04
2.163718132699e-04
2.303718229162e-04
2.523781257816e-04
2.025800256912e-04
4.240828018584e-04
4.336908942337e-04
3.214245039847e-04
2.222880364187e-04
4.452504219969e-04
4.612745908834e-04
4.585127427120e-04
4.787277229572e-04
4.654791516485e-04
2.549379224170e-04
2.633353611758e-04
2.507943054190e-04
2.718432511359e-04
2.591376125218e-04
2.395098138881e-04
2.800901535759e-04
2.662041206373e-04
4.484763920350e-04
-2.605733634494e-06
2.150752435438e-05
2.133254822527e-05
4.441702788885e-05
4.668080412024e-05
7.160526714662e-05
6.916845771843e-05
2.135073489523e-05
4.633476785217e-07
2.238476539554e-05
2.166470079174e-06
2.274886136609e-05
4.789950595827e-05
8.177713689623e-05
4.067588197652e-04
2.054945073455e-04
1.949576600244e-04
1.738045925395e-04
1.854536597205e-04
2.144031884501e-04
1.618068611212e-04
1.538022293507e-04
1.313653859999e-05
3.046441188824e-05
2.846610742319e-05
4.954406096463e-05
4.904738737170e-05
3.035101586542e-05
2.994969134374e-05
1.187073405216e-05
2.947742532735e-05
4.951519496246e-05
1.058270429893e-05
5.553842344570e-04
5.673132203519e-04
4.244729610504e-04
4.532583448467e-04
5.832630699020e-06
6.317792120783e-04
6.328730083710e-04
6.345139462902e-04
3.742515982803e-04
3.846126539521e-04
6.332932977369e-04
1.387692742249e-04
5.793873277914e-04
5.928615494691e-04
1.301482097842e-04
1.369635030871e-04
3.134571046999e-04
2.951528615887e-04
3.583957376577e-04
2.970062664540e-04
3.438233162688e-04
4.292153820796e-04
8.241694557577e-05
5.107546726819e-04
5.054102588242e-04
5.580261792167e-04
1.437154248921e-04
2.300415028300e-04
8.789371860817e-05
5.280563708769e-04
4.059247509167e-04
2.604473546212e-04
1.938782748860e-04
1.533594893815e-04
1.281735239986e-04
3.244770858690e-04
2.369072845754e-04
3.375737661031e-04
5.708534909637e-04
1.024483531771e-05
3.521196030255e-04
2.808255827205e-04
5.142851162566e-04
3.958607563136e-04
8.399376814126e-05
5.623422387415e-04
5.927123676164e-04
4.876787767510e-04
6.453448651720e-05
4.891148137549e-04
4.013384354413e-04
5.425034606551e-04
1.304574421984e-04
2.954860859628e-04
3.670330212246e-04
4.151280698903e-04
6.014954213817e-04
3.455498698793e-04
4.013590247569e-04
3.391889196146e-04
1.402150297990e-04
3.640079282331e-04
3.079537761636e-04
5.842022375000e-04
4.615913194646e-04
2.451236320979e-04
5.645121245162e-04
2.702532197518e-04
4.141440732573e-04
3.891716588646e-04
4.230168893257e-04
4.750731704773e-04
3.847618455847e-04
3.013474966867e-04
3.579492811869e-04
9.943492224889e-05
2.821904000665e-04
5.084800390073e-04
4.824018098151e-04
6.061079671806e-04
3.490454494706e-04
3.502209577829e-04
5.859084119976e-04
2.445783565553e-04
9.566104673127e-05
1.006763698236e-04
1.954292773073e-04
3.256218846133e-04
2.664487134675e-04
5.930555836228e-04
3.569315204956e-04
3.567159970862e-04
5.264909256857e-05
4.174900688123e-04
3.639486504239e-04
2.996057745924e-04
4.156234268033e-04
2.460353825899e-04
5.177053529530e-04
3.638246178859e-04
3.714711067776e-04
3.680924080339e-04
2.328329657325e-04
4.536489712852e-04
3.938729317659e-04
3.887464401108e-04
4.043831789050e-04
2.819071818484e-04
3.914693979445e-04
2.739331268937e-04
4.413384845669e-04
6.241371100910e-04
4.039782445867e-04
4.975815356570e-04
2.601643074891e-04
3.892850348578e-04
4.906868432750e-05
3.916877400031e-04
2.680577012849e-04
2.008727890989e-04
2.868801750513e-04
4.695920630532e-04
2.761237339078e-04
2.256486199998e-04
2.843091442905e-04
3.681590172537e-04
5.018951507860e-04
2.926000720122e-04
4.604658037531e-04
5.093199062042e-05
4.048357293050e-04
3.638261668550e-04
1.836908782649e-04
2.923124560216e-04
5.219831068028e-04
3.427279135562e-04
3.140359713552e-04
4.801904194106e-04
4.060142487934e-04
3.470792344059e-04
3.355636238694e-04
3.304214456080e-04
1.297790028348e-04
1.060545086447e-04
2.308311531120e-04
4.987539864661e-04
6.814231746608e-05
5.088443296830e-04
7.210927465505e-05
2.126126143975e-04
4.290695916416e-04
5.130447686886e-04
2.186436328376e-04
1.179694827027e-04
2.015132063481e-04
3.682254113415e-04
2.083215691794e-04
1.921342121041e-04
6.145606054330e-04
1.993813090792e-04
6.372830208436e-04
4.069450707767e-04
4.701530997596e-04
3.109198740719e-04
-4.503947601092e-06
2.790540326116e-04
1.605257672288e-04
4.941395301058e-04
4.709629754342e-04
1.451102626198e-04
5.703498514760e-04
5.206063204487e-04
5.447072102888e-04
4.169777677712e-04
4.081418031360e-04
5.968974475610e-04
4.511149230359e-04
2.352350714097e-05
3.116559726731e-04
2.459340577128e-04
2.128469715468e-04
1.492762262844e-04
1.476746249184e-04
4.395584376464e-05
1.829048350904e-04
4.500892116105e-04
4.670118988899e-04
4.467574060140e-04
1.155137289788e-04
6.069130685329e-04
4.883060634489e-04
4.190528996852e-04
4.667797544489e-04
8.863294974110e-05
4.775018123855e-04
5.371323307412e-04
5.616352950163e-04
4.162207754295e-04
4.618147924872e-04
6.187850540405e-04
8.157907241478e-05
6.196570811149e-04
5.141420130556e-04
4.965727272433e-04
4.709441102178e-04
3.942225431918e-04
5.833787718951e-04
5.969605653770e-05
5.431845967907e-04
1.862813182848e-04
1.743006985357e-05
4.078385217110e-04
5.339637509602e-04
3.945014653136e-04
4.869484517302e-05
2.311670800287e-05
4.185888310493e-04
5.580750290535e-04
9.266624794676e-05
6.339079857737e-04
2.768839325040e-05
4.478400651071e-04
2.691815088959e-05
4.131955115404e-04
6.158492295732e-04
2.049912881371e-04
4.413516597598e-04
1.330275949090e-04
4.982735103919e-04
4.056297625981e-05
6.198203585609e-04
4.292137757397e-04
6.029300390298e-04
4.861994608178e-04
1.863618020389e-05
5.020260639493e-04
4.206045248405e-04
4.514427023172e-04
5.923400867689e-04
1.655525894400e-04
6.678218518479e-05
6.400230207208e-04
9.834224555035e-06
4.507789161527e-04
4.107417537167e-04
6.388472400040e-05
4.859720885869e-04
5.667479254628e-04
2.512525407531e-04
5.842739938691e-04
6.200048183049e-05
-8.926175917443e-06
5.244975125695e-04
4.831753030129e-04
6.104901712991e-04
5.086699552147e-04
7.640268714222e-05
5.498862510888e-04
2.217050996792e-04
5.184694145275e-04
4.335419315031e-04
2.662156191846e-06
2.699343765819e-04
2.330127902781e-05
4.051326552744e-04
2.307613037808e-04
3.405911963317e-04
3.373524118614e-04
3.536278161833e-04
3.607553605533e-04
3.712680011467e-04
3.812367781213e-04
3.908666020288e-04
4.039710411907e-04
4.117957097493e-04
4.240802252505e-04

SCALARS node_materi_strain_total_size_dev_sd_ept float
LOOKUP_TABLE default
1.270503710668e-05
1.156379285992e-03
1.006872802312e-03
1.588501188102e-03
3.510608064682e-05
7.930266422453e-05
1.186657128784e-04
1.637973609944e-04
2.072827608632e-04
2.501554871158e-04
2.938053127858e-04
3.385917111332e-04
3.846638503696e-04
4.332214927209e-04
4.855207330487e-04
5.371665698161e-04
5.859078221954e-04
6.428217507530e-04
7.037219378373e-04
7.653803929811e-04
8.304151068471e-04
8.988477897047e-04
9.656011359022e-04
1.589866658974e-03
1.587585508931e-03
1.587992075113e-03
1.587455435491e-03
1.585777654319e-03
1.586206709997e-03
1.585302041554e-03
1.583102344184e-03
1.582505498230e-03
1.579697146396e-03
1.575912441353e-03
1.572965550036e-03
1.568492176203e-03
1.561901319722e-03
1.554588777711e-03
1.544651778889e-03
1.534639837006e-03
1.523417068609e-03
1.510099674670e-03
1.494857711555e-03
1.476424954563e-03
1.456518135069e-03
1.434203510301e-03
1.410215537795e-03
1.385404640754e-03
1.359734865052e-03
1.332945636522e-03
1.305480843600e-03
1.277723296631e-03
1.253731297309e-03
1.225673174059e-03
1.197475063961e-03
1.172098378879e-03
1.151253176623e-03
1.130685642054e-03
1.112501605678e-03
1.095593788768e-03
1.079888850920e-03
1.065249658604e-03
1.052826457512e-03
1.044659573662e-03
1.039110559272e-03
1.033122088513e-03
1.017805923504e-03
1.020637258374e-03
1.014781376466e-03
1.013600076620e-03
1.013750764789e-03
1.012445882617e-03
1.207231572335e-03
1.257944281239e-03
1.306212132759e-03
1.352206974264e-03
1.397770534059e-03
1.441648995592e-03
1.484072194262e-03
1.524659157796e-03
1.565437235123e-03
1.538220836719e-04
1.182297571041e-03
3.051322415235e-04
4.521610146401e-04
5.963137259505e-04
7.369897012316e-04
8.923863835290e-04
9.478617505701e-04
1.007873431700e-03
1.067664247620e-03
1.124573844364e-03
9.191347494153e-04
9.467148768229e-04
9.972340788881e-04
1.049577116592e-03
1.101718803299e-03
1.149069988386e-03
1.152665158251e-03
1.153881360366e-03
1.154181879803e-03
1.162155059954e-03
1.157585064027e-03
1.158466164078e-03
1.160731325687e-03
1.164500008943e-03
1.166608175644e-03
1.168515748087e-03
1.170933367271e-03
1.173321122336e-03
1.176599257597e-03
1.473241509035e-04
1.581784016858e-04
1.563629185323e-04
1.453507648197e-04
1.309204593297e-04
1.187737150820e-04
1.057212504690e-04
9.239973450494e-05
8.008452934868e-05
6.836991410952e-05
5.766423709391e-05
5.110634023615e-05
4.077230518014e-05
3.125790937182e-05
2.534861394589e-05
2.174622153394e-05
1.819854964805e-05
1.370903412398e-05
1.149334373498e-05
8.922482877372e-04
8.813265677241e-04
8.759796878437e-04
8.743144423520e-04
8.753806698579e-04
8.778999309245e-04
8.816763610824e-04
8.858577130951e-04
8.902279543537e-04
8.945168045268e-04
8.985503071345e-04
9.022043201414e-04
9.054629823246e-04
9.083137143139e-04
9.107438948081e-04
9.127521984922e-04
9.143598667607e-04
9.156234447074e-04
9.165937460463e-04
9.171619959168e-04
9.171509385134e-04
9.146655118795e-04
9.462040611525e-04
9.448224087671e-04
9.440044780096e-04
9.431182259893e-04
9.422145754131e-04
9.411921270359e-04
9.399549226502e-04
9.384403853839e-04
9.366573586313e-04
9.346541362479e-04
9.324526735202e-04
9.300732881432e-04
9.275833780133e-04
9.252523171942e-04
9.233039863430e-04
9.220616622508e-04
9.216373509620e-04
9.225418347880e-04
9.298369839621e-04
9.245646274480e-04
9.944892881691e-04
1.002621063263e-03
9.972322883942e-04
9.953684126920e-04
9.942417427282e-04
9.936928275765e-04
9.938027361990e-04
9.940449054912e-04
9.943953143948e-04
9.947901438905e-04
9.952804678323e-04
9.957771094342e-04
9.961387680182e-04
9.964769041112e-04
9.968491054532e-04
9.973106008077e-04
9.977793599157e-04
9.979660599605e-04
9.975469928815e-04
1.050196797959e-03
1.050530090495e-03
1.050713535289e-03
1.050881082182e-03
1.051029146393e-03
1.051407439863e-03
1.051888241082e-03
1.052461057648e-03
1.052932095954e-03
1.053820455250e-03
1.054882451751e-03
1.056043813682e-03
1.057543509011e-03
1.058931141885e-03
1.060965364473e-03
1.066352822997e-03
1.057919372311e-03
1.115470548855e-03
1.124186788325e-03
1.119707886676e-03
1.117028419197e-03
1.114925891044e-03
1.112924472292e-03
1.110917927010e-03
1.109330488198e-03
1.107879972938e-03
1.106583110911e-03
1.105493266516e-03
1.104588256750e-03
1.104055204718e-03
1.103197925225e-03
1.102982301346e-03
1.103098970218e-03
2.238597248067e-04
3.811453888805e-04
5.246035097124e-04
6.685898583492e-04
8.216847544915e-04
9.314210650935e-04
9.868804910113e-04
1.045627424827e-03
1.102929936450e-03
1.157555000068e-03
3.930701257409e-04
1.126732639635e-03
7.656620803633e-05
1.217071867597e-04
1.038735296001e-03
7.006856683852e-04
4.608069661257e-04
1.229231747759e-03
9.654440869189e-04
1.349131987431e-03
1.093267837728e-03
1.004334089675e-03
4.426866219543e-05
1.452761337481e-03
1.203553848667e-03
2.738523161630e-04
6.056285957235e-04
1.506066099721e-03
1.549248363420e-03
1.572229980162e-03
1.567040768972e-03
1.564313202284e-03
1.224008926529e-03
1.214532681085e-03
1.210944210930e-03
1.375539936771e-03
9.863052926243e-04
1.352796914153e-04
3.321946209857e-05
7.954784881198e-04
1.199933673621e-03
1.413863032974e-04
1.527613741240e-03
1.294416373090e-03
1.405007955445e-03
1.174678977881e-03
1.088247504646e-03
1.054465907101e-04
1.217818104593e-03
1.004573712822e-03
1.462482985921e-03
6.058682750217e-05
3.617139133144e-04
1.578408290010e-03
8.553755950806e-04
5.453241742624e-04
1.035368709603e-03
1.149112106466e-03
2.409055777113e-04
1.285981852412e-03
9.930783281433e-04
2.676999644105e-05
1.542534445180e-03
1.228069686875e-03
1.246600045827e-03
1.270156516815e-03
1.289029441775e-03
1.315599921990e-03
1.329300073094e-03
1.301795550932e-03
1.339419212778e-03
1.309526575089e-03
1.355686698503e-03
1.345242695688e-03
1.312544587815e-03
1.346746781081e-03
1.310969649584e-03
1.277199164367e-03
1.271863524506e-03
1.238650378430e-03
1.228889410771e-03
1.262263188495e-03
1.214728378138e-03
1.181201500806e-03
1.162273840965e-03
1.128318607492e-03
1.104570210487e-03
1.069384739815e-03
1.041327688924e-03
1.079671398052e-03
1.013457136974e-03
9.727284769021e-04
9.429858800025e-04
8.993961870634e-04
8.689521080249e-04
9.160768399703e-04
8.426417936261e-04
7.923112421336e-04
7.681477980411e-04
7.150028882367e-04
6.941265429299e-04
6.387368614372e-04
6.214351439679e-04
6.783147400843e-04
6.094287353128e-04
5.517413017899e-04
5.440031035130e-04
6.025280537110e-04
5.412733069188e-04
6.003404423833e-04
5.429737720925e-04
4.852038919248e-04
4.905964630410e-04
5.483815886269e-04
4.990951897112e-04
4.434166845663e-04
4.549214996143e-04
5.105540303217e-04
4.687593803498e-04
4.155893327957e-04
4.313496815989e-04
4.848225443655e-04
4.485912306954e-04
3.977258140751e-04
4.158733972471e-04
4.673347683245e-04
4.350570612175e-04
4.871901557451e-04
3.856723222881e-04
4.052071215695e-04
3.576899010485e-04
3.774625913586e-04
8.929984303894e-04
3.316592639907e-04
3.131723252930e-04
3.513276168733e-04
3.981558077729e-04
3.068203750605e-04
3.262620754521e-04
2.828883648402e-04
6.607545526461e-04
1.249339382401e-03
3.019592749804e-04
2.593821593896e-04
2.412701630724e-04
2.181517526613e-04
1.340359197699e-03
1.380908814509e-03
1.363638586858e-03
1.405133319284e-03
1.387993914135e-03
2.358097453680e-04
1.379834178760e-03
1.419407288017e-03
1.149031922887e-03
9.328405106761e-04
6.620146691462e-04
3.462423372060e-04
3.215752603492e-04
3.668194855749e-04
5.216929170158e-04
5.420116881042e-04
5.786942447991e-04
5.993968585693e-04
6.381998221707e-04
6.593279039258e-04
6.211841043648e-04
6.816128442183e-04
6.439145106725e-04
7.001550925590e-04
6.798677368484e-04
7.048605013517e-04
6.675057644410e-04
7.290620586581e-04
6.918389155019e-04
6.321255333555e-04
6.563636749733e-04
5.987393725567e-04
6.604893661885e-04
7.224273809091e-04
7.215997261660e-04
7.835895481477e-04
7.837825251189e-04
8.456986110485e-04
8.471233179560e-04
7.877440549845e-04
1.344044673609e-03
4.864737056187e-04
4.947984210285e-04
4.301362282986e-04
4.390662417651e-04
3.754514893955e-04
3.853694406028e-04
3.231751327233e-04
3.190946350925e-04
2.691227147517e-04
2.709094659565e-04
2.241775679263e-04
2.313525131383e-04
1.055166676711e-03
8.479495068380e-04
9.097043904139e-04
9.133587651519e-04
2.010517909614e-04
7.168103049562e-04
7.438740519631e-04
7.243892454854e-04
8.526415555498e-04
1.950916124943e-04
3.348499359653e-04
4.027599530706e-04
1.428070182806e-03
1.410586146283e-03
7.905878377336e-04
2.123263374856e-04
7.446377082858e-04
2.231650735392e-04
6.811303482180e-04
7.422800016902e-04
5.856213001924e-04
9.746149820589e-04
9.788475433572e-04
2.783586688216e-04
2.429259640815e-04
2.015511953400e-04
2.156816317639e-04
2.564428236986e-04
2.291467856002e-04
1.908936798610e-04
2.059513678906e-04
2.449697551973e-04
2.218464480873e-04
1.853040161637e-04
2.004533573742e-04
7.797387347924e-04
1.825183209078e-04
1.243114001228e-03
8.102012537684e-04
9.118066511118e-04
1.450153151331e-03
1.432501555720e-03
1.390726137490e-03
1.413004438495e-03
1.453815578521e-03
1.434642543240e-03
1.392047999325e-03
1.414063685682e-03
1.369839508328e-03
1.392445153462e-03
1.435748091529e-03
1.414724233886e-03
1.370163386106e-03
1.393029488008e-03
1.347319680122e-03
1.370560411647e-03
1.415652684721e-03
1.725858784677e-04
7.953505134386e-04
8.624016575191e-04
3.430922674439e-04
3.871392951310e-04
4.138718628580e-04
4.358419536240e-04
1.393635028228e-03
1.438258534477e-03
3.554437649411e-04
4.285886808479e-04
1.465537180835e-03
7.067452601333e-04
6.473507207444e-04
8.562362029239e-04
8.933549756453e-04
8.128275286541e-04
8.530627825308e-04
9.331137144044e-04
7.677434625505e-04
6.605546001572e-04
1.457168969615e-03
2.239293756437e-04
1.848825267057e-04
7.688636521719e-04
7.309500078269e-04
1.119399102129e-03
1.098013105635e-03
1.160486648057e-03
1.142009549179e-03
1.202873119597e-03
1.187267082215e-03
1.125580472346e-03
1.039344908221e-03
1.174312427258e-03
1.346995736813e-03
8.531527112789e-04
2.618898736986e-04
1.554413871840e-04
1.645749274663e-04
1.879467682004e-04
2.301626276912e-04
8.588968350119e-04
1.246704776266e-03
1.259699966005e-03
8.975742466990e-04
9.724736978475e-04
1.036696851381e-03
1.344586259985e-03
1.346979475479e-03
1.322966858596e-03
1.430058947019e-04
1.527527125445e-04
1.474682126783e-03
4.768519849591e-04
5.076345435777e-04
1.832782996668e-04
1.483895657329e-04
1.416096716068e-03
1.459570214314e-03
4.630273643648e-04
4.857322250733e-04
8.405978213975e-04
1.796915907815e-04
1.480490477840e-03
7.411533864158e-04
6.774962332293e-04
4.083146482181e-04
3.864779642130e-04
3.143682021929e-04
2.876812923513e-04
2.164137228959e-04
2.057738855221e-04
9.109899928208e-04
1.491706358699e-03
1.112393639748e-03
1.061160803266e-03
1.164218912182e-03
1.459621452324e-04
8.800692992244e-04
7.333351790252e-04
1.300665857841e-03
1.312028892087e-03
5.559644228812e-04
5.918251743044e-04
5.474134860904e-04
6.350188046187e-04
1.272637762534e-03
6.399490445671e-04
1.205776746958e-03
1.208381347890e-03
1.172664808999e-03
1.003697221179e-03
1.035152663711e-03
5.086634679933e-04
7.271109787607e-04
4.410580291420e-04
5.752508923977e-04
5.591612655029e-04
1.476551785820e-03
1.497546587168e-03
1.323449267815e-03
1.299178433613e-03
1.617234121160e-04
1.470334337451e-04
5.081098443752e-04
8.312601007614e-04
1.486566034546e-03
1.499981756504e-03
1.478391851142e-03
8.929138172702e-04
4.270150798303e-04
6.627765452444e-04
1.543735151031e-04
9.635942927537e-04
1.235423202116e-04
1.296094126893e-03
7.963391557975e-04
8.331022837991e-04
1.099374174416e-03
1.220557592836e-03
9.439448034157e-04
8.744735569103e-04
1.172165152831e-03
1.138699428706e-03
1.133165675231e-03
1.100933641754e-03
3.046592984217e-04
2.789498239919e-04
1.295725345878e-03
1.223857090915e-03
1.350595694563e-03
1.361133365732e-03
1.099020724331e-03
1.036531271611e-03
2.473985232270e-04
1.006092748788e-03
1.511913996071e-03
1.203538320299e-03
9.005426511400e-04
8.544169238977e-04
1.289932073418e-04
1.352679230439e-04
1.501983454228e-03
5.943249395327e-04
6.816556950938e-04
5.085556309209e-04
9.312867496293e-04
1.196466516731e-03
8.616425445652e-04
1.065102714468e-03
1.521877512520e-03
9.290096642111e-04
7.748803960939e-04
8.237181416388e-04
1.479110967797e-03
1.524619511831e-03
1.298859921902e-03
1.272677352508e-03
1.322175963983e-03
2.302843379199e-04
1.933428526222e-04
1.478388249080e-03
2.975370285681e-04
3.219894434508e-04
1.940094219841e-04
2.317958329566e-04
4.914990384733e-04
4.692436336018e-04
1.285038239098e-03
1.331167938635e-03
1.179363509566e-03
6.900071875025e-04
6.278227148741e-04
6.162036906576e-04
1.514205075151e-03
1.538679871831e-03
3.331167530741e-04
3.170578840449e-04
3.217105752293e-04
1.527254375631e-03
8.992348691729e-04
8.717282275044e-04
1.114153466394e-04
1.334428880983e-04
3.515866710457e-04
2.788761890627e-04
1.509590129251e-03
1.488960853108e-03
1.533194337458e-03
2.201286914424e-04
1.049555280683e-03
9.637557533022e-04
9.472883633904e-04
9.922712201436e-04
1.101293186397e-03
1.158072969725e-03
1.218129609290e-03
1.249019585713e-04
1.509905206792e-03
1.272039027775e-03
1.231884705682e-04
1.247192471564e-03
1.274551606132e-03
1.219791807175e-03
1.783628387705e-04
1.265634867426e-03
1.297892952842e-03
9.250022087556e-05
1.545801395585e-03
8.890086272460e-05
1.005142766221e-04
9.238127606699e-04
8.774830140832e-04
9.464206680473e-04
9.008492186036e-04
8.336046708962e-04
8.601504878979e-04
1.245775163036e-03
9.377496577609e-04
8.884689367540e-04
9.659507589894e-04
1.103069280570e-03
7.232672952859e-04
7.719765467697e-04
7.406630155996e-04
1.403632887841e-03
1.402605238039e-03
7.622453835903e-04
7.003524120784e-04
1.247304606614e-03
1.243075155115e-03
1.288344193900e-03
1.281259362282e-03
1.325630115285e-03
1.317705674918e-03
1.361793611259e-03
1.281269390045e-03
5.607535555872e-04
1.163788101167e-03
1.100904699242e-03
1.036195038552e-03
1.057630119688e-03
1.028084102960e-03
9.611483584649e-04
6.070681538643e-04
1.563004435684e-03
1.438188892935e-04
1.531514661855e-04
6.896494336240e-04
1.087939829574e-03
8.111703144724e-04
8.625258790611e-04
7.552636463967e-04
1.223328743851e-04
4.282621004035e-04
1.368216391508e-03
4.021870500189e-04
7.319884008597e-04
5.830501667774e-04
1.035875754309e-03
4.644109152784e-04
6.806388998360e-04
1.277531119064e-03
1.262332980005e-03
1.233659844470e-03
5.647594461562e-04
9.433079183578e-04
9.087989064541e-04
1.196203812616e-03
1.455396556334e-03
1.464768623673e-03
1.494953186090e-03
1.471121998907e-03
1.438980609700e-03
1.444030703866e-03
1.474829529944e-03
1.446756493257e-03
1.482661119849e-03
1.445225850157e-03
1.412988822527e-03
1.409876371039e-03
1.439327121813e-03
1.377121921153e-03
1.163082346109e-03
7.411845649557e-04
1.493867981919e-04
1.991743614639e-04
1.095952164318e-03
1.518476843994e-03
1.541956833367e-03
4.543260470630e-04
1.429810570368e-03
1.241471510874e-03
2.746851214780e-04
1.378132371638e-03
1.430810552575e-03
1.404058523151e-03
1.394133957648e-03
1.556298180469e-03
1.345908513919e-03
1.266787364414e-03
7.871401566512e-04
7.940168109809e-04
7.357843978699e-04
1.413343218752e-03
1.150213838747e-03
1.074843163194e-03
1.052591884987e-03
9.976745272147e-04
1.105211152075e-03
1.492367022822e-03
1.475335288929e-03
2.713921628303e-04
3.023424803455e-04
3.510806775753e-04
3.386595836234e-04
2.892330441600e-04
3.284196394800e-04
3.807086192133e-04
3.213212033724e-04
1.367305649298e-03
1.070617409945e-03
6.182609164612e-04
5.994150752083e-04
5.409102547228e-04
4.194594892862e-04
4.473481615412e-04
4.987788727015e-04
3.927552753694e-04
1.078115171189e-03
1.054573605918e-03
6.684917873811e-04
4.258751704051e-04
1.221817931478e-03
1.267155632299e-03
1.269920953484e-03
1.313662717331e-03
1.269513046117e-03
5.142840179905e-04
5.374030092433e-04
5.086177630175e-04
5.607764083793e-04
5.302674952561e-04
4.828155380953e-04
5.833519759267e-04
5.491641880012e-04
1.215919215451e-03
1.138113171140e-04
1.150446379035e-04
1.105172192786e-04
1.308633257272e-04
1.320381324198e-04
1.563216651149e-04
1.529797930727e-04
1.179889553891e-04
9.559974744653e-05
1.045700028747e-04
8.529720303115e-05
9.836392363324e-05
1.286932168445e-04
1.706907509827e-04
9.745167425561e-04
4.084130900165e-04
3.855745448780e-04
3.408808700718e-04
3.647272484770e-04
4.274721153997e-04
3.170618498845e-04
3.009850305306e-04
3.028929716600e-05
6.369579430523e-05
5.981879981854e-05
1.012831286603e-04
1.012105667644e-04
6.551108120183e-05
6.781263374316e-05
3.599190462463e-05
7.019152124483e-05
1.059270774899e-04
3.882954810237e-05
1.420485136914e-03
1.444616872272e-03
1.025442266421e-03
1.215899097165e-03
6.757152743024e-05
1.566507861208e-03
1.571150341868e-03
1.572332073648e-03
8.625036861403e-04
8.962224808395e-04
1.567752157595e-03
2.643496028116e-04
1.500419694776e-03
1.499570855840e-03
2.891368816441e-04
2.550985084536e-04
6.729143515912e-04
6.085802353639e-04
8.057282118154e-04
6.228330358405e-04
7.541152182481e-04
1.024316061411e-03
1.648185780334e-04
1.346649718512e-03
1.323851077262e-03
1.436780091465e-03
2.780888975508e-04
4.596452826326e-04
1.781904783406e-04
1.353350832047e-03
1.164631224185e-03
5.025499254070e-04
3.717666410648e-04
2.882375036283e-04
2.385333166490e-04
8.220425493567e-04
4.553916041630e-04
7.217853133098e-04
1.458733992989e-03
5.732331971385e-05
7.645080404114e-04
5.633652993863e-04
1.369515019948e-03
9.089275692268e-04
1.724943304837e-04
1.455789135879e-03
1.518734649081e-03
1.321848277202e-03
1.384946878377e-04
1.298199392656e-03
9.305256137803e-04
1.443130695702e-03
2.541204077883e-04
6.022913267089e-04
1.004274069088e-03
1.175980395621e-03
1.516883089998e-03
8.210971054770e-04
9.205795684739e-04
7.245241765615e-04
2.734108435535e-04
8.102324287368e-04
6.678414905871e-04
1.495127081239e-03
1.218872169817e-03
4.835187116561e-04
1.471152901665e-03
5.245192731479e-04
9.726556483718e-04
1.118268871836e-03
1.141197407130e-03
1.305049527382e-03
9.872200024311e-04
6.406187105907e-04
7.868953473217e-04
1.889814815066e-04
7.277974098886e-04
1.367790849347e-03
1.232515083008e-03
1.531702788854e-03
9.683850099200e-04
7.682220931207e-04
1.506332943058e-03
4.767263256847e-04
1.887307073080e-04
2.524957404421e-04
3.720455195271e-04
7.492717314393e-04
5.299485559980e-04
1.520944090973e-03
7.929612208834e-04
7.722970561994e-04
3.160562343007e-04
1.192394000396e-03
8.188218989551e-04
6.077450624951e-04
9.730097608333e-04
4.993724766622e-04
1.321902967106e-03
1.068218480592e-03
8.463641160129e-04
8.080137331709e-04
5.286402582227e-04
1.198857059334e-03
9.243903033904e-04
8.773886093416e-04
1.032199219530e-03
5.568368270222e-04
1.121307208822e-03
5.524167310717e-04
1.197692833992e-03
1.561204401865e-03
9.311352928096e-04
1.367352687850e-03
5.211194242034e-04
9.191584565906e-04
1.027460960914e-04
1.134615255555e-03
5.439904747168e-04
3.742349972777e-04
5.682084068511e-04
1.159826863172e-03
5.674071193416e-04
4.289532015284e-04
5.911998078370e-04
1.064653055869e-03
1.375679972126e-03
6.151255543721e-04
1.234443769790e-03
1.120857599016e-04
1.011837458044e-03
8.273763253345e-04
3.391917505777e-04
5.824334861127e-04
1.410641007096e-03
1.003064045079e-03
6.428126834634e-04
1.272683745477e-03
9.959468995810e-04
8.049843240477e-04
7.060727009903e-04
9.804712187488e-04
2.471332994742e-04
2.082881277441e-04
4.346892997539e-04
1.322560719154e-03
1.376949537800e-04
1.380215104370e-03
1.573636760809e-04
3.900902967932e-04
1.043584472445e-03
1.332259888283e-03
4.018395114709e-04
2.313639404198e-04
3.651848927562e-04
8.613405223071e-04
3.809009251328e-04
3.498775720663e-04
1.538132058930e-03
3.673545140110e-04
1.574227836870e-03
9.750911743161e-04
1.236225525773e-03
9.213731532404e-04
1.339664154828e-04
8.261914672203e-04
2.958142686913e-04
1.338356269989e-03
1.238712086206e-03
2.713735983842e-04
1.472465755959e-03
1.323061591259e-03
1.399378761825e-03
9.774420537134e-04
9.855870177882e-04
1.501145665301e-03
1.199556090888e-03
9.292334543836e-05
6.704753041917e-04
7.733917096065e-04
6.432946416957e-04
4.801222496851e-04
2.888410405879e-04
1.275902604267e-04
6.204208968256e-04
1.094539947970e-03
1.253725494785e-03
1.104432932023e-03
4.678559050020e-04
1.538034535140e-03
1.224807484603e-03
1.010586245647e-03
1.160524895737e-03
3.267208172894e-04
1.303638921285e-03
1.381435671913e-03
1.435004327579e-03
1.002585821194e-03
1.252932890019e-03
1.542590176354e-03
1.641295116904e-04
1.542701673182e-03
1.372647424035e-03
1.301569180219e-03
1.302654222431e-03
9.303634300405e-04
1.502124378882e-03
2.479247454371e-04
1.397678480709e-03
3.645188589642e-04
1.196828210605e-04
9.623054004940e-04
1.404969202807e-03
9.300124641817e-04
9.953464280889e-05
7.981016305757e-05
9.951664282505e-04
1.439230279614e-03
1.809603859825e-04
1.574586916974e-03
1.857251837822e-04
1.197768610048e-03
7.067717408899e-05
9.941236839859e-04
1.545145114776e-03
4.057977270713e-04
1.226916245667e-03
2.607674603155e-04
1.270147188580e-03
1.167965055330e-04
1.548725159877e-03
1.028416906886e-03
1.534820876085e-03
1.221893082872e-03
1.296641665649e-04
1.269512977862e-03
9.904299607626e-04
1.197102766171e-03
1.517799984672e-03
3.242149362829e-04
1.388833894658e-04
1.578184707883e-03
2.225158429183e-05
1.190917225702e-03
9.895384977855e-04
1.296604696706e-04
1.272657392822e-03
1.460301039916e-03
5.133348550547e-04
1.477181674417e-03
1.459121769468e-04
1.299260125465e-04
1.357145216891e-03
1.206828487225e-03
1.544590601860e-03
1.326932811653e-03
2.297948499336e-04
1.430891511233e-03
4.419258810832e-04
1.339165753633e-03
1.035736784269e-03
1.781735205905e-04
5.594768736463e-04
7.167643837613e-05
9.596267303914e-04
4.638663996123e-04
9.082612440642e-04
9.215686738135e-04
9.696822095445e-04
9.730140959792e-04
1.032506046919e-03
1.022034296031e-03
1.092198919678e-03
1.077539003021e-03
1.147590219086e-03
1.127154722246e-03


CELL_DATA 2134

SCALARS element_number int
LOOKUP_TABLE default
407
408
409
410
411
412
413
414
415
416
417
418
419
420
421
422
423
424
425
426
427
428
429
430
431
432
433
434
435
436
437
438
439
440
441
442
443
444
445
446
447
448
449
450
451
452
453
454
455
456
457
458
459
460
461
462
463
464
465
466
467
468
469
470
471
472
473
474
475
476
477
478
479
480
481
482
483
484
485
486
487
488
489
490
491
492
493
494
495
496
497
498
499
500
501
502
503
504
505
506
507
508
509
510
511
512
513
514
515
516
517
518
519
520
521
522
523
524
525
526
527
528
529
530
531
532
533
534
535
536
537
538
539
540
541
542
543
544
545
546
547
548
549
550
551
552
553
554
555
556
557
558
559
560
561
562
563
564
565
566
567
568
569
570
571
572
573
574
575
576
577
578
579
580
581
582
583
584
585
586
587
588
589
590
591
592
593
594
595
596
597
598
599
600
601
602
603
604
605
606
607
608
609
610
611
612
613
614
615
616
617
618
619
620
621
622
623
624
625
626
627
628
629
630
631
632
633
634
635
636
637
638
639
640
641
642
643
644
645
646
647
648
649
650
651
652
653
654
655
656
657
658
659
660
661
662
663
664
665
666
667
668
669
670
671
672
673
674
675
676
677
678
679
680
681
682
683
684
685
686
687
688
689
690
691
692
693
694
695
696
697
698
699
700
701
702
703
704
705
706
707
708
709
710
711
712
713
714
715
716
717
718
719
720
721
722
723
724
725
726
727
728
729
730
731
732
733
734
735
736
737
738
739
740
741
742
743
744
745
746
747
748
749
750
751
752
753
754
755
756
757
758
759
760
761
762
763
764
765
766
767
768
769
770
771
772
773
774
775
776
777
778
779
780
781
782
783
784
785
786
787
788
789
790
791
792
793
794
795
796
797
798
799
800
801
802
803
804
805
806
807
808
809
810
811
812
813
814
815
816
817
818
819
820
821
822
823
824
825
826
827
828
829
830
831
832
833
834
835
836
837
838
839
840
841
842
843
844
845
846
847
848
849
850
851
852
853
854
855
856
857
858
859
860
861
862
863
864
865
866
867
868
869
870
871
872
873
874
875
876
877
878
879
880
881
882
883
884
885
886
887
888
889
890
891
892
893
894
895
896
897
898
899
900
901
902
903
904
905
906
907
908
909
910
911
912
913
914
915
916
917
918
919
920
921
922
923
924
925
926
927
928
929
930
931
932
933
934
935
936
937
938
939
940
941
942
943
944
945
946
947
948
949
950
951
952
953
954
955
956
957
958
959
960
961
962
963
964
965
966
967
968
969
970
971
972
973
974
975
976
977
978
979
980
981
982
983
984
985
986
987
988
989
990
991
992
993
994
995
996
997
998
999
1000
1001
1002
1003
1004
1005
1006
1007
1008
1009
1010
1011
1012
1013
1014
1015
1016
1017
1018
1019
1020
1021
1022
1023
1024
1025
1026
1027
1028
1029
1030
1031
1032
1033
1034
1035
1036
1037
1038
1039
1040
1041
1042
1043
1044
1045
1046
1047
1048
1049
1050
1051
1052
1053
1054
1055
1056
1057
1058
1059
1060
1061
1062
1063
1064
1065
1066
1067
1068
1069
1070
1071
1072
1073
1074
1075
1076
1077
1078
1079
1080
1081
1082
1083
1084
1085
1086
1087
1088
1089
1090
1091
1092
1093
1094
1095
1096
1097
1098
1099
1100
1101
1102
1103
1104
1105
1106
1107
1108
1109
1110
1111
1112
1113
1114
1115
1116
1117
1118
1119
1120
1121
1122
1123
1124
1125
1126
1127
1128
1129
1130
1131
1132
1133
1134
1135
1136
1137
1138
1139
1140
1141
1142
1143
1144
1145
1146
1147
1148
1149
1150
1151
1152
1153
1154
1155
1156
1157
1158
1159
1160
1161
1162
1163
1164
1165
1166
1167
1168
1169
1170
1171
1172
1173
1174
1175
1176
1177
1178
1179
1180
1181
1182
1183
1184
1185
1186
1187
1188
1189
1190
1191
1192
1193
1194
1195
1196
1197
1198
1199
1200
1201
1202
1203
1204
1205
1206
1207
1208
1209
1210
1211
1212
1213
1214
1215
1216
1217
1218
1219
1220
1221
1222
1223
1224
1225
1226
1227
1228
1229
1230
1231
1232
1233
1234
1235
1236
1237
1238
1239
1240
1241
1242
1243
1244
1245
1246
1247
1248
1249
1250
1251
1252
1253
1254
1255
1256
1257
1258
1259
1260
1261
1262
1263
1264
1265
1266
1267
1268
1269
1270
1271
1272
1273
1274
1275
1276
1277
1278
1279
1280
1281
1282
1283
1284
1285
1286
1287
1288
1289
1290
1291
1292
1293
1294
1295
1296
1297
1298
1299
1300
1301
1302
1303
1304
1305
1306
1307
1308
1309
1310
1311
1312
1313
1314
1315
1316
1317
1318
1319
1320
1321
1322
1323
1324
1325
1326
1327
1328
1329
1330
1331
1332
1333
1334
1335
1336
1337
1338
1339
1340
1341
1342
1343
1344
1345
1346
1347
1348
1349
1350
1351
1352
1353
1354
1355
1356
1357
1358
1359
1360
1361
1362
1363
1364
1365
1366
1367
1368
1369
1370
1371
1372
1373
1374
1375
1376
1377
1378
1379
1380
1381
1382
1383
1384
1385
1386
1387
1388
1389
1390
1391
1392
1393
1394
1395
1396
1397
1398
1399
1400
1401
1402
1403
1404
1405
1406
1407
1408
1409
1410
1411
1412
1413
1414
1415
1416
1417
1418
1419
1420
1421
1422
1423
1424
1425
1426
1427
1428
1429
1430
1431
1432
1433
1434
1435
1436
1437
1438
1439
1440
1441
1442
1443
1444
1445
1446
1447
1448
1449
1450
1451
1452
1453
1454
1455
1456
1457
1458
1459
1460
1461
1462
1463
1464
1465
1466
1467
1468
1469
1470
1471
1472
1473
1474
1475
1476
1477
1478
1479
1480
1481
1482
1483
1484
1485
1486
1487
1488
1489
1490
1491
1492
1493
1494
1495
1496
1497
1498
1499
1500
1501
1502
1503
1504
1505
1506
1507
1508
1509
1510
1511
1512
1513
1514
1515
1516
1517
1518
1519
1520
1521
1522
1523
1524
1525
1526
1527
1528
1529
1530
1531
1532
1533
1534
1535
1536
1537
1538
1539
1540
1541
1542
1543
1544
1545
1546
1547
1548
1549
1550
1551
1552
1553
1554
1555
1556
1557
1558
1559
1560
1561
1562
1563
1564
1565
1566
1567
1568
1569
1570
1571
1572
1573
1574
1575
1576
1577
1578
1579
1580
1581
1582
1583
1584
1585
1586
1587
1588
1589
1590
1591
1592
1593
1594
1595
1596
1597
1598
1599
1600
1601
1602
1603
1604
1605
1606
1607
1608
1609
1610
1611
1612
1613
1614
1615
1616
1617
1618
1619
1620
1621
1622
1623
1624
1625
1626
1627
1628
1629
1630
1631
1632
1633
1634
1635
1636
1637
1638
1639
1640
1641
1642
1643
1644
1645
1646
1647
1648
1649
1650
1651
1652
1653
1654
1655
1656
1657
1658
1659
1660
1661
1662
1663
1664
1665
1666
1667
1668
1669
1670
1671
1672
1673
1674
1675
1676
1677
1678
1679
1680
1681
1682
1683
1684
1685
1686
1687
1688
1689
1690
1691
1692
1693
1694
1695
1696
1697
1698
1699
1700
1701
1702
1703
1704
1705
1706
1707
1708
1709
1710
1711
1712
1713
1714
1715
1716
1717
1718
1719
1720
1721
1722
1723
1724
1725
1726
1727
1728
1729
1730
1731
1732
1733
1734
1735
1736
1737
1738
1739
1740
1741
1742
1743
1744
1745
1746
1747
1748
1749
1750
1751
1752
1753
1754
1755
1756
1757
1758
1759
1760
1761
1762
1763
1764
1765
1766
1767
1768
1769
1770
1771
1772
1773
1774
1775
1776
1777
1778
1779
1780
1781
1782
1783
1784
1785
1786
1787
1788
1789
1790
1791
1792
1793
1794
1795
1796
1797
1798
1799
1800
1801
1802
1803
1804
1805
1806
1807
1808
1809
1810
1811
1812
1813
1814
1815
1816
1817
1818
1819
1820
1821
1822
1823
1824
1825
1826
1827
1828
1829
1830
1831
1832
1833
1834
1835
1836
1837
1838
1839
1840
1841
1842
1843
1844
1845
1846
1847
1848
1849
1850
1851
1852
1853
1854
1855
1856
1857
1858
1859
1860
1861
1862
1863
1864
1865
1866
1867
1868
1869
1870
1871
1872
1873
1874
1875
1876
1877
1878
1879
1880
1881
1882
1883
1884
1885
1886
1887
1888
1889
1890
1891
1892
1893
1894
1895
1896
1897
1898
1899
1900
1901
1902
1903
1904
1905
1906
1907
1908
1909
1910
1911
1912
1913
1914
1915
1916
1917
1918
1919
1920
1921
1922
1923
1924
1925
1926
1927
1928
1929
1930
1931
1932
1933
1934
1935
1936
1937
1938
1939
1940
1941
1942
1943
1944
1945
1946
1947
1948
1949
1950
1951
1952
1953
1954
1955
1956
1957
1958
1959
1960
1961
1962
1963
1964
1965
1966
1967
1968
1969
1970
1971
1972
1973
1974
1975
1976
1977
1978
1979
1980
1981
1982
1983
1984
1985
1986
1987
1988
1989
1990
1991
1992
1993
1994
1995
1996
1997
1998
1999
2000
2001
2002
2003
2004
2005
2006
2007
2008
2009
2010
2011
2012
2013
2014
2015
2016
2017
2018
2019
2020
2021
2022
2023
2024
2025
2026
2027
2028
2029
2030
2031
2032
2033
2034
2035
2036
2037
2038
2039
2040
2041
2042
2043
2044
2045
2046
2047
2048
2049
2050
2051
2052
2053
2054
2055
2056
2057
2058
2059
2060
2061
2062
2063
2064
2065
2066
2067
2068
2069
2070
2071
2072
2073
2074
2075
2076
2077
2078
2079
2080
2081
2082
2083
2084
2085
2086
2087
2088
2089
2090
2091
2092
2093
2094
2095
2096
2097
2098
2099
2100
2101
2102
2103
2104
2105
2106
2107
2108
2109
2110
2111
2112
2113
2114
2115
2116
2117
2118
2119
2120
2121
2122
2123
2124
2125
2126
2127
2128
2129
2130
2131
2132
2133
2134
2135
2136
2137
2138
2139
2140
2141
2142
2143
2144
2145
2146
2147
2148
2149
2150
2151
2152
2153
2154
2155
2156
2157
2158
2159
2160
2161
2162
2163
2164
2165
2166
2167
2168
2169
2170
2171
2172
2173
2174
2175
2176
2177
2178
2179
2180
2181
2182
2183
2184
2185
2186
2187
2188
2189
2190
2191
2192
2193
2194
2195
2196
2197
2198
2199
2200
2201
2202
2203
2204
2205
2206
2207
2208
2209
2210
2211
2212
2213
2214
2215
2216
2217
2218
2219
2220
2221
2222
2223
2224
2225
2226
2227
2228
2229
2230
2231
2232
2233
2234
2235
2236
2237
2238
2239
2240
2241
2242
2243
2244
2245
2246
2247
2248
2249
2250
2251
2252
2253
2254
2255
2256
2257
2258
2259
2260
2261
2262
2263
2264
2265
2266
2267
2268
2269
2270
2271
2272
2273
2274
2275
2276
2277
2278
2279
2280
2281
2282
2283
2284
2285
2286
2287
2288
2289
2290
2291
2292
2293
2294
2295
2296
2297
2298
2299
2300
2301
2302
2303
2304
2305
2306
2307
2308
2309
2310
2311
2312
2313
2314
2315
2316
2317
2318
2319
2320
2321
2322
2323
2324
2325
2616
2617
2618
2619
2620
2621
2622
2623
2624
2625
2626
2627
2628
2629
2630
2631
2632
2633
2634
2635
2636
2637
2638
2639
2640
2641
2642
2643
2644
2645
2646
2647
2648
2649
2650
2651
2652
2653
2654
2655
2656
2657
2658
2659
2660
2661
2662
2663
2664
2665
2666
2667
2668
2669
2670
2671
2672
2673
2674
2675
2676
2677
2678
2679
2680
2681
2682
2683
2684
2685
2686
2687
2688
2689
2690
2691
2692
2693
2694
2695
2696
2697
2698
2699
2700
2701
2702
2703
2704
2705
2706
2707
2708
2709
2710
2711
2712
2713
2714
2715
2716
2717
2718
2719
2720
2721
2722
2723
2724
2725
2726
2727
2728
2729
2730
2731
2732
2733
2734
2735
2736
2737
2738
2739
2740
2741
2742
2743
2744
2745
2746
2747
2748
2749
2750
2751
2752
2753
2754
2755
2756
2757
2758
2759
2760
2761
2762
2763
2764
2765
2766
2767
2768
2769
2770
2771
2772
2773
2774
2775
2776
2777
2778
2779
2780
2781
2782
2783
2784
2785
2786
2787
2788
2789
2790
2791
2792
2793
2794
2795
2796
2797
2798
2799
2800
2801
2802
2803
2804
2805
2806
2807
2808
2809
2810
2811
2812
2813
2814
2815
2816
2817
2818
2819
2820
2821
2822
2823
2824
2825
2826
2827
2828
2829
2830

SCALARS element_group int
LOOKUP_TABLE default
0
0
0
0
0
0
0
0
0
0
0
0
0
0
0
0
0
0
0
0
0
0
0
0
0
0
0
0
0
0
0
0
0
0
0
0
0
0
0
0
0
0
0
0
0
0
0
0
0
0
0
0
0
0
0
0
0
0
0
0
0
0
0
0
0
0
0
0
0
0
0
0
0
0
0
0
0
0
0
0
0
0
0
0
0
0
0
0
0
0
0
0
0
0
0
0
0
0
0
0
0
0
0
0
0
0
0
0
0
0
0
0
0
0
0
0
0
0
0
0
0
0
0
0
0
0
0
0
0
0
0
0
0
0
0
0
0
0
0
0
0
0
0
0
0
0
0
0
0
0
0
0
0
0
0
0
0
0
0
0
0
0
0
0
0
0
0
0
0
0
0
0
0
0
0
0
0
0
0
0
0
0
0
0
0
0
0
0
0
0
0
0
0
0
0
0
0
0
0
0
0
0
0
0
0
0
0
0
0
0
0
0
0
0
0
0
0
0
0
0
0
0
0
0
0
0
0
0
0
0
0
0
0
0
0
0
0
0
0
0
0
0
0
0
0
0
0
0
0
0
0
0
0
0
0
0
0
0
0
0
0
0
0
0
0
0
0
0
0
0
0
0
0
0
0
0
0
0
0
0
0
0
0
0
0
0
0
0
0
0
0
0
0
0
0
0
0
0
0
0
0
0
0
0
0
0
0
0
0
0
0
0
0
0
0
0
0
0
0
0
0
0
0
0
0
0
0
0
0
0
0
0
0
0
0
0
0
0
0
0
0
0
0
0
0
0
0
0
0
0
0
0
0
0
0
0
0
0
0
0
0
0
0
0
0
0
0
0
0
0
0
0
0
0
0
0
0
0
0
0
0
0
0
0
0
0
0
0
0
0
0
0
0
0
0
0
0
0
0
0
0
0
0
0
0
0
0
0
0
0
0
0
0
0
0
0
0
0
0
0
0
0
0
0
0
0
0
0
0
0
0
0
0
0
0
0
0
0
0
0
0
0
0
0
0
0
0
0
0
0
0
0
0
0
0
0
0
0
0
0
0
0
0
0
0
0
0
0
0
0
0
0
0
0
0
0
0
0
0
0
0
0
0
0
0
0
0
0
0
0
0
0
0
0
0
0
0
0
0
0
0
0
0
0
0
0
0
0
0
0
0
0
0
0
0
0
0
0
0
0
0
0
0
0
0
0
0
0
0
0
0
0
0
0
0
0
0
0
0
0
0
0
0
0
0
0
0
0
0
0
0
0
0
0
0
0
0
0
0
0
0
0
0
0
0
0
0
0
0
0
0
0
0
0
0
0
0
0
0
0
0
0
0
0
0
0
0
0
0
0
0
0
0
0
0
0
0
0
0
0
0
0
0
0
0
0
0
0
0
0
0
0
0
0
0
0
0
0
0
0
0
0
0
0
0
0
0
0
0
0
0
0
0
0
0
0
0
0
0
0
0
0
0
0
0
0
0
0
0
0
0
0
0
0
0
0
0
0
0
0
0
0
0
0
0
0
0
0
0
0
0
0
0
0
0
0
0
0
0
0
0
0
0
0
0
0
0
0
0
0
0
0
0
0
0
0
0
0
0
0
0
0
0
0
0
0
0
0
0
0
0
0
0
0
0
0
0
0
0
0
0
0
0
0
0
0
0
0
0
0
0
0
0
0
0
0
0
0
0
0
0
0
0
0
0
0
0
0
0
0
0
0
0
0
0
0
0
0
0
0
0
0
0
0
0
0
0
0
0
0
0
0
0
0
0
0
0
0
0
0
0
0
0
0
0
0
0
0
0
0
0
0
0
0
0
0
0
0
0
0
0
0
0
0
0
0
0
0
0
0
0
0
0
0
0
0
0
0
0
0
0
0
0
0
0
0
0
0
0
0
0
0
0
0
0
0
0
0
0
0
0
0
0
0
0
0
0
0
0
0
0
0
0
0
0
0
0
0
0
0
0
0
0
0
0
0
0
0
0
0
0
0
0
0
0
0
0
0
0
0
0
0
0
0
0
0
0
0
0
0
0
0
0
0
0
0
0
0
0
0
0
0
0
0
0
0
0
0
0
0
0
0
0
0
0
0
0
0
0
0
0
0
0
0
0
0
0
0
0
0
0
0
0
0
0
0
0
0
0
0
0
0
0
0
0
0
0
0
0
0
0
0
0
0
0
0
0
0
0
0
0
0
0
0
0
0
0
0
0
0
0
0
0
0
0
0
0
0
0
0
0
0
0
0
0
0
0
0
0
0
0
0
0
0
0
0
0
0
0
0
0
0
0
0
0
0
0
0
0
0
0
0
0
0
0
0
0
0
0
0
0
0
0
0
0
0
0
0
0
0
0
0
0
0
0
0
0
0
0
0
0
0
0
0
0
0
0
0
0
0
0
0
0
0
0
0
0
0
0
0
0
0
0
0
0
0
0
0
0
0
0
0
0
0
0
0
0
0
0
0
0
0
0
0
0
0
0
0
0
0
0
0
0
0
0
0
0
0
0
0
0
0
0
0
0
0
0
0
0
0
0
0
0
0
0
0
0
0
0
0
0
0
0
0
0
0
0
0
0
0
0
0
0
0
0
0
0
0
0
0
0
0
0
0
0
0
0
0
0
0
0
0
0
0
0
0
0
0
0
0
0
0
0
0
0
0
0
0
0
0
0
0
0
0
0
0
0
0
0
0
0
0
0
0
0
0
0
0
0
0
0
0
0
0
0
0
0
0
0
0
0
0
0
0
0
0
0
0
0
0
0
0
0
0
0
0
0
0
0
0
0
0
0
0
0
0
0
0
0
0
0
0
0
0
0
0
0
0
0
0
0
0
0
0
0
0
0
0
0
0
0
0
0
0
0
0
0
0
0
0
0
0
0
0
0
0
0
0
0
0
0
0
0
0
0
0
0
0
0
0
0
0
0
0
0
0
0
0
0
0
0
0
0
0
0
0
0
0
0
0
0
0
0
0
0
0
0
0
0
0
0
0
0
0
0
0
0
0
0
0
0
0
0
0
0
0
0
0
0
0
0
0
0
0
0
0
0
0
0
0
0
0
0
0
0
0
0
0
0
0
0
0
0
0
0
0
0
0
0
0
0
0
0
0
0
0
0
0
0
0
0
0
0
0
0
0
0
0
0
0
0
0
0
0
0
0
0
0
0
0
0
0
0
0
0
0
0
0
0
0
0
0
0
0
0
0
0
0
0
0
0
0
0
0
0
0
0
0
0
0
0
0
0
0
0
0
0
0
0
0
0
0
0
0
0
0
0
0
0
0
0
0
0
0
0
0
0
0
0
0
0
0
0
0
0
0
0
0
0
0
0
0
0
0
0
0
0
0
0
0
0
0
0
0
0
0
0
0
0
0
0
0
0
0
0
0
0
0
0
0
0
0
0
0
0
0
0
0
0
0
0
0
0
0
0
0
0
0
0
0
0
0
0
0
0
0
0
0
0
0
0
0
0
0
0
0
0
0
0
0
0
0
0
0
0
0
0
0
0
0
0
0
0
0
0
0
0
0
0
0
0
0
0
0
0
0
0
0
0
0
0
0
0
0
0
0
0
0
0
0
0
0
0
0
0
0
0
0
0
0
0
0
0
0
0
0
0
0
0
0
0
0
0
0
0
0
0
0
0
0
0
0
0
0
0
0
0
0
0
0
0
0
0
0
0
0
0
0
0
0
0
0
0
0
0
0
0
0
0
0
0
0
0
0
0
0
0
0
0
0
0
0
0
0
0
0
0
0
0
0
0
0
0
0
0
0
0
0
0
0
0
0
0
0
0
0
0
0
0
0
0
0
0
0
0
0
0
0
0
0
0
0
0
0
0
0
0
0
0
0
0
0
0
0
0
0
0
0
0
0
0
0
0
0
0
0
0
0
0
0
0
0
0
0
0
0
0
0
0
0
0
0
0
0
0
0
0
0
0
0
0
0
0
0
0
0
0
0
0
0
0
0
0
0
0
0
0
0
0
0
0
0
0
0
0
0
0
0
0
0
0
0
0
0
0
0
0
0
0
0
0
0
0
0
0
0
0
0
0
0
0
0
0
0
0
0
0
0
0
0
0
0
0
0
0
0
0
0
0
0
0
0
0
0
0
0
0
0
0
0
0
0
0
0
0
0
0
0
0
0
0
0
0
0
0
0
0
0
0
0
0
0
0
0
0
0
0
0
0
0
0
0
0
0
0
0
0
0
0
0
0
0
0
0
0
0
0
0
0
0
0
0
0
0
0
0
0
0
0
0
0
0
0
0
0
0
0
0
0
0
0
0
0
0
0
0
0
0
0
0
0
0
0
0
0
0
0
0
0
0
0
0
0
0
0
0
0
0
0
0
0
0
0
0
0
0
0
0
0
0
0
0
0
0
0
0
0
0
0
0
0
0
0
0
0
0
0
0
0
0
0
0
0
0
0
0
0
0
0
0
0
0
0
0
0
0
0
0
0
0
0
0
0
0
0
0
0
0
0
0
0
0
0
0
0
0
0
0
0
0
0
0
0
0
0
0
0
0
0
0
0
0
0
0
0
0
0
0
0
0
0
0
0
0
0
0
0
0
0
0
0
0
0
0
0
0
0
0
0
0
0
0
0
0
0
0
0
0
0
0
0
0
0
0
0
0
0
0
0
0
0
0
0
0
0
0
0
0
0
0
0
0
0
0
0
0
0
0
0
0
0
0
0
0
0
0
0
0
0
0
0
0
0
0
0
0
0
0
0
0
0
0
0
0
0
0
0
0
0
0
0
0
0
0
0
0
0
0
0
0
0
0
0
0
0
0
0
0
0
0
0
0
0
0
0
0
0
0
0
0
0
0
0
0
0
0
0
0
0
0
0
0
0
0


VECTORS element_materi_velocity float
1.949080538460e-04 1.061755231957e-03 0.0 
2.110794016121e-04 9.320377670805e-04 0.0 
1.050413974000e-04 1.371164620984e-04 0.0 
1.352742185884e-05 2.234268482360e-04 0.0 
1.322515071995e-04 1.253838124882e-03 0.0 
-5.859931967487e-05 1.380761580581e-04 0.0 
9.951970253913e-05 1.243523623889e-03 0.0 
1.591740133341e-04 8.184934814245e-04 0.0 
1.101447850533e-04 1.251066629651e-03 0.0 
1.985126246585e-05 2.286449076055e-04 0.0 
1.407808709150e-05 -3.036185919553e-05 0.0 
9.629575579162e-05 8.156843528704e-04 0.0 
6.589362337259e-06 -1.251127296731e-06 0.0 
2.026079616353e-04 1.107704383613e-03 0.0 
5.442519824301e-06 -4.517978509458e-07 0.0 
1.093251598343e-05 1.578242451299e-04 0.0 
1.703575269873e-04 1.299217779859e-03 0.0 
-4.977087621543e-05 1.141481316372e-04 0.0 
5.876598556113e-06 -7.960071577512e-05 0.0 
4.939575213995e-06 -7.863888186225e-05 0.0 
2.363342308424e-05 2.342284778555e-04 0.0 
2.807888735121e-04 1.268045214624e-03 0.0 
3.165599184443e-04 1.240197054250e-03 0.0 
9.853968724889e-05 1.772941628713e-05 0.0 
2.371825256121e-04 9.495243841040e-04 0.0 
1.562792559725e-05 -2.655148597268e-05 0.0 
2.635869901273e-04 1.379048523456e-03 0.0 
1.364755311857e-04 7.809633420455e-05 0.0 
2.517303380064e-04 9.442423426112e-04 0.0 
8.053917186358e-05 1.479411630288e-05 0.0 
1.747895911436e-06 -1.119462295770e-05 0.0 
-1.835074507901e-06 -7.409545811123e-05 0.0 
1.211590923744e-04 1.698489294253e-04 0.0 
4.544822339757e-06 -1.081034585045e-05 0.0 
3.731052422199e-05 2.784336231174e-06 0.0 
1.029242085698e-05 4.411575147643e-07 0.0 
9.384455733889e-06 3.129145041411e-07 0.0 
1.016357066568e-04 3.329281299253e-05 0.0 
8.247221320011e-05 1.387440224715e-03 0.0 
7.500217615898e-05 1.389265226710e-03 0.0 
3.482197070416e-04 1.335554528991e-03 0.0 
3.720412619827e-05 4.788585655092e-06 0.0 
2.704695801743e-06 5.717897961182e-04 0.0 
2.775132576072e-04 1.321943038223e-03 0.0 
7.202837631881e-06 3.166417929120e-04 0.0 
7.020221412240e-06 5.000421700748e-04 0.0 
-1.417243651965e-05 -8.636005663513e-06 0.0 
8.194913980899e-06 2.688635559407e-04 0.0 
-3.394919340097e-05 -1.650736149673e-05 0.0 
1.976927856149e-04 1.178294345448e-03 0.0 
3.370809913932e-04 1.301642674492e-03 0.0 
7.014675452120e-06 -7.694494997762e-05 0.0 
4.113385267057e-05 -7.442311309755e-06 0.0 
3.258697893095e-04 1.377461813752e-03 0.0 
7.794028574276e-05 1.479121785912e-04 0.0 
1.471716182669e-05 -7.110549712189e-05 0.0 
5.917294013977e-06 -7.566542918154e-05 0.0 
9.219082619483e-06 -1.093034683410e-05 0.0 
9.882930085094e-06 -8.140879704101e-05 0.0 
1.313371461838e-05 1.591021821189e-04 0.0 
-6.277894563506e-05 2.045082295321e-05 0.0 
1.877423693411e-04 8.960776065784e-05 0.0 
3.533344794825e-04 6.610534919171e-04 0.0 
2.806900795067e-05 -1.133128027972e-05 0.0 
1.077116540621e-05 -1.042607883730e-06 0.0 
3.072808802315e-04 1.339980554862e-03 0.0 
-6.198212309463e-05 3.184570159142e-05 0.0 
1.284331657405e-04 1.607784541866e-04 0.0 
1.972448687255e-05 -6.377079801285e-05 0.0 
1.178513882654e-04 9.738184439204e-05 0.0 
2.365886326182e-05 -2.255689934500e-05 0.0 
1.319523910971e-05 4.414486188292e-05 0.0 
1.784992246417e-04 1.052005958664e-04 0.0 
5.226799510165e-07 -8.287697568483e-05 0.0 
1.360915963320e-05 -6.921557336073e-05 0.0 
4.622213888590e-05 2.044502288264e-04 0.0 
9.687922710503e-05 1.783409165864e-04 0.0 
-5.472619183270e-05 3.414700495868e-04 0.0 
1.187182775089e-05 -8.101142717887e-05 0.0 
-6.305885697472e-05 3.881094683840e-04 0.0 
2.038129621880e-05 -5.921821157739e-05 0.0 
1.609708254252e-04 1.260187812747e-03 0.0 
2.828253855773e-04 1.145001620352e-03 0.0 
2.314470920425e-04 1.171864513066e-03 0.0 
1.251079335588e-04 1.168045760981e-03 0.0 
1.145229644360e-04 1.163662536877e-03 0.0 
1.389243452963e-05 -1.971615461108e-05 0.0 
2.444622091035e-06 -1.338578587945e-05 0.0 
2.995362520680e-04 4.524238695572e-04 0.0 
1.423729344525e-04 1.248004800601e-03 0.0 
-1.227467774795e-06 -7.219924232318e-05 0.0 
2.735370191442e-04 1.200598526638e-03 0.0 
2.169803198522e-05 6.335658444191e-04 0.0 
2.628083503281e-05 6.850786037133e-04 0.0 
2.632421175555e-05 8.170872640984e-05 0.0 
7.391609760847e-05 2.499882224868e-05 0.0 
1.806735217729e-04 1.262260771459e-03 0.0 
4.249345190237e-05 4.750226645594e-06 0.0 
1.599621481634e-05 1.006336999258e-03 0.0 
3.301662913914e-04 7.268710060747e-04 0.0 
1.278714943565e-04 1.327402844338e-03 0.0 
7.004975853330e-06 -4.038469725695e-07 0.0 
3.022112745179e-04 1.367371106372e-04 0.0 
1.836249095772e-04 8.259357558725e-05 0.0 
2.223028708145e-04 3.962156004691e-04 0.0 
-1.897747535159e-05 -1.898421304079e-05 0.0 
7.658444399957e-06 -4.196391878940e-06 0.0 
2.200054962853e-05 5.458636626688e-04 0.0 
-4.716517494658e-05 -4.614299286815e-06 0.0 
1.302489035174e-05 8.831802952910e-08 0.0 
3.265282553803e-04 5.053832047462e-04 0.0 
8.249887956605e-07 -8.322331888751e-05 0.0 
3.502751422383e-04 3.393498148898e-04 0.0 
3.303710338881e-04 1.286848383780e-03 0.0 
2.627949729546e-05 -6.143749092163e-05 0.0 
2.832000904128e-04 6.954221403781e-04 0.0 
3.388686019808e-04 5.810513215157e-04 0.0 
2.645829903921e-05 2.342206559248e-06 0.0 
2.027025207867e-05 1.068379275355e-03 0.0 
2.963942745404e-04 5.541154356256e-04 0.0 
1.786360205257e-05 -7.320740962480e-05 0.0 
2.832409464263e-04 1.231772366113e-03 0.0 
1.737550261160e-05 5.003802702507e-04 0.0 
2.815695869584e-04 4.835236967554e-04 0.0 
-8.589013499821e-05 2.355263770676e-04 0.0 
3.486550632870e-04 1.341429372738e-03 0.0 
2.250366935345e-05 -6.307757190060e-05 0.0 
3.367651601926e-04 1.393809761864e-03 0.0 
3.520731383447e-05 1.445144522047e-04 0.0 
-6.085943434647e-05 2.172697298422e-04 0.0 
2.199588132149e-05 -2.606318061730e-05 0.0 
1.070838746228e-05 2.211846993855e-04 0.0 
4.357186038693e-04 9.217299015314e-04 0.0 
3.507560329240e-04 1.349584087198e-03 0.0 
4.042135615050e-05 3.479411234221e-06 0.0 
4.512449005799e-06 -1.276506132903e-06 0.0 
1.962253524926e-05 -1.952472684064e-05 0.0 
4.438364073904e-04 9.070654503553e-04 0.0 
5.595682675685e-05 9.900587309724e-06 0.0 
4.118012683140e-04 1.079124621696e-03 0.0 
2.690931940718e-05 1.625604835112e-04 0.0 
1.372652321674e-04 1.213787746055e-04 0.0 
2.149596457555e-04 1.098433306734e-03 0.0 
5.062756370962e-05 8.309559492311e-04 0.0 
4.192026105415e-04 1.007130427437e-03 0.0 
3.343043278896e-04 1.396278661364e-03 0.0 
4.533677135484e-04 8.275292704460e-04 0.0 
2.892097156035e-04 3.861083906472e-04 0.0 
9.487644038904e-05 1.316143882421e-03 0.0 
3.334819648562e-04 2.944639577589e-04 0.0 
1.743920777141e-06 -7.622714392467e-05 0.0 
2.292646463033e-05 1.203961358170e-03 0.0 
4.480693041547e-06 -8.084877744995e-05 0.0 
3.415632944825e-04 1.319813944222e-03 0.0 
4.487650480030e-05 7.690312999521e-06 0.0 
2.358996516079e-04 4.566294063627e-04 0.0 
1.056308318565e-05 -1.656651189772e-05 0.0 
5.924251703471e-05 6.184408330462e-04 0.0 
3.117093536223e-04 1.523801953449e-04 0.0 
5.360437807708e-05 1.267223777780e-03 0.0 
3.049047730558e-04 2.787739024021e-04 0.0 
1.039648681811e-05 -8.428736256839e-06 0.0 
1.891023943883e-05 -7.066442815880e-05 0.0 
1.074679462633e-05 -4.124372121518e-06 0.0 
3.742411402315e-04 1.101520787257e-03 0.0 
1.486159919354e-05 -3.470359125367e-07 0.0 
2.270793197751e-05 1.278755248657e-03 0.0 
2.494204291794e-04 3.641490424815e-04 0.0 
3.267068910613e-04 1.345995221499e-03 0.0 
9.001208963940e-06 -3.139532493608e-05 0.0 
5.156170966476e-05 7.103637571249e-04 0.0 
2.898972418320e-04 2.395100912741e-04 0.0 
4.429202142075e-05 7.526410254513e-04 0.0 
6.109487762267e-05 1.317831594164e-03 0.0 
3.065575507364e-04 3.530886340640e-04 0.0 
3.339432485986e-04 1.376239343998e-03 0.0 
2.859468273818e-04 2.928788430530e-04 0.0 
2.770611160887e-05 -5.760282545130e-05 0.0 
1.090513103285e-04 5.841008479144e-05 0.0 
1.418194837921e-04 1.130900181299e-04 0.0 
2.523339406472e-04 7.570849254722e-04 0.0 
2.481638167454e-05 -5.570937708830e-05 0.0 
1.508465249916e-04 3.209175798111e-05 0.0 
3.890304881207e-04 1.170168191671e-03 0.0 
1.917003824082e-04 7.139640681317e-04 0.0 
3.457428207624e-04 1.207114269597e-03 0.0 
3.393169792762e-04 3.719357507444e-04 0.0 
1.947249535202e-05 1.722055801052e-04 0.0 
2.902679256785e-04 5.398700371649e-04 0.0 
7.261452713189e-06 -6.165875312503e-06 0.0 
-2.978764194822e-05 4.120430426048e-04 0.0 
2.471577003192e-04 1.906829310457e-04 0.0 
2.879965243483e-04 4.619827879696e-04 0.0 
-1.411860815203e-04 1.570904547300e-04 0.0 
3.777042330951e-04 1.237301908071e-03 0.0 
1.569930425945e-04 2.080547350801e-05 0.0 
8.276587271966e-06 -8.180695804549e-05 0.0 
1.124692335126e-04 1.877855230871e-04 0.0 
2.678925989123e-04 7.804507475094e-04 0.0 
1.028796842550e-04 -4.921304726515e-05 0.0 
1.656461517237e-04 2.534798757356e-05 0.0 
2.752982807197e-04 1.124495049125e-03 0.0 
2.329067887485e-04 1.020497669204e-03 0.0 
7.540863943016e-05 1.274375194146e-05 0.0 
6.129374071598e-05 -6.656489223759e-05 0.0 
4.596767417601e-04 6.959970485036e-04 0.0 
3.994877549078e-04 9.900227420533e-04 0.0 
2.509218448417e-04 7.123840748701e-04 0.0 
3.694420299518e-04 1.047658153618e-03 0.0 
3.613653049586e-04 1.181978255574e-03 0.0 
3.273731972234e-04 1.394403337913e-04 0.0 
3.124348415990e-04 3.449725187015e-04 0.0 
-1.011272761942e-04 1.303989971651e-04 0.0 
2.694306646110e-04 8.760558529750e-04 0.0 
3.442167021065e-04 8.242058984880e-04 0.0 
4.555558793443e-04 7.662302384773e-04 0.0 
2.642526289754e-04 4.794825984286e-04 0.0 
-4.457375734987e-06 1.281770791523e-04 0.0 
1.550137881615e-04 1.366618137503e-05 0.0 
6.883512331842e-05 1.299223582377e-03 0.0 
2.602011354647e-04 2.245642317594e-04 0.0 
1.500379619622e-04 6.006013169764e-06 0.0 
4.738007807446e-06 -7.978392995629e-05 0.0 
2.458325009628e-04 6.391204756069e-04 0.0 
3.070101344260e-06 -8.012424934504e-05 0.0 
9.357632142423e-06 -8.184089141486e-05 0.0 
-3.601412476618e-05 4.688554985089e-04 0.0 
4.942119823272e-05 -7.024307909853e-05 0.0 
2.248058466271e-04 5.715407382567e-04 0.0 
4.506952260793e-05 -7.061376621798e-05 0.0 
5.137507862568e-05 3.106211524851e-04 0.0 
3.595811048076e-05 -3.781805459894e-05 0.0 
2.389496707742e-05 -7.412546572957e-05 0.0 
1.643750500328e-04 3.184565412370e-05 0.0 
3.895782722831e-04 1.070781420204e-03 0.0 
1.284923711902e-05 -9.222509209561e-07 0.0 
-1.239124811724e-04 1.331976500786e-04 0.0 
1.243191102187e-04 3.017947267455e-04 0.0 
3.026745701668e-04 2.182522139864e-04 0.0 
3.707571641509e-04 1.192601673331e-03 0.0 
1.641010408202e-04 1.801952136251e-05 0.0 
1.613659681561e-05 1.301233017013e-07 0.0 
3.006610487700e-04 6.096346597971e-04 0.0 
1.570457968940e-04 1.526869777967e-04 0.0 
1.561019058541e-04 2.709989754039e-05 0.0 
1.156080681796e-05 -2.323663247082e-05 0.0 
4.552548952815e-04 8.087952921170e-04 0.0 
2.794922208511e-04 7.006809129139e-04 0.0 
1.587845463755e-04 7.668240684891e-05 0.0 
2.877262932437e-04 1.857579000455e-04 0.0 
9.009441710128e-05 3.289749010996e-04 0.0 
3.684614394516e-04 9.135174028855e-04 0.0 
2.129979944712e-05 7.504077347035e-05 0.0 
4.575888769864e-04 6.387861624527e-04 0.0 
3.183269183436e-04 1.326104922771e-04 0.0 
5.195706296788e-05 1.177288885564e-03 0.0 
1.152108515431e-05 -5.552757198562e-05 0.0 
3.540794553768e-04 1.070503798661e-03 0.0 
1.651979827448e-04 1.823649007344e-04 0.0 
4.539214625864e-05 1.159558344869e-04 0.0 
1.108644983224e-05 -3.076692835079e-06 0.0 
2.117030752111e-04 5.751584601399e-04 0.0 
3.925198564370e-04 9.410755674114e-04 0.0 
3.077620925890e-04 4.450692390275e-04 0.0 
1.898236336051e-04 5.062164541998e-04 0.0 
3.028238985186e-04 5.297494721983e-04 0.0 
4.464146293440e-04 8.332739800069e-04 0.0 
1.868067064180e-05 1.025942911941e-06 0.0 
3.141052606605e-04 1.194669588327e-04 0.0 
4.309504292272e-04 8.407434163754e-04 0.0 
3.753118808275e-04 3.542429138358e-04 0.0 
3.218995045721e-04 1.264348427026e-04 0.0 
9.444761378748e-05 1.078195125365e-04 0.0 
2.488410737908e-04 1.227401348190e-03 0.0 
2.816514333417e-04 1.414376806405e-04 0.0 
1.245944898981e-04 6.785478414569e-06 0.0 
2.871115146888e-04 6.189307816285e-04 0.0 
-1.270128122487e-04 1.136313674426e-04 0.0 
3.472975287808e-04 1.011236088470e-03 0.0 
1.779316346095e-04 1.367480397631e-04 0.0 
1.177561857614e-04 2.596428052117e-04 0.0 
9.067560127286e-05 8.556819686511e-05 0.0 
3.712041493884e-04 8.374784414935e-04 0.0 
4.779731003905e-06 -7.239688540901e-05 0.0 
3.825923416125e-04 9.326100234328e-04 0.0 
3.130281370272e-04 1.135050238919e-04 0.0 
3.778112635326e-04 9.679716119223e-04 0.0 
2.498494727106e-04 1.134749364855e-03 0.0 
-2.369470799223e-05 9.801552297498e-05 0.0 
1.311933285994e-04 1.989742344699e-05 0.0 
1.006406429620e-04 -1.054032721709e-05 0.0 
3.143472250917e-04 9.117279602942e-04 0.0 
2.937385683855e-04 6.921285910772e-04 0.0 
3.773834373844e-04 8.407087210043e-04 0.0 
2.594866566898e-04 1.304515140713e-04 0.0 
2.619055297633e-04 1.731344766195e-04 0.0 
-2.933540847332e-06 1.041568372059e-04 0.0 
3.798534793508e-04 3.221033067094e-04 0.0 
-1.511997589797e-05 2.781073309263e-04 0.0 
4.014653314943e-05 7.253615828507e-05 0.0 
5.169007565539e-05 7.349949449811e-05 0.0 
4.572770226021e-04 5.787841780695e-04 0.0 
1.273922139814e-04 1.419425930759e-04 0.0 
7.879607167523e-05 2.098373173602e-04 0.0 
4.323944320677e-04 7.663773278407e-04 0.0 
1.028658412186e-04 1.592660644456e-04 0.0 
1.060372043424e-04 8.149738857317e-07 0.0 
4.489028948277e-04 8.618988386311e-04 0.0 
3.500261023689e-05 1.975336700553e-04 0.0 
2.175471625191e-04 1.773323755229e-04 0.0 
3.396695351641e-04 1.584923439364e-04 0.0 
1.699584409938e-05 2.551908799338e-04 0.0 
2.849803290232e-05 6.443465712651e-06 0.0 
1.074075571815e-04 1.892710416986e-04 0.0 
4.585911277818e-04 7.355116873370e-04 0.0 
2.195730189089e-05 8.635282919975e-05 0.0 
2.266949026854e-04 3.421142654453e-05 0.0 
2.965247945569e-04 1.684383314983e-04 0.0 
1.118882837289e-04 -1.533999836964e-05 0.0 
4.133706838462e-04 9.558050237144e-04 0.0 
5.229464343833e-05 5.168714243443e-05 0.0 
2.226663765266e-04 1.332721183097e-04 0.0 
2.991539582182e-04 9.634183028371e-05 0.0 
1.804780913614e-05 2.202252901272e-04 0.0 
1.717189685243e-04 8.734829979075e-04 0.0 
1.592638256367e-04 1.002004740162e-05 0.0 
1.412837573476e-04 4.038230622169e-04 0.0 
1.700516239271e-04 9.483069970613e-04 0.0 
5.940961498697e-05 4.240859701694e-05 0.0 
1.405854305872e-04 1.285415373630e-05 0.0 
5.362228162494e-05 5.960733356705e-05 0.0 
2.088905268459e-04 9.488316672037e-04 0.0 
3.371494653941e-04 4.911154965681e-04 0.0 
5.519371887998e-05 4.095317578523e-04 0.0 
4.054620905680e-04 1.081436243335e-03 0.0 
4.193710229022e-04 8.773534085568e-04 0.0 
4.100778253381e-04 8.340273396397e-04 0.0 
4.439719858680e-04 5.812743982709e-04 0.0 
5.851812035190e-05 3.401511457775e-05 0.0 
2.630287341051e-04 1.007296440917e-03 0.0 
3.432560814603e-04 1.149502446323e-03 0.0 
2.485392544246e-04 1.448287415031e-04 0.0 
3.683723467852e-05 -7.276777568189e-05 0.0 
3.756230085250e-04 1.203466329582e-03 0.0 
1.764836944309e-04 3.719939913011e-04 0.0 
4.595547028089e-05 1.313245465616e-03 0.0 
1.057222370791e-04 -2.453926926962e-05 0.0 
2.064221140652e-04 1.482272979033e-04 0.0 
2.511562300689e-04 5.617944514192e-04 0.0 
1.651645552890e-04 3.209611649598e-04 0.0 
4.174477677598e-04 9.988258195764e-04 0.0 
2.886858038386e-04 8.625464999748e-05 0.0 
1.491473156963e-04 -1.913067335762e-05 0.0 
4.868622755135e-05 2.115819503391e-05 0.0 
3.898827961082e-04 1.204136915934e-03 0.0 
1.229785960386e-04 4.348830997240e-05 0.0 
1.009651503438e-04 -5.045216743290e-05 0.0 
1.722716108621e-04 6.193335949841e-04 0.0 
1.516327000015e-04 4.656687222016e-04 0.0 
2.588073501899e-04 4.053922237041e-04 0.0 
4.548091460100e-04 7.139586574251e-04 0.0 
3.780719462973e-04 1.112275200052e-03 0.0 
4.038136141338e-04 1.124219711910e-03 0.0 
4.070621957947e-05 1.228509753089e-05 0.0 
1.025738391611e-04 3.141289987489e-05 0.0 
2.476194276570e-04 4.127714691964e-04 0.0 
2.596769385561e-04 6.336144878722e-04 0.0 
1.527746147232e-04 -2.033797007700e-05 0.0 
3.869274160208e-04 6.819165471131e-04 0.0 
1.215388547528e-04 1.164474550778e-04 0.0 
1.690130825176e-04 1.117345704327e-04 0.0 
4.608248084645e-04 6.840124756923e-04 0.0 
2.368560283140e-04 3.813927139006e-05 0.0 
7.365669515866e-05 -4.956395614620e-05 0.0 
2.128559474823e-04 4.284998667759e-04 0.0 
1.171528070496e-04 2.767450206993e-05 0.0 
4.193640001289e-04 5.145934058898e-04 0.0 
4.370731366214e-04 8.776672888754e-04 0.0 
3.888085488372e-04 5.507970917858e-04 0.0 
5.306670869769e-05 6.638159142081e-05 0.0 
4.731079048973e-05 7.562041318267e-05 0.0 
1.181888775073e-04 1.860556042391e-04 0.0 
1.542420612771e-04 -1.380195464529e-05 0.0 
1.777614492359e-04 5.073746550965e-04 0.0 
9.573992508824e-05 3.799704102297e-04 0.0 
2.110817140005e-04 1.088072991302e-04 0.0 
4.455431246243e-05 9.295289977922e-05 0.0 
4.057551305658e-04 9.349247972078e-04 0.0 
2.245560109815e-04 1.238543128414e-03 0.0 
1.956253765988e-04 9.501017384789e-04 0.0 
7.263810092930e-05 1.614376439169e-05 0.0 
2.803388001807e-04 3.894397060033e-04 0.0 
3.533102792747e-04 9.339362343898e-04 0.0 
4.102780379872e-04 7.600604006787e-04 0.0 
6.655451855496e-05 7.838833698829e-05 0.0 
-1.619212434635e-06 -5.991486492275e-05 0.0 
3.428584593847e-04 2.684136320549e-04 0.0 
4.356191525041e-04 4.744324907675e-04 0.0 
3.641932352901e-04 2.811598820594e-04 0.0 
-9.298564981401e-05 2.698442170855e-04 0.0 
4.321352001650e-05 1.138431811884e-03 0.0 
3.149504039187e-05 -7.254716293281e-05 0.0 
1.473901596671e-04 2.368099644642e-04 0.0 
1.524086876405e-05 3.629802908263e-06 0.0 
2.987991582801e-04 1.081731703483e-04 0.0 
3.282895829801e-04 1.167273647899e-03 0.0 
2.796368505118e-06 -8.129860305470e-05 0.0 
4.507006549827e-04 6.415024929799e-04 0.0 
3.270585959192e-04 2.314656994104e-04 0.0 
3.851437048437e-04 8.143888632742e-04 0.0 
5.574664395944e-05 4.917382468892e-05 0.0 
3.914755240297e-04 1.119174125623e-03 0.0 
4.410871581439e-04 7.286446239147e-04 0.0 
8.067293938882e-05 -4.842242510255e-05 0.0 
2.144852673189e-04 5.008432443136e-04 0.0 
1.483428028606e-04 -1.251664090345e-05 0.0 
5.949272311781e-05 4.728401145296e-05 0.0 
2.738041268895e-05 3.218382836478e-05 0.0 
1.883952230635e-05 3.621747654447e-05 0.0 
2.600377964665e-05 3.930173144208e-05 0.0 
3.838324480509e-04 7.410260841532e-04 0.0 
2.269912131676e-04 4.966029452108e-04 0.0 
2.370768914221e-04 3.413036830523e-04 0.0 
4.016632678958e-04 6.206478227403e-04 0.0 
3.969259632076e-04 7.642368837870e-04 0.0 
6.167818102113e-05 -5.431498775328e-05 0.0 
2.245552017618e-04 4.240078124165e-04 0.0 
5.933199465841e-05 3.818513545862e-05 0.0 
1.780231217096e-04 4.364628341719e-04 0.0 
3.153952419331e-04 1.183331054882e-04 0.0 
1.895819840075e-04 4.347073461688e-04 0.0 
3.854057091744e-04 2.917669002769e-04 0.0 
4.230826348720e-04 4.675516210556e-04 0.0 
4.037466124946e-04 1.017847524133e-03 0.0 
4.769162269364e-05 1.986699004728e-04 0.0 
5.075177978663e-05 1.594186077340e-04 0.0 
3.596068194605e-04 5.320636457573e-04 0.0 
1.850309232184e-04 1.226639881220e-04 0.0 
6.813948095313e-05 -5.348458045912e-05 0.0 
8.526018548068e-05 -3.718927612856e-05 0.0 
5.606872798273e-05 1.203736727347e-05 0.0 
1.945274907885e-04 2.943378982253e-04 0.0 
2.624186893599e-05 2.742350520227e-05 0.0 
8.508925415834e-05 1.422666277223e-04 0.0 
4.524777690328e-04 6.467488084144e-04 0.0 
-1.119630381070e-05 -5.859495235094e-05 0.0 
2.969386945710e-05 2.491018745675e-05 0.0 
6.862638562394e-05 1.827990783234e-05 0.0 
9.029925077391e-05 -2.946819069978e-05 0.0 
2.891607471801e-04 9.065558669308e-05 0.0 
4.799818035828e-05 1.902626897431e-05 0.0 
-1.886061678301e-05 -6.052648643190e-05 0.0 
3.993117177377e-04 5.021476417969e-04 0.0 
4.378145601587e-04 6.599513998887e-04 0.0 
4.593732532068e-04 6.194220817041e-04 0.0 
4.489846480259e-04 7.586174035809e-04 0.0 
8.184065638310e-05 2.450246096757e-04 0.0 
2.961076132626e-05 2.003477302073e-05 0.0 
2.460965179797e-04 1.068310807627e-04 0.0 
-1.865014739241e-05 7.450684690732e-05 0.0 
2.419454290815e-05 1.256461050244e-06 0.0 
-1.224984622101e-05 -6.209765405582e-05 0.0 
4.109507414906e-04 1.113206468072e-03 0.0 
1.196947151583e-05 -2.337623446100e-05 0.0 
3.608499215054e-04 1.235531092480e-03 0.0 
3.578897594273e-05 9.742070433727e-06 0.0 
2.879688701975e-05 1.586475213986e-05 0.0 
3.971095878113e-04 8.635317801553e-04 0.0 
-8.824255429605e-06 -2.933701578330e-05 0.0 
-3.644265380958e-05 6.858296915852e-05 0.0 
6.202359006728e-06 -3.117041990932e-05 0.0 
7.530730620650e-05 -9.500648331081e-07 0.0 
2.358432298045e-04 1.279897713517e-03 0.0 
3.235011425666e-04 1.105916547119e-03 0.0 
2.487745259996e-05 1.128600408051e-05 0.0 
2.120272885762e-04 1.289400651911e-03 0.0 
3.520896634381e-05 7.168830394346e-05 0.0 
3.645038088644e-04 2.559789134950e-04 0.0 
1.800069306488e-04 1.026785800830e-03 0.0 
2.135990297518e-04 5.697010522769e-04 0.0 
3.019960064655e-04 1.055708485756e-04 0.0 
2.127130079945e-05 1.333760058538e-04 0.0 
2.418940540689e-05 9.154078020914e-06 0.0 
2.568629600874e-05 3.419776305603e-05 0.0 
2.130701084308e-05 3.631868174059e-05 0.0 
1.387447809148e-04 -1.603574553110e-05 0.0 
5.044560439103e-05 -5.850480764778e-05 0.0 
4.098520211412e-04 4.153751362137e-04 0.0 
1.321947434267e-04 -1.426706444536e-05 0.0 
2.207536081821e-05 7.009460033237e-06 0.0 
1.400861157950e-04 2.016254932666e-04 0.0 
1.358568385786e-04 1.173099744578e-06 0.0 
1.372403792214e-04 -1.336620752457e-05 0.0 
1.577413273805e-04 9.460517814580e-04 0.0 
2.512191176267e-05 5.132159519832e-06 0.0 
-1.287769952437e-05 -3.637447465332e-05 0.0 
1.715811718148e-05 4.466432936078e-06 0.0 
1.145411935858e-04 -2.754955278951e-05 0.0 
2.605277450234e-05 2.426363723216e-05 0.0 
2.470686136932e-04 3.349100837639e-04 0.0 
-2.621162507114e-05 -5.503425602442e-05 0.0 
3.911387085756e-04 4.035697433194e-04 0.0 
1.555241663650e-04 4.369970956707e-04 0.0 
2.979885366071e-05 2.237382399621e-05 0.0 
3.959985436676e-04 7.162020620732e-04 0.0 
3.355832735729e-04 2.040172376776e-04 0.0 
-9.583438083660e-06 2.101014103174e-04 0.0 
1.075112823724e-04 2.584593734956e-05 0.0 
1.146316823906e-04 -3.649167834298e-05 0.0 
1.294004256673e-04 -2.211941347729e-05 0.0 
-3.601323247046e-05 -2.506711276326e-05 0.0 
2.972123333215e-05 1.815036243788e-05 0.0 
7.116436486579e-05 1.236425873673e-04 0.0 
1.327282101634e-04 1.522118511591e-05 0.0 
1.759206902424e-04 1.109589341213e-03 0.0 
7.271920923862e-05 -5.928049193236e-05 0.0 
1.285471937897e-04 -9.597075936809e-06 0.0 
4.210152383918e-04 7.290203810610e-04 0.0 
2.380877495139e-05 9.872190953397e-06 0.0 
4.938120408452e-05 -5.552403689900e-05 0.0 
1.427868378102e-04 -1.792130239507e-06 0.0 
4.477925141200e-04 4.766837180370e-04 0.0 
2.008219199612e-04 1.322616998161e-05 0.0 
1.535064675156e-04 7.677532989912e-06 0.0 
1.509928436617e-04 -7.506458027068e-06 0.0 
4.516898242755e-04 5.274062500731e-04 0.0 
3.944536332513e-04 3.704697556150e-04 0.0 
2.811759947673e-04 9.566371620916e-05 0.0 
4.338169306424e-04 4.294471530433e-04 0.0 
8.884320100503e-05 -4.968740643561e-05 0.0 
1.833160196239e-04 2.523386192634e-04 0.0 
5.636744725908e-05 -5.792736066619e-05 0.0 
3.586522885743e-04 2.341315392773e-04 0.0 
2.935744532972e-04 9.014663135833e-05 0.0 
3.239898594553e-05 8.096235844341e-06 0.0 
1.531754947515e-04 3.698039977200e-04 0.0 
6.237808276088e-05 -6.256116355282e-05 0.0 
1.863085876126e-05 5.275637497649e-06 0.0 
7.982206394752e-05 1.992433025730e-05 0.0 
3.663954197603e-04 2.552492125505e-04 0.0 
-2.509495851584e-05 -3.458142317733e-05 0.0 
2.243634215332e-05 4.146775800123e-06 0.0 
1.852083091784e-04 3.663055929845e-04 0.0 
9.400017987569e-05 -3.961358453677e-05 0.0 
1.325716413827e-05 2.813662804388e-06 0.0 
1.336448627720e-04 -9.547411875117e-06 0.0 
4.233584933543e-04 8.520186038791e-04 0.0 
3.316857144508e-04 1.028877635352e-03 0.0 
2.996543881946e-04 1.003419410967e-04 0.0 
1.394758544557e-04 -2.289615821687e-05 0.0 
2.148154309795e-04 2.594792933776e-05 0.0 
2.826185373284e-04 7.742535732879e-04 0.0 
4.370621044195e-04 9.686692447997e-04 0.0 
2.827290687641e-04 1.086691697347e-04 0.0 
4.093267852579e-05 1.052520596141e-03 0.0 
8.167407983267e-05 -5.121910746229e-05 0.0 
2.745765758194e-04 8.071932139656e-05 0.0 
1.076310760342e-04 -4.231441930686e-05 0.0 
7.074184288741e-05 -2.471731323842e-05 0.0 
-3.614130567259e-05 -4.388556541203e-05 0.0 
2.329641882953e-04 3.133041665790e-04 0.0 
1.078582016756e-04 -3.490278262787e-05 0.0 
7.191336348770e-05 -4.651025964104e-05 0.0 
3.953721566447e-04 3.015575935496e-04 0.0 
1.428449410612e-04 -6.305910084482e-06 0.0 
1.548452983775e-04 1.019925431824e-03 0.0 
8.842282966138e-05 -4.571741183098e-05 0.0 
1.186474762440e-05 2.318496715443e-06 0.0 
4.433806730636e-04 6.227143305443e-04 0.0 
6.269379277384e-05 -4.417721950920e-05 0.0 
4.548081955469e-04 6.037114443382e-04 0.0 
6.505584179111e-05 -4.738219006875e-05 0.0 
-2.712943844793e-05 -5.098880072999e-05 0.0 
3.225469377831e-04 9.669042114012e-04 0.0 
1.723457571760e-05 -5.965545831629e-05 0.0 
2.267157239168e-06 -8.115652411365e-05 0.0 
5.200392969445e-05 -4.869902879629e-05 0.0 
1.325344611470e-04 -8.545403245146e-07 0.0 
4.365849010940e-05 4.607104934735e-04 0.0 
2.204682028064e-04 2.322127817149e-05 0.0 
2.125630324755e-04 2.066598193646e-05 0.0 
3.155067872035e-04 1.245594719148e-03 0.0 
2.099597389825e-04 1.383162339035e-03 0.0 
6.085858766053e-05 1.468961064429e-04 0.0 
4.579133321181e-04 5.714046701322e-04 0.0 
2.171283680783e-06 -8.163149159511e-05 0.0 
2.234500020605e-05 -7.598428568363e-05 0.0 
-1.751294657291e-05 -4.823564325430e-05 0.0 
5.781660781125e-05 -6.756869144442e-05 0.0 
2.905052029956e-04 2.796585708937e-04 0.0 
4.994734447837e-05 4.654878977681e-04 0.0 
7.991628494953e-05 -3.688194716436e-06 0.0 
5.400645452559e-05 -6.764704912928e-05 0.0 
6.392262995802e-05 -2.570568788475e-05 0.0 
1.162756129110e-04 1.373978213994e-05 0.0 
2.259129167596e-05 6.568210499315e-05 0.0 
1.219769350858e-05 -5.969963742124e-05 0.0 
8.134696340578e-06 -6.758039300184e-05 0.0 
2.041610512289e-05 3.340758912149e-06 0.0 
1.057159452892e-05 1.828279084680e-06 0.0 
1.298265728343e-05 -5.370962334151e-05 0.0 
5.601701474574e-05 -4.486245607261e-05 0.0 
1.349725780907e-04 -2.108654413219e-05 0.0 
1.119928764090e-04 1.775432067729e-05 0.0 
2.708927454285e-05 -7.615958623908e-05 0.0 
1.185094832035e-04 8.984472748410e-06 0.0 
7.527666037609e-06 -8.222652206287e-05 0.0 
5.396273946150e-05 -5.189789603220e-05 0.0 
7.661269942465e-05 -4.237939527516e-05 0.0 
4.902779806527e-06 -8.280092939978e-05 0.0 
1.024027229216e-05 -5.667775680759e-05 0.0 
1.427387237760e-04 3.691800583223e-04 0.0 
2.967285549972e-06 -8.260462853983e-05 0.0 
2.320693451764e-04 1.367928025302e-03 0.0 
2.408448489650e-04 1.403710984682e-03 0.0 
2.266073568189e-04 3.886398042781e-05 0.0 
4.034378136127e-06 -6.780133182702e-05 0.0 
9.528024510489e-05 -4.682935088596e-05 0.0 
4.968424236475e-05 2.688227825950e-04 0.0 
5.057533727508e-05 -1.726776669747e-07 0.0 
1.132040177910e-04 7.487933375402e-05 0.0 
9.082119775402e-05 5.596189493463e-04 0.0 
2.004294178783e-04 4.942534571794e-04 0.0 
1.077650458401e-05 -7.424073301831e-05 0.0 
4.164792993441e-04 1.077553752056e-03 0.0 
1.495779163783e-04 1.393964169385e-03 0.0 
1.397787876395e-04 1.441116820122e-03 0.0 
3.244112307913e-06 -8.227417811609e-05 0.0 
5.591779292492e-06 -8.253394397394e-05 0.0 
4.346937391616e-06 -8.215236778783e-05 0.0 
3.830426299601e-05 -7.417662071923e-05 0.0 
3.880482810929e-06 -8.303116528055e-05 0.0 
1.074698569512e-05 -5.033430240092e-05 0.0 
-6.194343105435e-05 -1.999691666583e-06 0.0 
4.733378313670e-05 -7.037999073868e-05 0.0 
3.658117981453e-05 8.838777668888e-04 0.0 
1.976317715149e-04 1.432439172274e-03 0.0 
2.522891676187e-04 2.553579604948e-04 0.0 
1.251662817672e-04 -7.960973726187e-06 0.0 
3.275508810051e-05 1.018393499828e-03 0.0 
2.186171756220e-06 -6.529797296144e-05 0.0 
4.762738978881e-06 -8.244056644605e-05 0.0 
7.517492538131e-06 3.997574710754e-05 0.0 
1.717680305840e-05 8.315360471750e-05 0.0 
1.630693545178e-04 1.104984187810e-03 0.0 
1.690621948247e-04 1.394858683623e-03 0.0 
1.093461802887e-05 -6.504952542519e-05 0.0 
1.111340557979e-05 7.914559150411e-05 0.0 
4.486302289865e-05 -7.195429512423e-05 0.0 
2.187145767597e-04 1.420335127322e-03 0.0 
1.889128365912e-04 1.392122564089e-03 0.0 
3.710481961905e-04 1.252939210065e-03 0.0 
1.636944403746e-05 3.547082739899e-05 0.0 
1.350970012073e-05 7.879830669985e-05 0.0 
4.581813396368e-06 -8.280085877684e-05 0.0 
3.480644247626e-06 -8.292029557523e-05 0.0 
1.633768120498e-05 -7.711993684768e-05 0.0 
8.393201252280e-05 -4.121405153020e-05 0.0 
4.968741231947e-06 -2.593414233073e-06 0.0 
-7.655567922680e-05 1.152466571980e-05 0.0 
1.161657174550e-05 5.821580105744e-04 0.0 
-4.848971623390e-05 -2.243808207802e-05 0.0 
2.038368674146e-04 2.342587856116e-05 0.0 
-4.779525068052e-05 -2.959184335245e-05 0.0 
-6.120393327218e-05 -1.126372319126e-05 0.0 
1.920508908657e-04 1.191727889232e-05 0.0 
1.996027034603e-05 -3.326095102638e-06 0.0 
3.063172000136e-05 9.338109879581e-04 0.0 
4.402414101237e-04 9.422366114045e-04 0.0 
3.800365000711e-06 -8.292489320097e-05 0.0 
5.246296401669e-05 -2.344258109916e-05 0.0 
2.632835363725e-06 4.726330378462e-05 0.0 
5.197413245666e-06 8.006650796012e-05 0.0 
1.776483031466e-04 1.438495308128e-03 0.0 
2.131650211378e-04 3.491567559735e-05 0.0 
5.992207582598e-06 3.882255959231e-05 0.0 
3.288883749528e-04 1.861926222150e-04 0.0 
2.912385841899e-06 -8.249620476181e-05 0.0 
2.799355426674e-06 -8.316927718568e-05 0.0 
2.327177855128e-06 -8.302878740474e-05 0.0 
2.472469138430e-06 -5.969934279019e-05 0.0 
3.995739400215e-06 -2.876855355771e-08 0.0 
1.406214438224e-06 2.178813262805e-04 0.0 
2.303949746004e-06 -8.349567604082e-05 0.0 
5.532131565416e-06 -5.010947759435e-05 0.0 
1.350349422532e-06 -2.528882875088e-08 0.0 
5.667539923577e-06 8.699702133409e-08 0.0 
1.861470378636e-05 2.683234783597e-06 0.0 
6.487097632116e-06 7.283579487539e-04 0.0 
2.564195984537e-06 5.085229338621e-04 0.0 
2.645389977683e-06 -3.479724806836e-09 0.0 
3.022149945894e-06 9.047674614093e-08 0.0 
5.684117765381e-06 5.822133316836e-04 0.0 
1.670174519479e-06 -8.367984653301e-05 0.0 
1.052174233421e-04 1.443479387003e-03 0.0 
1.586549544343e-04 1.441117898055e-03 0.0 
3.108698787939e-06 -8.327928472106e-05 0.0 
5.128751646976e-06 4.603098178353e-07 0.0 
1.733164056945e-05 2.150445576050e-06 0.0 
8.561447377056e-06 9.796906199213e-07 0.0 
2.533175297051e-06 -8.349941149662e-05 0.0 
3.029826634796e-06 -8.316848563868e-05 0.0 
9.844510593969e-06 1.512479827469e-06 0.0 
8.770193192393e-06 1.170754956128e-06 0.0 
3.367175851272e-06 8.036060766353e-04 0.0 
5.514376562965e-05 1.444310426077e-03 0.0 
3.119921780844e-06 6.544661975744e-04 0.0 
4.078129225215e-06 1.100047798230e-03 0.0 
2.352640750710e-05 1.443084382476e-03 0.0 
5.064164711883e-07 -8.009775617448e-05 0.0 
-6.075311326973e-06 -7.452681809870e-05 0.0 
-1.123506336644e-05 -6.987533801589e-05 0.0 
-1.796985391950e-05 -6.348972233930e-05 0.0 
2.841424713637e-06 -4.671004987260e-05 0.0 
2.690706851779e-06 -5.345699519281e-05 0.0 
-6.628682792664e-06 -7.301910224864e-05 0.0 
3.012652546610e-06 -2.625345678080e-05 0.0 
-1.202153013853e-05 -6.768654175267e-05 0.0 
1.312897264584e-05 3.756386452693e-05 0.0 
5.121197997190e-06 4.032303191180e-05 0.0 
9.659310520273e-06 4.317785760996e-05 0.0 
1.032435398395e-06 -8.008565183050e-05 0.0 
1.848206379907e-06 -7.015964036176e-05 0.0 
4.834033998670e-06 4.854124077370e-05 0.0 
2.100200248722e-06 -8.273353787635e-06 0.0 
2.564577881940e-06 3.280320417550e-05 0.0 
1.539226174801e-06 -4.171276968147e-06 0.0 
9.323231216556e-07 -1.431656943778e-06 0.0 
5.163175990210e-06 -5.664995346547e-05 0.0 
9.955231995860e-06 8.886427268550e-05 0.0 
7.398611880611e-06 8.134444494920e-05 0.0 
3.639426423523e-06 -6.130493826949e-06 0.0 
2.471549296457e-06 -2.603680807834e-06 0.0 
3.114442442143e-05 -1.865705341309e-05 0.0 
-3.697944405384e-05 -3.854434199344e-05 0.0 
4.356866658965e-05 -5.594977398045e-05 0.0 
4.767436901693e-06 -8.232293034858e-05 0.0 
4.686500847700e-05 -1.057831446388e-06 0.0 
6.033787353006e-05 -5.126629386807e-05 0.0 
3.617272199272e-05 -8.684353939715e-06 0.0 
3.506253650348e-05 -7.522143259278e-05 0.0 
9.487674387820e-06 -8.136044134645e-05 0.0 
2.503116395908e-05 -4.846463055970e-06 0.0 
4.573737780248e-05 -4.920483425146e-05 0.0 
9.306768962850e-06 -6.255408612888e-05 0.0 
3.165249541584e-05 -9.263129090218e-06 0.0 
1.602826566259e-05 3.689021484202e-04 0.0 
4.658640894650e-06 -6.258159483995e-05 0.0 
1.296057110020e-04 2.929513797915e-06 0.0 
9.240612573984e-05 -2.082834858739e-05 0.0 
3.678845013082e-05 -1.812305641643e-05 0.0 
2.672196119628e-05 -1.581598407812e-05 0.0 
2.235644531885e-04 9.674348901501e-05 0.0 
4.215429586709e-04 1.055327890235e-03 0.0 
3.966569101240e-04 3.328932979965e-04 0.0 
5.881945700794e-05 -2.264832023414e-05 0.0 
2.244900810899e-05 -7.610915932115e-06 0.0 
1.754490623625e-05 -1.350953008629e-05 0.0 
4.875532438919e-05 -6.827289460829e-05 0.0 
3.047581463749e-05 3.803910370509e-04 0.0 
3.886007137017e-05 5.272677135458e-04 0.0 
7.124675690308e-05 1.219978206883e-03 0.0 
6.599911091810e-05 -1.788612492895e-05 0.0 
4.747124392517e-05 -2.041385655438e-05 0.0 
2.074689486843e-05 3.765930565530e-04 0.0 
2.655558120270e-05 4.522542671622e-04 0.0 
9.833487968855e-05 -2.353671860830e-05 0.0 
1.691876177523e-05 -3.687399424140e-06 0.0 
8.226633357825e-05 5.553469127108e-04 0.0 
1.246316262904e-05 -1.364835793169e-05 0.0 
3.427760886763e-05 -7.761573718316e-07 0.0 
3.557353709560e-05 3.840837292669e-04 0.0 
6.844774086809e-05 7.629884008045e-04 0.0 
1.241139833931e-04 -3.781882020559e-06 0.0 
1.899478837286e-05 -7.640411784625e-05 0.0 
4.585816374142e-05 -6.483680494083e-05 0.0 
1.080055060779e-05 -7.629444028712e-05 0.0 
-2.675563565261e-05 -4.090489113310e-05 0.0 
3.216185899970e-05 4.521121252796e-04 0.0 
1.798833828040e-05 -5.669475799440e-06 0.0 
-1.872488774949e-05 -5.297832943260e-05 0.0 
2.170691593072e-04 3.545290523689e-04 0.0 
8.394956166995e-05 1.145786595422e-03 0.0 
4.199795934542e-05 -1.095719017773e-05 0.0 
2.280072740858e-05 -1.025010282674e-05 0.0 
9.428053966035e-05 -5.165500256991e-05 0.0 
1.838674145855e-05 -1.064354339582e-05 0.0 
8.051074958896e-05 1.222701701642e-03 0.0 
2.697886715921e-04 8.312512913992e-05 0.0 
2.605456655066e-05 -4.746688032638e-08 0.0 
1.007697884580e-05 -7.660203291303e-05 0.0 
4.394965621532e-05 1.295650072009e-06 0.0 
5.286335299708e-05 6.809735811994e-04 0.0 
1.599514889293e-05 -7.475794373942e-05 0.0 
5.809921270035e-05 -6.557805101779e-05 0.0 
2.512343273714e-05 -3.995965686107e-05 0.0 
9.298893519102e-05 9.234054262881e-04 0.0 
5.099921900775e-05 -6.393556136769e-05 0.0 
3.909825424145e-05 5.985543350471e-04 0.0 
5.891659147778e-05 8.312510996383e-04 0.0 
5.318309438005e-05 -4.156068756960e-05 0.0 
2.137492751248e-05 -1.623625628188e-05 0.0 
2.730592587009e-05 -1.269581731345e-05 0.0 
4.543291252774e-05 6.756708722254e-04 0.0 
1.963097050192e-05 -7.889648230036e-05 0.0 
4.327438439510e-05 -4.591865545290e-05 0.0 
2.320986964638e-04 9.556072835794e-05 0.0 
6.040721980296e-05 6.135800934007e-04 0.0 
4.188365007465e-05 -5.282943856882e-05 0.0 
8.493619575237e-05 -2.230701657634e-05 0.0 
5.797423978710e-05 1.783660077676e-06 0.0 
6.001148965825e-05 7.582388848326e-04 0.0 
-3.268790420708e-05 4.927141866186e-05 0.0 
1.081827442427e-05 -8.009493578629e-05 0.0 
6.460389789009e-05 5.865860025769e-05 0.0 
2.645032521688e-05 -7.149207510147e-06 0.0 
7.603423303748e-05 8.406388001548e-04 0.0 
1.833449780221e-05 -3.354335377266e-05 0.0 
9.735897091808e-05 1.075157899635e-03 0.0 
1.100013741964e-04 1.100149706603e-05 0.0 
4.353216973722e-05 -3.875862534785e-05 0.0 
3.215637676946e-05 -1.217055199890e-05 0.0 
1.599528340882e-05 -7.645500066444e-05 0.0 
3.760967759530e-05 -1.117919246736e-07 0.0 
4.670701592138e-05 -4.211108149473e-05 0.0 
1.266023963731e-05 -7.487746681306e-05 0.0 
3.721575117450e-05 -4.622099917703e-05 0.0 
4.547422959249e-05 -6.179950100799e-05 0.0 
4.300290529097e-05 -7.111868926176e-05 0.0 
2.421277844680e-05 -3.291653584253e-05 0.0 
6.206709919882e-07 -7.949009983947e-05 0.0 
-2.308852458319e-06 -7.686132676781e-05 0.0 
4.155415142931e-05 -2.107010672465e-05 0.0 
1.834495935833e-05 -7.786537940455e-05 0.0 
5.964864322071e-05 -1.884482159795e-05 0.0 
7.198913763472e-05 -2.070124891879e-05 0.0 
7.524948606576e-05 -5.518149760409e-05 0.0 
7.568950711404e-05 -4.972773120639e-05 0.0 
7.076897115610e-05 4.793494711454e-04 0.0 
-4.645722798859e-05 1.514222703330e-04 0.0 
3.933469803917e-05 -5.930623975585e-05 0.0 
1.056105988042e-04 1.489848642757e-05 0.0 
1.500886277713e-05 -7.924259342247e-05 0.0 
9.059262653511e-05 9.967304047497e-04 0.0 
9.365122727651e-05 1.150586710390e-03 0.0 
2.506987381031e-05 -7.740537348071e-05 0.0 
7.417707537071e-05 2.784579633960e-06 0.0 
1.046260659946e-04 7.084275913016e-04 0.0 
2.102124757515e-05 -7.774548527841e-05 0.0 
7.335460204523e-05 4.143741738856e-04 0.0 
6.613131923478e-05 4.097591871060e-04 0.0 
2.514935049307e-05 -7.614087876998e-05 0.0 
2.638939510635e-04 6.026687403304e-04 0.0 
3.489403920052e-05 -7.492769652599e-05 0.0 
3.721643780504e-05 -1.475672176690e-05 0.0 
3.385471415308e-05 -3.586179631426e-05 0.0 
1.744402915522e-04 3.682727732746e-04 0.0 
6.344673694789e-05 4.748760289683e-04 0.0 
4.802689862577e-05 -1.683221957549e-05 0.0 
5.384780493006e-05 -1.605744548409e-05 0.0 
2.885087267508e-05 -7.693334442742e-05 0.0 
4.253779380413e-05 -1.412213509624e-05 0.0 
9.507863710101e-05 7.042652042109e-04 0.0 
2.775500540088e-05 -3.627143991022e-05 0.0 
8.519601742326e-05 8.454907628781e-04 0.0 
8.476378572037e-05 6.274272065186e-04 0.0 
3.054913867257e-04 1.239711078650e-04 0.0 
5.902745083131e-05 5.417681672201e-04 0.0 
3.376801635508e-05 -4.989012094886e-05 0.0 
3.724597346038e-05 -3.922670417110e-05 0.0 
3.565193341076e-05 -6.516920194986e-05 0.0 
8.027182567479e-05 -5.818087295622e-05 0.0 
8.604944263256e-05 7.725821733320e-04 0.0 
1.245425195831e-04 -3.122780329913e-05 0.0 
3.338622645279e-05 -7.391282369838e-05 0.0 
1.553272930407e-05 -7.848271828816e-05 0.0 
9.540516481689e-05 7.771029551378e-04 0.0 
3.712192125743e-05 -7.344406945408e-05 0.0 
4.681630436975e-05 2.093390917475e-06 0.0 
6.877922064752e-05 6.905404705731e-04 0.0 
4.706747048500e-05 -1.023949775426e-05 0.0 
6.222552303037e-05 1.501629576695e-05 0.0 
3.597292184786e-05 -5.321238154209e-05 0.0 
2.833239348583e-05 -7.586788591432e-05 0.0 
1.952064757260e-05 -7.859285436574e-05 0.0 
6.585638074646e-05 -1.419612157728e-05 0.0 
6.576050772345e-05 9.091403474020e-04 0.0 
1.109412506127e-05 -7.916297641664e-05 0.0 
4.569056807758e-05 -6.446221076562e-05 0.0 
1.050645323669e-05 -7.798205979807e-05 0.0 
1.028825400028e-04 9.280423333344e-04 0.0 
4.017586073551e-05 -6.217519603461e-05 0.0 
7.889466891580e-05 -1.951045718269e-05 0.0 
3.074020599688e-05 -6.522568214369e-05 0.0 
4.525898002175e-05 5.321733895237e-04 0.0 
4.448493801116e-05 -6.914616774824e-05 0.0 
8.518109041170e-05 -1.037226528839e-05 0.0 
4.288506289244e-05 -6.800188290058e-05 0.0 
7.918395538463e-05 -1.556643890208e-05 0.0 
2.833935445290e-05 -4.320481313612e-05 0.0 
5.908631936702e-05 -1.172704134356e-05 0.0 
1.620125994384e-04 2.020277691662e-05 0.0 
1.308984854410e-05 -7.795455062312e-05 0.0 
7.827205257958e-05 1.065582853050e-03 0.0 
1.928134398151e-04 1.683504007058e-05 0.0 
4.305994940839e-04 5.755685341252e-04 0.0 
7.444189807330e-05 9.137785319466e-04 0.0 
5.600729529871e-05 -6.209092918356e-05 0.0 
1.361713502441e-04 8.661486484445e-04 0.0 
1.275325692694e-05 -7.928088182285e-05 0.0 
6.012752748893e-05 -1.146116707952e-06 0.0 
2.022740034395e-04 2.774107093747e-05 0.0 
2.723625573489e-04 9.593204339307e-05 0.0 
5.331742144328e-05 3.323345615332e-04 0.0 
1.257963755144e-04 -2.408132687250e-05 0.0 
2.188491297014e-05 -7.863563602653e-05 0.0 
1.080330040372e-04 -1.719501474227e-05 0.0 
6.204767040065e-05 2.992849946531e-06 0.0 
8.924828319927e-05 -5.157870883237e-05 0.0 
5.342821124800e-05 -1.262966858137e-05 0.0 
7.721913802620e-05 6.952822803774e-04 0.0 
7.124605662146e-05 -4.138966792053e-05 0.0 
9.329085491332e-05 -1.662263898086e-05 0.0 
1.396313489871e-04 1.091547835229e-03 0.0 
1.931385923236e-05 -7.275518673145e-05 0.0 
5.038606600590e-05 -6.634041718204e-05 0.0 
4.395734775279e-04 4.314722699870e-04 0.0 
7.213569393191e-05 -1.306722728652e-05 0.0 
4.197382302241e-04 7.732319928868e-04 0.0 
4.222570160354e-04 3.840294451349e-04 0.0 
1.151662171868e-04 7.854512884377e-04 0.0 
8.120737380318e-05 9.919554731314e-04 0.0 
1.431641190036e-04 1.017047668608e-03 0.0 
3.436218642393e-05 -4.288150404211e-05 0.0 
9.199559802803e-05 4.194822940540e-06 0.0 
1.232476875617e-04 -1.708011756916e-05 0.0 
1.076056255634e-04 1.080690720360e-03 0.0 
1.988712973612e-04 2.800309948443e-04 0.0 
2.693780092833e-04 1.061955734587e-04 0.0 
8.611021139468e-05 -1.415728868920e-05 0.0 
7.626000882989e-05 6.229650644908e-04 0.0 
7.497114309933e-05 -5.767296626554e-05 0.0 
6.209224190174e-05 -6.238362745705e-05 0.0 
2.648274391327e-05 -7.770104703277e-05 0.0 
1.167679864224e-04 -1.056143589937e-05 0.0 
5.670472339069e-05 -6.069540462847e-05 0.0 
1.146589678957e-04 8.588343979393e-04 0.0 
1.346300090314e-04 9.401971272971e-04 0.0 
2.750348261762e-04 7.549381171158e-05 0.0 
5.905285202582e-05 -6.652966943711e-05 0.0 
1.859188994472e-04 9.874900939344e-05 0.0 
5.557670467459e-05 -6.557999708616e-05 0.0 
6.793792273570e-05 -6.127664486205e-05 0.0 
2.928418394618e-05 -7.674021100489e-05 0.0 
1.116062280608e-04 6.296115725220e-06 0.0 
1.120152523660e-04 -4.299120257219e-05 0.0 
6.644032247956e-05 5.464113285059e-04 0.0 
1.284954363953e-04 -3.492115396928e-05 0.0 
1.162995115622e-04 -1.496092717210e-05 0.0 
1.212093130533e-04 -2.902267202730e-05 0.0 
3.807709103416e-04 2.648569327536e-04 0.0 
2.645823303613e-05 -7.721164614891e-05 0.0 
7.905793690457e-05 4.378158079255e-06 0.0 
6.879188187104e-05 5.666179466993e-06 0.0 
4.109249427254e-04 3.889776713556e-04 0.0 
8.149743906054e-05 -5.614738698101e-05 0.0 
1.206215224735e-04 -2.184358139522e-05 0.0 
1.044453444194e-04 8.546484517301e-04 0.0 
6.873113141638e-05 -5.630543955726e-05 0.0 
3.843170399152e-04 4.433004640684e-04 0.0 
3.991172156586e-05 -6.963566639626e-05 0.0 
7.111776988591e-05 -5.471898284777e-05 0.0 
8.894490319933e-05 -5.212421729287e-05 0.0 
3.469399404103e-05 -7.207694215409e-05 0.0 
2.272409146562e-05 -7.461984820952e-05 0.0 
1.125356901452e-04 -3.148224711744e-05 0.0 
1.008805334736e-04 -1.485232215565e-05 0.0 
2.976891267220e-04 2.527824672324e-04 0.0 
-1.942813556557e-06 -7.789170898017e-05 0.0 
1.668839005517e-04 -1.542315703503e-05 0.0 
1.379316715631e-04 -3.211936451645e-05 0.0 
9.624368390434e-05 -5.007190548582e-05 0.0 
1.236395303208e-04 9.365234819753e-04 0.0 
1.182397236588e-04 -3.617735141325e-05 0.0 
4.050419863043e-05 -6.735656522800e-05 0.0 
1.039611079297e-04 -4.563207379030e-05 0.0 
5.292760336237e-05 6.087627199990e-04 0.0 
3.576393282059e-05 -6.768786138562e-05 0.0 
1.390618654934e-05 -8.027387590241e-05 0.0 
2.135105293078e-05 -7.903227433066e-05 0.0 
7.781913052761e-05 -5.545802141877e-05 0.0 
7.227638998667e-05 -6.178544217771e-05 0.0 
1.567111202818e-04 -2.170447696849e-05 0.0 
1.197568855484e-04 -3.818607986801e-05 0.0 
3.821196194527e-05 -6.361179830276e-05 0.0 
1.957917289769e-05 -7.949542818039e-05 0.0 
1.929159361543e-04 1.027874722463e-03 0.0 
3.069317595000e-05 -7.236762885945e-05 0.0 
1.174999619595e-04 3.443163367853e-06 0.0 
3.265132922694e-04 2.613475219670e-04 0.0 
3.416975823862e-04 8.755244209008e-04 0.0 
1.131514356108e-04 4.986536750300e-04 0.0 
2.620640316372e-04 2.346903947708e-04 0.0 
2.908302379296e-04 1.030919542578e-04 0.0 
3.742103952141e-04 3.251463040728e-04 0.0 
5.162491398529e-05 -5.655542024581e-05 0.0 
9.541874416943e-05 -4.536988587120e-05 0.0 
3.328550886328e-04 2.103403371767e-04 0.0 
8.384792972123e-05 -1.585790534600e-05 0.0 
3.146921892218e-05 -5.699793665424e-05 0.0 
6.260710761600e-05 -5.990389081371e-05 0.0 
1.289658803679e-04 -3.629854283608e-05 0.0 
1.469315226640e-04 -2.674935835689e-05 0.0 
3.117063766500e-05 -7.025764925924e-05 0.0 
1.336328584091e-04 -2.809607222901e-05 0.0 
1.568401386427e-04 -2.176511502626e-05 0.0 
1.882570576107e-04 -1.898104534048e-06 0.0 
6.646878300878e-05 -6.335563479900e-05 0.0 
2.354627481918e-04 5.153064804328e-05 0.0 
1.256881208247e-04 7.890918936210e-04 0.0 
1.993064423511e-04 9.244815529760e-06 0.0 
9.788976610853e-05 6.258014333847e-06 0.0 
6.725272846913e-05 -4.782429570416e-05 0.0 
8.702687721066e-05 1.282321767599e-05 0.0 
1.455389084053e-04 -2.578807715165e-05 0.0 
2.167157288053e-04 2.035118068233e-04 0.0 
4.248397297520e-04 6.282956314055e-04 0.0 
5.964706113474e-05 -5.807121899210e-05 0.0 
3.568662952825e-04 7.835005450608e-04 0.0 
1.447470449282e-04 4.363084141097e-04 0.0 
1.628960390278e-04 -1.558631672248e-05 0.0 
2.889385218981e-04 3.048126428526e-04 0.0 
3.670532741034e-04 6.918447187752e-04 0.0 
4.452730095451e-04 5.271801397473e-04 0.0 
4.033894635310e-05 -5.935012379919e-05 0.0 
5.649471531286e-05 2.100597045946e-04 0.0 
2.868542516809e-05 -6.581219759327e-05 0.0 
1.575052908169e-04 4.819009218508e-05 0.0 
4.679375037724e-05 3.960990863570e-04 0.0 
2.087797345125e-04 3.827006766446e-05 0.0 
1.107328859922e-04 1.006900132521e-03 0.0 
1.188035750610e-04 5.704806550053e-04 0.0 
1.773065786252e-04 -9.382316938054e-06 0.0 
2.795843657618e-04 7.447674147022e-05 0.0 
8.799728292915e-05 3.545825970755e-04 0.0 
9.204189197166e-05 -8.748169260880e-06 0.0 
1.356427307644e-04 7.188116831855e-04 0.0 
1.813152227789e-04 1.551496325700e-05 0.0 
5.465884409154e-05 -5.129974859924e-05 0.0 
1.441374279539e-04 6.482108205596e-04 0.0 
1.371756984584e-04 8.757743215899e-05 0.0 
7.277057561303e-05 7.210186369866e-06 0.0 
1.032378703891e-04 -4.336686503294e-05 0.0 
1.212762528339e-04 1.011195334953e-03 0.0 
1.287339615279e-04 1.089369146896e-03 0.0 
1.360686133318e-04 -2.978069444442e-05 0.0 
1.081816369388e-04 -8.706077150374e-06 0.0 
1.138822953684e-04 -2.532877451914e-06 0.0 
1.816995545487e-05 -7.945205261034e-05 0.0 
1.422738855735e-04 1.021783704681e-04 0.0 
2.235533864457e-04 2.687844016844e-05 0.0 
1.880378494941e-04 -3.916124069230e-08 0.0 
4.108286241663e-04 3.768382980172e-04 0.0 
7.011874130079e-05 2.825659537463e-04 0.0 
2.063788663420e-04 3.592684875731e-04 0.0 
5.288027119851e-05 4.008440562713e-04 0.0 
4.378659686109e-04 8.495408048982e-04 0.0 
1.740185969478e-04 5.793483275366e-04 0.0 
1.005606915150e-04 -1.076287583649e-05 0.0 
6.626047035613e-05 3.440190597106e-04 0.0 
1.705700097415e-04 7.245667932496e-04 0.0 
1.097748529357e-04 -3.871726536009e-05 0.0 
2.355885554086e-04 4.462262980912e-05 0.0 
1.331310254508e-04 6.457989998939e-04 0.0 
9.686570061205e-05 4.242230113260e-04 0.0 
1.028660787898e-04 6.358616302447e-04 0.0 
1.248492275790e-04 7.158082476245e-04 0.0 
8.075116911713e-05 6.128447407623e-07 0.0 
1.903027879935e-04 6.473395134044e-05 0.0 
9.840912210059e-05 1.697874778129e-06 0.0 
1.063720794256e-04 -2.167370158839e-05 0.0 
3.768499750889e-04 1.255694962688e-03 0.0 
2.117906376144e-04 4.798589242631e-05 0.0 
2.367648544086e-04 7.171660804988e-04 0.0 
2.620236536900e-05 -7.447650325940e-05 0.0 
2.113282759044e-04 1.611167240036e-05 0.0 
2.146066761128e-04 1.717132255754e-05 0.0 
2.753997980717e-04 7.232596132278e-05 0.0 
9.681580629350e-05 2.135397022328e-05 0.0 
2.230434122586e-04 3.144459735071e-05 0.0 
2.623888706901e-04 6.869132287674e-05 0.0 
4.302508222286e-04 9.932425408236e-04 0.0 
1.074040259519e-04 -3.622729233611e-05 0.0 
1.843837156905e-04 8.741888176923e-04 0.0 
1.163497413331e-04 1.329014573212e-03 0.0 
-1.246019521219e-04 3.260029462827e-04 0.0 
1.120124218623e-04 -2.420307784428e-05 0.0 
1.922124246985e-04 3.416396261637e-05 0.0 
1.666021934248e-04 3.042643113526e-04 0.0 
2.714842297539e-04 6.755954198623e-05 0.0 
1.085136519951e-04 -2.890039841171e-05 0.0 
1.476014892193e-04 8.691255393890e-04 0.0 
-1.085584851596e-04 4.684960882139e-04 0.0 
2.192919091094e-04 4.588254700816e-05 0.0 
2.585406762995e-04 5.404154163998e-05 0.0 
4.295708142101e-04 9.572980769188e-04 0.0 
1.063482442589e-04 -4.856610408550e-06 0.0 
7.967258418286e-05 -2.558649792871e-05 0.0 
1.101970240798e-04 9.081138140691e-07 0.0 
9.413915167224e-05 1.004048208443e-05 0.0 
2.468771777314e-04 6.112500366961e-05 0.0 
1.125673367363e-04 6.396016813843e-04 0.0 
3.156911411707e-04 1.923310670021e-04 0.0 
8.893079872705e-05 7.985356375435e-06 0.0 
-5.814561092898e-05 6.961258581121e-04 0.0 
1.597189457437e-04 7.971744630417e-04 0.0 
2.084327439083e-04 8.731104331969e-05 0.0 
1.090333895318e-04 5.672867720566e-04 0.0 
2.636870362838e-04 6.469889949855e-05 0.0 
2.491459372843e-04 5.240770734739e-05 0.0 
6.327287512086e-05 -3.690999326242e-05 0.0 
2.745009537560e-06 5.997743693161e-05 0.0 
8.654711814231e-05 4.882364945605e-04 0.0 
2.304329684101e-05 -7.266797401975e-05 0.0 
3.743101109487e-05 1.101147167542e-03 0.0 
3.458479952203e-04 2.425433864940e-04 0.0 
4.738860761522e-05 3.278928728756e-04 0.0 
6.109081801988e-05 -3.812451946911e-05 0.0 
4.479250459293e-04 4.723193404727e-04 0.0 
1.584563160259e-04 7.233257467663e-04 0.0 
8.843404120906e-05 -3.686787064952e-05 0.0 
9.229904228760e-05 7.606387071499e-06 0.0 
2.551344458811e-04 2.869875235333e-04 0.0 
3.336584133702e-05 -5.157942440968e-05 0.0 
6.447828028806e-05 -3.004243490606e-05 0.0 
4.770814465021e-05 -4.193533856156e-05 0.0 
2.718778649158e-04 6.674325172090e-05 0.0 
3.046196014770e-05 7.070835818339e-05 0.0 
1.704255634624e-04 1.420486623342e-03 0.0 
6.465978184653e-05 1.248019123415e-08 0.0 
2.538762884319e-04 9.543843733278e-05 0.0 
1.975696010613e-04 7.987200120992e-04 0.0 
4.323768158263e-05 5.255243884202e-05 0.0 
8.182966879330e-05 1.070349840676e-05 0.0 
4.526949887419e-05 -4.867593990806e-05 0.0 
2.668060020110e-05 -6.790134178963e-05 0.0 
2.513311464473e-04 7.331976002392e-05 0.0 
1.654399303276e-04 -1.599154240873e-05 0.0 
2.250190792913e-04 8.619721519213e-05 0.0 
3.433249976508e-04 4.666733021392e-04 0.0 
2.185727391137e-04 6.475202031187e-04 0.0 
1.612211937091e-04 5.274523044221e-05 0.0 
1.479117629853e-04 7.950722201265e-04 0.0 
1.760734963090e-04 3.017192603006e-04 0.0 
1.506901241101e-04 5.775892369753e-04 0.0 
1.547141018909e-04 5.071090589239e-04 0.0 
7.372923306837e-05 1.495940012783e-04 0.0 
6.492750413396e-05 -3.537750620934e-06 0.0 
1.673600298309e-04 6.513051284435e-04 0.0 
3.331763641810e-04 1.558636546458e-04 0.0 
2.533138981958e-04 1.528268648041e-03 0.0 
1.352518433399e-04 4.572953763934e-05 0.0 
1.109210566435e-04 7.257618895909e-05 0.0 
2.699903245939e-05 -7.041464946942e-05 0.0 
2.444164068951e-04 9.129410849470e-05 0.0 
2.314515607560e-06 -7.894030177597e-05 0.0 
4.052430217435e-04 3.084811358256e-04 0.0 
2.216916566813e-04 5.585662286526e-05 0.0 
1.231841833346e-04 3.677620330339e-04 0.0 
1.174011076359e-04 2.997334598414e-04 0.0 
2.406073577158e-04 6.334763307344e-05 0.0 
1.229226739954e-04 5.014971749337e-04 0.0 
2.872864479363e-04 1.275001682337e-04 0.0 
3.519188702530e-04 3.035152027897e-04 0.0 
2.904914101098e-04 1.536947758525e-03 0.0 
2.234547617088e-04 2.801830275342e-04 0.0 
2.978431811025e-04 1.487778407796e-03 0.0 
2.938415276159e-04 1.448034003326e-03 0.0 
2.892148970816e-04 9.260632093388e-05 0.0 
2.854806638344e-04 1.401376109687e-03 0.0 
3.791651351854e-04 2.241971900244e-04 0.0 
3.508571365685e-04 2.213776003123e-04 0.0 
2.348066527152e-04 3.402395718856e-05 0.0 
7.370818720960e-05 2.212227422845e-06 0.0 
2.626828423479e-04 6.754070854441e-05 0.0 
8.854250250406e-05 4.209274853758e-04 0.0 
1.900514877792e-04 2.858771186687e-04 0.0 
7.690564945485e-05 -8.291963979408e-06 0.0 
1.963167130971e-04 7.173601223360e-05 0.0 
1.759916267620e-04 -1.001134036954e-05 0.0 
1.436667197678e-04 5.058387751771e-04 0.0 
2.478540604039e-04 4.637519190911e-05 0.0 
5.136808579541e-05 -3.148262317920e-06 0.0 
1.395812159487e-04 5.757359755746e-04 0.0 
1.862888228560e-04 5.789252421481e-04 0.0 
2.383929092760e-04 4.786647353004e-05 0.0 
2.759263871430e-04 9.424303231851e-05 0.0 
2.990646257790e-04 2.380901767321e-04 0.0 
4.167331340614e-04 6.596319086518e-04 0.0 
7.065363602363e-05 -9.896763891828e-06 0.0 
1.060234004392e-04 5.370678001108e-05 0.0 
3.575320492050e-04 4.265595704393e-04 0.0 
4.524586656008e-04 5.156623645716e-04 0.0 
3.919030824635e-05 -2.606640051585e-06 0.0 
1.796411205456e-04 6.517939352580e-04 0.0 
2.619590624666e-04 7.580429582741e-05 0.0 
4.261548750021e-04 4.373356034795e-04 0.0 
1.925082559096e-04 4.226985262152e-05 0.0 
9.505805197364e-05 4.921642661312e-04 0.0 
2.663688154949e-04 2.246113235597e-04 0.0 
2.107210803734e-04 8.725174292065e-04 0.0 
1.400485695120e-04 1.881916490013e-05 0.0 
2.578403690450e-04 5.357392338078e-05 0.0 
1.834422175905e-04 3.606040215529e-05 0.0 
4.179561670919e-04 3.470079873903e-04 0.0 
9.636704723098e-05 3.593622567315e-04 0.0 
2.219322172100e-04 1.960645132587e-04 0.0 
2.494810775807e-04 4.839375752149e-05 0.0 
8.382732440372e-05 4.696905118649e-05 0.0 
2.878506529730e-04 1.639717186311e-04 0.0 
4.023181538408e-04 2.813069619551e-04 0.0 
2.729014417366e-04 1.051213582346e-04 0.0 
2.511055044093e-04 5.346840577819e-05 0.0 
1.326409423419e-04 9.355726442716e-06 0.0 
8.044551924709e-05 3.043004930115e-05 0.0 
2.526033164366e-04 4.778941278384e-05 0.0 
3.540266767903e-04 7.112296014636e-04 0.0 
3.554747246886e-05 -3.267965726182e-06 0.0 
3.603062592140e-04 6.222171728180e-04 0.0 
3.201043425281e-04 2.090098416009e-04 0.0 
3.425108884571e-04 8.011276929639e-04 0.0 
3.072734000439e-04 9.795412288577e-04 0.0 
4.161310713196e-04 5.644863032751e-04 0.0 
2.107831200528e-04 6.940169549692e-05 0.0 
7.406873723458e-05 -5.117283605076e-06 0.0 
1.959233148919e-04 7.246542828535e-04 0.0 
1.086236886312e-04 2.990041161141e-04 0.0 
3.265460552246e-04 8.908508510297e-04 0.0 
2.118909761126e-04 7.639684109499e-05 0.0 
2.621416190456e-04 1.495729484322e-04 0.0 
7.293743698364e-05 3.466445996301e-04 0.0 
3.773668468071e-04 2.395233607362e-04 0.0 
3.987735077018e-04 2.781244900089e-04 0.0 
2.407482997029e-04 7.595078610814e-05 0.0 
2.052206711278e-04 6.501287842303e-04 0.0 
4.314783458928e-04 7.032373344595e-04 0.0 
3.662858731391e-04 2.005526470398e-04 0.0 
4.234019307513e-04 6.329735009868e-04 0.0 
2.507894637331e-04 8.366498831501e-05 0.0 
1.970636798972e-04 1.065540283905e-04 0.0 
2.329725263366e-04 5.114630569756e-05 0.0 
4.420864042260e-06 4.175182767140e-05 0.0 
1.352350036919e-04 2.995456712858e-04 0.0 
4.481719379279e-04 7.735773217534e-04 0.0 
1.954328279215e-04 2.961335468053e-06 0.0 
2.292677270352e-04 1.229356560748e-04 0.0 
2.092326395659e-04 7.234122172143e-04 0.0 
8.961399872977e-05 -5.238779063263e-06 0.0 
3.172695641936e-04 1.798072832055e-04 0.0 
-1.321954328521e-05 3.696968715044e-05 0.0 
2.513528900293e-05 -2.375539974659e-06 0.0 
4.391657666555e-04 4.247343685928e-04 0.0 
3.036933423153e-04 1.240423230665e-04 0.0 
2.675090547270e-04 1.983651392761e-04 0.0 
-4.736934777334e-05 4.531615783177e-05 0.0 
9.629940559316e-05 -3.404018897050e-06 0.0 
1.972088689142e-04 1.955310403204e-04 0.0 
2.246390609127e-04 8.700460512101e-04 0.0 
8.802148622969e-05 -2.949480813683e-05 0.0 
2.458061283311e-04 6.719497051884e-05 0.0 
4.702545429243e-05 -4.032705475958e-06 0.0 
3.910826006850e-04 2.521151545559e-04 0.0 
2.212950521748e-04 6.699678161801e-05 0.0 
4.333547262943e-04 4.162240992501e-04 0.0 
-1.067678901435e-05 2.007469284951e-05 0.0 
3.724017542053e-04 3.017899242206e-04 0.0 
2.411453760068e-04 7.359129201511e-05 0.0 
1.801665922225e-04 1.687066928975e-04 0.0 
3.256256052312e-04 2.438465409885e-04 0.0 
1.450542514683e-04 5.089377347748e-05 0.0 
7.078650898512e-05 -9.577775764662e-06 0.0 
6.338209346327e-05 2.779234822510e-04 0.0 
1.084948795363e-04 4.002840629479e-05 0.0 
2.361943727603e-04 8.150064969265e-05 0.0 
3.049725421388e-04 1.375009959248e-04 0.0 
4.082090580125e-04 3.593277511304e-04 0.0 
2.857058050969e-05 -4.377166465462e-06 0.0 
1.926941224606e-05 -4.032695666414e-05 0.0 
3.492225422059e-04 2.626578419590e-04 0.0 
1.844973866255e-04 7.991213293098e-04 0.0 
5.987839123851e-05 -4.654742451488e-06 0.0 
9.204555472355e-05 -2.905249763527e-07 0.0 
4.679525526178e-05 1.400647868609e-03 0.0 
3.120547413171e-05 1.400414292736e-03 0.0 
3.351150327588e-04 6.564094045461e-04 0.0 
3.899291075297e-04 3.174634555375e-04 0.0 
7.582871133697e-05 -2.774390225321e-05 0.0 
3.982239988830e-04 5.311394741418e-04 0.0 
3.771257597078e-04 2.211318831302e-04 0.0 
1.314595040487e-04 2.764709894850e-05 0.0 
3.200822971809e-04 1.628074600388e-04 0.0 
2.722148875607e-05 7.280139531133e-05 0.0 
3.071528832348e-04 1.123709161923e-03 0.0 
3.854985790685e-04 2.458673757155e-04 0.0 
9.576890300993e-05 -2.798579740684e-05 0.0 
1.354280999788e-04 8.055842002083e-05 0.0 
9.927390366014e-05 -3.818955278553e-05 0.0 
4.198553917863e-04 3.716009291142e-04 0.0 
4.481725936873e-04 5.441938150264e-04 0.0 
2.247969062747e-04 7.950065684635e-04 0.0 
3.840607415937e-04 4.716812156196e-04 0.0 
3.611537801103e-04 4.368405063826e-04 0.0 
5.405489143885e-06 -8.139117569684e-05 0.0 
9.382560442426e-05 -4.268254664777e-05 0.0 
4.454045783401e-04 7.060604623069e-04 0.0 
3.905904712532e-04 6.468634308320e-04 0.0 
3.716773607471e-04 6.020599069548e-04 0.0 
1.791755455349e-04 5.268562412333e-05 0.0 
1.282080209165e-06 -7.757150947120e-05 0.0 
5.828707294999e-05 1.043079907377e-05 0.0 
4.327932345466e-04 3.889258680034e-04 0.0 
8.624892081601e-05 -4.420338485243e-05 0.0 
3.065431179881e-04 1.428419204742e-03 0.0 
2.987357656105e-04 1.386319268058e-03 0.0 
2.389770531314e-04 7.913690128596e-04 0.0 
4.716650004964e-05 1.684315616440e-04 0.0 
8.479470857053e-05 -3.383277222434e-05 0.0 
1.826895030105e-04 2.819730461794e-05 0.0 
6.050764098158e-05 2.490103780030e-05 0.0 
1.121005623456e-04 6.674798600345e-05 0.0 
1.246418409096e-04 4.343345097284e-04 0.0 
6.664103189732e-05 -4.015498093195e-05 0.0 
6.290048386940e-05 -7.520087220884e-06 0.0 
7.892292617570e-06 -8.209446954689e-05 0.0 
1.784304420650e-04 1.949353581626e-05 0.0 
4.322529918648e-04 3.865523441735e-04 0.0 
6.217449265184e-06 -8.214787120675e-05 0.0 
1.150067032985e-04 4.318461708856e-04 0.0 
4.252322983075e-05 3.533387826997e-05 0.0 
4.005878612424e-04 6.213332970283e-04 0.0 
4.472829848299e-04 5.041621468318e-04 0.0 
1.982297006397e-04 4.479076367285e-06 0.0 
1.608914565198e-04 -3.474337524423e-06 0.0 
1.141263614390e-04 3.670584123993e-04 0.0 
1.520526133857e-04 1.844217203098e-06 0.0 
4.135673395082e-04 3.145349136967e-04 0.0 
4.227358387176e-04 3.498792933152e-04 0.0 
-1.297526143642e-04 2.734525966995e-04 0.0 
2.355269442879e-05 3.023793516089e-05 0.0 
2.958421523367e-04 1.930699811030e-04 0.0 
2.962930626753e-04 9.139093058711e-04 0.0 
2.657199170519e-04 1.619924363052e-04 0.0 
2.080228619211e-04 2.303202876519e-04 0.0 
2.518786960453e-04 4.859795064445e-04 0.0 
2.673209840404e-04 1.855681685482e-04 0.0 
3.151014988095e-04 1.307557631755e-03 0.0 
2.979888680542e-04 2.077922250256e-04 0.0 
5.747960743675e-05 -8.540458509016e-06 0.0 
3.979960037082e-04 3.019513315923e-04 0.0 
9.619924873815e-05 -3.536421010952e-05 0.0 
1.003073328798e-04 -3.082010095435e-05 0.0 
1.449409381947e-04 2.997699348435e-04 0.0 
1.644031711440e-04 -9.407840493890e-06 0.0 
4.369383247973e-04 4.523088533901e-04 0.0 
3.360449889363e-04 1.472341658970e-04 0.0 
1.378434362417e-04 6.153719849588e-06 0.0 
3.627741222109e-04 2.091058608709e-04 0.0 
1.589969430825e-04 4.199283083174e-05 0.0 
2.328817269390e-04 3.243107041832e-05 0.0 
1.898470392060e-04 6.744050580267e-05 0.0 
3.907873844964e-04 5.566501906486e-04 0.0 
1.800381282958e-04 4.990517374887e-05 0.0 
4.214741673208e-04 5.341440906800e-04 0.0 
2.033717804864e-04 6.190850653694e-05 0.0 
2.191389454674e-04 6.393376443277e-05 0.0 
3.506399025537e-04 2.005678206500e-04 0.0 
2.533670201638e-04 8.611264541133e-04 0.0 
5.011488330287e-05 -6.559556897658e-06 0.0 
4.536085447015e-05 -7.355968905095e-06 0.0 
-6.625338187938e-06 1.800147781189e-04 0.0 
4.085623012297e-04 4.765156059024e-04 0.0 
2.799355962425e-05 -1.877031846524e-06 0.0 
3.536748117525e-04 1.121532700600e-03 0.0 
6.627221615036e-05 -3.286564029453e-05 0.0 
-1.164210392022e-04 2.891401459897e-04 0.0 
3.862858968221e-05 -5.490443157992e-06 0.0 
1.526060992042e-04 6.909447457790e-05 0.0 
1.602270426521e-05 -3.726555764342e-05 0.0 
3.145693353577e-04 1.398219226488e-04 0.0 
2.681255755115e-04 8.549901943918e-04 0.0 
2.811207641394e-04 9.227230376953e-04 0.0 
4.207522955546e-04 3.463622105533e-04 0.0 
3.089890748359e-04 1.484604954129e-03 0.0 
3.103869082918e-04 1.461779824328e-03 0.0 
3.450996834436e-05 -6.101135769137e-06 0.0 
1.620093294948e-04 1.362557860769e-06 0.0 
2.026322843058e-04 9.044067508791e-06 0.0 
1.883657951261e-04 2.512880500614e-05 0.0 
2.317590612626e-04 2.986670357000e-05 0.0 
1.763577017286e-04 7.772886398595e-05 0.0 
2.973226376236e-04 1.517765045334e-03 0.0 
3.000639173797e-04 1.059307267612e-03 0.0 
3.929088042649e-05 1.443913174778e-03 0.0 
2.104090148734e-04 5.617122223340e-05 0.0 
3.354505876052e-04 1.725307343477e-04 0.0 
1.399969716308e-04 5.032051295392e-05 0.0 
1.448240204998e-05 -8.280760663950e-06 0.0 
2.395694163428e-04 3.643342769361e-05 0.0 
2.341335308476e-05 -4.870156804211e-07 0.0 
1.805250938689e-04 2.751432146852e-05 0.0 
1.770166607422e-04 7.054978457024e-05 0.0 
4.121240390269e-04 3.133913547648e-04 0.0 
3.723393641223e-04 2.427398135996e-04 0.0 
1.299782498645e-04 2.019359617389e-05 0.0 
9.537690951608e-05 -5.199182865832e-05 0.0 
4.265373741151e-04 4.702282799190e-04 0.0 
2.192098451651e-04 1.981439068076e-05 0.0 
4.382104327676e-04 5.252331980243e-04 0.0 
2.414045906716e-04 2.460029235681e-04 0.0 
3.438173964602e-04 1.935700979138e-04 0.0 
2.100323260763e-04 1.320487653124e-05 0.0 
8.311753292085e-05 -2.652439732724e-05 0.0 
4.357489386580e-04 5.607163494659e-04 0.0 
-9.980140372900e-05 1.961964850947e-04 0.0 
3.286215965582e-04 1.365611101882e-04 0.0 
-7.243952193982e-05 2.846279006624e-04 0.0 
1.537973517485e-05 -8.051932632723e-05 0.0 
7.332035338644e-05 -3.191018579394e-05 0.0 
3.244916817562e-04 2.962900032266e-04 0.0 
2.980238124634e-04 8.399792883460e-04 0.0 
2.867176402713e-04 1.485608574727e-03 0.0 
1.409251611023e-05 3.523753078440e-05 0.0 
-1.359778523215e-04 2.300711676345e-04 0.0 
3.018157904321e-04 1.492847140426e-03 0.0 
1.967526984852e-04 7.654211167888e-06 0.0 
5.649171563169e-05 -3.763046333666e-05 0.0 
3.852522352611e-04 1.211430474681e-03 0.0 
1.587506390885e-04 -1.024571043151e-05 0.0 
1.684025255856e-04 -4.090406249406e-06 0.0 
4.141657358372e-04 3.399210648367e-04 0.0 
3.109499944129e-04 1.238146508640e-04 0.0 
2.667455621188e-04 3.237850539248e-04 0.0 
2.048078638786e-05 1.599003190999e-04 0.0 
7.370241685153e-05 -3.922908712562e-05 0.0 
5.283181656508e-05 -3.433380566307e-05 0.0 
5.634592874683e-05 -6.818313244839e-05 0.0 
3.022037954206e-04 1.258656527443e-03 0.0 
3.130032672735e-04 8.295578509611e-04 0.0 
5.218802927366e-06 -1.642394082913e-05 0.0 
6.277372282612e-06 -8.240196208089e-05 0.0 
-6.775984251964e-05 5.813235290768e-05 0.0 
3.398143570087e-05 -7.452137903411e-05 0.0 
4.634834912928e-05 -3.491157374914e-05 0.0 
2.048096995516e-04 2.917581631638e-05 0.0 
1.528491116686e-04 -7.234820391506e-06 0.0 
1.509618092026e-04 2.681028870371e-05 0.0 
6.196136117151e-05 -2.968773140015e-05 0.0 
3.216441964887e-04 6.697287413774e-04 0.0 
4.252854634028e-05 -3.161428976673e-05 0.0 
2.163481213524e-04 4.307478841842e-05 0.0 
4.111640139144e-04 4.480829465831e-04 0.0 
1.839145197276e-04 1.181268224680e-03 0.0 
2.779842219947e-04 1.184839147789e-04 0.0 
3.632110764093e-05 -3.209643350860e-05 0.0 
5.530212107539e-05 -3.043542669445e-05 0.0 
2.268071624224e-04 1.401515396328e-03 0.0 
1.973771020197e-04 1.263628708424e-05 0.0 
3.233294390225e-05 -2.883627717205e-05 0.0 
7.086139584788e-06 8.759921669575e-04 0.0 
7.797092958732e-06 1.021623675952e-03 0.0 
2.626659360722e-04 1.458459767436e-03 0.0 
5.090689687065e-05 -2.724764404408e-05 0.0 
1.277539046096e-04 -3.133181591419e-05 0.0 
-1.962810907354e-05 3.174885275706e-04 0.0 
1.719802471036e-04 6.433826664995e-05 0.0 
3.385706682454e-05 -7.012214176120e-05 0.0 
1.323086124637e-04 -3.225935505931e-05 0.0 
3.403999760164e-04 1.525323517863e-04 0.0 
2.765790205459e-04 1.540269769029e-03 0.0 
2.632432346032e-05 -2.924673591003e-05 0.0 
3.375884548200e-06 -7.227367060165e-05 0.0 
2.986383318653e-04 1.198128070998e-03 0.0 
4.461678957134e-05 -2.784873903030e-05 0.0 
1.841452330294e-04 -4.044868864762e-06 0.0 
7.738239731114e-05 -3.502864495548e-05 0.0 
-8.157850582474e-05 1.538375146238e-04 0.0 
8.935085904432e-06 4.490767105348e-04 0.0 
1.656258695314e-04 -1.431990751803e-05 0.0 
1.584481560879e-04 3.687221417498e-05 0.0 
3.641993706283e-04 2.200029876986e-04 0.0 
4.025576422152e-05 -2.469992625565e-05 0.0 
3.417935725178e-05 -2.520532065554e-05 0.0 
1.881996590405e-04 2.175062194331e-05 0.0 
1.231391181638e-05 -6.555926561136e-05 0.0 
-8.246062943560e-05 1.786098559909e-04 0.0 
2.983371875019e-05 -2.210949812121e-05 0.0 
1.373784770773e-04 2.393181474860e-05 0.0 
1.052092425635e-04 -4.733152907118e-05 0.0 
3.943102053274e-04 3.966823544029e-04 0.0 
3.211083077535e-04 1.020411010283e-03 0.0 
3.890559479392e-04 4.473995599754e-04 0.0 
4.615129799946e-05 6.112078323306e-06 0.0 
-1.102743055900e-04 7.354780915407e-05 0.0 
1.317315660880e-06 3.910059734130e-05 0.0 
1.082933948654e-06 -5.143060318314e-08 0.0 
4.849991098085e-06 1.252754761203e-03 0.0 
1.372664650407e-04 -3.264108866889e-05 0.0 
3.907811789462e-04 2.747716191326e-04 0.0 
2.097284758188e-04 5.016944874957e-05 0.0 
1.288784630240e-05 -8.087799576956e-05 0.0 
-1.236574562501e-04 2.426354522025e-04 0.0 
3.741973086365e-05 3.227270335696e-04 0.0 
3.262004336949e-04 7.421760861979e-04 0.0 
2.885434052503e-04 1.335676281679e-03 0.0 
5.495510815629e-05 2.891137415246e-05 0.0 
2.809758377458e-06 -7.599056876141e-05 0.0 
5.103567373649e-05 2.433262609311e-05 0.0 
3.118443396729e-04 7.552798140663e-04 0.0 
1.118006030794e-04 -4.465225287454e-05 0.0 
3.983226545476e-04 2.797704965885e-04 0.0 
1.268911678403e-04 -3.776947324728e-05 0.0 
1.235167945209e-05 3.842855427053e-04 0.0 
1.084765631630e-04 -4.684057930106e-05 0.0 
3.266878578801e-04 5.861947579993e-04 0.0 
1.443571817142e-05 -5.945879962192e-06 0.0 
1.534322916434e-04 -2.020450321119e-05 0.0 
3.707683111305e-04 3.938936398730e-04 0.0 
-9.403960315667e-05 5.428380568274e-05 0.0 
1.830844334132e-04 5.792469163280e-06 0.0 
2.643444586672e-04 5.556630670123e-04 0.0 
8.685251542532e-05 -5.607762644059e-05 0.0 
8.785543726901e-05 -5.534891071171e-05 0.0 
3.885304018730e-04 2.517222481212e-04 0.0 
3.848849713196e-05 -2.969576050792e-05 0.0 
1.068501122237e-04 1.153774499243e-03 0.0 
1.730289810173e-04 1.313879334351e-03 0.0 
7.561405840897e-05 -6.114274390227e-05 0.0 
1.855353565064e-04 1.192687958728e-06 0.0 
3.575086339435e-04 1.887245643187e-04 0.0 
3.734208558340e-04 3.716090936200e-04 0.0 
1.718074288486e-04 2.218390347600e-04 0.0 
2.179632631953e-04 1.492146448528e-03 0.0 
1.318073069258e-05 7.250163394884e-04 0.0 
1.898323480483e-04 1.555070063179e-04 0.0 
1.905154888464e-04 4.203417617274e-05 0.0 
-7.978993052362e-05 3.232047688449e-04 0.0 
3.561866889964e-04 1.024790250906e-03 0.0 
1.694298498678e-04 -9.984905851708e-06 0.0 
3.544870852326e-04 4.567314266720e-04 0.0 
1.801273474349e-04 -4.423660033184e-06 0.0 
-2.524584463274e-05 1.480746861007e-04 0.0 
1.812835262641e-04 6.101508504563e-06 0.0 
5.608874365809e-05 4.684759293178e-04 0.0 
3.431001908621e-04 1.635194443959e-04 0.0 
1.788372133808e-04 9.488763846883e-07 0.0 
3.728489327776e-04 2.239865447644e-04 0.0 
4.989484923006e-05 9.042477567184e-04 0.0 
6.980827097285e-05 -6.334123660501e-05 0.0 
-4.286765007334e-05 2.635119847601e-04 0.0 
1.719667114438e-04 5.899121255661e-06 0.0 
1.144531915074e-04 5.789775193649e-04 0.0 
-7.249257757468e-05 7.450987187447e-05 0.0 
3.330206430412e-06 2.937353871763e-04 0.0 
4.488187976725e-06 4.383731279120e-04 0.0 
-6.145096050612e-06 -6.630843840792e-05 0.0 
1.712358590092e-04 1.039481482985e-05 0.0 
4.538117339917e-05 -7.193096396941e-05 0.0 
4.882877100855e-05 -7.087481652611e-05 0.0 
3.216125418874e-04 3.130870356767e-04 0.0 
3.625218695433e-04 2.007349082145e-04 0.0 
3.512727587968e-04 3.237653935490e-04 0.0 
1.728052637388e-04 -3.979965278217e-06 0.0 
8.896186771873e-05 1.450674966091e-03 0.0 
3.246547686752e-05 3.624566394020e-06 0.0 
3.817369879673e-05 -7.405525444108e-05 0.0 
1.810427194482e-04 4.283556078381e-05 0.0 
3.637285391791e-04 1.944065715986e-04 0.0 
8.381173185132e-06 -7.928681077553e-05 0.0 
3.608447985692e-04 5.369624349182e-04 0.0 
2.088889613859e-04 2.406930113712e-05 0.0 
1.013257583172e-06 -5.573132085981e-05 0.0 
1.618055551739e-04 3.038744441591e-06 0.0 
2.774180836331e-06 -1.939232607291e-05 0.0 
3.388524870222e-04 5.713874089595e-04 0.0 
2.730363089635e-05 -6.915746309196e-05 0.0 
1.075425223629e-05 -3.824666541549e-05 0.0 
3.411217495499e-04 3.815121831176e-04 0.0 
2.601022367790e-04 1.129459629807e-04 0.0 
9.127272735289e-05 -5.463702534482e-05 0.0 
6.903009424825e-06 -7.202109890327e-05 0.0 
3.536750831778e-04 1.744996375652e-04 0.0 
3.718963733517e-06 9.521115752688e-04 0.0 
-4.377322704533e-06 -4.413102146448e-05 0.0 
1.371447494426e-04 9.734733251078e-05 0.0 
9.518818331873e-05 1.384157901898e-04 0.0 
1.692112131914e-05 1.154506519186e-03 0.0 
6.347884036717e-05 2.173289029115e-04 0.0 
1.027003459742e-04 1.174670887113e-04 0.0 
1.758293394883e-04 -6.420124127705e-06 0.0 
1.442455185236e-04 -2.687435826902e-05 0.0 
8.806218367445e-05 2.433511407616e-05 0.0 
-1.086939589752e-04 9.164455020388e-05 0.0 
1.527678168293e-06 -7.426116646467e-05 0.0 
7.989167645730e-06 -3.555792728527e-05 0.0 
8.466286717331e-05 -5.748370295934e-05 0.0 
1.358396559761e-04 -2.431278088686e-05 0.0 
-1.212599034918e-05 7.518004994636e-04 0.0 
4.289300202873e-05 9.417238212138e-04 0.0 
1.578835744279e-04 1.174949714398e-03 0.0 
1.779862522683e-04 9.800288843086e-06 0.0 
1.885313089234e-05 -7.074179704446e-05 0.0 
3.043215858865e-04 1.616811376920e-04 0.0 
1.100259893957e-05 1.043779942237e-06 0.0 
1.443529466965e-05 1.563160744324e-06 0.0 
1.463953345025e-04 -2.733172056710e-05 0.0 
2.014292075722e-04 1.258083852244e-03 0.0 
-7.701541783768e-05 4.943325394525e-05 0.0 
-8.017334816641e-05 4.992826094661e-04 0.0 
2.742366260927e-05 -2.316765104636e-05 0.0 
-5.099573214800e-05 6.080380788454e-04 0.0 
3.541930416603e-04 1.775804061121e-04 0.0 
1.125278170317e-04 -4.274030375454e-05 0.0 
1.495811369501e-04 -1.857046497415e-05 0.0 
-2.826919879820e-05 4.598688278368e-06 0.0 
1.024352112136e-05 3.966259309584e-04 0.0 
1.240831312423e-04 -3.784510193578e-05 0.0 
3.248837195099e-05 3.154890807742e-04 0.0 
2.703626574003e-05 5.265423704281e-04 0.0 
3.950151024605e-06 8.636390112592e-05 0.0 
2.433283371186e-06 -7.671943193402e-08 0.0 
8.928120323300e-06 1.170888365367e-03 0.0 
1.186031742292e-04 -4.217372529592e-05 0.0 
9.805509423635e-05 1.310230834738e-03 0.0 
1.200126802345e-04 -4.122451903716e-05 0.0 
4.158564447213e-06 3.088754964512e-07 0.0 
-1.085169713175e-04 3.452838855609e-04 0.0 
-9.767047678583e-05 4.141354030359e-04 0.0 
1.735761549877e-04 4.740585974248e-05 0.0 
1.505984552066e-04 1.308674987841e-03 0.0 
1.948584690242e-05 3.022726959278e-04 0.0 
3.457410742245e-04 3.628469722522e-04 0.0 
2.142987332088e-04 9.560485368402e-05 0.0 
2.900807314752e-04 3.808837399043e-04 0.0 
5.762326489761e-05 1.120766670404e-03 0.0 
7.209174083848e-05 -6.204224306381e-05 0.0 
7.772325951894e-05 -5.909508748776e-05 0.0 
1.645859816212e-05 7.976833674505e-04 0.0 
2.466154283189e-04 1.164310172644e-04 0.0 
2.545181447374e-04 1.345661903438e-03 0.0 
3.076929411131e-05 1.317034629072e-03 0.0 
3.692028027000e-05 1.188252346605e-03 0.0 
6.616877540189e-05 1.138274525709e-03 0.0 
7.401327181760e-06 1.018657175233e-05 0.0 
6.280882049762e-05 -6.524453497338e-05 0.0 
2.890187730967e-05 1.925467461920e-04 0.0 
6.400918987115e-05 9.825287136330e-04 0.0 
7.603014219715e-05 2.714344023635e-05 0.0 
1.863991709251e-04 2.283846667382e-04 0.0 
3.699574323293e-04 5.170828524158e-04 0.0 
9.359680725390e-05 2.998226285442e-04 0.0 
3.288665072728e-05 -5.650641074963e-05 0.0 
3.049284568606e-05 -6.240537002435e-05 0.0 
5.586391684834e-05 5.077406864542e-06 0.0 
-4.629021917575e-05 6.143543110999e-06 0.0 
8.162338681437e-06 -7.368345518642e-05 0.0 
2.615822113653e-05 1.304662201260e-05 0.0 
1.567214413248e-06 -8.103099599322e-05 0.0 
3.801491542520e-05 1.273131108121e-03 0.0 
1.128619296801e-04 2.521013434541e-05 0.0 
6.415461577729e-06 -7.704212827241e-05 0.0 
4.194827740958e-06 -8.145785535419e-05 0.0 
1.776387085769e-05 7.407376919739e-05 0.0 
1.310574076602e-04 1.407392536075e-03 0.0 
4.286419432144e-05 2.078052919556e-04 0.0 
1.147790395849e-04 3.091999686781e-05 0.0 
1.137923404092e-04 1.409173679031e-03 0.0 
-9.030893763005e-05 9.090614478197e-05 0.0 
6.866219365812e-06 1.618794894452e-04 0.0 
1.440489186774e-05 -8.067500293568e-05 0.0 
4.762741616890e-05 2.715834940629e-04 0.0 
3.250599324124e-06 1.806324858280e-07 0.0 
1.574076625806e-04 2.347416991318e-04 0.0 
4.074037066781e-05 6.193377925302e-06 0.0 
2.257577040394e-04 1.154279315321e-03 0.0 
1.984753791476e-05 -5.676207406980e-05 0.0 
2.961330436537e-04 1.467034780287e-04 0.0 
4.037435946944e-05 1.474188793882e-05 0.0 
1.574600882143e-05 6.510692671997e-04 0.0 
3.826031488076e-05 1.259726995114e-05 0.0 
-2.786186870385e-05 1.765719409289e-05 0.0 
1.968577540459e-05 6.979151124193e-07 0.0 
5.562600376680e-05 -1.531388147596e-05 0.0 
7.050337208989e-06 -8.107943025293e-05 0.0 
6.247977570415e-05 1.244611776009e-05 0.0 
7.664238492883e-05 1.765622624755e-04 0.0 
3.874324242391e-05 1.454814564776e-04 0.0 
8.556915304542e-05 1.300122075142e-03 0.0 
2.856234207620e-04 1.062865702653e-03 0.0 
1.417854718475e-05 3.363704464682e-04 0.0 
1.211715504964e-04 1.332377640269e-04 0.0 
1.512343853034e-05 -6.476282312768e-05 0.0 
-5.205774962051e-05 1.902727799042e-04 0.0 
2.687529793336e-04 1.255224415228e-04 0.0 
7.049776667089e-05 1.451880431680e-03 0.0 
1.030305697194e-04 2.425027553333e-04 0.0 
5.552691007321e-07 8.207560251739e-05 0.0 
5.552691007321e-07 3.463583812262e-05 0.0 
6.633911406822e-07 -8.373109136644e-05 0.0 
3.023088446439e-07 -8.355365675134e-05 0.0 
3.789029165005e-06 1.397828388354e-03 0.0 
9.021315772278e-06 1.448545914453e-03 0.0 
4.198768175116e-07 -6.846309944051e-08 0.0 
4.198768175116e-07 -2.647779387380e-07 0.0 
1.468934900759e-06 -8.326280024757e-05 0.0 
-7.826614957834e-05 2.321733794178e-05 0.0 
1.950853421961e-05 -1.372527283107e-06 0.0 
2.030388894691e-04 1.168511545213e-04 0.0 
1.440456761440e-05 -8.013816805865e-05 0.0 
3.292521558212e-05 1.024010183272e-06 0.0 
4.777074034674e-06 -2.967769891483e-05 0.0 
4.842035942037e-06 -4.317610524243e-05 0.0 
4.345794373536e-05 9.252396645478e-04 0.0 
2.478937836257e-05 -4.160516204505e-05 0.0 
3.348269173625e-04 1.747353307069e-04 0.0 
1.171115638817e-05 -8.131146903674e-05 0.0 
2.838972580089e-05 -4.959920837428e-05 0.0 
1.614961123392e-04 1.830947614804e-04 0.0 
1.923991992188e-06 3.630159425999e-04 0.0 
9.371542020657e-06 -4.233125315493e-05 0.0 
2.800884093014e-05 1.073414346035e-03 0.0 
2.028232370987e-04 1.435001961277e-04 0.0 
2.745440109468e-04 3.160709245951e-04 0.0 
3.281243794546e-04 4.150957078864e-04 0.0 
9.730611428154e-05 1.403724169372e-03 0.0 
3.341223253959e-04 1.586462605914e-04 0.0 
1.280357795928e-04 2.436578186603e-04 0.0 
1.184298091109e-05 -7.323840988252e-05 0.0 
-6.807542831648e-06 -6.893409019737e-05 0.0 
2.390178319694e-04 1.779027947566e-04 0.0 
1.890424593451e-04 4.886619995673e-05 0.0 
1.287190147265e-05 -3.909670870590e-05 0.0 
2.278477228837e-05 8.134614499277e-04 0.0 
1.075484808950e-05 -1.677244349037e-07 0.0 
2.382755858844e-04 1.545057583990e-04 0.0 
2.019794805616e-04 1.289388036284e-04 0.0 
5.786833382941e-06 -2.305537500123e-05 0.0 
-9.902574067345e-05 1.506769978413e-04 0.0 
-2.307699322536e-05 8.840577921064e-04 0.0 
1.069838925203e-04 5.007602416799e-04 0.0 
2.380533217822e-04 1.102981917090e-03 0.0 
3.448818282963e-04 1.779165839418e-04 0.0 
3.712315436915e-05 2.633080690572e-04 0.0 
7.730013481145e-05 2.280673671078e-05 0.0 
-7.351892616312e-06 -4.966872210970e-05 0.0 
4.932956903807e-07 -6.698346924005e-05 0.0 
-9.083942993773e-05 5.667175637594e-04 0.0 
3.750445007054e-05 7.463585398078e-04 0.0 
2.226413624271e-05 -6.814127665296e-05 0.0 
8.728812971310e-05 2.409062521236e-04 0.0 
8.630115735670e-06 -8.022312700643e-05 0.0 
1.324740729520e-04 3.929448626457e-05 0.0 
1.461267482710e-04 1.164391125034e-03 0.0 
9.807817848759e-05 4.338095166294e-05 0.0 
2.831759963089e-04 1.511464047836e-04 0.0 
2.615101454304e-04 1.088627117882e-03 0.0 
5.072912216950e-05 7.866063908419e-06 0.0 
6.740043599999e-05 1.754618063785e-04 0.0 
5.639598440310e-06 1.895459099384e-04 0.0 
-1.180648524377e-04 3.895751009547e-04 0.0 
8.547263065693e-05 2.946148117191e-04 0.0 
1.130715799708e-04 8.302695821158e-05 0.0 
1.339172245128e-04 3.727320589211e-05 0.0 
2.528499030614e-04 1.270773208619e-04 0.0 
5.873847292596e-06 5.834701244022e-07 0.0 
3.198993933763e-04 4.296001952800e-04 0.0 
-1.351893802482e-04 1.741145803718e-04 0.0 
-3.838307729579e-05 2.304716539578e-04 0.0 
2.333897788399e-04 2.776139637942e-04 0.0 
2.185327705216e-04 1.017333574308e-03 0.0 
1.013400478978e-05 -2.496015639479e-06 0.0 
2.246506677151e-04 1.132653423521e-04 0.0 
2.067503565313e-05 1.583173576991e-06 0.0 
3.288072640831e-05 5.976868500468e-04 0.0 
9.039474406852e-05 3.635381355175e-05 0.0 
6.242613928585e-05 7.641540573786e-06 0.0 
6.627687952092e-05 9.079726901689e-06 0.0 
1.645702701427e-05 -6.682313422685e-05 0.0 
9.287316094189e-06 7.691853142865e-07 0.0 
1.906427230548e-04 1.311528931183e-03 0.0 
2.360848887449e-05 3.062128183082e-04 0.0 
3.965636896048e-06 -6.409259745976e-05 0.0 
1.531567983295e-05 4.254102034629e-04 0.0 
3.435718867602e-05 8.062494272915e-04 0.0 
1.057458965869e-06 -8.238257680358e-05 0.0 
2.399040329743e-05 1.556767354275e-05 0.0 
3.061041663814e-04 3.586651231809e-04 0.0 
3.126230147072e-05 1.569493508539e-04 0.0 
1.194818330002e-05 2.923396389445e-04 0.0 
1.152356605188e-04 4.495439857469e-05 0.0 
6.975525899741e-05 1.060794278096e-03 0.0 
7.167713610316e-07 -7.748529673119e-05 0.0 
-6.414049423691e-05 1.030617137062e-04 0.0 
4.141829836558e-06 -7.881471804490e-05 0.0 
1.288145865441e-05 -6.910763025862e-05 0.0 
-1.442636167224e-04 1.959020586227e-04 0.0 
2.516583109317e-05 -5.209915401943e-05 0.0 
1.275335182970e-05 -2.335447104854e-06 0.0 
1.541199640756e-04 2.458444055595e-04 0.0 
2.776606048904e-04 9.919133957223e-04 0.0 
3.456341040361e-05 -5.947993355176e-05 0.0 
5.400056691181e-05 3.997655789376e-06 0.0 
1.054111839401e-04 2.046978933442e-05 0.0 
1.188166280716e-04 5.529652325850e-05 0.0 
1.789087439904e-04 1.308816389214e-04 0.0 
2.472170264013e-04 2.648574375574e-04 0.0 
5.838047688044e-06 -6.980676411533e-05 0.0 
-4.508606654097e-05 3.059692756373e-05 0.0 
1.787293211330e-05 -1.853785820578e-06 0.0 
2.286613057739e-06 -8.218483827558e-05 0.0 
5.347790148525e-07 -8.176909411727e-05 0.0 
-1.032303662722e-04 2.240051614749e-04 0.0 
7.513987932119e-06 -7.854788296145e-05 0.0 
3.813347011648e-05 5.835006536491e-06 0.0 
1.049593415222e-04 9.554457889859e-05 0.0 
3.324079843886e-05 2.628871996656e-04 0.0 
9.558289827189e-05 4.612038864206e-05 0.0 
1.262646003131e-04 2.423291229929e-05 0.0 
5.643255914592e-05 9.779312733566e-04 0.0 
8.104560337416e-06 3.089591158743e-05 0.0 
5.362599356959e-05 -2.573095990749e-05 0.0 
1.223560295095e-04 1.456339023676e-03 0.0 
6.345663856152e-06 -4.501985139105e-05 0.0 
5.622278776353e-06 -8.198157506814e-05 0.0 
6.272749270018e-06 2.711092319689e-07 0.0 
2.587404849351e-04 1.257382578731e-03 0.0 
7.446495743022e-06 -8.154792710461e-05 0.0 
1.755304069701e-05 -5.383811970866e-05 0.0 
1.211170892762e-04 1.185888951222e-04 0.0 
5.334718227130e-05 2.786530054607e-04 0.0 
6.508527972235e-05 1.365919907604e-04 0.0 
9.475649460984e-06 -6.968612983821e-05 0.0 
-5.585683243089e-05 8.100522729522e-05 0.0 
2.756928837571e-05 1.901909574080e-06 0.0 
1.872584761612e-06 7.373643546392e-05 0.0 
1.502810766165e-06 -1.198937026237e-07 0.0 
8.639020263090e-06 1.316961284321e-03 0.0 
9.558528915420e-05 2.041599587789e-05 0.0 
9.497056227975e-06 -8.111634547289e-05 0.0 
8.131907023136e-05 2.424283851882e-04 0.0 
4.883517325250e-06 -8.103323692058e-05 0.0 
4.677382824814e-05 9.170712914714e-06 0.0 
8.650958827822e-05 1.764971836676e-04 0.0 
-8.584258592540e-05 1.100943091072e-04 0.0 
2.388212346134e-04 1.456522700787e-04 0.0 
3.242781334439e-05 6.685209015816e-04 0.0 
2.062345602042e-05 1.491076012924e-04 0.0 
1.618495406255e-05 5.587809917904e-06 0.0 
1.348392883517e-05 8.734110670381e-04 0.0 
9.814626064943e-05 9.964164611478e-05 0.0 
1.104276947999e-04 2.416910273799e-04 0.0 
2.690224006570e-05 7.677948138683e-04 0.0 
1.586532373140e-04 1.611779456608e-04 0.0 
1.853247167334e-05 -6.222320472642e-05 0.0 
6.179448019434e-05 1.407515839468e-03 0.0 
1.634887976115e-04 8.395836085886e-05 0.0 
1.961483538956e-06 1.570053267952e-04 0.0 
1.307337245781e-06 -8.358746052071e-05 0.0 
1.679578411531e-05 1.405727598271e-03 0.0 
1.352199939167e-06 -6.652351939210e-07 0.0 
1.635038712236e-05 -7.991195106268e-05 0.0 
1.230324599592e-04 3.078639771625e-05 0.0 
1.389290171967e-04 2.501193754595e-04 0.0 
2.414851179397e-05 1.936263491198e-04 0.0 
1.041880417007e-05 -8.024470722870e-05 0.0 
-6.288737502073e-05 1.773381810931e-04 0.0 
2.000611228400e-06 -3.970829483348e-05 0.0 
1.294354789236e-05 5.191711953757e-04 0.0 
-9.449351235690e-05 3.946276831748e-05 0.0 
5.013278113300e-05 1.368379226460e-04 0.0 
2.429026108552e-05 9.018492844203e-04 0.0 
2.463575499485e-05 -4.862593050929e-05 0.0 
4.568607434746e-05 1.009299981930e-03 0.0 
1.248016478441e-04 6.433309520053e-05 0.0 
3.765032716465e-06 -3.617470461577e-05 0.0 
-1.314571424389e-04 2.064913140950e-04 0.0 
2.097603455812e-05 -6.611253759651e-05 0.0 
2.581462864928e-05 -4.625339569646e-05 0.0 
1.764421488064e-06 -3.272694699444e-05 0.0 
1.517741662520e-04 6.145802315411e-05 0.0 
1.331222146649e-05 -4.773026389886e-05 0.0 
1.725629161189e-05 -4.333952371512e-05 0.0 
7.834315266008e-06 -8.044905424249e-05 0.0 
3.555486540406e-05 1.546298400541e-06 0.0 
2.392530917942e-04 1.894566885398e-04 0.0 
-2.662329267411e-05 1.733880718213e-04 0.0 
3.278799199835e-06 1.486661597417e-04 0.0 
2.435133887821e-06 -5.203509578066e-07 0.0 
1.641348860612e-05 1.324778128116e-03 0.0 
1.831587484151e-05 9.342437986558e-04 0.0 
1.832959751894e-05 -4.844830848849e-05 0.0 
2.058558629935e-05 -4.602080647239e-05 0.0 
1.262687341541e-05 -4.436271243384e-05 0.0 
1.533490518305e-04 4.088904743179e-05 0.0 
1.387892151551e-05 -5.035380316208e-05 0.0 
2.028484387748e-04 1.589782528102e-04 0.0 
2.989319160893e-05 1.157361977069e-03 0.0 
6.046783305386e-05 1.793102731857e-04 0.0 
1.462207928277e-04 3.638604103721e-05 0.0 
5.363311776789e-05 1.038688982514e-03 0.0 
2.108450462470e-04 2.348085356247e-04 0.0 
1.525164257865e-04 6.520800380680e-05 0.0 
1.155972895979e-04 4.942249215986e-05 0.0 
-1.157077838242e-04 1.912469222829e-04 0.0 
2.168738449804e-04 2.297661387176e-04 0.0 
1.853968496151e-04 1.854615477292e-04 0.0 
7.522055476498e-06 -8.111043993550e-05 0.0 
2.033474516115e-05 -5.118084335770e-05 0.0 
-1.158142443795e-04 1.704997763966e-04 0.0 
1.760069705300e-04 1.920876941069e-04 0.0 
2.882617103866e-05 2.196994627912e-03 0.0 
3.261747140968e-05 2.146232465259e-03 0.0 
4.506980969242e-05 2.197867850333e-03 0.0 
4.844153497340e-05 2.147596879272e-03 0.0 
5.990624411784e-05 2.198906185595e-03 0.0 
6.401517025130e-05 2.148439445623e-03 0.0 
7.495196773981e-05 2.199506051436e-03 0.0 
7.925482349057e-05 2.149022777113e-03 0.0 
8.973625259111e-05 2.199849723436e-03 0.0 
9.396181484353e-05 2.149349062085e-03 0.0 
1.038765975316e-04 2.199807731978e-03 0.0 
1.079072823760e-04 2.149230852100e-03 0.0 
1.170603939481e-04 2.199125748986e-03 0.0 
1.208538573373e-04 2.148382815375e-03 0.0 
1.290032551800e-04 2.197478918214e-03 0.0 
1.325580686907e-04 2.146448688815e-03 0.0 
1.394154944850e-04 2.194466540808e-03 0.0 
8.257571921511e-05 1.618236243545e-03 0.0 
1.427594020420e-04 2.142980275885e-03 0.0 
1.479834544019e-04 2.189584129248e-03 0.0 
1.102016023261e-04 1.651836284821e-03 0.0 
1.511829680494e-04 2.137413972773e-03 0.0 
1.543712387420e-04 2.182197929745e-03 0.0 
1.575444541728e-04 2.129038880528e-03 0.0 
1.582272254694e-04 2.171513572554e-03 0.0 
1.615595744131e-04 2.116973427831e-03 0.0 
1.955398909206e-05 1.636091163004e-03 0.0 
1.591798175254e-04 2.156577424373e-03 0.0 
1.629513391945e-04 2.100150771347e-03 0.0 
1.568282132126e-04 2.136176292135e-03 0.0 
1.614629466524e-04 2.077161018932e-03 0.0 
1.507817797363e-04 2.108772349366e-03 0.0 
1.569547998143e-04 2.046227664997e-03 0.0 
1.407674049250e-04 2.072265262257e-03 0.0 
1.494794919828e-04 2.004875776115e-03 0.0 
1.267611710078e-04 2.024136383985e-03 0.0 
1.395289625365e-04 1.950182417510e-03 0.0 
1.139390837467e-04 1.514503446974e-03 0.0 
1.280972062081e-04 1.877721206145e-03 0.0 
1.091433612638e-04 1.960746137521e-03 0.0 
1.169038757208e-04 1.782115805671e-03 0.0 
8.913586550869e-05 1.877740766029e-03 0.0 
6.895218866714e-05 1.767730225430e-03 0.0 
5.091735362361e-05 1.532358366433e-03 0.0 
3.698511795918e-06 2.171101782496e-03 0.0 
1.830646941583e-05 2.171140718719e-03 0.0 
9.969397761988e-06 2.119505631652e-03 0.0 
1.203558344976e-05 2.222736869563e-03 0.0 
3.242994655844e-05 1.434693043188e-03 0.0 
2.266567974471e-05 1.993238283574e-03 0.0 
2.933093167208e-05 2.044633403057e-03 0.0 
3.935878500936e-05 1.994675489847e-03 0.0 
4.601705002793e-05 2.046003580988e-03 0.0 
5.540141861591e-05 1.995869439751e-03 0.0 
6.193482969484e-05 2.046995998062e-03 0.0 
7.090917267114e-05 1.996787443683e-03 0.0 
7.729236897837e-05 2.047747616920e-03 0.0 
8.591393579003e-05 1.997496500382e-03 0.0 
9.210195255464e-05 2.048270999223e-03 0.0 
1.003742007061e-04 1.997898165276e-03 0.0 
1.062647478395e-04 2.048399348259e-03 0.0 
1.141955655584e-04 1.997771497723e-03 0.0 
1.196315634842e-04 2.047860067952e-03 0.0 
1.272569045525e-04 1.996808289158e-03 0.0 
1.320340119163e-04 2.046300807181e-03 0.0 
1.993099547233e-04 1.678530888742e-03 0.0 
1.394274184793e-04 1.994613736764e-03 0.0 
1.432953828107e-04 2.043275353475e-03 0.0 
1.687538532188e-04 1.708963045672e-03 0.0 
1.505786815412e-04 1.990685030305e-03 0.0 
1.532422144200e-04 2.038219796240e-03 0.0 
2.106402421067e-04 1.688808826807e-03 0.0 
1.605987134159e-04 1.984390348589e-03 0.0 
1.617126824760e-04 2.030425475905e-03 0.0 
1.694009670697e-04 1.974940588285e-03 0.0 
1.685650877102e-04 2.019013848185e-03 0.0 
1.769423951671e-04 1.961358271174e-03 0.0 
1.737084035391e-04 2.002891197794e-03 0.0 
2.192117891580e-04 1.604696509742e-03 0.0 
1.832607893667e-04 1.942389814730e-03 0.0 
1.771384584619e-04 1.980634115081e-03 0.0 
1.885295225118e-04 1.916420437339e-03 0.0 
1.790270307803e-04 1.950402656821e-03 0.0 
1.797555237586e-04 1.909749698406e-03 0.0 
1.931156676667e-04 1.881314176372e-03 0.0 
1.801621392678e-04 1.855549665112e-03 0.0 
1.976703795149e-04 1.834377553878e-03 0.0 
1.812482606220e-04 1.783560536035e-03 0.0 
2.029275924089e-04 1.771952715012e-03 0.0 
1.886556876535e-04 1.635128666672e-03 0.0 
2.889361958600e-06 2.017377364251e-03 0.0 
1.462336802215e-05 2.017982312477e-03 0.0 
9.160247924669e-06 2.068504507546e-03 0.0 
8.352482056083e-06 1.966855169182e-03 0.0 
1.780551238144e-04 1.592387486062e-03 0.0 
2.178093751679e-05 1.891645990940e-03 0.0 
2.715973618497e-05 1.841313358928e-03 0.0 
3.807233175016e-05 1.892947738352e-03 0.0 
4.341130920714e-05 1.842632037696e-03 0.0 
5.408213105432e-05 1.894225647955e-03 0.0 
5.941075586595e-05 1.843872245032e-03 0.0 
6.970438640385e-05 1.895307482449e-03 0.0 
7.508829402165e-05 1.844948851420e-03 0.0 
8.491464710060e-05 1.896177696115e-03 0.0 
9.042799944006e-05 1.845792862906e-03 0.0 
9.969953628098e-05 1.896738833225e-03 0.0 
1.054109563583e-04 1.846257017762e-03 0.0 
1.140164385024e-04 1.896788499276e-03 0.0 
1.200094912833e-04 1.846093660297e-03 0.0 
1.278139594076e-04 1.896024879949e-03 0.0 
2.509753225024e-04 1.659656914804e-03 0.0 
1.341928025086e-04 1.844962861057e-03 0.0 
2.538429469896e-04 1.656249923878e-03 0.0 
1.410291542165e-04 1.894059199849e-03 0.0 
1.479292522940e-04 1.842415373951e-03 0.0 
1.536108152874e-04 1.890379587697e-03 0.0 
1.612150756637e-04 1.837866594723e-03 0.0 
1.655394409134e-04 1.884342589680e-03 0.0 
1.740854117022e-04 1.830588419734e-03 0.0 
2.342623075733e-04 1.696666472974e-03 0.0 
1.768329687984e-04 1.875151291023e-03 0.0 
1.866243999173e-04 1.819672521417e-03 0.0 
1.875697056456e-04 1.861806241667e-03 0.0 
1.989953325998e-04 1.803978604778e-03 0.0 
1.979204079490e-04 1.843029251221e-03 0.0 
2.114468695229e-04 1.781985480963e-03 0.0 
2.081783149905e-04 1.817132366730e-03 0.0 
2.243975031953e-04 1.751828753519e-03 0.0 
2.382260723055e-04 1.711028944699e-03 0.0 
2.188373476030e-04 1.782028343680e-03 0.0 
2.671973739032e-04 1.603835854317e-03 0.0 
2.304192481256e-04 1.734942632864e-03 0.0 
2.504843589741e-04 1.640845412486e-03 0.0 
2.658702282094e-06 1.865292192783e-03 0.0 
1.350796611773e-05 1.865705372842e-03 0.0 
8.044846020246e-06 1.814827043443e-03 0.0 
8.121822379577e-06 1.916170522181e-03 0.0 
2.485416252944e-04 1.621379945297e-03 0.0 
2.088696614039e-05 1.688696983438e-03 0.0 
2.656573386943e-05 1.739762732972e-03 0.0 
3.673162504252e-05 1.689777165301e-03 0.0 
4.266460481505e-05 1.741012090601e-03 0.0 
5.260567127582e-05 1.691032576720e-03 0.0 
5.868100047954e-05 1.742299120894e-03 0.0 
6.841822485323e-05 1.692244476759e-03 0.0 
7.453188785745e-05 1.743458969868e-03 0.0 
8.413041650366e-05 1.693280300483e-03 0.0 
9.020017500732e-05 1.744385348824e-03 0.0 
9.975288424667e-05 1.694018939995e-03 0.0 
1.056921287567e-04 1.744944638612e-03 0.0 
1.152997102420e-04 1.694249839013e-03 0.0 
2.669322050996e-04 1.594715822517e-03 0.0 
1.210115906245e-04 1.744867379183e-03 0.0 
1.308086935940e-04 1.693678199536e-03 0.0 
2.583284811034e-04 1.637266677997e-03 0.0 
1.361854373538e-04 1.743842461758e-03 0.0 
1.463212699097e-04 1.691937700517e-03 0.0 
2.647447178075e-04 1.581740599965e-03 0.0 
1.512287331421e-04 1.741414273919e-03 0.0 
1.618843055642e-04 1.688493124019e-03 0.0 
1.661890850924e-04 1.736981231077e-03 0.0 
1.775912133584e-04 1.682687871105e-03 0.0 
1.811631747185e-04 1.729819064806e-03 0.0 
2.814576203681e-04 1.548694071085e-03 0.0 
1.935820811622e-04 1.673726214022e-03 0.0 
1.962957492648e-04 1.719016799343e-03 0.0 
2.117985001873e-04 1.703426968681e-03 0.0 
2.100442225806e-04 1.660598883497e-03 0.0 
2.279719643286e-04 1.681593234296e-03 0.0 
2.272486703423e-04 1.642085368458e-03 0.0 
2.450070499989e-04 1.651612987016e-03 0.0 
2.453129565999e-04 1.616524353559e-03 0.0 
2.728538963718e-04 1.591244926565e-03 0.0 
2.594950739194e-06 1.713415963106e-03 0.0 
1.314424551397e-05 1.713668471170e-03 0.0 
7.981094477347e-06 1.764188523317e-03 0.0 
7.758101775822e-06 1.662895910958e-03 0.0 
2.761751864381e-04 1.586314484281e-03 0.0 
2.073310900952e-05 1.587365036695e-03 0.0 
2.608961052968e-05 1.536942677473e-03 0.0 
3.640935883366e-05 1.588289056544e-03 0.0 
4.193156210586e-05 1.537929643589e-03 0.0 
5.219489477549e-05 1.589438238465e-03 0.0 
5.790272346399e-05 1.539084327122e-03 0.0 
6.805072433801e-05 1.590624021242e-03 0.0 
7.399505298023e-05 1.540214712409e-03 0.0 
8.396108214166e-05 1.591656498541e-03 0.0 
9.020713423627e-05 1.541130608817e-03 0.0 
9.992917783762e-05 1.592388001929e-03 0.0 
1.065952203806e-04 1.541687576835e-03 0.0 
2.613332247664e-04 1.497032310550e-03 0.0 
1.160265082750e-04 1.592623715301e-03 0.0 
2.556596416191e-04 1.477659461976e-03 0.0 
1.232124003368e-04 1.541580870115e-03 0.0 
1.322827052733e-04 1.592017814179e-03 0.0 
1.401477144254e-04 1.540500251788e-03 0.0 
1.488095353020e-04 1.590255875904e-03 0.0 
1.575176465720e-04 1.538026172909e-03 0.0 
1.656849536018e-04 1.586786847621e-03 0.0 
1.754083697860e-04 1.533515197273e-03 0.0 
2.583492372511e-04 1.542439318111e-03 0.0 
1.830098500144e-04 1.580928113699e-03 0.0 
1.939687182988e-04 1.526224832739e-03 0.0 
2.009689880865e-04 1.571891739361e-03 0.0 
2.133868790799e-04 1.515278867183e-03 0.0 
2.338516469398e-04 1.499534645517e-03 0.0 
2.197484454714e-04 1.558695425998e-03 0.0 
2.395975942040e-04 1.540096502794e-03 0.0 
2.738850386824e-04 1.458878196559e-03 0.0 
2.709010511671e-04 1.504285204120e-03 0.0 
2.555416326933e-06 1.561486381423e-03 0.0 
1.295085397083e-05 1.561682300950e-03 0.0 
7.787702934206e-06 1.510926994892e-03 0.0 
7.718567363561e-06 1.612241687481e-03 0.0 
2.776024383245e-04 1.508497852517e-03 0.0 

VECTORS element_materi_displacement float
0.0 0.0 0.0 
0.0 0.0 0.0 
0.0 0.0 0.0 
0.0 0.0 0.0 
0.0 0.0 0.0 
0.0 0.0 0.0 
0.0 0.0 0.0 
0.0 0.0 0.0 
0.0 0.0 0.0 
0.0 0.0 0.0 
0.0 0.0 0.0 
0.0 0.0 0.0 
0.0 0.0 0.0 
0.0 0.0 0.0 
0.0 0.0 0.0 
0.0 0.0 0.0 
0.0 0.0 0.0 
0.0 0.0 0.0 
0.0 0.0 0.0 
0.0 0.0 0.0 
0.0 0.0 0.0 
0.0 0.0 0.0 
0.0 0.0 0.0 
0.0 0.0 0.0 
0.0 0.0 0.0 
0.0 0.0 0.0 
0.0 0.0 0.0 
0.0 0.0 0.0 
0.0 0.0 0.0 
0.0 0.0 0.0 
0.0 0.0 0.0 
0.0 0.0 0.0 
0.0 0.0 0.0 
0.0 0.0 0.0 
0.0 0.0 0.0 
0.0 0.0 0.0 
0.0 0.0 0.0 
0.0 0.0 0.0 
0.0 0.0 0.0 
0.0 0.0 0.0 
0.0 0.0 0.0 
0.0 0.0 0.0 
0.0 0.0 0.0 
0.0 0.0 0.0 
0.0 0.0 0.0 
0.0 0.0 0.0 
0.0 0.0 0.0 
0.0 0.0 0.0 
0.0 0.0 0.0 
0.0 0.0 0.0 
0.0 0.0 0.0 
0.0 0.0 0.0 
0.0 0.0 0.0 
0.0 0.0 0.0 
0.0 0.0 0.0 
0.0 0.0 0.0 
0.0 0.0 0.0 
0.0 0.0 0.0 
0.0 0.0 0.0 
0.0 0.0 0.0 
0.0 0.0 0.0 
0.0 0.0 0.0 
0.0 0.0 0.0 
0.0 0.0 0.0 
0.0 0.0 0.0 
0.0 0.0 0.0 
0.0 0.0 0.0 
0.0 0.0 0.0 
0.0 0.0 0.0 
0.0 0.0 0.0 
0.0 0.0 0.0 
0.0 0.0 0.0 
0.0 0.0 0.0 
0.0 0.0 0.0 
0.0 0.0 0.0 
0.0 0.0 0.0 
0.0 0.0 0.0 
0.0 0.0 0.0 
0.0 0.0 0.0 
0.0 0.0 0.0 
0.0 0.0 0.0 
0.0 0.0 0.0 
0.0 0.0 0.0 
0.0 0.0 0.0 
0.0 0.0 0.0 
0.0 0.0 0.0 
0.0 0.0 0.0 
0.0 0.0 0.0 
0.0 0.0 0.0 
0.0 0.0 0.0 
0.0 0.0 0.0 
0.0 0.0 0.0 
0.0 0.0 0.0 
0.0 0.0 0.0 
0.0 0.0 0.0 
0.0 0.0 0.0 
0.0 0.0 0.0 
0.0 0.0 0.0 
0.0 0.0 0.0 
0.0 0.0 0.0 
0.0 0.0 0.0 
0.0 0.0 0.0 
0.0 0.0 0.0 
0.0 0.0 0.0 
0.0 0.0 0.0 
0.0 0.0 0.0 
0.0 0.0 0.0 
0.0 0.0 0.0 
0.0 0.0 0.0 
0.0 0.0 0.0 
0.0 0.0 0.0 
0.0 0.0 0.0 
0.0 0.0 0.0 
0.0 0.0 0.0 
0.0 0.0 0.0 
0.0 0.0 0.0 
0.0 0.0 0.0 
0.0 0.0 0.0 
0.0 0.0 0.0 
0.0 0.0 0.0 
0.0 0.0 0.0 
0.0 0.0 0.0 
0.0 0.0 0.0 
0.0 0.0 0.0 
0.0 0.0 0.0 
0.0 0.0 0.0 
0.0 0.0 0.0 
0.0 0.0 0.0 
0.0 0.0 0.0 
0.0 0.0 0.0 
0.0 0.0 0.0 
0.0 0.0 0.0 
0.0 0.0 0.0 
0.0 0.0 0.0 
0.0 0.0 0.0 
0.0 0.0 0.0 
0.0 0.0 0.0 
0.0 0.0 0.0 
0.0 0.0 0.0 
0.0 0.0 0.0 
0.0 0.0 0.0 
0.0 0.0 0.0 
0.0 0.0 0.0 
0.0 0.0 0.0 
0.0 0.0 0.0 
0.0 0.0 0.0 
0.0 0.0 0.0 
0.0 0.0 0.0 
0.0 0.0 0.0 
0.0 0.0 0.0 
0.0 0.0 0.0 
0.0 0.0 0.0 
0.0 0.0 0.0 
0.0 0.0 0.0 
0.0 0.0 0.0 
0.0 0.0 0.0 
0.0 0.0 0.0 
0.0 0.0 0.0 
0.0 0.0 0.0 
0.0 0.0 0.0 
0.0 0.0 0.0 
0.0 0.0 0.0 
0.0 0.0 0.0 
0.0 0.0 0.0 
0.0 0.0 0.0 
0.0 0.0 0.0 
0.0 0.0 0.0 
0.0 0.0 0.0 
0.0 0.0 0.0 
0.0 0.0 0.0 
0.0 0.0 0.0 
0.0 0.0 0.0 
0.0 0.0 0.0 
0.0 0.0 0.0 
0.0 0.0 0.0 
0.0 0.0 0.0 
0.0 0.0 0.0 
0.0 0.0 0.0 
0.0 0.0 0.0 
0.0 0.0 0.0 
0.0 0.0 0.0 
0.0 0.0 0.0 
0.0 0.0 0.0 
0.0 0.0 0.0 
0.0 0.0 0.0 
0.0 0.0 0.0 
0.0 0.0 0.0 
0.0 0.0 0.0 
0.0 0.0 0.0 
0.0 0.0 0.0 
0.0 0.0 0.0 
0.0 0.0 0.0 
0.0 0.0 0.0 
0.0 0.0 0.0 
0.0 0.0 0.0 
0.0 0.0 0.0 
0.0 0.0 0.0 
0.0 0.0 0.0 
0.0 0.0 0.0 
0.0 0.0 0.0 
0.0 0.0 0.0 
0.0 0.0 0.0 
0.0 0.0 0.0 
0.0 0.0 0.0 
0.0 0.0 0.0 
0.0 0.0 0.0 
0.0 0.0 0.0 
0.0 0.0 0.0 
0.0 0.0 0.0 
0.0 0.0 0.0 
0.0 0.0 0.0 
0.0 0.0 0.0 
0.0 0.0 0.0 
0.0 0.0 0.0 
0.0 0.0 0.0 
0.0 0.0 0.0 
0.0 0.0 0.0 
0.0 0.0 0.0 
0.0 0.0 0.0 
0.0 0.0 0.0 
0.0 0.0 0.0 
0.0 0.0 0.0 
0.0 0.0 0.0 
0.0 0.0 0.0 
0.0 0.0 0.0 
0.0 0.0 0.0 
0.0 0.0 0.0 
0.0 0.0 0.0 
0.0 0.0 0.0 
0.0 0.0 0.0 
0.0 0.0 0.0 
0.0 0.0 0.0 
0.0 0.0 0.0 
0.0 0.0 0.0 
0.0 0.0 0.0 
0.0 0.0 0.0 
0.0 0.0 0.0 
0.0 0.0 0.0 
0.0 0.0 0.0 
0.0 0.0 0.0 
0.0 0.0 0.0 
0.0 0.0 0.0 
0.0 0.0 0.0 
0.0 0.0 0.0 
0.0 0.0 0.0 
0.0 0.0 0.0 
0.0 0.0 0.0 
0.0 0.0 0.0 
0.0 0.0 0.0 
0.0 0.0 0.0 
0.0 0.0 0.0 
0.0 0.0 0.0 
0.0 0.0 0.0 
0.0 0.0 0.0 
0.0 0.0 0.0 
0.0 0.0 0.0 
0.0 0.0 0.0 
0.0 0.0 0.0 
0.0 0.0 0.0 
0.0 0.0 0.0 
0.0 0.0 0.0 
0.0 0.0 0.0 
0.0 0.0 0.0 
0.0 0.0 0.0 
0.0 0.0 0.0 
0.0 0.0 0.0 
0.0 0.0 0.0 
0.0 0.0 0.0 
0.0 0.0 0.0 
0.0 0.0 0.0 
0.0 0.0 0.0 
0.0 0.0 0.0 
0.0 0.0 0.0 
0.0 0.0 0.0 
0.0 0.0 0.0 
0.0 0.0 0.0 
0.0 0.0 0.0 
0.0 0.0 0.0 
0.0 0.0 0.0 
0.0 0.0 0.0 
0.0 0.0 0.0 
0.0 0.0 0.0 
0.0 0.0 0.0 
0.0 0.0 0.0 
0.0 0.0 0.0 
0.0 0.0 0.0 
0.0 0.0 0.0 
0.0 0.0 0.0 
0.0 0.0 0.0 
0.0 0.0 0.0 
0.0 0.0 0.0 
0.0 0.0 0.0 
0.0 0.0 0.0 
0.0 0.0 0.0 
0.0 0.0 0.0 
0.0 0.0 0.0 
0.0 0.0 0.0 
0.0 0.0 0.0 
0.0 0.0 0.0 
0.0 0.0 0.0 
0.0 0.0 0.0 
0.0 0.0 0.0 
0.0 0.0 0.0 
0.0 0.0 0.0 
0.0 0.0 0.0 
0.0 0.0 0.0 
0.0 0.0 0.0 
0.0 0.0 0.0 
0.0 0.0 0.0 
0.0 0.0 0.0 
0.0 0.0 0.0 
0.0 0.0 0.0 
0.0 0.0 0.0 
0.0 0.0 0.0 
0.0 0.0 0.0 
0.0 0.0 0.0 
0.0 0.0 0.0 
0.0 0.0 0.0 
0.0 0.0 0.0 
0.0 0.0 0.0 
0.0 0.0 0.0 
0.0 0.0 0.0 
0.0 0.0 0.0 
0.0 0.0 0.0 
0.0 0.0 0.0 
0.0 0.0 0.0 
0.0 0.0 0.0 
0.0 0.0 0.0 
0.0 0.0 0.0 
0.0 0.0 0.0 
0.0 0.0 0.0 
0.0 0.0 0.0 
0.0 0.0 0.0 
0.0 0.0 0.0 
0.0 0.0 0.0 
0.0 0.0 0.0 
0.0 0.0 0.0 
0.0 0.0 0.0 
0.0 0.0 0.0 
0.0 0.0 0.0 
0.0 0.0 0.0 
0.0 0.0 0.0 
0.0 0.0 0.0 
0.0 0.0 0.0 
0.0 0.0 0.0 
0.0 0.0 0.0 
0.0 0.0 0.0 
0.0 0.0 0.0 
0.0 0.0 0.0 
0.0 0.0 0.0 
0.0 0.0 0.0 
0.0 0.0 0.0 
0.0 0.0 0.0 
0.0 0.0 0.0 
0.0 0.0 0.0 
0.0 0.0 0.0 
0.0 0.0 0.0 
0.0 0.0 0.0 
0.0 0.0 0.0 
0.0 0.0 0.0 
0.0 0.0 0.0 
0.0 0.0 0.0 
0.0 0.0 0.0 
0.0 0.0 0.0 
0.0 0.0 0.0 
0.0 0.0 0.0 
0.0 0.0 0.0 
0.0 0.0 0.0 
0.0 0.0 0.0 
0.0 0.0 0.0 
0.0 0.0 0.0 
0.0 0.0 0.0 
0.0 0.0 0.0 
0.0 0.0 0.0 
0.0 0.0 0.0 
0.0 0.0 0.0 
0.0 0.0 0.0 
0.0 0.0 0.0 
0.0 0.0 0.0 
0.0 0.0 0.0 
0.0 0.0 0.0 
0.0 0.0 0.0 
0.0 0.0 0.0 
0.0 0.0 0.0 
0.0 0.0 0.0 
0.0 0.0 0.0 
0.0 0.0 0.0 
0.0 0.0 0.0 
0.0 0.0 0.0 
0.0 0.0 0.0 
0.0 0.0 0.0 
0.0 0.0 0.0 
0.0 0.0 0.0 
0.0 0.0 0.0 
0.0 0.0 0.0 
0.0 0.0 0.0 
0.0 0.0 0.0 
0.0 0.0 0.0 
0.0 0.0 0.0 
0.0 0.0 0.0 
0.0 0.0 0.0 
0.0 0.0 0.0 
0.0 0.0 0.0 
0.0 0.0 0.0 
0.0 0.0 0.0 
0.0 0.0 0.0 
0.0 0.0 0.0 
0.0 0.0 0.0 
0.0 0.0 0.0 
0.0 0.0 0.0 
0.0 0.0 0.0 
0.0 0.0 0.0 
0.0 0.0 0.0 
0.0 0.0 0.0 
0.0 0.0 0.0 
0.0 0.0 0.0 
0.0 0.0 0.0 
0.0 0.0 0.0 
0.0 0.0 0.0 
0.0 0.0 0.0 
0.0 0.0 0.0 
0.0 0.0 0.0 
0.0 0.0 0.0 
0.0 0.0 0.0 
0.0 0.0 0.0 
0.0 0.0 0.0 
0.0 0.0 0.0 
0.0 0.0 0.0 
0.0 0.0 0.0 
0.0 0.0 0.0 
0.0 0.0 0.0 
0.0 0.0 0.0 
0.0 0.0 0.0 
0.0 0.0 0.0 
0.0 0.0 0.0 
0.0 0.0 0.0 
0.0 0.0 0.0 
0.0 0.0 0.0 
0.0 0.0 0.0 
0.0 0.0 0.0 
0.0 0.0 0.0 
0.0 0.0 0.0 
0.0 0.0 0.0 
0.0 0.0 0.0 
0.0 0.0 0.0 
0.0 0.0 0.0 
0.0 0.0 0.0 
0.0 0.0 0.0 
0.0 0.0 0.0 
0.0 0.0 0.0 
0.0 0.0 0.0 
0.0 0.0 0.0 
0.0 0.0 0.0 
0.0 0.0 0.0 
0.0 0.0 0.0 
0.0 0.0 0.0 
0.0 0.0 0.0 
0.0 0.0 0.0 
0.0 0.0 0.0 
0.0 0.0 0.0 
0.0 0.0 0.0 
0.0 0.0 0.0 
0.0 0.0 0.0 
0.0 0.0 0.0 
0.0 0.0 0.0 
0.0 0.0 0.0 
0.0 0.0 0.0 
0.0 0.0 0.0 
0.0 0.0 0.0 
0.0 0.0 0.0 
0.0 0.0 0.0 
0.0 0.0 0.0 
0.0 0.0 0.0 
0.0 0.0 0.0 
0.0 0.0 0.0 
0.0 0.0 0.0 
0.0 0.0 0.0 
0.0 0.0 0.0 
0.0 0.0 0.0 
0.0 0.0 0.0 
0.0 0.0 0.0 
0.0 0.0 0.0 
0.0 0.0 0.0 
0.0 0.0 0.0 
0.0 0.0 0.0 
0.0 0.0 0.0 
0.0 0.0 0.0 
0.0 0.0 0.0 
0.0 0.0 0.0 
0.0 0.0 0.0 
0.0 0.0 0.0 
0.0 0.0 0.0 
0.0 0.0 0.0 
0.0 0.0 0.0 
0.0 0.0 0.0 
0.0 0.0 0.0 
0.0 0.0 0.0 
0.0 0.0 0.0 
0.0 0.0 0.0 
0.0 0.0 0.0 
0.0 0.0 0.0 
0.0 0.0 0.0 
0.0 0.0 0.0 
0.0 0.0 0.0 
0.0 0.0 0.0 
0.0 0.0 0.0 
0.0 0.0 0.0 
0.0 0.0 0.0 
0.0 0.0 0.0 
0.0 0.0 0.0 
0.0 0.0 0.0 
0.0 0.0 0.0 
0.0 0.0 0.0 
0.0 0.0 0.0 
0.0 0.0 0.0 
0.0 0.0 0.0 
0.0 0.0 0.0 
0.0 0.0 0.0 
0.0 0.0 0.0 
0.0 0.0 0.0 
0.0 0.0 0.0 
0.0 0.0 0.0 
0.0 0.0 0.0 
0.0 0.0 0.0 
0.0 0.0 0.0 
0.0 0.0 0.0 
0.0 0.0 0.0 
0.0 0.0 0.0 
0.0 0.0 0.0 
0.0 0.0 0.0 
0.0 0.0 0.0 
0.0 0.0 0.0 
0.0 0.0 0.0 
0.0 0.0 0.0 
0.0 0.0 0.0 
0.0 0.0 0.0 
0.0 0.0 0.0 
0.0 0.0 0.0 
0.0 0.0 0.0 
0.0 0.0 0.0 
0.0 0.0 0.0 
0.0 0.0 0.0 
0.0 0.0 0.0 
0.0 0.0 0.0 
0.0 0.0 0.0 
0.0 0.0 0.0 
0.0 0.0 0.0 
0.0 0.0 0.0 
0.0 0.0 0.0 
0.0 0.0 0.0 
0.0 0.0 0.0 
0.0 0.0 0.0 
0.0 0.0 0.0 
0.0 0.0 0.0 
0.0 0.0 0.0 
0.0 0.0 0.0 
0.0 0.0 0.0 
0.0 0.0 0.0 
0.0 0.0 0.0 
0.0 0.0 0.0 
0.0 0.0 0.0 
0.0 0.0 0.0 
0.0 0.0 0.0 
0.0 0.0 0.0 
0.0 0.0 0.0 
0.0 0.0 0.0 
0.0 0.0 0.0 
0.0 0.0 0.0 
0.0 0.0 0.0 
0.0 0.0 0.0 
0.0 0.0 0.0 
0.0 0.0 0.0 
0.0 0.0 0.0 
0.0 0.0 0.0 
0.0 0.0 0.0 
0.0 0.0 0.0 
0.0 0.0 0.0 
0.0 0.0 0.0 
0.0 0.0 0.0 
0.0 0.0 0.0 
0.0 0.0 0.0 
0.0 0.0 0.0 
0.0 0.0 0.0 
0.0 0.0 0.0 
0.0 0.0 0.0 
0.0 0.0 0.0 
0.0 0.0 0.0 
0.0 0.0 0.0 
0.0 0.0 0.0 
0.0 0.0 0.0 
0.0 0.0 0.0 
0.0 0.0 0.0 
0.0 0.0 0.0 
0.0 0.0 0.0 
0.0 0.0 0.0 
0.0 0.0 0.0 
0.0 0.0 0.0 
0.0 0.0 0.0 
0.0 0.0 0.0 
0.0 0.0 0.0 
0.0 0.0 0.0 
0.0 0.0 0.0 
0.0 0.0 0.0 
0.0 0.0 0.0 
0.0 0.0 0.0 
0.0 0.0 0.0 
0.0 0.0 0.0 
0.0 0.0 0.0 
0.0 0.0 0.0 
0.0 0.0 0.0 
0.0 0.0 0.0 
0.0 0.0 0.0 
0.0 0.0 0.0 
0.0 0.0 0.0 
0.0 0.0 0.0 
0.0 0.0 0.0 
0.0 0.0 0.0 
0.0 0.0 0.0 
0.0 0.0 0.0 
0.0 0.0 0.0 
0.0 0.0 0.0 
0.0 0.0 0.0 
0.0 0.0 0.0 
0.0 0.0 0.0 
0.0 0.0 0.0 
0.0 0.0 0.0 
0.0 0.0 0.0 
0.0 0.0 0.0 
0.0 0.0 0.0 
0.0 0.0 0.0 
0.0 0.0 0.0 
0.0 0.0 0.0 
0.0 0.0 0.0 
0.0 0.0 0.0 
0.0 0.0 0.0 
0.0 0.0 0.0 
0.0 0.0 0.0 
0.0 0.0 0.0 
0.0 0.0 0.0 
0.0 0.0 0.0 
0.0 0.0 0.0 
0.0 0.0 0.0 
0.0 0.0 0.0 
0.0 0.0 0.0 
0.0 0.0 0.0 
0.0 0.0 0.0 
0.0 0.0 0.0 
0.0 0.0 0.0 
0.0 0.0 0.0 
0.0 0.0 0.0 
0.0 0.0 0.0 
0.0 0.0 0.0 
0.0 0.0 0.0 
0.0 0.0 0.0 
0.0 0.0 0.0 
0.0 0.0 0.0 
0.0 0.0 0.0 
0.0 0.0 0.0 
0.0 0.0 0.0 
0.0 0.0 0.0 
0.0 0.0 0.0 
0.0 0.0 0.0 
0.0 0.0 0.0 
0.0 0.0 0.0 
0.0 0.0 0.0 
0.0 0.0 0.0 
0.0 0.0 0.0 
0.0 0.0 0.0 
0.0 0.0 0.0 
0.0 0.0 0.0 
0.0 0.0 0.0 
0.0 0.0 0.0 
0.0 0.0 0.0 
0.0 0.0 0.0 
0.0 0.0 0.0 
0.0 0.0 0.0 
0.0 0.0 0.0 
0.0 0.0 0.0 
0.0 0.0 0.0 
0.0 0.0 0.0 
0.0 0.0 0.0 
0.0 0.0 0.0 
0.0 0.0 0.0 
0.0 0.0 0.0 
0.0 0.0 0.0 
0.0 0.0 0.0 
0.0 0.0 0.0 
0.0 0.0 0.0 
0.0 0.0 0.0 
0.0 0.0 0.0 
0.0 0.0 0.0 
0.0 0.0 0.0 
0.0 0.0 0.0 
0.0 0.0 0.0 
0.0 0.0 0.0 
0.0 0.0 0.0 
0.0 0.0 0.0 
0.0 0.0 0.0 
0.0 0.0 0.0 
0.0 0.0 0.0 
0.0 0.0 0.0 
0.0 0.0 0.0 
0.0 0.0 0.0 
0.0 0.0 0.0 
0.0 0.0 0.0 
0.0 0.0 0.0 
0.0 0.0 0.0 
0.0 0.0 0.0 
0.0 0.0 0.0 
0.0 0.0 0.0 
0.0 0.0 0.0 
0.0 0.0 0.0 
0.0 0.0 0.0 
0.0 0.0 0.0 
0.0 0.0 0.0 
0.0 0.0 0.0 
0.0 0.0 0.0 
0.0 0.0 0.0 
0.0 0.0 0.0 
0.0 0.0 0.0 
0.0 0.0 0.0 
0.0 0.0 0.0 
0.0 0.0 0.0 
0.0 0.0 0.0 
0.0 0.0 0.0 
0.0 0.0 0.0 
0.0 0.0 0.0 
0.0 0.0 0.0 
0.0 0.0 0.0 
0.0 0.0 0.0 
0.0 0.0 0.0 
0.0 0.0 0.0 
0.0 0.0 0.0 
0.0 0.0 0.0 
0.0 0.0 0.0 
0.0 0.0 0.0 
0.0 0.0 0.0 
0.0 0.0 0.0 
0.0 0.0 0.0 
0.0 0.0 0.0 
0.0 0.0 0.0 
0.0 0.0 0.0 
0.0 0.0 0.0 
0.0 0.0 0.0 
0.0 0.0 0.0 
0.0 0.0 0.0 
0.0 0.0 0.0 
0.0 0.0 0.0 
0.0 0.0 0.0 
0.0 0.0 0.0 
0.0 0.0 0.0 
0.0 0.0 0.0 
0.0 0.0 0.0 
0.0 0.0 0.0 
0.0 0.0 0.0 
0.0 0.0 0.0 
0.0 0.0 0.0 
0.0 0.0 0.0 
0.0 0.0 0.0 
0.0 0.0 0.0 
0.0 0.0 0.0 
0.0 0.0 0.0 
0.0 0.0 0.0 
0.0 0.0 0.0 
0.0 0.0 0.0 
0.0 0.0 0.0 
0.0 0.0 0.0 
0.0 0.0 0.0 
0.0 0.0 0.0 
0.0 0.0 0.0 
0.0 0.0 0.0 
0.0 0.0 0.0 
0.0 0.0 0.0 
0.0 0.0 0.0 
0.0 0.0 0.0 
0.0 0.0 0.0 
0.0 0.0 0.0 
0.0 0.0 0.0 
0.0 0.0 0.0 
0.0 0.0 0.0 
0.0 0.0 0.0 
0.0 0.0 0.0 
0.0 0.0 0.0 
0.0 0.0 0.0 
0.0 0.0 0.0 
0.0 0.0 0.0 
0.0 0.0 0.0 
0.0 0.0 0.0 
0.0 0.0 0.0 
0.0 0.0 0.0 
0.0 0.0 0.0 
0.0 0.0 0.0 
0.0 0.0 0.0 
0.0 0.0 0.0 
0.0 0.0 0.0 
0.0 0.0 0.0 
0.0 0.0 0.0 
0.0 0.0 0.0 
0.0 0.0 0.0 
0.0 0.0 0.0 
0.0 0.0 0.0 
0.0 0.0 0.0 
0.0 0.0 0.0 
0.0 0.0 0.0 
0.0 0.0 0.0 
0.0 0.0 0.0 
0.0 0.0 0.0 
0.0 0.0 0.0 
0.0 0.0 0.0 
0.0 0.0 0.0 
0.0 0.0 0.0 
0.0 0.0 0.0 
0.0 0.0 0.0 
0.0 0.0 0.0 
0.0 0.0 0.0 
0.0 0.0 0.0 
0.0 0.0 0.0 
0.0 0.0 0.0 
0.0 0.0 0.0 
0.0 0.0 0.0 
0.0 0.0 0.0 
0.0 0.0 0.0 
0.0 0.0 0.0 
0.0 0.0 0.0 
0.0 0.0 0.0 
0.0 0.0 0.0 
0.0 0.0 0.0 
0.0 0.0 0.0 
0.0 0.0 0.0 
0.0 0.0 0.0 
0.0 0.0 0.0 
0.0 0.0 0.0 
0.0 0.0 0.0 
0.0 0.0 0.0 
0.0 0.0 0.0 
0.0 0.0 0.0 
0.0 0.0 0.0 
0.0 0.0 0.0 
0.0 0.0 0.0 
0.0 0.0 0.0 
0.0 0.0 0.0 
0.0 0.0 0.0 
0.0 0.0 0.0 
0.0 0.0 0.0 
0.0 0.0 0.0 
0.0 0.0 0.0 
0.0 0.0 0.0 
0.0 0.0 0.0 
0.0 0.0 0.0 
0.0 0.0 0.0 
0.0 0.0 0.0 
0.0 0.0 0.0 
0.0 0.0 0.0 
0.0 0.0 0.0 
0.0 0.0 0.0 
0.0 0.0 0.0 
0.0 0.0 0.0 
0.0 0.0 0.0 
0.0 0.0 0.0 
0.0 0.0 0.0 
0.0 0.0 0.0 
0.0 0.0 0.0 
0.0 0.0 0.0 
0.0 0.0 0.0 
0.0 0.0 0.0 
0.0 0.0 0.0 
0.0 0.0 0.0 
0.0 0.0 0.0 
0.0 0.0 0.0 
0.0 0.0 0.0 
0.0 0.0 0.0 
0.0 0.0 0.0 
0.0 0.0 0.0 
0.0 0.0 0.0 
0.0 0.0 0.0 
0.0 0.0 0.0 
0.0 0.0 0.0 
0.0 0.0 0.0 
0.0 0.0 0.0 
0.0 0.0 0.0 
0.0 0.0 0.0 
0.0 0.0 0.0 
0.0 0.0 0.0 
0.0 0.0 0.0 
0.0 0.0 0.0 
0.0 0.0 0.0 
0.0 0.0 0.0 
0.0 0.0 0.0 
0.0 0.0 0.0 
0.0 0.0 0.0 
0.0 0.0 0.0 
0.0 0.0 0.0 
0.0 0.0 0.0 
0.0 0.0 0.0 
0.0 0.0 0.0 
0.0 0.0 0.0 
0.0 0.0 0.0 
0.0 0.0 0.0 
0.0 0.0 0.0 
0.0 0.0 0.0 
0.0 0.0 0.0 
0.0 0.0 0.0 
0.0 0.0 0.0 
0.0 0.0 0.0 
0.0 0.0 0.0 
0.0 0.0 0.0 
0.0 0.0 0.0 
0.0 0.0 0.0 
0.0 0.0 0.0 
0.0 0.0 0.0 
0.0 0.0 0.0 
0.0 0.0 0.0 
0.0 0.0 0.0 
0.0 0.0 0.0 
0.0 0.0 0.0 
0.0 0.0 0.0 
0.0 0.0 0.0 
0.0 0.0 0.0 
0.0 0.0 0.0 
0.0 0.0 0.0 
0.0 0.0 0.0 
0.0 0.0 0.0 
0.0 0.0 0.0 
0.0 0.0 0.0 
0.0 0.0 0.0 
0.0 0.0 0.0 
0.0 0.0 0.0 
0.0 0.0 0.0 
0.0 0.0 0.0 
0.0 0.0 0.0 
0.0 0.0 0.0 
0.0 0.0 0.0 
0.0 0.0 0.0 
0.0 0.0 0.0 
0.0 0.0 0.0 
0.0 0.0 0.0 
0.0 0.0 0.0 
0.0 0.0 0.0 
0.0 0.0 0.0 
0.0 0.0 0.0 
0.0 0.0 0.0 
0.0 0.0 0.0 
0.0 0.0 0.0 
0.0 0.0 0.0 
0.0 0.0 0.0 
0.0 0.0 0.0 
0.0 0.0 0.0 
0.0 0.0 0.0 
0.0 0.0 0.0 
0.0 0.0 0.0 
0.0 0.0 0.0 
0.0 0.0 0.0 
0.0 0.0 0.0 
0.0 0.0 0.0 
0.0 0.0 0.0 
0.0 0.0 0.0 
0.0 0.0 0.0 
0.0 0.0 0.0 
0.0 0.0 0.0 
0.0 0.0 0.0 
0.0 0.0 0.0 
0.0 0.0 0.0 
0.0 0.0 0.0 
0.0 0.0 0.0 
0.0 0.0 0.0 
0.0 0.0 0.0 
0.0 0.0 0.0 
0.0 0.0 0.0 
0.0 0.0 0.0 
0.0 0.0 0.0 
0.0 0.0 0.0 
0.0 0.0 0.0 
0.0 0.0 0.0 
0.0 0.0 0.0 
0.0 0.0 0.0 
0.0 0.0 0.0 
0.0 0.0 0.0 
0.0 0.0 0.0 
0.0 0.0 0.0 
0.0 0.0 0.0 
0.0 0.0 0.0 
0.0 0.0 0.0 
0.0 0.0 0.0 
0.0 0.0 0.0 
0.0 0.0 0.0 
0.0 0.0 0.0 
0.0 0.0 0.0 
0.0 0.0 0.0 
0.0 0.0 0.0 
0.0 0.0 0.0 
0.0 0.0 0.0 
0.0 0.0 0.0 
0.0 0.0 0.0 
0.0 0.0 0.0 
0.0 0.0 0.0 
0.0 0.0 0.0 
0.0 0.0 0.0 
0.0 0.0 0.0 
0.0 0.0 0.0 
0.0 0.0 0.0 
0.0 0.0 0.0 
0.0 0.0 0.0 
0.0 0.0 0.0 
0.0 0.0 0.0 
0.0 0.0 0.0 
0.0 0.0 0.0 
0.0 0.0 0.0 
0.0 0.0 0.0 
0.0 0.0 0.0 
0.0 0.0 0.0 
0.0 0.0 0.0 
0.0 0.0 0.0 
0.0 0.0 0.0 
0.0 0.0 0.0 
0.0 0.0 0.0 
0.0 0.0 0.0 
0.0 0.0 0.0 
0.0 0.0 0.0 
0.0 0.0 0.0 
0.0 0.0 0.0 
0.0 0.0 0.0 
0.0 0.0 0.0 
0.0 0.0 0.0 
0.0 0.0 0.0 
0.0 0.0 0.0 
0.0 0.0 0.0 
0.0 0.0 0.0 
0.0 0.0 0.0 
0.0 0.0 0.0 
0.0 0.0 0.0 
0.0 0.0 0.0 
0.0 0.0 0.0 
0.0 0.0 0.0 
0.0 0.0 0.0 
0.0 0.0 0.0 
0.0 0.0 0.0 
0.0 0.0 0.0 
0.0 0.0 0.0 
0.0 0.0 0.0 
0.0 0.0 0.0 
0.0 0.0 0.0 
0.0 0.0 0.0 
0.0 0.0 0.0 
0.0 0.0 0.0 
0.0 0.0 0.0 
0.0 0.0 0.0 
0.0 0.0 0.0 
0.0 0.0 0.0 
0.0 0.0 0.0 
0.0 0.0 0.0 
0.0 0.0 0.0 
0.0 0.0 0.0 
0.0 0.0 0.0 
0.0 0.0 0.0 
0.0 0.0 0.0 
0.0 0.0 0.0 
0.0 0.0 0.0 
0.0 0.0 0.0 
0.0 0.0 0.0 
0.0 0.0 0.0 
0.0 0.0 0.0 
0.0 0.0 0.0 
0.0 0.0 0.0 
0.0 0.0 0.0 
0.0 0.0 0.0 
0.0 0.0 0.0 
0.0 0.0 0.0 
0.0 0.0 0.0 
0.0 0.0 0.0 
0.0 0.0 0.0 
0.0 0.0 0.0 
0.0 0.0 0.0 
0.0 0.0 0.0 
0.0 0.0 0.0 
0.0 0.0 0.0 
0.0 0.0 0.0 
0.0 0.0 0.0 
0.0 0.0 0.0 
0.0 0.0 0.0 
0.0 0.0 0.0 
0.0 0.0 0.0 
0.0 0.0 0.0 
0.0 0.0 0.0 
0.0 0.0 0.0 
0.0 0.0 0.0 
0.0 0.0 0.0 
0.0 0.0 0.0 
0.0 0.0 0.0 
0.0 0.0 0.0 
0.0 0.0 0.0 
0.0 0.0 0.0 
0.0 0.0 0.0 
0.0 0.0 0.0 
0.0 0.0 0.0 
0.0 0.0 0.0 
0.0 0.0 0.0 
0.0 0.0 0.0 
0.0 0.0 0.0 
0.0 0.0 0.0 
0.0 0.0 0.0 
0.0 0.0 0.0 
0.0 0.0 0.0 
0.0 0.0 0.0 
0.0 0.0 0.0 
0.0 0.0 0.0 
0.0 0.0 0.0 
0.0 0.0 0.0 
0.0 0.0 0.0 
0.0 0.0 0.0 
0.0 0.0 0.0 
0.0 0.0 0.0 
0.0 0.0 0.0 
0.0 0.0 0.0 
0.0 0.0 0.0 
0.0 0.0 0.0 
0.0 0.0 0.0 
0.0 0.0 0.0 
0.0 0.0 0.0 
0.0 0.0 0.0 
0.0 0.0 0.0 
0.0 0.0 0.0 
0.0 0.0 0.0 
0.0 0.0 0.0 
0.0 0.0 0.0 
0.0 0.0 0.0 
0.0 0.0 0.0 
0.0 0.0 0.0 
0.0 0.0 0.0 
0.0 0.0 0.0 
0.0 0.0 0.0 
0.0 0.0 0.0 
0.0 0.0 0.0 
0.0 0.0 0.0 
0.0 0.0 0.0 
0.0 0.0 0.0 
0.0 0.0 0.0 
0.0 0.0 0.0 
0.0 0.0 0.0 
0.0 0.0 0.0 
0.0 0.0 0.0 
0.0 0.0 0.0 
0.0 0.0 0.0 
0.0 0.0 0.0 
0.0 0.0 0.0 
0.0 0.0 0.0 
0.0 0.0 0.0 
0.0 0.0 0.0 
0.0 0.0 0.0 
0.0 0.0 0.0 
0.0 0.0 0.0 
0.0 0.0 0.0 
0.0 0.0 0.0 
0.0 0.0 0.0 
0.0 0.0 0.0 
0.0 0.0 0.0 
0.0 0.0 0.0 
0.0 0.0 0.0 
0.0 0.0 0.0 
0.0 0.0 0.0 
0.0 0.0 0.0 
0.0 0.0 0.0 
0.0 0.0 0.0 
0.0 0.0 0.0 
0.0 0.0 0.0 
0.0 0.0 0.0 
0.0 0.0 0.0 
0.0 0.0 0.0 
0.0 0.0 0.0 
0.0 0.0 0.0 
0.0 0.0 0.0 
0.0 0.0 0.0 
0.0 0.0 0.0 
0.0 0.0 0.0 
0.0 0.0 0.0 
0.0 0.0 0.0 
0.0 0.0 0.0 
0.0 0.0 0.0 
0.0 0.0 0.0 
0.0 0.0 0.0 
0.0 0.0 0.0 
0.0 0.0 0.0 
0.0 0.0 0.0 
0.0 0.0 0.0 
0.0 0.0 0.0 
0.0 0.0 0.0 
0.0 0.0 0.0 
0.0 0.0 0.0 
0.0 0.0 0.0 
0.0 0.0 0.0 
0.0 0.0 0.0 
0.0 0.0 0.0 
0.0 0.0 0.0 
0.0 0.0 0.0 
0.0 0.0 0.0 
0.0 0.0 0.0 
0.0 0.0 0.0 
0.0 0.0 0.0 
0.0 0.0 0.0 
0.0 0.0 0.0 
0.0 0.0 0.0 
0.0 0.0 0.0 
0.0 0.0 0.0 
0.0 0.0 0.0 
0.0 0.0 0.0 
0.0 0.0 0.0 
0.0 0.0 0.0 
0.0 0.0 0.0 
0.0 0.0 0.0 
0.0 0.0 0.0 
0.0 0.0 0.0 
0.0 0.0 0.0 
0.0 0.0 0.0 
0.0 0.0 0.0 
0.0 0.0 0.0 
0.0 0.0 0.0 
0.0 0.0 0.0 
0.0 0.0 0.0 
0.0 0.0 0.0 
0.0 0.0 0.0 
0.0 0.0 0.0 
0.0 0.0 0.0 
0.0 0.0 0.0 
0.0 0.0 0.0 
0.0 0.0 0.0 
0.0 0.0 0.0 
0.0 0.0 0.0 
0.0 0.0 0.0 
0.0 0.0 0.0 
0.0 0.0 0.0 
0.0 0.0 0.0 
0.0 0.0 0.0 
0.0 0.0 0.0 
0.0 0.0 0.0 
0.0 0.0 0.0 
0.0 0.0 0.0 
0.0 0.0 0.0 
0.0 0.0 0.0 
0.0 0.0 0.0 
0.0 0.0 0.0 
0.0 0.0 0.0 
0.0 0.0 0.0 
0.0 0.0 0.0 
0.0 0.0 0.0 
0.0 0.0 0.0 
0.0 0.0 0.0 
0.0 0.0 0.0 
0.0 0.0 0.0 
0.0 0.0 0.0 
0.0 0.0 0.0 
0.0 0.0 0.0 
0.0 0.0 0.0 
0.0 0.0 0.0 
0.0 0.0 0.0 
0.0 0.0 0.0 
0.0 0.0 0.0 
0.0 0.0 0.0 
0.0 0.0 0.0 
0.0 0.0 0.0 
0.0 0.0 0.0 
0.0 0.0 0.0 
0.0 0.0 0.0 
0.0 0.0 0.0 
0.0 0.0 0.0 
0.0 0.0 0.0 
0.0 0.0 0.0 
0.0 0.0 0.0 
0.0 0.0 0.0 
0.0 0.0 0.0 
0.0 0.0 0.0 
0.0 0.0 0.0 
0.0 0.0 0.0 
0.0 0.0 0.0 
0.0 0.0 0.0 
0.0 0.0 0.0 
0.0 0.0 0.0 
0.0 0.0 0.0 
0.0 0.0 0.0 
0.0 0.0 0.0 
0.0 0.0 0.0 
0.0 0.0 0.0 
0.0 0.0 0.0 
0.0 0.0 0.0 
0.0 0.0 0.0 
0.0 0.0 0.0 
0.0 0.0 0.0 
0.0 0.0 0.0 
0.0 0.0 0.0 
0.0 0.0 0.0 
0.0 0.0 0.0 
0.0 0.0 0.0 
0.0 0.0 0.0 
0.0 0.0 0.0 
0.0 0.0 0.0 
0.0 0.0 0.0 
0.0 0.0 0.0 
0.0 0.0 0.0 
0.0 0.0 0.0 
0.0 0.0 0.0 
0.0 0.0 0.0 
0.0 0.0 0.0 
0.0 0.0 0.0 
0.0 0.0 0.0 
0.0 0.0 0.0 
0.0 0.0 0.0 
0.0 0.0 0.0 
0.0 0.0 0.0 
0.0 0.0 0.0 
0.0 0.0 0.0 
0.0 0.0 0.0 
0.0 0.0 0.0 
0.0 0.0 0.0 
0.0 0.0 0.0 
0.0 0.0 0.0 
0.0 0.0 0.0 
0.0 0.0 0.0 
0.0 0.0 0.0 
0.0 0.0 0.0 
0.0 0.0 0.0 
0.0 0.0 0.0 
0.0 0.0 0.0 
0.0 0.0 0.0 
0.0 0.0 0.0 
0.0 0.0 0.0 
0.0 0.0 0.0 
0.0 0.0 0.0 
0.0 0.0 0.0 
0.0 0.0 0.0 
0.0 0.0 0.0 
0.0 0.0 0.0 
0.0 0.0 0.0 
0.0 0.0 0.0 
0.0 0.0 0.0 
0.0 0.0 0.0 
0.0 0.0 0.0 
0.0 0.0 0.0 
0.0 0.0 0.0 
0.0 0.0 0.0 
0.0 0.0 0.0 
0.0 0.0 0.0 
0.0 0.0 0.0 
0.0 0.0 0.0 
0.0 0.0 0.0 
0.0 0.0 0.0 
0.0 0.0 0.0 
0.0 0.0 0.0 
0.0 0.0 0.0 
0.0 0.0 0.0 
0.0 0.0 0.0 
0.0 0.0 0.0 
0.0 0.0 0.0 
0.0 0.0 0.0 
0.0 0.0 0.0 
0.0 0.0 0.0 
0.0 0.0 0.0 
0.0 0.0 0.0 
0.0 0.0 0.0 
0.0 0.0 0.0 
0.0 0.0 0.0 
0.0 0.0 0.0 
0.0 0.0 0.0 
0.0 0.0 0.0 
0.0 0.0 0.0 
0.0 0.0 0.0 
0.0 0.0 0.0 
0.0 0.0 0.0 
0.0 0.0 0.0 
0.0 0.0 0.0 
0.0 0.0 0.0 
0.0 0.0 0.0 
0.0 0.0 0.0 
0.0 0.0 0.0 
0.0 0.0 0.0 
0.0 0.0 0.0 
0.0 0.0 0.0 
0.0 0.0 0.0 
0.0 0.0 0.0 
0.0 0.0 0.0 
0.0 0.0 0.0 
0.0 0.0 0.0 
0.0 0.0 0.0 
0.0 0.0 0.0 
0.0 0.0 0.0 
0.0 0.0 0.0 
0.0 0.0 0.0 
0.0 0.0 0.0 
0.0 0.0 0.0 
0.0 0.0 0.0 
0.0 0.0 0.0 
0.0 0.0 0.0 
0.0 0.0 0.0 
0.0 0.0 0.0 
0.0 0.0 0.0 
0.0 0.0 0.0 
0.0 0.0 0.0 
0.0 0.0 0.0 
0.0 0.0 0.0 
0.0 0.0 0.0 
0.0 0.0 0.0 
0.0 0.0 0.0 
0.0 0.0 0.0 
0.0 0.0 0.0 
0.0 0.0 0.0 
0.0 0.0 0.0 
0.0 0.0 0.0 
0.0 0.0 0.0 
0.0 0.0 0.0 
0.0 0.0 0.0 
0.0 0.0 0.0 
0.0 0.0 0.0 
0.0 0.0 0.0 
0.0 0.0 0.0 
0.0 0.0 0.0 
0.0 0.0 0.0 
0.0 0.0 0.0 
0.0 0.0 0.0 
0.0 0.0 0.0 
0.0 0.0 0.0 
0.0 0.0 0.0 
0.0 0.0 0.0 
0.0 0.0 0.0 
0.0 0.0 0.0 
0.0 0.0 0.0 
0.0 0.0 0.0 
0.0 0.0 0.0 
0.0 0.0 0.0 
0.0 0.0 0.0 
0.0 0.0 0.0 
0.0 0.0 0.0 
0.0 0.0 0.0 
0.0 0.0 0.0 
0.0 0.0 0.0 
0.0 0.0 0.0 
0.0 0.0 0.0 
0.0 0.0 0.0 
0.0 0.0 0.0 
0.0 0.0 0.0 
0.0 0.0 0.0 
0.0 0.0 0.0 
0.0 0.0 0.0 
0.0 0.0 0.0 
0.0 0.0 0.0 
0.0 0.0 0.0 
0.0 0.0 0.0 
0.0 0.0 0.0 
0.0 0.0 0.0 
0.0 0.0 0.0 
0.0 0.0 0.0 
0.0 0.0 0.0 
0.0 0.0 0.0 
0.0 0.0 0.0 
0.0 0.0 0.0 
0.0 0.0 0.0 
0.0 0.0 0.0 
0.0 0.0 0.0 
0.0 0.0 0.0 
0.0 0.0 0.0 
0.0 0.0 0.0 
0.0 0.0 0.0 
0.0 0.0 0.0 
0.0 0.0 0.0 
0.0 0.0 0.0 
0.0 0.0 0.0 
0.0 0.0 0.0 
0.0 0.0 0.0 
0.0 0.0 0.0 
0.0 0.0 0.0 
0.0 0.0 0.0 
0.0 0.0 0.0 
0.0 0.0 0.0 
0.0 0.0 0.0 
0.0 0.0 0.0 
0.0 0.0 0.0 
0.0 0.0 0.0 
0.0 0.0 0.0 
0.0 0.0 0.0 
0.0 0.0 0.0 
0.0 0.0 0.0 
0.0 0.0 0.0 
0.0 0.0 0.0 
0.0 0.0 0.0 
0.0 0.0 0.0 
0.0 0.0 0.0 
0.0 0.0 0.0 
0.0 0.0 0.0 
0.0 0.0 0.0 
0.0 0.0 0.0 
0.0 0.0 0.0 
0.0 0.0 0.0 
0.0 0.0 0.0 
0.0 0.0 0.0 
0.0 0.0 0.0 
0.0 0.0 0.0 
0.0 0.0 0.0 
0.0 0.0 0.0 
0.0 0.0 0.0 
0.0 0.0 0.0 
0.0 0.0 0.0 
0.0 0.0 0.0 
0.0 0.0 0.0 
0.0 0.0 0.0 
0.0 0.0 0.0 
0.0 0.0 0.0 
0.0 0.0 0.0 
0.0 0.0 0.0 
0.0 0.0 0.0 
0.0 0.0 0.0 
0.0 0.0 0.0 
0.0 0.0 0.0 
0.0 0.0 0.0 
0.0 0.0 0.0 
0.0 0.0 0.0 
0.0 0.0 0.0 
0.0 0.0 0.0 
0.0 0.0 0.0 
0.0 0.0 0.0 
0.0 0.0 0.0 
0.0 0.0 0.0 
0.0 0.0 0.0 
0.0 0.0 0.0 
0.0 0.0 0.0 
0.0 0.0 0.0 
0.0 0.0 0.0 
0.0 0.0 0.0 
0.0 0.0 0.0 
0.0 0.0 0.0 
0.0 0.0 0.0 
0.0 0.0 0.0 
0.0 0.0 0.0 
0.0 0.0 0.0 
0.0 0.0 0.0 
0.0 0.0 0.0 
0.0 0.0 0.0 
0.0 0.0 0.0 
0.0 0.0 0.0 
0.0 0.0 0.0 
0.0 0.0 0.0 
0.0 0.0 0.0 
0.0 0.0 0.0 
0.0 0.0 0.0 
0.0 0.0 0.0 
0.0 0.0 0.0 
0.0 0.0 0.0 
0.0 0.0 0.0 
0.0 0.0 0.0 
0.0 0.0 0.0 
0.0 0.0 0.0 
0.0 0.0 0.0 
0.0 0.0 0.0 
0.0 0.0 0.0 
0.0 0.0 0.0 
0.0 0.0 0.0 
0.0 0.0 0.0 
0.0 0.0 0.0 
0.0 0.0 0.0 
0.0 0.0 0.0 
0.0 0.0 0.0 
0.0 0.0 0.0 
0.0 0.0 0.0 
0.0 0.0 0.0 
0.0 0.0 0.0 
0.0 0.0 0.0 
0.0 0.0 0.0 
0.0 0.0 0.0 
0.0 0.0 0.0 
0.0 0.0 0.0 
0.0 0.0 0.0 
0.0 0.0 0.0 
0.0 0.0 0.0 
0.0 0.0 0.0 
0.0 0.0 0.0 
0.0 0.0 0.0 
0.0 0.0 0.0 
0.0 0.0 0.0 
0.0 0.0 0.0 
0.0 0.0 0.0 
0.0 0.0 0.0 
0.0 0.0 0.0 
0.0 0.0 0.0 
0.0 0.0 0.0 
0.0 0.0 0.0 
0.0 0.0 0.0 
0.0 0.0 0.0 
0.0 0.0 0.0 
0.0 0.0 0.0 
0.0 0.0 0.0 
0.0 0.0 0.0 
0.0 0.0 0.0 
0.0 0.0 0.0 
0.0 0.0 0.0 
0.0 0.0 0.0 
0.0 0.0 0.0 
0.0 0.0 0.0 
0.0 0.0 0.0 
0.0 0.0 0.0 
0.0 0.0 0.0 
0.0 0.0 0.0 
0.0 0.0 0.0 
0.0 0.0 0.0 
0.0 0.0 0.0 
0.0 0.0 0.0 
0.0 0.0 0.0 
0.0 0.0 0.0 
0.0 0.0 0.0 
0.0 0.0 0.0 
0.0 0.0 0.0 
0.0 0.0 0.0 
0.0 0.0 0.0 
0.0 0.0 0.0 
0.0 0.0 0.0 
0.0 0.0 0.0 
0.0 0.0 0.0 
0.0 0.0 0.0 
0.0 0.0 0.0 
0.0 0.0 0.0 
0.0 0.0 0.0 
0.0 0.0 0.0 
0.0 0.0 0.0 
0.0 0.0 0.0 
0.0 0.0 0.0 
0.0 0.0 0.0 
0.0 0.0 0.0 
0.0 0.0 0.0 
0.0 0.0 0.0 
0.0 0.0 0.0 
0.0 0.0 0.0 
0.0 0.0 0.0 
0.0 0.0 0.0 
0.0 0.0 0.0 
0.0 0.0 0.0 
0.0 0.0 0.0 
0.0 0.0 0.0 
0.0 0.0 0.0 
0.0 0.0 0.0 
0.0 0.0 0.0 
0.0 0.0 0.0 
0.0 0.0 0.0 
0.0 0.0 0.0 
0.0 0.0 0.0 
0.0 0.0 0.0 
0.0 0.0 0.0 
0.0 0.0 0.0 
0.0 0.0 0.0 
0.0 0.0 0.0 
0.0 0.0 0.0 
0.0 0.0 0.0 
0.0 0.0 0.0 
0.0 0.0 0.0 
0.0 0.0 0.0 
0.0 0.0 0.0 
0.0 0.0 0.0 
0.0 0.0 0.0 
0.0 0.0 0.0 
0.0 0.0 0.0 
0.0 0.0 0.0 
0.0 0.0 0.0 
0.0 0.0 0.0 
0.0 0.0 0.0 
0.0 0.0 0.0 
0.0 0.0 0.0 
0.0 0.0 0.0 
0.0 0.0 0.0 
0.0 0.0 0.0 
0.0 0.0 0.0 
0.0 0.0 0.0 
0.0 0.0 0.0 
0.0 0.0 0.0 
0.0 0.0 0.0 
0.0 0.0 0.0 
0.0 0.0 0.0 
0.0 0.0 0.0 
0.0 0.0 0.0 
0.0 0.0 0.0 
0.0 0.0 0.0 
0.0 0.0 0.0 
0.0 0.0 0.0 
0.0 0.0 0.0 
0.0 0.0 0.0 
0.0 0.0 0.0 
0.0 0.0 0.0 
0.0 0.0 0.0 
0.0 0.0 0.0 
0.0 0.0 0.0 
0.0 0.0 0.0 
0.0 0.0 0.0 
0.0 0.0 0.0 
0.0 0.0 0.0 
0.0 0.0 0.0 
0.0 0.0 0.0 
0.0 0.0 0.0 
0.0 0.0 0.0 
0.0 0.0 0.0 
0.0 0.0 0.0 
0.0 0.0 0.0 
0.0 0.0 0.0 
0.0 0.0 0.0 
0.0 0.0 0.0 
0.0 0.0 0.0 
0.0 0.0 0.0 
0.0 0.0 0.0 
0.0 0.0 0.0 
0.0 0.0 0.0 
0.0 0.0 0.0 
0.0 0.0 0.0 
0.0 0.0 0.0 
0.0 0.0 0.0 
0.0 0.0 0.0 
0.0 0.0 0.0 
0.0 0.0 0.0 
0.0 0.0 0.0 
0.0 0.0 0.0 
0.0 0.0 0.0 
0.0 0.0 0.0 
0.0 0.0 0.0 
0.0 0.0 0.0 
0.0 0.0 0.0 
0.0 0.0 0.0 
0.0 0.0 0.0 
0.0 0.0 0.0 
0.0 0.0 0.0 
0.0 0.0 0.0 
0.0 0.0 0.0 
0.0 0.0 0.0 
0.0 0.0 0.0 
0.0 0.0 0.0 
0.0 0.0 0.0 
0.0 0.0 0.0 
0.0 0.0 0.0 
0.0 0.0 0.0 
0.0 0.0 0.0 
0.0 0.0 0.0 
0.0 0.0 0.0 
0.0 0.0 0.0 
0.0 0.0 0.0 
0.0 0.0 0.0 
0.0 0.0 0.0 
0.0 0.0 0.0 
0.0 0.0 0.0 
0.0 0.0 0.0 
0.0 0.0 0.0 
0.0 0.0 0.0 
0.0 0.0 0.0 
0.0 0.0 0.0 
0.0 0.0 0.0 
0.0 0.0 0.0 
0.0 0.0 0.0 
0.0 0.0 0.0 
0.0 0.0 0.0 
0.0 0.0 0.0 
0.0 0.0 0.0 
0.0 0.0 0.0 
0.0 0.0 0.0 
0.0 0.0 0.0 
0.0 0.0 0.0 
0.0 0.0 0.0 
0.0 0.0 0.0 
0.0 0.0 0.0 
0.0 0.0 0.0 
0.0 0.0 0.0 
0.0 0.0 0.0 
0.0 0.0 0.0 
0.0 0.0 0.0 
0.0 0.0 0.0 
0.0 0.0 0.0 
0.0 0.0 0.0 
0.0 0.0 0.0 
0.0 0.0 0.0 
0.0 0.0 0.0 
0.0 0.0 0.0 
0.0 0.0 0.0 
0.0 0.0 0.0 
0.0 0.0 0.0 
0.0 0.0 0.0 
0.0 0.0 0.0 
0.0 0.0 0.0 
0.0 0.0 0.0 
0.0 0.0 0.0 
0.0 0.0 0.0 
0.0 0.0 0.0 
0.0 0.0 0.0 
0.0 0.0 0.0 
0.0 0.0 0.0 
0.0 0.0 0.0 
0.0 0.0 0.0 
0.0 0.0 0.0 
0.0 0.0 0.0 
0.0 0.0 0.0 
0.0 0.0 0.0 
0.0 0.0 0.0 
0.0 0.0 0.0 
0.0 0.0 0.0 
0.0 0.0 0.0 
0.0 0.0 0.0 
0.0 0.0 0.0 
0.0 0.0 0.0 
0.0 0.0 0.0 
0.0 0.0 0.0 
0.0 0.0 0.0 
0.0 0.0 0.0 
0.0 0.0 0.0 
0.0 0.0 0.0 
0.0 0.0 0.0 
0.0 0.0 0.0 
0.0 0.0 0.0 
0.0 0.0 0.0 
0.0 0.0 0.0 
0.0 0.0 0.0 
0.0 0.0 0.0 
0.0 0.0 0.0 
0.0 0.0 0.0 
0.0 0.0 0.0 
0.0 0.0 0.0 
0.0 0.0 0.0 
0.0 0.0 0.0 
0.0 0.0 0.0 
0.0 0.0 0.0 
0.0 0.0 0.0 
0.0 0.0 0.0 
0.0 0.0 0.0 
0.0 0.0 0.0 
0.0 0.0 0.0 
0.0 0.0 0.0 
0.0 0.0 0.0 
0.0 0.0 0.0 
0.0 0.0 0.0 
0.0 0.0 0.0 
0.0 0.0 0.0 
0.0 0.0 0.0 
0.0 0.0 0.0 
0.0 0.0 0.0 
0.0 0.0 0.0 
0.0 0.0 0.0 
0.0 0.0 0.0 
0.0 0.0 0.0 
0.0 0.0 0.0 
0.0 0.0 0.0 
0.0 0.0 0.0 
0.0 0.0 0.0 
0.0 0.0 0.0 
0.0 0.0 0.0 
0.0 0.0 0.0 
0.0 0.0 0.0 
0.0 0.0 0.0 
0.0 0.0 0.0 
0.0 0.0 0.0 
0.0 0.0 0.0 
0.0 0.0 0.0 
0.0 0.0 0.0 
0.0 0.0 0.0 
0.0 0.0 0.0 
0.0 0.0 0.0 
0.0 0.0 0.0 
0.0 0.0 0.0 
0.0 0.0 0.0 
0.0 0.0 0.0 
0.0 0.0 0.0 
0.0 0.0 0.0 
0.0 0.0 0.0 
0.0 0.0 0.0 
0.0 0.0 0.0 
0.0 0.0 0.0 
0.0 0.0 0.0 
0.0 0.0 0.0 
0.0 0.0 0.0 
0.0 0.0 0.0 
0.0 0.0 0.0 
0.0 0.0 0.0 
0.0 0.0 0.0 
0.0 0.0 0.0 
0.0 0.0 0.0 
0.0 0.0 0.0 
0.0 0.0 0.0 
0.0 0.0 0.0 
0.0 0.0 0.0 
0.0 0.0 0.0 
0.0 0.0 0.0 
0.0 0.0 0.0 
0.0 0.0 0.0 
0.0 0.0 0.0 
0.0 0.0 0.0 
0.0 0.0 0.0 
0.0 0.0 0.0 
0.0 0.0 0.0 
0.0 0.0 0.0 
0.0 0.0 0.0 
0.0 0.0 0.0 
0.0 0.0 0.0 
0.0 0.0 0.0 
0.0 0.0 0.0 
0.0 0.0 0.0 
0.0 0.0 0.0 
0.0 0.0 0.0 
0.0 0.0 0.0 
0.0 0.0 0.0 
0.0 0.0 0.0 
0.0 0.0 0.0 
0.0 0.0 0.0 
0.0 0.0 0.0 
0.0 0.0 0.0 
0.0 0.0 0.0 
0.0 0.0 0.0 
0.0 0.0 0.0 
0.0 0.0 0.0 
0.0 0.0 0.0 
0.0 0.0 0.0 
0.0 0.0 0.0 
0.0 0.0 0.0 
0.0 0.0 0.0 
0.0 0.0 0.0 
0.0 0.0 0.0 
0.0 0.0 0.0 
0.0 0.0 0.0 
0.0 0.0 0.0 
0.0 0.0 0.0 
0.0 0.0 0.0 
0.0 0.0 0.0 
0.0 0.0 0.0 
0.0 0.0 0.0 
0.0 0.0 0.0 
0.0 0.0 0.0 
0.0 0.0 0.0 
0.0 0.0 0.0 
0.0 0.0 0.0 
0.0 0.0 0.0 
0.0 0.0 0.0 
0.0 0.0 0.0 
0.0 0.0 0.0 
0.0 0.0 0.0 
0.0 0.0 0.0 
0.0 0.0 0.0 
0.0 0.0 0.0 
0.0 0.0 0.0 
0.0 0.0 0.0 
0.0 0.0 0.0 
0.0 0.0 0.0 
0.0 0.0 0.0 
0.0 0.0 0.0 
0.0 0.0 0.0 
0.0 0.0 0.0 
0.0 0.0 0.0 
0.0 0.0 0.0 
0.0 0.0 0.0 
0.0 0.0 0.0 
0.0 0.0 0.0 
0.0 0.0 0.0 
0.0 0.0 0.0 
0.0 0.0 0.0 
0.0 0.0 0.0 
0.0 0.0 0.0 
0.0 0.0 0.0 
0.0 0.0 0.0 
0.0 0.0 0.0 
0.0 0.0 0.0 
0.0 0.0 0.0 
0.0 0.0 0.0 
0.0 0.0 0.0 
0.0 0.0 0.0 
0.0 0.0 0.0 
0.0 0.0 0.0 
0.0 0.0 0.0 
0.0 0.0 0.0 
0.0 0.0 0.0 
0.0 0.0 0.0 
0.0 0.0 0.0 
0.0 0.0 0.0 
0.0 0.0 0.0 
0.0 0.0 0.0 
0.0 0.0 0.0 
0.0 0.0 0.0 
0.0 0.0 0.0 
0.0 0.0 0.0 
0.0 0.0 0.0 
0.0 0.0 0.0 
0.0 0.0 0.0 
0.0 0.0 0.0 
0.0 0.0 0.0 
0.0 0.0 0.0 
0.0 0.0 0.0 
0.0 0.0 0.0 
0.0 0.0 0.0 
0.0 0.0 0.0 
0.0 0.0 0.0 
0.0 0.0 0.0 
0.0 0.0 0.0 
0.0 0.0 0.0 
0.0 0.0 0.0 
0.0 0.0 0.0 
0.0 0.0 0.0 
0.0 0.0 0.0 
0.0 0.0 0.0 
0.0 0.0 0.0 
0.0 0.0 0.0 
0.0 0.0 0.0 
0.0 0.0 0.0 
0.0 0.0 0.0 
0.0 0.0 0.0 
0.0 0.0 0.0 
0.0 0.0 0.0 
0.0 0.0 0.0 
0.0 0.0 0.0 
0.0 0.0 0.0 
0.0 0.0 0.0 
0.0 0.0 0.0 
0.0 0.0 0.0 
0.0 0.0 0.0 
0.0 0.0 0.0 
0.0 0.0 0.0 
0.0 0.0 0.0 
0.0 0.0 0.0 
0.0 0.0 0.0 
0.0 0.0 0.0 
0.0 0.0 0.0 
0.0 0.0 0.0 
0.0 0.0 0.0 
0.0 0.0 0.0 
0.0 0.0 0.0 
0.0 0.0 0.0 
0.0 0.0 0.0 
0.0 0.0 0.0 
0.0 0.0 0.0 
0.0 0.0 0.0 
0.0 0.0 0.0 
0.0 0.0 0.0 
0.0 0.0 0.0 
0.0 0.0 0.0 
0.0 0.0 0.0 
0.0 0.0 0.0 
0.0 0.0 0.0 
0.0 0.0 0.0 
0.0 0.0 0.0 
0.0 0.0 0.0 
0.0 0.0 0.0 
0.0 0.0 0.0 
0.0 0.0 0.0 
0.0 0.0 0.0 
0.0 0.0 0.0 
0.0 0.0 0.0 
0.0 0.0 0.0 
0.0 0.0 0.0 
0.0 0.0 0.0 
0.0 0.0 0.0 
0.0 0.0 0.0 
0.0 0.0 0.0 
0.0 0.0 0.0 
0.0 0.0 0.0 
0.0 0.0 0.0 
0.0 0.0 0.0 
0.0 0.0 0.0 
0.0 0.0 0.0 
0.0 0.0 0.0 
0.0 0.0 0.0 
0.0 0.0 0.0 
0.0 0.0 0.0 
0.0 0.0 0.0 
0.0 0.0 0.0 
0.0 0.0 0.0 
0.0 0.0 0.0 
0.0 0.0 0.0 
0.0 0.0 0.0 
0.0 0.0 0.0 
0.0 0.0 0.0 
0.0 0.0 0.0 
0.0 0.0 0.0 
0.0 0.0 0.0 
0.0 0.0 0.0 
0.0 0.0 0.0 
0.0 0.0 0.0 
0.0 0.0 0.0 
0.0 0.0 0.0 
0.0 0.0 0.0 
0.0 0.0 0.0 
0.0 0.0 0.0 
0.0 0.0 0.0 
0.0 0.0 0.0 
0.0 0.0 0.0 
0.0 0.0 0.0 
0.0 0.0 0.0 
0.0 0.0 0.0 
0.0 0.0 0.0 
0.0 0.0 0.0 
0.0 0.0 0.0 
0.0 0.0 0.0 
0.0 0.0 0.0 
0.0 0.0 0.0 
0.0 0.0 0.0 
0.0 0.0 0.0 
0.0 0.0 0.0 
0.0 0.0 0.0 
0.0 0.0 0.0 
0.0 0.0 0.0 
0.0 0.0 0.0 
0.0 0.0 0.0 
0.0 0.0 0.0 
0.0 0.0 0.0 
0.0 0.0 0.0 
0.0 0.0 0.0 
0.0 0.0 0.0 
0.0 0.0 0.0 
0.0 0.0 0.0 
0.0 0.0 0.0 
0.0 0.0 0.0 
0.0 0.0 0.0 
0.0 0.0 0.0 
0.0 0.0 0.0 
0.0 0.0 0.0 
0.0 0.0 0.0 
0.0 0.0 0.0 
0.0 0.0 0.0 
0.0 0.0 0.0 
0.0 0.0 0.0 
0.0 0.0 0.0 
0.0 0.0 0.0 
0.0 0.0 0.0 
0.0 0.0 0.0 
0.0 0.0 0.0 
0.0 0.0 0.0 
0.0 0.0 0.0 
0.0 0.0 0.0 
0.0 0.0 0.0 
0.0 0.0 0.0 
0.0 0.0 0.0 
0.0 0.0 0.0 
0.0 0.0 0.0 
0.0 0.0 0.0 
0.0 0.0 0.0 
0.0 0.0 0.0 
0.0 0.0 0.0 
0.0 0.0 0.0 
0.0 0.0 0.0 
0.0 0.0 0.0 
0.0 0.0 0.0 
0.0 0.0 0.0 
0.0 0.0 0.0 
0.0 0.0 0.0 
0.0 0.0 0.0 

TENSORS element_materi_stress float
-2.542845025005e+01 1.421615019380e+01 0.0 
1.421615019380e+01 -4.064438548584e+01 0.0 
0.0 0.0 -1.942185072077e+01 
-2.858631488825e+01 1.526247838217e+01 0.0 
1.526247838217e+01 -4.061984069046e+01 0.0 
0.0 0.0 -2.036184667361e+01 
-1.243128412728e+02 1.368075837938e+01 0.0 
1.368075837938e+01 -2.838451557180e+02 0.0 
0.0 0.0 -1.220473990972e+02 
-1.158000843470e+02 1.977709056294e+00 0.0 
1.977709056294e+00 -2.659940510141e+02 0.0 
0.0 0.0 -1.141382406083e+02 
-6.349574811761e+01 -2.637075110089e-01 0.0 
-2.637075110089e-01 -1.284263995191e+02 0.0 
0.0 0.0 -5.717664429102e+01 
-1.908902649167e+01 4.357737084159e+00 0.0 
4.357737084159e+00 -3.955751168152e+01 0.0 
0.0 0.0 -1.719396145196e+01 
-6.308013858731e+01 -6.306714072340e-01 0.0 
-6.306714072340e-01 -1.286544703541e+02 0.0 
0.0 0.0 -5.712038268242e+01 
-2.725785842266e+01 1.703233740566e+01 0.0 
1.703233740566e+01 -4.535838286087e+01 0.0 
0.0 0.0 -2.138487238506e+01 
-6.374804293642e+01 1.697259375771e+00 0.0 
1.697259375771e+00 -1.292943800974e+02 0.0 
0.0 0.0 -5.751272691015e+01 
-1.151789255090e+02 1.146314638957e+00 0.0 
1.146314638957e+00 -2.643545575256e+02 0.0 
0.0 0.0 -1.134600449104e+02 
-9.800496981102e+01 -3.022557077085e-01 0.0 
-3.022557077085e-01 -2.518616787609e+02 0.0 
0.0 0.0 -1.045599945716e+02 
-2.113713847540e+01 1.359763492614e+01 0.0 
1.359763492614e+01 -3.127963022965e+01 0.0 
0.0 0.0 -1.532503061152e+01 
-1.511669961499e+02 3.654269835245e-01 0.0 
3.654269835245e-01 -3.616721790440e+02 0.0 
0.0 0.0 -1.534517525582e+02 
-7.283288178068e+01 1.428410573538e+00 0.0 
1.428410573538e+00 -1.460071360978e+02 0.0 
0.0 0.0 -6.525200536354e+01 
-1.558412046174e+02 2.467885006270e+00 0.0 
2.467885006270e+00 -3.694662005105e+02 0.0 
0.0 0.0 -1.571922215384e+02 
-1.181646956108e+02 8.375683218831e-01 0.0 
8.375683218831e-01 -2.740773159124e+02 0.0 
0.0 0.0 -1.172726034570e+02 
-6.269407774901e+01 9.095472345355e-01 0.0 
9.095472345355e-01 -1.244531727242e+02 0.0 
0.0 0.0 -5.574417514195e+01 
-1.923016088646e+01 2.749280966506e+00 0.0 
2.749280966506e+00 -4.018989813167e+01 0.0 
0.0 0.0 -1.742601770544e+01 
-2.910125949846e+01 -3.343426416125e-02 0.0 
-3.343426416125e-02 -7.709466497717e+01 0.0 
0.0 0.0 -3.145877734269e+01 
-2.960940687873e+01 -6.834859763146e-01 0.0 
-6.834859763146e-01 -7.977087391611e+01 0.0 
0.0 0.0 -3.241408423845e+01 
-1.162058822275e+02 3.132028940714e+00 0.0 
3.132028940714e+00 -2.652675526688e+02 0.0 
0.0 0.0 -1.140420304689e+02 
-3.002009781505e+01 8.688601651848e+00 0.0 
8.688601651848e+00 -4.171753630891e+01 0.0 
0.0 0.0 -2.112129023719e+01 
-3.815484187762e+01 1.187356558192e+01 0.0 
1.187356558192e+01 -5.684947397134e+01 0.0 
0.0 0.0 -2.810129475469e+01 
-1.369275002852e+02 1.236258854818e+01 0.0 
1.236258854818e+01 -3.337855477683e+02 0.0 
0.0 0.0 -1.408139144161e+02 
-8.155133845456e+01 3.001595652862e+00 0.0 
3.001595652862e+00 -1.646484440471e+02 0.0 
0.0 0.0 -7.345993475049e+01 
-1.036723083358e+02 1.051844889426e+00 0.0 
1.051844889426e+00 -2.648099902542e+02 0.0 
0.0 0.0 -1.101446895770e+02 
-5.848917124150e+01 2.199097475192e+00 0.0 
2.199097475192e+00 -1.088604949557e+02 0.0 
0.0 0.0 -4.980489985917e+01 
-1.346980846349e+02 1.951461992734e+01 0.0 
1.951461992734e+01 -3.153752858821e+02 0.0 
0.0 0.0 -1.346220111551e+02 
-8.339077968241e+01 5.522164244821e+00 0.0 
5.522164244821e+00 -1.657438908397e+02 0.0 
0.0 0.0 -7.434040115664e+01 
-1.407539518429e+02 1.095497363669e+01 0.0 
1.095497363669e+01 -3.428680297455e+02 0.0 
0.0 0.0 -1.446865944765e+02 
-2.525762506298e+01 -1.205423862339e+00 0.0 
-1.205423862339e+00 -5.793451822700e+01 0.0 
0.0 0.0 -2.455764298700e+01 
-1.399376619628e+01 -1.396256672242e+00 0.0 
-1.396256672242e+00 -2.595872762436e+01 0.0 
0.0 0.0 -1.158574814619e+01 
-1.258215539882e+02 1.350748851908e+01 0.0 
1.350748851908e+01 -2.844136812163e+02 0.0 
0.0 0.0 -1.226705705614e+02 
-1.266937295899e+02 1.114861824995e+00 0.0 
1.114861824995e+00 -3.131422378530e+02 0.0 
0.0 0.0 -1.315507902329e+02 
-1.484353510233e+02 8.053939696308e+00 0.0 
8.053939696308e+00 -3.563187227126e+02 0.0 
0.0 0.0 -1.510262221208e+02 
-1.583101717634e+02 3.409929117313e+00 0.0 
3.409929117313e+00 -3.761836851861e+02 0.0 
0.0 0.0 -1.599481570848e+02 
-1.591191990997e+02 6.144319563447e+00 0.0 
6.144319563447e+00 -3.762887931893e+02 0.0 
0.0 0.0 -1.602223976867e+02 
-1.395511804024e+02 1.568201897981e+01 0.0 
1.568201897981e+01 -3.355562811573e+02 0.0 
0.0 0.0 -1.421322384679e+02 
-5.509724523147e+01 1.379432135326e+00 0.0 
1.379432135326e+00 -1.099023484842e+02 0.0 
0.0 0.0 -4.909987811470e+01 
-5.493745960688e+01 -1.337681802207e+00 0.0 
-1.337681802207e+00 -1.104726252619e+02 0.0 
0.0 0.0 -4.922302546065e+01 
-4.597951093127e+01 8.539436635468e+00 0.0 
8.539436635468e+00 -7.247659095788e+01 0.0 
0.0 0.0 -3.513683056675e+01 
-1.508022503349e+02 8.890789549412e+00 0.0 
8.890789549412e+00 -3.589760228896e+02 0.0 
0.0 0.0 -1.525334819673e+02 
-2.098292205144e+01 1.445823495587e+01 0.0 
1.445823495587e+01 -3.620519675507e+01 0.0 
0.0 0.0 -1.675643564195e+01 
-5.971202842246e+01 1.911720128281e+00 0.0 
1.911720128281e+00 -1.094881261121e+02 0.0 
0.0 0.0 -5.036004636037e+01 
-1.116988618501e+02 8.483342275109e-01 0.0 
8.483342275109e-01 -2.546671021229e+02 0.0 
0.0 0.0 -1.095097891919e+02 
-2.274021938880e+01 1.503679038345e+01 0.0 
1.503679038345e+01 -3.687999131545e+01 0.0 
0.0 0.0 -1.748606321128e+01 
-1.913932462173e+01 -1.710325296090e+00 0.0 
-1.710325296090e+00 -4.330551211166e+01 0.0 
0.0 0.0 -1.833345102002e+01 
-1.116397298020e+02 4.476383121708e-01 0.0 
4.476383121708e-01 -2.561479976141e+02 0.0 
0.0 0.0 -1.099363182248e+02 
-1.587164391004e+01 -1.453105997322e+00 0.0 
-1.453105997322e+00 -2.569269318301e+01 0.0 
0.0 0.0 -1.245917455922e+01 
-7.004334340534e+01 2.592094126969e+00 0.0 
2.592094126969e+00 -1.375232831444e+02 0.0 
0.0 0.0 -6.186998796493e+01 
-4.225904802837e+01 1.002529324028e+01 0.0 
1.002529324028e+01 -6.484600628320e+01 0.0 
0.0 0.0 -3.173151629347e+01 
-3.689738394228e+01 -2.526955467096e-01 0.0 
-2.526955467096e-01 -9.692693306088e+01 0.0 
0.0 0.0 -3.974729510095e+01 
-2.898740389713e+01 -5.182415096313e-01 0.0 
-5.182415096313e-01 -7.937601296534e+01 0.0 
0.0 0.0 -3.210902505874e+01 
-3.843445403684e+01 5.555152113227e+00 0.0 
5.555152113227e+00 -5.889200016017e+01 0.0 
0.0 0.0 -2.879793625910e+01 
-1.218731784863e+02 1.025352337992e+01 0.0 
1.025352337992e+01 -2.784025084387e+02 0.0 
0.0 0.0 -1.196827060775e+02 
-4.798633094082e+01 -7.682117897943e-02 0.0 
-7.682117897943e-02 -1.278697659954e+02 0.0 
0.0 0.0 -5.235682908088e+01 
-3.723721671614e+01 -8.122832284880e-01 0.0 
-8.122832284880e-01 -9.990976326895e+01 0.0 
0.0 0.0 -4.074409399553e+01 
-1.263595846387e+02 -1.939436689646e-01 0.0 
-1.939436689646e-01 -3.130505584188e+02 0.0 
0.0 0.0 -1.314230429173e+02 
-2.308533612355e+01 -1.018310792296e+00 0.0 
-1.018310792296e+00 -5.911315660516e+01 0.0 
0.0 0.0 -2.425954781861e+01 
-1.186281974596e+02 2.623384289339e+00 0.0 
2.623384289339e+00 -2.743122614711e+02 0.0 
0.0 0.0 -1.174821376792e+02 
-1.982221716459e+01 -7.171579924136e-01 0.0 
-7.171579924136e-01 -2.228406524139e+01 0.0 
0.0 0.0 -1.223188472179e+01 
-1.281126362183e+02 1.671903969392e+01 0.0 
1.671903969392e+01 -3.064070390341e+02 0.0 
0.0 0.0 -1.299559025757e+02 
-4.331474183692e+01 1.617671070211e+01 0.0 
1.617671070211e+01 -9.464262955172e+01 0.0 
0.0 0.0 -4.098721141659e+01 
-2.710422941974e+01 -8.173167075572e-01 0.0 
-8.173167075572e-01 -7.253171972843e+01 0.0 
0.0 0.0 -2.949078474445e+01 
-1.508785285882e+02 3.089807754506e+00 0.0 
3.089807754506e+00 -3.609508981563e+02 0.0 
0.0 0.0 -1.531488280233e+02 
-3.397003629138e+01 6.853290158028e+00 0.0 
6.853290158028e+00 -4.897669967541e+01 0.0 
0.0 0.0 -2.448402079004e+01 
-1.620349576795e+01 -9.299080328326e-01 0.0 
-9.299080328326e-01 -2.097961833866e+01 0.0 
0.0 0.0 -1.145688818674e+01 
-1.274350653134e+02 1.501312308109e+01 0.0 
1.501312308109e+01 -2.865619102798e+02 0.0 
0.0 0.0 -1.237990926780e+02 
-2.550665293839e+01 -1.758166934661e+00 0.0 
-1.758166934661e+00 -6.354083553813e+01 0.0 
0.0 0.0 -2.631424654296e+01 
-1.294723184965e+02 1.713080301725e+01 0.0 
1.713080301725e+01 -2.990016541978e+02 0.0 
0.0 0.0 -1.281421918083e+02 
-1.084201078876e+02 1.532245574910e+00 0.0 
1.532245574910e+00 -2.751687768798e+02 0.0 
0.0 0.0 -1.146766654302e+02 
-1.237351310866e+02 6.587767263037e+00 0.0 
6.587767263037e+00 -2.900486392020e+02 0.0 
0.0 0.0 -1.237351310866e+02 
-1.286141304114e+02 1.767857164199e+01 0.0 
1.767857164199e+01 -3.001736374091e+02 0.0 
0.0 0.0 -1.282363303462e+02 
-1.140535357045e+01 -9.407301918311e-01 0.0 
-9.407301918311e-01 -2.980961699470e+01 0.0 
0.0 0.0 -1.196449116955e+01 
-4.948130091083e+01 -9.872113466456e-01 0.0 
-9.872113466456e-01 -1.331085683101e+02 0.0 
0.0 0.0 -5.437696076627e+01 
-1.183309450238e+02 5.549513987957e+00 0.0 
5.549513987957e+00 -2.691584485851e+02 0.0 
0.0 0.0 -1.158468180827e+02 
-1.244806783061e+02 1.115592438085e+01 0.0 
1.115592438085e+01 -2.804794762024e+02 0.0 
0.0 0.0 -1.210880463525e+02 
-2.067505864848e+01 1.268208712420e+01 0.0 
1.268208712420e+01 -3.405645823446e+01 0.0 
0.0 0.0 -1.601945506488e+01 
-2.240467748434e+01 -1.070705184191e+00 0.0 
-1.070705184191e+00 -5.906026607623e+01 0.0 
0.0 0.0 -2.403948306817e+01 
-2.058945217269e+01 1.357580469281e+01 0.0 
1.357580469281e+01 -3.396568528031e+01 0.0 
0.0 0.0 -1.596654123590e+01 
-2.460864386891e+01 -2.791726656667e+00 0.0 
-2.791726656667e+00 -6.293237019519e+01 0.0 
0.0 0.0 -2.586230421923e+01 
-6.271162187235e+01 6.851470175089e-01 0.0 
6.851470175089e-01 -1.240568123014e+02 0.0 
0.0 0.0 -5.563053025213e+01 
-3.462257035804e+01 1.411781819770e+01 0.0 
1.411781819770e+01 -5.105753267796e+01 0.0 
0.0 0.0 -2.530403091080e+01 
-2.553393196036e+01 1.032848352070e+01 0.0 
1.032848352070e+01 -3.322061164939e+01 0.0 
0.0 0.0 -1.722636308292e+01 
-6.841544254684e+01 1.868363895624e+00 0.0 
1.868363895624e+00 -1.396256342644e+02 0.0 
0.0 0.0 -6.201232304338e+01 
-6.755820842165e+01 -1.396467131210e-01 0.0 
-1.396467131210e-01 -1.392290925647e+02 0.0 
0.0 0.0 -6.163619029589e+01 
-1.124292248690e+02 1.336038922568e+00 0.0 
1.336038922568e+00 -2.836601571521e+02 0.0 
0.0 0.0 -1.184268146063e+02 
-1.224625472308e+02 -6.918653579014e-01 0.0 
-6.918653579014e-01 -3.048682751986e+02 0.0 
0.0 0.0 -1.277992467288e+02 
-1.087252173183e+02 1.337815737378e+01 0.0 
1.337815737378e+01 -2.309699829288e+02 0.0 
0.0 0.0 -1.015085600741e+02 
-6.412203089002e+01 1.977415297091e+00 0.0 
1.977415297091e+00 -1.279722889800e+02 0.0 
0.0 0.0 -5.722829596102e+01 
-1.321174293683e+01 -1.411021532475e+00 0.0 
-1.411021532475e+00 -2.574751153519e+01 0.0 
0.0 0.0 -1.164389156093e+01 
-6.712960601924e+01 2.765060225789e+00 0.0 
2.765060225789e+00 -1.271150398554e+02 0.0 
0.0 0.0 -5.787339376240e+01 
-9.348567942608e+01 9.775608387864e-01 0.0 
9.775608387864e-01 -2.076703699938e+02 0.0 
0.0 0.0 -8.994681482595e+01 
-9.276602328251e+01 2.681636054435e-01 0.0 
2.681636054435e-01 -2.041965598685e+02 0.0 
0.0 0.0 -8.868877494530e+01 
-1.267184004325e+02 7.320002318696e+00 0.0 
7.320002318696e+00 -2.917902219258e+02 0.0 
0.0 0.0 -1.251525867075e+02 
-1.448254194220e+02 1.810969295478e+01 0.0 
1.810969295478e+01 -3.422301596148e+02 0.0 
0.0 0.0 -1.457166737111e+02 
-6.345942850216e+01 1.484941430572e+00 0.0 
1.484941430572e+00 -1.238185797383e+02 0.0 
0.0 0.0 -5.578340247212e+01 
-1.483411632323e+02 8.812616623669e+00 0.0 
8.812616623669e+00 -3.587024188049e+02 0.0 
0.0 0.0 -1.517130746112e+02 
-7.456337886681e+01 7.538032799891e-01 0.0 
7.538032799891e-01 -1.589420631987e+02 0.0 
0.0 0.0 -6.965163261967e+01 
-3.968344196241e+01 1.839478096926e+01 0.0 
1.839478096926e+01 -7.936028505581e+01 0.0 
0.0 0.0 -3.531311810547e+01 
-6.004330426609e+01 1.216188022375e+00 0.0 
1.216188022375e+00 -1.193309478659e+02 0.0 
0.0 0.0 -5.341227563960e+01 
-1.552272095903e+02 1.170260742414e+00 0.0 
1.170260742414e+00 -3.690876011955e+02 0.0 
0.0 0.0 -1.568944432357e+02 
-1.074532048063e+02 1.646816710404e+01 0.0 
1.646816710404e+01 -2.625627625068e+02 0.0 
0.0 0.0 -1.106047901939e+02 
-1.296219738479e+02 1.850835639648e+01 0.0 
1.850835639648e+01 -3.074537354338e+02 0.0 
0.0 0.0 -1.307227127845e+02 
-3.572621993992e+01 1.670835302556e+01 0.0 
1.670835302556e+01 -8.894833172889e+01 0.0 
0.0 0.0 -3.700236550064e+01 
-2.256305513852e+01 -1.882324700762e+00 0.0 
-1.882324700762e+00 -4.249724392989e+01 0.0 
0.0 0.0 -1.911808972052e+01 
-1.410639833738e+02 1.795710777455e+00 0.0 
1.795710777455e+00 -3.418841134569e+02 0.0 
0.0 0.0 -1.444844290492e+02 
-1.000221758378e+02 5.651365613676e-01 0.0 
5.651365613676e-01 -2.233179919931e+02 0.0 
0.0 0.0 -9.660205034927e+01 
-1.978454283696e+01 -1.256250373465e+00 0.0 
-1.256250373465e+00 -2.549049927797e+01 0.0 
0.0 0.0 -1.318251263448e+01 
-1.547815134994e+02 4.070305979096e+00 0.0 
4.070305979096e+00 -3.663820871047e+02 0.0 
0.0 0.0 -1.559490801813e+02 
-1.030408162750e+02 1.126831702367e+01 0.0 
1.126831702367e+01 -2.199212351125e+02 0.0 
0.0 0.0 -9.648861541625e+01 
-8.577298191431e+00 3.682485327795e-01 0.0 
3.682485327795e-01 -2.206321714191e+01 0.0 
0.0 0.0 -8.792154600002e+00 
-5.344233230926e+01 1.511363628992e+01 0.0 
1.511363628992e+01 -1.382014780222e+02 0.0 
0.0 0.0 -5.709314309944e+01 
-6.128541036749e+01 5.169383453408e+00 0.0 
5.169383453408e+00 -1.092350381447e+02 0.0 
0.0 0.0 -5.075613455366e+01 
-6.007447021339e+01 -2.302870772869e-01 0.0 
-2.302870772869e-01 -1.615724195104e+02 0.0 
0.0 0.0 -6.609406691715e+01 
-3.535376250128e+01 1.589245661167e+01 0.0 
1.589245661167e+01 -7.456599694693e+01 0.0 
0.0 0.0 -3.257592783446e+01 
-4.325230679680e+01 1.845270943932e+01 0.0 
1.845270943932e+01 -9.485972096310e+01 0.0 
0.0 0.0 -4.103360832797e+01 
-1.522121931441e+02 6.260252979614e+00 0.0 
6.260252979614e+00 -3.635619347720e+02 0.0 
0.0 0.0 -1.543322383748e+02 
-7.209991035751e+01 -5.415474251342e-01 0.0 
-5.415474251342e-01 -1.523425392321e+02 0.0 
0.0 0.0 -6.693273487687e+01 
-3.873387560006e+01 1.636365276861e+01 0.0 
1.636365276861e+01 -9.130103342040e+01 0.0 
0.0 0.0 -3.861047270614e+01 
-2.448763195191e+01 -1.437895531279e+00 0.0 
-1.437895531279e+00 -6.085248234633e+01 0.0 
0.0 0.0 -2.520203428947e+01 
-6.695755516921e+01 2.667742513063e+00 0.0 
2.667742513063e+00 -1.268536852348e+02 0.0 
0.0 0.0 -5.774337212120e+01 
-1.003371974087e+02 1.048548303436e+00 0.0 
1.048548303436e+00 -2.248585322564e+02 0.0 
0.0 0.0 -9.715871889953e+01 
-3.930616579424e+01 1.788424594947e+01 0.0 
1.788424594947e+01 -9.165041160862e+01 0.0 
0.0 0.0 -3.888697322086e+01 
-1.889214887046e+01 8.933186903946e+00 0.0 
8.933186903946e+00 -2.950939962569e+01 0.0 
0.0 0.0 -1.412046454884e+01 
-5.374695482307e+01 6.420863258995e+00 0.0 
6.420863258995e+00 -9.084439902388e+01 0.0 
0.0 0.0 -4.297740615409e+01 
-6.007445345835e+01 -7.103564719331e-01 0.0 
-7.103564719331e-01 -1.602316111917e+02 0.0 
0.0 0.0 -6.569181939503e+01 
-4.695850951788e+01 3.765766697260e+00 0.0 
3.765766697260e+00 -7.859295571120e+01 0.0 
0.0 0.0 -3.726543956872e+01 
-1.201836925062e+02 4.798265903933e+00 0.0 
4.798265903933e+00 -2.772909492518e+02 0.0 
0.0 0.0 -1.188423925274e+02 
-1.934170937536e+01 8.807199823652e+00 0.0 
8.807199823652e+00 -4.044843142244e+01 0.0 
0.0 0.0 -1.753704223934e+01 
-1.031979068485e+02 -8.156944877749e-02 0.0 
-8.156944877749e-02 -2.638200525726e+02 0.0 
0.0 0.0 -1.097053878263e+02 
-1.153942253524e+02 2.291596827859e-01 0.0 
2.291596827859e-01 -2.658945153325e+02 0.0 
0.0 0.0 -1.139866222055e+02 
-5.748519787697e+01 1.264241075454e+01 0.0 
1.264241075454e+01 -1.091745968926e+02 0.0 
0.0 0.0 -4.959793843088e+01 
-5.003456047717e+01 7.271254088283e+00 0.0 
7.271254088283e+00 -8.195735605095e+01 0.0 
0.0 0.0 -3.919757495844e+01 
-1.472607839066e+02 6.530414807818e+00 0.0 
6.530414807818e+00 -3.558591745929e+02 0.0 
0.0 0.0 -1.505359875499e+02 
-1.516324814957e+02 2.095409746941e+00 0.0 
2.095409746941e+00 -3.623416792164e+02 0.0 
0.0 0.0 -1.537922482136e+02 
-1.121719377005e+02 3.647503578728e-02 0.0 
3.647503578728e-02 -2.836002084597e+02 0.0 
0.0 0.0 -1.183316438481e+02 
-6.206612994241e+01 1.457942202248e+01 0.0 
1.457942202248e+01 -1.166467439882e+02 0.0 
0.0 0.0 -5.321386217919e+01 
-1.468764516380e+02 1.143437865324e+01 0.0 
1.143437865324e+01 -3.551334087448e+02 0.0 
0.0 0.0 -1.502029581149e+02 
-5.325961856420e+01 1.027121768834e+01 0.0 
1.027121768834e+01 -9.511751160356e+01 0.0 
0.0 0.0 -4.411313905033e+01 
-1.180853120561e+02 3.682060456802e+00 0.0 
3.682060456802e+00 -2.719108944751e+02 0.0 
0.0 0.0 -1.165988619594e+02 
-1.303250775204e+02 1.745421897246e+01 0.0 
1.745421897246e+01 -2.986171976878e+02 0.0 
0.0 0.0 -1.282826825624e+02 
-7.380103723211e+01 3.620953113953e+00 0.0 
3.620953113953e+00 -1.457886330852e+02 0.0 
0.0 0.0 -6.547690109518e+01 
-8.469976101763e+01 1.718501792217e-01 0.0 
1.718501792217e-01 -1.832473600444e+02 0.0 
0.0 0.0 -7.998413631861e+01 
-5.389989353966e+01 1.426290050542e+01 0.0 
1.426290050542e+01 -9.563137669666e+01 0.0 
0.0 0.0 -4.445938107089e+01 
-4.280482507958e+01 4.335784197947e+00 0.0 
4.335784197947e+00 -6.934207569354e+01 0.0 
0.0 0.0 -3.324407023194e+01 
-6.546040423244e+01 1.301112197235e+01 0.0 
1.301112197235e+01 -1.296118199498e+02 0.0 
0.0 0.0 -5.812166725466e+01 
-4.243285168581e+01 1.713367774940e+01 0.0 
1.713367774940e+01 -1.070850468089e+02 0.0 
0.0 0.0 -4.445536954840e+01 
-6.039751863942e+01 1.117953116799e+00 0.0 
1.117953116799e+00 -1.220696119101e+02 0.0 
0.0 0.0 -5.434013916487e+01 
-5.331787440125e+01 1.617705632928e+01 0.0 
1.617705632928e+01 -1.383350625845e+02 0.0 
0.0 0.0 -5.709588109573e+01 
-1.225326680605e+01 -1.111180136436e+00 0.0 
-1.111180136436e+00 -2.508225947855e+01 0.0 
0.0 0.0 -1.121883547747e+01 
-6.563210946391e+01 1.840573348200e-01 0.0 
1.840573348200e-01 -1.370252742932e+02 0.0 
0.0 0.0 -6.039721512714e+01 
-2.186202846554e+01 -3.594269537939e-01 0.0 
-3.594269537939e-01 -6.010798098338e+01 0.0 
0.0 0.0 -2.419100283467e+01 
-5.753617291523e+01 5.742857009546e+00 0.0 
5.742857009546e+00 -1.002220727805e+02 0.0 
0.0 0.0 -4.692747370871e+01 
-1.498646704956e+02 1.080486394030e+01 0.0 
1.080486394030e+01 -3.567002396283e+02 0.0 
0.0 0.0 -1.515694730372e+02 
-3.487650182671e+01 1.590554466924e+01 0.0 
1.590554466924e+01 -8.850032018892e+01 0.0 
0.0 0.0 -3.661304660469e+01 
-1.170910064430e+02 -3.544146953276e-01 0.0 
-3.544146953276e-01 -2.938112731736e+02 0.0 
0.0 0.0 -1.228706838850e+02 
-2.401738001163e+01 1.585493194394e+01 0.0 
1.585493194394e+01 -3.748768104075e+01 0.0 
0.0 0.0 -1.805151831571e+01 
-1.066872392630e+02 1.487121223800e+01 0.0 
1.487121223800e+01 -2.620293315039e+02 0.0 
0.0 0.0 -1.102149712301e+02 
-6.001151629845e+01 1.229398095512e-01 0.0 
1.229398095512e-01 -1.235584333965e+02 0.0 
0.0 0.0 -5.467098490849e+01 
-4.896732344010e+01 1.414055722434e+01 0.0 
1.414055722434e+01 -1.334059163956e+02 0.0 
0.0 0.0 -5.431197195072e+01 
-1.311134632426e+02 1.750254693210e+00 0.0 
1.750254693210e+00 -3.223760586679e+02 0.0 
0.0 0.0 -1.356468565732e+02 
-2.418865548647e+01 -2.642109379115e+00 0.0 
-2.642109379115e+00 -6.040024002024e+01 0.0 
0.0 0.0 -2.497666865201e+01 
-1.407720964163e+02 3.062598492961e-01 0.0 
3.062598492961e-01 -3.415345634296e+02 0.0 
0.0 0.0 -1.442919979538e+02 
-6.845662560372e+01 5.896854684608e+00 0.0 
5.896854684608e+00 -1.282678515312e+02 0.0 
0.0 0.0 -5.861734314048e+01 
-1.519417818058e+02 3.406396500809e+00 0.0 
3.406396500809e+00 -3.648382746051e+02 0.0 
0.0 0.0 -1.546340169233e+02 
-5.940892899092e+01 -4.155409515394e-02 0.0 
-4.155409515394e-02 -1.225161701501e+02 0.0 
0.0 0.0 -5.417752974231e+01 
-3.848966403747e+01 1.494243423534e+01 0.0 
1.494243423534e+01 -1.024404298712e+02 0.0 
0.0 0.0 -4.187902817259e+01 
-5.523546787942e+01 2.916796124004e+00 0.0 
2.916796124004e+00 -9.772089160181e+01 0.0 
0.0 0.0 -4.548690784437e+01 
-9.800678943123e+01 6.906676024376e-01 0.0 
6.906676024376e-01 -2.528146680542e+02 0.0 
0.0 0.0 -1.048464372456e+02 
-2.227726383895e+01 1.528083022736e+01 0.0 
1.528083022736e+01 -3.700105671199e+01 0.0 
0.0 0.0 -1.738349616528e+01 
-4.939729846714e+01 1.469941177788e+01 0.0 
1.469941177788e+01 -1.336970120236e+02 0.0 
0.0 0.0 -5.452829314722e+01 
-8.898980953848e+01 1.853021881844e+00 0.0 
1.853021881844e+00 -1.940671493866e+02 0.0 
0.0 0.0 -8.451708767753e+01 
-5.962418900304e+01 -4.687866092596e-01 0.0 
-4.687866092596e-01 -1.223022040458e+02 0.0 
0.0 0.0 -5.417791791464e+01 
-4.571076994927e+01 1.512977935916e+01 0.0 
1.512977935916e+01 -1.199564766042e+02 0.0 
0.0 0.0 -4.930017396603e+01 
-5.096885306404e+01 3.280598454229e+00 0.0 
3.280598454229e+00 -8.794917637536e+01 0.0 
0.0 0.0 -4.127540883182e+01 
-1.147671746870e+02 1.457364652315e+01 0.0 
1.457364652315e+01 -2.567393938779e+02 0.0 
0.0 0.0 -1.110519705695e+02 
-6.736881966021e+01 -5.999945526993e-02 0.0 
-5.999945526993e-02 -1.786150694621e+02 0.0 
0.0 0.0 -7.339516673670e+01 
-1.356430502338e+02 1.832199470249e+01 0.0 
1.832199470249e+01 -3.180774222005e+02 0.0 
0.0 0.0 -1.357161417303e+02 
-1.317263222361e+02 1.857730209135e+01 0.0 
1.857730209135e+01 -3.019072110402e+02 0.0 
0.0 0.0 -1.296900599829e+02 
-3.224166000716e+01 1.797707821434e+01 0.0 
1.797707821434e+01 -6.001479646233e+01 0.0 
0.0 0.0 -2.727693694085e+01 
-6.754431732985e+01 -5.422930081174e-01 0.0 
-5.422930081174e-01 -1.796678074831e+02 0.0 
0.0 0.0 -7.376363744389e+01 
-1.267547674024e+02 1.323872001531e+01 0.0 
1.323872001531e+01 -3.133781746047e+02 0.0 
0.0 0.0 -1.316398826021e+02 
-5.009745528980e+01 1.160123781690e+01 0.0 
1.160123781690e+01 -8.306697223476e+01 0.0 
0.0 0.0 -3.954932825737e+01 
-2.816109980196e+01 1.479742520657e+01 0.0 
1.479742520657e+01 -5.534287120276e+01 0.0 
0.0 0.0 -2.465119130142e+01 
-6.385901500781e+01 4.160920599296e+00 0.0 
4.160920599296e+00 -1.178743778295e+02 0.0 
0.0 0.0 -5.412001785120e+01 
-4.982523301445e+01 1.730450193817e+01 0.0 
1.730450193817e+01 -1.251119774735e+02 0.0 
0.0 0.0 -5.208116314640e+01 
-1.168730538317e+02 2.093715909775e+00 0.0 
2.093715909775e+00 -2.706748877554e+02 0.0 
0.0 0.0 -1.158643824761e+02 
-1.026101324686e+02 9.488842561025e+00 0.0 
9.488842561025e+00 -2.176426678443e+02 0.0 
0.0 0.0 -9.567584009386e+01 
-1.360706708486e+02 -2.994415358707e-01 0.0 
-2.994415358707e-01 -3.323419385103e+02 0.0 
0.0 0.0 -1.401237828077e+02 
-2.197964324279e+01 1.419446180364e+01 0.0 
1.419446180364e+01 -3.580261789398e+01 0.0 
0.0 0.0 -1.693467834103e+01 
-4.595945725738e+01 1.287483673035e+01 0.0 
1.287483673035e+01 -1.291015765500e+02 0.0 
0.0 0.0 -5.211831014221e+01 
-1.065686651140e+02 1.087392898716e+01 0.0 
1.087392898716e+01 -2.291512900593e+02 0.0 
0.0 0.0 -1.003159865520e+02 
-1.544531082830e+01 2.834676593834e+00 0.0 
2.834676593834e+00 -4.461025381316e+00 0.0 
0.0 0.0 -5.571900862884e+00 
-4.853894123553e+01 7.609832489188e+00 0.0 
7.609832489188e+00 -8.229036934973e+01 0.0 
0.0 0.0 -3.884879317558e+01 
-1.180413119389e+02 1.076192294158e+01 0.0 
1.076192294158e+01 -2.979721733662e+02 0.0 
0.0 0.0 -1.244040455915e+02 
-1.719411240255e+01 -7.344587364538e-01 0.0 
-7.344587364538e-01 -4.261578132945e+01 0.0 
0.0 0.0 -1.754296811960e+01 
-1.225312369561e+02 1.080972366717e+01 0.0 
1.080972366717e+01 -2.767330829104e+02 0.0 
0.0 0.0 -1.193792959599e+02 
-9.052720257184e+01 5.495302905455e+00 0.0 
5.495302905455e+00 -1.857182361638e+02 0.0 
0.0 0.0 -8.247363162068e+01 
-5.939831910677e+01 -4.192842006808e-01 0.0 
-4.192842006808e-01 -1.672528422264e+02 0.0 
0.0 0.0 -6.759534839995e+01 
-1.164309682188e+02 9.338880764164e+00 0.0 
9.338880764164e+00 -2.971452506707e+02 0.0 
0.0 0.0 -1.236728656668e+02 
-7.399356023055e+01 3.937671188858e+00 0.0 
3.937671188858e+00 -1.428773503502e+02 0.0 
0.0 0.0 -6.466127317422e+01 
-7.984339744875e+01 4.199109965888e+00 0.0 
4.199109965888e+00 -1.578623250619e+02 0.0 
0.0 0.0 -7.091171675319e+01 
-1.421785273195e+02 1.175644811192e+01 0.0 
1.175644811192e+01 -3.431571950258e+02 0.0 
0.0 0.0 -1.452007167036e+02 
-4.560915576206e+01 -2.109916821726e+00 0.0 
-2.109916821726e+00 -1.266968419977e+02 0.0 
0.0 0.0 -5.129179932792e+01 
-6.908937722706e+01 1.440399111689e+01 0.0 
1.440399111689e+01 -1.438234471399e+02 0.0 
0.0 0.0 -6.347384731007e+01 
-7.297183024291e+01 7.739258975416e+00 0.0 
7.739258975416e+00 -1.394602031113e+02 0.0 
0.0 0.0 -6.332961000626e+01 
-9.603997999581e+01 7.517711853015e+00 0.0 
7.517711853015e+00 -1.970704721857e+02 0.0 
0.0 0.0 -8.753313565444e+01 
-7.404650471358e+01 8.070846216215e+00 0.0 
8.070846216215e+00 -1.386890213650e+02 0.0 
0.0 0.0 -6.342065782357e+01 
-6.578453469804e+01 6.918439677673e+00 0.0 
6.918439677673e+00 -1.186772192919e+02 0.0 
0.0 0.0 -5.493852619698e+01 
-9.385746371236e+01 1.504517631816e+01 0.0 
1.504517631816e+01 -2.368899837118e+02 0.0 
0.0 0.0 -9.882423422724e+01 
-1.119357516307e+02 1.584479718008e+01 0.0 
1.584479718008e+01 -2.447144563051e+02 0.0 
0.0 0.0 -1.065950623807e+02 
-1.887511312877e+01 2.659925807663e+00 0.0 
2.659925807663e+00 -2.100044574796e+01 0.0 
0.0 0.0 -1.156266766302e+01 
-3.277167138815e+01 1.547364057849e+01 0.0 
1.547364057849e+01 -6.067882616019e+01 0.0 
0.0 0.0 -2.763514926450e+01 
-4.008918291881e+01 1.540288216278e+01 0.0 
1.540288216278e+01 -7.883349525915e+01 0.0 
0.0 0.0 -3.527680345339e+01 
-6.531426029730e+01 1.617099644479e+01 0.0 
1.617099644479e+01 -1.301649111589e+02 0.0 
0.0 0.0 -5.824375143685e+01 
-1.082054953556e+02 1.155051453474e+01 0.0 
1.155051453474e+01 -2.289450070939e+02 0.0 
0.0 0.0 -1.007451507348e+02 
-2.139805704879e+01 4.646547373090e+00 0.0 
4.646547373090e+00 -5.902482023471e+01 0.0 
0.0 0.0 -2.372686318505e+01 
-1.134536871991e+02 9.439427375697e+00 0.0 
9.439427375697e+00 -2.894784188292e+02 0.0 
0.0 0.0 -1.204796318085e+02 
-5.958194870667e+01 1.119896896115e+00 0.0 
1.119896896115e+00 -1.210619934062e+02 0.0 
0.0 0.0 -5.379318263386e+01 
-4.519203126707e+01 1.273928666949e+01 0.0 
1.273928666949e+01 -1.287484661326e+02 0.0 
0.0 0.0 -5.178214921990e+01 
-1.090167830268e+02 8.155368438156e+00 0.0 
8.155368438156e+00 -2.808313879000e+02 0.0 
0.0 0.0 -1.165544512781e+02 
-1.281242630692e+01 -4.843568509601e-01 0.0 
-4.843568509601e-01 -2.863895550671e+01 0.0 
0.0 0.0 -1.203541454409e+01 
-9.801718901265e+01 6.536899515425e+00 0.0 
6.536899515425e+00 -2.059015922987e+02 0.0 
0.0 0.0 -9.077563439341e+01 
-1.210586613884e+01 -1.054575963048e+00 0.0 
-1.054575963048e+00 -2.413155383218e+01 0.0 
0.0 0.0 -1.047122599130e+01 
-1.656449074850e+01 -1.045334265868e+00 0.0 
-1.045334265868e+00 -4.297614752680e+01 0.0 
0.0 0.0 -1.746219148259e+01 
-2.052709588969e+01 1.404137836250e+01 0.0 
1.404137836250e+01 -3.519192367362e+01 0.0 
0.0 0.0 -1.631570586899e+01 
-3.891695905419e+01 -2.356991380916e+00 0.0 
-2.356991380916e+00 -1.073738517535e+02 0.0 
0.0 0.0 -4.348724324229e+01 
-1.033494937820e+02 8.459857978081e+00 0.0 
8.459857978081e+00 -2.171537280545e+02 0.0 
0.0 0.0 -9.575096655094e+01 
-3.755734950311e+01 -1.430779339105e+00 0.0 
-1.430779339105e+00 -1.008310012728e+02 0.0 
0.0 0.0 -4.111650523279e+01 
-2.445738553707e+01 1.261528334304e+01 0.0 
1.261528334304e+01 -6.473814111587e+01 0.0 
0.0 0.0 -2.635865799588e+01 
-2.964926281664e+01 -1.429130382583e+00 0.0 
-1.429130382583e+00 -7.819835722249e+01 0.0 
0.0 0.0 -3.195428601174e+01 
-2.648796304553e+01 -2.640549790671e+00 0.0 
-2.640549790671e+00 -6.858757337726e+01 0.0 
0.0 0.0 -2.812266092684e+01 
-1.208982399760e+02 1.064823432484e+01 0.0 
1.064823432484e+01 -3.048517794578e+02 0.0 
0.0 0.0 -1.273250058301e+02 
-7.027237784891e+01 8.881708898132e+00 0.0 
8.881708898132e+00 -1.292110847049e+02 0.0 
0.0 0.0 -5.944503876613e+01 
-1.504544052799e+02 1.590341724109e+00 0.0 
1.590341724109e+00 -3.608874927830e+02 0.0 
0.0 0.0 -1.530025694189e+02 
-1.461089137483e+01 1.555230240264e+00 0.0 
1.555230240264e+00 -8.591840631751e+00 0.0 
0.0 0.0 -7.502519126826e+00 
-2.903893668092e+01 1.309329315382e+01 0.0 
1.309329315382e+01 -8.141926557991e+01 0.0 
0.0 0.0 -3.273746067825e+01 
-5.278353263277e+01 1.298754311634e+01 0.0 
1.298754311634e+01 -1.465912031406e+02 0.0 
0.0 0.0 -5.941242073202e+01 
-4.408971830388e+01 8.993921216258e+00 0.0 
8.993921216258e+00 -7.351358326071e+01 0.0 
0.0 0.0 -3.488099046938e+01 
-1.119004357752e+02 8.107526354755e+00 0.0 
8.107526354755e+00 -2.886836360444e+02 0.0 
0.0 0.0 -1.197752215459e+02 
-1.528534825838e+02 3.223361379311e+00 0.0 
3.223361379311e+00 -3.663359835009e+02 0.0 
0.0 0.0 -1.553568398254e+02 
-1.009075122187e+02 1.056514272963e+01 0.0 
1.056514272963e+01 -2.083113139278e+02 0.0 
0.0 0.0 -9.236564784395e+01 
-3.668346167415e+01 1.000734562017e+01 0.0 
1.000734562017e+01 -1.069086746439e+02 0.0 
0.0 0.0 -4.267764089542e+01 
-1.222456133066e+02 1.187665485748e+01 0.0 
1.187665485748e+01 -3.054412863776e+02 0.0 
0.0 0.0 -1.279060699053e+02 
-1.075192122722e+02 -6.500268648502e-01 0.0 
-6.500268648502e-01 -2.734022850584e+02 0.0 
0.0 0.0 -1.138764491992e+02 
-6.995485738959e+01 1.487906475771e+01 0.0 
1.487906475771e+01 -1.371283701533e+02 0.0 
0.0 0.0 -6.172496826285e+01 
-9.456861193759e+01 6.711784398883e+00 0.0 
6.711784398883e+00 -1.957739909125e+02 0.0 
0.0 0.0 -8.670278085501e+01 
-1.326633411955e+02 1.869974718448e+01 0.0 
1.869974718448e+01 -3.116154644592e+02 0.0 
0.0 0.0 -1.328836416964e+02 
-5.334387059938e+01 1.347739390215e+01 0.0 
1.347739390215e+01 -1.469319578042e+02 0.0 
0.0 0.0 -5.968274852108e+01 
-2.730774779002e+01 1.403959574751e+01 0.0 
1.403959574751e+01 -6.808882485683e+01 0.0 
0.0 0.0 -2.821897179406e+01 
-8.200051312364e+01 9.119447347556e+00 0.0 
9.119447347556e+00 -1.585263757350e+02 0.0 
0.0 0.0 -7.175806665759e+01 
-1.260256023729e+02 6.011302912516e+00 0.0 
6.011302912516e+00 -2.914281576029e+02 0.0 
0.0 0.0 -1.248361279928e+02 
-6.849204697732e+01 1.712731577881e+01 0.0 
1.712731577881e+01 -1.440605019640e+02 0.0 
0.0 0.0 -6.336576468239e+01 
-7.281178013254e+01 1.315141247981e+01 0.0 
1.315141247981e+01 -1.945445354674e+02 0.0 
0.0 0.0 -7.980689467997e+01 
-6.742764908279e+01 5.265923671014e-01 0.0 
5.265923671014e-01 -1.408076042078e+02 0.0 
0.0 0.0 -6.207057598718e+01 
-2.478149915659e+01 -2.061129861310e+00 0.0 
-2.061129861310e+00 -5.741964449837e+01 0.0 
0.0 0.0 -2.426034309649e+01 
-7.185167021785e+01 5.291421020101e+00 0.0 
5.291421020101e+00 -1.371311911765e+02 0.0 
0.0 0.0 -6.229485841832e+01 
-3.529819743582e+01 1.037017592536e+01 0.0 
1.037017592536e+01 -1.063998151871e+02 0.0 
0.0 0.0 -4.210940378689e+01 
-2.558017169096e+01 5.437145306455e+00 0.0 
5.437145306455e+00 -7.684414531574e+01 0.0 
0.0 0.0 -3.032729510201e+01 
-2.389043176421e+01 -1.026501564961e+00 0.0 
-1.026501564961e+00 -6.127475942103e+01 0.0 
0.0 0.0 -2.514955735557e+01 
-1.012601673638e+02 6.373430307119e+00 0.0 
6.373430307119e+00 -2.158808237224e+02 0.0 
0.0 0.0 -9.474229732586e+01 
-7.834769435761e+01 9.811963980220e+00 0.0 
9.811963980220e+00 -1.495449857994e+02 0.0 
0.0 0.0 -6.796780404711e+01 
-4.276288840686e+01 1.601212446743e+01 0.0 
1.601212446743e+01 -1.069664178499e+02 0.0 
0.0 0.0 -4.451879187703e+01 
-1.064516615564e+02 8.201879501147e+00 0.0 
8.201879501147e+00 -2.271130068294e+02 0.0 
0.0 0.0 -9.966940051574e+01 
-1.048376015307e+02 1.195332533628e+01 0.0 
1.195332533628e+01 -2.192981192572e+02 0.0 
0.0 0.0 -9.684071623636e+01 
-7.430970032356e+01 1.362574917492e+01 0.0 
1.362574917492e+01 -1.446065007999e+02 0.0 
0.0 0.0 -6.527486033704e+01 
-1.542381521650e+02 5.018284890241e+00 0.0 
5.018284890241e+00 -3.657610369554e+02 0.0 
0.0 0.0 -1.555997567361e+02 
-7.644995137951e+01 1.150933194565e+01 0.0 
1.150933194565e+01 -2.060579880846e+02 0.0 
0.0 0.0 -8.435238183923e+01 
-7.843542499250e+01 1.250261667784e+01 0.0 
1.250261667784e+01 -1.524915830667e+02 0.0 
0.0 0.0 -6.887810241777e+01 
-5.770436352475e+01 1.719443111338e+01 0.0 
1.719443111338e+01 -1.434195991709e+02 0.0 
0.0 0.0 -5.993718880870e+01 
-8.108559130176e+01 1.358509607583e+01 0.0 
1.358509607583e+01 -2.125654928952e+02 0.0 
0.0 0.0 -8.769532525910e+01 
-3.029923302822e+01 6.115846465619e+00 0.0 
6.115846465619e+00 -9.400791757964e+01 0.0 
0.0 0.0 -3.689214518236e+01 
-6.522606823911e+01 1.935609244323e+00 0.0 
1.935609244323e+00 -1.250789872640e+02 0.0 
0.0 0.0 -5.669151665092e+01 
-5.716597669049e+01 1.221164023578e+01 0.0 
1.221164023578e+01 -1.590924464078e+02 0.0 
0.0 0.0 -6.447752692950e+01 
-4.260669744686e+01 2.965930158988e+00 0.0 
2.965930158988e+00 -1.246778373694e+02 0.0 
0.0 0.0 -4.978536044486e+01 
-9.869159181294e+01 8.128787039289e+00 0.0 
8.128787039289e+00 -2.067159552785e+02 0.0 
0.0 0.0 -9.122226412744e+01 
-1.949795947176e+01 7.116346529829e-01 0.0 
7.116346529829e-01 -6.304670106535e+00 0.0 
0.0 0.0 -7.340788873490e+00 
-7.769704022287e+01 7.571665441673e+00 0.0 
7.571665441673e+00 -1.479920543140e+02 0.0 
0.0 0.0 -6.730672836107e+01 
-3.872077097242e+01 8.989591861217e+00 0.0 
8.989591861217e+00 -1.179054289853e+02 0.0 
0.0 0.0 -4.658785998731e+01 
-3.017924634460e+01 1.277545507776e+01 0.0 
1.277545507776e+01 -8.184025040401e+01 0.0 
0.0 0.0 -3.320584902458e+01 
-3.235249486235e+01 5.576053891990e+00 0.0 
5.576053891990e+00 -9.474451914515e+01 0.0 
0.0 0.0 -3.772910420225e+01 
-8.438488261572e+01 8.023839745626e+00 0.0 
8.023839745626e+00 -1.682667134717e+02 0.0 
0.0 0.0 -7.539547882623e+01 
-1.912436244842e+01 -1.654247733435e+00 0.0 
-1.654247733435e+00 -4.142713296599e+01 0.0 
0.0 0.0 -1.776544862432e+01 
-4.465610227126e+01 1.385975414301e+01 0.0 
1.385975414301e+01 -8.283038509735e+01 0.0 
0.0 0.0 -3.784594621058e+01 
-8.486095687925e+01 1.190299273266e+01 0.0 
1.190299273266e+01 -2.241877863246e+02 0.0 
0.0 0.0 -9.231462296117e+01 
-7.643088869733e+01 6.978401426151e+00 0.0 
6.978401426151e+00 -1.480320860559e+02 0.0 
0.0 0.0 -6.693889242598e+01 
-7.293861828144e+01 3.234032117395e+00 0.0 
3.234032117395e+00 -1.429025671652e+02 0.0 
0.0 0.0 -6.435235563399e+01 
-2.062541559360e+01 3.065171642549e+00 0.0 
3.065171642549e+00 -5.188187196858e+01 0.0 
0.0 0.0 -2.135218626866e+01 
-4.046543651945e+01 2.909067780876e+00 0.0 
2.909067780876e+00 -1.237580073445e+02 0.0 
0.0 0.0 -4.886703315917e+01 
-4.003870256836e+01 1.524409588093e+00 0.0 
1.524409588093e+00 -1.158765018061e+02 0.0 
0.0 0.0 -4.637456131233e+01 
-3.623713797831e+01 1.761411191505e+01 0.0 
1.761411191505e+01 -6.258277581444e+01 0.0 
0.0 0.0 -2.924597413783e+01 
-9.677938733587e+01 9.194268949322e+00 0.0 
9.194268949322e+00 -1.973726744648e+02 0.0 
0.0 0.0 -8.784561854019e+01 
-4.439191419581e+01 1.766716815051e+01 0.0 
1.766716815051e+01 -8.353438735512e+01 0.0 
0.0 0.0 -3.797789046528e+01 
-5.269500821832e+01 1.020092027380e+01 0.0 
1.020092027380e+01 -1.526996468570e+02 0.0 
0.0 0.0 -6.121839652258e+01 
-4.891298545299e+01 1.144749242850e+01 0.0 
1.144749242850e+01 -1.410658254404e+02 0.0 
0.0 0.0 -5.659364326803e+01 
-2.347809793126e+01 3.909420513792e+00 0.0 
3.909420513792e+00 -5.949786831765e+01 0.0 
0.0 0.0 -2.449278987467e+01 
-6.169996478988e+01 1.518076604862e+01 0.0 
1.518076604862e+01 -1.568695949386e+02 0.0 
0.0 0.0 -6.517086791853e+01 
-2.225792912230e+01 1.143565793221e+01 0.0 
1.143565793221e+01 -4.874595098531e+01 0.0 
0.0 0.0 -2.090116403228e+01 
-1.299366421187e+02 1.164383980978e+01 0.0 
1.164383980978e+01 -2.975307119537e+02 0.0 
0.0 0.0 -1.278402062217e+02 
-1.308803915067e+02 1.401291109610e+01 0.0 
1.401291109610e+01 -3.004725674061e+02 0.0 
0.0 0.0 -1.290058876738e+02 
-7.252423999772e+01 1.524555922177e+01 0.0 
1.524555922177e+01 -1.580562281904e+02 0.0 
0.0 0.0 -6.877414045644e+01 
-3.266920628793e+01 8.269085867053e+00 0.0 
8.269085867053e+00 -1.006916875616e+02 0.0 
0.0 0.0 -3.960826815486e+01 
-2.822690066583e+01 1.055335917901e+01 0.0 
1.055335917901e+01 -7.783199273068e+01 0.0 
0.0 0.0 -3.141766801895e+01 
-8.127427087646e+01 1.118130126688e+01 0.0 
1.118130126688e+01 -1.638904426205e+02 0.0 
0.0 0.0 -7.314941404910e+01 
-3.120744193624e+01 9.146878438903e+00 0.0 
9.146878438903e+00 -8.993848994919e+01 0.0 
0.0 0.0 -3.594377956563e+01 
-3.792175582497e+01 1.289853088331e+00 0.0 
1.289853088331e+00 -1.149275261536e+02 0.0 
0.0 0.0 -4.545478459359e+01 
-6.953722684408e+01 1.171810286207e+01 0.0 
1.171810286207e+01 -1.361464125997e+02 0.0 
0.0 0.0 -6.130509183314e+01 
-1.193680680890e+02 4.183650216856e+00 0.0 
4.183650216856e+00 -2.730309843832e+02 0.0 
0.0 0.0 -1.173197157416e+02 
-4.175874840000e+01 1.094495795241e+01 0.0 
1.094495795241e+01 -1.236004527097e+02 0.0 
0.0 0.0 -4.920776033290e+01 
-9.354146617959e+01 1.391254591598e+01 0.0 
1.391254591598e+01 -2.365606998503e+02 0.0 
0.0 0.0 -9.863064980895e+01 
-2.288099619743e+01 1.079582629468e+01 0.0 
1.079582629468e+01 -6.093834020141e+01 0.0 
0.0 0.0 -2.474580091965e+01 
-1.539400628902e+02 1.426553325454e+01 0.0 
1.426553325454e+01 -3.662813567074e+02 0.0 
0.0 0.0 -1.556664258793e+02 
-2.961196453203e+01 9.737811024845e+00 0.0 
9.737811024845e+00 -8.939995561009e+01 0.0 
0.0 0.0 -3.530357604263e+01 
-7.334719715008e+01 1.328894543808e+01 0.0 
1.328894543808e+01 -1.498769527570e+02 0.0 
0.0 0.0 -6.656724497211e+01 
-2.388605327946e+01 3.358880798470e+00 0.0 
3.358880798470e+00 -6.931003767182e+01 0.0 
0.0 0.0 -2.755882728538e+01 
-9.339994070486e+01 8.425849413931e+00 0.0 
8.425849413931e+00 -2.493371750942e+02 0.0 
0.0 0.0 -1.024211347397e+02 
-5.654703120033e+01 1.179817444378e+01 0.0 
1.179817444378e+01 -1.587360227975e+02 0.0 
0.0 0.0 -6.418491619935e+01 
-4.146121159260e+01 7.827046057073e-01 0.0 
7.827046057073e-01 -1.243092732753e+02 0.0 
0.0 0.0 -4.933114546036e+01 
-7.454189472999e+01 1.075554557772e+01 0.0 
1.075554557772e+01 -1.406813710296e+02 0.0 
0.0 0.0 -6.416697972787e+01 
-1.347700443429e+02 1.745136784430e+01 0.0 
1.745136784430e+01 -3.106052583639e+02 0.0 
0.0 0.0 -1.332125908120e+02 
-4.543863834463e+01 9.643804362486e+00 0.0 
9.643804362486e+00 -1.352279606767e+02 0.0 
0.0 0.0 -5.379997970639e+01 
-8.542391787258e+01 1.279239488987e+01 0.0 
1.279239488987e+01 -2.246060095173e+02 0.0 
0.0 0.0 -9.260897821697e+01 
-2.407584567235e+01 9.781670522041e+00 0.0 
9.781670522041e+00 -6.124757144559e+01 0.0 
0.0 0.0 -2.519702513538e+01 
-8.463177409347e+01 2.206416416903e+00 0.0 
2.206416416903e+00 -1.765358672930e+02 0.0 
0.0 0.0 -7.795029241595e+01 
-1.074884298320e+02 6.902238400447e+00 0.0 
6.902238400447e+00 -2.799548747006e+02 0.0 
0.0 0.0 -1.158329913598e+02 
-2.956622953991e+01 1.586312422649e+01 0.0 
1.586312422649e+01 -7.084322560486e+01 0.0 
0.0 0.0 -2.972283654343e+01 
-8.198791625933e+01 3.358555362107e+00 0.0 
3.358555362107e+00 -1.683014399332e+02 0.0 
0.0 0.0 -7.468680685777e+01 
-1.384223727208e+02 1.985435243071e+01 0.0 
1.985435243071e+01 -3.213948866233e+02 0.0 
0.0 0.0 -1.375451778032e+02 
-1.171214644695e+02 7.764194929046e+00 0.0 
7.764194929046e+00 -2.989248520981e+02 0.0 
0.0 0.0 -1.244138949703e+02 
-1.337565119630e+02 1.634380202982e+01 0.0 
1.634380202982e+01 -3.071746050961e+02 0.0 
0.0 0.0 -1.318793351177e+02 
-8.282109177401e+01 4.280077773332e+00 0.0 
4.280077773332e+00 -1.671138562972e+02 0.0 
0.0 0.0 -7.458048442135e+01 
-1.047890329432e+02 1.366350389013e+01 0.0 
1.366350389013e+01 -2.213500982283e+02 0.0 
0.0 0.0 -9.744173935144e+01 
-2.505676632806e+01 1.493335417541e+01 0.0 
1.493335417541e+01 -5.340235388180e+01 0.0 
0.0 0.0 -2.313773606296e+01 
-6.656766010555e+01 9.836671497392e+00 0.0 
9.836671497392e+00 -1.205878351931e+02 0.0 
0.0 0.0 -5.574664858959e+01 
-7.723732857834e+01 9.520086649165e+00 0.0 
9.520086649165e+00 -1.513740106961e+02 0.0 
0.0 0.0 -6.818340178232e+01 
-8.235652933049e+01 1.152012369170e+01 0.0 
1.152012369170e+01 -1.608580888566e+02 0.0 
0.0 0.0 -7.256438545613e+01 
-6.371363408131e+01 1.785244315012e+01 0.0 
1.785244315012e+01 -1.385965726304e+02 0.0 
0.0 0.0 -6.029306201352e+01 
-1.411873225620e+02 2.073164688454e+01 0.0 
2.073164688454e+01 -3.297626754595e+02 0.0 
0.0 0.0 -1.408849994065e+02 
-7.921663636028e+01 3.631824253989e+00 0.0 
3.631824253989e+00 -1.571865222679e+02 0.0 
0.0 0.0 -7.052094758845e+01 
-6.959275958957e+01 6.383215963272e+00 0.0 
6.383215963272e+00 -1.285492146174e+02 0.0 
0.0 0.0 -5.904259226208e+01 
-4.980664350200e+01 1.160354365325e+01 0.0 
1.160354365325e+01 -1.414784802821e+02 0.0 
0.0 0.0 -5.698553713524e+01 
-3.263263751311e+01 -2.611257551514e+00 0.0 
-2.611257551514e+00 -8.816848706210e+01 0.0 
0.0 0.0 -3.584033737256e+01 
-6.209431412937e+01 7.785088679529e+00 0.0 
7.785088679529e+00 -1.095243620265e+02 0.0 
0.0 0.0 -5.108560284676e+01 
-3.162616887573e+01 1.459897477849e+01 0.0 
1.459897477849e+01 -8.489611495057e+01 0.0 
0.0 0.0 -3.455668514789e+01 
-6.006065267128e+01 2.813130935386e-01 0.0 
2.813130935386e-01 -1.232534357580e+02 0.0 
0.0 0.0 -5.459422652877e+01 
-4.356604386358e+01 1.052460947346e+00 0.0 
1.052460947346e+00 -1.252591939248e+02 0.0 
0.0 0.0 -5.024757133652e+01 
-4.293567711272e+01 1.085610182894e+01 0.0 
1.085610182894e+01 -1.240817970122e+02 0.0 
0.0 0.0 -4.970524223747e+01 
-1.020327464612e+02 7.805192972489e+00 0.0 
7.805192972489e+00 -2.164824130563e+02 0.0 
0.0 0.0 -9.515454785526e+01 
-3.258228644963e+01 1.486381237091e+01 0.0 
1.486381237091e+01 -8.535192199091e+01 0.0 
0.0 0.0 -3.498026253216e+01 
-6.918828345579e+01 8.632718303618e+00 0.0 
8.632718303618e+00 -1.309887260187e+02 0.0 
0.0 0.0 -5.965310284234e+01 
-8.904055039859e+01 1.111366372119e+01 0.0 
1.111366372119e+01 -2.355457788551e+02 0.0 
0.0 0.0 -9.697589877610e+01 
-8.190416038360e+01 2.975030106854e+00 0.0 
2.975030106854e+00 -2.244391860823e+02 0.0 
0.0 0.0 -9.150300393975e+01 
-1.457194036942e+02 2.034477413389e+01 0.0 
2.034477413389e+01 -3.429716060877e+02 0.0 
0.0 0.0 -1.462073029346e+02 
-5.436260233453e+01 1.002078365313e+01 0.0 
1.002078365313e+01 -9.213909233257e+01 0.0 
0.0 0.0 -4.355050840013e+01 
-3.688315621713e+01 3.787447681305e+00 0.0 
3.787447681305e+00 -1.140322750985e+02 0.0 
0.0 0.0 -4.487462939469e+01 
-5.753824767247e+01 5.172487314197e-01 0.0 
5.172487314197e-01 -1.598958310307e+02 0.0 
0.0 0.0 -6.483022361096e+01 
-2.870663333916e+01 1.731796682171e+01 0.0 
1.731796682171e+01 -5.609249015341e+01 0.0 
0.0 0.0 -2.503973704777e+01 
-2.852906914602e+01 1.529218088838e+01 0.0 
1.529218088838e+01 -7.031143769280e+01 0.0 
0.0 0.0 -2.925215205165e+01 
-1.119216463938e+02 1.283264667382e+01 0.0 
1.283264667382e+01 -2.400626439546e+02 0.0 
0.0 0.0 -1.051952871045e+02 
-7.773256949316e+01 1.509720153330e+01 0.0 
1.509720153330e+01 -1.573140816025e+02 0.0 
0.0 0.0 -7.011399532870e+01 
-4.566825328677e+01 1.362863027203e+01 0.0 
1.362863027203e+01 -7.473818461209e+01 0.0 
0.0 0.0 -3.572193136966e+01 
-6.091199205279e+01 7.555560036812e+00 0.0 
7.555560036812e+00 -1.106171348265e+02 0.0 
0.0 0.0 -5.105873806378e+01 
-1.501539340115e+02 1.739785500181e+01 0.0 
1.739785500181e+01 -3.570620328900e+02 0.0 
0.0 0.0 -1.517647900705e+02 
-1.401768794940e+02 1.712524269432e+01 0.0 
1.712524269432e+01 -3.365579133512e+02 0.0 
0.0 0.0 -1.426204378536e+02 
-1.098691027764e+02 1.046853839810e+01 0.0 
1.046853839810e+01 -2.384642981357e+02 0.0 
0.0 0.0 -1.041000202736e+02 
-1.002542935096e+02 8.802751282285e+00 0.0 
8.802751282285e+00 -2.074115578774e+02 0.0 
0.0 0.0 -9.189975541608e+01 
-7.924246204301e+01 4.201656347273e+00 0.0 
4.201656347273e+00 -2.160081662507e+02 0.0 
0.0 0.0 -8.817518848810e+01 
-4.773071937566e+01 1.838447366717e+01 0.0 
1.838447366717e+01 -9.916145453183e+01 0.0 
0.0 0.0 -4.366765217225e+01 
-3.444350432015e+01 7.778304925170e+00 0.0 
7.778304925170e+00 -1.013317061684e+02 0.0 
0.0 0.0 -4.033256314655e+01 
-4.026664412593e+01 8.727030441196e+00 0.0 
8.727030441196e+00 -1.185030035629e+02 0.0 
0.0 0.0 -4.723089430665e+01 
-7.321215756300e+01 1.616074964555e+01 0.0 
1.616074964555e+01 -1.504260345324e+02 0.0 
0.0 0.0 -6.669145762863e+01 
-9.010702480126e+01 9.971435219426e+00 0.0 
9.971435219426e+00 -2.396309129675e+02 0.0 
0.0 0.0 -9.852138133062e+01 
-7.231766390554e+01 9.017357086845e-01 0.0 
9.017357086845e-01 -1.941086527466e+02 0.0 
0.0 0.0 -7.952789499565e+01 
-1.091117797106e+02 8.879551875056e+00 0.0 
8.879551875056e+00 -2.370617609482e+02 0.0 
0.0 0.0 -1.034520621976e+02 
-3.904362974176e+01 3.624754098158e+00 0.0 
3.624754098158e+00 -1.149112592056e+02 0.0 
0.0 0.0 -4.578646668421e+01 
-5.896375332015e+01 1.811590646854e+01 0.0 
1.811590646854e+01 -1.338130023496e+02 0.0 
0.0 0.0 -5.743302670092e+01 
-7.340373404646e+01 1.051708394664e+01 0.0 
1.051708394664e+01 -1.433681442725e+02 0.0 
0.0 0.0 -6.463156349568e+01 
-5.107284388848e+01 1.835948494956e+01 0.0 
1.835948494956e+01 -1.146459694901e+02 0.0 
0.0 0.0 -4.931564401357e+01 
-1.330145012925e+02 1.526151175771e+01 0.0 
1.526151175771e+01 -3.040923946745e+02 0.0 
0.0 0.0 -1.307320687901e+02 
-1.298056850616e+02 1.252420487030e+01 0.0 
1.252420487030e+01 -2.984471328047e+02 0.0 
0.0 0.0 -1.280758453599e+02 
-1.243828549390e+02 1.318099473586e+01 0.0 
1.318099473586e+01 -2.780208350374e+02 0.0 
0.0 0.0 -1.203211069929e+02 
-8.735190925074e+01 5.115882790443e+00 0.0 
5.115882790443e+00 -2.345022352840e+02 0.0 
0.0 0.0 -9.615624336041e+01 
-1.044325520105e+02 6.191949169152e+00 0.0 
6.191949169152e+00 -2.258866744465e+02 0.0 
0.0 0.0 -9.869576793711e+01 
-2.631630750143e+01 1.413493957556e+01 0.0 
1.413493957556e+01 -6.768248673084e+01 0.0 
0.0 0.0 -2.779963826968e+01 
-4.672513702433e+01 9.603631642242e+00 0.0 
9.603631642242e+00 -1.357642820233e+02 0.0 
0.0 0.0 -5.434682571428e+01 
-2.764182305345e+01 4.592624444192e+00 0.0 
4.592624444192e+00 -7.750953308006e+01 0.0 
0.0 0.0 -3.114540684005e+01 
-4.928563104939e+01 1.602467260088e+01 0.0 
1.602467260088e+01 -8.902517391408e+01 0.0 
0.0 0.0 -4.109324148904e+01 
-6.504261840861e+01 1.744104945219e+00 0.0 
1.744104945219e+00 -1.249318371198e+02 0.0 
0.0 0.0 -5.659233665854e+01 
-8.092205535232e+01 2.143112621269e+00 0.0 
2.143112621269e+00 -1.660150082469e+02 0.0 
0.0 0.0 -7.368111907975e+01 
-1.443130351207e+02 1.384424622220e+01 0.0 
1.384424622220e+01 -3.490692033538e+02 0.0 
0.0 0.0 -1.476146715424e+02 
-1.100464978636e+02 1.203105509177e+01 0.0 
1.203105509177e+01 -2.404000220730e+02 0.0 
0.0 0.0 -1.047339559810e+02 
-8.010239524931e+01 6.447374411435e+00 0.0 
6.447374411435e+00 -1.571379910228e+02 0.0 
0.0 0.0 -7.077211588164e+01 
-8.496136445328e+01 1.030613492326e+01 0.0 
1.030613492326e+01 -1.716676274316e+02 0.0 
0.0 0.0 -7.658869756547e+01 
-2.831728441591e+01 4.088445878056e+00 0.0 
4.088445878056e+00 -8.671628855906e+01 0.0 
0.0 0.0 -3.411007189249e+01 
-2.057350108980e+01 -2.170450174868e+00 0.0 
-2.170450174868e+00 -4.207360425481e+01 0.0 
0.0 0.0 -1.839413160338e+01 
-5.706272539657e+01 1.424881230915e+01 0.0 
1.424881230915e+01 -1.517834450709e+02 0.0 
0.0 0.0 -6.225385114024e+01 
-6.694720460577e+01 1.785094906579e+01 0.0 
1.785094906579e+01 -1.528962670723e+02 0.0 
0.0 0.0 -6.555304150343e+01 
-6.127339468388e+01 1.623553997110e+01 0.0 
1.623553997110e+01 -1.569042328620e+02 0.0 
0.0 0.0 -6.505328826377e+01 
-1.939267941046e+01 1.116020045284e+01 0.0 
1.116020045284e+01 -2.965981088299e+01 0.0 
0.0 0.0 -1.431574708804e+01 
-6.663464907786e+01 -5.056149195122e-02 0.0 
-5.056149195122e-02 -1.398507059097e+02 0.0 
0.0 0.0 -6.154560649628e+01 
-3.103970171532e+01 -1.611527823181e+00 0.0 
-1.611527823181e+00 -8.105570908263e+01 0.0 
0.0 0.0 -3.322862323938e+01 
-3.205736149380e+01 1.174570590469e+01 0.0 
1.174570590469e+01 -9.426780229287e+01 0.0 
0.0 0.0 -3.749754913600e+01 
-1.564336007615e+02 1.417757675931e+01 0.0 
1.417757675931e+01 -3.663450684435e+02 0.0 
0.0 0.0 -1.564336007615e+02 
-9.844014750881e+01 1.452351951380e+01 0.0 
1.452351951380e+01 -2.496080453689e+02 0.0 
0.0 0.0 -1.040144578633e+02 
-6.721419204570e+01 3.758737565779e+00 0.0 
3.758737565779e+00 -1.270780894977e+02 0.0 
0.0 0.0 -5.788768446301e+01 
-2.274994728136e+01 -8.128556722312e-01 0.0 
-8.128556722312e-01 -5.919275687102e+01 0.0 
0.0 0.0 -2.418281124572e+01 
-6.465130718842e+01 1.541542256208e+01 0.0 
1.541542256208e+01 -1.385161630335e+02 0.0 
0.0 0.0 -6.055024106656e+01 
-5.714516352811e+01 1.500755065502e+01 0.0 
1.500755065502e+01 -1.519712954436e+02 0.0 
0.0 0.0 -6.233493769150e+01 
-8.606980697840e+01 1.072511341864e+01 0.0 
1.072511341864e+01 -1.694741700897e+02 0.0 
0.0 0.0 -7.626319312043e+01 
-1.357282177162e+02 1.818496144402e+01 0.0 
1.818496144402e+01 -3.139432012204e+02 0.0 
0.0 0.0 -1.345014256810e+02 
-6.469658448846e+01 6.634742332173e+00 0.0 
6.634742332173e+00 -1.192740328440e+02 0.0 
0.0 0.0 -5.479118519974e+01 
-8.200427520995e+01 1.405849569223e+01 0.0 
1.405849569223e+01 -1.647299156222e+02 0.0 
0.0 0.0 -7.362025724966e+01 
-7.096378250168e+01 -3.899164419504e-01 0.0 
-3.899164419504e-01 -1.932578155770e+02 0.0 
0.0 0.0 -7.886647942360e+01 
-1.052665538891e+02 7.623474506273e+00 0.0 
7.623474506273e+00 -2.263340489706e+02 0.0 
0.0 0.0 -9.908018085790e+01 
-9.028846017702e+01 3.799635511315e+00 0.0 
3.799635511315e+00 -2.431859778657e+02 0.0 
0.0 0.0 -9.964233141283e+01 
-1.375311674529e+02 1.929171811373e+01 0.0 
1.929171811373e+01 -3.176376914795e+02 0.0 
0.0 0.0 -1.361506576797e+02 
-1.297875322876e+02 1.499987401552e+01 0.0 
1.499987401552e+01 -3.041709086712e+02 0.0 
0.0 0.0 -1.297875322876e+02 
-1.258851416190e+02 1.058245967244e+01 0.0 
1.058245967244e+01 -2.950653304443e+02 0.0 
0.0 0.0 -1.258851416190e+02 
-1.269400593127e+02 1.269563590422e+01 0.0 
1.269563590422e+01 -2.975268050631e+02 0.0 
0.0 0.0 -1.269400593127e+02 
-8.854981776884e+01 9.575274912453e+00 0.0 
9.575274912453e+00 -1.798735465488e+02 0.0 
0.0 0.0 -8.012700929528e+01 
-1.073309706393e+02 9.722024693306e+00 0.0 
9.722024693306e+00 -2.276032387020e+02 0.0 
0.0 0.0 -1.000802628024e+02 
-1.136762592201e+02 1.185679795661e+01 0.0 
1.185679795661e+01 -2.503069171697e+02 0.0 
0.0 0.0 -1.087949529170e+02 
-5.189084981506e+01 1.627723221381e+01 0.0 
1.627723221381e+01 -1.146308789732e+02 0.0 
0.0 0.0 -4.955651863647e+01 
-4.835701798297e+01 1.555473900834e+01 0.0 
1.555473900834e+01 -9.891754588255e+01 0.0 
0.0 0.0 -4.378236915966e+01 
-6.841759350699e+01 5.008692040305e-01 0.0 
5.008692040305e-01 -1.835055923794e+02 0.0 
0.0 0.0 -7.517695576592e+01 
-1.112764693993e+02 1.113911502120e+01 0.0 
1.113911502120e+01 -2.384585808245e+02 0.0 
0.0 0.0 -1.045205150671e+02 
-1.397322545956e+02 2.043283781217e+01 0.0 
2.043283781217e+01 -3.254233591197e+02 0.0 
0.0 0.0 -1.391466841146e+02 
-1.083214448819e+02 7.354720497173e+00 0.0 
7.354720497173e+00 -2.360647090333e+02 0.0 
0.0 0.0 -1.029158461746e+02 
-8.964930532089e+01 1.403955976169e+01 0.0 
1.403955976169e+01 -2.309717878144e+02 0.0 
0.0 0.0 -9.578632794060e+01 
-1.102893003611e+02 9.385503719827e+00 0.0 
9.385503719827e+00 -2.372973074136e+02 0.0 
0.0 0.0 -1.038759823324e+02 
-9.925419104055e+01 1.735628883553e+01 0.0 
1.735628883553e+01 -2.296708466957e+02 0.0 
0.0 0.0 -9.827751132089e+01 
-6.325098384929e+01 1.610847095138e+01 0.0 
1.610847095138e+01 -1.481674788388e+02 0.0 
0.0 0.0 -6.302553880643e+01 
-4.899249417166e+01 1.208322750809e+01 0.0 
1.208322750809e+01 -8.830984439494e+01 0.0 
0.0 0.0 -4.079070156998e+01 
-2.494252703667e+01 9.149596699602e+00 0.0 
9.149596699602e+00 -7.260518818045e+01 0.0 
0.0 0.0 -2.886431456514e+01 
-1.190617305687e+02 6.392106340774e+00 0.0 
6.392106340774e+00 -2.741784478003e+02 0.0 
0.0 0.0 -1.175720535107e+02 
-4.724467496568e+01 1.647586931183e+01 0.0 
1.647586931183e+01 -1.109124222957e+02 0.0 
0.0 0.0 -4.704712917842e+01 
-1.274542109801e+02 1.755450582712e+01 0.0 
1.755450582712e+01 -2.949984246984e+02 0.0 
0.0 0.0 -1.263357907036e+02 
-6.718154895823e+01 -8.411536634005e-01 0.0 
-8.411536634005e-01 -1.826934203167e+02 0.0 
0.0 0.0 -7.456249078250e+01 
-4.087859092723e+01 -6.231800933079e-02 0.0 
-6.231800933079e-02 -1.155778378752e+02 0.0 
0.0 0.0 -4.653692864071e+01 
-1.477250347032e+02 1.256361335601e+01 0.0 
1.256361335601e+01 -3.520466114209e+02 0.0 
0.0 0.0 -1.495314938372e+02 
-3.492309979711e+01 1.353953965225e+01 0.0 
1.353953965225e+01 -9.846957247572e+01 0.0 
0.0 0.0 -3.961780168185e+01 
-1.312314875406e+02 1.609431736472e+01 0.0 
1.609431736472e+01 -3.075401375947e+02 0.0 
0.0 0.0 -1.312314875406e+02 
-1.224420137378e+02 1.113022799309e+01 0.0 
1.113022799309e+01 -2.799969269951e+02 0.0 
0.0 0.0 -1.203316822199e+02 
-8.108155974429e+01 1.352109245562e+01 0.0 
1.352109245562e+01 -1.699405005261e+02 0.0 
0.0 0.0 -7.490661808111e+01 
-1.394637892513e+01 -1.545414195951e+00 0.0 
-1.545414195951e+00 -2.482202237863e+01 0.0 
0.0 0.0 -1.165756921995e+01 
-1.342019170704e+02 1.784089711497e+01 0.0 
1.784089711497e+01 -3.144711398309e+02 0.0 
0.0 0.0 -1.342019170704e+02 
-1.455379408769e+02 1.475284428733e+01 0.0 
1.475284428733e+01 -3.462286110585e+02 0.0 
0.0 0.0 -1.471299655806e+02 
-3.883196947658e+01 -5.059799684567e-01 0.0 
-5.059799684567e-01 -1.146144816129e+02 0.0 
0.0 0.0 -4.563393532686e+01 
-9.406084177868e+01 1.333693899532e+01 0.0 
1.333693899532e+01 -2.429594052777e+02 0.0 
0.0 0.0 -1.007060741169e+02 
-1.466177282333e+02 1.978871079003e+01 0.0 
1.978871079003e+01 -3.466919750281e+02 0.0 
0.0 0.0 -1.475929109784e+02 
-1.021085056887e+01 -6.344090354096e-01 0.0 
-6.344090354096e-01 -8.900386544678e+00 0.0 
0.0 0.0 -6.303284276852e+00 
-5.532815260081e+01 1.634188221177e+01 0.0 
1.634188221177e+01 -1.296212768166e+02 0.0 
0.0 0.0 -5.508482882523e+01 
-8.508804553738e+01 1.260594433268e+01 0.0 
1.260594433268e+01 -1.767683220942e+02 0.0 
0.0 0.0 -7.815691028947e+01 
-7.689978108033e+01 1.442932587320e+01 0.0 
1.442932587320e+01 -1.637167210683e+02 0.0 
0.0 0.0 -7.178495064460e+01 
-7.736711192305e+01 1.218432119146e+01 0.0 
1.218432119146e+01 -1.565744847546e+02 0.0 
0.0 0.0 -6.978247900329e+01 
-2.677266356772e+01 1.118276179907e+01 0.0 
1.118276179907e+01 -7.735115813804e+01 0.0 
0.0 0.0 -3.083714651173e+01 
-1.377313553693e+02 1.916886240147e+01 0.0 
1.916886240147e+01 -3.227064958617e+02 0.0 
0.0 0.0 -1.377313553693e+02 
-5.371450717300e+01 1.038619587998e+01 0.0 
1.038619587998e+01 -1.531731466255e+02 0.0 
0.0 0.0 -6.166629613954e+01 
-2.247931374556e+01 1.643478805249e+00 0.0 
1.643478805249e+00 -5.232498932362e+01 0.0 
0.0 0.0 -2.204129092075e+01 
-1.515918108218e+02 5.594023118281e+00 0.0 
5.594023118281e+00 -3.643864696360e+02 0.0 
0.0 0.0 -1.543934841373e+02 
-1.582235715435e+01 -1.479697894350e+00 0.0 
-1.479697894350e+00 -2.518907579637e+01 0.0 
0.0 0.0 -1.190342988522e+01 
-5.702772942926e+01 8.735785234369e+00 0.0 
8.735785234369e+00 -1.024259682645e+02 0.0 
0.0 0.0 -4.743610930814e+01 
-2.267555317576e+01 -1.620617598311e+00 0.0 
-1.620617598311e+00 -5.852170088536e+01 0.0 
0.0 0.0 -2.395917621833e+01 
-5.993346062416e+01 4.621249282045e+00 0.0 
4.621249282045e+00 -1.080325175248e+02 0.0 
0.0 0.0 -4.998979344469e+01 
-1.515235215920e+02 1.641825823603e+01 0.0 
1.641825823603e+01 -3.603318223800e+02 0.0 
0.0 0.0 -1.531566031916e+02 
-1.417461410735e+02 1.970299607138e+01 0.0 
1.970299607138e+01 -3.320743291716e+02 0.0 
0.0 0.0 -1.417461410735e+02 
-8.081805495560e+01 8.680643285993e+00 0.0 
8.680643285993e+00 -1.596404842993e+02 0.0 
0.0 0.0 -7.173756177646e+01 
-1.844941053282e+01 -1.922554375694e+00 0.0 
-1.922554375694e+00 -4.194902102362e+01 0.0 
0.0 0.0 -1.771952946693e+01 
-1.940714469302e+01 1.009210332491e+00 0.0 
1.009210332491e+00 -4.298802289666e+01 0.0 
0.0 0.0 -1.831855027690e+01 
-2.528500903416e+01 -1.949883248563e+00 0.0 
-1.949883248563e+00 -5.803213382477e+01 0.0 
0.0 0.0 -2.459514285768e+01 
-1.282883156967e+02 6.703111441915e+00 0.0 
6.703111441915e+00 -3.188789982533e+02 0.0 
0.0 0.0 -1.337501941850e+02 
-6.500052328111e+01 1.864796860208e+00 0.0 
1.864796860208e+00 -1.251740024504e+02 0.0 
0.0 0.0 -5.665235771947e+01 
-7.307202208271e+01 6.107949617099e+00 0.0 
6.107949617099e+00 -1.375876745805e+02 0.0 
0.0 0.0 -6.279790899896e+01 
-1.456456455654e+02 1.952011925022e+01 0.0 
1.952011925022e+01 -3.411731729858e+02 0.0 
0.0 0.0 -1.456456455654e+02 
-6.400693691858e+01 1.722755424124e+00 0.0 
1.722755424124e+00 -1.248932385594e+02 0.0 
0.0 0.0 -5.627005264338e+01 
-1.285146462162e+02 1.034079125882e+01 0.0 
1.034079125882e+01 -2.958793846991e+02 0.0 
0.0 0.0 -1.269182092746e+02 
-1.029502152128e+02 1.557767747341e+01 0.0 
1.557767747341e+01 -2.421971497483e+02 0.0 
0.0 0.0 -1.031442094883e+02 
-7.646174471013e+01 1.396965728320e+00 0.0 
1.396965728320e+00 -1.564853898707e+02 0.0 
0.0 0.0 -6.948414037426e+01 
-3.145097127837e+01 1.623838631156e+01 0.0 
1.623838631156e+01 -7.252005502797e+01 0.0 
0.0 0.0 -3.079130789190e+01 
-9.345675579287e+01 1.229744055533e+01 0.0 
1.229744055533e+01 -2.424951587239e+02 0.0 
0.0 0.0 -1.003855743550e+02 
-2.537858240869e+01 5.897808592994e+00 0.0 
5.897808592994e+00 -6.758371583105e+01 0.0 
0.0 0.0 -2.748868947192e+01 
-1.490957036726e+02 1.861645727742e+01 0.0 
1.861645727742e+01 -3.492233085694e+02 0.0 
0.0 0.0 -1.490957036726e+02 
-1.283065818719e+02 1.375622256792e+01 0.0 
1.375622256792e+01 -3.007153577012e+02 0.0 
0.0 0.0 -1.283065818719e+02 
-1.265345213771e+02 1.168483582673e+01 0.0 
1.168483582673e+01 -2.965805498799e+02 0.0 
0.0 0.0 -1.265345213771e+02 
-9.186980597316e+01 4.885969802128e+00 0.0 
4.885969802128e+00 -2.440873502455e+02 0.0 
0.0 0.0 -1.003871468656e+02 
-6.446906082772e+01 2.276462691667e-01 0.0 
2.276462691667e-01 -1.727047814749e+02 0.0 
0.0 0.0 -7.075215269078e+01 
-6.226112350941e+01 1.773954994204e+01 0.0 
1.773954994204e+01 -1.481060444317e+02 0.0 
0.0 0.0 -6.271015038233e+01 
-9.483063958232e+01 3.519005621102e+00 0.0 
3.519005621102e+00 -2.524801873451e+02 0.0 
0.0 0.0 -1.037932480782e+02 
-1.521245012655e+02 1.714071152408e+01 0.0 
1.714071152408e+01 -3.562905029527e+02 0.0 
0.0 0.0 -1.521245012655e+02 
-3.330261321000e+01 1.139081020599e+01 0.0 
1.139081020599e+01 -9.472005251648e+01 0.0 
0.0 0.0 -3.800679971794e+01 
-4.411501534413e+01 2.197708192078e+00 0.0 
2.197708192078e+00 -1.332304091526e+02 0.0 
0.0 0.0 -5.280362734903e+01 
-4.781509265679e+01 1.658283767777e+00 0.0 
1.658283767777e+00 -1.424913174074e+02 0.0 
0.0 0.0 -5.669192301925e+01 
-8.048079047739e+01 1.545393294090e+00 0.0 
1.545393294090e+00 -1.673649543556e+02 0.0 
0.0 0.0 -7.395372344990e+01 
-1.549696243782e+02 1.319167503638e+01 0.0 
1.319167503638e+01 -3.687629049770e+02 0.0 
0.0 0.0 -1.567197588066e+02 
-2.203993401505e+01 -1.991700547804e+00 0.0 
-1.991700547804e+00 -4.165344269611e+01 0.0 
0.0 0.0 -1.870801301335e+01 
-1.550618807922e+02 1.516048919463e+01 0.0 
1.516048919463e+01 -3.631443885152e+02 0.0 
0.0 0.0 -1.550618807922e+02 
-4.496599788384e+01 3.050806945736e-01 0.0 
3.050806945736e-01 -1.331494855029e+02 0.0 
0.0 0.0 -5.303464501601e+01 
-1.328964762499e+02 1.708299514996e+01 0.0 
1.708299514996e+01 -3.114251112497e+02 0.0 
0.0 0.0 -1.328964762499e+02 
-1.157609239572e+02 1.414266736588e+01 0.0 
1.414266736588e+01 -2.517469738543e+02 0.0 
0.0 0.0 -1.098523693435e+02 
-1.162485046397e+01 -6.122775582018e-01 0.0 
-6.122775582018e-01 -7.891047335414e+00 0.0 
0.0 0.0 -5.454769339814e+00 
-5.845271744425e+01 1.588665312827e+01 0.0 
1.588665312827e+01 -1.434531101875e+02 0.0 
0.0 0.0 -6.017174828951e+01 
-1.095643880205e+02 7.966782279468e+00 0.0 
7.966782279468e+00 -2.372958138589e+02 0.0 
0.0 0.0 -1.036580605638e+02 
-1.360435840033e+02 1.864735659617e+01 0.0 
1.864735659617e+01 -3.187683626744e+02 0.0 
0.0 0.0 -1.360435840033e+02 
-8.994201584698e+01 1.224654158188e+01 0.0 
1.224654158188e+01 -1.809682954858e+02 0.0 
0.0 0.0 -8.087309339983e+01 
-1.066738841326e+02 1.554760572260e+01 0.0 
1.554760572260e+01 -2.549283742159e+02 0.0 
0.0 0.0 -1.080806775046e+02 
-2.133167289106e+01 8.716546516413e+00 0.0 
8.716546516413e+00 -5.620559194383e+01 0.0 
0.0 0.0 -2.286117945047e+01 
-1.375507851260e+02 1.333824058731e+01 0.0 
1.333824058731e+01 -3.325539020290e+02 0.0 
0.0 0.0 -1.406314061465e+02 
-4.860762665520e+01 2.105223666445e-02 0.0 
2.105223666445e-02 -1.420150710480e+02 0.0 
0.0 0.0 -5.678680931095e+01 
-4.980701561147e+01 1.981489058665e+00 0.0 
1.981489058665e+00 -1.433995123329e+02 0.0 
0.0 0.0 -5.756195838331e+01 
-1.907129509933e+01 -1.612769376441e+00 0.0 
-1.612769376441e+00 -2.583147383876e+01 0.0 
0.0 0.0 -1.307083068143e+01 
-1.396794922969e+02 1.951803790777e+01 0.0 
1.951803790777e+01 -3.272521486928e+02 0.0 
0.0 0.0 -1.396794922969e+02 
-2.939502158132e+01 6.834658825815e+00 0.0 
6.834658825815e+00 -8.429032703331e+01 0.0 
0.0 0.0 -3.370560458439e+01 
-1.231078353339e+02 1.030457276879e+01 0.0 
1.030457276879e+01 -3.085696583133e+02 0.0 
0.0 0.0 -1.291032480942e+02 
-7.327801881232e+01 2.767409409631e+00 0.0 
2.767409409631e+00 -1.470730597638e+02 0.0 
0.0 0.0 -6.570532357284e+01 
-4.433646539488e+01 -8.229517133271e-01 0.0 
-8.229517133271e-01 -1.227003990754e+02 0.0 
0.0 0.0 -4.971105934108e+01 
-4.615591757218e+01 2.447419702027e+00 0.0 
2.447419702027e+00 -1.341479634830e+02 0.0 
0.0 0.0 -5.369116431655e+01 
-8.608474556136e+01 1.307859273773e+01 0.0 
1.307859273773e+01 -1.726815171793e+02 0.0 
0.0 0.0 -7.722987882220e+01 
-1.474334901119e+02 1.922305307762e+01 0.0 
1.922305307762e+01 -3.453448102610e+02 0.0 
0.0 0.0 -1.474334901119e+02 
-6.707075404966e+01 -9.945554547027e-01 0.0 
-9.945554547027e-01 -1.807218436147e+02 0.0 
0.0 0.0 -7.393777929930e+01 
-1.046885092405e+02 6.915816871800e+00 0.0 
6.915816871800e+00 -2.719052946993e+02 0.0 
0.0 0.0 -1.125781411819e+02 
-7.582396896410e+01 1.562119215724e+01 0.0 
1.562119215724e+01 -1.719610193119e+02 0.0 
0.0 0.0 -7.393549648280e+01 
-9.053402283152e+01 7.999197590790e+00 0.0 
7.999197590790e+00 -2.418906686383e+02 0.0 
0.0 0.0 -9.932740744095e+01 
-4.882147921704e+01 3.960619067315e+00 0.0 
3.960619067315e+00 -1.424724752815e+02 0.0 
0.0 0.0 -5.698818634956e+01 
-9.582621302148e+01 6.018051201825e+00 0.0 
6.018051201825e+00 -2.531218558395e+02 0.0 
0.0 0.0 -1.042844206583e+02 
-7.170968512055e+01 1.755376609106e+01 0.0 
1.755376609106e+01 -1.581511870178e+02 0.0 
0.0 0.0 -6.855826164152e+01 
-1.000678491568e+02 1.696186376561e+01 0.0 
1.696186376561e+01 -2.231345683443e+02 0.0 
0.0 0.0 -9.656072525035e+01 
-1.022673062135e+02 1.273857072931e+01 0.0 
1.273857072931e+01 -2.609300162770e+02 0.0 
0.0 0.0 -1.085591967472e+02 
-7.117986193905e+01 1.585376508046e+01 0.0 
1.585376508046e+01 -1.668135572889e+02 0.0 
0.0 0.0 -7.099802576838e+01 
-6.701858075780e+01 -4.424997334883e-01 0.0 
-4.424997334883e-01 -1.844688696719e+02 0.0 
0.0 0.0 -7.504623512892e+01 
-3.574730069750e+01 1.349850984184e+01 0.0 
1.349850984184e+01 -9.881085861102e+01 0.0 
0.0 0.0 -3.996744779256e+01 
-6.335912202064e+01 -1.157110851897e+00 0.0 
-1.157110851897e+00 -1.719366331892e+02 0.0 
0.0 0.0 -7.018872656295e+01 
-1.029929504576e+02 1.735086041988e+01 0.0 
1.735086041988e+01 -2.426616988238e+02 0.0 
0.0 0.0 -1.032963947844e+02 
-8.052880193841e+01 1.062589056684e+01 0.0 
1.062589056684e+01 -2.173652619558e+02 0.0 
0.0 0.0 -8.896821916826e+01 
-1.528000651168e+02 1.545523758448e+01 0.0 
1.545523758448e+01 -3.634702535866e+02 0.0 
0.0 0.0 -1.544810956110e+02 
-1.133737121379e+02 9.094008835418e+00 0.0 
9.094008835418e+00 -2.471308172403e+02 0.0 
0.0 0.0 -1.077513588135e+02 
-3.969924168791e+01 -2.172772886914e+00 0.0 
-2.172772886914e+00 -1.113112161429e+02 0.0 
0.0 0.0 -4.490313734925e+01 
-1.536590099084e+02 1.613054513525e+01 0.0 
1.613054513525e+01 -3.598710231195e+02 0.0 
0.0 0.0 -1.536590099084e+02 
-1.434833803777e+02 1.496546746718e+01 0.0 
1.496546746718e+01 -3.464159675879e+02 0.0 
0.0 0.0 -1.465698043897e+02 
-6.521456275348e+01 1.435408883299e+01 0.0 
1.435408883299e+01 -1.699001692832e+02 0.0 
0.0 0.0 -7.013441961101e+01 
-1.542685424555e+01 -1.558794449299e+00 0.0 
-1.558794449299e+00 -2.541367475681e+01 0.0 
0.0 0.0 -1.222994222240e+01 
-1.559704351964e+02 1.201541143073e+01 0.0 
1.201541143073e+01 -3.710164415394e+02 0.0 
0.0 0.0 -1.576960630207e+02 
-1.139814502047e+02 1.058010925484e+01 0.0 
1.058010925484e+01 -2.475676580276e+02 0.0 
0.0 0.0 -1.080647324697e+02 
-4.224752534388e+01 -7.916837075986e-01 0.0 
-7.916837075986e-01 -1.234188562010e+02 0.0 
0.0 0.0 -4.929991446348e+01 
-1.575039726972e+02 1.314537977119e+01 0.0 
1.314537977119e+01 -3.688426029600e+02 0.0 
0.0 0.0 -1.575039726972e+02 
-1.005041774404e+02 5.754340572595e+00 0.0 
5.754340572595e+00 -2.628385180178e+02 0.0 
0.0 0.0 -1.086028086375e+02 
-5.301938292479e+01 1.423730171765e+01 0.0 
1.423730171765e+01 -1.034290362201e+02 0.0 
0.0 0.0 -4.653452574347e+01 
-7.576955498758e+01 4.963053503530e+00 0.0 
4.963053503530e+00 -1.466521932812e+02 0.0 
0.0 0.0 -6.632652448063e+01 
-7.703683557048e+01 1.224856003079e+01 0.0 
1.224856003079e+01 -2.064410718435e+02 0.0 
0.0 0.0 -8.464337222420e+01 
-8.356601156913e+01 4.014536257507e+00 0.0 
4.014536257507e+00 -2.253596862702e+02 0.0 
0.0 0.0 -9.227770935181e+01 
-9.461409353282e+01 9.374341246542e+00 0.0 
9.374341246542e+00 -2.500720769904e+02 0.0 
0.0 0.0 -1.030058511570e+02 
-9.270912053790e+01 7.798490509465e+00 0.0 
7.798490509465e+00 -1.871148611959e+02 0.0 
0.0 0.0 -8.354719452014e+01 
-6.149472820091e+01 1.105618653630e+01 0.0 
1.105618653630e+01 -1.157173143407e+02 0.0 
0.0 0.0 -5.276361276249e+01 
-1.067568609908e+02 1.374126528853e+01 0.0 
1.374126528853e+01 -2.678073472830e+02 0.0 
0.0 0.0 -1.119692624821e+02 
-7.378514721409e+01 4.573144789776e-01 0.0 
4.573144789776e-01 -1.565905366194e+02 0.0 
0.0 0.0 -6.871270515004e+01 
-6.850050568463e+01 7.709135471779e-01 0.0 
7.709135471779e-01 -1.853580683228e+02 0.0 
0.0 0.0 -7.575757220224e+01 
-9.775128627688e+01 1.162780583645e+01 0.0 
1.162780583645e+01 -2.538542620496e+02 0.0 
0.0 0.0 -1.050816644980e+02 
-5.050432748543e+01 6.046942148053e-01 0.0 
6.046942148053e-01 -1.429278795642e+02 0.0 
0.0 0.0 -5.762966211490e+01 
-9.963574960220e+01 1.280623639821e+00 0.0 
1.280623639821e+00 -2.591835921184e+02 0.0 
0.0 0.0 -1.072458025162e+02 
-1.308654235916e+01 -6.094160412038e-01 0.0 
-6.094160412038e-01 -8.029625199728e+00 0.0 
0.0 0.0 -5.934850267665e+00 
-3.865800546750e+01 1.544226664110e+01 0.0 
1.544226664110e+01 -1.026230774757e+02 0.0 
0.0 0.0 -4.198432488295e+01 
-4.698641474932e+01 7.748118837216e-01 0.0 
7.748118837216e-01 -1.341024636662e+02 0.0 
0.0 0.0 -5.392666352466e+01 
-7.493594242440e+01 -3.167943754700e-01 0.0 
-3.167943754700e-01 -2.020577562116e+02 0.0 
0.0 0.0 -8.269810959080e+01 
-6.981043384615e+01 1.512330755924e+01 0.0 
1.512330755924e+01 -1.751136599611e+02 0.0 
0.0 0.0 -7.307722814218e+01 
-9.899209861349e+01 4.598041441618e+00 0.0 
4.598041441618e+00 -2.619532340584e+02 0.0 
0.0 0.0 -1.078835998016e+02 
-7.790212914242e+01 2.666585455978e+00 0.0 
2.666585455978e+00 -1.592255729342e+02 0.0 
0.0 0.0 -7.073831062298e+01 
-4.415166064531e+01 -1.642852345504e-01 0.0 
-1.642852345504e-01 -1.243651600075e+02 0.0 
0.0 0.0 -5.015504619584e+01 
-1.585652064505e+02 1.207581123281e+01 0.0 
1.207581123281e+01 -3.713188150512e+02 0.0 
0.0 0.0 -1.585652064505e+02 
-8.543901450440e+01 1.530162861400e+01 0.0 
1.530162861400e+01 -1.774459448256e+02 0.0 
0.0 0.0 -7.846548779901e+01 
-7.889957778101e+01 -2.692420742788e-01 0.0 
-2.692420742788e-01 -2.107186756524e+02 0.0 
0.0 0.0 -8.648547603001e+01 
-8.102409399518e+01 1.616667043203e+01 0.0 
1.616667043203e+01 -1.704452979127e+02 0.0 
0.0 0.0 -7.504081757236e+01 
-7.614594717945e+01 1.000253827410e+00 0.0 
1.000253827410e+00 -2.028515631288e+02 0.0 
0.0 0.0 -8.329925309248e+01 
-1.127943473783e+01 -6.526461612470e-01 0.0 
-6.526461612470e-01 -8.943655161745e+00 0.0 
0.0 0.0 -6.641172949121e+00 
-8.128533115893e+01 7.044537250692e+00 0.0 
7.044537250692e+00 -1.574896607829e+02 0.0 
0.0 0.0 -7.123249758256e+01 
-6.332245443363e+01 -1.049582788780e+00 0.0 
-1.049582788780e+00 -1.689699094538e+02 0.0 
0.0 0.0 -6.928770916622e+01 
-5.929413527192e+00 -4.141210822767e-01 0.0 
-4.141210822767e-01 -8.760285280773e+00 0.0 
0.0 0.0 -4.961584431036e+00 
-7.483828942632e+01 -6.735407162648e-01 0.0 
-6.735407162648e-01 -1.999936171667e+02 0.0 
0.0 0.0 -8.204957197792e+01 
-1.080490917936e+02 5.388973253685e+00 0.0 
5.388973253685e+00 -2.807394392903e+02 0.0 
0.0 0.0 -1.162365593252e+02 
-1.033790277624e+02 1.239653694621e+00 0.0 
1.239653694621e+00 -2.320595560434e+02 0.0 
0.0 0.0 -1.002315751417e+02 
-8.608953225778e+01 8.550522835867e+00 0.0 
8.550522835867e+00 -2.318092758919e+02 0.0 
0.0 0.0 -9.496964244491e+01 
-8.917816836300e+01 7.097548455000e+00 0.0 
7.097548455000e+00 -2.410956616062e+02 0.0 
0.0 0.0 -9.868214899076e+01 
-6.511721342600e+01 4.755822768609e+00 0.0 
4.755822768609e+00 -1.189479592788e+02 0.0 
0.0 0.0 -5.481955181143e+01 
-5.613439117589e+01 8.011973875512e-01 0.0 
8.011973875512e-01 -1.066508288982e+02 0.0 
0.0 0.0 -4.843556602224e+01 
-1.209617650488e+02 8.553337221489e+00 0.0 
8.553337221489e+00 -2.767983599762e+02 0.0 
0.0 0.0 -1.189280375075e+02 
-7.643124867745e+01 1.695089020452e+01 0.0 
1.695089020452e+01 -1.639874863549e+02 0.0 
0.0 0.0 -7.172562050971e+01 
-4.783130940325e+00 -3.005733119487e-01 0.0 
-3.005733119487e-01 -7.331346793694e+00 0.0 
0.0 0.0 -3.234343320206e+00 
-2.696673646350e+01 -1.461337467712e+00 0.0 
-1.461337467712e+00 -6.908596747806e+01 0.0 
0.0 0.0 -2.841581118247e+01 
-1.488877263854e+01 -1.543297016717e+00 0.0 
-1.543297016717e+00 -2.516652983066e+01 0.0 
0.0 0.0 -1.201010399816e+01 
-4.405757342165e+01 -1.214982506151e+00 0.0 
-1.214982506151e+00 -1.199068812522e+02 0.0 
0.0 0.0 -4.878933640216e+01 
-1.157464373552e+02 1.676085107236e+01 0.0 
1.676085107236e+01 -2.572957682810e+02 0.0 
0.0 0.0 -1.115126616909e+02 
-1.042622372065e+02 2.941770784985e+00 0.0 
2.941770784985e+00 -2.327269867941e+02 0.0 
0.0 0.0 -1.006967672002e+02 
-1.224114456910e+02 4.355164993318e+00 0.0 
4.355164993318e+00 -3.084074431341e+02 0.0 
0.0 0.0 -1.288456666475e+02 
-5.016068040518e+01 -6.790507180132e-01 0.0 
-6.790507180132e-01 -1.359430094149e+02 0.0 
0.0 0.0 -5.543110694603e+01 
-1.006879030032e+02 2.612889573791e+00 0.0 
2.612889573791e+00 -2.599362039448e+02 0.0 
0.0 0.0 -1.077872320844e+02 
-1.269162032705e+02 8.564416698016e+00 0.0 
8.564416698016e+00 -3.176298759433e+02 0.0 
0.0 0.0 -1.329638237641e+02 
-2.619864057553e+01 2.471806009336e+00 0.0 
2.471806009336e+00 -7.007853385758e+01 0.0 
0.0 0.0 -2.848315232993e+01 
-6.366145669325e+01 6.235690949844e-01 0.0 
6.235690949844e-01 -1.691581643498e+02 0.0 
0.0 0.0 -6.944588631293e+01 
-5.224551580327e+01 -9.610547478122e-01 0.0 
-9.610547478122e-01 -1.393562352334e+02 0.0 
0.0 0.0 -5.708052531101e+01 
-1.565392452716e+02 1.080762810296e+01 0.0 
1.080762810296e+01 -3.726329280648e+02 0.0 
0.0 0.0 -1.583516520009e+02 
-1.594145751110e+02 1.102558486433e+01 0.0 
1.102558486433e+01 -3.733006752591e+02 0.0 
0.0 0.0 -1.594145751110e+02 
-7.086915273870e+01 5.142375220486e-01 0.0 
5.142375220486e-01 -1.877034360258e+02 0.0 
0.0 0.0 -7.717177662934e+01 
-8.005552525625e+01 1.091184690624e+00 0.0 
1.091184690624e+00 -2.115059363273e+02 0.0 
0.0 0.0 -8.706843847507e+01 
-8.630186409176e+01 2.733933171756e+00 0.0 
2.733933171756e+00 -2.336493913282e+02 0.0 
0.0 0.0 -9.558537662599e+01 
-1.315679961439e+02 9.975123727705e+00 0.0 
9.975123727705e+00 -3.261216574973e+02 0.0 
0.0 0.0 -1.369068960923e+02 
-2.895306441520e+01 -2.600204891770e+00 0.0 
-2.600204891770e+00 -7.651463510135e+01 0.0 
0.0 0.0 -3.124030985497e+01 
-1.221312904216e+02 7.316168773141e+00 0.0 
7.316168773141e+00 -3.086952469154e+02 0.0 
0.0 0.0 -1.288479612011e+02 
-1.740334809964e+01 -1.055536780870e+00 0.0 
-1.055536780870e+00 -4.299658301802e+01 0.0 
0.0 0.0 -1.771997933530e+01 
-7.204933471860e+01 6.344731804351e-01 0.0 
6.344731804351e-01 -1.921693814268e+02 0.0 
0.0 0.0 -7.886561484360e+01 
-8.016744115222e+01 1.499769227431e+00 0.0 
1.499769227431e+00 -2.133491266941e+02 0.0 
0.0 0.0 -8.765497035390e+01 
-1.019251639663e+01 -5.652949441239e-01 0.0 
-5.652949441239e-01 -2.554972715872e+01 0.0 
0.0 0.0 -1.070326823638e+01 
-6.737955884691e+01 -8.544803493894e-01 0.0 
-8.544803493894e-01 -1.783423832759e+02 0.0 
0.0 0.0 -7.331658263685e+01 
-1.111293324685e+02 7.237594390072e+00 0.0 
7.237594390072e+00 -2.457199104675e+02 0.0 
0.0 0.0 -1.066547728808e+02 
-4.065027953693e+00 -2.755748743015e-01 0.0 
-2.755748743015e-01 -7.806436380859e+00 0.0 
0.0 0.0 -3.161439300366e+00 
-5.721816542204e+01 1.064488580044e+00 0.0 
1.064488580044e+00 -1.071181117748e+02 0.0 
0.0 0.0 -4.890088315904e+01 
-5.739125726755e+01 1.461068586935e+00 0.0 
1.461068586935e+00 -1.078170380439e+02 0.0 
0.0 0.0 -4.916248859343e+01 
-9.882424175542e+01 1.074776323463e+01 0.0 
1.074776323463e+01 -2.579509305409e+02 0.0 
0.0 0.0 -1.066325516889e+02 
-5.231358490681e+01 5.454926404714e-01 0.0 
5.454926404714e-01 -1.393060236331e+02 0.0 
0.0 0.0 -5.708588256198e+01 
-4.570919016267e+01 -9.683355617434e-01 0.0 
-9.683355617434e-01 -1.321545089696e+02 0.0 
0.0 0.0 -5.295910973967e+01 
-2.562064686924e+01 1.200605001565e+01 0.0 
1.200605001565e+01 -6.511966800349e+01 0.0 
0.0 0.0 -2.682209446182e+01 
-1.368494305020e+02 4.575281817066e+00 0.0 
4.575281817066e+00 -3.357552666481e+02 0.0 
0.0 0.0 -1.413814091450e+02 
-1.326576012274e+02 1.825251743217e+01 0.0 
1.825251743217e+01 -3.087284035553e+02 0.0 
0.0 0.0 -1.320158014348e+02 
-1.007204296090e+02 3.891641123987e+00 0.0 
3.891641123987e+00 -2.201974465947e+02 0.0 
0.0 0.0 -9.587536286113e+01 
-3.201061588468e+01 1.715346590126e+01 0.0 
1.715346590126e+01 -7.292250310302e+01 0.0 
0.0 0.0 -3.107993569631e+01 
-1.973193626368e+01 -2.644443512467e+00 0.0 
-2.644443512467e+00 -4.769516052823e+01 0.0 
0.0 0.0 -1.982812903757e+01 
-6.262805088976e+01 1.103566602546e+01 0.0 
1.103566602546e+01 -1.119910015609e+02 0.0 
0.0 0.0 -5.198571573519e+01 
-5.513209709620e+01 2.634507626699e-01 0.0 
2.634507626699e-01 -1.071599776819e+02 0.0 
0.0 0.0 -4.828762243342e+01 
-5.431716460334e+01 3.507273293983e-01 0.0 
3.507273293983e-01 -1.069092922979e+02 0.0 
0.0 0.0 -4.796793707036e+01 
-5.381567062113e+00 -3.509653359763e-01 0.0 
-3.509653359763e-01 -8.983204966769e+00 0.0 
0.0 0.0 -4.878319059304e+00 
-1.044727565495e+01 -6.763723899952e-01 0.0 
-6.763723899952e-01 -2.540060128234e+01 0.0 
0.0 0.0 -1.077569245115e+01 
-1.546957514166e+01 -2.211533632744e-01 0.0 
-2.211533632744e-01 -4.207963684224e+01 0.0 
0.0 0.0 -1.686476359517e+01 
-3.852584074941e+01 -2.377158679778e+00 0.0 
-2.377158679778e+00 -1.046626539285e+02 0.0 
0.0 0.0 -4.255654840337e+01 
-1.029889744658e+01 -4.335691891185e-01 0.0 
-4.335691891185e-01 -2.587455992654e+01 0.0 
0.0 0.0 -1.045203721194e+01 
-7.476180922119e+01 -7.438701833726e-01 0.0 
-7.438701833726e-01 -1.979171593203e+02 0.0 
0.0 0.0 -8.140369056244e+01 
-1.419139750787e+01 -6.139584949886e-01 0.0 
-6.139584949886e-01 -8.856880005220e+00 0.0 
0.0 0.0 -7.482818619078e+00 
-4.537001595928e+01 -2.144311894889e+00 0.0 
-2.144311894889e+00 -1.242413920664e+02 0.0 
0.0 0.0 -5.048342240771e+01 
-8.050028379538e+01 2.868915332327e-01 0.0 
2.868915332327e-01 -1.736071878266e+02 0.0 
0.0 0.0 -7.583224148661e+01 
-5.574464936568e+01 6.504483460984e-01 0.0 
6.504483460984e-01 -1.069174668448e+02 0.0 
0.0 0.0 -4.839863486315e+01 
-1.193446327044e+02 1.647197114508e+01 0.0 
1.647197114508e+01 -2.645851081938e+02 0.0 
0.0 0.0 -1.147789222694e+02 
-1.036885768016e+02 4.285767514752e+00 0.0 
4.285767514752e+00 -2.713048922322e+02 0.0 
0.0 0.0 -1.120980407102e+02 
-7.314822737283e+01 1.092100112355e-02 0.0 
1.092100112355e-02 -1.559104419685e+02 0.0 
0.0 0.0 -6.831760080240e+01 
-5.580435314307e+01 -7.908698026437e-01 0.0 
-7.908698026437e-01 -1.487734236285e+02 0.0 
0.0 0.0 -6.097333303148e+01 
-1.682172875136e+01 -4.894902490932e-01 0.0 
-4.894902490932e-01 -4.274772483947e+01 0.0 
0.0 0.0 -1.747083607725e+01 
-1.231847364987e+02 4.369941906746e+00 0.0 
4.369941906746e+00 -2.887643851637e+02 0.0 
0.0 0.0 -1.231847364987e+02 
-1.252279328891e+02 4.762121196239e+00 0.0 
4.762121196239e+00 -2.897330583843e+02 0.0 
0.0 0.0 -1.240882973820e+02 
-7.195172492885e+01 6.128470872139e-01 0.0 
6.128470872139e-01 -1.462758888502e+02 0.0 
0.0 0.0 -6.506828413373e+01 
-5.516382580103e+01 3.874540934212e-01 0.0 
3.874540934212e-01 -1.067121476231e+02 0.0 
0.0 0.0 -4.816279202725e+01 
-5.674681209564e+01 9.336557272159e-02 0.0 
9.336557272159e-02 -1.508353895872e+02 0.0 
0.0 0.0 -6.187466050486e+01 
-1.247929159004e+02 3.409151323626e+00 0.0 
3.409151323626e+00 -2.890901099979e+02 0.0 
0.0 0.0 -1.237649077695e+02 
-4.314146257492e+01 -1.047541827879e+00 0.0 
-1.047541827879e+00 -1.163747163949e+02 0.0 
0.0 0.0 -4.745485369095e+01 
-5.645491532370e+01 1.026303300970e+00 0.0 
1.026303300970e+00 -1.071157308614e+02 0.0 
0.0 0.0 -4.867119385552e+01 
-5.602958645563e+01 5.199695670235e-01 0.0 
5.199695670235e-01 -1.066817143773e+02 0.0 
0.0 0.0 -4.841339024987e+01 
-5.610458283499e+01 5.363669908553e+00 0.0 
5.363669908553e+00 -9.896242430603e+01 0.0 
0.0 0.0 -4.612010214231e+01 
-1.255334580097e+02 9.639927995055e+00 0.0 
9.639927995055e+00 -2.942447353560e+02 0.0 
0.0 0.0 -1.255334580097e+02 
-1.257456322643e+02 3.947719913557e+00 0.0 
3.947719913557e+00 -2.898628898121e+02 0.0 
0.0 0.0 -1.242825566229e+02 
-1.063985495303e+01 -5.868278002478e-01 0.0 
-5.868278002478e-01 -2.567122066220e+01 0.0 
0.0 0.0 -1.049332268457e+01 
-5.081547218142e+00 -2.476328329164e-01 0.0 
-2.476328329164e-01 -9.093257950701e+00 0.0 
0.0 0.0 -4.829696357950e+00 
-2.269690828312e+01 -2.415994569587e+00 0.0 
-2.415994569587e+00 -5.725705050131e+01 0.0 
0.0 0.0 -2.358618763533e+01 
-7.884956332749e+01 2.037513823960e-01 0.0 
2.037513823960e-01 -2.125141940420e+02 0.0 
0.0 0.0 -8.700912721085e+01 
-1.461309419837e+02 -2.785927447512e-01 0.0 
-2.785927447512e-01 -3.520222536394e+02 0.0 
0.0 0.0 -1.490459586869e+02 
-1.769733331635e+01 -4.149338198155e-01 0.0 
-4.149338198155e-01 -7.170102874693e+00 0.0 
0.0 0.0 -7.060230857312e+00 
-9.704590492883e+01 1.190714623924e+00 0.0 
1.190714623924e+00 -2.162160966357e+02 0.0 
0.0 0.0 -9.357860046937e+01 
-1.333450310628e+01 -6.901853962645e-01 0.0 
-6.901853962645e-01 -9.010686114323e+00 0.0 
0.0 0.0 -7.284506806917e+00 
-9.790423077161e+01 7.840347665674e+00 0.0 
7.840347665674e+00 -2.594908105627e+02 0.0 
0.0 0.0 -1.068185124003e+02 
-1.466207440809e+01 -7.109780675616e-01 0.0 
-7.109780675616e-01 -8.222850278477e+00 0.0 
0.0 0.0 -6.465477405971e+00 
-1.619919805549e+01 -6.290736225431e-01 0.0 
-6.290736225431e-01 -8.138201393360e+00 0.0 
0.0 0.0 -6.901219834655e+00 
-9.364644913177e+01 6.545664905717e+00 0.0 
6.545664905717e+00 -2.509858743925e+02 0.0 
0.0 0.0 -1.029896970573e+02 
-1.407828570051e+02 1.532908461512e+00 0.0 
1.532908461512e+00 -3.419767868976e+02 0.0 
0.0 0.0 -1.444278931708e+02 
-8.031460203641e+01 8.116329448503e-01 0.0 
8.116329448503e-01 -1.724386835972e+02 0.0 
0.0 0.0 -7.542598569010e+01 
-6.647320731534e+01 1.310237297132e+01 0.0 
1.310237297132e+01 -1.241895985306e+02 0.0 
0.0 0.0 -5.679884175378e+01 
-9.919152372740e+00 -3.201439569225e-01 0.0 
-3.201439569225e-01 -2.554136206892e+01 0.0 
0.0 0.0 -1.062064845699e+01 
-1.048331845190e+02 2.492602046956e+00 0.0 
2.492602046956e+00 -2.685310125178e+02 0.0 
0.0 0.0 -1.116092591110e+02 
-1.224137594519e+02 1.415558209265e+00 0.0 
1.415558209265e+00 -2.869654387212e+02 0.0 
0.0 0.0 -1.224137594519e+02 
-1.242700986877e+02 2.132743562878e+00 0.0 
2.132743562878e+00 -2.884084336000e+02 0.0 
0.0 0.0 -1.234035596863e+02 
-5.516672530985e+01 4.207583598086e-01 0.0 
4.207583598086e-01 -1.067765967466e+02 0.0 
0.0 0.0 -4.818299661693e+01 
-1.022833709116e+02 9.139044093997e+00 0.0 
9.139044093997e+00 -2.677229529851e+02 0.0 
0.0 0.0 -1.106018971690e+02 
-1.231857977676e+02 3.498366515210e+00 0.0 
3.498366515210e+00 -2.887668614576e+02 0.0 
0.0 0.0 -1.231857977676e+02 
-1.070521310863e+02 1.728909493568e+01 0.0 
1.728909493568e+01 -2.554509698687e+02 0.0 
0.0 0.0 -1.083509302865e+02 
-1.607942452229e+01 -5.052702678846e-01 0.0 
-5.052702678846e-01 -4.158882417249e+01 0.0 
0.0 0.0 -1.690047460844e+01 
-9.982247906933e+00 -2.828904532088e-01 0.0 
-2.828904532088e-01 -2.565832356481e+01 0.0 
0.0 0.0 -1.029217144152e+01 
-9.502444105445e+00 -9.272071261621e-02 0.0 
-9.272071261621e-02 -2.513167237969e+01 0.0 
0.0 0.0 -1.023150245957e+01 
-6.346732927567e+01 -7.522641388616e-01 0.0 
-7.522641388616e-01 -1.684922474736e+02 0.0 
0.0 0.0 -6.918787302478e+01 
-1.609940619260e+02 2.888180662800e+00 0.0 
2.888180662800e+00 -3.812142057710e+02 0.0 
0.0 0.0 -1.622624803091e+02 
-1.159894913140e+02 1.020387044855e+00 0.0 
1.020387044855e+00 -2.666168670449e+02 0.0 
0.0 0.0 -1.143819075077e+02 
-4.300795087756e+00 -5.499119169089e-02 0.0 
-5.499119169089e-02 -9.067080384762e+00 0.0 
0.0 0.0 -4.579040753426e+00 
-7.513315111317e+01 6.762119214965e-01 0.0 
6.762119214965e-01 -1.980792314887e+02 0.0 
0.0 0.0 -8.156371478055e+01 
-1.637555076589e+02 1.927335774383e+00 0.0 
1.927335774383e+00 -3.834295178707e+02 0.0 
0.0 0.0 -1.637555076589e+02 
-1.602736115287e+02 2.981583224269e+00 0.0 
2.981583224269e+00 -3.803725696842e+02 0.0 
0.0 0.0 -1.617938543639e+02 
-1.572166851822e+02 9.803791552875e+00 0.0 
9.803791552875e+00 -3.740524892280e+02 0.0 
0.0 0.0 -1.589807523230e+02 
-8.932479988352e+01 -6.664622211593e-01 0.0 
-6.664622211593e-01 -1.965876103806e+02 0.0 
0.0 0.0 -8.537372307924e+01 
-1.010703650181e+02 9.188497108156e-01 0.0 
9.188497108156e-01 -2.265139198859e+02 0.0 
0.0 0.0 -9.787528547118e+01 
-1.628548789263e+02 2.656199497378e+00 0.0 
2.656199497378e+00 -3.813280508280e+02 0.0 
0.0 0.0 -1.628548789263e+02 
-1.630166052089e+02 3.515781673215e+00 0.0 
3.515781673215e+00 -3.817054121542e+02 0.0 
0.0 0.0 -1.630166052089e+02 
-9.714648550792e+01 -4.493858839139e-01 0.0 
-4.493858839139e-01 -2.163418293388e+02 0.0 
0.0 0.0 -9.364649445402e+01 
-2.737972463370e+00 -3.390334576173e-01 0.0 
-3.390334576173e-01 -6.798482403245e+00 0.0 
0.0 0.0 -2.460936459984e+00 
-5.346140325465e+01 9.452257406998e-02 0.0 
9.452257406998e-02 -1.060610546485e+02 0.0 
0.0 0.0 -4.745673737094e+01 
-5.473832802977e+01 1.919819657097e-01 0.0 
1.919819657097e-01 -1.069788336633e+02 0.0 
0.0 0.0 -4.811514850792e+01 
-4.669925803675e+00 -1.487839182380e-01 0.0 
-1.487839182380e-01 -9.064294371799e+00 0.0 
0.0 0.0 -4.696417794994e+00 
-1.624515999873e+02 6.027904942149e+00 0.0 
6.027904942149e+00 -3.803870666371e+02 0.0 
0.0 0.0 -1.624515999873e+02 
-1.574084197417e+02 8.601446108387e+00 0.0 
8.601446108387e+00 -3.750222600154e+02 0.0 
0.0 0.0 -1.593292039271e+02 
-1.609358739872e+02 7.871868704723e+00 0.0 
7.871868704723e+00 -3.768503726368e+02 0.0 
0.0 0.0 -1.609358739872e+02 
-3.102806351707e+00 -1.005446647070e-01 0.0 
-1.005446647070e-01 -7.934342202964e+00 0.0 
0.0 0.0 -2.911144566401e+00 
-3.479847412155e+00 -2.437667672661e-01 0.0 
-2.437667672661e-01 -8.038133431992e+00 0.0 
0.0 0.0 -3.055394253244e+00 
-1.599949946063e+02 9.956453024788e+00 0.0 
9.956453024788e+00 -3.746549874147e+02 0.0 
0.0 0.0 -1.599949946063e+02 
-1.605879234785e+02 8.978679122229e+00 0.0 
8.978679122229e+00 -3.760384881164e+02 0.0 
0.0 0.0 -1.605879234785e+02 
-8.523804025932e+01 9.581248477439e-01 0.0 
9.581248477439e-01 -1.866232913893e+02 0.0 
0.0 0.0 -8.115839949460e+01 
-5.270306816330e+01 -1.188277500440e-01 0.0 
-1.188277500440e-01 -1.057271201530e+02 0.0 
0.0 0.0 -4.712905649489e+01 
-9.341162665400e+01 9.538603074685e-01 0.0 
9.538603074685e-01 -2.065510763622e+02 0.0 
0.0 0.0 -8.958881090486e+01 
-6.934971076889e+01 9.050488717408e-01 0.0 
9.050488717408e-01 -1.471093001601e+02 0.0 
0.0 0.0 -6.453770327869e+01 
-5.275464809740e+01 -6.362691576713e-02 0.0 
-6.362691576713e-02 -1.058573189177e+02 0.0 
0.0 0.0 -4.718359010453e+01 
-5.749405509428e+00 -4.778685201903e-01 0.0 
-4.778685201903e-01 -7.626448712041e+00 0.0 
0.0 0.0 -3.612756266440e+00 
-7.957343434759e+00 -3.021113029663e-01 0.0 
-3.021113029663e-01 -8.304514950371e+00 0.0 
0.0 0.0 -4.478557515539e+00 
-8.961987924463e+00 -4.539478905559e-01 0.0 
-4.539478905559e-01 -7.889085733970e+00 0.0 
0.0 0.0 -4.655322097530e+00 
-1.022864735836e+01 -5.187339305577e-01 0.0 
-5.187339305577e-01 -8.015825406661e+00 0.0 
0.0 0.0 -5.073341829507e+00 
-7.909693209588e+01 -8.856166129684e-01 0.0 
-8.856166129684e-01 -2.080971877737e+02 0.0 
0.0 0.0 -8.575823596088e+01 
-7.122015335928e+01 -7.752144265173e-01 0.0 
-7.752144265173e-01 -1.882164512439e+02 0.0 
0.0 0.0 -7.743098138096e+01 
-8.190861076596e+00 -4.914767072039e-01 0.0 
-4.914767072039e-01 -8.991683606302e+00 0.0 
0.0 0.0 -5.731790875805e+00 
-1.041237224968e+02 -8.009972384168e-01 0.0 
-8.009972384168e-01 -2.657566053905e+02 0.0 
0.0 0.0 -1.105640983662e+02 
-9.375843940833e+00 -5.961327279778e-01 0.0 
-5.961327279778e-01 -8.960520866287e+00 0.0 
0.0 0.0 -6.072748614909e+00 
-1.242442173895e+02 7.531704814587e+00 0.0 
7.531704814587e+00 -2.912365072423e+02 0.0 
0.0 0.0 -1.242442173895e+02 
-1.228080077787e+02 2.898123655760e+00 0.0 
2.898123655760e+00 -2.878853514837e+02 0.0 
0.0 0.0 -1.228080077787e+02 
-1.232859190409e+02 5.068517689421e+00 0.0 
5.068517689421e+00 -2.890004777622e+02 0.0 
0.0 0.0 -1.232859190409e+02 
-2.612063633898e+01 -9.555707627352e-01 0.0 
-9.555707627352e-01 -6.895162338996e+01 0.0 
0.0 0.0 -2.812167791868e+01 
-4.840261110025e+01 -8.121735252758e-01 0.0 
-8.121735252758e-01 -1.289505009759e+02 0.0 
0.0 0.0 -5.280593362286e+01 
-1.224961734444e+02 2.346782199034e+00 0.0 
2.346782199034e+00 -2.871577380370e+02 0.0 
0.0 0.0 -1.224961734444e+02 
-1.318242407520e+02 -6.668635147301e-01 0.0 
-6.668635147301e-01 -3.239321995615e+02 0.0 
0.0 0.0 -1.363269320941e+02 
-1.233401093328e+02 1.917589579093e+00 0.0 
1.917589579093e+00 -2.891269217765e+02 0.0 
0.0 0.0 -1.233401093328e+02 
-1.414978147764e+02 -7.103328853522e-01 0.0 
-7.103328853522e-01 -3.431054215849e+02 0.0 
0.0 0.0 -1.449809709084e+02 
-1.514872087492e+02 -7.852141116564e-01 0.0 
-7.852141116564e-01 -3.621901065585e+02 0.0 
0.0 0.0 -1.537031945923e+02 
-6.733140503905e+01 6.875845336384e-01 0.0 
6.875845336384e-01 -1.783225659438e+02 0.0 
0.0 0.0 -7.329619129484e+01 
-1.243453095247e+02 2.793197903514e+00 0.0 
2.793197903514e+00 -2.882338235797e+02 0.0 
0.0 0.0 -1.233737399313e+02 
-1.241388576840e+02 1.688703309957e+00 0.0 
1.688703309957e+00 -2.884704401394e+02 0.0 
0.0 0.0 -1.233827893470e+02 
-1.363282359236e+02 1.266832266154e+00 0.0 
1.266832266154e+00 -3.325881867424e+02 0.0 
0.0 0.0 -1.402749267998e+02 
-1.463379754876e+02 1.330560507601e+00 0.0 
1.330560507601e+00 -3.522410115842e+02 0.0 
0.0 0.0 -1.491736961215e+02 
-1.131648616069e+02 2.088236472823e+00 0.0 
2.088236472823e+00 -2.856165765079e+02 0.0 
0.0 0.0 -1.192344314344e+02 
-1.232017328193e+01 -7.063086609990e-01 0.0 
-7.063086609990e-01 -8.918687792910e+00 0.0 
0.0 0.0 -6.948134505331e+00 
-6.781809396021e+01 4.103020028741e-01 0.0 
4.103020028741e-01 -1.813229992000e+02 0.0 
0.0 0.0 -7.434232794805e+01 
-1.094921238169e+01 -5.755332860681e-01 0.0 
-5.755332860681e-01 -2.538557798118e+01 0.0 
0.0 0.0 -1.050043710886e+01 
-1.375771695135e+02 5.845893305712e+00 0.0 
5.845893305712e+00 -3.362494929686e+02 0.0 
0.0 0.0 -1.417479987446e+02 
-7.101663050838e+01 -7.258448969155e-01 0.0 
-7.258448969155e-01 -1.914366568406e+02 0.0 
0.0 0.0 -7.833598620470e+01 
-1.267146123731e+02 1.665454924794e+00 0.0 
1.665454924794e+00 -3.145754114361e+02 0.0 
0.0 0.0 -1.319870071427e+02 
-3.625278081143e+01 -1.280369855132e+00 0.0 
-1.280369855132e+00 -9.675032886713e+01 0.0 
0.0 0.0 -3.950093290357e+01 
-1.676404344089e+01 -1.524934130272e+00 0.0 
-1.524934130272e+00 -4.152634605880e+01 0.0 
0.0 0.0 -1.708711684991e+01 
-1.366235578230e+02 3.335064970476e+00 0.0 
3.335064970476e+00 -3.337842098779e+02 0.0 
0.0 0.0 -1.407223303103e+02 
-7.597592837590e+01 7.722940693488e-01 0.0 
7.722940693488e-01 -2.008077389366e+02 0.0 
0.0 0.0 -8.263510019375e+01 
-5.933464010772e+01 -9.366389395217e-01 0.0 
-9.366389395217e-01 -1.587003535148e+02 0.0 
0.0 0.0 -6.501049808677e+01 
-1.272350215653e+02 3.026403739570e+00 0.0 
3.026403739570e+00 -3.151052283640e+02 0.0 
0.0 0.0 -1.323020749788e+02 
-1.076210241945e+02 2.062787146051e-01 0.0 
2.062787146051e-01 -2.443212741267e+02 0.0 
0.0 0.0 -1.051826894964e+02 
-5.972011034505e+01 6.369967468398e-01 0.0 
6.369967468398e-01 -1.588229903711e+02 0.0 
0.0 0.0 -6.516293021483e+01 
-1.138806189599e+02 7.781507963481e+00 0.0 
7.781507963481e+00 -2.907319574298e+02 0.0 
0.0 0.0 -1.209837729169e+02 
-9.960266769451e+01 2.169799691556e+00 0.0 
2.169799691556e+00 -2.606645486683e+02 0.0 
0.0 0.0 -1.076801649088e+02 
-1.125546898076e+02 6.982781445603e-01 0.0 
6.982781445603e-01 -2.850511439655e+02 0.0 
0.0 0.0 -1.188817501319e+02 
-1.168898035801e+02 4.895115234709e-01 0.0 
4.895115234709e-01 -2.938317288261e+02 0.0 
0.0 0.0 -1.228164597219e+02 
-4.914565553590e+01 8.393604197135e+00 0.0 
8.393604197135e+00 -1.461759283684e+02 0.0 
0.0 0.0 -5.819647517129e+01 
-5.847518260547e+01 1.244631280011e+01 0.0 
1.244631280011e+01 -1.037960298157e+02 0.0 
0.0 0.0 -4.828136372634e+01 
-6.568063752710e+01 1.707410959614e+01 0.0 
1.707410959614e+01 -1.618174758333e+02 0.0 
0.0 0.0 -6.784943400812e+01 
-1.039377963323e+02 1.121791378681e+00 0.0 
1.121791378681e+00 -2.678490687719e+02 0.0 
0.0 0.0 -1.111360595313e+02 
-1.316022621891e+02 2.698124016179e+00 0.0 
2.698124016179e+00 -3.237370635698e+02 0.0 
0.0 0.0 -1.362017977277e+02 
-1.212671727988e+02 1.418785707334e-01 0.0 
1.418785707334e-01 -3.027149217068e+02 0.0 
0.0 0.0 -1.267946283517e+02 
-3.633181227241e+01 -2.553826298282e+00 0.0 
-2.553826298282e+00 -1.000367713692e+02 0.0 
0.0 0.0 -4.051057509249e+01 
-1.076228312953e+02 8.894794540774e-01 0.0 
8.894794540774e-01 -2.432424426397e+02 0.0 
0.0 0.0 -1.048595821805e+02 
-9.979441877462e+01 6.682416348760e-01 0.0 
6.682416348760e-01 -2.230241473265e+02 0.0 
0.0 0.0 -9.644556983033e+01 
-6.403679468146e+01 -5.773449014115e-01 0.0 
-5.773449014115e-01 -1.324335920004e+02 0.0 
0.0 0.0 -5.854111600455e+01 
-1.084875480230e+02 1.792099272184e+00 0.0 
1.792099272184e+00 -2.782457687523e+02 0.0 
0.0 0.0 -1.156199950326e+02 
-1.082536330861e+02 9.321654967070e-01 0.0 
9.321654967070e-01 -2.764893190911e+02 0.0 
0.0 0.0 -1.150228856532e+02 
-1.082227462843e+02 1.972507067810e+00 0.0 
1.972507067810e+00 -2.452866131546e+02 0.0 
0.0 0.0 -1.056528078317e+02 
-1.038603334251e+02 5.654535967346e-01 0.0 
5.654535967346e-01 -2.338759925120e+02 0.0 
0.0 0.0 -1.009208977811e+02 
-9.654740901194e+01 3.578710488808e+00 0.0 
3.578710488808e+00 -2.526140250605e+02 0.0 
0.0 0.0 -1.043484302217e+02 
-1.411442940181e+02 2.882660283861e+00 0.0 
2.882660283861e+00 -3.423046003550e+02 0.0 
0.0 0.0 -1.446346683119e+02 
-9.941326898805e+01 2.158670922192e+00 0.0 
2.158670922192e+00 -2.193489009598e+02 0.0 
0.0 0.0 -9.522865098435e+01 
-1.215997550219e+02 1.480187417217e+00 0.0 
1.480187417217e+00 -3.028556579073e+02 0.0 
0.0 0.0 -1.269366238787e+02 
-1.427736474211e+02 5.562524056332e+00 0.0 
5.562524056332e+00 -3.459474590266e+02 0.0 
0.0 0.0 -1.462163319343e+02 
-1.081416409688e+02 2.752474684539e+00 0.0 
2.752474684539e+00 -2.439039331644e+02 0.0 
0.0 0.0 -1.052136722400e+02 
-8.911054169190e+01 2.250077227273e+00 0.0 
2.250077227273e+00 -1.928269837983e+02 0.0 
0.0 0.0 -8.418125764706e+01 
-1.094549519652e+02 6.588518507066e+00 0.0 
6.588518507066e+00 -2.815952469749e+02 0.0 
0.0 0.0 -1.169150596820e+02 
-3.722842715724e+01 -1.710283367577e+00 0.0 
-1.710283367577e+00 -9.968560512005e+01 0.0 
0.0 0.0 -4.067420968319e+01 
-3.365230794116e+01 -2.532128246859e+00 0.0 
-2.532128246859e+00 -9.217474768139e+01 0.0 
0.0 0.0 -3.734811668677e+01 
-1.988886730232e+01 -1.129833915556e+00 0.0 
-1.129833915556e+00 -4.805706586154e+01 0.0 
0.0 0.0 -1.998377994916e+01 
-1.806185214719e+01 -1.603774438487e+00 0.0 
-1.603774438487e+00 -2.563755068830e+01 0.0 
0.0 0.0 -1.270982085065e+01 
-1.044710010806e+02 2.225946423400e+00 0.0 
2.225946423400e+00 -2.343675070654e+02 0.0 
0.0 0.0 -1.012515524438e+02 
-1.357237242768e+02 8.458548585603e-01 0.0 
8.458548585603e-01 -3.317555867978e+02 0.0 
0.0 0.0 -1.398437933224e+02 
-1.690944839563e+01 -1.595228241667e+00 0.0 
-1.595228241667e+00 -2.527866394835e+01 0.0 
0.0 0.0 -1.225643370319e+01 
-1.150750904830e+02 1.238136124810e+01 0.0 
1.238136124810e+01 -2.490018805218e+02 0.0 
0.0 0.0 -1.088230913014e+02 
-6.826588396898e+01 -2.856833177056e-01 0.0 
-2.856833177056e-01 -1.414723785059e+02 0.0 
0.0 0.0 -6.252147874248e+01 
-1.229308419412e+02 3.372878979537e+00 0.0 
3.372878979537e+00 -3.065861636237e+02 0.0 
0.0 0.0 -1.284551016695e+02 
-1.261105756804e+02 6.730545891683e-01 0.0 
6.730545891683e-01 -3.127427167650e+02 0.0 
0.0 0.0 -1.312559877336e+02 
-4.910967032011e+01 -1.027632459344e+00 0.0 
-1.027632459344e+00 -1.405255331845e+02 0.0 
0.0 0.0 -5.649056105138e+01 
-1.264548852978e+02 2.085169136572e+00 0.0 
2.085169136572e+00 -3.131795463804e+02 0.0 
0.0 0.0 -1.314903295035e+02 
-6.461277878420e+01 1.491724107708e+00 0.0 
1.491724107708e+00 -1.326147542582e+02 0.0 
0.0 0.0 -5.876825991273e+01 
-1.029061535098e+02 1.391562146937e+01 0.0 
1.391562146937e+01 -2.614489496079e+02 0.0 
0.0 0.0 -1.089065309353e+02 
-1.473320655633e+02 3.503349485383e+00 0.0 
3.503349485383e+00 -3.546785233657e+02 0.0 
0.0 0.0 -1.502031766787e+02 
-3.600903343491e+01 -1.062157124868e+00 0.0 
-1.062157124868e+00 -9.633093341165e+01 0.0 
0.0 0.0 -3.930199005397e+01 
-1.425477060779e+02 6.789333636839e+00 0.0 
6.789333636839e+00 -3.461542708411e+02 0.0 
0.0 0.0 -1.462105930757e+02 
-9.307200892034e+01 2.069460453953e+00 0.0 
2.069460453953e+00 -2.037520408232e+02 0.0 
0.0 0.0 -8.864721492306e+01 
-4.040479946282e+01 -1.508813183252e+00 0.0 
-1.508813183252e+00 -1.082382742732e+02 0.0 
0.0 0.0 -4.419292212082e+01 
-4.111030994783e+01 -1.286277508853e+00 0.0 
-1.286277508853e+00 -1.120857979230e+02 0.0 
0.0 0.0 -4.555883236124e+01 
-8.645727331200e+01 -5.205333373104e-01 0.0 
-5.205333373104e-01 -2.260463979381e+02 0.0 
0.0 0.0 -9.335110137503e+01 
-8.011660065340e+01 5.333238392612e-01 0.0 
5.333238392612e-01 -1.705457898350e+02 0.0 
0.0 0.0 -7.479871714652e+01 
-5.593953453684e+01 -1.565507601258e+00 0.0 
-1.565507601258e+00 -1.523963855134e+02 0.0 
0.0 0.0 -6.210077601508e+01 
-9.697824004403e+01 1.986774872056e+00 0.0 
1.986774872056e+00 -2.145710676281e+02 0.0 
0.0 0.0 -9.306479230163e+01 
-8.512695641795e+01 1.917620030539e+00 0.0 
1.917620030539e+00 -1.833395765538e+02 0.0 
0.0 0.0 -8.013995989153e+01 
-8.288870993526e+01 -2.072013506118e-01 0.0 
-2.072013506118e-01 -2.194167780373e+02 0.0 
0.0 0.0 -9.029164639175e+01 
-1.171966343292e+02 1.814785141750e+00 0.0 
1.814785141750e+00 -2.940978247835e+02 0.0 
0.0 0.0 -1.229883377338e+02 
-1.222274258821e+02 2.423713489983e+00 0.0 
2.423713489983e+00 -3.047112177950e+02 0.0 
0.0 0.0 -1.276815931031e+02 
-9.208132055517e+01 3.417467313434e-01 0.0 
3.417467313434e-01 -2.029799682809e+02 0.0 
0.0 0.0 -8.811838665081e+01 
-3.165685368548e+01 -7.740015543599e-01 0.0 
-7.740015543599e-01 -8.343214813274e+01 0.0 
0.0 0.0 -3.412670054546e+01 
-7.874718643160e+01 -5.299358767745e-01 0.0 
-5.299358767745e-01 -2.087685766632e+02 0.0 
0.0 0.0 -8.585472892845e+01 
-1.201375685901e+02 1.523685689052e+01 0.0 
1.523685689052e+01 -2.933420875226e+02 0.0 
0.0 0.0 -1.236438968338e+02 
-9.682597458668e+01 2.583621643616e+00 0.0 
2.583621643616e+00 -2.127982996393e+02 0.0 
0.0 0.0 -9.248728226779e+01 
-7.070831194431e+01 -9.829991040736e-01 0.0 
-9.829991040736e-01 -1.890009380250e+02 0.0 
0.0 0.0 -7.751277499078e+01 
-1.008696160109e+02 3.451247515575e+00 0.0 
3.451247515575e+00 -2.614952701750e+02 0.0 
0.0 0.0 -1.083094658558e+02 
-1.380258218644e+02 7.351573042078e+00 0.0 
7.351573042078e+00 -3.374375129883e+02 0.0 
0.0 0.0 -1.422390004558e+02 
-8.833676048580e+01 5.604032338794e-01 0.0 
5.604032338794e-01 -1.922156262256e+02 0.0 
0.0 0.0 -8.376571601341e+01 
-2.105382462306e+01 3.780059388402e-01 0.0 
3.780059388402e-01 -4.359369342913e+01 0.0 
0.0 0.0 -1.899425541566e+01 
-1.893054992815e+01 -8.004578610890e-01 0.0 
-8.004578610890e-01 -4.672226102565e+01 0.0 
0.0 0.0 -1.929584328614e+01 
-3.048743576576e+01 3.477090731054e+00 0.0 
3.477090731054e+00 -8.748968139486e+01 0.0 
0.0 0.0 -3.499313514819e+01 
-1.311806764670e+02 1.263780267755e+00 0.0 
1.263780267755e+00 -3.232481855697e+02 0.0 
0.0 0.0 -1.359286586110e+02 
-8.416562153018e+01 5.862089786946e-01 0.0 
5.862089786946e-01 -1.813632344161e+02 0.0 
0.0 0.0 -7.925865678389e+01 
-9.534438718436e+01 1.185646654558e+00 0.0 
1.185646654558e+00 -2.457146201019e+02 0.0 
0.0 0.0 -1.019177021859e+02 
-7.222614816406e+01 1.364181854334e-01 0.0 
1.364181854334e-01 -1.508832136298e+02 0.0 
0.0 0.0 -6.653280853817e+01 
-1.280947662059e+02 9.833163320338e+00 0.0 
9.833163320338e+00 -3.183930731064e+02 0.0 
0.0 0.0 -1.335463517937e+02 
-8.684653641617e+01 -1.975540554850e-01 0.0 
-1.975540554850e-01 -2.280584314481e+02 0.0 
0.0 0.0 -9.407149035929e+01 
-1.217748543017e+02 1.012728572793e+00 0.0 
1.012728572793e+00 -3.042099286507e+02 0.0 
0.0 0.0 -1.273954348857e+02 
-3.779256261415e+01 -2.796715373964e-01 0.0 
-2.796715373964e-01 -1.002560739445e+02 0.0 
0.0 0.0 -4.101459096760e+01 
-1.420413381523e+02 3.997982006914e+00 0.0 
3.997982006914e+00 -3.457267328164e+02 0.0 
0.0 0.0 -1.459304212906e+02 
-8.384242884890e+01 1.175413292327e+00 0.0 
1.175413292327e+00 -2.201326392660e+02 0.0 
0.0 0.0 -9.079252043448e+01 
-4.088345035313e+01 3.785724514588e-02 0.0 
3.785724514588e-02 -1.087854870285e+02 0.0 
0.0 0.0 -4.450068121449e+01 
-7.956995776820e+01 9.401538153887e-01 0.0 
9.401538153887e-01 -2.094608541356e+02 0.0 
0.0 0.0 -8.630924357115e+01 
-5.951068433646e+01 -1.344550539320e+00 0.0 
-1.344550539320e+00 -1.610270629395e+02 0.0 
0.0 0.0 -6.576132418279e+01 
-4.637473276269e+01 -7.954353834463e-01 0.0 
-7.954353834463e-01 -1.249687483385e+02 0.0 
0.0 0.0 -5.100304433037e+01 
-9.469188174437e+01 -2.983194657429e-01 0.0 
-2.983194657429e-01 -2.450282968945e+02 0.0 
0.0 0.0 -1.015160535917e+02 
-6.923270987031e+00 -4.677638683218e-01 0.0 
-4.677638683218e-01 -9.257835474815e+00 0.0 
0.0 0.0 -5.450001165277e+00 
-8.057843828844e+00 -5.006324215064e-01 0.0 
-5.006324215064e-01 -9.516475742369e+00 0.0 
0.0 0.0 -5.882303605369e+00 
-1.089834531960e+02 2.321401984184e+00 0.0 
2.321401984184e+00 -2.771041521374e+02 0.0 
0.0 0.0 -1.154262816000e+02 
-3.483936440956e+01 -5.933283082664e-01 0.0 
-5.933283082664e-01 -9.202537061276e+01 0.0 
0.0 0.0 -3.765942050669e+01 
-1.094657433727e+02 3.147169876133e+00 0.0 
3.147169876133e+00 -2.789583852449e+02 0.0 
0.0 0.0 -1.161272385853e+02 
-1.051790526748e+02 3.306780802996e+00 0.0 
3.306780802996e+00 -2.702830258385e+02 0.0 
0.0 0.0 -1.122386235540e+02 
-6.335894587399e+01 -9.573298922916e-01 0.0 
-9.573298922916e-01 -1.739279215643e+02 0.0 
0.0 0.0 -7.078606023148e+01 
-3.947947580453e+01 -1.620823006764e+00 0.0 
-1.620823006764e+00 -1.132618182250e+02 0.0 
0.0 0.0 -4.542238820887e+01 
-1.043406996156e+02 3.773277543592e+00 0.0 
3.773277543592e+00 -2.310633676509e+02 0.0 
0.0 0.0 -1.002212201800e+02 
-1.842185836331e+01 4.736382926007e+00 0.0 
4.736382926007e+00 -4.245212115301e+01 0.0 
0.0 0.0 -1.786219385489e+01 
-6.309559957847e+01 -1.110983727842e+00 0.0 
-1.110983727842e+00 -1.698450061656e+02 0.0 
0.0 0.0 -6.948218172321e+01 
-1.326499609678e+02 1.105912821062e+01 0.0 
1.105912821062e+01 -3.264413683107e+02 0.0 
0.0 0.0 -1.373273987836e+02 
-2.998371585500e+01 -1.749725109154e+00 0.0 
-1.749725109154e+00 -7.941837816034e+01 0.0 
0.0 0.0 -3.242062820460e+01 
-7.717986456830e+01 1.821532193127e+00 0.0 
1.821532193127e+00 -1.622592117470e+02 0.0 
0.0 0.0 -7.143172289460e+01 
-6.903524329457e+01 1.536966630404e+00 0.0 
1.536966630404e+00 -1.421481529391e+02 0.0 
0.0 0.0 -6.295501887009e+01 
-2.959846630051e+01 -1.362513279562e+00 0.0 
-1.362513279562e+00 -7.708667173382e+01 0.0 
0.0 0.0 -3.160554141030e+01 
-1.330896402091e+02 7.753646197790e+00 0.0 
7.753646197790e+00 -3.282359009071e+02 0.0 
0.0 0.0 -1.379976623349e+02 
-9.316992886395e+01 3.348447716020e+00 0.0 
3.348447716020e+00 -2.002598283583e+02 0.0 
0.0 0.0 -8.762892716667e+01 
-3.419411127160e+01 -1.874885322359e+00 0.0 
-1.874885322359e+00 -9.138456320915e+01 0.0 
0.0 0.0 -3.727360234422e+01 
-1.079526439572e+02 4.372596541272e+00 0.0 
4.372596541272e+00 -2.399746689388e+02 0.0 
0.0 0.0 -1.039781938688e+02 
-1.065232659511e+02 2.799308930943e+00 0.0 
2.799308930943e+00 -2.390175165065e+02 0.0 
0.0 0.0 -1.032622347373e+02 
-3.860062328787e+01 -6.264933122513e-01 0.0 
-6.264933122513e-01 -1.027357890539e+02 0.0 
0.0 0.0 -4.200092370254e+01 
-3.523236577744e+01 1.836724960340e+01 0.0 
1.836724960340e+01 -7.485408741850e+01 0.0 
0.0 0.0 -3.262593595878e+01 
-3.936044744191e+01 -1.046076509840e+00 0.0 
-1.046076509840e+00 -1.053136732318e+02 0.0 
0.0 0.0 -4.300223620211e+01 
-1.180480792516e+02 2.699352991640e+00 0.0 
2.699352991640e+00 -2.961753885936e+02 0.0 
0.0 0.0 -1.238670403536e+02 
-9.078430278427e+01 -2.335155300972e-01 0.0 
-2.335155300972e-01 -2.366495380806e+02 0.0 
0.0 0.0 -9.783015225945e+01 
-1.118231821091e+02 8.704426975675e+00 0.0 
8.704426975675e+00 -2.461919656509e+02 0.0 
0.0 0.0 -1.070045443280e+02 
-1.031448229728e+02 2.009562732657e+00 0.0 
2.009562732657e+00 -2.302579976403e+02 0.0 
0.0 0.0 -9.962084618394e+01 
-1.137560769155e+02 2.941535353416e+00 0.0 
2.941535353416e+00 -2.875964361942e+02 0.0 
0.0 0.0 -1.200057539329e+02 
-1.129311453757e+02 1.569046369711e+00 0.0 
1.569046369711e+00 -2.869459232707e+02 0.0 
0.0 0.0 -1.195631205939e+02 
-3.187879674174e+01 -2.479410789185e+00 0.0 
-2.479410789185e+00 -8.509176741619e+01 0.0 
0.0 0.0 -3.469116924738e+01 
-1.173642080457e+02 1.304830731001e+00 0.0 
1.304830731001e+00 -2.955798817573e+02 0.0 
0.0 0.0 -1.234832269409e+02 
-9.186080783999e+01 1.587084414893e+00 0.0 
1.587084414893e+00 -1.994081760354e+02 0.0 
0.0 0.0 -8.698069516261e+01 
-9.146749927769e+01 1.159517115684e+00 0.0 
1.159517115684e+00 -2.372480580199e+02 0.0 
0.0 0.0 -9.821466718927e+01 
-8.518890749989e+01 2.270371641208e+00 0.0 
2.270371641208e+00 -1.820793220214e+02 0.0 
0.0 0.0 -7.978046885640e+01 
-9.688652920756e+01 3.276207387649e+00 0.0 
3.276207387649e+00 -2.110594661930e+02 0.0 
0.0 0.0 -9.198379862017e+01 
-6.827307229132e+01 1.110955551303e+01 0.0 
1.110955551303e+01 -1.881055928773e+02 0.0 
0.0 0.0 -7.651359955059e+01 
-9.949586932155e+01 1.407381779162e+00 0.0 
1.407381779162e+00 -2.211447630458e+02 0.0 
0.0 0.0 -9.579218971021e+01 
-7.484606300632e+01 -8.299404808364e-01 0.0 
-8.299404808364e-01 -1.989101726515e+02 0.0 
0.0 0.0 -8.172687069735e+01 
-8.759960401937e+01 1.214730793828e+00 0.0 
1.214730793828e+00 -2.286954222938e+02 0.0 
0.0 0.0 -9.448850789395e+01 
-5.571345820878e+01 -1.598383946255e+00 0.0 
-1.598383946255e+00 -1.504049943671e+02 0.0 
0.0 0.0 -6.143553577276e+01 
-5.751078737788e+01 -4.362439645782e-02 0.0 
-4.362439645782e-02 -1.576309537613e+02 0.0 
0.0 0.0 -6.414252234176e+01 
-8.800222318470e+01 1.034114265765e+00 0.0 
1.034114265765e+00 -1.903512308959e+02 0.0 
0.0 0.0 -8.310603622417e+01 
-7.977665365335e+01 2.990626661004e+00 0.0 
2.990626661004e+00 -2.157668840209e+02 0.0 
0.0 0.0 -8.826306130228e+01 
-4.254572373688e+01 -7.719728289478e-01 0.0 
-7.719728289478e-01 -1.139100877756e+02 0.0 
0.0 0.0 -4.653674345374e+01 
-2.298759366220e+01 -1.357341456812e+00 0.0 
-1.357341456812e+00 -5.757064129986e+01 0.0 
0.0 0.0 -2.376747048862e+01 
-8.920316808603e+01 2.756386254946e+00 0.0 
2.756386254946e+00 -1.911501459605e+02 0.0 
0.0 0.0 -8.370599421396e+01 
-4.169791802082e+01 -2.167498415173e+00 0.0 
-2.167498415173e+00 -1.132412543147e+02 0.0 
0.0 0.0 -4.608175170065e+01 
-1.422401744190e+02 5.496359770517e+00 0.0 
5.496359770517e+00 -3.458378277130e+02 0.0 
0.0 0.0 -1.460234006396e+02 
-9.196750279118e+01 9.925063265852e-01 0.0 
9.925063265852e-01 -2.012043297913e+02 0.0 
0.0 0.0 -8.755154977473e+01 
-1.222115630278e+02 1.996470518726e+00 0.0 
1.996470518726e+00 -3.059821457232e+02 0.0 
0.0 0.0 -1.280581126253e+02 
-1.465662698583e+02 1.377563682767e+01 0.0 
1.377563682767e+01 -3.491070696989e+02 0.0 
0.0 0.0 -1.483020018672e+02 
-7.164481628811e+01 6.464892267294e-01 0.0 
6.464892267294e-01 -1.898841118519e+02 0.0 
0.0 0.0 -7.805867844199e+01 
-3.792333062268e+01 -2.099386851099e+00 0.0 
-2.099386851099e+00 -1.021232360004e+02 0.0 
0.0 0.0 -4.161396998693e+01 
-2.530483418121e+01 -2.471310953269e+00 0.0 
-2.471310953269e+00 -6.530203767077e+01 0.0 
0.0 0.0 -2.678206155559e+01 
-1.141098767158e+02 3.900215176846e+00 0.0 
3.900215176846e+00 -2.892183315515e+02 0.0 
0.0 0.0 -1.205984624802e+02 
-8.041184132213e+01 1.792974701193e-01 0.0 
1.792974701193e-01 -1.724720982376e+02 0.0 
0.0 0.0 -7.546518186793e+01 
-1.921222909261e+01 -2.107527948791e+00 0.0 
-2.107527948791e+00 -4.638071114700e+01 0.0 
0.0 0.0 -1.927788207188e+01 
-5.707845133937e+01 -1.908191510498e-01 0.0 
-1.908191510498e-01 -1.531813715823e+02 0.0 
0.0 0.0 -6.267794687651e+01 
-3.400494010903e+01 -9.591420594577e-02 0.0 
-9.591420594577e-02 -8.941414002913e+01 0.0 
0.0 0.0 -3.662572404145e+01 
-8.130590858512e+01 2.218043712780e+00 0.0 
2.218043712780e+00 -1.713312262767e+02 0.0 
0.0 0.0 -7.539114045854e+01 
-6.072287433552e+01 9.445454039512e-02 0.0 
9.445454039512e-02 -1.618561207128e+02 0.0 
0.0 0.0 -6.637369851449e+01 
-1.040517879490e+02 1.994278068027e+00 0.0 
1.994278068027e+00 -2.695078837191e+02 0.0 
0.0 0.0 -1.116679015004e+02 
-5.624171546118e+01 2.242941494381e-02 0.0 
2.242941494381e-02 -1.508720809076e+02 0.0 
0.0 0.0 -6.173413891062e+01 
-1.006415411995e+02 2.463114165547e+00 0.0 
2.463114165547e+00 -2.237192893952e+02 0.0 
0.0 0.0 -9.690824917840e+01 
-4.874016484222e+01 -1.926955265376e+00 0.0 
-1.926955265376e+00 -1.328840701871e+02 0.0 
0.0 0.0 -5.408727050878e+01 
-1.142216786953e+02 5.005611918105e+00 0.0 
5.005611918105e+00 -2.903666483250e+02 0.0 
0.0 0.0 -1.209764981061e+02 
-3.484432991126e+01 -1.603687516256e+00 0.0 
-1.603687516256e+00 -9.288793357363e+01 0.0 
0.0 0.0 -3.791967904547e+01 
-1.096746764527e+02 4.113292664316e+00 0.0 
4.113292664316e+00 -2.804061321479e+02 0.0 
0.0 0.0 -1.166242425802e+02 
-8.340543663530e+01 8.260685635638e-01 0.0 
8.260685635638e-01 -2.184740994361e+02 0.0 
0.0 0.0 -9.016386082143e+01 
-1.176490131260e+02 2.293292117338e+00 0.0 
2.293292117338e+00 -2.972739179530e+02 0.0 
0.0 0.0 -1.240768793237e+02 
-4.686831783613e+01 3.836362965527e+00 0.0 
3.836362965527e+00 -1.416183732766e+02 0.0 
0.0 0.0 -5.614600733382e+01 
-3.317792702596e+01 -1.581656708577e+00 0.0 
-1.581656708577e+00 -8.853113701365e+01 0.0 
0.0 0.0 -3.611271921188e+01 
-7.330805215871e+01 1.485612338835e+00 0.0 
1.485612338835e+00 -1.532100490899e+02 0.0 
0.0 0.0 -6.755543037460e+01 
-9.921870532238e+01 8.866490747486e+00 0.0 
8.866490747486e+00 -2.602666357220e+02 0.0 
0.0 0.0 -1.074456023133e+02 
-5.998930471422e+01 1.610775769100e+01 0.0 
1.610775769100e+01 -1.338473370878e+02 0.0 
0.0 0.0 -5.775099254061e+01 
-8.118102491733e+01 1.897578586464e+00 0.0 
1.897578586464e+00 -1.728818562003e+02 0.0 
0.0 0.0 -7.581886433528e+01 
-3.799825215029e+01 -1.329669646168e+00 0.0 
-1.329669646168e+00 -1.035633934784e+02 0.0 
0.0 0.0 -4.206849368860e+01 
-8.427613565873e+01 1.599099250427e+00 0.0 
1.599099250427e+00 -1.780011107062e+02 0.0 
0.0 0.0 -7.828317390947e+01 
-3.033468681034e+01 -2.665364954803e-01 0.0 
-2.665364954803e-01 -8.037070122728e+01 0.0 
0.0 0.0 -3.281161641128e+01 
-1.330294828064e+02 6.322285542509e+00 0.0 
6.322285542509e+00 -3.279042872321e+02 0.0 
0.0 0.0 -1.378801310116e+02 
-1.034753464955e+02 1.020621337455e+01 0.0 
1.020621337455e+01 -2.684574582508e+02 0.0 
0.0 0.0 -1.111798414239e+02 
-1.073911976207e+02 1.502903632327e+01 0.0 
1.502903632327e+01 -2.683326378556e+02 0.0 
0.0 0.0 -1.123171506429e+02 
-1.116067933193e+02 4.245308657484e+00 0.0 
4.245308657484e+00 -2.514324678191e+02 0.0 
0.0 0.0 -1.085117783415e+02 
-8.789169524880e+01 3.840416883439e+00 0.0 
3.840416883439e+00 -2.345618125446e+02 0.0 
0.0 0.0 -9.633605233801e+01 
-3.109417929371e+01 -2.152459801852e+00 0.0 
-2.152459801852e+00 -8.276483603968e+01 0.0 
0.0 0.0 -3.375770460002e+01 
-1.007850624095e+02 4.485139338533e+00 0.0 
4.485139338533e+00 -2.624921707205e+02 0.0 
0.0 0.0 -1.085831699390e+02 
-1.370835852404e+02 5.989008619084e+00 0.0 
5.989008619084e+00 -3.367360899007e+02 0.0 
0.0 0.0 -1.417459025423e+02 
-4.750322885174e+01 -2.104859326410e-01 0.0 
-2.104859326410e-01 -1.330739128225e+02 0.0 
0.0 0.0 -5.377314250227e+01 
-1.185330885849e+02 3.661079238772e+00 0.0 
3.661079238772e+00 -2.979471775197e+02 0.0 
0.0 0.0 -1.245440798314e+02 
-9.299755628698e+01 2.714634820984e+00 0.0 
2.714634820984e+00 -2.019309019175e+02 0.0 
0.0 0.0 -8.807853746135e+01 
-3.631867724785e+01 -1.453522908545e+00 0.0 
-1.453522908545e+00 -1.046164460687e+02 0.0 
0.0 0.0 -4.188053699495e+01 
-1.052341800529e+02 4.303030829442e+00 0.0 
4.303030829442e+00 -2.715023412711e+02 0.0 
0.0 0.0 -1.126209563972e+02 
-7.337837259974e+01 2.152088070800e+00 0.0 
2.152088070800e+00 -1.498091459781e+02 0.0 
0.0 0.0 -6.655625557334e+01 
-4.503438051465e+01 -1.724572587351e-01 0.0 
-1.724572587351e-01 -1.200197071624e+02 0.0 
0.0 0.0 -4.911622630310e+01 
-5.357692273243e+01 -4.395259809086e-01 0.0 
-4.395259809086e-01 -1.445550828273e+02 0.0 
0.0 0.0 -5.903960166792e+01 
-7.496756653879e+01 1.758883699411e+01 0.0 
1.758883699411e+01 -1.720001410919e+02 0.0 
0.0 0.0 -7.369031228920e+01 
-1.130745602838e+02 2.561896248687e+00 0.0 
2.561896248687e+00 -2.884846941299e+02 0.0 
0.0 0.0 -1.200677763241e+02 
-5.247857451722e+01 1.753261683198e+01 0.0 
1.753261683198e+01 -1.038627413690e+02 0.0 
0.0 0.0 -4.650239476588e+01 
-7.027228633998e+01 1.751705541711e+01 0.0 
1.751705541711e+01 -1.667846471402e+02 0.0 
0.0 0.0 -7.071708004406e+01 
-8.807087776059e+01 1.604911535148e+00 0.0 
1.604911535148e+00 -1.886673667139e+02 0.0 
0.0 0.0 -8.262147334235e+01 
-7.622637438891e+01 1.160805304586e-01 0.0 
1.160805304586e-01 -1.615700788806e+02 0.0 
0.0 0.0 -7.093893598085e+01 
-7.630900482229e+01 9.126936922636e-01 0.0 
9.126936922636e-01 -1.582175517955e+02 0.0 
0.0 0.0 -6.995796698534e+01 
-8.274109967654e+01 -4.003838077302e-01 0.0 
-4.003838077302e-01 -2.178109522103e+02 0.0 
0.0 0.0 -8.976561556604e+01 
-1.282429543186e+02 8.171059524445e+00 0.0 
8.171059524445e+00 -3.189586553973e+02 0.0 
0.0 0.0 -1.337604829148e+02 
-9.633074244419e+01 4.677650564701e+00 0.0 
4.677650564701e+00 -2.533641503215e+02 0.0 
0.0 0.0 -1.045084678297e+02 
-7.308310627950e+01 1.727856212538e+00 0.0 
1.727856212538e+00 -1.515085458618e+02 0.0 
0.0 0.0 -6.697749564239e+01 
-1.195527846270e+02 1.410431267920e+01 0.0 
1.410431267920e+01 -2.618598584518e+02 0.0 
0.0 0.0 -1.140237929236e+02 
-1.119212798239e+02 1.605280779786e+01 0.0 
1.605280779786e+01 -2.750286041221e+02 0.0 
0.0 0.0 -1.156849651838e+02 
-1.085047836761e+02 2.801909139407e+00 0.0 
2.801909139407e+00 -2.796212203153e+02 0.0 
0.0 0.0 -1.160378011974e+02 
-9.568345054906e+01 1.531476251145e+00 0.0 
1.531476251145e+00 -2.102552858150e+02 0.0 
0.0 0.0 -9.138162090921e+01 
-6.105597680860e+01 1.507645081724e-01 0.0 
1.507645081724e-01 -1.661077356888e+02 0.0 
0.0 0.0 -6.774911374921e+01 
-5.733818350011e+01 -2.113507186237e-01 0.0 
-2.113507186237e-01 -1.553985986525e+02 0.0 
0.0 0.0 -6.342103464578e+01 
-3.234102573266e+01 -1.140180868708e+00 0.0 
-1.140180868708e+00 -8.558263583031e+01 0.0 
0.0 0.0 -3.497709846889e+01 
-1.050824979038e+02 5.491214019712e+00 0.0 
5.491214019712e+00 -2.721573351760e+02 0.0 
0.0 0.0 -1.127719499240e+02 
-6.089890897912e+01 8.757199758255e-03 0.0 
8.757199758255e-03 -1.640534635483e+02 0.0 
0.0 0.0 -6.708571175823e+01 
-8.539021365991e+01 2.782211279068e+00 0.0 
2.782211279068e+00 -1.803550121216e+02 0.0 
0.0 0.0 -7.932356773446e+01 
-8.156995669292e+01 2.784611199539e+00 0.0 
2.784611199539e+00 -1.696490317253e+02 0.0 
0.0 0.0 -7.496569652546e+01 
-7.310322749253e+01 1.074555885736e+01 0.0 
1.074555885736e+01 -1.998377770504e+02 0.0 
0.0 0.0 -8.148230136289e+01 
-4.895113958420e+01 -1.940107731980e+00 0.0 
-1.940107731980e+00 -1.351700944236e+02 0.0 
0.0 0.0 -5.483637020233e+01 
-4.226126616864e+01 7.684826994131e+00 0.0 
7.684826994131e+00 -1.287319558288e+02 0.0 
0.0 0.0 -5.089796659924e+01 
-5.240938088116e+01 -1.764587743053e+00 0.0 
-1.764587743053e+00 -1.437664094939e+02 0.0 
0.0 0.0 -5.845273711251e+01 
-5.603021088780e+01 -1.480060898964e+00 0.0 
-1.480060898964e+00 -1.545641422474e+02 0.0 
0.0 0.0 -6.277830594055e+01 
-3.484735401576e+01 -2.316180035887e+00 0.0 
-2.316180035887e+00 -9.363665044957e+01 0.0 
0.0 0.0 -3.814520133960e+01 
-1.233562172295e+02 8.613508202284e+00 0.0 
8.613508202284e+00 -3.094846253703e+02 0.0 
0.0 0.0 -1.294522527799e+02 
-6.671724966345e+01 2.819481549480e-01 0.0 
2.819481549480e-01 -1.860722202502e+02 0.0 
0.0 0.0 -7.543684097410e+01 
-1.005846184146e+02 3.143228035489e+00 0.0 
3.143228035489e+00 -2.219001940069e+02 0.0 
0.0 0.0 -9.634544372646e+01 
-7.027951574573e+01 1.160819127487e+00 0.0 
1.160819127487e+00 -1.960802434842e+02 0.0 
0.0 0.0 -7.950792776898e+01 
-9.938252203623e+01 3.266102143001e+00 0.0 
3.266102143001e+00 -2.616314340007e+02 0.0 
0.0 0.0 -1.079041868111e+02 
-8.238277633946e+01 1.767398122320e+00 0.0 
1.767398122320e+00 -2.238443110290e+02 0.0 
0.0 0.0 -9.146812621052e+01 
-6.924845666293e+01 1.625182622235e+01 0.0 
1.625182622235e+01 -1.751193471305e+02 0.0 
0.0 0.0 -7.291034113802e+01 
-3.552407688062e+01 -9.532110252495e-01 0.0 
-9.532110252495e-01 -9.424543122432e+01 0.0 
0.0 0.0 -3.853085243148e+01 
-1.320076181179e+02 6.461819088574e+00 0.0 
6.461819088574e+00 -3.274375435386e+02 0.0 
0.0 0.0 -1.374335484970e+02 
-1.384114093801e+02 9.055711121121e+00 0.0 
9.055711121121e+00 -3.385520132138e+02 0.0 
0.0 0.0 -1.426890267782e+02 
-9.581046636609e+01 1.516289610648e+01 0.0 
1.516289610648e+01 -2.162342991891e+02 0.0 
0.0 0.0 -9.321342966656e+01 
-5.959043168910e+01 -1.068348629415e+00 0.0 
-1.068348629415e+00 -1.652173215741e+02 0.0 
0.0 0.0 -6.704232597895e+01 
-9.071852387743e+01 2.522850669911e+00 0.0 
2.522850669911e+00 -2.427458570784e+02 0.0 
0.0 0.0 -9.963931428674e+01 
-8.407903193000e+01 1.001476291203e+00 0.0 
1.001476291203e+00 -1.795013189965e+02 0.0 
0.0 0.0 -7.867410527795e+01 
-6.471606863151e+01 3.221706162027e-01 0.0 
3.221706162027e-01 -1.747838516155e+02 0.0 
0.0 0.0 -7.144997607409e+01 
-5.437058618020e+01 1.794234087558e+01 0.0 
1.794234087558e+01 -1.295690479847e+02 0.0 
0.0 0.0 -5.478189024948e+01 
-4.964677927804e+01 -5.284908838487e-01 0.0 
-5.284908838487e-01 -1.335774021453e+02 0.0 
0.0 0.0 -5.456725442700e+01 
-4.116407997936e+01 -8.843041864750e-01 0.0 
-8.843041864750e-01 -1.141382977450e+02 0.0 
0.0 0.0 -4.619071331730e+01 
-6.472636244683e+01 6.554485993445e-01 0.0 
6.554485993445e-01 -1.766525684851e+02 0.0 
0.0 0.0 -7.201367927957e+01 
-4.494499412333e+01 -1.917246003219e+00 0.0 
-1.917246003219e+00 -1.218397572435e+02 0.0 
0.0 0.0 -4.963542541005e+01 
-4.179999868435e+01 -3.981675827735e-01 0.0 
-3.981675827735e-01 -1.113772845828e+02 0.0 
0.0 0.0 -4.555318498016e+01 
-8.396167254072e+01 2.906946896406e+00 0.0 
2.906946896406e+00 -2.247635622821e+02 0.0 
0.0 0.0 -9.221757044686e+01 
-1.039409285576e+02 3.030661795176e+00 0.0 
3.030661795176e+00 -2.706749561767e+02 0.0 
0.0 0.0 -1.119847654203e+02 
-1.148496071070e+02 1.568609812169e+01 0.0 
1.568609812169e+01 -2.616969249136e+02 0.0 
0.0 0.0 -1.125639596062e+02 
-6.985836123530e+00 -6.120858606056e-01 0.0 
-6.120858606056e-01 -9.072315413949e+00 0.0 
0.0 0.0 -4.417445461244e+00 
-6.557382988863e+01 2.853040358976e+00 0.0 
2.853040358976e+00 -1.873913191290e+02 0.0 
0.0 0.0 -7.548954470530e+01 
-6.621634169103e+01 1.365809179602e+00 0.0 
1.365809179602e+00 -1.871381085566e+02 0.0 
0.0 0.0 -7.560633507427e+01 
-6.313598644909e+01 -4.748306296398e-01 0.0 
-4.748306296398e-01 -1.757441561583e+02 0.0 
0.0 0.0 -7.126404278221e+01 
-8.019417635841e+01 9.728252073780e-01 0.0 
9.728252073780e-01 -1.687659123641e+02 0.0 
0.0 0.0 -7.428802661674e+01 
-7.437674426527e+01 1.009920019439e+00 0.0 
1.009920019439e+00 -2.049370419706e+02 0.0 
0.0 0.0 -8.339413587077e+01 
-5.217602599002e+01 -1.728320270212e+00 0.0 
-1.728320270212e+00 -1.415532407426e+02 0.0 
0.0 0.0 -5.771878001977e+01 
-6.837831746970e+01 1.318648956741e+00 0.0 
1.318648956741e+00 -1.870036857769e+02 0.0 
0.0 0.0 -7.621460097398e+01 
-9.578533692346e+01 8.831711192998e-01 0.0 
8.831711192998e-01 -2.120730071295e+02 0.0 
0.0 0.0 -9.195750321587e+01 
-5.288805670972e+01 -2.651101292545e-01 0.0 
-2.651101292545e-01 -1.421800543965e+02 0.0 
0.0 0.0 -5.812043333186e+01 
-2.159588545027e+01 -2.057299472796e+00 0.0 
-2.057299472796e+00 -5.446048153057e+01 0.0 
0.0 0.0 -2.241691009425e+01 
-2.820206507646e+01 -2.263901368809e+00 0.0 
-2.263901368809e+00 -7.424318418310e+01 0.0 
0.0 0.0 -3.033357477787e+01 
-4.273880239477e+01 -1.692114500987e+00 0.0 
-1.692114500987e+00 -1.218430710943e+02 0.0 
0.0 0.0 -4.897456204672e+01 
-5.248103192714e+01 -1.601442136910e+00 0.0 
-1.601442136910e+00 -1.460307690734e+02 0.0 
0.0 0.0 -5.915354030016e+01 
-6.969636500067e+01 2.459965784462e+00 0.0 
2.459965784462e+00 -1.966166886785e+02 0.0 
0.0 0.0 -7.949391610376e+01 
-7.200099229315e+01 2.140232537927e+00 0.0 
2.140232537927e+00 -1.970385822053e+02 0.0 
0.0 0.0 -8.031187234952e+01 
-3.176626242200e+01 -1.582370689286e+00 0.0 
-1.582370689286e+00 -8.391726409513e+01 0.0 
0.0 0.0 -3.430505795514e+01 
-2.823183419485e+01 -8.994608614172e-01 0.0 
-8.994608614172e-01 -7.454280355788e+01 0.0 
0.0 0.0 -3.043239132582e+01 
-7.792810101893e+01 3.470699892098e+00 0.0 
3.470699892098e+00 -1.570932841100e+02 0.0 
0.0 0.0 -7.010641553867e+01 
-4.575723589811e+01 -4.654972513643e-01 0.0 
-4.654972513643e-01 -1.225007901665e+02 0.0 
0.0 0.0 -5.007740781939e+01 
-1.174239652365e+02 6.159404860776e+00 0.0 
6.159404860776e+00 -2.994854510166e+02 0.0 
0.0 0.0 -1.246728248759e+02 
-1.111834190611e+02 1.570215061728e+01 0.0 
1.570215061728e+01 -2.551479812983e+02 0.0 
0.0 0.0 -1.094994201078e+02 
-8.558999386013e+01 8.529272884974e+00 0.0 
8.529272884974e+00 -1.677759123188e+02 0.0 
0.0 0.0 -7.560977185367e+01 
-1.033526038601e+02 3.832006783167e+00 0.0 
3.832006783167e+00 -2.272849899736e+02 0.0 
0.0 0.0 -9.879127815013e+01 
-1.183514002459e+02 1.553777523320e+01 0.0 
1.553777523320e+01 -2.685218928402e+02 0.0 
0.0 0.0 -1.156619879258e+02 
-6.892501000404e+01 1.168375172549e+01 0.0 
1.168375172549e+01 -1.885051467290e+02 0.0 
0.0 0.0 -7.682904701990e+01 
-1.034978061049e+02 1.534706146446e+01 0.0 
1.534706146446e+01 -2.356686818274e+02 0.0 
0.0 0.0 -1.013499463797e+02 
-3.514241586603e+01 -1.444026938787e+00 0.0 
-1.444026938787e+00 -9.503780007771e+01 0.0 
0.0 0.0 -3.865406478312e+01 
-7.225712661227e+01 1.369424224012e+00 0.0 
1.369424224012e+00 -1.957298198990e+02 0.0 
0.0 0.0 -7.999608395338e+01 
-6.079368862068e+01 1.325274785437e+01 0.0 
1.325274785437e+01 -1.645467489255e+02 0.0 
0.0 0.0 -6.720213126384e+01 
-3.571636921475e+01 7.245638996358e-02 0.0 
7.245638996358e-02 -1.061560985173e+02 0.0 
0.0 0.0 -4.216174031961e+01 
-2.952239350049e+01 -1.755131188475e+00 0.0 
-1.755131188475e+00 -7.592065754810e+01 0.0 
0.0 0.0 -3.123291531458e+01 
-5.967527294252e+01 -1.326770688814e+00 0.0 
-1.326770688814e+00 -1.632426458248e+02 0.0 
0.0 0.0 -6.647537563019e+01 
-6.799380440111e+01 2.231507216994e+00 0.0 
2.231507216994e+00 -1.881029585075e+02 0.0 
0.0 0.0 -7.642902887257e+01 
-7.147475372599e+01 3.295240701371e+00 0.0 
3.295240701371e+00 -1.975610402782e+02 0.0 
0.0 0.0 -8.031073820124e+01 
-4.822942325424e+01 -1.637570642182e+00 0.0 
-1.637570642182e+00 -1.304526425331e+02 0.0 
0.0 0.0 -5.320461973621e+01 
-7.810201457706e+01 1.941618036220e+00 0.0 
1.941618036220e+00 -2.148274926172e+02 0.0 
0.0 0.0 -8.747885215827e+01 
-6.736636326711e+01 3.551471142455e+00 0.0 
3.551471142455e+00 -1.883216885036e+02 0.0 
0.0 0.0 -7.630641553123e+01 
-6.904683071950e+01 4.174229975350e+00 0.0 
4.174229975350e+00 -1.962678096645e+02 0.0 
0.0 0.0 -7.919439211520e+01 
-5.387928728869e+01 -4.339625750536e-01 0.0 
-4.339625750536e-01 -1.468722216542e+02 0.0 
0.0 0.0 -5.982545268286e+01 
-1.031405660488e+02 1.209040187090e+01 0.0 
1.209040187090e+01 -2.655531436358e+02 0.0 
0.0 0.0 -1.102081129054e+02 
-8.946533550371e+01 3.409244925133e+00 0.0 
3.409244925133e+00 -1.895592850924e+02 0.0 
0.0 0.0 -8.330738617883e+01 
-6.491847879597e+01 4.764399219849e+00 0.0 
4.764399219849e+00 -1.866872138261e+02 0.0 
0.0 0.0 -7.508170778661e+01 
-1.271084068823e+02 6.907781235763e+00 0.0 
6.907781235763e+00 -3.182037442890e+02 0.0 
0.0 0.0 -1.331936453514e+02 
-3.806914541797e+01 -8.776099230669e-01 0.0 
-8.776099230669e-01 -1.054822568961e+02 0.0 
0.0 0.0 -4.266542069421e+01 
-1.370284428025e+02 9.469413590563e+00 0.0 
9.469413590563e+00 -3.367569640257e+02 0.0 
0.0 0.0 -1.417356220485e+02 
-7.386473014884e+01 2.157697288323e+00 0.0 
2.157697288323e+00 -2.057135381622e+02 0.0 
0.0 0.0 -8.347348049331e+01 
-1.222595285949e+02 1.542266968791e+01 0.0 
1.542266968791e+01 -2.773451058878e+02 0.0 
0.0 0.0 -1.194813903448e+02 
-8.964954253506e+01 1.442896392535e+01 0.0 
1.442896392535e+01 -1.849266301690e+02 0.0 
0.0 0.0 -8.197285181123e+01 
-3.661854440652e+01 -2.218403461321e+00 0.0 
-2.218403461321e+00 -1.027834609283e+02 0.0 
0.0 0.0 -4.142060160044e+01 
-8.967963520637e+01 1.004837725412e+01 0.0 
1.004837725412e+01 -1.784306462366e+02 0.0 
0.0 0.0 -8.003308443290e+01 
-1.076248192187e+02 5.978541198285e+00 0.0 
5.978541198285e+00 -2.361114933059e+02 0.0 
0.0 0.0 -1.027208937574e+02 
-7.754295702949e+01 3.293576357045e+00 0.0 
3.293576357045e+00 -2.150881953867e+02 0.0 
0.0 0.0 -8.738934572486e+01 
-4.553529340410e+01 1.586568711581e+01 0.0 
1.586568711581e+01 -1.200348022024e+02 0.0 
0.0 0.0 -4.927102868195e+01 
-9.362151405241e+01 1.153029574639e+01 0.0 
1.153029574639e+01 -1.895202236496e+02 0.0 
0.0 0.0 -8.454252131061e+01 
-6.793379920034e+01 1.584263263466e+01 0.0 
1.584263263466e+01 -1.528805978378e+02 0.0 
0.0 0.0 -6.584431911144e+01 
-3.076714582731e+01 -2.598874587994e+00 0.0 
-2.598874587994e+00 -8.325692423761e+01 0.0 
0.0 0.0 -3.380722101948e+01 
-1.176881127946e+02 5.118279986810e+00 0.0 
5.118279986810e+00 -2.680739155856e+02 0.0 
0.0 0.0 -1.153286085141e+02 
-2.778935564183e+01 -2.716676064471e+00 0.0 
-2.716676064471e+00 -7.277581980744e+01 0.0 
0.0 0.0 -2.976955263478e+01 
-1.308152315136e+02 1.621980114449e+01 0.0 
1.621980114449e+01 -3.173791656442e+02 0.0 
0.0 0.0 -1.340583191473e+02 
-1.067725367400e+02 1.819654730534e+00 0.0 
1.819654730534e+00 -2.409701708434e+02 0.0 
0.0 0.0 -1.039228122750e+02 
-1.078486670113e+02 1.154508009433e+01 0.0 
1.154508009433e+01 -2.763860254141e+02 0.0 
0.0 0.0 -1.148704077276e+02 
-7.605751012115e+01 3.985146089863e-01 0.0 
3.985146089863e-01 -1.595518310186e+02 0.0 
0.0 0.0 -7.028280234193e+01 
-1.011072323855e+02 4.833285557989e+00 0.0 
4.833285557989e+00 -2.188862892516e+02 0.0 
0.0 0.0 -9.559805649112e+01 
-7.076551639322e+01 4.842174017779e+00 0.0 
4.842174017779e+00 -1.971505796468e+02 0.0 
0.0 0.0 -7.997482881202e+01 
-8.130553739351e+01 1.140102504067e+01 0.0 
1.140102504067e+01 -2.178517736363e+02 0.0 
0.0 0.0 -8.934719330895e+01 
-1.106266584850e+02 4.500211138019e+00 0.0 
4.500211138019e+00 -2.473547580616e+02 0.0 
0.0 0.0 -1.069944249640e+02 
-1.130310597151e+02 3.704813104036e+00 0.0 
3.704813104036e+00 -2.895721681664e+02 0.0 
0.0 0.0 -1.203809683644e+02 
-9.359360154803e+01 4.121099867246e+00 0.0 
4.121099867246e+00 -1.988739831265e+02 0.0 
0.0 0.0 -8.734027540235e+01 
-1.025639099501e+02 7.322630888982e+00 0.0 
7.322630888982e+00 -2.696300425379e+02 0.0 
0.0 0.0 -1.112581857464e+02 
-3.363199254297e+01 -2.144359468713e+00 0.0 
-2.144359468713e+00 -9.424028547380e+01 0.0 
0.0 0.0 -3.796168340503e+01 
-9.770933074225e+01 4.954657065676e+00 0.0 
4.954657065676e+00 -2.082554582481e+02 0.0 
0.0 0.0 -9.138943669712e+01 
-1.343394634521e+02 1.941199709546e+01 0.0 
1.941199709546e+01 -3.113541921335e+02 0.0 
0.0 0.0 -1.333080966757e+02 
-1.374890965781e+02 7.577106692869e+00 0.0 
7.577106692869e+00 -3.376947134653e+02 0.0 
0.0 0.0 -1.421551430130e+02 
-7.068998707097e+01 2.188603161680e-01 0.0 
2.188603161680e-01 -1.948144515467e+02 0.0 
0.0 0.0 -7.925133158530e+01 
-7.727129231059e+01 2.252597508019e+00 0.0 
2.252597508019e+00 -1.603165730781e+02 0.0 
0.0 0.0 -7.087635961660e+01 
-7.202266820426e+01 3.205341533608e-01 0.0 
3.205341533608e-01 -1.489315200971e+02 0.0 
0.0 0.0 -6.588625649040e+01 
-7.558931403496e+01 3.122427851650e+00 0.0 
3.122427851650e+00 -2.066564500798e+02 0.0 
0.0 0.0 -8.427372923443e+01 
-1.083549282694e+02 3.988118052206e+00 0.0 
3.988118052206e+00 -2.804945270671e+02 0.0 
0.0 0.0 -1.162548366009e+02 
-1.128546527323e+02 5.030104855719e+00 0.0 
5.030104855719e+00 -2.901041478772e+02 0.0 
0.0 0.0 -1.204876401828e+02 
-2.564410720365e+01 -1.034923039519e+00 0.0 
-1.034923039519e+00 -6.576903304728e+01 0.0 
0.0 0.0 -2.702394207528e+01 
-3.593613816056e+01 6.910857928513e+00 0.0 
6.910857928513e+00 -1.113749493373e+02 0.0 
0.0 0.0 -4.379332624935e+01 
-6.852614772666e+01 6.257957352403e+00 0.0 
6.257957352403e+00 -1.949376010837e+02 0.0 
0.0 0.0 -7.863912464311e+01 
-6.660425959278e+01 5.322077984713e+00 0.0 
5.322077984713e+00 -1.875340243546e+02 0.0 
0.0 0.0 -7.584148518420e+01 
-6.645728872857e+01 1.572334600577e+01 0.0 
1.572334600577e+01 -1.618610529364e+02 0.0 
0.0 0.0 -6.809550249948e+01 
-1.153775674688e+02 6.009070650751e+00 0.0 
6.009070650751e+00 -2.586213896642e+02 0.0 
0.0 0.0 -1.117996871399e+02 
-1.128368183564e+02 1.039094835396e+01 0.0 
1.039094835396e+01 -2.477189020785e+02 0.0 
0.0 0.0 -1.077667161305e+02 
-1.077956379834e+02 3.501084233879e+00 0.0 
3.501084233879e+00 -2.415954362469e+02 0.0 
0.0 0.0 -1.044173222691e+02 
-5.729801885310e+01 1.617636299866e+01 0.0 
1.617636299866e+01 -1.095495480782e+02 0.0 
0.0 0.0 -4.965427007940e+01 
-1.005013486379e+02 5.078811083486e+00 0.0 
5.078811083486e+00 -2.159228411475e+02 0.0 
0.0 0.0 -9.452725693564e+01 
-1.096537301853e+02 5.247425068901e+00 0.0 
5.247425068901e+00 -2.813191676380e+02 0.0 
0.0 0.0 -1.168918693470e+02 
-1.103575476571e+02 3.374433363027e+00 0.0 
3.374433363027e+00 -2.487432230786e+02 0.0 
0.0 0.0 -1.073302312207e+02 
-9.427066218423e+01 5.051003258590e+00 0.0 
5.051003258590e+00 -1.976702652489e+02 0.0 
0.0 0.0 -8.718227822995e+01 
-7.600798584354e+01 2.111588753086e+00 0.0 
2.111588753086e+00 -2.058727496864e+02 0.0 
0.0 0.0 -8.416422065899e+01 
-6.442088388327e+01 7.062104137794e+00 0.0 
7.062104137794e+00 -1.848166644673e+02 0.0 
0.0 0.0 -7.437126450517e+01 
-9.596513356997e+01 3.077184343255e+00 0.0 
3.077184343255e+00 -2.071997240140e+02 0.0 
0.0 0.0 -9.054945727520e+01 
-1.083844576842e+02 5.512869572580e+00 0.0 
5.512869572580e+00 -2.389807634571e+02 0.0 
0.0 0.0 -1.038095663424e+02 
-9.572141298407e+01 2.221550170029e+00 0.0 
2.221550170029e+00 -2.086071660386e+02 0.0 
0.0 0.0 -9.089857370681e+01 
-9.202139551287e+01 2.286587040973e+00 0.0 
2.286587040973e+00 -1.978991449876e+02 0.0 
0.0 0.0 -8.657616215014e+01 
-1.272063730121e+02 5.352699171350e+00 0.0 
5.352699171350e+00 -3.181061271131e+02 0.0 
0.0 0.0 -1.331937500375e+02 
-1.260531583259e+02 1.646978630020e+01 0.0 
1.646978630020e+01 -3.059732644715e+02 0.0 
0.0 0.0 -1.292079268392e+02 
-1.223355549432e+02 5.744876760275e+00 0.0 
5.744876760275e+00 -3.088810662777e+02 0.0 
0.0 0.0 -1.289649863663e+02 
-9.515578610087e+01 2.339631825181e+00 0.0 
2.339631825181e+00 -2.517441284258e+02 0.0 
0.0 0.0 -1.036699743580e+02 
-5.221415396070e+01 6.264725813701e+00 0.0 
6.264725813701e+00 -8.995909794628e+01 0.0 
0.0 0.0 -4.225197557210e+01 
-1.122145060646e+02 1.282699982591e+01 0.0 
1.282699982591e+01 -2.839293515341e+02 0.0 
0.0 0.0 -1.184431572796e+02 
-9.391151436472e+01 5.356440799034e+00 0.0 
5.356440799034e+00 -1.957230564483e+02 0.0 
0.0 0.0 -8.649037124392e+01 
-4.111405532842e+01 -1.819342329961e+00 0.0 
-1.819342329961e+00 -1.107789263897e+02 0.0 
0.0 0.0 -4.516789451544e+01 
-7.004053576240e+01 6.821864534789e+00 0.0 
6.821864534789e+00 -1.957087104426e+02 0.0 
0.0 0.0 -7.932477386151e+01 
-8.078076973475e+01 6.352099360261e+00 0.0 
6.352099360261e+00 -2.228814810960e+02 0.0 
0.0 0.0 -9.069867524923e+01 
-8.978919061347e+01 1.203800601284e+01 0.0 
1.203800601284e+01 -2.360542503210e+02 0.0 
0.0 0.0 -9.735303228034e+01 
-3.455115495992e+01 1.997570888413e+00 0.0 
1.997570888413e+00 -1.056821509793e+02 0.0 
0.0 0.0 -4.166999178176e+01 
-6.585252274223e+01 7.517326532965e+00 0.0 
7.517326532965e+00 -1.855318106665e+02 0.0 
0.0 0.0 -7.501530002262e+01 
-9.853386325356e+01 1.268290641827e+01 0.0 
1.268290641827e+01 -2.544101552672e+02 0.0 
0.0 0.0 -1.054832055562e+02 
-6.540367251072e+01 9.742469623119e+00 0.0 
9.742469623119e+00 -1.230513159742e+02 0.0 
0.0 0.0 -5.613649654549e+01 
-7.853151637101e+01 9.223721754751e-01 0.0 
9.223721754751e-01 -2.138184289292e+02 0.0 
0.0 0.0 -8.730498359008e+01 
-8.645082029555e+01 4.219266988297e+00 0.0 
4.219266988297e+00 -1.775667233963e+02 0.0 
0.0 0.0 -7.880526310757e+01 
-5.919180416769e+01 -3.232075603091e-01 0.0 
-3.232075603091e-01 -1.190211788029e+02 0.0 
0.0 0.0 -5.306389489119e+01 
-2.098523215274e+01 1.371485892783e+01 0.0 
1.371485892783e+01 -1.715816096602e+01 0.0 
0.0 0.0 -1.104301793563e+01 
-9.222133115664e+01 3.702918966380e+00 0.0 
3.702918966380e+00 -2.436409619745e+02 0.0 
0.0 0.0 -1.003586879394e+02 
-1.114499298008e+02 9.875498161812e+00 0.0 
9.875498161812e+00 -2.861992044781e+02 0.0 
0.0 0.0 -1.188947402837e+02 
-1.158945189780e+02 9.823132535408e+00 0.0 
9.823132535408e+00 -2.569826893968e+02 0.0 
0.0 0.0 -1.114631625125e+02 
-7.632084370306e+01 9.230187268915e+00 0.0 
9.230187268915e+00 -2.102199794229e+02 0.0 
0.0 0.0 -8.556224693780e+01 
-8.668559711346e+01 1.630713649219e+00 0.0 
1.630713649219e+00 -2.327953203830e+02 0.0 
0.0 0.0 -9.544427524894e+01 
-8.575765059065e+01 3.409501724485e+00 0.0 
3.409501724485e+00 -1.789246509310e+02 0.0 
0.0 0.0 -7.900469045651e+01 
-2.053696083173e+01 1.414999997456e+01 0.0 
1.414999997456e+01 -1.806935871418e+01 0.0 
0.0 0.0 -1.118189586377e+01 
-1.067399624493e+02 1.042473946123e+01 0.0 
1.042473946123e+01 -2.756743261615e+02 0.0 
0.0 0.0 -1.143242865832e+02 
-8.566561693819e+01 1.064323560622e+01 0.0 
1.064323560622e+01 -2.289062389943e+02 0.0 
0.0 0.0 -9.397155677975e+01 
-7.064577465160e+01 1.185739839138e+01 0.0 
1.185739839138e+01 -1.322792937003e+02 0.0 
0.0 0.0 -6.047752050557e+01 
-1.141370214263e+02 6.281905644619e+00 0.0 
6.281905644619e+00 -2.909183629474e+02 0.0 
0.0 0.0 -1.211166153121e+02 
-3.777980096365e+01 9.266534376744e-02 0.0 
9.266534376744e-02 -1.070371845042e+02 0.0 
0.0 0.0 -4.304509564035e+01 
-1.187047099918e+02 7.401817443495e+00 0.0 
7.401817443495e+00 -3.002988204590e+02 0.0 
0.0 0.0 -1.253010591352e+02 
-1.319550579259e+02 8.077700885129e+00 0.0 
8.077700885129e+00 -3.274422877985e+02 0.0 
0.0 0.0 -1.374192037173e+02 
-1.021642335269e+02 1.100337174282e+01 0.0 
1.100337174282e+01 -2.649057489288e+02 0.0 
0.0 0.0 -1.097209947367e+02 
-9.713786678776e+01 4.036651986738e+00 0.0 
4.036651986738e+00 -2.095203878897e+02 0.0 
0.0 0.0 -9.159747640324e+01 
-1.114776502831e+02 1.767564580924e+01 0.0 
1.767564580924e+01 -2.619564145113e+02 0.0 
0.0 0.0 -1.116302194383e+02 
-1.332369312265e+02 9.484242536698e+00 0.0 
9.484242536698e+00 -3.282426492009e+02 0.0 
0.0 0.0 -1.380438741282e+02 
-1.897560445095e+01 1.310071672602e+01 0.0 
1.310071672602e+01 -1.811633891064e+01 0.0 
0.0 0.0 -1.072758300848e+01 
-9.005424086073e+01 4.153514438630e+00 0.0 
4.153514438630e+00 -1.882524911339e+02 0.0 
0.0 0.0 -8.309201959838e+01 
-1.254131869189e+02 1.759161421095e+01 0.0 
1.759161421095e+01 -3.005901633146e+02 0.0 
0.0 0.0 -1.274010050701e+02 
-9.953493763776e+01 2.977041848852e+00 0.0 
2.977041848852e+00 -2.179030547908e+02 0.0 
0.0 0.0 -9.483139772857e+01 
-9.332433809778e+01 1.039602902749e+01 0.0 
1.039602902749e+01 -2.465552991135e+02 0.0 
0.0 0.0 -1.015638911634e+02 
-6.936872622479e+01 9.151377129854e+00 0.0 
9.151377129854e+00 -1.928622076271e+02 0.0 
0.0 0.0 -7.826928015556e+01 
-8.700082064014e+01 2.278581888479e-01 0.0 
2.278581888479e-01 -2.298871091599e+02 0.0 
0.0 0.0 -9.466637894002e+01 
-2.248771163814e+01 1.406535331787e+00 0.0 
1.406535331787e+00 -6.071780205720e+01 0.0 
0.0 0.0 -2.456165410860e+01 
-1.031401170005e+02 2.813183142130e+00 0.0 
2.813183142130e+00 -2.286216808567e+02 0.0 
0.0 0.0 -9.912853935717e+01 
-4.444636727356e+01 -1.635810177995e+00 0.0 
-1.635810177995e+00 -1.194995455125e+02 0.0 
0.0 0.0 -4.878377383582e+01 
-2.005550098412e+01 1.103621835590e+01 0.0 
1.103621835590e+01 -1.778798721789e+01 0.0 
0.0 0.0 -1.095304646060e+01 
-1.074620535579e+02 1.754740047959e+01 0.0 
1.754740047959e+01 -2.490787912154e+02 0.0 
0.0 0.0 -1.065622534320e+02 
-1.106275242943e+02 2.446405341942e+00 0.0 
2.446405341942e+00 -2.506865757533e+02 0.0 
0.0 0.0 -1.079942300143e+02 
-3.511893590665e+01 -7.903288696740e-01 0.0 
-7.903288696740e-01 -9.698112101722e+01 0.0 
0.0 0.0 -3.923001707716e+01 
-7.968660619375e+01 1.733353459842e+01 0.0 
1.733353459842e+01 -1.776450739247e+02 0.0 
0.0 0.0 -7.679950403552e+01 
-9.242750753169e+01 3.110356429919e+00 0.0 
3.110356429919e+00 -1.965668527585e+02 0.0 
0.0 0.0 -8.629830808706e+01 
-8.414943009612e+01 2.105096495090e+00 0.0 
2.105096495090e+00 -2.235884689436e+02 0.0 
0.0 0.0 -9.192136971191e+01 
-3.685149197779e+01 1.951917408590e+00 0.0 
1.951917408590e+00 -1.066459720826e+02 0.0 
0.0 0.0 -4.264923921812e+01 
-4.163636181103e+01 1.392296971319e+01 0.0 
1.392296971319e+01 -1.156863996796e+02 0.0 
0.0 0.0 -4.679682844719e+01 
-2.840840689567e+01 -2.382652288240e+00 0.0 
-2.382652288240e+00 -7.529957245340e+01 0.0 
0.0 0.0 -3.071239380472e+01 
-3.335315836904e+01 -1.179184404328e+00 0.0 
-1.179184404328e+00 -9.616094908835e+01 0.0 
0.0 0.0 -3.845423223722e+01 
-3.086038708742e+01 -1.946755017873e+00 0.0 
-1.946755017873e+00 -8.611402361417e+01 0.0 
0.0 0.0 -3.469232321048e+01 
-8.470419902383e+01 9.815125312157e+00 0.0 
9.815125312157e+00 -2.283218971958e+02 0.0 
0.0 0.0 -9.350782886588e+01 
-1.287730074272e+02 9.327738916727e+00 0.0 
9.327738916727e+00 -2.951599817893e+02 0.0 
0.0 0.0 -1.267798967650e+02 
-1.972321017530e+01 5.009377593568e+00 0.0 
5.009377593568e+00 -2.287571020610e+01 0.0 
0.0 0.0 -1.237967611442e+01 
-1.321417139093e+02 4.961784301767e+00 0.0 
4.961784301767e+00 -3.272126561455e+02 0.0 
0.0 0.0 -1.374063110164e+02 
-5.649887792418e+01 9.032394969304e+00 0.0 
9.032394969304e+00 -1.637580806187e+02 0.0 
0.0 0.0 -6.567708756288e+01 
-9.083632739646e+01 5.162146603817e+00 0.0 
5.162146603817e+00 -1.872810875585e+02 0.0 
0.0 0.0 -8.303522448648e+01 
-2.649434959449e+01 2.147024806826e+00 0.0 
2.147024806826e+00 -7.859913282574e+01 0.0 
0.0 0.0 -3.112804472607e+01 
-1.380818826271e+02 1.070209077330e+01 0.0 
1.070209077330e+01 -3.371071568084e+02 0.0 
0.0 0.0 -1.421567118306e+02 
-3.257066441299e+01 -1.509936376285e+00 0.0 
-1.509936376285e+00 -8.690296938199e+01 0.0 
0.0 0.0 -3.544209013849e+01 
-5.204457445733e+01 -1.463940974490e+00 0.0 
-1.463940974490e+00 -1.398211306449e+02 0.0 
0.0 0.0 -5.715971153068e+01 
-1.066554405557e+02 1.218495809836e+01 0.0 
1.218495809836e+01 -2.722710893098e+02 0.0 
0.0 0.0 -1.132779589596e+02 
-7.495508699777e+01 4.482221661356e+00 0.0 
4.482221661356e+00 -2.065638285131e+02 0.0 
0.0 0.0 -8.405567465327e+01 
-1.211397750787e+02 1.670941194413e+01 0.0 
1.670941194413e+01 -2.940424177736e+02 0.0 
0.0 0.0 -1.241546578557e+02 
-4.670654762353e+01 1.805370118297e+01 0.0 
1.805370118297e+01 -1.109670725093e+02 0.0 
0.0 0.0 -4.690208603984e+01 
-9.922189686782e+01 7.267399903572e+00 0.0 
7.267399903572e+00 -2.069796772929e+02 0.0 
0.0 0.0 -9.146047224821e+01 
-1.298334074469e+02 1.472665375907e+01 0.0 
1.472665375907e+01 -3.166360147080e+02 0.0 
0.0 0.0 -1.335408266465e+02 
-8.833379305753e+01 2.279890822252e+00 0.0 
2.279890822252e+00 -1.872234343073e+02 0.0 
0.0 0.0 -8.226716820946e+01 
-1.175135309351e+02 1.197362383953e+01 0.0 
1.197362383953e+01 -2.581311649529e+02 0.0 
0.0 0.0 -1.122934087664e+02 
-1.017162156890e+02 5.870854066050e+00 0.0 
5.870854066050e+00 -2.176900572328e+02 0.0 
0.0 0.0 -9.542188187652e+01 
-1.056673019671e+02 6.872034036405e+00 0.0 
6.872034036405e+00 -2.273844904421e+02 0.0 
0.0 0.0 -9.951553772276e+01 
-2.749709509006e+01 7.613469292054e+00 0.0 
7.613469292054e+00 -8.367881927608e+01 0.0 
0.0 0.0 -3.295277430984e+01 
-1.271763084491e+02 4.014023516604e+00 0.0 
4.014023516604e+00 -3.172979783072e+02 0.0 
0.0 0.0 -1.329422860269e+02 
-9.651671630403e+01 4.060184935620e+00 0.0 
4.060184935620e+00 -2.061761198915e+02 0.0 
0.0 0.0 -9.040785085865e+01 
-7.249501922405e+01 1.244547302147e+01 0.0 
1.244547302147e+01 -1.942694630306e+02 0.0 
0.0 0.0 -7.962934467641e+01 
-2.807276398352e+01 2.973041764614e+00 0.0 
2.973041764614e+00 -4.058361135465e+01 0.0 
0.0 0.0 -2.019691260145e+01 
-1.356549884504e+02 1.738167253942e+01 0.0 
1.738167253942e+01 -3.246570162988e+02 0.0 
0.0 0.0 -1.376936014248e+02 
-3.349665823193e+01 4.868953038196e+00 0.0 
4.868953038196e+00 -1.042015355415e+02 0.0 
0.0 0.0 -4.090945813202e+01 
-4.910729991358e+01 -1.550012692507e-01 0.0 
-1.550012692507e-01 -1.311322414646e+02 0.0 
0.0 0.0 -5.367186241345e+01 
-1.157220081461e+02 1.424855077085e+01 0.0 
1.424855077085e+01 -2.864749021479e+02 0.0 
0.0 0.0 -1.202590730882e+02 
-3.025825429202e+01 3.627536965102e-01 0.0 
3.627536965102e-01 -8.026519164118e+01 0.0 
0.0 0.0 -3.275703377996e+01 
-7.374299816703e+01 1.696129622236e+01 0.0 
1.696129622236e+01 -1.802741513135e+02 0.0 
0.0 0.0 -7.580514484415e+01 
-1.112040735568e+02 1.166679297023e+01 0.0 
1.166679297023e+01 -2.832782430630e+02 0.0 
0.0 0.0 -1.179446949860e+02 
-1.122835938967e+02 7.534962550828e+00 0.0 
7.534962550828e+00 -2.469177750767e+02 0.0 
0.0 0.0 -1.073604106920e+02 
-1.160965430574e+02 8.708935726352e+00 0.0 
8.708935726352e+00 -2.573073901921e+02 0.0 
0.0 0.0 -1.116211799749e+02 
-1.075038258787e+02 1.335698595674e+01 0.0 
1.335698595674e+01 -2.728753047897e+02 0.0 
0.0 0.0 -1.137137392005e+02 
-1.050106623510e+02 5.716643803222e+00 0.0 
5.716643803222e+00 -2.283121416683e+02 0.0 
0.0 0.0 -9.959684120579e+01 
-6.032369478741e+01 1.067615610556e+01 0.0 
1.067615610556e+01 -1.703325408290e+02 0.0 
0.0 0.0 -6.879687068493e+01 
-1.079572616594e+02 1.723042017977e+01 0.0 
1.723042017977e+01 -2.429029970427e+02 0.0 
0.0 0.0 -1.048580776106e+02 
-3.719322188609e+01 1.983403441780e+00 0.0 
1.983403441780e+00 -5.996083673478e+01 0.0 
0.0 0.0 -2.874621758626e+01 
-1.168700981924e+02 1.311685444376e+01 0.0 
1.311685444376e+01 -2.607792888381e+02 0.0 
0.0 0.0 -1.128948161091e+02 
-4.586093611678e+01 1.517196535911e+00 0.0 
1.517196535911e+00 -7.934708118718e+01 0.0 
0.0 0.0 -3.716240519119e+01 
-5.046452638477e+01 1.467576908220e+00 0.0 
1.467576908220e+00 -8.896924868861e+01 0.0 
0.0 0.0 -4.143013252201e+01 
-7.223002715386e+01 1.012361427174e+01 0.0 
1.012361427174e+01 -1.993367994527e+02 0.0 
0.0 0.0 -8.107004798196e+01 
-5.424123648200e+01 1.228790296852e+00 0.0 
1.228790296852e+00 -9.890552541386e+01 0.0 
0.0 0.0 -4.554402856876e+01 
-8.561599121240e+01 1.631311636856e+01 0.0 
1.631311636856e+01 -2.117481128141e+02 0.0 
0.0 0.0 -8.880923120796e+01 
-6.495780515192e+01 1.520394908847e+01 0.0 
1.520394908847e+01 -1.699751830327e+02 0.0 
0.0 0.0 -7.007989645539e+01 
-7.360513363444e+01 8.370256517515e+00 0.0 
8.370256517515e+00 -2.034182232807e+02 0.0 
0.0 0.0 -8.270700707455e+01 
-3.229830061428e+01 4.346373321659e-01 0.0 
4.346373321659e-01 -9.652952237253e+01 0.0 
0.0 0.0 -3.824834689604e+01 
-6.820374886945e+01 8.623011137502e+00 0.0 
8.623011137502e+00 -1.922535689201e+02 0.0 
0.0 0.0 -7.773719533685e+01 
-1.068350704761e+02 3.654112154386e+00 0.0 
3.654112154386e+00 -2.380047401140e+02 0.0 
0.0 0.0 -1.030519431770e+02 
-1.173731133169e+02 1.149880825600e+01 0.0 
1.149880825600e+01 -2.607393627342e+02 0.0 
0.0 0.0 -1.130337428153e+02 
-1.177037027070e+02 3.419791346795e+00 0.0 
3.419791346795e+00 -2.985202199032e+02 0.0 
0.0 0.0 -1.244671767831e+02 
-1.249040547924e+02 1.497841789238e+01 0.0 
1.497841789238e+01 -3.051680913931e+02 0.0 
0.0 0.0 -1.286216438557e+02 
-7.323360371460e+01 3.681324145414e+00 0.0 
3.681324145414e+00 -2.056555515473e+02 0.0 
0.0 0.0 -8.326674657858e+01 
-1.038301870470e+02 4.921206481759e+00 0.0 
4.921206481759e+00 -2.262660645338e+02 0.0 
0.0 0.0 -9.862887547423e+01 
-7.230841701318e+01 7.756324007622e+00 0.0 
7.756324007622e+00 -2.027370142620e+02 0.0 
0.0 0.0 -8.211362938255e+01 
-1.319797241694e+02 3.631740890557e+00 0.0 
3.631740890557e+00 -3.261234046318e+02 0.0 
0.0 0.0 -1.370309386404e+02 
-9.988884350055e+01 3.984645167785e+00 0.0 
3.984645167785e+00 -2.165945748836e+02 0.0 
0.0 0.0 -9.454502551525e+01 
-1.024567598643e+02 7.075100149105e+00 0.0 
7.075100149105e+00 -2.171098640268e+02 0.0 
0.0 0.0 -9.546998716734e+01 
-9.774109790694e+01 9.739223953861e+00 0.0 
9.739223953861e+00 -2.572717771735e+02 0.0 
0.0 0.0 -1.061038625241e+02 
-6.420707640131e+01 9.601958806306e+00 0.0 
9.601958806306e+00 -1.814732512659e+02 0.0 
0.0 0.0 -7.330409830016e+01 
-1.155214674411e+02 1.753737131703e+01 0.0 
1.753737131703e+01 -2.621621564991e+02 0.0 
0.0 0.0 -1.129050871821e+02 
-8.887089006344e+01 1.176905578513e+01 0.0 
1.176905578513e+01 -1.840805055046e+02 0.0 
0.0 0.0 -8.148541867040e+01 
-3.433858263408e+01 5.984193859978e-01 0.0 
5.984193859978e-01 -9.743073345009e+01 0.0 
0.0 0.0 -3.913079482525e+01 
-3.561264229674e+01 4.490973858972e+00 0.0 
4.490973858972e+00 -1.050105776434e+02 0.0 
0.0 0.0 -4.178696598203e+01 
-5.052452378540e+01 1.599130136584e+01 0.0 
1.599130136584e+01 -1.251228794557e+02 0.0 
0.0 0.0 -5.229422097233e+01 
-8.032102782715e+01 1.512994448869e+01 0.0 
1.512994448869e+01 -1.774737424157e+02 0.0 
0.0 0.0 -7.693843107287e+01 
-1.367869121135e+02 3.176268045992e+00 0.0 
3.176268045992e+00 -3.350583258674e+02 0.0 
0.0 0.0 -1.411535713943e+02 
-9.838512784986e+01 6.031646039884e+00 0.0 
6.031646039884e+00 -2.073065329586e+02 0.0 
0.0 0.0 -9.130749824255e+01 
-6.521470154353e+01 1.004900606718e+01 0.0 
1.004900606718e+01 -1.819982348628e+02 0.0 
0.0 0.0 -7.376388092191e+01 
-9.216053542434e+01 1.683207331852e+01 0.0 
1.683207331852e+01 -2.033614488456e+02 0.0 
0.0 0.0 -8.825659528097e+01 
-1.160048384043e+02 1.116101513874e+01 0.0 
1.116101513874e+01 -2.942033344920e+02 0.0 
0.0 0.0 -1.226624518689e+02 
-1.045496820059e+02 4.660570031473e+00 0.0 
4.660570031473e+00 -2.295452092174e+02 0.0 
0.0 0.0 -9.982846736699e+01 
-1.190899475904e+02 1.739312567880e+01 0.0 
1.739312567880e+01 -2.691222365596e+02 0.0 
0.0 0.0 -1.160636552450e+02 
-8.538532504258e+01 3.156599628276e+00 0.0 
3.156599628276e+00 -1.758878107931e+02 0.0 
0.0 0.0 -7.798194075072e+01 
-1.218200445486e+02 8.990889711260e+00 0.0 
8.990889711260e+00 -3.077369072430e+02 0.0 
0.0 0.0 -1.284670855375e+02 
-7.736933449502e+01 9.914852569304e+00 0.0 
9.914852569304e+00 -2.108121150899e+02 0.0 
0.0 0.0 -8.605443487546e+01 
-1.170941927614e+02 1.233629872471e+01 0.0 
1.233629872471e+01 -2.948234076204e+02 0.0 
0.0 0.0 -1.231752801145e+02 
-7.446762510853e+01 1.554960774956e+01 0.0 
1.554960774956e+01 -1.802793380309e+02 0.0 
0.0 0.0 -7.602408894182e+01 
-1.119426691926e+02 6.318702988573e+00 0.0 
6.318702988573e+00 -2.481823662528e+02 0.0 
0.0 0.0 -1.076375106336e+02 
-1.238057217337e+02 1.770437879360e+01 0.0 
1.770437879360e+01 -2.782061743061e+02 0.0 
0.0 0.0 -1.202035688119e+02 
-8.899388701288e+01 9.079905508360e+00 0.0 
9.079905508360e+00 -2.389594836364e+02 0.0 
0.0 0.0 -9.798601119478e+01 
-3.132494615429e+01 2.932605149286e+00 0.0 
2.932605149286e+00 -9.630591905523e+01 0.0 
0.0 0.0 -3.788925956285e+01 
-1.148843873710e+02 1.599122554168e+01 0.0 
1.599122554168e+01 -2.739035807676e+02 0.0 
0.0 0.0 -1.162363904416e+02 
-8.188787501148e+01 1.687909252670e+01 0.0 
1.687909252670e+01 -1.988130442533e+02 0.0 
0.0 0.0 -8.381027577944e+01 
-6.114348306874e+01 1.107183287811e+01 0.0 
1.107183287811e+01 -1.707681740353e+02 0.0 
0.0 0.0 -6.917349713120e+01 
-9.426104008218e+01 1.135700325220e+01 0.0 
1.135700325220e+01 -2.471582007296e+02 0.0 
0.0 0.0 -1.020257722435e+02 
-1.184361225172e+02 9.005174099779e+00 0.0 
9.005174099779e+00 -2.997142153989e+02 0.0 
0.0 0.0 -1.250451013748e+02 
-3.355081365116e+01 2.606337053728e+00 0.0 
2.606337053728e+00 -9.717220485949e+01 0.0 
0.0 0.0 -3.881690555320e+01 
-8.051390281269e+01 8.430968178920e+00 0.0 
8.430968178920e+00 -2.207829582781e+02 0.0 
0.0 0.0 -8.998905832723e+01 
-9.196403661405e+01 8.997724052967e+00 0.0 
8.997724052967e+00 -1.883295416432e+02 0.0 
0.0 0.0 -8.368807347719e+01 
-1.374564384421e+02 4.608549701988e+00 0.0 
4.608549701988e+00 -3.356295388426e+02 0.0 
0.0 0.0 -1.415257931854e+02 
-9.595237878608e+01 1.045715823037e+01 0.0 
1.045715823037e+01 -1.998681844058e+02 0.0 
0.0 0.0 -8.834616895755e+01 
-1.109572067227e+02 1.590233651880e+01 0.0 
1.590233651880e+01 -2.613662794024e+02 0.0 
0.0 0.0 -1.112970458375e+02 
-8.780574341679e+01 7.514125762736e+00 0.0 
7.514125762736e+00 -1.771563225087e+02 0.0 
0.0 0.0 -7.908861977765e+01 
-7.883147995593e+01 4.538712604244e+00 0.0 
4.538712604244e+00 -1.558868932596e+02 0.0 
0.0 0.0 -7.001551196465e+01 
-9.261759357110e+01 1.301684910961e+01 0.0 
1.301684910961e+01 -1.967782065001e+02 0.0 
0.0 0.0 -8.641874002136e+01 
-1.203735861873e+02 1.388523684378e+01 0.0 
1.388523684378e+01 -2.980623731863e+02 0.0 
0.0 0.0 -1.251307878121e+02 
-1.234968058451e+02 5.685477469847e+00 0.0 
5.685477469847e+00 -3.091698680385e+02 0.0 
0.0 0.0 -1.294000021651e+02 
-9.311478032115e+01 4.161639388971e+00 0.0 
4.161639388971e+00 -1.959012548823e+02 0.0 
0.0 0.0 -8.630481056102e+01 
-1.145827513194e+02 6.912307272813e+00 0.0 
6.912307272813e+00 -2.563411282232e+02 0.0 
0.0 0.0 -1.108771638628e+02 
-8.352844237355e+01 6.026582717985e+00 0.0 
6.026582717985e+00 -1.664113180900e+02 0.0 
0.0 0.0 -7.458192813906e+01 
-5.056418131209e+01 8.471488736101e+00 0.0 
8.471488736101e+00 -1.467942983033e+02 0.0 
0.0 0.0 -5.880754388462e+01 
-1.198022921552e+02 1.816765299987e+01 0.0 
1.816765299987e+01 -2.811781531372e+02 0.0 
0.0 0.0 -1.198941335877e+02 
-1.118242721495e+02 5.334380736336e+00 0.0 
5.334380736336e+00 -2.496915300161e+02 0.0 
0.0 0.0 -1.080547406497e+02 
-7.324434107330e+01 1.436486171317e+01 0.0 
1.436486171317e+01 -1.877939651634e+02 0.0 
0.0 0.0 -7.791149187099e+01 
-7.785280532814e+01 1.503174649192e+01 0.0 
1.503174649192e+01 -1.932807753244e+02 0.0 
0.0 0.0 -8.094007419576e+01 
-5.769139832438e+01 9.300932893628e+00 0.0 
9.300932893628e+00 -1.643233847903e+02 0.0 
0.0 0.0 -6.620443493441e+01 
-9.719461131004e+01 5.208798937262e+00 0.0 
5.208798937262e+00 -2.057275975669e+02 0.0 
0.0 0.0 -9.047666266310e+01 
-5.662335314422e+01 1.556767696166e+01 0.0 
1.556767696166e+01 -1.189089977303e+02 0.0 
0.0 0.0 -5.225970526235e+01 
-8.958839577212e+01 1.444446414505e+01 0.0 
1.444446414505e+01 -2.240798766276e+02 0.0 
0.0 0.0 -9.370048171991e+01 
-5.571152577592e+01 1.812940623156e+01 0.0 
1.812940623156e+01 -1.190203060869e+02 0.0 
0.0 0.0 -5.201954955884e+01 
-1.111987396109e+02 1.326551458240e+01 0.0 
1.326551458240e+01 -2.794499936767e+02 0.0 
0.0 0.0 -1.167946199863e+02 
-1.279419322593e+02 1.858280562244e+01 0.0 
1.858280562244e+01 -2.996351310837e+02 0.0 
0.0 0.0 -1.278731190029e+02 
-6.173003282476e+01 8.347336293705e+00 0.0 
8.347336293705e+00 -1.750774533149e+02 0.0 
0.0 0.0 -7.064224584189e+01 
-2.467126039098e+01 9.407840409511e-01 0.0 
9.407840409511e-01 -6.153402000022e+01 0.0 
0.0 0.0 -2.546158411736e+01 
-1.151781688145e+02 8.377521817892e+00 0.0 
8.377521817892e+00 -2.565596589505e+02 0.0 
0.0 0.0 -1.111213483295e+02 
-6.119425412833e+01 1.438057048254e+01 0.0 
1.438057048254e+01 -1.237570502011e+02 0.0 
0.0 0.0 -5.508539129882e+01 
-7.692660554275e+01 4.987790511027e+00 0.0 
4.987790511027e+00 -2.144246121239e+02 0.0 
0.0 0.0 -8.700536529999e+01 
-1.234366016279e+02 1.659507544874e+01 0.0 
1.659507544874e+01 -2.932092901146e+02 0.0 
0.0 0.0 -1.245937675228e+02 
-9.505836489397e+01 6.166811505940e+00 0.0 
6.166811505940e+00 -1.970696150466e+02 0.0 
0.0 0.0 -8.723839398216e+01 
-1.188193219333e+02 5.985642818666e+00 0.0 
5.985642818666e+00 -3.001104960605e+02 0.0 
0.0 0.0 -1.252789453981e+02 
-6.094126766306e+01 1.382610287743e+01 0.0 
1.382610287743e+01 -1.647327614166e+02 0.0 
0.0 0.0 -6.730220872389e+01 
-2.110959034453e+01 7.152942426977e-03 0.0 
7.152942426977e-03 -5.160194924387e+01 0.0 
0.0 0.0 -2.141346187652e+01 
-1.422541231274e+02 4.233099976336e+00 0.0 
4.233099976336e+00 -3.454431437489e+02 0.0 
0.0 0.0 -1.459091800629e+02 
-8.366572768949e+01 1.546265979174e+01 0.0 
1.546265979174e+01 -1.910150259554e+02 0.0 
0.0 0.0 -8.200422609346e+01 
-1.027990200620e+02 1.552689867626e+01 0.0 
1.552689867626e+01 -2.557975465980e+02 0.0 
0.0 0.0 -1.071789699980e+02 
-1.189691451270e+02 1.633799796232e+01 0.0 
1.633799796232e+01 -2.748986337201e+02 0.0 
0.0 0.0 -1.177603336541e+02 
-1.846695320551e+01 5.238682321508e-03 0.0 
5.238682321508e-03 -3.446267136361e+01 0.0 
0.0 0.0 -1.547888737073e+01 
-1.176322352967e+02 4.685646616431e+00 0.0 
4.685646616431e+00 -2.993195274935e+02 0.0 
0.0 0.0 -1.246855288371e+02 
-3.925638023800e+01 1.218252749236e+01 0.0 
1.218252749236e+01 -1.117824376939e+02 0.0 
0.0 0.0 -4.491164537958e+01 
-8.749255360248e+01 5.197643835493e+00 0.0 
5.197643835493e+00 -1.771153065822e+02 0.0 
0.0 0.0 -7.898235805541e+01 
-9.237212894180e+01 2.781461741763e+00 0.0 
2.781461741763e+00 -2.425714278817e+02 0.0 
0.0 0.0 -1.000830670470e+02 
-6.040482397355e+01 7.981195231200e+00 0.0 
7.981195231200e+00 -1.744300067119e+02 0.0 
0.0 0.0 -7.005044920564e+01 
-1.327567246436e+02 4.971534962525e+00 0.0 
4.971534962525e+00 -3.267485224762e+02 0.0 
0.0 0.0 -1.374515741359e+02 
-8.595740219130e+01 1.499314608874e+01 0.0 
1.499314608874e+01 -2.116050836022e+02 0.0 
0.0 0.0 -8.886874573804e+01 
-5.295683434399e+01 7.284370766651e+00 0.0 
7.284370766651e+00 -1.567493358268e+02 0.0 
0.0 0.0 -6.251185105125e+01 
-8.766386943456e+01 1.720881969177e+01 0.0 
1.720881969177e+01 -1.970899040189e+02 0.0 
0.0 0.0 -8.502613203603e+01 
-2.318731352552e+01 -5.219697064729e-01 0.0 
-5.219697064729e-01 -5.234259058974e+01 0.0 
0.0 0.0 -2.225897123458e+01 
-1.036916928328e+02 1.733834477743e+01 0.0 
1.733834477743e+01 -2.361403632883e+02 0.0 
0.0 0.0 -1.015496168363e+02 
-1.119828638823e+02 1.455724080976e+01 0.0 
1.455724080976e+01 -2.800593701486e+02 0.0 
0.0 0.0 -1.172126702093e+02 
-1.251255046344e+02 1.672682240389e+01 0.0 
1.672682240389e+01 -2.826762987922e+02 0.0 
0.0 0.0 -1.219405410280e+02 
-1.117223621179e+02 1.765379468872e+01 0.0 
1.765379468872e+01 -2.557628990473e+02 0.0 
0.0 0.0 -1.098455783496e+02 
-4.136861974192e+01 5.516261443178e+00 0.0 
5.516261443178e+00 -1.224735108339e+02 0.0 
0.0 0.0 -4.875263917276e+01 
-1.187720491967e+02 4.747031396694e+00 0.0 
4.747031396694e+00 -2.992718268686e+02 0.0 
0.0 0.0 -1.250131628196e+02 
-1.140806147026e+02 4.325292876519e+00 0.0 
4.325292876519e+00 -2.579713822281e+02 0.0 
0.0 0.0 -1.112155990792e+02 
-1.395746837905e+02 1.838980640495e+01 0.0 
1.838980640495e+01 -3.308969410316e+02 0.0 
0.0 0.0 -1.407414874466e+02 
-1.165436312553e+02 1.566390420412e+01 0.0 
1.566390420412e+01 -2.871258653387e+02 0.0 
0.0 0.0 -1.207008489782e+02 
-6.484639596829e+01 1.271559884766e+01 0.0 
1.271559884766e+01 -1.767653168585e+02 0.0 
0.0 0.0 -7.208351384802e+01 
-9.565793276883e+01 1.720583341914e+01 0.0 
1.720583341914e+01 -2.165597163343e+02 0.0 
0.0 0.0 -9.326529473094e+01 
-1.360841155638e+02 1.999309470363e+00 0.0 
1.999309470363e+00 -3.332255797992e+02 0.0 
0.0 0.0 -1.403929086089e+02 
-8.692678313642e+01 9.276179443588e-01 0.0 
9.276179443588e-01 -2.266231501054e+02 0.0 
0.0 0.0 -9.366497997255e+01 
-1.071726690510e+02 1.570411547563e+01 0.0 
1.570411547563e+01 -2.485779625409e+02 0.0 
0.0 0.0 -1.063251894776e+02 
-8.892886112964e+01 3.138271374654e+00 0.0 
3.138271374654e+00 -1.861398390098e+02 0.0 
0.0 0.0 -8.212061004182e+01 
-1.281325170643e+02 5.350897259030e+00 0.0 
5.350897259030e+00 -3.179970328971e+02 0.0 
0.0 0.0 -1.334388649884e+02 
-1.234948160747e+02 7.043495745258e+00 0.0 
7.043495745258e+00 -3.096600614649e+02 0.0 
0.0 0.0 -1.295464632619e+02 
-5.266451037260e+01 5.366013616017e-02 0.0 
5.366013616017e-02 -1.060101713482e+02 0.0 
0.0 0.0 -4.720240451623e+01 
-5.258529707116e+01 -1.369062040605e-01 0.0 
-1.369062040605e-01 -1.059838052842e+02 0.0 
0.0 0.0 -4.717073070661e+01 
-9.730417795570e+01 1.102252987305e+01 0.0 
1.102252987305e+01 -1.987089671277e+02 0.0 
0.0 0.0 -8.840394352502e+01 
-9.934547440284e+01 1.547237212773e+01 0.0 
1.547237212773e+01 -2.292982471269e+02 0.0 
0.0 0.0 -9.819311645892e+01 
-9.656337632234e+01 2.700662165504e+00 0.0 
2.700662165504e+00 -2.513493057230e+02 0.0 
0.0 0.0 -1.039738046136e+02 
-9.716205730419e+01 1.482932450366e+01 0.0 
1.482932450366e+01 -2.049495611348e+02 0.0 
0.0 0.0 -9.023348553170e+01 
-8.136290721137e+01 1.437699275508e+01 0.0 
1.437699275508e+01 -2.058204791669e+02 0.0 
0.0 0.0 -8.575501591347e+01 
-1.302066082568e+02 1.163135339924e+01 0.0 
1.163135339924e+01 -3.220029162966e+02 0.0 
0.0 0.0 -1.352628573660e+02 
-6.443505433219e+01 1.215792363059e+01 0.0 
1.215792363059e+01 -1.764715361901e+02 0.0 
0.0 0.0 -7.187197715669e+01 
-1.272147121102e+02 8.387830374993e+00 0.0 
8.387830374993e+00 -2.932140697031e+02 0.0 
0.0 0.0 -1.257286345440e+02 
-7.134482192706e+01 3.664199292428e+00 0.0 
3.664199292428e+00 -1.366968645744e+02 0.0 
0.0 0.0 -6.201250595043e+01 
-7.738197605972e+01 1.627675511155e+01 0.0 
1.627675511155e+01 -1.933534479437e+02 0.0 
0.0 0.0 -8.082062720102e+01 
-9.101838762821e+01 1.521338219362e+00 0.0 
1.521338219362e+00 -2.417073425951e+02 0.0 
0.0 0.0 -9.941771906700e+01 
-3.781598418034e+01 6.566419095124e+00 0.0 
6.566419095124e+00 -1.120941206557e+02 0.0 
0.0 0.0 -4.457303145081e+01 
-8.006055937028e+01 2.100065484123e+00 0.0 
2.100065484123e+00 -2.147275204243e+02 0.0 
0.0 0.0 -8.803642393838e+01 
-9.149234068207e+01 1.540423731174e+01 0.0 
1.540423731174e+01 -2.101043085575e+02 0.0 
0.0 0.0 -9.007899477186e+01 
-8.461347417769e+01 1.448545682575e+01 0.0 
1.448545682575e+01 -1.834131717287e+02 0.0 
0.0 0.0 -8.000799377191e+01 
-8.970835700086e+01 4.237079659211e+00 0.0 
4.237079659211e+00 -1.857490591690e+02 0.0 
0.0 0.0 -8.223722485097e+01 
-1.000340789650e+02 1.347178462907e+01 0.0 
1.347178462907e+01 -2.167076992745e+02 0.0 
0.0 0.0 -9.462253347186e+01 
-1.045475004109e+02 1.527565559082e+01 0.0 
1.527565559082e+01 -2.248511370035e+02 0.0 
0.0 0.0 -9.841959122434e+01 
-2.281342042221e+01 -1.047103422934e-01 0.0 
-1.047103422934e-01 -5.924723135266e+01 0.0 
0.0 0.0 -2.421819553246e+01 
-7.473951450832e+01 2.009754378012e-01 0.0 
2.009754378012e-01 -2.036329666746e+02 0.0 
0.0 0.0 -8.311174435488e+01 
-6.048367604970e+01 1.735245158637e+01 0.0 
1.735245158637e+01 -1.239502735998e+02 0.0 
0.0 0.0 -5.493018489484e+01 
-9.245241702984e+01 1.105444293948e+01 0.0 
1.105444293948e+01 -1.917365925087e+02 0.0 
0.0 0.0 -8.485670286157e+01 
-9.744971833220e+01 1.296443172806e+01 0.0 
1.296443172806e+01 -2.012125180023e+02 0.0 
0.0 0.0 -8.919867090036e+01 
-1.249476536701e+02 1.352865990135e+01 0.0 
1.352865990135e+01 -3.086572828176e+02 0.0 
0.0 0.0 -1.296814809463e+02 
-3.329438614989e+01 -8.258871456582e-01 0.0 
-8.258871456582e-01 -8.925785157250e+01 0.0 
0.0 0.0 -3.636567131672e+01 
-3.150287352090e+01 9.565011865997e-01 0.0 
9.565011865997e-01 -8.857367441295e+01 0.0 
0.0 0.0 -3.562296438016e+01 
-7.911442648689e+01 1.564165048452e+01 0.0 
1.564165048452e+01 -1.855345907114e+02 0.0 
0.0 0.0 -7.899470515947e+01 
-7.619283375554e+01 1.432220999359e+00 0.0 
1.432220999359e+00 -2.045149046148e+02 0.0 
0.0 0.0 -8.381232151112e+01 
-5.244024901558e+01 4.214500285569e+00 0.0 
4.214500285569e+00 -9.061017682808e+01 0.0 
0.0 0.0 -4.251512775310e+01 
-5.648256886608e+01 3.767272570048e+00 0.0 
3.767272570048e+00 -1.003618789466e+02 0.0 
0.0 0.0 -4.665333434379e+01 
-9.173100534428e+01 6.301018050619e+00 0.0 
6.301018050619e+00 -1.869565112239e+02 0.0 
0.0 0.0 -8.320625497047e+01 
-2.657487591266e+01 8.292759003515e+00 0.0 
8.292759003515e+00 -7.308742759331e+01 0.0 
0.0 0.0 -2.949869105179e+01 
-8.697131835443e+01 8.199936708365e-01 0.0 
8.199936708365e-01 -2.315827531456e+02 0.0 
0.0 0.0 -9.516622145000e+01 
-1.127004322867e+02 1.106409132023e+01 0.0 
1.106409132023e+01 -2.869875594397e+02 0.0 
0.0 0.0 -1.195063975179e+02 
-2.928387768097e+01 1.183028150106e+00 0.0 
1.183028150106e+00 -8.771341576969e+01 0.0 
0.0 0.0 -3.469918803520e+01 
-1.340624376404e+02 1.856440612142e+01 0.0 
1.856440612142e+01 -3.132463484065e+02 0.0 
0.0 0.0 -1.337926358141e+02 
-1.086282069352e+02 6.523435387610e+00 0.0 
6.523435387610e+00 -2.373953173627e+02 0.0 
0.0 0.0 -1.034070572894e+02 
-8.412995560148e+01 1.529972591532e+00 0.0 
1.529972591532e+00 -2.220173236858e+02 0.0 
0.0 0.0 -9.144418378619e+01 
-1.223882028611e+02 3.113244151538e+00 0.0 
3.113244151538e+00 -3.073726661391e+02 0.0 
0.0 0.0 -1.285282607000e+02 
-1.590970079656e+01 -8.540465720479e-01 0.0 
-8.540465720479e-01 -4.236805105944e+01 0.0 
0.0 0.0 -1.708332555680e+01 
-1.083026616269e+02 9.757635557076e+00 0.0 
9.757635557076e+00 -2.788379726233e+02 0.0 
0.0 0.0 -1.157421902750e+02 
-8.302056026988e+01 1.739265199935e+01 0.0 
1.739265199935e+01 -1.911452834912e+02 0.0 
0.0 0.0 -8.184975312833e+01 
-1.611741166067e+01 -6.869037349283e-01 0.0 
-6.869037349283e-01 -4.229269476035e+01 0.0 
0.0 0.0 -1.712303192631e+01 
-1.070266941087e+02 4.800570996205e+00 0.0 
4.800570996205e+00 -2.364922176108e+02 0.0 
0.0 0.0 -1.026556735158e+02 
-2.871947045954e+01 1.708550705812e+00 0.0 
1.708550705812e+00 -7.943750567822e+01 0.0 
0.0 0.0 -3.204709284133e+01 
-9.359618661324e+01 1.362450529290e+01 0.0 
1.362450529290e+01 -1.927836506734e+02 0.0 
0.0 0.0 -8.551395118600e+01 
-8.431155708436e+01 1.684461122508e+01 0.0 
1.684461122508e+01 -1.837397547358e+02 0.0 
0.0 0.0 -8.001539354605e+01 
-7.424954122931e+01 6.246622815058e+00 0.0 
6.246622815058e+00 -2.055738320809e+02 0.0 
0.0 0.0 -8.354701199306e+01 
-9.423201058757e+01 4.926205765534e+00 0.0 
4.926205765534e+00 -2.522187444673e+02 0.0 
0.0 0.0 -1.035352265165e+02 
-1.106630831603e+02 5.791104394580e+00 0.0 
5.791104394580e+00 -2.460711748807e+02 0.0 
0.0 0.0 -1.066202774123e+02 
-1.031567056988e+02 5.717853513858e+00 0.0 
5.717853513858e+00 -2.710015189324e+02 0.0 
0.0 0.0 -1.118474673894e+02 
-8.247449387439e+01 1.540147488999e+01 0.0 
1.540147488999e+01 -1.987411398127e+02 0.0 
0.0 0.0 -8.396469010613e+01 
-7.835256391450e+01 1.733294922069e+01 0.0 
1.733294922069e+01 -1.855682717638e+02 0.0 
0.0 0.0 -7.877625070348e+01 
-2.020829572848e+01 1.278689891711e+01 0.0 
1.278689891711e+01 -1.554500586241e+01 0.0 
0.0 0.0 -1.032599047727e+01 
-2.490569417403e+01 5.468934311148e-01 0.0 
5.468934311148e-01 -6.994121122524e+01 0.0 
0.0 0.0 -2.805407161978e+01 
-1.155266894564e+02 1.789367382378e+01 0.0 
1.789367382378e+01 -2.683414357503e+02 0.0 
0.0 0.0 -1.147604375620e+02 
-8.479236503311e+01 6.861911160358e+00 0.0 
6.861911160358e+00 -1.670873579651e+02 0.0 
0.0 0.0 -7.516391689947e+01 
-1.187877079995e+02 1.650796389657e+01 0.0 
1.650796389657e+01 -2.803183454238e+02 0.0 
0.0 0.0 -1.193318160270e+02 
-3.826072652787e+01 1.228177631392e+01 0.0 
1.228177631392e+01 -1.113819278966e+02 0.0 
0.0 0.0 -4.449279632733e+01 
-1.059113136094e+02 9.190081807555e+00 0.0 
9.190081807555e+00 -2.273136388635e+02 0.0 
0.0 0.0 -9.956748574188e+01 
-1.196654631444e+02 1.816498042276e+01 0.0 
1.816498042276e+01 -2.753865343787e+02 0.0 
0.0 0.0 -1.181155992569e+02 
-5.931149948468e+01 2.553813364921e+00 0.0 
2.553813364921e+00 -1.078300246037e+02 0.0 
0.0 0.0 -4.974245722650e+01 
-1.149096410337e+02 1.614533838646e+01 0.0 
1.614533838646e+01 -2.676441486864e+02 0.0 
0.0 0.0 -1.143661369160e+02 
-1.233102127249e+02 4.456648298994e+00 0.0 
4.456648298994e+00 -3.080674743228e+02 0.0 
0.0 0.0 -1.290133061143e+02 
-9.495881428890e+01 1.547772302886e+01 0.0 
1.547772302886e+01 -2.231540222124e+02 0.0 
0.0 0.0 -9.503385095040e+01 
-8.273672216114e+01 8.582946057834e-01 0.0 
8.582946057834e-01 -2.227167400387e+02 0.0 
0.0 0.0 -9.123603865996e+01 
-8.815915700986e+01 2.845629530400e+00 0.0 
2.845629530400e+00 -2.336857016900e+02 0.0 
0.0 0.0 -9.615345760995e+01 
-1.174154188124e+02 1.052713788010e+01 0.0 
1.052713788010e+01 -2.584177305027e+02 0.0 
0.0 0.0 -1.123499447945e+02 
-8.570935737198e+01 4.120821347255e+00 0.0 
4.120821347255e+00 -2.335992111344e+02 0.0 
0.0 0.0 -9.539257055191e+01 
-8.807455262307e+01 1.509053143047e+01 0.0 
1.509053143047e+01 -1.968502053057e+02 0.0 
0.0 0.0 -8.507742737864e+01 
-8.073153401251e+01 1.269832857480e+01 0.0 
1.269832857480e+01 -2.122556304121e+02 0.0 
0.0 0.0 -8.749614932738e+01 
-1.125054777776e+02 6.527914067962e+00 0.0 
6.527914067962e+00 -2.898857898290e+02 0.0 
0.0 0.0 -1.203173802820e+02 
-7.297364370366e+01 1.535393193396e+01 0.0 
1.535393193396e+01 -1.878857109208e+02 0.0 
0.0 0.0 -7.785780638733e+01 
-4.307499174482e+01 4.677444765966e+00 0.0 
4.677444765966e+00 -1.317316983946e+02 0.0 
0.0 0.0 -5.204200704182e+01 
-8.480050800904e+01 7.720782416794e+00 0.0 
7.720782416794e+00 -2.310665259546e+02 0.0 
0.0 0.0 -9.436011018909e+01 
-4.593949074216e+01 6.533003092993e+00 0.0 
6.533003092993e+00 -1.391773182464e+02 0.0 
0.0 0.0 -5.513504269657e+01 
-9.628161847222e+01 1.236068256612e+01 0.0 
1.236068256612e+01 -2.040719312695e+02 0.0 
0.0 0.0 -8.970606492253e+01 
-4.768366891363e+01 6.525590871663e+00 0.0 
6.525590871663e+00 -1.399145630255e+02 0.0 
0.0 0.0 -5.587946958173e+01 
-9.311442576486e+01 1.554473763796e+01 0.0 
1.554473763796e+01 -1.974806196730e+02 0.0 
0.0 0.0 -8.677851363135e+01 
-1.212684431276e+02 1.528209514348e+01 0.0 
1.528209514348e+01 -2.987493521105e+02 0.0 
0.0 0.0 -1.256053385714e+02 
-1.157447990154e+02 1.281279551337e+01 0.0 
1.281279551337e+01 -2.906973793513e+02 0.0 
0.0 0.0 -1.215326535100e+02 
-6.874880024170e+01 1.340270152796e+01 0.0 
1.340270152796e+01 -1.822424699605e+02 0.0 
0.0 0.0 -7.489738106067e+01 
-8.626991888421e+01 4.282890277696e+00 0.0 
4.282890277696e+00 -1.757423763346e+02 0.0 
0.0 0.0 -7.820368856566e+01 
-1.270765237169e+02 2.769560100898e+00 0.0 
2.769560100898e+00 -3.161596305601e+02 0.0 
0.0 0.0 -1.325708462831e+02 
-1.278284860077e+02 4.128387204387e+00 0.0 
4.128387204387e+00 -3.167905889206e+02 0.0 
0.0 0.0 -1.329857224785e+02 
-2.264162907210e+01 7.581040443555e+00 0.0 
7.581040443555e+00 -5.648092464929e+01 0.0 
0.0 0.0 -2.333676611641e+01 
-9.620946790228e+01 1.402535700554e+01 0.0 
1.402535700554e+01 -2.095950228675e+02 0.0 
0.0 0.0 -9.134134723094e+01 
-1.420200173999e+02 2.543906757570e+00 0.0 
2.543906757570e+00 -3.447936191802e+02 0.0 
0.0 0.0 -1.456440909740e+02 
-4.011457548531e+01 1.110675751591e+01 0.0 
1.110675751591e+01 -6.702355953159e+01 0.0 
0.0 0.0 -3.174144050507e+01 
-9.226333159534e+01 2.067604576395e+00 0.0 
2.067604576395e+00 -2.410021234806e+02 0.0 
0.0 0.0 -9.957963652279e+01 
-1.854549972556e+01 1.171016844289e+01 0.0 
1.171016844289e+01 -1.623718459072e+01 0.0 
0.0 0.0 -1.003480529488e+01 
-1.317175461305e+02 2.395134455143e+00 0.0 
2.395134455143e+00 -3.248455388365e+02 0.0 
0.0 0.0 -1.365689254901e+02 
-3.942793855229e+01 5.714544443694e+00 0.0 
5.714544443694e+00 -1.216950819091e+02 0.0 
0.0 0.0 -4.793690613843e+01 
-8.959905196247e+01 -3.600738600958e-01 0.0 
-3.600738600958e-01 -2.328385822327e+02 0.0 
0.0 0.0 -9.633129025854e+01 
-1.021688912294e+02 1.412325476308e+01 0.0 
1.412325476308e+01 -2.552895228127e+02 0.0 
0.0 0.0 -1.068375242126e+02 
-8.845059854816e+01 6.468681749035e+00 0.0 
6.468681749035e+00 -1.770756549937e+02 0.0 
0.0 0.0 -7.925787606256e+01 
-8.312534369540e+01 4.529862836769e+00 0.0 
4.529862836769e+00 -1.659440744078e+02 0.0 
0.0 0.0 -7.432082543095e+01 
-8.703610358435e+01 1.551016849360e+01 0.0 
1.551016849360e+01 -2.043060796863e+02 0.0 
0.0 0.0 -8.700265498119e+01 
-4.429874988928e+01 4.994977690646e+00 0.0 
4.994977690646e+00 -7.143853818075e+01 0.0 
0.0 0.0 -3.432118642101e+01 
-4.844783639746e+01 4.375240635725e+00 0.0 
4.375240635725e+00 -8.108929703519e+01 0.0 
0.0 0.0 -3.846114002980e+01 
-1.322445994167e+02 3.723136676124e+00 0.0 
3.723136676124e+00 -3.253808215088e+02 0.0 
0.0 0.0 -1.368876262777e+02 
-9.986888595102e+01 7.245342239000e+00 0.0 
7.245342239000e+00 -2.619080731085e+02 0.0 
0.0 0.0 -1.081330877179e+02 
-8.223164961477e+01 7.133702360032e+00 0.0 
7.133702360032e+00 -2.236799977073e+02 0.0 
0.0 0.0 -9.137349419661e+01 
-1.069599054947e+02 8.592211548447e+00 0.0 
8.592211548447e+00 -2.780589642376e+02 0.0 
0.0 0.0 -1.151056609197e+02 
-7.651309753144e+01 7.006766512756e+00 0.0 
7.006766512756e+00 -2.129545965742e+02 0.0 
0.0 0.0 -8.644030823168e+01 
-4.391343103946e+01 7.548449977011e+00 0.0 
7.548449977011e+00 -1.294010962929e+02 0.0 
0.0 0.0 -5.159435819972e+01 
-4.182486099104e+01 1.735649908888e+00 0.0 
1.735649908888e+00 -6.933491027052e+01 0.0 
0.0 0.0 -3.294793137847e+01 
-7.663254961599e+01 5.620162767972e+00 0.0 
5.620162767972e+00 -1.474101901903e+02 0.0 
0.0 0.0 -6.681282194188e+01 
-5.277420382051e+01 -3.469632732449e-02 0.0 
-3.469632732449e-02 -1.062000585600e+02 0.0 
0.0 0.0 -4.729227871416e+01 
-1.166518493002e+02 1.408375831841e+01 0.0 
1.408375831841e+01 -2.913401283370e+02 0.0 
0.0 0.0 -1.219975932912e+02 
-6.878909595222e+01 1.415182781680e+01 0.0 
1.415182781680e+01 -1.824150087152e+02 0.0 
0.0 0.0 -7.496123140024e+01 
-1.341103264971e+02 1.592308181242e+01 0.0 
1.592308181242e+01 -3.235942013378e+02 0.0 
0.0 0.0 -1.369113583505e+02 
-1.308094752094e+02 1.766833735388e-01 0.0 
1.766833735388e-01 -3.219499366730e+02 0.0 
0.0 0.0 -1.354278235647e+02 
-8.169811430852e+01 9.186448437709e+00 0.0 
9.186448437709e+00 -2.214549636849e+02 0.0 
0.0 0.0 -9.054592339802e+01 
-1.478360772000e+02 4.990277112930e+00 0.0 
4.990277112930e+00 -3.551202065675e+02 0.0 
0.0 0.0 -1.504868851302e+02 
-5.155877233588e+01 5.686456255443e+00 0.0 
5.686456255443e+00 -1.501852318138e+02 0.0 
0.0 0.0 -6.012320124491e+01 
-1.288256670419e+02 1.600726733989e+01 0.0 
1.600726733989e+01 -3.115773682864e+02 0.0 
0.0 0.0 -1.317209105985e+02 
-8.649271067456e+01 1.721434761938e+01 0.0 
1.721434761938e+01 -2.044429171923e+02 0.0 
0.0 0.0 -8.688068836007e+01 
-9.850976192176e+01 1.537772346383e+01 0.0 
1.537772346383e+01 -2.359150474018e+02 0.0 
0.0 0.0 -9.992744279706e+01 
-1.275055717376e+02 1.147554457853e+01 0.0 
1.147554457853e+01 -3.163733860759e+02 0.0 
0.0 0.0 -1.327636873440e+02 
-6.106870486565e+01 5.507718268461e-01 0.0 
5.507718268461e-01 -1.681698495177e+02 0.0 
0.0 0.0 -6.837156631500e+01 
-9.225263952181e+01 1.459598235944e+01 0.0 
1.459598235944e+01 -2.030358728555e+02 0.0 
0.0 0.0 -8.818655371320e+01 
-7.789759740652e+01 7.693654191697e+00 0.0 
7.693654191697e+00 -2.136912252450e+02 0.0 
0.0 0.0 -8.707664679545e+01 
-8.877133778043e+01 1.622123178818e+01 0.0 
1.622123178818e+01 -1.903108047214e+02 0.0 
0.0 0.0 -8.332464275056e+01 
-4.210310641814e+01 1.411168226574e+01 0.0 
1.411168226574e+01 -1.159238975064e+02 0.0 
0.0 0.0 -4.700810117737e+01 
-1.022097820495e+02 1.515580133731e+01 0.0 
1.515580133731e+01 -2.485520552704e+02 0.0 
0.0 0.0 -1.048285511960e+02 
-7.268742547018e+01 5.562538277655e+00 0.0 
5.562538277655e+00 -2.047558903244e+02 0.0 
0.0 0.0 -8.283299473837e+01 
-9.535080257745e+01 1.413617832782e+00 0.0 
1.413617832782e+00 -2.505304711364e+02 0.0 
0.0 0.0 -1.033643821141e+02 
-8.870109227779e+01 1.375084503453e+01 0.0 
1.375084503453e+01 -1.898085559507e+02 0.0 
0.0 0.0 -8.315289446854e+01 
-1.776103429513e+01 6.825231844225e+00 0.0 
6.825231844225e+00 -2.455914472787e+01 0.0 
0.0 0.0 -1.229605370690e+01 
-8.919992016598e+01 1.296015258837e+01 0.0 
1.296015258837e+01 -2.305721111906e+02 0.0 
0.0 0.0 -9.553160940698e+01 
-1.997958488778e+01 1.120421762326e+01 0.0 
1.120421762326e+01 -3.237769921633e+01 0.0 
0.0 0.0 -1.530718523123e+01 
-2.437097660178e+01 -2.128792872451e+00 0.0 
-2.128792872451e+00 -6.344057145892e+01 0.0 
0.0 0.0 -2.594346441821e+01 
-9.112952636271e+01 7.688376516591e-01 0.0 
7.688376516591e-01 -2.401973188702e+02 0.0 
0.0 0.0 -9.899805356988e+01 
-1.119159466613e+02 1.701230793651e+01 0.0 
1.701230793651e+01 -2.498531245328e+02 0.0 
0.0 0.0 -1.081307213582e+02 
-8.708882071242e+01 5.751247671807e+00 0.0 
5.751247671807e+00 -1.757084231482e+02 0.0 
0.0 0.0 -7.843917315819e+01 
-3.627564201200e+01 6.592958736588e+00 0.0 
6.592958736588e+00 -5.296907255850e+01 0.0 
0.0 0.0 -2.637341437115e+01 
-1.250211887727e+02 8.420505953437e+00 0.0 
8.420505953437e+00 -2.930494404696e+02 0.0 
0.0 0.0 -1.250211887727e+02 
-1.842916375403e+01 1.091099137916e+01 0.0 
1.091099137916e+01 -1.223433408069e+01 0.0 
0.0 0.0 -8.906627366837e+00 
-4.008677706402e+01 5.472949879294e+00 0.0 
5.472949879294e+00 -6.201305908906e+01 0.0 
0.0 0.0 -3.022995084593e+01 
-8.512047695229e+01 5.785744828004e+00 0.0 
5.785744828004e+00 -2.326074355623e+02 0.0 
0.0 0.0 -9.491837375438e+01 
-8.805187665553e+01 1.563355706755e+00 0.0 
1.563355706755e+00 -2.306445115284e+02 0.0 
0.0 0.0 -9.520891645518e+01 
-5.838217743685e+01 8.717244644427e+00 0.0 
8.717244644427e+00 -1.009220688535e+02 0.0 
0.0 0.0 -4.739127388711e+01 
-5.452069239530e+01 2.526006752504e+00 0.0 
2.526006752504e+00 -1.603981421953e+02 0.0 
0.0 0.0 -6.407565037718e+01 
-9.113541241731e+01 6.316738872102e+00 0.0 
6.316738872102e+00 -2.431984061964e+02 0.0 
0.0 0.0 -9.990014558412e+01 
-9.112127717714e+01 1.731560788057e+01 0.0 
1.731560788057e+01 -2.103570203022e+02 0.0 
0.0 0.0 -9.004348924381e+01 
-9.788446541385e+01 1.334130766577e+01 0.0 
1.334130766577e+01 -2.491441421833e+02 0.0 
0.0 0.0 -1.037085822791e+02 
-1.135630743103e+02 1.327064637367e+01 0.0 
1.327064637367e+01 -2.518826507517e+02 0.0 
0.0 0.0 -1.092337175186e+02 
-2.328720233005e+01 7.019804872227e+00 0.0 
7.019804872227e+00 -6.703327697018e+01 0.0 
0.0 0.0 -2.669614379007e+01 
-8.291926532516e+01 2.247393343200e-01 0.0 
2.247393343200e-01 -2.212153195619e+02 0.0 
0.0 0.0 -9.084037546611e+01 
-9.108699374408e+01 1.995362426488e-01 0.0 
1.995362426488e-01 -2.385615272886e+02 0.0 
0.0 0.0 -9.849455630982e+01 
-4.683701169827e+01 -8.578980413090e-01 0.0 
-8.578980413090e-01 -1.273858434066e+02 0.0 
0.0 0.0 -5.186685653147e+01 
-6.300413885865e+01 2.259209425763e+00 0.0 
2.259209425763e+00 -1.173580653354e+02 0.0 
0.0 0.0 -5.370866125820e+01 
-8.903599589992e+01 8.133274190059e+00 0.0 
8.133274190059e+00 -1.770131875560e+02 0.0 
0.0 0.0 -7.941475503677e+01 
-1.174084173410e+02 1.077581767404e+00 0.0 
1.077581767404e+00 -2.939983574459e+02 0.0 
0.0 0.0 -1.230220324361e+02 
-1.707168129352e+01 -7.651942420418e-01 0.0 
-7.651942420418e-01 -4.257365564584e+01 0.0 
0.0 0.0 -1.749360108181e+01 
-1.813162725559e+01 5.860194717838e-02 0.0 
5.860194717838e-02 -2.571753054441e+01 0.0 
0.0 0.0 -1.275474734000e+01 
-3.363251366348e+01 -1.501180617738e+00 0.0 
-1.501180617738e+00 -8.886673893056e+01 0.0 
0.0 0.0 -3.634977577821e+01 
-9.197308682815e+01 1.554119738635e+00 0.0 
1.554119738635e+00 -2.392535476970e+02 0.0 
0.0 0.0 -9.896799035753e+01 
-5.850696484106e+01 6.625687305525e+00 0.0 
6.625687305525e+00 -1.678202122019e+02 0.0 
0.0 0.0 -6.749815311289e+01 
-5.259495492407e+01 3.405521668970e+00 0.0 
3.405521668970e+00 -1.520195776256e+02 0.0 
0.0 0.0 -6.098435976491e+01 
-4.503518151522e+01 4.653621951468e+00 0.0 
4.653621951468e+00 -1.325577143506e+02 0.0 
0.0 0.0 -5.287786875974e+01 
-9.530298902808e+01 6.945084178717e-01 0.0 
6.945084178717e-01 -2.488396198169e+02 0.0 
0.0 0.0 -1.028427826535e+02 
-9.531964078874e+01 8.492645754933e+00 0.0 
8.492645754933e+00 -1.971667872392e+02 0.0 
0.0 0.0 -8.734592840837e+01 
-9.515255280899e+01 1.330334438474e-01 0.0 
1.330334438474e-01 -2.471711627596e+02 0.0 
0.0 0.0 -1.022971146706e+02 
-5.690900698328e+01 6.335325118704e+00 0.0 
6.335325118704e+00 -1.670761311009e+02 0.0 
0.0 0.0 -6.679554142526e+01 
-9.655706767944e+01 1.639337238206e+01 0.0 
1.639337238206e+01 -2.101838242904e+02 0.0 
0.0 0.0 -9.162226759094e+01 
-6.857504638002e+01 8.667490207476e-01 0.0 
8.667490207476e-01 -1.369265520072e+02 0.0 
0.0 0.0 -6.125047951618e+01 
-1.112285446554e+02 1.454878987940e+01 0.0 
1.454878987940e+01 -2.744696142681e+02 0.0 
0.0 0.0 -1.153094476770e+02 
-9.589346722043e+01 1.511220844749e+00 0.0 
1.511220844749e+00 -2.478146633618e+02 0.0 
0.0 0.0 -1.027124391747e+02 
-9.628522606807e+01 2.017753208992e+00 0.0 
2.017753208992e+00 -2.495867582246e+02 0.0 
0.0 0.0 -1.033615952878e+02 
-2.874058579465e+01 9.244534152084e+00 0.0 
9.244534152084e+00 -3.422614111185e+01 0.0 
0.0 0.0 -1.849001807195e+01 
-6.254000878438e+01 5.914024994276e+00 0.0 
5.914024994276e+00 -1.778391406106e+02 0.0 
0.0 0.0 -7.171374481850e+01 
-9.920874694860e+01 3.555845231633e-02 0.0 
3.555845231633e-02 -2.556691258356e+02 0.0 
0.0 0.0 -1.060633618353e+02 
-8.174260364989e+01 -5.212688863629e-01 0.0 
-5.212688863629e-01 -1.772362226896e+02 0.0 
0.0 0.0 -7.729364790184e+01 
-7.442134848679e+01 -6.146051123905e-01 0.0 
-6.146051123905e-01 -1.590049711509e+02 0.0 
0.0 0.0 -6.962789589130e+01 
-3.229420131046e+01 7.653489654055e+00 0.0 
7.653489654055e+00 -4.362572950286e+01 0.0 
0.0 0.0 -2.237597924399e+01 
-9.949241714678e+01 5.829944734448e-01 0.0 
5.829944734448e-01 -2.574811154938e+02 0.0 
0.0 0.0 -1.066920597922e+02 
-5.342220205019e+01 1.676472419064e+00 0.0 
1.676472419064e+00 -1.522845062840e+02 0.0 
0.0 0.0 -6.131201250025e+01 
-2.147753991090e+01 1.237442568082e+01 0.0 
1.237442568082e+01 -4.839311567172e+01 0.0 
0.0 0.0 -2.056119667479e+01 
-1.303287149504e+02 1.745424961262e+01 0.0 
1.745424961262e+01 -3.126753825529e+02 0.0 
0.0 0.0 -1.325012292510e+02 
-3.008356156412e+01 -2.737358727481e+00 0.0 
-2.737358727481e+00 -8.038278868052e+01 0.0 
0.0 0.0 -3.273990507339e+01 
-5.527945946082e+01 8.507573029098e-01 0.0 
8.507573029098e-01 -1.602477064957e+02 0.0 
0.0 0.0 -6.425814978697e+01 
-8.530239773153e+01 1.475389662407e+01 0.0 
1.475389662407e+01 -2.185379360150e+02 0.0 
0.0 0.0 -9.075210012395e+01 
-3.276052108973e+01 2.424834032233e+00 0.0 
2.424834032233e+00 -4.969654878145e+01 0.0 
0.0 0.0 -2.433712096136e+01 
-9.986325742318e+01 1.427671993818e+00 0.0 
1.427671993818e+00 -2.564391787106e+02 0.0 
0.0 0.0 -1.064907308401e+02 
-4.493006965235e+01 6.464640125254e-01 0.0 
6.464640125254e-01 -1.197489183552e+02 0.0 
0.0 0.0 -4.900369640227e+01 
-6.800208690067e+01 4.381037066243e+00 0.0 
4.381037066243e+00 -1.258831892762e+02 0.0 
0.0 0.0 -5.776558285306e+01 
-1.003072166560e+02 1.926643993752e+00 0.0 
1.926643993752e+00 -2.581616278488e+02 0.0 
0.0 0.0 -1.071406533514e+02 
-7.852700045533e+01 5.764877495996e+00 0.0 
5.764877495996e+00 -2.152883267379e+02 0.0 
0.0 0.0 -8.774459815798e+01 
-8.825351268023e+01 2.095398846994e+00 0.0 
2.095398846994e+00 -2.324202131890e+02 0.0 
0.0 0.0 -9.580211776078e+01 
-1.900615566953e+01 4.284128954678e+00 0.0 
4.284128954678e+00 -3.078100016024e+01 0.0 
0.0 0.0 -1.453614674893e+01 
-1.039792702860e+02 1.168653871075e+00 0.0 
1.168653871075e+00 -2.351935735689e+02 0.0 
0.0 0.0 -1.013518531564e+02 
-6.337754558217e+01 3.900858539995e+00 0.0 
3.900858539995e+00 -1.791485776016e+02 0.0 
0.0 0.0 -7.235783695513e+01 
-1.255006550526e+02 1.205934906957e+01 0.0 
1.205934906957e+01 -3.129293629864e+02 0.0 
0.0 0.0 -1.311290054117e+02 
-9.850725289499e+01 1.704148748335e+01 0.0 
1.704148748335e+01 -2.363558298388e+02 0.0 
0.0 0.0 -1.000589248201e+02 
-1.036681951543e+02 4.293477300458e-01 0.0 
4.293477300458e-01 -2.660519529221e+02 0.0 
0.0 0.0 -1.105160444229e+02 
-1.043207523161e+02 1.756165616237e+00 0.0 
1.756165616237e+00 -2.666547246223e+02 0.0 
0.0 0.0 -1.108926430815e+02 
-5.367296112861e+01 4.681627327231e+00 0.0 
4.681627327231e+00 -1.593034503121e+02 0.0 
0.0 0.0 -6.349292343222e+01 
-2.342220302369e+01 -2.480407718807e+00 0.0 
-2.480407718807e+00 -5.452679463752e+01 0.0 
0.0 0.0 -2.298469929836e+01 
-1.637674621154e+01 5.809173879962e+00 0.0 
5.809173879962e+00 -3.010825152645e+01 0.0 
0.0 0.0 -1.354549932140e+01 
-1.078881406000e+02 2.387490879811e-01 0.0 
2.387490879811e-01 -2.746177924404e+02 0.0 
0.0 0.0 -1.143517799121e+02 
-1.261548499154e+02 1.041866348324e+01 0.0 
1.041866348324e+01 -3.158491466804e+02 0.0 
0.0 0.0 -1.322011989787e+02 
-5.403917011952e+01 5.222497654766e-01 0.0 
5.222497654766e-01 -1.515438561044e+02 0.0 
0.0 0.0 -6.127490786717e+01 
-9.984301842314e+01 1.477790892834e+01 0.0 
1.477790892834e+01 -2.226102135604e+02 0.0 
0.0 0.0 -9.633596959507e+01 
-3.578486913380e+01 1.283956099939e+01 0.0 
1.283956099939e+01 -6.092186595900e+01 0.0 
0.0 0.0 -2.861202052784e+01 
-1.007282041064e+02 1.586207127655e+01 0.0 
1.586207127655e+01 -2.174811383261e+02 0.0 
0.0 0.0 -9.506280272973e+01 
-1.479166689310e+02 9.188498297808e+00 0.0 
9.188498297808e+00 -3.577803305542e+02 0.0 
0.0 0.0 -1.513090998456e+02 
-2.012387628075e+01 -3.546798943159e-01 0.0 
-3.546798943159e-01 -6.916472760496e+00 0.0 
0.0 0.0 -7.712104712374e+00 
-1.229977200266e+02 9.330097682643e-01 0.0 
9.330097682643e-01 -2.883280133954e+02 0.0 
0.0 0.0 -1.229977200266e+02 
-1.635372508502e+02 1.182673707328e+00 0.0 
1.182673707328e+00 -3.829202519838e+02 0.0 
0.0 0.0 -1.635372508502e+02 
-6.140252108875e+01 7.805463321819e-01 0.0 
7.805463321819e-01 -1.272903878859e+02 0.0 
0.0 0.0 -5.620787269240e+01 
-6.410072988215e+01 2.371707862664e+00 0.0 
2.371707862664e+00 -1.792970632222e+02 0.0 
0.0 0.0 -7.261933793129e+01 
-9.471014413556e+01 1.722033590240e+01 0.0 
1.722033590240e+01 -2.234614062304e+02 0.0 
0.0 0.0 -9.505146510978e+01 
-5.449267995037e+01 7.470444276676e+00 0.0 
7.470444276676e+00 -1.574420947911e+02 0.0 
0.0 0.0 -6.318043242244e+01 
-2.189941091400e+01 -8.868219220816e-01 0.0 
-8.868219220816e-01 -5.515957580515e+01 0.0 
0.0 0.0 -2.271769601575e+01 
-1.719592323627e+01 9.952861877815e+00 0.0 
9.952861877815e+00 -1.427652095471e+01 0.0 
0.0 0.0 -9.041733257294e+00 
-1.112627668091e+02 3.090931220290e+00 0.0 
3.090931220290e+00 -2.523843698293e+02 0.0 
0.0 0.0 -1.086941409915e+02 
-9.331991877890e+01 9.616290842325e+00 0.0 
9.616290842325e+00 -1.878313801073e+02 0.0 
0.0 0.0 -8.394538966586e+01 
-6.062137420887e+01 3.689615743181e+00 0.0 
3.689615743181e+00 -1.110601212339e+02 0.0 
0.0 0.0 -5.110444863282e+01 
-1.429530045077e+02 2.085984383028e+01 0.0 
2.085984383028e+01 -3.343079773234e+02 0.0 
0.0 0.0 -1.427782945494e+02 
-3.751710016167e+01 5.930585375174e-01 0.0 
5.930585375174e-01 -1.001878314034e+02 0.0 
0.0 0.0 -4.091147946951e+01 
-1.438803080577e+02 2.068595395696e+01 0.0 
2.068595395696e+01 -3.385521774141e+02 0.0 
0.0 0.0 -1.443297456416e+02 
-9.129165464011e+01 7.111821057242e+00 0.0 
7.111821057242e+00 -1.863616561682e+02 0.0 
0.0 0.0 -8.289599324249e+01 
-6.460135969369e+01 1.298095420466e+00 0.0 
1.298095420466e+00 -1.784515540962e+02 0.0 
0.0 0.0 -7.251587413698e+01 
-9.048353006850e+01 1.533816984803e+01 0.0 
1.533816984803e+01 -2.172623940319e+02 0.0 
0.0 0.0 -9.192377723012e+01 
-5.901924007651e+01 6.016221656483e-01 0.0 
6.016221656483e-01 -1.688446490247e+02 0.0 
0.0 0.0 -6.795916673035e+01 
-2.218310800533e+01 1.356761817922e+01 0.0 
1.356761817922e+01 -5.058906992976e+01 0.0 
0.0 0.0 -2.143165338053e+01 
-5.580789208272e+01 -3.349178107488e-01 0.0 
-3.349178107488e-01 -1.589824557467e+02 0.0 
0.0 0.0 -6.403710434881e+01 
-9.927907155620e+01 9.859704542310e+00 0.0 
9.859704542310e+00 -2.084083446437e+02 0.0 
0.0 0.0 -9.190622485997e+01 
-1.360663285596e+02 2.277407072110e+00 0.0 
2.277407072110e+00 -3.322337747199e+02 0.0 
0.0 0.0 -1.400900309839e+02 
-5.833374663462e+01 2.035240865170e+00 0.0 
2.035240865170e+00 -1.693438734295e+02 0.0 
0.0 0.0 -6.790328601923e+01 
-1.036967532023e+02 1.439416385060e+01 0.0 
1.439416385060e+01 -2.294306912775e+02 0.0 
0.0 0.0 -9.953823334393e+01 
-1.613079004562e+01 -5.263987051526e-01 0.0 
-5.263987051526e-01 -8.426147144769e+00 0.0 
0.0 0.0 -7.868336680359e+00 
-5.758709081464e+01 3.970467559428e+00 0.0 
3.970467559428e+00 -1.688479232287e+02 0.0 
0.0 0.0 -6.753050421299e+01 
-1.042570243955e+02 1.018853112922e+01 0.0 
1.018853112922e+01 -2.180352223944e+02 0.0 
0.0 0.0 -9.628767403694e+01 
-5.593207667256e+01 -1.096309974964e+00 0.0 
-1.096309974964e+00 -1.567109035906e+02 0.0 
0.0 0.0 -6.339289407895e+01 
-5.082253715387e+01 -2.211986153160e-01 0.0 
-2.211986153160e-01 -1.414131828640e+02 0.0 
0.0 0.0 -5.727071600535e+01 
-9.012723036486e+01 1.687593436433e+01 0.0 
1.687593436433e+01 -2.174727702705e+02 0.0 
0.0 0.0 -9.188000019061e+01 
-2.800555165109e+01 -1.862816135904e+00 0.0 
-1.862816135904e+00 -7.742077566476e+01 0.0 
0.0 0.0 -3.122789819475e+01 
-2.167261483133e+01 1.212139198893e+01 0.0 
1.212139198893e+01 -1.691400154497e+01 0.0 
0.0 0.0 -1.117598491289e+01 
-2.542461793640e+01 1.150896151489e+01 0.0 
1.150896151489e+01 -2.649956721402e+01 0.0 
0.0 0.0 -1.517725554513e+01 
-4.912799953337e+01 -1.641640954830e+00 0.0 
-1.641640954830e+00 -1.379194929313e+02 0.0 
0.0 0.0 -5.571424773939e+01 
-8.662385002953e+01 6.678721240200e+00 0.0 
6.678721240200e+00 -2.334810648825e+02 0.0 
0.0 0.0 -9.563147447362e+01 
-7.686008951779e+01 1.353692961016e+01 0.0 
1.353692961016e+01 -2.001174935254e+02 0.0 
0.0 0.0 -8.269327491295e+01 
-1.042897496945e+02 1.662899354071e+01 0.0 
1.662899354071e+01 -2.300481313527e+02 0.0 
0.0 0.0 -9.990136431414e+01 
-1.199861803785e+02 1.308278160890e+01 0.0 
1.308278160890e+01 -2.705666313610e+02 0.0 
0.0 0.0 -1.167658435219e+02 
-2.303508273664e+01 3.425421093372e+00 0.0 
3.425421093372e+00 -3.008780612272e+01 0.0 
0.0 0.0 -1.553686665781e+01 
-8.964595805346e+01 1.262523247122e+00 0.0 
1.262523247122e+00 -1.969361695766e+02 0.0 
0.0 0.0 -8.557463828901e+01 
-1.245398680899e+02 1.635622694759e+01 0.0 
1.635622694759e+01 -2.868306793782e+02 0.0 
0.0 0.0 -1.230111642404e+02 
-4.976907631304e+01 5.528230252373e+00 0.0 
5.528230252373e+00 -1.493916617383e+02 0.0 
0.0 0.0 -5.934822141541e+01 
-2.014288960104e+01 1.249949426865e+01 0.0 
1.249949426865e+01 -3.238050047608e+01 0.0 
0.0 0.0 -1.535701702314e+01 
-4.142413062302e+01 1.554334776887e+01 0.0 
1.554334776887e+01 -6.870565530757e+01 0.0 
0.0 0.0 -3.263893577918e+01 
-8.284969508673e+01 5.382918931532e+00 0.0 
5.382918931532e+00 -2.248099174826e+02 0.0 
0.0 0.0 -9.189788377079e+01 
-1.034649606179e+02 1.293941384483e+01 0.0 
1.293941384483e+01 -2.239674535802e+02 0.0 
0.0 0.0 -9.782972425943e+01 
-8.122474167225e+01 4.511163868388e+00 0.0 
4.511163868388e+00 -2.239317356938e+02 0.0 
0.0 0.0 -9.114694320980e+01 
-2.233777136849e+01 5.967091446433e+00 0.0 
5.967091446433e+00 -5.172950885807e+01 0.0 
0.0 0.0 -2.182018406797e+01 
-9.513257264738e+01 7.581534655705e+00 0.0 
7.581534655705e+00 -2.518401390795e+02 0.0 
0.0 0.0 -1.036918135181e+02 
-2.365297451971e+01 1.482762400001e+01 0.0 
1.482762400001e+01 -5.280929130689e+01 0.0 
0.0 0.0 -2.253867974798e+01 
-7.690614761103e+01 1.444981594003e+01 0.0 
1.444981594003e+01 -2.003236718012e+02 0.0 
0.0 0.0 -8.276894582367e+01 
-8.953778151609e+01 5.275726244288e+00 0.0 
5.275726244288e+00 -2.422916462715e+02 0.0 
0.0 0.0 -9.914882833629e+01 
-9.405437312322e+01 1.505875790924e+01 0.0 
1.505875790924e+01 -2.299387358958e+02 0.0 
0.0 0.0 -9.679793270570e+01 
-8.066057628812e+01 1.356738353630e+00 0.0 
1.356738353630e+00 -1.724533608759e+02 0.0 
0.0 0.0 -7.553418114920e+01 
-5.063175644836e+01 -6.718454119272e-01 0.0 
-6.718454119272e-01 -1.387478895847e+02 0.0 
0.0 0.0 -5.641389380990e+01 
-2.017952448700e+01 1.062634049878e+01 0.0 
1.062634049878e+01 -4.477653543027e+01 0.0 
0.0 0.0 -1.908681797518e+01 
-9.830718144384e+01 6.069376591316e+00 0.0 
6.069376591316e+00 -2.609938080883e+02 0.0 
0.0 0.0 -1.073902968596e+02 
-2.520126141219e+01 1.538171066808e+01 0.0 
1.538171066808e+01 -5.411352087849e+01 0.0 
0.0 0.0 -2.339443468721e+01 
-1.684520545992e+01 3.633566865140e-01 0.0 
3.633566865140e-01 -2.521460021091e+01 0.0 
0.0 0.0 -1.221794170125e+01 
-1.110404663736e+02 -3.324812809584e-01 0.0 
-3.324812809584e-01 -2.540099917160e+02 0.0 
0.0 0.0 -1.091151374269e+02 
-1.042638957765e+02 -4.837277183799e-01 0.0 
-4.837277183799e-01 -2.354089051978e+02 0.0 
0.0 0.0 -1.015018402923e+02 
-1.351574086212e+01 -1.327256429386e+00 0.0 
-1.327256429386e+00 -2.469969296976e+01 0.0 
0.0 0.0 -1.144667798313e+01 
-1.040408089013e+02 8.475736701801e+00 0.0 
8.475736701801e+00 -2.704534113666e+02 0.0 
0.0 0.0 -1.119482660804e+02 
-4.016164567999e+01 -1.327704693487e+00 0.0 
-1.327704693487e+00 -1.082063152805e+02 0.0 
0.0 0.0 -4.411038828815e+01 
-4.205667991192e+01 -2.364975293571e+00 0.0 
-2.364975293571e+00 -1.155894885543e+02 0.0 
0.0 0.0 -4.689385053986e+01 
-1.111573438198e+02 1.487692045316e+01 0.0 
1.487692045316e+01 -2.493335614620e+02 0.0 
0.0 0.0 -1.077472715845e+02 
-9.398182305038e+01 1.643023771702e+01 0.0 
1.643023771702e+01 -2.301744052582e+02 0.0 
0.0 0.0 -9.684686849256e+01 
-1.074179642852e+02 1.514364141857e+01 0.0 
1.514364141857e+01 -2.422921944590e+02 0.0 
0.0 0.0 -1.045130476233e+02 
-5.938424536922e+01 4.361785771091e+00 0.0 
4.361785771091e+00 -1.697088908740e+02 0.0 
0.0 0.0 -6.832794087296e+01 
-5.323204629925e+01 -2.410885157751e-02 0.0 
-2.410885157751e-02 -1.060294604118e+02 0.0 
0.0 0.0 -4.737845201332e+01 
-1.513268331419e+02 8.218393341651e+00 0.0 
8.218393341651e+00 -3.602784009508e+02 0.0 
0.0 0.0 -1.530815702278e+02 
-3.544885497020e+01 -2.560950831790e+00 0.0 
-2.560950831790e+00 -9.614855232669e+01 0.0 
0.0 0.0 -3.907922218906e+01 
-1.213841544818e+02 1.355220374163e+01 0.0 
1.355220374163e+01 -3.018485175575e+02 0.0 
0.0 0.0 -1.265698016118e+02 
-8.118971315912e+01 1.550832646076e+01 0.0 
1.550832646076e+01 -2.060126521081e+02 0.0 
0.0 0.0 -8.576070958015e+01 
-2.893498087257e+01 -1.202654512332e+00 0.0 
-1.202654512332e+00 -7.623881067064e+01 0.0 
0.0 0.0 -3.115213746296e+01 
-9.971531238659e+01 1.173701839120e+01 0.0 
1.173701839120e+01 -2.116389789884e+02 0.0 
0.0 0.0 -9.300628741248e+01 
-6.090321180082e+01 5.492486086825e+00 0.0 
5.492486086825e+00 -1.770434050480e+02 0.0 
0.0 0.0 -7.098398505466e+01 
-1.852381475731e+01 -2.040657449198e+00 0.0 
-2.040657449198e+00 -4.201090902150e+01 0.0 
0.0 0.0 -1.776041713364e+01 
-5.069249888873e+01 3.129739653268e+00 0.0 
3.129739653268e+00 -1.511550160567e+02 0.0 
0.0 0.0 -6.015425448362e+01 
-1.132847668590e+02 -6.950915947232e-01 0.0 
-6.950915947232e-01 -2.855886477580e+02 0.0 
0.0 0.0 -1.192620243851e+02 
-1.011529726904e+02 1.240068287446e+01 0.0 
1.240068287446e+01 -2.100444693695e+02 0.0 
0.0 0.0 -9.295923261799e+01 
-2.878886952482e+01 -1.790699129714e+00 0.0 
-1.790699129714e+00 -7.340790565945e+01 0.0 
0.0 0.0 -3.025903255528e+01 
-9.027327481712e+01 5.906291147439e-01 0.0 
5.906291147439e-01 -2.334154573925e+02 0.0 
0.0 0.0 -9.670661966289e+01 
-1.074086367081e+02 1.398458881498e+01 0.0 
1.398458881498e+01 -2.367510253013e+02 0.0 
0.0 0.0 -1.028478986028e+02 
-1.163696295499e+02 1.686738020914e+01 0.0 
1.686738020914e+01 -2.816152099668e+02 0.0 
0.0 0.0 -1.189954518550e+02 
-5.246125291909e+01 -1.059860436741e+00 0.0 
-1.059860436741e+00 -1.485606802898e+02 0.0 
0.0 0.0 -5.990657996267e+01 
-4.464749161230e+01 -9.880340193857e-01 0.0 
-9.880340193857e-01 -1.196795185939e+02 0.0 
0.0 0.0 -4.889810306185e+01 
-8.511469483018e+01 1.366922922917e+01 0.0 
1.366922922917e+01 -2.182437915609e+02 0.0 
0.0 0.0 -9.060754591731e+01 
-7.768308440562e+01 8.772905302813e-01 0.0 
8.772905302813e-01 -1.667093179604e+02 0.0 
0.0 0.0 -7.291772070982e+01 
-1.875892119452e+01 -1.958418686805e+00 0.0 
-1.958418686805e+00 -4.139955518044e+01 0.0 
0.0 0.0 -1.764754291249e+01 
-1.329339875394e+02 1.899638281699e+01 0.0 
1.899638281699e+01 -3.070954125460e+02 0.0 
0.0 0.0 -1.316088200256e+02 
-1.228511147472e+02 1.257030595705e+01 0.0 
1.257030595705e+01 -2.822942204490e+02 0.0 
0.0 0.0 -1.211436005589e+02 
-6.648463899251e+01 8.483282155132e-01 0.0 
8.483282155132e-01 -1.391644532059e+02 0.0 
0.0 0.0 -6.129472765953e+01 
-1.193241880766e+02 7.184710847728e+00 0.0 
7.184710847728e+00 -2.691889415855e+02 0.0 
0.0 0.0 -1.161539388987e+02 
-1.256773436506e+02 1.434235329973e+01 0.0 
1.434235329973e+01 -2.892164318156e+02 0.0 
0.0 0.0 -1.240681326399e+02 
-6.157056828429e+01 3.360928594162e+00 0.0 
3.360928594162e+00 -1.782463346964e+02 0.0 
0.0 0.0 -7.154507089422e+01 
-6.019580883418e+01 2.609941000324e+00 0.0 
2.609941000324e+00 -1.702798055403e+02 0.0 
0.0 0.0 -6.874268431236e+01 
-1.423097829822e+02 1.606023201562e+01 0.0 
1.606023201562e+01 -3.432044748109e+02 0.0 
0.0 0.0 -1.452542773379e+02 
-1.576994758741e+01 4.418339529176e-01 0.0 
4.418339529176e-01 -8.677126134005e+00 0.0 
0.0 0.0 -7.884734299210e+00 
-4.079611574461e+01 -8.225841592796e-01 0.0 
-8.225841592796e-01 -1.091381877251e+02 0.0 
0.0 0.0 -4.458029104092e+01 
-9.161551490737e+01 -7.237218347604e-01 0.0 
-7.237218347604e-01 -2.378361084060e+02 0.0 
0.0 0.0 -9.843548699401e+01 
-5.412587465657e+01 -1.774326832209e-01 0.0 
-1.774326832209e-01 -1.494902786250e+02 0.0 
0.0 0.0 -6.068484598448e+01 
-5.149504128338e+01 1.198187404239e+00 0.0 
1.198187404239e+00 -1.513763111792e+02 0.0 
0.0 0.0 -6.046140573877e+01 
-1.974065345836e+01 1.350356235318e+01 0.0 
1.350356235318e+01 -1.694165118921e+01 0.0 
0.0 0.0 -1.060469139427e+01 
-2.231468672255e+01 1.585415028464e+01 0.0 
1.585415028464e+01 -1.984120395411e+01 0.0 
0.0 0.0 -1.224676720300e+01 
-6.970744922102e+01 1.981487062338e+00 0.0 
1.981487062338e+00 -1.398859069839e+02 0.0 
0.0 0.0 -6.247800686149e+01 
-5.546571870018e+01 4.965023478863e+00 0.0 
4.965023478863e+00 -1.601292018908e+02 0.0 
0.0 0.0 -6.427847617729e+01 
-4.726436946788e+01 -1.266729564445e+00 0.0 
-1.266729564445e+00 -1.273906220147e+02 0.0 
0.0 0.0 -5.199649744476e+01 
-1.105655955772e+02 1.551500968765e+01 0.0 
1.551500968765e+01 -2.673830752931e+02 0.0 
0.0 0.0 -1.129846012611e+02 
-1.597566927155e+02 6.759583239993e+00 0.0 
6.759583239993e+00 -3.787221113945e+02 0.0 
0.0 0.0 -1.611436412330e+02 
-1.583968889882e+02 8.068539747320e+00 0.0 
8.068539747320e+00 -3.765232477312e+02 0.0 
0.0 0.0 -1.600760410158e+02 
-6.227524479879e+01 1.663933465751e+00 0.0 
1.663933465751e+00 -1.783405239242e+02 0.0 
0.0 0.0 -7.178473061689e+01 
-6.352680259438e+01 8.075224820320e-01 0.0 
8.075224820320e-01 -1.235944807917e+02 0.0 
0.0 0.0 -5.573638501584e+01 
-1.994628780076e+01 -8.421186267724e-02 0.0 
-8.421186267724e-02 -2.073001750569e+01 0.0 
0.0 0.0 -1.180289159193e+01 
-2.096435418861e+01 1.433865405191e+01 0.0 
1.433865405191e+01 -1.864354828347e+01 0.0 
0.0 0.0 -1.148237074162e+01 
-2.882714075417e+01 -1.116591340052e+00 0.0 
-1.116591340052e+00 -7.286657908037e+01 0.0 
0.0 0.0 -3.010811595036e+01 
-2.101105982162e+01 1.440492350164e+01 0.0 
1.440492350164e+01 -1.878035786144e+01 0.0 
0.0 0.0 -1.153742530492e+01 
-8.955995927380e+01 1.566941843150e+01 0.0 
1.566941843150e+01 -2.242725458453e+02 0.0 
0.0 0.0 -9.374975153573e+01 
-5.222888428030e+01 -1.577456478735e-01 0.0 
-1.577456478735e-01 -1.506521075684e+02 0.0 
0.0 0.0 -6.046429755461e+01 
-5.639768744220e+01 2.960518886817e+00 0.0 
2.960518886817e+00 -1.612919044523e+02 0.0 
0.0 0.0 -6.490687756835e+01 
-2.198473273079e+01 -9.278543435720e-01 0.0 
-9.278543435720e-01 -4.130791134046e+01 0.0 
0.0 0.0 -1.858779322138e+01 
-1.047846410690e+02 5.311772269423e-01 0.0 
5.311772269423e-01 -2.383866767139e+02 0.0 
0.0 0.0 -1.025513953349e+02 
-5.712006397120e+01 1.493788945809e+00 0.0 
1.493788945809e+00 -1.611617650126e+02 0.0 
0.0 0.0 -6.508454869514e+01 
-1.105753217478e+02 1.538112932365e+00 0.0 
1.538112932365e+00 -2.517478926402e+02 0.0 
0.0 0.0 -1.082969643164e+02 
-9.994110739267e+01 1.498123496684e+00 0.0 
1.498123496684e+00 -2.229263887226e+02 0.0 
0.0 0.0 -9.646024883457e+01 
-1.241455676232e+02 8.450533815839e-01 0.0 
8.450533815839e-01 -2.882552942442e+02 0.0 
0.0 0.0 -1.233202585602e+02 
-1.614969102662e+02 1.341768945149e+00 0.0 
1.341768945149e+00 -3.822007665891e+02 0.0 
0.0 0.0 -1.627093030566e+02 
-6.649177664572e+01 -5.449790679824e-01 0.0 
-5.449790679824e-01 -1.396276507217e+02 0.0 
0.0 0.0 -6.143582821023e+01 
-6.082868675226e+01 1.346211926439e+00 0.0 
1.346211926439e+00 -1.697905409682e+02 0.0 
0.0 0.0 -6.878576831614e+01 
-1.495018192072e+01 5.650938390341e+00 0.0 
5.650938390341e+00 -1.495794724693e+01 0.0 
0.0 0.0 -8.572438750295e+00 
-6.285679061367e+01 4.103003992869e-01 0.0 
4.103003992869e-01 -1.775007548129e+02 0.0 
0.0 0.0 -7.170726362798e+01 
-1.628235505448e+02 5.369749726742e+00 0.0 
5.369749726742e+00 -3.812549512713e+02 0.0 
0.0 0.0 -1.628235505448e+02 
-1.964305329786e+01 1.296143906664e+01 0.0 
1.296143906664e+01 -1.735328850492e+01 0.0 
0.0 0.0 -1.069890254083e+01 
-2.020234044339e+01 1.364038723618e+01 0.0 
1.364038723618e+01 -1.799446871630e+01 0.0 
0.0 0.0 -1.105904274791e+01 
-1.255694760852e+02 1.475013468333e+01 0.0 
1.475013468333e+01 -3.090630926777e+02 0.0 
0.0 0.0 -1.299897706289e+02 
-6.224731254961e+01 7.008870406917e-01 0.0 
7.008870406917e-01 -1.239667462388e+02 0.0 
0.0 0.0 -5.546421763653e+01 
-1.110482096820e+02 6.866913058973e-01 0.0 
6.866913058973e-01 -2.537188643384e+02 0.0 
0.0 0.0 -1.090301222061e+02 
-1.082373343250e+02 1.625233116062e+01 0.0 
1.625233116062e+01 -2.373092704716e+02 0.0 
0.0 0.0 -1.032639814390e+02 
-1.239589946205e+02 1.600071457541e+01 0.0 
1.600071457541e+01 -2.994096815652e+02 0.0 
0.0 0.0 -1.266106028557e+02 
-1.122996751946e+02 1.462885440165e+01 0.0 
1.462885440165e+01 -2.422252613764e+02 0.0 
0.0 0.0 -1.059574809713e+02 
-6.845819612077e+01 -3.280955702424e-01 0.0 
-3.280955702424e-01 -1.431281592945e+02 0.0 
0.0 0.0 -6.307590662459e+01 
-4.749036294115e+01 -8.042843942005e-01 0.0 
-8.042843942005e-01 -1.308626642559e+02 0.0 
0.0 0.0 -5.310590815910e+01 
-4.595269604683e+01 -1.661723393669e+00 0.0 
-1.661723393669e+00 -1.300482077230e+02 0.0 
0.0 0.0 -5.240027113094e+01 
-8.559872470869e+01 -3.816284540995e-01 0.0 
-3.816284540995e-01 -1.863705171344e+02 0.0 
0.0 0.0 -8.119077255292e+01 
-1.204421278200e+02 1.773828662394e+01 0.0 
1.773828662394e+01 -2.874200202455e+02 0.0 
0.0 0.0 -1.219586444196e+02 
-5.822144096786e+01 1.405342782578e+00 0.0 
1.405342782578e+00 -1.079918257604e+02 0.0 
0.0 0.0 -4.946398001849e+01 
-5.974524033827e+01 3.105027748885e-02 0.0 
3.105027748885e-02 -1.226899210184e+02 0.0 
0.0 0.0 -5.433054840699e+01 
-6.657298969458e+01 4.650475130372e-01 0.0 
4.650475130372e-01 -1.386152489633e+02 0.0 
0.0 0.0 -6.115647159735e+01 
-6.904210172498e+01 1.414374737716e+00 0.0 
1.414374737716e+00 -1.442619717079e+02 0.0 
0.0 0.0 -6.359122202986e+01 
-2.363795319786e+01 -5.426393591560e-01 0.0 
-5.426393591560e-01 -6.105306841019e+01 0.0 
0.0 0.0 -2.500730648242e+01 
-4.265354230213e+01 -2.080246200318e+00 0.0 
-2.080246200318e+00 -1.191341853968e+02 0.0 
0.0 0.0 -4.813631830967e+01 
-1.189819368440e+02 3.129371688416e+00 0.0 
3.129371688416e+00 -2.729481084171e+02 0.0 
0.0 0.0 -1.171790135783e+02 
-7.724082062730e+01 1.601980208592e+00 0.0 
1.601980208592e+00 -1.635665669410e+02 0.0 
0.0 0.0 -7.184221627050e+01 
-1.430997333645e+02 1.694035706535e+01 0.0 
1.694035706535e+01 -3.410935242981e+02 0.0 
0.0 0.0 -1.448579772988e+02 
-1.231748086107e+02 1.525350642850e+01 0.0 
1.525350642850e+01 -2.733300430045e+02 0.0 
0.0 0.0 -1.185514554846e+02 
-1.009914087460e+02 1.420613951469e+01 0.0 
1.420613951469e+01 -2.128349711824e+02 0.0 
0.0 0.0 -9.374791397851e+01 
-1.149200004986e+02 7.051450768622e+00 0.0 
7.051450768622e+00 -2.565259460106e+02 0.0 
0.0 0.0 -1.110337839527e+02 
-6.650035310648e+01 -8.747729742567e-01 0.0 
-8.747729742567e-01 -1.775668692392e+02 0.0 
0.0 0.0 -7.282016670371e+01 
-6.023842456872e+01 -1.063923223919e+00 0.0 
-1.063923223919e+00 -1.621318427362e+02 0.0 
0.0 0.0 -6.631108019149e+01 
-1.420522810938e+02 7.166858084748e+00 0.0 
7.166858084748e+00 -3.451677755235e+02 0.0 
0.0 0.0 -1.457660169852e+02 
-1.597134640427e+01 -1.270981990617e+00 0.0 
-1.270981990617e+00 -2.423817267544e+01 0.0 
0.0 0.0 -1.211554039494e+01 
-4.368023847285e+01 -2.618370750498e-01 0.0 
-2.618370750498e-01 -1.153835760231e+02 0.0 
0.0 0.0 -4.731914434879e+01 
-1.436983168341e+02 1.980545931292e+01 0.0 
1.980545931292e+01 -3.366294059463e+02 0.0 
0.0 0.0 -1.436983168341e+02 
-2.164000402628e+01 5.349443076203e-01 0.0 
5.349443076203e-01 -5.769616380885e+01 0.0 
0.0 0.0 -2.340085035054e+01 
-5.974638868557e+01 1.008747513022e-02 0.0 
1.008747513022e-02 -1.227351413722e+02 0.0 
0.0 0.0 -5.434445901732e+01 
-1.358915789042e+02 1.382026030136e+01 0.0 
1.382026030136e+01 -3.330085403118e+02 0.0 
0.0 0.0 -1.402700357648e+02 
-1.786910460487e+01 -1.935323228650e+00 0.0 
-1.935323228650e+00 -3.921639993735e+01 0.0 
0.0 0.0 -1.672565136267e+01 
-1.112692415757e+01 -5.900712209380e-01 0.0 
-5.900712209380e-01 -2.403313281508e+01 0.0 
0.0 0.0 -1.014801709180e+01 
-1.260290925073e+02 5.924408500483e+00 0.0 
5.924408500483e+00 -2.908769575761e+02 0.0 
0.0 0.0 -1.246718150250e+02 
-5.405052544417e+01 -2.266603705127e-01 0.0 
-2.266603705127e-01 -1.060075553320e+02 0.0 
0.0 0.0 -4.761742423287e+01 
-1.180508172274e+02 3.772585875839e+00 0.0 
3.772585875839e+00 -2.693909479701e+02 0.0 
0.0 0.0 -1.158325295592e+02 
-1.364981777737e+02 1.404849924644e+01 0.0 
1.404849924644e+01 -3.303466981624e+02 0.0 
0.0 0.0 -1.396534627808e+02 
-5.374962382035e+01 3.308997323550e-01 0.0 
3.308997323550e-01 -1.057187727468e+02 0.0 
0.0 0.0 -4.744051897016e+01 
-2.034869785546e+01 5.906483525936e-01 0.0 
5.906483525936e-01 -2.181017931742e+01 0.0 
0.0 0.0 -1.224766315186e+01 
-1.169871583988e+02 1.260231262783e+00 0.0 
1.260231262783e+00 -2.711459399053e+02 0.0 
0.0 0.0 -1.160399294912e+02 
-2.416857508980e+01 -4.994496007485e-01 0.0 
-4.994496007485e-01 -6.347161829088e+01 0.0 
0.0 0.0 -2.589205801420e+01 
-1.128616906403e+02 3.401323037767e+00 0.0 
3.401323037767e+00 -2.576658151800e+02 0.0 
0.0 0.0 -1.107582517461e+02 
-1.630892510831e+02 4.133817066855e+00 0.0 
4.133817066855e+00 -3.818749191938e+02 0.0 
0.0 0.0 -1.630892510831e+02 
-1.199631985950e+02 1.278373022060e+01 0.0 
1.278373022060e+01 -2.675029593623e+02 0.0 
0.0 0.0 -1.158398473872e+02 
-2.739854255345e+01 -2.647555210885e-01 0.0 
-2.647555210885e-01 -7.887857594185e+01 0.0 
0.0 0.0 -3.148313554859e+01 
-7.191467313855e+01 2.465279718549e+00 0.0 
2.465279718549e+00 -1.418655405868e+02 0.0 
0.0 0.0 -6.373406411761e+01 
-6.777245229395e+01 2.395232228828e-01 0.0 
2.395232228828e-01 -1.804398490422e+02 0.0 
0.0 0.0 -7.406369040084e+01 
-1.113540725256e+02 1.692070098620e+01 0.0 
1.692070098620e+01 -2.678704032204e+02 0.0 
0.0 0.0 -1.133673427238e+02 
-1.487232004786e+02 1.954258018491e+01 0.0 
1.954258018491e+01 -3.509642436921e+02 0.0 
0.0 0.0 -1.495062332512e+02 
-9.369136095968e+01 5.984448104860e-03 0.0 
5.984448104860e-03 -2.076444227754e+02 0.0 
0.0 0.0 -9.000073512051e+01 
-1.492184716893e+02 1.781102341068e+01 0.0 
1.781102341068e+01 -3.546305661985e+02 0.0 
0.0 0.0 -1.507547113663e+02 
-1.917710540246e+01 -1.117162455871e+00 0.0 
-1.117162455871e+00 -4.017508181200e+01 0.0 
0.0 0.0 -1.740565616434e+01 
-1.533959429188e+02 5.770056672276e+00 0.0 
5.770056672276e+00 -3.660804802614e+02 0.0 
0.0 0.0 -1.554429269541e+02 
-3.122763155003e+01 -2.848903475039e-01 0.0 
-2.848903475039e-01 -8.911017848071e+01 0.0 
0.0 0.0 -3.570134300922e+01 
-2.157223886093e+01 -9.760111411541e-01 0.0 
-9.760111411541e-01 -5.765233027999e+01 0.0 
0.0 0.0 -2.336737074227e+01 
-1.462528017455e+02 1.330351694862e+01 0.0 
1.330351694862e+01 -3.525834834790e+02 0.0 
0.0 0.0 -1.492508855673e+02 
-1.235445969356e+02 9.408156754814e+00 0.0 
9.408156754814e+00 -2.787296819380e+02 0.0 
0.0 0.0 -1.202822836621e+02 
-1.209873909337e+02 6.317983932817e+00 0.0 
6.317983932817e+00 -2.776209639935e+02 0.0 
0.0 0.0 -1.191825064782e+02 
-5.965383324941e+01 -5.457945184382e-01 0.0 
-5.457945184382e-01 -1.214301697196e+02 0.0 
0.0 0.0 -5.392520089071e+01 
-7.448990528822e+01 3.215919542434e+00 0.0 
3.215919542434e+00 -1.453303916155e+02 0.0 
0.0 0.0 -6.554608907111e+01 
-2.351782710917e+01 1.327361994201e+01 0.0 
1.327361994201e+01 -5.118076075928e+01 0.0 
0.0 0.0 -2.200957636054e+01 
-1.295289499691e+02 1.618047800100e+01 0.0 
1.618047800100e+01 -2.928082048655e+02 0.0 
0.0 0.0 -1.263011464504e+02 
-5.659772741617e+01 -9.860583822479e-01 0.0 
-9.860583822479e-01 -1.508349496021e+02 0.0 
0.0 0.0 -6.182980310547e+01 
-1.908371513108e+01 6.689073301173e+00 0.0 
6.689073301173e+00 -4.111035100638e+01 0.0 
0.0 0.0 -1.765821984124e+01 
-1.155582971418e+02 1.558331241957e+01 0.0 
1.558331241957e+01 -2.810277293700e+02 0.0 
0.0 0.0 -1.185758079536e+02 
-5.283982072353e+01 1.164067294853e-01 0.0 
1.164067294853e-01 -1.053403896726e+02 0.0 
0.0 0.0 -4.705406311884e+01 
-1.171761757308e+02 8.078042535609e+00 0.0 
8.078042535609e+00 -2.645176089506e+02 0.0 
0.0 0.0 -1.141081354044e+02 
-1.234381945129e+02 8.099962982956e-01 0.0 
8.099962982956e-01 -2.866095090389e+02 0.0 
0.0 0.0 -1.226143110655e+02 
-1.232113929275e+02 4.119417236726e-01 0.0 
4.119417236726e-01 -2.888265834974e+02 0.0 
0.0 0.0 -1.232113929275e+02 
-2.746482704245e+00 3.217429526162e-01 0.0 
3.217429526162e-01 -6.649578016616e+00 0.0 
0.0 0.0 -2.418818216258e+00 
-4.904946544572e+00 -2.735086705886e-01 0.0 
-2.735086705886e-01 -1.042445369045e+01 0.0 
0.0 0.0 -4.835326620665e+00 
-5.334032966349e+01 6.616402651215e-01 0.0 
6.616402651215e-01 -1.078114220965e+02 0.0 
0.0 0.0 -4.794552552799e+01 
-5.199553301543e+01 -1.083002185938e-01 0.0 
-1.083002185938e-01 -1.053065163259e+02 0.0 
0.0 0.0 -4.679061480241e+01 
-1.637646290133e+02 5.223591614748e-01 0.0 
5.223591614748e-01 -3.834508010311e+02 0.0 
0.0 0.0 -1.637646290133e+02 
-1.609923075899e+02 -6.293762388510e-01 0.0 
-6.293762388510e-01 -3.804644454529e+02 0.0 
0.0 0.0 -1.620370259128e+02 
-9.346109921673e+00 -7.270743653609e-01 0.0 
-7.270743653609e-01 -2.303701905652e+01 0.0 
0.0 0.0 -9.314938693459e+00 
-1.543136645391e+01 -4.322911670462e-01 0.0 
-4.322911670462e-01 -8.258187316740e+00 0.0 
0.0 0.0 -7.607292478400e+00 
-1.458758034902e+02 2.431118455946e+00 0.0 
2.431118455946e+00 -3.510893330329e+02 0.0 
0.0 0.0 -1.486895409569e+02 
-1.271720851394e+02 1.726608555501e+01 0.0 
1.726608555501e+01 -2.996784430131e+02 0.0 
0.0 0.0 -1.276551584457e+02 
-2.883024527953e+01 -6.500376449246e-01 0.0 
-6.500376449246e-01 -7.429221135683e+01 0.0 
0.0 0.0 -3.053673699091e+01 
-1.467830610256e+02 6.080873316827e+00 0.0 
6.080873316827e+00 -3.527898197893e+02 0.0 
0.0 0.0 -1.494718642445e+02 
-9.888541980041e+01 3.376483076231e-01 0.0 
3.376483076231e-01 -2.535511443030e+02 0.0 
0.0 0.0 -1.053309692310e+02 
-8.370308713013e+01 7.871295603540e-01 0.0 
7.871295603540e-01 -2.192032802253e+02 0.0 
0.0 0.0 -9.047191020662e+01 
-8.064827839417e+01 2.068509478159e-01 0.0 
2.068509478159e-01 -1.734701307580e+02 0.0 
0.0 0.0 -7.583552274564e+01 
-2.705459241566e+01 -2.064236343102e+00 0.0 
-2.064236343102e+00 -6.895321309805e+01 0.0 
0.0 0.0 -2.840234165411e+01 
-1.026537787370e+02 1.667576692280e+01 0.0 
1.667576692280e+01 -2.490210676585e+02 0.0 
0.0 0.0 -1.051024539186e+02 
-2.368758984575e+01 -1.223570065197e+00 0.0 
-1.223570065197e+00 -5.964588308293e+01 0.0 
0.0 0.0 -2.460004187860e+01 
-7.576069076893e+01 6.589612669331e-01 0.0 
6.589612669331e-01 -1.995026986585e+02 0.0 
0.0 0.0 -8.217901682822e+01 
-1.227832929154e+02 1.429652025562e+01 0.0 
1.429652025562e+01 -2.785350768273e+02 0.0 
0.0 0.0 -1.199955109228e+02 
-1.085350107372e+02 9.122424847622e-01 0.0 
9.122424847622e-01 -2.465386100217e+02 0.0 
0.0 0.0 -1.061220862277e+02 
-8.379446297901e+01 -3.767289960843e-01 0.0 
-3.767289960843e-01 -2.183162049215e+02 0.0 
0.0 0.0 -9.023320037017e+01 
-7.225581486516e+01 9.656519709606e-01 0.0 
9.656519709606e-01 -1.529833710307e+02 0.0 
0.0 0.0 -6.717175576875e+01 
-1.271572556821e+02 1.811288554400e+01 0.0 
1.811288554400e+01 -2.939752154393e+02 0.0 
0.0 0.0 -1.259397413364e+02 
-1.157923465526e+02 1.563881341755e+01 0.0 
1.563881341755e+01 -2.533228888506e+02 0.0 
0.0 0.0 -1.103345706210e+02 
-1.084223509843e+02 1.492254772263e+01 0.0 
1.492254772263e+01 -2.330405923502e+02 0.0 
0.0 0.0 -1.020388830003e+02 
-5.334254721362e+01 4.256250730533e-02 0.0 
4.256250730533e-02 -1.059491977733e+02 0.0 
0.0 0.0 -4.738752349606e+01 
-9.827262818486e+01 1.602786214824e+01 0.0 
1.602786214824e+01 -2.430409105159e+02 0.0 
0.0 0.0 -1.019940616102e+02 
-1.172682931657e+02 9.789870887265e+00 0.0 
9.789870887265e+00 -2.643205014768e+02 0.0 
0.0 0.0 -1.140766383928e+02 
-4.257106917626e+01 -9.048623838000e-01 0.0 
-9.048623838000e-01 -1.147581429052e+02 0.0 
0.0 0.0 -4.679876362445e+01 
-1.492645984654e+01 -1.171587521826e+00 0.0 
-1.171587521826e+00 -2.514133713001e+01 0.0 
0.0 0.0 -1.162033909296e+01 
-1.223044304035e+02 1.779573523949e+01 0.0 
1.779573523949e+01 -2.796726596657e+02 0.0 
0.0 0.0 -1.201931270207e+02 
-1.203234971884e+02 1.239037896655e+01 0.0 
1.239037896655e+01 -3.012840751639e+02 0.0 
0.0 0.0 -1.260822717057e+02 
-2.305817392010e+01 -1.899378809989e+00 0.0 
-1.899378809989e+00 -5.744240032372e+01 0.0 
0.0 0.0 -2.375017227315e+01 
-8.626591222083e+01 1.063878626684e+00 0.0 
1.063878626684e+00 -1.876374747656e+02 0.0 
0.0 0.0 -8.177101609591e+01 
-1.540363614073e+02 3.208401159293e+00 0.0 
3.208401159293e+00 -3.656092975782e+02 0.0 
0.0 0.0 -1.554936976956e+02 
-1.220935609590e+02 1.681084286573e+01 0.0 
1.681084286573e+01 -2.855032901111e+02 0.0 
0.0 0.0 -1.218790553210e+02 
-1.280022454068e+02 1.877413506419e+01 0.0 
1.877413506419e+01 -2.975765512259e+02 0.0 
0.0 0.0 -1.272736389898e+02 
-1.079042983173e+02 1.058435170330e+00 0.0 
1.058435170330e+00 -2.736158159041e+02 0.0 
0.0 0.0 -1.140560342664e+02 
-1.530269852784e+01 3.948341990988e+00 0.0 
3.948341990988e+00 -2.134691350148e+01 0.0 
0.0 0.0 -1.087167465802e+01 
-1.760734861758e+01 1.258444396765e+01 0.0 
1.258444396765e+01 -1.614782333376e+01 0.0 
0.0 0.0 -9.726551585403e+00 
-2.687925188208e+01 1.631288697511e+01 0.0 
1.631288697511e+01 -5.478018002294e+01 0.0 
0.0 0.0 -2.409782957151e+01 
-7.255024436909e+01 2.576101953878e+00 0.0 
2.576101953878e+00 -1.417731518553e+02 0.0 
0.0 0.0 -6.389701886731e+01 
-9.794699522696e+01 1.458428825563e+01 0.0 
1.458428825563e+01 -2.426534799628e+02 0.0 
0.0 0.0 -1.017801425569e+02 
-1.139907947468e+02 3.651145271888e+00 0.0 
3.651145271888e+00 -2.599324541356e+02 0.0 
0.0 0.0 -1.117769746647e+02 
-1.435605145618e+02 1.518049041699e+01 0.0 
1.518049041699e+01 -3.424344753933e+02 0.0 
0.0 0.0 -1.453984969865e+02 
-2.147180791375e+01 -1.884879211651e+00 0.0 
-1.884879211651e+00 -4.164937634698e+01 0.0 
0.0 0.0 -1.853635527822e+01 
-1.979949663890e+01 -2.255165144851e+00 0.0 
-2.255165144851e+00 -4.046024957917e+01 0.0 
0.0 0.0 -1.767792386542e+01 
-1.971218898517e+01 1.379895295699e+01 0.0 
1.379895295699e+01 -1.817600393350e+01 0.0 
0.0 0.0 -1.096645787560e+01 
-8.841727162134e+01 -2.972698420743e-01 0.0 
-2.972698420743e-01 -1.932244568033e+02 0.0 
0.0 0.0 -8.409251852740e+01 
-5.261642747294e+01 -2.191363205568e-02 0.0 
-2.191363205568e-02 -1.406052230702e+02 0.0 
0.0 0.0 -5.756649516294e+01 
-1.178055237951e+02 7.995595021613e+00 0.0 
7.995595021613e+00 -2.648316190775e+02 0.0 
0.0 0.0 -1.143911428618e+02 
-2.741260936392e+01 -7.376529672745e-02 0.0 
-7.376529672745e-02 -7.119688094291e+01 0.0 
0.0 0.0 -2.918284709205e+01 
-1.340200881163e+02 1.439358090119e+01 0.0 
1.439358090119e+01 -3.253521908616e+02 0.0 
0.0 0.0 -1.374116836934e+02 
-6.848667857740e+01 3.795159007618e-01 0.0 
3.795159007618e-01 -1.388680484044e+02 0.0 
0.0 0.0 -6.180641809455e+01 
-1.390658806486e+02 1.824271897138e+01 0.0 
1.824271897138e+01 -3.272842536108e+02 0.0 
0.0 0.0 -1.395050402778e+02 
-1.158731923520e+02 1.785862877968e+01 0.0 
1.785862877968e+01 -2.748209847406e+02 0.0 
0.0 0.0 -1.168082531278e+02 
-7.375819038075e+01 3.723405293053e+00 0.0 
3.723405293053e+00 -1.424060958428e+02 0.0 
0.0 0.0 -6.444928586708e+01 
-1.479016780805e+02 1.103752237537e+01 0.0 
1.103752237537e+01 -3.567912891094e+02 0.0 
0.0 0.0 -1.510078901570e+02 
-1.223466680932e+02 8.022573167954e+00 0.0 
8.022573167954e+00 -2.779350117861e+02 0.0 
0.0 0.0 -1.196845039638e+02 
-1.187502841077e+02 4.440970392915e-01 0.0 
4.440970392915e-01 -2.727444480909e+02 0.0 
0.0 0.0 -1.170484196596e+02 
-2.103977121608e+01 1.408762451264e+01 0.0 
1.408762451264e+01 -1.786813861912e+01 0.0 
0.0 0.0 -1.127237295056e+01 
-1.134883713469e+02 5.517055448947e+00 0.0 
5.517055448947e+00 -2.557479435886e+02 0.0 
0.0 0.0 -1.103708944806e+02 
-1.310164964242e+02 1.765709913338e+01 0.0 
1.765709913338e+01 -3.042057446579e+02 0.0 
0.0 0.0 -1.301666723246e+02 
-1.338477051625e+02 1.554626008798e+01 0.0 
1.554626008798e+01 -3.259724474599e+02 0.0 
0.0 0.0 -1.375460457867e+02 
-1.190445749785e+02 1.588873048344e+01 0.0 
1.588873048344e+01 -2.862227671626e+02 0.0 
0.0 0.0 -1.211802026423e+02 
-1.619572689034e+02 6.888465834432e+00 0.0 
6.888465834432e+00 -3.792336274414e+02 0.0 
0.0 0.0 -1.619572689034e+02 
-1.068077375674e+02 1.245242731918e+01 0.0 
1.245242731918e+01 -2.318712332067e+02 0.0 
0.0 0.0 -1.012036912322e+02 
-1.500292594161e+01 3.628388643011e+00 0.0 
3.628388643011e+00 -9.368427918428e+00 0.0 
0.0 0.0 -7.863149058537e+00 
-2.108565374365e+01 9.364893070160e+00 0.0 
9.364893070160e+00 -4.522900260345e+01 0.0 
0.0 0.0 -1.949439690413e+01 
-1.188602719239e+02 1.526484059665e+01 0.0 
1.526484059665e+01 -2.621990167725e+02 0.0 
0.0 0.0 -1.139177866089e+02 
-7.779302490508e+01 2.392173894186e+00 0.0 
2.392173894186e+00 -1.564719489675e+02 0.0 
0.0 0.0 -6.987949216176e+01 
-1.458273840398e+02 2.429632867521e+00 0.0 
2.429632867521e+00 -3.508570878120e+02 0.0 
0.0 0.0 -1.486053415555e+02 
-1.246880512208e+02 1.836172160476e+01 0.0 
1.836172160476e+01 -2.941190371776e+02 0.0 
0.0 0.0 -1.252421265195e+02 
-1.542517445776e+02 6.171144089381e+00 0.0 
6.171144089381e+00 -3.658073775333e+02 0.0 
0.0 0.0 -1.556177366332e+02 
-9.672430169864e+01 1.321995037082e-01 0.0 
1.321995037082e-01 -2.141446096619e+02 0.0 
0.0 0.0 -9.286067340816e+01 
-1.405473957295e+02 1.790884423522e+01 0.0 
1.790884423522e+01 -3.315799997488e+02 0.0 
0.0 0.0 -1.412382186435e+02 
-1.431028612018e+02 1.001786125232e+01 0.0 
1.001786125232e+01 -3.459681466758e+02 0.0 
0.0 0.0 -1.463213023633e+02 
-1.420893918773e+02 8.907335965277e+00 0.0 
8.907335965277e+00 -3.453913331159e+02 0.0 
0.0 0.0 -1.458442174980e+02 
-5.482432546486e+01 -9.181418635824e-02 0.0 
-9.181418635824e-02 -1.460588362757e+02 0.0 
0.0 0.0 -5.986494852218e+01 
-1.604110918654e+02 5.894291383778e+00 0.0 
5.894291383778e+00 -3.799174722309e+02 0.0 
0.0 0.0 -1.616985692289e+02 
-6.293016962741e+01 1.102565103164e+00 0.0 
1.102565103164e+00 -1.228962104315e+02 0.0 
0.0 0.0 -5.534791401767e+01 
-1.119622941144e+02 2.348461895553e+00 0.0 
2.348461895553e+00 -2.544004300578e+02 0.0 
0.0 0.0 -1.095088172517e+02 
-1.815336113356e+01 -1.888556078493e+00 0.0 
-1.888556078493e+00 -4.110523185104e+01 0.0 
0.0 0.0 -1.737757789538e+01 
-1.066000633377e+02 1.239646519978e+00 0.0 
1.239646519978e+00 -2.395036161590e+02 0.0 
0.0 0.0 -1.034311038490e+02 
-8.731769747857e+01 7.640842589041e-01 0.0 
7.640842589041e-01 -1.894941835865e+02 0.0 
0.0 0.0 -8.264356431953e+01 
-1.624132053863e+01 1.258799453443e-01 0.0 
1.258799453443e-01 -4.209966232094e+01 0.0 
0.0 0.0 -1.710229485787e+01 
-2.665788383986e+01 3.700725522460e-01 0.0 
3.700725522460e-01 -7.064532162321e+01 0.0 
0.0 0.0 -2.879096163892e+01 
-1.106350589642e+02 1.352173713195e+01 0.0 
1.352173713195e+01 -2.440720812254e+02 0.0 
0.0 0.0 -1.060121420569e+02 
-1.180390603209e+02 4.330472581162e+00 0.0 
4.330472581162e+00 -2.726127195804e+02 0.0 
0.0 0.0 -1.167955339704e+02 
-1.124895006908e+02 1.473099249334e+00 0.0 
1.473099249334e+00 -2.570341524412e+02 0.0 
0.0 0.0 -1.104570959396e+02 
-1.378991700784e+02 1.707696478859e+01 0.0 
1.707696478859e+01 -3.302119234247e+02 0.0 
0.0 0.0 -1.400333280509e+02 
-7.231323542510e+01 -3.473140110018e-01 0.0 
-3.473140110018e-01 -1.523969623577e+02 0.0 
0.0 0.0 -6.701305933483e+01 
-1.303894911716e+01 -1.287583517610e+00 0.0 
-1.287583517610e+00 -2.463622454327e+01 0.0 
0.0 0.0 -1.090255209813e+01 
-1.973930383209e+01 2.229108972536e+00 0.0 
2.229108972536e+00 -3.486636638796e+01 0.0 
0.0 0.0 -1.598170106602e+01 
-1.289532815250e+01 -1.861460399559e+00 0.0 
-1.861460399559e+00 -2.816598568811e+01 0.0 
0.0 0.0 -1.190980900932e+01 
-2.338100705558e+01 -1.719283079935e+00 0.0 
-1.719283079935e+00 -5.452655974584e+01 0.0 
0.0 0.0 -2.297227004043e+01 
-1.451576805032e+01 7.160887155249e+00 0.0 
7.160887155249e+00 -6.922136878068e+00 0.0 
0.0 0.0 -6.226993277828e+00 
-7.388966898146e+01 -5.566927478882e-01 0.0 
-5.566927478882e-01 -1.945692904734e+02 0.0 
0.0 0.0 -8.013768783645e+01 
-1.455389022641e+02 1.013210874696e+00 0.0 
1.013210874696e+00 -3.506904597639e+02 0.0 
0.0 0.0 -1.484688086084e+02 
-1.193162515396e+02 1.135767864670e+01 0.0 
1.135767864670e+01 -2.675178124724e+02 0.0 
0.0 0.0 -1.156502192036e+02 
-8.086446086270e+01 5.512784884467e+00 0.0 
5.512784884467e+00 -1.577067065686e+02 0.0 
0.0 0.0 -7.117135022938e+01 
-6.386480716411e+01 5.773369164817e-01 0.0 
5.773369164817e-01 -1.705184122271e+02 0.0 
0.0 0.0 -6.991496581738e+01 
-1.426736836046e+02 8.325278472862e+00 0.0 
8.325278472862e+00 -3.459922712315e+02 0.0 
0.0 0.0 -1.461997864508e+02 
-1.355542924983e+02 1.137317106807e+01 0.0 
1.137317106807e+01 -3.335688201087e+02 0.0 
0.0 0.0 -1.403369337821e+02 
-1.375154147370e+02 1.899323724380e+01 0.0 
1.899323724380e+01 -3.258710324481e+02 0.0 
0.0 0.0 -1.386159341555e+02 
-1.267156630895e+02 1.746341687311e+01 0.0 
1.746341687311e+01 -2.924340483893e+02 0.0 
0.0 0.0 -1.253449134436e+02 
-1.174954597614e+02 1.437310965807e+01 0.0 
1.437310965807e+01 -2.635958769055e+02 0.0 
0.0 0.0 -1.139274010001e+02 
-1.763087178995e+01 -2.122334383595e+00 0.0 
-2.122334383595e+00 -4.052285290898e+01 0.0 
0.0 0.0 -1.704611740968e+01 
-2.174906160464e+01 -4.408229620013e-01 0.0 
-4.408229620013e-01 -3.547986215122e+01 0.0 
0.0 0.0 -1.676867712676e+01 
-1.457749994681e+02 3.478884363802e+00 0.0 
3.478884363802e+00 -3.515371789464e+02 0.0 
0.0 0.0 -1.487936535243e+02 
-1.512628929634e+01 -3.843321238457e-01 0.0 
-3.843321238457e-01 -4.126431321810e+01 0.0 
0.0 0.0 -1.651718075433e+01 
-1.848556231780e+01 -1.103210761816e+00 0.0 
-1.103210761816e+00 -4.919978407781e+01 0.0 
0.0 0.0 -1.990560391868e+01 
-1.785919733070e+01 9.036057747245e+00 0.0 
9.036057747245e+00 -2.521651028475e+01 0.0 
0.0 0.0 -1.252271228463e+01 
-1.664248381826e+01 -9.930618197137e-01 0.0 
-9.930618197137e-01 -3.864947339725e+01 0.0 
0.0 0.0 -1.618758716465e+01 
-1.509309782876e+02 9.954541707402e+00 0.0 
9.954541707402e+00 -3.592785820692e+02 0.0 
0.0 0.0 -1.526628681070e+02 
-1.289908655510e+02 1.688374618279e+01 0.0 
1.688374618279e+01 -2.972339250695e+02 0.0 
0.0 0.0 -1.274674371861e+02 
-1.133269262442e+02 2.094739025361e+00 0.0 
2.094739025361e+00 -2.597765631845e+02 0.0 
0.0 0.0 -1.115310468286e+02 
-1.379357041185e+02 1.859023513215e+01 0.0 
1.859023513215e+01 -3.247417526216e+02 0.0 
0.0 0.0 -1.384032370221e+02 
-1.311486059703e+02 1.264264682299e+01 0.0 
1.264264682299e+01 -3.225860277673e+02 0.0 
0.0 0.0 -1.357203901213e+02 
-7.699093625866e+01 -3.783720638536e-01 0.0 
-3.783720638536e-01 -1.637216528564e+02 0.0 
0.0 0.0 -7.181377673453e+01 
-1.242807897992e+02 5.876507259986e+00 0.0 
5.876507259986e+00 -2.913218428647e+02 0.0 
0.0 0.0 -1.242807897992e+02 
-3.302324065230e+01 -9.031078251723e-01 0.0 
-9.031078251723e-01 -8.990949752078e+01 0.0 
0.0 0.0 -3.647982145193e+01 
-5.360391823495e+01 1.094448335509e-01 0.0 
1.094448335509e-01 -1.051365197491e+02 0.0 
0.0 0.0 -4.722213139520e+01 
-2.491187818861e+01 -2.362558463693e+00 0.0 
-2.362558463693e+00 -5.569422916293e+01 0.0 
0.0 0.0 -2.378183220546e+01 
-1.052844237019e+01 -9.595132577210e-01 0.0 
-9.595132577210e-01 -2.435405490098e+01 0.0 
0.0 0.0 -1.061160906183e+01 
-1.608844586586e+02 3.825768129261e+00 0.0 
3.825768129261e+00 -3.808719377691e+02 0.0 
0.0 0.0 -1.621269189283e+02 
-6.657012672618e+01 2.828843138144e+00 0.0 
2.828843138144e+00 -1.268995545797e+02 0.0 
0.0 0.0 -5.764090439176e+01 
-2.257934680421e+01 -8.647601857352e-01 0.0 
-8.647601857352e-01 -5.736202475147e+01 0.0 
0.0 0.0 -2.358241146671e+01 
-7.033429728309e+01 -1.033819484066e+00 0.0 
-1.033819484066e+00 -1.871621805046e+02 0.0 
0.0 0.0 -7.684894333630e+01 
-1.304431427597e+02 1.683847775269e+01 0.0 
1.683847775269e+01 -2.973065428409e+02 0.0 
0.0 0.0 -1.279249056802e+02 
-1.143233493465e+02 4.726769603556e+00 0.0 
4.726769603556e+00 -2.588583589334e+02 0.0 
0.0 0.0 -1.115545124840e+02 
-1.213104401335e+02 9.434127031298e+00 0.0 
9.434127031298e+00 -2.788070005434e+02 0.0 
0.0 0.0 -1.196352322031e+02 
-5.021012055042e+01 1.204931499074e-01 0.0 
1.204931499074e-01 -1.334095230980e+02 0.0 
0.0 0.0 -5.468589309453e+01 
-1.982249787382e+01 7.648821709075e-01 0.0 
7.648821709075e-01 -3.551312944474e+01 0.0 
0.0 0.0 -1.620068819557e+01 
-1.515037135709e+02 7.123888606184e+00 0.0 
7.123888606184e+00 -3.636353463173e+02 0.0 
0.0 0.0 -1.541417179665e+02 
-1.249898247384e+02 4.611272627047e-01 0.0 
4.611272627047e-01 -2.894369895693e+02 0.0 
0.0 0.0 -1.239280442923e+02 
-1.614221865878e+02 9.071142474480e-01 0.0 
9.071142474480e-01 -3.822918063031e+02 0.0 
0.0 0.0 -1.627141978673e+02 
-5.833611071687e+01 -4.879934887032e-01 0.0 
-4.879934887032e-01 -1.197146831204e+02 0.0 
0.0 0.0 -5.301523815119e+01 
-1.389375806586e+02 1.254914565644e+01 0.0 
1.254914565644e+01 -3.359830600041e+02 0.0 
0.0 0.0 -1.420761921988e+02 
-2.233535841848e+01 -5.848904647272e-01 0.0 
-5.848904647272e-01 -5.842085249166e+01 0.0 
0.0 0.0 -2.382686327304e+01 
-1.165996445564e+02 6.491286715078e+00 0.0 
6.491286715078e+00 -2.644900719369e+02 0.0 
0.0 0.0 -1.139269149480e+02 
-1.073163362522e+01 -8.894086634544e-01 0.0 
-8.894086634544e-01 -2.335719087948e+01 0.0 
0.0 0.0 -1.033440509894e+01 
-1.494732441145e+02 1.190805671925e+01 0.0 
1.190805671925e+01 -3.559828495291e+02 0.0 
0.0 0.0 -1.512368280931e+02 
-1.232958511788e+02 9.794047360254e+00 0.0 
9.794047360254e+00 -2.793377194974e+02 0.0 
0.0 0.0 -1.203900712029e+02 
-1.568329984859e+01 1.674782846733e+00 0.0 
1.674782846733e+00 -2.250346108925e+01 0.0 
0.0 0.0 -1.156529981598e+01 
-1.229964747205e+02 1.835057094809e+01 0.0 
1.835057094809e+01 -2.866754461738e+02 0.0 
0.0 0.0 -1.225015762683e+02 
-9.303864896697e+01 1.539423794975e+00 0.0 
1.539423794975e+00 -2.041423149724e+02 0.0 
0.0 0.0 -8.875428918181e+01 
-1.180935985944e+02 3.254015672145e+00 0.0 
3.254015672145e+00 -2.734631546416e+02 0.0 
0.0 0.0 -1.170670259708e+02 
-1.514531233415e+02 1.808240851937e+01 0.0 
1.808240851937e+01 -3.547239544636e+02 0.0 
0.0 0.0 -1.514531233415e+02 
-8.188525891552e+01 1.410001709052e+00 0.0 
1.410001709052e+00 -1.772642393892e+02 0.0 
0.0 0.0 -7.734484949142e+01 
-1.277884509625e+02 1.573993926727e+01 0.0 
1.573993926727e+01 -2.947226484194e+02 0.0 
0.0 0.0 -1.263533298146e+02 
-1.189424041970e+02 9.701879725004e+00 0.0 
9.701879725004e+00 -2.660489052867e+02 0.0 
0.0 0.0 -1.150973928451e+02 
-8.626751328570e+01 4.830528558975e-01 0.0 
4.830528558975e-01 -1.888341862821e+02 0.0 
0.0 0.0 -8.213050987034e+01 
-1.246477556186e+02 1.551090053548e+01 0.0 
1.551090053548e+01 -2.831261731450e+02 0.0 
0.0 0.0 -1.219321786291e+02 
-6.026299624683e+01 5.865386014951e-02 0.0 
5.865386014951e-02 -1.598726308023e+02 0.0 
0.0 0.0 -6.564068811473e+01 
-5.237282664103e+01 1.171233335601e-01 0.0 
1.171233335601e-01 -1.051960750804e+02 0.0 
0.0 0.0 -4.687067051641e+01 
-1.312369396078e+02 1.773338799113e+01 0.0 
1.773338799113e+01 -3.112150925190e+02 0.0 
0.0 0.0 -1.323356096380e+02 
-1.186972245757e+02 -7.531428778614e-02 0.0 
-7.531428778614e-02 -2.745832146294e+02 0.0 
0.0 0.0 -1.175841317615e+02 
-4.081689734954e+00 9.560948938092e-02 0.0 
9.560948938092e-02 -8.542941601117e+00 0.0 
0.0 0.0 -4.312638223988e+00 
-5.216445871215e+01 -2.227970092231e-01 0.0 
-2.227970092231e-01 -1.054863459412e+02 0.0 
0.0 0.0 -4.689524139601e+01 
-1.558378629106e+02 1.047071884819e+00 0.0 
1.047071884819e+00 -3.699236635117e+02 0.0 
0.0 0.0 -1.573284579267e+02 
-2.797481060379e+01 -1.674420568975e+00 0.0 
-1.674420568975e+00 -7.330988409404e+01 0.0 
0.0 0.0 -2.998540840935e+01 
-1.346061621504e+02 1.431990947182e+01 0.0 
1.431990947182e+01 -3.303314091992e+02 0.0 
0.0 0.0 -1.390812714049e+02 
-1.204470788522e+02 1.137416293758e+01 0.0 
1.137416293758e+01 -2.666264204924e+02 0.0 
0.0 0.0 -1.157220498034e+02 
-1.188848324032e+02 3.455214992102e+00 0.0 
3.455214992102e+00 -2.726342482789e+02 0.0 
0.0 0.0 -1.170557242046e+02 
-2.700842661424e+01 -1.260411025099e+00 0.0 
-1.260411025099e+00 -7.050490255347e+01 0.0 
0.0 0.0 -2.885399875031e+01 
-2.103095483207e+01 6.826250826552e+00 0.0 
6.826250826552e+00 -4.089529517507e+01 0.0 
0.0 0.0 -1.817787500214e+01 
-8.711525203125e+01 -1.311115002828e+00 0.0 
-1.311115002828e+00 -2.277389518850e+02 0.0 
0.0 0.0 -9.405626117487e+01 
-1.002858773297e+02 2.914955508578e-01 0.0 
2.914955508578e-01 -2.253480559206e+02 0.0 
0.0 0.0 -9.729017997510e+01 
-1.958264975905e+01 -5.575844591097e-01 0.0 
-5.575844591097e-01 -5.760179721190e+00 0.0 
0.0 0.0 -7.202848844072e+00 
-1.204921272001e+02 7.789375239823e+00 0.0 
7.789375239823e+00 -2.776391256807e+02 0.0 
0.0 0.0 -1.190393758642e+02 
-7.924869551862e+01 1.953784826549e-01 0.0 
1.953784826549e-01 -1.712053253166e+02 0.0 
0.0 0.0 -7.473620625056e+01 
-2.790534306674e+01 -1.796892962545e+00 0.0 
-1.796892962545e+00 -6.927064454880e+01 0.0 
0.0 0.0 -2.875279628466e+01 
-7.377727614130e+01 1.934648613321e-01 0.0 
1.934648613321e-01 -1.573695219023e+02 0.0 
0.0 0.0 -6.894403941307e+01 
-1.366297171074e+02 2.007476117479e+01 0.0 
2.007476117479e+01 -3.205494187595e+02 0.0 
0.0 0.0 -1.367537407601e+02 
-9.199252453766e+01 1.205574303171e+00 0.0 
1.205574303171e+00 -2.383910589236e+02 0.0 
0.0 0.0 -9.871507503839e+01 
-1.565566494635e+01 7.574458648783e+00 0.0 
7.574458648783e+00 -1.127165913705e+01 0.0 
0.0 0.0 -7.652194549652e+00 
-5.358757066652e+01 -1.103404804810e+00 0.0 
-1.103404804810e+00 -1.451172160171e+02 0.0 
0.0 0.0 -5.921143600508e+01 
-7.952090464343e+01 -3.173859521122e-01 0.0 
-3.173859521122e-01 -2.093909805633e+02 0.0 
0.0 0.0 -8.627356556203e+01 
-9.623674071707e+01 -1.333655257215e+00 0.0 
-1.333655257215e+00 -2.474214869432e+02 0.0 
0.0 0.0 -1.026974682981e+02 
-1.336807855664e+02 1.822475895245e+01 0.0 
1.822475895245e+01 -3.181371190104e+02 0.0 
0.0 0.0 -1.351453713731e+02 
-7.732275598860e+01 6.466638021472e-01 0.0 
6.466638021472e-01 -2.041233533304e+02 0.0 
0.0 0.0 -8.403383279570e+01 
-8.284137738703e+01 -2.287929708655e-01 0.0 
-2.287929708655e-01 -2.166398808126e+02 0.0 
0.0 0.0 -8.944437745989e+01 
-1.568580121713e+01 -1.508351137980e+00 0.0 
-1.508351137980e+00 -3.718462724068e+01 0.0 
0.0 0.0 -1.546112853734e+01 
-1.459888909845e+02 5.197297760758e+00 0.0 
5.197297760758e+00 -3.527364384181e+02 0.0 
0.0 0.0 -1.492175988208e+02 
-1.213758040590e+02 1.642365171542e+01 0.0 
1.642365171542e+01 -2.794841429853e+02 0.0 
0.0 0.0 -1.198579841133e+02 
-2.111337632661e+01 7.199532683980e+00 0.0 
7.199532683980e+00 -5.230187671819e+01 0.0 
0.0 0.0 -2.162457591344e+01 
-1.184087051807e+02 7.937695173821e-01 0.0 
7.937695173821e-01 -2.739088436680e+02 0.0 
0.0 0.0 -1.172952646546e+02 
-1.558700699421e+02 6.480633751629e-02 0.0 
6.480633751629e-02 -3.695159503690e+02 0.0 
0.0 0.0 -1.572158060933e+02 
-5.879751567779e+01 6.434436758333e-01 0.0 
6.434436758333e-01 -1.207527337913e+02 0.0 
0.0 0.0 -5.346507484073e+01 
-7.958213587942e+01 1.751893157659e-01 0.0 
1.751893157659e-01 -1.713267710915e+02 0.0 
0.0 0.0 -7.487267209126e+01 
-7.753136592241e+01 -6.251235911864e-01 0.0 
-6.251235911864e-01 -2.040092969978e+02 0.0 
0.0 0.0 -8.406219887606e+01 
-8.039023304393e+01 4.398319481682e-01 0.0 
4.398319481682e-01 -2.102614000420e+02 0.0 
0.0 0.0 -8.679548992578e+01 
-8.270137456262e+01 2.170048529668e-01 0.0 
2.170048529668e-01 -2.170536158722e+02 0.0 
0.0 0.0 -8.952649713043e+01 
-1.289203825248e+02 1.325835244137e+01 0.0 
1.325835244137e+01 -3.175734862642e+02 0.0 
0.0 0.0 -1.335481606367e+02 
-2.266331263787e+01 -2.466383101551e+00 0.0 
-2.466383101551e+00 -5.632300917084e+01 0.0 
0.0 0.0 -2.329589654261e+01 
-1.265927571628e+02 1.845454697677e+01 0.0 
1.845454697677e+01 -2.890734230517e+02 0.0 
0.0 0.0 -1.242998540643e+02 
-6.566294612829e+01 -1.096768465492e-01 0.0 
-1.096768465492e-01 -1.375464385986e+02 0.0 
0.0 0.0 -6.056281541808e+01 
-1.220150913014e+02 7.874698514356e+00 0.0 
7.874698514356e+00 -2.767099437653e+02 0.0 
0.0 0.0 -1.192175105200e+02 
-1.300234597750e+02 1.401347209764e+01 0.0 
1.401347209764e+01 -3.179082497532e+02 0.0 
0.0 0.0 -1.339795128584e+02 
-7.495041576499e+01 7.486643509938e-01 0.0 
7.486643509938e-01 -1.582039806243e+02 0.0 
0.0 0.0 -6.954631891678e+01 
-1.198168229529e+02 1.443375986951e+01 0.0 
1.443375986951e+01 -2.697689928655e+02 0.0 
0.0 0.0 -1.164757447455e+02 
-1.322707100025e+02 1.687268086772e+01 0.0 
1.687268086772e+01 -3.168746224979e+02 0.0 
0.0 0.0 -1.343435997501e+02 
-1.384900180220e+02 1.917572424909e+01 0.0 
1.917572424909e+01 -3.292605640858e+02 0.0 
0.0 0.0 -1.399251746323e+02 
-1.612700104097e+01 7.013582477130e+00 0.0 
7.013582477130e+00 -1.800598591547e+01 0.0 
0.0 0.0 -1.005392894799e+01 
-1.211751723070e+02 1.587507210465e+01 0.0 
1.587507210465e+01 -2.705764363751e+02 0.0 
0.0 0.0 -1.171254826046e+02 
-1.249228824911e+02 1.557321446890e+01 0.0 
1.557321446890e+01 -2.831940456864e+02 0.0 
0.0 0.0 -1.220350784533e+02 
-1.660177193923e+01 -6.237912053971e-01 0.0 
-6.237912053971e-01 -3.823282002111e+01 0.0 
0.0 0.0 -1.605037758810e+01 
-7.351594389683e+01 3.327770322792e-01 0.0 
3.327770322792e-01 -1.941406018320e+02 0.0 
0.0 0.0 -7.989696371866e+01 
-1.706044115537e+01 5.430125731350e+00 0.0 
5.430125731350e+00 -1.708814031485e+01 0.0 
0.0 0.0 -9.844574441064e+00 
-1.254324314165e+02 1.616416061723e+01 0.0 
1.616416061723e+01 -2.813141783061e+02 0.0 
0.0 0.0 -1.216239829168e+02 
-1.073874917159e+01 4.787981050392e-01 0.0 
4.787981050392e-01 -7.988835219857e+00 0.0 
0.0 0.0 -5.218275317436e+00 
-1.150577526801e+01 -7.622846544618e-02 0.0 
-7.622846544618e-02 -9.870423355676e+00 0.0 
0.0 0.0 -6.012859587105e+00 
-1.083831664833e+01 1.769259357301e-01 0.0 
1.769259357301e-01 -9.616873735490e+00 0.0 
0.0 0.0 -5.736557115145e+00 
-1.134636903707e+01 2.412434374951e-02 0.0 
2.412434374951e-02 -9.907669793240e+00 0.0 
0.0 0.0 -5.976211649094e+00 
-1.091672799819e+01 5.103215262179e-02 0.0 
5.103215262179e-02 -9.730055428872e+00 0.0 
0.0 0.0 -5.794035028119e+00 
-1.122031931609e+01 -4.249190233219e-02 0.0 
-4.249190233219e-02 -9.918313997824e+00 0.0 
0.0 0.0 -5.941589994173e+00 
-1.085520153352e+01 -2.508991039171e-02 0.0 
-2.508991039171e-02 -9.768433534397e+00 0.0 
0.0 0.0 -5.787090520375e+00 
-1.110727053135e+01 -1.059149782427e-01 0.0 
-1.059149782427e-01 -9.940688592243e+00 0.0 
0.0 0.0 -5.914387737078e+00 
-1.068590229263e+01 -7.038291098812e-02 0.0 
-7.038291098812e-02 -9.775277814708e+00 0.0 
0.0 0.0 -5.738354032203e+00 
-1.097943008033e+01 -1.611581666895e-01 0.0 
-1.611581666895e-01 -9.966681388788e+00 0.0 
0.0 0.0 -5.883833440735e+00 
-1.043307611202e+01 -9.909779708144e-02 0.0 
-9.909779708144e-02 -9.763471340451e+00 0.0 
0.0 0.0 -5.658964235742e+00 
-1.082225226938e+01 -2.114861172144e-01 0.0 
-2.114861172144e-01 -9.993681568334e+00 0.0 
0.0 0.0 -5.844780151313e+00 
-1.010994612121e+01 -1.195008263984e-01 0.0 
-1.195008263984e-01 -9.742402117426e+00 0.0 
0.0 0.0 -5.555704471592e+00 
-1.063744346946e+01 -2.599578090579e-01 0.0 
-2.599578090579e-01 -1.002169468269e+01 0.0 
0.0 0.0 -5.797741445645e+00 
-9.720446552885e+00 -1.384436524693e-01 0.0 
-1.384436524693e-01 -9.712807020844e+00 0.0 
0.0 0.0 -5.429976072119e+00 
-1.042436613663e+01 -3.122153268619e-01 0.0 
-3.122153268619e-01 -1.005264895846e+01 0.0 
0.0 0.0 -5.743104528526e+00 
-9.260984854383e+00 -1.573828854147e-01 0.0 
-1.573828854147e-01 -9.679013528487e+00 0.0 
0.0 0.0 -5.281999514861e+00 
-9.091941953330e+00 3.307749449189e+00 0.0 
3.307749449189e+00 -1.228811543558e+01 0.0 
0.0 0.0 -6.014017216674e+00 
-1.017815500527e+01 -3.670405487295e-01 0.0 
-3.670405487295e-01 -1.008596064647e+01 0.0 
0.0 0.0 -5.679234695520e+00 
-8.728805685018e+00 -1.765694451579e-01 0.0 
-1.765694451579e-01 -9.642631621512e+00 0.0 
0.0 0.0 -5.111431191959e+00 
-1.366460164782e+01 1.572291112336e+00 0.0 
1.572291112336e+00 -1.090790846660e+01 0.0 
0.0 0.0 -6.971753034327e+00 
-9.901378961579e+00 -4.234506760822e-01 0.0 
-4.234506760822e-01 -1.012195773693e+01 0.0 
0.0 0.0 -5.607001009552e+00 
-8.123353315253e+00 -1.943053958093e-01 0.0 
-1.943053958093e-01 -9.605522769312e+00 0.0 
0.0 0.0 -4.918662825369e+00 
-9.606629908703e+00 -4.783950297472e-01 0.0 
-4.783950297472e-01 -1.016083741747e+01 0.0 
0.0 0.0 -5.530240197851e+00 
-7.447466211334e+00 -2.105235169188e-01 0.0 
-2.105235169188e-01 -9.564687720258e+00 0.0 
0.0 0.0 -4.703646179478e+00 
-9.310137243318e+00 -5.315246256551e-01 0.0 
-5.315246256551e-01 -1.020311891066e+01 0.0 
0.0 0.0 -5.453976846192e+00 
-2.061186193104e+00 2.092124335325e-01 0.0 
2.092124335325e-01 -5.530672582093e+00 0.0 
0.0 0.0 -1.877557632559e+00 
-6.700823941634e+00 -2.302852944643e-01 0.0 
-2.302852944643e-01 -9.512851115783e+00 0.0 
0.0 0.0 -4.464102517225e+00 
-9.037902979699e+00 -5.914421947232e-01 0.0 
-5.914421947232e-01 -1.025527482360e+01 0.0 
0.0 0.0 -5.387953340990e+00 
-5.881067279860e+00 -2.422179566342e-01 0.0 
-2.422179566342e-01 -9.467141650161e+00 0.0 
0.0 0.0 -4.204462679006e+00 
-8.770220839708e+00 -6.325223355186e-01 0.0 
-6.325223355186e-01 -1.030849395827e+01 0.0 
0.0 0.0 -5.323614439393e+00 
-5.014193641106e+00 -2.463036184950e-01 0.0 
-2.463036184950e-01 -9.417378479233e+00 0.0 
0.0 0.0 -3.929471636102e+00 
-8.628283044337e+00 -6.617264369757e-01 0.0 
-6.617264369757e-01 -1.037833836025e+01 0.0 
0.0 0.0 -5.301986421375e+00 
-4.141669963456e+00 -2.069696135844e-01 0.0 
-2.069696135844e-01 -9.399486981787e+00 0.0 
0.0 0.0 -3.662347083573e+00 
-8.558093571712e+00 -6.080009177127e-01 0.0 
-6.080009177127e-01 -1.043581918743e+01 0.0 
0.0 0.0 -5.298173827744e+00 
-3.364742011660e+00 -1.592546339276e-01 0.0 
-1.592546339276e-01 -9.328407669280e+00 0.0 
0.0 0.0 -3.407944904282e+00 
-8.961304775859e+00 -5.604909648715e-01 0.0 
-5.604909648715e-01 -1.054420958424e+01 0.0 
0.0 0.0 -5.451654308030e+00 
-1.806473656860e+01 5.797804263574e+00 0.0 
5.797804263574e+00 -1.284666374613e+01 0.0 
0.0 0.0 -8.873420094419e+00 
-9.453448426285e+00 -2.510329381269e-01 0.0 
-2.510329381269e-01 -1.060187742199e+01 0.0 
0.0 0.0 -5.616597754483e+00 
-2.756858385179e+00 1.952838306898e-02 0.0 
1.952838306898e-02 -9.409164723476e+00 0.0 
0.0 0.0 -3.249806932597e+00 
-1.092853302570e+01 6.113789234895e-02 0.0 
6.113789234895e-02 -1.076439129167e+01 0.0 
0.0 0.0 -6.107877295211e+00 
-2.657837520752e+00 2.554247882365e-01 0.0 
2.554247882365e-01 -9.355381084792e+00 0.0 
0.0 0.0 -3.203965581663e+00 
-3.417765315627e+00 1.091650581659e+00 0.0 
1.091650581659e+00 -1.019968585880e+01 0.0 
0.0 0.0 -3.685235352327e+00 
-1.096764278188e+01 1.005431505683e+00 0.0 
1.005431505683e+00 -6.297246824025e-01 0.0 
0.0 0.0 -3.079210239286e+00 
-1.159619356414e+01 1.501031942680e+00 0.0 
1.501031942680e+00 -1.027052947633e+01 0.0 
0.0 0.0 -6.160016912142e+00 
-1.191277847284e+01 -1.283962368151e+00 0.0 
-1.283962368151e+00 -8.382027208838e+00 0.0 
0.0 0.0 -5.688441704502e+00 
-1.357587009865e+01 2.291824441392e-01 0.0 
2.291824441392e-01 -1.452366453459e+01 0.0 
0.0 0.0 -8.029860389971e+00 
-1.002012311075e+01 -6.081224450952e-02 0.0 
-6.081224450952e-02 -4.281695104015e+00 0.0 
0.0 0.0 -3.890545464431e+00 
-1.407201374778e+01 6.076777817791e+00 0.0 
6.076777817791e+00 -8.643792772655e+00 0.0 
0.0 0.0 -6.414741956129e+00 
-2.056792284456e+01 2.325825797454e-01 0.0 
2.325825797454e-01 -3.119924851607e+01 0.0 
0.0 0.0 -1.513015140819e+01 
-1.988126926341e+01 -2.908070683739e-01 0.0 
-2.908070683739e-01 -2.941324267828e+01 0.0 
0.0 0.0 -1.438835358251e+01 
-1.977480811675e+01 -3.607859377941e-02 0.0 
-3.607859377941e-02 -2.933140516030e+01 0.0 
0.0 0.0 -1.433186398312e+01 
-1.962082439156e+01 -8.891862241307e-02 0.0 
-8.891862241307e-02 -2.921473228704e+01 0.0 
0.0 0.0 -1.425066700358e+01 
-1.969518145673e+01 -9.700716911087e-02 0.0 
-9.700716911087e-02 -2.924799478861e+01 0.0 
0.0 0.0 -1.428295287360e+01 
-1.948747519728e+01 -1.378837272731e-01 0.0 
-1.378837272731e-01 -2.920834438727e+01 0.0 
0.0 0.0 -1.420874587536e+01 
-1.963858170078e+01 -1.613151594681e-01 0.0 
-1.613151594681e-01 -2.927858899555e+01 0.0 
0.0 0.0 -1.427515120890e+01 
-1.936707598324e+01 -2.153943461148e-01 0.0 
-2.153943461148e-01 -2.921356797998e+01 0.0 
0.0 0.0 -1.417419318897e+01 
-1.959100273736e+01 -2.246033254183e-01 0.0 
-2.246033254183e-01 -2.930997221861e+01 0.0 
0.0 0.0 -1.427029248679e+01 
-1.922724443141e+01 -2.965977761689e-01 0.0 
-2.965977761689e-01 -2.921158154131e+01 0.0 
0.0 0.0 -1.413164779182e+01 
-1.953874089611e+01 -2.865264843578e-01 0.0 
-2.865264843578e-01 -2.933494466077e+01 0.0 
0.0 0.0 -1.426210566706e+01 
-1.905628589800e+01 -3.767349475677e-01 0.0 
-3.767349475677e-01 -2.920642670178e+01 0.0 
0.0 0.0 -1.407881377993e+01 
-1.947957571836e+01 -3.393336245598e-01 0.0 
-3.393336245598e-01 -2.935816426813e+01 0.0 
0.0 0.0 -1.425132199595e+01 
-1.885036239649e+01 -4.524608451326e-01 0.0 
-4.524608451326e-01 -2.918517217910e+01 0.0 
0.0 0.0 -1.401066037268e+01 
-1.942754305272e+01 -3.919107444781e-01 0.0 
-3.919107444781e-01 -2.937815633353e+01 0.0 
0.0 0.0 -1.424170981588e+01 
-1.861139170895e+01 -5.299277289216e-01 0.0 
-5.299277289216e-01 -2.915570862719e+01 0.0 
0.0 0.0 -1.393013010084e+01 
-2.117385085939e+01 3.207870481590e+00 0.0 
3.207870481590e+00 -3.265794907802e+01 0.0 
0.0 0.0 -1.574953998122e+01 
-1.938788842388e+01 -4.491501982762e-01 0.0 
-4.491501982762e-01 -2.940261128071e+01 0.0 
0.0 0.0 -1.423714991138e+01 
-1.834140827477e+01 -6.098471748424e-01 0.0 
-6.098471748424e-01 -2.913355160866e+01 0.0 
0.0 0.0 -1.384248796503e+01 
-1.742917867061e+01 1.617630064594e+00 0.0 
1.617630064594e+00 -2.593256446312e+01 0.0 
0.0 0.0 -1.260852294012e+01 
-1.933519569136e+01 -5.048906684573e-01 0.0 
-5.048906684573e-01 -2.943032925620e+01 0.0 
0.0 0.0 -1.422965748427e+01 
-1.804201315950e+01 -6.827542706520e-01 0.0 
-6.827542706520e-01 -2.911677086540e+01 0.0 
0.0 0.0 -1.374763520747e+01 
-2.396728656702e+01 1.668625443991e+00 0.0 
1.668625443991e+00 -3.075384415934e+01 0.0 
0.0 0.0 -1.601633921791e+01 
-1.930445419761e+01 -5.471572664406e-01 0.0 
-5.471572664406e-01 -2.946716080624e+01 0.0 
0.0 0.0 -1.423148450115e+01 
-1.772302196592e+01 -7.411195537770e-01 0.0 
-7.411195537770e-01 -2.909908555097e+01 0.0 
0.0 0.0 -1.364663225507e+01 
-1.931957112024e+01 -5.723211536316e-01 0.0 
-5.723211536316e-01 -2.951082865591e+01 0.0 
0.0 0.0 -1.424911993284e+01 
-1.739885220738e+01 -7.803764237637e-01 0.0 
-7.803764237637e-01 -2.907678716012e+01 0.0 
0.0 0.0 -1.354269181025e+01 
-1.938897858081e+01 -5.779128910885e-01 0.0 
-5.779128910885e-01 -2.955304885985e+01 0.0 
0.0 0.0 -1.428260823220e+01 
-1.708872224765e+01 -7.963984330484e-01 0.0 
-7.963984330484e-01 -2.904051978216e+01 0.0 
0.0 0.0 -1.343877260894e+01 
-2.595366593980e+01 3.932049666372e+00 0.0 
3.932049666372e+00 -3.357666337328e+01 0.0 
0.0 0.0 -1.745909879392e+01 
-1.957410521932e+01 -5.890848123131e-01 0.0 
-5.890848123131e-01 -2.962457370952e+01 0.0 
0.0 0.0 -1.435960367865e+01 
-1.683139648161e+01 -7.670371020537e-01 0.0 
-7.670371020537e-01 -2.911790378937e+01 0.0 
0.0 0.0 -1.338479008130e+01 
-1.977508914702e+01 -4.829062478186e-01 0.0 
-4.829062478186e-01 -2.969594071078e+01 0.0 
0.0 0.0 -1.444130895734e+01 
-1.666596515115e+01 -6.362932669962e-01 0.0 
-6.362932669962e-01 -2.913292994281e+01 0.0 
0.0 0.0 -1.333966852819e+01 
-1.670589610561e+01 -3.567867952219e-01 0.0 
-3.567867952219e-01 -2.944735843319e+01 0.0 
0.0 0.0 -1.344597636164e+01 
-2.027040796608e+01 -3.646924669454e-01 0.0 
-3.646924669454e-01 -2.983899529456e+01 0.0 
0.0 0.0 -1.463282097819e+01 
-1.704019514335e+01 1.414623180821e-01 0.0 
1.414623180821e-01 -2.939495377504e+01 0.0 
0.0 0.0 -1.353054467552e+01 
-2.073680997623e+01 1.236764630874e-01 0.0 
1.236764630874e-01 -2.989829693199e+01 0.0 
0.0 0.0 -1.479053207247e+01 
-1.795065395805e+01 9.853211923605e-01 0.0 
9.853211923605e-01 -3.042869032944e+01 0.0 
0.0 0.0 -1.411380328625e+01 
-2.209981481703e+01 4.420703030802e-01 0.0 
4.420703030802e-01 -3.022426566706e+01 0.0 
0.0 0.0 -1.529722414523e+01 
-2.111277284663e+01 2.303895568670e+00 0.0 
2.303895568670e+00 -2.343522187968e+01 0.0 
0.0 0.0 -1.296439841789e+01 
-2.034956276154e+01 1.429944512227e+00 0.0 
1.429944512227e+00 -2.914791110038e+01 0.0 
0.0 0.0 -1.444924215858e+01 
-2.001952024012e+01 -1.456033206155e+00 0.0 
-1.456033206155e+00 -3.108514643026e+01 0.0 
0.0 0.0 -1.493140000111e+01 
-1.805197360720e+01 1.101785739328e-01 0.0 
1.101785739328e-01 -2.496790605454e+01 0.0 
0.0 0.0 -1.250596389852e+01 
-2.222903006716e+01 -1.881672998726e-01 0.0 
-1.881672998726e-01 -3.509876889781e+01 0.0 
0.0 0.0 -1.679833968949e+01 
-2.050593024540e+01 4.527117548768e+00 0.0 
4.527117548768e+00 -2.687100852762e+01 0.0 
0.0 0.0 -1.381308163190e+01 
-2.746150416775e+01 1.886873640622e-01 0.0 
1.886873640622e-01 -4.728427160350e+01 0.0 
0.0 0.0 -2.202373273138e+01 
-2.816946756401e+01 -2.999221515726e-01 0.0 
-2.999221515726e-01 -4.889985977592e+01 0.0 
0.0 0.0 -2.272079820198e+01 
-2.817349809101e+01 -1.127362596831e-01 0.0 
-1.127362596831e-01 -4.892834843357e+01 0.0 
0.0 0.0 -2.273055395737e+01 
-2.828195248972e+01 -1.463029419881e-01 0.0 
-1.463029419881e-01 -4.899529280226e+01 0.0 
0.0 0.0 -2.278317358760e+01 
-2.812847073895e+01 -1.674925127177e-01 0.0 
-1.674925127177e-01 -4.892566978044e+01 0.0 
0.0 0.0 -2.271624215582e+01 
-2.828927725442e+01 -2.153198823389e-01 0.0 
-2.153198823389e-01 -4.902009850184e+01 0.0 
0.0 0.0 -2.279281272688e+01 
-2.805795613155e+01 -2.120486537913e-01 0.0 
-2.120486537913e-01 -4.892379600069e+01 0.0 
0.0 0.0 -2.269452563967e+01 
-2.833418218805e+01 -2.831610216863e-01 0.0 
-2.831610216863e-01 -4.904982828478e+01 0.0 
0.0 0.0 -2.281520314185e+01 
-2.799140721003e+01 -2.731772782631e-01 0.0 
-2.731772782631e-01 -4.891091598818e+01 0.0 
0.0 0.0 -2.267069695946e+01 
-2.837194987426e+01 -3.660725259720e-01 0.0 
-3.660725259720e-01 -4.907568633054e+01 0.0 
0.0 0.0 -2.283429086144e+01 
-2.792596276248e+01 -3.376292660718e-01 0.0 
-3.376292660718e-01 -4.890512901563e+01 0.0 
0.0 0.0 -2.264932753343e+01 
-2.842805187384e+01 -4.522552667450e-01 0.0 
-4.522552667450e-01 -4.910791848448e+01 0.0 
0.0 0.0 -2.286079110750e+01 
-2.785770159696e+01 -3.946343830895e-01 0.0 
-3.946343830895e-01 -4.890712465153e+01 0.0 
0.0 0.0 -2.262944787455e+01 
-2.847194525208e+01 -5.194453363104e-01 0.0 
-5.194453363104e-01 -4.912127714012e+01 0.0 
0.0 0.0 -2.287796671766e+01 
-2.779248429410e+01 -4.442821568265e-01 0.0 
-4.442821568265e-01 -4.889635256340e+01 0.0 
0.0 0.0 -2.260665105725e+01 
-3.168549678649e+01 2.766206279439e+00 0.0 
2.766206279439e+00 -5.230171648049e+01 0.0 
0.0 0.0 -2.479616398009e+01 
-2.860500761647e+01 -5.875922053686e-01 0.0 
-5.875922053686e-01 -4.913542395468e+01 0.0 
0.0 0.0 -2.292212947134e+01 
-3.357951635293e+01 1.244436565177e+00 0.0 
1.244436565177e+00 -5.062809247371e+01 0.0 
0.0 0.0 -2.486228264799e+01 
-2.772162189023e+01 -5.056545633704e-01 0.0 
-5.056545633704e-01 -4.884798936887e+01 0.0 
0.0 0.0 -2.257088337773e+01 
-2.871473639531e+01 -6.782600674136e-01 0.0 
-6.782600674136e-01 -4.916009058523e+01 0.0 
0.0 0.0 -2.296244809416e+01 
-2.766225232809e+01 -5.475609028486e-01 0.0 
-5.475609028486e-01 -4.886012807523e+01 0.0 
0.0 0.0 -2.255671412099e+01 
-2.884729907380e+01 -7.288364370388e-01 0.0 
-7.288364370388e-01 -4.919635564012e+01 0.0 
0.0 0.0 -2.301309641418e+01 
-2.762897902540e+01 -5.575359399879e-01 0.0 
-5.575359399879e-01 -4.889105207109e+01 0.0 
0.0 0.0 -2.255600932895e+01 
-2.907303807445e+01 -7.399312223077e-01 0.0 
-7.399312223077e-01 -4.924052559028e+01 0.0 
0.0 0.0 -2.309406909942e+01 
-2.875090049563e+01 1.502168589462e+00 0.0 
1.502168589462e+00 -4.574346558378e+01 0.0 
0.0 0.0 -2.194830982382e+01 
-2.763525168492e+01 -5.381650263721e-01 0.0 
-5.381650263721e-01 -4.891408330683e+01 0.0 
0.0 0.0 -2.256480049752e+01 
-2.935952219676e+01 -7.170191235249e-01 0.0 
-7.170191235249e-01 -4.928474729588e+01 0.0 
0.0 0.0 -2.319328084779e+01 
-2.770775047262e+01 -4.728327220795e-01 0.0 
-4.728327220795e-01 -4.896351660740e+01 0.0 
0.0 0.0 -2.260138012401e+01 
-2.970349619932e+01 -6.198867914866e-01 0.0 
-6.198867914866e-01 -4.931179782773e+01 0.0 
0.0 0.0 -2.330458820812e+01 
-2.787382879301e+01 -3.642171924242e-01 0.0 
-3.642171924242e-01 -4.899059538147e+01 0.0 
0.0 0.0 -2.265932725235e+01 
-3.034669705922e+01 -5.485338595623e-01 0.0 
-5.485338595623e-01 -4.949861708178e+01 0.0 
0.0 0.0 -2.355359424230e+01 
-2.818859820197e+01 -1.186622024848e-01 0.0 
-1.186622024848e-01 -4.932746183900e+01 0.0 
0.0 0.0 -2.285481801229e+01 
-3.067904737124e+01 -1.369488705692e-01 0.0 
-1.369488705692e-01 -4.956645772039e+01 0.0 
0.0 0.0 -2.367365152749e+01 
-3.203559144276e+01 2.034246540215e-01 0.0 
2.034246540215e-01 -5.006380507320e+01 0.0 
0.0 0.0 -2.422981895479e+01 
-2.870509321091e+01 2.890082539992e-01 0.0 
2.890082539992e-01 -4.951992753249e+01 0.0 
0.0 0.0 -2.306750622302e+01 
-3.532977711391e+01 2.829527504917e+00 0.0 
2.829527504917e+00 -5.346163253826e+01 0.0 
0.0 0.0 -2.623742289565e+01 
-2.954968231604e+01 1.013311695207e+00 0.0 
1.013311695207e+00 -5.046166572489e+01 0.0 
0.0 0.0 -2.360340441228e+01 
-3.100612716678e+01 1.866083225950e+00 0.0 
1.866083225950e+00 -4.393675017643e+01 0.0 
0.0 0.0 -2.208286320297e+01 
-2.775142207630e+01 1.434976145664e+00 0.0 
1.434976145664e+00 -4.946666892871e+01 0.0 
0.0 0.0 -2.276542730150e+01 
-2.809796489419e+01 -1.469076081036e+00 0.0 
-1.469076081036e+00 -4.743827227383e+01 0.0 
0.0 0.0 -2.226087115041e+01 
-3.011559895968e+01 1.145010607597e-01 0.0 
1.145010607597e-01 -5.359134580265e+01 0.0 
0.0 0.0 -2.471208342870e+01 
-2.582096041754e+01 -2.003229282984e-01 0.0 
-2.003229282984e-01 -4.347993971538e+01 0.0 
0.0 0.0 -2.039027003988e+01 
-3.049899869873e+01 3.416831406586e+00 0.0 
3.416831406586e+00 -4.599450580001e+01 0.0 
0.0 0.0 -2.254805134962e+01 
-3.722596603614e+01 2.495756210214e-01 0.0 
2.495756210214e-01 -7.035967542218e+01 0.0 
0.0 0.0 -3.187569243749e+01 
-3.657758695460e+01 -2.853587547515e-01 0.0 
-2.853587547515e-01 -6.851880502064e+01 0.0 
0.0 0.0 -3.112891759257e+01 
-3.670971021446e+01 -4.104250246843e-02 0.0 
-4.104250246843e-02 -6.853393297994e+01 0.0 
0.0 0.0 -3.117309295832e+01 
-3.655142715092e+01 -1.256093746639e-01 0.0 
-1.256093746639e-01 -6.829073367838e+01 0.0 
0.0 0.0 -3.105264824879e+01 
-3.672137015166e+01 -1.667510556475e-01 0.0 
-1.667510556475e-01 -6.837288928243e+01 0.0 
0.0 0.0 -3.112827783023e+01 
-3.656433636497e+01 -2.002652982877e-01 0.0 
-2.002652982877e-01 -6.832856975981e+01 0.0 
0.0 0.0 -3.106787183743e+01 
-3.677032837653e+01 -1.781991893664e-01 0.0 
-1.781991893664e-01 -6.840704929421e+01 0.0 
0.0 0.0 -3.115321330122e+01 
-3.657005925771e+01 -2.423514644379e-01 0.0 
-2.423514644379e-01 -6.826687478066e+01 0.0 
0.0 0.0 -3.105108021151e+01 
-3.695682894781e+01 -2.411323506498e-01 0.0 
-2.411323506498e-01 -6.842522423840e+01 0.0 
0.0 0.0 -3.121461595586e+01 
-3.660386260453e+01 -3.213103147993e-01 0.0 
-3.213103147993e-01 -6.828348270116e+01 0.0 
0.0 0.0 -3.106620359171e+01 
-3.705327736737e+01 -2.910022101664e-01 0.0 
-2.910022101664e-01 -6.844902137985e+01 0.0 
0.0 0.0 -3.125068962416e+01 
-3.664097023954e+01 -3.848479546765e-01 0.0 
-3.848479546765e-01 -6.827139467111e+01 0.0 
0.0 0.0 -3.107370947319e+01 
-3.726878658290e+01 -3.510192132750e-01 0.0 
-3.510192132750e-01 -6.849806569243e+01 0.0 
0.0 0.0 -3.133005568260e+01 
-4.116216656540e+01 2.292908614776e+00 0.0 
2.292908614776e+00 -7.179741958391e+01 0.0 
0.0 0.0 -3.348787584479e+01 
-3.670756087340e+01 -4.461416367844e-01 0.0 
-4.461416367844e-01 -6.833771358984e+01 0.0 
0.0 0.0 -3.111358233897e+01 
-3.742480800677e+01 -3.180722448594e-01 0.0 
-3.180722448594e-01 -6.852371217866e+01 0.0 
0.0 0.0 -3.138455605563e+01 
-3.852826764552e+01 1.231309059708e+00 0.0 
1.231309059708e+00 -6.521338287965e+01 0.0 
0.0 0.0 -3.072249515755e+01 
-3.678252930490e+01 -4.647592577088e-01 0.0 
-4.647592577088e-01 -6.821630789435e+01 0.0 
0.0 0.0 -3.109965115977e+01 
-3.771396949617e+01 -4.003320512175e-01 0.0 
-4.003320512175e-01 -6.851033432982e+01 0.0 
0.0 0.0 -3.146729114780e+01 
-4.246392767496e+01 1.094970873127e+00 0.0 
1.094970873127e+00 -7.014107141918e+01 0.0 
0.0 0.0 -3.338149972824e+01 
-3.690779641497e+01 -5.190914603637e-01 0.0 
-5.190914603637e-01 -6.827723063109e+01 0.0 
0.0 0.0 -3.115550811382e+01 
-3.796704264953e+01 -4.249925393266e-01 0.0 
-4.249925393266e-01 -6.857139399291e+01 0.0 
0.0 0.0 -3.156153099273e+01 
-3.707303202675e+01 -5.139823290499e-01 0.0 
-5.139823290499e-01 -6.838973253033e+01 0.0 
0.0 0.0 -3.123882936712e+01 
-3.832543048034e+01 -3.495496979797e-01 0.0 
-3.495496979797e-01 -6.865530120256e+01 0.0 
0.0 0.0 -3.169421950487e+01 
-3.729787061427e+01 -4.432551208918e-01 0.0 
-4.432551208918e-01 -6.843180151653e+01 0.0 
0.0 0.0 -3.131890163924e+01 
-4.433581878049e+01 2.218721848924e+00 0.0 
2.218721848924e+00 -7.294502777446e+01 0.0 
0.0 0.0 -3.478425396648e+01 
-3.881505211597e+01 -2.695709098309e-01 0.0 
-2.695709098309e-01 -6.873402127279e+01 0.0 
0.0 0.0 -3.186472201663e+01 
-3.761329148207e+01 -3.277978986671e-01 0.0 
-3.277978986671e-01 -6.854354229493e+01 0.0 
0.0 0.0 -3.144705013310e+01 
-3.804988338480e+01 -1.035986594736e-01 0.0 
-1.035986594736e-01 -6.878670126051e+01 0.0 
0.0 0.0 -3.165097539359e+01 
-3.930967967282e+01 -1.404020774441e-01 0.0 
-1.404020774441e-01 -6.883618144556e+01 0.0 
0.0 0.0 -3.204375833551e+01 
-3.859441199981e+01 2.084348825953e-01 0.0 
2.084348825953e-01 -6.874328527649e+01 0.0 
0.0 0.0 -3.180130918289e+01 
-3.976934413518e+01 1.988226474869e-01 0.0 
1.988226474869e-01 -6.888330825567e+01 0.0 
0.0 0.0 -3.219579571726e+01 
-3.943356354931e+01 7.273913984817e-01 0.0 
7.273913984817e-01 -6.999366213588e+01 0.0 
0.0 0.0 -3.242816770555e+01 
-4.098916384672e+01 2.054556660649e-01 0.0 
2.054556660649e-01 -6.935858165712e+01 0.0 
0.0 0.0 -3.270432365115e+01 
-4.032761314552e+01 1.638548947054e+00 0.0 
1.638548947054e+00 -6.379348383984e+01 0.0 
0.0 0.0 -3.083632909561e+01 
-3.702527144359e+01 1.402180620231e+00 0.0 
1.402180620231e+00 -6.808323339221e+01 0.0 
0.0 0.0 -3.113255145074e+01 
-3.665048714152e+01 -1.517277736200e+00 0.0 
-1.517277736200e+00 -7.026197828132e+01 0.0 
0.0 0.0 -3.167373962685e+01 
-3.459078597510e+01 8.063438171930e-02 0.0 
8.063438171930e-02 -6.403344883864e+01 0.0 
0.0 0.0 -2.918727044412e+01 
-3.898215396729e+01 -2.570854411041e-01 0.0 
-2.570854411041e-01 -7.411496054894e+01 0.0 
0.0 0.0 -3.352913435487e+01 
-3.984695890135e+01 2.610281506875e+00 0.0 
2.610281506875e+00 -6.525212508669e+01 0.0 
0.0 0.0 -3.112972519641e+01 
-4.427642332207e+01 3.953564198650e-01 0.0 
3.953564198650e-01 -8.681074242268e+01 0.0 
0.0 0.0 -3.892614972343e+01 
-4.511352295675e+01 -2.780703780522e-02 0.0 
-2.780703780522e-02 -8.802802692284e+01 0.0 
0.0 0.0 -3.954246496388e+01 
-4.505192192715e+01 -4.389039082532e-02 0.0 
-4.389039082532e-02 -8.799909364288e+01 0.0 
0.0 0.0 -3.951530467101e+01 
-4.498493330801e+01 -3.995870729163e-02 0.0 
-3.995870729163e-02 -8.802509403086e+01 0.0 
0.0 0.0 -3.950300820166e+01 
-4.516845142058e+01 -1.183505981017e-01 0.0 
-1.183505981017e-01 -8.808274557657e+01 0.0 
0.0 0.0 -3.957535909915e+01 
-4.518264894576e+01 -1.458885453949e-01 0.0 
-1.458885453949e-01 -8.817947531206e+01 0.0 
0.0 0.0 -3.960863727735e+01 
-4.527118015760e+01 -6.911830202365e-02 0.0 
-6.911830202365e-02 -8.824237011673e+01 0.0 
0.0 0.0 -3.965406508230e+01 
-4.545663450060e+01 -5.532023508998e-02 0.0 
-5.532023508998e-02 -8.811295515247e+01 0.0 
0.0 0.0 -3.967087689592e+01 
-4.536049335858e+01 -1.489079610098e-01 0.0 
-1.489079610098e-01 -8.803377453020e+01 0.0 
0.0 0.0 -3.961828036663e+01 
-4.557587099970e+01 -2.113340088148e-01 0.0 
-2.113340088148e-01 -8.816505137954e+01 0.0 
0.0 0.0 -3.972227671377e+01 
-4.550627652885e+01 -1.415371101035e-01 0.0 
-1.415371101035e-01 -8.817268608997e+01 0.0 
0.0 0.0 -3.970368878564e+01 
-4.579416207401e+01 -1.665754799858e-01 0.0 
-1.665754799858e-01 -8.817082522701e+01 0.0 
0.0 0.0 -3.978949619031e+01 
-4.997274568877e+01 2.216996313530e+00 0.0 
2.216996313530e+00 -9.128770288760e+01 0.0 
0.0 0.0 -4.197813457291e+01 
-4.568385991698e+01 -1.569002215333e-01 0.0 
-1.569002215333e-01 -8.813323680528e+01 0.0 
0.0 0.0 -3.974512901668e+01 
-5.020197491460e+01 8.917498244289e-01 0.0 
8.917498244289e-01 -8.952370352631e+01 0.0 
0.0 0.0 -4.151770353227e+01 
-4.640121041216e+01 -2.757421282430e-01 0.0 
-2.757421282430e-01 -8.833020149589e+01 0.0 
0.0 0.0 -4.001942357242e+01 
-4.586236140513e+01 -1.492177338305e-01 0.0 
-1.492177338305e-01 -8.821133677484e+01 0.0 
0.0 0.0 -3.982210945399e+01 
-4.627820654997e+01 -1.496033725918e-01 0.0 
-1.496033725918e-01 -8.815172350666e+01 0.0 
0.0 0.0 -3.992897901699e+01 
-4.610293044206e+01 -1.526361465181e-01 0.0 
-1.526361465181e-01 -8.808457653690e+01 0.0 
0.0 0.0 -3.985625209369e+01 
-4.671888731797e+01 -2.449831902920e-01 0.0 
-2.449831902920e-01 -8.826680533575e+01 0.0 
0.0 0.0 -4.009570779612e+01 
-4.642856707685e+01 -7.163651883194e-02 0.0 
-7.163651883194e-02 -8.831495098999e+01 0.0 
0.0 0.0 -4.002305542005e+01 
-4.730976822096e+01 -1.384251528419e-01 0.0 
-1.384251528419e-01 -8.844369687253e+01 0.0 
0.0 0.0 -4.032603952805e+01 
-4.760679713394e+01 1.191944191443e+00 0.0 
1.191944191443e+00 -8.479972599398e+01 0.0 
0.0 0.0 -3.932195693838e+01 
-4.682332031394e+01 7.337267082097e-02 0.0 
7.337267082097e-02 -8.848371081428e+01 0.0 
0.0 0.0 -4.019210933847e+01 
-4.785711354363e+01 6.580482885993e-02 0.0 
6.580482885993e-02 -8.851321659337e+01 0.0 
0.0 0.0 -4.051109904110e+01 
-4.729104849955e+01 2.347009746424e-01 0.0 
2.347009746424e-01 -8.851134616781e+01 0.0 
0.0 0.0 -4.034071840021e+01 
-4.854779829585e+01 1.950219637596e-01 0.0 
1.950219637596e-01 -8.866579112971e+01 0.0 
0.0 0.0 -4.076407682767e+01 
-4.931467972498e+01 4.267457474021e-01 0.0 
4.267457474021e-01 -8.897169044455e+01 0.0 
0.0 0.0 -4.108591105086e+01 
-4.785032959569e+01 4.598857358162e-01 0.0 
4.598857358162e-01 -8.876436459893e+01 0.0 
0.0 0.0 -4.058440825839e+01 
-4.852999532327e+01 8.778634397420e-01 0.0 
8.778634397420e-01 -8.932482769455e+01 0.0 
0.0 0.0 -4.095644690535e+01 
-5.282757878049e+01 1.882344500450e+00 0.0 
1.882344500450e+00 -9.257556375897e+01 0.0 
0.0 0.0 -4.322094276184e+01 
-4.894788610344e+01 1.441469538197e+00 0.0 
1.441469538197e+00 -8.356593298227e+01 0.0 
0.0 0.0 -3.935414572571e+01 
-4.439997446219e+01 1.279399051878e+00 0.0 
1.279399051878e+00 -8.810726672519e+01 0.0 
0.0 0.0 -3.935217235621e+01 
-4.462277043860e+01 -1.585573074308e+00 0.0 
-1.585573074308e+00 -8.679240583166e+01 0.0 
0.0 0.0 -3.902455288108e+01 
-4.655702874681e+01 -8.960477989545e-02 0.0 
-8.960477989545e-02 -9.261667303249e+01 0.0 
0.0 0.0 -4.135211053379e+01 
-4.256150242763e+01 -2.738197770045e-01 0.0 
-2.738197770045e-01 -8.246677362308e+01 0.0 
0.0 0.0 -3.710848281521e+01 
-4.867285233521e+01 2.265210765915e+00 0.0 
2.265210765915e+00 -8.462856229309e+01 0.0 
0.0 0.0 -3.959042438849e+01 

TENSORS element_materi_strain_total float
-8.590329490310e-05 2.023813898214e-04 0.0 
2.023813898214e-04 9.805592355883e-04 0.0 
0.0 0.0 0.0 
-1.008336847887e-04 1.786352366230e-04 0.0 
1.786352366230e-04 9.661725558097e-04 0.0 
0.0 0.0 0.0 
-2.661647011826e-05 1.755319785428e-04 0.0 
1.755319785428e-04 1.790640987969e-03 0.0 
0.0 0.0 0.0 
-2.248393355420e-05 1.260085329294e-05 0.0 
1.260085329294e-05 1.882705534795e-03 0.0 
0.0 0.0 0.0 
-8.246965277214e-05 1.384497756772e-05 0.0 
1.384497756772e-05 1.481917525188e-03 0.0 
0.0 0.0 0.0 
-2.862415192162e-05 7.320763463926e-05 0.0 
7.320763463926e-05 1.852656318009e-04 0.0 
0.0 0.0 0.0 
-7.549598039691e-05 1.201563818283e-05 0.0 
1.201563818283e-05 1.481056301843e-03 0.0 
0.0 0.0 0.0 
-7.758759036947e-05 2.244810788245e-04 0.0 
2.244810788245e-04 8.890462281714e-04 0.0 
0.0 0.0 0.0 
-8.183283499053e-05 4.811230133978e-07 0.0 
4.811230133978e-07 1.482304863392e-03 0.0 
0.0 0.0 0.0 
-2.167484829907e-05 3.171779836209e-05 0.0 
3.171779836209e-05 1.877729625468e-03 0.0 
0.0 0.0 0.0 
8.645241230365e-05 7.173949150461e-06 0.0 
7.173949150461e-06 7.431903453341e-04 0.0 
0.0 0.0 0.0 
-7.672999492558e-05 1.767856863491e-04 0.0 
1.767856863491e-04 8.480268359587e-04 0.0 
0.0 0.0 0.0 
3.079754065594e-05 2.169345247532e-05 0.0 
2.169345247532e-05 1.155598124163e-03 0.0 
0.0 0.0 0.0 
-9.784608493191e-05 3.252049205699e-05 0.0 
3.252049205699e-05 1.534480724625e-03 0.0 
0.0 0.0 0.0 
1.776563600098e-05 1.833614089091e-05 0.0 
1.833614089091e-05 1.190454342029e-03 0.0 
0.0 0.0 0.0 
-1.387666731989e-05 2.618573180685e-05 0.0 
2.618573180685e-05 1.904016441140e-03 0.0 
0.0 0.0 0.0 
-9.257504407512e-05 1.217581552800e-05 0.0 
1.217581552800e-05 1.468737998424e-03 0.0 
0.0 0.0 0.0 
-2.217577638319e-05 2.085624599035e-05 0.0 
2.085624599035e-05 1.721821865457e-04 0.0 
0.0 0.0 0.0 
2.572896534203e-05 -9.351018457619e-06 0.0 
-9.351018457619e-06 2.090075681389e-04 0.0 
0.0 0.0 0.0 
3.666847996264e-05 -6.259986946710e-07 0.0 
-6.259986946710e-07 2.155698415631e-04 0.0 
0.0 0.0 0.0 
-2.611856005874e-05 2.366630965116e-05 0.0 
2.366630965116e-05 1.879116005738e-03 0.0 
0.0 0.0 0.0 
-1.153498554916e-04 1.198786498809e-04 0.0 
1.198786498809e-04 1.131371700783e-03 0.0 
0.0 0.0 0.0 
-1.316249608998e-04 1.468540230548e-04 0.0 
1.468540230548e-04 1.141817972463e-03 0.0 
0.0 0.0 0.0 
5.089216821186e-05 1.493059023211e-04 0.0 
1.493059023211e-04 1.199024230764e-03 0.0 
0.0 0.0 0.0 
-1.032968198452e-04 5.549807344910e-05 0.0 
5.549807344910e-05 1.581718951564e-03 0.0 
0.0 0.0 0.0 
8.421605297415e-05 2.792898270045e-06 0.0 
2.792898270045e-06 7.894316735040e-04 0.0 
0.0 0.0 0.0 
-1.126401189003e-04 2.721589824633e-05 0.0 
2.721589824633e-05 1.411136092323e-03 0.0 
0.0 0.0 0.0 
-2.333895630757e-06 2.546802265780e-04 0.0 
2.546802265780e-04 1.562860949815e-03 0.0 
0.0 0.0 0.0 
-1.172179755946e-04 5.279343940403e-05 0.0 
5.279343940403e-05 1.581977269834e-03 0.0 
0.0 0.0 0.0 
4.951075635207e-05 1.536702416804e-04 0.0 
1.536702416804e-04 1.219177664659e-03 0.0 
0.0 0.0 0.0 
-8.747680228960e-06 -1.315412465273e-05 0.0 
-1.315412465273e-05 1.817706675293e-04 0.0 
0.0 0.0 0.0 
-3.194956230734e-05 -1.583198986396e-05 0.0 
-1.583198986396e-05 7.382170688142e-05 0.0 
0.0 0.0 0.0 
-4.546045333287e-05 1.797696119591e-04 0.0 
1.797696119591e-04 1.799916938232e-03 0.0 
0.0 0.0 0.0 
6.374644401097e-05 6.695370655332e-07 0.0 
6.695370655332e-07 9.643692242256e-04 0.0 
0.0 0.0 0.0 
3.748571964213e-05 8.908759487692e-05 0.0 
8.908759487692e-05 1.183901507957e-03 0.0 
0.0 0.0 0.0 
1.843754215036e-05 7.336127327781e-05 0.0 
7.336127327781e-05 1.236014431950e-03 0.0 
0.0 0.0 0.0 
1.360718938259e-05 4.925625189973e-05 0.0 
4.925625189973e-05 1.234532517902e-03 0.0 
0.0 0.0 0.0 
3.560801606173e-05 2.170295304842e-04 0.0 
2.170295304842e-04 1.355235395516e-03 0.0 
0.0 0.0 0.0 
-7.617975447149e-05 -5.872737451316e-06 0.0 
-5.872737451316e-06 1.418520964450e-03 0.0 
0.0 0.0 0.0 
-7.312346854205e-05 9.370087233835e-06 0.0 
9.370087233835e-06 1.420998159904e-03 0.0 
0.0 0.0 0.0 
-1.407928388304e-04 1.007688159189e-04 0.0 
1.007688159189e-04 1.247103707863e-03 0.0 
0.0 0.0 0.0 
2.518782689931e-05 1.163450317883e-04 0.0 
1.163450317883e-04 1.221418226548e-03 0.0 
0.0 0.0 0.0 
-5.521802134723e-05 2.043031104569e-04 0.0 
2.043031104569e-04 6.573214015515e-04 0.0 
0.0 0.0 0.0 
-1.197488593138e-04 2.900198479488e-05 0.0 
2.900198479488e-05 1.417219059373e-03 0.0 
0.0 0.0 0.0 
-3.028755217849e-05 3.665913990962e-06 0.0 
3.665913990962e-06 1.851967030882e-03 0.0 
0.0 0.0 0.0 
-6.842591227907e-05 1.811962074454e-04 0.0 
1.811962074454e-04 6.552439680669e-04 0.0 
0.0 0.0 0.0 
-9.755604035711e-06 -2.256258361935e-05 0.0 
-2.256258361935e-05 1.248643066127e-04 0.0 
0.0 0.0 0.0 
-2.000806663105e-05 1.055700834463e-05 0.0 
1.055700834463e-05 1.856202653582e-03 0.0 
0.0 0.0 0.0 
-4.436025179355e-05 -1.854658183254e-05 0.0 
-1.854658183254e-05 8.224397366430e-05 0.0 
0.0 0.0 0.0 
-1.031427908660e-04 2.010724565773e-05 0.0 
2.010724565773e-05 1.508583563286e-03 0.0 
0.0 0.0 0.0 
-1.375939818009e-04 1.218308655187e-04 0.0 
1.218308655187e-04 1.196026243770e-03 0.0 
0.0 0.0 0.0 
3.787911642106e-05 -8.567200578695e-06 0.0 
-8.567200578695e-06 2.650702642835e-04 0.0 
0.0 0.0 0.0 
4.018715115173e-05 -1.774561074809e-05 0.0 
-1.774561074809e-05 2.457434679541e-04 0.0 
0.0 0.0 0.0 
-1.242567271419e-04 8.191859251281e-05 0.0 
8.191859251281e-05 1.222335059894e-03 0.0 
0.0 0.0 0.0 
-2.613472492097e-05 1.327038113014e-04 0.0 
1.327038113014e-04 1.847540666399e-03 0.0 
0.0 0.0 0.0 
5.554182807810e-05 -1.189007964984e-05 0.0 
-1.189007964984e-05 3.545262357987e-04 0.0 
0.0 0.0 0.0 
4.682441097703e-05 2.716340741378e-07 0.0 
2.716340741378e-07 2.737210457175e-04 0.0 
0.0 0.0 0.0 
6.577238779593e-05 1.118191443567e-05 0.0 
1.118191443567e-05 9.646582249976e-04 0.0 
0.0 0.0 0.0 
1.487416684687e-05 -1.160327969895e-05 0.0 
-1.160327969895e-05 1.581225993992e-04 0.0 
0.0 0.0 0.0 
-1.583553973206e-05 1.866747793441e-05 0.0 
1.866747793441e-05 1.904123575857e-03 0.0 
0.0 0.0 0.0 
-9.848480266728e-05 -1.879859597597e-05 0.0 
-1.879859597597e-05 9.519071379249e-05 0.0 
0.0 0.0 0.0 
2.451994478836e-05 2.344604714352e-04 0.0 
2.344604714352e-04 1.411741335332e-03 0.0 
0.0 0.0 0.0 
-3.041041904006e-05 2.272749397977e-04 0.0 
2.272749397977e-04 9.249656513999e-04 0.0 
0.0 0.0 0.0 
3.307045262857e-05 -1.537799808022e-06 0.0 
-1.537799808022e-06 2.092841738666e-04 0.0 
0.0 0.0 0.0 
3.007724072379e-05 2.648239123083e-05 0.0 
2.648239123083e-05 1.157094784640e-03 0.0 
0.0 0.0 0.0 
-1.245394279957e-04 9.693751456004e-05 0.0 
9.693751456004e-05 1.183857988275e-03 0.0 
0.0 0.0 0.0 
-6.141718905617e-05 -8.684640392829e-06 0.0 
-8.684640392829e-06 7.687818681434e-05 0.0 
0.0 0.0 0.0 
-4.776467804968e-05 1.892194824848e-04 0.0 
1.892194824848e-04 1.782364322021e-03 0.0 
0.0 0.0 0.0 
9.858771889526e-06 -3.863146222865e-05 0.0 
-3.863146222865e-05 1.787559271402e-04 0.0 
0.0 0.0 0.0 
-1.596438110330e-05 2.224164382823e-04 0.0 
2.224164382823e-04 1.687110293558e-03 0.0 
0.0 0.0 0.0 
8.230756485639e-05 7.207099282289e-06 0.0 
7.207099282289e-06 8.266533943480e-04 0.0 
0.0 0.0 0.0 
0.0 8.528229358950e-05 0.0 
8.528229358950e-05 1.922272039630e-03 0.0 
0.0 0.0 0.0 
-5.598759243330e-06 2.299474107310e-04 0.0 
2.299474107310e-04 1.519832820886e-03 0.0 
0.0 0.0 0.0 
7.104075882225e-06 4.282951858088e-06 0.0 
4.282951858088e-06 7.221758965081e-05 0.0 
0.0 0.0 0.0 
6.236059636278e-05 -1.440414673216e-06 0.0 
-1.440414673216e-06 3.701350218439e-04 0.0 
0.0 0.0 0.0 
-3.101969669539e-05 5.915619955898e-05 0.0 
5.915619955898e-05 1.880725496475e-03 0.0 
0.0 0.0 0.0 
-4.614638615486e-05 1.446172870050e-04 0.0 
1.446172870050e-04 1.840596623879e-03 0.0 
0.0 0.0 0.0 
-6.036854997282e-05 1.505865030612e-04 0.0 
1.505865030612e-04 4.578182658199e-04 0.0 
0.0 0.0 0.0 
2.474333801805e-05 -1.482132792037e-05 0.0 
-1.482132792037e-05 1.575866408170e-04 0.0 
0.0 0.0 0.0 
-6.149773637210e-05 1.914926386081e-04 0.0 
1.914926386081e-04 4.595522856825e-04 0.0 
0.0 0.0 0.0 
1.448019346961e-05 -1.999306273214e-05 0.0 
-1.999306273214e-05 1.758582217297e-04 0.0 
0.0 0.0 0.0 
-8.962523677936e-05 1.130685712601e-05 0.0 
1.130685712601e-05 1.468811105962e-03 0.0 
0.0 0.0 0.0 
-1.237781628669e-04 1.760807317124e-04 0.0 
1.760807317124e-04 1.078941481871e-03 0.0 
0.0 0.0 0.0 
-1.096103612662e-04 1.358848069890e-04 0.0 
1.358848069890e-04 1.064817884961e-03 0.0 
0.0 0.0 0.0 
-8.628460683546e-05 5.788908433000e-06 0.0 
5.788908433000e-06 1.515750134964e-03 0.0 
0.0 0.0 0.0 
-7.814466401701e-05 1.489648298451e-05 0.0 
1.489648298451e-05 1.515657300799e-03 0.0 
0.0 0.0 0.0 
7.753303426106e-05 3.513926633904e-06 0.0 
3.513926633904e-06 8.562209942555e-04 0.0 
0.0 0.0 0.0 
6.982636327035e-05 5.574314774333e-06 0.0 
5.574314774333e-06 9.335461935984e-04 0.0 
0.0 0.0 0.0 
-9.405876826285e-05 1.581669717331e-04 0.0 
1.581669717331e-04 1.644343347372e-03 0.0 
0.0 0.0 0.0 
-8.895071845294e-05 3.688641752589e-06 0.0 
3.688641752589e-06 1.479737952037e-03 0.0 
0.0 0.0 0.0 
-2.026265466615e-05 -1.556379061046e-05 0.0 
-1.556379061046e-05 7.009026316762e-05 0.0 
0.0 0.0 0.0 
-1.196721047727e-04 3.750849061421e-05 0.0 
3.750849061421e-05 1.472162394272e-03 0.0 
0.0 0.0 0.0 
-4.765175618682e-05 4.443059287299e-06 0.0 
4.443059287299e-06 1.718382051973e-03 0.0 
0.0 0.0 0.0 
-5.292002727286e-05 1.191973841114e-05 0.0 
1.191973841114e-05 1.708303259562e-03 0.0 
0.0 0.0 0.0 
-2.162558648100e-05 9.356269770434e-05 0.0 
9.356269770434e-05 1.919905605734e-03 0.0 
0.0 0.0 0.0 
1.065193918603e-05 2.242584119055e-04 0.0 
2.242584119055e-04 1.419650255725e-03 0.0 
0.0 0.0 0.0 
-9.712387099792e-05 1.106396355558e-05 0.0 
1.106396355558e-05 1.468667813372e-03 0.0 
0.0 0.0 0.0 
4.059330743389e-05 1.144385978296e-04 0.0 
1.144385978296e-04 1.217753912945e-03 0.0 
0.0 0.0 0.0 
-6.247776598389e-05 -1.797521831724e-06 0.0 
-1.797521831724e-06 1.571073791823e-03 0.0 
0.0 0.0 0.0 
-5.612323694515e-05 2.288034773448e-04 0.0 
2.288034773448e-04 9.752014479105e-04 0.0 
0.0 0.0 0.0 
-8.461601464727e-05 2.224537292995e-06 0.0 
2.224537292995e-06 1.451076115874e-03 0.0 
0.0 0.0 0.0 
1.979391245710e-05 2.971700416576e-05 0.0 
2.971700416576e-05 1.189740805820e-03 0.0 
0.0 0.0 0.0 
4.121256393064e-05 1.974451605928e-04 0.0 
1.974451605928e-04 1.213720046538e-03 0.0 
0.0 0.0 0.0 
1.380269138607e-05 2.244852931509e-04 0.0 
2.244852931509e-04 1.413395611202e-03 0.0 
0.0 0.0 0.0 
1.622289265013e-05 2.018935884826e-04 0.0 
2.018935884826e-04 7.268099063205e-04 0.0 
0.0 0.0 0.0 
-4.442469072685e-05 -2.013925742485e-05 0.0 
-2.013925742485e-05 1.390985197831e-04 0.0 
0.0 0.0 0.0 
4.505318781445e-05 8.384186420293e-06 0.0 
8.384186420293e-06 1.076687208230e-03 0.0 
0.0 0.0 0.0 
-4.610764941060e-05 1.281574756039e-05 0.0 
1.281574756039e-05 1.763434388838e-03 0.0 
0.0 0.0 0.0 
-8.616665425754e-05 -1.966218024370e-05 0.0 
-1.966218024370e-05 9.702111530574e-05 0.0 
0.0 0.0 0.0 
1.975859262227e-05 4.646372604741e-05 0.0 
4.646372604741e-05 1.184932586308e-03 0.0 
0.0 0.0 0.0 
-8.564644601539e-05 1.602182166744e-04 0.0 
1.602182166744e-04 1.595799122660e-03 0.0 
0.0 0.0 0.0 
2.771953147240e-06 -7.937955943852e-06 0.0 
-7.937955943852e-06 4.570852350350e-05 0.0 
0.0 0.0 0.0 
4.758388319681e-05 2.121546300937e-04 0.0 
2.121546300937e-04 8.223299193191e-04 0.0 
0.0 0.0 0.0 
-1.361684217341e-04 5.617396704662e-05 0.0 
5.617396704662e-05 1.396529841174e-03 0.0 
0.0 0.0 0.0 
7.744156755396e-05 -8.345496746310e-06 0.0 
-8.345496746310e-06 4.538241633765e-04 0.0 
0.0 0.0 0.0 
-3.382780118910e-05 2.191643729612e-04 0.0 
2.191643729612e-04 8.690877002697e-04 0.0 
0.0 0.0 0.0 
-2.873921192847e-05 2.230611164821e-04 0.0 
2.230611164821e-04 9.252790495342e-04 0.0 
0.0 0.0 0.0 
2.578287396537e-05 8.967735205485e-05 0.0 
8.967735205485e-05 1.206155282733e-03 0.0 
0.0 0.0 0.0 
-6.421935955880e-05 6.921942659053e-06 0.0 
6.921942659053e-06 1.551026723505e-03 0.0 
0.0 0.0 0.0 
-1.117979320453e-06 2.304236022777e-04 0.0 
2.304236022777e-04 8.237189527245e-04 0.0 
0.0 0.0 0.0 
7.692795091607e-06 -3.614651128388e-05 0.0 
-3.614651128388e-05 1.693736937471e-04 0.0 
0.0 0.0 0.0 
-1.179637077281e-04 4.430342295029e-05 0.0 
4.430342295029e-05 1.459870973879e-03 0.0 
0.0 0.0 0.0 
-3.750753543474e-05 6.746743240198e-06 0.0 
6.746743240198e-06 1.767559992642e-03 0.0 
0.0 0.0 0.0 
-5.456533011428e-06 2.136747970290e-04 0.0 
2.136747970290e-04 8.245260577679e-04 0.0 
0.0 0.0 0.0 
-6.049736489877e-05 1.046210135057e-04 0.0 
1.046210135057e-04 2.742524326145e-04 0.0 
0.0 0.0 0.0 
-1.399994108205e-04 7.204804170191e-05 0.0 
7.204804170191e-05 1.322662783180e-03 0.0 
0.0 0.0 0.0 
6.951990539794e-05 -3.826821547302e-06 0.0 
-3.826821547302e-06 4.514880743047e-04 0.0 
0.0 0.0 0.0 
-1.253821164887e-04 6.064083162501e-05 0.0 
6.064083162501e-05 1.294447908800e-03 0.0 
0.0 0.0 0.0 
-1.758411957054e-05 7.480242195120e-05 0.0 
7.480242195120e-05 1.896819986264e-03 0.0 
0.0 0.0 0.0 
-2.563605482542e-05 1.277858821868e-04 0.0 
1.277858821868e-04 2.622854738976e-04 0.0 
0.0 0.0 0.0 
8.572525112327e-05 1.157110229585e-05 0.0 
1.157110229585e-05 7.850611527662e-04 0.0 
0.0 0.0 0.0 
-2.058666275617e-05 2.019600639218e-05 0.0 
2.019600639218e-05 1.882931101556e-03 0.0 
0.0 0.0 0.0 
-1.028422282772e-04 1.775762227995e-04 0.0 
1.775762227995e-04 1.193095365452e-03 0.0 
0.0 0.0 0.0 
-1.410061580549e-04 8.289788014796e-05 0.0 
8.289788014796e-05 1.285728511913e-03 0.0 
0.0 0.0 0.0 
4.456069350134e-05 1.038008766511e-04 0.0 
1.038008766511e-04 1.184196477533e-03 0.0 
0.0 0.0 0.0 
2.882792289016e-05 7.566952350135e-06 0.0 
7.566952350135e-06 1.158311897403e-03 0.0 
0.0 0.0 0.0 
7.963373915598e-05 1.378418741553e-05 0.0 
1.378418741553e-05 8.564987290096e-04 0.0 
0.0 0.0 0.0 
-1.154727077634e-04 1.764059848477e-04 0.0 
1.764059848477e-04 1.258734051231e-03 0.0 
0.0 0.0 0.0 
4.299043026057e-05 1.541240396005e-04 0.0 
1.541240396005e-04 1.259551708493e-03 0.0 
0.0 0.0 0.0 
-1.192023486737e-04 1.469639450778e-04 0.0 
1.469639450778e-04 1.222336453897e-03 0.0 
0.0 0.0 0.0 
-1.496068259210e-05 4.726746830550e-05 0.0 
4.726746830550e-05 1.893068177376e-03 0.0 
0.0 0.0 0.0 
-2.787757339717e-05 2.326298762551e-04 0.0 
2.326298762551e-04 1.700858891749e-03 0.0 
0.0 0.0 0.0 
-1.085354660856e-04 2.685762886259e-05 0.0 
2.685762886259e-05 1.533460201859e-03 0.0 
0.0 0.0 0.0 
-5.973405504933e-05 1.683162167051e-05 0.0 
1.683162167051e-05 1.647195532510e-03 0.0 
0.0 0.0 0.0 
-1.230580750174e-04 1.717152204529e-04 0.0 
1.717152204529e-04 1.221297968938e-03 0.0 
0.0 0.0 0.0 
-1.253729570100e-04 6.853793191926e-05 0.0 
6.853793191926e-05 1.256496890040e-03 0.0 
0.0 0.0 0.0 
-9.597133525885e-05 1.827142495698e-04 0.0 
1.827142495698e-04 1.234097483717e-03 0.0 
0.0 0.0 0.0 
2.598003769516e-05 2.100662378602e-04 0.0 
2.100662378602e-04 7.912201248317e-04 0.0 
0.0 0.0 0.0 
-7.825268932182e-05 -2.303350053702e-07 0.0 
-2.303350053702e-07 1.458253522156e-03 0.0 
0.0 0.0 0.0 
4.882693597730e-05 1.940735512437e-04 0.0 
1.940735512437e-04 8.245418760746e-04 0.0 
0.0 0.0 0.0 
-1.294829904641e-05 -1.993990281893e-05 0.0 
-1.993990281893e-05 6.549272841072e-05 0.0 
0.0 0.0 0.0 
-6.877076435874e-05 1.371046564973e-06 0.0 
1.371046564973e-06 1.503039651272e-03 0.0 
0.0 0.0 0.0 
2.524427323713e-05 -4.437393421495e-06 0.0 
-4.437393421495e-06 1.592049314492e-04 0.0 
0.0 0.0 0.0 
-1.381498734714e-04 6.311505439145e-05 0.0 
6.311505439145e-05 1.359240502247e-03 0.0 
0.0 0.0 0.0 
2.486931916645e-05 1.407782423549e-04 0.0 
1.407782423549e-04 1.250332909682e-03 0.0 
0.0 0.0 0.0 
2.146609457276e-05 2.239048699624e-04 0.0 
2.239048699624e-04 7.251762923510e-04 0.0 
0.0 0.0 0.0 
7.516875734659e-05 1.072256287167e-05 0.0 
1.072256287167e-05 8.927955528013e-04 0.0 
0.0 0.0 0.0 
-7.680117389486e-05 1.894575382163e-04 0.0 
1.894575382163e-04 7.611167452786e-04 0.0 
0.0 0.0 0.0 
4.610400407179e-05 2.110869587040e-04 0.0 
2.110869587040e-04 1.212476695933e-03 0.0 
0.0 0.0 0.0 
-7.113653184598e-05 2.077454330258e-06 0.0 
2.077454330258e-06 1.461793822764e-03 0.0 
0.0 0.0 0.0 
6.923712609574e-05 1.994366685376e-04 0.0 
1.994366685376e-04 7.334593509212e-04 0.0 
0.0 0.0 0.0 
5.880951473292e-05 6.555672130608e-06 0.0 
6.555672130608e-06 1.000879818307e-03 0.0 
0.0 0.0 0.0 
1.272610391045e-05 -2.117358039696e-05 0.0 
-2.117358039696e-05 1.664996658199e-04 0.0 
0.0 0.0 0.0 
4.732766949456e-05 2.048720323774e-05 0.0 
2.048720323774e-05 1.075401881366e-03 0.0 
0.0 0.0 0.0 
-1.288006725763e-04 9.015193500118e-05 0.0 
9.015193500118e-05 1.417437675267e-03 0.0 
0.0 0.0 0.0 
3.288752505393e-05 4.525188543548e-05 0.0 
4.525188543548e-05 1.181186351078e-03 0.0 
0.0 0.0 0.0 
-6.866882801682e-05 1.279775572607e-06 0.0 
1.279775572607e-06 1.456930161216e-03 0.0 
0.0 0.0 0.0 
4.342815345737e-05 2.064370401791e-04 0.0 
2.064370401791e-04 6.895227144081e-04 0.0 
0.0 0.0 0.0 
-1.243211203720e-04 4.949395490288e-05 0.0 
4.949395490288e-05 1.363990529308e-03 0.0 
0.0 0.0 0.0 
8.463878148701e-05 -3.776209750930e-07 0.0 
-3.776209750930e-07 7.482235464100e-04 0.0 
0.0 0.0 0.0 
-6.574983193464e-05 2.171770768648e-04 0.0 
2.171770768648e-04 7.686484624987e-04 0.0 
0.0 0.0 0.0 
6.650584915624e-05 1.752426977223e-04 0.0 
1.752426977223e-04 7.367515287058e-04 0.0 
0.0 0.0 0.0 
-5.883227559156e-05 6.692857583205e-06 0.0 
6.692857583205e-06 1.678520418500e-03 0.0 
0.0 0.0 0.0 
-7.309542151557e-05 5.474571001791e-06 0.0 
5.474571001791e-06 1.458371837231e-03 0.0 
0.0 0.0 0.0 
4.650560400976e-05 2.095263537370e-04 0.0 
2.095263537370e-04 7.539890652133e-04 0.0 
0.0 0.0 0.0 
-1.265889168524e-04 5.357846161010e-05 0.0 
5.357846161010e-05 1.329407044098e-03 0.0 
0.0 0.0 0.0 
-4.762947262349e-05 2.049768242232e-04 0.0 
2.049768242232e-04 1.579386467787e-03 0.0 
0.0 0.0 0.0 
7.752481382717e-05 -5.023032478983e-06 0.0 
-5.023032478983e-06 5.068586470227e-04 0.0 
0.0 0.0 0.0 
3.293170825147e-06 2.422048132829e-04 0.0 
2.422048132829e-04 1.544333381610e-03 0.0 
0.0 0.0 0.0 
-2.768608618997e-05 2.389191729333e-04 0.0 
2.389191729333e-04 1.672692223265e-03 0.0 
0.0 0.0 0.0 
-6.422354238267e-05 2.234501207669e-04 0.0 
2.234501207669e-04 9.328135368840e-04 0.0 
0.0 0.0 0.0 
8.373110443172e-05 -1.656968728797e-06 0.0 
-1.656968728797e-06 5.086366228209e-04 0.0 
0.0 0.0 0.0 
6.278062692600e-05 1.574648053036e-04 0.0 
1.574648053036e-04 1.167924045861e-03 0.0 
0.0 0.0 0.0 
-1.374464280992e-04 1.390514229229e-04 0.0 
1.390514229229e-04 1.241616990399e-03 0.0 
0.0 0.0 0.0 
-4.800429046359e-05 2.047186153630e-04 0.0 
2.047186153630e-04 8.211686525170e-04 0.0 
0.0 0.0 0.0 
-1.273370255719e-04 6.739054829655e-05 0.0 
6.739054829655e-05 1.409781902676e-03 0.0 
0.0 0.0 0.0 
2.925719841795e-05 2.122617448750e-04 0.0 
2.122617448750e-04 8.537235753274e-04 0.0 
0.0 0.0 0.0 
-1.456831092983e-05 3.645705742076e-05 0.0 
3.645705742076e-05 1.893271078786e-03 0.0 
0.0 0.0 0.0 
-9.012371697636e-05 1.378925220440e-04 0.0 
1.378925220440e-04 1.643941014344e-03 0.0 
0.0 0.0 0.0 
5.324897106962e-05 1.324547310770e-05 0.0 
1.324547310770e-05 1.038507083521e-03 0.0 
0.0 0.0 0.0 
-6.603514459858e-05 1.682266777663e-04 0.0 
1.682266777663e-04 5.558831897110e-04 0.0 
0.0 0.0 0.0 
7.992447571326e-05 1.526229542847e-04 0.0 
1.526229542847e-04 6.543752534194e-04 0.0 
0.0 0.0 0.0 
-8.075791495943e-05 1.559156785342e-04 0.0 
1.559156785342e-04 1.644701948331e-03 0.0 
0.0 0.0 0.0 
-1.259404877650e-04 3.550912188412e-05 0.0 
3.550912188412e-05 8.375334598676e-05 0.0 
0.0 0.0 0.0 
-1.268932425511e-04 1.105930110961e-04 0.0 
1.105930110961e-04 1.242158944356e-03 0.0 
0.0 0.0 0.0 
8.268668762845e-05 1.225315891022e-04 0.0 
1.225315891022e-04 1.048432970103e-03 0.0 
0.0 0.0 0.0 
2.146782919432e-06 -1.571114776173e-05 0.0 
-1.571114776173e-05 1.121637878176e-04 0.0 
0.0 0.0 0.0 
-3.813698850386e-05 1.581852862479e-04 0.0 
1.581852862479e-04 1.813855749737e-03 0.0 
0.0 0.0 0.0 
-1.041501714757e-04 8.603636600382e-05 0.0 
8.603636600382e-05 1.619561886492e-03 0.0 
0.0 0.0 0.0 
1.067601284483e-04 8.642341257989e-06 0.0 
8.642341257989e-06 4.834488626713e-04 0.0 
0.0 0.0 0.0 
9.381278100595e-05 1.393470614783e-04 0.0 
1.393470614783e-04 1.047276752283e-03 0.0 
0.0 0.0 0.0 
-1.207063202077e-04 5.042258364595e-05 0.0 
5.042258364595e-05 1.509698408284e-03 0.0 
0.0 0.0 0.0 
-1.125466828114e-04 4.247681092322e-05 0.0 
4.247681092322e-05 1.563665679364e-03 0.0 
0.0 0.0 0.0 
3.969056333353e-05 1.421606821106e-04 0.0 
1.421606821106e-04 1.216337944484e-03 0.0 
0.0 0.0 0.0 
7.428497630091e-05 -1.215576272584e-05 0.0 
-1.215576272584e-05 3.537897907804e-04 0.0 
0.0 0.0 0.0 
-7.341879584510e-05 2.011560322115e-04 0.0 
2.011560322115e-04 1.203484007741e-03 0.0 
0.0 0.0 0.0 
-1.259414686499e-04 1.138469322615e-04 0.0 
1.138469322615e-04 1.419154304955e-03 0.0 
0.0 0.0 0.0 
-1.104362022465e-04 8.331273392329e-05 0.0 
8.331273392329e-05 1.655823118934e-03 0.0 
0.0 0.0 0.0 
-1.392819694693e-04 9.126479170517e-05 0.0 
9.126479170517e-05 1.457289561584e-03 0.0 
0.0 0.0 0.0 
-1.411378056814e-04 7.785008187326e-05 0.0 
7.785008187326e-05 1.409841406060e-03 0.0 
0.0 0.0 0.0 
6.448196437359e-05 1.807358928620e-04 0.0 
1.807358928620e-04 1.071533840362e-03 0.0 
0.0 0.0 0.0 
-6.967717994033e-05 1.904355212821e-04 0.0 
1.904355212821e-04 1.585858022659e-03 0.0 
0.0 0.0 0.0 
-9.298104548650e-05 3.419440947701e-05 0.0 
3.419440947701e-05 1.229830395764e-04 0.0 
0.0 0.0 0.0 
-6.381459713511e-05 2.092462354674e-04 0.0 
2.092462354674e-04 9.310732209313e-04 0.0 
0.0 0.0 0.0 
-6.333725168528e-05 2.141521433222e-04 0.0 
2.141521433222e-04 9.776368249976e-04 0.0 
0.0 0.0 0.0 
-9.241700101614e-05 1.967658094446e-04 0.0 
1.967658094446e-04 1.232169929241e-03 0.0 
0.0 0.0 0.0 
-9.701950382512e-05 1.344117587822e-04 0.0 
1.344117587822e-04 1.687029136314e-03 0.0 
0.0 0.0 0.0 
3.273798333669e-05 7.408715088879e-05 0.0 
7.408715088879e-05 2.388767876853e-04 0.0 
0.0 0.0 0.0 
9.144055417898e-05 1.061250927714e-04 0.0 
1.061250927714e-04 9.907195737808e-04 0.0 
0.0 0.0 0.0 
-7.445342995382e-05 -3.025285407053e-06 0.0 
-3.025285407053e-06 1.454013582161e-03 0.0 
0.0 0.0 0.0 
8.534601954158e-05 1.803423496092e-04 0.0 
1.803423496092e-04 6.504451010907e-04 0.0 
0.0 0.0 0.0 
9.803984686552e-05 9.024632151827e-05 0.0 
9.024632151827e-05 9.364892202233e-04 0.0 
0.0 0.0 0.0 
-1.126368174753e-05 -2.074471271723e-05 0.0 
-2.074471271723e-05 7.765958391626e-05 0.0 
0.0 0.0 0.0 
-9.380084681043e-05 1.001733918228e-04 0.0 
1.001733918228e-04 1.669523631611e-03 0.0 
0.0 0.0 0.0 
-2.052232888072e-05 -8.562277131714e-06 0.0 
-8.562277131714e-06 6.163149276839e-05 0.0 
0.0 0.0 0.0 
1.325552375708e-05 -1.398890038142e-05 0.0 
-1.398890038142e-05 1.111540481902e-04 0.0 
0.0 0.0 0.0 
-5.358492084429e-05 1.999121593460e-04 0.0 
1.999121593460e-04 5.574782656539e-04 0.0 
0.0 0.0 0.0 
5.955394897206e-05 -1.764017579899e-05 0.0 
-1.764017579899e-05 2.969077004771e-04 0.0 
0.0 0.0 0.0 
-9.873695919860e-05 9.604544528041e-05 0.0 
9.604544528041e-05 1.705929043193e-03 0.0 
0.0 0.0 0.0 
4.606590847800e-05 -3.306642550407e-05 0.0 
-3.306642550407e-05 2.796480213609e-04 0.0 
0.0 0.0 0.0 
2.457586875737e-05 1.772361682765e-04 0.0 
1.772361682765e-04 4.748886187445e-04 0.0 
0.0 0.0 0.0 
3.014501578247e-05 -3.214850692510e-05 0.0 
-3.214850692510e-05 2.250577189651e-04 0.0 
0.0 0.0 0.0 
2.113046699459e-05 -2.013259712001e-05 0.0 
-2.013259712001e-05 1.882102998980e-04 0.0 
0.0 0.0 0.0 
8.311699931718e-05 1.534034896030e-04 0.0 
1.534034896030e-04 1.104052476017e-03 0.0 
0.0 0.0 0.0 
-1.412050228577e-04 1.013544188597e-04 0.0 
1.013544188597e-04 1.417007328606e-03 0.0 
0.0 0.0 0.0 
3.320727035616e-05 3.926339427220e-05 0.0 
3.926339427220e-05 1.157796825436e-03 0.0 
0.0 0.0 0.0 
-9.240883922401e-05 2.021799312344e-05 0.0 
2.021799312344e-05 5.625975866685e-05 0.0 
0.0 0.0 0.0 
4.801073570415e-05 1.841107032349e-04 0.0 
1.841107032349e-04 5.335991154367e-04 0.0 
0.0 0.0 0.0 
8.604747062813e-05 1.841857693519e-04 0.0 
1.841857693519e-04 7.221156845567e-04 0.0 
0.0 0.0 0.0 
-1.201855293808e-04 1.307983456709e-04 0.0 
1.307983456709e-04 1.186770923467e-03 0.0 
0.0 0.0 0.0 
1.020972587094e-04 1.221263725618e-04 0.0 
1.221263725618e-04 9.896093137409e-04 0.0 
0.0 0.0 0.0 
3.112327615784e-05 5.658478512169e-05 0.0 
5.658478512169e-05 1.189519048090e-03 0.0 
0.0 0.0 0.0 
-1.110763438656e-04 1.219257812067e-04 0.0 
1.219257812067e-04 1.639732248274e-03 0.0 
0.0 0.0 0.0 
7.770345994285e-05 1.159638627553e-04 0.0 
1.159638627553e-04 5.084451026325e-04 0.0 
0.0 0.0 0.0 
7.288623377044e-05 1.400539010486e-04 0.0 
1.400539010486e-04 1.104144446398e-03 0.0 
0.0 0.0 0.0 
8.174062391686e-05 1.083413041313e-05 0.0 
1.083413041313e-05 8.192327301904e-04 0.0 
0.0 0.0 0.0 
-1.074855856956e-04 1.800206212098e-04 0.0 
1.800206212098e-04 1.298638059490e-03 0.0 
0.0 0.0 0.0 
-1.017007037951e-04 1.025910597152e-04 0.0 
1.025910597152e-04 1.631221923538e-03 0.0 
0.0 0.0 0.0 
2.447778497450e-06 2.311624673271e-04 0.0 
2.311624673271e-04 1.472069004741e-03 0.0 
0.0 0.0 0.0 
8.216360911129e-05 1.597684859881e-04 0.0 
1.597684859881e-04 7.257252431880e-04 0.0 
0.0 0.0 0.0 
1.171259095489e-05 1.696806106918e-04 0.0 
1.696806106918e-04 5.696633758399e-04 0.0 
0.0 0.0 0.0 
-1.339865776235e-04 1.042797895793e-04 0.0 
1.042797895793e-04 1.504280986574e-03 0.0 
0.0 0.0 0.0 
-1.639899424455e-05 8.559171882363e-05 0.0 
8.559171882363e-05 1.925992699276e-03 0.0 
0.0 0.0 0.0 
-6.694906474636e-05 2.085679232446e-04 0.0 
2.085679232446e-04 1.202524270068e-03 0.0 
0.0 0.0 0.0 
9.075248272605e-05 1.566064553646e-04 0.0 
1.566064553646e-04 8.591499265049e-04 0.0 
0.0 0.0 0.0 
-7.129554899299e-05 2.927679299037e-06 0.0 
2.927679299037e-06 1.515928703824e-03 0.0 
0.0 0.0 0.0 
-6.157262407935e-06 -3.560990001321e-05 0.0 
-3.560990001321e-05 1.668974448994e-04 0.0 
0.0 0.0 0.0 
-1.264620839682e-04 8.261197698026e-05 0.0 
8.261197698026e-05 1.458575431403e-03 0.0 
0.0 0.0 0.0 
8.834949949876e-05 1.488970951391e-04 0.0 
1.488970951391e-04 5.034168230678e-04 0.0 
0.0 0.0 0.0 
6.117634451375e-05 8.384316140620e-05 0.0 
8.384316140620e-05 3.053072945645e-04 0.0 
0.0 0.0 0.0 
1.717975102355e-05 -2.774525415896e-05 0.0 
-2.774525415896e-05 1.825932259036e-04 0.0 
0.0 0.0 0.0 
-8.481943477368e-05 9.746480073987e-05 0.0 
9.746480073987e-05 1.705688526336e-03 0.0 
0.0 0.0 0.0 
-1.357546034101e-04 1.138971902589e-04 0.0 
1.138971902589e-04 1.461998540584e-03 0.0 
0.0 0.0 0.0 
2.314208097531e-05 2.215648925628e-04 0.0 
2.215648925628e-04 7.893896628461e-04 0.0 
0.0 0.0 0.0 
-8.828868288813e-05 9.222231933384e-05 0.0 
9.222231933384e-05 1.740995366898e-03 0.0 
0.0 0.0 0.0 
-1.034982604409e-04 1.397405391524e-04 0.0 
1.397405391524e-04 1.643703399160e-03 0.0 
0.0 0.0 0.0 
-1.180101295924e-04 1.637398938170e-04 0.0 
1.637398938170e-04 1.357691808597e-03 0.0 
0.0 0.0 0.0 
2.227719014236e-05 7.091323000216e-05 0.0 
7.091323000216e-05 1.196301182070e-03 0.0 
0.0 0.0 0.0 
1.025482644510e-04 1.641111380321e-04 0.0 
1.641111380321e-04 8.551225731035e-04 0.0 
0.0 0.0 0.0 
-1.246203785693e-04 1.487933856329e-04 0.0 
1.487933856329e-04 1.411812084696e-03 0.0 
0.0 0.0 0.0 
2.912227177121e-05 2.100950283465e-04 0.0 
2.100950283465e-04 9.173279381727e-04 0.0 
0.0 0.0 0.0 
8.576414835826e-05 1.617051113504e-04 0.0 
1.617051113504e-04 9.295223328714e-04 0.0 
0.0 0.0 0.0 
8.520284891445e-05 9.387079019753e-05 0.0 
9.387079019753e-05 3.679354206769e-04 0.0 
0.0 0.0 0.0 
-1.138264448642e-04 2.853063769463e-05 0.0 
2.853063769463e-05 1.469745407642e-03 0.0 
0.0 0.0 0.0 
9.481513791476e-05 1.443625729918e-04 0.0 
1.443625729918e-04 7.184028004119e-04 0.0 
0.0 0.0 0.0 
9.339343117487e-05 2.424732453111e-05 0.0 
2.424732453111e-05 4.065390400820e-04 0.0 
0.0 0.0 0.0 
-9.709750726616e-05 1.202767075166e-04 0.0 
1.202767075166e-04 1.639919239939e-03 0.0 
0.0 0.0 0.0 
-1.587060455031e-04 7.015252347526e-06 0.0 
7.015252347526e-06 8.927686550630e-05 0.0 
0.0 0.0 0.0 
-1.361841462827e-04 8.346951644541e-05 0.0 
8.346951644541e-05 1.496009310003e-03 0.0 
0.0 0.0 0.0 
1.020571026946e-04 1.311515683293e-04 0.0 
1.311515683293e-04 5.002127943401e-04 0.0 
0.0 0.0 0.0 
3.940859379670e-05 1.526563756996e-04 0.0 
1.526563756996e-04 5.380109254034e-04 0.0 
0.0 0.0 0.0 
6.919625211665e-05 5.861573852657e-05 0.0 
5.861573852657e-05 3.740333206674e-04 0.0 
0.0 0.0 0.0 
-1.175496829642e-04 1.179646510762e-04 0.0 
1.179646510762e-04 1.508364513584e-03 0.0 
0.0 0.0 0.0 
-1.655156339408e-05 -3.028875227846e-05 0.0 
-3.028875227846e-05 1.178452389548e-04 0.0 
0.0 0.0 0.0 
-8.895947899890e-05 1.938943810082e-04 0.0 
1.938943810082e-04 1.075230182698e-03 0.0 
0.0 0.0 0.0 
9.671768553354e-05 1.690563837662e-04 0.0 
1.690563837662e-04 9.267517633547e-04 0.0 
0.0 0.0 0.0 
-1.247058952004e-04 1.042895673022e-04 0.0 
1.042895673022e-04 1.463579324715e-03 0.0 
0.0 0.0 0.0 
-1.143531637813e-04 4.011491727088e-05 0.0 
4.011491727088e-05 1.517025264783e-03 0.0 
0.0 0.0 0.0 
7.739003285989e-06 5.407125967929e-05 0.0 
5.407125967929e-05 1.912968459068e-04 0.0 
0.0 0.0 0.0 
1.091929848711e-04 5.251389321695e-05 0.0 
5.251389321695e-05 4.020897118022e-04 0.0 
0.0 0.0 0.0 
8.194831529962e-05 4.601829582054e-06 0.0 
4.601829582054e-06 3.604099037995e-04 0.0 
0.0 0.0 0.0 
-9.122210347090e-05 2.163435187622e-04 0.0 
2.163435187622e-04 1.036536637635e-03 0.0 
0.0 0.0 0.0 
-1.162704323886e-04 1.035947298031e-04 0.0 
1.035947298031e-04 1.631161754136e-03 0.0 
0.0 0.0 0.0 
-8.382655227690e-05 2.168635684320e-04 0.0 
2.168635684320e-04 1.071763736607e-03 0.0 
0.0 0.0 0.0 
1.106310663672e-04 1.468201099769e-04 0.0 
1.468201099769e-04 6.405930565356e-04 0.0 
0.0 0.0 0.0 
9.961457325458e-05 1.633092104391e-04 0.0 
1.633092104391e-04 6.432243054184e-04 0.0 
0.0 0.0 0.0 
1.076892366525e-05 3.554730096278e-05 0.0 
3.554730096278e-05 2.528033293796e-04 0.0 
0.0 0.0 0.0 
4.513176071752e-05 2.121984722415e-04 0.0 
2.121984722415e-04 8.910144545617e-04 0.0 
0.0 0.0 0.0 
-1.872986460416e-05 1.344554395610e-04 0.0 
1.344554395610e-04 4.210646454683e-04 0.0 
0.0 0.0 0.0 
-2.505006070208e-05 1.511741225792e-04 0.0 
1.511741225792e-04 1.882085369912e-03 0.0 
0.0 0.0 0.0 
-2.754032006969e-05 1.799474562990e-04 0.0 
1.799474562990e-04 1.850481205582e-03 0.0 
0.0 0.0 0.0 
-4.904866706457e-05 2.122198959598e-04 0.0 
2.122198959598e-04 1.174107821265e-03 0.0 
0.0 0.0 0.0 
8.992528124496e-05 1.217140465840e-04 0.0 
1.217140465840e-04 4.322624450779e-04 0.0 
0.0 0.0 0.0 
4.165067570128e-05 1.234134769352e-04 0.0 
1.234134769352e-04 4.551826571479e-04 0.0 
0.0 0.0 0.0 
-1.061415264428e-04 1.592936282016e-04 0.0 
1.592936282016e-04 1.402029527119e-03 0.0 
0.0 0.0 0.0 
6.128742260469e-05 1.047589553344e-04 0.0 
1.047589553344e-04 4.427738671318e-04 0.0 
0.0 0.0 0.0 
9.804009169478e-05 3.162033195254e-05 0.0 
3.162033195254e-05 3.561187664287e-04 0.0 
0.0 0.0 0.0 
-1.075054061578e-04 1.656499969327e-04 0.0 
1.656499969327e-04 1.301193514767e-03 0.0 
0.0 0.0 0.0 
-2.983026148484e-05 5.149240141936e-05 0.0 
5.149240141936e-05 1.893340301908e-03 0.0 
0.0 0.0 0.0 
9.662342180716e-05 1.568716810437e-04 0.0 
1.568716810437e-04 5.724552212560e-04 0.0 
0.0 0.0 0.0 
6.586114416440e-05 1.955700694015e-04 0.0 
1.955700694015e-04 1.069745798336e-03 0.0 
0.0 0.0 0.0 
2.377838539513e-05 1.540301466762e-04 0.0 
1.540301466762e-04 3.906719030589e-04 0.0 
0.0 0.0 0.0 
2.407298532892e-05 1.860139232796e-04 0.0 
1.860139232796e-04 1.353314201454e-03 0.0 
0.0 0.0 0.0 
7.387048868557e-05 1.406046765761e-04 0.0 
1.406046765761e-04 4.369024780102e-04 0.0 
0.0 0.0 0.0 
-8.854025848282e-05 1.866945909373e-04 0.0 
1.866945909373e-04 1.276760036355e-03 0.0 
0.0 0.0 0.0 
4.648118710904e-05 5.918662211566e-05 0.0 
5.918662211566e-05 2.490295936919e-04 0.0 
0.0 0.0 0.0 
1.173048253136e-04 1.237164865026e-04 0.0 
1.237164865026e-04 8.817402363721e-04 0.0 
0.0 0.0 0.0 
9.913041137311e-05 1.677750206900e-04 0.0 
1.677750206900e-04 7.146447119226e-04 0.0 
0.0 0.0 0.0 
1.020335844759e-04 2.451139351735e-05 0.0 
2.451139351735e-05 3.756038794072e-04 0.0 
0.0 0.0 0.0 
-1.354923340756e-04 1.259517972123e-04 0.0 
1.259517972123e-04 1.417641236573e-03 0.0 
0.0 0.0 0.0 
-2.035980772241e-05 2.253878871486e-04 0.0 
2.253878871486e-04 1.787877165380e-03 0.0 
0.0 0.0 0.0 
1.084367960944e-04 1.395298519349e-04 0.0 
1.395298519349e-04 5.699111395499e-04 0.0 
0.0 0.0 0.0 
9.327843914053e-05 1.515221927344e-04 0.0 
1.515221927344e-04 9.292370381784e-04 0.0 
0.0 0.0 0.0 
1.441659466184e-05 1.144863265033e-04 0.0 
1.144863265033e-04 3.961168969873e-04 0.0 
0.0 0.0 0.0 
-8.698512028893e-05 4.443022846688e-05 0.0 
4.443022846688e-05 1.626573243780e-03 0.0 
0.0 0.0 0.0 
1.085518515591e-04 1.052657796900e-04 0.0 
1.052657796900e-04 9.345503313529e-04 0.0 
0.0 0.0 0.0 
1.711633107249e-06 1.928251240781e-04 0.0 
1.928251240781e-04 6.668191238435e-04 0.0 
0.0 0.0 0.0 
-9.597746808121e-05 2.960388411864e-05 0.0 
2.960388411864e-05 1.602257419194e-03 0.0 
0.0 0.0 0.0 
-1.155195204783e-05 2.590989446535e-04 0.0 
2.590989446535e-04 1.700333434134e-03 0.0 
0.0 0.0 0.0 
9.468800380796e-05 1.151696705657e-04 0.0 
1.151696705657e-04 1.010316203354e-03 0.0 
0.0 0.0 0.0 
-2.433187155537e-05 2.111844716337e-04 0.0 
2.111844716337e-04 1.811311683757e-03 0.0 
0.0 0.0 0.0 
-1.053720278191e-04 3.990715510241e-05 0.0 
3.990715510241e-05 1.594287984187e-03 0.0 
0.0 0.0 0.0 
-9.592388514146e-05 1.634781928153e-04 0.0 
1.634781928153e-04 1.595245426352e-03 0.0 
0.0 0.0 0.0 
-2.523742227734e-05 1.794794168465e-04 0.0 
1.794794168465e-04 6.095284622214e-04 0.0 
0.0 0.0 0.0 
-1.411405312143e-04 1.143494224390e-04 0.0 
1.143494224390e-04 1.373923352285e-03 0.0 
0.0 0.0 0.0 
-1.181408349216e-04 1.375427562677e-04 0.0 
1.375427562677e-04 1.413383931358e-03 0.0 
0.0 0.0 0.0 
-1.277564997648e-04 1.357573154860e-04 0.0 
1.357573154860e-04 1.461349432130e-03 0.0 
0.0 0.0 0.0 
-4.459748897157e-05 2.181661581569e-04 0.0 
2.181661581569e-04 1.123184930378e-03 0.0 
0.0 0.0 0.0 
-4.582907139561e-06 2.686326103168e-04 0.0 
2.686326103168e-04 1.635875020896e-03 0.0 
0.0 0.0 0.0 
-1.107146037509e-04 5.800405499529e-05 0.0 
5.800405499529e-05 1.553175434744e-03 0.0 
0.0 0.0 0.0 
-1.383291875824e-04 7.000649888376e-05 0.0 
7.000649888376e-05 1.447108578813e-03 0.0 
0.0 0.0 0.0 
9.314623898793e-05 1.363287728495e-04 0.0 
1.363287728495e-04 6.473485776721e-04 0.0 
0.0 0.0 0.0 
4.148080306243e-05 -1.977460353505e-05 0.0 
-1.977460353505e-05 2.426299897502e-04 0.0 
0.0 0.0 0.0 
-1.433641941870e-04 8.761572433033e-05 0.0 
8.761572433033e-05 1.370023622432e-03 0.0 
0.0 0.0 0.0 
3.783554724368e-05 2.038164852907e-04 0.0 
2.038164852907e-04 6.249188126535e-04 0.0 
0.0 0.0 0.0 
-7.147720732570e-05 5.520236028518e-07 0.0 
5.520236028518e-07 1.460126467132e-03 0.0 
0.0 0.0 0.0 
8.669066799905e-05 -2.106768835138e-07 0.0 
-2.106768835138e-07 3.793579433078e-04 0.0 
0.0 0.0 0.0 
8.782286665543e-05 1.266465578547e-04 0.0 
1.266465578547e-04 5.768128990584e-04 0.0 
0.0 0.0 0.0 
-8.929716830963e-05 1.169678702707e-04 0.0 
1.169678702707e-04 1.679902888607e-03 0.0 
0.0 0.0 0.0 
3.109404345114e-05 1.794773119838e-04 0.0 
1.794773119838e-04 6.281168508591e-04 0.0 
0.0 0.0 0.0 
-1.246315897926e-04 1.259710762909e-04 0.0 
1.259710762909e-04 1.371687390383e-03 0.0 
0.0 0.0 0.0 
1.030280970304e-04 1.585758561103e-04 0.0 
1.585758561103e-04 9.288646291263e-04 0.0 
0.0 0.0 0.0 
1.248104860492e-04 5.351714638905e-05 0.0 
5.351714638905e-05 6.945500285047e-04 0.0 
0.0 0.0 0.0 
9.163064084383e-06 2.643248717912e-04 0.0 
2.643248717912e-04 1.537440207325e-03 0.0 
0.0 0.0 0.0 
-1.413911611687e-04 1.176836666861e-04 0.0 
1.176836666861e-04 1.287435262107e-03 0.0 
0.0 0.0 0.0 
1.036972979267e-04 6.396720919187e-05 0.0 
6.396720919187e-05 3.866912478288e-04 0.0 
0.0 0.0 0.0 
9.495502919110e-05 -6.700591356773e-06 0.0 
-6.700591356773e-06 4.637537258874e-04 0.0 
0.0 0.0 0.0 
-4.913407150664e-05 2.140152165943e-04 0.0 
2.140152165943e-04 8.198397318970e-04 0.0 
0.0 0.0 0.0 
9.185620591712e-06 2.134522709446e-04 0.0 
2.134522709446e-04 6.645270127379e-04 0.0 
0.0 0.0 0.0 
-8.746266237547e-05 1.517694200046e-04 0.0 
1.517694200046e-04 1.689732816274e-03 0.0 
0.0 0.0 0.0 
-9.942279667652e-05 1.822584756138e-04 0.0 
1.822584756138e-04 1.340939467199e-03 0.0 
0.0 0.0 0.0 
-1.299833248999e-04 1.630799696309e-04 0.0 
1.630799696309e-04 1.184106692687e-03 0.0 
0.0 0.0 0.0 
-1.286242681925e-04 1.120927843149e-04 0.0 
1.120927843149e-04 1.330791881909e-03 0.0 
0.0 0.0 0.0 
2.064189512430e-05 2.279070319678e-04 0.0 
2.279070319678e-04 1.418422968629e-03 0.0 
0.0 0.0 0.0 
3.128895915894e-05 2.117776021908e-04 0.0 
2.117776021908e-04 1.357258918715e-03 0.0 
0.0 0.0 0.0 
-7.432459209655e-05 1.509894836980e-04 0.0 
1.509894836980e-04 1.689747014832e-03 0.0 
0.0 0.0 0.0 
-1.084109637111e-04 9.979744749053e-05 0.0 
9.979744749053e-05 1.669699637888e-03 0.0 
0.0 0.0 0.0 
1.161610860456e-04 4.045777273388e-05 0.0 
4.045777273388e-05 6.748384516073e-04 0.0 
0.0 0.0 0.0 
-5.311158822197e-05 2.255381355389e-04 0.0 
2.255381355389e-04 1.024586297194e-03 0.0 
0.0 0.0 0.0 
7.607051224690e-05 8.698885236562e-05 0.0 
8.698885236562e-05 4.378467254862e-04 0.0 
0.0 0.0 0.0 
9.027666431205e-05 9.931199940052e-05 0.0 
9.931199940052e-05 5.051536056875e-04 0.0 
0.0 0.0 0.0 
-8.512348719236e-05 1.964219100194e-04 0.0 
1.964219100194e-04 1.275307128726e-03 0.0 
0.0 0.0 0.0 
1.093798527179e-04 1.150572604799e-04 0.0 
1.150572604799e-04 8.733480043570e-04 0.0 
0.0 0.0 0.0 
9.401252975993e-05 -3.172466917373e-06 0.0 
-3.172466917373e-06 5.601634521013e-04 0.0 
0.0 0.0 0.0 
-7.413848018023e-05 1.306349038182e-04 0.0 
1.306349038182e-04 1.727045352010e-03 0.0 
0.0 0.0 0.0 
8.774082766694e-05 3.307398270179e-05 0.0 
3.307398270179e-05 3.915923750291e-04 0.0 
0.0 0.0 0.0 
-1.992605210210e-05 2.215523160203e-04 0.0 
2.215523160203e-04 1.037365080760e-03 0.0 
0.0 0.0 0.0 
-1.144118454525e-04 1.503525116923e-04 0.0 
1.503525116923e-04 1.360231632687e-03 0.0 
0.0 0.0 0.0 
-2.281406673676e-05 2.239608993866e-04 0.0 
2.239608993866e-04 9.824767103801e-04 0.0 
0.0 0.0 0.0 
-2.685170813210e-05 1.968656962774e-04 0.0 
1.968656962774e-04 1.832028187586e-03 0.0 
0.0 0.0 0.0 
-2.520249722160e-05 1.667931644821e-04 0.0 
1.667931644821e-04 1.865792896602e-03 0.0 
0.0 0.0 0.0 
-5.058342676101e-05 1.544460270802e-04 0.0 
1.544460270802e-04 1.814477266381e-03 0.0 
0.0 0.0 0.0 
1.145305981249e-04 5.194097278170e-05 0.0 
5.194097278170e-05 7.429758701964e-04 0.0 
0.0 0.0 0.0 
-7.461971176659e-05 9.495638370417e-05 0.0 
9.495638370417e-05 1.740589955251e-03 0.0 
0.0 0.0 0.0 
1.897041268428e-05 1.970963142593e-04 0.0 
1.970963142593e-04 5.664563681422e-04 0.0 
0.0 0.0 0.0 
9.890797075740e-05 1.106840905645e-04 0.0 
1.106840905645e-04 5.743954536022e-04 0.0 
0.0 0.0 0.0 
4.490141709712e-05 4.668400566830e-05 0.0 
4.668400566830e-05 3.117488672020e-04 0.0 
0.0 0.0 0.0 
-1.069124579439e-04 1.950162556357e-04 0.0 
1.950162556357e-04 1.152092273887e-03 0.0 
0.0 0.0 0.0 
-1.074452356645e-04 2.133237636461e-05 0.0 
2.133237636461e-05 1.471554046377e-03 0.0 
0.0 0.0 0.0 
-9.378960805517e-05 4.391230413826e-05 0.0 
4.391230413826e-05 1.593884137237e-03 0.0 
0.0 0.0 0.0 
4.188580043496e-05 1.798114164205e-04 0.0 
1.798114164205e-04 1.291669604059e-03 0.0 
0.0 0.0 0.0 
-6.879916773661e-05 1.724897327644e-04 0.0 
1.724897327644e-04 1.641316504158e-03 0.0 
0.0 0.0 0.0 
-1.217758367309e-04 9.729146801428e-05 0.0 
9.729146801428e-05 1.505276284622e-03 0.0 
0.0 0.0 0.0 
-1.094754600499e-04 1.477994743970e-04 0.0 
1.477994743970e-04 1.456575495422e-03 0.0 
0.0 0.0 0.0 
7.468126303944e-05 6.791596630402e-05 0.0 
6.791596630402e-05 3.108989990062e-04 0.0 
0.0 0.0 0.0 
-3.013082976633e-05 -2.536621579864e-05 0.0 
-2.536621579864e-05 1.255430852340e-04 0.0 
0.0 0.0 0.0 
6.730687060075e-05 2.002952458605e-04 0.0 
2.002952458605e-04 8.051274827889e-04 0.0 
0.0 0.0 0.0 
-1.821948033431e-05 2.181043770832e-04 0.0 
2.181043770832e-04 1.092073951553e-03 0.0 
0.0 0.0 0.0 
4.907980067048e-05 1.962497937501e-04 0.0 
1.962497937501e-04 8.932720992061e-04 0.0 
0.0 0.0 0.0 
-6.730828852952e-05 1.593881648835e-04 0.0 
1.593881648835e-04 2.753558454067e-04 0.0 
0.0 0.0 0.0 
-6.753173495166e-05 5.307046073764e-06 0.0 
5.307046073764e-06 1.513313614100e-03 0.0 
0.0 0.0 0.0 
2.784797492272e-05 -3.572547015964e-05 0.0 
-3.572547015964e-05 2.243534273529e-04 0.0 
0.0 0.0 0.0 
7.062880545905e-05 1.671289739557e-04 0.0 
1.671289739557e-04 5.138298985372e-04 0.0 
0.0 0.0 0.0 
0.0 1.843000035072e-04 0.0 
1.843000035072e-04 1.363698128378e-03 0.0 
0.0 0.0 0.0 
7.219386518043e-05 1.735649353791e-04 0.0 
1.735649353791e-04 1.071196683802e-03 0.0 
0.0 0.0 0.0 
-1.249743669149e-04 6.267222824722e-05 0.0 
6.267222824722e-05 1.447955160123e-03 0.0 
0.0 0.0 0.0 
1.732093953932e-05 2.338809743202e-08 0.0 
2.338809743202e-08 1.567194335133e-04 0.0 
0.0 0.0 0.0 
-5.363897052091e-05 2.145408275815e-04 0.0 
2.145408275815e-04 1.123724920818e-03 0.0 
0.0 0.0 0.0 
6.726467596940e-05 1.797632231274e-04 0.0 
1.797632231274e-04 8.080169809868e-04 0.0 
0.0 0.0 0.0 
-1.280886561009e-04 1.249025733345e-04 0.0 
1.249025733345e-04 1.507525950580e-03 0.0 
0.0 0.0 0.0 
-1.655451219928e-05 2.394138308144e-04 0.0 
2.394138308144e-04 1.760020668083e-03 0.0 
0.0 0.0 0.0 
-1.293260045210e-04 1.000825509044e-04 0.0 
1.000825509044e-04 1.375495392793e-03 0.0 
0.0 0.0 0.0 
-1.094736570973e-04 1.686033284399e-04 0.0 
1.686033284399e-04 1.400847048996e-03 0.0 
0.0 0.0 0.0 
1.030204823234e-04 9.621835122363e-06 0.0 
9.621835122363e-06 5.581983206440e-04 0.0 
0.0 0.0 0.0 
-8.041224142230e-05 1.140602175615e-04 0.0 
1.140602175615e-04 1.718204452190e-03 0.0 
0.0 0.0 0.0 
1.216738314807e-04 6.410293697596e-05 0.0 
6.410293697596e-05 7.633978437753e-04 0.0 
0.0 0.0 0.0 
-1.663686487385e-05 2.501411961794e-04 0.0 
2.501411961794e-04 1.731374212364e-03 0.0 
0.0 0.0 0.0 
0.0 1.951814996938e-04 0.0 
1.951814996938e-04 1.821566452781e-03 0.0 
0.0 0.0 0.0 
0.0 1.370695671157e-04 0.0 
1.370695671157e-04 1.889946226750e-03 0.0 
0.0 0.0 0.0 
0.0 1.649683440074e-04 0.0 
1.649683440074e-04 1.858628122402e-03 0.0 
0.0 0.0 0.0 
-1.100106110435e-04 1.382072729758e-04 0.0 
1.382072729758e-04 1.506882060826e-03 0.0 
0.0 0.0 0.0 
-9.446617709763e-05 1.125536746082e-04 0.0 
1.125536746082e-04 1.718460626993e-03 0.0 
0.0 0.0 0.0 
-6.269966703620e-05 1.697677852996e-04 0.0 
1.697677852996e-04 1.690179379163e-03 0.0 
0.0 0.0 0.0 
-3.060578560388e-05 2.268378932893e-04 0.0 
2.268378932893e-04 9.821549564877e-04 0.0 
0.0 0.0 0.0 
-6.005194824943e-05 2.171898305943e-04 0.0 
2.171898305943e-04 1.025665879104e-03 0.0 
0.0 0.0 0.0 
8.820360500894e-05 -8.536553730420e-06 0.0 
-8.536553730420e-06 5.243013548530e-04 0.0 
0.0 0.0 0.0 
-8.824576185817e-05 1.297582780057e-04 0.0 
1.297582780057e-04 1.727252304128e-03 0.0 
0.0 0.0 0.0 
-7.921522750198e-06 2.652543775066e-04 0.0 
2.652543775066e-04 1.667893057251e-03 0.0 
0.0 0.0 0.0 
-7.012975092857e-05 1.102455521987e-04 0.0 
1.102455521987e-04 1.753995925505e-03 0.0 
0.0 0.0 0.0 
7.952886690821e-05 1.672314724761e-04 0.0 
1.672314724761e-04 1.000337394399e-03 0.0 
0.0 0.0 0.0 
-8.363527790667e-05 1.083171887050e-04 0.0 
1.083171887050e-04 1.754321990373e-03 0.0 
0.0 0.0 0.0 
-1.257745680450e-05 2.113067795394e-04 0.0 
2.113067795394e-04 1.314329817791e-03 0.0 
0.0 0.0 0.0 
-3.023854937223e-06 2.232225011580e-04 0.0 
2.232225011580e-04 1.005517945261e-03 0.0 
0.0 0.0 0.0 
-1.071875128209e-04 1.702438937508e-04 0.0 
1.702438937508e-04 1.154687288369e-03 0.0 
0.0 0.0 0.0 
5.095391963383e-05 1.331417049552e-04 0.0 
1.331417049552e-04 3.736240698893e-04 0.0 
0.0 0.0 0.0 
-2.015613697115e-05 9.014774728541e-05 0.0 
9.014774728541e-05 1.878962802060e-03 0.0 
0.0 0.0 0.0 
-2.412237552929e-06 2.290601103390e-04 0.0 
2.290601103390e-04 8.869503694204e-04 0.0 
0.0 0.0 0.0 
-1.104790953932e-05 2.274951987313e-04 0.0 
2.274951987313e-04 1.556018541589e-03 0.0 
0.0 0.0 0.0 
9.629671017031e-05 3.646548581356e-06 0.0 
3.646548581356e-06 5.224293527741e-04 0.0 
0.0 0.0 0.0 
7.392350062840e-05 -1.449735390220e-05 0.0 
-1.449735390220e-05 3.393194441266e-04 0.0 
0.0 0.0 0.0 
2.509056939748e-05 1.665792305421e-04 0.0 
1.665792305421e-04 1.281372088270e-03 0.0 
0.0 0.0 0.0 
6.076049590709e-05 1.900155787657e-04 0.0 
1.900155787657e-04 5.976182291216e-04 0.0 
0.0 0.0 0.0 
0.0 2.093676191660e-04 0.0 
2.093676191660e-04 1.799915640765e-03 0.0 
0.0 0.0 0.0 
-2.949789945461e-05 1.436287517737e-04 0.0 
1.436287517737e-04 1.836462016666e-03 0.0 
0.0 0.0 0.0 
-8.076228432685e-05 1.895975093357e-04 0.0 
1.895975093357e-04 1.321754161868e-03 0.0 
0.0 0.0 0.0 
-2.975407446071e-05 -2.025523103779e-05 0.0 
-2.025523103779e-05 7.301710668273e-05 0.0 
0.0 0.0 0.0 
0.0 2.325193478668e-04 0.0 
2.325193478668e-04 1.746209867151e-03 0.0 
0.0 0.0 0.0 
2.127313071898e-05 1.901144340923e-04 0.0 
1.901144340923e-04 1.326553249674e-03 0.0 
0.0 0.0 0.0 
8.831629428996e-05 8.420254460771e-06 0.0 
8.420254460771e-06 3.357843001754e-04 0.0 
0.0 0.0 0.0 
8.620965716921e-05 1.585526415413e-04 0.0 
1.585526415413e-04 1.000466889914e-03 0.0 
0.0 0.0 0.0 
1.117885511315e-05 2.575790988557e-04 0.0 
2.575790988557e-04 1.505244262507e-03 0.0 
0.0 0.0 0.0 
-5.079836179622e-05 -8.247317460324e-06 0.0 
-8.247317460324e-06 4.032637908069e-05 0.0 
0.0 0.0 0.0 
-3.204834328696e-06 2.262696852846e-04 0.0 
2.262696852846e-04 9.468719782026e-04 0.0 
0.0 0.0 0.0 
-9.063542985677e-05 1.777662961720e-04 0.0 
1.777662961720e-04 1.386603192026e-03 0.0 
0.0 0.0 0.0 
-6.687163465979e-05 2.016433841538e-04 0.0 
2.016433841538e-04 1.250825196485e-03 0.0 
0.0 0.0 0.0 
-9.917906138279e-05 1.725075678704e-04 0.0 
1.725075678704e-04 1.342304883504e-03 0.0 
0.0 0.0 0.0 
5.279853404483e-05 1.597520163778e-04 0.0 
1.597520163778e-04 4.496498140065e-04 0.0 
0.0 0.0 0.0 
0.0 2.491060029401e-04 0.0 
2.491060029401e-04 1.684364032822e-03 0.0 
0.0 0.0 0.0 
1.032149867781e-04 1.207528514776e-04 0.0 
1.207528514776e-04 6.447378125494e-04 0.0 
0.0 0.0 0.0 
-6.125906147902e-06 8.199901423228e-06 0.0 
8.199901423228e-06 1.990677590258e-04 0.0 
0.0 0.0 0.0 
3.540363305077e-05 7.719556251311e-05 0.0 
7.719556251311e-05 1.199091172278e-03 0.0 
0.0 0.0 0.0 
-5.098856832320e-05 -1.886686110873e-05 0.0 
-1.886686110873e-05 7.885657676865e-05 0.0 
0.0 0.0 0.0 
-1.251674858119e-04 1.274784368788e-04 0.0 
1.274784368788e-04 1.281237728622e-03 0.0 
0.0 0.0 0.0 
1.765731070713e-05 -2.015887784760e-05 0.0 
-2.015887784760e-05 1.642390220684e-04 0.0 
0.0 0.0 0.0 
-1.291409876703e-04 7.397713710145e-05 0.0 
7.397713710145e-05 1.371692291657e-03 0.0 
0.0 0.0 0.0 
2.180826812492e-05 2.128532163693e-04 0.0 
2.128532163693e-04 1.393543112485e-03 0.0 
0.0 0.0 0.0 
0.0 2.566333795796e-04 0.0 
2.566333795796e-04 1.618516559252e-03 0.0 
0.0 0.0 0.0 
-1.189483116549e-04 1.267014018794e-04 0.0 
1.267014018794e-04 1.462564237583e-03 0.0 
0.0 0.0 0.0 
-1.212345050006e-05 -2.697590366325e-05 0.0 
-2.697590366325e-05 1.220516712295e-04 0.0 
0.0 0.0 0.0 
-1.397517403157e-05 2.778727450621e-05 0.0 
2.778727450621e-05 1.512935858710e-04 0.0 
0.0 0.0 0.0 
-1.170626334901e-05 -2.204500833201e-05 0.0 
-2.204500833201e-05 1.773306650747e-04 0.0 
0.0 0.0 0.0 
7.050509268325e-05 7.229369588451e-05 0.0 
7.229369588451e-05 1.031209643386e-03 0.0 
0.0 0.0 0.0 
-1.085191979956e-04 2.642036793487e-05 0.0 
2.642036793487e-05 1.465821607447e-03 0.0 
0.0 0.0 0.0 
-1.344458377789e-04 6.354846710958e-05 0.0 
6.354846710958e-05 1.482057726038e-03 0.0 
0.0 0.0 0.0 
0.0 2.541902553050e-04 0.0 
2.541902553050e-04 1.553903750293e-03 0.0 
0.0 0.0 0.0 
-1.033650978586e-04 1.919142442111e-05 0.0 
1.919142442111e-05 1.467503367984e-03 0.0 
0.0 0.0 0.0 
-2.227237853092e-05 1.356920883183e-04 0.0 
1.356920883183e-04 1.895201296831e-03 0.0 
0.0 0.0 0.0 
2.729703154625e-06 2.169047090759e-04 0.0 
2.169047090759e-04 1.298187809916e-03 0.0 
0.0 0.0 0.0 
-9.123139382827e-05 3.327054941719e-05 0.0 
3.327054941719e-05 1.567991074229e-03 0.0 
0.0 0.0 0.0 
-1.207486437982e-05 2.247191228738e-04 0.0 
2.247191228738e-04 7.631359611611e-04 0.0 
0.0 0.0 0.0 
8.978994222075e-05 1.741582394360e-04 0.0 
1.741582394360e-04 9.982706804221e-04 0.0 
0.0 0.0 0.0 
2.851827484052e-05 6.393425384430e-05 0.0 
6.393425384430e-05 3.133450669952e-04 0.0 
0.0 0.0 0.0 
0.0 2.416575437393e-04 0.0 
2.416575437393e-04 1.490585919280e-03 0.0 
0.0 0.0 0.0 
0.0 1.805505453706e-04 0.0 
1.805505453706e-04 1.841758757424e-03 0.0 
0.0 0.0 0.0 
0.0 1.502417273622e-04 0.0 
1.502417273622e-04 1.876608942288e-03 0.0 
0.0 0.0 0.0 
1.108135814245e-04 4.894295530052e-05 0.0 
4.894295530052e-05 7.657066069398e-04 0.0 
0.0 0.0 0.0 
8.209092426692e-05 -1.228818297478e-05 0.0 
-1.228818297478e-05 4.893762319294e-04 0.0 
0.0 0.0 0.0 
5.750584094910e-06 2.170006971377e-04 0.0 
2.170006971377e-04 1.006420021042e-03 0.0 
0.0 0.0 0.0 
1.165903474274e-04 6.038488898571e-05 0.0 
6.038488898571e-05 7.868711582837e-04 0.0 
0.0 0.0 0.0 
0.0 2.231001579477e-04 0.0 
2.231001579477e-04 1.435015636332e-03 0.0 
0.0 0.0 0.0 
6.103429260174e-05 1.340108873300e-04 0.0 
1.340108873300e-04 5.188207104365e-04 0.0 
0.0 0.0 0.0 
1.129731025580e-04 4.307885091449e-05 0.0 
4.307885091449e-05 4.195510416105e-04 0.0 
0.0 0.0 0.0 
1.151986829664e-04 3.545057104580e-05 0.0 
3.545057104580e-05 4.382642957812e-04 0.0 
0.0 0.0 0.0 
-8.513024653400e-05 3.451756134644e-05 0.0 
3.451756134644e-05 1.601664466618e-03 0.0 
0.0 0.0 0.0 
2.042111068667e-05 1.696450118741e-04 0.0 
1.696450118741e-04 1.335387045878e-03 0.0 
0.0 0.0 0.0 
-4.185042903182e-05 -2.443756320673e-05 0.0 
-2.443756320673e-05 1.322188192205e-04 0.0 
0.0 0.0 0.0 
0.0 1.972014597223e-04 0.0 
1.972014597223e-04 1.382746230143e-03 0.0 
0.0 0.0 0.0 
1.047003695192e-04 1.863739748300e-05 0.0 
1.863739748300e-05 3.961006981825e-04 0.0 
0.0 0.0 0.0 
0.0 2.222921072540e-04 0.0 
2.222921072540e-04 1.775261763701e-03 0.0 
0.0 0.0 0.0 
-7.732402514149e-05 1.697117821274e-04 0.0 
1.697117821274e-04 1.690295427617e-03 0.0 
0.0 0.0 0.0 
-8.008803840609e-05 -7.884573112632e-06 0.0 
-7.884573112632e-06 5.070063237578e-05 0.0 
0.0 0.0 0.0 
2.220983606005e-05 2.205692022144e-04 0.0 
2.205692022144e-04 9.157809723377e-04 0.0 
0.0 0.0 0.0 
-7.675530431872e-05 8.866639879387e-05 0.0 
8.866639879387e-05 1.774481492905e-03 0.0 
0.0 0.0 0.0 
0.0 2.422381906275e-04 0.0 
2.422381906275e-04 1.716295719041e-03 0.0 
0.0 0.0 0.0 
-1.184357259980e-04 1.447814374513e-04 0.0 
1.447814374513e-04 1.506053553499e-03 0.0 
0.0 0.0 0.0 
1.808574735351e-05 2.168970954095e-04 0.0 
2.168970954095e-04 1.285631892002e-03 0.0 
0.0 0.0 0.0 
1.941389239102e-05 1.278028974345e-04 0.0 
1.278028974345e-04 3.139263736103e-04 0.0 
0.0 0.0 0.0 
4.304783911824e-05 1.738644064348e-04 0.0 
1.738644064348e-04 1.248616489431e-03 0.0 
0.0 0.0 0.0 
1.062048502105e-04 1.459579149268e-05 0.0 
1.459579149268e-05 4.177623422617e-04 0.0 
0.0 0.0 0.0 
1.007365557155e-04 1.223379544335e-05 0.0 
1.223379544335e-05 4.414291748902e-04 0.0 
0.0 0.0 0.0 
-7.888189464045e-05 -1.974771212289e-05 0.0 
-1.974771212289e-05 9.493221345047e-05 0.0 
0.0 0.0 0.0 
0.0 2.538296046358e-04 0.0 
2.538296046358e-04 1.651492356678e-03 0.0 
0.0 0.0 0.0 
5.546434815762e-05 7.497312961297e-05 0.0 
7.497312961297e-05 3.735714328135e-04 0.0 
0.0 0.0 0.0 
7.801769275440e-05 1.185668552962e-04 0.0 
1.185668552962e-04 1.068522269764e-03 0.0 
0.0 0.0 0.0 
-9.798829040519e-05 1.861158174873e-05 0.0 
1.861158174873e-05 1.538863824162e-03 0.0 
0.0 0.0 0.0 
7.001061226597e-05 -2.472998660746e-05 0.0 
-2.472998660746e-05 3.472756178762e-04 0.0 
0.0 0.0 0.0 
9.779161477885e-05 1.745724004502e-05 0.0 
1.745724004502e-05 4.233253399899e-04 0.0 
0.0 0.0 0.0 
-1.156278082386e-04 1.559699980229e-04 0.0 
1.559699980229e-04 1.455498741039e-03 0.0 
0.0 0.0 0.0 
0.0 2.486111599684e-04 0.0 
2.486111599684e-04 1.522171502499e-03 0.0 
0.0 0.0 0.0 
8.900271396395e-05 1.216371900031e-06 0.0 
1.216371900031e-06 5.141056541424e-04 0.0 
0.0 0.0 0.0 
1.025891746538e-04 7.475755133294e-05 0.0 
7.475755133294e-05 8.848452151111e-04 0.0 
0.0 0.0 0.0 
-2.471436439799e-05 2.170479997932e-04 0.0 
2.170479997932e-04 1.146773031839e-03 0.0 
0.0 0.0 0.0 
1.142090764588e-04 8.983966927568e-05 0.0 
8.983966927568e-05 8.267044374906e-04 0.0 
0.0 0.0 0.0 
1.062639549281e-04 3.750990646909e-05 0.0 
3.750990646909e-05 4.712226605843e-04 0.0 
0.0 0.0 0.0 
1.100276795734e-04 6.340048230697e-05 0.0 
6.340048230697e-05 8.129491379290e-04 0.0 
0.0 0.0 0.0 
-4.106479898525e-05 2.141853179676e-04 0.0 
2.141853179676e-04 1.173809838645e-03 0.0 
0.0 0.0 0.0 
-4.557734900834e-05 2.057756900464e-04 0.0 
2.057756900464e-04 1.401414365299e-03 0.0 
0.0 0.0 0.0 
8.160277260827e-05 1.799423783206e-04 0.0 
1.799423783206e-04 1.069670030778e-03 0.0 
0.0 0.0 0.0 
-2.506267908653e-06 2.200737796650e-04 0.0 
2.200737796650e-04 1.064016219998e-03 0.0 
0.0 0.0 0.0 
1.046553542186e-04 8.929190651159e-06 0.0 
8.929190651159e-06 5.323164061086e-04 0.0 
0.0 0.0 0.0 
5.478266295778e-05 1.617638180583e-04 0.0 
1.617638180583e-04 6.017142636965e-04 0.0 
0.0 0.0 0.0 
8.918531682212e-05 -7.153004917676e-07 0.0 
-7.153004917676e-07 4.875996483960e-04 0.0 
0.0 0.0 0.0 
3.771161113164e-06 2.112883875265e-04 0.0 
2.112883875265e-04 1.299166469672e-03 0.0 
0.0 0.0 0.0 
1.095841241696e-04 1.521928838209e-04 0.0 
1.521928838209e-04 8.570322320784e-04 0.0 
0.0 0.0 0.0 
2.206477457989e-05 1.989502382119e-04 0.0 
1.989502382119e-04 1.373303723657e-03 0.0 
0.0 0.0 0.0 
-7.236908676944e-05 1.040166061484e-04 0.0 
1.040166061484e-04 1.789032579695e-03 0.0 
0.0 0.0 0.0 
6.787874846825e-05 -1.397916586050e-05 0.0 
-1.397916586050e-05 3.109448525040e-04 0.0 
0.0 0.0 0.0 
0.0 2.101556440411e-04 0.0 
2.101556440411e-04 1.405005421566e-03 0.0 
0.0 0.0 0.0 
4.311920877020e-05 1.940224646715e-04 0.0 
1.940224646715e-04 1.314699192828e-03 0.0 
0.0 0.0 0.0 
6.387648360917e-05 2.005172854185e-04 0.0 
2.005172854185e-04 8.742364447032e-04 0.0 
0.0 0.0 0.0 
-4.155181620213e-05 -2.097890272187e-05 0.0 
-2.097890272187e-05 7.978277392584e-05 0.0 
0.0 0.0 0.0 
2.512729558046e-05 1.564893539216e-04 0.0 
1.564893539216e-04 1.319898915872e-03 0.0 
0.0 0.0 0.0 
-7.757005955433e-05 1.249552589299e-04 0.0 
1.249552589299e-04 1.764763779469e-03 0.0 
0.0 0.0 0.0 
9.188422126716e-05 4.804980740104e-06 0.0 
4.804980740104e-06 3.574551930214e-04 0.0 
0.0 0.0 0.0 
0.0 1.699067020354e-04 0.0 
1.699067020354e-04 1.342631563583e-03 0.0 
0.0 0.0 0.0 
1.053600091798e-04 6.009020757066e-05 0.0 
6.009020757066e-05 8.360305836030e-04 0.0 
0.0 0.0 0.0 
-8.488145621444e-05 1.986475133348e-04 0.0 
1.986475133348e-04 1.115041558244e-03 0.0 
0.0 0.0 0.0 
-1.226015993805e-04 7.747126353831e-05 0.0 
7.747126353831e-05 1.496780710122e-03 0.0 
0.0 0.0 0.0 
9.879957857950e-05 1.444380108834e-04 0.0 
1.444380108834e-04 8.576197204515e-04 0.0 
0.0 0.0 0.0 
1.133160219580e-04 3.754549181000e-05 0.0 
3.754549181000e-05 6.969216743349e-04 0.0 
0.0 0.0 0.0 
1.090784005955e-04 1.076427370784e-04 0.0 
1.076427370784e-04 8.844104615224e-04 0.0 
0.0 0.0 0.0 
-1.187947617464e-04 8.653823820961e-05 0.0 
8.653823820961e-05 1.619564832032e-03 0.0 
0.0 0.0 0.0 
-1.139772653385e-04 1.573961239924e-04 0.0 
1.573961239924e-04 1.261315599583e-03 0.0 
0.0 0.0 0.0 
6.767174428579e-05 1.935616132081e-04 0.0 
1.935616132081e-04 1.139995065885e-03 0.0 
0.0 0.0 0.0 
-6.798179614009e-05 4.065150302890e-06 0.0 
4.065150302890e-06 1.564921320979e-03 0.0 
0.0 0.0 0.0 
9.474246427943e-05 -4.563369703784e-06 0.0 
-4.563369703784e-06 5.343983187311e-04 0.0 
0.0 0.0 0.0 
9.503462956717e-05 1.651535263960e-04 0.0 
1.651535263960e-04 1.000770994634e-03 0.0 
0.0 0.0 0.0 
9.280467239980e-05 -5.476188338809e-06 0.0 
-5.476188338809e-06 4.203688598976e-04 0.0 
0.0 0.0 0.0 
9.900314242373e-05 3.103906370594e-05 0.0 
3.103906370594e-05 7.793368712989e-04 0.0 
0.0 0.0 0.0 
-9.387117644089e-05 -8.299176972899e-06 0.0 
-8.299176972899e-06 5.629409663865e-05 0.0 
0.0 0.0 0.0 
4.291573866788e-05 1.877715346546e-04 0.0 
1.877715346546e-04 6.924286028791e-04 0.0 
0.0 0.0 0.0 
9.025970501009e-05 -3.514549961456e-06 0.0 
-3.514549961456e-06 3.993158630469e-04 0.0 
0.0 0.0 0.0 
1.010810655939e-04 1.034803075828e-05 0.0 
1.034803075828e-05 5.846450632740e-04 0.0 
0.0 0.0 0.0 
4.244762935568e-05 2.107373721189e-04 0.0 
2.107373721189e-04 9.571087149107e-04 0.0 
0.0 0.0 0.0 
1.156441576244e-04 7.457769574574e-05 0.0 
7.457769574574e-05 8.338400555026e-04 0.0 
0.0 0.0 0.0 
-9.222456980029e-05 2.065799732742e-05 0.0 
2.065799732742e-05 1.575857649229e-03 0.0 
0.0 0.0 0.0 
7.825574176201e-05 -1.615890915861e-05 0.0 
-1.615890915861e-05 3.607955627707e-04 0.0 
0.0 0.0 0.0 
0.0 1.574266449864e-04 0.0 
1.574266449864e-04 1.328081380245e-03 0.0 
0.0 0.0 0.0 
-9.109246438299e-05 1.847111524936e-04 0.0 
1.847111524936e-04 1.385654057121e-03 0.0 
0.0 0.0 0.0 
9.888889543674e-05 1.104783716709e-05 0.0 
1.104783716709e-05 6.111502166271e-04 0.0 
0.0 0.0 0.0 
-7.807782955604e-05 1.961705197801e-04 0.0 
1.961705197801e-04 1.320822622798e-03 0.0 
0.0 0.0 0.0 
9.299303644994e-05 -1.667494383574e-06 0.0 
-1.667494383574e-06 5.864783081826e-04 0.0 
0.0 0.0 0.0 
-6.029740325320e-05 -8.484400096211e-06 0.0 
-8.484400096211e-06 4.471970853825e-05 0.0 
0.0 0.0 0.0 
-1.315014679933e-04 7.755139053977e-05 0.0 
7.755139053977e-05 1.532994885408e-03 0.0 
0.0 0.0 0.0 
7.667352117768e-05 2.015625666651e-06 0.0 
2.015625666651e-06 4.769305891543e-04 0.0 
0.0 0.0 0.0 
-1.258177825003e-05 -5.383574069598e-06 0.0 
-5.383574069598e-06 2.272461147745e-05 0.0 
0.0 0.0 0.0 
9.415037210281e-05 6.483745865324e-06 0.0 
6.483745865324e-06 5.750372370199e-04 0.0 
0.0 0.0 0.0 
1.063885257671e-04 8.467676291488e-05 0.0 
8.467676291488e-05 9.058924724168e-04 0.0 
0.0 0.0 0.0 
-4.075238681733e-05 3.075904701698e-05 0.0 
3.075904701698e-05 1.788912652104e-03 0.0 
0.0 0.0 0.0 
1.154019974581e-04 9.690116692249e-05 0.0 
9.690116692249e-05 8.132056247632e-04 0.0 
0.0 0.0 0.0 
1.235300696734e-04 1.064561688409e-04 0.0 
1.064561688409e-04 8.237791089165e-04 0.0 
0.0 0.0 0.0 
-1.339211576853e-04 5.057252199302e-05 0.0 
5.057252199302e-05 1.431729399204e-03 0.0 
0.0 0.0 0.0 
-1.028887805554e-04 9.841886152965e-06 0.0 
9.841886152965e-06 1.414740998098e-03 0.0 
0.0 0.0 0.0 
-2.249393517917e-05 1.095044267755e-04 0.0 
1.095044267755e-04 1.868958127221e-03 0.0 
0.0 0.0 0.0 
-6.137900618031e-05 2.061893861204e-04 0.0 
2.061893861204e-04 1.250209926181e-03 0.0 
0.0 0.0 0.0 
-1.723254199248e-05 -4.540710302294e-06 0.0 
-4.540710302294e-06 2.362922313770e-05 0.0 
0.0 0.0 0.0 
1.718553837349e-05 -3.384177760109e-05 0.0 
-3.384177760109e-05 1.906432700476e-04 0.0 
0.0 0.0 0.0 
-3.739709729200e-05 -2.132443096531e-05 0.0 
-2.132443096531e-05 7.692920504510e-05 0.0 
0.0 0.0 0.0 
6.178852662631e-05 -2.770523570958e-05 0.0 
-2.770523570958e-05 3.346765979675e-04 0.0 
0.0 0.0 0.0 
-5.538227159529e-05 2.025120709956e-04 0.0 
2.025120709956e-04 1.579498302660e-03 0.0 
0.0 0.0 0.0 
-4.673855317106e-05 2.332948137677e-05 0.0 
2.332948137677e-05 1.789823379443e-03 0.0 
0.0 0.0 0.0 
8.315087240418e-05 7.107054025761e-05 0.0 
7.107054025761e-05 9.810923394615e-04 0.0 
0.0 0.0 0.0 
6.901981321983e-05 -2.344756496422e-05 0.0 
-2.344756496422e-05 3.796147993691e-04 0.0 
0.0 0.0 0.0 
9.227180811111e-05 1.932985719234e-05 0.0 
1.932985719234e-05 7.812656463897e-04 0.0 
0.0 0.0 0.0 
7.960928573958e-05 1.256458632078e-04 0.0 
1.256458632078e-04 1.085818915061e-03 0.0 
0.0 0.0 0.0 
3.018615625328e-05 1.927045482183e-05 0.0 
1.927045482183e-05 2.557271908117e-04 0.0 
0.0 0.0 0.0 
7.489108231074e-05 -8.715681663493e-06 0.0 
-8.715681663493e-06 4.771237405803e-04 0.0 
0.0 0.0 0.0 
6.523955764526e-05 2.047381757876e-06 0.0 
2.047381757876e-06 3.882475424246e-04 0.0 
0.0 0.0 0.0 
2.167738052372e-05 1.416943188324e-04 0.0 
1.416943188324e-04 1.304393883184e-03 0.0 
0.0 0.0 0.0 
0.0 1.421340378464e-04 0.0 
1.421340378464e-04 1.311731585655e-03 0.0 
0.0 0.0 0.0 
8.044601223500e-05 -6.033082226567e-06 0.0 
-6.033082226567e-06 5.345019990857e-04 0.0 
0.0 0.0 0.0 
9.207715342607e-05 -4.517002194244e-07 0.0 
-4.517002194244e-07 6.129450017192e-04 0.0 
0.0 0.0 0.0 
1.207361562221e-04 5.013389820846e-05 0.0 
5.013389820846e-05 7.178825553438e-04 0.0 
0.0 0.0 0.0 
7.154124875819e-05 1.430174020348e-04 0.0 
1.430174020348e-04 1.142750835741e-03 0.0 
0.0 0.0 0.0 
2.945114769926e-05 -1.883115981359e-05 0.0 
-1.883115981359e-05 2.088167312044e-04 0.0 
0.0 0.0 0.0 
8.779317329033e-05 1.096418552002e-04 0.0 
1.096418552002e-04 1.031317963018e-03 0.0 
0.0 0.0 0.0 
4.268894504778e-06 -1.124699653480e-05 0.0 
-1.124699653480e-05 1.112187838030e-04 0.0 
0.0 0.0 0.0 
8.790159694172e-05 -6.466581680529e-06 0.0 
-6.466581680529e-06 5.505852554271e-04 0.0 
0.0 0.0 0.0 
9.744261292988e-05 4.686368787198e-06 0.0 
4.686368787198e-06 6.235768743741e-04 0.0 
0.0 0.0 0.0 
6.657972535518e-06 -6.275318260968e-06 0.0 
-6.275318260968e-06 5.783000053960e-05 0.0 
0.0 0.0 0.0 
7.957678588144e-05 3.606422873264e-06 0.0 
3.606422873264e-06 5.050841401735e-04 0.0 
0.0 0.0 0.0 
-5.851258707201e-05 1.070094778968e-04 0.0 
1.070094778968e-04 1.788406958384e-03 0.0 
0.0 0.0 0.0 
-1.293181323425e-05 -3.938833381104e-06 0.0 
-3.938833381104e-06 2.200481016756e-05 0.0 
0.0 0.0 0.0 
-1.079713500409e-04 1.486014149937e-05 0.0 
1.486014149937e-05 1.415029436275e-03 0.0 
0.0 0.0 0.0 
-1.057357365096e-04 1.907818578215e-05 0.0 
1.907818578215e-05 1.410026688679e-03 0.0 
0.0 0.0 0.0 
1.015773208055e-04 1.251306769183e-04 0.0 
1.251306769183e-04 9.452820051383e-04 0.0 
0.0 0.0 0.0 
6.302767407829e-05 -7.227891327595e-06 0.0 
-7.227891327595e-06 3.879063078520e-04 0.0 
0.0 0.0 0.0 
9.446382319567e-05 2.274139800095e-06 0.0 
2.274139800095e-06 3.801099044229e-04 0.0 
0.0 0.0 0.0 
1.538598905704e-05 1.433567624500e-04 0.0 
1.433567624500e-04 4.793187339955e-04 0.0 
0.0 0.0 0.0 
5.937363408171e-05 7.257004023746e-05 0.0 
7.257004023746e-05 1.080927330430e-03 0.0 
0.0 0.0 0.0 
-8.631228286538e-06 2.366894691282e-04 0.0 
2.366894691282e-04 1.621950908098e-03 0.0 
0.0 0.0 0.0 
-6.297761652163e-05 3.588422165008e-05 0.0 
3.588422165008e-05 1.753308457188e-03 0.0 
0.0 0.0 0.0 
-1.279603191884e-05 2.107173080732e-04 0.0 
2.107173080732e-04 7.648967312941e-04 0.0 
0.0 0.0 0.0 
-2.283378325640e-06 -1.647511565556e-05 0.0 
-1.647511565556e-05 1.307434953188e-04 0.0 
0.0 0.0 0.0 
-1.387977123917e-04 1.299842757280e-04 0.0 
1.299842757280e-04 1.328519980737e-03 0.0 
0.0 0.0 0.0 
-8.701036432479e-05 3.383135994142e-06 0.0 
3.383135994142e-06 1.414097853762e-03 0.0 
0.0 0.0 0.0 
-8.369496956373e-05 1.965117889221e-06 0.0 
1.965117889221e-06 1.411277245976e-03 0.0 
0.0 0.0 0.0 
-6.542224036510e-06 -4.562549367691e-06 0.0 
-4.562549367691e-06 2.059185178616e-05 0.0 
0.0 0.0 0.0 
4.277480640580e-06 -8.088492400766e-06 0.0 
-8.088492400766e-06 5.881022790866e-05 0.0 
0.0 0.0 0.0 
1.672099357553e-05 -6.715615582853e-06 0.0 
-6.715615582853e-06 1.069343593245e-04 0.0 
0.0 0.0 0.0 
5.251392427152e-05 -1.594976442955e-05 0.0 
-1.594976442955e-05 2.882348587983e-04 0.0 
0.0 0.0 0.0 
3.169225026856e-07 -5.468888508706e-06 0.0 
-5.468888508706e-06 5.901305570166e-05 0.0 
0.0 0.0 0.0 
8.245120735162e-05 4.399508945111e-06 0.0 
4.399508945111e-06 5.668244073813e-04 0.0 
0.0 0.0 0.0 
-8.721152555424e-05 -7.981460434852e-06 0.0 
-7.981460434852e-06 5.602079945000e-05 0.0 
0.0 0.0 0.0 
6.670802040376e-05 -1.268249755181e-05 0.0 
-1.268249755181e-05 3.449033832794e-04 0.0 
0.0 0.0 0.0 
-5.921517771668e-05 8.182895997613e-06 0.0 
8.182895997613e-06 1.617209581428e-03 0.0 
0.0 0.0 0.0 
-9.540363594052e-05 9.211901754678e-06 0.0 
9.211901754678e-06 1.411351619355e-03 0.0 
0.0 0.0 0.0 
-5.715470946632e-05 1.989956681611e-04 0.0 
1.989956681611e-04 1.634545500204e-03 0.0 
0.0 0.0 0.0 
1.093995032009e-04 7.036632132856e-05 0.0 
7.036632132856e-05 8.574724391885e-04 0.0 
0.0 0.0 0.0 
-6.334088441162e-05 6.014891526507e-06 0.0 
6.014891526507e-06 1.562966813420e-03 0.0 
0.0 0.0 0.0 
6.750737603278e-05 4.943895724140e-06 0.0 
4.943895724140e-06 4.160905182251e-04 0.0 
0.0 0.0 0.0 
9.114691405188e-06 -7.433321991629e-06 0.0 
-7.433321991629e-06 1.086215275063e-04 0.0 
0.0 0.0 0.0 
0.0 5.525167219672e-05 0.0 
5.525167219672e-05 1.935312969869e-03 0.0 
0.0 0.0 0.0 
-1.653205599539e-05 6.182752666817e-05 0.0 
6.182752666817e-05 1.933319079275e-03 0.0 
0.0 0.0 0.0 
-8.790380500467e-05 2.529340915690e-05 0.0 
2.529340915690e-05 1.538350135507e-03 0.0 
0.0 0.0 0.0 
-9.306095558292e-05 4.473892493327e-06 0.0 
4.473892493327e-06 1.413929302252e-03 0.0 
0.0 0.0 0.0 
6.760655339888e-05 -7.831088149763e-06 0.0 
-7.831088149763e-06 4.218789396011e-04 0.0 
0.0 0.0 0.0 
-1.350130969258e-05 4.260615920428e-05 0.0 
4.260615920428e-05 1.939045952729e-03 0.0 
0.0 0.0 0.0 
5.621106064035e-05 -2.800719549709e-05 0.0 
-2.800719549709e-05 3.225330624819e-04 0.0 
0.0 0.0 0.0 
-1.001692528028e-04 1.302963515740e-05 0.0 
1.302963515740e-05 1.410217054681e-03 0.0 
0.0 0.0 0.0 
-9.628867042455e-05 7.301627263213e-06 0.0 
7.301627263213e-06 1.413934714190e-03 0.0 
0.0 0.0 0.0 
-1.300005107879e-04 8.322950987032e-05 0.0 
8.322950987032e-05 1.333645274911e-03 0.0 
0.0 0.0 0.0 
0.0 1.239200203039e-04 0.0 
1.239200203039e-04 1.901197422682e-03 0.0 
0.0 0.0 0.0 
-1.469745903693e-05 5.252589429569e-05 0.0 
5.252589429569e-05 1.937053257172e-03 0.0 
0.0 0.0 0.0 
-3.270428218571e-06 -7.103874747959e-06 0.0 
-7.103874747959e-06 6.020241379479e-05 0.0 
0.0 0.0 0.0 
-3.274061182501e-06 -3.219226827913e-06 0.0 
-3.219226827913e-06 1.961682424279e-05 0.0 
0.0 0.0 0.0 
9.022251813207e-06 -1.688424210494e-05 0.0 
-1.688424210494e-05 1.555846672161e-04 0.0 
0.0 0.0 0.0 
1.062685871749e-04 1.733842888304e-05 0.0 
1.733842888304e-05 6.216457986794e-04 0.0 
0.0 0.0 0.0 
3.801822961824e-05 1.398633085370e-05 0.0 
1.398633085370e-05 1.115844507371e-03 0.0 
0.0 0.0 0.0 
-1.372987367870e-04 -1.046284633932e-05 0.0 
-1.046284633932e-05 7.346513621131e-05 0.0 
0.0 0.0 0.0 
-4.545249440469e-05 -5.349400474698e-07 0.0 
-5.349400474698e-07 1.742626150410e-03 0.0 
0.0 0.0 0.0 
-7.864995189177e-05 -8.972410151438e-06 0.0 
-8.972410151438e-06 5.308317429931e-05 0.0 
0.0 0.0 0.0 
1.158164635715e-04 1.164907692678e-04 0.0 
1.164907692678e-04 8.958782081794e-04 0.0 
0.0 0.0 0.0 
-1.091013609793e-04 -8.740133772405e-06 0.0 
-8.740133772405e-06 6.294882532498e-05 0.0 
0.0 0.0 0.0 
-1.233136393507e-04 -1.006167309068e-05 0.0 
-1.006167309068e-05 6.837943589755e-05 0.0 
0.0 0.0 0.0 
1.212641903550e-04 9.966603450960e-05 0.0 
9.966603450960e-05 8.403551808487e-04 0.0 
0.0 0.0 0.0 
4.767334993927e-05 3.458736064868e-05 0.0 
3.458736064868e-05 1.081432857332e-03 0.0 
0.0 0.0 0.0 
-6.343439411505e-05 3.472984330738e-06 0.0 
3.472984330738e-06 1.612908384632e-03 0.0 
0.0 0.0 0.0 
-1.261305141311e-04 1.570718595581e-04 0.0 
1.570718595581e-04 1.317653965119e-03 0.0 
0.0 0.0 0.0 
9.135888032308e-06 -5.180949966584e-06 0.0 
-5.180949966584e-06 5.650213441522e-05 0.0 
0.0 0.0 0.0 
8.801972132511e-05 1.768325725514e-05 0.0 
1.768325725514e-05 8.088721626134e-04 0.0 
0.0 0.0 0.0 
0.0 1.650413605697e-05 0.0 
1.650413605697e-05 1.940308754204e-03 0.0 
0.0 0.0 0.0 
-1.181723685095e-05 1.681080352621e-05 0.0 
1.681080352621e-05 1.942184004408e-03 0.0 
0.0 0.0 0.0 
-9.075356638566e-05 6.350255253716e-06 0.0 
6.350255253716e-06 1.410992074028e-03 0.0 
0.0 0.0 0.0 
1.081941418932e-04 1.330569360216e-04 0.0 
1.330569360216e-04 9.543091801401e-04 0.0 
0.0 0.0 0.0 
0.0 4.649618256084e-05 0.0 
4.649618256084e-05 1.938910432607e-03 0.0 
0.0 0.0 0.0 
1.664381624122e-05 2.091405943045e-04 0.0 
2.091405943045e-04 1.286765953003e-03 0.0 
0.0 0.0 0.0 
9.392738407499e-06 -3.486441813919e-06 0.0 
-3.486441813919e-06 1.056601047413e-04 0.0 
0.0 0.0 0.0 
3.459797793148e-06 -4.396320259947e-06 0.0 
-4.396320259947e-06 5.748404162054e-05 0.0 
0.0 0.0 0.0 
9.633165222844e-06 -4.441615020643e-06 0.0 
-4.441615020643e-06 5.569997194388e-05 0.0 
0.0 0.0 0.0 
7.529310366516e-05 4.873062612110e-06 0.0 
4.873062612110e-06 4.751802046323e-04 0.0 
0.0 0.0 0.0 
1.486281013396e-05 2.852975483606e-05 0.0 
2.852975483606e-05 1.242508340254e-03 0.0 
0.0 0.0 0.0 
-1.951391111199e-05 -4.175342697171e-06 0.0 
-4.175342697171e-06 1.884507696027e-03 0.0 
0.0 0.0 0.0 
3.617193653715e-06 -7.148854919816e-07 0.0 
-7.148854919816e-07 1.558363930987e-05 0.0 
0.0 0.0 0.0 
8.283324065661e-05 -5.140414880622e-06 0.0 
-5.140414880622e-06 5.668381657800e-04 0.0 
0.0 0.0 0.0 
0.0 2.546744412831e-05 0.0 
2.546744412831e-05 1.245376600165e-03 0.0 
0.0 0.0 0.0 
1.698250320770e-05 4.151865529848e-05 0.0 
4.151865529848e-05 1.243719494211e-03 0.0 
0.0 0.0 0.0 
2.554228961005e-05 1.275565919713e-04 0.0 
1.275565919713e-04 1.290914663135e-03 0.0 
0.0 0.0 0.0 
-5.245917492003e-05 7.404288824675e-06 0.0 
7.404288824675e-06 1.685363437442e-03 0.0 
0.0 0.0 0.0 
-4.036156288945e-05 -4.275487021053e-06 0.0 
-4.275487021053e-06 1.772055917725e-03 0.0 
0.0 0.0 0.0 
0.0 3.400797245277e-05 0.0 
3.400797245277e-05 1.240607959563e-03 0.0 
0.0 0.0 0.0 
0.0 4.361029171419e-05 0.0 
4.361029171419e-05 1.246965114918e-03 0.0 
0.0 0.0 0.0 
-4.428016297153e-05 7.329699112431e-06 0.0 
7.329699112431e-06 1.742903183793e-03 0.0 
0.0 0.0 0.0 
-2.567924821673e-07 1.236125749592e-06 0.0 
1.236125749592e-06 1.460829387812e-05 0.0 
0.0 0.0 0.0 
-7.791652277811e-05 1.114364103326e-06 0.0 
1.114364103326e-06 1.407650973182e-03 0.0 
0.0 0.0 0.0 
-8.730515600652e-05 4.757960779097e-06 0.0 
4.757960779097e-06 1.412606685857e-03 0.0 
0.0 0.0 0.0 
3.443958871419e-07 -1.934190937094e-06 0.0 
-1.934190937094e-06 1.811733100721e-05 0.0 
0.0 0.0 0.0 
0.0 7.915426113717e-05 0.0 
7.915426113717e-05 1.264790221798e-03 0.0 
0.0 0.0 0.0 
2.222431861587e-05 1.137241077455e-04 0.0 
1.137241077455e-04 1.278683909120e-03 0.0 
0.0 0.0 0.0 
0.0 1.023829610086e-04 0.0 
1.023829610086e-04 1.272931653655e-03 0.0 
0.0 0.0 0.0 
-5.949067276578e-06 -7.575781005862e-07 0.0 
-7.575781005862e-07 1.883236215283e-05 0.0 
0.0 0.0 0.0 
-9.163521844990e-06 -2.448769259796e-06 0.0 
-2.448769259796e-06 2.069064620591e-05 0.0 
0.0 0.0 0.0 
0.0 1.293466334845e-04 0.0 
1.293466334845e-04 1.297361797773e-03 0.0 
0.0 0.0 0.0 
0.0 1.151892447924e-04 0.0 
1.151892447924e-04 1.284982936560e-03 0.0 
0.0 0.0 0.0 
-5.649889153736e-05 -4.893921806477e-06 0.0 
-4.893921806477e-06 1.655661888534e-03 0.0 
0.0 0.0 0.0 
-7.294079686126e-05 8.362120757493e-07 0.0 
8.362120757493e-07 1.404410035049e-03 0.0 
0.0 0.0 0.0 
-4.842897614610e-05 -4.615289129531e-06 0.0 
-4.615289129531e-06 1.714207718856e-03 0.0 
0.0 0.0 0.0 
-6.600240873977e-05 -5.085323811484e-06 0.0 
-5.085323811484e-06 1.534696683657e-03 0.0 
0.0 0.0 0.0 
-7.021198732482e-05 1.596824729455e-07 0.0 
1.596824729455e-07 1.403196084958e-03 0.0 
0.0 0.0 0.0 
-2.564767682212e-05 -3.489636627576e-06 0.0 
-3.489636627576e-06 2.761788785088e-05 0.0 
0.0 0.0 0.0 
-4.562611261993e-05 -6.730354574754e-06 0.0 
-6.730354574754e-06 3.758163367329e-05 0.0 
0.0 0.0 0.0 
-5.388087325420e-05 -6.758000462513e-06 0.0 
-6.758000462513e-06 3.937458361380e-05 0.0 
0.0 0.0 0.0 
-6.728123538979e-05 -7.663114275736e-06 0.0 
-7.663114275736e-06 4.532762181086e-05 0.0 
0.0 0.0 0.0 
8.450232899815e-05 5.867587031909e-06 0.0 
5.867587031909e-06 5.987952882027e-04 0.0 
0.0 0.0 0.0 
8.124375513030e-05 5.157781650347e-06 0.0 
5.157781650347e-06 5.357560705366e-04 0.0 
0.0 0.0 0.0 
-3.196791261029e-05 -6.389197193651e-06 0.0 
-6.389197193651e-06 3.263496572514e-05 0.0 
0.0 0.0 0.0 
8.407013216849e-05 6.143429176758e-06 0.0 
6.143429176758e-06 7.917361398493e-04 0.0 
0.0 0.0 0.0 
-4.294023923701e-05 -7.749725463712e-06 0.0 
-7.749725463712e-06 3.679805319257e-05 0.0 
0.0 0.0 0.0 
0.0 9.831909536704e-05 0.0 
9.831909536704e-05 1.917316292033e-03 0.0 
0.0 0.0 0.0 
0.0 3.861291345770e-05 0.0 
3.861291345770e-05 1.939177233998e-03 0.0 
0.0 0.0 0.0 
0.0 6.538552103200e-05 0.0 
6.538552103200e-05 1.931181711438e-03 0.0 
0.0 0.0 0.0 
2.725737360310e-05 5.409893360711e-06 0.0 
5.409893360711e-06 1.847218291575e-04 0.0 
0.0 0.0 0.0 
5.886086628060e-05 4.926734847653e-06 0.0 
4.926734847653e-06 3.576674026795e-04 0.0 
0.0 0.0 0.0 
0.0 3.014865395468e-05 0.0 
3.014865395468e-05 1.938391913379e-03 0.0 
0.0 0.0 0.0 
5.925444609511e-05 5.472051639818e-06 0.0 
5.472051639818e-06 1.005649419797e-03 0.0 
0.0 0.0 0.0 
0.0 2.335047949281e-05 0.0 
2.335047949281e-05 1.945419546588e-03 0.0 
0.0 0.0 0.0 
4.481306583548e-05 5.830356633609e-06 0.0 
5.830356633609e-06 1.080914156551e-03 0.0 
0.0 0.0 0.0 
2.811252793200e-05 7.161004664186e-06 0.0 
7.161004664186e-06 1.158281796694e-03 0.0 
0.0 0.0 0.0 
7.825751046253e-05 -6.326378233111e-06 0.0 
-6.326378233111e-06 5.050878375448e-04 0.0 
0.0 0.0 0.0 
-1.491565174905e-05 3.384405146924e-05 0.0 
3.384405146924e-05 1.938766874754e-03 0.0 
0.0 0.0 0.0 
-1.197570559441e-05 3.066943850861e-05 0.0 
3.066943850861e-05 1.941052996024e-03 0.0 
0.0 0.0 0.0 
5.137888272766e-05 9.860953466529e-07 0.0 
9.860953466529e-07 1.039253970325e-03 0.0 
0.0 0.0 0.0 
3.628025760150e-05 1.913817596624e-06 0.0 
1.913817596624e-06 1.116529248380e-03 0.0 
0.0 0.0 0.0 
7.971116047689e-05 1.314796276166e-05 0.0 
1.314796276166e-05 8.659752812021e-04 0.0 
0.0 0.0 0.0 
-6.983650409575e-05 -9.182012592986e-06 0.0 
-9.182012592986e-06 4.932471103580e-05 0.0 
0.0 0.0 0.0 
8.219258599707e-05 -9.833226975652e-06 0.0 
-9.833226975652e-06 5.156993812157e-04 0.0 
0.0 0.0 0.0 
-6.319770987528e-06 -9.356954100213e-06 0.0 
-9.356954100213e-06 6.050790205769e-05 0.0 
0.0 0.0 0.0 
5.426373519457e-05 6.299449293924e-05 0.0 
6.299449293924e-05 1.081909266694e-03 0.0 
0.0 0.0 0.0 
9.528544437787e-05 5.026040892982e-06 0.0 
5.026040892982e-06 5.488027163119e-04 0.0 
0.0 0.0 0.0 
6.902645032203e-05 3.562912975486e-05 0.0 
3.562912975486e-05 9.768497608846e-04 0.0 
0.0 0.0 0.0 
4.186665366901e-05 -3.124251687204e-05 0.0 
-3.124251687204e-05 2.662742689492e-04 0.0 
0.0 0.0 0.0 
6.977834981381e-06 -1.077465155648e-05 0.0 
-1.077465155648e-05 1.074666667733e-04 0.0 
0.0 0.0 0.0 
5.344405038410e-05 2.914551296807e-05 0.0 
2.914551296807e-05 1.050824084822e-03 0.0 
0.0 0.0 0.0 
8.840391412668e-05 -4.773140814215e-06 0.0 
-4.773140814215e-06 5.768817499356e-04 0.0 
0.0 0.0 0.0 
7.152646625297e-05 2.868607453162e-06 0.0 
2.868607453162e-06 4.461528083466e-04 0.0 
0.0 0.0 0.0 
6.626356948614e-05 2.502206572631e-05 0.0 
2.502206572631e-05 9.785509767128e-04 0.0 
0.0 0.0 0.0 
-3.015748409052e-05 1.730361015945e-05 0.0 
1.730361015945e-05 1.822841669398e-03 0.0 
0.0 0.0 0.0 
7.137282781766e-05 -6.956229984010e-06 0.0 
-6.956229984010e-06 4.459669285062e-04 0.0 
0.0 0.0 0.0 
9.237746180246e-05 8.592255907001e-05 0.0 
8.592255907001e-05 9.585672547900e-04 0.0 
0.0 0.0 0.0 
1.050298668763e-04 4.269347131637e-05 0.0 
4.269347131637e-05 7.937201620181e-04 0.0 
0.0 0.0 0.0 
8.277725095862e-05 2.425193494945e-05 0.0 
2.425193494945e-05 8.642452340009e-04 0.0 
0.0 0.0 0.0 
7.702366311513e-05 2.032844568010e-05 0.0 
2.032844568010e-05 8.948599892720e-04 0.0 
0.0 0.0 0.0 
1.174531610222e-04 1.233021334847e-04 0.0 
1.233021334847e-04 5.717863954087e-04 0.0 
0.0 0.0 0.0 
-1.329517994172e-04 1.488472585503e-04 0.0 
1.488472585503e-04 1.278237217000e-03 0.0 
0.0 0.0 0.0 
2.820202658738e-05 2.081122268360e-04 0.0 
2.081122268360e-04 9.799707545377e-04 0.0 
0.0 0.0 0.0 
9.364307933257e-05 2.916897231673e-05 0.0 
2.916897231673e-05 8.070687526778e-04 0.0 
0.0 0.0 0.0 
5.984758122457e-05 1.973889784952e-05 0.0 
1.973889784952e-05 1.009584393137e-03 0.0 
0.0 0.0 0.0 
7.132899599172e-05 1.648621562136e-05 0.0 
1.648621562136e-05 9.267828593718e-04 0.0 
0.0 0.0 0.0 
5.481551056752e-05 -1.822955134778e-05 0.0 
-1.822955134778e-05 2.770354717745e-04 0.0 
0.0 0.0 0.0 
-3.308230778454e-05 2.797961399163e-05 0.0 
2.797961399163e-05 1.819518573307e-03 0.0 
0.0 0.0 0.0 
-4.391666186276e-05 2.434225297810e-05 0.0 
2.434225297810e-05 1.763386485176e-03 0.0 
0.0 0.0 0.0 
-7.194594734816e-05 1.005385185305e-05 0.0 
1.005385185305e-05 1.491260193826e-03 0.0 
0.0 0.0 0.0 
9.278136023427e-05 3.784195751678e-05 0.0 
3.784195751678e-05 8.482490844517e-04 0.0 
0.0 0.0 0.0 
8.820064890291e-05 2.689879531855e-05 0.0 
2.689879531855e-05 8.354117284779e-04 0.0 
0.0 0.0 0.0 
-3.483821076822e-05 9.800632887162e-06 0.0 
9.800632887162e-06 1.825049448880e-03 0.0 
0.0 0.0 0.0 
-3.825293450743e-05 2.124943610829e-05 0.0 
2.124943610829e-05 1.793875801478e-03 0.0 
0.0 0.0 0.0 
1.014719421435e-04 3.188622132673e-05 0.0 
3.188622132673e-05 7.696993550401e-04 0.0 
0.0 0.0 0.0 
4.644034644374e-05 2.289333175205e-05 0.0 
2.289333175205e-05 1.082486712885e-03 0.0 
0.0 0.0 0.0 
-5.436814845705e-05 4.255747211338e-05 0.0 
4.255747211338e-05 1.752492560323e-03 0.0 
0.0 0.0 0.0 
6.943946822258e-05 5.681928949172e-06 0.0 
5.681928949172e-06 9.267726934750e-04 0.0 
0.0 0.0 0.0 
4.516225584927e-05 5.589250704120e-05 0.0 
5.589250704120e-05 1.114802480274e-03 0.0 
0.0 0.0 0.0 
-3.832069249110e-05 2.030077388557e-05 0.0 
2.030077388557e-05 1.820826180604e-03 0.0 
0.0 0.0 0.0 
-6.416963534694e-05 1.376923025434e-05 0.0 
1.376923025434e-05 1.675492077002e-03 0.0 
0.0 0.0 0.0 
9.708385101370e-05 7.104850833052e-05 0.0 
7.104850833052e-05 9.080074112273e-04 0.0 
0.0 0.0 0.0 
4.518377352447e-05 -7.963407225996e-06 0.0 
-7.963407225996e-06 2.735128003641e-04 0.0 
0.0 0.0 0.0 
4.831655562265e-05 -1.849979189977e-05 0.0 
-1.849979189977e-05 2.554955419545e-04 0.0 
0.0 0.0 0.0 
-1.340926572224e-06 -3.222262524093e-05 0.0 
-3.222262524093e-05 1.328836302443e-04 0.0 
0.0 0.0 0.0 
-6.989484134934e-05 -2.072982019088e-05 0.0 
-2.072982019088e-05 8.906705516831e-05 0.0 
0.0 0.0 0.0 
-4.120131542729e-05 1.366329690668e-05 0.0 
1.366329690668e-05 1.794620707794e-03 0.0 
0.0 0.0 0.0 
5.408114024097e-05 2.546786312158e-05 0.0 
2.546786312158e-05 1.038481324369e-03 0.0 
0.0 0.0 0.0 
-6.039641804190e-05 -2.026293458983e-05 0.0 
-2.026293458983e-05 8.369892226034e-05 0.0 
0.0 0.0 0.0 
-8.016661651311e-05 1.463631155275e-04 0.0 
1.463631155275e-04 1.733291337427e-03 0.0 
0.0 0.0 0.0 
-7.173419616913e-05 1.228651645017e-05 0.0 
1.228651645017e-05 1.520759218298e-03 0.0 
0.0 0.0 0.0 
7.246309317210e-05 2.884477734366e-05 0.0 
2.884477734366e-05 9.496386197998e-04 0.0 
0.0 0.0 0.0 
6.679209238580e-05 2.319914336844e-05 0.0 
2.319914336844e-05 9.654271296473e-04 0.0 
0.0 0.0 0.0 
9.605572563420e-05 5.497388753706e-07 0.0 
5.497388753706e-07 4.023259992632e-04 0.0 
0.0 0.0 0.0 
6.539129657601e-05 1.221512339571e-05 0.0 
1.221512339571e-05 9.670138280125e-04 0.0 
0.0 0.0 0.0 
-7.526715442407e-05 -9.146074564056e-07 0.0 
-9.146074564056e-07 1.491017075087e-03 0.0 
0.0 0.0 0.0 
7.763166445574e-05 1.660764748651e-04 0.0 
1.660764748651e-04 1.071731578717e-03 0.0 
0.0 0.0 0.0 
3.909373928512e-05 6.230399986321e-05 0.0 
6.230399986321e-05 1.145839141376e-03 0.0 
0.0 0.0 0.0 
4.315467409799e-05 -2.764944114794e-06 0.0 
-2.764944114794e-06 2.639128656188e-04 0.0 
0.0 0.0 0.0 
4.667901293187e-05 7.570365293929e-05 0.0 
7.570365293929e-05 1.131733865515e-03 0.0 
0.0 0.0 0.0 
-5.745663347712e-05 1.279111975175e-05 0.0 
1.279111975175e-05 1.707059001465e-03 0.0 
0.0 0.0 0.0 
4.986069595536e-05 -4.335798982154e-06 0.0 
-4.335798982154e-06 2.978619558154e-04 0.0 
0.0 0.0 0.0 
5.826495732153e-05 -3.018806812118e-05 0.0 
-3.018806812118e-05 3.132304197198e-04 0.0 
0.0 0.0 0.0 
8.982985921047e-05 8.180951645524e-06 0.0 
8.180951645524e-06 6.572223110630e-04 0.0 
0.0 0.0 0.0 
-7.016092519530e-05 2.214337696476e-05 0.0 
2.214337696476e-05 1.611380113381e-03 0.0 
0.0 0.0 0.0 
8.070515005620e-05 -5.864277733084e-06 0.0 
-5.864277733084e-06 4.278973233751e-04 0.0 
0.0 0.0 0.0 
-5.084277463074e-05 1.074383061228e-05 0.0 
1.074383061228e-05 1.738412541171e-03 0.0 
0.0 0.0 0.0 
-6.395206016974e-05 8.136948200123e-06 0.0 
8.136948200123e-06 1.646880585575e-03 0.0 
0.0 0.0 0.0 
9.652600621957e-05 1.140770100074e-05 0.0 
1.140770100074e-05 6.382761920922e-04 0.0 
0.0 0.0 0.0 
7.458369810021e-05 9.755452122174e-06 0.0 
9.755452122174e-06 8.956161168545e-04 0.0 
0.0 0.0 0.0 
7.101465089843e-05 1.652291842009e-05 0.0 
1.652291842009e-05 9.368989094196e-04 0.0 
0.0 0.0 0.0 
-5.260731775403e-05 2.076083107319e-05 0.0 
2.076083107319e-05 1.705901693702e-03 0.0 
0.0 0.0 0.0 
3.248303328363e-05 -2.384884225224e-05 0.0 
-2.384884225224e-05 2.279775625600e-04 0.0 
0.0 0.0 0.0 
9.274550577465e-05 7.133032549424e-06 0.0 
7.133032549424e-06 6.023446253642e-04 0.0 
0.0 0.0 0.0 
4.632399349602e-05 2.137007141549e-04 0.0 
2.137007141549e-04 1.279925060995e-03 0.0 
0.0 0.0 0.0 
-5.643841047132e-05 1.870596160063e-05 0.0 
1.870596160063e-05 1.733422998377e-03 0.0 
0.0 0.0 0.0 
8.913275834477e-05 3.456361854462e-06 0.0 
3.456361854462e-06 5.394196526913e-04 0.0 
0.0 0.0 0.0 
9.677733046742e-05 3.022051302855e-05 0.0 
3.022051302855e-05 7.957736671211e-04 0.0 
0.0 0.0 0.0 
5.475604015892e-05 8.037632397118e-05 0.0 
8.037632397118e-05 1.106882148590e-03 0.0 
0.0 0.0 0.0 
-5.812724582244e-05 2.155080266394e-05 0.0 
2.155080266394e-05 1.674564122611e-03 0.0 
0.0 0.0 0.0 
-2.831271434534e-05 -1.109349841198e-05 0.0 
-1.109349841198e-05 1.554784146873e-04 0.0 
0.0 0.0 0.0 
2.729646128019e-06 -2.585492576040e-05 0.0 
-2.585492576040e-05 1.273080028317e-04 0.0 
0.0 0.0 0.0 
5.784483346827e-05 3.161249935736e-05 0.0 
3.161249935736e-05 3.170055853789e-04 0.0 
0.0 0.0 0.0 
6.157100509996e-05 3.144089325614e-05 0.0 
3.144089325614e-05 1.007807574866e-03 0.0 
0.0 0.0 0.0 
-6.441400384938e-05 2.212430613515e-05 0.0 
2.212430613515e-05 1.643170937186e-03 0.0 
0.0 0.0 0.0 
8.757528362846e-05 -6.978214649556e-07 0.0 
-6.978214649556e-07 7.229316164299e-04 0.0 
0.0 0.0 0.0 
-7.378975847672e-05 1.599539827913e-05 0.0 
1.599539827913e-05 1.551200093106e-03 0.0 
0.0 0.0 0.0 
7.115065529151e-05 1.132701481121e-04 0.0 
1.132701481121e-04 1.087656092811e-03 0.0 
0.0 0.0 0.0 
9.403215262327e-05 1.162603737492e-05 0.0 
1.162603737492e-05 6.656356524024e-04 0.0 
0.0 0.0 0.0 
7.357052346091e-05 2.782202353927e-05 0.0 
2.782202353927e-05 9.351533462243e-04 0.0 
0.0 0.0 0.0 
4.276779128709e-05 -1.732452655463e-05 0.0 
-1.732452655463e-05 2.750437759342e-04 0.0 
0.0 0.0 0.0 
5.027916683153e-05 6.995839727848e-05 0.0 
6.995839727848e-05 1.115384576906e-03 0.0 
0.0 0.0 0.0 
9.054740443548e-05 3.813408307452e-07 0.0 
3.813408307452e-07 6.400502083641e-04 0.0 
0.0 0.0 0.0 
4.644498493245e-05 -1.406541762897e-05 0.0 
-1.406541762897e-05 2.993954258244e-04 0.0 
0.0 0.0 0.0 
8.756321347869e-05 -3.832215400230e-06 0.0 
-3.832215400230e-06 6.041710033333e-04 0.0 
0.0 0.0 0.0 
8.195987693593e-05 -3.529308758883e-06 0.0 
-3.529308758883e-06 4.534744452744e-04 0.0 
0.0 0.0 0.0 
6.033085957657e-05 -2.494263114992e-05 0.0 
-2.494263114992e-05 3.468573019620e-04 0.0 
0.0 0.0 0.0 
8.906819519394e-05 1.020835990066e-05 0.0 
1.020835990066e-05 7.208082396506e-04 0.0 
0.0 0.0 0.0 
-1.915250768281e-05 -6.080930288183e-06 0.0 
-6.080930288183e-06 2.793515345001e-05 0.0 
0.0 0.0 0.0 
-2.828202290517e-05 -6.508221479583e-06 0.0 
-6.508221479583e-06 3.205676763973e-05 0.0 
0.0 0.0 0.0 
8.378795767094e-05 1.570978341390e-05 0.0 
1.570978341390e-05 8.371561824976e-04 0.0 
0.0 0.0 0.0 
3.778323365933e-05 -2.087552919842e-05 0.0 
-2.087552919842e-05 2.515335824482e-04 0.0 
0.0 0.0 0.0 
8.671589053200e-05 2.610083786710e-05 0.0 
2.610083786710e-05 8.500884059981e-04 0.0 
0.0 0.0 0.0 
9.183322028861e-05 2.837983004376e-05 0.0 
2.837983004376e-05 8.226249892545e-04 0.0 
0.0 0.0 0.0 
9.697529339192e-05 2.242539209735e-06 0.0 
2.242539209735e-06 4.963853209652e-04 0.0 
0.0 0.0 0.0 
7.767008726289e-05 -6.206626875198e-06 0.0 
-6.206626875198e-06 3.216528783319e-04 0.0 
0.0 0.0 0.0 
-5.340258478548e-05 3.376067663183e-05 0.0 
3.376067663183e-05 1.783828963321e-03 0.0 
0.0 0.0 0.0 
-8.900879833629e-06 5.495096089047e-05 0.0 
5.495096089047e-05 2.019138923417e-04 0.0 
0.0 0.0 0.0 
8.277202969853e-05 -1.425585334618e-06 0.0 
-1.425585334618e-06 4.798463766358e-04 0.0 
0.0 0.0 0.0 
6.131659297015e-05 1.312845217586e-04 0.0 
1.312845217586e-04 1.141696444062e-03 0.0 
0.0 0.0 0.0 
3.400106011453e-05 -8.581308085908e-06 0.0 
-8.581308085908e-06 2.149492734040e-04 0.0 
0.0 0.0 0.0 
-7.543364396667e-05 9.269028247574e-06 0.0 
9.269028247574e-06 1.584400793867e-03 0.0 
0.0 0.0 0.0 
-7.790041417277e-05 3.269712899858e-06 0.0 
3.269712899858e-06 1.521992566188e-03 0.0 
0.0 0.0 0.0 
2.628793940551e-05 -3.214249326530e-05 0.0 
-3.214249326530e-05 2.110848579358e-04 0.0 
0.0 0.0 0.0 
6.362363310752e-05 8.734320275134e-05 0.0 
8.734320275134e-05 1.079542879228e-03 0.0 
0.0 0.0 0.0 
-7.213672897655e-05 2.863490593689e-05 0.0 
2.863490593689e-05 1.697184158792e-03 0.0 
0.0 0.0 0.0 
4.011080490707e-05 -1.097543685490e-05 0.0 
-1.097543685490e-05 2.495200205253e-04 0.0 
0.0 0.0 0.0 
-5.146260977840e-05 4.297185419800e-05 0.0 
4.297185419800e-05 1.807176009303e-03 0.0 
0.0 0.0 0.0 
-4.281592601740e-05 4.914904652298e-05 0.0 
4.914904652298e-05 1.806159305452e-03 0.0 
0.0 0.0 0.0 
4.467520988261e-05 -2.360960307279e-05 0.0 
-2.360960307279e-05 2.823999838630e-04 0.0 
0.0 0.0 0.0 
-3.503385736003e-05 2.227993059518e-04 0.0 
2.227993059518e-04 8.687413708754e-04 0.0 
0.0 0.0 0.0 
4.743705832588e-05 -2.823836333657e-05 0.0 
-2.823836333657e-05 2.901832444395e-04 0.0 
0.0 0.0 0.0 
7.661983523799e-05 2.042640514802e-05 0.0 
2.042640514802e-05 9.070236994133e-04 0.0 
0.0 0.0 0.0 
9.148850663721e-05 1.127094616407e-05 0.0 
1.127094616407e-05 6.934169487371e-04 0.0 
0.0 0.0 0.0 
-6.347266533513e-05 1.269426106914e-04 0.0 
1.269426106914e-04 1.764315878132e-03 0.0 
0.0 0.0 0.0 
-4.599211486345e-05 4.044450782783e-05 0.0 
4.044450782783e-05 1.783018797539e-03 0.0 
0.0 0.0 0.0 
8.162566351744e-05 2.347950536762e-05 0.0 
2.347950536762e-05 8.783250978266e-04 0.0 
0.0 0.0 0.0 
8.643343666903e-05 3.494085143329e-05 0.0 
3.494085143329e-05 8.765422653063e-04 0.0 
0.0 0.0 0.0 
3.638161456387e-05 -1.742371108145e-05 0.0 
-1.742371108145e-05 2.325468361550e-04 0.0 
0.0 0.0 0.0 
8.007003588606e-05 3.156819974781e-05 0.0 
3.156819974781e-05 9.052980855035e-04 0.0 
0.0 0.0 0.0 
-6.361836449431e-05 3.540038051683e-05 0.0 
3.540038051683e-05 1.696365122039e-03 0.0 
0.0 0.0 0.0 
8.813952466546e-05 8.127999888939e-07 0.0 
8.127999888939e-07 6.950571288109e-04 0.0 
0.0 0.0 0.0 
-7.078476940692e-05 1.454507869633e-05 0.0 
1.454507869633e-05 1.644074438879e-03 0.0 
0.0 0.0 0.0 
-6.367963235832e-05 2.748414904229e-05 0.0 
2.748414904229e-05 1.728187916660e-03 0.0 
0.0 0.0 0.0 
1.069075471083e-04 1.586755345318e-04 0.0 
1.586755345318e-04 7.833216674700e-04 0.0 
0.0 0.0 0.0 
-4.845429333233e-05 3.294585052263e-05 0.0 
3.294585052263e-05 1.758264432563e-03 0.0 
0.0 0.0 0.0 
8.820554580136e-05 4.987338970376e-06 0.0 
4.987338970376e-06 5.699801609682e-04 0.0 
0.0 0.0 0.0 
8.929068829744e-05 8.167981557062e-07 0.0 
8.167981557062e-07 6.673644658981e-04 0.0 
0.0 0.0 0.0 
7.449464533127e-05 -3.984756568127e-06 0.0 
-3.984756568127e-06 4.212463721467e-04 0.0 
0.0 0.0 0.0 
8.663266368125e-05 -1.418912741036e-05 0.0 
-1.418912741036e-05 4.490351551585e-04 0.0 
0.0 0.0 0.0 
-6.409597122203e-05 2.819770070377e-05 0.0 
2.819770070377e-05 1.670132580458e-03 0.0 
0.0 0.0 0.0 
1.104621297370e-04 2.454110249094e-05 0.0 
2.454110249094e-05 6.529703151348e-04 0.0 
0.0 0.0 0.0 
5.219764210707e-05 -2.499515835187e-05 0.0 
-2.499515835187e-05 3.144918543325e-04 0.0 
0.0 0.0 0.0 
9.390929561093e-06 -3.013580982454e-05 0.0 
-3.013580982454e-05 1.572447498392e-04 0.0 
0.0 0.0 0.0 
-7.150144519041e-05 2.106339997763e-05 0.0 
2.106339997763e-05 1.670990430291e-03 0.0 
0.0 0.0 0.0 
5.715164302345e-05 -1.344408784284e-05 0.0 
-1.344408784284e-05 3.126726051095e-04 0.0 
0.0 0.0 0.0 
5.247009263210e-05 8.653250734900e-05 0.0 
8.653250734900e-05 1.130634306601e-03 0.0 
0.0 0.0 0.0 
-5.724594372147e-05 2.754349077459e-05 0.0 
2.754349077459e-05 1.701366201270e-03 0.0 
0.0 0.0 0.0 
7.638077277416e-05 4.034934713614e-05 0.0 
4.034934713614e-05 9.478701223578e-04 0.0 
0.0 0.0 0.0 
2.282294190614e-05 1.772427744518e-04 0.0 
1.772427744518e-04 1.301661931252e-03 0.0 
0.0 0.0 0.0 
8.376773803720e-05 -7.835969649406e-06 0.0 
-7.835969649406e-06 5.418455959230e-04 0.0 
0.0 0.0 0.0 
4.816410753672e-05 -1.269630999293e-05 0.0 
-1.269630999293e-05 2.806948338439e-04 0.0 
0.0 0.0 0.0 
1.900004058308e-05 -1.636625079836e-05 0.0 
-1.636625079836e-05 1.769715524584e-04 0.0 
0.0 0.0 0.0 
8.444703473143e-05 3.587600268529e-05 0.0 
3.587600268529e-05 8.927354961865e-04 0.0 
0.0 0.0 0.0 
-6.474760454833e-05 1.739098131929e-05 0.0 
1.739098131929e-05 1.615836605019e-03 0.0 
0.0 0.0 0.0 
1.918210245755e-06 -1.448822953097e-05 0.0 
-1.448822953097e-05 1.245448980154e-04 0.0 
0.0 0.0 0.0 
7.420323588447e-05 -1.733243863391e-05 0.0 
-1.733243863391e-05 4.296969703972e-04 0.0 
0.0 0.0 0.0 
3.678800055718e-05 -1.436958398875e-05 0.0 
-1.436958398875e-05 2.436148576810e-04 0.0 
0.0 0.0 0.0 
-7.696852693395e-05 1.486428453243e-05 0.0 
1.486428453243e-05 1.612245498763e-03 0.0 
0.0 0.0 0.0 
7.657649599113e-05 -1.452479046063e-05 0.0 
-1.452479046063e-05 4.551884712358e-04 0.0 
0.0 0.0 0.0 
9.902125705086e-05 4.035610939570e-05 0.0 
4.035610939570e-05 8.206827535548e-04 0.0 
0.0 0.0 0.0 
7.003800663252e-05 -1.534685587260e-05 0.0 
-1.534685587260e-05 4.224439712865e-04 0.0 
0.0 0.0 0.0 
-4.891341184043e-05 1.648715847662e-05 0.0 
1.648715847662e-05 1.764432241787e-03 0.0 
0.0 0.0 0.0 
6.986660614094e-05 -1.010894871252e-05 0.0 
-1.010894871252e-05 3.698431022889e-04 0.0 
0.0 0.0 0.0 
8.773865907097e-05 5.028869540699e-05 0.0 
5.028869540699e-05 9.101937611442e-04 0.0 
0.0 0.0 0.0 
4.003228503380e-05 -3.519055829300e-05 0.0 
-3.519055829300e-05 2.581607697580e-04 0.0 
0.0 0.0 0.0 
9.036471801616e-05 3.867623608734e-05 0.0 
3.867623608734e-05 8.654077518406e-04 0.0 
0.0 0.0 0.0 
8.746893759159e-05 -1.630414003317e-06 0.0 
-1.630414003317e-06 6.329365482654e-04 0.0 
0.0 0.0 0.0 
8.370495397325e-05 4.431291427984e-05 0.0 
4.431291427984e-05 9.190433179946e-04 0.0 
0.0 0.0 0.0 
1.204540433781e-04 6.394634022283e-05 0.0 
6.394634022283e-05 4.674691052975e-04 0.0 
0.0 0.0 0.0 
3.846170396238e-05 -4.775092242208e-06 0.0 
-4.775092242208e-06 2.411665666646e-04 0.0 
0.0 0.0 0.0 
-7.361470782941e-05 4.831529463802e-06 0.0 
4.831529463802e-06 1.555892251457e-03 0.0 
0.0 0.0 0.0 
1.067300796409e-04 1.008492482603e-04 0.0 
1.008492482603e-04 8.982534539361e-04 0.0 
0.0 0.0 0.0 
-2.928867776952e-05 2.237717510913e-04 0.0 
2.237717510913e-04 1.037100979818e-03 0.0 
0.0 0.0 0.0 
-6.993632139474e-05 9.028766576012e-06 0.0 
9.028766576012e-06 1.616111430458e-03 0.0 
0.0 0.0 0.0 
5.295564561014e-05 -3.179100207555e-05 0.0 
-3.179100207555e-05 2.908004279041e-04 0.0 
0.0 0.0 0.0 
-7.823354296366e-05 3.530561929192e-05 0.0 
3.530561929192e-05 1.633567279701e-03 0.0 
0.0 0.0 0.0 
3.101655308502e-05 -1.792720652348e-05 0.0 
-1.792720652348e-05 2.185837142268e-04 0.0 
0.0 0.0 0.0 
6.264192940808e-05 6.680308927031e-05 0.0 
6.680308927031e-05 1.057710728661e-03 0.0 
0.0 0.0 0.0 
1.001000375913e-04 1.183767697441e-04 0.0 
1.183767697441e-04 9.565558293565e-04 0.0 
0.0 0.0 0.0 
6.367780772476e-05 1.808275615327e-04 0.0 
1.808275615327e-04 1.141782193142e-03 0.0 
0.0 0.0 0.0 
-4.100720378830e-05 3.970859963563e-05 0.0 
3.970859963563e-05 1.838941519356e-03 0.0 
0.0 0.0 0.0 
1.098590065582e-04 3.539136488756e-05 0.0 
3.539136488756e-05 7.201624737252e-04 0.0 
0.0 0.0 0.0 
3.420085110273e-05 -1.368004473757e-05 0.0 
-1.368004473757e-05 2.257394905372e-04 0.0 
0.0 0.0 0.0 
1.014014426619e-04 4.371593896709e-05 0.0 
4.371593896709e-05 8.135411995356e-04 0.0 
0.0 0.0 0.0 
6.044825139018e-05 9.336485399684e-05 0.0 
9.336485399684e-05 1.104836504280e-03 0.0 
0.0 0.0 0.0 
8.167441722962e-05 -1.658051522679e-05 0.0 
-1.658051522679e-05 3.829293250206e-04 0.0 
0.0 0.0 0.0 
7.843793557760e-05 3.262721193000e-05 0.0 
3.262721193000e-05 9.208550627673e-04 0.0 
0.0 0.0 0.0 
-6.403853602555e-05 2.007906116818e-05 0.0 
2.007906116818e-05 1.702261935666e-03 0.0 
0.0 0.0 0.0 
7.294451523721e-05 -3.939889950978e-06 0.0 
-3.939889950978e-06 2.991010711557e-04 0.0 
0.0 0.0 0.0 
9.604165380295e-05 4.122659345153e-05 0.0 
4.122659345153e-05 8.390319778100e-04 0.0 
0.0 0.0 0.0 
-8.753711473675e-05 1.349405528298e-05 0.0 
1.349405528298e-05 1.547221353642e-03 0.0 
0.0 0.0 0.0 
5.352525234747e-05 -1.629303496096e-05 0.0 
-1.629303496096e-05 3.318121043552e-04 0.0 
0.0 0.0 0.0 
7.177248989509e-05 -2.039580349890e-05 0.0 
-2.039580349890e-05 4.045039058702e-04 0.0 
0.0 0.0 0.0 
-1.671054808106e-05 2.146351726235e-04 0.0 
2.146351726235e-04 1.147076972955e-03 0.0 
0.0 0.0 0.0 
9.089725054623e-05 4.776331123550e-05 0.0 
4.776331123550e-05 8.908681120641e-04 0.0 
0.0 0.0 0.0 
-7.822734835394e-05 2.145093625220e-04 0.0 
2.145093625220e-04 1.112778492677e-03 0.0 
0.0 0.0 0.0 
5.708024893636e-06 2.138890093296e-04 0.0 
2.138890093296e-04 1.064894529412e-03 0.0 
0.0 0.0 0.0 
-7.106159751102e-05 3.560999297475e-05 0.0 
3.560999297475e-05 1.665116235167e-03 0.0 
0.0 0.0 0.0 
-6.948726021505e-05 1.729707790349e-05 0.0 
1.729707790349e-05 1.583449220423e-03 0.0 
0.0 0.0 0.0 
-8.257838970660e-05 2.629405441799e-05 0.0 
2.629405441799e-05 1.575072761904e-03 0.0 
0.0 0.0 0.0 
9.119652105261e-05 7.546771564708e-06 0.0 
7.546771564708e-06 6.308860573119e-04 0.0 
0.0 0.0 0.0 
7.176873312154e-05 9.198626171264e-05 0.0 
9.198626171264e-05 1.056183506497e-03 0.0 
0.0 0.0 0.0 
1.063644263219e-04 4.622794358494e-05 0.0 
4.622794358494e-05 7.890435576108e-04 0.0 
0.0 0.0 0.0 
-8.084928365804e-05 8.896381744733e-06 0.0 
8.896381744733e-06 1.552035000020e-03 0.0 
0.0 0.0 0.0 
-6.988758301130e-05 1.642759171085e-04 0.0 
1.642759171085e-04 1.739360496330e-03 0.0 
0.0 0.0 0.0 
4.879535486002e-05 1.934690971848e-04 0.0 
1.934690971848e-04 1.212184949725e-03 0.0 
0.0 0.0 0.0 
9.787230042457e-05 5.092475551087e-05 0.0 
5.092475551087e-05 8.634772036737e-04 0.0 
0.0 0.0 0.0 
-5.600521318849e-05 3.443702703995e-05 0.0 
3.443702703995e-05 1.727348488457e-03 0.0 
0.0 0.0 0.0 
8.754424468060e-05 -1.260163014973e-05 0.0 
-1.260163014973e-05 4.731520725481e-04 0.0 
0.0 0.0 0.0 
7.968761378097e-05 -1.741206993953e-05 0.0 
-1.741206993953e-05 4.382811565995e-04 0.0 
0.0 0.0 0.0 
3.322473480472e-05 -2.988242895715e-05 0.0 
-2.988242895715e-05 2.344817340749e-04 0.0 
0.0 0.0 0.0 
9.999642611880e-05 5.685123387271e-05 0.0 
5.685123387271e-05 8.595744255768e-04 0.0 
0.0 0.0 0.0 
8.108974986287e-05 -1.483578913366e-05 0.0 
-1.483578913366e-05 4.636181984903e-04 0.0 
0.0 0.0 0.0 
-7.871187805519e-05 2.133051750466e-05 0.0 
2.133051750466e-05 1.639370121015e-03 0.0 
0.0 0.0 0.0 
-8.563506774917e-05 2.112818971222e-05 0.0 
2.112818971222e-05 1.607543198390e-03 0.0 
0.0 0.0 0.0 
1.088639495497e-04 1.251446957650e-04 0.0 
1.251446957650e-04 7.881208623384e-04 0.0 
0.0 0.0 0.0 
7.701846548480e-05 -1.047133301684e-05 0.0 
-1.047133301684e-05 3.777072830351e-04 0.0 
0.0 0.0 0.0 
1.120136393493e-04 1.141180691373e-04 0.0 
1.141180691373e-04 5.022774158709e-04 0.0 
0.0 0.0 0.0 
7.908276303814e-05 -8.236814158079e-06 0.0 
-8.236814158079e-06 4.025762310340e-04 0.0 
0.0 0.0 0.0 
8.826744041968e-05 -4.521114267615e-06 0.0 
-4.521114267615e-06 4.362418452037e-04 0.0 
0.0 0.0 0.0 
4.277681830289e-05 -1.533777393539e-05 0.0 
-1.533777393539e-05 2.566015573862e-04 0.0 
0.0 0.0 0.0 
7.936802377073e-05 9.701266970735e-05 0.0 
9.701266970735e-05 1.033195962857e-03 0.0 
0.0 0.0 0.0 
1.135105033800e-04 1.809216578855e-05 0.0 
1.809216578855e-05 5.452729110773e-04 0.0 
0.0 0.0 0.0 
-5.515865996242e-05 2.562358184004e-05 0.0 
2.562358184004e-05 1.759148226270e-03 0.0 
0.0 0.0 0.0 
1.199985968814e-04 2.955027267482e-05 0.0 
2.955027267482e-05 5.851864321886e-04 0.0 
0.0 0.0 0.0 
1.108227323017e-04 5.713895959141e-05 0.0 
5.713895959141e-05 8.114387175884e-04 0.0 
0.0 0.0 0.0 
1.181872796772e-04 3.764428111920e-05 0.0 
3.764428111920e-05 6.747851272304e-04 0.0 
0.0 0.0 0.0 
4.752468186742e-05 1.972286033377e-04 0.0 
1.972286033377e-04 9.591186437792e-04 0.0 
0.0 0.0 0.0 
3.928427591804e-05 -2.677632423193e-05 0.0 
-2.677632423193e-05 2.585146240330e-04 0.0 
0.0 0.0 0.0 
6.953589067127e-05 9.766604954419e-05 0.0 
9.766604954419e-05 1.077585301889e-03 0.0 
0.0 0.0 0.0 
5.417395573248e-05 1.016845785497e-04 0.0 
1.016845785497e-04 1.136862715361e-03 0.0 
0.0 0.0 0.0 
-3.372436606786e-05 2.109223258430e-04 0.0 
2.109223258430e-04 1.331409985169e-03 0.0 
0.0 0.0 0.0 
9.726871050564e-05 1.089427652859e-06 0.0 
1.089427652859e-06 4.709812454597e-04 0.0 
0.0 0.0 0.0 
1.160101957853e-04 4.744158679580e-05 0.0 
4.744158679580e-05 7.422644394717e-04 0.0 
0.0 0.0 0.0 
-7.061055752489e-05 2.833599814664e-05 0.0 
2.833599814664e-05 1.638530698198e-03 0.0 
0.0 0.0 0.0 
8.805508938492e-05 -1.059016823428e-05 0.0 
-1.059016823428e-05 4.984043166876e-04 0.0 
0.0 0.0 0.0 
5.228173974858e-06 2.197556513242e-04 0.0 
2.197556513242e-04 9.478264111584e-04 0.0 
0.0 0.0 0.0 
6.370078509566e-05 -2.164745260780e-05 0.0 
-2.164745260780e-05 3.716611111935e-04 0.0 
0.0 0.0 0.0 
6.559605052892e-05 -2.560374139450e-05 0.0 
-2.560374139450e-05 3.247166006946e-04 0.0 
0.0 0.0 0.0 
9.512196749206e-05 -5.893069555720e-06 0.0 
-5.893069555720e-06 5.093569258277e-04 0.0 
0.0 0.0 0.0 
6.104356810721e-05 -1.067967035497e-05 0.0 
-1.067967035497e-05 3.374344604312e-04 0.0 
0.0 0.0 0.0 
4.926898679902e-05 -2.021397035882e-05 0.0 
-2.021397035882e-05 3.068475280092e-04 0.0 
0.0 0.0 0.0 
1.074747613867e-04 2.330753276215e-05 0.0 
2.330753276215e-05 6.770457117444e-04 0.0 
0.0 0.0 0.0 
1.045647175975e-04 5.405316824913e-05 0.0 
5.405316824913e-05 8.370155854533e-04 0.0 
0.0 0.0 0.0 
-3.021210535348e-05 2.170395490391e-04 0.0 
2.170395490391e-04 1.506825396350e-03 0.0 
0.0 0.0 0.0 
-3.769213359017e-05 -4.107644120887e-06 0.0 
-4.107644120887e-06 3.272733925241e-05 0.0 
0.0 0.0 0.0 
1.288682066962e-04 5.122817437891e-05 0.0 
5.122817437891e-05 5.844331325933e-04 0.0 
0.0 0.0 0.0 
1.220644057678e-04 3.197866843422e-05 0.0 
3.197866843422e-05 5.620480615078e-04 0.0 
0.0 0.0 0.0 
1.058857799447e-04 8.578516714154e-06 0.0 
8.578516714154e-06 5.072118864620e-04 0.0 
0.0 0.0 0.0 
-7.675277498764e-05 2.759241094584e-05 0.0 
2.759241094584e-05 1.606772799107e-03 0.0 
0.0 0.0 0.0 
1.173602314879e-04 2.783534441990e-05 0.0 
2.783534441990e-05 6.090493826492e-04 0.0 
0.0 0.0 0.0 
7.244704876141e-05 -7.222981642804e-06 0.0 
-7.222981642804e-06 3.951325884255e-04 0.0 
0.0 0.0 0.0 
1.021347737602e-04 3.062093679965e-06 0.0 
3.062093679965e-06 5.476433460943e-04 0.0 
0.0 0.0 0.0 
-5.072176178922e-05 2.627417657103e-05 0.0 
2.627417657103e-05 1.732525950493e-03 0.0 
0.0 0.0 0.0 
6.638225882027e-05 -1.826198811929e-05 0.0 
-1.826198811929e-05 3.968818762559e-04 0.0 
0.0 0.0 0.0 
1.163010908067e-05 -1.338880840087e-05 0.0 
-1.338880840087e-05 1.447431597601e-04 0.0 
0.0 0.0 0.0 
2.715655782159e-05 -1.554860910819e-05 0.0 
-1.554860910819e-05 2.012428071434e-04 0.0 
0.0 0.0 0.0 
8.138104070299e-05 -7.247860649961e-06 0.0 
-7.247860649961e-06 3.446961743716e-04 0.0 
0.0 0.0 0.0 
8.717068012376e-05 -6.225601037010e-06 0.0 
-6.225601037010e-06 4.116771300577e-04 0.0 
0.0 0.0 0.0 
1.273078772750e-04 4.651161937379e-05 0.0 
4.651161937379e-05 6.053400749848e-04 0.0 
0.0 0.0 0.0 
1.081897264485e-04 1.387660578048e-05 0.0 
1.387660578048e-05 5.878352088931e-04 0.0 
0.0 0.0 0.0 
3.272938690424e-05 -3.682145487781e-05 0.0 
-3.682145487781e-05 2.351799225144e-04 0.0 
0.0 0.0 0.0 
2.585877344097e-05 -2.749520181202e-05 0.0 
-2.749520181202e-05 2.030047103814e-04 0.0 
0.0 0.0 0.0 
-1.038478375697e-04 2.773380656589e-05 0.0 
2.773380656589e-05 1.567952856571e-03 0.0 
0.0 0.0 0.0 
5.632195306360e-05 -2.161193429664e-05 0.0 
-2.161193429664e-05 3.391275874907e-04 0.0 
0.0 0.0 0.0 
9.442796293113e-05 9.449718705979e-05 0.0 
9.449718705979e-05 9.792869287368e-04 0.0 
0.0 0.0 0.0 
-2.189945269682e-05 2.180744302122e-04 0.0 
2.180744302122e-04 1.440515626092e-03 0.0 
0.0 0.0 0.0 
-1.303717571707e-04 9.655668153115e-05 0.0 
9.655668153115e-05 1.544312193241e-03 0.0 
0.0 0.0 0.0 
-5.949363882929e-05 6.404274345066e-05 0.0 
6.404274345066e-05 1.767873819941e-03 0.0 
0.0 0.0 0.0 
-3.363519903277e-05 2.150713277222e-04 0.0 
2.150713277222e-04 1.568625113419e-03 0.0 
0.0 0.0 0.0 
1.025749211605e-04 1.373663099539e-04 0.0 
1.373663099539e-04 7.865372876970e-04 0.0 
0.0 0.0 0.0 
-2.790775939010e-05 2.134560802502e-04 0.0 
2.134560802502e-04 1.385507236398e-03 0.0 
0.0 0.0 0.0 
4.610095395985e-05 -3.294006855533e-05 0.0 
-3.294006855533e-05 2.683037009601e-04 0.0 
0.0 0.0 0.0 
1.009037044866e-04 3.356319211398e-06 0.0 
3.356319211398e-06 5.719799107644e-04 0.0 
0.0 0.0 0.0 
8.303404699461e-05 1.862170551864e-04 0.0 
1.862170551864e-04 7.933113343930e-04 0.0 
0.0 0.0 0.0 
8.311669933736e-05 1.428239563938e-05 0.0 
1.428239563938e-05 3.156637652859e-04 0.0 
0.0 0.0 0.0 
2.230819529414e-05 -3.747595178073e-05 0.0 
-3.747595178073e-05 2.146803349530e-04 0.0 
0.0 0.0 0.0 
8.891449852322e-05 -2.653257983383e-06 0.0 
-2.653257983383e-06 4.617111069749e-04 0.0 
0.0 0.0 0.0 
1.097323752905e-04 1.514845872578e-05 0.0 
1.514845872578e-05 5.650413171838e-04 0.0 
0.0 0.0 0.0 
1.148845012244e-04 2.885396563696e-05 0.0 
2.885396563696e-05 6.082457817420e-04 0.0 
0.0 0.0 0.0 
6.429553917209e-05 -7.806536438948e-06 0.0 
-7.806536438948e-06 3.624488712410e-04 0.0 
0.0 0.0 0.0 
1.219213342836e-04 3.982534280094e-05 0.0 
3.982534280094e-05 6.505664947924e-04 0.0 
0.0 0.0 0.0 
1.161763587560e-04 3.234696005213e-05 0.0 
3.234696005213e-05 5.877935758296e-04 0.0 
0.0 0.0 0.0 
1.317830859944e-04 6.841129827685e-05 0.0 
6.841129827685e-05 6.323363991880e-04 0.0 
0.0 0.0 0.0 
7.786905373020e-05 -1.981559761880e-05 0.0 
-1.981559761880e-05 4.137487547355e-04 0.0 
0.0 0.0 0.0 
9.194202388518e-05 1.423774661898e-04 0.0 
1.423774661898e-04 1.008793651640e-03 0.0 
0.0 0.0 0.0 
-8.039212654032e-05 2.930607263938e-05 0.0 
2.930607263938e-05 1.665875331990e-03 0.0 
0.0 0.0 0.0 
1.320265592049e-04 7.595687814675e-05 0.0 
7.595687814675e-05 6.151977162505e-04 0.0 
0.0 0.0 0.0 
7.947114362006e-05 1.042788119567e-04 0.0 
1.042788119567e-04 1.054277574481e-03 0.0 
0.0 0.0 0.0 
6.022425765839e-05 -2.551871395539e-05 0.0 
-2.551871395539e-05 3.024081749528e-04 0.0 
0.0 0.0 0.0 
6.173120445263e-05 1.385216936778e-04 0.0 
1.385216936778e-04 1.166754290572e-03 0.0 
0.0 0.0 0.0 
1.249062372184e-04 4.268468884049e-05 0.0 
4.268468884049e-05 6.272615649205e-04 0.0 
0.0 0.0 0.0 
-3.258101660542e-05 2.179411752745e-04 0.0 
2.179411752745e-04 1.631614694985e-03 0.0 
0.0 0.0 0.0 
-1.002591701440e-04 1.733247569178e-04 0.0 
1.733247569178e-04 1.445354615475e-03 0.0 
0.0 0.0 0.0 
6.285770733139e-05 -1.398192925640e-05 0.0 
-1.398192925640e-05 2.880099537161e-04 0.0 
0.0 0.0 0.0 
-1.259539051518e-04 1.161167278030e-04 0.0 
1.161167278030e-04 1.550906751381e-03 0.0 
0.0 0.0 0.0 
-6.374304666945e-05 9.205658162193e-05 0.0 
9.205658162193e-05 1.774001341293e-03 0.0 
0.0 0.0 0.0 
1.279397182079e-04 5.733304016869e-05 0.0 
5.733304016869e-05 6.721761731365e-04 0.0 
0.0 0.0 0.0 
4.834367263462e-05 1.923334804842e-04 0.0 
1.923334804842e-04 7.564722586000e-04 0.0 
0.0 0.0 0.0 
-1.183268712128e-04 1.352419230023e-04 0.0 
1.352419230023e-04 1.553123455331e-03 0.0 
0.0 0.0 0.0 
-2.727962145654e-05 2.201213323733e-04 0.0 
2.201213323733e-04 1.091821212613e-03 0.0 
0.0 0.0 0.0 
4.062854141251e-05 -1.858791663956e-05 0.0 
-1.858791663956e-05 2.321526320916e-04 0.0 
0.0 0.0 0.0 
-2.890750162809e-05 8.194482819224e-05 0.0 
8.194482819224e-05 1.870684691599e-03 0.0 
0.0 0.0 0.0 
2.447405677142e-05 -2.006598350754e-05 0.0 
-2.006598350754e-05 2.012087332706e-04 0.0 
0.0 0.0 0.0 
4.421526390663e-05 1.961627808310e-04 0.0 
1.961627808310e-04 1.286034418541e-03 0.0 
0.0 0.0 0.0 
-3.780580718926e-05 3.779828157530e-05 0.0 
3.779828157530e-05 1.813149983364e-03 0.0 
0.0 0.0 0.0 
9.139401549385e-05 1.353259688357e-04 0.0 
1.353259688357e-04 1.018011636431e-03 0.0 
0.0 0.0 0.0 
-7.540370431625e-05 2.180595757946e-05 0.0 
2.180595757946e-05 1.578525241229e-03 0.0 
0.0 0.0 0.0 
-7.190896119058e-05 4.752255809753e-05 0.0 
4.752255809753e-05 1.746309937735e-03 0.0 
0.0 0.0 0.0 
1.196727801360e-04 4.907459563999e-05 0.0 
4.907459563999e-05 6.355580894086e-04 0.0 
0.0 0.0 0.0 
1.044641188359e-04 1.335106650286e-04 0.0 
1.335106650286e-04 8.596974947823e-04 0.0 
0.0 0.0 0.0 
-4.533900478498e-05 7.286609651953e-05 0.0 
7.286609651953e-05 1.819074028673e-03 0.0 
0.0 0.0 0.0 
9.541506654465e-05 6.277184593980e-05 0.0 
6.277184593980e-05 9.082033745891e-04 0.0 
0.0 0.0 0.0 
-8.152999254507e-05 3.860920591932e-05 0.0 
3.860920591932e-05 1.691193641063e-03 0.0 
0.0 0.0 0.0 
1.127266864460e-04 1.104462771402e-04 0.0 
1.104462771402e-04 9.135113218808e-04 0.0 
0.0 0.0 0.0 
5.697035216734e-05 -1.325838547088e-05 0.0 
-1.325838547088e-05 2.651395291655e-04 0.0 
0.0 0.0 0.0 
-8.202914217903e-05 4.923000579697e-05 0.0 
4.923000579697e-05 1.715036472903e-03 0.0 
0.0 0.0 0.0 
-9.977362171232e-06 2.521347955356e-04 0.0 
2.521347955356e-04 1.602589123872e-03 0.0 
0.0 0.0 0.0 
6.099270106286e-05 1.148857436238e-04 0.0 
1.148857436238e-04 1.133848513236e-03 0.0 
0.0 0.0 0.0 
1.115243673822e-04 1.749004026079e-05 0.0 
1.749004026079e-05 5.697636427586e-04 0.0 
0.0 0.0 0.0 
-8.267502686043e-05 1.405510974255e-05 0.0 
1.405510974255e-05 1.579262218641e-03 0.0 
0.0 0.0 0.0 
-8.021309692730e-05 2.038973876139e-05 0.0 
2.038973876139e-05 1.546407134549e-03 0.0 
0.0 0.0 0.0 
1.129326528075e-04 2.617766718985e-05 0.0 
2.617766718985e-05 6.298663506596e-04 0.0 
0.0 0.0 0.0 
1.027369677922e-04 6.661039898195e-05 0.0 
6.661039898195e-05 8.822823534325e-04 0.0 
0.0 0.0 0.0 
9.939153183902e-05 8.009820100208e-05 0.0 
8.009820100208e-05 9.295674847296e-04 0.0 
0.0 0.0 0.0 
1.891388083619e-05 -2.919368778962e-05 0.0 
-2.919368778962e-05 1.789878065475e-04 0.0 
0.0 0.0 0.0 
1.017544297994e-04 1.042110319450e-04 0.0 
1.042110319450e-04 4.341717714595e-04 0.0 
0.0 0.0 0.0 
1.313658339173e-04 9.550891893217e-05 0.0 
9.550891893217e-05 6.695760298179e-04 0.0 
0.0 0.0 0.0 
1.199408334238e-04 5.507606203394e-05 0.0 
5.507606203394e-05 6.187853580584e-04 0.0 
0.0 0.0 0.0 
2.119784248689e-05 2.186012307534e-04 0.0 
2.186012307534e-04 9.784590832724e-04 0.0 
0.0 0.0 0.0 
-4.381058833103e-05 6.370571247975e-05 0.0 
6.370571247975e-05 1.850381514871e-03 0.0 
0.0 0.0 0.0 
-6.639509125095e-05 1.480443307373e-04 0.0 
1.480443307373e-04 1.733050387327e-03 0.0 
0.0 0.0 0.0 
-4.399206653283e-05 3.076553695690e-05 0.0 
3.076553695690e-05 1.813709733367e-03 0.0 
0.0 0.0 0.0 
-9.985234299437e-05 1.967024405447e-04 0.0 
1.967024405447e-04 1.191367567058e-03 0.0 
0.0 0.0 0.0 
-7.766827851663e-05 8.020730758252e-05 0.0 
8.020730758252e-05 1.723767084444e-03 0.0 
0.0 0.0 0.0 
9.405561249509e-05 5.362600801201e-05 0.0 
5.362600801201e-05 8.843062997101e-04 0.0 
0.0 0.0 0.0 
-4.017795905220e-05 5.887996141009e-05 0.0 
5.887996141009e-05 1.829348822047e-03 0.0 
0.0 0.0 0.0 
-9.174189661043e-05 5.044284141258e-05 0.0 
5.044284141258e-05 1.683266784975e-03 0.0 
0.0 0.0 0.0 
1.062333671409e-04 1.306886766743e-05 0.0 
1.306886766743e-05 6.114055699435e-04 0.0 
0.0 0.0 0.0 
1.292540235116e-04 1.058634738433e-04 0.0 
1.058634738433e-04 6.573405922958e-04 0.0 
0.0 0.0 0.0 
-7.079231598839e-05 5.440259729856e-05 0.0 
5.440259729856e-05 1.714395427998e-03 0.0 
0.0 0.0 0.0 
-5.931640891477e-05 5.591422459357e-05 0.0 
5.591422459357e-05 1.799717976933e-03 0.0 
0.0 0.0 0.0 
-6.287729891630e-05 4.369285544200e-05 0.0 
4.369285544200e-05 1.721564066599e-03 0.0 
0.0 0.0 0.0 
-7.122219973554e-05 4.436972773085e-05 0.0 
4.436972773085e-05 1.690488468943e-03 0.0 
0.0 0.0 0.0 
7.735565851763e-05 8.484128423244e-05 0.0 
8.484128423244e-05 1.029120884982e-03 0.0 
0.0 0.0 0.0 
4.278988048978e-05 1.992282257791e-04 0.0 
1.992282257791e-04 1.282209185661e-03 0.0 
0.0 0.0 0.0 
8.642747471632e-05 8.950729280905e-05 0.0 
8.950729280905e-05 1.003147914581e-03 0.0 
0.0 0.0 0.0 
1.107154101609e-04 4.502373843719e-05 0.0 
4.502373843719e-05 7.675645644185e-04 0.0 
0.0 0.0 0.0 
-1.295004465708e-04 9.389034657559e-05 0.0 
9.389034657559e-05 1.292926965948e-03 0.0 
0.0 0.0 0.0 
8.085279286218e-05 1.523856257106e-04 0.0 
1.523856257106e-04 1.080793050565e-03 0.0 
0.0 0.0 0.0 
-9.641506661373e-05 8.406956147327e-05 0.0 
8.406956147327e-05 1.655642249408e-03 0.0 
0.0 0.0 0.0 
5.281495855614e-05 -9.839042932936e-06 0.0 
-9.839042932936e-06 3.052592996926e-04 0.0 
0.0 0.0 0.0 
1.206224927190e-04 7.457964171743e-05 0.0 
7.457964171743e-05 6.730170830185e-04 0.0 
0.0 0.0 0.0 
1.288672232242e-04 9.655677595299e-05 0.0 
9.655677595299e-05 7.534104130267e-04 0.0 
0.0 0.0 0.0 
9.824847936768e-05 1.417413140009e-04 0.0 
1.417413140009e-04 9.313166154821e-04 0.0 
0.0 0.0 0.0 
9.265008735992e-05 4.092802261918e-05 0.0 
4.092802261918e-05 3.383115458657e-04 0.0 
0.0 0.0 0.0 
1.190311570727e-04 8.356313333038e-05 0.0 
8.356313333038e-05 6.611705338542e-04 0.0 
0.0 0.0 0.0 
9.024781180766e-05 1.500225023275e-04 0.0 
1.500225023275e-04 1.003040878977e-03 0.0 
0.0 0.0 0.0 
-1.210679593274e-04 1.403412935087e-04 0.0 
1.403412935087e-04 1.320008528380e-03 0.0 
0.0 0.0 0.0 
1.141975115304e-04 2.660059718820e-05 0.0 
2.660059718820e-05 6.339569358709e-04 0.0 
0.0 0.0 0.0 
-9.835756991139e-05 3.952669196806e-05 0.0 
3.952669196806e-05 1.627028475532e-03 0.0 
0.0 0.0 0.0 
-7.924883256716e-05 8.887188305560e-06 0.0 
8.887188305560e-06 1.451242049128e-03 0.0 
0.0 0.0 0.0 
-1.331405258439e-04 1.939133844948e-04 0.0 
1.939133844948e-04 3.158882968506e-04 0.0 
0.0 0.0 0.0 
1.058542828969e-04 3.356328321360e-05 0.0 
3.356328321360e-05 7.444441888955e-04 0.0 
0.0 0.0 0.0 
9.687867980857e-05 1.426719464381e-04 0.0 
1.426719464381e-04 1.027767316268e-03 0.0 
0.0 0.0 0.0 
-5.721040696982e-05 1.428720802562e-04 0.0 
1.428720802562e-04 1.770936030284e-03 0.0 
0.0 0.0 0.0 
1.200146781373e-04 1.341377718561e-04 0.0 
1.341377718561e-04 7.905082680026e-04 0.0 
0.0 0.0 0.0 
1.139448828182e-04 3.585930750760e-05 0.0 
3.585930750760e-05 6.999155526843e-04 0.0 
0.0 0.0 0.0 
-8.836357961384e-05 2.951432240870e-05 0.0 
2.951432240870e-05 1.634253581311e-03 0.0 
0.0 0.0 0.0 
-1.263307153792e-04 2.004401292172e-04 0.0 
2.004401292172e-04 5.180739134258e-04 0.0 
0.0 0.0 0.0 
9.863059728121e-05 1.496765687981e-04 0.0 
1.496765687981e-04 1.015808786231e-03 0.0 
0.0 0.0 0.0 
1.079366278989e-04 1.237285220793e-04 0.0 
1.237285220793e-04 8.649789209711e-04 0.0 
0.0 0.0 0.0 
-1.326695620009e-04 1.401780950890e-04 0.0 
1.401780950890e-04 1.369661483614e-03 0.0 
0.0 0.0 0.0 
9.075615617515e-05 6.724966636820e-05 0.0 
6.724966636820e-05 9.315561920182e-04 0.0 
0.0 0.0 0.0 
6.861234255795e-05 -1.165648157219e-05 0.0 
-1.165648157219e-05 3.190542503908e-04 0.0 
0.0 0.0 0.0 
8.592428015497e-05 8.166691371112e-05 0.0 
8.166691371112e-05 9.812868957482e-04 0.0 
0.0 0.0 0.0 
7.105025525966e-05 1.200025402335e-04 0.0 
1.200025402335e-04 1.107620367723e-03 0.0 
0.0 0.0 0.0 
9.810357341244e-05 1.569999822123e-04 0.0 
1.569999822123e-04 1.006565991079e-03 0.0 
0.0 0.0 0.0 
-7.235925868376e-05 3.751610787498e-05 0.0 
3.751610787498e-05 1.722335948526e-03 0.0 
0.0 0.0 0.0 
2.252327737873e-06 2.147125333543e-04 0.0 
2.147125333543e-04 1.359152290325e-03 0.0 
0.0 0.0 0.0 
6.304474419516e-05 1.080736344033e-04 0.0 
1.080736344033e-04 1.109164978323e-03 0.0 
0.0 0.0 0.0 
-1.129502843736e-04 1.876866928534e-04 0.0 
1.876866928534e-04 7.243326809783e-04 0.0 
0.0 0.0 0.0 
-9.028144241952e-05 3.930226916683e-05 0.0 
3.930226916683e-05 1.659510552107e-03 0.0 
0.0 0.0 0.0 
2.661803831616e-05 2.143668374827e-04 0.0 
2.143668374827e-04 1.346769165826e-03 0.0 
0.0 0.0 0.0 
-6.163090095790e-05 5.331828894415e-05 0.0 
5.331828894415e-05 1.745589048090e-03 0.0 
0.0 0.0 0.0 
1.070164010124e-04 1.491966418088e-04 0.0 
1.491966418088e-04 9.342832470742e-04 0.0 
0.0 0.0 0.0 
1.156247418346e-04 1.045449160403e-04 0.0 
1.045449160403e-04 7.223536382190e-04 0.0 
0.0 0.0 0.0 
9.978359828589e-05 1.699363473887e-05 0.0 
1.699363473887e-05 6.749378211044e-04 0.0 
0.0 0.0 0.0 
2.792008569052e-05 3.410261134749e-05 0.0 
3.410261134749e-05 2.031822283290e-04 0.0 
0.0 0.0 0.0 
-5.235479965759e-05 5.148667216648e-05 0.0 
5.148667216648e-05 1.776204120332e-03 0.0 
0.0 0.0 0.0 
5.691372410110e-05 -6.533020201824e-06 0.0 
-6.533020201824e-06 3.305389665775e-04 0.0 
0.0 0.0 0.0 
-1.228188939734e-04 1.572195062233e-04 0.0 
1.572195062233e-04 9.354325348734e-04 0.0 
0.0 0.0 0.0 
-1.132535580284e-05 2.139902246451e-04 0.0 
2.139902246451e-04 1.370935653933e-03 0.0 
0.0 0.0 0.0 
-3.427757836505e-05 4.616759024432e-05 0.0 
4.616759024432e-05 1.838087300105e-03 0.0 
0.0 0.0 0.0 
5.382472305659e-05 -2.383328954827e-05 0.0 
-2.383328954827e-05 2.816415621953e-04 0.0 
0.0 0.0 0.0 
-3.764990357036e-05 2.111947878623e-04 0.0 
2.111947878623e-04 1.225499016400e-03 0.0 
0.0 0.0 0.0 
-7.967777192985e-05 5.499169456562e-05 0.0 
5.499169456562e-05 1.682705338623e-03 0.0 
0.0 0.0 0.0 
1.012000518714e-04 1.270905467985e-05 0.0 
1.270905467985e-05 6.618658372504e-04 0.0 
0.0 0.0 0.0 
7.562109692816e-05 1.100868399134e-05 0.0 
1.100868399134e-05 3.431384414714e-04 0.0 
0.0 0.0 0.0 
6.665035958275e-05 1.951257677284e-04 0.0 
1.951257677284e-04 6.639278792415e-04 0.0 
0.0 0.0 0.0 
3.328771155742e-05 -1.862871013730e-05 0.0 
-1.862871013730e-05 2.114595301494e-04 0.0 
0.0 0.0 0.0 
6.713143628390e-05 -7.499353596543e-07 0.0 
-7.499353596543e-07 2.787299343217e-04 0.0 
0.0 0.0 0.0 
4.965692705117e-05 -1.079177732549e-05 0.0 
-1.079177732549e-05 2.446761048447e-04 0.0 
0.0 0.0 0.0 
1.143651514053e-04 1.416636478292e-04 0.0 
1.416636478292e-04 8.622711923711e-04 0.0 
0.0 0.0 0.0 
-2.196261777709e-05 1.216194893450e-04 0.0 
1.216194893450e-04 1.906199192513e-03 0.0 
0.0 0.0 0.0 
-9.880803809148e-05 7.807121371758e-05 0.0 
7.807121371758e-05 1.095433877545e-03 0.0 
0.0 0.0 0.0 
6.805058868697e-05 7.886386982045e-05 0.0 
7.886386982045e-05 1.055720210967e-03 0.0 
0.0 0.0 0.0 
1.191455608203e-04 1.315849808072e-04 0.0 
1.315849808072e-04 6.423831099669e-04 0.0 
0.0 0.0 0.0 
-1.009768457438e-04 5.155233799208e-05 0.0 
5.155233799208e-05 1.651134175290e-03 0.0 
0.0 0.0 0.0 
5.967247376537e-05 4.278751475383e-05 0.0 
4.278751475383e-05 2.619590883000e-04 0.0 
0.0 0.0 0.0 
5.232461046933e-05 1.247356383137e-04 0.0 
1.247356383137e-04 1.165974820597e-03 0.0 
0.0 0.0 0.0 
3.881383640580e-05 -3.268070497865e-05 0.0 
-3.268070497865e-05 2.467713276508e-04 0.0 
0.0 0.0 0.0 
6.786304934847e-05 -4.238257236034e-06 0.0 
-4.238257236034e-06 3.898232253456e-04 0.0 
0.0 0.0 0.0 
8.572747001989e-05 1.723882372099e-04 0.0 
1.723882372099e-04 1.072755447708e-03 0.0 
0.0 0.0 0.0 
1.182810133806e-04 4.407325101479e-05 0.0 
4.407325101479e-05 6.541017622377e-04 0.0 
0.0 0.0 0.0 
4.012381714591e-05 2.027176543228e-04 0.0 
2.027176543228e-04 1.281380741442e-03 0.0 
0.0 0.0 0.0 
2.743652196324e-06 2.201336814169e-04 0.0 
2.201336814169e-04 8.880510199272e-04 0.0 
0.0 0.0 0.0 
-1.011482729594e-04 8.007057918899e-05 0.0 
8.007057918899e-05 1.690612714280e-03 0.0 
0.0 0.0 0.0 
5.111115846756e-05 2.061213686936e-04 0.0 
2.061213686936e-04 1.284470942893e-03 0.0 
0.0 0.0 0.0 
-7.929066320367e-05 4.451456707577e-05 0.0 
4.451456707577e-05 1.658901349750e-03 0.0 
0.0 0.0 0.0 
-6.935516851025e-05 1.418474425462e-04 0.0 
1.418474425462e-04 1.771158125757e-03 0.0 
0.0 0.0 0.0 
-8.162617947149e-05 6.113720397218e-05 0.0 
6.113720397218e-05 1.737075355977e-03 0.0 
0.0 0.0 0.0 
-7.999156143568e-05 7.421452798268e-05 0.0 
7.421452798268e-05 1.757114016810e-03 0.0 
0.0 0.0 0.0 
7.066961590918e-05 1.123791611796e-04 0.0 
1.123791611796e-04 3.670737817298e-04 0.0 
0.0 0.0 0.0 
7.471616481647e-05 6.588388756022e-05 0.0 
6.588388756022e-05 1.007654837616e-03 0.0 
0.0 0.0 0.0 
-7.926655425172e-05 6.691759059966e-05 0.0 
6.691759059966e-05 1.704521847874e-03 0.0 
0.0 0.0 0.0 
9.246572156685e-05 1.760560911587e-04 0.0 
1.760560911587e-04 8.564362048367e-04 0.0 
0.0 0.0 0.0 
-1.068877048123e-04 5.248165089205e-05 0.0 
5.248165089205e-05 1.175997382367e-03 0.0 
0.0 0.0 0.0 
3.025638393761e-05 2.114207935792e-04 0.0 
2.114207935792e-04 1.350589994921e-03 0.0 
0.0 0.0 0.0 
9.592119525226e-05 7.816351308389e-05 0.0 
7.816351308389e-05 3.748204810348e-04 0.0 
0.0 0.0 0.0 
6.038983934498e-05 -1.843235156150e-05 0.0 
-1.843235156150e-05 3.640067055226e-04 0.0 
0.0 0.0 0.0 
5.908541035970e-05 2.003228614704e-04 0.0 
2.003228614704e-04 1.210387889678e-03 0.0 
0.0 0.0 0.0 
3.205474418322e-05 -7.599635043838e-06 0.0 
-7.599635043838e-06 2.166143449738e-04 0.0 
0.0 0.0 0.0 
2.680788696763e-05 2.066348916868e-04 0.0 
2.066348916868e-04 1.041930403184e-03 0.0 
0.0 0.0 0.0 
8.731636906645e-05 1.652590935557e-04 0.0 
1.652590935557e-04 1.079045174917e-03 0.0 
0.0 0.0 0.0 
-6.405033687074e-05 8.438400540546e-05 0.0 
8.438400540546e-05 1.806019697153e-03 0.0 
0.0 0.0 0.0 
-5.901609758130e-05 9.997590758242e-05 0.0 
9.997590758242e-05 1.822629856152e-03 0.0 
0.0 0.0 0.0 
8.044333662083e-05 1.587262636044e-04 0.0 
1.587262636044e-04 1.074772325226e-03 0.0 
0.0 0.0 0.0 
-7.052621349124e-05 5.883029295971e-05 0.0 
5.883029295971e-05 1.768534231421e-03 0.0 
0.0 0.0 0.0 
1.098651059148e-04 1.530503763780e-04 0.0 
1.530503763780e-04 7.118505716854e-04 0.0 
0.0 0.0 0.0 
-4.027425231368e-05 2.091024423251e-04 0.0 
2.091024423251e-04 1.454106902311e-03 0.0 
0.0 0.0 0.0 
-1.140361292092e-04 3.984729010683e-05 0.0 
3.984729010683e-05 1.245074684159e-03 0.0 
0.0 0.0 0.0 
-5.313530413387e-05 1.839541819987e-04 0.0 
1.839541819987e-04 1.686175927437e-03 0.0 
0.0 0.0 0.0 
-1.174789626905e-04 3.352370107889e-05 0.0 
3.352370107889e-05 1.312669329352e-03 0.0 
0.0 0.0 0.0 
-1.147494286440e-04 3.009995312255e-05 0.0 
3.009995312255e-05 1.345986366205e-03 0.0 
0.0 0.0 0.0 
1.147753037156e-04 1.458101189542e-04 0.0 
1.458101189542e-04 7.850586979772e-04 0.0 
0.0 0.0 0.0 
-1.161905440841e-04 3.122347645559e-05 0.0 
3.122347645559e-05 1.379487674190e-03 0.0 
0.0 0.0 0.0 
4.129446729384e-05 1.981150650641e-04 0.0 
1.981150650641e-04 1.087777891675e-03 0.0 
0.0 0.0 0.0 
6.638628046174e-05 1.834752798723e-04 0.0 
1.834752798723e-04 8.767965567307e-04 0.0 
0.0 0.0 0.0 
1.182491220491e-04 9.437562946557e-05 0.0 
9.437562946557e-05 7.310815625090e-04 0.0 
0.0 0.0 0.0 
7.747861452900e-05 2.039279980422e-05 0.0 
2.039279980422e-05 2.953711731377e-04 0.0 
0.0 0.0 0.0 
1.238236854544e-04 1.263021716867e-04 0.0 
1.263021716867e-04 7.190039382636e-04 0.0 
0.0 0.0 0.0 
-4.947427549695e-05 6.190664254066e-05 0.0 
6.190664254066e-05 1.798969995326e-03 0.0 
0.0 0.0 0.0 
-5.549254311610e-05 1.676668178831e-04 0.0 
1.676668178831e-04 1.739180623078e-03 0.0 
0.0 0.0 0.0 
8.772516910427e-05 5.871363472095e-05 0.0 
5.871363472095e-05 9.348965003406e-04 0.0 
0.0 0.0 0.0 
4.929633662099e-05 2.092646269692e-04 0.0 
2.092646269692e-04 1.280679101151e-03 0.0 
0.0 0.0 0.0 
1.303072457728e-04 6.221712014837e-05 0.0 
6.221712014837e-05 6.511959877984e-04 0.0 
0.0 0.0 0.0 
-6.729529181093e-05 7.841433000101e-05 0.0 
7.841433000101e-05 1.756561487576e-03 0.0 
0.0 0.0 0.0 
1.273553336820e-04 1.150457659955e-04 0.0 
1.150457659955e-04 7.279413183616e-04 0.0 
0.0 0.0 0.0 
6.630264760865e-05 6.142295878760e-05 0.0 
6.142295878760e-05 1.035923739541e-03 0.0 
0.0 0.0 0.0 
-6.950555318741e-05 6.579674127547e-05 0.0 
6.579674127547e-05 1.736485211632e-03 0.0 
0.0 0.0 0.0 
-9.099711067606e-05 7.713636125626e-05 0.0 
7.713636125626e-05 1.724200419472e-03 0.0 
0.0 0.0 0.0 
1.087320096840e-04 1.407620754868e-04 0.0 
1.407620754868e-04 9.428585343074e-04 0.0 
0.0 0.0 0.0 
1.180176368951e-04 1.390284265370e-04 0.0 
1.390284265370e-04 7.134982115529e-04 0.0 
0.0 0.0 0.0 
-3.425686573322e-05 2.142666591251e-04 0.0 
2.142666591251e-04 1.507016414479e-03 0.0 
0.0 0.0 0.0 
-9.665720561114e-05 1.669480489597e-04 0.0 
1.669480489597e-04 1.446201221835e-03 0.0 
0.0 0.0 0.0 
6.159901977809e-05 -7.579292012119e-06 0.0 
-7.579292012119e-06 2.999352757356e-04 0.0 
0.0 0.0 0.0 
8.018075539140e-05 4.460032311770e-05 0.0 
4.460032311770e-05 3.802959162695e-04 0.0 
0.0 0.0 0.0 
2.305134628799e-05 2.213883766657e-04 0.0 
2.213883766657e-04 8.523738334680e-04 0.0 
0.0 0.0 0.0 
-4.419006307954e-05 2.105736947031e-04 0.0 
2.105736947031e-04 1.225617692449e-03 0.0 
0.0 0.0 0.0 
5.741425693828e-05 5.619472232965e-05 0.0 
5.619472232965e-05 1.065610449528e-03 0.0 
0.0 0.0 0.0 
-9.205577946658e-05 6.313424507323e-05 0.0 
6.313424507323e-05 1.705016373198e-03 0.0 
0.0 0.0 0.0 
1.110198366996e-04 1.162564457288e-04 0.0 
1.162564457288e-04 7.170237869580e-04 0.0 
0.0 0.0 0.0 
-5.073033260228e-05 2.043493570874e-04 0.0 
2.043493570874e-04 1.349787499578e-03 0.0 
0.0 0.0 0.0 
8.660846270092e-05 1.598194012084e-04 0.0 
1.598194012084e-04 1.090094383817e-03 0.0 
0.0 0.0 0.0 
-6.162104290108e-05 4.543894864580e-05 0.0 
4.543894864580e-05 1.776979574251e-03 0.0 
0.0 0.0 0.0 
-4.150121039015e-05 2.153697737907e-04 0.0 
2.153697737907e-04 1.568615769391e-03 0.0 
0.0 0.0 0.0 
-9.587010191614e-05 5.495856908161e-05 0.0 
5.495856908161e-05 1.618096604714e-03 0.0 
0.0 0.0 0.0 
8.619279340660e-05 1.313319473091e-04 0.0 
1.313319473091e-04 1.066527634181e-03 0.0 
0.0 0.0 0.0 
1.128637021439e-04 1.143115538572e-04 0.0 
1.143115538572e-04 7.935343713483e-04 0.0 
0.0 0.0 0.0 
7.884523114798e-05 1.459836396525e-04 0.0 
1.459836396525e-04 1.091387886082e-03 0.0 
0.0 0.0 0.0 
2.013662264799e-05 2.162111706356e-04 0.0 
2.162111706356e-04 1.040536749443e-03 0.0 
0.0 0.0 0.0 
-5.616545717535e-05 6.797492644044e-05 0.0 
6.797492644044e-05 1.819603488176e-03 0.0 
0.0 0.0 0.0 
-4.417263736711e-05 2.144382832494e-04 0.0 
2.144382832494e-04 1.631839961685e-03 0.0 
0.0 0.0 0.0 
1.168726286638e-04 1.321903002970e-04 0.0 
1.321903002970e-04 8.706192868642e-04 0.0 
0.0 0.0 0.0 
8.512393842253e-05 5.329280178219e-05 0.0 
5.329280178219e-05 3.224589151918e-04 0.0 
0.0 0.0 0.0 
1.713563474159e-05 2.216372499561e-04 0.0 
2.216372499561e-04 1.348221886326e-03 0.0 
0.0 0.0 0.0 
2.492125456954e-05 2.055483614670e-04 0.0 
2.055483614670e-04 1.103372056156e-03 0.0 
0.0 0.0 0.0 
1.041866524101e-04 1.296208059263e-04 0.0 
1.296208059263e-04 7.155386370481e-04 0.0 
0.0 0.0 0.0 
1.009415719844e-04 1.329629134749e-04 0.0 
1.329629134749e-04 9.367442768544e-04 0.0 
0.0 0.0 0.0 
8.598789953607e-05 1.017565070244e-04 0.0 
1.017565070244e-04 1.012093368848e-03 0.0 
0.0 0.0 0.0 
6.886466238254e-05 2.011276254046e-05 0.0 
2.011276254046e-05 3.279397290064e-04 0.0 
0.0 0.0 0.0 
1.231076431965e-04 1.236804935972e-04 0.0 
1.236804935972e-04 7.990149112915e-04 0.0 
0.0 0.0 0.0 
-1.081410509726e-04 1.304262189976e-04 0.0 
1.304262189976e-04 1.553723826427e-03 0.0 
0.0 0.0 0.0 
5.365418530023e-05 4.440355448458e-05 0.0 
4.440355448458e-05 1.067279027130e-03 0.0 
0.0 0.0 0.0 
-9.915986184061e-05 1.491389922249e-04 0.0 
1.491389922249e-04 1.551638448601e-03 0.0 
0.0 0.0 0.0 
4.384618130793e-06 2.212596066101e-04 0.0 
2.212596066101e-04 1.358188649095e-03 0.0 
0.0 0.0 0.0 
-1.141620109806e-04 1.111299394580e-04 0.0 
1.111299394580e-04 1.551512597641e-03 0.0 
0.0 0.0 0.0 
-1.178982103114e-04 7.390599580334e-05 0.0 
7.390599580334e-05 1.533483374269e-03 0.0 
0.0 0.0 0.0 
-8.110895510061e-05 1.831088790573e-04 0.0 
1.831088790573e-04 1.432426841033e-03 0.0 
0.0 0.0 0.0 
6.223455251742e-05 1.958773161784e-04 0.0 
1.958773161784e-04 1.212762627294e-03 0.0 
0.0 0.0 0.0 
7.661377209067e-05 5.884660679008e-05 0.0 
5.884660679008e-05 9.830765280150e-04 0.0 
0.0 0.0 0.0 
-8.848260127714e-05 6.786836817617e-05 0.0 
6.786836817617e-05 1.671847630126e-03 0.0 
0.0 0.0 0.0 
-4.800711181019e-05 1.030437756603e-04 0.0 
1.030437756603e-04 1.822201920018e-03 0.0 
0.0 0.0 0.0 
-1.175234870789e-04 9.201756561263e-05 0.0 
9.201756561263e-05 1.544871856793e-03 0.0 
0.0 0.0 0.0 
1.069973430412e-04 9.583871823715e-05 0.0 
9.583871823715e-05 5.762634001161e-04 0.0 
0.0 0.0 0.0 
1.175295675226e-06 2.210893029005e-04 0.0 
2.210893029005e-04 1.418401641594e-03 0.0 
0.0 0.0 0.0 
-4.804644177991e-05 5.261006518201e-05 0.0 
5.261006518201e-05 1.830098882407e-03 0.0 
0.0 0.0 0.0 
6.055471226651e-05 2.007661798357e-04 0.0 
2.007661798357e-04 9.415778918112e-04 0.0 
0.0 0.0 0.0 
4.009630528556e-05 2.095863794016e-04 0.0 
2.095863794016e-04 1.021971769632e-03 0.0 
0.0 0.0 0.0 
1.105556881131e-04 1.065235723080e-04 0.0 
1.065235723080e-04 6.463582340666e-04 0.0 
0.0 0.0 0.0 
-8.744034723318e-05 8.205967443896e-05 0.0 
8.205967443896e-05 1.690288869852e-03 0.0 
0.0 0.0 0.0 
-5.726335161726e-05 2.168400478941e-04 0.0 
2.168400478941e-04 1.074148791879e-03 0.0 
0.0 0.0 0.0 
5.321760353172e-05 2.025071365054e-04 0.0 
2.025071365054e-04 1.075084120469e-03 0.0 
0.0 0.0 0.0 
-4.818573347809e-05 2.221986045455e-04 0.0 
2.221986045455e-04 1.073378137907e-03 0.0 
0.0 0.0 0.0 
7.250355666333e-05 1.870811065851e-04 0.0 
1.870811065851e-04 1.141077734948e-03 0.0 
0.0 0.0 0.0 
-6.488815459393e-07 2.299508288557e-04 0.0 
2.299508288557e-04 1.476519581481e-03 0.0 
0.0 0.0 0.0 
1.157210429183e-04 9.415218376365e-05 0.0 
9.415218376365e-05 6.521186179864e-04 0.0 
0.0 0.0 0.0 
1.178038961824e-05 -3.006012810695e-06 0.0 
-3.006012810695e-06 2.092888290890e-04 0.0 
0.0 0.0 0.0 
-5.232413461409e-05 1.236172965759e-04 0.0 
1.236172965759e-04 1.801355280921e-03 0.0 
0.0 0.0 0.0 
-7.993236499571e-05 2.004455811265e-04 0.0 
2.004455811265e-04 1.158187710990e-03 0.0 
0.0 0.0 0.0 
1.309168148220e-04 7.893723374683e-05 0.0 
7.893723374683e-05 7.004103801236e-04 0.0 
0.0 0.0 0.0 
1.767076969683e-05 2.307775252032e-04 0.0 
2.307775252032e-04 1.409308876472e-03 0.0 
0.0 0.0 0.0 
-1.018471825051e-04 6.518870808502e-05 0.0 
6.518870808502e-05 1.672213353712e-03 0.0 
0.0 0.0 0.0 
8.378017375876e-05 6.324686339068e-05 0.0 
6.324686339068e-05 9.567774716741e-04 0.0 
0.0 0.0 0.0 
8.257626674357e-05 1.657816862837e-04 0.0 
1.657816862837e-04 7.963863629181e-04 0.0 
0.0 0.0 0.0 
5.143974200150e-06 1.498603701155e-05 0.0 
1.498603701155e-05 1.633843430553e-04 0.0 
0.0 0.0 0.0 
4.513360504066e-05 3.759408231548e-05 0.0 
3.759408231548e-05 1.102227528551e-03 0.0 
0.0 0.0 0.0 
-2.167885362836e-05 2.149528906528e-04 0.0 
2.149528906528e-04 1.201947580439e-03 0.0 
0.0 0.0 0.0 
5.672681540037e-05 1.857940269716e-04 0.0 
1.857940269716e-04 1.141288752768e-03 0.0 
0.0 0.0 0.0 
-1.611005129221e-05 2.263208959520e-04 0.0 
2.263208959520e-04 1.496925680103e-03 0.0 
0.0 0.0 0.0 
-4.055840794892e-05 1.074517320487e-05 0.0 
1.074517320487e-05 1.176859760783e-04 0.0 
0.0 0.0 0.0 
9.167842652680e-05 7.585564632961e-05 0.0 
7.585564632961e-05 9.547796951392e-04 0.0 
0.0 0.0 0.0 
7.333063508885e-05 1.441617872260e-04 0.0 
1.441617872260e-04 5.854623075408e-04 0.0 
0.0 0.0 0.0 
-1.099316927310e-04 5.247411622228e-05 0.0 
5.247411622228e-05 1.618422192427e-03 0.0 
0.0 0.0 0.0 
1.003712965557e-04 2.153052697843e-05 0.0 
2.153052697843e-05 7.279953106589e-04 0.0 
0.0 0.0 0.0 
1.252770563638e-04 1.178658944092e-04 0.0 
1.178658944092e-04 6.481224889325e-04 0.0 
0.0 0.0 0.0 
6.151849852420e-05 4.985546924895e-05 0.0 
4.985546924895e-05 1.037735926142e-03 0.0 
0.0 0.0 0.0 
3.778407328880e-05 2.092115512894e-04 0.0 
2.092115512894e-04 1.086109241091e-03 0.0 
0.0 0.0 0.0 
1.240449676962e-04 1.089175735013e-04 0.0 
1.089175735013e-04 5.781589720615e-04 0.0 
0.0 0.0 0.0 
-3.427443033444e-05 2.094225258025e-04 0.0 
2.094225258025e-04 1.277998476310e-03 0.0 
0.0 0.0 0.0 
-1.014562834156e-05 -2.107387813041e-05 0.0 
-2.107387813041e-05 1.699782048321e-04 0.0 
0.0 0.0 0.0 
-2.763262598848e-05 2.108845446754e-04 0.0 
2.108845446754e-04 1.385857192293e-03 0.0 
0.0 0.0 0.0 
6.737127568268e-05 1.744199829626e-04 0.0 
1.744199829626e-04 1.143001918417e-03 0.0 
0.0 0.0 0.0 
-4.082601573452e-05 2.064664010685e-04 0.0 
2.064664010685e-04 1.680464862654e-03 0.0 
0.0 0.0 0.0 
-2.431323970653e-05 2.147149260242e-04 0.0 
2.147149260242e-04 1.440991367283e-03 0.0 
0.0 0.0 0.0 
9.585971928883e-05 5.782943594801e-05 0.0 
5.782943594801e-05 4.461063059717e-04 0.0 
0.0 0.0 0.0 
8.117299326793e-05 4.688038703588e-05 0.0 
4.688038703588e-05 9.367991429583e-04 0.0 
0.0 0.0 0.0 
-3.408443238762e-05 6.979201022833e-05 0.0 
6.979201022833e-05 1.850138484565e-03 0.0 
0.0 0.0 0.0 
1.613999460592e-05 2.253235351632e-04 0.0 
2.253235351632e-04 1.415392028548e-03 0.0 
0.0 0.0 0.0 
5.366916863148e-05 1.893560683739e-04 0.0 
1.893560683739e-04 1.212055347153e-03 0.0 
0.0 0.0 0.0 
9.388022672896e-05 1.509864083871e-04 0.0 
1.509864083871e-04 7.889414481150e-04 0.0 
0.0 0.0 0.0 
-3.099192124612e-05 2.091834946817e-04 0.0 
2.091834946817e-04 1.331629875860e-03 0.0 
0.0 0.0 0.0 
5.473226123742e-05 3.886380090462e-05 0.0 
3.886380090462e-05 1.049135464371e-03 0.0 
0.0 0.0 0.0 
8.696318975066e-05 -2.353794126726e-06 0.0 
-2.353794126726e-06 6.591678819940e-04 0.0 
0.0 0.0 0.0 
-1.088601828481e-05 2.180216970053e-04 0.0 
2.180216970053e-04 1.370355930185e-03 0.0 
0.0 0.0 0.0 
-8.811493585603e-05 5.509483770529e-05 0.0 
5.509483770529e-05 1.650690414475e-03 0.0 
0.0 0.0 0.0 
6.931816726907e-05 5.470691887976e-05 0.0 
5.470691887976e-05 1.009402058981e-03 0.0 
0.0 0.0 0.0 
7.858242683412e-05 7.749222621184e-05 0.0 
7.749222621184e-05 1.005054375996e-03 0.0 
0.0 0.0 0.0 
-7.145232648020e-05 -1.230500835647e-08 0.0 
-1.230500835647e-08 1.404890028634e-03 0.0 
0.0 0.0 0.0 
-7.031459757734e-05 7.722285948736e-07 0.0 
7.722285948736e-07 1.403948098617e-03 0.0 
0.0 0.0 0.0 
-1.160694685054e-04 1.278353064431e-04 0.0 
1.278353064431e-04 1.597297523456e-03 0.0 
0.0 0.0 0.0 
-1.479900478929e-05 2.150689376160e-04 0.0 
2.150689376160e-04 1.313769220768e-03 0.0 
0.0 0.0 0.0 
9.643864767095e-05 2.065705320916e-05 0.0 
2.065705320916e-05 7.545256952857e-04 0.0 
0.0 0.0 0.0 
-9.051873704413e-05 1.783469903404e-04 0.0 
1.783469903404e-04 1.490904824790e-03 0.0 
0.0 0.0 0.0 
5.695259331073e-05 2.010407646892e-04 0.0 
2.010407646892e-04 1.008242913033e-03 0.0 
0.0 0.0 0.0 
6.374332875536e-05 1.610574040927e-04 0.0 
1.610574040927e-04 1.176295496543e-03 0.0 
0.0 0.0 0.0 
9.646527799290e-05 1.722822858648e-04 0.0 
1.722822858648e-04 7.857437472152e-04 0.0 
0.0 0.0 0.0 
-2.033788233524e-05 1.065352904714e-04 0.0 
1.065352904714e-04 1.914553623227e-03 0.0 
0.0 0.0 0.0 
-1.201641298879e-04 5.917167991685e-05 0.0 
5.917167991685e-05 1.482240603850e-03 0.0 
0.0 0.0 0.0 
4.460486170665e-05 1.974257938759e-04 0.0 
1.974257938759e-04 1.023802023431e-03 0.0 
0.0 0.0 0.0 
1.092716572995e-04 3.427532993879e-05 0.0 
3.427532993879e-05 7.258821629812e-04 0.0 
0.0 0.0 0.0 
8.753341721190e-05 7.144902301838e-05 0.0 
7.144902301838e-05 4.393776798557e-04 0.0 
0.0 0.0 0.0 
1.038766199588e-04 1.279274655497e-05 0.0 
1.279274655497e-05 6.361578241774e-04 0.0 
0.0 0.0 0.0 
-1.835383744919e-05 2.142100516199e-04 0.0 
2.142100516199e-04 1.257617870160e-03 0.0 
0.0 0.0 0.0 
-6.019191270334e-05 2.022764932668e-04 0.0 
2.022764932668e-04 1.299684055178e-03 0.0 
0.0 0.0 0.0 
-9.712158442932e-05 6.887468262383e-05 0.0 
6.887468262383e-05 1.638611669112e-03 0.0 
0.0 0.0 0.0 
-7.077685122048e-05 1.891644218506e-04 0.0 
1.891644218506e-04 1.479539233519e-03 0.0 
0.0 0.0 0.0 
-8.020081607774e-05 1.841337675162e-04 0.0 
1.841337675162e-04 1.537124264225e-03 0.0 
0.0 0.0 0.0 
1.683323246460e-05 -9.087039132913e-06 0.0 
-9.087039132913e-06 1.569375575019e-04 0.0 
0.0 0.0 0.0 
1.090638674544e-04 1.728019328205e-05 0.0 
1.728019328205e-05 5.952678008896e-04 0.0 
0.0 0.0 0.0 
-7.260329602121e-05 2.116365908154e-04 0.0 
2.116365908154e-04 1.156857848049e-03 0.0 
0.0 0.0 0.0 
-9.940468384106e-05 1.571391079527e-04 0.0 
1.571391079527e-04 1.500809749589e-03 0.0 
0.0 0.0 0.0 
-1.078302635275e-04 1.541177972563e-04 0.0 
1.541177972563e-04 1.550734738497e-03 0.0 
0.0 0.0 0.0 
6.219383037109e-05 1.893547070704e-04 0.0 
1.893547070704e-04 1.215742565978e-03 0.0 
0.0 0.0 0.0 
3.757275246685e-05 5.009461940427e-06 0.0 
5.009461940427e-06 2.430386462522e-04 0.0 
0.0 0.0 0.0 
5.423726409659e-05 -8.163498270693e-07 0.0 
-8.163498270693e-07 2.826102792273e-04 0.0 
0.0 0.0 0.0 
-1.650871935044e-06 2.173768103923e-04 0.0 
2.173768103923e-04 1.122573585407e-03 0.0 
0.0 0.0 0.0 
9.930701913019e-05 3.963785487966e-06 0.0 
3.963785487966e-06 5.973310065064e-04 0.0 
0.0 0.0 0.0 
-1.298935868983e-04 3.869361722879e-05 0.0 
3.869361722879e-05 1.344378016930e-03 0.0 
0.0 0.0 0.0 
-1.278263068695e-04 3.613380860339e-05 0.0 
3.613380860339e-05 1.378861897487e-03 0.0 
0.0 0.0 0.0 
-1.106966317939e-04 6.763557214657e-05 0.0 
6.763557214657e-05 1.638803657859e-03 0.0 
0.0 0.0 0.0 
3.835847611500e-05 9.388275983098e-05 0.0 
9.388275983098e-05 3.803575801855e-04 0.0 
0.0 0.0 0.0 
1.066547478181e-04 2.499066846674e-05 0.0 
2.499066846674e-05 6.863132834467e-04 0.0 
0.0 0.0 0.0 
8.837515033400e-05 1.294093295659e-04 0.0 
1.294093295659e-04 1.029828953325e-03 0.0 
0.0 0.0 0.0 
7.048877065996e-05 3.079553307792e-05 0.0 
3.079553307792e-05 2.756399199633e-04 0.0 
0.0 0.0 0.0 
-4.130563102445e-06 2.391880119375e-04 0.0 
2.391880119375e-04 1.583487894770e-03 0.0 
0.0 0.0 0.0 
-6.798091645344e-05 7.122282659150e-05 0.0 
7.122282659150e-05 1.788187899010e-03 0.0 
0.0 0.0 0.0 
9.546369682623e-05 5.367293752753e-06 0.0 
5.367293752753e-06 6.499181013055e-04 0.0 
0.0 0.0 0.0 
7.993754628699e-05 5.476829639589e-05 0.0 
5.476829639589e-05 9.626643593463e-04 0.0 
0.0 0.0 0.0 
1.494604262398e-05 -1.150167664135e-05 0.0 
-1.150167664135e-05 1.084101852300e-04 0.0 
0.0 0.0 0.0 
9.641560421980e-05 1.118449071070e-04 0.0 
1.118449071070e-04 9.716419215919e-04 0.0 
0.0 0.0 0.0 
-1.528898125169e-05 2.120255042780e-04 0.0 
2.120255042780e-04 1.202341348705e-03 0.0 
0.0 0.0 0.0 
1.630451698786e-05 -8.475187531299e-06 0.0 
-8.475187531299e-06 1.070787051263e-04 0.0 
0.0 0.0 0.0 
-5.644829717888e-05 7.581112930463e-05 0.0 
7.581112930463e-05 1.787756507270e-03 0.0 
0.0 0.0 0.0 
4.216512844635e-05 8.052667839079e-06 0.0 
8.052667839079e-06 2.677722271245e-04 0.0 
0.0 0.0 0.0 
-1.056327120846e-04 1.629793671290e-04 0.0 
1.629793671290e-04 1.499953829093e-03 0.0 
0.0 0.0 0.0 
-5.597086049391e-05 2.047529130921e-04 0.0 
2.047529130921e-04 1.299331332242e-03 0.0 
0.0 0.0 0.0 
1.207579223470e-04 6.692500574697e-05 0.0 
6.692500574697e-05 6.870506342989e-04 0.0 
0.0 0.0 0.0 
1.208170461899e-04 7.893751944932e-05 0.0 
7.893751944932e-05 8.106389032554e-04 0.0 
0.0 0.0 0.0 
-5.307560751078e-05 8.871237170883e-05 0.0 
8.871237170883e-05 1.805742983756e-03 0.0 
0.0 0.0 0.0 
1.129623884601e-04 8.946507994647e-05 0.0 
8.946507994647e-05 8.826091096112e-04 0.0 
0.0 0.0 0.0 
1.929879117024e-05 2.142485651476e-04 0.0 
2.142485651476e-04 1.102086348673e-03 0.0 
0.0 0.0 0.0 
5.419625960901e-06 2.113048996840e-04 0.0 
2.113048996840e-04 1.123429816236e-03 0.0 
0.0 0.0 0.0 
-1.272159266841e-04 1.780016328626e-04 0.0 
1.780016328626e-04 2.204500437386e-04 0.0 
0.0 0.0 0.0 
4.076862719993e-05 2.119654423549e-05 0.0 
2.119654423549e-05 2.198372269617e-04 0.0 
0.0 0.0 0.0 
-1.004343817190e-05 2.193024381393e-04 0.0 
2.193024381393e-04 1.427339280516e-03 0.0 
0.0 0.0 0.0 
-1.259096576993e-04 7.307181336129e-05 0.0 
7.307181336129e-05 1.569088872210e-03 0.0 
0.0 0.0 0.0 
5.762864484282e-06 2.281852156119e-04 0.0 
2.281852156119e-04 1.417076039246e-03 0.0 
0.0 0.0 0.0 
8.086971214305e-05 1.741097063684e-04 0.0 
1.741097063684e-04 5.808833649721e-04 0.0 
0.0 0.0 0.0 
-8.276746112157e-05 1.342074879633e-04 0.0 
1.342074879633e-04 1.686931350765e-03 0.0 
0.0 0.0 0.0 
-2.083367915029e-05 2.218978323831e-04 0.0 
2.218978323831e-04 1.497254146952e-03 0.0 
0.0 0.0 0.0 
-1.224028122517e-04 4.648793036038e-05 0.0 
4.648793036038e-05 1.397920283691e-03 0.0 
0.0 0.0 0.0 
-7.380075947805e-06 2.224022565248e-04 0.0 
2.224022565248e-04 1.426778862786e-03 0.0 
0.0 0.0 0.0 
7.431215434650e-05 4.309181865262e-05 0.0 
4.309181865262e-05 9.645464994923e-04 0.0 
0.0 0.0 0.0 
1.038630075056e-06 2.153501902458e-04 0.0 
2.153501902458e-04 1.239507432572e-03 0.0 
0.0 0.0 0.0 
1.106149212862e-04 2.578672664080e-05 0.0 
2.578672664080e-05 6.598110836173e-04 0.0 
0.0 0.0 0.0 
1.040546416682e-04 2.232330367601e-05 0.0 
2.232330367601e-05 7.020418479620e-04 0.0 
0.0 0.0 0.0 
-6.637152945932e-05 1.216167911064e-04 0.0 
1.216167911064e-04 1.802286527081e-03 0.0 
0.0 0.0 0.0 
1.258094766261e-04 6.823646425904e-05 0.0 
6.823646425904e-05 7.405594891225e-04 0.0 
0.0 0.0 0.0 
-3.904542876965e-05 2.100682310738e-04 0.0 
2.100682310738e-04 1.277932535218e-03 0.0 
0.0 0.0 0.0 
8.770482984488e-05 1.797994728924e-04 0.0 
1.797994728924e-04 9.272437017878e-04 0.0 
0.0 0.0 0.0 
1.015051263475e-04 9.966451057904e-05 0.0 
9.966451057904e-05 9.565059676973e-04 0.0 
0.0 0.0 0.0 
6.332727493397e-05 1.854343001315e-04 0.0 
1.854343001315e-04 9.437996220352e-04 0.0 
0.0 0.0 0.0 
1.163940365561e-04 7.524715876451e-05 0.0 
7.524715876451e-05 4.526087297683e-04 0.0 
0.0 0.0 0.0 
1.242466876479e-04 1.145219559195e-04 0.0 
1.145219559195e-04 8.102158023866e-04 0.0 
0.0 0.0 0.0 
1.193031270459e-04 9.917850989366e-05 0.0 
9.917850989366e-05 5.090829081615e-04 0.0 
0.0 0.0 0.0 
-8.609894382516e-05 1.746402487571e-04 0.0 
1.746402487571e-04 1.491410903345e-03 0.0 
0.0 0.0 0.0 
1.065088875778e-04 7.071860002869e-05 0.0 
7.071860002869e-05 5.135809021817e-04 0.0 
0.0 0.0 0.0 
-8.272655603692e-05 1.875258921875e-04 0.0 
1.875258921875e-04 1.431834495479e-03 0.0 
0.0 0.0 0.0 
5.554857588486e-05 1.841999817219e-04 0.0 
1.841999817219e-04 1.214598826533e-03 0.0 
0.0 0.0 0.0 
7.490984493597e-05 1.805820328806e-04 0.0 
1.805820328806e-04 1.144859889969e-03 0.0 
0.0 0.0 0.0 
7.973189677490e-05 1.883686479648e-04 0.0 
1.883686479648e-04 8.626284141784e-04 0.0 
0.0 0.0 0.0 
-1.042675475267e-04 6.996074860180e-05 0.0 
6.996074860180e-05 1.604155143508e-03 0.0 
0.0 0.0 0.0 
7.178283085341e-05 5.027122990108e-05 0.0 
5.027122990108e-05 9.913229405305e-04 0.0 
0.0 0.0 0.0 
6.736724765122e-05 3.878809047846e-05 0.0 
3.878809047846e-05 9.931958545202e-04 0.0 
0.0 0.0 0.0 
8.064067096081e-06 8.488363772764e-05 0.0 
8.488363772764e-05 3.213479178277e-04 0.0 
0.0 0.0 0.0 
-6.370020131674e-05 1.962895853986e-04 0.0 
1.962895853986e-04 1.416939334743e-03 0.0 
0.0 0.0 0.0 
4.815362523680e-05 5.139163517909e-05 0.0 
5.139163517909e-05 1.099051654965e-03 0.0 
0.0 0.0 0.0 
-1.100419219346e-04 1.576822343912e-04 0.0 
1.576822343912e-04 1.122726034970e-03 0.0 
0.0 0.0 0.0 
9.514835983215e-05 1.242246976384e-05 0.0 
1.242246976384e-05 7.147728744210e-04 0.0 
0.0 0.0 0.0 
-1.119856447649e-04 1.392401350118e-04 0.0 
1.392401350118e-04 3.135174701328e-04 0.0 
0.0 0.0 0.0 
6.363117079844e-05 4.523351790267e-05 0.0 
4.523351790267e-05 1.020563319714e-03 0.0 
0.0 0.0 0.0 
1.103031074849e-04 8.873648250068e-05 0.0 
8.873648250068e-05 4.412498957183e-04 0.0 
0.0 0.0 0.0 
8.852378897717e-05 5.966170399360e-06 0.0 
5.966170399360e-06 6.791900060186e-04 0.0 
0.0 0.0 0.0 
6.076541504352e-05 1.999071135427e-04 0.0 
1.999071135427e-04 1.139589134032e-03 0.0 
0.0 0.0 0.0 
-1.189793029727e-04 6.984653538019e-05 0.0 
6.984653538019e-05 1.604231995291e-03 0.0 
0.0 0.0 0.0 
-1.122912167580e-04 7.194845154861e-05 0.0 
7.194845154861e-05 1.569177424151e-03 0.0 
0.0 0.0 0.0 
-4.946772568237e-07 2.156892428516e-04 0.0 
2.156892428516e-04 1.181063935593e-03 0.0 
0.0 0.0 0.0 
-1.308951493800e-04 5.016518388223e-05 0.0 
5.016518388223e-05 1.275589403097e-03 0.0 
0.0 0.0 0.0 
-1.298774626722e-04 4.503114164300e-05 0.0 
4.503114164300e-05 1.310928725741e-03 0.0 
0.0 0.0 0.0 
6.048758122490e-05 3.398736172199e-05 0.0 
3.398736172199e-05 1.022430498428e-03 0.0 
0.0 0.0 0.0 
1.073484051834e-04 7.861809827319e-05 0.0 
7.861809827319e-05 8.628909555843e-04 0.0 
0.0 0.0 0.0 
1.188269735044e-04 7.851349279383e-05 0.0 
7.851349279383e-05 7.564562918310e-04 0.0 
0.0 0.0 0.0 
1.057715438761e-04 1.270221499883e-04 0.0 
1.270221499883e-04 9.697144077931e-04 0.0 
0.0 0.0 0.0 
1.289510305376e-04 1.051622354842e-04 0.0 
1.051622354842e-04 7.396473928898e-04 0.0 
0.0 0.0 0.0 
9.966916973325e-05 8.409249583614e-05 0.0 
8.409249583614e-05 5.070602020441e-04 0.0 
0.0 0.0 0.0 
-1.129603406591e-04 3.370359213715e-05 0.0 
3.370359213715e-05 1.279116694958e-03 0.0 
0.0 0.0 0.0 
-1.294615633284e-04 5.990327517776e-05 0.0 
5.990327517776e-05 1.517217596325e-03 0.0 
0.0 0.0 0.0 
-7.184482521871e-05 1.178755815833e-07 0.0 
1.178755815833e-07 1.405192928180e-03 0.0 
0.0 0.0 0.0 
6.869831754464e-05 1.685718292479e-04 0.0 
1.685718292479e-04 1.146592243536e-03 0.0 
0.0 0.0 0.0 
8.002125980289e-05 1.698104736558e-04 0.0 
1.698104736558e-04 8.653163791121e-04 0.0 
0.0 0.0 0.0 
3.992184480284e-05 2.202444461680e-04 0.0 
2.202444461680e-04 1.348753529691e-03 0.0 
0.0 0.0 0.0 
6.047249732255e-05 1.909038537377e-05 0.0 
1.909038537377e-05 9.992200273174e-04 0.0 
0.0 0.0 0.0 
1.149873283910e-04 1.049542130070e-04 0.0 
1.049542130070e-04 8.020158309310e-04 0.0 
0.0 0.0 0.0 
3.423676196190e-05 4.882976899154e-05 0.0 
4.882976899154e-05 1.147290168755e-03 0.0 
0.0 0.0 0.0 
1.112675154908e-04 5.956053024952e-05 0.0 
5.956053024952e-05 5.241629077035e-04 0.0 
0.0 0.0 0.0 
3.710444270588e-05 2.219649834745e-04 0.0 
2.219649834745e-04 1.346317273701e-03 0.0 
0.0 0.0 0.0 
5.000417827805e-06 2.097008134789e-04 0.0 
2.097008134789e-04 1.181933881396e-03 0.0 
0.0 0.0 0.0 
1.836222337492e-05 2.139471980798e-04 0.0 
2.139471980798e-04 1.224047011890e-03 0.0 
0.0 0.0 0.0 
6.860711988321e-05 1.353633526548e-04 0.0 
1.353633526548e-04 1.124787681267e-03 0.0 
0.0 0.0 0.0 
9.515579011476e-05 -6.581461140432e-06 0.0 
-6.581461140432e-06 4.858032452790e-04 0.0 
0.0 0.0 0.0 
-5.316440495773e-05 2.038186652437e-04 0.0 
2.038186652437e-04 1.349855934550e-03 0.0 
0.0 0.0 0.0 
1.193107391280e-04 8.585769316685e-05 0.0 
8.585769316685e-05 7.426438722788e-04 0.0 
0.0 0.0 0.0 
-7.107859949707e-05 1.966057562996e-04 0.0 
1.966057562996e-04 1.367894190122e-03 0.0 
0.0 0.0 0.0 
6.358802339679e-05 1.695065229044e-04 0.0 
1.695065229044e-04 6.676898472153e-04 0.0 
0.0 0.0 0.0 
3.383747014496e-05 2.128047851738e-04 0.0 
2.128047851738e-04 1.214472244376e-03 0.0 
0.0 0.0 0.0 
1.318242441553e-04 8.648376959332e-05 0.0 
8.648376959332e-05 6.838537645315e-04 0.0 
0.0 0.0 0.0 
1.042626635019e-04 3.271349234612e-05 0.0 
3.271349234612e-05 7.524712706779e-04 0.0 
0.0 0.0 0.0 
-7.258537306898e-05 1.925258286318e-04 0.0 
1.925258286318e-04 1.368445998606e-03 0.0 
0.0 0.0 0.0 
-7.684611564540e-05 8.099665185312e-05 0.0 
8.099665185312e-05 1.971541935055e-04 0.0 
0.0 0.0 0.0 
8.216212922507e-05 1.838500609741e-04 0.0 
1.838500609741e-04 9.980799169447e-04 0.0 
0.0 0.0 0.0 
-6.023785771769e-05 1.298912748646e-04 0.0 
1.298912748646e-04 3.638190877691e-04 0.0 
0.0 0.0 0.0 
1.878951929091e-05 -1.222500982724e-05 0.0 
-1.222500982724e-05 1.707796642045e-04 0.0 
0.0 0.0 0.0 
1.024087165833e-04 2.402117342180e-05 0.0 
2.402117342180e-05 7.126858959223e-04 0.0 
0.0 0.0 0.0 
-4.954741194785e-05 2.061960054225e-04 0.0 
2.061960054225e-04 1.518093941271e-03 0.0 
0.0 0.0 0.0 
-1.116839311298e-04 8.806085923976e-05 0.0 
8.806085923976e-05 1.582496195523e-03 0.0 
0.0 0.0 0.0 
-1.302516279795e-04 7.107505563948e-05 0.0 
7.107505563948e-05 1.203602589910e-03 0.0 
0.0 0.0 0.0 
0.0 1.104828837132e-04 0.0 
1.104828837132e-04 1.911512689252e-03 0.0 
0.0 0.0 0.0 
-1.218248494549e-04 1.519044768574e-04 0.0 
1.519044768574e-04 1.303797629371e-04 0.0 
0.0 0.0 0.0 
-1.287298164883e-04 6.117771257814e-05 0.0 
6.117771257814e-05 1.241641399897e-03 0.0 
0.0 0.0 0.0 
1.272983238259e-04 8.913465713088e-05 0.0 
8.913465713088e-05 7.693752677251e-04 0.0 
0.0 0.0 0.0 
9.314785263737e-05 5.674180160662e-06 0.0 
5.674180160662e-06 6.768320691213e-04 0.0 
0.0 0.0 0.0 
-1.432434274793e-04 1.009191919754e-04 0.0 
1.009191919754e-04 1.330099945505e-03 0.0 
0.0 0.0 0.0 
1.241260845983e-04 4.651112634337e-05 0.0 
4.651112634337e-05 5.014289603364e-04 0.0 
0.0 0.0 0.0 
1.138444229678e-04 6.723401884920e-05 0.0 
6.723401884920e-05 7.912156323477e-04 0.0 
0.0 0.0 0.0 
-1.397147181104e-05 2.107912557419e-04 0.0 
2.107912557419e-04 1.258105438986e-03 0.0 
0.0 0.0 0.0 
7.565250977049e-05 1.886521260262e-04 0.0 
1.886521260262e-04 1.069149844553e-03 0.0 
0.0 0.0 0.0 
-5.791250681164e-05 1.877538533526e-04 0.0 
1.877538533526e-04 1.637813486194e-03 0.0 
0.0 0.0 0.0 
4.398659896365e-05 1.048907478553e-04 0.0 
1.048907478553e-04 3.048389613278e-04 0.0 
0.0 0.0 0.0 
1.031253470936e-04 1.718894524510e-05 0.0 
1.718894524510e-05 6.480443674657e-04 0.0 
0.0 0.0 0.0 
9.631669998011e-05 1.660717571488e-05 0.0 
1.660717571488e-05 7.024165599552e-04 0.0 
0.0 0.0 0.0 
6.579466616641e-05 -2.639382386961e-05 0.0 
-2.639382386961e-05 3.551193315174e-04 0.0 
0.0 0.0 0.0 
-1.207917457438e-04 4.577406119014e-05 0.0 
4.577406119014e-05 1.432542765949e-03 0.0 
0.0 0.0 0.0 
-1.252833657439e-04 9.067996965464e-05 0.0 
9.067996965464e-05 1.582195826282e-03 0.0 
0.0 0.0 0.0 
7.343440795826e-05 -5.929283409224e-07 0.0 
-5.929283409224e-07 8.930784078620e-04 0.0 
0.0 0.0 0.0 
6.677602207850e-06 -9.302539124900e-06 0.0 
-9.302539124900e-06 1.090652686171e-04 0.0 
0.0 0.0 0.0 
-7.116271325192e-05 -1.822068836290e-05 0.0 
-1.822068836290e-05 1.019957903703e-04 0.0 
0.0 0.0 0.0 
3.520965781467e-05 -3.333781043041e-05 0.0 
-3.333781043041e-05 2.450291570117e-04 0.0 
0.0 0.0 0.0 
9.086021275251e-05 5.661059564973e-06 0.0 
5.661059564973e-06 7.042415929228e-04 0.0 
0.0 0.0 0.0 
1.168374137559e-04 7.202402122202e-05 0.0 
7.202402122202e-05 5.922809556880e-04 0.0 
0.0 0.0 0.0 
1.090397256334e-04 3.049888534381e-05 0.0 
3.049888534381e-05 4.874029097772e-04 0.0 
0.0 0.0 0.0 
1.019341198254e-04 4.643518379131e-05 0.0 
4.643518379131e-05 4.569974693607e-04 0.0 
0.0 0.0 0.0 
9.801735913295e-05 2.300589325940e-05 0.0 
2.300589325940e-05 7.398915021026e-04 0.0 
0.0 0.0 0.0 
-1.035806032978e-04 1.243842267978e-04 0.0 
1.243842267978e-04 1.597851436756e-03 0.0 
0.0 0.0 0.0 
9.276668579261e-05 1.579520435079e-05 0.0 
1.579520435079e-05 7.303035973274e-04 0.0 
0.0 0.0 0.0 
1.283799538636e-04 9.632404049026e-05 0.0 
9.632404049026e-05 5.882332212017e-04 0.0 
0.0 0.0 0.0 
-6.433856017118e-05 1.980229580777e-04 0.0 
1.980229580777e-04 1.416716463752e-03 0.0 
0.0 0.0 0.0 
-9.320563400561e-05 2.357761384873e-05 0.0 
2.357761384873e-05 1.508628871977e-03 0.0 
0.0 0.0 0.0 
5.368382542259e-05 2.051164963458e-04 0.0 
2.051164963458e-04 1.210736422218e-03 0.0 
0.0 0.0 0.0 
8.851055621828e-05 5.077829724635e-06 0.0 
5.077829724635e-06 7.321254415547e-04 0.0 
0.0 0.0 0.0 
9.187465296367e-05 1.181764356493e-05 0.0 
1.181764356493e-05 7.418992735908e-04 0.0 
0.0 0.0 0.0 
-1.347134962817e-04 1.053145015651e-04 0.0 
1.053145015651e-04 1.132102966968e-03 0.0 
0.0 0.0 0.0 
1.191145381794e-04 6.290163639056e-05 0.0 
6.290163639056e-05 6.046310313648e-04 0.0 
0.0 0.0 0.0 
8.917998083868e-05 1.428508641167e-05 0.0 
1.428508641167e-05 7.582214566797e-04 0.0 
0.0 0.0 0.0 
-5.879513784168e-05 5.950618661064e-06 0.0 
5.950618661064e-06 1.627387367685e-03 0.0 
0.0 0.0 0.0 
-6.391794606908e-05 5.555401071612e-06 0.0 
5.555401071612e-06 1.571540167298e-03 0.0 
0.0 0.0 0.0 
-1.302371782169e-04 8.787253659467e-05 0.0 
8.787253659467e-05 1.169541531503e-03 0.0 
0.0 0.0 0.0 
9.355192767679e-05 2.172987899379e-05 0.0 
2.172987899379e-05 7.677809941296e-04 0.0 
0.0 0.0 0.0 
1.025590094523e-04 8.418857370617e-06 0.0 
8.418857370617e-06 4.606839631232e-04 0.0 
0.0 0.0 0.0 
-1.242527973089e-05 1.756995910233e-04 0.0 
1.756995910233e-04 4.216306055003e-04 0.0 
0.0 0.0 0.0 
3.034115551870e-05 2.125129328626e-04 0.0 
2.125129328626e-04 1.348539095314e-03 0.0 
0.0 0.0 0.0 
3.453374277074e-05 -2.095485504022e-05 0.0 
-2.095485504022e-05 2.218479122988e-04 0.0 
0.0 0.0 0.0 
1.166267177306e-04 2.501369198027e-05 0.0 
2.501369198027e-05 4.786472874090e-04 0.0 
0.0 0.0 0.0 
7.061742150083e-05 1.768996068208e-04 0.0 
1.768996068208e-04 1.002837571632e-03 0.0 
0.0 0.0 0.0 
-1.068156096765e-04 4.206222006706e-05 0.0 
4.206222006706e-05 1.211902240088e-03 0.0 
0.0 0.0 0.0 
8.627001442996e-05 3.725159126912e-06 0.0 
3.725159126912e-06 7.608925270288e-04 0.0 
0.0 0.0 0.0 
5.331915583118e-05 -7.937685841530e-06 0.0 
-7.937685841530e-06 3.309190867244e-04 0.0 
0.0 0.0 0.0 
-1.294034672403e-04 4.454622884552e-05 0.0 
4.454622884552e-05 1.460824355400e-03 0.0 
0.0 0.0 0.0 
8.849561991409e-05 1.085400834789e-05 0.0 
1.085400834789e-05 7.697193933356e-04 0.0 
0.0 0.0 0.0 
1.196713948128e-04 6.093648305435e-05 0.0 
6.093648305435e-05 7.035140555978e-04 0.0 
0.0 0.0 0.0 
9.832299154544e-05 1.272894882643e-05 0.0 
1.272894882643e-05 6.883457644191e-04 0.0 
0.0 0.0 0.0 
-5.761381604397e-05 4.704404490805e-05 0.0 
4.704404490805e-05 1.745824659718e-04 0.0 
0.0 0.0 0.0 
-3.881425398355e-05 2.231993080038e-07 0.0 
2.231993080038e-07 1.797401341378e-03 0.0 
0.0 0.0 0.0 
1.166830875916e-04 3.719717558822e-05 0.0 
3.719717558822e-05 5.695274213939e-04 0.0 
0.0 0.0 0.0 
7.198084958993e-05 1.722650151272e-04 0.0 
1.722650151272e-04 1.168690302277e-03 0.0 
0.0 0.0 0.0 
1.989376451084e-05 2.068492574261e-04 0.0 
2.068492574261e-04 1.225348510764e-03 0.0 
0.0 0.0 0.0 
8.902000664301e-05 2.005698425905e-05 0.0 
2.005698425905e-05 7.960964529856e-04 0.0 
0.0 0.0 0.0 
8.518848655359e-05 9.521419222773e-06 0.0 
9.521419222773e-06 7.979369193867e-04 0.0 
0.0 0.0 0.0 
1.275604194622e-04 7.475157442734e-05 0.0 
7.475157442734e-05 5.333651516322e-04 0.0 
0.0 0.0 0.0 
-3.308743741548e-06 -2.036447757249e-05 0.0 
-2.036447757249e-05 1.542159385866e-04 0.0 
0.0 0.0 0.0 
-3.599509905683e-05 8.446967613221e-05 0.0 
8.446967613221e-05 1.669631576127e-04 0.0 
0.0 0.0 0.0 
8.455247061279e-05 1.756813093000e-05 0.0 
1.756813093000e-05 8.248120775949e-04 0.0 
0.0 0.0 0.0 
7.678496392960e-05 1.495727214896e-04 0.0 
1.495727214896e-04 1.125295858138e-03 0.0 
0.0 0.0 0.0 
9.427229513204e-05 -6.267474937317e-06 0.0 
-6.267474937317e-06 4.419820131973e-04 0.0 
0.0 0.0 0.0 
-4.558068197780e-05 2.063639279884e-04 0.0 
2.063639279884e-04 1.401333685271e-03 0.0 
0.0 0.0 0.0 
-9.342673176116e-05 1.811473213173e-04 0.0 
1.811473213173e-04 1.044116941056e-03 0.0 
0.0 0.0 0.0 
-7.404679497736e-05 1.912440823537e-04 0.0 
1.912440823537e-04 1.479264280425e-03 0.0 
0.0 0.0 0.0 
4.271382418941e-05 1.276158170869e-04 0.0 
1.276158170869e-04 1.227642987928e-03 0.0 
0.0 0.0 0.0 
-1.626913860973e-04 -3.437463666229e-06 0.0 
-3.437463666229e-06 8.776206827554e-05 0.0 
0.0 0.0 0.0 
0.0 9.561449903221e-06 0.0 
9.561449903221e-06 1.944235761211e-03 0.0 
0.0 0.0 0.0 
0.0 1.563120957643e-05 0.0 
1.563120957643e-05 1.242353177989e-03 0.0 
0.0 0.0 0.0 
-6.825497063012e-05 -4.653745172267e-06 0.0 
-4.653745172267e-06 1.471928749638e-03 0.0 
0.0 0.0 0.0 
1.107577450359e-04 1.754502306850e-05 0.0 
1.754502306850e-05 5.440589325658e-04 0.0 
0.0 0.0 0.0 
4.491714070243e-06 2.095885935689e-04 0.0 
2.095885935689e-04 1.240435916626e-03 0.0 
0.0 0.0 0.0 
1.128607661922e-04 8.283064148218e-05 0.0 
8.283064148218e-05 5.823943683654e-04 0.0 
0.0 0.0 0.0 
1.184607218496e-05 -2.493761703271e-05 0.0 
-2.493761703271e-05 1.486676966174e-04 0.0 
0.0 0.0 0.0 
-1.083638273974e-04 1.169939272666e-04 0.0 
1.169939272666e-04 2.201106584021e-04 0.0 
0.0 0.0 0.0 
-3.558473324516e-05 2.816995463861e-05 0.0 
2.816995463861e-05 1.843963447352e-03 0.0 
0.0 0.0 0.0 
-1.222008418701e-04 1.092460532871e-04 0.0 
1.092460532871e-04 1.592113458615e-03 0.0 
0.0 0.0 0.0 
-1.279350994150e-04 3.422449483786e-05 0.0 
3.422449483786e-05 1.415214496316e-03 0.0 
0.0 0.0 0.0 
6.202475155703e-08 2.704606438154e-04 0.0 
2.704606438154e-04 1.603525305774e-03 0.0 
0.0 0.0 0.0 
4.250427423003e-05 -8.008392302498e-06 0.0 
-8.008392302498e-06 2.743809201320e-04 0.0 
0.0 0.0 0.0 
3.790856073715e-06 2.680543015812e-04 0.0 
2.680543015812e-04 1.570056845360e-03 0.0 
0.0 0.0 0.0 
-1.089390261155e-04 1.064193497080e-04 0.0 
1.064193497080e-04 1.592499331233e-03 0.0 
0.0 0.0 0.0 
1.030918341487e-04 3.505214692415e-06 0.0 
3.505214692415e-06 5.248922778462e-04 0.0 
0.0 0.0 0.0 
1.868986008247e-05 2.133331732117e-04 0.0 
2.133331732117e-04 1.163096142129e-03 0.0 
0.0 0.0 0.0 
1.162128820158e-04 2.145033911740e-05 0.0 
2.145033911740e-05 4.996517349500e-04 0.0 
0.0 0.0 0.0 
-9.793813815717e-06 1.922715066275e-04 0.0 
1.922715066275e-04 5.119932259554e-04 0.0 
0.0 0.0 0.0 
1.071874464955e-04 9.787363967019e-06 0.0 
9.787363967019e-06 4.612627878600e-04 0.0 
0.0 0.0 0.0 
-9.565899151365e-05 1.426468730622e-04 0.0 
1.426468730622e-04 1.598983342942e-03 0.0 
0.0 0.0 0.0 
5.297028421691e-05 1.436310563533e-05 0.0 
1.436310563533e-05 1.040292859998e-03 0.0 
0.0 0.0 0.0 
1.243267710713e-04 4.009474580123e-05 0.0 
4.009474580123e-05 5.200104457179e-04 0.0 
0.0 0.0 0.0 
-5.424211617067e-05 2.012943072119e-04 0.0 
2.012943072119e-04 1.466519799707e-03 0.0 
0.0 0.0 0.0 
-1.074118937484e-04 -6.843183166984e-06 0.0 
-6.843183166984e-06 5.791168198410e-05 0.0 
0.0 0.0 0.0 
1.291086881614e-04 6.506129024710e-05 0.0 
6.506129024710e-05 5.484328343055e-04 0.0 
0.0 0.0 0.0 
-1.037865466088e-04 1.170010572322e-04 0.0 
1.170010572322e-04 1.680014012480e-03 0.0 
0.0 0.0 0.0 
9.719453295332e-05 9.733979638965e-08 0.0 
9.733979638965e-08 4.465694432600e-04 0.0 
0.0 0.0 0.0 
8.410478000198e-05 -1.612295496617e-05 0.0 
-1.612295496617e-05 4.046990031421e-04 0.0 
0.0 0.0 0.0 
2.275080793357e-05 2.054323151375e-04 0.0 
2.054323151375e-04 1.164363892050e-03 0.0 
0.0 0.0 0.0 
4.460737728396e-05 -9.032390161691e-06 0.0 
-9.032390161691e-06 2.220755253346e-04 0.0 
0.0 0.0 0.0 
-1.420136636892e-04 1.486253110481e-04 0.0 
1.486253110481e-04 1.042718424551e-03 0.0 
0.0 0.0 0.0 
-1.299133508476e-04 1.361269350418e-04 0.0 
1.361269350418e-04 1.088074877620e-03 0.0 
0.0 0.0 0.0 
8.577599558102e-05 -7.473143132023e-06 0.0 
-7.473143132023e-06 3.887018493072e-04 0.0 
0.0 0.0 0.0 
1.168710280464e-04 7.251978248602e-05 0.0 
7.251978248602e-05 7.725830896566e-04 0.0 
0.0 0.0 0.0 
7.560265949103e-05 1.903592340927e-04 0.0 
1.903592340927e-04 9.317384074228e-04 0.0 
0.0 0.0 0.0 
-5.703518908151e-05 2.010704147914e-04 0.0 
2.010704147914e-04 1.466554447352e-03 0.0 
0.0 0.0 0.0 
-4.147033150614e-05 1.800326015593e-04 0.0 
1.800326015593e-04 1.735332879933e-03 0.0 
0.0 0.0 0.0 
-9.547444977465e-05 5.419823106690e-05 0.0 
5.419823106690e-05 1.142349652680e-03 0.0 
0.0 0.0 0.0 
-5.257635535494e-05 -2.109537067698e-06 0.0 
-2.109537067698e-06 1.686092665575e-03 0.0 
0.0 0.0 0.0 
-2.046206465167e-05 2.218729430853e-04 0.0 
2.218729430853e-04 1.617720311033e-03 0.0 
0.0 0.0 0.0 
1.244251963666e-04 8.614613198626e-05 0.0 
8.614613198626e-05 5.199072902746e-04 0.0 
0.0 0.0 0.0 
-6.136681745106e-05 1.782598894198e-04 0.0 
1.782598894198e-04 3.655742933422e-04 0.0 
0.0 0.0 0.0 
-1.141271869679e-04 1.903296997561e-04 0.0 
1.903296997561e-04 1.116960709724e-03 0.0 
0.0 0.0 0.0 
1.175902886013e-04 5.583911204854e-05 0.0 
5.583911204854e-05 7.218607850079e-04 0.0 
0.0 0.0 0.0 
-7.399313353051e-05 1.828853639753e-04 0.0 
1.828853639753e-04 1.537257446903e-03 0.0 
0.0 0.0 0.0 
1.287155428622e-04 7.292710257229e-05 0.0 
7.292710257229e-05 7.192039881161e-04 0.0 
0.0 0.0 0.0 
-8.454223760168e-06 6.903571204264e-05 0.0 
6.903571204264e-05 2.691111161128e-04 0.0 
0.0 0.0 0.0 
1.111806942005e-04 8.345678691435e-05 0.0 
8.345678691435e-05 8.428637472591e-04 0.0 
0.0 0.0 0.0 
-1.526065801616e-05 2.088944908165e-04 0.0 
2.088944908165e-04 6.110401920538e-04 0.0 
0.0 0.0 0.0 
7.596720261782e-05 1.733956415513e-04 0.0 
1.733956415513e-04 9.341588802665e-04 0.0 
0.0 0.0 0.0 
1.247684179224e-04 8.376806692767e-05 0.0 
8.376806692767e-05 7.886020471122e-04 0.0 
0.0 0.0 0.0 
3.539366457472e-05 2.099911595542e-04 0.0 
2.099911595542e-04 1.150169619482e-03 0.0 
0.0 0.0 0.0 
-6.334502582184e-05 4.829621601651e-06 0.0 
4.829621601651e-06 1.613723777402e-03 0.0 
0.0 0.0 0.0 
7.557613021025e-05 -2.185572911421e-05 0.0 
-2.185572911421e-05 3.907145467248e-04 0.0 
0.0 0.0 0.0 
-1.458049527825e-05 1.520401916396e-04 0.0 
1.520401916396e-04 3.364600703986e-04 0.0 
0.0 0.0 0.0 
1.180221164021e-04 9.448823537395e-05 0.0 
9.448823537395e-05 8.604550959692e-04 0.0 
0.0 0.0 0.0 
-2.258176446790e-05 2.148651266591e-04 0.0 
2.148651266591e-04 7.111075505726e-04 0.0 
0.0 0.0 0.0 
-5.827542506820e-05 2.043386163725e-05 0.0 
2.043386163725e-05 9.792327247893e-05 0.0 
0.0 0.0 0.0 
-2.407137847260e-05 8.547559005296e-06 0.0 
8.547559005296e-06 1.850789438673e-03 0.0 
0.0 0.0 0.0 
-3.521473212209e-05 8.072150806642e-06 0.0 
8.072150806642e-06 1.797710574101e-03 0.0 
0.0 0.0 0.0 
-2.687366567988e-05 -1.846954636903e-05 0.0 
-1.846954636903e-05 7.002675438805e-05 0.0 
0.0 0.0 0.0 
1.028049945200e-04 9.455105231440e-05 0.0 
9.455105231440e-05 9.154209139173e-04 0.0 
0.0 0.0 0.0 
5.119159814537e-05 -3.048623532416e-05 0.0 
-3.048623532416e-05 2.996978636236e-04 0.0 
0.0 0.0 0.0 
6.300540376714e-05 -1.489663873275e-05 0.0 
-1.489663873275e-05 3.202116466827e-04 0.0 
0.0 0.0 0.0 
-4.428714275728e-05 2.079036828085e-04 0.0 
2.079036828085e-04 1.517979411243e-03 0.0 
0.0 0.0 0.0 
3.720772077220e-05 1.995081609934e-04 0.0 
1.995081609934e-04 1.151584295395e-03 0.0 
0.0 0.0 0.0 
-3.774833335513e-05 2.110275974122e-04 0.0 
2.110275974122e-04 1.453850678858e-03 0.0 
0.0 0.0 0.0 
1.161493221915e-04 4.310049431009e-05 0.0 
4.310049431009e-05 5.525825390074e-04 0.0 
0.0 0.0 0.0 
-7.550895736841e-05 1.246133395820e-06 0.0 
1.246133395820e-06 1.406714465347e-03 0.0 
0.0 0.0 0.0 
2.092041278989e-05 1.039405900222e-04 0.0 
1.039405900222e-04 1.212291495251e-03 0.0 
0.0 0.0 0.0 
4.718957014660e-05 -1.808140197789e-05 0.0 
-1.808140197789e-05 2.643769367612e-04 0.0 
0.0 0.0 0.0 
6.681569431821e-05 1.630223580940e-04 0.0 
1.630223580940e-04 1.152165487571e-03 0.0 
0.0 0.0 0.0 
5.920301587459e-05 1.872174538004e-04 0.0 
1.872174538004e-04 1.010491682511e-03 0.0 
0.0 0.0 0.0 
3.398580041636e-05 -3.133728106670e-06 0.0 
-3.133728106670e-06 2.056841388405e-04 0.0 
0.0 0.0 0.0 
-8.755897109558e-05 1.666109149959e-04 0.0 
1.666109149959e-04 1.545227213778e-03 0.0 
0.0 0.0 0.0 
1.309930182967e-04 8.533101109388e-05 0.0 
8.533101109388e-05 6.006730635957e-04 0.0 
0.0 0.0 0.0 
-8.330625988484e-06 -2.499571763642e-05 0.0 
-2.499571763642e-05 1.185421217786e-04 0.0 
0.0 0.0 0.0 
1.229315308686e-04 5.433307363801e-05 0.0 
5.433307363801e-05 4.838608227005e-04 0.0 
0.0 0.0 0.0 
7.817245144714e-05 5.483151581890e-06 0.0 
5.483151581890e-06 8.625467049355e-04 0.0 
0.0 0.0 0.0 
-1.070154647040e-04 1.462212218649e-04 0.0 
1.462212218649e-04 1.598302619726e-03 0.0 
0.0 0.0 0.0 
1.977920960128e-05 -3.743266866643e-05 0.0 
-3.743266866643e-05 2.039716513826e-04 0.0 
0.0 0.0 0.0 
8.798012146594e-05 -1.172494629142e-06 0.0 
-1.172494629142e-06 6.807357929688e-04 0.0 
0.0 0.0 0.0 
-5.963873846981e-05 1.966935169861e-04 0.0 
1.966935169861e-04 1.528174893155e-03 0.0 
0.0 0.0 0.0 
3.518526182700e-05 2.057638772385e-04 0.0 
2.057638772385e-04 1.281798358191e-03 0.0 
0.0 0.0 0.0 
9.693657622600e-05 -2.347887506192e-07 0.0 
-2.347887506192e-07 4.238158854657e-04 0.0 
0.0 0.0 0.0 
5.569128352412e-05 1.642987086638e-06 0.0 
1.642987086638e-06 3.311308193230e-04 0.0 
0.0 0.0 0.0 
7.120459527599e-05 1.926741985775e-04 0.0 
1.926741985775e-04 1.000656251082e-03 0.0 
0.0 0.0 0.0 
-6.076243029796e-05 -4.751586751978e-06 0.0 
-4.751586751978e-06 1.594903998248e-03 0.0 
0.0 0.0 0.0 
-1.311792789438e-05 -2.658545002934e-05 0.0 
-2.658545002934e-05 1.185957447964e-04 0.0 
0.0 0.0 0.0 
-1.796768796114e-05 2.470786522665e-04 0.0 
2.470786522665e-04 1.638989521616e-03 0.0 
0.0 0.0 0.0 
-2.479422919166e-05 1.648161046053e-04 0.0 
1.648161046053e-04 1.810070734671e-03 0.0 
0.0 0.0 0.0 
-6.604674258581e-05 -3.350546920948e-06 0.0 
-3.350546920948e-06 1.509362666470e-03 0.0 
0.0 0.0 0.0 
-3.970054493674e-05 7.628616335344e-05 0.0 
7.628616335344e-05 1.871543747320e-03 0.0 
0.0 0.0 0.0 
-2.093407533066e-05 1.930192898554e-04 0.0 
1.930192898554e-04 1.771155765031e-03 0.0 
0.0 0.0 0.0 
1.295503409122e-04 5.753775703086e-05 0.0 
5.753775703086e-05 5.657455336823e-04 0.0 
0.0 0.0 0.0 
1.110016325687e-04 2.048501926118e-05 0.0 
2.048501926118e-05 5.237073704107e-04 0.0 
0.0 0.0 0.0 
3.565377487802e-05 2.060242634282e-04 0.0 
2.060242634282e-04 1.341474520625e-03 0.0 
0.0 0.0 0.0 
-1.025077727466e-04 5.743841387928e-06 0.0 
5.743841387928e-06 6.127848990989e-05 0.0 
0.0 0.0 0.0 
4.845389434460e-05 4.978777660273e-06 0.0 
4.978777660273e-06 3.002654467137e-04 0.0 
0.0 0.0 0.0 
8.588263114917e-05 6.517190172020e-06 0.0 
6.517190172020e-06 6.963498452981e-04 0.0 
0.0 0.0 0.0 
8.542782377363e-05 -1.530246849328e-05 0.0 
-1.530246849328e-05 4.266147654968e-04 0.0 
0.0 0.0 0.0 
1.163209333568e-04 2.941330880927e-05 0.0 
2.941330880927e-05 4.578986988513e-04 0.0 
0.0 0.0 0.0 
-1.220532541697e-04 1.657358985269e-04 0.0 
1.657358985269e-04 8.202857006263e-04 0.0 
0.0 0.0 0.0 
-1.315971820334e-04 1.924902693885e-04 0.0 
1.924902693885e-04 9.298832692846e-04 0.0 
0.0 0.0 0.0 
-9.260229834240e-05 1.338823890098e-05 0.0 
1.338823890098e-05 1.516484924121e-03 0.0 
0.0 0.0 0.0 
1.144691211974e-04 5.049080945288e-05 0.0 
5.049080945288e-05 5.374945203771e-04 0.0 
0.0 0.0 0.0 
6.041854110084e-05 -3.728250177022e-06 0.0 
-3.728250177022e-06 3.536926556691e-04 0.0 
0.0 0.0 0.0 
3.082324854353e-05 2.168474995848e-04 0.0 
2.168474995848e-04 1.280057546873e-03 0.0 
0.0 0.0 0.0 
1.973141479206e-05 8.764381457252e-05 0.0 
8.764381457252e-05 1.267288472053e-03 0.0 
0.0 0.0 0.0 
1.875839129362e-05 9.959211897596e-05 0.0 
9.959211897596e-05 1.271551236924e-03 0.0 
0.0 0.0 0.0 
1.235521750662e-04 3.554835239459e-05 0.0 
3.554835239459e-05 5.406352815243e-04 0.0 
0.0 0.0 0.0 
-9.874351062433e-05 1.831117115264e-05 0.0 
1.831117115264e-05 1.467442183336e-03 0.0 
0.0 0.0 0.0 
-1.051957719777e-04 3.538863275570e-06 0.0 
3.538863275570e-06 9.721195004531e-05 0.0 
0.0 0.0 0.0 
-1.242848420173e-04 1.698792397340e-04 0.0 
1.698792397340e-04 6.169482629323e-04 0.0 
0.0 0.0 0.0 
1.727948620767e-05 -2.213544080409e-05 0.0 
-2.213544080409e-05 2.232004560705e-04 0.0 
0.0 0.0 0.0 
-1.236754546156e-04 1.730627445395e-04 0.0 
1.730627445395e-04 7.227702768828e-04 0.0 
0.0 0.0 0.0 
5.421885791579e-05 1.890092347735e-04 0.0 
1.890092347735e-04 1.076657913335e-03 0.0 
0.0 0.0 0.0 
1.069830015594e-04 1.165923275401e-05 0.0 
1.165923275401e-05 4.396901962351e-04 0.0 
0.0 0.0 0.0 
1.104795122333e-04 2.477245042329e-05 0.0 
2.477245042329e-05 5.049753723410e-04 0.0 
0.0 0.0 0.0 
-4.765225210035e-05 -2.295187955697e-05 0.0 
-2.295187955697e-05 1.417553177900e-04 0.0 
0.0 0.0 0.0 
-3.097810327646e-05 9.231325100134e-06 0.0 
9.231325100134e-06 1.807756641539e-03 0.0 
0.0 0.0 0.0 
1.034506235917e-04 5.854295080382e-06 0.0 
5.854295080382e-06 4.814858623605e-04 0.0 
0.0 0.0 0.0 
-2.886124617696e-05 3.478757916749e-05 0.0 
3.478757916749e-05 1.842895666667e-03 0.0 
0.0 0.0 0.0 
-4.306477863336e-05 8.725229476931e-06 0.0 
8.725229476931e-06 1.762289844276e-03 0.0 
0.0 0.0 0.0 
-1.187416913451e-05 1.476495631649e-05 0.0 
1.476495631649e-05 1.942242245169e-03 0.0 
0.0 0.0 0.0 
1.601448547284e-05 2.052790327497e-05 0.0 
2.052790327497e-05 1.243480041880e-03 0.0 
0.0 0.0 0.0 
-6.743846031720e-05 4.554812528247e-06 0.0 
4.554812528247e-06 1.511198529571e-03 0.0 
0.0 0.0 0.0 
1.035817243400e-04 4.288788370021e-06 0.0 
4.288788370021e-06 5.026552501355e-04 0.0 
0.0 0.0 0.0 
-8.123527588333e-05 8.501358269557e-05 0.0 
8.501358269557e-05 1.036303634948e-03 0.0 
0.0 0.0 0.0 
1.151367966268e-04 1.944007760577e-05 0.0 
1.944007760577e-05 5.221376997755e-04 0.0 
0.0 0.0 0.0 
0.0 6.812507242569e-05 0.0 
6.812507242569e-05 1.260150043545e-03 0.0 
0.0 0.0 0.0 
-1.169920161139e-04 1.528974329394e-04 0.0 
1.528974329394e-04 4.114267817630e-04 0.0 
0.0 0.0 0.0 
-1.191128026440e-04 1.646276491943e-04 0.0 
1.646276491943e-04 5.147200050146e-04 0.0 
0.0 0.0 0.0 
5.580071637779e-05 1.805383745396e-04 0.0 
1.805383745396e-04 1.216460381826e-03 0.0 
0.0 0.0 0.0 
-8.651474318533e-05 9.932043531341e-06 0.0 
9.932043531341e-06 1.466287134396e-03 0.0 
0.0 0.0 0.0 
-2.617081524015e-05 2.436682204969e-05 0.0 
2.436682204969e-05 1.849212671225e-03 0.0 
0.0 0.0 0.0 
-6.493376603067e-05 1.960078813517e-04 0.0 
1.960078813517e-04 1.528223230303e-03 0.0 
0.0 0.0 0.0 
3.472893335466e-05 2.227642083591e-04 0.0 
2.227642083591e-04 1.344526064744e-03 0.0 
0.0 0.0 0.0 
-8.318074935509e-05 1.736205224685e-04 0.0 
1.736205224685e-04 1.641250571444e-03 0.0 
0.0 0.0 0.0 
-6.800958752484e-05 9.404220921663e-06 0.0 
9.404220921663e-06 1.524020046487e-03 0.0 
0.0 0.0 0.0 
7.327624946840e-05 -2.330496135312e-05 0.0 
-2.330496135312e-05 3.690493479027e-04 0.0 
0.0 0.0 0.0 
8.409867097248e-05 -7.742023906514e-06 0.0 
-7.742023906514e-06 3.669628627809e-04 0.0 
0.0 0.0 0.0 
-5.451234549947e-05 9.003533804829e-06 0.0 
9.003533804829e-06 1.655271907706e-03 0.0 
0.0 0.0 0.0 
2.048829527479e-05 2.132092398472e-04 0.0 
2.132092398472e-04 1.346471534786e-03 0.0 
0.0 0.0 0.0 
-1.121687690477e-04 2.123378959404e-05 0.0 
2.123378959404e-05 1.415003746951e-03 0.0 
0.0 0.0 0.0 
-7.031486058418e-05 1.110082734303e-06 0.0 
1.110082734303e-06 1.457738872516e-03 0.0 
0.0 0.0 0.0 
-6.910181158659e-05 1.223899992293e-06 0.0 
1.223899992293e-06 1.508512450362e-03 0.0 
0.0 0.0 0.0 
-7.332337580890e-05 3.850445432243e-07 0.0 
3.850445432243e-07 1.527401255698e-03 0.0 
0.0 0.0 0.0 
1.594672040461e-05 5.483802619150e-06 0.0 
5.483802619150e-06 1.881092037328e-04 0.0 
0.0 0.0 0.0 
7.171695269959e-05 -1.374737830936e-05 0.0 
-1.374737830936e-05 3.326337635876e-04 0.0 
0.0 0.0 0.0 
-2.543014569556e-05 4.728682578603e-05 0.0 
4.728682578603e-05 1.895491336993e-03 0.0 
0.0 0.0 0.0 
-6.912120568736e-05 4.589413998823e-06 0.0 
4.589413998823e-06 1.587279514983e-03 0.0 
0.0 0.0 0.0 
2.269516957920e-05 2.312526928267e-04 0.0 
2.312526928267e-04 1.417720303408e-03 0.0 
0.0 0.0 0.0 
-6.047454189362e-05 1.858596528502e-04 0.0 
1.858596528502e-04 1.733619406977e-03 0.0 
0.0 0.0 0.0 
-9.490479327579e-05 1.702672351393e-04 0.0 
1.702672351393e-04 1.544611001940e-03 0.0 
0.0 0.0 0.0 
-5.209029272313e-05 8.056452257760e-05 0.0 
8.056452257760e-05 1.835837187689e-03 0.0 
0.0 0.0 0.0 
8.483360941991e-05 -1.225674254150e-07 0.0 
-1.225674254150e-07 5.031551145849e-04 0.0 
0.0 0.0 0.0 
7.471049002916e-05 -2.178737030507e-06 0.0 
-2.178737030507e-06 4.564544813503e-04 0.0 
0.0 0.0 0.0 
4.626853616152e-05 1.036786543537e-04 0.0 
1.036786543537e-04 1.151376525719e-03 0.0 
0.0 0.0 0.0 
-4.973121591501e-05 -1.175129067383e-05 0.0 
-1.175129067383e-05 8.142066378714e-05 0.0 
0.0 0.0 0.0 
4.846335660780e-05 -8.229207249602e-06 0.0 
-8.229207249602e-06 3.177769945233e-04 0.0 
0.0 0.0 0.0 
0.0 2.565970035358e-04 0.0 
2.565970035358e-04 1.586039720479e-03 0.0 
0.0 0.0 0.0 
2.264528699181e-05 -7.535073352907e-06 0.0 
-7.535073352907e-06 1.521729243672e-04 0.0 
0.0 0.0 0.0 
-6.887203253880e-05 1.819267530695e-06 0.0 
1.819267530695e-06 1.458060937779e-03 0.0 
0.0 0.0 0.0 
5.364404345110e-05 1.762154331517e-04 0.0 
1.762154331517e-04 1.243551923147e-03 0.0 
0.0 0.0 0.0 
-1.332513010655e-05 -1.462286888326e-05 0.0 
-1.462286888326e-05 1.071606358123e-04 0.0 
0.0 0.0 0.0 
-1.238145560178e-05 -1.102106269409e-05 0.0 
-1.102106269409e-05 5.898286450945e-05 0.0 
0.0 0.0 0.0 
-1.695073943531e-05 6.877757526100e-05 0.0 
6.877757526100e-05 1.931481024862e-03 0.0 
0.0 0.0 0.0 
-8.192325027911e-05 3.792766645677e-06 0.0 
3.792766645677e-06 1.409211127773e-03 0.0 
0.0 0.0 0.0 
-2.743147557449e-05 6.555984704907e-05 0.0 
6.555984704907e-05 1.881593166139e-03 0.0 
0.0 0.0 0.0 
3.853999209213e-05 1.834651841391e-04 0.0 
1.834651841391e-04 1.270601275452e-03 0.0 
0.0 0.0 0.0 
-8.081758279888e-05 1.687053627596e-07 0.0 
1.687053627596e-07 1.407448972687e-03 0.0 
0.0 0.0 0.0 
-1.025341595512e-04 6.915055858352e-06 0.0 
6.915055858352e-06 1.111129697542e-04 0.0 
0.0 0.0 0.0 
-1.253904600396e-05 9.131191025447e-06 0.0 
9.131191025447e-06 1.897948886823e-03 0.0 
0.0 0.0 0.0 
2.226518113901e-05 -2.386380928832e-05 0.0 
-2.386380928832e-05 1.713657390190e-04 0.0 
0.0 0.0 0.0 
-2.902627610291e-05 5.357839449359e-05 0.0 
5.357839449359e-05 1.854653601419e-03 0.0 
0.0 0.0 0.0 
0.0 5.369802753511e-05 0.0 
5.369802753511e-05 1.253450747581e-03 0.0 
0.0 0.0 0.0 
-5.612103571828e-05 1.551134054436e-04 0.0 
1.551134054436e-04 1.775022571373e-03 0.0 
0.0 0.0 0.0 
5.297356865586e-05 1.152514541165e-05 0.0 
1.152514541165e-05 2.343509344211e-04 0.0 
0.0 0.0 0.0 
-1.052984483025e-04 3.369984720944e-05 0.0 
3.369984720944e-05 1.516414731484e-03 0.0 
0.0 0.0 0.0 
7.689273666833e-05 -6.796412457236e-06 0.0 
-6.796412457236e-06 5.123037850276e-04 0.0 
0.0 0.0 0.0 
2.686099206284e-05 2.048481087402e-04 0.0 
2.048481087402e-04 1.280960715905e-03 0.0 
0.0 0.0 0.0 
1.080845402357e-05 2.471341875244e-04 0.0 
2.471341875244e-04 1.480659217745e-03 0.0 
0.0 0.0 0.0 
-4.904602720690e-05 9.545913093400e-06 0.0 
9.545913093400e-06 1.717966255154e-03 0.0 
0.0 0.0 0.0 
1.824788156646e-05 2.398244241385e-04 0.0 
2.398244241385e-04 1.445425672061e-03 0.0 
0.0 0.0 0.0 
-1.886990329070e-05 -1.148020504655e-06 0.0 
-1.148020504655e-06 1.244816277923e-04 0.0 
0.0 0.0 0.0 
2.757428514921e-05 6.564287941138e-05 0.0 
6.564287941138e-05 1.198843489722e-03 0.0 
0.0 0.0 0.0 
5.703499603871e-05 5.782510047969e-06 0.0 
5.782510047969e-06 2.645147486020e-04 0.0 
0.0 0.0 0.0 
2.379858752266e-05 -6.124754704041e-06 0.0 
-6.124754704041e-06 1.525113566974e-04 0.0 
0.0 0.0 0.0 
3.739012887460e-05 1.653730006875e-04 0.0 
1.653730006875e-04 1.280260858842e-03 0.0 
0.0 0.0 0.0 
-4.220146290557e-05 1.180284637187e-04 0.0 
1.180284637187e-04 1.865675750476e-03 0.0 
0.0 0.0 0.0 
-2.351719943561e-05 6.969096971111e-05 0.0 
6.969096971111e-05 1.896786101002e-03 0.0 
0.0 0.0 0.0 
-7.379630627646e-05 8.284256273802e-06 0.0 
8.284256273802e-06 1.457076250955e-03 0.0 
0.0 0.0 0.0 
-1.167587110251e-04 5.682675288069e-05 0.0 
5.682675288069e-05 1.517904748067e-03 0.0 
0.0 0.0 0.0 
-2.006583423353e-05 1.567189085483e-04 0.0 
1.567189085483e-04 5.102808591737e-04 0.0 
0.0 0.0 0.0 
-4.037351203734e-05 2.042769863778e-04 0.0 
2.042769863778e-04 1.764890865650e-03 0.0 
0.0 0.0 0.0 
7.079479178818e-05 8.109438522115e-08 0.0 
8.109438522115e-08 4.222028497347e-04 0.0 
0.0 0.0 0.0 
-1.354616257987e-05 7.426814763217e-05 0.0 
7.426814763217e-05 2.485828126797e-04 0.0 
0.0 0.0 0.0 
4.015705450988e-05 2.165183276423e-04 0.0 
2.165183276423e-04 1.280356708939e-03 0.0 
0.0 0.0 0.0 
-7.386717407509e-05 3.453803504858e-10 0.0 
3.453803504858e-10 1.403094177634e-03 0.0 
0.0 0.0 0.0 
-3.973764062437e-05 1.164348615859e-04 0.0 
1.164348615859e-04 1.830106521266e-03 0.0 
0.0 0.0 0.0 
-9.482046889109e-06 -3.433877330706e-06 0.0 
-3.433877330706e-06 1.939699632390e-03 0.0 
0.0 0.0 0.0 
0.0 4.741023444514e-06 0.0 
4.741023444514e-06 1.946567387052e-03 0.0 
0.0 0.0 0.0 
-9.904346400802e-07 -4.047649199561e-07 0.0 
-4.047649199561e-07 1.502952372467e-05 0.0 
0.0 0.0 0.0 
4.490162988091e-07 7.065498217034e-07 0.0 
7.065498217034e-07 1.581270226914e-05 0.0 
0.0 0.0 0.0 
-6.940050741844e-05 -4.122049258773e-06 0.0 
-4.122049258773e-06 1.409127534896e-03 0.0 
0.0 0.0 0.0 
-7.150286526469e-05 6.405452779129e-07 0.0 
6.405452779129e-07 1.401704703669e-03 0.0 
0.0 0.0 0.0 
0.0 7.675591389549e-06 0.0 
7.675591389549e-06 1.242476855423e-03 0.0 
0.0 0.0 0.0 
1.535118277896e-05 5.547850832084e-06 0.0 
5.547850832084e-06 1.231381153759e-03 0.0 
0.0 0.0 0.0 
2.518031247511e-06 2.028727003922e-06 0.0 
2.028727003922e-06 4.992331930831e-05 0.0 
0.0 0.0 0.0 
-1.017129616816e-04 -5.619785171601e-06 0.0 
-5.619785171601e-06 5.659379223832e-05 0.0 
0.0 0.0 0.0 
3.504153641187e-05 4.106715039034e-05 0.0 
4.106715039034e-05 1.120789306852e-03 0.0 
0.0 0.0 0.0 
6.623236847858e-06 2.429117713591e-04 0.0 
2.429117713591e-04 1.478971269522e-03 0.0 
0.0 0.0 0.0 
2.511996482624e-05 -1.941120019665e-05 0.0 
-1.941120019665e-05 2.019059355545e-04 0.0 
0.0 0.0 0.0 
3.419389820558e-05 6.921181665400e-05 0.0 
6.921181665400e-05 1.151714802590e-03 0.0 
0.0 0.0 0.0 
8.489038674675e-05 4.784379101761e-07 0.0 
4.784379101761e-07 7.490048671535e-04 0.0 
0.0 0.0 0.0 
8.470527239468e-05 -4.377815680417e-06 0.0 
-4.377815680417e-06 6.351385408867e-04 0.0 
0.0 0.0 0.0 
-6.496981061710e-05 1.003816459141e-05 0.0 
1.003816459141e-05 1.616982625990e-03 0.0 
0.0 0.0 0.0 
1.969735739027e-05 -1.561235912919e-05 0.0 
-1.561235912919e-05 1.997106761331e-04 0.0 
0.0 0.0 0.0 
3.194521281813e-05 2.015566765760e-04 0.0 
2.015566765760e-04 1.215929176690e-03 0.0 
0.0 0.0 0.0 
1.313248108525e-05 -1.347029303746e-05 0.0 
-1.347029303746e-05 1.595608050489e-04 0.0 
0.0 0.0 0.0 
8.650989058423e-05 -5.628262380746e-06 0.0 
-5.628262380746e-06 5.709923062034e-04 0.0 
0.0 0.0 0.0 
-3.438312189785e-05 1.942990041815e-04 0.0 
1.942990041815e-04 1.724334347670e-03 0.0 
0.0 0.0 0.0 
-3.106503653505e-05 -4.124483712437e-06 0.0 
-4.124483712437e-06 1.828960086094e-03 0.0 
0.0 0.0 0.0 
8.841696612372e-05 3.381182068202e-06 0.0 
3.381182068202e-06 6.307073330913e-04 0.0 
0.0 0.0 0.0 
-6.683240452166e-05 -1.243665396264e-06 0.0 
-1.243665396264e-06 1.553241776827e-03 0.0 
0.0 0.0 0.0 
-1.825499942054e-05 2.415875407318e-04 0.0 
2.415875407318e-04 1.573199257042e-03 0.0 
0.0 0.0 0.0 
-7.104552370973e-05 1.870594291521e-04 0.0 
1.870594291521e-04 1.637984602004e-03 0.0 
0.0 0.0 0.0 
-8.370009958092e-05 1.783427854840e-04 0.0 
1.783427854840e-04 1.590784472355e-03 0.0 
0.0 0.0 0.0 
-7.733259116594e-05 1.327367838209e-06 0.0 
1.327367838209e-06 1.407228941235e-03 0.0 
0.0 0.0 0.0 
4.815559820726e-05 1.924722660234e-04 0.0 
1.924722660234e-04 1.144179810430e-03 0.0 
0.0 0.0 0.0 
-4.240253804055e-05 1.364496314157e-04 0.0 
1.364496314157e-04 1.804693217348e-03 0.0 
0.0 0.0 0.0 
5.346636756554e-05 -2.874424936628e-06 0.0 
-2.874424936628e-06 3.168306118928e-04 0.0 
0.0 0.0 0.0 
-4.263469750443e-05 -1.856144450045e-05 0.0 
-1.856144450045e-05 7.590371958122e-05 0.0 
0.0 0.0 0.0 
-2.902878044053e-05 2.204588150054e-04 0.0 
2.204588150054e-04 1.556262382754e-03 0.0 
0.0 0.0 0.0 
7.441936284902e-05 1.744066364796e-04 0.0 
1.744066364796e-04 1.151397126653e-03 0.0 
0.0 0.0 0.0 
1.242651479227e-05 -3.279382199947e-05 0.0 
-3.279382199947e-05 1.619897476177e-04 0.0 
0.0 0.0 0.0 
-5.905452960753e-05 1.835624947625e-06 0.0 
1.835624947625e-06 1.658961840068e-03 0.0 
0.0 0.0 0.0 
1.718348654323e-05 3.855060024571e-05 0.0 
3.855060024571e-05 1.178359781724e-03 0.0 
0.0 0.0 0.0 
-3.741625328568e-06 2.275980496700e-04 0.0 
2.275980496700e-04 1.480027948683e-03 0.0 
0.0 0.0 0.0 
-1.162995368986e-05 2.418719472500e-04 0.0 
2.418719472500e-04 1.538625465599e-03 0.0 
0.0 0.0 0.0 
8.039438466678e-05 -2.072368960602e-06 0.0 
-2.072368960602e-06 8.194894584745e-04 0.0 
0.0 0.0 0.0 
-5.651994867373e-05 5.510234287490e-05 0.0 
5.510234287490e-05 1.024547354513e-04 0.0 
0.0 0.0 0.0 
-1.024357624132e-04 1.711926711146e-04 0.0 
1.711926711146e-04 8.207326228002e-04 0.0 
0.0 0.0 0.0 
-3.666843214667e-05 1.958819367967e-04 0.0 
1.958819367967e-04 7.103715924714e-04 0.0 
0.0 0.0 0.0 
-1.077016041690e-04 3.595089985210e-05 0.0 
3.595089985210e-05 1.519525672943e-03 0.0 
0.0 0.0 0.0 
4.990826339402e-05 2.058102527552e-04 0.0 
2.058102527552e-04 1.142566535358e-03 0.0 
0.0 0.0 0.0 
-2.980148237153e-05 3.517330393750e-05 0.0 
3.517330393750e-05 1.862796646465e-03 0.0 
0.0 0.0 0.0 
2.379549472442e-05 2.024722769759e-04 0.0 
2.024722769759e-04 1.346423632523e-03 0.0 
0.0 0.0 0.0 
-3.746106920843e-05 -2.682101926824e-05 0.0 
-2.682101926824e-05 1.286654508768e-04 0.0 
0.0 0.0 0.0 
-2.724585659730e-05 -2.530645307565e-05 0.0 
-2.530645307565e-05 1.173635940432e-04 0.0 
0.0 0.0 0.0 
-1.113666172179e-04 1.946597245414e-04 0.0 
1.946597245414e-04 6.190806248614e-04 0.0 
0.0 0.0 0.0 
-5.388622383762e-05 1.712763768077e-05 0.0 
1.712763768077e-05 1.676437477249e-03 0.0 
0.0 0.0 0.0 
6.241050125810e-05 -1.394085245722e-05 0.0 
-1.394085245722e-05 3.924759714111e-04 0.0 
0.0 0.0 0.0 
-4.454463886205e-05 9.263229014405e-05 0.0 
9.263229014405e-05 1.848803873576e-03 0.0 
0.0 0.0 0.0 
2.532429401891e-05 -1.396405227319e-05 0.0 
-1.396405227319e-05 1.923010087599e-04 0.0 
0.0 0.0 0.0 
4.345329337774e-05 1.943798358415e-04 0.0 
1.943798358415e-04 1.282842700154e-03 0.0 
0.0 0.0 0.0 
-8.373306067511e-05 1.835336244515e-05 0.0 
1.835336244515e-05 1.515283424267e-03 0.0 
0.0 0.0 0.0 
8.557222324290e-06 2.372588050317e-04 0.0 
2.372588050317e-04 1.483543011296e-03 0.0 
0.0 0.0 0.0 
1.235143477563e-05 2.145868966600e-04 0.0 
2.145868966600e-04 1.349582052823e-03 0.0 
0.0 0.0 0.0 
-1.170749154049e-04 4.178127016686e-05 0.0 
4.178127016686e-05 1.519099674227e-03 0.0 
0.0 0.0 0.0 
4.012021447708e-05 1.398486986836e-04 0.0 
1.398486986836e-04 1.246943417027e-03 0.0 
0.0 0.0 0.0 
-3.610090167638e-05 1.101356760281e-04 0.0 
1.101356760281e-04 1.873223699914e-03 0.0 
0.0 0.0 0.0 
-2.001880892266e-05 1.044133861986e-05 0.0 
1.044133861986e-05 1.900725368611e-03 0.0 
0.0 0.0 0.0 
-1.242666228644e-04 1.980514442123e-04 0.0 
1.980514442123e-04 4.137600354146e-04 0.0 
0.0 0.0 0.0 
-4.051504072033e-05 8.481094929368e-05 0.0 
8.481094929368e-05 1.835498961818e-03 0.0 
0.0 0.0 0.0 
-1.120451064951e-05 2.317436343627e-04 0.0 
2.317436343627e-04 1.655079818950e-03 0.0 
0.0 0.0 0.0 
4.754498299731e-05 1.942389819709e-04 0.0 
1.942389819709e-04 1.282728264291e-03 0.0 
0.0 0.0 0.0 
2.953224133884e-05 2.234279648884e-04 0.0 
2.234279648884e-04 1.343991482420e-03 0.0 
0.0 0.0 0.0 
0.0 9.139702552635e-05 0.0 
9.139702552635e-05 1.269402639741e-03 0.0 
0.0 0.0 0.0 
-7.336967943683e-05 1.776088462257e-04 0.0 
1.776088462257e-04 1.590836542637e-03 0.0 
0.0 0.0 0.0 
-9.281709947995e-05 4.716905235914e-05 0.0 
4.716905235914e-05 5.215795188973e-05 0.0 
0.0 0.0 0.0 
-2.334584405617e-05 1.062059265522e-04 0.0 
1.062059265522e-04 3.348260905591e-04 0.0 
0.0 0.0 0.0 
-6.658810124693e-05 1.850988521215e-04 0.0 
1.850988521215e-04 1.686079686513e-03 0.0 
0.0 0.0 0.0 
-9.989111667474e-05 4.296532811789e-05 0.0 
4.296532811789e-05 1.563434218176e-03 0.0 
0.0 0.0 0.0 
3.792918144097e-05 1.692028746666e-05 0.0 
1.692028746666e-05 1.113230420691e-03 0.0 
0.0 0.0 0.0 
8.178851142349e-06 2.221275049806e-04 0.0 
2.221275049806e-04 1.410658594312e-03 0.0 
0.0 0.0 0.0 
1.938947590974e-05 7.656288004560e-05 0.0 
7.656288004560e-05 1.204800195325e-03 0.0 
0.0 0.0 0.0 
-4.648762908577e-05 1.939533675073e-05 0.0 
1.939533675073e-05 1.737358829310e-03 0.0 
0.0 0.0 0.0 
8.013097112514e-06 2.318063348248e-04 0.0 
2.318063348248e-04 1.455061452751e-03 0.0 
0.0 0.0 0.0 
4.079711105920e-05 1.179024969641e-04 0.0 
1.179024969641e-04 1.185811683805e-03 0.0 
0.0 0.0 0.0 
4.861992256555e-05 1.284029854387e-04 0.0 
1.284029854387e-04 1.184842129649e-03 0.0 
0.0 0.0 0.0 
6.409645773586e-05 -9.944266905271e-06 0.0 
-9.944266905271e-06 4.073042249353e-04 0.0 
0.0 0.0 0.0 
2.157520060830e-05 7.512012561739e-05 0.0 
7.512012561739e-05 1.262138266105e-03 0.0 
0.0 0.0 0.0 
-9.592181315565e-05 1.540867581728e-05 0.0 
1.540867581728e-05 1.462037074986e-03 0.0 
0.0 0.0 0.0 
-2.978728246283e-05 1.668159777975e-05 0.0 
1.668159777975e-05 1.850172210853e-03 0.0 
0.0 0.0 0.0 
-5.763257233449e-06 -3.025741832548e-05 0.0 
-3.025741832548e-05 1.154286395337e-04 0.0 
0.0 0.0 0.0 
-3.768047853536e-05 6.793046552654e-06 0.0 
6.793046552654e-06 1.808937713748e-03 0.0 
0.0 0.0 0.0 
-5.957881084540e-05 7.737230853520e-06 0.0 
7.737230853520e-06 1.663880022926e-03 0.0 
0.0 0.0 0.0 
1.025856216663e-05 -6.453082424948e-06 0.0 
-6.453082424948e-06 1.060756870561e-04 0.0 
0.0 0.0 0.0 
2.400089788201e-05 -1.199068254681e-05 0.0 
-1.199068254681e-05 2.249837558415e-04 0.0 
0.0 0.0 0.0 
-6.071800570107e-05 1.921288848251e-04 0.0 
1.921288848251e-04 1.585813124960e-03 0.0 
0.0 0.0 0.0 
-1.729502507830e-05 5.483715657606e-05 0.0 
5.483715657606e-05 1.892935849265e-03 0.0 
0.0 0.0 0.0 
-2.771761568610e-05 6.590969029493e-06 0.0 
6.590969029493e-06 1.857918406152e-03 0.0 
0.0 0.0 0.0 
2.929171054156e-05 2.395647961159e-04 0.0 
2.395647961159e-04 1.415641237900e-03 0.0 
0.0 0.0 0.0 
-6.878397454613e-05 1.394624455021e-05 0.0 
1.394624455021e-05 1.554506710716e-03 0.0 
0.0 0.0 0.0 
-2.662463047443e-05 -1.743038760455e-05 0.0 
-1.743038760455e-05 6.809202657010e-05 0.0 
0.0 0.0 0.0 
-4.369777443991e-05 4.347136994937e-05 0.0 
4.347136994937e-05 1.487133066240e-04 0.0 
0.0 0.0 0.0 
-1.616667086479e-05 -8.767944334851e-06 0.0 
-8.767944334851e-06 7.474315422074e-05 0.0 
0.0 0.0 0.0 
-2.462102224543e-06 -3.525615236931e-05 0.0 
-3.525615236931e-05 1.544544352861e-04 0.0 
0.0 0.0 0.0 
-1.048249733330e-04 1.017249746198e-04 0.0 
1.017249746198e-04 7.496863372958e-05 0.0 
0.0 0.0 0.0 
8.405872990025e-05 2.501050913032e-06 0.0 
2.501050913032e-06 5.560289750715e-04 0.0 
0.0 0.0 0.0 
4.052230300711e-05 2.767515171399e-05 0.0 
2.767515171399e-05 1.113001485823e-03 0.0 
0.0 0.0 0.0 
-4.763295103172e-05 1.608000828265e-04 0.0 
1.608000828265e-04 1.775786163805e-03 0.0 
0.0 0.0 0.0 
-1.236546136315e-04 5.803161657818e-05 0.0 
5.803161657818e-05 1.553192551965e-03 0.0 
0.0 0.0 0.0 
7.787928155389e-05 -1.303162558586e-05 0.0 
-1.303162558586e-05 4.815376055538e-04 0.0 
0.0 0.0 0.0 
4.564642884275e-05 9.614913772907e-05 0.0 
9.614913772907e-05 1.153970035487e-03 0.0 
0.0 0.0 0.0 
6.291769778666e-05 1.649377742117e-04 0.0 
1.649377742117e-04 1.202730120352e-03 0.0 
0.0 0.0 0.0 
1.329073496614e-05 2.534865984150e-04 0.0 
2.534865984150e-04 1.496652772634e-03 0.0 
0.0 0.0 0.0 
-1.861218784494e-05 2.242521334455e-04 0.0 
2.242521334455e-04 1.596758698791e-03 0.0 
0.0 0.0 0.0 
-4.680140630375e-05 2.017646777730e-04 0.0 
2.017646777730e-04 1.634351061820e-03 0.0 
0.0 0.0 0.0 
-6.686979631576e-06 -2.066696709500e-05 0.0 
-2.066696709500e-05 1.124489758759e-04 0.0 
0.0 0.0 0.0 
-6.005426873223e-05 -1.729222195826e-05 0.0 
-1.729222195826e-05 1.302243791497e-04 0.0 
0.0 0.0 0.0 
3.786175050280e-05 3.334992643310e-05 0.0 
3.334992643310e-05 1.123208145748e-03 0.0 
0.0 0.0 0.0 
1.736236487893e-05 -2.946932838764e-06 0.0 
-2.946932838764e-06 1.034621687301e-04 0.0 
0.0 0.0 0.0 
1.610135714247e-05 5.756555343092e-06 0.0 
5.756555343092e-06 1.283039532094e-04 0.0 
0.0 0.0 0.0 
-6.785433920342e-05 1.316828410185e-04 0.0 
1.316828410185e-04 1.872226074178e-04 0.0 
0.0 0.0 0.0 
-6.460107034756e-06 -2.670218636974e-05 0.0 
-2.670218636974e-05 1.067869125562e-04 0.0 
0.0 0.0 0.0 
2.073508027012e-05 1.286403870775e-04 0.0 
1.286403870775e-04 1.240606094769e-03 0.0 
0.0 0.0 0.0 
-2.071693922090e-05 2.138027806570e-04 0.0 
2.138027806570e-04 1.725390669093e-03 0.0 
0.0 0.0 0.0 
-2.647987224447e-05 4.138792081837e-05 0.0 
4.138792081837e-05 1.863152014165e-03 0.0 
0.0 0.0 0.0 
4.021438768209e-06 2.416798127984e-04 0.0 
2.416798127984e-04 1.518634383631e-03 0.0 
0.0 0.0 0.0 
5.723787878886e-05 1.529300439953e-04 0.0 
1.529300439953e-04 1.177346048116e-03 0.0 
0.0 0.0 0.0 
-6.489672563947e-05 1.493797646488e-05 0.0 
1.493797646488e-05 1.588227053330e-03 0.0 
0.0 0.0 0.0 
0.0 7.547632475918e-05 0.0 
7.547632475918e-05 1.931991027888e-03 0.0 
0.0 0.0 0.0 
4.736914332581e-05 -2.030834023672e-05 0.0 
-2.030834023672e-05 2.636254845774e-04 0.0 
0.0 0.0 0.0 
-7.920906951486e-05 1.632363961353e-06 0.0 
1.632363961353e-06 1.404437460953e-03 0.0 
0.0 0.0 0.0 
-1.315162871207e-05 -2.616012904433e-05 0.0 
-2.616012904433e-05 1.668430387554e-04 0.0 
0.0 0.0 0.0 
1.313380421974e-06 -8.927147339047e-06 0.0 
-8.927147339047e-06 5.779661485872e-05 0.0 
0.0 0.0 0.0 
2.027976245067e-05 5.272413392835e-05 0.0 
5.272413392835e-05 1.250728952612e-03 0.0 
0.0 0.0 0.0 
-1.146622251971e-04 3.231735104156e-05 0.0 
3.231735104156e-05 1.465793393837e-03 0.0 
0.0 0.0 0.0 
1.628652164043e-05 -9.240221594769e-06 0.0 
-9.240221594769e-06 1.517109229379e-04 0.0 
0.0 0.0 0.0 
8.175191837689e-05 4.080041376364e-06 0.0 
4.080041376364e-06 5.330615697683e-04 0.0 
0.0 0.0 0.0 
-3.177478561389e-05 2.202437567066e-04 0.0 
2.202437567066e-04 1.738961822894e-03 0.0 
0.0 0.0 0.0 
-3.745502783026e-05 4.909148911586e-05 0.0 
4.909148911586e-05 1.856253590937e-03 0.0 
0.0 0.0 0.0 
-2.321454791399e-05 1.221228903208e-04 0.0 
1.221228903208e-04 1.862247711506e-03 0.0 
0.0 0.0 0.0 
5.849470079200e-05 -9.246469594725e-06 0.0 
-9.246469594725e-06 3.700788920509e-04 0.0 
0.0 0.0 0.0 
-4.565053849181e-05 -1.873511386210e-06 0.0 
-1.873511386210e-06 1.355953865787e-04 0.0 
0.0 0.0 0.0 
3.237874342177e-05 8.387212464435e-05 0.0 
8.387212464435e-05 1.207713468175e-03 0.0 
0.0 0.0 0.0 
-9.822583842745e-06 7.726469649730e-06 0.0 
7.726469649730e-06 1.945697865450e-03 0.0 
0.0 0.0 0.0 
1.556644253409e-05 1.046394941448e-05 0.0 
1.046394941448e-05 1.242432567314e-03 0.0 
0.0 0.0 0.0 
-6.897738024059e-05 3.507653475143e-06 0.0 
3.507653475143e-06 1.447658741676e-03 0.0 
0.0 0.0 0.0 
4.021505119312e-05 1.627993994628e-04 0.0 
1.627993994628e-04 1.231386284474e-03 0.0 
0.0 0.0 0.0 
2.495489756016e-05 -1.472188991518e-05 0.0 
-1.472188991518e-05 1.548048887174e-04 0.0 
0.0 0.0 0.0 
-3.714679246702e-05 9.684187471851e-05 0.0 
9.684187471851e-05 1.849131735149e-03 0.0 
0.0 0.0 0.0 
-5.151619788646e-06 -1.237253389324e-05 0.0 
-1.237253389324e-05 5.734935928570e-05 0.0 
0.0 0.0 0.0 
2.058924250914e-05 1.540079204498e-04 0.0 
1.540079204498e-04 1.272707338287e-03 0.0 
0.0 0.0 0.0 
-3.965783273152e-05 1.356852575304e-04 0.0 
1.356852575304e-04 1.851065187735e-03 0.0 
0.0 0.0 0.0 
-5.309907066309e-05 1.692434135824e-05 0.0 
1.692434135824e-05 8.945473583677e-05 0.0 
0.0 0.0 0.0 
-9.051647599789e-06 2.280359425400e-04 0.0 
2.280359425400e-04 1.480043900202e-03 0.0 
0.0 0.0 0.0 
-5.185267568975e-05 6.064881830996e-06 0.0 
6.064881830996e-06 1.707751452613e-03 0.0 
0.0 0.0 0.0 
-1.331551633599e-05 4.000762308636e-05 0.0 
4.000762308636e-05 1.899586989699e-03 0.0 
0.0 0.0 0.0 
0.0 2.342858964091e-04 0.0 
2.342858964091e-04 1.467133018972e-03 0.0 
0.0 0.0 0.0 
-5.898933423520e-05 -4.152149281054e-06 0.0 
-4.152149281054e-06 1.627266108254e-03 0.0 
0.0 0.0 0.0 
-1.872565868732e-05 2.056280367225e-04 0.0 
2.056280367225e-04 1.753112007012e-03 0.0 
0.0 0.0 0.0 
-5.142635165833e-05 1.146198227277e-04 0.0 
1.146198227277e-04 1.831093250297e-03 0.0 
0.0 0.0 0.0 
-5.346828687458e-05 6.941617738440e-06 0.0 
6.941617738440e-06 1.663102764031e-03 0.0 
0.0 0.0 0.0 
-3.411393460517e-05 2.005664565419e-04 0.0 
2.005664565419e-04 1.709576670977e-03 0.0 
0.0 0.0 0.0 
7.334294709871e-05 -8.936526441094e-06 0.0 
-8.936526441094e-06 4.493583762677e-04 0.0 
0.0 0.0 0.0 
-7.354417800187e-05 -2.657037271735e-07 0.0 
-2.657037271735e-07 1.403246449917e-03 0.0 
0.0 0.0 0.0 
1.259599705450e-05 2.413674849358e-04 0.0 
2.413674849358e-04 1.473522208143e-03 0.0 
0.0 0.0 0.0 
-1.318411116280e-05 7.722925492527e-06 0.0 
7.722925492527e-06 1.906370311989e-03 0.0 
0.0 0.0 0.0 
3.002330357438e-06 1.242923361952e-06 0.0 
1.242923361952e-06 1.328840310899e-05 0.0 
0.0 0.0 0.0 
-7.010641936589e-05 1.198672780416e-06 0.0 
1.198672780416e-06 1.401926193082e-03 0.0 
0.0 0.0 0.0 
2.020915611012e-05 4.512711348969e-06 0.0 
4.512711348969e-06 1.189464639852e-03 0.0 
0.0 0.0 0.0 
2.760246186861e-05 -1.173264956202e-05 0.0 
-1.173264956202e-05 1.984502303953e-04 0.0 
0.0 0.0 0.0 
5.351707498535e-05 1.885990500724e-04 0.0 
1.885990500724e-04 1.262327484308e-03 0.0 
0.0 0.0 0.0 
-5.945484013026e-05 1.375218756342e-04 0.0 
1.375218756342e-04 1.805132346188e-03 0.0 
0.0 0.0 0.0 
-2.493385369529e-05 3.330172166253e-05 0.0 
3.330172166253e-05 1.896239261434e-03 0.0 
0.0 0.0 0.0 
2.669563460223e-05 -6.205592000909e-06 0.0 
-6.205592000909e-06 1.898827475491e-04 0.0 
0.0 0.0 0.0 
-3.618426198937e-05 9.261492564989e-05 0.0 
9.261492564989e-05 2.337159077630e-04 0.0 
0.0 0.0 0.0 
8.503027501350e-05 8.327641599393e-06 0.0 
8.327641599393e-06 6.633809575527e-04 0.0 
0.0 0.0 0.0 
-4.176566721859e-05 9.821205067408e-06 0.0 
9.821205067408e-06 1.769200257179e-03 0.0 
0.0 0.0 0.0 
-1.536792394363e-04 -6.879408841764e-06 0.0 
-6.879408841764e-06 8.344436717889e-05 0.0 
0.0 0.0 0.0 
-1.969547844294e-05 9.903436886762e-05 0.0 
9.903436886762e-05 1.880611464921e-03 0.0 
0.0 0.0 0.0 
-5.857975021495e-05 5.422124472091e-06 0.0 
5.422124472091e-06 1.609521774557e-03 0.0 
0.0 0.0 0.0 
1.525652869927e-05 -3.585710170709e-05 0.0 
-3.585710170709e-05 1.973550919132e-04 0.0 
0.0 0.0 0.0 
-6.510520476910e-05 7.447474769166e-06 0.0 
7.447474769166e-06 1.568423259974e-03 0.0 
0.0 0.0 0.0 
1.580551589608e-07 2.518582069697e-04 0.0 
2.518582069697e-04 1.536998585645e-03 0.0 
0.0 0.0 0.0 
8.606123548849e-05 -6.126301637010e-06 0.0 
-6.126301637010e-06 6.981567621225e-04 0.0 
0.0 0.0 0.0 
-1.044118411132e-04 8.440249225192e-05 0.0 
8.440249225192e-05 1.306481657988e-04 0.0 
0.0 0.0 0.0 
6.982728709470e-05 -3.816515788294e-06 0.0 
-3.816515788294e-06 4.053539272419e-04 0.0 
0.0 0.0 0.0 
8.862300483514e-05 3.870342093319e-06 0.0 
3.870342093319e-06 6.022138615149e-04 0.0 
0.0 0.0 0.0 
8.729684273279e-05 8.964162829369e-06 0.0 
8.964162829369e-06 7.285107501407e-04 0.0 
0.0 0.0 0.0 
1.784007669725e-05 2.261245136245e-04 0.0 
2.261245136245e-04 1.407374744931e-03 0.0 
0.0 0.0 0.0 
8.422666406371e-05 -4.547678244433e-06 0.0 
-4.547678244433e-06 5.863799402972e-04 0.0 
0.0 0.0 0.0 
8.850001792271e-05 3.555622010065e-06 0.0 
3.555622010065e-06 6.255996852647e-04 0.0 
0.0 0.0 0.0 
-5.536398180905e-06 -1.004981093800e-05 0.0 
-1.004981093800e-05 9.749027820916e-05 0.0 
0.0 0.0 0.0 
3.869320299565e-05 7.808086519401e-05 0.0 
7.808086519401e-05 1.153611237164e-03 0.0 
0.0 0.0 0.0 
-2.315337638015e-05 2.256673878917e-04 0.0 
2.256673878917e-04 1.556796306430e-03 0.0 
0.0 0.0 0.0 
9.404109036160e-06 1.000723730353e-04 0.0 
1.000723730353e-04 2.503979973629e-04 0.0 
0.0 0.0 0.0 
-1.010131983725e-05 4.073982259907e-06 0.0 
4.073982259907e-06 1.904600175662e-03 0.0 
0.0 0.0 0.0 
1.697677839441e-05 1.214717786267e-05 0.0 
1.214717786267e-05 1.187267529585e-03 0.0 
0.0 0.0 0.0 
-6.992339719925e-05 -3.127904503799e-06 0.0 
-3.127904503799e-06 1.451177138457e-03 0.0 
0.0 0.0 0.0 
-6.179561458985e-05 4.595886643375e-06 0.0 
4.595886643375e-06 1.609372632105e-03 0.0 
0.0 0.0 0.0 
8.580641113931e-05 4.163087928533e-06 0.0 
4.163087928533e-06 5.854033824113e-04 0.0 
0.0 0.0 0.0 
8.722476875134e-05 -2.549610933864e-06 0.0 
-2.549610933864e-06 6.054265838218e-04 0.0 
0.0 0.0 0.0 
8.449136396216e-05 2.138417780048e-07 0.0 
2.138417780048e-07 6.283607390782e-04 0.0 
0.0 0.0 0.0 
5.798360945852e-05 1.838583424116e-04 0.0 
1.838583424116e-04 1.221509008275e-03 0.0 
0.0 0.0 0.0 
1.081730642172e-05 -2.257692905289e-05 0.0 
-2.257692905289e-05 1.590625944465e-04 0.0 
0.0 0.0 0.0 
-3.166678200184e-05 2.294738891467e-04 0.0 
2.294738891467e-04 1.614740698985e-03 0.0 
0.0 0.0 0.0 
-6.646017123357e-05 4.035685512029e-06 0.0 
4.035685512029e-06 1.505239952989e-03 0.0 
0.0 0.0 0.0 
-3.712451561988e-05 9.141373708592e-05 0.0 
9.141373708592e-05 1.880194122995e-03 0.0 
0.0 0.0 0.0 
4.827242979188e-05 1.722747614150e-04 0.0 
1.722747614150e-04 1.220104850895e-03 0.0 
0.0 0.0 0.0 
-6.865132662093e-05 5.273419949775e-06 0.0 
5.273419949775e-06 1.569660704993e-03 0.0 
0.0 0.0 0.0 
-4.496276892507e-05 1.965962502890e-04 0.0 
1.965962502890e-04 1.678592369003e-03 0.0 
0.0 0.0 0.0 
2.490793075016e-05 2.288084300507e-04 0.0 
2.288084300507e-04 1.406199581521e-03 0.0 
0.0 0.0 0.0 
1.529229358477e-05 2.475761571619e-04 0.0 
2.475761571619e-04 1.468007419405e-03 0.0 
0.0 0.0 0.0 
-7.876432734533e-05 9.454130540599e-05 0.0 
9.454130540599e-05 1.169877209057e-04 0.0 
0.0 0.0 0.0 
-5.483702710563e-05 1.961374076293e-04 0.0 
1.961374076293e-04 1.678673645851e-03 0.0 
0.0 0.0 0.0 
-3.850299482433e-05 2.162820247410e-04 0.0 
2.162820247410e-04 1.683909848992e-03 0.0 
0.0 0.0 0.0 
-4.287329400277e-06 -1.874804499154e-05 0.0 
-1.874804499154e-05 1.021498292357e-04 0.0 
0.0 0.0 0.0 
8.385529532084e-05 -4.459376527040e-06 0.0 
-4.459376527040e-06 5.545485846710e-04 0.0 
0.0 0.0 0.0 
-9.071285644824e-05 6.601506000094e-05 0.0 
6.601506000094e-05 1.367009682736e-04 0.0 
0.0 0.0 0.0 
-5.080331687246e-05 2.023482463763e-04 0.0 
2.023482463763e-04 1.720761273841e-03 0.0 
0.0 0.0 0.0 
-7.224988253229e-05 7.352034581749e-07 0.0 
7.352034581749e-07 1.083989737630e-03 0.0 
0.0 0.0 0.0 
-7.175015023275e-05 2.951575900638e-06 0.0 
2.951575900638e-06 1.087772532486e-03 0.0 
0.0 0.0 0.0 
-6.651610336617e-05 1.849934340381e-06 0.0 
1.849934340381e-06 1.087858433176e-03 0.0 
0.0 0.0 0.0 
-6.995896952888e-05 2.846464556322e-07 0.0 
2.846464556322e-07 1.087940465626e-03 0.0 
0.0 0.0 0.0 
-6.667222613244e-05 5.095848500438e-07 0.0 
5.095848500438e-07 1.087897146303e-03 0.0 
0.0 0.0 0.0 
-6.869892239370e-05 -7.042975647078e-07 0.0 
-7.042975647078e-07 1.087370043540e-03 0.0 
0.0 0.0 0.0 
-6.599312893341e-05 -4.936795145676e-07 0.0 
-4.936795145676e-07 1.087312954628e-03 0.0 
0.0 0.0 0.0 
-6.761060983052e-05 -1.508574029029e-06 0.0 
-1.508574029029e-06 1.086788759581e-03 0.0 
0.0 0.0 0.0 
-6.452381284494e-05 -1.116590592264e-06 0.0 
-1.116590592264e-06 1.086667076072e-03 0.0 
0.0 0.0 0.0 
-6.642510157273e-05 -2.237047211964e-06 0.0 
-2.237047211964e-06 1.086156103295e-03 0.0 
0.0 0.0 0.0 
-6.237847683344e-05 -1.521820940798e-06 0.0 
-1.521820940798e-06 1.085900676361e-03 0.0 
0.0 0.0 0.0 
-6.501385190361e-05 -2.934905888049e-06 0.0 
-2.934905888049e-06 1.085398907312e-03 0.0 
0.0 0.0 0.0 
-5.960773031732e-05 -1.825230696321e-06 0.0 
-1.825230696321e-06 1.084935991064e-03 0.0 
0.0 0.0 0.0 
-6.329315614695e-05 -3.634469650516e-06 0.0 
-3.634469650516e-06 1.084461820702e-03 0.0 
0.0 0.0 0.0 
-5.621883233564e-05 -2.077172221946e-06 0.0 
-2.077172221946e-06 1.083706183826e-03 0.0 
0.0 0.0 0.0 
-6.124866491464e-05 -4.323606328851e-06 0.0 
-4.323606328851e-06 1.083346533118e-03 0.0 
0.0 0.0 0.0 
-5.219131490275e-05 -2.294130915027e-06 0.0 
-2.294130915027e-06 1.082205677262e-03 0.0 
0.0 0.0 0.0 
-4.558754768857e-05 3.146343894579e-05 0.0 
3.146343894579e-05 1.073559952920e-03 0.0 
0.0 0.0 0.0 
-5.891122312984e-05 -5.013424963126e-06 0.0 
-5.013424963126e-06 1.082065175927e-03 0.0 
0.0 0.0 0.0 
-4.750455092295e-05 -2.489954576714e-06 0.0 
-2.489954576714e-06 1.080428947207e-03 0.0 
0.0 0.0 0.0 
-7.831208422204e-05 2.174045385349e-05 0.0 
2.174045385349e-05 1.089257650373e-03 0.0 
0.0 0.0 0.0 
-5.632853519766e-05 -5.705649251568e-06 0.0 
-5.705649251568e-06 1.080643901784e-03 0.0 
0.0 0.0 0.0 
-4.214836420202e-05 -2.670950928078e-06 0.0 
-2.670950928078e-06 1.078381654435e-03 0.0 
0.0 0.0 0.0 
-5.354266623292e-05 -6.396167465242e-06 0.0 
-6.396167465242e-06 1.079099677035e-03 0.0 
0.0 0.0 0.0 
-3.613473426156e-05 -2.824731261396e-06 0.0 
-2.824731261396e-06 1.076051658241e-03 0.0 
0.0 0.0 0.0 
-5.063125609239e-05 -7.050846412014e-06 0.0 
-7.050846412014e-06 1.077448740793e-03 0.0 
0.0 0.0 0.0 
3.698057162937e-06 5.617761981599e-06 0.0 
5.617761981599e-06 1.034152835788e-03 0.0 
0.0 0.0 0.0 
-2.947175157020e-05 -2.928088753122e-06 0.0 
-2.928088753122e-06 1.073428526039e-03 0.0 
0.0 0.0 0.0 
-4.775097686893e-05 -7.536960762616e-06 0.0 
-7.536960762616e-06 1.075862083465e-03 0.0 
0.0 0.0 0.0 
-2.222658372275e-05 -2.899607422774e-06 0.0 
-2.899607422774e-06 1.070675083392e-03 0.0 
0.0 0.0 0.0 
-4.539061858111e-05 -7.926221360360e-06 0.0 
-7.926221360360e-06 1.074420232047e-03 0.0 
0.0 0.0 0.0 
-1.457525614745e-05 -2.789703862116e-06 0.0 
-2.789703862116e-06 1.067793648544e-03 0.0 
0.0 0.0 0.0 
-4.368350239947e-05 -7.954115037987e-06 0.0 
-7.954115037987e-06 1.073438094095e-03 0.0 
0.0 0.0 0.0 
-6.935787236650e-06 -2.338141001883e-06 0.0 
-2.338141001883e-06 1.065085481212e-03 0.0 
0.0 0.0 0.0 
-4.376579649734e-05 -7.881064842608e-06 0.0 
-7.881064842608e-06 1.072734591318e-03 0.0 
0.0 0.0 0.0 
1.142381360619e-07 -1.646761160882e-06 0.0 
-1.646761160882e-06 1.062133560617e-03 0.0 
0.0 0.0 0.0 
-4.537082068168e-05 -6.174927191236e-06 0.0 
-6.174927191236e-06 1.073473697867e-03 0.0 
0.0 0.0 0.0 
-1.062036818709e-04 7.752676370177e-05 0.0 
7.752676370177e-05 1.110440726001e-03 0.0 
0.0 0.0 0.0 
-5.216181234058e-05 -4.641509790561e-06 0.0 
-4.641509790561e-06 1.074609924840e-03 0.0 
0.0 0.0 0.0 
5.405861758678e-06 3.274742239137e-07 0.0 
3.274742239137e-07 1.060609982435e-03 0.0 
0.0 0.0 0.0 
-5.710049072982e-05 4.284099202558e-06 0.0 
4.284099202558e-06 1.078409005286e-03 0.0 
0.0 0.0 0.0 
7.433378834687e-06 3.914585450941e-06 0.0 
3.914585450941e-06 1.057374613641e-03 0.0 
0.0 0.0 0.0 
1.494277986458e-06 1.482394258127e-05 0.0 
1.482394258127e-05 1.058167408262e-03 0.0 
0.0 0.0 0.0 
-8.674016284438e-05 1.369550553701e-05 0.0 
1.369550553701e-05 1.103774176513e-03 0.0 
0.0 0.0 0.0 
-7.916116930207e-05 -8.173337729404e-06 0.0 
-8.173337729404e-06 1.093233844780e-03 0.0 
0.0 0.0 0.0 
-7.373940519428e-05 1.003331385339e-05 0.0 
1.003331385339e-05 1.083586175895e-03 0.0 
0.0 0.0 0.0 
-7.269061283388e-05 -9.681230538762e-09 0.0 
-9.681230538762e-09 1.103013930345e-03 0.0 
0.0 0.0 0.0 
-8.023326815942e-05 2.069528526029e-06 0.0 
2.069528526029e-06 1.074219446806e-03 0.0 
0.0 0.0 0.0 
-9.223815301707e-05 7.958134314387e-05 0.0 
7.958134314387e-05 1.044763389844e-03 0.0 
0.0 0.0 0.0 
-7.117000189238e-05 -2.721441748669e-06 0.0 
-2.721441748669e-06 1.158313143179e-03 0.0 
0.0 0.0 0.0 
-7.175015023275e-05 1.144687036613e-07 0.0 
1.144687036613e-07 1.153448497197e-03 0.0 
0.0 0.0 0.0 
-7.096111236427e-05 -1.177565450264e-06 0.0 
-1.177565450264e-06 1.153317321187e-03 0.0 
0.0 0.0 0.0 
-6.995896952888e-05 -1.273276522015e-06 0.0 
-1.273276522015e-06 1.152636928206e-03 0.0 
0.0 0.0 0.0 
-7.034001274264e-05 -1.529169812862e-06 0.0 
-1.529169812862e-06 1.152600687581e-03 0.0 
0.0 0.0 0.0 
-6.869892239370e-05 -1.982593003026e-06 0.0 
-1.982593003026e-06 1.152087566140e-03 0.0 
0.0 0.0 0.0 
-6.974227360790e-05 -2.233057664238e-06 0.0 
-2.233057664238e-06 1.152047906720e-03 0.0 
0.0 0.0 0.0 
-6.761060983052e-05 -2.933162858727e-06 0.0 
-2.933162858727e-06 1.151641035731e-03 0.0 
0.0 0.0 0.0 
-6.921810972627e-05 -3.011849842141e-06 0.0 
-3.011849842141e-06 1.151646481171e-03 0.0 
0.0 0.0 0.0 
-6.642510157273e-05 -3.954725271778e-06 0.0 
-3.954725271778e-06 1.151231421010e-03 0.0 
0.0 0.0 0.0 
-6.875522930316e-05 -3.778987089791e-06 0.0 
-3.778987089791e-06 1.151336570338e-03 0.0 
0.0 0.0 0.0 
-6.501385190361e-05 -4.989581529292e-06 0.0 
-4.989581529292e-06 1.150787576170e-03 0.0 
0.0 0.0 0.0 
-6.829731330138e-05 -4.568968186665e-06 0.0 
-4.568968186665e-06 1.151035346846e-03 0.0 
0.0 0.0 0.0 
-6.329315614695e-05 -6.044534584379e-06 0.0 
-6.044534584379e-06 1.150193592502e-03 0.0 
0.0 0.0 0.0 
-6.779551834257e-05 -5.334705443527e-06 0.0 
-5.334705443527e-06 1.150657618646e-03 0.0 
0.0 0.0 0.0 
-6.124866491464e-05 -7.082787143321e-06 0.0 
-7.082787143321e-06 1.149434941440e-03 0.0 
0.0 0.0 0.0 
-7.819339099657e-05 3.055844857569e-05 0.0 
3.055844857569e-05 1.146052326064e-03 0.0 
0.0 0.0 0.0 
-6.724169324956e-05 -6.028526446831e-06 0.0 
-6.028526446831e-06 1.150212755812e-03 0.0 
0.0 0.0 0.0 
-5.891122312984e-05 -8.055173344363e-06 0.0 
-8.055173344363e-06 1.148566836715e-03 0.0 
0.0 0.0 0.0 
-5.710049072982e-05 2.199387298488e-05 0.0 
2.199387298488e-05 1.117758769060e-03 0.0 
0.0 0.0 0.0 
-6.683229320448e-05 -6.636954923688e-06 0.0 
-6.636954923688e-06 1.149771012804e-03 0.0 
0.0 0.0 0.0 
-5.632853519766e-05 -8.948337456040e-06 0.0 
-8.948337456040e-06 1.147601479672e-03 0.0 
0.0 0.0 0.0 
-9.486726031316e-05 2.320541399064e-05 0.0 
2.320541399064e-05 1.157573827978e-03 0.0 
0.0 0.0 0.0 
-6.659187179281e-05 -7.174742605988e-06 0.0 
-7.174742605988e-06 1.149353121668e-03 0.0 
0.0 0.0 0.0 
-5.354266623292e-05 -9.710893463106e-06 0.0 
-9.710893463106e-06 1.146509622141e-03 0.0 
0.0 0.0 0.0 
-6.657973341095e-05 -7.578696053293e-06 0.0 
-7.578696053293e-06 1.148962276632e-03 0.0 
0.0 0.0 0.0 
-5.063125609239e-05 -1.023330440728e-05 0.0 
-1.023330440728e-05 1.145279472929e-03 0.0 
0.0 0.0 0.0 
-6.699617840344e-05 -7.719082327064e-06 0.0 
-7.719082327064e-06 1.148642262198e-03 0.0 
0.0 0.0 0.0 
-4.775097686893e-05 -1.028548773741e-05 0.0 
-1.028548773741e-05 1.143847491581e-03 0.0 
0.0 0.0 0.0 
-1.004029883778e-04 5.297941503517e-05 0.0 
5.297941503517e-05 1.162900062818e-03 0.0 
0.0 0.0 0.0 
-6.792547511714e-05 -7.050829011913e-06 0.0 
-7.050829011913e-06 1.148583128722e-03 0.0 
0.0 0.0 0.0 
-4.539061858111e-05 -9.558008797940e-06 0.0 
-9.558008797940e-06 1.142914425118e-03 0.0 
0.0 0.0 0.0 
-7.039495475158e-05 -6.067321564025e-06 0.0 
-6.067321564025e-06 1.149048675315e-03 0.0 
0.0 0.0 0.0 
-4.368350239947e-05 -7.771587908221e-06 0.0 
-7.771587908221e-06 1.141477672079e-03 0.0 
0.0 0.0 0.0 
-4.376579649734e-05 -4.277773335639e-06 0.0 
-4.277773335639e-06 1.141426236486e-03 0.0 
0.0 0.0 0.0 
-7.363891081313e-05 -3.130365218820e-06 0.0 
-3.130365218820e-06 1.149983515574e-03 0.0 
0.0 0.0 0.0 
-4.537082068168e-05 2.082825798549e-06 0.0 
2.082825798549e-06 1.138456571396e-03 0.0 
0.0 0.0 0.0 
-8.015239384651e-05 -1.874704136606e-07 0.0 
-1.874704136606e-07 1.151475323114e-03 0.0 
0.0 0.0 0.0 
-5.216181234058e-05 1.405960853673e-05 0.0 
1.405960853673e-05 1.139249896099e-03 0.0 
0.0 0.0 0.0 
-8.263994715096e-05 9.376407530781e-06 0.0 
9.376407530781e-06 1.152567793063e-03 0.0 
0.0 0.0 0.0 
-9.284005123678e-05 2.731520107741e-05 0.0 
2.731520107741e-05 1.145359557599e-03 0.0 
0.0 0.0 0.0 
-6.929386858034e-05 -9.171506564858e-06 0.0 
-9.171506564858e-06 1.149681567769e-03 0.0 
0.0 0.0 0.0 
-7.441870079938e-05 7.767327644909e-06 0.0 
7.767327644909e-06 1.158839612085e-03 0.0 
0.0 0.0 0.0 
-7.269061283388e-05 -1.518714505546e-06 0.0 
-1.518714505546e-06 1.137987653259e-03 0.0 
0.0 0.0 0.0 
-7.106626649367e-05 3.969491781339e-07 0.0 
3.969491781339e-07 1.170024942234e-03 0.0 
0.0 0.0 0.0 
-7.831208422204e-05 5.697578248412e-05 0.0 
5.697578248412e-05 1.112066984438e-03 0.0 
0.0 0.0 0.0 
-7.117000189238e-05 -3.456882725473e-06 0.0 
-3.456882725473e-06 1.211097325860e-03 0.0 
0.0 0.0 0.0 
-7.136062127810e-05 -4.129859669390e-07 0.0 
-4.129859669390e-07 1.217052763697e-03 0.0 
0.0 0.0 0.0 
-7.096111236427e-05 -2.308834766441e-06 0.0 
-2.308834766441e-06 1.217241349805e-03 0.0 
0.0 0.0 0.0 
-7.137344172259e-05 -2.317418738083e-06 0.0 
-2.317418738083e-06 1.217578268764e-03 0.0 
0.0 0.0 0.0 
-7.034001274264e-05 -2.412114862101e-06 0.0 
-2.412114862101e-06 1.217586660145e-03 0.0 
0.0 0.0 0.0 
-7.150377019416e-05 -2.947408207209e-06 0.0 
-2.947408207209e-06 1.217565775659e-03 0.0 
0.0 0.0 0.0 
-6.974227360790e-05 -2.937110178214e-06 0.0 
-2.937110178214e-06 1.217546101088e-03 0.0 
0.0 0.0 0.0 
-7.157142748015e-05 -3.771624715337e-06 0.0 
-3.771624715337e-06 1.217486146581e-03 0.0 
0.0 0.0 0.0 
-6.921810972627e-05 -3.630167888766e-06 0.0 
-3.630167888766e-06 1.217414011785e-03 0.0 
0.0 0.0 0.0 
-7.191189541478e-05 -4.706945231326e-06 0.0 
-4.706945231326e-06 1.217529750462e-03 0.0 
0.0 0.0 0.0 
-6.875522930316e-05 -4.417125967384e-06 0.0 
-4.417125967384e-06 1.217371779696e-03 0.0 
0.0 0.0 0.0 
-7.234511098497e-05 -5.732155313032e-06 0.0 
-5.732155313032e-06 1.217645344495e-03 0.0 
0.0 0.0 0.0 
-6.829731330138e-05 -5.211494505672e-06 0.0 
-5.211494505672e-06 1.217339149409e-03 0.0 
0.0 0.0 0.0 
-7.314087593024e-05 -6.843641494728e-06 0.0 
-6.843641494728e-06 1.217827594308e-03 0.0 
0.0 0.0 0.0 
-6.779551834257e-05 -5.997293491488e-06 0.0 
-5.997293491488e-06 1.217275240804e-03 0.0 
0.0 0.0 0.0 
-9.773853902195e-05 2.396617397716e-05 0.0 
2.396617397716e-05 1.218624508078e-03 0.0 
0.0 0.0 0.0 
-7.384237959585e-05 -7.925279095622e-06 0.0 
-7.925279095622e-06 1.217918759158e-03 0.0 
0.0 0.0 0.0 
-1.054845994711e-04 1.765601860315e-05 0.0 
1.765601860315e-05 1.225872225155e-03 0.0 
0.0 0.0 0.0 
-6.724169324956e-05 -6.565729053382e-06 0.0 
-6.565729053382e-06 1.216972801892e-03 0.0 
0.0 0.0 0.0 
-7.496766346826e-05 -8.668476484835e-06 0.0 
-8.668476484835e-06 1.218164538993e-03 0.0 
0.0 0.0 0.0 
-6.683229320448e-05 -6.974257591046e-06 0.0 
-6.974257591046e-06 1.216808968905e-03 0.0 
0.0 0.0 0.0 
-7.654970317328e-05 -9.279679596859e-06 0.0 
-9.279679596859e-06 1.218573820612e-03 0.0 
0.0 0.0 0.0 
-6.659187179281e-05 -7.184987142569e-06 0.0 
-7.184987142569e-06 1.216668678764e-03 0.0 
0.0 0.0 0.0 
-7.844087735120e-05 -9.639142785746e-06 0.0 
-9.639142785746e-06 1.219038873587e-03 0.0 
0.0 0.0 0.0 
-8.263994715096e-05 2.087504183541e-05 0.0 
2.087504183541e-05 1.191927653795e-03 0.0 
0.0 0.0 0.0 
-6.657973341095e-05 -6.992482103625e-06 0.0 
-6.992482103625e-06 1.216383374224e-03 0.0 
0.0 0.0 0.0 
-8.093417771327e-05 -9.440936556210e-06 0.0 
-9.440936556210e-06 1.219618204398e-03 0.0 
0.0 0.0 0.0 
-6.699617840344e-05 -6.200507246595e-06 0.0 
-6.200507246595e-06 1.216039724170e-03 0.0 
0.0 0.0 0.0 
-8.426142955043e-05 -8.593102754181e-06 0.0 
-8.593102754181e-06 1.220223918620e-03 0.0 
0.0 0.0 0.0 
-6.792547511714e-05 -4.217024887715e-06 0.0 
-4.217024887715e-06 1.215159509696e-03 0.0 
0.0 0.0 0.0 
-8.775854516629e-05 -5.517182980938e-06 0.0 
-5.517182980938e-06 1.221281605068e-03 0.0 
0.0 0.0 0.0 
-7.039495475158e-05 -9.565693333637e-07 0.0 
-9.565693333637e-07 1.215419389930e-03 0.0 
0.0 0.0 0.0 
-9.424767094313e-05 -2.218310037180e-06 0.0 
-2.218310037180e-06 1.222492278915e-03 0.0 
0.0 0.0 0.0 
-9.680447988059e-05 6.375608428033e-06 0.0 
6.375608428033e-06 1.223231987074e-03 0.0 
0.0 0.0 0.0 
-7.363891081313e-05 4.707337516801e-06 0.0 
4.707337516801e-06 1.213654359252e-03 0.0 
0.0 0.0 0.0 
-1.086680284820e-04 3.868981103461e-05 0.0 
3.868981103461e-05 1.229524020306e-03 0.0 
0.0 0.0 0.0 
-8.015239384651e-05 1.377223523531e-05 0.0 
1.377223523531e-05 1.213937071248e-03 0.0 
0.0 0.0 0.0 
-1.031304310304e-04 2.228746676813e-05 0.0 
2.228746676813e-05 1.207316777266e-03 0.0 
0.0 0.0 0.0 
-7.327888649966e-05 -9.107475818736e-06 0.0 
-9.107475818736e-06 1.218633262923e-03 0.0 
0.0 0.0 0.0 
-6.876068437134e-05 7.527768131722e-06 0.0 
7.527768131722e-06 1.210546587494e-03 0.0 
0.0 0.0 0.0 
-7.091798887715e-05 -1.475870564181e-06 0.0 
-1.475870564181e-06 1.231270564867e-03 0.0 
0.0 0.0 0.0 
-7.106626649367e-05 1.823409079648e-07 0.0 
1.823409079648e-07 1.198414748413e-03 0.0 
0.0 0.0 0.0 
-9.486726031316e-05 4.278728499213e-05 0.0 
4.278728499213e-05 1.187193648796e-03 0.0 
0.0 0.0 0.0 
-7.172626145435e-05 -3.283117026828e-06 0.0 
-3.283117026828e-06 1.287190603258e-03 0.0 
0.0 0.0 0.0 
-7.136062127810e-05 -5.954754634287e-07 0.0 
-5.954754634287e-07 1.281807624381e-03 0.0 
0.0 0.0 0.0 
-7.152949952716e-05 -2.308196602671e-06 0.0 
-2.308196602671e-06 1.281606712130e-03 0.0 
0.0 0.0 0.0 
-7.137344172259e-05 -2.375329190014e-06 0.0 
-2.375329190014e-06 1.281599397202e-03 0.0 
0.0 0.0 0.0 
-7.222439345111e-05 -2.238618720426e-06 0.0 
-2.238618720426e-06 1.281630147636e-03 0.0 
0.0 0.0 0.0 
-7.150377019416e-05 -2.798338232341e-06 0.0 
-2.798338232341e-06 1.282056849083e-03 0.0 
0.0 0.0 0.0 
-7.316213574438e-05 -2.818910943054e-06 0.0 
-2.818910943054e-06 1.282074961602e-03 0.0 
0.0 0.0 0.0 
-7.157142748015e-05 -3.510166295907e-06 0.0 
-3.510166295907e-06 1.282096907887e-03 0.0 
0.0 0.0 0.0 
-7.382182997839e-05 -3.123465658361e-06 0.0 
-3.123465658361e-06 1.282259311242e-03 0.0 
0.0 0.0 0.0 
-7.191189541478e-05 -4.105459950438e-06 0.0 
-4.105459950438e-06 1.282581394663e-03 0.0 
0.0 0.0 0.0 
-7.530882898243e-05 -3.742979106123e-06 0.0 
-3.742979106123e-06 1.282815115937e-03 0.0 
0.0 0.0 0.0 
-7.234511098497e-05 -4.889593693842e-06 0.0 
-4.889593693842e-06 1.282767221441e-03 0.0 
0.0 0.0 0.0 
-7.664408724739e-05 -4.024257332063e-06 0.0 
-4.024257332063e-06 1.283305759455e-03 0.0 
0.0 0.0 0.0 
-1.081342531752e-04 1.852949438306e-05 0.0 
1.852949438306e-05 1.288133761703e-03 0.0 
0.0 0.0 0.0 
-7.314087593024e-05 -5.491477351452e-06 0.0 
-5.491477351452e-06 1.283501152312e-03 0.0 
0.0 0.0 0.0 
-7.888747496820e-05 -4.891609751739e-06 0.0 
-4.891609751739e-06 1.284101593759e-03 0.0 
0.0 0.0 0.0 
-9.680447988059e-05 1.698530202660e-05 0.0 
1.698530202660e-05 1.262952805978e-03 0.0 
0.0 0.0 0.0 
-7.384237959585e-05 -6.226305408055e-06 0.0 
-6.226305408055e-06 1.283336713142e-03 0.0 
0.0 0.0 0.0 
-8.091955254363e-05 -4.890756329619e-06 0.0 
-4.890756329619e-06 1.284539660412e-03 0.0 
0.0 0.0 0.0 
-1.106837062885e-04 1.593351995562e-05 0.0 
1.593351995562e-05 1.291367099409e-03 0.0 
0.0 0.0 0.0 
-7.496766346826e-05 -6.367038138442e-06 0.0 
-6.367038138442e-06 1.283658175813e-03 0.0 
0.0 0.0 0.0 
-8.379890342536e-05 -4.657192162356e-06 0.0 
-4.657192162356e-06 1.285427915655e-03 0.0 
0.0 0.0 0.0 
-7.654970317328e-05 -6.189405991307e-06 0.0 
-6.189405991307e-06 1.284183586498e-03 0.0 
0.0 0.0 0.0 
-8.710238182685e-05 -4.410834961685e-06 0.0 
-4.410834961685e-06 1.286438988960e-03 0.0 
0.0 0.0 0.0 
-7.844087735120e-05 -5.541817826310e-06 0.0 
-5.541817826310e-06 1.284276170792e-03 0.0 
0.0 0.0 0.0 
-1.145036697345e-04 3.035101886654e-05 0.0 
3.035101886654e-05 1.296456873564e-03 0.0 
0.0 0.0 0.0 
-9.081268362265e-05 -3.367077822553e-06 0.0 
-3.367077822553e-06 1.287352406038e-03 0.0 
0.0 0.0 0.0 
-8.093417771327e-05 -3.953790043907e-06 0.0 
-3.953790043907e-06 1.284308637825e-03 0.0 
0.0 0.0 0.0 
-8.426142955043e-05 -1.289010221224e-06 0.0 
-1.289010221224e-06 1.284416538525e-03 0.0 
0.0 0.0 0.0 
-9.543628832176e-05 -1.383415450773e-06 0.0 
-1.383415450773e-06 1.288394336641e-03 0.0 
0.0 0.0 0.0 
-8.775854516629e-05 3.467656304988e-06 0.0 
3.467656304988e-06 1.281872215072e-03 0.0 
0.0 0.0 0.0 
-1.014737026964e-04 8.419797850721e-07 0.0 
8.419797850721e-07 1.289089815360e-03 0.0 
0.0 0.0 0.0 
-9.424767094313e-05 1.136684433139e-05 0.0 
1.136684433139e-05 1.283429237707e-03 0.0 
0.0 0.0 0.0 
-1.032726065747e-04 8.325918176400e-06 0.0 
8.325918176400e-06 1.289178522100e-03 0.0 
0.0 0.0 0.0 
-1.107376574339e-04 1.860375462064e-05 0.0 
1.860375462064e-05 1.273035843325e-03 0.0 
0.0 0.0 0.0 
-6.817022664651e-05 -8.754879642012e-06 0.0 
-8.754879642012e-06 1.278112835596e-03 0.0 
0.0 0.0 0.0 
-7.361222632596e-05 7.825195004164e-06 0.0 
7.825195004164e-06 1.287845664835e-03 0.0 
0.0 0.0 0.0 
-7.091798887715e-05 -1.293335307946e-06 0.0 
-1.293335307946e-06 1.266217167415e-03 0.0 
0.0 0.0 0.0 
-7.094610765435e-05 7.216133292569e-07 0.0 
7.216133292569e-07 1.299123375947e-03 0.0 
0.0 0.0 0.0 
-1.054845994711e-04 3.228520814545e-05 0.0 
3.228520814545e-05 1.258041125309e-03 0.0 
0.0 0.0 0.0 
-7.172626145435e-05 -3.524490743388e-06 0.0 
-3.524490743388e-06 1.341379265404e-03 0.0 
0.0 0.0 0.0 
-7.021198732482e-05 -7.326836655865e-07 0.0 
-7.326836655865e-07 1.345293067733e-03 0.0 
0.0 0.0 0.0 
-7.152949952716e-05 -1.621187397367e-06 0.0 
-1.621187397367e-06 1.345402156450e-03 0.0 
0.0 0.0 0.0 
-7.184482521871e-05 -1.286009582230e-06 0.0 
-1.286009582230e-06 1.346275497993e-03 0.0 
0.0 0.0 0.0 
-7.222439345111e-05 -1.569929288887e-06 0.0 
-1.569929288887e-06 1.346328556587e-03 0.0 
0.0 0.0 0.0 
-7.294079686126e-05 -1.373269587327e-06 0.0 
-1.373269587327e-06 1.347233356639e-03 0.0 
0.0 0.0 0.0 
-7.316213574438e-05 -2.037788965465e-06 0.0 
-2.037788965465e-06 1.347392777653e-03 0.0 
0.0 0.0 0.0 
-7.386717407509e-05 -2.363195879488e-06 0.0 
-2.363195879488e-06 1.347350593226e-03 0.0 
0.0 0.0 0.0 
-7.382182997839e-05 -1.802494856135e-06 0.0 
-1.802494856135e-06 1.347184700536e-03 0.0 
0.0 0.0 0.0 
-7.550895736841e-05 -1.792080331164e-06 0.0 
-1.792080331164e-06 1.348346064834e-03 0.0 
0.0 0.0 0.0 
-7.530882898243e-05 -2.048193128306e-06 0.0 
-2.048193128306e-06 1.348430225214e-03 0.0 
0.0 0.0 0.0 
-7.791652277811e-05 -2.695119769138e-06 0.0 
-2.695119769138e-06 1.349047224752e-03 0.0 
0.0 0.0 0.0 
-1.128832706279e-04 1.654717270852e-05 0.0 
1.654717270852e-05 1.355568728099e-03 0.0 
0.0 0.0 0.0 
-7.664408724739e-05 -1.876553140123e-06 0.0 
-1.876553140123e-06 1.348656232489e-03 0.0 
0.0 0.0 0.0 
-1.126401189003e-04 1.472593899345e-05 0.0 
1.472593899345e-05 1.357128372779e-03 0.0 
0.0 0.0 0.0 
-7.920906951486e-05 -1.948645311355e-06 0.0 
-1.948645311355e-06 1.350045911602e-03 0.0 
0.0 0.0 0.0 
-7.888747496820e-05 -1.746935101017e-06 0.0 
-1.746935101017e-06 1.349933184608e-03 0.0 
0.0 0.0 0.0 
-8.369496956373e-05 -2.811479692513e-06 0.0 
-2.811479692513e-06 1.350966885574e-03 0.0 
0.0 0.0 0.0 
-8.091955254363e-05 -1.089378403242e-06 0.0 
-1.089378403242e-06 1.349860713631e-03 0.0 
0.0 0.0 0.0 
-8.730515600652e-05 -1.748546019112e-06 0.0 
-1.748546019112e-06 1.352111878031e-03 0.0 
0.0 0.0 0.0 
-8.379890342536e-05 -2.258035238195e-07 0.0 
-2.258035238195e-07 1.350912838106e-03 0.0 
0.0 0.0 0.0 
-9.075356638566e-05 -8.289568305058e-07 0.0 
-8.289568305058e-07 1.353279347565e-03 0.0 
0.0 0.0 0.0 
-1.032726065747e-04 1.722562144260e-05 0.0 
1.722562144260e-05 1.330830045423e-03 0.0 
0.0 0.0 0.0 
-8.710238182685e-05 1.236594746284e-06 0.0 
1.236594746284e-06 1.351560640031e-03 0.0 
0.0 0.0 0.0 
-9.540363594052e-05 6.168727201193e-07 0.0 
6.168727201193e-07 1.354234258405e-03 0.0 
0.0 0.0 0.0 
-9.081268362265e-05 3.769995346856e-06 0.0 
3.769995346856e-06 1.351436641454e-03 0.0 
0.0 0.0 0.0 
-1.001692528028e-04 3.733945350101e-06 0.0 
3.733945350101e-06 1.354961526933e-03 0.0 
0.0 0.0 0.0 
-1.057357365096e-04 8.713167393696e-06 0.0 
8.713167393696e-06 1.355832417818e-03 0.0 
0.0 0.0 0.0 
-9.543628832176e-05 7.782474938423e-06 0.0 
7.782474938423e-06 1.351173662615e-03 0.0 
0.0 0.0 0.0 
-1.014737026964e-04 1.293156961985e-05 0.0 
1.293156961985e-05 1.351635810945e-03 0.0 
0.0 0.0 0.0 
-1.154729157843e-04 2.595766257961e-05 0.0 
2.595766257961e-05 1.362075568887e-03 0.0 
0.0 0.0 0.0 
-1.121907721848e-04 1.734646436437e-05 0.0 
1.734646436437e-05 1.336893739754e-03 0.0 
0.0 0.0 0.0 
-7.275115480776e-05 -7.726178673215e-06 0.0 
-7.726178673215e-06 1.346024684046e-03 0.0 
0.0 0.0 0.0 
-6.975090773342e-05 8.800236197718e-06 0.0 
8.800236197718e-06 1.340652572683e-03 0.0 
0.0 0.0 0.0 
-7.150286526469e-05 1.951539271837e-07 0.0 
1.951539271837e-07 1.360225447925e-03 0.0 
0.0 0.0 0.0 
-7.094610765435e-05 1.192753288051e-06 0.0 
1.192753288051e-06 1.327011033811e-03 0.0 
0.0 0.0 0.0 
-1.106837062885e-04 2.714010894025e-05 0.0 
2.714010894025e-05 1.327958958359e-03 0.0 
0.0 0.0 0.0 

TENSORS element_materi_strain_plasti float
-7.112834060814e-05 3.514287460403e-05 0.0 
3.514287460403e-05 4.221004333340e-04 0.0 
0.0 0.0 -6.331083958573e-05 
-5.846555959083e-05 -3.955396469031e-05 0.0 
-3.955396469031e-05 3.778270157352e-04 0.0 
0.0 0.0 -6.454996159239e-05 
-1.889012089990e-04 -4.635760778403e-06 0.0 
-4.635760778403e-06 1.261715003762e-03 0.0 
0.0 0.0 -1.917354871627e-04 
-1.892197240299e-04 -2.621872887778e-05 0.0 
-2.621872887778e-05 1.272074442975e-03 0.0 
0.0 0.0 -1.883397590782e-04 
-1.197492232907e-04 3.454635042166e-05 0.0 
3.454635042166e-05 7.881734594548e-04 0.0 
0.0 0.0 -1.194279202642e-04 
-3.089019924433e-05 3.311410509038e-05 0.0 
3.311410509038e-05 1.513652850395e-04 0.0 
0.0 0.0 -2.690189283898e-05 
-1.181845121128e-04 4.042873295375e-05 0.0 
4.042873295375e-05 7.806844228614e-04 0.0 
0.0 0.0 -1.201653584795e-04 
-6.192381097420e-05 6.121385101826e-06 0.0 
6.121385101826e-06 4.031113170469e-04 0.0 
0.0 0.0 -6.068503909357e-05 
-1.204422882212e-04 -4.316649774326e-05 0.0 
-4.316649774326e-05 7.921064928151e-04 0.0 
0.0 0.0 -1.196685615722e-04 
-1.872884217324e-04 3.363141611130e-05 0.0 
3.363141611130e-05 1.259931992447e-03 0.0 
0.0 0.0 -1.879590212157e-04 
-1.310105652939e-04 2.220654670134e-05 0.0 
2.220654670134e-05 8.586450598517e-04 0.0 
0.0 0.0 -1.322476557103e-04 
-5.719807020115e-05 3.286461856499e-08 0.0 
3.286461856499e-08 3.230799459092e-04 0.0 
0.0 0.0 -5.602547750609e-05 
-1.877824496395e-04 3.388580337900e-05 0.0 
3.388580337900e-05 1.270169470641e-03 0.0 
0.0 0.0 -1.888781569884e-04 
-1.271872132406e-04 2.790230920199e-05 0.0 
2.790230920199e-05 8.458021199286e-04 0.0 
0.0 0.0 -1.278925217316e-04 
-1.932284152260e-04 -2.749272838120e-05 0.0 
-2.749272838120e-05 1.293984431102e-03 0.0 
0.0 0.0 -1.934308312547e-04 
-1.951772105051e-04 3.059468724474e-05 0.0 
3.059468724474e-05 1.293909326463e-03 0.0 
0.0 0.0 -1.928977411855e-04 
-1.183364621444e-04 7.034029580759e-07 0.0 
7.034029580759e-07 7.884128395372e-04 0.0 
0.0 0.0 -1.161101519611e-04 
-2.611548289249e-05 -2.976881314846e-05 0.0 
-2.976881314846e-05 1.366026820107e-04 0.0 
0.0 0.0 -2.739356786257e-05 
-4.655901900947e-05 -1.783274604704e-05 0.0 
-1.783274604704e-05 2.713105741166e-04 0.0 
0.0 0.0 -4.164025237647e-05 
-4.525890771348e-05 1.651863799484e-05 0.0 
1.651863799484e-05 2.466759593770e-04 0.0 
0.0 0.0 -4.546658199970e-05 
-1.855467270519e-04 -3.410013315625e-05 0.0 
-3.410013315625e-05 1.271232436366e-03 0.0 
0.0 0.0 -1.875582398551e-04 
-7.183248799894e-05 1.385365681385e-05 0.0 
1.385365681385e-05 4.407830654411e-04 0.0 
0.0 0.0 -7.216713101957e-05 
-7.730219154025e-05 -1.500465902034e-05 0.0 
-1.500465902034e-05 4.983174969402e-04 0.0 
0.0 0.0 -7.637334323853e-05 
-1.811871610611e-04 -2.281549761052e-05 0.0 
-2.281549761052e-05 1.217872226341e-03 0.0 
0.0 0.0 -1.815559455716e-04 
-1.350733973102e-04 3.295465992380e-05 0.0 
3.295465992380e-05 9.016620137675e-04 0.0 
0.0 0.0 -1.369648256180e-04 
-1.376188637296e-04 -2.176217058498e-05 0.0 
-2.176217058498e-05 9.243651343577e-04 0.0 
0.0 0.0 -1.376939605679e-04 
-1.069658315495e-04 -2.744737862324e-06 0.0 
-2.744737862324e-06 7.297614599069e-04 0.0 
0.0 0.0 -1.072212406194e-04 
-1.912521162051e-04 1.980335045204e-06 0.0 
1.980335045204e-06 1.305953059909e-03 0.0 
0.0 0.0 -1.899071758113e-04 
-1.362716787782e-04 -3.798939155730e-05 0.0 
-3.798939155730e-05 9.083018994538e-04 0.0 
0.0 0.0 -1.367086240186e-04 
-1.873007466112e-04 2.251116880675e-05 0.0 
2.251116880675e-05 1.247916240988e-03 0.0 
0.0 0.0 -1.856871487262e-04 
-3.243755210516e-05 5.032771115372e-06 0.0 
5.032771115372e-06 2.086151015531e-04 0.0 
0.0 0.0 -3.278963886402e-05 
-1.654166470030e-05 4.638693750366e-06 0.0 
4.638693750366e-06 9.012172148024e-05 0.0 
0.0 0.0 -1.589633704410e-05 
-1.936928702910e-04 8.344522422306e-06 0.0 
8.344522422306e-06 1.305844555641e-03 0.0 
0.0 0.0 -1.891952015075e-04 
-1.629254088575e-04 -2.764733331880e-05 0.0 
-2.764733331880e-05 1.087637140145e-03 0.0 
0.0 0.0 -1.635300645102e-04 
-1.844440851533e-04 -3.122724235015e-05 0.0 
-3.122724235015e-05 1.269225288252e-03 0.0 
0.0 0.0 -1.882484805285e-04 
-2.000892196314e-04 5.806438950548e-05 0.0 
5.806438950548e-05 1.337814960827e-03 0.0 
0.0 0.0 -1.972329526028e-04 
-1.979323581362e-04 -6.123980485016e-05 0.0 
-6.123980485016e-05 1.334624137008e-03 0.0 
0.0 0.0 -1.971979658877e-04 
-1.876565914579e-04 2.632656749342e-05 0.0 
2.632656749342e-05 1.265796013128e-03 0.0 
0.0 0.0 -1.897108526679e-04 
-1.089254337778e-04 -4.761071042110e-05 0.0 
-4.761071042110e-05 7.109927537120e-04 0.0 
0.0 0.0 -1.107114518244e-04 
-1.094034421642e-04 5.351990132505e-05 0.0 
5.351990132505e-05 7.212963119965e-04 0.0 
0.0 0.0 -1.105676175232e-04 
-8.675634194158e-05 -2.048772068430e-05 0.0 
-2.048772068430e-05 5.676637230470e-04 0.0 
0.0 0.0 -8.691834785005e-05 
-1.894316575551e-04 1.529535291875e-06 0.0 
1.529535291875e-06 1.267582633286e-03 0.0 
0.0 0.0 -1.921134732322e-04 
-4.839148529355e-05 3.269211206116e-05 0.0 
3.269211206116e-05 2.885062742471e-04 0.0 
0.0 0.0 -4.811778726964e-05 
-1.084239785972e-04 8.299246254447e-06 0.0 
8.299246254447e-06 6.943716908755e-04 0.0 
0.0 0.0 -1.102508860907e-04 
-1.837583847109e-04 -1.472486193336e-05 0.0 
-1.472486193336e-05 1.244009219740e-03 0.0 
0.0 0.0 -1.819287770889e-04 
-4.809827435414e-05 -2.856413507896e-05 0.0 
-2.856413507896e-05 2.876955400614e-04 0.0 
0.0 0.0 -4.797639238285e-05 
-2.674214069171e-05 -6.567095403776e-07 0.0 
-6.567095403776e-07 1.170205921082e-04 0.0 
0.0 0.0 -2.746289347828e-05 
-1.830752196458e-04 9.475420572823e-06 0.0 
9.475420572823e-06 1.215993436390e-03 0.0 
0.0 0.0 -1.852115035180e-04 
-1.474418981779e-05 6.875922652759e-07 0.0 
6.875922652759e-07 4.915161551588e-05 0.0 
0.0 0.0 -1.474603958490e-05 
-1.203307146343e-04 -2.717995598574e-05 0.0 
-2.717995598574e-05 8.158947777103e-04 0.0 
0.0 0.0 -1.234415444935e-04 
-8.234981639965e-05 -1.699589320995e-05 0.0 
-1.699589320995e-05 5.359221535030e-04 0.0 
0.0 0.0 -8.161374715243e-05 
-5.082688459540e-05 -1.056431694294e-05 0.0 
-1.056431694294e-05 3.372053744103e-04 0.0 
0.0 0.0 -5.165715595373e-05 
-4.611236241503e-05 -2.201694224577e-05 0.0 
-2.201694224577e-05 2.721561722188e-04 0.0 
0.0 0.0 -4.571843846580e-05 
-8.132390918315e-05 1.940323008173e-05 0.0 
1.940323008173e-05 5.127711064819e-04 0.0 
0.0 0.0 -8.234191315183e-05 
-1.899869588384e-04 -1.183985275253e-06 0.0 
-1.183985275253e-06 1.270300843848e-03 0.0 
0.0 0.0 -1.923283752319e-04 
-6.895815039131e-05 -2.178280864622e-05 0.0 
-2.178280864622e-05 4.406253786073e-04 0.0 
0.0 0.0 -6.768350264862e-05 
-5.417817485919e-05 2.166263208896e-05 0.0 
2.166263208896e-05 3.190902094138e-04 0.0 
0.0 0.0 -5.541318120416e-05 
-1.632126763507e-04 2.740636426442e-05 0.0 
2.740636426442e-05 1.093574435161e-03 0.0 
0.0 0.0 -1.631601065255e-04 
-3.323583887555e-05 3.269521201795e-06 0.0 
3.269521201795e-06 2.033859620122e-04 0.0 
0.0 0.0 -3.284525368658e-05 
-1.937347679597e-04 -3.087303565399e-05 0.0 
-3.087303565399e-05 1.295743109935e-03 0.0 
0.0 0.0 -1.927980053726e-04 
-1.410948374280e-05 -1.895108414919e-05 0.0 
-1.895108414919e-05 7.768302090073e-05 0.0 
0.0 0.0 -1.429900283189e-05 
-1.810662248895e-04 3.422591082853e-05 0.0 
3.422591082853e-05 1.214874210850e-03 0.0 
0.0 0.0 -1.816237070315e-04 
-8.260879868620e-05 3.395540134069e-05 0.0 
3.395540134069e-05 5.200982356105e-04 0.0 
0.0 0.0 -8.245627511043e-05 
-3.949603130373e-05 1.817463478044e-05 0.0 
1.817463478044e-05 2.392386227040e-04 0.0 
0.0 0.0 -4.154126471103e-05 
-1.880584302466e-04 -2.737021915549e-05 0.0 
-2.737021915549e-05 1.269816799986e-03 0.0 
0.0 0.0 -1.886217783130e-04 
-7.828481688491e-05 1.568948501134e-05 0.0 
1.568948501134e-05 4.753725480920e-04 0.0 
0.0 0.0 -7.706359040663e-05 
-9.040619779534e-06 6.808328067989e-06 0.0 
6.808328067989e-06 3.080905476409e-05 0.0 
0.0 0.0 -9.329329279096e-06 
-1.897461617520e-04 -1.190223513879e-05 0.0 
-1.190223513879e-05 1.300793159363e-03 0.0 
0.0 0.0 -1.892491279630e-04 
-3.670459678346e-05 -3.155058415611e-05 0.0 
-3.155058415611e-05 2.097964586862e-04 0.0 
0.0 0.0 -3.606465181366e-05 
-1.910292024481e-04 -5.680018839648e-07 0.0 
-5.680018839648e-07 1.267292748539e-03 0.0 
0.0 0.0 -1.923564682915e-04 
-1.423720417950e-04 -2.542418638308e-05 0.0 
-2.542418638308e-05 9.582298228247e-04 0.0 
0.0 0.0 -1.433443585977e-04 
-2.007748921200e-04 -7.173616599770e-07 0.0 
-7.173616599770e-07 1.325499155450e-03 0.0 
0.0 0.0 -2.007748921200e-04 
-1.856237250837e-04 2.519587703739e-07 0.0 
2.519587703739e-07 1.217908679066e-03 0.0 
0.0 0.0 -1.849363666885e-04 
-1.959401746035e-05 3.302488870378e-05 0.0 
3.302488870378e-05 8.419396161668e-05 0.0 
0.0 0.0 -1.942930455437e-05 
-7.294356160709e-05 2.278666566635e-05 0.0 
2.278666566635e-05 4.423978020253e-04 0.0 
0.0 0.0 -7.166057984914e-05 
-1.881200936435e-04 -2.597496456892e-05 0.0 
-2.597496456892e-05 1.274260032451e-03 0.0 
0.0 0.0 -1.893940471826e-04 
-1.918449780582e-04 -8.194598920857e-07 0.0 
-8.194598920857e-07 1.307445909733e-03 0.0 
0.0 0.0 -1.898028072996e-04 
-3.750417093390e-05 -2.856125910662e-05 0.0 
-2.856125910662e-05 2.170807613547e-04 0.0 
0.0 0.0 -3.765846754783e-05 
-3.201050297440e-05 -1.804321051782e-06 0.0 
-1.804321051782e-06 1.678376622842e-04 0.0 
0.0 0.0 -3.550136840268e-05 
-3.928328821311e-05 3.001435520315e-05 0.0 
3.001435520315e-05 2.151736419894e-04 0.0 
0.0 0.0 -3.788339401932e-05 
-3.841727809162e-05 3.259876760906e-05 0.0 
3.259876760906e-05 1.973706613177e-04 0.0 
0.0 0.0 -3.659988700710e-05 
-1.163465053479e-04 4.799891796781e-06 0.0 
4.799891796781e-06 7.474963377636e-04 0.0 
0.0 0.0 -1.187754596314e-04 
-7.387818471422e-05 -1.490180971543e-05 0.0 
-1.490180971543e-05 4.683625195835e-04 0.0 
0.0 0.0 -7.124103466145e-05 
-6.818690854033e-05 3.229042439658e-06 0.0 
3.229042439658e-06 3.926939187943e-04 0.0 
0.0 0.0 -6.657494268075e-05 
-1.280956191016e-04 -3.699964442022e-05 0.0 
-3.699964442022e-05 8.260012594816e-04 0.0 
0.0 0.0 -1.250515658111e-04 
-1.265295814047e-04 3.342378051017e-05 0.0 
3.342378051017e-05 8.211688879782e-04 0.0 
0.0 0.0 -1.253711530225e-04 
-1.484422711167e-04 -2.770915871896e-05 0.0 
-2.770915871896e-05 9.841615042540e-04 0.0 
0.0 0.0 -1.480066387926e-04 
-1.583372546511e-04 2.913712885410e-05 0.0 
2.913712885410e-05 1.064432221446e-03 0.0 
0.0 0.0 -1.587865244471e-04 
-1.631334298294e-04 -3.149814825206e-05 0.0 
-3.149814825206e-05 1.098864964118e-03 0.0 
0.0 0.0 -1.628912057403e-04 
-1.190806096983e-04 -4.403551421918e-05 0.0 
-4.403551421918e-05 7.749316267703e-04 0.0 
0.0 0.0 -1.197484453225e-04 
-1.483799586843e-05 5.558978623438e-06 0.0 
5.558978623438e-06 4.973861707578e-05 0.0 
0.0 0.0 -1.495740908886e-05 
-1.182760976271e-04 3.125415357905e-06 0.0 
3.125415357905e-06 7.592172627745e-04 0.0 
0.0 0.0 -1.189347521933e-04 
-1.620624140011e-04 -1.653046323385e-05 0.0 
-1.653046323385e-05 1.054965702531e-03 0.0 
0.0 0.0 -1.604158976160e-04 
-1.568829102868e-04 1.686722308074e-05 0.0 
1.686722308074e-05 1.064364903998e-03 0.0 
0.0 0.0 -1.569671113975e-04 
-1.992656462665e-04 -3.194664877417e-06 0.0 
-3.194664877417e-06 1.366255928620e-03 0.0 
0.0 0.0 -1.979956382108e-04 
-1.950636109885e-04 -2.233519301319e-05 0.0 
-2.233519301319e-05 1.308516150632e-03 0.0 
0.0 0.0 -1.941292444173e-04 
-1.156817175628e-04 -1.648055008373e-05 0.0 
-1.648055008373e-05 7.482785284577e-04 0.0 
0.0 0.0 -1.183461849553e-04 
-1.927191275468e-04 -2.508365562691e-07 0.0 
-2.508365562691e-07 1.307929168688e-03 0.0 
0.0 0.0 -1.894775870554e-04 
-1.342251932282e-04 -2.319392894316e-05 0.0 
-2.319392894316e-05 8.854475909505e-04 0.0 
0.0 0.0 -1.356001284572e-04 
-7.729101182484e-05 -2.065735051107e-05 0.0 
-2.065735051107e-05 5.080668279858e-04 0.0 
0.0 0.0 -7.798198501994e-05 
-1.130620333788e-04 -2.717181399575e-05 0.0 
-2.717181399575e-05 7.549273825549e-04 0.0 
0.0 0.0 -1.146493908758e-04 
-1.950077973870e-04 2.900722902877e-05 0.0 
2.900722902877e-05 1.296464444951e-03 0.0 
0.0 0.0 -1.931276724533e-04 
-1.563208394466e-04 -3.328202351934e-05 0.0 
-3.328202351934e-05 1.049294579874e-03 0.0 
0.0 0.0 -1.565627933380e-04 
-1.819468009343e-04 -3.224668000663e-05 0.0 
-3.224668000663e-05 1.222740499621e-03 0.0 
0.0 0.0 -1.814398861444e-04 
-7.158014488702e-05 -3.063000169944e-05 0.0 
-3.063000169944e-05 4.571234338187e-04 0.0 
0.0 0.0 -7.121314524778e-05 
-2.401359942616e-05 8.661927370116e-06 0.0 
8.661927370116e-06 1.537990966386e-04 0.0 
0.0 0.0 -2.437345913330e-05 
-1.778980369956e-04 -2.992010737325e-05 0.0 
-2.992010737325e-05 1.196087071121e-03 0.0 
0.0 0.0 -1.784854310292e-04 
-1.679646052206e-04 1.093794452522e-05 0.0 
1.093794452522e-05 1.134281409959e-03 0.0 
0.0 0.0 -1.663185871606e-04 
-1.591223534516e-05 -6.661850777305e-06 0.0 
-6.661850777305e-06 9.101730959340e-05 0.0 
0.0 0.0 -1.557197371984e-05 
-1.881889712418e-04 -1.290050336167e-05 0.0 
-1.290050336167e-05 1.273792918307e-03 0.0 
0.0 0.0 -1.927691970005e-04 
-1.581915922847e-04 2.746019073347e-05 0.0 
2.746019073347e-05 1.044290574645e-03 0.0 
0.0 0.0 -1.577237574333e-04 
-1.522398741045e-05 -2.545037373997e-05 0.0 
-2.545037373997e-05 5.739303510054e-05 0.0 
0.0 0.0 -1.520280724627e-05 
-9.452563605332e-05 3.135471664961e-05 0.0 
3.135471664961e-05 6.036525676249e-04 0.0 
0.0 0.0 -9.464897897786e-05 
-1.065966120753e-04 -2.205603569538e-05 0.0 
-2.205603569538e-05 7.064327249630e-04 0.0 
0.0 0.0 -1.073087759210e-04 
-8.739882265024e-05 -1.070352948316e-05 0.0 
-1.070352948316e-05 5.348438843142e-04 0.0 
0.0 0.0 -8.658563305536e-05 
-7.050193455009e-05 2.512487401893e-05 0.0 
2.512487401893e-05 4.479548223167e-04 0.0 
0.0 0.0 -7.278598402964e-05 
-8.197347761458e-05 -3.364821245799e-05 0.0 
-3.364821245799e-05 5.279356728588e-04 0.0 
0.0 0.0 -8.207734578087e-05 
-1.943526740554e-04 1.658812663972e-05 0.0 
1.658812663972e-05 1.282091895606e-03 0.0 
0.0 0.0 -1.925749600208e-04 
-1.285507174143e-04 2.792411837159e-05 0.0 
2.792411837159e-05 8.722892326704e-04 0.0 
0.0 0.0 -1.315046391038e-04 
-7.635084208109e-05 3.539223257155e-05 0.0 
3.539223257155e-05 4.849768366675e-04 0.0 
0.0 0.0 -7.683710038160e-05 
-3.602345366775e-05 -3.490773875451e-05 0.0 
-3.490773875451e-05 2.028232612913e-04 0.0 
0.0 0.0 -3.442901837107e-05 
-1.143531422852e-04 1.924554056095e-05 0.0 
1.924554056095e-05 7.838716458168e-04 0.0 
0.0 0.0 -1.161738141813e-04 
-1.655806278350e-04 -1.376876940895e-05 0.0 
-1.376876940895e-05 1.108151184003e-03 0.0 
0.0 0.0 -1.693933130199e-04 
-7.665289294717e-05 -3.764080062832e-05 0.0 
-3.764080062832e-05 4.894086693533e-04 0.0 
0.0 0.0 -7.664586338968e-05 
-2.552121638192e-05 -2.302083249112e-05 0.0 
-2.302083249112e-05 1.475281213149e-04 0.0 
0.0 0.0 -2.705574766418e-05 
-9.705129782474e-05 -2.284636133005e-05 0.0 
-2.284636133005e-05 6.381494146743e-04 0.0 
0.0 0.0 -9.705601970096e-05 
-8.718862749644e-05 1.081562517566e-05 0.0 
1.081562517566e-05 5.609465076163e-04 0.0 
0.0 0.0 -8.368277571755e-05 
-9.188005610208e-05 2.337172912127e-05 0.0 
2.337172912127e-05 5.885957333175e-04 0.0 
0.0 0.0 -9.250784895245e-05 
-1.937480155634e-04 2.484993040014e-05 0.0 
2.484993040014e-05 1.298240083639e-03 0.0 
0.0 0.0 -1.936007957173e-04 
-3.355945300028e-05 2.658456895858e-05 0.0 
2.658456895858e-05 1.727565400742e-04 0.0 
0.0 0.0 -3.138407094312e-05 
-1.371246585787e-04 2.526301025991e-05 0.0 
2.526301025991e-05 9.050145966039e-04 0.0 
0.0 0.0 -1.382526569903e-04 
-1.907913629677e-04 3.443386103192e-05 0.0 
3.443386103192e-05 1.270684136511e-03 0.0 
0.0 0.0 -1.885035411211e-04 
-9.913884905617e-05 2.644976598077e-05 0.0 
2.644976598077e-05 6.359580153606e-04 0.0 
0.0 0.0 -9.883099357817e-05 
-9.221379330775e-05 -2.325684599943e-05 0.0 
-2.325684599943e-05 6.043674081660e-04 0.0 
0.0 0.0 -9.208844699642e-05 
-1.862615746056e-04 3.781096829900e-05 0.0 
3.781096829900e-05 1.269973218665e-03 0.0 
0.0 0.0 -1.882446207449e-04 
-1.884096905909e-04 -3.934674872020e-05 0.0 
-3.934674872020e-05 1.273205454370e-03 0.0 
0.0 0.0 -1.891606461478e-04 
-1.485481393432e-04 2.662002390059e-05 0.0 
2.662002390059e-05 9.835102888330e-04 0.0 
0.0 0.0 -1.481056985806e-04 
-1.041353074706e-04 -2.625300288913e-05 0.0 
-2.625300288913e-05 6.829723859406e-04 0.0 
0.0 0.0 -1.037420806291e-04 
-1.908037455824e-04 1.095423421666e-05 0.0 
1.095423421666e-05 1.307953283663e-03 0.0 
0.0 0.0 -1.905495916442e-04 
-9.518883604242e-05 2.687623025881e-05 0.0 
2.687623025881e-05 6.089232024020e-04 0.0 
0.0 0.0 -9.489072104906e-05 
-1.881130056819e-04 -1.198635265848e-06 0.0 
-1.198635265848e-06 1.269458159220e-03 0.0 
0.0 0.0 -1.924761743472e-04 
-1.914420449492e-04 1.145005922615e-05 0.0 
1.145005922615e-05 1.305589104302e-03 0.0 
0.0 0.0 -1.901156060054e-04 
-1.284773038693e-04 -4.042952323759e-05 0.0 
-4.042952323759e-05 8.353342118354e-04 0.0 
0.0 0.0 -1.281556075638e-04 
-1.456984047061e-04 2.919513868125e-05 0.0 
2.919513868125e-05 9.798728505287e-04 0.0 
0.0 0.0 -1.472674707441e-04 
-9.472925069399e-05 -2.740497223510e-05 0.0 
-2.740497223510e-05 6.169641832868e-04 0.0 
0.0 0.0 -9.439783777044e-05 
-8.853676466141e-05 2.434547469191e-05 0.0 
2.434547469191e-05 5.534202716498e-04 0.0 
0.0 0.0 -8.745362067080e-05 
-1.087467394465e-04 2.713932785839e-05 0.0 
2.713932785839e-05 7.009636801692e-04 0.0 
0.0 0.0 -1.081789848988e-04 
-8.105832168209e-05 -2.534314576398e-05 0.0 
-2.534314576398e-05 5.269671489274e-04 0.0 
0.0 0.0 -8.074562716359e-05 
-1.149166540237e-04 -2.952745104752e-05 0.0 
-2.952745104752e-05 7.749980976508e-04 0.0 
0.0 0.0 -1.154098978710e-04 
-9.441274236993e-05 -3.245636207382e-05 0.0 
-3.245636207382e-05 6.148929569629e-04 0.0 
0.0 0.0 -9.412559131899e-05 
-1.356916071786e-05 -1.098912209053e-05 0.0 
-1.098912209053e-05 4.639558825144e-05 0.0 
0.0 0.0 -1.406846894296e-05 
-1.232833288672e-04 -2.043397575373e-06 0.0 
-2.043397575373e-06 8.352777480186e-04 0.0 
0.0 0.0 -1.225661908866e-04 
-4.062993237950e-05 4.703139556520e-07 0.0 
4.703139556520e-07 1.797601039323e-04 0.0 
0.0 0.0 -3.559753881786e-05 
-1.023820434635e-04 -2.308417346528e-05 0.0 
-2.308417346528e-05 6.740366547045e-04 0.0 
0.0 0.0 -1.021452596768e-04 
-1.900125356384e-04 6.300222620785e-07 0.0 
6.300222620785e-07 1.270960970669e-03 0.0 
0.0 0.0 -1.927194217641e-04 
-7.262888074723e-05 3.426557852476e-05 0.0 
3.426557852476e-05 4.504323440592e-04 0.0 
0.0 0.0 -7.151989320621e-05 
-1.531305076902e-04 3.065990782185e-05 0.0 
3.065990782185e-05 1.022734797488e-03 0.0 
0.0 0.0 -1.531634582904e-04 
-5.235610672335e-05 -3.331315410991e-05 0.0 
-3.331315410991e-05 3.222309724492e-04 0.0 
0.0 0.0 -5.311113487535e-05 
-1.564923507781e-04 3.552239921985e-05 0.0 
3.552239921985e-05 1.043761629599e-03 0.0 
0.0 0.0 -1.567358392781e-04 
-1.202044561882e-04 9.584736121846e-07 0.0 
9.584736121846e-07 7.504029993438e-04 0.0 
0.0 0.0 -1.184948324117e-04 
-8.921525541755e-05 3.121884924231e-05 0.0 
3.121884924231e-05 5.680733164514e-04 0.0 
0.0 0.0 -8.897195087526e-05 
-1.682691344288e-04 -3.239527776225e-05 0.0 
-3.239527776225e-05 1.126335943431e-03 0.0 
0.0 0.0 -1.681445358648e-04 
-3.271371250102e-05 2.634768306306e-05 0.0 
2.634768306306e-05 1.862670599746e-04 0.0 
0.0 0.0 -3.519564525945e-05 
-1.767977369675e-04 3.301165039377e-05 0.0 
3.301165039377e-05 1.194421621902e-03 0.0 
0.0 0.0 -1.783666864750e-04 
-1.165583599501e-04 2.698564820255e-05 0.0 
2.698564820255e-05 7.555372528015e-04 0.0 
0.0 0.0 -1.156683593961e-04 
-1.920096128522e-04 1.937461849935e-06 0.0 
1.937461849935e-06 1.307268561636e-03 0.0 
0.0 0.0 -1.898980813789e-04 
-1.182997139398e-04 3.639957619216e-06 0.0 
3.639957619216e-06 7.503854203479e-04 0.0 
0.0 0.0 -1.176390761550e-04 
-7.627591541802e-05 2.437079023937e-05 0.0 
2.437079023937e-05 4.698282448248e-04 0.0 
0.0 0.0 -7.564233511891e-05 
-1.002018332227e-04 2.315121058164e-05 0.0 
2.315121058164e-05 6.584644118649e-04 0.0 
0.0 0.0 -1.026119933064e-04 
-1.351190133783e-04 -1.871259961356e-05 0.0 
-1.871259961356e-05 8.920173210254e-04 0.0 
0.0 0.0 -1.308423732783e-04 
-5.484982403945e-05 3.705256781827e-05 0.0 
3.705256781827e-05 3.376111435306e-04 0.0 
0.0 0.0 -5.271897186252e-05 
-8.886891279122e-05 -3.169931078017e-05 0.0 
-3.169931078017e-05 5.765392386080e-04 0.0 
0.0 0.0 -8.867183110647e-05 
-1.531566637255e-04 -3.479285376154e-05 0.0 
-3.479285376154e-05 1.020094408152e-03 0.0 
0.0 0.0 -1.524697723262e-04 
-1.174942329115e-04 2.313759384433e-05 0.0 
2.313759384433e-05 7.831828593042e-04 0.0 
0.0 0.0 -1.152003355451e-04 
-8.515004989233e-05 2.567844413580e-05 0.0 
2.567844413580e-05 5.346133759294e-04 0.0 
0.0 0.0 -8.499340168425e-05 
-9.805234325585e-05 2.186136341024e-05 0.0 
2.186136341024e-05 6.234712022513e-04 0.0 
0.0 0.0 -9.747820142233e-05 
-1.698406473465e-04 3.103883884451e-05 0.0 
3.103883884451e-05 1.138199375279e-03 0.0 
0.0 0.0 -1.705088282513e-04 
-9.365555901584e-05 -8.486079120948e-06 0.0 
-8.486079120948e-06 6.269873305719e-04 0.0 
0.0 0.0 -9.283786084866e-05 
-1.904373484596e-04 8.037764301143e-06 0.0 
8.037764301143e-06 1.268105410096e-03 0.0 
0.0 0.0 -1.927803298305e-04 
-1.910376123415e-04 -5.171508508335e-06 0.0 
-5.171508508335e-06 1.305994090806e-03 0.0 
0.0 0.0 -1.898229354431e-04 
-6.861783798480e-05 -2.050379203895e-05 0.0 
-2.050379203895e-05 4.453059741638e-04 0.0 
0.0 0.0 -6.893569546425e-05 
-9.290116882094e-05 1.078568075346e-05 0.0 
1.078568075346e-05 5.964552685483e-04 0.0 
0.0 0.0 -9.578111177017e-05 
-1.736492418864e-04 -2.927710979079e-05 0.0 
-2.927710979079e-05 1.161594644870e-03 0.0 
0.0 0.0 -1.729233712160e-04 
-9.087963058823e-05 -2.352933739376e-05 0.0 
-2.352933739376e-05 5.915224073559e-04 0.0 
0.0 0.0 -9.055885391067e-05 
-6.615167518160e-05 2.470417535513e-05 0.0 
2.470417535513e-05 3.792937580834e-04 0.0 
0.0 0.0 -6.377619522508e-05 
-1.123815242548e-04 2.659716101140e-05 0.0 
2.659716101140e-05 7.274681183303e-04 0.0 
0.0 0.0 -1.116514617188e-04 
-9.023769363097e-05 -2.539356064248e-05 0.0 
-2.539356064248e-05 5.927749569100e-04 0.0 
0.0 0.0 -9.016780033359e-05 
-1.933145694824e-04 1.847750118737e-05 0.0 
1.847750118737e-05 1.271781840963e-03 0.0 
0.0 0.0 -1.918589861752e-04 
-1.590817006198e-04 2.907513750142e-05 0.0 
2.907513750142e-05 1.054056791896e-03 0.0 
0.0 0.0 -1.591037845145e-04 
-1.728367159342e-04 3.427642614804e-05 0.0 
3.427642614804e-05 1.161809866144e-03 0.0 
0.0 0.0 -1.733952315365e-04 
-4.323292157822e-05 -3.260265136202e-05 0.0 
-3.260265136202e-05 2.542139140644e-04 0.0 
0.0 0.0 -4.278232070249e-05 
-8.351564551766e-05 -2.949984641989e-05 0.0 
-2.949984641989e-05 5.399072445252e-04 0.0 
0.0 0.0 -8.337503372822e-05 
-1.628911585660e-04 2.910920340207e-05 0.0 
2.910920340207e-05 1.083707985150e-03 0.0 
0.0 0.0 -1.634180649126e-04 
-4.265741739718e-06 -2.683347671446e-06 0.0 
-2.683347671446e-06 2.779779537552e-05 0.0 
0.0 0.0 -6.679583525061e-06 
-9.202938689146e-05 2.333037747325e-05 0.0 
2.333037747325e-05 5.833864669440e-04 0.0 
0.0 0.0 -9.110806911972e-05 
-1.621301817421e-04 -3.474681827654e-05 0.0 
-3.474681827654e-05 1.087399984763e-03 0.0 
0.0 0.0 -1.621013318865e-04 
-2.647246740284e-05 -1.232636837565e-05 0.0 
-1.232636837565e-05 1.529325955368e-04 0.0 
0.0 0.0 -2.408412600064e-05 
-1.857893834714e-04 3.531775714936e-05 0.0 
3.531775714936e-05 1.270668189248e-03 0.0 
0.0 0.0 -1.886276279175e-04 
-1.456981155765e-04 2.919485646583e-05 0.0 
2.919485646583e-05 9.663206150300e-04 0.0 
0.0 0.0 -1.462443664659e-04 
-8.972960447932e-05 2.818607173368e-05 0.0 
2.818607173368e-05 5.719993527864e-04 0.0 
0.0 0.0 -8.992835211633e-05 
-1.626522217749e-04 3.588322308841e-05 0.0 
3.588322308841e-05 1.081933053943e-03 0.0 
0.0 0.0 -1.623203359564e-04 
-1.232850647809e-04 -1.534283618420e-06 0.0 
-1.534283618420e-06 8.439287432935e-04 0.0 
0.0 0.0 -1.238984763055e-04 
-1.290139728958e-04 -2.422323726664e-05 0.0 
-2.422323726664e-05 8.899156396031e-04 0.0 
0.0 0.0 -1.325791391267e-04 
-1.852665524105e-04 -2.134628668879e-05 0.0 
-2.134628668879e-05 1.242411010167e-03 0.0 
0.0 0.0 -1.856686537505e-04 
-6.834313658287e-05 3.054631191321e-05 0.0 
3.054631191321e-05 4.235028941011e-04 0.0 
0.0 0.0 -6.875374652758e-05 
-1.126229297884e-04 2.780829538386e-05 0.0 
2.780829538386e-05 7.291444854309e-04 0.0 
0.0 0.0 -1.122060228641e-04 
-1.204186006984e-04 2.647313116222e-05 0.0 
2.647313116222e-05 7.832880835705e-04 0.0 
0.0 0.0 -1.198259951250e-04 
-1.511295492835e-04 -2.883504033183e-05 0.0 
-2.883504033183e-05 1.013855965193e-03 0.0 
0.0 0.0 -1.512823234748e-04 
-1.216859479991e-04 -2.731241821125e-05 0.0 
-2.731241821125e-05 8.002184542220e-04 0.0 
0.0 0.0 -1.205399881000e-04 
-1.113723575775e-04 -2.417926787298e-05 0.0 
-2.417926787298e-05 7.331871425551e-04 0.0 
0.0 0.0 -1.112326624099e-04 
-1.413007434337e-04 -2.970279854823e-05 0.0 
-2.970279854823e-05 9.413829080689e-04 0.0 
0.0 0.0 -1.412146911137e-04 
-1.660148486685e-04 -3.109368411777e-05 0.0 
-3.109368411777e-05 1.112677337996e-03 0.0 
0.0 0.0 -1.657666289772e-04 
-1.315732548335e-05 -7.692520452242e-07 0.0 
-7.692520452242e-07 8.434115995763e-05 0.0 
0.0 0.0 -1.523807105164e-05 
-6.678617265699e-05 1.617781589415e-05 0.0 
1.617781589415e-05 4.361919367653e-04 0.0 
0.0 0.0 -6.974636312929e-05 
-7.951724172922e-05 2.782935041198e-05 0.0 
2.782935041198e-05 4.935008951510e-04 0.0 
0.0 0.0 -7.874092309440e-05 
-1.082260438161e-04 -2.691428867534e-05 0.0 
-2.691428867534e-05 7.109857938248e-04 0.0 
0.0 0.0 -1.077256579858e-04 
-1.642964652876e-04 -3.148986033885e-05 0.0 
-3.148986033885e-05 1.105967087523e-03 0.0 
0.0 0.0 -1.642614415327e-04 
-3.618362754970e-05 2.736407007723e-05 0.0 
2.736407007723e-05 2.086903937200e-04 0.0 
0.0 0.0 -3.864713111506e-05 
-1.564000420693e-04 -3.317492622528e-05 0.0 
-3.317492622528e-05 1.048657376479e-03 0.0 
0.0 0.0 -1.565033163265e-04 
-1.156497145505e-04 -3.516789011310e-05 0.0 
-3.516789011310e-05 7.502047125979e-04 0.0 
0.0 0.0 -1.164502435431e-04 
-8.397727272477e-05 2.946324581154e-05 0.0 
2.946324581154e-05 5.318825966419e-04 0.0 
0.0 0.0 -8.365175887955e-05 
-1.508856871714e-04 -3.154693635550e-05 0.0 
-3.154693635550e-05 1.010987541511e-03 0.0 
0.0 0.0 -1.509358467712e-04 
-1.992206068345e-05 -2.889614730951e-05 0.0 
-2.889614730951e-05 8.287217049265e-05 0.0 
0.0 0.0 -1.875953185269e-05 
-1.556622730397e-04 3.038739624462e-05 0.0 
3.038739624462e-05 1.034138176467e-03 0.0 
0.0 0.0 -1.560016362795e-04 
-1.437982534633e-05 1.029442077582e-05 0.0 
1.029442077582e-05 7.970629733058e-05 0.0 
0.0 0.0 -1.510781838351e-05 
-2.570586355009e-05 -7.991098502523e-07 0.0 
-7.991098502523e-07 1.127575880689e-04 0.0 
0.0 0.0 -2.729127776400e-05 
-4.194184282385e-05 3.474848126707e-05 0.0 
3.474848126707e-05 2.513992056333e-04 0.0 
0.0 0.0 -4.310499224862e-05 
-5.889908142508e-05 2.600142430583e-05 0.0 
2.600142430583e-05 3.528829077978e-04 0.0 
0.0 0.0 -5.903933595174e-05 
-1.610257286591e-04 -2.786541686928e-05 0.0 
-2.786541686928e-05 1.081190214243e-03 0.0 
0.0 0.0 -1.610696234640e-04 
-5.476704679840e-05 -2.893258819142e-05 0.0 
-2.893258819142e-05 3.440414388131e-04 0.0 
0.0 0.0 -5.456393079061e-05 
-5.163315478531e-05 2.647496963403e-05 0.0 
2.647496963403e-05 3.049271572106e-04 0.0 
0.0 0.0 -5.149248157812e-05 
-4.366093994894e-05 -2.713962390303e-05 0.0 
-2.713962390303e-05 2.644614859736e-04 0.0 
0.0 0.0 -4.384065419509e-05 
-3.933534437072e-05 2.838910031743e-05 0.0 
2.838910031743e-05 2.172478170370e-04 0.0 
0.0 0.0 -3.921473890832e-05 
-1.680595828810e-04 2.995288676004e-05 0.0 
2.995288676004e-05 1.117099767863e-03 0.0 
0.0 0.0 -1.676286260939e-04 
-1.157691997288e-04 -2.821559363196e-05 0.0 
-2.821559363196e-05 7.614917365493e-04 0.0 
0.0 0.0 -1.153195849472e-04 
-1.884304056946e-04 3.717790371758e-05 0.0 
3.717790371758e-05 1.273139237753e-03 0.0 
0.0 0.0 -1.885115422441e-04 
0.0 0.0 0.0 
0.0 0.0 0.0 
0.0 0.0 0.0 
-6.073075435371e-05 2.779578447063e-05 0.0 
2.779578447063e-05 3.692130858621e-04 0.0 
0.0 0.0 -6.066067809259e-05 
-9.359168136837e-05 3.069541767913e-05 0.0 
3.069541767913e-05 5.989493619825e-04 0.0 
0.0 0.0 -9.346360670616e-05 
-8.611303417377e-05 2.775473971904e-05 0.0 
2.775473971904e-05 5.420210967722e-04 0.0 
0.0 0.0 -8.564096664159e-05 
-1.570602199792e-04 3.345705989991e-05 0.0 
3.345705989991e-05 1.042425010846e-03 0.0 
0.0 0.0 -1.567852636697e-04 
-1.928100163882e-04 2.936217438128e-05 0.0 
2.936217438128e-05 1.304792838197e-03 0.0 
0.0 0.0 -1.913896484052e-04 
-1.544569729700e-04 -3.084214855682e-05 0.0 
-3.084214855682e-05 1.037077783695e-03 0.0 
0.0 0.0 -1.544248659763e-04 
-6.869349223690e-05 -2.826326061375e-05 0.0 
-2.826326061375e-05 4.368318291179e-04 0.0 
0.0 0.0 -6.847262230322e-05 
-1.681247358756e-04 -2.868522419727e-05 0.0 
-2.868522419727e-05 1.120151786447e-03 0.0 
0.0 0.0 -1.674250338637e-04 
-1.435900585209e-04 3.856895931237e-05 0.0 
3.856895931237e-05 9.474561629382e-04 0.0 
0.0 0.0 -1.426866023873e-04 
-1.135532837026e-04 -2.681444128085e-05 0.0 
-2.681444128085e-05 7.480946909015e-04 0.0 
0.0 0.0 -1.130562566545e-04 
-1.499249798733e-04 3.067572505939e-05 0.0 
3.067572505939e-05 9.944265321611e-04 0.0 
0.0 0.0 -1.504800801517e-04 
-1.863757598195e-04 -2.386849214221e-05 0.0 
-2.386849214221e-05 1.244147855382e-03 0.0 
0.0 0.0 -1.859596318053e-04 
-9.333492539951e-05 -3.087526947971e-05 0.0 
-3.087526947971e-05 6.086612624671e-04 0.0 
0.0 0.0 -9.309312152870e-05 
-5.642363476155e-05 -2.566826805163e-05 0.0 
-2.566826805163e-05 3.519070743608e-04 0.0 
0.0 0.0 -5.629031366394e-05 
-1.307741012141e-04 -2.854605187792e-05 0.0 
-2.854605187792e-05 8.651184174892e-04 0.0 
0.0 0.0 -1.299393276493e-04 
-1.994711361555e-04 1.488956192184e-05 0.0 
1.488956192184e-05 1.364194760264e-03 0.0 
0.0 0.0 -1.985353088532e-04 
-1.121064498204e-04 -2.817436375982e-05 0.0 
-2.817436375982e-05 7.383690860162e-04 0.0 
0.0 0.0 -1.117990549081e-04 
-1.167106519063e-04 -2.872381374577e-05 0.0 
-2.872381374577e-05 7.713662195201e-04 0.0 
0.0 0.0 -1.165266455158e-04 
-1.260578035270e-04 -7.836042946561e-06 0.0 
-7.836042946561e-06 8.498512038137e-04 0.0 
0.0 0.0 -1.244042047770e-04 
-3.179935585513e-05 -1.763042363236e-05 0.0 
-1.763042363236e-05 1.961286519246e-04 0.0 
0.0 0.0 -3.241712222852e-05 
-1.231319864475e-04 2.764700743790e-05 0.0 
2.764700743790e-05 7.907293750341e-04 0.0 
0.0 0.0 -1.209084558732e-04 
-6.905505917890e-05 2.816961621887e-05 0.0 
2.816961621887e-05 4.271679056782e-04 0.0 
0.0 0.0 -6.885887611378e-05 
-4.897721551762e-05 2.632054484457e-05 0.0 
2.632054484457e-05 2.838529677145e-04 0.0 
0.0 0.0 -4.844095568774e-05 
-3.558784672985e-05 -2.880146762892e-05 0.0 
-2.880146762892e-05 1.946353418351e-04 0.0 
0.0 0.0 -3.639896506568e-05 
-1.614850212427e-04 2.922041349465e-05 0.0 
2.922041349465e-05 1.072918812013e-03 0.0 
0.0 0.0 -1.613978969627e-04 
-1.255033903270e-04 -2.731668296794e-05 0.0 
-2.731668296794e-05 8.288788500150e-04 0.0 
0.0 0.0 -1.246873609535e-04 
-8.112707161296e-05 2.681454897224e-05 0.0 
2.681454897224e-05 5.130150958306e-04 0.0 
0.0 0.0 -8.144240747594e-05 
-1.665837591113e-04 -2.880422836215e-05 0.0 
-2.880422836215e-05 1.119259672453e-03 0.0 
0.0 0.0 -1.664644697516e-04 
-1.582047777180e-04 -3.130538043856e-05 0.0 
-3.130538043856e-05 1.066325272985e-03 0.0 
0.0 0.0 -1.586660261033e-04 
-1.188629648026e-04 -2.678969091403e-05 0.0 
-2.678969091403e-05 7.847225641269e-04 0.0 
0.0 0.0 -1.183057550348e-04 
-1.886854844882e-04 1.135105285806e-05 0.0 
1.135105285806e-05 1.274732412044e-03 0.0 
0.0 0.0 -1.932618152055e-04 
-1.213677155165e-04 2.897964547722e-05 0.0 
2.897964547722e-05 7.927140784185e-04 0.0 
0.0 0.0 -1.211843839911e-04 
-1.239491645660e-04 -2.748126235811e-05 0.0 
-2.748126235811e-05 8.207516205795e-04 0.0 
0.0 0.0 -1.235739794681e-04 
-9.975160353529e-05 -2.686515225488e-05 0.0 
-2.686515225488e-05 6.567392202688e-04 0.0 
0.0 0.0 -9.984714661518e-05 
-1.263578697939e-04 -2.980227527077e-05 0.0 
-2.980227527077e-05 8.380978382458e-04 0.0 
0.0 0.0 -1.261954767068e-04 
-5.849212426998e-05 2.872957228896e-05 0.0 
2.872957228896e-05 3.506208493125e-04 0.0 
0.0 0.0 -5.798711518065e-05 
-1.213481477356e-04 6.735435036876e-06 0.0 
6.735435036876e-06 7.521902963625e-04 0.0 
0.0 0.0 -1.184708735178e-04 
-9.753040931020e-05 -2.877750014671e-05 0.0 
-2.877750014671e-05 6.382612359797e-04 0.0 
0.0 0.0 -9.729539411790e-05 
-7.014498760133e-05 -2.861953507146e-05 0.0 
-2.861953507146e-05 4.491200428710e-04 0.0 
0.0 0.0 -7.021579980210e-05 
-1.548439846447e-04 2.920495201174e-05 0.0 
2.920495201174e-05 1.025468902843e-03 0.0 
0.0 0.0 -1.548477372900e-04 
-7.400239448952e-06 -4.471996282504e-06 0.0 
-4.471996282504e-06 3.348355740734e-05 0.0 
0.0 0.0 -6.737411723468e-06 
-1.269059540153e-04 -2.992426859267e-05 0.0 
-2.992426859267e-05 8.357764802867e-04 0.0 
0.0 0.0 -1.257958619361e-04 
-7.326865481566e-05 2.857374826703e-05 0.0 
2.857374826703e-05 4.565907868803e-04 0.0 
0.0 0.0 -7.305360031667e-05 
-6.016605764575e-05 -2.684908062252e-05 0.0 
-2.684908062252e-05 3.790547108985e-04 0.0 
0.0 0.0 -6.022881660267e-05 
-5.821846839884e-05 -2.774592413861e-05 0.0 
-2.774592413861e-05 3.619705275702e-04 0.0 
0.0 0.0 -5.751879909679e-05 
-1.351640918224e-04 2.730946876611e-05 0.0 
2.730946876611e-05 8.850173502736e-04 0.0 
0.0 0.0 -1.344766581215e-04 
-2.303458757806e-05 -1.756706348761e-05 0.0 
-1.756706348761e-05 1.393624808345e-04 0.0 
0.0 0.0 -2.414890389727e-05 
-8.463000670150e-05 2.743515429835e-05 0.0 
2.743515429835e-05 5.331920973471e-04 0.0 
0.0 0.0 -8.420255649138e-05 
-1.310820143303e-04 2.863495648326e-05 0.0 
2.863495648326e-05 8.604743158959e-04 0.0 
0.0 0.0 -1.309020407989e-04 
-1.263625231525e-04 2.714069752448e-05 0.0 
2.714069752448e-05 8.190547291893e-04 0.0 
0.0 0.0 -1.250525794797e-04 
-1.272471088817e-04 -3.855000510512e-06 0.0 
-3.855000510512e-06 8.469629814487e-04 0.0 
0.0 0.0 -1.245153595172e-04 
-3.451533027297e-05 2.844805665229e-05 0.0 
2.844805665229e-05 1.808943530399e-04 0.0 
0.0 0.0 -3.280631478328e-05 
-7.063190463533e-05 2.939202413112e-05 0.0 
2.939202413112e-05 4.392145115516e-04 0.0 
0.0 0.0 -7.060413318996e-05 
-6.508843028441e-05 -3.043099012630e-05 0.0 
-3.043099012630e-05 4.105469834446e-04 0.0 
0.0 0.0 -6.467058191239e-05 
-7.469256331376e-05 -2.527987226695e-05 0.0 
-2.527987226695e-05 4.809368026629e-04 0.0 
0.0 0.0 -7.435558976913e-05 
-1.502309888333e-04 -3.186153307622e-05 0.0 
-3.186153307622e-05 1.005619770116e-03 0.0 
0.0 0.0 -1.500995507885e-04 
-8.411103689448e-05 -2.561923504937e-05 0.0 
-2.561923504937e-05 5.446630925718e-04 0.0 
0.0 0.0 -8.366679311450e-05 
-9.244608085661e-05 2.841629283501e-05 0.0 
2.841629283501e-05 5.900259211260e-04 0.0 
0.0 0.0 -9.227309926833e-05 
-8.825859911860e-05 2.898361773724e-05 0.0 
2.898361773724e-05 5.610179827723e-04 0.0 
0.0 0.0 -8.802462077767e-05 
-4.037281909572e-05 -3.055033143304e-05 0.0 
-3.055033143304e-05 2.285588841850e-04 0.0 
0.0 0.0 -3.795074749666e-05 
-1.043807176337e-04 2.969702721876e-05 0.0 
2.969702721876e-05 6.736275783202e-04 0.0 
0.0 0.0 -1.043907376787e-04 
-4.291565100880e-05 -2.841622711530e-05 0.0 
-2.841622711530e-05 2.495146198089e-04 0.0 
0.0 0.0 -4.182373257491e-05 
-1.960133420005e-04 -3.915898958091e-07 0.0 
-3.915898958091e-07 1.365024672998e-03 0.0 
0.0 0.0 -1.982169479593e-04 
-2.008761767446e-04 -4.440775900705e-06 0.0 
-4.440775900705e-06 1.363686351067e-03 0.0 
0.0 0.0 -1.977044065024e-04 
-1.166270540496e-04 2.805525215369e-05 0.0 
2.805525215369e-05 7.581594275037e-04 0.0 
0.0 0.0 -1.163296810217e-04 
-6.377729921261e-05 2.843186062466e-05 0.0 
2.843186062466e-05 3.894200307401e-04 0.0 
0.0 0.0 -6.349477618752e-05 
-5.472494021236e-05 -2.756038478394e-05 0.0 
-2.756038478394e-05 3.420299138774e-04 0.0 
0.0 0.0 -5.489564032307e-05 
-1.286062633098e-04 2.787342346443e-05 0.0 
2.787342346443e-05 8.404326398301e-04 0.0 
0.0 0.0 -1.280878756227e-04 
-5.924292318693e-05 -2.830092874267e-05 0.0 
-2.830092874267e-05 3.712937095837e-04 0.0 
0.0 0.0 -5.895795660960e-05 
-6.498740843255e-05 2.970448360848e-05 0.0 
2.970448360848e-05 3.998906408149e-04 0.0 
0.0 0.0 -6.509812613533e-05 
-1.139448242020e-04 2.662931945144e-05 0.0 
2.662931945144e-05 7.377302601230e-04 0.0 
0.0 0.0 -1.134571731864e-04 
-1.931977199045e-04 -5.790102799525e-06 0.0 
-5.790102799525e-06 1.309642249160e-03 0.0 
0.0 0.0 -1.899960389348e-04 
-7.860743769092e-05 2.917445532478e-05 0.0 
2.917445532478e-05 4.940483609679e-04 0.0 
0.0 0.0 -7.839370437043e-05 
-1.417199735287e-04 2.941394498762e-05 0.0 
2.941394498762e-05 9.349322217144e-04 0.0 
0.0 0.0 -1.414217305113e-04 
-4.661344112576e-05 2.736880969088e-05 0.0 
2.736880969088e-05 2.670838018736e-04 0.0 
0.0 0.0 -4.614936513201e-05 
-1.967992094278e-04 1.123981941095e-06 0.0 
1.123981941095e-06 1.365295639638e-03 0.0 
0.0 0.0 -1.984294758987e-04 
-5.951651457585e-05 2.802626650619e-05 0.0 
2.802626650619e-05 3.606106616578e-04 0.0 
0.0 0.0 -5.939605362352e-05 
-1.179287062834e-04 2.787660048455e-05 0.0 
2.787660048455e-05 7.663966719587e-04 0.0 
0.0 0.0 -1.175278261142e-04 
-4.409418717161e-05 3.104234347111e-05 0.0 
3.104234347111e-05 2.441849578649e-04 0.0 
0.0 0.0 -4.282931220362e-05 
-1.381450842626e-04 2.836088824292e-05 0.0 
2.836088824292e-05 9.092073412549e-04 0.0 
0.0 0.0 -1.381743871232e-04 
-9.791138306631e-05 2.879750584179e-05 0.0 
2.879750584179e-05 6.273190453691e-04 0.0 
0.0 0.0 -9.774928945211e-05 
-6.965606683394e-05 2.867246728631e-05 0.0 
2.867246728631e-05 4.309923865951e-04 0.0 
0.0 0.0 -6.938051102899e-05 
-1.200769966056e-04 -2.774059059615e-05 0.0 
-2.774059059615e-05 7.919085176899e-04 0.0 
0.0 0.0 -1.194585575575e-04 
-1.988427120039e-04 -2.959789654557e-06 0.0 
-2.959789654557e-06 1.363764641001e-03 0.0 
0.0 0.0 -1.987298001823e-04 
-8.291571741031e-05 2.832079044508e-05 0.0 
2.832079044508e-05 5.233038309385e-04 0.0 
0.0 0.0 -8.265507580179e-05 
-1.306758629051e-04 -2.955788166782e-05 0.0 
-2.955788166782e-05 8.695191991227e-04 0.0 
0.0 0.0 -1.305485175686e-04 
-4.578173906005e-05 -2.535078056645e-05 0.0 
-2.535078056645e-05 2.780519891852e-04 0.0 
0.0 0.0 -4.562300070248e-05 
-1.437792750518e-04 3.149363009429e-05 0.0 
3.149363009429e-05 9.490378851935e-04 0.0 
0.0 0.0 -1.436534165706e-04 
-1.511792253345e-04 3.107336096836e-05 0.0 
3.107336096836e-05 1.002609936336e-03 0.0 
0.0 0.0 -1.512517770320e-04 
-6.196699647241e-05 -2.679098173262e-05 0.0 
-2.679098173262e-05 3.903858421673e-04 0.0 
0.0 0.0 -6.164273853391e-05 
-1.399199792627e-04 -2.811467117751e-05 0.0 
-2.811467117751e-05 9.272505815491e-04 0.0 
0.0 0.0 -1.388569334018e-04 
-1.985355386787e-04 1.984726108435e-06 0.0 
1.984726108435e-06 1.364959960964e-03 0.0 
0.0 0.0 -1.983871205594e-04 
-1.614928444495e-04 2.847027297627e-05 0.0 
2.847027297627e-05 1.071649121551e-03 0.0 
0.0 0.0 -1.613792517474e-04 
-1.982422487002e-04 -2.569909507912e-06 0.0 
-2.569909507912e-06 1.365758727609e-03 0.0 
0.0 0.0 -1.983136761333e-04 
-1.361916076227e-04 -3.146771190181e-05 0.0 
-3.146771190181e-05 9.179571631392e-04 0.0 
0.0 0.0 -1.379474753881e-04 
-1.576486168105e-04 -2.829471551287e-05 0.0 
-2.829471551287e-05 1.056700414691e-03 0.0 
0.0 0.0 -1.572395483614e-04 
-5.266868770523e-05 -2.930837486761e-05 0.0 
-2.930837486761e-05 3.216672696281e-04 0.0 
0.0 0.0 -5.237865887416e-05 
-1.106230900853e-04 -2.705461405413e-05 0.0 
-2.705461405413e-05 7.266788580309e-04 0.0 
0.0 0.0 -1.101557085785e-04 
-1.243986606814e-04 2.756325965713e-05 0.0 
2.756325965713e-05 8.114376097232e-04 0.0 
0.0 0.0 -1.239588741081e-04 
-1.293044827764e-04 -2.800858501220e-05 0.0 
-2.800858501220e-05 8.573256290427e-04 0.0 
0.0 0.0 -1.288458533782e-04 
-1.066562308207e-04 -2.783120558929e-05 0.0 
-2.783120558929e-05 7.017640661734e-04 0.0 
0.0 0.0 -1.065261787303e-04 
-1.990029541207e-04 -1.757598364359e-06 0.0 
-1.757598364359e-06 1.366381337533e-03 0.0 
0.0 0.0 -1.983502480037e-04 
-1.298318789187e-04 2.158067938686e-05 0.0 
2.158067938686e-05 8.815706967553e-04 0.0 
0.0 0.0 -1.321612292015e-04 
-1.176326388033e-04 -2.595061727756e-05 0.0 
-2.595061727756e-05 7.723158987367e-04 0.0 
0.0 0.0 -1.164556264782e-04 
-8.783787209566e-05 -2.903458928538e-05 0.0 
-2.903458928538e-05 5.705379246605e-04 0.0 
0.0 0.0 -8.765849385151e-05 
-4.943082231834e-05 2.834348926926e-05 0.0 
2.834348926926e-05 2.859345548030e-04 0.0 
0.0 0.0 -4.921152720794e-05 
-1.062878110515e-04 -2.718085700709e-05 0.0 
-2.718085700709e-05 6.972114022315e-04 0.0 
0.0 0.0 -1.060368635384e-04 
-6.633274732441e-05 2.805962634071e-05 0.0 
2.805962634071e-05 4.063292376683e-04 0.0 
0.0 0.0 -6.607158303000e-05 
-1.158557996194e-04 -6.210093226299e-06 0.0 
-6.210093226299e-06 7.885063370646e-04 0.0 
0.0 0.0 -1.154421321462e-04 
-6.910380331659e-05 -2.778533839803e-05 0.0 
-2.778533839803e-05 4.414244386129e-04 0.0 
0.0 0.0 -6.893461416734e-05 
-7.822135333654e-05 -2.896553184294e-05 0.0 
-2.896553184294e-05 5.031498839476e-04 0.0 
0.0 0.0 -7.803987337015e-05 
-1.602384540181e-04 3.100072325668e-05 0.0 
3.100072325668e-05 1.064154990020e-03 0.0 
0.0 0.0 -1.603578675858e-04 
-6.566815985925e-05 -2.750449767600e-05 0.0 
-2.750449767600e-05 4.167092244980e-04 0.0 
0.0 0.0 -6.558851423748e-05 
-1.152845892592e-04 2.749147668780e-05 0.0 
2.749147668780e-05 7.465056274970e-04 0.0 
0.0 0.0 -1.146103474413e-04 
-1.353451354842e-04 2.819645546977e-05 0.0 
2.819645546977e-05 8.892812196543e-04 0.0 
0.0 0.0 -1.352137036071e-04 
-1.205044148237e-04 2.968350999990e-05 0.0 
2.968350999990e-05 7.873013113578e-04 0.0 
0.0 0.0 -1.205299346428e-04 
-1.958940259279e-04 -3.143838988157e-07 0.0 
-3.143838988157e-07 1.365374549896e-03 0.0 
0.0 0.0 -1.987143998872e-04 
-9.668730117965e-05 -2.517304160907e-05 0.0 
-2.517304160907e-05 6.291397970161e-04 0.0 
0.0 0.0 -9.585336115805e-05 
-6.653143432307e-05 2.946077866981e-05 0.0 
2.946077866981e-05 4.089865087981e-04 0.0 
0.0 0.0 -6.633958094145e-05 
-8.520951336944e-05 -2.684964973046e-05 0.0 
-2.684964973046e-05 5.564426473023e-04 0.0 
0.0 0.0 -8.536885536015e-05 
-6.423500688610e-05 -2.223670417576e-05 0.0 
-2.223670417576e-05 3.967373019254e-04 0.0 
0.0 0.0 -6.277058716750e-05 
-6.233409830209e-05 2.930783879135e-05 0.0 
2.930783879135e-05 3.806227503841e-04 0.0 
0.0 0.0 -6.211964112063e-05 
-1.686029388230e-04 -3.010997351014e-05 0.0 
-3.010997351014e-05 1.134847194407e-03 0.0 
0.0 0.0 -1.685829472084e-04 
-1.228035280568e-04 -2.801028863811e-05 0.0 
-2.801028863811e-05 8.126298515026e-04 0.0 
0.0 0.0 -1.224221955183e-04 
-8.576695021724e-05 -2.818444781109e-05 0.0 
-2.818444781109e-05 5.521166414815e-04 0.0 
0.0 0.0 -8.508581023982e-05 
-1.058888784043e-04 2.774100767274e-05 0.0 
2.774100767274e-05 6.820542708577e-04 0.0 
0.0 0.0 -1.053569120690e-04 
-1.984005188917e-04 3.469833888432e-06 0.0 
3.469833888432e-06 1.365869131785e-03 0.0 
0.0 0.0 -1.981012852499e-04 
-1.891870000816e-04 -2.170110567076e-05 0.0 
-2.170110567076e-05 1.288510292263e-03 0.0 
0.0 0.0 -1.887097005658e-04 
-1.683150849776e-04 2.979696904543e-05 0.0 
2.979696904543e-05 1.122642711197e-03 0.0 
0.0 0.0 -1.689885654173e-04 
-1.554302986174e-04 -2.927663835836e-05 0.0 
-2.927663835836e-05 1.044556448181e-03 0.0 
0.0 0.0 -1.556283301217e-04 
-1.157857925219e-04 -2.832751956135e-05 0.0 
-2.832751956135e-05 7.671670755825e-04 0.0 
0.0 0.0 -1.158214347813e-04 
-8.793389765940e-05 -2.692004426865e-05 0.0 
-2.692004426865e-05 5.710151647237e-04 0.0 
0.0 0.0 -8.764218308180e-05 
-6.353474277312e-05 -2.825822332319e-05 0.0 
-2.825822332319e-05 4.001707208949e-04 0.0 
0.0 0.0 -6.304749027677e-05 
-7.291093511829e-05 -2.827879267007e-05 0.0 
-2.827879267007e-05 4.665581668852e-04 0.0 
0.0 0.0 -7.265234708097e-05 
-1.174853072823e-04 -2.733567074543e-05 0.0 
-2.733567074543e-05 7.760237591612e-04 0.0 
0.0 0.0 -1.171309192368e-04 
-1.335212434515e-04 -2.914279474533e-05 0.0 
-2.914279474533e-05 8.905694576090e-04 0.0 
0.0 0.0 -1.335144612876e-04 
-1.018718395078e-04 -2.979006226054e-05 0.0 
-2.979006226054e-05 6.715941915170e-04 0.0 
0.0 0.0 -1.021513650962e-04 
-1.706976735812e-04 3.040145888498e-05 0.0 
3.040145888498e-05 1.134074140794e-03 0.0 
0.0 0.0 -1.701355210695e-04 
-6.585088392687e-05 -2.809564114852e-05 0.0 
-2.809564114852e-05 4.191270390209e-04 0.0 
0.0 0.0 -6.593483134189e-05 
-1.012822856145e-04 -2.790893614149e-05 0.0 
-2.790893614149e-05 6.647252503200e-04 0.0 
0.0 0.0 -1.012556795624e-04 
-1.190728906021e-04 2.726084077196e-05 0.0 
2.726084077196e-05 7.740175104497e-04 0.0 
0.0 0.0 -1.186992623097e-04 
-9.180435571147e-05 -2.942480991547e-05 0.0 
-2.942480991547e-05 5.980965186942e-04 0.0 
0.0 0.0 -9.183388734860e-05 
-1.951933135343e-04 -3.067913145712e-06 0.0 
-3.067913145712e-06 1.365527233008e-03 0.0 
0.0 0.0 -1.980132279339e-04 
-2.004839790609e-04 7.957002336378e-06 0.0 
7.957002336378e-06 1.363848061926e-03 0.0 
0.0 0.0 -1.977693979613e-04 
-1.862548850903e-04 -3.381380897180e-05 0.0 
-3.381380897180e-05 1.277935188165e-03 0.0 
0.0 0.0 -1.884741816281e-04 
-1.255545849599e-04 -2.913100698812e-05 0.0 
-2.913100698812e-05 8.346700099746e-04 0.0 
0.0 0.0 -1.256288396591e-04 
-1.668512740992e-04 2.892208901038e-05 0.0 
2.892208901038e-05 1.110735165857e-03 0.0 
0.0 0.0 -1.668097552869e-04 
-5.710219261571e-05 2.668419955422e-05 0.0 
2.668419955422e-05 3.418831237588e-04 0.0 
0.0 0.0 -5.678930531275e-05 
-8.241925476564e-05 -2.832624156936e-05 0.0 
-2.832624156936e-05 5.333885698677e-04 0.0 
0.0 0.0 -8.224527255366e-05 
-4.853944390359e-05 -2.604022421239e-05 0.0 
-2.604022421239e-05 2.959627034739e-04 0.0 
0.0 0.0 -4.789427177487e-05 
-8.945478626281e-05 -2.660897635143e-05 0.0 
-2.660897635143e-05 5.805998989638e-04 0.0 
0.0 0.0 -8.904339260345e-05 
-1.163162734636e-04 -2.681975846469e-06 0.0 
-2.681975846469e-06 7.498217446733e-04 0.0 
0.0 0.0 -1.187247005501e-04 
-1.378749770551e-04 3.210368012353e-05 0.0 
3.210368012353e-05 9.111791288023e-04 0.0 
0.0 0.0 -1.382175405433e-04 
-1.908460110853e-04 -3.275689360253e-07 0.0 
-3.275689360253e-07 1.305230985070e-03 0.0 
0.0 0.0 -1.898105380384e-04 
-1.673198694714e-04 3.217203314276e-05 0.0 
3.217203314276e-05 1.110802916425e-03 0.0 
0.0 0.0 -1.675837462092e-04 
-1.307963472837e-04 2.695120133125e-05 0.0 
2.695120133125e-05 8.556346688023e-04 0.0 
0.0 0.0 -1.303141423325e-04 
-1.340100066794e-04 2.763944078925e-05 0.0 
2.763944078925e-05 8.772925572874e-04 0.0 
0.0 0.0 -1.333792161710e-04 
-5.307775534030e-05 2.953233977858e-05 0.0 
2.953233977858e-05 3.124408790926e-04 0.0 
0.0 0.0 -5.245278118421e-05 
-2.595268965567e-05 5.699272949294e-06 0.0 
5.699272949294e-06 1.472249447242e-04 0.0 
0.0 0.0 -2.415366321274e-05 
-9.908936880668e-05 3.012137168314e-05 0.0 
3.012137168314e-05 6.362497375305e-04 0.0 
0.0 0.0 -9.891160473977e-05 
-1.107375038864e-04 -2.791592154402e-05 0.0 
-2.791592154402e-05 7.305458695935e-04 0.0 
0.0 0.0 -1.106421438825e-04 
-1.040373993302e-04 -2.962445174837e-05 0.0 
-2.962445174837e-05 6.836342105130e-04 0.0 
0.0 0.0 -1.039785834622e-04 
-2.890800069675e-05 2.861111799326e-05 0.0 
2.861111799326e-05 1.404310217184e-04 0.0 
0.0 0.0 -2.759983235877e-05 
-1.283084597460e-04 1.192869093826e-05 0.0 
1.192869093826e-05 8.062000095070e-04 0.0 
0.0 0.0 -1.269342783548e-04 
-4.518956868723e-05 -2.955121691656e-05 0.0 
-2.955121691656e-05 2.739636501554e-04 0.0 
0.0 0.0 -4.458156379712e-05 
-6.480437248805e-05 2.886959438942e-05 0.0 
2.886959438942e-05 3.978928491972e-04 0.0 
0.0 0.0 -6.471073859852e-05 
-2.011730791700e-04 -1.698872758017e-08 0.0 
-1.698872758017e-08 1.328124099864e-03 0.0 
0.0 0.0 -2.011730791700e-04 
-1.460374838192e-04 -3.048163660064e-05 0.0 
-3.048163660064e-05 9.751989198997e-04 0.0 
0.0 0.0 -1.457653143910e-04 
-1.205798788541e-04 2.761727978419e-05 0.0 
2.761727978419e-05 7.635288783755e-04 0.0 
0.0 0.0 -1.168501105142e-04 
-3.395354607204e-05 2.118102367287e-05 0.0 
2.118102367287e-05 2.067871695949e-04 0.0 
0.0 0.0 -3.264725407480e-05 
-1.072259052960e-04 2.828066854900e-05 0.0 
2.828066854900e-05 6.926707853574e-04 0.0 
0.0 0.0 -1.069007943593e-04 
-9.875212805042e-05 -3.066987077576e-05 0.0 
-3.066987077576e-05 6.455932732231e-04 0.0 
0.0 0.0 -9.854973989574e-05 
-1.347121276017e-04 -2.904780221579e-05 0.0 
-2.904780221579e-05 8.937363280174e-04 0.0 
0.0 0.0 -1.341094516545e-04 
-1.991811038418e-04 6.018664084073e-06 0.0 
6.018664084073e-06 1.364715316697e-03 0.0 
0.0 0.0 -1.985748880999e-04 
-1.110533222846e-04 2.766180117225e-05 0.0 
2.766180117225e-05 7.188072929314e-04 0.0 
0.0 0.0 -1.104975085169e-04 
-1.281880349500e-04 -2.831423111803e-05 0.0 
-2.831423111803e-05 8.493800491293e-04 0.0 
0.0 0.0 -1.277066113365e-04 
-1.022800064688e-04 2.938149773544e-05 0.0 
2.938149773544e-05 6.613696873366e-04 0.0 
0.0 0.0 -1.025654288072e-04 
-1.657781793003e-04 2.991009795984e-05 0.0 
2.991009795984e-05 1.103461715683e-03 0.0 
0.0 0.0 -1.657887872837e-04 
-1.303012997508e-04 2.941535065773e-05 0.0 
2.941535065773e-05 8.562179753406e-04 0.0 
0.0 0.0 -1.303748051659e-04 
-1.970164637737e-04 -1.302278598281e-06 0.0 
-1.302278598281e-06 1.366138488450e-03 0.0 
0.0 0.0 -1.983262259508e-04 
-2.010155577921e-04 3.662749840249e-07 0.0 
3.662749840249e-07 1.326332536677e-03 0.0 
0.0 0.0 -2.010155577921e-04 
-2.011542863586e-04 -1.004817252029e-06 0.0 
-1.004817252029e-06 1.325128672458e-03 0.0 
0.0 0.0 -2.011542863586e-04 
-2.007067363607e-04 -1.498454949363e-07 0.0 
-1.498454949363e-07 1.318361508107e-03 0.0 
0.0 0.0 -2.007067363607e-04 
-1.391843029499e-04 2.745739822782e-05 0.0 
2.745739822782e-05 9.142042162451e-04 0.0 
0.0 0.0 -1.386702020626e-04 
-1.656573127809e-04 -2.766529280961e-05 0.0 
-2.766529280961e-05 1.111954587801e-03 0.0 
0.0 0.0 -1.654503375633e-04 
-1.726299045536e-04 3.125882372741e-05 0.0 
3.125882372741e-05 1.154413842026e-03 0.0 
0.0 0.0 -1.733872194588e-04 
-9.246943249656e-05 3.046774901958e-05 0.0 
3.046774901958e-05 5.891823098647e-04 0.0 
0.0 0.0 -9.220995221430e-05 
-8.867527655773e-05 2.995644697179e-05 0.0 
2.995644697179e-05 5.611104943418e-04 0.0 
0.0 0.0 -8.809376301141e-05 
-9.622211545223e-05 -3.009570676563e-05 0.0 
-3.009570676563e-05 6.328174754954e-04 0.0 
0.0 0.0 -9.655401109520e-05 
-1.701961923366e-04 -3.010043453970e-05 0.0 
-3.010043453970e-05 1.143557443824e-03 0.0 
0.0 0.0 -1.697778367964e-04 
-1.986751491008e-04 -7.450281032107e-07 0.0 
-7.450281032107e-07 1.364365235868e-03 0.0 
0.0 0.0 -1.983660426036e-04 
-1.710340879663e-04 2.926837147099e-05 0.0 
2.926837147099e-05 1.140451459410e-03 0.0 
0.0 0.0 -1.711771202328e-04 
-1.362026136940e-04 -3.056560885154e-05 0.0 
-3.056560885154e-05 9.064457611163e-04 0.0 
0.0 0.0 -1.359501865459e-04 
-1.710918547977e-04 -2.738871930552e-05 0.0 
-2.738871930552e-05 1.149183258739e-03 0.0 
0.0 0.0 -1.708297112636e-04 
-1.484338095600e-04 -2.864995064493e-05 0.0 
-2.864995064493e-05 9.946985301084e-04 0.0 
0.0 0.0 -1.485531891111e-04 
-1.058391682515e-04 2.762475757998e-05 0.0 
2.762475757998e-05 6.839177814814e-04 0.0 
0.0 0.0 -1.057460988714e-04 
-9.007502322936e-05 2.632387229137e-05 0.0 
2.632387229137e-05 5.712847458693e-04 0.0 
0.0 0.0 -8.951081423028e-05 
-5.003262353380e-05 2.839389572085e-05 0.0 
2.839389572085e-05 2.942091527215e-04 0.0 
0.0 0.0 -5.000330529763e-05 
-1.931223455613e-04 1.410072971069e-05 0.0 
1.410072971069e-05 1.274197783005e-03 0.0 
0.0 0.0 -1.923320103442e-04 
-8.673133120512e-05 2.974761857028e-05 0.0 
2.974761857028e-05 5.527785355338e-04 0.0 
0.0 0.0 -8.688718888654e-05 
-1.811235048976e-04 -1.426754042441e-06 0.0 
-1.426754042441e-06 1.216021958167e-03 0.0 
0.0 0.0 -1.846150589539e-04 
-9.663648622258e-05 2.916309241112e-05 0.0 
2.916309241112e-05 6.223980992345e-04 0.0 
0.0 0.0 -9.698095267749e-05 
-6.297861531256e-05 -2.737443956180e-05 0.0 
-2.737443956180e-05 4.020391048555e-04 0.0 
0.0 0.0 -6.334372566563e-05 
-1.910403343780e-04 6.504513827889e-06 0.0 
6.504513827889e-06 1.269011526396e-03 0.0 
0.0 0.0 -1.926469350330e-04 
-7.031800198741e-05 2.800312657303e-05 0.0 
2.800312657303e-05 4.340280219417e-04 0.0 
0.0 0.0 -7.004737339288e-05 
-2.012981183411e-04 2.829868493087e-07 0.0 
2.829868493087e-07 1.325754434692e-03 0.0 
0.0 0.0 -2.012981183411e-04 
-1.944617061092e-04 -2.128424273080e-06 0.0 
-2.128424273080e-06 1.270536569317e-03 0.0 
0.0 0.0 -1.923981163876e-04 
-1.274261734323e-04 2.764661482526e-05 0.0 
2.764661482526e-05 8.320608034777e-04 0.0 
0.0 0.0 -1.269381307268e-04 
-1.388257339176e-05 -3.296929808695e-07 0.0 
-3.296929808695e-07 4.627629862134e-05 0.0 
0.0 0.0 -1.388302509839e-05 
-2.011432062587e-04 1.175370744359e-06 0.0 
1.175370744359e-06 1.325704875416e-03 0.0 
0.0 0.0 -2.011432062587e-04 
-1.921224080021e-04 -3.345083285998e-06 0.0 
-3.345083285998e-06 1.269046594870e-03 0.0 
0.0 0.0 -1.926992175726e-04 
-6.391416598869e-05 2.999598810142e-05 0.0 
2.999598810142e-05 3.912627427439e-04 0.0 
0.0 0.0 -6.380490422505e-05 
-1.404753262357e-04 -2.965513079560e-05 0.0 
-2.965513079560e-05 9.376027128924e-04 0.0 
0.0 0.0 -1.402969630079e-04 
-1.999507595383e-04 6.517171705066e-07 0.0 
6.517171705066e-07 1.367200749641e-03 0.0 
0.0 0.0 -1.984522389651e-04 
0.0 0.0 0.0 
0.0 0.0 0.0 
0.0 0.0 0.0 
-9.642422921866e-05 2.765043306328e-05 0.0 
2.765043306328e-05 6.184893464754e-04 0.0 
0.0 0.0 -9.638260397252e-05 
-1.327711764227e-04 2.777803969438e-05 0.0 
2.777803969438e-05 8.691844784454e-04 0.0 
0.0 0.0 -1.322405047887e-04 
-1.220159274826e-04 2.812429560457e-05 0.0 
2.812429560457e-05 7.950189731712e-04 0.0 
0.0 0.0 -1.216370884873e-04 
-1.233780413330e-04 2.822278476293e-05 0.0 
2.822278476293e-05 8.034120475729e-04 0.0 
0.0 0.0 -1.227992079070e-04 
-5.537653594295e-05 2.875222597985e-05 0.0 
2.875222597985e-05 3.316168811288e-04 0.0 
0.0 0.0 -5.533679171570e-05 
-2.012041008673e-04 -1.784165579864e-07 0.0 
-1.784165579864e-07 1.324183447082e-03 0.0 
0.0 0.0 -2.012041008673e-04 
-9.201494534921e-05 -2.853538992438e-05 0.0 
-2.853538992438e-05 6.003334109930e-04 0.0 
0.0 0.0 -9.185667556238e-05 
-3.303106360170e-05 -2.633064609002e-05 0.0 
-2.633064609002e-05 1.883634797952e-04 0.0 
0.0 0.0 -3.259945417627e-05 
-1.918713440306e-04 8.946523950926e-06 0.0 
8.946523950926e-06 1.309054848055e-03 0.0 
0.0 0.0 -1.908532239790e-04 
-1.533408055875e-05 7.384230356388e-07 0.0 
7.384230356388e-07 8.948803933365e-05 0.0 
0.0 0.0 -1.529156673429e-05 
-1.006599210971e-04 2.782645766406e-05 0.0 
2.782645766406e-05 6.455369390174e-04 0.0 
0.0 0.0 -1.001834968599e-04 
-3.451081164849e-05 1.818301860879e-06 0.0 
1.818301860879e-06 1.688175235099e-04 0.0 
0.0 0.0 -3.548102280213e-05 
-1.062965573196e-04 2.780179286973e-05 0.0 
2.780179286973e-05 6.883223029444e-04 0.0 
0.0 0.0 -1.064232429825e-04 
-1.976952572840e-04 -1.168281398261e-06 0.0 
-1.168281398261e-06 1.362992457342e-03 0.0 
0.0 0.0 -1.982734646138e-04 
-2.011883062674e-04 9.888613031940e-07 0.0 
9.888613031940e-07 1.328146716782e-03 0.0 
0.0 0.0 -2.011883062674e-04 
-1.301088029822e-04 2.770607832302e-05 0.0 
2.770607832302e-05 8.484055931934e-04 0.0 
0.0 0.0 -1.292069026561e-04 
-2.954464874618e-05 -3.965393558445e-06 0.0 
-3.965393558445e-06 1.122999320296e-04 0.0 
0.0 0.0 -2.690965210263e-05 
-2.739399671943e-05 2.933508036766e-05 0.0 
2.933508036766e-05 1.380090285650e-04 0.0 
0.0 0.0 -2.757055009735e-05 
-3.542847344044e-05 6.606947798617e-06 0.0 
6.606947798617e-06 2.063449622469e-04 0.0 
0.0 0.0 -3.269047038571e-05 
-1.687743102681e-04 -2.969350572077e-05 0.0 
-2.969350572077e-05 1.134034339831e-03 0.0 
0.0 0.0 -1.682749826031e-04 
-1.155575491131e-04 4.356017504332e-06 0.0 
4.356017504332e-06 7.906999410851e-04 0.0 
0.0 0.0 -1.155645034189e-04 
-1.225223585343e-04 -3.170975582543e-05 0.0 
-3.170975582543e-05 8.033648067797e-04 0.0 
0.0 0.0 -1.216399908441e-04 
-2.013754095761e-04 8.574101042676e-07 0.0 
8.574101042676e-07 1.328505872694e-03 0.0 
0.0 0.0 -2.013754095761e-04 
-1.185922722511e-04 -6.408792185017e-06 0.0 
-6.408792185017e-06 7.903114053093e-04 0.0 
0.0 0.0 -1.158066699702e-04 
-1.999465830534e-04 2.523603907241e-06 0.0 
2.523603907241e-06 1.365706190659e-03 0.0 
0.0 0.0 -1.984278847636e-04 
-1.529420189163e-04 2.878980384314e-05 0.0 
2.878980384314e-05 1.013778882456e-03 0.0 
0.0 0.0 -1.531497964885e-04 
-1.341342697016e-04 3.021998989808e-05 0.0 
3.021998989808e-05 8.804430663277e-04 0.0 
0.0 0.0 -1.336117322397e-04 
-7.066337245358e-05 2.724020164699e-05 0.0 
2.724020164699e-05 4.173118245595e-04 0.0 
0.0 0.0 -6.716413209789e-05 
-1.409646218039e-04 2.858302443344e-05 0.0 
2.858302443344e-05 9.281763591865e-04 0.0 
0.0 0.0 -1.406799227165e-04 
-4.298549671642e-05 -2.547451572923e-05 0.0 
-2.547451572923e-05 2.695670933754e-04 0.0 
0.0 0.0 -4.407237973489e-05 
-2.011132486541e-04 -7.128017343339e-07 0.0 
-7.128017343339e-07 1.328659301781e-03 0.0 
0.0 0.0 -2.011132486541e-04 
-2.009976701417e-04 3.439303975141e-06 0.0 
3.439303975141e-06 1.321105461220e-03 0.0 
0.0 0.0 -2.009976701417e-04 
-2.010626616006e-04 -3.322276770676e-06 0.0 
-3.322276770676e-06 1.324330050416e-03 0.0 
0.0 0.0 -2.010626616006e-04 
-1.299093591511e-04 -2.914930425429e-05 0.0 
-2.914930425429e-05 8.658441252439e-04 0.0 
0.0 0.0 -1.299975089739e-04 
-9.052284020770e-05 -3.049516894790e-05 0.0 
-3.049516894790e-05 5.936904225557e-04 0.0 
0.0 0.0 -9.093357025479e-05 
-1.054046505950e-04 -2.722690421760e-05 0.0 
-2.722690421760e-05 6.941162488956e-04 0.0 
0.0 0.0 -1.053178853420e-04 
-1.346471619318e-04 2.927563182277e-05 0.0 
2.927563182277e-05 8.856709839770e-04 0.0 
0.0 0.0 -1.347235989126e-04 
-2.009441844947e-04 5.418162692695e-07 0.0 
5.418162692695e-07 1.327955075341e-03 0.0 
0.0 0.0 -2.009441844947e-04 
-6.443925901357e-05 -2.813929069584e-05 0.0 
-2.813929069584e-05 4.076252186495e-04 0.0 
0.0 0.0 -6.431912701200e-05 
-7.485675959243e-05 2.901728883495e-05 0.0 
2.901728883495e-05 4.688085198426e-04 0.0 
0.0 0.0 -7.487790608676e-05 
-7.928698614329e-05 2.778576412939e-05 0.0 
2.778576412939e-05 4.984401812577e-04 0.0 
0.0 0.0 -7.908687439778e-05 
-1.394721343079e-04 2.885489704653e-05 0.0 
2.885489704653e-05 9.192978405546e-04 0.0 
0.0 0.0 -1.391937591313e-04 
-2.008612103287e-04 -3.693527197654e-06 0.0 
-3.693527197654e-06 1.364519917838e-03 0.0 
0.0 0.0 -1.985305734468e-04 
-2.250927834624e-05 2.909087829438e-06 0.0 
2.909087829438e-06 1.468758923848e-04 0.0 
0.0 0.0 -2.397382233655e-05 
-2.011163638586e-04 2.302003841698e-07 0.0 
2.302003841698e-07 1.324189736521e-03 0.0 
0.0 0.0 -2.011163638586e-04 
-7.377337448231e-05 2.934269690708e-05 0.0 
2.934269690708e-05 4.594549865471e-04 0.0 
0.0 0.0 -7.358133128319e-05 
-2.014316818412e-04 4.263406091416e-07 0.0 
4.263406091416e-07 1.328090472923e-03 0.0 
0.0 0.0 -2.014316818412e-04 
-1.734276927947e-04 -2.828578725819e-05 0.0 
-2.828578725819e-05 1.166116999412e-03 0.0 
0.0 0.0 -1.729148776319e-04 
-6.741246855669e-06 1.500702879826e-07 0.0 
1.500702879826e-07 3.827256342879e-05 0.0 
0.0 0.0 -6.864263063556e-06 
-1.004959508363e-04 2.808542309375e-05 0.0 
2.808542309375e-05 6.454212743012e-04 0.0 
0.0 0.0 -1.003583859079e-04 
-1.718759866272e-04 -2.980354167843e-05 0.0 
-2.980354167843e-05 1.157131136303e-03 0.0 
0.0 0.0 -1.719029392456e-04 
-2.011830196921e-04 -3.548902454821e-07 0.0 
-3.548902454821e-07 1.327155566075e-03 0.0 
0.0 0.0 -2.011830196921e-04 
-1.388407500422e-04 -2.884720622620e-05 0.0 
-2.884720622620e-05 9.230769586163e-04 0.0 
0.0 0.0 -1.383010158571e-04 
-1.575526722260e-04 2.955644203139e-05 0.0 
2.955644203139e-05 1.043750468826e-03 0.0 
0.0 0.0 -1.573501057445e-04 
-4.123088931291e-05 2.897558544234e-05 0.0 
2.897558544234e-05 2.287469859808e-04 0.0 
0.0 0.0 -4.076119643165e-05 
-1.813025862255e-04 9.345575993616e-07 0.0 
9.345575993616e-07 1.215376006819e-03 0.0 
0.0 0.0 -1.843023520775e-04 
-7.788490820688e-05 2.864422483209e-05 0.0 
2.864422483209e-05 4.890843703452e-04 0.0 
0.0 0.0 -7.776038389268e-05 
-7.872164132443e-05 -2.705112463858e-05 0.0 
-2.705112463858e-05 5.083022021505e-04 0.0 
0.0 0.0 -7.864394100603e-05 
-1.651857613722e-05 2.436579541672e-06 0.0 
2.436579541672e-06 9.382250948335e-05 0.0 
0.0 0.0 -1.564271892946e-05 
-2.011619417363e-04 1.902236696597e-07 0.0 
1.902236696597e-07 1.325669705516e-03 0.0 
0.0 0.0 -2.011619417363e-04 
-5.404101206327e-05 -2.775487024526e-05 0.0 
-2.775487024526e-05 3.346238881161e-04 0.0 
0.0 0.0 -5.346778118095e-05 
-1.664978969876e-04 -3.078518139598e-05 0.0 
-3.078518139598e-05 1.121532468591e-03 0.0 
0.0 0.0 -1.665752238587e-04 
-1.278730840806e-04 -3.472948115295e-05 0.0 
-3.472948115295e-05 8.520267496029e-04 0.0 
0.0 0.0 -1.283298317887e-04 
-6.603291402412e-05 -2.806322866842e-05 0.0 
-2.806322866842e-05 4.217037645698e-04 0.0 
0.0 0.0 -6.617380498945e-05 
-7.463675443451e-05 -2.871843216267e-05 0.0 
-2.871843216267e-05 4.786814676414e-04 0.0 
0.0 0.0 -7.447016153659e-05 
-1.335206736850e-04 -2.810341513530e-05 0.0 
-2.810341513530e-05 8.862841769034e-04 0.0 
0.0 0.0 -1.330061330556e-04 
-2.013389903111e-04 -2.577060081338e-06 0.0 
-2.577060081338e-06 1.328272800082e-03 0.0 
0.0 0.0 -2.013389903111e-04 
-9.595163826971e-05 2.829118562233e-05 0.0 
2.829118562233e-05 6.147361544056e-04 0.0 
0.0 0.0 -9.568302398834e-05 
-1.453761414593e-04 -3.029613600092e-05 0.0 
-3.029613600092e-05 9.724967985982e-04 0.0 
0.0 0.0 -1.454001008742e-04 
-1.206262125757e-04 2.794500349809e-05 0.0 
2.794500349809e-05 7.866369625336e-04 0.0 
0.0 0.0 -1.204619904346e-04 
-1.322723275388e-04 -2.829979880917e-05 0.0 
-2.829979880917e-05 8.816831760065e-04 0.0 
0.0 0.0 -1.321674040750e-04 
-7.980000717296e-05 -2.795628281200e-05 0.0 
-2.795628281200e-05 5.159636454028e-04 0.0 
0.0 0.0 -7.989676937832e-05 
-1.354049195082e-04 -2.966836663350e-05 0.0 
-2.966836663350e-05 9.031731980439e-04 0.0 
0.0 0.0 -1.354758998029e-04 
-1.160382141721e-04 -2.802728243222e-05 0.0 
-2.802728243222e-05 7.673309827378e-04 0.0 
0.0 0.0 -1.159419204142e-04 
-1.497221933922e-04 -2.945707781298e-05 0.0 
-2.945707781298e-05 1.002549953165e-03 0.0 
0.0 0.0 -1.497374551683e-04 
-1.506619844600e-04 2.868191767905e-05 0.0 
2.868191767905e-05 9.959081628399e-04 0.0 
0.0 0.0 -1.504701801305e-04 
-1.152928167139e-04 2.794966723813e-05 0.0 
2.794966723813e-05 7.495122634304e-04 0.0 
0.0 0.0 -1.151504190239e-04 
-9.797200402357e-05 2.936337437301e-05 0.0 
2.936337437301e-05 6.310607353231e-04 0.0 
0.0 0.0 -9.826785141749e-05 
-6.968070852175e-05 -2.743361977117e-05 0.0 
-2.743361977117e-05 4.442581749229e-04 0.0 
0.0 0.0 -6.960145924383e-05 
-9.096858632181e-05 2.865428116578e-05 0.0 
2.865428116578e-05 5.831558172230e-04 0.0 
0.0 0.0 -9.136904409387e-05 
-1.529042345816e-04 -2.854559586381e-05 0.0 
-2.854559586381e-05 1.024686749938e-03 0.0 
0.0 0.0 -1.527306194461e-04 
-1.256058487050e-04 2.811261290406e-05 0.0 
2.811261290406e-05 8.215081039068e-04 0.0 
0.0 0.0 -1.254775488864e-04 
-1.980780648734e-04 -3.935700772682e-06 0.0 
-3.935700772682e-06 1.366110574938e-03 0.0 
0.0 0.0 -1.982894430286e-04 
-1.754272809192e-04 -2.841101742405e-05 0.0 
-2.841101742405e-05 1.186882516095e-03 0.0 
0.0 0.0 -1.761487873678e-04 
-6.082182731614e-05 2.853376333875e-05 0.0 
2.853376333875e-05 3.715508262051e-04 0.0 
0.0 0.0 -6.104993218691e-05 
-2.011571007552e-04 9.171145657892e-07 0.0 
9.171145657892e-07 1.321562182738e-03 0.0 
0.0 0.0 -2.011571007552e-04 
-1.869664199368e-04 -1.057224803579e-06 0.0 
-1.057224803579e-06 1.305229682683e-03 0.0 
0.0 0.0 -1.899621165515e-04 
-1.086484700099e-04 2.782826117920e-05 0.0 
2.782826117920e-05 7.032557878447e-04 0.0 
0.0 0.0 -1.085668144712e-04 
-1.464969908307e-05 -1.429149761968e-06 0.0 
-1.429149761968e-06 4.885109050726e-05 0.0 
0.0 0.0 -1.465773918180e-05 
-1.958263237412e-04 5.780106440857e-07 0.0 
5.780106440857e-07 1.365777430136e-03 0.0 
0.0 0.0 -1.985204576056e-04 
-1.757264082716e-04 -2.517232276593e-05 0.0 
-2.517232276593e-05 1.179270301901e-03 0.0 
0.0 0.0 -1.750736792729e-04 
-6.782541782712e-05 3.019373787777e-05 0.0 
3.019373787777e-05 4.206013080560e-04 0.0 
0.0 0.0 -6.802858053956e-05 
-2.012563967287e-04 -1.966469980066e-06 0.0 
-1.966469980066e-06 1.324444202799e-03 0.0 
0.0 0.0 -2.012563967287e-04 
-1.398061958654e-04 -2.943243974614e-05 0.0 
-2.943243974614e-05 9.347188127772e-04 0.0 
0.0 0.0 -1.398839994836e-04 
-9.402070193648e-05 2.712518201061e-05 0.0 
2.712518201061e-05 5.984767473335e-04 0.0 
0.0 0.0 -9.344238907910e-05 
-1.259751156612e-04 2.590313598485e-05 0.0 
2.590313598485e-05 8.271536243356e-04 0.0 
0.0 0.0 -1.261329128710e-04 
-1.209053773198e-04 -2.958653903370e-05 0.0 
-2.958653903370e-05 8.015101038896e-04 0.0 
0.0 0.0 -1.208199794009e-04 
-1.200662961737e-04 -2.928695907517e-05 0.0 
-2.928695907517e-05 7.971639168788e-04 0.0 
0.0 0.0 -1.201302469568e-04 
-1.377407696400e-04 -2.844739825321e-05 0.0 
-2.844739825321e-05 9.201029016575e-04 0.0 
0.0 0.0 -1.377263211214e-04 
-1.455051528160e-04 -2.968427682686e-05 0.0 
-2.968427682686e-05 9.765284886093e-04 0.0 
0.0 0.0 -1.458154293005e-04 
-1.046610403714e-04 2.733139804099e-05 0.0 
2.733139804099e-05 6.730778598484e-04 0.0 
0.0 0.0 -1.041882757323e-04 
-1.560008307498e-04 2.985032891431e-05 0.0 
2.985032891431e-05 1.035131189223e-03 0.0 
0.0 0.0 -1.559113556481e-04 
-1.346325198006e-04 -3.759875847639e-06 0.0 
-3.759875847639e-06 9.030385431769e-04 0.0 
0.0 0.0 -1.325924704931e-04 
-9.742891063834e-05 -2.917049163419e-05 0.0 
-2.917049163419e-05 6.415916256564e-04 0.0 
0.0 0.0 -9.782951018876e-05 
-1.452307842680e-04 2.798410104444e-05 0.0 
2.798410104444e-05 9.572278053497e-04 0.0 
0.0 0.0 -1.449704969611e-04 
-7.715625378280e-05 -2.667442626255e-05 0.0 
-2.667442626255e-05 4.986036227452e-04 0.0 
0.0 0.0 -7.733157599954e-05 
-1.363333543933e-04 2.878191277654e-05 0.0 
2.878191277654e-05 8.968468110316e-04 0.0 
0.0 0.0 -1.364058089354e-04 
-7.777375980435e-06 -7.535368744987e-07 0.0 
-7.535368744987e-07 3.923141655039e-05 0.0 
0.0 0.0 -6.878196728934e-06 
-7.528604578945e-05 -2.595586335955e-05 0.0 
-2.595586335955e-05 4.832975377931e-04 0.0 
0.0 0.0 -7.495963205652e-05 
-7.310000528410e-05 -2.717420889967e-05 0.0 
-2.717420889967e-05 4.696905978795e-04 0.0 
0.0 0.0 -7.313647621482e-05 
-1.067255440210e-04 2.893271527878e-05 0.0 
2.893271527878e-05 6.917423590188e-04 0.0 
0.0 0.0 -1.068984364518e-04 
-1.139491260445e-04 2.826874769749e-05 0.0 
2.826874769749e-05 7.405843148328e-04 0.0 
0.0 0.0 -1.139284295517e-04 
-1.402043620025e-04 2.960631400939e-05 0.0 
2.960631400939e-05 9.251192422938e-04 0.0 
0.0 0.0 -1.402590041820e-04 
-1.335394728763e-04 -2.801522720058e-05 0.0 
-2.801522720058e-05 8.959684456723e-04 0.0 
0.0 0.0 -1.344445438287e-04 
-6.737158343628e-05 -2.804640221892e-05 0.0 
-2.804640221892e-05 4.313606597416e-04 0.0 
0.0 0.0 -6.758331304146e-05 
-2.012741767181e-04 8.821979198627e-07 0.0 
8.821979198627e-07 1.328039817999e-03 0.0 
0.0 0.0 -2.012741767181e-04 
-1.322856537807e-04 -2.842003897691e-05 0.0 
-2.842003897691e-05 8.785134865185e-04 0.0 
0.0 0.0 -1.318490365677e-04 
-1.109362290093e-04 2.909596826543e-05 0.0 
2.909596826543e-05 7.212635507904e-04 0.0 
0.0 0.0 -1.112084472091e-04 
-1.268451666326e-04 -2.799239167254e-05 0.0 
-2.799239167254e-05 8.413818391972e-04 0.0 
0.0 0.0 -1.265499305732e-04 
-1.064793262471e-04 -2.934158827982e-05 0.0 
-2.934158827982e-05 7.019469370670e-04 0.0 
0.0 0.0 -1.064793858277e-04 
0.0 0.0 0.0 
0.0 0.0 0.0 
0.0 0.0 0.0 
-1.318178097822e-04 -2.805518743843e-05 0.0 
-2.805518743843e-05 8.722935110683e-04 0.0 
0.0 0.0 -1.310031782818e-04 
-9.021933528390e-05 3.132040384158e-05 0.0 
3.132040384158e-05 5.739755637610e-04 0.0 
0.0 0.0 -8.934454493796e-05 
0.0 0.0 0.0 
0.0 0.0 0.0 
0.0 0.0 0.0 
-1.052154278640e-04 3.047955035353e-05 0.0 
3.047955035353e-05 6.816420493296e-04 0.0 
0.0 0.0 -1.056191267961e-04 
-1.502367494217e-04 2.924022123396e-05 0.0 
2.924022123396e-05 9.937951500591e-04 0.0 
0.0 0.0 -1.501881972789e-04 
-1.718775265069e-04 2.928709797380e-05 0.0 
2.928709797380e-05 1.146088071217e-03 0.0 
0.0 0.0 -1.720420237578e-04 
-1.280234877616e-04 -2.851125988754e-05 0.0 
-2.851125988754e-05 8.523441205577e-04 0.0 
0.0 0.0 -1.279840527869e-04 
-1.326450779531e-04 2.837607785170e-05 0.0 
2.837607785170e-05 8.704271803974e-04 0.0 
0.0 0.0 -1.326233994657e-04 
-1.124800331858e-04 -2.250634799779e-05 0.0 
-2.250634799779e-05 7.434000254204e-04 0.0 
0.0 0.0 -1.124284764899e-04 
-1.124934330556e-04 -1.147359770401e-06 0.0 
-1.147359770401e-06 6.878881025193e-04 0.0 
0.0 0.0 -1.096893794977e-04 
-1.889722149430e-04 -3.377914207804e-06 0.0 
-3.377914207804e-06 1.272437990102e-03 0.0 
0.0 0.0 -1.929167378009e-04 
-1.214486582279e-04 -2.834437307674e-05 0.0 
-2.834437307674e-05 8.042147269737e-04 0.0 
0.0 0.0 -1.212428182282e-04 
-3.901684544272e-06 -1.266514493921e-06 0.0 
-1.266514493921e-06 3.364292570627e-05 0.0 
0.0 0.0 -6.803381613341e-06 
-4.019702923064e-05 -2.968878104168e-05 0.0 
-2.968878104168e-05 2.317309542851e-04 0.0 
0.0 0.0 -3.854459625752e-05 
-1.433007491539e-05 -2.523139495984e-06 0.0 
-2.523139495984e-06 4.782663812836e-05 0.0 
0.0 0.0 -1.435566994842e-05 
-6.398639061022e-05 -2.382092625923e-05 0.0 
-2.382092625923e-05 4.115367021604e-04 0.0 
0.0 0.0 -6.426199848985e-05 
-1.705216486236e-04 -3.075798588999e-05 0.0 
-3.075798588999e-05 1.144180239023e-03 0.0 
0.0 0.0 -1.701784606649e-04 
-1.720848907896e-04 -2.982707765609e-05 0.0 
-2.982707765609e-05 1.154451966353e-03 0.0 
0.0 0.0 -1.716974477008e-04 
-1.636081653310e-04 2.890679068895e-05 0.0 
2.890679068895e-05 1.083797119579e-03 0.0 
0.0 0.0 -1.631141653006e-04 
-7.191278251009e-05 -2.923981126011e-05 0.0 
-2.923981126011e-05 4.644308216806e-04 0.0 
0.0 0.0 -7.241705069886e-05 
-1.359669915306e-04 -2.927541453388e-05 0.0 
-2.927541453388e-05 9.079369783679e-04 0.0 
0.0 0.0 -1.359475215862e-04 
-1.703257054035e-04 2.861689226726e-05 0.0 
2.861689226726e-05 1.140054647222e-03 0.0 
0.0 0.0 -1.713159247262e-04 
-4.183047912369e-05 -2.572604659906e-05 0.0 
-2.572604659906e-05 2.560153946945e-04 0.0 
0.0 0.0 -4.231798256975e-05 
-8.943823586418e-05 -3.364415979658e-05 0.0 
-3.364415979658e-05 5.775390913927e-04 0.0 
0.0 0.0 -8.913173311911e-05 
-7.231586338472e-05 2.908218695887e-05 0.0 
2.908218695887e-05 4.640276074048e-04 0.0 
0.0 0.0 -7.470029742937e-05 
-2.002434364986e-04 2.390306987834e-06 0.0 
2.390306987834e-06 1.365017058433e-03 0.0 
0.0 0.0 -1.983595295415e-04 
-2.012462808875e-04 -2.397130779802e-06 0.0 
-2.397130779802e-06 1.326802955155e-03 0.0 
0.0 0.0 -2.012462808875e-04 
-1.001924190894e-04 -2.543634002640e-05 0.0 
-2.543634002640e-05 6.415530807948e-04 0.0 
0.0 0.0 -9.870432074603e-05 
-1.098744198639e-04 -2.927420239507e-05 0.0 
-2.927420239507e-05 7.316606535654e-04 0.0 
0.0 0.0 -1.107837014452e-04 
-1.248013625041e-04 2.918553395126e-05 0.0 
2.918553395126e-05 8.167887655362e-04 0.0 
0.0 0.0 -1.248518557812e-04 
-1.744561955947e-04 2.668158714920e-05 0.0 
2.668158714920e-05 1.182258303691e-03 0.0 
0.0 0.0 -1.765917450224e-04 
-4.348855545644e-05 2.994300755885e-05 0.0 
2.994300755885e-05 2.445057852649e-04 0.0 
0.0 0.0 -4.320551243875e-05 
-1.652296485327e-04 2.906332229875e-05 0.0 
2.906332229875e-05 1.101447253650e-03 0.0 
0.0 0.0 -1.657061016896e-04 
-2.403565913090e-05 4.949963233040e-06 0.0 
4.949963233040e-06 1.531777656687e-04 0.0 
0.0 0.0 -2.418834757213e-05 
-1.015799043054e-04 -2.942946605237e-05 0.0 
-2.942946605237e-05 6.633561862995e-04 0.0 
0.0 0.0 -1.008698596220e-04 
-1.119529650465e-04 -2.962126233882e-05 0.0 
-2.962126233882e-05 7.407931298335e-04 0.0 
0.0 0.0 -1.120576983545e-04 
-1.459957790494e-05 2.147032025287e-06 0.0 
2.147032025287e-06 4.870772312705e-05 0.0 
0.0 0.0 -1.461777652376e-05 
-9.161840063277e-05 2.942933483065e-05 0.0 
2.942933483065e-05 6.062252670522e-04 0.0 
0.0 0.0 -9.401387724495e-05 
-1.768726332775e-04 2.584150165173e-05 0.0 
2.584150165173e-05 1.176843255176e-03 0.0 
0.0 0.0 -1.765293208453e-04 
-8.070653634049e-06 -7.127200303669e-07 0.0 
-7.127200303669e-07 3.799287171116e-05 0.0 
0.0 0.0 -6.885492893058e-06 
-1.096879873477e-04 2.043579917607e-06 0.0 
2.043579917607e-06 6.860751141181e-04 0.0 
0.0 0.0 -1.098413067258e-04 
-1.057188370874e-04 1.685883039911e-07 0.0 
1.685883039911e-07 7.271365247556e-04 0.0 
0.0 0.0 -1.069570933414e-04 
-1.432107105009e-04 -2.918049026374e-05 0.0 
-2.918049026374e-05 9.585008998201e-04 0.0 
0.0 0.0 -1.432800021710e-04 
-7.316489204152e-05 -2.863859130745e-05 0.0 
-2.863859130745e-05 4.706303893412e-04 0.0 
0.0 0.0 -7.415269660255e-05 
-7.204753212897e-05 2.972500420552e-05 0.0 
2.972500420552e-05 4.499764828814e-04 0.0 
0.0 0.0 -7.226240082359e-05 
-5.120365076624e-05 -2.544377550683e-05 0.0 
-2.544377550683e-05 3.155956943602e-04 0.0 
0.0 0.0 -5.097082111979e-05 
-1.766764062378e-04 2.618275323120e-05 0.0 
2.618275323120e-05 1.179907026535e-03 0.0 
0.0 0.0 -1.771343179597e-04 
-1.932169887683e-04 -1.186514980036e-06 0.0 
-1.186514980036e-06 1.270206526665e-03 0.0 
0.0 0.0 -1.929291577857e-04 
-1.651550878866e-04 -2.941422592351e-05 0.0 
-2.941422592351e-05 1.109208798495e-03 0.0 
0.0 0.0 -1.651633390879e-04 
-6.755242304519e-05 -2.455549728632e-05 0.0 
-2.455549728632e-05 4.248768375292e-04 0.0 
0.0 0.0 -6.685523357515e-05 
-3.212136007057e-05 3.580530001302e-05 0.0 
3.580530001302e-05 1.447902451166e-04 0.0 
0.0 0.0 -2.858747568434e-05 
-1.054343223867e-04 -2.695876520577e-05 0.0 
-2.695876520577e-05 6.907711584095e-04 0.0 
0.0 0.0 -1.049869670044e-04 
-1.082088607967e-04 -8.344784113160e-08 0.0 
-8.344784113160e-08 6.889651327617e-04 0.0 
0.0 0.0 -1.101766670879e-04 
-1.083270449213e-04 -5.188674785914e-06 0.0 
-5.188674785914e-06 7.291063979252e-04 0.0 
0.0 0.0 -1.071720332863e-04 
0.0 0.0 0.0 
0.0 0.0 0.0 
0.0 0.0 0.0 
-1.419401195472e-05 1.408697338343e-06 0.0 
1.408697338343e-06 4.733218519253e-05 0.0 
0.0 0.0 -1.420207424477e-05 
-2.834770026484e-05 -7.681243720571e-06 0.0 
-7.681243720571e-06 1.096902963104e-04 0.0 
0.0 0.0 -2.693124394472e-05 
-5.719939767419e-05 2.990659681515e-05 0.0 
2.990659681515e-05 3.452165164042e-04 0.0 
0.0 0.0 -5.731412244432e-05 
-1.720930858718e-05 3.350218996686e-07 0.0 
3.350218996686e-07 9.401005302813e-05 0.0 
0.0 0.0 -1.553541414024e-05 
-1.076654832369e-04 2.813964265791e-05 0.0 
2.813964265791e-05 6.806882370998e-04 0.0 
0.0 0.0 -1.037722331524e-04 
0.0 0.0 0.0 
0.0 0.0 0.0 
0.0 0.0 0.0 
-6.700184681606e-05 3.038711416349e-05 0.0 
3.038711416349e-05 4.144588213805e-04 0.0 
0.0 0.0 -6.723558339016e-05 
-1.422690385554e-04 8.906612131176e-06 0.0 
8.906612131176e-06 9.279461319085e-04 0.0 
0.0 0.0 -1.437384108528e-04 
-1.067106135208e-04 1.512146510798e-06 0.0 
1.512146510798e-06 7.288241095318e-04 0.0 
0.0 0.0 -1.068051661132e-04 
-1.732229403376e-04 -3.027991344990e-05 0.0 
-3.027991344990e-05 1.178111385867e-03 0.0 
0.0 0.0 -1.754224665252e-04 
-1.445452663558e-04 2.930268727359e-05 0.0 
2.930268727359e-05 9.544571665351e-04 0.0 
0.0 0.0 -1.446217387457e-04 
-1.353694455665e-04 1.174583702380e-05 0.0 
1.174583702380e-05 8.660998565929e-04 0.0 
0.0 0.0 -1.348267065705e-04 
-7.873004197628e-05 3.045040631702e-05 0.0 
3.045040631702e-05 5.029221835495e-04 0.0 
0.0 0.0 -7.904067945980e-05 
-2.336863266121e-05 -2.139897506835e-06 0.0 
-2.139897506835e-06 1.525920777976e-04 0.0 
0.0 0.0 -2.404492882983e-05 
-2.011462452073e-04 -3.115145181966e-06 0.0 
-3.115145181966e-06 1.323800969612e-03 0.0 
0.0 0.0 -2.011462452073e-04 
-1.997611016349e-04 -1.600977658655e-07 0.0 
-1.600977658655e-07 1.366080671060e-03 0.0 
0.0 0.0 -1.980443072317e-04 
-1.272448923164e-04 3.465279404623e-05 0.0 
3.465279404623e-05 8.424875497443e-04 0.0 
0.0 0.0 -1.288258176484e-04 
-1.119386170519e-04 -1.126021442298e-06 0.0 
-1.126021442298e-06 6.885955176049e-04 0.0 
0.0 0.0 -1.098911005281e-04 
-7.877315288786e-05 -1.808968119029e-05 0.0 
-1.808968119029e-05 5.143209401366e-04 0.0 
0.0 0.0 -7.971767696681e-05 
-1.985236644042e-04 -3.425616005704e-06 0.0 
-3.425616005704e-06 1.362863135910e-03 0.0 
0.0 0.0 -1.983864604134e-04 
-6.236203446175e-05 -2.877830346934e-05 0.0 
-2.877830346934e-05 3.955051293210e-04 0.0 
0.0 0.0 -6.249901059374e-05 
-1.058650871008e-04 -6.246155104235e-07 0.0 
-6.246155104235e-07 7.256170483752e-04 0.0 
0.0 0.0 -1.068842133844e-04 
-1.069697525894e-04 1.084045783815e-06 0.0 
1.084045783815e-06 6.877400680898e-04 0.0 
0.0 0.0 -1.096916328397e-04 
-1.015389602943e-04 2.700360211827e-05 0.0 
2.700360211827e-05 6.538816838809e-04 0.0 
0.0 0.0 -1.013366985113e-04 
-2.012735984050e-04 -2.798087263703e-06 0.0 
-2.798087263703e-06 1.328613650514e-03 0.0 
0.0 0.0 -2.012735984050e-04 
-1.940648784859e-04 2.411070838906e-06 0.0 
2.411070838906e-06 1.364173949612e-03 0.0 
0.0 0.0 -1.983874027871e-04 
-1.690083312634e-05 1.049773310524e-06 0.0 
1.049773310524e-06 9.202054593460e-05 0.0 
0.0 0.0 -1.553532439781e-05 
0.0 0.0 0.0 
0.0 0.0 0.0 
0.0 0.0 0.0 
-3.585533076935e-05 2.904737459937e-05 0.0 
2.904737459937e-05 1.788685704198e-04 0.0 
0.0 0.0 -3.331695100386e-05 
-1.122713198486e-04 2.937932182379e-05 0.0 
2.937932182379e-05 7.306935959273e-04 0.0 
0.0 0.0 -1.124655765398e-04 
-1.835773402027e-04 3.521607307094e-05 0.0 
3.521607307094e-05 1.234731404255e-03 0.0 
0.0 0.0 -1.837003526785e-04 
-5.776823163620e-06 -1.013741336344e-05 0.0 
-1.013741336344e-05 3.224761562078e-05 0.0 
0.0 0.0 -6.760418344035e-06 
-1.642553307267e-04 -3.202846031696e-05 0.0 
-3.202846031696e-05 1.094624480443e-03 0.0 
0.0 0.0 -1.638777942950e-04 
0.0 0.0 0.0 
0.0 0.0 0.0 
0.0 0.0 0.0 
-1.424654463444e-04 2.913249922816e-05 0.0 
2.913249922816e-05 9.390706018894e-04 0.0 
0.0 0.0 -1.423962487430e-04 
-9.432165051581e-06 1.005162211791e-06 0.0 
1.005162211791e-06 4.138276126950e-05 0.0 
0.0 0.0 -6.886565099861e-06 
-9.362857787326e-06 -3.767431995236e-06 0.0 
-3.767431995236e-06 3.953910185584e-05 0.0 
0.0 0.0 -6.922935307491e-06 
-1.370365661157e-04 2.914478147057e-05 0.0 
2.914478147057e-05 9.005660180564e-04 0.0 
0.0 0.0 -1.368385334393e-04 
-1.786566956368e-04 2.931910129804e-05 0.0 
2.931910129804e-05 1.196344419870e-03 0.0 
0.0 0.0 -1.789445754221e-04 
-1.403014539755e-04 -1.415648790463e-05 0.0 
-1.415648790463e-05 9.602064443499e-04 0.0 
0.0 0.0 -1.404190723625e-04 
-1.093898583646e-04 -2.651797813815e-05 0.0 
-2.651797813815e-05 7.193684517441e-04 0.0 
0.0 0.0 -1.090260965338e-04 
-1.456607726240e-05 -2.038157053184e-06 0.0 
-2.038157053184e-06 4.859194839432e-05 0.0 
0.0 0.0 -1.458251619940e-05 
-1.403045830740e-04 -2.944113871056e-05 0.0 
-2.944113871056e-05 9.375602710699e-04 0.0 
0.0 0.0 -1.402353347023e-04 
-2.006696725991e-04 -3.796241326952e-06 0.0 
-3.796241326952e-06 1.322105168317e-03 0.0 
0.0 0.0 -2.006696725991e-04 
-1.989054431028e-04 -2.182972558240e-05 0.0 
-2.182972558240e-05 1.362302379513e-03 0.0 
0.0 0.0 -1.983532132695e-04 
-1.068515601043e-04 1.760793152409e-06 0.0 
1.760793152409e-06 7.282983415426e-04 0.0 
0.0 0.0 -1.068864667265e-04 
-1.479030554931e-04 2.849872559925e-05 0.0 
2.849872559925e-05 9.774939211832e-04 0.0 
0.0 0.0 -1.479563560404e-04 
-2.012411575798e-04 2.034835726214e-06 0.0 
2.034835726214e-06 1.326088054461e-03 0.0 
0.0 0.0 -2.012411575798e-04 
-1.572471139556e-04 -3.123527971848e-05 0.0 
-3.123527971848e-05 1.052974899250e-03 0.0 
0.0 0.0 -1.570065405944e-04 
-2.512952758235e-05 6.164143337161e-06 0.0 
6.164143337161e-06 1.447280408939e-04 0.0 
0.0 0.0 -2.384861487001e-05 
-1.601508775722e-05 -1.437488736464e-06 0.0 
-1.437488736464e-06 9.300170481307e-05 0.0 
0.0 0.0 -1.544587960073e-05 
-1.543264015197e-05 -6.472491513265e-06 0.0 
-6.472491513265e-06 5.180474928483e-05 0.0 
0.0 0.0 -1.558804677123e-05 
-8.807433739710e-05 2.930499283462e-05 0.0 
2.930499283462e-05 5.721318599331e-04 0.0 
0.0 0.0 -8.900037232384e-05 
-2.000509150237e-04 -1.803318756068e-05 0.0 
-1.803318756068e-05 1.362940764782e-03 0.0 
0.0 0.0 -1.984242861770e-04 
-1.873647884484e-04 -3.488074856058e-05 0.0 
-3.488074856058e-05 1.273069634555e-03 0.0 
0.0 0.0 -1.887494668184e-04 
0.0 0.0 0.0 
0.0 0.0 0.0 
0.0 0.0 0.0 
-1.048455043466e-04 -2.786233972015e-05 0.0 
-2.786233972015e-05 6.764000404035e-04 0.0 
0.0 0.0 -1.040814173273e-04 
-2.017197471554e-04 8.241581226717e-07 0.0 
8.241581226717e-07 1.329062272743e-03 0.0 
0.0 0.0 -2.017197471554e-04 
-2.005984413255e-04 5.516146765968e-06 0.0 
5.516146765968e-06 1.367793765917e-03 0.0 
0.0 0.0 -1.978177876756e-04 
-1.955632613542e-04 2.146035678259e-07 0.0 
2.146035678259e-07 1.364429749039e-03 0.0 
0.0 0.0 -1.981726781329e-04 
-1.551674337257e-04 3.213659539949e-05 0.0 
3.213659539949e-05 1.026132370703e-03 0.0 
0.0 0.0 -1.540722572613e-04 
-1.676819576491e-04 -3.244106652331e-05 0.0 
-3.244106652331e-05 1.132368160945e-03 0.0 
0.0 0.0 -1.688564288694e-04 
-2.007045390215e-04 -1.045242026293e-06 0.0 
-1.045242026293e-06 1.322895647985e-03 0.0 
0.0 0.0 -2.007045390215e-04 
-2.011132486540e-04 -4.189740075221e-06 0.0 
-4.189740075221e-06 1.326334124050e-03 0.0 
0.0 0.0 -2.011132486540e-04 
-1.626580735659e-04 2.634343120663e-05 0.0 
2.634343120663e-05 1.095653417165e-03 0.0 
0.0 0.0 -1.638777942950e-04 
-3.467643311259e-06 1.128712139723e-05 0.0 
1.128712139723e-05 2.762392691705e-05 0.0 
0.0 0.0 -6.812318873104e-06 
-1.069489536729e-04 -2.288587191676e-07 0.0 
-2.288587191676e-07 7.222038744284e-04 0.0 
0.0 0.0 -1.070930873830e-04 
-1.082084560241e-04 4.524390449744e-06 0.0 
4.524390449744e-06 7.317697196541e-04 0.0 
0.0 0.0 -1.070046338016e-04 
0.0 0.0 0.0 
0.0 0.0 0.0 
0.0 0.0 0.0 
-2.013470386860e-04 1.582993778475e-06 0.0 
1.582993778475e-06 1.331092746640e-03 0.0 
0.0 0.0 -2.013470386860e-04 
-2.004992679381e-04 3.810616673030e-06 0.0 
3.810616673030e-06 1.366146148260e-03 0.0 
0.0 0.0 -1.977533921434e-04 
-2.006939626645e-04 9.733569450260e-08 0.0 
9.733569450260e-08 1.322104658797e-03 0.0 
0.0 0.0 -2.006939626645e-04 
-1.033192631121e-05 1.099005081210e-06 0.0 
1.099005081210e-06 3.989146001766e-05 0.0 
0.0 0.0 -6.874462243606e-06 
-1.053268595906e-05 1.440397429326e-06 0.0 
1.440397429326e-06 4.104748301093e-05 0.0 
0.0 0.0 -6.887055179908e-06 
-2.011132486540e-04 -1.745116755585e-07 0.0 
-1.745116755585e-07 1.324356223126e-03 0.0 
0.0 0.0 -2.011132486540e-04 
-2.010594294788e-04 -3.067167593137e-06 0.0 
-3.067167593137e-06 1.323008264150e-03 0.0 
0.0 0.0 -2.010594294788e-04 
-1.525144534316e-04 -3.469908965430e-05 0.0 
-3.469908965430e-05 9.919929974676e-04 0.0 
0.0 0.0 -1.490508918356e-04 
-1.073514247561e-04 4.761945652643e-06 0.0 
4.761945652643e-06 7.219659484264e-04 0.0 
0.0 0.0 -1.068727795842e-04 
-1.577537368329e-04 -3.403094625324e-05 0.0 
-3.403094625324e-05 1.060418053842e-03 0.0 
0.0 0.0 -1.590213654257e-04 
-1.328454241957e-04 -3.370191828823e-05 0.0 
-3.370191828823e-05 8.485398635158e-04 0.0 
0.0 0.0 -1.293991128285e-04 
-1.046169236010e-04 1.973664755836e-06 0.0 
1.973664755836e-06 7.223528969599e-04 0.0 
0.0 0.0 -1.068286901835e-04 
-4.614602936406e-06 5.445308269796e-06 0.0 
5.445308269796e-06 3.738876181996e-05 0.0 
0.0 0.0 -6.743366273123e-06 
-7.288647016025e-06 -5.605815272385e-06 0.0 
-5.605815272385e-06 4.290456148284e-05 0.0 
0.0 0.0 -6.886751345948e-06 
-4.777740867475e-06 -1.713355770572e-06 0.0 
-1.713355770572e-06 3.704418379984e-05 0.0 
0.0 0.0 -6.883523363406e-06 
-7.097131879007e-06 -1.839146356973e-06 0.0 
-1.839146356973e-06 3.989175121334e-05 0.0 
0.0 0.0 -6.834868364323e-06 
-1.111644977681e-04 3.476120600100e-05 0.0 
3.476120600100e-05 7.142233904721e-04 0.0 
0.0 0.0 -1.090698765213e-04 
-9.850854995735e-05 3.047113839014e-05 0.0 
3.047113839014e-05 6.418056074726e-04 0.0 
0.0 0.0 -9.901154080588e-05 
0.0 0.0 0.0 
0.0 0.0 0.0 
0.0 0.0 0.0 
-1.379803939868e-04 3.311278655235e-05 0.0 
3.311278655235e-05 9.246797732210e-04 0.0 
0.0 0.0 -1.383256398532e-04 
0.0 0.0 0.0 
0.0 0.0 0.0 
0.0 0.0 0.0 
-2.012207460908e-04 8.138655548159e-07 0.0 
8.138655548159e-07 1.323125614848e-03 0.0 
0.0 0.0 -2.012207460908e-04 
-2.011453028336e-04 1.874611865645e-06 0.0 
1.874611865645e-06 1.321148462492e-03 0.0 
0.0 0.0 -2.011453028336e-04 
-2.008980620244e-04 -1.010417860952e-06 0.0 
-1.010417860952e-06 1.324898106472e-03 0.0 
0.0 0.0 -2.008980620244e-04 
-3.774320917617e-05 3.566462655254e-05 0.0 
3.566462655254e-05 2.216925288799e-04 0.0 
0.0 0.0 -3.898704224316e-05 
-6.749434365589e-05 3.096998135248e-05 0.0 
3.096998135248e-05 4.319785382730e-04 0.0 
0.0 0.0 -6.911201714261e-05 
-2.005699367862e-04 -7.190292655297e-07 0.0 
-7.190292655297e-07 1.323013138076e-03 0.0 
0.0 0.0 -2.005699367862e-04 
-1.680240814146e-04 2.828255466262e-05 0.0 
2.828255466262e-05 1.134108335992e-03 0.0 
0.0 0.0 -1.687435400630e-04 
-2.016835406704e-04 -3.156370070795e-06 0.0 
-3.156370070795e-06 1.329078538970e-03 0.0 
0.0 0.0 -2.016835406704e-04 
-1.793487015674e-04 3.012936828637e-05 0.0 
3.012936828637e-05 1.204201687729e-03 0.0 
0.0 0.0 -1.788807376869e-04 
-1.896811634642e-04 3.473757623144e-05 0.0 
3.473757623144e-05 1.274809396155e-03 0.0 
0.0 0.0 -1.889858754357e-04 
-9.329662399263e-05 -3.052995434082e-05 0.0 
-3.052995434082e-05 6.062639241622e-04 0.0 
0.0 0.0 -9.401191312989e-05 
-2.000004866553e-04 -4.935042552872e-06 0.0 
-4.935042552872e-06 1.365934607507e-03 0.0 
0.0 0.0 -1.977152396198e-04 
-2.004002946706e-04 1.743259095834e-05 0.0 
1.743259095834e-05 1.363643771933e-03 0.0 
0.0 0.0 -1.982534774566e-04 
-1.735523764126e-04 -3.096544822671e-05 0.0 
-3.096544822671e-05 1.160586461079e-03 0.0 
0.0 0.0 -1.736242777500e-04 
-1.844507237627e-04 -3.076693800438e-05 0.0 
-3.076693800438e-05 1.234271765678e-03 0.0 
0.0 0.0 -1.838666131227e-04 
-1.480705946354e-04 -2.799822277007e-05 0.0 
-2.799822277007e-05 9.966603041907e-04 0.0 
0.0 0.0 -1.488773473547e-04 
0.0 0.0 0.0 
0.0 0.0 0.0 
0.0 0.0 0.0 
-9.787607230901e-05 -3.033430602603e-05 0.0 
-3.033430602603e-05 6.248974769917e-04 0.0 
0.0 0.0 -9.525361646419e-05 
-1.594166567358e-05 -3.750042762657e-06 0.0 
-3.750042762657e-06 8.963110813763e-05 0.0 
0.0 0.0 -1.545597323287e-05 
-1.766298993527e-04 -2.600424007003e-05 0.0 
-2.600424007003e-05 1.189008728009e-03 0.0 
0.0 0.0 -1.766728545426e-04 
-1.011715525641e-04 2.892404910577e-05 0.0 
2.892404910577e-05 6.528362141215e-04 0.0 
0.0 0.0 -1.013053728898e-04 
-1.643672164407e-04 2.795643146507e-05 0.0 
2.795643146507e-05 1.094563530101e-03 0.0 
0.0 0.0 -1.648525347569e-04 
-5.293095072300e-05 -2.919541751065e-05 0.0 
-2.919541751065e-05 3.265136357570e-04 0.0 
0.0 0.0 -5.257162719418e-05 
-2.326140168062e-05 1.809898427410e-05 0.0 
1.809898427410e-05 1.126266936620e-04 0.0 
0.0 0.0 -2.603928234478e-05 
-1.740902369364e-04 -2.842066329623e-05 0.0 
-2.842066329623e-05 1.173125089393e-03 0.0 
0.0 0.0 -1.742502449863e-04 
-1.033465261807e-04 -2.962592743150e-05 0.0 
-2.962592743150e-05 6.925891601377e-04 0.0 
0.0 0.0 -1.051812066754e-04 
-8.643013593859e-05 3.008982733389e-05 0.0 
3.008982733389e-05 5.377346504154e-04 0.0 
0.0 0.0 -8.417044846400e-05 
-1.640235310558e-04 -2.864236577619e-05 0.0 
-2.864236577619e-05 1.105176284391e-03 0.0 
0.0 0.0 -1.644154061664e-04 
-1.767953130454e-04 2.924397373916e-05 0.0 
2.924397373916e-05 1.186936749162e-03 0.0 
0.0 0.0 -1.783361800308e-04 
-8.342488227328e-05 -3.047437538585e-05 0.0 
-3.047437538585e-05 5.389729855638e-04 0.0 
0.0 0.0 -8.404105178381e-05 
-1.553105581953e-04 -3.047408891050e-05 0.0 
-3.047408891050e-05 1.042435393668e-03 0.0 
0.0 0.0 -1.553470185564e-04 
-1.377037381347e-04 2.897215065226e-05 0.0 
2.897215065226e-05 9.063511737441e-04 0.0 
0.0 0.0 -1.377261412248e-04 
-1.487663362168e-04 3.034863814033e-05 0.0 
3.034863814033e-05 9.863621124124e-04 0.0 
0.0 0.0 -1.492918029589e-04 
-1.536565537427e-04 2.792959174996e-05 0.0 
2.792959174996e-05 1.019186869417e-03 0.0 
0.0 0.0 -1.536336870150e-04 
-8.703976113535e-05 2.837055784379e-05 0.0 
2.837055784379e-05 5.518675504069e-04 0.0 
0.0 0.0 -8.683226689744e-05 
-1.002022259484e-04 -2.590961570230e-05 0.0 
-2.590961570230e-05 6.551468687222e-04 0.0 
0.0 0.0 -9.977007195992e-05 
-1.093881919947e-04 -2.770239582758e-05 0.0 
-2.770239582758e-05 7.220131976624e-04 0.0 
0.0 0.0 -1.093958643288e-04 
-1.406127741505e-04 2.917136878775e-05 0.0 
2.917136878775e-05 9.268398262503e-04 0.0 
0.0 0.0 -1.406784318969e-04 
-1.687115161712e-04 -3.067342872161e-05 0.0 
-3.067342872161e-05 1.136830953558e-03 0.0 
0.0 0.0 -1.687651353947e-04 
-1.585913072065e-04 2.928358840365e-05 0.0 
2.928358840365e-05 1.052859338839e-03 0.0 
0.0 0.0 -1.580633810106e-04 
-5.479081598616e-05 2.994038105978e-05 0.0 
2.994038105978e-05 3.289222848753e-04 0.0 
0.0 0.0 -5.528240989263e-05 
-1.746871843674e-04 3.283276217726e-05 0.0 
3.283276217726e-05 1.185116148222e-03 0.0 
0.0 0.0 -1.775271150753e-04 
-1.679442359996e-04 3.131022344942e-05 0.0 
3.131022344942e-05 1.115031446851e-03 0.0 
0.0 0.0 -1.675626104125e-04 
-1.221593488371e-04 3.511867114280e-05 0.0 
3.511867114280e-05 8.006612417280e-04 0.0 
0.0 0.0 -1.216572242888e-04 
-1.462466688388e-04 2.908933395677e-05 0.0 
2.908933395677e-05 9.660970915257e-04 0.0 
0.0 0.0 -1.463062179487e-04 
-1.447835164611e-04 2.956128772271e-05 0.0 
2.956128772271e-05 9.567010152770e-04 0.0 
0.0 0.0 -1.449838819924e-04 
-1.792333390310e-04 -3.168391798873e-05 0.0 
-3.168391798873e-05 1.203028324022e-03 0.0 
0.0 0.0 -1.778043281469e-04 
-1.726861877255e-04 2.779707870147e-05 0.0 
2.779707870147e-05 1.157249200719e-03 0.0 
0.0 0.0 -1.726459165900e-04 
-1.329452909279e-04 -2.927403005553e-05 0.0 
-2.927403005553e-05 8.870966851266e-04 0.0 
0.0 0.0 -1.330039573441e-04 
-1.775653267684e-04 -2.916250387629e-05 0.0 
-2.916250387629e-05 1.203364525945e-03 0.0 
0.0 0.0 -1.786308073928e-04 
-1.654805505207e-04 2.898950024976e-05 0.0 
2.898950024976e-05 1.100881704438e-03 0.0 
0.0 0.0 -1.655124361118e-04 
-1.580020696379e-04 -2.712101494930e-05 0.0 
-2.712101494930e-05 1.052848737751e-03 0.0 
0.0 0.0 -1.580622427210e-04 
-1.810952274087e-04 -3.284061138223e-05 0.0 
-3.284061138223e-05 1.222270948259e-03 0.0 
0.0 0.0 -1.815025845867e-04 
-1.775177136140e-04 -3.096279402686e-05 0.0 
-3.096279402686e-05 1.194150968252e-03 0.0 
0.0 0.0 -1.772606145979e-04 
-1.518616300347e-04 -3.096354740043e-05 0.0 
-3.096354740043e-05 1.015068895178e-03 0.0 
0.0 0.0 -1.517726872707e-04 
-1.496823891535e-04 -2.920446452269e-05 0.0 
-2.920446452269e-05 1.003862088151e-03 0.0 
0.0 0.0 -1.497848398488e-04 
-5.427687096238e-05 2.854055310501e-05 0.0 
2.854055310501e-05 3.273443379495e-04 0.0 
0.0 0.0 -5.466547164957e-05 
-5.095033440368e-05 2.883575061878e-05 0.0 
2.883575061878e-05 3.031424762161e-04 0.0 
0.0 0.0 -5.122137633346e-05 
-3.072034194903e-05 -3.506956867742e-05 0.0 
-3.506956867742e-05 1.557986335542e-04 0.0 
0.0 0.0 -2.814555096794e-05 
-1.579898709992e-05 2.384950188940e-07 0.0 
2.384950188940e-07 9.239980657952e-05 0.0 
0.0 0.0 -1.548055260559e-05 
-1.719981887166e-04 -3.054801319503e-05 0.0 
-3.054801319503e-05 1.160032239923e-03 0.0 
0.0 0.0 -1.726497055680e-04 
-1.730057153277e-04 2.894349992059e-05 0.0 
2.894349992059e-05 1.155971227885e-03 0.0 
0.0 0.0 -1.735259579760e-04 
-1.534650184937e-05 9.500651036844e-07 0.0 
9.500651036844e-07 8.883806811954e-05 0.0 
0.0 0.0 -1.543927480913e-05 
-1.729354271187e-04 -2.918916139558e-05 0.0 
-2.918916139558e-05 1.170988397774e-03 0.0 
0.0 0.0 -1.740447999656e-04 
-1.236089081148e-04 3.200079916068e-05 0.0 
3.200079916068e-05 8.273931967603e-04 0.0 
0.0 0.0 -1.265519798902e-04 
-1.594739007149e-04 -3.000529878065e-05 0.0 
-3.000529878065e-05 1.075639781327e-03 0.0 
0.0 0.0 -1.601216174199e-04 
-1.636627678593e-04 2.889886741851e-05 0.0 
2.889886741851e-05 1.086851557310e-03 0.0 
0.0 0.0 -1.635645035532e-04 
-7.625528765098e-05 2.781792169367e-05 0.0 
2.781792169367e-05 4.777485640918e-04 0.0 
0.0 0.0 -7.635943377870e-05 
-1.632628531148e-04 -2.978415075944e-05 0.0 
-2.978415075944e-05 1.096266397172e-03 0.0 
0.0 0.0 -1.631933750172e-04 
-1.207910536096e-04 -4.061404171323e-05 0.0 
-4.061404171323e-05 8.019844783726e-04 0.0 
0.0 0.0 -1.215026445147e-04 
-1.504315644849e-04 -2.965320847345e-05 0.0 
-2.965320847345e-05 1.005966507733e-03 0.0 
0.0 0.0 -1.500583224091e-04 
-1.846754410923e-04 3.352091310646e-05 0.0 
3.352091310646e-05 1.245792346023e-03 0.0 
0.0 0.0 -1.864447358774e-04 
-5.279032525833e-05 2.208619701697e-05 0.0 
2.208619701697e-05 3.133772429488e-04 0.0 
0.0 0.0 -5.313656330857e-05 
-1.831953493923e-04 -2.511536867923e-05 0.0 
-2.511536867923e-05 1.231406037521e-03 0.0 
0.0 0.0 -1.822568313532e-04 
-1.571776203955e-04 -2.822373229928e-05 0.0 
-2.822373229928e-05 1.054015413805e-03 0.0 
0.0 0.0 -1.572433088830e-04 
-5.834406746481e-05 3.055754480025e-05 0.0 
3.055754480025e-05 3.570231696704e-04 0.0 
0.0 0.0 -5.895916886618e-05 
-6.008933693805e-05 -2.693292101219e-05 0.0 
-2.693292101219e-05 3.827519316289e-04 0.0 
0.0 0.0 -6.052350288525e-05 
-1.184340009129e-04 2.989577006112e-05 0.0 
2.989577006112e-05 7.732438321287e-04 0.0 
0.0 0.0 -1.186440953039e-04 
-1.421755537841e-04 3.042033410873e-05 0.0 
3.042033410873e-05 9.320324598368e-04 0.0 
0.0 0.0 -1.411471141782e-04 
-8.083756678408e-05 2.897464216654e-05 0.0 
2.897464216654e-05 5.134881601291e-04 0.0 
0.0 0.0 -8.144657762318e-05 
-1.627359267385e-04 -3.016848544890e-05 0.0 
-3.016848544890e-05 1.091242501789e-03 0.0 
0.0 0.0 -1.627679727590e-04 
-1.463730196707e-04 -3.358422439378e-05 0.0 
-3.358422439378e-05 9.789488013624e-04 0.0 
0.0 0.0 -1.472519143444e-04 
-1.152261228612e-04 2.820263711739e-05 0.0 
2.820263711739e-05 7.517075314357e-04 0.0 
0.0 0.0 -1.155139551463e-04 
-1.539721025279e-04 -2.767350944115e-05 0.0 
-2.767350944115e-05 1.026348259349e-03 0.0 
0.0 0.0 -1.532636563680e-04 
-1.586940631686e-04 -2.997071389939e-05 0.0 
-2.997071389939e-05 1.067020467702e-03 0.0 
0.0 0.0 -1.588045401937e-04 
-1.586913358411e-04 3.263624713145e-05 0.0 
3.263624713145e-05 1.044672031080e-03 0.0 
0.0 0.0 -1.576021588438e-04 
-4.550621427776e-05 -2.757364409112e-05 0.0 
-2.757364409112e-05 2.786110438531e-04 0.0 
0.0 0.0 -4.588123838153e-05 
-1.095812830794e-04 2.804439789498e-05 0.0 
2.804439789498e-05 7.132223363853e-04 0.0 
0.0 0.0 -1.099287363951e-04 
-1.704275424327e-04 3.124314915643e-05 0.0 
3.124314915643e-05 1.141631777300e-03 0.0 
0.0 0.0 -1.711692687607e-04 
-1.617652388930e-04 -2.976223953276e-05 0.0 
-2.976223953276e-05 1.085248624266e-03 0.0 
0.0 0.0 -1.617298285672e-04 
-9.932779323652e-05 3.247070041484e-05 0.0 
3.247070041484e-05 6.407303244551e-04 0.0 
0.0 0.0 -1.000025319772e-04 
-1.372362599773e-04 -2.929140934786e-05 0.0 
-2.929140934786e-05 9.170515288159e-04 0.0 
0.0 0.0 -1.372955424611e-04 
-1.781532306591e-04 -3.038825115168e-05 0.0 
-3.038825115168e-05 1.202531523701e-03 0.0 
0.0 0.0 -1.781379491294e-04 
-1.507990336472e-04 2.853112124702e-05 0.0 
2.853112124702e-05 1.007077831849e-03 0.0 
0.0 0.0 -1.520953659658e-04 
-2.863924773083e-05 -3.201515123380e-05 0.0 
-3.201515123380e-05 1.478580457183e-04 0.0 
0.0 0.0 -2.710093308172e-05 
-2.955220796048e-05 -3.089794713249e-05 0.0 
-3.089794713249e-05 1.503888673604e-04 0.0 
0.0 0.0 -2.753304043464e-05 
-5.273989345688e-05 -2.717936029267e-05 0.0 
-2.717936029267e-05 3.233117972350e-04 0.0 
0.0 0.0 -5.201063495363e-05 
-1.693284171481e-04 3.002349955065e-05 0.0 
3.002349955065e-05 1.126502264070e-03 0.0 
0.0 0.0 -1.691756543757e-04 
-1.472485094623e-04 2.900717882423e-05 0.0 
2.900717882423e-05 9.697797839987e-04 0.0 
0.0 0.0 -1.466250473148e-04 
-1.255735830660e-04 -3.222245594843e-05 0.0 
-3.222245594843e-05 8.565507458900e-04 0.0 
0.0 0.0 -1.276957716749e-04 
-1.309605655324e-04 2.844392373699e-05 0.0 
2.844392373699e-05 8.631762486065e-04 0.0 
0.0 0.0 -1.311842221922e-04 
-1.705994579248e-04 -2.912195010466e-05 0.0 
-2.912195010466e-05 1.150350461823e-03 0.0 
0.0 0.0 -1.708795005752e-04 
-1.197229653638e-04 2.838848019244e-05 0.0 
2.838848019244e-05 7.818358523863e-04 0.0 
0.0 0.0 -1.198307167265e-04 
-1.587419479579e-04 2.931310418594e-05 0.0 
2.931310418594e-05 1.056312831607e-03 0.0 
0.0 0.0 -1.592449238259e-04 
-5.334541196780e-05 -2.737759313696e-05 0.0 
-2.737759313696e-05 3.380073693947e-04 0.0 
0.0 0.0 -5.422683465997e-05 
-1.820085836177e-04 3.596926237720e-05 0.0 
3.596926237720e-05 1.220521251632e-03 0.0 
0.0 0.0 -1.817296696507e-04 
-1.149006963939e-04 -2.979806393901e-05 0.0 
-2.979806393901e-05 7.621150101384e-04 0.0 
0.0 0.0 -1.150969102169e-04 
-5.891651114318e-05 -2.911512363173e-05 0.0 
-2.911512363173e-05 3.703729731158e-04 0.0 
0.0 0.0 -5.833749487792e-05 
-1.097144826368e-04 -3.210843000057e-05 0.0 
-3.210843000057e-05 7.218042111898e-04 0.0 
0.0 0.0 -1.096669806773e-04 
-8.504854609334e-05 2.789969650457e-05 0.0 
2.789969650457e-05 5.434275787344e-04 0.0 
0.0 0.0 -8.575010502696e-05 
-6.662869610533e-05 -2.920394233023e-05 0.0 
-2.920394233023e-05 4.253303798385e-04 0.0 
0.0 0.0 -6.679150530213e-05 
-1.281203035701e-04 2.817302591064e-05 0.0 
2.817302591064e-05 8.398276961004e-04 0.0 
0.0 0.0 -1.284742647491e-04 
0.0 0.0 0.0 
0.0 0.0 0.0 
0.0 0.0 0.0 
0.0 0.0 0.0 
0.0 0.0 0.0 
0.0 0.0 0.0 
-1.445088964832e-04 -2.893688476098e-05 0.0 
-2.893688476098e-05 9.674073108634e-04 0.0 
0.0 0.0 -1.445400849015e-04 
-4.892423638284e-05 -2.632452238192e-05 0.0 
-2.632452238192e-05 3.096365629157e-04 0.0 
0.0 0.0 -5.004674077938e-05 
-1.457493822096e-04 -2.962474104526e-05 0.0 
-2.962474104526e-05 9.767716228798e-04 0.0 
0.0 0.0 -1.458658349781e-04 
-1.415183033580e-04 -2.921664079038e-05 0.0 
-2.921664079038e-05 9.471227879207e-04 0.0 
0.0 0.0 -1.415771022166e-04 
-9.224355795817e-05 2.937565561905e-05 0.0 
2.937565561905e-05 5.919004124542e-04 0.0 
0.0 0.0 -9.266636470267e-05 
-6.202111907479e-05 2.972814442546e-05 0.0 
2.972814442546e-05 3.814986374049e-04 0.0 
0.0 0.0 -6.243334508123e-05 
-1.705073254263e-04 -3.058386286971e-05 0.0 
-3.058386286971e-05 1.147565254188e-03 0.0 
0.0 0.0 -1.706579733040e-04 
-3.233825504350e-05 -1.324403429526e-05 0.0 
-1.324403429526e-05 1.436007537479e-04 0.0 
0.0 0.0 -3.071301381923e-05 
-9.032577727252e-05 2.603440625466e-05 0.0 
2.603440625466e-05 5.755517471348e-04 0.0 
0.0 0.0 -9.007223908940e-05 
-1.758201471036e-04 -2.496828995894e-05 0.0 
-2.496828995894e-05 1.183557369344e-03 0.0 
0.0 0.0 -1.763300484694e-04 
-4.234236352950e-05 2.833023666619e-05 0.0 
2.833023666619e-05 2.526301394403e-04 0.0 
0.0 0.0 -4.466356309917e-05 
-1.370406890181e-04 -2.882178052615e-05 0.0 
-2.882178052615e-05 9.084977336144e-04 0.0 
0.0 0.0 -1.363328868096e-04 
-1.251017907088e-04 -3.342170659080e-05 0.0 
-3.342170659080e-05 8.360831923250e-04 0.0 
0.0 0.0 -1.262442940543e-04 
-4.243995648314e-05 -2.885964126201e-05 0.0 
-2.885964126201e-05 2.574366796815e-04 0.0 
0.0 0.0 -4.263591946142e-05 
-1.739889600423e-04 -2.690839563986e-05 0.0 
-2.690839563986e-05 1.171323703451e-03 0.0 
0.0 0.0 -1.738083055154e-04 
-1.553384911707e-04 -2.978982874275e-05 0.0 
-2.978982874275e-05 1.040098894659e-03 0.0 
0.0 0.0 -1.552347842588e-04 
-5.039241409165e-05 2.679614467153e-05 0.0 
2.679614467153e-05 2.983848210045e-04 0.0 
0.0 0.0 -5.046983505462e-05 
-1.747728255798e-04 -2.774380167709e-05 0.0 
-2.774380167709e-05 1.177437247902e-03 0.0 
0.0 0.0 -1.749780669508e-04 
-1.757727651253e-04 2.551606084145e-05 0.0 
2.551606084145e-05 1.168074540028e-03 0.0 
0.0 0.0 -1.753502448874e-04 
-5.505726652839e-05 -3.093038002705e-05 0.0 
-3.093038002705e-05 3.465532391474e-04 0.0 
0.0 0.0 -5.552857102027e-05 
-7.317029843834e-05 -3.194987778490e-05 0.0 
-3.194987778490e-05 4.614269377597e-04 0.0 
0.0 0.0 -7.202002872087e-05 
-5.677279645057e-05 -2.927873741732e-05 0.0 
-2.927873741732e-05 3.560995133108e-04 0.0 
0.0 0.0 -5.686660089389e-05 
-1.535151853389e-04 -2.933036748660e-05 0.0 
-2.933036748660e-05 1.036192859014e-03 0.0 
0.0 0.0 -1.544885262514e-04 
-1.242530601195e-04 2.861329611066e-05 0.0 
2.861329611066e-05 8.120316343009e-04 0.0 
0.0 0.0 -1.241455235793e-04 
-1.762597939278e-04 2.757012001528e-05 0.0 
2.757012001528e-05 1.169740478878e-03 0.0 
0.0 0.0 -1.754294197466e-04 
-1.711850229745e-04 2.864038460658e-05 0.0 
2.864038460658e-05 1.139237277346e-03 0.0 
0.0 0.0 -1.710046063662e-04 
-1.497953027623e-04 -2.952090845357e-05 0.0 
-2.952090845357e-05 1.006551656477e-03 0.0 
0.0 0.0 -1.501751650533e-04 
-1.503962620125e-04 2.908649725408e-05 0.0 
2.908649725408e-05 9.959224082837e-04 0.0 
0.0 0.0 -1.506140208444e-04 
-4.755962799573e-05 2.961725835591e-05 0.0 
2.961725835591e-05 2.764290125414e-04 0.0 
0.0 0.0 -4.738039998630e-05 
-1.544053010064e-04 2.921080048960e-05 0.0 
2.921080048960e-05 1.025561320549e-03 0.0 
0.0 0.0 -1.549280912548e-04 
-1.557486119605e-04 2.953656624643e-05 0.0 
2.953656624643e-05 1.031918401575e-03 0.0 
0.0 0.0 -1.555717122721e-04 
-1.233043498576e-04 -2.852184502998e-05 0.0 
-2.852184502998e-05 8.222615261922e-04 0.0 
0.0 0.0 -1.237306916726e-04 
-1.467661945651e-04 -2.993950527874e-05 0.0 
-2.993950527874e-05 9.778837446955e-04 0.0 
0.0 0.0 -1.462911275235e-04 
-1.606564974618e-04 -3.021309399430e-05 0.0 
-3.021309399430e-05 1.078198516753e-03 0.0 
0.0 0.0 -1.607123627396e-04 
-1.117498861518e-04 2.850262572474e-05 0.0 
2.850262572474e-05 7.245894762642e-04 0.0 
0.0 0.0 -1.115305788895e-04 
-1.668451985095e-04 2.929977478704e-05 0.0 
2.929977478704e-05 1.108305524184e-03 0.0 
0.0 0.0 -1.665387401245e-04 
-1.057225299962e-04 3.155313044250e-05 0.0 
3.155313044250e-05 6.826770249726e-04 0.0 
0.0 0.0 -1.044775758143e-04 
-1.196746585436e-04 -2.994940432812e-05 0.0 
-2.994940432812e-05 7.923200024953e-04 0.0 
0.0 0.0 -1.194095964715e-04 
-8.002674295402e-05 3.358846946639e-05 0.0 
3.358846946639e-05 5.079680145232e-04 0.0 
0.0 0.0 -8.013437995356e-05 
-8.330364669840e-05 -2.724402051282e-05 0.0 
-2.724402051282e-05 5.442521817240e-04 0.0 
0.0 0.0 -8.372375584921e-05 
-1.515465133375e-04 2.950843049766e-05 0.0 
2.950843049766e-05 1.000906494757e-03 0.0 
0.0 0.0 -1.511009726023e-04 
-1.144286686682e-04 -2.867408820424e-05 0.0 
-2.867408820424e-05 7.585750249113e-04 0.0 
0.0 0.0 -1.145674989690e-04 
-6.084802831260e-05 -2.991902315111e-05 0.0 
-2.991902315111e-05 3.860715331104e-04 0.0 
0.0 0.0 -6.116241410045e-05 
-3.353257843682e-05 -2.498074177198e-05 0.0 
-2.498074177198e-05 1.896944408225e-04 0.0 
0.0 0.0 -3.278510925449e-05 
-1.508054349256e-04 -2.953924267332e-05 0.0 
-2.953924267332e-05 1.009022901988e-03 0.0 
0.0 0.0 -1.507672500721e-04 
-6.144560576959e-05 2.946678310881e-05 0.0 
2.946678310881e-05 3.752423857179e-04 0.0 
0.0 0.0 -6.160741095528e-05 
-1.795193782850e-04 3.015966066455e-05 0.0 
3.015966066455e-05 1.220916437867e-03 0.0 
0.0 0.0 -1.828075300492e-04 
-1.564210717973e-04 2.928181705796e-05 0.0 
2.928181705796e-05 1.038697099430e-03 0.0 
0.0 0.0 -1.565825172896e-04 
-1.601803915316e-04 2.879046078541e-05 0.0 
2.879046078541e-05 1.065098279090e-03 0.0 
0.0 0.0 -1.605560195386e-04 
-1.924510169718e-04 -3.681008615862e-06 0.0 
-3.681008615862e-06 1.266195614385e-03 0.0 
0.0 0.0 -1.927094427628e-04 
-9.917312679716e-05 -3.248065919378e-05 0.0 
-3.248065919378e-05 6.537270345769e-04 0.0 
0.0 0.0 -9.956065683389e-05 
-5.578848237072e-05 2.919143814272e-05 0.0 
2.919143814272e-05 3.356753976095e-04 0.0 
0.0 0.0 -5.597427817213e-05 
-3.764707681470e-05 3.152158318827e-05 0.0 
3.152158318827e-05 2.055269805242e-04 0.0 
0.0 0.0 -3.744316153082e-05 
-1.513908916278e-04 -2.965358922743e-05 0.0 
-2.965358922743e-05 1.015985434205e-03 0.0 
0.0 0.0 -1.514863114221e-04 
-1.425433722621e-04 3.012022841548e-05 0.0 
3.012022841548e-05 9.394937491690e-04 0.0 
0.0 0.0 -1.421023406183e-04 
-2.681800511095e-05 2.581926760662e-05 0.0 
2.581926760662e-05 1.385235032261e-04 0.0 
0.0 0.0 -2.788272662613e-05 
-7.959731755198e-05 -2.970357934053e-05 0.0 
-2.970357934053e-05 5.241419312225e-04 0.0 
0.0 0.0 -8.100711145360e-05 
-4.597324572621e-05 -2.624539862290e-05 0.0 
-2.624539862290e-05 3.001894932538e-04 0.0 
0.0 0.0 -4.869105516194e-05 
-1.408940546525e-04 -2.794056746742e-05 0.0 
-2.794056746742e-05 9.400214273018e-04 0.0 
0.0 0.0 -1.408175133641e-04 
-8.220239972126e-05 -3.150539897154e-05 0.0 
-3.150539897154e-05 5.540054204137e-04 0.0 
0.0 0.0 -8.531818138572e-05 
-1.420072539078e-04 2.886098902268e-05 0.0 
2.886098902268e-05 9.363360353424e-04 0.0 
0.0 0.0 -1.420190347897e-04 
-8.142682941929e-05 -3.127687653374e-05 0.0 
-3.127687653374e-05 5.123505803199e-04 0.0 
0.0 0.0 -8.006333120906e-05 
-1.676020446456e-04 -3.106665135098e-05 0.0 
-3.106665135098e-05 1.123875757488e-03 0.0 
0.0 0.0 -1.672214290798e-04 
-7.117572739314e-05 2.988293947474e-05 0.0 
2.988293947474e-05 4.447820599446e-04 0.0 
0.0 0.0 -7.152995986871e-05 
-1.528626195223e-04 -2.956851905674e-05 0.0 
-2.956851905674e-05 1.025224946446e-03 0.0 
0.0 0.0 -1.527886262531e-04 
-5.059375724921e-05 -2.868524116335e-05 0.0 
-2.868524116335e-05 3.156970290875e-04 0.0 
0.0 0.0 -5.064650353833e-05 
-1.471629417592e-04 -2.959313709753e-05 0.0 
-2.959313709753e-05 9.860061145689e-04 0.0 
0.0 0.0 -1.471833001180e-04 
-1.144539418112e-04 -2.473861065929e-05 0.0 
-2.473861065929e-05 7.560825404925e-04 0.0 
0.0 0.0 -1.140633649831e-04 
-1.560905633689e-04 2.900023350889e-05 0.0 
2.900023350889e-05 1.035339225371e-03 0.0 
0.0 0.0 -1.562332567718e-04 
-8.041016399686e-05 2.814724334195e-05 0.0 
2.814724334195e-05 5.070504478833e-04 0.0 
0.0 0.0 -8.025424390503e-05 
-4.885024697967e-05 3.157288993858e-05 0.0 
3.157288993858e-05 2.863708627365e-04 0.0 
0.0 0.0 -4.915965252508e-05 
-1.306396509784e-04 -2.896286188210e-05 0.0 
-2.896286188210e-05 8.760759259617e-04 0.0 
0.0 0.0 -1.318090263425e-04 
-1.421840376928e-04 -2.883026291404e-05 0.0 
-2.883026291404e-05 9.494244979280e-04 0.0 
0.0 0.0 -1.419644564515e-04 
-1.018318441446e-04 2.874180221663e-05 0.0 
2.874180221663e-05 6.553763140814e-04 0.0 
0.0 0.0 -1.016412246321e-04 
-1.420263861118e-04 -3.127951009604e-05 0.0 
-3.127951009604e-05 9.447561927313e-04 0.0 
0.0 0.0 -1.417981522837e-04 
-5.634120637729e-05 -2.901059335072e-05 0.0 
-2.901059335072e-05 3.528621573190e-04 0.0 
0.0 0.0 -5.638371198943e-05 
-1.449671090102e-04 2.903465807275e-05 0.0 
2.903465807275e-05 9.569114950414e-04 0.0 
0.0 0.0 -1.446420687869e-04 
-4.539864356175e-05 -2.892446416447e-05 0.0 
-2.892446416447e-05 2.698402511523e-04 0.0 
0.0 0.0 -4.421511183446e-05 
-1.729769140722e-04 -3.077324556460e-05 0.0 
-3.077324556460e-05 1.164178924141e-03 0.0 
0.0 0.0 -1.725604168134e-04 
-1.475790650913e-04 -2.860800824990e-05 0.0 
-2.860800824990e-05 9.878754875081e-04 0.0 
0.0 0.0 -1.475206686141e-04 
-1.559172333653e-04 -2.909982133967e-05 0.0 
-2.909982133967e-05 1.044176401684e-03 0.0 
0.0 0.0 -1.555576518016e-04 
-1.814415509393e-04 -3.096082582331e-05 0.0 
-3.096082582331e-05 1.219536896500e-03 0.0 
0.0 0.0 -1.806695418618e-04 
-1.243391768637e-04 -2.906810919430e-05 0.0 
-2.906810919430e-05 8.271957787415e-04 0.0 
0.0 0.0 -1.244215412621e-04 
-4.664731672080e-05 2.860386537301e-05 0.0 
2.860386537301e-05 2.677194554706e-04 0.0 
0.0 0.0 -4.622233884158e-05 
-1.385662832492e-04 -2.918174486768e-05 0.0 
-2.918174486768e-05 9.260656173097e-04 0.0 
0.0 0.0 -1.385923280275e-04 
-1.786563386237e-04 3.101548389749e-05 0.0 
3.101548389749e-05 1.192786428697e-03 0.0 
0.0 0.0 -1.784944650888e-04 
-7.162593897649e-05 -2.768839620490e-05 0.0 
-2.768839620490e-05 4.607586366936e-04 0.0 
0.0 0.0 -7.179147874927e-05 
-1.555062997913e-04 -2.993363634807e-05 0.0 
-2.993363634807e-05 1.045876444410e-03 0.0 
0.0 0.0 -1.558013491646e-04 
-1.563360137049e-04 -3.042238300922e-05 0.0 
-3.042238300922e-05 1.046916559821e-03 0.0 
0.0 0.0 -1.562447224125e-04 
-5.757013598642e-05 2.991181572022e-05 0.0 
2.991181572022e-05 3.517212459558e-04 0.0 
0.0 0.0 -5.821047451129e-05 
-1.428729262720e-04 -2.942561466243e-05 0.0 
-2.942561466243e-05 9.560791547854e-04 0.0 
0.0 0.0 -1.428864875989e-04 
-1.287965022508e-04 -2.896617927485e-05 0.0 
-2.896617927485e-05 8.622522049021e-04 0.0 
0.0 0.0 -1.299469088572e-04 
-6.374853467835e-05 -2.810218119480e-05 0.0 
-2.810218119480e-05 4.066202706617e-04 0.0 
0.0 0.0 -6.420979177598e-05 
-7.595105816060e-05 -2.936393149418e-05 0.0 
-2.936393149418e-05 4.942830544211e-04 0.0 
0.0 0.0 -7.670872189436e-05 
-1.201712666697e-04 -2.803941660002e-05 0.0 
-2.803941660002e-05 7.961944137223e-04 0.0 
0.0 0.0 -1.200650238334e-04 
-1.519360189963e-04 2.891732000513e-05 0.0 
2.891732000513e-05 1.005387589283e-03 0.0 
0.0 0.0 -1.519214610183e-04 
-9.356553445047e-05 -2.682931258762e-05 0.0 
-2.682931258762e-05 6.080636784229e-04 0.0 
0.0 0.0 -9.302852286394e-05 
-1.148225546297e-04 -2.766542218562e-05 0.0 
-2.766542218562e-05 7.592972424786e-04 0.0 
0.0 0.0 -1.147482613702e-04 
-1.503198881368e-04 2.949228603565e-05 0.0 
2.949228603565e-05 9.943051761167e-04 0.0 
0.0 0.0 -1.501005480629e-04 
-1.374005660342e-04 3.157606201505e-05 0.0 
3.157606201505e-05 9.005540063851e-04 0.0 
0.0 0.0 -1.366500051239e-04 
-1.347749466574e-04 2.885807283713e-05 0.0 
2.885807283713e-05 8.878066807984e-04 0.0 
0.0 0.0 -1.347600488312e-04 
-1.145362197550e-04 2.550352213040e-05 0.0 
2.550352213040e-05 7.456789542705e-04 0.0 
0.0 0.0 -1.144140342440e-04 
-1.695537970541e-04 -2.847502421030e-05 0.0 
-2.847502421030e-05 1.141434530816e-03 0.0 
0.0 0.0 -1.695946584253e-04 
-1.342454359541e-04 -2.916302751234e-05 0.0 
-2.916302751234e-05 8.959753783056e-04 0.0 
0.0 0.0 -1.342994322642e-04 
-1.322842234433e-04 -2.713149803653e-05 0.0 
-2.713149803653e-05 8.716283599231e-04 0.0 
0.0 0.0 -1.308078780678e-04 
-1.770483125758e-04 -3.816029544209e-05 0.0 
-3.816029544209e-05 1.206702644282e-03 0.0 
0.0 0.0 -1.790376217081e-04 
-1.611476114444e-04 -3.043480837471e-05 0.0 
-3.043480837471e-05 1.081441463167e-03 0.0 
0.0 0.0 -1.610150566254e-04 
-1.476770815163e-04 2.899987339716e-05 0.0 
2.899987339716e-05 9.753794939162e-04 0.0 
0.0 0.0 -1.476201541636e-04 
-1.611330782201e-04 2.905567155013e-05 0.0 
2.905567155013e-05 1.069983027336e-03 0.0 
0.0 0.0 -1.610516503497e-04 
-8.740593351110e-05 -2.912313751195e-05 0.0 
-2.912313751195e-05 5.726625862703e-04 0.0 
0.0 0.0 -8.793939796372e-05 
-8.171492670432e-05 -2.932902119484e-05 0.0 
-2.932902119484e-05 5.334328304052e-04 0.0 
0.0 0.0 -8.232547559154e-05 
-4.800447364230e-05 -3.012015532788e-05 0.0 
-3.012015532788e-05 2.869100395093e-04 0.0 
0.0 0.0 -4.696026287600e-05 
-1.441554214945e-04 -2.906909676708e-05 0.0 
-2.906909676708e-05 9.649388349351e-04 0.0 
0.0 0.0 -1.441889713514e-04 
-8.596373130116e-05 -2.989926546104e-05 0.0 
-2.989926546104e-05 5.634483412629e-04 0.0 
0.0 0.0 -8.662504503560e-05 
-1.451435112077e-04 -2.967645824646e-05 0.0 
-2.967645824646e-05 9.706064754812e-04 0.0 
0.0 0.0 -1.452980301833e-04 
-1.396166376490e-04 -3.014351176356e-05 0.0 
-3.014351176356e-05 9.327092269117e-04 0.0 
0.0 0.0 -1.398369520768e-04 
-1.154194635136e-04 -2.909513876125e-05 0.0 
-2.909513876125e-05 7.637657077962e-04 0.0 
0.0 0.0 -1.153554527486e-04 
-7.239252784308e-05 2.950013499781e-05 0.0 
2.950013499781e-05 4.534037638191e-04 0.0 
0.0 0.0 -7.290299529228e-05 
-7.749228313482e-05 2.843063642712e-05 0.0 
2.843063642712e-05 4.849158394470e-04 0.0 
0.0 0.0 -7.722881688633e-05 
-7.663260260600e-05 2.940565300322e-05 0.0 
2.940565300322e-05 4.835296870814e-04 0.0 
0.0 0.0 -7.715173463647e-05 
-8.222724475915e-05 2.943935483783e-05 0.0 
2.943935483783e-05 5.226854242882e-04 0.0 
0.0 0.0 -8.276944949314e-05 
-5.179916544049e-05 2.954513306229e-05 0.0 
2.954513306229e-05 3.061348363473e-04 0.0 
0.0 0.0 -5.170396853346e-05 
-1.651578227306e-04 -2.992587384468e-05 0.0 
-2.992587384468e-05 1.111733425696e-03 0.0 
0.0 0.0 -1.652773843454e-04 
-9.948855107052e-05 2.885367954846e-05 0.0 
2.885367954846e-05 6.405116978971e-04 0.0 
0.0 0.0 -9.964436741213e-05 
-1.662477458002e-04 -3.047676524263e-05 0.0 
-3.047676524263e-05 1.116582984939e-03 0.0 
0.0 0.0 -1.661983567841e-04 
-1.051663505476e-04 2.891924803496e-05 0.0 
2.891924803496e-05 6.798882607135e-04 0.0 
0.0 0.0 -1.051955911267e-04 
-1.389859752123e-04 2.935926346480e-05 0.0 
2.935926346480e-05 9.155140148814e-04 0.0 
0.0 0.0 -1.390270654409e-04 
-1.191970428493e-04 2.933621105808e-05 0.0 
2.933621105808e-05 7.778286910325e-04 0.0 
0.0 0.0 -1.192747742027e-04 
-1.135913502195e-04 -2.809027510556e-05 0.0 
-2.809027510556e-05 7.506742469309e-04 0.0 
0.0 0.0 -1.135115339107e-04 
-5.106044890974e-05 -2.876916180737e-05 0.0 
-2.876916180737e-05 3.172111510085e-04 0.0 
0.0 0.0 -5.125664266653e-05 
-1.752549930891e-04 2.732480278546e-05 0.0 
2.732480278546e-05 1.160084193771e-03 0.0 
0.0 0.0 -1.742537888328e-04 
-1.812425183446e-04 -3.207933204969e-05 0.0 
-3.207933204969e-05 1.217777268391e-03 0.0 
0.0 0.0 -1.798074479024e-04 
-1.447184212035e-04 2.760935291747e-05 0.0 
2.760935291747e-05 9.561038377489e-04 0.0 
0.0 0.0 -1.447555322295e-04 
-8.799170026550e-05 2.995591967052e-05 0.0 
2.995591967052e-05 5.618551981543e-04 0.0 
0.0 0.0 -8.838578500301e-05 
-1.291031073422e-04 2.928905617391e-05 0.0 
2.928905617391e-05 8.466471064723e-04 0.0 
0.0 0.0 -1.291430278065e-04 
-1.459743152275e-04 3.063361272201e-05 0.0 
3.063361272201e-05 9.624952180302e-04 0.0 
0.0 0.0 -1.456278041792e-04 
-9.171757827104e-05 -2.955677248983e-05 0.0 
-2.955677248983e-05 6.024985060915e-04 0.0 
0.0 0.0 -9.223187090242e-05 
-9.603230277326e-05 -2.698956011667e-05 0.0 
-2.698956011667e-05 6.292701278524e-04 0.0 
0.0 0.0 -9.591352384746e-05 
-7.135185944171e-05 -2.955414223554e-05 0.0 
-2.955414223554e-05 4.555824851191e-04 0.0 
0.0 0.0 -7.108646760088e-05 
-6.173474433371e-05 -2.821557394065e-05 0.0 
-2.821557394065e-05 3.922513376835e-04 0.0 
0.0 0.0 -6.198456146935e-05 
-9.316424430426e-05 -2.882780269440e-05 0.0 
-2.882780269440e-05 6.119471839096e-04 0.0 
0.0 0.0 -9.355109297069e-05 
-6.583505479960e-05 2.848905537375e-05 0.0 
2.848905537375e-05 4.054485477537e-04 0.0 
0.0 0.0 -6.590301617946e-05 
-5.935575914896e-05 -3.007558356553e-05 0.0 
-3.007558356553e-05 3.768942854085e-04 0.0 
0.0 0.0 -5.983332410254e-05 
-1.186940583282e-04 -2.896555378225e-05 0.0 
-2.896555378225e-05 7.883535485114e-04 0.0 
0.0 0.0 -1.188421469351e-04 
-1.433278607698e-04 2.930912982368e-05 0.0 
2.930912982368e-05 9.454702771552e-04 0.0 
0.0 0.0 -1.433226991522e-04 
-1.697903046334e-04 2.624054691426e-05 0.0 
2.624054691426e-05 1.127471310275e-03 0.0 
0.0 0.0 -1.692916167909e-04 
-1.151638097456e-05 7.698944133971e-06 0.0 
7.698944133971e-06 4.425408472007e-05 0.0 
0.0 0.0 -7.213325994108e-06 
-1.023191081859e-04 2.827729942445e-05 0.0 
2.827729942445e-05 6.591938883861e-04 0.0 
0.0 0.0 -1.022830222654e-04 
-1.009919753862e-04 2.844629819877e-05 0.0 
2.844629819877e-05 6.501505763727e-04 0.0 
0.0 0.0 -1.009864671718e-04 
-9.380039017869e-05 2.950262979894e-05 0.0 
2.950262979894e-05 6.011532312502e-04 0.0 
0.0 0.0 -9.402143779290e-05 
-1.401352914634e-04 2.989136649985e-05 0.0 
2.989136649985e-05 9.247108301771e-04 0.0 
0.0 0.0 -1.401624631175e-04 
-1.092974960508e-04 2.941276833440e-05 0.0 
2.941276833440e-05 7.090642486070e-04 0.0 
0.0 0.0 -1.094316366672e-04 
-7.543451708232e-05 3.049036373989e-05 0.0 
3.049036373989e-05 4.754198894243e-04 0.0 
0.0 0.0 -7.582576345695e-05 
-9.891173193058e-05 -2.816068551534e-05 0.0 
-2.816068551534e-05 6.514539666403e-04 0.0 
0.0 0.0 -9.917482013514e-05 
-1.630278650561e-04 2.958590404027e-05 0.0 
2.958590404027e-05 1.077076320853e-03 0.0 
0.0 0.0 -1.620679414655e-04 
-7.702359286568e-05 -2.963111287796e-05 0.0 
-2.963111287796e-05 4.862675717220e-04 0.0 
0.0 0.0 -7.538495559814e-05 
-3.103148260616e-05 2.671216949097e-05 0.0 
2.671216949097e-05 1.654737900210e-04 0.0 
0.0 0.0 -3.198827131509e-05 
-4.232169889993e-05 2.776421737267e-05 0.0 
2.776421737267e-05 2.393069009664e-04 0.0 
0.0 0.0 -4.176863060321e-05 
-6.634744212772e-05 2.949925572575e-05 0.0 
2.949925572575e-05 4.106962890164e-04 0.0 
0.0 0.0 -6.666360735527e-05 
-7.816150117384e-05 2.918629348564e-05 0.0 
2.918629348564e-05 4.928270898341e-04 0.0 
0.0 0.0 -7.858957244827e-05 
-1.065476951188e-04 2.906412835157e-05 0.0 
2.906412835157e-05 6.891124057052e-04 0.0 
0.0 0.0 -1.064874080537e-04 
-1.046128651473e-04 -2.789283442515e-05 0.0 
-2.789283442515e-05 6.906263249349e-04 0.0 
0.0 0.0 -1.047611508630e-04 
-4.666634849019e-05 -3.250127183419e-05 0.0 
-3.250127183419e-05 2.826590938430e-04 0.0 
0.0 0.0 -4.639139346366e-05 
-4.422650169735e-05 -3.160442122719e-05 0.0 
-3.160442122719e-05 2.477476152980e-04 0.0 
0.0 0.0 -4.147803243573e-05 
-1.354421094691e-04 -3.477058406277e-05 0.0 
-3.477058406277e-05 8.849155839961e-04 0.0 
0.0 0.0 -1.332761831430e-04 
-6.529992034190e-05 -3.112094005781e-05 0.0 
-3.112094005781e-05 4.161966199991e-04 0.0 
0.0 0.0 -6.545963842888e-05 
-1.599173792757e-04 2.884984773938e-05 0.0 
2.884984773938e-05 1.062308732050e-03 0.0 
0.0 0.0 -1.601101668940e-04 
-1.640145792258e-04 2.789294437519e-05 0.0 
2.789294437519e-05 1.089847340667e-03 0.0 
0.0 0.0 -1.640071129216e-04 
-1.358364218526e-04 -2.864773194701e-05 0.0 
-2.864773194701e-05 9.015663085663e-04 0.0 
0.0 0.0 -1.352075507658e-04 
-1.691090522456e-04 2.845331053896e-05 0.0 
2.845331053896e-05 1.125515006597e-03 0.0 
0.0 0.0 -1.689126476464e-04 
-1.733194685301e-04 2.616049938131e-05 0.0 
2.616049938131e-05 1.162751062090e-03 0.0 
0.0 0.0 -1.746466296582e-04 
-1.113103175969e-04 -2.904492495481e-05 0.0 
-2.904492495481e-05 7.344679781971e-04 0.0 
0.0 0.0 -1.111327575513e-04 
-1.543419338426e-04 2.788856242459e-05 0.0 
2.788856242459e-05 1.022661884889e-03 0.0 
0.0 0.0 -1.543563508806e-04 
-5.167148472389e-05 -2.833543670219e-05 0.0 
-2.833543670219e-05 3.235982211277e-04 0.0 
0.0 0.0 -5.212100276158e-05 
-1.031213424207e-04 -2.889239140152e-05 0.0 
-2.889239140152e-05 6.806580574394e-04 0.0 
0.0 0.0 -1.034186014727e-04 
-1.034709279330e-04 2.786266615920e-05 0.0 
2.786266615920e-05 6.660582760632e-04 0.0 
0.0 0.0 -1.031952205665e-04 
-6.028919658759e-05 2.668092513971e-05 0.0 
2.668092513971e-05 3.649654199911e-04 0.0 
0.0 0.0 -5.961607156176e-05 
-4.213494566204e-05 -2.931849266110e-05 0.0 
-2.931849266110e-05 2.567319807664e-04 0.0 
0.0 0.0 -4.220635737303e-05 
-8.654776667846e-05 2.918952194239e-05 0.0 
2.918952194239e-05 5.528325958387e-04 0.0 
0.0 0.0 -8.706093026186e-05 
-1.004769780148e-04 -2.772227019028e-05 0.0 
-2.772227019028e-05 6.610823099679e-04 0.0 
0.0 0.0 -1.005514351764e-04 
-1.060430099672e-04 -2.796832696173e-05 0.0 
-2.796832696173e-05 6.996637265558e-04 0.0 
0.0 0.0 -1.060597130133e-04 
-7.058429708504e-05 2.696376381882e-05 0.0 
2.696376381882e-05 4.358412197202e-04 0.0 
0.0 0.0 -7.020228199149e-05 
-1.149702114763e-04 2.916861666016e-05 0.0 
2.916861666016e-05 7.482016199016e-04 0.0 
0.0 0.0 -1.149926572041e-04 
-1.018961975089e-04 -2.764432959957e-05 0.0 
-2.764432959957e-05 6.700658488310e-04 0.0 
0.0 0.0 -1.018518768314e-04 
-1.078880338181e-04 2.829261719461e-05 0.0 
2.829261719461e-05 6.977513239732e-04 0.0 
0.0 0.0 -1.077528216683e-04 
-7.751274952550e-05 -2.834816828620e-05 0.0 
-2.834816828620e-05 5.042136075216e-04 0.0 
0.0 0.0 -7.808165313150e-05 
-1.487528116968e-04 -2.959551626362e-05 0.0 
-2.959551626362e-05 9.968448808877e-04 0.0 
0.0 0.0 -1.488167264463e-04 
-1.501088830239e-04 -3.002822277470e-05 0.0 
-3.002822277470e-05 1.002368649967e-03 0.0 
0.0 0.0 -1.497700977071e-04 
-1.036611104552e-04 2.803937657742e-05 0.0 
2.803937657742e-05 6.681495958179e-04 0.0 
0.0 0.0 -1.035656927818e-04 
-1.696613133079e-04 2.895531178363e-05 0.0 
2.895531178363e-05 1.131067865055e-03 0.0 
0.0 0.0 -1.700243568296e-04 
-5.727268235776e-05 -2.821956991103e-05 0.0 
-2.821956991103e-05 3.625919856272e-04 0.0 
0.0 0.0 -5.774536142498e-05 
-1.807378797874e-04 3.083863400090e-05 0.0 
3.083863400090e-05 1.216171179677e-03 0.0 
0.0 0.0 -1.812757540428e-04 
-1.107278423169e-04 2.926924818457e-05 0.0 
2.926924818457e-05 7.182977638167e-04 0.0 
0.0 0.0 -1.107203250571e-04 
-1.769840871489e-04 3.489293866335e-05 0.0 
3.489293866335e-05 1.208578847919e-03 0.0 
0.0 0.0 -1.805188677947e-04 
-1.376232392385e-04 -2.850354822354e-05 0.0 
-2.850354822354e-05 9.154990550666e-04 0.0 
0.0 0.0 -1.371610485043e-04 
-5.639757509564e-05 2.971463148157e-05 0.0 
2.971463148157e-05 3.421275802933e-04 0.0 
0.0 0.0 -5.682853890605e-05 
-1.399417025807e-04 -2.902435300106e-05 0.0 
-2.902435300106e-05 9.305736500539e-04 0.0 
0.0 0.0 -1.393929574840e-04 
-1.722474544452e-04 2.867109208845e-05 0.0 
2.867109208845e-05 1.148502992599e-03 0.0 
0.0 0.0 -1.722554387731e-04 
-1.162793321609e-04 2.903309505420e-05 0.0 
2.903309505420e-05 7.572372561352e-04 0.0 
0.0 0.0 -1.162159973290e-04 
-8.454182586218e-05 -2.784090404248e-05 0.0 
-2.784090404248e-05 5.479081559787e-04 0.0 
0.0 0.0 -8.432093988479e-05 
-1.438863246759e-04 -2.930384340139e-05 0.0 
-2.930384340139e-05 9.596245582464e-04 0.0 
0.0 0.0 -1.435863591065e-04 
-1.111530589725e-04 2.833421624542e-05 0.0 
2.833421624542e-05 7.207793346527e-04 0.0 
0.0 0.0 -1.110366786716e-04 
-4.573862906079e-05 3.039490600873e-05 0.0 
3.039490600873e-05 2.711520722753e-04 0.0 
0.0 0.0 -4.684619297515e-05 
-1.870955320648e-04 3.081437672742e-05 0.0 
3.081437672742e-05 1.264311478356e-03 0.0 
0.0 0.0 -1.888615860838e-04 
-4.248482680505e-05 3.050161066116e-05 0.0 
3.050161066116e-05 2.352616891617e-04 0.0 
0.0 0.0 -4.121632266810e-05 
-1.771088727211e-04 -2.938926809476e-05 0.0 
-2.938926809476e-05 1.212909459550e-03 0.0 
0.0 0.0 -1.791639973893e-04 
-1.771566623871e-04 2.828554015672e-05 0.0 
2.828554015672e-05 1.177203819354e-03 0.0 
0.0 0.0 -1.763972732427e-04 
-1.529661344135e-04 -2.952014478129e-05 0.0 
-2.952014478129e-05 1.026629378024e-03 0.0 
0.0 0.0 -1.530775205951e-04 
-1.359594450574e-04 3.325053532527e-05 0.0 
3.325053532527e-05 8.922454278314e-04 0.0 
0.0 0.0 -1.356269418710e-04 
-1.644239763161e-04 -3.062030831265e-05 0.0 
-3.062030831265e-05 1.103176739090e-03 0.0 
0.0 0.0 -1.641343017522e-04 
-1.073732254289e-04 -2.774733318227e-05 0.0 
-2.774733318227e-05 7.082936325730e-04 0.0 
0.0 0.0 -1.073249441206e-04 
-1.251403265974e-04 -2.940532100017e-05 0.0 
-2.940532100017e-05 8.313761795825e-04 0.0 
0.0 0.0 -1.250629185325e-04 
-1.768873143391e-04 2.872670345058e-05 0.0 
2.872670345058e-05 1.193015524360e-03 0.0 
0.0 0.0 -1.787673453274e-04 
-1.533533607312e-04 2.921855117467e-05 0.0 
2.921855117467e-05 1.014614364332e-03 0.0 
0.0 0.0 -1.532196148344e-04 
-1.544705070620e-04 -2.993018470978e-05 0.0 
-2.993018470978e-05 1.033859279725e-03 0.0 
0.0 0.0 -1.542337544108e-04 
-1.470105554746e-04 3.050415116692e-05 0.0 
3.050415116692e-05 9.703822682050e-04 0.0 
0.0 0.0 -1.467116565689e-04 
-5.190467070807e-05 2.923657524478e-05 0.0 
2.923657524478e-05 3.125147726987e-04 0.0 
0.0 0.0 -5.258904166863e-05 
-1.585497388479e-04 -3.036107211364e-05 0.0 
-3.036107211364e-05 1.064785683487e-03 0.0 
0.0 0.0 -1.586792192556e-04 
-1.867823602022e-04 -4.423334107088e-07 0.0 
-4.423334107088e-07 1.306209639085e-03 0.0 
0.0 0.0 -1.902127661242e-04 
-1.799952498831e-04 3.276671323295e-05 0.0 
3.276671323295e-05 1.203252067028e-03 0.0 
0.0 0.0 -1.803293472919e-04 
-1.036283366723e-04 2.928971230122e-05 0.0 
2.928971230122e-05 6.701110471026e-04 0.0 
0.0 0.0 -1.038552253682e-04 
-1.348425674588e-04 -3.045731572340e-05 0.0 
-3.045731572340e-05 8.997616749557e-04 0.0 
0.0 0.0 -1.353016656203e-04 
-1.306027592527e-04 3.244558953540e-05 0.0 
3.244558953540e-05 8.557133569559e-04 0.0 
0.0 0.0 -1.301630146057e-04 
-1.102559799513e-04 -2.882778976320e-05 0.0 
-2.882778976320e-05 7.287644293276e-04 0.0 
0.0 0.0 -1.102912351658e-04 
-1.488807296024e-04 2.952972860655e-05 0.0 
2.952972860655e-05 9.845338823176e-04 0.0 
0.0 0.0 -1.489188890839e-04 
-1.543542798127e-04 2.941367575548e-05 0.0 
2.941367575548e-05 1.023344437634e-03 0.0 
0.0 0.0 -1.545169747944e-04 
-3.601998227787e-05 -3.147937655175e-05 0.0 
-3.147937655175e-05 2.167298522228e-04 0.0 
0.0 0.0 -3.699600978290e-05 
-6.801309851159e-05 2.873975774867e-05 0.0 
2.873975774867e-05 4.179957074076e-04 0.0 
0.0 0.0 -6.762408315678e-05 
-1.091497725492e-04 2.831094670187e-05 0.0 
2.831094670187e-05 7.067995318092e-04 0.0 
0.0 0.0 -1.090469065526e-04 
-1.032766425254e-04 -2.822190353465e-05 0.0 
-2.822190353465e-05 6.789187616226e-04 0.0 
0.0 0.0 -1.031335432607e-04 
-1.099107092343e-04 2.839546535684e-05 0.0 
2.839546535684e-05 7.120464211608e-04 0.0 
0.0 0.0 -1.098117726994e-04 
-1.811121707674e-04 -2.882441196002e-05 0.0 
-2.882441196002e-05 1.237667273714e-03 0.0 
0.0 0.0 -1.838140267123e-04 
-1.748866853698e-04 2.592400427167e-05 0.0 
2.592400427167e-05 1.162787881872e-03 0.0 
0.0 0.0 -1.744029230557e-04 
-1.761187774956e-04 -2.949711616705e-05 0.0 
-2.949711616705e-05 1.184397801600e-03 0.0 
0.0 0.0 -1.760448152485e-04 
-9.882657544989e-05 -2.718055687570e-05 0.0 
-2.718055687570e-05 6.452046498512e-04 0.0 
0.0 0.0 -9.834296651366e-05 
-1.624121206718e-04 2.836552699441e-05 0.0 
2.836552699441e-05 1.080211199209e-03 0.0 
0.0 0.0 -1.624070342850e-04 
-1.485275509050e-04 -2.918103576740e-05 0.0 
-2.918103576740e-05 9.950382173190e-04 0.0 
0.0 0.0 -1.484873542982e-04 
-1.805851059427e-04 3.002465538148e-05 0.0 
3.002465538148e-05 1.203046068309e-03 0.0 
0.0 0.0 -1.797622605636e-04 
-1.528376056470e-04 -3.044040189818e-05 0.0 
-3.044040189818e-05 1.026184810031e-03 0.0 
0.0 0.0 -1.532447004422e-04 
-1.087929439093e-04 -2.876357224537e-05 0.0 
-2.876357224537e-05 7.196828290104e-04 0.0 
0.0 0.0 -1.089952584493e-04 
-1.049428023921e-04 2.811224010391e-05 0.0 
2.811224010391e-05 6.773445023375e-04 0.0 
0.0 0.0 -1.048418778190e-04 
-1.594051931958e-04 2.879840167248e-05 0.0 
2.879840167248e-05 1.056615529052e-03 0.0 
0.0 0.0 -1.590166690394e-04 
-1.738854057278e-04 -3.150615969996e-05 0.0 
-3.150615969996e-05 1.172347359832e-03 0.0 
0.0 0.0 -1.740425842566e-04 
-1.602067260143e-04 2.962540646325e-05 0.0 
2.962540646325e-05 1.063407039079e-03 0.0 
0.0 0.0 -1.600263377024e-04 
-1.549984104106e-04 2.928819239640e-05 0.0 
2.928819239640e-05 1.025787824362e-03 0.0 
0.0 0.0 -1.545642443906e-04 
-1.691936656852e-04 3.051239000977e-05 0.0 
3.051239000977e-05 1.122993866756e-03 0.0 
0.0 0.0 -1.687134228720e-04 
-1.733516422302e-04 -2.975799224699e-05 0.0 
-2.975799224699e-05 1.180345126224e-03 0.0 
0.0 0.0 -1.751295320469e-04 
-1.641761333923e-04 2.964778985093e-05 0.0 
2.964778985093e-05 1.092162958901e-03 0.0 
0.0 0.0 -1.644209996092e-04 
-1.334029697755e-04 2.921704941968e-05 0.0 
2.921704941968e-05 8.764535109902e-04 0.0 
0.0 0.0 -1.334339325936e-04 
-9.629059373289e-05 2.489782199496e-05 0.0 
2.489782199496e-05 6.169410298163e-04 0.0 
0.0 0.0 -9.629846621400e-05 
-1.586938225999e-04 -2.873074405230e-05 0.0 
-2.873074405230e-05 1.064075480535e-03 0.0 
0.0 0.0 -1.585741496670e-04 
-1.515595690388e-04 2.887166217167e-05 0.0 
2.887166217167e-05 1.004996075128e-03 0.0 
0.0 0.0 -1.516193629955e-04 
-6.015828007311e-05 2.762481471313e-05 0.0 
2.762481471313e-05 3.663761052862e-04 0.0 
0.0 0.0 -6.027332919800e-05 
-1.086909470084e-04 -2.820919446967e-05 0.0 
-2.820919446967e-05 7.173514364266e-04 0.0 
0.0 0.0 -1.086183444390e-04 
-1.229754690729e-04 2.795896853918e-05 0.0 
2.795896853918e-05 8.030480005080e-04 0.0 
0.0 0.0 -1.229099206091e-04 
-1.348799327205e-04 -2.950552833220e-05 0.0 
-2.950552833220e-05 8.992538641476e-04 0.0 
0.0 0.0 -1.347984704188e-04 
-6.075364579538e-05 2.991920213964e-05 0.0 
2.991920213964e-05 3.704456528343e-04 0.0 
0.0 0.0 -6.085885447137e-05 
-1.045153483669e-04 -2.832422319633e-05 0.0 
-2.832422319633e-05 6.878595611022e-04 0.0 
0.0 0.0 -1.044304007945e-04 
-1.446479183094e-04 -2.971056222020e-05 0.0 
-2.971056222020e-05 9.673313026673e-04 0.0 
0.0 0.0 -1.445542801823e-04 
-1.100060346855e-04 2.737837681636e-05 0.0 
2.737837681636e-05 7.101421002689e-04 0.0 
0.0 0.0 -1.094113629060e-04 
-1.135560558010e-04 2.921951781404e-05 0.0 
2.921951781404e-05 7.388528165105e-04 0.0 
0.0 0.0 -1.136984934835e-04 
-1.423148992764e-04 -3.064755775960e-05 0.0 
-3.064755775960e-05 9.560334399626e-04 0.0 
0.0 0.0 -1.433495728088e-04 
-1.141564569451e-04 2.617777317916e-05 0.0 
2.617777317916e-05 7.567005103659e-04 0.0 
0.0 0.0 -1.145704449725e-04 
-2.757145428849e-05 3.124043686616e-05 0.0 
3.124043686616e-05 1.158691705071e-04 0.0 
0.0 0.0 -2.367971326705e-05 
-1.286436208275e-04 -2.914932669868e-05 0.0 
-2.914932669868e-05 8.571420336644e-04 0.0 
0.0 0.0 -1.287122655492e-04 
-1.576792209224e-04 2.858094066912e-05 0.0 
2.858094066912e-05 1.045870248437e-03 0.0 
0.0 0.0 -1.577753644542e-04 
-1.791334658592e-04 3.034271459186e-05 0.0 
3.034271459186e-05 1.201260178593e-03 0.0 
0.0 0.0 -1.795306929420e-04 
-1.201199461226e-04 2.829067472047e-05 0.0 
2.829067472047e-05 7.831094393938e-04 0.0 
0.0 0.0 -1.199963822083e-04 
-1.234760846803e-04 2.932006013550e-05 0.0 
2.932006013550e-05 8.076650151061e-04 0.0 
0.0 0.0 -1.235581517372e-04 
-1.448894787138e-04 -2.961840001921e-05 0.0 
-2.961840001921e-05 9.648117356658e-04 0.0 
0.0 0.0 -1.443143808439e-04 
-3.842228905377e-05 3.298025909580e-05 0.0 
3.298025909580e-05 1.877070748678e-04 0.0 
0.0 0.0 -3.370741825810e-05 
-1.534698621194e-04 2.830991160432e-05 0.0 
2.830991160432e-05 1.016299861510e-03 0.0 
0.0 0.0 -1.535042456599e-04 
-1.293327155133e-04 -2.926708160322e-05 0.0 
-2.926708160322e-05 8.610400331546e-04 0.0 
0.0 0.0 -1.292921254718e-04 
-1.147182049359e-04 -2.793616799804e-05 0.0 
-2.793616799804e-05 7.557812794768e-04 0.0 
0.0 0.0 -1.142359468334e-04 
-1.540623557645e-04 -2.883021402370e-05 0.0 
-2.883021402370e-05 1.033805831342e-03 0.0 
0.0 0.0 -1.540837914240e-04 
-5.903277897526e-05 -2.572226208233e-05 0.0 
-2.572226208233e-05 3.742033353159e-04 0.0 
0.0 0.0 -5.919629073606e-05 
-1.595117392718e-04 -2.911342610863e-05 0.0 
-2.911342610863e-05 1.072689065088e-03 0.0 
0.0 0.0 -1.596834805621e-04 
-1.756154530572e-04 2.998485745368e-05 0.0 
2.998485745368e-05 1.171075078384e-03 0.0 
0.0 0.0 -1.756318130281e-04 
-1.493681148336e-04 2.791229911131e-05 0.0 
2.791229911131e-05 9.866947003208e-04 0.0 
0.0 0.0 -1.492337925182e-04 
-1.600204318750e-04 -2.992073590521e-05 0.0 
-2.992073590521e-05 1.071726323190e-03 0.0 
0.0 0.0 -1.596862481900e-04 
-1.621340043399e-04 -3.014172433171e-05 0.0 
-3.014172433171e-05 1.091751763439e-03 0.0 
0.0 0.0 -1.624029330596e-04 
-1.746509001542e-04 -3.044303714749e-05 0.0 
-3.044303714749e-05 1.180873641495e-03 0.0 
0.0 0.0 -1.752053866267e-04 
-4.948712705896e-05 3.475475083029e-05 0.0 
3.475475083029e-05 2.597308075809e-04 0.0 
0.0 0.0 -4.376112143753e-05 
-1.485603472495e-04 -2.938683707073e-05 0.0 
-2.938683707073e-05 9.955677447018e-04 0.0 
0.0 0.0 -1.487877812405e-04 
-1.753095903577e-04 -2.864829451917e-05 0.0 
-2.864829451917e-05 1.185024325076e-03 0.0 
0.0 0.0 -1.760859927092e-04 
-1.649582730615e-04 2.923348981816e-05 0.0 
2.923348981816e-05 1.094893116976e-03 0.0 
0.0 0.0 -1.644733909230e-04 
-1.395633018813e-04 2.809652890280e-05 0.0 
2.809652890280e-05 9.186543678537e-04 0.0 
0.0 0.0 -1.394655130409e-04 
-1.099611654985e-04 -2.884597329549e-05 0.0 
-2.884597329549e-05 7.257598080870e-04 0.0 
0.0 0.0 -1.098787062330e-04 
-1.209104407542e-04 2.806295656769e-05 0.0 
2.806295656769e-05 7.902223779801e-04 0.0 
0.0 0.0 -1.210417811416e-04 
-3.627372368124e-05 3.163530406853e-05 0.0 
3.163530406853e-05 2.039563500799e-04 0.0 
0.0 0.0 -3.723255725578e-05 
-1.701409886376e-04 2.983058263759e-05 0.0 
2.983058263759e-05 1.132501183017e-03 0.0 
0.0 0.0 -1.699366983435e-04 
-6.411787123099e-05 2.946502422422e-05 0.0 
2.946502422422e-05 3.968096580559e-04 0.0 
0.0 0.0 -6.464531002275e-05 
-5.822127891541e-05 2.749733519323e-05 0.0 
2.749733519323e-05 3.240066522493e-04 0.0 
0.0 0.0 -5.373429374777e-05 
-1.578004283830e-04 -2.825196317906e-05 0.0 
-2.825196317906e-05 1.061236006077e-03 0.0 
0.0 0.0 -1.581724742171e-04 
-1.810622318850e-04 2.872864159815e-05 0.0 
2.872864159815e-05 1.210843086462e-03 0.0 
0.0 0.0 -1.810174791607e-04 
-5.321706588155e-05 -2.711802848501e-05 0.0 
-2.711802848501e-05 3.340376413156e-04 0.0 
0.0 0.0 -5.359773372147e-05 
-1.254962992742e-04 -2.828232383433e-05 0.0 
-2.828232383433e-05 8.331892923083e-04 0.0 
0.0 0.0 -1.253787237607e-04 
-1.535703452329e-04 2.911412195335e-05 0.0 
2.911412195335e-05 1.018186094186e-03 0.0 
0.0 0.0 -1.535721660833e-04 
-1.174362539490e-04 -2.931439951264e-05 0.0 
-2.931439951264e-05 7.791228558505e-04 0.0 
0.0 0.0 -1.176010908151e-04 
-6.016009984886e-05 -2.873248464068e-05 0.0 
-2.873248464068e-05 3.813492115723e-04 0.0 
0.0 0.0 -6.041048265268e-05 
-7.982616898902e-05 2.825432291390e-05 0.0 
2.825432291390e-05 5.000258330386e-04 0.0 
0.0 0.0 -7.939046230173e-05 
-3.959656613655e-05 2.469153921964e-05 0.0 
2.469153921964e-05 2.420385823143e-04 0.0 
0.0 0.0 -4.293244787628e-05 
-5.330489538924e-05 2.915892379323e-05 0.0 
2.915892379323e-05 3.232040539711e-04 0.0 
0.0 0.0 -5.412237138681e-05 
-4.874214390061e-05 2.903207581372e-05 0.0 
2.903207581372e-05 2.849835911649e-04 0.0 
0.0 0.0 -4.858390135199e-05 
-1.298006905679e-04 2.813403754230e-05 0.0 
2.813403754230e-05 8.507929242894e-04 0.0 
0.0 0.0 -1.297186540265e-04 
-1.946741073417e-04 7.177668550596e-07 0.0 
7.177668550596e-07 1.366433303394e-03 0.0 
0.0 0.0 -1.986219281740e-04 
-6.700715880952e-05 2.589861000240e-05 0.0 
2.589861000240e-05 3.925714316040e-04 0.0 
0.0 0.0 -6.366506350946e-05 
-1.734025229933e-04 2.872134779497e-05 0.0 
2.872134779497e-05 1.153015807625e-03 0.0 
0.0 0.0 -1.730133492871e-04 
-9.662877635408e-05 2.832769241253e-05 0.0 
2.832769241253e-05 6.190294534954e-04 0.0 
0.0 0.0 -9.645761187127e-05 
-1.474086229932e-04 -3.111113571506e-05 0.0 
-3.111113571506e-05 9.884847841183e-04 0.0 
0.0 0.0 -1.478461150791e-04 
-4.750635885556e-05 2.975238453019e-05 0.0 
2.975238453019e-05 2.739120908498e-04 0.0 
0.0 0.0 -4.694079591042e-05 
-1.816621119292e-04 -2.878308347844e-05 0.0 
-2.878308347844e-05 1.218135406772e-03 0.0 
0.0 0.0 -1.810139427526e-04 
-4.655502041116e-05 -2.610306417390e-05 0.0 
-2.610306417390e-05 2.951982444198e-04 0.0 
0.0 0.0 -4.804032238546e-05 
-7.357331614798e-05 2.958595086467e-05 0.0 
2.958595086467e-05 4.672675042292e-04 0.0 
0.0 0.0 -7.493958354298e-05 
-1.550973332285e-04 2.796756386232e-05 0.0 
2.796756386232e-05 1.025417246301e-03 0.0 
0.0 0.0 -1.547320639971e-04 
-1.115692087861e-04 -2.839126116568e-05 0.0 
-2.839126116568e-05 7.371116053840e-04 0.0 
0.0 0.0 -1.115425826451e-04 
-1.699290889586e-04 -2.900940190171e-05 0.0 
-2.900940190171e-05 1.149889600330e-03 0.0 
0.0 0.0 -1.708594300032e-04 
-8.624183478928e-05 -2.912886792339e-05 0.0 
-2.912886792339e-05 5.626870180004e-04 0.0 
0.0 0.0 -8.644348757353e-05 
-1.569167022033e-04 -2.881123911490e-05 0.0 
-2.881123911490e-05 1.051025089677e-03 0.0 
0.0 0.0 -1.566669492989e-04 
-1.769191692021e-04 2.934973965132e-05 0.0 
2.934973965132e-05 1.199034094636e-03 0.0 
0.0 0.0 -1.798338780755e-04 
-1.495364599630e-04 2.975197277300e-05 0.0 
2.975197277300e-05 9.877659320422e-04 0.0 
0.0 0.0 -1.491119197843e-04 
-1.807112013151e-04 -2.761933473531e-05 0.0 
-2.761933473531e-05 1.210002262212e-03 0.0 
0.0 0.0 -1.792176209978e-04 
-1.628975544781e-04 -3.036779777295e-05 0.0 
-3.036779777295e-05 1.095193631651e-03 0.0 
0.0 0.0 -1.630977145684e-04 
-1.675201900776e-04 -3.024382898117e-05 0.0 
-3.024382898117e-05 1.126388508701e-03 0.0 
0.0 0.0 -1.675015638186e-04 
-5.424555064715e-05 2.680812076581e-05 0.0 
2.680812076581e-05 3.226336525028e-04 0.0 
0.0 0.0 -5.399133669915e-05 
-1.676277495680e-04 2.740316368874e-05 0.0 
2.740316368874e-05 1.112871955034e-03 0.0 
0.0 0.0 -1.673862058733e-04 
-1.578559859789e-04 2.827037287320e-05 0.0 
2.827037287320e-05 1.049443790061e-03 0.0 
0.0 0.0 -1.580046825171e-04 
-1.171678476607e-04 2.852988375933e-05 0.0 
2.852988375933e-05 7.623350065851e-04 0.0 
0.0 0.0 -1.168873383469e-04 
-7.813173762117e-05 2.766421590413e-05 0.0 
2.766421590413e-05 4.622030552975e-04 0.0 
0.0 0.0 -7.363010077577e-05 
-1.810895077962e-04 -2.908189886640e-05 0.0 
-2.908189886640e-05 1.245299465341e-03 0.0 
0.0 0.0 -1.848439230673e-04 
-6.258589564450e-05 2.973424717467e-05 0.0 
2.973424717467e-05 3.796477966190e-04 0.0 
0.0 0.0 -6.214069219561e-05 
-6.877743183419e-05 -3.283467012249e-05 0.0 
-3.283467012249e-05 4.454002116560e-04 0.0 
0.0 0.0 -6.982795868082e-05 
-1.656560229546e-04 3.018340289880e-05 0.0 
3.018340289880e-05 1.102559420523e-03 0.0 
0.0 0.0 -1.657595890666e-04 
-4.452637910278e-05 -2.463086619694e-05 0.0 
-2.463086619694e-05 2.688625379708e-04 0.0 
0.0 0.0 -4.409698994278e-05 
-1.188635475057e-04 -2.772391840776e-05 0.0 
-2.772391840776e-05 7.879380998938e-04 0.0 
0.0 0.0 -1.188635276708e-04 
-1.592882983328e-04 2.718156988550e-05 0.0 
2.718156988550e-05 1.054709056437e-03 0.0 
0.0 0.0 -1.589765888202e-04 
-1.772222272296e-04 -2.714101551062e-05 0.0 
-2.714101551062e-05 1.191839625875e-03 0.0 
0.0 0.0 -1.771732720199e-04 
-1.824779395496e-04 -2.648051372033e-05 0.0 
-2.648051372033e-05 1.225568720394e-03 0.0 
0.0 0.0 -1.816415620416e-04 
-1.546092874475e-04 -2.982910766663e-05 0.0 
-2.982910766663e-05 1.035340165495e-03 0.0 
0.0 0.0 -1.543237508850e-04 
-1.687071199467e-04 -3.097215296435e-05 0.0 
-3.097215296435e-05 1.133984998622e-03 0.0 
0.0 0.0 -1.685605813437e-04 
-1.021935529673e-04 2.852069401152e-05 0.0 
2.852069401152e-05 6.571110725585e-04 0.0 
0.0 0.0 -1.019073722143e-04 
-1.593527883530e-04 -2.978604002386e-05 0.0 
-2.978604002386e-05 1.069539853505e-03 0.0 
0.0 0.0 -1.593679286731e-04 
-8.787271678042e-05 2.812609072738e-05 0.0 
2.812609072738e-05 5.317977245242e-04 0.0 
0.0 0.0 -8.364764346898e-05 
-1.787194194283e-04 2.687014845945e-05 0.0 
2.687014845945e-05 1.178995119648e-03 0.0 
0.0 0.0 -1.772627823762e-04 
-9.805451043270e-05 2.760029222410e-05 0.0 
2.760029222410e-05 6.018798204524e-04 0.0 
0.0 0.0 -9.365644977482e-05 
-9.596485627522e-05 2.204290663138e-05 0.0 
2.204290663138e-05 6.347192065111e-04 0.0 
0.0 0.0 -9.866254784712e-05 
-1.159093866371e-04 2.840626684317e-05 0.0 
2.840626684317e-05 7.538245928729e-04 0.0 
0.0 0.0 -1.157644195874e-04 
-1.068023676316e-04 3.049840519302e-05 0.0 
3.049840519302e-05 6.737297633016e-04 0.0 
0.0 0.0 -1.036755264196e-04 
-1.327131526045e-04 -2.791089545435e-05 0.0 
-2.791089545435e-05 8.830463531689e-04 0.0 
0.0 0.0 -1.324954999561e-04 
-1.083462229029e-04 -2.835211655561e-05 0.0 
-2.835211655561e-05 7.134008523618e-04 0.0 
0.0 0.0 -1.081453164196e-04 
-1.141683981921e-04 -2.887541052425e-05 0.0 
-2.887541052425e-05 7.550230559135e-04 0.0 
0.0 0.0 -1.140931655197e-04 
-5.515908320108e-05 2.948502897213e-05 0.0 
2.948502897213e-05 3.310071093917e-04 0.0 
0.0 0.0 -5.528709606717e-05 
-1.104134789677e-04 2.840605379835e-05 0.0 
2.840605379835e-05 7.154837500031e-04 0.0 
0.0 0.0 -1.103023603459e-04 
-1.746713077398e-04 2.880636906730e-05 0.0 
2.880636906730e-05 1.164068735679e-03 0.0 
0.0 0.0 -1.743776871305e-04 
-1.783703106015e-04 3.636462111026e-05 0.0 
3.636462111026e-05 1.201299505939e-03 0.0 
0.0 0.0 -1.792895840060e-04 
-1.577150641991e-04 2.851269442524e-05 0.0 
2.851269442524e-05 1.044375076497e-03 0.0 
0.0 0.0 -1.575150703147e-04 
-1.745723709241e-04 2.909038873658e-05 0.0 
2.909038873658e-05 1.170222223010e-03 0.0 
0.0 0.0 -1.755400497234e-04 
-1.120725847370e-04 2.871981251597e-05 0.0 
2.871981251597e-05 7.269648264993e-04 0.0 
0.0 0.0 -1.119489732781e-04 
-1.675311839949e-04 2.887729147629e-05 0.0 
2.887729147629e-05 1.117903748534e-03 0.0 
0.0 0.0 -1.678529426297e-04 
-1.146259152953e-04 2.842710779289e-05 0.0 
2.842710779289e-05 7.448564873363e-04 0.0 
0.0 0.0 -1.145134881756e-04 
-1.710224470009e-04 2.842065442071e-05 0.0 
2.842065442071e-05 1.142895506605e-03 0.0 
0.0 0.0 -1.716593064874e-04 
-1.634807050442e-04 2.799270818855e-05 0.0 
2.799270818855e-05 1.086902354100e-03 0.0 
0.0 0.0 -1.634447856658e-04 
-1.622367908960e-04 -2.967988136421e-05 0.0 
-2.967988136421e-05 1.088570664713e-03 0.0 
0.0 0.0 -1.620677252808e-04 
-1.436975778517e-04 2.830432817314e-05 0.0 
2.830432817314e-05 9.480503595790e-04 0.0 
0.0 0.0 -1.437136475121e-04 
-1.063431585595e-04 2.840592411012e-05 0.0 
2.840592411012e-05 6.863040493332e-04 0.0 
0.0 0.0 -1.060995107696e-04 
-1.691497108962e-04 -2.743833599267e-05 0.0 
-2.743833599267e-05 1.134677276168e-03 0.0 
0.0 0.0 -1.689057885308e-04 
-1.381914899866e-04 2.790064750608e-05 0.0 
2.790064750608e-05 9.063015758904e-04 0.0 
0.0 0.0 -1.375454124849e-04 
-5.561996790627e-05 -3.071748806018e-05 0.0 
-3.071748806018e-05 3.409512690699e-04 0.0 
0.0 0.0 -5.492022919918e-05 
-6.179236649455e-05 -2.756467409787e-05 0.0 
-2.756467409787e-05 3.903060721867e-04 0.0 
0.0 0.0 -6.170691397715e-05 
-9.087582305261e-05 2.700291781954e-05 0.0 
2.700291781954e-05 5.782509110046e-04 0.0 
0.0 0.0 -9.092110591052e-05 
-1.259880962207e-04 2.776883270027e-05 0.0 
2.776883270027e-05 8.237716666486e-04 0.0 
0.0 0.0 -1.257717909469e-04 
-1.753841120844e-04 2.980647546350e-05 0.0 
2.980647546350e-05 1.173927080456e-03 0.0 
0.0 0.0 -1.760317983730e-04 
-1.577119756164e-04 -3.055430689054e-05 0.0 
-3.055430689054e-05 1.057688489879e-03 0.0 
0.0 0.0 -1.576653810449e-04 
-1.057975756223e-04 -2.876126628924e-05 0.0 
-2.876126628924e-05 6.965772625478e-04 0.0 
0.0 0.0 -1.056780804030e-04 
-1.401532218735e-04 -2.893519210654e-05 0.0 
-2.893519210654e-05 9.357130400283e-04 0.0 
0.0 0.0 -1.401741111350e-04 
-1.632303776345e-04 2.945240880963e-05 0.0 
2.945240880963e-05 1.086067743780e-03 0.0 
0.0 0.0 -1.632898652955e-04 
-1.698320922867e-04 -3.029692352669e-05 0.0 
-3.029692352669e-05 1.141081462631e-03 0.0 
0.0 0.0 -1.695868396911e-04 
-1.762766478419e-04 -2.148172006753e-05 0.0 
-2.148172006753e-05 1.172735995291e-03 0.0 
0.0 0.0 -1.741172379421e-04 
-1.423952570170e-04 2.784554782803e-05 0.0 
2.784554782803e-05 9.441048027351e-04 0.0 
0.0 0.0 -1.427691508950e-04 
-1.672340961037e-04 2.890076212539e-05 0.0 
2.890076212539e-05 1.110820323191e-03 0.0 
0.0 0.0 -1.670153566545e-04 
-1.196206745500e-04 -2.916305908743e-05 0.0 
-2.916305908743e-05 7.932912096618e-04 0.0 
0.0 0.0 -1.195780717481e-04 
-1.631267095900e-04 -2.877648753756e-05 0.0 
-2.877648753756e-05 1.093964271595e-03 0.0 
0.0 0.0 -1.629178051474e-04 
-1.193648583036e-04 2.813253978265e-05 0.0 
2.813253978265e-05 7.781106719393e-04 0.0 
0.0 0.0 -1.192674511187e-04 
-1.785040923208e-04 -2.833642482200e-05 0.0 
-2.833642482200e-05 1.202406861450e-03 0.0 
0.0 0.0 -1.783056964125e-04 
-1.774180478980e-04 -3.143728213467e-05 0.0 
-3.143728213467e-05 1.216846253912e-03 0.0 
0.0 0.0 -1.800733985141e-04 
-1.339733609669e-04 2.830305737665e-05 0.0 
2.830305737665e-05 8.799971748813e-04 0.0 
0.0 0.0 -1.339483752660e-04 
-5.685501053660e-05 3.033786968296e-05 0.0 
3.033786968296e-05 3.408752435242e-04 0.0 
0.0 0.0 -5.664287464774e-05 
-1.674932513127e-04 2.750263582860e-05 0.0 
2.750263582860e-05 1.111155514655e-03 0.0 
0.0 0.0 -1.670528461364e-04 
-1.284040368042e-04 -2.775968276020e-05 0.0 
-2.775968276020e-05 8.537309068525e-04 0.0 
0.0 0.0 -1.283340813903e-04 
-1.016895440755e-04 -2.862604297841e-05 0.0 
-2.862604297841e-05 6.674652453701e-04 0.0 
0.0 0.0 -1.014860136736e-04 
-1.390418925560e-04 -2.935625760733e-05 0.0 
-2.935625760733e-05 9.288785969762e-04 0.0 
0.0 0.0 -1.390419464427e-04 
-1.608753793423e-04 -3.062151254544e-05 0.0 
-3.062151254544e-05 1.081540098949e-03 0.0 
0.0 0.0 -1.609465537294e-04 
-5.579409708541e-05 -2.753923831601e-05 0.0 
-2.753923831601e-05 3.517647136068e-04 0.0 
0.0 0.0 -5.619956474153e-05 
-1.242874580104e-04 2.815581454240e-05 0.0 
2.815581454240e-05 8.122824974036e-04 0.0 
0.0 0.0 -1.242180795178e-04 
-1.444954382542e-04 2.691161261798e-05 0.0 
2.691161261798e-05 9.508761997336e-04 0.0 
0.0 0.0 -1.439419080609e-04 
-1.748732396412e-04 -3.101518328253e-05 0.0 
-3.101518328253e-05 1.183866334775e-03 0.0 
0.0 0.0 -1.756258132784e-04 
-1.484265095921e-04 2.639187046033e-05 0.0 
2.639187046033e-05 9.793613921147e-04 0.0 
0.0 0.0 -1.481473755224e-04 
-1.628394148518e-04 2.905846373136e-05 0.0 
2.905846373136e-05 1.081802942582e-03 0.0 
0.0 0.0 -1.628061244897e-04 
-1.405884391169e-04 2.689260908494e-05 0.0 
2.689260908494e-05 9.219062369141e-04 0.0 
0.0 0.0 -1.397490354451e-04 
-1.346362126131e-04 2.980546389634e-05 0.0 
2.980546389634e-05 8.629731244664e-04 0.0 
0.0 0.0 -1.313455861883e-04 
-1.422308942789e-04 2.777968126491e-05 0.0 
2.777968126491e-05 9.352014107076e-04 0.0 
0.0 0.0 -1.417070353249e-04 
-1.696348231764e-04 3.073847441857e-05 0.0 
3.073847441857e-05 1.132512673150e-03 0.0 
0.0 0.0 -1.700257545721e-04 
-1.628061011134e-04 -3.012920063587e-05 0.0 
-3.012920063587e-05 1.094588289745e-03 0.0 
0.0 0.0 -1.626783210446e-04 
-1.525480366069e-04 2.753411223908e-05 0.0 
2.753411223908e-05 1.012270815341e-03 0.0 
0.0 0.0 -1.525950422115e-04 
-1.817674885626e-04 2.636756222739e-05 0.0 
2.636756222739e-05 1.218171265063e-03 0.0 
0.0 0.0 -1.819330136886e-04 
-1.367783378107e-04 2.734398055764e-05 0.0 
2.734398055764e-05 8.928204252328e-04 0.0 
0.0 0.0 -1.355595357802e-04 
-8.657515392004e-05 -2.858127066433e-05 0.0 
-2.858127066433e-05 5.623682383036e-04 0.0 
0.0 0.0 -8.640878351826e-05 
-1.720286776127e-04 -3.018037219568e-05 0.0 
-3.018037219568e-05 1.158953410419e-03 0.0 
0.0 0.0 -1.720100346656e-04 
-1.785542716781e-04 -3.347376878072e-05 0.0 
-3.347376878072e-05 1.210212792631e-03 0.0 
0.0 0.0 -1.795117393957e-04 
-1.181566759780e-04 2.804595512908e-05 0.0 
2.804595512908e-05 7.695120543693e-04 0.0 
0.0 0.0 -1.180384278745e-04 
-1.234361083838e-04 2.834735001336e-05 0.0 
2.834735001336e-05 8.068300268397e-04 0.0 
0.0 0.0 -1.233979183903e-04 
-9.615008310342e-05 -2.877711061827e-05 0.0 
-2.877711061827e-05 6.293964481875e-04 0.0 
0.0 0.0 -9.603629528614e-05 
-1.570985069047e-04 2.869057650911e-05 0.0 
2.869057650911e-05 1.042670134457e-03 0.0 
0.0 0.0 -1.569914920818e-04 
-9.804713378094e-05 2.892049478508e-05 0.0 
2.892049478508e-05 6.274327291699e-04 0.0 
0.0 0.0 -9.751120462800e-05 
-1.373039782519e-04 2.945820523949e-05 0.0 
2.945820523949e-05 9.031137517948e-04 0.0 
0.0 0.0 -1.370644644624e-04 
-9.733425656402e-05 -2.696735292952e-05 0.0 
-2.696735292952e-05 6.363689780604e-04 0.0 
0.0 0.0 -9.714421390796e-05 
-1.604810832406e-04 2.925883402761e-05 0.0 
2.925883402761e-05 1.064262862584e-03 0.0 
0.0 0.0 -1.602381950242e-04 
-1.814386097987e-04 -2.325128847214e-05 0.0 
-2.325128847214e-05 1.217845530327e-03 0.0 
0.0 0.0 -1.816843005860e-04 
-1.003684445551e-04 -2.872637610904e-05 0.0 
-2.872637610904e-05 6.585462596242e-04 0.0 
0.0 0.0 -1.002307182508e-04 
-3.526749537505e-05 -3.047241068612e-05 0.0 
-3.047241068612e-05 2.153990238607e-04 0.0 
0.0 0.0 -3.677367655039e-05 
-1.806631145188e-04 2.941902588667e-05 0.0 
2.941902588667e-05 1.208966272057e-03 0.0 
0.0 0.0 -1.810776462098e-04 
-1.033178748637e-04 2.699632970684e-05 0.0 
2.699632970684e-05 6.637091035959e-04 0.0 
0.0 0.0 -1.028007266516e-04 
-1.175293277585e-04 2.819191420696e-05 0.0 
2.819191420696e-05 7.649488685247e-04 0.0 
0.0 0.0 -1.174222657364e-04 
-1.740611927883e-04 3.008308873920e-05 0.0 
3.008308873920e-05 1.179667388234e-03 0.0 
0.0 0.0 -1.766888058523e-04 
-1.524480229041e-04 -2.995968298439e-05 0.0 
-2.995968298439e-05 1.020372756015e-03 0.0 
0.0 0.0 -1.522604622525e-04 
-1.585768344365e-04 -2.913298650394e-05 0.0 
-2.913298650394e-05 1.064240986158e-03 0.0 
0.0 0.0 -1.583819031520e-04 
-1.028812223476e-04 -2.791530224567e-05 0.0 
-2.791530224567e-05 6.762699737186e-04 0.0 
0.0 0.0 -1.027652553003e-04 
-3.047731217096e-05 2.978609752000e-05 0.0 
2.978609752000e-05 1.644412884572e-04 0.0 
0.0 0.0 -3.167095645526e-05 
-1.827018091400e-04 -3.487243475378e-05 0.0 
-3.487243475378e-05 1.223693620193e-03 0.0 
0.0 0.0 -1.803196740198e-04 
-1.299869374800e-04 2.787662672047e-05 0.0 
2.787662672047e-05 8.523815142426e-04 0.0 
0.0 0.0 -1.299076046001e-04 
-1.512839301296e-04 -3.211131163956e-05 0.0 
-3.211131163956e-05 1.010330699503e-03 0.0 
0.0 0.0 -1.510713963618e-04 
-1.740688791628e-04 2.785384488376e-05 0.0 
2.785384488376e-05 1.160296302710e-03 0.0 
0.0 0.0 -1.736733770178e-04 
-2.424829434384e-05 2.135414066938e-05 0.0 
2.135414066938e-05 1.009887765283e-04 0.0 
0.0 0.0 -2.253474224696e-05 
-1.588289344536e-04 2.988448063203e-05 0.0 
2.988448063203e-05 1.053618048293e-03 0.0 
0.0 0.0 -1.588145449557e-04 
-7.398149687921e-05 -2.842214034926e-05 0.0 
-2.842214034926e-05 4.736710158424e-04 0.0 
0.0 0.0 -7.379368512750e-05 
-1.417757164372e-04 -3.019050727827e-05 0.0 
-3.019050727827e-05 9.514786018212e-04 0.0 
0.0 0.0 -1.424765658182e-04 
-1.273110853056e-04 -2.925695132898e-05 0.0 
-2.925695132898e-05 8.481813906053e-04 0.0 
0.0 0.0 -1.274401864931e-04 
-1.007593383753e-04 2.822071280729e-05 0.0 
2.822071280729e-05 6.480510024074e-04 0.0 
0.0 0.0 -1.006432667219e-04 
-1.707598802574e-04 -2.954897052777e-05 0.0 
-2.954897052777e-05 1.153161559221e-03 0.0 
0.0 0.0 -1.712453353817e-04 
-1.329505705343e-04 2.860130427155e-05 0.0 
2.860130427155e-05 8.732611453068e-04 0.0 
0.0 0.0 -1.328871777156e-04 
-9.118212509623e-05 2.844150706971e-05 0.0 
2.844150706971e-05 5.810800157713e-04 0.0 
0.0 0.0 -9.101187559806e-05 
-1.348270760039e-04 -2.858426038110e-05 0.0 
-2.858426038110e-05 8.990222661828e-04 0.0 
0.0 0.0 -1.348432318503e-04 
-2.929431270807e-05 -2.857654389252e-05 0.0 
-2.857654389252e-05 1.760253783659e-04 0.0 
0.0 0.0 -3.121713414881e-05 
-1.537482864892e-04 -2.902787486223e-05 0.0 
-2.902787486223e-05 1.032059817805e-03 0.0 
0.0 0.0 -1.539626484545e-04 
-1.604406715089e-04 -2.964829512842e-05 0.0 
-2.964829512842e-05 1.074466508454e-03 0.0 
0.0 0.0 -1.598244649411e-04 
-1.844616251081e-04 -2.196458036396e-05 0.0 
-2.196458036396e-05 1.231467805983e-03 0.0 
0.0 0.0 -1.850401362575e-04 
-1.635274807000e-04 -2.956880985849e-05 0.0 
-2.956880985849e-05 1.099342516608e-03 0.0 
0.0 0.0 -1.636124299818e-04 
-7.150477036681e-05 -2.776392562661e-05 0.0 
-2.776392562661e-05 4.572663187996e-04 0.0 
0.0 0.0 -7.137223705482e-05 
-1.570462429545e-04 -2.966204224228e-05 0.0 
-2.966204224228e-05 1.054975147839e-03 0.0 
0.0 0.0 -1.570847591254e-04 
-1.810625471898e-04 2.712640566716e-05 0.0 
2.712640566716e-05 1.230837214805e-03 0.0 
0.0 0.0 -1.842233179068e-04 
-1.891002400454e-04 -2.748789620214e-05 0.0 
-2.748789620214e-05 1.278407905451e-03 0.0 
0.0 0.0 -1.900717871215e-04 
-1.657110930776e-04 -2.854937255919e-05 0.0 
-2.854937255919e-05 1.112870521473e-03 0.0 
0.0 0.0 -1.653364313119e-04 
-1.071209963560e-04 -2.863275326497e-05 0.0 
-2.863275326497e-05 7.049432181714e-04 0.0 
0.0 0.0 -1.069186906485e-04 
-1.442583782278e-04 -2.898467953421e-05 0.0 
-2.898467953421e-05 9.652668360639e-04 0.0 
0.0 0.0 -1.443707514742e-04 
-1.759295624301e-04 2.574555557981e-05 0.0 
2.574555557981e-05 1.162894992702e-03 0.0 
0.0 0.0 -1.746475140816e-04 
-1.188179409512e-04 -2.882565480678e-05 0.0 
-2.882565480678e-05 7.850400880713e-04 0.0 
0.0 0.0 -1.181845718321e-04 
-1.584483271371e-04 2.773639164420e-05 0.0 
2.773639164420e-05 1.051528373706e-03 0.0 
0.0 0.0 -1.585795433073e-04 
-1.477641435519e-04 2.859461966958e-05 0.0 
2.859461966958e-05 9.807497853317e-04 0.0 
0.0 0.0 -1.481564718376e-04 
-1.666109147089e-04 -2.970949097526e-05 0.0 
-2.970949097526e-05 1.123406416293e-03 0.0 
0.0 0.0 -1.669465589644e-04 
-1.640742339727e-04 -2.814643695304e-05 0.0 
-2.814643695304e-05 1.102737689409e-03 0.0 
0.0 0.0 -1.639852473733e-04 
-1.101476556860e-04 -1.419773556877e-06 0.0 
-1.419773556877e-06 6.855531227093e-04 0.0 
0.0 0.0 -1.097027053386e-04 
-1.095838507761e-04 5.104018495320e-06 0.0 
5.104018495320e-06 6.852974449944e-04 0.0 
0.0 0.0 -1.096586159380e-04 
-1.492847548809e-04 -3.091516381313e-05 0.0 
-3.091516381313e-05 9.984061546489e-04 0.0 
0.0 0.0 -1.489183339744e-04 
-1.487773235054e-04 2.785619991096e-05 0.0 
2.785619991096e-05 9.847103116342e-04 0.0 
0.0 0.0 -1.489589719869e-04 
-1.316033445496e-04 -2.890310988479e-05 0.0 
-2.890310988479e-05 8.785172676280e-04 0.0 
0.0 0.0 -1.317064244343e-04 
-1.470787480711e-04 -2.886845641438e-05 0.0 
-2.886845641438e-05 9.813735906609e-04 0.0 
0.0 0.0 -1.466314440693e-04 
-1.276790192920e-04 2.827971774625e-05 0.0 
2.827971774625e-05 8.356151426700e-04 0.0 
0.0 0.0 -1.275341994755e-04 
-1.790311321725e-04 1.969961980520e-05 0.0 
1.969961980520e-05 1.177311147527e-03 0.0 
0.0 0.0 -1.770432225081e-04 
-1.075373971259e-04 2.845855733448e-05 0.0 
2.845855733448e-05 6.950205170450e-04 0.0 
0.0 0.0 -1.073226784003e-04 
-1.995879498343e-04 -5.013008806985e-06 0.0 
-5.013008806985e-06 1.363897218258e-03 0.0 
0.0 0.0 -1.985690758598e-04 
-1.206431140158e-04 2.307417823056e-05 0.0 
2.307417823056e-05 7.999499804229e-04 0.0 
0.0 0.0 -1.217990918242e-04 
-1.230873173652e-04 -2.834404514853e-05 0.0 
-2.834404514853e-05 8.168726937961e-04 0.0 
0.0 0.0 -1.229897142350e-04 
-1.277789710916e-04 2.899586617417e-05 0.0 
2.899586617417e-05 8.376167932335e-04 0.0 
0.0 0.0 -1.278593196867e-04 
-6.749379846372e-05 -2.782885043647e-05 0.0 
-2.782885043647e-05 4.285534232864e-04 0.0 
0.0 0.0 -6.718560115948e-05 
-1.130846881410e-04 -2.901620947727e-05 0.0 
-2.901620947727e-05 7.492911164906e-04 0.0 
0.0 0.0 -1.132750687146e-04 
-1.393795706141e-04 2.790993313463e-05 0.0 
2.790993313463e-05 9.183577294076e-04 0.0 
0.0 0.0 -1.393992299975e-04 
-1.313953089638e-04 2.793110906410e-05 0.0 
2.793110906410e-05 8.609063871163e-04 0.0 
0.0 0.0 -1.310746415357e-04 
-1.472158165240e-04 2.758529410816e-05 0.0 
2.758529410816e-05 9.752002146418e-04 0.0 
0.0 0.0 -1.472189500432e-04 
-1.516300742627e-04 2.806244334544e-05 0.0 
2.806244334544e-05 1.001799986608e-03 0.0 
0.0 0.0 -1.512033144533e-04 
-1.566655293626e-04 -2.889951032878e-05 0.0 
-2.889951032878e-05 1.046948901408e-03 0.0 
0.0 0.0 -1.561275327105e-04 
-3.388460750578e-05 -1.545160936620e-05 0.0 
-1.545160936620e-05 2.099343336454e-04 0.0 
0.0 0.0 -3.245576353708e-05 
-1.079103303358e-04 2.933502518126e-05 0.0 
2.933502518126e-05 7.001507540581e-04 0.0 
0.0 0.0 -1.081352097849e-04 
-1.027907419891e-04 -2.789055961483e-05 0.0 
-2.789055961483e-05 6.727593674768e-04 0.0 
0.0 0.0 -1.023828309811e-04 
-1.434897197293e-04 2.686269947909e-05 0.0 
2.686269947909e-05 9.426378339422e-04 0.0 
0.0 0.0 -1.428293200757e-04 
-1.483261696105e-04 -2.883963041716e-05 0.0 
-2.883963041716e-05 9.902814330651e-04 0.0 
0.0 0.0 -1.477595226970e-04 
-1.733622378423e-04 2.696425670561e-05 0.0 
2.696425670561e-05 1.158199599596e-03 0.0 
0.0 0.0 -1.740163136221e-04 
-5.146390240149e-05 3.149198966797e-05 0.0 
3.149198966797e-05 2.950977217837e-04 0.0 
0.0 0.0 -4.910994769955e-05 
-4.998322073950e-05 -2.650173050573e-05 0.0 
-2.650173050573e-05 3.137392583323e-04 0.0 
0.0 0.0 -5.065930366581e-05 
-1.246841514279e-04 2.807070818710e-05 0.0 
2.807070818710e-05 8.153369030926e-04 0.0 
0.0 0.0 -1.245896567492e-04 
-1.074667000404e-04 -2.931017500739e-05 0.0 
-2.931017500739e-05 7.103792899815e-04 0.0 
0.0 0.0 -1.077203783481e-04 
-9.918600810801e-05 -3.218977296722e-05 0.0 
-3.218977296722e-05 6.451476881974e-04 0.0 
0.0 0.0 -9.831899762194e-05 
-1.033843323464e-04 -2.568146961447e-05 0.0 
-2.568146961447e-05 6.823399375890e-04 0.0 
0.0 0.0 -1.033380742667e-04 
-1.467772705035e-04 -2.855532502296e-05 0.0 
-2.855532502296e-05 9.829234791858e-04 0.0 
0.0 0.0 -1.469023935692e-04 
-4.918821938130e-05 -2.784621442943e-05 0.0 
-2.784621442943e-05 3.054917735983e-04 0.0 
0.0 0.0 -4.953709868763e-05 
-1.222003796169e-04 2.866150149173e-05 0.0 
2.866150149173e-05 7.992287747919e-04 0.0 
0.0 0.0 -1.223213871927e-04 
-1.574838851652e-04 -2.884771519407e-05 0.0 
-2.884771519407e-05 1.055743233401e-03 0.0 
0.0 0.0 -1.573814874934e-04 
-5.103366446644e-05 3.083233425307e-05 0.0 
3.083233425307e-05 3.010972732110e-04 0.0 
0.0 0.0 -5.112340052147e-05 
-1.934610965695e-04 -4.298535282020e-06 0.0 
-4.298535282020e-06 1.268654757538e-03 0.0 
0.0 0.0 -1.928379572095e-04 
-1.729742724807e-04 -2.716366689485e-05 0.0 
-2.716366689485e-05 1.161879060048e-03 0.0 
0.0 0.0 -1.728683014225e-04 
-1.159629787201e-04 -2.904469987433e-05 0.0 
-2.904469987433e-05 7.705849919696e-04 0.0 
0.0 0.0 -1.163417091451e-04 
-1.616915685660e-04 2.859224485179e-05 0.0 
2.859224485179e-05 1.074324548804e-03 0.0 
0.0 0.0 -1.618083629464e-04 
-2.727429490673e-05 -7.981424094550e-07 0.0 
-7.981424094550e-07 1.116265976979e-04 0.0 
0.0 0.0 -2.696321564760e-05 
-1.521690046607e-04 -3.000871026997e-05 0.0 
-3.000871026997e-05 1.017696781759e-03 0.0 
0.0 0.0 -1.518707364543e-04 
-1.295839926014e-04 -2.815794342717e-05 0.0 
-2.815794342717e-05 8.619661847659e-04 0.0 
0.0 0.0 -1.295155041898e-04 
-2.359634361323e-05 9.091220455368e-07 0.0 
9.091220455368e-07 1.106951619002e-04 0.0 
0.0 0.0 -2.682779714776e-05 
-1.728538985111e-04 2.680741270793e-05 0.0 
2.680741270793e-05 1.154427413958e-03 0.0 
0.0 0.0 -1.732288690391e-04 
-4.759083390138e-05 -2.831698267297e-05 0.0 
-2.831698267297e-05 2.848913946214e-04 0.0 
0.0 0.0 -4.649687138448e-05 
-1.430104513494e-04 -2.827840335732e-05 0.0 
-2.827840335732e-05 9.522047249633e-04 0.0 
0.0 0.0 -1.424467998190e-04 
-1.308115066644e-04 -2.845406566805e-05 0.0 
-2.845406566805e-05 8.700772173504e-04 0.0 
0.0 0.0 -1.306907721685e-04 
-1.129064275361e-04 -2.856218169756e-05 0.0 
-2.856218169756e-05 7.462380760800e-04 0.0 
0.0 0.0 -1.127972299543e-04 
-1.359129833258e-04 2.979368899475e-05 0.0 
2.979368899475e-05 8.944895224544e-04 0.0 
0.0 0.0 -1.357882224401e-04 
-1.779538886446e-04 2.685602915856e-05 0.0 
2.685602915856e-05 1.186518068831e-03 0.0 
0.0 0.0 -1.774347558581e-04 
-1.457575943922e-04 3.026596853263e-05 0.0 
3.026596853263e-05 9.632506474158e-04 0.0 
0.0 0.0 -1.457400808753e-04 
-1.288002410826e-04 2.805878315534e-05 0.0 
2.805878315534e-05 8.440094574945e-04 0.0 
0.0 0.0 -1.287264812403e-04 
-1.242825439840e-04 -2.804688037007e-05 0.0 
-2.804688037007e-05 8.250067063846e-04 0.0 
0.0 0.0 -1.241942416882e-04 
-1.736395521226e-05 2.354389388036e-05 0.0 
2.354389388036e-05 7.964528863018e-05 0.0 
0.0 0.0 -1.861799679395e-05 
-4.157545693324e-05 2.817385926199e-05 0.0 
2.817385926199e-05 2.365575590948e-04 0.0 
0.0 0.0 -4.141517733842e-05 
-1.678318203631e-04 -2.663064313971e-05 0.0 
-2.663064313971e-05 1.127397061509e-03 0.0 
0.0 0.0 -1.677496568182e-04 
-1.370203440637e-04 -3.226606344672e-05 0.0 
-3.226606344672e-05 9.081664366392e-04 0.0 
0.0 0.0 -1.362805121017e-04 
-1.736141937904e-04 2.716336991301e-05 0.0 
2.716336991301e-05 1.149649766564e-03 0.0 
0.0 0.0 -1.723036539172e-04 
-7.429185192102e-05 2.889322857484e-05 0.0 
2.889322857484e-05 4.644168819778e-04 0.0 
0.0 0.0 -7.414465667103e-05 
-1.649902886651e-04 2.947284893012e-05 0.0 
2.947284893012e-05 1.093935083842e-03 0.0 
0.0 0.0 -1.646925898217e-04 
-1.739966132604e-04 -2.849382622555e-05 0.0 
-2.849382622555e-05 1.167419998479e-03 0.0 
0.0 0.0 -1.733111646468e-04 
-1.056965695515e-04 2.657671323282e-05 0.0 
2.657671323282e-05 6.973803664085e-04 0.0 
0.0 0.0 -1.076913066561e-04 
-1.684634156381e-04 2.502571500154e-05 0.0 
2.502571500154e-05 1.117308510720e-03 0.0 
0.0 0.0 -1.681488932201e-04 
-1.612200699048e-04 -2.968921846860e-05 0.0 
-2.968921846860e-05 1.084762543557e-03 0.0 
0.0 0.0 -1.613920101890e-04 
-1.435042771724e-04 2.827958174112e-05 0.0 
2.827958174112e-05 9.471256299073e-04 0.0 
0.0 0.0 -1.435674306479e-04 
-1.178719447516e-04 2.925779353124e-05 0.0 
2.925779353124e-05 7.691196797978e-04 0.0 
0.0 0.0 -1.179957515531e-04 
-1.230064472571e-04 -2.933976043839e-05 0.0 
-2.933976043839e-05 8.180684852634e-04 0.0 
0.0 0.0 -1.231351811242e-04 
-1.812260547849e-04 -3.047200266982e-05 0.0 
-3.047200266982e-05 1.223288115478e-03 0.0 
0.0 0.0 -1.807056875578e-04 
-1.260212927046e-04 2.933157348944e-05 0.0 
2.933157348944e-05 8.259598448106e-04 0.0 
0.0 0.0 -1.259489979917e-04 
-1.353161328246e-04 2.778264495549e-05 0.0 
2.778264495549e-05 8.897119970146e-04 0.0 
0.0 0.0 -1.352333322325e-04 
-1.267391738953e-04 2.944240283988e-05 0.0 
2.944240283988e-05 8.300608908324e-04 0.0 
0.0 0.0 -1.265040046469e-04 
-1.558042942572e-04 2.960325539106e-05 0.0 
2.960325539106e-05 1.032329659142e-03 0.0 
0.0 0.0 -1.557546880476e-04 
-1.178031641948e-04 -2.833363001983e-05 0.0 
-2.833363001983e-05 7.792538415973e-04 0.0 
0.0 0.0 -1.176363242409e-04 
-7.616423057155e-05 2.888075361391e-05 0.0 
2.888075361391e-05 4.767557616214e-04 0.0 
0.0 0.0 -7.598706826662e-05 
-1.284551892997e-04 2.830356900228e-05 0.0 
2.830356900228e-05 8.414205268390e-04 0.0 
0.0 0.0 -1.284270486071e-04 
-8.163145150663e-05 2.849893936950e-05 0.0 
2.849893936950e-05 5.141388462768e-04 0.0 
0.0 0.0 -8.139240314519e-05 
-1.476035922618e-04 2.790275079514e-05 0.0 
2.790275079514e-05 9.723513416990e-04 0.0 
0.0 0.0 -1.469868445827e-04 
-8.102880366192e-05 -2.822816260586e-05 0.0 
-2.822816260586e-05 5.241451611897e-04 0.0 
0.0 0.0 -8.099228255434e-05 
-1.416684014624e-04 -2.911139421202e-05 0.0 
-2.911139421202e-05 9.446400297649e-04 0.0 
0.0 0.0 -1.413087031611e-04 
-1.704134817182e-04 -2.893451028680e-05 0.0 
-2.893451028680e-05 1.143317166872e-03 0.0 
0.0 0.0 -1.695824168335e-04 
-1.648116269840e-04 2.803138241354e-05 0.0 
2.803138241354e-05 1.093290237044e-03 0.0 
0.0 0.0 -1.644793634901e-04 
-1.128875860972e-04 2.826705620268e-05 0.0 
2.826705620268e-05 7.324835187191e-04 0.0 
0.0 0.0 -1.126879322255e-04 
-1.413103611302e-04 2.856634998349e-05 0.0 
2.856634998349e-05 9.375047760794e-04 0.0 
0.0 0.0 -1.419038077447e-04 
-1.657595976086e-04 2.853389717882e-05 0.0 
2.853389717882e-05 1.104349844714e-03 0.0 
0.0 0.0 -1.661162351013e-04 
-1.653889785276e-04 -2.976188635714e-05 0.0 
-2.976188635714e-05 1.114688989457e-03 0.0 
0.0 0.0 -1.657121520580e-04 
-4.122208403583e-05 -2.733977607716e-05 0.0 
-2.733977607716e-05 2.407308049745e-04 0.0 
0.0 0.0 -4.024936955575e-05 
-1.462865341652e-04 2.791988865304e-05 0.0 
2.791988865304e-05 9.640304959560e-04 0.0 
0.0 0.0 -1.458719015759e-04 
-1.798320892613e-04 3.664169466135e-05 0.0 
3.664169466135e-05 1.207776909166e-03 0.0 
0.0 0.0 -1.808727580343e-04 
-8.155951077410e-05 2.658877336874e-05 0.0 
2.658877336874e-05 5.082367721589e-04 0.0 
0.0 0.0 -8.036834358255e-05 
-1.261065842356e-04 -2.891277945860e-05 0.0 
-2.891277945860e-05 8.392634847212e-04 0.0 
0.0 0.0 -1.261429800108e-04 
-2.464432722711e-05 -2.598410949159e-05 0.0 
-2.598410949159e-05 1.199804601247e-04 0.0 
0.0 0.0 -2.329771006100e-05 
-1.698720281199e-04 2.819353997162e-05 0.0 
2.819353997162e-05 1.134065551803e-03 0.0 
0.0 0.0 -1.704352672439e-04 
-7.209795018933e-05 2.889480946534e-05 0.0 
2.889480946534e-05 4.471234739761e-04 0.0 
0.0 0.0 -7.178447905439e-05 
-1.214879839983e-04 2.129426116121e-05 0.0 
2.129426116121e-05 7.908873499093e-04 0.0 
0.0 0.0 -1.224926751266e-04 
-1.512350690369e-04 3.260960324541e-05 0.0 
3.260960324541e-05 1.003149541653e-03 0.0 
0.0 0.0 -1.513082552986e-04 
-1.410567308220e-04 -2.849265471453e-05 0.0 
-2.849265471453e-05 9.457036391268e-04 0.0 
0.0 0.0 -1.415828201621e-04 
-1.344535840298e-04 2.612046934124e-05 0.0 
2.612046934124e-05 8.995841949147e-04 0.0 
0.0 0.0 -1.366211047096e-04 
-1.341134389053e-04 2.811410486968e-05 0.0 
2.811410486968e-05 8.812581479058e-04 0.0 
0.0 0.0 -1.340535934895e-04 
-8.946040519151e-05 -2.953905219233e-05 0.0 
-2.953905219233e-05 5.742848433877e-04 0.0 
0.0 0.0 -8.827358089900e-05 
-9.333279709743e-05 -2.369397324284e-05 0.0 
-2.369397324284e-05 6.111413459436e-04 0.0 
0.0 0.0 -9.328238720484e-05 
-1.698818200285e-04 -2.882683013526e-05 0.0 
-2.882683013526e-05 1.144701307571e-03 0.0 
0.0 0.0 -1.700100520615e-04 
-1.409975246060e-04 -3.114270166762e-05 0.0 
-3.114270166762e-05 9.412074701777e-04 0.0 
0.0 0.0 -1.409113068204e-04 
-1.224899796510e-04 -2.844927577316e-05 0.0 
-2.844927577316e-05 8.138192071892e-04 0.0 
0.0 0.0 -1.224729735915e-04 
-1.523712328566e-04 3.064679971689e-05 0.0 
3.064679971689e-05 1.008635964013e-03 0.0 
0.0 0.0 -1.522479562080e-04 
-1.188292947714e-04 2.814854163685e-05 0.0 
2.814854163685e-05 7.741609344605e-04 0.0 
0.0 0.0 -1.187265862058e-04 
-7.698231420718e-05 -2.807470773001e-05 0.0 
-2.807470773001e-05 4.953557652573e-04 0.0 
0.0 0.0 -7.679943085705e-05 
-8.618619312566e-05 2.228028664320e-05 0.0 
2.228028664320e-05 5.633842965339e-04 0.0 
0.0 0.0 -8.862593743002e-05 
-1.284395253225e-04 -2.631768161175e-05 0.0 
-2.631768161175e-05 8.441014789476e-04 0.0 
0.0 0.0 -1.266344217576e-04 
-1.074097245906e-04 1.137855673603e-06 0.0 
1.137855673603e-06 7.273751056144e-04 0.0 
0.0 0.0 -1.068299257544e-04 
-1.648361548193e-04 -2.903405778283e-05 0.0 
-2.903405778283e-05 1.103487992394e-03 0.0 
0.0 0.0 -1.640398004813e-04 
-1.125117604938e-04 -2.832657592519e-05 0.0 
-2.832657592519e-05 7.420818515929e-04 0.0 
0.0 0.0 -1.122952594724e-04 
-1.815273626527e-04 2.648876521301e-05 0.0 
2.648876521301e-05 1.237129381465e-03 0.0 
0.0 0.0 -1.850357933615e-04 
-1.677426973633e-04 3.358700303554e-05 0.0 
3.358700303554e-05 1.121534172788e-03 0.0 
0.0 0.0 -1.681766660669e-04 
-1.238211064038e-04 -2.893923336642e-05 0.0 
-2.893923336642e-05 8.228165218213e-04 0.0 
0.0 0.0 -1.237869166313e-04 
-1.864446355504e-04 -3.208766695310e-05 0.0 
-3.208766695310e-05 1.252430825566e-03 0.0 
0.0 0.0 -1.862208944195e-04 
-8.530940149586e-05 -2.872680214247e-05 0.0 
-2.872680214247e-05 5.536185287289e-04 0.0 
0.0 0.0 -8.523934116932e-05 
-1.812060938045e-04 2.774101611193e-05 0.0 
2.774101611193e-05 1.207038039800e-03 0.0 
0.0 0.0 -1.806723702746e-04 
-1.337032776849e-04 -2.817141114612e-05 0.0 
-2.817141114612e-05 8.910030578001e-04 0.0 
0.0 0.0 -1.336599856011e-04 
-1.477881411962e-04 2.807358610009e-05 0.0 
2.807358610009e-05 9.757986870607e-04 0.0 
0.0 0.0 -1.477205131922e-04 
-1.717661370758e-04 -2.763745373205e-05 0.0 
-2.763745373205e-05 1.155465207730e-03 0.0 
0.0 0.0 -1.720177540750e-04 
-8.915482971043e-05 -2.748298977886e-05 0.0 
-2.748298977886e-05 5.839530331415e-04 0.0 
0.0 0.0 -8.937342098373e-05 
-1.408472522219e-04 2.814178914188e-05 0.0 
2.814178914188e-05 9.273096045331e-04 0.0 
0.0 0.0 -1.405419627762e-04 
-1.183094889317e-04 -2.831962265042e-05 0.0 
-2.831962265042e-05 7.845371880710e-04 0.0 
0.0 0.0 -1.182925860037e-04 
-1.362566173497e-04 -2.854051389334e-05 0.0 
-2.854051389334e-05 9.069235503698e-04 0.0 
0.0 0.0 -1.359850532410e-04 
-7.919830953849e-05 -2.789069310031e-05 0.0 
-2.789069310031e-05 5.092955845790e-04 0.0 
0.0 0.0 -7.902140106529e-05 
-1.521909368861e-04 3.155873557746e-05 0.0 
3.155873557746e-05 1.007096083567e-03 0.0 
0.0 0.0 -1.519844081269e-04 
-1.132987595353e-04 2.834154396761e-05 0.0 
2.834154396761e-05 7.356229622935e-04 0.0 
0.0 0.0 -1.132306032040e-04 
-1.320680958621e-04 2.867292103990e-05 0.0 
2.867292103990e-05 8.674712725503e-04 0.0 
0.0 0.0 -1.321542253869e-04 
-1.368300496681e-04 2.752968636588e-05 0.0 
2.752968636588e-05 8.977721242010e-04 0.0 
0.0 0.0 -1.363712481195e-04 
-2.669160915437e-05 -1.546272424362e-05 0.0 
-1.546272424362e-05 1.161110005952e-04 0.0 
0.0 0.0 -2.089024115593e-05 
-1.363872734664e-04 3.073615465078e-05 0.0 
3.073615465078e-05 8.982822443154e-04 0.0 
0.0 0.0 -1.362374425583e-04 
-3.196098953400e-05 -3.152710847565e-05 0.0 
-3.152710847565e-05 1.832351866553e-04 0.0 
0.0 0.0 -3.246432735143e-05 
-3.780823483309e-05 3.089859502925e-05 0.0 
3.089859502925e-05 2.040662805879e-04 0.0 
0.0 0.0 -3.615541251042e-05 
-1.264532196870e-04 2.805256790047e-05 0.0 
2.805256790047e-05 8.282811887478e-04 0.0 
0.0 0.0 -1.265710825771e-04 
-1.650927065987e-04 -2.992799550430e-05 0.0 
-2.992799550430e-05 1.105940052269e-03 0.0 
0.0 0.0 -1.647532235908e-04 
-1.400518033137e-04 2.658927901254e-05 0.0 
2.658927901254e-05 9.276103799496e-04 0.0 
0.0 0.0 -1.408132903889e-04 
-7.975221115210e-05 -2.926681587233e-05 0.0 
-2.926681587233e-05 5.061325512957e-04 0.0 
0.0 0.0 -7.822954250360e-05 
-2.013483297690e-04 2.032612637039e-06 0.0 
2.032612637039e-06 1.329003344546e-03 0.0 
0.0 0.0 -2.013483297690e-04 
-1.035627632493e-05 2.012317785662e-05 0.0 
2.012317785662e-05 3.911320943316e-05 0.0 
0.0 0.0 -1.232439990353e-05 
-8.383816084979e-05 -1.994127170537e-05 0.0 
-1.994127170537e-05 5.413626143026e-04 0.0 
0.0 0.0 -8.324708519681e-05 
-1.271654449798e-04 2.783994873367e-05 0.0 
2.783994873367e-05 8.320575259278e-04 0.0 
0.0 0.0 -1.270911103786e-04 
-1.205324376648e-04 -2.929888805432e-05 0.0 
-2.929888805432e-05 8.005519843790e-04 0.0 
0.0 0.0 -1.206387729067e-04 
-1.013602283131e-04 -2.480997680423e-05 0.0 
-2.480997680423e-05 6.640206223424e-04 0.0 
0.0 0.0 -1.009985469804e-04 
-8.871913647433e-05 2.734607712163e-05 0.0 
2.734607712163e-05 5.647906116567e-04 0.0 
0.0 0.0 -8.863076730824e-05 
-1.311043943365e-04 -2.976717297625e-05 0.0 
-2.976717297625e-05 8.719910144079e-04 0.0 
0.0 0.0 -1.310072861357e-04 
-1.389619207248e-04 -2.862329341105e-05 0.0 
-2.862329341105e-05 9.281576540868e-04 0.0 
0.0 0.0 -1.390016920470e-04 
-1.460738362541e-04 3.043025274219e-05 0.0 
3.043025274219e-05 9.676325484449e-04 0.0 
0.0 0.0 -1.460128267758e-04 
-1.732762100729e-04 3.047090098963e-05 0.0 
3.047090098963e-05 1.141214836478e-03 0.0 
0.0 0.0 -1.716453415534e-04 
-4.497460723320e-05 2.726656903271e-05 0.0 
2.726656903271e-05 2.561921516371e-04 0.0 
0.0 0.0 -4.464496721659e-05 
-1.166209944052e-04 2.853466779788e-05 0.0 
2.853466779788e-05 7.601119053809e-04 0.0 
0.0 0.0 -1.167719096664e-04 
-1.253239379370e-04 2.802640912089e-05 0.0 
2.802640912089e-05 8.204946388047e-04 0.0 
0.0 0.0 -1.253423245625e-04 
-6.775366326737e-05 -3.048229866519e-05 0.0 
-3.048229866519e-05 4.346213084644e-04 0.0 
0.0 0.0 -6.816034660215e-05 
-1.127220931764e-04 3.280867731043e-05 0.0 
3.280867731043e-05 7.331832316127e-04 0.0 
0.0 0.0 -1.127715562385e-04 
-1.406419564968e-04 -3.010518963226e-05 0.0 
-3.010518963226e-05 9.368893413982e-04 0.0 
0.0 0.0 -1.404347219739e-04 
-1.530603703096e-04 -2.920298263434e-05 0.0 
-2.920298263434e-05 1.018521684544e-03 0.0 
0.0 0.0 -1.535177820318e-04 
-2.288599488340e-05 1.289972043286e-06 0.0 
1.289972043286e-06 1.500050201402e-04 0.0 
0.0 0.0 -2.407863984352e-05 
-1.904718743730e-05 -3.796502735245e-05 0.0 
-3.796502735245e-05 7.353718879473e-05 0.0 
0.0 0.0 -1.778391308807e-05 
-4.862036817725e-05 -2.764492479964e-05 0.0 
-2.764492479964e-05 3.006710189870e-04 0.0 
0.0 0.0 -4.850561850037e-05 
-1.250248464412e-04 -2.908499407456e-05 0.0 
-2.908499407456e-05 8.306354519711e-04 0.0 
0.0 0.0 -1.249513133117e-04 
-9.487833492244e-05 -2.821982749961e-05 0.0 
-2.821982749961e-05 6.208435078207e-04 0.0 
0.0 0.0 -9.483030114460e-05 
-8.410233070287e-05 -2.754579270561e-05 0.0 
-2.754579270561e-05 5.457436342908e-04 0.0 
0.0 0.0 -8.407979340540e-05 
-7.564452835468e-05 -2.812380315554e-05 0.0 
-2.812380315554e-05 4.861034660231e-04 0.0 
0.0 0.0 -7.562371400132e-05 
-1.308199925164e-04 2.795456765413e-05 0.0 
2.795456765413e-05 8.583699019635e-04 0.0 
0.0 0.0 -1.308200345188e-04 
-1.492653203134e-04 2.795966396730e-05 0.0 
2.795966396730e-05 9.867209101107e-04 0.0 
0.0 0.0 -1.493429779604e-04 
-1.297619321001e-04 2.813153916154e-05 0.0 
2.813153916154e-05 8.505758307982e-04 0.0 
0.0 0.0 -1.296493136919e-04 
-9.537410332307e-05 2.792962789421e-05 0.0 
2.792962789421e-05 6.106733548119e-04 0.0 
0.0 0.0 -9.522910944095e-05 
-1.456775150903e-04 -3.018176577816e-05 0.0 
-3.018176577816e-05 9.731377158713e-04 0.0 
0.0 0.0 -1.454913560695e-04 
-1.215295702296e-04 2.461975315803e-05 0.0 
2.461975315803e-05 8.148115380054e-04 0.0 
0.0 0.0 -1.235433054540e-04 
-1.607975492377e-04 3.196445582729e-05 0.0 
3.196445582729e-05 1.071803692603e-03 0.0 
0.0 0.0 -1.614296353785e-04 
-1.294007234012e-04 -2.913608251421e-05 0.0 
-2.913608251421e-05 8.607493369835e-04 0.0 
0.0 0.0 -1.292646442145e-04 
-1.305405341983e-04 -2.882629630394e-05 0.0 
-2.882629630394e-05 8.689129694931e-04 0.0 
0.0 0.0 -1.304223873054e-04 
-6.968339329854e-05 -2.972888482406e-05 0.0 
-2.972888482406e-05 4.334906827197e-04 0.0 
0.0 0.0 -6.822727741190e-05 
-9.912831729497e-05 -2.796137707004e-05 0.0 
-2.796137707004e-05 6.504811582310e-04 0.0 
0.0 0.0 -9.898428703081e-05 
-1.338904054535e-04 2.764565306312e-05 0.0 
2.764565306312e-05 8.796508899650e-04 0.0 
0.0 0.0 -1.339603927656e-04 
-1.451942325546e-04 2.545422836756e-05 0.0 
2.545422836756e-05 9.593435678016e-04 0.0 
0.0 0.0 -1.442355194375e-04 
-1.361868027580e-04 2.709053506538e-05 0.0 
2.709053506538e-05 9.012697796478e-04 0.0 
0.0 0.0 -1.345837404303e-04 
-7.449260603113e-05 -2.324565781608e-05 0.0 
-2.324565781608e-05 4.730958793735e-04 0.0 
0.0 0.0 -7.319231467821e-05 
-1.351502038915e-04 2.830190167801e-05 0.0 
2.830190167801e-05 8.885438377553e-04 0.0 
0.0 0.0 -1.351067771782e-04 
-8.277379542059e-05 -2.675056815443e-05 0.0 
-2.675056815443e-05 5.366126160003e-04 0.0 
0.0 0.0 -8.276526902223e-05 
-4.268302624522e-05 2.966411434536e-05 0.0 
2.966411434536e-05 2.450626322876e-04 0.0 
0.0 0.0 -4.217020858377e-05 
-1.783377964353e-04 -2.878462420289e-05 0.0 
-2.878462420289e-05 1.216695363592e-03 0.0 
0.0 0.0 -1.804362660462e-04 
-4.529678387534e-05 2.926161683405e-05 0.0 
2.926161683405e-05 2.590325448345e-04 0.0 
0.0 0.0 -4.529806102550e-05 
-8.742939480876e-05 2.790769408488e-05 0.0 
2.790769408488e-05 5.558475884308e-04 0.0 
0.0 0.0 -8.733313829944e-05 
-1.317265343520e-04 -2.980209858436e-05 0.0 
-2.980209858436e-05 8.750838916963e-04 0.0 
0.0 0.0 -1.314978247514e-04 
-7.591084973546e-05 2.107875529606e-05 0.0 
2.107875529606e-05 4.931826175602e-04 0.0 
0.0 0.0 -7.859944172783e-05 
-1.334719851974e-04 -2.966915358544e-05 0.0 
-2.966915358544e-05 8.920345164479e-04 0.0 
0.0 0.0 -1.335848452069e-04 
-6.387562636780e-05 -3.268343600872e-05 0.0 
-3.268343600872e-05 4.032800898130e-04 0.0 
0.0 0.0 -6.423763444998e-05 
-1.136812058642e-04 -2.481450603128e-05 0.0 
-2.481450603128e-05 7.554211615018e-04 0.0 
0.0 0.0 -1.173522912428e-04 
-1.350637719422e-04 -2.838472714175e-05 0.0 
-2.838472714175e-05 8.988460543843e-04 0.0 
0.0 0.0 -1.347247148155e-04 
-1.171592619295e-04 -2.801384878721e-05 0.0 
-2.801384878721e-05 7.755561146277e-04 0.0 
0.0 0.0 -1.170018866078e-04 
-1.217089587309e-04 -2.902247236899e-05 0.0 
-2.902247236899e-05 8.097798257773e-04 0.0 
0.0 0.0 -1.219000842292e-04 
-2.184335631700e-05 -1.729926300555e-05 0.0 
-1.729926300555e-05 1.250103729472e-04 0.0 
0.0 0.0 -2.233965624082e-05 
-1.775429286585e-04 -2.993860203194e-05 0.0 
-2.993860203194e-05 1.168952343716e-03 0.0 
0.0 0.0 -1.728850973588e-04 
-9.777928932074e-05 -2.702797086344e-05 0.0 
-2.702797086344e-05 6.417468029030e-04 0.0 
0.0 0.0 -9.771858906392e-05 
-1.742936274983e-04 3.098695444566e-05 0.0 
3.098695444566e-05 1.160612036868e-03 0.0 
0.0 0.0 -1.731059224200e-04 
-1.475958375390e-04 -2.938015971493e-05 0.0 
-2.938015971493e-05 9.867581376832e-04 0.0 
0.0 0.0 -1.473178670231e-04 
-1.394115090974e-04 2.895092753690e-05 0.0 
2.895092753690e-05 9.183306099949e-04 0.0 
0.0 0.0 -1.394094752486e-04 
-1.392759160733e-04 -2.661746757661e-05 0.0 
-2.661746757661e-05 9.284264619517e-04 0.0 
0.0 0.0 -1.390298226761e-04 
-8.994283602845e-05 2.778083834669e-05 0.0 
2.778083834669e-05 5.730895634602e-04 0.0 
0.0 0.0 -8.984374554363e-05 
-2.917258118515e-05 2.376164554401e-05 0.0 
2.376164554401e-05 1.745437757761e-04 0.0 
0.0 0.0 -3.155138587282e-05 
-2.317643182854e-05 1.790083138541e-05 0.0 
1.790083138541e-05 9.845334346925e-05 0.0 
0.0 0.0 -2.398754234351e-05 
-1.432208171698e-04 2.892878557249e-05 0.0 
2.892878557249e-05 9.478265663156e-04 0.0 
0.0 0.0 -1.437459767248e-04 
-1.740260011077e-04 2.826019241499e-05 0.0 
2.826019241499e-05 1.153801197259e-03 0.0 
0.0 0.0 -1.722084272143e-04 
-8.118601345419e-05 -2.611344377703e-05 0.0 
-2.611344377703e-05 5.279662901466e-04 0.0 
0.0 0.0 -8.139371786675e-05 
-1.500944745800e-04 2.850222383989e-05 0.0 
2.850222383989e-05 9.934228736818e-04 0.0 
0.0 0.0 -1.501054273671e-04 
-7.521111464244e-05 2.846605665054e-05 0.0 
2.846605665054e-05 4.657051250380e-04 0.0 
0.0 0.0 -7.503141475880e-05 
-1.512386812048e-04 -2.992568848289e-05 0.0 
-2.992568848289e-05 1.010913185445e-03 0.0 
0.0 0.0 -1.508421041237e-04 
-1.913679647201e-04 1.633067843082e-05 0.0 
1.633067843082e-05 1.304046368860e-03 0.0 
0.0 0.0 -1.899801870201e-04 
-8.107065812765e-06 2.346749919756e-06 0.0 
2.346749919756e-06 3.465691143960e-05 0.0 
0.0 0.0 -6.768710104395e-06 
-2.012431250738e-04 -5.135354168430e-06 0.0 
-5.135354168430e-06 1.328125823973e-03 0.0 
0.0 0.0 -2.012431250738e-04 
-2.010076978229e-04 5.129027623315e-07 0.0 
5.129027623315e-07 1.332224423205e-03 0.0 
0.0 0.0 -2.010076978229e-04 
-1.200525084162e-04 -2.960169498126e-05 0.0 
-2.960169498126e-05 7.774099100136e-04 0.0 
0.0 0.0 -1.193279669386e-04 
-9.640785059628e-05 -2.657435829226e-05 0.0 
-2.657435829226e-05 6.329376874412e-04 0.0 
0.0 0.0 -9.642369099328e-05 
-1.430993903661e-04 -2.855154632445e-05 0.0 
-2.855154632445e-05 9.576101063938e-04 0.0 
0.0 0.0 -1.431539317715e-04 
-9.069725416876e-05 -2.857026822921e-05 0.0 
-2.857026822921e-05 5.911546440220e-04 0.0 
0.0 0.0 -9.061723822400e-05 
-3.022990634783e-05 -2.681786409130e-05 0.0 
-2.681786409130e-05 1.822763229384e-04 0.0 
0.0 0.0 -3.143827221009e-05 
-2.037753453247e-05 -2.478655429001e-05 0.0 
-2.478655429001e-05 8.790842240506e-05 0.0 
0.0 0.0 -1.801817686168e-05 
-1.836175097671e-04 -2.402430245032e-05 0.0 
-2.402430245032e-05 1.223987652140e-03 0.0 
0.0 0.0 -1.814249121503e-04 
-1.450545934085e-04 -3.153145532631e-05 0.0 
-3.153145532631e-05 9.685145142433e-04 0.0 
0.0 0.0 -1.447226300079e-04 
-1.125869054840e-04 -2.748101964700e-05 0.0 
-2.748101964700e-05 7.294325003239e-04 0.0 
0.0 0.0 -1.083718385576e-04 
-1.962159152819e-04 -1.434651956337e-06 0.0 
-1.434651956337e-06 1.365722808943e-03 0.0 
0.0 0.0 -1.985491694924e-04 
-5.585822177885e-05 -3.143630658045e-05 0.0 
-3.143630658045e-05 3.376755851757e-04 0.0 
0.0 0.0 -5.423556500690e-05 
-2.007881053171e-04 -1.726199718447e-06 0.0 
-1.726199718447e-06 1.364640639189e-03 0.0 
0.0 0.0 -1.987362728011e-04 
-1.448517594688e-04 2.793135192776e-05 0.0 
2.793135192776e-05 9.587643079544e-04 0.0 
0.0 0.0 -1.450563315224e-04 
-9.484276981656e-05 -2.674005154729e-05 0.0 
-2.674005154729e-05 6.234132904817e-04 0.0 
0.0 0.0 -9.504591620249e-05 
-1.382279383007e-04 2.787393037445e-05 0.0 
2.787393037445e-05 9.097739666025e-04 0.0 
0.0 0.0 -1.381945852821e-04 
-9.142868377808e-05 2.725850192794e-05 0.0 
2.725850192794e-05 5.832477346610e-04 0.0 
0.0 0.0 -9.142251929393e-05 
-4.742959093977e-05 3.178494059526e-05 0.0 
3.178494059526e-05 2.793740196453e-04 0.0 
0.0 0.0 -4.740468724644e-05 
-8.571259270612e-05 2.828259101351e-05 0.0 
2.828259101351e-05 5.446684396391e-04 0.0 
0.0 0.0 -8.592027974235e-05 
-1.533744480417e-04 2.894142802439e-05 0.0 
2.894142802439e-05 1.015636410024e-03 0.0 
0.0 0.0 -1.535624635791e-04 
-1.726464644829e-04 -3.048637260420e-05 0.0 
-3.048637260420e-05 1.163840887987e-03 0.0 
0.0 0.0 -1.733086171842e-04 
-9.280503597506e-05 2.727322910805e-05 0.0 
2.727322910805e-05 5.925489514016e-04 0.0 
0.0 0.0 -9.272779504641e-05 
-1.556220947506e-04 2.834035430820e-05 0.0 
2.834035430820e-05 1.030951438499e-03 0.0 
0.0 0.0 -1.554407367389e-04 
0.0 0.0 0.0 
0.0 0.0 0.0 
0.0 0.0 0.0 
-9.414991845574e-05 2.689042394907e-05 0.0 
2.689042394907e-05 6.016400273679e-04 0.0 
0.0 0.0 -9.399423243866e-05 
-1.601427960654e-04 -3.089969489527e-05 0.0 
-3.089969489527e-05 1.075322883485e-03 0.0 
0.0 0.0 -1.599578041173e-04 
-8.403714033751e-05 2.869873894183e-05 0.0 
2.869873894183e-05 5.323289088036e-04 0.0 
0.0 0.0 -8.424104700772e-05 
-7.551475753824e-05 -2.649474593413e-05 0.0 
-2.649474593413e-05 4.894460977115e-04 0.0 
0.0 0.0 -7.579321247091e-05 
-1.378493770478e-04 -2.790966319756e-05 0.0 
-2.790966319756e-05 9.196714216363e-04 0.0 
0.0 0.0 -1.378141772466e-04 
-4.197657932346e-05 3.036843921012e-05 0.0 
3.036843921012e-05 2.488746108878e-04 0.0 
0.0 0.0 -4.469345153978e-05 
-6.356553012414e-05 -1.790556961603e-05 0.0 
-1.790556961603e-05 3.571998655218e-04 0.0 
0.0 0.0 -5.800805537475e-05 
-5.963646489739e-05 -2.697912930355e-05 0.0 
-2.697912930355e-05 4.061213774054e-04 0.0 
0.0 0.0 -6.293882513644e-05 
-7.444587698182e-05 2.773637856154e-05 0.0 
2.773637856154e-05 4.649609944167e-04 0.0 
0.0 0.0 -7.460064588462e-05 
-1.268907598115e-04 -2.860718727315e-05 0.0 
-2.860718727315e-05 8.433503837867e-04 0.0 
0.0 0.0 -1.266626700847e-04 
-1.224386685492e-04 2.875829832121e-05 0.0 
2.875829832121e-05 7.993143987396e-04 0.0 
0.0 0.0 -1.222099179032e-04 
-1.550707846259e-04 -3.021300247570e-05 0.0 
-3.021300247570e-05 1.039277942014e-03 0.0 
0.0 0.0 -1.550846054886e-04 
-1.832450820655e-04 1.991288128733e-05 0.0 
1.991288128733e-05 1.215795306098e-03 0.0 
0.0 0.0 -1.836391296960e-04 
-6.655985465225e-05 1.933551370614e-05 0.0 
1.933551370614e-05 4.236408710896e-04 0.0 
0.0 0.0 -6.856221390244e-05 
-1.539423275274e-04 -3.704467856056e-05 0.0 
-3.704467856056e-05 1.025688764769e-03 0.0 
0.0 0.0 -1.542931291103e-04 
-1.848510975897e-04 1.848398553320e-05 0.0 
1.848398553320e-05 1.219703446086e-03 0.0 
0.0 0.0 -1.842621829813e-04 
-8.571771551762e-05 2.855827741082e-05 0.0 
2.855827741082e-05 5.438756567258e-04 0.0 
0.0 0.0 -8.561402555334e-05 
-3.203347885951e-05 3.153292785458e-05 0.0 
3.153292785458e-05 1.785175093333e-04 0.0 
0.0 0.0 -3.288300492123e-05 
-7.987216545887e-05 -2.346764247849e-05 0.0 
-2.346764247849e-05 5.184929031400e-04 0.0 
0.0 0.0 -7.995251146095e-05 
-1.212808198145e-04 -2.827766812275e-05 0.0 
-2.827766812275e-05 8.042920459384e-04 0.0 
0.0 0.0 -1.212446555230e-04 
-1.571887129407e-04 2.934596798488e-05 0.0 
2.934596798488e-05 1.038696799089e-03 0.0 
0.0 0.0 -1.564536520703e-04 
-1.218972312950e-04 2.856394456649e-05 0.0 
2.856394456649e-05 7.946681320418e-04 0.0 
0.0 0.0 -1.216241541690e-04 
-3.687132775950e-05 -1.707295352198e-05 0.0 
-1.707295352198e-05 2.178919936982e-04 0.0 
0.0 0.0 -3.514573890614e-05 
-1.365304663594e-04 -3.020632721963e-05 0.0 
-3.020632721963e-05 9.106175701847e-04 0.0 
0.0 0.0 -1.364410292409e-04 
-5.340251844815e-05 3.227075763275e-05 0.0 
3.227075763275e-05 3.197704478175e-04 0.0 
0.0 0.0 -5.262769246444e-05 
-1.221027789088e-04 -2.890393133813e-05 0.0 
-2.890393133813e-05 8.084198513028e-04 0.0 
0.0 0.0 -1.218536047623e-04 
-1.315166503229e-04 3.036725150384e-05 0.0 
3.036725150384e-05 8.626782461118e-04 0.0 
0.0 0.0 -1.313414595827e-04 
-1.426434875643e-04 2.845461346825e-05 0.0 
2.845461346825e-05 9.398077750181e-04 0.0 
0.0 0.0 -1.423708775668e-04 
-1.391130870296e-04 -2.561595399108e-05 0.0 
-2.561595399108e-05 9.319163416573e-04 0.0 
0.0 0.0 -1.424111980137e-04 
-7.359597002428e-05 -2.624347751830e-05 0.0 
-2.624347751830e-05 4.769960883137e-04 0.0 
0.0 0.0 -7.400431453448e-05 
-3.726862459375e-05 2.779553031089e-05 0.0 
2.779553031089e-05 2.059200017464e-04 0.0 
0.0 0.0 -3.689331396917e-05 
-1.412883241773e-04 3.117267937368e-05 0.0 
3.117267937368e-05 9.320815795036e-04 0.0 
0.0 0.0 -1.412299401741e-04 
-5.695030605691e-05 2.980577594809e-05 0.0 
2.980577594809e-05 3.524536248651e-04 0.0 
0.0 0.0 -5.785728901387e-05 
-1.619887946569e-05 3.142044942513e-05 0.0 
3.142044942513e-05 6.578946746101e-05 0.0 
0.0 0.0 -1.807788326025e-05 
-1.825504858472e-04 2.573963131551e-05 0.0 
2.573963131551e-05 1.217305172889e-03 0.0 
0.0 0.0 -1.835083836816e-04 
-1.729233565602e-04 2.872122229116e-05 0.0 
2.872122229116e-05 1.159887577617e-03 0.0 
0.0 0.0 -1.736153457326e-04 
-1.409164917213e-05 -2.430425574027e-06 0.0 
-2.430425574027e-06 4.702851798331e-05 0.0 
0.0 0.0 -1.411580091908e-05 
-1.463665932977e-04 -3.126704961804e-05 0.0 
-3.126704961804e-05 9.787427797795e-04 0.0 
0.0 0.0 -1.463746444899e-04 
-5.845062236023e-05 -2.645214861765e-05 0.0 
-2.645214861765e-05 3.686249821293e-04 0.0 
0.0 0.0 -5.830856659963e-05 
-6.281564360845e-05 3.169608016734e-05 0.0 
3.169608016734e-05 3.841253318981e-04 0.0 
0.0 0.0 -6.293782921230e-05 
-1.650668794472e-04 2.900743383490e-05 0.0 
2.900743383490e-05 1.099051719168e-03 0.0 
0.0 0.0 -1.651106757487e-04 
-1.420507125182e-04 -2.816985865578e-05 0.0 
-2.816985865578e-05 9.486624777595e-04 0.0 
0.0 0.0 -1.420128425420e-04 
-1.597126278327e-04 2.832051794153e-05 0.0 
2.832051794153e-05 1.060784632571e-03 0.0 
0.0 0.0 -1.597282110823e-04 
-9.370204679761e-05 -2.720544142818e-05 0.0 
-2.720544142818e-05 6.123683048539e-04 0.0 
0.0 0.0 -9.358332744048e-05 
-1.060009958935e-04 3.119096932655e-06 0.0 
3.119096932655e-06 7.289348751363e-04 0.0 
0.0 0.0 -1.065887642422e-04 
-1.941219239478e-04 -5.797046838501e-06 0.0 
-5.797046838501e-06 1.266619729961e-03 0.0 
0.0 0.0 -1.922307546206e-04 
-5.313245642963e-05 3.042191767076e-05 0.0 
3.042191767076e-05 3.144966903172e-04 0.0 
0.0 0.0 -5.312725273093e-05 
-1.687809558173e-04 -2.631258109430e-05 0.0 
-2.631258109430e-05 1.128223470622e-03 0.0 
0.0 0.0 -1.681832374459e-04 
-1.273764443761e-04 -2.878158037897e-05 0.0 
-2.878158037897e-05 8.455758404914e-04 0.0 
0.0 0.0 -1.271565067773e-04 
-3.822255344261e-05 2.500156110728e-05 0.0 
2.500156110728e-05 2.364164359659e-04 0.0 
0.0 0.0 -4.338531818388e-05 
-1.526166386163e-04 2.805935182056e-05 0.0 
2.805935182056e-05 1.007602313688e-03 0.0 
0.0 0.0 -1.522749921841e-04 
-9.947746693308e-05 2.785738393031e-05 0.0 
2.785738393031e-05 6.395594624911e-04 0.0 
0.0 0.0 -9.942043292989e-05 
-2.527098467302e-05 3.065658406321e-06 0.0 
3.065658406321e-06 1.096951272292e-04 0.0 
0.0 0.0 -2.686452779226e-05 
-8.455323570062e-05 2.729291629105e-05 0.0 
2.729291629105e-05 5.361235094493e-04 0.0 
0.0 0.0 -8.448194383576e-05 
-1.482631539770e-04 2.903868462658e-05 0.0 
2.903868462658e-05 9.945552025979e-04 0.0 
0.0 0.0 -1.487312575846e-04 
-1.536438978435e-04 -2.997531100621e-05 0.0 
-2.997531100621e-05 1.028351940357e-03 0.0 
0.0 0.0 -1.531470540813e-04 
-4.003077281978e-05 -2.830715996030e-05 0.0 
-2.830715996030e-05 2.471369193857e-04 0.0 
0.0 0.0 -4.069786302508e-05 
-1.167976821101e-04 -1.770134624163e-05 0.0 
-1.770134624163e-05 8.139301953201e-04 0.0 
0.0 0.0 -1.211443205810e-04 
-1.611165232338e-04 2.978772478272e-05 0.0 
2.978772478272e-05 1.070172218379e-03 0.0 
0.0 0.0 -1.607673801326e-04 
-1.654344347163e-04 -2.702413096073e-05 0.0 
-2.702413096073e-05 1.117079121565e-03 0.0 
0.0 0.0 -1.664840065771e-04 
-8.012874751740e-05 2.708679385402e-05 0.0 
2.708679385402e-05 5.044541792441e-04 0.0 
0.0 0.0 -8.027607217676e-05 
-6.457567760665e-05 2.897485867730e-05 0.0 
2.897485867730e-05 3.931630492274e-04 0.0 
0.0 0.0 -6.500901228657e-05 
-1.319964825975e-04 2.994843719676e-05 0.0 
2.994843719676e-05 8.668112520758e-04 0.0 
0.0 0.0 -1.317940137408e-04 
-1.379973298544e-04 -3.231272729127e-05 0.0 
-3.231272729127e-05 9.176099760799e-04 0.0 
0.0 0.0 -1.391846276019e-04 
-2.511391392826e-05 -2.252014201736e-06 0.0 
-2.252014201736e-06 1.091572524748e-04 0.0 
0.0 0.0 -2.644390370036e-05 
-1.911173997413e-04 2.513512913460e-07 0.0 
2.513512913460e-07 1.307038771946e-03 0.0 
0.0 0.0 -1.903768894597e-04 
-1.947762233824e-04 2.804254327122e-06 0.0 
2.804254327122e-06 1.266513292292e-03 0.0 
0.0 0.0 -1.921796786394e-04 
-1.243941132727e-04 -2.875762744524e-05 0.0 
-2.875762744524e-05 8.122420463557e-04 0.0 
0.0 0.0 -1.258162180156e-04 
-1.867429468804e-04 -3.423015533406e-05 0.0 
-3.423015533406e-05 1.277419804644e-03 0.0 
0.0 0.0 -1.882556412575e-04 
-1.928393192665e-04 1.313739391776e-05 0.0 
1.313739391776e-05 1.270533835261e-03 0.0 
0.0 0.0 -1.928249870753e-04 
-9.825942552837e-05 2.769137061349e-05 0.0 
2.769137061349e-05 6.308847079493e-04 0.0 
0.0 0.0 -9.814123251156e-05 
-9.240950567659e-05 -2.688842748606e-05 0.0 
-2.688842748606e-05 6.034653479681e-04 0.0 
0.0 0.0 -9.230175702903e-05 
-1.924550016248e-04 -5.517505549700e-06 0.0 
-5.517505549700e-06 1.309202189480e-03 0.0 
0.0 0.0 -1.898303498781e-04 
0.0 0.0 0.0 
0.0 0.0 0.0 
0.0 0.0 0.0 
-5.986600181462e-05 3.134474346182e-05 0.0 
3.134474346182e-05 3.637594613067e-04 0.0 
0.0 0.0 -5.912561730725e-05 
-1.277191406744e-04 3.185114804781e-05 0.0 
3.185114804781e-05 8.113680378929e-04 0.0 
0.0 0.0 -1.249421346972e-04 
-7.954199844612e-05 -2.599168722282e-05 0.0 
-2.599168722282e-05 5.172406604270e-04 0.0 
0.0 0.0 -7.970319495692e-05 
-8.344577563047e-05 2.767374510833e-05 0.0 
2.767374510833e-05 5.269368746357e-04 0.0 
0.0 0.0 -8.320397106721e-05 
-5.123352415357e-05 -1.962082412885e-05 0.0 
-1.962082412885e-05 2.833973025222e-04 0.0 
0.0 0.0 -4.794777681703e-05 
-5.363517740645e-05 -2.722736862369e-05 0.0 
-2.722736862369e-05 3.397176592673e-04 0.0 
0.0 0.0 -5.292094912726e-05 
-1.229699465830e-04 -2.474218581881e-05 0.0 
-2.474218581881e-05 8.338820409090e-04 0.0 
0.0 0.0 -1.243503989146e-04 
-8.954054874187e-05 -2.810899154469e-05 0.0 
-2.810899154469e-05 5.833404363378e-04 0.0 
0.0 0.0 -8.944382273678e-05 
-6.985122537492e-05 2.547846832151e-05 0.0 
2.547846832151e-05 4.232868362094e-04 0.0 
0.0 0.0 -6.875210277632e-05 
-1.622986423916e-04 3.030474729067e-05 0.0 
3.030474729067e-05 1.075790270672e-03 0.0 
0.0 0.0 -1.616748170441e-04 
-1.970457297167e-04 -4.615350947609e-07 0.0 
-4.615350947609e-07 1.365353191212e-03 0.0 
0.0 0.0 -1.987468137814e-04 
-2.011643228250e-04 -1.059779547839e-05 0.0 
-1.059779547839e-05 1.364052595584e-03 0.0 
0.0 0.0 -1.980937377599e-04 
-9.693254618166e-05 2.783443467965e-05 0.0 
2.783443467965e-05 6.218009159431e-04 0.0 
0.0 0.0 -9.686140561256e-05 
-1.156312054849e-04 1.562675777246e-05 0.0 
1.562675777246e-05 7.473137010807e-04 0.0 
0.0 0.0 -1.181631233816e-04 
-1.315446083417e-05 9.267234980748e-06 0.0 
9.267234980748e-06 7.174483292748e-05 0.0 
0.0 0.0 -1.382283957119e-05 
-3.950432290439e-05 -3.304652588177e-05 0.0 
-3.304652588177e-05 2.232498512061e-04 0.0 
0.0 0.0 -3.848526569788e-05 
-4.026754611448e-05 -1.523950676683e-05 0.0 
-1.523950676683e-05 2.585395099571e-04 0.0 
0.0 0.0 -4.089435477168e-05 
-4.405717477573e-05 -2.840252196370e-05 0.0 
-2.840252196370e-05 2.593828358352e-04 0.0 
0.0 0.0 -4.353896887732e-05 
-1.369891124347e-04 -2.938640967182e-05 0.0 
-2.938640967182e-05 9.110848461242e-04 0.0 
0.0 0.0 -1.367406709454e-04 
-8.197230901988e-05 2.741985235272e-05 0.0 
2.741985235272e-05 5.176025942286e-04 0.0 
0.0 0.0 -8.189493801327e-05 
-8.833783776842e-05 -2.742859021068e-05 0.0 
-2.742859021068e-05 5.752104247670e-04 0.0 
0.0 0.0 -8.819787836180e-05 
-2.759805077317e-05 -2.177954618106e-05 0.0 
-2.177954618106e-05 1.516326812049e-04 0.0 
0.0 0.0 -2.410601229523e-05 
-1.783949706295e-04 4.652042299768e-06 0.0 
4.652042299768e-06 1.155328432911e-03 0.0 
0.0 0.0 -1.764490618968e-04 
-8.697929300319e-05 -2.712992243026e-05 0.0 
-2.712992243026e-05 5.660070619168e-04 0.0 
0.0 0.0 -8.689161518363e-05 
-1.811862770176e-04 2.958422209347e-05 0.0 
2.958422209347e-05 1.212546250600e-03 0.0 
0.0 0.0 -1.819436774484e-04 
-1.654326848783e-04 -2.150075195991e-05 0.0 
-2.150075195991e-05 1.111682717818e-03 0.0 
0.0 0.0 -1.676190675002e-04 
-1.990579489887e-04 7.558524711792e-06 0.0 
7.558524711792e-06 1.367618541641e-03 0.0 
0.0 0.0 -1.979127976728e-04 
-1.984740657803e-04 6.169813976071e-06 0.0 
6.169813976071e-06 1.366684838106e-03 0.0 
0.0 0.0 -1.987274449783e-04 
-1.264382104229e-04 2.327908082404e-05 0.0 
2.327908082404e-05 8.335131054815e-04 0.0 
0.0 0.0 -1.247270797671e-04 
-9.081273998971e-05 -2.642393334738e-05 0.0 
-2.642393334738e-05 5.943836386239e-04 0.0 
0.0 0.0 -9.095240399918e-05 
-5.659837629473e-05 2.310276724227e-05 0.0 
2.310276724227e-05 3.554825826269e-04 0.0 
0.0 0.0 -5.827376162698e-05 
-9.543789626242e-05 2.821234483008e-05 0.0 
2.821234483008e-05 6.121934733358e-04 0.0 
0.0 0.0 -9.551854370315e-05 
-2.014992525441e-04 -3.363348043908e-06 0.0 
-3.363348043908e-06 1.330768717372e-03 0.0 
0.0 0.0 -2.014992525440e-04 
-2.911856940717e-05 -3.120254985375e-05 0.0 
-3.120254985375e-05 1.523266154115e-04 0.0 
0.0 0.0 -2.840051313461e-05 
-3.367815072839e-05 -2.539476975202e-05 0.0 
-2.539476975202e-05 1.888854888445e-04 0.0 
0.0 0.0 -3.342821812567e-05 
-1.750673059660e-04 -2.242675268741e-05 0.0 
-2.242675268741e-05 1.168754862597e-03 0.0 
0.0 0.0 -1.734041932760e-04 
-1.140629508000e-04 1.641024004697e-06 0.0 
1.641024004697e-06 7.886218254393e-04 0.0 
0.0 0.0 -1.157284414847e-04 
-1.828276393895e-04 3.087967014604e-05 0.0 
3.087967014604e-05 1.221678860241e-03 0.0 
0.0 0.0 -1.828919613360e-04 
-1.607219730026e-04 -3.054484747269e-05 0.0 
-3.054484747269e-05 1.076626864861e-03 0.0 
0.0 0.0 -1.604417944905e-04 
-1.759974315114e-04 2.950983775753e-05 0.0 
2.950983775753e-05 1.175337678647e-03 0.0 
0.0 0.0 -1.762554578086e-04 
-1.677687622884e-04 -3.310916950601e-05 0.0 
-3.310916950601e-05 1.126220187005e-03 0.0 
0.0 0.0 -1.670365378361e-04 
-1.261810872000e-04 2.733892666963e-05 0.0 
2.733892666963e-05 8.227216474371e-04 0.0 
0.0 0.0 -1.281412631256e-04 
-6.984160407426e-05 -2.569852845702e-05 0.0 
-2.569852845702e-05 4.502664572317e-04 0.0 
0.0 0.0 -7.011576570921e-05 
-7.045526019658e-05 2.772076042237e-05 0.0 
2.772076042237e-05 4.380896674180e-04 0.0 
0.0 0.0 -7.073545507566e-05 
-1.466548664850e-04 2.792940741624e-05 0.0 
2.792940741624e-05 9.823660011168e-04 0.0 
0.0 0.0 -1.494458990106e-04 
-1.706023771645e-04 -3.477697252798e-05 0.0 
-3.477697252798e-05 1.150206027511e-03 0.0 
0.0 0.0 -1.713759566437e-04 
-1.085001106667e-04 5.928666841059e-06 0.0 
5.928666841059e-06 6.853690661460e-04 0.0 
0.0 0.0 -1.101783339608e-04 
-1.150649004483e-04 1.412858253897e-06 0.0 
1.412858253897e-06 7.864362268725e-04 0.0 
0.0 0.0 -1.151410349708e-04 
-1.223216217609e-04 -9.643435354381e-06 0.0 
-9.643435354381e-06 8.365929199838e-04 0.0 
0.0 0.0 -1.236345454383e-04 
-1.294729616351e-04 -3.600365409418e-05 0.0 
-3.600365409418e-05 8.499666954327e-04 0.0 
0.0 0.0 -1.270110218628e-04 
-3.781341392471e-05 2.507622857635e-05 0.0 
2.507622857635e-05 2.052845259731e-04 0.0 
0.0 0.0 -3.595854163006e-05 
-6.458682171984e-05 2.659164458955e-05 0.0 
2.659164458955e-05 3.972184272214e-04 0.0 
0.0 0.0 -6.502768632134e-05 
-1.923886982600e-04 1.320998767323e-05 0.0 
1.320998767323e-05 1.306937799646e-03 0.0 
0.0 0.0 -1.903965550180e-04 
-1.361980047059e-04 -3.247265742576e-05 0.0 
-3.247265742576e-05 9.100748945017e-04 0.0 
0.0 0.0 -1.372586556570e-04 
-1.944603101426e-04 2.205610195430e-05 0.0 
2.205610195430e-05 1.300606094326e-03 0.0 
0.0 0.0 -1.942983085767e-04 
-1.827075834453e-04 -2.487186144062e-05 0.0 
-2.487186144062e-05 1.245028194062e-03 0.0 
0.0 0.0 -1.823366321910e-04 
-1.526241956249e-04 -2.882515710348e-05 0.0 
-2.882515710348e-05 1.018355065020e-03 0.0 
0.0 0.0 -1.518848343264e-04 
-1.838055376607e-04 -2.220867482896e-05 0.0 
-2.220867482896e-05 1.227930453973e-03 0.0 
0.0 0.0 -1.822360600334e-04 
-9.189141723329e-05 2.249896247985e-05 0.0 
2.249896247985e-05 5.929179490977e-04 0.0 
0.0 0.0 -9.456744988920e-05 
-8.923687427635e-05 2.330452976089e-05 0.0 
2.330452976089e-05 5.640846174988e-04 0.0 
0.0 0.0 -8.500284120953e-05 
-1.860377161479e-04 2.101899850403e-05 0.0 
2.101899850403e-05 1.219211786622e-03 0.0 
0.0 0.0 -1.840276857211e-04 
-1.302266885565e-05 9.542950408396e-06 0.0 
9.542950408396e-06 4.432884133333e-05 0.0 
0.0 0.0 -1.341693106186e-05 
-5.991703112053e-05 -9.650650547908e-06 0.0 
-9.650650547908e-06 3.995700475142e-04 0.0 
0.0 0.0 -6.107461134110e-05 
-2.013608632250e-04 -1.747935064146e-06 0.0 
-1.747935064146e-06 1.327091793787e-03 0.0 
0.0 0.0 -2.013608632250e-04 
-3.423275746667e-05 -2.897869870394e-05 0.0 
-2.897869870394e-05 1.741934079208e-04 0.0 
0.0 0.0 -3.398704224317e-05 
-1.166987184465e-04 3.376260708005e-06 0.0 
3.376260708005e-06 7.464150060637e-04 0.0 
0.0 0.0 -1.180517715949e-04 
-1.852951862543e-04 -6.895901531864e-06 0.0 
-6.895901531864e-06 1.252882415007e-03 0.0 
0.0 0.0 -1.820192905179e-04 
-2.189567273794e-05 2.107266617838e-05 0.0 
2.107266617838e-05 1.234442803628e-04 0.0 
0.0 0.0 -2.343543478003e-05 
-1.465373239062e-05 -6.700273643796e-06 0.0 
-6.700273643796e-06 8.151640789741e-05 0.0 
0.0 0.0 -1.499806864391e-05 
-1.979646109231e-04 -1.647947049056e-05 0.0 
-1.647947049056e-05 1.362929175419e-03 0.0 
0.0 0.0 -1.986584787576e-04 
-1.077110760694e-04 1.347870292468e-05 0.0 
1.347870292468e-05 6.884288505410e-04 0.0 
0.0 0.0 -1.094181415373e-04 
-1.878064882795e-04 3.303246132633e-05 0.0 
3.303246132633e-05 1.280874072015e-03 0.0 
0.0 0.0 -1.892127523904e-04 
-1.872574646803e-04 1.669387870556e-06 0.0 
1.669387870556e-06 1.214710811889e-03 0.0 
0.0 0.0 -1.847787516803e-04 
-1.081384153803e-04 -8.265982315710e-06 0.0 
-8.265982315710e-06 6.863175329085e-04 0.0 
0.0 0.0 -1.093391956339e-04 
-1.183108474329e-05 -1.526745450730e-06 0.0 
-1.526745450730e-06 8.288041116295e-05 0.0 
0.0 0.0 -1.461037633882e-05 
-1.928461778371e-04 -1.450363078147e-05 0.0 
-1.450363078147e-05 1.269631515360e-03 0.0 
0.0 0.0 -1.926211076318e-04 
-3.664328028393e-05 -3.474192895717e-05 0.0 
-3.474192895717e-05 2.008554549357e-04 0.0 
0.0 0.0 -3.650318340572e-05 
-1.865092181227e-04 1.872239000524e-05 0.0 
1.872239000524e-05 1.228864859043e-03 0.0 
0.0 0.0 -1.848276476440e-04 
-2.014642658289e-04 -8.318866801384e-08 0.0 
-8.318866801384e-08 1.329164711416e-03 0.0 
0.0 0.0 -2.014642658289e-04 
-1.863725232052e-04 -2.215017484820e-05 0.0 
-2.215017484820e-05 1.224672282405e-03 0.0 
0.0 0.0 -1.838550531888e-04 
-4.579760219593e-05 2.993393437161e-05 0.0 
2.993393437161e-05 2.630911927245e-04 0.0 
0.0 0.0 -4.567146191493e-05 
-1.231376912533e-04 3.302421736628e-06 0.0 
3.302421736628e-06 8.455036824614e-04 0.0 
0.0 0.0 -1.241871602230e-04 
-9.897320674459e-05 -1.982042870943e-05 0.0 
-1.982042870943e-05 6.300759750379e-04 0.0 
0.0 0.0 -9.407984802336e-05 
-1.609514246157e-04 -3.024200816091e-05 0.0 
-3.024200816091e-05 1.078541844928e-03 0.0 
0.0 0.0 -1.616399041023e-04 
-1.984206323310e-04 -1.383870975889e-05 0.0 
-1.383870975889e-05 1.364918109129e-03 0.0 
0.0 0.0 -1.990496603105e-04 
-1.603101285724e-04 1.893623053607e-05 0.0 
1.893623053607e-05 1.069942872822e-03 0.0 
0.0 0.0 -1.592422372747e-04 
-2.006038303863e-04 1.656223959945e-05 0.0 
1.656223959945e-05 1.363483438763e-03 0.0 
0.0 0.0 -1.988805961512e-04 
-2.157799468526e-05 2.675018284335e-05 0.0 
2.675018284335e-05 1.121671203490e-04 0.0 
0.0 0.0 -2.573693149021e-05 
-1.906849838871e-04 -1.873571465641e-05 0.0 
-1.873571465641e-05 1.306053010621e-03 0.0 
0.0 0.0 -1.916484765783e-04 
-5.146266627946e-05 1.897216913104e-05 0.0 
1.897216913104e-05 3.060778228498e-04 0.0 
0.0 0.0 -5.033941334868e-05 
-3.400990015803e-05 1.312678026193e-05 0.0 
1.312678026193e-05 1.676110055634e-04 0.0 
0.0 0.0 -3.447177322316e-05 
-1.921352674404e-04 -1.514543928923e-05 0.0 
-1.514543928923e-05 1.307880338866e-03 0.0 
0.0 0.0 -1.905503066306e-04 
-1.903818942750e-04 -8.555148187785e-06 0.0 
-8.555148187785e-06 1.309224873111e-03 0.0 
0.0 0.0 -1.905905039252e-04 
-1.935313273260e-04 -2.488564283104e-05 0.0 
-2.488564283104e-05 1.299799287321e-03 0.0 
0.0 0.0 -1.934776258129e-04 
-1.157635836836e-04 3.075917002700e-05 0.0 
3.075917002700e-05 7.564878727472e-04 0.0 
0.0 0.0 -1.164394980702e-04 
-1.278320406392e-04 3.003959765809e-05 0.0 
3.003959765809e-05 8.242995150328e-04 0.0 
0.0 0.0 -1.273429404365e-04 
-4.747607610046e-05 -3.167630139555e-05 0.0 
-3.167630139555e-05 2.832612339686e-04 0.0 
0.0 0.0 -4.701750159920e-05 
-1.893682873149e-04 -1.213845527048e-05 0.0 
-1.213845527048e-05 1.308095530746e-03 0.0 
0.0 0.0 -1.909562210215e-04 
-7.758444785249e-05 2.579970670889e-05 0.0 
2.579970670889e-05 5.061981746731e-04 0.0 
0.0 0.0 -8.036225567980e-05 
-2.672886924063e-05 -2.537961056617e-05 0.0 
-2.537961056617e-05 1.614624818245e-04 0.0 
0.0 0.0 -3.171414542872e-05 
-1.655918154031e-04 2.787053237580e-05 0.0 
2.787053237580e-05 1.112934476303e-03 0.0 
0.0 0.0 -1.665212293607e-04 
-1.050972551552e-04 -3.025884205917e-06 0.0 
-3.025884205917e-06 7.225874036591e-04 0.0 
0.0 0.0 -1.064449299410e-04 
-1.855125743211e-04 2.284061724598e-05 0.0 
2.284061724598e-05 1.238197266214e-03 0.0 
0.0 0.0 -1.856594579394e-04 
-1.969980593816e-04 -2.792765841710e-05 0.0 
-2.792765841710e-05 1.348466243731e-03 0.0 
0.0 0.0 -1.982264973081e-04 
-2.015598306414e-04 -1.228437926459e-06 0.0 
-1.228437926459e-06 1.329727235481e-03 0.0 
0.0 0.0 -2.015598306414e-04 
-3.170965654814e-06 -9.174846607934e-06 0.0 
-9.174846607934e-06 3.186703010945e-05 0.0 
0.0 0.0 -6.440169358563e-06 
-2.054361880700e-06 8.524325078712e-06 0.0 
8.524325078712e-06 1.000738199139e-05 0.0 
0.0 0.0 -3.408437190294e-06 
-1.090415563488e-04 -2.544674541070e-05 0.0 
-2.544674541070e-05 7.025551525996e-04 0.0 
0.0 0.0 -1.097735026919e-04 
-1.102790978540e-04 4.096896239264e-06 0.0 
4.096896239264e-06 7.242490524547e-04 0.0 
0.0 0.0 -1.064401693586e-04 
-2.015598306414e-04 1.769844580753e-06 0.0 
1.769844580753e-06 1.328559462674e-03 0.0 
0.0 0.0 -2.015598306414e-04 
-1.964566527274e-04 2.745948387429e-05 0.0 
2.745948387429e-05 1.347766645467e-03 0.0 
0.0 0.0 -1.982264973081e-04 
-1.175853557175e-05 2.296138750723e-05 0.0 
2.296138750723e-05 7.476526502358e-05 0.0 
0.0 0.0 -1.468179278604e-05 
0.0 0.0 0.0 
0.0 0.0 0.0 
0.0 0.0 0.0 
-1.860643112087e-04 1.892522092608e-05 0.0 
1.892522092608e-05 1.220604956089e-03 0.0 
0.0 0.0 -1.845272605536e-04 
-1.810613338557e-04 3.690531828789e-05 0.0 
3.690531828789e-05 1.227609320804e-03 0.0 
0.0 0.0 -1.814046177210e-04 
-3.775454928550e-05 -2.192142162525e-05 0.0 
-2.192142162525e-05 2.530653962175e-04 0.0 
0.0 0.0 -4.069012186385e-05 
-1.867893258397e-04 -1.967907292950e-05 0.0 
-1.967907292950e-05 1.242445273872e-03 0.0 
0.0 0.0 -1.860287822001e-04 
-1.322273957044e-04 -7.821980177849e-06 0.0 
-7.821980177849e-06 8.613081851453e-04 0.0 
0.0 0.0 -1.333256398531e-04 
-1.174513720599e-04 -2.922099993004e-05 0.0 
-2.922099993004e-05 7.623791286875e-04 0.0 
0.0 0.0 -1.141619444601e-04 
-1.434157263431e-04 1.469820453960e-05 0.0 
1.469820453960e-05 9.640681819544e-04 0.0 
0.0 0.0 -1.410117391569e-04 
-3.721642999109e-05 2.244542666226e-05 0.0 
2.244542666226e-05 2.273693429633e-04 0.0 
0.0 0.0 -3.939304728150e-05 
-1.516361842959e-04 -3.045658684071e-05 0.0 
-3.045658684071e-05 1.014390478774e-03 0.0 
0.0 0.0 -1.517486197524e-04 
-3.145165589743e-05 4.872235620209e-06 0.0 
4.872235620209e-06 2.090450929269e-04 0.0 
0.0 0.0 -3.272226055558e-05 
-1.018895751593e-04 -2.838951770175e-05 0.0 
-2.838951770175e-05 6.787429923759e-04 0.0 
0.0 0.0 -1.049612269729e-04 
-1.842198203986e-04 1.688848171670e-05 0.0 
1.688848171670e-05 1.232258602772e-03 0.0 
0.0 0.0 -1.860778644041e-04 
-1.784559347742e-04 -3.196727202869e-05 0.0 
-3.196727202869e-05 1.203750059331e-03 0.0 
0.0 0.0 -1.787589168632e-04 
-1.106507503052e-04 1.655731803460e-05 0.0 
1.655731803460e-05 7.326885674445e-04 0.0 
0.0 0.0 -1.153641303439e-04 
-1.319245288081e-04 -2.759428203750e-05 0.0 
-2.759428203750e-05 8.842042796758e-04 0.0 
0.0 0.0 -1.311848925397e-04 
-1.849952147230e-04 1.224005731978e-05 0.0 
1.224005731978e-05 1.253709795229e-03 0.0 
0.0 0.0 -1.825679017964e-04 
-1.712361580956e-04 -3.249029055204e-05 0.0 
-3.249029055204e-05 1.152848638026e-03 0.0 
0.0 0.0 -1.711417214974e-04 
-1.621790656513e-04 -3.130066982025e-05 0.0 
-3.130066982025e-05 1.085309995837e-03 0.0 
0.0 0.0 -1.614640498619e-04 
-1.095991344629e-04 1.548110486480e-06 0.0 
1.548110486480e-06 6.849847840864e-04 0.0 
0.0 0.0 -1.096818516252e-04 
-1.466797614329e-04 -3.177988380746e-05 0.0 
-3.177988380746e-05 9.793946946612e-04 0.0 
0.0 0.0 -1.464567251102e-04 
-1.856217654582e-04 1.836261976242e-05 0.0 
1.836261976242e-05 1.223913084915e-03 0.0 
0.0 0.0 -1.847107394661e-04 
-6.401317792094e-05 1.777757210555e-05 0.0 
1.777757210555e-05 3.770292953028e-04 0.0 
0.0 0.0 -6.251951766002e-05 
-1.488249501970e-05 -6.661613433420e-06 0.0 
-6.661613433420e-06 9.049355169821e-05 0.0 
0.0 0.0 -1.522736731176e-05 
-1.794781203063e-04 -2.177148621612e-05 0.0 
-2.177148621612e-05 1.190948333360e-03 0.0 
0.0 0.0 -1.778962838413e-04 
-1.689754393540e-04 2.666341982877e-05 0.0 
2.666341982877e-05 1.121590302909e-03 0.0 
0.0 0.0 -1.685307334786e-04 
-3.117516894872e-05 -1.620379493923e-05 0.0 
-1.620379493923e-05 1.675088401558e-04 0.0 
0.0 0.0 -3.460570515138e-05 
-1.490209525484e-04 -2.398959439852e-05 0.0 
-2.398959439852e-05 1.009624786866e-03 0.0 
0.0 0.0 -1.484000725648e-04 
-1.941728230886e-04 -6.317229650202e-06 0.0 
-6.317229650202e-06 1.268109449836e-03 0.0 
0.0 0.0 -1.924109378829e-04 
-1.782640686020e-04 1.811418483105e-05 0.0 
1.811418483105e-05 1.176788769021e-03 0.0 
0.0 0.0 -1.773110165667e-04 
-1.844275111855e-04 -4.383617168842e-06 0.0 
-4.383617168842e-06 1.252791151838e-03 0.0 
0.0 0.0 -1.822694409164e-04 
-1.426350801095e-04 -3.166405234979e-05 0.0 
-3.166405234979e-05 9.429700556337e-04 0.0 
0.0 0.0 -1.430568974379e-04 
-1.367048638434e-05 7.547793984128e-06 0.0 
7.547793984128e-06 4.809613176051e-05 0.0 
0.0 0.0 -1.475384801836e-05 
-4.817205637438e-05 1.518979907033e-05 0.0 
1.518979907033e-05 2.815959802160e-04 0.0 
0.0 0.0 -4.818665537949e-05 
-5.802518359896e-05 -3.237118775929e-05 0.0 
-3.237118775929e-05 3.560287674836e-04 0.0 
0.0 0.0 -5.751524148975e-05 
-1.222811217371e-04 4.923148903369e-06 0.0 
4.923148903369e-06 8.049151145100e-04 0.0 
0.0 0.0 -1.270714490912e-04 
-1.466466955193e-04 3.242901086422e-05 0.0 
3.242901086422e-05 9.717833108994e-04 0.0 
0.0 0.0 -1.467240436239e-04 
-1.865030099579e-04 -2.458316919408e-05 0.0 
-2.458316919408e-05 1.244081238438e-03 0.0 
0.0 0.0 -1.854811886535e-04 
-1.924470582108e-04 1.025180310993e-05 0.0 
1.025180310993e-05 1.267008412016e-03 0.0 
0.0 0.0 -1.923487814140e-04 
-2.301609062590e-05 -4.635179033559e-06 0.0 
-4.635179033559e-06 1.491120452597e-04 0.0 
0.0 0.0 -2.371590567936e-05 
-2.273962015617e-05 8.021387614828e-06 0.0 
8.021387614828e-06 1.424948937247e-04 0.0 
0.0 0.0 -2.307420961409e-05 
-3.644996023323e-05 3.054667220110e-05 0.0 
3.054667220110e-05 2.219148594571e-04 0.0 
0.0 0.0 -3.877784743978e-05 
-1.505507532998e-04 4.198429125548e-05 0.0 
4.198429125548e-05 1.006744199268e-03 0.0 
0.0 0.0 -1.528863196834e-04 
-7.623962459717e-05 -2.731195048099e-05 0.0 
-2.731195048099e-05 4.837899918121e-04 0.0 
0.0 0.0 -7.429924588525e-05 
-1.863524508622e-04 -2.262089027383e-05 0.0 
-2.262089027383e-05 1.249803366509e-03 0.0 
0.0 0.0 -1.861947641336e-04 
-3.704741075814e-05 -2.601020683146e-05 0.0 
-2.601020683146e-05 2.394628484622e-04 0.0 
0.0 0.0 -3.935861431135e-05 
-1.838103394031e-04 1.452656825211e-05 0.0 
1.452656825211e-05 1.213648829434e-03 0.0 
0.0 0.0 -1.831728902790e-04 
-1.220456595190e-04 2.683931147050e-05 0.0 
2.683931147050e-05 8.169008266022e-04 0.0 
0.0 0.0 -1.251559851210e-04 
-1.901741937142e-04 2.069168076266e-07 0.0 
2.069168076266e-07 1.274360012601e-03 0.0 
0.0 0.0 -1.930223408588e-04 
-1.664726505804e-04 -3.515055495158e-05 0.0 
-3.515055495158e-05 1.122391429995e-03 0.0 
0.0 0.0 -1.666682952710e-04 
-1.230362842828e-04 -1.324599728564e-05 0.0 
-1.324599728564e-05 8.068584181325e-04 0.0 
0.0 0.0 -1.269771275557e-04 
-1.906319308292e-04 -7.278184392237e-06 0.0 
-7.278184392237e-06 1.308928167031e-03 0.0 
0.0 0.0 -1.903713883127e-04 
-1.924018578301e-04 1.168444968946e-05 0.0 
1.168444968946e-05 1.309753043894e-03 0.0 
0.0 0.0 -1.909090898364e-04 
-1.885954729481e-04 9.336154218136e-06 0.0 
9.336154218136e-06 1.306961112302e-03 0.0 
0.0 0.0 -1.907009018511e-04 
-2.601124528020e-05 2.982465109596e-05 0.0 
2.982465109596e-05 1.494137909599e-04 0.0 
0.0 0.0 -2.872079986757e-05 
-1.827342744304e-04 2.617845691474e-05 0.0 
2.617845691474e-05 1.218950538624e-03 0.0 
0.0 0.0 -1.827464329712e-04 
-1.931535913243e-04 4.402691257463e-06 0.0 
4.402691257463e-06 1.267632643707e-03 0.0 
0.0 0.0 -1.929967939697e-04 
-1.822938180469e-04 -1.572479834584e-05 0.0 
-1.572479834584e-05 1.239626265032e-03 0.0 
0.0 0.0 -1.817603729293e-04 
-1.697190279031e-04 3.374893720717e-05 0.0 
3.374893720717e-05 1.140711286613e-03 0.0 
0.0 0.0 -1.714881096122e-04 
-2.013997750954e-04 3.693939357452e-06 0.0 
3.693939357452e-06 1.326398449399e-03 0.0 
0.0 0.0 -2.013997750954e-04 
-1.623768653750e-04 3.145458215279e-05 0.0 
3.145458215279e-05 1.075477552169e-03 0.0 
0.0 0.0 -1.618597882954e-04 
0.0 0.0 0.0 
0.0 0.0 0.0 
0.0 0.0 0.0 
-3.901664739789e-05 -3.107536671977e-05 0.0 
-3.107536671977e-05 2.123759730741e-04 0.0 
0.0 0.0 -3.635714225545e-05 
-1.788762468223e-04 -2.668815126998e-05 0.0 
-2.668815126998e-05 1.194169313249e-03 0.0 
0.0 0.0 -1.765404546707e-04 
-1.302843948315e-04 2.373413498694e-05 0.0 
2.373413498694e-05 8.753673031711e-04 0.0 
0.0 0.0 -1.332692038199e-04 
-1.814833852286e-04 -2.932987962222e-05 0.0 
-2.932987962222e-05 1.228315456518e-03 0.0 
0.0 0.0 -1.832991189648e-04 
-1.755755594055e-04 -3.314975176265e-05 0.0 
-3.314975176265e-05 1.186338389567e-03 0.0 
0.0 0.0 -1.765514316642e-04 
-1.922058959132e-04 -7.323986232709e-06 0.0 
-7.323986232709e-06 1.275540875639e-03 0.0 
0.0 0.0 -1.938374750990e-04 
-1.590886801341e-04 3.535348640505e-05 0.0 
3.535348640505e-05 1.086454937064e-03 0.0 
0.0 0.0 -1.628282188246e-04 
-1.943136192193e-04 -2.017280466188e-06 0.0 
-2.017280466188e-06 1.274660348820e-03 0.0 
0.0 0.0 -1.933460184500e-04 
-1.860409899402e-04 -2.465939863213e-05 0.0 
-2.465939863213e-05 1.243243537266e-03 0.0 
0.0 0.0 -1.849983659001e-04 
-1.854493454621e-04 2.521523578023e-05 0.0 
2.521523578023e-05 1.237363143253e-03 0.0 
0.0 0.0 -1.852565349593e-04 
-7.800610219477e-05 -1.750136496523e-05 0.0 
-1.750136496523e-05 5.077823231346e-04 0.0 
0.0 0.0 -7.657446018549e-05 
-1.940082963474e-04 -3.011324743449e-06 0.0 
-3.011324743449e-06 1.367135927910e-03 0.0 
0.0 0.0 -1.988462912301e-04 
-1.122847898646e-04 2.150658952302e-06 0.0 
2.150658952302e-06 7.831127334676e-04 0.0 
0.0 0.0 -1.149322996356e-04 
-1.805030425337e-04 -2.769681372488e-05 0.0 
-2.769681372488e-05 1.229209747324e-03 0.0 
0.0 0.0 -1.826109592864e-04 
-2.210772205688e-05 -1.141237861015e-05 0.0 
-1.141237861015e-05 1.058730840806e-04 0.0 
0.0 0.0 -2.642964691976e-05 
-1.709643782764e-04 -1.864471641412e-05 0.0 
-1.864471641412e-05 1.187155150464e-03 0.0 
0.0 0.0 -1.744803730939e-04 
-1.477070854664e-04 -4.391729024467e-06 0.0 
-4.391729024467e-06 1.020449993757e-03 0.0 
0.0 0.0 -1.488920056885e-04 
-2.536340853786e-05 -1.617904342885e-05 0.0 
-1.617904342885e-05 1.410312003150e-04 0.0 
0.0 0.0 -2.442930455436e-05 
-4.478297823031e-05 -3.360325145203e-05 0.0 
-3.360325145203e-05 2.463363294936e-04 0.0 
0.0 0.0 -4.105386472454e-05 
-1.667572652522e-04 3.269260421942e-05 0.0 
3.269260421942e-05 1.106671823298e-03 0.0 
0.0 0.0 -1.661371793467e-04 
-1.939345119211e-04 -2.917973958076e-06 0.0 
-2.917973958076e-06 1.271284650607e-03 0.0 
0.0 0.0 -1.928053293992e-04 
-1.848839491830e-04 -2.511864242369e-05 0.0 
-2.511864242369e-05 1.245193806993e-03 0.0 
0.0 0.0 -1.835875952628e-04 
-1.881692614413e-04 3.512850772842e-05 0.0 
3.512850772842e-05 1.283926120996e-03 0.0 
0.0 0.0 -1.897169183402e-04 
-1.319951739136e-04 3.692265338647e-05 0.0 
3.692265338647e-05 8.669086104393e-04 0.0 
0.0 0.0 -1.321134885410e-04 
-1.418897775030e-05 -1.383603751222e-06 0.0 
-1.383603751222e-06 8.390464903167e-05 0.0 
0.0 0.0 -1.533750852324e-05 
-1.776342507387e-05 2.898590661281e-05 0.0 
2.898590661281e-05 1.254111435077e-04 0.0 
0.0 0.0 -2.291448659297e-05 
-2.228661035164e-05 3.086208171882e-05 0.0 
3.086208171882e-05 7.414588274207e-05 0.0 
0.0 0.0 -1.893168834827e-05 
-2.834935998913e-05 -2.581094466031e-05 0.0 
-2.581094466031e-05 1.798484559935e-04 0.0 
0.0 0.0 -3.120083896163e-05 
-3.619195444299e-06 1.726688320319e-05 0.0 
1.726688320319e-05 1.889854846973e-05 0.0 
0.0 0.0 -6.548294153755e-06 
-9.846508312271e-05 1.947611327116e-05 0.0 
1.947611327116e-05 6.774458586389e-04 0.0 
0.0 0.0 -1.012995679080e-04 
-1.809123785598e-04 2.900682068589e-05 0.0 
2.900682068589e-05 1.227040363573e-03 0.0 
0.0 0.0 -1.833458990909e-04 
-1.833994977543e-04 2.630052083884e-05 0.0 
2.630052083884e-05 1.234115337032e-03 0.0 
0.0 0.0 -1.834249670905e-04 
-1.300388728735e-04 -2.726917383980e-05 0.0 
-2.726917383980e-05 8.766264197221e-04 0.0 
0.0 0.0 -1.323946974752e-04 
-9.060072859628e-05 -4.107401100024e-05 0.0 
-4.107401100024e-05 5.837911416729e-04 0.0 
0.0 0.0 -8.982794765771e-05 
-1.833530943830e-04 -2.415896483629e-05 0.0 
-2.415896483629e-05 1.239029730488e-03 0.0 
0.0 0.0 -1.831601862249e-04 
-1.805620370494e-04 3.417310065365e-05 0.0 
3.417310065365e-05 1.228469068547e-03 0.0 
0.0 0.0 -1.813053981465e-04 
-1.918538788466e-04 1.314902849118e-05 0.0 
1.314902849118e-05 1.311238991232e-03 0.0 
0.0 0.0 -1.908378613718e-04 
-1.864057830892e-04 -5.544571809971e-06 0.0 
-5.544571809971e-06 1.222330684115e-03 0.0 
0.0 0.0 -1.856133406407e-04 
-1.761014518088e-04 2.982850443616e-05 0.0 
2.982850443616e-05 1.172453916966e-03 0.0 
0.0 0.0 -1.756848094018e-04 
-2.508081297429e-05 1.384675978348e-05 0.0 
1.384675978348e-05 1.057075733602e-04 0.0 
0.0 0.0 -2.599564028619e-05 
-1.693383348172e-05 -2.312304690448e-05 0.0 
-2.312304690448e-05 1.227259030012e-04 0.0 
0.0 0.0 -2.162456296189e-05 
-1.849301832798e-04 -2.375114059264e-05 0.0 
-2.375114059264e-05 1.241181941517e-03 0.0 
0.0 0.0 -1.835494310512e-04 
-2.714207379428e-05 4.098769542459e-06 0.0 
4.098769542459e-06 1.072549946886e-04 0.0 
0.0 0.0 -2.642284971932e-05 
-3.135918366895e-05 4.019659049340e-05 0.0 
4.019659049340e-05 1.551282952784e-04 0.0 
0.0 0.0 -2.899999999997e-05 
-2.063383903873e-05 2.842818060864e-05 0.0 
2.842818060864e-05 9.408870534126e-05 0.0 
0.0 0.0 -2.215380543414e-05 
-2.425090272541e-05 -2.758476542693e-05 0.0 
-2.758476542693e-05 1.189291029536e-04 0.0 
0.0 0.0 -2.370445218759e-05 
-1.950651601912e-04 -1.537310237433e-06 0.0 
-1.537310237433e-06 1.272610956963e-03 0.0 
0.0 0.0 -1.932856728082e-04 
-1.944294159836e-04 -1.137183943863e-05 0.0 
-1.137183943863e-05 1.275116374494e-03 0.0 
0.0 0.0 -1.935170455059e-04 
-1.886696034913e-04 2.831262697735e-05 0.0 
2.831262697735e-05 1.244837435708e-03 0.0 
0.0 0.0 -1.855361636489e-04 
-1.959472726026e-04 1.351216090017e-08 0.0 
1.351216090017e-08 1.278564115673e-03 0.0 
0.0 0.0 -1.938907836251e-04 
-1.787271859105e-04 -2.284872940721e-05 0.0 
-2.284872940721e-05 1.187153147202e-03 0.0 
0.0 0.0 -1.765318707366e-04 
-1.351456084785e-04 3.971362658995e-05 0.0 
3.971362658995e-05 9.093020497765e-04 0.0 
0.0 0.0 -1.375519566527e-04 
-2.017604167332e-04 -1.836539241269e-06 0.0 
-1.836539241269e-06 1.330878883476e-03 0.0 
0.0 0.0 -2.017604167332e-04 
-4.752774343128e-05 -1.713587701896e-05 0.0 
-1.713587701896e-05 3.107525644044e-04 0.0 
0.0 0.0 -4.996133636201e-05 
-1.024919488492e-04 4.191622503833e-07 0.0 
4.191622503833e-07 7.218789940397e-04 0.0 
0.0 0.0 -1.062461082510e-04 
-2.975599916326e-05 9.106261967341e-06 0.0 
9.106261967341e-06 1.955746439529e-04 0.0 
0.0 0.0 -3.129496823211e-05 
-1.232098886184e-05 7.093050022653e-06 0.0 
7.093050022653e-06 4.161179421085e-05 0.0 
0.0 0.0 -1.255320229243e-05 
-1.944497355390e-04 5.978296495926e-06 0.0 
5.978296495926e-06 1.366328994781e-03 0.0 
0.0 0.0 -1.985775144829e-04 
-1.145512522937e-04 -8.915219508627e-06 0.0 
-8.915219508627e-06 7.945910020626e-04 0.0 
0.0 0.0 -1.159689174441e-04 
-2.848344092071e-05 4.003321639578e-06 0.0 
4.003321639578e-06 1.986241883576e-04 0.0 
0.0 0.0 -3.173012194873e-05 
-1.014959600204e-04 3.503938933843e-05 0.0 
3.503938933843e-05 6.393289370777e-04 0.0 
0.0 0.0 -9.855747970559e-05 
-1.905583345653e-04 2.687091843219e-06 0.0 
2.687091843219e-06 1.311634272187e-03 0.0 
0.0 0.0 -1.915206309854e-04 
-1.857526928997e-04 -2.471303146073e-05 0.0 
-2.471303146073e-05 1.243107974826e-03 0.0 
0.0 0.0 -1.842925442824e-04 
-1.948868254755e-04 -1.041522172143e-06 0.0 
-1.041522172143e-06 1.275180970734e-03 0.0 
0.0 0.0 -1.934499806569e-04 
-7.012133808743e-05 -2.162576108704e-05 0.0 
-2.162576108704e-05 4.594521408120e-04 0.0 
0.0 0.0 -7.043099580601e-05 
-2.186534210929e-05 -2.363395921601e-05 0.0 
-2.363395921601e-05 1.124805107313e-04 0.0 
0.0 0.0 -2.329832943476e-05 
-1.928869723946e-04 -1.747685447208e-05 0.0 
-1.747685447208e-05 1.309527415302e-03 0.0 
0.0 0.0 -1.909716586738e-04 
-1.948223937585e-04 3.463630469138e-06 0.0 
3.463630469138e-06 1.366072774039e-03 0.0 
0.0 0.0 -1.988029557152e-04 
-1.997972325631e-04 -2.657071604694e-06 0.0 
-2.657071604694e-06 1.368996078479e-03 0.0 
0.0 0.0 -1.985675284643e-04 
-1.149075065172e-04 1.970313765657e-05 0.0 
1.970313765657e-05 7.553309514488e-04 0.0 
0.0 0.0 -1.151014696305e-04 
-1.853670490970e-04 -6.789881419621e-07 0.0 
-6.789881419621e-07 1.217253462195e-03 0.0 
0.0 0.0 -1.847801502676e-04 
-2.929766823262e-05 -1.423662774746e-05 0.0 
-1.423662774746e-05 1.684447109910e-04 0.0 
0.0 0.0 -3.486300268346e-05 
-1.886376341972e-04 2.491029484498e-05 0.0 
2.491029484498e-05 1.251144203043e-03 0.0 
0.0 0.0 -1.862363266401e-04 
-1.225588461862e-05 -1.620442536661e-06 0.0 
-1.620442536661e-06 4.088176785210e-05 0.0 
0.0 0.0 -1.226823567149e-05 
-1.959443734270e-04 -1.593633800896e-06 0.0 
-1.593633800896e-06 1.275907277954e-03 0.0 
0.0 0.0 -1.936070242144e-04 
-1.921705025686e-04 1.672528369413e-05 0.0 
1.672528369413e-05 1.305355282221e-03 0.0 
0.0 0.0 -1.902878095246e-04 
-1.213509693042e-05 -9.695671298578e-06 0.0 
-9.695671298578e-06 4.146515921011e-05 0.0 
0.0 0.0 -1.257002669129e-05 
-1.793207099600e-04 -2.104295957024e-05 0.0 
-2.104295957024e-05 1.192465817629e-03 0.0 
0.0 0.0 -1.767027422389e-04 
-1.542349507493e-04 -2.789525500736e-05 0.0 
-2.789525500736e-05 1.046690456158e-03 0.0 
0.0 0.0 -1.580789522666e-04 
-1.934231585208e-04 -4.589161303043e-06 0.0 
-4.589161303043e-06 1.276393454338e-03 0.0 
0.0 0.0 -1.934530862915e-04 
-2.019364116565e-04 -1.570828685488e-06 0.0 
-1.570828685488e-06 1.334544060367e-03 0.0 
0.0 0.0 -2.019364116565e-04 
-1.443736664853e-04 -4.496434299745e-05 0.0 
-4.496434299745e-05 9.564830102373e-04 0.0 
0.0 0.0 -1.444096547634e-04 
-1.939456756852e-04 2.017652496132e-06 0.0 
2.017652496132e-06 1.279640861987e-03 0.0 
0.0 0.0 -1.938765919206e-04 
-1.869172796684e-04 -2.300922739472e-05 0.0 
-2.300922739472e-05 1.248797853845e-03 0.0 
0.0 0.0 -1.854760755851e-04 
-1.511310601618e-04 1.323861223544e-06 0.0 
1.323861223544e-06 9.820371097651e-04 0.0 
0.0 0.0 -1.514438176870e-04 
-1.859523187257e-04 -2.150500838708e-06 0.0 
-2.150500838708e-06 1.237126209909e-03 0.0 
0.0 0.0 -1.871408849840e-04 
-8.159488617983e-05 -1.939805324608e-05 0.0 
-1.939805324608e-05 5.359838852638e-04 0.0 
0.0 0.0 -8.502783899585e-05 
-1.113338579071e-04 -3.576614126909e-06 0.0 
-3.576614126909e-06 6.830287758959e-04 0.0 
0.0 0.0 -1.093177095251e-04 
-1.875695645106e-04 2.166688210212e-05 0.0 
2.166688210212e-05 1.248595569192e-03 0.0 
0.0 0.0 -1.858828511717e-04 
-1.916898687047e-04 1.740402246749e-05 0.0 
1.740402246749e-05 1.297694891500e-03 0.0 
0.0 0.0 -1.929759641265e-04 
0.0 0.0 0.0 
0.0 0.0 0.0 
0.0 0.0 0.0 
-1.108754537982e-04 8.190067800634e-06 0.0 
8.190067800634e-06 6.858465185805e-04 0.0 
0.0 0.0 -1.092688595421e-04 
-1.923809518426e-04 -1.819844630735e-05 0.0 
-1.819844630735e-05 1.300229094043e-03 0.0 
0.0 0.0 -1.932123727438e-04 
-4.002001247467e-05 2.006963566931e-05 0.0 
2.006963566931e-05 2.328825741027e-04 0.0 
0.0 0.0 -4.148470287098e-05 
-1.866472002231e-04 4.880453877379e-06 0.0 
4.880453877379e-06 1.252749307024e-03 0.0 
0.0 0.0 -1.819878549007e-04 
-1.819209478198e-04 -2.068448510871e-05 0.0 
-2.068448510871e-05 1.244408370608e-03 0.0 
0.0 0.0 -1.838914853240e-04 
-1.915111223810e-04 -2.323214646959e-05 0.0 
-2.323214646959e-05 1.305780620660e-03 0.0 
0.0 0.0 -1.903556752671e-04 
-3.701661376552e-05 2.035950265076e-05 0.0 
2.035950265076e-05 2.272671486071e-04 0.0 
0.0 0.0 -3.971981059879e-05 
-2.769286414478e-05 7.747329809448e-06 0.0 
7.747329809448e-06 1.806614107884e-04 0.0 
0.0 0.0 -2.859863994447e-05 
-1.242949117924e-04 5.074427327232e-05 0.0 
5.074427327232e-05 7.859669856420e-04 0.0 
0.0 0.0 -1.190920679387e-04 
-1.709477821043e-04 1.206352581251e-05 0.0 
1.206352581251e-05 1.132186117532e-03 0.0 
0.0 0.0 -1.681261804956e-04 
1.014327330368e-06 7.383782533250e-07 0.0 
7.383782533250e-07 2.927583678911e-05 0.0 
0.0 0.0 -6.243845128022e-06 
-1.946447373769e-04 -4.455018500166e-06 0.0 
-4.455018500166e-06 1.280717844331e-03 0.0 
0.0 0.0 -1.938350263003e-04 
-1.424463118062e-04 5.764408395156e-06 0.0 
5.764408395156e-06 9.202154133526e-04 0.0 
0.0 0.0 -1.425289220759e-04 
-3.478878306297e-05 -2.499498638801e-05 0.0 
-2.499498638801e-05 2.296892403380e-04 0.0 
0.0 0.0 -3.902841992921e-05 
-1.377312918912e-04 9.864863143696e-06 0.0 
9.864863143696e-06 8.735402280856e-04 0.0 
0.0 0.0 -1.354581645892e-04 
-1.922007867126e-04 -1.822737660514e-05 0.0 
-1.822737660514e-05 1.307890918218e-03 0.0 
0.0 0.0 -1.907465343871e-04 
-1.254239889598e-04 -4.359753515645e-05 0.0 
-4.359753515645e-05 8.286556014884e-04 0.0 
0.0 0.0 -1.240920679387e-04 
-1.353144492439e-05 -2.813094036452e-05 0.0 
-2.813094036452e-05 4.877548767693e-05 0.0 
0.0 0.0 -1.316471896826e-05 
-8.142748840058e-05 2.105549334848e-05 0.0 
2.105549334848e-05 4.801057020835e-04 0.0 
0.0 0.0 -7.814452609390e-05 
-1.089615496817e-04 1.599271894156e-05 0.0 
1.599271894156e-05 7.175407804816e-04 0.0 
0.0 0.0 -1.097999625750e-04 
-1.256926158202e-04 5.260336234632e-05 0.0 
5.260336234632e-05 8.559229925287e-04 0.0 
0.0 0.0 -1.289999999999e-04 
-1.861165675973e-04 -2.159470551462e-05 0.0 
-2.159470551462e-05 1.249429060897e-03 0.0 
0.0 0.0 -1.849170288086e-04 
-1.106499789189e-04 -2.590861534469e-05 0.0 
-2.590861534469e-05 6.926866843830e-04 0.0 
0.0 0.0 -1.076326444904e-04 
-1.112884178496e-04 1.305986126263e-05 0.0 
1.305986126263e-05 7.358491413001e-04 0.0 
0.0 0.0 -1.139494348250e-04 
-2.588411427290e-05 1.911750771148e-05 0.0 
1.911750771148e-05 1.061373083438e-04 0.0 
0.0 0.0 -2.326846092920e-05 
-1.893744793615e-04 2.103198860830e-05 0.0 
2.103198860830e-05 1.246033425132e-03 0.0 
0.0 0.0 -1.860944804855e-04 
-1.813760335911e-04 2.431983118237e-05 0.0 
2.431983118237e-05 1.192575940689e-03 0.0 
0.0 0.0 -1.779543165055e-04 
-3.341687545780e-05 1.295689628708e-05 0.0 
1.295689628708e-05 1.947474497127e-04 0.0 
0.0 0.0 -3.617538986514e-05 
-1.891790155312e-04 -1.249004293212e-05 0.0 
-1.249004293212e-05 1.282842787366e-03 0.0 
0.0 0.0 -1.935524225335e-04 
-1.940711954716e-04 2.260939094991e-05 0.0 
2.260939094991e-05 1.289421750568e-03 0.0 
0.0 0.0 -1.935534039001e-04 
-1.151984927981e-04 -2.298534457927e-05 0.0 
-2.298534457927e-05 7.735611340850e-04 0.0 
0.0 0.0 -1.145968264807e-04 
-1.409477362984e-04 4.636851076838e-06 0.0 
4.636851076838e-06 9.500238057427e-04 0.0 
0.0 0.0 -1.403751509546e-04 
-1.057221588411e-04 2.457938922791e-05 0.0 
2.457938922791e-05 7.039272758311e-04 0.0 
0.0 0.0 -1.066277415830e-04 
-1.061891266013e-04 -1.653485252010e-05 0.0 
-1.653485252010e-05 7.204456328921e-04 0.0 
0.0 0.0 -1.101455558886e-04 
-1.167125773018e-04 -5.214442621127e-06 0.0 
-5.214442621127e-06 7.635304123669e-04 0.0 
0.0 0.0 -1.124773478824e-04 
-1.793168656901e-04 2.299952134744e-05 0.0 
2.299952134744e-05 1.185887205723e-03 0.0 
0.0 0.0 -1.771393596935e-04 
-3.152584898735e-05 1.897210253453e-05 0.0 
1.897210253453e-05 1.627411535502e-04 0.0 
0.0 0.0 -3.411956464738e-05 
-1.845315344105e-04 -2.087044310257e-05 0.0 
-2.087044310257e-05 1.251382198176e-03 0.0 
0.0 0.0 -1.826724926888e-04 
-1.258093955466e-04 1.092296903434e-05 0.0 
1.092296903434e-05 7.989141246955e-04 0.0 
0.0 0.0 -1.256509235457e-04 
-1.915790341267e-04 -2.191468720141e-05 0.0 
-2.191468720141e-05 1.308072793879e-03 0.0 
0.0 0.0 -1.908230686647e-04 
-1.803448451633e-04 -1.980075170866e-05 0.0 
-1.980075170866e-05 1.182538242344e-03 0.0 
0.0 0.0 -1.771885848702e-04 
-1.319350983937e-04 -8.918433226287e-06 0.0 
-8.918433226287e-06 9.046918759966e-04 0.0 
0.0 0.0 -1.335370307995e-04 
-1.816836816126e-04 1.791474397062e-05 0.0 
1.791474397062e-05 1.201235583197e-03 0.0 
0.0 0.0 -1.801549293832e-04 
-1.875547155475e-04 1.892715754060e-05 0.0 
1.892715754060e-05 1.233891763137e-03 0.0 
0.0 0.0 -1.855150795789e-04 
-1.939054531168e-04 -3.416516152566e-06 0.0 
-3.416516152566e-06 1.313797531553e-03 0.0 
0.0 0.0 -1.905407107676e-04 
-1.393318625630e-05 6.729466406600e-06 0.0 
6.729466406600e-06 4.687704386898e-05 0.0 
0.0 0.0 -1.411879611972e-05 
-1.819939651451e-04 -2.047705946231e-05 0.0 
-2.047705946231e-05 1.208295386483e-03 0.0 
0.0 0.0 -1.798029041703e-04 
-1.850233720890e-04 2.766047329041e-05 0.0 
2.766047329041e-05 1.254110806432e-03 0.0 
0.0 0.0 -1.840618297566e-04 
-1.944390477997e-05 -2.127751864275e-05 0.0 
-2.127751864275e-05 1.299757536440e-04 0.0 
0.0 0.0 -2.232470194434e-05 
-1.017184515676e-04 -1.757095589334e-05 0.0 
-1.757095589334e-05 6.550290312805e-04 0.0 
0.0 0.0 -1.026204892046e-04 
-1.144511734995e-05 -9.153149013219e-06 0.0 
-9.153149013219e-06 7.932793000554e-05 0.0 
0.0 0.0 -1.453852818766e-05 
-1.859119756783e-04 -1.557168329531e-05 0.0 
-1.557168329531e-05 1.264074963678e-03 0.0 
0.0 0.0 -1.846184893018e-04 
-5.781705576156e-05 -1.097834381467e-05 0.0 
-1.097834381467e-05 3.693403496953e-04 0.0 
0.0 0.0 -5.733333333333e-05 
-6.100891304768e-05 7.885091902878e-06 0.0 
7.885091902878e-06 3.405875281446e-04 0.0 
0.0 0.0 -6.066666666667e-05 
-5.752656276812e-05 -9.002056482217e-07 0.0 
-9.002056482217e-07 3.876358825742e-04 0.0 
0.0 0.0 -5.733333333333e-05 
-6.081359015182e-05 -5.794002622292e-08 0.0 
-5.794002622292e-08 3.417160881662e-04 0.0 
0.0 0.0 -6.066666666667e-05 
-5.741055085482e-05 -3.076662680791e-07 0.0 
-3.076662680791e-07 3.883987448460e-04 0.0 
0.0 0.0 -5.733333333333e-05 
-6.074210787550e-05 -3.038056687787e-07 0.0 
-3.038056687787e-07 3.417341222542e-04 0.0 
0.0 0.0 -6.066666666667e-05 
-5.744101909586e-05 -3.350213589507e-07 0.0 
-3.350213589507e-07 3.884037471439e-04 0.0 
0.0 0.0 -5.733333333333e-05 
-6.076980017163e-05 -2.633586237472e-07 0.0 
-2.633586237472e-07 3.417973373645e-04 0.0 
0.0 0.0 -6.066666666667e-05 
-5.753901879266e-05 -4.032254988366e-07 0.0 
-4.032254988366e-07 3.884804185775e-04 0.0 
0.0 0.0 -5.733333333333e-05 
-6.084901192467e-05 -2.839820900020e-07 0.0 
-2.839820900020e-07 3.418997932862e-04 0.0 
0.0 0.0 -6.066666666667e-05 
-5.764835577513e-05 -4.670991574783e-07 0.0 
-4.670991574783e-07 3.885926020556e-04 0.0 
0.0 0.0 -5.733333333333e-05 
-6.097338103546e-05 -3.711727285251e-07 0.0 
-3.711727285251e-07 3.420012923996e-04 0.0 
0.0 0.0 -6.066666666667e-05 
-5.773592220557e-05 -5.434399062823e-07 0.0 
-5.434399062823e-07 3.886963937928e-04 0.0 
0.0 0.0 -5.733333333333e-05 
-6.104369650402e-05 -5.100362655251e-07 0.0 
-5.100362655251e-07 3.420398794502e-04 0.0 
0.0 0.0 -6.066666666667e-05 
-5.777604941901e-05 -5.548094796899e-07 0.0 
-5.548094796899e-07 3.887163194926e-04 0.0 
0.0 0.0 -5.733333333333e-05 
-6.105893067594e-05 -5.296141592932e-07 0.0 
-5.296141592932e-07 3.420372773735e-04 0.0 
0.0 0.0 -6.066666666667e-05 
-5.779783882230e-05 -4.963068092733e-07 0.0 
-4.963068092733e-07 3.887001927722e-04 0.0 
0.0 0.0 -5.733333333333e-05 
-6.429332232619e-05 -2.307460778734e-05 0.0 
-2.307460778734e-05 3.850600827683e-04 0.0 
0.0 0.0 -5.871879621414e-05 
-6.109192576982e-05 -4.837956592854e-07 0.0 
-4.837956592854e-07 3.420192799563e-04 0.0 
0.0 0.0 -6.066666666667e-05 
-5.781201584652e-05 -3.891035793225e-07 0.0 
-3.891035793225e-07 3.886678861241e-04 0.0 
0.0 0.0 -5.733333333333e-05 
-5.197171891332e-05 2.601338786256e-06 0.0 
2.601338786256e-06 3.430943376592e-04 0.0 
0.0 0.0 -6.066666666667e-05 
-6.116828848797e-05 -4.015809249984e-07 0.0 
-4.015809249984e-07 3.420050059064e-04 0.0 
0.0 0.0 -6.066666666667e-05 
-5.782072116687e-05 -2.899615651131e-07 0.0 
-2.899615651131e-07 3.886441670397e-04 0.0 
0.0 0.0 -5.733333333333e-05 
-6.121626665852e-05 -3.540641570560e-07 0.0 
-3.540641570560e-07 3.419641075570e-04 0.0 
0.0 0.0 -6.066666666667e-05 
-5.779840718077e-05 -1.758510829021e-07 0.0 
-1.758510829021e-07 3.885785316046e-04 0.0 
0.0 0.0 -5.733333333333e-05 
-6.116783759642e-05 -2.820525569960e-07 0.0 
-2.820525569960e-07 3.418542542977e-04 0.0 
0.0 0.0 -6.066666666667e-05 
-4.930023443078e-05 5.796000691354e-06 0.0 
5.796000691354e-06 3.582468498007e-04 0.0 
0.0 0.0 -5.538546288080e-05 
-5.772770638621e-05 1.312401498261e-07 0.0 
1.312401498261e-07 3.883955911533e-04 0.0 
0.0 0.0 -5.733333333333e-05 
-6.096829823239e-05 3.035755375707e-07 0.0 
3.035755375707e-07 3.418039294054e-04 0.0 
0.0 0.0 -6.066666666667e-05 
-5.776405724498e-05 4.984520269403e-07 0.0 
4.984520269403e-07 3.884232433503e-04 0.0 
0.0 0.0 -5.733333333333e-05 
-6.125140204367e-05 5.931380027649e-07 0.0 
5.931380027649e-07 3.418903324586e-04 0.0 
0.0 0.0 -6.066666666667e-05 
-5.780720341573e-05 8.244863566380e-07 0.0 
8.244863566380e-07 3.884697708382e-04 0.0 
0.0 0.0 -5.733333333333e-05 
-6.110831296764e-05 1.296657285393e-06 0.0 
1.296657285393e-06 3.420973359667e-04 0.0 
0.0 0.0 -6.066666666667e-05 
-5.803792313151e-05 7.049279494282e-07 0.0 
7.049279494282e-07 3.890016332223e-04 0.0 
0.0 0.0 -5.733333333333e-05 
-6.205350649242e-05 4.589417531416e-08 0.0 
4.589417531416e-08 3.421906476610e-04 0.0 
0.0 0.0 -6.066666666667e-05 
-5.778073280136e-05 8.470981603539e-07 0.0 
8.470981603539e-07 3.884329098950e-04 0.0 
0.0 0.0 -5.733333333333e-05 
-6.041203126657e-05 2.222910704188e-06 0.0 
2.222910704188e-06 3.423435831242e-04 0.0 
0.0 0.0 -6.066666666667e-05 
-4.710203058735e-05 4.310616550608e-06 0.0 
4.310616550608e-06 3.686964131418e-04 0.0 
0.0 0.0 -6.038546288080e-05 
-6.294942027381e-05 -2.756163189823e-06 0.0 
-2.756163189823e-06 3.420852271838e-04 0.0 
0.0 0.0 -6.066666666667e-05 
-5.833580269108e-05 1.472104880338e-07 0.0 
1.472104880338e-07 3.900149670501e-04 0.0 
0.0 0.0 -5.733333333333e-05 
-5.509863290017e-05 6.978613204043e-06 0.0 
6.978613204043e-06 3.416103539067e-04 0.0 
0.0 0.0 -6.066666666667e-05 
-5.699961929049e-05 1.188126407733e-06 0.0 
1.188126407733e-06 3.866763485151e-04 0.0 
0.0 0.0 -5.733333333333e-05 
-5.931616582398e-05 1.264970039408e-06 0.0 
1.264970039408e-06 3.921885981794e-04 0.0 
0.0 0.0 -5.733333333333e-05 
-4.124266933807e-05 1.249791926263e-06 0.0 
1.249791926263e-06 3.252010506084e-04 0.0 
0.0 0.0 -5.705212954747e-05 
-6.749087282606e-05 -5.537350596849e-05 0.0 
-5.537350596849e-05 3.726705081140e-04 0.0 
0.0 0.0 -5.900000000000e-05 
-5.182302720593e-05 5.344964927870e-05 0.0 
5.344964927870e-05 3.446027874510e-04 0.0 
0.0 0.0 -5.900000000000e-05 
-6.292581995443e-05 -5.978106008697e-06 0.0 
-5.978106008697e-06 3.667667175588e-04 0.0 
0.0 0.0 -6.233333333333e-05 
-5.621542542388e-05 5.720175409305e-06 0.0 
5.720175409305e-06 3.519710587876e-04 0.0 
0.0 0.0 -5.566666666667e-05 
-4.836028639231e-05 1.166463025180e-06 0.0 
1.166463025180e-06 3.464077171258e-04 0.0 
0.0 0.0 -5.566666666667e-05 
-7.114563988620e-05 -1.149003057072e-05 0.0 
-1.149003057072e-05 4.298780722485e-04 0.0 
0.0 0.0 -7.066666666667e-05 
-6.767557971435e-05 7.789921185043e-06 0.0 
7.789921185043e-06 4.581053887753e-04 0.0 
0.0 0.0 -6.733333333333e-05 
-7.086950529367e-05 -1.417087462263e-06 0.0 
-1.417087462263e-06 4.109780231572e-04 0.0 
0.0 0.0 -7.066666666667e-05 
-6.748025681849e-05 -2.346688612902e-07 0.0 
-2.346688612902e-07 4.565031102245e-04 0.0 
0.0 0.0 -6.733333333333e-05 
-7.064770782861e-05 -5.361532288411e-07 0.0 
-5.361532288411e-07 4.098128991423e-04 0.0 
0.0 0.0 -7.066666666667e-05 
-6.740877454217e-05 -3.802090969509e-07 0.0 
-3.802090969509e-07 4.564156801283e-04 0.0 
0.0 0.0 -6.733333333333e-05 
-7.068434388014e-05 -2.719211823047e-07 0.0 
-2.719211823047e-07 4.097592646131e-04 0.0 
0.0 0.0 -7.066666666667e-05 
-6.743646683829e-05 -2.660727184679e-07 0.0 
-2.660727184679e-07 4.564862413471e-04 0.0 
0.0 0.0 -6.733333333333e-05 
-7.071554313554e-05 -1.840132234043e-07 0.0 
-1.840132234043e-07 4.098289843511e-04 0.0 
0.0 0.0 -7.066666666667e-05 
-6.751567859134e-05 -1.979083631644e-07 0.0 
-1.979083631644e-07 4.566038930868e-04 0.0 
0.0 0.0 -6.733333333333e-05 
-7.082563799221e-05 -1.082855862797e-07 0.0 
-1.082855862797e-07 4.099501439232e-04 0.0 
0.0 0.0 -7.066666666667e-05 
-6.764004770212e-05 -1.840544218251e-07 0.0 
-1.840544218251e-07 4.567798774879e-04 0.0 
0.0 0.0 -6.733333333333e-05 
-7.099668157673e-05 -3.152621347735e-07 0.0 
-3.152621347735e-07 4.100909630507e-04 0.0 
0.0 0.0 -7.066666666667e-05 
-6.771036317068e-05 -3.250871953116e-07 0.0 
-3.250871953116e-07 4.567955793193e-04 0.0 
0.0 0.0 -6.733333333333e-05 
-7.104635293021e-05 -4.797315306229e-07 0.0 
-4.797315306229e-07 4.100980900426e-04 0.0 
0.0 0.0 -7.066666666667e-05 
-6.772559734261e-05 -3.874533346802e-07 0.0 
-3.874533346802e-07 4.567007956159e-04 0.0 
0.0 0.0 -6.733333333333e-05 
-7.641374413823e-05 -2.228773536997e-05 0.0 
-2.228773536997e-05 4.555521205124e-04 0.0 
0.0 0.0 -6.873639455783e-05 
-7.094875925373e-05 -3.791477384794e-07 0.0 
-3.791477384794e-07 4.100304202801e-04 0.0 
0.0 0.0 -7.066666666667e-05 
-6.775859243649e-05 -2.543201428247e-07 0.0 
-2.543201428247e-07 4.566839974153e-04 0.0 
0.0 0.0 -6.733333333333e-05 
-5.983502745799e-05 1.929364290318e-06 0.0 
1.929364290318e-06 4.273284517158e-04 0.0 
0.0 0.0 -6.540306122449e-05 
-7.112696317891e-05 -1.467524674862e-07 0.0 
-1.467524674862e-07 4.100464125056e-04 0.0 
0.0 0.0 -7.066666666667e-05 
-6.783495515464e-05 -1.450638751277e-07 0.0 
-1.450638751277e-07 4.567335765583e-04 0.0 
0.0 0.0 -6.733333333333e-05 
-6.217161144140e-05 3.026566437504e-06 0.0 
3.026566437504e-06 4.118280588832e-04 0.0 
0.0 0.0 -7.066666666667e-05 
-7.130993240556e-05 -1.233962845206e-07 0.0 
-1.233962845206e-07 4.100835803005e-04 0.0 
0.0 0.0 -7.066666666667e-05 
-6.788293332518e-05 -1.526785280095e-07 0.0 
-1.526785280095e-07 4.567248483215e-04 0.0 
0.0 0.0 -6.733333333333e-05 
-7.133053464148e-05 -2.770421121640e-07 0.0 
-2.770421121640e-07 4.100311566981e-04 0.0 
0.0 0.0 -7.066666666667e-05 
-6.783450426309e-05 -1.768217967111e-07 0.0 
-1.768217967111e-07 4.565560458107e-04 0.0 
0.0 0.0 -6.733333333333e-05 
-7.128003053814e-05 -4.124294858267e-07 0.0 
-4.124294858267e-07 4.098246570243e-04 0.0 
0.0 0.0 -7.066666666667e-05 
-6.763496489906e-05 1.353837844384e-07 0.0 
1.353837844384e-07 4.560035381661e-04 0.0 
0.0 0.0 -6.733333333333e-05 
-6.037667670586e-05 3.725538744657e-06 0.0 
3.725538744657e-06 4.387855452071e-04 0.0 
0.0 0.0 -7.040306122449e-05 
-7.080362175516e-05 1.214547096316e-06 0.0 
1.214547096316e-06 4.096944057901e-04 0.0 
0.0 0.0 -7.066666666667e-05 
-6.791806871034e-05 8.269470575155e-07 0.0 
8.269470575155e-07 4.567782366562e-04 0.0 
0.0 0.0 -6.733333333333e-05 
-7.172247895238e-05 4.209193152321e-07 0.0 
4.209193152321e-07 4.100255547766e-04 0.0 
0.0 0.0 -7.066666666667e-05 
-6.777497963431e-05 1.000449125460e-06 0.0 
1.000449125460e-06 4.561234038025e-04 0.0 
0.0 0.0 -6.733333333333e-05 
-6.872017315909e-05 7.209100044906e-07 0.0 
7.209100044906e-07 4.587775367494e-04 0.0 
0.0 0.0 -6.733333333333e-05 
-7.101694663725e-05 3.221273702941e-06 0.0 
3.221273702941e-06 4.103304483538e-04 0.0 
0.0 0.0 -7.066666666667e-05 
-6.707869793323e-05 4.876313269616e-07 0.0 
4.876313269616e-07 4.540272230233e-04 0.0 
0.0 0.0 -6.733333333333e-05 
-7.351744776430e-05 -3.590528867594e-06 0.0 
-3.590528867594e-06 4.105429329544e-04 0.0 
0.0 0.0 -7.066666666667e-05 
-6.961608694047e-05 2.500866072093e-06 0.0 
2.500866072093e-06 4.606767609940e-04 0.0 
0.0 0.0 -6.733333333333e-05 
-6.487293508417e-05 7.258987181476e-06 0.0 
7.258987181476e-06 4.092859995140e-04 0.0 
0.0 0.0 -7.066666666667e-05 
-5.398091155439e-05 -5.270882630615e-06 0.0 
-5.270882630615e-06 3.945040721260e-04 0.0 
0.0 0.0 -6.706972789116e-05 
-6.158970074179e-05 -5.552157044761e-05 0.0 
-5.552157044761e-05 4.267642640122e-04 0.0 
0.0 0.0 -6.900000000000e-05 
-7.727313769225e-05 5.339151864984e-05 0.0 
5.339151864984e-05 4.548383156643e-04 0.0 
0.0 0.0 -6.900000000000e-05 
-6.625915328777e-05 -5.902071933345e-06 0.0 
-5.902071933345e-06 4.326595679538e-04 0.0 
0.0 0.0 -6.566666666667e-05 
-7.280062491732e-05 5.686248152954e-06 0.0 
5.686248152954e-06 4.472638552754e-04 0.0 
0.0 0.0 -7.233333333333e-05 
-5.697171891332e-05 -3.753491299719e-06 0.0 
-3.753491299719e-06 4.144867007492e-04 0.0 
0.0 0.0 -6.566666666667e-05 
-7.781230655286e-05 -1.181963691656e-05 0.0 
-1.181963691656e-05 5.088176645313e-04 0.0 
0.0 0.0 -7.733333333333e-05 
-8.119458623839e-05 6.972004007010e-06 0.0 
6.972004007010e-06 4.800472308251e-04 0.0 
0.0 0.0 -8.066666666667e-05 
-7.753617196034e-05 -1.686526781122e-06 0.0 
-1.686526781122e-06 5.271460113287e-04 0.0 
0.0 0.0 -7.733333333333e-05 
-8.055598266159e-05 -8.309609844759e-07 0.0 
-8.309609844759e-07 4.810024852218e-04 0.0 
0.0 0.0 -8.066666666667e-05 
-7.731437449528e-05 -4.694243935429e-07 0.0 
-4.694243935429e-07 5.276425525984e-04 0.0 
0.0 0.0 -7.733333333333e-05 
-8.071639800283e-05 -2.964994736049e-07 0.0 
-2.964994736049e-07 4.811871574007e-04 0.0 
0.0 0.0 -8.066666666667e-05 
-7.735101054680e-05 -3.609553578528e-07 0.0 
-3.609553578528e-07 5.278599491145e-04 0.0 
0.0 0.0 -7.733333333333e-05 
-8.049136654625e-05 -1.810628668294e-07 0.0 
-1.810628668294e-07 4.812029401063e-04 0.0 
0.0 0.0 -8.066666666667e-05 
-7.738220980221e-05 -1.577265426917e-07 0.0 
-1.577265426917e-07 5.278701924915e-04 0.0 
0.0 0.0 -7.733333333333e-05 
-8.058899491475e-05 1.039952126182e-07 0.0 
1.039952126182e-07 4.813345582273e-04 0.0 
0.0 0.0 -8.066666666667e-05 
-7.749230465888e-05 -5.589101690134e-08 0.0 
-5.589101690134e-08 5.280305322976e-04 0.0 
0.0 0.0 -7.733333333333e-05 
-8.063738768920e-05 2.943263093068e-07 0.0 
2.943263093068e-07 4.815246670627e-04 0.0 
0.0 0.0 -8.066666666667e-05 
-7.766334824340e-05 -1.624950510169e-07 0.0 
-1.624950510169e-07 5.282822808427e-04 0.0 
0.0 0.0 -7.733333333333e-05 
-8.108582164939e-05 -1.817042453861e-07 0.0 
-1.817042453861e-07 4.816572964670e-04 0.0 
0.0 0.0 -8.066666666667e-05 
-7.771301959687e-05 -4.432509054862e-07 0.0 
-4.432509054862e-07 5.283746937170e-04 0.0 
0.0 0.0 -7.733333333333e-05 
-8.689319893331e-05 -2.398901531109e-05 0.0 
-2.398901531109e-05 5.261728810593e-04 0.0 
0.0 0.0 -7.871598639454e-05 
-8.063163037591e-05 -5.731608516610e-07 0.0 
-5.731608516610e-07 4.813582541077e-04 0.0 
0.0 0.0 -8.066666666667e-05 
-7.282722797358e-05 2.956686511685e-06 0.0 
2.956686511685e-06 4.834944195558e-04 0.0 
0.0 0.0 -8.066666666667e-05 
-7.761542592040e-05 1.556054086580e-08 0.0 
1.556054086580e-08 5.279085131106e-04 0.0 
0.0 0.0 -7.733333333333e-05 
-8.085458222001e-05 2.978087830834e-07 0.0 
2.978087830834e-07 4.814005580441e-04 0.0 
0.0 0.0 -8.066666666667e-05 
-7.779362984557e-05 2.880682919728e-07 0.0 
2.880682919728e-07 5.280866836434e-04 0.0 
0.0 0.0 -7.733333333333e-05 
-8.137173526484e-05 3.903881692923e-07 0.0 
3.903881692923e-07 4.816228572156e-04 0.0 
0.0 0.0 -8.066666666667e-05 
-7.797659907223e-05 1.259601545473e-07 0.0 
1.259601545473e-07 5.283575677450e-04 0.0 
0.0 0.0 -7.733333333333e-05 
-8.138094734250e-05 -4.007379149127e-08 0.0 
-4.007379149127e-08 4.816094746352e-04 0.0 
0.0 0.0 -8.066666666667e-05 
-6.958892147872e-05 2.693700344811e-06 0.0 
2.693700344811e-06 4.979075358180e-04 0.0 
0.0 0.0 -7.538265306121e-05 
-7.799720130815e-05 7.326478423490e-09 0.0 
7.326478423490e-09 5.282573840779e-04 0.0 
0.0 0.0 -7.733333333333e-05 
-8.143970684332e-05 -2.393759007723e-07 0.0 
-2.393759007723e-07 4.814739348898e-04 0.0 
0.0 0.0 -8.066666666667e-05 
-7.794669720480e-05 -1.073637191229e-07 0.0 
-1.073637191229e-07 5.280808317875e-04 0.0 
0.0 0.0 -7.733333333333e-05 
-8.174229233143e-05 -1.069148929710e-06 0.0 
-1.069148929710e-06 4.809843103418e-04 0.0 
0.0 0.0 -8.066666666667e-05 
-7.747028842183e-05 1.035597227599e-06 0.0 
1.035597227599e-06 5.267993287079e-04 0.0 
0.0 0.0 -7.733333333333e-05 
-8.011487521303e-05 3.227514386744e-06 0.0 
3.227514386744e-06 4.812335686475e-04 0.0 
0.0 0.0 -8.066666666667e-05 
-7.838914561904e-05 1.172078597877e-06 0.0 
1.172078597877e-06 5.288970930108e-04 0.0 
0.0 0.0 -7.733333333333e-05 
-8.384419164103e-05 -8.759494395606e-07 0.0 
-8.759494395606e-07 4.817654260896e-04 0.0 
0.0 0.0 -8.066666666667e-05 
-7.599610420366e-05 7.462175851506e-06 0.0 
7.462175851506e-06 4.817404732796e-04 0.0 
0.0 0.0 -8.066666666667e-05 
-7.768361330392e-05 1.900460429623e-06 0.0 
1.900460429623e-06 5.268691696083e-04 0.0 
0.0 0.0 -7.733333333333e-05 
-7.085007670582e-05 3.811906941392e-06 0.0 
3.811906941392e-06 5.100816028034e-04 0.0 
0.0 0.0 -8.038265306121e-05 
-8.018411443096e-05 1.198366395229e-06 0.0 
1.198366395229e-06 5.324278016454e-04 0.0 
0.0 0.0 -7.733333333333e-05 
-6.417731922861e-05 -3.943230338449e-06 0.0 
-3.943230338449e-06 4.647268317312e-04 0.0 
0.0 0.0 -7.704931972788e-05 
-8.746095442730e-05 -5.552433142474e-05 0.0 
-5.552433142474e-05 5.117494040768e-04 0.0 
0.0 0.0 -7.900000000000e-05 
-7.187846570217e-05 5.325151437038e-05 0.0 
5.325151437038e-05 4.838528020986e-04 0.0 
0.0 0.0 -7.900000000000e-05 
-8.300562030776e-05 -5.928768708113e-06 0.0 
-5.928768708113e-06 5.060343090617e-04 0.0 
0.0 0.0 -8.233333333333e-05 
-7.613395825065e-05 5.573077951687e-06 0.0 
5.573077951687e-06 4.912471208609e-04 0.0 
0.0 0.0 -7.566666666667e-05 
-6.717161144140e-05 -3.263046586986e-06 0.0 
-3.263046586986e-06 4.846642233179e-04 0.0 
0.0 0.0 -7.566666666667e-05 
-9.283937133862e-05 -1.305520020021e-05 0.0 
-1.305520020021e-05 5.701490487258e-04 0.0 
0.0 0.0 -9.066666666667e-05 
-8.786125290506e-05 6.228376696680e-06 0.0 
6.228376696680e-06 5.972094942788e-04 0.0 
0.0 0.0 -8.733333333333e-05 
-9.022014186398e-05 -3.549288141163e-06 0.0 
-3.549288141163e-06 5.499642990775e-04 0.0 
0.0 0.0 -9.066666666667e-05 
-8.722264932826e-05 -1.484814638766e-06 0.0 
-1.484814638766e-06 5.950278411204e-04 0.0 
0.0 0.0 -8.733333333333e-05 
-9.018085993915e-05 -1.417099940171e-07 0.0 
-1.417099940171e-07 5.484767631814e-04 0.0 
0.0 0.0 -9.066666666667e-05 
-8.738306466949e-05 -3.897787092036e-07 0.0 
-3.897787092036e-07 5.957792554076e-04 0.0 
0.0 0.0 -8.733333333333e-05 
-9.080630643208e-05 -1.004642962581e-06 0.0 
-1.004642962581e-06 5.490414961774e-04 0.0 
0.0 0.0 -9.066666666667e-05 
-8.715803321291e-05 -7.191945164273e-07 0.0 
-7.191945164273e-07 5.952355706191e-04 0.0 
0.0 0.0 -8.733333333333e-05 
-8.983972774977e-05 2.250980017127e-08 0.0 
2.250980017127e-08 5.486638855821e-04 0.0 
0.0 0.0 -9.066666666667e-05 
-8.725566158141e-05 1.431482839066e-07 0.0 
1.431482839066e-07 5.957393564191e-04 0.0 
0.0 0.0 -8.733333333333e-05 
-9.054185498745e-05 8.009925208000e-08 0.0 
8.009925208000e-08 5.490600954273e-04 0.0 
0.0 0.0 -9.066666666667e-05 
-8.730405435587e-05 2.268594339034e-07 0.0 
2.268594339034e-07 5.956704623471e-04 0.0 
0.0 0.0 -8.733333333333e-05 
-9.010725221013e-05 1.077984881025e-06 0.0 
1.077984881025e-06 5.491565562495e-04 0.0 
0.0 0.0 -9.066666666667e-05 
-9.710486836519e-05 -2.255663521806e-05 0.0 
-2.255663521806e-05 5.958483065018e-04 0.0 
0.0 0.0 -8.873639455782e-05 
-8.775248831606e-05 6.167278534911e-07 0.0 
6.167278534911e-07 5.967481919071e-04 0.0 
0.0 0.0 -8.733333333333e-05 
-9.103086627003e-05 -1.513341137134e-06 0.0 
-1.513341137134e-06 5.495772900249e-04 0.0 
0.0 0.0 -9.066666666667e-05 
-8.073249876148e-05 1.956568500793e-06 0.0 
1.956568500793e-06 5.676914892222e-04 0.0 
0.0 0.0 -8.540306122449e-05 
-8.729829704258e-05 -3.688701156799e-07 0.0 
-3.688701156799e-07 5.951865840250e-04 0.0 
0.0 0.0 -8.733333333333e-05 
-9.037940068144e-05 6.271206724163e-07 0.0 
6.271206724163e-07 5.487658884447e-04 0.0 
0.0 0.0 -9.066666666667e-05 
-8.327880964785e-05 3.397797209923e-06 0.0 
3.397797209923e-06 5.519081980575e-04 0.0 
0.0 0.0 -9.066666666667e-05 
-8.752124888667e-05 7.623016925715e-07 0.0 
7.623016925715e-07 5.955739018708e-04 0.0 
0.0 0.0 -8.733333333333e-05 
-9.119391855359e-05 1.735421697781e-06 0.0 
1.735421697781e-06 5.492228013243e-04 0.0 
0.0 0.0 -9.066666666667e-05 
-8.803840193151e-05 9.847285726832e-07 0.0 
9.847285726832e-07 5.964786609531e-04 0.0 
0.0 0.0 -8.733333333333e-05 
-9.156330581238e-05 2.666222241028e-07 0.0 
2.666222241028e-07 5.495997176964e-04 0.0 
0.0 0.0 -9.066666666667e-05 
-8.804761400916e-05 4.409974905671e-07 0.0 
4.409974905671e-07 5.960772025302e-04 0.0 
0.0 0.0 -8.733333333333e-05 
-8.073638837697e-05 3.015269661060e-06 0.0 
3.015269661060e-06 5.789040759249e-04 0.0 
0.0 0.0 -9.040306122449e-05 
-9.112505899787e-05 2.746880104957e-07 0.0 
2.746880104957e-07 5.493199630352e-04 0.0 
0.0 0.0 -9.066666666667e-05 
-8.810637350998e-05 6.151652775298e-07 0.0 
6.151652775298e-07 5.958963692618e-04 0.0 
0.0 0.0 -8.733333333333e-05 
-8.840895899809e-05 1.155447038660e-07 0.0 
1.155447038660e-07 5.965143081286e-04 0.0 
0.0 0.0 -8.733333333333e-05 
-9.164597760345e-05 8.836231120007e-07 0.0 
8.836231120007e-07 5.493625037381e-04 0.0 
0.0 0.0 -9.066666666667e-05 
-8.678154187969e-05 1.516005662498e-06 0.0 
1.516005662498e-06 5.914512376221e-04 0.0 
0.0 0.0 -8.733333333333e-05 
-9.368423993004e-05 -3.485429264516e-06 0.0 
-3.485429264516e-06 5.486941450264e-04 0.0 
0.0 0.0 -9.066666666667e-05 
-9.051085830770e-05 3.821512302252e-06 0.0 
3.821512302252e-06 6.011139986344e-04 0.0 
0.0 0.0 -8.733333333333e-05 
-8.623635069903e-05 1.130998903511e-05 0.0 
1.130998903511e-05 5.483505428446e-04 0.0 
0.0 0.0 -9.066666666667e-05 
-7.442069267613e-05 -5.394763382115e-06 0.0 
-5.394763382115e-06 5.345026645236e-04 0.0 
0.0 0.0 -8.706972789116e-05 
-8.056486673946e-05 -5.396645541003e-05 0.0 
-5.396645541003e-05 5.644717008348e-04 0.0 
0.0 0.0 -8.900000000000e-05 
-9.791450863527e-05 5.509961114953e-05 0.0 
5.509961114953e-05 5.954927673430e-04 0.0 
0.0 0.0 -8.900000000000e-05 
-8.633895364109e-05 -4.683164540594e-06 0.0 
-4.683164540594e-06 5.718841532106e-04 0.0 
0.0 0.0 -8.566666666667e-05 
-9.239018602622e-05 8.127448127221e-06 0.0 
8.127448127221e-06 5.860724498030e-04 0.0 
0.0 0.0 -9.233333333333e-05 
-7.782722797358e-05 -3.296902887834e-06 0.0 
-3.296902887834e-06 5.542989905497e-04 0.0 
0.0 0.0 -8.566666666667e-05 
-9.950603800529e-05 -1.732824840327e-05 0.0 
-1.732824840327e-05 6.532123038277e-04 0.0 
0.0 0.0 -9.733333333333e-05 
-9.845490008412e-05 -7.423843482372e-07 0.0 
-7.423843482372e-07 6.182720398665e-04 0.0 
0.0 0.0 -1.006666666667e-04 
-9.688680853064e-05 -2.101224633275e-06 0.0 
-2.101224633275e-06 6.650247464175e-04 0.0 
0.0 0.0 -9.733333333333e-05 
-1.012464655028e-04 -1.533092774878e-06 0.0 
-1.533092774878e-06 6.197292804394e-04 0.0 
0.0 0.0 -1.006666666667e-04 
-9.684752660582e-05 -6.274302712925e-08 0.0 
-6.274302712925e-08 6.662579141266e-04 0.0 
0.0 0.0 -9.733333333333e-05 
-1.011453118386e-04 1.046563005614e-06 0.0 
1.046563005614e-06 6.213209177569e-04 0.0 
0.0 0.0 -1.006666666667e-04 
-9.747297309875e-05 -2.278502078315e-06 0.0 
-2.278502078315e-06 6.683740764344e-04 0.0 
0.0 0.0 -9.733333333333e-05 
-9.931899188090e-05 -3.288065646636e-06 0.0 
-3.288065646636e-06 6.197642772278e-04 0.0 
0.0 0.0 -1.006666666667e-04 
-9.650639441644e-05 2.666172739854e-07 0.0 
2.666172739854e-07 6.659194579952e-04 0.0 
0.0 0.0 -9.733333333333e-05 
-1.000788983180e-04 1.910523566858e-06 0.0 
1.910523566858e-06 6.207688021561e-04 0.0 
0.0 0.0 -1.006666666667e-04 
-9.720852165412e-05 -4.164213939214e-07 0.0 
-4.164213939214e-07 6.678605235040e-04 0.0 
0.0 0.0 -9.733333333333e-05 
-1.005225329566e-04 -1.059277058645e-06 0.0 
-1.059277058645e-06 6.206711688955e-04 0.0 
0.0 0.0 -1.006666666667e-04 
-1.076654382393e-04 -2.454755873475e-05 0.0 
-2.454755873475e-05 6.666235465443e-04 0.0 
0.0 0.0 -9.871211211756e-05 
-9.677391887680e-05 3.262994796209e-07 0.0 
3.262994796209e-07 6.670349670739e-04 0.0 
0.0 0.0 -9.733333333333e-05 
-1.004112575968e-04 6.266382551746e-06 0.0 
6.266382551746e-06 6.238730393685e-04 0.0 
0.0 0.0 -1.006666666667e-04 
-9.691250726488e-05 3.272004711609e-06 0.0 
3.272004711609e-06 6.207526912737e-04 0.0 
0.0 0.0 -1.006666666667e-04 
-9.769753293670e-05 3.857908775590e-07 0.0 
3.857908775590e-07 6.683264731120e-04 0.0 
0.0 0.0 -9.733333333333e-05 
-1.018216783017e-04 -1.733271697638e-06 0.0 
-1.733271697638e-06 6.205292306068e-04 0.0 
0.0 0.0 -1.006666666667e-04 
-9.704606734811e-05 1.789783002985e-06 0.0 
1.789783002985e-06 6.661622647259e-04 0.0 
0.0 0.0 -9.733333333333e-05 
-1.018704888891e-04 2.872470909369e-06 0.0 
2.872470909369e-06 6.210028127133e-04 0.0 
0.0 0.0 -1.006666666667e-04 
-9.786058522026e-05 1.410942441991e-06 0.0 
1.410942441991e-06 6.680408138480e-04 0.0 
0.0 0.0 -9.733333333333e-05 
-1.006317600444e-04 1.941140312877e-06 0.0 
1.941140312877e-06 6.214755597104e-04 0.0 
0.0 0.0 -1.006666666667e-04 
-9.094846281658e-05 3.460693907673e-06 0.0 
3.460693907673e-06 6.387381401671e-04 0.0 
0.0 0.0 -9.537877878422e-05 
-9.822997247904e-05 5.655000512226e-07 0.0 
5.655000512226e-07 6.686847925497e-04 0.0 
0.0 0.0 -9.733333333333e-05 
-1.005721140742e-04 -4.771801101198e-07 0.0 
-4.771801101198e-07 6.209284532513e-04 0.0 
0.0 0.0 -1.006666666667e-04 
-9.779172566454e-05 1.437765353010e-06 0.0 
1.437765353010e-06 6.669881357659e-04 0.0 
0.0 0.0 -9.733333333333e-05 
-9.964754038308e-05 2.397319642453e-06 0.0 
2.397319642453e-06 6.203504795262e-04 0.0 
0.0 0.0 -1.006666666667e-04 
-9.942841041269e-05 6.330945354939e-06 0.0 
6.330945354939e-06 6.210142166029e-04 0.0 
0.0 0.0 -1.006666666667e-04 
-9.831264427012e-05 3.607920745624e-06 0.0 
3.607920745624e-06 6.668464283750e-04 0.0 
0.0 0.0 -9.733333333333e-05 
-1.003509065967e-04 3.038689806417e-06 0.0 
3.038689806417e-06 6.697580945376e-04 0.0 
0.0 0.0 -9.733333333333e-05 
-9.096542632604e-05 2.974368147523e-06 0.0 
2.974368147523e-06 6.503827388711e-04 0.0 
0.0 0.0 -1.003787787842e-04 
-8.451759272524e-05 -2.785279264380e-06 0.0 
-2.785279264380e-06 6.050107377767e-04 0.0 
0.0 0.0 -9.704544545089e-05 
-1.061297274301e-04 -4.871673269526e-05 0.0 
-4.871673269526e-05 6.458409108431e-04 0.0 
0.0 0.0 -9.900000000000e-05 
-9.597407948562e-05 5.882537232744e-05 0.0 
5.882537232744e-05 6.276346610407e-04 0.0 
0.0 0.0 -9.900000000000e-05 
-1.061722618288e-04 2.720032131649e-06 0.0 
2.720032131649e-06 6.459980937412e-04 0.0 
0.0 0.0 -1.023333333333e-04 
-9.572351935955e-05 9.504820778219e-06 0.0 
9.504820778219e-06 6.293354809804e-04 0.0 
0.0 0.0 -9.566666666667e-05 
-8.827880964785e-05 -4.615262033286e-06 0.0 
-4.615262033286e-06 6.261214177850e-04 0.0 
0.0 0.0 -9.566666666667e-05 

SCALARS element_materi_plasti_kappa_shear float
LOOKUP_TABLE default
2.847132974464e-04
2.567335577462e-04
8.383458615127e-04
8.438320912051e-04
5.252340220499e-04
1.092332508777e-04
5.211056369626e-04
2.682011350187e-04
5.284032086376e-04
8.364231581825e-04
5.721664887116e-04
2.192159031084e-04
8.427469438431e-04
5.626516430071e-04
8.591411753051e-04
8.596118674820e-04
5.228709310720e-04
9.890289689114e-05
1.829897689724e-04
1.694158919351e-04
8.423436282844e-04
2.963793359042e-04
3.324051967767e-04
8.081759085961e-04
6.000118969987e-04
6.135444959901e-04
4.831662702076e-04
8.640260917564e-04
6.044060870881e-04
8.284633969501e-04
1.393644665420e-04
6.157167640348e-05
8.645031697050e-04
7.227162512376e-04
8.409567717064e-04
8.889842858592e-04
8.867272022491e-04
8.401574712595e-04
4.762820424766e-04
4.829160232604e-04
3.784313710213e-04
8.419842235364e-04
1.971583877801e-04
4.640967896192e-04
8.239259452907e-04
1.959288160543e-04
8.321288766212e-05
8.084255947212e-04
3.689720172040e-05
5.421120849717e-04
3.571518168043e-04
2.245192715023e-04
1.849539392691e-04
3.438430703420e-04
8.437751075118e-04
2.946472074171e-04
2.169482347232e-04
7.261086015541e-04
1.365401986572e-04
8.602343425103e-04
5.633449810247e-05
8.068338246298e-04
3.495820234045e-04
1.625404768038e-04
8.423121318073e-04
3.196875078224e-04
2.407380933191e-05
8.605021510781e-04
1.455927549119e-04
8.423461725362e-04
6.362218458080e-04
8.811950242161e-04
8.101315001547e-04
6.837837458653e-05
2.980351712693e-04
8.450728483081e-04
8.650274645366e-04
1.497776459891e-04
1.164171881254e-04
1.495511738586e-04
1.394737434445e-04
4.994656174592e-04
3.126596433046e-04
2.656451840487e-04
5.512146343309e-04
5.478404078236e-04
6.543703068282e-04
7.066969326251e-04
7.292257809066e-04
5.182254199727e-04
3.772961361312e-05
5.068209088843e-04
7.023712359703e-04
7.053137767572e-04
9.034935541177e-04
8.681099508839e-04
4.998503861448e-04
8.654654996241e-04
5.895620793702e-04
3.387865222816e-04
5.023282053966e-04
8.610484090904e-04
6.969273947015e-04
8.114912522944e-04
3.066747276919e-04
1.031286558348e-04
7.940042257422e-04
7.514569823258e-04
6.199677439276e-05
8.454993593349e-04
6.946613572604e-04
4.904031993171e-05
4.043465054525e-04
4.701260917007e-04
3.591769958220e-04
3.010429561774e-04
3.537650535641e-04
8.520744351586e-04
5.793631570773e-04
3.261491376649e-04
1.418039967851e-04
5.194733326263e-04
7.366211917707e-04
3.289742658715e-04
1.029625399055e-04
4.250840810499e-04
3.733497519716e-04
3.937484836423e-04
8.617156175713e-04
1.214391796965e-04
6.025351137927e-04
8.438264723838e-04
4.251430981113e-04
4.028071146060e-04
8.421798094545e-04
8.449973380302e-04
6.540085342923e-04
4.550812470554e-04
8.653037555385e-04
4.073208974335e-04
8.427923186268e-04
8.640045548534e-04
5.578310155526e-04
6.509573146725e-04
4.117138516470e-04
3.711211770560e-04
4.681101004950e-04
3.518672901193e-04
5.147824992523e-04
4.107193794640e-04
3.646113790962e-05
5.532223658631e-04
1.258155624666e-04
4.487912821367e-04
8.442761777728e-04
3.036097253508e-04
6.795876328870e-04
2.190343751187e-04
6.939470314270e-04
5.021535652402e-04
3.806977165922e-04
7.481063603695e-04
1.298522692207e-04
7.928147477738e-04
5.039709184499e-04
8.650019251011e-04
5.013582088109e-04
3.160516627979e-04
4.393239970158e-04
5.920825198174e-04
2.289923969885e-04
3.854224720753e-04
6.780718451192e-04
5.198603884199e-04
3.586956886529e-04
4.169796386473e-04
7.560276412873e-04
4.159140997811e-04
8.428055575623e-04
8.639767009483e-04
2.975132247583e-04
3.989799041527e-04
7.712498508064e-04
3.945945745463e-04
2.576819868644e-04
4.854060291149e-04
3.951341740237e-04
8.456558194475e-04
7.010154264104e-04
7.714816593418e-04
1.746707301352e-04
3.610997931363e-04
7.204647992586e-04
1.945331205908e-05
3.903836025195e-04
7.222445599691e-04
1.036327141325e-04
8.424473339204e-04
6.428453457772e-04
3.831449392291e-04
7.193613777923e-04
5.586004203897e-04
5.898087867421e-04
8.246624455494e-04
2.857235697232e-04
4.866694704310e-04
5.222557039026e-04
6.732665719341e-04
5.326319802480e-04
4.881655111683e-04
6.257681940146e-04
7.388362075692e-04
5.690614774354e-05
2.917017983456e-04
3.317775165376e-04
4.735931798939e-04
7.340526410142e-04
1.447054251006e-04
6.965604954019e-04
5.013674676710e-04
3.566918662294e-04
6.715636749960e-04
6.571013662795e-05
6.877012871154e-04
5.549518836130e-05
8.040745949318e-05
1.732184497000e-04
2.392003364027e-04
7.177475001527e-04
2.320046903568e-04
2.075153724814e-04
1.800041788403e-04
1.507998795129e-04
7.424671531813e-04
5.071426105021e-04
8.446796247734e-04
0.0
2.497594834345e-04
4.009784043096e-04
3.635781274630e-04
6.932515688423e-04
8.647303225506e-04
6.886146806345e-04
2.931670056878e-04
7.441379809633e-04
6.308353337863e-04
4.980516236996e-04
6.615635321969e-04
8.261379668094e-04
4.064024309512e-04
2.371048478647e-04
5.754464620744e-04
9.026357122934e-04
4.917413561400e-04
5.134823346619e-04
5.630191156583e-04
1.329471826665e-04
5.277021269871e-04
2.878196777098e-04
1.938006262720e-04
1.362334838042e-04
7.132570322814e-04
5.514544182274e-04
3.441653812797e-04
7.429062318585e-04
7.078085783757e-04
5.222121837301e-04
8.463050092743e-04
5.284876028695e-04
5.460070011469e-04
4.376131710040e-04
5.575789166973e-04
2.377977007102e-04
5.035541614816e-04
4.257154416742e-04
3.011811086088e-04
6.820805742593e-04
2.384378149136e-05
5.562902183290e-04
3.071842567668e-04
2.550196540710e-04
2.439773196071e-04
5.894366693464e-04
9.570931057482e-05
3.576303071845e-04
5.731391386351e-04
5.461339597621e-04
5.616867596350e-04
1.271009961872e-04
2.958157551279e-04
2.761694005421e-04
3.216903735558e-04
6.680530276719e-04
3.637979337747e-04
3.949989305544e-04
3.759115002993e-04
1.575634516332e-04
4.501668004302e-04
1.708993772794e-04
9.019026024371e-04
9.023973057295e-04
5.057511345693e-04
2.631127598012e-04
2.307674832005e-04
5.600193776098e-04
2.500946570906e-04
2.700679866253e-04
4.922948739685e-04
8.667616329614e-04
3.318462296128e-04
6.222149882880e-04
1.830371105394e-04
9.023475672024e-04
2.441397582287e-04
5.112104398270e-04
1.689503966276e-04
6.053623747982e-04
4.196544349858e-04
2.903890059932e-04
5.270871447235e-04
9.021440381368e-04
3.510699855254e-04
5.781821550489e-04
1.886309360797e-04
6.316875196563e-04
6.668857487106e-04
2.624435093985e-04
6.164660003841e-04
9.026438880277e-04
7.124911027791e-04
9.030006616607e-04
6.099328680256e-04
7.015574955173e-04
2.180182464546e-04
4.840383207087e-04
5.408811792003e-04
5.701871426172e-04
4.675332375955e-04
9.035883904622e-04
5.850053230518e-04
5.141279373987e-04
3.811690988531e-04
1.956242149518e-04
4.646237938930e-04
2.742553589397e-04
5.220512861019e-04
2.960117191843e-04
3.368501384635e-04
7.076177555195e-04
2.798327001462e-04
4.981195041245e-04
5.922020028833e-04
5.249691217824e-04
9.022141612185e-04
4.195717744466e-04
2.760615473356e-04
3.714756492195e-04
2.666495641069e-04
2.573536274962e-04
7.531436391681e-04
5.406886875803e-04
3.691632618911e-04
4.556110258937e-04
9.030518011548e-04
8.532871781874e-04
7.461245423291e-04
6.934880992847e-04
5.105698072065e-04
3.813116805693e-04
2.690679185397e-04
3.126694468458e-04
5.164893174634e-04
5.919748660066e-04
4.476339003619e-04
7.537614717665e-04
2.814322894241e-04
4.431267281225e-04
5.162384399113e-04
3.994083330778e-04
9.019027868779e-04
9.024199943996e-04
8.466674059490e-04
5.551721733312e-04
7.381697029613e-04
2.318050061718e-04
3.566133739436e-04
2.004113789535e-04
3.876518657495e-04
5.007689008681e-04
6.066206779727e-04
8.634617584911e-04
7.387016338322e-04
5.700145676085e-04
5.843478329972e-04
2.129102317008e-04
9.963202888370e-05
4.255642556790e-04
4.864892581303e-04
4.557093610505e-04
1.015080950596e-04
5.392744089157e-04
1.864447400827e-04
2.686669338435e-04
8.829401381496e-04
6.479849204365e-04
5.101152900271e-04
1.402250907171e-04
4.625920286436e-04
4.307827734044e-04
5.943113921106e-04
9.027611341500e-04
4.797580040648e-04
5.649702214781e-04
4.419535104601e-04
7.334092120784e-04
5.703474346401e-04
9.028672049198e-04
8.818149095568e-04
8.812004500203e-04
8.770344726619e-04
6.086454399872e-04
7.380884957385e-04
7.670249911297e-04
3.946547610248e-04
3.761808931614e-04
4.220813725199e-04
7.589723938571e-04
9.023328764655e-04
7.577932565223e-04
6.026760527823e-04
7.626774697069e-04
6.606437481449e-04
4.567756297563e-04
3.825801685651e-04
2.007576887360e-04
8.470469883245e-04
3.704624717408e-04
8.076533810370e-04
4.162571300339e-04
2.699749840163e-04
8.434505841465e-04
2.924500070844e-04
8.816442479766e-04
8.452247512919e-04
5.545088614739e-04
3.473443607641e-05
8.815269345483e-04
8.437795076668e-04
2.644715325930e-04
6.230832692165e-04
9.043633052623e-04
0.0
4.136686690805e-04
5.789929662664e-04
5.300876254499e-04
5.356595073985e-04
2.252617715596e-04
8.806829294995e-04
4.006991802615e-04
1.303841541133e-04
8.663125818618e-04
6.051131586377e-05
4.315774978662e-04
1.176867923368e-04
4.596515473754e-04
9.012311898413e-04
8.829625409697e-04
5.653646595553e-04
8.124087917367e-05
9.994837872237e-05
1.389614691644e-04
7.526188084607e-04
5.232481456078e-04
5.352467886841e-04
8.832777862969e-04
5.239926934470e-04
9.034954834455e-04
6.742815143354e-04
5.863949273689e-04
2.820464387522e-04
6.178481751699e-04
1.825530642902e-04
8.832148814275e-04
8.787933827960e-04
8.806921593160e-04
5.756624678762e-04
3.963242992692e-04
4.623808742286e-04
5.898300044950e-04
8.827105655163e-04
2.739608454354e-04
3.152297798322e-04
3.346486994201e-04
6.118815291473e-04
9.031087235632e-04
9.826315240639e-05
8.806359177385e-04
3.091995583178e-04
8.830701307018e-04
7.737556814763e-04
2.602550826630e-05
4.315307198807e-04
7.678889909001e-04
8.823867652728e-04
6.136211757286e-04
6.941437612341e-04
1.584089862020e-04
8.072406538752e-04
3.285549430036e-04
3.399738602395e-04
6.350089245098e-05
8.815166830728e-04
2.259416864064e-04
7.443039276558e-04
5.669420517884e-04
2.830302926058e-04
3.206987936709e-04
5.893066187854e-04
8.831255390235e-04
4.112126309151e-04
6.461218310913e-04
5.245062035981e-04
5.860608677982e-04
3.451263767299e-04
6.003773440688e-04
5.107552153637e-04
6.659208771778e-04
6.625383459481e-04
5.000360828217e-04
4.220154532181e-04
2.979654696955e-04
3.903746207876e-04
6.804313980790e-04
5.475016889342e-04
9.031543334572e-04
7.872511197512e-04
2.513213857487e-04
8.791428665884e-04
8.623865534780e-04
4.695549206328e-04
3.669236207070e-05
9.023712677026e-04
7.825243345501e-04
2.836634880462e-04
8.808658468444e-04
6.210975252764e-04
4.005662234096e-04
5.509439591359e-04
5.333534302821e-04
5.303907689406e-04
6.114043158285e-04
6.485756697789e-04
4.497226363466e-04
6.883221258394e-04
5.985234349652e-04
4.277851164570e-04
6.370445780655e-04
3.335340985590e-04
5.972217102501e-04
2.690095818511e-05
3.234473257319e-04
3.145667651333e-04
4.619525145775e-04
4.941683527065e-04
6.157927676169e-04
5.953076823754e-04
2.893667186736e-04
8.829502872488e-04
5.841509097848e-04
4.814294041828e-04
5.596214459887e-04
4.676664971932e-04
0.0
5.801676505400e-04
3.844985916664e-04
0.0
4.554300220234e-04
6.611400294946e-04
7.615386503395e-04
5.667217612568e-04
5.798125605848e-04
4.946399896661e-04
4.612945919967e-04
8.448933154629e-04
5.351237915902e-04
2.265059230248e-05
1.593136185292e-04
3.598215869650e-05
2.756541644964e-04
7.595674519950e-04
7.663452637067e-04
7.206272217663e-04
3.111805889127e-04
6.034032161237e-04
7.573752906356e-04
1.740144548794e-04
3.864583664951e-04
3.117083041406e-04
9.031633853049e-04
8.822228944503e-04
4.285735382123e-04
4.870038452020e-04
5.444247428616e-04
7.843706278062e-04
1.688678543700e-04
7.320309974875e-04
1.024779424926e-04
4.424111468176e-04
4.932536473152e-04
3.661873855527e-05
4.046650665538e-04
7.818962903618e-04
2.628493764547e-05
4.594828512294e-04
4.812071489687e-04
6.367624673799e-04
3.155481759348e-04
3.029147364413e-04
2.132280228371e-04
7.837934729915e-04
8.448257163848e-04
7.363444438744e-04
2.851623301377e-04
1.072863423376e-04
4.603504121984e-04
4.608177344525e-04
4.831872055831e-04
0.0
3.555241354687e-05
7.966173186171e-05
2.342846998403e-04
6.373569268983e-05
4.549076851565e-04
0.0
2.796945326255e-04
6.183777696222e-04
4.824258644607e-04
7.814158546744e-04
6.352076666034e-04
5.781612852690e-04
3.372841396968e-04
1.018092465349e-04
8.804341959841e-04
9.035439950554e-04
5.614027168615e-04
4.616000397093e-04
3.431731325220e-04
9.014339937115e-04
2.659509024599e-04
4.803513075401e-04
4.596149613707e-04
4.369192074101e-04
8.832852469207e-04
9.009032309479e-04
6.250414495270e-05
0.0
1.266214781953e-04
4.876279566065e-04
8.196533199701e-04
2.444433938167e-05
7.274110977346e-04
0.0
6.250843933025e-04
2.867078562402e-05
2.783203544243e-05
5.997115799954e-04
7.944815531001e-04
6.355701656843e-04
4.791132808813e-04
3.652595870710e-05
6.229816343343e-04
8.791826602914e-04
9.014687340808e-04
4.821873124554e-04
6.503883133201e-04
8.818062794857e-04
6.993504510242e-04
9.789390783998e-05
6.279365927203e-05
3.939974307887e-05
3.825618914400e-04
9.021047273405e-04
8.443030366409e-04
0.0
4.516920689161e-04
8.837977955305e-04
9.047268419961e-04
9.014166279866e-04
6.824648899155e-04
7.516239818066e-04
8.796515991076e-04
8.818821043928e-04
7.273160736883e-04
2.211575098140e-05
4.787532764467e-04
4.846356056311e-04
0.0
8.847559387122e-04
9.037195635447e-04
8.791881994104e-04
2.812709352533e-05
2.886337119670e-05
8.807302274622e-04
8.799262388240e-04
6.606959234620e-04
4.786921816039e-04
7.045004432885e-04
5.666139951839e-04
4.780950833957e-04
2.553609013369e-05
2.943212211666e-05
2.487007266475e-05
2.712132983020e-05
4.772021594015e-04
4.286502641088e-04
0.0
6.145195953194e-04
0.0
8.800821581416e-04
8.788987143881e-04
8.809194080868e-04
1.543232978874e-04
2.904945093705e-04
8.796413922759e-04
7.525259440061e-04
8.837915350881e-04
7.992262474011e-04
8.460368269156e-04
4.052497561465e-04
9.034475555497e-04
9.025505378386e-04
7.709083270601e-04
8.195089923752e-04
6.617362762152e-04
0.0
4.176416125064e-04
6.092826118018e-05
7.888929342564e-04
4.363249681698e-04
7.275214838645e-04
2.209065391860e-04
8.130906403886e-05
7.783803544764e-04
4.610171208733e-04
3.609674789086e-04
7.334454872421e-04
7.883388593484e-04
3.608088371091e-04
6.922006084626e-04
6.034876983327e-04
6.562206089320e-04
6.777106223571e-04
3.699030016403e-04
4.367455166762e-04
4.808107450877e-04
6.170029851944e-04
7.543946188843e-04
6.998918906108e-04
2.236916744938e-04
7.865894495829e-04
7.412777532416e-04
5.338023001125e-04
6.428876137913e-04
6.366868729429e-04
7.982659732682e-04
7.683299234494e-04
5.896655507063e-04
7.981209395123e-04
7.317182777283e-04
6.996282799597e-04
8.110166413216e-04
7.924641880625e-04
6.744131504159e-04
6.666687721535e-04
2.222812676772e-04
2.065367340502e-04
1.125541859685e-04
6.237733767345e-05
7.698425966603e-04
7.679810230491e-04
6.018528781591e-05
7.767838420586e-04
5.508431979073e-04
7.139111020130e-04
7.225345758280e-04
3.210916204918e-04
7.277792051553e-04
5.345154592761e-04
6.681973168260e-04
8.270717611794e-04
2.126569924616e-04
8.168359037540e-04
6.998709092975e-04
2.419277465397e-04
2.572139128868e-04
5.157383088969e-04
6.206435762795e-04
3.445305893728e-04
7.246223149107e-04
6.508258121004e-04
5.014012835763e-04
6.818156971164e-04
7.083328473163e-04
6.952144219196e-04
1.892569743241e-04
4.759731321316e-04
7.583758524429e-04
7.205684773619e-04
4.286991399852e-04
6.094148028769e-04
7.977133214395e-04
6.694832793452e-04
1.063908867657e-04
1.078325644387e-04
2.185995729447e-04
7.487063186168e-04
6.453888805748e-04
5.685571839540e-04
5.747340170202e-04
7.632873978513e-04
5.213198554590e-04
7.022694847875e-04
2.278532579141e-04
8.104690401052e-04
5.072778477496e-04
2.493887876613e-04
4.811363962896e-04
3.641239825016e-04
2.855768811343e-04
5.596568083914e-04
0.0
0.0
6.426259570283e-04
2.090044132862e-04
6.487981239576e-04
6.292228741945e-04
3.962033144448e-04
2.579044153745e-04
7.616473441749e-04
1.019762165520e-04
3.852520764996e-04
7.853811998397e-04
1.733076863571e-04
6.041255787992e-04
5.562754309982e-04
1.755785073398e-04
7.771304788849e-04
6.907987842018e-04
2.031638653013e-04
7.812508794649e-04
7.761681869909e-04
2.340588006309e-04
3.099693431780e-04
2.401902132467e-04
6.877850878179e-04
5.412899770906e-04
7.773630800326e-04
7.570625316910e-04
6.683791686238e-04
6.625290522613e-04
1.893340517518e-04
6.820308372633e-04
6.862847063831e-04
5.467902184326e-04
6.498698714300e-04
7.159072219897e-04
4.836380743717e-04
7.367030404168e-04
4.559169101876e-04
5.273150536082e-04
3.411674526490e-04
3.634633618335e-04
6.658946142908e-04
5.048839066709e-04
2.598481237302e-04
1.310675626010e-04
6.702674056581e-04
2.538844621688e-04
8.100545142142e-04
6.906694072021e-04
7.081089564605e-04
8.422326803080e-04
4.360105328501e-04
2.279423584864e-04
1.438342882826e-04
6.746645813760e-04
6.253129879063e-04
9.918819555369e-05
3.502385490956e-04
2.023555415197e-04
6.246699331793e-04
3.695628740598e-04
6.232537801749e-04
3.438500574503e-04
7.461722125166e-04
2.994852823397e-04
6.807902368991e-04
2.134297640903e-04
6.549102842848e-04
5.031003560477e-04
6.885245121902e-04
3.402916395449e-04
1.961866029563e-04
5.822861240524e-04
6.308362435894e-04
4.380632245669e-04
6.281676019648e-04
2.380403549025e-04
6.367384190698e-04
1.839508450066e-04
7.725002622058e-04
6.561620715167e-04
6.933815038025e-04
8.092250112126e-04
5.501611933615e-04
1.836188012187e-04
6.153653481655e-04
7.923633784811e-04
3.086645625323e-04
6.943493645374e-04
6.953376833628e-04
2.383737125918e-04
6.351661673105e-04
5.732469191631e-04
2.731502544442e-04
3.307497968412e-04
5.297758459477e-04
6.688023425968e-04
4.058187172305e-04
5.054096064123e-04
6.614441040854e-04
5.998784189862e-04
5.910883509517e-04
4.972646323121e-04
7.574466861930e-04
5.955283378909e-04
5.798186174699e-04
8.003940697799e-04
7.180161900282e-04
6.490287924266e-04
7.113553544645e-04
3.823555630989e-04
3.565404549641e-04
1.953976897051e-04
6.410050228313e-04
3.763189430417e-04
6.449063337001e-04
6.199045494020e-04
5.084125206731e-04
3.051454170769e-04
3.258730291925e-04
3.248932828681e-04
3.506411482378e-04
2.087274372249e-04
7.378551383479e-04
4.282574386795e-04
7.412552030348e-04
4.541815597642e-04
6.095351943613e-04
5.187506594856e-04
4.997510169959e-04
2.146153585684e-04
7.711538397404e-04
8.079476018067e-04
6.361701368165e-04
3.764967077337e-04
5.641220258623e-04
6.406080403220e-04
4.020423173836e-04
4.195882062222e-04
3.055816158326e-04
2.636950223364e-04
4.082271319947e-04
2.736025990170e-04
2.537953830401e-04
5.245273162057e-04
6.292993035881e-04
7.492900454241e-04
3.203758316606e-05
4.405577458711e-04
4.346027194587e-04
4.023785191973e-04
6.155232675037e-04
4.734346387430e-04
3.196066524516e-04
4.342139395113e-04
7.163087986927e-04
3.260933403649e-04
1.168244718053e-04
1.647945889040e-04
2.770873895178e-04
3.310730520104e-04
4.602757153186e-04
4.600207765890e-04
1.928157764076e-04
1.707341749778e-04
5.895058594021e-04
2.797745439378e-04
7.062976887918e-04
7.244525292788e-04
5.994482200641e-04
7.479362706433e-04
7.722073383501e-04
4.891222082220e-04
6.801196645123e-04
2.186358735565e-04
4.535223376976e-04
4.450813002302e-04
2.467733830818e-04
1.750442891068e-04
3.704464435431e-04
4.405809917950e-04
4.660198440887e-04
2.935158266565e-04
4.992118488517e-04
4.465362306875e-04
4.659568211177e-04
3.372178723478e-04
6.620913788087e-04
6.659627664384e-04
4.464589383721e-04
7.516390930913e-04
2.441816649308e-04
8.072504021232e-04
4.795300791222e-04
8.017371460895e-04
6.085549533664e-04
2.321228935279e-04
6.185852731565e-04
7.630767509020e-04
5.051417859831e-04
3.661414466216e-04
6.376993777508e-04
4.811178594329e-04
1.857807587189e-04
8.390465361483e-04
1.628736303485e-04
8.036589317589e-04
7.822328340233e-04
6.817113985780e-04
5.944690303378e-04
7.324063707552e-04
4.717283072585e-04
5.530050660420e-04
7.919782093495e-04
6.749206336022e-04
6.866667910661e-04
6.457616521014e-04
2.126152465348e-04
7.069826387246e-04
8.629714234730e-04
7.993865070988e-04
4.477431927428e-04
5.982374328927e-04
5.702467583064e-04
4.852758503030e-04
6.550541832802e-04
6.806275031619e-04
1.495582113029e-04
2.819536409307e-04
4.719088448474e-04
4.524404810498e-04
4.753774359264e-04
8.204202764358e-04
7.726022105671e-04
7.860269249390e-04
4.302864262974e-04
7.179879766962e-04
6.608709654568e-04
7.991666135651e-04
6.815066276248e-04
4.792430800077e-04
4.524987585418e-04
7.025482517895e-04
7.779314873333e-04
7.070226180185e-04
6.822309135255e-04
7.465300404061e-04
7.826368761700e-04
7.260240088116e-04
5.837814341675e-04
4.125387530949e-04
7.065160572798e-04
6.683788434956e-04
2.478373517059e-04
4.777284192442e-04
5.353515613939e-04
5.977625510039e-04
2.507745920709e-04
4.583293862520e-04
6.426616075672e-04
4.741323037944e-04
4.930461985426e-04
6.351704220665e-04
5.035899061353e-04
8.748336872995e-05
5.699093729231e-04
6.954848808431e-04
7.976626568000e-04
5.222109466484e-04
5.384171766190e-04
6.412047717611e-04
1.333587154635e-04
6.759698665895e-04
5.725287969111e-04
5.032199876639e-04
6.864279124225e-04
2.514950635447e-04
7.120564692623e-04
7.780948302509e-04
6.564610749456e-04
7.116821158201e-04
7.246360851013e-04
7.833643354194e-04
1.802790547338e-04
6.612816129093e-04
7.861355491829e-04
7.278229343817e-04
6.115797601383e-04
4.833414631771e-04
5.268286526492e-04
1.425296761520e-04
7.526132568008e-04
2.678943445110e-04
2.211120256558e-04
7.044851606333e-04
8.041173484503e-04
2.253293374700e-04
5.541855973425e-04
6.771406016496e-04
5.185055617143e-04
2.565916003583e-04
3.358426263350e-04
1.654267237843e-04
2.195587793392e-04
1.948064560472e-04
5.668209511317e-04
9.024478657275e-04
2.656438147348e-04
7.662341416689e-04
4.141061097714e-04
6.566720836641e-04
1.877799869201e-04
8.084989395093e-04
1.994569434083e-04
3.140464818660e-04
6.820386484981e-04
4.908002713549e-04
7.628181862507e-04
3.758479425673e-04
6.979283655874e-04
7.957911377227e-04
6.571731431381e-04
8.029731230695e-04
7.270515574910e-04
7.476451225947e-04
2.191637260577e-04
7.397348748796e-04
6.976508043859e-04
5.085012302089e-04
3.119003519742e-04
8.251246623771e-04
2.569217320374e-04
2.989728286296e-04
7.328562567959e-04
1.824812964156e-04
5.242757088580e-04
7.013386659934e-04
7.908799406318e-04
8.131260850100e-04
6.875825611049e-04
7.527048348785e-04
4.392290927810e-04
7.101308226447e-04
3.576610988848e-04
7.839173444398e-04
4.037880571282e-04
4.232159837033e-04
5.029022043263e-04
4.507734252293e-04
5.870500808989e-04
4.752244134070e-04
5.026363052125e-04
2.249310114461e-04
4.776453301647e-04
7.733738486002e-04
7.976476035845e-04
6.945548351068e-04
7.772416007150e-04
4.852334699188e-04
7.428006378953e-04
4.970035832582e-04
7.593068717160e-04
7.224411528600e-04
7.227149131648e-04
6.309607774765e-04
4.584456414079e-04
7.531944029664e-04
6.034972236900e-04
2.308119231500e-04
2.624460620044e-04
3.872761120802e-04
5.489843774695e-04
7.797820896700e-04
7.023632392718e-04
4.641088760791e-04
6.218312804433e-04
7.219008359154e-04
7.573917115974e-04
7.785266204010e-04
6.280166874005e-04
7.383877363914e-04
5.278638301658e-04
7.262918204668e-04
5.188928070716e-04
7.977154867570e-04
8.063595481927e-04
5.860927408408e-04
2.315643799225e-04
7.386133228481e-04
5.676947967437e-04
4.449348027813e-04
6.172626666964e-04
7.179827493323e-04
2.370266014843e-04
5.414414582278e-04
6.328258620691e-04
7.852987061870e-04
6.515827953541e-04
7.191722898294e-04
6.137788463093e-04
5.757943947390e-04
6.225247935544e-04
7.525361268811e-04
7.265450907645e-04
6.730854564585e-04
8.087327558910e-04
5.947165434318e-04
3.757083337357e-04
7.690299236002e-04
8.027797653313e-04
5.132285230033e-04
5.378259550272e-04
4.198490164914e-04
6.932498007595e-04
4.196989786401e-04
6.013383056530e-04
4.244065472614e-04
7.076412824923e-04
8.082825049946e-04
4.390606027736e-04
1.483230989868e-04
8.029617023960e-04
4.435164002791e-04
5.102475381477e-04
7.829133683486e-04
6.777367698023e-04
7.065388141309e-04
4.506750626244e-04
1.167461404750e-04
8.120451166423e-04
5.678324770761e-04
6.713655535843e-04
7.707853918245e-04
7.492364537136e-05
7.006400612350e-04
3.174082064534e-04
6.321144681100e-04
5.639974680990e-04
4.332125152761e-04
7.650774128591e-04
5.816219672421e-04
3.891223975006e-04
5.975818898240e-04
1.224806412890e-04
6.853035704159e-04
7.134125102004e-04
8.179492543020e-04
7.297421601193e-04
3.065079168190e-04
7.004003726196e-04
8.165253916176e-04
8.479924542833e-04
7.386332535642e-04
4.696607101220e-04
6.412724926972e-04
7.730297312435e-04
5.224557452220e-04
6.991686312028e-04
6.522881639181e-04
7.454810025326e-04
7.319099201394e-04
4.592718609033e-04
4.589748948831e-04
6.632348156822e-04
6.550643866417e-04
5.839389106664e-04
6.520225668259e-04
5.568349206801e-04
7.827592798598e-04
4.641682869918e-04
9.023985271437e-04
5.323389960366e-04
5.433977192185e-04
5.581483784777e-04
2.876533767836e-04
4.987925639303e-04
6.113280308229e-04
5.734936793023e-04
6.486149626944e-04
6.664011184541e-04
6.953526663877e-04
1.412062264109e-04
4.675204502198e-04
4.485143747990e-04
6.274607649306e-04
6.578443530004e-04
7.694390836844e-04
2.018827599834e-04
2.118548485698e-04
5.434196226545e-04
4.731655300954e-04
4.306957946138e-04
4.543511483622e-04
6.528939094235e-04
2.067591147696e-04
5.327937831684e-04
7.010212531473e-04
2.056531891882e-04
8.439841012356e-04
7.711259233898e-04
5.127813030370e-04
7.142204993727e-04
8.010879403205e-05
6.760026335023e-04
5.731440943210e-04
7.848797575394e-05
7.668831780950e-04
1.937244266693e-04
6.327922999710e-04
5.785286832994e-04
4.968174943866e-04
5.956127873224e-04
7.880861604784e-04
6.409960854337e-04
5.623311144195e-04
5.487641104452e-04
6.109272857415e-05
1.629874435700e-04
7.482510755206e-04
6.040877386252e-04
7.640917445135e-04
3.123204989809e-04
7.273523556962e-04
7.747935678475e-04
4.649937047846e-04
7.426717535746e-04
7.200303897050e-04
6.303284010484e-04
5.129756421741e-04
5.441585730997e-04
8.113189037915e-04
5.503878304791e-04
5.924281748206e-04
5.531250535128e-04
6.865936238777e-04
5.186424646122e-04
3.204813496190e-04
5.606647508770e-04
3.450779890533e-04
6.470302402466e-04
3.505252796099e-04
6.277520247305e-04
7.587948185470e-04
7.268103064184e-04
4.888355696636e-04
6.236801479114e-04
7.339558663339e-04
7.397456106695e-04
1.647892676569e-04
6.415300113061e-04
8.022742046257e-04
3.412132358055e-04
5.581165807734e-04
8.708025055710e-05
7.535189856760e-04
3.010719485934e-04
5.274804108231e-04
6.673026496075e-04
6.282397646401e-04
5.981992314315e-04
5.868815627898e-04
3.840091498006e-04
4.074033715262e-04
7.595591585227e-04
6.255621355900e-04
5.413215478798e-04
6.709724982699e-04
5.163063894937e-04
3.315774455480e-04
3.763959762493e-04
5.615934434708e-04
4.817973037771e-04
7.326130562771e-04
4.941499276580e-04
8.205042127968e-04
7.452468947420e-04
5.472972600878e-04
8.312900741524e-04
3.699819044739e-04
8.018291199323e-04
5.922723470957e-04
6.492908331354e-04
7.668482132430e-04
3.896525471501e-04
6.172543904820e-04
5.220226255599e-04
6.028779115149e-04
3.408590409728e-04
6.699987248021e-04
4.909242862165e-04
5.778210378881e-04
5.978296419795e-04
8.229029560999e-05
5.981137410256e-04
1.283223021349e-04
1.425604046919e-04
5.519635169088e-04
7.343432326655e-04
6.172079870032e-04
3.390874049380e-04
8.835512891396e-04
3.541794485888e-05
3.613399971481e-04
5.544855267789e-04
5.326254913468e-04
4.424845602747e-04
3.782682788717e-04
5.798739096979e-04
6.167777849602e-04
6.437007506706e-04
7.590632464972e-04
1.759096795290e-04
5.070291229362e-04
5.467926510370e-04
2.917605163705e-04
4.894986857120e-04
6.227812367473e-04
6.771752748072e-04
1.001730422140e-04
6.527003657202e-05
2.035166912421e-04
5.524955955533e-04
4.141708406182e-04
3.646770521929e-04
3.255364608925e-04
5.717928128404e-04
6.564800500114e-04
5.666644769925e-04
4.085506308660e-04
6.465993337185e-04
5.417387641994e-04
7.125425157821e-04
5.723661868930e-04
5.777202621077e-04
2.916076193924e-04
4.336480661839e-04
5.858412025591e-04
6.379366452071e-04
5.991263956497e-04
3.166301193058e-04
5.916947495787e-04
3.585996022864e-04
1.686121238923e-04
8.065430386563e-04
1.781249146415e-04
3.724154870578e-04
5.819798147523e-04
3.300189918571e-04
5.928518961627e-04
2.717893358977e-04
5.034514971512e-04
5.975048584584e-04
5.161248570229e-04
5.386329409282e-04
8.667360441849e-05
7.766355700003e-04
4.278027150325e-04
7.709884658025e-04
6.554981013868e-04
6.113729652278e-04
6.169416889889e-04
3.837801442347e-04
1.206709874370e-04
7.269670928316e-05
6.307319205139e-04
7.666183021714e-04
3.527221907689e-04
6.608281624570e-04
3.135411494528e-04
6.715213762121e-04
8.631320342243e-04
2.443176703526e-05
8.829965077119e-04
8.852121263970e-04
5.187863560737e-04
4.219301114264e-04
6.361517130024e-04
3.946797178832e-04
1.259295258068e-04
6.663094765465e-05
8.124043100395e-04
6.435964837156e-04
4.857059802391e-04
9.024611897643e-04
2.289087475018e-04
9.032106261994e-04
6.378439507150e-04
4.156051056860e-04
6.056962681492e-04
3.904754317435e-04
1.913315701783e-04
3.651077128310e-04
6.756031953244e-04
7.724144175276e-04
3.966058680347e-04
6.856021964007e-04
0.0
4.025686827041e-04
7.139120631654e-04
3.570731400853e-04
3.273347299656e-04
6.111873319657e-04
1.714241601602e-04
2.420040212522e-04
2.712090176002e-04
3.127039070016e-04
5.608332313648e-04
5.328849272093e-04
6.902231196026e-04
8.080955017943e-04
2.842556977963e-04
6.821682045895e-04
8.109606697113e-04
3.645861892778e-04
1.258230046435e-04
3.462855414954e-04
5.351169772372e-04
6.908562819823e-04
5.298709099370e-04
1.475829349837e-04
6.052995487488e-04
2.176340386909e-04
5.379426478049e-04
5.747509196573e-04
6.255223732288e-04
6.198429424376e-04
3.190834650638e-04
1.430237184057e-04
6.204770996910e-04
2.385014860191e-04
5.727538746632e-05
8.088933360730e-04
7.702342677557e-04
3.537830069708e-05
6.503365910815e-04
2.479462791813e-04
2.600158871832e-04
7.304280687047e-04
6.303423890785e-04
7.052277971026e-04
4.085225165101e-04
4.822303009211e-04
8.428341203802e-04
2.144184038726e-04
7.491156234450e-04
5.624077246742e-04
1.620147722767e-04
6.703416370318e-04
4.275751542475e-04
7.844671194514e-05
3.593652216937e-04
6.605802268349e-04
6.829403826903e-04
1.683856497506e-04
5.389059366488e-04
7.114080209456e-04
7.412554945830e-04
3.386366915786e-04
2.659836531276e-04
5.773807037095e-04
6.106537074396e-04
7.794080869892e-05
8.647472179011e-04
8.429320017221e-04
5.419416684599e-04
8.464641737961e-04
8.449768812639e-04
4.218473016108e-04
4.026312649594e-04
8.662430778611e-04
0.0
2.463689065015e-04
5.423185032493e-04
3.455780040321e-04
3.534199359639e-04
1.932563100895e-04
2.285242578868e-04
5.533910755366e-04
3.894757547290e-04
2.855356333337e-04
7.152732176559e-04
9.025430170280e-04
9.028555141478e-04
4.158729496666e-04
4.991986293731e-04
5.007569812017e-05
1.549723110472e-04
1.733686555641e-04
1.773311158401e-04
6.057473022357e-04
3.472267394595e-04
3.840401147294e-04
1.047743844350e-04
7.694785082956e-04
3.779515105815e-04
8.054340909103e-04
7.382880291593e-04
9.042222901304e-04
9.037391284983e-04
5.542239624201e-04
3.965200569982e-04
2.395169663989e-04
4.095473271816e-04
8.846617183911e-04
1.091075619098e-04
1.309117937249e-04
7.757007018757e-04
5.216493301951e-04
8.114985139276e-04
7.149555952708e-04
7.808260194802e-04
7.476070933347e-04
5.490969887376e-04
3.014610573917e-04
2.949948221418e-04
6.532450277148e-04
7.635848575454e-04
4.588641132707e-04
5.205058156001e-04
5.540928897098e-04
5.659168286544e-04
1.420511469143e-04
2.680728897049e-04
8.651629045309e-04
6.052440982456e-04
8.634119896890e-04
8.245717668539e-04
6.764662760295e-04
8.149161431282e-04
3.967880254959e-04
3.767005960415e-04
8.110139756078e-04
3.456957431072e-05
2.657950424331e-04
8.824542840959e-04
1.237061144379e-04
4.987214213507e-04
8.294168402688e-04
8.695215841111e-05
5.602562008274e-05
9.015334466947e-04
4.603425485765e-04
8.489922161072e-04
8.087138917439e-04
4.591008030381e-04
5.552241480747e-05
8.444214902365e-04
1.414135789209e-04
8.168961864666e-04
8.837090559571e-04
8.142426765288e-04
1.807958899793e-04
5.595583047635e-04
4.199792468794e-04
7.164591502921e-04
9.028817437699e-04
7.102313129860e-04
9.026811156521e-04
8.288145526137e-05
8.646233726606e-04
2.069739792553e-04
1.172764018555e-04
8.657097316282e-04
8.659008612292e-04
8.625184092857e-04
5.047279818662e-04
5.503926425959e-04
1.934303277458e-04
8.651050625011e-04
3.388354453695e-04
1.130064855855e-04
7.389517174799e-04
4.782630476822e-04
8.223389270151e-04
8.930658412704e-04
8.840898532866e-04
2.334843234610e-05
1.127894866393e-05
4.694771593736e-04
4.807281389759e-04
8.834165587509e-04
8.924916119185e-04
5.576594174246e-05
0.0
8.119181321880e-04
8.142322994912e-04
1.701766019211e-04
8.251842060796e-04
5.739886326733e-04
5.078648088346e-04
6.388823889726e-04
1.550243662730e-04
6.739268272391e-04
1.393043346543e-04
4.524792319836e-04
8.185153464905e-04
7.987444324357e-04
4.885491561285e-04
5.870976835179e-04
8.300271616539e-04
7.651236002798e-04
7.207118451451e-04
4.587797315069e-04
6.508513547530e-04
8.137396714987e-04
2.548267730587e-04
6.130172025363e-05
7.910594940571e-04
7.454571359396e-04
1.168423234533e-04
6.691954016891e-04
8.437645600948e-04
7.822748954745e-04
8.291678905268e-04
6.276953752614e-04
3.676099362061e-05
1.910008398258e-04
2.410902129174e-04
5.367277688070e-04
6.465619629803e-04
8.260192756098e-04
8.426510046720e-04
9.968867775761e-05
9.583122356830e-05
1.529254075451e-04
6.701562114990e-04
3.239280242567e-04
8.294279570789e-04
1.624109286017e-04
8.067702666274e-04
5.436640056567e-04
8.463726308532e-04
7.450121923899e-04
5.381792224530e-04
8.657268182902e-04
8.669176791877e-04
8.641188598614e-04
1.063408641689e-04
8.096899185402e-04
8.433515583067e-04
8.209426083778e-04
7.578403458605e-04
8.820824508574e-04
7.152183658321e-04
0.0
1.476863544574e-04
7.925042984467e-04
5.819610102914e-04
8.150003304523e-04
7.872814678585e-04
8.479070143319e-04
7.210640868520e-04
8.478357315245e-04
8.252654922693e-04
8.217924527872e-04
3.382456616413e-04
9.027319105777e-04
5.177284306761e-04
8.149780141979e-04
7.602985457212e-05
7.853489742656e-04
6.747924126657e-04
9.715604780866e-05
1.703587158512e-04
7.357623737217e-04
8.456239339759e-04
8.256639794594e-04
8.510870588008e-04
5.779321806582e-04
5.698562791087e-05
8.903845588755e-05
6.283407249005e-05
1.237561416650e-04
2.218122983909e-05
4.492152745151e-04
8.141022284179e-04
8.188324132241e-04
5.825183578263e-04
3.912991429551e-04
8.215127337613e-04
8.144364166830e-04
8.676175675571e-04
8.131246206762e-04
7.790398171077e-04
7.703091579876e-05
8.521732389425e-05
8.233105816384e-04
7.749586532649e-05
1.142956473345e-04
7.248547269918e-05
8.699680012183e-05
8.468513703275e-04
8.482556314247e-04
8.272172742286e-04
8.507165112290e-04
7.882896166762e-04
6.050128159723e-04
8.848716184046e-04
2.082654753157e-04
4.770383954530e-04
1.308584681555e-04
3.200133854228e-05
9.023297721724e-04
5.253788953819e-04
1.321285258096e-04
4.283053972209e-04
8.675733916602e-04
8.249021745336e-04
8.483302000566e-04
3.066024421433e-04
8.148429218192e-05
8.670431337253e-04
9.023411771345e-04
9.053923630978e-04
5.028745524170e-04
8.096342445588e-04
1.166784308444e-04
8.309395715063e-04
3.072536449823e-05
8.491015123024e-04
8.642157995563e-04
3.254999792424e-05
7.915264275696e-04
6.950269549080e-04
8.486200653357e-04
8.870888049155e-04
6.371787866159e-04
8.507580346646e-04
8.288142407060e-04
6.543265911992e-04
8.219609091343e-04
3.580802034436e-04
4.580585415293e-04
8.289670477400e-04
8.604442280761e-04
0.0
4.595975431844e-04
8.621910031762e-04
1.592545715764e-04
8.297085483634e-04
8.243206064822e-04
8.644406776067e-04
1.547160338610e-04
1.208044010377e-04
5.264955792143e-04
7.516483182700e-04
1.891156848520e-05
8.515789897366e-04
6.135789601255e-04
1.559509946477e-04
5.832862224491e-04
8.658507257749e-04
5.521778443811e-04
4.558321396471e-05
3.239427989419e-04
4.776913424967e-04
5.701251507253e-04
8.287479897685e-04
4.636624967177e-04
4.900391319366e-04
7.786229875005e-05
8.280550521141e-04
7.926388045417e-04
1.331660701839e-04
8.512291248288e-04
8.566440339275e-04
5.134667395409e-04
6.297245589001e-04
4.683583638002e-04
4.786896715519e-04
5.070171589005e-04
7.879088551411e-04
1.144990407912e-04
8.287518740281e-04
5.339553679767e-04
8.658836050112e-04
7.862007520820e-04
5.990262297868e-04
7.981889298720e-04
8.203027348467e-04
8.695097463781e-04
3.580066420134e-05
8.023135303917e-04
8.310675113497e-04
8.967195667714e-05
4.375219600786e-04
5.410315473195e-05
8.369220774202e-04
2.467242924841e-04
2.318971739121e-04
2.569604721247e-04
2.323582238135e-04
2.573660128964e-04
2.323481834884e-04
2.573777332793e-04
2.323926280916e-04
2.574504022643e-04
2.324746838915e-04
2.575468697238e-04
2.325693421246e-04
2.576322522147e-04
2.326122074981e-04
2.576553806804e-04
2.326151529556e-04
2.576522502379e-04
2.588705843304e-04
2.326142016962e-04
2.576375128508e-04
2.306571559578e-04
2.326278861306e-04
2.576262050767e-04
2.326180735072e-04
2.575817555027e-04
2.325405437276e-04
2.371444383033e-04
2.574556691956e-04
2.324538276695e-04
2.574825913594e-04
2.325861304384e-04
2.575227655495e-04
2.326671156115e-04
2.578962146880e-04
2.329911614336e-04
2.574939041830e-04
2.326152256377e-04
2.440244319060e-04
2.332069693135e-04
2.585665773561e-04
2.307697375987e-04
2.562555830984e-04
2.601089679822e-04
2.162782946957e-04
2.577307751470e-04
2.370799216689e-04
2.479843099940e-04
2.355777807444e-04
2.300605477233e-04
2.893562250950e-04
3.035610020743e-04
2.781398742463e-04
3.024796248070e-04
2.774000520103e-04
3.024086532762e-04
2.773792771481e-04
3.024572659554e-04
2.774284649834e-04
3.025480157212e-04
2.775301685476e-04
3.026855389739e-04
2.776610420386e-04
3.027150412041e-04
2.776797469847e-04
3.026647938250e-04
3.057519497818e-04
2.776123204034e-04
3.026644902344e-04
2.828915978971e-04
2.776728359796e-04
3.027151159073e-04
2.761654015987e-04
2.777471929607e-04
3.027239513287e-04
2.777229964406e-04
3.026125050717e-04
2.775893337710e-04
3.022358251205e-04
2.911528140928e-04
2.773787975288e-04
3.027660250717e-04
2.778333905826e-04
3.023471162595e-04
3.041522434489e-04
2.778236615926e-04
3.009345726581e-04
2.786762187220e-04
3.055181121834e-04
2.755391628935e-04
2.628456973792e-04
2.894887970220e-04
3.094946284243e-04
2.879404696216e-04
3.001784249515e-04
2.747666986158e-04
3.387590509463e-04
3.239558570236e-04
3.490589559299e-04
3.242489538052e-04
3.492778332294e-04
3.244009492226e-04
3.494137940559e-04
3.243450263155e-04
3.494285644229e-04
3.244491555650e-04
3.495528953540e-04
3.245729995313e-04
3.497476816412e-04
3.247790095566e-04
3.498156307860e-04
3.524344535621e-04
3.244756318896e-04
3.234927653718e-04
3.495180048905e-04
3.245640602665e-04
3.496724803304e-04
3.248419696225e-04
3.498816701128e-04
3.248366754099e-04
3.293404958308e-04
3.498297634467e-04
3.247755033259e-04
3.497132450553e-04
3.245820555673e-04
3.488372345038e-04
3.242701434091e-04
3.503144451308e-04
3.256426464242e-04
3.234521601643e-04
3.489428141026e-04
3.382079507074e-04
3.528736187585e-04
3.091709295256e-04
3.479959789487e-04
3.272882465017e-04
3.399401601187e-04
3.274902301269e-04
3.210995550700e-04
3.823738146998e-04
3.954225263856e-04
3.697566624949e-04
3.939322582241e-04
3.688694981486e-04
3.944097865815e-04
3.693773633783e-04
3.940314017453e-04
3.688791821506e-04
3.943498072948e-04
3.693104022334e-04
3.943240387101e-04
3.692423004483e-04
3.983221388088e-04
3.950761893213e-04
3.697532978986e-04
3.757283910689e-04
3.940431169502e-04
3.690941919872e-04
3.688922250286e-04
3.943316706399e-04
3.695967294386e-04
3.950039595106e-04
3.699171745464e-04
3.947738597822e-04
3.836764221872e-04
3.696289525296e-04
3.946866788540e-04
3.951305091693e-04
3.698050963930e-04
3.917401968718e-04
3.700257270424e-04
3.984140208452e-04
3.678384251997e-04
3.553107824800e-04
3.787353646523e-04
4.015883610286e-04
3.798602337846e-04
3.917784855672e-04
3.672570110000e-04
4.343021193814e-04
4.144431140943e-04
4.400238155636e-04
4.160910928413e-04
4.407194433539e-04
4.169792812266e-04
4.421275663542e-04
4.155655137509e-04
4.404257626118e-04
4.163557751547e-04
4.417490498800e-04
4.164243392235e-04
4.451512402664e-04
4.411469643058e-04
4.182864247912e-04
4.154450539294e-04
4.421592365310e-04
4.167200733669e-04
4.407251200889e-04
4.170139093125e-04
4.420435047998e-04
4.169234513539e-04
4.225836555007e-04
4.425201970351e-04
4.165861177248e-04
4.414159334299e-04
4.159924669279e-04
4.163537947849e-04
4.414971076271e-04
4.437645096039e-04
4.307709466435e-04
4.017743348262e-04
4.348445271150e-04
4.227645607119e-04
4.331703470473e-04
4.187044942453e-04
4.146339968586e-04

SCALARS element_materi_plasti_phimob float
LOOKUP_TABLE default
1.964882437394e+00
2.348969340394e+00
1.931686285956e+01
1.895885412207e+01
1.308818790154e+01
-6.527731111102e+00
1.317022343122e+01
6.957239446291e+00
1.318383667124e+01
1.892260422535e+01
2.108518974968e+01
-1.060159408413e+00
2.084265482130e+01
1.416210563030e+01
2.069234172233e+01
1.916408836706e+01
1.264505570499e+01
-6.618503257654e+00
1.000489560878e+01
1.092141200016e+01
1.890368408339e+01
-3.999678152039e+00
2.875004343932e+00
2.122859481895e+01
1.517121931013e+01
2.118785015326e+01
1.077481525751e+01
2.037815833806e+01
1.514313782897e+01
2.125715556342e+01
2.393879078239e+00
-2.095174368619e+01
1.924606548391e+01
2.111917289599e+01
2.095165739165e+01
2.081558010947e+01
2.072342555613e+01
2.103017673345e+01
1.139779086139e+01
1.151501504732e+01
5.197725141878e+00
2.078293572133e+01
2.718313944836e+00
1.071169201813e+01
1.869736573725e+01
3.150988891371e+00
-4.472593283176e+00
1.877223400749e+01
-2.200087860876e+01
1.350336346675e+01
3.995827185055e+00
1.332325880454e+01
1.115593600660e+01
9.707234639877e-01
1.918756645300e+01
1.692062388192e+01
1.418497920951e+01
2.117416637684e+01
4.304777120211e+00
1.914916606732e+01
-2.793259865507e+01
2.066349850419e+01
1.318365283473e+01
9.146664246550e+00
2.084462259110e+01
-2.129058360793e+00
-2.997055853851e+01
1.926347769282e+01
5.366235924420e+00
1.974023522739e+01
2.121519256429e+01
1.956506740281e+01
2.004673159065e+01
-1.477145042684e+01
1.754624045851e+01
1.895767915116e+01
1.912736795918e+01
-1.375467851254e+00
4.804726190399e+00
2.815269429950e-01
5.824083350345e+00
1.258546903217e+01
2.648243305084e+00
-6.606373518633e+00
1.392733102562e+01
1.396657667324e+01
2.120741942828e+01
2.118639055503e+01
1.784918875638e+01
1.296678103321e+01
-2.136343071793e+01
1.250447220367e+01
1.742136146121e+01
1.725104982087e+01
1.940972612324e+01
2.076113941214e+01
1.246673019944e+01
2.117137309618e+01
1.531049808903e+01
1.200698442578e+01
1.223911404968e+01
2.075705995970e+01
2.065104090509e+01
2.056842267337e+01
1.581550726404e+01
-5.841438471404e+00
2.097028416897e+01
1.786902080609e+01
-2.279366064366e+01
2.063701050041e+01
1.758342115960e+01
-2.603644951994e+01
1.874266231270e+01
1.060371418423e+01
1.927915050197e+01
1.103030452364e+01
1.441858544157e+01
2.086326802977e+01
1.491076785594e+01
1.465490032640e+01
4.413559419081e+00
1.248689499558e+01
1.793546802944e+01
1.525420932798e+01
-1.038566209644e+01
8.205636681273e+00
1.902223444727e+01
5.886621901199e+00
1.919064136044e+01
-2.380111861989e+00
2.118786168013e+01
1.897792596068e+01
1.182646968974e+01
6.808195101701e+00
2.108709314260e+01
2.082320907593e+01
2.125402848463e+01
1.258431653740e+01
2.119999913599e+01
9.681754003508e+00
1.908324484813e+01
1.960856759236e+01
1.406684108973e+01
1.643823879375e+01
1.039531832796e+01
3.805588529161e+00
1.364150280436e+01
1.732844007460e+01
1.259488561741e+01
1.906812618442e+01
-2.228271772474e+01
1.392501225909e+01
5.889569778041e+00
9.521625483722e+00
2.080394569074e+01
1.574294250407e+01
2.122457020400e+01
4.227513773794e+00
2.066031613895e+01
1.285029142425e+01
1.946184434644e+01
2.110712105028e+01
4.535524218819e+00
2.098862532039e+01
1.261802204918e+01
2.097578810829e+01
1.277854287420e+01
1.731692072712e+01
9.154389694477e+00
2.119613514231e+01
3.861033905781e+00
1.945827392379e+01
1.687417825333e+01
1.272162986984e+01
1.817383160529e+01
7.644728276229e+00
1.876036540997e+01
1.972126615403e+01
2.037312721821e+01
1.967299222339e+01
9.911330042592e+00
1.984178570025e+01
2.139516509066e+01
7.955711660806e+00
7.166761657503e+00
1.161316609269e+01
1.809863042738e+01
1.909978112333e+01
1.743736269178e+01
2.105383545290e+01
1.573547638564e+00
1.961925357627e+01
1.784115437581e+01
-3.635416760067e+01
7.164426368795e+00
2.162677691725e+01
-4.269458038907e+00
1.908393485167e+01
1.616340183367e+01
2.060871924540e+01
2.183588043520e+01
1.372582349141e+01
1.471272790724e+01
2.105353466492e+01
1.778535085287e+01
1.491359587332e+01
1.359017767537e+01
1.657340357912e+01
1.340271560250e+01
1.165287475600e+01
2.092825033396e+01
1.840680066935e+01
-2.685677893814e+01
7.326285084541e+00
9.643998718250e+00
1.403816450191e+01
1.772723077719e+01
6.384809084432e+00
2.172798362809e+01
1.255245144272e+01
1.987766654980e+01
2.179272108679e+01
-1.720945989009e+01
1.699501510230e+01
-2.340217486470e+01
-3.326769984232e+00
1.743322364957e+00
1.576559496738e+01
1.732947621549e+01
1.433893082362e+01
1.174641035757e+01
1.020518452884e+01
7.675388651345e+00
2.168338936690e+01
1.271479837419e+01
2.090195129594e+01
-4.162303843941e+01
1.557792316061e+01
2.030993041294e+01
5.857548405762e+00
2.194407216629e+01
2.094096437852e+01
1.701546953626e+01
1.805294311270e+01
2.151020168093e+01
2.122794117729e+01
1.417439594694e+01
1.658642070227e+01
2.037697050950e+01
2.022671047547e+01
1.222035014514e+01
1.473009842204e+01
1.942607799749e+01
1.522623485401e+01
2.117348224148e+01
1.416641279485e+01
2.321307678259e+00
1.332784421206e+01
1.880044431735e+01
1.308197022272e+01
5.092137517348e+00
1.737411621446e+01
1.423865891252e+01
1.669410425634e+01
1.768057169480e+01
1.743070202576e+01
1.439816085364e+01
2.068686489320e+01
2.154191611150e+01
1.468729675699e+01
1.852816613143e+01
2.122108280022e+01
1.691637450969e+01
1.243477256825e+01
2.079165411651e+01
1.879063093758e+01
1.702614558488e+01
-2.970764154693e+01
1.402893407151e+01
1.976596107824e+01
1.480834468222e+01
1.575398354624e+01
1.534993824672e+01
-5.863328832797e+00
9.131540718510e+00
2.153454749816e+01
1.413875886489e+01
1.382729650480e+01
1.471408378724e+00
1.965737063762e+01
1.766541670937e+01
8.323889696429e+00
1.657609132793e+01
1.046261882777e+01
2.114261932029e+01
2.061030826121e+01
4.814713763751e+00
1.910786748100e+01
4.096722689217e+00
1.949354770385e+01
1.958551751880e+01
1.595436288503e+01
1.812757160162e+01
1.348733191574e+01
1.539033675382e+01
1.562151767982e+01
1.854209065545e+01
1.384069298518e+01
1.905368711414e+01
1.998878647412e+01
2.088358830458e+01
9.745751217142e+00
2.097724869603e+01
1.667068117157e+01
1.499259056802e+01
1.012613963523e+01
2.211932133694e+01
2.091568931844e+01
1.920592761468e+01
1.374537731054e+01
1.982436529040e+01
2.066858040755e+01
2.149488073273e+01
8.301971260221e+00
1.591282247198e+01
2.201048785933e+01
1.315275483895e+01
1.546595774323e+01
2.024120845704e+01
2.181596890561e+01
1.970854163681e+01
1.529481399984e+01
1.760425553792e+01
8.428672559668e+00
1.207144876499e+01
1.452088725597e+01
1.503367862832e+01
1.549559388116e+01
2.050660263457e+01
1.469755839414e+01
1.254872462022e+01
2.032150028145e+01
1.267794039669e+01
1.075766464213e+01
1.588481963934e+01
1.280131267513e+01
1.838649063488e+01
1.948828170947e+01
1.737618224115e+01
1.557682583541e+01
1.304341661744e+01
2.175781473067e+01
2.201794007842e+01
2.077725897223e+01
8.928235687922e+00
1.900917379050e+01
1.994250041864e+01
9.916034210508e+00
1.320149227860e+01
1.809383095200e+01
1.537726525036e+01
7.263379459767e+00
1.106292769868e+01
2.100447409833e+01
2.106486404534e+01
1.810103962407e+01
1.696309149094e+01
2.169601348389e+01
1.339882117560e+01
1.713612670906e+01
1.904237001771e+01
1.527084017392e+01
2.190479442770e+01
2.059584517892e+01
1.805040717384e+01
1.804464008172e+01
1.638348019129e+01
1.414050815749e+01
1.558316833297e+01
1.961911447422e+01
1.954842208376e+01
1.906290453040e+01
2.182485052597e+01
1.772792655245e+01
1.281589909485e+01
2.017123199241e+01
1.170386600252e+01
1.020849218873e+01
1.243337304346e+01
1.534811714529e+01
2.122946432264e+01
1.822272130201e+01
1.467683579779e+01
1.567559403430e+01
1.512094391358e+01
-5.634962734057e+00
1.978284910605e+01
1.702957985781e+01
1.946626168481e+01
-6.154080959342e+00
1.414443719738e+01
1.060634194538e+01
1.744850105585e+01
2.057616989675e+01
2.121841851391e+01
1.251702826244e+01
4.602869362852e+00
1.492508880218e+01
1.992319408799e+01
1.540690630280e+01
1.998621955569e+01
1.185333151619e+01
1.555304486526e+01
2.090303326733e+01
1.771333241779e+01
2.206713406487e+01
2.004464788350e+01
2.004782162506e+01
1.975259167303e+01
1.986724112071e+01
1.599108102601e+01
1.767358373995e+01
1.846804092884e+01
1.447949474817e+01
1.183718566481e+01
2.018706127394e+01
1.801605100127e+01
2.038329914407e+01
1.802888541507e+01
2.123397578139e+01
1.798874203943e+01
1.890573383813e+01
1.709503219035e+01
9.261233867319e+00
1.292229992406e+01
1.913926065666e+01
1.570455915677e+01
1.977871500744e+01
2.047844599559e+01
1.710857575777e+01
2.084313802928e+01
1.767081985263e+01
2.013736479212e+01
1.923173434298e+01
1.604111931115e+01
-2.287088870041e+01
2.029571495159e+01
2.082214533572e+01
1.793294830380e+01
2.146933369223e+01
2.089270841718e+01
-5.383413305376e+01
1.645641471705e+01
1.617778375788e+01
1.596685998316e+01
1.515812246016e+01
1.461543776729e+01
2.043974405497e+01
2.082905924769e+01
2.880359399654e-01
2.102081503994e+01
-2.240090727778e+01
1.030415313705e+01
4.291823695095e+00
1.054101002186e+01
2.099196008603e+01
2.054352999387e+01
1.493132660416e+01
-5.263184273381e+00
-4.843736748355e+00
2.480310921176e+00
2.139561223734e+01
1.247440747739e+01
1.328088782829e+01
2.060283488665e+01
1.255432523342e+01
1.949605733467e+01
1.935435319918e+01
1.487930609886e+01
1.284196359912e+01
2.150281672793e+01
8.769619248455e+00
2.061891412990e+01
1.995118846738e+01
1.981371226382e+01
2.178335874366e+01
1.971139209867e+01
1.780465282810e+01
2.197900866435e+01
2.060747712777e+01
1.669154926405e+01
2.013830233945e+01
2.049570414228e+01
1.550837992026e+01
2.096629936333e+01
-6.324814232108e+00
2.058450899168e+01
1.966349972470e+01
2.022681201658e+01
1.844887936543e+01
-4.975910945063e+01
1.794380783048e+01
1.801590009765e+01
2.037778247315e+01
1.606005133914e+01
1.993296494616e+01
6.814678211821e+00
2.104570646074e+01
2.000674302498e+01
1.980118871609e+01
-2.197597200009e+01
2.049576694217e+01
1.397761982803e+01
2.157049991209e+01
1.424793645358e+01
1.732505316596e+01
1.937905427035e+01
1.578659501813e+01
2.061897824950e+01
2.018745980259e+01
2.181328100280e+01
1.698788136355e+01
2.197218627541e+01
2.012455056235e+01
2.185730099789e+01
1.629740224744e+01
1.816152673533e+01
2.144224835278e+01
1.765138020408e+01
2.082652881122e+01
1.727228747951e+01
1.998247514595e+01
1.954609091405e+01
2.179871850953e+01
2.098828273638e+01
1.828054391861e+01
1.653777247490e+01
2.059479400655e+01
2.119982569452e+01
1.998527703152e+01
-2.225141191790e+01
2.094309144248e+01
1.828703626892e+01
1.856615348482e+01
2.056378570100e+01
2.179181871567e+01
1.173618016130e+01
1.398701618950e+01
2.147620900830e+01
2.168392247023e+01
2.193447240073e+01
1.613364466188e+01
1.210599915356e+01
2.119275441712e+01
1.516094264805e+01
2.046582623337e+01
2.169033228276e+01
1.936151531298e+01
2.152629323048e+01
-4.580380142102e+01
1.747052848655e+01
1.893170994695e+01
2.096540203927e+01
1.937670643208e+01
2.203408675535e+01
1.501474684854e+01
1.785132786988e+01
2.055315227348e+01
1.633421014874e+01
2.100505047887e+01
1.623732845268e+01
2.070903590798e+01
-5.102036034737e+01
1.461470221038e+01
1.945840522935e+01
-5.861623633425e+01
2.068909646040e+01
2.192916398851e+01
1.811602268670e+01
2.196307571467e+01
2.220237433872e+01
1.164645821983e+01
1.068160584770e+01
1.915470271252e+01
1.619344784035e+01
-6.307714986680e+01
7.462216070319e+00
-2.252435686012e+01
1.671414308086e+01
1.877583650695e+01
1.809520627693e+01
2.155757656629e+01
1.791537539421e+01
2.136807359672e+01
2.159141408103e+01
8.661894163649e+00
1.936550529970e+01
1.779877152592e+01
2.094385044483e+01
2.054209595427e+01
2.005195990803e+01
2.077555580231e+01
2.195535912287e+01
2.148860977371e+01
9.992175909930e+00
2.169502379011e+01
-4.030766130126e+00
2.037802752392e+01
2.100459557275e+01
-2.073976179303e+01
1.967414677812e+01
1.833619659265e+01
-6.148745237007e+01
1.061851815592e+01
1.072494864279e+01
2.183984513240e+01
1.775311613935e+01
1.907044558883e+01
1.063093394678e+01
2.123213670173e+01
2.009374894933e+01
1.764779308926e+01
1.333442196096e+01
-1.302983000661e+00
1.142746879107e+01
1.090789172276e+01
1.097747023730e+01
-5.795605159626e+01
-2.118945480228e+01
-3.322994089998e+00
1.511847359105e+01
-2.028323004176e+01
2.039944131489e+01
-4.352413682003e+01
1.726514197516e+01
1.604527603931e+01
1.078190865995e+01
1.886541978647e+01
2.192250704349e+01
1.515938893828e+01
1.838183880526e+01
-3.838863138531e+00
1.950294764080e+01
1.939769593829e+01
1.428233426215e+01
1.082441794265e+01
1.843036628508e+01
1.939114659470e+01
1.618053957570e+01
1.072277820645e+01
1.069933795059e+01
9.442296063147e+00
1.970892332202e+01
1.936750269085e+01
-2.079174718964e+01
-5.764824324282e+01
3.552315118341e+00
2.127279647318e+01
2.091962921692e+01
-3.455859974055e+01
1.767558330068e+01
-4.563807656050e+01
2.211596108816e+01
-4.172992289225e+01
-3.806470899103e+01
2.217968032142e+01
2.102660847297e+01
1.596494563915e+01
1.288154112414e+01
-2.056067206326e+01
2.133366828592e+01
1.944562490961e+01
1.939072991847e+01
1.083566368956e+01
2.200412595616e+01
1.949045210864e+01
2.003468250238e+01
-4.359678676126e+00
-2.041158651094e+01
-2.095388394716e+01
1.931526658444e+01
2.076642552987e+01
1.897270142702e+01
-5.763593391213e+01
2.030693033026e+01
2.049765198842e+01
2.081710918331e+01
2.092011593414e+01
1.701980311467e+01
1.797507580642e+01
2.048401396953e+01
2.049266048773e+01
1.767397082808e+01
-6.480757129333e+01
1.094589079731e+01
1.093045599760e+01
-5.773001000529e+01
2.050717909584e+01
2.093866117556e+01
2.050590698299e+01
-6.105728438343e+01
-6.070013542867e+01
2.052841081402e+01
2.051943558813e+01
1.665072446437e+01
1.099330291054e+01
1.735452408989e+01
1.465766056606e+01
1.100927552047e+01
-6.187561954725e+01
-5.960676877051e+01
-5.753688608264e+01
-5.381021843748e+01
2.057421988834e+01
2.002042623665e+01
-5.751883621890e+01
2.118512683248e+01
-5.581395198599e+01
1.960524676237e+01
1.947076715386e+01
1.951831886692e+01
7.958015908441e+00
1.700787054144e+01
1.945490660718e+01
2.110734451924e+01
1.947997456814e+01
2.099207800347e+01
2.083094763851e+01
1.968621193230e+01
1.938109344304e+01
1.940013990283e+01
2.103009590115e+01
2.090403243402e+01
2.125134708908e+01
-4.822281190329e+01
2.002708800163e+01
-2.129835545491e+01
2.115998121890e+01
2.060121673347e+01
2.124854045176e+01
1.365545143196e+01
-4.864051059064e+00
2.109190883234e+01
2.045613347657e+01
1.900950022244e+01
2.120526082391e+01
1.846260337760e+01
1.888214492469e+01
2.170889350218e+01
2.170685505022e+01
2.131921372528e+01
2.126899486469e+01
2.115616327492e+01
1.085632136643e+01
1.888560623516e+01
2.145788236427e+01
2.114169838872e+01
2.122323919935e+01
1.483226066063e+01
1.840759045437e+01
1.786931826596e+01
1.354584231258e+01
2.152386693064e+01
2.138854538178e+01
1.847320045517e+01
1.817937319289e+01
2.156391478398e+01
2.099777699279e+01
1.768530455073e+01
2.117273915421e+01
2.104228978110e+01
1.841130798625e+01
1.677691951722e+01
2.172934371498e+01
1.414580723438e+01
1.359755384902e+01
-1.460311810013e+00
-2.209138358913e+01
1.816621207449e+01
2.106760667407e+01
-2.240610704965e+01
1.832080406031e+01
1.414800523275e+01
2.127142756773e+01
2.119527439834e+01
1.945185948145e+01
2.117399914186e+01
1.350735439424e+01
2.141582610259e+01
2.094406893863e+01
1.363854017884e+01
2.111790427847e+01
1.720188603033e+01
1.519047576850e+01
1.598255351547e+01
2.091730533968e+01
1.582020345764e+01
1.909630746403e+01
1.758269218167e+01
1.641310050262e+01
2.103898532374e+01
2.123606798261e+01
2.122766661933e+01
1.722636057866e+01
1.120831531146e+01
2.077383060532e+01
2.095109106141e+01
1.748753264389e+01
2.031717656988e+01
2.150952036183e+01
2.120583906851e+01
1.679217303326e+01
-4.845253401280e+00
-1.873326970592e+00
1.387969872480e+01
2.116971764814e+01
1.633913205238e+01
2.102922357530e+01
1.474566229851e+01
2.146613739790e+01
2.107146789285e+01
2.126379880576e+01
1.398198193984e+01
2.113337172980e+01
2.086748372459e+01
1.507840052552e+01
2.062857312682e+01
1.940035904971e+01
1.693536037203e+01
2.110951023250e+01
-5.705241871981e+01
-5.615599539564e+01
2.129790734334e+01
1.272032042923e+01
2.139197107095e+01
2.145200788240e+01
2.033393046844e+01
1.721184882909e+01
1.800289367876e+01
-3.863674805786e+00
1.970143489731e+01
2.134582532981e+01
1.056947707329e+01
1.536710819442e+01
1.414640420135e+01
9.711396021270e+00
2.133195773601e+01
1.696675050128e+01
1.291731211154e+01
1.823037414767e+01
1.827092231333e+01
1.437387406012e+01
1.302019218876e+01
1.481096849649e+01
2.126810175914e+01
2.110043540294e+01
1.833314614103e+01
1.803561246823e+01
2.133114980822e+01
2.143259352314e+01
1.188329658161e+01
2.134316579122e+01
1.700495009052e+01
2.099815609958e+01
1.631122929119e+01
1.737792595797e+01
2.149984976359e+01
1.778313333635e+01
2.052413885778e+01
2.095154540645e+01
1.877562587252e+01
1.950748092540e+01
1.668578329349e+01
2.147658513952e+01
1.576567693684e+01
3.374224610246e+00
1.665046445685e+01
1.605283088137e+01
2.112565949284e+01
1.711704591461e+01
2.134745396148e+01
2.084357746268e+01
2.014788079399e+01
1.460194271310e+01
6.657044049912e+00
2.142913035196e+01
1.595730633998e+01
-2.171139465681e+00
1.878326164554e+01
1.220277887615e+01
1.578392395088e+01
1.908660600545e+01
2.161608188794e+01
1.864187648227e+01
1.785167228028e+01
1.785128958334e+01
2.153678590808e+01
1.308158104538e+01
2.150845202331e+01
2.076507973368e+01
2.145435659167e+01
2.082855851135e+01
1.240413844194e+01
1.487710207995e+01
2.191822890882e+01
1.545792840996e+01
1.592614339110e+01
1.500107782289e+01
1.606217222073e+01
1.070342820876e+01
2.128618888225e+01
2.184486303724e+01
2.118035101198e+01
1.855989176805e+01
2.165452737511e+01
1.136556382219e+01
2.165808760068e+01
2.129270398815e+01
1.843768024807e+01
2.134949725765e+01
1.708971914278e+01
1.630436015923e+01
2.158505023338e+01
1.452277030553e+01
1.624912248311e+01
1.839228192377e+01
1.758507335148e+01
2.156329195576e+01
1.240844429376e+01
1.823558967644e+01
1.655681000840e+01
1.539051406892e+01
1.506284201347e+01
2.086346429819e+01
2.144373692866e+01
2.172543614079e+01
1.472779686362e+01
1.867481629583e+01
2.092797056536e+01
2.167145822416e+01
1.741213478456e+01
1.976533189498e+01
1.913044140105e+01
1.170016628218e+01
2.171320547752e+01
1.943894951912e+01
1.616039611654e+01
1.561787448321e+01
2.164113718169e+01
1.830373487684e+01
2.043981513520e+01
1.873654079581e+01
1.950039528743e+01
1.340599249655e+01
2.155481772929e+01
2.119278968368e+01
1.775345239600e+01
2.156980477214e+01
2.188079591900e+01
2.178494767050e+01
1.973353442414e+01
1.315778542445e+01
2.143907563462e+01
2.126697777046e+01
1.803266840791e+01
2.016230733576e+01
2.188036862684e+01
1.619936225240e+01
1.999068918244e+01
1.729310211107e+01
1.757926813013e+01
1.655012808813e+01
2.031439468719e+01
1.682452650756e+01
1.539254299739e+01
2.147120856556e+01
2.177776017144e+01
1.900620516532e+01
-5.711432887239e+01
2.183928152456e+01
2.154727187569e+01
2.072981070489e+01
1.565800624215e+01
2.156782942120e+01
1.834326115241e+01
2.078040363815e+01
1.751732539536e+01
1.815696544195e+01
2.371307103499e+00
9.360737361555e+00
1.791689813526e+01
1.919656386540e+01
2.186334242119e+01
2.116414608985e+01
1.138566241472e+01
9.378010997030e+00
1.481567666559e+01
1.657379464000e+01
2.176898291792e+01
1.895211240242e+01
1.521226042791e+01
1.786313204936e+01
1.907898094251e+01
2.139497548036e+01
1.852427193490e+01
1.369369215039e+01
2.087031147690e+01
2.051975443263e+01
1.712253643398e+01
9.233710869903e+00
1.976101652489e+01
2.110236607427e+01
2.143871262366e+01
1.748089474796e+01
2.183107303011e+01
2.138420668800e+01
2.207091841892e+01
1.876893239672e+01
2.170095249500e+01
1.651629892676e+01
2.201866499923e+01
2.156737050737e+01
1.557239467961e+01
2.137595566546e+01
2.185500720576e+01
1.920762928859e+01
1.648067184128e+01
1.556852772032e+01
1.579383772921e+01
1.806325568093e+01
2.205857183948e+01
1.849603172944e+01
1.635518880750e+01
1.627025631397e+01
1.183423052915e+01
1.894699407230e+01
8.970264145362e+00
2.110366587338e+01
1.835184185807e+01
2.172786498138e+01
1.521601240172e+01
1.754880719827e+01
2.165675943118e+01
2.168939342681e+01
1.842547400930e+01
2.169389457926e+01
1.684395134279e+01
2.207982953096e+01
1.435167297042e+01
1.714971796224e+01
2.008351178483e+01
2.132872812293e+01
2.123452364721e+01
1.517830784284e+01
1.456168097937e+01
2.146809665982e+01
2.181040461384e+01
2.180540589573e+01
6.514981913559e+00
1.916346024736e+01
2.212762157941e+01
2.158714758245e+01
1.837735032787e+01
1.866888731729e+01
1.836893457932e+01
1.832024243152e+01
1.240845529808e+01
1.741743562510e+01
2.162697467233e+01
1.850622457675e+01
1.671589384012e+01
2.120652677421e+01
2.201039745456e+01
1.720103817074e+01
1.815771565046e+01
1.730640910862e+01
1.689043130560e+01
2.151130621261e+01
2.101148487114e+01
2.163884541514e+01
2.179561391065e+01
8.211184643955e+00
2.158348891831e+01
1.661282143024e+01
1.560742904442e+01
2.176628837044e+01
2.223299904152e+01
2.167639019457e+01
1.771275007507e+01
2.164784449491e+01
2.161916203936e+01
1.253297486535e+01
2.155277236430e+01
1.585564259941e+01
1.229572835496e+01
-3.385098926643e+00
2.161296867490e+01
2.185333401580e+01
1.860518377124e+01
2.200227294925e+01
2.172909978738e+01
1.601849734892e+01
-2.327526392064e+00
2.185751517838e+01
2.182798376736e+01
1.328701302013e+01
2.163497284805e+01
1.622024217111e+01
2.160873827804e+01
2.148231204011e+01
2.180871563635e+01
1.726648432474e+01
1.977527631835e+01
2.134681390114e+01
-5.631291322479e+00
1.637615247038e+01
2.070449438336e+01
1.759339185450e+01
2.190548822434e+01
2.170231820316e+01
2.126501422968e+01
5.856473582734e+00
1.794785006368e+01
1.642168104462e+01
-1.105255578131e+01
1.925519319500e+01
1.857985272944e+01
1.438712950215e+01
1.699666319548e+01
1.676895808737e+01
2.125133484809e+01
1.667037932481e+01
1.880551294115e+01
9.751830737661e+00
1.517278350358e+01
1.291775763260e+01
2.197451836583e+01
1.944122762327e+01
-2.085957228441e+01
2.137027539027e+01
2.153925480802e+01
1.625009967245e+01
1.264684576930e+01
2.124815686609e+01
1.212010219095e+01
1.800129506373e+01
2.160227963550e+01
2.168833645270e+01
2.089472056376e+01
1.656574513271e+01
1.698343273763e+01
2.115567129023e+01
1.642890899709e+01
1.859058696633e+01
1.744257210658e+01
1.773215897905e+01
1.526284995578e+01
2.142575299614e+01
1.709850153918e+01
2.116483474358e+01
-8.086714182093e+00
2.089119369582e+01
1.813641821291e+01
1.722417342319e+01
2.115288551517e+01
1.070739741102e+01
1.918323251728e+01
2.168653544154e+01
1.832141077624e+01
1.859064182347e+01
2.153230424510e+01
1.781791158328e+01
2.139131666581e+01
1.862933717391e+01
8.959615184096e-01
1.877780988081e+01
6.117828828715e+00
7.876792014321e+00
2.180083981267e+01
9.483372880819e+00
2.008265713274e+01
2.021482745693e+01
2.183630995737e+01
1.594522762422e+01
2.196475863212e+01
1.819994015157e+01
1.871251170598e+01
2.157413841436e+01
2.108870654957e+01
2.207814820295e+01
1.777931668335e+01
2.211723119982e+01
2.128928900638e+01
1.749434401609e+01
1.736903783186e+01
2.198373550611e+01
2.173027508951e+01
1.902914828688e+01
1.636853215809e+01
1.501022053006e+01
1.707905465100e+01
1.740445136826e+01
1.678041709977e+01
2.116963862133e+01
1.704947255898e+01
2.149579861797e+01
1.761501532416e+01
2.170681595792e+01
1.791015160355e+01
1.910148318009e+01
1.579894115792e+01
2.171228089803e+01
2.180719363765e+01
2.158510601604e+01
1.874842373808e+01
1.839380684981e+01
1.919885399535e+01
2.207674421200e+01
1.661652574016e+01
2.016783290073e+01
1.943739897022e+01
2.120115000992e+01
2.178659221922e+01
2.165247409094e+01
1.549585052727e+01
2.212735372307e+01
1.632264578939e+01
2.111188136328e+01
1.685128493301e+01
1.969702504343e+01
1.577300339831e+01
1.462611288942e+01
1.700113342001e+01
2.128452857436e+01
2.143205589047e+01
1.667522549742e+01
1.862236332491e+01
1.520374009075e+01
2.066237473925e+01
2.001277809324e+01
1.846756808266e+01
2.015278741091e+01
1.961515197344e+01
2.119610096582e+01
1.702847858329e+01
1.361820964864e+01
2.042116523727e+01
1.455781126778e+01
2.137724440866e+01
2.018143154566e+01
2.146374655678e+01
4.664370398474e+00
1.861129047630e+01
1.355499648282e+01
2.219975802524e+01
2.034528680126e+01
1.662675508105e+01
2.153557878440e+01
2.057961834858e+01
3.885217410467e-01
2.107514126396e+01
1.761453543422e+01
2.092951338035e+01
1.943046076633e+01
-1.197629272277e+01
2.168299028003e+01
1.855758377766e+01
1.574109392176e+01
2.142998957119e+01
2.182004361032e+01
2.121486767252e+01
1.983274643917e+01
2.151241184359e+01
1.760314237363e+01
7.140541664267e-02
1.861598446394e+01
2.133540425858e+01
1.927942762106e+01
1.905052032665e+01
1.905704760388e+01
2.144288960782e+01
1.871037225591e+01
2.076167625871e+01
2.111985483978e+01
2.104764755749e+01
1.813777762793e+01
2.113266267976e+01
2.086495911595e+01
1.911667609448e+01
1.630140160287e+01
2.132237317676e+01
2.150484367196e+01
1.104937733899e+01
1.105598488653e+01
1.668059951041e+01
1.866250447160e+01
2.140058698498e+01
1.723758980122e+01
2.029228894033e+01
2.143765613513e+01
2.108141824399e+01
1.944675614030e+01
1.327963506131e+01
1.992165229093e+01
2.166567881732e+01
1.824689488446e+01
2.123475700564e+01
1.816888190129e+01
1.680637274727e+01
1.621650076696e+01
1.768397276034e+01
1.787076644405e+01
4.563826895525e+00
2.125946629125e+01
1.399926667190e+01
1.659539161727e+01
1.690376879877e+01
2.133399818289e+01
1.258803590191e+01
1.344804019645e+01
1.814429741977e+01
2.094301056481e+01
8.114247907797e+00
9.550446203256e+00
1.616986934257e+01
1.157122447210e+01
2.149151791949e+01
2.170460194297e+01
1.457544655974e+01
2.025325971567e+01
1.806739288358e+01
2.104177848379e+01
2.145121181709e+01
-3.378519269897e+00
2.180364254809e+01
1.807494648864e+01
-3.658912529544e+00
1.811433337155e+01
1.142682813589e+01
1.667192033376e+01
1.697327732028e+01
2.183346864307e+01
2.212860552459e+01
1.836955952213e+01
2.204375247800e+01
1.907997900417e+01
1.861610285322e+01
-6.152280526554e+00
9.374590494245e+00
1.958670282785e+01
1.516876563270e+01
2.002782953718e+01
1.902275601580e+01
1.775014167756e+01
1.946087802932e+01
1.049396366567e+01
1.952161792329e+01
2.134732830779e+01
1.898950999477e+01
2.152704578544e+01
2.145407151177e+01
1.858448743053e+01
2.213863166270e+01
1.746079900614e+01
2.120711447818e+01
2.189019598478e+01
2.037493454834e+01
2.043650535947e+01
2.219088781119e+01
2.092986576458e+01
1.716234654247e+01
2.027526996795e+01
1.710960717853e+01
2.123536271805e+01
2.149145637506e+01
2.065753135492e+01
1.572161036342e+01
2.132956016919e+01
2.125501340454e+01
5.225005390712e+00
1.757051377222e+01
2.104799192314e+01
5.248634183671e+00
2.125916632128e+01
-9.957112327367e+00
2.121564321564e+01
1.990228146059e+01
2.093736884823e+01
2.092819610612e+01
1.567978305975e+01
1.516427220742e+01
1.858796785576e+01
4.352539371796e+00
6.400495187661e+00
2.117539270799e+01
2.188452459702e+01
2.194827806068e+01
2.198570512985e+01
2.220233005829e+01
1.975348726122e+01
3.671993240748e+00
1.399984702503e+01
1.106771429162e+01
2.142270191929e+01
2.076139304301e+01
2.101476692528e+01
2.112230749306e+01
2.191100521094e+01
2.090929860254e+01
2.066953049316e+01
2.095721123118e+01
1.895407630053e+01
1.966768160339e+01
2.145190573927e+01
2.014303756988e+01
1.749740664286e+01
2.191513134434e+01
1.701861447973e+01
1.867965026316e+01
2.023168265276e+01
2.218382831519e+01
2.159718413132e+01
1.687827082471e+01
-1.722568046243e+01
2.122426056168e+01
-4.699425040340e+00
6.195075096267e+00
2.144826249691e+01
1.868898125860e+01
1.567271045356e+01
-7.803650936379e-01
1.965464260276e+01
-1.244940947746e+01
1.892976825538e+00
2.222299782767e+01
2.108172920951e+01
9.859819348189e+00
2.129323496648e+01
2.190946078073e+01
1.851097858317e+01
2.122406188404e+01
1.858176380837e+01
1.049073265385e+01
2.127241042887e+01
2.125728378798e+01
1.734178416530e+01
1.157848355216e+01
1.566937490835e+01
2.117826193569e+01
-4.203032341643e+00
-2.253688255526e+01
1.225365237313e+01
2.111616250576e+01
2.128543052679e+01
2.046836277123e+01
1.966578323828e+01
2.140770045353e+01
1.666311744961e+01
2.124767059779e+01
2.175865035369e+01
1.766648345606e+01
1.357711827045e+01
2.093192437746e+01
2.114231840700e+01
2.125685009309e+01
-6.885798353060e+00
2.147102944558e+01
2.122831411039e+01
1.623016034283e+01
1.533061291151e+01
-3.958029144187e+00
2.136613038983e+01
2.011667413059e+01
5.504888233564e+00
2.084252875755e+01
1.103877727753e+01
2.092079102050e+01
2.090974500636e+01
-3.276787014176e+00
2.116158658464e+01
1.622955088230e+01
1.228114751732e+01
2.125327118149e+01
2.186096480296e+01
2.125855633418e+01
-1.418500824975e+01
1.824336032764e+01
2.129599331812e+01
2.155435798989e+01
1.986434503722e+01
2.132301771773e+01
2.124249004333e+01
2.152327494055e+01
1.287638076434e+00
-1.326960606519e+01
2.127244786825e+01
2.163288510085e+01
1.968909990735e+01
1.807647486369e+01
4.719163973681e+00
1.775677051829e+01
2.117817872181e+01
-2.885402063701e+01
1.946333090749e+01
2.049110162208e+01
1.319342878635e+01
2.101603235821e+01
1.926128810371e+01
2.102140568408e+01
2.480854027548e+00
-1.606572496025e+01
1.862306194734e+01
1.618919430640e+01
1.091863621469e+01
2.058003738654e+01
1.411761272025e+01
2.075571825607e+01
1.618122054623e+01
2.067446341210e+01
1.938354599213e+01
2.104695056662e+01
7.535117555805e+00
2.045656189056e+01
1.713030022477e+01
2.105229695932e+01
2.142245424335e+01
1.815553700759e+01
-3.883283921104e+01
2.168455262212e+01
1.735278010035e+01
1.996485753442e+01
1.888025475988e+01
1.966061238328e+01
1.099435281235e+01
-7.501872102774e+00
-7.420201399493e+00
1.885947114365e+01
2.194674182353e+01
2.075255463949e+01
1.821485692255e+01
1.901490645128e+01
-1.593370875644e+01
1.701857320543e+01
1.949352467618e+01
2.127970593507e+01
-2.336694103195e+00
7.066720172761e+00
2.185394565579e+01
1.782989925239e+01
2.218209374490e+01
1.338699791845e+00
2.193462842089e+01
8.996415526990e+00
2.086110384267e+01
2.219284378280e+01
2.003487332292e+01
1.593558704645e+01
1.836049043380e+01
2.231773133242e+00
2.212944335368e+01
9.139483203982e+00
-2.296344364949e+01
1.870967211365e+01
1.823322488265e+01
-2.302863733894e+01
2.185858628509e+01
1.530399825083e+01
1.655876563661e+01
1.865854208161e+01
2.020300924962e+01
1.857732799877e+01
2.115862929806e+01
1.097255108094e+01
2.078501608809e+01
1.398584409399e+01
2.141929443849e+01
2.048631637334e+01
9.742520659203e+00
1.735091242576e+01
2.191975817131e+01
-5.215492206697e+00
2.110137648323e+01
2.121545016232e+01
1.716104076747e+01
8.491947093008e+00
2.083104522467e+01
1.826615993444e+01
2.068621004663e+01
1.973683359855e+01
1.635479986195e+01
2.082889944188e+01
1.571904174966e+01
-5.746509121943e+00
1.993856955593e+01
1.932373399557e+01
1.408352391453e+01
1.891056846696e+01
1.946139687934e+01
2.178764229871e+01
2.088939867939e+01
2.118738387300e+01
-3.976435248834e+01
1.524197723742e+01
2.103000929907e+01
1.922236839312e+01
2.074374685926e+01
-4.319742444060e+00
2.492093429710e+00
1.381387711566e+01
2.095903905680e+01
1.714961735374e+01
2.039953509669e+01
2.081395730152e+01
2.088476779818e+01
2.150389647804e+01
1.241962288404e+01
-3.102465418663e+01
-1.757605472579e+00
8.139534822115e+00
-1.573450862106e+00
2.056130051823e+01
2.026828229812e+01
2.071486673147e+01
-6.733891611244e+00
1.835506582877e+01
2.036434866785e+01
1.863276069009e+01
1.785439044761e+01
1.938967881254e+01
2.075447733657e+01
1.413561251946e+01
2.053635950056e+01
-2.908653233178e+01
2.113499532018e+01
2.050628857925e+01
-5.920580142137e+00
-3.846595136553e+00
2.130266312887e+01
1.263045574390e+01
1.869530672120e+01
1.830134028491e+01
2.079395019043e+01
1.822442453526e+01
1.431508827866e+01
1.790785475528e+01
1.845106220037e+01
1.659813939886e+01
2.046430686074e+01
1.064142980606e+01
1.276075023670e+01
1.400707157362e+01
1.438293285155e+01
5.114779967451e+00
1.723675540055e+01
1.906916403360e+01
1.548087799067e+01
2.091497790093e+01
1.897839037712e+01
1.740484446513e+01
1.861031661683e+01
1.984675154184e+01
1.933009962693e+01
2.113026269640e+01
-2.428719810434e+01
1.561380215501e+01
2.058359990384e+01
4.455109338758e+00
1.276704237614e+01
2.140309849610e+01
-7.263078973064e+00
-2.344621479502e+01
1.940319650960e+01
1.085359205551e+01
1.897410654447e+01
2.107611218542e+01
1.084437866370e+01
-2.881251494715e+01
1.911131711237e+01
6.217842444314e+00
1.877158367358e+01
2.049898959716e+01
1.887612368365e+01
1.202467201975e+01
1.380628942425e+01
1.989316615547e+01
2.037136484939e+01
2.086226876603e+01
1.740175691720e+01
2.098843226210e+01
-6.927631398704e+00
2.085826864371e+01
1.382440722757e+01
4.507065770537e+00
2.115938619648e+01
1.908713369776e+01
1.916587166611e+01
1.259256705324e+01
1.393335957025e+01
6.562492288903e+00
1.940874839104e+01
1.849656934702e+01
-3.960287937632e+00
2.072106869405e+01
1.090424948157e+01
1.884778563566e+01
1.936540966895e+01
1.946924905751e+01
-6.533000109876e+01
-5.343871181907e+01
1.127423277735e+01
1.101826324667e+01
2.049424922933e+01
2.070243621886e+01
-2.463919937812e+01
-4.047349796871e+01
2.089477544541e+01
2.025627648448e+01
8.833812993823e+00
2.091541430711e+01
2.106443134458e+01
2.077906248155e+01
1.601959859934e+01
7.391225723748e+00
2.029529510620e+01
4.213341260090e+00
2.032629101673e+01
1.920284763316e+01
1.851235288768e+01
2.063093160090e+01
1.496143383603e+01
1.977418560270e+01
1.855903176980e+01
1.802620702894e+01
1.094257981726e+01
2.061942418553e+01
1.885576273239e+01
1.600244314484e+01
-2.242943132968e+01
1.935191163291e+01
2.153264650047e+01
3.306732966701e+00
1.663624426993e+01
2.069099104415e+01
1.988256058227e+01
1.999034797446e+01
2.116482815434e+01
-2.542438418826e+01
-7.693269342419e+00
9.396043458485e+00
1.372739541303e+01
2.054383774714e+01
1.880479943140e+01
2.087145579883e+01
-6.216368543157e+00
-6.660942960933e+00
-3.486122993086e+00
1.685791466512e+01
1.791739576561e+01
1.882037112747e+01
8.216373276071e+00
2.111706642946e+01
1.381879766928e+01
2.054067852459e+01
2.017597962588e+01
1.369195900467e+01
2.114687765924e+01
1.911116690842e+01
1.906823623752e+01
-2.387422575620e+00
1.865303884953e+01
1.995796079019e+01
2.125107833816e+01
2.052231907672e+01
2.050963651366e+01
1.801084756776e+01
-3.715970689584e+01
4.818292644857e-01
1.876076604595e+01
1.475155226746e+01
2.088419130280e+01
2.028941557023e+01
2.070291581962e+01
1.757154667568e+01
2.062199072619e+01
2.107423804184e+01
2.117756203599e+01
1.819769765920e+01
2.078881847257e+01
1.239614924265e+01
1.867052273288e+01
-5.836177213397e+00
1.828528000877e+01
1.668144512155e+01
-3.997807549460e+00
8.463093595601e+00
1.840321537264e+01
1.912061999140e+01
1.875900011649e+01
2.094068179119e+01
1.489333393564e+01
-2.274133838266e+01
-1.148962385900e+01
-1.751621067574e+01
1.222707944853e+00
-2.837005598484e+01
2.016006191117e+01
2.091411497035e+01
1.889275567735e+01
1.462813732685e+01
1.953854805290e+01
2.111190092312e+01
2.142864879430e+01
2.073917928324e+01
1.967340282980e+01
1.889120401209e+01
-6.118954258062e+00
-1.175317914724e+01
2.095599637107e+01
-3.846704520008e+00
6.733595811909e-01
-1.303390770751e+01
-7.571915354407e+00
2.080896155933e+01
1.965252308881e+01
1.883463684962e+01
2.054566202644e+01
2.134587069431e+01
1.551467223463e+01
1.956661957541e+01
1.301519436521e+01
1.075895315036e+01
1.512927962586e+00
-2.303569343234e+01
2.076467324770e+01
1.254339374564e+01
3.500957226434e+00
2.014509989390e+01
1.954058443311e+01
1.873915568754e+01
1.922873785612e+01
1.728383739104e+01
-1.122752604855e+01
2.099912594593e+01
1.938632741105e+01
2.077187194412e+01
1.250989693057e+01
2.105745428670e+01
4.398043337248e+00
1.886663629149e+01
-2.478678455865e+01
2.084251310486e+01
1.913313210763e+01
-2.668880535786e+01
1.991384456522e+01
1.722808776372e+01
1.914865296177e+01
2.063549203515e+01
1.622230721024e+01
1.958268053377e+01
1.882499572909e+01
1.672422202446e+01
1.930140272858e+01
1.887731443246e+01
1.094456915986e+01
2.055523395913e+01
1.915185900412e+01
-5.929221900685e+01
1.102679264980e+01
2.072253472320e+01
8.990100139760e+00
2.143163464140e+01
1.878106861376e+01
1.906304394170e+01
8.180094333858e+00
-4.743370847209e+00
2.096097419519e+01
1.796649287684e+01
-2.913223696505e+01
1.921139663225e+01
1.596004884237e+01
6.939481866272e+00
1.523765731969e+01
2.050594356586e+01
2.100232666249e+01
-2.505983933570e+01
1.851812081255e+01
2.063056241156e+01
2.100827209110e+01
2.073526425490e+01
2.053226609113e+01
2.067383059044e+01
-8.545099916534e+00
2.103453207384e+01
1.940584695806e+01
3.440671565214e+00
1.914122047628e+01
2.068473251776e+01
1.260383515692e+01
1.593848365105e+01
2.045165968167e+01
2.049685507792e+01
2.077090320069e+01
2.135197124771e+01
2.945545001010e+00
1.948293105313e+01
1.398386605410e+01
1.907775737201e+01
2.120153042331e+01
1.519958628285e+01
1.901721705613e+01
2.081728826138e+01
2.085925369524e+01
-2.316708827056e+01
1.899793807532e+01
1.928881854683e+01
-7.950913956892e+00
2.021198631356e+01
-2.616694415283e+01
1.919369762980e+01
-5.239343450545e+01
-5.060914796837e+01
-5.244307882823e+01
-5.107796102943e+01
-5.229535228646e+01
-5.143825935630e+01
-5.248391738220e+01
-5.174245759100e+01
-5.296644953691e+01
-5.206912147790e+01
-5.368525380242e+01
-5.245163101576e+01
-5.458354242421e+01
-5.286146275878e+01
-5.544883025277e+01
-5.324072418810e+01
-5.579202135952e+01
-4.250296683842e+01
-5.352471487332e+01
-5.591818687704e+01
-4.296069975923e+01
-5.366251943654e+01
-5.600349898600e+01
-5.367602584900e+01
-5.608341019433e+01
-5.360697749644e+01
8.999999999514e+01
-5.618456490651e+01
-5.344790181913e+01
-5.626245643674e+01
-5.330341772353e+01
-5.635008102872e+01
-5.309545481487e+01
-5.634703505911e+01
-5.304767812437e+01
-5.650233831849e+01
-5.277242676980e+01
-2.680203479749e+01
-5.303757828935e+01
-5.606742012046e+01
-5.231549478850e+01
-5.618019424749e+01
-5.309687747392e+01
-4.975105523922e+01
-4.756780957835e+01
-4.806920650385e+01
-4.296440654296e+01
-5.443908905246e+01
-3.215180600389e+01
-1.599148588641e+01
-1.795473762407e+01
-1.804430469068e+01
-1.815278046817e+01
-1.812836395122e+01
-1.812790811117e+01
-1.807444247074e+01
-1.808908763649e+01
-1.802053760074e+01
-1.805268585211e+01
-1.797252111114e+01
-1.801127568250e+01
-1.792496384656e+01
-1.798072644454e+01
-1.788236505634e+01
-1.795108424755e+01
-1.342887854828e+01
-1.783579321433e+01
-1.790329927081e+01
-2.156907010637e+01
-1.778156674962e+01
-1.784185564872e+01
-1.676142000705e+01
-1.772260004167e+01
-1.777874887297e+01
-1.766831081472e+01
-1.772338538900e+01
-1.763156843895e+01
-1.769317943229e+01
-1.259902416376e+01
-1.758477924134e+01
-1.754105256997e+01
-1.756054626038e+01
-1.750503944246e+01
-1.715417372325e+01
-1.751597808830e+01
-1.731302897390e+01
-1.757030711354e+01
-1.616427123116e+01
-1.746143679927e+01
-2.416495224666e+01
-1.807216808737e+01
-1.573872235182e+01
-2.362948506055e+01
-1.225176863525e+01
-1.779879040447e+01
-3.863027742953e+00
-3.021102142162e+00
-3.007920617575e+00
-2.991462062366e+00
-2.998895870967e+00
-2.977208601264e+00
-2.983643356023e+00
-2.968015946197e+00
-2.975389218162e+00
-2.958775439713e+00
-2.962728157123e+00
-2.949135030120e+00
-2.944662064777e+00
-2.948284776504e+00
-2.934960368574e+00
-1.567173489168e+00
-2.966269577226e+00
-3.109376815573e+00
-2.945979684661e+00
-2.971191724249e+00
-2.923692048129e+00
-2.975931864497e+00
-2.897226850320e+00
-2.998602657724e+00
-5.038939384392e+00
-2.885605030857e+00
-3.036472639586e+00
-2.874663491250e+00
-3.100963203912e+00
-2.899007895400e+00
-3.133762250743e+00
-2.772545355014e+00
-3.177781722246e+00
-3.177060175161e+00
-2.770311818465e+00
-1.667539467717e+00
-2.371741741790e+00
-6.653687754036e+00
-2.516317278594e+00
-3.815275578011e+00
-8.174395548924e-01
-6.057770628650e+00
-4.746017631189e+00
4.820807842294e+00
4.303086671288e+00
4.281976439086e+00
4.225658532058e+00
4.222855175490e+00
4.237134967426e+00
4.225799606767e+00
4.214321965961e+00
4.197313797494e+00
4.214591086865e+00
4.187962315718e+00
4.203982033104e+00
4.165285372704e+00
4.666612577604e+00
4.215887685456e+00
4.144526034135e+00
2.735796588073e+00
4.158519760413e+00
4.086206090743e+00
3.802865410395e+00
4.157450754149e+00
4.060652153893e+00
4.166199305138e+00
4.022143606794e+00
4.137442532249e+00
4.477422335393e+00
3.957571058239e+00
4.116100038547e+00
4.118579999494e+00
3.900661546150e+00
4.001609436704e+00
3.832357073916e+00
4.292250863842e+00
3.775612985635e+00
1.867145607241e+00
4.095530498035e+00
4.930863214050e+00
3.005450362736e+00
5.724579346201e+00
2.620766029912e+00
8.324364016200e+00
8.480695826439e+00
8.483766658361e+00
8.500841761319e+00
8.485006590566e+00
8.505872161282e+00
8.506396930251e+00
8.445513187939e+00
8.442293485480e+00
8.439098168415e+00
8.451927325857e+00
8.405104368017e+00
8.518984680091e+00
8.413875572010e+00
8.035545860895e+00
8.346007555872e+00
8.403745191893e+00
8.322555392497e+00
8.334668037910e+00
8.279749939050e+00
8.337297756553e+00
8.227204791567e+00
7.291729921280e+00
8.314341626276e+00
8.156519879056e+00
8.246703201839e+00
8.083813189489e+00
8.037323440555e+00
8.219550102685e+00
8.250280423740e+00
8.362482871322e+00
6.762030893080e+00
8.630416706511e+00
8.285970890629e+00
9.304125313793e+00
7.504436067200e+00
7.118719989941e+00


