# vtk DataFile Version 2.0
Calculation  at time 7.000000000000e+00 
ASCII
DATASET UNSTRUCTURED_GRID
Field FieldData 1
Time 1 1 double
7.000000000000e+00

POINTS 1112 float
0.0 0.0 0.0 
5.000000000000e+01 -1.000000000000e+01 0.0 
0.0 -2.000000000000e+01 0.0 
5.000000000000e+01 -2.000000000000e+01 0.0 
0.0 -9.999999999991e-01 0.0 
0.0 -1.999999999998e+00 0.0 
0.0 -2.999999999997e+00 0.0 
0.0 -3.999999999994e+00 0.0 
0.0 -4.999999999991e+00 0.0 
0.0 -5.999999999988e+00 0.0 
0.0 -6.999999999985e+00 0.0 
0.0 -7.999999999982e+00 0.0 
0.0 -8.999999999983e+00 0.0 
0.0 -9.999999999985e+00 0.0 
0.0 -1.099999999999e+01 0.0 
0.0 -1.199999999999e+01 0.0 
0.0 -1.299999999999e+01 0.0 
0.0 -1.399999999999e+01 0.0 
0.0 -1.499999999999e+01 0.0 
0.0 -1.599999999999e+01 0.0 
0.0 -1.700000000000e+01 0.0 
0.0 -1.800000000000e+01 0.0 
0.0 -1.900000000000e+01 0.0 
4.900000000001e+01 -2.000000000000e+01 0.0 
4.800000000001e+01 -2.000000000000e+01 0.0 
4.700000000002e+01 -2.000000000000e+01 0.0 
4.600000000003e+01 -2.000000000000e+01 0.0 
4.500000000004e+01 -2.000000000000e+01 0.0 
4.400000000004e+01 -2.000000000000e+01 0.0 
4.300000000005e+01 -2.000000000000e+01 0.0 
4.200000000006e+01 -2.000000000000e+01 0.0 
4.100000000006e+01 -2.000000000000e+01 0.0 
4.000000000007e+01 -2.000000000000e+01 0.0 
3.900000000008e+01 -2.000000000000e+01 0.0 
3.800000000009e+01 -2.000000000000e+01 0.0 
3.700000000009e+01 -2.000000000000e+01 0.0 
3.600000000010e+01 -2.000000000000e+01 0.0 
3.500000000011e+01 -2.000000000000e+01 0.0 
3.400000000011e+01 -2.000000000000e+01 0.0 
3.300000000012e+01 -2.000000000000e+01 0.0 
3.200000000013e+01 -2.000000000000e+01 0.0 
3.100000000013e+01 -2.000000000000e+01 0.0 
3.000000000013e+01 -2.000000000000e+01 0.0 
2.900000000013e+01 -2.000000000000e+01 0.0 
2.800000000013e+01 -2.000000000000e+01 0.0 
2.700000000013e+01 -2.000000000000e+01 0.0 
2.600000000013e+01 -2.000000000000e+01 0.0 
2.500000000013e+01 -2.000000000000e+01 0.0 
2.400000000013e+01 -2.000000000000e+01 0.0 
2.300000000013e+01 -2.000000000000e+01 0.0 
2.200000000013e+01 -2.000000000000e+01 0.0 
2.100000000013e+01 -2.000000000000e+01 0.0 
2.000000000013e+01 -2.000000000000e+01 0.0 
1.900000000013e+01 -2.000000000000e+01 0.0 
1.800000000013e+01 -2.000000000000e+01 0.0 
1.700000000012e+01 -2.000000000000e+01 0.0 
1.600000000011e+01 -2.000000000000e+01 0.0 
1.500000000011e+01 -2.000000000000e+01 0.0 
1.400000000010e+01 -2.000000000000e+01 0.0 
1.300000000009e+01 -2.000000000000e+01 0.0 
1.200000000009e+01 -2.000000000000e+01 0.0 
1.100000000008e+01 -2.000000000000e+01 0.0 
1.000000000007e+01 -2.000000000000e+01 0.0 
9.000000000064e+00 -2.000000000000e+01 0.0 
8.000000000057e+00 -2.000000000000e+01 0.0 
7.000000000050e+00 -2.000000000000e+01 0.0 
6.000000000043e+00 -2.000000000000e+01 0.0 
5.000000000036e+00 -2.000000000000e+01 0.0 
4.000000000028e+00 -2.000000000000e+01 0.0 
3.000000000021e+00 -2.000000000000e+01 0.0 
2.000000000014e+00 -2.000000000000e+01 0.0 
1.000000000007e+00 -2.000000000000e+01 0.0 
5.000000000000e+01 -1.100000000000e+01 0.0 
5.000000000000e+01 -1.200000000000e+01 0.0 
5.000000000000e+01 -1.300000000000e+01 0.0 
5.000000000000e+01 -1.400000000000e+01 0.0 
5.000000000000e+01 -1.500000000000e+01 0.0 
5.000000000000e+01 -1.600000000000e+01 0.0 
5.000000000000e+01 -1.700000000000e+01 0.0 
5.000000000000e+01 -1.800000000000e+01 0.0 
5.000000000000e+01 -1.900000000000e+01 0.0 
2.000000000000e+01 0.0 0.0 
3.500000000000e+01 -1.000000000000e+01 0.0 
2.150000000000e+01 -1.000000000000e+00 0.0 
2.300000000000e+01 -2.000000000000e+00 0.0 
2.450000000000e+01 -3.000000000000e+00 0.0 
2.600000000000e+01 -4.000000000000e+00 0.0 
2.750000000000e+01 -5.000000000000e+00 0.0 
2.900000000000e+01 -6.000000000000e+00 0.0 
3.050000000000e+01 -7.000000000000e+00 0.0 
3.200000000000e+01 -8.000000000000e+00 0.0 
3.350000000000e+01 -9.000000000000e+00 0.0 
5.000000000000e+01 -6.000000000000e+00 0.0 
5.000000000000e+01 -7.000000000000e+00 0.0 
5.000000000000e+01 -8.000000000000e+00 0.0 
5.000000000000e+01 -9.000000000000e+00 0.0 
4.900000000000e+01 -1.000000000000e+01 0.0 
4.800000000000e+01 -1.000000000000e+01 0.0 
4.700000000000e+01 -1.000000000000e+01 0.0 
4.600000000000e+01 -1.000000000000e+01 0.0 
4.500000000000e+01 -1.000000000000e+01 0.0 
4.400000000000e+01 -1.000000000000e+01 0.0 
4.300000000000e+01 -1.000000000000e+01 0.0 
4.200000000000e+01 -1.000000000000e+01 0.0 
4.100000000000e+01 -1.000000000000e+01 0.0 
4.000000000000e+01 -1.000000000000e+01 0.0 
3.900000000000e+01 -1.000000000000e+01 0.0 
3.800000000000e+01 -1.000000000000e+01 0.0 
3.700000000000e+01 -1.000000000000e+01 0.0 
3.600000000000e+01 -1.000000000000e+01 0.0 
1.900000000000e+01 0.0 0.0 
1.800000000000e+01 0.0 0.0 
1.700000000000e+01 0.0 0.0 
1.600000000000e+01 0.0 0.0 
1.500000000000e+01 0.0 0.0 
1.400000000000e+01 0.0 0.0 
1.300000000000e+01 0.0 0.0 
1.200000000000e+01 0.0 0.0 
1.100000000000e+01 0.0 0.0 
1.000000000000e+01 0.0 0.0 
9.000000000000e+00 0.0 0.0 
8.000000000000e+00 0.0 0.0 
7.000000000000e+00 0.0 0.0 
6.000000000000e+00 0.0 0.0 
5.000000000000e+00 0.0 0.0 
4.000000000000e+00 0.0 0.0 
3.000000000000e+00 0.0 0.0 
2.000000000000e+00 0.0 0.0 
1.000000000000e+00 0.0 0.0 
4.900000000001e+01 -6.000000000000e+00 0.0 
4.800000000003e+01 -6.000000000000e+00 0.0 
4.700000000004e+01 -6.000000000000e+00 0.0 
4.600000000006e+01 -6.000000000000e+00 0.0 
4.500000000007e+01 -6.000000000000e+00 0.0 
4.400000000009e+01 -6.000000000000e+00 0.0 
4.300000000010e+01 -6.000000000000e+00 0.0 
4.200000000012e+01 -6.000000000000e+00 0.0 
4.100000000013e+01 -6.000000000000e+00 0.0 
4.000000000014e+01 -6.000000000000e+00 0.0 
3.900000000014e+01 -6.000000000000e+00 0.0 
3.800000000012e+01 -6.000000000000e+00 0.0 
3.700000000010e+01 -6.000000000000e+00 0.0 
3.600000000008e+01 -6.000000000000e+00 0.0 
3.500000000006e+01 -6.000000000000e+00 0.0 
3.400000000005e+01 -6.000000000000e+00 0.0 
3.300000000003e+01 -6.000000000000e+00 0.0 
3.200000000001e+01 -6.000000000000e+00 0.0 
3.100000000000e+01 -6.000000000000e+00 0.0 
3.000000000000e+01 -6.000000000000e+00 0.0 
3.147499999998e+01 -7.000000000000e+00 0.0 
3.244999999998e+01 -7.000000000000e+00 0.0 
3.342499999998e+01 -7.000000000000e+00 0.0 
3.439999999998e+01 -7.000000000000e+00 0.0 
3.537499999998e+01 -7.000000000000e+00 0.0 
3.634999999998e+01 -7.000000000000e+00 0.0 
3.732499999998e+01 -7.000000000000e+00 0.0 
3.829999999998e+01 -7.000000000000e+00 0.0 
3.927499999999e+01 -7.000000000000e+00 0.0 
4.024999999999e+01 -7.000000000000e+00 0.0 
4.122499999999e+01 -7.000000000000e+00 0.0 
4.219999999999e+01 -7.000000000000e+00 0.0 
4.317499999999e+01 -7.000000000000e+00 0.0 
4.414999999999e+01 -7.000000000000e+00 0.0 
4.512499999999e+01 -7.000000000000e+00 0.0 
4.609999999999e+01 -7.000000000000e+00 0.0 
4.707500000000e+01 -7.000000000000e+00 0.0 
4.805000000000e+01 -7.000000000000e+00 0.0 
4.902500000000e+01 -7.000000000000e+00 0.0 
4.900000000000e+01 -8.000000000000e+00 0.0 
4.800000000000e+01 -8.000000000000e+00 0.0 
4.700000000000e+01 -8.000000000000e+00 0.0 
4.600000000000e+01 -8.000000000000e+00 0.0 
4.500000000000e+01 -8.000000000000e+00 0.0 
4.400000000000e+01 -8.000000000000e+00 0.0 
4.300000000000e+01 -8.000000000000e+00 0.0 
4.200000000000e+01 -8.000000000000e+00 0.0 
4.100000000000e+01 -8.000000000000e+00 0.0 
4.000000000000e+01 -8.000000000000e+00 0.0 
3.900000000000e+01 -8.000000000000e+00 0.0 
3.800000000000e+01 -8.000000000000e+00 0.0 
3.700000000000e+01 -8.000000000000e+00 0.0 
3.600000000000e+01 -8.000000000000e+00 0.0 
3.500000000000e+01 -8.000000000000e+00 0.0 
3.400000000000e+01 -8.000000000000e+00 0.0 
3.300000000000e+01 -8.000000000000e+00 0.0 
3.447058823527e+01 -9.000000000000e+00 0.0 
3.544117647055e+01 -9.000000000000e+00 0.0 
3.641176470582e+01 -9.000000000000e+00 0.0 
3.738235294109e+01 -9.000000000000e+00 0.0 
3.835294117637e+01 -9.000000000000e+00 0.0 
3.932352941164e+01 -9.000000000000e+00 0.0 
4.029411764691e+01 -9.000000000000e+00 0.0 
4.126470588219e+01 -9.000000000000e+00 0.0 
4.223529411748e+01 -9.000000000000e+00 0.0 
4.320588235279e+01 -9.000000000000e+00 0.0 
4.417647058811e+01 -9.000000000000e+00 0.0 
4.514705882342e+01 -9.000000000000e+00 0.0 
4.611764705874e+01 -9.000000000000e+00 0.0 
4.708823529405e+01 -9.000000000000e+00 0.0 
4.805882352937e+01 -9.000000000000e+00 0.0 
4.902941176468e+01 -9.000000000000e+00 0.0 
2.075000000000e+01 -5.000000000006e-01 0.0 
2.225000000000e+01 -1.500000000000e+00 0.0 
2.375000000000e+01 -2.500000000000e+00 0.0 
2.525000000000e+01 -3.500000000000e+00 0.0 
2.675000000000e+01 -4.500000000000e+00 0.0 
2.825000000000e+01 -5.500000000000e+00 0.0 
2.975000000000e+01 -6.500000000000e+00 0.0 
3.125000000000e+01 -7.500000000000e+00 0.0 
3.275000000000e+01 -8.500000000000e+00 0.0 
3.425000000000e+01 -9.500000000000e+00 0.0 
2.226951693683e+01 -2.403913980114e+00 0.0 
1.650149491944e+01 -1.913490915758e+01 0.0 
1.050042386896e+01 -8.504605092970e-01 0.0 
1.553146524712e+01 -8.281255032105e-01 0.0 
1.150000000008e+01 -1.913397459621e+01 0.0 
2.530060260647e+01 -4.428336431260e+00 0.0 
8.651114563942e-01 -1.052096295641e+01 0.0 
2.050000000013e+01 -1.913397459622e+01 0.0 
2.819198729811e+01 -6.399519052838e+00 0.0 
2.445670302931e+01 -1.915649188023e+01 0.0 
3.117591465718e+01 -8.394293040695e+00 0.0 
7.465053044742e+00 -1.920411160581e+01 0.0 
6.398295709691e+00 -8.230098819370e-01 0.0 
2.849659607461e+01 -1.914296187762e+01 0.0 
3.418732642882e+01 -1.040265792588e+01 0.0 
8.386450935063e-01 -6.533605142809e+00 0.0 
9.178661865596e-01 -1.329769195597e+01 0.0 
3.149448624493e+01 -1.910466733764e+01 0.0 
3.552916747426e+01 -1.914628590759e+01 0.0 
4.449210346537e+01 -1.914359085008e+01 0.0 
4.140975975145e+01 -1.906941860733e+01 0.0 
3.847475958753e+01 -1.916622382724e+01 0.0 
3.653774794640e+01 -1.088712800241e+01 0.0 
4.047886341787e+01 -1.090139014048e+01 0.0 
4.348006339825e+01 -1.092792621489e+01 0.0 
4.919519968029e+01 -1.451526755068e+01 0.0 
4.500000000032e+00 -1.913397459621e+01 0.0 
1.856136921614e+01 -8.212235170404e-01 0.0 
3.499895312306e+00 -8.661165539723e-01 0.0 
9.076088696565e-01 -1.642306201891e+01 0.0 
4.655174095477e+01 -1.086183387525e+01 0.0 
9.430688970604e-01 -3.496112672958e+00 0.0 
3.353992337063e+01 -1.901202090820e+01 0.0 
2.249746016977e+01 -1.921262287282e+01 0.0 
2.650122741777e+01 -1.916123026018e+01 0.0 
1.863571384842e+01 -1.908325534840e+01 0.0 
1.450089971693e+01 -1.917691901860e+01 0.0 
1.350044695317e+01 -8.659695299584e-01 0.0 
3.849987469880e+01 -1.084154983397e+01 0.0 
9.454419857884e+00 -1.900818879936e+01 0.0 
4.917398660523e+01 -1.645692866081e+01 0.0 
8.500000000000e+00 -8.660254037844e-01 0.0 
8.660319230785e-01 -8.500111697188e+00 0.0 
4.649022621545e+01 -1.930506220113e+01 0.0 
2.667688107845e+01 -5.420288124331e+00 0.0 
2.379251615665e+01 -3.412225477429e+00 0.0 
2.966631491830e+01 -7.389030232731e+00 0.0 
3.267915035995e+01 -9.396934932445e+00 0.0 
2.074836922338e+01 -1.320054020319e+00 0.0 
4.915985743621e+01 -1.261973384855e+01 0.0 
2.527129768623e+00 -1.931592414663e+01 0.0 
1.538676247410e+00 -8.436956619311e-01 0.0 
4.908096641539e+01 -1.842484004551e+01 0.0 
3.478612492673e+01 -1.090889364140e+01 0.0 
3.409757055860e+01 -1.131991530427e+01 0.0 
3.501895309466e+01 -1.177687842717e+01 0.0 
3.407758073088e+01 -1.224293381580e+01 0.0 
3.484541875390e+01 -1.277051428430e+01 0.0 
3.400322025842e+01 -1.319022775640e+01 0.0 
3.321672625034e+01 -1.266779191233e+01 0.0 
3.315244139236e+01 -1.360984106532e+01 0.0 
3.236335186892e+01 -1.308463225210e+01 0.0 
3.478337442841e+01 -1.372341158982e+01 0.0 
3.230105923633e+01 -1.403023731610e+01 0.0 
3.150954055289e+01 -1.350301767700e+01 0.0 
3.144604792090e+01 -1.444931742516e+01 0.0 
3.065653897123e+01 -1.392357262981e+01 0.0 
3.071897610812e+01 -1.297447031198e+01 0.0 
2.986790411740e+01 -1.339226181535e+01 0.0 
2.993181466745e+01 -1.244703272398e+01 0.0 
2.908023061869e+01 -1.286254537734e+01 0.0 
2.901619051372e+01 -1.380881655279e+01 0.0 
2.822986160390e+01 -1.327695262116e+01 0.0 
2.829453476870e+01 -1.233265343811e+01 0.0 
2.744542905518e+01 -1.274510491105e+01 0.0 
2.751120089246e+01 -1.180368086886e+01 0.0 
2.666218649885e+01 -1.221619339205e+01 0.0 
2.672371209234e+01 -1.127125228527e+01 0.0 
2.587763216302e+01 -1.168539979114e+01 0.0 
2.581165585299e+01 -1.262994410089e+01 0.0 
2.502890882577e+01 -1.209827323619e+01 0.0 
2.509631327757e+01 -1.115492410304e+01 0.0 
2.424662989877e+01 -1.156630981079e+01 0.0 
2.431704046904e+01 -1.062389179334e+01 0.0 
2.346445438728e+01 -1.103427680694e+01 0.0 
2.339382552877e+01 -1.197964871788e+01 0.0 
2.260936050780e+01 -1.144513277642e+01 0.0 
2.268075012022e+01 -1.049911928216e+01 0.0 
2.182525737661e+01 -1.090920811464e+01 0.0 
2.189682319817e+01 -9.961716944568e+00 0.0 
2.104174127792e+01 -1.037266986667e+01 0.0 
2.111304367575e+01 -9.424179358711e+00 0.0 
2.025306185381e+01 -9.832727364719e+00 0.0 
2.018141124247e+01 -1.079140628871e+01 0.0 
1.938594498257e+01 -1.025147354112e+01 0.0 
1.946106490453e+01 -9.288010758448e+00 0.0 
1.858929958352e+01 -9.706319802516e+00 0.0 
1.851540991219e+01 -1.067205988724e+01 0.0 
1.771485303178e+01 -1.012504443115e+01 0.0 
1.764134552256e+01 -1.109360378538e+01 0.0 
1.683745148095e+01 -1.054496365337e+01 0.0 
1.691852964353e+01 -9.582555261178e+00 0.0 
1.603603813062e+01 -1.000160132379e+01 0.0 
1.595824239350e+01 -1.096750698862e+01 0.0 
1.515080624291e+01 -1.041639501931e+01 0.0 
1.523171602559e+01 -9.451711491453e+00 0.0 
1.434621060709e+01 -9.871956467464e+00 0.0 
1.426777178765e+01 -1.083749501371e+01 0.0 
1.345775282374e+01 -1.028803175500e+01 0.0 
1.354103873368e+01 -9.324918457162e+00 0.0 
1.265072018622e+01 -9.742612837270e+00 0.0 
1.257285762070e+01 -1.071557782384e+01 0.0 
1.175874815690e+01 -1.015972324288e+01 0.0 
1.184203019714e+01 -9.193604071377e+00 0.0 
1.094927709905e+01 -9.612103238656e+00 0.0 
1.086938022910e+01 -1.058685085646e+01 0.0 
1.005424098961e+01 -1.002939116380e+01 0.0 
9.977974613295e+00 -1.101324897989e+01 0.0 
1.012915646404e+01 -9.051815821181e+00 0.0 
9.237127782494e+00 -9.471239055559e+00 0.0 
9.308426593771e+00 -8.483376461131e+00 0.0 
8.418806073345e+00 -8.910712374517e+00 0.0 
2.253688464062e+01 -1.239459402279e+01 0.0 
8.495126726666e+00 -7.921646665254e+00 0.0 
9.389727383206e+00 -7.512103628377e+00 0.0 
7.601560812974e+00 -8.349460349344e+00 0.0 
7.525680547759e+00 -9.339736686940e+00 0.0 
7.677888324502e+00 -7.359727833346e+00 0.0 
6.782001206724e+00 -7.788454494773e+00 0.0 
6.858778622885e+00 -6.797338062822e+00 0.0 
2.196596590865e+01 -8.979025665442e+00 0.0 
2.816540108272e+01 -1.422634142353e+01 0.0 
5.961601194403e+00 -7.226824010712e+00 0.0 
6.038171749656e+00 -6.234825887079e+00 0.0 
6.936257279557e+00 -5.805287640737e+00 0.0 
6.115068918323e+00 -5.242109758768e+00 0.0 
3.564391741903e+01 -1.329240553876e+01 0.0 
3.558115605778e+01 -1.425902892003e+01 0.0 
3.645445282201e+01 -1.381970786460e+01 0.0 
3.639744204358e+01 -1.479198128612e+01 0.0 
3.727266909778e+01 -1.435399586226e+01 0.0 
5.216667013081e+00 -5.671788584287e+00 0.0 
3.220697293295e+01 -1.499594545107e+01 0.0 
3.551112158269e+01 -1.523479869250e+01 0.0 
2.836056961467e+01 -1.139032434851e+01 0.0 
2.516730388602e+01 -1.021382726837e+01 0.0 
1.844436907403e+01 -1.164097215196e+01 0.0 
5.885434318740e+00 -8.218694781467e+00 0.0 
5.064071066867e+00 -7.656614643901e+00 0.0 
4.988089103470e+00 -8.649722082718e+00 0.0 
1.079421050408e+01 -1.157014985435e+01 0.0 
9.902420005256e+00 -1.199903342656e+01 0.0 
1.071994252214e+01 -1.255727909771e+01 0.0 
9.826974788171e+00 -1.298659581767e+01 0.0 
1.064607883789e+01 -1.354595476388e+01 0.0 
9.751541265343e+00 -1.397556905071e+01 0.0 
8.932296185869e+00 -1.341553353988e+01 0.0 
8.856399248106e+00 -1.440570715508e+01 0.0 
8.036186803543e+00 -1.384470558472e+01 0.0 
1.057112875118e+01 -1.453516759081e+01 0.0 
1.146582585687e+01 -1.410539926903e+01 0.0 
7.959894480382e+00 -1.483563350928e+01 0.0 
7.138792279156e+00 -1.427465094140e+01 0.0 
7.062506792418e+00 -1.526615385482e+01 0.0 
6.240693558277e+00 -1.470508863040e+01 0.0 
6.316957575451e+00 -1.371212581281e+01 0.0 
5.418183007107e+00 -1.414253605022e+01 0.0 
5.494748364428e+00 -1.314886770603e+01 0.0 
1.756825565873e+01 -1.206433872514e+01 0.0 
1.837565773345e+01 -1.261356468266e+01 0.0 
1.749574831391e+01 -1.303769280014e+01 0.0 
1.830539187332e+01 -1.358828364284e+01 0.0 
1.742278925170e+01 -1.401367746928e+01 0.0 
1.823303007798e+01 -1.456432294258e+01 0.0 
1.734941694138e+01 -1.499213734361e+01 0.0 
1.653760041637e+01 -1.443920312098e+01 0.0 
3.056237977307e+01 -1.487132260174e+01 0.0 
1.866469084762e+01 -8.742953000418e+00 0.0 
1.953669694916e+01 -8.326038909849e+00 0.0 
1.874194303780e+01 -7.780688158966e+00 0.0 
1.961032016741e+01 -7.366854697285e+00 0.0 
1.881715755159e+01 -6.821102209649e+00 0.0 
1.968369797150e+01 -6.407747217358e+00 0.0 
1.889237123259e+01 -5.858375520026e+00 0.0 
1.802038875366e+01 -6.276202618170e+00 0.0 
1.809793837984e+01 -5.307629520489e+00 0.0 
1.721985207997e+01 -5.728242054488e+00 0.0 
1.729850893523e+01 -4.756990819347e+00 0.0 
1.641745664240e+01 -5.174636548624e+00 0.0 
2.495978509456e+01 -1.304406404294e+01 0.0 
1.911567814831e+01 -1.413854250293e+01 0.0 
1.904387332608e+01 -1.511463127723e+01 0.0 
1.992115934240e+01 -1.468788025898e+01 0.0 
7.013706899628e+00 -4.812582868662e+00 0.0 
5.342091874585e+00 -1.513658157269e+01 0.0 
1.139098043784e+01 -1.509488509480e+01 0.0 
1.228151810610e+01 -1.465617481983e+01 0.0 
1.646373110164e+01 -1.541993323337e+01 0.0 
5.293328636712e+00 -4.678385108584e+00 0.0 
1.975965862987e+01 -5.448124345648e+00 0.0 
2.054318374236e+01 -5.992561293251e+00 0.0 
3.721453439063e+01 -1.533216152738e+01 0.0 
3.809302733893e+01 -1.489235527381e+01 0.0 
1.220852788900e+01 -1.565304565230e+01 0.0 
4.394120899730e+00 -5.108397613210e+00 0.0 
8.779354620288e+00 -1.539524721159e+01 0.0 
1.817791047702e+01 -4.338570146253e+00 0.0 
4.518860013839e+00 -1.457343189307e+01 0.0 
4.442712140414e+00 -1.556841391069e+01 0.0 
8.115343466391e+00 -1.285760324283e+01 0.0 
1.985334703171e+01 -1.566478400426e+01 0.0 
2.071953850276e+01 -1.522074243119e+01 0.0 
1.634012953883e+01 -6.154777738301e+00 0.0 
1.553479994708e+01 -5.593730508879e+00 0.0 
1.561265946942e+01 -4.617761762647e+00 0.0 
1.470674212978e+01 -5.064576488228e+00 0.0 
1.464498299883e+01 -6.026514471420e+00 0.0 
1.383271561817e+01 -5.467796261169e+00 0.0 
1.389241253067e+01 -4.504338666645e+00 0.0 
1.301868735463e+01 -4.907185188626e+00 0.0 
1.294514184846e+01 -5.888160903592e+00 0.0 
1.212955968622e+01 -5.328262335277e+00 0.0 
1.220721122383e+01 -4.341264976687e+00 0.0 
1.131324345897e+01 -4.766773516508e+00 0.0 
5.266597955397e+00 -1.613148974258e+01 0.0 
1.737805990867e+01 -3.786677807525e+00 0.0 
3.078438094513e+01 -1.203225297748e+01 0.0 
1.131569882285e+01 -1.608511932110e+01 0.0 
1.728478341782e+01 -1.596017432313e+01 0.0 
3.803465906019e+01 -1.587509751228e+01 0.0 
3.891681276677e+01 -1.543395196905e+01 0.0 
3.897340985302e+01 -1.444710288980e+01 0.0 
3.980095968193e+01 -1.499059496613e+01 0.0 
3.974334598189e+01 -1.597921884150e+01 0.0 
4.062964983717e+01 -1.553518690417e+01 0.0 
4.068729602479e+01 -1.454434445295e+01 0.0 
4.151772679790e+01 -1.508974196007e+01 0.0 
4.157505195739e+01 -1.409694289912e+01 0.0 
4.240699932656e+01 -1.464347955968e+01 0.0 
4.234898051011e+01 -1.563721375790e+01 0.0 
4.323934606035e+01 -1.519082036405e+01 0.0 
4.329740528208e+01 -1.419587509788e+01 0.0 
4.413056841369e+01 -1.474359631875e+01 0.0 
4.418850110108e+01 -1.374786684042e+01 0.0 
4.502219770667e+01 -1.429605103525e+01 0.0 
4.496411937907e+01 -1.529215882720e+01 0.0 
4.490027319897e+00 -4.154167794594e+00 0.0 
1.565080385988e+01 -1.486411982419e+01 0.0 
1.557610691279e+01 -1.584855627870e+01 0.0 
4.195350646612e+00 -8.089117689096e+00 0.0 
4.124027797830e+00 -9.082831955007e+00 0.0 
4.917944318925e+00 -9.643530901533e+00 0.0 
4.020105689502e+00 -1.007439673661e+01 0.0 
4.587185899277e+01 -1.484039992728e+01 0.0 
4.580078661551e+01 -1.584043391042e+01 0.0 
2.061956522375e+01 -5.046701343981e+00 0.0 
2.139572955529e+01 -5.579553449826e+00 0.0 
3.715344357292e+01 -1.631485124583e+01 0.0 
3.618886196443e+00 -1.500471207167e+01 0.0 
3.695606940204e+00 -1.400939692294e+01 0.0 
2.438890661143e+01 -9.686110599723e+00 0.0 
2.523267572778e+01 -9.276766000622e+00 0.0 
2.446094171539e+01 -8.751904591412e+00 0.0 
2.529089822738e+01 -8.321495612547e+00 0.0 
2.606882688827e+01 -8.864724051119e+00 0.0 
2.452116646430e+01 -7.792756462004e+00 0.0 
1.235543269617e+01 -1.365845617339e+01 0.0 
4.318116874181e+01 -1.618567469992e+01 0.0 
7.835066111909e+00 -5.376366223896e+00 0.0 
7.905687335704e+00 -4.382539065697e+00 0.0 
3.542640009567e+00 -1.600035116542e+01 0.0 
1.572431503071e+01 -1.388358386695e+01 0.0 
2.574684696680e+01 -1.357896141127e+01 0.0 
2.488842657651e+01 -1.399674354505e+01 0.0 
2.568301775611e+01 -1.453552048595e+01 0.0 
2.481535572009e+01 -1.495542756508e+01 0.0 
2.561729699688e+01 -1.549784648532e+01 0.0 
2.474623061296e+01 -1.592058894178e+01 0.0 
2.394234041695e+01 -1.537572575827e+01 0.0 
2.065825452567e+01 -1.621899055217e+01 0.0 
2.387180528935e+01 -1.634552264687e+01 0.0 
4.585364400844e+01 -1.383912334080e+01 0.0 
1.998744432052e+01 -1.370317155541e+01 0.0 
1.205356951443e+01 -6.313580285498e+00 0.0 
5.396543905849e+00 -3.731818611283e+00 0.0 
1.139652573295e+01 -3.745819399350e+00 0.0 
3.574124306703e+00 -4.551456826011e+00 0.0 
3.494140761930e+00 -5.539787055649e+00 0.0 
1.213651452413e+01 -1.664505033022e+01 0.0 
2.555045568519e+01 -1.646529356744e+01 0.0 
2.641671114986e+01 -1.603899382371e+01 0.0 
2.612920721894e+01 -7.906435260873e+00 0.0 
2.690339829698e+01 -8.456969591431e+00 0.0 
1.978024383368e+01 -1.664410216353e+01 0.0 
3.732829979082e+01 -1.336926601859e+01 0.0 
4.074336584605e+01 -1.355133328401e+01 0.0 
4.163204691081e+01 -1.310280943992e+01 0.0 
3.773826114429e+00 -3.493444309145e+00 0.0 
1.228783001032e+01 -3.374822835872e+00 0.0 
4.057110462520e+01 -1.652588478000e+01 0.0 
2.132535497898e+01 -6.523623360525e+00 0.0 
2.216932532211e+01 -6.110044769206e+00 0.0 
1.825781152128e+01 -3.370146817147e+00 0.0 
1.745679445888e+01 -2.812942552063e+00 0.0 
4.666517057280e+01 -1.539981381543e+01 0.0 
4.660575894464e+01 -1.639014410186e+01 0.0 
4.838230979954e+00 -1.063643436446e+01 0.0 
3.938942630206e+00 -1.106778981745e+01 0.0 
1.302967218620e+01 -1.621373452436e+01 0.0 
1.049548003190e+01 -4.204825123240e+00 0.0 
4.573571907195e+01 -1.683820511148e+01 0.0 
1.483686335807e+01 -1.430849689310e+01 0.0 
1.490982658890e+01 -1.332679386284e+01 0.0 
3.190805600162e+00 -9.510968358545e+00 0.0 
2.146625721848e+01 -4.642437303115e+00 0.0 
2.069866208266e+01 -4.111852942193e+00 0.0 
1.286859345584e+01 -6.873252723348e+00 0.0 
1.041794493184e+01 -5.194814260291e+00 0.0 
2.671081808965e+00 -4.976806516331e+00 0.0 
1.295786792925e+01 -1.720506531799e+01 0.0 
3.968438206511e+01 -1.696869067241e+01 0.0 
2.308550456051e+01 -1.579963151273e+01 0.0 
2.315593682844e+01 -1.482967445235e+01 0.0 
2.299471449450e+01 -1.677069968132e+01 0.0 
1.057344714696e+01 -3.214252277840e+00 0.0 
1.124057603753e+01 -1.707713739755e+01 0.0 
2.718402535754e+00 -1.543629882103e+01 0.0 
2.638549692805e+01 -1.696744916809e+01 0.0 
2.723416349007e+01 -1.658104204545e+01 0.0 
2.210193351704e+01 -7.046769643417e+00 0.0 
2.295180925161e+01 -6.657397605239e+00 0.0 
2.301355235833e+01 -5.709111896800e+00 0.0 
2.379052718281e+01 -6.254965406962e+00 0.0 
3.243528601237e+01 -1.214181853533e+01 0.0 
2.287977995457e+01 -7.583722368300e+00 0.0 
2.999876029544e+01 -1.150837653096e+01 0.0 
3.084435366963e+01 -1.109693775882e+01 0.0 
3.006650579669e+01 -1.057778994262e+01 0.0 
2.683802665066e+01 -9.386863216633e+00 0.0 
2.768641973621e+01 -8.988883915666e+00 0.0 
2.040296980397e+01 -7.903629133404e+00 0.0 
1.925235024054e+01 -1.218872783130e+01 0.0 
5.735667000424e+00 -1.020577277283e+01 0.0 
6.396559909872e+00 -1.272326295703e+01 0.0 
1.161199420714e+01 -1.212812778229e+01 0.0 
4.229046132615e+01 -1.663084237572e+01 0.0 
4.312275399692e+01 -1.718087491556e+01 0.0 
4.335502068163e+01 -1.320039231514e+01 0.0 
4.424630298089e+01 -1.275160688731e+01 0.0 
7.090116643816e+00 -3.818998061530e+00 0.0 
7.989472176569e+00 -3.389238711200e+00 0.0 
9.085824861778e+00 -1.144036167408e+01 0.0 
1.041972423731e+01 -1.651614080893e+01 0.0 
3.797525112640e+01 -1.686052038746e+01 0.0 
3.709114253394e+01 -1.730125999865e+01 0.0 
3.626966748340e+01 -1.675477052919e+01 0.0 
1.385164591440e+01 -1.677597757552e+01 0.0 
1.787152588784e+01 -8.198993896093e+00 0.0 
1.668849729812e+01 -1.248560611628e+01 0.0 
1.659546177905e+01 -3.232482605530e+00 0.0 
2.332214717345e+01 -1.292598167641e+01 0.0 
7.168238450786e+00 -2.824711686516e+00 0.0 
2.894878403906e+01 -1.475427524446e+01 0.0 
2.646763248247e+00 -1.643270107952e+01 0.0 
3.467431944285e+00 -1.699648837348e+01 0.0 
2.059475877282e+01 -1.719473628526e+01 0.0 
3.333868355437e+01 -1.080596971682e+01 0.0 
2.246451062637e+01 -1.334557761546e+01 0.0 
2.167821896388e+01 -1.280847834858e+01 0.0 
3.089653185767e+01 -1.017198487212e+01 0.0 
3.012604365669e+01 -9.657298805968e+00 0.0 
2.929627299435e+01 -1.006100135274e+01 0.0 
2.936201435219e+01 -9.136748899251e+00 0.0 
1.198219052702e+01 -7.291887238230e+00 0.0 
1.116702076035e+01 -6.731976101053e+00 0.0 
2.551388807505e+01 -1.746927036981e+01 0.0 
2.378639090370e+01 -1.728678807149e+01 0.0 
2.718543627188e+01 -1.748668016909e+01 0.0 
2.804681050301e+01 -1.712626668293e+01 0.0 
1.970737034667e+01 -1.762317646822e+01 0.0 
1.889535776135e+01 -1.707158098231e+01 0.0 
2.593777711283e+00 -5.971157087874e+00 0.0 
2.773468281110e+01 -8.067164273938e+00 0.0 
4.051205884347e+01 -1.751819982458e+01 0.0 
3.166903145421e+01 -1.068032992414e+01 0.0 
1.033042452886e+01 -1.748285844336e+01 0.0 
9.519274604626e+00 -1.694349240233e+01 0.0 
1.668308673328e+01 -2.255861778986e+00 0.0 
1.570531902832e+01 -2.676795860126e+00 0.0 
4.655826903379e+01 -1.736656245706e+01 0.0 
2.384148070773e+01 -5.328744256413e+00 0.0 
2.460255123641e+01 -5.852182672816e+00 0.0 
2.306638135119e+01 -4.798935440613e+00 0.0 
8.467720450578e-01 -1.849576263072e+01 0.0 
4.849657322345e+01 -1.084860705506e+01 0.0 
2.565860899507e+00 -1.742859793981e+01 0.0 
2.764418872564e+01 -9.927142821799e+00 0.0 
4.565165880064e+01 -1.785336695404e+01 0.0 
2.162231831329e+01 -1.376528337468e+01 0.0 
2.360646352969e+01 -9.136041963102e+00 0.0 
1.392738739903e+01 -1.578285505772e+01 0.0 
4.756405947478e+01 -1.683706841809e+01 0.0 
4.740895034054e+01 -1.793766756892e+01 0.0 
4.080779328826e+01 -1.257387192544e+01 0.0 
4.168907939671e+01 -1.210739129181e+01 0.0 
3.991197722154e+01 -1.300815793917e+01 0.0 
1.905536506762e+01 -3.940076697685e+00 0.0 
1.923879596617e+01 -2.875000734166e+00 0.0 
4.401386745746e+01 -1.673483229438e+01 0.0 
4.247233362525e+00 -7.094581653070e+00 0.0 
3.286051630211e+00 -7.635300020553e+00 0.0 
9.609533347623e+00 -4.594311677967e+00 0.0 
9.523554636369e+00 -5.595597029530e+00 0.0 
5.660336628893e+00 -1.119290329628e+01 0.0 
6.558070063295e+00 -1.076385809362e+01 0.0 
2.809866407414e+01 -1.518037766799e+01 0.0 
2.888868674504e+01 -1.570360690070e+01 0.0 
2.654431550819e+01 -1.411217777162e+01 0.0 
1.402158265969e+01 -1.375404617952e+01 0.0 
1.409592494026e+01 -1.277071998942e+01 0.0 
1.499355196178e+01 -1.235270737023e+01 0.0 
4.221535326155e+01 -1.759335617494e+01 0.0 
4.305583287033e+01 -1.822663146802e+01 0.0 
1.280748808359e+01 -7.834332838285e+00 0.0 
1.368988389326e+01 -7.420529606172e+00 0.0 
1.110091796060e+01 -7.683966794328e+00 0.0 
3.963446145980e+01 -1.794331310122e+01 0.0 
3.423932362213e+00 -1.796415590455e+01 0.0 
4.280814572302e+00 -1.752272834860e+01 0.0 
8.050136380041e+00 -2.421582378631e+00 0.0 
8.888674091650e+00 -2.984264211327e+00 0.0 
2.152839430898e+01 -3.732609965436e+00 0.0 
2.077799585292e+01 -3.183896021866e+00 0.0 
3.618719395821e+01 -1.770276572576e+01 0.0 
3.538165138340e+01 -1.718709995539e+01 0.0 
3.702925326420e+01 -1.828844288807e+01 0.0 
1.756739438711e+00 -5.353284859169e+00 0.0 
2.233710191104e+01 -1.527265621324e+01 0.0 
1.389483555057e+01 -1.771797164730e+01 0.0 
1.475634224300e+01 -1.728357428390e+01 0.0 
1.298797563052e+01 -1.825968924755e+01 0.0 
2.145331271866e+01 -1.673705379077e+01 0.0 
2.133282821169e+01 -1.769400773673e+01 0.0 
2.292139194136e+01 -1.774915400288e+01 0.0 
1.750750053243e+01 -1.861475593469e+00 0.0 
4.830478841772e+01 -1.752611802221e+01 0.0 
4.341203507805e+01 -1.220326745522e+01 0.0 
1.685254151866e+01 -1.443085301632e+00 0.0 
4.431538535165e+01 -1.171841387375e+01 0.0 
4.511308610496e+01 -1.229557320599e+01 0.0 
4.510133242889e+01 -1.123680627466e+01 0.0 
1.846818030617e+00 -4.410877617069e+00 0.0 
3.995468694584e+01 -1.186571542989e+01 0.0 
3.901387459804e+01 -1.242507616755e+01 0.0 
8.966735877533e+00 -1.837818700423e+00 0.0 
4.049310011091e+01 -1.848269508791e+01 0.0 
7.278862053803e+00 -1.918523922691e+00 0.0 
6.429715522129e+00 -2.316676521184e+00 0.0 
9.443505505022e+00 -1.792198868094e+01 0.0 
8.620386951051e+00 -1.737590365556e+01 0.0 
8.571868171503e+00 -1.834436667826e+01 0.0 
7.758629848526e+00 -1.775677907213e+01 0.0 
7.806648388584e+00 -1.680761266021e+01 0.0 
6.908555145436e+00 -1.723746463044e+01 0.0 
4.251709122090e+01 -1.156937480156e+01 0.0 
6.931136405615e+00 -1.832465719263e+01 0.0 
6.015545461353e+00 -1.768865355295e+01 0.0 
5.960535926343e+00 -1.872011001764e+01 0.0 
3.023253444786e+01 -8.761960642196e+00 0.0 
2.454622702599e+01 -6.749421992767e+00 0.0 
2.537499741604e+01 -6.347634963783e+00 0.0 
2.544077378460e+01 -5.431358513649e+00 0.0 
2.801367161747e+01 -1.820907270221e+01 0.0 
2.884507806914e+01 -1.762032095326e+01 0.0 
1.821474531936e+00 -1.588901260460e+01 0.0 
1.821006262604e+00 -1.489370287756e+01 0.0 
4.599962488908e+01 -1.176478780598e+01 0.0 
4.705457470007e+01 -1.172182804229e+01 0.0 
4.667668314802e+01 -1.263464558483e+01 0.0 
4.759648056504e+01 -1.252380987933e+01 0.0 
4.728041618103e+01 -1.341928568376e+01 0.0 
4.825209352360e+01 -1.330491640804e+01 0.0 
4.778118233428e+01 -1.420151961695e+01 0.0 
2.388192727579e+01 -1.826934810142e+01 0.0 
2.381714684947e+01 -4.385917965223e+00 0.0 
3.172733219247e+01 -9.758744265248e+00 0.0 
1.882012070658e+01 -1.805540597212e+01 0.0 
1.805667505243e+01 -1.742221226236e+01 0.0 
2.852599958080e+01 -8.597196079481e+00 0.0 
2.856486123437e+01 -7.661382718527e+00 0.0 
1.111792842875e+01 -1.818223852980e+01 0.0 
2.203322722466e+01 -7.986646678802e+00 0.0 
3.955703676900e+01 -1.903246763601e+01 0.0 
1.944842206513e+01 -8.038750575182e-01 0.0 
1.909882767783e+01 -1.746322740933e+00 0.0 
2.281147422941e+01 -8.525912918334e+00 0.0 
2.850633001468e+01 -9.533271335986e+00 0.0 
2.532883344309e+01 -7.308951659710e+00 0.0 
2.620475466461e+01 -6.979208585400e+00 0.0 
1.396278270396e+01 -1.475095389807e+01 0.0 
9.791001166724e+00 -2.554159793552e+00 0.0 
2.229293380421e+01 -4.269762271052e+00 0.0 
4.677238984118e+01 -1.430071795514e+01 0.0 
2.228658385918e+01 -3.344747535984e+00 0.0 
8.940223674553e-01 -1.543595733415e+01 0.0 
2.118566862474e+01 -8.435876987696e+00 0.0 
2.678325936437e+01 -1.032621195706e+01 0.0 
2.223400220487e+01 -5.179046761770e+00 0.0 
2.375370625384e+01 -7.251580562134e+00 0.0 
3.156971327386e+01 -1.255534750737e+01 0.0 
3.328226391312e+01 -1.172914813316e+01 0.0 
3.250948774219e+01 -1.120157009348e+01 0.0 
2.032993445717e+01 -8.867880112202e+00 0.0 
2.697226974856e+01 -7.536633082045e+00 0.0 
2.707377810386e+01 -6.590835263295e+00 0.0 
2.914099246827e+01 -1.191678458549e+01 0.0 
3.544824072239e+01 -1.621126558525e+01 0.0 
3.456511855436e+01 -1.665054783843e+01 0.0 
3.448395810225e+01 -1.759117813016e+01 0.0 
3.368378673938e+01 -1.708037781328e+01 0.0 
3.375560452567e+01 -1.610973066913e+01 0.0 
3.288001547988e+01 -1.654324255651e+01 0.0 
3.282475929147e+01 -1.749725654692e+01 0.0 
3.199880906313e+01 -1.697294088625e+01 0.0 
3.197001272932e+01 -1.811667776864e+01 0.0 
3.111884713021e+01 -1.742166785755e+01 0.0 
3.120418962865e+01 -1.642155709385e+01 0.0 
3.034666704371e+01 -1.683123833816e+01 0.0 
3.026224379976e+01 -1.772592851714e+01 0.0 
3.046632362943e+01 -1.582232843075e+01 0.0 
1.961344017324e+01 -1.857459447985e+01 0.0 
2.274975894774e+01 -9.532738811922e+00 0.0 
1.833923246887e+01 -2.396746883672e+00 0.0 
1.988859500848e+01 -2.249244376594e+00 0.0 
2.758045562861e+01 -1.086434261689e+01 0.0 
3.247300178163e+01 -1.909930104252e+01 0.0 
3.461947482503e+01 -1.911879848019e+01 0.0 
2.047161538662e+01 -6.941478180358e+00 0.0 
2.750230940214e+01 -1.915490590764e+01 0.0 
3.165081350803e+01 -1.161860780120e+01 0.0 
1.897456727641e+01 -4.889634688522e+00 0.0 
2.549338539756e+01 -1.914858252089e+01 0.0 
3.462873135081e+01 -1.567482276144e+01 0.0 
3.384432415243e+01 -1.512280684518e+01 0.0 
3.471433767690e+01 -1.469086942990e+01 0.0 
3.651470373046e+01 -1.918207952149e+01 0.0 
3.901742690249e+01 -1.345028556517e+01 0.0 
2.153224102692e+01 -1.920169709333e+01 0.0 
1.918382939341e+01 -1.316226275662e+01 0.0 
2.005389162382e+01 -1.271962165174e+01 0.0 
2.011472087878e+01 -1.175029352900e+01 0.0 
3.210679478412e+01 -1.598038618242e+01 0.0 
1.752175226543e+01 -1.914713022656e+01 0.0 
1.696897240059e+01 -1.832772588765e+01 0.0 
1.599682523337e+01 -1.832599992024e+01 0.0 
1.644507199462e+01 -1.743697981535e+01 0.0 
1.549987712903e+01 -1.915192375101e+01 0.0 
3.050250861901e+01 -1.918943550234e+01 0.0 
2.949944061527e+01 -1.922950455235e+01 0.0 
1.375892575273e+01 -6.447160534926e+00 0.0 
1.457223670180e+01 -7.006709243857e+00 0.0 
1.450818793236e+01 -7.965943451779e+00 0.0 
1.538804712402e+01 -7.553409623699e+00 0.0 
1.545817644768e+01 -6.580929593419e+00 0.0 
1.626506893751e+01 -7.129032608911e+00 0.0 
1.619833811522e+01 -8.086588580887e+00 0.0 
1.714448609609e+01 -6.697429609777e+00 0.0 
2.887616543568e+01 -1.668015232137e+01 0.0 
1.349814589130e+01 -1.918225301544e+01 0.0 
1.153887772210e+01 -1.311384581217e+01 0.0 
1.242708159886e+01 -1.267046795531e+01 0.0 
1.249799674267e+01 -1.169005616014e+01 0.0 
6.631723893693e+00 -9.774184881867e+00 0.0 
7.451471631867e+00 -1.033148796006e+01 0.0 
7.377795355458e+00 -1.132196345268e+01 0.0 
5.810931797536e+00 -9.211654212252e+00 0.0 
2.402683899133e+01 -1.441378562320e+01 0.0 
1.249768692036e+01 -1.917388426624e+01 0.0 
1.580373499437e+01 -1.290751860664e+01 0.0 
8.344650507834e+00 -9.898403995170e+00 0.0 
3.750622115305e+01 -1.086526401533e+01 0.0 
3.699391251667e+01 -1.171695900794e+01 0.0 
3.606517829518e+01 -1.173717504500e+01 0.0 
3.650257641795e+01 -1.270047380221e+01 0.0 
3.808951488918e+01 -1.183518714175e+01 0.0 
4.760380962420e+00 -1.162484888315e+01 0.0 
3.861210370848e+00 -1.205657631736e+01 0.0 
3.038284309476e+00 -1.149851280664e+01 0.0 
2.961598794889e+00 -1.248856794980e+01 0.0 
2.138953225512e+00 -1.193212674534e+01 0.0 
2.227383593457e+00 -1.096258903918e+01 0.0 
2.043265419276e+00 -1.292158472959e+01 0.0 
1.252449446028e+00 -1.225502002753e+01 0.0 
3.949985210740e+01 -1.086594001795e+01 0.0 
1.453499444792e+01 -8.768805922472e-01 0.0 
1.403518950933e+01 -1.749965556633e+00 0.0 
1.300715031023e+01 -1.714737233040e+00 0.0 
1.350929389899e+01 -2.527443911291e+00 0.0 
1.449600910711e+01 -2.595486162864e+00 0.0 
1.395693872901e+01 -3.484211041558e+00 0.0 
1.495105865208e+01 -3.364609636216e+00 0.0 
1.508822528740e+01 -1.766586020494e+00 0.0 
1.250223858430e+01 -8.634590186802e-01 0.0 
1.200279523409e+01 -1.709044504992e+00 0.0 
1.150086239419e+01 -8.592789190668e-01 0.0 
1.101482754194e+01 -1.677730591922e+00 0.0 
1.148018564526e+01 -2.659323866909e+00 0.0 
8.800552119754e+00 -3.989875954728e+00 0.0 
3.452790439430e+00 -1.901136170646e+01 0.0 
8.658451825200e-01 -9.503462241795e+00 0.0 
1.694787786797e+00 -9.000589234502e+00 0.0 
1.703436717094e+00 -8.038819004041e+00 0.0 
2.594197971110e+00 -8.563955242845e+00 0.0 
1.630513735412e+00 -9.907244747511e+00 0.0 
8.566859292791e-01 -7.512203837972e+00 0.0 
1.685461277022e+00 -7.164280248030e+00 0.0 
2.506394468801e+00 -8.623386730818e-01 0.0 
2.007475081581e+00 -1.727729545205e+00 0.0 
9.211534699767e-01 -1.628791366312e+00 0.0 
1.500000000020e+00 -2.598063549486e+00 0.0 
2.482078929963e+00 -2.553580088725e+00 0.0 
2.999795253092e+00 -1.732169015019e+00 0.0 
3.999712607169e+00 -1.728832897453e+00 0.0 
4.499752199340e+00 -8.656478679175e-01 0.0 
4.964377774841e+00 -1.730129617941e+00 0.0 
4.425017908337e+00 -2.597541756243e+00 0.0 
5.446573195014e+00 -8.410144840023e-01 0.0 
4.915722346614e+01 -1.550640962770e+01 0.0 
4.826794919243e+01 -1.600000000000e+01 0.0 
1.053139533193e+01 -1.911782884365e+01 0.0 
4.156049861949e+01 -1.095160998589e+01 0.0 
9.494526624416e+00 -8.650570090219e-01 0.0 
4.555762166964e+01 -1.897098103585e+01 0.0 
4.250656411371e+01 -1.914387356218e+01 0.0 
4.350906466345e+01 -1.917234727395e+01 0.0 
8.759665722424e-01 -1.746422130609e+01 0.0 
1.698936011838e+00 -1.795012186674e+01 0.0 
4.742476811029e+01 -1.900090177972e+01 0.0 
7.749196752349e+00 -6.368049313489e+00 0.0 
3.361572113416e+01 -1.798765193915e+01 0.0 
4.484660149212e+01 -1.728661231383e+01 0.0 
1.984038172228e+01 -4.502575320116e+00 0.0 
1.035080352627e+01 -6.166639575753e+00 0.0 
2.753558010652e+00 -1.444909521181e+01 0.0 
7.217069543032e+00 -1.328635391078e+01 0.0 
4.364336727739e+00 -1.655585677381e+01 0.0 
4.595208426108e+00 -1.357919665443e+01 0.0 
6.164967006980e+00 -1.569873454630e+01 0.0 
1.487855768353e+01 -1.826523774028e+01 0.0 
2.791876456372e+00 -4.019632415181e+00 0.0 
4.246464893515e+01 -1.364898659620e+01 0.0 
4.503855590351e+01 -1.329552780944e+01 0.0 
4.407239109604e+01 -1.573900004093e+01 0.0 
5.141054449252e+00 -6.664290382472e+00 0.0 
3.141083947149e+00 -1.055790764912e+01 0.0 
6.196463198741e+00 -4.256497932609e+00 0.0 
2.599618716181e+01 -1.836893455464e+01 0.0 
2.923057372337e+01 -1.098461757645e+01 0.0 
1.168343877486e+01 -1.114079645041e+01 0.0 
6.706222096238e+00 -8.780364234441e+00 0.0 
8.567858614669e+00 -6.943121440850e+00 0.0 
1.123755132901e+01 -5.753525820030e+00 0.0 
2.353456234423e+01 -1.008536320953e+01 0.0 
9.162073319168e+00 -1.045593739109e+01 0.0 
9.676343469685e+00 -1.496493008366e+01 0.0 
4.490637882905e+01 -1.628778970202e+01 0.0 
7.398129387772e+00 -9.639977982323e-01 0.0 
1.049641705805e+01 -1.552503975272e+01 0.0 
9.010356286268e+00 -1.242805042052e+01 0.0 
3.985573925497e+01 -1.399863651620e+01 0.0 
1.816196318262e+01 -1.554066497931e+01 0.0 
1.306332244168e+01 -3.963646550326e+00 0.0 
4.145850903932e+01 -1.608094559275e+01 0.0 
3.794664933633e+01 -1.779020121986e+01 0.0 
3.819614412903e+01 -1.290749321016e+01 0.0 
6.270014188119e+00 -3.255093186826e+00 0.0 
4.251165370388e+01 -1.263870364997e+01 0.0 
1.207347709171e+01 -1.763942826023e+01 0.0 
3.633240829927e+01 -1.577330481104e+01 0.0 
4.319052668832e+00 -6.101812561904e+00 0.0 
1.676492415806e+01 -1.151547901392e+01 0.0 
2.594059220037e+01 -1.074225223009e+01 0.0 
3.340750911501e+01 -9.898764354137e+00 0.0 
4.397619591281e+01 -1.769773736461e+01 0.0 
2.175611595028e+01 -1.185718747128e+01 0.0 
1.641818733106e+01 -1.640685203215e+01 0.0 
1.661211421753e+01 -1.346121366338e+01 0.0 
3.428853504935e+00 -6.551993389271e+00 0.0 
8.700728832502e+00 -1.638460872825e+01 0.0 
1.931369795309e+01 -1.121629383702e+01 0.0 
4.139798872363e+01 -1.706922153459e+01 0.0 
2.647837478700e+01 -1.507353829290e+01 0.0 
1.779469616424e+01 -9.161615782908e+00 0.0 
3.885879219319e+01 -1.642026488918e+01 0.0 
1.338194936770e+01 -1.125916521471e+01 0.0 
1.897071181111e+01 -1.609204322578e+01 0.0 
2.844308548793e+01 -1.046221003096e+01 0.0 
2.659854702194e+01 -1.316109415760e+01 0.0 
2.979604503271e+01 -1.433296157755e+01 0.0 
2.417694041347e+01 -1.251231397779e+01 0.0 
1.807401327411e+00 -1.388891148480e+01 0.0 
9.599810618782e+00 -1.595439365034e+01 0.0 
1.652144692160e+01 -4.205392788472e+00 0.0 
2.367839450246e+01 -8.188385218643e+00 0.0 
3.814894930468e+01 -1.390748338767e+01 0.0 
2.466448215774e+01 -1.685878545680e+01 0.0 
4.134044524611e+01 -1.806610045954e+01 0.0 
2.600511411958e+01 -9.801774120648e+00 0.0 
7.882158050716e+00 -1.582364037353e+01 0.0 
3.881607873422e+01 -1.737970515013e+01 0.0 
8.270182347708e+00 -1.088622154920e+01 0.0 
8.672520392520e-01 -4.532984309881e+00 0.0 
1.993447205337e+01 -3.579061902667e+00 0.0 
1.794616079549e+01 -7.238038888498e+00 0.0 
2.097277068165e+01 -1.132450168636e+01 0.0 
8.194803300681e+00 -1.187214224265e+01 0.0 
3.522279404911e+01 -1.823342818178e+01 0.0 
6.984481050295e+00 -1.625271465557e+01 0.0 
1.309433007797e+01 -1.521718594215e+01 0.0 
2.150246167611e+01 -1.885399038185e+00 0.0 
3.250689370209e+01 -1.028789870535e+01 0.0 
6.085886272238e+00 -1.668342132851e+01 0.0 
1.588455661727e+01 -1.193498985921e+01 0.0 
1.809323400821e+01 -1.651110084195e+01 0.0 
1.348885082381e+00 -1.136065576512e+01 0.0 
2.497670221995e+01 -1.834631276173e+01 0.0 
2.937062818424e+01 -8.233711194470e+00 0.0 
5.185823744469e+00 -1.711566910207e+01 0.0 
1.477497877209e+01 -1.530177014512e+01 0.0 
2.125346158933e+01 -7.473003997367e+00 0.0 
4.751561118290e+01 -1.084897772632e+01 0.0 
5.056026576843e+00 -1.825750475525e+01 0.0 
1.473948554523e+01 -1.634577436309e+01 0.0 
2.410566630936e+01 -1.345970002612e+01 0.0 
1.507337507513e+01 -1.138527895328e+01 0.0 
3.189857338687e+01 -8.887781229006e+00 0.0 
7.298712468334e+00 -1.230231046246e+01 0.0 
2.738235495295e+01 -1.368931690364e+01 0.0 
3.750141041969e+01 -1.920449893070e+01 0.0 
1.557271965640e+01 -1.683317951731e+01 0.0 
3.393731848929e+01 -1.413034777044e+01 0.0 
6.482156824153e+00 -1.174575135362e+01 0.0 
2.077971718439e+01 -1.421279621836e+01 0.0 
3.455084320178e+00 -2.562590040585e+00 0.0 
3.099056096250e+01 -9.270280416035e+00 0.0 
5.580176125418e+00 -1.217387969259e+01 0.0 
1.707247630389e+01 -7.660651981710e+00 0.0 
1.418658814174e+01 -1.180390575393e+01 0.0 
2.049103025389e+01 -1.811296706038e+01 0.0 
4.680386172316e+00 -1.260396879301e+01 0.0 
1.699679896554e+01 -8.624561788199e+00 0.0 
3.779470168555e+00 -1.303424899720e+01 0.0 
3.036589870126e+01 -7.879832518349e+00 0.0 
3.306993001774e+01 -1.457671062095e+01 0.0 
2.840150110165e+00 -1.346530088269e+01 0.0 
2.732011135052e+01 -1.464591214560e+01 0.0 
5.423639259568e+00 -2.659711955016e+00 0.0 
2.324455961696e+01 -1.387269388211e+01 0.0 
1.752768355571e+00 -1.693128613594e+01 0.0 
1.020244783051e+01 -8.076834012808e+00 0.0 
1.330873875224e+01 -1.222417528206e+01 0.0 
3.297727364880e+01 -1.555480372087e+01 0.0 
2.890929955439e+01 -6.868664170731e+00 0.0 
1.323294664622e+01 -1.320754260334e+01 0.0 
2.726532861246e+01 -1.560593120806e+01 0.0 
2.240020643398e+01 -1.429299177247e+01 0.0 
2.090445823633e+01 -1.228128621332e+01 0.0 
1.315809881502e+01 -1.420739326938e+01 0.0 
2.781328038068e+01 -7.181956082300e+00 0.0 
8.614200829057e+00 -5.936933226306e+00 0.0 
8.714765730069e+00 -4.979270529687e+00 0.0 
1.611881701099e+01 -9.041973294003e+00 0.0 
2.806830314340e+01 -1.614622947108e+01 0.0 
2.084435391396e+00 -3.385085422913e+00 0.0 
3.133211811152e+01 -1.542347619750e+01 0.0 
9.693114650768e+00 -3.590281506442e+00 0.0 
1.531883592202e+01 -8.504584946143e+00 0.0 
2.151589117094e+01 -1.578915763018e+01 0.0 
4.918943882696e+01 -1.355538828056e+01 0.0 
1.443236615188e+01 -8.918701794549e+00 0.0 
8.276250966452e-01 -5.537685192197e+00 0.0 
1.362790867918e+01 -8.374718262212e+00 0.0 
2.083767477370e+01 -1.324843956035e+01 0.0 
1.273834678703e+01 -8.790890389337e+00 0.0 
1.192275845670e+01 -8.242261327467e+00 0.0 
4.477236023583e+01 -1.824312396664e+01 0.0 
1.102989384254e+01 -8.649855800911e+00 0.0 
4.849096516045e+01 -1.917293752213e+01 0.0 
1.588996752238e+00 -1.910230934687e+01 0.0 
4.904245197583e+01 -1.159839008158e+01 0.0 
2.753852929608e+01 -5.782128488093e+00 0.0 
1.756133602833e+01 -8.306130313187e-01 0.0 
2.615423700951e+01 -6.153865090092e+00 0.0 
1.028818761294e+01 -7.122020845892e+00 0.0 
2.970818901196e+01 -1.527821347593e+01 0.0 
4.801461623449e+01 -1.164472570985e+01 0.0 
9.455722100419e+00 -6.546069291118e+00 0.0 
3.089099236677e+01 -1.835339328261e+01 0.0 
2.350000000013e+01 -1.920825896750e+01 0.0 
4.830620531887e+01 -1.506626155470e+01 0.0 
1.725381944701e+01 -1.688794487850e+01 0.0 
2.156246225273e+01 -1.475893794002e+01 0.0 
4.919319648787e+01 -1.742767505896e+01 0.0 
4.437935623576e+01 -1.077662927266e+01 0.0 
1.001520521978e+01 -1.652692675208e+00 0.0 
9.067160240050e-01 -1.441937727541e+01 0.0 
2.603365149390e+01 -4.755996613848e+00 0.0 
2.458344439002e+01 -4.873645517696e+00 0.0 
2.304312390142e+01 -3.836552768096e+00 0.0 
2.546923202198e+00 -6.902480355749e+00 0.0 
1.251534969393e+01 -2.490989965776e+00 0.0 
2.454061833377e+01 -3.933354231935e+00 0.0 
1.788186558740e+01 -1.827424884923e+01 0.0 
4.090785243552e+01 -1.166553231904e+01 0.0 
2.230128851568e+01 -1.623015738726e+01 0.0 
2.302362347568e+01 -2.916239960270e+00 0.0 
3.878119254461e+01 -1.830091164002e+01 0.0 
2.210081359958e+01 -1.829238229150e+01 0.0 
8.443704882233e+00 -1.921993252862e+01 0.0 
2.218405824691e+01 -1.724557581508e+01 0.0 
2.151157503963e+01 -2.790636689331e+00 0.0 
3.741658958955e+01 -1.250400191722e+01 0.0 
2.697247663737e+01 -1.838290202309e+01 0.0 
4.743362342862e+01 -1.585850773010e+01 0.0 
6.671345075358e+00 -1.924977576322e+01 0.0 
3.900825404537e+01 -1.157220003875e+01 0.0 
4.649692961375e+01 -1.836335837481e+01 0.0 
1.578831424832e+01 -3.678284023361e+00 0.0 
4.814208768888e+01 -1.841249298770e+01 0.0 
2.964123298315e+01 -1.625739458193e+01 0.0 
4.580760351902e+01 -1.284294554687e+01 0.0 
3.561520879615e+01 -1.245548941949e+01 0.0 
2.555418095658e+00 -1.841101588290e+01 0.0 
3.288468366144e+01 -1.834258164109e+01 0.0 
2.065894391445e+01 -2.240688571739e+00 0.0 
4.739171429915e+01 -1.496536413446e+01 0.0 
3.478086729185e+00 -8.576434653209e+00 0.0 
1.606010630246e+01 -1.588421807951e+00 0.0 
1.018329200594e+01 -1.834320874317e+01 0.0 
2.957213339430e+01 -1.720496954591e+01 0.0 
4.142712790164e+00 -1.837794506222e+01 0.0 
6.698721532573e-01 -2.499999999997e+00 0.0 
8.037039123140e+00 -1.571229354954e+00 0.0 
1.203541361428e+01 -1.847784298001e+01 0.0 
2.899968332038e+01 -1.848264722179e+01 0.0 
1.469229460948e+01 -4.219485753730e+00 0.0 
4.049590781957e+01 -1.932812501995e+01 0.0 
1.996211678340e+01 -1.506329754720e+00 0.0 
4.250588298353e+01 -1.067383247529e+01 0.0 
5.831497011152e+00 -1.635396227234e+00 0.0 
5.317606125670e+00 -1.923927974868e+01 0.0 
4.208546426993e+01 -1.842830665025e+01 0.0 
2.327553405011e+00 -9.459409929662e+00 0.0 
3.568351902251e+01 -1.096637218582e+01 0.0 
1.682104374890e+00 -6.231413350963e+00 0.0 
2.451812238018e+01 -1.766524914339e+01 0.0 
1.058003429638e+01 -2.391839617098e+00 0.0 
4.399988753123e+01 -1.851998776342e+01 0.0 
1.400000000010e+01 -1.852293523028e+01 0.0 
3.604719565984e+01 -1.850662876800e+01 0.0 
1.951297136734e+01 -1.938092349694e+01 0.0 
1.821365318472e+01 -1.531276353287e+00 0.0 
2.298031859732e+01 -1.854635324722e+01 0.0 
1.552168066204e+01 -1.764280741977e+01 0.0 
4.572957713638e+01 -1.073347898229e+01 0.0 
3.429637429624e+01 -1.838861552790e+01 0.0 
2.427434426052e+00 -7.705577451869e+00 0.0 
4.662792031485e+00 -3.359424455416e+00 0.0 
4.926794919243e+01 -1.926794919243e+01 0.0 
7.320508075690e-01 -7.320508075688e-01 0.0 
4.926794919243e+01 -1.073205080757e+01 0.0 
7.320508075705e-01 -1.926794919243e+01 0.0 
2.917460242467e+00 -3.202866455310e+00 0.0 
4.838200575963e+01 -1.232674147454e+01 0.0 
2.998445708009e+01 -1.854403752148e+01 0.0 
5.949940090766e-01 -1.152762038165e+01 0.0 
4.844763495759e+01 -1.678092548787e+01 0.0 
1.301685480160e+01 -3.170056592566e+00 0.0 
1.650046335855e+01 -6.731535384067e-01 0.0 
4.854881540991e+01 -1.405224059779e+01 0.0 
2.119545114693e+01 -1.846813384545e+01 0.0 
3.797852849897e+01 -1.857978513215e+01 0.0 
4.649823708745e+01 -1.338351810816e+01 0.0 
2.012685900976e+01 -2.889659035009e+00 0.0 
2.953271913273e+01 -1.791558075192e+01 0.0 
2.408509097292e+00 -1.021949208421e+01 0.0 
2.642589566221e+01 -1.773216561448e+01 0.0 
1.730010270775e+01 -1.763165076721e+01 0.0 
2.017406551304e+01 -8.513536440582e-01 0.0 
5.254761581934e-01 -1.249999999999e+01 0.0 
6.640448215642e+00 -1.545337834885e+00 0.0 
7.843361506349e+00 -1.852719839527e+01 0.0 
1.588442191088e+00 -1.066158564320e+01 0.0 
3.031250000000e+01 -6.420918367347e+00 0.0 
4.951250000000e+01 -6.500000000000e+00 0.0 
3.180701530612e+01 -7.414795918363e+00 0.0 
4.951250000000e+01 -7.500000000000e+00 0.0 
3.331250000000e+01 -8.420918367347e+00 0.0 
4.951470588234e+01 -8.500000000000e+00 0.0 
3.480610198624e+01 -9.413633635267e+00 0.0 
4.951470588234e+01 -9.500000000000e+00 0.0 

CELLS 2085 8340 
3 255 725 1001 
3 725 255 1003 
3 735 228 746 
3 848 613 1037 
3 615 675 841 
3 705 618 744 
3 235 657 659 
3 255 682 1003 
3 657 235 675 
3 608 843 1037 
3 227 802 803 
3 682 255 1017 
3 847 999 1043 
3 664 795 885 
3 999 261 1043 
3 254 848 1037 
3 663 234 804 
3 618 705 743 
3 242 662 984 
3 662 242 922 
3 843 608 996 
3 973 219 979 
3 700 973 979 
3 650 649 859 
3 349 505 794 
3 802 227 911 
3 109 82 1064 
3 694 220 936 
3 347 349 794 
3 859 649 1069 
3 599 809 811 
3 252 665 842 
3 735 746 1044 
3 19 240 715 
3 250 669 671 
3 678 66 1035 
3 66 678 1061 
3 697 246 741 
3 661 100 1014 
3 100 661 1075 
3 937 679 963 
3 215 701 840 
3 1018 216 1022 
3 82 264 1064 
3 656 263 1013 
3 695 1018 1022 
3 809 599 812 
3 263 656 1039 
3 805 806 812 
3 795 664 1036 
3 257 700 937 
3 647 662 922 
3 425 1038 1056 
3 257 937 963 
3 747 229 927 
3 1020 592 1065 
3 647 922 991 
3 240 685 715 
3 508 836 954 
3 843 254 1037 
3 214 1048 1089 
3 1028 654 1030 
3 474 502 708 
3 1038 811 1056 
3 819 638 1043 
3 700 257 973 
3 1048 658 1089 
3 228 735 1008 
3 535 496 817 
3 224 683 749 
3 911 854 965 
3 33 32 703 
3 694 936 1066 
3 4 5 829 
3 826 1020 1065 
3 666 231 917 
3 747 927 1076 
3 714 1019 1026 
3 836 508 1078 
3 1019 256 1026 
3 496 509 817 
3 234 663 1024 
3 219 725 979 
3 725 219 1001 
3 675 615 887 
3 657 675 887 
3 686 911 1016 
3 18 19 715 
3 740 737 985 
3 615 841 1024 
3 842 665 1015 
3 266 793 1064 
3 839 1010 1034 
3 1034 1010 1046 
3 232 33 703 
3 741 246 1071 
3 663 804 1036 
3 840 701 1049 
3 260 692 989 
3 708 502 709 
3 841 675 1059 
3 261 819 1043 
3 422 988 1012 
3 653 1028 1030 
3 543 541 719 
3 806 809 812 
3 846 847 969 
3 612 839 1034 
3 214 805 812 
3 942 237 1061 
3 387 740 985 
3 4 829 1080 
3 610 706 742 
3 577 893 931 
3 621 823 1047 
3 681 708 709 
3 476 474 708 
3 250 671 1029 
3 692 260 1084 
3 680 476 708 
3 711 641 986 
3 264 266 1064 
3 839 612 1087 
3 476 680 719 
3 1031 930 1045 
3 696 946 955 
3 823 621 1077 
3 946 221 955 
3 231 666 1057 
3 643 1031 1045 
3 802 911 965 
3 613 848 1039 
3 550 607 707 
3 221 679 955 
3 669 250 1049 
3 847 604 999 
3 686 854 911 
3 707 607 907 
3 651 779 1069 
3 583 699 707 
3 633 844 845 
3 683 224 1055 
3 885 795 1032 
3 492 464 713 
3 699 550 707 
3 679 221 963 
3 607 745 907 
3 719 545 914 
3 235 659 1014 
3 706 341 742 
3 665 252 1053 
3 1000 1006 1084 
3 830 242 984 
3 258 696 931 
3 779 651 788 
3 680 543 719 
3 715 686 1016 
3 682 216 1018 
3 988 648 1012 
3 241 687 688 
3 702 341 706 
3 685 240 969 
3 535 711 986 
3 847 606 969 
3 722 595 750 
3 237 942 1051 
3 1000 605 1006 
3 541 545 719 
3 893 258 931 
3 227 803 1100 
3 216 682 1017 
3 341 702 716 
3 464 515 713 
3 687 241 1075 
3 545 706 914 
3 696 258 946 
3 589 778 983 
3 823 524 1047 
3 220 694 1009 
3 749 683 1033 
3 681 709 1003 
3 524 823 1063 
3 766 896 950 
3 699 583 937 
3 682 681 1003 
3 722 577 931 
3 706 610 914 
3 230 843 996 
3 353 762 972 
3 240 846 969 
3 695 256 1019 
3 551 716 940 
3 737 762 985 
3 81 110 704 
3 583 679 937 
3 939 611 943 
3 835 967 1060 
3 850 243 1076 
3 348 273 755 
3 970 329 997 
3 459 939 943 
3 793 266 1042 
3 794 505 1032 
3 649 651 1069 
3 980 871 1007 
3 717 288 745 
3 547 437 750 
3 354 348 755 
3 544 722 750 
3 595 722 931 
3 493 953 993 
3 778 627 983 
3 704 238 705 
3 709 725 1003 
3 709 502 724 
3 607 717 745 
3 762 732 972 
3 618 617 923 
3 611 710 929 
3 661 687 1075 
3 716 702 940 
3 407 929 978 
3 667 877 1101 
3 753 354 755 
3 877 223 1101 
3 835 836 967 
3 256 695 1022 
3 980 623 981 
3 727 354 753 
3 623 622 981 
3 603 712 718 
3 429 810 882 
3 641 818 986 
3 896 459 950 
3 595 547 750 
3 638 819 1051 
3 110 238 704 
3 512 542 718 
3 302 341 716 
3 700 699 937 
3 710 611 939 
3 678 942 1061 
3 964 353 972 
3 411 393 748 
3 459 943 950 
3 911 227 1016 
3 745 355 907 
3 754 755 951 
3 654 1028 1073 
3 302 716 723 
3 542 603 718 
3 272 544 720 
3 703 32 1057 
3 288 717 892 
3 761 304 900 
3 688 687 689 
3 817 509 1021 
3 544 721 722 
3 511 411 748 
3 617 751 852 
3 599 811 1038 
3 354 727 889 
3 437 720 750 
3 476 719 914 
3 727 566 889 
3 762 353 985 
3 355 726 868 
3 222 676 1035 
3 552 761 900 
3 280 546 726 
3 610 742 873 
3 552 760 761 
3 394 410 751 
3 792 233 793 
3 306 303 723 
3 423 774 775 
3 754 964 972 
3 110 111 238 
3 544 270 721 
3 393 391 748 
3 467 512 718 
3 396 394 751 
3 275 272 720 
3 665 711 1015 
3 503 593 724 
3 552 759 760 
3 720 544 750 
3 792 793 794 
3 513 618 743 
3 423 775 777 
3 424 427 774 
3 709 724 725 
3 754 951 964 
3 502 503 724 
3 389 306 723 
3 716 551 723 
3 513 617 618 
3 742 298 873 
3 642 712 714 
3 37 229 747 
3 39 243 746 
3 289 288 892 
3 410 393 411 
3 466 467 525 
3 281 280 726 
3 410 411 466 
3 423 424 774 
3 355 868 907 
3 844 633 1062 
3 748 551 940 
3 953 609 993 
3 642 525 712 
3 247 57 767 
3 466 411 467 
3 286 355 745 
3 513 417 617 
3 789 482 897 
3 303 302 723 
3 427 771 774 
3 546 437 547 
3 42 768 769 
3 391 389 551 
3 552 380 759 
3 526 525 642 
3 757 442 880 
3 929 710 978 
3 542 543 601 
3 616 757 880 
3 245 45 749 
3 519 611 929 
3 41 228 768 
3 885 505 915 
3 740 387 1005 
3 603 601 695 
3 548 547 580 
3 280 437 546 
3 280 278 437 
3 356 892 918 
3 220 47 752 
3 347 794 1042 
3 721 577 722 
3 551 389 723 
3 622 818 981 
3 580 595 696 
3 542 541 543 
3 241 688 941 
3 427 770 771 
3 391 551 748 
3 731 753 754 
3 512 541 542 
3 546 547 548 
3 380 382 759 
3 555 782 869 
3 50 244 758 
3 583 581 679 
3 395 397 777 
3 636 970 997 
3 602 681 682 
3 601 543 602 
3 737 734 762 
3 286 284 355 
3 593 699 700 
3 548 580 581 
3 54 246 763 
3 246 697 1023 
3 734 732 762 
3 754 753 755 
3 782 322 869 
3 474 475 502 
3 394 393 410 
3 392 391 393 
3 288 286 745 
3 569 789 897 
3 337 783 784 
3 730 728 731 
3 397 423 777 
3 471 356 472 
3 726 546 868 
3 473 472 474 
3 228 40 746 
3 243 38 747 
3 243 850 1044 
3 555 781 782 
3 566 468 889 
3 542 601 603 
3 390 389 391 
3 617 417 751 
3 503 550 593 
3 791 792 795 
3 757 885 915 
3 767 765 859 
3 738 737 740 
3 272 270 544 
3 279 278 280 
3 417 396 751 
3 814 816 817 
3 341 300 742 
3 294 292 356 
3 300 298 742 
3 211 930 1031 
3 688 689 690 
3 818 622 986 
3 467 511 512 
3 57 56 767 
3 401 403 493 
3 265 577 721 
3 242 830 1052 
3 892 717 918 
3 302 300 341 
3 278 275 720 
3 224 43 769 
3 580 547 595 
3 284 281 726 
3 337 784 790 
3 728 727 753 
3 555 780 781 
3 44 224 749 
3 41 40 228 
3 37 36 229 
3 39 38 243 
3 277 275 278 
3 731 728 753 
3 736 734 737 
3 474 472 475 
3 502 475 503 
3 786 783 870 
3 730 731 732 
3 46 245 752 
3 645 566 727 
3 759 493 760 
3 645 727 728 
3 486 484 787 
3 294 356 471 
3 593 550 699 
3 466 525 526 
3 232 703 1027 
3 473 474 476 
3 867 586 936 
3 783 337 870 
3 428 431 770 
3 247 767 859 
3 512 540 541 
3 42 41 768 
3 243 747 1076 
3 285 284 286 
3 814 815 816 
3 44 43 224 
3 212 763 764 
3 427 428 770 
3 382 401 759 
3 218 51 758 
3 118 213 815 
3 471 472 473 
3 283 281 284 
3 287 286 288 
3 355 284 726 
3 525 467 718 
3 46 45 245 
3 388 306 389 
3 514 513 743 
3 676 222 1102 
3 815 213 816 
3 582 581 583 
3 809 810 811 
3 696 595 931 
3 212 55 763 
3 48 47 220 
3 437 278 720 
3 806 808 809 
3 655 514 743 
3 809 808 810 
3 899 597 912 
3 791 233 792 
3 267 265 721 
3 50 49 244 
3 249 791 795 
3 229 36 756 
3 489 486 787 
3 616 664 757 
3 602 680 681 
3 401 493 759 
3 617 852 923 
3 52 51 218 
3 40 39 746 
3 38 37 747 
3 555 363 780 
3 358 360 786 
3 294 471 873 
3 363 365 780 
3 54 53 246 
3 467 411 511 
3 774 773 775 
3 771 772 773 
3 506 616 880 
3 58 247 779 
3 806 807 808 
3 56 55 212 
3 770 635 771 
3 43 42 769 
3 736 737 738 
3 117 118 815 
3 471 610 873 
3 565 468 566 
3 45 44 749 
3 277 278 279 
3 532 489 533 
3 526 642 643 
3 765 764 766 
3 527 634 635 
3 771 635 772 
3 805 248 806 
3 47 46 752 
3 751 410 852 
3 519 567 611 
3 616 663 664 
3 853 585 872 
3 771 773 774 
3 279 280 281 
3 51 50 758 
3 360 462 786 
3 371 407 477 
3 291 289 292 
3 630 523 631 
3 775 773 776 
3 780 477 781 
3 292 289 892 
3 628 485 902 
3 401 402 403 
3 293 292 294 
3 330 332 790 
3 512 511 540 
3 358 786 870 
3 533 489 787 
3 357 380 552 
3 56 212 767 
3 644 566 645 
3 528 853 872 
3 55 54 763 
3 212 764 765 
3 299 298 300 
3 806 248 807 
3 59 779 788 
3 729 728 730 
3 431 527 770 
3 58 57 247 
3 365 371 780 
3 503 549 550 
3 270 267 721 
3 357 552 900 
3 361 555 869 
3 523 482 789 
3 755 273 951 
3 582 707 907 
3 403 421 422 
3 690 689 691 
3 332 337 790 
3 382 384 401 
3 527 584 634 
3 554 376 855 
3 116 117 813 
3 541 540 545 
3 527 635 770 
3 783 625 784 
3 297 295 298 
3 371 477 780 
3 506 614 616 
3 431 494 527 
3 59 58 779 
3 283 284 285 
3 553 624 625 
3 285 286 287 
3 553 625 783 
3 813 117 815 
3 269 267 270 
3 822 821 823 
3 223 123 837 
3 462 517 553 
3 371 406 407 
3 851 521 876 
3 631 789 933 
3 631 523 789 
3 265 225 577 
3 249 107 791 
3 646 756 949 
3 287 288 289 
3 123 124 837 
3 641 561 818 
3 807 813 814 
3 623 980 1007 
3 539 589 983 
3 619 851 876 
3 416 899 912 
3 340 338 849 
3 378 376 554 
3 519 530 567 
3 436 417 513 
3 253 821 822 
3 226 825 826 
3 215 60 788 
3 60 59 788 
3 821 820 824 
3 553 517 624 
3 361 363 555 
3 567 649 650 
3 561 480 818 
3 414 499 519 
3 835 833 836 
3 462 553 786 
3 784 625 785 
3 239 832 833 
3 253 820 821 
3 565 566 644 
3 124 125 834 
3 108 233 791 
3 108 109 233 
3 482 386 897 
3 226 10 825 
3 527 494 584 
3 712 525 718 
3 672 670 673 
3 752 245 867 
3 556 450 883 
3 602 543 680 
3 665 641 711 
3 548 581 582 
3 104 234 841 
3 103 104 841 
3 124 834 837 
3 834 833 835 
3 828 830 831 
3 404 345 479 
3 239 827 832 
3 820 217 824 
3 214 114 805 
3 345 340 849 
3 693 691 713 
3 106 107 249 
3 589 684 778 
3 365 370 371 
3 690 691 692 
3 10 11 825 
3 828 831 832 
3 30 29 844 
3 231 30 844 
3 616 614 663 
3 234 105 804 
3 825 822 826 
3 28 230 845 
3 479 345 849 
3 107 108 791 
3 106 249 804 
3 580 696 955 
3 36 35 756 
3 844 29 845 
3 239 833 834 
3 125 239 834 
3 640 561 641 
3 784 785 921 
3 846 604 847 
3 113 114 214 
3 251 838 839 
3 115 248 805 
3 522 482 523 
3 115 116 248 
3 114 115 805 
3 629 523 630 
3 575 638 639 
3 692 691 693 
3 868 582 907 
3 827 828 832 
3 377 378 857 
3 25 24 848 
3 254 25 848 
3 105 106 804 
3 458 386 482 
3 29 28 845 
3 532 533 648 
3 828 829 830 
3 827 262 828 
3 828 262 829 
3 11 12 253 
3 261 69 819 
3 80 79 263 
3 127 262 827 
3 13 217 820 
3 70 69 261 
3 68 237 819 
3 61 215 840 
3 76 236 838 
3 78 77 251 
3 69 68 819 
3 68 67 237 
3 251 77 838 
3 127 128 262 
3 101 102 235 
3 104 105 234 
3 239 126 827 
3 65 64 222 
3 250 62 840 
3 63 62 250 
3 126 127 827 
3 125 126 239 
3 61 60 215 
3 62 61 840 
3 76 75 236 
3 98 99 241 
3 77 76 838 
3 74 73 260 
3 96 97 605 
3 122 123 223 
3 120 121 252 
3 119 120 842 
3 118 119 213 
3 13 14 217 
3 12 13 820 
3 120 252 842 
3 16 17 227 
3 213 119 842 
3 34 33 232 
3 28 27 230 
3 31 30 231 
3 6 7 242 
3 9 10 226 
3 27 26 843 
3 19 20 240 
3 26 25 254 
3 20 21 846 
3 21 22 604 
3 253 12 820 
3 230 27 843 
3 26 254 843 
3 240 20 846 
3 21 604 846 
3 469 470 854 
3 248 116 813 
3 360 461 462 
3 834 835 837 
3 672 673 674 
3 553 783 786 
3 435 419 856 
3 404 479 480 
3 967 668 1060 
3 575 639 856 
3 462 463 517 
3 253 822 825 
3 419 481 856 
3 612 613 656 
3 11 253 825 
3 407 406 414 
3 369 367 420 
3 469 418 470 
3 537 469 854 
3 388 389 390 
3 582 583 707 
3 298 295 873 
3 377 376 378 
3 481 574 575 
3 685 537 686 
3 528 622 623 
3 600 521 608 
3 516 465 521 
3 661 660 687 
3 375 373 376 
3 418 377 857 
3 612 600 613 
3 516 600 612 
3 420 367 879 
3 575 606 638 
3 478 450 556 
3 685 686 715 
3 676 674 677 
3 608 521 851 
3 455 453 456 
3 371 370 406 
3 415 497 498 
3 434 520 528 
3 640 641 665 
3 807 248 813 
3 516 521 600 
3 575 574 606 
3 814 813 815 
3 733 732 734 
3 659 559 660 
3 405 419 435 
3 481 537 574 
3 584 585 636 
3 574 537 685 
3 659 660 661 
3 401 384 402 
3 676 677 678 
3 647 529 662 
3 671 670 672 
3 464 456 465 
3 498 529 592 
3 528 623 853 
3 800 798 801 
3 452 454 558 
3 339 343 358 
3 515 465 516 
3 455 464 492 
3 624 517 796 
3 686 537 854 
3 481 469 537 
3 464 465 515 
3 457 409 495 
3 517 463 518 
3 490 576 652 
3 456 863 876 
3 462 461 463 
3 369 420 855 
3 669 597 670 
3 455 456 464 
3 598 514 655 
3 572 667 668 
3 398 396 417 
3 481 575 856 
3 454 453 455 
3 802 800 803 
3 558 559 657 
3 519 499 530 
3 796 518 797 
3 419 469 481 
3 498 497 529 
3 672 674 676 
3 517 518 796 
3 592 529 647 
3 518 463 865 
3 358 359 360 
3 344 340 345 
3 799 800 802 
3 122 223 877 
3 252 121 877 
3 470 418 857 
3 415 457 497 
3 375 376 377 
3 376 373 855 
3 332 336 337 
3 431 432 494 
3 478 556 557 
3 744 618 1094 
3 360 460 461 
3 567 530 649 
3 497 457 508 
3 558 454 559 
3 657 559 659 
3 560 480 561 
3 596 563 597 
3 449 447 450 
3 415 409 457 
3 632 556 901 
3 557 556 632 
3 352 409 415 
3 681 680 708 
3 346 345 404 
3 419 418 469 
3 797 798 799 
3 645 728 729 
3 478 557 619 
3 405 377 418 
3 375 377 405 
3 404 480 560 
3 405 418 419 
3 449 450 451 
3 799 798 800 
3 452 453 454 
3 451 450 478 
3 304 305 900 
3 863 619 876 
3 463 524 865 
3 797 518 798 
3 460 359 620 
3 334 331 335 
3 452 451 453 
3 326 328 361 
3 344 346 352 
3 572 561 640 
3 449 451 452 
3 344 345 346 
3 669 670 671 
3 456 453 863 
3 405 435 858 
3 212 765 767 
3 463 461 524 
3 352 346 409 
3 560 561 572 
3 374 373 375 
3 455 492 862 
3 572 640 667 
3 358 343 359 
3 662 529 860 
3 452 558 861 
3 360 359 460 
3 373 369 855 
3 460 620 621 
3 521 465 876 
3 343 340 344 
3 368 372 416 
3 528 520 622 
3 372 369 373 
3 801 798 865 
3 374 375 858 
3 775 776 957 
3 529 497 860 
3 660 559 862 
3 522 523 629 
3 472 356 918 
3 454 455 862 
3 434 528 872 
3 446 448 506 
3 497 508 860 
3 673 670 899 
3 458 482 522 
3 403 402 421 
3 557 632 633 
3 361 362 363 
3 495 409 866 
3 366 364 367 
3 596 597 669 
3 584 494 585 
3 375 405 858 
3 453 451 863 
3 428 430 431 
3 368 367 369 
3 614 507 615 
3 498 592 898 
3 339 340 343 
3 291 292 293 
3 372 373 374 
3 503 475 549 
3 293 294 295 
3 448 447 449 
3 559 454 862 
3 506 507 614 
3 798 518 865 
3 536 438 563 
3 363 364 365 
3 558 657 887 
3 735 734 736 
3 422 421 490 
3 368 369 372 
3 451 478 863 
3 332 334 336 
3 336 338 339 
3 404 560 866 
3 365 366 370 
3 339 358 870 
3 448 449 861 
3 506 448 507 
3 308 310 357 
3 849 338 871 
3 390 391 392 
3 339 338 340 
3 336 334 338 
3 346 404 866 
3 414 438 499 
3 327 325 329 
3 478 619 863 
3 323 325 326 
3 365 364 366 
3 361 328 362 
3 297 298 299 
3 409 346 866 
3 536 563 596 
3 536 596 701 
3 483 485 628 
3 332 331 334 
3 363 362 364 
3 449 452 861 
3 337 336 870 
3 471 473 610 
3 343 344 864 
3 494 432 872 
3 330 331 332 
3 344 352 864 
3 415 498 890 
3 362 328 562 
3 366 367 368 
3 501 538 539 
3 121 122 877 
3 319 317 320 
3 323 321 324 
3 330 329 331 
3 507 448 861 
3 326 327 328 
3 359 343 864 
3 327 329 330 
3 465 456 876 
3 620 359 864 
3 572 668 886 
3 866 560 886 
3 585 494 872 
3 334 335 871 
3 319 321 322 
3 326 325 327 
3 434 496 520 
3 495 866 886 
3 757 664 885 
3 864 352 890 
3 414 406 438 
3 487 500 501 
3 271 270 272 
3 510 444 531 
3 539 588 589 
3 305 308 900 
3 485 487 902 
3 432 433 434 
3 330 790 874 
3 301 300 302 
3 424 426 427 
3 496 433 509 
3 336 339 870 
3 323 324 325 
3 322 321 323 
3 620 864 890 
3 326 361 869 
3 319 320 321 
3 315 317 318 
3 338 334 871 
3 385 383 386 
3 446 447 448 
3 315 313 316 
3 499 438 536 
3 431 430 432 
3 649 530 651 
3 322 323 869 
3 589 683 684 
3 282 281 283 
3 432 434 872 
3 274 272 275 
3 564 468 565 
3 322 782 905 
3 545 702 706 
3 276 275 277 
3 356 292 892 
3 434 433 496 
3 666 637 703 
3 520 496 535 
3 697 591 698 
3 851 619 894 
3 408 386 458 
3 861 558 887 
3 445 444 510 
3 318 317 319 
3 357 379 380 
3 594 531 637 
3 368 416 875 
3 443 445 446 
3 522 629 710 
3 432 430 433 
3 443 441 444 
3 752 867 936 
3 536 701 888 
3 327 330 874 
3 507 861 887 
3 615 507 887 
3 323 326 869 
3 370 366 875 
3 406 370 878 
3 560 572 886 
3 392 393 394 
3 311 313 314 
3 315 316 317 
3 295 294 873 
3 594 637 666 
3 730 732 733 
3 619 557 894 
3 550 549 607 
3 440 412 468 
3 366 368 875 
3 632 901 917 
3 413 441 442 
3 328 327 874 
3 311 309 312 
3 443 444 445 
3 510 531 594 
3 450 447 883 
3 446 445 447 
3 597 563 912 
3 590 504 591 
3 563 438 878 
3 367 364 879 
3 679 581 955 
3 385 408 439 
3 350 348 354 
3 352 415 890 
3 314 313 315 
3 631 933 945 
3 380 381 382 
3 397 399 423 
3 311 312 313 
3 382 383 384 
3 548 582 868 
3 562 328 874 
3 442 757 915 
3 675 235 1059 
3 84 202 211 
3 364 362 879 
3 408 458 459 
3 729 730 850 
3 357 310 379 
3 362 562 879 
3 446 506 880 
3 85 203 256 
3 385 386 408 
3 381 379 569 
3 546 548 868 
3 370 875 878 
3 427 426 428 
3 438 406 878 
3 530 499 888 
3 384 383 385 
3 447 445 883 
3 491 489 532 
3 499 536 888 
3 86 204 216 
3 442 443 880 
3 652 576 653 
3 445 510 883 
3 382 381 383 
3 310 309 311 
3 952 624 956 
3 436 513 514 
3 556 883 901 
3 890 498 898 
3 87 205 255 
3 488 486 489 
3 557 633 894 
3 428 429 430 
3 290 289 291 
3 442 441 443 
3 921 785 926 
3 423 399 424 
3 545 540 702 
3 509 433 882 
3 428 426 429 
3 430 429 882 
3 380 379 381 
3 756 35 949 
3 88 206 219 
3 670 597 899 
3 307 306 388 
3 351 413 915 
3 398 417 436 
3 651 530 888 
3 433 430 882 
3 621 620 898 
3 402 384 881 
3 319 322 905 
3 490 504 576 
3 473 476 914 
3 350 354 889 
3 590 591 697 
3 443 446 880 
3 730 733 850 
3 441 440 904 
3 440 468 564 
3 410 466 852 
3 673 899 919 
3 413 440 441 
3 304 761 925 
3 89 207 257 
3 590 697 741 
3 395 394 396 
3 620 890 898 
3 490 421 504 
3 242 7 922 
3 296 295 297 
3 385 439 881 
3 564 565 884 
3 565 644 646 
3 384 385 881 
3 531 444 904 
3 305 303 306 
3 487 501 902 
3 90 208 221 
3 736 738 739 
3 91 209 258 
3 210 91 893 
3 308 357 900 
3 82 210 225 
3 578 333 579 
3 299 300 301 
3 311 314 891 
3 424 399 425 
3 308 309 310 
3 510 594 901 
3 733 734 735 
3 416 372 919 
3 576 504 590 
3 318 319 905 
3 440 564 904 
3 310 311 891 
3 674 673 928 
3 444 441 904 
3 468 412 889 
3 386 383 897 
3 305 307 308 
3 501 500 538 
3 279 281 282 
3 424 425 426 
3 395 396 397 
3 610 473 914 
3 287 289 290 
3 677 674 932 
3 413 412 440 
3 308 307 309 
3 483 628 908 
3 439 408 896 
3 883 510 901 
3 539 538 588 
3 505 351 915 
3 611 567 943 
3 379 310 891 
3 408 459 896 
3 293 295 296 
3 637 531 920 
3 589 588 683 
3 381 569 897 
3 397 396 398 
3 491 532 534 
3 296 333 571 
3 305 306 307 
3 383 381 897 
3 414 519 929 
3 397 398 399 
3 569 379 891 
3 274 275 276 
3 677 932 938 
3 276 277 387 
3 488 489 491 
3 271 272 274 
3 268 267 269 
3 282 283 342 
3 591 504 906 
3 899 416 919 
3 351 412 413 
3 565 646 884 
3 269 270 271 
3 388 390 568 
3 491 534 587 
3 901 594 917 
3 297 299 895 
3 296 297 333 
3 307 388 903 
3 412 350 889 
3 549 475 918 
3 578 579 609 
3 475 472 918 
3 421 402 906 
3 587 654 694 
3 312 309 903 
3 436 514 570 
3 644 645 927 
3 607 549 717 
3 945 318 958 
3 587 534 654 
3 351 350 412 
3 875 416 912 
3 301 302 303 
3 570 514 598 
3 938 639 942 
3 290 291 400 
3 403 422 953 
3 538 500 586 
3 598 655 658 
3 878 875 912 
3 511 748 940 
3 349 351 505 
3 420 926 947 
3 309 307 903 
3 674 928 932 
3 571 333 578 
3 388 568 903 
3 290 400 483 
3 570 598 599 
3 485 486 487 
3 402 881 906 
3 684 683 1055 
3 487 488 500 
3 395 777 924 
3 372 374 919 
3 594 666 917 
3 741 218 959 
3 504 421 906 
3 304 303 305 
3 483 484 485 
3 856 639 938 
3 800 801 935 
3 487 486 488 
3 413 442 915 
3 673 919 928 
3 563 878 912 
3 98 241 941 
3 605 97 941 
3 274 276 353 
3 485 484 486 
3 554 855 947 
3 282 342 573 
3 579 333 895 
3 766 950 1074 
3 301 303 304 
3 34 232 949 
3 266 265 267 
3 333 297 895 
3 420 879 926 
3 392 394 395 
3 562 874 921 
3 483 400 484 
3 285 287 908 
3 349 350 351 
3 573 342 626 
3 573 626 627 
3 831 830 984 
3 874 790 921 
3 717 549 918 
3 277 279 909 
3 387 277 909 
3 698 591 934 
3 7 8 922 
3 425 399 913 
3 291 293 910 
3 790 784 921 
3 91 258 893 
3 225 210 893 
3 349 348 350 
3 466 526 852 
3 926 785 947 
3 459 458 939 
3 399 398 913 
3 220 752 936 
3 904 564 920 
3 625 624 952 
3 919 374 928 
3 836 833 954 
3 522 710 939 
3 400 291 910 
3 832 831 954 
3 531 904 920 
3 398 436 913 
3 279 282 909 
3 287 290 908 
3 315 318 945 
3 781 477 974 
3 564 884 920 
3 477 407 978 
3 296 571 910 
3 293 296 910 
3 202 83 930 
3 436 570 913 
3 488 491 916 
3 268 269 273 
3 491 587 916 
3 540 511 940 
3 732 731 972 
3 586 500 916 
3 577 225 893 
3 500 488 916 
3 374 858 928 
3 787 484 944 
3 562 921 926 
3 879 562 926 
3 645 729 927 
3 782 781 971 
3 290 483 908 
3 761 760 977 
3 407 414 929 
3 895 299 925 
3 924 777 957 
3 789 569 933 
3 568 390 924 
3 282 573 909 
3 568 924 957 
3 342 283 948 
3 591 906 934 
3 906 881 934 
3 299 301 925 
3 347 348 349 
3 928 858 932 
3 858 435 932 
3 526 643 923 
3 342 948 966 
3 677 938 942 
3 593 700 979 
3 554 952 956 
3 211 202 930 
3 932 435 938 
3 392 395 924 
3 803 800 935 
3 953 422 1012 
3 347 273 348 
3 268 273 347 
3 400 910 944 
3 90 221 946 
3 258 209 946 
3 435 856 938 
3 974 477 978 
3 631 945 958 
3 458 522 939 
3 891 314 933 
3 390 392 924 
3 209 90 946 
3 266 267 268 
3 97 98 941 
3 881 439 934 
3 301 304 925 
3 590 741 959 
3 574 685 969 
3 569 891 933 
3 678 677 942 
3 957 776 961 
3 653 576 959 
3 910 571 944 
3 533 787 968 
3 567 650 943 
3 331 329 970 
3 908 628 948 
3 933 314 945 
3 285 908 948 
3 702 540 940 
3 648 533 976 
3 314 315 945 
3 855 420 947 
3 283 285 948 
3 1045 259 1058 
3 760 493 993 
3 714 211 1031 
3 495 886 967 
3 554 947 952 
3 501 539 975 
3 273 269 951 
3 89 257 963 
3 35 34 949 
3 83 201 259 
3 221 208 963 
3 630 631 958 
3 624 796 956 
3 581 580 955 
3 987 772 990 
3 971 781 974 
3 484 400 944 
3 493 403 953 
3 738 1040 1050 
3 852 526 923 
3 785 625 952 
3 956 796 960 
3 849 871 980 
3 264 225 265 
3 269 271 951 
3 18 715 1016 
3 833 832 954 
3 658 655 1002 
3 818 480 981 
3 796 797 960 
3 312 961 982 
3 773 772 987 
3 777 775 957 
3 378 554 956 
3 274 353 964 
3 960 797 962 
3 312 903 961 
3 948 628 966 
3 664 663 1036 
3 422 490 988 
3 797 799 962 
3 378 956 960 
3 88 219 973 
3 316 313 982 
3 962 799 965 
3 236 75 989 
3 74 260 989 
3 257 207 973 
3 857 378 960 
3 635 634 992 
3 714 712 1019 
3 576 590 959 
3 622 520 986 
3 992 634 994 
3 977 760 993 
3 208 89 963 
3 799 802 965 
3 9 226 991 
3 264 265 266 
3 857 960 962 
3 318 905 958 
3 947 785 952 
3 705 744 1058 
3 1013 251 1087 
3 320 317 990 
3 896 766 1011 
3 533 968 976 
3 470 857 962 
3 470 962 965 
3 961 776 982 
3 535 817 1067 
3 744 1045 1058 
3 854 470 965 
3 943 650 950 
3 584 636 995 
3 628 902 966 
3 725 724 979 
3 626 342 966 
3 701 215 1054 
3 111 112 1002 
3 24 23 998 
3 71 70 999 
3 73 72 1000 
3 324 321 994 
3 787 944 968 
3 903 568 961 
3 886 668 967 
3 83 259 930 
3 851 894 996 
3 271 274 964 
3 82 225 264 
3 48 220 1009 
3 922 8 991 
3 244 49 1009 
3 951 271 964 
3 329 325 997 
3 944 571 968 
3 324 994 995 
3 603 695 1019 
3 995 636 997 
3 353 276 985 
3 606 574 969 
3 320 990 992 
3 626 966 975 
3 1002 112 1089 
3 316 982 987 
3 731 754 972 
3 335 331 970 
3 636 585 1004 
3 571 578 968 
3 810 429 1056 
3 87 255 1001 
3 219 206 1001 
3 335 1004 1007 
3 630 958 971 
3 895 925 977 
3 966 902 975 
3 735 736 1008 
3 207 88 973 
3 838 236 1010 
3 683 588 1033 
3 568 957 961 
3 211 714 1026 
3 724 593 979 
3 905 782 971 
3 573 627 1005 
3 958 905 971 
3 618 923 1094 
3 629 630 974 
3 695 601 1018 
3 925 761 977 
3 630 971 974 
3 968 578 976 
3 492 713 1093 
3 871 335 1007 
3 642 714 1031 
3 629 974 978 
3 602 682 1018 
3 1002 655 1072 
3 263 79 1013 
3 78 251 1013 
3 816 213 1015 
3 710 629 978 
3 479 980 981 
3 479 849 980 
3 975 539 983 
3 578 609 976 
3 902 501 975 
3 316 987 990 
3 100 101 1014 
3 250 840 1049 
3 480 479 981 
3 439 896 1011 
3 579 895 977 
3 662 860 984 
3 387 909 1005 
3 313 312 982 
3 814 817 1021 
3 776 773 987 
3 17 18 1016 
3 276 387 985 
3 520 535 986 
3 803 935 1086 
3 627 626 983 
3 490 652 988 
3 970 636 1004 
3 991 226 1065 
3 579 977 993 
3 75 74 989 
3 808 807 1021 
3 867 245 1033 
3 746 243 1044 
3 260 1000 1084 
3 703 637 1027 
3 768 228 1008 
3 317 316 990 
3 320 992 994 
3 764 763 1023 
3 238 111 1002 
3 8 9 991 
3 803 1086 1100 
3 335 970 1004 
3 772 635 992 
3 86 216 1017 
3 255 205 1017 
3 663 614 1024 
3 982 776 987 
3 898 592 1020 
3 532 648 1025 
3 222 64 1029 
3 63 250 1029 
3 321 320 994 
3 249 795 1036 
3 658 1002 1089 
3 85 256 1022 
3 811 810 1056 
3 216 204 1022 
3 609 579 993 
3 634 584 995 
3 990 772 992 
3 812 599 1048 
3 656 1013 1087 
3 994 634 995 
3 608 851 996 
3 516 612 1034 
3 848 24 998 
3 70 261 999 
3 260 73 1000 
3 324 995 997 
3 206 87 1001 
3 325 324 997 
3 66 65 1035 
3 84 211 1026 
3 256 203 1026 
3 698 934 1011 
3 841 234 1024 
3 613 600 1037 
3 626 975 983 
3 652 653 1030 
3 738 740 1040 
3 689 687 1041 
3 1004 853 1007 
3 585 853 1004 
3 1010 236 1090 
3 1025 652 1030 
3 233 109 1064 
3 605 941 1006 
3 688 690 1006 
3 687 660 1041 
3 570 599 1038 
3 853 623 1007 
3 633 845 1068 
3 862 492 1041 
3 218 741 1071 
3 736 739 1008 
3 909 573 1005 
3 920 884 1027 
3 524 461 1047 
3 460 621 1047 
3 701 596 1049 
3 214 812 1048 
3 647 991 1065 
3 49 48 1009 
3 6 242 1052 
3 941 688 1006 
3 765 766 1074 
3 640 665 1053 
3 223 837 1060 
3 31 231 1057 
3 103 841 1059 
3 917 231 1062 
3 764 1023 1098 
3 235 102 1059 
3 238 1002 1072 
3 848 998 1039 
3 495 967 1078 
3 633 632 1062 
3 67 66 1061 
3 733 735 1044 
3 425 913 1038 
3 795 792 1032 
3 823 821 1063 
3 648 988 1025 
3 52 218 1071 
3 839 838 1010 
3 246 53 1071 
3 599 598 1048 
3 676 678 1035 
3 426 425 1056 
3 831 984 1083 
3 247 859 1069 
3 756 646 1070 
3 666 703 1057 
3 659 661 1014 
3 266 268 1042 
3 712 603 1019 
3 768 1008 1085 
3 826 822 1077 
3 643 1045 1094 
3 988 652 1025 
3 99 100 1075 
3 646 644 1070 
3 3 80 1079 
3 23 3 1079 
3 128 0 1080 
3 0 4 1080 
3 72 1 1081 
3 1 96 1081 
3 2 71 1082 
3 22 2 1082 
3 829 262 1080 
3 113 214 1089 
3 942 639 1051 
3 587 694 1066 
3 508 457 1078 
3 672 676 1102 
3 16 227 1100 
3 217 14 1086 
3 713 691 1093 
3 882 810 1088 
3 648 976 1012 
3 967 836 1078 
3 865 524 1096 
3 1008 739 1085 
3 79 78 1013 
3 935 217 1086 
3 690 692 1084 
3 586 867 1097 
3 1040 778 1050 
3 1005 627 1040 
3 101 235 1014 
3 609 953 1012 
3 927 729 1076 
3 592 647 1065 
3 213 842 1015 
3 538 586 1097 
3 934 439 1011 
3 810 808 1088 
3 693 1010 1090 
3 819 237 1051 
3 586 916 1066 
3 936 586 1066 
3 227 17 1016 
3 704 705 1058 
3 205 86 1017 
3 601 602 1018 
3 792 794 1032 
3 976 609 1012 
3 894 633 1068 
3 763 246 1023 
3 807 814 1021 
3 816 1015 1067 
3 204 85 1022 
3 713 515 1046 
3 621 898 1020 
3 884 646 1092 
3 984 860 1083 
3 697 698 1023 
3 614 615 1024 
3 758 244 1028 
3 534 532 1025 
3 794 793 1042 
3 788 651 1054 
3 646 949 1092 
3 998 263 1039 
3 203 84 1026 
3 637 920 1027 
3 245 749 1033 
3 1023 698 1098 
3 534 1025 1030 
3 64 63 1029 
3 740 1005 1040 
3 81 704 1099 
3 643 642 1031 
3 739 738 1050 
3 505 885 1032 
3 606 847 1043 
3 654 534 1030 
3 222 1029 1102 
3 515 516 1034 
3 218 758 1091 
3 888 701 1054 
3 651 888 1054 
3 1020 826 1077 
3 65 222 1035 
3 804 249 1036 
3 600 608 1037 
3 817 816 1067 
3 612 656 1087 
3 693 713 1046 
3 829 5 1052 
3 913 570 1038 
3 627 778 1040 
3 231 844 1062 
3 656 613 1039 
3 959 218 1091 
3 660 862 1041 
3 252 877 1053 
3 743 705 1072 
3 877 667 1053 
3 711 535 1067 
3 201 81 1099 
3 524 1063 1096 
3 638 606 1043 
3 850 733 1044 
3 268 347 1042 
3 461 460 1047 
3 596 669 1049 
3 650 859 1074 
3 1028 244 1073 
3 867 1033 1097 
3 778 684 1050 
3 1015 711 1067 
3 598 658 1048 
3 639 638 1051 
3 830 829 1052 
3 5 6 1052 
3 930 259 1045 
3 667 640 1053 
3 215 788 1054 
3 224 769 1055 
3 996 894 1068 
3 244 1009 1073 
3 950 650 1074 
3 1041 492 1093 
3 32 31 1057 
3 429 426 1056 
3 102 103 1059 
3 808 1021 1088 
3 837 835 1060 
3 237 67 1061 
3 793 233 1064 
3 954 831 1083 
3 821 824 1063 
3 1055 769 1085 
3 632 917 1062 
3 229 756 1070 
3 226 826 1065 
3 655 743 1072 
3 1029 671 1102 
3 998 23 1079 
3 71 999 1082 
3 1000 72 1081 
3 859 765 1074 
3 508 954 1083 
3 1027 884 1092 
3 223 1060 1101 
3 779 247 1069 
3 927 229 1070 
3 705 238 1072 
3 916 587 1066 
3 515 1034 1046 
3 845 230 1068 
3 53 52 1071 
3 236 989 1090 
3 769 768 1085 
3 644 927 1070 
3 1010 693 1046 
3 1055 1085 1095 
3 822 823 1077 
3 241 99 1075 
3 694 654 1073 
3 80 263 1079 
3 262 128 1080 
3 96 605 1081 
3 604 22 1082 
3 457 495 1078 
3 766 764 1098 
3 729 850 1076 
3 230 996 1068 
3 860 508 1083 
3 1045 744 1094 
3 14 15 1086 
3 251 839 1087 
3 112 113 1089 
3 949 232 1092 
3 692 693 1090 
3 509 882 1088 
3 691 689 1093 
3 1009 694 1073 
3 1086 15 1100 
3 259 201 1099 
3 621 1020 1077 
3 801 865 1096 
3 15 16 1100 
3 653 959 1091 
3 824 217 1103 
3 935 801 1103 
3 668 667 1101 
3 671 672 1102 
3 588 538 1097 
3 923 643 1094 
3 263 998 1079 
3 999 604 1082 
3 605 1000 1081 
3 989 692 1090 
3 1096 824 1103 
3 801 1096 1103 
3 217 935 1103 
3 698 1011 1098 
3 1021 509 1088 
3 1033 588 1097 
3 1006 690 1084 
3 232 1027 1092 
3 1011 766 1098 
3 689 1041 1093 
3 739 1050 1095 
3 1028 653 1091 
3 758 1028 1091 
3 1058 259 1099 
3 1050 684 1095 
3 684 1055 1095 
3 1060 668 1101 
3 1063 824 1096 
3 704 1058 1099 
3 1085 739 1095 
3 166 167 129 
3 130 166 129 
3 165 166 130 
3 131 165 130 
3 164 165 131 
3 132 164 131 
3 163 164 132 
3 133 163 132 
3 162 163 133 
3 162 133 134 
3 161 162 134 
3 135 161 134 
3 160 161 135 
3 136 160 135 
3 159 160 136 
3 137 159 136 
3 89 147 1104 
3 158 159 137 
3 158 137 138 
3 147 148 1104 
3 158 138 157 
3 157 138 139 
3 147 89 149 
3 156 157 139 
3 156 139 140 
3 155 156 140 
3 155 140 141 
3 154 155 141 
3 142 154 141 
3 207 89 1104 
3 153 154 142 
3 153 142 143 
3 152 153 143 
3 152 143 144 
3 151 144 145 
3 151 152 144 
3 145 146 150 
3 151 145 150 
3 146 147 149 
3 146 149 150 
3 148 207 1104 
3 93 92 1105 
3 129 167 1105 
3 92 129 1105 
3 167 93 1105 
3 148 88 207 
3 166 167 168 
3 169 166 168 
3 165 166 169 
3 170 165 169 
3 164 165 170 
3 171 164 170 
3 163 164 171 
3 172 163 171 
3 162 163 172 
3 173 162 172 
3 161 162 173 
3 174 161 173 
3 160 161 174 
3 160 174 175 
3 159 160 175 
3 150 90 1106 
3 176 159 175 
3 90 150 184 
3 159 176 158 
3 176 177 158 
3 158 177 157 
3 177 178 157 
3 178 156 157 
3 156 178 179 
3 149 150 1106 
3 156 179 155 
3 179 180 155 
3 180 154 155 
3 180 181 154 
3 181 153 154 
3 182 153 181 
3 153 182 152 
3 152 182 183 
3 151 183 184 
3 151 152 183 
3 90 208 1106 
3 150 151 184 
3 208 149 1106 
3 93 94 1107 
3 168 167 1107 
3 94 168 1107 
3 167 93 1107 
3 89 149 208 
3 199 200 168 
3 169 199 168 
3 198 199 169 
3 170 198 169 
3 197 198 170 
3 171 197 170 
3 196 197 171 
3 172 196 171 
3 195 196 172 
3 173 195 172 
3 194 195 173 
3 174 194 173 
3 193 194 174 
3 91 183 1108 
3 193 174 175 
3 192 193 175 
3 183 184 1108 
3 176 192 175 
3 192 176 191 
3 183 91 185 
3 176 177 191 
3 177 190 191 
3 177 178 190 
3 178 189 190 
3 178 179 189 
3 209 91 1108 
3 179 188 189 
3 179 180 188 
3 180 181 187 
3 180 187 188 
3 181 182 186 
3 181 186 187 
3 182 183 185 
3 182 185 186 
3 184 209 1108 
3 95 94 1109 
3 168 200 1109 
3 94 168 1109 
3 200 95 1109 
3 90 209 184 
3 199 200 96 
3 199 96 97 
3 198 199 97 
3 198 97 98 
3 197 198 98 
3 197 98 99 
3 196 197 99 
3 196 99 100 
3 195 196 100 
3 195 100 101 
3 194 195 101 
3 194 101 102 
3 186 82 1110 
3 193 194 102 
3 109 82 186 
3 193 102 103 
3 192 193 103 
3 104 192 103 
3 191 192 104 
3 105 191 104 
3 190 191 105 
3 190 105 106 
3 185 186 1110 
3 190 106 189 
3 106 107 189 
3 107 188 189 
3 107 108 188 
3 108 109 187 
3 188 108 187 
3 187 109 186 
3 82 210 1110 
3 210 185 1110 
3 95 1 1111 
3 96 200 1111 
3 1 96 1111 
3 200 95 1111 
3 210 91 185 

CELL_TYPES 2085
5
5
5
5
5
5
5
5
5
5
5
5
5
5
5
5
5
5
5
5
5
5
5
5
5
5
5
5
5
5
5
5
5
5
5
5
5
5
5
5
5
5
5
5
5
5
5
5
5
5
5
5
5
5
5
5
5
5
5
5
5
5
5
5
5
5
5
5
5
5
5
5
5
5
5
5
5
5
5
5
5
5
5
5
5
5
5
5
5
5
5
5
5
5
5
5
5
5
5
5
5
5
5
5
5
5
5
5
5
5
5
5
5
5
5
5
5
5
5
5
5
5
5
5
5
5
5
5
5
5
5
5
5
5
5
5
5
5
5
5
5
5
5
5
5
5
5
5
5
5
5
5
5
5
5
5
5
5
5
5
5
5
5
5
5
5
5
5
5
5
5
5
5
5
5
5
5
5
5
5
5
5
5
5
5
5
5
5
5
5
5
5
5
5
5
5
5
5
5
5
5
5
5
5
5
5
5
5
5
5
5
5
5
5
5
5
5
5
5
5
5
5
5
5
5
5
5
5
5
5
5
5
5
5
5
5
5
5
5
5
5
5
5
5
5
5
5
5
5
5
5
5
5
5
5
5
5
5
5
5
5
5
5
5
5
5
5
5
5
5
5
5
5
5
5
5
5
5
5
5
5
5
5
5
5
5
5
5
5
5
5
5
5
5
5
5
5
5
5
5
5
5
5
5
5
5
5
5
5
5
5
5
5
5
5
5
5
5
5
5
5
5
5
5
5
5
5
5
5
5
5
5
5
5
5
5
5
5
5
5
5
5
5
5
5
5
5
5
5
5
5
5
5
5
5
5
5
5
5
5
5
5
5
5
5
5
5
5
5
5
5
5
5
5
5
5
5
5
5
5
5
5
5
5
5
5
5
5
5
5
5
5
5
5
5
5
5
5
5
5
5
5
5
5
5
5
5
5
5
5
5
5
5
5
5
5
5
5
5
5
5
5
5
5
5
5
5
5
5
5
5
5
5
5
5
5
5
5
5
5
5
5
5
5
5
5
5
5
5
5
5
5
5
5
5
5
5
5
5
5
5
5
5
5
5
5
5
5
5
5
5
5
5
5
5
5
5
5
5
5
5
5
5
5
5
5
5
5
5
5
5
5
5
5
5
5
5
5
5
5
5
5
5
5
5
5
5
5
5
5
5
5
5
5
5
5
5
5
5
5
5
5
5
5
5
5
5
5
5
5
5
5
5
5
5
5
5
5
5
5
5
5
5
5
5
5
5
5
5
5
5
5
5
5
5
5
5
5
5
5
5
5
5
5
5
5
5
5
5
5
5
5
5
5
5
5
5
5
5
5
5
5
5
5
5
5
5
5
5
5
5
5
5
5
5
5
5
5
5
5
5
5
5
5
5
5
5
5
5
5
5
5
5
5
5
5
5
5
5
5
5
5
5
5
5
5
5
5
5
5
5
5
5
5
5
5
5
5
5
5
5
5
5
5
5
5
5
5
5
5
5
5
5
5
5
5
5
5
5
5
5
5
5
5
5
5
5
5
5
5
5
5
5
5
5
5
5
5
5
5
5
5
5
5
5
5
5
5
5
5
5
5
5
5
5
5
5
5
5
5
5
5
5
5
5
5
5
5
5
5
5
5
5
5
5
5
5
5
5
5
5
5
5
5
5
5
5
5
5
5
5
5
5
5
5
5
5
5
5
5
5
5
5
5
5
5
5
5
5
5
5
5
5
5
5
5
5
5
5
5
5
5
5
5
5
5
5
5
5
5
5
5
5
5
5
5
5
5
5
5
5
5
5
5
5
5
5
5
5
5
5
5
5
5
5
5
5
5
5
5
5
5
5
5
5
5
5
5
5
5
5
5
5
5
5
5
5
5
5
5
5
5
5
5
5
5
5
5
5
5
5
5
5
5
5
5
5
5
5
5
5
5
5
5
5
5
5
5
5
5
5
5
5
5
5
5
5
5
5
5
5
5
5
5
5
5
5
5
5
5
5
5
5
5
5
5
5
5
5
5
5
5
5
5
5
5
5
5
5
5
5
5
5
5
5
5
5
5
5
5
5
5
5
5
5
5
5
5
5
5
5
5
5
5
5
5
5
5
5
5
5
5
5
5
5
5
5
5
5
5
5
5
5
5
5
5
5
5
5
5
5
5
5
5
5
5
5
5
5
5
5
5
5
5
5
5
5
5
5
5
5
5
5
5
5
5
5
5
5
5
5
5
5
5
5
5
5
5
5
5
5
5
5
5
5
5
5
5
5
5
5
5
5
5
5
5
5
5
5
5
5
5
5
5
5
5
5
5
5
5
5
5
5
5
5
5
5
5
5
5
5
5
5
5
5
5
5
5
5
5
5
5
5
5
5
5
5
5
5
5
5
5
5
5
5
5
5
5
5
5
5
5
5
5
5
5
5
5
5
5
5
5
5
5
5
5
5
5
5
5
5
5
5
5
5
5
5
5
5
5
5
5
5
5
5
5
5
5
5
5
5
5
5
5
5
5
5
5
5
5
5
5
5
5
5
5
5
5
5
5
5
5
5
5
5
5
5
5
5
5
5
5
5
5
5
5
5
5
5
5
5
5
5
5
5
5
5
5
5
5
5
5
5
5
5
5
5
5
5
5
5
5
5
5
5
5
5
5
5
5
5
5
5
5
5
5
5
5
5
5
5
5
5
5
5
5
5
5
5
5
5
5
5
5
5
5
5
5
5
5
5
5
5
5
5
5
5
5
5
5
5
5
5
5
5
5
5
5
5
5
5
5
5
5
5
5
5
5
5
5
5
5
5
5
5
5
5
5
5
5
5
5
5
5
5
5
5
5
5
5
5
5
5
5
5
5
5
5
5
5
5
5
5
5
5
5
5
5
5
5
5
5
5
5
5
5
5
5
5
5
5
5
5
5
5
5
5
5
5
5
5
5
5
5
5
5
5
5
5
5
5
5
5
5
5
5
5
5
5
5
5
5
5
5
5
5
5
5
5
5
5
5
5
5
5
5
5
5
5
5
5
5
5
5
5
5
5
5
5
5
5
5
5
5
5
5
5
5
5
5
5
5
5
5
5
5
5
5
5
5
5
5
5
5
5
5
5
5
5
5
5
5
5
5
5
5
5
5
5
5
5
5
5
5
5
5
5
5
5
5
5
5
5
5
5
5
5
5
5
5
5
5
5
5
5
5
5
5
5
5
5
5
5
5
5
5
5
5
5
5
5
5
5
5
5
5
5
5
5
5
5
5
5
5
5
5
5
5
5
5
5
5
5
5
5
5
5
5
5
5
5
5
5
5
5
5
5
5
5
5
5
5
5
5
5
5
5
5
5
5
5
5
5
5
5
5
5
5
5
5
5
5
5
5
5
5
5
5
5
5
5
5
5
5
5
5
5
5
5
5
5
5
5
5
5
5
5
5
5
5
5
5
5
5
5
5
5
5
5
5
5
5
5
5
5
5
5
5
5
5
5
5
5
5
5
5
5
5
5
5
5
5
5
5
5
5
5
5
5
5
5
5
5
5
5
5
5
5
5
5
5
5
5
5
5
5
5
5
5
5
5
5
5
5
5
5
5
5
5
5
5
5
5
5
5
5
5
5
5
5
5
5
5
5
5
5
5
5
5
5
5
5
5
5
5
5
5
5
5
5
5
5
5
5
5
5
5
5
5
5
5
5
5
5
5
5
5
5
5
5
5
5
5
5
5
5
5
5
5
5
5
5
5
5
5
5
5
5
5
5
5
5
5
5
5
5
5
5
5
5
5
5
5
5
5
5
5
5
5
5
5
5
5
5
5
5
5
5
5
5
5
5
5
5
5
5
5
5
5
5
5
5
5
5
5
5
5
5
5
5
5
5
5
5
5
5
5
5
5
5
5
5
5
5
5
5
5
5
5
5
5
5
5
5
5
5
5
5
5
5
5
5
5
5
5
5
5
5
5
5
5
5
5
5
5
5
5
5
5
5
5
5
5
5
5
5
5
5
5
5
5
5
5
5
5
5
5
5
5
5
5
5
5
5
5
5
5
5
5
5
5
5
5
5
5
5
5
5
5
5
5
5
5
5
5
5
5
5
5
5
5
5
5
5
5
5
5
5
5
5
5
5
5
5
5
5
5
5
5
5
5
5
5
5
5
5
5
5
5
5
5
5
5
5
5
5
5
5
5
5
5
5
5
5
5
5
5
5
5
5
5
5
5
5
5
5
5
5
5
5
5
5
5
5
5
5
5
5
5
5
5
5
5
5
5
5
5
5
5
5
5
5
5
5
5
5
5
5
5
5
5
5
5
5
5
5
5
5
5
5
5
5
5
5
5
5
5
5
5
5
5
5
5
5
5
5
5
5
5
5
5
5
5
5
5
5
5
5
5
5
5
5
5
5
5
5
5
5
5
5
5
5
5
5
5
5
5
5
5
5
5
5
5
5
5
5
5
5
5
5
5
5
5
5
5
5
5
5
5
5
5
5
5
5
5
5
5
5
5
5
5
5
5
5
5
5
5
5
5
5
5
5
5
5
5
5
5
5
5
5
5
5
5
5
5
5
5
5
5
5
5
5
5
5
5
5
5
5
5
5
5
5
5
5
5
5
5
5
5
5
5
5
5
5
5
5
5
5
5
5
5
5
5
5
5
5
5
5
5
5
5
5
5
5
5
5
5
5
5
5
5
5
5
5
5
5
5
5
5
5
5
5
5
5
5
5
5
5
5
5
5
5
5
5
5
5
5
5
5
5
5
5
5
5
5

POINT_DATA 1112

VECTORS coord float
0.0 0.0 0.0 
5.000000000000e+01 -1.000000000000e+01 0.0 
0.0 -2.000000000000e+01 0.0 
5.000000000000e+01 -2.000000000000e+01 0.0 
0.0 -9.999999999991e-01 0.0 
0.0 -1.999999999998e+00 0.0 
0.0 -2.999999999997e+00 0.0 
0.0 -3.999999999994e+00 0.0 
0.0 -4.999999999991e+00 0.0 
0.0 -5.999999999988e+00 0.0 
0.0 -6.999999999985e+00 0.0 
0.0 -7.999999999982e+00 0.0 
0.0 -8.999999999983e+00 0.0 
0.0 -9.999999999985e+00 0.0 
0.0 -1.099999999999e+01 0.0 
0.0 -1.199999999999e+01 0.0 
0.0 -1.299999999999e+01 0.0 
0.0 -1.399999999999e+01 0.0 
0.0 -1.499999999999e+01 0.0 
0.0 -1.599999999999e+01 0.0 
0.0 -1.700000000000e+01 0.0 
0.0 -1.800000000000e+01 0.0 
0.0 -1.900000000000e+01 0.0 
4.900000000001e+01 -2.000000000000e+01 0.0 
4.800000000001e+01 -2.000000000000e+01 0.0 
4.700000000002e+01 -2.000000000000e+01 0.0 
4.600000000003e+01 -2.000000000000e+01 0.0 
4.500000000004e+01 -2.000000000000e+01 0.0 
4.400000000004e+01 -2.000000000000e+01 0.0 
4.300000000005e+01 -2.000000000000e+01 0.0 
4.200000000006e+01 -2.000000000000e+01 0.0 
4.100000000006e+01 -2.000000000000e+01 0.0 
4.000000000007e+01 -2.000000000000e+01 0.0 
3.900000000008e+01 -2.000000000000e+01 0.0 
3.800000000009e+01 -2.000000000000e+01 0.0 
3.700000000009e+01 -2.000000000000e+01 0.0 
3.600000000010e+01 -2.000000000000e+01 0.0 
3.500000000011e+01 -2.000000000000e+01 0.0 
3.400000000011e+01 -2.000000000000e+01 0.0 
3.300000000012e+01 -2.000000000000e+01 0.0 
3.200000000013e+01 -2.000000000000e+01 0.0 
3.100000000013e+01 -2.000000000000e+01 0.0 
3.000000000013e+01 -2.000000000000e+01 0.0 
2.900000000013e+01 -2.000000000000e+01 0.0 
2.800000000013e+01 -2.000000000000e+01 0.0 
2.700000000013e+01 -2.000000000000e+01 0.0 
2.600000000013e+01 -2.000000000000e+01 0.0 
2.500000000013e+01 -2.000000000000e+01 0.0 
2.400000000013e+01 -2.000000000000e+01 0.0 
2.300000000013e+01 -2.000000000000e+01 0.0 
2.200000000013e+01 -2.000000000000e+01 0.0 
2.100000000013e+01 -2.000000000000e+01 0.0 
2.000000000013e+01 -2.000000000000e+01 0.0 
1.900000000013e+01 -2.000000000000e+01 0.0 
1.800000000013e+01 -2.000000000000e+01 0.0 
1.700000000012e+01 -2.000000000000e+01 0.0 
1.600000000011e+01 -2.000000000000e+01 0.0 
1.500000000011e+01 -2.000000000000e+01 0.0 
1.400000000010e+01 -2.000000000000e+01 0.0 
1.300000000009e+01 -2.000000000000e+01 0.0 
1.200000000009e+01 -2.000000000000e+01 0.0 
1.100000000008e+01 -2.000000000000e+01 0.0 
1.000000000007e+01 -2.000000000000e+01 0.0 
9.000000000064e+00 -2.000000000000e+01 0.0 
8.000000000057e+00 -2.000000000000e+01 0.0 
7.000000000050e+00 -2.000000000000e+01 0.0 
6.000000000043e+00 -2.000000000000e+01 0.0 
5.000000000036e+00 -2.000000000000e+01 0.0 
4.000000000028e+00 -2.000000000000e+01 0.0 
3.000000000021e+00 -2.000000000000e+01 0.0 
2.000000000014e+00 -2.000000000000e+01 0.0 
1.000000000007e+00 -2.000000000000e+01 0.0 
5.000000000000e+01 -1.100000000000e+01 0.0 
5.000000000000e+01 -1.200000000000e+01 0.0 
5.000000000000e+01 -1.300000000000e+01 0.0 
5.000000000000e+01 -1.400000000000e+01 0.0 
5.000000000000e+01 -1.500000000000e+01 0.0 
5.000000000000e+01 -1.600000000000e+01 0.0 
5.000000000000e+01 -1.700000000000e+01 0.0 
5.000000000000e+01 -1.800000000000e+01 0.0 
5.000000000000e+01 -1.900000000000e+01 0.0 
2.000000000000e+01 0.0 0.0 
3.500000000000e+01 -1.000000000000e+01 0.0 
2.150000000000e+01 -1.000000000000e+00 0.0 
2.300000000000e+01 -2.000000000000e+00 0.0 
2.450000000000e+01 -3.000000000000e+00 0.0 
2.600000000000e+01 -4.000000000000e+00 0.0 
2.750000000000e+01 -5.000000000000e+00 0.0 
2.900000000000e+01 -6.000000000000e+00 0.0 
3.050000000000e+01 -7.000000000000e+00 0.0 
3.200000000000e+01 -8.000000000000e+00 0.0 
3.350000000000e+01 -9.000000000000e+00 0.0 
5.000000000000e+01 -6.000000000000e+00 0.0 
5.000000000000e+01 -7.000000000000e+00 0.0 
5.000000000000e+01 -8.000000000000e+00 0.0 
5.000000000000e+01 -9.000000000000e+00 0.0 
4.900000000000e+01 -1.000000000000e+01 0.0 
4.800000000000e+01 -1.000000000000e+01 0.0 
4.700000000000e+01 -1.000000000000e+01 0.0 
4.600000000000e+01 -1.000000000000e+01 0.0 
4.500000000000e+01 -1.000000000000e+01 0.0 
4.400000000000e+01 -1.000000000000e+01 0.0 
4.300000000000e+01 -1.000000000000e+01 0.0 
4.200000000000e+01 -1.000000000000e+01 0.0 
4.100000000000e+01 -1.000000000000e+01 0.0 
4.000000000000e+01 -1.000000000000e+01 0.0 
3.900000000000e+01 -1.000000000000e+01 0.0 
3.800000000000e+01 -1.000000000000e+01 0.0 
3.700000000000e+01 -1.000000000000e+01 0.0 
3.600000000000e+01 -1.000000000000e+01 0.0 
1.900000000000e+01 0.0 0.0 
1.800000000000e+01 0.0 0.0 
1.700000000000e+01 0.0 0.0 
1.600000000000e+01 0.0 0.0 
1.500000000000e+01 0.0 0.0 
1.400000000000e+01 0.0 0.0 
1.300000000000e+01 0.0 0.0 
1.200000000000e+01 0.0 0.0 
1.100000000000e+01 0.0 0.0 
1.000000000000e+01 0.0 0.0 
9.000000000000e+00 0.0 0.0 
8.000000000000e+00 0.0 0.0 
7.000000000000e+00 0.0 0.0 
6.000000000000e+00 0.0 0.0 
5.000000000000e+00 0.0 0.0 
4.000000000000e+00 0.0 0.0 
3.000000000000e+00 0.0 0.0 
2.000000000000e+00 0.0 0.0 
1.000000000000e+00 0.0 0.0 
4.900000000001e+01 -6.000000000000e+00 0.0 
4.800000000003e+01 -6.000000000000e+00 0.0 
4.700000000004e+01 -6.000000000000e+00 0.0 
4.600000000006e+01 -6.000000000000e+00 0.0 
4.500000000007e+01 -6.000000000000e+00 0.0 
4.400000000009e+01 -6.000000000000e+00 0.0 
4.300000000010e+01 -6.000000000000e+00 0.0 
4.200000000012e+01 -6.000000000000e+00 0.0 
4.100000000013e+01 -6.000000000000e+00 0.0 
4.000000000014e+01 -6.000000000000e+00 0.0 
3.900000000014e+01 -6.000000000000e+00 0.0 
3.800000000012e+01 -6.000000000000e+00 0.0 
3.700000000010e+01 -6.000000000000e+00 0.0 
3.600000000008e+01 -6.000000000000e+00 0.0 
3.500000000006e+01 -6.000000000000e+00 0.0 
3.400000000005e+01 -6.000000000000e+00 0.0 
3.300000000003e+01 -6.000000000000e+00 0.0 
3.200000000001e+01 -6.000000000000e+00 0.0 
3.100000000000e+01 -6.000000000000e+00 0.0 
3.000000000000e+01 -6.000000000000e+00 0.0 
3.147499999998e+01 -7.000000000000e+00 0.0 
3.244999999998e+01 -7.000000000000e+00 0.0 
3.342499999998e+01 -7.000000000000e+00 0.0 
3.439999999998e+01 -7.000000000000e+00 0.0 
3.537499999998e+01 -7.000000000000e+00 0.0 
3.634999999998e+01 -7.000000000000e+00 0.0 
3.732499999998e+01 -7.000000000000e+00 0.0 
3.829999999998e+01 -7.000000000000e+00 0.0 
3.927499999999e+01 -7.000000000000e+00 0.0 
4.024999999999e+01 -7.000000000000e+00 0.0 
4.122499999999e+01 -7.000000000000e+00 0.0 
4.219999999999e+01 -7.000000000000e+00 0.0 
4.317499999999e+01 -7.000000000000e+00 0.0 
4.414999999999e+01 -7.000000000000e+00 0.0 
4.512499999999e+01 -7.000000000000e+00 0.0 
4.609999999999e+01 -7.000000000000e+00 0.0 
4.707500000000e+01 -7.000000000000e+00 0.0 
4.805000000000e+01 -7.000000000000e+00 0.0 
4.902500000000e+01 -7.000000000000e+00 0.0 
4.900000000000e+01 -8.000000000000e+00 0.0 
4.800000000000e+01 -8.000000000000e+00 0.0 
4.700000000000e+01 -8.000000000000e+00 0.0 
4.600000000000e+01 -8.000000000000e+00 0.0 
4.500000000000e+01 -8.000000000000e+00 0.0 
4.400000000000e+01 -8.000000000000e+00 0.0 
4.300000000000e+01 -8.000000000000e+00 0.0 
4.200000000000e+01 -8.000000000000e+00 0.0 
4.100000000000e+01 -8.000000000000e+00 0.0 
4.000000000000e+01 -8.000000000000e+00 0.0 
3.900000000000e+01 -8.000000000000e+00 0.0 
3.800000000000e+01 -8.000000000000e+00 0.0 
3.700000000000e+01 -8.000000000000e+00 0.0 
3.600000000000e+01 -8.000000000000e+00 0.0 
3.500000000000e+01 -8.000000000000e+00 0.0 
3.400000000000e+01 -8.000000000000e+00 0.0 
3.300000000000e+01 -8.000000000000e+00 0.0 
3.447058823527e+01 -9.000000000000e+00 0.0 
3.544117647055e+01 -9.000000000000e+00 0.0 
3.641176470582e+01 -9.000000000000e+00 0.0 
3.738235294109e+01 -9.000000000000e+00 0.0 
3.835294117637e+01 -9.000000000000e+00 0.0 
3.932352941164e+01 -9.000000000000e+00 0.0 
4.029411764691e+01 -9.000000000000e+00 0.0 
4.126470588219e+01 -9.000000000000e+00 0.0 
4.223529411748e+01 -9.000000000000e+00 0.0 
4.320588235279e+01 -9.000000000000e+00 0.0 
4.417647058811e+01 -9.000000000000e+00 0.0 
4.514705882342e+01 -9.000000000000e+00 0.0 
4.611764705874e+01 -9.000000000000e+00 0.0 
4.708823529405e+01 -9.000000000000e+00 0.0 
4.805882352937e+01 -9.000000000000e+00 0.0 
4.902941176468e+01 -9.000000000000e+00 0.0 
2.075000000000e+01 -5.000000000006e-01 0.0 
2.225000000000e+01 -1.500000000000e+00 0.0 
2.375000000000e+01 -2.500000000000e+00 0.0 
2.525000000000e+01 -3.500000000000e+00 0.0 
2.675000000000e+01 -4.500000000000e+00 0.0 
2.825000000000e+01 -5.500000000000e+00 0.0 
2.975000000000e+01 -6.500000000000e+00 0.0 
3.125000000000e+01 -7.500000000000e+00 0.0 
3.275000000000e+01 -8.500000000000e+00 0.0 
3.425000000000e+01 -9.500000000000e+00 0.0 
2.226951693683e+01 -2.403913980114e+00 0.0 
1.650149491944e+01 -1.913490915758e+01 0.0 
1.050042386896e+01 -8.504605092970e-01 0.0 
1.553146524712e+01 -8.281255032105e-01 0.0 
1.150000000008e+01 -1.913397459621e+01 0.0 
2.530060260647e+01 -4.428336431260e+00 0.0 
8.651114563942e-01 -1.052096295641e+01 0.0 
2.050000000013e+01 -1.913397459622e+01 0.0 
2.819198729811e+01 -6.399519052838e+00 0.0 
2.445670302931e+01 -1.915649188023e+01 0.0 
3.117591465718e+01 -8.394293040695e+00 0.0 
7.465053044742e+00 -1.920411160581e+01 0.0 
6.398295709691e+00 -8.230098819370e-01 0.0 
2.849659607461e+01 -1.914296187762e+01 0.0 
3.418732642882e+01 -1.040265792588e+01 0.0 
8.386450935063e-01 -6.533605142809e+00 0.0 
9.178661865596e-01 -1.329769195597e+01 0.0 
3.149448624493e+01 -1.910466733764e+01 0.0 
3.552916747426e+01 -1.914628590759e+01 0.0 
4.449210346537e+01 -1.914359085008e+01 0.0 
4.140975975145e+01 -1.906941860733e+01 0.0 
3.847475958753e+01 -1.916622382724e+01 0.0 
3.653774794640e+01 -1.088712800241e+01 0.0 
4.047886341787e+01 -1.090139014048e+01 0.0 
4.348006339825e+01 -1.092792621489e+01 0.0 
4.919519968029e+01 -1.451526755068e+01 0.0 
4.500000000032e+00 -1.913397459621e+01 0.0 
1.856136921614e+01 -8.212235170404e-01 0.0 
3.499895312306e+00 -8.661165539723e-01 0.0 
9.076088696565e-01 -1.642306201891e+01 0.0 
4.655174095477e+01 -1.086183387525e+01 0.0 
9.430688970604e-01 -3.496112672958e+00 0.0 
3.353992337063e+01 -1.901202090820e+01 0.0 
2.249746016977e+01 -1.921262287282e+01 0.0 
2.650122741777e+01 -1.916123026018e+01 0.0 
1.863571384842e+01 -1.908325534840e+01 0.0 
1.450089971693e+01 -1.917691901860e+01 0.0 
1.350044695317e+01 -8.659695299584e-01 0.0 
3.849987469880e+01 -1.084154983397e+01 0.0 
9.454419857884e+00 -1.900818879936e+01 0.0 
4.917398660523e+01 -1.645692866081e+01 0.0 
8.500000000000e+00 -8.660254037844e-01 0.0 
8.660319230785e-01 -8.500111697188e+00 0.0 
4.649022621545e+01 -1.930506220113e+01 0.0 
2.667688107845e+01 -5.420288124331e+00 0.0 
2.379251615665e+01 -3.412225477429e+00 0.0 
2.966631491830e+01 -7.389030232731e+00 0.0 
3.267915035995e+01 -9.396934932445e+00 0.0 
2.074836922338e+01 -1.320054020319e+00 0.0 
4.915985743621e+01 -1.261973384855e+01 0.0 
2.527129768623e+00 -1.931592414663e+01 0.0 
1.538676247410e+00 -8.436956619311e-01 0.0 
4.908096641539e+01 -1.842484004551e+01 0.0 
3.478612492673e+01 -1.090889364140e+01 0.0 
3.409757055860e+01 -1.131991530427e+01 0.0 
3.501895309466e+01 -1.177687842717e+01 0.0 
3.407758073088e+01 -1.224293381580e+01 0.0 
3.484541875390e+01 -1.277051428430e+01 0.0 
3.400322025842e+01 -1.319022775640e+01 0.0 
3.321672625034e+01 -1.266779191233e+01 0.0 
3.315244139236e+01 -1.360984106532e+01 0.0 
3.236335186892e+01 -1.308463225210e+01 0.0 
3.478337442841e+01 -1.372341158982e+01 0.0 
3.230105923633e+01 -1.403023731610e+01 0.0 
3.150954055289e+01 -1.350301767700e+01 0.0 
3.144604792090e+01 -1.444931742516e+01 0.0 
3.065653897123e+01 -1.392357262981e+01 0.0 
3.071897610812e+01 -1.297447031198e+01 0.0 
2.986790411740e+01 -1.339226181535e+01 0.0 
2.993181466745e+01 -1.244703272398e+01 0.0 
2.908023061869e+01 -1.286254537734e+01 0.0 
2.901619051372e+01 -1.380881655279e+01 0.0 
2.822986160390e+01 -1.327695262116e+01 0.0 
2.829453476870e+01 -1.233265343811e+01 0.0 
2.744542905518e+01 -1.274510491105e+01 0.0 
2.751120089246e+01 -1.180368086886e+01 0.0 
2.666218649885e+01 -1.221619339205e+01 0.0 
2.672371209234e+01 -1.127125228527e+01 0.0 
2.587763216302e+01 -1.168539979114e+01 0.0 
2.581165585299e+01 -1.262994410089e+01 0.0 
2.502890882577e+01 -1.209827323619e+01 0.0 
2.509631327757e+01 -1.115492410304e+01 0.0 
2.424662989877e+01 -1.156630981079e+01 0.0 
2.431704046904e+01 -1.062389179334e+01 0.0 
2.346445438728e+01 -1.103427680694e+01 0.0 
2.339382552877e+01 -1.197964871788e+01 0.0 
2.260936050780e+01 -1.144513277642e+01 0.0 
2.268075012022e+01 -1.049911928216e+01 0.0 
2.182525737661e+01 -1.090920811464e+01 0.0 
2.189682319817e+01 -9.961716944568e+00 0.0 
2.104174127792e+01 -1.037266986667e+01 0.0 
2.111304367575e+01 -9.424179358711e+00 0.0 
2.025306185381e+01 -9.832727364719e+00 0.0 
2.018141124247e+01 -1.079140628871e+01 0.0 
1.938594498257e+01 -1.025147354112e+01 0.0 
1.946106490453e+01 -9.288010758448e+00 0.0 
1.858929958352e+01 -9.706319802516e+00 0.0 
1.851540991219e+01 -1.067205988724e+01 0.0 
1.771485303178e+01 -1.012504443115e+01 0.0 
1.764134552256e+01 -1.109360378538e+01 0.0 
1.683745148095e+01 -1.054496365337e+01 0.0 
1.691852964353e+01 -9.582555261178e+00 0.0 
1.603603813062e+01 -1.000160132379e+01 0.0 
1.595824239350e+01 -1.096750698862e+01 0.0 
1.515080624291e+01 -1.041639501931e+01 0.0 
1.523171602559e+01 -9.451711491453e+00 0.0 
1.434621060709e+01 -9.871956467464e+00 0.0 
1.426777178765e+01 -1.083749501371e+01 0.0 
1.345775282374e+01 -1.028803175500e+01 0.0 
1.354103873368e+01 -9.324918457162e+00 0.0 
1.265072018622e+01 -9.742612837270e+00 0.0 
1.257285762070e+01 -1.071557782384e+01 0.0 
1.175874815690e+01 -1.015972324288e+01 0.0 
1.184203019714e+01 -9.193604071377e+00 0.0 
1.094927709905e+01 -9.612103238656e+00 0.0 
1.086938022910e+01 -1.058685085646e+01 0.0 
1.005424098961e+01 -1.002939116380e+01 0.0 
9.977974613295e+00 -1.101324897989e+01 0.0 
1.012915646404e+01 -9.051815821181e+00 0.0 
9.237127782494e+00 -9.471239055559e+00 0.0 
9.308426593771e+00 -8.483376461131e+00 0.0 
8.418806073345e+00 -8.910712374517e+00 0.0 
2.253688464062e+01 -1.239459402279e+01 0.0 
8.495126726666e+00 -7.921646665254e+00 0.0 
9.389727383206e+00 -7.512103628377e+00 0.0 
7.601560812974e+00 -8.349460349344e+00 0.0 
7.525680547759e+00 -9.339736686940e+00 0.0 
7.677888324502e+00 -7.359727833346e+00 0.0 
6.782001206724e+00 -7.788454494773e+00 0.0 
6.858778622885e+00 -6.797338062822e+00 0.0 
2.196596590865e+01 -8.979025665442e+00 0.0 
2.816540108272e+01 -1.422634142353e+01 0.0 
5.961601194403e+00 -7.226824010712e+00 0.0 
6.038171749656e+00 -6.234825887079e+00 0.0 
6.936257279557e+00 -5.805287640737e+00 0.0 
6.115068918323e+00 -5.242109758768e+00 0.0 
3.564391741903e+01 -1.329240553876e+01 0.0 
3.558115605778e+01 -1.425902892003e+01 0.0 
3.645445282201e+01 -1.381970786460e+01 0.0 
3.639744204358e+01 -1.479198128612e+01 0.0 
3.727266909778e+01 -1.435399586226e+01 0.0 
5.216667013081e+00 -5.671788584287e+00 0.0 
3.220697293295e+01 -1.499594545107e+01 0.0 
3.551112158269e+01 -1.523479869250e+01 0.0 
2.836056961467e+01 -1.139032434851e+01 0.0 
2.516730388602e+01 -1.021382726837e+01 0.0 
1.844436907403e+01 -1.164097215196e+01 0.0 
5.885434318740e+00 -8.218694781467e+00 0.0 
5.064071066867e+00 -7.656614643901e+00 0.0 
4.988089103470e+00 -8.649722082718e+00 0.0 
1.079421050408e+01 -1.157014985435e+01 0.0 
9.902420005256e+00 -1.199903342656e+01 0.0 
1.071994252214e+01 -1.255727909771e+01 0.0 
9.826974788171e+00 -1.298659581767e+01 0.0 
1.064607883789e+01 -1.354595476388e+01 0.0 
9.751541265343e+00 -1.397556905071e+01 0.0 
8.932296185869e+00 -1.341553353988e+01 0.0 
8.856399248106e+00 -1.440570715508e+01 0.0 
8.036186803543e+00 -1.384470558472e+01 0.0 
1.057112875118e+01 -1.453516759081e+01 0.0 
1.146582585687e+01 -1.410539926903e+01 0.0 
7.959894480382e+00 -1.483563350928e+01 0.0 
7.138792279156e+00 -1.427465094140e+01 0.0 
7.062506792418e+00 -1.526615385482e+01 0.0 
6.240693558277e+00 -1.470508863040e+01 0.0 
6.316957575451e+00 -1.371212581281e+01 0.0 
5.418183007107e+00 -1.414253605022e+01 0.0 
5.494748364428e+00 -1.314886770603e+01 0.0 
1.756825565873e+01 -1.206433872514e+01 0.0 
1.837565773345e+01 -1.261356468266e+01 0.0 
1.749574831391e+01 -1.303769280014e+01 0.0 
1.830539187332e+01 -1.358828364284e+01 0.0 
1.742278925170e+01 -1.401367746928e+01 0.0 
1.823303007798e+01 -1.456432294258e+01 0.0 
1.734941694138e+01 -1.499213734361e+01 0.0 
1.653760041637e+01 -1.443920312098e+01 0.0 
3.056237977307e+01 -1.487132260174e+01 0.0 
1.866469084762e+01 -8.742953000418e+00 0.0 
1.953669694916e+01 -8.326038909849e+00 0.0 
1.874194303780e+01 -7.780688158966e+00 0.0 
1.961032016741e+01 -7.366854697285e+00 0.0 
1.881715755159e+01 -6.821102209649e+00 0.0 
1.968369797150e+01 -6.407747217358e+00 0.0 
1.889237123259e+01 -5.858375520026e+00 0.0 
1.802038875366e+01 -6.276202618170e+00 0.0 
1.809793837984e+01 -5.307629520489e+00 0.0 
1.721985207997e+01 -5.728242054488e+00 0.0 
1.729850893523e+01 -4.756990819347e+00 0.0 
1.641745664240e+01 -5.174636548624e+00 0.0 
2.495978509456e+01 -1.304406404294e+01 0.0 
1.911567814831e+01 -1.413854250293e+01 0.0 
1.904387332608e+01 -1.511463127723e+01 0.0 
1.992115934240e+01 -1.468788025898e+01 0.0 
7.013706899628e+00 -4.812582868662e+00 0.0 
5.342091874585e+00 -1.513658157269e+01 0.0 
1.139098043784e+01 -1.509488509480e+01 0.0 
1.228151810610e+01 -1.465617481983e+01 0.0 
1.646373110164e+01 -1.541993323337e+01 0.0 
5.293328636712e+00 -4.678385108584e+00 0.0 
1.975965862987e+01 -5.448124345648e+00 0.0 
2.054318374236e+01 -5.992561293251e+00 0.0 
3.721453439063e+01 -1.533216152738e+01 0.0 
3.809302733893e+01 -1.489235527381e+01 0.0 
1.220852788900e+01 -1.565304565230e+01 0.0 
4.394120899730e+00 -5.108397613210e+00 0.0 
8.779354620288e+00 -1.539524721159e+01 0.0 
1.817791047702e+01 -4.338570146253e+00 0.0 
4.518860013839e+00 -1.457343189307e+01 0.0 
4.442712140414e+00 -1.556841391069e+01 0.0 
8.115343466391e+00 -1.285760324283e+01 0.0 
1.985334703171e+01 -1.566478400426e+01 0.0 
2.071953850276e+01 -1.522074243119e+01 0.0 
1.634012953883e+01 -6.154777738301e+00 0.0 
1.553479994708e+01 -5.593730508879e+00 0.0 
1.561265946942e+01 -4.617761762647e+00 0.0 
1.470674212978e+01 -5.064576488228e+00 0.0 
1.464498299883e+01 -6.026514471420e+00 0.0 
1.383271561817e+01 -5.467796261169e+00 0.0 
1.389241253067e+01 -4.504338666645e+00 0.0 
1.301868735463e+01 -4.907185188626e+00 0.0 
1.294514184846e+01 -5.888160903592e+00 0.0 
1.212955968622e+01 -5.328262335277e+00 0.0 
1.220721122383e+01 -4.341264976687e+00 0.0 
1.131324345897e+01 -4.766773516508e+00 0.0 
5.266597955397e+00 -1.613148974258e+01 0.0 
1.737805990867e+01 -3.786677807525e+00 0.0 
3.078438094513e+01 -1.203225297748e+01 0.0 
1.131569882285e+01 -1.608511932110e+01 0.0 
1.728478341782e+01 -1.596017432313e+01 0.0 
3.803465906019e+01 -1.587509751228e+01 0.0 
3.891681276677e+01 -1.543395196905e+01 0.0 
3.897340985302e+01 -1.444710288980e+01 0.0 
3.980095968193e+01 -1.499059496613e+01 0.0 
3.974334598189e+01 -1.597921884150e+01 0.0 
4.062964983717e+01 -1.553518690417e+01 0.0 
4.068729602479e+01 -1.454434445295e+01 0.0 
4.151772679790e+01 -1.508974196007e+01 0.0 
4.157505195739e+01 -1.409694289912e+01 0.0 
4.240699932656e+01 -1.464347955968e+01 0.0 
4.234898051011e+01 -1.563721375790e+01 0.0 
4.323934606035e+01 -1.519082036405e+01 0.0 
4.329740528208e+01 -1.419587509788e+01 0.0 
4.413056841369e+01 -1.474359631875e+01 0.0 
4.418850110108e+01 -1.374786684042e+01 0.0 
4.502219770667e+01 -1.429605103525e+01 0.0 
4.496411937907e+01 -1.529215882720e+01 0.0 
4.490027319897e+00 -4.154167794594e+00 0.0 
1.565080385988e+01 -1.486411982419e+01 0.0 
1.557610691279e+01 -1.584855627870e+01 0.0 
4.195350646612e+00 -8.089117689096e+00 0.0 
4.124027797830e+00 -9.082831955007e+00 0.0 
4.917944318925e+00 -9.643530901533e+00 0.0 
4.020105689502e+00 -1.007439673661e+01 0.0 
4.587185899277e+01 -1.484039992728e+01 0.0 
4.580078661551e+01 -1.584043391042e+01 0.0 
2.061956522375e+01 -5.046701343981e+00 0.0 
2.139572955529e+01 -5.579553449826e+00 0.0 
3.715344357292e+01 -1.631485124583e+01 0.0 
3.618886196443e+00 -1.500471207167e+01 0.0 
3.695606940204e+00 -1.400939692294e+01 0.0 
2.438890661143e+01 -9.686110599723e+00 0.0 
2.523267572778e+01 -9.276766000622e+00 0.0 
2.446094171539e+01 -8.751904591412e+00 0.0 
2.529089822738e+01 -8.321495612547e+00 0.0 
2.606882688827e+01 -8.864724051119e+00 0.0 
2.452116646430e+01 -7.792756462004e+00 0.0 
1.235543269617e+01 -1.365845617339e+01 0.0 
4.318116874181e+01 -1.618567469992e+01 0.0 
7.835066111909e+00 -5.376366223896e+00 0.0 
7.905687335704e+00 -4.382539065697e+00 0.0 
3.542640009567e+00 -1.600035116542e+01 0.0 
1.572431503071e+01 -1.388358386695e+01 0.0 
2.574684696680e+01 -1.357896141127e+01 0.0 
2.488842657651e+01 -1.399674354505e+01 0.0 
2.568301775611e+01 -1.453552048595e+01 0.0 
2.481535572009e+01 -1.495542756508e+01 0.0 
2.561729699688e+01 -1.549784648532e+01 0.0 
2.474623061296e+01 -1.592058894178e+01 0.0 
2.394234041695e+01 -1.537572575827e+01 0.0 
2.065825452567e+01 -1.621899055217e+01 0.0 
2.387180528935e+01 -1.634552264687e+01 0.0 
4.585364400844e+01 -1.383912334080e+01 0.0 
1.998744432052e+01 -1.370317155541e+01 0.0 
1.205356951443e+01 -6.313580285498e+00 0.0 
5.396543905849e+00 -3.731818611283e+00 0.0 
1.139652573295e+01 -3.745819399350e+00 0.0 
3.574124306703e+00 -4.551456826011e+00 0.0 
3.494140761930e+00 -5.539787055649e+00 0.0 
1.213651452413e+01 -1.664505033022e+01 0.0 
2.555045568519e+01 -1.646529356744e+01 0.0 
2.641671114986e+01 -1.603899382371e+01 0.0 
2.612920721894e+01 -7.906435260873e+00 0.0 
2.690339829698e+01 -8.456969591431e+00 0.0 
1.978024383368e+01 -1.664410216353e+01 0.0 
3.732829979082e+01 -1.336926601859e+01 0.0 
4.074336584605e+01 -1.355133328401e+01 0.0 
4.163204691081e+01 -1.310280943992e+01 0.0 
3.773826114429e+00 -3.493444309145e+00 0.0 
1.228783001032e+01 -3.374822835872e+00 0.0 
4.057110462520e+01 -1.652588478000e+01 0.0 
2.132535497898e+01 -6.523623360525e+00 0.0 
2.216932532211e+01 -6.110044769206e+00 0.0 
1.825781152128e+01 -3.370146817147e+00 0.0 
1.745679445888e+01 -2.812942552063e+00 0.0 
4.666517057280e+01 -1.539981381543e+01 0.0 
4.660575894464e+01 -1.639014410186e+01 0.0 
4.838230979954e+00 -1.063643436446e+01 0.0 
3.938942630206e+00 -1.106778981745e+01 0.0 
1.302967218620e+01 -1.621373452436e+01 0.0 
1.049548003190e+01 -4.204825123240e+00 0.0 
4.573571907195e+01 -1.683820511148e+01 0.0 
1.483686335807e+01 -1.430849689310e+01 0.0 
1.490982658890e+01 -1.332679386284e+01 0.0 
3.190805600162e+00 -9.510968358545e+00 0.0 
2.146625721848e+01 -4.642437303115e+00 0.0 
2.069866208266e+01 -4.111852942193e+00 0.0 
1.286859345584e+01 -6.873252723348e+00 0.0 
1.041794493184e+01 -5.194814260291e+00 0.0 
2.671081808965e+00 -4.976806516331e+00 0.0 
1.295786792925e+01 -1.720506531799e+01 0.0 
3.968438206511e+01 -1.696869067241e+01 0.0 
2.308550456051e+01 -1.579963151273e+01 0.0 
2.315593682844e+01 -1.482967445235e+01 0.0 
2.299471449450e+01 -1.677069968132e+01 0.0 
1.057344714696e+01 -3.214252277840e+00 0.0 
1.124057603753e+01 -1.707713739755e+01 0.0 
2.718402535754e+00 -1.543629882103e+01 0.0 
2.638549692805e+01 -1.696744916809e+01 0.0 
2.723416349007e+01 -1.658104204545e+01 0.0 
2.210193351704e+01 -7.046769643417e+00 0.0 
2.295180925161e+01 -6.657397605239e+00 0.0 
2.301355235833e+01 -5.709111896800e+00 0.0 
2.379052718281e+01 -6.254965406962e+00 0.0 
3.243528601237e+01 -1.214181853533e+01 0.0 
2.287977995457e+01 -7.583722368300e+00 0.0 
2.999876029544e+01 -1.150837653096e+01 0.0 
3.084435366963e+01 -1.109693775882e+01 0.0 
3.006650579669e+01 -1.057778994262e+01 0.0 
2.683802665066e+01 -9.386863216633e+00 0.0 
2.768641973621e+01 -8.988883915666e+00 0.0 
2.040296980397e+01 -7.903629133404e+00 0.0 
1.925235024054e+01 -1.218872783130e+01 0.0 
5.735667000424e+00 -1.020577277283e+01 0.0 
6.396559909872e+00 -1.272326295703e+01 0.0 
1.161199420714e+01 -1.212812778229e+01 0.0 
4.229046132615e+01 -1.663084237572e+01 0.0 
4.312275399692e+01 -1.718087491556e+01 0.0 
4.335502068163e+01 -1.320039231514e+01 0.0 
4.424630298089e+01 -1.275160688731e+01 0.0 
7.090116643816e+00 -3.818998061530e+00 0.0 
7.989472176569e+00 -3.389238711200e+00 0.0 
9.085824861778e+00 -1.144036167408e+01 0.0 
1.041972423731e+01 -1.651614080893e+01 0.0 
3.797525112640e+01 -1.686052038746e+01 0.0 
3.709114253394e+01 -1.730125999865e+01 0.0 
3.626966748340e+01 -1.675477052919e+01 0.0 
1.385164591440e+01 -1.677597757552e+01 0.0 
1.787152588784e+01 -8.198993896093e+00 0.0 
1.668849729812e+01 -1.248560611628e+01 0.0 
1.659546177905e+01 -3.232482605530e+00 0.0 
2.332214717345e+01 -1.292598167641e+01 0.0 
7.168238450786e+00 -2.824711686516e+00 0.0 
2.894878403906e+01 -1.475427524446e+01 0.0 
2.646763248247e+00 -1.643270107952e+01 0.0 
3.467431944285e+00 -1.699648837348e+01 0.0 
2.059475877282e+01 -1.719473628526e+01 0.0 
3.333868355437e+01 -1.080596971682e+01 0.0 
2.246451062637e+01 -1.334557761546e+01 0.0 
2.167821896388e+01 -1.280847834858e+01 0.0 
3.089653185767e+01 -1.017198487212e+01 0.0 
3.012604365669e+01 -9.657298805968e+00 0.0 
2.929627299435e+01 -1.006100135274e+01 0.0 
2.936201435219e+01 -9.136748899251e+00 0.0 
1.198219052702e+01 -7.291887238230e+00 0.0 
1.116702076035e+01 -6.731976101053e+00 0.0 
2.551388807505e+01 -1.746927036981e+01 0.0 
2.378639090370e+01 -1.728678807149e+01 0.0 
2.718543627188e+01 -1.748668016909e+01 0.0 
2.804681050301e+01 -1.712626668293e+01 0.0 
1.970737034667e+01 -1.762317646822e+01 0.0 
1.889535776135e+01 -1.707158098231e+01 0.0 
2.593777711283e+00 -5.971157087874e+00 0.0 
2.773468281110e+01 -8.067164273938e+00 0.0 
4.051205884347e+01 -1.751819982458e+01 0.0 
3.166903145421e+01 -1.068032992414e+01 0.0 
1.033042452886e+01 -1.748285844336e+01 0.0 
9.519274604626e+00 -1.694349240233e+01 0.0 
1.668308673328e+01 -2.255861778986e+00 0.0 
1.570531902832e+01 -2.676795860126e+00 0.0 
4.655826903379e+01 -1.736656245706e+01 0.0 
2.384148070773e+01 -5.328744256413e+00 0.0 
2.460255123641e+01 -5.852182672816e+00 0.0 
2.306638135119e+01 -4.798935440613e+00 0.0 
8.467720450578e-01 -1.849576263072e+01 0.0 
4.849657322345e+01 -1.084860705506e+01 0.0 
2.565860899507e+00 -1.742859793981e+01 0.0 
2.764418872564e+01 -9.927142821799e+00 0.0 
4.565165880064e+01 -1.785336695404e+01 0.0 
2.162231831329e+01 -1.376528337468e+01 0.0 
2.360646352969e+01 -9.136041963102e+00 0.0 
1.392738739903e+01 -1.578285505772e+01 0.0 
4.756405947478e+01 -1.683706841809e+01 0.0 
4.740895034054e+01 -1.793766756892e+01 0.0 
4.080779328826e+01 -1.257387192544e+01 0.0 
4.168907939671e+01 -1.210739129181e+01 0.0 
3.991197722154e+01 -1.300815793917e+01 0.0 
1.905536506762e+01 -3.940076697685e+00 0.0 
1.923879596617e+01 -2.875000734166e+00 0.0 
4.401386745746e+01 -1.673483229438e+01 0.0 
4.247233362525e+00 -7.094581653070e+00 0.0 
3.286051630211e+00 -7.635300020553e+00 0.0 
9.609533347623e+00 -4.594311677967e+00 0.0 
9.523554636369e+00 -5.595597029530e+00 0.0 
5.660336628893e+00 -1.119290329628e+01 0.0 
6.558070063295e+00 -1.076385809362e+01 0.0 
2.809866407414e+01 -1.518037766799e+01 0.0 
2.888868674504e+01 -1.570360690070e+01 0.0 
2.654431550819e+01 -1.411217777162e+01 0.0 
1.402158265969e+01 -1.375404617952e+01 0.0 
1.409592494026e+01 -1.277071998942e+01 0.0 
1.499355196178e+01 -1.235270737023e+01 0.0 
4.221535326155e+01 -1.759335617494e+01 0.0 
4.305583287033e+01 -1.822663146802e+01 0.0 
1.280748808359e+01 -7.834332838285e+00 0.0 
1.368988389326e+01 -7.420529606172e+00 0.0 
1.110091796060e+01 -7.683966794328e+00 0.0 
3.963446145980e+01 -1.794331310122e+01 0.0 
3.423932362213e+00 -1.796415590455e+01 0.0 
4.280814572302e+00 -1.752272834860e+01 0.0 
8.050136380041e+00 -2.421582378631e+00 0.0 
8.888674091650e+00 -2.984264211327e+00 0.0 
2.152839430898e+01 -3.732609965436e+00 0.0 
2.077799585292e+01 -3.183896021866e+00 0.0 
3.618719395821e+01 -1.770276572576e+01 0.0 
3.538165138340e+01 -1.718709995539e+01 0.0 
3.702925326420e+01 -1.828844288807e+01 0.0 
1.756739438711e+00 -5.353284859169e+00 0.0 
2.233710191104e+01 -1.527265621324e+01 0.0 
1.389483555057e+01 -1.771797164730e+01 0.0 
1.475634224300e+01 -1.728357428390e+01 0.0 
1.298797563052e+01 -1.825968924755e+01 0.0 
2.145331271866e+01 -1.673705379077e+01 0.0 
2.133282821169e+01 -1.769400773673e+01 0.0 
2.292139194136e+01 -1.774915400288e+01 0.0 
1.750750053243e+01 -1.861475593469e+00 0.0 
4.830478841772e+01 -1.752611802221e+01 0.0 
4.341203507805e+01 -1.220326745522e+01 0.0 
1.685254151866e+01 -1.443085301632e+00 0.0 
4.431538535165e+01 -1.171841387375e+01 0.0 
4.511308610496e+01 -1.229557320599e+01 0.0 
4.510133242889e+01 -1.123680627466e+01 0.0 
1.846818030617e+00 -4.410877617069e+00 0.0 
3.995468694584e+01 -1.186571542989e+01 0.0 
3.901387459804e+01 -1.242507616755e+01 0.0 
8.966735877533e+00 -1.837818700423e+00 0.0 
4.049310011091e+01 -1.848269508791e+01 0.0 
7.278862053803e+00 -1.918523922691e+00 0.0 
6.429715522129e+00 -2.316676521184e+00 0.0 
9.443505505022e+00 -1.792198868094e+01 0.0 
8.620386951051e+00 -1.737590365556e+01 0.0 
8.571868171503e+00 -1.834436667826e+01 0.0 
7.758629848526e+00 -1.775677907213e+01 0.0 
7.806648388584e+00 -1.680761266021e+01 0.0 
6.908555145436e+00 -1.723746463044e+01 0.0 
4.251709122090e+01 -1.156937480156e+01 0.0 
6.931136405615e+00 -1.832465719263e+01 0.0 
6.015545461353e+00 -1.768865355295e+01 0.0 
5.960535926343e+00 -1.872011001764e+01 0.0 
3.023253444786e+01 -8.761960642196e+00 0.0 
2.454622702599e+01 -6.749421992767e+00 0.0 
2.537499741604e+01 -6.347634963783e+00 0.0 
2.544077378460e+01 -5.431358513649e+00 0.0 
2.801367161747e+01 -1.820907270221e+01 0.0 
2.884507806914e+01 -1.762032095326e+01 0.0 
1.821474531936e+00 -1.588901260460e+01 0.0 
1.821006262604e+00 -1.489370287756e+01 0.0 
4.599962488908e+01 -1.176478780598e+01 0.0 
4.705457470007e+01 -1.172182804229e+01 0.0 
4.667668314802e+01 -1.263464558483e+01 0.0 
4.759648056504e+01 -1.252380987933e+01 0.0 
4.728041618103e+01 -1.341928568376e+01 0.0 
4.825209352360e+01 -1.330491640804e+01 0.0 
4.778118233428e+01 -1.420151961695e+01 0.0 
2.388192727579e+01 -1.826934810142e+01 0.0 
2.381714684947e+01 -4.385917965223e+00 0.0 
3.172733219247e+01 -9.758744265248e+00 0.0 
1.882012070658e+01 -1.805540597212e+01 0.0 
1.805667505243e+01 -1.742221226236e+01 0.0 
2.852599958080e+01 -8.597196079481e+00 0.0 
2.856486123437e+01 -7.661382718527e+00 0.0 
1.111792842875e+01 -1.818223852980e+01 0.0 
2.203322722466e+01 -7.986646678802e+00 0.0 
3.955703676900e+01 -1.903246763601e+01 0.0 
1.944842206513e+01 -8.038750575182e-01 0.0 
1.909882767783e+01 -1.746322740933e+00 0.0 
2.281147422941e+01 -8.525912918334e+00 0.0 
2.850633001468e+01 -9.533271335986e+00 0.0 
2.532883344309e+01 -7.308951659710e+00 0.0 
2.620475466461e+01 -6.979208585400e+00 0.0 
1.396278270396e+01 -1.475095389807e+01 0.0 
9.791001166724e+00 -2.554159793552e+00 0.0 
2.229293380421e+01 -4.269762271052e+00 0.0 
4.677238984118e+01 -1.430071795514e+01 0.0 
2.228658385918e+01 -3.344747535984e+00 0.0 
8.940223674553e-01 -1.543595733415e+01 0.0 
2.118566862474e+01 -8.435876987696e+00 0.0 
2.678325936437e+01 -1.032621195706e+01 0.0 
2.223400220487e+01 -5.179046761770e+00 0.0 
2.375370625384e+01 -7.251580562134e+00 0.0 
3.156971327386e+01 -1.255534750737e+01 0.0 
3.328226391312e+01 -1.172914813316e+01 0.0 
3.250948774219e+01 -1.120157009348e+01 0.0 
2.032993445717e+01 -8.867880112202e+00 0.0 
2.697226974856e+01 -7.536633082045e+00 0.0 
2.707377810386e+01 -6.590835263295e+00 0.0 
2.914099246827e+01 -1.191678458549e+01 0.0 
3.544824072239e+01 -1.621126558525e+01 0.0 
3.456511855436e+01 -1.665054783843e+01 0.0 
3.448395810225e+01 -1.759117813016e+01 0.0 
3.368378673938e+01 -1.708037781328e+01 0.0 
3.375560452567e+01 -1.610973066913e+01 0.0 
3.288001547988e+01 -1.654324255651e+01 0.0 
3.282475929147e+01 -1.749725654692e+01 0.0 
3.199880906313e+01 -1.697294088625e+01 0.0 
3.197001272932e+01 -1.811667776864e+01 0.0 
3.111884713021e+01 -1.742166785755e+01 0.0 
3.120418962865e+01 -1.642155709385e+01 0.0 
3.034666704371e+01 -1.683123833816e+01 0.0 
3.026224379976e+01 -1.772592851714e+01 0.0 
3.046632362943e+01 -1.582232843075e+01 0.0 
1.961344017324e+01 -1.857459447985e+01 0.0 
2.274975894774e+01 -9.532738811922e+00 0.0 
1.833923246887e+01 -2.396746883672e+00 0.0 
1.988859500848e+01 -2.249244376594e+00 0.0 
2.758045562861e+01 -1.086434261689e+01 0.0 
3.247300178163e+01 -1.909930104252e+01 0.0 
3.461947482503e+01 -1.911879848019e+01 0.0 
2.047161538662e+01 -6.941478180358e+00 0.0 
2.750230940214e+01 -1.915490590764e+01 0.0 
3.165081350803e+01 -1.161860780120e+01 0.0 
1.897456727641e+01 -4.889634688522e+00 0.0 
2.549338539756e+01 -1.914858252089e+01 0.0 
3.462873135081e+01 -1.567482276144e+01 0.0 
3.384432415243e+01 -1.512280684518e+01 0.0 
3.471433767690e+01 -1.469086942990e+01 0.0 
3.651470373046e+01 -1.918207952149e+01 0.0 
3.901742690249e+01 -1.345028556517e+01 0.0 
2.153224102692e+01 -1.920169709333e+01 0.0 
1.918382939341e+01 -1.316226275662e+01 0.0 
2.005389162382e+01 -1.271962165174e+01 0.0 
2.011472087878e+01 -1.175029352900e+01 0.0 
3.210679478412e+01 -1.598038618242e+01 0.0 
1.752175226543e+01 -1.914713022656e+01 0.0 
1.696897240059e+01 -1.832772588765e+01 0.0 
1.599682523337e+01 -1.832599992024e+01 0.0 
1.644507199462e+01 -1.743697981535e+01 0.0 
1.549987712903e+01 -1.915192375101e+01 0.0 
3.050250861901e+01 -1.918943550234e+01 0.0 
2.949944061527e+01 -1.922950455235e+01 0.0 
1.375892575273e+01 -6.447160534926e+00 0.0 
1.457223670180e+01 -7.006709243857e+00 0.0 
1.450818793236e+01 -7.965943451779e+00 0.0 
1.538804712402e+01 -7.553409623699e+00 0.0 
1.545817644768e+01 -6.580929593419e+00 0.0 
1.626506893751e+01 -7.129032608911e+00 0.0 
1.619833811522e+01 -8.086588580887e+00 0.0 
1.714448609609e+01 -6.697429609777e+00 0.0 
2.887616543568e+01 -1.668015232137e+01 0.0 
1.349814589130e+01 -1.918225301544e+01 0.0 
1.153887772210e+01 -1.311384581217e+01 0.0 
1.242708159886e+01 -1.267046795531e+01 0.0 
1.249799674267e+01 -1.169005616014e+01 0.0 
6.631723893693e+00 -9.774184881867e+00 0.0 
7.451471631867e+00 -1.033148796006e+01 0.0 
7.377795355458e+00 -1.132196345268e+01 0.0 
5.810931797536e+00 -9.211654212252e+00 0.0 
2.402683899133e+01 -1.441378562320e+01 0.0 
1.249768692036e+01 -1.917388426624e+01 0.0 
1.580373499437e+01 -1.290751860664e+01 0.0 
8.344650507834e+00 -9.898403995170e+00 0.0 
3.750622115305e+01 -1.086526401533e+01 0.0 
3.699391251667e+01 -1.171695900794e+01 0.0 
3.606517829518e+01 -1.173717504500e+01 0.0 
3.650257641795e+01 -1.270047380221e+01 0.0 
3.808951488918e+01 -1.183518714175e+01 0.0 
4.760380962420e+00 -1.162484888315e+01 0.0 
3.861210370848e+00 -1.205657631736e+01 0.0 
3.038284309476e+00 -1.149851280664e+01 0.0 
2.961598794889e+00 -1.248856794980e+01 0.0 
2.138953225512e+00 -1.193212674534e+01 0.0 
2.227383593457e+00 -1.096258903918e+01 0.0 
2.043265419276e+00 -1.292158472959e+01 0.0 
1.252449446028e+00 -1.225502002753e+01 0.0 
3.949985210740e+01 -1.086594001795e+01 0.0 
1.453499444792e+01 -8.768805922472e-01 0.0 
1.403518950933e+01 -1.749965556633e+00 0.0 
1.300715031023e+01 -1.714737233040e+00 0.0 
1.350929389899e+01 -2.527443911291e+00 0.0 
1.449600910711e+01 -2.595486162864e+00 0.0 
1.395693872901e+01 -3.484211041558e+00 0.0 
1.495105865208e+01 -3.364609636216e+00 0.0 
1.508822528740e+01 -1.766586020494e+00 0.0 
1.250223858430e+01 -8.634590186802e-01 0.0 
1.200279523409e+01 -1.709044504992e+00 0.0 
1.150086239419e+01 -8.592789190668e-01 0.0 
1.101482754194e+01 -1.677730591922e+00 0.0 
1.148018564526e+01 -2.659323866909e+00 0.0 
8.800552119754e+00 -3.989875954728e+00 0.0 
3.452790439430e+00 -1.901136170646e+01 0.0 
8.658451825200e-01 -9.503462241795e+00 0.0 
1.694787786797e+00 -9.000589234502e+00 0.0 
1.703436717094e+00 -8.038819004041e+00 0.0 
2.594197971110e+00 -8.563955242845e+00 0.0 
1.630513735412e+00 -9.907244747511e+00 0.0 
8.566859292791e-01 -7.512203837972e+00 0.0 
1.685461277022e+00 -7.164280248030e+00 0.0 
2.506394468801e+00 -8.623386730818e-01 0.0 
2.007475081581e+00 -1.727729545205e+00 0.0 
9.211534699767e-01 -1.628791366312e+00 0.0 
1.500000000020e+00 -2.598063549486e+00 0.0 
2.482078929963e+00 -2.553580088725e+00 0.0 
2.999795253092e+00 -1.732169015019e+00 0.0 
3.999712607169e+00 -1.728832897453e+00 0.0 
4.499752199340e+00 -8.656478679175e-01 0.0 
4.964377774841e+00 -1.730129617941e+00 0.0 
4.425017908337e+00 -2.597541756243e+00 0.0 
5.446573195014e+00 -8.410144840023e-01 0.0 
4.915722346614e+01 -1.550640962770e+01 0.0 
4.826794919243e+01 -1.600000000000e+01 0.0 
1.053139533193e+01 -1.911782884365e+01 0.0 
4.156049861949e+01 -1.095160998589e+01 0.0 
9.494526624416e+00 -8.650570090219e-01 0.0 
4.555762166964e+01 -1.897098103585e+01 0.0 
4.250656411371e+01 -1.914387356218e+01 0.0 
4.350906466345e+01 -1.917234727395e+01 0.0 
8.759665722424e-01 -1.746422130609e+01 0.0 
1.698936011838e+00 -1.795012186674e+01 0.0 
4.742476811029e+01 -1.900090177972e+01 0.0 
7.749196752349e+00 -6.368049313489e+00 0.0 
3.361572113416e+01 -1.798765193915e+01 0.0 
4.484660149212e+01 -1.728661231383e+01 0.0 
1.984038172228e+01 -4.502575320116e+00 0.0 
1.035080352627e+01 -6.166639575753e+00 0.0 
2.753558010652e+00 -1.444909521181e+01 0.0 
7.217069543032e+00 -1.328635391078e+01 0.0 
4.364336727739e+00 -1.655585677381e+01 0.0 
4.595208426108e+00 -1.357919665443e+01 0.0 
6.164967006980e+00 -1.569873454630e+01 0.0 
1.487855768353e+01 -1.826523774028e+01 0.0 
2.791876456372e+00 -4.019632415181e+00 0.0 
4.246464893515e+01 -1.364898659620e+01 0.0 
4.503855590351e+01 -1.329552780944e+01 0.0 
4.407239109604e+01 -1.573900004093e+01 0.0 
5.141054449252e+00 -6.664290382472e+00 0.0 
3.141083947149e+00 -1.055790764912e+01 0.0 
6.196463198741e+00 -4.256497932609e+00 0.0 
2.599618716181e+01 -1.836893455464e+01 0.0 
2.923057372337e+01 -1.098461757645e+01 0.0 
1.168343877486e+01 -1.114079645041e+01 0.0 
6.706222096238e+00 -8.780364234441e+00 0.0 
8.567858614669e+00 -6.943121440850e+00 0.0 
1.123755132901e+01 -5.753525820030e+00 0.0 
2.353456234423e+01 -1.008536320953e+01 0.0 
9.162073319168e+00 -1.045593739109e+01 0.0 
9.676343469685e+00 -1.496493008366e+01 0.0 
4.490637882905e+01 -1.628778970202e+01 0.0 
7.398129387772e+00 -9.639977982323e-01 0.0 
1.049641705805e+01 -1.552503975272e+01 0.0 
9.010356286268e+00 -1.242805042052e+01 0.0 
3.985573925497e+01 -1.399863651620e+01 0.0 
1.816196318262e+01 -1.554066497931e+01 0.0 
1.306332244168e+01 -3.963646550326e+00 0.0 
4.145850903932e+01 -1.608094559275e+01 0.0 
3.794664933633e+01 -1.779020121986e+01 0.0 
3.819614412903e+01 -1.290749321016e+01 0.0 
6.270014188119e+00 -3.255093186826e+00 0.0 
4.251165370388e+01 -1.263870364997e+01 0.0 
1.207347709171e+01 -1.763942826023e+01 0.0 
3.633240829927e+01 -1.577330481104e+01 0.0 
4.319052668832e+00 -6.101812561904e+00 0.0 
1.676492415806e+01 -1.151547901392e+01 0.0 
2.594059220037e+01 -1.074225223009e+01 0.0 
3.340750911501e+01 -9.898764354137e+00 0.0 
4.397619591281e+01 -1.769773736461e+01 0.0 
2.175611595028e+01 -1.185718747128e+01 0.0 
1.641818733106e+01 -1.640685203215e+01 0.0 
1.661211421753e+01 -1.346121366338e+01 0.0 
3.428853504935e+00 -6.551993389271e+00 0.0 
8.700728832502e+00 -1.638460872825e+01 0.0 
1.931369795309e+01 -1.121629383702e+01 0.0 
4.139798872363e+01 -1.706922153459e+01 0.0 
2.647837478700e+01 -1.507353829290e+01 0.0 
1.779469616424e+01 -9.161615782908e+00 0.0 
3.885879219319e+01 -1.642026488918e+01 0.0 
1.338194936770e+01 -1.125916521471e+01 0.0 
1.897071181111e+01 -1.609204322578e+01 0.0 
2.844308548793e+01 -1.046221003096e+01 0.0 
2.659854702194e+01 -1.316109415760e+01 0.0 
2.979604503271e+01 -1.433296157755e+01 0.0 
2.417694041347e+01 -1.251231397779e+01 0.0 
1.807401327411e+00 -1.388891148480e+01 0.0 
9.599810618782e+00 -1.595439365034e+01 0.0 
1.652144692160e+01 -4.205392788472e+00 0.0 
2.367839450246e+01 -8.188385218643e+00 0.0 
3.814894930468e+01 -1.390748338767e+01 0.0 
2.466448215774e+01 -1.685878545680e+01 0.0 
4.134044524611e+01 -1.806610045954e+01 0.0 
2.600511411958e+01 -9.801774120648e+00 0.0 
7.882158050716e+00 -1.582364037353e+01 0.0 
3.881607873422e+01 -1.737970515013e+01 0.0 
8.270182347708e+00 -1.088622154920e+01 0.0 
8.672520392520e-01 -4.532984309881e+00 0.0 
1.993447205337e+01 -3.579061902667e+00 0.0 
1.794616079549e+01 -7.238038888498e+00 0.0 
2.097277068165e+01 -1.132450168636e+01 0.0 
8.194803300681e+00 -1.187214224265e+01 0.0 
3.522279404911e+01 -1.823342818178e+01 0.0 
6.984481050295e+00 -1.625271465557e+01 0.0 
1.309433007797e+01 -1.521718594215e+01 0.0 
2.150246167611e+01 -1.885399038185e+00 0.0 
3.250689370209e+01 -1.028789870535e+01 0.0 
6.085886272238e+00 -1.668342132851e+01 0.0 
1.588455661727e+01 -1.193498985921e+01 0.0 
1.809323400821e+01 -1.651110084195e+01 0.0 
1.348885082381e+00 -1.136065576512e+01 0.0 
2.497670221995e+01 -1.834631276173e+01 0.0 
2.937062818424e+01 -8.233711194470e+00 0.0 
5.185823744469e+00 -1.711566910207e+01 0.0 
1.477497877209e+01 -1.530177014512e+01 0.0 
2.125346158933e+01 -7.473003997367e+00 0.0 
4.751561118290e+01 -1.084897772632e+01 0.0 
5.056026576843e+00 -1.825750475525e+01 0.0 
1.473948554523e+01 -1.634577436309e+01 0.0 
2.410566630936e+01 -1.345970002612e+01 0.0 
1.507337507513e+01 -1.138527895328e+01 0.0 
3.189857338687e+01 -8.887781229006e+00 0.0 
7.298712468334e+00 -1.230231046246e+01 0.0 
2.738235495295e+01 -1.368931690364e+01 0.0 
3.750141041969e+01 -1.920449893070e+01 0.0 
1.557271965640e+01 -1.683317951731e+01 0.0 
3.393731848929e+01 -1.413034777044e+01 0.0 
6.482156824153e+00 -1.174575135362e+01 0.0 
2.077971718439e+01 -1.421279621836e+01 0.0 
3.455084320178e+00 -2.562590040585e+00 0.0 
3.099056096250e+01 -9.270280416035e+00 0.0 
5.580176125418e+00 -1.217387969259e+01 0.0 
1.707247630389e+01 -7.660651981710e+00 0.0 
1.418658814174e+01 -1.180390575393e+01 0.0 
2.049103025389e+01 -1.811296706038e+01 0.0 
4.680386172316e+00 -1.260396879301e+01 0.0 
1.699679896554e+01 -8.624561788199e+00 0.0 
3.779470168555e+00 -1.303424899720e+01 0.0 
3.036589870126e+01 -7.879832518349e+00 0.0 
3.306993001774e+01 -1.457671062095e+01 0.0 
2.840150110165e+00 -1.346530088269e+01 0.0 
2.732011135052e+01 -1.464591214560e+01 0.0 
5.423639259568e+00 -2.659711955016e+00 0.0 
2.324455961696e+01 -1.387269388211e+01 0.0 
1.752768355571e+00 -1.693128613594e+01 0.0 
1.020244783051e+01 -8.076834012808e+00 0.0 
1.330873875224e+01 -1.222417528206e+01 0.0 
3.297727364880e+01 -1.555480372087e+01 0.0 
2.890929955439e+01 -6.868664170731e+00 0.0 
1.323294664622e+01 -1.320754260334e+01 0.0 
2.726532861246e+01 -1.560593120806e+01 0.0 
2.240020643398e+01 -1.429299177247e+01 0.0 
2.090445823633e+01 -1.228128621332e+01 0.0 
1.315809881502e+01 -1.420739326938e+01 0.0 
2.781328038068e+01 -7.181956082300e+00 0.0 
8.614200829057e+00 -5.936933226306e+00 0.0 
8.714765730069e+00 -4.979270529687e+00 0.0 
1.611881701099e+01 -9.041973294003e+00 0.0 
2.806830314340e+01 -1.614622947108e+01 0.0 
2.084435391396e+00 -3.385085422913e+00 0.0 
3.133211811152e+01 -1.542347619750e+01 0.0 
9.693114650768e+00 -3.590281506442e+00 0.0 
1.531883592202e+01 -8.504584946143e+00 0.0 
2.151589117094e+01 -1.578915763018e+01 0.0 
4.918943882696e+01 -1.355538828056e+01 0.0 
1.443236615188e+01 -8.918701794549e+00 0.0 
8.276250966452e-01 -5.537685192197e+00 0.0 
1.362790867918e+01 -8.374718262212e+00 0.0 
2.083767477370e+01 -1.324843956035e+01 0.0 
1.273834678703e+01 -8.790890389337e+00 0.0 
1.192275845670e+01 -8.242261327467e+00 0.0 
4.477236023583e+01 -1.824312396664e+01 0.0 
1.102989384254e+01 -8.649855800911e+00 0.0 
4.849096516045e+01 -1.917293752213e+01 0.0 
1.588996752238e+00 -1.910230934687e+01 0.0 
4.904245197583e+01 -1.159839008158e+01 0.0 
2.753852929608e+01 -5.782128488093e+00 0.0 
1.756133602833e+01 -8.306130313187e-01 0.0 
2.615423700951e+01 -6.153865090092e+00 0.0 
1.028818761294e+01 -7.122020845892e+00 0.0 
2.970818901196e+01 -1.527821347593e+01 0.0 
4.801461623449e+01 -1.164472570985e+01 0.0 
9.455722100419e+00 -6.546069291118e+00 0.0 
3.089099236677e+01 -1.835339328261e+01 0.0 
2.350000000013e+01 -1.920825896750e+01 0.0 
4.830620531887e+01 -1.506626155470e+01 0.0 
1.725381944701e+01 -1.688794487850e+01 0.0 
2.156246225273e+01 -1.475893794002e+01 0.0 
4.919319648787e+01 -1.742767505896e+01 0.0 
4.437935623576e+01 -1.077662927266e+01 0.0 
1.001520521978e+01 -1.652692675208e+00 0.0 
9.067160240050e-01 -1.441937727541e+01 0.0 
2.603365149390e+01 -4.755996613848e+00 0.0 
2.458344439002e+01 -4.873645517696e+00 0.0 
2.304312390142e+01 -3.836552768096e+00 0.0 
2.546923202198e+00 -6.902480355749e+00 0.0 
1.251534969393e+01 -2.490989965776e+00 0.0 
2.454061833377e+01 -3.933354231935e+00 0.0 
1.788186558740e+01 -1.827424884923e+01 0.0 
4.090785243552e+01 -1.166553231904e+01 0.0 
2.230128851568e+01 -1.623015738726e+01 0.0 
2.302362347568e+01 -2.916239960270e+00 0.0 
3.878119254461e+01 -1.830091164002e+01 0.0 
2.210081359958e+01 -1.829238229150e+01 0.0 
8.443704882233e+00 -1.921993252862e+01 0.0 
2.218405824691e+01 -1.724557581508e+01 0.0 
2.151157503963e+01 -2.790636689331e+00 0.0 
3.741658958955e+01 -1.250400191722e+01 0.0 
2.697247663737e+01 -1.838290202309e+01 0.0 
4.743362342862e+01 -1.585850773010e+01 0.0 
6.671345075358e+00 -1.924977576322e+01 0.0 
3.900825404537e+01 -1.157220003875e+01 0.0 
4.649692961375e+01 -1.836335837481e+01 0.0 
1.578831424832e+01 -3.678284023361e+00 0.0 
4.814208768888e+01 -1.841249298770e+01 0.0 
2.964123298315e+01 -1.625739458193e+01 0.0 
4.580760351902e+01 -1.284294554687e+01 0.0 
3.561520879615e+01 -1.245548941949e+01 0.0 
2.555418095658e+00 -1.841101588290e+01 0.0 
3.288468366144e+01 -1.834258164109e+01 0.0 
2.065894391445e+01 -2.240688571739e+00 0.0 
4.739171429915e+01 -1.496536413446e+01 0.0 
3.478086729185e+00 -8.576434653209e+00 0.0 
1.606010630246e+01 -1.588421807951e+00 0.0 
1.018329200594e+01 -1.834320874317e+01 0.0 
2.957213339430e+01 -1.720496954591e+01 0.0 
4.142712790164e+00 -1.837794506222e+01 0.0 
6.698721532573e-01 -2.499999999997e+00 0.0 
8.037039123140e+00 -1.571229354954e+00 0.0 
1.203541361428e+01 -1.847784298001e+01 0.0 
2.899968332038e+01 -1.848264722179e+01 0.0 
1.469229460948e+01 -4.219485753730e+00 0.0 
4.049590781957e+01 -1.932812501995e+01 0.0 
1.996211678340e+01 -1.506329754720e+00 0.0 
4.250588298353e+01 -1.067383247529e+01 0.0 
5.831497011152e+00 -1.635396227234e+00 0.0 
5.317606125670e+00 -1.923927974868e+01 0.0 
4.208546426993e+01 -1.842830665025e+01 0.0 
2.327553405011e+00 -9.459409929662e+00 0.0 
3.568351902251e+01 -1.096637218582e+01 0.0 
1.682104374890e+00 -6.231413350963e+00 0.0 
2.451812238018e+01 -1.766524914339e+01 0.0 
1.058003429638e+01 -2.391839617098e+00 0.0 
4.399988753123e+01 -1.851998776342e+01 0.0 
1.400000000010e+01 -1.852293523028e+01 0.0 
3.604719565984e+01 -1.850662876800e+01 0.0 
1.951297136734e+01 -1.938092349694e+01 0.0 
1.821365318472e+01 -1.531276353287e+00 0.0 
2.298031859732e+01 -1.854635324722e+01 0.0 
1.552168066204e+01 -1.764280741977e+01 0.0 
4.572957713638e+01 -1.073347898229e+01 0.0 
3.429637429624e+01 -1.838861552790e+01 0.0 
2.427434426052e+00 -7.705577451869e+00 0.0 
4.662792031485e+00 -3.359424455416e+00 0.0 
4.926794919243e+01 -1.926794919243e+01 0.0 
7.320508075690e-01 -7.320508075688e-01 0.0 
4.926794919243e+01 -1.073205080757e+01 0.0 
7.320508075705e-01 -1.926794919243e+01 0.0 
2.917460242467e+00 -3.202866455310e+00 0.0 
4.838200575963e+01 -1.232674147454e+01 0.0 
2.998445708009e+01 -1.854403752148e+01 0.0 
5.949940090766e-01 -1.152762038165e+01 0.0 
4.844763495759e+01 -1.678092548787e+01 0.0 
1.301685480160e+01 -3.170056592566e+00 0.0 
1.650046335855e+01 -6.731535384067e-01 0.0 
4.854881540991e+01 -1.405224059779e+01 0.0 
2.119545114693e+01 -1.846813384545e+01 0.0 
3.797852849897e+01 -1.857978513215e+01 0.0 
4.649823708745e+01 -1.338351810816e+01 0.0 
2.012685900976e+01 -2.889659035009e+00 0.0 
2.953271913273e+01 -1.791558075192e+01 0.0 
2.408509097292e+00 -1.021949208421e+01 0.0 
2.642589566221e+01 -1.773216561448e+01 0.0 
1.730010270775e+01 -1.763165076721e+01 0.0 
2.017406551304e+01 -8.513536440582e-01 0.0 
5.254761581934e-01 -1.249999999999e+01 0.0 
6.640448215642e+00 -1.545337834885e+00 0.0 
7.843361506349e+00 -1.852719839527e+01 0.0 
1.588442191088e+00 -1.066158564320e+01 0.0 
3.031250000000e+01 -6.420918367347e+00 0.0 
4.951250000000e+01 -6.500000000000e+00 0.0 
3.180701530612e+01 -7.414795918363e+00 0.0 
4.951250000000e+01 -7.500000000000e+00 0.0 
3.331250000000e+01 -8.420918367347e+00 0.0 
4.951470588234e+01 -8.500000000000e+00 0.0 
3.480610198624e+01 -9.413633635267e+00 0.0 
4.951470588234e+01 -9.500000000000e+00 0.0 

SCALARS node_number int
LOOKUP_TABLE default
1
2
3
4
5
6
7
8
9
10
11
12
13
14
15
16
17
18
19
20
21
22
23
24
25
26
27
28
29
30
31
32
33
34
35
36
37
38
39
40
41
42
43
44
45
46
47
48
49
50
51
52
53
54
55
56
57
58
59
60
61
62
63
64
65
66
67
68
69
70
71
72
73
74
75
76
77
78
79
80
81
82
84
85
86
87
88
89
90
91
92
93
99
100
101
102
104
105
106
107
108
109
110
111
112
113
114
115
116
117
118
119
120
121
122
123
124
125
126
127
128
129
130
131
132
133
134
135
136
290
291
292
293
294
295
296
297
298
299
300
301
302
303
304
305
306
307
308
309
310
311
312
313
314
315
316
317
318
319
320
321
322
323
324
325
326
327
328
329
330
331
332
333
334
335
336
337
338
339
340
341
342
343
344
345
346
347
348
349
350
351
352
353
354
355
356
357
358
359
360
361
362
363
364
365
366
367
368
369
370
371
372
373
374
375
376
377
378
379
380
381
382
383
384
385
386
387
388
389
390
391
392
393
394
395
396
397
398
399
400
401
402
403
404
405
406
407
408
409
410
411
412
413
414
415
416
417
418
419
420
421
422
423
424
425
426
427
428
429
430
431
432
433
434
435
436
437
438
439
440
441
442
443
444
445
446
447
448
449
450
451
452
453
454
455
456
457
458
459
460
461
462
463
464
465
466
467
468
469
470
471
472
473
474
475
476
477
478
479
480
481
482
483
484
485
486
487
488
489
490
491
492
493
494
495
496
497
498
499
500
501
502
503
504
505
506
507
508
509
510
511
512
513
514
515
516
517
518
519
520
521
522
523
524
525
526
527
528
529
530
531
532
533
534
535
536
537
538
539
540
541
542
543
544
545
546
547
548
549
550
551
552
553
554
555
556
557
558
559
560
561
562
563
564
565
566
567
568
569
570
571
572
573
574
575
576
577
578
579
580
581
582
583
584
585
586
587
588
589
590
591
592
593
594
595
596
597
598
599
600
601
602
603
604
605
606
607
608
609
610
611
612
613
614
615
616
617
618
619
620
621
622
623
624
625
626
627
628
629
630
631
632
633
634
635
636
637
638
639
640
641
642
643
644
645
646
647
648
649
650
651
652
653
654
655
656
657
658
659
660
661
662
663
664
665
666
667
668
669
670
671
672
673
674
675
676
677
678
679
680
681
682
683
684
685
686
687
688
689
690
691
692
693
694
695
696
697
698
699
700
701
702
703
704
705
706
707
708
709
710
711
712
713
714
715
716
717
718
719
720
721
722
723
724
725
726
727
728
729
730
731
732
733
734
735
736
737
738
739
740
741
742
743
744
745
746
747
748
749
750
751
752
753
754
755
756
757
758
759
760
761
762
763
764
765
766
767
768
769
770
771
772
773
774
775
776
777
778
779
780
781
782
783
784
785
786
787
788
789
790
791
792
793
794
795
796
797
798
799
800
801
802
803
804
805
806
807
808
809
810
811
812
813
814
815
816
817
818
819
820
821
822
823
824
825
826
827
828
829
830
831
832
833
834
835
836
837
838
839
840
841
842
843
844
845
846
847
848
849
850
851
852
853
854
855
856
857
858
859
860
861
862
863
864
865
866
867
868
869
870
871
872
873
874
875
876
877
878
879
880
881
882
883
884
885
886
887
888
889
890
891
892
893
894
895
896
897
898
899
900
901
902
903
904
905
906
907
908
909
910
911
912
913
914
915
916
917
918
919
920
921
922
923
924
925
926
927
928
929
930
931
932
933
934
935
936
937
938
939
940
941
942
943
944
945
946
947
948
949
950
951
952
953
954
955
956
957
958
959
960
961
962
963
964
965
966
967
968
969
970
971
972
973
974
975
976
977
978
979
980
981
982
983
984
985
986
987
988
989
990
991
992
993
994
995
996
997
998
999
1000
1001
1002
1003
1004
1005
1006
1007
1008
1009
1010
1011
1012
1013
1014
1015
1016
1017
1018
1019
1020
1021
1022
1023
1024
1025
1026
1027
1028
1029
1030
1031
1032
1033
1034
1035
1036
1037
1038
1039
1040
1041
1042
1043
1044
1045
1046
1047
1048
1049
1050
1051
1052
1053
1054
1055
1056
1057
1058
1059
1060
1061
1062
1063
1064
1065
1066
1067
1068
1069
1070
1071
1072
1073
1074
1075
1076
1077
1078
1079
1080
1081
1082
1083
1084
1085
1086
1087
1088
1089
1090
1091
1092
1093
1094
1095
1096
1097
1098
1099
1100
1101
1102
1103
1104
1105
1106
1107
1108
1109
1110
1111
1112
1113
1114
1115
1116
1117
1118
1119
1120
1121
1122
1123
1124
1125
1126
1127
1128
1129
1130
1131
1132
1133
1134
1135
1136
1137
1138
1139
1140
1141
1142
1143
1144
1145
1146
1147
1148
1149
1150
1151
1152
1153
1154
1155
1156
1157
1158
1159
1160
1161
1162
1163
1164
1165
1166
1167
1168
1169
1170
1171
1172
1173
1174
1175
1176
1177
1178
1179
1180
1181
1182
1183
1184
1185
1186
1187
1188
1189
1190
1191
1192
1193
1194
1195
1196
1197
1198
1199
1200
1201
1202
1203
1204
1205
1206
1207
1208
1209
1210
1211
1212
1213
1214
1215
1216
1217
1218
1219
1220
1221
1222
1223
1224
1225
1226
1227
1228
1229
1230
1231
1232
1233
1234
1235
1236
1237
1238
1239
1240
1241
1242
1243
1244
1245
1246
1247
1248
1249
1250
1251
1252
1253
1254
1255
1256
1257
1258
1259
1260
1261
1262
1263
1264
1277
1278
1279
1280
1281
1282
1283
1284

VECTORS node_mesh_deformation float
0.0 1.171587335151e-02 0.0 
0.000000000000e+00 1.829505978030e-02 0.0 
0.0 0.000000000000e+00 0.0 
0.000000000000e+00 0.000000000000e+00 0.0 
0.0 1.170095572506e-02 0.0 
0.0 1.162983777216e-02 0.0 
0.0 1.150297268773e-02 0.0 
0.0 1.132012730047e-02 0.0 
0.0 1.107955776359e-02 0.0 
0.0 1.078233978796e-02 0.0 
0.0 1.042829524189e-02 0.0 
0.0 1.001639244738e-02 0.0 
0.0 9.545892776234e-03 0.0 
0.0 9.015224871129e-03 0.0 
0.0 8.421802354775e-03 0.0 
0.0 7.763904994162e-03 0.0 
0.0 7.040840932984e-03 0.0 
0.0 6.254415304559e-03 0.0 
0.0 5.396789253547e-03 0.0 
0.0 4.467605896448e-03 0.0 
0.0 3.465606353078e-03 0.0 
0.0 2.387417568190e-03 0.0 
0.0 1.230751621193e-03 0.0 
0.000000000000e+00 0.000000000000e+00 0.0 
0.000000000000e+00 0.000000000000e+00 0.0 
0.000000000000e+00 0.000000000000e+00 0.0 
0.000000000000e+00 0.000000000000e+00 0.0 
0.000000000000e+00 0.000000000000e+00 0.0 
0.000000000000e+00 0.000000000000e+00 0.0 
0.000000000000e+00 0.000000000000e+00 0.0 
0.000000000000e+00 0.000000000000e+00 0.0 
0.000000000000e+00 0.000000000000e+00 0.0 
0.000000000000e+00 0.000000000000e+00 0.0 
0.000000000000e+00 0.000000000000e+00 0.0 
0.000000000000e+00 0.000000000000e+00 0.0 
0.000000000000e+00 0.000000000000e+00 0.0 
0.000000000000e+00 0.000000000000e+00 0.0 
0.000000000000e+00 0.000000000000e+00 0.0 
0.000000000000e+00 0.000000000000e+00 0.0 
0.000000000000e+00 0.000000000000e+00 0.0 
0.000000000000e+00 0.000000000000e+00 0.0 
0.000000000000e+00 0.000000000000e+00 0.0 
0.000000000000e+00 0.000000000000e+00 0.0 
0.000000000000e+00 0.000000000000e+00 0.0 
0.000000000000e+00 0.000000000000e+00 0.0 
0.000000000000e+00 0.000000000000e+00 0.0 
0.000000000000e+00 0.000000000000e+00 0.0 
0.000000000000e+00 0.000000000000e+00 0.0 
0.000000000000e+00 0.000000000000e+00 0.0 
0.000000000000e+00 0.000000000000e+00 0.0 
0.000000000000e+00 0.000000000000e+00 0.0 
0.000000000000e+00 0.000000000000e+00 0.0 
0.000000000000e+00 0.000000000000e+00 0.0 
0.000000000000e+00 0.000000000000e+00 0.0 
0.000000000000e+00 0.000000000000e+00 0.0 
0.000000000000e+00 0.000000000000e+00 0.0 
0.000000000000e+00 0.000000000000e+00 0.0 
0.000000000000e+00 0.000000000000e+00 0.0 
0.000000000000e+00 0.000000000000e+00 0.0 
0.000000000000e+00 0.000000000000e+00 0.0 
0.000000000000e+00 0.000000000000e+00 0.0 
0.000000000000e+00 0.000000000000e+00 0.0 
0.000000000000e+00 0.000000000000e+00 0.0 
0.000000000000e+00 0.000000000000e+00 0.0 
0.000000000000e+00 0.000000000000e+00 0.0 
0.000000000000e+00 0.000000000000e+00 0.0 
0.000000000000e+00 0.000000000000e+00 0.0 
0.000000000000e+00 0.000000000000e+00 0.0 
0.000000000000e+00 0.000000000000e+00 0.0 
0.000000000000e+00 0.000000000000e+00 0.0 
0.000000000000e+00 0.000000000000e+00 0.0 
0.000000000000e+00 0.000000000000e+00 0.0 
0.000000000000e+00 1.673347448865e-02 0.0 
0.000000000000e+00 1.510922934096e-02 0.0 
0.000000000000e+00 1.342256899536e-02 0.0 
0.000000000000e+00 1.167621669975e-02 0.0 
0.000000000000e+00 9.869961562949e-03 0.0 
0.000000000000e+00 8.006249022266e-03 0.0 
0.000000000000e+00 6.086100018990e-03 0.0 
0.000000000000e+00 4.110772379260e-03 0.0 
0.000000000000e+00 2.081941592156e-03 0.0 
-1.517601411283e-03 1.527843940951e-02 0.0 
1.545039979447e-03 1.795963306426e-02 0.0 
-1.088516111160e-03 1.648942378462e-02 0.0 
-6.455970109229e-04 1.780308120400e-02 0.0 
-1.458014470650e-04 1.906473005218e-02 0.0 
3.827391866018e-04 2.014585617751e-02 0.0 
8.977091186928e-04 2.093815320575e-02 0.0 
1.300141646045e-03 2.130935363054e-02 0.0 
1.581038513905e-03 2.099913073944e-02 0.0 
1.682122287313e-03 2.024359757598e-02 0.0 
1.655174411766e-03 1.920501158993e-02 0.0 
0.000000000000e+00 2.390104262652e-02 0.0 
0.000000000000e+00 2.259572130760e-02 0.0 
0.000000000000e+00 2.122431275498e-02 0.0 
0.000000000000e+00 1.979359348673e-02 0.0 
8.810299897988e-05 1.829605339837e-02 0.0 
1.750206988547e-04 1.829889426161e-02 0.0 
2.635787793537e-04 1.830276840717e-02 0.0 
3.532400215178e-04 1.830632365347e-02 0.0 
4.438843882184e-04 1.831124836446e-02 0.0 
5.362462827350e-04 1.831340482183e-02 0.0 
6.312616669248e-04 1.831479159102e-02 0.0 
7.277412086282e-04 1.831142603829e-02 0.0 
8.291375694114e-04 1.830475445216e-02 0.0 
9.346393118079e-04 1.828852612899e-02 0.0 
1.044179670821e-03 1.826151356438e-02 0.0 
1.159244115634e-03 1.822075066491e-02 0.0 
1.280201557385e-03 1.816063454353e-02 0.0 
1.408156855334e-03 1.807503231155e-02 0.0 
-1.383395447565e-03 1.461309475726e-02 0.0 
-1.213124622673e-03 1.406095619843e-02 0.0 
-1.037766030603e-03 1.360398756389e-02 0.0 
-8.712378270861e-04 1.322970115022e-02 0.0 
-7.222404349818e-04 1.292504811294e-02 0.0 
-5.884407525727e-04 1.267421857528e-02 0.0 
-4.701838278685e-04 1.246845823071e-02 0.0 
-3.685931735280e-04 1.230071004230e-02 0.0 
-2.821795785444e-04 1.216514016539e-02 0.0 
-2.099343228998e-04 1.205750976917e-02 0.0 
-1.523782476003e-04 1.196994984717e-02 0.0 
-1.041730629936e-04 1.190383706978e-02 0.0 
-6.500882749449e-05 1.184902737342e-02 0.0 
-3.871027715263e-05 1.180590631172e-02 0.0 
-2.160444834054e-05 1.177457288840e-02 0.0 
-9.449095746294e-06 1.175166039535e-02 0.0 
-1.587578098761e-06 1.173486200849e-02 0.0 
2.683986458196e-06 1.172377248611e-02 0.0 
1.041382157174e-06 1.171643685083e-02 0.0 
9.704904870489e-05 2.390678973281e-02 0.0 
1.831318238530e-04 2.390696455171e-02 0.0 
2.690271768913e-04 2.391040623281e-02 0.0 
3.545005062335e-04 2.391440662894e-02 0.0 
4.386698192249e-04 2.391833430776e-02 0.0 
5.207948503028e-04 2.392133054731e-02 0.0 
6.001846643287e-04 2.392217775787e-02 0.0 
6.761792215428e-04 2.391932406367e-02 0.0 
7.480968238553e-04 2.391086452080e-02 0.0 
8.151785829682e-04 2.389438330117e-02 0.0 
8.766549449248e-04 2.386687835078e-02 0.0 
9.317995612079e-04 2.382461375583e-02 0.0 
9.799717086665e-04 2.376300929029e-02 0.0 
1.020652159760e-03 2.367649590001e-02 0.0 
1.053444917744e-03 2.355775854485e-02 0.0 
1.078778693973e-03 2.339769175699e-02 0.0 
1.098084872908e-03 2.318404134402e-02 0.0 
1.115516314087e-03 2.290116003880e-02 0.0 
1.139245600303e-03 2.252994877340e-02 0.0 
1.164784303434e-03 2.203423508023e-02 0.0 
1.474119035830e-03 2.142840659195e-02 0.0 
1.390756728831e-03 2.175201497682e-02 0.0 
1.312659787736e-03 2.199462028140e-02 0.0 
1.242342411786e-03 2.218005920735e-02 0.0 
1.174712793748e-03 2.231762170969e-02 0.0 
1.107967004060e-03 2.241950631814e-02 0.0 
1.040132604551e-03 2.249275336022e-02 0.0 
9.705666354662e-04 2.254430960182e-02 0.0 
8.989162324013e-04 2.257906471146e-02 0.0 
8.251009608813e-04 2.260102493594e-02 0.0 
7.491421716921e-04 2.261344664914e-02 0.0 
6.711189733863e-04 2.261899945405e-02 0.0 
5.913156323345e-04 2.261987586248e-02 0.0 
5.100153075972e-04 2.261779364674e-02 0.0 
4.274618766544e-04 2.261405493963e-02 0.0 
3.438620132528e-04 2.260971895320e-02 0.0 
2.593821441224e-04 2.260548707065e-02 0.0 
1.739629037871e-04 2.260137933719e-02 0.0 
8.717135138880e-05 2.259403786424e-02 0.0 
8.818018945789e-05 2.122989368604e-02 0.0 
1.768242283617e-04 2.123141794538e-02 0.0 
2.649615991004e-04 2.123582117804e-02 0.0 
3.528411961966e-04 2.124050484412e-02 0.0 
4.404507763809e-04 2.124521915004e-02 0.0 
5.280054793957e-04 2.124909659109e-02 0.0 
6.154758161117e-04 2.125108390615e-02 0.0 
7.031136523779e-04 2.124974022994e-02 0.0 
7.907023509546e-04 2.124331816965e-02 0.0 
8.785864235250e-04 2.122891727995e-02 0.0 
9.672088139752e-04 2.120358514986e-02 0.0 
1.056927487987e-03 2.116374359543e-02 0.0 
1.148497826684e-03 2.110464739883e-02 0.0 
1.243112588767e-03 2.102070405363e-02 0.0 
1.341486035010e-03 2.090247799351e-02 0.0 
1.447652077488e-03 2.074368030370e-02 0.0 
1.558047887137e-03 2.052816438957e-02 0.0 
1.526125632303e-03 1.938489747839e-02 0.0 
1.407222284421e-03 1.952254601293e-02 0.0 
1.291090103685e-03 1.962041235369e-02 0.0 
1.182073655841e-03 1.969240950916e-02 0.0 
1.078242521295e-03 1.974281049149e-02 0.0 
9.783669667698e-04 1.977664629445e-02 0.0 
8.818194789058e-04 1.979829568773e-02 0.0 
7.880242345308e-04 1.981021050185e-02 0.0 
6.960938113991e-04 1.981484438255e-02 0.0 
6.062210637410e-04 1.981603491239e-02 0.0 
5.174902484839e-04 1.981379370580e-02 0.0 
4.300764358476e-04 1.981027623014e-02 0.0 
3.431560157026e-04 1.980558546083e-02 0.0 
2.569484021038e-04 1.980126452794e-02 0.0 
1.711891771095e-04 1.979666669557e-02 0.0 
8.520759233477e-05 1.978984344536e-02 0.0 
-1.294942399049e-03 1.585807850872e-02 0.0 
-8.719490323514e-04 1.714375347488e-02 0.0 
-3.976775100476e-04 1.844973168359e-02 0.0 
1.215196844875e-04 1.963572216411e-02 0.0 
6.533823018167e-04 2.059235401349e-02 0.0 
1.132082154491e-03 2.119506890912e-02 0.0 
1.473780123529e-03 2.121989813190e-02 0.0 
1.654987814781e-03 2.066234407259e-02 0.0 
1.684355999465e-03 1.975341383899e-02 0.0 
1.610299380417e-03 1.860441948836e-02 0.0 
-2.639484935152e-04 1.687732718079e-02 0.0 
3.828582401439e-04 1.205073373725e-03 0.0 
-1.401721703580e-04 1.207108735898e-02 0.0 
-5.309186761142e-04 1.302189511478e-02 0.0 
2.467899588616e-04 1.126236138955e-03 0.0 
7.948533065054e-04 1.901932361857e-02 0.0 
7.968602420527e-05 8.716146442408e-03 0.0 
4.810602847662e-04 1.310582305646e-03 0.0 
1.646994775772e-03 2.010716697456e-02 0.0 
5.136957099907e-04 1.402526236632e-03 0.0 
1.896808659520e-03 1.938522089212e-02 0.0 
1.375781762851e-04 1.007309364734e-03 0.0 
-7.131108734626e-06 1.180022155396e-02 0.0 
4.895479172085e-04 1.561142551555e-03 0.0 
1.692754008928e-03 1.721098552141e-02 0.0 
5.392702925566e-05 1.060153670644e-02 0.0 
8.402879478686e-05 6.818062326483e-03 0.0 
4.377278465810e-04 1.719656572991e-03 0.0 
2.969420939607e-04 1.718626494707e-03 0.0 
8.316410706044e-05 1.781430025989e-03 0.0 
1.540137430709e-04 1.925897032613e-03 0.0 
2.080481288260e-04 1.709703199268e-03 0.0 
1.372709378259e-03 1.673483675492e-02 0.0 
8.900373398433e-04 1.688496823614e-02 0.0 
5.827313338216e-04 1.686617966831e-02 0.0 
5.635012448124e-05 1.075326699669e-02 0.0 
8.229155824324e-05 1.079861643202e-03 0.0 
-8.687873997282e-04 1.429303985931e-02 0.0 
1.374317053893e-05 1.172587120611e-02 0.0 
5.850480498737e-05 4.053758881010e-03 0.0 
2.992896209477e-04 1.696246577241e-02 0.0 
2.876616138292e-05 1.142227390036e-02 0.0 
4.116450271141e-04 1.948040288475e-03 0.0 
4.671719040807e-04 1.248856809941e-03 0.0 
5.047828474254e-04 1.462234525789e-03 0.0 
4.642822099008e-04 1.330071545684e-03 0.0 
3.111374634628e-04 1.110450187007e-03 0.0 
-3.345866312952e-04 1.251358669766e-02 0.0 
1.118219741400e-03 1.692457981049e-02 0.0 
2.226195680226e-04 1.264093607595e-03 0.0 
4.171492690830e-05 7.135682063172e-03 0.0 
-5.823774498026e-05 1.190343983049e-02 0.0 
7.106116559041e-05 9.789408927279e-03 0.0 
4.095785868685e-05 1.450217182111e-03 0.0 
1.290842564252e-03 1.965646533116e-02 0.0 
2.586156642224e-04 1.802412241988e-02 0.0 
1.850340080434e-03 2.000021014128e-02 0.0 
1.832624921200e-03 1.842170363993e-02 0.0 
-7.938074814184e-04 1.574757072507e-02 0.0 
6.849063707648e-05 1.407250506283e-02 0.0 
3.785021568259e-05 8.517238801566e-04 0.0 
6.224055375315e-06 1.170877162970e-02 0.0 
2.257014731555e-05 3.255991704865e-03 0.0 
1.623487157246e-03 1.650408635066e-02 0.0 
1.741840984359e-03 1.574442927095e-02 0.0 
1.602435401743e-03 1.513695760918e-02 0.0 
1.739055434200e-03 1.423786949069e-02 0.0 
1.600064860973e-03 1.345998054021e-02 0.0 
1.700040065238e-03 1.263937626296e-02 0.0 
1.855193431233e-03 1.339260205138e-02 0.0 
1.787700991152e-03 1.179933807390e-02 0.0 
1.955546880410e-03 1.254183323430e-02 0.0 
1.539149981035e-03 1.181974420526e-02 0.0 
1.856425310571e-03 1.094429944814e-02 0.0 
2.035150786885e-03 1.167449058157e-02 0.0 
1.902650772159e-03 1.008273817385e-02 0.0 
2.089042607256e-03 1.079700353334e-02 0.0 
2.202379135898e-03 1.234384986194e-02 0.0 
2.262136377126e-03 1.145442118391e-02 0.0 
2.353484392010e-03 1.294155721612e-02 0.0 
2.416445948285e-03 1.203675086131e-02 0.0 
2.291201223269e-03 1.057055553571e-02 0.0 
2.446234601820e-03 1.114336975174e-02 0.0 
2.547266522772e-03 1.254151048163e-02 0.0 
2.574688162582e-03 1.163937551153e-02 0.0 
2.649080872828e-03 1.296266003195e-02 0.0 
2.671669105531e-03 1.205202995792e-02 0.0 
2.717549297824e-03 1.330082216969e-02 0.0 
2.733774182236e-03 1.238769022342e-02 0.0 
2.659330832461e-03 1.117152695330e-02 0.0 
2.715685585894e-03 1.151402084140e-02 0.0 
2.757412302458e-03 1.264702376980e-02 0.0 
2.733770916574e-03 1.178608426122e-02 0.0 
2.740732048345e-03 1.283510878285e-02 0.0 
2.712578419501e-03 1.199227548913e-02 0.0 
2.679916296280e-03 1.096839700809e-02 0.0 
2.655814290563e-03 1.119902770727e-02 0.0 
2.652404426783e-03 1.214125334725e-02 0.0 
2.594740038749e-03 1.137771795517e-02 0.0 
2.555054511500e-03 1.224029739185e-02 0.0 
2.499031167677e-03 1.151064242730e-02 0.0 
2.423955412361e-03 1.229543615874e-02 0.0 
2.371208678092e-03 1.160499778511e-02 0.0 
2.421064765056e-03 1.082404900886e-02 0.0 
2.297920757915e-03 1.095599290832e-02 0.0 
2.215255151672e-03 1.166945613687e-02 0.0 
2.149106477486e-03 1.106247033996e-02 0.0 
2.206597955787e-03 1.035107211301e-02 0.0 
2.065812837159e-03 1.049949980437e-02 0.0 
2.100019437677e-03 9.785240011658e-03 0.0 
1.968243454598e-03 9.973742879140e-03 0.0 
1.907446969796e-03 1.062502792050e-02 0.0 
1.820005187433e-03 1.013906870347e-02 0.0 
1.859261432925e-03 9.478576833425e-03 0.0 
1.721050553863e-03 9.685777788105e-03 0.0 
1.658580401315e-03 1.029231522375e-02 0.0 
1.572148280081e-03 9.873511802679e-03 0.0 
1.614142667636e-03 9.253761034751e-03 0.0 
1.476318905953e-03 9.478762765845e-03 0.0 
1.416123447424e-03 1.005047391335e-02 0.0 
1.332528450799e-03 9.688700334699e-03 0.0 
1.374764411359e-03 9.094463023189e-03 0.0 
1.241573936337e-03 9.341665977152e-03 0.0 
1.185516754003e-03 9.889662480878e-03 0.0 
1.106397897463e-03 9.572208163457e-03 0.0 
1.145823882849e-03 8.999299814541e-03 0.0 
1.020807573978e-03 9.263325171540e-03 0.0 
1.045478627674e-03 8.663603542276e-03 0.0 
9.694105564595e-04 9.797616699080e-03 0.0 
8.951773170303e-04 9.514905497690e-03 0.0 
8.349233624703e-04 1.001625714382e-02 0.0 
7.716647480311e-04 9.755621281432e-03 0.0 
2.599065029901e-03 1.019336805066e-02 0.0 
7.076380636519e-04 1.022163605577e-02 0.0 
7.553421372499e-04 1.045208124145e-02 0.0 
6.531029634962e-04 9.984925776561e-03 0.0 
7.015362745637e-04 9.494371503358e-03 0.0 
5.878221547153e-04 1.041644201818e-02 0.0 
5.411276147180e-04 1.020213954064e-02 0.0 
4.773855467652e-04 1.060058299193e-02 0.0 
2.446507171278e-03 1.306778270938e-02 0.0 
2.287477145998e-03 9.697841833969e-03 0.0 
4.374131820972e-04 1.040744766152e-02 0.0 
3.779264797652e-04 1.077352404937e-02 0.0 
4.022656968612e-04 1.094301001085e-02 0.0 
3.098345783021e-04 1.108388210740e-02 0.0 
1.450764061381e-03 1.265390428133e-02 0.0 
1.372752387802e-03 1.095649201784e-02 0.0 
1.298583039926e-03 1.180165927291e-02 0.0 
1.203367828893e-03 1.006153403990e-02 0.0 
1.143159492713e-03 1.090241660778e-02 0.0 
2.899792628570e-04 1.093460958058e-02 0.0 
1.705937499167e-03 9.269140245561e-03 0.0 
1.250451259104e-03 9.196151225590e-03 0.0 
2.589947087674e-03 1.389913262123e-02 0.0 
2.736868402966e-03 1.372810766896e-02 0.0 
2.209752698789e-03 9.571856835537e-03 0.0 
4.864595858143e-04 9.984541455626e-03 0.0 
3.887157116180e-04 1.021022568253e-02 0.0 
4.249534887100e-04 9.762141690432e-03 0.0 
1.156044689338e-03 8.358547731538e-03 0.0 
1.042381491198e-03 7.998659363597e-03 0.0 
1.135294601072e-03 7.649661429220e-03 0.0 
1.010805510580e-03 7.266377176967e-03 0.0 
1.082984951040e-03 6.871962899067e-03 0.0 
9.505158207403e-04 6.464897006401e-03 0.0 
8.877672288730e-04 6.884117636698e-03 0.0 
8.218585753852e-04 6.056951629230e-03 0.0 
7.675416224320e-04 6.500072608279e-03 0.0 
9.990803256823e-04 6.024133896736e-03 0.0 
1.141091953491e-03 6.455863321166e-03 0.0 
6.983580591280e-04 5.646477910155e-03 0.0 
6.513999124529e-04 6.111594407525e-03 0.0 
5.812295641823e-04 5.230596453984e-03 0.0 
5.405935980880e-04 5.717100354348e-03 0.0 
5.926101250751e-04 6.556590305426e-03 0.0 
4.877130837437e-04 6.183106880991e-03 0.0 
5.246373616270e-04 6.981869923584e-03 0.0 
2.082246144056e-03 9.002579105921e-03 0.0 
2.158963768839e-03 8.722656103819e-03 0.0 
2.012586481641e-03 8.150142530164e-03 0.0 
2.053824743452e-03 7.802933507046e-03 0.0 
1.890902419511e-03 7.226595211241e-03 0.0 
1.894500597253e-03 6.812661336374e-03 0.0 
1.716937541797e-03 6.231057834817e-03 0.0 
1.721285530383e-03 6.674299156780e-03 0.0 
1.924452083440e-03 9.209176917611e-03 0.0 
2.036488179975e-03 1.170765286010e-02 0.0 
2.073976912094e-03 1.231752088833e-02 0.0 
1.868020284842e-03 1.228891718845e-02 0.0 
1.873008822265e-03 1.289955625279e-02 0.0 
1.643299170066e-03 1.280537950254e-02 0.0 
1.611234685594e-03 1.341947026631e-02 0.0 
1.361200124251e-03 1.326238017885e-02 0.0 
1.406614717808e-03 1.270248220267e-02 0.0 
1.109649659490e-03 1.310291993287e-02 0.0 
1.168761905273e-03 1.259943793252e-02 0.0 
8.643397102510e-04 1.294712974229e-02 0.0 
9.358265564607e-04 1.250299389160e-02 0.0 
2.614356971613e-03 1.032609210271e-02 0.0 
2.064195913981e-03 7.417875879712e-03 0.0 
1.865162589247e-03 6.358081408992e-03 0.0 
2.040434091903e-03 6.989706222573e-03 0.0 
3.182944688094e-04 1.123024023484e-02 0.0 
4.361144473757e-04 5.314709716723e-03 0.0 
1.030105570894e-03 5.559118507062e-03 0.0 
1.182080884517e-03 6.023404066108e-03 0.0 
1.534980771833e-03 5.669804505342e-03 0.0 
2.307172152918e-04 1.121322836879e-02 0.0 
1.288262335901e-03 1.388101582319e-02 0.0 
1.547807959085e-03 1.409815452387e-02 0.0 
1.035327989307e-03 9.119586480407e-03 0.0 
9.892143237664e-04 9.965298779882e-03 0.0 
1.040109238282e-03 5.068794981378e-03 0.0 
2.139703158734e-04 1.108284673940e-02 0.0 
7.305202407952e-04 5.159651710908e-03 0.0 
7.624932406074e-04 1.344674397291e-02 0.0 
3.879323237390e-04 5.801651584733e-03 0.0 
3.388954876211e-04 4.903865435658e-03 0.0 
8.140771561447e-04 7.281582889224e-03 0.0 
1.800279909485e-03 5.858270539781e-03 0.0 
1.984590710816e-03 6.532023383480e-03 0.0 
1.204532947035e-03 1.214379749361e-02 0.0 
9.838574023746e-04 1.210273973900e-02 0.0 
7.149183246380e-04 1.241566929517e-02 0.0 
7.826624481666e-04 1.205143236686e-02 0.0 
1.012303539675e-03 1.173253519633e-02 0.0 
8.176907064499e-04 1.174118433297e-02 0.0 
5.924105085597e-04 1.202246248470e-02 0.0 
6.387434643838e-04 1.175351185326e-02 0.0 
8.365705994553e-04 1.144791036608e-02 0.0 
6.687763077728e-04 1.149870625942e-02 0.0 
4.781447860953e-04 1.177146345866e-02 0.0 
5.182094580416e-04 1.155024963314e-02 0.0 
3.705007957393e-04 4.374140598767e-03 0.0 
5.163903482739e-04 1.323940359464e-02 0.0 
2.259533045141e-03 1.384474290286e-02 0.0 
8.852462540627e-04 4.588890052791e-03 0.0 
1.494161172587e-03 5.177771037131e-03 0.0 
8.714275041939e-04 8.142555541964e-03 0.0 
8.389144937127e-04 8.994847836060e-03 0.0 
9.327494151776e-04 1.080551507120e-02 0.0 
7.950507716927e-04 9.837342696093e-03 0.0 
6.946075535836e-04 7.993003661641e-03 0.0 
6.630079149730e-04 8.844059327494e-03 0.0 
7.425070596909e-04 1.066992523901e-02 0.0 
6.216128444336e-04 9.683800739257e-03 0.0 
6.833495898917e-04 1.148868534876e-02 0.0 
5.725095115139e-04 1.051038063296e-02 0.0 
5.075038441760e-04 8.673683136466e-03 0.0 
4.677492869831e-04 9.511504249886e-03 0.0 
5.174465562803e-04 1.132467928676e-02 0.0 
4.207888308301e-04 1.033696146729e-02 0.0 
4.576033120003e-04 1.212487747848e-02 0.0 
3.678717122995e-04 1.114916999292e-02 0.0 
3.311483415089e-04 9.330082871859e-03 0.0 
1.675950171069e-04 1.132118325406e-02 0.0 
1.548221648980e-03 6.142430185163e-03 0.0 
1.351536935370e-03 5.124377812555e-03 0.0 
3.347604002428e-04 1.000671925447e-02 0.0 
3.613401059770e-04 9.532842670245e-03 0.0 
4.506636588824e-04 9.254196339286e-03 0.0 
3.726895629512e-04 9.000517437133e-03 0.0 
2.837848107049e-04 1.016340880110e-02 0.0 
2.493008774138e-04 8.306541782673e-03 0.0 
1.184089966380e-03 1.456622498842e-02 0.0 
1.448922405235e-03 1.484805614508e-02 0.0 
8.895787796845e-04 7.280718926559e-03 0.0 
2.941043590958e-04 5.411059975863e-03 0.0 
3.297054288192e-04 6.267894988452e-03 0.0 
2.683757917797e-03 1.382633181105e-02 0.0 
2.649379948380e-03 1.475081873837e-02 0.0 
2.558158245204e-03 1.476102555256e-02 0.0 
2.483713791182e-03 1.573579730951e-02 0.0 
2.576245809429e-03 1.573122142300e-02 0.0 
2.349675882680e-03 1.565662492639e-02 0.0 
1.286990048149e-03 6.905251029091e-03 0.0 
4.019328717959e-04 7.642969039786e-03 0.0 
4.153393295248e-04 1.111085378331e-02 0.0 
3.135648301944e-04 1.137559576375e-02 0.0 
2.501218153119e-04 4.482853090536e-03 0.0 
1.696589502293e-03 7.084809563901e-03 0.0 
2.525795978119e-03 9.901472284390e-03 0.0 
2.453701750483e-03 9.077029909090e-03 0.0 
2.332485863803e-03 8.571801494949e-03 0.0 
2.232865460062e-03 7.767386045142e-03 0.0 
2.078131933828e-03 7.183072386189e-03 0.0 
1.949635161925e-03 6.396922486754e-03 0.0 
2.105960655317e-03 6.993499215401e-03 0.0 
1.696866179120e-03 5.303244745392e-03 0.0 
1.795020083755e-03 5.635223414284e-03 0.0 
3.152444804613e-04 1.196407672270e-02 0.0 
2.223831586761e-03 8.060800806117e-03 0.0 
8.388496939826e-04 1.117236949000e-02 0.0 
1.724184291723e-04 1.142837661602e-02 0.0 
3.342350874931e-04 1.179747970462e-02 0.0 
1.504659935425e-04 1.121588203590e-02 0.0 
1.871494197156e-04 1.094652011935e-02 0.0 
8.620773295593e-04 4.044475903132e-03 0.0 
1.760111614590e-03 5.735117694574e-03 0.0 
1.892106048967e-03 6.533155595783e-03 0.0 
2.368236622573e-03 1.676825598607e-02 0.0 
2.461401291310e-03 1.675899117415e-02 0.0 
1.499967940429e-03 4.654785746371e-03 0.0 
1.214306057129e-03 1.264699898545e-02 0.0 
7.984530950296e-04 1.244474279899e-02 0.0 
7.249553667563e-04 1.323906915795e-02 0.0 
1.122248157714e-04 1.144562507809e-02 0.0 
2.768335469057e-04 1.198865599031e-02 0.0 
5.589568269784e-04 6.965966902033e-03 0.0 
1.793108854880e-03 1.431059648044e-02 0.0 
1.701929797260e-03 1.511522705888e-02 0.0 
3.694033706303e-04 1.373403946363e-02 0.0 
1.288549791418e-04 1.347764614109e-02 0.0 
2.098325899098e-04 9.132554444964e-03 0.0 
1.786861822453e-04 7.263460861878e-03 0.0 
4.628306411005e-04 8.686308595351e-03 0.0 
3.774091034212e-04 8.405633275231e-03 0.0 
1.025513864452e-03 4.546656832531e-03 0.0 
3.869044984963e-04 1.160035806189e-02 0.0 
2.050232181645e-04 6.398042423381e-03 0.0 
1.532647922337e-03 6.579943421572e-03 0.0 
1.646029225082e-03 7.464739907524e-03 0.0 
2.850792262903e-04 9.300125377221e-03 0.0 
1.037960703300e-03 1.532795853244e-02 0.0 
7.625857023932e-04 1.497783182549e-02 0.0 
1.008989470778e-03 1.108463364836e-02 0.0 
5.401374776746e-04 1.134053916841e-02 0.0 
1.254284350396e-04 1.109732161995e-02 0.0 
8.105899437982e-04 3.467810961649e-03 0.0 
5.662002144362e-04 6.096813575994e-03 0.0 
1.954952130664e-03 6.250207023450e-03 0.0 
2.227600506043e-03 7.532713925690e-03 0.0 
1.618641717140e-03 4.902945405313e-03 0.0 
2.255517933598e-04 1.180782416572e-02 0.0 
7.069008583152e-04 3.542116765498e-03 0.0 
2.078223107160e-04 5.010380368962e-03 0.0 
1.555856383305e-03 5.080458959082e-03 0.0 
1.677310330265e-03 5.819143845805e-03 0.0 
2.018996249838e-03 1.450477455750e-02 0.0 
1.943238245094e-03 1.535250711519e-02 0.0 
1.572699490957e-03 1.599745842391e-02 0.0 
1.820432183017e-03 1.628046462881e-02 0.0 
2.001608431591e-03 1.409901383744e-02 0.0 
2.225310231537e-03 1.466065642706e-02 0.0 
2.387634910718e-03 1.438490850769e-02 0.0 
2.261730164758e-03 1.529958447658e-02 0.0 
2.363282042555e-03 1.578466749906e-02 0.0 
2.618901170838e-03 1.565498662288e-02 0.0 
2.499689222894e-03 1.667193457754e-02 0.0 
2.086917405904e-03 1.298468494806e-02 0.0 
2.293843638157e-03 9.328217081016e-03 0.0 
5.462748500067e-04 8.959666775743e-03 0.0 
6.273635570135e-04 7.324427741809e-03 0.0 
1.259782242393e-03 8.036394441245e-03 0.0 
4.234835317121e-04 6.783139532054e-03 0.0 
3.195878679989e-04 5.720310967856e-03 0.0 
5.522165426370e-04 1.308123845287e-02 0.0 
4.823520798425e-04 1.385494220614e-02 0.0 
2.288676629121e-04 1.146320776492e-02 0.0 
2.080879131769e-04 1.158679984686e-02 0.0 
9.422334545484e-04 8.330680980183e-03 0.0 
7.380828549000e-04 4.110108198606e-03 0.0 
7.186076627335e-04 6.266760078585e-03 0.0 
7.048005843515e-04 5.389224696675e-03 0.0 
8.899297580101e-04 6.408183901282e-03 0.0 
9.823460152898e-04 3.990368106628e-03 0.0 
1.841817244088e-03 1.172871451316e-02 0.0 
1.944236511225e-03 8.465777645441e-03 0.0 
2.897700322251e-04 1.305585313287e-02 0.0 
2.587928508948e-03 9.886262052937e-03 0.0 
1.391089218474e-04 1.164207105658e-02 0.0 
2.110101038745e-03 9.066336589990e-03 0.0 
1.712190772394e-04 4.051275830257e-03 0.0 
1.981748668718e-04 3.481120140869e-03 0.0 
1.353374695178e-03 4.033941417308e-03 0.0 
1.848255913487e-03 1.642180245134e-02 0.0 
2.483885868969e-03 9.126803832295e-03 0.0 
2.495068603508e-03 9.463209930898e-03 0.0 
2.207556244961e-03 1.670302485353e-02 0.0 
2.279124880829e-03 1.713671216683e-02 0.0 
2.440452073461e-03 1.618002287367e-02 0.0 
2.322714239977e-03 1.748408465014e-02 0.0 
9.839597308989e-04 1.079321036722e-02 0.0 
8.253391000217e-04 1.091488288000e-02 0.0 
1.361650947111e-03 4.181894105383e-03 0.0 
1.431140565156e-03 4.259878867860e-03 0.0 
1.320289231845e-03 4.336534682288e-03 0.0 
1.437786726420e-03 5.033342671940e-03 0.0 
1.140027017488e-03 3.382892270668e-03 0.0 
1.294610647445e-03 4.024397778398e-03 0.0 
1.508618036796e-04 1.080270707577e-02 0.0 
2.306269840176e-03 1.780704613746e-02 0.0 
4.298569550087e-04 5.034518127445e-03 0.0 
2.115217820393e-03 1.619655564925e-02 0.0 
5.668572101136e-04 3.067292695679e-03 0.0 
6.011119546177e-04 3.631121822238e-03 0.0 
-8.347727482416e-05 1.325444690818e-02 0.0 
9.156867998961e-05 1.285682206927e-02 0.0 
1.403683922945e-04 5.367233152061e-03 0.0 
1.401171140184e-03 1.694438559976e-02 0.0 
1.645302603226e-03 1.727300497202e-02 0.0 
1.135887623672e-03 1.656409782920e-02 0.0 
2.588416476135e-05 1.826371087319e-03 0.0 
1.292499651484e-04 1.697723701472e-02 0.0 
1.286017900068e-04 3.019016243929e-03 0.0 
2.615340134867e-03 1.548264030148e-02 0.0 
1.503051730083e-04 4.401051736068e-03 0.0 
2.359459170911e-03 8.411125263851e-03 0.0 
2.586255304276e-03 1.387638657537e-02 0.0 
1.195536366676e-03 5.053198192034e-03 0.0 
1.142079162975e-04 6.404465502690e-03 0.0 
8.417296952956e-05 4.235604607118e-03 0.0 
8.305468357861e-04 1.413571804764e-02 0.0 
7.489888909475e-04 1.493210241154e-02 0.0 
9.159296409322e-04 1.337436307312e-02 0.0 
6.354601722691e-04 1.400704112572e-02 0.0 
1.450750918544e-04 1.437975822254e-02 0.0 
3.063887021852e-04 6.592697930799e-03 0.0 
3.007938379920e-04 1.042268582273e-02 0.0 
2.479173079943e-04 1.019281110836e-02 0.0 
4.103909207913e-04 1.143124061224e-02 0.0 
5.423039332246e-04 1.114836852243e-02 0.0 
5.543618439106e-04 8.359392715995e-03 0.0 
6.444153685354e-04 8.652174911132e-03 0.0 
2.070294655947e-03 8.203207911210e-03 0.0 
1.870428320423e-03 7.518205366395e-03 0.0 
2.403015807875e-03 9.410964546642e-03 0.0 
1.491710558138e-03 6.986383075581e-03 0.0 
1.573468346582e-03 7.817093175156e-03 0.0 
1.715728985822e-03 8.275203836751e-03 0.0 
3.245004616446e-04 4.902082400740e-03 0.0 
2.159512415076e-04 3.644919368359e-03 0.0 
1.150036547068e-03 1.067621514225e-02 0.0 
1.187661011997e-03 1.100116117793e-02 0.0 
9.439412429337e-04 1.052757915195e-02 0.0 
4.119218543082e-04 4.182556438693e-03 0.0 
1.423460141932e-04 2.436487182287e-03 0.0 
2.113657373828e-04 2.928869595031e-03 0.0 
1.055420090186e-04 1.174061729847e-02 0.0 
1.738220379117e-04 1.170978051199e-02 0.0 
5.746394622896e-04 1.574043839052e-02 0.0 
2.860061118319e-04 1.533679393397e-02 0.0 
6.794272675137e-04 4.579849158073e-03 0.0 
8.711018067444e-04 5.543377075266e-03 0.0 
4.815375901543e-04 3.453088216339e-03 0.0 
8.991225801025e-05 1.098662415522e-02 0.0 
2.075376696393e-03 6.787972802313e-03 0.0 
7.468588350932e-04 2.917035193587e-03 0.0 
9.284426287355e-04 3.465554876456e-03 0.0 
5.452819853442e-04 2.239024445366e-03 0.0 
1.567792125087e-03 4.742955189354e-03 0.0 
1.186606624074e-03 3.425851304616e-03 0.0 
1.212046741504e-03 3.489726546889e-03 0.0 
-2.821819779868e-04 1.365058058148e-02 0.0 
6.365158137100e-05 5.053525272064e-03 0.0 
5.728197709516e-04 1.478114055324e-02 0.0 
-4.184070549798e-04 1.342492824896e-02 0.0 
4.948371353422e-04 1.558479815920e-02 0.0 
4.135298632804e-04 1.462573059257e-02 0.0 
4.279526202851e-04 1.636620782589e-02 0.0 
7.452968660293e-05 1.123407787039e-02 0.0 
9.437614761723e-04 1.530889880746e-02 0.0 
1.042041300387e-03 1.434459109898e-02 0.0 
3.295351318755e-05 1.186591097296e-02 0.0 
2.784821498025e-04 3.111551177561e-03 0.0 
5.894321291411e-05 1.176050665374e-02 0.0 
9.113623086154e-05 1.168254120608e-02 0.0 
4.345453941301e-04 2.549358073626e-03 0.0 
4.747446394138e-04 3.143705314532e-03 0.0 
3.156694940838e-04 2.049238744775e-03 0.0 
3.685416946801e-04 2.709664940674e-03 0.0 
4.952173172050e-04 3.734263347980e-03 0.0 
3.853458839620e-04 3.263712261081e-03 0.0 
6.711730503213e-04 1.582706643489e-02 0.0 
2.527400428498e-04 2.054135255026e-03 0.0 
2.854678319419e-04 2.762074662073e-03 0.0 
1.663361249218e-04 1.580732754341e-03 0.0 
2.125326234545e-03 1.844906452749e-02 0.0 
2.020460403582e-03 1.653705248919e-02 0.0 
1.848971206122e-03 1.758053337643e-02 0.0 
1.399685078539e-03 1.839359248366e-02 0.0 
9.735711971004e-04 3.186827063736e-03 0.0 
1.201134551593e-03 4.274787623377e-03 0.0 
1.295927420739e-04 4.578497755146e-03 0.0 
1.482096937564e-04 5.496491069469e-03 0.0 
3.415589448394e-04 1.550602830781e-02 0.0 
2.493095675078e-04 1.557299422725e-02 0.0 
2.719563620275e-04 1.405183040387e-02 0.0 
1.962186134463e-04 1.423820364928e-02 0.0 
2.102104413026e-04 1.270208958313e-02 0.0 
1.352754170654e-04 1.289963356772e-02 0.0 
1.602129290177e-04 1.131977710092e-02 0.0 
9.828290382998e-04 2.784491488558e-03 0.0 
8.841180317667e-04 1.750200375215e-02 0.0 
2.030958807520e-03 1.760444258885e-02 0.0 
9.196019176692e-04 2.745415316866e-03 0.0 
1.115178845126e-03 3.514691333624e-03 0.0 
2.339447513442e-03 1.770244678607e-02 0.0 
2.099589170616e-03 1.890537714635e-02 0.0 
4.693078001381e-04 2.285363511664e-03 0.0 
2.263609986947e-03 1.383522407067e-02 0.0 
2.093082225372e-04 1.990909157897e-03 0.0 
-9.698282100850e-04 1.484074443243e-02 0.0 
-4.232191270361e-04 1.450420585824e-02 0.0 
2.436402969984e-03 1.390531318848e-02 0.0 
2.488700382614e-03 1.648000256285e-02 0.0 
2.211550686081e-03 1.670487196520e-02 0.0 
2.073090340136e-03 1.774072557334e-02 0.0 
1.367657947315e-03 6.073840148442e-03 0.0 
1.187966213116e-04 1.184175186975e-02 0.0 
8.591273131593e-04 1.615486703211e-02 0.0 
2.329590957686e-04 1.114193823737e-02 0.0 
3.309037058550e-04 1.654531725449e-02 0.0 
6.794786189601e-05 5.001773042036e-03 0.0 
2.278859440732e-03 1.304618811877e-02 0.0 
2.701432228687e-03 1.450436481037e-02 0.0 
1.312452531650e-03 1.566702048830e-02 0.0 
2.172723368748e-03 1.552628309941e-02 0.0 
2.114897407733e-03 1.323078173070e-02 0.0 
1.874260920481e-03 1.494071863945e-02 0.0 
1.995903986128e-03 1.561503679969e-02 0.0 
2.260734652388e-03 1.232811548251e-02 0.0 
2.219069215357e-03 1.781555447390e-02 0.0 
1.862867057696e-03 1.889394723876e-02 0.0 
2.485261758235e-03 1.346398258931e-02 0.0 
1.082915053054e-03 7.390556570940e-03 0.0 
1.076199491109e-03 6.513217710008e-03 0.0 
8.350776584578e-04 4.727622987481e-03 0.0 
1.046539297604e-03 5.650833888907e-03 0.0 
1.287103707618e-03 7.454874916153e-03 0.0 
1.270009028943e-03 6.584153623493e-03 0.0 
9.913713430478e-04 4.813744635456e-03 0.0 
1.226578526929e-03 5.721854287867e-03 0.0 
8.328218779461e-04 3.605364707589e-03 0.0 
1.143491589012e-03 4.830135873366e-03 0.0 
1.463968436763e-03 6.632633647161e-03 0.0 
1.405426175797e-03 5.810674108851e-03 0.0 
1.082615994477e-03 4.209635047907e-03 0.0 
1.703103747854e-03 7.580237745797e-03 0.0 
7.294215051274e-04 2.080373065841e-03 0.0 
2.583578326146e-03 1.304041518999e-02 0.0 
-6.984610396898e-05 1.397102308166e-02 0.0 
-1.988271470168e-04 1.492773387005e-02 0.0 
2.663663351278e-03 1.424449226761e-02 0.0 
4.090668820922e-04 1.754685567704e-03 0.0 
3.355565858882e-04 1.758188286903e-03 0.0 
1.848103723429e-03 1.357442934134e-02 0.0 
4.988017662058e-04 1.507069904342e-03 0.0 
2.137027723517e-03 1.473897906229e-02 0.0 
1.021433380000e-03 1.366615820872e-02 0.0 
5.175134100064e-04 1.449842426606e-03 0.0 
1.279664890276e-03 8.324228420724e-03 0.0 
1.476984373696e-03 9.249756964559e-03 0.0 
1.433303457873e-03 1.010945129144e-02 0.0 
2.575668728753e-04 1.658769053197e-03 0.0 
9.990963157378e-04 1.258005541135e-02 0.0 
4.596122928895e-04 1.236831064212e-03 0.0 
2.207064052527e-03 8.408441374648e-03 0.0 
2.348466934656e-03 9.061880641386e-03 0.0 
2.413283112435e-03 9.979801066290e-03 0.0 
1.496221018918e-03 7.522321114884e-03 0.0 
4.043379102079e-04 1.208925736467e-03 0.0 
7.239004540729e-04 2.291772577909e-03 0.0 
6.743231193624e-04 2.253242775453e-03 0.0 
1.005616101800e-03 3.386109712068e-03 0.0 
3.491568973359e-04 1.163610009169e-03 0.0 
4.227453545909e-04 1.533180682124e-03 0.0 
4.239121442176e-04 1.432181547830e-03 0.0 
1.018684361334e-03 1.139811477327e-02 0.0 
1.211819873074e-03 1.134831515834e-02 0.0 
1.371910590146e-03 1.091597864977e-02 0.0 
1.409275886488e-03 1.130387805890e-02 0.0 
1.218026228846e-03 1.172934773281e-02 0.0 
1.428465967901e-03 1.172815544496e-02 0.0 
1.605419461210e-03 1.126210950529e-02 0.0 
1.427418583386e-03 1.219485102862e-02 0.0 
1.559436463463e-03 5.889509794436e-03 0.0 
2.853533260012e-04 1.090403050416e-03 0.0 
1.217830617572e-03 7.283040609412e-03 0.0 
1.353199929230e-03 7.707644917126e-03 0.0 
1.381924204102e-03 8.435828849763e-03 0.0 
6.261729798105e-04 9.228274637696e-03 0.0 
7.317279712895e-04 8.942498451701e-03 0.0 
7.423310426757e-04 8.328994691443e-03 0.0 
5.232723064674e-04 9.502567922494e-03 0.0 
2.353257797541e-03 8.287681962383e-03 0.0 
2.594518091676e-04 1.086977104883e-03 0.0 
1.798094292823e-03 7.954011238022e-03 0.0 
8.156247027458e-04 9.230576642937e-03 0.0 
1.243749529323e-03 1.683853780678e-02 0.0 
1.315926837584e-03 1.542382410865e-02 0.0 
1.446760283997e-03 1.531615537071e-02 0.0 
1.362795500718e-03 1.374365529757e-02 0.0 
1.170704525876e-03 1.529450643412e-02 0.0 
4.631320602533e-04 8.058807875646e-03 0.0 
3.718476683532e-04 7.751186397503e-03 0.0 
2.905319339543e-04 8.117705350434e-03 0.0 
2.813789616249e-04 7.435186598281e-03 0.0 
2.033346104668e-04 7.818931939671e-03 0.0 
2.100352140806e-04 8.452305537736e-03 0.0 
1.907693738037e-04 7.109583321908e-03 0.0 
1.176694260077e-04 7.591436798762e-03 0.0 
1.000876410494e-03 1.692067329103e-02 0.0 
-4.210857447955e-04 1.274451253615e-02 0.0 
-1.438558657636e-04 1.254666098697e-02 0.0 
-1.046793683752e-04 1.234662667721e-02 0.0 
7.859976816782e-05 1.233736514586e-02 0.0 
8.221632139893e-05 1.254124959970e-02 0.0 
3.311148927665e-04 1.226408983472e-02 0.0 
3.122888792362e-04 1.252403522560e-02 0.0 
-1.918460059596e-04 1.280599236073e-02 0.0 
-2.589614902302e-04 1.233358121008e-02 0.0 
-6.421768059894e-05 1.218781151129e-02 0.0 
-1.939873400154e-04 1.218721876282e-02 0.0 
-3.721804221613e-05 1.206455819185e-02 0.0 
1.298150931834e-04 1.200011860504e-02 0.0 
2.993301230259e-04 1.151462851068e-02 0.0 
7.314560879834e-05 1.226261174121e-03 0.0 
7.663684388981e-05 9.287552170356e-03 0.0 
1.456676979263e-04 9.549082155328e-03 0.0 
1.330579722789e-04 1.000337161086e-02 0.0 
2.148113210407e-04 9.770082271112e-03 0.0 
1.466579222955e-04 9.069470099112e-03 0.0 
6.309881677691e-05 1.022564824676e-02 0.0 
1.192628744804e-04 1.036864485454e-02 0.0 
1.170326058686e-05 1.171381439686e-02 0.0 
2.279064708954e-05 1.166177441103e-02 0.0 
8.646142869217e-06 1.166400234954e-02 0.0 
3.025584884209e-05 1.156709826380e-02 0.0 
4.834918893604e-05 1.157694190173e-02 0.0 
3.400452020186e-05 1.166935178999e-02 0.0 
4.238650582700e-05 1.168379371413e-02 0.0 
1.173018030265e-05 1.174439129386e-02 0.0 
4.801674792887e-05 1.170376802443e-02 0.0 
8.490978478015e-05 1.159692184825e-02 0.0 
5.424369627249e-06 1.176878873843e-02 0.0 
5.095010680378e-05 8.933729271648e-03 0.0 
9.707750431431e-05 8.007023944206e-03 0.0 
2.233599792767e-04 1.135567032996e-03 0.0 
7.751899934050e-04 1.682001120722e-02 0.0 
-9.218887634965e-05 1.197791562264e-02 0.0 
7.808322728664e-05 2.140023462346e-03 0.0 
1.197054470410e-04 1.776291247506e-03 0.0 
9.693122156307e-05 1.720856127644e-03 0.0 
4.270297466435e-05 2.975457059961e-03 0.0 
6.937346616986e-05 2.446135691699e-03 0.0 
4.169072493454e-05 2.080207442166e-03 0.0 
5.070193944716e-04 1.079126114332e-02 0.0 
7.748094118796e-04 3.929788187254e-03 0.0 
2.219593589459e-04 5.520165257458e-03 0.0 
9.113076414273e-04 1.428286329558e-02 0.0 
6.775859827606e-04 1.103375303060e-02 0.0 
2.349973319058e-04 5.889708767949e-03 0.0 
7.017678449284e-04 6.920230143919e-03 0.0 
2.792454475848e-04 3.941655905571e-03 0.0 
4.251717855128e-04 6.628910759288e-03 0.0 
4.715717874655e-04 4.806339719032e-03 0.0 
6.410088612938e-04 2.290773030275e-03 0.0 
1.008309792718e-04 1.132814461167e-02 0.0 
6.194534124262e-04 1.229218844367e-02 0.0 
3.978202008952e-04 1.291806768702e-02 0.0 
3.706698983947e-04 8.492776533203e-03 0.0 
3.436214959693e-04 1.060069626534e-02 0.0 
2.947920816916e-04 8.707965545273e-03 0.0 
2.368895043201e-04 1.133775125603e-02 0.0 
9.319113842885e-04 2.772626408714e-03 0.0 
2.491614517332e-03 1.484825571615e-02 0.0 
1.267245845961e-03 8.723510620172e-03 0.0 
5.912543162827e-04 9.745479489890e-03 0.0 
6.258581564040e-04 1.062527928162e-02 0.0 
6.817188123662e-04 1.125814217881e-02 0.0 
2.682872160364e-03 1.296233225695e-02 0.0 
9.311129819061e-04 8.954030986819e-03 0.0 
8.617765375245e-04 5.593040173887e-03 0.0 
2.825571441889e-04 7.455447105741e-03 0.0 
-1.874565393845e-05 1.183880276166e-02 0.0 
8.840284864267e-04 5.104353628932e-03 0.0 
9.280506113765e-04 7.640666918697e-03 0.0 
8.687052377212e-04 1.163480969089e-02 0.0 
1.681216054035e-03 5.752945742383e-03 0.0 
4.275828964264e-04 1.199238816169e-02 0.0 
5.387531292271e-04 7.827474143888e-03 0.0 
5.405202004169e-04 4.455694972162e-03 0.0 
1.127821127312e-03 1.348989264242e-02 0.0 
1.597924262287e-04 1.154067248571e-02 0.0 
6.514056711993e-04 1.404223803060e-02 0.0 
6.476431892679e-04 2.941733030529e-03 0.0 
1.067644081395e-03 8.257594316431e-03 0.0 
2.599952494826e-04 1.078067848250e-02 0.0 
1.981241151775e-03 9.253518026243e-03 0.0 
2.747796830089e-03 1.355260173651e-02 0.0 
1.774755209503e-03 1.783920414717e-02 0.0 
2.299624802760e-04 4.704775732289e-03 0.0 
2.574448355080e-03 1.045437568992e-02 0.0 
1.299792522055e-03 4.589264785956e-03 0.0 
1.857551313122e-03 7.605576340609e-03 0.0 
2.219352826529e-04 1.061393586367e-02 0.0 
6.145963908821e-04 4.189939780950e-03 0.0 
2.323535865226e-03 1.017696034676e-02 0.0 
4.344555457223e-04 5.924831684673e-03 0.0 
2.178664861137e-03 7.998942821175e-03 0.0 
1.980335706268e-03 1.114682499786e-02 0.0 
7.140844757103e-04 7.134696758211e-03 0.0 
1.500285925422e-03 8.840378700405e-03 0.0 
1.609233341775e-03 5.227554915088e-03 0.0 
2.570632127078e-03 1.520991898238e-02 0.0 
2.566892886463e-03 1.075728427345e-02 0.0 
2.116819244584e-03 9.936113191214e-03 0.0 
2.665990690343e-03 1.067920662188e-02 0.0 
1.601729664884e-04 6.351852196337e-03 0.0 
7.449723960455e-04 4.649035967248e-03 0.0 
6.333633661768e-04 1.281035316960e-02 0.0 
2.417386160232e-03 1.473192580266e-02 0.0 
1.073376684857e-03 1.174157531355e-02 0.0 
1.613788132602e-03 5.010847411569e-03 0.0 
3.073214698546e-04 3.955475359962e-03 0.0 
2.697477653609e-03 1.466764081897e-02 0.0 
6.070680161239e-04 4.724478029798e-03 0.0 
5.616611613490e-04 5.279507998612e-03 0.0 
8.379328879968e-04 8.643884202883e-03 0.0 
3.604789494660e-05 1.120044485603e-02 0.0 
4.895049312807e-04 1.463283305811e-02 0.0 
1.650529993327e-03 1.224614667768e-02 0.0 
2.514342988352e-03 1.066123665670e-02 0.0 
8.376642884951e-04 7.995097146413e-03 0.0 
5.990646055025e-04 3.514968039475e-03 0.0 
4.921287439013e-04 4.282648266773e-03 0.0 
1.200582832755e-03 5.554966432554e-03 0.0 
-5.193875226830e-04 1.629464407898e-02 0.0 
1.952494302515e-03 1.703178397660e-02 0.0 
3.868512668506e-04 3.831962845378e-03 0.0 
1.852616996226e-03 8.752302281165e-03 0.0 
1.414828981723e-03 4.630392897880e-03 0.0 
1.274543275149e-04 8.195007614965e-03 0.0 
9.477577611712e-04 2.739027605713e-03 0.0 
2.144181644976e-03 1.870158028465e-02 0.0 
2.920688395154e-04 3.371414403137e-03 0.0 
1.373708555560e-03 5.613306047380e-03 0.0 
2.068851385520e-03 1.371180440962e-02 0.0 
2.144412303196e-04 1.697823195171e-02 0.0 
1.848531772657e-04 2.116415535639e-03 0.0 
1.159954698581e-03 4.518979548738e-03 0.0 
2.539378785517e-03 9.515851797950e-03 0.0 
1.740516652553e-03 9.012983638589e-03 0.0 
1.879883393485e-03 1.894143701313e-02 0.0 
7.322554012168e-04 7.658398792266e-03 0.0 
2.442341727225e-03 1.027145236385e-02 0.0 
2.231049793480e-04 1.624313342930e-03 0.0 
1.113762139182e-03 4.037776771256e-03 0.0 
1.614392195584e-03 1.101272562834e-02 0.0 
6.450598204921e-04 8.018585563233e-03 0.0 
2.211576694084e-03 7.700938263921e-03 0.0 
6.679893554340e-05 1.158611867049e-02 0.0 
2.088846972487e-03 1.805760443292e-02 0.0 
5.471901609626e-04 7.700336755905e-03 0.0 
1.637037464757e-03 1.173371235520e-02 0.0 
1.614967679462e-03 8.568897988031e-03 0.0 
9.720458503573e-04 2.773961591210e-03 0.0 
4.505760839777e-04 7.374461488961e-03 0.0 
1.797485598242e-03 1.120938830302e-02 0.0 
3.558730121451e-04 7.040792931040e-03 0.0 
1.895875499031e-03 1.973595859388e-02 0.0 
1.669626977026e-03 1.012116623543e-02 0.0 
2.604125334194e-04 6.697613114373e-03 0.0 
2.250144155806e-03 8.842047187599e-03 0.0 
1.033418335679e-04 1.161089646786e-02 0.0 
2.437863700528e-03 8.745391232441e-03 0.0 
1.006523341400e-04 3.539763654299e-03 0.0 
8.926871961030e-04 1.027100831192e-02 0.0 
1.486240802594e-03 8.141983794731e-03 0.0 
1.498379108085e-03 8.382108998761e-03 0.0 
1.767270108690e-03 2.014728967910e-02 0.0 
1.432338492643e-03 7.362877247987e-03 0.0 
1.997475623917e-03 7.364155009514e-03 0.0 
2.312613350067e-03 8.007153783355e-03 0.0 
2.471261918693e-03 9.743940920636e-03 0.0 
1.337130463602e-03 6.499851142991e-03 0.0 
2.026710248671e-03 1.889042644691e-02 0.0 
5.237068907729e-04 1.098094915392e-02 0.0 
4.181712940614e-04 1.126995767389e-02 0.0 
1.735586255162e-03 1.073306288614e-02 0.0 
1.788075829392e-03 6.653505727257e-03 0.0 
5.947461056577e-05 1.144661796761e-02 0.0 
1.716011700623e-03 8.398152308587e-03 0.0 
2.688597455371e-04 1.166036077289e-02 0.0 
1.556001309350e-03 1.082874985009e-02 0.0 
1.882951840741e-03 5.980427306033e-03 0.0 
6.120095078188e-05 1.246033206564e-02 0.0 
1.492183710109e-03 1.042558105660e-02 0.0 
4.400992333908e-05 1.092784543752e-02 0.0 
1.321028352216e-03 1.055591949665e-02 0.0 
2.369694704274e-03 8.752527101390e-03 0.0 
1.258973648962e-03 1.021151930062e-02 0.0 
1.099903789456e-03 1.037101681060e-02 0.0 
1.531887239494e-04 3.617139177276e-03 0.0 
1.039316991069e-03 1.007833871106e-02 0.0 
2.017337715188e-05 1.725193769410e-03 0.0 
3.047273428058e-05 1.114951710075e-03 0.0 
8.079293245800e-05 1.577054266384e-02 0.0 
1.399527470486e-03 2.017196010962e-02 0.0 
-7.511994816412e-04 1.378277738881e-02 0.0 
1.721469731848e-03 1.846766623918e-02 0.0 
7.961938057903e-04 1.068008429287e-02 0.0 
1.916639016233e-03 8.370638787614e-03 0.0 
1.678881700400e-04 1.569608945351e-02 0.0 
6.555733256661e-04 1.082931382202e-02 0.0 
7.917807116691e-04 3.105701902193e-03 0.0 
4.780709005345e-04 1.285654516135e-03 0.0 
1.102043428887e-04 9.750982791967e-03 0.0 
1.233685607346e-03 4.104497442960e-03 0.0 
2.157531975303e-03 7.251385541899e-03 0.0 
3.137870256609e-05 5.247660240776e-03 0.0 
4.978953308168e-04 1.710151142353e-02 0.0 
-1.157399676188e-05 1.196481576787e-02 0.0 
7.717213689573e-05 5.904756484325e-03 0.0 
9.337943608472e-04 1.956360438107e-02 0.0 
1.131074276394e-03 1.795412570782e-02 0.0 
5.914408846941e-04 1.704074568272e-02 0.0 
1.733238799475e-04 1.047585312770e-02 0.0 
8.577342494576e-05 1.216729811701e-02 0.0 
5.391159290085e-04 1.853171686587e-02 0.0 
7.866191719614e-04 2.404284685451e-03 0.0 
8.392122587537e-04 1.565384627587e-02 0.0 
1.785022613024e-03 5.538930745313e-03 0.0 
1.641618212034e-06 1.744857669962e-02 0.0 
3.874816948084e-04 3.457752188805e-03 0.0 
9.416332929888e-04 2.626886939751e-03 0.0 
1.559167650296e-04 9.911209459972e-04 0.0 
1.405575025441e-03 4.137051850758e-03 0.0 
3.599363219209e-05 1.604904746853e-02 0.0 
1.243816115355e-03 1.413674575266e-02 0.0 
9.109069184987e-04 2.814209206530e-03 0.0 
1.489543143265e-04 8.275051121425e-03 0.0 
1.115790643249e-04 9.457924216676e-04 0.0 
1.058011996314e-03 1.576231269931e-02 0.0 
9.307661780866e-05 3.378133549202e-03 0.0 
4.305091782157e-04 1.269441550397e-02 0.0 
4.657442777756e-05 3.279076183002e-03 0.0 
1.646395808176e-03 6.714045162493e-03 0.0 
3.422572738359e-04 1.369732562968e-02 0.0 
1.497464661732e-03 1.407547990819e-02 0.0 
8.395365831904e-05 1.927721740586e-03 0.0 
6.924927043883e-04 3.219060088501e-03 0.0 
-2.404022684104e-04 1.549259058052e-02 0.0 
1.729082022308e-04 9.934556430157e-03 0.0 
2.898175614496e-04 9.771648641744e-03 0.0 
-3.066687375615e-04 1.312043330897e-02 0.0 
3.888811036035e-04 2.073443523926e-03 0.0 
1.325301862824e-03 5.070240259808e-03 0.0 
1.406247460576e-04 1.970490370361e-03 0.0 
1.258746578026e-05 1.157401688176e-02 0.0 
1.879807050820e-05 1.183082125692e-02 0.0 
4.388359006651e-04 1.946848958429e-03 0.0 
8.086334375825e-04 2.767259526713e-03 0.0 
5.546608936182e-04 1.227121133185e-02 0.0 
1.286073734761e-04 1.389994679617e-03 0.0 
-6.144270108486e-04 1.511008713915e-02 0.0 
6.793959869640e-04 1.726382748040e-02 0.0 
4.541667479074e-05 1.173442154728e-02 0.0 
8.898409528069e-05 9.536869594839e-04 0.0 
2.267984577244e-04 3.231676483392e-03 0.0 
2.055012841549e-04 9.315997323665e-03 0.0 
1.493942223085e-03 1.652756082491e-02 0.0 
1.025048360552e-04 1.071035456275e-02 0.0 
1.271470855208e-03 3.769656232109e-03 0.0 
8.962020745784e-05 1.193554478676e-02 0.0 
1.532766971906e-04 3.054117591990e-03 0.0 
5.140316988079e-04 1.938568635723e-03 0.0 
4.724650716383e-04 2.998451879336e-03 0.0 
3.311746452574e-04 9.200992927667e-04 0.0 
-4.790798755359e-04 1.403312629947e-02 0.0 
8.280840622739e-04 2.296270326795e-03 0.0 
8.763626369976e-04 3.080817242466e-03 0.0 
3.742018250179e-04 1.716660947475e-02 0.0 
5.996442860763e-04 3.181919608284e-03 0.0 
1.841829069025e-04 1.015189790482e-02 0.0 
1.299209715038e-04 1.148207362690e-02 0.0 
8.778250602859e-06 1.528806912695e-03 0.0 
1.828554917815e-06 1.170594633441e-02 0.0 
6.283236697158e-05 1.715802448842e-02 0.0 
1.217118876895e-05 9.092603739802e-04 0.0 
7.698426027947e-05 1.148412822558e-02 0.0 
1.329488273853e-04 1.456634438657e-02 0.0 
7.449838277864e-04 2.707702529303e-03 0.0 
5.519490868078e-05 8.084565708431e-03 0.0 
7.357268318486e-05 6.510629644620e-03 0.0 
2.392356245746e-04 1.214207434897e-02 0.0 
-6.930372375393e-04 1.335694228262e-02 0.0 
1.058726721368e-04 1.158433217520e-02 0.0 
8.290938468924e-04 2.312054711798e-03 0.0 
3.629099510150e-04 2.887566178075e-03 0.0 
2.738794578221e-04 1.276332959274e-02 0.0 
1.363954611229e-04 1.494754044404e-02 0.0 
1.041593303253e-03 3.812621926798e-03 0.0 
2.211072145788e-04 8.898534954220e-03 0.0 
1.227719857418e-03 3.853269587911e-03 0.0 
9.923580608735e-04 3.196493912888e-03 0.0 
-1.015029825016e-03 1.535557525740e-02 0.0 
4.990819468886e-05 7.411819362169e-03 0.0 
3.612799214991e-05 1.176714872297e-02 0.0 
2.570876999171e-04 1.823677746746e-03 0.0 
1.468931565669e-04 8.631366045751e-03 0.0 
1.360966976346e-03 2.166024974250e-02 0.0 
4.439489278241e-05 2.325654162614e-02 0.0 
1.560949484144e-03 2.098349889143e-02 0.0 
4.433495886502e-05 2.191902203135e-02 0.0 
1.594843257571e-03 2.000088452815e-02 0.0 
4.135232242675e-05 2.051753858363e-02 0.0 
1.525065116098e-03 1.881939579250e-02 0.0 
4.340619434373e-05 1.905190036099e-02 0.0 

VECTORS node_bounda_dof_materi_velocity_x float
1.000000000000e+00 0.0 0.0 
1.000000000000e+00 0.0 0.0 
1.000000000000e+00 0.0 0.0 
1.000000000000e+00 0.0 0.0 
1.000000000000e+00 0.0 0.0 
1.000000000000e+00 0.0 0.0 
1.000000000000e+00 0.0 0.0 
1.000000000000e+00 0.0 0.0 
1.000000000000e+00 0.0 0.0 
1.000000000000e+00 0.0 0.0 
1.000000000000e+00 0.0 0.0 
1.000000000000e+00 0.0 0.0 
1.000000000000e+00 0.0 0.0 
1.000000000000e+00 0.0 0.0 
1.000000000000e+00 0.0 0.0 
1.000000000000e+00 0.0 0.0 
1.000000000000e+00 0.0 0.0 
1.000000000000e+00 0.0 0.0 
1.000000000000e+00 0.0 0.0 
1.000000000000e+00 0.0 0.0 
1.000000000000e+00 0.0 0.0 
1.000000000000e+00 0.0 0.0 
1.000000000000e+00 0.0 0.0 
1.000000000000e+00 0.0 0.0 
1.000000000000e+00 0.0 0.0 
1.000000000000e+00 0.0 0.0 
1.000000000000e+00 0.0 0.0 
1.000000000000e+00 0.0 0.0 
1.000000000000e+00 0.0 0.0 
1.000000000000e+00 0.0 0.0 
1.000000000000e+00 0.0 0.0 
1.000000000000e+00 0.0 0.0 
1.000000000000e+00 0.0 0.0 
1.000000000000e+00 0.0 0.0 
1.000000000000e+00 0.0 0.0 
1.000000000000e+00 0.0 0.0 
1.000000000000e+00 0.0 0.0 
1.000000000000e+00 0.0 0.0 
1.000000000000e+00 0.0 0.0 
1.000000000000e+00 0.0 0.0 
1.000000000000e+00 0.0 0.0 
1.000000000000e+00 0.0 0.0 
1.000000000000e+00 0.0 0.0 
1.000000000000e+00 0.0 0.0 
1.000000000000e+00 0.0 0.0 
1.000000000000e+00 0.0 0.0 
1.000000000000e+00 0.0 0.0 
1.000000000000e+00 0.0 0.0 
1.000000000000e+00 0.0 0.0 
1.000000000000e+00 0.0 0.0 
1.000000000000e+00 0.0 0.0 
1.000000000000e+00 0.0 0.0 
1.000000000000e+00 0.0 0.0 
1.000000000000e+00 0.0 0.0 
1.000000000000e+00 0.0 0.0 
1.000000000000e+00 0.0 0.0 
1.000000000000e+00 0.0 0.0 
1.000000000000e+00 0.0 0.0 
1.000000000000e+00 0.0 0.0 
1.000000000000e+00 0.0 0.0 
1.000000000000e+00 0.0 0.0 
1.000000000000e+00 0.0 0.0 
1.000000000000e+00 0.0 0.0 
1.000000000000e+00 0.0 0.0 
1.000000000000e+00 0.0 0.0 
1.000000000000e+00 0.0 0.0 
1.000000000000e+00 0.0 0.0 
1.000000000000e+00 0.0 0.0 
1.000000000000e+00 0.0 0.0 
1.000000000000e+00 0.0 0.0 
1.000000000000e+00 0.0 0.0 
1.000000000000e+00 0.0 0.0 
1.000000000000e+00 0.0 0.0 
1.000000000000e+00 0.0 0.0 
1.000000000000e+00 0.0 0.0 
1.000000000000e+00 0.0 0.0 
1.000000000000e+00 0.0 0.0 
1.000000000000e+00 0.0 0.0 
1.000000000000e+00 0.0 0.0 
1.000000000000e+00 0.0 0.0 
1.000000000000e+00 0.0 0.0 
0.0 0.0 0.0 
0.0 0.0 0.0 
0.0 0.0 0.0 
0.0 0.0 0.0 
0.0 0.0 0.0 
0.0 0.0 0.0 
0.0 0.0 0.0 
0.0 0.0 0.0 
0.0 0.0 0.0 
0.0 0.0 0.0 
0.0 0.0 0.0 
1.000000000000e+00 0.0 0.0 
1.000000000000e+00 0.0 0.0 
1.000000000000e+00 0.0 0.0 
1.000000000000e+00 0.0 0.0 
0.0 0.0 0.0 
0.0 0.0 0.0 
0.0 0.0 0.0 
0.0 0.0 0.0 
0.0 0.0 0.0 
0.0 0.0 0.0 
0.0 0.0 0.0 
0.0 0.0 0.0 
0.0 0.0 0.0 
0.0 0.0 0.0 
0.0 0.0 0.0 
0.0 0.0 0.0 
0.0 0.0 0.0 
0.0 0.0 0.0 
0.0 0.0 0.0 
0.0 0.0 0.0 
0.0 0.0 0.0 
0.0 0.0 0.0 
0.0 0.0 0.0 
0.0 0.0 0.0 
0.0 0.0 0.0 
0.0 0.0 0.0 
0.0 0.0 0.0 
0.0 0.0 0.0 
0.0 0.0 0.0 
0.0 0.0 0.0 
0.0 0.0 0.0 
0.0 0.0 0.0 
0.0 0.0 0.0 
0.0 0.0 0.0 
0.0 0.0 0.0 
0.0 0.0 0.0 
0.0 0.0 0.0 
0.0 0.0 0.0 
0.0 0.0 0.0 
0.0 0.0 0.0 
0.0 0.0 0.0 
0.0 0.0 0.0 
0.0 0.0 0.0 
0.0 0.0 0.0 
0.0 0.0 0.0 
0.0 0.0 0.0 
0.0 0.0 0.0 
0.0 0.0 0.0 
0.0 0.0 0.0 
0.0 0.0 0.0 
0.0 0.0 0.0 
0.0 0.0 0.0 
0.0 0.0 0.0 
0.0 0.0 0.0 
0.0 0.0 0.0 
0.0 0.0 0.0 
0.0 0.0 0.0 
0.0 0.0 0.0 
0.0 0.0 0.0 
0.0 0.0 0.0 
0.0 0.0 0.0 
0.0 0.0 0.0 
0.0 0.0 0.0 
0.0 0.0 0.0 
0.0 0.0 0.0 
0.0 0.0 0.0 
0.0 0.0 0.0 
0.0 0.0 0.0 
0.0 0.0 0.0 
0.0 0.0 0.0 
0.0 0.0 0.0 
0.0 0.0 0.0 
0.0 0.0 0.0 
0.0 0.0 0.0 
0.0 0.0 0.0 
0.0 0.0 0.0 
0.0 0.0 0.0 
0.0 0.0 0.0 
0.0 0.0 0.0 
0.0 0.0 0.0 
0.0 0.0 0.0 
0.0 0.0 0.0 
0.0 0.0 0.0 
0.0 0.0 0.0 
0.0 0.0 0.0 
0.0 0.0 0.0 
0.0 0.0 0.0 
0.0 0.0 0.0 
0.0 0.0 0.0 
0.0 0.0 0.0 
0.0 0.0 0.0 
0.0 0.0 0.0 
0.0 0.0 0.0 
0.0 0.0 0.0 
0.0 0.0 0.0 
0.0 0.0 0.0 
0.0 0.0 0.0 
0.0 0.0 0.0 
0.0 0.0 0.0 
0.0 0.0 0.0 
0.0 0.0 0.0 
0.0 0.0 0.0 
0.0 0.0 0.0 
0.0 0.0 0.0 
0.0 0.0 0.0 
0.0 0.0 0.0 
0.0 0.0 0.0 
0.0 0.0 0.0 
0.0 0.0 0.0 
0.0 0.0 0.0 
0.0 0.0 0.0 
0.0 0.0 0.0 
0.0 0.0 0.0 
0.0 0.0 0.0 
0.0 0.0 0.0 
0.0 0.0 0.0 
0.0 0.0 0.0 
0.0 0.0 0.0 
0.0 0.0 0.0 
0.0 0.0 0.0 
0.0 0.0 0.0 
0.0 0.0 0.0 
0.0 0.0 0.0 
0.0 0.0 0.0 
0.0 0.0 0.0 
0.0 0.0 0.0 
0.0 0.0 0.0 
0.0 0.0 0.0 
0.0 0.0 0.0 
0.0 0.0 0.0 
0.0 0.0 0.0 
0.0 0.0 0.0 
0.0 0.0 0.0 
0.0 0.0 0.0 
0.0 0.0 0.0 
0.0 0.0 0.0 
0.0 0.0 0.0 
0.0 0.0 0.0 
0.0 0.0 0.0 
0.0 0.0 0.0 
0.0 0.0 0.0 
0.0 0.0 0.0 
0.0 0.0 0.0 
0.0 0.0 0.0 
0.0 0.0 0.0 
0.0 0.0 0.0 
0.0 0.0 0.0 
0.0 0.0 0.0 
0.0 0.0 0.0 
0.0 0.0 0.0 
0.0 0.0 0.0 
0.0 0.0 0.0 
0.0 0.0 0.0 
0.0 0.0 0.0 
0.0 0.0 0.0 
0.0 0.0 0.0 
0.0 0.0 0.0 
0.0 0.0 0.0 
0.0 0.0 0.0 
0.0 0.0 0.0 
0.0 0.0 0.0 
0.0 0.0 0.0 
0.0 0.0 0.0 
0.0 0.0 0.0 
0.0 0.0 0.0 
0.0 0.0 0.0 
0.0 0.0 0.0 
0.0 0.0 0.0 
0.0 0.0 0.0 
0.0 0.0 0.0 
0.0 0.0 0.0 
0.0 0.0 0.0 
0.0 0.0 0.0 
0.0 0.0 0.0 
0.0 0.0 0.0 
0.0 0.0 0.0 
0.0 0.0 0.0 
0.0 0.0 0.0 
0.0 0.0 0.0 
0.0 0.0 0.0 
0.0 0.0 0.0 
0.0 0.0 0.0 
0.0 0.0 0.0 
0.0 0.0 0.0 
0.0 0.0 0.0 
0.0 0.0 0.0 
0.0 0.0 0.0 
0.0 0.0 0.0 
0.0 0.0 0.0 
0.0 0.0 0.0 
0.0 0.0 0.0 
0.0 0.0 0.0 
0.0 0.0 0.0 
0.0 0.0 0.0 
0.0 0.0 0.0 
0.0 0.0 0.0 
0.0 0.0 0.0 
0.0 0.0 0.0 
0.0 0.0 0.0 
0.0 0.0 0.0 
0.0 0.0 0.0 
0.0 0.0 0.0 
0.0 0.0 0.0 
0.0 0.0 0.0 
0.0 0.0 0.0 
0.0 0.0 0.0 
0.0 0.0 0.0 
0.0 0.0 0.0 
0.0 0.0 0.0 
0.0 0.0 0.0 
0.0 0.0 0.0 
0.0 0.0 0.0 
0.0 0.0 0.0 
0.0 0.0 0.0 
0.0 0.0 0.0 
0.0 0.0 0.0 
0.0 0.0 0.0 
0.0 0.0 0.0 
0.0 0.0 0.0 
0.0 0.0 0.0 
0.0 0.0 0.0 
0.0 0.0 0.0 
0.0 0.0 0.0 
0.0 0.0 0.0 
0.0 0.0 0.0 
0.0 0.0 0.0 
0.0 0.0 0.0 
0.0 0.0 0.0 
0.0 0.0 0.0 
0.0 0.0 0.0 
0.0 0.0 0.0 
0.0 0.0 0.0 
0.0 0.0 0.0 
0.0 0.0 0.0 
0.0 0.0 0.0 
0.0 0.0 0.0 
0.0 0.0 0.0 
0.0 0.0 0.0 
0.0 0.0 0.0 
0.0 0.0 0.0 
0.0 0.0 0.0 
0.0 0.0 0.0 
0.0 0.0 0.0 
0.0 0.0 0.0 
0.0 0.0 0.0 
0.0 0.0 0.0 
0.0 0.0 0.0 
0.0 0.0 0.0 
0.0 0.0 0.0 
0.0 0.0 0.0 
0.0 0.0 0.0 
0.0 0.0 0.0 
0.0 0.0 0.0 
0.0 0.0 0.0 
0.0 0.0 0.0 
0.0 0.0 0.0 
0.0 0.0 0.0 
0.0 0.0 0.0 
0.0 0.0 0.0 
0.0 0.0 0.0 
0.0 0.0 0.0 
0.0 0.0 0.0 
0.0 0.0 0.0 
0.0 0.0 0.0 
0.0 0.0 0.0 
0.0 0.0 0.0 
0.0 0.0 0.0 
0.0 0.0 0.0 
0.0 0.0 0.0 
0.0 0.0 0.0 
0.0 0.0 0.0 
0.0 0.0 0.0 
0.0 0.0 0.0 
0.0 0.0 0.0 
0.0 0.0 0.0 
0.0 0.0 0.0 
0.0 0.0 0.0 
0.0 0.0 0.0 
0.0 0.0 0.0 
0.0 0.0 0.0 
0.0 0.0 0.0 
0.0 0.0 0.0 
0.0 0.0 0.0 
0.0 0.0 0.0 
0.0 0.0 0.0 
0.0 0.0 0.0 
0.0 0.0 0.0 
0.0 0.0 0.0 
0.0 0.0 0.0 
0.0 0.0 0.0 
0.0 0.0 0.0 
0.0 0.0 0.0 
0.0 0.0 0.0 
0.0 0.0 0.0 
0.0 0.0 0.0 
0.0 0.0 0.0 
0.0 0.0 0.0 
0.0 0.0 0.0 
0.0 0.0 0.0 
0.0 0.0 0.0 
0.0 0.0 0.0 
0.0 0.0 0.0 
0.0 0.0 0.0 
0.0 0.0 0.0 
0.0 0.0 0.0 
0.0 0.0 0.0 
0.0 0.0 0.0 
0.0 0.0 0.0 
0.0 0.0 0.0 
0.0 0.0 0.0 
0.0 0.0 0.0 
0.0 0.0 0.0 
0.0 0.0 0.0 
0.0 0.0 0.0 
0.0 0.0 0.0 
0.0 0.0 0.0 
0.0 0.0 0.0 
0.0 0.0 0.0 
0.0 0.0 0.0 
0.0 0.0 0.0 
0.0 0.0 0.0 
0.0 0.0 0.0 
0.0 0.0 0.0 
0.0 0.0 0.0 
0.0 0.0 0.0 
0.0 0.0 0.0 
0.0 0.0 0.0 
0.0 0.0 0.0 
0.0 0.0 0.0 
0.0 0.0 0.0 
0.0 0.0 0.0 
0.0 0.0 0.0 
0.0 0.0 0.0 
0.0 0.0 0.0 
0.0 0.0 0.0 
0.0 0.0 0.0 
0.0 0.0 0.0 
0.0 0.0 0.0 
0.0 0.0 0.0 
0.0 0.0 0.0 
0.0 0.0 0.0 
0.0 0.0 0.0 
0.0 0.0 0.0 
0.0 0.0 0.0 
0.0 0.0 0.0 
0.0 0.0 0.0 
0.0 0.0 0.0 
0.0 0.0 0.0 
0.0 0.0 0.0 
0.0 0.0 0.0 
0.0 0.0 0.0 
0.0 0.0 0.0 
0.0 0.0 0.0 
0.0 0.0 0.0 
0.0 0.0 0.0 
0.0 0.0 0.0 
0.0 0.0 0.0 
0.0 0.0 0.0 
0.0 0.0 0.0 
0.0 0.0 0.0 
0.0 0.0 0.0 
0.0 0.0 0.0 
0.0 0.0 0.0 
0.0 0.0 0.0 
0.0 0.0 0.0 
0.0 0.0 0.0 
0.0 0.0 0.0 
0.0 0.0 0.0 
0.0 0.0 0.0 
0.0 0.0 0.0 
0.0 0.0 0.0 
0.0 0.0 0.0 
0.0 0.0 0.0 
0.0 0.0 0.0 
0.0 0.0 0.0 
0.0 0.0 0.0 
0.0 0.0 0.0 
0.0 0.0 0.0 
0.0 0.0 0.0 
0.0 0.0 0.0 
0.0 0.0 0.0 
0.0 0.0 0.0 
0.0 0.0 0.0 
0.0 0.0 0.0 
0.0 0.0 0.0 
0.0 0.0 0.0 
0.0 0.0 0.0 
0.0 0.0 0.0 
0.0 0.0 0.0 
0.0 0.0 0.0 
0.0 0.0 0.0 
0.0 0.0 0.0 
0.0 0.0 0.0 
0.0 0.0 0.0 
0.0 0.0 0.0 
0.0 0.0 0.0 
0.0 0.0 0.0 
0.0 0.0 0.0 
0.0 0.0 0.0 
0.0 0.0 0.0 
0.0 0.0 0.0 
0.0 0.0 0.0 
0.0 0.0 0.0 
0.0 0.0 0.0 
0.0 0.0 0.0 
0.0 0.0 0.0 
0.0 0.0 0.0 
0.0 0.0 0.0 
0.0 0.0 0.0 
0.0 0.0 0.0 
0.0 0.0 0.0 
0.0 0.0 0.0 
0.0 0.0 0.0 
0.0 0.0 0.0 
0.0 0.0 0.0 
0.0 0.0 0.0 
0.0 0.0 0.0 
0.0 0.0 0.0 
0.0 0.0 0.0 
0.0 0.0 0.0 
0.0 0.0 0.0 
0.0 0.0 0.0 
0.0 0.0 0.0 
0.0 0.0 0.0 
0.0 0.0 0.0 
0.0 0.0 0.0 
0.0 0.0 0.0 
0.0 0.0 0.0 
0.0 0.0 0.0 
0.0 0.0 0.0 
0.0 0.0 0.0 
0.0 0.0 0.0 
0.0 0.0 0.0 
0.0 0.0 0.0 
0.0 0.0 0.0 
0.0 0.0 0.0 
0.0 0.0 0.0 
0.0 0.0 0.0 
0.0 0.0 0.0 
0.0 0.0 0.0 
0.0 0.0 0.0 
0.0 0.0 0.0 
0.0 0.0 0.0 
0.0 0.0 0.0 
0.0 0.0 0.0 
0.0 0.0 0.0 
0.0 0.0 0.0 
0.0 0.0 0.0 
0.0 0.0 0.0 
0.0 0.0 0.0 
0.0 0.0 0.0 
0.0 0.0 0.0 
0.0 0.0 0.0 
0.0 0.0 0.0 
0.0 0.0 0.0 
0.0 0.0 0.0 
0.0 0.0 0.0 
0.0 0.0 0.0 
0.0 0.0 0.0 
0.0 0.0 0.0 
0.0 0.0 0.0 
0.0 0.0 0.0 
0.0 0.0 0.0 
0.0 0.0 0.0 
0.0 0.0 0.0 
0.0 0.0 0.0 
0.0 0.0 0.0 
0.0 0.0 0.0 
0.0 0.0 0.0 
0.0 0.0 0.0 
0.0 0.0 0.0 
0.0 0.0 0.0 
0.0 0.0 0.0 
0.0 0.0 0.0 
0.0 0.0 0.0 
0.0 0.0 0.0 
0.0 0.0 0.0 
0.0 0.0 0.0 
0.0 0.0 0.0 
0.0 0.0 0.0 
0.0 0.0 0.0 
0.0 0.0 0.0 
0.0 0.0 0.0 
0.0 0.0 0.0 
0.0 0.0 0.0 
0.0 0.0 0.0 
0.0 0.0 0.0 
0.0 0.0 0.0 
0.0 0.0 0.0 
0.0 0.0 0.0 
0.0 0.0 0.0 
0.0 0.0 0.0 
0.0 0.0 0.0 
0.0 0.0 0.0 
0.0 0.0 0.0 
0.0 0.0 0.0 
0.0 0.0 0.0 
0.0 0.0 0.0 
0.0 0.0 0.0 
0.0 0.0 0.0 
0.0 0.0 0.0 
0.0 0.0 0.0 
0.0 0.0 0.0 
0.0 0.0 0.0 
0.0 0.0 0.0 
0.0 0.0 0.0 
0.0 0.0 0.0 
0.0 0.0 0.0 
0.0 0.0 0.0 
0.0 0.0 0.0 
0.0 0.0 0.0 
0.0 0.0 0.0 
0.0 0.0 0.0 
0.0 0.0 0.0 
0.0 0.0 0.0 
0.0 0.0 0.0 
0.0 0.0 0.0 
0.0 0.0 0.0 
0.0 0.0 0.0 
0.0 0.0 0.0 
0.0 0.0 0.0 
0.0 0.0 0.0 
0.0 0.0 0.0 
0.0 0.0 0.0 
0.0 0.0 0.0 
0.0 0.0 0.0 
0.0 0.0 0.0 
0.0 0.0 0.0 
0.0 0.0 0.0 
0.0 0.0 0.0 
0.0 0.0 0.0 
0.0 0.0 0.0 
0.0 0.0 0.0 
0.0 0.0 0.0 
0.0 0.0 0.0 
0.0 0.0 0.0 
0.0 0.0 0.0 
0.0 0.0 0.0 
0.0 0.0 0.0 
0.0 0.0 0.0 
0.0 0.0 0.0 
0.0 0.0 0.0 
0.0 0.0 0.0 
0.0 0.0 0.0 
0.0 0.0 0.0 
0.0 0.0 0.0 
0.0 0.0 0.0 
0.0 0.0 0.0 
0.0 0.0 0.0 
0.0 0.0 0.0 
0.0 0.0 0.0 
0.0 0.0 0.0 
0.0 0.0 0.0 
0.0 0.0 0.0 
0.0 0.0 0.0 
0.0 0.0 0.0 
0.0 0.0 0.0 
0.0 0.0 0.0 
0.0 0.0 0.0 
0.0 0.0 0.0 
0.0 0.0 0.0 
0.0 0.0 0.0 
0.0 0.0 0.0 
0.0 0.0 0.0 
0.0 0.0 0.0 
0.0 0.0 0.0 
0.0 0.0 0.0 
0.0 0.0 0.0 
0.0 0.0 0.0 
0.0 0.0 0.0 
0.0 0.0 0.0 
0.0 0.0 0.0 
0.0 0.0 0.0 
0.0 0.0 0.0 
0.0 0.0 0.0 
0.0 0.0 0.0 
0.0 0.0 0.0 
0.0 0.0 0.0 
0.0 0.0 0.0 
0.0 0.0 0.0 
0.0 0.0 0.0 
0.0 0.0 0.0 
0.0 0.0 0.0 
0.0 0.0 0.0 
0.0 0.0 0.0 
0.0 0.0 0.0 
0.0 0.0 0.0 
0.0 0.0 0.0 
0.0 0.0 0.0 
0.0 0.0 0.0 
0.0 0.0 0.0 
0.0 0.0 0.0 
0.0 0.0 0.0 
0.0 0.0 0.0 
0.0 0.0 0.0 
0.0 0.0 0.0 
0.0 0.0 0.0 
0.0 0.0 0.0 
0.0 0.0 0.0 
0.0 0.0 0.0 
0.0 0.0 0.0 
0.0 0.0 0.0 
0.0 0.0 0.0 
0.0 0.0 0.0 
0.0 0.0 0.0 
0.0 0.0 0.0 
0.0 0.0 0.0 
0.0 0.0 0.0 
0.0 0.0 0.0 
0.0 0.0 0.0 
0.0 0.0 0.0 
0.0 0.0 0.0 
0.0 0.0 0.0 
0.0 0.0 0.0 
0.0 0.0 0.0 
0.0 0.0 0.0 
0.0 0.0 0.0 
0.0 0.0 0.0 
0.0 0.0 0.0 
0.0 0.0 0.0 
0.0 0.0 0.0 
0.0 0.0 0.0 
0.0 0.0 0.0 
0.0 0.0 0.0 
0.0 0.0 0.0 
0.0 0.0 0.0 
0.0 0.0 0.0 
0.0 0.0 0.0 
0.0 0.0 0.0 
0.0 0.0 0.0 
0.0 0.0 0.0 
0.0 0.0 0.0 
0.0 0.0 0.0 
0.0 0.0 0.0 
0.0 0.0 0.0 
0.0 0.0 0.0 
0.0 0.0 0.0 
0.0 0.0 0.0 
0.0 0.0 0.0 
0.0 0.0 0.0 
0.0 0.0 0.0 
0.0 0.0 0.0 
0.0 0.0 0.0 
0.0 0.0 0.0 
0.0 0.0 0.0 
0.0 0.0 0.0 
0.0 0.0 0.0 
0.0 0.0 0.0 
0.0 0.0 0.0 
0.0 0.0 0.0 
0.0 0.0 0.0 
0.0 0.0 0.0 
0.0 0.0 0.0 
0.0 0.0 0.0 
0.0 0.0 0.0 
0.0 0.0 0.0 
0.0 0.0 0.0 
0.0 0.0 0.0 
0.0 0.0 0.0 
0.0 0.0 0.0 
0.0 0.0 0.0 
0.0 0.0 0.0 
0.0 0.0 0.0 
0.0 0.0 0.0 
0.0 0.0 0.0 
0.0 0.0 0.0 
0.0 0.0 0.0 
0.0 0.0 0.0 
0.0 0.0 0.0 
0.0 0.0 0.0 
0.0 0.0 0.0 
0.0 0.0 0.0 
0.0 0.0 0.0 
0.0 0.0 0.0 
0.0 0.0 0.0 
0.0 0.0 0.0 
0.0 0.0 0.0 
0.0 0.0 0.0 
0.0 0.0 0.0 
0.0 0.0 0.0 
0.0 0.0 0.0 
0.0 0.0 0.0 
0.0 0.0 0.0 
0.0 0.0 0.0 
0.0 0.0 0.0 
0.0 0.0 0.0 
0.0 0.0 0.0 
0.0 0.0 0.0 
0.0 0.0 0.0 
0.0 0.0 0.0 
0.0 0.0 0.0 
0.0 0.0 0.0 
0.0 0.0 0.0 
0.0 0.0 0.0 
0.0 0.0 0.0 
0.0 0.0 0.0 
0.0 0.0 0.0 
0.0 0.0 0.0 
0.0 0.0 0.0 
0.0 0.0 0.0 
0.0 0.0 0.0 
0.0 0.0 0.0 
0.0 0.0 0.0 
0.0 0.0 0.0 
0.0 0.0 0.0 
0.0 0.0 0.0 
0.0 0.0 0.0 
0.0 0.0 0.0 
0.0 0.0 0.0 
0.0 0.0 0.0 
0.0 0.0 0.0 
0.0 0.0 0.0 
0.0 0.0 0.0 
0.0 0.0 0.0 
0.0 0.0 0.0 
0.0 0.0 0.0 
0.0 0.0 0.0 
0.0 0.0 0.0 
0.0 0.0 0.0 
0.0 0.0 0.0 
0.0 0.0 0.0 
0.0 0.0 0.0 
0.0 0.0 0.0 
0.0 0.0 0.0 
0.0 0.0 0.0 
0.0 0.0 0.0 
0.0 0.0 0.0 
0.0 0.0 0.0 
0.0 0.0 0.0 
0.0 0.0 0.0 
0.0 0.0 0.0 
0.0 0.0 0.0 
0.0 0.0 0.0 
0.0 0.0 0.0 
0.0 0.0 0.0 
0.0 0.0 0.0 
0.0 0.0 0.0 
0.0 0.0 0.0 
0.0 0.0 0.0 
0.0 0.0 0.0 
0.0 0.0 0.0 
0.0 0.0 0.0 
0.0 0.0 0.0 
0.0 0.0 0.0 
0.0 0.0 0.0 
0.0 0.0 0.0 
0.0 0.0 0.0 
0.0 0.0 0.0 
0.0 0.0 0.0 
0.0 0.0 0.0 
0.0 0.0 0.0 
0.0 0.0 0.0 
0.0 0.0 0.0 
0.0 0.0 0.0 
0.0 0.0 0.0 
0.0 0.0 0.0 
0.0 0.0 0.0 
0.0 0.0 0.0 
0.0 0.0 0.0 
0.0 0.0 0.0 
0.0 0.0 0.0 
0.0 0.0 0.0 
0.0 0.0 0.0 
0.0 0.0 0.0 
0.0 0.0 0.0 
0.0 0.0 0.0 
0.0 0.0 0.0 
0.0 0.0 0.0 
0.0 0.0 0.0 
0.0 0.0 0.0 
0.0 0.0 0.0 
0.0 0.0 0.0 
0.0 0.0 0.0 
0.0 0.0 0.0 
0.0 0.0 0.0 
0.0 0.0 0.0 
0.0 0.0 0.0 
0.0 0.0 0.0 
0.0 0.0 0.0 
0.0 0.0 0.0 
0.0 0.0 0.0 
0.0 0.0 0.0 
0.0 0.0 0.0 
0.0 0.0 0.0 
0.0 0.0 0.0 
0.0 0.0 0.0 
0.0 0.0 0.0 
0.0 0.0 0.0 
0.0 0.0 0.0 
0.0 0.0 0.0 
0.0 0.0 0.0 
0.0 0.0 0.0 
0.0 0.0 0.0 
0.0 0.0 0.0 
0.0 0.0 0.0 
0.0 0.0 0.0 
0.0 0.0 0.0 
0.0 0.0 0.0 
0.0 0.0 0.0 
0.0 0.0 0.0 
0.0 0.0 0.0 
0.0 0.0 0.0 
0.0 0.0 0.0 
0.0 0.0 0.0 
0.0 0.0 0.0 
0.0 0.0 0.0 
0.0 0.0 0.0 
0.0 0.0 0.0 
0.0 0.0 0.0 
0.0 0.0 0.0 
0.0 0.0 0.0 
0.0 0.0 0.0 
0.0 0.0 0.0 
0.0 0.0 0.0 
0.0 0.0 0.0 
0.0 0.0 0.0 
0.0 0.0 0.0 
0.0 0.0 0.0 
0.0 0.0 0.0 
0.0 0.0 0.0 
0.0 0.0 0.0 
0.0 0.0 0.0 
0.0 0.0 0.0 
0.0 0.0 0.0 
0.0 0.0 0.0 
0.0 0.0 0.0 
0.0 0.0 0.0 
0.0 0.0 0.0 
0.0 0.0 0.0 
0.0 0.0 0.0 
0.0 0.0 0.0 
0.0 0.0 0.0 
0.0 0.0 0.0 
0.0 0.0 0.0 
0.0 0.0 0.0 
0.0 0.0 0.0 
0.0 0.0 0.0 
0.0 0.0 0.0 
0.0 0.0 0.0 
0.0 0.0 0.0 
0.0 0.0 0.0 
0.0 0.0 0.0 
0.0 0.0 0.0 
0.0 0.0 0.0 
0.0 0.0 0.0 
0.0 0.0 0.0 
0.0 0.0 0.0 
0.0 0.0 0.0 
0.0 0.0 0.0 
0.0 0.0 0.0 
0.0 0.0 0.0 
0.0 0.0 0.0 
0.0 0.0 0.0 
0.0 0.0 0.0 
0.0 0.0 0.0 
0.0 0.0 0.0 
0.0 0.0 0.0 
0.0 0.0 0.0 
0.0 0.0 0.0 
0.0 0.0 0.0 
0.0 0.0 0.0 
0.0 0.0 0.0 
0.0 0.0 0.0 
0.0 0.0 0.0 
0.0 0.0 0.0 
0.0 0.0 0.0 
0.0 0.0 0.0 
0.0 0.0 0.0 
0.0 0.0 0.0 
0.0 0.0 0.0 
0.0 0.0 0.0 
0.0 0.0 0.0 
0.0 0.0 0.0 
0.0 0.0 0.0 
0.0 0.0 0.0 
0.0 0.0 0.0 
0.0 0.0 0.0 
0.0 0.0 0.0 
0.0 0.0 0.0 
0.0 0.0 0.0 
0.0 0.0 0.0 
0.0 0.0 0.0 
0.0 0.0 0.0 
0.0 0.0 0.0 
0.0 0.0 0.0 
0.0 0.0 0.0 
0.0 0.0 0.0 
0.0 0.0 0.0 
0.0 0.0 0.0 
0.0 0.0 0.0 
0.0 0.0 0.0 
0.0 0.0 0.0 
0.0 0.0 0.0 
0.0 0.0 0.0 
0.0 0.0 0.0 
0.0 0.0 0.0 
0.0 0.0 0.0 
0.0 0.0 0.0 
0.0 0.0 0.0 
0.0 0.0 0.0 
0.0 0.0 0.0 
0.0 0.0 0.0 
0.0 0.0 0.0 
0.0 0.0 0.0 
0.0 0.0 0.0 
0.0 0.0 0.0 
0.0 0.0 0.0 
0.0 0.0 0.0 
0.0 0.0 0.0 
0.0 0.0 0.0 
0.0 0.0 0.0 
0.0 0.0 0.0 
0.0 0.0 0.0 
0.0 0.0 0.0 
0.0 0.0 0.0 
0.0 0.0 0.0 
0.0 0.0 0.0 
0.0 0.0 0.0 
0.0 0.0 0.0 
0.0 0.0 0.0 
0.0 0.0 0.0 
0.0 0.0 0.0 
0.0 0.0 0.0 
0.0 0.0 0.0 
0.0 0.0 0.0 
0.0 0.0 0.0 
0.0 0.0 0.0 
0.0 0.0 0.0 
0.0 0.0 0.0 
0.0 0.0 0.0 
0.0 0.0 0.0 
0.0 0.0 0.0 
0.0 0.0 0.0 
0.0 0.0 0.0 
0.0 0.0 0.0 
0.0 0.0 0.0 
0.0 0.0 0.0 
0.0 0.0 0.0 
0.0 0.0 0.0 
0.0 0.0 0.0 
0.0 0.0 0.0 
0.0 0.0 0.0 
0.0 0.0 0.0 
0.0 0.0 0.0 
0.0 0.0 0.0 
0.0 0.0 0.0 
0.0 0.0 0.0 
0.0 0.0 0.0 
0.0 0.0 0.0 
0.0 0.0 0.0 
0.0 0.0 0.0 
0.0 0.0 0.0 
0.0 0.0 0.0 
0.0 0.0 0.0 
0.0 0.0 0.0 
0.0 0.0 0.0 
0.0 0.0 0.0 
0.0 0.0 0.0 
0.0 0.0 0.0 
0.0 0.0 0.0 
0.0 0.0 0.0 
0.0 0.0 0.0 
0.0 0.0 0.0 
0.0 0.0 0.0 
0.0 0.0 0.0 
0.0 0.0 0.0 
0.0 0.0 0.0 
0.0 0.0 0.0 
0.0 0.0 0.0 
0.0 0.0 0.0 
0.0 0.0 0.0 
0.0 0.0 0.0 
0.0 0.0 0.0 
0.0 0.0 0.0 
0.0 0.0 0.0 
0.0 0.0 0.0 
0.0 0.0 0.0 
0.0 0.0 0.0 
0.0 0.0 0.0 
0.0 0.0 0.0 
0.0 0.0 0.0 
0.0 0.0 0.0 
0.0 0.0 0.0 
0.0 0.0 0.0 
0.0 0.0 0.0 
0.0 0.0 0.0 
0.0 0.0 0.0 
0.0 0.0 0.0 
0.0 0.0 0.0 
0.0 0.0 0.0 
0.0 0.0 0.0 
0.0 0.0 0.0 
0.0 0.0 0.0 
0.0 0.0 0.0 
0.0 0.0 0.0 
0.0 0.0 0.0 
0.0 0.0 0.0 
0.0 0.0 0.0 
0.0 0.0 0.0 
0.0 0.0 0.0 
0.0 0.0 0.0 
0.0 0.0 0.0 
0.0 0.0 0.0 
0.0 0.0 0.0 
0.0 0.0 0.0 
0.0 0.0 0.0 
0.0 0.0 0.0 
0.0 0.0 0.0 
0.0 0.0 0.0 
0.0 0.0 0.0 
0.0 0.0 0.0 
0.0 0.0 0.0 
0.0 0.0 0.0 
0.0 0.0 0.0 
0.0 0.0 0.0 
0.0 0.0 0.0 
0.0 0.0 0.0 
0.0 0.0 0.0 
0.0 0.0 0.0 
0.0 0.0 0.0 

VECTORS node_bounda_dof_materi_velocity_y float
0.0 0.0 0.0 
0.0 0.0 0.0 
0.0 1.000000000000e+00 0.0 
0.0 1.000000000000e+00 0.0 
0.0 0.0 0.0 
0.0 0.0 0.0 
0.0 0.0 0.0 
0.0 0.0 0.0 
0.0 0.0 0.0 
0.0 0.0 0.0 
0.0 0.0 0.0 
0.0 0.0 0.0 
0.0 0.0 0.0 
0.0 0.0 0.0 
0.0 0.0 0.0 
0.0 0.0 0.0 
0.0 0.0 0.0 
0.0 0.0 0.0 
0.0 0.0 0.0 
0.0 0.0 0.0 
0.0 0.0 0.0 
0.0 0.0 0.0 
0.0 0.0 0.0 
0.0 1.000000000000e+00 0.0 
0.0 1.000000000000e+00 0.0 
0.0 1.000000000000e+00 0.0 
0.0 1.000000000000e+00 0.0 
0.0 1.000000000000e+00 0.0 
0.0 1.000000000000e+00 0.0 
0.0 1.000000000000e+00 0.0 
0.0 1.000000000000e+00 0.0 
0.0 1.000000000000e+00 0.0 
0.0 1.000000000000e+00 0.0 
0.0 1.000000000000e+00 0.0 
0.0 1.000000000000e+00 0.0 
0.0 1.000000000000e+00 0.0 
0.0 1.000000000000e+00 0.0 
0.0 1.000000000000e+00 0.0 
0.0 1.000000000000e+00 0.0 
0.0 1.000000000000e+00 0.0 
0.0 1.000000000000e+00 0.0 
0.0 1.000000000000e+00 0.0 
0.0 1.000000000000e+00 0.0 
0.0 1.000000000000e+00 0.0 
0.0 1.000000000000e+00 0.0 
0.0 1.000000000000e+00 0.0 
0.0 1.000000000000e+00 0.0 
0.0 1.000000000000e+00 0.0 
0.0 1.000000000000e+00 0.0 
0.0 1.000000000000e+00 0.0 
0.0 1.000000000000e+00 0.0 
0.0 1.000000000000e+00 0.0 
0.0 1.000000000000e+00 0.0 
0.0 1.000000000000e+00 0.0 
0.0 1.000000000000e+00 0.0 
0.0 1.000000000000e+00 0.0 
0.0 1.000000000000e+00 0.0 
0.0 1.000000000000e+00 0.0 
0.0 1.000000000000e+00 0.0 
0.0 1.000000000000e+00 0.0 
0.0 1.000000000000e+00 0.0 
0.0 1.000000000000e+00 0.0 
0.0 1.000000000000e+00 0.0 
0.0 1.000000000000e+00 0.0 
0.0 1.000000000000e+00 0.0 
0.0 1.000000000000e+00 0.0 
0.0 1.000000000000e+00 0.0 
0.0 1.000000000000e+00 0.0 
0.0 1.000000000000e+00 0.0 
0.0 1.000000000000e+00 0.0 
0.0 1.000000000000e+00 0.0 
0.0 1.000000000000e+00 0.0 
0.0 0.0 0.0 
0.0 0.0 0.0 
0.0 0.0 0.0 
0.0 0.0 0.0 
0.0 0.0 0.0 
0.0 0.0 0.0 
0.0 0.0 0.0 
0.0 0.0 0.0 
0.0 0.0 0.0 
0.0 0.0 0.0 
0.0 0.0 0.0 
0.0 0.0 0.0 
0.0 0.0 0.0 
0.0 0.0 0.0 
0.0 0.0 0.0 
0.0 0.0 0.0 
0.0 0.0 0.0 
0.0 0.0 0.0 
0.0 0.0 0.0 
0.0 0.0 0.0 
0.0 0.0 0.0 
0.0 0.0 0.0 
0.0 0.0 0.0 
0.0 0.0 0.0 
0.0 0.0 0.0 
0.0 0.0 0.0 
0.0 0.0 0.0 
0.0 0.0 0.0 
0.0 0.0 0.0 
0.0 0.0 0.0 
0.0 0.0 0.0 
0.0 0.0 0.0 
0.0 0.0 0.0 
0.0 0.0 0.0 
0.0 0.0 0.0 
0.0 0.0 0.0 
0.0 0.0 0.0 
0.0 0.0 0.0 
0.0 0.0 0.0 
0.0 0.0 0.0 
0.0 0.0 0.0 
0.0 0.0 0.0 
0.0 0.0 0.0 
0.0 0.0 0.0 
0.0 0.0 0.0 
0.0 0.0 0.0 
0.0 0.0 0.0 
0.0 0.0 0.0 
0.0 0.0 0.0 
0.0 0.0 0.0 
0.0 0.0 0.0 
0.0 0.0 0.0 
0.0 0.0 0.0 
0.0 0.0 0.0 
0.0 0.0 0.0 
0.0 0.0 0.0 
0.0 0.0 0.0 
0.0 0.0 0.0 
0.0 0.0 0.0 
0.0 0.0 0.0 
0.0 0.0 0.0 
0.0 0.0 0.0 
0.0 0.0 0.0 
0.0 0.0 0.0 
0.0 0.0 0.0 
0.0 0.0 0.0 
0.0 0.0 0.0 
0.0 0.0 0.0 
0.0 0.0 0.0 
0.0 0.0 0.0 
0.0 0.0 0.0 
0.0 0.0 0.0 
0.0 0.0 0.0 
0.0 0.0 0.0 
0.0 0.0 0.0 
0.0 0.0 0.0 
0.0 0.0 0.0 
0.0 0.0 0.0 
0.0 0.0 0.0 
0.0 0.0 0.0 
0.0 0.0 0.0 
0.0 0.0 0.0 
0.0 0.0 0.0 
0.0 0.0 0.0 
0.0 0.0 0.0 
0.0 0.0 0.0 
0.0 0.0 0.0 
0.0 0.0 0.0 
0.0 0.0 0.0 
0.0 0.0 0.0 
0.0 0.0 0.0 
0.0 0.0 0.0 
0.0 0.0 0.0 
0.0 0.0 0.0 
0.0 0.0 0.0 
0.0 0.0 0.0 
0.0 0.0 0.0 
0.0 0.0 0.0 
0.0 0.0 0.0 
0.0 0.0 0.0 
0.0 0.0 0.0 
0.0 0.0 0.0 
0.0 0.0 0.0 
0.0 0.0 0.0 
0.0 0.0 0.0 
0.0 0.0 0.0 
0.0 0.0 0.0 
0.0 0.0 0.0 
0.0 0.0 0.0 
0.0 0.0 0.0 
0.0 0.0 0.0 
0.0 0.0 0.0 
0.0 0.0 0.0 
0.0 0.0 0.0 
0.0 0.0 0.0 
0.0 0.0 0.0 
0.0 0.0 0.0 
0.0 0.0 0.0 
0.0 0.0 0.0 
0.0 0.0 0.0 
0.0 0.0 0.0 
0.0 0.0 0.0 
0.0 0.0 0.0 
0.0 0.0 0.0 
0.0 0.0 0.0 
0.0 0.0 0.0 
0.0 0.0 0.0 
0.0 0.0 0.0 
0.0 0.0 0.0 
0.0 0.0 0.0 
0.0 0.0 0.0 
0.0 0.0 0.0 
0.0 0.0 0.0 
0.0 0.0 0.0 
0.0 0.0 0.0 
0.0 0.0 0.0 
0.0 0.0 0.0 
0.0 0.0 0.0 
0.0 0.0 0.0 
0.0 0.0 0.0 
0.0 0.0 0.0 
0.0 0.0 0.0 
0.0 0.0 0.0 
0.0 0.0 0.0 
0.0 0.0 0.0 
0.0 0.0 0.0 
0.0 0.0 0.0 
0.0 0.0 0.0 
0.0 0.0 0.0 
0.0 0.0 0.0 
0.0 0.0 0.0 
0.0 0.0 0.0 
0.0 0.0 0.0 
0.0 0.0 0.0 
0.0 0.0 0.0 
0.0 0.0 0.0 
0.0 0.0 0.0 
0.0 0.0 0.0 
0.0 0.0 0.0 
0.0 0.0 0.0 
0.0 0.0 0.0 
0.0 0.0 0.0 
0.0 0.0 0.0 
0.0 0.0 0.0 
0.0 0.0 0.0 
0.0 0.0 0.0 
0.0 0.0 0.0 
0.0 0.0 0.0 
0.0 0.0 0.0 
0.0 0.0 0.0 
0.0 0.0 0.0 
0.0 0.0 0.0 
0.0 0.0 0.0 
0.0 0.0 0.0 
0.0 0.0 0.0 
0.0 0.0 0.0 
0.0 0.0 0.0 
0.0 0.0 0.0 
0.0 0.0 0.0 
0.0 0.0 0.0 
0.0 0.0 0.0 
0.0 0.0 0.0 
0.0 0.0 0.0 
0.0 0.0 0.0 
0.0 0.0 0.0 
0.0 0.0 0.0 
0.0 0.0 0.0 
0.0 0.0 0.0 
0.0 0.0 0.0 
0.0 0.0 0.0 
0.0 0.0 0.0 
0.0 0.0 0.0 
0.0 0.0 0.0 
0.0 0.0 0.0 
0.0 0.0 0.0 
0.0 0.0 0.0 
0.0 0.0 0.0 
0.0 0.0 0.0 
0.0 0.0 0.0 
0.0 0.0 0.0 
0.0 0.0 0.0 
0.0 0.0 0.0 
0.0 0.0 0.0 
0.0 0.0 0.0 
0.0 0.0 0.0 
0.0 0.0 0.0 
0.0 0.0 0.0 
0.0 0.0 0.0 
0.0 0.0 0.0 
0.0 0.0 0.0 
0.0 0.0 0.0 
0.0 0.0 0.0 
0.0 0.0 0.0 
0.0 0.0 0.0 
0.0 0.0 0.0 
0.0 0.0 0.0 
0.0 0.0 0.0 
0.0 0.0 0.0 
0.0 0.0 0.0 
0.0 0.0 0.0 
0.0 0.0 0.0 
0.0 0.0 0.0 
0.0 0.0 0.0 
0.0 0.0 0.0 
0.0 0.0 0.0 
0.0 0.0 0.0 
0.0 0.0 0.0 
0.0 0.0 0.0 
0.0 0.0 0.0 
0.0 0.0 0.0 
0.0 0.0 0.0 
0.0 0.0 0.0 
0.0 0.0 0.0 
0.0 0.0 0.0 
0.0 0.0 0.0 
0.0 0.0 0.0 
0.0 0.0 0.0 
0.0 0.0 0.0 
0.0 0.0 0.0 
0.0 0.0 0.0 
0.0 0.0 0.0 
0.0 0.0 0.0 
0.0 0.0 0.0 
0.0 0.0 0.0 
0.0 0.0 0.0 
0.0 0.0 0.0 
0.0 0.0 0.0 
0.0 0.0 0.0 
0.0 0.0 0.0 
0.0 0.0 0.0 
0.0 0.0 0.0 
0.0 0.0 0.0 
0.0 0.0 0.0 
0.0 0.0 0.0 
0.0 0.0 0.0 
0.0 0.0 0.0 
0.0 0.0 0.0 
0.0 0.0 0.0 
0.0 0.0 0.0 
0.0 0.0 0.0 
0.0 0.0 0.0 
0.0 0.0 0.0 
0.0 0.0 0.0 
0.0 0.0 0.0 
0.0 0.0 0.0 
0.0 0.0 0.0 
0.0 0.0 0.0 
0.0 0.0 0.0 
0.0 0.0 0.0 
0.0 0.0 0.0 
0.0 0.0 0.0 
0.0 0.0 0.0 
0.0 0.0 0.0 
0.0 0.0 0.0 
0.0 0.0 0.0 
0.0 0.0 0.0 
0.0 0.0 0.0 
0.0 0.0 0.0 
0.0 0.0 0.0 
0.0 0.0 0.0 
0.0 0.0 0.0 
0.0 0.0 0.0 
0.0 0.0 0.0 
0.0 0.0 0.0 
0.0 0.0 0.0 
0.0 0.0 0.0 
0.0 0.0 0.0 
0.0 0.0 0.0 
0.0 0.0 0.0 
0.0 0.0 0.0 
0.0 0.0 0.0 
0.0 0.0 0.0 
0.0 0.0 0.0 
0.0 0.0 0.0 
0.0 0.0 0.0 
0.0 0.0 0.0 
0.0 0.0 0.0 
0.0 0.0 0.0 
0.0 0.0 0.0 
0.0 0.0 0.0 
0.0 0.0 0.0 
0.0 0.0 0.0 
0.0 0.0 0.0 
0.0 0.0 0.0 
0.0 0.0 0.0 
0.0 0.0 0.0 
0.0 0.0 0.0 
0.0 0.0 0.0 
0.0 0.0 0.0 
0.0 0.0 0.0 
0.0 0.0 0.0 
0.0 0.0 0.0 
0.0 0.0 0.0 
0.0 0.0 0.0 
0.0 0.0 0.0 
0.0 0.0 0.0 
0.0 0.0 0.0 
0.0 0.0 0.0 
0.0 0.0 0.0 
0.0 0.0 0.0 
0.0 0.0 0.0 
0.0 0.0 0.0 
0.0 0.0 0.0 
0.0 0.0 0.0 
0.0 0.0 0.0 
0.0 0.0 0.0 
0.0 0.0 0.0 
0.0 0.0 0.0 
0.0 0.0 0.0 
0.0 0.0 0.0 
0.0 0.0 0.0 
0.0 0.0 0.0 
0.0 0.0 0.0 
0.0 0.0 0.0 
0.0 0.0 0.0 
0.0 0.0 0.0 
0.0 0.0 0.0 
0.0 0.0 0.0 
0.0 0.0 0.0 
0.0 0.0 0.0 
0.0 0.0 0.0 
0.0 0.0 0.0 
0.0 0.0 0.0 
0.0 0.0 0.0 
0.0 0.0 0.0 
0.0 0.0 0.0 
0.0 0.0 0.0 
0.0 0.0 0.0 
0.0 0.0 0.0 
0.0 0.0 0.0 
0.0 0.0 0.0 
0.0 0.0 0.0 
0.0 0.0 0.0 
0.0 0.0 0.0 
0.0 0.0 0.0 
0.0 0.0 0.0 
0.0 0.0 0.0 
0.0 0.0 0.0 
0.0 0.0 0.0 
0.0 0.0 0.0 
0.0 0.0 0.0 
0.0 0.0 0.0 
0.0 0.0 0.0 
0.0 0.0 0.0 
0.0 0.0 0.0 
0.0 0.0 0.0 
0.0 0.0 0.0 
0.0 0.0 0.0 
0.0 0.0 0.0 
0.0 0.0 0.0 
0.0 0.0 0.0 
0.0 0.0 0.0 
0.0 0.0 0.0 
0.0 0.0 0.0 
0.0 0.0 0.0 
0.0 0.0 0.0 
0.0 0.0 0.0 
0.0 0.0 0.0 
0.0 0.0 0.0 
0.0 0.0 0.0 
0.0 0.0 0.0 
0.0 0.0 0.0 
0.0 0.0 0.0 
0.0 0.0 0.0 
0.0 0.0 0.0 
0.0 0.0 0.0 
0.0 0.0 0.0 
0.0 0.0 0.0 
0.0 0.0 0.0 
0.0 0.0 0.0 
0.0 0.0 0.0 
0.0 0.0 0.0 
0.0 0.0 0.0 
0.0 0.0 0.0 
0.0 0.0 0.0 
0.0 0.0 0.0 
0.0 0.0 0.0 
0.0 0.0 0.0 
0.0 0.0 0.0 
0.0 0.0 0.0 
0.0 0.0 0.0 
0.0 0.0 0.0 
0.0 0.0 0.0 
0.0 0.0 0.0 
0.0 0.0 0.0 
0.0 0.0 0.0 
0.0 0.0 0.0 
0.0 0.0 0.0 
0.0 0.0 0.0 
0.0 0.0 0.0 
0.0 0.0 0.0 
0.0 0.0 0.0 
0.0 0.0 0.0 
0.0 0.0 0.0 
0.0 0.0 0.0 
0.0 0.0 0.0 
0.0 0.0 0.0 
0.0 0.0 0.0 
0.0 0.0 0.0 
0.0 0.0 0.0 
0.0 0.0 0.0 
0.0 0.0 0.0 
0.0 0.0 0.0 
0.0 0.0 0.0 
0.0 0.0 0.0 
0.0 0.0 0.0 
0.0 0.0 0.0 
0.0 0.0 0.0 
0.0 0.0 0.0 
0.0 0.0 0.0 
0.0 0.0 0.0 
0.0 0.0 0.0 
0.0 0.0 0.0 
0.0 0.0 0.0 
0.0 0.0 0.0 
0.0 0.0 0.0 
0.0 0.0 0.0 
0.0 0.0 0.0 
0.0 0.0 0.0 
0.0 0.0 0.0 
0.0 0.0 0.0 
0.0 0.0 0.0 
0.0 0.0 0.0 
0.0 0.0 0.0 
0.0 0.0 0.0 
0.0 0.0 0.0 
0.0 0.0 0.0 
0.0 0.0 0.0 
0.0 0.0 0.0 
0.0 0.0 0.0 
0.0 0.0 0.0 
0.0 0.0 0.0 
0.0 0.0 0.0 
0.0 0.0 0.0 
0.0 0.0 0.0 
0.0 0.0 0.0 
0.0 0.0 0.0 
0.0 0.0 0.0 
0.0 0.0 0.0 
0.0 0.0 0.0 
0.0 0.0 0.0 
0.0 0.0 0.0 
0.0 0.0 0.0 
0.0 0.0 0.0 
0.0 0.0 0.0 
0.0 0.0 0.0 
0.0 0.0 0.0 
0.0 0.0 0.0 
0.0 0.0 0.0 
0.0 0.0 0.0 
0.0 0.0 0.0 
0.0 0.0 0.0 
0.0 0.0 0.0 
0.0 0.0 0.0 
0.0 0.0 0.0 
0.0 0.0 0.0 
0.0 0.0 0.0 
0.0 0.0 0.0 
0.0 0.0 0.0 
0.0 0.0 0.0 
0.0 0.0 0.0 
0.0 0.0 0.0 
0.0 0.0 0.0 
0.0 0.0 0.0 
0.0 0.0 0.0 
0.0 0.0 0.0 
0.0 0.0 0.0 
0.0 0.0 0.0 
0.0 0.0 0.0 
0.0 0.0 0.0 
0.0 0.0 0.0 
0.0 0.0 0.0 
0.0 0.0 0.0 
0.0 0.0 0.0 
0.0 0.0 0.0 
0.0 0.0 0.0 
0.0 0.0 0.0 
0.0 0.0 0.0 
0.0 0.0 0.0 
0.0 0.0 0.0 
0.0 0.0 0.0 
0.0 0.0 0.0 
0.0 0.0 0.0 
0.0 0.0 0.0 
0.0 0.0 0.0 
0.0 0.0 0.0 
0.0 0.0 0.0 
0.0 0.0 0.0 
0.0 0.0 0.0 
0.0 0.0 0.0 
0.0 0.0 0.0 
0.0 0.0 0.0 
0.0 0.0 0.0 
0.0 0.0 0.0 
0.0 0.0 0.0 
0.0 0.0 0.0 
0.0 0.0 0.0 
0.0 0.0 0.0 
0.0 0.0 0.0 
0.0 0.0 0.0 
0.0 0.0 0.0 
0.0 0.0 0.0 
0.0 0.0 0.0 
0.0 0.0 0.0 
0.0 0.0 0.0 
0.0 0.0 0.0 
0.0 0.0 0.0 
0.0 0.0 0.0 
0.0 0.0 0.0 
0.0 0.0 0.0 
0.0 0.0 0.0 
0.0 0.0 0.0 
0.0 0.0 0.0 
0.0 0.0 0.0 
0.0 0.0 0.0 
0.0 0.0 0.0 
0.0 0.0 0.0 
0.0 0.0 0.0 
0.0 0.0 0.0 
0.0 0.0 0.0 
0.0 0.0 0.0 
0.0 0.0 0.0 
0.0 0.0 0.0 
0.0 0.0 0.0 
0.0 0.0 0.0 
0.0 0.0 0.0 
0.0 0.0 0.0 
0.0 0.0 0.0 
0.0 0.0 0.0 
0.0 0.0 0.0 
0.0 0.0 0.0 
0.0 0.0 0.0 
0.0 0.0 0.0 
0.0 0.0 0.0 
0.0 0.0 0.0 
0.0 0.0 0.0 
0.0 0.0 0.0 
0.0 0.0 0.0 
0.0 0.0 0.0 
0.0 0.0 0.0 
0.0 0.0 0.0 
0.0 0.0 0.0 
0.0 0.0 0.0 
0.0 0.0 0.0 
0.0 0.0 0.0 
0.0 0.0 0.0 
0.0 0.0 0.0 
0.0 0.0 0.0 
0.0 0.0 0.0 
0.0 0.0 0.0 
0.0 0.0 0.0 
0.0 0.0 0.0 
0.0 0.0 0.0 
0.0 0.0 0.0 
0.0 0.0 0.0 
0.0 0.0 0.0 
0.0 0.0 0.0 
0.0 0.0 0.0 
0.0 0.0 0.0 
0.0 0.0 0.0 
0.0 0.0 0.0 
0.0 0.0 0.0 
0.0 0.0 0.0 
0.0 0.0 0.0 
0.0 0.0 0.0 
0.0 0.0 0.0 
0.0 0.0 0.0 
0.0 0.0 0.0 
0.0 0.0 0.0 
0.0 0.0 0.0 
0.0 0.0 0.0 
0.0 0.0 0.0 
0.0 0.0 0.0 
0.0 0.0 0.0 
0.0 0.0 0.0 
0.0 0.0 0.0 
0.0 0.0 0.0 
0.0 0.0 0.0 
0.0 0.0 0.0 
0.0 0.0 0.0 
0.0 0.0 0.0 
0.0 0.0 0.0 
0.0 0.0 0.0 
0.0 0.0 0.0 
0.0 0.0 0.0 
0.0 0.0 0.0 
0.0 0.0 0.0 
0.0 0.0 0.0 
0.0 0.0 0.0 
0.0 0.0 0.0 
0.0 0.0 0.0 
0.0 0.0 0.0 
0.0 0.0 0.0 
0.0 0.0 0.0 
0.0 0.0 0.0 
0.0 0.0 0.0 
0.0 0.0 0.0 
0.0 0.0 0.0 
0.0 0.0 0.0 
0.0 0.0 0.0 
0.0 0.0 0.0 
0.0 0.0 0.0 
0.0 0.0 0.0 
0.0 0.0 0.0 
0.0 0.0 0.0 
0.0 0.0 0.0 
0.0 0.0 0.0 
0.0 0.0 0.0 
0.0 0.0 0.0 
0.0 0.0 0.0 
0.0 0.0 0.0 
0.0 0.0 0.0 
0.0 0.0 0.0 
0.0 0.0 0.0 
0.0 0.0 0.0 
0.0 0.0 0.0 
0.0 0.0 0.0 
0.0 0.0 0.0 
0.0 0.0 0.0 
0.0 0.0 0.0 
0.0 0.0 0.0 
0.0 0.0 0.0 
0.0 0.0 0.0 
0.0 0.0 0.0 
0.0 0.0 0.0 
0.0 0.0 0.0 
0.0 0.0 0.0 
0.0 0.0 0.0 
0.0 0.0 0.0 
0.0 0.0 0.0 
0.0 0.0 0.0 
0.0 0.0 0.0 
0.0 0.0 0.0 
0.0 0.0 0.0 
0.0 0.0 0.0 
0.0 0.0 0.0 
0.0 0.0 0.0 
0.0 0.0 0.0 
0.0 0.0 0.0 
0.0 0.0 0.0 
0.0 0.0 0.0 
0.0 0.0 0.0 
0.0 0.0 0.0 
0.0 0.0 0.0 
0.0 0.0 0.0 
0.0 0.0 0.0 
0.0 0.0 0.0 
0.0 0.0 0.0 
0.0 0.0 0.0 
0.0 0.0 0.0 
0.0 0.0 0.0 
0.0 0.0 0.0 
0.0 0.0 0.0 
0.0 0.0 0.0 
0.0 0.0 0.0 
0.0 0.0 0.0 
0.0 0.0 0.0 
0.0 0.0 0.0 
0.0 0.0 0.0 
0.0 0.0 0.0 
0.0 0.0 0.0 
0.0 0.0 0.0 
0.0 0.0 0.0 
0.0 0.0 0.0 
0.0 0.0 0.0 
0.0 0.0 0.0 
0.0 0.0 0.0 
0.0 0.0 0.0 
0.0 0.0 0.0 
0.0 0.0 0.0 
0.0 0.0 0.0 
0.0 0.0 0.0 
0.0 0.0 0.0 
0.0 0.0 0.0 
0.0 0.0 0.0 
0.0 0.0 0.0 
0.0 0.0 0.0 
0.0 0.0 0.0 
0.0 0.0 0.0 
0.0 0.0 0.0 
0.0 0.0 0.0 
0.0 0.0 0.0 
0.0 0.0 0.0 
0.0 0.0 0.0 
0.0 0.0 0.0 
0.0 0.0 0.0 
0.0 0.0 0.0 
0.0 0.0 0.0 
0.0 0.0 0.0 
0.0 0.0 0.0 
0.0 0.0 0.0 
0.0 0.0 0.0 
0.0 0.0 0.0 
0.0 0.0 0.0 
0.0 0.0 0.0 
0.0 0.0 0.0 
0.0 0.0 0.0 
0.0 0.0 0.0 
0.0 0.0 0.0 
0.0 0.0 0.0 
0.0 0.0 0.0 
0.0 0.0 0.0 
0.0 0.0 0.0 
0.0 0.0 0.0 
0.0 0.0 0.0 
0.0 0.0 0.0 
0.0 0.0 0.0 
0.0 0.0 0.0 
0.0 0.0 0.0 
0.0 0.0 0.0 
0.0 0.0 0.0 
0.0 0.0 0.0 
0.0 0.0 0.0 
0.0 0.0 0.0 
0.0 0.0 0.0 
0.0 0.0 0.0 
0.0 0.0 0.0 
0.0 0.0 0.0 
0.0 0.0 0.0 
0.0 0.0 0.0 
0.0 0.0 0.0 
0.0 0.0 0.0 
0.0 0.0 0.0 
0.0 0.0 0.0 
0.0 0.0 0.0 
0.0 0.0 0.0 
0.0 0.0 0.0 
0.0 0.0 0.0 
0.0 0.0 0.0 
0.0 0.0 0.0 
0.0 0.0 0.0 
0.0 0.0 0.0 
0.0 0.0 0.0 
0.0 0.0 0.0 
0.0 0.0 0.0 
0.0 0.0 0.0 
0.0 0.0 0.0 
0.0 0.0 0.0 
0.0 0.0 0.0 
0.0 0.0 0.0 
0.0 0.0 0.0 
0.0 0.0 0.0 
0.0 0.0 0.0 
0.0 0.0 0.0 
0.0 0.0 0.0 
0.0 0.0 0.0 
0.0 0.0 0.0 
0.0 0.0 0.0 
0.0 0.0 0.0 
0.0 0.0 0.0 
0.0 0.0 0.0 
0.0 0.0 0.0 
0.0 0.0 0.0 
0.0 0.0 0.0 
0.0 0.0 0.0 
0.0 0.0 0.0 
0.0 0.0 0.0 
0.0 0.0 0.0 
0.0 0.0 0.0 
0.0 0.0 0.0 
0.0 0.0 0.0 
0.0 0.0 0.0 
0.0 0.0 0.0 
0.0 0.0 0.0 
0.0 0.0 0.0 
0.0 0.0 0.0 
0.0 0.0 0.0 
0.0 0.0 0.0 
0.0 0.0 0.0 
0.0 0.0 0.0 
0.0 0.0 0.0 
0.0 0.0 0.0 
0.0 0.0 0.0 
0.0 0.0 0.0 
0.0 0.0 0.0 
0.0 0.0 0.0 
0.0 0.0 0.0 
0.0 0.0 0.0 
0.0 0.0 0.0 
0.0 0.0 0.0 
0.0 0.0 0.0 
0.0 0.0 0.0 
0.0 0.0 0.0 
0.0 0.0 0.0 
0.0 0.0 0.0 
0.0 0.0 0.0 
0.0 0.0 0.0 
0.0 0.0 0.0 
0.0 0.0 0.0 
0.0 0.0 0.0 
0.0 0.0 0.0 
0.0 0.0 0.0 
0.0 0.0 0.0 
0.0 0.0 0.0 
0.0 0.0 0.0 
0.0 0.0 0.0 
0.0 0.0 0.0 
0.0 0.0 0.0 
0.0 0.0 0.0 
0.0 0.0 0.0 
0.0 0.0 0.0 
0.0 0.0 0.0 
0.0 0.0 0.0 
0.0 0.0 0.0 
0.0 0.0 0.0 
0.0 0.0 0.0 
0.0 0.0 0.0 
0.0 0.0 0.0 
0.0 0.0 0.0 
0.0 0.0 0.0 
0.0 0.0 0.0 
0.0 0.0 0.0 
0.0 0.0 0.0 
0.0 0.0 0.0 
0.0 0.0 0.0 
0.0 0.0 0.0 
0.0 0.0 0.0 
0.0 0.0 0.0 
0.0 0.0 0.0 
0.0 0.0 0.0 
0.0 0.0 0.0 
0.0 0.0 0.0 
0.0 0.0 0.0 
0.0 0.0 0.0 
0.0 0.0 0.0 
0.0 0.0 0.0 
0.0 0.0 0.0 
0.0 0.0 0.0 
0.0 0.0 0.0 
0.0 0.0 0.0 
0.0 0.0 0.0 
0.0 0.0 0.0 
0.0 0.0 0.0 
0.0 0.0 0.0 
0.0 0.0 0.0 
0.0 0.0 0.0 
0.0 0.0 0.0 
0.0 0.0 0.0 
0.0 0.0 0.0 
0.0 0.0 0.0 
0.0 0.0 0.0 
0.0 0.0 0.0 
0.0 0.0 0.0 
0.0 0.0 0.0 
0.0 0.0 0.0 
0.0 0.0 0.0 
0.0 0.0 0.0 
0.0 0.0 0.0 
0.0 0.0 0.0 
0.0 0.0 0.0 
0.0 0.0 0.0 
0.0 0.0 0.0 
0.0 0.0 0.0 
0.0 0.0 0.0 
0.0 0.0 0.0 
0.0 0.0 0.0 
0.0 0.0 0.0 
0.0 0.0 0.0 
0.0 0.0 0.0 
0.0 0.0 0.0 
0.0 0.0 0.0 
0.0 0.0 0.0 
0.0 0.0 0.0 
0.0 0.0 0.0 
0.0 0.0 0.0 
0.0 0.0 0.0 
0.0 0.0 0.0 
0.0 0.0 0.0 
0.0 0.0 0.0 
0.0 0.0 0.0 
0.0 0.0 0.0 
0.0 0.0 0.0 
0.0 0.0 0.0 
0.0 0.0 0.0 
0.0 0.0 0.0 
0.0 0.0 0.0 
0.0 0.0 0.0 
0.0 0.0 0.0 
0.0 0.0 0.0 
0.0 0.0 0.0 
0.0 0.0 0.0 
0.0 0.0 0.0 
0.0 0.0 0.0 
0.0 0.0 0.0 
0.0 0.0 0.0 
0.0 0.0 0.0 
0.0 0.0 0.0 
0.0 0.0 0.0 
0.0 0.0 0.0 
0.0 0.0 0.0 
0.0 0.0 0.0 
0.0 0.0 0.0 
0.0 0.0 0.0 
0.0 0.0 0.0 
0.0 0.0 0.0 
0.0 0.0 0.0 
0.0 0.0 0.0 
0.0 0.0 0.0 
0.0 0.0 0.0 
0.0 0.0 0.0 
0.0 0.0 0.0 
0.0 0.0 0.0 
0.0 0.0 0.0 
0.0 0.0 0.0 
0.0 0.0 0.0 
0.0 0.0 0.0 
0.0 0.0 0.0 
0.0 0.0 0.0 
0.0 0.0 0.0 
0.0 0.0 0.0 
0.0 0.0 0.0 
0.0 0.0 0.0 
0.0 0.0 0.0 
0.0 0.0 0.0 
0.0 0.0 0.0 
0.0 0.0 0.0 
0.0 0.0 0.0 
0.0 0.0 0.0 
0.0 0.0 0.0 
0.0 0.0 0.0 
0.0 0.0 0.0 
0.0 0.0 0.0 
0.0 0.0 0.0 
0.0 0.0 0.0 
0.0 0.0 0.0 
0.0 0.0 0.0 
0.0 0.0 0.0 
0.0 0.0 0.0 
0.0 0.0 0.0 
0.0 0.0 0.0 
0.0 0.0 0.0 
0.0 0.0 0.0 
0.0 0.0 0.0 
0.0 0.0 0.0 
0.0 0.0 0.0 
0.0 0.0 0.0 
0.0 0.0 0.0 
0.0 0.0 0.0 
0.0 0.0 0.0 
0.0 0.0 0.0 
0.0 0.0 0.0 
0.0 0.0 0.0 
0.0 0.0 0.0 
0.0 0.0 0.0 
0.0 0.0 0.0 
0.0 0.0 0.0 
0.0 0.0 0.0 
0.0 0.0 0.0 
0.0 0.0 0.0 
0.0 0.0 0.0 
0.0 0.0 0.0 
0.0 0.0 0.0 
0.0 0.0 0.0 
0.0 0.0 0.0 
0.0 0.0 0.0 
0.0 0.0 0.0 
0.0 0.0 0.0 
0.0 0.0 0.0 
0.0 0.0 0.0 
0.0 0.0 0.0 
0.0 0.0 0.0 
0.0 0.0 0.0 
0.0 0.0 0.0 
0.0 0.0 0.0 
0.0 0.0 0.0 
0.0 0.0 0.0 
0.0 0.0 0.0 
0.0 0.0 0.0 
0.0 0.0 0.0 
0.0 0.0 0.0 
0.0 0.0 0.0 
0.0 0.0 0.0 
0.0 0.0 0.0 
0.0 0.0 0.0 
0.0 0.0 0.0 
0.0 0.0 0.0 
0.0 0.0 0.0 
0.0 0.0 0.0 
0.0 0.0 0.0 
0.0 0.0 0.0 
0.0 0.0 0.0 
0.0 0.0 0.0 
0.0 0.0 0.0 
0.0 0.0 0.0 
0.0 0.0 0.0 
0.0 0.0 0.0 
0.0 0.0 0.0 
0.0 0.0 0.0 
0.0 0.0 0.0 
0.0 0.0 0.0 
0.0 0.0 0.0 
0.0 0.0 0.0 
0.0 0.0 0.0 
0.0 0.0 0.0 
0.0 0.0 0.0 
0.0 0.0 0.0 
0.0 0.0 0.0 
0.0 0.0 0.0 
0.0 0.0 0.0 
0.0 0.0 0.0 
0.0 0.0 0.0 
0.0 0.0 0.0 
0.0 0.0 0.0 
0.0 0.0 0.0 
0.0 0.0 0.0 
0.0 0.0 0.0 
0.0 0.0 0.0 
0.0 0.0 0.0 
0.0 0.0 0.0 
0.0 0.0 0.0 
0.0 0.0 0.0 
0.0 0.0 0.0 
0.0 0.0 0.0 
0.0 0.0 0.0 
0.0 0.0 0.0 
0.0 0.0 0.0 
0.0 0.0 0.0 
0.0 0.0 0.0 
0.0 0.0 0.0 
0.0 0.0 0.0 

SCALARS node_boundary float
LOOKUP_TABLE default
1.000000000000e+00 
1.000000000000e+00 
1.000000000000e+00 
1.000000000000e+00 
1.000000000000e+00 
1.000000000000e+00 
1.000000000000e+00 
1.000000000000e+00 
1.000000000000e+00 
1.000000000000e+00 
1.000000000000e+00 
1.000000000000e+00 
1.000000000000e+00 
1.000000000000e+00 
1.000000000000e+00 
1.000000000000e+00 
1.000000000000e+00 
1.000000000000e+00 
1.000000000000e+00 
1.000000000000e+00 
1.000000000000e+00 
1.000000000000e+00 
1.000000000000e+00 
1.000000000000e+00 
1.000000000000e+00 
1.000000000000e+00 
1.000000000000e+00 
1.000000000000e+00 
1.000000000000e+00 
1.000000000000e+00 
1.000000000000e+00 
1.000000000000e+00 
1.000000000000e+00 
1.000000000000e+00 
1.000000000000e+00 
1.000000000000e+00 
1.000000000000e+00 
1.000000000000e+00 
1.000000000000e+00 
1.000000000000e+00 
1.000000000000e+00 
1.000000000000e+00 
1.000000000000e+00 
1.000000000000e+00 
1.000000000000e+00 
1.000000000000e+00 
1.000000000000e+00 
1.000000000000e+00 
1.000000000000e+00 
1.000000000000e+00 
1.000000000000e+00 
1.000000000000e+00 
1.000000000000e+00 
1.000000000000e+00 
1.000000000000e+00 
1.000000000000e+00 
1.000000000000e+00 
1.000000000000e+00 
1.000000000000e+00 
1.000000000000e+00 
1.000000000000e+00 
1.000000000000e+00 
1.000000000000e+00 
1.000000000000e+00 
1.000000000000e+00 
1.000000000000e+00 
1.000000000000e+00 
1.000000000000e+00 
1.000000000000e+00 
1.000000000000e+00 
1.000000000000e+00 
1.000000000000e+00 
1.000000000000e+00 
1.000000000000e+00 
1.000000000000e+00 
1.000000000000e+00 
1.000000000000e+00 
1.000000000000e+00 
1.000000000000e+00 
1.000000000000e+00 
1.000000000000e+00 
1.000000000000e+00 
0.0
1.000000000000e+00 
1.000000000000e+00 
1.000000000000e+00 
1.000000000000e+00 
1.000000000000e+00 
1.000000000000e+00 
0.0
0.0
0.0
1.000000000000e+00 
1.000000000000e+00 
1.000000000000e+00 
1.000000000000e+00 
0.0
0.0
0.0
0.0
0.0
0.0
0.0
0.0
0.0
0.0
0.0
0.0
0.0
0.0
1.000000000000e+00 
1.000000000000e+00 
1.000000000000e+00 
1.000000000000e+00 
1.000000000000e+00 
1.000000000000e+00 
1.000000000000e+00 
1.000000000000e+00 
1.000000000000e+00 
1.000000000000e+00 
1.000000000000e+00 
1.000000000000e+00 
1.000000000000e+00 
1.000000000000e+00 
1.000000000000e+00 
1.000000000000e+00 
1.000000000000e+00 
1.000000000000e+00 
1.000000000000e+00 
1.000000000000e+00 
1.000000000000e+00 
1.000000000000e+00 
1.000000000000e+00 
1.000000000000e+00 
1.000000000000e+00 
1.000000000000e+00 
1.000000000000e+00 
1.000000000000e+00 
1.000000000000e+00 
1.000000000000e+00 
1.000000000000e+00 
1.000000000000e+00 
1.000000000000e+00 
1.000000000000e+00 
1.000000000000e+00 
1.000000000000e+00 
1.000000000000e+00 
1.000000000000e+00 
1.000000000000e+00 
0.0
0.0
0.0
0.0
0.0
0.0
0.0
0.0
0.0
0.0
0.0
0.0
0.0
0.0
0.0
0.0
0.0
0.0
0.0
0.0
0.0
0.0
0.0
0.0
0.0
0.0
0.0
0.0
0.0
0.0
0.0
0.0
0.0
0.0
0.0
0.0
0.0
0.0
0.0
0.0
0.0
0.0
0.0
0.0
0.0
0.0
0.0
0.0
0.0
0.0
0.0
0.0
1.000000000000e+00 
1.000000000000e+00 
1.000000000000e+00 
1.000000000000e+00 
1.000000000000e+00 
1.000000000000e+00 
0.0
0.0
0.0
0.0
0.0
0.0
0.0
0.0
0.0
0.0
0.0
0.0
0.0
0.0
0.0
0.0
0.0
0.0
0.0
0.0
0.0
0.0
0.0
0.0
0.0
0.0
0.0
0.0
0.0
0.0
0.0
0.0
0.0
0.0
0.0
0.0
0.0
0.0
0.0
0.0
0.0
0.0
0.0
0.0
0.0
0.0
0.0
0.0
0.0
0.0
0.0
0.0
0.0
0.0
0.0
0.0
0.0
0.0
0.0
0.0
0.0
0.0
0.0
0.0
0.0
0.0
0.0
0.0
0.0
0.0
0.0
0.0
0.0
0.0
0.0
0.0
0.0
0.0
0.0
0.0
0.0
0.0
0.0
0.0
0.0
0.0
0.0
0.0
0.0
0.0
0.0
0.0
0.0
0.0
0.0
0.0
0.0
0.0
0.0
0.0
0.0
0.0
0.0
0.0
0.0
0.0
0.0
0.0
0.0
0.0
0.0
0.0
0.0
0.0
0.0
0.0
0.0
0.0
0.0
0.0
0.0
0.0
0.0
0.0
0.0
0.0
0.0
0.0
0.0
0.0
0.0
0.0
0.0
0.0
0.0
0.0
0.0
0.0
0.0
0.0
0.0
0.0
0.0
0.0
0.0
0.0
0.0
0.0
0.0
0.0
0.0
0.0
0.0
0.0
0.0
0.0
0.0
0.0
0.0
0.0
0.0
0.0
0.0
0.0
0.0
0.0
0.0
0.0
0.0
0.0
0.0
0.0
0.0
0.0
0.0
0.0
0.0
0.0
0.0
0.0
0.0
0.0
0.0
0.0
0.0
0.0
0.0
0.0
0.0
0.0
0.0
0.0
0.0
0.0
0.0
0.0
0.0
0.0
0.0
0.0
0.0
0.0
0.0
0.0
0.0
0.0
0.0
0.0
0.0
0.0
0.0
0.0
0.0
0.0
0.0
0.0
0.0
0.0
0.0
0.0
0.0
0.0
0.0
0.0
0.0
0.0
0.0
0.0
0.0
0.0
0.0
0.0
0.0
0.0
0.0
0.0
0.0
0.0
0.0
0.0
0.0
0.0
0.0
0.0
0.0
0.0
0.0
0.0
0.0
0.0
0.0
0.0
0.0
0.0
0.0
0.0
0.0
0.0
0.0
0.0
0.0
0.0
0.0
0.0
0.0
0.0
0.0
0.0
0.0
0.0
0.0
0.0
0.0
0.0
0.0
0.0
0.0
0.0
0.0
0.0
0.0
0.0
0.0
0.0
0.0
0.0
0.0
0.0
0.0
0.0
0.0
0.0
0.0
0.0
0.0
0.0
0.0
0.0
0.0
0.0
0.0
0.0
0.0
0.0
0.0
0.0
0.0
0.0
0.0
0.0
0.0
0.0
0.0
0.0
0.0
0.0
0.0
0.0
0.0
0.0
0.0
0.0
0.0
0.0
0.0
0.0
0.0
0.0
0.0
0.0
0.0
0.0
0.0
0.0
0.0
0.0
0.0
0.0
0.0
0.0
0.0
0.0
0.0
0.0
0.0
0.0
0.0
0.0
0.0
0.0
0.0
0.0
0.0
0.0
0.0
0.0
0.0
0.0
0.0
0.0
0.0
0.0
0.0
0.0
0.0
0.0
0.0
0.0
0.0
0.0
0.0
0.0
0.0
0.0
0.0
0.0
0.0
0.0
0.0
0.0
0.0
0.0
0.0
0.0
0.0
0.0
0.0
0.0
0.0
0.0
0.0
0.0
0.0
0.0
0.0
0.0
0.0
0.0
0.0
0.0
0.0
0.0
0.0
0.0
0.0
0.0
0.0
0.0
0.0
0.0
0.0
0.0
0.0
0.0
0.0
0.0
0.0
0.0
0.0
0.0
0.0
0.0
0.0
0.0
0.0
0.0
0.0
0.0
0.0
0.0
0.0
0.0
0.0
0.0
0.0
0.0
0.0
0.0
0.0
0.0
0.0
0.0
0.0
0.0
0.0
0.0
0.0
0.0
0.0
0.0
0.0
0.0
0.0
0.0
0.0
0.0
0.0
0.0
0.0
0.0
0.0
0.0
0.0
0.0
0.0
0.0
0.0
0.0
0.0
0.0
0.0
0.0
0.0
0.0
0.0
0.0
0.0
0.0
0.0
0.0
0.0
0.0
0.0
0.0
0.0
0.0
0.0
0.0
0.0
0.0
0.0
0.0
0.0
0.0
0.0
0.0
0.0
0.0
0.0
0.0
0.0
0.0
0.0
0.0
0.0
0.0
0.0
0.0
0.0
0.0
0.0
0.0
0.0
0.0
0.0
0.0
0.0
0.0
0.0
0.0
0.0
0.0
0.0
0.0
0.0
0.0
0.0
0.0
0.0
0.0
0.0
0.0
0.0
0.0
0.0
0.0
0.0
0.0
0.0
0.0
0.0
0.0
0.0
0.0
0.0
0.0
0.0
0.0
0.0
0.0
0.0
0.0
0.0
0.0
0.0
0.0
0.0
0.0
0.0
0.0
0.0
0.0
0.0
0.0
0.0
0.0
0.0
0.0
0.0
0.0
0.0
0.0
0.0
0.0
0.0
0.0
0.0
0.0
0.0
0.0
0.0
0.0
0.0
0.0
0.0
0.0
0.0
0.0
0.0
0.0
0.0
0.0
0.0
0.0
0.0
0.0
0.0
0.0
0.0
0.0
0.0
0.0
0.0
0.0
0.0
0.0
0.0
0.0
0.0
0.0
0.0
0.0
0.0
0.0
0.0
0.0
0.0
0.0
0.0
0.0
0.0
0.0
0.0
0.0
0.0
0.0
0.0
0.0
0.0
0.0
0.0
0.0
0.0
0.0
0.0
0.0
0.0
0.0
0.0
0.0
0.0
0.0
0.0
0.0
0.0
0.0
0.0
0.0
0.0
0.0
0.0
0.0
0.0
0.0
0.0
0.0
0.0
0.0
0.0
0.0
0.0
0.0
0.0
0.0
0.0
0.0
0.0
0.0
0.0
0.0
0.0
0.0
0.0
0.0
0.0
0.0
0.0
0.0
0.0
0.0
0.0
0.0
0.0
0.0
0.0
0.0
0.0
0.0
0.0
0.0
0.0
0.0
0.0
0.0
0.0
0.0
0.0
0.0
0.0
0.0
0.0
0.0
0.0
0.0
0.0
0.0
0.0
0.0
0.0
0.0
0.0
0.0
0.0
0.0
0.0
0.0
0.0
0.0
0.0
0.0
0.0
0.0
0.0
0.0
0.0
0.0
0.0
0.0
0.0
0.0
0.0
0.0
0.0
0.0
0.0
0.0
0.0
0.0
0.0
0.0
0.0
0.0
0.0
0.0
0.0
0.0
0.0
0.0
0.0
0.0
0.0
0.0
0.0
0.0
0.0
0.0
0.0
0.0
0.0
0.0
0.0
0.0
0.0
0.0
0.0
0.0
0.0
0.0
0.0
0.0
0.0
0.0
0.0
0.0
0.0
0.0
0.0
0.0
0.0
0.0
0.0
0.0
0.0
0.0
0.0
0.0
0.0
0.0
0.0
0.0
0.0
0.0
0.0
0.0
0.0
0.0
0.0
0.0
0.0
0.0
0.0
0.0
0.0
0.0
0.0
0.0
0.0
0.0
0.0
0.0
0.0
0.0
0.0
0.0
0.0
0.0
0.0
0.0
0.0
0.0
0.0
0.0
0.0
0.0
0.0
0.0
0.0
0.0
0.0
0.0
0.0
0.0
0.0
0.0
0.0
0.0
0.0
0.0
0.0
0.0
0.0
0.0
0.0
0.0
0.0
0.0
0.0
0.0
0.0
0.0
0.0
0.0
0.0
0.0
0.0
0.0
0.0
0.0
0.0
0.0
0.0
0.0
0.0
0.0
0.0
0.0
0.0
0.0
0.0
0.0
0.0
0.0
0.0
0.0
0.0
0.0
0.0
0.0
0.0
0.0
0.0
0.0
0.0
0.0
0.0
0.0
0.0
0.0
0.0
0.0
0.0
0.0
0.0
0.0
0.0
0.0
0.0
0.0
0.0
0.0
0.0
0.0
0.0
0.0
0.0

VECTORS node_force_gravity float
0.0 -1.962000000000e+01 0.0 
0.0 -1.962000000000e+01 0.0 
0.0 -1.962000000000e+01 0.0 
0.0 -1.962000000000e+01 0.0 
0.0 -1.962000000000e+01 0.0 
0.0 -1.962000000000e+01 0.0 
0.0 -1.962000000000e+01 0.0 
0.0 -1.962000000000e+01 0.0 
0.0 -1.962000000000e+01 0.0 
0.0 -1.962000000000e+01 0.0 
0.0 -1.962000000000e+01 0.0 
0.0 -1.962000000000e+01 0.0 
0.0 -1.962000000000e+01 0.0 
0.0 -1.962000000000e+01 0.0 
0.0 -1.962000000000e+01 0.0 
0.0 -1.962000000000e+01 0.0 
0.0 -1.962000000000e+01 0.0 
0.0 -1.962000000000e+01 0.0 
0.0 -1.962000000000e+01 0.0 
0.0 -1.962000000000e+01 0.0 
0.0 -1.962000000000e+01 0.0 
0.0 -1.962000000000e+01 0.0 
0.0 -1.962000000000e+01 0.0 
0.0 -1.962000000000e+01 0.0 
0.0 -1.962000000000e+01 0.0 
0.0 -1.962000000000e+01 0.0 
0.0 -1.962000000000e+01 0.0 
0.0 -1.962000000000e+01 0.0 
0.0 -1.962000000000e+01 0.0 
0.0 -1.962000000000e+01 0.0 
0.0 -1.962000000000e+01 0.0 
0.0 -1.962000000000e+01 0.0 
0.0 -1.962000000000e+01 0.0 
0.0 -1.962000000000e+01 0.0 
0.0 -1.962000000000e+01 0.0 
0.0 -1.962000000000e+01 0.0 
0.0 -1.962000000000e+01 0.0 
0.0 -1.962000000000e+01 0.0 
0.0 -1.962000000000e+01 0.0 
0.0 -1.962000000000e+01 0.0 
0.0 -1.962000000000e+01 0.0 
0.0 -1.962000000000e+01 0.0 
0.0 -1.962000000000e+01 0.0 
0.0 -1.962000000000e+01 0.0 
0.0 -1.962000000000e+01 0.0 
0.0 -1.962000000000e+01 0.0 
0.0 -1.962000000000e+01 0.0 
0.0 -1.962000000000e+01 0.0 
0.0 -1.962000000000e+01 0.0 
0.0 -1.962000000000e+01 0.0 
0.0 -1.962000000000e+01 0.0 
0.0 -1.962000000000e+01 0.0 
0.0 -1.962000000000e+01 0.0 
0.0 -1.962000000000e+01 0.0 
0.0 -1.962000000000e+01 0.0 
0.0 -1.962000000000e+01 0.0 
0.0 -1.962000000000e+01 0.0 
0.0 -1.962000000000e+01 0.0 
0.0 -1.962000000000e+01 0.0 
0.0 -1.962000000000e+01 0.0 
0.0 -1.962000000000e+01 0.0 
0.0 -1.962000000000e+01 0.0 
0.0 -1.962000000000e+01 0.0 
0.0 -1.962000000000e+01 0.0 
0.0 -1.962000000000e+01 0.0 
0.0 -1.962000000000e+01 0.0 
0.0 -1.962000000000e+01 0.0 
0.0 -1.962000000000e+01 0.0 
0.0 -1.962000000000e+01 0.0 
0.0 -1.962000000000e+01 0.0 
0.0 -1.962000000000e+01 0.0 
0.0 -1.962000000000e+01 0.0 
0.0 -1.962000000000e+01 0.0 
0.0 -1.962000000000e+01 0.0 
0.0 -1.962000000000e+01 0.0 
0.0 -1.962000000000e+01 0.0 
0.0 -1.962000000000e+01 0.0 
0.0 -1.962000000000e+01 0.0 
0.0 -1.962000000000e+01 0.0 
0.0 -1.962000000000e+01 0.0 
0.0 -1.962000000000e+01 0.0 
0.0 -1.962000000000e+01 0.0 
0.0 -1.962000000000e+01 0.0 
0.0 -1.962000000000e+01 0.0 
0.0 -1.962000000000e+01 0.0 
0.0 -1.962000000000e+01 0.0 
0.0 -1.962000000000e+01 0.0 
0.0 -1.962000000000e+01 0.0 
0.0 -1.962000000000e+01 0.0 
0.0 -1.962000000000e+01 0.0 
0.0 -1.962000000000e+01 0.0 
0.0 -1.962000000000e+01 0.0 
0.0 -1.962000000000e+01 0.0 
0.0 -1.962000000000e+01 0.0 
0.0 -1.962000000000e+01 0.0 
0.0 -1.962000000000e+01 0.0 
0.0 -1.962000000000e+01 0.0 
0.0 -1.962000000000e+01 0.0 
0.0 -1.962000000000e+01 0.0 
0.0 -1.962000000000e+01 0.0 
0.0 -1.962000000000e+01 0.0 
0.0 -1.962000000000e+01 0.0 
0.0 -1.962000000000e+01 0.0 
0.0 -1.962000000000e+01 0.0 
0.0 -1.962000000000e+01 0.0 
0.0 -1.962000000000e+01 0.0 
0.0 -1.962000000000e+01 0.0 
0.0 -1.962000000000e+01 0.0 
0.0 -1.962000000000e+01 0.0 
0.0 -1.962000000000e+01 0.0 
0.0 -1.962000000000e+01 0.0 
0.0 -1.962000000000e+01 0.0 
0.0 -1.962000000000e+01 0.0 
0.0 -1.962000000000e+01 0.0 
0.0 -1.962000000000e+01 0.0 
0.0 -1.962000000000e+01 0.0 
0.0 -1.962000000000e+01 0.0 
0.0 -1.962000000000e+01 0.0 
0.0 -1.962000000000e+01 0.0 
0.0 -1.962000000000e+01 0.0 
0.0 -1.962000000000e+01 0.0 
0.0 -1.962000000000e+01 0.0 
0.0 -1.962000000000e+01 0.0 
0.0 -1.962000000000e+01 0.0 
0.0 -1.962000000000e+01 0.0 
0.0 -1.962000000000e+01 0.0 
0.0 -1.962000000000e+01 0.0 
0.0 -1.962000000000e+01 0.0 
0.0 -1.962000000000e+01 0.0 
0.0 -1.962000000000e+01 0.0 
0.0 -1.962000000000e+01 0.0 
0.0 -1.962000000000e+01 0.0 
0.0 -1.962000000000e+01 0.0 
0.0 -1.962000000000e+01 0.0 
0.0 -1.962000000000e+01 0.0 
0.0 -1.962000000000e+01 0.0 
0.0 -1.962000000000e+01 0.0 
0.0 -1.962000000000e+01 0.0 
0.0 -1.962000000000e+01 0.0 
0.0 -1.962000000000e+01 0.0 
0.0 -1.962000000000e+01 0.0 
0.0 -1.962000000000e+01 0.0 
0.0 -1.962000000000e+01 0.0 
0.0 -1.962000000000e+01 0.0 
0.0 -1.962000000000e+01 0.0 
0.0 -1.962000000000e+01 0.0 
0.0 -1.962000000000e+01 0.0 
0.0 -1.962000000000e+01 0.0 
0.0 -1.962000000000e+01 0.0 
0.0 -1.962000000000e+01 0.0 
0.0 -1.962000000000e+01 0.0 
0.0 -1.962000000000e+01 0.0 
0.0 -1.962000000000e+01 0.0 
0.0 -1.962000000000e+01 0.0 
0.0 -1.962000000000e+01 0.0 
0.0 -1.962000000000e+01 0.0 
0.0 -1.962000000000e+01 0.0 
0.0 -1.962000000000e+01 0.0 
0.0 -1.962000000000e+01 0.0 
0.0 -1.962000000000e+01 0.0 
0.0 -1.962000000000e+01 0.0 
0.0 -1.962000000000e+01 0.0 
0.0 -1.962000000000e+01 0.0 
0.0 -1.962000000000e+01 0.0 
0.0 -1.962000000000e+01 0.0 
0.0 -1.962000000000e+01 0.0 
0.0 -1.962000000000e+01 0.0 
0.0 -1.962000000000e+01 0.0 
0.0 -1.962000000000e+01 0.0 
0.0 -1.962000000000e+01 0.0 
0.0 -1.962000000000e+01 0.0 
0.0 -1.962000000000e+01 0.0 
0.0 -1.962000000000e+01 0.0 
0.0 -1.962000000000e+01 0.0 
0.0 -1.962000000000e+01 0.0 
0.0 -1.962000000000e+01 0.0 
0.0 -1.962000000000e+01 0.0 
0.0 -1.962000000000e+01 0.0 
0.0 -1.962000000000e+01 0.0 
0.0 -1.962000000000e+01 0.0 
0.0 -1.962000000000e+01 0.0 
0.0 -1.962000000000e+01 0.0 
0.0 -1.962000000000e+01 0.0 
0.0 -1.962000000000e+01 0.0 
0.0 -1.962000000000e+01 0.0 
0.0 -1.962000000000e+01 0.0 
0.0 -1.962000000000e+01 0.0 
0.0 -1.962000000000e+01 0.0 
0.0 -1.962000000000e+01 0.0 
0.0 -1.962000000000e+01 0.0 
0.0 -1.962000000000e+01 0.0 
0.0 -1.962000000000e+01 0.0 
0.0 -1.962000000000e+01 0.0 
0.0 -1.962000000000e+01 0.0 
0.0 -1.962000000000e+01 0.0 
0.0 -1.962000000000e+01 0.0 
0.0 -1.962000000000e+01 0.0 
0.0 -1.962000000000e+01 0.0 
0.0 -1.962000000000e+01 0.0 
0.0 -1.962000000000e+01 0.0 
0.0 -1.962000000000e+01 0.0 
0.0 -1.962000000000e+01 0.0 
0.0 -1.962000000000e+01 0.0 
0.0 -1.962000000000e+01 0.0 
0.0 -1.962000000000e+01 0.0 
0.0 -1.962000000000e+01 0.0 
0.0 -1.962000000000e+01 0.0 
0.0 -1.962000000000e+01 0.0 
0.0 -1.962000000000e+01 0.0 
0.0 -1.962000000000e+01 0.0 
0.0 -1.962000000000e+01 0.0 
0.0 -1.962000000000e+01 0.0 
0.0 -1.962000000000e+01 0.0 
0.0 -1.962000000000e+01 0.0 
0.0 -1.962000000000e+01 0.0 
0.0 -1.962000000000e+01 0.0 
0.0 -1.962000000000e+01 0.0 
0.0 -1.962000000000e+01 0.0 
0.0 -1.962000000000e+01 0.0 
0.0 -1.962000000000e+01 0.0 
0.0 -1.962000000000e+01 0.0 
0.0 -1.962000000000e+01 0.0 
0.0 -1.962000000000e+01 0.0 
0.0 -1.962000000000e+01 0.0 
0.0 -1.962000000000e+01 0.0 
0.0 -1.962000000000e+01 0.0 
0.0 -1.962000000000e+01 0.0 
0.0 -1.962000000000e+01 0.0 
0.0 -1.962000000000e+01 0.0 
0.0 -1.962000000000e+01 0.0 
0.0 -1.962000000000e+01 0.0 
0.0 -1.962000000000e+01 0.0 
0.0 -1.962000000000e+01 0.0 
0.0 -1.962000000000e+01 0.0 
0.0 -1.962000000000e+01 0.0 
0.0 -1.962000000000e+01 0.0 
0.0 -1.962000000000e+01 0.0 
0.0 -1.962000000000e+01 0.0 
0.0 -1.962000000000e+01 0.0 
0.0 -1.962000000000e+01 0.0 
0.0 -1.962000000000e+01 0.0 
0.0 -1.962000000000e+01 0.0 
0.0 -1.962000000000e+01 0.0 
0.0 -1.962000000000e+01 0.0 
0.0 -1.962000000000e+01 0.0 
0.0 -1.962000000000e+01 0.0 
0.0 -1.962000000000e+01 0.0 
0.0 -1.962000000000e+01 0.0 
0.0 -1.962000000000e+01 0.0 
0.0 -1.962000000000e+01 0.0 
0.0 -1.962000000000e+01 0.0 
0.0 -1.962000000000e+01 0.0 
0.0 -1.962000000000e+01 0.0 
0.0 -1.962000000000e+01 0.0 
0.0 -1.962000000000e+01 0.0 
0.0 -1.962000000000e+01 0.0 
0.0 -1.962000000000e+01 0.0 
0.0 -1.962000000000e+01 0.0 
0.0 -1.962000000000e+01 0.0 
0.0 -1.962000000000e+01 0.0 
0.0 -1.962000000000e+01 0.0 
0.0 -1.962000000000e+01 0.0 
0.0 -1.962000000000e+01 0.0 
0.0 -1.962000000000e+01 0.0 
0.0 -1.962000000000e+01 0.0 
0.0 -1.962000000000e+01 0.0 
0.0 -1.962000000000e+01 0.0 
0.0 -1.962000000000e+01 0.0 
0.0 -1.962000000000e+01 0.0 
0.0 -1.962000000000e+01 0.0 
0.0 -1.962000000000e+01 0.0 
0.0 -1.962000000000e+01 0.0 
0.0 -1.962000000000e+01 0.0 
0.0 -1.962000000000e+01 0.0 
0.0 -1.962000000000e+01 0.0 
0.0 -1.962000000000e+01 0.0 
0.0 -1.962000000000e+01 0.0 
0.0 -1.962000000000e+01 0.0 
0.0 -1.962000000000e+01 0.0 
0.0 -1.962000000000e+01 0.0 
0.0 -1.962000000000e+01 0.0 
0.0 -1.962000000000e+01 0.0 
0.0 -1.962000000000e+01 0.0 
0.0 -1.962000000000e+01 0.0 
0.0 -1.962000000000e+01 0.0 
0.0 -1.962000000000e+01 0.0 
0.0 -1.962000000000e+01 0.0 
0.0 -1.962000000000e+01 0.0 
0.0 -1.962000000000e+01 0.0 
0.0 -1.962000000000e+01 0.0 
0.0 -1.962000000000e+01 0.0 
0.0 -1.962000000000e+01 0.0 
0.0 -1.962000000000e+01 0.0 
0.0 -1.962000000000e+01 0.0 
0.0 -1.962000000000e+01 0.0 
0.0 -1.962000000000e+01 0.0 
0.0 -1.962000000000e+01 0.0 
0.0 -1.962000000000e+01 0.0 
0.0 -1.962000000000e+01 0.0 
0.0 -1.962000000000e+01 0.0 
0.0 -1.962000000000e+01 0.0 
0.0 -1.962000000000e+01 0.0 
0.0 -1.962000000000e+01 0.0 
0.0 -1.962000000000e+01 0.0 
0.0 -1.962000000000e+01 0.0 
0.0 -1.962000000000e+01 0.0 
0.0 -1.962000000000e+01 0.0 
0.0 -1.962000000000e+01 0.0 
0.0 -1.962000000000e+01 0.0 
0.0 -1.962000000000e+01 0.0 
0.0 -1.962000000000e+01 0.0 
0.0 -1.962000000000e+01 0.0 
0.0 -1.962000000000e+01 0.0 
0.0 -1.962000000000e+01 0.0 
0.0 -1.962000000000e+01 0.0 
0.0 -1.962000000000e+01 0.0 
0.0 -1.962000000000e+01 0.0 
0.0 -1.962000000000e+01 0.0 
0.0 -1.962000000000e+01 0.0 
0.0 -1.962000000000e+01 0.0 
0.0 -1.962000000000e+01 0.0 
0.0 -1.962000000000e+01 0.0 
0.0 -1.962000000000e+01 0.0 
0.0 -1.962000000000e+01 0.0 
0.0 -1.962000000000e+01 0.0 
0.0 -1.962000000000e+01 0.0 
0.0 -1.962000000000e+01 0.0 
0.0 -1.962000000000e+01 0.0 
0.0 -1.962000000000e+01 0.0 
0.0 -1.962000000000e+01 0.0 
0.0 -1.962000000000e+01 0.0 
0.0 -1.962000000000e+01 0.0 
0.0 -1.962000000000e+01 0.0 
0.0 -1.962000000000e+01 0.0 
0.0 -1.962000000000e+01 0.0 
0.0 -1.962000000000e+01 0.0 
0.0 -1.962000000000e+01 0.0 
0.0 -1.962000000000e+01 0.0 
0.0 -1.962000000000e+01 0.0 
0.0 -1.962000000000e+01 0.0 
0.0 -1.962000000000e+01 0.0 
0.0 -1.962000000000e+01 0.0 
0.0 -1.962000000000e+01 0.0 
0.0 -1.962000000000e+01 0.0 
0.0 -1.962000000000e+01 0.0 
0.0 -1.962000000000e+01 0.0 
0.0 -1.962000000000e+01 0.0 
0.0 -1.962000000000e+01 0.0 
0.0 -1.962000000000e+01 0.0 
0.0 -1.962000000000e+01 0.0 
0.0 -1.962000000000e+01 0.0 
0.0 -1.962000000000e+01 0.0 
0.0 -1.962000000000e+01 0.0 
0.0 -1.962000000000e+01 0.0 
0.0 -1.962000000000e+01 0.0 
0.0 -1.962000000000e+01 0.0 
0.0 -1.962000000000e+01 0.0 
0.0 -1.962000000000e+01 0.0 
0.0 -1.962000000000e+01 0.0 
0.0 -1.962000000000e+01 0.0 
0.0 -1.962000000000e+01 0.0 
0.0 -1.962000000000e+01 0.0 
0.0 -1.962000000000e+01 0.0 
0.0 -1.962000000000e+01 0.0 
0.0 -1.962000000000e+01 0.0 
0.0 -1.962000000000e+01 0.0 
0.0 -1.962000000000e+01 0.0 
0.0 -1.962000000000e+01 0.0 
0.0 -1.962000000000e+01 0.0 
0.0 -1.962000000000e+01 0.0 
0.0 -1.962000000000e+01 0.0 
0.0 -1.962000000000e+01 0.0 
0.0 -1.962000000000e+01 0.0 
0.0 -1.962000000000e+01 0.0 
0.0 -1.962000000000e+01 0.0 
0.0 -1.962000000000e+01 0.0 
0.0 -1.962000000000e+01 0.0 
0.0 -1.962000000000e+01 0.0 
0.0 -1.962000000000e+01 0.0 
0.0 -1.962000000000e+01 0.0 
0.0 -1.962000000000e+01 0.0 
0.0 -1.962000000000e+01 0.0 
0.0 -1.962000000000e+01 0.0 
0.0 -1.962000000000e+01 0.0 
0.0 -1.962000000000e+01 0.0 
0.0 -1.962000000000e+01 0.0 
0.0 -1.962000000000e+01 0.0 
0.0 -1.962000000000e+01 0.0 
0.0 -1.962000000000e+01 0.0 
0.0 -1.962000000000e+01 0.0 
0.0 -1.962000000000e+01 0.0 
0.0 -1.962000000000e+01 0.0 
0.0 -1.962000000000e+01 0.0 
0.0 -1.962000000000e+01 0.0 
0.0 -1.962000000000e+01 0.0 
0.0 -1.962000000000e+01 0.0 
0.0 -1.962000000000e+01 0.0 
0.0 -1.962000000000e+01 0.0 
0.0 -1.962000000000e+01 0.0 
0.0 -1.962000000000e+01 0.0 
0.0 -1.962000000000e+01 0.0 
0.0 -1.962000000000e+01 0.0 
0.0 -1.962000000000e+01 0.0 
0.0 -1.962000000000e+01 0.0 
0.0 -1.962000000000e+01 0.0 
0.0 -1.962000000000e+01 0.0 
0.0 -1.962000000000e+01 0.0 
0.0 -1.962000000000e+01 0.0 
0.0 -1.962000000000e+01 0.0 
0.0 -1.962000000000e+01 0.0 
0.0 -1.962000000000e+01 0.0 
0.0 -1.962000000000e+01 0.0 
0.0 -1.962000000000e+01 0.0 
0.0 -1.962000000000e+01 0.0 
0.0 -1.962000000000e+01 0.0 
0.0 -1.962000000000e+01 0.0 
0.0 -1.962000000000e+01 0.0 
0.0 -1.962000000000e+01 0.0 
0.0 -1.962000000000e+01 0.0 
0.0 -1.962000000000e+01 0.0 
0.0 -1.962000000000e+01 0.0 
0.0 -1.962000000000e+01 0.0 
0.0 -1.962000000000e+01 0.0 
0.0 -1.962000000000e+01 0.0 
0.0 -1.962000000000e+01 0.0 
0.0 -1.962000000000e+01 0.0 
0.0 -1.962000000000e+01 0.0 
0.0 -1.962000000000e+01 0.0 
0.0 -1.962000000000e+01 0.0 
0.0 -1.962000000000e+01 0.0 
0.0 -1.962000000000e+01 0.0 
0.0 -1.962000000000e+01 0.0 
0.0 -1.962000000000e+01 0.0 
0.0 -1.962000000000e+01 0.0 
0.0 -1.962000000000e+01 0.0 
0.0 -1.962000000000e+01 0.0 
0.0 -1.962000000000e+01 0.0 
0.0 -1.962000000000e+01 0.0 
0.0 -1.962000000000e+01 0.0 
0.0 -1.962000000000e+01 0.0 
0.0 -1.962000000000e+01 0.0 
0.0 -1.962000000000e+01 0.0 
0.0 -1.962000000000e+01 0.0 
0.0 -1.962000000000e+01 0.0 
0.0 -1.962000000000e+01 0.0 
0.0 -1.962000000000e+01 0.0 
0.0 -1.962000000000e+01 0.0 
0.0 -1.962000000000e+01 0.0 
0.0 -1.962000000000e+01 0.0 
0.0 -1.962000000000e+01 0.0 
0.0 -1.962000000000e+01 0.0 
0.0 -1.962000000000e+01 0.0 
0.0 -1.962000000000e+01 0.0 
0.0 -1.962000000000e+01 0.0 
0.0 -1.962000000000e+01 0.0 
0.0 -1.962000000000e+01 0.0 
0.0 -1.962000000000e+01 0.0 
0.0 -1.962000000000e+01 0.0 
0.0 -1.962000000000e+01 0.0 
0.0 -1.962000000000e+01 0.0 
0.0 -1.962000000000e+01 0.0 
0.0 -1.962000000000e+01 0.0 
0.0 -1.962000000000e+01 0.0 
0.0 -1.962000000000e+01 0.0 
0.0 -1.962000000000e+01 0.0 
0.0 -1.962000000000e+01 0.0 
0.0 -1.962000000000e+01 0.0 
0.0 -1.962000000000e+01 0.0 
0.0 -1.962000000000e+01 0.0 
0.0 -1.962000000000e+01 0.0 
0.0 -1.962000000000e+01 0.0 
0.0 -1.962000000000e+01 0.0 
0.0 -1.962000000000e+01 0.0 
0.0 -1.962000000000e+01 0.0 
0.0 -1.962000000000e+01 0.0 
0.0 -1.962000000000e+01 0.0 
0.0 -1.962000000000e+01 0.0 
0.0 -1.962000000000e+01 0.0 
0.0 -1.962000000000e+01 0.0 
0.0 -1.962000000000e+01 0.0 
0.0 -1.962000000000e+01 0.0 
0.0 -1.962000000000e+01 0.0 
0.0 -1.962000000000e+01 0.0 
0.0 -1.962000000000e+01 0.0 
0.0 -1.962000000000e+01 0.0 
0.0 -1.962000000000e+01 0.0 
0.0 -1.962000000000e+01 0.0 
0.0 -1.962000000000e+01 0.0 
0.0 -1.962000000000e+01 0.0 
0.0 -1.962000000000e+01 0.0 
0.0 -1.962000000000e+01 0.0 
0.0 -1.962000000000e+01 0.0 
0.0 -1.962000000000e+01 0.0 
0.0 -1.962000000000e+01 0.0 
0.0 -1.962000000000e+01 0.0 
0.0 -1.962000000000e+01 0.0 
0.0 -1.962000000000e+01 0.0 
0.0 -1.962000000000e+01 0.0 
0.0 -1.962000000000e+01 0.0 
0.0 -1.962000000000e+01 0.0 
0.0 -1.962000000000e+01 0.0 
0.0 -1.962000000000e+01 0.0 
0.0 -1.962000000000e+01 0.0 
0.0 -1.962000000000e+01 0.0 
0.0 -1.962000000000e+01 0.0 
0.0 -1.962000000000e+01 0.0 
0.0 -1.962000000000e+01 0.0 
0.0 -1.962000000000e+01 0.0 
0.0 -1.962000000000e+01 0.0 
0.0 -1.962000000000e+01 0.0 
0.0 -1.962000000000e+01 0.0 
0.0 -1.962000000000e+01 0.0 
0.0 -1.962000000000e+01 0.0 
0.0 -1.962000000000e+01 0.0 
0.0 -1.962000000000e+01 0.0 
0.0 -1.962000000000e+01 0.0 
0.0 -1.962000000000e+01 0.0 
0.0 -1.962000000000e+01 0.0 
0.0 -1.962000000000e+01 0.0 
0.0 -1.962000000000e+01 0.0 
0.0 -1.962000000000e+01 0.0 
0.0 -1.962000000000e+01 0.0 
0.0 -1.962000000000e+01 0.0 
0.0 -1.962000000000e+01 0.0 
0.0 -1.962000000000e+01 0.0 
0.0 -1.962000000000e+01 0.0 
0.0 -1.962000000000e+01 0.0 
0.0 -1.962000000000e+01 0.0 
0.0 -1.962000000000e+01 0.0 
0.0 -1.962000000000e+01 0.0 
0.0 -1.962000000000e+01 0.0 
0.0 -1.962000000000e+01 0.0 
0.0 -1.962000000000e+01 0.0 
0.0 -1.962000000000e+01 0.0 
0.0 -1.962000000000e+01 0.0 
0.0 -1.962000000000e+01 0.0 
0.0 -1.962000000000e+01 0.0 
0.0 -1.962000000000e+01 0.0 
0.0 -1.962000000000e+01 0.0 
0.0 -1.962000000000e+01 0.0 
0.0 -1.962000000000e+01 0.0 
0.0 -1.962000000000e+01 0.0 
0.0 -1.962000000000e+01 0.0 
0.0 -1.962000000000e+01 0.0 
0.0 -1.962000000000e+01 0.0 
0.0 -1.962000000000e+01 0.0 
0.0 -1.962000000000e+01 0.0 
0.0 -1.962000000000e+01 0.0 
0.0 -1.962000000000e+01 0.0 
0.0 -1.962000000000e+01 0.0 
0.0 -1.962000000000e+01 0.0 
0.0 -1.962000000000e+01 0.0 
0.0 -1.962000000000e+01 0.0 
0.0 -1.962000000000e+01 0.0 
0.0 -1.962000000000e+01 0.0 
0.0 -1.962000000000e+01 0.0 
0.0 -1.962000000000e+01 0.0 
0.0 -1.962000000000e+01 0.0 
0.0 -1.962000000000e+01 0.0 
0.0 -1.962000000000e+01 0.0 
0.0 -1.962000000000e+01 0.0 
0.0 -1.962000000000e+01 0.0 
0.0 -1.962000000000e+01 0.0 
0.0 -1.962000000000e+01 0.0 
0.0 -1.962000000000e+01 0.0 
0.0 -1.962000000000e+01 0.0 
0.0 -1.962000000000e+01 0.0 
0.0 -1.962000000000e+01 0.0 
0.0 -1.962000000000e+01 0.0 
0.0 -1.962000000000e+01 0.0 
0.0 -1.962000000000e+01 0.0 
0.0 -1.962000000000e+01 0.0 
0.0 -1.962000000000e+01 0.0 
0.0 -1.962000000000e+01 0.0 
0.0 -1.962000000000e+01 0.0 
0.0 -1.962000000000e+01 0.0 
0.0 -1.962000000000e+01 0.0 
0.0 -1.962000000000e+01 0.0 
0.0 -1.962000000000e+01 0.0 
0.0 -1.962000000000e+01 0.0 
0.0 -1.962000000000e+01 0.0 
0.0 -1.962000000000e+01 0.0 
0.0 -1.962000000000e+01 0.0 
0.0 -1.962000000000e+01 0.0 
0.0 -1.962000000000e+01 0.0 
0.0 -1.962000000000e+01 0.0 
0.0 -1.962000000000e+01 0.0 
0.0 -1.962000000000e+01 0.0 
0.0 -1.962000000000e+01 0.0 
0.0 -1.962000000000e+01 0.0 
0.0 -1.962000000000e+01 0.0 
0.0 -1.962000000000e+01 0.0 
0.0 -1.962000000000e+01 0.0 
0.0 -1.962000000000e+01 0.0 
0.0 -1.962000000000e+01 0.0 
0.0 -1.962000000000e+01 0.0 
0.0 -1.962000000000e+01 0.0 
0.0 -1.962000000000e+01 0.0 
0.0 -1.962000000000e+01 0.0 
0.0 -1.962000000000e+01 0.0 
0.0 -1.962000000000e+01 0.0 
0.0 -1.962000000000e+01 0.0 
0.0 -1.962000000000e+01 0.0 
0.0 -1.962000000000e+01 0.0 
0.0 -1.962000000000e+01 0.0 
0.0 -1.962000000000e+01 0.0 
0.0 -1.962000000000e+01 0.0 
0.0 -1.962000000000e+01 0.0 
0.0 -1.962000000000e+01 0.0 
0.0 -1.962000000000e+01 0.0 
0.0 -1.962000000000e+01 0.0 
0.0 -1.962000000000e+01 0.0 
0.0 -1.962000000000e+01 0.0 
0.0 -1.962000000000e+01 0.0 
0.0 -1.962000000000e+01 0.0 
0.0 -1.962000000000e+01 0.0 
0.0 -1.962000000000e+01 0.0 
0.0 -1.962000000000e+01 0.0 
0.0 -1.962000000000e+01 0.0 
0.0 -1.962000000000e+01 0.0 
0.0 -1.962000000000e+01 0.0 
0.0 -1.962000000000e+01 0.0 
0.0 -1.962000000000e+01 0.0 
0.0 -1.962000000000e+01 0.0 
0.0 -1.962000000000e+01 0.0 
0.0 -1.962000000000e+01 0.0 
0.0 -1.962000000000e+01 0.0 
0.0 -1.962000000000e+01 0.0 
0.0 -1.962000000000e+01 0.0 
0.0 -1.962000000000e+01 0.0 
0.0 -1.962000000000e+01 0.0 
0.0 -1.962000000000e+01 0.0 
0.0 -1.962000000000e+01 0.0 
0.0 -1.962000000000e+01 0.0 
0.0 -1.962000000000e+01 0.0 
0.0 -1.962000000000e+01 0.0 
0.0 -1.962000000000e+01 0.0 
0.0 -1.962000000000e+01 0.0 
0.0 -1.962000000000e+01 0.0 
0.0 -1.962000000000e+01 0.0 
0.0 -1.962000000000e+01 0.0 
0.0 -1.962000000000e+01 0.0 
0.0 -1.962000000000e+01 0.0 
0.0 -1.962000000000e+01 0.0 
0.0 -1.962000000000e+01 0.0 
0.0 -1.962000000000e+01 0.0 
0.0 -1.962000000000e+01 0.0 
0.0 -1.962000000000e+01 0.0 
0.0 -1.962000000000e+01 0.0 
0.0 -1.962000000000e+01 0.0 
0.0 -1.962000000000e+01 0.0 
0.0 -1.962000000000e+01 0.0 
0.0 -1.962000000000e+01 0.0 
0.0 -1.962000000000e+01 0.0 
0.0 -1.962000000000e+01 0.0 
0.0 -1.962000000000e+01 0.0 
0.0 -1.962000000000e+01 0.0 
0.0 -1.962000000000e+01 0.0 
0.0 -1.962000000000e+01 0.0 
0.0 -1.962000000000e+01 0.0 
0.0 -1.962000000000e+01 0.0 
0.0 -1.962000000000e+01 0.0 
0.0 -1.962000000000e+01 0.0 
0.0 -1.962000000000e+01 0.0 
0.0 -1.962000000000e+01 0.0 
0.0 -1.962000000000e+01 0.0 
0.0 -1.962000000000e+01 0.0 
0.0 -1.962000000000e+01 0.0 
0.0 -1.962000000000e+01 0.0 
0.0 -1.962000000000e+01 0.0 
0.0 -1.962000000000e+01 0.0 
0.0 -1.962000000000e+01 0.0 
0.0 -1.962000000000e+01 0.0 
0.0 -1.962000000000e+01 0.0 
0.0 -1.962000000000e+01 0.0 
0.0 -1.962000000000e+01 0.0 
0.0 -1.962000000000e+01 0.0 
0.0 -1.962000000000e+01 0.0 
0.0 -1.962000000000e+01 0.0 
0.0 -1.962000000000e+01 0.0 
0.0 -1.962000000000e+01 0.0 
0.0 -1.962000000000e+01 0.0 
0.0 -1.962000000000e+01 0.0 
0.0 -1.962000000000e+01 0.0 
0.0 -1.962000000000e+01 0.0 
0.0 -1.962000000000e+01 0.0 
0.0 -1.962000000000e+01 0.0 
0.0 -1.962000000000e+01 0.0 
0.0 -1.962000000000e+01 0.0 
0.0 -1.962000000000e+01 0.0 
0.0 -1.962000000000e+01 0.0 
0.0 -1.962000000000e+01 0.0 
0.0 -1.962000000000e+01 0.0 
0.0 -1.962000000000e+01 0.0 
0.0 -1.962000000000e+01 0.0 
0.0 -1.962000000000e+01 0.0 
0.0 -1.962000000000e+01 0.0 
0.0 -1.962000000000e+01 0.0 
0.0 -1.962000000000e+01 0.0 
0.0 -1.962000000000e+01 0.0 
0.0 -1.962000000000e+01 0.0 
0.0 -1.962000000000e+01 0.0 
0.0 -1.962000000000e+01 0.0 
0.0 -1.962000000000e+01 0.0 
0.0 -1.962000000000e+01 0.0 
0.0 -1.962000000000e+01 0.0 
0.0 -1.962000000000e+01 0.0 
0.0 -1.962000000000e+01 0.0 
0.0 -1.962000000000e+01 0.0 
0.0 -1.962000000000e+01 0.0 
0.0 -1.962000000000e+01 0.0 
0.0 -1.962000000000e+01 0.0 
0.0 -1.962000000000e+01 0.0 
0.0 -1.962000000000e+01 0.0 
0.0 -1.962000000000e+01 0.0 
0.0 -1.962000000000e+01 0.0 
0.0 -1.962000000000e+01 0.0 
0.0 -1.962000000000e+01 0.0 
0.0 -1.962000000000e+01 0.0 
0.0 -1.962000000000e+01 0.0 
0.0 -1.962000000000e+01 0.0 
0.0 -1.962000000000e+01 0.0 
0.0 -1.962000000000e+01 0.0 
0.0 -1.962000000000e+01 0.0 
0.0 -1.962000000000e+01 0.0 
0.0 -1.962000000000e+01 0.0 
0.0 -1.962000000000e+01 0.0 
0.0 -1.962000000000e+01 0.0 
0.0 -1.962000000000e+01 0.0 
0.0 -1.962000000000e+01 0.0 
0.0 -1.962000000000e+01 0.0 
0.0 -1.962000000000e+01 0.0 
0.0 -1.962000000000e+01 0.0 
0.0 -1.962000000000e+01 0.0 
0.0 -1.962000000000e+01 0.0 
0.0 -1.962000000000e+01 0.0 
0.0 -1.962000000000e+01 0.0 
0.0 -1.962000000000e+01 0.0 
0.0 -1.962000000000e+01 0.0 
0.0 -1.962000000000e+01 0.0 
0.0 -1.962000000000e+01 0.0 
0.0 -1.962000000000e+01 0.0 
0.0 -1.962000000000e+01 0.0 
0.0 -1.962000000000e+01 0.0 
0.0 -1.962000000000e+01 0.0 
0.0 -1.962000000000e+01 0.0 
0.0 -1.962000000000e+01 0.0 
0.0 -1.962000000000e+01 0.0 
0.0 -1.962000000000e+01 0.0 
0.0 -1.962000000000e+01 0.0 
0.0 -1.962000000000e+01 0.0 
0.0 -1.962000000000e+01 0.0 
0.0 -1.962000000000e+01 0.0 
0.0 -1.962000000000e+01 0.0 
0.0 -1.962000000000e+01 0.0 
0.0 -1.962000000000e+01 0.0 
0.0 -1.962000000000e+01 0.0 
0.0 -1.962000000000e+01 0.0 
0.0 -1.962000000000e+01 0.0 
0.0 -1.962000000000e+01 0.0 
0.0 -1.962000000000e+01 0.0 
0.0 -1.962000000000e+01 0.0 
0.0 -1.962000000000e+01 0.0 
0.0 -1.962000000000e+01 0.0 
0.0 -1.962000000000e+01 0.0 
0.0 -1.962000000000e+01 0.0 
0.0 -1.962000000000e+01 0.0 
0.0 -1.962000000000e+01 0.0 
0.0 -1.962000000000e+01 0.0 
0.0 -1.962000000000e+01 0.0 
0.0 -1.962000000000e+01 0.0 
0.0 -1.962000000000e+01 0.0 
0.0 -1.962000000000e+01 0.0 
0.0 -1.962000000000e+01 0.0 
0.0 -1.962000000000e+01 0.0 
0.0 -1.962000000000e+01 0.0 
0.0 -1.962000000000e+01 0.0 
0.0 -1.962000000000e+01 0.0 
0.0 -1.962000000000e+01 0.0 
0.0 -1.962000000000e+01 0.0 
0.0 -1.962000000000e+01 0.0 
0.0 -1.962000000000e+01 0.0 
0.0 -1.962000000000e+01 0.0 
0.0 -1.962000000000e+01 0.0 
0.0 -1.962000000000e+01 0.0 
0.0 -1.962000000000e+01 0.0 
0.0 -1.962000000000e+01 0.0 
0.0 -1.962000000000e+01 0.0 
0.0 -1.962000000000e+01 0.0 
0.0 -1.962000000000e+01 0.0 
0.0 -1.962000000000e+01 0.0 
0.0 -1.962000000000e+01 0.0 
0.0 -1.962000000000e+01 0.0 
0.0 -1.962000000000e+01 0.0 
0.0 -1.962000000000e+01 0.0 
0.0 -1.962000000000e+01 0.0 
0.0 -1.962000000000e+01 0.0 
0.0 -1.962000000000e+01 0.0 
0.0 -1.962000000000e+01 0.0 
0.0 -1.962000000000e+01 0.0 
0.0 -1.962000000000e+01 0.0 
0.0 -1.962000000000e+01 0.0 
0.0 -1.962000000000e+01 0.0 
0.0 -1.962000000000e+01 0.0 
0.0 -1.962000000000e+01 0.0 
0.0 -1.962000000000e+01 0.0 
0.0 -1.962000000000e+01 0.0 
0.0 -1.962000000000e+01 0.0 
0.0 -1.962000000000e+01 0.0 
0.0 -1.962000000000e+01 0.0 
0.0 -1.962000000000e+01 0.0 
0.0 -1.962000000000e+01 0.0 
0.0 -1.962000000000e+01 0.0 
0.0 -1.962000000000e+01 0.0 
0.0 -1.962000000000e+01 0.0 
0.0 -1.962000000000e+01 0.0 
0.0 -1.962000000000e+01 0.0 
0.0 -1.962000000000e+01 0.0 
0.0 -1.962000000000e+01 0.0 
0.0 -1.962000000000e+01 0.0 
0.0 -1.962000000000e+01 0.0 
0.0 -1.962000000000e+01 0.0 
0.0 -1.962000000000e+01 0.0 
0.0 -1.962000000000e+01 0.0 
0.0 -1.962000000000e+01 0.0 
0.0 -1.962000000000e+01 0.0 
0.0 -1.962000000000e+01 0.0 
0.0 -1.962000000000e+01 0.0 
0.0 -1.962000000000e+01 0.0 
0.0 -1.962000000000e+01 0.0 
0.0 -1.962000000000e+01 0.0 
0.0 -1.962000000000e+01 0.0 
0.0 -1.962000000000e+01 0.0 
0.0 -1.962000000000e+01 0.0 
0.0 -1.962000000000e+01 0.0 
0.0 -1.962000000000e+01 0.0 
0.0 -1.962000000000e+01 0.0 
0.0 -1.962000000000e+01 0.0 
0.0 -1.962000000000e+01 0.0 
0.0 -1.962000000000e+01 0.0 
0.0 -1.962000000000e+01 0.0 
0.0 -1.962000000000e+01 0.0 
0.0 -1.962000000000e+01 0.0 
0.0 -1.962000000000e+01 0.0 
0.0 -1.962000000000e+01 0.0 
0.0 -1.962000000000e+01 0.0 
0.0 -1.962000000000e+01 0.0 
0.0 -1.962000000000e+01 0.0 
0.0 -1.962000000000e+01 0.0 
0.0 -1.962000000000e+01 0.0 
0.0 -1.962000000000e+01 0.0 
0.0 -1.962000000000e+01 0.0 
0.0 -1.962000000000e+01 0.0 
0.0 -1.962000000000e+01 0.0 
0.0 -1.962000000000e+01 0.0 
0.0 -1.962000000000e+01 0.0 
0.0 -1.962000000000e+01 0.0 
0.0 -1.962000000000e+01 0.0 
0.0 -1.962000000000e+01 0.0 
0.0 -1.962000000000e+01 0.0 
0.0 -1.962000000000e+01 0.0 
0.0 -1.962000000000e+01 0.0 
0.0 -1.962000000000e+01 0.0 
0.0 -1.962000000000e+01 0.0 
0.0 -1.962000000000e+01 0.0 
0.0 -1.962000000000e+01 0.0 
0.0 -1.962000000000e+01 0.0 
0.0 -1.962000000000e+01 0.0 
0.0 -1.962000000000e+01 0.0 
0.0 -1.962000000000e+01 0.0 
0.0 -1.962000000000e+01 0.0 
0.0 -1.962000000000e+01 0.0 
0.0 -1.962000000000e+01 0.0 
0.0 -1.962000000000e+01 0.0 
0.0 -1.962000000000e+01 0.0 
0.0 -1.962000000000e+01 0.0 
0.0 -1.962000000000e+01 0.0 
0.0 -1.962000000000e+01 0.0 
0.0 -1.962000000000e+01 0.0 
0.0 -1.962000000000e+01 0.0 
0.0 -1.962000000000e+01 0.0 
0.0 -1.962000000000e+01 0.0 
0.0 -1.962000000000e+01 0.0 
0.0 -1.962000000000e+01 0.0 
0.0 -1.962000000000e+01 0.0 
0.0 -1.962000000000e+01 0.0 
0.0 -1.962000000000e+01 0.0 
0.0 -1.962000000000e+01 0.0 
0.0 -1.962000000000e+01 0.0 
0.0 -1.962000000000e+01 0.0 
0.0 -1.962000000000e+01 0.0 
0.0 -1.962000000000e+01 0.0 
0.0 -1.962000000000e+01 0.0 
0.0 -1.962000000000e+01 0.0 
0.0 -1.962000000000e+01 0.0 
0.0 -1.962000000000e+01 0.0 
0.0 -1.962000000000e+01 0.0 
0.0 -1.962000000000e+01 0.0 
0.0 -1.962000000000e+01 0.0 
0.0 -1.962000000000e+01 0.0 
0.0 -1.962000000000e+01 0.0 
0.0 -1.962000000000e+01 0.0 
0.0 -1.962000000000e+01 0.0 
0.0 -1.962000000000e+01 0.0 
0.0 -1.962000000000e+01 0.0 
0.0 -1.962000000000e+01 0.0 
0.0 -1.962000000000e+01 0.0 
0.0 -1.962000000000e+01 0.0 
0.0 -1.962000000000e+01 0.0 
0.0 -1.962000000000e+01 0.0 
0.0 -1.962000000000e+01 0.0 
0.0 -1.962000000000e+01 0.0 
0.0 -1.962000000000e+01 0.0 
0.0 -1.962000000000e+01 0.0 
0.0 -1.962000000000e+01 0.0 
0.0 -1.962000000000e+01 0.0 
0.0 -1.962000000000e+01 0.0 
0.0 -1.962000000000e+01 0.0 
0.0 -1.962000000000e+01 0.0 
0.0 -1.962000000000e+01 0.0 
0.0 -1.962000000000e+01 0.0 
0.0 -1.962000000000e+01 0.0 
0.0 -1.962000000000e+01 0.0 
0.0 -1.962000000000e+01 0.0 
0.0 -1.962000000000e+01 0.0 
0.0 -1.962000000000e+01 0.0 
0.0 -1.962000000000e+01 0.0 
0.0 -1.962000000000e+01 0.0 
0.0 -1.962000000000e+01 0.0 
0.0 -1.962000000000e+01 0.0 
0.0 -1.962000000000e+01 0.0 
0.0 -1.962000000000e+01 0.0 
0.0 -1.962000000000e+01 0.0 
0.0 -1.962000000000e+01 0.0 
0.0 -1.962000000000e+01 0.0 
0.0 -1.962000000000e+01 0.0 
0.0 -1.962000000000e+01 0.0 
0.0 -1.962000000000e+01 0.0 
0.0 -1.962000000000e+01 0.0 
0.0 -1.962000000000e+01 0.0 
0.0 -1.962000000000e+01 0.0 
0.0 -1.962000000000e+01 0.0 
0.0 -1.962000000000e+01 0.0 
0.0 -1.962000000000e+01 0.0 
0.0 -1.962000000000e+01 0.0 
0.0 -1.962000000000e+01 0.0 
0.0 -1.962000000000e+01 0.0 
0.0 -1.962000000000e+01 0.0 
0.0 -1.962000000000e+01 0.0 
0.0 -1.962000000000e+01 0.0 
0.0 -1.962000000000e+01 0.0 
0.0 -1.962000000000e+01 0.0 
0.0 -1.962000000000e+01 0.0 
0.0 -1.962000000000e+01 0.0 
0.0 -1.962000000000e+01 0.0 
0.0 -1.962000000000e+01 0.0 
0.0 -1.962000000000e+01 0.0 
0.0 -1.962000000000e+01 0.0 
0.0 -1.962000000000e+01 0.0 
0.0 -1.962000000000e+01 0.0 
0.0 -1.962000000000e+01 0.0 
0.0 -1.962000000000e+01 0.0 
0.0 -1.962000000000e+01 0.0 
0.0 -1.962000000000e+01 0.0 
0.0 -1.962000000000e+01 0.0 
0.0 -1.962000000000e+01 0.0 
0.0 -1.962000000000e+01 0.0 
0.0 -1.962000000000e+01 0.0 
0.0 -1.962000000000e+01 0.0 
0.0 -1.962000000000e+01 0.0 
0.0 -1.962000000000e+01 0.0 
0.0 -1.962000000000e+01 0.0 
0.0 -1.962000000000e+01 0.0 
0.0 -1.962000000000e+01 0.0 
0.0 -1.962000000000e+01 0.0 
0.0 -1.962000000000e+01 0.0 
0.0 -1.962000000000e+01 0.0 
0.0 -1.962000000000e+01 0.0 
0.0 -1.962000000000e+01 0.0 
0.0 -1.962000000000e+01 0.0 
0.0 -1.962000000000e+01 0.0 
0.0 -1.962000000000e+01 0.0 
0.0 -1.962000000000e+01 0.0 
0.0 -1.962000000000e+01 0.0 
0.0 -1.962000000000e+01 0.0 
0.0 -1.962000000000e+01 0.0 
0.0 -1.962000000000e+01 0.0 
0.0 -1.962000000000e+01 0.0 
0.0 -1.962000000000e+01 0.0 
0.0 -1.962000000000e+01 0.0 
0.0 -1.962000000000e+01 0.0 
0.0 -1.962000000000e+01 0.0 
0.0 -1.962000000000e+01 0.0 
0.0 -1.962000000000e+01 0.0 
0.0 -1.962000000000e+01 0.0 
0.0 -1.962000000000e+01 0.0 
0.0 -1.962000000000e+01 0.0 
0.0 -1.962000000000e+01 0.0 
0.0 -1.962000000000e+01 0.0 
0.0 -1.962000000000e+01 0.0 
0.0 -1.962000000000e+01 0.0 
0.0 -1.962000000000e+01 0.0 
0.0 -1.962000000000e+01 0.0 
0.0 -1.962000000000e+01 0.0 
0.0 -1.962000000000e+01 0.0 
0.0 -1.962000000000e+01 0.0 
0.0 -1.962000000000e+01 0.0 
0.0 -1.962000000000e+01 0.0 
0.0 -1.962000000000e+01 0.0 
0.0 -1.962000000000e+01 0.0 
0.0 -1.962000000000e+01 0.0 
0.0 -1.962000000000e+01 0.0 
0.0 -1.962000000000e+01 0.0 
0.0 -1.962000000000e+01 0.0 
0.0 -1.962000000000e+01 0.0 
0.0 -1.962000000000e+01 0.0 
0.0 -1.962000000000e+01 0.0 
0.0 -1.962000000000e+01 0.0 
0.0 -1.962000000000e+01 0.0 
0.0 -1.962000000000e+01 0.0 
0.0 -1.962000000000e+01 0.0 
0.0 -1.962000000000e+01 0.0 
0.0 -1.962000000000e+01 0.0 
0.0 -1.962000000000e+01 0.0 
0.0 -1.962000000000e+01 0.0 
0.0 -1.962000000000e+01 0.0 
0.0 -1.962000000000e+01 0.0 
0.0 -1.962000000000e+01 0.0 
0.0 -1.962000000000e+01 0.0 
0.0 -1.962000000000e+01 0.0 
0.0 -1.962000000000e+01 0.0 
0.0 -1.962000000000e+01 0.0 
0.0 -1.962000000000e+01 0.0 
0.0 -1.962000000000e+01 0.0 
0.0 -1.962000000000e+01 0.0 
0.0 -1.962000000000e+01 0.0 
0.0 -1.962000000000e+01 0.0 
0.0 -1.962000000000e+01 0.0 
0.0 -1.962000000000e+01 0.0 
0.0 -1.962000000000e+01 0.0 
0.0 -1.962000000000e+01 0.0 
0.0 -1.962000000000e+01 0.0 
0.0 -1.962000000000e+01 0.0 
0.0 -1.962000000000e+01 0.0 
0.0 -1.962000000000e+01 0.0 
0.0 -1.962000000000e+01 0.0 
0.0 -1.962000000000e+01 0.0 
0.0 -1.962000000000e+01 0.0 
0.0 -1.962000000000e+01 0.0 
0.0 -1.962000000000e+01 0.0 
0.0 -1.962000000000e+01 0.0 
0.0 -1.962000000000e+01 0.0 
0.0 -1.962000000000e+01 0.0 
0.0 -1.962000000000e+01 0.0 
0.0 -1.962000000000e+01 0.0 
0.0 -1.962000000000e+01 0.0 
0.0 -1.962000000000e+01 0.0 
0.0 -1.962000000000e+01 0.0 
0.0 -1.962000000000e+01 0.0 
0.0 -1.962000000000e+01 0.0 
0.0 -1.962000000000e+01 0.0 
0.0 -1.962000000000e+01 0.0 
0.0 -1.962000000000e+01 0.0 
0.0 -1.962000000000e+01 0.0 
0.0 -1.962000000000e+01 0.0 
0.0 -1.962000000000e+01 0.0 
0.0 -1.962000000000e+01 0.0 
0.0 -1.962000000000e+01 0.0 
0.0 -1.962000000000e+01 0.0 
0.0 -1.962000000000e+01 0.0 
0.0 -1.962000000000e+01 0.0 
0.0 -1.962000000000e+01 0.0 
0.0 -1.962000000000e+01 0.0 
0.0 -1.962000000000e+01 0.0 
0.0 -1.962000000000e+01 0.0 
0.0 -1.962000000000e+01 0.0 
0.0 -1.962000000000e+01 0.0 
0.0 -1.962000000000e+01 0.0 
0.0 -1.962000000000e+01 0.0 
0.0 -1.962000000000e+01 0.0 
0.0 -1.962000000000e+01 0.0 
0.0 -1.962000000000e+01 0.0 
0.0 -1.962000000000e+01 0.0 
0.0 -1.962000000000e+01 0.0 
0.0 -1.962000000000e+01 0.0 
0.0 -1.962000000000e+01 0.0 
0.0 -1.962000000000e+01 0.0 
0.0 -1.962000000000e+01 0.0 
0.0 -1.962000000000e+01 0.0 
0.0 -1.962000000000e+01 0.0 
0.0 -1.962000000000e+01 0.0 
0.0 -1.962000000000e+01 0.0 
0.0 -1.962000000000e+01 0.0 
0.0 -1.962000000000e+01 0.0 
0.0 -1.962000000000e+01 0.0 
0.0 -1.962000000000e+01 0.0 
0.0 -1.962000000000e+01 0.0 
0.0 -1.962000000000e+01 0.0 
0.0 -1.962000000000e+01 0.0 
0.0 -1.962000000000e+01 0.0 
0.0 -1.962000000000e+01 0.0 
0.0 -1.962000000000e+01 0.0 
0.0 -1.962000000000e+01 0.0 
0.0 -1.962000000000e+01 0.0 
0.0 -1.962000000000e+01 0.0 
0.0 -1.962000000000e+01 0.0 
0.0 -1.962000000000e+01 0.0 
0.0 -1.962000000000e+01 0.0 
0.0 -1.962000000000e+01 0.0 
0.0 -1.962000000000e+01 0.0 
0.0 -1.962000000000e+01 0.0 
0.0 -1.962000000000e+01 0.0 

VECTORS node_rhside_materi_fixed float
-1.493171253376e+00 0.0 0.0 
4.241310006490e+01 0.0 0.0 
-8.165193985517e+01 -1.953053269835e+02 0.0 
5.795759343240e+01 -1.391727785670e+02 0.0 
-7.158095271374e+00 0.0 0.0 
-1.510434437258e+01 0.0 0.0 
-2.151755067280e+01 0.0 0.0 
-2.968863754937e+01 0.0 0.0 
-3.675570827736e+01 0.0 0.0 
-4.413632866108e+01 0.0 0.0 
-5.156617059759e+01 0.0 0.0 
-5.905229851954e+01 0.0 0.0 
-6.665953728409e+01 0.0 0.0 
-7.435241225418e+01 0.0 0.0 
-8.269177750855e+01 0.0 0.0 
-9.112843972741e+01 0.0 0.0 
-9.927316018806e+01 0.0 0.0 
-1.082974278119e+02 0.0 0.0 
-1.173758585917e+02 0.0 0.0 
-1.267260802621e+02 0.0 0.0 
-1.363511038147e+02 0.0 0.0 
-1.462144768968e+02 0.0 0.0 
-1.566370310915e+02 0.0 0.0 
5.109589427210e-01 -2.772161116135e+02 0.0 
8.271057856207e-01 -2.784517685266e+02 0.0 
2.945955541355e+00 -2.776966769402e+02 0.0 
1.845517312399e+00 -2.779283054629e+02 0.0 
3.754989883097e+00 -2.788200923805e+02 0.0 
4.365893629348e+00 -2.784139924911e+02 0.0 
4.961735932706e+00 -2.793287888581e+02 0.0 
5.949986365219e+00 -2.802151213741e+02 0.0 
7.917503665902e+00 -2.801661445002e+02 0.0 
7.252450839927e+00 -2.811238535120e+02 0.0 
9.664343215523e+00 -2.830125146941e+02 0.0 
1.082048584742e+01 -2.834565388539e+02 0.0 
1.191388799498e+01 -2.857526225215e+02 0.0 
1.317858456375e+01 -2.872691591759e+02 0.0 
1.479648881016e+01 -2.894348964999e+02 0.0 
1.587645694891e+01 -2.924854715987e+02 0.0 
1.823072611576e+01 -2.953750854584e+02 0.0 
1.947187456414e+01 -2.989178757743e+02 0.0 
2.089398917589e+01 -3.026885358219e+02 0.0 
2.205358326451e+01 -3.065378984453e+02 0.0 
2.264950302415e+01 -3.110422995695e+02 0.0 
2.397866121277e+01 -3.162069269088e+02 0.0 
2.444969959434e+01 -3.209909252048e+02 0.0 
2.493775633394e+01 -3.260829380565e+02 0.0 
2.512803900874e+01 -3.315152577150e+02 0.0 
2.491225618969e+01 -3.365213206506e+02 0.0 
2.453096122016e+01 -3.414377473525e+02 0.0 
2.388758843587e+01 -3.464869889228e+02 0.0 
2.320110417873e+01 -3.513821270218e+02 0.0 
2.234808859136e+01 -3.556671875957e+02 0.0 
2.092497986251e+01 -3.595580059971e+02 0.0 
1.990942061223e+01 -3.640770961101e+02 0.0 
1.870692292495e+01 -3.672311590496e+02 0.0 
1.745342983888e+01 -3.706396955441e+02 0.0 
1.600409378395e+01 -3.735116113053e+02 0.0 
1.476465652018e+01 -3.760783247142e+02 0.0 
1.342833503317e+01 -3.784898626844e+02 0.0 
1.208185664852e+01 -3.805172531670e+02 0.0 
1.088725137656e+01 -3.822822836244e+02 0.0 
9.736936565210e+00 -3.841723562096e+02 0.0 
8.584565735278e+00 -3.853115215062e+02 0.0 
7.465678424485e+00 -3.863499933396e+02 0.0 
6.367478922107e+00 -3.871267016125e+02 0.0 
5.509070104284e+00 -3.886879802941e+02 0.0 
4.300530045285e+00 -3.885492901275e+02 0.0 
3.417504541879e+00 -3.896989876767e+02 0.0 
2.772488065784e+00 -3.896031344541e+02 0.0 
1.727943034385e+00 -3.900507250748e+02 0.0 
7.870335648983e-01 -3.901007384568e+02 0.0 
5.034157693522e+01 0.0 0.0 
5.889641724282e+01 0.0 0.0 
6.690035805863e+01 0.0 0.0 
7.462514566573e+01 0.0 0.0 
8.231165740274e+01 0.0 0.0 
9.019302218509e+01 0.0 0.0 
9.746849251606e+01 0.0 0.0 
1.042496267780e+02 0.0 0.0 
1.122352649195e+02 0.0 0.0 
0.0 0.0 0.0 
0.0 0.0 0.0 
0.0 0.0 0.0 
0.0 0.0 0.0 
0.0 0.0 0.0 
0.0 0.0 0.0 
0.0 0.0 0.0 
0.0 0.0 0.0 
0.0 0.0 0.0 
0.0 0.0 0.0 
0.0 0.0 0.0 
6.226541231919e+00 0.0 0.0 
1.777338651141e+01 0.0 0.0 
2.590964272931e+01 0.0 0.0 
3.424337299383e+01 0.0 0.0 
0.0 0.0 0.0 
0.0 0.0 0.0 
0.0 0.0 0.0 
0.0 0.0 0.0 
0.0 0.0 0.0 
0.0 0.0 0.0 
0.0 0.0 0.0 
0.0 0.0 0.0 
0.0 0.0 0.0 
0.0 0.0 0.0 
0.0 0.0 0.0 
0.0 0.0 0.0 
0.0 0.0 0.0 
0.0 0.0 0.0 
0.0 0.0 0.0 
0.0 0.0 0.0 
0.0 0.0 0.0 
0.0 0.0 0.0 
0.0 0.0 0.0 
0.0 0.0 0.0 
0.0 0.0 0.0 
0.0 0.0 0.0 
0.0 0.0 0.0 
0.0 0.0 0.0 
0.0 0.0 0.0 
0.0 0.0 0.0 
0.0 0.0 0.0 
0.0 0.0 0.0 
0.0 0.0 0.0 
0.0 0.0 0.0 
0.0 0.0 0.0 
0.0 0.0 0.0 
0.0 0.0 0.0 
0.0 0.0 0.0 
0.0 0.0 0.0 
0.0 0.0 0.0 
0.0 0.0 0.0 
0.0 0.0 0.0 
0.0 0.0 0.0 
0.0 0.0 0.0 
0.0 0.0 0.0 
0.0 0.0 0.0 
0.0 0.0 0.0 
0.0 0.0 0.0 
0.0 0.0 0.0 
0.0 0.0 0.0 
0.0 0.0 0.0 
0.0 0.0 0.0 
0.0 0.0 0.0 
0.0 0.0 0.0 
0.0 0.0 0.0 
0.0 0.0 0.0 
0.0 0.0 0.0 
0.0 0.0 0.0 
0.0 0.0 0.0 
0.0 0.0 0.0 
0.0 0.0 0.0 
0.0 0.0 0.0 
0.0 0.0 0.0 
0.0 0.0 0.0 
0.0 0.0 0.0 
0.0 0.0 0.0 
0.0 0.0 0.0 
0.0 0.0 0.0 
0.0 0.0 0.0 
0.0 0.0 0.0 
0.0 0.0 0.0 
0.0 0.0 0.0 
0.0 0.0 0.0 
0.0 0.0 0.0 
0.0 0.0 0.0 
0.0 0.0 0.0 
0.0 0.0 0.0 
0.0 0.0 0.0 
0.0 0.0 0.0 
0.0 0.0 0.0 
0.0 0.0 0.0 
0.0 0.0 0.0 
0.0 0.0 0.0 
0.0 0.0 0.0 
0.0 0.0 0.0 
0.0 0.0 0.0 
0.0 0.0 0.0 
0.0 0.0 0.0 
0.0 0.0 0.0 
0.0 0.0 0.0 
0.0 0.0 0.0 
0.0 0.0 0.0 
0.0 0.0 0.0 
0.0 0.0 0.0 
0.0 0.0 0.0 
0.0 0.0 0.0 
0.0 0.0 0.0 
0.0 0.0 0.0 
0.0 0.0 0.0 
0.0 0.0 0.0 
0.0 0.0 0.0 
0.0 0.0 0.0 
0.0 0.0 0.0 
0.0 0.0 0.0 
0.0 0.0 0.0 
0.0 0.0 0.0 
0.0 0.0 0.0 
0.0 0.0 0.0 
0.0 0.0 0.0 
0.0 0.0 0.0 
0.0 0.0 0.0 
0.0 0.0 0.0 
0.0 0.0 0.0 
0.0 0.0 0.0 
0.0 0.0 0.0 
0.0 0.0 0.0 
0.0 0.0 0.0 
0.0 0.0 0.0 
0.0 0.0 0.0 
0.0 0.0 0.0 
0.0 0.0 0.0 
0.0 0.0 0.0 
0.0 0.0 0.0 
0.0 0.0 0.0 
0.0 0.0 0.0 
0.0 0.0 0.0 
0.0 0.0 0.0 
0.0 0.0 0.0 
0.0 0.0 0.0 
0.0 0.0 0.0 
0.0 0.0 0.0 
0.0 0.0 0.0 
0.0 0.0 0.0 
0.0 0.0 0.0 
0.0 0.0 0.0 
0.0 0.0 0.0 
0.0 0.0 0.0 
0.0 0.0 0.0 
0.0 0.0 0.0 
0.0 0.0 0.0 
0.0 0.0 0.0 
0.0 0.0 0.0 
0.0 0.0 0.0 
0.0 0.0 0.0 
0.0 0.0 0.0 
0.0 0.0 0.0 
0.0 0.0 0.0 
0.0 0.0 0.0 
0.0 0.0 0.0 
0.0 0.0 0.0 
0.0 0.0 0.0 
0.0 0.0 0.0 
0.0 0.0 0.0 
0.0 0.0 0.0 
0.0 0.0 0.0 
0.0 0.0 0.0 
0.0 0.0 0.0 
0.0 0.0 0.0 
0.0 0.0 0.0 
0.0 0.0 0.0 
0.0 0.0 0.0 
0.0 0.0 0.0 
0.0 0.0 0.0 
0.0 0.0 0.0 
0.0 0.0 0.0 
0.0 0.0 0.0 
0.0 0.0 0.0 
0.0 0.0 0.0 
0.0 0.0 0.0 
0.0 0.0 0.0 
0.0 0.0 0.0 
0.0 0.0 0.0 
0.0 0.0 0.0 
0.0 0.0 0.0 
0.0 0.0 0.0 
0.0 0.0 0.0 
0.0 0.0 0.0 
0.0 0.0 0.0 
0.0 0.0 0.0 
0.0 0.0 0.0 
0.0 0.0 0.0 
0.0 0.0 0.0 
0.0 0.0 0.0 
0.0 0.0 0.0 
0.0 0.0 0.0 
0.0 0.0 0.0 
0.0 0.0 0.0 
0.0 0.0 0.0 
0.0 0.0 0.0 
0.0 0.0 0.0 
0.0 0.0 0.0 
0.0 0.0 0.0 
0.0 0.0 0.0 
0.0 0.0 0.0 
0.0 0.0 0.0 
0.0 0.0 0.0 
0.0 0.0 0.0 
0.0 0.0 0.0 
0.0 0.0 0.0 
0.0 0.0 0.0 
0.0 0.0 0.0 
0.0 0.0 0.0 
0.0 0.0 0.0 
0.0 0.0 0.0 
0.0 0.0 0.0 
0.0 0.0 0.0 
0.0 0.0 0.0 
0.0 0.0 0.0 
0.0 0.0 0.0 
0.0 0.0 0.0 
0.0 0.0 0.0 
0.0 0.0 0.0 
0.0 0.0 0.0 
0.0 0.0 0.0 
0.0 0.0 0.0 
0.0 0.0 0.0 
0.0 0.0 0.0 
0.0 0.0 0.0 
0.0 0.0 0.0 
0.0 0.0 0.0 
0.0 0.0 0.0 
0.0 0.0 0.0 
0.0 0.0 0.0 
0.0 0.0 0.0 
0.0 0.0 0.0 
0.0 0.0 0.0 
0.0 0.0 0.0 
0.0 0.0 0.0 
0.0 0.0 0.0 
0.0 0.0 0.0 
0.0 0.0 0.0 
0.0 0.0 0.0 
0.0 0.0 0.0 
0.0 0.0 0.0 
0.0 0.0 0.0 
0.0 0.0 0.0 
0.0 0.0 0.0 
0.0 0.0 0.0 
0.0 0.0 0.0 
0.0 0.0 0.0 
0.0 0.0 0.0 
0.0 0.0 0.0 
0.0 0.0 0.0 
0.0 0.0 0.0 
0.0 0.0 0.0 
0.0 0.0 0.0 
0.0 0.0 0.0 
0.0 0.0 0.0 
0.0 0.0 0.0 
0.0 0.0 0.0 
0.0 0.0 0.0 
0.0 0.0 0.0 
0.0 0.0 0.0 
0.0 0.0 0.0 
0.0 0.0 0.0 
0.0 0.0 0.0 
0.0 0.0 0.0 
0.0 0.0 0.0 
0.0 0.0 0.0 
0.0 0.0 0.0 
0.0 0.0 0.0 
0.0 0.0 0.0 
0.0 0.0 0.0 
0.0 0.0 0.0 
0.0 0.0 0.0 
0.0 0.0 0.0 
0.0 0.0 0.0 
0.0 0.0 0.0 
0.0 0.0 0.0 
0.0 0.0 0.0 
0.0 0.0 0.0 
0.0 0.0 0.0 
0.0 0.0 0.0 
0.0 0.0 0.0 
0.0 0.0 0.0 
0.0 0.0 0.0 
0.0 0.0 0.0 
0.0 0.0 0.0 
0.0 0.0 0.0 
0.0 0.0 0.0 
0.0 0.0 0.0 
0.0 0.0 0.0 
0.0 0.0 0.0 
0.0 0.0 0.0 
0.0 0.0 0.0 
0.0 0.0 0.0 
0.0 0.0 0.0 
0.0 0.0 0.0 
0.0 0.0 0.0 
0.0 0.0 0.0 
0.0 0.0 0.0 
0.0 0.0 0.0 
0.0 0.0 0.0 
0.0 0.0 0.0 
0.0 0.0 0.0 
0.0 0.0 0.0 
0.0 0.0 0.0 
0.0 0.0 0.0 
0.0 0.0 0.0 
0.0 0.0 0.0 
0.0 0.0 0.0 
0.0 0.0 0.0 
0.0 0.0 0.0 
0.0 0.0 0.0 
0.0 0.0 0.0 
0.0 0.0 0.0 
0.0 0.0 0.0 
0.0 0.0 0.0 
0.0 0.0 0.0 
0.0 0.0 0.0 
0.0 0.0 0.0 
0.0 0.0 0.0 
0.0 0.0 0.0 
0.0 0.0 0.0 
0.0 0.0 0.0 
0.0 0.0 0.0 
0.0 0.0 0.0 
0.0 0.0 0.0 
0.0 0.0 0.0 
0.0 0.0 0.0 
0.0 0.0 0.0 
0.0 0.0 0.0 
0.0 0.0 0.0 
0.0 0.0 0.0 
0.0 0.0 0.0 
0.0 0.0 0.0 
0.0 0.0 0.0 
0.0 0.0 0.0 
0.0 0.0 0.0 
0.0 0.0 0.0 
0.0 0.0 0.0 
0.0 0.0 0.0 
0.0 0.0 0.0 
0.0 0.0 0.0 
0.0 0.0 0.0 
0.0 0.0 0.0 
0.0 0.0 0.0 
0.0 0.0 0.0 
0.0 0.0 0.0 
0.0 0.0 0.0 
0.0 0.0 0.0 
0.0 0.0 0.0 
0.0 0.0 0.0 
0.0 0.0 0.0 
0.0 0.0 0.0 
0.0 0.0 0.0 
0.0 0.0 0.0 
0.0 0.0 0.0 
0.0 0.0 0.0 
0.0 0.0 0.0 
0.0 0.0 0.0 
0.0 0.0 0.0 
0.0 0.0 0.0 
0.0 0.0 0.0 
0.0 0.0 0.0 
0.0 0.0 0.0 
0.0 0.0 0.0 
0.0 0.0 0.0 
0.0 0.0 0.0 
0.0 0.0 0.0 
0.0 0.0 0.0 
0.0 0.0 0.0 
0.0 0.0 0.0 
0.0 0.0 0.0 
0.0 0.0 0.0 
0.0 0.0 0.0 
0.0 0.0 0.0 
0.0 0.0 0.0 
0.0 0.0 0.0 
0.0 0.0 0.0 
0.0 0.0 0.0 
0.0 0.0 0.0 
0.0 0.0 0.0 
0.0 0.0 0.0 
0.0 0.0 0.0 
0.0 0.0 0.0 
0.0 0.0 0.0 
0.0 0.0 0.0 
0.0 0.0 0.0 
0.0 0.0 0.0 
0.0 0.0 0.0 
0.0 0.0 0.0 
0.0 0.0 0.0 
0.0 0.0 0.0 
0.0 0.0 0.0 
0.0 0.0 0.0 
0.0 0.0 0.0 
0.0 0.0 0.0 
0.0 0.0 0.0 
0.0 0.0 0.0 
0.0 0.0 0.0 
0.0 0.0 0.0 
0.0 0.0 0.0 
0.0 0.0 0.0 
0.0 0.0 0.0 
0.0 0.0 0.0 
0.0 0.0 0.0 
0.0 0.0 0.0 
0.0 0.0 0.0 
0.0 0.0 0.0 
0.0 0.0 0.0 
0.0 0.0 0.0 
0.0 0.0 0.0 
0.0 0.0 0.0 
0.0 0.0 0.0 
0.0 0.0 0.0 
0.0 0.0 0.0 
0.0 0.0 0.0 
0.0 0.0 0.0 
0.0 0.0 0.0 
0.0 0.0 0.0 
0.0 0.0 0.0 
0.0 0.0 0.0 
0.0 0.0 0.0 
0.0 0.0 0.0 
0.0 0.0 0.0 
0.0 0.0 0.0 
0.0 0.0 0.0 
0.0 0.0 0.0 
0.0 0.0 0.0 
0.0 0.0 0.0 
0.0 0.0 0.0 
0.0 0.0 0.0 
0.0 0.0 0.0 
0.0 0.0 0.0 
0.0 0.0 0.0 
0.0 0.0 0.0 
0.0 0.0 0.0 
0.0 0.0 0.0 
0.0 0.0 0.0 
0.0 0.0 0.0 
0.0 0.0 0.0 
0.0 0.0 0.0 
0.0 0.0 0.0 
0.0 0.0 0.0 
0.0 0.0 0.0 
0.0 0.0 0.0 
0.0 0.0 0.0 
0.0 0.0 0.0 
0.0 0.0 0.0 
0.0 0.0 0.0 
0.0 0.0 0.0 
0.0 0.0 0.0 
0.0 0.0 0.0 
0.0 0.0 0.0 
0.0 0.0 0.0 
0.0 0.0 0.0 
0.0 0.0 0.0 
0.0 0.0 0.0 
0.0 0.0 0.0 
0.0 0.0 0.0 
0.0 0.0 0.0 
0.0 0.0 0.0 
0.0 0.0 0.0 
0.0 0.0 0.0 
0.0 0.0 0.0 
0.0 0.0 0.0 
0.0 0.0 0.0 
0.0 0.0 0.0 
0.0 0.0 0.0 
0.0 0.0 0.0 
0.0 0.0 0.0 
0.0 0.0 0.0 
0.0 0.0 0.0 
0.0 0.0 0.0 
0.0 0.0 0.0 
0.0 0.0 0.0 
0.0 0.0 0.0 
0.0 0.0 0.0 
0.0 0.0 0.0 
0.0 0.0 0.0 
0.0 0.0 0.0 
0.0 0.0 0.0 
0.0 0.0 0.0 
0.0 0.0 0.0 
0.0 0.0 0.0 
0.0 0.0 0.0 
0.0 0.0 0.0 
0.0 0.0 0.0 
0.0 0.0 0.0 
0.0 0.0 0.0 
0.0 0.0 0.0 
0.0 0.0 0.0 
0.0 0.0 0.0 
0.0 0.0 0.0 
0.0 0.0 0.0 
0.0 0.0 0.0 
0.0 0.0 0.0 
0.0 0.0 0.0 
0.0 0.0 0.0 
0.0 0.0 0.0 
0.0 0.0 0.0 
0.0 0.0 0.0 
0.0 0.0 0.0 
0.0 0.0 0.0 
0.0 0.0 0.0 
0.0 0.0 0.0 
0.0 0.0 0.0 
0.0 0.0 0.0 
0.0 0.0 0.0 
0.0 0.0 0.0 
0.0 0.0 0.0 
0.0 0.0 0.0 
0.0 0.0 0.0 
0.0 0.0 0.0 
0.0 0.0 0.0 
0.0 0.0 0.0 
0.0 0.0 0.0 
0.0 0.0 0.0 
0.0 0.0 0.0 
0.0 0.0 0.0 
0.0 0.0 0.0 
0.0 0.0 0.0 
0.0 0.0 0.0 
0.0 0.0 0.0 
0.0 0.0 0.0 
0.0 0.0 0.0 
0.0 0.0 0.0 
0.0 0.0 0.0 
0.0 0.0 0.0 
0.0 0.0 0.0 
0.0 0.0 0.0 
0.0 0.0 0.0 
0.0 0.0 0.0 
0.0 0.0 0.0 
0.0 0.0 0.0 
0.0 0.0 0.0 
0.0 0.0 0.0 
0.0 0.0 0.0 
0.0 0.0 0.0 
0.0 0.0 0.0 
0.0 0.0 0.0 
0.0 0.0 0.0 
0.0 0.0 0.0 
0.0 0.0 0.0 
0.0 0.0 0.0 
0.0 0.0 0.0 
0.0 0.0 0.0 
0.0 0.0 0.0 
0.0 0.0 0.0 
0.0 0.0 0.0 
0.0 0.0 0.0 
0.0 0.0 0.0 
0.0 0.0 0.0 
0.0 0.0 0.0 
0.0 0.0 0.0 
0.0 0.0 0.0 
0.0 0.0 0.0 
0.0 0.0 0.0 
0.0 0.0 0.0 
0.0 0.0 0.0 
0.0 0.0 0.0 
0.0 0.0 0.0 
0.0 0.0 0.0 
0.0 0.0 0.0 
0.0 0.0 0.0 
0.0 0.0 0.0 
0.0 0.0 0.0 
0.0 0.0 0.0 
0.0 0.0 0.0 
0.0 0.0 0.0 
0.0 0.0 0.0 
0.0 0.0 0.0 
0.0 0.0 0.0 
0.0 0.0 0.0 
0.0 0.0 0.0 
0.0 0.0 0.0 
0.0 0.0 0.0 
0.0 0.0 0.0 
0.0 0.0 0.0 
0.0 0.0 0.0 
0.0 0.0 0.0 
0.0 0.0 0.0 
0.0 0.0 0.0 
0.0 0.0 0.0 
0.0 0.0 0.0 
0.0 0.0 0.0 
0.0 0.0 0.0 
0.0 0.0 0.0 
0.0 0.0 0.0 
0.0 0.0 0.0 
0.0 0.0 0.0 
0.0 0.0 0.0 
0.0 0.0 0.0 
0.0 0.0 0.0 
0.0 0.0 0.0 
0.0 0.0 0.0 
0.0 0.0 0.0 
0.0 0.0 0.0 
0.0 0.0 0.0 
0.0 0.0 0.0 
0.0 0.0 0.0 
0.0 0.0 0.0 
0.0 0.0 0.0 
0.0 0.0 0.0 
0.0 0.0 0.0 
0.0 0.0 0.0 
0.0 0.0 0.0 
0.0 0.0 0.0 
0.0 0.0 0.0 
0.0 0.0 0.0 
0.0 0.0 0.0 
0.0 0.0 0.0 
0.0 0.0 0.0 
0.0 0.0 0.0 
0.0 0.0 0.0 
0.0 0.0 0.0 
0.0 0.0 0.0 
0.0 0.0 0.0 
0.0 0.0 0.0 
0.0 0.0 0.0 
0.0 0.0 0.0 
0.0 0.0 0.0 
0.0 0.0 0.0 
0.0 0.0 0.0 
0.0 0.0 0.0 
0.0 0.0 0.0 
0.0 0.0 0.0 
0.0 0.0 0.0 
0.0 0.0 0.0 
0.0 0.0 0.0 
0.0 0.0 0.0 
0.0 0.0 0.0 
0.0 0.0 0.0 
0.0 0.0 0.0 
0.0 0.0 0.0 
0.0 0.0 0.0 
0.0 0.0 0.0 
0.0 0.0 0.0 
0.0 0.0 0.0 
0.0 0.0 0.0 
0.0 0.0 0.0 
0.0 0.0 0.0 
0.0 0.0 0.0 
0.0 0.0 0.0 
0.0 0.0 0.0 
0.0 0.0 0.0 
0.0 0.0 0.0 
0.0 0.0 0.0 
0.0 0.0 0.0 
0.0 0.0 0.0 
0.0 0.0 0.0 
0.0 0.0 0.0 
0.0 0.0 0.0 
0.0 0.0 0.0 
0.0 0.0 0.0 
0.0 0.0 0.0 
0.0 0.0 0.0 
0.0 0.0 0.0 
0.0 0.0 0.0 
0.0 0.0 0.0 
0.0 0.0 0.0 
0.0 0.0 0.0 
0.0 0.0 0.0 
0.0 0.0 0.0 
0.0 0.0 0.0 
0.0 0.0 0.0 
0.0 0.0 0.0 
0.0 0.0 0.0 
0.0 0.0 0.0 
0.0 0.0 0.0 
0.0 0.0 0.0 
0.0 0.0 0.0 
0.0 0.0 0.0 
0.0 0.0 0.0 
0.0 0.0 0.0 
0.0 0.0 0.0 
0.0 0.0 0.0 
0.0 0.0 0.0 
0.0 0.0 0.0 
0.0 0.0 0.0 
0.0 0.0 0.0 
0.0 0.0 0.0 
0.0 0.0 0.0 
0.0 0.0 0.0 
0.0 0.0 0.0 
0.0 0.0 0.0 
0.0 0.0 0.0 
0.0 0.0 0.0 
0.0 0.0 0.0 
0.0 0.0 0.0 
0.0 0.0 0.0 
0.0 0.0 0.0 
0.0 0.0 0.0 
0.0 0.0 0.0 
0.0 0.0 0.0 
0.0 0.0 0.0 
0.0 0.0 0.0 
0.0 0.0 0.0 
0.0 0.0 0.0 
0.0 0.0 0.0 
0.0 0.0 0.0 
0.0 0.0 0.0 
0.0 0.0 0.0 
0.0 0.0 0.0 
0.0 0.0 0.0 
0.0 0.0 0.0 
0.0 0.0 0.0 
0.0 0.0 0.0 
0.0 0.0 0.0 
0.0 0.0 0.0 
0.0 0.0 0.0 
0.0 0.0 0.0 
0.0 0.0 0.0 
0.0 0.0 0.0 
0.0 0.0 0.0 
0.0 0.0 0.0 
0.0 0.0 0.0 
0.0 0.0 0.0 
0.0 0.0 0.0 
0.0 0.0 0.0 
0.0 0.0 0.0 
0.0 0.0 0.0 
0.0 0.0 0.0 
0.0 0.0 0.0 
0.0 0.0 0.0 
0.0 0.0 0.0 
0.0 0.0 0.0 
0.0 0.0 0.0 
0.0 0.0 0.0 
0.0 0.0 0.0 
0.0 0.0 0.0 
0.0 0.0 0.0 
0.0 0.0 0.0 
0.0 0.0 0.0 
0.0 0.0 0.0 
0.0 0.0 0.0 
0.0 0.0 0.0 
0.0 0.0 0.0 
0.0 0.0 0.0 
0.0 0.0 0.0 
0.0 0.0 0.0 
0.0 0.0 0.0 
0.0 0.0 0.0 
0.0 0.0 0.0 
0.0 0.0 0.0 
0.0 0.0 0.0 
0.0 0.0 0.0 
0.0 0.0 0.0 
0.0 0.0 0.0 
0.0 0.0 0.0 
0.0 0.0 0.0 
0.0 0.0 0.0 
0.0 0.0 0.0 
0.0 0.0 0.0 
0.0 0.0 0.0 
0.0 0.0 0.0 
0.0 0.0 0.0 
0.0 0.0 0.0 
0.0 0.0 0.0 
0.0 0.0 0.0 
0.0 0.0 0.0 
0.0 0.0 0.0 
0.0 0.0 0.0 
0.0 0.0 0.0 
0.0 0.0 0.0 
0.0 0.0 0.0 
0.0 0.0 0.0 
0.0 0.0 0.0 
0.0 0.0 0.0 
0.0 0.0 0.0 
0.0 0.0 0.0 
0.0 0.0 0.0 
0.0 0.0 0.0 
0.0 0.0 0.0 
0.0 0.0 0.0 
0.0 0.0 0.0 
0.0 0.0 0.0 
0.0 0.0 0.0 
0.0 0.0 0.0 
0.0 0.0 0.0 
0.0 0.0 0.0 
0.0 0.0 0.0 
0.0 0.0 0.0 
0.0 0.0 0.0 
0.0 0.0 0.0 
0.0 0.0 0.0 
0.0 0.0 0.0 
0.0 0.0 0.0 
0.0 0.0 0.0 
0.0 0.0 0.0 
0.0 0.0 0.0 
0.0 0.0 0.0 
0.0 0.0 0.0 
0.0 0.0 0.0 
0.0 0.0 0.0 
0.0 0.0 0.0 
0.0 0.0 0.0 
0.0 0.0 0.0 
0.0 0.0 0.0 
0.0 0.0 0.0 
0.0 0.0 0.0 
0.0 0.0 0.0 
0.0 0.0 0.0 
0.0 0.0 0.0 
0.0 0.0 0.0 
0.0 0.0 0.0 
0.0 0.0 0.0 
0.0 0.0 0.0 
0.0 0.0 0.0 
0.0 0.0 0.0 
0.0 0.0 0.0 
0.0 0.0 0.0 
0.0 0.0 0.0 
0.0 0.0 0.0 
0.0 0.0 0.0 
0.0 0.0 0.0 
0.0 0.0 0.0 
0.0 0.0 0.0 
0.0 0.0 0.0 
0.0 0.0 0.0 
0.0 0.0 0.0 
0.0 0.0 0.0 
0.0 0.0 0.0 
0.0 0.0 0.0 
0.0 0.0 0.0 
0.0 0.0 0.0 
0.0 0.0 0.0 
0.0 0.0 0.0 
0.0 0.0 0.0 
0.0 0.0 0.0 
0.0 0.0 0.0 
0.0 0.0 0.0 
0.0 0.0 0.0 
0.0 0.0 0.0 
0.0 0.0 0.0 
0.0 0.0 0.0 
0.0 0.0 0.0 
0.0 0.0 0.0 
0.0 0.0 0.0 
0.0 0.0 0.0 
0.0 0.0 0.0 
0.0 0.0 0.0 
0.0 0.0 0.0 
0.0 0.0 0.0 
0.0 0.0 0.0 
0.0 0.0 0.0 
0.0 0.0 0.0 
0.0 0.0 0.0 
0.0 0.0 0.0 
0.0 0.0 0.0 
0.0 0.0 0.0 
0.0 0.0 0.0 
0.0 0.0 0.0 
0.0 0.0 0.0 
0.0 0.0 0.0 
0.0 0.0 0.0 
0.0 0.0 0.0 
0.0 0.0 0.0 
0.0 0.0 0.0 
0.0 0.0 0.0 
0.0 0.0 0.0 
0.0 0.0 0.0 
0.0 0.0 0.0 
0.0 0.0 0.0 
0.0 0.0 0.0 
0.0 0.0 0.0 
0.0 0.0 0.0 
0.0 0.0 0.0 
0.0 0.0 0.0 
0.0 0.0 0.0 
0.0 0.0 0.0 
0.0 0.0 0.0 
0.0 0.0 0.0 
0.0 0.0 0.0 
0.0 0.0 0.0 
0.0 0.0 0.0 
0.0 0.0 0.0 
0.0 0.0 0.0 
0.0 0.0 0.0 
0.0 0.0 0.0 
0.0 0.0 0.0 
0.0 0.0 0.0 
0.0 0.0 0.0 
0.0 0.0 0.0 
0.0 0.0 0.0 
0.0 0.0 0.0 
0.0 0.0 0.0 
0.0 0.0 0.0 
0.0 0.0 0.0 
0.0 0.0 0.0 
0.0 0.0 0.0 
0.0 0.0 0.0 
0.0 0.0 0.0 
0.0 0.0 0.0 
0.0 0.0 0.0 
0.0 0.0 0.0 
0.0 0.0 0.0 
0.0 0.0 0.0 
0.0 0.0 0.0 
0.0 0.0 0.0 
0.0 0.0 0.0 
0.0 0.0 0.0 
0.0 0.0 0.0 
0.0 0.0 0.0 
0.0 0.0 0.0 
0.0 0.0 0.0 
0.0 0.0 0.0 
0.0 0.0 0.0 
0.0 0.0 0.0 
0.0 0.0 0.0 
0.0 0.0 0.0 
0.0 0.0 0.0 
0.0 0.0 0.0 
0.0 0.0 0.0 
0.0 0.0 0.0 
0.0 0.0 0.0 
0.0 0.0 0.0 
0.0 0.0 0.0 
0.0 0.0 0.0 
0.0 0.0 0.0 
0.0 0.0 0.0 
0.0 0.0 0.0 
0.0 0.0 0.0 
0.0 0.0 0.0 
0.0 0.0 0.0 
0.0 0.0 0.0 
0.0 0.0 0.0 
0.0 0.0 0.0 
0.0 0.0 0.0 
0.0 0.0 0.0 
0.0 0.0 0.0 
0.0 0.0 0.0 
0.0 0.0 0.0 
0.0 0.0 0.0 
0.0 0.0 0.0 
0.0 0.0 0.0 
0.0 0.0 0.0 
0.0 0.0 0.0 
0.0 0.0 0.0 
0.0 0.0 0.0 
0.0 0.0 0.0 
0.0 0.0 0.0 
0.0 0.0 0.0 
0.0 0.0 0.0 
0.0 0.0 0.0 
0.0 0.0 0.0 
0.0 0.0 0.0 
0.0 0.0 0.0 
0.0 0.0 0.0 
0.0 0.0 0.0 
0.0 0.0 0.0 
0.0 0.0 0.0 
0.0 0.0 0.0 
0.0 0.0 0.0 
0.0 0.0 0.0 
0.0 0.0 0.0 
0.0 0.0 0.0 
0.0 0.0 0.0 
0.0 0.0 0.0 
0.0 0.0 0.0 
0.0 0.0 0.0 
0.0 0.0 0.0 
0.0 0.0 0.0 
0.0 0.0 0.0 
0.0 0.0 0.0 
0.0 0.0 0.0 
0.0 0.0 0.0 
0.0 0.0 0.0 
0.0 0.0 0.0 
0.0 0.0 0.0 
0.0 0.0 0.0 
0.0 0.0 0.0 
0.0 0.0 0.0 
0.0 0.0 0.0 
0.0 0.0 0.0 
0.0 0.0 0.0 
0.0 0.0 0.0 
0.0 0.0 0.0 
0.0 0.0 0.0 
0.0 0.0 0.0 
0.0 0.0 0.0 
0.0 0.0 0.0 
0.0 0.0 0.0 
0.0 0.0 0.0 
0.0 0.0 0.0 
0.0 0.0 0.0 
0.0 0.0 0.0 
0.0 0.0 0.0 
0.0 0.0 0.0 
0.0 0.0 0.0 
0.0 0.0 0.0 
0.0 0.0 0.0 
0.0 0.0 0.0 
0.0 0.0 0.0 
0.0 0.0 0.0 
0.0 0.0 0.0 
0.0 0.0 0.0 
0.0 0.0 0.0 
0.0 0.0 0.0 
0.0 0.0 0.0 
0.0 0.0 0.0 
0.0 0.0 0.0 
0.0 0.0 0.0 
0.0 0.0 0.0 
0.0 0.0 0.0 
0.0 0.0 0.0 
0.0 0.0 0.0 
0.0 0.0 0.0 
0.0 0.0 0.0 
0.0 0.0 0.0 
0.0 0.0 0.0 
0.0 0.0 0.0 
0.0 0.0 0.0 
0.0 0.0 0.0 
0.0 0.0 0.0 
0.0 0.0 0.0 
0.0 0.0 0.0 
0.0 0.0 0.0 
0.0 0.0 0.0 
0.0 0.0 0.0 
0.0 0.0 0.0 
0.0 0.0 0.0 
0.0 0.0 0.0 
0.0 0.0 0.0 
0.0 0.0 0.0 
0.0 0.0 0.0 
0.0 0.0 0.0 
0.0 0.0 0.0 
0.0 0.0 0.0 

VECTORS node_materi_velocity float
0.0 -6.792357290844e-05 0.0 
0.0 1.489309874230e-03 0.0 
0.0 0.0 0.0 
0.0 0.0 0.0 
0.0 -6.702849708581e-05 0.0 
0.0 -6.592886033671e-05 0.0 
0.0 -6.448999155529e-05 0.0 
0.0 -6.261354966470e-05 0.0 
0.0 -6.014444029524e-05 0.0 
0.0 -5.709696921159e-05 0.0 
0.0 -5.347411259845e-05 0.0 
0.0 -4.928638888967e-05 0.0 
0.0 -4.460585539874e-05 0.0 
0.0 -3.951768996473e-05 0.0 
0.0 -3.414491811543e-05 0.0 
0.0 -2.866132117589e-05 0.0 
0.0 -2.321463221279e-05 0.0 
0.0 -1.790412078524e-05 0.0 
0.0 -1.298346685964e-05 0.0 
0.0 -8.620630359590e-06 0.0 
0.0 -4.970753930540e-06 0.0 
0.0 -2.245382263574e-06 0.0 
0.0 -6.295325676572e-07 0.0 
0.0 0.0 0.0 
0.0 0.0 0.0 
0.0 0.0 0.0 
0.0 0.0 0.0 
0.0 0.0 0.0 
0.0 0.0 0.0 
0.0 0.0 0.0 
0.0 0.0 0.0 
0.0 0.0 0.0 
0.0 0.0 0.0 
0.0 0.0 0.0 
0.0 0.0 0.0 
0.0 0.0 0.0 
0.0 0.0 0.0 
0.0 0.0 0.0 
0.0 0.0 0.0 
0.0 0.0 0.0 
0.0 0.0 0.0 
0.0 0.0 0.0 
0.0 0.0 0.0 
0.0 0.0 0.0 
0.0 0.0 0.0 
0.0 0.0 0.0 
0.0 0.0 0.0 
0.0 0.0 0.0 
0.0 0.0 0.0 
0.0 0.0 0.0 
0.0 0.0 0.0 
0.0 0.0 0.0 
0.0 0.0 0.0 
0.0 0.0 0.0 
0.0 0.0 0.0 
0.0 0.0 0.0 
0.0 0.0 0.0 
0.0 0.0 0.0 
0.0 0.0 0.0 
0.0 0.0 0.0 
0.0 0.0 0.0 
0.0 0.0 0.0 
0.0 0.0 0.0 
0.0 0.0 0.0 
0.0 0.0 0.0 
0.0 0.0 0.0 
0.0 0.0 0.0 
0.0 0.0 0.0 
0.0 0.0 0.0 
0.0 0.0 0.0 
0.0 0.0 0.0 
0.0 0.0 0.0 
0.0 1.336852117479e-03 0.0 
0.0 1.184535719432e-03 0.0 
0.0 1.032572057484e-03 0.0 
0.0 8.811237601211e-04 0.0 
0.0 7.305305118558e-04 0.0 
0.0 5.810256900303e-04 0.0 
0.0 4.329326044803e-04 0.0 
0.0 2.865650508434e-04 0.0 
0.0 1.422419597665e-04 0.0 
-9.625909737072e-05 9.647818255913e-05 0.0 
2.763353449298e-04 1.385494323263e-03 0.0 
-8.685742115135e-05 1.451860922975e-04 0.0 
-8.532728094224e-05 2.141557067974e-04 0.0 
-8.329655814774e-05 3.154149021350e-04 0.0 
-6.947847427657e-05 4.702877153126e-04 0.0 
-1.972108704393e-06 7.234422181702e-04 0.0 
6.050182371587e-05 1.203397583962e-03 0.0 
1.856121278217e-04 1.430991117904e-03 0.0 
2.547056291169e-04 1.484638536899e-03 0.0 
2.791225099443e-04 1.458907541462e-03 0.0 
0.0 2.102840370116e-03 0.0 
0.0 1.947200618970e-03 0.0 
0.0 1.794425329273e-03 0.0 
0.0 1.641818896620e-03 0.0 
1.660013371420e-05 1.489482225015e-03 0.0 
3.330584626616e-05 1.489966333656e-03 0.0 
5.001910154433e-05 1.490587074894e-03 0.0 
6.673954684801e-05 1.491313026212e-03 0.0 
8.351673947264e-05 1.492003905983e-03 0.0 
1.003696766189e-04 1.492464830515e-03 0.0 
1.174685380320e-04 1.492456120423e-03 0.0 
1.347390102253e-04 1.491411466379e-03 0.0 
1.524404014422e-04 1.488945701974e-03 0.0 
1.706369878324e-04 1.484291221883e-03 0.0 
1.894237804596e-04 1.476427554426e-03 0.0 
2.090845893283e-04 1.464257876532e-03 0.0 
2.298727782838e-04 1.446368515533e-03 0.0 
2.520923397156e-04 1.420819649854e-03 0.0 
-8.799362141807e-05 6.631880601658e-05 0.0 
-7.642884202701e-05 3.826239941226e-05 0.0 
-6.376163605745e-05 1.427044373558e-05 0.0 
-5.091267197610e-05 -5.615846312932e-06 0.0 
-3.921401665874e-05 -2.180416220389e-05 0.0 
-2.872797359927e-05 -3.465582666474e-05 0.0 
-1.957240987495e-05 -4.461157070842e-05 0.0 
-1.185293197540e-05 -5.221990566783e-05 0.0 
-5.527375397539e-06 -5.784518035489e-05 0.0 
-5.633551423936e-07 -6.184296726467e-05 0.0 
3.111846902107e-06 -6.467553636696e-05 0.0 
5.690918889072e-06 -6.641820367689e-05 0.0 
7.163020798300e-06 -6.750117272883e-05 0.0 
7.813894318306e-06 -6.806495698064e-05 0.0 
7.687181137724e-06 -6.832691276915e-05 0.0 
6.910720497162e-06 -6.833314244636e-05 0.0 
5.608716299836e-06 -6.822134634751e-05 0.0 
3.931213580532e-06 -6.810837467877e-05 0.0 
2.031816797870e-06 -6.798999468403e-05 0.0 
2.435843587269e-05 2.102238221749e-03 0.0 
3.869106078534e-05 2.100469084182e-03 0.0 
5.462744429897e-05 2.100078848590e-03 0.0 
7.140185125032e-05 2.100334254617e-03 0.0 
8.796055440877e-05 2.100585344553e-03 0.0 
1.036604839149e-04 2.100436864812e-03 0.0 
1.180364460433e-04 2.099505799077e-03 0.0 
1.307378471042e-04 2.097341853941e-03 0.0 
1.414067845039e-04 2.093469838860e-03 0.0 
1.495773204871e-04 2.087227658589e-03 0.0 
1.547251472503e-04 2.077770911406e-03 0.0 
1.563270972987e-04 2.063986269099e-03 0.0 
1.538679886608e-04 2.044493276670e-03 0.0 
1.467974628840e-04 2.017814973582e-03 0.0 
1.341996022868e-04 1.981513023220e-03 0.0 
1.158498761204e-04 1.932857979405e-03 0.0 
9.139025855416e-05 1.866766143735e-03 0.0 
6.345087905359e-05 1.778758783186e-03 0.0 
3.501835292781e-05 1.659147155623e-03 0.0 
3.456565329359e-06 1.493975388729e-03 0.0 
1.711882285540e-04 1.577345042312e-03 0.0 
1.683998700251e-04 1.680377017504e-03 0.0 
1.684515129316e-04 1.756058922254e-03 0.0 
1.699320750253e-04 1.812138404238e-03 0.0 
1.709375378720e-04 1.853377336382e-03 0.0 
1.704190864179e-04 1.883730602784e-03 0.0 
1.679059608512e-04 1.905830590771e-03 0.0 
1.632552318414e-04 1.921647751445e-03 0.0 
1.565319037817e-04 1.932595495875e-03 0.0 
1.478781181332e-04 1.939876370234e-03 0.0 
1.374799798601e-04 1.944454714891e-03 0.0 
1.255574119420e-04 1.947072887007e-03 0.0 
1.123439513609e-04 1.948302678210e-03 0.0 
9.807997518865e-05 1.948603093144e-03 0.0 
8.301420123394e-05 1.948406585761e-03 0.0 
6.741305459461e-05 1.948108644025e-03 0.0 
5.151469789058e-05 1.948084008390e-03 0.0 
3.528254211040e-05 1.948429564683e-03 0.0 
1.788174155987e-05 1.947976112278e-03 0.0 
1.726220057927e-05 1.794752644017e-03 0.0 
3.454561820715e-05 1.795481148841e-03 0.0 
5.130954722328e-05 1.795681141542e-03 0.0 
6.768537412380e-05 1.796026477606e-03 0.0 
8.372352682937e-05 1.796530679785e-03 0.0 
9.936633442571e-05 1.796911258619e-03 0.0 
1.144915601570e-04 1.796786443614e-03 0.0 
1.289885204991e-04 1.795690879657e-03 0.0 
1.427348394759e-04 1.793109045421e-03 0.0 
1.556512485810e-04 1.788341619082e-03 0.0 
1.677239358569e-04 1.780499510920e-03 0.0 
1.790017325153e-04 1.768461759562e-03 0.0 
1.896378935027e-04 1.750813371585e-03 0.0 
1.999912260353e-04 1.725765765622e-03 0.0 
2.106061271088e-04 1.690700537126e-03 0.0 
2.225244986458e-04 1.642484400947e-03 0.0 
2.361158284109e-04 1.576301583648e-03 0.0 
2.575020336418e-04 1.515092435173e-03 0.0 
2.388338627208e-04 1.555952169437e-03 0.0 
2.211908640163e-04 1.585639417467e-03 0.0 
2.048037548327e-04 1.607036428206e-03 0.0 
1.891143426277e-04 1.621991719452e-03 0.0 
1.737793351642e-04 1.632085705507e-03 0.0 
1.585660770989e-04 1.638544831092e-03 0.0 
1.433103984203e-04 1.642321560337e-03 0.0 
1.279472304075e-04 1.644237805228e-03 0.0 
1.124643321372e-04 1.644939521598e-03 0.0 
9.682738030777e-05 1.644806861330e-03 0.0 
8.106416735451e-05 1.644303800676e-03 0.0 
6.515405543506e-05 1.643674335161e-03 0.0 
4.904658842209e-05 1.643094762756e-03 0.0 
3.271305414783e-05 1.642584332504e-03 0.0 
1.634813490653e-05 1.642084629237e-03 0.0 
-8.965620731581e-05 1.190018584377e-04 0.0 
-8.570701019261e-05 1.764954358331e-04 0.0 
-8.473166278891e-05 2.598232629690e-04 0.0 
-7.911398629650e-05 3.839624557575e-04 0.0 
-5.043685901830e-05 5.777203733630e-04 0.0 
2.564430991316e-05 9.694647538302e-04 0.0 
1.326983243917e-04 1.344247843855e-03 0.0 
2.284109906637e-04 1.470169023063e-03 0.0 
2.718861155986e-04 1.478797537429e-03 0.0 
2.806756123746e-04 1.426707786763e-03 0.0 
-6.414837810002e-05 1.753174821202e-04 0.0 
4.166388630890e-05 8.872272635666e-06 0.0 
1.698139682464e-06 -6.157625642120e-05 0.0 
-3.113684304693e-05 -1.742778191324e-05 0.0 
2.275501787736e-05 2.687864177445e-06 0.0 
-2.445774839560e-05 3.869584751307e-04 0.0 
6.582091296584e-06 -3.679818857951e-05 0.0 
6.249714097917e-05 1.969703302519e-05 0.0 
1.618698069558e-04 9.000377024807e-04 0.0 
8.075103103387e-05 3.729437692511e-05 0.0 
3.073087390258e-04 1.325208715453e-03 0.0 
1.158226070496e-05 6.775061187912e-07 0.0 
8.839351628726e-06 -6.797030114577e-05 0.0 
9.099202658102e-05 6.457412572411e-05 0.0 
3.085059686893e-04 1.285680151317e-03 0.0 
4.563652549850e-06 -5.531044924742e-05 0.0 
6.863663169640e-06 -2.157745044573e-05 0.0 
8.822310305470e-05 8.874863116439e-05 0.0 
6.290565178919e-05 1.051527670302e-04 0.0 
1.702720228274e-05 1.207008994838e-04 0.0 
3.232064462397e-05 1.287752660913e-04 0.0 
4.409589073701e-05 1.110905593191e-04 0.0 
2.540786006180e-04 1.299204678493e-03 0.0 
1.659872711051e-04 1.348500777987e-03 0.0 
1.097060727711e-04 1.350710355673e-03 0.0 
1.087979850572e-05 8.034056434603e-04 0.0 
6.756317261068e-06 -4.182395668721e-08 0.0 
-6.186533858392e-05 4.945873478584e-05 0.0 
6.632237975183e-06 -6.774495873293e-05 0.0 
4.724944145260e-06 -6.948537144689e-06 0.0 
5.691330522710e-05 1.359384326007e-03 0.0 
3.060580122413e-06 -6.374974284397e-05 0.0 
8.567447773952e-05 1.117545641177e-04 0.0 
6.688471812403e-05 2.534853912476e-05 0.0 
8.689769287598e-05 4.944094421162e-05 0.0 
5.523045676175e-05 1.452863611884e-05 0.0 
3.144351334844e-05 5.355681997480e-06 0.0 
-1.407396655766e-05 -4.296115482778e-05 0.0 
2.071920067917e-04 1.341516715026e-03 0.0 
1.953043305558e-05 1.585735845809e-06 0.0 
8.375735328361e-06 5.130986492046e-04 0.0 
7.035826566057e-06 -6.645384853427e-05 0.0 
5.854934228064e-06 -4.706718593817e-05 0.0 
8.503597044832e-06 9.827160452420e-05 0.0 
4.800079626886e-05 5.678036092433e-04 0.0 
-5.284778333989e-05 2.604181156478e-04 0.0 
2.611458118004e-04 1.201353964118e-03 0.0 
3.191043374393e-04 1.336541210412e-03 0.0 
-7.254549803196e-05 1.168701137020e-04 0.0 
1.303920417950e-05 1.090370129446e-03 0.0 
3.006888531970e-06 -2.081803698630e-07 0.0 
3.149725541781e-06 -6.734556262256e-05 0.0 
4.636207638315e-06 2.247241514554e-04 0.0 
3.012953082194e-04 1.237014188349e-03 0.0 
3.281360337599e-04 1.143172841208e-03 0.0 
3.052791932791e-04 1.115749347137e-03 0.0 
3.347276786028e-04 1.006859136690e-03 0.0 
3.117831877001e-04 9.616511377300e-04 0.0 
3.327664650647e-04 8.684199305190e-04 0.0 
3.586663387628e-04 9.038586695542e-04 0.0 
3.500157966248e-04 7.732397061473e-04 0.0 
3.775088006120e-04 8.007243030139e-04 0.0 
3.044670722973e-04 8.216642142593e-04 0.0 
3.617816249796e-04 6.781916803501e-04 0.0 
3.899413879165e-04 6.981586662222e-04 0.0 
3.671891221722e-04 5.854326416430e-04 0.0 
3.950132226047e-04 5.988689269024e-04 0.0 
4.136197319962e-04 7.049551881128e-04 0.0 
4.175346250617e-04 5.996051413958e-04 0.0 
4.314242368486e-04 6.967620780550e-04 0.0 
4.332173797003e-04 5.859347745028e-04 0.0 
4.134176306748e-04 5.020656854734e-04 0.0 
4.267388295952e-04 4.857707997343e-04 0.0 
4.406480278000e-04 5.579181662712e-04 0.0 
4.313492202629e-04 4.573394884280e-04 0.0 
4.383438866293e-04 5.164323308517e-04 0.0 
4.264255374823e-04 4.183477872175e-04 0.0 
4.254098981413e-04 4.636926922495e-04 0.0 
4.119117853947e-04 3.718666637016e-04 0.0 
4.092015295247e-04 3.359251662271e-04 0.0 
3.943101612086e-04 2.959771620751e-04 0.0 
3.886640931580e-04 3.214166651930e-04 0.0 
3.719740566608e-04 2.534284688224e-04 0.0 
3.583088229126e-04 2.702681285195e-04 0.0 
3.438287128807e-04 2.108725247950e-04 0.0 
3.529302728844e-04 1.982158398687e-04 0.0 
3.273153522458e-04 1.630296592041e-04 0.0 
3.117707753342e-04 1.704156713380e-04 0.0 
2.985529666378e-04 1.297539439141e-04 0.0 
2.778610488355e-04 1.335217919159e-04 0.0 
2.683047293570e-04 9.939050026141e-05 0.0 
2.439333273811e-04 1.009237631788e-04 0.0 
2.378244264586e-04 7.229724016599e-05 0.0 
2.568411828802e-04 7.213417404520e-05 0.0 
2.295330341450e-04 4.948234247612e-05 0.0 
2.082589480566e-04 4.867967783282e-05 0.0 
2.028840265191e-04 2.963820790214e-05 0.0 
2.192332507023e-04 3.165436286249e-05 0.0 
1.952761381434e-04 1.490402470076e-05 0.0 
2.072444613506e-04 1.798906417678e-05 0.0 
1.858298025017e-04 3.777660184494e-06 0.0 
1.725032217358e-04 3.842004346164e-07 0.0 
1.652342605455e-04 -8.649079928466e-06 0.0 
1.749542442189e-04 -4.331281162061e-06 0.0 
1.563448176057e-04 -1.506668774966e-05 0.0 
1.455418121818e-04 -1.952102220156e-05 0.0 
1.385826744841e-04 -2.440834606286e-05 0.0 
1.463859431134e-04 -1.926435704391e-05 0.0 
1.302985894424e-04 -2.741676740266e-05 0.0 
1.217498599737e-04 -3.250843529137e-05 0.0 
1.149937264338e-04 -3.447809022784e-05 0.0 
1.212178878454e-04 -2.882253311109e-05 0.0 
1.072398926772e-04 -3.511831696660e-05 0.0 
1.004913228383e-04 -4.058056834835e-05 0.0 
9.401842411822e-05 -4.050897970185e-05 0.0 
9.885450757747e-05 -3.466522132337e-05 0.0 
8.675343814582e-05 -3.955690955144e-05 0.0 
8.993014651614e-05 -3.345471697756e-05 0.0 
8.136862357225e-05 -4.519927051625e-05 0.0 
7.521843075927e-05 -4.378555556435e-05 0.0 
6.952414557975e-05 -4.919555630727e-05 0.0 
6.435237806478e-05 -4.740873401045e-05 0.0 
3.320315374124e-04 1.536024452805e-04 0.0 
5.873872926714e-05 -5.247189571691e-05 0.0 
6.250889779094e-05 -5.386365875154e-05 0.0 
5.427400949717e-05 -5.047278152142e-05 0.0 
5.849080789562e-05 -4.517613416206e-05 0.0 
4.888933669304e-05 -5.516782919466e-05 0.0 
4.500571759764e-05 -5.304350623394e-05 0.0 
4.000993258618e-05 -5.735633855080e-05 0.0 
2.459247312203e-04 1.363996040025e-04 0.0 
4.018667065228e-04 4.143340916583e-04 0.0 
3.658547707163e-05 -5.519376787059e-05 0.0 
3.211355149212e-05 -5.911237546598e-05 0.0 
3.438381257402e-05 -6.095670070407e-05 0.0 
2.724596367542e-05 -6.231970115768e-05 0.0 
2.853179882806e-04 9.103656455300e-04 0.0 
2.741849184110e-04 7.675817001901e-04 0.0 
2.577022254245e-04 8.521505270296e-04 0.0 
2.424534546243e-04 7.080434395144e-04 0.0 
2.287313559980e-04 7.876450006675e-04 0.0 
2.518231274474e-05 -6.052301355915e-05 0.0 
3.349998412194e-04 5.564944938538e-04 0.0 
2.530630746822e-04 6.267954638966e-04 0.0 
4.431540700188e-04 6.311385720110e-04 0.0 
3.703403426303e-04 3.437165930634e-04 0.0 
2.288245774604e-04 3.393493429964e-05 0.0 
4.041552774312e-05 -5.063019887799e-05 0.0 
3.244579508063e-05 -5.281887227953e-05 0.0 
3.523603310065e-05 -4.805483939017e-05 0.0 
1.011309981806e-04 -2.842067102359e-05 0.0 
9.063541650537e-05 -2.712484569648e-05 0.0 
1.005000777581e-04 -2.205648369174e-05 0.0 
8.867332533540e-05 -2.080982660672e-05 0.0 
9.676764101746e-05 -1.585995196402e-05 0.0 
8.393297073417e-05 -1.477780528927e-05 0.0 
7.713206069384e-05 -1.922059633148e-05 0.0 
7.169986610734e-05 -1.341813789315e-05 0.0 
6.602326453133e-05 -1.742401048060e-05 0.0 
8.985800749933e-05 -1.013075051222e-05 0.0 
1.041016815252e-04 -1.060657686091e-05 0.0 
6.018653144859e-05 -1.190693899920e-05 0.0 
5.546814164965e-05 -1.553262403022e-05 0.0 
4.949022432223e-05 -1.035036375690e-05 0.0 
4.557455749093e-05 -1.362928514636e-05 0.0 
4.994683853519e-05 -1.907526107957e-05 0.0 
4.077313091347e-05 -1.689331644286e-05 0.0 
4.384113223838e-05 -2.249933250643e-05 0.0 
2.128234544900e-04 2.121256820698e-05 0.0 
2.311201455286e-04 3.597376450691e-05 0.0 
2.115660787183e-04 2.413675347088e-05 0.0 
2.256697461826e-04 3.725355786039e-05 0.0 
2.031790192646e-04 2.632028294851e-05 0.0 
2.123288530229e-04 3.736172318190e-05 0.0 
1.875211093921e-04 2.737495739820e-05 0.0 
1.808610344390e-04 1.824017127217e-05 0.0 
3.658053343645e-04 4.953153094957e-04 0.0 
1.805269802951e-04 2.836281860170e-05 0.0 
1.806651647461e-04 4.870739619610e-05 0.0 
1.531698070100e-04 2.830944680779e-05 0.0 
1.480418697743e-04 5.001345380432e-05 0.0 
1.221130931421e-04 2.978651214593e-05 0.0 
1.119314371232e-04 5.308476718600e-05 0.0 
8.868993613927e-05 3.309635042604e-05 0.0 
9.964848475221e-05 1.258633533686e-05 0.0 
6.900921795613e-05 1.594074638786e-05 0.0 
8.017223049621e-05 -2.176179744800e-06 0.0 
5.237472306748e-05 9.986084159513e-07 0.0 
6.325491538373e-05 -1.488530329891e-05 0.0 
3.880366456630e-04 2.674994030850e-04 0.0 
2.374592613440e-04 5.071880813751e-05 0.0 
2.183276175031e-04 4.805549736378e-05 0.0 
2.459180027607e-04 6.390078337890e-05 0.0 
2.841876233509e-05 -6.379125405260e-05 0.0 
3.641647770213e-05 -1.176298224205e-05 0.0 
9.456536412476e-05 -5.379746195871e-06 0.0 
1.103480085135e-04 -5.195542396090e-06 0.0 
1.633855860227e-04 1.992521792296e-05 0.0 
2.113468826662e-05 -6.334668439380e-05 0.0 
7.418541865407e-05 5.821213562754e-05 0.0 
9.757527037121e-05 8.149594309189e-05 0.0 
2.102375737027e-04 6.424345702141e-04 0.0 
1.993740892972e-04 7.184682426146e-04 0.0 
9.765617746103e-05 -6.659667723532e-07 0.0 
1.917701211681e-05 -6.167361794954e-05 0.0 
6.383314918876e-05 -8.268630954988e-06 0.0 
3.828673805235e-05 2.101569079603e-05 0.0 
3.218619796786e-05 -1.477181467378e-05 0.0 
2.805351475263e-05 -9.964918564362e-06 0.0 
6.974806183861e-05 -2.338936511271e-05 0.0 
2.202673456784e-04 5.781093677836e-05 0.0 
2.505469554950e-04 7.616072224699e-05 0.0 
8.829270656279e-05 -1.636975340953e-05 0.0 
7.134378788522e-05 -2.719905906039e-05 0.0 
4.864435349864e-05 -2.584350740674e-05 0.0 
5.726377191382e-05 -3.678005812512e-05 0.0 
7.700207009774e-05 -3.645820812951e-05 0.0 
6.249893425539e-05 -4.418529223245e-05 0.0 
4.459697781348e-05 -4.445977482406e-05 0.0 
4.990423724246e-05 -5.062176641784e-05 0.0 
6.591010186122e-05 -4.935821834014e-05 0.0 
5.353737798204e-05 -5.465698315232e-05 0.0 
3.909433636658e-05 -5.574231698031e-05 0.0 
4.287111925343e-05 -5.886114427759e-05 0.0 
3.083981271166e-05 -7.314187359917e-06 0.0 
2.488076137453e-05 5.620899387380e-06 0.0 
4.206501956206e-04 8.152404863714e-04 0.0 
8.151019141484e-05 -1.136817857451e-06 0.0 
1.650530759048e-04 2.700904349549e-05 0.0 
1.781519050728e-04 5.726322683228e-04 0.0 
1.701401770638e-04 6.457530032965e-04 0.0 
1.862791006922e-04 7.943338796120e-04 0.0 
1.597912240222e-04 7.186175266897e-04 0.0 
1.416111551044e-04 5.704077046174e-04 0.0 
1.339753594481e-04 6.411881912197e-04 0.0 
1.478284726380e-04 7.909889559182e-04 0.0 
1.244733728884e-04 7.116199970227e-04 0.0 
1.347908842326e-04 8.625002847138e-04 0.0 
1.136191731746e-04 7.814933454045e-04 0.0 
1.021023431064e-04 6.313012316885e-04 0.0 
9.330571530779e-05 7.000696248882e-04 0.0 
1.018320035315e-04 8.508995400200e-04 0.0 
8.329008696385e-05 7.685548735281e-04 0.0 
8.940877049971e-05 9.197567336663e-04 0.0 
7.233244576345e-05 8.367448341246e-04 0.0 
6.583781192272e-05 6.862480237029e-04 0.0 
1.617390261639e-05 -6.407714724481e-05 0.0 
1.590679287880e-04 1.240016969025e-05 0.0 
1.402073420457e-04 1.448990402340e-05 0.0 
2.791353083006e-05 -5.034296822106e-05 0.0 
2.981270899076e-05 -4.539757547420e-05 0.0 
3.727345256723e-05 -4.279530137219e-05 0.0 
3.079735143408e-05 -4.007779179346e-05 0.0 
5.599815664806e-05 7.545731557890e-04 0.0 
4.982023035610e-05 6.043394139521e-04 0.0 
5.602725284272e-05 8.836668034400e-05 0.0 
7.885032728102e-05 1.157376806028e-04 0.0 
1.830325152791e-04 4.996305686578e-04 0.0 
2.424905215881e-05 -1.275467247941e-05 0.0 
2.720538356402e-05 -1.781049556454e-05 0.0 
3.320230213339e-04 2.841159347527e-04 0.0 
3.379642020804e-04 3.616325528843e-04 0.0 
2.924991633270e-04 2.950180999094e-04 0.0 
2.889498293775e-04 3.749722705579e-04 0.0 
3.399685560530e-04 4.574587293529e-04 0.0 
2.376873528437e-04 3.026706846712e-04 0.0 
1.190230793519e-04 -1.065889299282e-05 0.0 
8.115051715549e-05 5.506729072873e-04 0.0 
3.571919005029e-05 -6.238182712289e-05 0.0 
2.857011349804e-05 -6.479184779795e-05 0.0 
2.053449325122e-05 -8.297835214356e-06 0.0 
1.718155335451e-04 9.053969249298e-06 0.0 
3.949173330776e-04 2.975626728699e-04 0.0 
3.703298641152e-04 2.363100371433e-04 0.0 
3.693141492474e-04 2.570558225130e-04 0.0 
3.413689828613e-04 2.028791158881e-04 0.0 
3.323533022869e-04 2.147215141784e-04 0.0 
3.011376931420e-04 1.677141741686e-04 0.0 
3.107365027200e-04 1.583200615855e-04 0.0 
2.170714162008e-04 6.573139349774e-05 0.0 
2.675363264342e-04 1.289737735448e-04 0.0 
6.161731729106e-05 9.061056420508e-04 0.0 
2.625360406425e-04 6.807369208307e-05 0.0 
6.747754799746e-05 -5.251011148634e-05 0.0 
1.738711442431e-05 -6.538517962186e-05 0.0 
2.972804575281e-05 -5.976340247701e-05 0.0 
1.408416124433e-05 -6.257850449505e-05 0.0 
1.647508529563e-05 -5.982564297979e-05 0.0 
8.112899591730e-05 2.613276972107e-06 0.0 
2.838029403421e-04 1.708233012349e-04 0.0 
3.153825682985e-04 2.195484395331e-04 0.0 
2.812841034006e-04 4.762009302354e-04 0.0 
3.372368990752e-04 5.775990823834e-04 0.0 
1.854044439115e-04 4.947690635932e-05 0.0 
2.387126592349e-04 9.364813231527e-04 0.0 
1.563745852694e-04 9.426208961667e-04 0.0 
1.406485732719e-04 1.014692517535e-03 0.0 
1.193486805627e-05 -6.492112694170e-05 0.0 
2.500339059609e-05 -5.575096535560e-05 0.0 
1.144453671212e-04 4.934821954697e-04 0.0 
1.251550776685e-04 1.094683812396e-04 0.0 
1.070410248709e-04 1.487453103479e-04 0.0 
8.738779282343e-06 2.738604273655e-05 0.0 
-1.552204508920e-06 1.127177418629e-05 0.0 
4.170570224236e-05 6.705050369761e-04 0.0 
3.584452304591e-05 5.225925418872e-04 0.0 
3.834121681196e-05 -3.719929229132e-05 0.0 
3.116731006603e-05 -3.446870076449e-05 0.0 
9.868028274097e-05 3.835034369198e-06 0.0 
3.385946123167e-05 -6.211849587447e-05 0.0 
4.132328157578e-05 4.559443745318e-04 0.0 
1.522898488778e-04 4.662559049358e-06 0.0 
1.610303046744e-04 1.227857300298e-07 0.0 
2.349166687712e-05 -4.280837673404e-05 0.0 
3.371385233188e-05 1.239197184397e-04 0.0 
1.657835346236e-05 9.696303821675e-05 0.0 
8.111204520284e-05 -4.700973033843e-05 0.0 
4.500130558551e-05 -6.044648743723e-05 0.0 
1.143701992162e-05 -6.097993518109e-05 0.0 
7.810644118405e-05 5.775547872226e-06 0.0 
1.169183428206e-04 4.246418574973e-04 0.0 
2.786198175756e-04 1.227132597943e-04 0.0 
3.134110704589e-04 1.448385352374e-04 0.0 
2.326150962225e-04 9.791523034171e-05 0.0 
2.293824046980e-05 -6.282584575403e-05 0.0 
6.507612137841e-05 1.810737722274e-06 0.0 
1.702268245180e-05 -1.084626146322e-05 0.0 
2.613918481645e-04 1.699002216753e-04 0.0 
2.906220071305e-04 2.168130548800e-04 0.0 
1.575938354484e-04 1.431763264223e-04 0.0 
1.426817966642e-04 1.897150536472e-04 0.0 
8.438868206125e-05 1.964137669611e-04 0.0 
1.216441464448e-04 2.460620268538e-04 0.0 
3.816444016994e-04 9.285798097530e-04 0.0 
1.963208761768e-04 1.843311150899e-04 0.0 
4.337776990864e-04 7.978478820518e-04 0.0 
4.157460885750e-04 9.300096569389e-04 0.0 
4.234897052589e-04 9.036557886363e-04 0.0 
3.828338741781e-04 5.439131028624e-04 0.0 
3.811525710249e-04 6.830025835830e-04 0.0 
1.773220232545e-04 7.414534489197e-05 0.0 
2.500296912865e-04 5.164615264402e-05 0.0 
4.536089485550e-05 -3.994052108965e-05 0.0 
5.277722045220e-05 -2.490130549594e-05 0.0 
1.124363841786e-04 -2.276959645264e-05 0.0 
8.623414018889e-05 4.828640883454e-04 0.0 
6.520986947235e-05 4.031452417361e-04 0.0 
1.070916423534e-04 1.002747871938e-03 0.0 
9.293606792009e-05 1.071759086269e-03 0.0 
2.246647371908e-05 -6.584927688178e-05 0.0 
2.163035201752e-05 -6.636970960877e-05 0.0 
8.069777063836e-05 -3.170716162873e-05 0.0 
6.665599611710e-05 -1.212369763384e-06 0.0 
1.487995283560e-04 4.294250732072e-04 0.0 
1.467694967208e-04 3.598662706194e-04 0.0 
1.839165469027e-04 4.270996167441e-04 0.0 
9.706121132629e-05 7.893206393701e-06 0.0 
1.551636938864e-04 1.111897548280e-05 0.0 
1.959892877888e-04 1.174970764518e-05 0.0 
1.352677705276e-05 -7.655333497605e-06 0.0 
3.507527615136e-04 1.830377410456e-04 0.0 
1.689888907024e-05 -6.712085101239e-05 0.0 
3.828821768129e-04 4.203096266147e-04 0.0 
1.393635676639e-05 -6.738857529999e-06 0.0 
1.614710171649e-05 -4.628064337389e-06 0.0 
1.745175441893e-04 5.305582789976e-05 0.0 
3.426898392590e-04 1.175898815944e-03 0.0 
3.261199325557e-04 1.420856291929e-04 0.0 
3.097476520965e-04 1.179260053847e-04 0.0 
3.974035241967e-04 1.049096704920e-03 0.0 
3.988851980641e-04 1.014014222200e-03 0.0 
4.225481792256e-04 8.556001786083e-04 0.0 
3.904310103240e-04 9.532087982166e-04 0.0 
8.033815988954e-05 -4.933930934579e-05 0.0 
6.732248570127e-05 -5.405114997960e-05 0.0 
2.214241940107e-04 1.247679089431e-04 0.0 
2.146357369709e-04 9.827963740732e-05 0.0 
2.302754869285e-04 1.597197025772e-04 0.0 
2.580267334182e-04 2.043934286069e-04 0.0 
1.417480850715e-04 3.868912415330e-05 0.0 
1.546445245589e-04 3.675546501958e-05 0.0 
1.309288572130e-05 -5.793742521661e-05 0.0 
3.282049927994e-04 7.302986979072e-04 0.0 
8.902153949092e-05 3.481461991521e-04 0.0 
3.889854566294e-04 1.062936557958e-03 0.0 
5.100949560680e-05 1.338051783865e-06 0.0 
5.323937537018e-05 -1.180236985909e-06 0.0 
-1.037479432331e-05 -2.637059286496e-06 0.0 
4.562495948939e-06 -2.105706383723e-05 0.0 
2.823317416058e-05 3.783745396622e-04 0.0 
5.718356344412e-05 2.531876068559e-04 0.0 
9.355006140620e-05 3.128194225248e-04 0.0 
2.950670008586e-05 2.044267561740e-04 0.0 
2.079261992411e-06 -1.186509622914e-06 0.0 
2.467147936057e-05 1.360241485319e-03 0.0 
1.038311368917e-05 -3.475297647944e-06 0.0 
4.152195935201e-04 6.316157113674e-04 0.0 
3.061482375814e-05 3.068889850618e-04 0.0 
3.007436354687e-04 1.099047649269e-04 0.0 
2.895150983602e-04 2.291018179758e-04 0.0 
1.176784916490e-04 5.825014767775e-06 0.0 
2.291046082865e-05 4.565167981435e-04 0.0 
1.699224184649e-05 2.951837487302e-04 0.0 
1.597609876950e-04 1.092878131566e-03 0.0 
1.427136597557e-04 1.167599082188e-03 0.0 
1.779221481732e-04 1.021152663177e-03 0.0 
2.158946741800e-05 4.545136251596e-05 0.0 
-1.363397993651e-05 5.714312207219e-05 0.0 
6.202874640608e-05 4.700133705453e-04 0.0 
2.524570800725e-05 -5.474202978886e-05 0.0 
2.069601151455e-05 -5.193481381911e-05 0.0 
3.568898278657e-05 -6.310387769586e-05 0.0 
4.539030855294e-05 -6.082030507257e-05 0.0 
4.615269121146e-05 -3.413988031883e-05 0.0 
5.383889466531e-05 -3.681401097564e-05 0.0 
3.659962287622e-04 3.434691547135e-04 0.0 
3.413568294186e-04 3.407022002339e-04 0.0 
3.937163721399e-04 3.221859519172e-04 0.0 
1.436661110367e-04 -2.928640682894e-06 0.0 
1.491073660090e-04 -8.292415306984e-06 0.0 
1.645574604320e-04 -4.872812720780e-06 0.0 
6.669456377503e-05 3.411930179772e-04 0.0 
4.447608211337e-05 2.506726578303e-04 0.0 
9.466162176730e-05 -4.362250280433e-05 0.0 
9.626097553643e-05 -4.032396649352e-05 0.0 
7.784164446036e-05 -5.032580994650e-05 0.0 
8.616275696641e-05 2.841272848038e-04 0.0 
1.147048075042e-05 -1.990713626321e-06 0.0 
1.725129926914e-05 -2.797535319342e-06 0.0 
1.542210602366e-05 -6.713011107176e-05 0.0 
1.979905098000e-05 -6.606328244216e-05 0.0 
-6.658980518697e-06 1.328272582485e-04 0.0 
-1.910577850276e-05 1.065116987948e-04 0.0 
1.419117071463e-04 2.967382184686e-04 0.0 
1.803882886098e-04 3.570532492881e-04 0.0 
1.014612466165e-04 2.239882036331e-04 0.0 
8.025503306554e-06 -5.951692652158e-05 0.0 
2.829103532816e-04 1.128058339248e-04 0.0 
7.406459071997e-05 8.555247109477e-06 0.0 
9.460095124560e-05 1.140651319527e-05 0.0 
5.260062345866e-05 6.033885320391e-06 0.0 
2.093854567039e-04 7.152856684791e-05 0.0 
1.590387956195e-04 5.362630291570e-05 0.0 
1.752357391502e-04 7.141100647786e-05 0.0 
-2.615490660305e-05 1.688110795091e-05 0.0 
1.271990983309e-05 3.553496519459e-04 0.0 
1.095534131787e-04 1.155363723127e-03 0.0 
-3.035791030533e-05 4.320302198041e-06 0.0 
9.410746521445e-05 1.229767485380e-03 0.0 
7.911088436637e-05 1.141379402473e-03 0.0 
8.114696012671e-05 1.303067875464e-03 0.0 
7.162997223911e-06 -6.203792440797e-05 0.0 
1.791930483662e-04 1.197184583348e-03 0.0 
2.003380767834e-04 1.103357275049e-03 0.0 
1.152657176849e-05 -6.626732484348e-05 0.0 
5.825202611603e-05 2.098919938279e-04 0.0 
1.245852505663e-05 -6.761097321488e-05 0.0 
1.356522024947e-05 -6.755598482999e-05 0.0 
3.830412201845e-05 8.959688434587e-07 0.0 
4.126617362377e-05 -9.534690648227e-07 0.0 
2.737009262301e-05 8.086346771311e-07 0.0 
3.149426429909e-05 -6.357791090601e-07 0.0 
4.251455718856e-05 -3.279907981638e-06 0.0 
3.257417394414e-05 -2.586945691711e-06 0.0 
1.270533728217e-04 1.251774002571e-03 0.0 
2.123100462306e-05 -1.433955562987e-07 0.0 
2.377413905242e-05 -1.854597012111e-06 0.0 
1.379546064356e-05 -1.653336000208e-07 0.0 
3.564341059589e-04 1.137159468715e-03 0.0 
1.635969886536e-04 3.060074302865e-04 0.0 
1.384402848484e-04 3.891896252772e-04 0.0 
5.621665009969e-05 3.967764426838e-04 0.0 
1.762887476096e-04 1.273060583043e-04 0.0 
2.223894290419e-04 1.867603795094e-04 0.0 
1.054431857365e-05 -8.990106258123e-06 0.0 
1.210270783624e-05 -1.342538810444e-05 0.0 
6.513703093261e-05 1.221975405019e-03 0.0 
4.768429601506e-05 1.227870190504e-03 0.0 
5.224075374854e-05 1.089020933716e-03 0.0 
3.771643925512e-05 1.105388326420e-03 0.0 
4.085438688848e-05 9.694402367830e-04 0.0 
2.629560307052e-05 9.864856729445e-04 0.0 
3.125091736790e-05 8.508447000342e-04 0.0 
1.494409470530e-04 6.696926250211e-05 0.0 
-2.837631184626e-06 2.566727604138e-04 0.0 
3.617222990028e-04 1.194936371431e-03 0.0 
1.102188614393e-04 2.749660546950e-05 0.0 
1.289281822265e-04 2.803280937578e-05 0.0 
3.683989306465e-04 8.521297829185e-04 0.0 
3.028081439760e-04 9.272551002395e-04 0.0 
4.296216774396e-05 3.171354137314e-06 0.0 
2.041910618521e-04 1.392591723872e-04 0.0 
4.428146428745e-05 1.310487471550e-04 0.0 
-7.147169557590e-05 7.646461393953e-05 0.0 
-4.386395537098e-05 6.020164733901e-05 0.0 
2.438605000214e-04 1.801003051284e-04 0.0 
4.096692522828e-04 7.818856516674e-04 0.0 
2.187562293336e-04 3.827114838115e-04 0.0 
2.062104700508e-04 4.922813321232e-04 0.0 
1.333856948288e-04 1.883795546171e-06 0.0 
1.651230342091e-05 -6.481480321165e-05 0.0 
9.072838188548e-06 1.649314414177e-04 0.0 
4.562337914682e-05 8.360879988303e-04 0.0 
-3.179298468962e-05 1.709446111378e-04 0.0 
5.521531294475e-06 -1.098049268453e-05 0.0 
2.098812320252e-04 1.026348880878e-04 0.0 
4.114506263168e-04 5.060773358929e-04 0.0 
5.605951600457e-05 1.562124308440e-04 0.0 
1.888092221771e-04 2.416544184707e-04 0.0 
4.015748842298e-04 8.155952458863e-04 0.0 
3.562904535248e-04 1.038935014673e-03 0.0 
3.736647757915e-04 1.061839678197e-03 0.0 
2.109192283368e-04 7.283199413817e-05 0.0 
2.713763015667e-04 6.051338251153e-04 0.0 
1.803470136189e-04 6.317851163735e-04 0.0 
4.419739885683e-04 6.720969397894e-04 0.0 
2.217703080757e-04 4.898894925299e-04 0.0 
2.204230561661e-04 4.152287984045e-04 0.0 
1.726628998750e-04 2.926801542957e-04 0.0 
2.136332058489e-04 3.445767797604e-04 0.0 
2.603230769522e-04 4.682410018410e-04 0.0 
2.553804292795e-04 3.929291324057e-04 0.0 
2.010490957957e-04 2.790309456291e-04 0.0 
2.443318094865e-04 3.220948390185e-04 0.0 
1.676572821109e-04 1.964031218102e-04 0.0 
2.249381600047e-04 2.544842459341e-04 0.0 
2.858392115817e-04 3.602456222099e-04 0.0 
2.700246077504e-04 2.936061481357e-04 0.0 
2.091494329016e-04 2.070925916183e-04 0.0 
3.254205365323e-04 3.956611562830e-04 0.0 
9.068893494962e-05 2.564697479980e-05 0.0 
2.844512746279e-04 1.760450374759e-04 0.0 
-1.919493478989e-05 3.489865918072e-05 0.0 
-3.840396862182e-05 8.196782556217e-05 0.0 
4.334717003561e-04 5.749824761166e-04 0.0 
8.382350611600e-05 9.581537496187e-05 0.0 
7.077010890687e-05 1.045176348740e-04 0.0 
1.386415811516e-04 7.681238615593e-05 0.0 
8.937363851643e-05 5.663853143274e-05 0.0 
4.007837766084e-04 9.387439783898e-04 0.0 
5.439219628556e-05 3.849594273935e-05 0.0 
8.528348580064e-05 4.373296751280e-05 0.0 
2.593451932524e-04 5.462939150179e-04 0.0 
2.958578157981e-04 5.990193062940e-04 0.0 
2.872091015113e-04 6.832738193862e-04 0.0 
5.485342826850e-05 1.037407474877e-04 0.0 
1.959779269782e-04 9.462369696392e-04 0.0 
6.267826962127e-05 2.167712931154e-05 0.0 
2.479984629517e-04 5.176498206699e-05 0.0 
2.697312637742e-04 7.062470270470e-05 0.0 
2.675772345741e-04 7.173545184175e-05 0.0 
2.959150211693e-04 4.373830158897e-04 0.0 
4.586711716594e-05 1.063908088860e-05 0.0 
8.032315930332e-05 1.641607346262e-05 0.0 
7.206056946805e-05 1.294982904492e-05 0.0 
1.089557036996e-04 1.861048748055e-05 0.0 
3.655598600910e-05 7.090015697343e-06 0.0 
8.333343648169e-05 7.423296493890e-05 0.0 
8.136203084340e-05 6.435044051757e-05 0.0 
8.004446028915e-05 -4.284419975424e-05 0.0 
9.605519590526e-05 -3.500289924542e-05 0.0 
1.130395657264e-04 -3.235220009345e-05 0.0 
1.137645569395e-04 -2.566698723515e-05 0.0 
9.348027290193e-05 -2.714482220793e-05 0.0 
1.119390891968e-04 -1.632812636474e-05 0.0 
1.331175468436e-04 -1.479593296983e-05 0.0 
1.072251007939e-04 -3.727125270699e-06 0.0 
2.867659676980e-04 2.621392505847e-04 0.0 
2.788299754805e-05 4.368506471427e-06 0.0 
1.100543547821e-04 -1.652966031571e-05 0.0 
1.235556189030e-04 -1.663318590180e-05 0.0 
1.241751560391e-04 -2.279296835872e-05 0.0 
5.212823339154e-05 -4.263059168239e-05 0.0 
6.132051210565e-05 -3.940779790357e-05 0.0 
6.255310834870e-05 -3.335235374137e-05 0.0 
4.340422735574e-05 -4.550725902189e-05 0.0 
3.429178402509e-04 1.859434770030e-04 0.0 
2.461347923305e-05 3.335003503818e-06 0.0 
1.786399416962e-04 4.914368306580e-06 0.0 
6.848860763698e-05 -4.179199135505e-05 0.0 
2.301393974966e-04 1.323105770678e-03 0.0 
2.497321508367e-04 1.182084734567e-03 0.0 
2.748635679189e-04 1.156549601703e-03 0.0 
2.648212002607e-04 1.021159871409e-03 0.0 
2.225686581444e-04 1.183167765940e-03 0.0 
3.840368874820e-05 -3.143169228222e-05 0.0 
3.070538153679e-05 -2.876287249003e-05 0.0 
2.390847481342e-05 -3.179894255472e-05 0.0 
2.313641737516e-05 -2.617377436493e-05 0.0 
1.668810394482e-05 -2.919720909040e-05 0.0 
1.725576142094e-05 -3.463746759842e-05 0.0 
1.562499697973e-05 -2.367085659357e-05 0.0 
9.677631858857e-06 -2.729720037857e-05 0.0 
1.858999654870e-04 1.347850166397e-03 0.0 
-2.172480353366e-05 -3.171810643998e-05 0.0 
-4.674245398466e-06 -4.005340150905e-05 0.0 
-1.029045656836e-07 -4.931437585891e-05 0.0 
9.973739428796e-06 -4.657874080384e-05 0.0 
7.924046393666e-06 -3.679638846901e-05 0.0 
2.563462118556e-05 -4.372253680068e-05 0.0 
2.164854438474e-05 -3.259191113995e-05 0.0 
-1.048228480380e-05 -2.735811326519e-05 0.0 
-7.681721043454e-06 -5.116950573232e-05 0.0 
3.906134068280e-06 -5.604094739576e-05 0.0 
-2.430802459870e-06 -5.728496291820e-05 0.0 
6.608550413137e-06 -6.073303676670e-05 0.0 
1.616255020752e-05 -5.963747058713e-05 0.0 
2.790894278629e-05 -6.504624291684e-05 0.0 
5.902441093397e-06 -2.513619729908e-07 0.0 
6.292329899801e-06 -4.214518972892e-05 0.0 
1.194131871679e-05 -4.484481545356e-05 0.0 
1.108602003891e-05 -4.939953631338e-05 0.0 
1.776144806298e-05 -4.732698533361e-05 0.0 
1.214651448638e-05 -4.020102671723e-05 0.0 
5.266197607222e-06 -5.146867915194e-05 0.0 
9.953955534754e-06 -5.312201036081e-05 0.0 
4.996140830797e-06 -6.749947076350e-05 0.0 
4.595086515683e-06 -6.656156395242e-05 0.0 
2.102198719289e-06 -6.646258766968e-05 0.0 
4.088462426633e-06 -6.538917305478e-05 0.0 
6.601613374036e-06 -6.568213612091e-05 0.0 
6.660914768362e-06 -6.685112249110e-05 0.0 
8.476242460306e-06 -6.725685798389e-05 0.0 
7.904655165969e-06 -6.800128242753e-05 0.0 
9.931739979115e-06 -6.761292674189e-05 0.0 
1.120523910566e-05 -6.653890119724e-05 0.0 
8.642429943846e-06 -6.811422836108e-05 0.0 
1.013530215182e-05 6.546101985084e-04 0.0 
1.932928312847e-05 5.808158407292e-04 0.0 
2.012672072256e-05 1.992149964459e-06 0.0 
1.451414899999e-04 1.344830619890e-03 0.0 
4.960642711396e-06 -6.454843318700e-05 0.0 
1.603615396202e-05 1.453814235159e-04 0.0 
2.510061243988e-05 1.194186485453e-04 0.0 
1.996583707073e-05 1.161116225312e-04 0.0 
3.448226993035e-06 -3.551060552581e-06 0.0 
5.585599967973e-06 -2.263133881155e-06 0.0 
8.712219011400e-06 1.416484190576e-04 0.0 
4.255422114494e-05 -5.916916165541e-05 0.0 
1.595225575481e-04 2.330864745730e-04 0.0 
4.505015620136e-05 3.892717597275e-04 0.0 
3.727347960925e-05 6.531313201937e-05 0.0 
5.569062132779e-05 -5.785331024810e-05 0.0 
1.930886631929e-05 -1.556629340305e-05 0.0 
5.963887599199e-05 -2.124805675127e-05 0.0 
2.300516312610e-05 -5.910677854985e-06 0.0 
3.529640381630e-05 -2.011206671236e-05 0.0 
3.968655502884e-05 -8.803354293837e-06 0.0 
6.580713802784e-05 1.014255709073e-05 0.0 
9.967386155883e-06 -6.334675525797e-05 0.0 
1.210945054033e-04 9.330507073442e-04 0.0 
7.723466505465e-05 9.888183199321e-04 0.0 
7.424466322523e-05 6.185257721965e-04 0.0 
2.902651105239e-05 -5.700161217839e-05 0.0 
2.429366415799e-05 -3.710613925500e-05 0.0 
2.230597790451e-05 -6.476683233913e-05 0.0 
1.559923049184e-04 8.839735994144e-05 0.0 
4.386998616601e-04 7.633795684062e-04 0.0 
1.113868786187e-04 -2.908066932646e-05 0.0 
4.911692428134e-05 -4.809972826354e-05 0.0 
5.197244775954e-05 -5.680639076496e-05 0.0 
5.545359247868e-05 -5.694844150655e-05 0.0 
3.228089921950e-04 2.210532115454e-04 0.0 
7.900547182495e-05 -3.790095336744e-05 0.0 
7.640103682002e-05 -9.306032517224e-06 0.0 
5.679739296866e-05 5.371392039927e-04 0.0 
8.720573817448e-06 -6.756689056339e-05 0.0 
7.979839874976e-05 -5.153438902859e-06 0.0 
8.012880615404e-05 -2.539317006066e-05 0.0 
1.717759995222e-04 8.692918223059e-04 0.0 
1.911557114655e-04 3.598443577376e-05 0.0 
3.423571354406e-05 -5.099624065230e-05 0.0 
1.093528469525e-04 5.626193314830e-04 0.0 
1.131701887363e-04 2.977698204541e-04 0.0 
2.191810487901e-04 1.019941651229e-03 0.0 
1.748918469220e-05 -6.653940658699e-05 0.0 
1.252793115507e-04 1.087750017741e-03 0.0 
6.085010165939e-05 4.368640817464e-06 0.0 
2.179944357684e-04 5.657467100139e-04 0.0 
2.233240535735e-05 -5.853085196221e-05 0.0 
1.939460439021e-04 7.774024373385e-06 0.0 
4.022045680522e-04 4.044887435654e-04 0.0 
3.168468906327e-04 1.315724164356e-03 0.0 
4.694666716419e-05 3.283746498350e-04 0.0 
3.092805464786e-04 1.248135643366e-04 0.0 
1.396624594508e-04 2.020114919086e-05 0.0 
1.916948560300e-04 1.537367508015e-05 0.0 
1.888524477472e-05 -5.636141278948e-05 0.0 
5.363492086870e-05 -4.032180599593e-06 0.0 
2.435828918426e-04 5.058648214691e-05 0.0 
8.922035007487e-05 4.162404913634e-04 0.0 
3.602554571833e-04 2.712671758263e-04 0.0 
1.777091472412e-04 1.253095147486e-05 0.0 
1.467870488886e-04 4.997481733513e-04 0.0 
1.355375033498e-04 -2.173719742665e-05 0.0 
1.906901127580e-04 4.351518392216e-05 0.0 
4.335066096605e-04 7.068602707619e-04 0.0 
4.156470793943e-04 3.708313205257e-04 0.0 
3.928680625867e-04 5.059302392501e-04 0.0 
3.736646493345e-04 2.336816785818e-04 0.0 
1.312894755135e-05 -1.845450363874e-05 0.0 
6.612054815285e-05 -4.676287174466e-06 0.0 
3.824078514928e-05 -1.164716518603e-05 0.0 
2.442558242491e-04 2.355255255062e-04 0.0 
2.128047354795e-04 8.671601769638e-04 0.0 
2.510416387774e-04 1.316490531692e-04 0.0 
6.360044449902e-05 2.713065462065e-04 0.0 
3.788805083116e-04 4.333893889287e-04 0.0 
5.228938112789e-05 -7.119085968037e-06 0.0 
1.168846580111e-04 3.607194279067e-04 0.0 
7.088905740877e-05 -3.578175097622e-05 0.0 
3.462848749043e-06 -6.144914112291e-05 0.0 
3.169679910032e-06 7.410001480024e-05 0.0 
1.287517150048e-04 1.104400868317e-05 0.0 
2.838124225199e-04 9.742997954860e-05 0.0 
7.136203761350e-05 -2.957905694280e-05 0.0 
1.253658308300e-04 2.185181862269e-04 0.0 
4.180454533133e-05 -5.970677276553e-06 0.0 
1.149309400206e-04 3.293924662311e-07 0.0 
-6.783037800775e-05 1.431859598702e-04 0.0 
3.555283535252e-04 1.190931786813e-03 0.0 
3.243153337199e-05 -4.852062574852e-06 0.0 
1.796381916382e-04 3.491587477196e-07 0.0 
1.624161747493e-04 3.280091560956e-05 0.0 
1.043254541344e-05 -3.226718255168e-05 0.0 
1.515490754158e-04 7.666496053951e-05 0.0 
3.405193665420e-04 1.045866357167e-03 0.0 
2.419038689049e-05 -3.785174395184e-06 0.0 
1.380764140791e-04 8.328852121554e-06 0.0 
1.696198158834e-04 1.051445639302e-04 0.0 
4.088776311406e-05 1.360705608293e-03 0.0 
1.516984072863e-05 -9.584575119250e-07 0.0 
1.175532235603e-04 1.079935225643e-05 0.0 
3.639258187928e-04 2.112011728468e-04 0.0 
1.628790960092e-04 -1.004360279759e-05 0.0 
3.171223768009e-04 1.339044423697e-03 0.0 
6.200513782195e-05 -2.725858821131e-05 0.0 
4.132035539450e-04 3.978717192489e-04 0.0 
4.732647508390e-05 1.037029546591e-04 0.0 
1.164488417345e-04 1.526854049546e-05 0.0 
3.199143872247e-04 7.354934963568e-04 0.0 
5.410110882814e-05 -3.084842131600e-05 0.0 
2.740632455098e-04 8.430043952936e-05 0.0 
8.936392287792e-06 -6.610901291498e-05 0.0 
3.627325809208e-04 1.177981639300e-03 0.0 
4.565710083140e-05 -2.826525511893e-05 0.0 
1.323087945323e-04 -3.643570230819e-06 0.0 
1.500523226604e-04 -1.377232086816e-05 0.0 
1.256460294087e-04 3.823268237148e-05 0.0 
3.739618119441e-05 -2.568509268516e-05 0.0 
1.544501932129e-04 -2.187422365697e-06 0.0 
2.937663796423e-05 -2.316678525873e-05 0.0 
2.903408939821e-04 1.275211965289e-03 0.0 
3.301407272701e-04 6.432213488534e-04 0.0 
2.138469338321e-05 -2.074005161645e-05 0.0 
3.838542717750e-04 3.374853318968e-04 0.0 
1.333464547178e-05 -6.695308219741e-05 0.0 
3.375975779086e-04 1.652866833251e-04 0.0 
8.136321302571e-06 -5.115485103762e-06 0.0 
7.407521385358e-05 -5.023570350331e-05 0.0 
1.369434121892e-04 -1.587222927299e-05 0.0 
2.988552515778e-04 5.163354709126e-04 0.0 
2.183298392902e-04 1.074874481381e-03 0.0 
1.341543549299e-04 -1.000603477191e-05 0.0 
3.433318225899e-04 2.772595049515e-04 0.0 
3.100936080353e-04 1.287465791868e-04 0.0 
2.900556814470e-04 9.446203090552e-05 0.0 
1.268457995280e-04 -4.479845578596e-06 0.0 
2.534744498003e-04 7.776270339747e-04 0.0 
4.397861328939e-05 -6.048416764355e-05 0.0 
3.617881786975e-05 -6.315733724025e-05 0.0 
1.511016927069e-04 -1.220319073230e-05 0.0 
3.184523961896e-04 2.742672678253e-04 0.0 
6.637144291146e-06 -6.423400280054e-05 0.0 
3.331341764819e-04 4.718942804697e-04 0.0 
2.596809731624e-05 -6.443577904331e-05 0.0 
1.313109190900e-04 -2.301914588922e-05 0.0 
2.490560993333e-04 8.627811802447e-05 0.0 
1.194928400088e-05 9.484232135401e-04 0.0 
1.274029161891e-04 -2.877863776468e-05 0.0 
3.908264349406e-06 -5.864960461251e-05 0.0 
1.103762561946e-04 -3.678437713442e-05 0.0 
2.867695504295e-04 9.011305094776e-05 0.0 
1.061723855815e-04 -3.938074239022e-05 0.0 
9.145646627513e-05 -4.532389179815e-05 0.0 
3.149143866343e-05 2.497105323195e-04 0.0 
8.696229012475e-05 -4.574497987436e-05 0.0 
4.357544253005e-06 1.171893231716e-04 0.0 
2.408752813763e-06 -2.971256929540e-07 0.0 
1.543552019411e-05 1.245795488257e-03 0.0 
8.425106502702e-05 7.405934094100e-04 0.0 
-5.121702652702e-05 2.291117694496e-05 0.0 
1.253025762641e-04 4.886751437894e-04 0.0 
6.553021899679e-05 -5.442832542384e-05 0.0 
3.574230697825e-04 4.143341093921e-04 0.0 
3.205777814676e-05 1.239100764142e-03 0.0 
5.424664100021e-05 -5.778202910791e-05 0.0 
1.561489551620e-04 1.574469003743e-04 0.0 
7.175414750386e-05 2.992179025435e-05 0.0 
2.169199765457e-05 7.204310593046e-04 0.0 
1.373560678959e-04 2.507645955162e-05 0.0 
2.807205612394e-04 9.934183472916e-05 0.0 
6.315321983907e-06 3.700381430354e-04 0.0 
9.391588632269e-05 1.373710275231e-03 0.0 
8.774833056951e-06 -6.397995828795e-05 0.0 
6.291922532672e-06 -1.577377678429e-05 0.0 
-1.155758189480e-05 4.748810169902e-04 0.0 
1.919640559819e-05 3.149031748370e-04 0.0 
-2.101244144294e-05 2.092267111578e-04 0.0 
1.461187305137e-05 -5.454248492114e-05 0.0 
1.217336644902e-05 -5.393443801971e-05 0.0 
-4.097538742428e-05 3.162479402845e-04 0.0 
9.060054110537e-05 2.062647794880e-05 0.0 
1.587302656500e-04 1.232932572815e-03 0.0 
2.465871891372e-04 9.549224704828e-05 0.0 
-5.915615961807e-05 2.133086401036e-04 0.0 
8.162929014003e-05 2.304400387742e-04 0.0 
1.314885097582e-04 4.825617222167e-05 0.0 
1.332507184043e-05 9.012386483219e-07 0.0 
1.953734403393e-04 7.321714333671e-05 0.0 
-4.149580363278e-05 1.386144198561e-04 0.0 
2.400598515787e-04 1.069631378377e-03 0.0 
1.586813496714e-04 1.004300371168e-04 0.0 
2.954164378678e-05 6.018721778972e-04 0.0 
9.360903392625e-06 3.973170157636e-07 0.0 
1.996925381138e-04 1.234564311116e-03 0.0 
1.894134894209e-05 2.331146999173e-04 0.0 
2.670911941036e-05 -2.212837404779e-05 0.0 
9.615357759727e-06 2.264650771555e-04 0.0 
3.088506204129e-04 3.237478563049e-04 0.0 
6.598857358797e-05 1.057665194302e-03 0.0 
2.898252718291e-04 1.034055826725e-03 0.0 
6.723994629354e-06 -1.190360873481e-06 0.0 
1.418000403845e-04 1.829761087158e-04 0.0 
-4.773340353534e-05 1.085603155954e-04 0.0 
3.405538155079e-05 7.358083369082e-04 0.0 
2.400341324640e-05 -4.762264229059e-05 0.0 
-2.070614542082e-05 -1.151147924349e-05 0.0 
3.476595027925e-05 2.090583034331e-06 0.0 
2.500896751711e-04 2.384196275252e-04 0.0 
1.140260061701e-05 -1.013573906501e-06 0.0 
1.801615000702e-06 -6.531008638249e-05 0.0 
1.077532634107e-05 -6.716640223435e-05 0.0 
4.120648249472e-05 4.144690787335e-06 0.0 
1.516982010242e-04 1.210648802540e-04 0.0 
3.963780056243e-05 -3.679051424543e-05 0.0 
2.718606509310e-05 9.193824629929e-05 0.0 
-5.914743243146e-05 8.904634904867e-05 0.0 
1.271002917572e-04 1.388994376041e-03 0.0 
1.066104392948e-05 -6.785177744919e-05 0.0 
7.285741277064e-06 1.615917629452e-07 0.0 
4.688107850200e-05 2.205462640647e-04 0.0 
1.698873355006e-05 -4.272846428994e-05 0.0 
2.774494169118e-04 1.262372705945e-03 0.0 
8.792190266636e-06 -5.665331256482e-05 0.0 
1.979316804313e-04 9.808335511590e-05 0.0 
1.442377773146e-05 -6.268645572306e-05 0.0 
3.155021313728e-05 2.094807648153e-04 0.0 
5.121674859940e-05 7.273996514849e-06 0.0 
9.955026839043e-05 1.894620722870e-04 0.0 
4.109285832741e-05 1.183171386347e-05 0.0 
-4.070145136760e-05 3.626834318635e-05 0.0 
1.208187367518e-04 4.861354460421e-05 0.0 
9.182910487293e-05 1.390252746502e-05 0.0 
7.083191047896e-05 1.379594012199e-03 0.0 
1.246926098887e-04 1.913295143624e-04 0.0 
1.529600581210e-05 -5.111593736951e-05 0.0 
1.402232786872e-05 -6.560847167359e-05 0.0 
1.836910518426e-06 1.038206850155e-04 0.0 
1.499852173669e-06 -6.730934928183e-05 0.0 
1.202766947298e-05 1.377792433264e-03 0.0 
9.333430186612e-07 -2.958114178196e-07 0.0 
8.826088748313e-06 -6.490086590936e-05 0.0 
2.550555899907e-05 1.135126494635e-03 0.0 
1.438761649588e-04 1.280790855257e-04 0.0 
4.602404457576e-06 -3.127804417250e-05 0.0 
1.455397568263e-05 4.650884096157e-04 0.0 
2.138190013143e-05 -5.102717907664e-05 0.0 
-4.362874815872e-05 4.318809782458e-07 0.0 
2.061245047791e-05 8.733174666027e-04 0.0 
1.109786201919e-04 3.696309614690e-05 0.0 
7.665705237275e-05 1.891601528971e-04 0.0 
5.309560794444e-05 9.752133445829e-04 0.0 
-2.174923512099e-05 8.558627597540e-05 0.0 
1.974736370320e-04 1.762093247977e-04 0.0 
1.825453894399e-05 -3.877063715428e-05 0.0 
2.080251508911e-04 1.294514681904e-04 0.0 
1.113773478107e-04 2.206612342785e-05 0.0 
-7.718611676627e-05 9.943977152313e-05 0.0 
4.035785146932e-06 -2.591248578789e-05 0.0 
1.083939890860e-05 -6.787585400792e-05 0.0 
2.193592067315e-05 4.767590305005e-07 0.0 
1.216438842610e-05 -3.614761092345e-05 0.0 
9.686722386041e-05 1.487180895200e-03 0.0 
1.061413185171e-05 2.024237934722e-03 0.0 
2.089339691136e-04 1.551731509428e-03 0.0 
8.611501699938e-06 1.870938185260e-03 0.0 
2.546044066983e-04 1.533955162597e-03 0.0 
8.269712434557e-06 1.718210192541e-03 0.0 
2.640928016136e-04 1.466608785661e-03 0.0 
8.100486866439e-06 1.565639174771e-03 0.0 

VECTORS node_materi_displacement float
0.0 1.171587335151e-02 0.0 
0.0 1.829505978030e-02 0.0 
0.0 0.0 0.0 
0.0 0.0 0.0 
0.0 1.170095572506e-02 0.0 
0.0 1.162983777216e-02 0.0 
0.0 1.150297268773e-02 0.0 
0.0 1.132012730047e-02 0.0 
0.0 1.107955776359e-02 0.0 
0.0 1.078233978796e-02 0.0 
0.0 1.042829524189e-02 0.0 
0.0 1.001639244738e-02 0.0 
0.0 9.545892776234e-03 0.0 
0.0 9.015224871130e-03 0.0 
0.0 8.421802354776e-03 0.0 
0.0 7.763904994162e-03 0.0 
0.0 7.040840932983e-03 0.0 
0.0 6.254415304558e-03 0.0 
0.0 5.396789253548e-03 0.0 
0.0 4.467605896448e-03 0.0 
0.0 3.465606353078e-03 0.0 
0.0 2.387417568192e-03 0.0 
0.0 1.230751621193e-03 0.0 
0.0 0.0 0.0 
0.0 0.0 0.0 
0.0 0.0 0.0 
0.0 0.0 0.0 
0.0 0.0 0.0 
0.0 0.0 0.0 
0.0 0.0 0.0 
0.0 0.0 0.0 
0.0 0.0 0.0 
0.0 0.0 0.0 
0.0 0.0 0.0 
0.0 0.0 0.0 
0.0 0.0 0.0 
0.0 0.0 0.0 
0.0 0.0 0.0 
0.0 0.0 0.0 
0.0 0.0 0.0 
0.0 0.0 0.0 
0.0 0.0 0.0 
0.0 0.0 0.0 
0.0 0.0 0.0 
0.0 0.0 0.0 
0.0 0.0 0.0 
0.0 0.0 0.0 
0.0 0.0 0.0 
0.0 0.0 0.0 
0.0 0.0 0.0 
0.0 0.0 0.0 
0.0 0.0 0.0 
0.0 0.0 0.0 
0.0 0.0 0.0 
0.0 0.0 0.0 
0.0 0.0 0.0 
0.0 0.0 0.0 
0.0 0.0 0.0 
0.0 0.0 0.0 
0.0 0.0 0.0 
0.0 0.0 0.0 
0.0 0.0 0.0 
0.0 0.0 0.0 
0.0 0.0 0.0 
0.0 0.0 0.0 
0.0 0.0 0.0 
0.0 0.0 0.0 
0.0 0.0 0.0 
0.0 0.0 0.0 
0.0 0.0 0.0 
0.0 0.0 0.0 
0.0 0.0 0.0 
0.0 1.673347448865e-02 0.0 
0.0 1.510922934096e-02 0.0 
0.0 1.342256899536e-02 0.0 
0.0 1.167621669975e-02 0.0 
0.0 9.869961562949e-03 0.0 
0.0 8.006249022267e-03 0.0 
0.0 6.086100018991e-03 0.0 
0.0 4.110772379259e-03 0.0 
0.0 2.081941592156e-03 0.0 
-1.517601411284e-03 1.527843940951e-02 0.0 
1.545039979445e-03 1.795963306426e-02 0.0 
-1.088516111160e-03 1.648942378462e-02 0.0 
-6.455970109245e-04 1.780308120400e-02 0.0 
-1.458014470658e-04 1.906473005218e-02 0.0 
3.827391866003e-04 2.014585617751e-02 0.0 
8.977091186913e-04 2.093815320575e-02 0.0 
1.300141646045e-03 2.130935363054e-02 0.0 
1.581038513903e-03 2.099913073944e-02 0.0 
1.682122287312e-03 2.024359757599e-02 0.0 
1.655174411768e-03 1.920501158993e-02 0.0 
0.0 2.390104262652e-02 0.0 
0.0 2.259572130760e-02 0.0 
0.0 2.122431275498e-02 0.0 
0.0 1.979359348673e-02 0.0 
8.810299897836e-05 1.829605339837e-02 0.0 
1.750206988556e-04 1.829889426161e-02 0.0 
2.635787793520e-04 1.830276840717e-02 0.0 
3.532400215168e-04 1.830632365347e-02 0.0 
4.438843882170e-04 1.831124836446e-02 0.0 
5.362462827318e-04 1.831340482183e-02 0.0 
6.312616669228e-04 1.831479159102e-02 0.0 
7.277412086309e-04 1.831142603829e-02 0.0 
8.291375694110e-04 1.830475445216e-02 0.0 
9.346393118084e-04 1.828852612899e-02 0.0 
1.044179670821e-03 1.826151356438e-02 0.0 
1.159244115631e-03 1.822075066491e-02 0.0 
1.280201557389e-03 1.816063454353e-02 0.0 
1.408156855330e-03 1.807503231155e-02 0.0 
-1.383395447565e-03 1.461309475726e-02 0.0 
-1.213124622672e-03 1.406095619843e-02 0.0 
-1.037766030604e-03 1.360398756389e-02 0.0 
-8.712378270868e-04 1.322970115022e-02 0.0 
-7.222404349826e-04 1.292504811294e-02 0.0 
-5.884407525726e-04 1.267421857528e-02 0.0 
-4.701838278684e-04 1.246845823071e-02 0.0 
-3.685931735281e-04 1.230071004230e-02 0.0 
-2.821795785436e-04 1.216514016539e-02 0.0 
-2.099343228997e-04 1.205750976917e-02 0.0 
-1.523782476011e-04 1.196994984717e-02 0.0 
-1.041730629938e-04 1.190383706978e-02 0.0 
-6.500882749416e-05 1.184902737342e-02 0.0 
-3.871027715235e-05 1.180590631172e-02 0.0 
-2.160444834015e-05 1.177457288840e-02 0.0 
-9.449095746332e-06 1.175166039535e-02 0.0 
-1.587578098934e-06 1.173486200849e-02 0.0 
2.683986458023e-06 1.172377248611e-02 0.0 
1.041382157106e-06 1.171643685083e-02 0.0 
9.704904870526e-05 2.390678973281e-02 0.0 
1.831318238496e-04 2.390696455171e-02 0.0 
2.690271768916e-04 2.391040623281e-02 0.0 
3.545005062360e-04 2.391440662894e-02 0.0 
4.386698192236e-04 2.391833430776e-02 0.0 
5.207948503012e-04 2.392133054731e-02 0.0 
6.001846643314e-04 2.392217775787e-02 0.0 
6.761792215394e-04 2.391932406367e-02 0.0 
7.480968238528e-04 2.391086452080e-02 0.0 
8.151785829647e-04 2.389438330117e-02 0.0 
8.766549449253e-04 2.386687835078e-02 0.0 
9.317995612080e-04 2.382461375583e-02 0.0 
9.799717086638e-04 2.376300929029e-02 0.0 
1.020652159756e-03 2.367649590001e-02 0.0 
1.053444917741e-03 2.355775854485e-02 0.0 
1.078778693975e-03 2.339769175699e-02 0.0 
1.098084872906e-03 2.318404134402e-02 0.0 
1.115516314089e-03 2.290116003880e-02 0.0 
1.139245600304e-03 2.252994877340e-02 0.0 
1.164784303436e-03 2.203423508023e-02 0.0 
1.474119035831e-03 2.142840659196e-02 0.0 
1.390756728831e-03 2.175201497682e-02 0.0 
1.312659787737e-03 2.199462028140e-02 0.0 
1.242342411788e-03 2.218005920735e-02 0.0 
1.174712793752e-03 2.231762170969e-02 0.0 
1.107967004059e-03 2.241950631814e-02 0.0 
1.040132604548e-03 2.249275336022e-02 0.0 
9.705666354628e-04 2.254430960182e-02 0.0 
8.989162324049e-04 2.257906471146e-02 0.0 
8.251009608823e-04 2.260102493594e-02 0.0 
7.491421716908e-04 2.261344664914e-02 0.0 
6.711189733884e-04 2.261899945405e-02 0.0 
5.913156323380e-04 2.261987586248e-02 0.0 
5.100153075954e-04 2.261779364674e-02 0.0 
4.274618766580e-04 2.261405493963e-02 0.0 
3.438620132508e-04 2.260971895320e-02 0.0 
2.593821441225e-04 2.260548707065e-02 0.0 
1.739629037870e-04 2.260137933719e-02 0.0 
8.717135139089e-05 2.259403786424e-02 0.0 
8.818018945609e-05 2.122989368604e-02 0.0 
1.768242283623e-04 2.123141794538e-02 0.0 
2.649615991009e-04 2.123582117804e-02 0.0 
3.528411961955e-04 2.124050484412e-02 0.0 
4.404507763814e-04 2.124521915004e-02 0.0 
5.280054793922e-04 2.124909659109e-02 0.0 
6.154758161082e-04 2.125108390615e-02 0.0 
7.031136523806e-04 2.124974022994e-02 0.0 
7.907023509536e-04 2.124331816965e-02 0.0 
8.785864235271e-04 2.122891727995e-02 0.0 
9.672088139761e-04 2.120358514986e-02 0.0 
1.056927487986e-03 2.116374359543e-02 0.0 
1.148497826687e-03 2.110464739883e-02 0.0 
1.243112588770e-03 2.102070405363e-02 0.0 
1.341486035009e-03 2.090247799351e-02 0.0 
1.447652077489e-03 2.074368030370e-02 0.0 
1.558047887134e-03 2.052816438957e-02 0.0 
1.526125632306e-03 1.938489747839e-02 0.0 
1.407222284417e-03 1.952254601293e-02 0.0 
1.291090103686e-03 1.962041235369e-02 0.0 
1.182073655840e-03 1.969240950916e-02 0.0 
1.078242521297e-03 1.974281049149e-02 0.0 
9.783669667679e-04 1.977664629445e-02 0.0 
8.818194789090e-04 1.979829568773e-02 0.0 
7.880242345277e-04 1.981021050185e-02 0.0 
6.960938113989e-04 1.981484438255e-02 0.0 
6.062210637396e-04 1.981603491239e-02 0.0 
5.174902484848e-04 1.981379370580e-02 0.0 
4.300764358452e-04 1.981027623014e-02 0.0 
3.431560157015e-04 1.980558546083e-02 0.0 
2.569484021023e-04 1.980126452794e-02 0.0 
1.711891771089e-04 1.979666669557e-02 0.0 
8.520759233684e-05 1.978984344536e-02 0.0 
-1.294942399050e-03 1.585807850872e-02 0.0 
-8.719490323504e-04 1.714375347488e-02 0.0 
-3.976775100467e-04 1.844973168359e-02 0.0 
1.215196844859e-04 1.963572216411e-02 0.0 
6.533823018180e-04 2.059235401349e-02 0.0 
1.132082154491e-03 2.119506890912e-02 0.0 
1.473780123529e-03 2.121989813190e-02 0.0 
1.654987814782e-03 2.066234407259e-02 0.0 
1.684355999462e-03 1.975341383899e-02 0.0 
1.610299380416e-03 1.860441948836e-02 0.0 
-2.639484935138e-04 1.687732718079e-02 0.0 
3.828582401450e-04 1.205073373727e-03 0.0 
-1.401721703573e-04 1.207108735898e-02 0.0 
-5.309186761149e-04 1.302189511478e-02 0.0 
2.467899588621e-04 1.126236138956e-03 0.0 
7.948533065067e-04 1.901932361857e-02 0.0 
7.968602420530e-05 8.716146442407e-03 0.0 
4.810602847674e-04 1.310582305646e-03 0.0 
1.646994775773e-03 2.010716697456e-02 0.0 
5.136957099913e-04 1.402526236633e-03 0.0 
1.896808659520e-03 1.938522089212e-02 0.0 
1.375781762848e-04 1.007309364735e-03 0.0 
-7.131108734861e-06 1.180022155396e-02 0.0 
4.895479172075e-04 1.561142551554e-03 0.0 
1.692754008929e-03 1.721098552141e-02 0.0 
5.392702925566e-05 1.060153670645e-02 0.0 
8.402879478685e-05 6.818062326483e-03 0.0 
4.377278465817e-04 1.719656572992e-03 0.0 
2.969420939639e-04 1.718626494706e-03 0.0 
8.316410706270e-05 1.781430025990e-03 0.0 
1.540137430689e-04 1.925897032615e-03 0.0 
2.080481288260e-04 1.709703199268e-03 0.0 
1.372709378256e-03 1.673483675492e-02 0.0 
8.900373398468e-04 1.688496823614e-02 0.0 
5.827313338206e-04 1.686617966831e-02 0.0 
5.635012447859e-05 1.075326699669e-02 0.0 
8.229155824307e-05 1.079861643203e-03 0.0 
-8.687873997275e-04 1.429303985931e-02 0.0 
1.374317053905e-05 1.172587120611e-02 0.0 
5.850480498737e-05 4.053758881012e-03 0.0 
2.992896209455e-04 1.696246577240e-02 0.0 
2.876616138295e-05 1.142227390036e-02 0.0 
4.116450271144e-04 1.948040288476e-03 0.0 
4.671719040813e-04 1.248856809941e-03 0.0 
5.047828474251e-04 1.462234525791e-03 0.0 
4.642822099011e-04 1.330071545686e-03 0.0 
3.111374634630e-04 1.110450187008e-03 0.0 
-3.345866312943e-04 1.251358669766e-02 0.0 
1.118219741399e-03 1.692457981049e-02 0.0 
2.226195680225e-04 1.264093607594e-03 0.0 
4.171492690881e-05 7.135682063172e-03 0.0 
-5.823774497989e-05 1.190343983049e-02 0.0 
7.106116559041e-05 9.789408927280e-03 0.0 
4.095785868738e-05 1.450217182112e-03 0.0 
1.290842564251e-03 1.965646533116e-02 0.0 
2.586156642222e-04 1.802412241988e-02 0.0 
1.850340080432e-03 2.000021014128e-02 0.0 
1.832624921198e-03 1.842170363992e-02 0.0 
-7.938074814189e-04 1.574757072507e-02 0.0 
6.849063707434e-05 1.407250506283e-02 0.0 
3.785021568267e-05 8.517238801583e-04 0.0 
6.224055375243e-06 1.170877162970e-02 0.0 
2.257014731722e-05 3.255991704865e-03 0.0 
1.623487157245e-03 1.650408635066e-02 0.0 
1.741840984358e-03 1.574442927095e-02 0.0 
1.602435401746e-03 1.513695760918e-02 0.0 
1.739055434202e-03 1.423786949069e-02 0.0 
1.600064860972e-03 1.345998054021e-02 0.0 
1.700040065236e-03 1.263937626296e-02 0.0 
1.855193431233e-03 1.339260205138e-02 0.0 
1.787700991149e-03 1.179933807390e-02 0.0 
1.955546880410e-03 1.254183323430e-02 0.0 
1.539149981035e-03 1.181974420526e-02 0.0 
1.856425310568e-03 1.094429944814e-02 0.0 
2.035150786884e-03 1.167449058157e-02 0.0 
1.902650772159e-03 1.008273817385e-02 0.0 
2.089042607257e-03 1.079700353334e-02 0.0 
2.202379135897e-03 1.234384986194e-02 0.0 
2.262136377128e-03 1.145442118391e-02 0.0 
2.353484392011e-03 1.294155721612e-02 0.0 
2.416445948286e-03 1.203675086131e-02 0.0 
2.291201223268e-03 1.057055553571e-02 0.0 
2.446234601821e-03 1.114336975174e-02 0.0 
2.547266522772e-03 1.254151048163e-02 0.0 
2.574688162580e-03 1.163937551153e-02 0.0 
2.649080872827e-03 1.296266003195e-02 0.0 
2.671669105531e-03 1.205202995792e-02 0.0 
2.717549297822e-03 1.330082216969e-02 0.0 
2.733774182236e-03 1.238769022342e-02 0.0 
2.659330832463e-03 1.117152695330e-02 0.0 
2.715685585895e-03 1.151402084140e-02 0.0 
2.757412302456e-03 1.264702376980e-02 0.0 
2.733770916576e-03 1.178608426122e-02 0.0 
2.740732048346e-03 1.283510878285e-02 0.0 
2.712578419500e-03 1.199227548913e-02 0.0 
2.679916296279e-03 1.096839700809e-02 0.0 
2.655814290562e-03 1.119902770727e-02 0.0 
2.652404426784e-03 1.214125334725e-02 0.0 
2.594740038747e-03 1.137771795517e-02 0.0 
2.555054511500e-03 1.224029739185e-02 0.0 
2.499031167676e-03 1.151064242730e-02 0.0 
2.423955412362e-03 1.229543615874e-02 0.0 
2.371208678093e-03 1.160499778511e-02 0.0 
2.421064765055e-03 1.082404900886e-02 0.0 
2.297920757914e-03 1.095599290832e-02 0.0 
2.215255151671e-03 1.166945613687e-02 0.0 
2.149106477485e-03 1.106247033996e-02 0.0 
2.206597955786e-03 1.035107211301e-02 0.0 
2.065812837159e-03 1.049949980437e-02 0.0 
2.100019437677e-03 9.785240011658e-03 0.0 
1.968243454598e-03 9.973742879140e-03 0.0 
1.907446969794e-03 1.062502792050e-02 0.0 
1.820005187432e-03 1.013906870347e-02 0.0 
1.859261432924e-03 9.478576833426e-03 0.0 
1.721050553864e-03 9.685777788105e-03 0.0 
1.658580401316e-03 1.029231522375e-02 0.0 
1.572148280081e-03 9.873511802679e-03 0.0 
1.614142667636e-03 9.253761034751e-03 0.0 
1.476318905953e-03 9.478762765844e-03 0.0 
1.416123447423e-03 1.005047391335e-02 0.0 
1.332528450798e-03 9.688700334700e-03 0.0 
1.374764411360e-03 9.094463023190e-03 0.0 
1.241573936336e-03 9.341665977152e-03 0.0 
1.185516754002e-03 9.889662480878e-03 0.0 
1.106397897463e-03 9.572208163457e-03 0.0 
1.145823882849e-03 8.999299814541e-03 0.0 
1.020807573978e-03 9.263325171539e-03 0.0 
1.045478627674e-03 8.663603542277e-03 0.0 
9.694105564590e-04 9.797616699079e-03 0.0 
8.951773170297e-04 9.514905497690e-03 0.0 
8.349233624695e-04 1.001625714382e-02 0.0 
7.716647480305e-04 9.755621281431e-03 0.0 
2.599065029903e-03 1.019336805066e-02 0.0 
7.076380636515e-04 1.022163605577e-02 0.0 
7.553421372506e-04 1.045208124145e-02 0.0 
6.531029634959e-04 9.984925776560e-03 0.0 
7.015362745635e-04 9.494371503358e-03 0.0 
5.878221547154e-04 1.041644201818e-02 0.0 
5.411276147181e-04 1.020213954064e-02 0.0 
4.773855467649e-04 1.060058299193e-02 0.0 
2.446507171277e-03 1.306778270938e-02 0.0 
2.287477145999e-03 9.697841833969e-03 0.0 
4.374131820975e-04 1.040744766152e-02 0.0 
3.779264797649e-04 1.077352404937e-02 0.0 
4.022656968609e-04 1.094301001085e-02 0.0 
3.098345783018e-04 1.108388210740e-02 0.0 
1.450764061382e-03 1.265390428134e-02 0.0 
1.372752387804e-03 1.095649201784e-02 0.0 
1.298583039929e-03 1.180165927291e-02 0.0 
1.203367828891e-03 1.006153403990e-02 0.0 
1.143159492711e-03 1.090241660778e-02 0.0 
2.899792628568e-04 1.093460958058e-02 0.0 
1.705937499167e-03 9.269140245562e-03 0.0 
1.250451259101e-03 9.196151225590e-03 0.0 
2.589947087676e-03 1.389913262123e-02 0.0 
2.736868402965e-03 1.372810766896e-02 0.0 
2.209752698789e-03 9.571856835537e-03 0.0 
4.864595858144e-04 9.984541455626e-03 0.0 
3.887157116179e-04 1.021022568253e-02 0.0 
4.249534887103e-04 9.762141690433e-03 0.0 
1.156044689338e-03 8.358547731537e-03 0.0 
1.042381491198e-03 7.998659363597e-03 0.0 
1.135294601072e-03 7.649661429220e-03 0.0 
1.010805510581e-03 7.266377176967e-03 0.0 
1.082984951041e-03 6.871962899067e-03 0.0 
9.505158207408e-04 6.464897006400e-03 0.0 
8.877672288725e-04 6.884117636698e-03 0.0 
8.218585753846e-04 6.056951629229e-03 0.0 
7.675416224326e-04 6.500072608279e-03 0.0 
9.990803256818e-04 6.024133896736e-03 0.0 
1.141091953491e-03 6.455863321166e-03 0.0 
6.983580591280e-04 5.646477910155e-03 0.0 
6.513999124525e-04 6.111594407525e-03 0.0 
5.812295641821e-04 5.230596453984e-03 0.0 
5.405935980884e-04 5.717100354347e-03 0.0 
5.926101250752e-04 6.556590305426e-03 0.0 
4.877130837438e-04 6.183106880991e-03 0.0 
5.246373616274e-04 6.981869923584e-03 0.0 
2.082246144055e-03 9.002579105922e-03 0.0 
2.158963768837e-03 8.722656103819e-03 0.0 
2.012586481639e-03 8.150142530164e-03 0.0 
2.053824743451e-03 7.802933507046e-03 0.0 
1.890902419510e-03 7.226595211242e-03 0.0 
1.894500597253e-03 6.812661336374e-03 0.0 
1.716937541798e-03 6.231057834817e-03 0.0 
1.721285530383e-03 6.674299156779e-03 0.0 
1.924452083438e-03 9.209176917611e-03 0.0 
2.036488179975e-03 1.170765286010e-02 0.0 
2.073976912095e-03 1.231752088833e-02 0.0 
1.868020284843e-03 1.228891718844e-02 0.0 
1.873008822267e-03 1.289955625279e-02 0.0 
1.643299170067e-03 1.280537950254e-02 0.0 
1.611234685593e-03 1.341947026631e-02 0.0 
1.361200124249e-03 1.326238017885e-02 0.0 
1.406614717807e-03 1.270248220267e-02 0.0 
1.109649659490e-03 1.310291993287e-02 0.0 
1.168761905274e-03 1.259943793252e-02 0.0 
8.643397102496e-04 1.294712974229e-02 0.0 
9.358265564592e-04 1.250299389160e-02 0.0 
2.614356971612e-03 1.032609210271e-02 0.0 
2.064195913980e-03 7.417875879712e-03 0.0 
1.865162589249e-03 6.358081408991e-03 0.0 
2.040434091903e-03 6.989706222573e-03 0.0 
3.182944688098e-04 1.123024023484e-02 0.0 
4.361144473760e-04 5.314709716723e-03 0.0 
1.030105570894e-03 5.559118507063e-03 0.0 
1.182080884517e-03 6.023404066107e-03 0.0 
1.534980771835e-03 5.669804505342e-03 0.0 
2.307172152919e-04 1.121322836879e-02 0.0 
1.288262335902e-03 1.388101582319e-02 0.0 
1.547807959085e-03 1.409815452387e-02 0.0 
1.035327989307e-03 9.119586480408e-03 0.0 
9.892143237679e-04 9.965298779881e-03 0.0 
1.040109238282e-03 5.068794981379e-03 0.0 
2.139703158733e-04 1.108284673940e-02 0.0 
7.305202407947e-04 5.159651710908e-03 0.0 
7.624932406071e-04 1.344674397291e-02 0.0 
3.879323237394e-04 5.801651584733e-03 0.0 
3.388954876213e-04 4.903865435658e-03 0.0 
8.140771561444e-04 7.281582889223e-03 0.0 
1.800279909483e-03 5.858270539780e-03 0.0 
1.984590710814e-03 6.532023383481e-03 0.0 
1.204532947034e-03 1.214379749361e-02 0.0 
9.838574023748e-04 1.210273973900e-02 0.0 
7.149183246374e-04 1.241566929517e-02 0.0 
7.826624481663e-04 1.205143236686e-02 0.0 
1.012303539675e-03 1.173253519633e-02 0.0 
8.176907064507e-04 1.174118433297e-02 0.0 
5.924105085599e-04 1.202246248470e-02 0.0 
6.387434643836e-04 1.175351185326e-02 0.0 
8.365705994549e-04 1.144791036608e-02 0.0 
6.687763077728e-04 1.149870625942e-02 0.0 
4.781447860948e-04 1.177146345866e-02 0.0 
5.182094580422e-04 1.155024963314e-02 0.0 
3.705007957391e-04 4.374140598766e-03 0.0 
5.163903482750e-04 1.323940359464e-02 0.0 
2.259533045141e-03 1.384474290286e-02 0.0 
8.852462540632e-04 4.588890052790e-03 0.0 
1.494161172586e-03 5.177771037130e-03 0.0 
8.714275041921e-04 8.142555541965e-03 0.0 
8.389144937149e-04 8.994847836061e-03 0.0 
9.327494151766e-04 1.080551507121e-02 0.0 
7.950507716916e-04 9.837342696094e-03 0.0 
6.946075535870e-04 7.993003661641e-03 0.0 
6.630079149741e-04 8.844059327495e-03 0.0 
7.425070596918e-04 1.066992523901e-02 0.0 
6.216128444368e-04 9.683800739257e-03 0.0 
6.833495898939e-04 1.148868534876e-02 0.0 
5.725095115145e-04 1.051038063296e-02 0.0 
5.075038441759e-04 8.673683136466e-03 0.0 
4.677492869799e-04 9.511504249885e-03 0.0 
5.174465562794e-04 1.132467928676e-02 0.0 
4.207888308324e-04 1.033696146729e-02 0.0 
4.576033120016e-04 1.212487747848e-02 0.0 
3.678717123015e-04 1.114916999292e-02 0.0 
3.311483415119e-04 9.330082871859e-03 0.0 
1.675950171068e-04 1.132118325406e-02 0.0 
1.548221648980e-03 6.142430185163e-03 0.0 
1.351536935371e-03 5.124377812555e-03 0.0 
3.347604002429e-04 1.000671925447e-02 0.0 
3.613401059772e-04 9.532842670244e-03 0.0 
4.506636588827e-04 9.254196339286e-03 0.0 
3.726895629510e-04 9.000517437133e-03 0.0 
2.837848107055e-04 1.016340880110e-02 0.0 
2.493008774148e-04 8.306541782673e-03 0.0 
1.184089966381e-03 1.456622498842e-02 0.0 
1.448922405236e-03 1.484805614508e-02 0.0 
8.895787796859e-04 7.280718926558e-03 0.0 
2.941043590959e-04 5.411059975863e-03 0.0 
3.297054288192e-04 6.267894988453e-03 0.0 
2.683757917797e-03 1.382633181105e-02 0.0 
2.649379948379e-03 1.475081873837e-02 0.0 
2.558158245206e-03 1.476102555256e-02 0.0 
2.483713791181e-03 1.573579730951e-02 0.0 
2.576245809431e-03 1.573122142300e-02 0.0 
2.349675882680e-03 1.565662492639e-02 0.0 
1.286990048148e-03 6.905251029091e-03 0.0 
4.019328717993e-04 7.642969039787e-03 0.0 
4.153393295245e-04 1.111085378331e-02 0.0 
3.135648301944e-04 1.137559576375e-02 0.0 
2.501218153121e-04 4.482853090537e-03 0.0 
1.696589502292e-03 7.084809563902e-03 0.0 
2.525795978118e-03 9.901472284391e-03 0.0 
2.453701750483e-03 9.077029909090e-03 0.0 
2.332485863803e-03 8.571801494949e-03 0.0 
2.232865460063e-03 7.767386045142e-03 0.0 
2.078131933828e-03 7.183072386188e-03 0.0 
1.949635161923e-03 6.396922486754e-03 0.0 
2.105960655318e-03 6.993499215401e-03 0.0 
1.696866179122e-03 5.303244745391e-03 0.0 
1.795020083756e-03 5.635223414284e-03 0.0 
3.152444804610e-04 1.196407672270e-02 0.0 
2.223831586760e-03 8.060800806117e-03 0.0 
8.388496939820e-04 1.117236949000e-02 0.0 
1.724184291726e-04 1.142837661602e-02 0.0 
3.342350874931e-04 1.179747970462e-02 0.0 
1.504659935426e-04 1.121588203590e-02 0.0 
1.871494197158e-04 1.094652011935e-02 0.0 
8.620773295600e-04 4.044475903131e-03 0.0 
1.760111614591e-03 5.735117694575e-03 0.0 
1.892106048967e-03 6.533155595784e-03 0.0 
2.368236622573e-03 1.676825598607e-02 0.0 
2.461401291311e-03 1.675899117415e-02 0.0 
1.499967940428e-03 4.654785746372e-03 0.0 
1.214306057132e-03 1.264699898545e-02 0.0 
7.984530950289e-04 1.244474279899e-02 0.0 
7.249553667543e-04 1.323906915795e-02 0.0 
1.122248157715e-04 1.144562507809e-02 0.0 
2.768335469065e-04 1.198865599031e-02 0.0 
5.589568269791e-04 6.965966902034e-03 0.0 
1.793108854878e-03 1.431059648044e-02 0.0 
1.701929797260e-03 1.511522705888e-02 0.0 
3.694033706306e-04 1.373403946363e-02 0.0 
1.288549791413e-04 1.347764614109e-02 0.0 
2.098325899070e-04 9.132554444965e-03 0.0 
1.786861822478e-04 7.263460861878e-03 0.0 
4.628306411008e-04 8.686308595352e-03 0.0 
3.774091034211e-04 8.405633275230e-03 0.0 
1.025513864453e-03 4.546656832532e-03 0.0 
3.869044984964e-04 1.160035806189e-02 0.0 
2.050232181637e-04 6.398042423383e-03 0.0 
1.532647922336e-03 6.579943421572e-03 0.0 
1.646029225082e-03 7.464739907525e-03 0.0 
2.850792262904e-04 9.300125377222e-03 0.0 
1.037960703301e-03 1.532795853244e-02 0.0 
7.625857023918e-04 1.497783182549e-02 0.0 
1.008989470779e-03 1.108463364836e-02 0.0 
5.401374776748e-04 1.134053916841e-02 0.0 
1.254284350395e-04 1.109732161995e-02 0.0 
8.105899437989e-04 3.467810961650e-03 0.0 
5.662002144343e-04 6.096813575992e-03 0.0 
1.954952130664e-03 6.250207023450e-03 0.0 
2.227600506044e-03 7.532713925689e-03 0.0 
1.618641717141e-03 4.902945405311e-03 0.0 
2.255517933597e-04 1.180782416572e-02 0.0 
7.069008583147e-04 3.542116765499e-03 0.0 
2.078223107160e-04 5.010380368961e-03 0.0 
1.555856383305e-03 5.080458959084e-03 0.0 
1.677310330264e-03 5.819143845805e-03 0.0 
2.018996249839e-03 1.450477455750e-02 0.0 
1.943238245093e-03 1.535250711519e-02 0.0 
1.572699490958e-03 1.599745842391e-02 0.0 
1.820432183016e-03 1.628046462881e-02 0.0 
2.001608431591e-03 1.409901383744e-02 0.0 
2.225310231539e-03 1.466065642706e-02 0.0 
2.387634910719e-03 1.438490850769e-02 0.0 
2.261730164759e-03 1.529958447658e-02 0.0 
2.363282042555e-03 1.578466749906e-02 0.0 
2.618901170839e-03 1.565498662288e-02 0.0 
2.499689222896e-03 1.667193457754e-02 0.0 
2.086917405905e-03 1.298468494806e-02 0.0 
2.293843638157e-03 9.328217081017e-03 0.0 
5.462748500064e-04 8.959666775743e-03 0.0 
6.273635570139e-04 7.324427741808e-03 0.0 
1.259782242393e-03 8.036394441245e-03 0.0 
4.234835317108e-04 6.783139532054e-03 0.0 
3.195878679974e-04 5.720310967855e-03 0.0 
5.522165426368e-04 1.308123845287e-02 0.0 
4.823520798453e-04 1.385494220614e-02 0.0 
2.288676629122e-04 1.146320776492e-02 0.0 
2.080879131768e-04 1.158679984686e-02 0.0 
9.422334545489e-04 8.330680980183e-03 0.0 
7.380828548995e-04 4.110108198605e-03 0.0 
7.186076627327e-04 6.266760078586e-03 0.0 
7.048005843510e-04 5.389224696675e-03 0.0 
8.899297580125e-04 6.408183901282e-03 0.0 
9.823460152897e-04 3.990368106628e-03 0.0 
1.841817244088e-03 1.172871451317e-02 0.0 
1.944236511224e-03 8.465777645441e-03 0.0 
2.897700322242e-04 1.305585313287e-02 0.0 
2.587928508949e-03 9.886262052938e-03 0.0 
1.391089218472e-04 1.164207105658e-02 0.0 
2.110101038745e-03 9.066336589991e-03 0.0 
1.712190772395e-04 4.051275830256e-03 0.0 
1.981748668719e-04 3.481120140868e-03 0.0 
1.353374695179e-03 4.033941417310e-03 0.0 
1.848255913484e-03 1.642180245134e-02 0.0 
2.483885868969e-03 9.126803832296e-03 0.0 
2.495068603510e-03 9.463209930898e-03 0.0 
2.207556244961e-03 1.670302485353e-02 0.0 
2.279124880828e-03 1.713671216683e-02 0.0 
2.440452073460e-03 1.618002287367e-02 0.0 
2.322714239977e-03 1.748408465014e-02 0.0 
9.839597308994e-04 1.079321036722e-02 0.0 
8.253391000212e-04 1.091488288000e-02 0.0 
1.361650947110e-03 4.181894105382e-03 0.0 
1.431140565156e-03 4.259878867861e-03 0.0 
1.320289231844e-03 4.336534682288e-03 0.0 
1.437786726422e-03 5.033342671939e-03 0.0 
1.140027017486e-03 3.382892270667e-03 0.0 
1.294610647446e-03 4.024397778397e-03 0.0 
1.508618036797e-04 1.080270707577e-02 0.0 
2.306269840174e-03 1.780704613746e-02 0.0 
4.298569550065e-04 5.034518127447e-03 0.0 
2.115217820394e-03 1.619655564925e-02 0.0 
5.668572101138e-04 3.067292695680e-03 0.0 
6.011119546168e-04 3.631121822237e-03 0.0 
-8.347727482323e-05 1.325444690818e-02 0.0 
9.156867998953e-05 1.285682206927e-02 0.0 
1.403683922917e-04 5.367233152060e-03 0.0 
1.401171140183e-03 1.694438559976e-02 0.0 
1.645302603227e-03 1.727300497202e-02 0.0 
1.135887623671e-03 1.656409782920e-02 0.0 
2.588416476131e-05 1.826371087318e-03 0.0 
1.292499651512e-04 1.697723701472e-02 0.0 
1.286017900070e-04 3.019016243929e-03 0.0 
2.615340134868e-03 1.548264030148e-02 0.0 
1.503051730059e-04 4.401051736068e-03 0.0 
2.359459170910e-03 8.411125263851e-03 0.0 
2.586255304275e-03 1.387638657537e-02 0.0 
1.195536366677e-03 5.053198192034e-03 0.0 
1.142079162944e-04 6.404465502689e-03 0.0 
8.417296952771e-05 4.235604607116e-03 0.0 
8.305468357883e-04 1.413571804764e-02 0.0 
7.489888909464e-04 1.493210241154e-02 0.0 
9.159296409321e-04 1.337436307312e-02 0.0 
6.354601722702e-04 1.400704112572e-02 0.0 
1.450750918527e-04 1.437975822254e-02 0.0 
3.063887021823e-04 6.592697930797e-03 0.0 
3.007938379916e-04 1.042268582273e-02 0.0 
2.479173079944e-04 1.019281110836e-02 0.0 
4.103909207908e-04 1.143124061224e-02 0.0 
5.423039332241e-04 1.114836852243e-02 0.0 
5.543618439102e-04 8.359392715996e-03 0.0 
6.444153685358e-04 8.652174911132e-03 0.0 
2.070294655946e-03 8.203207911210e-03 0.0 
1.870428320425e-03 7.518205366395e-03 0.0 
2.403015807876e-03 9.410964546642e-03 0.0 
1.491710558137e-03 6.986383075581e-03 0.0 
1.573468346582e-03 7.817093175156e-03 0.0 
1.715728985823e-03 8.275203836751e-03 0.0 
3.245004616441e-04 4.902082400739e-03 0.0 
2.159512415104e-04 3.644919368359e-03 0.0 
1.150036547068e-03 1.067621514225e-02 0.0 
1.187661011996e-03 1.100116117793e-02 0.0 
9.439412429336e-04 1.052757915195e-02 0.0 
4.119218543102e-04 4.182556438692e-03 0.0 
1.423460141932e-04 2.436487182288e-03 0.0 
2.113657373831e-04 2.928869595030e-03 0.0 
1.055420090181e-04 1.174061729847e-02 0.0 
1.738220379118e-04 1.170978051199e-02 0.0 
5.746394622908e-04 1.574043839052e-02 0.0 
2.860061118335e-04 1.533679393397e-02 0.0 
6.794272675156e-04 4.579849158075e-03 0.0 
8.711018067468e-04 5.543377075265e-03 0.0 
4.815375901563e-04 3.453088216339e-03 0.0 
8.991225801026e-05 1.098662415522e-02 0.0 
2.075376696393e-03 6.787972802313e-03 0.0 
7.468588350928e-04 2.917035193586e-03 0.0 
9.284426287348e-04 3.465554876458e-03 0.0 
5.452819853444e-04 2.239024445367e-03 0.0 
1.567792125088e-03 4.742955189352e-03 0.0 
1.186606624074e-03 3.425851304616e-03 0.0 
1.212046741502e-03 3.489726546889e-03 0.0 
-2.821819779875e-04 1.365058058148e-02 0.0 
6.365158137239e-05 5.053525272064e-03 0.0 
5.728197709534e-04 1.478114055324e-02 0.0 
-4.184070549781e-04 1.342492824896e-02 0.0 
4.948371353396e-04 1.558479815920e-02 0.0 
4.135298632785e-04 1.462573059257e-02 0.0 
4.279526202877e-04 1.636620782589e-02 0.0 
7.452968660301e-05 1.123407787039e-02 0.0 
9.437614761753e-04 1.530889880747e-02 0.0 
1.042041300390e-03 1.434459109898e-02 0.0 
3.295351318687e-05 1.186591097296e-02 0.0 
2.784821498031e-04 3.111551177563e-03 0.0 
5.894321291388e-05 1.176050665374e-02 0.0 
9.113623086153e-05 1.168254120608e-02 0.0 
4.345453941306e-04 2.549358073624e-03 0.0 
4.747446394134e-04 3.143705314533e-03 0.0 
3.156694940834e-04 2.049238744775e-03 0.0 
3.685416946804e-04 2.709664940673e-03 0.0 
4.952173172054e-04 3.734263347980e-03 0.0 
3.853458839622e-04 3.263712261081e-03 0.0 
6.711730503187e-04 1.582706643489e-02 0.0 
2.527400428500e-04 2.054135255027e-03 0.0 
2.854678319422e-04 2.762074662072e-03 0.0 
1.663361249222e-04 1.580732754340e-03 0.0 
2.125326234545e-03 1.844906452749e-02 0.0 
2.020460403582e-03 1.653705248919e-02 0.0 
1.848971206121e-03 1.758053337643e-02 0.0 
1.399685078538e-03 1.839359248366e-02 0.0 
9.735711971002e-04 3.186827063738e-03 0.0 
1.201134551594e-03 4.274787623375e-03 0.0 
1.295927420739e-04 4.578497755147e-03 0.0 
1.482096937565e-04 5.496491069469e-03 0.0 
3.415589448416e-04 1.550602830781e-02 0.0 
2.493095675082e-04 1.557299422725e-02 0.0 
2.719563620247e-04 1.405183040387e-02 0.0 
1.962186134443e-04 1.423820364928e-02 0.0 
2.102104413052e-04 1.270208958313e-02 0.0 
1.352754170639e-04 1.289963356772e-02 0.0 
1.602129290195e-04 1.131977710092e-02 0.0 
9.828290383004e-04 2.784491488560e-03 0.0 
8.841180317677e-04 1.750200375215e-02 0.0 
2.030958807520e-03 1.760444258885e-02 0.0 
9.196019176685e-04 2.745415316867e-03 0.0 
1.115178845128e-03 3.514691333624e-03 0.0 
2.339447513444e-03 1.770244678607e-02 0.0 
2.099589170615e-03 1.890537714635e-02 0.0 
4.693078001374e-04 2.285363511665e-03 0.0 
2.263609986946e-03 1.383522407067e-02 0.0 
2.093082225345e-04 1.990909157896e-03 0.0 
-9.698282100840e-04 1.484074443243e-02 0.0 
-4.232191270360e-04 1.450420585824e-02 0.0 
2.436402969985e-03 1.390531318847e-02 0.0 
2.488700382614e-03 1.648000256285e-02 0.0 
2.211550686081e-03 1.670487196520e-02 0.0 
2.073090340136e-03 1.774072557334e-02 0.0 
1.367657947315e-03 6.073840148442e-03 0.0 
1.187966213123e-04 1.184175186975e-02 0.0 
8.591273131592e-04 1.615486703211e-02 0.0 
2.329590957703e-04 1.114193823737e-02 0.0 
3.309037058553e-04 1.654531725449e-02 0.0 
6.794786189607e-05 5.001773042035e-03 0.0 
2.278859440733e-03 1.304618811877e-02 0.0 
2.701432228686e-03 1.450436481037e-02 0.0 
1.312452531651e-03 1.566702048830e-02 0.0 
2.172723368750e-03 1.552628309941e-02 0.0 
2.114897407734e-03 1.323078173070e-02 0.0 
1.874260920483e-03 1.494071863945e-02 0.0 
1.995903986131e-03 1.561503679969e-02 0.0 
2.260734652387e-03 1.232811548251e-02 0.0 
2.219069215357e-03 1.781555447390e-02 0.0 
1.862867057696e-03 1.889394723876e-02 0.0 
2.485261758234e-03 1.346398258931e-02 0.0 
1.082915053056e-03 7.390556570939e-03 0.0 
1.076199491108e-03 6.513217710008e-03 0.0 
8.350776584549e-04 4.727622987480e-03 0.0 
1.046539297601e-03 5.650833888908e-03 0.0 
1.287103707615e-03 7.454874916152e-03 0.0 
1.270009028943e-03 6.584153623494e-03 0.0 
9.913713430488e-04 4.813744635454e-03 0.0 
1.226578526929e-03 5.721854287867e-03 0.0 
8.328218779450e-04 3.605364707589e-03 0.0 
1.143491589012e-03 4.830135873366e-03 0.0 
1.463968436763e-03 6.632633647162e-03 0.0 
1.405426175796e-03 5.810674108851e-03 0.0 
1.082615994478e-03 4.209635047909e-03 0.0 
1.703103747854e-03 7.580237745798e-03 0.0 
7.294215051264e-04 2.080373065841e-03 0.0 
2.583578326147e-03 1.304041518998e-02 0.0 
-6.984610396883e-05 1.397102308166e-02 0.0 
-1.988271470183e-04 1.492773387005e-02 0.0 
2.663663351279e-03 1.424449226761e-02 0.0 
4.090668820916e-04 1.754685567703e-03 0.0 
3.355565858869e-04 1.758188286902e-03 0.0 
1.848103723430e-03 1.357442934134e-02 0.0 
4.988017662052e-04 1.507069904343e-03 0.0 
2.137027723516e-03 1.473897906229e-02 0.0 
1.021433380000e-03 1.366615820872e-02 0.0 
5.175134100060e-04 1.449842426606e-03 0.0 
1.279664890273e-03 8.324228420724e-03 0.0 
1.476984373697e-03 9.249756964559e-03 0.0 
1.433303457870e-03 1.010945129144e-02 0.0 
2.575668728771e-04 1.658769053196e-03 0.0 
9.990963157393e-04 1.258005541135e-02 0.0 
4.596122928895e-04 1.236831064210e-03 0.0 
2.207064052527e-03 8.408441374648e-03 0.0 
2.348466934656e-03 9.061880641387e-03 0.0 
2.413283112436e-03 9.979801066290e-03 0.0 
1.496221018919e-03 7.522321114884e-03 0.0 
4.043379102080e-04 1.208925736466e-03 0.0 
7.239004540728e-04 2.291772577910e-03 0.0 
6.743231193630e-04 2.253242775453e-03 0.0 
1.005616101798e-03 3.386109712067e-03 0.0 
3.491568973361e-04 1.163610009167e-03 0.0 
4.227453545922e-04 1.533180682123e-03 0.0 
4.239121442173e-04 1.432181547831e-03 0.0 
1.018684361335e-03 1.139811477327e-02 0.0 
1.211819873073e-03 1.134831515834e-02 0.0 
1.371910590146e-03 1.091597864977e-02 0.0 
1.409275886487e-03 1.130387805890e-02 0.0 
1.218026228847e-03 1.172934773281e-02 0.0 
1.428465967902e-03 1.172815544496e-02 0.0 
1.605419461210e-03 1.126210950529e-02 0.0 
1.427418583388e-03 1.219485102862e-02 0.0 
1.559436463462e-03 5.889509794437e-03 0.0 
2.853533260019e-04 1.090403050416e-03 0.0 
1.217830617571e-03 7.283040609413e-03 0.0 
1.353199929231e-03 7.707644917126e-03 0.0 
1.381924204102e-03 8.435828849762e-03 0.0 
6.261729798103e-04 9.228274637696e-03 0.0 
7.317279712895e-04 8.942498451701e-03 0.0 
7.423310426754e-04 8.328994691443e-03 0.0 
5.232723064676e-04 9.502567922494e-03 0.0 
2.353257797539e-03 8.287681962383e-03 0.0 
2.594518091680e-04 1.086977104882e-03 0.0 
1.798094292824e-03 7.954011238022e-03 0.0 
8.156247027463e-04 9.230576642936e-03 0.0 
1.243749529322e-03 1.683853780678e-02 0.0 
1.315926837588e-03 1.542382410865e-02 0.0 
1.446760283999e-03 1.531615537070e-02 0.0 
1.362795500716e-03 1.374365529757e-02 0.0 
1.170704525874e-03 1.529450643412e-02 0.0 
4.631320602530e-04 8.058807875646e-03 0.0 
3.718476683532e-04 7.751186397503e-03 0.0 
2.905319339542e-04 8.117705350434e-03 0.0 
2.813789616248e-04 7.435186598281e-03 0.0 
2.033346104667e-04 7.818931939670e-03 0.0 
2.100352140808e-04 8.452305537735e-03 0.0 
1.907693738038e-04 7.109583321908e-03 0.0 
1.176694260076e-04 7.591436798763e-03 0.0 
1.000876410490e-03 1.692067329103e-02 0.0 
-4.210857447963e-04 1.274451253615e-02 0.0 
-1.438558657644e-04 1.254666098697e-02 0.0 
-1.046793683756e-04 1.234662667721e-02 0.0 
7.859976816778e-05 1.233736514586e-02 0.0 
8.221632139858e-05 1.254124959970e-02 0.0 
3.311148927663e-04 1.226408983472e-02 0.0 
3.122888792355e-04 1.252403522560e-02 0.0 
-1.918460059588e-04 1.280599236073e-02 0.0 
-2.589614902309e-04 1.233358121008e-02 0.0 
-6.421768059831e-05 1.218781151129e-02 0.0 
-1.939873400146e-04 1.218721876282e-02 0.0 
-3.721804221687e-05 1.206455819185e-02 0.0 
1.298150931834e-04 1.200011860504e-02 0.0 
2.993301230263e-04 1.151462851068e-02 0.0 
7.314560879849e-05 1.226261174122e-03 0.0 
7.663684388980e-05 9.287552170355e-03 0.0 
1.456676979264e-04 9.549082155328e-03 0.0 
1.330579722790e-04 1.000337161086e-02 0.0 
2.148113210408e-04 9.770082271112e-03 0.0 
1.466579222955e-04 9.069470099111e-03 0.0 
6.309881677691e-05 1.022564824676e-02 0.0 
1.192628744805e-04 1.036864485454e-02 0.0 
1.170326058684e-05 1.171381439686e-02 0.0 
2.279064708965e-05 1.166177441103e-02 0.0 
8.646142869232e-06 1.166400234954e-02 0.0 
3.025584884205e-05 1.156709826380e-02 0.0 
4.834918893587e-05 1.157694190173e-02 0.0 
3.400452020174e-05 1.166935178999e-02 0.0 
4.238650582697e-05 1.168379371413e-02 0.0 
1.173018030275e-05 1.174439129386e-02 0.0 
4.801674792884e-05 1.170376802443e-02 0.0 
8.490978478041e-05 1.159692184825e-02 0.0 
5.424369627564e-06 1.176878873843e-02 0.0 
5.095010680695e-05 8.933729271648e-03 0.0 
9.707750431403e-05 8.007023944207e-03 0.0 
2.233599792768e-04 1.135567032997e-03 0.0 
7.751899934082e-04 1.682001120722e-02 0.0 
-9.218887635040e-05 1.197791562264e-02 0.0 
7.808322728807e-05 2.140023462346e-03 0.0 
1.197054470423e-04 1.776291247505e-03 0.0 
9.693122156580e-05 1.720856127645e-03 0.0 
4.270297466432e-05 2.975457059961e-03 0.0 
6.937346616993e-05 2.446135691699e-03 0.0 
4.169072493480e-05 2.080207442166e-03 0.0 
5.070193944717e-04 1.079126114332e-02 0.0 
7.748094118800e-04 3.929788187254e-03 0.0 
2.219593589429e-04 5.520165257459e-03 0.0 
9.113076414280e-04 1.428286329558e-02 0.0 
6.775859827611e-04 1.103375303060e-02 0.0 
2.349973319060e-04 5.889708767949e-03 0.0 
7.017678449279e-04 6.920230143919e-03 0.0 
2.792454475847e-04 3.941655905572e-03 0.0 
4.251717855128e-04 6.628910759288e-03 0.0 
4.715717874656e-04 4.806339719031e-03 0.0 
6.410088612933e-04 2.290773030276e-03 0.0 
1.008309792719e-04 1.132814461167e-02 0.0 
6.194534124262e-04 1.229218844367e-02 0.0 
3.978202008918e-04 1.291806768703e-02 0.0 
3.706698983919e-04 8.492776533203e-03 0.0 
3.436214959690e-04 1.060069626534e-02 0.0 
2.947920816914e-04 8.707965545273e-03 0.0 
2.368895043203e-04 1.133775125603e-02 0.0 
9.319113842870e-04 2.772626408713e-03 0.0 
2.491614517332e-03 1.484825571615e-02 0.0 
1.267245845962e-03 8.723510620171e-03 0.0 
5.912543162823e-04 9.745479489891e-03 0.0 
6.258581564044e-04 1.062527928162e-02 0.0 
6.817188123659e-04 1.125814217881e-02 0.0 
2.682872160365e-03 1.296233225695e-02 0.0 
9.311129819062e-04 8.954030986820e-03 0.0 
8.617765375245e-04 5.593040173886e-03 0.0 
2.825571441882e-04 7.455447105741e-03 0.0 
-1.874565393887e-05 1.183880276166e-02 0.0 
8.840284864258e-04 5.104353628932e-03 0.0 
9.280506113773e-04 7.640666918697e-03 0.0 
8.687052377205e-04 1.163480969089e-02 0.0 
1.681216054034e-03 5.752945742383e-03 0.0 
4.275828964271e-04 1.199238816169e-02 0.0 
5.387531292293e-04 7.827474143889e-03 0.0 
5.405202004176e-04 4.455694972161e-03 0.0 
1.127821127314e-03 1.348989264242e-02 0.0 
1.597924262290e-04 1.154067248571e-02 0.0 
6.514056712007e-04 1.404223803060e-02 0.0 
6.476431892672e-04 2.941733030530e-03 0.0 
1.067644081393e-03 8.257594316432e-03 0.0 
2.599952494825e-04 1.078067848250e-02 0.0 
1.981241151774e-03 9.253518026244e-03 0.0 
2.747796830090e-03 1.355260173651e-02 0.0 
1.774755209502e-03 1.783920414717e-02 0.0 
2.299624802751e-04 4.704775732288e-03 0.0 
2.574448355082e-03 1.045437568992e-02 0.0 
1.299792522055e-03 4.589264785954e-03 0.0 
1.857551313124e-03 7.605576340609e-03 0.0 
2.219352826531e-04 1.061393586367e-02 0.0 
6.145963908821e-04 4.189939780950e-03 0.0 
2.323535865228e-03 1.017696034676e-02 0.0 
4.344555457243e-04 5.924831684672e-03 0.0 
2.178664861138e-03 7.998942821174e-03 0.0 
1.980335706266e-03 1.114682499786e-02 0.0 
7.140844757096e-04 7.134696758212e-03 0.0 
1.500285925423e-03 8.840378700406e-03 0.0 
1.609233341774e-03 5.227554915086e-03 0.0 
2.570632127079e-03 1.520991898237e-02 0.0 
2.566892886462e-03 1.075728427345e-02 0.0 
2.116819244583e-03 9.936113191215e-03 0.0 
2.665990690341e-03 1.067920662188e-02 0.0 
1.601729664884e-04 6.351852196337e-03 0.0 
7.449723960450e-04 4.649035967248e-03 0.0 
6.333633661754e-04 1.281035316960e-02 0.0 
2.417386160234e-03 1.473192580266e-02 0.0 
1.073376684860e-03 1.174157531355e-02 0.0 
1.613788132601e-03 5.010847411569e-03 0.0 
3.073214698569e-04 3.955475359963e-03 0.0 
2.697477653609e-03 1.466764081897e-02 0.0 
6.070680161240e-04 4.724478029799e-03 0.0 
5.616611613464e-04 5.279507998614e-03 0.0 
8.379328879973e-04 8.643884202883e-03 0.0 
3.604789494663e-05 1.120044485603e-02 0.0 
4.895049312791e-04 1.463283305811e-02 0.0 
1.650529993327e-03 1.224614667768e-02 0.0 
2.514342988352e-03 1.066123665670e-02 0.0 
8.376642884956e-04 7.995097146412e-03 0.0 
5.990646054990e-04 3.514968039476e-03 0.0 
4.921287439011e-04 4.282648266775e-03 0.0 
1.200582832755e-03 5.554966432554e-03 0.0 
-5.193875226846e-04 1.629464407898e-02 0.0 
1.952494302513e-03 1.703178397660e-02 0.0 
3.868512668507e-04 3.831962845377e-03 0.0 
1.852616996226e-03 8.752302281165e-03 0.0 
1.414828981723e-03 4.630392897880e-03 0.0 
1.274543275149e-04 8.195007614965e-03 0.0 
9.477577611713e-04 2.739027605712e-03 0.0 
2.144181644976e-03 1.870158028465e-02 0.0 
2.920688395151e-04 3.371414403138e-03 0.0 
1.373708555561e-03 5.613306047380e-03 0.0 
2.068851385522e-03 1.371180440962e-02 0.0 
2.144412303199e-04 1.697823195171e-02 0.0 
1.848531772656e-04 2.116415535640e-03 0.0 
1.159954698582e-03 4.518979548740e-03 0.0 
2.539378785518e-03 9.515851797951e-03 0.0 
1.740516652554e-03 9.012983638590e-03 0.0 
1.879883393486e-03 1.894143701313e-02 0.0 
7.322554012165e-04 7.658398792266e-03 0.0 
2.442341727225e-03 1.027145236385e-02 0.0 
2.231049793488e-04 1.624313342931e-03 0.0 
1.113762139181e-03 4.037776771256e-03 0.0 
1.614392195582e-03 1.101272562834e-02 0.0 
6.450598204923e-04 8.018585563233e-03 0.0 
2.211576694084e-03 7.700938263921e-03 0.0 
6.679893554347e-05 1.158611867049e-02 0.0 
2.088846972486e-03 1.805760443292e-02 0.0 
5.471901609628e-04 7.700336755905e-03 0.0 
1.637037464756e-03 1.173371235520e-02 0.0 
1.614967679461e-03 8.568897988031e-03 0.0 
9.720458503582e-04 2.773961591211e-03 0.0 
4.505760839777e-04 7.374461488962e-03 0.0 
1.797485598244e-03 1.120938830302e-02 0.0 
3.558730121452e-04 7.040792931040e-03 0.0 
1.895875499030e-03 1.973595859388e-02 0.0 
1.669626977026e-03 1.012116623543e-02 0.0 
2.604125334195e-04 6.697613114372e-03 0.0 
2.250144155804e-03 8.842047187599e-03 0.0 
1.033418335675e-04 1.161089646786e-02 0.0 
2.437863700529e-03 8.745391232441e-03 0.0 
1.006523341401e-04 3.539763654299e-03 0.0 
8.926871961037e-04 1.027100831192e-02 0.0 
1.486240802593e-03 8.141983794732e-03 0.0 
1.498379108085e-03 8.382108998762e-03 0.0 
1.767270108690e-03 2.014728967910e-02 0.0 
1.432338492644e-03 7.362877247987e-03 0.0 
1.997475623917e-03 7.364155009513e-03 0.0 
2.312613350068e-03 8.007153783356e-03 0.0 
2.471261918693e-03 9.743940920635e-03 0.0 
1.337130463602e-03 6.499851142990e-03 0.0 
2.026710248671e-03 1.889042644691e-02 0.0 
5.237068907726e-04 1.098094915392e-02 0.0 
4.181712940607e-04 1.126995767389e-02 0.0 
1.735586255163e-03 1.073306288614e-02 0.0 
1.788075829390e-03 6.653505727256e-03 0.0 
5.947461056588e-05 1.144661796761e-02 0.0 
1.716011700621e-03 8.398152308586e-03 0.0 
2.688597455373e-04 1.166036077289e-02 0.0 
1.556001309351e-03 1.082874985009e-02 0.0 
1.882951840741e-03 5.980427306033e-03 0.0 
6.120095078037e-05 1.246033206564e-02 0.0 
1.492183710109e-03 1.042558105660e-02 0.0 
4.400992333913e-05 1.092784543752e-02 0.0 
1.321028352216e-03 1.055591949665e-02 0.0 
2.369694704273e-03 8.752527101389e-03 0.0 
1.258973648962e-03 1.021151930062e-02 0.0 
1.099903789455e-03 1.037101681060e-02 0.0 
1.531887239527e-04 3.617139177277e-03 0.0 
1.039316991069e-03 1.007833871106e-02 0.0 
2.017337715084e-05 1.725193769411e-03 0.0 
3.047273428056e-05 1.114951710074e-03 0.0 
8.079293246064e-05 1.577054266384e-02 0.0 
1.399527470486e-03 2.017196010962e-02 0.0 
-7.511994816414e-04 1.378277738881e-02 0.0 
1.721469731848e-03 1.846766623918e-02 0.0 
7.961938057896e-04 1.068008429287e-02 0.0 
1.916639016232e-03 8.370638787614e-03 0.0 
1.678881700382e-04 1.569608945351e-02 0.0 
6.555733256670e-04 1.082931382202e-02 0.0 
7.917807116691e-04 3.105701902193e-03 0.0 
4.780709005357e-04 1.285654516134e-03 0.0 
1.102043428920e-04 9.750982791967e-03 0.0 
1.233685607345e-03 4.104497442958e-03 0.0 
2.157531975304e-03 7.251385541899e-03 0.0 
3.137870256485e-05 5.247660240778e-03 0.0 
4.978953308195e-04 1.710151142353e-02 0.0 
-1.157399676235e-05 1.196481576787e-02 0.0 
7.717213689575e-05 5.904756484325e-03 0.0 
9.337943608468e-04 1.956360438107e-02 0.0 
1.131074276392e-03 1.795412570782e-02 0.0 
5.914408846955e-04 1.704074568272e-02 0.0 
1.733238799475e-04 1.047585312770e-02 0.0 
8.577342494627e-05 1.216729811701e-02 0.0 
5.391159290073e-04 1.853171686587e-02 0.0 
7.866191719611e-04 2.404284685452e-03 0.0 
8.392122587557e-04 1.565384627587e-02 0.0 
1.785022613026e-03 5.538930745313e-03 0.0 
1.641618213370e-06 1.744857669962e-02 0.0 
3.874816948103e-04 3.457752188805e-03 0.0 
9.416332929874e-04 2.626886939750e-03 0.0 
1.559167650294e-04 9.911209459964e-04 0.0 
1.405575025440e-03 4.137051850757e-03 0.0 
3.599363219107e-05 1.604904746853e-02 0.0 
1.243816115357e-03 1.413674575266e-02 0.0 
9.109069184994e-04 2.814209206531e-03 0.0 
1.489543143229e-04 8.275051121425e-03 0.0 
1.115790643250e-04 9.457924216680e-04 0.0 
1.058011996313e-03 1.576231269931e-02 0.0 
9.307661780524e-05 3.378133549202e-03 0.0 
4.305091782149e-04 1.269441550397e-02 0.0 
4.657442777446e-05 3.279076183002e-03 0.0 
1.646395808178e-03 6.714045162491e-03 0.0 
3.422572738357e-04 1.369732562968e-02 0.0 
1.497464661729e-03 1.407547990819e-02 0.0 
8.395365831926e-05 1.927721740586e-03 0.0 
6.924927043889e-04 3.219060088502e-03 0.0 
-2.404022684092e-04 1.549259058052e-02 0.0 
1.729082022327e-04 9.934556430156e-03 0.0 
2.898175614496e-04 9.771648641744e-03 0.0 
-3.066687375621e-04 1.312043330897e-02 0.0 
3.888811036028e-04 2.073443523925e-03 0.0 
1.325301862822e-03 5.070240259808e-03 0.0 
1.406247460576e-04 1.970490370362e-03 0.0 
1.258746578030e-05 1.157401688176e-02 0.0 
1.879807050857e-05 1.183082125692e-02 0.0 
4.388359006649e-04 1.946848958430e-03 0.0 
8.086334375826e-04 2.767259526712e-03 0.0 
5.546608936185e-04 1.227121133185e-02 0.0 
1.286073734767e-04 1.389994679617e-03 0.0 
-6.144270108488e-04 1.511008713915e-02 0.0 
6.793959869611e-04 1.726382748040e-02 0.0 
4.541667479055e-05 1.173442154728e-02 0.0 
8.898409528107e-05 9.536869594853e-04 0.0 
2.267984577219e-04 3.231676483390e-03 0.0 
2.055012841549e-04 9.315997323664e-03 0.0 
1.493942223087e-03 1.652756082491e-02 0.0 
1.025048360553e-04 1.071035456275e-02 0.0 
1.271470855209e-03 3.769656232110e-03 0.0 
8.962020745720e-05 1.193554478676e-02 0.0 
1.532766971932e-04 3.054117591991e-03 0.0 
5.140316988073e-04 1.938568635722e-03 0.0 
4.724650716413e-04 2.998451879335e-03 0.0 
3.311746452560e-04 9.200992927668e-04 0.0 
-4.790798755363e-04 1.403312629947e-02 0.0 
8.280840622746e-04 2.296270326796e-03 0.0 
8.763626369985e-04 3.080817242465e-03 0.0 
3.742018250200e-04 1.716660947475e-02 0.0 
5.996442860743e-04 3.181919608284e-03 0.0 
1.841829069025e-04 1.015189790482e-02 0.0 
1.299209715041e-04 1.148207362690e-02 0.0 
8.778250600944e-06 1.528806912696e-03 0.0 
1.828554917819e-06 1.170594633441e-02 0.0 
6.283236697453e-05 1.715802448842e-02 0.0 
1.217118876899e-05 9.092603739801e-04 0.0 
7.698426027932e-05 1.148412822558e-02 0.0 
1.329488273833e-04 1.456634438657e-02 0.0 
7.449838277861e-04 2.707702529302e-03 0.0 
5.519490868076e-05 8.084565708432e-03 0.0 
7.357268318465e-05 6.510629644621e-03 0.0 
2.392356245741e-04 1.214207434897e-02 0.0 
-6.930372375377e-04 1.335694228262e-02 0.0 
1.058726721335e-04 1.158433217520e-02 0.0 
8.290938468920e-04 2.312054711796e-03 0.0 
3.629099510184e-04 2.887566178074e-03 0.0 
2.738794578215e-04 1.276332959274e-02 0.0 
1.363954611238e-04 1.494754044404e-02 0.0 
1.041593303253e-03 3.812621926798e-03 0.0 
2.211072145788e-04 8.898534954219e-03 0.0 
1.227719857419e-03 3.853269587909e-03 0.0 
9.923580608735e-04 3.196493912889e-03 0.0 
-1.015029825014e-03 1.535557525740e-02 0.0 
4.990819468883e-05 7.411819362169e-03 0.0 
3.612799215012e-05 1.176714872297e-02 0.0 
2.570876999173e-04 1.823677746744e-03 0.0 
1.468931565669e-04 8.631366045752e-03 0.0 
1.360966976346e-03 2.166024974250e-02 0.0 
4.439489278462e-05 2.325654162614e-02 0.0 
1.560949484144e-03 2.098349889143e-02 0.0 
4.433495886824e-05 2.191902203135e-02 0.0 
1.594843257571e-03 2.000088452815e-02 0.0 
4.135232242537e-05 2.051753858363e-02 0.0 
1.525065116099e-03 1.881939579250e-02 0.0 
4.340619434710e-05 1.905190036098e-02 0.0 

TENSORS node_materi_stress float
-3.602994021036e+00 2.143498919751e-02 0.0 
2.143498919751e-02 -8.540495082639e+00 0.0 
0.0 0.0 -3.561300006182e+00 
-4.250762826320e+01 4.323047193560e-01 0.0 
4.323047193560e-01 -7.888933540366e+01 0.0 
0.0 0.0 -3.601908910006e+01 
-1.623224689124e+02 -2.465436697306e-02 0.0 
-2.465436697306e-02 -3.819904157279e+02 0.0 
0.0 0.0 -1.628938653921e+02 
-1.152995428185e+02 6.673061846312e-01 0.0 
6.673061846312e-01 -2.686707600061e+02 0.0 
0.0 0.0 -1.147910908474e+02 
-8.062600506899e+00 -2.877671565673e-01 0.0 
-2.877671565673e-01 -2.077371921409e+01 0.0 
0.0 0.0 -8.463064766349e+00 
-1.511948073507e+01 -6.482429085347e-01 0.0 
-6.482429085347e-01 -4.040003463283e+01 0.0 
0.0 0.0 -1.625585461037e+01 
-2.177456888281e+01 -5.186506299158e-01 0.0 
-5.186506299158e-01 -5.866334947953e+01 0.0 
0.0 0.0 -2.373137550870e+01 
-2.953128398018e+01 -4.863337114638e-01 0.0 
-4.863337114638e-01 -7.957775038291e+01 0.0 
0.0 0.0 -3.233271030893e+01 
-3.677713807971e+01 -3.641930259870e-01 0.0 
-3.641930259870e-01 -9.964977844660e+01 0.0 
0.0 0.0 -4.052807495789e+01 
-4.421928900955e+01 -3.416586550725e-01 0.0 
-3.416586550725e-01 -1.194362196421e+02 0.0 
0.0 0.0 -4.869665259549e+01 
-5.161977059763e+01 -3.647657227373e-01 0.0 
-3.647657227373e-01 -1.392025709704e+02 0.0 
0.0 0.0 -5.684670247042e+01 
-5.905145779361e+01 -3.129252677550e-01 0.0 
-3.129252677550e-01 -1.589217805050e+02 0.0 
0.0 0.0 -6.499197148957e+01 
-6.667768167546e+01 -2.890009617528e-01 0.0 
-2.890009617528e-01 -1.785975816474e+02 0.0 
0.0 0.0 -7.318257899685e+01 
-7.445125055148e+01 -3.348696949263e-01 0.0 
-3.348696949263e-01 -1.984071350504e+02 0.0 
0.0 0.0 -8.145751568056e+01 
-8.258705293290e+01 -4.732026607024e-01 0.0 
-4.732026607024e-01 -2.186369256183e+02 0.0 
0.0 0.0 -8.996719356536e+01 
-9.106010336884e+01 -4.795066321751e-01 0.0 
-4.795066321751e-01 -2.381437795404e+02 0.0 
0.0 0.0 -9.836116487278e+01 
-9.904174443389e+01 -5.952373589113e-01 0.0 
-5.952373589113e-01 -2.558661111068e+02 0.0 
0.0 0.0 -1.060723566622e+02 
-1.077664397816e+02 -1.390867381730e-01 0.0 
-1.390867381730e-01 -2.752636630600e+02 0.0 
0.0 0.0 -1.145090308525e+02 
-1.171073247829e+02 -9.280932063194e-02 0.0 
-9.280932063194e-02 -2.950692038991e+02 0.0 
0.0 0.0 -1.232529586046e+02 
-1.264633378690e+02 -6.749161752487e-02 0.0 
-6.749161752487e-02 -3.141968466826e+02 0.0 
0.0 0.0 -1.317980553655e+02 
-1.361226175034e+02 -2.012682937223e-02 0.0 
-2.012682937223e-02 -3.333783335715e+02 0.0 
0.0 0.0 -1.404502853224e+02 
-1.461390131191e+02 -3.412530736605e-02 0.0 
-3.412530736605e-02 -3.526256480283e+02 0.0 
0.0 0.0 -1.492293983442e+02 
-1.559264773951e+02 -9.956216130223e-02 0.0 
-9.956216130223e-02 -3.709072296581e+02 0.0 
0.0 0.0 -1.576501121160e+02 
-1.156804995825e+02 7.487822919370e-01 0.0 
7.487822919370e-01 -2.698344481583e+02 0.0 
0.0 0.0 -1.152544843222e+02 
-1.151410973613e+02 1.332985511301e+00 0.0 
1.332985511301e+00 -2.688266211431e+02 0.0 
0.0 0.0 -1.147903155513e+02 
-1.153077090233e+02 2.223020619888e+00 0.0 
2.223020619888e+00 -2.691624510789e+02 0.0 
0.0 0.0 -1.149410480306e+02 
-1.153030660508e+02 2.526031186949e+00 0.0 
2.526031186949e+00 -2.692817419805e+02 0.0 
0.0 0.0 -1.149754424094e+02 
-1.152453222076e+02 3.364041775035e+00 0.0 
3.364041775035e+00 -2.688358800369e+02 0.0 
0.0 0.0 -1.148243606734e+02 
-1.156460844993e+02 4.121490602165e+00 0.0 
4.121490602165e+00 -2.697215394362e+02 0.0 
0.0 0.0 -1.152102871806e+02 
-1.161641390275e+02 4.976135916454e+00 0.0 
4.976135916454e+00 -2.703846490389e+02 0.0 
0.0 0.0 -1.155646364199e+02 
-1.160818347154e+02 5.975624239559e+00 0.0 
5.975624239559e+00 -2.705473198834e+02 0.0 
0.0 0.0 -1.155887463797e+02 
-1.168050403188e+02 7.076248370310e+00 0.0 
7.076248370310e+00 -2.719589063821e+02 0.0 
0.0 0.0 -1.162291840103e+02 
-1.170283042110e+02 7.839693495877e+00 0.0 
7.839693495877e+00 -2.726986410734e+02 0.0 
0.0 0.0 -1.165180835853e+02 
-1.174127549729e+02 9.065122622034e+00 0.0 
9.065122622034e+00 -2.730519357021e+02 0.0 
0.0 0.0 -1.167394072025e+02 
-1.181360087619e+02 1.030328894682e+01 0.0 
1.030328894682e+01 -2.748608257405e+02 0.0 
0.0 0.0 -1.174990503507e+02 
-1.193021103247e+02 1.160160350185e+01 0.0 
1.160160350185e+01 -2.769614696370e+02 0.0 
0.0 0.0 -1.184790739885e+02 
-1.196866087455e+02 1.293701651798e+01 0.0 
1.293701651798e+01 -2.783490758872e+02 0.0 
0.0 0.0 -1.190107053898e+02 
-1.207682740051e+02 1.432838362893e+01 0.0 
1.432838362893e+01 -2.802580777322e+02 0.0 
0.0 0.0 -1.199079055212e+02 
-1.213324780331e+02 1.558223916732e+01 0.0 
1.558223916732e+01 -2.820519046698e+02 0.0 
0.0 0.0 -1.206153148109e+02 
-1.226269903771e+02 1.702052085202e+01 0.0 
1.702052085202e+01 -2.849007212515e+02 0.0 
0.0 0.0 -1.218583134886e+02 
-1.246643570583e+02 1.844126761770e+01 0.0 
1.844126761770e+01 -2.892516487314e+02 0.0 
0.0 0.0 -1.237748017369e+02 
-1.262513146214e+02 1.976617650529e+01 0.0 
1.976617650529e+01 -2.935208162784e+02 0.0 
0.0 0.0 -1.255316392700e+02 
-1.280117572632e+02 2.096504527670e+01 0.0 
2.096504527670e+01 -2.981092485845e+02 0.0 
0.0 0.0 -1.274363017543e+02 
-1.297176123139e+02 2.186038083425e+01 0.0 
2.186038083425e+01 -3.026050019123e+02 0.0 
0.0 0.0 -1.292967842679e+02 
-1.318022736301e+02 2.276020398454e+01 0.0 
2.276020398454e+01 -3.073683941536e+02 0.0 
0.0 0.0 -1.313512003351e+02 
-1.336841756164e+02 2.333670287662e+01 0.0 
2.333670287662e+01 -3.124432837267e+02 0.0 
0.0 0.0 -1.334382378029e+02 
-1.357366134105e+02 2.370662689299e+01 0.0 
2.370662689299e+01 -3.176476329369e+02 0.0 
0.0 0.0 -1.356152739042e+02 
-1.379476779366e+02 2.382794543892e+01 0.0 
2.382794543892e+01 -3.231850671707e+02 0.0 
0.0 0.0 -1.379398235322e+02 
-1.402336017782e+02 2.377932095659e+01 0.0 
2.377932095659e+01 -3.287228689527e+02 0.0 
0.0 0.0 -1.402869412193e+02 
-1.421881800049e+02 2.343699970102e+01 0.0 
2.343699970102e+01 -3.339875987707e+02 0.0 
0.0 0.0 -1.424527336327e+02 
-1.443190489270e+02 2.289096124927e+01 0.0 
2.289096124927e+01 -3.390713268513e+02 0.0 
0.0 0.0 -1.446171127335e+02 
-1.460503189167e+02 2.214961838519e+01 0.0 
2.214961838519e+01 -3.436371315541e+02 0.0 
0.0 0.0 -1.465062351413e+02 
-1.483542005739e+02 2.145127375689e+01 0.0 
2.145127375689e+01 -3.487258291265e+02 0.0 
0.0 0.0 -1.487240089101e+02 
-1.497101967088e+02 2.013342961934e+01 0.0 
2.013342961934e+01 -3.527915142417e+02 0.0 
0.0 0.0 -1.503505132852e+02 
-1.509342294632e+02 1.911261180778e+01 0.0 
1.911261180778e+01 -3.557437186209e+02 0.0 
0.0 0.0 -1.516033844252e+02 
-1.525475462103e+02 1.788636711801e+01 0.0 
1.788636711801e+01 -3.594963579190e+02 0.0 
0.0 0.0 -1.532131712388e+02 
-1.540339955117e+02 1.670727549062e+01 0.0 
1.670727549062e+01 -3.629833832838e+02 0.0 
0.0 0.0 -1.547052136386e+02 
-1.553461452380e+02 1.544673708584e+01 0.0 
1.544673708584e+01 -3.660762510511e+02 0.0 
0.0 0.0 -1.560267188867e+02 
-1.565203921063e+02 1.420699239910e+01 0.0 
1.420699239910e+01 -3.687792180024e+02 0.0 
0.0 0.0 -1.571898830326e+02 
-1.575542345166e+02 1.294800777283e+01 0.0 
1.294800777283e+01 -3.711794007993e+02 0.0 
0.0 0.0 -1.582200905948e+02 
-1.583099754728e+02 1.168447621741e+01 0.0 
1.168447621741e+01 -3.729919950291e+02 0.0 
0.0 0.0 -1.589905911506e+02 
-1.589721380708e+02 1.053253799372e+01 0.0 
1.053253799372e+01 -3.744951858008e+02 0.0 
0.0 0.0 -1.596401971615e+02 
-1.594114905458e+02 9.307861112737e+00 0.0 
9.307861112737e+00 -3.756593170239e+02 0.0 
0.0 0.0 -1.601212422709e+02 
-1.602496587145e+02 8.325305755195e+00 0.0 
8.325305755195e+00 -3.773053598873e+02 0.0 
0.0 0.0 -1.608665055806e+02 
-1.612389353967e+02 7.171500029385e+00 0.0 
7.171500029385e+00 -3.792727778521e+02 0.0 
0.0 0.0 -1.617535139746e+02 
-1.617649483284e+02 6.285922262576e+00 0.0 
6.285922262576e+00 -3.803888876372e+02 0.0 
0.0 0.0 -1.622461507897e+02 
-1.607199947552e+02 5.187807711409e+00 0.0 
5.187807711409e+00 -3.788375103109e+02 0.0 
0.0 0.0 -1.614672515198e+02 
-1.622448679930e+02 4.164521652856e+00 0.0 
4.164521652856e+00 -3.814377745019e+02 0.0 
0.0 0.0 -1.627047927485e+02 
-1.619844707065e+02 3.318117725647e+00 0.0 
3.318117725647e+00 -3.811246637632e+02 0.0 
0.0 0.0 -1.625327403409e+02 
-1.624893468404e+02 2.692522133547e+00 0.0 
2.692522133547e+00 -3.820016093866e+02 0.0 
0.0 0.0 -1.629472868681e+02 
-1.628857351016e+02 1.617541435447e+00 0.0 
1.617541435447e+00 -3.828662870704e+02 0.0 
0.0 0.0 -1.633256066516e+02 
-1.628676018427e+02 9.451905318025e-01 0.0 
9.451905318025e-01 -3.829110654731e+02 0.0 
0.0 0.0 -1.633336001948e+02 
-5.109387398577e+01 3.174942833758e-01 0.0 
3.174942833758e-01 -9.869770017755e+01 0.0 
0.0 0.0 -4.453747224899e+01 
-5.910364513114e+01 3.834730369539e-01 0.0 
3.834730369539e-01 -1.184421450356e+02 0.0 
0.0 0.0 -5.286373705003e+01 
-6.710625605779e+01 3.967343210898e-01 0.0 
3.967343210898e-01 -1.380604460966e+02 0.0 
0.0 0.0 -6.115001064632e+01 
-7.474501315268e+01 4.517329894391e-01 0.0 
4.517329894391e-01 -1.573401070148e+02 0.0 
0.0 0.0 -6.922553605026e+01 
-8.238590444632e+01 4.345873811511e-01 0.0 
4.345873811511e-01 -1.771216294570e+02 0.0 
0.0 0.0 -7.745226017100e+01 
-9.011419135860e+01 5.013523721141e-01 0.0 
5.013523721141e-01 -1.970737401060e+02 0.0 
0.0 0.0 -8.575637943939e+01 
-9.733016621409e+01 4.807340377197e-01 0.0 
4.807340377197e-01 -2.168440574921e+02 0.0 
0.0 0.0 -9.385226711185e+01 
-1.043153988176e+02 5.748689789833e-01 0.0 
5.748689789833e-01 -2.365042403170e+02 0.0 
0.0 0.0 -1.018458917404e+02 
-1.115999285986e+02 6.304788964755e-01 0.0 
6.304788964755e-01 -2.568546962204e+02 0.0 
0.0 0.0 -1.101363874457e+02 
-1.590381327140e+01 4.807326396794e+00 0.0 
4.807326396794e+00 -6.931684848431e+00 0.0 
0.0 0.0 -6.833104335894e+00 
-4.972746033780e+01 2.661145379739e+00 0.0 
2.661145379739e+00 -8.107239314761e+01 0.0 
0.0 0.0 -3.883995604563e+01 
-1.994587341487e+01 1.189266743486e+01 0.0 
1.189266743486e+01 -1.432445645951e+01 0.0 
0.0 0.0 -9.916958301120e+00 
-2.253503968150e+01 1.466743739106e+01 0.0 
1.466743739106e+01 -1.804342244417e+01 0.0 
0.0 0.0 -1.177353863770e+01 
-2.309803420493e+01 1.560111115618e+01 0.0 
1.560111115618e+01 -1.913937940096e+01 0.0 
0.0 0.0 -1.227122408176e+01 
-2.190176589713e+01 1.517481533687e+01 0.0 
1.517481533687e+01 -1.830924059837e+01 0.0 
0.0 0.0 -1.166330194865e+01 
-2.150930894750e+01 1.449697072229e+01 0.0 
1.449697072229e+01 -1.850608073475e+01 0.0 
0.0 0.0 -1.160461690467e+01 
-2.232797032802e+01 1.026731083125e+01 0.0 
1.026731083125e+01 -1.604126605796e+01 0.0 
0.0 0.0 -1.111077091579e+01 
-2.251429903983e+01 5.219164268694e+00 0.0 
5.219164268694e+00 -2.173512474102e+01 0.0 
0.0 0.0 -1.287482713425e+01 
-3.172871102657e+01 3.796432469099e+00 0.0 
3.796432469099e+00 -4.109949860406e+01 0.0 
0.0 0.0 -2.144846288919e+01 
-4.083179388600e+01 3.026037307748e+00 0.0 
3.026037307748e+00 -6.058163494872e+01 0.0 
0.0 0.0 -3.002402865042e+01 
-1.329831161107e+01 8.609963615000e-01 0.0 
8.609963615000e-01 -7.371277338486e+00 0.0 
0.0 0.0 -5.800876684867e+00 
-1.772899492894e+01 6.552894570144e-01 0.0 
6.552894570144e-01 -1.969856879156e+01 0.0 
0.0 0.0 -1.082826911615e+01 
-2.589047483427e+01 7.534043171833e-01 0.0 
7.534043171833e-01 -3.923518901231e+01 0.0 
0.0 0.0 -1.913769915397e+01 
-3.420936361629e+01 5.324308458823e-01 0.0 
5.324308458823e-01 -5.862794491460e+01 0.0 
0.0 0.0 -2.745119255927e+01 
-4.165366909111e+01 -2.466834639857e-01 0.0 
-2.466834639857e-01 -7.626691506834e+01 0.0 
0.0 0.0 -3.497617524784e+01 
-4.232151497700e+01 -6.083649776945e-02 0.0 
-6.083649776945e-02 -7.743650234536e+01 0.0 
0.0 0.0 -3.552740519671e+01 
-4.235707530709e+01 -7.134418827543e-02 0.0 
-7.134418827543e-02 -7.746266902161e+01 0.0 
0.0 0.0 -3.554592329861e+01 
-4.242085832284e+01 -3.601368791242e-02 0.0 
-3.601368791242e-02 -7.723313419526e+01 0.0 
0.0 0.0 -3.549619775543e+01 
-4.381964772508e+01 -5.545559567323e-02 0.0 
-5.545559567323e-02 -7.987051523987e+01 0.0 
0.0 0.0 -3.670704888949e+01 
-4.295988365785e+01 -9.710591335712e-02 0.0 
-9.710591335712e-02 -7.752626284399e+01 0.0 
0.0 0.0 -3.574584395055e+01 
-4.328114871349e+01 -4.656840337593e-02 0.0 
-4.656840337593e-02 -7.736205883619e+01 0.0 
0.0 0.0 -3.579296226491e+01 
-4.360854374061e+01 -9.784296249522e-02 0.0 
-9.784296249522e-02 -7.756113560005e+01 0.0 
0.0 0.0 -3.595090380220e+01 
-4.412451236228e+01 9.117980463541e-03 0.0 
9.117980463541e-03 -7.803284928687e+01 0.0 
0.0 0.0 -3.624720849474e+01 
-4.456248002670e+01 7.254453649400e-02 0.0 
7.254453649400e-02 -7.803664937691e+01 0.0 
0.0 0.0 -3.637973882108e+01 
-4.521146221477e+01 2.838486532340e-01 0.0 
2.838486532340e-01 -7.810963244845e+01 0.0 
0.0 0.0 -3.659632839897e+01 
-4.584639438237e+01 5.772402469467e-01 0.0 
5.772402469467e-01 -7.823564368830e+01 0.0 
0.0 0.0 -3.682461142120e+01 
-4.679899998486e+01 9.636864195238e-01 0.0 
9.636864195238e-01 -7.864232523687e+01 0.0 
0.0 0.0 -3.723239756652e+01 
-4.790603602377e+01 1.577703326219e+00 0.0 
1.577703326219e+00 -7.940251582858e+01 0.0 
0.0 0.0 -3.779256555570e+01 
-1.760030276299e+01 1.847516300565e+00 0.0 
1.847516300565e+00 -6.401239569253e+00 0.0 
0.0 0.0 -7.114362541291e+00 
-1.971396123713e+01 3.226356364398e-01 0.0 
3.226356364398e-01 -7.254920441755e+00 0.0 
0.0 0.0 -8.007535231260e+00 
-1.991891111183e+01 -4.857389007843e-01 0.0 
-4.857389007843e-01 -7.009364109881e+00 0.0 
0.0 0.0 -7.978901074259e+00 
-1.882873038480e+01 -4.944248537746e-01 0.0 
-4.944248537746e-01 -7.048161266009e+00 0.0 
0.0 0.0 -7.663209610979e+00 
-1.715735037510e+01 -6.011721709853e-01 0.0 
-6.011721709853e-01 -8.047855409175e+00 0.0 
0.0 0.0 -7.484340190335e+00 
-1.572723190400e+01 -7.394913613328e-01 0.0 
-7.394913613328e-01 -8.457438170677e+00 0.0 
0.0 0.0 -7.182384369316e+00 
-1.421143993939e+01 -7.426433747452e-01 0.0 
-7.426433747452e-01 -8.393998649887e+00 0.0 
0.0 0.0 -6.707123637742e+00 
-1.270668687793e+01 -6.909503814493e-01 0.0 
-6.909503814493e-01 -8.292750826343e+00 0.0 
0.0 0.0 -6.224579971032e+00 
-1.125682849011e+01 -6.523496834391e-01 0.0 
-6.523496834391e-01 -8.273863792592e+00 0.0 
0.0 0.0 -5.782512065741e+00 
-9.957710823732e+00 -5.816889617519e-01 0.0 
-5.816889617519e-01 -8.294773495716e+00 0.0 
0.0 0.0 -5.399691686759e+00 
-8.677507083334e+00 -4.686422854656e-01 0.0 
-4.686422854656e-01 -8.399842993653e+00 0.0 
0.0 0.0 -5.048880846741e+00 
-7.866683132258e+00 -5.203216048404e-01 0.0 
-5.203216048404e-01 -8.971014124083e+00 0.0 
0.0 0.0 -4.987978421571e+00 
-6.646872904431e+00 -5.636883600020e-01 0.0 
-5.636883600020e-01 -8.658706007429e+00 0.0 
0.0 0.0 -4.523563415799e+00 
-5.500538489763e+00 -4.332545847656e-01 0.0 
-4.332545847656e-01 -7.911598457231e+00 0.0 
0.0 0.0 -3.941866013647e+00 
-4.682408930210e+00 -3.388288884098e-01 0.0 
-3.388288884098e-01 -8.043763060996e+00 0.0 
0.0 0.0 -3.740814080908e+00 
-4.087767975754e+00 -2.800846550761e-01 0.0 
-2.800846550761e-01 -8.316615934691e+00 0.0 
0.0 0.0 -3.647066775566e+00 
-3.583331136527e+00 -1.821390757541e-01 0.0 
-1.821390757541e-01 -8.350025175779e+00 0.0 
0.0 0.0 -3.505390807809e+00 
-3.181055150816e+00 -1.761886061671e-01 0.0 
-1.761886061671e-01 -7.936477826902e+00 0.0 
0.0 0.0 -3.258152597206e+00 
-2.970936102142e+00 1.969260897288e-02 0.0 
1.969260897288e-02 -7.332757556358e+00 0.0 
0.0 0.0 -2.999524371939e+00 
-1.333788782308e+01 -1.840701929441e-01 0.0 
-1.840701929441e-01 -9.513240094673e+00 0.0 
0.0 0.0 -6.455338375325e+00 
-1.309097776731e+01 -1.425148748917e-02 0.0 
-1.425148748917e-02 -9.751119323492e+00 0.0 
0.0 0.0 -6.452629127241e+00 
-1.302722581241e+01 -2.808738132691e-02 0.0 
-2.808738132691e-02 -9.695040045036e+00 0.0 
0.0 0.0 -6.416679757233e+00 
-1.293176556323e+01 -8.480706396633e-02 0.0 
-8.480706396633e-02 -9.696355540223e+00 0.0 
0.0 0.0 -6.388436331035e+00 
-1.276372319455e+01 -1.325481998824e-01 0.0 
-1.325481998824e-01 -9.693971692218e+00 0.0 
0.0 0.0 -6.337308466031e+00 
-1.252814812928e+01 -1.766718536377e-01 0.0 
-1.766718536377e-01 -9.689459941681e+00 0.0 
0.0 0.0 -6.265282421287e+00 
-1.223087220501e+01 -2.165093011656e-01 0.0 
-2.165093011656e-01 -9.682275086167e+00 0.0 
0.0 0.0 -6.173944187354e+00 
-1.187981673956e+01 -2.578113902675e-01 0.0 
-2.578113902675e-01 -9.669403798804e+00 0.0 
0.0 0.0 -6.064766161509e+00 
-1.147202521683e+01 -3.050259336841e-01 0.0 
-3.050259336841e-01 -9.656418140072e+00 0.0 
0.0 0.0 -5.938533007071e+00 
-1.099364276887e+01 -3.545366876506e-01 0.0 
-3.545366876506e-01 -9.645088304376e+00 0.0 
0.0 0.0 -5.791619321974e+00 
-1.045892572687e+01 -3.988611708290e-01 0.0 
-3.988611708290e-01 -9.633725536205e+00 0.0 
0.0 0.0 -5.627795378921e+00 
-9.886624545745e+00 -4.351986064492e-01 0.0 
-4.351986064492e-01 -9.619915673162e+00 0.0 
0.0 0.0 -5.451962065672e+00 
-9.292110052119e+00 -4.672476114017e-01 0.0 
-4.672476114017e-01 -9.595250355227e+00 0.0 
0.0 0.0 -5.266208122204e+00 
-8.700575804805e+00 -4.977196408823e-01 0.0 
-4.977196408823e-01 -9.591334378513e+00 0.0 
0.0 0.0 -5.087573054995e+00 
-8.131625955863e+00 -4.730267001280e-01 0.0 
-4.730267001280e-01 -9.588490387585e+00 0.0 
0.0 0.0 -4.916034903035e+00 
-7.762754855873e+00 -3.836000387604e-01 0.0 
-3.836000387604e-01 -9.653131017927e+00 0.0 
0.0 0.0 -4.824765762140e+00 
-7.721236005563e+00 -8.643738739493e-02 0.0 
-8.643738739493e-02 -9.703904410191e+00 0.0 
0.0 0.0 -4.827542124726e+00 
-8.503314555910e+00 4.205946971584e-01 0.0 
4.205946971584e-01 -1.002686705562e+01 0.0 
0.0 0.0 -5.159054483460e+00 
-1.014867819782e+01 1.653558262406e+00 0.0 
1.653558262406e+00 -9.757196678279e+00 0.0 
0.0 0.0 -5.571762462830e+00 
-1.294710455782e+01 2.964456755640e+00 0.0 
2.964456755640e+00 -5.003397903066e+00 0.0 
0.0 0.0 -4.985150738267e+00 
-1.772735533900e+01 2.121412676539e+00 0.0 
2.121412676539e+00 -1.812026346322e+01 0.0 
0.0 0.0 -1.035428564066e+01 
-1.789294631918e+01 1.330322853016e+00 0.0 
1.330322853016e+00 -2.159557242929e+01 0.0 
0.0 0.0 -1.144655562454e+01 
-1.597535260161e+01 2.961974225130e-01 0.0 
2.961974225130e-01 -2.018936060969e+01 0.0 
0.0 0.0 -1.044941396339e+01 
-1.540659162038e+01 -1.209147401288e-01 0.0 
-1.209147401288e-01 -1.984458319478e+01 0.0 
0.0 0.0 -1.017535244455e+01 
-1.529287699237e+01 -3.442982901156e-01 0.0 
-3.442982901156e-01 -1.973510667621e+01 0.0 
0.0 0.0 -1.010839510058e+01 
-1.532365585796e+01 -4.209320918609e-01 0.0 
-4.209320918609e-01 -1.963215236111e+01 0.0 
0.0 0.0 -1.008674246572e+01 
-1.548644130719e+01 -4.497605527660e-01 0.0 
-4.497605527660e-01 -1.961534077246e+01 0.0 
0.0 0.0 -1.013053462390e+01 
-1.571323396094e+01 -4.539905523892e-01 0.0 
-4.539905523892e-01 -1.959328301481e+01 0.0 
0.0 0.0 -1.019195509273e+01 
-1.596914949308e+01 -4.375858807551e-01 0.0 
-4.375858807551e-01 -1.957433749959e+01 0.0 
0.0 0.0 -1.026304609780e+01 
-1.623766466693e+01 -4.014915776363e-01 0.0 
-4.014915776363e-01 -1.955896450825e+01 0.0 
0.0 0.0 -1.033898875255e+01 
-1.648656862262e+01 -3.501275320633e-01 0.0 
-3.501275320633e-01 -1.955900188721e+01 0.0 
0.0 0.0 -1.041367115295e+01 
-1.669984300610e+01 -3.047328603161e-01 0.0 
-3.047328603161e-01 -1.956614847986e+01 0.0 
0.0 0.0 -1.047979744579e+01 
-1.689945021344e+01 -2.638151010394e-01 0.0 
-2.638151010394e-01 -1.956564874926e+01 0.0 
0.0 0.0 -1.053952968881e+01 
-1.706601472216e+01 -2.153972447817e-01 0.0 
-2.153972447817e-01 -1.956131499035e+01 0.0 
0.0 0.0 -1.058819891375e+01 
-1.719919227638e+01 -1.618992156276e-01 0.0 
-1.618992156276e-01 -1.956113997501e+01 0.0 
0.0 0.0 -1.062809967542e+01 
-1.729720014269e+01 -1.046101965352e-01 0.0 
-1.046101965352e-01 -1.955631932105e+01 0.0 
0.0 0.0 -1.065605583912e+01 
-1.737136787743e+01 -3.314162996117e-02 0.0 
-3.314162996117e-02 -1.955286186376e+01 0.0 
0.0 0.0 -1.067726892236e+01 
-1.743900162259e+01 5.178743654461e-02 0.0 
5.178743654461e-02 -1.955656222309e+01 0.0 
0.0 0.0 -1.069866915370e+01 
-1.766905293060e+01 -3.986658781024e-01 0.0 
-3.986658781024e-01 -1.965876936951e+01 0.0 
0.0 0.0 -1.079834669003e+01 
-2.587629202163e+01 -3.594574715191e-01 0.0 
-3.594574715191e-01 -3.921864883215e+01 0.0 
0.0 0.0 -1.912848225613e+01 
-2.587578303650e+01 -1.361444332686e-01 0.0 
-1.361444332686e-01 -3.910590823969e+01 0.0 
0.0 0.0 -1.909450738286e+01 
-2.585616414859e+01 -1.399700964097e-01 0.0 
-1.399700964097e-01 -3.909487054701e+01 0.0 
0.0 0.0 -1.908531040868e+01 
-2.583430616279e+01 -2.036621654219e-01 0.0 
-2.036621654219e-01 -3.911893672743e+01 0.0 
0.0 0.0 -1.908597286707e+01 
-2.583546964406e+01 -2.786461051224e-01 0.0 
-2.786461051224e-01 -3.912269950223e+01 0.0 
0.0 0.0 -1.908745074389e+01 
-2.581586791449e+01 -3.555521680632e-01 0.0 
-3.555521680632e-01 -3.913299105020e+01 0.0 
0.0 0.0 -1.908465768941e+01 
-2.580815951127e+01 -4.253450012580e-01 0.0 
-4.253450012580e-01 -3.915443465749e+01 0.0 
0.0 0.0 -1.908877825063e+01 
-2.579799472731e+01 -4.693555883738e-01 0.0 
-4.693555883738e-01 -3.914912730830e+01 0.0 
0.0 0.0 -1.908413661068e+01 
-2.581884351886e+01 -5.383846894126e-01 0.0 
-5.383846894126e-01 -3.913333008525e+01 0.0 
0.0 0.0 -1.908565208123e+01 
-2.584322643768e+01 -5.869202444297e-01 0.0 
-5.869202444297e-01 -3.918032538679e+01 0.0 
0.0 0.0 -1.910706554734e+01 
-2.592512042831e+01 -5.770806396195e-01 0.0 
-5.770806396195e-01 -3.923155429634e+01 0.0 
0.0 0.0 -1.914700241739e+01 
-2.609502254434e+01 -5.257889111057e-01 0.0 
-5.257889111057e-01 -3.928119072934e+01 0.0 
0.0 0.0 -1.921286398210e+01 
-2.635527705918e+01 -4.054525154502e-01 0.0 
-4.054525154502e-01 -3.936855609809e+01 0.0 
0.0 0.0 -1.931714994718e+01 
-2.677102060843e+01 -1.800639263989e-01 0.0 
-1.800639263989e-01 -3.944508322333e+01 0.0 
0.0 0.0 -1.946483114953e+01 
-2.746771149272e+01 1.663072428572e-01 0.0 
1.663072428572e-01 -3.982328388772e+01 0.0 
0.0 0.0 -1.978729861413e+01 
-2.917101707426e+01 1.137714066209e+00 0.0 
1.137714066209e+00 -4.136602995967e+01 0.0 
0.0 0.0 -2.076111411018e+01 
-2.884747395359e+01 1.869031593160e+00 0.0 
1.869031593160e+00 -3.801062602114e+01 0.0 
0.0 0.0 -1.965742999242e+01 
-3.854887852696e+01 1.598610700492e+00 0.0 
1.598610700492e+00 -5.766700503298e+01 0.0 
0.0 0.0 -2.846476506798e+01 
-3.882588402886e+01 1.098271682248e+00 0.0 
1.098271682248e+00 -6.084021031814e+01 0.0 
0.0 0.0 -2.949982830410e+01 
-3.731833378072e+01 3.911040041495e-01 0.0 
3.911040041495e-01 -5.940596041107e+01 0.0 
0.0 0.0 -2.861728825754e+01 
-3.664698710736e+01 4.950215793435e-02 0.0 
4.950215793435e-02 -5.912957340883e+01 0.0 
0.0 0.0 -2.833296815486e+01 
-3.609001909569e+01 -1.345106075400e-01 0.0 
-1.345106075400e-01 -5.899583233958e+01 0.0 
0.0 0.0 -2.812575543058e+01 
-3.565481506906e+01 -2.785484157851e-01 0.0 
-2.785484157851e-01 -5.891271733993e+01 0.0 
0.0 0.0 -2.797025972270e+01 
-3.530778295890e+01 -3.510611909833e-01 0.0 
-3.510611909833e-01 -5.877219899612e+01 0.0 
0.0 0.0 -2.782399458650e+01 
-3.503989434563e+01 -3.194631288542e-01 0.0 
-3.194631288542e-01 -5.871622129971e+01 0.0 
0.0 0.0 -2.772683469360e+01 
-3.491899459697e+01 -3.231729750325e-01 0.0 
-3.231729750325e-01 -5.877391356109e+01 0.0 
0.0 0.0 -2.770787244742e+01 
-3.470614499237e+01 -2.822677728845e-01 0.0 
-2.822677728845e-01 -5.872206609138e+01 0.0 
0.0 0.0 -2.762846332513e+01 
-3.457383360939e+01 -2.498310342975e-01 0.0 
-2.498310342975e-01 -5.869577301194e+01 0.0 
0.0 0.0 -2.758088198640e+01 
-3.447831749371e+01 -1.690477882845e-01 0.0 
-1.690477882845e-01 -5.868933497543e+01 0.0 
0.0 0.0 -2.755029574074e+01 
-3.437525123193e+01 -1.486082845224e-01 0.0 
-1.486082845224e-01 -5.870236089762e+01 0.0 
0.0 0.0 -2.752328363887e+01 
-3.431033100648e+01 -8.446330952798e-02 0.0 
-8.446330952798e-02 -5.863663092608e+01 0.0 
0.0 0.0 -2.748408857977e+01 
-3.428969277458e+01 3.994355520182e-02 0.0 
3.994355520182e-02 -5.879204470034e+01 0.0 
0.0 0.0 -2.752452124248e+01 
-3.418639404691e+01 -5.021731514653e-01 0.0 
-5.021731514653e-01 -5.889700950408e+01 0.0 
0.0 0.0 -2.752502106530e+01 
-1.721914568106e+01 9.004608450064e+00 0.0 
9.004608450064e+00 -1.028111188395e+01 0.0 
0.0 0.0 -7.942476316291e+00 
-2.156909235177e+01 1.361875916393e+01 0.0 
1.361875916393e+01 -1.676524973652e+01 0.0 
0.0 0.0 -1.110030262649e+01 
-2.293201906739e+01 1.525040777811e+01 0.0 
1.525040777811e+01 -1.869761462555e+01 0.0 
0.0 0.0 -1.208889010788e+01 
-2.288243696663e+01 1.554229053190e+01 0.0 
1.554229053190e+01 -1.933368663495e+01 0.0 
0.0 0.0 -1.226483708047e+01 
-2.229837411691e+01 1.557727508033e+01 0.0 
1.557727508033e+01 -1.908849153067e+01 0.0 
0.0 0.0 -1.201605969428e+01 
-2.305476288192e+01 1.458222346873e+01 0.0 
1.458222346873e+01 -1.883242663910e+01 0.0 
0.0 0.0 -1.216615685631e+01 
-2.124012069923e+01 6.600884687030e+00 0.0 
6.600884687030e+00 -1.471376038581e+01 0.0 
0.0 0.0 -1.038616432551e+01 
-2.862159060088e+01 4.534494292902e+00 0.0 
4.534494292902e+00 -3.322213971888e+01 0.0 
0.0 0.0 -1.815311909593e+01 
-3.778668792567e+01 3.423096560952e+00 0.0 
3.423096560952e+00 -5.273381153311e+01 0.0 
0.0 0.0 -2.675614983763e+01 
-4.647680336846e+01 2.781179982414e+00 0.0 
2.781179982414e+00 -7.232043249068e+01 0.0 
0.0 0.0 -3.523917075774e+01 
-2.144577532833e+01 1.295750802508e+01 0.0 
1.295750802508e+01 -2.447653906331e+01 0.0 
0.0 0.0 -1.337669431749e+01 
-1.480577528480e+02 1.690677163105e+01 0.0 
1.690677163105e+01 -3.533472538635e+02 0.0 
0.0 0.0 -1.500215020134e+02 
-1.275219952549e+01 -1.065305368029e+00 0.0 
-1.065305368029e+00 -1.682306707865e+01 0.0 
0.0 0.0 -8.859880006099e+00 
-1.816099556881e+01 -8.623376500100e-01 0.0 
-8.623376500100e-01 -1.603062641277e+01 0.0 
0.0 0.0 -1.024439432504e+01 
-1.533785669291e+02 1.075981900155e+01 0.0 
1.075981900155e+01 -3.657705402979e+02 0.0 
0.0 0.0 -1.553447321681e+02 
-2.346881322311e+01 1.585546130741e+01 0.0 
1.585546130741e+01 -2.801430488329e+01 0.0 
0.0 0.0 -1.504493543192e+01 
-7.878783993271e+01 3.381216516248e-02 0.0 
3.381216516248e-02 -2.092553440142e+02 0.0 
0.0 0.0 -8.601295518406e+01 
-1.417288020558e+02 2.104353442220e+01 0.0 
2.104353442220e+01 -3.370068273257e+02 0.0 
0.0 0.0 -1.432206888145e+02 
-2.680166381084e+01 1.537876143655e+01 0.0 
1.537876143655e+01 -2.926392464578e+01 0.0 
0.0 0.0 -1.641967653699e+01 
-1.353669143015e+02 2.326925415275e+01 0.0 
2.326925415275e+01 -3.178180891688e+02 0.0 
0.0 0.0 -1.355555010411e+02 
-3.900060630821e+01 7.100077156563e+00 0.0 
7.100077156563e+00 -5.273251625987e+01 0.0 
0.0 0.0 -2.711993677042e+01 
-1.568424321497e+02 6.457026691409e+00 0.0 
6.457026691409e+00 -3.723643437242e+02 0.0 
0.0 0.0 -1.583620327622e+02 
-8.773902265349e+00 -7.177437016747e-01 0.0 
-7.177437016747e-01 -1.620026682423e+01 0.0 
0.0 0.0 -7.501934354025e+00 
-1.283803202802e+02 2.187659563261e+01 0.0 
2.187659563261e+01 -2.966899394248e+02 0.0 
0.0 0.0 -1.271210779115e+02 
-5.490805486761e+01 4.164761046082e+00 0.0 
4.164761046082e+00 -9.036179671195e+01 0.0 
0.0 0.0 -4.318095547387e+01 
-4.826531126627e+01 -2.722485597789e-01 0.0 
-2.722485597789e-01 -1.302520949037e+02 0.0 
0.0 0.0 -5.315522185099e+01 
-1.018884225902e+02 2.099549121671e-01 0.0 
2.099549121671e-01 -2.625461428737e+02 0.0 
0.0 0.0 -1.089303696392e+02 
-1.237455867087e+02 1.872121280221e+01 0.0 
1.872121280221e+01 -2.825618650141e+02 0.0 
0.0 0.0 -1.214922355169e+02 
-1.186932773905e+02 1.314367174683e+01 0.0 
1.314367174683e+01 -2.710097355756e+02 0.0 
0.0 0.0 -1.165109038898e+02 
-1.132542946869e+02 3.736428983203e+00 0.0 
3.736428983203e+00 -2.614256865749e+02 0.0 
0.0 0.0 -1.120039943786e+02 
-1.138940604706e+02 6.187509968008e+00 0.0 
6.187509968008e+00 -2.611460616530e+02 0.0 
0.0 0.0 -1.121120366371e+02 
-1.162419603274e+02 9.557839376815e+00 0.0 
9.557839376815e+00 -2.662998418781e+02 0.0 
0.0 0.0 -1.143625406616e+02 
-5.611919310558e+01 2.236322563809e+00 0.0 
2.236322563809e+00 -9.746378077263e+01 0.0 
0.0 0.0 -4.567489216346e+01 
-5.258736675894e+01 5.835760779106e-01 0.0 
5.835760779106e-01 -9.601898583105e+01 0.0 
0.0 0.0 -4.418190577700e+01 
-5.171108342030e+01 3.503349420350e-01 0.0 
3.503349420350e-01 -9.711234120800e+01 0.0 
0.0 0.0 -4.424702738849e+01 
-7.870462016916e+01 3.871764283051e-01 0.0 
3.871764283051e-01 -1.673398469773e+02 0.0 
0.0 0.0 -7.341334014394e+01 
-1.573022909111e+02 3.804878157000e+00 0.0 
3.804878157000e+00 -3.732834973406e+02 0.0 
0.0 0.0 -1.587757364755e+02 
-1.857578998505e+01 1.387082216080e+00 0.0 
1.387082216080e+00 -1.472830532796e+01 0.0 
0.0 0.0 -9.991492467614e+00 
-7.233602981863e+00 -4.098758556612e-01 0.0 
-4.098758556612e-01 -1.722422845907e+01 0.0 
0.0 0.0 -7.326349718849e+00 
-1.309128231559e+02 5.348583723807e-01 0.0 
5.348583723807e-01 -3.231011628241e+02 0.0 
0.0 0.0 -1.358041957940e+02 
-4.968363607817e+01 4.050610874247e-03 0.0 
4.050610874247e-03 -9.476379381994e+01 0.0 
0.0 0.0 -4.293422896943e+01 
-2.557525571793e+01 -3.098507386719e-01 0.0 
-3.098507386719e-01 -6.907785836369e+01 0.0 
0.0 0.0 -2.799593422449e+01 
-1.198496714046e+02 1.570103641780e+01 0.0 
1.570103641780e+01 -2.724697406135e+02 0.0 
0.0 0.0 -1.172958236054e+02 
-1.392148041938e+02 2.262969230986e+01 0.0 
2.262969230986e+01 -3.290324385550e+02 0.0 
0.0 0.0 -1.400741728246e+02 
-1.317583262385e+02 2.303080050824e+01 0.0 
2.303080050824e+01 -3.069622658401e+02 0.0 
0.0 0.0 -1.312161776236e+02 
-1.441183551125e+02 1.919318334174e+01 0.0 
1.919318334174e+01 -3.442077521411e+02 0.0 
0.0 0.0 -1.460978321761e+02 
-1.508514702048e+02 1.451131237239e+01 0.0 
1.451131237239e+01 -3.598137599905e+02 0.0 
0.0 0.0 -1.527995690586e+02 
-1.624701979116e+01 -1.265781623118e+00 0.0 
-1.265781623118e+00 -1.716786947106e+01 0.0 
0.0 0.0 -1.001366840288e+01 
-5.380335678869e+01 1.114650080857e+00 0.0 
1.114650080857e+00 -9.582454900662e+01 0.0 
0.0 0.0 -4.448837173859e+01 
-1.533020736538e+02 8.392122244563e+00 0.0 
8.392122244563e+00 -3.661102568678e+02 0.0 
0.0 0.0 -1.554236991565e+02 
-9.345155216145e+01 5.143898539551e-01 0.0 
5.143898539551e-01 -2.064814974603e+02 0.0 
0.0 0.0 -8.957991488653e+01 
-1.076315712421e+01 -9.457510934885e-01 0.0 
-9.457510934885e-01 -1.708599262124e+01 0.0 
0.0 0.0 -8.355613723140e+00 
-6.284172232239e+01 -1.238359035388e-01 0.0 
-1.238359035388e-01 -1.688805803638e+02 0.0 
0.0 0.0 -6.911669080587e+01 
-1.138699991416e+02 2.300018597102e+00 0.0 
2.300018597102e+00 -2.638986615666e+02 0.0 
0.0 0.0 -1.129305982125e+02 
-2.450908501107e+01 1.648923319752e+01 0.0 
1.648923319752e+01 -3.067155145150e+01 0.0 
0.0 0.0 -1.615419093877e+01 
-2.292528411398e+01 1.502174468589e+01 0.0 
1.502174468589e+01 -2.706901622904e+01 0.0 
0.0 0.0 -1.459829010291e+01 
-3.153078405756e+01 1.073381756483e+01 0.0 
1.073381756483e+01 -3.661889842002e+01 0.0 
0.0 0.0 -2.004490474327e+01 
-4.695665018125e+01 5.282424782235e+00 0.0 
5.282424782235e+00 -7.100963301607e+01 0.0 
0.0 0.0 -3.498988495920e+01 
-1.839057232193e+01 9.027592259693e+00 0.0 
9.027592259693e+00 -1.769200219171e+01 0.0 
0.0 0.0 -1.047404038778e+01 
-6.389189659715e+01 1.522156940176e-01 0.0 
1.522156940176e-01 -1.298063348318e+02 0.0 
0.0 0.0 -5.770946942868e+01 
-1.593336703217e+02 2.123685735881e+00 0.0 
2.123685735881e+00 -3.770918325972e+02 0.0 
0.0 0.0 -1.605276508757e+02 
-6.441634176761e+00 -2.499469462672e-01 0.0 
-2.499469462672e-01 -1.637969128350e+01 0.0 
0.0 0.0 -6.802263379554e+00 
-1.075197242751e+02 5.616712693924e-01 0.0 
5.616712693924e-01 -2.455047630131e+02 0.0 
0.0 0.0 -1.055073461865e+02 
-5.876861119641e+01 3.983737983331e+00 0.0 
3.983737983331e+00 -9.934612658600e+01 0.0 
0.0 0.0 -4.703442133472e+01 
-6.338792506301e+01 5.606420001189e+00 0.0 
5.606420001189e+00 -1.089865479291e+02 0.0 
0.0 0.0 -5.131234189763e+01 
-6.647635344637e+01 4.962645106664e+00 0.0 
4.962645106664e+00 -1.175239298781e+02 0.0 
0.0 0.0 -5.480008499735e+01 
-7.173901579926e+01 7.072715706658e+00 0.0 
7.072715706658e+00 -1.291890400998e+02 0.0 
0.0 0.0 -5.987841676972e+01 
-7.521515213706e+01 6.597788429763e+00 0.0 
6.597788429763e+00 -1.385151606692e+02 0.0 
0.0 0.0 -6.371909384189e+01 
-7.971784893977e+01 8.389725600798e+00 0.0 
8.389725600798e+00 -1.492928225129e+02 0.0 
0.0 0.0 -6.830320143581e+01 
-7.645286646036e+01 9.010195103118e+00 0.0 
9.010195103118e+00 -1.403480905612e+02 0.0 
0.0 0.0 -6.464028710646e+01 
-8.418510792137e+01 1.025768400329e+01 0.0 
1.025768400329e+01 -1.606804042873e+02 0.0 
0.0 0.0 -7.305965366261e+01 
-8.081598566686e+01 1.098988326571e+01 0.0 
1.098988326571e+01 -1.520419595902e+02 0.0 
0.0 0.0 -6.945738357711e+01 
-8.323200133205e+01 7.964093225778e+00 0.0 
7.964093225778e+00 -1.588186223515e+02 0.0 
0.0 0.0 -7.221518710507e+01 
-8.837496382538e+01 1.210798796126e+01 0.0 
1.210798796126e+01 -1.725626969868e+02 0.0 
0.0 0.0 -7.788129824364e+01 
-8.494637576850e+01 1.290970724736e+01 0.0 
1.290970724736e+01 -1.643407830523e+02 0.0 
0.0 0.0 -7.438614764624e+01 
-9.234904123782e+01 1.385361312052e+01 0.0 
1.385361312052e+01 -1.849211799278e+02 0.0 
0.0 0.0 -8.278106634968e+01 
-8.885045650192e+01 1.467654833028e+01 0.0 
1.467654833028e+01 -1.771772092482e+02 0.0 
0.0 0.0 -7.940829972503e+01 
-8.137976291939e+01 1.390131127997e+01 0.0 
1.390131127997e+01 -1.566775865328e+02 0.0 
0.0 0.0 -7.101720483567e+01 
-8.515480706791e+01 1.561118128335e+01 0.0 
1.561118128335e+01 -1.700094350329e+02 0.0 
0.0 0.0 -7.614927263023e+01 
-7.761158341787e+01 1.504572842292e+01 0.0 
1.504572842292e+01 -1.495299433112e+02 0.0 
0.0 0.0 -6.774245801872e+01 
-8.124737837546e+01 1.663539961576e+01 0.0 
1.663539961576e+01 -1.634342299057e+02 0.0 
0.0 0.0 -7.300448248435e+01 
-8.876555463714e+01 1.699948726935e+01 0.0 
1.699948726935e+01 -1.836833400547e+02 0.0 
0.0 0.0 -8.133466840755e+01 
-8.474296982564e+01 1.782069097800e+01 0.0 
1.782069097800e+01 -1.775712658526e+02 0.0 
0.0 0.0 -7.829427070346e+01 
-7.706599398682e+01 1.765968463560e+01 0.0 
1.765968463560e+01 -1.574799185779e+02 0.0 
0.0 0.0 -6.996377376942e+01 
-8.045969016827e+01 1.855109653026e+01 0.0 
1.855109653026e+01 -1.719972772356e+02 0.0 
0.0 0.0 -7.533709022117e+01 
-7.268220859507e+01 1.855594044997e+01 0.0 
1.855594044997e+01 -1.522178993280e+02 0.0 
0.0 0.0 -6.707003237691e+01 
-7.602891998668e+01 1.907850508130e+01 0.0 
1.907850508130e+01 -1.670165179772e+02 0.0 
0.0 0.0 -7.251363138916e+01 
-6.815098527799e+01 1.918980562198e+01 0.0 
1.918980562198e+01 -1.475752384135e+02 0.0 
0.0 0.0 -6.431786710746e+01 
-7.149880202604e+01 1.931826032788e+01 0.0 
1.931826032788e+01 -1.625056316184e+02 0.0 
0.0 0.0 -6.980133009332e+01 
-7.942658780384e+01 1.922209986593e+01 0.0 
1.922209986593e+01 -1.815604181498e+02 0.0 
0.0 0.0 -7.789610178608e+01 
-7.490502217372e+01 1.912390764544e+01 0.0 
1.912390764544e+01 -1.770110262875e+02 0.0 
0.0 0.0 -7.517481453836e+01 
-6.695309387646e+01 1.920644307750e+01 0.0 
1.920644307750e+01 -1.583470408211e+02 0.0 
0.0 0.0 -6.719004040925e+01 
-7.041435467787e+01 1.869337114129e+01 0.0 
1.869337114129e+01 -1.726834660012e+02 0.0 
0.0 0.0 -7.252934620373e+01 
-6.251399597923e+01 1.869042936389e+01 0.0 
1.869042936389e+01 -1.544050887325e+02 0.0 
0.0 0.0 -6.467572541353e+01 
-6.604337690339e+01 1.790139000782e+01 0.0 
1.790139000782e+01 -1.684225139419e+02 0.0 
0.0 0.0 -6.993976725359e+01 
-7.400672570658e+01 1.801220325949e+01 0.0 
1.801220325949e+01 -1.865196601360e+02 0.0 
0.0 0.0 -7.775791575276e+01 
-6.970878187374e+01 1.701323288674e+01 0.0 
1.701323288674e+01 -1.819137821306e+02 0.0 
0.0 0.0 -7.508676920131e+01 
-6.184457313469e+01 1.676380472056e+01 0.0 
1.676380472056e+01 -1.640432065795e+02 0.0 
0.0 0.0 -6.736633391424e+01 
-6.558539256993e+01 1.572411435773e+01 0.0 
1.572411435773e+01 -1.771522470837e+02 0.0 
0.0 0.0 -7.242129189610e+01 
-5.788258134699e+01 1.532485768738e+01 0.0 
1.532485768738e+01 -1.594474642948e+02 0.0 
0.0 0.0 -6.479901369255e+01 
-6.170434170918e+01 1.418292564484e+01 0.0 
1.418292564484e+01 -1.721643210901e+02 0.0 
0.0 0.0 -6.976059883979e+01 
-5.421894942363e+01 1.363461248243e+01 0.0 
1.363461248243e+01 -1.545489429496e+02 0.0 
0.0 0.0 -6.223036771198e+01 
-5.806296573712e+01 1.243448632557e+01 0.0 
1.243448632557e+01 -1.667732260622e+02 0.0 
0.0 0.0 -6.705085753981e+01 
-6.566242670841e+01 1.308144386300e+01 0.0 
1.308144386300e+01 -1.843599903252e+02 0.0 
0.0 0.0 -7.460672511009e+01 
-6.205002295526e+01 1.133058455848e+01 0.0 
1.133058455848e+01 -1.785384609884e+02 0.0 
0.0 0.0 -7.177654518309e+01 
-5.469436289258e+01 1.056477271686e+01 0.0 
1.056477271686e+01 -1.609498790251e+02 0.0 
0.0 0.0 -6.429327257530e+01 
-5.865728358605e+01 9.485040393432e+00 0.0 
9.485040393432e+00 -1.722133944978e+02 0.0 
0.0 0.0 -6.886120342516e+01 
-6.616758913681e+01 1.032594488676e+01 0.0 
1.032594488676e+01 -1.899102707490e+02 0.0 
0.0 0.0 -7.642335796573e+01 
-6.273468217665e+01 8.536010921531e+00 0.0 
8.536010921531e+00 -1.831054303936e+02 0.0 
0.0 0.0 -7.335203377107e+01 
-7.040368437075e+01 9.437580047481e+00 0.0 
9.437580047481e+00 -2.009226110297e+02 0.0 
0.0 0.0 -8.099788862014e+01 
-6.692391899948e+01 7.714957490864e+00 0.0 
7.714957490864e+00 -1.936906425651e+02 0.0 
0.0 0.0 -7.778436846936e+01 
-5.953267420126e+01 6.757959471606e+00 0.0 
6.757959471606e+00 -1.759024265604e+02 0.0 
0.0 0.0 -7.023053022851e+01 
-6.364201425231e+01 6.026366266841e+00 0.0 
6.026366266841e+00 -1.860613547102e+02 0.0 
0.0 0.0 -7.451101068875e+01 
-7.120472649678e+01 7.013932732922e+00 0.0 
7.013932732922e+00 -2.039849921891e+02 0.0 
0.0 0.0 -8.215691560575e+01 
-6.782197621063e+01 5.419523126208e+00 0.0 
5.419523126208e+00 -1.959457112637e+02 0.0 
0.0 0.0 -7.873030624231e+01 
-6.052471923322e+01 4.417105412554e+00 0.0 
4.417105412554e+00 -1.780137660499e+02 0.0 
0.0 0.0 -7.116154558493e+01 
-6.460707279969e+01 3.919203618067e+00 0.0 
3.919203618067e+00 -1.875701148706e+02 0.0 
0.0 0.0 -7.525315630109e+01 
-7.209019553005e+01 4.927515417777e+00 0.0 
4.927515417777e+00 -2.056625338159e+02 0.0 
0.0 0.0 -8.292581880378e+01 
-6.875894977864e+01 3.531621443494e+00 0.0 
3.531621443494e+00 -1.969644097718e+02 0.0 
0.0 0.0 -7.931700786513e+01 
-6.150337796721e+01 2.543517553820e+00 0.0 
2.543517553820e+00 -1.788184612160e+02 0.0 
0.0 0.0 -7.169655175497e+01 
-6.552779825312e+01 2.269425120425e+00 0.0 
2.269425120425e+00 -1.879521846683e+02 0.0 
0.0 0.0 -7.564399487643e+01 
-7.301298060644e+01 3.244789736480e+00 0.0 
3.244789736480e+00 -2.063307610564e+02 0.0 
0.0 0.0 -8.340312249886e+01 
-6.961255938895e+01 2.083635045978e+00 0.0 
2.083635045978e+00 -1.969980794202e+02 0.0 
0.0 0.0 -7.958319164274e+01 
-6.233788773316e+01 1.156150588964e+00 0.0 
1.156150588964e+00 -1.785606137608e+02 0.0 
0.0 0.0 -7.186955044818e+01 
-6.626404126784e+01 1.065142927000e+00 0.0 
1.065142927000e+00 -1.873653647630e+02 0.0 
0.0 0.0 -7.568882180927e+01 
-7.377764805932e+01 1.964778878237e+00 0.0 
1.964778878237e+00 -2.060483411620e+02 0.0 
0.0 0.0 -8.354779676641e+01 
-7.024839192146e+01 1.033794499481e+00 0.0 
1.033794499481e+00 -1.961492834630e+02 0.0 
0.0 0.0 -7.951930261534e+01 
-7.798555669818e+01 1.895345403915e+00 0.0 
1.895345403915e+00 -2.150309243656e+02 0.0 
0.0 0.0 -8.750494431914e+01 
-6.287276649318e+01 2.024172820472e-01 0.0 
2.024172820472e-01 -1.772956065883e+02 0.0 
0.0 0.0 -7.165051192443e+01 
-6.670621496685e+01 2.593583614091e-01 0.0 
2.593583614091e-01 -1.859455038786e+02 0.0 
0.0 0.0 -7.539551565364e+01 
-5.943823642998e+01 -4.905124374411e-01 0.0 
-4.905124374411e-01 -1.668787932552e+02 0.0 
0.0 0.0 -6.749510890554e+01 
-6.315486573670e+01 -3.513052637421e-01 0.0 
-3.513052637421e-01 -1.755056695759e+02 0.0 
0.0 0.0 -7.119816059378e+01 
-7.775964280104e+01 1.724208353414e+01 0.0 
1.724208353414e+01 -1.998865990370e+02 0.0 
0.0 0.0 -8.289387255140e+01 
-5.597661274599e+01 -9.984789011006e-01 0.0 
-9.984789011006e-01 -1.562633867175e+02 0.0 
0.0 0.0 -6.327199983903e+01 
-5.253814267515e+01 -1.163945819113e+00 0.0 
-1.163945819113e+00 -1.479219264314e+02 0.0 
0.0 0.0 -5.973802073198e+01 
-5.957210501009e+01 -7.955426521656e-01 0.0 
-7.955426521656e-01 -1.648866655013e+02 0.0 
0.0 0.0 -6.693763115342e+01 
-6.696313605976e+01 -1.943461512004e-01 0.0 
-1.943461512004e-01 -1.842601042907e+02 0.0 
0.0 0.0 -7.496697210514e+01 
-5.244172373129e+01 -1.334417535395e+00 0.0 
-1.334417535395e+00 -1.454736986317e+02 0.0 
0.0 0.0 -5.897462670890e+01 
-5.593513095171e+01 -1.093592071217e+00 0.0 
-1.093592071217e+00 -1.541106871369e+02 0.0 
0.0 0.0 -6.261374542660e+01 
-4.883544625400e+01 -1.529237402986e+00 0.0 
-1.529237402986e+00 -1.345704925759e+02 0.0 
0.0 0.0 -5.462178164897e+01 
-5.037120017395e+01 1.485260761827e+01 0.0 
1.485260761827e+01 -1.414885228770e+02 0.0 
0.0 0.0 -5.715791691529e+01 
-9.231193467430e+01 1.806851533284e+01 0.0 
1.806851533284e+01 -1.975609067372e+02 0.0 
0.0 0.0 -8.656185242344e+01 
-5.223061549616e+01 -1.263284607415e+00 0.0 
-1.263284607415e+00 -1.432209330704e+02 0.0 
0.0 0.0 -5.823546456996e+01 
-4.512648174367e+01 -1.568780157741e+00 0.0 
-1.568780157741e+00 -1.235658095584e+02 0.0 
0.0 0.0 -5.020768739063e+01 
-4.192079879570e+01 -1.848010115295e+00 0.0 
-1.848010115295e+00 -1.149435945365e+02 0.0 
0.0 0.0 -4.665931799967e+01 
-3.822301399104e+01 -1.782361033399e+00 0.0 
-1.782361033399e+00 -1.038716700936e+02 0.0 
0.0 0.0 -4.222840522538e+01 
-7.881390834723e+01 6.411918791278e+00 0.0 
6.411918791278e+00 -1.483374274379e+02 0.0 
0.0 0.0 -6.774540073554e+01 
-8.636374230524e+01 7.572229015751e+00 0.0 
7.572229015751e+00 -1.684819701034e+02 0.0 
0.0 0.0 -7.605371372258e+01 
-8.171363154999e+01 6.050809353100e+00 0.0 
6.050809353100e+00 -1.575515035351e+02 0.0 
0.0 0.0 -7.137954052554e+01 
-8.942009300309e+01 7.318385221401e+00 0.0 
7.318385221401e+00 -1.782316236501e+02 0.0 
0.0 0.0 -7.989551499596e+01 
-8.505276514384e+01 5.902555977245e+00 0.0 
5.902555977245e+00 -1.679127382639e+02 0.0 
0.0 0.0 -7.548965102232e+01 
-4.134310519062e+01 -1.474414621059e+00 0.0 
-1.474414621059e+00 -1.124589521953e+02 0.0 
0.0 0.0 -4.574061721579e+01 
-9.572279512291e+01 1.316497756466e+01 0.0 
1.316497756466e+01 -1.933009751419e+02 0.0 
0.0 0.0 -8.630713107944e+01 
-9.371556394442e+01 8.834964757241e+00 0.0 
8.834964757241e+00 -1.888853085369e+02 0.0 
0.0 0.0 -8.438026174439e+01 
-6.929893139890e+01 1.753127963435e+01 0.0 
1.753127963435e+01 -1.372706838015e+02 0.0 
0.0 0.0 -6.157088456013e+01 
-5.908372294141e+01 1.928575958699e+01 0.0 
1.928575958699e+01 -1.397924282600e+02 0.0 
0.0 0.0 -5.926284536041e+01 
-7.408407677217e+01 1.114667715796e+01 0.0 
1.114667715796e+01 -2.077525077877e+02 0.0 
0.0 0.0 -8.415097536795e+01 
-5.949443673107e+01 -8.418138913138e-01 0.0 
-8.418138913138e-01 -1.627764877513e+02 0.0 
0.0 0.0 -6.628127734472e+01 
-5.570121880725e+01 -1.001313671605e+00 0.0 
-1.001313671605e+00 -1.519141264911e+02 0.0 
0.0 0.0 -6.188460358950e+01 
-6.306159435249e+01 -5.872431042486e-01 0.0 
-5.872431042486e-01 -1.714890730232e+02 0.0 
0.0 0.0 -6.996520021270e+01 
-8.169475547148e+01 2.891562677268e+00 0.0 
2.891562677268e+00 -2.248278974978e+02 0.0 
0.0 0.0 -9.155679589078e+01 
-8.608237873677e+01 2.773183452239e+00 0.0 
2.773183452239e+00 -2.339157638572e+02 0.0 
0.0 0.0 -9.559944277819e+01 
-8.998805774520e+01 3.823051602645e+00 0.0 
3.823051602645e+00 -2.436245448502e+02 0.0 
0.0 0.0 -9.968378077863e+01 
-9.453419195456e+01 3.651355896367e+00 0.0 
3.651355896367e+00 -2.527746420769e+02 0.0 
0.0 0.0 -1.037926502094e+02 
-9.864898050527e+01 4.747193802956e+00 0.0 
4.747193802956e+00 -2.624093675144e+02 0.0 
0.0 0.0 -1.079175044059e+02 
-1.033370886308e+02 4.514244337765e+00 0.0 
4.514244337765e+00 -2.716008136601e+02 0.0 
0.0 0.0 -1.120813706873e+02 
-9.908358308691e+01 3.489701053309e+00 0.0 
3.489701053309e+00 -2.618072569189e+02 0.0 
0.0 0.0 -1.078672520017e+02 
-1.080231019548e+02 4.286026865431e+00 0.0 
4.286026865431e+00 -2.806667308429e+02 0.0 
0.0 0.0 -1.162069498393e+02 
-1.036310514096e+02 3.323783895398e+00 0.0 
3.323783895398e+00 -2.707386169983e+02 0.0 
0.0 0.0 -1.119109005224e+02 
-1.076658320990e+02 5.648420360112e+00 0.0 
5.648420360112e+00 -2.811650068455e+02 0.0 
0.0 0.0 -1.162492516834e+02 
-1.028194297784e+02 5.951092934355e+00 0.0 
5.951092934355e+00 -2.717581741313e+02 0.0 
0.0 0.0 -1.119732811729e+02 
-1.127009656237e+02 4.046146685661e+00 0.0 
4.046146685661e+00 -2.896142266980e+02 0.0 
0.0 0.0 -1.202945576965e+02 
-1.081698388345e+02 3.135847771264e+00 0.0 
3.135847771264e+00 -2.795710582474e+02 0.0 
0.0 0.0 -1.159222691246e+02 
-1.173706131837e+02 3.777504116874e+00 0.0 
3.777504116874e+00 -2.984557525913e+02 0.0 
0.0 0.0 -1.243479097325e+02 
-1.126972588754e+02 2.917282961402e+00 0.0 
2.917282961402e+00 -2.883141206231e+02 0.0 
0.0 0.0 -1.199034138495e+02 
-1.036726452435e+02 2.334726428279e+00 0.0 
2.334726428279e+00 -2.693219283629e+02 0.0 
0.0 0.0 -1.114983720819e+02 
-1.080478604260e+02 2.161650221181e+00 0.0 
2.161650221181e+00 -2.779753940503e+02 0.0 
0.0 0.0 -1.154069763429e+02 
-9.923066475539e+01 1.658440943515e+00 0.0 
1.658440943515e+00 -2.589724865798e+02 0.0 
0.0 0.0 -1.070609454005e+02 
-7.846284039468e+01 1.032447986379e+01 0.0 
1.032447986379e+01 -2.188691462985e+02 0.0 
0.0 0.0 -8.879959600795e+01 
-8.235756808396e+01 1.195460536980e+01 0.0 
1.195460536980e+01 -2.257511300167e+02 0.0 
0.0 0.0 -9.203260943018e+01 
-8.687662340555e+01 1.120029337315e+01 0.0 
1.120029337315e+01 -2.369474587826e+02 0.0 
0.0 0.0 -9.674722465645e+01 
-9.095676040461e+01 1.276369981300e+01 0.0 
1.276369981300e+01 -2.438948622333e+02 0.0 
0.0 0.0 -1.000554867914e+02 
-9.563076222778e+01 1.208566862076e+01 0.0 
1.208566862076e+01 -2.551523610675e+02 0.0 
0.0 0.0 -1.048349369886e+02 
-9.985562211348e+01 1.359667454313e+01 0.0 
1.359667454313e+01 -2.621540304792e+02 0.0 
0.0 0.0 -1.082028957778e+02 
-1.046923415531e+02 1.299467722788e+01 0.0 
1.299467722788e+01 -2.734241345865e+02 0.0 
0.0 0.0 -1.130349428419e+02 
-1.004321084800e+02 1.147303401864e+01 0.0 
1.147303401864e+01 -2.660903287144e+02 0.0 
0.0 0.0 -1.095567311583e+02 
-9.611531474549e+01 1.545669538124e+01 0.0 
1.545669538124e+01 -1.976659197938e+02 0.0 
0.0 0.0 -8.773437036180e+01 
-5.158190477739e+01 8.614567687200e+00 0.0 
8.614567687200e+00 -1.546389041158e+02 0.0 
0.0 0.0 -6.146624266796e+01 
-4.778797710943e+01 9.760973486969e+00 0.0 
9.760973486969e+00 -1.434714161604e+02 0.0 
0.0 0.0 -5.697781798096e+01 
-4.500195099266e+01 7.713366754721e+00 0.0 
7.713366754721e+00 -1.371843630036e+02 0.0 
0.0 0.0 -5.425589419887e+01 
-4.142820772040e+01 8.916642980460e+00 0.0 
8.916642980460e+00 -1.261344269158e+02 0.0 
0.0 0.0 -4.986879039085e+01 
-3.898564192338e+01 6.796871468527e+00 0.0 
6.796871468527e+00 -1.198265655013e+02 0.0 
0.0 0.0 -4.724366222739e+01 
-3.570705557564e+01 8.062961201074e+00 0.0 
8.062961201074e+00 -1.089135077392e+02 0.0 
0.0 0.0 -4.298616899445e+01 
-3.359988085472e+01 5.907144051779e+00 0.0 
5.907144051779e+00 -1.024948477402e+02 0.0 
0.0 0.0 -4.042841857848e+01 
-3.676085909221e+01 4.742403601594e+00 0.0 
4.742403601594e+00 -1.128626167714e+02 0.0 
0.0 0.0 -4.448704275908e+01 
-3.169600582909e+01 3.858391739949e+00 0.0 
3.858391739949e+00 -9.536050896856e+01 0.0 
0.0 0.0 -3.771695443929e+01 
-3.470771416626e+01 2.827109390349e+00 0.0 
2.827109390349e+00 -1.052113109949e+02 0.0 
0.0 0.0 -4.157570754836e+01 
-2.990769000241e+01 1.984424445478e+00 0.0 
1.984424445478e+00 -8.748604111084e+01 0.0 
0.0 0.0 -3.481811933398e+01 
-3.272953943749e+01 1.121035669738e+00 0.0 
1.121035669738e+00 -9.682278465618e+01 0.0 
0.0 0.0 -3.846569722810e+01 
-8.291678056107e+01 1.909902853348e+01 0.0 
1.909902853348e+01 -1.957783614520e+02 0.0 
0.0 0.0 -8.320854260391e+01 
-9.515889246435e+01 1.425561712180e+01 0.0 
1.425561712180e+01 -2.505208061160e+02 0.0 
0.0 0.0 -1.033039095741e+02 
-1.041933401137e+02 1.503750826253e+01 0.0 
1.503750826253e+01 -2.688902311315e+02 0.0 
0.0 0.0 -1.115250713735e+02 
-9.943417083549e+01 1.564062190112e+01 0.0 
1.564062190112e+01 -2.568082222253e+02 0.0 
0.0 0.0 -1.064727179183e+02 
-3.516177693799e+01 -2.024786032345e+00 0.0 
-2.024786032345e+00 -9.528176885640e+01 0.0 
0.0 0.0 -3.873306373832e+01 
-1.172108748856e+02 2.656209972672e+00 0.0 
2.656209972672e+00 -2.969870568473e+02 0.0 
0.0 0.0 -1.238593795199e+02 
-1.120693941864e+02 6.888414472520e+00 0.0 
6.888414472520e+00 -2.904700984462e+02 0.0 
0.0 0.0 -1.203618477898e+02 
-1.070544401855e+02 7.243820148346e+00 0.0 
7.243820148346e+00 -2.807843789336e+02 0.0 
0.0 0.0 -1.159516457357e+02 
-1.096836853196e+02 1.243370688787e+01 0.0 
1.243370688787e+01 -2.844181927783e+02 0.0 
0.0 0.0 -1.178305634294e+02 
-3.445705317848e+01 -1.603723854154e+00 0.0 
-1.603723854154e+00 -9.288912393187e+01 0.0 
0.0 0.0 -3.780385313310e+01 
-3.072941426177e+01 7.274861985266e+00 0.0 
7.274861985266e+00 -9.180949176288e+01 0.0 
0.0 0.0 -3.636167180739e+01 
-3.264729479671e+01 9.476461515869e+00 0.0 
9.476461515869e+00 -9.743578155400e+01 0.0 
0.0 0.0 -3.862492290521e+01 
-9.245114448047e+01 7.100240336568e+00 0.0 
7.100240336568e+00 -1.881789059473e+02 0.0 
0.0 0.0 -8.378901512835e+01 
-8.820026003198e+01 5.771620738406e+00 0.0 
5.771620738406e+00 -1.780302352938e+02 0.0 
0.0 0.0 -7.946914859773e+01 
-1.165772317125e+02 8.208478303696e+00 0.0 
8.208478303696e+00 -2.995282632864e+02 0.0 
0.0 0.0 -1.244316484997e+02 
-3.754279190150e+01 -1.331501930691e+00 0.0 
-1.331501930691e+00 -1.014565488404e+02 0.0 
0.0 0.0 -4.129980222258e+01 
-1.172961236000e+02 5.058758909967e+00 0.0 
5.058758909967e+00 -2.994672832974e+02 0.0 
0.0 0.0 -1.246290220692e+02 
-2.734655229468e+01 3.065248758364e+00 0.0 
3.065248758364e+00 -7.791820131495e+01 0.0 
0.0 0.0 -3.117942608289e+01 
-1.124183222682e+02 1.940179911940e+00 0.0 
1.940179911940e+00 -2.865774695178e+02 0.0 
0.0 0.0 -1.192987375358e+02 
-1.216836882551e+02 2.347464443346e+00 0.0 
2.347464443346e+00 -3.055819564344e+02 0.0 
0.0 0.0 -1.277796934069e+02 
-9.490121907874e+01 2.583511710265e+00 0.0 
2.583511710265e+00 -2.518270922602e+02 0.0 
0.0 0.0 -1.036184934017e+02 
-1.085989002138e+02 1.639590969928e+01 0.0 
1.639590969928e+01 -2.753911968603e+02 0.0 
0.0 0.0 -1.147970291222e+02 
-1.037674565092e+02 1.688724995523e+01 0.0 
1.688724995523e+01 -2.628546815820e+02 0.0 
0.0 0.0 -1.095866414274e+02 
-3.794719202328e+01 2.032504152440e+00 0.0 
2.032504152440e+00 -1.148726804777e+02 0.0 
0.0 0.0 -4.544596175029e+01 
-3.574767024030e+01 5.612495347938e-01 0.0 
5.612495347938e-01 -1.061029048428e+02 0.0 
0.0 0.0 -4.215517252492e+01 
-3.082154762202e+01 -2.298190444006e-01 0.0 
-2.298190444006e-01 -8.815862801883e+01 0.0 
0.0 0.0 -3.529405269225e+01 
-3.394476063818e+01 -6.732543593231e-01 0.0 
-6.732543593231e-01 -9.754406811932e+01 0.0 
0.0 0.0 -3.904664862725e+01 
-3.898077917558e+01 8.325314235397e-02 0.0 
8.325314235397e-02 -1.154587699930e+02 0.0 
0.0 0.0 -4.593186475056e+01 
-3.661107529901e+01 -1.064903807866e+00 0.0 
-1.064903807866e+00 -1.057934634260e+02 0.0 
0.0 0.0 -4.232136161749e+01 
-3.148751204393e+01 -1.745972054814e+00 0.0 
-1.745972054814e+00 -8.742026770592e+01 0.0 
0.0 0.0 -3.527233392495e+01 
-3.412409109109e+01 -1.853051918981e+00 0.0 
-1.853051918981e+00 -9.572348055651e+01 0.0 
0.0 0.0 -3.855427149428e+01 
-3.964667054096e+01 -1.235312677546e+00 0.0 
-1.235312677546e+00 -1.144679863846e+02 0.0 
0.0 0.0 -4.583439707766e+01 
-3.693521048216e+01 -1.926258101592e+00 0.0 
-1.926258101592e+00 -1.041963331581e+02 0.0 
0.0 0.0 -4.193946309209e+01 
-3.148098968728e+01 -2.350558021784e+00 0.0 
-2.350558021784e+00 -8.513176073712e+01 0.0 
0.0 0.0 -3.458382512732e+01 
-3.401830509885e+01 -2.322753636258e+00 0.0 
-2.322753636258e+00 -9.350869517909e+01 0.0 
0.0 0.0 -3.785810008338e+01 
-1.266290016619e+02 3.111918658910e+00 0.0 
3.111918658910e+00 -3.158635491946e+02 0.0 
0.0 0.0 -1.323477652570e+02 
-2.586352483331e+01 1.273856209103e+00 0.0 
1.273856209103e+00 -6.977396600364e+01 0.0 
0.0 0.0 -2.829124725109e+01 
-7.370305774453e+01 1.308958976707e+01 0.0 
1.308958976707e+01 -1.360503547967e+02 0.0 
0.0 0.0 -6.252602376236e+01 
-1.216690995350e+02 7.791456915510e+00 0.0 
7.791456915510e+00 -3.091244332513e+02 0.0 
0.0 0.0 -1.288380598359e+02 
-1.140004100134e+02 1.393246463004e+01 0.0 
1.393246463004e+01 -2.915688471851e+02 0.0 
0.0 0.0 -1.212707771595e+02 
-9.546330099638e+01 6.889152602308e+00 0.0 
6.889152602308e+00 -1.983076528704e+02 0.0 
0.0 0.0 -8.773128616003e+01 
-9.133501018064e+01 5.637531238646e+00 0.0 
5.637531238646e+00 -1.883447931379e+02 0.0 
0.0 0.0 -8.350394099557e+01 
-8.382197414497e+01 4.539697656404e+00 0.0 
4.539697656404e+00 -1.681133722321e+02 0.0 
0.0 0.0 -7.518060391312e+01 
-8.713274574011e+01 4.493511247903e+00 0.0 
4.493511247903e+00 -1.786664960264e+02 0.0 
0.0 0.0 -7.933977252996e+01 
-9.445935509109e+01 5.498531111074e+00 0.0 
5.498531111074e+00 -1.988723080688e+02 0.0 
0.0 0.0 -8.759949894798e+01 
-9.042285826019e+01 4.416756548473e+00 0.0 
4.416756548473e+00 -1.892809537783e+02 0.0 
0.0 0.0 -8.351114361155e+01 
-8.289406946966e+01 3.510022894600e+00 0.0 
3.510022894600e+00 -1.691689682267e+02 0.0 
0.0 0.0 -7.521891130890e+01 
-8.636551081440e+01 3.474946687562e+00 0.0 
3.474946687562e+00 -1.798248638186e+02 0.0 
0.0 0.0 -7.945711238989e+01 
-7.868535264556e+01 2.669744653459e+00 0.0 
2.669744653459e+00 -1.597914496558e+02 0.0 
0.0 0.0 -7.114304069040e+01 
-8.230359707877e+01 2.667040302909e+00 0.0 
2.667040302909e+00 -1.705143066613e+02 0.0 
0.0 0.0 -7.544537112202e+01 
-8.983572273617e+01 3.396313668160e+00 0.0 
3.396313668160e+00 -1.905470722430e+02 0.0 
0.0 0.0 -8.371483849375e+01 
-8.592095497162e+01 2.638321237924e+00 0.0 
2.638321237924e+00 -1.813256511934e+02 0.0 
0.0 0.0 -7.977398184950e+01 
-7.823910393321e+01 1.984810043973e+00 0.0 
1.984810043973e+00 -1.613740081308e+02 0.0 
0.0 0.0 -7.148393361920e+01 
-8.200144087854e+01 1.997182728650e+00 0.0 
1.997182728650e+00 -1.721878363332e+02 0.0 
0.0 0.0 -7.585678316353e+01 
-7.419441492720e+01 1.445583832975e+00 0.0 
1.445583832975e+00 -1.522794910631e+02 0.0 
0.0 0.0 -6.754217179709e+01 
-7.811003765790e+01 1.482264435323e+00 0.0 
1.482264435323e+00 -1.630291691311e+02 0.0 
0.0 0.0 -7.194176203671e+01 
-8.577878383767e+01 1.906163021736e+00 0.0 
1.906163021736e+00 -1.830620305590e+02 0.0 
0.0 0.0 -8.025224431901e+01 
-3.091497315893e+01 -1.375156641397e+00 0.0 
-1.375156641397e+00 -8.240098788888e+01 0.0 
0.0 0.0 -3.359478831434e+01 
-1.053566394028e+02 1.091710563882e+01 0.0 
1.091710563882e+01 -2.767633370886e+02 0.0 
0.0 0.0 -1.142359929474e+02 
-1.148558774206e+02 1.190354571953e+01 0.0 
1.190354571953e+01 -2.952570547375e+02 0.0 
0.0 0.0 -1.226338796474e+02 
-5.931840001296e+01 -6.387520199868e-01 0.0 
-6.387520199868e-01 -1.611699878216e+02 0.0 
0.0 0.0 -6.574651635035e+01 
-6.654820693572e+01 -3.226208627707e-01 0.0 
-3.226208627707e-01 -1.799434566150e+02 0.0 
0.0 0.0 -7.354749906522e+01 
-7.063277677490e+01 -2.388373532915e-01 0.0 
-2.388373532915e-01 -1.909337765670e+02 0.0 
0.0 0.0 -7.806996600258e+01 
-7.448366320730e+01 -6.624400644017e-02 0.0 
-6.624400644017e-02 -1.997471921742e+02 0.0 
0.0 0.0 -8.186925661445e+01 
-8.196911655617e+01 1.397285077782e+00 0.0 
1.397285077782e+00 -1.738030210089e+02 0.0 
0.0 0.0 -7.633164126953e+01 
-8.948351032895e+01 1.730953952293e+00 0.0 
1.730953952293e+00 -1.939655712194e+02 0.0 
0.0 0.0 -8.463472446450e+01 
-2.814292165401e+01 8.816250733737e+00 0.0 
8.816250733737e+00 -8.057082386230e+01 0.0 
0.0 0.0 -3.221412365489e+01 
-2.987734988790e+01 1.097218968781e+01 0.0 
1.097218968781e+01 -8.534125003672e+01 0.0 
0.0 0.0 -3.416557997738e+01 
-9.949355862030e+01 8.253133853534e+00 0.0 
8.253133853534e+00 -2.085571185229e+02 0.0 
0.0 0.0 -9.201520314296e+01 
-1.167698472964e+02 1.681997468706e+00 0.0 
1.681997468706e+00 -2.951710907046e+02 0.0 
0.0 0.0 -1.231822814003e+02 
-1.076925316538e+02 1.332944305613e+00 0.0 
1.332944305613e+00 -2.761156979453e+02 0.0 
0.0 0.0 -1.147424688797e+02 
-5.479007519965e+01 1.863391050616e+01 0.0 
1.863391050616e+01 -1.362625607997e+02 0.0 
0.0 0.0 -5.691579079979e+01 
-5.136160240925e+01 1.926351707827e+01 0.0 
1.926351707827e+01 -1.213195083128e+02 0.0 
0.0 0.0 -5.140433321662e+01 
-4.734249197936e+01 1.846368659200e+01 0.0 
1.846368659200e+01 -1.181669701462e+02 0.0 
0.0 0.0 -4.925283863765e+01 
-4.383424875685e+01 1.903008793111e+01 0.0 
1.903008793111e+01 -1.025939596812e+02 0.0 
0.0 0.0 -4.352846253142e+01 
-4.788697710195e+01 1.952997118837e+01 0.0 
1.952997118837e+01 -1.055583632806e+02 0.0 
0.0 0.0 -4.563360211477e+01 
-4.024783203315e+01 1.809150859543e+01 0.0 
1.809150859543e+01 -9.972220480242e+01 0.0 
0.0 0.0 -4.159101105067e+01 
-9.790049467396e+01 6.249545429264e+00 0.0 
6.249545429264e+00 -2.620096024039e+02 0.0 
0.0 0.0 -1.075730291234e+02 
-9.331789909862e+01 3.280285174575e+00 0.0 
3.280285174575e+00 -2.013912610858e+02 0.0 
0.0 0.0 -8.801274805532e+01 
-3.882509955048e+01 -2.109040878322e+00 0.0 
-2.109040878322e+00 -1.064121314208e+02 0.0 
0.0 0.0 -4.317116929138e+01 
-3.232196255272e+01 -2.238747818597e+00 0.0 
-2.238747818597e+00 -8.683416158305e+01 0.0 
0.0 0.0 -3.534683724073e+01 
-1.261034142128e+02 1.996091994192e+00 0.0 
1.996091994192e+00 -3.141595169100e+02 0.0 
0.0 0.0 -1.316788793368e+02 
-9.623961757441e+01 9.932183709493e+00 0.0 
9.932183709493e+00 -2.583932614772e+02 0.0 
0.0 0.0 -1.059898637155e+02 
-8.737214299747e+01 1.922120085137e+01 0.0 
1.922120085137e+01 -2.006717040553e+02 0.0 
0.0 0.0 -8.601315411582e+01 
-9.098977063151e+01 1.917698492644e+01 0.0 
1.917698492644e+01 -2.146833962342e+02 0.0 
0.0 0.0 -9.130195005972e+01 
-9.535655465270e+01 1.935671953007e+01 0.0 
1.935671953007e+01 -2.199230890586e+02 0.0 
0.0 0.0 -9.418389311338e+01 
-9.913647147170e+01 1.939744872525e+01 0.0 
1.939744872525e+01 -2.337640265690e+02 0.0 
0.0 0.0 -9.947014941220e+01 
-1.033560274747e+02 1.966499179688e+01 0.0 
1.966499179688e+01 -2.392793047739e+02 0.0 
0.0 0.0 -1.023905996746e+02 
-1.072934204860e+02 1.981550909666e+01 0.0 
1.981550909666e+01 -2.528856691586e+02 0.0 
0.0 0.0 -1.076537268934e+02 
-1.031086905431e+02 1.931374570820e+01 0.0 
1.931374570820e+01 -2.473652761589e+02 0.0 
0.0 0.0 -1.047421900106e+02 
-1.130113242651e+02 1.765941041652e+01 0.0 
1.765941041652e+01 -2.816585991713e+02 0.0 
0.0 0.0 -1.180009770309e+02 
-1.114748099178e+02 1.989038535641e+01 0.0 
1.989038535641e+01 -2.663234733829e+02 0.0 
0.0 0.0 -1.129394849902e+02 
-7.421890523720e+01 9.761279053433e-01 0.0 
9.761279053433e-01 -1.536111750015e+02 0.0 
0.0 0.0 -6.794902407162e+01 
-9.050647666211e+01 1.494336589204e+01 0.0 
1.494336589204e+01 -2.383365681983e+02 0.0 
0.0 0.0 -9.825291345811e+01 
-4.282716914085e+01 -1.311479291542e+00 0.0 
-1.311479291542e+00 -1.231991164891e+02 0.0 
0.0 0.0 -4.940788568898e+01 
-2.763113617031e+01 -1.532221006389e+00 0.0 
-1.532221006389e+00 -7.356615917785e+01 0.0 
0.0 0.0 -2.995918860445e+01 
-2.823222380194e+01 -2.543815194026e+00 0.0 
-2.543815194026e+00 -7.375888161710e+01 0.0 
0.0 0.0 -3.019733162571e+01 
-3.351317288691e+01 -1.158953007580e+00 0.0 
-1.158953007580e+00 -9.015124619550e+01 0.0 
0.0 0.0 -3.669932572472e+01 
-4.065971178660e+01 -1.080100613415e+00 0.0 
-1.080100613415e+00 -1.099862131022e+02 0.0 
0.0 0.0 -4.479377746663e+01 
-1.264369299105e+02 9.151437497409e+00 0.0 
9.151437497409e+00 -3.181862269775e+02 0.0 
0.0 0.0 -1.329869470664e+02 
-1.113133225546e+02 2.018839556529e+01 0.0 
2.018839556529e+01 -2.586038897828e+02 0.0 
0.0 0.0 -1.105751637012e+02 
-1.072995385338e+02 1.976501001080e+01 0.0 
1.976501001080e+01 -2.448667701349e+02 0.0 
0.0 0.0 -1.052498926006e+02 
-4.030612289358e+01 1.921106309917e+01 0.0 
1.921106309917e+01 -8.646285034866e+01 0.0 
0.0 0.0 -3.763069197267e+01 
-4.439477382465e+01 1.925263500239e+01 0.0 
1.925263500239e+01 -8.915482065286e+01 0.0 
0.0 0.0 -3.966487834325e+01 
-1.180480351818e+02 1.728559828505e+01 0.0 
1.728559828505e+01 -2.939835737613e+02 0.0 
0.0 0.0 -1.232094826829e+02 
-7.727655759403e+01 4.665594546980e+00 0.0 
4.665594546980e+00 -1.476780517093e+02 0.0 
0.0 0.0 -6.708638279099e+01 
-7.507734883447e+01 2.615746674583e+00 0.0 
2.615746674583e+00 -1.491993075910e+02 0.0 
0.0 0.0 -6.688299692765e+01 
-7.066003104015e+01 1.875236887604e+00 0.0 
1.875236887604e+00 -1.398185870287e+02 0.0 
0.0 0.0 -6.274358542064e+01 
-2.598635333953e+01 -1.063700698503e+00 0.0 
-1.063700698503e+00 -6.880312276738e+01 0.0 
0.0 0.0 -2.803684283207e+01 
-2.634480574525e+01 -2.549998932516e+00 0.0 
-2.549998932516e+00 -6.620178584622e+01 0.0 
0.0 0.0 -2.736397747744e+01 
-9.761610232245e+01 5.306755030310e+00 0.0 
5.306755030310e+00 -2.095041493470e+02 0.0 
0.0 0.0 -9.173607550083e+01 
-3.478394458450e+01 1.162869984044e+01 0.0 
1.162869984044e+01 -1.022495355437e+02 0.0 
0.0 0.0 -4.071004403847e+01 
-3.186902990222e+01 1.306092757372e+01 0.0 
1.306092757372e+01 -8.941228153842e+01 0.0 
0.0 0.0 -3.598439343219e+01 
-2.373483126814e+01 2.482882221680e+00 0.0 
2.482882221680e+00 -6.030833162110e+01 0.0 
0.0 0.0 -2.481294886677e+01 
-2.245885870354e+01 7.487277890922e-01 0.0 
7.487277890922e-01 -5.189457285586e+01 0.0 
0.0 0.0 -2.190602946782e+01 
-8.581725234035e+01 1.151500753609e+00 0.0 
1.151500753609e+00 -1.844158317663e+02 0.0 
0.0 0.0 -8.066992523199e+01 
-9.322622285934e+01 1.471429535278e+00 0.0 
1.471429535278e+00 -2.044630744329e+02 0.0 
0.0 0.0 -8.890678918766e+01 
-7.857670985297e+01 2.120927649924e-01 0.0 
2.120927649924e-01 -2.103837661936e+02 0.0 
0.0 0.0 -8.628814281396e+01 
-8.243408474543e+01 3.333146747368e-01 0.0 
3.333146747368e-01 -2.191083632080e+02 0.0 
0.0 0.0 -9.006273438602e+01 
-1.212140431799e+02 9.604157581532e+00 0.0 
9.604157581532e+00 -3.083696841718e+02 0.0 
0.0 0.0 -1.284751182055e+02 
-3.094528926190e+01 -2.501972344726e+00 0.0 
-2.501972344726e+00 -8.265179460920e+01 0.0 
0.0 0.0 -3.367912516133e+01 
-9.689926217715e+01 2.120312604463e+00 0.0 
2.120312604463e+00 -2.140999100015e+02 0.0 
0.0 0.0 -9.289975165358e+01 
-1.010976386477e+02 9.410389885658e+00 0.0 
9.410389885658e+00 -2.687808517748e+02 0.0 
0.0 0.0 -1.105635471267e+02 
-9.216768225122e+01 8.409619433799e+00 0.0 
8.409619433799e+00 -2.503660031549e+02 0.0 
0.0 0.0 -1.023601056218e+02 
-7.036252526802e+01 -2.904184314692e-01 0.0 
-2.904184314692e-01 -1.886537380046e+02 0.0 
0.0 0.0 -7.730487898179e+01 
-2.593914798379e+01 1.045837828754e+01 0.0 
1.045837828754e+01 -6.872396671318e+01 0.0 
0.0 0.0 -2.799893440909e+01 
-2.447937493112e+01 8.319534592361e+00 0.0 
8.319534592361e+00 -6.400802472758e+01 0.0 
0.0 0.0 -2.614621989761e+01 
-4.559326815491e+01 -4.756516759165e-01 0.0 
-4.756516759165e-01 -1.331961057396e+02 0.0 
0.0 0.0 -5.323681216834e+01 
-3.687518217443e+01 -2.270987258445e+00 0.0 
-2.270987258445e+00 -1.020944397394e+02 0.0 
0.0 0.0 -4.129088657413e+01 
-3.662963850761e+01 -8.458733839504e-01 0.0 
-8.458733839504e-01 -9.871171472509e+01 0.0 
0.0 0.0 -4.020240596981e+01 
-1.312379417614e+02 1.057259144338e+01 0.0 
1.057259144338e+01 -3.269057290206e+02 0.0 
0.0 0.0 -1.370431012346e+02 
-1.014246471222e+02 6.422413030174e+00 0.0 
6.422413030174e+00 -2.190836682987e+02 0.0 
0.0 0.0 -9.575249462626e+01 
-1.073633008800e+02 1.920506863164e+01 0.0 
1.920506863164e+01 -2.606995503546e+02 0.0 
0.0 0.0 -1.100188553704e+02 
-9.873623515953e+01 1.867857851103e+01 0.0 
1.867857851103e+01 -2.418170059552e+02 0.0 
0.0 0.0 -1.017659723344e+02 
-1.161483403152e+02 1.988871724113e+01 0.0 
1.988871724113e+01 -2.796911588552e+02 0.0 
0.0 0.0 -1.183518497511e+02 
-2.550378065979e+01 -2.489112392977e+00 0.0 
-2.489112392977e+00 -6.323425035749e+01 0.0 
0.0 0.0 -2.622140930518e+01 
-1.317397295135e+02 8.687091324873e+00 0.0 
8.687091324873e+00 -3.280005586529e+02 0.0 
0.0 0.0 -1.375220864499e+02 
-1.210817091483e+02 1.366965925487e+00 0.0 
1.366965925487e+00 -3.037753944282e+02 0.0 
0.0 0.0 -1.270571310729e+02 
-1.146555478753e+02 2.033806167161e+01 0.0 
2.033806167161e+01 -2.635953574779e+02 0.0 
0.0 0.0 -1.130752716060e+02 
-1.110046841255e+02 1.974352442746e+01 0.0 
1.974352442746e+01 -2.507753878304e+02 0.0 
0.0 0.0 -1.081340215868e+02 
-3.717821984663e+01 1.366251224532e+01 0.0 
1.366251224532e+01 -1.063982797552e+02 0.0 
0.0 0.0 -4.267294988054e+01 
-3.420427853082e+01 1.499574361789e+01 0.0 
1.499574361789e+01 -9.307198196434e+01 0.0 
0.0 0.0 -3.778287814855e+01 
-2.926728393785e+01 1.440552172201e+01 0.0 
1.440552172201e+01 -7.586143036769e+01 0.0 
0.0 0.0 -3.113861429166e+01 
-3.131052890981e+01 1.608652514438e+01 0.0 
1.608652514438e+01 -7.879121102506e+01 0.0 
0.0 0.0 -3.263052198046e+01 
-7.292784760214e+01 9.810004783741e+00 0.0 
9.810004783741e+00 -1.315316917856e+02 0.0 
0.0 0.0 -6.093786181633e+01 
-4.005518296717e+01 1.554928152211e+01 0.0 
1.554928152211e+01 -1.103564169548e+02 0.0 
0.0 0.0 -4.472347997658e+01 
-6.983285805290e+01 1.444047261572e+01 0.0 
1.444047261572e+01 -1.288091479775e+02 0.0 
0.0 0.0 -5.919260180912e+01 
-6.571615985614e+01 1.216837122496e+01 0.0 
1.216837122496e+01 -1.152200713715e+02 0.0 
0.0 0.0 -5.388086936830e+01 
-6.184292034838e+01 1.369382072877e+01 0.0 
1.369382072877e+01 -1.079878635613e+02 0.0 
0.0 0.0 -5.054923517292e+01 
-5.228561677102e+01 1.940059910362e+01 0.0 
1.940059910362e+01 -1.085761391177e+02 0.0 
0.0 0.0 -4.785852676662e+01 
-4.883432716486e+01 1.856070176542e+01 0.0 
1.856070176542e+01 -9.217006870179e+01 0.0 
0.0 0.0 -4.190131876000e+01 
-4.408735409170e+01 1.101755178273e+01 0.0 
1.101755178273e+01 -1.317343243652e+02 0.0 
0.0 0.0 -5.234650353707e+01 
-7.793544853306e+01 1.279188441968e+01 0.0 
1.279188441968e+01 -2.141534196810e+02 0.0 
0.0 0.0 -8.722666046423e+01 
-7.466199879138e+01 8.679925645444e-02 0.0 
8.679925645444e-02 -2.017154023968e+02 0.0 
0.0 0.0 -8.251322035647e+01 
-9.500567258023e+01 1.745609796609e+00 0.0 
1.745609796609e+00 -2.503489516579e+02 0.0 
0.0 0.0 -1.032063872714e+02 
-8.544301666195e+01 4.015603105655e+00 0.0 
4.015603105655e+00 -2.343096435137e+02 0.0 
0.0 0.0 -9.552579805268e+01 
-9.701424144229e+01 4.112784392708e+00 0.0 
4.112784392708e+00 -2.105696350800e+02 0.0 
0.0 0.0 -9.187516295669e+01 
-1.004080194977e+02 3.900560973856e+00 0.0 
3.900560973856e+00 -2.215537096651e+02 0.0 
0.0 0.0 -9.618851874883e+01 
-7.030036212162e+01 1.361135872375e+00 0.0 
1.361135872375e+00 -1.414997265951e+02 0.0 
0.0 0.0 -6.314002661500e+01 
-6.626523591802e+01 9.407120420329e-01 0.0 
9.407120420329e-01 -1.323763143009e+02 0.0 
0.0 0.0 -5.919246506569e+01 
-2.857754732757e+01 -2.027216201086e+00 0.0 
-2.027216201086e+00 -7.558869342672e+01 0.0 
0.0 0.0 -3.084987222629e+01 
-2.591690482829e+01 -2.193216968997e+00 0.0 
-2.193216968997e+00 -6.719677962842e+01 0.0 
0.0 0.0 -2.753410533701e+01 
-8.223038907627e+01 1.857684877161e+00 0.0 
1.857684877161e+00 -2.239741105798e+02 0.0 
0.0 0.0 -9.146134989681e+01 
-1.267157236243e+02 7.356248739029e+00 0.0 
7.356248739029e+00 -3.184883663412e+02 0.0 
0.0 0.0 -1.331612269897e+02 
-1.022108184129e+02 7.917817039436e+00 0.0 
7.917817039436e+00 -2.184440540407e+02 0.0 
0.0 0.0 -9.579646173611e+01 
-1.060200842827e+02 9.352588679431e+00 0.0 
9.352588679431e+00 -2.288194813441e+02 0.0 
0.0 0.0 -1.000518696880e+02 
-1.033990607334e+02 9.726945581799e+00 0.0 
9.726945581799e+00 -2.189846077922e+02 0.0 
0.0 0.0 -9.631510055770e+01 
-1.258084398538e+02 1.105490567832e+01 0.0 
1.105490567832e+01 -3.166815906497e+02 0.0 
0.0 0.0 -1.323470091510e+02 
-4.872558322131e+01 6.664076225232e+00 0.0 
6.664076225232e+00 -1.478447308799e+02 0.0 
0.0 0.0 -5.857109423035e+01 
-8.294039907424e+01 9.599887224019e+00 0.0 
9.599887224019e+00 -2.296501876550e+02 0.0 
0.0 0.0 -9.337717601877e+01 
-2.440311109510e+01 -1.114934600693e-01 0.0 
-1.114934600693e-01 -6.099789332470e+01 0.0 
0.0 0.0 -2.522030132594e+01 
-8.211377810163e+01 1.814368807209e+01 0.0 
1.814368807209e+01 -2.047546755827e+02 0.0 
0.0 0.0 -8.566053610529e+01 
-2.214570503602e+01 -1.841789321005e+00 0.0 
-1.841789321005e+00 -5.607885437869e+01 0.0 
0.0 0.0 -2.306736782441e+01 
-9.613228448000e+01 1.743703017452e+01 0.0 
1.743703017452e+01 -2.037937007188e+02 0.0 
0.0 0.0 -8.957779555965e+01 
-1.306156419325e+02 1.578185580911e+00 0.0 
1.578185580911e+00 -3.227880371756e+02 0.0 
0.0 0.0 -1.356211037324e+02 
-1.357018819830e+02 2.268357817092e+00 0.0 
2.268357817092e+00 -3.329532647843e+02 0.0 
0.0 0.0 -1.401965440302e+02 
-1.223502463511e+02 1.859899624476e+01 0.0 
1.859899624476e+01 -3.002163512887e+02 0.0 
0.0 0.0 -1.263699792920e+02 
-5.994502554744e+01 6.182919557976e+00 0.0 
6.182919557976e+00 -1.002548643005e+02 0.0 
0.0 0.0 -4.765996695440e+01 
-8.598061897687e+01 1.751081628299e+01 0.0 
1.751081628299e+01 -2.180026683670e+02 0.0 
0.0 0.0 -9.079498620316e+01 
-8.170566730315e+01 1.642886696761e+01 0.0 
1.642886696761e+01 -2.128382732240e+02 0.0 
0.0 0.0 -8.796318215815e+01 
-5.744583245199e+01 1.099877213806e+01 0.0 
1.099877213806e+01 -9.444139242347e+01 0.0 
0.0 0.0 -4.516616746264e+01 
-5.353889460551e+01 1.268648551999e+01 0.0 
1.268648551999e+01 -8.701417533224e+01 0.0 
0.0 0.0 -4.176592098132e+01 
-5.772201520753e+01 1.538268441632e+01 0.0 
1.538268441632e+01 -1.015922700358e+02 0.0 
0.0 0.0 -4.739428557301e+01 
-4.949076461540e+01 1.469462910586e+01 0.0 
1.469462910586e+01 -8.071372992629e+01 0.0 
0.0 0.0 -3.866134836251e+01 
-4.901832480138e+01 -5.642929235925e-01 0.0 
-5.642929235925e-01 -1.418939203634e+02 0.0 
0.0 0.0 -5.687367354944e+01 
-4.604973500022e+01 -1.299905624377e+00 0.0 
-1.299905624377e+00 -1.317012241777e+02 0.0 
0.0 0.0 -5.292528775338e+01 
-1.198624350881e+02 2.108454807166e+01 0.0 
2.108454807166e+01 -2.792868245089e+02 0.0 
0.0 0.0 -1.193447778791e+02 
-1.198375895554e+02 2.063582638020e+01 0.0 
2.063582638020e+01 -2.850943689327e+02 0.0 
0.0 0.0 -1.210795875464e+02 
-1.181936261452e+02 2.063104153990e+01 0.0 
2.063104153990e+01 -2.699753386371e+02 0.0 
0.0 0.0 -1.160506894347e+02 
-1.148055832363e+02 1.973108318431e+01 0.0 
1.973108318431e+01 -2.575481505964e+02 0.0 
0.0 0.0 -1.113061201498e+02 
-1.277258142076e+02 1.833338245287e+01 0.0 
1.833338245287e+01 -3.124555015269e+02 0.0 
0.0 0.0 -1.316543947204e+02 
-1.231326600851e+02 1.689411132808e+01 0.0 
1.689411132808e+01 -3.057148658092e+02 0.0 
0.0 0.0 -1.282542577683e+02 
-4.353551240120e+01 -7.437820300320e-01 0.0 
-7.437820300320e-01 -1.179986274446e+02 0.0 
0.0 0.0 -4.806024195375e+01 
-4.084829251558e+01 1.821278833475e+01 0.0 
1.821278833475e+01 -7.218655870944e+01 0.0 
0.0 0.0 -3.351045536751e+01 
-1.045560202940e+02 6.140919107819e+00 0.0 
6.140919107819e+00 -2.296926893284e+02 0.0 
0.0 0.0 -9.987461288672e+01 
-6.114281060798e+01 9.599120796517e+00 0.0 
9.599120796517e+00 -1.024359954307e+02 0.0 
0.0 0.0 -4.867364181161e+01 
-1.367379175226e+02 8.156430475087e+00 0.0 
8.156430475087e+00 -3.368781361842e+02 0.0 
0.0 0.0 -1.416848161120e+02 
-1.317896852101e+02 6.923790431846e+00 0.0 
6.923790431846e+00 -3.277277272832e+02 0.0 
0.0 0.0 -1.374552237480e+02 
-2.146481354302e+01 -4.291210584035e-01 0.0 
-4.291210584035e-01 -4.280470917077e+01 0.0 
0.0 0.0 -1.888085681414e+01 
-2.278562899831e+01 -1.248969421488e+00 0.0 
-1.248969421488e+00 -5.095136760796e+01 0.0 
0.0 0.0 -2.172109898188e+01 
-1.005739287723e+02 1.805248516717e+00 0.0 
1.805248516717e+00 -2.249045458055e+02 0.0 
0.0 0.0 -9.724354237334e+01 
-2.709553337107e+01 1.546931152854e+01 0.0 
1.546931152854e+01 -6.132531163855e+01 0.0 
0.0 0.0 -2.612625350289e+01 
-2.860724759126e+01 1.674091521457e+01 0.0 
1.674091521457e+01 -6.308288393348e+01 0.0 
0.0 0.0 -2.710703945742e+01 
-2.559194763174e+01 1.391614318036e+01 0.0 
1.391614318036e+01 -5.897801619056e+01 0.0 
0.0 0.0 -2.497098914669e+01 
-1.509855306950e+02 6.301693624366e-01 0.0 
6.301693624366e-01 -3.614611461451e+02 0.0 
0.0 0.0 -1.533340030520e+02 
-4.932958278127e+01 3.666586451630e-02 0.0 
3.666586451630e-02 -9.430458183931e+01 0.0 
0.0 0.0 -4.269024938618e+01 
-1.404504920189e+02 1.764170277135e+00 0.0 
1.764170277135e+00 -3.417006666636e+02 0.0 
0.0 0.0 -1.442453476048e+02 
-5.689918912514e+01 1.862589440076e+01 0.0 
1.862589440076e+01 -1.122924422252e+02 0.0 
0.0 0.0 -5.035748940509e+01 
-1.042582313695e+02 2.463083784999e+00 0.0 
2.463083784999e+00 -2.346578622912e+02 0.0 
0.0 0.0 -1.012748280982e+02 
-9.014035907158e+01 1.685296439318e+01 0.0 
1.685296439318e+01 -2.310257359761e+02 0.0 
0.0 0.0 -9.594982851430e+01 
-5.064107377698e+01 1.753204093507e+01 0.0 
1.753204093507e+01 -1.323904813383e+02 0.0 
0.0 0.0 -5.450946653457e+01 
-1.159366986089e+02 1.005505726440e+01 0.0 
1.005505726440e+01 -2.982072714560e+02 0.0 
0.0 0.0 -1.238431910195e+02 
-9.659063556002e+01 1.240912433954e+00 0.0 
1.240912433954e+00 -2.141285951736e+02 0.0 
0.0 0.0 -9.281576922008e+01 
-1.042874206915e+02 1.374606085043e+00 0.0 
1.374606085043e+00 -2.361823539639e+02 0.0 
0.0 0.0 -1.017409323966e+02 
-6.693770775259e+01 1.734729656454e+00 0.0 
1.734729656454e+00 -1.292564961978e+02 0.0 
0.0 0.0 -5.845826118511e+01 
-6.214675509534e+01 1.234512879739e+00 0.0 
1.234512879739e+00 -1.194184207314e+02 0.0 
0.0 0.0 -5.406955274801e+01 
-7.118695025800e+01 2.501505298951e+00 0.0 
2.501505298951e+00 -1.381061548462e+02 0.0 
0.0 0.0 -6.238793153127e+01 
-2.500622677193e+01 4.441806912835e+00 0.0 
4.441806912835e+00 -6.788138371282e+01 0.0 
0.0 0.0 -2.746628314542e+01 
-2.148667114902e+01 4.196002358752e+00 0.0 
4.196002358752e+00 -4.885158174407e+01 0.0 
0.0 0.0 -2.070147586793e+01 
-9.675179965406e+01 3.068640678919e+00 0.0 
3.068640678919e+00 -2.121934402399e+02 0.0 
0.0 0.0 -9.228357196819e+01 
-5.178050490868e+01 -9.950295206636e-01 0.0 
-9.950295206636e-01 -1.410063521846e+02 0.0 
0.0 0.0 -5.743605712797e+01 
-5.579412946335e+01 -7.592677530238e-01 0.0 
-7.592677530238e-01 -1.516930754917e+02 0.0 
0.0 0.0 -6.184616148652e+01 
-3.344408682333e+01 -2.420951579643e+00 0.0 
-2.420951579643e+00 -9.064110161982e+01 0.0 
0.0 0.0 -3.682555653295e+01 
-3.963550362633e+01 -2.155870499001e+00 0.0 
-2.155870499001e+00 -1.100046907104e+02 0.0 
0.0 0.0 -4.449205830100e+01 
-8.263479748832e+01 6.171897265696e-01 0.0 
6.171897265696e-01 -2.209771985580e+02 0.0 
0.0 0.0 -9.068359881391e+01 
-7.862607689622e+01 5.433978649063e-01 0.0 
5.433978649063e-01 -2.123032119944e+02 0.0 
0.0 0.0 -8.687878666719e+01 
-9.980519433108e+01 1.843433396353e+01 0.0 
1.843433396353e+01 -2.175150968238e+02 0.0 
0.0 0.0 -9.479608734646e+01 
-1.034356794427e+02 1.798739123761e+01 0.0 
1.798739123761e+01 -2.239080550906e+02 0.0 
0.0 0.0 -9.780312035998e+01 
-9.171043553861e+01 1.911928010703e+01 0.0 
1.911928010703e+01 -2.058681464539e+02 0.0 
0.0 0.0 -8.887357459776e+01 
-9.697764462924e+01 7.947656307176e+00 0.0 
7.947656307176e+00 -2.605100261005e+02 0.0 
0.0 0.0 -1.068463012189e+02 
-8.824916640171e+01 6.940980408928e+00 0.0 
6.940980408928e+00 -2.420543677216e+02 0.0 
0.0 0.0 -9.869106023700e+01 
-8.366256137955e+01 7.424019030071e+00 0.0 
7.424019030071e+00 -2.321175944042e+02 0.0 
0.0 0.0 -9.433404673514e+01 
-1.036528891640e+02 4.781069564611e+00 0.0 
4.781069564611e+00 -2.303032983621e+02 0.0 
0.0 0.0 -9.978685625782e+01 
-1.078167134437e+02 4.439169751967e+00 0.0 
4.439169751967e+00 -2.435829136532e+02 0.0 
0.0 0.0 -1.050198881291e+02 
-5.187512785945e+01 4.049786650837e-01 0.0 
4.049786650837e-01 -1.515979407088e+02 0.0 
0.0 0.0 -6.064192057047e+01 
-4.827469155091e+01 6.161559594574e-01 0.0 
6.161559594574e-01 -1.427129481009e+02 0.0 
0.0 0.0 -5.689629189553e+01 
-5.243137007355e+01 -5.902410587585e-01 0.0 
-5.902410587585e-01 -1.502773681932e+02 0.0 
0.0 0.0 -6.041262148002e+01 
-1.081072803521e+02 7.284058386574e+00 0.0 
7.284058386574e+00 -2.393932461579e+02 0.0 
0.0 0.0 -1.038501579530e+02 
-1.454112918309e+02 2.465269460231e+00 0.0 
2.465269460231e+00 -3.514829902100e+02 0.0 
0.0 0.0 -1.486682846123e+02 
-1.408110896429e+02 3.073296795417e+00 0.0 
3.073296795417e+00 -3.429543965003e+02 0.0 
0.0 0.0 -1.447296458430e+02 
-1.984764599205e+01 -1.862474925515e+00 0.0 
-1.862474925515e+00 -4.788637161383e+01 0.0 
0.0 0.0 -1.992020528177e+01 
-2.330543079822e+01 -2.208444640390e+00 0.0 
-2.208444640390e+00 -5.863348228701e+01 0.0 
0.0 0.0 -2.418167392557e+01 
-2.301185317015e+01 1.022652616556e+01 0.0 
1.022652616556e+01 -5.254995264573e+01 0.0 
0.0 0.0 -2.226854174476e+01 
-2.181677618806e+01 8.163757044629e+00 0.0 
8.163757044629e+00 -4.831649614390e+01 0.0 
0.0 0.0 -2.063998169959e+01 
-1.094716821173e+02 1.081568856932e+01 0.0 
1.081568856932e+01 -2.389531026651e+02 0.0 
0.0 0.0 -1.041274354347e+02 
-1.073058503803e+02 1.130102267666e+01 0.0 
1.130102267666e+01 -2.300172954996e+02 0.0 
0.0 0.0 -1.007969437640e+02 
-1.126508966937e+02 1.044732472515e+01 0.0 
1.044732472515e+01 -2.505859154149e+02 0.0 
0.0 0.0 -1.085710436326e+02 
-3.910684429608e+01 -6.076691289219e-01 0.0 
-6.076691289219e-01 -1.054818970066e+02 0.0 
0.0 0.0 -4.297662239080e+01 
-1.030816153952e+02 1.831139156944e+01 0.0 
1.831139156944e+01 -2.550610597484e+02 0.0 
0.0 0.0 -1.070428025431e+02 
-1.356377257553e+02 1.207851187081e+01 0.0 
1.207851187081e+01 -3.342605174493e+02 0.0 
0.0 0.0 -1.405694729614e+02 
-1.299842747668e+02 1.257883149293e+01 0.0 
1.257883149293e+01 -3.240167476093e+02 0.0 
0.0 0.0 -1.358003067128e+02 
-1.424879038598e+02 1.168977096736e+01 0.0 
1.168977096736e+01 -3.467442169281e+02 0.0 
0.0 0.0 -1.463696362364e+02 
-1.171859581860e+02 1.886378604477e+01 0.0 
1.886378604477e+01 -2.874897832661e+02 0.0 
0.0 0.0 -1.210027224356e+02 
-1.262006150963e+02 1.975832612014e+01 0.0 
1.975832612014e+01 -3.057719271764e+02 0.0 
0.0 0.0 -1.291917626818e+02 
-1.248785961384e+02 2.072773585552e+01 0.0 
2.072773585552e+01 -2.983093947270e+02 0.0 
0.0 0.0 -1.265563972596e+02 
-1.980537517678e+01 3.834629203406e-01 0.0 
3.834629203406e-01 -3.443719253706e+01 0.0 
0.0 0.0 -1.587277031415e+01 
-1.017075218868e+02 9.686788104532e-01 0.0 
9.686788104532e-01 -2.290881935171e+02 0.0 
0.0 0.0 -9.883871462117e+01 
-6.175534283502e+01 8.298127956843e-01 0.0 
8.298127956843e-01 -1.207332537094e+02 0.0 
0.0 0.0 -5.434657896333e+01 
-1.982262286304e+01 -3.429380800648e-01 0.0 
-3.429380800648e-01 -2.738533171590e+01 0.0 
0.0 0.0 -1.390277716463e+01 
-5.772044741091e+01 5.040172434753e-01 0.0 
5.040172434753e-01 -1.118292917773e+02 0.0 
0.0 0.0 -5.046492175645e+01 
-6.209299624059e+01 6.117905641252e-01 0.0 
6.117905641252e-01 -1.231682489250e+02 0.0 
0.0 0.0 -5.517837354969e+01 
-5.314973719894e+01 2.784219116641e-01 0.0 
2.784219116641e-01 -1.017477436161e+02 0.0 
0.0 0.0 -4.606924424450e+01 
-3.205255917214e+01 -6.202262814198e-01 0.0 
-6.202262814198e-01 -8.605896090998e+01 0.0 
0.0 0.0 -3.503345602464e+01 
-6.154072924631e+01 1.564682795898e+00 0.0 
1.564682795898e+00 -1.151821592807e+02 0.0 
0.0 0.0 -5.261686655810e+01 
-6.750057773418e+01 2.528368198780e+00 0.0 
2.528368198780e+00 -1.275366873842e+02 0.0 
0.0 0.0 -5.811117953550e+01 
-1.668534964701e+01 -1.798032533402e+00 0.0 
-1.798032533402e+00 -3.618954421649e+01 0.0 
0.0 0.0 -1.557308141782e+01 
-1.107379853089e+02 6.764905234832e+00 0.0 
6.764905234832e+00 -2.495707284373e+02 0.0 
0.0 0.0 -1.076926141239e+02 
-1.599823676140e+01 -1.450858903891e+00 0.0 
-1.450858903891e+00 -3.764053483716e+01 0.0 
0.0 0.0 -1.569020062242e+01 
-1.847240769611e+01 -1.392471621321e+00 0.0 
-1.392471621321e+00 -4.558014987802e+01 0.0 
0.0 0.0 -1.881576727224e+01 
-1.419476242146e+02 7.613356575450e+00 0.0 
7.613356575450e+00 -3.462330298311e+02 0.0 
0.0 0.0 -1.460541962137e+02 
-1.367692359266e+02 6.448732300515e+00 0.0 
6.448732300515e+00 -3.366920817825e+02 0.0 
0.0 0.0 -1.416383953127e+02 
-1.466377390472e+02 7.085356442811e+00 0.0 
7.085356442811e+00 -3.545974116180e+02 0.0 
0.0 0.0 -1.499705451995e+02 
-1.414087275440e+02 5.907553325500e+00 0.0 
5.907553325500e+00 -3.448922582761e+02 0.0 
0.0 0.0 -1.454902957460e+02 
-1.317355000609e+02 5.384601310420e+00 0.0 
5.384601310420e+00 -3.269492042694e+02 0.0 
0.0 0.0 -1.372054112991e+02 
-1.367214020239e+02 4.929761934878e+00 0.0 
4.929761934878e+00 -3.360361038976e+02 0.0 
0.0 0.0 -1.414272517765e+02 
-5.743120052148e+01 7.538530231591e-01 0.0 
7.538530231591e-01 -1.096013675417e+02 0.0 
0.0 0.0 -4.970977041894e+01 
-1.478927032415e+02 5.539159542889e+00 0.0 
5.539159542889e+00 -3.564528429332e+02 0.0 
0.0 0.0 -1.509036638524e+02 
-1.418938543898e+02 4.422673195556e+00 0.0 
4.422673195556e+00 -3.452603691976e+02 0.0 
0.0 0.0 -1.457462670762e+02 
-1.528306214295e+02 4.912057810446e+00 0.0 
4.912057810446e+00 -3.657449177078e+02 0.0 
0.0 0.0 -1.551726617412e+02 
-4.491621903150e+01 1.116503219941e+01 0.0 
1.116503219941e+01 -6.604414636965e+01 0.0 
0.0 0.0 -3.288810962034e+01 
-3.369105867959e+01 1.754841957957e+01 0.0 
1.754841957957e+01 -8.111063489084e+01 0.0 
0.0 0.0 -3.404050807113e+01 
-3.068345439165e+01 1.775091725897e+01 0.0 
1.775091725897e+01 -6.492139460843e+01 0.0 
0.0 0.0 -2.828145470003e+01 
-2.588997638326e+01 1.674105125214e+01 0.0 
1.674105125214e+01 -4.521299798832e+01 0.0 
0.0 0.0 -2.093089231148e+01 
-1.225418496263e+02 2.088094840118e+01 0.0 
2.088094840118e+01 -2.796553895087e+02 0.0 
0.0 0.0 -1.202591717405e+02 
-1.173643029582e+02 1.946170566583e+01 0.0 
1.946170566583e+01 -2.631135763686e+02 0.0 
0.0 0.0 -1.137433637980e+02 
-1.257194404567e+02 9.780928203177e-01 0.0 
9.780928203177e-01 -3.129028758209e+02 0.0 
0.0 0.0 -1.311866948833e+02 
-1.163309856033e+02 7.965754818945e-01 0.0 
7.965754818945e-01 -2.937078953178e+02 0.0 
0.0 0.0 -1.226116642763e+02 
-5.748283042888e+01 2.986480783317e-01 0.0 
2.986480783317e-01 -1.129387293366e+02 0.0 
0.0 0.0 -5.072646792965e+01 
-5.682571673464e+01 2.528359919994e-01 0.0 
2.528359919994e-01 -1.118970423662e+02 0.0 
0.0 0.0 -5.021682773026e+01 
-6.423330659764e+01 3.231521649541e-01 0.0 
3.231521649541e-01 -1.297665489345e+02 0.0 
0.0 0.0 -5.779995665965e+01 
-6.303719134297e+01 3.334572521206e-01 0.0 
3.334572521206e-01 -1.273508280261e+02 0.0 
0.0 0.0 -5.671640581071e+01 
-7.034095567928e+01 4.129758982511e-01 0.0 
4.129758982511e-01 -1.453568257298e+02 0.0 
0.0 0.0 -6.430933442273e+01 
-6.917705665022e+01 3.919763789888e-01 0.0 
3.919763789888e-01 -1.426195033489e+02 0.0 
0.0 0.0 -6.313896799974e+01 
-7.653692690561e+01 7.000469462563e-01 0.0 
7.000469462563e-01 -1.610283929002e+02 0.0 
0.0 0.0 -7.086959594173e+01 
-1.285116835751e+02 2.174886251527e+01 0.0 
2.174886251527e+01 -3.039624554533e+02 0.0 
0.0 0.0 -1.293422417085e+02 
-2.415079977945e+01 1.498820143838e+01 0.0 
1.498820143838e+01 -4.411370459628e+01 0.0 
0.0 0.0 -2.007935131272e+01 
-5.249290587971e+01 8.053385652253e+00 0.0 
8.053385652253e+00 -8.204685918438e+01 0.0 
0.0 0.0 -3.996192951923e+01 
-1.329530402618e+02 1.799955934887e+01 0.0 
1.799955934887e+01 -3.240106418754e+02 0.0 
0.0 0.0 -1.366891046412e+02 
-1.275921266258e+02 1.639653275521e+01 0.0 
1.639653275521e+01 -3.157344140551e+02 0.0 
0.0 0.0 -1.325979622043e+02 
-4.505040752366e+01 1.669052149000e+01 0.0 
1.669052149000e+01 -7.535901557544e+01 0.0 
0.0 0.0 -3.572282692973e+01 
-3.680568102783e+01 1.553616551941e+01 0.0 
1.553616551941e+01 -5.441860331413e+01 0.0 
0.0 0.0 -2.696728530259e+01 
-1.432607869177e+02 9.527296958608e+00 0.0 
9.527296958608e+00 -3.486728108854e+02 0.0 
0.0 0.0 -1.471800793409e+02 
-4.335022120003e+01 1.429109017870e+01 0.0 
1.429109017870e+01 -1.236603285760e+02 0.0 
0.0 0.0 -4.970316493281e+01 
-1.147928135758e+02 8.130902671202e+00 0.0 
8.130902671202e+00 -2.621475821412e+02 0.0 
0.0 0.0 -1.126821187151e+02 
-1.708850098701e+01 3.570665832489e+00 0.0 
3.570665832489e+00 -1.356633492395e+01 0.0 
0.0 0.0 -9.158156352385e+00 
-1.914853368633e+01 3.267607567301e+00 0.0 
3.267607567301e+00 -2.982483279337e+01 0.0 
0.0 0.0 -1.440430459875e+01 
-4.671138880886e+01 1.604183134724e+01 0.0 
1.604183134724e+01 -1.279391264497e+02 0.0 
0.0 0.0 -5.199515457758e+01 
-5.340328372442e+01 1.713111461677e+01 0.0 
1.713111461677e+01 -9.630456885006e+01 0.0 
0.0 0.0 -4.451235577235e+01 
-3.666362161618e+01 1.854689991821e+01 0.0 
1.854689991821e+01 -8.348535982734e+01 0.0 
0.0 0.0 -3.564469443306e+01 
-3.363829467832e+01 1.869003916118e+01 0.0 
1.869003916118e+01 -6.768873326859e+01 0.0 
0.0 0.0 -2.999810838407e+01 
-1.061839661431e+02 8.985085458261e+00 0.0 
8.985085458261e+00 -2.792454942251e+02 0.0 
0.0 0.0 -1.152288381105e+02 
-2.146520644425e+01 -2.292661248933e+00 0.0 
-2.292661248933e+00 -5.093166624092e+01 0.0 
0.0 0.0 -2.131906180555e+01 
-2.433966042233e+01 1.220150022152e+01 0.0 
1.220150022152e+01 -5.621730734150e+01 0.0 
0.0 0.0 -2.376709032915e+01 
-7.772260705347e+01 7.734994691621e-01 0.0 
7.734994691621e-01 -1.632971700597e+02 0.0 
0.0 0.0 -7.190593313394e+01 
-2.224789449077e+01 1.222573739500e+01 0.0 
1.222573739500e+01 -4.006406469728e+01 0.0 
0.0 0.0 -1.829358775642e+01 
-1.213589108428e+02 4.369792325043e-01 0.0 
4.369792325043e-01 -3.038576518312e+02 0.0 
0.0 0.0 -1.271649688022e+02 
-4.706607633767e+01 1.303487668869e+01 0.0 
1.303487668869e+01 -1.368207118205e+02 0.0 
0.0 0.0 -5.476603644746e+01 
-6.023692426375e+01 1.932783539306e+01 0.0 
1.932783539306e+01 -1.280700072948e+02 0.0 
0.0 0.0 -5.609207946755e+01 
-2.749990642175e+01 1.251464798248e+01 0.0 
1.251464798248e+01 -7.261320121389e+01 0.0 
0.0 0.0 -2.963393229069e+01 
-3.705217135181e+01 1.675120000312e+01 0.0 
1.675120000312e+01 -9.666659805746e+01 0.0 
0.0 0.0 -3.971563082278e+01 
-7.731069050340e+01 1.193039704782e+01 0.0 
1.193039704782e+01 -1.437929060438e+02 0.0 
0.0 0.0 -6.593107896416e+01 
-6.825428713813e+01 7.697078813928e+00 0.0 
7.697078813928e+00 -1.200546977981e+02 0.0 
0.0 0.0 -5.609269548086e+01 
-6.477977958903e+01 8.485268516620e+00 0.0 
8.485268516620e+00 -1.112115675862e+02 0.0 
0.0 0.0 -5.239740415256e+01 
-5.084685321313e+01 1.176295779392e+01 0.0 
1.176295779392e+01 -1.492133373637e+02 0.0 
0.0 0.0 -5.961805717304e+01 
-3.687652088256e+01 1.873941401454e+01 0.0 
1.873941401454e+01 -6.962901360524e+01 0.0 
0.0 0.0 -3.155166034634e+01 
-2.955372027634e+01 1.751257161982e+01 0.0 
1.751257161982e+01 -4.801399619850e+01 0.0 
0.0 0.0 -2.287031494245e+01 
-7.356150703225e+01 1.629162348210e+01 0.0 
1.629162348210e+01 -1.429925237135e+02 0.0 
0.0 0.0 -6.456620922372e+01 
-1.006905951538e+02 1.005130443486e+01 0.0 
1.005130443486e+01 -2.093964368271e+02 0.0 
0.0 0.0 -9.262610959429e+01 
-1.045525530432e+02 1.163975703477e+01 0.0 
1.163975703477e+01 -2.204580706591e+02 0.0 
0.0 0.0 -9.710318711067e+01 
-1.107383885848e+02 1.284480209480e+01 0.0 
1.284480209480e+01 -2.404570465100e+02 0.0 
0.0 0.0 -1.049586305284e+02 
-1.084020157863e+02 1.327982682985e+01 0.0 
1.327982682985e+01 -2.319019677471e+02 0.0 
0.0 0.0 -1.016911950600e+02 
-1.018867280191e+02 1.210264491943e+01 0.0 
1.210264491943e+01 -2.114042116006e+02 0.0 
0.0 0.0 -9.358728188592e+01 
-1.057959478332e+02 1.378428235040e+01 0.0 
1.378428235040e+01 -2.231098394576e+02 0.0 
0.0 0.0 -9.827173618723e+01 
-1.119796987880e+02 1.484155753752e+01 0.0 
1.484155753752e+01 -2.435208709301e+02 0.0 
0.0 0.0 -1.062501709154e+02 
-1.098630801057e+02 1.540694701616e+01 0.0 
1.540694701616e+01 -2.358379146741e+02 0.0 
0.0 0.0 -1.033102984339e+02 
-1.170283869389e+02 1.681937888025e+01 0.0 
1.681937888025e+01 -2.596955712249e+02 0.0 
0.0 0.0 -1.126171874491e+02 
-1.134873826504e+02 1.705316387533e+01 0.0 
1.705316387533e+01 -2.482340196774e+02 0.0 
0.0 0.0 -1.081164206983e+02 
-1.066190411224e+02 1.583075175145e+01 0.0 
1.583075175145e+01 -2.269389631727e+02 0.0 
0.0 0.0 -9.966740128851e+01 
-1.100862755088e+02 1.723790889702e+01 0.0 
1.723790889702e+01 -2.390961917300e+02 0.0 
0.0 0.0 -1.043547401716e+02 
-1.165613208500e+02 1.840444244013e+01 0.0 
1.840444244013e+01 -2.588184474698e+02 0.0 
0.0 0.0 -1.122139304960e+02 
-1.032727208081e+02 1.632028494500e+01 0.0 
1.632028494500e+01 -2.184252397308e+02 0.0 
0.0 0.0 -9.610938816165e+01 
-1.374940721466e+02 1.944797200632e+01 0.0 
1.944797200632e+01 -3.305210278777e+02 0.0 
0.0 0.0 -1.400045300073e+02 
-5.411898571508e+01 1.643458010264e+01 0.0 
1.643458010264e+01 -1.460174979957e+02 0.0 
0.0 0.0 -5.964094511322e+01 
-2.103286358478e+01 1.884576152967e+00 0.0 
1.884576152967e+00 -4.270950994331e+01 0.0 
0.0 0.0 -1.872271205843e+01 
-1.987427595908e+01 5.377120163760e+00 0.0 
5.377120163760e+00 -3.650839871938e+01 0.0 
0.0 0.0 -1.651480240354e+01 
-6.482188711417e+01 1.859871096135e+01 0.0 
1.859871096135e+01 -1.323222640586e+02 0.0 
0.0 0.0 -5.874324535184e+01 
-1.219652141505e+02 1.738018189323e+01 0.0 
1.738018189323e+01 -2.784309615153e+02 0.0 
0.0 0.0 -1.197188526997e+02 
-1.196921861910e+02 1.444845624749e+01 0.0 
1.444845624749e+01 -2.726739385416e+02 0.0 
0.0 0.0 -1.173098374198e+02 
-3.799270697915e+01 1.023452836689e+01 0.0 
1.023452836689e+01 -1.144884055723e+02 0.0 
0.0 0.0 -4.534433376542e+01 
-1.300449988455e+02 2.258129764896e+01 0.0 
2.258129764896e+01 -3.014449852724e+02 0.0 
0.0 0.0 -1.290469952354e+02 
-6.941606680301e+01 1.085273386276e+01 0.0 
1.085273386276e+01 -1.231639608594e+02 0.0 
0.0 0.0 -5.737400829873e+01 
-2.895357462658e+01 5.114017102630e+00 0.0 
5.114017102630e+00 -8.523523924653e+01 0.0 
0.0 0.0 -3.385664416193e+01 
-1.336109172922e+02 2.331659663135e+01 0.0 
2.331659663135e+01 -3.123410763174e+02 0.0 
0.0 0.0 -1.333855980829e+02 
-9.788547654068e+01 1.043022063497e+01 0.0 
1.043022063497e+01 -1.999312444838e+02 0.0 
0.0 0.0 -8.894501630734e+01 
-9.487252552763e+01 1.088904339364e+01 0.0 
1.088904339364e+01 -1.905039038054e+02 0.0 
0.0 0.0 -8.521292879991e+01 
-9.070393924679e+01 9.191198755585e+00 0.0 
9.191198755585e+00 -1.792543833686e+02 0.0 
0.0 0.0 -8.058749678463e+01 
-1.181249548322e+02 1.198737498782e+01 0.0 
1.198737498782e+01 -2.695899961181e+02 0.0 
0.0 0.0 -1.159144852851e+02 
-7.577715460888e+01 3.455079434706e+00 0.0 
3.455079434706e+00 -1.478208781653e+02 0.0 
0.0 0.0 -6.667940983227e+01 
-1.408323616343e+02 2.211757192946e+01 0.0 
2.211757192946e+01 -3.334305997696e+02 0.0 
0.0 0.0 -1.418788884212e+02 
-8.639533949257e+01 1.351448258998e+01 0.0 
1.351448258998e+01 -2.322578368698e+02 0.0 
0.0 0.0 -9.519595290870e+01 
-8.190248081455e+01 1.430835915315e+01 0.0 
1.430835915315e+01 -2.200911552353e+02 0.0 
0.0 0.0 -9.019809081497e+01 
-7.360680156498e+01 1.369599421190e+01 0.0 
1.369599421190e+01 -2.020946557838e+02 0.0 
0.0 0.0 -8.231043720462e+01 
-1.028393377019e+02 1.425241902944e+01 0.0 
1.425241902944e+01 -2.143574803566e+02 0.0 
0.0 0.0 -9.475904541756e+01 
-1.465134640270e+02 1.801926455348e+01 0.0 
1.801926455348e+01 -3.497641427630e+02 0.0 
0.0 0.0 -1.484832820370e+02 
-1.384564558843e+02 1.634416511442e+01 0.0 
1.634416511442e+01 -3.367580775116e+02 0.0 
0.0 0.0 -1.421643600188e+02 
-1.397690122650e+02 1.530273586034e+01 0.0 
1.530273586034e+01 -3.398768897848e+02 0.0 
0.0 0.0 -1.434937706149e+02 
-1.297620585887e+02 1.470139656021e+01 0.0 
1.470139656021e+01 -3.220419305543e+02 0.0 
0.0 0.0 -1.351411967429e+02 
-1.493453131754e+02 1.563777758983e+01 0.0 
1.563777758983e+01 -3.565578404703e+02 0.0 
0.0 0.0 -1.513709460937e+02 
-1.254846484651e+02 1.997442211089e+01 0.0 
1.997442211089e+01 -2.880758352866e+02 0.0 
0.0 0.0 -1.236681451255e+02 
-1.271098200450e+02 2.108356302553e+01 0.0 
2.108356302553e+01 -2.929866719972e+02 0.0 
0.0 0.0 -1.256289476127e+02 
-4.221835995229e+01 -2.818362849575e-01 0.0 
-2.818362849575e-01 -1.243299346774e+02 0.0 
0.0 0.0 -4.956448838891e+01 
-4.476132336170e+01 9.693222978077e-01 0.0 
9.693222978077e-01 -1.337199869991e+02 0.0 
0.0 0.0 -5.314439310825e+01 
-5.097862156976e+01 1.938298683546e+00 0.0 
1.938298683546e+00 -1.517680230860e+02 0.0 
0.0 0.0 -6.042399339673e+01 
-4.729888286610e+01 2.419567487127e+00 0.0 
2.419567487127e+00 -1.424484624079e+02 0.0 
0.0 0.0 -5.652420358221e+01 
-4.128491104222e+01 1.450176716530e+00 0.0 
1.450176716530e+00 -1.243797127197e+02 0.0 
0.0 0.0 -4.929938712856e+01 
-4.367871366743e+01 3.016691900570e+00 0.0 
3.016691900570e+00 -1.328328966971e+02 0.0 
0.0 0.0 -5.255348310935e+01 
-4.988420041970e+01 4.036090699374e+00 0.0 
4.036090699374e+00 -1.505968971946e+02 0.0 
0.0 0.0 -5.974432928430e+01 
-4.013517374194e+01 3.777858445598e+00 0.0 
3.777858445598e+00 -1.229393928096e+02 0.0 
0.0 0.0 -4.852236996546e+01 
-1.106716906269e+02 1.868319108642e+01 0.0 
1.868319108642e+01 -2.439181769620e+02 0.0 
0.0 0.0 -1.059769602767e+02 
-1.519244246202e+02 1.318827755122e+01 0.0 
1.318827755122e+01 -3.623979970197e+02 0.0 
0.0 0.0 -1.538967264920e+02 
-9.393781194634e+01 4.989297415704e+00 0.0 
4.989297415704e+00 -2.530222454627e+02 0.0 
0.0 0.0 -1.036880172227e+02 
-8.918615738291e+01 5.247860858967e+00 0.0 
5.247860858967e+00 -2.433370283401e+02 0.0 
0.0 0.0 -9.935695571689e+01 
-8.090035965135e+01 4.239657595707e+00 0.0 
4.239657595707e+00 -2.248002923545e+02 0.0 
0.0 0.0 -9.131019560175e+01 
-7.080919272356e+01 -3.729406359443e-02 0.0 
-3.729406359443e-02 -1.930315832453e+02 0.0 
0.0 0.0 -7.875223279064e+01 
-7.462986383507e+01 4.529418040297e-01 0.0 
4.529418040297e-01 -2.035540041846e+02 0.0 
0.0 0.0 -8.305516040590e+01 
-8.257095671089e+01 1.123559721826e+00 0.0 
1.123559721826e+00 -2.227047080658e+02 0.0 
0.0 0.0 -9.118269943299e+01 
-6.694425851085e+01 -3.864719489349e-01 0.0 
-3.864719489349e-01 -1.823309994558e+02 0.0 
0.0 0.0 -7.438257738999e+01 
-9.475519115805e+01 1.896755451394e+01 0.0 
1.896755451394e+01 -2.283977251881e+02 0.0 
0.0 0.0 -9.654587490386e+01 
-1.528429076055e+02 1.207513271779e+01 0.0 
1.207513271779e+01 -3.643606034286e+02 0.0 
0.0 0.0 -1.547610533102e+02 
-8.751010748245e+01 8.964499372348e+00 0.0 
8.964499372348e+00 -2.401344342589e+02 0.0 
0.0 0.0 -9.789336252241e+01 
-7.064087066449e+01 3.496937317919e-01 0.0 
3.496937317919e-01 -1.947280242363e+02 0.0 
0.0 0.0 -7.921066847025e+01 
-5.492981649295e+01 1.675223402932e+00 0.0 
1.675223402932e+00 -9.662021367168e+01 0.0 
0.0 0.0 -4.506500904939e+01 
-6.342780007165e+01 2.908218165146e+00 0.0 
2.908218165146e+00 -1.144864917099e+02 0.0 
0.0 0.0 -5.297428753447e+01 
-6.489053625065e+01 3.931470242837e+00 0.0 
3.931470242837e+00 -1.156420063661e+02 0.0 
0.0 0.0 -5.375976278504e+01 
-7.257760474238e+01 4.693013151997e+00 0.0 
4.693013151997e+00 -1.344389283161e+02 0.0 
0.0 0.0 -6.170495991753e+01 
-6.316573354458e+01 2.498587745138e+00 0.0 
2.498587745138e+00 -1.156636612645e+02 0.0 
0.0 0.0 -5.324881844273e+01 
-8.661638206743e+01 6.664930362752e-01 0.0 
6.664930362752e-01 -2.296306421376e+02 0.0 
0.0 0.0 -9.447410726152e+01 
-9.057927128457e+01 6.667771530877e-01 0.0 
6.667771530877e-01 -2.382307007045e+02 0.0 
0.0 0.0 -9.824299159671e+01 
-8.630835101567e+01 3.268888992089e-01 0.0 
3.268888992089e-01 -2.277796609189e+02 0.0 
0.0 0.0 -9.382640358038e+01 
-9.455746950343e+01 6.144244952106e-01 0.0 
6.144244952106e-01 -2.467666660424e+02 0.0 
0.0 0.0 -1.019972406637e+02 
-9.000206457834e+01 3.466686139783e-01 0.0 
3.466686139783e-01 -2.358780989615e+02 0.0 
0.0 0.0 -9.736404906196e+01 
-8.251406009990e+01 1.661709910096e-01 0.0 
1.661709910096e-01 -2.181972564469e+02 0.0 
0.0 0.0 -8.981339496405e+01 
-9.840096743217e+01 5.144711412762e-01 0.0 
5.144711412762e-01 -2.549036314859e+02 0.0 
0.0 0.0 -1.055913796754e+02 
-9.308082743917e+01 1.823906351963e-01 0.0 
1.823906351963e-01 -2.427087916459e+02 0.0 
0.0 0.0 -1.003368857255e+02 
-5.318296426500e+01 9.143254843946e-01 0.0 
9.143254843946e-01 -9.572675300116e+01 0.0 
0.0 0.0 -4.427291517985e+01 
-1.729327619777e+01 -1.149160411765e+00 0.0 
-1.149160411765e+00 -1.715688534413e+01 0.0 
0.0 0.0 -1.032490826877e+01 
-1.948543628604e+01 -1.941580598950e+00 0.0 
-1.941580598950e+00 -3.381904338712e+01 0.0 
0.0 0.0 -1.571928672745e+01 
-1.893677025892e+01 -1.969448494151e+00 0.0 
-1.969448494151e+00 -3.348121818631e+01 0.0 
0.0 0.0 -1.545394599675e+01 
-2.240664618685e+01 -2.299891849711e+00 0.0 
-2.299891849711e+00 -4.933913504405e+01 0.0 
0.0 0.0 -2.112373436927e+01 
-2.261844074101e+01 -1.981582403802e+00 0.0 
-1.981582403802e+00 -5.033062879159e+01 0.0 
0.0 0.0 -2.148472085978e+01 
-2.646690473466e+01 -2.047445908444e+00 0.0 
-2.047445908444e+00 -6.729894523925e+01 0.0 
0.0 0.0 -2.772975499217e+01 
-2.576311927437e+01 -1.473934820395e+00 0.0 
-1.473934820395e+00 -6.453713062258e+01 0.0 
0.0 0.0 -2.669007496908e+01 
-1.989728239767e+01 -1.598790137297e+00 0.0 
-1.598790137297e+00 -3.371479935044e+01 0.0 
0.0 0.0 -1.582405087482e+01 
-1.506949740233e+01 -1.239509139804e+00 0.0 
-1.239509139804e+00 -1.699661464505e+01 0.0 
0.0 0.0 -9.610539517469e+00 
-1.811385044081e+01 -2.007712724905e+00 0.0 
-2.007712724905e+00 -3.350461137435e+01 0.0 
0.0 0.0 -1.522229889225e+01 
-1.381848130400e+01 -1.204216384193e+00 0.0 
-1.204216384193e+00 -1.684040305868e+01 0.0 
0.0 0.0 -9.192866633946e+00 
-1.726925979582e+01 -1.983880861235e+00 0.0 
-1.983880861235e+00 -3.306800341183e+01 0.0 
0.0 0.0 -1.483602840602e+01 
-2.236847601613e+01 -2.455704626893e+00 0.0 
-2.455704626893e+00 -5.195958148151e+01 0.0 
0.0 0.0 -2.189841724929e+01 
-2.972593346847e+01 -2.362431470251e+00 0.0 
-2.362431470251e+00 -7.878490575752e+01 0.0 
0.0 0.0 -3.215325176780e+01 
-1.562077914135e+02 2.736680266928e+00 0.0 
2.736680266928e+00 -3.713722837725e+02 0.0 
0.0 0.0 -1.578740225558e+02 
-7.043200437642e+01 -1.019073305179e-01 0.0 
-1.019073305179e-01 -1.883627582475e+02 0.0 
0.0 0.0 -7.723842878717e+01 
-6.655333429148e+01 -3.037937198555e-01 0.0 
-3.037937198555e-01 -1.788847439229e+02 0.0 
0.0 0.0 -7.323142346430e+01 
-5.936500452063e+01 -4.190757230107e-01 0.0 
-4.190757230107e-01 -1.599548260832e+02 0.0 
0.0 0.0 -6.539594918114e+01 
-6.311746918113e+01 -4.010493400015e-01 0.0 
-4.010493400015e-01 -1.701540780470e+02 0.0 
0.0 0.0 -6.958146416845e+01 
-7.334835877833e+01 -1.836290611451e-01 0.0 
-1.836290611451e-01 -1.961148893401e+02 0.0 
0.0 0.0 -8.043897443553e+01 
-5.544032577050e+01 -2.644040587169e-01 0.0 
-2.644040587169e-01 -1.495093350242e+02 0.0 
0.0 0.0 -6.108489823840e+01 
-5.278591629335e+01 -5.276022652409e-01 0.0 
-5.276022652409e-01 -1.424690971505e+02 0.0 
0.0 0.0 -5.817650403315e+01 
-6.850908855750e+00 -2.504448665563e-01 0.0 
-2.504448665563e-01 -1.719916004324e+01 0.0 
0.0 0.0 -7.202907999449e+00 
-1.273065137968e+01 -3.576576433618e-01 0.0 
-3.576576433618e-01 -3.381182166599e+01 0.0 
0.0 0.0 -1.366670218679e+01 
-1.208140638390e+01 -3.269451667199e-01 0.0 
-3.269451667199e-01 -3.215998661962e+01 0.0 
0.0 0.0 -1.290688468877e+01 
-1.873941418553e+01 -4.378536081713e-01 0.0 
-4.378536081713e-01 -5.061929799627e+01 0.0 
0.0 0.0 -2.040761365454e+01 
-1.897142964878e+01 -6.232798595421e-01 0.0 
-6.232798595421e-01 -5.027080924724e+01 0.0 
0.0 0.0 -2.037267166881e+01 
-1.319682566375e+01 -6.031013976809e-01 0.0 
-6.031013976809e-01 -3.411955265761e+01 0.0 
0.0 0.0 -1.392209504545e+01 
-1.343346491407e+01 -8.305421229036e-01 0.0 
-8.305421229036e-01 -3.411524095858e+01 0.0 
0.0 0.0 -1.399826585175e+01 
-7.645634401663e+00 -5.018501509733e-01 0.0 
-5.018501509733e-01 -1.706400089523e+01 0.0 
0.0 0.0 -7.407469193717e+00 
-1.370911875563e+01 -9.396454867067e-01 0.0 
-9.396454867067e-01 -3.397500406873e+01 0.0 
0.0 0.0 -1.406660172238e+01 
-1.962709423980e+01 -1.162432043353e+00 0.0 
-1.162432043353e+00 -5.106684072417e+01 0.0 
0.0 0.0 -2.080818048919e+01 
-8.058532090159e+00 -5.903559456848e-01 0.0 
-5.903559456848e-01 -1.648034212734e+01 0.0 
0.0 0.0 -7.373399285210e+00 
-8.636913588222e+01 4.434575837672e-01 0.0 
4.434575837672e-01 -1.872800362544e+02 0.0 
0.0 0.0 -8.169475164099e+01 
-9.037857458488e+01 8.163484365032e-01 0.0 
8.163484365032e-01 -1.981129953935e+02 0.0 
0.0 0.0 -8.614747099351e+01 
-1.538251449158e+02 9.754380140728e+00 0.0 
9.754380140728e+00 -3.668266176099e+02 0.0 
0.0 0.0 -1.557955287577e+02 
-5.277498351000e+01 6.167233225772e-01 0.0 
6.167233225772e-01 -9.756294334226e+01 0.0 
0.0 0.0 -4.470137805568e+01 
-1.173490499431e+01 -1.022150785946e+00 0.0 
-1.022150785946e+00 -1.712203093054e+01 0.0 
0.0 0.0 -8.641244421295e+00 
-1.119844584391e+02 2.838049189669e+00 0.0 
2.838049189669e+00 -2.579347155384e+02 0.0 
0.0 0.0 -1.105757521932e+02 
-1.140603046513e+02 5.304073112563e+00 0.0 
5.304073112563e+00 -2.622721138503e+02 0.0 
0.0 0.0 -1.124997255505e+02 
-1.138275611772e+02 4.403704770005e+00 0.0 
4.403704770005e+00 -2.621812717690e+02 0.0 
0.0 0.0 -1.124026498839e+02 
-1.408688681910e+02 5.638844233710e-01 0.0 
5.638844233710e-01 -3.425102231791e+02 0.0 
0.0 0.0 -1.446137274110e+02 
-1.457831948742e+02 1.215618244091e+00 0.0 
1.215618244091e+00 -3.518334915430e+02 0.0 
0.0 0.0 -1.488850059252e+02 
-1.117963457698e+02 1.563893748888e+00 0.0 
1.563893748888e+00 -2.581917773135e+02 0.0 
0.0 0.0 -1.105964369250e+02 
-4.551817554432e+01 -1.779269177557e+00 0.0 
-1.779269177557e+00 -1.259404130322e+02 0.0 
0.0 0.0 -5.103757657295e+01 
-1.146861006516e+02 1.446081277877e+01 0.0 
1.446081277877e+01 -2.519054196441e+02 0.0 
0.0 0.0 -1.095774560887e+02 
-1.002462142588e+02 2.783575597242e+00 0.0 
2.783575597242e+00 -2.230882748407e+02 0.0 
0.0 0.0 -9.660034672986e+01 
-2.660813523472e+01 6.608475356017e+00 0.0 
6.608475356017e+00 -7.494510141466e+01 0.0 
0.0 0.0 -3.006597099482e+01 
-4.296635986614e+01 -1.823989105797e+00 0.0 
-1.823989105797e+00 -1.211338890158e+02 0.0 
0.0 0.0 -4.883007466457e+01 
-1.119397843522e+02 1.102661759766e+00 0.0 
1.102661759766e+00 -2.847490444929e+02 0.0 
0.0 0.0 -1.186066486535e+02 
-9.930028732322e+01 2.472345096886e+00 0.0 
2.472345096886e+00 -2.606320272190e+02 0.0 
0.0 0.0 -1.075796943627e+02 
-1.311251006659e+02 2.707847688730e+00 0.0 
2.707847688730e+00 -3.243857245629e+02 0.0 
0.0 0.0 -1.362532475686e+02 
-1.034597239379e+02 1.525479356061e+00 0.0 
1.525479356061e+00 -2.675723176980e+02 0.0 
0.0 0.0 -1.109096124908e+02 
-1.220259413485e+02 3.469841621324e+00 0.0 
3.469841621324e+00 -3.072108945758e+02 0.0 
0.0 0.0 -1.283710507773e+02 
-1.402872959302e+02 1.380827764911e+01 0.0 
1.380827764911e+01 -3.419644737138e+02 0.0 
0.0 0.0 -1.442755308932e+02 
-2.980281319977e+01 -8.419868200901e-01 0.0 
-8.419868200901e-01 -7.946000215903e+01 0.0 
0.0 0.0 -3.237884460764e+01 
-7.445524864524e+01 1.936817216706e+00 0.0 
1.936817216706e+00 -1.505093358603e+02 0.0 
0.0 0.0 -6.708937535166e+01 
-7.024464008390e+01 9.813908415608e-01 0.0 
9.813908415608e-01 -1.431448549142e+02 0.0 
0.0 0.0 -6.361684849943e+01 
-8.954250835007e+01 2.539701626480e+00 0.0 
2.539701626480e+00 -1.921892458647e+02 0.0 
0.0 0.0 -8.411952626444e+01 
-4.837655591327e+01 -1.271983826887e+00 0.0 
-1.271983826887e+00 -1.321972788869e+02 0.0 
0.0 0.0 -5.377215044006e+01 
-7.855248021615e+01 1.043547751641e-01 0.0 
1.043547751641e-01 -2.092097476770e+02 0.0 
0.0 0.0 -8.592866836794e+01 
-3.138580239044e+01 -1.836706389881e+00 0.0 
-1.836706389881e+00 -8.426105100246e+01 0.0 
0.0 0.0 -3.429405601787e+01 
-1.265109595135e+02 2.198287949197e+01 0.0 
2.198287949197e+01 -2.940991564377e+02 0.0 
0.0 0.0 -1.257830347854e+02 
-6.574259513080e+01 1.590542327906e+01 0.0 
1.590542327906e+01 -1.223726769111e+02 0.0 
0.0 0.0 -5.603458161256e+01 
-7.732788001743e+01 3.040217131525e+00 0.0 
3.040217131525e+00 -2.156209360041e+02 0.0 
0.0 0.0 -8.748464480647e+01 
-6.325014898154e+01 -5.874393685377e-01 0.0 
-5.874393685377e-01 -1.736046603404e+02 0.0 
0.0 0.0 -7.065644279657e+01 
-4.907262485159e+01 -1.556720816434e+00 0.0 
-1.556720816434e+00 -1.369819103524e+02 0.0 
0.0 0.0 -5.541636056118e+01 
-3.991997343165e+01 -1.897194100728e+00 0.0 
-1.897194100728e+00 -1.127995684763e+02 0.0 
0.0 0.0 -4.541586257238e+01 
-5.823510716718e+01 1.775505219314e+01 0.0 
1.775505219314e+01 -1.503995033842e+02 0.0 
0.0 0.0 -6.219038316541e+01 
-7.430634073919e+01 1.048191321439e+00 0.0 
1.048191321439e+00 -2.049870922506e+02 0.0 
0.0 0.0 -8.338802989694e+01 
-1.124838573703e+02 5.354614740703e+00 0.0 
5.354614740703e+00 -2.903824487468e+02 0.0 
0.0 0.0 -1.204598918351e+02 
-9.314760509115e+01 2.373705682026e+00 0.0 
2.373705682026e+00 -2.030960793193e+02 0.0 
0.0 0.0 -8.847310532314e+01 
-1.048576649661e+01 -9.875507253787e-01 0.0 
-9.875507253787e-01 -1.906880962675e+01 0.0 
0.0 0.0 -8.751671668129e+00 
-1.170320879179e+02 6.521666773188e+00 0.0 
6.521666773188e+00 -2.998754066144e+02 0.0 
0.0 0.0 -1.246722483597e+02 
-9.048744944948e+01 2.677150274201e+00 0.0 
2.677150274201e+00 -2.429114849027e+02 0.0 
0.0 0.0 -9.961968030566e+01 
-7.939993061773e+01 3.483177415016e+00 0.0 
3.483177415016e+00 -1.585502646264e+02 0.0 
0.0 0.0 -7.098505857324e+01 
-1.090361129610e+02 1.447495569336e+01 0.0 
1.447495569336e+01 -2.804682734046e+02 0.0 
0.0 0.0 -1.164513159097e+02 
-2.934690160996e+01 -2.225302487723e+00 0.0 
-2.225302487723e+00 -7.744735692386e+01 0.0 
0.0 0.0 -3.163827756015e+01 
-9.373525352262e+01 4.272355734514e+00 0.0 
4.272355734514e+00 -1.999447982001e+02 0.0 
0.0 0.0 -8.770401551681e+01 
-1.082150032413e+02 8.817391844270e+00 0.0 
8.817391844270e+00 -2.378545339652e+02 0.0 
0.0 0.0 -1.034208611620e+02 
-7.223183230274e+01 3.561767022905e+00 0.0 
3.561767022905e+00 -1.372814229370e+02 0.0 
0.0 0.0 -6.245397657191e+01 
-2.477844760873e+01 -1.738873263168e+00 0.0 
-1.738873263168e+00 -6.466389197880e+01 0.0 
0.0 0.0 -2.643270187626e+01 
-6.614401369012e+01 1.262965692952e+00 0.0 
1.262965692952e+00 -1.303411411303e+02 0.0 
0.0 0.0 -5.854554644611e+01 
-1.366818948579e+02 1.002941502075e+01 0.0 
1.002941502075e+01 -3.366483950077e+02 0.0 
0.0 0.0 -1.415990869597e+02 
-9.661676151923e+01 8.530314388266e+00 0.0 
8.530314388266e+00 -1.986094344928e+02 0.0 
0.0 0.0 -8.816785880360e+01 
-4.456889472086e+01 -1.175994932761e+00 0.0 
-1.175994932761e+00 -1.211179901327e+02 0.0 
0.0 0.0 -4.930606545606e+01 
-7.474276519330e+01 8.665137224754e+00 0.0 
8.665137224754e+00 -2.116134729010e+02 0.0 
0.0 0.0 -8.550687142829e+01 
-6.357924263714e+01 1.946189155415e+01 0.0 
1.946189155415e+01 -1.434781545939e+02 0.0 
0.0 0.0 -6.171721916933e+01 
-5.100117238856e+01 4.670956096142e+00 0.0 
4.670956096142e+00 -8.047591012475e+01 0.0 
0.0 0.0 -3.904312475399e+01 
-1.034350802217e+02 3.470740880389e+00 0.0 
3.470740880389e+00 -2.317832673412e+02 0.0 
0.0 0.0 -1.001655042689e+02 
-7.352924009626e+01 1.607982477842e+01 0.0 
1.607982477842e+01 -1.948973692350e+02 0.0 
0.0 0.0 -8.012798279939e+01 
-1.192561184160e+02 1.344753660193e+01 0.0 
1.344753660193e+01 -3.027494461162e+02 0.0 
0.0 0.0 -1.262016693597e+02 
-9.150737185831e+01 1.052910223790e+01 0.0 
1.052910223790e+01 -2.478155423971e+02 0.0 
0.0 0.0 -1.013968742766e+02 
-4.788263080851e+01 -9.083014153983e-01 0.0 
-9.083014153983e-01 -1.299211837890e+02 0.0 
0.0 0.0 -5.294114437925e+01 
-1.268993785676e+02 5.794664583962e+00 0.0 
5.794664583962e+00 -3.181933509267e+02 0.0 
0.0 0.0 -1.331278188483e+02 
-6.980789975221e+01 1.206711417518e+01 0.0 
1.206711417518e+01 -1.962556307547e+02 0.0 
0.0 0.0 -7.941905915209e+01 
-1.008042269802e+02 5.052044505909e+00 0.0 
5.052044505909e+00 -2.201400980436e+02 0.0 
0.0 0.0 -9.588329750716e+01 
-9.954657976476e+01 1.935041821218e+01 0.0 
1.935041821218e+01 -2.254123971624e+02 0.0 
0.0 0.0 -9.708769307814e+01 
-5.550022631929e+01 7.614917050094e+00 0.0 
7.614917050094e+00 -1.654251768318e+02 0.0 
0.0 0.0 -6.587762094533e+01 
-9.838168537965e+01 6.665307148662e+00 0.0 
6.665307148662e+00 -2.085194347700e+02 0.0 
0.0 0.0 -9.167033604488e+01 
-7.643414881704e+01 4.537598196894e+00 0.0 
4.537598196894e+00 -2.152257546858e+02 0.0 
0.0 0.0 -8.709797105084e+01 
-1.135043952135e+02 1.589827505085e+01 0.0 
1.589827505085e+01 -2.873329322590e+02 0.0 
0.0 0.0 -1.198511982418e+02 
-6.141489994725e+01 1.736434112434e+01 0.0 
1.736434112434e+01 -1.168716007373e+02 0.0 
0.0 0.0 -5.308595020536e+01 
-8.386751666981e+01 1.903868088313e+01 0.0 
1.903868088313e+01 -1.864171524796e+02 0.0 
0.0 0.0 -8.068540074484e+01 
-9.253107541278e+01 1.619395878267e+01 0.0 
1.619395878267e+01 -1.903408901606e+02 0.0 
0.0 0.0 -8.446158967200e+01 
-7.843159123631e+01 1.870493914266e+01 0.0 
1.870493914266e+01 -1.910931847824e+02 0.0 
0.0 0.0 -8.045743280562e+01 
-1.072124234538e+02 5.732991303168e-01 0.0 
5.732991303168e-01 -2.743530372879e+02 0.0 
0.0 0.0 -1.140696382225e+02 
-1.219708174069e+02 6.164792073273e+00 0.0 
6.164792073273e+00 -3.091142278968e+02 0.0 
0.0 0.0 -1.289255135911e+02 
-2.813806907163e+01 4.146599383659e-01 0.0 
4.146599383659e-01 -7.898352345325e+01 0.0 
0.0 0.0 -3.173647775746e+01 
-4.354473934283e+01 1.722146794972e+01 0.0 
1.722146794972e+01 -1.145419813814e+02 0.0 
0.0 0.0 -4.702601621727e+01 
-8.047246035319e+01 4.600902154431e+00 0.0 
4.600902154431e+00 -1.577308597577e+02 0.0 
0.0 0.0 -7.106099603328e+01 
-1.152208202044e+02 2.045349934079e+01 0.0 
2.045349934079e+01 -2.715943774006e+02 0.0 
0.0 0.0 -1.156445592815e+02 
-1.075426975344e+02 5.690423410191e+00 0.0 
5.690423410191e+00 -2.401953953819e+02 0.0 
0.0 0.0 -1.039214278749e+02 
-5.568477504843e+01 1.957999104379e+01 0.0 
1.957999104379e+01 -1.245145860317e+02 0.0 
0.0 0.0 -5.365980832405e+01 
-1.220889251227e+02 4.741479404636e+00 0.0 
4.741479404636e+00 -3.083920717048e+02 0.0 
0.0 0.0 -1.287442990482e+02 
-1.048332669437e+02 7.575101644655e+00 0.0 
7.575101644655e+00 -2.283479657247e+02 0.0 
0.0 0.0 -9.955436980051e+01 
-7.842490529207e+01 1.082079150189e+00 0.0 
1.082079150189e+00 -2.138589702926e+02 0.0 
0.0 0.0 -8.728516267541e+01 
-3.373632648514e+01 -3.020007072658e-01 0.0 
-3.020007072658e-01 -9.115828423027e+01 0.0 
0.0 0.0 -3.706838321462e+01 
-2.345064586924e+01 6.309946111867e+00 0.0 
6.309946111867e+00 -5.861619872528e+01 0.0 
0.0 0.0 -2.422005337835e+01 
-4.246297316451e+01 5.697317755406e+00 0.0 
5.697317755406e+00 -1.303418768790e+02 0.0 
0.0 0.0 -5.144145501306e+01 
-6.948528953867e+01 1.468286496372e+01 0.0 
1.468286496372e+01 -1.897641399311e+02 0.0 
0.0 0.0 -7.737482884093e+01 
-8.650800371302e+01 1.834187318457e+00 0.0 
1.834187318457e+00 -2.328842510518e+02 0.0 
0.0 0.0 -9.541767642946e+01 
-1.139358979401e+02 1.261436547130e+01 0.0 
1.261436547130e+01 -2.525508189030e+02 0.0 
0.0 0.0 -1.095460150529e+02 
-1.268710266533e+02 4.383559295430e+00 0.0 
4.383559295430e+00 -3.172016581582e+02 0.0 
0.0 0.0 -1.328218054434e+02 
-1.114316417565e+02 8.616177892322e+00 0.0 
8.616177892322e+00 -2.896055353915e+02 0.0 
0.0 0.0 -1.199111531444e+02 
-2.011245528512e+01 1.120766890265e+01 0.0 
1.120766890265e+01 -2.192904702943e+01 0.0 
0.0 0.0 -1.221245069437e+01 
-5.625371560801e+01 6.990408272974e+00 0.0 
6.990408272974e+00 -9.094516270516e+01 0.0 
0.0 0.0 -4.375966349395e+01 
-1.316457022329e+02 3.983749424198e+00 0.0 
3.983749424198e+00 -3.259932263420e+02 0.0 
0.0 0.0 -1.368916785725e+02 
-7.916590885530e+01 7.996967880271e+00 0.0 
7.996967880271e+00 -2.220040986581e+02 0.0 
0.0 0.0 -8.995100225401e+01 
-1.183779202149e+02 1.539122969007e+01 0.0 
1.539122969007e+01 -2.985271592020e+02 0.0 
0.0 0.0 -1.246715238251e+02 
-8.529159121779e+01 1.188181664844e-01 0.0 
1.188181664844e-01 -2.244409496196e+02 0.0 
0.0 0.0 -9.251976225121e+01 
-1.277520754389e+02 2.210628626886e+01 0.0 
2.210628626886e+01 -2.991217593725e+02 0.0 
0.0 0.0 -1.276621504434e+02 
-4.084806510553e+01 1.334255566479e+01 0.0 
1.334255566479e+01 -5.929939098787e+01 0.0 
0.0 0.0 -2.964423682802e+01 
-1.364407466070e+02 3.526106584654e+00 0.0 
3.526106584654e+00 -3.350014434984e+02 0.0 
0.0 0.0 -1.410326570316e+02 
-1.105203537279e+02 1.044373404779e+01 0.0 
1.044373404779e+01 -2.875088869430e+02 0.0 
0.0 0.0 -1.190087722013e+02 
-4.051451670372e+01 1.233136910563e+01 0.0 
1.233136910563e+01 -1.193489815094e+02 0.0 
0.0 0.0 -4.755904946393e+01 
-4.969230196085e+01 3.908759866812e-02 0.0 
3.908759866812e-02 -9.490013220952e+01 0.0 
0.0 0.0 -4.297773025111e+01 
-1.478730363441e+02 3.871043540140e+00 0.0 
3.871043540140e+00 -3.563266754682e+02 0.0 
0.0 0.0 -1.508599135437e+02 
-1.203422550929e+02 1.150135864230e+01 0.0 
1.150135864230e+01 -3.062015304168e+02 0.0 
0.0 0.0 -1.275631356529e+02 
-8.654538519340e+01 1.878418458250e+01 0.0 
1.878418458250e+01 -2.096475541978e+02 0.0 
0.0 0.0 -8.845788181736e+01 
-7.555186240223e+01 6.425526281205e+00 0.0 
6.425526281205e+00 -2.139994201357e+02 0.0 
0.0 0.0 -8.646538476138e+01 
-4.296625308333e+01 6.051955256455e+00 0.0 
6.051955256455e+00 -6.159219592438e+01 0.0 
0.0 0.0 -3.096753470231e+01 
-9.078106445365e+01 1.801733360303e+00 0.0 
1.801733360303e+00 -2.416975763274e+02 0.0 
0.0 0.0 -9.934359223431e+01 
-8.818531543533e+01 1.863415162597e+01 0.0 
1.863415162597e+01 -1.917260168138e+02 0.0 
0.0 0.0 -8.357339967474e+01 
-1.172556091367e+02 1.069118090482e+01 0.0 
1.069118090482e+01 -2.681753954449e+02 0.0 
0.0 0.0 -1.152293013745e+02 
-1.245128227959e+02 1.297542944294e+01 0.0 
1.297542944294e+01 -3.132377143515e+02 0.0 
0.0 0.0 -1.309251611442e+02 
-8.749133716830e+01 9.665985549381e+00 0.0 
9.665985549381e+00 -1.696858975786e+02 0.0 
0.0 0.0 -7.675317042408e+01 
-8.668698396966e+01 1.145669495917e+00 0.0 
1.145669495917e+00 -2.313945984146e+02 0.0 
0.0 0.0 -9.502447471529e+01 
-9.466120805531e+01 1.623162959980e+01 0.0 
1.623162959980e+01 -2.440234806219e+02 0.0 
0.0 0.0 -1.012054066032e+02 
-1.927711720541e+01 -8.887615395455e-01 0.0 
-8.887615395455e-01 -5.039391757577e+01 0.0 
0.0 0.0 -2.050131043436e+01 
-4.874966061436e+01 9.386092299135e+00 0.0 
9.386092299135e+00 -7.368157769388e+01 0.0 
0.0 0.0 -3.632937149247e+01 
-9.078818768922e+01 1.143825916704e+00 0.0 
1.143825916704e+00 -2.400324937857e+02 0.0 
0.0 0.0 -9.884620444249e+01 
-4.611306112363e+01 4.782056564379e+00 0.0 
4.782056564379e+00 -1.405980358642e+02 0.0 
0.0 0.0 -5.561332909636e+01 
-7.997293651232e+01 5.941146652101e+00 0.0 
5.941146652101e+00 -2.238133922778e+02 0.0 
0.0 0.0 -9.073589863705e+01 
-1.316465051475e+02 1.966615714837e+01 0.0 
1.966615714837e+01 -3.183214393255e+02 0.0 
0.0 0.0 -1.345903833419e+02 
-9.488978651450e+01 1.100306815575e+00 0.0 
1.100306815575e+00 -2.486520759595e+02 0.0 
0.0 0.0 -1.026625587422e+02 
-5.259087273404e+01 5.780252816260e+00 0.0 
5.780252816260e+00 -1.582295632473e+02 0.0 
0.0 0.0 -6.284613079441e+01 
-9.898053719067e+01 1.005817861955e+00 0.0 
1.005817861955e+00 -2.572040754051e+02 0.0 
0.0 0.0 -1.064553837787e+02 
-3.501244230909e+01 8.656909606877e+00 0.0 
8.656909606877e+00 -4.383871433931e+01 0.0 
0.0 0.0 -2.325534699452e+01 
-9.170779518331e+01 1.145315857526e+01 0.0 
1.145315857526e+01 -1.813238941688e+02 0.0 
0.0 0.0 -8.150950680563e+01 
-1.030846472458e+02 8.602012811420e-01 0.0 
8.602012811420e-01 -2.656766754965e+02 0.0 
0.0 0.0 -1.102283968227e+02 
-9.587326961935e+01 1.883591290783e+01 0.0 
1.883591290783e+01 -2.114734838961e+02 0.0 
0.0 0.0 -9.180402605463e+01 
-2.047892493885e+01 -1.296664357044e+00 0.0 
-1.296664357044e+00 -5.273398555757e+01 0.0 
0.0 0.0 -2.156387314893e+01 
-9.034686549491e+01 1.836345779770e+01 0.0 
1.836345779770e+01 -2.231495596688e+02 0.0 
0.0 0.0 -9.364892754912e+01 
-1.355401097830e+02 1.087021824754e+00 0.0 
1.087021824754e+00 -3.322228134627e+02 0.0 
0.0 0.0 -1.399288769737e+02 
-5.587125204703e+01 -5.655130167193e-01 0.0 
-5.655130167193e-01 -1.585071129696e+02 0.0 
0.0 0.0 -6.391350950499e+01 
-8.449050404345e+01 5.546176762079e+00 0.0 
5.546176762079e+00 -2.335293237405e+02 0.0 
0.0 0.0 -9.500594833520e+01 
-9.891832464896e+01 1.261476272590e+01 0.0 
1.261476272590e+01 -2.022639192417e+02 0.0 
0.0 0.0 -8.995467316720e+01 
-2.815503773205e+01 1.285288096205e+01 0.0 
1.285288096205e+01 -3.098602650489e+01 0.0 
0.0 0.0 -1.734231927108e+01 
-9.299554353258e+01 6.558296835787e+00 0.0 
6.558296835787e+00 -2.520123059027e+02 0.0 
0.0 0.0 -1.031023548306e+02 
-1.035145497758e+02 1.920070524353e+01 0.0 
1.920070524353e+01 -2.312376990432e+02 0.0 
0.0 0.0 -1.000256746457e+02 
-9.440155719851e+01 1.786268877808e+01 0.0 
1.786268877808e+01 -2.363596390109e+02 0.0 
0.0 0.0 -9.882835886282e+01 
-7.757691290348e+01 1.516417637518e+01 0.0 
1.516417637518e+01 -2.075835344476e+02 0.0 
0.0 0.0 -8.514813420532e+01 
-1.019761616047e+02 7.580840008429e+00 0.0 
7.580840008429e+00 -2.707377895867e+02 0.0 
0.0 0.0 -1.114141853574e+02 
-3.337350528516e+01 1.713536158640e+01 0.0 
1.713536158640e+01 -5.211247702300e+01 0.0 
0.0 0.0 -2.524579469245e+01 
-4.241691826267e+01 -2.011995021394e+00 0.0 
-2.011995021394e+00 -1.176605587194e+02 0.0 
0.0 0.0 -4.762324309461e+01 
-3.601304601057e+01 -2.273136016542e+00 0.0 
-2.273136016542e+00 -9.836839981624e+01 0.0 
0.0 0.0 -3.991443374804e+01 
-5.653094651961e+01 5.036695179154e+00 0.0 
5.036695179154e+00 -1.682816785134e+02 0.0 
0.0 0.0 -6.704378750991e+01 
-1.072719806934e+02 1.895127988908e+01 0.0 
1.895127988908e+01 -2.374550901018e+02 0.0 
0.0 0.0 -1.030181212386e+02 
-2.496916328197e+01 -5.235885915397e-01 0.0 
-5.235885915397e-01 -6.698563626227e+01 0.0 
0.0 0.0 -2.718643986327e+01 
-9.960954499846e+01 1.483445362518e+01 0.0 
1.483445362518e+01 -2.057913283834e+02 0.0 
0.0 0.0 -9.122026201456e+01 
-2.737873686880e+01 -2.446259448661e+00 0.0 
-2.446259448661e+00 -7.083347434320e+01 0.0 
0.0 0.0 -2.906366336360e+01 
-5.370128130740e+01 3.420440780521e+00 0.0 
3.420440780521e+00 -1.602463901416e+02 0.0 
0.0 0.0 -6.378430143469e+01 
-1.080527333703e+02 1.801561772203e+01 0.0 
1.801561772203e+01 -2.687050407223e+02 0.0 
0.0 0.0 -1.126273322278e+02 
-7.156230210020e+01 3.770562251918e-01 0.0 
3.770562251918e-01 -1.488837029349e+02 0.0 
0.0 0.0 -6.573380151053e+01 
-5.757507723657e+01 2.923683603565e+00 0.0 
2.923683603565e+00 -1.696362594869e+02 0.0 
0.0 0.0 -6.776340101703e+01 
-4.100539352562e+01 -3.059658911790e-01 0.0 
-3.059658911790e-01 -1.108161247152e+02 0.0 
0.0 0.0 -4.514645547224e+01 
-5.469412457781e+01 1.574284272809e+00 0.0 
1.574284272809e+00 -1.608093505878e+02 0.0 
0.0 0.0 -6.425104254969e+01 
-8.595303476280e+01 1.565339350690e+01 0.0 
1.565339350690e+01 -2.256304064801e+02 0.0 
0.0 0.0 -9.307503237287e+01 
-5.849397302106e+01 1.324775422583e+00 0.0 
1.324775422583e+00 -1.697596366711e+02 0.0 
0.0 0.0 -6.807608290765e+01 
-5.549748144397e+01 2.731366068458e-01 0.0 
2.731366068458e-01 -1.602626816444e+02 0.0 
0.0 0.0 -6.432804892652e+01 
-1.070999648706e+02 3.212532824558e+00 0.0 
3.212532824558e+00 -2.430206380406e+02 0.0 
0.0 0.0 -1.046361808734e+02 
-5.915515765191e+01 2.045428348179e-01 0.0 
2.045428348179e-01 -1.687890264893e+02 0.0 
0.0 0.0 -6.798325524237e+01 
-1.131980099808e+02 9.764256038923e-01 0.0 
9.764256038923e-01 -2.615912849532e+02 0.0 
0.0 0.0 -1.120367884802e+02 
-1.571251149453e+02 1.304868291444e+00 0.0 
1.304868291444e+00 -3.729542845985e+02 0.0 
0.0 0.0 -1.586238198631e+02 
-5.575164392731e+01 2.056344837933e-01 0.0 
2.056344837933e-01 -1.098711066002e+02 0.0 
0.0 0.0 -4.928682515825e+01 
-2.381738979574e+01 1.581707398344e+01 0.0 
1.581707398344e+01 -2.583595905247e+01 0.0 
0.0 0.0 -1.449600465446e+01 
-1.929821977574e+01 8.755350139596e-02 0.0 
8.755350139596e-02 -1.672082807485e+01 0.0 
0.0 0.0 -1.067026688461e+01 
-2.887245160226e+01 1.771580138324e+01 0.0 
1.771580138324e+01 -5.167631347460e+01 0.0 
0.0 0.0 -2.376462952306e+01 
-4.926050625203e+01 -1.255839732752e+00 0.0 
-1.255839732752e+00 -1.398522016896e+02 0.0 
0.0 0.0 -5.633381238250e+01 
-9.975206544008e+01 1.683685826598e+01 0.0 
1.683685826598e+01 -2.106510766989e+02 0.0 
0.0 0.0 -9.272094264168e+01 
-5.619130108897e+01 1.075005743846e-01 0.0 
1.075005743846e-01 -1.106138379262e+02 0.0 
0.0 0.0 -4.964154170455e+01 
-4.597349424295e+01 -1.742936459787e+00 0.0 
-1.742936459787e+00 -1.290173323523e+02 0.0 
0.0 0.0 -5.209724797857e+01 
-1.198953039172e+02 1.837421030463e+01 0.0 
1.837421030463e+01 -2.690405463045e+02 0.0 
0.0 0.0 -1.162807550665e+02 
-1.374474700153e+02 2.318067331358e+01 0.0 
2.318067331358e+01 -3.236604683435e+02 0.0 
0.0 0.0 -1.379323815076e+02 
-8.275370925923e+01 6.304082585884e-01 0.0 
6.304082585884e-01 -1.775700406138e+02 0.0 
0.0 0.0 -7.769712496192e+01 
-1.232334885005e+02 1.485803114725e+01 0.0 
1.485803114725e+01 -3.088702760241e+02 0.0 
0.0 0.0 -1.292311293574e+02 
-9.895896729869e+01 1.736983088044e+01 0.0 
1.736983088044e+01 -2.497600672301e+02 0.0 
0.0 0.0 -1.042157103586e+02 
-9.998647750779e+01 5.292026791725e-01 0.0 
5.292026791725e-01 -2.247511962347e+02 0.0 
0.0 0.0 -9.702130212273e+01 
-4.985971084216e+01 3.988364506627e-01 0.0 
3.988364506627e-01 -9.350644770684e+01 0.0 
0.0 0.0 -4.260984756470e+01 
-1.658644120871e+01 -1.849484149811e+00 0.0 
-1.849484149811e+00 -3.301465201389e+01 0.0 
0.0 0.0 -1.460335514226e+01 
-1.119593410706e+02 3.177145215831e-01 0.0 
3.177145215831e-01 -2.842796086938e+02 0.0 
0.0 0.0 -1.184716849293e+02 
-2.290760086950e+01 1.592777199797e+01 0.0 
1.592777199797e+01 -2.521391635643e+01 0.0 
0.0 0.0 -1.403645516778e+01 
-2.511586257183e+01 1.598701939432e+01 0.0 
1.598701939432e+01 -4.537682466724e+01 0.0 
0.0 0.0 -2.074780617172e+01 
-2.324828465512e+01 1.376381782228e+01 0.0 
1.376381782228e+01 -4.230713669575e+01 0.0 
0.0 0.0 -1.926662640526e+01 
-5.040401504728e+01 -6.807821156956e-01 0.0 
-6.807821156956e-01 -1.368827084121e+02 0.0 
0.0 0.0 -5.578601703780e+01 
-2.210830342209e+01 -2.413793735899e+00 0.0 
-2.413793735899e+00 -4.908159941786e+01 0.0 
0.0 0.0 -2.095697085199e+01 
-2.326882089616e+01 1.553361405050e+01 0.0 
1.553361405050e+01 -2.784578929685e+01 0.0 
0.0 0.0 -1.493438305790e+01 
-1.366795223192e+02 1.732523273582e+01 0.0 
1.732523273582e+01 -3.322697758638e+02 0.0 
0.0 0.0 -1.402847894549e+02 
-5.934817949177e+01 1.293075334009e+00 0.0 
1.293075334009e+00 -1.114406367227e+02 0.0 
0.0 0.0 -5.083664486433e+01 
-1.120221076040e+02 1.902962757699e+01 0.0 
1.902962757699e+01 -2.739275463038e+02 0.0 
0.0 0.0 -1.153848961723e+02 
-2.228127813846e+01 1.413117278361e+01 0.0 
1.413117278361e+01 -2.597560437918e+01 0.0 
0.0 0.0 -1.407706475529e+01 
-1.109222469651e+02 8.530528785353e+00 0.0 
8.530528785353e+00 -2.480106637180e+02 0.0 
0.0 0.0 -1.072798732049e+02 
-1.312365434559e+02 2.107259149683e+01 0.0 
2.107259149683e+01 -3.139126024936e+02 0.0 
0.0 0.0 -1.331447437849e+02 
-1.560345248158e+02 7.513618436645e+00 0.0 
7.513618436645e+00 -3.710625858391e+02 0.0 
0.0 0.0 -1.577291331965e+02 
-1.211668220439e+02 1.985746838646e+01 0.0 
1.985746838646e+01 -2.931381225309e+02 0.0 
0.0 0.0 -1.238914833724e+02 
-2.117379739963e+01 1.038257778841e+01 0.0 
1.038257778841e+01 -3.689755907515e+01 0.0 
0.0 0.0 -1.702140694243e+01 
-6.988872689601e+01 3.779184937911e+00 0.0 
3.779184937911e+00 -1.296975766236e+02 0.0 
0.0 0.0 -5.947589105588e+01 
-1.249817799235e+02 2.171249570723e+01 0.0 
2.171249570723e+01 -2.885466659596e+02 0.0 
0.0 0.0 -1.236585337649e+02 
-8.900115080945e+01 1.017826201226e+00 0.0 
1.017826201226e+00 -1.933262936163e+02 0.0 
0.0 0.0 -8.429823332773e+01 
-1.576045127954e+02 5.574732680456e+00 0.0 
5.574732680456e+00 -3.737463925510e+02 0.0 
0.0 0.0 -1.590052716039e+02 
-5.988825820282e+01 1.634846009554e+00 0.0 
1.634846009554e+00 -1.095291837099e+02 0.0 
0.0 0.0 -5.042523257383e+01 
-1.075469358396e+02 2.018739444832e+00 0.0 
2.018739444832e+00 -2.453521674944e+02 0.0 
0.0 0.0 -1.054697310002e+02 
-2.643025049616e+01 -7.880860570588e-01 0.0 
-7.880860570588e-01 -7.048573061743e+01 0.0 
0.0 0.0 -2.867479433408e+01 
-1.074063540081e+02 9.820379592461e-01 0.0 
9.820379592461e-01 -2.454338019920e+02 0.0 
0.0 0.0 -1.054520468000e+02 
-1.069052324726e+02 1.761893896488e+01 0.0 
1.761893896488e+01 -2.311313634436e+02 0.0 
0.0 0.0 -1.010109787748e+02 
-6.659844727648e+01 5.527043854533e-01 0.0 
5.527043854533e-01 -1.346611619925e+02 0.0 
0.0 0.0 -5.997788278070e+01 
-7.166285071397e+01 5.199527569369e+00 0.0 
5.199527569369e+00 -1.305651242890e+02 0.0 
0.0 0.0 -6.026839250090e+01 
-1.504949276270e+02 1.910343196357e+00 0.0 
1.910343196357e+00 -3.605335277416e+02 0.0 
0.0 0.0 -1.529085366106e+02 
-1.171255354675e+02 1.597118445597e+01 0.0 
1.597118445597e+01 -2.611911985628e+02 0.0 
0.0 0.0 -1.130950202091e+02 
-1.985082164541e+01 7.857214447100e+00 0.0 
7.857214447100e+00 -3.296517884675e+01 0.0 
0.0 0.0 -1.544480014765e+01 
-8.270082397172e+01 7.047559499457e-01 0.0 
7.047559499457e-01 -1.765108387534e+02 0.0 
0.0 0.0 -7.736349881755e+01 
-6.293058944407e+01 -4.251438841319e-01 0.0 
-4.251438841319e-01 -1.703250509017e+02 0.0 
0.0 0.0 -6.957669210374e+01 
-1.996073087896e+01 -1.030633730029e+00 0.0 
-1.030633730029e+00 -3.067422900314e+01 0.0 
0.0 0.0 -1.498292773559e+01 
-1.457083250613e+02 8.576434963966e+00 0.0 
8.576434963966e+00 -3.529741566302e+02 0.0 
0.0 0.0 -1.492047445074e+02 
-1.133490479025e+02 1.842780836043e+01 0.0 
1.842780836043e+01 -2.504293171414e+02 0.0 
0.0 0.0 -1.087335095132e+02 
-1.493207340572e+02 3.082092646652e+00 0.0 
3.082092646652e+00 -3.588488698403e+02 0.0 
0.0 0.0 -1.520508811693e+02 
-1.856781383326e+01 -3.473968083698e-01 0.0 
-3.473968083698e-01 -4.992896210798e+01 0.0 
0.0 0.0 -2.014903278237e+01 
-1.460447108330e+01 -1.592146617403e+00 0.0 
-1.592146617403e+00 -3.116470064494e+01 0.0 
0.0 0.0 -1.341267000832e+01 
-1.456164760105e+02 1.081991627975e+01 0.0 
1.081991627975e+01 -3.525955893145e+02 0.0 
0.0 0.0 -1.490636195975e+02 
-1.229735950300e+02 2.037224230543e+01 0.0 
2.037224230543e+01 -2.796059323849e+02 0.0 
0.0 0.0 -1.203738582245e+02 
-2.950830854033e+01 -1.283714491272e+00 0.0 
-1.283714491272e+00 -8.010822629608e+01 0.0 
0.0 0.0 -3.248496045092e+01 
-1.161000691403e+02 7.324597405242e+00 0.0 
7.324597405242e+00 -2.673780733389e+02 0.0 
0.0 0.0 -1.146434427438e+02 
-1.805897190587e+01 5.840717519598e+00 0.0 
5.840717519598e+00 -2.350647834647e+01 0.0 
0.0 0.0 -1.215143906075e+01 
-4.973545643397e+01 2.234050586331e-01 0.0 
2.234050586331e-01 -9.147713614108e+01 0.0 
0.0 0.0 -4.196377777251e+01 
-1.374071685646e+01 -9.995848023396e-01 0.0 
-9.995848023396e-01 -3.236845420774e+01 0.0 
0.0 0.0 -1.360852092393e+01 
-1.579555879986e+02 4.640029318635e+00 0.0 
4.640029318635e+00 -3.743130326963e+02 0.0 
0.0 0.0 -1.592805862085e+02 
-1.093005048055e+02 5.167237002382e+00 0.0 
5.167237002382e+00 -2.475034983976e+02 0.0 
0.0 0.0 -1.066412009609e+02 
-6.991262690183e+01 -3.644989118100e-01 0.0 
-3.644989118100e-01 -1.874600939721e+02 0.0 
0.0 0.0 -7.681181626216e+01 
-5.763030302747e+01 3.019399174020e+00 0.0 
3.019399174020e+00 -9.884573662158e+01 0.0 
0.0 0.0 -4.654281189471e+01 
-4.592491545246e+01 -5.791975782580e-01 0.0 
-5.791975782580e-01 -1.242034820101e+02 0.0 
0.0 0.0 -5.063851923876e+01 
-1.222211383561e+02 2.106834700905e+01 0.0 
2.106834700905e+01 -2.881626934057e+02 0.0 
0.0 0.0 -1.227151495285e+02 
-2.062028617320e+01 -2.348736845013e+00 0.0 
-2.348736845013e+00 -4.624835901677e+01 0.0 
0.0 0.0 -1.966059355699e+01 
-1.092219008788e+02 3.900674989764e+00 0.0 
3.900674989764e+00 -2.487932206405e+02 0.0 
0.0 0.0 -1.070045364558e+02 
-1.441170322655e+02 1.315016373752e+01 0.0 
1.315016373752e+01 -3.491961819923e+02 0.0 
0.0 0.0 -1.475939642774e+02 
-1.146858582258e+02 1.178605073635e+01 0.0 
1.178605073635e+01 -2.565349590996e+02 0.0 
0.0 0.0 -1.109662451976e+02 
-1.458708666100e+02 2.064890144444e+01 0.0 
2.064890144444e+01 -3.460525220838e+02 0.0 
0.0 0.0 -1.471770166081e+02 
-1.947987874294e+01 1.182321449112e+00 0.0 
1.182321449112e+00 -2.783931936639e+01 0.0 
0.0 0.0 -1.389761373973e+01 
-1.323529667582e+02 2.198932852022e+01 0.0 
2.198932852022e+01 -3.141809312075e+02 0.0 
0.0 0.0 -1.335601693897e+02 
-1.328349057562e+02 1.378858190097e+01 0.0 
1.378858190097e+01 -3.285141766143e+02 0.0 
0.0 0.0 -1.380047247111e+02 
-4.933827032745e+01 -8.563851724626e-02 0.0 
-8.563851724626e-02 -9.330092670273e+01 0.0 
0.0 0.0 -4.239175910905e+01 
-1.157142219839e+02 1.378165907069e+01 0.0 
1.378165907069e+01 -2.577453178634e+02 0.0 
0.0 0.0 -1.116378619542e+02 
-5.646593205242e+01 -6.451751424409e-01 0.0 
-6.451751424409e-01 -1.526403296384e+02 0.0 
0.0 0.0 -6.233187850723e+01 
-2.515118532417e+01 -1.170052683068e+00 0.0 
-1.170052683068e+00 -6.601597554380e+01 0.0 
0.0 0.0 -2.695014826039e+01 
-1.138399648328e+02 5.738651774532e-01 0.0 
5.738651774532e-01 -2.636193323994e+02 0.0 
0.0 0.0 -1.128377891696e+02 
-5.708074599984e+00 -5.078005265014e-02 0.0 
-5.078005265014e-02 -1.414895762006e+01 0.0 
0.0 0.0 -5.869460740677e+00 
-4.834491356105e+01 9.765671296166e-02 0.0 
9.765671296166e-02 -9.224043165386e+01 0.0 
0.0 0.0 -4.177560356447e+01 
-1.594631431253e+02 4.293445590369e-01 0.0 
4.293445590369e-01 -3.771629347606e+02 0.0 
0.0 0.0 -1.605878233657e+02 
-2.389212328744e+01 -8.420606585922e-01 0.0 
-8.420606585922e-01 -6.308188634125e+01 0.0 
0.0 0.0 -2.569220288861e+01 
-6.178461651437e+01 2.967831177305e-01 0.0 
2.967831177305e-01 -1.242476285426e+02 0.0 
0.0 0.0 -5.540967351710e+01 
-1.220966314070e+02 1.961079754578e+01 0.0 
1.961079754578e+01 -2.761815396084e+02 0.0 
0.0 0.0 -1.190834513046e+02 
-8.735982843927e+01 2.564936734939e-02 0.0 
2.564936734939e-02 -2.294447865687e+02 0.0 
0.0 0.0 -9.464138450239e+01 
-9.593487543137e+01 1.002409739041e+00 0.0 
1.002409739041e+00 -2.133204507884e+02 0.0 
0.0 0.0 -9.237659786594e+01 
-2.524867040811e+01 -2.449575223601e+00 0.0 
-2.449575223601e+00 -6.152286829935e+01 0.0 
0.0 0.0 -2.563146161224e+01 
-1.896971960391e+01 -5.785898318911e-01 0.0 
-5.785898318911e-01 -1.437867342905e+01 0.0 
0.0 0.0 -1.002179054742e+01 
-7.571770171741e+01 5.601223049078e-01 0.0 
5.601223049078e-01 -1.592449902403e+02 0.0 
0.0 0.0 -7.008880758732e+01 
-1.341617838809e+02 2.058899584751e+01 0.0 
2.058899584751e+01 -3.218685919775e+02 0.0 
0.0 0.0 -1.364091127575e+02 
-1.132582051579e+02 9.661918129146e+00 0.0 
9.661918129146e+00 -2.545379900886e+02 0.0 
0.0 0.0 -1.099388585739e+02 
-7.076857002291e+01 5.364468657151e-01 0.0 
5.364468657151e-01 -1.455071542366e+02 0.0 
0.0 0.0 -6.448271727787e+01 
-2.140455149681e+01 6.367588892858e+00 0.0 
6.367588892858e+00 -4.536914033708e+01 0.0 
0.0 0.0 -1.963210755017e+01 
-1.187095279596e+02 1.925679601298e+01 0.0 
1.925679601298e+01 -2.662643522936e+02 0.0 
0.0 0.0 -1.150921640760e+02 
-7.604516574718e+01 -5.081973340654e-02 0.0 
-5.081973340654e-02 -2.022604038052e+02 0.0 
0.0 0.0 -8.309167086572e+01 
-1.209103303704e+02 2.127355979897e+01 0.0 
2.127355979897e+01 -2.791790510354e+02 0.0 
0.0 0.0 -1.196268144217e+02 
-1.309417796512e+02 1.593348136104e+01 0.0 
1.593348136104e+01 -3.230235070577e+02 0.0 
0.0 0.0 -1.357895860127e+02 
-1.670209737387e+01 6.509726934725e+00 0.0 
6.509726934725e+00 -1.255628168020e+01 0.0 
0.0 0.0 -8.644592693328e+00 
-9.463057845239e+01 3.836876124408e-02 0.0 
3.836876124408e-02 -2.462971263283e+02 0.0 
0.0 0.0 -1.018783114342e+02 
-1.356566508997e+01 -1.034215978919e+00 0.0 
-1.034215978919e+00 -3.032188837360e+01 0.0 
0.0 0.0 -1.286781758858e+01 
-1.496084250960e+02 6.579776160002e+00 0.0 
6.579776160002e+00 -3.597801189016e+02 0.0 
0.0 0.0 -1.524165631993e+02 
-7.943285760054e+01 6.774524602206e-02 0.0 
6.774524602206e-02 -2.107047235423e+02 0.0 
0.0 0.0 -8.664127434286e+01 
-1.330139031483e+01 2.973021253137e+00 0.0 
2.973021253137e+00 -7.722318956281e+00 0.0 
0.0 0.0 -5.907112781333e+00 
-1.410029228727e+01 8.448724924303e-02 0.0 
8.448724924303e-02 -1.045004049206e+01 0.0 
0.0 0.0 -6.965099833798e+00 
-2.471098938722e+01 3.087516818867e+00 0.0 
3.087516818867e+00 -2.911518616474e+01 0.0 
0.0 0.0 -1.574785266559e+01 
-2.151492416540e+01 -3.106950059464e-02 0.0 
-3.106950059464e-02 -2.892374398231e+01 0.0 
0.0 0.0 -1.473160044431e+01 
-3.484833956823e+01 2.534381414428e+00 0.0 
2.534381414428e+00 -4.895271599776e+01 0.0 
0.0 0.0 -2.474031666980e+01 
-3.030226995013e+01 -7.655196137834e-02 0.0 
-7.655196137834e-02 -4.956072615596e+01 0.0 
0.0 0.0 -2.355889883183e+01 
-4.403188209608e+01 2.208944588420e+00 0.0 
2.208944588420e+00 -6.871718166020e+01 0.0 
0.0 0.0 -3.342471912688e+01 
-3.798469831528e+01 -1.713606341595e-01 0.0 
-1.713606341595e-01 -6.792363445228e+01 0.0 
0.0 0.0 -3.137249983027e+01 

TENSORS node_materi_strain_total float
1.769617313574e-06 1.160244772620e-07 0.0 
1.160244772620e-07 1.452084165887e-05 0.0 
0.0 0.0 0.0 
-8.786991864032e-05 -2.798357365253e-06 0.0 
-2.798357365253e-06 1.531762119306e-03 0.0 
0.0 0.0 0.0 
8.313076526378e-06 6.986825343112e-06 0.0 
6.986825343112e-06 1.236412195351e-03 0.0 
0.0 0.0 0.0 
-5.995656660818e-06 1.385956314316e-06 0.0 
1.385956314316e-06 2.085165336189e-03 0.0 
0.0 0.0 0.0 
5.595429452665e-06 -1.057833028287e-06 0.0 
-1.057833028287e-06 4.359746421353e-05 0.0 
0.0 0.0 0.0 
1.362019352606e-05 1.079914817103e-06 0.0 
1.079914817103e-06 1.009169879520e-04 0.0 
0.0 0.0 0.0 
2.498479752807e-05 1.071294868094e-06 0.0 
1.071294868094e-06 1.534348100084e-04 0.0 
0.0 0.0 0.0 
3.590537200878e-05 7.652867548975e-07 0.0 
7.652867548975e-07 2.126039813819e-04 0.0 
0.0 0.0 0.0 
4.718984742265e-05 4.988950870584e-07 0.0 
4.988950870584e-07 2.697940507994e-04 0.0 
0.0 0.0 0.0 
5.861882563774e-05 4.969856183195e-07 0.0 
4.969856183195e-07 3.262762463911e-04 0.0 
0.0 0.0 0.0 
6.892215285677e-05 7.216783314230e-07 0.0 
7.216783314230e-07 3.833092481774e-04 0.0 
0.0 0.0 0.0 
7.784429202114e-05 8.121421468153e-07 0.0 
8.121421468153e-07 4.413046424634e-04 0.0 
0.0 0.0 0.0 
8.527843681549e-05 1.117350311204e-06 0.0 
1.117350311204e-06 5.004499519442e-04 0.0 
0.0 0.0 0.0 
9.029620753872e-05 1.875028077790e-06 0.0 
1.875028077790e-06 5.618911893624e-04 0.0 
0.0 0.0 0.0 
9.241286398853e-05 3.229111968082e-06 0.0 
3.229111968082e-06 6.269947998729e-04 0.0 
0.0 0.0 0.0 
9.383800598628e-05 3.724763858754e-06 0.0 
3.724763858754e-06 6.912005033012e-04 0.0 
0.0 0.0 0.0 
9.298158369978e-05 5.244275787623e-06 0.0 
5.244275787623e-06 7.510241478140e-04 0.0 
0.0 0.0 0.0 
8.806540618937e-05 3.273108875275e-06 0.0 
3.273108875275e-06 8.194558345391e-04 0.0 
0.0 0.0 0.0 
8.035150139067e-05 3.622283972842e-06 0.0 
3.622283972842e-06 8.917244796641e-04 0.0 
0.0 0.0 0.0 
6.994245548619e-05 4.084667338498e-06 0.0 
4.084667338498e-06 9.638222141667e-04 0.0 
0.0 0.0 0.0 
5.636748034984e-05 4.312763671875e-06 0.0 
4.312763671875e-06 1.038727460029e-03 0.0 
0.0 0.0 0.0 
3.959255374412e-05 5.239705423146e-06 0.0 
5.239705423146e-06 1.116364759772e-03 0.0 
0.0 0.0 0.0 
2.304257718944e-05 6.038794202802e-06 0.0 
6.038794202802e-06 1.191907996115e-03 0.0 
0.0 0.0 0.0 
-4.211344397283e-06 9.250809524222e-06 0.0 
9.250809524222e-06 2.087263334636e-03 0.0 
0.0 0.0 0.0 
-4.941880635156e-06 1.709996651631e-05 0.0 
1.709996651631e-05 2.083997316896e-03 0.0 
0.0 0.0 0.0 
-4.950669515373e-06 2.410221189519e-05 0.0 
2.410221189519e-05 2.084247113155e-03 0.0 
0.0 0.0 0.0 
-4.974713075923e-06 3.509793736734e-05 0.0 
3.509793736734e-05 2.082962378163e-03 0.0 
0.0 0.0 0.0 
-6.234248956701e-06 4.310263308333e-05 0.0 
4.310263308333e-05 2.079891220750e-03 0.0 
0.0 0.0 0.0 
-5.711099805554e-06 5.366001642584e-05 0.0 
5.366001642584e-05 2.079660568824e-03 0.0 
0.0 0.0 0.0 
-6.352692465406e-06 6.491156047776e-05 0.0 
6.491156047776e-05 2.076976586528e-03 0.0 
0.0 0.0 0.0 
-6.982413166064e-06 7.696883831280e-05 0.0 
7.696883831280e-05 2.072211994328e-03 0.0 
0.0 0.0 0.0 
-7.254842732155e-06 8.877015754856e-05 0.0 
8.877015754856e-05 2.069228132692e-03 0.0 
0.0 0.0 0.0 
-6.944810568325e-06 1.039719589498e-04 0.0 
1.039719589498e-04 2.062839901681e-03 0.0 
0.0 0.0 0.0 
-9.176857033943e-06 1.173302339227e-04 0.0 
1.173302339227e-04 2.054189985779e-03 0.0 
0.0 0.0 0.0 
-8.620084003338e-06 1.335816678728e-04 0.0 
1.335816678728e-04 2.046283687175e-03 0.0 
0.0 0.0 0.0 
-9.383532093565e-06 1.508128942288e-04 0.0 
1.508128942288e-04 2.034883619012e-03 0.0 
0.0 0.0 0.0 
-9.292976387187e-06 1.679679979657e-04 0.0 
1.679679979657e-04 2.020410945871e-03 0.0 
0.0 0.0 0.0 
-1.045025497134e-05 1.854825398563e-04 0.0 
1.854825398563e-04 2.003633740834e-03 0.0 
0.0 0.0 0.0 
-1.022798225521e-05 2.033165891870e-04 0.0 
2.033165891870e-04 1.982685252956e-03 0.0 
0.0 0.0 0.0 
-1.105005629820e-05 2.210748848395e-04 0.0 
2.210748848395e-04 1.960074266569e-03 0.0 
0.0 0.0 0.0 
-1.062424771203e-05 2.398594233324e-04 0.0 
2.398594233324e-04 1.934579526757e-03 0.0 
0.0 0.0 0.0 
-9.331970424557e-06 2.566401866229e-04 0.0 
2.566401866229e-04 1.906350242460e-03 0.0 
0.0 0.0 0.0 
-7.518558889437e-06 2.721705115644e-04 0.0 
2.721705115644e-04 1.875266342448e-03 0.0 
0.0 0.0 0.0 
-5.672836512538e-06 2.854550134182e-04 0.0 
2.854550134182e-04 1.839862347900e-03 0.0 
0.0 0.0 0.0 
-5.427365442660e-06 2.958023521157e-04 0.0 
2.958023521157e-04 1.802487565881e-03 0.0 
0.0 0.0 0.0 
-3.246664281420e-06 3.036190406136e-04 0.0 
3.036190406136e-04 1.763313852919e-03 0.0 
0.0 0.0 0.0 
-1.680449080628e-06 3.080639461102e-04 0.0 
3.080639461102e-04 1.723068526363e-03 0.0 
0.0 0.0 0.0 
-3.196759631822e-07 3.096668718074e-04 0.0 
3.096668718074e-04 1.683146734011e-03 0.0 
0.0 0.0 0.0 
1.471164137031e-06 3.087655514828e-04 0.0 
3.087655514828e-04 1.643778961233e-03 0.0 
0.0 0.0 0.0 
2.755252988799e-06 3.042448753335e-04 0.0 
3.042448753335e-04 1.604998067906e-03 0.0 
0.0 0.0 0.0 
4.814954137178e-06 2.972434905945e-04 0.0 
2.972434905945e-04 1.567480689640e-03 0.0 
0.0 0.0 0.0 
5.427404060843e-06 2.875053482333e-04 0.0 
2.875053482333e-04 1.530896860809e-03 0.0 
0.0 0.0 0.0 
5.017184363743e-06 2.761795021431e-04 0.0 
2.761795021431e-04 1.500480323845e-03 0.0 
0.0 0.0 0.0 
7.749704080388e-06 2.643234562486e-04 0.0 
2.643234562486e-04 1.466480076467e-03 0.0 
0.0 0.0 0.0 
8.599269959442e-06 2.492854142884e-04 0.0 
2.492854142884e-04 1.433583114409e-03 0.0 
0.0 0.0 0.0 
8.845861146541e-06 2.325192781260e-04 0.0 
2.325192781260e-04 1.405119035087e-03 0.0 
0.0 0.0 0.0 
8.796295034956e-06 2.165741665253e-04 0.0 
2.165741665253e-04 1.382560066655e-03 0.0 
0.0 0.0 0.0 
9.390879590843e-06 2.006643359882e-04 0.0 
2.006643359882e-04 1.360652504351e-03 0.0 
0.0 0.0 0.0 
7.926503081457e-06 1.838946013120e-04 0.0 
1.838946013120e-04 1.341291977108e-03 0.0 
0.0 0.0 0.0 
9.554173637942e-06 1.681679473441e-04 0.0 
1.681679473441e-04 1.324593306090e-03 0.0 
0.0 0.0 0.0 
8.220034825331e-06 1.518679682484e-04 0.0 
1.518679682484e-04 1.308062770871e-03 0.0 
0.0 0.0 0.0 
9.554573771201e-06 1.364184813016e-04 0.0 
1.364184813016e-04 1.293761555701e-03 0.0 
0.0 0.0 0.0 
8.311480494812e-06 1.211423252613e-04 0.0 
1.211423252613e-04 1.280789711951e-03 0.0 
0.0 0.0 0.0 
6.995480903586e-06 1.070945547465e-04 0.0 
1.070945547465e-04 1.272688347698e-03 0.0 
0.0 0.0 0.0 
7.256549534596e-06 9.403206672220e-05 0.0 
9.403206672220e-05 1.268167960637e-03 0.0 
0.0 0.0 0.0 
7.868296957166e-06 8.091837624535e-05 0.0 
8.091837624535e-05 1.263042269771e-03 0.0 
0.0 0.0 0.0 
8.816673120526e-06 6.661375624125e-05 0.0 
6.661375624125e-05 1.246160296394e-03 0.0 
0.0 0.0 0.0 
7.354948135492e-06 5.442300944591e-05 0.0 
5.442300944591e-05 1.250470649128e-03 0.0 
0.0 0.0 0.0 
6.200620697413e-06 4.318239121082e-05 0.0 
4.318239121082e-05 1.243612193133e-03 0.0 
0.0 0.0 0.0 
5.411010744435e-06 3.196040915873e-05 0.0 
3.196040915873e-05 1.242553373414e-03 0.0 
0.0 0.0 0.0 
5.802789882381e-06 2.227918447099e-05 0.0 
2.227918447099e-05 1.243417819038e-03 0.0 
0.0 0.0 0.0 
5.648077210152e-06 1.222508953650e-05 0.0 
1.222508953650e-05 1.242049871834e-03 0.0 
0.0 0.0 0.0 
-8.516609991841e-05 -1.763458105348e-06 0.0 
-1.763458105348e-06 1.595296091501e-03 0.0 
0.0 0.0 0.0 
-8.307946622121e-05 -1.685605927176e-06 0.0 
-1.685605927176e-06 1.658087733684e-03 0.0 
0.0 0.0 0.0 
-7.871854899825e-05 -1.329805578186e-06 0.0 
-1.329805578186e-06 1.718752456244e-03 0.0 
0.0 0.0 0.0 
-7.283152798669e-05 -1.053735900293e-06 0.0 
-1.053735900293e-06 1.777024272660e-03 0.0 
0.0 0.0 0.0 
-6.523441206837e-05 -4.492707963776e-07 0.0 
-4.492707963776e-07 1.835153741058e-03 0.0 
0.0 0.0 0.0 
-5.543094810234e-05 -1.705160908386e-07 0.0 
-1.705160908386e-07 1.891880268738e-03 0.0 
0.0 0.0 0.0 
-4.448954083517e-05 3.016897802154e-07 0.0 
3.016897802154e-07 1.946851884525e-03 0.0 
0.0 0.0 0.0 
-3.122173923927e-05 6.218985144889e-07 0.0 
6.218985144889e-07 2.000228005123e-03 0.0 
0.0 0.0 0.0 
-1.772629774817e-05 6.288282358172e-07 0.0 
6.288282358172e-07 2.053514574371e-03 0.0 
0.0 0.0 0.0 
-1.161382359966e-04 6.492583241361e-05 0.0 
6.492583241361e-05 7.373313411282e-05 0.0 
0.0 0.0 0.0 
-1.421867209653e-04 3.411382464393e-05 0.0 
3.411382464393e-05 1.538700236070e-03 0.0 
0.0 0.0 0.0 
-1.300882939822e-04 1.577514295610e-04 0.0 
1.577514295610e-04 1.927358880847e-04 0.0 
0.0 0.0 0.0 
-1.405329278049e-04 1.956537757685e-04 0.0 
1.956537757685e-04 3.827661587318e-04 0.0 
0.0 0.0 0.0 
-1.418838785330e-04 2.078945125995e-04 0.0 
2.078945125995e-04 5.875337225410e-04 0.0 
0.0 0.0 0.0 
-1.360990826479e-04 2.023265536746e-04 0.0 
2.023265536746e-04 7.893567446189e-04 0.0 
0.0 0.0 0.0 
-1.315506880850e-04 1.939097081930e-04 0.0 
1.939097081930e-04 9.972525205060e-04 0.0 
0.0 0.0 0.0 
-1.443488184047e-04 1.349440092543e-04 0.0 
1.349440092543e-04 1.231375259909e-03 0.0 
0.0 0.0 0.0 
-1.230269302172e-04 6.789752681824e-05 0.0 
6.789752681824e-05 1.329301046797e-03 0.0 
0.0 0.0 0.0 
-1.316343560854e-04 4.937862212917e-05 0.0 
4.937862212917e-05 1.399282627511e-03 0.0 
0.0 0.0 0.0 
-1.385714432761e-04 3.910238467986e-05 0.0 
3.910238467986e-05 1.467905360188e-03 0.0 
0.0 0.0 0.0 
-9.405774772209e-05 -4.162957895738e-06 0.0 
-4.162957895738e-06 1.299963374153e-03 0.0 
0.0 0.0 0.0 
-9.020574515051e-05 -3.954559029775e-06 0.0 
-3.954559029775e-06 1.337942265276e-03 0.0 
0.0 0.0 0.0 
-8.812868262273e-05 -5.218583887051e-06 0.0 
-5.218583887051e-06 1.401267523638e-03 0.0 
0.0 0.0 0.0 
-8.755829863016e-05 -3.709763903512e-06 0.0 
-3.709763903512e-06 1.465132354996e-03 0.0 
0.0 0.0 0.0 
-8.737994885388e-05 9.170721469954e-07 0.0 
9.170721469954e-07 1.523186139521e-03 0.0 
0.0 0.0 0.0 
-8.769255623420e-05 -4.709713736387e-07 0.0 
-4.709713736387e-07 1.527486086049e-03 0.0 
0.0 0.0 0.0 
-8.889098138293e-05 -5.999115331658e-07 0.0 
-5.999115331658e-07 1.528284200915e-03 0.0 
0.0 0.0 0.0 
-9.009020886297e-05 -9.982243928214e-07 0.0 
-9.982243928214e-07 1.527964926189e-03 0.0 
0.0 0.0 0.0 
-9.137121077826e-05 -3.715313991164e-07 0.0 
-3.715313991164e-07 1.537157209537e-03 0.0 
0.0 0.0 0.0 
-9.350396070175e-05 -8.562790557876e-07 0.0 
-8.562790557876e-07 1.530496088893e-03 0.0 
0.0 0.0 0.0 
-9.575362700931e-05 -1.066776881546e-06 0.0 
-1.066776881546e-06 1.530550084524e-03 0.0 
0.0 0.0 0.0 
-9.845912563302e-05 -3.858156557143e-07 0.0 
-3.858156557143e-07 1.532077642274e-03 0.0 
0.0 0.0 0.0 
-1.028153828510e-04 3.003045824772e-07 0.0 
3.003045824772e-07 1.534755931399e-03 0.0 
0.0 0.0 0.0 
-1.071944022748e-04 1.891721959763e-06 0.0 
1.891721959763e-06 1.535371314973e-03 0.0 
0.0 0.0 0.0 
-1.116493796831e-04 4.222236300459e-06 0.0 
4.222236300459e-06 1.535768776944e-03 0.0 
0.0 0.0 0.0 
-1.174556931847e-04 7.762296219917e-06 0.0 
7.762296219917e-06 1.536195295234e-03 0.0 
0.0 0.0 0.0 
-1.237510358524e-04 1.368823499166e-05 0.0 
1.368823499166e-05 1.536325895854e-03 0.0 
0.0 0.0 0.0 
-1.312004526384e-04 2.209252115717e-05 0.0 
2.209252115717e-05 1.536943827378e-03 0.0 
0.0 0.0 0.0 
-1.357335515288e-04 2.282515458168e-05 0.0 
2.282515458168e-05 8.111734013420e-05 0.0 
0.0 0.0 0.0 
-1.528505992209e-04 3.840055546593e-06 0.0 
3.840055546593e-06 8.471924499664e-05 0.0 
0.0 0.0 0.0 
-1.532468582384e-04 -5.800417681350e-06 0.0 
-5.800417681350e-06 8.169456037158e-05 0.0 
0.0 0.0 0.0 
-1.424045141801e-04 -7.994028950757e-06 0.0 
-7.994028950757e-06 7.620848386976e-05 0.0 
0.0 0.0 0.0 
-1.262345748351e-04 -1.013271244926e-05 0.0 
-1.013271244926e-05 7.042005751101e-05 0.0 
0.0 0.0 0.0 
-1.127448587614e-04 -1.007376599457e-05 0.0 
-1.007376599457e-05 6.535042529025e-05 0.0 
0.0 0.0 0.0 
-9.870437165579e-05 -9.612426315472e-06 0.0 
-9.612426315472e-06 5.949154057457e-05 0.0 
0.0 0.0 0.0 
-8.452611080423e-05 -9.082932723260e-06 0.0 
-9.082932723260e-06 5.329724367309e-05 0.0 
0.0 0.0 0.0 
-7.121252928577e-05 -8.762058562874e-06 0.0 
-8.762058562874e-06 4.762604861589e-05 0.0 
0.0 0.0 0.0 
-5.863974245357e-05 -8.154040190699e-06 0.0 
-8.154040190699e-06 4.214144037085e-05 0.0 
0.0 0.0 0.0 
-4.660417880042e-05 -7.312211551545e-06 0.0 
-7.312211551545e-06 3.768621290190e-05 0.0 
0.0 0.0 0.0 
-3.899147812244e-05 -6.415326052661e-06 0.0 
-6.415326052661e-06 3.484078066214e-05 0.0 
0.0 0.0 0.0 
-2.832778723346e-05 -5.137239946065e-06 0.0 
-5.137239946065e-06 2.973432556056e-05 0.0 
0.0 0.0 0.0 
-1.858592205424e-05 -4.935843972640e-06 0.0 
-4.935843972640e-06 2.465810505366e-05 0.0 
0.0 0.0 0.0 
-1.166855426489e-05 -4.734647970042e-06 0.0 
-4.734647970042e-06 2.180679962227e-05 0.0 
0.0 0.0 0.0 
-7.339379442491e-06 -3.519820949496e-06 0.0 
-3.519820949496e-06 2.026224516209e-05 0.0 
0.0 0.0 0.0 
-3.380922555585e-06 -1.944574233047e-06 0.0 
-1.944574233047e-06 1.851972437087e-05 0.0 
0.0 0.0 0.0 
9.646706344846e-07 -2.260974670984e-07 0.0 
-2.260974670984e-07 1.553459770924e-05 0.0 
0.0 0.0 0.0 
2.576273929226e-06 6.080497148641e-07 0.0 
6.080497148641e-07 1.343734836305e-05 0.0 
0.0 0.0 0.0 
-9.189485379926e-05 3.080754658079e-06 0.0 
3.080754658079e-06 1.306450947142e-03 0.0 
0.0 0.0 0.0 
-8.652920181866e-05 8.377581395558e-07 0.0 
8.377581395558e-07 1.305204023723e-03 0.0 
0.0 0.0 0.0 
-8.600490066923e-05 -5.569744884303e-07 0.0 
-5.569744884303e-07 1.304514101646e-03 0.0 
0.0 0.0 0.0 
-8.512869732757e-05 -1.255525664516e-06 0.0 
-1.255525664516e-06 1.304106334532e-03 0.0 
0.0 0.0 0.0 
-8.365484321471e-05 -1.831125649311e-06 0.0 
-1.831125649311e-06 1.303558639877e-03 0.0 
0.0 0.0 0.0 
-8.163326452130e-05 -2.378442159169e-06 0.0 
-2.378442159169e-06 1.302819219290e-03 0.0 
0.0 0.0 0.0 
-7.907798393495e-05 -2.952021540471e-06 0.0 
-2.952021540471e-06 1.301836060490e-03 0.0 
0.0 0.0 0.0 
-7.597865088471e-05 -3.550260083580e-06 0.0 
-3.550260083580e-06 1.300560087930e-03 0.0 
0.0 0.0 0.0 
-7.230193729339e-05 -4.135490673890e-06 0.0 
-4.135490673890e-06 1.299028119930e-03 0.0 
0.0 0.0 0.0 
-6.808869728854e-05 -4.699999687031e-06 0.0 
-4.699999687031e-06 1.297281787611e-03 0.0 
0.0 0.0 0.0 
-6.336952370730e-05 -5.255385002053e-06 0.0 
-5.255385002053e-06 1.295325798571e-03 0.0 
0.0 0.0 0.0 
-5.822215853975e-05 -5.758672289987e-06 0.0 
-5.758672289987e-06 1.293142842268e-03 0.0 
0.0 0.0 0.0 
-5.280878054455e-05 -6.149863531239e-06 0.0 
-6.149863531239e-06 1.290739420193e-03 0.0 
0.0 0.0 0.0 
-4.731014309127e-05 -6.107542341759e-06 0.0 
-6.107542341759e-06 1.288498718554e-03 0.0 
0.0 0.0 0.0 
-4.249674834134e-05 -5.774627851963e-06 0.0 
-5.774627851963e-06 1.286456032668e-03 0.0 
0.0 0.0 0.0 
-3.892011358431e-05 -4.163028365070e-06 0.0 
-4.163028365070e-06 1.285197270199e-03 0.0 
0.0 0.0 0.0 
-3.894568229198e-05 -1.520683958824e-06 0.0 
-1.520683958824e-06 1.283945410087e-03 0.0 
0.0 0.0 0.0 
-4.222017648337e-05 7.175645159814e-06 0.0 
7.175645159814e-06 1.284270653295e-03 0.0 
0.0 0.0 0.0 
-5.847415810384e-05 1.964239009003e-05 0.0 
1.964239009003e-05 1.284923798464e-03 0.0 
0.0 0.0 0.0 
-9.438813370203e-05 3.735543621666e-05 0.0 
3.735543621666e-05 1.284519988705e-03 0.0 
0.0 0.0 0.0 
-8.932210266042e-05 2.826785172088e-05 0.0 
2.826785172088e-05 1.321009570969e-03 0.0 
0.0 0.0 0.0 
-8.297411295539e-05 1.636675620217e-05 0.0 
1.636675620217e-05 1.331001792865e-03 0.0 
0.0 0.0 0.0 
-7.235693554669e-05 4.759954619019e-06 0.0 
4.759954619019e-06 1.327495420697e-03 0.0 
0.0 0.0 0.0 
-6.907800191710e-05 -1.001955644044e-06 0.0 
-1.001955644044e-06 1.327301849521e-03 0.0 
0.0 0.0 0.0 
-6.780134437197e-05 -3.817744131395e-06 0.0 
-3.817744131395e-06 1.327757447448e-03 0.0 
0.0 0.0 0.0 
-6.855952329080e-05 -5.405735029717e-06 0.0 
-5.405735029717e-06 1.328474183330e-03 0.0 
0.0 0.0 0.0 
-7.026489934934e-05 -5.947362730639e-06 0.0 
-5.947362730639e-06 1.329734855117e-03 0.0 
0.0 0.0 0.0 
-7.242298330268e-05 -5.940202521327e-06 0.0 
-5.940202521327e-06 1.330960072309e-03 0.0 
0.0 0.0 0.0 
-7.474831329226e-05 -5.656182784093e-06 0.0 
-5.656182784093e-06 1.332108324771e-03 0.0 
0.0 0.0 0.0 
-7.703244569609e-05 -5.234289070344e-06 0.0 
-5.234289070344e-06 1.333166412676e-03 0.0 
0.0 0.0 0.0 
-7.922779800903e-05 -4.738923235162e-06 0.0 
-4.738923235162e-06 1.334189161600e-03 0.0 
0.0 0.0 0.0 
-8.122985681190e-05 -4.120488105992e-06 0.0 
-4.120488105992e-06 1.335093920464e-03 0.0 
0.0 0.0 0.0 
-8.288820146400e-05 -3.473901471970e-06 0.0 
-3.473901471970e-06 1.335770196325e-03 0.0 
0.0 0.0 0.0 
-8.429833369176e-05 -2.850149975480e-06 0.0 
-2.850149975480e-06 1.336285875067e-03 0.0 
0.0 0.0 0.0 
-8.543436060410e-05 -2.223169127454e-06 0.0 
-2.223169127454e-06 1.336705071443e-03 0.0 
0.0 0.0 0.0 
-8.635531082905e-05 -1.552862782715e-06 0.0 
-1.552862782715e-06 1.337076158568e-03 0.0 
0.0 0.0 0.0 
-8.709061959222e-05 -8.620763321231e-07 0.0 
-8.620763321231e-07 1.337464805374e-03 0.0 
0.0 0.0 0.0 
-8.799662036981e-05 -2.977097031380e-07 0.0 
-2.977097031380e-07 1.338009455242e-03 0.0 
0.0 0.0 0.0 
-8.982653662759e-05 2.700067887801e-06 0.0 
2.700067887801e-06 1.338130810280e-03 0.0 
0.0 0.0 0.0 
-8.857716011662e-05 7.060988613844e-07 0.0 
7.060988613844e-07 1.402013768271e-03 0.0 
0.0 0.0 0.0 
-8.825504765697e-05 -1.299145119312e-06 0.0 
-1.299145119312e-06 1.402251349170e-03 0.0 
0.0 0.0 0.0 
-8.791665346825e-05 -2.120710269460e-06 0.0 
-2.120710269460e-06 1.402061727357e-03 0.0 
0.0 0.0 0.0 
-8.771269607943e-05 -2.893619307693e-06 0.0 
-2.893619307693e-06 1.401955864619e-03 0.0 
0.0 0.0 0.0 
-8.751024467019e-05 -3.688093585696e-06 0.0 
-3.688093585696e-06 1.401882850049e-03 0.0 
0.0 0.0 0.0 
-8.747577595734e-05 -4.556133395246e-06 0.0 
-4.556133395246e-06 1.401931611607e-03 0.0 
0.0 0.0 0.0 
-8.744368179903e-05 -5.373510084577e-06 0.0 
-5.373510084577e-06 1.401986375857e-03 0.0 
0.0 0.0 0.0 
-8.753217605797e-05 -6.306922599014e-06 0.0 
-6.306922599014e-06 1.401972172639e-03 0.0 
0.0 0.0 0.0 
-8.758158621032e-05 -6.935604235565e-06 0.0 
-6.935604235565e-06 1.401745802548e-03 0.0 
0.0 0.0 0.0 
-8.803234435811e-05 -7.258403410304e-06 0.0 
-7.258403410304e-06 1.401778532596e-03 0.0 
0.0 0.0 0.0 
-8.884530138061e-05 -7.321329746746e-06 0.0 
-7.321329746746e-06 1.401858405703e-03 0.0 
0.0 0.0 0.0 
-9.015087831084e-05 -6.747028547311e-06 0.0 
-6.747028547311e-06 1.401884140358e-03 0.0 
0.0 0.0 0.0 
-9.237732020451e-05 -5.254345655537e-06 0.0 
-5.254345655537e-06 1.402050429729e-03 0.0 
0.0 0.0 0.0 
-9.568082909474e-05 -2.229157394313e-06 0.0 
-2.229157394313e-06 1.401869539453e-03 0.0 
0.0 0.0 0.0 
-1.001581946483e-04 3.842923369221e-06 0.0 
3.842923369221e-06 1.402334169252e-03 0.0 
0.0 0.0 0.0 
-1.090922845019e-04 1.444070640618e-05 0.0 
1.444070640618e-05 1.405596490482e-03 0.0 
0.0 0.0 0.0 
-1.136675287569e-04 2.470425496018e-05 0.0 
2.470425496018e-05 1.394315377137e-03 0.0 
0.0 0.0 0.0 
-1.255956960127e-04 2.199772670284e-05 0.0 
2.199772670284e-05 1.462679020659e-03 0.0 
0.0 0.0 0.0 
-1.219988158775e-04 1.410315850953e-05 0.0 
1.410315850953e-05 1.474588541256e-03 0.0 
0.0 0.0 0.0 
-1.144187814365e-04 5.958626592137e-06 0.0 
5.958626592137e-06 1.472445544739e-03 0.0 
0.0 0.0 0.0 
-1.085204664540e-04 1.411568231573e-06 0.0 
1.411568231573e-06 1.471771444982e-03 0.0 
0.0 0.0 0.0 
-1.040903928193e-04 -1.539605146414e-06 0.0 
-1.539605146414e-06 1.471288710988e-03 0.0 
0.0 0.0 0.0 
-1.004855435096e-04 -3.045766463485e-06 0.0 
-3.045766463485e-06 1.470665108656e-03 0.0 
0.0 0.0 0.0 
-9.760120043763e-05 -3.797292114690e-06 0.0 
-3.797292114690e-06 1.469801423163e-03 0.0 
0.0 0.0 0.0 
-9.528208257314e-05 -4.220753041562e-06 0.0 
-4.220753041562e-06 1.469229262611e-03 0.0 
0.0 0.0 0.0 
-9.312368225663e-05 -3.854126453241e-06 0.0 
-3.854126453241e-06 1.468740827129e-03 0.0 
0.0 0.0 0.0 
-9.175288418097e-05 -3.649852331327e-06 0.0 
-3.649852331327e-06 1.468025459622e-03 0.0 
0.0 0.0 0.0 
-9.048021421674e-05 -3.080597047278e-06 0.0 
-3.080597047278e-06 1.467508436849e-03 0.0 
0.0 0.0 0.0 
-8.958135392044e-05 -2.781061091848e-06 0.0 
-2.781061091848e-06 1.467025617288e-03 0.0 
0.0 0.0 0.0 
-8.904825247386e-05 -2.167808845927e-06 0.0 
-2.167808845927e-06 1.466880399484e-03 0.0 
0.0 0.0 0.0 
-8.850856017571e-05 -1.837429124633e-06 0.0 
-1.837429124633e-06 1.466430423558e-03 0.0 
0.0 0.0 0.0 
-8.824198203864e-05 -2.026397868166e-06 0.0 
-2.026397868166e-06 1.466494183747e-03 0.0 
0.0 0.0 0.0 
-8.832246590273e-05 1.902899345862e-06 0.0 
1.902899345862e-06 1.466480268916e-03 0.0 
0.0 0.0 0.0 
-1.190865362980e-04 1.186030966334e-04 0.0 
1.186030966334e-04 1.147132896820e-04 0.0 
0.0 0.0 0.0 
-1.374223719640e-04 1.818439060069e-04 0.0 
1.818439060069e-04 2.856326212262e-04 0.0 
0.0 0.0 0.0 
-1.417124260772e-04 2.044903245220e-04 0.0 
2.044903245220e-04 4.847520686672e-04 0.0 
0.0 0.0 0.0 
-1.393342399578e-04 2.081995937593e-04 0.0 
2.081995937593e-04 6.914781662712e-04 0.0 
0.0 0.0 0.0 
-1.353989589749e-04 2.050812036509e-04 0.0 
2.050812036509e-04 8.937606752255e-04 0.0 
0.0 0.0 0.0 
-1.410066615759e-04 1.932392797504e-04 0.0 
1.932392797504e-04 1.108825991309e-03 0.0 
0.0 0.0 0.0 
-1.364330029149e-04 8.734943731543e-05 0.0 
8.734943731543e-05 1.302750137180e-03 0.0 
0.0 0.0 0.0 
-1.312947837131e-04 6.110419283557e-05 0.0 
6.110419283557e-05 1.373121890590e-03 0.0 
0.0 0.0 0.0 
-1.387059250596e-04 4.620943937701e-05 0.0 
4.620943937701e-05 1.441285467395e-03 0.0 
0.0 0.0 0.0 
-1.412802815255e-04 3.802481219303e-05 0.0 
3.802481219303e-05 1.508450656460e-03 0.0 
0.0 0.0 0.0 
-1.058833396274e-04 1.686701639005e-04 0.0 
1.686701639005e-04 3.448539148156e-04 0.0 
0.0 0.0 0.0 
2.629882539481e-05 2.187082729960e-04 0.0 
2.187082729960e-04 1.357509448978e-03 0.0 
0.0 0.0 0.0 
-5.058944596881e-05 -1.469836664511e-05 0.0 
-1.469836664511e-05 5.940695576134e-05 0.0 
0.0 0.0 0.0 
-1.027112970273e-04 -1.339433927359e-05 0.0 
-1.339433927359e-05 8.073587964215e-05 0.0 
0.0 0.0 0.0 
2.560015817621e-05 1.414404222173e-04 0.0 
1.414404222173e-04 1.265862834504e-03 0.0 
0.0 0.0 0.0 
-1.113736581030e-04 2.080512412052e-04 0.0 
2.080512412052e-04 7.459981958183e-04 0.0 
0.0 0.0 0.0 
9.212927401617e-05 -1.853154902099e-07 0.0 
-1.853154902099e-07 5.964819136867e-04 0.0 
0.0 0.0 0.0 
1.946882915425e-05 2.745502073951e-04 0.0 
2.745502073951e-04 1.474930650211e-03 0.0 
0.0 0.0 0.0 
-1.358675552000e-04 1.975381891262e-04 0.0 
1.975381891262e-04 1.147928580823e-03 0.0 
0.0 0.0 0.0 
2.794202566436e-06 3.027933185729e-04 0.0 
3.027933185729e-04 1.634177804908e-03 0.0 
0.0 0.0 0.0 
-1.555459824427e-04 9.255984675560e-05 0.0 
9.255984675560e-05 1.410850426959e-03 0.0 
0.0 0.0 0.0 
2.170961942864e-05 8.486499069804e-05 0.0 
8.486499069804e-05 1.232537826366e-03 0.0 
0.0 0.0 0.0 
-1.600000890054e-05 -8.712417049674e-06 0.0 
-8.712417049674e-06 4.270356283505e-05 0.0 
0.0 0.0 0.0 
-1.640481698338e-05 2.848459077351e-04 0.0 
2.848459077351e-04 1.800442311905e-03 0.0 
0.0 0.0 0.0 
-1.533515459099e-04 5.532647347215e-05 0.0 
5.532647347215e-05 1.557205851481e-03 0.0 
0.0 0.0 0.0 
6.458465636361e-05 -3.032628061672e-06 0.0 
-3.032628061672e-06 3.573288114665e-04 0.0 
0.0 0.0 0.0 
9.125922568904e-05 3.724234561021e-06 0.0 
3.724234561021e-06 7.747012992943e-04 0.0 
0.0 0.0 0.0 
-2.842452315806e-05 2.426530872896e-04 0.0 
2.426530872896e-04 1.901893048623e-03 0.0 
0.0 0.0 0.0 
-2.841972447491e-05 1.721699804593e-04 0.0 
1.721699804593e-04 1.996316957392e-03 0.0 
0.0 0.0 0.0 
-1.708782962140e-05 4.725442234179e-05 0.0 
4.725442234179e-05 2.059636106494e-03 0.0 
0.0 0.0 0.0 
-2.311189716221e-05 8.124759151853e-05 0.0 
8.124759151853e-05 2.047009047580e-03 0.0 
0.0 0.0 0.0 
-2.520660461950e-05 1.226133465552e-04 0.0 
1.226133465552e-04 2.033335934108e-03 0.0 
0.0 0.0 0.0 
-1.355063882201e-04 2.993194900412e-05 0.0 
2.993194900412e-05 1.593710505123e-03 0.0 
0.0 0.0 0.0 
-1.091735590436e-04 8.458092339994e-06 0.0 
8.458092339994e-06 1.594363248579e-03 0.0 
0.0 0.0 0.0 
-9.652673088234e-05 3.623341874578e-06 0.0 
3.623341874578e-06 1.595178531866e-03 0.0 
0.0 0.0 0.0 
-6.917657845962e-05 2.434303565548e-06 0.0 
2.434303565548e-06 1.806807016492e-03 0.0 
0.0 0.0 0.0 
1.949711473270e-05 4.863211870972e-05 0.0 
4.863211870972e-05 1.213706201017e-03 0.0 
0.0 0.0 0.0 
-1.108238445268e-04 1.666009671929e-05 0.0 
1.666009671929e-05 9.351451789967e-05 0.0 
0.0 0.0 0.0 
9.456835818137e-08 -4.914034068195e-06 0.0 
-4.914034068195e-06 3.853824504541e-05 0.0 
0.0 0.0 0.0 
6.388407143683e-05 6.866265988226e-06 0.0 
6.866265988226e-06 9.985428901845e-04 0.0 
0.0 0.0 0.0 
-8.896844783313e-05 1.523618957955e-06 0.0 
1.523618957955e-06 1.584726818020e-03 0.0 
0.0 0.0 0.0 
2.997152783919e-05 -3.857181657879e-06 0.0 
-3.857181657879e-06 1.829635726994e-04 0.0 
0.0 0.0 0.0 
-3.398415636402e-05 2.045096276580e-04 0.0 
2.045096276580e-04 1.950966392564e-03 0.0 
0.0 0.0 0.0 
1.126248922338e-05 2.952015236904e-04 0.0 
2.952015236904e-04 1.557336401333e-03 0.0 
0.0 0.0 0.0 
-7.321709200185e-06 2.997778073584e-04 0.0 
2.997778073584e-04 1.719638863129e-03 0.0 
0.0 0.0 0.0 
2.552203760524e-05 2.504482378481e-04 0.0 
2.504482378481e-04 1.410668689509e-03 0.0 
0.0 0.0 0.0 
2.482260513596e-05 1.874161796328e-04 0.0 
1.874161796328e-04 1.316373663022e-03 0.0 
0.0 0.0 0.0 
-8.165554330682e-05 -1.626757051634e-05 0.0 
-1.626757051634e-05 7.455863547449e-05 0.0 
0.0 0.0 0.0 
-1.206937715393e-04 1.555857247314e-05 0.0 
1.555857247314e-05 1.593367348870e-03 0.0 
0.0 0.0 0.0 
2.705285971943e-05 1.098608007964e-04 0.0 
1.098608007964e-04 1.230499357450e-03 0.0 
0.0 0.0 0.0 
-5.112641594359e-05 4.413738971256e-06 0.0 
4.413738971256e-06 1.918448271885e-03 0.0 
0.0 0.0 0.0 
-3.119796160193e-05 -1.340641816233e-05 0.0 
-1.340641816233e-05 5.228025863265e-05 0.0 
0.0 0.0 0.0 
8.192238694634e-05 -2.095227956346e-06 0.0 
-2.095227956346e-06 4.710759896528e-04 0.0 
0.0 0.0 0.0 
-1.339526787010e-05 2.911705645191e-05 0.0 
2.911705645191e-05 2.069511340032e-03 0.0 
0.0 0.0 0.0 
-1.107426446246e-04 2.132248570384e-04 0.0 
2.132248570384e-04 9.416068152559e-04 0.0 
0.0 0.0 0.0 
-1.093627898522e-04 1.958409432974e-04 0.0 
1.958409432974e-04 5.412325109160e-04 0.0 
0.0 0.0 0.0 
-1.506937458530e-04 1.389770086844e-04 0.0 
1.389770086844e-04 1.314287118103e-03 0.0 
0.0 0.0 0.0 
-1.561873223155e-04 6.814193438077e-05 0.0 
6.814193438077e-05 1.486251136846e-03 0.0 
0.0 0.0 0.0 
-1.037238737753e-04 1.162670832072e-04 0.0 
1.162670832072e-04 1.676139755158e-04 0.0 
0.0 0.0 0.0 
-8.053981030498e-05 1.365492320927e-06 0.0 
1.365492320927e-06 1.693429829602e-03 0.0 
0.0 0.0 0.0 
1.491155549056e-05 2.665544308502e-05 0.0 
2.665544308502e-05 1.221696937609e-03 0.0 
0.0 0.0 0.0 
5.663868176131e-06 -1.054432913579e-06 0.0 
-1.054432913579e-06 3.352068005313e-05 0.0 
0.0 0.0 0.0 
-2.467317461214e-05 7.291696155522e-06 0.0 
7.291696155522e-06 2.023842171167e-03 0.0 
0.0 0.0 0.0 
-1.519138560211e-04 5.259438762806e-05 0.0 
5.259438762806e-05 1.588980959430e-03 0.0 
0.0 0.0 0.0 
-1.569471088961e-04 7.325592047135e-05 0.0 
7.325592047135e-05 1.604673542302e-03 0.0 
0.0 0.0 0.0 
-1.509878330649e-04 6.614426213992e-05 0.0 
6.614426213992e-05 1.638402990688e-03 0.0 
0.0 0.0 0.0 
-1.551009464111e-04 9.133698362291e-05 0.0 
9.133698362291e-05 1.651896741835e-03 0.0 
0.0 0.0 0.0 
-1.497489773160e-04 8.578063392003e-05 0.0 
8.578063392003e-05 1.689721272426e-03 0.0 
0.0 0.0 0.0 
-1.493086907791e-04 1.085091230561e-04 0.0 
1.085091230561e-04 1.697946386791e-03 0.0 
0.0 0.0 0.0 
-1.542463323404e-04 1.165967971652e-04 0.0 
1.165967971652e-04 1.657370149394e-03 0.0 
0.0 0.0 0.0 
-1.451345224738e-04 1.326735224315e-04 0.0 
1.326735224315e-04 1.700709977086e-03 0.0 
0.0 0.0 0.0 
-1.483320658454e-04 1.424464109839e-04 0.0 
1.424464109839e-04 1.655555851376e-03 0.0 
0.0 0.0 0.0 
-1.426232861995e-04 1.028216794211e-04 0.0 
1.028216794211e-04 1.736641854808e-03 0.0 
0.0 0.0 0.0 
-1.368447201663e-04 1.565949196239e-04 0.0 
1.565949196239e-04 1.697466394133e-03 0.0 
0.0 0.0 0.0 
-1.378173741552e-04 1.673514009651e-04 0.0 
1.673514009651e-04 1.647342708626e-03 0.0 
0.0 0.0 0.0 
-1.246849867064e-04 1.794345199736e-04 0.0 
1.794345199736e-04 1.688596119429e-03 0.0 
0.0 0.0 0.0 
-1.232247016461e-04 1.902719023038e-04 0.0 
1.902719023038e-04 1.633554097321e-03 0.0 
0.0 0.0 0.0 
-1.353212269638e-04 1.804586569635e-04 0.0 
1.804586569635e-04 1.592618082489e-03 0.0 
0.0 0.0 0.0 
-1.176644800246e-04 2.027098369382e-04 0.0 
2.027098369382e-04 1.573302620781e-03 0.0 
0.0 0.0 0.0 
-1.287881835047e-04 1.955513746150e-04 0.0 
1.955513746150e-04 1.532337904301e-03 0.0 
0.0 0.0 0.0 
-1.076831952177e-04 2.161461046872e-04 0.0 
2.161461046872e-04 1.507004646249e-03 0.0 
0.0 0.0 0.0 
-9.714482605155e-05 2.208210571324e-04 0.0 
2.208210571324e-04 1.550405916250e-03 0.0 
0.0 0.0 0.0 
-8.429506165247e-05 2.314233515401e-04 0.0 
2.314233515401e-04 1.479021838934e-03 0.0 
0.0 0.0 0.0 
-9.281168301463e-05 2.294844736420e-04 0.0 
2.294844736420e-04 1.433716839569e-03 0.0 
0.0 0.0 0.0 
-6.697228748957e-05 2.410104603694e-04 0.0 
2.410104603694e-04 1.401469362408e-03 0.0 
0.0 0.0 0.0 
-7.334141058836e-05 2.412529891712e-04 0.0 
2.412529891712e-04 1.353477257580e-03 0.0 
0.0 0.0 0.0 
-4.595502214316e-05 2.479400166362e-04 0.0 
2.479400166362e-04 1.318280707291e-03 0.0 
0.0 0.0 0.0 
-5.015732653446e-05 2.494785927158e-04 0.0 
2.494785927158e-04 1.266615613805e-03 0.0 
0.0 0.0 0.0 
-2.225007007767e-05 2.510636433465e-04 0.0 
2.510636433465e-04 1.230357414507e-03 0.0 
0.0 0.0 0.0 
-1.999641704907e-05 2.497295861315e-04 0.0 
2.497295861315e-04 1.285982275868e-03 0.0 
0.0 0.0 0.0 
3.402241330164e-06 2.485618539361e-04 0.0 
2.485618539361e-04 1.198223300697e-03 0.0 
0.0 0.0 0.0 
2.960155471336e-06 2.497042822079e-04 0.0 
2.497042822079e-04 1.139154710365e-03 0.0 
0.0 0.0 0.0 
2.739436684533e-05 2.430472578411e-04 0.0 
2.430472578411e-04 1.108607934969e-03 0.0 
0.0 0.0 0.0 
2.800401229238e-05 2.430723852496e-04 0.0 
2.430723852496e-04 1.046396270802e-03 0.0 
0.0 0.0 0.0 
5.060579439042e-05 2.328601548029e-04 0.0 
2.328601548029e-04 1.018425000106e-03 0.0 
0.0 0.0 0.0 
4.870419817286e-05 2.342426583245e-04 0.0 
2.342426583245e-04 1.083196938082e-03 0.0 
0.0 0.0 0.0 
6.985473961455e-05 2.212140120425e-04 0.0 
2.212140120425e-04 9.963530251728e-04 0.0 
0.0 0.0 0.0 
7.174567482937e-05 2.179608708184e-04 0.0 
2.179608708184e-04 9.289667926439e-04 0.0 
0.0 0.0 0.0 
8.872550453024e-05 2.043605908863e-04 0.0 
2.043605908863e-04 9.112957808636e-04 0.0 
0.0 0.0 0.0 
8.974741424587e-05 1.989869715978e-04 0.0 
1.989869715978e-04 8.420791507212e-04 0.0 
0.0 0.0 0.0 
1.045274336120e-04 1.843775571305e-04 0.0 
1.843775571305e-04 8.292646545601e-04 0.0 
0.0 0.0 0.0 
1.039607652959e-04 1.770745578699e-04 0.0 
1.770745578699e-04 7.589049320967e-04 0.0 
0.0 0.0 0.0 
1.166398799283e-04 1.616859223599e-04 0.0 
1.616859223599e-04 7.506669733268e-04 0.0 
0.0 0.0 0.0 
1.160563211517e-04 1.700427638759e-04 0.0 
1.700427638759e-04 8.213863800378e-04 0.0 
0.0 0.0 0.0 
1.262227003018e-04 1.472247261475e-04 0.0 
1.472247261475e-04 7.470834232562e-04 0.0 
0.0 0.0 0.0 
1.245813021746e-04 1.372858575033e-04 0.0 
1.372858575033e-04 6.764795617246e-04 0.0 
0.0 0.0 0.0 
1.324896750143e-04 1.232046842350e-04 0.0 
1.232046842350e-04 6.771605766387e-04 0.0 
0.0 0.0 0.0 
1.331815281941e-04 1.340970264234e-04 0.0 
1.340970264234e-04 7.478500472230e-04 0.0 
0.0 0.0 0.0 
1.379142714546e-04 1.108352578979e-04 0.0 
1.108352578979e-04 6.818412975467e-04 0.0 
0.0 0.0 0.0 
1.376352914940e-04 1.225235127146e-04 0.0 
1.225235127146e-04 7.524800857938e-04 0.0 
0.0 0.0 0.0 
1.410927002418e-04 1.001948380131e-04 0.0 
1.001948380131e-04 6.900361997403e-04 0.0 
0.0 0.0 0.0 
1.389765183354e-04 8.773920855783e-05 0.0 
8.773920855783e-05 6.210297499355e-04 0.0 
0.0 0.0 0.0 
1.412041373271e-04 7.831883750839e-05 0.0 
7.831883750839e-05 6.323664692678e-04 0.0 
0.0 0.0 0.0 
1.423053802394e-04 9.113085924982e-05 0.0 
9.113085924982e-05 7.011699704040e-04 0.0 
0.0 0.0 0.0 
1.417043428168e-04 7.042715547718e-05 0.0 
7.042715547718e-05 6.461009764764e-04 0.0 
0.0 0.0 0.0 
1.381495516400e-04 5.735840778880e-05 0.0 
5.735840778880e-05 5.792669626789e-04 0.0 
0.0 0.0 0.0 
1.383088235321e-04 5.105498700589e-05 0.0 
5.105498700589e-05 5.955040815752e-04 0.0 
0.0 0.0 0.0 
1.407496459181e-04 6.413111545198e-05 0.0 
6.413111545198e-05 6.622937950751e-04 0.0 
0.0 0.0 0.0 
1.371982196957e-04 4.610093846079e-05 0.0 
4.610093846079e-05 6.137313598967e-04 0.0 
0.0 0.0 0.0 
1.324450530743e-04 3.321774780491e-05 0.0 
3.321774780491e-05 5.489558432254e-04 0.0 
0.0 0.0 0.0 
1.314857705891e-04 2.976568043023e-05 0.0 
2.976568043023e-05 5.688467034246e-04 0.0 
0.0 0.0 0.0 
1.350542746027e-04 4.240554689937e-05 0.0 
4.240554689937e-05 6.340164130004e-04 0.0 
0.0 0.0 0.0 
1.296419910538e-04 2.726362288964e-05 0.0 
2.726362288964e-05 5.901254256781e-04 0.0 
0.0 0.0 0.0 
1.239614380136e-04 1.529633958377e-05 0.0 
1.529633958377e-05 5.270105544580e-04 0.0 
0.0 0.0 0.0 
1.226374126426e-04 1.414936773856e-05 0.0 
1.414936773856e-05 5.491638449517e-04 0.0 
0.0 0.0 0.0 
1.270966328845e-04 2.571761880349e-05 0.0 
2.571761880349e-05 6.129057042462e-04 0.0 
0.0 0.0 0.0 
1.207102613728e-04 1.366758415977e-05 0.0 
1.366758415977e-05 5.723976721005e-04 0.0 
0.0 0.0 0.0 
1.238926295892e-04 2.476993049879e-05 0.0 
2.476993049879e-05 6.367780061420e-04 0.0 
0.0 0.0 0.0 
1.143207635157e-04 2.977979186578e-06 0.0 
2.977979186578e-06 5.101339322361e-04 0.0 
0.0 0.0 0.0 
1.132427388661e-04 3.561228436812e-06 0.0 
3.561228436812e-06 5.339219247193e-04 0.0 
0.0 0.0 0.0 
1.050467735344e-04 -5.993122067966e-06 0.0 
-5.993122067966e-06 4.729523187024e-04 0.0 
0.0 0.0 0.0 
1.049684417329e-04 -4.435841943477e-06 0.0 
-4.435841943477e-06 4.973320121020e-04 0.0 
0.0 0.0 0.0 
6.663971778446e-05 2.242482316662e-04 0.0 
2.242482316662e-04 1.063143979840e-03 0.0 
0.0 0.0 0.0 
9.532117186876e-05 -1.265803890739e-05 0.0 
-1.265803890739e-05 4.376704176199e-04 0.0 
0.0 0.0 0.0 
9.389448090857e-05 -1.461944350388e-05 0.0 
-1.461944350388e-05 4.143894514164e-04 0.0 
0.0 0.0 0.0 
9.627458670206e-05 -1.034242104460e-05 0.0 
-1.034242104460e-05 4.623160868380e-04 0.0 
0.0 0.0 0.0 
1.044243874747e-04 -2.576256683851e-06 0.0 
-2.576256683851e-06 5.227408508437e-04 0.0 
0.0 0.0 0.0 
8.547032619148e-05 -1.722841611866e-05 0.0 
-1.722841611866e-05 4.036409247718e-04 0.0 
0.0 0.0 0.0 
8.743379364162e-05 -1.430189701232e-05 0.0 
-1.430189701232e-05 4.284520010555e-04 0.0 
0.0 0.0 0.0 
7.564433383456e-05 -1.972441777574e-05 0.0 
-1.972441777574e-05 3.707498588525e-04 0.0 
0.0 0.0 0.0 
8.802135694378e-05 1.928514069521e-04 0.0 
1.928514069521e-04 7.713718607896e-04 0.0 
0.0 0.0 0.0 
-7.517920771725e-05 2.345454055065e-04 0.0 
2.345454055065e-04 1.525655916764e-03 0.0 
0.0 0.0 0.0 
7.860579720668e-05 -1.636217553715e-05 0.0 
-1.636217553715e-05 3.955492439660e-04 0.0 
0.0 0.0 0.0 
6.618830710792e-05 -2.046400286393e-05 0.0 
-2.046400286393e-05 3.386091164154e-04 0.0 
0.0 0.0 0.0 
6.175139236856e-05 -2.381583892629e-05 0.0 
-2.381583892629e-05 3.143464077019e-04 0.0 
0.0 0.0 0.0 
5.221288405777e-05 -2.315099077269e-05 0.0 
-2.315099077269e-05 2.827097619818e-04 0.0 
0.0 0.0 0.0 
-1.424890694920e-04 8.189796750328e-05 0.0 
8.189796750328e-05 1.725054251605e-03 0.0 
0.0 0.0 0.0 
-1.336964585649e-04 9.850146458407e-05 0.0 
9.850146458407e-05 1.773898598968e-03 0.0 
0.0 0.0 0.0 
-1.337180289631e-04 7.802477827005e-05 0.0 
7.802477827005e-05 1.759018367594e-03 0.0 
0.0 0.0 0.0 
-1.238788937322e-04 9.495744835043e-05 0.0 
9.495744835043e-05 1.809700969576e-03 0.0 
0.0 0.0 0.0 
-1.240913479436e-04 7.604186338731e-05 0.0 
7.604186338731e-05 1.793873196337e-03 0.0 
0.0 0.0 0.0 
5.738669210590e-05 -1.972280965763e-05 0.0 
-1.972280965763e-05 3.067514623151e-04 0.0 
0.0 0.0 0.0 
-1.223452196379e-04 1.705541697310e-04 0.0 
1.705541697310e-04 1.739493636000e-03 0.0 
0.0 0.0 0.0 
-1.213157704323e-04 1.151018564770e-04 0.0 
1.151018564770e-04 1.821209962927e-03 0.0 
0.0 0.0 0.0 
-1.009484312315e-04 2.279994922354e-04 0.0 
2.279994922354e-04 1.390393257862e-03 0.0 
0.0 0.0 0.0 
2.219910223792e-06 2.508019340282e-04 0.0 
2.508019340282e-04 1.079945535174e-03 0.0 
0.0 0.0 0.0 
1.307657404899e-04 1.446336826928e-04 0.0 
1.446336826928e-04 8.194747363005e-04 0.0 
0.0 0.0 0.0 
8.892773884872e-05 -1.132436341313e-05 0.0 
-1.132436341313e-05 4.537610313741e-04 0.0 
0.0 0.0 0.0 
8.106523227029e-05 -1.292220785413e-05 0.0 
-1.292220785413e-05 4.208024293277e-04 0.0 
0.0 0.0 0.0 
8.992745323873e-05 -8.476625818891e-06 0.0 
-8.476625818891e-06 4.795995046583e-04 0.0 
0.0 0.0 0.0 
1.282791614244e-04 3.764541523746e-05 0.0 
3.764541523746e-05 6.789913188192e-04 0.0 
0.0 0.0 0.0 
1.238049686387e-04 3.611491302013e-05 0.0 
3.611491302013e-05 7.032476390441e-04 0.0 
0.0 0.0 0.0 
1.261096263102e-04 4.973048591664e-05 0.0 
4.973048591664e-05 7.471433417827e-04 0.0 
0.0 0.0 0.0 
1.204034005334e-04 4.749856581774e-05 0.0 
4.749856581774e-05 7.716858365850e-04 0.0 
0.0 0.0 0.0 
1.205507022721e-04 6.173627098306e-05 0.0 
6.173627098306e-05 8.172228592879e-04 0.0 
0.0 0.0 0.0 
1.136912477547e-04 5.874903009868e-05 0.0 
5.874903009868e-05 8.420944324989e-04 0.0 
0.0 0.0 0.0 
1.142121086949e-04 4.533419205218e-05 0.0 
4.533419205218e-05 7.972856131248e-04 0.0 
0.0 0.0 0.0 
1.063406119289e-04 5.566438132635e-05 0.0 
5.566438132635e-05 8.680821073137e-04 0.0 
0.0 0.0 0.0 
1.076497815973e-04 4.308609497053e-05 0.0 
4.308609497053e-05 8.238118101725e-04 0.0 
0.0 0.0 0.0 
1.116569151071e-04 7.352465770830e-05 0.0 
7.352465770830e-05 8.891877019572e-04 0.0 
0.0 0.0 0.0 
1.190478641546e-04 7.729889000055e-05 0.0 
7.729889000055e-05 8.651929889074e-04 0.0 
0.0 0.0 0.0 
9.866893062086e-05 5.240042269950e-05 0.0 
5.240042269950e-05 8.950002300558e-04 0.0 
0.0 0.0 0.0 
1.008201519419e-04 4.063304401554e-05 0.0 
4.063304401554e-05 8.512062477420e-04 0.0 
0.0 0.0 0.0 
9.079665614375e-05 4.889963255499e-05 0.0 
4.889963255499e-05 9.228881677824e-04 0.0 
0.0 0.0 0.0 
9.383450187713e-05 3.775502000648e-05 0.0 
3.775502000648e-05 8.793758290260e-04 0.0 
0.0 0.0 0.0 
1.017933560800e-04 3.026192849692e-05 0.0 
3.026192849692e-05 8.090517623209e-04 0.0 
0.0 0.0 0.0 
9.582031505225e-05 2.803748333828e-05 0.0 
2.803748333828e-05 8.372912652668e-04 0.0 
0.0 0.0 0.0 
1.017628830248e-04 2.138348131332e-05 0.0 
2.138348131332e-05 7.686683989251e-04 0.0 
0.0 0.0 0.0 
1.343052263297e-04 1.339469936554e-04 0.0 
1.339469936554e-04 8.240991003158e-04 0.0 
0.0 0.0 0.0 
1.256708735109e-04 1.550744010504e-04 0.0 
1.550744010504e-04 8.918607112528e-04 0.0 
0.0 0.0 0.0 
1.282633480052e-04 1.453042102076e-04 0.0 
1.453042102076e-04 8.964516474657e-04 0.0 
0.0 0.0 0.0 
1.181429477477e-04 1.655452529081e-04 0.0 
1.655452529081e-04 9.646786615249e-04 0.0 
0.0 0.0 0.0 
1.196133200592e-04 1.567512604113e-04 0.0 
1.567512604113e-04 9.695429693545e-04 0.0 
0.0 0.0 0.0 
1.082625083666e-04 1.763126928655e-04 0.0 
1.763126928655e-04 1.038001186416e-03 0.0 
0.0 0.0 0.0 
1.083283262486e-04 1.685348383473e-04 0.0 
1.685348383473e-04 1.043269457509e-03 0.0 
0.0 0.0 0.0 
1.186781525429e-04 1.488841767480e-04 0.0 
1.488841767480e-04 9.778462782633e-04 0.0 
0.0 0.0 0.0 
-1.093791394011e-04 2.005038529627e-04 0.0 
2.005038529627e-04 1.674669786129e-03 0.0 
0.0 0.0 0.0 
1.283318365400e-04 1.119265454435e-04 0.0 
1.119265454435e-04 6.075094410825e-04 0.0 
0.0 0.0 0.0 
1.192758067169e-04 1.268269403593e-04 0.0 
1.268269403593e-04 6.067081541810e-04 0.0 
0.0 0.0 0.0 
1.200957208789e-04 1.003002606178e-04 0.0 
1.003002606178e-04 5.390519794671e-04 0.0 
0.0 0.0 0.0 
1.095020392872e-04 1.158959095007e-04 0.0 
1.158959095007e-04 5.382395388596e-04 0.0 
0.0 0.0 0.0 
1.070683270472e-04 8.851623349123e-05 0.0 
8.851623349123e-05 4.721470892713e-04 0.0 
0.0 0.0 0.0 
9.431959055354e-05 1.048972531167e-04 0.0 
1.048972531167e-04 4.716772817237e-04 0.0 
0.0 0.0 0.0 
8.829859924301e-05 7.707375428263e-05 0.0 
7.707375428263e-05 4.071384142333e-04 0.0 
0.0 0.0 0.0 
1.001942691528e-04 6.206227891646e-05 0.0 
6.206227891646e-05 4.123336470111e-04 0.0 
0.0 0.0 0.0 
7.780621629661e-05 5.075196746160e-05 0.0 
5.075196746160e-05 3.491621346195e-04 0.0 
0.0 0.0 0.0 
8.930144429383e-05 3.729561348538e-05 0.0 
3.729561348538e-05 3.589141404723e-04 0.0 
0.0 0.0 0.0 
6.348462861986e-05 2.645476838993e-05 0.0 
2.645476838993e-05 2.979254341137e-04 0.0 
0.0 0.0 0.0 
7.484586644180e-05 1.519538969847e-05 0.0 
1.519538969847e-05 3.115153715398e-04 0.0 
0.0 0.0 0.0 
3.770893197734e-06 2.481653015607e-04 0.0 
2.481653015607e-04 1.257131602147e-03 0.0 
0.0 0.0 0.0 
1.056251281842e-04 1.849446115240e-04 0.0 
1.849446115240e-04 1.036089888710e-03 0.0 
0.0 0.0 0.0 
9.495434104760e-05 1.952798566319e-04 0.0 
1.952798566319e-04 1.109341254121e-03 0.0 
0.0 0.0 0.0 
9.130334979768e-05 2.031005621942e-04 0.0 
2.031005621942e-04 1.109541789527e-03 0.0 
0.0 0.0 0.0 
4.618182340458e-05 -2.628266192236e-05 0.0 
-2.628266192236e-05 2.589437169423e-04 0.0 
0.0 0.0 0.0 
8.683702782216e-05 3.433305589030e-05 0.0 
3.433305589030e-05 9.082397907419e-04 0.0 
0.0 0.0 0.0 
1.079048273109e-04 8.944203524168e-05 0.0 
8.944203524168e-05 9.388034677558e-04 0.0 
0.0 0.0 0.0 
1.156628234039e-04 9.390235225273e-05 0.0 
9.390235225273e-05 9.155775091021e-04 0.0 
0.0 0.0 0.0 
1.059048860168e-04 1.615811799350e-04 0.0 
1.615811799350e-04 1.052502867689e-03 0.0 
0.0 0.0 0.0 
4.365519294976e-05 -2.107188824885e-05 0.0 
-2.107188824885e-05 2.516941072839e-04 0.0 
0.0 0.0 0.0 
7.282148209002e-05 9.454450008915e-05 0.0 
9.454450008915e-05 4.075138800846e-04 0.0 
0.0 0.0 0.0 
7.750497615137e-05 1.231876883144e-04 0.0 
1.231876883144e-04 4.771156911194e-04 0.0 
0.0 0.0 0.0 
-1.126857343183e-04 9.183615308401e-05 0.0 
9.183615308401e-05 1.843865415987e-03 0.0 
0.0 0.0 0.0 
-1.132734448556e-04 7.438884128911e-05 0.0 
7.438884128911e-05 1.826705202720e-03 0.0 
0.0 0.0 0.0 
1.022485567208e-04 1.064181304588e-04 0.0 
1.064181304588e-04 9.910408992445e-04 0.0 
0.0 0.0 0.0 
4.928320827694e-05 -1.767360622273e-05 0.0 
-1.767360622273e-05 2.754008201300e-04 0.0 
0.0 0.0 0.0 
9.512360602770e-05 6.558114333726e-05 0.0 
6.558114333726e-05 9.408707032585e-04 0.0 
0.0 0.0 0.0 
4.927030270422e-05 4.079668691505e-05 0.0 
4.079668691505e-05 2.884073759101e-04 0.0 
0.0 0.0 0.0 
8.988423416952e-05 2.533338599285e-05 0.0 
2.533338599285e-05 8.661234856281e-04 0.0 
0.0 0.0 0.0 
7.983540316592e-05 3.039222977159e-05 0.0 
3.039222977159e-05 9.375975810489e-04 0.0 
0.0 0.0 0.0 
1.133972214147e-04 3.348719782794e-05 0.0 
3.348719782794e-05 7.547015582437e-04 0.0 
0.0 0.0 0.0 
8.039307658344e-05 2.132475397213e-04 0.0 
2.132475397213e-04 1.182592114629e-03 0.0 
0.0 0.0 0.0 
7.573484770355e-05 2.194172697890e-04 0.0 
2.194172697890e-04 1.184403821844e-03 0.0 
0.0 0.0 0.0 
9.758288934321e-05 2.671989139993e-05 0.0 
2.671989139993e-05 3.725957040393e-04 0.0 
0.0 0.0 0.0 
8.308059657802e-05 6.962033526750e-06 0.0 
6.962033526750e-06 3.281372898153e-04 0.0 
0.0 0.0 0.0 
5.788607256707e-05 -3.058066605282e-06 0.0 
-3.058066605282e-06 2.713215243961e-04 0.0 
0.0 0.0 0.0 
6.647762119546e-05 -8.649274095991e-06 0.0 
-8.649274095991e-06 2.899226202573e-04 0.0 
0.0 0.0 0.0 
9.011720108236e-05 1.199856677333e-06 0.0 
1.199856677333e-06 3.461230547730e-04 0.0 
0.0 0.0 0.0 
7.461002925905e-05 -1.310608304512e-05 0.0 
-1.310608304512e-05 3.075835310908e-04 0.0 
0.0 0.0 0.0 
5.026436456701e-05 -2.126714426174e-05 0.0 
-2.126714426174e-05 2.523278987670e-04 0.0 
0.0 0.0 0.0 
5.817653121121e-05 -2.352802459602e-05 0.0 
-2.352802459602e-05 2.720974775369e-04 0.0 
0.0 0.0 0.0 
8.082465268866e-05 -1.554295761380e-05 0.0 
-1.554295761380e-05 3.278700298999e-04 0.0 
0.0 0.0 0.0 
6.550521309867e-05 -2.471562443753e-05 0.0 
-2.471562443753e-05 2.930620980082e-04 0.0 
0.0 0.0 0.0 
4.152586877681e-05 -3.051008537186e-05 0.0 
-3.051008537186e-05 2.387983344332e-04 0.0 
0.0 0.0 0.0 
5.025510784525e-05 -3.027096508619e-05 0.0 
-3.027096508619e-05 2.599810356033e-04 0.0 
0.0 0.0 0.0 
7.476447802128e-05 4.015047731158e-05 0.0 
4.015047731158e-05 9.810255492191e-04 0.0 
0.0 0.0 0.0 
3.174917695425e-05 1.698063971022e-05 0.0 
1.698063971022e-05 2.399264341052e-04 0.0 
0.0 0.0 0.0 
-1.459393401503e-04 1.700543845190e-04 0.0 
1.700543845190e-04 1.553019345909e-03 0.0 
0.0 0.0 0.0 
9.338529418401e-05 1.012838253358e-04 0.0 
1.012838253358e-04 1.014102350754e-03 0.0 
0.0 0.0 0.0 
9.414632733836e-05 1.810570414901e-04 0.0 
1.810570414901e-04 1.117537639554e-03 0.0 
0.0 0.0 0.0 
-1.004161415316e-04 8.908792197160e-05 0.0 
8.908792197160e-05 1.876880538120e-03 0.0 
0.0 0.0 0.0 
-1.016620105220e-04 7.280523370492e-05 0.0 
7.280523370492e-05 1.858619275977e-03 0.0 
0.0 0.0 0.0 
-1.120148975185e-04 5.891003411565e-05 0.0 
5.891003411565e-05 1.805950226048e-03 0.0 
0.0 0.0 0.0 
-1.014238320215e-04 5.824784643147e-05 0.0 
5.824784643147e-05 1.837486161310e-03 0.0 
0.0 0.0 0.0 
-8.933272667598e-05 7.092181169474e-05 0.0 
7.092181169474e-05 1.889696010894e-03 0.0 
0.0 0.0 0.0 
-9.021365430160e-05 5.715523971010e-05 0.0 
5.715523971010e-05 1.868255690212e-03 0.0 
0.0 0.0 0.0 
-1.001661197998e-04 4.550513227467e-05 0.0 
4.550513227467e-05 1.814051833358e-03 0.0 
0.0 0.0 0.0 
-9.007760790523e-05 4.506323172769e-05 0.0 
4.506323172769e-05 1.844726823384e-03 0.0 
0.0 0.0 0.0 
-9.813024884311e-05 3.458752364693e-05 0.0 
3.458752364693e-05 1.788729698913e-03 0.0 
0.0 0.0 0.0 
-8.927862470446e-05 3.472626854961e-05 0.0 
3.472626854961e-05 1.819578650364e-03 0.0 
0.0 0.0 0.0 
-7.963232729178e-05 4.404660471099e-05 0.0 
4.404660471099e-05 1.874982122162e-03 0.0 
0.0 0.0 0.0 
-8.004023044794e-05 3.412533847779e-05 0.0 
3.412533847779e-05 1.850032846614e-03 0.0 
0.0 0.0 0.0 
-8.821892817760e-05 2.606445239739e-05 0.0 
2.606445239739e-05 1.793243563596e-03 0.0 
0.0 0.0 0.0 
-8.014102670985e-05 2.566937469674e-05 0.0 
2.566937469674e-05 1.824011578739e-03 0.0 
0.0 0.0 0.0 
-8.711475498171e-05 1.887282141594e-05 0.0 
1.887282141594e-05 1.765968947297e-03 0.0 
0.0 0.0 0.0 
-8.005532364067e-05 1.858870820891e-05 0.0 
1.858870820891e-05 1.796890768349e-03 0.0 
0.0 0.0 0.0 
-7.177181547285e-05 2.465089620863e-05 0.0 
2.465089620863e-05 1.854483991807e-03 0.0 
0.0 0.0 0.0 
3.622033235495e-05 -1.792900059576e-05 0.0 
-1.792900059576e-05 2.219389665689e-04 0.0 
0.0 0.0 0.0 
1.154277226575e-04 1.419849231180e-04 0.0 
1.419849231180e-04 9.894243895377e-04 0.0 
0.0 0.0 0.0 
1.008344117482e-04 1.554217296530e-04 0.0 
1.554217296530e-04 1.065739307798e-03 0.0 
0.0 0.0 0.0 
8.299877376361e-05 -1.004784967846e-05 0.0 
-1.004784967846e-05 4.480976056466e-04 0.0 
0.0 0.0 0.0 
9.100571876119e-05 -6.101146805245e-06 0.0 
-6.101146805245e-06 5.051188619681e-04 0.0 
0.0 0.0 0.0 
9.656879385274e-05 -2.950574186055e-06 0.0 
-2.950574186055e-06 5.398508741528e-04 0.0 
0.0 0.0 0.0 
9.633803870065e-05 -1.040071073182e-06 0.0 
-1.040071073182e-06 5.669531258799e-04 0.0 
0.0 0.0 0.0 
-7.294819320613e-05 1.764484739493e-05 0.0 
1.764484739493e-05 1.827488932101e-03 0.0 
0.0 0.0 0.0 
-6.348648410994e-05 2.284186017331e-05 0.0 
2.284186017331e-05 1.884770554199e-03 0.0 
0.0 0.0 0.0 
5.289739596200e-05 1.145713224583e-04 0.0 
1.145713224583e-04 4.145642875220e-04 0.0 
0.0 0.0 0.0 
5.572357249613e-05 1.428967435060e-04 0.0 
1.428967435060e-04 4.899247201730e-04 0.0 
0.0 0.0 0.0 
-9.725184789322e-05 1.069766947684e-04 0.0 
1.069766947684e-04 1.891748776901e-03 0.0 
0.0 0.0 0.0 
8.384433444068e-05 2.189030291986e-05 0.0 
2.189030291986e-05 8.958966508341e-04 0.0 
0.0 0.0 0.0 
9.192259063525e-05 1.771792398481e-05 0.0 
1.771792398481e-05 8.257374394531e-04 0.0 
0.0 0.0 0.0 
2.755023450426e-05 2.423437710185e-04 0.0 
2.423437710185e-04 9.840884090646e-04 0.0 
0.0 0.0 0.0 
4.423601437746e-07 2.506389624602e-04 0.0 
2.506389624602e-04 1.020566820487e-03 0.0 
0.0 0.0 0.0 
2.487982668931e-05 2.399327366541e-04 0.0 
2.399327366541e-04 9.216025609077e-04 0.0 
0.0 0.0 0.0 
-4.044297755671e-06 2.477392849618e-04 0.0 
2.477392849618e-04 9.605822189194e-04 0.0 
0.0 0.0 0.0 
-2.969315680029e-05 2.546086238647e-04 0.0 
2.546086238647e-04 1.064309956592e-03 0.0 
0.0 0.0 0.0 
1.767065110083e-05 2.344843216660e-04 0.0 
2.344843216660e-04 8.582060374070e-04 0.0 
0.0 0.0 0.0 
1.257297961259e-04 8.112398784999e-05 0.0 
8.112398784999e-05 8.419547955046e-04 0.0 
0.0 0.0 0.0 
-6.897910268761e-05 4.226136012780e-05 0.0 
4.226136012780e-05 1.904808024633e-03 0.0 
0.0 0.0 0.0 
5.647679055132e-05 -2.678430433022e-05 0.0 
-2.678430433022e-05 2.907174937642e-04 0.0 
0.0 0.0 0.0 
3.919910678529e-05 -2.874687164066e-05 0.0 
-2.874687164066e-05 2.360016913693e-04 0.0 
0.0 0.0 0.0 
7.261569997093e-05 2.586160948766e-05 0.0 
2.586160948766e-05 9.681311528441e-04 0.0 
0.0 0.0 0.0 
1.267548419139e-04 1.290980729154e-04 0.0 
1.290980729154e-04 9.152569835477e-04 0.0 
0.0 0.0 0.0 
-1.764629076613e-05 2.496087609834e-04 0.0 
2.496087609834e-04 1.341945909340e-03 0.0 
0.0 0.0 0.0 
4.147663476839e-06 2.491164533101e-04 0.0 
2.491164533101e-04 1.316080267217e-03 0.0 
0.0 0.0 0.0 
-1.514873775554e-05 2.512943941445e-04 0.0 
2.512943941445e-04 1.398279883383e-03 0.0 
0.0 0.0 0.0 
4.542218155582e-06 2.520378839876e-04 0.0 
2.520378839876e-04 1.375060372246e-03 0.0 
0.0 0.0 0.0 
-1.247512498979e-05 2.552394911678e-04 0.0 
2.552394911678e-04 1.455010831416e-03 0.0 
0.0 0.0 0.0 
4.710355788899e-06 2.573823811066e-04 0.0 
2.573823811066e-04 1.434248603833e-03 0.0 
0.0 0.0 0.0 
2.130870643543e-05 2.511174797259e-04 0.0 
2.511174797259e-04 1.355495806998e-03 0.0 
0.0 0.0 0.0 
6.541960873382e-05 2.301492243018e-04 0.0 
2.301492243018e-04 1.256858059716e-03 0.0 
0.0 0.0 0.0 
1.877142374396e-05 2.583059871171e-04 0.0 
2.583059871171e-04 1.417552141959e-03 0.0 
0.0 0.0 0.0 
-8.004644862295e-05 1.330267592580e-05 0.0 
1.330267592580e-05 1.768295069814e-03 0.0 
0.0 0.0 0.0 
1.005193136198e-04 1.941803722487e-04 0.0 
1.941803722487e-04 1.036773174786e-03 0.0 
0.0 0.0 0.0 
8.581103953272e-05 -1.663239479070e-05 0.0 
-1.663239479070e-05 3.494813220493e-04 0.0 
0.0 0.0 0.0 
2.974357300356e-05 -2.111453126671e-05 0.0 
-2.111453126671e-05 1.977812396276e-04 0.0 
0.0 0.0 0.0 
2.507609844360e-05 -3.305918622004e-05 0.0 
-3.305918622004e-05 2.056197218220e-04 0.0 
0.0 0.0 0.0 
4.205992041880e-05 -1.458163076300e-05 0.0 
-1.458163076300e-05 2.433771617559e-04 0.0 
0.0 0.0 0.0 
5.430141811102e-05 -1.379066095505e-05 0.0 
-1.379066095505e-05 2.995412877744e-04 0.0 
0.0 0.0 0.0 
8.545188092442e-05 1.188447400029e-04 0.0 
1.188447400029e-04 1.067857916061e-03 0.0 
0.0 0.0 0.0 
-9.856383854701e-06 2.620551033641e-04 0.0 
2.620551033641e-04 1.512312339909e-03 0.0 
0.0 0.0 0.0 
-2.682186979027e-05 2.565535999496e-04 0.0 
2.565535999496e-04 1.531816393339e-03 0.0 
0.0 0.0 0.0 
-3.503982545838e-05 2.512892010305e-04 0.0 
2.512892010305e-04 1.009615545185e-03 0.0 
0.0 0.0 0.0 
-6.198529553144e-05 2.507391933055e-04 0.0 
2.507391933055e-04 1.115762391521e-03 0.0 
0.0 0.0 0.0 
6.773144174806e-05 2.249374026512e-04 0.0 
2.249374026512e-04 1.255521912456e-03 0.0 
0.0 0.0 0.0 
-1.305936033477e-04 6.054046963508e-05 0.0 
6.054046963508e-05 1.741070732989e-03 0.0 
0.0 0.0 0.0 
-1.065379124080e-04 3.391891418400e-05 0.0 
3.391891418400e-05 1.757586290314e-03 0.0 
0.0 0.0 0.0 
-1.026800683241e-04 2.451374804806e-05 0.0 
2.451374804806e-05 1.730249765466e-03 0.0 
0.0 0.0 0.0 
2.886237082365e-05 -1.489436437126e-05 0.0 
-1.489436437126e-05 1.833878638510e-04 0.0 
0.0 0.0 0.0 
1.475606939612e-05 -3.279011056590e-05 0.0 
-3.279011056590e-05 1.876007340513e-04 0.0 
0.0 0.0 0.0 
-7.666579134395e-05 6.849363021779e-05 0.0 
6.849363021779e-05 1.920092830067e-03 0.0 
0.0 0.0 0.0 
7.690192536232e-05 1.513345469563e-04 0.0 
1.513345469563e-04 5.531585512651e-04 0.0 
0.0 0.0 0.0 
5.341131344168e-05 1.700321674053e-04 0.0 
1.700321674053e-04 5.722511528977e-04 0.0 
0.0 0.0 0.0 
1.328532303861e-05 3.298735888766e-05 0.0 
3.298735888766e-05 2.302737872695e-04 0.0 
0.0 0.0 0.0 
-6.875898674763e-06 9.894984087053e-06 0.0 
9.894984087053e-06 1.846991031407e-04 0.0 
0.0 0.0 0.0 
-6.555273837276e-05 1.639596234476e-05 0.0 
1.639596234476e-05 1.857430891614e-03 0.0 
0.0 0.0 0.0 
-5.512137315485e-05 2.014887878796e-05 0.0 
2.014887878796e-05 1.913555279700e-03 0.0 
0.0 0.0 0.0 
1.009118218982e-04 2.592905244929e-06 0.0 
2.592905244929e-06 6.018681718050e-04 0.0 
0.0 0.0 0.0 
9.920855682092e-05 3.506465934089e-06 0.0 
3.506465934089e-06 6.293791608315e-04 0.0 
0.0 0.0 0.0 
9.469091261360e-05 1.244892021846e-04 0.0 
1.244892021846e-04 1.046338949165e-03 0.0 
0.0 0.0 0.0 
3.544798276104e-05 -3.260019838509e-05 0.0 
-3.260019838509e-05 2.279438027254e-04 0.0 
0.0 0.0 0.0 
-5.155420269944e-05 2.763511594365e-05 0.0 
2.763511594365e-05 1.939728543282e-03 0.0 
0.0 0.0 0.0 
1.228788737142e-04 1.225714409034e-04 0.0 
1.225714409034e-04 9.296833268857e-04 0.0 
0.0 0.0 0.0 
1.323968601531e-04 1.094147108539e-04 0.0 
1.094147108539e-04 8.561405757499e-04 0.0 
0.0 0.0 0.0 
9.164873969212e-05 -2.707037399779e-06 0.0 
-2.707037399779e-06 5.315719411750e-04 0.0 
0.0 0.0 0.0 
2.665155580384e-05 1.364722502825e-04 0.0 
1.364722502825e-04 4.302899755829e-04 0.0 
0.0 0.0 0.0 
2.140044712014e-05 1.084955562943e-04 0.0 
1.084955562943e-04 3.549445353073e-04 0.0 
0.0 0.0 0.0 
9.948557714889e-05 -5.627810992396e-06 0.0 
-5.627810992396e-06 3.859883950427e-04 0.0 
0.0 0.0 0.0 
5.765751695545e-05 -2.929940606887e-05 0.0 
-2.929940606887e-05 2.819589456682e-04 0.0 
0.0 0.0 0.0 
4.716113715186e-05 -1.087314429434e-05 0.0 
-1.087314429434e-05 2.674609666339e-04 0.0 
0.0 0.0 0.0 
7.574811121673e-05 1.379909437790e-04 0.0 
1.379909437790e-04 1.124719491039e-03 0.0 
0.0 0.0 0.0 
-7.342617562469e-05 8.292242682652e-05 0.0 
8.292242682652e-05 1.939218959121e-03 0.0 
0.0 0.0 0.0 
3.434840888195e-05 2.489022477237e-04 0.0 
2.489022477237e-04 1.340482944662e-03 0.0 
0.0 0.0 0.0 
3.919176956380e-05 2.428238313443e-04 0.0 
2.428238313443e-04 1.275437526948e-03 0.0 
0.0 0.0 0.0 
2.949714993346e-05 2.579578227068e-04 0.0 
2.579578227068e-04 1.404864105698e-03 0.0 
0.0 0.0 0.0 
1.040764864298e-05 -3.277994023440e-05 0.0 
-3.277994023440e-05 1.761377772181e-04 0.0 
0.0 0.0 0.0 
7.498000918612e-05 1.127696400896e-04 0.0 
1.127696400896e-04 1.092363089575e-03 0.0 
0.0 0.0 0.0 
7.746106761038e-05 1.766086315401e-05 0.0 
1.766086315401e-05 9.266387253812e-04 0.0 
0.0 0.0 0.0 
-2.192710413571e-05 2.650383584562e-04 0.0 
2.650383584562e-04 1.585313191547e-03 0.0 
0.0 0.0 0.0 
-3.764691488365e-05 2.566025491127e-04 0.0 
2.566025491127e-04 1.604578938775e-03 0.0 
0.0 0.0 0.0 
7.119214010480e-05 1.779352010084e-04 0.0 
1.779352010084e-04 6.355093483784e-04 0.0 
0.0 0.0 0.0 
4.619872300016e-05 1.946399320675e-04 0.0 
1.946399320675e-04 6.620136276804e-04 0.0 
0.0 0.0 0.0 
2.413040251352e-05 1.874864376283e-04 0.0 
1.874864376283e-04 6.024419657624e-04 0.0 
0.0 0.0 0.0 
1.666440057431e-05 2.099295404552e-04 0.0 
2.099295404552e-04 6.981913310233e-04 0.0 
0.0 0.0 0.0 
-1.570542326724e-04 1.271930761563e-04 0.0 
1.271930761563e-04 1.613986393768e-03 0.0 
0.0 0.0 0.0 
6.034020621844e-05 2.020709634644e-04 0.0 
2.020709634644e-04 7.253341311885e-04 0.0 
0.0 0.0 0.0 
-1.388172543245e-04 1.876559403515e-04 0.0 
1.876559403515e-04 1.493638185390e-03 0.0 
0.0 0.0 0.0 
-1.544184590912e-04 1.580734601529e-04 0.0 
1.580734601529e-04 1.515061698391e-03 0.0 
0.0 0.0 0.0 
-1.473508864351e-04 1.780747789673e-04 0.0 
1.780747789673e-04 1.457053617984e-03 0.0 
0.0 0.0 0.0 
-5.806215701596e-05 2.523029197991e-04 0.0 
2.523029197991e-04 1.165465580418e-03 0.0 
0.0 0.0 0.0 
-9.057524140549e-05 2.411811491855e-04 0.0 
2.411811491855e-04 1.217580543009e-03 0.0 
0.0 0.0 0.0 
1.071673055781e-04 1.431430811721e-04 0.0 
1.431430811721e-04 6.102950716359e-04 0.0 
0.0 0.0 0.0 
1.206412982356e-04 1.660262073635e-04 0.0 
1.660262073635e-04 8.905546139176e-04 0.0 
0.0 0.0 0.0 
1.022340526688e-04 1.166249583697e-06 0.0 
1.166249583697e-06 5.751096508471e-04 0.0 
0.0 0.0 0.0 
1.066610185108e-04 2.250107272708e-05 0.0 
2.250107272708e-05 7.410682565320e-04 0.0 
0.0 0.0 0.0 
1.311388037157e-04 5.226260073112e-05 0.0 
5.226260073112e-05 7.236718058153e-04 0.0 
0.0 0.0 0.0 
-6.684648439466e-05 5.318238487675e-05 0.0 
5.318238487675e-05 1.927980420674e-03 0.0 
0.0 0.0 0.0 
-5.507734523774e-05 5.002756617563e-05 0.0 
5.002756617563e-05 1.957599202709e-03 0.0 
0.0 0.0 0.0 
-9.365069075353e-05 1.837984526928e-05 0.0 
1.837984526928e-05 1.734396141572e-03 0.0 
0.0 0.0 0.0 
-9.127598040939e-05 1.229712620590e-05 0.0 
1.229712620590e-05 1.705708977513e-03 0.0 
0.0 0.0 0.0 
2.940548503783e-05 -2.648348679952e-05 0.0 
-2.648348679952e-05 2.042154651969e-04 0.0 
0.0 0.0 0.0 
2.015206040603e-05 -2.792992049106e-05 0.0 
-2.792992049106e-05 1.821853859207e-04 0.0 
0.0 0.0 0.0 
1.201384097651e-04 2.418955738500e-05 0.0 
2.418955738500e-05 6.617370730129e-04 0.0 
0.0 0.0 0.0 
8.354731698179e-05 9.596082742763e-05 0.0 
9.596082742763e-05 1.038348331746e-03 0.0 
0.0 0.0 0.0 
-8.344712719068e-05 1.029196132907e-04 0.0 
1.029196132907e-04 1.924287941356e-03 0.0 
0.0 0.0 0.0 
-7.775815357669e-05 1.213715765874e-04 0.0 
1.213715765874e-04 1.937046823139e-03 0.0 
0.0 0.0 0.0 
-9.202692049631e-05 1.262013904524e-04 0.0 
1.262013904524e-04 1.902922523203e-03 0.0 
0.0 0.0 0.0 
8.562571328730e-05 1.437811335228e-04 0.0 
1.437811335228e-04 1.103572617027e-03 0.0 
0.0 0.0 0.0 
1.278589939046e-04 8.664290945723e-05 0.0 
8.664290945723e-05 5.443219039886e-04 0.0 
0.0 0.0 0.0 
1.356440891350e-04 1.245829781794e-04 0.0 
1.245829781794e-04 8.319082331710e-04 0.0 
0.0 0.0 0.0 
1.043653658508e-05 -2.250750036927e-06 0.0 
-2.250750036927e-06 1.991071402011e-04 0.0 
0.0 0.0 0.0 
4.605469521794e-05 2.359257166620e-04 0.0 
2.359257166620e-04 1.147456319187e-03 0.0 
0.0 0.0 0.0 
1.198611387195e-05 -2.421868160392e-05 0.0 
-2.421868160392e-05 1.507063246934e-04 0.0 
0.0 0.0 0.0 
-8.579222768320e-05 2.265745621253e-04 0.0 
2.265745621253e-04 1.594785298841e-03 0.0 
0.0 0.0 0.0 
6.532137687761e-05 2.055686407596e-05 0.0 
2.055686407596e-05 9.996256601377e-04 0.0 
0.0 0.0 0.0 
5.875301787380e-05 2.949111036180e-05 0.0 
2.949111036180e-05 1.041867919928e-03 0.0 
0.0 0.0 0.0 
5.308667733139e-05 2.419229706303e-04 0.0 
2.419229706303e-04 1.327528599767e-03 0.0 
0.0 0.0 0.0 
-1.602026782007e-04 8.123446700849e-05 0.0 
8.123446700849e-05 1.568254104688e-03 0.0 
0.0 0.0 0.0 
6.244240076984e-05 2.278509204849e-04 0.0 
2.278509204849e-04 1.129732378127e-03 0.0 
0.0 0.0 0.0 
8.113555408185e-05 2.137092268020e-04 0.0 
2.137092268020e-04 1.048664176366e-03 0.0 
0.0 0.0 0.0 
-1.600306535681e-04 1.432641180529e-04 0.0 
1.432641180529e-04 1.478089653009e-03 0.0 
0.0 0.0 0.0 
-1.534892395857e-04 1.652179370692e-04 0.0 
1.652179370692e-04 1.423098080348e-03 0.0 
0.0 0.0 0.0 
-1.347250072250e-04 2.002373868685e-04 0.0 
2.002373868685e-04 1.390088063976e-03 0.0 
0.0 0.0 0.0 
-1.413295325693e-04 1.913152676004e-04 0.0 
1.913152676004e-04 1.355778992714e-03 0.0 
0.0 0.0 0.0 
1.022512354278e-04 -6.961932006084e-06 0.0 
-6.961932006084e-06 4.072577620887e-04 0.0 
0.0 0.0 0.0 
8.959641777528e-05 -1.666614253071e-05 0.0 
-1.666614253071e-05 3.711929787121e-04 0.0 
0.0 0.0 0.0 
-7.402353488173e-06 2.742514394588e-04 0.0 
2.742514394588e-04 1.574609925406e-03 0.0 
0.0 0.0 0.0 
1.602421341251e-05 2.699055060010e-04 0.0 
2.699055060010e-04 1.478692742597e-03 0.0 
0.0 0.0 0.0 
-2.853260583173e-05 2.678014459180e-04 0.0 
2.678014459180e-04 1.655006645753e-03 0.0 
0.0 0.0 0.0 
-4.381938487038e-05 2.564721726806e-04 0.0 
2.564721726806e-04 1.674778318162e-03 0.0 
0.0 0.0 0.0 
5.357514551259e-05 2.381093367443e-04 0.0 
2.381093367443e-04 1.327618585975e-03 0.0 
0.0 0.0 0.0 
6.774104748997e-05 2.195376722773e-04 0.0 
2.195376722773e-04 1.256819531397e-03 0.0 
0.0 0.0 0.0 
5.825980278836e-05 -1.010137707754e-05 0.0 
-1.010137707754e-05 3.223709926249e-04 0.0 
0.0 0.0 0.0 
-9.592438526422e-05 2.369401427949e-04 0.0 
2.369401427949e-04 1.174912499801e-03 0.0 
0.0 0.0 0.0 
-5.943101574727e-05 7.906987654701e-05 0.0 
7.906987654701e-05 1.969442124797e-03 0.0 
0.0 0.0 0.0 
-1.624590920396e-04 1.250280306658e-04 0.0 
1.250280306658e-04 1.526931442132e-03 0.0 
0.0 0.0 0.0 
6.347939143836e-05 1.057179788979e-04 0.0 
1.057179788979e-04 1.115476742631e-03 0.0 
0.0 0.0 0.0 
7.336424202979e-05 9.028086471316e-05 0.0 
9.028086471316e-05 1.064937506210e-03 0.0 
0.0 0.0 0.0 
-3.213905993142e-05 -6.063933842419e-06 0.0 
-6.063933842419e-06 1.474232789983e-04 0.0 
0.0 0.0 0.0 
-1.346477516294e-05 -1.787625138704e-05 0.0 
-1.787625138704e-05 1.618297048611e-04 0.0 
0.0 0.0 0.0 
-4.259595581383e-05 2.359996122700e-05 0.0 
2.359996122700e-05 1.968762676130e-03 0.0 
0.0 0.0 0.0 
-1.300503817753e-05 2.010837375059e-04 0.0 
2.010837375059e-04 6.426429259661e-04 0.0 
0.0 0.0 0.0 
-2.041575005292e-05 2.182311000532e-04 0.0 
2.182311000532e-04 7.416441633535e-04 0.0 
0.0 0.0 0.0 
-8.299191744499e-06 1.807674584671e-04 0.0 
1.807674584671e-04 5.462821741658e-04 0.0 
0.0 0.0 0.0 
3.051484042364e-05 8.546443980039e-06 0.0 
8.546443980039e-06 1.152576900035e-03 0.0 
0.0 0.0 0.0 
-8.639570615147e-05 2.545914341816e-07 0.0 
2.545914341816e-07 1.581637526046e-03 0.0 
0.0 0.0 0.0 
5.067746924063e-05 2.309948151088e-05 0.0 
2.309948151088e-05 1.074353069399e-03 0.0 
0.0 0.0 0.0 
-8.550375966828e-05 2.421564251353e-04 0.0 
2.421564251353e-04 1.261927842063e-03 0.0 
0.0 0.0 0.0 
-3.742919899978e-05 3.229414416116e-05 0.0 
3.229414416116e-05 1.994057610143e-03 0.0 
0.0 0.0 0.0 
7.536147667357e-05 2.192522878576e-04 0.0 
2.192522878576e-04 1.117822866945e-03 0.0 
0.0 0.0 0.0 
5.027876113384e-05 2.285160975350e-04 0.0 
2.285160975350e-04 8.875645142615e-04 0.0 
0.0 0.0 0.0 
1.027084784730e-04 1.300591751958e-04 0.0 
1.300591751958e-04 1.025853738229e-03 0.0 
0.0 0.0 0.0 
-4.793888677201e-05 1.487335029812e-05 0.0 
1.487335029812e-05 1.939626613139e-03 0.0 
0.0 0.0 0.0 
-3.381900827859e-05 1.883123040780e-05 0.0 
1.883123040780e-05 1.998942091220e-03 0.0 
0.0 0.0 0.0 
-1.088807582109e-04 2.327036770553e-05 0.0 
2.327036770553e-05 1.698301210409e-03 0.0 
0.0 0.0 0.0 
-1.048163860371e-04 1.470116022938e-05 0.0 
1.470116022938e-05 1.667945798535e-03 0.0 
0.0 0.0 0.0 
-1.142074458652e-04 3.275859400801e-05 0.0 
3.275859400801e-05 1.724188244571e-03 0.0 
0.0 0.0 0.0 
3.176106753181e-05 5.796531378504e-05 0.0 
5.796531378504e-05 2.840210547094e-04 0.0 
0.0 0.0 0.0 
-1.131162937364e-05 5.442589490815e-05 0.0 
5.442589490815e-05 2.222517723170e-04 0.0 
0.0 0.0 0.0 
-5.837980299789e-05 3.959439053300e-05 0.0 
3.959439053300e-05 1.934257833519e-03 0.0 
0.0 0.0 0.0 
7.337889229579e-05 -1.323575671732e-05 0.0 
-1.323575671732e-05 3.887244935702e-04 0.0 
0.0 0.0 0.0 
7.670875254770e-05 -8.765534885609e-06 0.0 
-8.765534885609e-06 4.201958181989e-04 0.0 
0.0 0.0 0.0 
4.387830644792e-05 -3.144100046105e-05 0.0 
-3.144100046105e-05 2.486924888870e-04 0.0 
0.0 0.0 0.0 
6.339843924641e-05 -2.778906527933e-05 0.0 
-2.778906527933e-05 3.028587442012e-04 0.0 
0.0 0.0 0.0 
1.049820402528e-04 7.835447414305e-06 0.0 
7.835447414305e-06 6.380812413324e-04 0.0 
0.0 0.0 0.0 
1.074651518901e-04 6.943822314542e-06 0.0 
6.943822314542e-06 6.113239852837e-04 0.0 
0.0 0.0 0.0 
-6.548039299470e-05 2.393813812053e-04 0.0 
2.393813812053e-04 1.573474988843e-03 0.0 
0.0 0.0 0.0 
-7.375752174334e-05 2.338804554822e-04 0.0 
2.338804554822e-04 1.641053681734e-03 0.0 
0.0 0.0 0.0 
-3.694706450045e-05 2.481905855749e-04 0.0 
2.481905855749e-04 1.423657041114e-03 0.0 
0.0 0.0 0.0 
1.281498218738e-04 1.033626963482e-04 0.0 
1.033626963482e-04 8.729813029996e-04 0.0 
0.0 0.0 0.0 
1.355996184709e-04 9.025263434991e-05 0.0 
9.025263434991e-05 8.007009719151e-04 0.0 
0.0 0.0 0.0 
1.386754886142e-04 9.642180244548e-05 0.0 
9.642180244548e-05 7.846244241817e-04 0.0 
0.0 0.0 0.0 
-5.108406985049e-05 6.139102494553e-05 0.0 
6.139102494553e-05 1.977684898190e-03 0.0 
0.0 0.0 0.0 
-3.698027325148e-05 5.757551293228e-05 0.0 
5.757551293228e-05 2.012033389207e-03 0.0 
0.0 0.0 0.0 
1.139317996046e-04 5.549460514625e-06 0.0 
5.549460514625e-06 4.454775281051e-04 0.0 
0.0 0.0 0.0 
1.119794498363e-04 8.400424569181e-06 0.0 
8.400424569181e-06 4.252769463915e-04 0.0 
0.0 0.0 0.0 
1.039403781440e-04 -7.362344837229e-06 0.0 
-7.362344837229e-06 4.284729956745e-04 0.0 
0.0 0.0 0.0 
-5.406352486087e-05 9.422013777351e-05 0.0 
9.422013777351e-05 1.986653467312e-03 0.0 
0.0 0.0 0.0 
4.284934171273e-05 3.331683315609e-05 0.0 
3.331683315609e-05 1.116966120203e-03 0.0 
0.0 0.0 0.0 
4.991888084793e-05 3.886499493720e-05 0.0 
3.886499493720e-05 1.085276045016e-03 0.0 
0.0 0.0 0.0 
3.095029479927e-07 -2.518682132269e-05 0.0 
-2.518682132269e-05 1.302801174864e-04 0.0 
0.0 0.0 0.0 
9.388739178033e-06 -2.924513978705e-05 0.0 
-2.924513978705e-05 1.605591777024e-04 0.0 
0.0 0.0 0.0 
-1.053292210224e-05 1.328863027391e-04 0.0 
1.328863027391e-04 3.723753060522e-04 0.0 
0.0 0.0 0.0 
-1.505391234441e-05 1.048556996906e-04 0.0 
1.048556996906e-04 2.955050852837e-04 0.0 
0.0 0.0 0.0 
-6.969820225124e-05 1.406206502550e-04 0.0 
1.406206502550e-04 1.944718956610e-03 0.0 
0.0 0.0 0.0 
-8.467142176827e-05 1.469121096277e-04 0.0 
1.469121096277e-04 1.910413646429e-03 0.0 
0.0 0.0 0.0 
-5.275541707680e-05 1.358050901965e-04 0.0 
1.358050901965e-04 1.981947857745e-03 0.0 
0.0 0.0 0.0 
5.055651847263e-05 -6.883339501909e-06 0.0 
-6.883339501909e-06 2.865288439186e-04 0.0 
0.0 0.0 0.0 
5.149101225140e-05 2.385024243501e-04 0.0 
2.385024243501e-04 1.264365491558e-03 0.0 
0.0 0.0 0.0 
6.450281584795e-05 1.579290972955e-04 0.0 
1.579290972955e-04 1.181635833052e-03 0.0 
0.0 0.0 0.0 
7.552281912637e-05 1.648425760304e-04 0.0 
1.648425760304e-04 1.162515455263e-03 0.0 
0.0 0.0 0.0 
5.078983312228e-05 1.526977776971e-04 0.0 
1.526977776971e-04 1.214258619921e-03 0.0 
0.0 0.0 0.0 
5.037272195703e-05 2.450770620222e-04 0.0 
2.450770620222e-04 1.329118237944e-03 0.0 
0.0 0.0 0.0 
3.834402120680e-05 2.563322671760e-04 0.0 
2.563322671760e-04 1.396101658523e-03 0.0 
0.0 0.0 0.0 
2.219538405912e-05 2.699360952294e-04 0.0 
2.699360952294e-04 1.470034222442e-03 0.0 
0.0 0.0 0.0 
-5.129496264700e-05 4.026312352754e-06 0.0 
4.026312352754e-06 1.312945002232e-04 0.0 
0.0 0.0 0.0 
-3.694094855333e-05 1.133309252261e-05 0.0 
1.133309252261e-05 1.980511052376e-03 0.0 
0.0 0.0 0.0 
-9.632417933777e-05 1.066896091309e-05 0.0 
1.066896091309e-05 1.670477919626e-03 0.0 
0.0 0.0 0.0 
-7.642379582520e-05 -6.824032094723e-06 0.0 
-6.824032094723e-06 1.092058288724e-04 0.0 
0.0 0.0 0.0 
-9.299730507021e-05 6.521016064336e-06 0.0 
6.521016064336e-06 1.641266969902e-03 0.0 
0.0 0.0 0.0 
-8.956038025650e-05 7.825074500331e-06 0.0 
7.825074500331e-06 1.676135877596e-03 0.0 
0.0 0.0 0.0 
-9.127372455077e-05 3.286576538918e-06 0.0 
3.286576538918e-06 1.608217656146e-03 0.0 
0.0 0.0 0.0 
3.947599095555e-05 -7.315947116274e-06 0.0 
-7.315947116274e-06 2.314771127993e-04 0.0 
0.0 0.0 0.0 
-1.148246475055e-04 1.954256383980e-05 0.0 
1.954256383980e-05 1.655127150173e-03 0.0 
0.0 0.0 0.0 
-1.214624836670e-04 3.170728917220e-05 0.0 
3.170728917220e-05 1.691339314547e-03 0.0 
0.0 0.0 0.0 
-1.495680172460e-05 -2.312800262639e-05 0.0 
-2.312800262639e-05 9.993794902265e-05 0.0 
0.0 0.0 0.0 
-3.813953992902e-05 8.820257583904e-05 0.0 
8.820257583904e-05 2.015637007610e-03 0.0 
0.0 0.0 0.0 
-5.443469927739e-06 -1.982616598658e-05 0.0 
-1.982616598658e-05 1.011455505159e-04 0.0 
0.0 0.0 0.0 
4.995176411412e-06 -1.935752010967e-05 0.0 
-1.935752010967e-05 1.205908835354e-04 0.0 
0.0 0.0 0.0 
5.483635766464e-05 1.000746066911e-04 0.0 
1.000746066911e-04 1.142636475039e-03 0.0 
0.0 0.0 0.0 
6.363017084547e-05 8.373242793130e-05 0.0 
8.373242793130e-05 1.091418956172e-03 0.0 
0.0 0.0 0.0 
4.318998039206e-05 9.160632629080e-05 0.0 
9.160632629080e-05 1.167943349100e-03 0.0 
0.0 0.0 0.0 
5.226753535833e-05 7.783030344299e-05 0.0 
7.783030344299e-05 1.117134295340e-03 0.0 
0.0 0.0 0.0 
7.124473437958e-05 6.962644992968e-05 0.0 
6.962644992968e-05 1.042214658984e-03 0.0 
0.0 0.0 0.0 
6.149961333316e-05 6.457045267687e-05 0.0 
6.457045267687e-05 1.072346049174e-03 0.0 
0.0 0.0 0.0 
-1.009279523036e-04 8.700918297048e-06 0.0 
8.700918297048e-06 1.636313321389e-03 0.0 
0.0 0.0 0.0 
3.995090190131e-05 7.333281358073e-05 0.0 
7.333281358073e-05 1.158923546748e-03 0.0 
0.0 0.0 0.0 
5.081367151220e-05 5.783022001001e-05 0.0 
5.783022001001e-05 1.104290777125e-03 0.0 
0.0 0.0 0.0 
3.002952723304e-05 6.459710908026e-05 0.0 
6.459710908026e-05 1.191126264273e-03 0.0 
0.0 0.0 0.0 
-1.568310672959e-04 1.454500907480e-04 0.0 
1.454500907480e-04 1.392138699720e-03 0.0 
0.0 0.0 0.0 
3.546765699821e-06 2.283587742880e-04 0.0 
2.283587742880e-04 7.965925128651e-04 0.0 
0.0 0.0 0.0 
-3.220724645603e-05 2.309601641185e-04 0.0 
2.309601641185e-04 8.470753373043e-04 0.0 
0.0 0.0 0.0 
-6.542810797878e-05 2.206455884604e-04 0.0 
2.206455884604e-04 8.054388819475e-04 0.0 
0.0 0.0 0.0 
-2.896540139996e-05 2.718584442533e-04 0.0 
2.718584442533e-04 1.731010116381e-03 0.0 
0.0 0.0 0.0 
-4.661494703678e-05 2.546405372486e-04 0.0 
2.546405372486e-04 1.736262627305e-03 0.0 
0.0 0.0 0.0 
7.102756906282e-05 1.279658268351e-05 0.0 
1.279658268351e-05 9.601268688157e-04 0.0 
0.0 0.0 0.0 
8.131193578901e-05 1.069380101602e-05 0.0 
1.069380101602e-05 8.877113276614e-04 0.0 
0.0 0.0 0.0 
-8.866992381789e-05 4.421430597962e-06 0.0 
4.421430597962e-06 1.642957618483e-03 0.0 
0.0 0.0 0.0 
-8.632973948445e-05 2.668022373593e-06 0.0 
2.668022373593e-06 1.638729406715e-03 0.0 
0.0 0.0 0.0 
-8.426335726386e-05 6.585822205328e-06 0.0 
6.585822205328e-06 1.694932180088e-03 0.0 
0.0 0.0 0.0 
-8.276057096707e-05 3.801602923974e-06 0.0 
3.801602923974e-06 1.686849706337e-03 0.0 
0.0 0.0 0.0 
-7.935656168639e-05 7.643616101097e-06 0.0 
7.643616101097e-06 1.742307826744e-03 0.0 
0.0 0.0 0.0 
-7.811313460382e-05 4.033301211289e-06 0.0 
4.033301211289e-06 1.733130153637e-03 0.0 
0.0 0.0 0.0 
-7.325090274409e-05 6.888699503187e-06 0.0 
6.888699503187e-06 1.788667655747e-03 0.0 
0.0 0.0 0.0 
1.047706881576e-05 2.846897550863e-04 0.0 
2.846897550863e-04 1.548894214797e-03 0.0 
0.0 0.0 0.0 
-5.301201205586e-05 1.955407035478e-04 0.0 
1.955407035478e-04 5.892145425997e-04 0.0 
0.0 0.0 0.0 
-1.630914805824e-04 1.049902940289e-04 0.0 
1.049902940289e-04 1.487852691409e-03 0.0 
0.0 0.0 0.0 
5.017946382861e-05 2.331634884324e-04 0.0 
2.331634884324e-04 1.329701939785e-03 0.0 
0.0 0.0 0.0 
6.469214377303e-05 2.129007197491e-04 0.0 
2.129007197491e-04 1.257263793037e-03 0.0 
0.0 0.0 0.0 
-1.217031679050e-04 2.171297864391e-04 0.0 
2.171297864391e-04 1.273399936098e-03 0.0 
0.0 0.0 0.0 
-1.287708975495e-04 2.027908182572e-04 0.0 
2.027908182572e-04 1.244137520285e-03 0.0 
0.0 0.0 0.0 
5.007921149934e-05 1.249017431920e-04 0.0 
1.249017431920e-04 1.181925939617e-03 0.0 
0.0 0.0 0.0 
8.232170165778e-05 1.859096314935e-04 0.0 
1.859096314935e-04 7.015771297853e-04 0.0 
0.0 0.0 0.0 
-2.740633657326e-05 1.054715092726e-04 0.0 
1.054715092726e-04 2.035654123348e-03 0.0 
0.0 0.0 0.0 
-1.016492536125e-04 4.599715959354e-05 0.0 
4.599715959354e-05 9.713264519558e-05 0.0 
0.0 0.0 0.0 
-6.074123857134e-05 4.334424167417e-05 0.0 
4.334424167417e-05 1.481105278250e-04 0.0 
0.0 0.0 0.0 
6.854653163476e-05 2.087572394532e-04 0.0 
2.087572394532e-04 7.912478011459e-04 0.0 
0.0 0.0 0.0 
-1.159546515209e-04 2.227953069726e-04 0.0 
2.227953069726e-04 1.310454937594e-03 0.0 
0.0 0.0 0.0 
-1.286899407256e-05 2.417944545349e-04 0.0 
2.417944545349e-04 9.008515831753e-04 0.0 
0.0 0.0 0.0 
-4.646579208408e-05 2.431947612210e-04 0.0 
2.431947612210e-04 9.592900141911e-04 0.0 
0.0 0.0 0.0 
1.174686278635e-04 1.168547681176e-04 0.0 
1.168547681176e-04 9.480297500063e-04 0.0 
0.0 0.0 0.0 
-1.527507689873e-06 -2.999509657304e-05 0.0 
-2.999509657304e-05 1.418035408419e-04 0.0 
0.0 0.0 0.0 
-7.926892785337e-06 1.584504686841e-04 0.0 
1.584504686841e-04 4.561776267959e-04 0.0 
0.0 0.0 0.0 
-7.465016704819e-05 1.219718665842e-05 0.0 
1.219718665842e-05 1.795995196786e-03 0.0 
0.0 0.0 0.0 
-5.148480191778e-05 1.589752509528e-04 0.0 
1.589752509528e-04 4.006227131793e-04 0.0 
0.0 0.0 0.0 
7.573740197649e-05 5.950069192384e-06 0.0 
5.950069192384e-06 9.248003732736e-04 0.0 
0.0 0.0 0.0 
9.988830406168e-05 1.692090514987e-04 0.0 
1.692090514987e-04 6.881021043455e-04 0.0 
0.0 0.0 0.0 
-5.429545865445e-05 2.512707002423e-04 0.0 
2.512707002423e-04 1.215795246613e-03 0.0 
0.0 0.0 0.0 
2.765002204907e-05 1.631122450976e-04 0.0 
1.631122450976e-04 5.129417111052e-04 0.0 
0.0 0.0 0.0 
3.427264717389e-05 2.170853475110e-04 0.0 
2.170853475110e-04 7.589215491564e-04 0.0 
0.0 0.0 0.0 
-1.487937427744e-04 1.548656372510e-04 0.0 
1.548656372510e-04 1.606600113862e-03 0.0 
0.0 0.0 0.0 
-1.595948538444e-04 9.952725637367e-05 0.0 
9.952725637367e-05 1.613465717007e-03 0.0 
0.0 0.0 0.0 
-1.620219241835e-04 1.106241168236e-04 0.0 
1.106241168236e-04 1.571723874921e-03 0.0 
0.0 0.0 0.0 
1.138214430038e-04 1.527109561128e-04 0.0 
1.527109561128e-04 6.801179639087e-04 0.0 
0.0 0.0 0.0 
-6.957057697935e-05 2.443926998196e-04 0.0 
2.443926998196e-04 1.069625733894e-03 0.0 
0.0 0.0 0.0 
-8.738979761041e-05 2.278977269802e-04 0.0 
2.278977269802e-04 1.025583543443e-03 0.0 
0.0 0.0 0.0 
-1.174196494916e-04 2.118554273181e-04 0.0 
2.118554273181e-04 1.465313597498e-03 0.0 
0.0 0.0 0.0 
-1.048834826272e-04 1.310286675189e-04 0.0 
1.310286675189e-04 1.866761022299e-03 0.0 
0.0 0.0 0.0 
-9.725905153259e-05 1.519547866169e-04 0.0 
1.519547866169e-04 1.871984658969e-03 0.0 
0.0 0.0 0.0 
-7.522797670160e-05 1.669779808844e-04 0.0 
1.669779808844e-04 1.911964657357e-03 0.0 
0.0 0.0 0.0 
-8.777622820803e-05 1.729524225970e-04 0.0 
1.729524225970e-04 1.872741296247e-03 0.0 
0.0 0.0 0.0 
-1.081512598139e-04 1.575185180215e-04 0.0 
1.575185180215e-04 1.831081001563e-03 0.0 
0.0 0.0 0.0 
-9.772341592470e-05 1.787302010529e-04 0.0 
1.787302010529e-04 1.829476790532e-03 0.0 
0.0 0.0 0.0 
-7.489064518705e-05 1.937427875912e-04 0.0 
1.937427875912e-04 1.870673390392e-03 0.0 
0.0 0.0 0.0 
-8.428136854699e-05 2.002870598380e-04 0.0 
2.002870598380e-04 1.824728426265e-03 0.0 
0.0 0.0 0.0 
-5.754205968908e-05 2.177786082013e-04 0.0 
2.177786082013e-04 1.873243772450e-03 0.0 
0.0 0.0 0.0 
-6.968912734360e-05 2.205847894904e-04 0.0 
2.205847894904e-04 1.814329178005e-03 0.0 
0.0 0.0 0.0 
-9.024247331957e-05 2.060202853731e-04 0.0 
2.060202853731e-04 1.772077488472e-03 0.0 
0.0 0.0 0.0 
-7.557736948285e-05 2.242119802078e-04 0.0 
2.242119802078e-04 1.759576419091e-03 0.0 
0.0 0.0 0.0 
-5.737067044589e-05 2.388028915667e-04 0.0 
2.388028915667e-04 1.797747597537e-03 0.0 
0.0 0.0 0.0 
-9.347408310053e-05 2.120124353482e-04 0.0 
2.120124353482e-04 1.716734060154e-03 0.0 
0.0 0.0 0.0 
3.416799987658e-05 2.524875066304e-04 0.0 
2.524875066304e-04 1.399454484237e-03 0.0 
0.0 0.0 0.0 
7.173633468642e-05 2.138351371239e-04 0.0 
2.138351371239e-04 8.603436909146e-04 0.0 
0.0 0.0 0.0 
-2.904895946299e-05 2.508579208676e-05 0.0 
2.508579208676e-05 1.718248006483e-04 0.0 
0.0 0.0 0.0 
-4.435322850032e-05 7.272445902733e-05 0.0 
7.272445902733e-05 1.990155676162e-04 0.0 
0.0 0.0 0.0 
-7.947856667108e-05 2.419298944163e-04 0.0 
2.419298944163e-04 1.307000828479e-03 0.0 
0.0 0.0 0.0 
-2.997133072696e-05 2.261460005203e-04 0.0 
2.261460005203e-04 1.928401135967e-03 0.0 
0.0 0.0 0.0 
-3.134975389670e-05 1.878392034032e-04 0.0 
1.878392034032e-04 1.978863751816e-03 0.0 
0.0 0.0 0.0 
9.536862613213e-05 1.330711093534e-04 0.0 
1.330711093534e-04 5.424658739876e-04 0.0 
0.0 0.0 0.0 
-1.278785765739e-05 2.934727642807e-04 0.0 
2.934727642807e-04 1.760524361725e-03 0.0 
0.0 0.0 0.0 
-1.574141195314e-04 1.408984387224e-04 0.0 
1.408984387224e-04 1.566694493106e-03 0.0 
0.0 0.0 0.0 
6.314251806150e-05 6.673567552718e-05 0.0 
6.673567552718e-05 3.447675426924e-04 0.0 
0.0 0.0 0.0 
-2.669545893415e-06 3.024291073350e-04 0.0 
3.024291073350e-04 1.677495581399e-03 0.0 
0.0 0.0 0.0 
-1.161419270530e-04 1.361337740399e-04 0.0 
1.361337740399e-04 1.828447081134e-03 0.0 
0.0 0.0 0.0 
-1.254814461265e-04 1.414611919505e-04 0.0 
1.414611919505e-04 1.787342109525e-03 0.0 
0.0 0.0 0.0 
-1.311634525768e-04 1.196907523437e-04 0.0 
1.196907523437e-04 1.783023232201e-03 0.0 
0.0 0.0 0.0 
-2.787853574008e-05 1.547915997526e-04 0.0 
1.547915997526e-04 2.012139334282e-03 0.0 
0.0 0.0 0.0 
-1.186873706142e-04 4.493973991085e-05 0.0 
4.493973991085e-05 1.750223409625e-03 0.0 
0.0 0.0 0.0 
1.357779113139e-05 2.869062178645e-04 0.0 
2.869062178645e-04 1.521073049462e-03 0.0 
0.0 0.0 0.0 
1.142156010417e-04 1.753245915924e-04 0.0 
1.753245915924e-04 9.631585497220e-04 0.0 
0.0 0.0 0.0 
1.076415127515e-04 1.858956299298e-04 0.0 
1.858956299298e-04 9.644672635712e-04 0.0 
0.0 0.0 0.0 
1.129314993634e-04 1.780080840649e-04 0.0 
1.780080840649e-04 8.926575318846e-04 0.0 
0.0 0.0 0.0 
-1.047723490803e-04 1.848711220212e-04 0.0 
1.848711220212e-04 1.781526788925e-03 0.0 
0.0 0.0 0.0 
2.529644324945e-05 2.346344293061e-04 0.0 
2.346344293061e-04 1.382919437395e-03 0.0 
0.0 0.0 0.0 
4.767101407629e-05 2.122711952964e-04 0.0 
2.122711952964e-04 1.300975604262e-03 0.0 
0.0 0.0 0.0 
4.864779532291e-05 1.979600549819e-04 0.0 
1.979600549819e-04 1.277076555656e-03 0.0 
0.0 0.0 0.0 
6.821547873120e-05 1.911558569039e-04 0.0 
1.911558569039e-04 1.215869343252e-03 0.0 
0.0 0.0 0.0 
2.677842760905e-05 2.032633777275e-04 0.0 
2.032633777275e-04 1.334369245660e-03 0.0 
0.0 0.0 0.0 
-2.337070452048e-05 2.594816440108e-04 0.0 
2.594816440108e-04 1.873623287361e-03 0.0 
0.0 0.0 0.0 
-1.937438918472e-05 2.738211626601e-04 0.0 
2.738211626601e-04 1.840694729465e-03 0.0 
0.0 0.0 0.0 
9.552204465683e-05 -3.064002035550e-06 0.0 
-3.064002035550e-06 3.653972029215e-04 0.0 
0.0 0.0 0.0 
1.087997078526e-04 1.278835929846e-05 0.0 
1.278835929846e-05 4.062939011991e-04 0.0 
0.0 0.0 0.0 
1.226614200010e-04 2.526288945313e-05 0.0 
2.526288945313e-05 4.680657951076e-04 0.0 
0.0 0.0 0.0 
1.198720651251e-04 3.144399913058e-05 0.0 
3.144399913058e-05 4.510295084079e-04 0.0 
0.0 0.0 0.0 
1.040786356763e-04 1.882107084567e-05 0.0 
1.882107084567e-05 3.886263093558e-04 0.0 
0.0 0.0 0.0 
1.153693719132e-04 3.937173931316e-05 0.0 
3.937173931316e-05 4.355137171370e-04 0.0 
0.0 0.0 0.0 
1.281156208119e-04 5.233825588191e-05 0.0 
5.233825588191e-05 4.998206610366e-04 0.0 
0.0 0.0 0.0 
1.089558530088e-04 4.942467533312e-05 0.0 
4.942467533312e-05 4.221646218527e-04 0.0 
0.0 0.0 0.0 
-6.078344080496e-05 2.428561557385e-04 0.0 
2.428561557385e-04 1.689135075328e-03 0.0 
0.0 0.0 0.0 
2.571973765964e-05 1.720940501695e-04 0.0 
1.720940501695e-04 1.298479505433e-03 0.0 
0.0 0.0 0.0 
1.268262549780e-04 6.486479855882e-05 0.0 
6.486479855882e-05 7.934469943748e-04 0.0 
0.0 0.0 0.0 
1.322078077767e-04 6.822003004525e-05 0.0 
6.822003004525e-05 7.705321028604e-04 0.0 
0.0 0.0 0.0 
1.353218045122e-04 5.530821406679e-05 0.0 
5.530821406679e-05 7.013096726771e-04 0.0 
0.0 0.0 0.0 
1.034699642094e-04 -6.687812025877e-07 0.0 
-6.687812025877e-07 5.487865462550e-04 0.0 
0.0 0.0 0.0 
1.097439401982e-04 5.802579721658e-06 0.0 
5.802579721658e-06 5.849478015408e-04 0.0 
0.0 0.0 0.0 
1.121071345875e-04 1.449105612482e-05 0.0 
1.449105612482e-05 6.487769782290e-04 0.0 
0.0 0.0 0.0 
9.674785289926e-05 -5.370037492155e-06 0.0 
-5.370037492155e-06 5.137706160310e-04 0.0 
0.0 0.0 0.0 
2.331282350624e-05 2.465278652522e-04 0.0 
2.465278652522e-04 1.293585165482e-03 0.0 
0.0 0.0 0.0 
2.518207468320e-05 1.563422015384e-04 0.0 
1.563422015384e-04 1.282061857005e-03 0.0 
0.0 0.0 0.0 
1.349687851900e-04 1.164500820248e-04 0.0 
1.164500820248e-04 8.425938863927e-04 0.0 
0.0 0.0 0.0 
1.117003191568e-04 4.604921783845e-06 0.0 
4.604921783845e-06 5.589956867180e-04 0.0 
0.0 0.0 0.0 
-1.285761348971e-04 2.140597541392e-05 0.0 
2.140597541392e-05 1.594709704200e-03 0.0 
0.0 0.0 0.0 
-1.354546372944e-04 3.887184004892e-05 0.0 
3.887184004892e-05 1.646603080552e-03 0.0 
0.0 0.0 0.0 
-1.445297965644e-04 4.963497561284e-05 0.0 
4.963497561284e-05 1.644608466036e-03 0.0 
0.0 0.0 0.0 
-1.393126239624e-04 5.959094680410e-05 0.0 
5.959094680410e-05 1.699297742458e-03 0.0 
0.0 0.0 0.0 
-1.279629457931e-04 3.034815793367e-05 0.0 
3.034815793367e-05 1.653632791001e-03 0.0 
0.0 0.0 0.0 
1.022575918913e-04 8.367374501815e-06 0.0 
8.367374501815e-06 6.653944414945e-04 0.0 
0.0 0.0 0.0 
9.953051772886e-05 8.415005869119e-06 0.0 
8.415005869119e-06 6.931037184112e-04 0.0 
0.0 0.0 0.0 
9.769319588360e-05 4.316449713447e-06 0.0 
4.316449713447e-06 6.571611175062e-04 0.0 
0.0 0.0 0.0 
9.683694751546e-05 7.746259600637e-06 0.0 
7.746259600637e-06 7.211309151819e-04 0.0 
0.0 0.0 0.0 
9.628644962090e-05 3.656117094032e-06 0.0 
3.656117094032e-06 6.834707218591e-04 0.0 
0.0 0.0 0.0 
9.599835450062e-05 1.230992239719e-06 0.0 
1.230992239719e-06 6.248797692351e-04 0.0 
0.0 0.0 0.0 
9.431355840602e-05 6.020525066010e-06 0.0 
6.020525066010e-06 7.482283794377e-04 0.0 
0.0 0.0 0.0 
9.460491814713e-05 2.930707766448e-06 0.0 
2.930707766448e-06 7.062498471757e-04 0.0 
0.0 0.0 0.0 
-1.151981485521e-04 1.089392540718e-05 0.0 
1.089392540718e-05 1.593508065281e-03 0.0 
0.0 0.0 0.0 
-9.119781500133e-05 -1.554784460008e-05 0.0 
-1.554784460008e-05 7.884971983141e-05 0.0 
0.0 0.0 0.0 
-4.923937097639e-05 -2.446549414584e-05 0.0 
-2.446549414584e-05 1.108437597927e-04 0.0 
0.0 0.0 0.0 
-4.474179049925e-05 -2.624382206104e-05 0.0 
-2.624382206104e-05 1.061917306933e-04 0.0 
0.0 0.0 0.0 
-1.627934707258e-05 -3.021516947158e-05 0.0 
-3.021516947158e-05 1.479699295557e-04 0.0 
0.0 0.0 0.0 
-1.523337333798e-05 -2.430241749558e-05 0.0 
-2.430241749558e-05 1.534693840217e-04 0.0 
0.0 0.0 0.0 
1.746887573501e-05 -2.642706895815e-05 0.0 
-2.642706895815e-05 1.970716927132e-04 0.0 
0.0 0.0 0.0 
1.301151569388e-05 -2.106267932904e-05 0.0 
-2.106267932904e-05 1.938521858171e-04 0.0 
0.0 0.0 0.0 
-5.334460573642e-05 -2.163474148945e-05 0.0 
-2.163474148945e-05 1.140811064046e-04 0.0 
0.0 0.0 0.0 
-7.114966012869e-05 -1.628762850477e-05 0.0 
-1.628762850477e-05 6.918073187556e-05 0.0 
0.0 0.0 0.0 
-3.748797822643e-05 -2.591468334469e-05 0.0 
-2.591468334469e-05 1.025657918751e-04 0.0 
0.0 0.0 0.0 
-6.010403620236e-05 -1.552907420730e-05 0.0 
-1.552907420730e-05 6.388632964346e-05 0.0 
0.0 0.0 0.0 
-3.115874514945e-05 -2.576656899317e-05 0.0 
-2.576656899317e-05 9.779084485044e-05 0.0 
0.0 0.0 0.0 
-5.445667319478e-06 -3.160044885603e-05 0.0 
-3.160044885603e-05 1.483141637804e-04 0.0 
0.0 0.0 0.0 
3.105544936951e-05 -3.072905291429e-05 0.0 
-3.072905291429e-05 2.150790948124e-04 0.0 
0.0 0.0 0.0 
2.060317513264e-05 3.692937212147e-05 0.0 
3.692937212147e-05 1.200496850462e-03 0.0 
0.0 0.0 0.0 
8.806157086498e-05 -9.738384807882e-07 0.0 
-9.738384807882e-07 5.305954487949e-04 0.0 
0.0 0.0 0.0 
8.546420027041e-05 -2.541968401599e-06 0.0 
-2.541968401599e-06 5.015640287043e-04 0.0 
0.0 0.0 0.0 
7.902133127939e-05 -4.108147428188e-06 0.0 
-4.108147428188e-06 4.444538135956e-04 0.0 
0.0 0.0 0.0 
8.337593585761e-05 -5.605525762085e-06 0.0 
-5.605525762085e-06 4.751307341496e-04 0.0 
0.0 0.0 0.0 
9.058974641155e-05 -8.169686315679e-07 0.0 
-8.169686315679e-07 5.548834347097e-04 0.0 
0.0 0.0 0.0 
7.387675578348e-05 -2.402271702805e-06 0.0 
-2.402271702805e-06 4.135037661682e-04 0.0 
0.0 0.0 0.0 
7.069460726779e-05 -5.154516773836e-06 0.0 
-5.154516773836e-06 3.926007413112e-04 0.0 
0.0 0.0 0.0 
3.628634245745e-06 -3.425918165962e-06 0.0 
-3.425918165962e-06 3.674590577011e-05 0.0 
0.0 0.0 0.0 
1.176558791501e-05 -5.783310629800e-06 0.0 
-5.783310629800e-06 8.072595569120e-05 0.0 
0.0 0.0 0.0 
1.072529367661e-05 -2.954052852462e-06 0.0 
-2.954052852462e-06 7.584883358027e-05 0.0 
0.0 0.0 0.0 
1.982257265798e-05 -4.960313787778e-06 0.0 
-4.960313787778e-06 1.300482116506e-04 0.0 
0.0 0.0 0.0 
1.901131351164e-05 -8.705432061262e-06 0.0 
-8.705432061262e-06 1.292591888824e-04 0.0 
0.0 0.0 0.0 
1.000535825750e-05 -7.798393715372e-06 0.0 
-7.798393715372e-06 8.200348607956e-05 0.0 
0.0 0.0 0.0 
7.291579910233e-06 -9.959772969328e-06 0.0 
-9.959772969328e-06 8.336521080129e-05 0.0 
0.0 0.0 0.0 
-3.600864306656e-06 -6.691076307999e-06 0.0 
-6.691076307999e-06 3.977377610727e-05 0.0 
0.0 0.0 0.0 
4.498002656561e-06 -1.250070886006e-05 0.0 
-1.250070886006e-05 8.455037864223e-05 0.0 
0.0 0.0 0.0 
1.632043929101e-05 -1.430410433495e-05 0.0 
-1.430410433495e-05 1.331365501884e-04 0.0 
0.0 0.0 0.0 
-8.407967412286e-06 -8.059942367046e-06 0.0 
-8.059942367046e-06 4.042738846533e-05 0.0 
0.0 0.0 0.0 
-6.071740401751e-05 3.624296256592e-06 0.0 
3.624296256592e-06 1.864365307861e-03 0.0 
0.0 0.0 0.0 
-5.562882645419e-05 8.913363667380e-06 0.0 
8.913363667380e-06 1.895346167026e-03 0.0 
0.0 0.0 0.0 
2.518376441811e-05 1.265102505415e-04 0.0 
1.265102505415e-04 1.252432194700e-03 0.0 
0.0 0.0 0.0 
-1.040826936343e-04 6.102162229865e-06 0.0 
6.102162229865e-06 1.598178113198e-03 0.0 
0.0 0.0 0.0 
-3.989679739051e-05 -1.313606828648e-05 0.0 
-1.313606828648e-05 5.584154730698e-05 0.0 
0.0 0.0 0.0 
-1.890493803260e-05 3.681708715344e-05 0.0 
3.681708715344e-05 2.053085131936e-03 0.0 
0.0 0.0 0.0 
-1.984785579919e-05 6.805537678562e-05 0.0 
6.805537678562e-05 2.055028555432e-03 0.0 
0.0 0.0 0.0 
-1.742613456287e-05 5.795170214872e-05 0.0 
5.795170214872e-05 2.058658959377e-03 0.0 
0.0 0.0 0.0 
4.873129468175e-05 7.994611995574e-06 0.0 
7.994611995574e-06 1.075183099892e-03 0.0 
0.0 0.0 0.0 
4.131383577222e-05 1.609610310052e-05 0.0 
1.609610310052e-05 1.113569015431e-03 0.0 
0.0 0.0 0.0 
-1.665163033572e-05 2.077624347982e-05 0.0 
2.077624347982e-05 2.056188455892e-03 0.0 
0.0 0.0 0.0 
7.207126625256e-05 -2.287358964708e-05 0.0 
-2.287358964708e-05 3.463772256329e-04 0.0 
0.0 0.0 0.0 
-6.541951355206e-05 1.888108464377e-04 0.0 
1.888108464377e-04 1.911523405189e-03 0.0 
0.0 0.0 0.0 
-4.784204974075e-05 3.638170660504e-05 0.0 
3.638170660504e-05 1.963515603306e-03 0.0 
0.0 0.0 0.0 
4.490893448920e-05 8.585348248148e-05 0.0 
8.585348248148e-05 3.463254371823e-04 0.0 
0.0 0.0 0.0 
7.652802286269e-05 -2.353256752428e-05 0.0 
-2.353256752428e-05 3.367749358719e-04 0.0 
0.0 0.0 0.0 
8.685764848830e-05 1.453314309603e-05 0.0 
1.453314309603e-05 8.557075634050e-04 0.0 
0.0 0.0 0.0 
1.076975458755e-04 3.204920816086e-05 0.0 
3.204920816086e-05 7.815796126051e-04 0.0 
0.0 0.0 0.0 
6.662101346714e-05 3.502165556914e-05 0.0 
3.502165556914e-05 1.010591658779e-03 0.0 
0.0 0.0 0.0 
9.681151583544e-05 1.983551215582e-05 0.0 
1.983551215582e-05 7.969503094862e-04 0.0 
0.0 0.0 0.0 
8.276394292250e-05 4.485292860215e-05 0.0 
4.485292860215e-05 9.516603049734e-04 0.0 
0.0 0.0 0.0 
5.154674247481e-05 1.812377015320e-04 0.0 
1.812377015320e-04 1.246949995075e-03 0.0 
0.0 0.0 0.0 
3.549188303257e-05 -1.129967165469e-05 0.0 
-1.129967165469e-05 2.131051046311e-04 0.0 
0.0 0.0 0.0 
-9.577548060515e-05 2.565372157634e-05 0.0 
2.565372157634e-05 1.761794331800e-03 0.0 
0.0 0.0 0.0 
-8.600653817144e-05 1.325007380805e-05 0.0 
1.325007380805e-05 1.737820373128e-03 0.0 
0.0 0.0 0.0 
-7.056585567949e-05 3.276411077844e-05 0.0 
3.276411077844e-05 1.880189518090e-03 0.0 
0.0 0.0 0.0 
6.986487578816e-05 -1.689937410277e-05 0.0 
-1.689937410277e-05 3.632776734106e-04 0.0 
0.0 0.0 0.0 
9.624125367772e-05 3.410131732031e-07 0.0 
3.410131732031e-07 5.963277252348e-04 0.0 
0.0 0.0 0.0 
3.702900893095e-05 -2.425889328133e-05 0.0 
-2.425889328133e-05 2.278437755322e-04 0.0 
0.0 0.0 0.0 
-9.017377576137e-06 2.861017029262e-04 0.0 
2.861017029262e-04 1.650545248829e-03 0.0 
0.0 0.0 0.0 
-1.266807058685e-04 2.067725609603e-04 0.0 
2.067725609603e-04 1.426548181361e-03 0.0 
0.0 0.0 0.0 
1.320671583482e-04 3.966274824690e-05 0.0 
3.966274824690e-05 6.558445127930e-04 0.0 
0.0 0.0 0.0 
9.674275123191e-05 -7.848782557425e-06 0.0 
-7.848782557425e-06 4.877826372768e-04 0.0 
0.0 0.0 0.0 
8.292407757789e-05 -1.989080428639e-05 0.0 
-1.989080428639e-05 3.797247779751e-04 0.0 
0.0 0.0 0.0 
7.168130009986e-05 -2.445866876061e-05 0.0 
-2.445866876061e-05 3.150735151888e-04 0.0 
0.0 0.0 0.0 
5.138358276739e-05 2.311809671249e-04 0.0 
2.311809671249e-04 9.532262765919e-04 0.0 
0.0 0.0 0.0 
1.182759857163e-04 1.372416069306e-05 0.0 
1.372416069306e-05 5.968849598082e-04 0.0 
0.0 0.0 0.0 
1.036345033520e-04 6.973403530565e-05 0.0 
6.973403530565e-05 9.144295431879e-04 0.0 
0.0 0.0 0.0 
-6.108605593508e-05 3.065124122144e-05 0.0 
3.065124122144e-05 1.910103007066e-03 0.0 
0.0 0.0 0.0 
-2.353523019941e-05 -1.151132403222e-05 0.0 
-1.151132403222e-05 5.379195569003e-05 0.0 
0.0 0.0 0.0 
9.940497941881e-05 8.501965714753e-05 0.0 
8.501965714753e-05 9.629303714767e-04 0.0 
0.0 0.0 0.0 
1.187939050428e-04 3.478377510934e-05 0.0 
3.478377510934e-05 7.285201795506e-04 0.0 
0.0 0.0 0.0 
-1.097665838411e-04 4.552968903240e-05 0.0 
4.552968903240e-05 1.782750053529e-03 0.0 
0.0 0.0 0.0 
9.594641504851e-05 1.877301786457e-04 0.0 
1.877301786457e-04 1.111775496355e-03 0.0 
0.0 0.0 0.0 
3.166437228049e-05 -2.910131840450e-05 0.0 
-2.910131840450e-05 2.206825665129e-04 0.0 
0.0 0.0 0.0 
-7.864621837952e-05 5.546209067898e-05 0.0 
5.546209067898e-05 1.898376138204e-03 0.0 
0.0 0.0 0.0 
-6.307901949583e-05 1.151397027770e-04 0.0 
1.151397027770e-04 1.967415866312e-03 0.0 
0.0 0.0 0.0 
-1.265619701506e-04 4.439233005696e-05 0.0 
4.439233005696e-05 1.717439024175e-03 0.0 
0.0 0.0 0.0 
2.120310917708e-05 -2.298257575263e-05 0.0 
-2.298257575263e-05 1.731854563400e-04 0.0 
0.0 0.0 0.0 
-9.977873695873e-05 1.679617460761e-05 0.0 
1.679617460761e-05 1.701162274623e-03 0.0 
0.0 0.0 0.0 
6.376038734553e-05 1.307225025372e-04 0.0 
1.307225025372e-04 1.147032052379e-03 0.0 
0.0 0.0 0.0 
-1.099646962690e-04 1.108555645619e-04 0.0 
1.108555645619e-04 1.857385446115e-03 0.0 
0.0 0.0 0.0 
6.190793334263e-05 -1.611940004170e-05 0.0 
-1.611940004170e-05 3.312622948821e-04 0.0 
0.0 0.0 0.0 
1.398606244841e-04 1.124595973380e-04 0.0 
1.124595973380e-04 7.604906834836e-04 0.0 
0.0 0.0 0.0 
-2.441840591925e-05 2.530576973011e-04 0.0 
2.530576973011e-04 1.174866838799e-03 0.0 
0.0 0.0 0.0 
-1.543043719093e-04 6.004272526391e-05 0.0 
6.004272526391e-05 1.521961802548e-03 0.0 
0.0 0.0 0.0 
-4.370881453364e-05 4.572148318846e-05 0.0 
4.572148318846e-05 1.984965193921e-03 0.0 
0.0 0.0 0.0 
8.562095526587e-05 2.090064484235e-04 0.0 
2.090064484235e-04 9.800071827954e-04 0.0 
0.0 0.0 0.0 
8.977688431929e-05 1.753201484578e-04 0.0 
1.753201484578e-04 1.129586489208e-03 0.0 
0.0 0.0 0.0 
1.285773564736e-04 1.366523900240e-04 0.0 
1.366523900240e-04 9.043278656602e-04 0.0 
0.0 0.0 0.0 
6.582167455634e-05 -1.211786493250e-05 0.0 
-1.211786493250e-05 3.566945493737e-04 0.0 
0.0 0.0 0.0 
8.060833657778e-05 7.486691877912e-05 0.0 
7.486691877912e-05 1.015626517792e-03 0.0 
0.0 0.0 0.0 
1.247793104996e-04 1.567502559699e-04 0.0 
1.567502559699e-04 8.184404288765e-04 0.0 
0.0 0.0 0.0 
-6.403929978138e-05 6.543883800197e-05 0.0 
6.543883800197e-05 1.949743856230e-03 0.0 
0.0 0.0 0.0 
-3.195133092047e-05 2.511600354162e-04 0.0 
2.511600354162e-04 1.477371653749e-03 0.0 
0.0 0.0 0.0 
1.347789892886e-04 9.887042938578e-05 0.0 
9.887042938578e-05 6.124919024974e-04 0.0 
0.0 0.0 0.0 
-8.714613131640e-05 8.624680916099e-05 0.0 
8.624680916099e-05 1.908467705287e-03 0.0 
0.0 0.0 0.0 
1.385163241776e-04 5.912494939804e-05 0.0 
5.912494939804e-05 6.806597251385e-04 0.0 
0.0 0.0 0.0 
8.217408044501e-05 2.067522850682e-04 0.0 
2.067522850682e-04 1.182992913775e-03 0.0 
0.0 0.0 0.0 
-1.087400442984e-04 2.258626532032e-04 0.0 
2.258626532032e-04 1.349668455688e-03 0.0 
0.0 0.0 0.0 
-4.154753482618e-05 2.473299991052e-04 0.0 
2.473299991052e-04 1.370560564057e-03 0.0 
0.0 0.0 0.0 
-1.054847235480e-04 2.102615984428e-04 0.0 
2.102615984428e-04 1.615233277643e-03 0.0 
0.0 0.0 0.0 
2.626457661300e-05 2.431531556270e-04 0.0 
2.431531556270e-04 1.170557380778e-03 0.0 
0.0 0.0 0.0 
8.920943913171e-05 8.749261842939e-06 0.0 
8.749261842939e-06 8.169818675900e-04 0.0 
0.0 0.0 0.0 
9.011573741291e-05 8.033652463197e-05 0.0 
8.033652463197e-05 9.887803436292e-04 0.0 
0.0 0.0 0.0 
4.605536676298e-05 5.433759470086e-06 0.0 
5.433759470086e-06 2.530540928169e-04 0.0 
0.0 0.0 0.0 
4.526043861464e-05 2.238482780629e-04 0.0 
2.238482780629e-04 8.226761409633e-04 0.0 
0.0 0.0 0.0 
-1.216262329862e-04 5.942151486133e-05 0.0 
5.942151486133e-05 1.773711384218e-03 0.0 
0.0 0.0 0.0 
4.514658967725e-06 2.654068114978e-04 0.0 
2.654068114978e-04 1.492053982390e-03 0.0 
0.0 0.0 0.0 
-4.632392855910e-05 7.447731746287e-05 0.0 
7.447731746287e-05 1.998420325599e-03 0.0 
0.0 0.0 0.0 
-2.662117830969e-05 2.548110375207e-04 0.0 
2.548110375207e-04 1.119531640077e-03 0.0 
0.0 0.0 0.0 
8.650680055851e-05 6.122317968629e-05 0.0 
6.122317968629e-05 9.679808437942e-04 0.0 
0.0 0.0 0.0 
-6.895997091324e-05 9.865408240014e-05 0.0 
9.865408240014e-05 1.954948922519e-03 0.0 
0.0 0.0 0.0 
1.153753190983e-04 1.409464199738e-05 0.0 
1.409464199738e-05 6.224505597567e-04 0.0 
0.0 0.0 0.0 
4.296122937586e-05 -3.672528358503e-06 0.0 
-3.672528358503e-06 2.455511690344e-04 0.0 
0.0 0.0 0.0 
1.054912389205e-05 8.183765695999e-05 0.0 
8.183765695999e-05 2.896683699280e-04 0.0 
0.0 0.0 0.0 
1.165399941026e-04 7.424910636080e-05 0.0 
7.424910636080e-05 4.775238391050e-04 0.0 
0.0 0.0 0.0 
1.023404394372e-04 1.908765029450e-04 0.0 
1.908765029450e-04 8.992512468036e-04 0.0 
0.0 0.0 0.0 
1.159503844625e-04 2.376143929970e-05 0.0 
2.376143929970e-05 6.876476658508e-04 0.0 
0.0 0.0 0.0 
-5.764583653664e-05 1.646311978492e-04 0.0 
1.646311978492e-04 1.953154026284e-03 0.0 
0.0 0.0 0.0 
7.771067944318e-05 5.670286388057e-05 0.0 
5.670286388057e-05 9.962702057368e-04 0.0 
0.0 0.0 0.0 
1.102559748811e-04 1.114939387843e-04 0.0 
1.114939387843e-04 9.690686649757e-04 0.0 
0.0 0.0 0.0 
-1.028176603325e-04 1.462656704186e-04 0.0 
1.462656704186e-04 2.523488789719e-04 0.0 
0.0 0.0 0.0 
-1.620655994657e-04 9.156119816775e-05 0.0 
9.156119816775e-05 1.529111660184e-03 0.0 
0.0 0.0 0.0 
6.871915328118e-05 5.147273188512e-05 0.0 
5.147273188512e-05 1.025745175751e-03 0.0 
0.0 0.0 0.0 
1.401583932837e-04 1.038473293830e-04 0.0 
1.038473293830e-04 7.713275540925e-04 0.0 
0.0 0.0 0.0 
8.124794268187e-05 2.001912974868e-04 0.0 
2.001912974868e-04 1.185440016426e-03 0.0 
0.0 0.0 0.0 
9.527574478022e-05 1.475469230040e-06 0.0 
1.475469230040e-06 6.451079779926e-04 0.0 
0.0 0.0 0.0 
-8.176163480515e-07 2.866884759878e-04 0.0 
2.866884759878e-04 1.604765411498e-03 0.0 
0.0 0.0 0.0 
-1.458614711662e-04 1.742428399745e-04 0.0 
1.742428399745e-04 1.327121916534e-03 0.0 
0.0 0.0 0.0 
5.949825720331e-05 4.549491410393e-05 0.0 
4.549491410393e-05 1.057031412312e-03 0.0 
0.0 0.0 0.0 
1.101561677355e-04 1.363005292016e-04 0.0 
1.363005292016e-04 1.006120773704e-03 0.0 
0.0 0.0 0.0 
9.138029681107e-05 1.604509858600e-04 0.0 
1.604509858600e-04 6.191550571296e-04 0.0 
0.0 0.0 0.0 
-8.727850953061e-05 7.915659783229e-07 0.0 
7.915659783229e-07 1.584200415160e-03 0.0 
0.0 0.0 0.0 
3.853598476202e-05 5.082399078968e-05 0.0 
5.082399078968e-05 1.144692926770e-03 0.0 
0.0 0.0 0.0 
9.339725827566e-05 1.496822191352e-04 0.0 
1.496822191352e-04 1.084502019475e-03 0.0 
0.0 0.0 0.0 
2.486595205905e-05 2.441045134144e-04 0.0 
2.441045134144e-04 1.232161863462e-03 0.0 
0.0 0.0 0.0 
1.418118117712e-04 8.346195387171e-05 0.0 
8.346195387171e-05 7.147196084758e-04 0.0 
0.0 0.0 0.0 
-1.557731917845e-04 7.796158436804e-05 0.0 
7.796158436804e-05 1.449906486554e-03 0.0 
0.0 0.0 0.0 
1.114375789087e-04 2.327290508806e-05 0.0 
2.327290508806e-05 7.141927375378e-04 0.0 
0.0 0.0 0.0 
-6.028759572346e-05 2.418904453274e-04 0.0 
2.418904453274e-04 1.450648755509e-03 0.0 
0.0 0.0 0.0 
-2.558016913451e-05 1.391177590682e-04 0.0 
1.391177590682e-04 2.024541672566e-03 0.0 
0.0 0.0 0.0 
8.205084382840e-05 1.684390523903e-04 0.0 
1.684390523903e-04 1.142896710642e-03 0.0 
0.0 0.0 0.0 
-1.393473737875e-04 1.251199251806e-04 0.0 
1.251199251806e-04 1.742812959983e-03 0.0 
0.0 0.0 0.0 
1.085551080661e-04 1.469955682726e-05 0.0 
1.469955682726e-05 6.753579634686e-04 0.0 
0.0 0.0 0.0 
8.493996634814e-05 2.109161687124e-04 0.0 
2.109161687124e-04 1.111635265497e-03 0.0 
0.0 0.0 0.0 
1.800358689715e-05 -1.201746944965e-05 0.0 
-1.201746944965e-05 1.302451195793e-04 0.0 
0.0 0.0 0.0 
-1.614719089545e-04 1.223825306471e-04 0.0 
1.223825306471e-04 1.444081365244e-03 0.0 
0.0 0.0 0.0 
1.047832766491e-04 1.462023437764e-05 0.0 
1.462023437764e-05 7.025001191353e-04 0.0 
0.0 0.0 0.0 
1.234094556207e-04 6.220902754216e-05 0.0 
6.220902754216e-05 4.871152250964e-04 0.0 
0.0 0.0 0.0 
1.397756834786e-04 7.719536445011e-05 0.0 
7.719536445011e-05 7.307010960112e-04 0.0 
0.0 0.0 0.0 
3.933589018986e-05 2.566176315232e-04 0.0 
2.566176315232e-04 1.396917633469e-03 0.0 
0.0 0.0 0.0 
1.009346396860e-04 1.415097463915e-05 0.0 
1.415097463915e-05 7.302636787286e-04 0.0 
0.0 0.0 0.0 
1.332273740549e-04 7.503927375975e-05 0.0 
7.503927375975e-05 5.534300298838e-04 0.0 
0.0 0.0 0.0 
9.704535653569e-05 1.312478574949e-05 0.0 
1.312478574949e-05 7.584530541651e-04 0.0 
0.0 0.0 0.0 
-1.527302868265e-04 1.121341292067e-04 0.0 
1.121341292067e-04 1.368681591143e-03 0.0 
0.0 0.0 0.0 
-1.326126699254e-04 1.481294640573e-04 0.0 
1.481294640573e-04 1.743926880712e-03 0.0 
0.0 0.0 0.0 
9.329578261511e-05 1.119317010071e-05 0.0 
1.119317010071e-05 7.868449765020e-04 0.0 
0.0 0.0 0.0 
-5.309249185013e-05 2.444037019738e-04 0.0 
2.444037019738e-04 1.500870296487e-03 0.0 
0.0 0.0 0.0 
1.448447027319e-05 -1.834345495235e-05 0.0 
-1.834345495235e-05 1.390504580781e-04 0.0 
0.0 0.0 0.0 
4.282143671604e-05 2.386050147623e-04 0.0 
2.386050147623e-04 1.211396353035e-03 0.0 
0.0 0.0 0.0 
5.766837047716e-05 1.480406054161e-05 0.0 
1.480406054161e-05 1.035230478570e-03 0.0 
0.0 0.0 0.0 
1.047308650770e-04 -7.047729400902e-06 0.0 
-7.047729400902e-06 4.500984846481e-04 0.0 
0.0 0.0 0.0 
1.365537883264e-04 7.223452633933e-05 0.0 
7.223452633933e-05 7.492875857161e-04 0.0 
0.0 0.0 0.0 
-1.166148000962e-04 1.635353516577e-04 0.0 
1.635353516577e-04 1.786957077501e-03 0.0 
0.0 0.0 0.0 
-1.409935866174e-04 1.654957403293e-04 0.0 
1.654957403293e-04 1.244448928104e-03 0.0 
0.0 0.0 0.0 
1.312833637519e-04 8.527597703263e-05 0.0 
8.527597703263e-05 8.200264401216e-04 0.0 
0.0 0.0 0.0 
-4.547667987749e-05 2.491910398852e-04 0.0 
2.491910398852e-04 1.552320701055e-03 0.0 
0.0 0.0 0.0 
5.744755568811e-05 2.325846003399e-04 0.0 
2.325846003399e-04 1.196546605507e-03 0.0 
0.0 0.0 0.0 
9.819850857444e-05 1.971894202154e-04 0.0 
1.971894202154e-04 9.695878537312e-04 0.0 
0.0 0.0 0.0 
1.226890833163e-04 9.843053021237e-05 0.0 
9.843053021237e-05 8.933081951867e-04 0.0 
0.0 0.0 0.0 
-1.064138837731e-04 2.240542319247e-04 0.0 
2.240542319247e-04 1.144028260437e-03 0.0 
0.0 0.0 0.0 
6.788443707006e-05 -2.553189837444e-05 0.0 
-2.553189837444e-05 3.234748391977e-04 0.0 
0.0 0.0 0.0 
5.062734629924e-05 -2.940600407862e-05 0.0 
-2.940600407862e-05 2.689715807442e-04 0.0 
0.0 0.0 0.0 
1.365668327818e-04 6.533024150498e-05 0.0 
6.533024150498e-05 5.652723604961e-04 0.0 
0.0 0.0 0.0 
-5.538496492224e-05 2.461530952232e-04 0.0 
2.461530952232e-04 1.623609489847e-03 0.0 
0.0 0.0 0.0 
2.825056842293e-05 -8.531310600004e-06 0.0 
-8.531310600004e-06 1.774812714769e-04 0.0 
0.0 0.0 0.0 
-1.090658008630e-04 1.922422289993e-04 0.0 
1.922422289993e-04 1.730058996068e-03 0.0 
0.0 0.0 0.0 
2.204192017652e-05 -3.253201578400e-05 0.0 
-3.253201578400e-05 1.947104102802e-04 0.0 
0.0 0.0 0.0 
1.309870400369e-04 4.435482945371e-05 0.0 
4.435482945371e-05 5.144930041890e-04 0.0 
0.0 0.0 0.0 
6.010061745387e-05 2.346037991182e-04 0.0 
2.346037991182e-04 1.259763632464e-03 0.0 
0.0 0.0 0.0 
-7.585986425481e-05 1.294282200651e-06 0.0 
1.294282200651e-06 1.751654820398e-03 0.0 
0.0 0.0 0.0 
1.323476787906e-04 3.806194304142e-05 0.0 
3.806194304142e-05 5.309101831897e-04 0.0 
0.0 0.0 0.0 
5.397128664745e-05 -3.293236494410e-06 0.0 
-3.293236494410e-06 3.016071573075e-04 0.0 
0.0 0.0 0.0 
1.241280108921e-04 2.061461908402e-05 0.0 
2.061461908402e-05 4.864151832992e-04 0.0 
0.0 0.0 0.0 
9.238367789884e-05 2.035947180923e-04 0.0 
2.035947180923e-04 1.040157902388e-03 0.0 
0.0 0.0 0.0 
1.245085705868e-04 1.742274070057e-05 0.0 
1.742274070057e-05 5.062111520965e-04 0.0 
0.0 0.0 0.0 
1.148613509644e-04 3.825246367288e-06 0.0 
3.825246367288e-06 4.662718407679e-04 0.0 
0.0 0.0 0.0 
-3.289055107210e-05 4.134774073443e-05 0.0 
4.134774073443e-05 2.014277623504e-03 0.0 
0.0 0.0 0.0 
1.149301410927e-04 3.048004598644e-06 0.0 
3.048004598644e-06 4.877552667730e-04 0.0 
0.0 0.0 0.0 
-1.358101678460e-05 1.171263964369e-05 0.0 
1.171263964369e-05 2.065278029414e-03 0.0 
0.0 0.0 0.0 
1.956244428387e-05 1.651195652886e-05 0.0 
1.651195652886e-05 1.201882012763e-03 0.0 
0.0 0.0 0.0 
-8.444250776350e-05 4.711339779051e-08 0.0 
4.711339779051e-08 1.631056899253e-03 0.0 
0.0 0.0 0.0 
-1.231798460486e-04 2.072809603213e-04 0.0 
2.072809603213e-04 1.052798216695e-03 0.0 
0.0 0.0 0.0 
-1.117740955747e-04 1.391242769752e-06 0.0 
1.391242769752e-06 9.280609404791e-05 0.0 
0.0 0.0 0.0 
-6.525204740639e-05 2.289999799443e-04 0.0 
2.289999799443e-04 9.110352216017e-04 0.0 
0.0 0.0 0.0 
9.216899661605e-05 -1.596266892378e-05 0.0 
-1.596266892378e-05 3.925274230549e-04 0.0 
0.0 0.0 0.0 
-9.198080136574e-05 2.189157707512e-04 0.0 
2.189157707512e-04 1.658011299238e-03 0.0 
0.0 0.0 0.0 
-8.494589473377e-05 2.036275190809e-06 0.0 
2.036275190809e-06 1.633958656162e-03 0.0 
0.0 0.0 0.0 
7.993619147543e-05 -2.189889040809e-05 0.0 
-2.189889040809e-05 3.579021978057e-04 0.0 
0.0 0.0 0.0 
-4.649618370717e-05 2.389502510496e-04 0.0 
2.389502510496e-04 1.849402730775e-03 0.0 
0.0 0.0 0.0 
6.156126361345e-06 3.000916791697e-04 0.0 
3.000916791697e-04 1.596353376627e-03 0.0 
0.0 0.0 0.0 
-6.570652371112e-05 7.301877794768e-06 0.0 
7.301877794768e-06 1.837067017542e-03 0.0 
0.0 0.0 0.0 
7.643149642226e-05 1.941635557586e-04 0.0 
1.941635557586e-04 1.191580186272e-03 0.0 
0.0 0.0 0.0 
6.842522242811e-05 2.262280113758e-04 0.0 
2.262280113758e-04 1.188470378184e-03 0.0 
0.0 0.0 0.0 
-3.962735976550e-05 5.419814821947e-06 0.0 
5.419814821947e-06 1.969056537030e-03 0.0 
0.0 0.0 0.0 
-9.352309024870e-05 1.013695456365e-06 0.0 
1.013695456365e-06 1.582351972991e-03 0.0 
0.0 0.0 0.0 
-2.530475713910e-05 -2.397929198698e-05 0.0 
-2.397929198698e-05 9.466271853475e-05 0.0 
0.0 0.0 0.0 
8.466733596372e-05 4.937901952057e-06 0.0 
4.937901952057e-06 8.522763775282e-04 0.0 
0.0 0.0 0.0 
-1.167826584189e-04 2.076037398491e-04 0.0 
2.076037398491e-04 8.376129367753e-04 0.0 
0.0 0.0 0.0 
-5.678778936463e-05 2.078745995173e-04 0.0 
2.078745995173e-04 6.890832848693e-04 0.0 
0.0 0.0 0.0 
-5.221030630011e-05 1.788148982130e-04 0.0 
1.788148982130e-04 4.923064194065e-04 0.0 
0.0 0.0 0.0 
6.824740335561e-05 -8.623125567050e-06 0.0 
-8.623125567050e-06 3.766746584704e-04 0.0 
0.0 0.0 0.0 
-1.357169023689e-05 -3.082711806330e-05 0.0 
-3.082711806330e-05 1.441119563621e-04 0.0 
0.0 0.0 0.0 
-1.080879929754e-04 2.026014895402e-04 0.0 
2.026014895402e-04 6.421794057712e-04 0.0 
0.0 0.0 0.0 
4.572683354701e-05 2.238533880378e-04 0.0 
2.238533880378e-04 1.322381619112e-03 0.0 
0.0 0.0 0.0 
-1.087993384516e-04 1.326023206552e-05 0.0 
1.326023206552e-05 1.643039082666e-03 0.0 
0.0 0.0 0.0 
4.433831371746e-05 2.466980486036e-04 0.0 
2.466980486036e-04 1.332234165708e-03 0.0 
0.0 0.0 0.0 
-1.064305249489e-04 1.842230258070e-04 0.0 
1.842230258070e-04 4.411588806429e-04 0.0 
0.0 0.0 0.0 
-4.801623103995e-05 1.097998712184e-04 0.0 
1.097998712184e-04 1.997587912651e-03 0.0 
0.0 0.0 0.0 
2.424406008889e-05 2.744420698421e-04 0.0 
2.744420698421e-04 1.475189252528e-03 0.0 
0.0 0.0 0.0 
2.145808402062e-05 9.637886423632e-05 0.0 
9.637886423632e-05 1.238282833774e-03 0.0 
0.0 0.0 0.0 
3.605845178671e-05 2.579230291487e-04 0.0 
2.579230291487e-04 1.399875653853e-03 0.0 
0.0 0.0 0.0 
-5.472782545394e-05 1.347541703806e-04 0.0 
1.347541703806e-04 3.140781769702e-04 0.0 
0.0 0.0 0.0 
-1.329532508741e-04 4.586009870511e-05 0.0 
4.586009870511e-05 1.692060445445e-03 0.0 
0.0 0.0 0.0 
-1.809426394670e-05 2.815584029158e-04 0.0 
2.815584029158e-04 1.693538736036e-03 0.0 
0.0 0.0 0.0 
-6.004432901309e-05 1.300108926676e-05 0.0 
1.300108926676e-05 1.882240185289e-03 0.0 
0.0 0.0 0.0 
1.971417476301e-05 7.690203033790e-05 0.0 
7.690203033790e-05 1.230635040293e-03 0.0 
0.0 0.0 0.0 
-1.204256411482e-04 2.112666450553e-05 0.0 
2.112666450553e-05 1.637124973151e-03 0.0 
0.0 0.0 0.0 
-2.721255602461e-05 2.710337905327e-05 0.0 
2.710337905327e-05 2.022446949580e-03 0.0 
0.0 0.0 0.0 
2.863778684499e-05 -1.118152404162e-05 0.0 
-1.118152404162e-05 2.160474443360e-04 0.0 
0.0 0.0 0.0 
-2.531950034474e-05 1.412880973197e-05 0.0 
1.412880973197e-05 2.023679002294e-03 0.0 
0.0 0.0 0.0 
-7.734358279463e-05 2.288560363338e-04 0.0 
2.288560363338e-04 1.702722947687e-03 0.0 
0.0 0.0 0.0 
-8.528642472646e-05 9.400195502545e-06 0.0 
9.400195502545e-06 1.710826304667e-03 0.0 
0.0 0.0 0.0 
-1.463778908739e-04 6.855094063190e-05 0.0 
6.855094063190e-05 1.680567764070e-03 0.0 
0.0 0.0 0.0 
3.208201691666e-05 2.547671371387e-05 0.0 
2.547671371387e-05 1.151481676243e-03 0.0 
0.0 0.0 0.0 
-5.387008189315e-05 2.057739293045e-04 0.0 
2.057739293045e-04 1.908527242261e-03 0.0 
0.0 0.0 0.0 
-5.702400659599e-05 1.033436266310e-04 0.0 
1.033436266310e-04 2.305265489410e-04 0.0 
0.0 0.0 0.0 
-6.783293765242e-05 1.195066650209e-05 0.0 
1.195066650209e-05 1.834292892247e-03 0.0 
0.0 0.0 0.0 
8.560700075337e-05 -6.972883230077e-06 0.0 
-6.972883230077e-06 4.754971717065e-04 0.0 
0.0 0.0 0.0 
-6.367308776341e-05 -1.512758981662e-05 0.0 
-1.512758981662e-05 1.121178204866e-04 0.0 
0.0 0.0 0.0 
4.438293234674e-05 1.143559663887e-04 0.0 
1.143559663887e-04 1.183544705517e-03 0.0 
0.0 0.0 0.0 
-6.136825787484e-05 2.394413960282e-04 0.0 
2.394413960282e-04 1.745921154812e-03 0.0 
0.0 0.0 0.0 
3.414989585391e-05 4.286442603155e-05 0.0 
4.286442603155e-05 1.150599285353e-03 0.0 
0.0 0.0 0.0 
1.944294254876e-05 -2.484294351214e-06 0.0 
-2.484294351214e-06 1.279019939833e-04 0.0 
0.0 0.0 0.0 
-1.563616827502e-05 -1.950018036339e-05 0.0 
-1.950018036339e-05 8.457405386189e-05 0.0 
0.0 0.0 0.0 
4.388021820270e-05 1.414660137317e-04 0.0 
1.414660137317e-04 1.218220845555e-03 0.0 
0.0 0.0 0.0 
-3.387507479302e-05 2.653650419472e-04 0.0 
2.653650419472e-04 1.787081442953e-03 0.0 
0.0 0.0 0.0 
3.974736322632e-05 -1.559471196236e-05 0.0 
-1.559471196236e-05 2.388500326475e-04 0.0 
0.0 0.0 0.0 
-1.902471932056e-05 9.487355024406e-05 0.0 
9.487355024406e-05 2.054549592735e-03 0.0 
0.0 0.0 0.0 
-7.681985619066e-05 7.511790738093e-05 0.0 
7.511790738093e-05 1.547984059368e-04 0.0 
0.0 0.0 0.0 
-9.929915246936e-05 3.368049966507e-06 0.0 
3.368049966507e-06 1.577802182848e-03 0.0 
0.0 0.0 0.0 
-1.075340929061e-06 -1.438898317226e-05 0.0 
-1.438898317226e-05 8.218619081246e-05 0.0 
0.0 0.0 0.0 
1.853562562286e-05 5.643207854199e-05 0.0 
5.643207854199e-05 1.222234972095e-03 0.0 
0.0 0.0 0.0 
-3.578421367434e-05 6.900745534229e-05 0.0 
6.900745534229e-05 2.018720969876e-03 0.0 
0.0 0.0 0.0 
8.944638695150e-05 -1.947505977502e-06 0.0 
-1.947505977502e-06 5.277871944010e-04 0.0 
0.0 0.0 0.0 
-1.428611294808e-04 4.133043189921e-05 0.0 
4.133043189921e-05 1.592957536957e-03 0.0 
0.0 0.0 0.0 
6.091839636476e-05 -6.156245503351e-06 0.0 
-6.156245503351e-06 3.399109486012e-04 0.0 
0.0 0.0 0.0 
5.207512330596e-06 2.768729996327e-04 0.0 
2.768729996327e-04 1.538042392837e-03 0.0 
0.0 0.0 0.0 
-1.031567895216e-05 -2.969293201799e-05 0.0 
-2.969293201799e-05 1.311574262425e-04 0.0 
0.0 0.0 0.0 
-3.028032224515e-05 4.962058863532e-05 0.0 
4.962058863532e-05 2.026976688217e-03 0.0 
0.0 0.0 0.0 
4.412252405288e-05 1.704901329123e-04 0.0 
1.704901329123e-04 1.252560429937e-03 0.0 
0.0 0.0 0.0 
-4.923601910176e-05 1.539146598911e-04 0.0 
1.539146598911e-04 1.978256685867e-03 0.0 
0.0 0.0 0.0 
1.654183509752e-05 2.685230797873e-04 0.0 
2.685230797873e-04 1.464255818574e-03 0.0 
0.0 0.0 0.0 
-7.023399024273e-05 1.792517684571e-05 0.0 
1.792517684571e-05 1.217233116588e-04 0.0 
0.0 0.0 0.0 
1.436771418333e-05 2.851346261635e-04 0.0 
2.851346261635e-04 1.530507040919e-03 0.0 
0.0 0.0 0.0 
6.574711475342e-05 1.815964748504e-04 0.0 
1.815964748504e-04 1.208694783449e-03 0.0 
0.0 0.0 0.0 
-9.050417916130e-05 2.375409948145e-06 0.0 
2.375409948145e-06 1.580587174990e-03 0.0 
0.0 0.0 0.0 
-5.303428129027e-05 1.821663686827e-04 0.0 
1.821663686827e-04 1.942403671849e-03 0.0 
0.0 0.0 0.0 
7.585536482222e-05 -6.310136149559e-06 0.0 
-6.310136149559e-06 4.228106525330e-04 0.0 
0.0 0.0 0.0 
2.519084540746e-05 -1.856326491436e-05 0.0 
-1.856326491436e-05 1.762060652857e-04 0.0 
0.0 0.0 0.0 
-1.085458315928e-05 5.382398672987e-06 0.0 
5.382398672987e-06 2.071130201346e-03 0.0 
0.0 0.0 0.0 
3.603091041704e-06 -9.740914606483e-07 0.0 
-9.740914606483e-07 2.703170114682e-05 0.0 
0.0 0.0 0.0 
-8.642528587799e-05 -3.746615608487e-07 0.0 
-3.746615608487e-07 1.574772114242e-03 0.0 
0.0 0.0 0.0 
1.479159708873e-05 8.679799416771e-06 0.0 
8.679799416771e-06 1.217853130675e-03 0.0 
0.0 0.0 0.0 
2.625869260129e-05 -1.122251156436e-05 0.0 
-1.122251156436e-05 1.666173992553e-04 0.0 
0.0 0.0 0.0 
-8.232210292805e-05 1.903358565278e-06 0.0 
1.903358565278e-06 1.676516090407e-03 0.0 
0.0 0.0 0.0 
-3.846562962251e-05 2.542514169828e-04 0.0 
2.542514169828e-04 1.824308185037e-03 0.0 
0.0 0.0 0.0 
9.407003216348e-05 1.052846611093e-06 0.0 
1.052846611093e-06 6.619127464567e-04 0.0 
0.0 0.0 0.0 
-4.667694067830e-05 8.467674633265e-06 0.0 
8.467674633265e-06 1.937819830155e-03 0.0 
0.0 0.0 0.0 
7.772180671251e-06 -3.091197692312e-05 0.0 
-3.091197692312e-05 1.776251319361e-04 0.0 
0.0 0.0 0.0 
-1.149222811037e-04 -7.699763051845e-06 0.0 
-7.699763051845e-06 8.247979553892e-05 0.0 
0.0 0.0 0.0 
-7.283239054199e-05 4.219262913028e-06 0.0 
4.219262913028e-06 1.783159387208e-03 0.0 
0.0 0.0 0.0 
2.801050320116e-05 2.703596623313e-04 0.0 
2.703596623313e-04 1.451467851867e-03 0.0 
0.0 0.0 0.0 
-4.427499335486e-05 1.243653505348e-04 0.0 
1.243653505348e-04 2.002504712251e-03 0.0 
0.0 0.0 0.0 
-8.119023027038e-05 9.948039959884e-06 0.0 
9.948039959884e-06 1.743302304823e-03 0.0 
0.0 0.0 0.0 
-2.198202404289e-05 7.927941837847e-05 0.0 
7.927941837847e-05 2.476627900228e-04 0.0 
0.0 0.0 0.0 
-4.798298561794e-05 2.510759455352e-04 0.0 
2.510759455352e-04 1.779911448378e-03 0.0 
0.0 0.0 0.0 
9.368933306745e-05 -8.645819238322e-07 0.0 
-8.645819238322e-07 5.737223366783e-04 0.0 
0.0 0.0 0.0 
-1.870217746198e-05 2.753936161239e-04 0.0 
2.753936161239e-04 1.634782453660e-03 0.0 
0.0 0.0 0.0 
6.042042875327e-05 2.065376389976e-04 0.0 
2.065376389976e-04 1.257055180224e-03 0.0 
0.0 0.0 0.0 
-1.035792821561e-04 8.329767617463e-05 0.0 
8.329767617463e-05 1.060810570009e-04 0.0 
0.0 0.0 0.0 
9.342454100962e-05 1.931033440799e-06 0.0 
1.931033440799e-06 7.185760381413e-04 0.0 
0.0 0.0 0.0 
-9.103425702039e-06 -1.568302572611e-05 0.0 
-1.568302572611e-05 7.905393735070e-05 0.0 
0.0 0.0 0.0 
3.543731592193e-05 8.408694997253e-05 0.0 
8.408694997253e-05 1.182593880695e-03 0.0 
0.0 0.0 0.0 
9.376351068155e-05 -1.211778012506e-07 0.0 
-1.211778012506e-07 6.007946188359e-04 0.0 
0.0 0.0 0.0 
-9.087413667508e-05 3.591131192008e-05 0.0 
3.591131192008e-05 1.304087724259e-03 0.0 
0.0 0.0 0.0 
-9.323815605486e-05 8.050997928899e-07 0.0 
8.050997928899e-07 1.309077272169e-03 0.0 
0.0 0.0 0.0 
-1.115155034066e-04 3.745938884986e-05 0.0 
3.745938884986e-05 1.364304020221e-03 0.0 
0.0 0.0 0.0 
-8.880295804606e-05 -7.324669840782e-07 0.0 
-7.324669840782e-07 1.367723043031e-03 0.0 
0.0 0.0 0.0 
-1.267498485001e-04 3.007451333277e-05 0.0 
3.007451333277e-05 1.433118299922e-03 0.0 
0.0 0.0 0.0 
-8.796595329846e-05 -4.229955821530e-07 0.0 
-4.229955821530e-07 1.435456512584e-03 0.0 
0.0 0.0 0.0 
-1.335385698421e-04 2.610405765647e-05 0.0 
2.610405765647e-05 1.499689680886e-03 0.0 
0.0 0.0 0.0 
-8.795847733112e-05 5.639983236834e-07 0.0 
5.639983236834e-07 1.496037536565e-03 0.0 
0.0 0.0 0.0 

TENSORS node_materi_strain_plasti float
-2.612663767757e-06 -3.252607646113e-07 0.0 
-3.252607646113e-07 2.093720605042e-05 0.0 
0.0 0.0 -4.924303274428e-06 
-1.079056608654e-04 -1.683663743376e-05 0.0 
-1.683663743376e-05 6.796608024097e-04 0.0 
0.0 0.0 -1.043867513459e-04 
-1.990082416844e-04 1.461466422752e-05 0.0 
1.461466422752e-05 1.338163054070e-03 0.0 
0.0 0.0 -1.998931639748e-04 
-1.992789450115e-04 -1.457804817178e-05 0.0 
-1.457804817178e-05 1.339096739606e-03 0.0 
0.0 0.0 -1.998931639748e-04 
-1.229078891716e-05 5.366280014175e-06 0.0 
5.366280014175e-06 5.053145956954e-05 0.0 
0.0 0.0 -1.268018299698e-05 
-2.543886988905e-05 1.901414525611e-05 0.0 
1.901414525611e-05 1.267844857367e-04 0.0 
0.0 0.0 -2.428620303623e-05 
-3.444505010393e-05 1.562750611400e-05 0.0 
1.562750611400e-05 1.836714106930e-04 0.0 
0.0 0.0 -3.399136149544e-05 
-4.457783022682e-05 1.417525000785e-05 0.0 
1.417525000785e-05 2.618842628781e-04 0.0 
0.0 0.0 -4.406465996183e-05 
-5.572937533165e-05 1.046680884978e-05 0.0 
1.046680884978e-05 3.321775894220e-04 0.0 
0.0 0.0 -5.415704333790e-05 
-6.374532394610e-05 9.877096268524e-06 0.0 
9.877096268524e-06 3.996726964643e-04 0.0 
0.0 0.0 -6.415842296661e-05 
-7.312975922456e-05 1.092726545402e-05 0.0 
1.092726545402e-05 4.685103703879e-04 0.0 
0.0 0.0 -7.410179773499e-05 
-8.340975388222e-05 9.760341255261e-06 0.0 
9.760341255261e-06 5.380090096821e-04 0.0 
0.0 0.0 -8.402736785582e-05 
-9.329317044903e-05 9.748725627981e-06 0.0 
9.748725627981e-06 6.067337971893e-04 0.0 
0.0 0.0 -9.400794208654e-05 
-1.048395173574e-04 1.245666822366e-05 0.0 
1.245666822366e-05 6.774763461161e-04 0.0 
0.0 0.0 -1.040542782181e-04 
-1.176369272068e-04 1.876149311443e-05 0.0 
1.876149311443e-05 7.541898349339e-04 0.0 
0.0 0.0 -1.141079629734e-04 
-1.251371721908e-04 1.991670015406e-05 0.0 
1.991670015406e-05 8.235151932197e-04 0.0 
0.0 0.0 -1.240613786258e-04 
-1.319668018372e-04 2.596472290694e-05 0.0 
2.596472290694e-05 8.806369836317e-04 0.0 
0.0 0.0 -1.335504265687e-04 
-1.429595426911e-04 1.016247294305e-05 0.0 
1.016247294305e-05 9.540683438175e-04 0.0 
0.0 0.0 -1.433712649586e-04 
-1.532202596459e-04 9.657610282115e-06 0.0 
9.657610282115e-06 1.025836369529e-03 0.0 
0.0 0.0 -1.536785213545e-04 
-1.630955816410e-04 9.924116732642e-06 0.0 
9.924116732642e-06 1.095392565861e-03 0.0 
0.0 0.0 -1.636867096734e-04 
-1.736417197982e-04 9.148824907428e-06 0.0 
9.148824907428e-06 1.166298828267e-03 0.0 
0.0 0.0 -1.737495185000e-04 
-1.844935295981e-04 1.136666883781e-05 0.0 
1.136666883781e-05 1.237760949854e-03 0.0 
0.0 0.0 -1.839110754151e-04 
-1.928395893447e-04 1.466620459946e-05 0.0 
1.466620459946e-05 1.307601711888e-03 0.0 
0.0 0.0 -1.934749151625e-04 
-1.992084498245e-04 -9.667205419172e-07 0.0 
-9.667205419172e-07 1.341308611164e-03 0.0 
0.0 0.0 -2.005353038101e-04 
-2.003235822205e-04 -4.576902611969e-07 0.0 
-4.576902611969e-07 1.339283177977e-03 0.0 
0.0 0.0 -1.999418651152e-04 
-2.004195521241e-04 -9.594112326717e-06 0.0 
-9.594112326717e-06 1.337828695600e-03 0.0 
0.0 0.0 -2.002354755130e-04 
-2.008845907091e-04 4.519063874005e-06 0.0 
4.519063874005e-06 1.338578482993e-03 0.0 
0.0 0.0 -2.001689849711e-04 
-2.005719087583e-04 -1.259819984252e-06 0.0 
-1.259819984252e-06 1.336698736025e-03 0.0 
0.0 0.0 -1.998101597465e-04 
-2.003033749392e-04 1.612771953849e-07 0.0 
1.612771953849e-07 1.336699884288e-03 0.0 
0.0 0.0 -2.002576402756e-04 
-1.988174270910e-04 4.435871277180e-07 0.0 
4.435871277180e-07 1.338020991228e-03 0.0 
0.0 0.0 -2.002582685247e-04 
-2.006018029555e-04 -1.428553602928e-06 0.0 
-1.428553602928e-06 1.338259915715e-03 0.0 
0.0 0.0 -2.000295381545e-04 
-2.002076965602e-04 -6.442142530929e-06 0.0 
-6.442142530929e-06 1.339568721789e-03 0.0 
0.0 0.0 -2.004389858384e-04 
-2.006688150029e-04 4.111887006866e-06 0.0 
4.111887006866e-06 1.340190933063e-03 0.0 
0.0 0.0 -2.003568725688e-04 
-2.004204281591e-04 -1.032720327526e-06 0.0 
-1.032720327526e-06 1.338293566306e-03 0.0 
0.0 0.0 -1.999970921405e-04 
-2.007190085647e-04 -7.221768717102e-07 0.0 
-7.221768717102e-07 1.338675392550e-03 0.0 
0.0 0.0 -2.003793839065e-04 
-1.990986785052e-04 -1.590259053490e-08 0.0 
-1.590259053490e-08 1.341350099485e-03 0.0 
0.0 0.0 -2.004146187826e-04 
-2.007914892723e-04 -4.264335361638e-07 0.0 
-4.264335361638e-07 1.339816171211e-03 0.0 
0.0 0.0 -2.002852565091e-04 
-1.994100966532e-04 -1.572894639504e-06 0.0 
-1.572894639504e-06 1.338161131957e-03 0.0 
0.0 0.0 -2.001446319728e-04 
-2.007511256741e-04 1.494960023589e-06 0.0 
1.494960023589e-06 1.335513206817e-03 0.0 
0.0 0.0 -1.998462653075e-04 
-2.008601944157e-04 -3.837724735002e-07 0.0 
-3.837724735002e-07 1.334384440132e-03 0.0 
0.0 0.0 -1.998029376683e-04 
-1.990688471561e-04 2.458886044847e-07 0.0 
2.458886044847e-07 1.337655076969e-03 0.0 
0.0 0.0 -2.000088186226e-04 
-2.001853082778e-04 -6.402158915263e-07 0.0 
-6.402158915263e-07 1.339281899659e-03 0.0 
0.0 0.0 -2.002091174222e-04 
-2.005241707287e-04 -7.501540653692e-07 0.0 
-7.501540653692e-07 1.339203182872e-03 0.0 
0.0 0.0 -2.004865334549e-04 
-2.005853306472e-04 2.540125145858e-06 0.0 
2.540125145858e-06 1.339503555012e-03 0.0 
0.0 0.0 -2.003832587333e-04 
-1.997808965748e-04 -1.605993664686e-07 0.0 
-1.605993664686e-07 1.339666309980e-03 0.0 
0.0 0.0 -2.002174839672e-04 
-2.003075530794e-04 4.838064349887e-07 0.0 
4.838064349887e-07 1.338766324707e-03 0.0 
0.0 0.0 -2.002580803729e-04 
-2.003470639015e-04 -2.444069971794e-07 0.0 
-2.444069971794e-07 1.338072796155e-03 0.0 
0.0 0.0 -2.002440284024e-04 
-2.004510673748e-04 -1.928377971685e-07 0.0 
-1.928377971685e-07 1.340065919944e-03 0.0 
0.0 0.0 -2.002334986692e-04 
-1.995883615915e-04 -7.312419057634e-07 0.0 
-7.312419057634e-07 1.340320439837e-03 0.0 
0.0 0.0 -2.003661129950e-04 
-2.011747927060e-04 -8.722415594418e-07 0.0 
-8.722415594418e-07 1.340079435223e-03 0.0 
0.0 0.0 -2.004908485340e-04 
-1.995361419384e-04 -6.780112919623e-07 0.0 
-6.780112919623e-07 1.340717740891e-03 0.0 
0.0 0.0 -2.004762665914e-04 
-2.008009995012e-04 -8.793815483886e-07 0.0 
-8.793815483886e-07 1.341377617168e-03 0.0 
0.0 0.0 -2.003014926434e-04 
-2.004900975472e-04 -5.374113392905e-06 0.0 
-5.374113392905e-06 1.342707157093e-03 0.0 
0.0 0.0 -2.006997735404e-04 
-2.011614755125e-04 5.177742394410e-06 0.0 
5.177742394410e-06 1.341994191491e-03 0.0 
0.0 0.0 -2.005870641008e-04 
-2.001672680472e-04 1.642921574496e-06 0.0 
1.642921574496e-06 1.338462129955e-03 0.0 
0.0 0.0 -2.000675234999e-04 
-1.999895739659e-04 -6.988816100869e-09 0.0 
-6.988816100869e-09 1.336248125534e-03 0.0 
0.0 0.0 -2.001823097425e-04 
-2.001225026340e-04 -1.240829705364e-06 0.0 
-1.240829705364e-06 1.339474803775e-03 0.0 
0.0 0.0 -2.001929620191e-04 
-1.997428951088e-04 -2.864922555172e-07 0.0 
-2.864922555172e-07 1.339287980767e-03 0.0 
0.0 0.0 -2.002863172658e-04 
-2.011305945918e-04 -1.592599752619e-06 0.0 
-1.592599752619e-06 1.339001312879e-03 0.0 
0.0 0.0 -2.003537156312e-04 
-1.994489271156e-04 -3.123074052846e-07 0.0 
-3.123074052846e-07 1.340206734430e-03 0.0 
0.0 0.0 -2.003469717371e-04 
-2.008676553467e-04 -6.044515584233e-08 0.0 
-6.044515584233e-08 1.338725412238e-03 0.0 
0.0 0.0 -2.002396863610e-04 
-1.992453131624e-04 -1.009025233623e-06 0.0 
-1.009025233623e-06 1.337264745438e-03 0.0 
0.0 0.0 -2.001151187552e-04 
-2.007508866938e-04 2.802615914654e-07 0.0 
2.802615914654e-07 1.337086357069e-03 0.0 
0.0 0.0 -1.998355947622e-04 
-2.010860201950e-04 -2.268840142145e-06 0.0 
-2.268840142145e-06 1.337518567927e-03 0.0 
0.0 0.0 -2.000624918399e-04 
-1.999308478327e-04 1.605132680389e-06 0.0 
1.605132680389e-06 1.340948129084e-03 0.0 
0.0 0.0 -2.004978758543e-04 
-1.989515291925e-04 -1.597226336294e-06 0.0 
-1.597226336294e-06 1.342999130641e-03 0.0 
0.0 0.0 -2.005641941534e-04 
-2.002462740351e-04 -1.655488014151e-06 0.0 
-1.655488014151e-06 1.333093131656e-03 0.0 
0.0 0.0 -1.993486092159e-04 
-1.990090833406e-04 5.684559175637e-07 0.0 
5.684559175637e-07 1.340609276749e-03 0.0 
0.0 0.0 -2.003850096553e-04 
-2.008054096670e-04 9.372155481799e-08 0.0 
9.372155481799e-08 1.339007845984e-03 0.0 
0.0 0.0 -1.998785251170e-04 
-2.008250670669e-04 -6.084757154766e-06 0.0 
-6.084757154766e-06 1.338299561836e-03 0.0 
0.0 0.0 -2.002828574513e-04 
-2.004005035862e-04 2.502291620358e-06 0.0 
2.502291620358e-06 1.342657178018e-03 0.0 
0.0 0.0 -2.004849633189e-04 
-2.007882536758e-04 -1.247747538696e-07 0.0 
-1.247747538696e-07 1.343259988120e-03 0.0 
0.0 0.0 -2.003783523096e-04 
-1.146671904274e-04 -1.178176757847e-05 0.0 
-1.178176757847e-05 7.450986713540e-04 0.0 
0.0 0.0 -1.147343130870e-04 
-1.264453810116e-04 -1.334151081515e-05 0.0 
-1.334151081515e-05 8.198209596703e-04 0.0 
0.0 0.0 -1.244847198447e-04 
-1.356765189360e-04 -1.297470350471e-05 0.0 
-1.297470350471e-05 8.891398730811e-04 0.0 
0.0 0.0 -1.343891602869e-04 
-1.452353386135e-04 -1.385252952600e-05 0.0 
-1.385252952600e-05 9.563155137830e-04 0.0 
0.0 0.0 -1.441570129583e-04 
-1.551452079967e-04 -1.219781350268e-05 0.0 
-1.219781350268e-05 1.026181140671e-03 0.0 
0.0 0.0 -1.540481715075e-04 
-1.626979226826e-04 -1.337619385664e-05 0.0 
-1.337619385664e-05 1.096146543984e-03 0.0 
0.0 0.0 -1.639185295300e-04 
-1.730204163278e-04 -1.189570542028e-05 0.0 
-1.189570542028e-05 1.165335265964e-03 0.0 
0.0 0.0 -1.737435638217e-04 
-1.827904030233e-04 -1.370279642459e-05 0.0 
-1.370279642459e-05 1.231374955592e-03 0.0 
0.0 0.0 -1.836722557877e-04 
-1.920175721782e-04 -1.513479483673e-05 0.0 
-1.513479483673e-05 1.306410256595e-03 0.0 
0.0 0.0 -1.933173094176e-04 
-2.628312394672e-06 4.861178510582e-06 0.0 
4.861178510582e-06 1.556544794842e-05 0.0 
0.0 0.0 -4.409292559605e-06 
-1.048316007749e-04 -9.621305853345e-07 0.0 
-9.621305853345e-07 6.811678198845e-04 0.0 
0.0 0.0 -1.041824356080e-04 
-1.603258868989e-05 6.293505815657e-06 0.0 
6.293505815657e-06 6.888897348946e-05 0.0 
0.0 0.0 -1.632019118638e-05 
-2.756708965862e-05 9.954179369459e-06 0.0 
9.954179369459e-06 1.392031922928e-04 0.0 
0.0 0.0 -2.693367542308e-05 
-3.812552406380e-05 1.016013513838e-05 0.0 
1.016013513838e-05 2.109572618436e-04 0.0 
0.0 0.0 -3.699017713192e-05 
-4.963090252897e-05 1.010790859059e-05 0.0 
1.010790859059e-05 2.749080301063e-04 0.0 
0.0 0.0 -4.663185121135e-05 
-5.946172844476e-05 1.089817760649e-05 0.0 
1.089817760649e-05 3.455630334660e-04 0.0 
0.0 0.0 -5.667203691650e-05 
-6.505553141841e-05 2.937936896188e-06 0.0 
2.937936896188e-06 4.160474215406e-04 0.0 
0.0 0.0 -6.653030537262e-05 
-7.141834889080e-05 9.678265043940e-08 0.0 
9.678265043940e-08 4.646211674391e-04 0.0 
0.0 0.0 -7.370455344612e-05 
-8.170243524055e-05 5.000006177164e-08 0.0 
5.000006177164e-08 5.347878226306e-04 0.0 
0.0 0.0 -8.371130494101e-05 
-9.180060726483e-05 -4.722006417284e-07 0.0 
-4.722006417284e-07 6.049326733472e-04 0.0 
0.0 0.0 -9.373011205136e-05 
-6.392442701478e-05 -3.071182119048e-05 0.0 
-3.071182119048e-05 4.297119159830e-04 0.0 
0.0 0.0 -6.733333333333e-05 
-7.449630958426e-05 -2.494664394193e-05 0.0 
-2.494664394193e-05 4.692561610563e-04 0.0 
0.0 0.0 -7.400000000000e-05 
-8.434259877890e-05 -3.002568002087e-05 0.0 
-3.002568002087e-05 5.385348917960e-04 0.0 
0.0 0.0 -8.400000000000e-05 
-9.370207488883e-05 -2.126272979996e-05 0.0 
-2.126272979996e-05 6.064301356153e-04 0.0 
0.0 0.0 -9.400000000000e-05 
-1.036969649510e-04 8.247914357618e-06 0.0 
8.247914357618e-06 6.682236523530e-04 0.0 
0.0 0.0 -1.031244360596e-04 
-1.030331121809e-04 6.398061947281e-07 0.0 
6.398061947281e-07 6.730085857154e-04 0.0 
0.0 0.0 -1.036639830904e-04 
-1.040246848300e-04 6.551258288294e-07 0.0 
6.551258288294e-07 6.737003815122e-04 0.0 
0.0 0.0 -1.036786795573e-04 
-1.036199691061e-04 -1.060092899920e-06 0.0 
-1.060092899920e-06 6.728402332334e-04 0.0 
0.0 0.0 -1.035503476195e-04 
-1.036187730866e-04 6.987826892712e-07 0.0 
6.987826892712e-07 6.843234116976e-04 0.0 
0.0 0.0 -1.047113471711e-04 
-1.033931728263e-04 8.121956357098e-07 0.0 
8.121956357098e-07 6.742373380345e-04 0.0 
0.0 0.0 -1.036717283195e-04 
-1.019647128334e-04 -9.227752753182e-07 0.0 
-9.227752753182e-07 6.731432047700e-04 0.0 
0.0 0.0 -1.035575096558e-04 
-1.024936313905e-04 1.772285713447e-06 0.0 
1.772285713447e-06 6.748371062497e-04 0.0 
0.0 0.0 -1.035838249569e-04 
-1.042470993802e-04 3.635416729023e-07 0.0 
3.635416729023e-07 6.762559263978e-04 0.0 
0.0 0.0 -1.038366668071e-04 
-1.045602445557e-04 1.897285970682e-06 0.0 
1.897285970682e-06 6.765304608455e-04 0.0 
0.0 0.0 -1.037414779538e-04 
-1.033276288020e-04 1.064407616834e-06 0.0 
1.064407616834e-06 6.759918874459e-04 0.0 
0.0 0.0 -1.036749887244e-04 
-1.038467522998e-04 5.163460192194e-07 0.0 
5.163460192194e-07 6.750993881616e-04 0.0 
0.0 0.0 -1.036742376103e-04 
-1.031100844336e-04 2.320623075698e-06 0.0 
2.320623075698e-06 6.745066352922e-04 0.0 
0.0 0.0 -1.037248800197e-04 
-1.035625589850e-04 3.164755832638e-06 0.0 
3.164755832638e-06 6.761520668862e-04 0.0 
0.0 0.0 -1.038372224314e-04 
-3.888660396223e-06 -2.385114651317e-06 0.0 
-2.385114651317e-06 2.042711759429e-05 0.0 
0.0 0.0 -4.472331749510e-06 
-5.169101753905e-06 -7.084154542495e-07 0.0 
-7.084154542495e-07 2.271348961565e-05 0.0 
0.0 0.0 -4.502040609288e-06 
-2.364246160799e-06 1.028376057694e-06 0.0 
1.028376057694e-06 2.131091607623e-05 0.0 
0.0 0.0 -4.337518410806e-06 
-1.587498611084e-06 -3.133011703373e-06 0.0 
-3.133011703373e-06 2.050781746996e-05 0.0 
0.0 0.0 -4.334754490686e-06 
-5.046560316982e-06 -4.634948452893e-06 0.0 
-4.634948452893e-06 2.392890582554e-05 0.0 
0.0 0.0 -4.561117883842e-06 
-6.265007612969e-06 -9.207565944816e-07 0.0 
-9.207565944816e-07 2.697395437511e-05 0.0 
0.0 0.0 -4.603166802451e-06 
-5.736513677339e-06 8.387511243073e-08 0.0 
8.387511243073e-08 2.687139260663e-05 0.0 
0.0 0.0 -4.588253942932e-06 
-4.839540945368e-06 -2.011555288387e-07 0.0 
-2.011555288387e-07 2.583465999306e-05 0.0 
0.0 0.0 -4.580819930830e-06 
-4.612792911559e-06 -5.630253563300e-07 0.0 
-5.630253563300e-07 2.605477154738e-05 0.0 
0.0 0.0 -4.566377142626e-06 
-3.958290915494e-06 -1.184167375848e-06 0.0 
-1.184167375848e-06 2.564531167106e-05 0.0 
0.0 0.0 -4.572797242576e-06 
-4.022129294500e-06 -2.439723680986e-06 0.0 
-2.439723680986e-06 2.664958176089e-05 0.0 
0.0 0.0 -4.590091569785e-06 
-6.268342663527e-06 6.977096205287e-07 0.0 
6.977096205287e-07 2.905288206764e-05 0.0 
0.0 0.0 -4.700025780019e-06 
-5.376994636987e-06 4.381417467922e-06 0.0 
4.381417467922e-06 2.721428218001e-05 0.0 
0.0 0.0 -4.652230755744e-06 
-2.838762493559e-06 1.392931258625e-06 0.0 
1.392931258625e-06 2.367722917541e-05 0.0 
0.0 0.0 -4.515582628821e-06 
-3.990779392774e-06 -6.597448414294e-07 0.0 
-6.597448414294e-07 2.387859913914e-05 0.0 
0.0 0.0 -4.562958168800e-06 
-6.201113197701e-06 2.425591329864e-07 0.0 
2.425591329864e-07 2.634678490736e-05 0.0 
0.0 0.0 -4.590849357655e-06 
-6.954870756754e-06 8.464675035122e-07 0.0 
8.464675035122e-07 2.697964767619e-05 0.0 
0.0 0.0 -4.587172474505e-06 
-4.599856540822e-06 4.128708826148e-06 0.0 
4.128708826148e-06 2.250512897823e-05 0.0 
0.0 0.0 -4.562260372237e-06 
-2.212869655358e-06 7.040915964333e-07 0.0 
7.040915964333e-07 1.983031900883e-05 0.0 
0.0 0.0 -4.417496077222e-06 
-7.058837764514e-05 1.094733433271e-05 0.0 
1.094733433271e-05 4.438703361604e-04 0.0 
0.0 0.0 -6.816666666667e-05 
-6.867511394217e-05 2.046054953830e-06 0.0 
2.046054953830e-06 4.418621740523e-04 0.0 
0.0 0.0 -6.844444444444e-05 
-6.851224639642e-05 -3.836770623607e-07 0.0 
-3.836770623607e-07 4.409105631650e-04 0.0 
0.0 0.0 -6.844444444444e-05 
-6.850986175353e-05 -3.060676659078e-07 0.0 
-3.060676659078e-07 4.408870620295e-04 0.0 
0.0 0.0 -6.844444444444e-05 
-6.855589618839e-05 -2.159981016789e-07 0.0 
-2.159981016789e-07 4.409730395950e-04 0.0 
0.0 0.0 -6.844444444444e-05 
-6.866045476189e-05 -1.634161237564e-07 0.0 
-1.634161237564e-07 4.411113048326e-04 0.0 
0.0 0.0 -6.844444444444e-05 
-6.878236414985e-05 -2.748012506367e-07 0.0 
-2.748012506367e-07 4.412221399526e-04 0.0 
0.0 0.0 -6.844444444444e-05 
-6.882743781450e-05 -3.974240202049e-07 0.0 
-3.974240202049e-07 4.411981549926e-04 0.0 
0.0 0.0 -6.844444444444e-05 
-6.881098301094e-05 -3.403070719948e-07 0.0 
-3.403070719948e-07 4.411384044371e-04 0.0 
0.0 0.0 -6.844444444444e-05 
-6.890683692334e-05 -1.820454951462e-07 0.0 
-1.820454951462e-07 4.411546621598e-04 0.0 
0.0 0.0 -6.844444444444e-05 
-6.900927362846e-05 -1.403795625526e-07 0.0 
-1.403795625526e-07 4.411806683934e-04 0.0 
0.0 0.0 -6.844444444444e-05 
-6.901599074325e-05 -2.021808122949e-07 0.0 
-2.021808122949e-07 4.411040169434e-04 0.0 
0.0 0.0 -6.844444444444e-05 
-6.891649990010e-05 -1.512891660331e-07 0.0 
-1.512891660331e-07 4.407947470004e-04 0.0 
0.0 0.0 -6.844444444444e-05 
-6.878555178819e-05 7.256259794231e-07 0.0 
7.256259794231e-07 4.408253935375e-04 0.0 
0.0 0.0 -6.844444444444e-05 
-6.913850909901e-05 7.494384994026e-07 0.0 
7.494384994026e-07 4.409757317451e-04 0.0 
0.0 0.0 -6.844444444444e-05 
-6.917069981022e-05 1.647544277631e-06 0.0 
1.647544277631e-06 4.417437963019e-04 0.0 
0.0 0.0 -6.844444444444e-05 
-6.977210628554e-05 -7.939958453805e-07 0.0 
-7.939958453805e-07 4.411158975757e-04 0.0 
0.0 0.0 -6.844444444444e-05 
-6.718923998596e-05 3.415828193510e-06 0.0 
3.415828193510e-06 4.413299945104e-04 0.0 
0.0 0.0 -6.844444444444e-05 
-6.700911749452e-05 -3.707734642513e-06 0.0 
-3.707734642513e-06 4.388463480263e-04 0.0 
0.0 0.0 -6.803486394558e-05 
-5.692921930856e-05 -2.365003213338e-06 0.0 
-2.365003213338e-06 4.121064081970e-04 0.0 
0.0 0.0 -6.604648526077e-05 
-6.626641426913e-05 1.378973851741e-06 0.0 
1.378973851741e-06 4.548482350430e-04 0.0 
0.0 0.0 -7.279421768707e-05 
-7.356607765690e-05 -1.854881774075e-06 0.0 
-1.854881774075e-06 4.734083990815e-04 0.0 
0.0 0.0 -7.439504373177e-05 
-7.451973324986e-05 1.818776252699e-06 0.0 
1.818776252699e-06 4.701147270985e-04 0.0 
0.0 0.0 -7.400000000000e-05 
-7.507189263132e-05 1.139871955262e-06 0.0 
1.139871955262e-06 4.690018492736e-04 0.0 
0.0 0.0 -7.400000000000e-05 
-7.440307977863e-05 1.316267280214e-06 0.0 
1.316267280214e-06 4.689046979315e-04 0.0 
0.0 0.0 -7.400000000000e-05 
-7.447964919173e-05 1.327643289489e-07 0.0 
1.327643289489e-07 4.685645119696e-04 0.0 
0.0 0.0 -7.400000000000e-05 
-7.463811246650e-05 -2.009510893622e-07 0.0 
-2.009510893622e-07 4.690373350481e-04 0.0 
0.0 0.0 -7.400000000000e-05 
-7.464635801585e-05 -7.665068053575e-08 0.0 
-7.665068053575e-08 4.691773352964e-04 0.0 
0.0 0.0 -7.400000000000e-05 
-7.456896915362e-05 6.486733144631e-08 0.0 
6.486733144631e-08 4.691551129947e-04 0.0 
0.0 0.0 -7.400000000000e-05 
-7.434965880918e-05 -2.979712214474e-08 0.0 
-2.979712214474e-08 4.690260974999e-04 0.0 
0.0 0.0 -7.400000000000e-05 
-7.428013090329e-05 -3.745306366773e-07 0.0 
-3.745306366773e-07 4.690784611457e-04 0.0 
0.0 0.0 -7.400000000000e-05 
-7.436926452788e-05 -3.179218437662e-07 0.0 
-3.179218437662e-07 4.692164839065e-04 0.0 
0.0 0.0 -7.400000000000e-05 
-7.420923464376e-05 -8.861031691495e-08 0.0 
-8.861031691495e-08 4.691097441108e-04 0.0 
0.0 0.0 -7.400000000000e-05 
-7.408672818249e-05 -9.997158663719e-08 0.0 
-9.997158663719e-08 4.689363840629e-04 0.0 
0.0 0.0 -7.400000000000e-05 
-7.401015679154e-05 -2.369586485918e-07 0.0 
-2.369586485918e-07 4.688345953373e-04 0.0 
0.0 0.0 -7.400000000000e-05 
-7.402043488264e-05 -3.858604555162e-07 0.0 
-3.858604555162e-07 4.687795838329e-04 0.0 
0.0 0.0 -7.400000000000e-05 
-7.406733317633e-05 -8.624702852560e-07 0.0 
-8.624702852560e-07 4.688475136122e-04 0.0 
0.0 0.0 -7.400000000000e-05 
-7.437229827430e-05 -1.941892756436e-06 0.0 
-1.941892756436e-06 4.691620651443e-04 0.0 
0.0 0.0 -7.400000000000e-05 
-7.450735550024e-05 1.576544860626e-05 0.0 
1.576544860626e-05 4.693163051132e-04 0.0 
0.0 0.0 -7.400000000000e-05 
-8.485563316515e-05 1.075809198226e-05 0.0 
1.075809198226e-05 5.391859337594e-04 0.0 
0.0 0.0 -8.400000000000e-05 
-8.409846415960e-05 9.414650263605e-07 0.0 
9.414650263605e-07 5.383995603087e-04 0.0 
0.0 0.0 -8.400000000000e-05 
-8.389555484943e-05 -6.021980322684e-07 0.0 
-6.021980322684e-07 5.381860091551e-04 0.0 
0.0 0.0 -8.400000000000e-05 
-8.398436323506e-05 -4.920223144165e-07 0.0 
-4.920223144165e-07 5.383843948043e-04 0.0 
0.0 0.0 -8.400000000000e-05 
-8.378599896788e-05 -1.313884382087e-07 0.0 
-1.313884382087e-07 5.383410839076e-04 0.0 
0.0 0.0 -8.400000000000e-05 
-8.397004303126e-05 1.320895791523e-07 0.0 
1.320895791523e-07 5.385599452968e-04 0.0 
0.0 0.0 -8.400000000000e-05 
-8.409172541067e-05 3.119498635538e-07 0.0 
3.119498635538e-07 5.388399091460e-04 0.0 
0.0 0.0 -8.400000000000e-05 
-8.425202054181e-05 -4.105999003094e-07 0.0 
-4.105999003094e-07 5.388170517081e-04 0.0 
0.0 0.0 -8.400000000000e-05 
-8.405009752117e-05 1.267934535993e-07 0.0 
1.267934535993e-07 5.383656166005e-04 0.0 
0.0 0.0 -8.400000000000e-05 
-8.446225278370e-05 7.431195345640e-07 0.0 
7.431195345640e-07 5.387309105085e-04 0.0 
0.0 0.0 -8.400000000000e-05 
-8.472976723877e-05 3.614371366169e-07 0.0 
3.614371366169e-07 5.389575801292e-04 0.0 
0.0 0.0 -8.400000000000e-05 
-8.468281700183e-05 1.764545941254e-07 0.0 
1.764545941254e-07 5.387723880717e-04 0.0 
0.0 0.0 -8.400000000000e-05 
-8.488166774851e-05 3.307409063184e-08 0.0 
3.307409063184e-08 5.387187096913e-04 0.0 
0.0 0.0 -8.400000000000e-05 
-8.470036612902e-05 2.233472977468e-07 0.0 
2.233472977468e-07 5.376128164124e-04 0.0 
0.0 0.0 -8.400000000000e-05 
-8.431282722659e-05 3.361858424154e-06 0.0 
3.361858424154e-06 5.388019778082e-04 0.0 
0.0 0.0 -8.400000000000e-05 
-8.416442060440e-05 -6.991529090742e-07 0.0 
-6.991529090742e-07 5.438481516276e-04 0.0 
0.0 0.0 -8.440087463557e-05 
-7.699797766990e-05 8.136884982108e-07 0.0 
8.136884982108e-07 5.256926397960e-04 0.0 
0.0 0.0 -8.280102040816e-05 
-8.729514730737e-05 2.431575192883e-06 0.0 
2.431575192883e-06 5.952071725442e-04 0.0 
0.0 0.0 -9.279292626141e-05 
-9.515402825116e-05 -3.487467194031e-07 0.0 
-3.487467194031e-07 6.124983923015e-04 0.0 
0.0 0.0 -9.439393679549e-05 
-9.530518963518e-05 1.748549076388e-06 0.0 
1.748549076388e-06 6.086982827348e-04 0.0 
0.0 0.0 -9.400000000000e-05 
-9.443822007151e-05 1.536080356852e-06 0.0 
1.536080356852e-06 6.081273132837e-04 0.0 
0.0 0.0 -9.400000000000e-05 
-9.455496517287e-05 4.180655032130e-07 0.0 
4.180655032130e-07 6.085997108048e-04 0.0 
0.0 0.0 -9.400000000000e-05 
-9.458632400686e-05 1.150725883443e-06 0.0 
1.150725883443e-06 6.089170576803e-04 0.0 
0.0 0.0 -9.400000000000e-05 
-9.431195159654e-05 1.533006736186e-06 0.0 
1.533006736186e-06 6.081280804878e-04 0.0 
0.0 0.0 -9.400000000000e-05 
-9.421230709675e-05 -1.354647329153e-07 0.0 
-1.354647329153e-07 6.080912884899e-04 0.0 
0.0 0.0 -9.400000000000e-05 
-9.337909431243e-05 6.942444443618e-07 0.0 
6.942444443618e-07 6.085993616068e-04 0.0 
0.0 0.0 -9.400000000000e-05 
-9.374302250683e-05 3.925743234368e-08 0.0 
3.925743234368e-08 6.082422955829e-04 0.0 
0.0 0.0 -9.400000000000e-05 
-9.357184311787e-05 3.344127971799e-07 0.0 
3.344127971799e-07 6.080020201806e-04 0.0 
0.0 0.0 -9.400000000000e-05 
-9.351707113181e-05 -1.166879688300e-06 0.0 
-1.166879688300e-06 6.078331273393e-04 0.0 
0.0 0.0 -9.400000000000e-05 
-9.397267376399e-05 -4.718022942719e-07 0.0 
-4.718022942719e-07 6.082084038474e-04 0.0 
0.0 0.0 -9.400000000000e-05 
-9.376740862845e-05 -1.478812201538e-06 0.0 
-1.478812201538e-06 6.074134740605e-04 0.0 
0.0 0.0 -9.400000000000e-05 
-9.429475212128e-05 -5.091328171579e-06 0.0 
-5.091328171579e-06 6.089719886990e-04 0.0 
0.0 0.0 -9.400000000000e-05 
-9.572461714176e-05 1.686230062982e-05 0.0 
1.686230062982e-05 6.103161186201e-04 0.0 
0.0 0.0 -9.400000000000e-05 
-9.168972231207e-06 3.086373565098e-06 0.0 
3.086373565098e-06 3.559574852661e-05 0.0 
0.0 0.0 -1.067913767518e-05 
-2.319324557595e-05 9.600073751645e-06 0.0 
9.600073751645e-06 1.051649730873e-04 0.0 
0.0 0.0 -2.186514004066e-05 
-3.270389502079e-05 1.247004681325e-05 0.0 
1.247004681325e-05 1.753354515574e-04 0.0 
0.0 0.0 -3.195214541711e-05 
-4.333142068931e-05 1.229963368923e-05 0.0 
1.229963368923e-05 2.470095009577e-04 0.0 
0.0 0.0 -4.202597925154e-05 
-5.334283756541e-05 5.153255213289e-06 0.0 
5.153255213289e-06 3.151067639109e-04 0.0 
0.0 0.0 -5.161396608484e-05 
-6.108066666722e-05 7.340749313707e-06 0.0 
7.340749313707e-06 3.847251305454e-04 0.0 
0.0 0.0 -6.162588342429e-05 
-6.508558424635e-05 3.075872768086e-06 0.0 
3.075872768086e-06 4.344526873071e-04 0.0 
0.0 0.0 -6.975401418979e-05 
-7.497012245692e-05 4.311534055672e-06 0.0 
4.311534055672e-06 5.043026023732e-04 0.0 
0.0 0.0 -7.976546830823e-05 
-8.509296828041e-05 3.418368169261e-06 0.0 
3.418368169261e-06 5.740185323213e-04 0.0 
0.0 0.0 -8.978403836533e-05 
-9.498556415872e-05 3.738944843297e-06 0.0 
3.738944843297e-06 6.453839669724e-04 0.0 
0.0 0.0 -9.979450657254e-05 
-2.903947000217e-05 4.451191488364e-07 0.0 
4.451191488364e-07 1.483933272917e-04 0.0 
0.0 0.0 -2.805418351568e-05 
-1.947382551544e-04 -2.159516415369e-06 0.0 
-2.159516415369e-06 1.315627443457e-03 0.0 
0.0 0.0 -1.955083413980e-04 
-8.567559438263e-06 -1.698793721464e-06 0.0 
-1.698793721464e-06 4.448364337142e-05 0.0 
0.0 0.0 -8.578267221574e-06 
-8.136868517871e-06 -4.367899646924e-06 0.0 
-4.367899646924e-06 4.087946457471e-05 0.0 
0.0 0.0 -8.341387659605e-06 
-1.954641214955e-04 3.125550394228e-06 0.0 
3.125550394228e-06 1.316340498285e-03 0.0 
0.0 0.0 -1.955041315648e-04 
-5.006254034077e-05 3.860488417876e-06 0.0 
3.860488417876e-06 2.918098893608e-04 0.0 
0.0 0.0 -4.819929352323e-05 
-1.113057377054e-04 -1.249747274644e-06 0.0 
-1.249747274644e-06 7.175137801225e-04 0.0 
0.0 0.0 -1.095085134540e-04 
-1.950754387674e-04 1.968519813096e-06 0.0 
1.968519813096e-06 1.314054090021e-03 0.0 
0.0 0.0 -1.951497400597e-04 
-6.837076637649e-05 -4.771419097857e-06 0.0 
-4.771419097857e-06 4.223371659246e-04 0.0 
0.0 0.0 -6.746904573659e-05 
-1.952596228174e-04 5.860291744708e-07 0.0 
5.860291744708e-07 1.317160681800e-03 0.0 
0.0 0.0 -1.956021977692e-04 
-8.896698281549e-05 5.176874405716e-07 0.0 
5.176874405716e-07 5.656380992247e-04 0.0 
0.0 0.0 -8.786970436408e-05 
-1.941939648637e-04 1.847287419424e-06 0.0 
1.847287419424e-06 1.320485000250e-03 0.0 
0.0 0.0 -1.961487763302e-04 
-7.650674215329e-06 1.236502144193e-06 0.0 
1.236502144193e-06 3.991553915001e-05 0.0 
0.0 0.0 -8.186248162006e-06 
-1.957069062092e-04 9.003290222841e-07 0.0 
9.003290222841e-07 1.317426151316e-03 0.0 
0.0 0.0 -1.956722400187e-04 
-1.089453835626e-04 2.369159746168e-06 0.0 
2.369159746168e-06 7.099109707760e-04 0.0 
0.0 0.0 -1.080461297714e-04 
-6.859129019067e-05 1.013206430907e-06 0.0 
1.013206430907e-06 4.370886358119e-04 0.0 
0.0 0.0 -6.960710895285e-05 
-1.371687672462e-04 1.989641405698e-06 0.0 
1.989641405698e-06 9.073488131676e-04 0.0 
0.0 0.0 -1.368826812983e-04 
-1.943229683407e-04 -1.445358278172e-06 0.0 
-1.445358278172e-06 1.315110082613e-03 0.0 
0.0 0.0 -1.951920106767e-04 
-1.956930830492e-04 2.604495501023e-06 0.0 
2.604495501023e-06 1.317782772153e-03 0.0 
0.0 0.0 -1.956442140825e-04 
-1.963197173795e-04 -2.638308879700e-06 0.0 
-2.638308879700e-06 1.317317020312e-03 0.0 
0.0 0.0 -1.954857917668e-04 
-1.946046977129e-04 1.619923868870e-06 0.0 
1.619923868870e-06 1.311223827380e-03 0.0 
0.0 0.0 -1.946591103862e-04 
-1.965700765428e-04 -3.277130686746e-06 0.0 
-3.277130686746e-06 1.319377863823e-03 0.0 
0.0 0.0 -1.957959275784e-04 
-1.125606473740e-04 1.719511349206e-06 0.0 
1.719511349206e-06 7.393436574216e-04 0.0 
0.0 0.0 -1.128301714015e-04 
-1.128503086942e-04 1.743206654311e-06 0.0 
1.743206654311e-06 7.389768954601e-04 0.0 
0.0 0.0 -1.129477424158e-04 
-1.131980592598e-04 -1.862024743753e-06 0.0 
-1.862024743753e-06 7.425708164452e-04 0.0 
0.0 0.0 -1.137040567910e-04 
-1.496411633683e-04 -5.197980004835e-06 0.0 
-5.197980004835e-06 9.903344520159e-04 0.0 
0.0 0.0 -1.492512252364e-04 
-1.950888054502e-04 -1.662594662544e-06 0.0 
-1.662594662544e-06 1.318271302421e-03 0.0 
0.0 0.0 -1.954311278458e-04 
-7.420624434335e-06 -2.743944179506e-06 0.0 
-2.743944179506e-06 4.036171462300e-05 0.0 
0.0 0.0 -8.192647634203e-06 
-9.873734262922e-06 8.287041108010e-07 0.0 
8.287041108010e-07 4.596430085012e-05 0.0 
0.0 0.0 -8.762595040287e-06 
-1.681367322331e-04 -1.737857054475e-07 0.0 
-1.737857054475e-07 1.127342030325e-03 0.0 
0.0 0.0 -1.684329593750e-04 
-1.137312378447e-04 2.941922033179e-06 0.0 
2.941922033179e-06 7.354400071240e-04 0.0 
0.0 0.0 -1.125050824252e-04 
-4.041482156002e-05 3.417558897106e-07 0.0 
3.417558897106e-07 2.241831831132e-04 0.0 
0.0 0.0 -3.891752881399e-05 
-1.947641557456e-04 7.923084531915e-07 0.0 
7.923084531915e-07 1.304507022875e-03 0.0 
0.0 0.0 -1.939800207710e-04 
-1.960054809974e-04 2.031047324451e-06 0.0 
2.031047324451e-06 1.320447363547e-03 0.0 
0.0 0.0 -1.960961780200e-04 
-1.959837947468e-04 7.548015026685e-07 0.0 
7.548015026685e-07 1.316397764372e-03 0.0 
0.0 0.0 -1.957100175409e-04 
-1.949003992159e-04 1.873708810936e-06 0.0 
1.873708810936e-06 1.312448359133e-03 0.0 
0.0 0.0 -1.946892349944e-04 
-1.963394652884e-04 -2.461762416476e-06 0.0 
-2.461762416476e-06 1.317843150582e-03 0.0 
0.0 0.0 -1.958367853254e-04 
-9.399904561966e-06 3.751811683982e-07 0.0 
3.751811683982e-07 4.607602797327e-05 0.0 
0.0 0.0 -8.777929302786e-06 
-1.121136777944e-04 2.136242843992e-06 0.0 
2.136242843992e-06 7.375316866664e-04 0.0 
0.0 0.0 -1.125147119063e-04 
-1.945054015985e-04 1.526423234173e-06 0.0 
1.526423234173e-06 1.305744790732e-03 0.0 
0.0 0.0 -1.939771297832e-04 
-1.693349048774e-04 -4.546658260319e-06 0.0 
-4.546658260319e-06 1.130612016236e-03 0.0 
0.0 0.0 -1.685397735077e-04 
-8.598075030748e-06 -2.223307893963e-06 0.0 
-2.223307893963e-06 4.388775337437e-05 0.0 
0.0 0.0 -8.698177642707e-06 
-8.871376934976e-05 -9.707224206822e-07 0.0 
-9.707224206822e-07 5.731446297532e-04 0.0 
0.0 0.0 -8.906156601093e-05 
-1.979802513817e-04 -1.566370620822e-06 0.0 
-1.566370620822e-06 1.328935425363e-03 0.0 
0.0 0.0 -1.967971955909e-04 
-6.059110968862e-05 -2.270349058910e-06 0.0 
-2.270349058910e-06 3.638632698663e-04 0.0 
0.0 0.0 -5.846208800394e-05 
-3.934380255029e-05 1.116524761702e-06 0.0 
1.116524761702e-06 2.201048627676e-04 0.0 
0.0 0.0 -3.823193484201e-05 
-7.905584954535e-05 -1.125239316858e-06 0.0 
-1.125239316858e-06 4.942495490073e-04 0.0 
0.0 0.0 -7.767853477808e-05 
-9.853492259670e-05 -1.059175576559e-06 0.0 
-1.059175576559e-06 6.356901872357e-04 0.0 
0.0 0.0 -9.791554816786e-05 
-1.758731503853e-05 -2.183232337716e-06 0.0 
-2.183232337716e-06 7.214564488676e-05 0.0 
0.0 0.0 -1.677835640721e-05 
-1.304400768820e-04 -1.226623402604e-06 0.0 
-1.226623402604e-06 8.588836031036e-04 0.0 
0.0 0.0 -1.302718197671e-04 
-1.976961881145e-04 -1.904942962871e-06 0.0 
-1.904942962871e-06 1.329827350337e-03 0.0 
0.0 0.0 -1.970859964037e-04 
-7.778984465367e-06 4.389754775789e-06 0.0 
4.389754775789e-06 4.119927433976e-05 0.0 
0.0 0.0 -8.754673005183e-06 
-1.866018908338e-04 -2.006069315689e-08 0.0 
-2.006069315689e-08 1.262553750678e-03 0.0 
0.0 0.0 -1.880896313740e-04 
-1.123534650814e-04 1.611587689509e-06 0.0 
1.611587689509e-06 7.392560460262e-04 0.0 
0.0 0.0 -1.129840772622e-04 
-1.171047806051e-04 7.449209117803e-07 0.0 
7.449209117803e-07 7.664746806855e-04 0.0 
0.0 0.0 -1.171402528589e-04 
-1.209300272193e-04 3.259751506580e-06 0.0 
3.259751506580e-06 8.015413982557e-04 0.0 
0.0 0.0 -1.217336839916e-04 
-1.273390226549e-04 -1.216641127310e-06 0.0 
-1.216641127310e-06 8.349727543367e-04 0.0 
0.0 0.0 -1.264258636278e-04 
-1.320700965903e-04 1.876866623284e-08 0.0 
1.876866623284e-08 8.692918616205e-04 0.0 
0.0 0.0 -1.317698771115e-04 
-1.368244106801e-04 -1.114619508482e-06 0.0 
-1.114619508482e-06 9.001255364591e-04 0.0 
0.0 0.0 -1.359061374524e-04 
-1.313516644010e-04 -1.071478350727e-06 0.0 
-1.071478350727e-06 8.642075030487e-04 0.0 
0.0 0.0 -1.306688636612e-04 
-1.406252513591e-04 -1.352739222539e-06 0.0 
-1.352739222539e-06 9.300768557182e-04 0.0 
0.0 0.0 -1.401216342492e-04 
-1.355168506451e-04 -8.441429406154e-07 0.0 
-8.441429406154e-07 8.933027720166e-04 0.0 
0.0 0.0 -1.348466119664e-04 
-1.406309551036e-04 -1.423065028084e-06 0.0 
-1.423065028084e-06 9.373189590449e-04 0.0 
0.0 0.0 -1.412262538548e-04 
-1.447717080924e-04 -1.617847745048e-06 0.0 
-1.617847745048e-06 9.594996109507e-04 0.0 
0.0 0.0 -1.443446404888e-04 
-1.395639979808e-04 -9.495865010563e-07 0.0 
-9.495865010563e-07 9.223387170950e-04 0.0 
0.0 0.0 -1.390295894150e-04 
-1.488518955481e-04 -1.324901186338e-06 0.0 
-1.324901186338e-06 9.887094425207e-04 0.0 
0.0 0.0 -1.485505823874e-04 
-1.436922961000e-04 -1.046451979584e-06 0.0 
-1.046451979584e-06 9.515310653716e-04 0.0 
0.0 0.0 -1.432156325536e-04 
-1.343600788387e-04 -5.167793523514e-07 0.0 
-5.167793523514e-07 8.856735470671e-04 0.0 
0.0 0.0 -1.337521069633e-04 
-1.385105152453e-04 -4.710394907329e-07 0.0 
-4.710394907329e-07 9.146329712672e-04 0.0 
0.0 0.0 -1.379179829106e-04 
-1.289648752830e-04 -8.618976580084e-08 0.0 
-8.618976580084e-08 8.489207055611e-04 0.0 
0.0 0.0 -1.284753219673e-04 
-1.331501462654e-04 -2.281806353288e-07 0.0 
-2.281806353288e-07 8.778469958775e-04 0.0 
0.0 0.0 -1.326245976321e-04 
-1.426230691977e-04 -3.445547381831e-07 0.0 
-3.445547381831e-07 9.438219498313e-04 0.0 
0.0 0.0 -1.420797641308e-04 
-1.372349024752e-04 -4.912623478829e-07 0.0 
-4.912623478829e-07 9.068017641173e-04 0.0 
0.0 0.0 -1.367729294110e-04 
-1.278087679959e-04 -1.828532417456e-07 0.0 
-1.828532417456e-07 8.408634527744e-04 0.0 
0.0 0.0 -1.273259478075e-04 
-1.318398283045e-04 -3.075890479268e-07 0.0 
-3.075890479268e-07 8.695930318134e-04 0.0 
0.0 0.0 -1.314613401273e-04 
-1.224174681950e-04 5.152664304949e-08 0.0 
5.152664304949e-08 8.039186497448e-04 0.0 
0.0 0.0 -1.220343484428e-04 
-1.264174440320e-04 -1.610988413994e-07 0.0 
-1.610988413994e-07 8.325618017429e-04 0.0 
0.0 0.0 -1.261611736566e-04 
-1.170510544419e-04 2.223926002139e-08 0.0 
2.223926002139e-08 7.668217430428e-04 0.0 
0.0 0.0 -1.167242641243e-04 
-1.210374224200e-04 -1.474818318750e-07 0.0 
-1.474818318750e-07 7.955505097843e-04 0.0 
0.0 0.0 -1.208544874677e-04 
-1.304043414113e-04 -3.154242512107e-07 0.0 
-3.154242512107e-07 8.613589922912e-04 0.0 
0.0 0.0 -1.303042425932e-04 
-1.250914766715e-04 -9.789090931165e-08 0.0 
-9.789090931165e-08 8.242842117775e-04 0.0 
0.0 0.0 -1.249864172613e-04 
-1.156698454984e-04 4.104440089507e-08 0.0 
4.104440089507e-08 7.584999711117e-04 0.0 
0.0 0.0 -1.155496960434e-04 
-1.197696986214e-04 6.686600869303e-08 0.0 
6.686600869303e-08 7.872430335080e-04 0.0 
0.0 0.0 -1.196691756306e-04 
-1.103345672185e-04 1.936070379504e-07 0.0 
1.936070379504e-07 7.215726378401e-04 0.0 
0.0 0.0 -1.102360968649e-04 
-1.143831646187e-04 2.841694026701e-07 0.0 
2.841694026701e-07 7.499983246613e-04 0.0 
0.0 0.0 -1.143358844566e-04 
-1.238585560106e-04 1.680319022195e-07 0.0 
1.680319022195e-07 8.159376449007e-04 0.0 
0.0 0.0 -1.237972835831e-04 
-1.185140209161e-04 8.396902968228e-08 0.0 
8.396902968228e-08 7.787352394438e-04 0.0 
0.0 0.0 -1.184549252722e-04 
-1.089992092054e-04 6.281890232402e-08 0.0 
6.281890232402e-08 7.122982226840e-04 0.0 
0.0 0.0 -1.089619939006e-04 
-1.132389115670e-04 -1.057915283393e-07 0.0 
-1.057915283393e-07 7.414300503039e-04 0.0 
0.0 0.0 -1.130977248571e-04 
-1.037240861722e-04 -4.723566763673e-07 0.0 
-4.723566763673e-07 6.746986895894e-04 0.0 
0.0 0.0 -1.035578799258e-04 
-1.079391861501e-04 -9.525050173449e-10 0.0 
-9.525050173449e-10 7.042191649168e-04 0.0 
0.0 0.0 -1.077352770641e-04 
-9.832371136087e-05 -3.508088035030e-07 0.0 
-3.508088035030e-07 6.371418654706e-04 0.0 
0.0 0.0 -9.813603890825e-05 
-1.025291601956e-04 7.520025507388e-08 0.0 
7.520025507388e-08 6.664875104737e-04 0.0 
0.0 0.0 -1.023264466889e-04 
-1.121330899491e-04 -3.201268622905e-08 0.0 
-3.201268622905e-08 7.333893815298e-04 0.0 
0.0 0.0 -1.119135318789e-04 
-1.067345759512e-04 -1.457462253014e-07 0.0 
-1.457462253014e-07 6.958135066491e-04 0.0 
0.0 0.0 -1.065124872911e-04 
-9.708388481881e-05 -1.123756317371e-07 0.0 
-1.123756317371e-07 6.287043899204e-04 0.0 
0.0 0.0 -9.687936111797e-05 
-1.012280793484e-04 -2.016817593289e-07 0.0 
-2.016817593289e-07 6.578039102236e-04 0.0 
0.0 0.0 -1.010667964543e-04 
-1.108655634829e-04 -2.805142089434e-07 0.0 
-2.805142089434e-07 7.250705567917e-04 0.0 
0.0 0.0 -1.107220969010e-04 
-1.053738009019e-04 -2.657681640372e-07 0.0 
-2.657681640372e-07 6.869604308345e-04 0.0 
0.0 0.0 -1.052625016289e-04 
-1.150267739913e-04 -3.300558054110e-07 0.0 
-3.300558054110e-07 7.543777337130e-04 0.0 
0.0 0.0 -1.149374102432e-04 
-1.095605670490e-04 -1.992187362342e-07 0.0 
-1.992187362342e-07 7.162738244309e-04 0.0 
0.0 0.0 -1.094674241824e-04 
-9.992608341546e-05 -2.285291460902e-07 0.0 
-2.285291460902e-07 6.491377746979e-04 0.0 
0.0 0.0 -9.983047339662e-05 
-1.041038271013e-04 -4.784792107382e-08 0.0 
-4.784792107382e-08 6.783667909797e-04 0.0 
0.0 0.0 -1.040110107548e-04 
-1.137411101647e-04 -1.005325563355e-07 0.0 
-1.005325563355e-07 7.455825181624e-04 0.0 
0.0 0.0 -1.136680319875e-04 
-1.082869868131e-04 -5.329032704079e-08 0.0 
-5.329032704079e-08 7.073386927023e-04 0.0 
0.0 0.0 -1.081830392180e-04 
-9.869624350956e-05 -1.279251488152e-07 0.0 
-1.279251488152e-07 6.404070926404e-04 0.0 
0.0 0.0 -9.856705257735e-05 
-1.028159541346e-04 2.106799420310e-07 0.0 
2.106799420310e-07 6.694648529012e-04 0.0 
0.0 0.0 -1.027256921484e-04 
-1.124881435347e-04 1.468300417498e-07 0.0 
1.468300417498e-07 7.366254737130e-04 0.0 
0.0 0.0 -1.123746868942e-04 
-1.069630032943e-04 3.797193907440e-07 0.0 
3.797193907440e-07 6.984570345631e-04 0.0 
0.0 0.0 -1.069064678657e-04 
-9.735694714147e-05 3.040392105123e-07 0.0 
3.040392105123e-07 6.314702925721e-04 0.0 
0.0 0.0 -9.729074097479e-05 
-1.014698791265e-04 5.263077294053e-07 0.0 
5.263077294053e-07 6.606218601415e-04 0.0 
0.0 0.0 -1.014450936127e-04 
-1.111588134786e-04 4.465606502621e-07 0.0 
4.465606502621e-07 7.280983055299e-04 0.0 
0.0 0.0 -1.111412434799e-04 
-1.056103560307e-04 3.527345838497e-07 0.0 
3.527345838497e-07 6.896411777924e-04 0.0 
0.0 0.0 -1.056341277852e-04 
-9.592602067126e-05 5.327638544791e-07 0.0 
5.327638544791e-07 6.223325700671e-04 0.0 
0.0 0.0 -9.597584338962e-05 
-1.000042351432e-04 6.050193751295e-07 0.0 
6.050193751295e-07 6.512858928885e-04 0.0 
0.0 0.0 -1.001195007473e-04 
-1.097885953069e-04 3.509867728239e-07 0.0 
3.509867728239e-07 7.191866513993e-04 0.0 
0.0 0.0 -1.098732949993e-04 
-1.041219874635e-04 4.565113330363e-07 0.0 
4.565113330363e-07 6.802416856987e-04 0.0 
0.0 0.0 -1.043104098158e-04 
-1.139943776011e-04 2.608804957771e-07 0.0 
2.608804957771e-07 7.487261930972e-04 0.0 
0.0 0.0 -1.141349681178e-04 
-9.432131286435e-05 6.931090399304e-07 0.0 
6.931090399304e-07 6.120807620329e-04 0.0 
0.0 0.0 -9.453138577379e-05 
-9.843300825502e-05 3.791394769862e-07 0.0 
3.791394769862e-07 6.410640369442e-04 0.0 
0.0 0.0 -9.871483819285e-05 
-8.857532524913e-05 7.670792375352e-07 0.0 
7.670792375352e-07 5.725816228305e-04 0.0 
0.0 0.0 -8.888275660121e-05 
-9.270105845016e-05 2.622529703410e-07 0.0 
2.622529703410e-07 6.018362902946e-04 0.0 
0.0 0.0 -9.310666704106e-05 
-1.280450341640e-04 2.022914446804e-07 0.0 
2.022914446804e-07 8.448927114390e-04 0.0 
0.0 0.0 -1.279397651938e-04 
-8.276712932225e-05 6.443736138370e-07 0.0 
6.443736138370e-07 5.330826812988e-04 0.0 
0.0 0.0 -8.324826898147e-05 
-7.884768894366e-05 1.023704289178e-06 0.0 
1.023704289178e-06 5.047676539199e-04 0.0 
0.0 0.0 -7.914375511354e-05 
-8.697616798037e-05 -7.331328903679e-10 0.0 
-7.331328903679e-10 5.626687258914e-04 0.0 
0.0 0.0 -8.749891481923e-05 
-9.702972984445e-05 -9.951343649239e-08 0.0 
-9.951343649239e-08 6.318920870484e-04 0.0 
0.0 0.0 -9.740424872913e-05 
-7.706547232469e-05 2.380236829533e-07 0.0 
2.380236829533e-07 4.936160224660e-04 0.0 
0.0 0.0 -7.760805980730e-05 
-8.127460870577e-05 -1.704001729844e-07 0.0 
-1.704001729844e-07 5.235024448564e-04 0.0 
0.0 0.0 -8.188641417383e-05 
-7.155045226520e-05 3.113369261567e-07 0.0 
3.113369261567e-07 4.544691373911e-04 0.0 
0.0 0.0 -7.197242596511e-05 
-9.398834813403e-05 -4.649841708638e-07 0.0 
-4.649841708638e-07 6.067163141264e-04 0.0 
0.0 0.0 -9.378238744040e-05 
-1.466888889075e-04 -6.905876409823e-07 0.0 
-6.905876409823e-07 9.729931165237e-04 0.0 
0.0 0.0 -1.462607504514e-04 
-7.572467440231e-05 1.210487184868e-07 0.0 
1.210487184868e-07 4.846162633768e-04 0.0 
0.0 0.0 -7.626743364961e-05 
-6.621416197033e-05 -1.397216265960e-07 0.0 
-1.397216265960e-07 4.154095652474e-04 0.0 
0.0 0.0 -6.634679566782e-05 
-6.190172954625e-05 4.165851450949e-07 0.0 
4.165851450949e-07 3.853087909955e-04 0.0 
0.0 0.0 -6.205237226325e-05 
-5.628575454228e-05 3.940532300385e-08 0.0 
3.940532300385e-08 3.460724695174e-04 0.0 
0.0 0.0 -5.642855255362e-05 
-1.354938510920e-04 -2.913953566673e-06 0.0 
-2.913953566673e-06 9.082152710087e-04 0.0 
0.0 0.0 -1.368953805519e-04 
-1.462552660591e-04 1.249747586106e-07 0.0 
1.249747586106e-07 9.752174249571e-04 0.0 
0.0 0.0 -1.465891790687e-04 
-1.414040401139e-04 -1.271486640511e-06 0.0 
-1.271486640511e-06 9.428451641582e-04 0.0 
0.0 0.0 -1.420291944686e-04 
-1.520026480131e-04 -3.631190555520e-07 0.0 
-3.631190555520e-07 1.012864624851e-03 0.0 
0.0 0.0 -1.519432683735e-04 
-1.472985787471e-04 -1.382728633740e-06 0.0 
-1.382728633740e-06 9.819853291120e-04 0.0 
0.0 0.0 -1.475277143832e-04 
-6.049783873772e-05 -1.110839167728e-06 0.0 
-1.110839167728e-06 3.760535738177e-04 0.0 
0.0 0.0 -6.071687451653e-05 
-1.539446624240e-04 -1.181077219234e-06 0.0 
-1.181077219234e-06 1.026370553893e-03 0.0 
0.0 0.0 -1.540030753513e-04 
-1.562964739112e-04 4.946292658218e-07 0.0 
4.946292658218e-07 1.043020722120e-03 0.0 
0.0 0.0 -1.563396320792e-04 
-1.184118913967e-04 1.857139776563e-07 0.0 
1.857139776563e-07 7.754976810309e-04 0.0 
0.0 0.0 -1.179280690692e-04 
-1.062500152817e-04 1.741187945377e-07 0.0 
1.741187945377e-07 6.928514360504e-04 0.0 
0.0 0.0 -1.061413340584e-04 
-1.205167248159e-04 -5.462407212351e-07 0.0 
-5.462407212351e-07 7.925156879070e-04 0.0 
0.0 0.0 -1.204127835607e-04 
-8.548976471001e-05 -7.615656520967e-07 0.0 
-7.615656520967e-07 5.535587085213e-04 0.0 
0.0 0.0 -8.618857558133e-05 
-7.988885271144e-05 1.897397534693e-07 0.0 
1.897397534693e-07 5.152050676733e-04 0.0 
0.0 0.0 -8.057008281249e-05 
-9.032121231226e-05 -1.684930927318e-06 0.0 
-1.684930927318e-06 5.843848000393e-04 0.0 
0.0 0.0 -9.050178936823e-05 
-1.196337930892e-04 1.102008659663e-07 0.0 
1.102008659663e-07 7.876256328336e-04 0.0 
0.0 0.0 -1.197064290626e-04 
-1.239088484819e-04 1.270562820447e-07 0.0 
1.270562820447e-07 8.174720289214e-04 0.0 
0.0 0.0 -1.239919845821e-04 
-1.295076006245e-04 6.163016450208e-08 0.0 
6.163016450208e-08 8.563536897128e-04 0.0 
0.0 0.0 -1.295728275001e-04 
-1.338245653935e-04 6.187832994799e-08 0.0 
6.187832994799e-08 8.862996102706e-04 0.0 
0.0 0.0 -1.338680086136e-04 
-1.393975761356e-04 4.550308926587e-08 0.0 
4.550308926587e-08 9.252125319019e-04 0.0 
0.0 0.0 -1.394574676997e-04 
-1.437406368722e-04 1.277074154763e-07 0.0 
1.277074154763e-07 9.552601406530e-04 0.0 
0.0 0.0 -1.437562178924e-04 
-1.381365115215e-04 -6.384328167061e-08 0.0 
-6.384328167061e-08 9.162527365186e-04 0.0 
0.0 0.0 -1.381609243235e-04 
-1.481035666194e-04 -1.079358485103e-07 0.0 
-1.079358485103e-07 9.853010756590e-04 0.0 
0.0 0.0 -1.480541560501e-04 
-1.424433669279e-04 -2.461913392847e-07 0.0 
-2.461913392847e-07 9.462005835288e-04 0.0 
0.0 0.0 -1.424551100593e-04 
-1.492800736972e-04 1.903860536894e-07 0.0 
1.903860536894e-07 9.941570401524e-04 0.0 
0.0 0.0 -1.493525342080e-04 
-1.449751840430e-04 -1.306362921352e-07 0.0 
-1.306362921352e-07 9.640748764024e-04 0.0 
0.0 0.0 -1.450229800689e-04 
-1.523999948246e-04 -3.989684281702e-07 0.0 
-3.989684281702e-07 1.015224728092e-03 0.0 
0.0 0.0 -1.523522284989e-04 
-1.467103464147e-04 -2.659540217927e-07 0.0 
-2.659540217927e-07 9.761558421408e-04 0.0 
0.0 0.0 -1.467489045856e-04 
-1.565625592364e-04 -4.158419287494e-07 0.0 
-4.158419287494e-07 1.045129081510e-03 0.0 
0.0 0.0 -1.566543602455e-04 
-1.508966779748e-04 -3.393169835015e-07 0.0 
-3.393169835015e-07 1.005998704446e-03 0.0 
0.0 0.0 -1.510511651883e-04 
-1.410712457468e-04 -1.790301414096e-07 0.0 
-1.790301414096e-07 9.369358529960e-04 0.0 
0.0 0.0 -1.411301529270e-04 
-1.452736367783e-04 -1.279390741405e-07 0.0 
-1.279390741405e-07 9.667244667063e-04 0.0 
0.0 0.0 -1.454254449112e-04 
-1.355658465602e-04 -3.525019047488e-07 0.0 
-3.525019047488e-07 8.980272974833e-04 0.0 
0.0 0.0 -1.355350811980e-04 
-1.247169685603e-04 -5.424891476076e-07 0.0 
-5.424891476076e-07 8.219820472476e-04 0.0 
0.0 0.0 -1.246443719175e-04 
-1.302412994967e-04 -6.709375140068e-07 0.0 
-6.709375140068e-07 8.602885817839e-04 0.0 
0.0 0.0 -1.301366355066e-04 
-1.344319823677e-04 -5.992072868322e-07 0.0 
-5.992072868322e-07 8.897694935505e-04 0.0 
0.0 0.0 -1.343775141111e-04 
-1.400237331498e-04 -7.656893218291e-07 0.0 
-7.656893218291e-07 9.282252120942e-04 0.0 
0.0 0.0 -1.398832378697e-04 
-1.441786028548e-04 -7.248633173166e-07 0.0 
-7.248633173166e-07 9.577423680475e-04 0.0 
0.0 0.0 -1.441376510238e-04 
-1.498975004286e-04 -8.881523903679e-07 0.0 
-8.881523903679e-07 9.963296213112e-04 0.0 
0.0 0.0 -1.496454511588e-04 
-1.540303661717e-04 -7.919312302377e-07 0.0 
-7.919312302377e-07 1.025660690864e-03 0.0 
0.0 0.0 -1.539048756661e-04 
-1.483333586792e-04 -5.305309886562e-07 0.0 
-5.305309886562e-07 9.873032168340e-04 0.0 
0.0 0.0 -1.483914164041e-04 
-1.531422374596e-04 -8.663739869802e-07 0.0 
-8.663739869802e-07 1.017764678093e-03 0.0 
0.0 0.0 -1.527153750466e-04 
-9.159847415972e-05 -1.256689801575e-07 0.0 
-1.256689801575e-07 5.906791861929e-04 0.0 
0.0 0.0 -9.143391812226e-05 
-8.744560526880e-05 -1.314299425382e-07 0.0 
-1.314299425382e-07 5.615762013321e-04 0.0 
0.0 0.0 -8.725348065585e-05 
-8.202336977827e-05 5.298561278525e-08 0.0 
5.298561278525e-08 5.236724682599e-04 0.0 
0.0 0.0 -8.181782897632e-05 
-7.787136643021e-05 -4.089849052190e-08 0.0 
-4.089849052190e-08 4.946511796611e-04 0.0 
0.0 0.0 -7.764583100160e-05 
-7.249839660415e-05 3.138088007648e-07 0.0 
3.138088007648e-07 4.567503960433e-04 0.0 
0.0 0.0 -7.221245969917e-05 
-6.836637044469e-05 1.575150055604e-07 0.0 
1.575150055604e-07 4.279278736544e-04 0.0 
0.0 0.0 -6.805748655366e-05 
-6.305635467696e-05 5.617632190065e-07 0.0 
5.617632190065e-07 3.898265041818e-04 0.0 
0.0 0.0 -6.258396351101e-05 
-6.700103591366e-05 8.220641914787e-07 0.0 
8.220641914787e-07 4.186472656110e-04 0.0 
0.0 0.0 -6.675491739715e-05 
-5.754489831194e-05 1.185749684510e-06 0.0 
1.185749684510e-06 3.514253860379e-04 0.0 
0.0 0.0 -5.707878267586e-05 
-6.126290636031e-05 1.086382821669e-06 0.0 
1.086382821669e-06 3.802508716618e-04 0.0 
0.0 0.0 -6.128043668686e-05 
-5.191997638371e-05 1.314501197429e-06 0.0 
1.314501197429e-06 3.126420855080e-04 0.0 
0.0 0.0 -5.156902369321e-05 
-5.548063518944e-05 1.243851983737e-06 0.0 
1.243851983737e-06 3.415672031581e-04 0.0 
0.0 0.0 -5.575645035334e-05 
-1.344754893882e-04 -2.441387490923e-07 0.0 
-2.441387490923e-07 8.901905827652e-04 0.0 
0.0 0.0 -1.344534760290e-04 
-1.456336275119e-04 -7.568221187932e-07 0.0 
-7.568221187932e-07 9.666800779835e-04 0.0 
0.0 0.0 -1.453735332694e-04 
-1.555049783814e-04 -4.155015620933e-07 0.0 
-4.155015620933e-07 1.035032948266e-03 0.0 
0.0 0.0 -1.551468130506e-04 
-1.509958831296e-04 -4.550450407200e-07 0.0 
-4.550450407200e-07 1.004729653599e-03 0.0 
0.0 0.0 -1.507981208515e-04 
-5.237773532105e-05 7.911299625010e-08 0.0 
7.911299625010e-08 3.162172589784e-04 0.0 
0.0 0.0 -5.213283032136e-05 
-1.549595763032e-04 -3.953475088671e-07 0.0 
-3.953475088671e-07 1.035774981690e-03 0.0 
0.0 0.0 -1.553660438793e-04 
-1.548355158551e-04 -2.147058021658e-07 0.0 
-2.147058021658e-07 1.033072477775e-03 0.0 
0.0 0.0 -1.549384463224e-04 
-1.505618374828e-04 -5.346193515462e-07 0.0 
-5.346193515462e-07 1.002549198399e-03 0.0 
0.0 0.0 -1.505609887339e-04 
-1.581943545466e-04 -1.140192146814e-07 0.0 
-1.140192146814e-07 1.055484497313e-03 0.0 
0.0 0.0 -1.581898251365e-04 
-5.074202381651e-05 -4.469562897144e-07 0.0 
-4.469562897144e-07 3.073591846823e-04 0.0 
0.0 0.0 -5.088881735611e-05 
-5.888894202551e-05 -5.741143861349e-08 0.0 
-5.741143861349e-08 3.614604751917e-04 0.0 
0.0 0.0 -5.849107602244e-05 
-6.412075790079e-05 -1.262278375693e-08 0.0 
-1.262278375693e-08 3.988248925712e-04 0.0 
0.0 0.0 -6.391656864161e-05 
-1.574092422667e-04 -9.339425827557e-07 0.0 
-9.339425827557e-07 1.050297343269e-03 0.0 
0.0 0.0 -1.573311895261e-04 
-1.526877283991e-04 -1.284456620320e-06 0.0 
-1.284456620320e-06 1.019137079127e-03 0.0 
0.0 0.0 -1.529187321887e-04 
-1.603825137223e-04 -5.841749785692e-07 0.0 
-5.841749785692e-07 1.071965760526e-03 0.0 
0.0 0.0 -1.605236522104e-04 
-5.469413786455e-05 -7.281622474744e-07 0.0 
-7.281622474744e-07 3.375315586186e-04 0.0 
0.0 0.0 -5.513621196740e-05 
-1.581536908889e-04 -3.654449846176e-07 0.0 
-3.654449846176e-07 1.054473463793e-03 0.0 
0.0 0.0 -1.579496168166e-04 
-4.796468630861e-05 1.896906112626e-06 0.0 
1.896906112626e-06 2.843046372018e-04 0.0 
0.0 0.0 -4.740762976608e-05 
-1.492957563781e-04 2.220942752480e-07 0.0 
2.220942752480e-07 9.964627124321e-04 0.0 
0.0 0.0 -1.497345920687e-04 
-1.590878470858e-04 -2.496159838046e-07 0.0 
-2.496159838046e-07 1.065574434498e-03 0.0 
0.0 0.0 -1.596751832792e-04 
-1.325072402165e-04 -1.969088110070e-07 0.0 
-1.969088110070e-07 8.772948073459e-04 0.0 
0.0 0.0 -1.325798954328e-04 
-1.608189791387e-04 2.014272611918e-07 0.0 
2.014272611918e-07 1.073406976442e-03 0.0 
0.0 0.0 -1.606363799130e-04 
-1.561309716741e-04 -2.339592577673e-07 0.0 
-2.339592577673e-07 1.041858527671e-03 0.0 
0.0 0.0 -1.562164154417e-04 
-6.542148837339e-05 5.946748364299e-07 0.0 
5.946748364299e-07 4.098578497775e-04 0.0 
0.0 0.0 -6.552037126556e-05 
-6.021736437679e-05 -6.684208511404e-07 0.0 
-6.684208511404e-07 3.714517723808e-04 0.0 
0.0 0.0 -6.000043125475e-05 
-5.068915045621e-05 -1.408380561497e-07 0.0 
-1.408380561497e-07 3.045038040978e-04 0.0 
0.0 0.0 -5.043265711026e-05 
-5.453954142818e-05 2.060651504187e-07 0.0 
2.060651504187e-07 3.366924109337e-04 0.0 
0.0 0.0 -5.469261876575e-05 
-6.451407366441e-05 2.351316534634e-07 0.0 
2.351316534634e-07 4.022325511173e-04 0.0 
0.0 0.0 -6.426716227193e-05 
-5.833627625562e-05 1.475332914289e-06 0.0 
1.475332914289e-06 3.627446873596e-04 0.0 
0.0 0.0 -5.871258337438e-05 
-4.807156131251e-05 2.860984901678e-06 0.0 
2.860984901678e-06 2.943856579529e-04 0.0 
0.0 0.0 -4.913324142619e-05 
-5.254361987426e-05 1.123300701462e-06 0.0 
1.123300701462e-06 3.235079135303e-04 0.0 
0.0 0.0 -5.312780584397e-05 
-6.250659233249e-05 1.032214388617e-06 0.0 
1.032214388617e-06 3.916354902735e-04 0.0 
0.0 0.0 -6.289080004402e-05 
-5.683371271564e-05 6.514617663209e-07 0.0 
6.514617663209e-07 3.524304224725e-04 0.0 
0.0 0.0 -5.728364188530e-05 
-4.626688611708e-05 9.433782266076e-08 0.0 
9.433782266076e-08 2.835389789337e-04 0.0 
0.0 0.0 -4.745589417336e-05 
-5.129426302525e-05 -1.503356296708e-07 0.0 
-1.503356296708e-07 3.125902668457e-04 0.0 
0.0 0.0 -5.163203607156e-05 
-1.648607225605e-04 -6.089305084908e-07 0.0 
-6.089305084908e-07 1.104792906558e-03 0.0 
0.0 0.0 -1.652812738464e-04 
-4.167405797836e-05 8.410179837610e-07 0.0 
8.410179837610e-07 2.451219688669e-04 0.0 
0.0 0.0 -4.186284350154e-05 
-1.249684890118e-04 -2.205649056544e-07 0.0 
-2.205649056544e-07 8.202073805391e-04 0.0 
0.0 0.0 -1.243305906297e-04 
-1.646630308387e-04 -1.022913161009e-08 0.0 
-1.022913161009e-08 1.101899429601e-03 0.0 
0.0 0.0 -1.648518411109e-04 
-1.639675080930e-04 -1.299974009235e-07 0.0 
-1.299974009235e-07 1.093025674446e-03 0.0 
0.0 0.0 -1.635990625314e-04 
-1.626548351363e-04 -9.421237167934e-07 0.0 
-9.421237167934e-07 1.087804894673e-03 0.0 
0.0 0.0 -1.627548864773e-04 
-1.581986558715e-04 -9.653447949462e-07 0.0 
-9.653447949462e-07 1.056782727253e-03 0.0 
0.0 0.0 -1.583405447554e-04 
-1.481377693349e-04 -2.120708352150e-07 0.0 
-2.120708352150e-07 9.876266265678e-04 0.0 
0.0 0.0 -1.484606848305e-04 
-1.540154319252e-04 -3.355995825506e-07 0.0 
-3.355995825506e-07 1.026130043866e-03 0.0 
0.0 0.0 -1.539002516356e-04 
-1.639459642661e-04 -1.118185498440e-06 0.0 
-1.118185498440e-06 1.095163385158e-03 0.0 
0.0 0.0 -1.637913674505e-04 
-1.597127986535e-04 -5.251908400988e-07 0.0 
-5.251908400988e-07 1.064343135399e-03 0.0 
0.0 0.0 -1.593514347843e-04 
-1.498284746973e-04 -2.503307102558e-07 0.0 
-2.503307102558e-07 9.952508194671e-04 0.0 
0.0 0.0 -1.494394109873e-04 
-1.551654717719e-04 -2.221504212274e-07 0.0 
-2.221504212274e-07 1.032948984562e-03 0.0 
0.0 0.0 -1.548970433853e-04 
-1.450485534152e-04 -2.383136960808e-07 0.0 
-2.383136960808e-07 9.636019756158e-04 0.0 
0.0 0.0 -1.449683599891e-04 
-1.505550421048e-04 1.094892235923e-07 0.0 
1.094892235923e-07 1.001407844642e-03 0.0 
0.0 0.0 -1.504333548381e-04 
-1.604309941691e-04 -2.109459501863e-07 0.0 
-2.109459501863e-07 1.070618892500e-03 0.0 
0.0 0.0 -1.603701620288e-04 
-1.560376916017e-04 -3.456752304365e-07 0.0 
-3.456752304365e-07 1.039490983705e-03 0.0 
0.0 0.0 -1.559081117414e-04 
-1.463603444154e-04 5.238436514868e-07 0.0 
5.238436514868e-07 9.703937077682e-04 0.0 
0.0 0.0 -1.459586303199e-04 
-1.516966554836e-04 -5.880015514228e-07 0.0 
-5.880015514228e-07 1.008208762980e-03 0.0 
0.0 0.0 -1.514361790689e-04 
-1.421096498293e-04 1.604631745138e-07 0.0 
1.604631745138e-07 9.389173202103e-04 0.0 
0.0 0.0 -1.414740555389e-04 
-1.468086585315e-04 -1.361458900587e-06 0.0 
-1.361458900587e-06 9.758542090481e-04 0.0 
0.0 0.0 -1.469409179663e-04 
-1.568420766373e-04 -2.584461478695e-07 0.0 
-2.584461478695e-07 1.046197364230e-03 0.0 
0.0 0.0 -1.569152749070e-04 
-4.415663167365e-05 -1.039285152091e-07 0.0 
-1.039285152091e-07 2.708684229223e-04 0.0 
0.0 0.0 -4.553936700826e-05 
-1.526637656570e-04 1.250996266671e-07 0.0 
1.250996266671e-07 1.017041372094e-03 0.0 
0.0 0.0 -1.526598922342e-04 
-1.628543927015e-04 1.351270598111e-06 0.0 
1.351270598111e-06 1.085793726948e-03 0.0 
0.0 0.0 -1.625747755015e-04 
-8.563655870662e-05 -3.488146837263e-06 0.0 
-3.488146837263e-06 5.496252535939e-04 0.0 
0.0 0.0 -8.506982008416e-05 
-9.486581924080e-05 -3.814151178450e-06 0.0 
-3.814151178450e-06 6.119359456549e-04 0.0 
0.0 0.0 -9.488074031859e-05 
-1.005495603609e-04 3.086228134672e-07 0.0 
3.086228134672e-07 6.529918919365e-04 0.0 
0.0 0.0 -1.004348942539e-04 
-1.044776236545e-04 -3.577979789199e-07 0.0 
-3.577979789199e-07 6.841250152862e-04 0.0 
0.0 0.0 -1.048029480622e-04 
-1.519826796643e-04 -1.039717232479e-06 0.0 
-1.039717232479e-06 1.014113556129e-03 0.0 
0.0 0.0 -1.523216651845e-04 
-1.628631714461e-04 6.789175869979e-07 0.0 
6.789175869979e-07 1.084318911977e-03 0.0 
0.0 0.0 -1.624109035739e-04 
-5.449179525623e-05 -7.987416053229e-08 0.0 
-7.987416053229e-08 3.327114773236e-04 0.0 
0.0 0.0 -5.446356520677e-05 
-5.983794664642e-05 5.165551288588e-07 0.0 
5.165551288588e-07 3.698050392348e-04 0.0 
0.0 0.0 -5.981452797925e-05 
-1.671906361362e-04 -6.280906550938e-07 0.0 
-6.280906550938e-07 1.118589944564e-03 0.0 
0.0 0.0 -1.671574094483e-04 
-1.535741135101e-04 4.867165336145e-08 0.0 
4.867165336145e-08 1.026955907390e-03 0.0 
0.0 0.0 -1.540568046000e-04 
-1.438756782793e-04 7.792960236787e-07 0.0 
7.792960236787e-07 9.575022276215e-04 0.0 
0.0 0.0 -1.441490849774e-04 
-1.009130978815e-04 2.058688768753e-07 0.0 
2.058688768753e-07 6.559900048877e-04 0.0 
0.0 0.0 -1.008290295839e-04 
-9.685773395831e-05 4.264808855013e-07 0.0 
4.264808855013e-07 6.270397862493e-04 0.0 
0.0 0.0 -9.674459360631e-05 
-9.135164612507e-05 -1.903780837399e-07 0.0 
-1.903780837399e-07 5.899287429268e-04 0.0 
0.0 0.0 -9.139696625653e-05 
-8.725354889556e-05 6.962837147412e-07 0.0 
6.962837147412e-07 5.598510728809e-04 0.0 
0.0 0.0 -8.718447207042e-05 
-9.300425525152e-05 1.437996831778e-06 0.0 
1.437996831778e-06 5.988622257639e-04 0.0 
0.0 0.0 -9.260497328457e-05 
-8.151290837503e-05 -1.410580149273e-06 0.0 
-1.410580149273e-06 5.218003047074e-04 0.0 
0.0 0.0 -8.172223224803e-05 
-1.406089208823e-04 -2.402054608790e-07 0.0 
-2.402054608790e-07 9.332894798307e-04 0.0 
0.0 0.0 -1.405957691658e-04 
-1.658683700673e-04 -7.646942833602e-07 0.0 
-7.646942833602e-07 1.108741460833e-03 0.0 
0.0 0.0 -1.658562309426e-04 
-5.781518420954e-05 1.266454175936e-06 0.0 
1.266454175936e-06 3.557470476378e-04 0.0 
0.0 0.0 -5.779306812918e-05 
-4.802865254420e-05 7.137000022052e-07 0.0 
7.137000022052e-07 2.866754704248e-04 0.0 
0.0 0.0 -4.790438838533e-05 
-1.638603738935e-04 -1.751728736807e-07 0.0 
-1.751728736807e-07 1.096449059773e-03 0.0 
0.0 0.0 -1.639950272516e-04 
-1.428406885554e-04 -4.063061608443e-08 0.0 
-4.063061608443e-08 9.487085255522e-04 0.0 
0.0 0.0 -1.428423306355e-04 
-1.397754667912e-04 -5.337001690439e-07 0.0 
-5.337001690439e-07 9.273626177410e-04 0.0 
0.0 0.0 -1.397960314865e-04 
-1.438858799674e-04 -3.687014672476e-07 0.0 
-3.687014672476e-07 9.563861152014e-04 0.0 
0.0 0.0 -1.439752108775e-04 
-1.492610894434e-04 -6.859194927330e-07 0.0 
-6.859194927330e-07 9.938921068845e-04 0.0 
0.0 0.0 -1.493569516990e-04 
-1.533583656652e-04 -2.578988813189e-07 0.0 
-2.578988813189e-07 1.023001986965e-03 0.0 
0.0 0.0 -1.535627705943e-04 
-1.589055659580e-04 -8.108043834339e-07 0.0 
-8.108043834339e-07 1.060829964530e-03 0.0 
0.0 0.0 -1.589810023698e-04 
-1.631518145122e-04 -4.384743000289e-07 0.0 
-4.384743000289e-07 1.089769235200e-03 0.0 
0.0 0.0 -1.631781870057e-04 
-1.576954622164e-04 7.757103855081e-08 0.0 
7.757103855081e-08 1.052834468886e-03 0.0 
0.0 0.0 -1.577686755743e-04 
-1.655653749574e-04 1.153777774229e-06 0.0 
1.153777774229e-06 1.110734179248e-03 0.0 
0.0 0.0 -1.661194977352e-04 
-1.676568937117e-04 -5.380450323565e-07 0.0 
-5.380450323565e-07 1.120118409862e-03 0.0 
0.0 0.0 -1.673875415144e-04 
-1.408452494755e-04 1.226026312677e-06 0.0 
1.226026312677e-06 9.416014478326e-04 0.0 
0.0 0.0 -1.423072560050e-04 
-1.411610954119e-04 -1.667686956676e-07 0.0 
-1.667686956676e-07 9.361864568386e-04 0.0 
0.0 0.0 -1.409767306836e-04 
-6.685806001299e-05 8.336719987082e-07 0.0 
8.336719987082e-07 4.210903405702e-04 0.0 
0.0 0.0 -6.711978442003e-05 
-4.180859338127e-05 -2.391316367319e-06 0.0 
-2.391316367319e-06 2.386470707080e-04 0.0 
0.0 0.0 -4.128748474099e-05 
-4.202443748219e-05 2.082260459362e-08 0.0 
2.082260459362e-08 2.421619926750e-04 0.0 
0.0 0.0 -4.155413421678e-05 
-4.885629556399e-05 9.695166710736e-07 0.0 
9.695166710736e-07 2.973049205982e-04 0.0 
0.0 0.0 -4.949622909127e-05 
-5.886475257555e-05 5.012940386976e-07 0.0 
5.012940386976e-07 3.671165151901e-04 0.0 
0.0 0.0 -5.942331684616e-05 
-1.701524326179e-04 -2.478949267953e-07 0.0 
-2.478949267953e-07 1.141091287684e-03 0.0 
0.0 0.0 -1.704540905158e-04 
-1.688701131472e-04 -7.880779693718e-07 0.0 
-7.880779693718e-07 1.128148657559e-03 0.0 
0.0 0.0 -1.686097943865e-04 
-1.645187862567e-04 -7.830603816416e-07 0.0 
-7.830603816416e-07 1.098043410909e-03 0.0 
0.0 0.0 -1.643423135982e-04 
-8.335621055865e-05 3.090761482562e-06 0.0 
3.090761482562e-06 5.330757850641e-04 0.0 
0.0 0.0 -8.309698707208e-05 
-8.907622380058e-05 9.098765487223e-07 0.0 
9.098765487223e-07 5.710176681635e-04 0.0 
0.0 0.0 -8.857956952730e-05 
-1.698091735536e-04 4.492498910092e-07 0.0 
4.492498910092e-07 1.141399927452e-03 0.0 
0.0 0.0 -1.704417977873e-04 
-1.357890576857e-04 -2.245189513229e-07 0.0 
-2.245189513229e-07 9.134142540395e-04 0.0 
0.0 0.0 -1.376677267776e-04 
-1.395432965358e-04 -1.715851711574e-07 0.0 
-1.715851711574e-07 9.262509041073e-04 0.0 
0.0 0.0 -1.395319589165e-04 
-1.347947841220e-04 2.713370184277e-07 0.0 
2.713370184277e-07 8.938256624501e-04 0.0 
0.0 0.0 -1.350285088515e-04 
-3.672231146069e-05 -2.132510581459e-06 0.0 
-2.132510581459e-06 2.203530386721e-04 0.0 
0.0 0.0 -3.892831888128e-05 
-3.637712963261e-05 7.197511136289e-07 0.0 
7.197511136289e-07 2.141167117019e-04 0.0 
0.0 0.0 -3.788396651026e-05 
-1.694800178962e-04 -9.883703524795e-07 0.0 
-9.883703524795e-07 1.133513736801e-03 0.0 
0.0 0.0 -1.692545752333e-04 
-6.937545800042e-05 3.228980611412e-07 0.0 
3.228980611412e-07 4.358386743780e-04 0.0 
0.0 0.0 -6.923809046111e-05 
-6.522800914265e-05 4.802178938973e-07 0.0 
4.802178938973e-07 4.068593445534e-04 0.0 
0.0 0.0 -6.513959669466e-05 
-3.835293382449e-05 1.419780011636e-06 0.0 
1.419780011636e-06 2.169955699432e-04 0.0 
0.0 0.0 -3.762272808090e-05 
-3.184713987987e-05 3.230456577081e-07 0.0 
3.230456577081e-07 1.763378694127e-04 0.0 
0.0 0.0 -3.215802126946e-05 
-1.564097184147e-04 2.852905095697e-06 0.0 
2.852905095697e-06 1.049316422252e-03 0.0 
0.0 0.0 -1.577722324506e-04 
-1.666476506988e-04 2.040589658683e-06 0.0 
2.040589658683e-06 1.120282174027e-03 0.0 
0.0 0.0 -1.676789152757e-04 
-1.096907460405e-04 -3.286013999443e-07 0.0 
-3.286013999443e-07 7.221561234987e-04 0.0 
0.0 0.0 -1.103539394458e-04 
-1.146883842954e-04 -1.653249674978e-06 0.0 
-1.653249674978e-06 7.528293944776e-04 0.0 
0.0 0.0 -1.147244957885e-04 
-1.658368221067e-04 -7.296927506317e-07 0.0 
-7.296927506317e-07 1.111095675298e-03 0.0 
0.0 0.0 -1.661337593878e-04 
-4.600380394054e-05 -1.491158073068e-07 0.0 
-1.491158073068e-07 2.738216254214e-04 0.0 
0.0 0.0 -4.591192000902e-05 
-1.719378156417e-04 1.421041712674e-07 0.0 
1.421041712674e-07 1.154049105325e-03 0.0 
0.0 0.0 -1.723772497485e-04 
-1.472965570201e-04 4.727447796769e-07 0.0 
4.727447796769e-07 9.788476002172e-04 0.0 
0.0 0.0 -1.471186205066e-04 
-1.373907042142e-04 1.793164290012e-07 0.0 
1.793164290012e-07 9.102123959892e-04 0.0 
0.0 0.0 -1.372860605493e-04 
-9.767120859221e-05 2.136804418641e-06 0.0 
2.136804418641e-06 6.441362083975e-04 0.0 
0.0 0.0 -9.906935000530e-05 
-5.062215510686e-05 1.026665089058e-06 0.0 
1.026665089058e-06 3.047645721911e-04 0.0 
0.0 0.0 -5.049648738178e-05 
-4.540502709285e-05 6.832131871420e-07 0.0 
6.832131871420e-07 2.672371430162e-04 0.0 
0.0 0.0 -4.513648964862e-05 
-7.256428344436e-05 1.111321589037e-06 0.0 
1.111321589037e-06 4.598861736081e-04 0.0 
0.0 0.0 -7.268378841861e-05 
-5.559787971176e-05 4.468565818418e-07 0.0 
4.468565818418e-07 3.424877842220e-04 0.0 
0.0 0.0 -5.585123947100e-05 
-5.303663475667e-05 2.464193940360e-07 0.0 
2.464193940360e-07 3.275568518533e-04 0.0 
0.0 0.0 -5.375179489994e-05 
-1.757934592010e-04 1.094510029965e-06 0.0 
1.094510029965e-06 1.179890690537e-03 0.0 
0.0 0.0 -1.760744972657e-04 
-1.733244805152e-04 -1.137885131472e-06 0.0 
-1.137885131472e-06 1.163616194136e-03 0.0 
0.0 0.0 -1.736362873376e-04 
-1.621997224677e-04 -1.527288975187e-06 0.0 
-1.527288975187e-06 1.082969057806e-03 0.0 
0.0 0.0 -1.620259229750e-04 
-1.525464893974e-04 4.621401952156e-09 0.0 
4.621401952156e-09 1.015177504387e-03 0.0 
0.0 0.0 -1.523516756879e-04 
-1.708917266004e-04 -1.191002855825e-06 0.0 
-1.191002855825e-06 1.149869569914e-03 0.0 
0.0 0.0 -1.717432538670e-04 
-3.490930834727e-05 -8.429582514125e-07 0.0 
-8.429582514125e-07 2.054757264963e-04 0.0 
0.0 0.0 -3.598778460012e-05 
-1.750597953055e-04 -3.250942675729e-07 0.0 
-3.250942675729e-07 1.172414927759e-03 0.0 
0.0 0.0 -1.748691643181e-04 
-1.586399412700e-04 -2.193877546445e-07 0.0 
-2.193877546445e-07 1.058088814965e-03 0.0 
0.0 0.0 -1.584205238596e-04 
-1.750232827386e-04 1.287113450679e-06 0.0 
1.287113450679e-06 1.163117526416e-03 0.0 
0.0 0.0 -1.736397701047e-04 
-1.700112759458e-04 -1.265368885600e-07 0.0 
-1.265368885600e-07 1.135355063019e-03 0.0 
0.0 0.0 -1.696829740659e-04 
-7.476684779119e-05 6.450836384553e-07 0.0 
6.450836384553e-07 4.725536723755e-04 0.0 
0.0 0.0 -7.452749745521e-05 
-7.091016921093e-05 -6.094699303136e-07 0.0 
-6.094699303136e-07 4.445526167574e-04 0.0 
0.0 0.0 -7.058709718060e-05 
-6.137074756451e-05 4.293104842188e-07 0.0 
4.293104842188e-07 3.794045980526e-04 0.0 
0.0 0.0 -6.117385547845e-05 
-6.706588179639e-05 1.609427156406e-06 0.0 
1.609427156406e-06 4.182950742711e-04 0.0 
0.0 0.0 -6.657037245228e-05 
-1.266094766854e-04 -6.739720647020e-07 0.0 
-6.739720647020e-07 8.277553541706e-04 0.0 
0.0 0.0 -1.254250592285e-04 
-8.035638793885e-05 -1.393926461579e-07 0.0 
-1.393926461579e-07 5.104400494154e-04 0.0 
0.0 0.0 -8.000873303496e-05 
-1.195834177750e-04 -1.404073059007e-07 0.0 
-1.404073059007e-07 7.834003609027e-04 0.0 
0.0 0.0 -1.190894946197e-04 
-1.155376331103e-04 -2.307315433276e-07 0.0 
-2.307315433276e-07 7.547800193782e-04 0.0 
0.0 0.0 -1.149779503611e-04 
-1.103258532928e-04 1.102189864938e-07 0.0 
1.102189864938e-07 7.186555490901e-04 0.0 
0.0 0.0 -1.097928741388e-04 
-9.842809374509e-05 1.902629040635e-07 0.0 
1.902629040635e-07 6.359410459750e-04 0.0 
0.0 0.0 -9.791810678625e-05 
-9.437419777145e-05 -2.159475299137e-07 0.0 
-2.159475299137e-07 6.080813734442e-04 0.0 
0.0 0.0 -9.392806562918e-05 
-8.322610419495e-05 -1.701840068509e-07 0.0 
-1.701840068509e-07 5.319942046353e-04 0.0 
0.0 0.0 -8.302446698330e-05 
-1.259991147617e-04 -5.365801846220e-07 0.0 
-5.365801846220e-07 8.306372732465e-04 0.0 
0.0 0.0 -1.258546578921e-04 
-1.058761433090e-04 7.571849957902e-08 0.0 
7.571849957902e-08 6.921175985289e-04 0.0 
0.0 0.0 -1.060443156317e-04 
-1.312139144854e-04 -3.837092576883e-07 0.0 
-3.837092576883e-07 8.682026054100e-04 0.0 
0.0 0.0 -1.312656420104e-04 
-1.251895528939e-04 1.195207152196e-07 0.0 
1.195207152196e-07 8.263310173887e-04 0.0 
0.0 0.0 -1.252521985300e-04 
-1.703049238627e-04 -5.676244569172e-07 0.0 
-5.676244569172e-07 1.139278121345e-03 0.0 
0.0 0.0 -1.702664597809e-04 
-1.760146123077e-04 -1.359452968980e-06 0.0 
-1.359452968980e-06 1.178275809354e-03 0.0 
0.0 0.0 -1.757907768048e-04 
-1.365524219146e-04 1.370157856815e-06 0.0 
1.370157856815e-06 9.012669428523e-04 0.0 
0.0 0.0 -1.359860927471e-04 
-1.307920283978e-04 1.357393189447e-07 0.0 
1.357393189447e-07 8.686300506088e-04 0.0 
0.0 0.0 -1.314620690688e-04 
-4.233213601894e-05 -2.593523707964e-07 0.0 
-2.593523707964e-07 2.470565775743e-04 0.0 
0.0 0.0 -4.219739737344e-05 
-3.886008786518e-05 1.163800211807e-06 0.0 
1.163800211807e-06 2.179605684997e-04 0.0 
0.0 0.0 -3.798854165781e-05 
-1.182815464932e-04 7.930796381186e-08 0.0 
7.930796381186e-08 7.785584436133e-04 0.0 
0.0 0.0 -1.184174655913e-04 
-1.693736305393e-04 6.591876404939e-07 0.0 
6.591876404939e-07 1.131789490517e-03 0.0 
0.0 0.0 -1.691294037713e-04 
-1.725748694788e-04 -2.401644388831e-08 0.0 
-2.401644388831e-08 1.155505334098e-03 0.0 
0.0 0.0 -1.725143790870e-04 
-1.770772882819e-04 -4.241524903004e-07 0.0 
-4.241524903004e-07 1.186342832568e-03 0.0 
0.0 0.0 -1.769059244357e-04 
-1.714408370001e-04 -4.978042219238e-07 0.0 
-4.978042219238e-07 1.148550534216e-03 0.0 
0.0 0.0 -1.715053987883e-04 
-1.710166963781e-04 1.347194091456e-07 0.0 
1.347194091456e-07 1.148948053295e-03 0.0 
0.0 0.0 -1.716410088010e-04 
-8.613875064520e-05 1.983705843870e-08 0.0 
1.983705843870e-08 5.527937603815e-04 0.0 
0.0 0.0 -8.600610143220e-05 
-1.288985122743e-04 -4.311114656054e-07 0.0 
-4.311114656054e-07 8.513543686181e-04 0.0 
0.0 0.0 -1.288645011303e-04 
-3.653516155706e-05 -1.602670112053e-06 0.0 
-1.602670112053e-06 2.073406842075e-04 0.0 
0.0 0.0 -3.634822514125e-05 
-1.333225735758e-04 1.155434495761e-07 0.0 
1.155434495761e-07 8.819083259488e-04 0.0 
0.0 0.0 -1.332694147460e-04 
-3.243355553450e-05 -5.508408617257e-07 0.0 
-5.508408617257e-07 1.777229056962e-04 0.0 
0.0 0.0 -3.243805315734e-05 
-1.521318087540e-04 -2.136602868639e-07 0.0 
-2.136602868639e-07 1.009920947414e-03 0.0 
0.0 0.0 -1.515479370354e-04 
-1.681720023865e-04 8.090304823283e-08 0.0 
8.090304823283e-08 1.126882532784e-03 0.0 
0.0 0.0 -1.684223758654e-04 
-1.735596513314e-04 4.917479192737e-09 0.0 
4.917479192737e-09 1.165356413454e-03 0.0 
0.0 0.0 -1.738820625913e-04 
-1.749637471521e-04 2.720388968620e-07 0.0 
2.720388968620e-07 1.178416888185e-03 0.0 
0.0 0.0 -1.757938962529e-04 
-1.125612094541e-04 1.713025509613e-06 0.0 
1.713025509613e-06 7.350876687057e-04 0.0 
0.0 0.0 -1.120642929630e-04 
-1.375852130868e-04 4.206176119325e-07 0.0 
4.206176119325e-07 9.112604874474e-04 0.0 
0.0 0.0 -1.374408399149e-04 
-1.323430315928e-04 2.679124462259e-07 0.0 
2.679124462259e-07 8.742078643875e-04 0.0 
0.0 0.0 -1.321308925596e-04 
-1.061253817389e-04 5.601605163016e-07 0.0 
5.601605163016e-07 6.904423550458e-04 0.0 
0.0 0.0 -1.057303730324e-04 
-1.010535408523e-04 5.872506187826e-07 0.0 
5.872506187826e-07 6.547439695766e-04 0.0 
0.0 0.0 -1.006129583810e-04 
-1.050589004756e-04 5.249789125324e-07 0.0 
5.249789125324e-07 6.823405630018e-04 0.0 
0.0 0.0 -1.045943784994e-04 
-9.594121695788e-05 5.701784484997e-07 0.0 
5.701784484997e-07 6.189426135763e-04 0.0 
0.0 0.0 -9.539409567622e-05 
-7.670722250222e-05 7.477520012380e-07 0.0 
7.477520012380e-07 4.887760317978e-04 0.0 
0.0 0.0 -7.683892420519e-05 
-7.103860008569e-05 4.652611723913e-07 0.0 
4.652611723913e-07 4.497405032502e-04 0.0 
0.0 0.0 -7.125283206988e-05 
-1.794791303054e-04 3.046290545189e-07 0.0 
3.046290545189e-07 1.202568044115e-03 0.0 
0.0 0.0 -1.788063205342e-04 
-1.769207863009e-04 3.279526117005e-06 0.0 
3.279526117005e-06 1.187698538996e-03 0.0 
0.0 0.0 -1.767990258301e-04 
-1.796288049769e-04 -8.041882013151e-07 0.0 
-8.041882013151e-07 1.202665816041e-03 0.0 
0.0 0.0 -1.789543763817e-04 
-1.735511399808e-04 -6.381743090022e-08 0.0 
-6.381743090022e-08 1.174777860682e-03 0.0 
0.0 0.0 -1.752247752347e-04 
-1.776329748734e-04 -4.492702858952e-07 0.0 
-4.492702858952e-07 1.208120942378e-03 0.0 
0.0 0.0 -1.801365737201e-04 
-1.734650378150e-04 -1.715499755082e-07 0.0 
-1.715499755082e-07 1.171053020005e-03 0.0 
0.0 0.0 -1.746253154232e-04 
-6.397194449559e-05 -8.644213742386e-07 0.0 
-8.644213742386e-07 3.958263205946e-04 0.0 
0.0 0.0 -6.341026310084e-05 
-8.522640710731e-05 3.477888862429e-07 0.0 
3.477888862429e-07 5.439871764934e-04 0.0 
0.0 0.0 -8.469390476807e-05 
-1.776955029070e-04 -1.524143709276e-06 0.0 
-1.524143709276e-06 1.201358150170e-03 0.0 
0.0 0.0 -1.791227834549e-04 
-1.112229346520e-04 4.789206220835e-07 0.0 
4.789206220835e-07 7.257595216689e-04 0.0 
0.0 0.0 -1.108630369651e-04 
-1.797556034384e-04 -6.312345564761e-07 0.0 
-6.312345564761e-07 1.200035518570e-03 0.0 
0.0 0.0 -1.789253132142e-04 
-1.736948380453e-04 5.431781983200e-07 0.0 
5.431781983200e-07 1.162780945010e-03 0.0 
0.0 0.0 -1.734070790826e-04 
-2.519516585345e-05 -9.707201663460e-07 0.0 
-9.707201663460e-07 1.373677520700e-04 0.0 
0.0 0.0 -2.664754339747e-05 
-3.015018737399e-05 -3.279297815400e-06 0.0 
-3.279297815400e-06 1.664829630556e-04 0.0 
0.0 0.0 -3.052430242461e-05 
-1.769892636273e-04 2.634610193557e-07 0.0 
2.634610193557e-07 1.192719086742e-03 0.0 
0.0 0.0 -1.776883310004e-04 
-5.758327952376e-05 -3.462473019837e-08 0.0 
-3.462473019837e-08 3.517263668732e-04 0.0 
0.0 0.0 -5.717887963261e-05 
-6.329339839047e-05 1.198404527509e-06 0.0 
1.198404527509e-06 3.880051844578e-04 0.0 
0.0 0.0 -6.238035407746e-05 
-5.212222281800e-05 -2.848057552126e-07 0.0 
-2.848057552126e-07 3.138366464287e-04 0.0 
0.0 0.0 -5.189549137910e-05 
-1.887618442224e-04 7.084845367266e-07 0.0 
7.084845367266e-07 1.267778144178e-03 0.0 
0.0 0.0 -1.887465440047e-04 
-1.122732225603e-04 -4.441296090606e-07 0.0 
-4.441296090606e-07 7.339799403067e-04 0.0 
0.0 0.0 -1.121888505450e-04 
-1.770685012225e-04 3.305358162577e-07 0.0 
3.305358162577e-07 1.195492347302e-03 0.0 
0.0 0.0 -1.784128478473e-04 
-1.037318983505e-04 3.959585097176e-08 0.0 
3.959585097176e-08 6.732989381237e-04 0.0 
0.0 0.0 -1.032702350429e-04 
-1.811215610528e-04 5.481099123405e-07 0.0 
5.481099123405e-07 1.225364590535e-03 0.0 
0.0 0.0 -1.824766045798e-04 
-1.418983722809e-04 3.275014927132e-07 0.0 
3.275014927132e-07 9.414952171589e-04 0.0 
0.0 0.0 -1.417367461992e-04 
-9.531983498029e-05 1.199130758146e-06 0.0 
1.199130758146e-06 6.176848429937e-04 0.0 
0.0 0.0 -9.530949026541e-05 
-1.618025468886e-04 -1.313138482705e-06 0.0 
-1.313138482705e-06 1.080414047570e-03 0.0 
0.0 0.0 -1.617266240239e-04 
-1.712367337160e-04 -2.517022686550e-06 0.0 
-2.517022686550e-06 1.155497819449e-03 0.0 
0.0 0.0 -1.723711093632e-04 
-1.839585546077e-04 1.922702604488e-06 0.0 
1.922702604488e-06 1.233266053318e-03 0.0 
0.0 0.0 -1.832438941626e-04 
-1.282285700338e-04 1.437764343269e-06 0.0 
1.437764343269e-06 8.565496247714e-04 0.0 
0.0 0.0 -1.295806172002e-04 
-1.247283955189e-04 -2.695014414448e-06 0.0 
-2.695014414448e-06 8.206621223611e-04 0.0 
0.0 0.0 -1.249156399969e-04 
-1.336973054243e-04 4.780502432985e-07 0.0 
4.780502432985e-07 8.862457055751e-04 0.0 
0.0 0.0 -1.338771030064e-04 
-4.352546499244e-05 4.436478363747e-07 0.0 
4.436478363747e-07 2.551361667223e-04 0.0 
0.0 0.0 -4.330579966881e-05 
-3.389814883689e-05 -2.442715112612e-07 0.0 
-2.442715112612e-07 1.810863350630e-04 0.0 
0.0 0.0 -3.279405811742e-05 
-1.716063829927e-04 -5.958765859028e-07 0.0 
-5.958765859028e-07 1.146696562296e-03 0.0 
0.0 0.0 -1.713135399111e-04 
-7.523536838437e-05 -6.007458973842e-07 0.0 
-6.007458973842e-07 4.758491836951e-04 0.0 
0.0 0.0 -7.509208182934e-05 
-8.235594042686e-05 2.209891807401e-06 0.0 
2.209891807401e-06 5.147698268391e-04 0.0 
0.0 0.0 -8.038827667338e-05 
-5.001146581911e-05 6.274014862645e-08 0.0 
6.274014862645e-08 3.012652504281e-04 0.0 
0.0 0.0 -4.993066604202e-05 
-5.951991557963e-05 4.745024153846e-07 0.0 
4.745024153846e-07 3.695589487495e-04 0.0 
0.0 0.0 -5.978314405524e-05 
-1.155737714789e-04 -3.760380621998e-07 0.0 
-3.760380621998e-07 7.609985150200e-04 0.0 
0.0 0.0 -1.159213944990e-04 
-1.114463395749e-04 -2.406998584791e-07 0.0 
-2.406998584791e-07 7.310738123434e-04 0.0 
0.0 0.0 -1.116262644424e-04 
-1.561658126362e-04 -5.299206413351e-07 0.0 
-5.299206413351e-07 1.039568765867e-03 0.0 
0.0 0.0 -1.558038104416e-04 
-1.616536575182e-04 8.873878670215e-08 0.0 
8.873878670215e-08 1.076746179334e-03 0.0 
0.0 0.0 -1.611194038498e-04 
-1.452021797269e-04 -7.201116330739e-07 0.0 
-7.201116330739e-07 9.647061708381e-04 0.0 
0.0 0.0 -1.451343074576e-04 
-1.417360905196e-04 8.632870990917e-08 0.0 
8.632870990917e-08 9.403024522762e-04 0.0 
0.0 0.0 -1.415933767274e-04 
-1.319020358547e-04 3.977806768532e-08 0.0 
3.977806768532e-08 8.718254866790e-04 0.0 
0.0 0.0 -1.317570344669e-04 
-1.275952978262e-04 -1.808898908878e-07 0.0 
-1.808898908878e-07 8.422298684311e-04 0.0 
0.0 0.0 -1.275414768178e-04 
-1.808056931016e-04 -1.525758788825e-06 0.0 
-1.525758788825e-06 1.206677931101e-03 0.0 
0.0 0.0 -1.799800510317e-04 
-1.870307763930e-04 -2.673876865902e-07 0.0 
-2.673876865902e-07 1.255623469781e-03 0.0 
0.0 0.0 -1.864092322314e-04 
-8.236599237368e-05 5.694757370752e-07 0.0 
5.694757370752e-07 5.272929756111e-04 0.0 
0.0 0.0 -8.232948673513e-05 
-7.828325005813e-05 7.807941924694e-07 0.0 
7.807941924694e-07 4.983469412597e-04 0.0 
0.0 0.0 -7.818189541436e-05 
-8.066781870606e-05 6.215778532638e-07 0.0 
6.215778532638e-07 5.167877030226e-04 0.0 
0.0 0.0 -8.085192856594e-05 
-1.821793884671e-04 -9.452425038887e-07 0.0 
-9.452425038887e-07 1.232295246858e-03 0.0 
0.0 0.0 -1.834584547941e-04 
-1.830922366977e-04 2.536660346183e-06 0.0 
2.536660346183e-06 1.235147881441e-03 0.0 
0.0 0.0 -1.836006722523e-04 
-1.803954664386e-04 -2.175726806454e-06 0.0 
-2.175726806454e-06 1.202974169961e-03 0.0 
0.0 0.0 -1.793731166858e-04 
-2.884547195492e-05 -1.949294581992e-06 0.0 
-1.949294581992e-06 1.508764218898e-04 0.0 
0.0 0.0 -2.821170413667e-05 
-3.570881000968e-05 -1.070718923965e-06 0.0 
-1.070718923965e-06 1.885432469507e-04 0.0 
0.0 0.0 -3.370638853217e-05 
-4.213783208319e-05 -1.170748262368e-07 0.0 
-1.170748262368e-07 2.402822286115e-04 0.0 
0.0 0.0 -4.126795851095e-05 
-3.586246974089e-05 -2.546283779184e-06 0.0 
-2.546283779184e-06 2.018033726068e-04 0.0 
0.0 0.0 -3.610688574664e-05 
-1.813118037091e-04 3.339770754449e-08 0.0 
3.339770754449e-08 1.214209313964e-03 0.0 
0.0 0.0 -1.810888083315e-04 
-1.759503644858e-04 -2.370337744191e-09 0.0 
-2.370337744191e-09 1.179752016776e-03 0.0 
0.0 0.0 -1.758947287297e-04 
-1.868380600491e-04 -2.026246098823e-08 0.0 
-2.026246098823e-08 1.260450932184e-03 0.0 
0.0 0.0 -1.871207327665e-04 
-5.677368414960e-05 2.032718348151e-06 0.0 
2.032718348151e-06 3.527741904510e-04 0.0 
0.0 0.0 -5.702308739092e-05 
-1.568027754872e-04 9.086678946454e-07 0.0 
9.086678946454e-07 1.045425867798e-03 0.0 
0.0 0.0 -1.567983548164e-04 
-1.807947804281e-04 1.816885949765e-06 0.0 
1.816885949765e-06 1.215031055035e-03 0.0 
0.0 0.0 -1.811848825972e-04 
-1.767874529665e-04 2.635533244675e-06 0.0 
2.635533244675e-06 1.187503191795e-03 0.0 
0.0 0.0 -1.767018567944e-04 
-1.863663002342e-04 1.461510242915e-06 0.0 
1.461510242915e-06 1.257417594462e-03 0.0 
0.0 0.0 -1.866936124609e-04 
-1.705605319310e-04 -3.043131196872e-07 0.0 
-3.043131196872e-07 1.147035567734e-03 0.0 
0.0 0.0 -1.713153186433e-04 
-1.813551999588e-04 -1.051944771726e-06 0.0 
-1.051944771726e-06 1.212243561196e-03 0.0 
0.0 0.0 -1.808143025540e-04 
-1.810144852020e-04 9.510582154737e-07 0.0 
9.510582154737e-07 1.215244823925e-03 0.0 
0.0 0.0 -1.813984546852e-04 
-2.289882463440e-05 -1.917411223350e-06 0.0 
-1.917411223350e-06 1.064438362998e-04 0.0 
0.0 0.0 -2.272772520152e-05 
-1.796453692485e-04 -2.519464026569e-06 0.0 
-2.519464026569e-06 1.205769465943e-03 0.0 
0.0 0.0 -1.799989151485e-04 
-1.255838269039e-04 -2.372108616113e-07 0.0 
-2.372108616113e-07 8.274746007515e-04 0.0 
0.0 0.0 -1.255735778981e-04 
-1.648487917531e-05 -4.731674107763e-06 0.0 
-4.731674107763e-06 7.996115120316e-05 0.0 
0.0 0.0 -1.701907742944e-05 
-1.197277503755e-04 -6.241620168613e-08 0.0 
-6.241620168613e-08 7.962718767862e-04 0.0 
0.0 0.0 -1.210522788133e-04 
-1.264445161814e-04 -2.564056665928e-07 0.0 
-2.564056665928e-07 8.371650247824e-04 0.0 
0.0 0.0 -1.267742309066e-04 
-1.154487627705e-04 -6.658166254296e-07 0.0 
-6.658166254296e-07 7.569378951924e-04 0.0 
0.0 0.0 -1.162214466274e-04 
-4.660515595758e-05 1.493989084367e-06 0.0 
1.493989084367e-06 2.841958466787e-04 0.0 
0.0 0.0 -4.732948783071e-05 
-1.214260254664e-04 -1.596625013767e-06 0.0 
-1.596625013767e-06 8.039136548600e-04 0.0 
0.0 0.0 -1.226115929076e-04 
-1.277494935593e-04 -2.322994823893e-06 0.0 
-2.322994823893e-06 8.489823059285e-04 0.0 
0.0 0.0 -1.283491864751e-04 
-2.181725480317e-05 4.928406156629e-07 0.0 
4.928406156629e-07 1.070930809537e-04 0.0 
0.0 0.0 -2.131994005793e-05 
-1.874449477591e-04 5.176155724588e-07 0.0 
5.176155724588e-07 1.267519228381e-03 0.0 
0.0 0.0 -1.888952332360e-04 
-2.478565018414e-05 -1.930000472000e-06 0.0 
-1.930000472000e-06 1.118328058531e-04 0.0 
0.0 0.0 -2.334665006309e-05 
-2.656716960799e-05 -2.510778064998e-06 0.0 
-2.510778064998e-06 1.411464559949e-04 0.0 
0.0 0.0 -2.709867152969e-05 
-1.817312836183e-04 2.201942420487e-06 0.0 
2.201942420487e-06 1.232410437945e-03 0.0 
0.0 0.0 -1.831822052943e-04 
-1.773206336066e-04 -2.021839507971e-07 0.0 
-2.021839507971e-07 1.191992626232e-03 0.0 
0.0 0.0 -1.776517324320e-04 
-1.872954897737e-04 -1.006614931482e-06 0.0 
-1.006614931482e-06 1.259866749947e-03 0.0 
0.0 0.0 -1.871589901852e-04 
-1.824456739670e-04 2.064220422989e-06 0.0 
2.064220422989e-06 1.218220290450e-03 0.0 
0.0 0.0 -1.816528226986e-04 
-1.719240551568e-04 -7.467342115413e-07 0.0 
-7.467342115413e-07 1.152044759436e-03 0.0 
0.0 0.0 -1.720599434401e-04 
-1.761500249536e-04 9.670950468971e-07 0.0 
9.670950468971e-07 1.183630845697e-03 0.0 
0.0 0.0 -1.764735915037e-04 
-1.203392003903e-04 -2.198342008040e-06 0.0 
-2.198342008040e-06 7.898463321084e-04 0.0 
0.0 0.0 -1.197898394197e-04 
-1.865443414806e-04 2.647479046358e-06 0.0 
2.647479046358e-06 1.260124298644e-03 0.0 
0.0 0.0 -1.873527554397e-04 
-1.803841241731e-04 6.709369355739e-07 0.0 
6.709369355739e-07 1.214344074041e-03 0.0 
0.0 0.0 -1.811164307615e-04 
-1.921061091143e-04 1.480715088923e-06 0.0 
1.480715088923e-06 1.296918019707e-03 0.0 
0.0 0.0 -1.916891122952e-04 
-9.208569695246e-05 6.093443112199e-07 0.0 
6.093443112199e-07 5.924864494399e-04 0.0 
0.0 0.0 -9.162005200151e-05 
-7.283645161877e-05 4.586395072896e-07 0.0 
4.586395072896e-07 4.547389083214e-04 0.0 
0.0 0.0 -7.184037522857e-05 
-6.889002091575e-05 3.964795035726e-07 0.0 
3.964795035726e-07 4.246717698014e-04 0.0 
0.0 0.0 -6.790877045087e-05 
-5.909497143754e-05 6.023844365174e-06 0.0 
6.023844365174e-06 3.592168662585e-04 0.0 
0.0 0.0 -5.813495639200e-05 
-1.853176739262e-04 8.122300759659e-07 0.0 
8.122300759659e-07 1.250781756793e-03 0.0 
0.0 0.0 -1.860270850411e-04 
-1.796312402729e-04 3.276727185624e-06 0.0 
3.276727185624e-06 1.208836358275e-03 0.0 
0.0 0.0 -1.800885023177e-04 
-1.631801230170e-04 1.627520387689e-07 0.0 
1.627520387689e-07 1.090569837524e-03 0.0 
0.0 0.0 -1.631333845344e-04 
-1.534477329204e-04 6.766395027793e-07 0.0 
6.766395027793e-07 1.020410487752e-03 0.0 
0.0 0.0 -1.531108459605e-04 
-1.224599435499e-04 1.078011159301e-06 0.0 
1.078011159301e-06 8.009987656653e-04 0.0 
0.0 0.0 -1.216227322220e-04 
-1.215744765480e-04 -1.237691044798e-06 0.0 
-1.237691044798e-06 7.963280792961e-04 0.0 
0.0 0.0 -1.211602941205e-04 
-1.308077100931e-04 4.769688121849e-06 0.0 
4.769688121849e-06 8.600072513362e-04 0.0 
0.0 0.0 -1.301779020232e-04 
-1.297276618714e-04 -1.066682707188e-06 0.0 
-1.066682707188e-06 8.491749556053e-04 0.0 
0.0 0.0 -1.291373028237e-04 
-1.389532460221e-04 4.549858847667e-06 0.0 
4.549858847667e-06 9.158165643447e-04 0.0 
0.0 0.0 -1.380077606708e-04 
-1.362521981567e-04 -2.124783431130e-06 0.0 
-2.124783431130e-06 9.054980890478e-04 0.0 
0.0 0.0 -1.366342160092e-04 
-1.454793170856e-04 -4.423821596291e-06 0.0 
-4.423821596291e-06 9.700799799999e-04 0.0 
0.0 0.0 -1.459037168719e-04 
-1.870833549466e-04 3.909084775636e-06 0.0 
3.909084775636e-06 1.256272641087e-03 0.0 
0.0 0.0 -1.867631680280e-04 
-4.779563930822e-05 1.388169697748e-06 0.0 
1.388169697748e-06 2.856867328083e-04 0.0 
0.0 0.0 -4.771245731983e-05 
-1.019348355349e-04 5.925610993024e-07 0.0 
5.925610993024e-07 6.625121101145e-04 0.0 
0.0 0.0 -1.017460476387e-04 
-1.826285801103e-04 -1.661566205844e-06 0.0 
-1.661566205844e-06 1.237533025725e-03 0.0 
0.0 0.0 -1.842392070075e-04 
-1.784932399449e-04 -5.084121371409e-07 0.0 
-5.084121371409e-07 1.196504370322e-03 0.0 
0.0 0.0 -1.781095211982e-04 
-9.045878749083e-05 3.060141382143e-07 0.0 
3.060141382143e-07 5.804720461946e-04 0.0 
0.0 0.0 -9.001416730698e-05 
-8.189605333165e-05 1.641333009624e-06 0.0 
1.641333009624e-06 5.186644514913e-04 0.0 
0.0 0.0 -8.102430021026e-05 
-1.866907463054e-04 2.093765460227e-06 0.0 
2.093765460227e-06 1.251863261449e-03 0.0 
0.0 0.0 -1.858191563033e-04 
-8.427129088721e-05 2.509183407976e-07 0.0 
2.509183407976e-07 5.389541208829e-04 0.0 
0.0 0.0 -8.400472401885e-05 
-1.942862609106e-04 -4.604509060763e-07 0.0 
-4.604509060763e-07 1.310239742523e-03 0.0 
0.0 0.0 -1.943189575261e-04 
-7.089778492893e-06 -8.429924576269e-07 0.0 
-8.429924576269e-07 3.992716951653e-05 0.0 
0.0 0.0 -8.535005130452e-06 
-1.936791033226e-05 1.730686598501e-06 0.0 
1.730686598501e-06 1.017559906333e-04 0.0 
0.0 0.0 -2.030164989952e-05 
-8.968053387105e-05 4.268638781565e-07 0.0 
4.268638781565e-07 5.769858883096e-04 0.0 
0.0 0.0 -8.953811051246e-05 
-9.967591826382e-05 1.816339090068e-07 0.0 
1.816339090068e-07 6.455070859268e-04 0.0 
0.0 0.0 -9.930333011984e-05 
-7.698272719919e-05 1.369511196201e-06 0.0 
1.369511196201e-06 4.917432221998e-04 0.0 
0.0 0.0 -7.735978650723e-05 
-7.290112700995e-05 4.485042513466e-07 0.0 
4.485042513466e-07 4.686595431743e-04 0.0 
0.0 0.0 -7.375775675111e-05 
-1.516976068027e-04 9.731432031667e-08 0.0 
9.731432031667e-08 1.010085692234e-03 0.0 
0.0 0.0 -1.515828990902e-04 
-2.955388113014e-05 -3.810006738129e-07 0.0 
-3.810006738129e-07 1.597998460951e-04 0.0 
0.0 0.0 -2.992625374333e-05 
-4.708750000530e-05 -3.380683912339e-07 0.0 
-3.380683912339e-07 2.775741899182e-04 0.0 
0.0 0.0 -4.660401843130e-05 
-1.459872513037e-04 4.283387118632e-06 0.0 
4.283387118632e-06 9.787274438894e-04 0.0 
0.0 0.0 -1.469538452094e-04 
-3.739432352920e-05 8.132963554314e-08 0.0 
8.132963554314e-08 2.132217851977e-04 0.0 
0.0 0.0 -3.731550915806e-05 
-1.581113812495e-04 5.386783396549e-07 0.0 
5.386783396549e-07 1.056624836089e-03 0.0 
0.0 0.0 -1.583700297543e-04 
-8.859117282002e-05 -4.886909086431e-07 0.0 
-4.886909086431e-07 5.694929478328e-04 0.0 
0.0 0.0 -8.837999545446e-05 
-1.077149909289e-04 1.768026495199e-08 0.0 
1.768026495199e-08 7.012731036170e-04 0.0 
0.0 0.0 -1.073025146250e-04 
-5.592229804259e-05 8.436426505879e-07 0.0 
8.436426505879e-07 3.420524339702e-04 0.0 
0.0 0.0 -5.582998379547e-05 
-7.655387121575e-05 -1.360505059231e-06 0.0 
-1.360505059231e-06 4.844624894690e-04 0.0 
0.0 0.0 -7.620154526702e-05 
-1.304375061833e-04 -4.590487413423e-07 0.0 
-4.590487413423e-07 8.567018780296e-04 0.0 
0.0 0.0 -1.295787134191e-04 
-1.227913220526e-04 -1.069536414788e-06 0.0 
-1.069536414788e-06 7.988115105914e-04 0.0 
0.0 0.0 -1.212971597528e-04 
-1.171271358387e-04 6.312522150106e-07 0.0 
6.312522150106e-07 7.632427069466e-04 0.0 
0.0 0.0 -1.160760923294e-04 
-9.288654497448e-05 -4.149904162911e-07 0.0 
-4.149904162911e-07 5.993038953958e-04 0.0 
0.0 0.0 -9.268233649937e-05 
-7.967235479004e-05 1.560635261010e-06 0.0 
1.560635261010e-06 5.060818193185e-04 0.0 
0.0 0.0 -7.932496478153e-05 
-6.976412058096e-05 4.685918450986e-07 0.0 
4.685918450986e-07 4.348311074162e-04 0.0 
0.0 0.0 -6.925859231108e-05 
-1.236762265939e-04 1.286441015267e-07 0.0 
1.286441015267e-07 8.121194052814e-04 0.0 
0.0 0.0 -1.231954486131e-04 
-1.661664385129e-04 7.234197314208e-07 0.0 
7.234197314208e-07 1.111077522090e-03 0.0 
0.0 0.0 -1.661212681597e-04 
-1.708685371099e-04 1.275890329840e-06 0.0 
1.275890329840e-06 1.141280747299e-03 0.0 
0.0 0.0 -1.704512426999e-04 
-1.799814060202e-04 -8.892695818846e-09 0.0 
-8.892695818846e-09 1.206980088396e-03 0.0 
0.0 0.0 -1.798902840516e-04 
-1.752252711223e-04 6.293476179296e-07 0.0 
6.293476179296e-07 1.171825368199e-03 0.0 
0.0 0.0 -1.746897123557e-04 
-1.653204529079e-04 3.682681378694e-07 0.0 
3.682681378694e-07 1.103833188294e-03 0.0 
0.0 0.0 -1.650619928257e-04 
-1.692700239592e-04 -9.309390044843e-07 0.0 
-9.309390044843e-07 1.133313101005e-03 0.0 
0.0 0.0 -1.693613594316e-04 
-1.794459408941e-04 1.605079206946e-06 0.0 
1.605079206946e-06 1.200644277872e-03 0.0 
0.0 0.0 -1.790391580507e-04 
-1.729836631084e-04 -6.502744119756e-09 0.0 
-6.502744119756e-09 1.165149049271e-03 0.0 
0.0 0.0 -1.738884562940e-04 
-1.853394956414e-04 -1.746634483939e-06 0.0 
-1.746634483939e-06 1.245260351070e-03 0.0 
0.0 0.0 -1.851430293189e-04 
-1.779629991439e-04 -2.212681777784e-06 0.0 
-2.212681777784e-06 1.194508684255e-03 0.0 
0.0 0.0 -1.780963771770e-04 
-1.680008323397e-04 4.410252086396e-07 0.0 
4.410252086396e-07 1.124792316923e-03 0.0 
0.0 0.0 -1.681296768602e-04 
-1.732313668130e-04 2.383290929427e-07 0.0 
2.383290929427e-07 1.152919895369e-03 0.0 
0.0 0.0 -1.721639567129e-04 
-1.820197878976e-04 -9.097203098577e-07 0.0 
-9.097203098577e-07 1.219293629434e-03 0.0 
0.0 0.0 -1.811651920545e-04 
-1.627398560099e-04 -3.025378736543e-07 0.0 
-3.025378736543e-07 1.085392768176e-03 0.0 
0.0 0.0 -1.623890973126e-04 
-1.881496038472e-04 -6.722589035004e-07 0.0 
-6.722589035004e-07 1.272625835057e-03 0.0 
0.0 0.0 -1.896816515354e-04 
-9.936624462153e-05 3.711915790744e-07 0.0 
3.711915790744e-07 6.447993785367e-04 0.0 
0.0 0.0 -9.931710713211e-05 
-2.678077344496e-05 1.172604196378e-06 0.0 
1.172604196378e-06 1.469601996083e-04 0.0 
0.0 0.0 -2.776378382453e-05 
-2.718822131563e-05 5.643793796886e-06 0.0 
5.643793796886e-06 1.398182331985e-04 0.0 
0.0 0.0 -2.650814903740e-05 
-1.130938350532e-04 2.933038375313e-07 0.0 
2.933038375313e-07 7.386015135744e-04 0.0 
0.0 0.0 -1.126376112924e-04 
-1.957395771822e-04 4.072718166247e-07 0.0 
4.072718166247e-07 1.314065316165e-03 0.0 
0.0 0.0 -1.949709453146e-04 
-1.956422709446e-04 1.854437157920e-08 0.0 
1.854437157920e-08 1.316914351373e-03 0.0 
0.0 0.0 -1.952630510734e-04 
-7.363791568969e-05 4.448116745507e-08 0.0 
4.448116745507e-08 4.652432970724e-04 0.0 
0.0 0.0 -7.343539360029e-05 
-1.953259047097e-04 -1.682103116943e-07 0.0 
-1.682103116943e-07 1.316528916423e-03 0.0 
0.0 0.0 -1.955120939844e-04 
-1.210496703093e-04 -3.742029869830e-07 0.0 
-3.742029869830e-07 7.914115177246e-04 0.0 
0.0 0.0 -1.201823113336e-04 
-5.355766991560e-05 5.069063859747e-07 0.0 
5.069063859747e-07 3.232453025466e-04 0.0 
0.0 0.0 -5.296028401754e-05 
-1.953834150830e-04 -1.373297745113e-06 0.0 
-1.373297745113e-06 1.316914533701e-03 0.0 
0.0 0.0 -1.956430189105e-04 
-1.606320410693e-04 1.081811570651e-06 0.0 
1.081811570651e-06 1.073242688732e-03 0.0 
0.0 0.0 -1.607160970497e-04 
-1.551352503420e-04 -1.927443336717e-07 0.0 
-1.927443336717e-07 1.034924921134e-03 0.0 
0.0 0.0 -1.552285616758e-04 
-1.505583948677e-04 4.103370421325e-07 0.0 
4.103370421325e-07 1.004971037607e-03 0.0 
0.0 0.0 -1.509086942990e-04 
-1.950225372489e-04 -2.088550178189e-06 0.0 
-2.088550178189e-06 1.319599496419e-03 0.0 
0.0 0.0 -1.958801056209e-04 
-1.389109183028e-04 4.741451933548e-08 0.0 
4.741451933548e-08 9.181432809719e-04 0.0 
0.0 0.0 -1.384942297845e-04 
-1.959295069713e-04 -1.244434436796e-06 0.0 
-1.244434436796e-06 1.320610998766e-03 0.0 
0.0 0.0 -1.959024498733e-04 
-1.357909290755e-04 -7.273641547469e-07 0.0 
-7.273641547469e-07 8.985832613114e-04 0.0 
0.0 0.0 -1.355985557075e-04 
-1.314159132553e-04 -2.260781221254e-07 0.0 
-2.260781221254e-07 8.680741570170e-04 0.0 
0.0 0.0 -1.312144960014e-04 
-1.217410062802e-04 -7.968137970626e-08 0.0 
-7.968137970626e-08 8.004989808175e-04 0.0 
0.0 0.0 -1.215252423283e-04 
-1.635653543320e-04 -8.206507231057e-07 0.0 
-8.206507231057e-07 1.094591173860e-03 0.0 
0.0 0.0 -1.638368049481e-04 
-1.957128907948e-04 7.679802216985e-07 0.0 
7.679802216985e-07 1.315946828038e-03 0.0 
0.0 0.0 -1.954016999139e-04 
-1.877918467821e-04 -4.059023819968e-07 0.0 
-4.059023819968e-07 1.261052432127e-03 0.0 
0.0 0.0 -1.872601071101e-04 
-1.870380449284e-04 -1.951022404988e-06 0.0 
-1.951022404988e-06 1.260361361027e-03 0.0 
0.0 0.0 -1.872639817026e-04 
-1.800805456319e-04 7.540324232615e-08 0.0 
7.540324232615e-08 1.200437685780e-03 0.0 
0.0 0.0 -1.783672283586e-04 
-1.950646193177e-04 -5.546188052750e-08 0.0 
-5.546188052750e-08 1.316661406715e-03 0.0 
0.0 0.0 -1.955098189886e-04 
-1.957560602186e-04 -3.716868616251e-07 0.0 
-3.716868616251e-07 1.318924671883e-03 0.0 
0.0 0.0 -1.959998991124e-04 
-1.963981539868e-04 -5.303133434367e-07 0.0 
-5.303133434367e-07 1.320493656548e-03 0.0 
0.0 0.0 -1.962751064225e-04 
-6.844923036856e-05 1.199739337794e-06 0.0 
1.199739337794e-06 4.307455297825e-04 0.0 
0.0 0.0 -6.847160534926e-05 
-7.419643775584e-05 3.743388539179e-07 0.0 
3.743388539179e-07 4.695492771341e-04 0.0 
0.0 0.0 -7.401623890332e-05 
-8.376895134064e-05 1.300131340796e-07 0.0 
1.300131340796e-07 5.365706547931e-04 0.0 
0.0 0.0 -8.364053759108e-05 
-7.953934562445e-05 -2.075640414835e-08 0.0 
-2.075640414835e-08 5.072934929808e-04 0.0 
0.0 0.0 -7.948224144010e-05 
-6.989506786319e-05 -6.245293844846e-08 0.0 
-6.245293844846e-08 4.396733402016e-04 0.0 
0.0 0.0 -6.978551441703e-05 
-7.524805855893e-05 3.094892115024e-07 0.0 
3.094892115024e-07 4.777101055957e-04 0.0 
0.0 0.0 -7.524542772725e-05 
-8.492603218944e-05 -2.618464199118e-07 0.0 
-2.618464199118e-07 5.448643552104e-04 0.0 
0.0 0.0 -8.485997776147e-05 
-7.105462536305e-05 6.250310806945e-07 0.0 
6.250310806945e-07 4.479089343025e-04 0.0 
0.0 0.0 -7.097692746601e-05 
-1.705288852515e-04 -5.065676993718e-08 0.0 
-5.065676993718e-08 1.143493746239e-03 0.0 
0.0 0.0 -1.707769389999e-04 
-1.957870609060e-04 1.292884007357e-06 0.0 
1.292884007357e-06 1.318859783043e-03 0.0 
0.0 0.0 -1.958668742322e-04 
-1.350455497016e-04 7.864309328463e-09 0.0 
7.864309328463e-09 8.951240562794e-04 0.0 
0.0 0.0 -1.351191360868e-04 
-1.307165790976e-04 -4.322242656575e-09 0.0 
-4.322242656575e-09 8.644169275053e-04 0.0 
0.0 0.0 -1.307040085326e-04 
-1.209043728309e-04 3.853306452192e-07 0.0 
3.853306452192e-07 7.961045906332e-04 0.0 
0.0 0.0 -1.208983099878e-04 
-1.015178106691e-04 -3.679167517203e-07 0.0 
-3.679167517203e-07 6.622225460757e-04 0.0 
0.0 0.0 -1.017282540064e-04 
-1.070947291555e-04 -1.713274614578e-07 0.0 
-1.713274614578e-07 7.010953756025e-04 0.0 
0.0 0.0 -1.073098139330e-04 
-1.170318119329e-04 -2.304405178400e-07 0.0 
-2.304405178400e-07 7.699550145936e-04 0.0 
0.0 0.0 -1.171862911330e-04 
-9.606943952016e-05 -6.918043120030e-07 0.0 
-6.918043120030e-07 6.234320450168e-04 0.0 
0.0 0.0 -9.611914699067e-05 
-1.481119786321e-04 -1.006868581402e-07 0.0 
-1.006868581402e-07 9.856164309774e-04 0.0 
0.0 0.0 -1.481459134429e-04 
-1.955042779643e-04 -1.269047585912e-06 0.0 
-1.269047585912e-06 1.318349589731e-03 0.0 
0.0 0.0 -1.957504584866e-04 
-1.330884753948e-04 -1.768196315291e-07 0.0 
-1.768196315291e-07 8.806785880526e-04 0.0 
0.0 0.0 -1.330749450653e-04 
-1.026965489879e-04 1.178065411022e-07 0.0 
1.178065411022e-07 6.708683582992e-04 0.0 
0.0 0.0 -1.029894966699e-04 
-1.130854337220e-04 -7.438576483953e-07 0.0 
-7.438576483953e-07 7.384022260134e-04 0.0 
0.0 0.0 -1.127517955912e-04 
-1.209813153641e-04 2.130007804037e-06 0.0 
2.130007804037e-06 7.983489600902e-04 0.0 
0.0 0.0 -1.214223410530e-04 
-1.212906592670e-04 -2.948275088070e-06 0.0 
-2.948275088070e-06 8.006247840124e-04 0.0 
0.0 0.0 -1.214609177556e-04 
-1.289650632578e-04 -2.836448343722e-06 0.0 
-2.836448343722e-06 8.628838233816e-04 0.0 
0.0 0.0 -1.309968220184e-04 
-1.213818105996e-04 -4.266965506249e-06 0.0 
-4.266965506249e-06 8.042830918570e-04 0.0 
0.0 0.0 -1.223387611305e-04 
-1.201218344436e-04 -5.940699395266e-07 0.0 
-5.940699395266e-07 7.912234115192e-04 0.0 
0.0 0.0 -1.202289988118e-04 
-1.246396976616e-04 -5.061942420403e-07 0.0 
-5.061942420403e-07 8.213580181559e-04 0.0 
0.0 0.0 -1.245418513326e-04 
-1.191093718333e-04 1.337880474637e-07 0.0 
1.337880474637e-07 7.836030816467e-04 0.0 
0.0 0.0 -1.190678843757e-04 
-1.287401379332e-04 -4.825176742022e-07 0.0 
-4.825176742022e-07 8.510925999983e-04 0.0 
0.0 0.0 -1.288600603647e-04 
-1.226230270594e-04 -1.701149775371e-06 0.0 
-1.701149775371e-06 8.113018730487e-04 0.0 
0.0 0.0 -1.232036783932e-04 
-1.130241629680e-04 -1.858461286811e-06 0.0 
-1.858461286811e-06 7.480336692277e-04 0.0 
0.0 0.0 -1.141311642346e-04 
-1.321533265726e-04 -1.335199541160e-06 0.0 
-1.335199541160e-06 8.794062915419e-04 0.0 
0.0 0.0 -1.329915258165e-04 
-1.262846614202e-04 1.119259017791e-06 0.0 
1.119259017791e-06 8.372331183149e-04 0.0 
0.0 0.0 -1.265608218447e-04 
-1.120104832196e-04 -1.984611779904e-06 0.0 
-1.984611779904e-06 7.374063381166e-04 0.0 
0.0 0.0 -1.126429727744e-04 
-9.422976514582e-06 -1.217518494265e-06 0.0 
-1.217518494265e-06 4.558842274141e-05 0.0 
0.0 0.0 -8.813944590281e-06 
-2.032999859278e-05 1.550107281015e-06 0.0 
1.550107281015e-06 1.008000227599e-04 0.0 
0.0 0.0 -2.005057187811e-05 
-1.923634066646e-05 -1.281983274152e-06 0.0 
-1.281983274152e-06 9.903712088906e-05 0.0 
0.0 0.0 -1.977126557535e-05 
-2.892124709552e-05 -6.331508506686e-07 0.0 
-6.331508506686e-07 1.562935872075e-04 0.0 
0.0 0.0 -2.931975365146e-05 
-3.044620434302e-05 2.916307507694e-06 0.0 
2.916307507694e-06 1.611495346811e-04 0.0 
0.0 0.0 -2.995118946101e-05 
-3.774799277366e-05 3.794557032569e-07 0.0 
3.794557032569e-07 2.202737536706e-04 0.0 
0.0 0.0 -3.879981516104e-05 
-3.645995758034e-05 -3.803053327811e-06 0.0 
-3.803053327811e-06 2.139692199118e-04 0.0 
0.0 0.0 -3.742104924291e-05 
-2.033881415161e-05 -1.700939409159e-06 0.0 
-1.700939409159e-06 1.011583560657e-04 0.0 
0.0 0.0 -1.994621821224e-05 
-8.875489974186e-06 -3.480193746507e-07 0.0 
-3.480193746507e-07 4.471598822964e-05 0.0 
0.0 0.0 -8.692282348679e-06 
-1.963315251852e-05 3.711641581478e-07 0.0 
3.711641581478e-07 9.816218701372e-05 0.0 
0.0 0.0 -1.973534442338e-05 
-8.550733775924e-06 2.514775744061e-07 0.0 
2.514775744061e-07 4.381249491722e-05 0.0 
0.0 0.0 -8.579688284227e-06 
-1.901805583189e-05 4.776440578631e-08 0.0 
4.776440578631e-08 9.639762974465e-05 0.0 
0.0 0.0 -1.949131874972e-05 
-2.991788690013e-05 6.474225871532e-07 0.0 
6.474225871532e-07 1.629475291055e-04 0.0 
0.0 0.0 -3.058298354955e-05 
-4.437694804010e-05 -3.488760205635e-08 0.0 
-3.488760205635e-08 2.590089634221e-04 0.0 
0.0 0.0 -4.387725951834e-05 
-1.952890502554e-04 2.705057302809e-06 0.0 
2.705057302809e-06 1.308737158744e-03 0.0 
0.0 0.0 -1.942312205382e-04 
-9.935449687594e-05 7.019136318893e-07 0.0 
7.019136318893e-07 6.421560261642e-04 0.0 
0.0 0.0 -9.893255040107e-05 
-9.532292627254e-05 2.814699913044e-06 0.0 
2.814699913044e-06 6.114496525194e-04 0.0 
0.0 0.0 -9.397196729617e-05 
-8.400669900114e-05 2.679673941902e-06 0.0 
2.679673941902e-06 5.409587176071e-04 0.0 
0.0 0.0 -8.462574969392e-05 
-9.027594374168e-05 -7.837686841303e-07 0.0 
-7.837686841303e-07 5.798954878733e-04 0.0 
0.0 0.0 -8.961994476413e-05 
-1.045740752791e-04 3.140418326638e-06 0.0 
3.140418326638e-06 6.688688744112e-04 0.0 
0.0 0.0 -1.029858181470e-04 
-7.880649475037e-05 2.069962121031e-06 0.0 
2.069962121031e-06 5.047681260686e-04 0.0 
0.0 0.0 -7.930380845106e-05 
-7.495741100239e-05 3.408625348592e-06 0.0 
3.408625348592e-06 4.823631646977e-04 0.0 
0.0 0.0 -7.557437765277e-05 
-9.687066653002e-06 -3.402698014617e-07 0.0 
-3.402698014617e-07 4.591586104220e-05 0.0 
0.0 0.0 -8.739712030662e-06 
-2.047661094667e-05 -2.267522532193e-06 0.0 
-2.267522532193e-06 1.000681362490e-04 0.0 
0.0 0.0 -2.007353836932e-05 
-1.994917007271e-05 2.592468629793e-06 0.0 
2.592468629793e-06 9.445303527474e-05 0.0 
0.0 0.0 -1.994324578594e-05 
-3.151456459980e-05 1.463566236896e-06 0.0 
1.463566236896e-06 1.596924898443e-04 0.0 
0.0 0.0 -2.965054416063e-05 
-2.861510418730e-05 -1.205587774427e-06 0.0 
-1.205587774427e-06 1.581911772624e-04 0.0 
0.0 0.0 -2.941027143855e-05 
-1.937098915206e-05 8.384890895993e-08 0.0 
8.384890895993e-08 1.007669973979e-04 0.0 
0.0 0.0 -1.994784544742e-05 
-1.998172865117e-05 1.674549256837e-06 0.0 
1.674549256837e-06 1.004783062935e-04 0.0 
0.0 0.0 -1.993089637160e-05 
-9.184527398116e-06 -3.340486906928e-07 0.0 
-3.340486906928e-07 4.449611849599e-05 0.0 
0.0 0.0 -8.679810794752e-06 
-1.977844276233e-05 -5.706350657546e-07 0.0 
-5.706350657546e-07 9.957383946922e-05 0.0 
0.0 0.0 -1.962916685114e-05 
-2.895230255585e-05 1.615024457259e-06 0.0 
1.615024457259e-06 1.596384447765e-04 0.0 
0.0 0.0 -2.991862060476e-05 
-7.803011911719e-06 -7.706301462869e-07 0.0 
-7.706301462869e-07 4.106703932536e-05 0.0 
0.0 0.0 -8.301770963759e-06 
-1.590145051585e-04 -4.281304664763e-06 0.0 
-4.281304664763e-06 1.062076659957e-03 0.0 
0.0 0.0 -1.590640962770e-04 
-1.651868147433e-04 -3.398332014324e-06 0.0 
-3.398332014324e-06 1.099025294548e-03 0.0 
0.0 0.0 -1.645623349770e-04 
-1.955657779701e-04 -5.933825758626e-07 0.0 
-5.933825758626e-07 1.315952615564e-03 0.0 
0.0 0.0 -1.951345524439e-04 
-1.128859712793e-04 -3.830481927276e-06 0.0 
-3.830481927276e-06 7.447363822067e-04 0.0 
0.0 0.0 -1.137601485512e-04 
-8.506649409316e-06 3.037838616352e-07 0.0 
3.037838616352e-07 4.456634567568e-05 0.0 
0.0 0.0 -8.827439468020e-06 
-1.944078863341e-04 -1.551046245181e-07 0.0 
-1.551046245181e-07 1.307325842461e-03 0.0 
0.0 0.0 -1.938161294973e-04 
-1.950362438059e-04 -1.795147355396e-06 0.0 
-1.795147355396e-06 1.317406774879e-03 0.0 
0.0 0.0 -1.954759163179e-04 
-1.946257604888e-04 1.407080277293e-06 0.0 
1.407080277293e-06 1.317652425531e-03 0.0 
0.0 0.0 -1.957234727395e-04 
-1.786106491459e-04 1.328228983500e-06 0.0 
1.328228983500e-06 1.198614709334e-03 0.0 
0.0 0.0 -1.786587739673e-04 
-1.826581066041e-04 5.861318546716e-07 0.0 
5.861318546716e-07 1.232821746468e-03 0.0 
0.0 0.0 -1.836483987139e-04 
-1.952382200043e-04 8.912494885484e-07 0.0 
8.912494885484e-07 1.308332215826e-03 0.0 
0.0 0.0 -1.941854046512e-04 
-6.737308308447e-05 5.138193223355e-07 0.0 
5.138193223355e-07 4.244241960940e-04 0.0 
0.0 0.0 -6.769213596492e-05 
-1.828682302183e-04 1.640560627373e-06 0.0 
1.640560627373e-06 1.239731587643e-03 0.0 
0.0 0.0 -1.838610959833e-04 
-1.772400966804e-04 3.904476817882e-07 0.0 
3.904476817882e-07 1.184738121319e-03 0.0 
0.0 0.0 -1.767943248163e-04 
-4.906868359316e-05 -1.133942934728e-07 0.0 
-1.133942934728e-07 2.953935878240e-04 0.0 
0.0 0.0 -4.902575320116e-05 
-6.530462737817e-05 3.585817021726e-07 0.0 
3.585817021726e-07 4.102635123792e-04 0.0 
0.0 0.0 -6.560435786130e-05 
-1.483067082024e-04 3.970804381230e-07 0.0 
3.970804381230e-07 9.886270184883e-04 0.0 
0.0 0.0 -1.484951207735e-04 
-1.367944353413e-04 -1.825561973167e-07 0.0 
-1.825561973167e-07 9.072242838815e-04 0.0 
0.0 0.0 -1.368596897040e-04 
-1.696034640066e-04 -3.607287686916e-07 0.0 
-3.607287686916e-07 1.134493911371e-03 0.0 
0.0 0.0 -1.695585677381e-04 
-1.398704134916e-04 8.561054054630e-09 0.0 
8.561054054630e-09 9.278981832241e-04 0.0 
0.0 0.0 -1.398333781397e-04 
-1.606909834555e-04 -5.100249501151e-07 0.0 
-5.100249501151e-07 1.075019221100e-03 0.0 
0.0 0.0 -1.609685038039e-04 
-1.869198009603e-04 3.460184187222e-06 0.0 
3.460184187222e-06 1.256233406915e-03 0.0 
0.0 0.0 -1.866194889163e-04 
-4.208478570565e-05 -7.076859870355e-07 0.0 
-7.076859870355e-07 2.599245066963e-04 0.0 
0.0 0.0 -4.408826043591e-05 
-1.404915308446e-04 9.501955183076e-07 0.0 
9.501955183076e-07 9.316401756296e-04 0.0 
0.0 0.0 -1.404724030559e-04 
-1.368005256677e-04 9.839857355172e-07 0.0 
9.839857355172e-07 9.063105631980e-04 0.0 
0.0 0.0 -1.369552780944e-04 
-1.614580578208e-04 -5.040207315794e-07 0.0 
-5.040207315794e-07 1.077622303329e-03 0.0 
0.0 0.0 -1.613909692546e-04 
-7.092154026938e-05 -7.271687064730e-07 0.0 
-7.271687064730e-07 4.457927222897e-04 0.0 
0.0 0.0 -7.064368720930e-05 
-1.092130498400e-04 -2.031197807860e-06 0.0 
-2.031197807860e-06 7.170877506305e-04 0.0 
0.0 0.0 -1.095638575444e-04 
-4.734326755177e-05 -7.634204257468e-07 0.0 
-7.634204257468e-07 2.775049997667e-04 0.0 
0.0 0.0 -4.656497932609e-05 
-1.872735419036e-04 6.485390613282e-07 0.0 
6.485390613282e-07 1.262586229201e-03 0.0 
0.0 0.0 -1.877191857934e-04 
-1.143324629321e-04 4.116664924938e-09 0.0 
4.116664924938e-09 7.469603610316e-04 0.0 
0.0 0.0 -1.138559328007e-04 
-1.153850895440e-04 2.798510741524e-07 0.0 
2.798510741524e-07 7.578160194775e-04 0.0 
0.0 0.0 -1.154143056347e-04 
-9.134271070788e-05 -4.241415328680e-07 0.0 
-4.241415328680e-07 5.928584725244e-04 0.0 
0.0 0.0 -9.180364234441e-05 
-7.295992473616e-05 6.931326544943e-07 0.0 
6.931326544943e-07 4.642607920090e-04 0.0 
0.0 0.0 -7.341543808938e-05 
-6.127928487910e-05 4.097090977135e-07 0.0 
4.097090977135e-07 3.818653258479e-04 0.0 
0.0 0.0 -6.151402614941e-05 
-1.048886373049e-04 7.305772282161e-07 0.0 
7.305772282161e-07 6.839939901015e-04 0.0 
0.0 0.0 -1.048536320953e-04 
-1.083489495467e-04 1.953470287276e-07 0.0 
1.953470287276e-07 7.097911034353e-04 0.0 
0.0 0.0 -1.085629762122e-04 
-1.537049609822e-04 2.480873530320e-07 0.0 
2.480873530320e-07 1.024308554960e-03 0.0 
0.0 0.0 -1.536510162914e-04 
-1.672004607334e-04 -4.138652897847e-07 0.0 
-4.138652897847e-07 1.115841044060e-03 0.0 
0.0 0.0 -1.668829017826e-04 
-1.175626501518e-05 2.653670795412e-06 0.0 
2.653670795412e-06 5.212615490244e-05 0.0 
0.0 0.0 -1.076426758597e-05 
-1.591679461113e-04 4.759781921775e-07 0.0 
4.759781921775e-07 1.063059671778e-03 0.0 
0.0 0.0 -1.592508397865e-04 
-1.282088974266e-04 -3.835691054214e-08 0.0 
-3.835691054214e-08 8.473404205640e-04 0.0 
0.0 0.0 -1.282838013392e-04 
-1.443596124248e-04 4.967652743944e-07 0.0 
4.967652743944e-07 9.572886199512e-04 0.0 
0.0 0.0 -1.439863651620e-04 
-1.598472287202e-04 -8.884907360878e-07 0.0 
-8.884907360878e-07 1.064451867688e-03 0.0 
0.0 0.0 -1.593960054358e-04 
-4.175998057522e-05 -3.447721282185e-07 0.0 
-3.447721282185e-07 2.572900811957e-04 0.0 
0.0 0.0 -4.363646550326e-05 
-1.650522666270e-04 -1.570677394041e-07 0.0 
-1.570677394041e-07 1.102136320565e-03 0.0 
0.0 0.0 -1.648121423230e-04 
-1.826232045261e-04 1.027217602921e-06 0.0 
1.027217602921e-06 1.220901163882e-03 0.0 
0.0 0.0 -1.818680320623e-04 
-1.325762676814e-04 -3.821282481616e-06 0.0 
-3.821282481616e-06 8.784259184788e-04 0.0 
0.0 0.0 -1.331264220316e-04 
-3.693963444370e-05 -7.544466628916e-07 0.0 
-7.544466628916e-07 2.092667936724e-04 0.0 
0.0 0.0 -3.663743814291e-05 
-1.313856992864e-04 7.552411984502e-07 0.0 
7.552411984502e-07 8.610864945210e-04 0.0 
0.0 0.0 -1.303870364997e-04 
-1.805690084043e-04 6.802145348003e-07 0.0 
6.802145348003e-07 1.208990479033e-03 0.0 
0.0 0.0 -1.804058984264e-04 
-1.618620090762e-04 -7.704497118783e-08 0.0 
-7.704497118783e-08 1.080863256528e-03 0.0 
0.0 0.0 -1.617330481104e-04 
-6.471559328570e-05 -1.662931831611e-06 0.0 
-1.662931831611e-06 4.062530166876e-04 0.0 
0.0 0.0 -6.504030707074e-05 
-1.192254745372e-04 -3.743731676596e-07 0.0 
-3.743731676596e-07 7.837384510995e-04 0.0 
0.0 0.0 -1.191527179664e-04 
-1.116344855219e-04 1.062141944627e-07 0.0 
1.062141944627e-07 7.298456137402e-04 0.0 
0.0 0.0 -1.114223846842e-04 
-1.018383685965e-04 -1.359407971871e-06 0.0 
-1.359407971871e-06 6.707473892556e-04 0.0 
0.0 0.0 -1.029886159366e-04 
-1.821879658306e-04 1.203703486797e-06 0.0 
1.203703486797e-06 1.214225172284e-03 0.0 
0.0 0.0 -1.809836386841e-04 
-1.227568816259e-04 -6.254739179720e-08 0.0 
-6.254739179720e-08 8.076906619440e-04 0.0 
0.0 0.0 -1.225941817511e-04 
-1.685234158846e-04 1.004345265447e-06 0.0 
1.004345265447e-06 1.124593655933e-03 0.0 
0.0 0.0 -1.680081379364e-04 
-1.385983115983e-04 -4.518781372796e-07 0.0 
-4.518781372796e-07 9.192006383534e-04 0.0 
0.0 0.0 -1.386121366338e-04 
-6.938466731060e-05 -6.198930646466e-07 0.0 
-6.198930646466e-07 4.371957454374e-04 0.0 
0.0 0.0 -6.944566544735e-05 
-1.681992938910e-04 -9.274416247642e-07 0.0 
-9.274416247642e-07 1.123747739326e-03 0.0 
0.0 0.0 -1.678379068203e-04 
-1.163255558547e-04 -2.444566148570e-07 0.0 
-2.444566148570e-07 7.630787415271e-04 0.0 
0.0 0.0 -1.161597941560e-04 
-1.747594319775e-04 -4.754811496893e-07 0.0 
-4.754811496893e-07 1.171391248362e-03 0.0 
0.0 0.0 -1.746922153459e-04 
-1.547158004377e-04 -7.908026844222e-07 0.0 
-7.908026844222e-07 1.031372856638e-03 0.0 
0.0 0.0 -1.547299964433e-04 
-9.575522477032e-05 -2.469845308840e-07 0.0 
-2.469845308840e-07 6.198169541374e-04 0.0 
0.0 0.0 -9.562808392031e-05 
-1.680741224093e-04 -8.043675432310e-07 0.0 
-8.043675432310e-07 1.125048534485e-03 0.0 
0.0 0.0 -1.681755324449e-04 
-1.167097397872e-04 2.723456768358e-07 0.0 
2.723456768358e-07 7.659716634377e-04 0.0 
0.0 0.0 -1.165963749253e-04 
-1.652487966176e-04 1.494188142172e-07 0.0 
1.494188142172e-07 1.103453328263e-03 0.0 
0.0 0.0 -1.649144376955e-04 
-1.090718422596e-04 2.524371737844e-07 0.0 
2.524371737844e-07 7.103678881211e-04 0.0 
0.0 0.0 -1.086081446058e-04 
-1.357966733163e-04 -3.457047510778e-07 0.0 
-3.457047510778e-07 8.984402994021e-04 0.0 
0.0 0.0 -1.356166455148e-04 
-1.479451278654e-04 -5.197314638619e-07 0.0 
-5.197314638619e-07 9.805721187296e-04 0.0 
0.0 0.0 -1.473637189475e-04 
-1.291946076143e-04 -2.210645520785e-08 0.0 
-2.210645520785e-08 8.530967429073e-04 0.0 
0.0 0.0 -1.291232438263e-04 
-1.429493388473e-04 2.592746297642e-06 0.0 
2.592746297642e-06 9.504562516353e-04 0.0 
0.0 0.0 -1.430149859860e-04 
-1.638426906912e-04 3.884553588315e-07 0.0 
3.884553588315e-07 1.093570341671e-03 0.0 
0.0 0.0 -1.635473777094e-04 
-4.679395941113e-05 8.636054265736e-08 0.0 
8.636054265736e-08 2.742855012463e-04 0.0 
0.0 0.0 -4.607001325828e-05 
-8.578179911004e-05 -6.161056704653e-08 0.0 
-6.161056704653e-08 5.513847511004e-04 0.0 
0.0 0.0 -8.578563835690e-05 
-1.423249179194e-04 -7.804262925553e-07 0.0 
-7.804262925553e-07 9.497515173482e-04 0.0 
0.0 0.0 -1.430477210920e-04 
-1.735818036023e-04 -9.773598649859e-07 0.0 
-9.773598649859e-07 1.155171653987e-03 0.0 
0.0 0.0 -1.725878545680e-04 
-1.836468666056e-04 1.003626260766e-06 0.0 
1.003626260766e-06 1.240389692506e-03 0.0 
0.0 0.0 -1.843994436203e-04 
-1.023143520992e-04 5.423079028454e-07 0.0 
5.423079028454e-07 6.643953733865e-04 0.0 
0.0 0.0 -1.020177412065e-04 
-1.622496068517e-04 -8.321051479419e-07 0.0 
-8.321051479419e-07 1.084090239035e-03 0.0 
0.0 0.0 -1.622365463781e-04 
-1.781376606747e-04 3.555220392373e-07 0.0 
3.555220392373e-07 1.192018732814e-03 0.0 
0.0 0.0 -1.778033526228e-04 
-1.126735395111e-04 5.522608983233e-08 0.0 
5.522608983233e-08 7.397928820176e-04 0.0 
0.0 0.0 -1.128655126259e-04 
-5.035207840853e-05 5.069616719063e-07 0.0 
5.069616719063e-07 3.007678980219e-04 0.0 
0.0 0.0 -4.999657030114e-05 
-3.927566979207e-05 -3.832849885569e-07 0.0 
-3.832849885569e-07 2.313033145196e-04 0.0 
0.0 0.0 -3.982249606560e-05 
-7.656825341724e-05 3.679510810453e-07 0.0 
3.679510810453e-07 4.857975545201e-04 0.0 
0.0 0.0 -7.638798348873e-05 
-1.174853009841e-04 -1.483166653387e-09 0.0 
-1.483166653387e-09 7.706480780895e-04 0.0 
0.0 0.0 -1.172617294919e-04 
-1.226008469953e-04 -1.659916804789e-07 0.0 
-1.659916804789e-07 8.085563299237e-04 0.0 
0.0 0.0 -1.227254861441e-04 
-1.869186648422e-04 1.288893444476e-06 0.0 
1.288893444476e-06 1.255438194585e-03 0.0 
0.0 0.0 -1.863413058393e-04 
-1.661774130078e-04 -5.668139200530e-07 0.0 
-5.668139200530e-07 1.113816736532e-03 0.0 
0.0 0.0 -1.665279681784e-04 
-1.561062454374e-04 -1.032747631753e-06 0.0 
-1.032747631753e-06 1.041295622328e-03 0.0 
0.0 0.0 -1.561285722757e-04 
-2.290814551487e-05 1.131949368258e-06 0.0 
1.131949368258e-06 1.115970032557e-04 0.0 
0.0 0.0 -2.279054486229e-05 
-1.065384879856e-04 1.371781238190e-06 0.0 
1.371781238190e-06 6.979852258937e-04 0.0 
0.0 0.0 -1.068955660026e-04 
-1.703396393732e-04 -6.320212589166e-07 0.0 
-6.320212589166e-07 1.144009893404e-03 0.0 
0.0 0.0 -1.708611002394e-04 
-1.234023393735e-04 -2.265061210126e-07 0.0 
-2.265061210126e-07 8.130545487096e-04 0.0 
0.0 0.0 -1.233545184740e-04 
-1.695777077806e-04 2.106230318132e-07 0.0 
2.106230318132e-07 1.131440026902e-03 0.0 
0.0 0.0 -1.690088035303e-04 
-1.159592254194e-04 -1.383338685156e-07 0.0 
-1.383338685156e-07 7.703209590687e-04 0.0 
0.0 0.0 -1.172687467652e-04 
-1.871117190239e-04 -1.386491014739e-06 0.0 
-1.386491014739e-06 1.261256540934e-03 0.0 
0.0 0.0 -1.874631276173e-04 
-8.657535319631e-05 1.579232664336e-06 0.0 
1.579232664336e-06 5.555478256840e-04 0.0 
0.0 0.0 -8.636364963772e-05 
-1.755150914368e-04 -6.889429931339e-07 0.0 
-6.889429931339e-07 1.176166452702e-03 0.0 
0.0 0.0 -1.753185131199e-04 
-1.573111243631e-04 1.063973160771e-06 0.0 
1.063973160771e-06 1.048972338121e-03 0.0 
0.0 0.0 -1.571178519447e-04 
-7.892866904534e-05 2.863749736168e-07 0.0 
2.863749736168e-07 5.022036140890e-04 0.0 
0.0 0.0 -7.873003997367e-05 
-1.124601082612e-04 5.668543912746e-07 0.0 
5.668543912746e-07 7.365972072198e-04 0.0 
0.0 0.0 -1.124710309571e-04 
-1.868644922347e-04 1.000849535727e-06 0.0 
1.000849535727e-06 1.255765804165e-03 0.0 
0.0 0.0 -1.865710734017e-04 
-1.676555622800e-04 3.291135704865e-07 0.0 
3.291135704865e-07 1.118261925556e-03 0.0 
0.0 0.0 -1.671813732751e-04 
-1.386017071923e-04 -1.797723160641e-07 0.0 
-1.797723160641e-07 9.191547604494e-04 0.0 
0.0 0.0 -1.386052031399e-04 
-1.179182420809e-04 -1.397755678998e-07 0.0 
-1.397755678998e-07 7.747023837777e-04 0.0 
0.0 0.0 -1.178542631832e-04 
-9.266051543288e-05 -1.427667931752e-06 0.0 
-1.427667931752e-06 5.998378060181e-04 0.0 
0.0 0.0 -9.287066260160e-05 
-1.268908472920e-04 -2.992571917759e-07 0.0 
-2.992571917759e-07 8.385766200168e-04 0.0 
0.0 0.0 -1.270155650522e-04 
-1.412610616596e-04 -7.070516204547e-07 0.0 
-7.070516204547e-07 9.356355867827e-04 0.0 
0.0 0.0 -1.409283708239e-04 
-1.952715328492e-04 2.648146111004e-07 0.0 
2.648146111004e-07 1.320373790754e-03 0.0 
0.0 0.0 -1.960333646234e-04 
-1.736029799723e-04 -4.830607358397e-07 0.0 
-4.830607358397e-07 1.152851948528e-03 0.0 
0.0 0.0 -1.722934252721e-04 
-1.452011068003e-04 -1.075773922608e-06 0.0 
-1.075773922608e-06 9.666398033647e-04 0.0 
0.0 0.0 -1.454499006876e-04 
-1.212938627555e-04 -3.882932393123e-07 0.0 
-3.882932393123e-07 7.997072957628e-04 0.0 
0.0 0.0 -1.214615911284e-04 
-1.463822189693e-04 -1.900321700037e-07 0.0 
-1.900321700037e-07 9.728037690076e-04 0.0 
0.0 0.0 -1.462476041952e-04 
-2.746226357204e-05 -9.271388711199e-07 0.0 
-9.271388711199e-07 1.571302735165e-04 0.0 
0.0 0.0 -2.955133849294e-05 
-9.672248826247e-05 7.266615167990e-07 0.0 
7.266615167990e-07 6.276593153662e-04 0.0 
0.0 0.0 -9.671433789260e-05 
-1.257056545510e-04 -4.990050790240e-07 0.0 
-4.990050790240e-07 8.296358928903e-04 0.0 
0.0 0.0 -1.257347134077e-04 
-8.071247393308e-05 8.458441046789e-08 0.0 
8.458441046789e-08 5.152581703620e-04 0.0 
0.0 0.0 -8.061844590833e-05 
-1.221886675709e-04 -7.908405440186e-08 0.0 
-7.908405440186e-08 8.040667053497e-04 0.0 
0.0 0.0 -1.220458434280e-04 
-1.840762203294e-04 1.915177188951e-06 0.0 
1.915177188951e-06 1.245437645367e-03 0.0 
0.0 0.0 -1.851416939921e-04 
-1.301442044184e-04 -3.060279266349e-07 0.0 
-3.060279266349e-07 8.596681305344e-04 0.0 
0.0 0.0 -1.300328051442e-04 
-9.031994090937e-05 -2.080257032607e-07 0.0 
-2.080257032607e-07 5.822092092616e-04 0.0 
0.0 0.0 -9.022896017931e-05 
-1.344673763446e-04 9.830708816546e-08 0.0 
9.830708816546e-08 8.894298640129e-04 0.0 
0.0 0.0 -1.343397272354e-04 
-8.268637292058e-05 -8.113913653825e-07 0.0 
-8.113913653825e-07 5.290888140562e-04 0.0 
0.0 0.0 -8.279832518349e-05 
-1.497839366065e-04 -1.523194842093e-06 0.0 
-1.523194842093e-06 9.970276981604e-04 0.0 
0.0 0.0 -1.497490155909e-04 
-1.382259707113e-04 2.110689173295e-08 0.0 
2.110689173295e-08 9.185304756848e-04 0.0 
0.0 0.0 -1.386530088269e-04 
-1.506650140695e-04 -9.263316559377e-07 0.0 
-9.263316559377e-07 1.001955608578e-03 0.0 
0.0 0.0 -1.504726885606e-04 
-3.022468714226e-05 -2.973636621545e-06 0.0 
-2.973636621545e-06 1.677942898081e-04 0.0 
0.0 0.0 -3.060483068446e-05 
-1.428673620023e-04 -2.398732156922e-07 0.0 
-2.398732156922e-07 9.482366823991e-04 0.0 
0.0 0.0 -1.427619920137e-04 
-1.726984643621e-04 1.345553639607e-06 0.0 
1.345553639607e-06 1.160671593896e-03 0.0 
0.0 0.0 -1.733128613594e-04 
-8.463363897670e-05 6.078796328985e-07 0.0 
6.078796328985e-07 5.444031302841e-04 0.0 
0.0 0.0 -8.481515710027e-05 
-1.264518580475e-04 2.684568646023e-07 0.0 
2.684568646023e-07 8.338232778496e-04 0.0 
0.0 0.0 -1.263048705811e-04 
-1.596353680421e-04 -9.131275579430e-07 0.0 
-9.131275579430e-07 1.065304755547e-03 0.0 
0.0 0.0 -1.595480372087e-04 
-7.302589173434e-05 -3.183424354861e-06 0.0 
-3.183424354861e-06 4.574500906094e-04 0.0 
0.0 0.0 -7.259764510955e-05 
-1.362250571880e-04 3.623633479394e-08 0.0 
3.623633479394e-08 9.021775671400e-04 0.0 
0.0 0.0 -1.361198740657e-04 
-1.602145110429e-04 -8.362565613447e-07 0.0 
-8.362565613447e-07 1.068772108230e-03 0.0 
0.0 0.0 -1.600932078566e-04 
-1.471273090538e-04 7.392924497513e-07 0.0 
7.392924497513e-07 9.780830439502e-04 0.0 
0.0 0.0 -1.470264431059e-04 
-1.270633471131e-04 1.102546760644e-07 0.0 
1.102546760644e-07 8.375443541897e-04 0.0 
0.0 0.0 -1.268359787636e-04 
-1.460791581632e-04 -2.407797944151e-07 0.0 
-2.407797944151e-07 9.714799924540e-04 0.0 
0.0 0.0 -1.460739326938e-04 
-7.660927585480e-05 2.589062603144e-06 0.0 
2.589062603144e-06 4.833163137169e-04 0.0 
0.0 0.0 -7.585562978697e-05 
-6.337475630904e-05 1.248073807384e-06 0.0 
1.248073807384e-06 3.958823544252e-04 0.0 
0.0 0.0 -6.357697056388e-05 
-5.388339958482e-05 2.895282728563e-07 0.0 
2.895282728563e-07 3.277752654746e-04 0.0 
0.0 0.0 -5.379270529687e-05 
-9.451957039609e-05 -2.935916480428e-07 0.0 
-2.935916480428e-07 6.114923592848e-04 0.0 
0.0 0.0 -9.441947030406e-05 
-1.655470867204e-04 -4.270866697215e-07 0.0 
-4.270866697215e-07 1.106817959118e-03 0.0 
0.0 0.0 -1.654622947108e-04 
-3.839223720892e-05 -3.449317819975e-06 0.0 
-3.449317819975e-06 2.174158836143e-04 0.0 
0.0 0.0 -3.781821007497e-05 
-1.582398840472e-04 -1.211336256148e-06 0.0 
-1.211336256148e-06 1.056196191213e-03 0.0 
0.0 0.0 -1.582347619750e-04 
-3.976493932031e-05 -1.461285902805e-06 0.0 
-1.461285902805e-06 2.310785421131e-04 0.0 
0.0 0.0 -3.990281506442e-05 
-8.912786947884e-05 -2.218013861212e-07 0.0 
-2.218013861212e-07 5.740010873261e-04 0.0 
0.0 0.0 -8.903564786089e-05 
-1.609314023663e-04 8.015374636599e-07 0.0 
8.015374636599e-07 1.078902557479e-03 0.0 
0.0 0.0 -1.615622346724e-04 
-1.398208268631e-04 -7.214897453684e-06 0.0 
-7.214897453684e-06 9.283629550766e-04 0.0 
0.0 0.0 -1.397314702741e-04 
-9.326712864409e-05 1.081123901449e-07 0.0 
1.081123901449e-07 6.029249672552e-04 0.0 
0.0 0.0 -9.316659828873e-05 
-5.971178892461e-05 1.368640181835e-06 0.0 
1.368640181835e-06 3.694230737418e-04 0.0 
0.0 0.0 -5.984927026599e-05 
-8.786689087998e-05 2.978470750166e-07 0.0 
2.978470750166e-07 5.651036338672e-04 0.0 
0.0 0.0 -8.775496813769e-05 
-1.366866866355e-04 2.012050051264e-07 0.0 
2.012050051264e-07 9.045962273325e-04 0.0 
0.0 0.0 -1.364843956035e-04 
-9.193121234076e-05 4.013204139827e-07 0.0 
4.013204139827e-07 5.938843893935e-04 0.0 
0.0 0.0 -9.187235440198e-05 
-8.634860532519e-05 5.489409565849e-07 0.0 
5.489409565849e-07 5.556459598693e-04 0.0 
0.0 0.0 -8.641257901652e-05 
-1.873076348652e-04 -8.303719696611e-07 0.0 
-8.303719696611e-07 1.255027706073e-03 0.0 
0.0 0.0 -1.864462757575e-04 
-9.029085277060e-05 7.778954920217e-07 0.0 
7.778954920217e-07 5.838501403615e-04 0.0 
0.0 0.0 -9.045572518728e-05 
-1.942906890229e-04 -1.961786413827e-06 0.0 
-1.961786413827e-06 1.320208759113e-03 0.0 
0.0 0.0 -1.958055517464e-04 
-1.946815352992e-04 -9.026625198254e-07 0.0 
-9.026625198254e-07 1.313526635210e-03 0.0 
0.0 0.0 -1.947608156509e-04 
-1.203676963192e-04 -5.252269783046e-06 0.0 
-5.252269783046e-06 7.911029022502e-04 0.0 
0.0 0.0 -1.199678325534e-04 
-6.382312409295e-05 3.317997073278e-06 0.0 
3.317997073278e-06 3.867196355365e-04 0.0 
0.0 0.0 -6.182128488093e-05 
-9.762668327602e-06 5.060945032083e-07 0.0 
5.060945032083e-07 4.694411596940e-05 0.0 
0.0 0.0 -1.015196033753e-05 
-6.438901127768e-05 -2.610876075629e-06 0.0 
-2.610876075629e-06 4.083460003589e-04 0.0 
0.0 0.0 -6.553865090092e-05 
-7.498804079240e-05 7.264952039937e-07 0.0 
7.264952039937e-07 4.774096760748e-04 0.0 
0.0 0.0 -7.520405771235e-05 
-1.574390158364e-04 7.322658693661e-08 0.0 
7.322658693661e-08 1.047023690082e-03 0.0 
0.0 0.0 -1.568628108499e-04 
-1.202462798349e-04 1.277535447616e-06 0.0 
1.277535447616e-06 7.923369076637e-04 0.0 
0.0 0.0 -1.204472570985e-04 
-6.913329999888e-05 1.518567138290e-06 0.0 
1.518567138290e-06 4.374135939075e-04 0.0 
0.0 0.0 -6.946069291118e-05 
-1.870210423738e-04 1.710341786506e-07 0.0 
1.710341786506e-07 1.262084104717e-03 0.0 
0.0 0.0 -1.875139937252e-04 
-1.961583819331e-04 -2.514147813671e-06 0.0 
-2.514147813671e-06 1.318669280984e-03 0.0 
0.0 0.0 -1.960106588935e-04 
-1.542863799404e-04 -1.786859133762e-06 0.0 
-1.786859133762e-06 1.026998591695e-03 0.0 
0.0 0.0 -1.543154520944e-04 
-1.744631732482e-04 2.018301688582e-06 0.0 
2.018301688582e-06 1.157934353510e-03 0.0 
0.0 0.0 -1.729253385307e-04 
-1.515018167516e-04 8.404198603288e-07 0.0 
8.404198603288e-07 1.010295705910e-03 0.0 
0.0 0.0 -1.515893794002e-04 
-1.789376768634e-04 -2.919640014592e-06 0.0 
-2.919640014592e-06 1.191538801034e-03 0.0 
0.0 0.0 -1.778575971036e-04 
-1.110411603683e-04 -8.342356804498e-06 0.0 
-8.342356804498e-06 7.312796766666e-04 0.0 
0.0 0.0 -1.117662927266e-04 
-1.911119346146e-05 1.280039211140e-07 0.0 
1.280039211140e-07 9.580427244612e-05 0.0 
0.0 0.0 -1.958655518621e-05 
-1.481869069540e-04 1.615226342953e-06 0.0 
1.615226342953e-06 9.850665679094e-04 0.0 
0.0 0.0 -1.481937727541e-04 
-5.301773043500e-05 1.085407750924e-06 0.0 
1.085407750924e-06 3.130804062890e-04 0.0 
0.0 0.0 -5.155996613848e-05 
-5.287064574584e-05 8.669478230736e-08 0.0 
8.669478230736e-08 3.211142711540e-04 0.0 
0.0 0.0 -5.286758958265e-05 
-4.293484566845e-05 -2.294669534036e-07 0.0 
-2.294669534036e-07 2.490277005517e-04 0.0 
0.0 0.0 -4.248609661651e-05 
-7.457102542764e-05 4.540838739860e-07 0.0 
4.540838739860e-07 4.629980056454e-04 0.0 
0.0 0.0 -7.285240290645e-05 
-2.774703220549e-05 1.104401006757e-06 0.0 
1.104401006757e-06 1.537348123985e-04 0.0 
0.0 0.0 -2.914266538000e-05 
-4.307384339748e-05 1.329013767483e-06 0.0 
1.329013767483e-06 2.553580944067e-04 0.0 
0.0 0.0 -4.333354231935e-05 
-1.879084470079e-04 -2.749275055618e-06 0.0 
-2.749275055618e-06 1.255451133352e-03 0.0 
0.0 0.0 -1.867668077911e-04 
-1.189011343897e-04 -7.099494553202e-06 0.0 
-7.099494553202e-06 7.923665314969e-04 0.0 
0.0 0.0 -1.207517460948e-04 
-1.659393230097e-04 -1.374219794473e-06 0.0 
-1.374219794473e-06 1.113429222670e-03 0.0 
0.0 0.0 -1.665613853390e-04 
-3.293815057038e-05 1.035559240217e-06 0.0 
1.035559240217e-06 1.835663013155e-04 0.0 
0.0 0.0 -3.316239960270e-05 
-1.877702954761e-04 -2.194005982338e-06 0.0 
-2.194005982338e-06 1.259619262861e-03 0.0 
0.0 0.0 -1.871049233185e-04 
-1.875538609812e-04 9.967607666470e-07 0.0 
9.967607666470e-07 1.259292980625e-03 0.0 
0.0 0.0 -1.869913167940e-04 
-1.965092283334e-04 -2.596350880128e-06 0.0 
-2.596350880128e-06 1.320494070457e-03 0.0 
0.0 0.0 -1.959374034051e-04 
-1.758179036347e-04 -4.481197506715e-07 0.0 
-4.481197506715e-07 1.181701348802e-03 0.0 
0.0 0.0 -1.764557581508e-04 
-3.270582193410e-05 -4.386817373037e-07 0.0 
-4.386817373037e-07 1.770411407639e-04 0.0 
0.0 0.0 -3.195907242369e-05 
-1.266388969174e-04 -6.538610975457e-06 0.0 
-6.538610975457e-06 8.502071903162e-04 0.0 
0.0 0.0 -1.290525119649e-04 
-1.885161697494e-04 -1.408082556477e-06 0.0 
-1.408082556477e-06 1.262346972473e-03 0.0 
0.0 0.0 -1.876241058639e-04 
-1.609443742117e-04 -4.613026983514e-07 0.0 
-4.613026983514e-07 1.083073354588e-03 0.0 
0.0 0.0 -1.620379724609e-04 
-1.949934473796e-04 8.861010983955e-06 0.0 
8.861010983955e-06 1.323301005755e-03 0.0 
0.0 0.0 -1.964977576321e-04 
-1.170915995552e-04 -2.526672373362e-07 0.0 
-2.526672373362e-07 7.818822557443e-04 0.0 
0.0 0.0 -1.196852915840e-04 
-1.881251343584e-04 1.719532540905e-06 0.0 
1.719532540905e-06 1.262091246564e-03 0.0 
0.0 0.0 -1.879162412457e-04 
-4.159837246659e-05 -1.872810599717e-06 0.0 
-1.872810599717e-06 2.367903641582e-04 0.0 
0.0 0.0 -4.105708941867e-05 
-1.880384365163e-04 2.724632523543e-06 0.0 
2.724632523543e-06 1.261692801511e-03 0.0 
0.0 0.0 -1.881249298770e-04 
-1.672657211226e-04 -3.803404194110e-07 0.0 
-3.803404194110e-07 1.114623838802e-03 0.0 
0.0 0.0 -1.665474363985e-04 
-1.318213223878e-04 4.430076983304e-06 0.0 
4.430076983304e-06 8.772776289306e-04 0.0 
0.0 0.0 -1.326022361065e-04 
-1.268048282990e-04 1.914164460218e-06 0.0 
1.914164460218e-06 8.466567585872e-04 0.0 
0.0 0.0 -1.285548941949e-04 
-1.877454760479e-04 1.284504322459e-06 0.0 
1.284504322459e-06 1.264298494462e-03 0.0 
0.0 0.0 -1.884505761775e-04 
-1.888991999446e-04 -3.702937246346e-06 0.0 
-3.702937246346e-06 1.261816131107e-03 0.0 
0.0 0.0 -1.874258164109e-04 
-2.628632611275e-05 2.399677637307e-06 0.0 
2.399677637307e-06 1.387230862011e-04 0.0 
0.0 0.0 -2.654059898772e-05 
-1.521013519928e-04 5.577678305588e-06 0.0 
5.577678305588e-06 1.024057332589e-03 0.0 
0.0 0.0 -1.536536413446e-04 
-9.055668035440e-05 -2.892025472723e-06 0.0 
-2.892025472723e-06 5.805249846311e-04 0.0 
0.0 0.0 -8.976434653209e-05 
-1.704710855302e-05 -3.458702652501e-06 0.0 
-3.458702652501e-06 8.989110359220e-05 0.0 
0.0 0.0 -1.808546165336e-05 
-1.884986873262e-04 5.724623714394e-06 0.0 
5.724623714394e-06 1.260552726885e-03 0.0 
0.0 0.0 -1.874281668734e-04 
-1.771946189262e-04 -2.402253146539e-07 0.0 
-2.402253146539e-07 1.178369612400e-03 0.0 
0.0 0.0 -1.758283601128e-04 
-1.891214672248e-04 5.594443250151e-06 0.0 
5.594443250151e-06 1.262060829366e-03 0.0 
0.0 0.0 -1.877794506222e-04 
-3.041019390796e-05 4.063728315188e-06 0.0 
4.063728315188e-06 1.568790135595e-04 0.0 
0.0 0.0 -2.929729011833e-05 
-1.923826485663e-05 2.395451325704e-06 0.0 
2.395451325704e-06 8.936390066832e-05 0.0 
0.0 0.0 -1.909551055642e-05 
-1.897110782286e-04 1.614204189851e-06 0.0 
1.614204189851e-06 1.273238434675e-03 0.0 
0.0 0.0 -1.887784298001e-04 
-1.886445185701e-04 1.051783953080e-06 0.0 
1.051783953080e-06 1.269174095551e-03 0.0 
0.0 0.0 -1.885660222491e-04 
-4.447382147791e-05 2.187152848341e-06 0.0 
2.187152848341e-06 2.726065505036e-04 0.0 
0.0 0.0 -4.552470986649e-05 
-1.972951013402e-04 -6.924320481766e-07 0.0 
-6.924320481766e-07 1.331208438024e-03 0.0 
0.0 0.0 -1.972065251748e-04 
-1.846003121508e-05 -1.622840747709e-06 0.0 
-1.622840747709e-06 8.564597044111e-05 0.0 
0.0 0.0 -1.843810201100e-05 
-1.091119861245e-04 9.275684085525e-07 0.0 
9.275684085525e-07 7.216506540820e-04 0.0 
0.0 0.0 -1.108446562541e-04 
-1.806806328908e-05 -2.788761483685e-06 0.0 
-2.788761483685e-06 9.325750213385e-05 0.0 
0.0 0.0 -1.871126948293e-05 
-1.949690694268e-04 -7.776605200528e-06 0.0 
-7.776605200528e-06 1.321740719942e-03 0.0 
0.0 0.0 -1.962797183211e-04 
-1.894401262255e-04 3.666748622647e-06 0.0 
3.666748622647e-06 1.266754761130e-03 0.0 
0.0 0.0 -1.882268625302e-04 
-9.871077405525e-05 5.581959752057e-06 0.0 
5.581959752057e-06 6.396670141167e-04 0.0 
0.0 0.0 -9.846769932235e-05 
-1.118450688366e-04 4.156485273902e-06 0.0 
4.156485273902e-06 7.411970212637e-04 0.0 
0.0 0.0 -1.131213240816e-04 
-6.675482278899e-05 2.746646028006e-06 0.0 
2.746646028006e-06 4.187062855815e-04 0.0 
0.0 0.0 -6.639636993191e-05 
-1.817394697373e-04 5.968977030046e-06 0.0 
5.968977030046e-06 1.213512747672e-03 0.0 
0.0 0.0 -1.805248368263e-04 
-2.549001927232e-05 1.681293934372e-06 0.0 
1.681293934372e-06 1.416935565870e-04 0.0 
0.0 0.0 -2.765034433090e-05 
-1.904991185222e-04 -2.176372463226e-06 0.0 
-2.176372463226e-06 1.275606109758e-03 0.0 
0.0 0.0 -1.890445337758e-04 
-1.902901370943e-04 -9.239913511013e-07 0.0 
-9.239913511013e-07 1.276413630327e-03 0.0 
0.0 0.0 -1.892125449932e-04 
-1.899738152617e-04 1.392000637092e-06 0.0 
1.392000637092e-06 1.275351249225e-03 0.0 
0.0 0.0 -1.890927655262e-04 
-1.980969591010e-04 1.747220192361e-07 0.0 
1.747220192361e-07 1.334413570643e-03 0.0 
0.0 0.0 -1.976588442224e-04 
-1.595876566451e-05 5.109996014523e-06 0.0 
5.109996014523e-06 8.560533841461e-05 0.0 
0.0 0.0 -1.829422046362e-05 
-1.907894524984e-04 -1.453289198629e-06 0.0 
-1.453289198629e-06 1.278087489939e-03 0.0 
0.0 0.0 -1.894635324722e-04 
-1.817965180967e-04 4.689820275562e-06 0.0 
4.689820275562e-06 1.212613848096e-03 0.0 
0.0 0.0 -1.803359864353e-04 
-1.117957005377e-04 6.977421344692e-06 0.0 
6.977421344692e-06 7.320600126907e-04 0.0 
0.0 0.0 -1.115961672155e-04 
-1.879277561833e-04 6.009601527580e-06 0.0 
6.009601527580e-06 1.263394424764e-03 0.0 
0.0 0.0 -1.878861552790e-04 
-8.116031042482e-05 4.154281404345e-06 0.0 
4.154281404345e-06 5.182033185543e-04 0.0 
0.0 0.0 -8.075837133452e-05 
-3.557600018319e-05 -6.705160068937e-06 0.0 
-6.705160068937e-06 2.127372360934e-04 0.0 
0.0 0.0 -3.738032741976e-05 
-1.948498336035e-04 -4.155697267809e-06 0.0 
-4.155697267809e-06 1.324960786423e-03 0.0 
0.0 0.0 -1.970235340649e-04 
-6.441570103541e-06 -6.279015523928e-07 0.0 
-6.279015523928e-07 3.480654244499e-05 0.0 
0.0 0.0 -7.946641316233e-06 
-1.120604214633e-04 -3.288397658700e-06 0.0 
-3.288397658700e-06 7.283085618337e-04 0.0 
0.0 0.0 -1.110361655408e-04 
-1.968531726492e-04 6.196640298584e-06 0.0 
6.196640298584e-06 1.326994606246e-03 0.0 
0.0 0.0 -1.970239266115e-04 
-3.317100676700e-05 -5.514460053326e-07 0.0 
-5.514460053326e-07 2.002819803963e-04 0.0 
0.0 0.0 -3.602866455310e-05 
-1.267924167818e-04 -3.909643930437e-06 0.0 
-3.909643930437e-06 8.405854862832e-04 0.0 
0.0 0.0 -1.273445728183e-04 
-1.883260687280e-04 -1.377902224743e-06 0.0 
-1.377902224743e-06 1.272138406880e-03 0.0 
0.0 0.0 -1.890317804362e-04 
-1.203896409836e-04 1.438809671102e-06 0.0 
1.438809671102e-06 7.891647527459e-04 0.0 
0.0 0.0 -1.197994443266e-04 
-1.726861375007e-04 -9.127303948545e-06 0.0 
-9.127303948545e-06 1.150354645725e-03 0.0 
0.0 0.0 -1.722668051730e-04 
-3.289244603068e-05 1.865001967380e-06 0.0 
1.865001967380e-06 1.965766441920e-04 0.0 
0.0 0.0 -3.568834104832e-05 
-5.881706171023e-06 -3.561904745218e-07 0.0 
-3.561904745218e-07 3.491879089690e-05 0.0 
0.0 0.0 -7.282502801701e-06 
-1.446887067247e-04 -6.124654101547e-06 0.0 
-6.124654101547e-06 9.637426034631e-04 0.0 
0.0 0.0 -1.450319398739e-04 
-1.900119233844e-04 5.405432627128e-06 0.0 
5.405432627128e-06 1.271140965081e-03 0.0 
0.0 0.0 -1.888071511890e-04 
-1.907231428786e-04 -2.479170288195e-06 0.0 
-2.479170288195e-06 1.279898250331e-03 0.0 
0.0 0.0 -1.895996551150e-04 
-1.374681624272e-04 5.948461411176e-06 0.0 
5.948461411176e-06 9.167037354941e-04 0.0 
0.0 0.0 -1.379940178424e-04 
-3.140963832924e-05 -6.998474457374e-06 0.0 
-6.998474457374e-06 1.796728179544e-04 0.0 
0.0 0.0 -3.246938559274e-05 
-1.841130626501e-04 1.475194732939e-06 0.0 
1.475194732939e-06 1.232968589940e-03 0.0 
0.0 0.0 -1.831558075192e-04 
-1.038243241623e-04 -4.078507790945e-07 0.0 
-4.078507790945e-07 6.921885952500e-04 0.0 
0.0 0.0 -1.059090906887e-04 
-1.833573372240e-04 -2.325322525301e-06 0.0 
-2.325322525301e-06 1.222189390314e-03 0.0 
0.0 0.0 -1.813408670945e-04 
-1.831720387608e-04 -1.195237391827e-06 0.0 
-1.195237391827e-06 1.215102366402e-03 0.0 
0.0 0.0 -1.805709848148e-04 
-8.505788794989e-06 -2.657547953589e-06 0.0 
-2.657547953589e-06 3.877580200424e-05 0.0 
0.0 0.0 -9.674067485877e-06 
-1.292364309074e-04 2.864479089253e-06 0.0 
2.864479089253e-06 8.498544276161e-04 0.0 
0.0 0.0 -1.284404431535e-04 
-1.837715794025e-05 -4.476436000323e-06 0.0 
-4.476436000323e-06 8.791465953263e-05 0.0 
0.0 0.0 -1.834574975625e-05 
-1.906256035079e-04 -2.900280215013e-06 0.0 
-2.900280215013e-06 1.276520367600e-03 0.0 
0.0 0.0 -1.895571240875e-04 
-1.101124519025e-04 -2.003731999075e-06 0.0 
-2.003731999075e-06 7.232878293546e-04 0.0 
0.0 0.0 -1.101665449339e-04 
-6.265158996412e-05 -5.475928741402e-06 0.0 
-5.475928741402e-06 4.290425473903e-04 0.0 
0.0 0.0 -6.790306122449e-05 
-6.948065415978e-05 -5.864688945389e-07 0.0 
-5.864688945389e-07 4.403815007264e-04 0.0 
0.0 0.0 -6.900000000000e-05 
-7.287737908661e-05 -5.356659590835e-06 0.0 
-5.356659590835e-06 4.997222128530e-04 0.0 
0.0 0.0 -7.788265306121e-05 
-7.961974967197e-05 -6.571269526958e-07 0.0 
-6.571269526958e-07 4.982209090245e-04 0.0 
0.0 0.0 -7.900000000000e-05 
-8.324861204494e-05 -5.744890109580e-06 0.0 
-5.744890109580e-06 5.692366340431e-04 0.0 
0.0 0.0 -8.790306122449e-05 
-8.930212876051e-05 1.144359831531e-06 0.0 
1.144359831531e-06 5.794802677978e-04 0.0 
0.0 0.0 -8.900000000000e-05 
-9.352423002678e-05 -5.224443985984e-06 0.0 
-5.224443985984e-06 6.401887908398e-04 0.0 
0.0 0.0 -9.787877878422e-05 
-1.009998970260e-04 5.583373135514e-06 0.0 
5.583373135514e-06 6.372022866514e-04 0.0 
0.0 0.0 -9.900000000000e-05 

SCALARS node_materi_plasti_kappa_shear float
LOOKUP_TABLE default
1.731369050501e-05
4.545550431279e-04
8.879540853347e-04
8.885778472785e-04
4.289921439406e-05
9.327668990988e-05
1.307750198866e-04
1.795624514288e-04
2.257201379956e-04
2.695509172566e-04
3.144422750007e-04
3.602182894153e-04
4.054873038985e-04
4.525148308088e-04
5.038541824834e-04
5.495995247736e-04
5.862111262393e-04
6.342650658052e-04
6.814841447557e-04
7.273130426229e-04
7.742201728224e-04
8.215906888973e-04
8.669064806701e-04
8.898091793777e-04
8.888004860446e-04
8.881476431534e-04
8.886611550675e-04
8.873292207379e-04
8.873796625285e-04
8.877145688059e-04
8.882991997087e-04
8.891081577287e-04
8.895674516380e-04
8.882569121584e-04
8.886773248083e-04
8.897614672626e-04
8.893270601288e-04
8.879317372578e-04
8.867155421258e-04
8.860750537291e-04
8.875036930769e-04
8.888199397314e-04
8.889528056051e-04
8.891193998000e-04
8.889269682470e-04
8.885711942666e-04
8.881774963459e-04
8.893558715016e-04
8.892926716100e-04
8.896475655307e-04
8.895391621796e-04
8.902345752377e-04
8.910618100376e-04
8.908268286946e-04
8.883017444198e-04
8.870033247227e-04
8.889101297818e-04
8.887178507321e-04
8.889749525521e-04
8.891814831339e-04
8.887055024058e-04
8.873576980910e-04
8.876113339264e-04
8.880420548052e-04
8.897938021992e-04
8.907165225603e-04
8.860205656141e-04
8.893069775074e-04
8.887535151655e-04
8.885180406596e-04
8.909163501420e-04
8.913403494152e-04
4.970460226215e-04
5.465414378926e-04
5.921313660911e-04
6.364287587029e-04
6.825537522220e-04
7.278134995944e-04
7.735342273327e-04
8.173136017165e-04
8.659377019958e-04
1.387818063272e-05
4.539930109995e-04
5.438054036256e-05
1.009772649362e-04
1.470854780186e-04
1.881787348830e-04
2.342110044356e-04
2.790684576348e-04
3.107394956161e-04
3.570654865109e-04
4.033178026184e-04
2.887146333218e-04
3.162883577622e-04
3.616329343761e-04
4.060157178949e-04
4.461572723987e-04
4.482375507592e-04
4.489251939510e-04
4.482810220245e-04
4.560054951225e-04
4.490487455221e-04
4.479848053994e-04
4.491487522400e-04
4.505166080725e-04
4.507339705437e-04
4.500429840668e-04
4.496777136800e-04
4.491474461797e-04
4.502737102712e-04
1.443236451681e-05
1.609184950887e-05
1.444777850682e-05
1.445196928896e-05
1.742545827470e-05
1.883427368882e-05
1.852391460304e-05
1.764215548380e-05
1.771561269883e-05
1.733046749832e-05
1.810073159380e-05
2.048990176091e-05
1.919122443325e-05
1.606222747872e-05
1.631184331598e-05
1.838276961406e-05
1.899682157401e-05
1.674761483558e-05
1.515472777583e-05
2.975880813038e-04
2.947268337092e-04
2.940961100312e-04
2.940817321266e-04
2.941445822200e-04
2.942545744142e-04
2.943538740722e-04
2.943531940046e-04
2.943138681542e-04
2.943508140404e-04
2.943954200655e-04
2.943531509470e-04
2.941458879877e-04
2.941268825737e-04
2.943155106379e-04
2.947743404337e-04
2.945876782763e-04
2.939972825783e-04
2.925817653652e-04
2.735013312974e-04
3.028056095170e-04
3.161844696852e-04
3.143201194648e-04
3.138173456821e-04
3.135666727045e-04
3.133894152578e-04
3.137072245185e-04
3.137903749499e-04
3.137552108189e-04
3.136173653508e-04
3.136276881299e-04
3.137330253685e-04
3.136250543478e-04
3.134895440990e-04
3.134087321469e-04
3.133800931571e-04
3.134342156714e-04
3.138051608859e-04
3.154278010076e-04
3.611485313111e-04
3.593958689772e-04
3.591898798686e-04
3.593297202165e-04
3.592471895824e-04
3.594265497814e-04
3.596237032014e-04
3.596571460670e-04
3.593377794373e-04
3.596684783014e-04
3.598758848307e-04
3.597552388914e-04
3.597821813941e-04
3.590976444273e-04
3.597033129801e-04
3.627706280632e-04
3.496857881406e-04
3.956894430432e-04
4.084843113251e-04
4.060961241034e-04
4.055043726269e-04
4.058070391746e-04
4.060008361141e-04
4.054675210445e-04
4.054158394705e-04
4.054705070724e-04
4.053661824669e-04
4.051783298876e-04
4.050677983318e-04
4.054138231738e-04
4.048987951044e-04
4.060536754366e-04
4.085853059390e-04
3.439412955423e-05
7.855211595374e-05
1.235371244524e-04
1.701785260397e-04
2.135457077895e-04
2.587899329113e-04
2.902585631940e-04
3.362497538655e-04
3.823052700951e-04
4.292533059372e-04
1.065540971725e-04
8.722366970816e-04
3.071877777411e-05
2.955753103127e-05
8.728796448070e-04
1.993419400918e-04
4.786993620079e-04
8.715410235368e-04
2.838574358308e-04
8.733046452917e-04
3.784478368563e-04
8.750925786310e-04
2.796371051266e-05
8.736269387387e-04
4.733271556655e-04
2.936877367691e-04
6.035474916514e-04
8.717572086583e-04
8.738199405046e-04
8.737494710065e-04
8.696287808285e-04
8.750806370792e-04
4.919558859900e-04
4.918398764199e-04
4.949307231399e-04
6.589482462508e-04
8.738674271820e-04
2.813705699443e-05
3.195365789908e-05
7.486411905949e-04
4.900146372998e-04
1.541367175474e-04
8.655890379535e-04
8.755682138923e-04
8.730973644309e-04
8.703784410466e-04
8.740973276145e-04
3.187356296986e-05
4.907091952207e-04
8.662583448289e-04
7.508115515426e-04
3.074176072344e-05
3.834518994422e-04
8.815314033999e-04
2.457863140164e-04
1.527805289882e-04
3.313833785311e-04
4.244970235113e-04
5.636808983146e-05
5.718052096935e-04
8.819662471530e-04
3.001251584579e-05
8.373343036417e-04
4.924452570696e-04
5.108818745462e-04
5.332387487364e-04
5.560142054344e-04
5.787643014481e-04
5.991259251811e-04
5.752635265182e-04
6.186942134972e-04
5.944516730932e-04
6.231926228760e-04
6.380835551574e-04
6.135840024034e-04
6.573144048118e-04
6.328089844586e-04
5.894129404993e-04
6.085043193505e-04
5.651248587261e-04
5.842235601993e-04
6.277370129424e-04
6.033008816137e-04
5.598285256637e-04
5.787470750074e-04
5.354343962972e-04
5.543066005166e-04
5.109771159406e-04
5.298843866556e-04
5.732568666387e-04
5.488106401566e-04
5.054467442157e-04
5.243830125588e-04
4.810781478793e-04
4.998224426771e-04
5.432974154275e-04
5.187745459682e-04
4.750268661506e-04
4.942061513858e-04
4.503195040673e-04
4.696890934292e-04
4.255957344176e-04
4.448505048632e-04
4.889334273357e-04
4.641717549476e-04
4.199472596373e-04
4.391094936345e-04
4.834394634788e-04
4.583112576687e-04
5.027462790146e-04
4.776197235482e-04
4.333642288832e-04
4.526081348578e-04
4.969211450957e-04
4.717210733978e-04
4.275809977385e-04
4.467222286567e-04
4.910180813087e-04
4.658552900682e-04
4.216677957086e-04
4.408729284411e-04
4.853895838457e-04
4.600318407553e-04
4.156094397672e-04
4.346988666159e-04
4.795014301536e-04
4.538188443789e-04
4.989809666093e-04
4.088754149089e-04
4.280167623937e-04
3.828819013324e-04
4.021805478245e-04
5.624042399684e-04
3.568746175437e-04
3.381624883378e-04
3.763715402787e-04
4.219792148569e-04
3.309364607346e-04
3.505799184385e-04
3.052633941202e-04
4.056941669208e-04
6.469586485139e-04
3.250320809889e-04
2.796631607038e-04
2.599302819126e-04
2.342013255709e-04
6.036748186582e-04
6.482174305303e-04
6.269535787043e-04
6.731337752938e-04
6.527067380216e-04
2.538439629180e-04
6.821261244064e-04
6.930466000944e-04
5.166862193674e-04
4.621843229341e-04
5.278976428177e-04
3.703184973447e-04
3.451321418538e-04
3.906862459586e-04
5.246371866953e-04
5.443146240762e-04
5.699547953913e-04
5.897069522284e-04
6.153672919097e-04
6.351883362805e-04
6.094609170451e-04
6.550126832139e-04
6.292102542344e-04
6.608318434088e-04
6.410047653727e-04
6.747478106556e-04
6.489569127364e-04
6.944404496434e-04
6.686255413523e-04
6.230894205853e-04
6.427296395524e-04
5.974326100299e-04
5.473118415211e-04
5.725790691740e-04
5.920079111204e-04
6.173889614791e-04
6.368362109388e-04
6.623309645012e-04
6.816599341203e-04
6.563140336921e-04
6.764880034757e-04
3.948980065668e-04
3.757422617964e-04
3.507921955189e-04
3.317100384563e-04
3.067998146490e-04
2.878591714287e-04
2.628952814348e-04
2.817770972622e-04
2.377365497028e-04
2.565509120403e-04
2.123913595215e-04
2.311386405196e-04
5.922576399657e-04
6.427827676104e-04
6.878682679612e-04
6.678822000469e-04
2.148067718258e-04
6.882180801932e-04
6.864985118878e-04
6.664359755593e-04
7.013124766121e-04
2.087760264216e-04
2.441964081010e-04
2.687157839923e-04
6.978563593589e-04
6.772610625539e-04
7.121601343833e-04
2.283568469402e-04
7.006628053783e-04
1.937776703377e-04
6.622880887680e-04
7.078272471647e-04
5.837558227301e-04
7.131417687537e-04
6.924127382572e-04
2.759772220359e-04
2.508908842006e-04
2.067202652783e-04
2.273131006144e-04
2.708850174899e-04
2.448672349258e-04
1.998980645288e-04
2.191272268305e-04
2.639108306055e-04
2.381925193768e-04
1.928266391849e-04
2.123220651939e-04
7.337275495344e-04
1.682265145296e-04
5.462050413710e-04
7.318865140830e-04
7.261568958084e-04
7.225832230558e-04
7.021288971226e-04
6.565124913041e-04
6.819655065462e-04
7.275032532752e-04
7.072262295564e-04
6.616628008332e-04
6.865235503483e-04
6.407465733666e-04
6.657182290584e-04
7.113460086993e-04
6.908411643582e-04
6.453255735266e-04
6.702622678794e-04
6.246789880058e-04
6.489319520512e-04
6.952190037192e-04
1.840273521277e-04
6.759567359458e-04
7.214607443990e-04
3.679720332759e-04
4.092817550487e-04
4.360686121869e-04
4.564588720529e-04
6.740705970757e-04
7.205777350965e-04
2.252804046805e-04
2.496360743898e-04
7.429139095365e-04
6.823424879043e-04
6.366049028177e-04
4.378451378818e-04
4.188880438556e-04
3.943752891281e-04
3.748640538969e-04
4.003452629813e-04
3.498940421147e-04
6.207438251872e-04
7.364909888472e-04
2.405871186206e-04
1.954370079604e-04
7.282805554458e-04
6.308606560243e-04
6.167686675708e-04
6.359024740525e-04
6.606418547102e-04
6.798245018957e-04
7.048195630290e-04
7.239151784800e-04
6.995250348688e-04
7.376440826471e-04
7.439657402355e-04
6.261993285558e-04
6.226819723499e-04
2.832721408126e-04
1.644730842850e-04
1.669301588230e-04
2.020973455329e-04
2.478170423544e-04
7.577119654081e-04
7.492733009352e-04
7.294398050137e-04
3.569060949549e-04
3.819409900850e-04
7.577870500628e-04
6.069742862614e-04
6.160208837846e-04
5.947078797033e-04
1.502552835390e-04
1.472236624068e-04
7.528104372185e-04
2.930236053531e-04
2.739490413792e-04
1.500905215988e-04
1.240537225359e-04
6.973593058681e-04
7.439041173789e-04
4.813505419260e-04
5.017144862583e-04
7.379119109569e-04
1.870277448814e-04
7.663141417339e-04
6.508032487137e-04
6.054849935165e-04
4.293291398523e-04
2.069471688254e-04
1.825426121622e-04
3.087667916428e-04
2.317056376954e-04
2.217281548421e-04
7.833146767017e-04
7.725249111761e-04
7.195048383756e-04
6.747855449436e-04
7.634484368176e-04
1.418552388890e-04
7.784896772250e-04
7.030108063973e-04
7.725824598691e-04
7.540604595901e-04
3.171474948001e-04
2.987852970653e-04
2.558668176592e-04
2.815832131691e-04
5.513698858348e-04
3.420076733765e-04
5.219255427951e-04
5.030668813377e-04
4.792452590639e-04
4.247335201093e-04
4.063236056300e-04
3.563244576484e-04
5.530404887445e-04
4.617109805981e-04
5.777394579271e-04
5.501611182387e-04
7.566237315057e-04
7.823745579098e-04
5.997434588477e-04
5.780237946273e-04
1.697495562144e-04
1.508805515530e-04
5.186529117619e-04
7.516991623626e-04
7.672690893153e-04
7.876001356161e-04
7.626509320592e-04
7.627778325953e-04
3.699499845101e-04
5.666666454918e-04
1.438245311811e-04
5.868006376027e-04
1.247175489974e-04
6.713548583210e-04
7.483917891977e-04
7.736774679398e-04
7.821572245300e-04
4.899015071153e-04
6.061770746778e-04
5.817931729753e-04
4.605724853742e-04
4.370223372958e-04
4.552736079605e-04
4.133656439147e-04
3.276923247088e-04
3.020339028758e-04
7.979659689173e-04
7.883460447530e-04
7.982408092042e-04
7.795524967648e-04
8.013069214063e-04
7.771428291273e-04
2.665794004091e-04
3.640873967819e-04
7.971681631113e-04
4.838853975756e-04
7.968536680470e-04
7.720983615569e-04
9.810668217613e-05
1.158569237012e-04
7.915840785144e-04
2.380574401883e-04
2.618006099049e-04
2.132008951494e-04
8.415052523991e-04
4.886663809025e-04
7.934056144555e-04
4.492884086887e-04
8.130387548701e-04
6.261760504981e-04
4.125814814439e-04
7.178732318399e-04
7.666642762268e-04
8.185709815988e-04
5.696834584242e-04
5.469719599133e-04
5.897324846543e-04
1.746640571462e-04
1.267235960322e-04
7.616042996353e-04
3.196076646027e-04
3.449992437643e-04
2.048866664362e-04
2.493062780569e-04
5.070116633323e-04
4.873520815403e-04
6.908734956118e-04
7.154878992919e-04
6.414340301825e-04
6.254037858679e-04
5.801902790572e-04
5.606256376154e-04
8.012681753723e-04
8.329963825512e-04
3.530470634913e-04
3.340524441574e-04
3.460614324759e-04
8.175524335045e-04
8.195011765416e-04
7.988609115481e-04
1.072300634752e-04
1.330632502214e-04
1.652810804939e-04
1.397493906304e-04
8.060647275400e-04
7.832275887001e-04
8.359053686964e-04
2.373558503067e-04
6.948259004067e-04
8.063839968108e-04
7.881231808626e-04
8.339301416530e-04
7.615215817857e-04
8.048887775842e-04
8.067360300635e-04
8.088210451328e-05
8.001969768968e-04
5.513628864854e-04
5.991210265794e-05
5.303750343771e-04
5.575493484435e-04
5.056018791105e-04
1.923253731113e-04
5.350945061517e-04
5.648908884563e-04
7.689491788832e-05
8.408831798945e-04
8.340401133038e-05
9.990498025281e-05
8.174634215095e-04
7.911886027123e-04
8.358366351121e-04
8.088717682168e-04
7.649515697637e-04
7.857574983214e-04
5.264350640623e-04
8.358546589261e-04
8.061222461893e-04
8.605711697752e-04
3.958089654574e-04
3.059852068258e-04
2.858172523062e-04
2.426109781750e-04
8.296191495191e-04
8.022538523192e-04
7.244602053986e-04
6.782170569491e-04
5.336023792134e-04
5.298854478294e-04
5.720377334188e-04
5.651841783924e-04
6.088002111604e-04
6.018654128492e-04
6.443068834977e-04
8.334708182106e-04
1.951336418689e-04
4.420082584187e-04
8.207982746555e-04
7.940700745776e-04
3.881584802576e-04
3.471998577605e-04
8.305993334525e-04
3.609425281377e-04
8.689143425974e-04
2.787060135920e-05
7.286647819476e-05
3.859558184678e-04
4.309545412117e-04
3.298825060451e-04
3.137520652760e-04
6.714664482733e-04
1.125731627303e-04
1.894537224626e-04
6.501544121412e-04
1.477430287242e-04
7.019854955118e-04
3.810844111669e-04
4.677711350311e-04
2.313148587081e-04
3.252238421852e-04
5.703579268460e-04
5.324043867603e-04
5.086674172278e-04
4.006419728863e-04
3.391204703335e-04
2.923835719857e-04
5.408511218791e-04
7.379651171000e-04
7.579706773122e-04
8.011548755258e-04
7.780826984350e-04
7.332840892905e-04
7.526479975871e-04
7.971803115054e-04
7.735197813417e-04
8.262472905690e-04
7.929598925790e-04
7.470527542953e-04
7.659248830045e-04
8.091032939205e-04
7.211619544472e-04
8.442167902149e-04
4.306865788467e-04
1.044765289972e-04
9.827683643382e-05
4.923540219683e-04
8.714790847238e-04
8.731736799155e-04
3.123792524490e-04
8.729287150019e-04
5.272649318487e-04
2.191398239417e-04
8.732031985156e-04
7.130087249815e-04
6.877858420163e-04
6.679067510146e-04
8.747254954737e-04
6.109742344751e-04
8.755701857100e-04
5.978551322893e-04
5.777687862342e-04
5.331862976259e-04
7.271016044260e-04
8.726832412974e-04
8.363453721647e-04
8.357287884966e-04
7.967949130083e-04
8.729311769591e-04
8.746048210340e-04
8.757603934564e-04
2.896480078818e-04
3.151536061377e-04
3.591713235696e-04
3.399576539233e-04
2.956226792121e-04
3.205301867894e-04
3.646701735677e-04
3.009725532030e-04
7.593675824400e-04
8.745186206881e-04
5.955179239956e-04
5.752952465899e-04
5.302262826699e-04
4.419860638094e-04
4.675978432361e-04
5.129738354448e-04
4.164548397465e-04
6.551879346242e-04
8.741019856414e-04
5.859901048920e-04
4.476603996913e-04
4.915230817815e-04
5.309240068605e-04
5.323700613709e-04
5.736894063965e-04
5.351590388547e-04
5.269854541203e-04
5.469085242661e-04
5.219164243980e-04
5.664660482549e-04
5.401131126200e-04
4.979524260253e-04
5.848853311671e-04
5.569185072007e-04
4.906420102381e-04
3.170448400110e-05
6.995385727615e-05
6.849074955060e-05
1.073511835087e-04
1.105991917856e-04
1.504731351132e-04
1.458387750102e-04
7.076324639262e-05
3.090762372850e-05
6.811155019588e-05
3.024275800373e-05
6.701952661023e-05
1.132561805515e-04
1.774278331148e-04
8.683268420300e-04
4.289563965157e-04
4.087467011713e-04
3.620022030675e-04
3.871398276738e-04
4.468882401977e-04
3.382483447187e-04
3.227666928477e-04
3.186373403238e-05
6.968070788243e-05
6.930431433067e-05
1.103830641038e-04
1.084283513711e-04
6.955844240917e-05
6.957251263225e-05
3.087829288754e-05
6.916668823128e-05
1.092093195758e-04
2.860096868461e-05
7.056820037004e-04
7.299566898429e-04
8.725577123160e-04
4.959692094609e-04
3.091218048916e-05
8.671852048698e-04
8.733432179252e-04
8.734531321064e-04
7.957971286484e-04
8.182028176353e-04
8.680808008300e-04
2.856246407715e-04
8.221505899075e-04
7.867365561803e-04
2.006879828875e-04
2.760157267466e-04
6.570374827172e-04
6.034788526751e-04
7.534404223277e-04
6.171445062617e-04
7.141191166494e-04
8.333331487220e-04
1.769391207037e-04
6.197356729893e-04
6.031369019689e-04
7.159815276405e-04
2.996957630434e-04
4.779314782196e-04
1.896480084331e-04
8.372249201877e-04
4.978685116583e-04
5.049912460344e-04
3.962534712183e-04
3.116673154321e-04
2.575495564398e-04
4.563132910929e-04
4.733113038568e-04
6.807420950213e-04
7.412727405057e-04
3.900894407946e-05
7.062809791721e-04
5.640134143322e-04
6.366157628327e-04
7.072992914154e-04
1.751116105001e-04
7.321461800821e-04
8.104970881191e-04
5.847505123753e-04
1.450668962481e-04
5.736378135269e-04
8.027337595558e-04
7.180376744355e-04
2.736317130801e-04
5.220914710743e-04
4.865818052908e-04
4.471177866967e-04
8.063363278817e-04
5.378993798996e-04
7.470022916029e-04
6.114026488664e-04
2.939212611736e-04
7.463767332910e-04
5.084976424556e-04
7.777626792266e-04
6.854084072495e-04
4.140791467985e-04
7.471678807683e-04
5.103813785756e-04
7.329713830172e-04
4.737289604077e-04
5.977356866437e-04
6.519892618683e-04
5.678021419543e-04
6.319192717496e-04
7.264774776897e-04
1.875624189713e-04
3.688310981205e-04
6.314501505079e-04
7.672682440834e-04
8.229065015772e-04
4.434680652511e-04
7.201561125460e-04
7.914028017314e-04
4.930979507901e-04
2.040260336769e-04
1.581177402907e-04
3.258736548738e-04
5.134927945261e-04
5.384299011222e-04
8.328361271424e-04
7.396786737532e-04
6.920128991829e-04
8.196000574170e-05
4.652440764187e-04
7.595631118992e-04
5.413940581115e-04
7.514691837904e-04
5.124079232766e-04
8.363223980306e-04
3.713304271161e-04
7.809543171496e-04
6.971423152539e-04
3.367042725643e-04
4.902204304360e-04
8.332513049422e-04
7.429330284218e-04
6.113513461743e-04
5.161141755974e-04
4.006034501526e-04
5.581912762765e-04
6.223072189553e-04
8.752979443997e-04
7.659203639431e-04
6.426709006855e-04
5.325586862055e-04
6.468672484863e-04
1.073528278852e-04
4.189303666797e-04
5.523127417924e-04
3.452338039030e-04
5.354806018552e-04
8.261173123730e-04
5.721454322879e-04
3.892915712256e-04
5.917818965200e-04
3.539736687271e-04
6.627781278346e-04
6.108539446376e-04
6.660506999495e-04
1.163652973912e-04
6.305577701447e-04
7.706780509162e-04
3.642601618824e-04
5.551389630622e-04
7.078379568633e-04
3.068275794996e-04
6.002627334512e-04
7.101300016245e-04
6.503083964526e-04
5.576201452771e-04
6.459702225838e-04
3.237473504565e-04
2.667167922262e-04
2.221184360012e-04
4.085364404529e-04
7.352038309621e-04
1.486189434307e-04
7.017840156360e-04
1.592352416656e-04
3.838129177836e-04
7.166805507109e-04
6.173636955304e-04
4.028477991316e-04
2.492989866975e-04
3.779520455053e-04
6.018674573376e-04
3.968794592392e-04
3.716672737304e-04
8.329159667528e-04
3.902334651909e-04
8.748882416506e-04
8.711247298713e-04
5.265534076551e-04
2.606176973493e-04
3.608218628589e-05
2.743663405466e-04
3.201182020186e-04
6.958586502564e-04
5.269760115519e-04
2.937831755636e-04
8.369611183303e-04
8.745831491043e-04
6.824073644152e-04
7.692285890476e-04
6.715862034514e-04
7.913186766418e-04
4.873605112046e-04
6.716351408429e-05
6.550406917342e-04
2.121979415798e-04
2.182245527634e-04
1.712289286332e-04
3.107224161433e-04
1.057301483358e-04
1.752557479945e-04
8.331013379116e-04
5.272790897640e-04
7.395202468706e-04
1.285853407158e-04
8.358234000511e-04
8.354665319098e-04
8.757509275415e-04
7.846429612781e-04
1.241570316100e-04
5.651773772313e-04
8.374854402620e-04
7.189201776621e-04
8.774612593526e-04
5.201256590730e-04
8.377629979176e-04
1.628222754370e-04
8.372912793325e-04
7.405810874684e-04
5.837048570091e-04
5.629391932633e-04
8.390585364860e-04
8.374355334258e-04
9.795501197394e-05
6.799231894058e-04
3.879757720191e-04
6.464184088928e-05
8.366012277656e-04
7.827055704325e-04
8.377349647591e-04
1.105757531249e-04
6.604595936870e-05
8.445536335797e-04
8.418018754541e-04
1.845877810614e-04
8.826549608500e-04
6.138757031093e-05
4.804799717199e-04
6.556100966196e-05
8.765991424528e-04
8.406352288090e-04
4.268003565694e-04
4.929667183317e-04
2.809817149082e-04
8.054666026434e-04
9.866382460825e-05
8.462920394623e-04
8.466481683937e-04
8.459200057126e-04
8.848347209821e-04
6.317410965350e-05
8.478579638221e-04
8.049072796093e-04
4.880930937126e-04
8.381519655460e-04
3.464907722736e-04
1.453132550396e-04
8.782340449193e-04
2.788672853684e-05
4.852288266984e-04
8.800271141742e-04
1.366420641944e-04
5.591160485790e-04
8.434724703118e-04
5.260519714094e-04
7.639465125205e-04
1.346350386641e-04
2.489926233996e-05
6.405845470091e-04
8.434966522637e-04
8.489495605041e-04
6.092101199237e-04
1.233072216686e-04
8.180905916336e-04
4.606593074043e-04
8.111203909914e-04
8.066949311417e-04
3.153365254742e-05
5.661385301693e-04
6.389298898293e-05
8.469003976225e-04
4.815533645814e-04
2.856605147877e-04
2.967755800048e-04
3.322884574065e-04
3.356786539240e-04
3.782594336362e-04
3.879906112582e-04
4.250700443092e-04
4.273709822799e-04

SCALARS node_materi_plasti_phimob float
LOOKUP_TABLE default
-5.934238851552e+01
6.358790747007e+00
2.060958775360e+01
1.910934659138e+01
-3.124856038855e+01
-5.772527538716e+00
4.638652680155e+00
1.069689235841e+01
1.426715662792e+01
1.644515452838e+01
1.799887311243e+01
1.914095593553e+01
1.994768989176e+01
2.056282697611e+01
2.101722750923e+01
2.121667691702e+01
2.129145473957e+01
2.136938118737e+01
2.134607125955e+01
2.126109679276e+01
2.113604577546e+01
2.097015949498e+01
2.078475419356e+01
1.913746793987e+01
1.912967369646e+01
1.913809252076e+01
1.914732663929e+01
1.913846105718e+01
1.916089895835e+01
1.917023440907e+01
1.920006781230e+01
1.923657791116e+01
1.927519410211e+01
1.929669880424e+01
1.936382365690e+01
1.942307337696e+01
1.950560757867e+01
1.957016196844e+01
1.966248073832e+01
1.975694671666e+01
1.986770508799e+01
2.001960052527e+01
2.018609686271e+01
2.033056466519e+01
2.042532207445e+01
2.055877925025e+01
2.065404555810e+01
2.072870356195e+01
2.077669555322e+01
2.084117300422e+01
2.084767816275e+01
2.087241572449e+01
2.084565240728e+01
2.086990165536e+01
2.084847019534e+01
2.081926911676e+01
2.079730467005e+01
2.077492578089e+01
2.075032724975e+01
2.072895047694e+01
2.071150501993e+01
2.069194393629e+01
2.068402995588e+01
2.065689088382e+01
2.062962585726e+01
2.061807190035e+01
2.065410013808e+01
2.059818489944e+01
2.060898214931e+01
2.059176023448e+01
2.058962820536e+01
2.059396518739e+01
9.804037869656e+00
1.216578176528e+01
1.384758203972e+01
1.511169619256e+01
1.614503922949e+01
1.697416874714e+01
1.768068231513e+01
1.828093934502e+01
1.880286202446e+01
-3.148893487581e+01
5.851711209693e+00
-8.837614351345e+00
-4.789616159039e-01
1.997333055596e+00
8.025239902295e-01
-1.241262721321e+00
-1.258503805933e+01
-2.151566668501e+01
-8.594217961769e+00
3.283157740492e-01
-4.485447314719e+01
-3.125079677116e+01
-1.014052597448e+01
4.670734831684e-01
5.707042482611e+00
5.917881919288e+00
5.922723424995e+00
5.857823484115e+00
6.331661681808e+00
5.839446066087e+00
5.744776520492e+00
5.739376918873e+00
5.767590282172e+00
5.702646497500e+00
5.619207600861e+00
5.550386342470e+00
5.513487030750e+00
5.564449808022e+00
-3.319266406910e+01
-2.993632769638e+01
-2.933732905976e+01
-3.181859770109e+01
-3.607355207462e+01
-3.940430970251e+01
-4.304635386447e+01
-4.691450715469e+01
-5.083220806457e+01
-5.445609081280e+01
-5.755346767912e+01
-5.737577403487e+01
-5.858065265247e+01
-6.112697897258e+01
-6.080596478176e+01
-5.991394903628e+01
-5.978658139606e+01
-6.112823444602e+01
-6.311136845126e+01
-4.515802347956e+01
-4.622790319775e+01
-4.639472650395e+01
-4.664541444521e+01
-4.708871953010e+01
-4.771407163253e+01
-4.850908557872e+01
-4.944949636070e+01
-5.052972684186e+01
-5.174348353381e+01
-5.291752342560e+01
-5.380618195561e+01
-5.436506282911e+01
-5.459065366958e+01
-5.475914673827e+01
-5.439734763248e+01
-5.388842853634e+01
-5.149873777892e+01
-9.559368476348e+00
9.870038847845e+00
-3.210288335483e+01
-3.098015046802e+01
-3.439193037794e+01
-3.519598523963e+01
-3.538788482416e+01
-3.541884805448e+01
-3.525814543079e+01
-3.497963205313e+01
-3.457873145420e+01
-3.413182952573e+01
-3.370545828173e+01
-3.332359986098e+01
-3.299701923085e+01
-3.272774613908e+01
-3.251810721461e+01
-3.237224719854e+01
-3.228991320725e+01
-3.222828441886e+01
-3.208627351430e+01
-1.081995633886e+01
-1.096115265649e+01
-1.094006029827e+01
-1.090776903819e+01
-1.089652597621e+01
-1.087535255584e+01
-1.084958587371e+01
-1.084254977494e+01
-1.084845089698e+01
-1.081009939969e+01
-1.078419017299e+01
-1.078376220086e+01
-1.078679373870e+01
-1.082287834610e+01
-1.070873716823e+01
-9.691705499435e+00
-1.148629177177e+01
-7.496853663717e-01
3.512455569189e-01
-4.700438307518e-02
-3.400943169619e-02
1.655680434478e-02
6.597355177209e-02
7.386905262299e-02
1.006074662388e-01
1.500161325698e-01
1.665316868353e-01
1.798561931321e-01
1.930248466979e-01
2.164832285308e-01
2.056363375681e-01
3.473235799424e-01
6.461851647261e-01
-1.949704835713e+01
-3.473265868903e+00
1.091859979313e+00
1.763583564625e+00
1.711052398199e+00
-7.731820453965e-01
-2.134478732088e+01
-1.293650948278e+01
-2.626400243865e+00
3.829945268228e+00
-3.602594452859e+00
2.104891148729e+01
-3.790476099902e+01
-3.096815583554e+01
2.093394078645e+01
3.087134392571e+00
2.082542987543e+01
2.102776478292e+01
1.531852571891e+00
2.070401900688e+01
-1.391652804213e+00
2.079507191993e+01
-4.147935806400e+01
2.004250883744e+01
7.597190477851e+00
1.735722881802e+01
2.135715962764e+01
1.948509511513e+01
1.914947067351e+01
1.892142628599e+01
1.888736587554e+01
1.902332201218e+01
8.824950657803e+00
9.010458164835e+00
9.340273109723e+00
1.565629682656e+01
2.076130502890e+01
-3.075577569787e+01
-3.955624532571e+01
2.120816628112e+01
9.170546736191e+00
8.069389969913e+00
1.919573625306e+01
2.090990429220e+01
2.041185580454e+01
2.109881766287e+01
2.099778582136e+01
-3.257231978731e+01
8.796637968689e+00
2.092226305424e+01
1.733597344220e+01
-3.971271869324e+01
1.960094206175e+01
1.898816458562e+01
4.246837392032e+00
1.517430000022e+00
-5.137125947978e+00
3.666966923151e+00
-1.605590341008e+01
1.318311733435e+01
2.071584465374e+01
-4.116245305883e+01
1.852257417937e+01
8.978094043586e+00
1.026056686954e+01
1.120907267614e+01
1.238833941455e+01
1.314525808953e+01
1.397274444113e+01
1.336156701327e+01
1.475550059604e+01
1.428880675288e+01
1.456535930047e+01
1.550493187461e+01
1.516005737863e+01
1.620949808924e+01
1.596644392936e+01
1.486886926213e+01
1.578131873429e+01
1.464498924933e+01
1.566460961857e+01
1.658594983044e+01
1.653647451482e+01
1.562678084274e+01
1.654584739281e+01
1.566295947298e+01
1.679676749891e+01
1.602669000504e+01
1.746977509482e+01
1.798557094491e+01
1.866297128160e+01
1.827736682641e+01
1.936145487646e+01
1.906675879854e+01
2.002374656238e+01
2.020868388058e+01
2.076574363020e+01
2.060268874975e+01
2.124710519468e+01
2.106075687825e+01
2.161861277963e+01
2.135764531139e+01
2.184931548347e+01
2.202125525618e+01
2.219950096393e+01
2.191917720193e+01
2.223409640174e+01
2.243642246210e+01
2.244232709675e+01
2.258147213268e+01
2.256476076058e+01
2.231482595678e+01
2.243111576403e+01
2.261829810909e+01
2.248210179175e+01
2.217406507234e+01
2.223808319828e+01
2.248416637081e+01
2.225365242421e+01
2.188318813281e+01
2.192995126785e+01
2.223521519926e+01
2.194071608144e+01
2.150594447094e+01
2.155976493539e+01
2.192698560065e+01
2.158621906798e+01
2.189305303747e+01
2.108569659696e+01
2.116992962197e+01
2.051308140423e+01
2.067153157920e+01
2.086342639260e+01
1.983964519277e+01
1.954938565163e+01
2.009120172679e+01
2.080321790027e+01
1.906390653921e+01
1.942230956045e+01
1.817071101535e+01
2.068401143494e+01
1.728647089287e+01
1.865760082360e+01
1.714155520510e+01
1.636377808365e+01
1.491985699781e+01
1.387646898439e+01
1.514848721157e+01
1.451794664166e+01
1.569298549930e+01
1.517077696159e+01
1.591852362167e+01
1.650045623600e+01
1.619491845296e+01
1.449244044251e+01
1.783328875055e+01
2.249076904403e+01
1.972085305447e+01
1.906663857222e+01
1.999234821080e+01
2.212882584939e+01
2.205110079653e+01
2.220192553096e+01
2.209264603112e+01
2.217425090280e+01
2.204340419574e+01
2.197869326192e+01
2.191049039181e+01
2.186323420599e+01
2.206818778456e+01
2.221254984373e+01
2.177733807164e+01
2.174790174486e+01
2.164486094398e+01
2.163407144573e+01
2.168958794148e+01
2.159959519886e+01
2.160467162980e+01
2.259447192713e+01
2.245151505812e+01
2.252333835426e+01
2.234984588832e+01
2.239243950770e+01
2.220507615418e+01
2.221794897123e+01
2.237561556233e+01
1.686489990056e+01
2.181078562053e+01
2.137093818229e+01
2.104690603418e+01
2.039540254013e+01
1.975236794129e+01
1.873996486017e+01
1.761557153142e+01
1.878975941015e+01
1.605576820059e+01
1.746029383267e+01
1.399691583733e+01
1.571115928598e+01
1.901084999831e+01
2.212438298990e+01
2.197790055851e+01
2.185812196398e+01
1.370288067007e+01
2.152383241697e+01
2.205538389423e+01
2.220711665938e+01
2.217437754816e+01
1.321183113576e+01
1.601607528747e+01
1.733349717824e+01
1.620367704731e+01
1.574736936280e+01
2.200396754241e+01
1.447629928361e+01
2.177690351824e+01
1.167956877684e+01
2.151142502046e+01
2.142145108305e+01
2.187404350880e+01
2.172603342732e+01
2.156511664178e+01
1.849334291452e+01
1.702372903766e+01
1.359093933892e+01
1.521124569405e+01
1.804444798646e+01
1.643181782218e+01
1.290094017088e+01
1.447826567737e+01
1.740644510093e+01
1.575696116810e+01
1.199374368371e+01
1.374263886367e+01
2.139580084377e+01
8.388431225399e+00
1.347284295966e+01
2.184355126529e+01
2.200448693169e+01
1.668114868885e+01
1.628136177210e+01
1.527434028289e+01
1.587162775241e+01
1.677840717136e+01
1.641084477213e+01
1.543960440884e+01
1.602080512240e+01
1.496864612723e+01
1.560390806004e+01
1.654360792512e+01
1.617281083799e+01
1.515810175954e+01
1.577209880624e+01
1.466340854127e+01
1.532342206369e+01
1.631729097552e+01
1.113496757846e+01
2.231139033442e+01
2.208587011864e+01
1.947903899735e+01
2.022499024375e+01
2.064101080714e+01
2.075699733893e+01
1.590880007947e+01
1.681094408159e+01
1.384409252837e+01
1.539768084708e+01
1.707321522674e+01
2.143194704395e+01
2.147945678129e+01
1.867821139002e+01
1.725742567479e+01
1.807934634872e+01
1.635214930061e+01
1.540106531309e+01
1.699463564826e+01
2.234989607334e+01
1.701932100763e+01
1.542702470379e+01
1.216315682258e+01
2.133444235895e+01
2.249334569513e+01
1.845312374972e+01
1.933188724029e+01
1.888464193430e+01
1.963122910619e+01
1.928618631097e+01
1.991323036492e+01
2.022995203886e+01
2.146268410104e+01
2.041100329488e+01
1.479587952046e+01
2.196840517085e+01
1.818076944021e+01
9.139870034063e+00
8.891488094492e+00
1.269786439660e+01
1.551777913060e+01
2.175467177153e+01
1.966030611393e+01
1.902789060321e+01
1.415592767876e+01
1.291151363879e+01
2.156253852527e+01
1.390503355732e+01
1.425737669276e+01
1.366639948109e+01
7.654416584682e+00
6.212434590152e+00
1.723153335074e+01
1.819009321237e+01
1.644262048998e+01
4.615369807214e+00
-1.622645259884e-01
1.641535725850e+01
1.722276973379e+01
2.105086230110e+01
2.112555729142e+01
2.191608568888e+01
1.128717594509e+01
1.755048219139e+01
2.241349412653e+01
2.255907742223e+01
2.036171015304e+01
1.096343992035e+01
8.437692705971e+00
1.934330144818e+01
1.511286013601e+01
1.403101927541e+01
2.164077707575e+01
1.754740677766e+01
2.068579843791e+01
2.059660088071e+01
2.075403673766e+01
5.062582703027e+00
2.159013994569e+01
2.136693292092e+01
1.947206359650e+01
1.891511761249e+01
1.866118231349e+01
1.705598129566e+01
1.408421331389e+01
1.488052443678e+01
1.274445674363e+01
1.878912247969e+01
1.318389694378e+01
1.162363484478e+01
1.123466495732e+01
1.413835849906e+01
1.160266082658e+01
2.074856857645e+01
2.230573178443e+01
2.099625912400e+01
2.166666032287e+01
2.230103000154e+01
1.733385766410e+01
1.774272894828e+01
1.389873111175e+01
1.323857313453e+01
9.533174453505e+00
6.976783702241e+00
2.184678359563e+01
2.168289694518e+01
1.747388944722e+01
1.782107061746e+01
1.745345396754e+01
2.180047068424e+01
2.150922646786e+01
2.263247128282e+01
4.341296349024e+00
2.035392348072e+01
2.643547016106e+00
1.734588081104e+01
2.124010941132e+01
2.118373995612e+01
2.134319766839e+01
9.167444276331e+00
2.092757490603e+01
2.135594866306e+01
9.062115167584e+00
8.477181149109e+00
1.103864214751e+01
8.258755666947e+00
1.977309450556e+01
1.877095389181e+01
2.002705269631e+01
2.056555760392e+01
1.942372090866e+01
1.893060556192e+01
2.137398698936e+01
2.159288260533e+01
1.638739124297e+01
9.497234704682e+00
1.792624186751e+01
9.822600664087e+00
2.141293948849e+01
2.151812361016e+01
-6.136567026459e+00
-9.773960782757e-01
1.791392598984e+01
1.084080822819e+01
1.173349532959e+01
9.384102097906e+00
2.085983954700e+01
9.139848865399e+00
2.106658646155e+01
1.323394585060e+01
1.819000569074e+01
2.135180392411e+01
1.935503990912e+01
2.207008628177e+01
1.757039398267e+01
1.826628862302e+01
1.275974001580e+01
1.192849977509e+01
1.340539881770e+01
8.531415367684e+00
-1.118063365815e+00
1.744863348345e+01
1.834823856230e+01
1.896865562162e+01
1.300472568194e+01
1.611284938119e+01
2.132118979744e+01
2.130864142511e+01
1.791836048952e+01
1.798758325736e+01
1.802372520892e+01
2.246528338351e+01
2.256471762152e+01
2.263350373086e+01
1.801197595934e+01
1.841920871300e+01
2.060179794441e+01
2.029702523467e+01
2.008801598357e+01
1.821216003850e+01
2.100937178566e+01
2.111550932518e+01
-1.829627499675e+00
3.514046314163e+00
4.479862006165e+00
7.785570662338e-01
1.815397490278e+01
1.783600001181e+01
1.851545377849e+01
1.492310931561e+01
2.099773962562e+01
2.149886541713e+01
2.169288321960e+01
2.129549159341e+01
2.122175106023e+01
2.115696012443e+01
2.080000567714e+01
-1.340571381554e+01
1.806566306554e+01
1.216548052214e+01
-2.157478374552e+01
1.129545041828e+01
1.248907884636e+01
1.009437253089e+01
1.191595598125e+01
1.132826443629e+01
1.247218945312e+01
-1.145508072231e+01
1.854365929907e+01
-9.079052802667e+00
-2.934968065199e+00
2.124876348885e+01
2.135755961086e+01
2.110477470147e+01
2.120342821827e+01
2.143340174251e+01
2.128732186163e+01
1.095509847250e+01
2.101729457609e+01
2.112959197797e+01
2.091813483782e+01
4.206214978966e+00
1.515276711850e+01
1.203448166915e+01
7.245098668543e+00
1.953771776896e+01
1.900053272192e+01
2.128998654825e+01
2.137703660659e+01
1.148692922551e+01
1.142002062026e+01
1.313599871461e+01
1.295378207056e+01
1.432539636591e+01
1.414394904507e+01
1.528697661163e+01
2.067360458420e+01
5.318224610659e+00
6.500618518218e+00
2.136970921596e+01
2.158789734646e+01
8.377957269949e+00
4.213190579982e+00
2.125988127726e+01
1.996281432810e+01
1.889974632868e+01
-3.056527170592e+01
-1.688691401559e+01
1.977845984956e+01
1.107903701178e+01
1.482104265374e+01
1.214799885027e+01
2.230193668944e+01
-4.594112835637e-01
7.351892167311e+00
1.537843617361e+01
4.448905396775e-01
2.131549573072e+01
2.083648328629e+01
1.512816832639e+01
1.281799321787e+01
1.727532214719e+01
1.385240477113e+01
1.157060988912e+01
1.070912309283e+01
2.146631737398e+01
1.102807441917e+01
7.221325003983e+00
1.451426352627e+01
1.707624756465e+01
1.750163464080e+01
1.818938776087e+01
1.791169650010e+01
1.716854845523e+01
1.762516903814e+01
1.830952081709e+01
1.807711972016e+01
1.879315262257e+01
1.850068713495e+01
1.784492557257e+01
1.828747269193e+01
1.883202112189e+01
1.762893434148e+01
2.116259752393e+01
2.031077212288e+01
-5.862065100237e+00
-8.808712806168e+00
1.456423336220e+01
1.936816334747e+01
1.918979346520e+01
1.947577564461e+01
2.020899176195e+01
1.214911096811e+01
1.415293939900e+01
2.055807085014e+01
1.668511203341e+01
1.628320301340e+01
1.572084408647e+01
1.909693379740e+01
1.404756949618e+01
2.095343237240e+01
2.223844831239e+01
2.204137871411e+01
2.206923796483e+01
1.734709868343e+01
2.107516655389e+01
2.135764744091e+01
2.133624511371e+01
2.164676691093e+01
2.103553756220e+01
1.969656313445e+01
1.988732734748e+01
1.877788550907e+01
1.988168394227e+01
2.105094236373e+01
2.073016577974e+01
1.929496300342e+01
2.027045159766e+01
2.137361537721e+01
1.964175891606e+01
1.853339233791e+01
2.097866911838e+01
2.230030508912e+01
2.241397350266e+01
2.238481305436e+01
2.091217549083e+01
2.127937611428e+01
2.157363065619e+01
2.048883215587e+01
2.004053640123e+01
2.094671829604e+01
2.261703120547e+01
2.123303320420e+01
8.802097881346e+00
1.101923672085e+01
1.106570854711e+01
1.283566333507e+01
1.121976519708e+01
2.133762195086e+01
2.135100388576e+01
2.118246557521e+01
2.135154042120e+01
2.121126118799e+01
2.097802052997e+01
2.133899510159e+01
2.124138910896e+01
8.866009155481e+00
-3.117086859423e+01
-1.399999102912e+01
-1.421916670065e+01
-1.726097140096e+00
-1.164668156358e+00
6.648130340396e+00
5.676915387076e+00
-1.446309247941e+01
-3.437747109389e+01
-1.414836795001e+01
-3.622408572007e+01
-1.439349510473e+01
-2.505468942980e-01
1.032250525024e+01
2.078423220071e+01
2.029260060781e+01
2.004176172137e+01
1.922361474690e+01
1.972609897496e+01
2.056664227796e+01
1.866024839367e+01
1.824514738715e+01
-3.948783311794e+01
-1.201097776103e+01
-1.385095922747e+01
8.549560514396e-01
5.449558604680e-01
-1.200149369027e+01
-1.221284835755e+01
-4.000242636721e+01
-1.270927494556e+01
6.538170095316e-01
-4.118630561796e+01
1.658540148698e+01
1.702654782032e+01
2.091890568781e+01
9.291483124680e+00
-3.885242130948e+01
1.883275713782e+01
1.892119473835e+01
1.892373488333e+01
2.105624629808e+01
2.096881608146e+01
1.885333304944e+01
1.758249836071e+01
1.852885900816e+01
1.783784605588e+01
1.165496050152e+01
1.757002662311e+01
2.142532490680e+01
2.178150962933e+01
2.129184252004e+01
2.154341774352e+01
2.151587408258e+01
2.136093537459e+01
1.050998389815e+01
1.445408508279e+01
1.409166374186e+01
1.668203460177e+01
1.779869011360e+01
2.089046296825e+01
1.165327907036e+01
2.017692573670e+01
1.302909909717e+01
2.219219632214e+01
2.030289846183e+01
1.863481499401e+01
1.678977467067e+01
1.976349113646e+01
2.159516034251e+01
2.192287551968e+01
1.714211694347e+01
-3.581403686399e+01
2.189981347343e+01
2.196474768540e+01
1.478812563925e+01
2.202641206886e+01
9.958248155192e+00
1.689585238902e+01
1.814801869220e+01
1.321265617889e+01
6.263379865355e+00
1.298942195153e+01
2.144960390023e+01
1.664460254820e+01
1.674553808815e+01
2.265342777810e+01
1.689504977720e+01
5.748400424646e+00
1.809981788880e+01
2.132730450623e+01
2.193746871753e+01
2.253315349376e+01
1.745415537580e+01
2.158994837124e+01
2.230668474423e+01
1.764021790746e+01
1.854561312170e+01
2.211538702792e+01
1.712815236582e+01
2.244774896720e+01
2.180450232170e+01
1.302804220126e+01
1.745299951959e+01
1.669601158392e+01
1.960964977233e+01
2.139923115990e+01
2.174564430330e+01
1.139716913006e+01
1.862146084431e+01
1.462230412940e+01
2.018470774729e+01
1.827598090185e+01
1.624206545097e+01
2.163011307145e+01
1.785049778990e+01
2.158983238765e+01
1.292431056881e+01
5.096072628532e+00
2.047810917143e+01
2.172355430706e+01
2.179144089713e+01
1.856514538553e+01
2.148450526775e+01
2.215751613620e+01
-8.603483759724e+00
7.853576164269e+00
2.134782883443e+01
2.266708296122e+01
2.181685328551e+01
2.102765835855e+01
2.040614361410e+01
3.703958139306e+00
2.123412279142e+01
2.221320289029e+01
1.987277571088e+01
9.206778338962e+00
2.099157804387e+01
2.195672834682e+01
1.983231938920e+01
2.261878929778e+01
1.190139363647e+00
2.173003054592e+01
1.727382486825e+01
1.906271916263e+01
2.181631521669e+01
1.522877741399e+01
2.154694353045e+01
2.165594645653e+01
3.988507269243e-01
5.198867252396e+00
2.151981448920e+01
2.100184958832e+01
2.257933796112e+01
2.121496177451e+01
2.149230853017e+01
2.183173489917e+01
2.146160477196e+01
-3.972973931494e+00
1.588388675800e+01
2.142113319684e+01
1.788839139608e+01
1.148083083199e+00
2.048081108881e+01
2.114529684032e+01
2.032483617960e+01
2.250970091442e+01
1.683099281397e+01
-4.317657847358e+00
2.246875508334e+01
1.843078702347e+01
2.097212651401e+01
2.174560109322e+01
2.234860740123e+01
6.156061958762e+00
1.689387586225e+01
1.432819161436e+01
2.204574873165e+01
1.845720473589e+01
7.424179098637e+00
1.708794274407e+01
7.951789491240e+00
2.162611806380e+01
2.127468896636e+01
1.458288391606e+01
2.178849696202e+01
1.557622925027e+01
2.126886894717e+01
2.171622327597e+01
2.141552923500e+01
2.081928282504e+01
1.843449685255e+01
2.097319996598e+01
1.892006679219e+01
2.075147893215e+01
1.122530447982e+01
2.562087543936e+00
-2.922710068740e+01
9.021384009363e+00
1.920973442282e+01
1.745796416421e+01
1.130149784691e+01
1.815039088691e+01
1.907536286191e+01
2.081418455761e+01
1.614367362562e+01
2.175689923636e+01
2.132623025890e+01
1.794668500905e+01
8.911864970488e+00
-1.422338210515e+01
2.137156358121e+01
3.137367740045e+00
6.679063846899e+00
3.293858309236e+00
1.800007325345e+01
-1.756027483152e+00
2.683557780250e+00
2.134951796067e+01
1.103637814477e+01
2.100178401938e+01
-5.944163736624e-01
1.847664252342e+01
2.099238850508e+01
2.084219741498e+01
2.100452493512e+01
-3.622683554191e+00
1.252645134393e+01
1.993680764775e+01
1.680350461070e+01
2.076690123079e+01
1.064533472141e+01
1.851672029155e+01
8.323848802380e+00
1.853062042863e+01
1.811219577519e+01
1.348750784998e+01
1.249035272961e+01
2.087171440921e+01
1.883833009634e+01
-9.265192641305e+00
1.607041695709e+01
1.983598310339e+01
-1.807914211037e+01
2.116116675727e+01
1.865753074893e+01
2.094000833720e+01
6.480021849839e-01
-1.543222084085e+01
2.119891225538e+01
1.942695542205e+01
1.103291115041e+01
1.904924974166e+01
-1.931209472684e+01
8.483316941005e+00
-1.463216116436e+01
2.074424162791e+01
1.852565538710e+01
2.032630390665e+01
8.928245029185e+00
1.690681233111e+01
2.040592812655e+01
-3.201442131590e+00
1.858635530011e+01
2.125307765911e+01
1.869343155492e+01
2.101493216649e+01
-2.044289708151e+01
2.086471580864e+01
2.158778034042e+01
8.940366404669e+00
1.872258619638e+01
1.891052293808e+01
6.849489936598e+00
1.897213699582e+01
-4.564035292291e+01
8.865857326048e+00
2.069595260145e+01
6.018376884130e+00
1.269080348631e+01
1.928970918183e+01
2.110779250024e+01
1.757792933436e+01
4.396531557783e+00
-3.143050964708e+01
1.520520993087e+01
2.110385559846e+01
1.865747975307e+01
1.430631098870e+01
-2.258485486193e+00
1.904837752166e+01
2.064496533181e+01
1.981907023136e+01
2.155972759466e+01
-2.596483217751e+01
2.127743523382e+01
-1.633891813726e+01
2.100511462618e+01
2.084132725209e+01
-2.197014736698e+00
-4.315601362296e+01
-1.724965257033e+01
-1.911091560556e+01
-4.216418172137e+00
-3.173187797333e+00
3.039339174393e+00
3.789401797791e+00

SCALARS node_materi_stress_average_a_sig float
LOOKUP_TABLE default
-5.234929703286e+00
-5.247201758898e+01
-2.357355833441e+02
-1.662537978907e+02
-1.243312816245e+01
-2.392512332609e+01
-3.472309795702e+01
-4.714724822400e+01
-5.898499716140e+01
-7.078405374904e+01
-8.255634801283e+01
-9.432173659605e+01
-1.061526141066e+02
-1.181053004275e+02
-1.303970573722e+02
-1.425216825940e+02
-1.536600707343e+02
-1.658463778980e+02
-1.784764957622e+02
-1.908194133057e+02
-2.033170787991e+02
-2.159980198305e+02
-2.281612730564e+02
-1.669231440210e+02
-1.662526780186e+02
-1.664704027109e+02
-1.665200834802e+02
-1.663018543060e+02
-1.668593037054e+02
-1.673711414954e+02
-1.674059669928e+02
-1.683310435704e+02
-1.687483429566e+02
-1.690680326258e+02
-1.701652949510e+02
-1.715808846501e+02
-1.723487966742e+02
-1.736447524195e+02
-1.746665658379e+02
-1.764620083724e+02
-1.792302691755e+02
-1.817679233899e+02
-1.845191025340e+02
-1.872064661647e+02
-1.901739560396e+02
-1.931885657153e+02
-1.963331734172e+02
-1.996908562132e+02
-2.030811373167e+02
-2.062095041361e+02
-2.093358295039e+02
-2.120645618707e+02
-2.152680128702e+02
-2.176174080786e+02
-2.194271108365e+02
-2.217523584560e+02
-2.239075308114e+02
-2.258163717253e+02
-2.274964977138e+02
-2.289845753035e+02
-2.300975205508e+02
-2.310358403444e+02
-2.317306832802e+02
-2.328071747275e+02
-2.340884090745e+02
-2.347999955851e+02
-2.336749188620e+02
-2.354624784145e+02
-2.352139582702e+02
-2.358127476984e+02
-2.363592096079e+02
-2.363707558369e+02
-6.477634880410e+01
-7.680317573894e+01
-8.877223760024e+01
-1.004368854059e+02
-1.123199313581e+02
-1.243147703013e+02
-1.360088302727e+02
-1.475551769583e+02
-1.595303374216e+02
-9.889534151908e+00
-5.654660317701e+01
-1.472909605850e+01
-1.745066692112e+01
-1.816954589588e+01
-1.729143614805e+01
-1.720666886231e+01
-1.649333576726e+01
-1.904141697170e+01
-3.142555750661e+01
-4.381248582838e+01
-8.823488544808e+00
-1.608527761222e+01
-2.808778766685e+01
-4.009616703005e+01
-5.096558646910e+01
-5.176180750635e+01
-5.178855587577e+01
-5.171673009118e+01
-5.346573728481e+01
-5.207733015080e+01
-5.214538993820e+01
-5.237352771429e+01
-5.280152338130e+01
-5.299295607489e+01
-5.330580768740e+01
-5.363554983062e+01
-5.422457426275e+01
-5.503370580268e+01
-1.037196829118e+01
-1.165880563671e+01
-1.163572543199e+01
-1.118003375393e+01
-1.089651532487e+01
-1.045568481467e+01
-9.770854075671e+00
-9.074672558436e+00
-8.437734782815e+00
-7.884058668736e+00
-7.375410307909e+00
-7.275225225970e+00
-6.609714109220e+00
-5.784667653547e+00
-5.488995357371e+00
-5.350483562004e+00
-5.146249040038e+00
-4.791895191641e+00
-4.434406010146e+00
-9.768822097692e+00
-9.764908739349e+00
-9.712981871559e+00
-9.672185811494e+00
-9.598334450933e+00
-9.494296830748e+00
-9.362363826177e+00
-9.204662233291e+00
-9.022325454659e+00
-8.810116798406e+00
-8.573482213997e+00
-8.319500761526e+00
-8.051189509850e+00
-7.793161079438e+00
-7.545383748828e+00
-7.413550545313e+00
-7.417560846827e+00
-7.896412031664e+00
-8.492545779644e+00
-7.645217733052e+00
-1.540063481429e+01
-1.697835812434e+01
-1.553804239156e+01
-1.514217575324e+01
-1.504545958972e+01
-1.501418356159e+01
-1.507743890118e+01
-1.516615735616e+01
-1.526884436349e+01
-1.537853930925e+01
-1.548641388759e+01
-1.558192964392e+01
-1.566820955050e+01
-1.573850954209e+01
-1.579614397560e+01
-1.583652510096e+01
-1.586716622118e+01
-1.589807766646e+01
-1.604205633005e+01
-2.807447436997e+01
-2.802539955302e+01
-2.801211503476e+01
-2.801307191910e+01
-2.801520663006e+01
-2.801117221803e+01
-2.801712413980e+01
-2.801041954876e+01
-2.801260856178e+01
-2.804353912394e+01
-2.810122571401e+01
-2.819635908526e+01
-2.834699436815e+01
-2.856031166043e+01
-2.902609799819e+01
-3.043272038137e+01
-2.883850998905e+01
-4.156021620931e+01
-4.305530755037e+01
-4.178052748311e+01
-4.136984289035e+01
-4.107053562195e+01
-4.084593071056e+01
-4.063465884717e+01
-4.049431677965e+01
-4.046692686849e+01
-4.035222480296e+01
-4.028349620257e+01
-4.023931606996e+01
-4.020029858947e+01
-4.014368350411e+01
-4.020208623913e+01
-4.020280820543e+01
-1.181424462710e+01
-1.647821490493e+01
-1.790617460027e+01
-1.816032022735e+01
-1.780097511395e+01
-1.801778212578e+01
-1.544668180352e+01
-2.666561647190e+01
-3.909221643214e+01
-5.134546887230e+01
-1.976633623638e+01
-2.171421695750e+02
-1.281171553675e+01
-1.481200543554e+01
-2.248312797984e+02
-2.217601784611e+01
-1.246853797103e+02
-2.073187727320e+02
-2.416175499787e+01
-1.962468348371e+02
-3.961768644617e+01
-2.291896028787e+02
-1.082536781453e+01
-1.840637792055e+02
-6.281693568448e+01
-7.722420934032e+01
-1.577883117010e+02
-1.759332290799e+02
-1.687379722853e+02
-1.622279918801e+02
-1.623840529202e+02
-1.656347809557e+02
-6.641928868056e+01
-6.426275278900e+01
-6.435681733893e+01
-1.064859357635e+02
-2.297871749091e+02
-1.443186259354e+01
-1.059472705326e+01
-1.966060605913e+02
-6.246055295585e+01
-4.088301610204e+01
-1.698717452079e+02
-2.027738051911e+02
-1.899789232341e+02
-2.114746464765e+02
-2.211549330846e+02
-1.447618588837e+01
-6.470542584464e+01
-2.249453432260e+02
-1.298376548361e+02
-1.206825448953e+01
-1.002796644974e+02
-1.635664196402e+02
-2.377827580045e+01
-2.153086348198e+01
-2.939819574028e+01
-5.098538938551e+01
-1.551887163381e+01
-8.380256695254e+01
-2.323177179315e+02
-9.874529613270e+00
-1.528439444916e+02
-6.838305303904e+01
-7.456227162991e+01
-7.960012277395e+01
-8.693549088959e+01
-9.248313554940e+01
-9.910462429617e+01
-9.381374804267e+01
-1.059750552904e+02
-1.007717762781e+02
-1.047552702629e+02
-1.129396530186e+02
-1.078911021557e+02
-1.200170958384e+02
-1.151453218250e+02
-1.030248514293e+02
-1.104378382437e+02
-9.829466158259e+01
-1.058953635885e+02
-1.179278543665e+02
-1.135361687939e+02
-1.015032287780e+02
-1.092646858750e+02
-9.732338009998e+01
-1.051863564510e+02
-9.334803026633e+01
-1.012685879126e+02
-1.129610359132e+02
-1.090302876665e+02
-9.749672503559e+01
-1.052090556276e+02
-9.386493670843e+01
-1.014685526996e+02
-1.127614338651e+02
-1.089031110686e+02
-9.775137120946e+01
-1.050529771833e+02
-9.404301977813e+01
-1.012097538797e+02
-9.033275336175e+01
-9.729568311306e+01
-1.082097140479e+02
-1.041216763756e+02
-9.331250483099e+01
-9.991062716967e+01
-1.108337392838e+02
-1.063973821138e+02
-1.174413946735e+02
-1.127996433446e+02
-1.018885436634e+02
-1.080714598837e+02
-1.191155447639e+02
-1.141659979056e+02
-1.032333436227e+02
-1.091434479905e+02
-1.202261827166e+02
-1.150134558052e+02
-1.040061303127e+02
-1.097079925993e+02
-1.209156213872e+02
-1.153979434840e+02
-1.042560173140e+02
-1.097727426134e+02
-1.211245953293e+02
-1.153056593333e+02
-1.268404751276e+02
-1.039396283353e+02
-1.093490781664e+02
-9.793737953023e+01
-1.032862319688e+02
-1.201800381298e+02
-9.183733310083e+01
-8.673269661285e+01
-9.713213388827e+01
-1.087300708185e+02
-8.563001635729e+01
-9.088652117175e+01
-7.934257349296e+01
-8.300587998875e+01
-1.254782312783e+02
-8.456233771216e+01
-7.296665956424e+01
-6.784123711063e+01
-6.144102976999e+01
-9.829891217356e+01
-1.102998087104e+02
-1.035482252036e+02
-1.158490772164e+02
-1.094850514767e+02
-6.651422486725e+01
-1.251103004481e+02
-1.223270447419e+02
-8.938016658686e+01
-8.604633218726e+01
-1.219958533093e+02
-9.618406727570e+01
-8.983331629594e+01
-1.015052891961e+02
-1.326931496200e+02
-1.385325284574e+02
-1.444321277914e+02
-1.503671614136e+02
-1.563252841418e+02
-1.623397576594e+02
-1.562526973359e+02
-1.682989275457e+02
-1.620935229768e+02
-1.683600302093e+02
-1.621836283609e+02
-1.742032500061e+02
-1.678877220688e+02
-1.800580918358e+02
-1.736382644493e+02
-1.614976485628e+02
-1.671434102731e+02
-1.550880322452e+02
-1.287105275670e+02
-1.333804358436e+02
-1.401904356149e+02
-1.449690364764e+02
-1.518726867613e+02
-1.567375161235e+02
-1.637171396605e+02
-1.586930561176e+02
-1.271718683004e+02
-8.922901718706e+01
-8.274573708360e+01
-7.881406939837e+01
-7.247714167567e+01
-6.868528988401e+01
-6.253557743643e+01
-5.884104905781e+01
-6.470350620756e+01
-5.492448974565e+01
-6.049824423652e+01
-5.073728348241e+01
-5.600600710726e+01
-1.206345615390e+02
-1.496612027181e+02
-1.615362142062e+02
-1.542383703264e+02
-5.639220317757e+01
-1.793524370843e+02
-1.743004468075e+02
-1.679301549516e+02
-1.706441471757e+02
-5.505001008115e+01
-5.296685927735e+01
-5.623599975198e+01
-1.214730218521e+02
-1.152332146412e+02
-1.801790478329e+02
-6.009971432151e+01
-1.804641429888e+02
-4.548139323084e+01
-1.727648431073e+02
-1.850151126988e+02
-1.501156015802e+02
-1.662623753988e+02
-1.587362598395e+02
-6.608861141708e+01
-6.133524920266e+01
-5.142474277770e+01
-5.684515912825e+01
-6.679047130637e+01
-6.157530011416e+01
-5.139337122493e+01
-5.613394771396e+01
-6.664968466773e+01
-6.102366891079e+01
-5.039885851724e+01
-5.512836678710e+01
-1.916134387045e+02
-4.130957936268e+01
-9.075981210119e+01
-1.865438642074e+02
-1.756133447860e+02
-1.271674133423e+02
-1.210612481047e+02
-1.090386500967e+02
-1.150463380988e+02
-1.269770540360e+02
-1.210716518833e+02
-1.090939830017e+02
-1.152158290076e+02
-1.032066143306e+02
-1.094210916207e+02
-1.213658778243e+02
-1.156735293382e+02
-1.036990152277e+02
-1.100153534584e+02
-9.800535926247e+01
-1.043603229419e+02
-1.163643529052e+02
-4.897024978738e+01
-1.654519898129e+02
-1.775822706019e+02
-9.541163472829e+01
-1.066797208720e+02
-1.132121731148e+02
-1.187000373320e+02
-1.107012596115e+02
-1.226946020043e+02
-4.697595639040e+01
-4.979472663400e+01
-1.333552934287e+02
-1.783744064671e+02
-1.661835661596e+02
-8.265614226636e+01
-7.469514797956e+01
-7.158743358772e+01
-6.331889032317e+01
-6.635964749911e+01
-6.052034929541e+01
-1.558277087338e+02
-1.275739694132e+02
-6.280280008755e+01
-5.150098712550e+01
-1.906472701532e+02
-1.535409142557e+02
-1.246856670562e+02
-1.323250389752e+02
-1.364878456082e+02
-1.441235491510e+02
-1.483419773077e+02
-1.559442721793e+02
-1.517387189042e+02
-1.708903001557e+02
-1.635792560970e+02
-9.859303477011e+01
-1.423653194395e+02
-7.181139043964e+01
-4.371882798420e+01
-4.406281234825e+01
-5.345458160238e+01
-6.514656745180e+01
-1.925367013181e+02
-1.601641253462e+02
-1.524720670898e+02
-5.479988840497e+01
-5.773815760692e+01
-1.784136972087e+02
-9.734699736476e+01
-9.705321778438e+01
-9.107406782982e+01
-4.094210631300e+01
-3.997018968964e+01
-1.329521090568e+02
-5.924784138890e+01
-5.242190162428e+01
-3.628537058534e+01
-3.208648700907e+01
-1.169676697795e+02
-1.288653621600e+02
-1.250828729535e+02
-1.305350607798e+02
-1.860196151857e+02
-4.909206967748e+01
-1.346329746107e+02
-1.601473458497e+02
-1.482979303426e+02
-1.121070474181e+02
-4.088734970202e+01
-3.821120651877e+01
-7.734206202094e+01
-6.008683616264e+01
-5.851458640084e+01
-1.983955906722e+02
-1.387536033490e+02
-1.593605688683e+02
-1.474397378164e+02
-1.713971163072e+02
-3.831981344082e+01
-1.990874582054e+02
-1.839714115498e+02
-1.637753923197e+02
-1.566380311809e+02
-6.208314982745e+01
-5.501971288124e+01
-4.542244286573e+01
-4.757742063844e+01
-8.846580040137e+01
-6.504502663284e+01
-8.594486927984e+01
-7.827236686532e+01
-7.346000636088e+01
-6.957342755179e+01
-6.096857154222e+01
-7.605606066466e+01
-1.264385095594e+02
-1.196302071816e+02
-1.495203371699e+02
-1.384261527428e+02
-1.331530131597e+02
-1.393834159705e+02
-9.164670511056e+01
-8.594467176155e+01
-4.500537099353e+01
-4.021592993124e+01
-1.325552831843e+02
-1.927884389851e+02
-1.388171113966e+02
-1.449638117716e+02
-1.395662563611e+02
-1.916123465515e+02
-8.504713611051e+01
-1.353225875827e+02
-3.687376858191e+01
-1.241763299299e+02
-3.376397574638e+01
-1.298345935862e+02
-1.963415942802e+02
-2.029505635992e+02
-1.829788589773e+02
-6.928661893413e+01
-1.315927578490e+02
-1.275023742284e+02
-6.568446411270e+01
-6.077299697302e+01
-6.890285693880e+01
-5.628861430140e+01
-8.259530623808e+01
-7.689208231044e+01
-1.728313458254e+02
-1.753371820115e+02
-1.680732180723e+02
-1.612199513275e+02
-1.906119034850e+02
-1.857005945542e+02
-6.986479393319e+01
-4.884843553084e+01
-1.447077741697e+02
-7.075081595011e+01
-2.051002899396e+02
-1.989908787471e+02
-2.771679317598e+01
-3.181936519605e+01
-1.409073389837e+02
-3.818236617084e+01
-3.959905699406e+01
-3.651365098966e+01
-2.219268932974e+02
-6.210813800225e+01
-2.087988354291e+02
-7.318304025180e+01
-1.467303072530e+02
-1.390386411873e+02
-7.918034054994e+01
-1.793290536948e+02
-1.345116666512e+02
-1.474035690174e+02
-8.488415504515e+01
-7.854490952491e+01
-9.056034554517e+01
-4.011796454339e+01
-3.034657625367e+01
-1.337429372874e+02
-8.340763807374e+01
-8.977778881386e+01
-5.363691499203e+01
-6.471075087923e+01
-1.314318649534e+02
-1.259360251859e+02
-1.373721261671e+02
-1.417156182978e+02
-1.288173855301e+02
-1.547779906496e+02
-1.429981981201e+02
-1.367047341730e+02
-1.445810145946e+02
-1.521398384087e+02
-8.803832971289e+01
-8.262797718243e+01
-8.770711991558e+01
-1.504502281543e+02
-2.151875222177e+02
-2.094983773287e+02
-2.921807429588e+01
-3.537352900360e+01
-3.261011585355e+01
-3.025775134385e+01
-1.508507400724e+02
-1.460400298813e+02
-1.572692852471e+02
-6.252178789782e+01
-1.550618258956e+02
-2.034892387220e+02
-1.966004430296e+02
-2.118672523414e+02
-1.752261546292e+02
-1.870547683182e+02
-1.832481293750e+02
-2.337177934266e+01
-1.432114766750e+02
-7.894505850259e+01
-2.037024391453e+01
-7.333822031488e+01
-8.014653957178e+01
-6.698890835316e+01
-5.104832536892e+01
-7.644658502837e+01
-8.438281488461e+01
-2.281599176044e+01
-1.560004426234e+02
-2.310965740700e+01
-2.762277494879e+01
-2.114116167531e+02
-2.050332376740e+02
-2.170685652882e+02
-2.105970938554e+02
-1.986300385432e+02
-2.047282525660e+02
-7.224744616069e+01
-2.184164033424e+02
-2.109668302212e+02
-2.245827336262e+02
-4.794949167383e+01
-4.961406721385e+01
-4.129543456670e+01
-3.067795556102e+01
-1.741521369585e+02
-1.647404143749e+02
-1.899363370536e+02
-1.775501817325e+02
-7.371600923172e+01
-7.297986227704e+01
-8.393327073060e+01
-8.236814172659e+01
-9.333570527728e+01
-9.164517599963e+01
-1.028116385825e+02
-1.872721269123e+02
-2.944795189615e+01
-5.816723152777e+01
-1.978842622595e+02
-1.919748342950e+02
-5.204408334294e+01
-3.939718988152e+01
-2.130378923814e+02
-7.223790490295e+01
-1.632075048107e+02
-1.327099742111e+01
-2.112589035948e+01
-7.554855661206e+01
-6.474006944894e+01
-5.193122529219e+01
-4.377504544366e+01
-1.668860994929e+02
-3.123864483024e+01
-3.477468603099e+01
-1.043085700824e+02
-2.686851564816e+01
-1.841271771587e+02
-7.955094153521e+01
-8.146633700869e+01
-4.324901330878e+01
-5.781146674402e+01
-9.567822517045e+01
-8.146722680568e+01
-7.612958377591e+01
-8.655941591662e+01
-4.601906494471e+01
-3.347934380577e+01
-9.370674665649e+01
-1.342377138584e+02
-1.407046036043e+02
-1.520513552078e+02
-1.473317261978e+02
-1.356260738352e+02
-1.423925078260e+02
-1.539169135445e+02
-1.496704310712e+02
-1.631137152043e+02
-1.566126076754e+02
-1.444084685278e+02
-1.511790691368e+02
-1.625312329386e+02
-1.392691162335e+02
-2.026732100105e+02
-8.659247627466e+01
-2.748836186217e+01
-2.429915902733e+01
-8.529579884155e+01
-1.733716761218e+02
-1.698919873841e+02
-6.594181543895e+01
-1.868456597844e+02
-8.331801198705e+01
-4.934848601168e+01
-1.931125305641e+02
-1.289205791106e+02
-1.235297860443e+02
-1.168486064667e+02
-1.678764787451e+02
-9.675914753550e+01
-2.053806166084e+02
-1.379497097570e+02
-1.307305756216e+02
-1.193372981845e+02
-1.373186211587e+02
-2.149202962757e+02
-2.057929644716e+02
-2.077132242216e+02
-1.956483952953e+02
-2.190913665798e+02
-1.790762096257e+02
-1.819084798850e+02
-7.203759433954e+01
-7.720856782303e+01
-8.772354601749e+01
-8.209051628541e+01
-7.165467029681e+01
-7.635503115794e+01
-8.674180896621e+01
-7.053231217233e+01
-1.535222759552e+02
-2.227397160440e+02
-1.502160248773e+02
-1.439600471466e+02
-1.323369492025e+02
-1.141976695865e+02
-1.204130094752e+02
-1.321527880699e+02
-1.078859451189e+02
-1.398995970833e+02
-2.239881881148e+02
-1.418459680879e+02
-1.148598544570e+02
-6.553834640467e+01
-7.696285977201e+01
-7.809743513394e+01
-8.957383099199e+01
-7.735940441728e+01
-1.369070438222e+02
-1.423509878619e+02
-1.359714718383e+02
-1.477737920698e+02
-1.410814042006e+02
-1.301749038370e+02
-1.529653261978e+02
-1.453755016035e+02
-6.439421081533e+01
-1.492502327022e+01
-2.300792213354e+01
-2.262397814733e+01
-3.095650520006e+01
-3.147793013079e+01
-4.049853498870e+01
-3.899677495534e+01
-2.314537754098e+01
-1.389221718828e+01
-2.228025356914e+01
-1.328391699887e+01
-2.172443053789e+01
-3.207549158231e+01
-4.688803033126e+01
-2.284846992473e+02
-1.120110638037e+02
-1.062231672262e+02
-9.490525992831e+01
-1.009510037989e+02
-1.166340741846e+02
-8.867818634436e+01
-8.447717249232e+01
-1.041765896615e+01
-2.006972507749e+01
-1.904942589743e+01
-2.992210861211e+01
-2.987163685494e+01
-2.041282445560e+01
-2.051565724147e+01
-1.070570149687e+01
-2.058357484892e+01
-3.050070515105e+01
-1.063742450090e+01
-1.184479745925e+02
-1.248796803240e+02
-2.254824304278e+02
-6.501310163598e+01
-1.249939344871e+01
-1.601649753902e+02
-1.629440480174e+02
-1.628038276100e+02
-2.093309395937e+02
-2.155005641141e+02
-1.601948533361e+02
-7.416538838314e+01
-1.587229921281e+02
-1.399782786098e+02
-4.387306921474e+01
-7.097677451549e+01
-1.717651591662e+02
-1.558373363016e+02
-1.972546909325e+02
-1.606472180423e+02
-1.858692955672e+02
-2.088424335124e+02
-4.721388665548e+01
-9.735131995240e+01
-9.233544783250e+01
-1.219504268264e+02
-7.811532841342e+01
-1.245636320870e+02
-4.998030313692e+01
-1.821310502455e+02
-8.138328455148e+01
-1.268111536093e+02
-1.025037507062e+02
-8.049029858838e+01
-6.604513482677e+01
-9.027499790559e+01
-1.208938209622e+02
-1.744420659840e+02
-1.282389299112e+02
-1.276874926383e+01
-1.805265809640e+02
-1.443395382193e+02
-1.029784179391e+02
-1.686519007584e+02
-4.614417869799e+01
-1.271280224132e+02
-1.498301327895e+02
-9.065574393721e+01
-3.862501382127e+01
-8.501023375550e+01
-2.049764589417e+02
-1.277980182719e+02
-7.166431676987e+01
-1.239543698409e+02
-8.959153880014e+01
-5.684006908910e+01
-1.451279506106e+02
-1.161848640436e+02
-1.827357446306e+02
-1.469065961773e+02
-7.691498632558e+01
-1.927401827809e+02
-1.151608632197e+02
-1.389425408437e+02
-1.406822233351e+02
-9.560100803214e+01
-1.328571520648e+02
-1.262526248512e+02
-1.735628419048e+02
-7.712415029663e+01
-1.169900232981e+02
-1.224445184151e+02
-1.166607362748e+02
-1.652116996547e+02
-1.866701862983e+02
-4.628602342745e+01
-6.837091231383e+01
-1.030881053814e+02
-1.674865856289e+02
-1.505531735971e+02
-7.795305646807e+01
-1.864084319586e+02
-1.442452008230e+02
-1.265230127534e+02
-5.398766464335e+01
-3.542896599096e+01
-7.474876835219e+01
-1.122080861036e+02
-1.382699770648e+02
-1.586775772987e+02
-1.922981634183e+02
-1.736494434308e+02
-1.808465100297e+01
-6.365284726904e+01
-1.981768690491e+02
-1.303736699225e+02
-1.805255344140e+02
-1.340841010295e+02
-1.848453284183e+02
-4.326389764048e+01
-2.041582823790e+02
-1.723460042907e+02
-6.914084922568e+01
-6.252338814049e+01
-2.183532084520e+02
-1.847023070542e+02
-1.282169404029e+02
-1.253388890998e+02
-4.517532790334e+01
-1.439407443384e+02
-1.211615773080e+02
-1.668867686520e+02
-1.895585660972e+02
-1.113101350570e+02
-1.377020190332e+02
-1.466300317601e+02
-3.005744840518e+01
-5.292020326691e+01
-1.432222953058e+02
-8.077480869474e+01
-1.315074091424e+02
-1.948527759383e+02
-1.487348070721e+02
-9.122218892526e+01
-1.542133321248e+02
-3.403550121431e+01
-1.181803987192e+02
-1.596632398550e+02
-1.330502598567e+02
-3.159226121512e+01
-1.357151175710e+02
-2.025639334065e+02
-9.276395817387e+01
-1.376752587064e+02
-1.303789723526e+02
-2.549446116934e+01
-1.493700680886e+02
-1.449259744882e+02
-1.431965183574e+02
-1.234361938521e+02
-1.613760455163e+02
-3.691059233353e+01
-6.923357335888e+01
-5.809862652495e+01
-9.728547084764e+01
-1.492483973446e+02
-3.971374646917e+01
-1.322070451321e+02
-4.242529152520e+01
-9.257732429455e+01
-1.631283687734e+02
-9.539326884854e+01
-9.832491258015e+01
-6.565599123768e+01
-9.325150590510e+01
-1.348861578719e+02
-9.877656419993e+01
-9.336273733830e+01
-1.515855945949e+02
-9.864247979454e+01
-1.622753611381e+02
-2.295677398023e+02
-7.163652522858e+01
-2.138311783423e+01
-1.556310491173e+01
-3.477113153331e+01
-8.181550677473e+01
-1.343746949269e+02
-7.214889357324e+01
-7.569602485794e+01
-1.684055350961e+02
-1.996801066221e+02
-1.126736249450e+02
-1.871116312940e+02
-1.509782482958e+02
-1.405863252884e+02
-6.199200203790e+01
-2.140148278829e+01
-1.715702115646e+02
-2.071932413124e+01
-3.041349780360e+01
-2.827401591871e+01
-8.102424683238e+01
-3.071562456398e+01
-2.201633108364e+01
-2.030780292126e+02
-7.387515369292e+01
-1.671115166934e+02
-2.077798242431e+01
-1.554042612960e+02
-1.927646299115e+02
-2.282754146171e+02
-1.793988093157e+02
-2.503092113907e+01
-8.635406485850e+01
-1.790623265493e+02
-1.222085592512e+02
-2.301187256501e+02
-7.328089149553e+01
-1.527896114447e+02
-4.186359181589e+01
-1.527640676001e+02
-1.463491915637e+02
-8.707916401657e+01
-8.749878916797e+01
-2.213123306597e+02
-1.638039180798e+02
-2.275360021327e+01
-1.121917205142e+02
-1.009441108165e+02
-2.187262920590e+01
-2.159624087330e+02
-1.575039581857e+02
-2.200734950223e+02
-2.954860290787e+01
-1.972728057885e+01
-2.157585616408e+02
-1.743177952131e+02
-4.736716509578e+01
-1.660405284077e+02
-1.790562977103e+01
-6.105879011585e+01
-1.990589732938e+01
-2.305164023011e+02
-1.544817347214e+02
-1.113948457120e+02
-6.767295051459e+01
-7.358897223376e+01
-1.776996604301e+02
-2.884307958232e+01
-1.550065526584e+02
-2.136357261784e+02
-1.607290208410e+02
-2.130334684340e+02
-2.040560394969e+01
-1.933646891185e+02
-1.997846023605e+02
-6.167698537974e+01
-1.616991339338e+02
-9.047938006600e+01
-3.937243637612e+01
-1.634323621339e+02
-8.575497653572e+00
-6.078698292646e+01
-2.324046337505e+02
-3.755540417243e+01
-8.048063952470e+01
-1.724538741067e+02
-1.371486665034e+02
-1.338773080286e+02
-3.746766677323e+01
-1.445672786012e+01
-1.016838331817e+02
-1.974798295386e+02
-1.592450179401e+02
-9.358614717914e+01
-2.880193312802e+01
-1.666886814430e+02
-1.204657468060e+02
-1.732387319425e+02
-1.965849575739e+02
-1.263432391580e+01
-1.476020054050e+02
-1.891845701738e+01
-2.206017023990e+02
-1.255929518286e+02
-8.976940684148e+00
-1.050514420437e+01
-2.319134273918e+01
-2.172342286401e+01
-3.618045741193e+01
-3.447396497931e+01
-4.872459429439e+01
-4.576027753261e+01

SCALARS node_materi_stress_size_dev_sd_sig float
LOOKUP_TABLE default
4.048695077272e+00
3.268388541407e+01
1.791253149503e+02
1.254387143199e+02
1.022712052928e+01
2.021435540344e+01
2.936249320952e+01
3.977440434644e+01
4.987721616442e+01
5.967249552968e+01
6.947746670333e+01
7.923123882336e+01
8.884668744908e+01
9.847509896751e+01
1.081993188589e+02
1.172283700279e+02
1.252778328441e+02
1.340931892221e+02
1.428624899010e+02
1.511529864595e+02
1.593212482816e+02
1.673482618671e+02
1.748316832636e+02
1.260449002269e+02
1.256412986914e+02
1.258111126193e+02
1.259077162939e+02
1.256684598749e+02
1.261151364371e+02
1.263620895032e+02
1.266046829794e+02
1.273122669409e+02
1.277949469604e+02
1.279982724234e+02
1.290513449569e+02
1.301043221431e+02
1.311070173763e+02
1.321384765053e+02
1.333539876064e+02
1.349745285917e+02
1.372501814064e+02
1.396951181574e+02
1.422438530872e+02
1.446757551478e+02
1.470984703920e+02
1.497389905701e+02
1.523148476405e+02
1.549573238300e+02
1.575108908158e+02
1.599671313331e+02
1.621572864314e+02
1.641594552825e+02
1.662433931034e+02
1.679850393477e+02
1.691275674786e+02
1.705877482933e+02
1.719640383537e+02
1.731666410894e+02
1.741984843601e+02
1.751130380337e+02
1.757883154320e+02
1.763319811118e+02
1.767673664672e+02
1.773651599205e+02
1.781031853363e+02
1.785310327330e+02
1.779392391472e+02
1.788797720490e+02
1.787654079415e+02
1.790848377947e+02
1.794486423576e+02
1.794797728714e+02
4.180528585727e+01
5.119050669517e+01
6.051482852257e+01
6.980404990643e+01
7.944456098472e+01
8.916725576872e+01
9.903540296749e+01
1.089569364009e+02
1.192053363195e+02
1.002411907451e+01
3.123625817609e+01
1.825941528142e+01
2.210654722620e+01
2.338397128115e+01
2.268296721941e+01
2.172345481959e+01
1.655459680182e+01
1.057464670597e+01
1.490118298671e+01
2.232765642874e+01
5.722916283418e+00
6.652264774998e+00
1.450282941221e+01
2.320654197791e+01
3.134728075618e+01
3.180994024871e+01
3.181110190744e+01
3.163239436974e+01
3.272795639859e+01
3.158341821906e+01
3.133466755598e+01
3.132031701171e+01
3.139993367534e+01
3.121328264612e+01
3.098573848746e+01
3.080762281018e+01
3.069132072584e+01
3.077137941566e+01
9.244140522672e+00
9.890384200767e+00
1.019110558439e+01
9.403823389031e+00
7.725197340431e+00
6.602301804508e+00
5.666040613774e+00
4.783386063048e+00
3.984403459515e+00
3.364152690739e+00
2.932048576904e+00
2.999748244609e+00
3.031049723289e+00
2.894114887117e+00
3.234681976730e+00
3.667548974506e+00
3.932640197776e+00
3.859748279744e+00
3.549907994642e+00
4.883696383135e+00
4.694094988957e+00
4.674582359898e+00
4.628481334120e+00
4.549534141529e+00
4.441993053314e+00
4.311665093897e+00
4.167051370288e+00
4.012350926667e+00
3.850673008771e+00
3.697872975108e+00
3.570508328488e+00
3.480915063128e+00
3.445647245028e+00
3.446585053874e+00
3.483355993419e+00
3.470263003935e+00
3.571287642898e+00
4.282709600251e+00
7.729241880396e+00
6.875785908438e+00
7.503032466096e+00
6.920665177012e+00
6.846979335853e+00
6.831229286308e+00
6.786416752657e+00
6.755462041915e+00
6.712200638379e+00
6.668483898337e+00
6.628235965320e+00
6.600316654366e+00
6.583403923317e+00
6.568754814793e+00
6.557026994975e+00
6.550178929662e+00
6.544431906335e+00
6.540963667536e+00
6.542030926965e+00
6.598643110635e+00
1.446768206481e+01
1.439431934799e+01
1.439453431188e+01
1.441746535983e+01
1.442178087825e+01
1.443778762272e+01
1.445670804002e+01
1.445976315747e+01
1.444829818419e+01
1.447131282620e+01
1.447286452435e+01
1.444109414353e+01
1.439821636722e+01
1.429938551843e+01
1.429750054696e+01
1.473967123202e+01
1.324411495555e+01
2.109736366909e+01
2.281127372059e+01
2.245314788910e+01
2.253171983299e+01
2.266550964998e+01
2.278803507418e+01
2.284087511684e+01
2.291290554744e+01
2.299842745746e+01
2.305174055306e+01
2.308881597763e+01
2.312273109804e+01
2.317344090278e+01
2.315808104017e+01
2.326514124799e+01
2.338591550570e+01
1.444714462936e+01
2.063643779770e+01
2.291017598326e+01
2.327138772650e+01
2.325193627602e+01
2.203539928614e+01
1.211830443961e+01
1.266490112248e+01
1.906334809878e+01
2.717601452982e+01
2.004066063348e+01
1.685269814850e+02
5.829342884404e+00
5.920396583075e+00
1.732896218416e+02
2.427757315620e+01
1.037025637352e+02
1.616021683068e+02
2.378978014181e+01
1.524870124955e+02
2.072186012777e+01
1.755934241499e+02
6.721128794551e+00
1.413681069663e+02
3.523537927668e+01
6.503874862192e+01
1.283985492880e+02
1.332591663457e+02
1.266379245755e+02
1.216099394691e+02
1.212809132431e+02
1.240348839319e+02
3.886109522628e+01
3.935345619852e+01
4.046588750135e+01
7.462637870324e+01
1.758318274475e+02
6.389436088140e+00
8.140376572808e+00
1.549646774055e+02
3.985004813623e+01
3.457666196173e+01
1.276159439505e+02
1.579127574126e+02
1.469307189718e+02
1.648206047414e+02
1.710627350900e+02
5.787873682424e+00
3.871006461379e+01
1.733043719707e+02
9.391188369822e+01
6.515640169110e+00
8.413588278477e+01
1.229262362683e+02
2.549446261772e+01
2.306472946343e+01
1.935459148690e+01
2.699750465440e+01
1.419205156344e+01
5.651263160315e+01
1.773387980472e+02
7.979076775950e+00
1.134975625978e+02
3.922567816757e+01
4.374151281032e+01
4.769429770181e+01
5.337065814559e+01
5.771968734706e+01
6.312055877842e+01
5.899409544635e+01
6.900246982363e+01
6.518444242604e+01
6.761514414881e+01
7.536992975753e+01
7.189527106436e+01
8.214881899294e+01
7.903993857535e+01
6.897904168485e+01
7.649268267879e+01
6.662603730027e+01
7.452199281213e+01
8.420956012866e+01
8.250265084846e+01
7.313709312169e+01
8.126791438374e+01
7.228074760836e+01
8.042767341385e+01
7.179644024765e+01
7.982978361745e+01
8.831173367728e+01
8.754173471208e+01
7.932177746366e+01
8.677738718543e+01
7.873160640645e+01
8.586477651722e+01
9.389530637811e+01
9.267792991736e+01
8.467116612847e+01
9.118836211240e+01
8.312781176166e+01
8.936771403140e+01
8.117558274733e+01
8.712242800378e+01
9.529189603371e+01
9.279468550710e+01
8.444832716210e+01
8.985280862350e+01
9.821144238620e+01
9.501725132150e+01
1.033824194078e+02
9.996522621309e+01
9.146389662852e+01
9.620466342693e+01
1.047024373512e+02
1.007478067716e+02
9.210732894540e+01
9.650649189487e+01
1.051490433432e+02
1.007701308889e+02
9.197943597242e+01
9.614936134273e+01
1.049697764702e+02
1.002310485877e+02
9.126806256897e+01
9.527646520063e+01
1.042761359294e+02
9.924036325168e+01
1.082535313232e+02
9.005695792728e+01
9.401279250491e+01
8.463046491386e+01
8.863444521903e+01
1.006849682139e+02
7.908653383206e+01
7.513196011314e+01
8.315290791703e+01
9.267839646345e+01
7.346291726588e+01
7.759276110489e+01
6.779824881271e+01
7.479678433584e+01
9.199642584131e+01
7.198935404832e+01
6.211475217676e+01
5.784466420951e+01
5.210483718983e+01
6.244406177002e+01
7.242631777026e+01
6.709062834811e+01
7.739411777996e+01
7.236089264882e+01
5.639498033365e+01
8.582489619009e+01
8.273264686453e+01
6.391248190957e+01
7.125209718107e+01
1.064446979797e+02
8.170846713294e+01
7.617192969557e+01
8.585519549796e+01
1.131307643385e+02
1.170795060628e+02
1.217987617862e+02
1.256998904856e+02
1.302642452215e+02
1.341117279578e+02
1.295205775923e+02
1.378768021186e+02
1.332741824655e+02
1.385210849721e+02
1.346202032872e+02
1.415666423907e+02
1.369652092327e+02
1.451891508234e+02
1.406016123601e+02
1.322143557519e+02
1.358750039518e+02
1.273739662521e+02
1.116220355690e+02
1.145912130342e+02
1.197601345450e+02
1.226649745415e+02
1.278065799391e+02
1.306657562426e+02
1.357422553010e+02
1.326881744186e+02
8.925836612073e+01
8.133235261993e+01
7.592227567361e+01
7.261161442329e+01
6.718103267288e+01
6.363676202345e+01
5.816256580908e+01
5.432848584791e+01
5.961356922980e+01
5.000507734835e+01
5.512220305805e+01
4.522873886944e+01
5.017946979854e+01
9.591389024763e+01
1.252940752281e+02
1.332908769425e+02
1.276514412660e+02
4.778257045923e+01
1.441980161444e+02
1.427317933891e+02
1.387394673474e+02
1.405673508485e+02
4.645903788156e+01
4.883475753957e+01
5.237943962498e+01
8.254002379169e+01
7.758825986967e+01
1.467377150146e+02
5.075613263636e+01
1.460160569538e+02
4.005442221113e+01
1.395032958357e+02
1.477638234839e+02
1.247765422900e+02
1.357221780737e+02
1.298008416686e+02
6.005169449009e+01
5.502156424631e+01
4.510182670081e+01
4.998522744758e+01
5.980867498180e+01
5.432716332705e+01
4.427375272377e+01
4.865878664813e+01
5.875441211768e+01
5.306374110407e+01
4.272500187051e+01
4.719890669164e+01
1.522920061566e+02
3.495031183868e+01
5.900836933297e+01
1.506190706993e+02
1.434683730496e+02
8.784197967970e+01
8.297493288687e+01
7.289230784124e+01
7.837113782825e+01
8.852902253265e+01
8.391462729467e+01
7.394322364153e+01
7.943238988072e+01
6.960936496632e+01
7.507539693925e+01
8.497563766642e+01
8.061089115826e+01
7.085409172630e+01
7.632157183356e+01
6.666954078616e+01
7.201713891528e+01
8.182547611271e+01
4.103406135427e+01
1.373430445972e+02
1.452056117812e+02
8.067042735982e+01
8.986693316305e+01
9.533489100605e+01
9.939941767209e+01
7.741152247669e+01
8.739035613065e+01
4.308900761851e+01
4.631744099981e+01
9.299012357974e+01
1.431377520427e+02
1.347442566008e+02
7.076140711475e+01
6.326858271004e+01
6.275444204445e+01
5.511925122459e+01
5.540927158005e+01
5.441218286600e+01
1.305250336624e+02
9.060398269532e+01
5.358172204163e+01
4.344247625195e+01
1.513486845683e+02
1.293671220719e+02
9.695694548595e+01
1.044505181670e+02
1.057932536786e+02
1.131622750398e+02
1.147967165044e+02
1.219910873150e+02
1.202665098246e+02
1.379876152779e+02
1.289452937270e+02
6.754298622415e+01
1.195505453453e+02
6.313588879399e+01
3.665651491301e+01
3.657400184410e+01
4.503032220060e+01
5.501608144233e+01
1.545013072001e+02
1.238991360089e+02
1.165700797455e+02
4.738695595497e+01
4.725488271191e+01
1.436854155294e+02
6.241216166225e+01
6.423457002348e+01
6.002008255811e+01
3.418654016918e+01
3.233681029422e+01
9.414846235872e+01
5.533291242657e+01
4.901097913685e+01
2.964058977855e+01
2.428609466458e+01
8.270296989369e+01
9.266164316870e+01
1.046144667203e+02
1.086147559016e+02
1.505494947261e+02
4.129938700307e+01
9.741396318746e+01
1.338796866654e+02
1.257784694474e+02
9.387950033360e+01
3.719129713802e+01
3.373473346991e+01
6.862343383393e+01
5.164321955801e+01
4.931051637843e+01
1.581540160900e+02
9.888357010873e+01
1.270652551255e+02
1.185873996514e+02
1.355911108849e+02
3.072039398768e+01
1.584156877891e+02
1.468028661013e+02
1.255968164721e+02
1.186444130196e+02
5.774227759230e+01
5.126510133101e+01
4.250396441545e+01
4.449578450532e+01
5.519382907870e+01
5.978411117973e+01
5.683028776632e+01
4.913120056969e+01
4.719189018261e+01
5.517593060707e+01
4.661901693858e+01
7.019247283300e+01
1.091388386875e+02
1.006866665381e+02
1.236500481893e+02
1.177860224327e+02
9.506332141840e+01
1.008328646518e+02
6.129703264196e+01
5.710190947258e+01
3.760066964635e+01
3.320959869769e+01
1.121856065126e+02
1.543687424768e+02
9.826815675187e+01
1.036359570898e+02
9.836274702671e+01
1.540430850518e+02
7.779841727574e+01
1.165560939163e+02
2.955196868955e+01
1.019999081475e+02
2.746160628070e+01
9.399204751950e+01
1.549211510567e+02
1.592841654434e+02
1.460029754981e+02
3.988065511561e+01
1.087421509502e+02
1.071574405808e+02
3.946875285616e+01
3.773717591707e+01
4.614630594480e+01
3.722071717795e+01
7.284214824374e+01
6.732814545520e+01
1.337475372928e+02
1.375587367693e+02
1.281781537639e+02
1.212577311753e+02
1.514884030956e+02
1.489599789670e+02
5.904779339601e+01
3.882441545095e+01
1.044989630064e+02
4.204702395470e+01
1.618437263545e+02
1.580243372644e+02
1.857887293549e+01
2.351035379878e+01
1.029337637123e+02
3.581149029918e+01
3.726763996079e+01
3.383020000786e+01
1.709042523307e+02
3.971095008139e+01
1.628120701183e+02
5.485948218987e+01
1.077657938008e+02
1.152274194660e+02
6.977969456820e+01
1.463950499553e+02
9.756273620743e+01
1.087636445232e+02
5.472957217129e+01
5.041462605731e+01
5.866968890270e+01
3.462219522139e+01
2.343446137004e+01
9.623168792459e+01
7.067100256666e+01
7.595867697273e+01
4.551267871458e+01
5.566327420310e+01
1.098212347556e+02
1.059414017633e+02
1.016195775049e+02
1.039054875687e+02
9.818527013778e+01
1.301688159810e+02
1.219387473107e+02
1.175695252318e+02
1.052409390828e+02
1.121876891079e+02
7.809284581559e+01
7.384599439364e+01
7.684465440291e+01
1.094598887086e+02
1.669794628117e+02
1.635308271471e+02
2.301517423893e+01
2.866490007985e+01
2.838724304534e+01
2.496324651225e+01
1.090471373599e+02
1.041867595755e+02
1.152762160515e+02
5.269328777697e+01
1.252127380939e+02
1.611075199153e+02
1.571169600214e+02
1.660377329941e+02
1.400844465478e+02
1.480739750771e+02
1.439420986102e+02
1.384528193536e+01
1.052055485618e+02
5.146068360963e+01
9.569466280390e+00
4.742544956570e+01
5.292405683980e+01
4.286591502592e+01
4.293983157613e+01
4.791013667407e+01
5.338773977539e+01
1.659404321530e+01
1.150185315914e+02
1.791583167440e+01
2.208252417309e+01
1.654979712866e+02
1.615428844027e+02
1.687519887570e+02
1.647146464413e+02
1.573901530149e+02
1.610040538260e+02
4.608600648764e+01
1.692542037917e+02
1.646167443924e+02
1.730350904364e+02
2.850926847313e+01
4.586944277039e+01
3.834519409482e+01
2.982822554250e+01
1.325557911577e+02
1.236122569813e+02
1.506585983315e+02
1.423373252711e+02
4.827665333369e+01
4.789349557252e+01
5.631995149795e+01
5.527532589165e+01
6.385786392750e+01
6.257882726057e+01
7.142006144289e+01
1.461893296973e+02
2.793218867929e+01
3.261259957024e+01
1.565782322501e+02
1.533781996936e+02
3.763014739000e+01
2.948908587235e+01
1.666867297586e+02
6.629516534895e+01
1.217298608647e+02
7.554821529818e+00
1.208783572223e+01
6.816008735448e+01
4.605378279377e+01
4.671176734880e+01
3.953551952237e+01
1.383449267329e+02
2.433610299031e+01
3.142604248973e+01
7.237123628573e+01
2.383147818830e+01
1.466980466950e+02
7.272689046166e+01
6.335276976861e+01
4.011101043910e+01
5.319148668108e+01
6.182192410581e+01
4.925374682942e+01
4.546184726137e+01
7.876212395954e+01
3.940371630584e+01
3.086419386885e+01
6.492244151961e+01
9.331573212908e+01
9.919494782970e+01
1.098636885656e+02
1.053727374240e+02
9.455621436974e+01
1.009021862938e+02
1.118045668738e+02
1.078585664294e+02
1.206962912474e+02
1.148380125147e+02
1.036451246789e+02
1.104755489805e+02
1.208045463871e+02
9.978425677105e+01
1.589880348634e+02
7.650122008119e+01
1.890229292843e+01
1.694308633582e+01
6.346283706159e+01
1.310070405980e+02
1.275403771138e+02
6.141393547352e+01
1.439438644613e+02
5.186153404414e+01
4.467790252344e+01
1.497014426282e+02
8.843820902015e+01
8.373825357233e+01
7.785787666820e+01
1.257310495883e+02
6.305719729089e+01
1.599191010063e+02
1.172392516902e+02
1.114532935328e+02
1.033741142976e+02
9.665085202863e+01
1.671096115873e+02
1.620769230751e+02
1.633283077260e+02
1.562360979997e+02
1.698136594508e+02
1.364587209043e+02
1.392755430636e+02
6.425632227187e+01
6.947897413296e+01
7.876969018928e+01
7.428919420077e+01
6.485535510830e+01
6.958595813920e+01
7.872356423505e+01
6.467975038988e+01
1.138695388729e+02
1.720652768124e+02
1.262972601265e+02
1.221494136017e+02
1.136412622051e+02
9.671467126856e+01
1.020026500911e+02
1.110814167701e+02
9.132941578618e+01
1.116647551365e+02
1.727717562952e+02
1.212665014090e+02
9.800689824943e+01
3.877362078855e+01
4.672887606920e+01
4.698140290611e+01
5.587907823579e+01
4.756556131214e+01
1.137025016233e+02
1.175569414803e+02
1.125681555471e+02
1.213582044132e+02
1.162194466190e+02
1.079286672243e+02
1.249540215548e+02
1.193190921409e+02
3.890962309343e+01
5.864471636587e+00
1.378230480844e+01
1.380731614250e+01
2.276584187722e+01
2.327299654584e+01
3.296322874476e+01
3.135664590725e+01
1.345276489816e+01
5.694629203386e+00
1.418526235780e+01
5.707128820887e+00
1.427749426058e+01
2.460156488377e+01
3.924568887029e+01
1.750475927228e+02
9.363523024747e+01
8.911812447990e+01
7.978537761441e+01
8.488116118927e+01
9.747310306502e+01
7.461041075309e+01
7.113143422374e+01
8.316882363533e+00
1.685116498964e+01
1.607434904360e+01
2.538376152000e+01
2.501895374715e+01
1.681671987741e+01
1.670215903419e+01
7.821382572153e+00
1.645677152850e+01
2.525567020478e+01
7.220891451156e+00
8.436881717916e+01
8.974943800632e+01
1.736649243381e+02
4.028139198793e+01
6.239240199053e+00
1.198143747887e+02
1.218875755764e+02
1.218754078100e+02
1.631340868153e+02
1.669963075140e+02
1.200446045496e+02
6.358099761391e+01
1.159988212601e+02
1.018972520311e+02
3.926230997642e+01
6.162345049269e+01
1.384654931056e+02
1.285277796343e+02
1.557923726998e+02
1.310796322808e+02
1.487611686010e+02
1.642300412635e+02
3.955317686507e+01
6.537042564835e+01
6.242021978974e+01
8.618492957529e+01
6.637076281307e+01
1.038011232231e+02
4.211567952244e+01
1.406131008303e+02
5.543720025056e+01
1.090909343136e+02
8.724176631796e+01
6.936801532634e+01
5.745665051555e+01
7.785075529139e+01
1.032034561584e+02
1.423109654724e+02
9.180187175451e+01
7.936636326059e+00
1.465621491961e+02
1.209573317200e+02
6.849828685393e+01
1.385672872277e+02
3.850146224181e+01
8.948808980522e+01
1.085791301334e+02
5.774172246548e+01
3.200703676688e+01
5.580676717067e+01
1.619244139759e+02
8.776451165755e+01
6.068348239071e+01
1.083248804372e+02
7.151863431297e+01
3.087252152827e+01
1.062692477836e+02
9.915836294896e+01
1.482927025739e+02
1.246777777220e+02
6.503022187405e+01
1.539295264274e+02
1.010047506996e+02
9.976331501951e+01
1.073345422827e+02
8.650399358307e+01
9.326599208685e+01
1.094183023810e+02
1.412129648522e+02
5.484082523143e+01
8.921992529703e+01
8.644028485876e+01
9.493200514029e+01
1.337606646646e+02
1.502964011765e+02
4.013113405039e+01
6.161873894595e+01
6.756752430230e+01
1.307456672680e+02
1.101131714371e+02
6.340951345523e+01
1.496232695924e+02
1.036272662167e+02
1.071585185133e+02
4.558745606625e+01
2.977244492211e+01
6.885576229247e+01
9.738946395907e+01
1.160784686466e+02
1.163879641643e+02
1.531582892490e+02
1.426644699770e+02
1.745273021456e+01
3.595953291628e+01
1.566876907746e+02
1.130498355407e+02
1.462195602676e+02
1.107821808525e+02
1.434086253888e+02
2.836399192134e+01
1.603599354376e+02
1.419433129703e+02
6.411101988013e+01
3.993652622688e+01
1.690841419962e+02
1.497789203321e+02
1.032179117065e+02
1.092390127495e+02
2.344157161276e+01
1.199072484380e+02
9.041077524991e+01
1.249789363702e+02
1.526501888285e+02
7.318545716717e+01
1.149122758450e+02
1.215589185870e+02
2.495369884744e+01
2.999802077433e+01
1.187156446600e+02
7.388566463939e+01
1.136182507691e+02
1.537680556595e+02
1.225064091267e+02
8.279124425017e+01
1.262560881979e+02
1.905658139233e+01
7.934105968538e+01
1.299433310188e+02
9.971542360557e+01
2.596940498890e+01
1.102136900250e+02
1.588368081957e+02
8.072312039432e+01
1.178932148728e+02
9.005335299185e+01
2.083474197247e+01
1.262546625171e+02
1.091695515334e+02
1.169059457945e+02
1.054026972151e+02
1.345342447700e+02
3.109528935868e+01
5.949292835049e+01
4.950178450558e+01
8.755962976098e+01
1.113462197372e+02
3.344608208857e+01
9.272153026999e+01
3.498464142675e+01
8.332398326186e+01
1.318303414653e+02
6.564381052677e+01
8.773231513432e+01
5.538878867455e+01
8.304647885228e+01
1.134336672454e+02
8.721991367198e+01
8.217385527335e+01
1.120902609729e+02
8.613859964547e+01
1.216472774725e+02
1.756248281526e+02
4.705110339762e+01
2.394880919051e+01
6.264710780285e+00
3.270201714267e+01
7.127802628894e+01
9.653397101942e+01
4.733709647685e+01
6.549479814668e+01
1.259875545906e+02
1.553431683048e+02
7.956693095449e+01
1.506560963813e+02
1.235071267231e+02
1.031045318867e+02
3.894019553791e+01
1.452948889699e+01
1.381177740125e+02
2.402162553982e+01
2.926706788916e+01
2.611905207724e+01
6.852489690881e+01
2.276574471091e+01
2.383886810587e+01
1.601330305041e+02
4.643614401932e+01
1.335829476300e+02
2.176137766956e+01
1.140880885121e+02
1.513445596319e+02
1.752044781710e+02
1.421171947622e+02
2.086726288180e+01
5.385877895853e+01
1.375644259757e+02
8.717642381184e+01
1.760866161883e+02
4.495584392122e+01
1.134109702874e+02
3.510842337885e+01
1.135136906450e+02
1.068655703996e+02
5.846876686294e+01
5.386140402937e+01
1.705403886233e+02
1.214277710917e+02
1.701742218247e+01
7.887116290763e+01
8.510592873348e+01
1.143310597888e+01
1.682603683005e+02
1.168011273268e+02
1.700312689643e+02
2.499059938168e+01
1.421273806330e+01
1.683052013156e+02
1.321431934399e+02
4.019566776248e+01
1.245484136935e+02
1.152092407722e+01
3.765916855978e+01
1.532905944134e+01
1.762388831212e+02
1.141775345728e+02
9.328959274818e+01
3.920859169955e+01
6.208480385601e+01
1.385315667859e+02
2.158493138233e+01
1.150078150390e+02
1.670833741324e+02
1.185449554088e+02
1.655134744559e+02
1.006314049619e+01
1.512039560839e+02
1.589042744140e+02
3.904167227674e+01
1.192706199371e+02
7.624967307103e+01
3.269821783301e+01
1.227082081075e+02
6.827398037883e+00
3.880175441721e+01
1.772948101138e+02
3.131198194723e+01
5.379423854922e+01
1.300494108929e+02
1.131564073032e+02
9.734043208004e+01
2.966569033072e+01
6.380547651136e+00
7.061444541629e+01
1.551102352367e+02
1.175301670469e+02
6.374965085115e+01
2.223447070319e+01
1.249846485938e+02
1.003014489073e+02
1.331952672353e+02
1.565233607587e+02
1.082699941136e+01
1.209849498992e+02
1.405133698243e+01
1.707233937066e+02
1.043647945487e+02
6.883058505087e+00
5.047208782411e+00
1.057697081185e+01
1.003870545889e+01
1.756781505596e+01
1.908307605255e+01
2.579864628012e+01
2.754525182785e+01

SCALARS node_materi_strain_total_average_a_ept float
LOOKUP_TABLE default
5.430152990815e-06
4.812974002219e-04
4.149084239592e-04
6.930565598426e-04
1.639763122206e-05
3.817906049269e-05
5.947320251214e-05
8.283645113023e-05
1.056612994074e-04
1.282983573430e-04
1.507438003447e-04
1.730496448282e-04
1.952427962532e-04
2.173957989670e-04
2.398025546205e-04
2.616795030958e-04
2.813352438379e-04
3.025070802428e-04
3.240253270183e-04
3.445882232176e-04
3.650316467930e-04
3.853191045053e-04
4.049835244350e-04
6.943506634130e-04
6.930184787538e-04
6.930988145466e-04
6.926625550289e-04
6.912189905976e-04
6.913164896728e-04
6.902079646876e-04
6.884098603874e-04
6.873244299867e-04
6.852983637043e-04
6.816710429150e-04
6.792212010572e-04
6.751666956394e-04
6.703726564947e-04
6.643944952877e-04
6.574857569002e-04
6.496747367570e-04
6.413184263482e-04
6.323394240118e-04
6.225825945195e-04
6.113965037958e-04
5.990200668127e-04
5.866890628791e-04
5.737960257609e-04
5.609423526827e-04
5.484167084565e-04
5.359177736316e-04
5.240985479256e-04
5.121080882900e-04
5.018325027362e-04
4.914099268490e-04
4.807274614563e-04
4.713216320778e-04
4.637854538967e-04
4.566811279805e-04
4.497394933965e-04
4.447158265760e-04
4.387609352322e-04
4.344387098241e-04
4.297003974820e-04
4.265612762004e-04
4.251415033906e-04
4.236368555760e-04
4.183256565050e-04
4.192751990880e-04
4.166042712767e-04
4.159881280528e-04
4.164068696402e-04
4.158993163482e-04
5.033766638608e-04
5.250027558208e-04
5.466779690819e-04
5.680642482243e-04
5.899731096631e-04
6.121497735452e-04
6.341207812300e-04
6.563354219614e-04
6.785960922076e-04
-1.413503396127e-05
4.655045050350e-04
2.088253136749e-05
8.074441030897e-05
1.485499480027e-04
2.177525539903e-04
2.885672774737e-04
3.623421471681e-04
4.020913721932e-04
4.225494238086e-04
4.431113056374e-04
4.019685421435e-04
4.159121733752e-04
4.377129470049e-04
4.591913521219e-04
4.786020635559e-04
4.799311766049e-04
4.797977398442e-04
4.792915724419e-04
4.819286662531e-04
4.789973760637e-04
4.782654858382e-04
4.778728388803e-04
4.773135161828e-04
4.760589708995e-04
4.747064657535e-04
4.729132006831e-04
4.708582866670e-04
4.685811249132e-04
-1.820540379820e-05
-2.271045140808e-05
-2.385076595559e-05
-2.206534343679e-05
-1.860483910804e-05
-1.579814449040e-05
-1.307094369374e-05
-1.040962237705e-05
-7.862160223292e-06
-5.499434027575e-06
-2.972655299508e-06
-1.383565820097e-06
4.688461090351e-07
2.024060999806e-06
3.379415119125e-06
4.307621906532e-06
5.046267271763e-06
5.499756114574e-06
5.337874097424e-06
4.048520311143e-04
4.062249406349e-04
4.061697336589e-04
4.063258790682e-04
4.066345988874e-04
4.070619849228e-04
4.075860255184e-04
4.081938123484e-04
4.089087275456e-04
4.097310301074e-04
4.106520916212e-04
4.116402279095e-04
4.126435465496e-04
4.137295251542e-04
4.146530947756e-04
4.154257188715e-04
4.149999092650e-04
4.140168256037e-04
4.088165467866e-04
3.967106183345e-04
4.105624894361e-04
4.160092266364e-04
4.183794950500e-04
4.194079492011e-04
4.199853676921e-04
4.199715533463e-04
4.198233185891e-04
4.195123630022e-04
4.191200038264e-04
4.187113223266e-04
4.183204545304e-04
4.179546878839e-04
4.176273316203e-04
4.173291804585e-04
4.170902369462e-04
4.169069492462e-04
4.167913952605e-04
4.166709449575e-04
4.161014245508e-04
4.378122027182e-04
4.379987671710e-04
4.380483579629e-04
4.380810561800e-04
4.381242017930e-04
4.381519452164e-04
4.381808980193e-04
4.381466655271e-04
4.380547387793e-04
4.379153960792e-04
4.376710347741e-04
4.372444206822e-04
4.365577031750e-04
4.353962367861e-04
4.340586582011e-04
4.321680686601e-04
4.268826161267e-04
4.456944415488e-04
4.508632417928e-04
4.526755877674e-04
4.544169928427e-04
4.557327727228e-04
4.567265217156e-04
4.574000742417e-04
4.579823933458e-04
4.585390482908e-04
4.587575251468e-04
4.590094075440e-04
4.591480877893e-04
4.592773823366e-04
4.593072877942e-04
4.594174005694e-04
4.593859343377e-04
-1.457748871996e-06
4.940341642073e-05
1.143465475300e-04
1.840479754378e-04
2.527872387502e-04
3.226064432444e-04
3.887723780885e-04
4.139423689590e-04
4.341931807784e-04
4.557234583114e-04
7.965685839607e-05
4.612694247908e-04
2.939169930845e-06
-7.325139128372e-06
4.304876642269e-04
2.115415125718e-04
2.295370625676e-04
4.981331597884e-04
3.373536752075e-04
5.456573358248e-04
4.184348148388e-04
4.180824819315e-04
8.901184644836e-06
5.946791649739e-04
4.679514351903e-04
1.406378226100e-04
2.886535083278e-04
6.244895084883e-04
6.559657443057e-04
6.808494256241e-04
6.746323834725e-04
6.693764431629e-04
4.860680389676e-04
4.950632298450e-04
4.995506003280e-04
5.792101460108e-04
4.110677719165e-04
-5.769775542366e-06
1.287760446786e-05
3.541423205404e-04
4.985861233955e-04
7.097836684620e-05
6.389940787332e-04
5.228662968522e-04
5.707723846430e-04
4.787302423713e-04
4.470654227194e-04
-2.365635944110e-06
4.908911924437e-04
4.191840723899e-04
6.224406186472e-04
7.027432343573e-06
1.843327921997e-04
6.853720240541e-04
2.769547235438e-04
1.439565736879e-04
3.878644574166e-04
4.433546048436e-04
2.129670058013e-05
5.376300064324e-04
4.122028310333e-04
1.306151607642e-05
6.663896655183e-04
4.790223678030e-04
4.825754778019e-04
4.958050525411e-04
4.989319318080e-04
5.133240983699e-04
5.162125653373e-04
5.010412723513e-04
5.185251515373e-04
5.024079285102e-04
5.313395228695e-04
5.202072246556e-04
5.031751114904e-04
5.213037109077e-04
5.034431318915e-04
4.857656185085e-04
4.852127135854e-04
4.678499069321e-04
4.664404836772e-04
4.844203633996e-04
4.649089257604e-04
4.469683855181e-04
4.448323583061e-04
4.267119489971e-04
4.241085617161e-04
4.054860957567e-04
4.027024481431e-04
4.219952862730e-04
4.005418473424e-04
3.807049552789e-04
3.786674339381e-04
3.581334276980e-04
3.563435981653e-04
3.773003787517e-04
3.554025882625e-04
3.335708224911e-04
3.333404284646e-04
3.106088549890e-04
3.112640293907e-04
2.876218991308e-04
2.891022844184e-04
3.124809003965e-04
2.911020411860e-04
2.670202879664e-04
2.698834172177e-04
2.936771918057e-04
2.732518563338e-04
2.967051257626e-04
2.770429666607e-04
2.533354227570e-04
2.578568688650e-04
2.811584502145e-04
2.626017730977e-04
2.391388381063e-04
2.446043017024e-04
2.676811469977e-04
2.503098598641e-04
2.271336320999e-04
2.334441580046e-04
2.563568958677e-04
2.399224722440e-04
2.169906641572e-04
2.239337525314e-04
2.466674457102e-04
2.310359778244e-04
2.535568785771e-04
2.081515652506e-04
2.157215545285e-04
1.926663640789e-04
2.007668179450e-04
3.765945658748e-04
1.776638631629e-04
1.694279774417e-04
1.861968911800e-04
2.090550794395e-04
1.630370836544e-04
1.719619315657e-04
1.487980642290e-04
2.864644059111e-04
4.834922363490e-04
1.580516803909e-04
1.349324745078e-04
1.253659333568e-04
1.116408820132e-04
5.275217273710e-04
5.467340468012e-04
5.417667795438e-04
5.619406919479e-04
5.565939494645e-04
1.213793848070e-04
5.390494721208e-04
5.666313974981e-04
4.298149422101e-04
3.607218151325e-04
3.167468255968e-04
1.808962567409e-04
1.672892205327e-04
1.898423192990e-04
2.690901600812e-04
2.756842025609e-04
2.910843226976e-04
2.973630790395e-04
3.125911871867e-04
3.185952267512e-04
3.038325739399e-04
3.248075730809e-04
3.104871972566e-04
3.336148723548e-04
3.280802843540e-04
3.312230535589e-04
3.173421332280e-04
3.378949413087e-04
3.244034436344e-04
3.036150394670e-04
3.110371934397e-04
2.901437606500e-04
3.194681088818e-04
3.391771949212e-04
3.415716651570e-04
3.609405364242e-04
3.630520964712e-04
3.820878982609e-04
3.838659279193e-04
3.655081436021e-04
5.217635489093e-04
2.452804258741e-04
2.419946536326e-04
2.197159001153e-04
2.159138593823e-04
1.930718054395e-04
1.886656240924e-04
1.651456711588e-04
1.708426387213e-04
1.423227836387e-04
1.494051949220e-04
1.204700209112e-04
1.287870793272e-04
4.203008317816e-04
3.805716722982e-04
4.014318650562e-04
4.002817131084e-04
1.017085134490e-04
3.316922728547e-04
3.489027650222e-04
3.437467775020e-04
3.861359179019e-04
9.844976674454e-05
1.601117873915e-04
1.848735557569e-04
5.770598938896e-04
5.711439192882e-04
3.644298186551e-04
1.082280094690e-04
3.453314364287e-04
1.125592262048e-04
3.186692399325e-04
3.391443280716e-04
2.893662598861e-04
4.209950637375e-04
4.200462231825e-04
1.567261977942e-04
1.370726287978e-04
1.097358656544e-04
1.188000804842e-04
1.454134186185e-04
1.273978534500e-04
1.008640877780e-04
1.100913362494e-04
1.362315608629e-04
1.195224370356e-04
9.344140107001e-05
1.034120478162e-04
3.519300090801e-04
9.055853701981e-05
4.690266685864e-04
3.691625483127e-04
4.038946556308e-04
5.921547988627e-04
5.856524218184e-04
5.646451095098e-04
5.786874430963e-04
6.001210947392e-04
5.926806786369e-04
5.712952378526e-04
5.848830718262e-04
5.635331500234e-04
5.767666752199e-04
5.984499316235e-04
5.899975387220e-04
5.683415451394e-04
5.812901840096e-04
5.596180641052e-04
5.722784815693e-04
5.942373921114e-04
8.605309964129e-05
3.682840373984e-04
3.888579065153e-04
1.770321264701e-04
1.987081935764e-04
2.121398893352e-04
2.210970548602e-04
5.848469129649e-04
6.070946900297e-04
1.558205611613e-04
1.818827642231e-04
5.981656430026e-04
3.265803284249e-04
3.058866766961e-04
3.372128811896e-04
3.403363935437e-04
3.154941291990e-04
3.188459737213e-04
3.448722665972e-04
2.919588961693e-04
3.225615305435e-04
6.119429739818e-04
1.157314281052e-04
9.173359938486e-05
3.469156176050e-04
3.473372751539e-04
4.414332061911e-04
4.400759768980e-04
4.610437152092e-04
4.598675301339e-04
4.808452354755e-04
4.796529865406e-04
4.589348378112e-04
4.407592228167e-04
4.787745219009e-04
5.627495403971e-04
3.790974961354e-04
1.450974538607e-04
7.584160421039e-05
7.689860675521e-05
9.514569405823e-05
1.179475686285e-04
3.844365989951e-04
5.008186520183e-04
5.016648411828e-04
3.248585732423e-04
3.512590319964e-04
4.410844514014e-04
5.368257098805e-04
5.503494593021e-04
5.425232323808e-04
7.075007822490e-05
6.745226781581e-05
6.144756795744e-04
2.100201588758e-04
2.085541554465e-04
8.118637010269e-05
5.927440148864e-05
5.972927177472e-04
6.194779688483e-04
2.342599979011e-04
2.428625725508e-04
3.803432872596e-04
8.779726182882e-05
6.293914468610e-04
3.508540668666e-04
3.295124786343e-04
2.077402269557e-04
1.523138437956e-04
1.254483274758e-04
1.618246573972e-04
1.132054875412e-04
1.048740345952e-04
4.001558674186e-04
6.219309278322e-04
4.582771178480e-04
4.382097655039e-04
4.781204185439e-04
6.218180862035e-05
3.891143662536e-04
3.346999309972e-04
5.211286958038e-04
5.223106746305e-04
2.355671628277e-04
2.360707835602e-04
2.088574560920e-04
2.382852438659e-04
4.856440536986e-04
2.618914458023e-04
4.516069770217e-04
4.535477464334e-04
4.365675771829e-04
3.691344744674e-04
3.756684338680e-04
2.391541257380e-04
3.370653040511e-04
2.257812345053e-04
2.825764250143e-04
2.849368698437e-04
6.203779787598e-04
6.341739524904e-04
5.469151502727e-04
5.381443323680e-04
7.787365007823e-05
6.744581544226e-05
2.606251609260e-04
3.739652162425e-04
6.136136047217e-04
6.197628898541e-04
6.036318675690e-04
3.963994434382e-04
2.240602992977e-04
3.225174407687e-04
6.984789226207e-05
3.978370048015e-04
5.423081285511e-05
5.029976903858e-04
3.549823456718e-04
3.668736459338e-04
4.602050923662e-04
4.693504754959e-04
3.973915929655e-04
3.765999101491e-04
4.393529998136e-04
4.232029469208e-04
4.184543522505e-04
4.048164867149e-04
1.698363325055e-04
1.535964654958e-04
5.224025239726e-04
4.982389853366e-04
5.421580133069e-04
5.436529777638e-04
4.603979104957e-04
4.415201929625e-04
1.268769318044e-04
3.596627048457e-04
6.366703696834e-04
4.548241166976e-04
3.929853780232e-04
3.794339160798e-04
3.842807302231e-05
4.945497656606e-05
6.420555734388e-04
2.098792959295e-04
2.404094711002e-04
1.793276608071e-04
3.943639134862e-04
4.984139399649e-04
3.750101795464e-04
3.921413607983e-04
6.522094703810e-04
3.977281145395e-04
3.126144251318e-04
3.761874055675e-04
6.305625754555e-04
6.550410276470e-04
5.298068173995e-04
5.210431374992e-04
5.366602662351e-04
1.052607074138e-04
7.031338098111e-05
6.252926768404e-04
1.540344619553e-04
1.656348569155e-04
9.752359844499e-05
1.220857278159e-04
2.476877605284e-04
2.395963790579e-04
5.026648652828e-04
5.224320533303e-04
4.622366588713e-04
3.337103749578e-04
3.121001967953e-04
3.077666375986e-04
6.422002761131e-04
6.583510386519e-04
1.864697759032e-04
1.790854654093e-04
1.774711246062e-04
6.441966474836e-04
3.866051539718e-04
3.783983086213e-04
4.352987347814e-05
5.664930562680e-05
1.206141279833e-04
9.348372431310e-05
6.250069181196e-04
6.085807415536e-04
6.430641468893e-04
1.123617874637e-04
4.386188346033e-04
4.153795496332e-04
4.126794247965e-04
4.216828176813e-04
4.598303199672e-04
4.781485599101e-04
4.974098688336e-04
2.666651252539e-05
6.478567012742e-04
5.247179134293e-04
1.092734434908e-05
5.160898882773e-04
5.288584991132e-04
5.056479771984e-04
9.031770125161e-05
5.134341675559e-04
5.232922769600e-04
2.832704909935e-05
6.591658225602e-04
3.190069352939e-05
4.186201998227e-05
3.991576109011e-04
3.850163756726e-04
4.037111098305e-04
3.898006102327e-04
3.711531311211e-04
3.779485541689e-04
5.117951230285e-04
3.996248162166e-04
3.850348162123e-04
4.070519305021e-04
4.117692108080e-04
2.667130928550e-04
2.716226969494e-04
2.466702579896e-04
5.673482383269e-04
5.632158934226e-04
3.437181459595e-04
3.230077544835e-04
5.180958982217e-04
5.174665557436e-04
5.368896076080e-04
5.346963784567e-04
5.543170883525e-04
5.516723396777e-04
5.718055843344e-04
5.197904278710e-04
1.787341768480e-04
4.415870702757e-04
4.599604678712e-04
4.406519789366e-04
3.838989227311e-04
3.717888742451e-04
4.106683837056e-04
2.612996104810e-04
6.694159289249e-04
-1.505536138973e-06
2.912309641789e-05
2.865981109269e-04
3.981667620244e-04
2.959941963676e-04
3.042747407023e-04
3.551661259566e-04
4.675867771734e-05
1.494169113368e-04
5.737816765793e-04
1.163793037538e-04
3.335125917500e-04
2.626634694691e-04
3.871665959863e-04
1.801972443848e-04
2.643980654434e-04
4.859354570291e-04
4.846236210542e-04
4.699006502459e-04
2.646464689708e-04
3.333517189716e-04
3.127312486107e-04
4.492979826689e-04
5.872925132241e-04
5.915752024789e-04
6.122455602186e-04
5.949883560131e-04
5.743099139162e-04
5.772511248691e-04
5.985942484018e-04
5.801490192394e-04
6.052339042535e-04
5.815466835537e-04
5.606116717174e-04
5.613330165361e-04
5.801256423637e-04
5.410866590177e-04
4.778741613713e-04
3.106933418670e-04
4.759194706176e-05
5.155411303862e-05
4.091740872694e-04
6.328099350800e-04
6.491713326399e-04
2.126115000399e-04
5.825788346890e-04
4.697601245248e-04
1.359700202513e-04
5.582753451685e-04
5.707683846937e-04
5.539535544660e-04
5.506199265413e-04
6.614202661808e-04
5.438453463370e-04
5.115502801978e-04
3.591247169212e-04
3.573695921076e-04
3.351963437493e-04
5.589181466151e-04
4.694052935481e-04
4.495488727794e-04
4.419081169929e-04
4.280282739945e-04
4.537158910896e-04
6.167508609469e-04
6.071067800933e-04
1.536397491928e-04
1.716978696839e-04
1.969090717029e-04
1.903005245110e-04
1.642349816774e-04
1.836276963501e-04
2.093120939495e-04
1.770401582872e-04
5.427838781745e-04
4.413997476977e-04
3.067577497843e-04
3.009133035457e-04
2.788771590631e-04
2.174188368215e-04
2.315639139130e-04
2.536280376055e-04
2.035061563101e-04
4.389659963295e-04
4.357479772294e-04
3.258542238609e-04
2.235653352916e-04
4.887111897676e-04
5.037161477525e-04
5.000262231574e-04
5.199950394987e-04
5.085566150693e-04
2.558840111286e-04
2.642114120467e-04
2.516181044633e-04
2.726559542325e-04
2.599190571600e-04
2.402927079119e-04
2.808473126146e-04
2.669515884409e-04
4.927699722430e-04
-4.116031723308e-06
2.053479627210e-05
2.048331339800e-05
4.389686082771e-05
4.607867022792e-05
7.151352281606e-05
6.895456717032e-05
2.024550022272e-05
-6.563094177076e-07
2.169260454957e-05
1.260764480365e-06
2.221069990033e-05
4.762283215364e-05
8.204484806064e-05
4.070333418648e-04
2.062190065533e-04
1.956760763249e-04
1.744917149583e-04
1.861688900024e-04
2.151577270404e-04
1.624601739839e-04
1.544317828597e-04
1.345818000529e-05
3.083051453540e-05
2.885804241896e-05
4.995692810286e-05
4.942350079801e-05
3.066961477902e-05
3.021893023717e-05
1.205763726687e-05
2.968279376626e-05
4.981899649315e-05
1.067314035101e-05
6.012159679477e-04
6.132391135239e-04
4.258719863728e-04
4.980318065214e-04
5.314916638824e-06
6.780600646345e-04
6.783935665442e-04
6.804109416048e-04
3.746381315245e-04
3.849609504011e-04
6.798456085187e-04
1.394828306285e-04
6.153679638791e-04
6.385578511886e-04
1.304114572238e-04
1.377676529115e-04
3.141884039644e-04
2.964257194935e-04
3.590708907487e-04
2.979206084405e-04
3.448080826320e-04
4.328322458499e-04
8.286566255454e-05
5.553396170649e-04
5.506046116521e-04
6.032078874701e-04
1.443808497329e-04
2.308563263042e-04
8.829092815438e-05
5.471759570842e-04
4.332891584974e-04
2.626372237137e-04
1.948417961696e-04
1.542162851843e-04
1.289182717629e-04
3.348699531198e-04
2.383869818415e-04
3.393546821800e-04
6.163389837103e-04
1.008557516354e-05
3.541117836318e-04
2.824380281978e-04
5.576611565625e-04
4.025739704678e-04
8.411564626448e-05
6.065766399415e-04
6.347789489388e-04
5.302923513416e-04
6.479618850571e-05
5.337945125549e-04
4.035974799082e-04
5.824735832822e-04
1.310567427416e-04
3.001171026559e-04
3.834828109599e-04
4.558858102128e-04
6.470854597957e-04
3.552093793538e-04
4.064544578425e-04
3.443017407113e-04
1.408387413100e-04
3.654116181232e-04
3.144065797920e-04
6.285681854828e-04
4.818067742761e-04
2.490902972620e-04
6.071071913237e-04
2.730586831054e-04
4.217223314068e-04
4.136428037965e-04
4.430043430768e-04
5.032495180316e-04
3.989406524636e-04
3.020637689072e-04
3.596320270140e-04
9.970315319330e-05
2.893121931926e-04
5.506950504106e-04
4.988562137860e-04
6.506987990132e-04
3.643034872559e-04
3.514958814509e-04
6.286629838686e-04
2.459419596183e-04
9.617079947007e-05
1.000724979400e-04
1.980212777359e-04
3.338638954136e-04
2.678660167711e-04
6.318360632492e-04
3.579936283933e-04
3.597748799523e-04
4.984373954649e-05
4.556820202395e-04
3.648214430107e-04
3.038286491254e-04
4.222293197025e-04
2.467945742576e-04
5.346492650501e-04
3.937534817892e-04
3.721765565051e-04
3.720923138133e-04
2.368451179802e-04
4.989739685433e-04
3.944096371772e-04
3.926330925836e-04
4.190092718402e-04
2.855104734157e-04
4.313777649230e-04
2.752101054822e-04
4.634537199286e-04
6.663205011439e-04
4.083158514903e-04
5.344885287317e-04
2.613043571782e-04
3.988584106151e-04
4.941623549215e-05
4.275364854299e-04
2.690944652615e-04
2.035082269057e-04
2.901589264966e-04
4.787511745531e-04
2.770661061382e-04
2.288858013129e-04
2.851661369003e-04
4.053171014387e-04
5.371047369289e-04
2.933802530390e-04
4.825926015457e-04
5.117830945045e-05
4.180725965837e-04
3.642996163492e-04
1.849431165750e-04
2.952804580142e-04
5.567807591350e-04
3.678184471620e-04
3.171032679578e-04
5.022813403926e-04
4.179980537318e-04
3.559287874352e-04
3.386657595010e-04
3.458714588881e-04
1.304530920892e-04
1.065329756811e-04
2.339463977593e-04
5.227415083082e-04
6.857727996660e-05
5.403310650683e-04
7.225077681891e-05
2.151600147420e-04
4.399547499725e-04
5.585983187144e-04
2.210859539934e-04
1.185261479850e-04
2.035143980638e-04
3.775138600955e-04
2.102399075611e-04
1.937110639108e-04
6.604623574772e-04
2.008951359552e-04
6.838990042097e-04
4.071481523490e-04
5.155381304965e-04
3.098727902156e-04
-6.322667175611e-06
2.819277247318e-04
1.615654732236e-04
5.220101659574e-04
5.163375871427e-04
1.459461297604e-04
6.009688490226e-04
5.341698343296e-04
5.904534979437e-04
4.226705608982e-04
4.189652002039e-04
6.431430590882e-04
4.962762942475e-04
2.311932046522e-05
3.123145711640e-04
2.402767594521e-04
2.107651651682e-04
1.466987043688e-04
1.483073539420e-04
4.351342204175e-05
1.780304709319e-04
4.560361508863e-04
5.114132480715e-04
4.588574931417e-04
1.115761185647e-04
6.498572272035e-04
4.998111042056e-04
4.199136392648e-04
4.786447018798e-04
8.645011717207e-05
5.197023981903e-04
5.584814906965e-04
6.073986187587e-04
4.167830716852e-04
5.055664440009e-04
6.650781311850e-04
8.156174372700e-05
6.661198339830e-04
5.417931216309e-04
5.418466266469e-04
5.113966243986e-04
3.945212310532e-04
6.182190534561e-04
5.783418078166e-05
5.888199848650e-04
1.870347241533e-04
1.614824424105e-05
4.093092126211e-04
5.615176323124e-04
3.949163937355e-04
4.911497884401e-05
2.297929519562e-05
4.207003545858e-04
5.844021227200e-04
9.286579862460e-05
6.785082911380e-04
2.599284991539e-05
4.928343434595e-04
2.703694996113e-05
4.135901992392e-04
6.609789187338e-04
2.057445271175e-04
4.833654691587e-04
1.336097816553e-04
5.144166350558e-04
4.028058243013e-05
6.655654553241e-04
4.322276513300e-04
6.430068889217e-04
4.935992178904e-04
1.716310713870e-05
5.149582517009e-04
4.248139660676e-04
4.966943319429e-04
6.297897968530e-04
1.662220057851e-04
6.713230356440e-05
6.867585393956e-04
1.021159739617e-05
4.961156094548e-04
4.108815759213e-04
6.429203061885e-05
5.313979958264e-04
5.952808518049e-04
2.519942595401e-04
6.303809631588e-04
6.179910420245e-05
-1.081416185491e-05
5.701089988887e-04
4.931594516894e-04
6.527432396321e-04
5.540373581844e-04
7.522692199332e-05
5.773094875868e-04
2.224705565819e-04
5.386934253993e-04
4.391585363257e-04
8.339249482588e-07
2.706668597170e-04
2.331683721622e-05
4.060103988723e-04
2.315193765058e-04
4.044045291946e-04
4.052797053714e-04
4.175961722715e-04
4.263066949948e-04
4.354561504741e-04
4.491635197619e-04
4.553837036812e-04
4.693596864114e-04

SCALARS node_materi_strain_total_size_dev_sd_ept float
LOOKUP_TABLE default
1.120507147528e-05
1.288056835691e-03
1.006198218392e-03
1.704984481885e-03
3.358033366357e-05
7.745423539551e-05
1.164370685137e-04
1.609508839945e-04
2.037726153383e-04
2.459907400228e-04
2.889744011238e-04
3.331250541227e-04
3.786367846152e-04
4.267309984217e-04
4.787146072754e-04
5.302480248351e-04
5.790417015104e-04
6.362021740137e-04
6.976230469547e-04
7.600364766736e-04
8.260901400207e-04
8.958126586000e-04
9.639572606953e-04
1.706015412341e-03
1.703769415456e-03
1.704146258653e-03
1.703489507337e-03
1.701866901694e-03
1.702064636325e-03
1.700922695334e-03
1.698303653661e-03
1.697136813413e-03
1.693539336706e-03
1.689167619781e-03
1.684937695683e-03
1.678921752503e-03
1.670441483728e-03
1.661085423546e-03
1.648319790941e-03
1.635093163365e-03
1.619848120654e-03
1.602007260252e-03
1.581773276288e-03
1.557779738957e-03
1.532159855613e-03
1.503676547288e-03
1.473448038684e-03
1.442498251055e-03
1.410815760805e-03
1.378235356335e-03
1.345246601098e-03
1.312337313117e-03
1.283942766164e-03
1.251361859342e-03
1.219107974022e-03
1.190015100253e-03
1.166219366239e-03
1.142944801699e-03
1.122481452108e-03
1.103577422105e-03
1.086135381163e-03
1.070009008930e-03
1.056368779404e-03
1.047310597373e-03
1.041033524593e-03
1.034421914088e-03
1.018272526588e-03
1.020920951787e-03
1.014722531478e-03
1.013347291053e-03
1.013375658847e-03
1.011979232253e-03
1.338680285409e-03
1.388984928635e-03
1.436572221271e-03
1.481563683234e-03
1.525726179610e-03
1.567833397924e-03
1.608068489211e-03
1.646073839362e-03
1.683971243982e-03
1.635725979510e-04
1.319113207250e-03
3.202075475299e-04
4.725052979854e-04
6.209395346518e-04
7.623847945156e-04
9.149901104211e-04
1.086124250956e-03
1.142963093058e-03
1.201895139070e-03
1.260144157144e-03
1.101839447407e-03
1.131065449415e-03
1.181775754029e-03
1.233586926171e-03
1.280840797061e-03
1.284485254212e-03
1.285666096484e-03
1.285936942489e-03
1.293999823413e-03
1.289514356796e-03
1.290558394462e-03
1.293007752747e-03
1.297136220329e-03
1.299602416366e-03
1.301940201735e-03
1.304941242089e-03
1.307999898444e-03
1.312128512911e-03
1.582759775268e-04
1.703609532690e-04
1.688766216348e-04
1.573338791468e-04
1.416371278730e-04
1.282041289404e-04
1.138158387752e-04
9.912203695672e-05
8.548433473116e-05
7.250355722682e-05
6.060220261269e-05
5.301684088012e-05
4.169792158598e-05
3.146256960414e-05
2.494522221903e-05
2.082154002886e-05
1.689908653926e-05
1.231318819765e-05
1.012226593505e-05
1.106147468582e-03
1.102719430683e-03
1.101922387082e-03
1.101199899911e-03
1.100097666299e-03
1.098596761006e-03
1.096662564422e-03
1.094252229187e-03
1.091382970677e-03
1.088109248219e-03
1.084451215160e-03
1.080431174656e-03
1.076126651589e-03
1.071926042947e-03
1.068190162490e-03
1.065619949362e-03
1.064594962012e-03
1.066305227566e-03
1.074163458335e-03
1.090666600891e-03
1.117567981959e-03
1.122405981589e-03
1.114630309472e-03
1.113011632626e-03
1.112835515549e-03
1.113765770299e-03
1.115548218028e-03
1.117496535327e-03
1.119454845561e-03
1.121322416974e-03
1.123123621718e-03
1.124744264075e-03
1.126027905057e-03
1.127072074488e-03
1.127916914354e-03
1.128627708013e-03
1.129271077508e-03
1.130118956421e-03
1.131042115174e-03
1.182561179103e-03
1.182612538033e-03
1.182309742985e-03
1.182135979534e-03
1.181990830617e-03
1.182021315549e-03
1.182058563113e-03
1.182095557773e-03
1.181940003518e-03
1.182171068234e-03
1.182598781039e-03
1.183194539533e-03
1.184308367143e-03
1.185619380731e-03
1.188015810521e-03
1.194869017880e-03
1.188095103343e-03
1.249096229524e-03
1.256924773739e-03
1.251604165440e-03
1.248361907782e-03
1.245974695299e-03
1.243854659012e-03
1.241864152379e-03
1.240364991863e-03
1.239002489760e-03
1.237807975439e-03
1.236817590796e-03
1.236023280440e-03
1.235665794084e-03
1.235058359265e-03
1.234992715402e-03
1.235016667561e-03
2.355159356049e-04
3.991030221213e-04
5.472423289841e-04
6.947152328467e-04
8.423499620870e-04
1.005900613590e-03
1.130309624268e-03
1.181577181971e-03
1.239049071684e-03
1.294304315932e-03
4.098769416375e-04
1.140562011858e-03
8.058936803749e-05
1.313991493809e-04
1.042648542318e-03
7.219685610842e-04
4.541109510827e-04
1.257833516949e-03
1.035770334111e-03
1.400245231646e-03
1.227422114661e-03
1.004811449575e-03
4.465102150092e-05
1.530753439017e-03
1.340743510431e-03
2.693259355541e-04
5.987950781678e-04
1.601812949387e-03
1.659668914677e-03
1.690026930211e-03
1.684813338156e-03
1.679572562105e-03
1.360617721115e-03
1.348626452518e-03
1.343609247010e-03
1.504292413660e-03
9.855267152568e-04
1.465678555812e-04
3.218699497481e-05
7.905776494091e-04
1.331733737638e-03
1.388881976129e-04
1.632829711096e-03
1.333995463488e-03
1.469558283759e-03
1.195214721614e-03
1.097316250963e-03
1.128676077415e-04
1.353125324881e-03
1.005909268956e-03
1.587702640063e-03
6.259271467725e-05
3.559450949659e-04
1.695744023020e-03
8.716107218898e-04
5.651811351205e-04
1.156447984025e-03
1.285664672830e-03
2.540246202386e-04
1.416706358608e-03
9.921961829233e-04
2.541907639620e-05
1.662656512355e-03
1.365680548934e-03
1.382644262562e-03
1.406571669728e-03
1.422218274628e-03
1.449756696520e-03
1.459259140556e-03
1.429940662952e-03
1.463583952000e-03
1.430457394996e-03
1.486756827281e-03
1.461956191068e-03
1.424496062691e-03
1.454655979041e-03
1.412701365624e-03
1.382740082774e-03
1.365655333576e-03
1.335842776357e-03
1.312782075233e-03
1.344146656987e-03
1.285808642444e-03
1.253053079041e-03
1.221124999370e-03
1.186354245835e-03
1.150356542387e-03
1.112678338708e-03
1.074165980587e-03
1.115634320918e-03
1.038275170476e-03
9.937695330670e-04
9.579868826468e-04
9.105597690924e-04
8.759314190023e-04
9.264773198141e-04
8.464852712449e-04
7.933045728190e-04
7.671448323764e-04
7.119760823102e-04
6.898841430628e-04
6.334637039265e-04
6.153454711333e-04
6.730830548648e-04
6.026564993478e-04
5.449223881127e-04
5.366074657575e-04
5.951824582547e-04
5.333826760667e-04
5.925301514314e-04
5.346743887769e-04
4.773387173904e-04
4.823102176062e-04
5.397680921244e-04
4.904767959158e-04
4.354920606455e-04
4.466249791513e-04
5.017066317931e-04
4.601902311291e-04
4.078381872029e-04
4.232712447214e-04
4.760843997457e-04
4.402877423678e-04
3.902815312562e-04
4.081449451214e-04
4.589065938754e-04
4.271425977264e-04
4.787373389086e-04
3.786058374625e-04
3.978875934649e-04
3.513254500858e-04
3.707760939509e-04
8.999000564106e-04
3.259886920464e-04
3.079687137147e-04
3.452695246973e-04
3.912334920721e-04
3.017971794338e-04
3.207992460588e-04
2.784475473742e-04
6.564754905257e-04
1.319851035644e-03
2.970395871093e-04
2.554491309703e-04
2.379315765568e-04
2.152483958568e-04
1.474683810694e-03
1.512362954357e-03
1.497887889864e-03
1.536575865289e-03
1.521694438251e-03
2.323118708472e-04
1.492401055983e-03
1.547516299771e-03
1.221936528856e-03
9.495945573928e-04
6.553553784644e-04
3.404310967512e-04
3.162644042625e-04
3.607298428111e-04
5.129235480136e-04
5.333743032249e-04
5.699849162182e-04
5.909600954615e-04
6.299751240727e-04
6.514928047268e-04
6.130876231385e-04
6.742195776514e-04
6.362077477023e-04
6.928471241310e-04
6.721395092238e-04
6.979444423745e-04
6.602278237090e-04
7.226548118166e-04
6.850144982141e-04
6.246694594085e-04
6.492903737960e-04
5.912453745117e-04
6.533614599912e-04
7.170643818958e-04
7.157444113503e-04
7.800890494823e-04
7.797707078269e-04
8.446100159587e-04
8.455146473367e-04
7.834616996752e-04
1.442281066888e-03
4.796920079310e-04
4.886792515129e-04
4.246116731914e-04
4.343959454896e-04
3.717883558962e-04
3.828816495169e-04
3.219002641559e-04
3.165434556919e-04
2.689836495419e-04
2.694629788029e-04
2.250566464003e-04
2.309701165958e-04
1.083331782494e-03
8.476694819254e-04
9.124035088400e-04
9.171927886613e-04
1.988273141908e-04
7.104494441739e-04
7.374250740537e-04
7.175024921765e-04
8.508185737934e-04
1.925270857451e-04
3.351723471954e-04
4.018234964390e-04
1.558977594967e-03
1.543416353662e-03
7.853911064767e-04
2.091871242675e-04
7.383268588091e-04
2.256687358119e-04
6.744496833441e-04
7.363787510915e-04
5.774752458723e-04
9.819499231966e-04
9.876839413947e-04
2.758415866560e-04
2.414677817435e-04
2.021360678054e-04
2.151363343841e-04
2.539487573222e-04
2.276558470563e-04
1.912583725794e-04
2.053493973621e-04
2.425642874089e-04
2.203207015919e-04
1.855178876086e-04
1.996652761293e-04
7.743776747671e-04
1.858678089076e-04
1.353161601445e-03
8.054801402231e-04
9.131946850351e-04
1.580093463719e-03
1.564108597247e-03
1.524621933919e-03
1.545571201707e-03
1.583841902255e-03
1.565643672678e-03
1.525065242346e-03
1.545615668573e-03
1.502952840767e-03
1.524227532953e-03
1.565679568357e-03
1.545013191659e-03
1.501941221630e-03
1.523503798174e-03
1.478996462846e-03
1.501135699050e-03
1.544708117472e-03
1.702830220800e-04
7.910146787186e-04
8.606092403036e-04
3.374330419376e-04
3.808499901072e-04
4.071509696713e-04
4.290306575733e-04
1.522997761754e-03
1.565804007150e-03
3.578752813565e-04
4.297979604574e-04
1.593001247290e-03
7.004676433462e-04
6.404841561692e-04
8.634306209875e-04
9.053783891044e-04
8.163921151060e-04
8.605206548367e-04
9.520912924454e-04
7.688144494020e-04
6.524724049005e-04
1.585307907700e-03
2.212686073862e-04
1.834147589260e-04
7.634378019625e-04
7.246828358726e-04
1.158080073098e-03
1.129248374434e-03
1.201677968336e-03
1.176190211311e-03
1.246543269424e-03
1.224492410252e-03
1.154157426410e-03
1.052189698144e-03
1.206472245440e-03
1.477689979187e-03
8.539730953444e-04
2.586391090485e-04
1.537462160746e-04
1.653901845325e-04
1.851178499982e-04
2.265372042590e-04
8.558599192387e-04
1.293086829844e-03
1.312942320233e-03
9.111775818852e-04
1.002177356876e-03
1.048069659554e-03
1.480259016209e-03
1.481251936065e-03
1.456885349640e-03
1.410358412992e-04
1.546374288520e-04
1.602896064015e-03
4.747390628171e-04
5.076037027440e-04
1.886933187293e-04
1.543259345937e-04
1.544217783142e-03
1.585649793369e-03
4.558603936471e-04
4.785795325797e-04
8.371401554712e-04
1.794865036663e-04
1.605718305483e-03
7.349572051720e-04
6.698606953681e-04
4.018891271829e-04
3.918042849088e-04
3.205843495139e-04
2.835244371413e-04
2.146990905137e-04
2.024853146947e-04
9.101870996215e-04
1.618431214306e-03
1.136628895347e-03
1.081720994683e-03
1.192392682818e-03
1.472486085070e-04
8.775438078066e-04
7.274690544054e-04
1.356268418612e-03
1.374538204229e-03
5.529798003515e-04
5.907431988603e-04
5.504149490435e-04
6.368281467880e-04
1.398007091482e-03
6.369101214073e-04
1.307213899011e-03
1.323674723324e-03
1.279204844769e-03
1.039333430221e-03
1.087962605010e-03
5.033296153121e-04
7.224487446787e-04
4.339056749278e-04
5.674707237694e-04
5.502671786082e-04
1.603941139042e-03
1.622869021550e-03
1.456100106589e-03
1.431530262277e-03
1.605567587879e-04
1.466661761858e-04
4.997229603995e-04
8.270516453869e-04
1.612906516257e-03
1.623373255221e-03
1.602598630562e-03
8.917133823534e-04
4.207602545849e-04
6.553319505710e-04
1.585134762917e-04
9.773822587859e-04
1.233134587822e-04
1.376354783671e-03
7.914076792579e-04
8.287890652162e-04
1.116618844919e-03
1.355512561982e-03
9.540786912274e-04
8.787151547551e-04
1.293180139084e-03
1.251422719776e-03
1.226936648988e-03
1.199868581698e-03
2.997965933859e-04
2.749393451265e-04
1.345795573241e-03
1.260063771099e-03
1.414740400842e-03
1.432369653232e-03
1.114869862614e-03
1.046784371652e-03
2.433681771973e-04
1.055381612803e-03
1.636670687834e-03
1.329880322087e-03
8.985310548851e-04
8.508026699490e-04
1.356832140044e-04
1.402565155402e-04
1.625499532010e-03
6.015649954173e-04
6.872498472633e-04
5.170798861729e-04
9.289467479943e-04
1.328078403114e-03
8.578880995891e-04
1.120592566196e-03
1.644269120685e-03
9.363693107997e-04
7.755995088067e-04
8.198809728076e-04
1.603765719693e-03
1.646325057862e-03
1.433554759862e-03
1.406770790303e-03
1.457395612146e-03
2.348557654342e-04
2.015347232991e-04
1.604657036354e-03
2.926802313757e-04
3.166981371537e-04
1.929190920168e-04
2.292868738660e-04
4.839876110414e-04
4.616740545207e-04
1.355249871185e-03
1.410351637791e-03
1.228972499046e-03
6.824943832461e-04
6.193389867030e-04
6.077004167205e-04
1.638328804205e-03
1.660119727306e-03
3.273825652896e-04
3.119714743707e-04
3.162485071381e-04
1.650000536587e-03
8.962582034639e-04
8.682056923974e-04
1.120589446941e-04
1.339795614493e-04
3.611766137353e-04
2.886549689270e-04
1.629244319020e-03
1.609007249539e-03
1.651421205766e-03
2.165040111329e-04
1.066714013793e-03
9.657569797773e-04
9.489884650132e-04
9.950817200847e-04
1.120217150703e-03
1.181568631630e-03
1.250989411785e-03
1.332986597582e-04
1.632449271518e-03
1.404996731283e-03
1.322929472517e-04
1.379653758809e-03
1.406592005240e-03
1.351916008844e-03
1.754285960102e-04
1.400910587181e-03
1.433836843879e-03
9.420107988566e-05
1.666225619424e-03
8.940494799791e-05
1.002958324051e-04
9.223202258429e-04
8.743875267296e-04
9.454059966720e-04
8.983331754597e-04
8.292882203517e-04
8.564529231318e-04
1.379150610123e-03
9.361384959810e-04
8.854227178365e-04
9.648602492454e-04
1.223231765372e-03
7.248862317547e-04
7.771244817392e-04
7.535535367515e-04
1.476278081635e-03
1.481495205146e-03
7.568286023005e-04
6.941683647006e-04
1.379108810195e-03
1.374622209955e-03
1.419588250976e-03
1.412317066682e-03
1.456107335821e-03
1.448049451912e-03
1.491277206626e-03
1.323152789434e-03
5.749944923220e-04
1.295126620894e-03
1.115645443643e-03
1.045479914711e-03
1.135127569055e-03
1.109967316788e-03
9.616195614398e-04
6.027268489565e-04
1.680039951319e-03
1.548935085367e-04
1.638267647654e-04
6.866698248103e-04
1.163788129837e-03
8.159599313420e-04
8.734611791276e-04
7.492932857111e-04
1.238986169667e-04
4.374902566806e-04
1.497929470940e-03
4.160085058601e-04
7.262029637398e-04
5.777103867256e-04
1.075958218973e-03
4.686915734903e-04
6.794627416537e-04
1.393868871077e-03
1.394264438549e-03
1.363313085852e-03
5.586087873784e-04
9.669667799961e-04
9.327008243050e-04
1.282610901863e-03
1.579682497992e-03
1.584324064170e-03
1.610123446709e-03
1.585136044161e-03
1.557139320888e-03
1.555881608338e-03
1.582768098960e-03
1.551530965791e-03
1.583756334624e-03
1.542521508402e-03
1.513418219037e-03
1.502357770698e-03
1.529576469986e-03
1.472238929416e-03
1.184081519726e-03
7.397278160965e-04
1.575792429781e-04
2.101871052183e-04
1.152977820581e-03
1.618816854113e-03
1.650206481210e-03
4.507430418020e-04
1.501222098290e-03
1.362714884355e-03
2.762162153749e-04
1.435935652787e-03
1.554491182895e-03
1.526357207845e-03
1.521670312433e-03
1.668823683463e-03
1.481251009719e-03
1.301317358064e-03
7.844012578691e-04
7.923124965142e-04
7.320484834865e-04
1.521841359820e-03
1.167128408687e-03
1.085654457975e-03
1.061046253535e-03
1.003218881720e-03
1.116385256046e-03
1.582569741431e-03
1.559728368970e-03
2.680351386277e-04
2.979911399446e-04
3.450917155146e-04
3.333639313531e-04
2.857478757989e-04
3.239215412762e-04
3.745373593275e-04
3.177267536319e-04
1.446024598312e-03
1.077702205315e-03
6.097187588226e-04
5.906438200997e-04
5.319284118301e-04
4.123842256515e-04
4.397834286560e-04
4.908339985593e-04
3.861784569011e-04
1.103351533731e-03
1.059987552313e-03
6.608777102802e-04
4.183911713292e-04
1.357951182366e-03
1.404094665977e-03
1.407293309416e-03
1.450151186357e-03
1.405997315843e-03
5.068693345721e-04
5.301110282905e-04
5.015046828088e-04
5.536274850254e-04
5.232172527534e-04
4.758904120940e-04
5.763571891899e-04
5.421869267659e-04
1.350669902728e-03
1.223395503118e-04
1.210080244154e-04
1.157466608338e-04
1.349267466244e-04
1.363685848632e-04
1.587345009726e-04
1.561122846121e-04
1.247662976949e-04
1.018701588186e-04
1.088876692916e-04
9.039631625998e-05
1.018911346537e-04
1.312254578168e-04
1.700527449558e-04
9.733017577688e-04
4.021311120473e-04
3.794945942789e-04
3.353732863544e-04
3.588691101748e-04
4.209809029280e-04
3.118890140842e-04
2.960383100032e-04
2.904366679245e-05
6.221286414699e-05
5.819940291518e-05
9.933577990645e-05
9.946300695901e-05
6.422174865310e-05
6.679647019637e-05
3.533129837024e-05
6.955809991036e-05
1.046666866850e-04
3.864253124726e-05
1.547639801441e-03
1.570797225688e-03
1.028168013977e-03
1.349434666987e-03
7.050106673716e-05
1.684912638007e-03
1.688829735720e-03
1.690035512168e-03
8.587549570393e-04
8.931271769592e-04
1.685966011892e-03
2.604831509766e-04
1.610424577526e-03
1.623903092970e-03
2.927085875391e-04
2.518763200801e-04
6.663775582272e-04
6.007621277871e-04
8.008690150065e-04
6.156452661011e-04
7.482332090823e-04
1.030147711082e-03
1.622611181035e-04
1.479595271101e-03
1.455428317596e-03
1.565458358218e-03
2.736520733502e-04
4.527531746870e-04
1.762811883740e-04
1.410632736162e-03
1.254344057387e-03
4.937459798638e-04
3.654097581020e-04
2.837439162212e-04
2.361063729117e-04
8.256853090479e-04
4.473840742375e-04
7.149562015588e-04
1.585712071117e-03
5.837247844925e-05
7.585429905600e-04
5.549412100329e-04
1.503806658063e-03
9.107899339090e-04
1.736976547365e-04
1.585043726969e-03
1.640849022300e-03
1.458055608785e-03
1.374901217118e-04
1.431664541369e-03
9.301891657903e-04
1.571217494999e-03
2.501186935889e-04
5.941300952599e-04
1.033347736669e-03
1.312970757275e-03
1.640127864759e-03
8.225517052039e-04
9.218916181257e-04
7.183715686436e-04
2.689805318866e-04
8.053745008656e-04
6.618167459289e-04
1.621379884067e-03
1.270195777986e-03
4.761559635479e-04
1.599682165069e-03
5.155509863381e-04
9.788608960827e-04
1.192541867751e-03
1.189011425663e-03
1.395974647144e-03
1.005823240583e-03
6.339110613543e-04
7.814792024706e-04
1.907730743920e-04
7.266058133593e-04
1.502701478096e-03
1.273009997444e-03
1.654296425870e-03
9.928575010913e-04
7.624426745181e-04
1.631071605214e-03
4.687122133696e-04
1.855304577706e-04
2.595579669615e-04
3.674223284196e-04
7.467253492368e-04
5.217052876670e-04
1.635447988474e-03
7.877470331091e-04
7.666800906976e-04
3.310370456077e-04
1.326000121852e-03
8.141807637240e-04
5.993526194671e-04
9.783606577652e-04
4.924666883993e-04
1.371897863950e-03
1.173935207504e-03
8.422878700345e-04
8.038724967892e-04
5.243143631526e-04
1.330558034406e-03
9.221150628326e-04
8.758966693477e-04
1.054186364271e-03
5.480126028621e-04
1.257135551996e-03
5.443813461983e-04
1.257247123517e-03
1.675166200725e-03
9.324822556895e-04
1.493683612209e-03
5.133077468815e-04
9.244754873297e-04
1.012465627500e-04
1.262155614542e-03
5.363561887905e-04
3.687875638059e-04
5.592879170088e-04
1.181957420199e-03
5.599789822962e-04
4.220544825726e-04
5.839984415181e-04
1.195373626176e-03
1.495763105055e-03
6.081642669495e-04
1.294685267332e-03
1.111761502095e-04
1.028992428391e-03
8.229966425905e-04
3.332336595487e-04
5.735353782900e-04
1.526528017983e-03
1.103376080963e-03
6.344755479651e-04
1.333829224952e-03
1.009479110564e-03
8.046458742228e-04
6.988174234614e-04
1.030361089524e-03
2.439139117651e-04
2.063745160397e-04
4.272314023962e-04
1.393047705181e-03
1.354058081454e-04
1.484264345857e-03
1.576519266159e-04
3.832934410833e-04
1.058307059859e-03
1.462175240575e-03
3.945148369231e-04
2.274997245410e-04
3.586127270667e-04
8.636056279456e-04
3.738405572561e-04
3.435984511223e-04
1.659272077536e-03
3.606329869951e-04
1.691945215063e-03
9.737245490195e-04
1.367530057501e-03
9.599087009841e-04
1.448805103740e-04
8.370634745354e-04
2.911568459984e-04
1.426823859311e-03
1.370120971383e-03
2.674735170589e-04
1.566255447928e-03
1.368385836324e-03
1.527525191064e-03
9.824219447783e-04
9.964469680823e-04
1.624165551626e-03
1.331809261606e-03
9.564447169770e-05
6.640566038668e-04
7.926118112676e-04
6.566722624042e-04
4.944487159738e-04
2.840862708542e-04
1.310450894358e-04
6.411611223469e-04
1.107744490304e-03
1.388213189613e-03
1.125558979208e-03
4.862891839061e-04
1.658261681220e-03
1.256174583790e-03
1.011632444819e-03
1.186043162879e-03
3.399069589175e-04
1.440374835662e-03
1.446114239954e-03
1.562041051637e-03
1.002773508372e-03
1.388805564781e-03
1.662983647436e-03
1.667024891233e-04
1.662880070322e-03
1.459238937657e-03
1.433033093096e-03
1.438941776846e-03
9.280605730020e-04
1.607320641929e-03
2.602300136904e-04
1.526234069568e-03
3.585769052277e-04
1.276716818527e-04
9.624450083656e-04
1.490223121538e-03
9.278161319764e-04
9.753177982665e-05
8.107792788611e-05
9.975201266791e-04
1.520219488198e-03
1.823277581691e-04
1.690685496062e-03
1.977937108812e-04
1.330671134098e-03
7.054659454741e-05
9.936802789054e-04
1.665941034046e-03
3.994685631624e-04
1.363969536222e-03
2.564597072643e-04
1.313409841951e-03
1.191824154468e-04
1.668994808908e-03
1.033695298863e-03
1.650130167051e-03
1.248041449466e-03
1.396720629781e-04
1.307560989249e-03
9.948967809246e-04
1.329038122546e-03
1.628560182033e-03
3.189251546719e-04
1.373029759284e-04
1.695536551961e-03
2.080294873686e-05
1.322491863394e-03
9.884658359200e-04
1.276807369968e-04
1.403687602591e-03
1.547833856444e-03
5.064351402911e-04
1.601663934107e-03
1.485422737190e-04
1.406335016219e-04
1.486581565141e-03
1.234549907032e-03
1.662738003353e-03
1.457745013266e-03
2.396106214716e-04
1.515455924287e-03
4.352666540185e-04
1.397846525958e-03
1.044305169431e-03
1.893588597508e-04
5.525445487803e-04
7.206446606137e-05
9.588493042971e-04
4.571018860524e-04
1.104922203699e-03
1.108883689062e-03
1.163360601632e-03
1.154703930113e-03
1.225902264218e-03
1.209557838161e-03
1.283020490681e-03
1.258955954373e-03


CELL_DATA 2085

SCALARS element_number int
LOOKUP_TABLE default
407
408
409
410
411
412
413
414
415
416
417
418
419
420
421
422
423
424
425
426
427
428
429
430
431
432
433
434
435
436
437
438
439
440
441
442
443
444
445
446
447
448
449
450
451
452
453
454
455
456
457
458
459
460
461
462
463
464
465
466
467
468
469
470
471
472
473
474
475
476
477
478
479
480
481
482
483
484
485
486
487
488
489
490
491
492
493
494
495
496
497
498
499
500
501
502
503
504
505
506
507
508
509
510
511
512
513
514
515
516
517
518
519
520
521
522
523
524
525
526
527
528
529
530
531
532
533
534
535
536
537
538
539
540
541
542
543
544
545
546
547
548
549
550
551
552
553
554
555
556
557
558
559
560
561
562
563
564
565
566
567
568
569
570
571
572
573
574
575
576
577
578
579
580
581
582
583
584
585
586
587
588
589
590
591
592
593
594
595
596
597
598
599
600
601
602
603
604
605
606
607
608
609
610
611
612
613
614
615
616
617
618
619
620
621
622
623
624
625
626
627
628
629
630
631
632
633
634
635
636
637
638
639
640
641
642
643
644
645
646
647
648
649
650
651
652
653
654
655
656
657
658
659
660
661
662
663
664
665
666
667
668
669
670
671
672
673
674
675
676
677
678
679
680
681
682
683
684
685
686
687
688
689
690
691
692
693
694
695
696
697
698
699
700
701
702
703
704
705
706
707
708
709
710
711
712
713
714
715
716
717
718
719
720
721
722
723
724
725
726
727
728
729
730
731
732
733
734
735
736
737
738
739
740
741
742
743
744
745
746
747
748
749
750
751
752
753
754
755
756
757
758
759
760
761
762
763
764
765
766
767
768
769
770
771
772
773
774
775
776
777
778
779
780
781
782
783
784
785
786
787
788
789
790
791
792
793
794
795
796
797
798
799
800
801
802
803
804
805
806
807
808
809
810
811
812
813
814
815
816
817
818
819
820
821
822
823
824
825
826
827
828
829
830
831
832
833
834
835
836
837
838
839
840
841
842
843
844
845
846
847
848
849
850
851
852
853
854
855
856
857
858
859
860
861
862
863
864
865
866
867
868
869
870
871
872
873
874
875
876
877
878
879
880
881
882
883
884
885
886
887
888
889
890
891
892
893
894
895
896
897
898
899
900
901
902
903
904
905
906
907
908
909
910
911
912
913
914
915
916
917
918
919
920
921
922
923
924
925
926
927
928
929
930
931
932
933
934
935
936
937
938
939
940
941
942
943
944
945
946
947
948
949
950
951
952
953
954
955
956
957
958
959
960
961
962
963
964
965
966
967
968
969
970
971
972
973
974
975
976
977
978
979
980
981
982
983
984
985
986
987
988
989
990
991
992
993
994
995
996
997
998
999
1000
1001
1002
1003
1004
1005
1006
1007
1008
1009
1010
1011
1012
1013
1014
1015
1016
1017
1018
1019
1020
1021
1022
1023
1024
1025
1026
1027
1028
1029
1030
1031
1032
1033
1034
1035
1036
1037
1038
1039
1040
1041
1042
1043
1044
1045
1046
1047
1048
1049
1050
1051
1052
1053
1054
1055
1056
1057
1058
1059
1060
1061
1062
1063
1064
1065
1066
1067
1068
1069
1070
1071
1072
1073
1074
1075
1076
1077
1078
1079
1080
1081
1082
1083
1084
1085
1086
1087
1088
1089
1090
1091
1092
1093
1094
1095
1096
1097
1098
1099
1100
1101
1102
1103
1104
1105
1106
1107
1108
1109
1110
1111
1112
1113
1114
1115
1116
1117
1118
1119
1120
1121
1122
1123
1124
1125
1126
1127
1128
1129
1130
1131
1132
1133
1134
1135
1136
1137
1138
1139
1140
1141
1142
1143
1144
1145
1146
1147
1148
1149
1150
1151
1152
1153
1154
1155
1156
1157
1158
1159
1160
1161
1162
1163
1164
1165
1166
1167
1168
1169
1170
1171
1172
1173
1174
1175
1176
1177
1178
1179
1180
1181
1182
1183
1184
1185
1186
1187
1188
1189
1190
1191
1192
1193
1194
1195
1196
1197
1198
1199
1200
1201
1202
1203
1204
1205
1206
1207
1208
1209
1210
1211
1212
1213
1214
1215
1216
1217
1218
1219
1220
1221
1222
1223
1224
1225
1226
1227
1228
1229
1230
1231
1232
1233
1234
1235
1236
1237
1238
1239
1240
1241
1242
1243
1244
1245
1246
1247
1248
1249
1250
1251
1252
1253
1254
1255
1256
1257
1258
1259
1260
1261
1262
1263
1264
1265
1266
1267
1268
1269
1270
1271
1272
1273
1274
1275
1276
1277
1278
1279
1280
1281
1282
1283
1284
1285
1286
1287
1288
1289
1290
1291
1292
1293
1294
1295
1296
1297
1298
1299
1300
1301
1302
1303
1304
1305
1306
1307
1308
1309
1310
1311
1312
1313
1314
1315
1316
1317
1318
1319
1320
1321
1322
1323
1324
1325
1326
1327
1328
1329
1330
1331
1332
1333
1334
1335
1336
1337
1338
1339
1340
1341
1342
1343
1344
1345
1346
1347
1348
1349
1350
1351
1352
1353
1354
1355
1356
1357
1358
1359
1360
1361
1362
1363
1364
1365
1366
1367
1368
1369
1370
1371
1372
1373
1374
1375
1376
1377
1378
1379
1380
1381
1382
1383
1384
1385
1386
1387
1388
1389
1390
1391
1392
1393
1394
1395
1396
1397
1398
1399
1400
1401
1402
1403
1404
1405
1406
1407
1408
1409
1410
1411
1412
1413
1414
1415
1416
1417
1418
1419
1420
1421
1422
1423
1424
1425
1426
1427
1428
1429
1430
1431
1432
1433
1434
1435
1436
1437
1438
1439
1440
1441
1442
1443
1444
1445
1446
1447
1448
1449
1450
1451
1452
1453
1454
1455
1456
1457
1458
1459
1460
1461
1462
1463
1464
1465
1466
1467
1468
1469
1470
1471
1472
1473
1474
1475
1476
1477
1478
1479
1480
1481
1482
1483
1484
1485
1486
1487
1488
1489
1490
1491
1492
1493
1494
1495
1496
1497
1498
1499
1500
1501
1502
1503
1504
1505
1506
1507
1508
1509
1510
1511
1512
1513
1514
1515
1516
1517
1518
1519
1520
1521
1522
1523
1524
1525
1526
1527
1528
1529
1530
1531
1532
1533
1534
1535
1536
1537
1538
1539
1540
1541
1542
1543
1544
1545
1546
1547
1548
1549
1550
1551
1552
1553
1554
1555
1556
1557
1558
1559
1560
1561
1562
1563
1564
1565
1566
1567
1568
1569
1570
1571
1572
1573
1574
1575
1576
1577
1578
1579
1580
1581
1582
1583
1584
1585
1586
1587
1588
1589
1590
1591
1592
1593
1594
1595
1596
1597
1598
1599
1600
1601
1602
1603
1604
1605
1606
1607
1608
1609
1610
1611
1612
1613
1614
1615
1616
1617
1618
1619
1620
1621
1622
1623
1624
1625
1626
1627
1628
1629
1630
1631
1632
1633
1634
1635
1636
1637
1638
1639
1640
1641
1642
1643
1644
1645
1646
1647
1648
1649
1650
1651
1652
1653
1654
1655
1656
1657
1658
1659
1660
1661
1662
1663
1664
1665
1666
1667
1668
1669
1670
1671
1672
1673
1674
1675
1676
1677
1678
1679
1680
1681
1682
1683
1684
1685
1686
1687
1688
1689
1690
1691
1692
1693
1694
1695
1696
1697
1698
1699
1700
1701
1702
1703
1704
1705
1706
1707
1708
1709
1710
1711
1712
1713
1714
1715
1716
1717
1718
1719
1720
1721
1722
1723
1724
1725
1726
1727
1728
1729
1730
1731
1732
1733
1734
1735
1736
1737
1738
1739
1740
1741
1742
1743
1744
1745
1746
1747
1748
1749
1750
1751
1752
1753
1754
1755
1756
1757
1758
1759
1760
1761
1762
1763
1764
1765
1766
1767
1768
1769
1770
1771
1772
1773
1774
1775
1776
1777
1778
1779
1780
1781
1782
1783
1784
1785
1786
1787
1788
1789
1790
1791
1792
1793
1794
1795
1796
1797
1798
1799
1800
1801
1802
1803
1804
1805
1806
1807
1808
1809
1810
1811
1812
1813
1814
1815
1816
1817
1818
1819
1820
1821
1822
1823
1824
1825
1826
1827
1828
1829
1830
1831
1832
1833
1834
1835
1836
1837
1838
1839
1840
1841
1842
1843
1844
1845
1846
1847
1848
1849
1850
1851
1852
1853
1854
1855
1856
1857
1858
1859
1860
1861
1862
1863
1864
1865
1866
1867
1868
1869
1870
1871
1872
1873
1874
1875
1876
1877
1878
1879
1880
1881
1882
1883
1884
1885
1886
1887
1888
1889
1890
1891
1892
1893
1894
1895
1896
1897
1898
1899
1900
1901
1902
1903
1904
1905
1906
1907
1908
1909
1910
1911
1912
1913
1914
1915
1916
1917
1918
1919
1920
1921
1922
1923
1924
1925
1926
1927
1928
1929
1930
1931
1932
1933
1934
1935
1936
1937
1938
1939
1940
1941
1942
1943
1944
1945
1946
1947
1948
1949
1950
1951
1952
1953
1954
1955
1956
1957
1958
1959
1960
1961
1962
1963
1964
1965
1966
1967
1968
1969
1970
1971
1972
1973
1974
1975
1976
1977
1978
1979
1980
1981
1982
1983
1984
1985
1986
1987
1988
1989
1990
1991
1992
1993
1994
1995
1996
1997
1998
1999
2000
2001
2002
2003
2004
2005
2006
2007
2008
2009
2010
2011
2012
2013
2014
2015
2016
2017
2018
2019
2020
2021
2022
2023
2024
2025
2026
2027
2028
2029
2030
2031
2032
2033
2034
2035
2036
2037
2038
2039
2040
2041
2042
2043
2044
2045
2046
2047
2048
2049
2050
2051
2052
2053
2054
2055
2056
2057
2058
2059
2060
2061
2062
2063
2064
2065
2066
2067
2068
2069
2070
2071
2072
2073
2074
2075
2076
2077
2078
2079
2080
2081
2082
2083
2084
2085
2086
2087
2088
2089
2090
2091
2092
2093
2094
2095
2096
2097
2098
2099
2100
2101
2102
2103
2104
2105
2106
2107
2108
2109
2110
2111
2112
2113
2114
2115
2116
2117
2118
2119
2120
2121
2122
2123
2124
2125
2126
2127
2128
2129
2130
2131
2132
2133
2134
2135
2136
2137
2138
2139
2140
2141
2142
2143
2144
2145
2146
2147
2148
2149
2150
2151
2152
2153
2154
2155
2156
2157
2158
2159
2160
2161
2162
2163
2164
2165
2166
2167
2168
2169
2170
2171
2172
2173
2174
2175
2176
2177
2178
2179
2180
2181
2182
2183
2184
2185
2186
2187
2188
2189
2190
2191
2192
2193
2194
2195
2196
2197
2198
2199
2200
2201
2202
2203
2204
2205
2206
2207
2208
2209
2210
2211
2212
2213
2214
2215
2216
2217
2218
2219
2220
2221
2222
2223
2224
2225
2226
2227
2228
2229
2230
2231
2232
2233
2234
2235
2236
2237
2238
2239
2240
2241
2242
2243
2244
2245
2246
2247
2248
2249
2250
2251
2252
2253
2254
2255
2256
2257
2258
2259
2260
2261
2262
2263
2264
2265
2266
2267
2268
2269
2270
2271
2272
2273
2274
2275
2276
2277
2278
2279
2280
2281
2282
2283
2284
2285
2286
2287
2288
2289
2290
2291
2292
2293
2294
2295
2296
2297
2298
2299
2300
2301
2302
2303
2304
2305
2306
2307
2308
2309
2310
2311
2312
2313
2314
2315
2316
2317
2318
2319
2320
2321
2322
2323
2324
2325
2665
2666
2667
2668
2669
2670
2671
2672
2673
2674
2675
2676
2677
2678
2679
2680
2681
2682
2683
2684
2685
2686
2687
2688
2689
2690
2691
2692
2693
2694
2695
2696
2697
2698
2699
2700
2701
2702
2703
2704
2705
2706
2707
2708
2709
2710
2711
2712
2713
2714
2715
2716
2717
2718
2719
2720
2721
2722
2723
2724
2725
2726
2727
2728
2729
2730
2731
2732
2733
2734
2735
2736
2737
2738
2739
2740
2741
2742
2743
2744
2745
2746
2747
2748
2749
2750
2751
2752
2753
2754
2755
2756
2757
2758
2759
2760
2761
2762
2763
2764
2765
2766
2767
2768
2769
2770
2771
2772
2773
2774
2775
2776
2777
2778
2779
2780
2781
2782
2783
2784
2785
2786
2787
2788
2789
2790
2791
2792
2793
2794
2795
2796
2797
2798
2799
2800
2801
2802
2803
2804
2805
2806
2807
2808
2809
2810
2811
2812
2813
2814
2815
2816
2817
2818
2819
2820
2821
2822
2823
2824
2825
2826
2827
2828
2829
2830

SCALARS element_group int
LOOKUP_TABLE default
0
0
0
0
0
0
0
0
0
0
0
0
0
0
0
0
0
0
0
0
0
0
0
0
0
0
0
0
0
0
0
0
0
0
0
0
0
0
0
0
0
0
0
0
0
0
0
0
0
0
0
0
0
0
0
0
0
0
0
0
0
0
0
0
0
0
0
0
0
0
0
0
0
0
0
0
0
0
0
0
0
0
0
0
0
0
0
0
0
0
0
0
0
0
0
0
0
0
0
0
0
0
0
0
0
0
0
0
0
0
0
0
0
0
0
0
0
0
0
0
0
0
0
0
0
0
0
0
0
0
0
0
0
0
0
0
0
0
0
0
0
0
0
0
0
0
0
0
0
0
0
0
0
0
0
0
0
0
0
0
0
0
0
0
0
0
0
0
0
0
0
0
0
0
0
0
0
0
0
0
0
0
0
0
0
0
0
0
0
0
0
0
0
0
0
0
0
0
0
0
0
0
0
0
0
0
0
0
0
0
0
0
0
0
0
0
0
0
0
0
0
0
0
0
0
0
0
0
0
0
0
0
0
0
0
0
0
0
0
0
0
0
0
0
0
0
0
0
0
0
0
0
0
0
0
0
0
0
0
0
0
0
0
0
0
0
0
0
0
0
0
0
0
0
0
0
0
0
0
0
0
0
0
0
0
0
0
0
0
0
0
0
0
0
0
0
0
0
0
0
0
0
0
0
0
0
0
0
0
0
0
0
0
0
0
0
0
0
0
0
0
0
0
0
0
0
0
0
0
0
0
0
0
0
0
0
0
0
0
0
0
0
0
0
0
0
0
0
0
0
0
0
0
0
0
0
0
0
0
0
0
0
0
0
0
0
0
0
0
0
0
0
0
0
0
0
0
0
0
0
0
0
0
0
0
0
0
0
0
0
0
0
0
0
0
0
0
0
0
0
0
0
0
0
0
0
0
0
0
0
0
0
0
0
0
0
0
0
0
0
0
0
0
0
0
0
0
0
0
0
0
0
0
0
0
0
0
0
0
0
0
0
0
0
0
0
0
0
0
0
0
0
0
0
0
0
0
0
0
0
0
0
0
0
0
0
0
0
0
0
0
0
0
0
0
0
0
0
0
0
0
0
0
0
0
0
0
0
0
0
0
0
0
0
0
0
0
0
0
0
0
0
0
0
0
0
0
0
0
0
0
0
0
0
0
0
0
0
0
0
0
0
0
0
0
0
0
0
0
0
0
0
0
0
0
0
0
0
0
0
0
0
0
0
0
0
0
0
0
0
0
0
0
0
0
0
0
0
0
0
0
0
0
0
0
0
0
0
0
0
0
0
0
0
0
0
0
0
0
0
0
0
0
0
0
0
0
0
0
0
0
0
0
0
0
0
0
0
0
0
0
0
0
0
0
0
0
0
0
0
0
0
0
0
0
0
0
0
0
0
0
0
0
0
0
0
0
0
0
0
0
0
0
0
0
0
0
0
0
0
0
0
0
0
0
0
0
0
0
0
0
0
0
0
0
0
0
0
0
0
0
0
0
0
0
0
0
0
0
0
0
0
0
0
0
0
0
0
0
0
0
0
0
0
0
0
0
0
0
0
0
0
0
0
0
0
0
0
0
0
0
0
0
0
0
0
0
0
0
0
0
0
0
0
0
0
0
0
0
0
0
0
0
0
0
0
0
0
0
0
0
0
0
0
0
0
0
0
0
0
0
0
0
0
0
0
0
0
0
0
0
0
0
0
0
0
0
0
0
0
0
0
0
0
0
0
0
0
0
0
0
0
0
0
0
0
0
0
0
0
0
0
0
0
0
0
0
0
0
0
0
0
0
0
0
0
0
0
0
0
0
0
0
0
0
0
0
0
0
0
0
0
0
0
0
0
0
0
0
0
0
0
0
0
0
0
0
0
0
0
0
0
0
0
0
0
0
0
0
0
0
0
0
0
0
0
0
0
0
0
0
0
0
0
0
0
0
0
0
0
0
0
0
0
0
0
0
0
0
0
0
0
0
0
0
0
0
0
0
0
0
0
0
0
0
0
0
0
0
0
0
0
0
0
0
0
0
0
0
0
0
0
0
0
0
0
0
0
0
0
0
0
0
0
0
0
0
0
0
0
0
0
0
0
0
0
0
0
0
0
0
0
0
0
0
0
0
0
0
0
0
0
0
0
0
0
0
0
0
0
0
0
0
0
0
0
0
0
0
0
0
0
0
0
0
0
0
0
0
0
0
0
0
0
0
0
0
0
0
0
0
0
0
0
0
0
0
0
0
0
0
0
0
0
0
0
0
0
0
0
0
0
0
0
0
0
0
0
0
0
0
0
0
0
0
0
0
0
0
0
0
0
0
0
0
0
0
0
0
0
0
0
0
0
0
0
0
0
0
0
0
0
0
0
0
0
0
0
0
0
0
0
0
0
0
0
0
0
0
0
0
0
0
0
0
0
0
0
0
0
0
0
0
0
0
0
0
0
0
0
0
0
0
0
0
0
0
0
0
0
0
0
0
0
0
0
0
0
0
0
0
0
0
0
0
0
0
0
0
0
0
0
0
0
0
0
0
0
0
0
0
0
0
0
0
0
0
0
0
0
0
0
0
0
0
0
0
0
0
0
0
0
0
0
0
0
0
0
0
0
0
0
0
0
0
0
0
0
0
0
0
0
0
0
0
0
0
0
0
0
0
0
0
0
0
0
0
0
0
0
0
0
0
0
0
0
0
0
0
0
0
0
0
0
0
0
0
0
0
0
0
0
0
0
0
0
0
0
0
0
0
0
0
0
0
0
0
0
0
0
0
0
0
0
0
0
0
0
0
0
0
0
0
0
0
0
0
0
0
0
0
0
0
0
0
0
0
0
0
0
0
0
0
0
0
0
0
0
0
0
0
0
0
0
0
0
0
0
0
0
0
0
0
0
0
0
0
0
0
0
0
0
0
0
0
0
0
0
0
0
0
0
0
0
0
0
0
0
0
0
0
0
0
0
0
0
0
0
0
0
0
0
0
0
0
0
0
0
0
0
0
0
0
0
0
0
0
0
0
0
0
0
0
0
0
0
0
0
0
0
0
0
0
0
0
0
0
0
0
0
0
0
0
0
0
0
0
0
0
0
0
0
0
0
0
0
0
0
0
0
0
0
0
0
0
0
0
0
0
0
0
0
0
0
0
0
0
0
0
0
0
0
0
0
0
0
0
0
0
0
0
0
0
0
0
0
0
0
0
0
0
0
0
0
0
0
0
0
0
0
0
0
0
0
0
0
0
0
0
0
0
0
0
0
0
0
0
0
0
0
0
0
0
0
0
0
0
0
0
0
0
0
0
0
0
0
0
0
0
0
0
0
0
0
0
0
0
0
0
0
0
0
0
0
0
0
0
0
0
0
0
0
0
0
0
0
0
0
0
0
0
0
0
0
0
0
0
0
0
0
0
0
0
0
0
0
0
0
0
0
0
0
0
0
0
0
0
0
0
0
0
0
0
0
0
0
0
0
0
0
0
0
0
0
0
0
0
0
0
0
0
0
0
0
0
0
0
0
0
0
0
0
0
0
0
0
0
0
0
0
0
0
0
0
0
0
0
0
0
0
0
0
0
0
0
0
0
0
0
0
0
0
0
0
0
0
0
0
0
0
0
0
0
0
0
0
0
0
0
0
0
0
0
0
0
0
0
0
0
0
0
0
0
0
0
0
0
0
0
0
0
0
0
0
0
0
0
0
0
0
0
0
0
0
0
0
0
0
0
0
0
0
0
0
0
0
0
0
0
0
0
0
0
0
0
0
0
0
0
0
0
0
0
0
0
0
0
0
0
0
0
0
0
0
0
0
0
0
0
0
0
0
0
0
0
0
0
0
0
0
0
0
0
0
0
0
0
0
0
0
0
0
0
0
0
0
0
0
0
0
0
0
0
0
0
0
0
0
0
0
0
0
0
0
0
0
0
0
0
0
0
0
0
0
0
0
0
0
0
0
0
0
0
0
0
0
0
0
0
0
0
0
0
0
0
0
0
0
0
0
0
0
0
0
0
0
0
0
0
0
0
0
0
0
0
0
0
0
0
0
0
0
0
0
0
0
0
0
0
0
0
0
0
0
0
0
0
0
0
0
0
0
0
0
0
0
0
0
0
0
0
0
0
0
0
0
0
0
0
0
0
0
0
0
0
0
0
0
0
0
0
0
0
0
0
0
0
0
0
0
0
0
0
0
0
0
0
0
0
0
0
0
0
0
0
0
0
0
0
0
0
0
0
0
0
0
0
0
0
0
0
0
0
0
0
0
0
0
0
0
0
0
0
0
0
0
0
0
0
0
0
0
0
0
0
0
0
0
0
0
0
0
0
0
0
0
0
0
0
0
0
0
0
0
0
0
0
0
0
0
0
0
0
0
0
0
0
0
0
0
0
0
0
0
0
0
0
0
0
0
0
0
0
0
0
0
0
0
0
0
0
0
0
0
0
0
0
0
0
0
0
0
0
0
0
0
0
0
0
0
0
0
0
0
0
0
0
0
0
0
0
0
0
0
0
0
0
0
0
0
0
0
0
0
0
0
0
0
0
0
0
0
0
0
0
0
0
0
0
0
0
0
0
0
0
0
0
0
0
0
0
0
0
0
0
0
0
0
0
0
0
0
0
0
0
0
0
0
0
0
0
0
0
0
0
0
0
0
0
0
0
0
0
0
0
0
0
0
0
0
0
0
0
0
0
0
0
0
0
0
0
0
0
0
0
0
0
0
0
0
0
0
0
0
0


VECTORS element_materi_velocity float
1.041996249716e-04 6.467273783423e-04 0.0 
1.178834620506e-04 5.627546231354e-04 0.0 
1.132346304272e-04 1.269890426455e-04 0.0 
1.488193659999e-05 2.233156225684e-04 0.0 
1.383028408591e-04 1.254734568216e-03 0.0 
-3.196730130977e-05 6.643753165779e-05 0.0 
1.044556503881e-04 1.245280521394e-03 0.0 
7.650667421089e-05 4.844183985721e-04 0.0 
1.154376195905e-04 1.252616027124e-03 0.0 
2.186410888742e-05 2.284617028317e-04 0.0 
1.072209733608e-05 -2.418183580595e-05 0.0 
3.088662149125e-05 4.798203563058e-04 0.0 
4.906115803696e-06 -1.250206815863e-06 0.0 
2.140292612393e-04 1.102155564072e-03 0.0 
4.046545325029e-06 -5.652223120994e-07 0.0 
1.205238833278e-05 1.576782411664e-04 0.0 
1.770267616528e-04 1.297845175911e-03 0.0 
-2.556429003246e-05 5.074780953064e-05 0.0 
5.620240545823e-06 -6.334055668416e-05 0.0 
4.562142031789e-06 -6.241226945828e-05 0.0 
2.604747212786e-05 2.339936469657e-04 0.0 
2.112246986821e-04 9.175130726120e-04 0.0 
2.582041443555e-04 9.265855385316e-04 0.0 
7.815755999780e-05 1.003477246516e-05 0.0 
2.537453616400e-04 9.365972405305e-04 0.0 
1.187253590024e-05 -2.123427022601e-05 0.0 
2.686257005191e-04 1.356228893021e-03 0.0 
1.272470178342e-04 6.030953332224e-05 0.0 
2.692804713219e-04 9.278920146563e-04 0.0 
6.369615911574e-05 8.657266905019e-06 0.0 
1.137836224245e-05 -3.014845448206e-05 0.0 
7.841013681982e-06 -6.575653552158e-05 0.0 
1.310936095371e-04 1.583982018293e-04 0.0 
3.415491813245e-06 -8.849886729603e-06 0.0 
2.840154923235e-05 1.096779788799e-06 0.0 
7.718788012060e-06 7.732780524762e-08 0.0 
7.027067306873e-06 -1.247279025195e-09 0.0 
8.537941771689e-05 2.255740546271e-05 0.0 
8.619319530735e-05 1.389594018893e-03 0.0 
7.849853669277e-05 1.391555264549e-03 0.0 
3.290981221610e-04 1.152745930390e-03 0.0 
2.861463544796e-05 2.617122759740e-06 0.0 
-1.541224340723e-05 3.393698634174e-04 0.0 
2.850266900203e-04 1.294960405852e-03 0.0 
7.890479818437e-06 3.167039821455e-04 0.0 
-8.205537670237e-06 2.959412918451e-04 0.0 
6.680858462687e-07 -2.840385519048e-05 0.0 
8.990491743711e-06 2.688462935189e-04 0.0 
-1.229377791198e-05 -3.304320707141e-05 0.0 
2.075330910139e-04 1.173696450701e-03 0.0 
3.014911074395e-04 1.058158473842e-03 0.0 
6.217116426503e-06 -6.100133068416e-05 0.0 
3.833042449048e-05 -2.825413189999e-05 0.0 
2.973353574415e-04 1.174144095525e-03 0.0 
8.634719717535e-05 1.427295293770e-04 0.0 
1.216564967977e-05 -5.637774090085e-05 0.0 
5.132205468335e-06 -5.987189075233e-05 0.0 
6.930264671130e-06 -8.973045362447e-06 0.0 
1.069216648324e-05 -6.585634701797e-05 0.0 
1.449369998298e-05 1.589225759858e-04 0.0 
-3.182391220883e-05 -9.502460059496e-06 0.0 
1.673658964159e-04 6.429477401208e-05 0.0 
2.629967207039e-04 4.112948948683e-04 0.0 
2.933182145251e-05 -3.050359981106e-05 0.0 
8.032305491058e-06 -1.144145490931e-06 0.0 
2.607612650222e-04 1.067827848579e-03 0.0 
-3.156426796163e-05 -2.253098689068e-06 0.0 
1.373431134425e-04 1.475328844496e-04 0.0 
2.294294547671e-05 -6.074223960606e-05 0.0 
1.188848042357e-04 8.283957182038e-05 0.0 
1.794083575128e-05 -1.825361621941e-05 0.0 
1.476048809582e-05 4.368291571832e-05 0.0 
1.663072343000e-04 8.057252605250e-05 0.0 
7.007329064296e-07 -6.647331503073e-05 0.0 
1.111933961759e-05 -5.477260261559e-05 0.0 
5.139103841301e-05 2.033246020419e-04 0.0 
1.069428498752e-04 1.714551118211e-04 0.0 
-3.732052858354e-05 1.978266541331e-04 0.0 
1.238747834355e-05 -6.568949993751e-05 0.0 
-4.433879480030e-05 2.276511556364e-04 0.0 
2.363132885214e-05 -5.838394613991e-05 0.0 
1.679701950404e-04 1.259539311383e-03 0.0 
1.985637567917e-04 7.698166176096e-04 0.0 
1.421559618673e-04 7.574720760881e-04 0.0 
1.316821147094e-04 1.169041034166e-03 0.0 
1.206286991837e-04 1.164962581146e-03 0.0 
1.050785930675e-05 -1.588455617582e-05 0.0 
1.840510431492e-06 -1.086152996792e-05 0.0 
3.147979748653e-04 4.092670196542e-04 0.0 
1.488618051352e-04 1.248454091631e-03 0.0 
8.420682512280e-06 -6.493190543948e-05 0.0 
2.858640593700e-04 1.178223884928e-03 0.0 
2.352097485661e-05 6.343730259770e-04 0.0 
2.842967433071e-05 6.860371913700e-04 0.0 
2.945911834149e-05 8.071310215800e-05 0.0 
6.233741667959e-05 1.733577492737e-05 0.0 
1.882618506557e-04 1.259866353620e-03 0.0 
3.261827958192e-05 2.418029045368e-06 0.0 
1.709469708363e-05 1.008426338644e-03 0.0 
2.354169342616e-04 4.503979153901e-04 0.0 
1.330983848596e-04 1.328532999501e-03 0.0 
5.211108084907e-06 -5.499677387784e-07 0.0 
2.601078720226e-04 8.726022500021e-05 0.0 
1.619669152390e-04 5.836653949136e-05 0.0 
1.510450550953e-04 2.258104996572e-04 0.0 
-2.410827936200e-06 -3.473596774775e-05 0.0 
5.723382754526e-06 -3.643226512499e-06 0.0 
2.392712924797e-05 5.464016055900e-04 0.0 
-2.111464379480e-05 -2.550133387280e-05 0.0 
9.737299755587e-06 -2.795632352223e-07 0.0 
3.414533491262e-04 4.542902487495e-04 0.0 
1.200683630986e-06 -6.693347801244e-05 0.0 
2.726089576698e-04 1.950823868600e-04 0.0 
3.383550278056e-04 1.227518255704e-03 0.0 
2.082029094131e-05 -4.896148048110e-05 0.0 
1.878023280776e-04 4.213941470706e-04 0.0 
2.484644705183e-04 3.534514796802e-04 0.0 
2.007519917301e-05 1.098536390421e-06 0.0 
2.161345541637e-05 1.070660765675e-03 0.0 
2.066801902769e-04 3.304631995897e-04 0.0 
2.075981723905e-05 -6.510462156571e-05 0.0 
2.946746394701e-04 1.205045413810e-03 0.0 
1.893123987992e-05 5.008070161628e-04 0.0 
1.966978545581e-04 2.834441778094e-04 0.0 
-5.235319505862e-05 1.301202317739e-04 0.0 
3.471924189082e-04 1.237320811476e-03 0.0 
1.791782179655e-05 -5.012591217407e-05 0.0 
3.290545655825e-04 1.280744926150e-03 0.0 
3.925291194436e-05 1.435351687395e-04 0.0 
-3.611166189029e-05 1.178954780821e-04 0.0 
1.671287930476e-05 -2.095513728292e-05 0.0 
1.177327287254e-05 2.210990816478e-04 0.0 
4.020138056093e-04 6.988346488726e-04 0.0 
3.421584753019e-04 1.213449941156e-03 0.0 
3.086683511776e-05 1.524095907866e-06 0.0 
3.357871591382e-06 -1.248923065674e-06 0.0 
1.484684056896e-05 -1.581539504874e-05 0.0 
4.194651518211e-04 7.067872112656e-04 0.0 
4.390012320204e-05 5.892129435556e-06 0.0 
3.894997310844e-04 8.624080776009e-04 0.0 
2.984751054133e-05 1.620676429689e-04 0.0 
1.396596584050e-04 1.043150214275e-04 0.0 
2.272698528377e-04 1.090913598515e-03 0.0 
5.441295102865e-05 8.322555988900e-04 0.0 
3.864069179847e-04 7.723393393896e-04 0.0 
3.180279129889e-04 1.245860049819e-03 0.0 
4.273993011789e-04 6.378194860820e-04 0.0 
2.097953075343e-04 2.205036863556e-04 0.0 
9.924314143609e-05 1.318062705428e-03 0.0 
2.580788352899e-04 1.641816488689e-04 0.0 
9.779241558541e-06 -6.662919187070e-05 0.0 
2.433295244665e-05 1.206674249011e-03 0.0 
4.595395613397e-06 -6.445763956643e-05 0.0 
3.454516633224e-04 1.240803122885e-03 0.0 
3.503236674659e-05 4.579131765212e-06 0.0 
1.580167857585e-04 2.645746252036e-04 0.0 
7.972053887797e-06 -1.339321919109e-05 0.0 
1.698510243410e-05 3.662126975505e-04 0.0 
2.708956712848e-04 9.947526222614e-05 0.0 
5.657821072492e-05 1.269743307177e-03 0.0 
2.313254310313e-04 1.519196938393e-04 0.0 
7.801861340495e-06 -7.018042835525e-06 0.0 
2.180621373565e-05 -6.402547600300e-05 0.0 
8.035011653238e-06 -3.617972210954e-06 0.0 
3.878113363431e-04 1.021173404848e-03 0.0 
1.110958620224e-05 -6.712851250379e-07 0.0 
2.405492590048e-05 1.281712579240e-03 0.0 
1.759372983393e-04 2.052335290692e-04 0.0 
3.304931938657e-04 1.281065720527e-03 0.0 
6.859026725143e-06 -2.492904553740e-05 0.0 
6.733773269765e-06 4.195386449349e-04 0.0 
2.199990083659e-04 1.260978881591e-04 0.0 
4.777574601241e-05 7.537220638651e-04 0.0 
6.429408221289e-05 1.320317914409e-03 0.0 
2.281457334824e-04 1.999856485748e-04 0.0 
3.326496710810e-04 1.290174001847e-03 0.0 
2.877483657686e-04 2.469333156723e-04 0.0 
2.175217606217e-05 -4.591933478608e-05 0.0 
1.006487085302e-04 4.472847656052e-05 0.0 
1.414479119325e-04 9.479154228462e-05 0.0 
1.566511103878e-04 4.567153670633e-04 0.0 
1.941394949672e-05 -4.428794211920e-05 0.0 
1.216890016283e-04 1.802672572229e-05 0.0 
3.664497691708e-04 9.504016461008e-04 0.0 
1.066531704041e-04 4.248804039168e-04 0.0 
3.572943228586e-04 1.142890093651e-03 0.0 
2.592104742102e-04 2.149092162035e-04 0.0 
2.151826496939e-05 1.719309517731e-04 0.0 
3.099233713222e-04 5.034043268853e-04 0.0 
5.436497480289e-06 -5.205027600344e-06 0.0 
-2.556595198915e-05 2.421058624065e-04 0.0 
1.856076903877e-04 9.397493230331e-05 0.0 
3.049628030776e-04 4.231743061897e-04 0.0 
-8.524147145490e-05 7.975386750508e-05 0.0 
3.624614942750e-04 1.045411541366e-03 0.0 
1.244360430961e-04 8.317739715253e-06 0.0 
1.130914312679e-05 -6.747259546283e-05 0.0 
1.232965483921e-04 1.787235176844e-04 0.0 
2.886203640732e-04 7.575065779452e-04 0.0 
8.080204251686e-05 -4.705998463130e-05 0.0 
1.319456598950e-04 1.120603613380e-05 0.0 
2.899893443424e-04 1.102118258522e-03 0.0 
2.478645703581e-04 1.009090857646e-03 0.0 
5.929398759268e-05 7.287709648239e-06 0.0 
5.006590068305e-05 -5.835752917214e-05 0.0 
4.234440749381e-04 5.149175014197e-04 0.0 
4.123933536013e-04 8.946647072334e-04 0.0 
2.714856982015e-04 6.925503278243e-04 0.0 
3.853643180331e-04 9.763878221133e-04 0.0 
3.727261953154e-04 1.105236007656e-03 0.0 
2.744562788606e-04 8.082906085340e-05 0.0 
3.155250644354e-04 2.923695728813e-04 0.0 
-5.906699651027e-05 6.204166535479e-05 0.0 
1.706200199780e-04 5.375805307620e-04 0.0 
2.529569583393e-04 5.245386958247e-04 0.0 
4.200473067310e-04 5.708918411256e-04 0.0 
2.833835673422e-04 4.488825397360e-04 0.0 
3.708389130507e-06 5.889816646280e-05 0.0 
1.219983754995e-04 2.679400926726e-06 0.0 
7.237196717943e-05 1.301545764227e-03 0.0 
1.945640365869e-04 1.156795414684e-04 0.0 
1.173749160207e-04 -3.115331836152e-06 0.0 
1.067283259423e-05 -6.768457259540e-05 0.0 
2.665391231487e-04 6.187877327669e-04 0.0 
9.466441451590e-06 -6.780434857236e-05 0.0 
1.149054151885e-05 -6.703497004551e-05 0.0 
-3.222026731627e-05 2.777796054487e-04 0.0 
4.184924657070e-05 -6.148726998546e-05 0.0 
2.447261920035e-04 5.543262904815e-04 0.0 
3.908603640309e-05 -6.236050666956e-05 0.0 
3.154635142633e-05 1.751902094786e-04 0.0 
3.482243751437e-05 -4.639285075901e-05 0.0 
2.455869702751e-05 -6.518176813411e-05 0.0 
1.321062144103e-04 1.665319790324e-05 0.0 
4.018384406043e-04 9.772300644287e-04 0.0 
9.591840820277e-06 -1.085216501938e-06 0.0 
-7.377688519263e-05 6.408071824732e-05 0.0 
8.249640764557e-05 1.671238360510e-04 0.0 
2.332464302089e-04 1.133194184230e-04 0.0 
3.372421470548e-04 9.417504134418e-04 0.0 
1.297135335190e-04 5.345887478500e-06 0.0 
1.208368088308e-05 -3.207331163335e-07 0.0 
3.213319400224e-04 5.720171045399e-04 0.0 
1.160494295487e-04 7.046436547794e-05 0.0 
1.247364691135e-04 1.351926559176e-05 0.0 
8.761511084553e-06 -1.860191028959e-05 0.0 
4.367107933451e-04 6.376604396298e-04 0.0 
3.009937681781e-04 6.725955406790e-04 0.0 
1.425143285534e-04 5.609357443458e-05 0.0 
2.215779292477e-04 9.213021513493e-05 0.0 
5.665163271723e-05 1.856843179930e-04 0.0 
3.869093621804e-04 8.482997862177e-04 0.0 
2.382250979352e-05 7.432899781808e-05 0.0 
4.130216975034e-04 4.580862572359e-04 0.0 
2.560004364323e-04 6.481870267795e-05 0.0 
5.502069356540e-05 1.179622176413e-03 0.0 
1.777976908421e-05 -5.644095798748e-05 0.0 
3.705332103385e-04 1.009784834208e-03 0.0 
1.204573097304e-04 8.925890349582e-05 0.0 
3.775171443760e-05 4.975347909156e-05 0.0 
1.764005324801e-05 -2.525911634166e-05 0.0 
2.309426061755e-04 5.608105554801e-04 0.0 
4.076696188196e-04 8.565265702158e-04 0.0 
2.235841330900e-04 2.599502095494e-04 0.0 
2.078937635823e-04 4.942452730960e-04 0.0 
3.213496796235e-04 4.885905967377e-04 0.0 
4.412759734157e-04 6.888716934022e-04 0.0 
1.405805624021e-05 3.104758594187e-07 0.0 
2.537299392344e-04 5.798936221089e-05 0.0 
4.357253081678e-04 7.222356332988e-04 0.0 
2.989251217277e-04 2.087333556657e-04 0.0 
2.624460632116e-04 6.466876906349e-05 0.0 
7.242251702630e-05 4.326814293098e-05 0.0 
2.595581064579e-04 1.212613004921e-03 0.0 
2.190008676173e-04 6.460297071233e-05 0.0 
9.790402288717e-05 -1.994756732740e-05 0.0 
3.082845982153e-04 5.861920420200e-04 0.0 
-7.542926734300e-05 5.134664673823e-05 0.0 
3.655337313290e-04 9.571244979935e-04 0.0 
1.328716293497e-04 5.997020238208e-05 0.0 
8.065028938549e-05 1.402318072649e-04 0.0 
7.069711679365e-05 2.917767985108e-05 0.0 
3.896750242527e-04 7.714927383741e-04 0.0 
1.227123608212e-05 -6.502069544769e-05 0.0 
3.122727311471e-04 6.376772018020e-04 0.0 
2.559198060041e-04 5.801194580523e-05 0.0 
3.946676875125e-04 8.943063446764e-04 0.0 
2.631389730055e-04 1.119931402560e-03 0.0 
-8.030045148018e-06 3.980927466315e-05 0.0 
1.024856321845e-04 -1.214166834832e-05 0.0 
8.060871029496e-05 -3.026736313261e-05 0.0 
2.193112617455e-04 5.764000912040e-04 0.0 
3.153043100976e-04 6.592447171681e-04 0.0 
2.966324346808e-04 5.529779459114e-04 0.0 
1.999477803799e-04 5.673968938903e-05 0.0 
1.993741612055e-04 8.320407570597e-05 0.0 
5.564755587944e-06 4.332684244157e-05 0.0 
3.063436807190e-04 1.891713067864e-04 0.0 
-9.793042339924e-06 1.562344369347e-04 0.0 
4.455858689869e-05 6.989013396805e-05 0.0 
5.649932795184e-05 6.918997969319e-05 0.0 
4.131754171961e-04 4.133493665055e-04 0.0 
9.456404204949e-05 6.426428196848e-05 0.0 
5.619714415187e-05 1.093413597955e-04 0.0 
4.355385350391e-04 6.515979307824e-04 0.0 
7.592931395600e-05 7.602491968781e-05 0.0 
8.437225578331e-05 -2.357121155928e-05 0.0 
4.384535137798e-04 7.004594703930e-04 0.0 
3.881925768508e-05 1.968791901468e-04 0.0 
1.618611400965e-04 8.536743165936e-05 0.0 
2.871921438026e-04 9.477275180135e-05 0.0 
1.204257000058e-05 1.405594727020e-04 0.0 
2.266649978585e-05 4.148565898274e-06 0.0 
7.748428349832e-05 9.520010134624e-05 0.0 
4.383232190014e-04 5.741844596598e-04 0.0 
2.287166158423e-05 3.128436534951e-05 0.0 
1.807167770904e-04 9.780670878675e-06 0.0 
2.308923273922e-04 8.201766582767e-05 0.0 
8.884584630164e-05 -3.286864319429e-05 0.0 
4.233913277607e-04 8.476993417874e-04 0.0 
5.489848910836e-05 4.619446848549e-05 0.0 
1.686763525916e-04 5.762206496413e-05 0.0 
2.430494332556e-04 4.646163307264e-05 0.0 
1.454440842518e-05 1.179033383017e-04 0.0 
1.846776757309e-04 8.699542238523e-04 0.0 
1.250541447925e-04 -7.555525220649e-07 0.0 
8.773879731673e-05 2.318878002236e-04 0.0 
1.818920248912e-04 9.455604850407e-04 0.0 
5.875711046414e-05 3.535982521479e-05 0.0 
1.104299048035e-04 3.329813867735e-06 0.0 
5.718551317880e-05 5.432719870109e-05 0.0 
2.235661478348e-04 9.411943837817e-04 0.0 
3.495496468931e-04 4.351035250569e-04 0.0 
2.795087744845e-05 2.380957078146e-04 0.0 
4.122131060102e-04 9.609207168317e-04 0.0 
4.286173771852e-04 7.699501488261e-04 0.0 
4.218980548218e-04 7.389859175131e-04 0.0 
3.838084729980e-04 3.938649085192e-04 0.0 
5.534483894484e-05 2.700911481264e-05 0.0 
2.799881534568e-04 9.885271145548e-04 0.0 
3.575483561918e-04 1.092224502938e-03 0.0 
1.896354721125e-04 6.522824507542e-05 0.0 
3.325891448087e-05 -6.376915261765e-05 0.0 
3.827037599430e-04 1.102323211436e-03 0.0 
1.162382083901e-04 2.107302824873e-04 0.0 
4.849512145207e-05 1.315986708268e-03 0.0 
8.436724209738e-05 -3.810176904306e-05 0.0 
1.546684913934e-04 6.699039495074e-05 0.0 
2.718420286676e-04 5.378514077176e-04 0.0 
1.113705011988e-04 1.782913769854e-04 0.0 
4.243378309735e-04 8.771711092090e-04 0.0 
2.349294515543e-04 4.166410147809e-05 0.0 
1.159994729455e-04 -2.488107804594e-05 0.0 
4.318766258177e-05 1.567522281210e-05 0.0 
3.819167714490e-04 1.034794163044e-03 0.0 
9.568193868076e-05 2.227676773786e-06 0.0 
7.962638281290e-05 -4.876883110805e-05 0.0 
9.606899878475e-05 3.662618301619e-04 0.0 
9.079259043171e-05 2.706896854115e-04 0.0 
2.753620140792e-04 3.732411590393e-04 0.0 
4.407153281494e-04 5.684963563780e-04 0.0 
3.331373558073e-04 8.365611936884e-04 0.0 
4.065928091732e-04 9.889222385854e-04 0.0 
3.369919130923e-05 8.389239002479e-06 0.0 
8.534995310214e-05 2.088390651238e-05 0.0 
2.652090866451e-04 3.841356624379e-04 0.0 
2.808040368540e-04 6.095290135660e-04 0.0 
1.189266408344e-04 -2.689872359876e-05 0.0 
3.034008296104e-04 4.362106433821e-04 0.0 
9.160226397218e-05 4.813108441320e-05 0.0 
1.273621333465e-04 4.429491104542e-05 0.0 
4.324084950423e-04 5.183691664059e-04 0.0 
1.887746951717e-04 1.067925034397e-05 0.0 
5.731318446427e-05 -4.240484124934e-05 0.0 
2.314597796557e-04 4.093488600020e-04 0.0 
9.189667928428e-05 -7.424352808342e-06 0.0 
3.467758553482e-04 3.298216935668e-04 0.0 
4.381505164383e-04 7.444414634158e-04 0.0 
3.064710649283e-04 3.438743077839e-04 0.0 
5.734886972357e-05 6.152133537542e-05 0.0 
5.214819554880e-05 7.209073299723e-05 0.0 
1.289990252241e-04 1.759390491355e-04 0.0 
1.200557197069e-04 -2.073191690439e-05 0.0 
1.949811659834e-04 4.974922984719e-04 0.0 
5.702631519708e-05 2.180093766637e-04 0.0 
1.606256138435e-04 4.234343226940e-05 0.0 
3.808946725197e-05 3.498766535045e-05 0.0 
3.488648209665e-04 6.636334546245e-04 0.0 
2.341467354926e-04 1.229452757061e-03 0.0 
2.093212370826e-04 9.444462659439e-04 0.0 
5.814123116833e-05 1.006080061100e-05 0.0 
2.937614519548e-04 3.498376422095e-04 0.0 
3.726065136914e-04 8.777209274404e-04 0.0 
4.208595313021e-04 6.671074691879e-04 0.0 
5.389605076468e-05 2.515079330775e-05 0.0 
8.892411562978e-06 -5.880381824987e-05 0.0 
2.694123515612e-04 1.486554777981e-04 0.0 
3.724377529003e-04 3.118004622587e-04 0.0 
2.913610329325e-04 1.599941669099e-04 0.0 
-5.782485324685e-05 1.523726206155e-04 0.0 
4.588049633957e-05 1.140759816880e-03 0.0 
2.985534096303e-05 -6.419529988534e-05 0.0 
1.036821432735e-04 1.246504573968e-04 0.0 
1.218532866970e-05 2.363338565781e-06 0.0 
2.486377682491e-04 6.089776119983e-05 0.0 
3.423721088479e-04 1.119335557275e-03 0.0 
2.983552516583e-06 -6.481633409375e-05 0.0 
3.975119008935e-04 4.479851561290e-04 0.0 
2.559063691457e-04 1.236150530324e-04 0.0 
4.017120013808e-04 7.395697000738e-04 0.0 
5.745135247481e-05 4.297485541389e-05 0.0 
4.007116898004e-04 1.014014306605e-03 0.0 
4.386131320229e-04 6.053166268545e-04 0.0 
6.276664254608e-05 -4.212530780689e-05 0.0 
2.338461858314e-04 4.838040686508e-04 0.0 
1.153487859546e-04 -1.864414755672e-05 0.0 
6.012188836582e-05 4.040421905228e-05 0.0 
2.940770101823e-05 2.958287705480e-05 0.0 
2.096855059640e-05 3.505092234338e-05 0.0 
2.855815924651e-05 3.725152137257e-05 0.0 
3.995247808391e-04 6.673275937458e-04 0.0 
2.466971087903e-04 4.765879050878e-04 0.0 
2.517030603576e-04 3.122749023875e-04 0.0 
3.222941958370e-04 3.980211842650e-04 0.0 
3.194965195096e-04 5.037529139906e-04 0.0 
4.821646167621e-05 -4.541252632261e-05 0.0 
2.431122373602e-04 4.019156380024e-04 0.0 
5.739372622554e-05 3.105797057481e-05 0.0 
1.953583811961e-04 4.246807861874e-04 0.0 
2.600885891228e-04 6.348779228492e-05 0.0 
2.075272176172e-04 4.207238467408e-04 0.0 
3.515388957425e-04 2.083775433448e-04 0.0 
3.535573956256e-04 2.993668854452e-04 0.0 
3.592521648236e-04 7.551436881362e-04 0.0 
3.543981954565e-05 1.030831456668e-04 0.0 
5.666888172150e-05 1.575264484161e-04 0.0 
2.730454485161e-04 3.242203517128e-04 0.0 
1.763218581150e-04 9.661007647468e-05 0.0 
5.324532185617e-05 -4.530215136933e-05 0.0 
6.948449880192e-05 -4.546257010894e-05 0.0 
4.460221246179e-05 7.529418261851e-06 0.0 
1.357722189945e-04 1.605455634725e-04 0.0 
2.777781216056e-05 2.474432164630e-05 0.0 
9.371239884504e-05 1.358672377847e-04 0.0 
4.367803782307e-04 5.105633285170e-04 0.0 
2.694627340516e-06 -5.801964902689e-05 0.0 
3.033067552701e-05 2.152470857470e-05 0.0 
5.595138759272e-05 1.197580899563e-05 0.0 
7.318182154743e-05 -4.116256670540e-05 0.0 
2.370424901594e-04 4.657911602163e-05 0.0 
4.172513686681e-05 1.379138744558e-05 0.0 
-2.086679391648e-06 -5.890213323143e-05 0.0 
3.208287955804e-04 3.135888625155e-04 0.0 
4.335347456985e-04 5.432079135028e-04 0.0 
4.300597740843e-04 4.661576034396e-04 0.0 
4.419253621290e-04 6.203845593572e-04 0.0 
5.620789853916e-05 1.319566099622e-04 0.0 
2.896589762533e-05 1.648031473721e-05 0.0 
1.898170310326e-04 4.191663087687e-05 0.0 
-4.002786672154e-06 2.451882536785e-05 0.0 
1.824972866706e-05 3.369565309977e-07 0.0 
1.958629211910e-06 -5.986475203537e-05 0.0 
4.039547958712e-04 9.409410663416e-04 0.0 
1.840240398799e-05 -3.770361213655e-05 0.0 
3.687453697191e-04 1.149601572067e-03 0.0 
2.917700115828e-05 6.503784508089e-06 0.0 
2.691701034462e-05 1.243145897504e-05 0.0 
4.119482706155e-04 7.785969734568e-04 0.0 
4.407846807999e-06 -4.114284359397e-05 0.0 
-1.563401530062e-05 2.101718043931e-05 0.0 
1.451080233601e-05 -4.236588869118e-05 0.0 
5.766494813058e-05 -3.296234919989e-06 0.0 
2.446500496504e-04 1.268131727913e-03 0.0 
3.397180552958e-04 1.062988997524e-03 0.0 
2.229490604134e-05 8.449513041586e-06 0.0 
2.199666874775e-04 1.282596750548e-03 0.0 
3.925302668590e-05 6.963117150594e-05 0.0 
3.316744419441e-04 1.823808848255e-04 0.0 
1.914127173116e-04 1.023582302622e-03 0.0 
1.318624449694e-04 3.360054926962e-04 0.0 
2.493312549794e-04 5.685249409585e-05 0.0 
2.067754231243e-05 6.162150311186e-05 0.0 
2.083238032639e-05 6.565677675063e-06 0.0 
2.794116870533e-05 3.193845832062e-05 0.0 
2.359003630229e-05 3.483921162466e-05 0.0 
1.076636055729e-04 -2.045191348670e-05 0.0 
3.968526273317e-05 -4.806409909668e-05 0.0 
3.377136121472e-04 2.584790916059e-04 0.0 
1.024406911859e-04 -1.814869865716e-05 0.0 
1.841015225392e-05 4.842878706279e-06 0.0 
1.005268917736e-04 1.022340016448e-04 0.0 
1.063946396794e-04 -2.304664526927e-05 0.0 
1.076197728571e-04 -3.100736219134e-05 0.0 
1.686909109883e-04 9.443551272165e-04 0.0 
1.977550363217e-05 3.241396156302e-06 0.0 
1.732196488216e-06 -4.531550605727e-05 0.0 
1.388796210297e-05 2.957424211889e-06 0.0 
9.078687724361e-05 -3.939035516439e-05 0.0 
2.712067694780e-05 2.145014683919e-05 0.0 
2.602673264456e-04 3.027786720932e-04 0.0 
-6.603703277602e-06 -5.578334964697e-05 0.0 
3.147823706297e-04 2.447569880913e-04 0.0 
1.712395196342e-04 4.288654853404e-04 0.0 
2.979121283881e-05 1.887951047758e-05 0.0 
4.087225265542e-04 6.344764188037e-04 0.0 
3.009224635848e-04 1.419572855391e-04 0.0 
-3.062135186365e-06 1.121006650867e-04 0.0 
8.711314415698e-05 1.599212999603e-05 0.0 
9.067821416886e-05 -4.365206654543e-05 0.0 
1.017852457227e-04 -3.589302194413e-05 0.0 
-1.349100516326e-05 -3.824422092560e-05 0.0 
2.842782860021e-05 1.457765583760e-05 0.0 
5.528369818296e-05 5.400707012875e-05 0.0 
1.044733285721e-04 5.851085176891e-06 0.0 
1.858177577743e-04 1.107231507191e-03 0.0 
5.948889983591e-05 -5.628430057809e-05 0.0 
1.011000085822e-04 -2.927156956283e-05 0.0 
4.273920805369e-04 6.274339979845e-04 0.0 
2.089275654042e-05 7.225709770515e-06 0.0 
3.863790434121e-05 -4.545246659475e-05 0.0 
1.111575897969e-04 -8.820337416607e-06 0.0 
3.982953465871e-04 3.297534969899e-04 0.0 
1.582317103718e-04 -4.347480765911e-06 0.0 
1.196070643266e-04 -1.893034885657e-05 0.0 
1.175443510124e-04 -1.460724640345e-05 0.0 
4.009268155350e-04 3.659240241533e-04 0.0 
3.744286595235e-04 2.835029834188e-04 0.0 
2.339016272026e-04 5.422502962673e-05 0.0 
3.729823242438e-04 2.817044208450e-04 0.0 
6.935313882034e-05 -4.432876030995e-05 0.0 
1.299299793293e-04 1.337966726699e-04 0.0 
4.431222646007e-05 -4.807906205447e-05 0.0 
3.223551378099e-04 1.630340246086e-04 0.0 
2.366581380918e-04 4.051828381686e-05 0.0 
2.607329077267e-05 5.320762777670e-06 0.0 
1.687388475529e-04 3.602970281669e-04 0.0 
5.204850646399e-05 -5.841607973063e-05 0.0 
1.528903905531e-05 3.546360296200e-06 0.0 
6.468253836009e-05 1.274605838107e-05 0.0 
2.960615969358e-04 1.445638023894e-04 0.0 
-6.283705507271e-06 -4.410964406525e-05 0.0 
1.749882559370e-05 2.567836658415e-06 0.0 
2.022397206300e-04 3.508285774869e-04 0.0 
7.568886911774e-05 -4.640404947760e-05 0.0 
1.048117111615e-05 1.785227332493e-06 0.0 
1.036412257749e-04 -1.433206304688e-05 0.0 
3.670744480927e-04 6.015049229429e-04 0.0 
3.498948236301e-04 9.832176069724e-04 0.0 
2.408123868631e-04 4.538918969685e-05 0.0 
1.083180869926e-04 -2.675697893423e-05 0.0 
1.704952599719e-04 4.697041095302e-06 0.0 
3.038635203445e-04 7.468105100008e-04 0.0 
4.219080137230e-04 7.814487003459e-04 0.0 
2.389107679780e-04 6.595748080142e-05 0.0 
4.360385996405e-05 1.054616498973e-03 0.0 
6.377726453246e-05 -4.479228650919e-05 0.0 
2.251526201832e-04 4.177802972660e-05 0.0 
8.537060895323e-05 -4.665718082952e-05 0.0 
5.412097832646e-05 -2.174154110892e-05 0.0 
-1.303568763127e-05 -4.933366070286e-05 0.0 
1.655321694298e-04 1.724074983865e-04 0.0 
8.580582700948e-05 -4.339263219540e-05 0.0 
5.576254672084e-05 -3.961746685386e-05 0.0 
3.276382801536e-04 1.814392851124e-04 0.0 
1.110597052198e-04 -1.259837672315e-05 0.0 
1.646859070459e-04 1.018883896970e-03 0.0 
7.149989835384e-05 -4.962602005497e-05 0.0 
9.294332516018e-06 1.456168823809e-06 0.0 
4.329120258860e-04 5.003428181445e-04 0.0 
4.845082691076e-05 -3.696480412804e-05 0.0 
4.320395481249e-04 4.640398688324e-04 0.0 
5.044267430412e-05 -3.979504124922e-05 0.0 
-7.321818492907e-06 -5.355812477278e-05 0.0 
3.420534941434e-04 9.263792455877e-04 0.0 
1.359626227289e-05 -4.719044570018e-05 0.0 
8.431891963626e-06 -6.804982882916e-05 0.0 
4.032518807823e-05 -3.997837158438e-05 0.0 
1.030050180545e-04 -7.060621817623e-06 0.0 
4.772361024860e-05 4.607851127506e-04 0.0 
1.742785312555e-04 1.302381111732e-07 0.0 
1.680759022675e-04 5.478043860996e-08 0.0 
3.264439472361e-04 1.201583936156e-03 0.0 
2.154719978722e-04 1.376293454078e-03 0.0 
6.788038332295e-05 1.438106352600e-04 0.0 
4.212490736728e-04 4.179690477228e-04 0.0 
8.047835133292e-06 -6.816869937029e-05 0.0 
2.311278192793e-05 -6.582641165592e-05 0.0 
-1.292830513619e-06 -5.217494299567e-05 0.0 
4.787185428085e-05 -5.969550060801e-05 0.0 
2.890337122461e-04 2.318245837708e-04 0.0 
5.462543185870e-05 4.654747780885e-04 0.0 
6.119620607010e-05 -5.659032909682e-06 0.0 
4.381783014139e-05 -5.723110980029e-05 0.0 
4.885506374192e-05 -2.215863302731e-05 0.0 
9.128264508377e-05 5.834596211708e-06 0.0 
2.396875956974e-05 1.800754430665e-05 0.0 
9.627424327920e-06 -4.710384590170e-05 0.0 
6.594601897275e-06 -5.330037958672e-05 0.0 
1.578949903680e-05 2.007622560421e-06 0.0 
8.204493077684e-06 1.111667834606e-06 0.0 
1.012672103432e-05 -4.239701063324e-05 0.0 
4.328493429297e-05 -3.709323123326e-05 0.0 
1.046891533724e-04 -2.441558372266e-05 0.0 
8.857558443062e-05 9.284988899482e-06 0.0 
2.603646943395e-05 -6.540260010785e-05 0.0 
9.248848537310e-05 1.927448189651e-06 0.0 
9.871073848360e-06 -6.713622864101e-05 0.0 
4.201285825949e-05 -4.274769382791e-05 0.0 
5.923750503989e-05 -3.652472087353e-05 0.0 
7.256465067950e-06 -6.728431306931e-05 0.0 
8.029527614885e-06 -4.468573037355e-05 0.0 
1.575325835899e-04 3.612347019440e-04 0.0 
7.500852266952e-06 -6.822044588101e-05 0.0 
2.380302587994e-04 1.356226321568e-03 0.0 
2.453479062058e-04 1.388797614627e-03 0.0 
1.814571413380e-04 1.422260520054e-05 0.0 
3.276616719024e-06 -5.341774699927e-05 0.0 
7.630925102995e-05 -4.961971705685e-05 0.0 
3.294873550833e-05 1.483545302338e-04 0.0 
3.842499837047e-05 -1.623052051840e-06 0.0 
1.093911611984e-04 6.052375722195e-05 0.0 
9.922977674925e-05 5.589282171723e-04 0.0 
1.262637321682e-04 2.882962932217e-04 0.0 
1.594597538980e-05 -6.571513683243e-05 0.0 
4.149743608495e-04 9.244233964815e-04 0.0 
1.545230541824e-04 1.394092366617e-03 0.0 
1.441069672225e-04 1.441729262748e-03 0.0 
8.078088749180e-06 -6.814747451925e-05 0.0 
8.770879201797e-06 -6.762368905110e-05 0.0 
5.095054105451e-06 -6.587762437604e-05 0.0 
3.284058831980e-05 -6.237659395986e-05 0.0 
6.096431191447e-06 -6.736518399584e-05 0.0 
8.340311894253e-06 -3.971480167522e-05 0.0 
-3.069188774645e-05 -2.365001685237e-05 0.0 
3.898265543505e-05 -5.916073363676e-05 0.0 
3.924289446774e-05 8.854576452158e-04 0.0 
2.019001255265e-04 1.427400715328e-03 0.0 
2.557273767194e-04 2.177643529003e-04 0.0 
9.690911001399e-05 -1.219909311238e-05 0.0 
3.495547640471e-05 1.020438078716e-03 0.0 
1.755399202407e-06 -5.140972688002e-05 0.0 
5.952538219361e-06 -6.636494085481e-05 0.0 
8.366870813293e-06 3.980621618177e-05 0.0 
1.914041902128e-05 8.273130487888e-05 0.0 
1.722920614115e-04 1.103738459364e-03 0.0 
1.741747414748e-04 1.393547388756e-03 0.0 
8.768724393627e-06 -5.133007527537e-05 0.0 
1.233101311782e-05 7.893750733835e-05 0.0 
3.755240792308e-05 -6.083589649413e-05 0.0 
2.230322550362e-04 1.411244054248e-03 0.0 
1.941719175794e-04 1.388598145283e-03 0.0 
3.739528013734e-04 1.140671571883e-03 0.0 
1.828447608950e-05 3.458024916255e-05 0.0 
1.502214983687e-05 7.851009035885e-05 0.0 
7.671045200486e-06 -6.766769971478e-05 0.0 
7.149204546104e-06 -6.802646120227e-05 0.0 
1.895050300706e-05 -6.652103437423e-05 0.0 
6.492089262104e-05 -3.618063420705e-05 0.0 
3.704362984473e-06 -2.333568018883e-06 0.0 
-4.042117722726e-05 -1.494926347669e-05 0.0 
1.261344020289e-05 5.828415628140e-04 0.0 
-2.150891456353e-05 -3.644502931083e-05 0.0 
1.617118956991e-04 4.613104676229e-06 0.0 
-2.079145001063e-05 -4.074285073365e-05 0.0 
-2.988893126389e-05 -2.939269843620e-05 0.0 
1.512679272400e-04 -3.699423419950e-06 0.0 
1.495629391202e-05 -3.138771094351e-06 0.0 
3.280030244230e-05 9.355902032539e-04 0.0 
4.315848835154e-04 7.752800059255e-04 0.0 
5.417380704947e-06 -6.697071906901e-05 0.0 
3.997022232272e-05 -1.983490522055e-05 0.0 
2.904073003800e-06 4.721613968587e-05 0.0 
5.738605352077e-06 7.997334119394e-05 0.0 
1.819869112597e-04 1.436189647569e-03 0.0 
1.705814989240e-04 1.323143673724e-05 0.0 
6.655279023576e-06 3.870387417708e-05 0.0 
2.916470804387e-04 1.267858763189e-04 0.0 
3.595249220535e-06 -6.613777489229e-05 0.0 
4.246984296087e-06 -6.713553244616e-05 0.0 
3.282336925584e-06 -6.678990474822e-05 0.0 
1.951644742688e-06 -4.698647674219e-05 0.0 
2.969776541789e-06 -1.531807809513e-07 0.0 
1.545402546105e-06 2.178437206884e-04 0.0 
4.025693317703e-06 -6.765113602161e-05 0.0 
4.291473732128e-06 -3.948702275772e-05 0.0 
1.002296177323e-06 -6.939345662100e-08 0.0 
4.219586118155e-06 -9.772864322600e-08 0.0 
1.429391286664e-05 1.560004713968e-06 0.0 
7.005033552513e-06 7.295154512748e-04 0.0 
2.791911776120e-06 5.090189812384e-04 0.0 
1.967480364466e-06 -8.378732433026e-08 0.0 
2.252105753689e-06 -1.394131889574e-08 0.0 
6.170345826727e-06 5.829115125811e-04 0.0 
3.037585306727e-06 -6.781464399512e-05 0.0 
1.091814291407e-04 1.445210435537e-03 0.0 
1.630215534599e-04 1.440579233948e-03 0.0 
5.745698368605e-06 -6.782192528132e-05 0.0 
3.860753568319e-06 2.258353729304e-07 0.0 
1.321905125938e-05 1.192628603423e-06 0.0 
6.510144351861e-06 5.285786152695e-07 0.0 
4.845356903722e-06 -6.794306392993e-05 0.0 
6.383891590727e-06 -6.809981584227e-05 0.0 
7.585005959121e-06 8.959547258149e-07 0.0 
6.708906907520e-06 6.640499881531e-07 0.0 
3.626599501906e-06 8.050199718124e-04 0.0 
5.789065120648e-05 1.447094809038e-03 0.0 
3.378434050607e-06 6.553888001315e-04 0.0 
4.346401393167e-06 1.102492635454e-03 0.0 
2.485915311365e-05 1.446563347997e-03 0.0 
7.938755581777e-06 -6.784547695174e-05 0.0 
5.279530785745e-06 -6.584919619270e-05 0.0 
2.503044823703e-06 -6.368897893954e-05 0.0 
-1.464196952490e-06 -6.042146801359e-05 0.0 
2.194030432195e-06 -3.682026555322e-05 0.0 
2.097443299934e-06 -4.208957836413e-05 0.0 
5.036105393187e-06 -6.522593936274e-05 0.0 
2.287887723213e-06 -2.089873448125e-05 0.0 
2.031809083822e-06 -6.265588562429e-05 0.0 
1.469863024567e-05 3.703018643968e-05 0.0 
5.675734094246e-06 4.023363316128e-05 0.0 
1.077354820799e-05 4.292508869711e-05 0.0 
1.020193374138e-06 -6.361776135465e-05 0.0 
1.521217516617e-06 -5.529384368582e-05 0.0 
5.345384654005e-06 4.846047450531e-05 0.0 
1.574981381753e-06 -6.846640478273e-06 0.0 
2.834532348277e-06 3.275720150807e-05 0.0 
1.149408997678e-06 -3.589065582232e-06 0.0 
6.930873308036e-07 -1.353808151382e-06 0.0 
4.049088042622e-06 -4.460607702195e-05 0.0 
1.102111874825e-05 8.869410766659e-05 0.0 
8.179917002283e-06 8.121767601338e-05 0.0 
2.724390379432e-06 -5.156783875937e-06 0.0 
1.842496328482e-06 -2.327650813023e-06 0.0 
2.358776734737e-05 -1.537715381567e-05 0.0 
-1.377603249202e-05 -4.624741042284e-05 0.0 
3.410739821955e-05 -4.541590541219e-05 0.0 
8.826275029643e-06 -6.790947917683e-05 0.0 
3.552766514393e-05 -2.167544260803e-06 0.0 
4.696445186759e-05 -4.269279059797e-05 0.0 
2.729949686346e-05 -7.729927926421e-06 0.0 
3.090268862781e-05 -6.365497632448e-05 0.0 
1.252030321691e-05 -6.745361482553e-05 0.0 
1.880118803724e-05 -4.445425837239e-06 0.0 
3.547067360442e-05 -4.002412848565e-05 0.0 
7.402383958064e-06 -4.931180046783e-05 0.0 
2.386439037665e-05 -8.057810544568e-06 0.0 
1.754087083608e-05 3.690167329399e-04 0.0 
3.707043945095e-06 -4.927408465993e-05 0.0 
1.008565166998e-04 -3.747085121438e-06 0.0 
7.096779568793e-05 -2.001132397493e-05 0.0 
2.788021123023e-05 -1.511232757258e-05 0.0 
2.019353364330e-05 -1.305574244856e-05 0.0 
1.714539840170e-04 3.512655386853e-05 0.0 
4.075494806108e-04 8.635648761641e-04 0.0 
3.261361601367e-04 2.007804692261e-04 0.0 
4.485370056235e-05 -1.948930334296e-05 0.0 
1.687265057803e-05 -6.554919027248e-06 0.0 
1.322323628723e-05 -1.108725194193e-05 0.0 
4.202686564168e-05 -6.145689006855e-05 0.0 
3.339042649817e-05 3.804026330853e-04 0.0 
4.232934499260e-05 5.276254434570e-04 0.0 
7.513162514190e-05 1.222140894319e-03 0.0 
5.032984589193e-05 -1.607905675205e-05 0.0 
3.608524423254e-05 -1.725906594300e-05 0.0 
2.271195894524e-05 3.766916955120e-04 0.0 
2.899605267838e-05 4.524946265643e-04 0.0 
7.566964289550e-05 -2.266771050162e-05 0.0 
1.266689871869e-05 -3.364691870551e-06 0.0 
8.982900015025e-05 5.549460757738e-04 0.0 
9.389519234791e-06 -1.113199568236e-05 0.0 
2.585977253987e-05 -1.528312753374e-06 0.0 
3.899608717843e-05 3.840350397737e-04 0.0 
7.382011488334e-05 7.638492437852e-04 0.0 
9.617501771643e-05 -8.705691189668e-06 0.0 
1.657875288559e-05 -6.135925514146e-05 0.0 
4.057729535687e-05 -6.047537586310e-05 0.0 
1.558257625738e-05 -6.648690611914e-05 0.0 
-7.286197388934e-06 -4.781501213967e-05 0.0 
3.513365959409e-05 4.523038186937e-04 0.0 
1.348885739068e-05 -4.947406505111e-06 0.0 
-2.068796478348e-06 -5.483180534876e-05 0.0 
2.335871115206e-04 3.313516390177e-04 0.0 
8.871813916697e-05 1.147635324707e-03 0.0 
3.176993505547e-05 -9.680696055442e-06 0.0 
1.716451082313e-05 -8.627651402527e-06 0.0 
7.516743001705e-05 -5.123875642396e-05 0.0 
1.383445259728e-05 -8.858408417116e-06 0.0 
8.478843656918e-05 1.224738254439e-03 0.0 
2.227052439567e-04 4.537867622773e-05 0.0 
1.960020143968e-05 -7.211087228103e-07 0.0 
8.875173484029e-06 -6.084492870355e-05 0.0 
3.337684351529e-05 -2.602044989172e-07 0.0 
5.721873297563e-05 6.817201978146e-04 0.0 
1.366833031285e-05 -5.958100112583e-05 0.0 
4.869407848875e-05 -5.970670091930e-05 0.0 
1.928411339306e-05 -3.187787308118e-05 0.0 
9.944413879486e-05 9.244680485415e-04 0.0 
4.066890747080e-05 -5.295582432751e-05 0.0 
4.245681854812e-05 5.991456642718e-04 0.0 
6.331597323419e-05 8.324745439881e-04 0.0 
4.096586559054e-05 -3.425695496412e-05 0.0 
1.614475220244e-05 -1.327931432357e-05 0.0 
2.060207595394e-05 -1.063292305233e-05 0.0 
4.917469641551e-05 6.764725355724e-04 0.0 
1.823190176910e-05 -6.426967042016e-05 0.0 
3.343529277069e-05 -3.724859494975e-05 0.0 
2.003248056980e-04 6.343859608180e-05 0.0 
6.562662270554e-05 6.139709999640e-04 0.0 
3.262783766403e-05 -4.275688954661e-05 0.0 
6.513673412065e-05 -2.068714411486e-05 0.0 
4.426989033747e-05 -4.125790690909e-07 0.0 
6.472280477807e-05 7.591886712055e-04 0.0 
-1.269396847843e-05 8.505274283567e-06 0.0 
1.430754479211e-05 -6.742926968575e-05 0.0 
5.322355969199e-05 1.265168186661e-05 0.0 
1.989558603127e-05 -6.278859135577e-06 0.0 
8.167710107567e-05 8.416854804397e-04 0.0 
1.399691092780e-05 -2.672175535418e-05 0.0 
1.031937078174e-04 1.076623560445e-03 0.0 
8.597190661411e-05 4.074619737844e-06 0.0 
3.342546011701e-05 -3.155442184558e-05 0.0 
2.427902005422e-05 -1.033914208604e-05 0.0 
1.399875548719e-05 -6.112802755198e-05 0.0 
2.843314762210e-05 -1.122040119023e-06 0.0 
3.597073854206e-05 -3.436656177934e-05 0.0 
1.085180298316e-05 -5.947809563976e-05 0.0 
2.875277521937e-05 -3.721754393765e-05 0.0 
3.603245197480e-05 -5.050130351590e-05 0.0 
3.550243221744e-05 -5.914180490695e-05 0.0 
1.848317276657e-05 -2.634728001630e-05 0.0 
8.240982081491e-06 -6.767945481266e-05 0.0 
7.149106424192e-06 -6.681298092485e-05 0.0 
3.156266178273e-05 -1.756479231690e-05 0.0 
1.647835865918e-05 -6.277642322980e-05 0.0 
4.543150897986e-05 -1.653262088960e-05 0.0 
5.501795205895e-05 -1.861864728702e-05 0.0 
5.903906515252e-05 -4.768588323131e-05 0.0 
6.230834261357e-05 -5.217510432627e-05 0.0 
7.753150893891e-05 4.788940791230e-04 0.0 
-2.459572789311e-05 7.489907453659e-05 0.0 
3.098742430716e-05 -4.793179436181e-05 0.0 
8.307741441010e-05 7.408000458468e-06 0.0 
1.406431063899e-05 -6.385892622719e-05 0.0 
9.647882692439e-05 9.980878972912e-04 0.0 
9.886564877109e-05 1.152296764926e-03 0.0 
2.422231307821e-05 -6.567027809617e-05 0.0 
5.696828903136e-05 -3.515183218096e-07 0.0 
1.133982963898e-04 7.081381913719e-04 0.0 
1.882853433327e-05 -6.303248319605e-05 0.0 
8.071635134626e-05 4.134325325620e-04 0.0 
7.271285781209e-05 4.090674493529e-04 0.0 
2.183133770939e-05 -6.184777196750e-05 0.0 
1.735978342785e-04 3.593028464584e-04 0.0 
3.001617952818e-05 -6.235588530478e-05 0.0 
2.816292162643e-05 -1.249713523918e-05 0.0 
2.591675790846e-05 -2.891186313656e-05 0.0 
1.911580815503e-04 3.549874006628e-04 0.0 
6.946304434464e-05 4.746105065229e-04 0.0 
3.645860219449e-05 -1.447603778623e-05 0.0 
4.092138870218e-05 -1.409519461042e-05 0.0 
2.648511651740e-05 -6.481079291078e-05 0.0 
3.221873014087e-05 -1.216657182673e-05 0.0 
1.030090771962e-04 7.042880673271e-04 0.0 
2.124433204447e-05 -2.905664200335e-05 0.0 
9.151028699835e-05 8.464037157381e-04 0.0 
9.218619185655e-05 6.273479212880e-04 0.0 
2.433190362893e-04 5.740099955608e-05 0.0 
6.435693419999e-05 5.418927822448e-04 0.0 
2.619422748973e-05 -3.999743592750e-05 0.0 
2.859372213875e-05 -3.167683860308e-05 0.0 
2.853501130598e-05 -5.263462342981e-05 0.0 
6.359059087927e-05 -5.184370359191e-05 0.0 
9.280926860104e-05 7.731746794788e-04 0.0 
9.663855075808e-05 -3.218020310817e-05 0.0 
2.818060930409e-05 -6.065169672760e-05 0.0 
1.798378237047e-05 -6.687355723098e-05 0.0 
1.029189640046e-04 7.774875034375e-04 0.0 
3.124777591385e-05 -6.079625910925e-05 0.0 
3.564679608841e-05 2.503781519223e-07 0.0 
7.445752070393e-05 6.911095564758e-04 0.0 
3.564761514754e-05 -9.293507965267e-06 0.0 
5.009348059535e-05 9.637372459310e-06 0.0 
2.803390910066e-05 -4.276124800057e-05 0.0 
2.452098822892e-05 -6.206313303688e-05 0.0 
2.033190493561e-05 -6.644661250098e-05 0.0 
5.017764115427e-05 -1.317075764449e-05 0.0 
7.039480936972e-05 9.105562653692e-04 0.0 
1.492650671684e-05 -6.728731176634e-05 0.0 
3.648226663179e-05 -5.288094634270e-05 0.0 
9.522467767138e-06 -6.212153828234e-05 0.0 
1.100060504294e-04 9.288993731008e-04 0.0 
3.186511967045e-05 -5.040555996359e-05 0.0 
6.037676072432e-05 -1.806823042069e-05 0.0 
2.461841678395e-05 -5.233993727634e-05 0.0 
4.931363496685e-05 5.324743308255e-04 0.0 
3.623632038331e-05 -5.722082729579e-05 0.0 
6.523984891490e-05 -1.119790261578e-05 0.0 
3.818324986792e-05 -6.188962033585e-05 0.0 
6.055931254319e-05 -1.495452450334e-05 0.0 
2.181930013078e-05 -3.451418313605e-05 0.0 
4.491711228067e-05 -1.092766773237e-05 0.0 
1.257884768575e-04 -1.158920985513e-05 0.0 
1.182952244061e-05 -6.230173164470e-05 0.0 
8.309387244704e-05 1.067318936225e-03 0.0 
1.523287548630e-04 6.189013654979e-07 0.0 
3.623950176741e-04 3.795795116255e-04 0.0 
7.965862710594e-05 9.151066292410e-04 0.0 
4.777533910588e-05 -5.875202440712e-05 0.0 
1.463313140467e-04 8.653700455996e-04 0.0 
1.199547181883e-05 -6.361546223157e-05 0.0 
4.580521722701e-05 -2.755185882018e-06 0.0 
1.610577704036e-04 8.705565996303e-06 0.0 
2.281709886474e-04 5.658907250701e-05 0.0 
5.879350512025e-05 3.316703058479e-04 0.0 
9.742216414804e-05 -2.586733347061e-05 0.0 
2.027592686514e-05 -6.449956545160e-05 0.0 
8.324611892114e-05 -1.826940940916e-05 0.0 
4.751766433181e-05 3.512612138048e-07 0.0 
7.171273119609e-05 -5.196685693725e-05 0.0 
4.055919674063e-05 -1.139854056075e-05 0.0 
8.361348849896e-05 6.957167568709e-04 0.0 
5.943775778636e-05 -4.805509233014e-05 0.0 
7.161839711084e-05 -1.668758156841e-05 0.0 
1.477077402409e-04 1.091723243763e-03 0.0 
1.615107193055e-05 -5.804149366196e-05 0.0 
4.053370908515e-05 -5.519787088511e-05 0.0 
3.849827703425e-04 2.902740986968e-04 0.0 
5.504829914016e-05 -1.259664226211e-05 0.0 
3.533464431021e-04 5.263236381996e-04 0.0 
3.580371974847e-04 2.448563740456e-04 0.0 
1.242944767652e-04 7.852045423803e-04 0.0 
8.652650115815e-05 9.934447132891e-04 0.0 
1.522613820788e-04 1.016730515089e-03 0.0 
2.645648301248e-05 -3.445792752474e-05 0.0 
7.108076963678e-05 -1.794832995205e-07 0.0 
9.531368137032e-05 -1.957542075416e-05 0.0 
1.139747890276e-04 1.081953870935e-03 0.0 
2.123090838674e-04 2.576607355876e-04 0.0 
2.292952391247e-04 6.656768417436e-05 0.0 
6.596988736242e-05 -1.424969579098e-05 0.0 
8.290029856284e-05 6.230894347907e-04 0.0 
5.912170560970e-05 -5.011780374959e-05 0.0 
4.938968792928e-05 -5.289470565001e-05 0.0 
2.439707131956e-05 -6.480245442451e-05 0.0 
9.018620641699e-05 -1.358950258850e-05 0.0 
4.484605654070e-05 -5.059114445849e-05 0.0 
1.231681876035e-04 8.590147791542e-04 0.0 
1.439380142580e-04 9.399378994719e-04 0.0 
2.184340965044e-04 2.785945377964e-05 0.0 
4.780533519917e-05 -5.704779387168e-05 0.0 
1.411082566421e-04 3.603647091935e-05 0.0 
4.463499562562e-05 -5.518922465980e-05 0.0 
5.396735848578e-05 -5.270416881100e-05 0.0 
2.599023463834e-05 -6.362592918314e-05 0.0 
8.676512159772e-05 2.701641141009e-07 0.0 
8.738016194543e-05 -4.175505325651e-05 0.0 
7.247464226227e-05 5.464040166764e-04 0.0 
1.000376081243e-04 -3.676417266394e-05 0.0 
8.979131236234e-05 -1.714919462000e-05 0.0 
9.389885373405e-05 -2.966674456588e-05 0.0 
3.125463647393e-04 1.543997581521e-04 0.0 
2.356220994885e-05 -6.347773929687e-05 0.0 
6.091387103410e-05 6.454732475847e-07 0.0 
5.301592824306e-05 2.106714547818e-06 0.0 
3.859826181550e-04 2.922681491000e-04 0.0 
6.420508430389e-05 -4.969206201154e-05 0.0 
9.326960653296e-05 -2.333038533165e-05 0.0 
1.121818940364e-04 8.551478642562e-04 0.0 
5.396058055804e-05 -4.791621464901e-05 0.0 
3.046790943404e-04 2.694119508793e-04 0.0 
3.257517987205e-05 -5.710258517165e-05 0.0 
5.882283948606e-05 -5.470517871507e-05 0.0 
6.969831813460e-05 -4.679661529402e-05 0.0 
2.877412509641e-05 -5.887900040117e-05 0.0 
1.932816758993e-05 -6.001003763051e-05 0.0 
8.708777788662e-05 -3.076224143426e-05 0.0 
7.758829917845e-05 -1.580551317130e-05 0.0 
2.891321411978e-04 2.020872386961e-04 0.0 
7.191504501607e-06 -6.716208898970e-05 0.0 
1.302103746334e-04 -2.811118291896e-05 0.0 
1.075749806498e-04 -3.672565851426e-05 0.0 
7.537039997042e-05 -4.606012746262e-05 0.0 
1.321779876359e-04 9.367478365310e-04 0.0 
9.184603074648e-05 -3.589228261746e-05 0.0 
3.268592773488e-05 -5.500475077617e-05 0.0 
8.111349749245e-05 -4.284724521068e-05 0.0 
5.748514508249e-05 6.092422138825e-04 0.0 
2.890600471342e-05 -5.485417141559e-05 0.0 
1.598443133730e-05 -6.707208080979e-05 0.0 
2.075387877193e-05 -6.571850526930e-05 0.0 
6.341787539247e-05 -5.450323432417e-05 0.0 
5.774002493920e-05 -5.438064841114e-05 0.0 
1.221700679072e-04 -3.023913024720e-05 0.0 
9.320878994717e-05 -3.824370352555e-05 0.0 
3.548620874597e-05 -6.024768087636e-05 0.0 
1.906075900701e-05 -6.556380618266e-05 0.0 
2.051656841839e-04 1.023178631972e-03 0.0 
2.551374305149e-05 -5.868515923325e-05 0.0 
9.124391100021e-05 -2.394176941892e-06 0.0 
3.105129369758e-04 2.016977516488e-04 0.0 
3.620636453332e-04 8.259408929051e-04 0.0 
1.243249550154e-04 4.961772525282e-04 0.0 
2.596414091591e-04 1.936420620214e-04 0.0 
2.307830588966e-04 4.390772916184e-05 0.0 
3.539743029059e-04 2.476815041725e-04 0.0 
4.516761120068e-05 -5.642014813674e-05 0.0 
7.423750340707e-05 -4.115950009562e-05 0.0 
2.633663685246e-04 1.112786851187e-04 0.0 
6.853654329892e-05 -3.347910843834e-05 0.0 
3.127525757183e-05 -5.708556160430e-05 0.0 
4.946555045872e-05 -5.053867200630e-05 0.0 
1.005832132113e-04 -3.873595500560e-05 0.0 
1.144838356522e-04 -3.280631343518e-05 0.0 
2.553487480566e-05 -5.675816464315e-05 0.0 
1.037907947923e-04 -3.072218722448e-05 0.0 
1.223473919500e-04 -3.146776430729e-05 0.0 
1.471044784011e-04 -1.957979695214e-05 0.0 
5.320017123991e-05 -5.481537189218e-05 0.0 
1.905203876986e-04 2.397847053963e-05 0.0 
1.356975765863e-04 7.883697458849e-04 0.0 
1.557069634443e-04 -1.441226329323e-05 0.0 
7.590510290352e-05 1.095732278977e-06 0.0 
5.645057236191e-05 -5.154565597010e-05 0.0 
6.825721845422e-05 6.788226767364e-06 0.0 
1.132815530471e-04 -3.100717313472e-05 0.0 
2.189016366899e-04 1.728199554735e-04 0.0 
4.244579466568e-04 5.245904199035e-04 0.0 
5.062069657138e-05 -5.682218964549e-05 0.0 
3.764106045027e-04 7.256915498621e-04 0.0 
1.595338467853e-04 4.296406374948e-04 0.0 
1.269768490781e-04 -2.445089963215e-05 0.0 
2.147908126834e-04 1.678968642018e-04 0.0 
3.840479108978e-04 6.274867449225e-04 0.0 
3.870696679468e-04 3.565406672739e-04 0.0 
3.723116712427e-05 -5.812228791163e-05 0.0 
6.289874912330e-05 2.083560085956e-04 0.0 
2.884191581809e-05 -6.156924803517e-05 0.0 
1.312638560749e-04 3.076162662162e-05 0.0 
5.134185659055e-05 3.958865933693e-04 0.0 
1.677715164166e-04 1.685518629513e-05 0.0 
1.178218197691e-04 1.007849532341e-03 0.0 
1.300106272245e-04 5.683593637690e-04 0.0 
1.384224023466e-04 -2.369649016981e-05 0.0 
2.242560591597e-04 3.037375567118e-05 0.0 
9.736754642598e-05 3.523051138178e-04 0.0 
7.064468403871e-05 -1.033093378846e-05 0.0 
1.471983520361e-04 7.169315579426e-04 0.0 
1.431138849144e-04 1.205904637545e-06 0.0 
4.751198386369e-05 -5.367368885016e-05 0.0 
1.571808520634e-04 6.449260782012e-04 0.0 
1.309416220450e-04 6.959842933125e-05 0.0 
5.629613026059e-05 3.116910892351e-06 0.0 
8.032578024335e-05 -4.041447282774e-05 0.0 
1.290074634086e-04 1.011831080873e-03 0.0 
1.362138481928e-04 1.090013872488e-03 0.0 
1.058270929578e-04 -3.295473587215e-05 0.0 
8.339733835117e-05 -1.140486277291e-05 0.0 
8.807392345795e-05 -6.887978536984e-06 0.0 
1.895151582717e-05 -6.650317816039e-05 0.0 
1.075781554682e-04 3.865587658599e-05 0.0 
1.753394357554e-04 -3.067566968678e-06 0.0 
1.468231014239e-04 -1.966535200469e-05 0.0 
3.416488426628e-04 2.340646216200e-04 0.0 
7.781210752445e-05 2.807218259280e-04 0.0 
2.233542436414e-04 3.388456192651e-04 0.0 
5.806176101421e-05 4.005110873721e-04 0.0 
3.930686795744e-04 6.195104659376e-04 0.0 
1.904739980182e-04 5.715658023982e-04 0.0 
7.734462455384e-05 -1.250065856655e-05 0.0 
7.317178611631e-05 3.429133518490e-04 0.0 
1.852644556844e-04 7.195183751744e-04 0.0 
8.522968549564e-05 -3.697085996548e-05 0.0 
1.845363874603e-04 6.355295106625e-06 0.0 
1.451259128582e-04 6.434044741756e-04 0.0 
1.067950831442e-04 4.220900840397e-04 0.0 
1.119761876491e-04 6.351801867314e-04 0.0 
1.354257349915e-04 7.145990480535e-04 0.0 
6.200530654671e-05 -2.356297974586e-06 0.0 
1.605990178473e-04 4.164049851073e-05 0.0 
7.598819542723e-05 -2.500875507898e-06 0.0 
8.197806406109e-05 -2.180786433296e-05 0.0 
3.726839616479e-04 1.109718443405e-03 0.0 
1.719865904399e-04 2.476973960555e-05 0.0 
2.565671492392e-04 7.008068678670e-04 0.0 
2.223057673963e-05 -6.024249449030e-05 0.0 
1.655111074567e-04 -9.349016280062e-06 0.0 
1.690249160265e-04 -4.855752256883e-06 0.0 
2.227853234765e-04 3.245469194606e-05 0.0 
7.723995081424e-05 -1.114374548441e-05 0.0 
1.745224282610e-04 -1.495739769785e-06 0.0 
2.137258728234e-04 3.364518799693e-05 0.0 
4.282459153816e-04 8.408785118836e-04 0.0 
8.321112965982e-05 -3.435427732458e-05 0.0 
1.983539210500e-04 8.692436754050e-04 0.0 
1.212865791167e-04 1.330492911428e-03 0.0 
-7.839422307829e-05 1.886562082502e-04 0.0 
8.647918266494e-05 -2.444261412129e-05 0.0 
1.542202856188e-04 1.560509721221e-05 0.0 
1.819395544240e-04 2.901144695430e-04 0.0 
2.162974977670e-04 2.437885556113e-05 0.0 
8.382066443259e-05 -2.807505912862e-05 0.0 
1.586596858099e-04 8.676338914636e-04 0.0 
-7.362533475885e-05 2.785520935839e-04 0.0 
1.772559099513e-04 2.184678219778e-05 0.0 
2.067929403324e-04 1.903300977435e-05 0.0 
4.319890886685e-04 8.216277463648e-04 0.0 
8.201914768971e-05 -8.196740644102e-06 0.0 
6.558825875565e-05 -3.914118616236e-05 0.0 
8.529131809645e-05 -3.890000985394e-06 0.0 
7.336184625358e-05 4.252488553932e-06 0.0 
2.010096605599e-04 3.035232117620e-05 0.0 
1.226005264296e-04 6.384758399085e-04 0.0 
2.856308822433e-04 1.366690316416e-04 0.0 
6.901840631837e-05 2.930885170615e-06 0.0 
-5.768340298955e-05 4.137362154003e-04 0.0 
1.726154414122e-04 7.940810762025e-04 0.0 
1.809805988376e-04 5.940356588779e-05 0.0 
1.192578578406e-04 5.657632393908e-04 0.0 
2.134716147218e-04 2.923686475992e-05 0.0 
1.961168006652e-04 1.222358302068e-05 0.0 
4.863696695700e-05 -3.108451891792e-05 0.0 
1.068911204932e-05 1.475957210341e-05 0.0 
9.493577907209e-05 4.872413037306e-04 0.0 
1.923091180923e-05 -5.823930257716e-05 0.0 
-1.469390484611e-06 6.229887335922e-04 0.0 
3.177477262411e-04 1.763044505474e-04 0.0 
5.221087291664e-05 3.273975164671e-04 0.0 
5.233338310377e-05 -4.642227782478e-05 0.0 
4.051411587094e-04 3.345896640012e-04 0.0 
1.720701672594e-04 7.195681365327e-04 0.0 
6.826806779032e-05 -3.290438722013e-05 0.0 
7.429713661058e-05 -1.948470525628e-05 0.0 
1.860352578257e-04 1.555888712998e-04 0.0 
3.277781350224e-05 -5.416317432940e-05 0.0 
5.478656132756e-05 -4.180837506054e-05 0.0 
4.291230953333e-05 -4.869259396473e-05 0.0 
2.185032262456e-04 2.710769539492e-05 0.0 
3.405996778413e-05 6.914790071560e-05 0.0 
8.267198019494e-05 1.024300013424e-03 0.0 
4.938015662088e-05 -2.055295550108e-06 0.0 
1.972233182903e-04 3.556023477888e-05 0.0 
2.136367269249e-04 7.910911400820e-04 0.0 
3.851407416479e-05 9.211732866455e-06 0.0 
6.385238876736e-05 5.392691336694e-06 0.0 
4.107809571770e-05 -5.245344135015e-05 0.0 
2.160898809884e-05 -5.434608546582e-05 0.0 
2.072707273305e-04 4.046721877314e-05 0.0 
1.290179935459e-04 -2.599216598014e-05 0.0 
1.923311347672e-04 5.608804258561e-05 0.0 
2.581474468066e-04 2.777381033623e-04 0.0 
2.378369883583e-04 6.335285378083e-04 0.0 
1.355371570232e-04 3.431373154746e-05 0.0 
1.597985653941e-04 7.929661016379e-04 0.0 
1.914016197309e-04 2.855647333208e-04 0.0 
1.650263770084e-04 5.727111483235e-04 0.0 
1.699946495693e-04 5.005626367292e-04 0.0 
5.582871703534e-05 7.063064933030e-05 0.0 
4.947961972838e-05 -4.810391516423e-06 0.0 
1.825553904779e-04 6.456178380780e-04 0.0 
2.694102799914e-04 8.043320181185e-05 0.0 
1.931520880046e-04 1.325530975292e-03 0.0 
1.142186271535e-04 3.061090147420e-05 0.0 
8.578254628254e-05 2.054114405025e-05 0.0 
2.215445271311e-05 -5.654476484685e-05 0.0 
2.075810685969e-04 5.767307887847e-05 0.0 
2.174476290485e-06 -6.260414454386e-05 0.0 
3.413581126703e-04 1.907060079560e-04 0.0 
1.812432989208e-04 3.012281222248e-05 0.0 
1.362464046044e-04 3.623537214269e-04 0.0 
1.300474834945e-04 2.935308975737e-04 0.0 
1.970018912935e-04 3.357370545129e-05 0.0 
1.351055156045e-04 4.982659118220e-04 0.0 
2.252054695534e-04 5.681975349164e-05 0.0 
3.359971092562e-04 2.351790431792e-04 0.0 
2.634751196021e-04 1.426672091805e-03 0.0 
2.347040668856e-04 2.517276618960e-04 0.0 
2.900376543274e-04 1.424748763101e-03 0.0 
2.922150043172e-04 1.400446497527e-03 0.0 
2.305469066684e-04 3.872525976968e-05 0.0 
2.885056419979e-04 1.365960753781e-03 0.0 
3.226330406882e-04 1.378713599527e-04 0.0 
2.815729149434e-04 1.208887453638e-04 0.0 
1.849100302076e-04 2.406801131939e-06 0.0 
6.108101892253e-05 -2.264262325535e-05 0.0 
2.072512833988e-04 2.151581724668e-05 0.0 
9.756241889567e-05 4.192896286618e-04 0.0 
2.043460624644e-04 2.658429688193e-04 0.0 
5.876968725508e-05 -9.098218640742e-06 0.0 
1.672233577241e-04 4.707395280413e-05 0.0 
1.374073453019e-04 -2.280610729108e-05 0.0 
1.579128274391e-04 5.006018382938e-04 0.0 
1.956734359181e-04 9.846916244886e-06 0.0 
3.896442548801e-05 -3.945843649967e-06 0.0 
1.528461270189e-04 5.719696270884e-04 0.0 
2.037548415834e-04 5.692706162953e-04 0.0 
1.919116365778e-04 1.997804310027e-05 0.0 
2.172167704555e-04 3.692497108025e-05 0.0 
2.868591189350e-04 1.867573208144e-04 0.0 
4.213898784789e-04 5.625352004573e-04 0.0 
5.908397109922e-05 -2.994087486408e-05 0.0 
8.294331106818e-05 8.783633993305e-06 0.0 
2.754233619788e-04 2.532151477971e-04 0.0 
4.158462841339e-04 3.753798723820e-04 0.0 
2.959328212285e-05 -3.097868426225e-06 0.0 
1.959211893576e-04 6.445116937171e-04 0.0 
2.057978051216e-04 2.539886515513e-05 0.0 
4.014269282039e-04 3.301933151043e-04 0.0 
1.560337071261e-04 2.237847020310e-05 0.0 
1.043395213829e-04 4.907806727720e-04 0.0 
2.607631140745e-04 1.821443263775e-04 0.0 
2.267495835708e-04 8.637621669280e-04 0.0 
1.107643088452e-04 8.172524472636e-06 0.0 
2.046713199142e-04 1.565855225238e-05 0.0 
1.477517958398e-04 1.820542371241e-05 0.0 
3.562443474753e-04 2.208389444954e-04 0.0 
1.066552525994e-04 3.564961900693e-04 0.0 
2.215303226521e-04 1.638063964961e-04 0.0 
1.997500741790e-04 1.708671206540e-05 0.0 
6.718539050661e-05 4.921058353003e-06 0.0 
2.595904134108e-04 1.165340878936e-04 0.0 
3.452381906035e-04 1.782853420649e-04 0.0 
2.135586695736e-04 4.260007607036e-05 0.0 
2.021466513376e-04 2.194357049984e-05 0.0 
1.037558000742e-04 1.166153354359e-06 0.0 
6.526728964914e-05 -5.354291542587e-06 0.0 
2.009195953936e-04 1.357876674185e-05 0.0 
3.729707116894e-04 6.539276627384e-04 0.0 
2.679868643830e-05 -3.497277994049e-06 0.0 
3.760025597138e-04 5.598722926804e-04 0.0 
2.931368407654e-04 1.516693364330e-04 0.0 
3.631020740721e-04 7.507185631704e-04 0.0 
3.264257771226e-04 9.456434016463e-04 0.0 
4.140077222643e-04 4.673901922887e-04 0.0 
1.769130270762e-04 4.324918510035e-05 0.0 
5.658581706178e-05 -6.473299174206e-06 0.0 
2.127810063326e-04 7.161826044987e-04 0.0 
1.204669773579e-04 2.938747649022e-04 0.0 
3.471495334841e-04 8.485061020735e-04 0.0 
1.629534937305e-04 2.259708029743e-05 0.0 
2.382623865425e-04 1.083895470979e-04 0.0 
8.061411135494e-05 3.452310789073e-04 0.0 
3.117162884541e-04 1.391990558183e-04 0.0 
3.374257208475e-04 1.716159814511e-04 0.0 
1.870400513518e-04 2.351065932623e-05 0.0 
2.235618213651e-04 6.387415732475e-04 0.0 
3.672276461809e-04 4.782537403814e-04 0.0 
3.122037400403e-04 1.233054665015e-04 0.0 
3.522710888150e-04 4.174935570553e-04 0.0 
2.097616919798e-04 4.979387268810e-05 0.0 
1.797708077247e-04 7.888663546243e-05 0.0 
1.818295023735e-04 9.273058870081e-06 0.0 
1.228511130612e-05 3.079113358689e-06 0.0 
1.492219421954e-04 2.907698846612e-04 0.0 
4.031680313383e-04 5.605353833742e-04 0.0 
1.531057872610e-04 -1.436009356989e-05 0.0 
2.074955241145e-04 8.920195807563e-05 0.0 
2.271407947750e-04 7.127076701320e-04 0.0 
6.878491138721e-05 -7.416983548893e-06 0.0 
2.500208277322e-04 9.087050120208e-05 0.0 
5.332594068446e-07 3.264604673964e-07 0.0 
1.887050896275e-05 -2.513722408817e-06 0.0 
3.971827787988e-04 2.998005771291e-04 0.0 
2.568427345885e-04 7.478731505175e-05 0.0 
2.555396608391e-04 1.551638106177e-04 0.0 
-2.229587041056e-05 6.188116954151e-06 0.0 
7.410666124088e-05 -6.378586198183e-06 0.0 
1.444721582345e-04 9.714177710858e-05 0.0 
2.417154135525e-04 8.587589502833e-04 0.0 
6.770507909136e-05 -2.674233675561e-05 0.0 
1.919564373012e-04 1.902439469259e-05 0.0 
3.560341754915e-05 -4.469895181039e-06 0.0 
3.363014104939e-04 1.595752718397e-04 0.0 
1.711332738076e-04 1.733758185312e-05 0.0 
3.973851694218e-04 3.003290807273e-04 0.0 
2.571492892798e-06 -1.044981887378e-05 0.0 
3.476788114652e-04 2.248854841932e-04 0.0 
2.000578139089e-04 4.251837235323e-05 0.0 
1.834587925586e-04 1.450437726892e-04 0.0 
3.057646452570e-04 1.844196631940e-04 0.0 
1.118751001836e-04 6.634406249778e-06 0.0 
5.398871229957e-05 -9.792129574714e-06 0.0 
7.029133670199e-05 2.764482463955e-04 0.0 
9.294403511251e-05 2.785889673216e-05 0.0 
1.987873007827e-04 5.026767568662e-05 0.0 
2.413995478279e-04 6.463791889577e-05 0.0 
3.781871154801e-04 2.636428441754e-04 0.0 
2.148228309524e-05 -4.164462523170e-06 0.0 
1.479213692640e-05 -3.203395308017e-05 0.0 
3.249533260967e-04 1.951049347450e-04 0.0 
1.994859751563e-04 7.933207663968e-04 0.0 
4.553616121593e-05 -5.456557075409e-06 0.0 
7.085831433990e-05 -3.680698613570e-06 0.0 
4.927338996183e-05 1.403559003065e-03 0.0 
3.295502958027e-05 1.403637809089e-03 0.0 
3.546568627904e-04 6.067062719490e-04 0.0 
3.603376654080e-04 2.320816585148e-04 0.0 
5.814041142205e-05 -2.446931681951e-05 0.0 
3.993888380035e-04 4.455698012488e-04 0.0 
3.170199119958e-04 1.321140050006e-04 0.0 
1.057445501023e-04 1.592718514701e-05 0.0 
2.543234462319e-04 8.127397149087e-05 0.0 
3.047412194030e-05 7.159783799273e-05 0.0 
3.227143018806e-04 1.088593775011e-03 0.0 
3.228758120456e-04 1.471485562737e-04 0.0 
7.374630186872e-05 -2.612053070539e-05 0.0 
1.034838380112e-04 2.515639930294e-05 0.0 
7.686409995736e-05 -3.512995532413e-05 0.0 
3.844279476186e-04 2.671240376994e-04 0.0 
4.244739457132e-04 4.155061987237e-04 0.0 
2.429623453489e-04 7.826129890705e-04 0.0 
3.835817040326e-04 3.927042909955e-04 0.0 
3.634117449979e-04 3.681603271874e-04 0.0 
5.775740030605e-06 -6.510177065874e-05 0.0 
7.279437895690e-05 -3.849156523291e-05 0.0 
3.910550029355e-04 4.944599425613e-04 0.0 
4.018053034177e-04 5.681347691828e-04 0.0 
3.845622065186e-04 5.333714918827e-04 0.0 
1.486629605116e-04 3.252973000164e-05 0.0 
1.154282916348e-06 -6.140237702762e-05 0.0 
5.004668467722e-05 -1.745865863056e-05 0.0 
3.799829557346e-04 2.610291031598e-04 0.0 
6.689939238380e-05 -3.899384674495e-05 0.0 
3.050245793388e-04 1.370390972077e-03 0.0 
3.020094905655e-04 1.342704034145e-03 0.0 
2.581135328199e-04 7.759252222447e-04 0.0 
3.662636197144e-05 8.354761686004e-05 0.0 
6.530676126139e-05 -3.006333296516e-05 0.0 
1.457838949709e-04 1.173964194507e-05 0.0 
5.129014120016e-05 -8.511286689662e-06 0.0 
1.058611974168e-04 5.256410165914e-05 0.0 
1.374904117519e-04 4.299642248217e-04 0.0 
5.136423156831e-05 -3.393410420349e-05 0.0 
4.786138359382e-05 -7.813375667165e-06 0.0 
9.539291284585e-06 -6.663492403204e-05 0.0 
1.412506525952e-04 4.958402239028e-06 0.0 
3.853371520687e-04 2.657194145807e-04 0.0 
7.399640143397e-06 -6.621409050899e-05 0.0 
1.268633499068e-04 4.283698195851e-04 0.0 
3.849875653043e-05 -1.675885794231e-06 0.0 
4.079401061077e-04 5.358670220398e-04 0.0 
4.170913821338e-04 3.750347579901e-04 0.0 
1.552032855761e-04 -1.479154919705e-05 0.0 
1.255776843950e-04 -1.243270455551e-05 0.0 
1.262847917011e-04 3.626381071893e-04 0.0 
1.187389624645e-04 -6.778093655836e-06 0.0 
3.591158945775e-04 2.049784198320e-04 0.0 
3.661896596265e-04 2.284419957576e-04 0.0 
-8.013160311724e-05 1.549558293336e-04 0.0 
2.554944119219e-05 -4.560533098750e-06 0.0 
2.732385527845e-04 1.427790002942e-04 0.0 
3.163389083541e-04 8.839117608361e-04 0.0 
2.444045673942e-04 1.196341547071e-04 0.0 
1.507895763334e-04 1.192630905307e-04 0.0 
2.715195859365e-04 4.591685350531e-04 0.0 
2.520895910434e-04 1.424134211157e-04 0.0 
3.226808995270e-04 1.259101043872e-03 0.0 
2.786607574205e-04 1.567288428576e-04 0.0 
4.366044156080e-05 -8.374798442431e-06 0.0 
3.590578410529e-04 2.111515623310e-04 0.0 
7.431628855354e-05 -3.235598984925e-05 0.0 
7.739620480197e-05 -2.889312954407e-05 0.0 
1.594723397716e-04 2.894171966036e-04 0.0 
1.282247290437e-04 -1.843279451117e-05 0.0 
4.065886473322e-04 3.347730532076e-04 0.0 
2.757880599318e-04 7.894072848399e-05 0.0 
1.076450419984e-04 -1.844038900737e-06 0.0 
2.972153118788e-04 1.173324959331e-04 0.0 
1.227618701103e-04 1.224437727219e-06 0.0 
1.847558070411e-04 5.671078233159e-06 0.0 
1.456950719671e-04 1.682414365792e-05 0.0 
3.963892900248e-04 4.761018504461e-04 0.0 
1.387414011412e-04 6.173137978385e-06 0.0 
4.139363633543e-04 4.326588702138e-04 0.0 
1.692502706888e-04 3.769052151710e-05 0.0 
1.814206663243e-04 3.743351176849e-05 0.0 
2.835567061716e-04 1.088581412414e-04 0.0 
2.724017107054e-04 8.433659575832e-04 0.0 
3.797421124405e-05 -6.542031381748e-06 0.0 
3.431930037083e-05 -6.989868076202e-06 0.0 
2.140849565443e-07 9.252491727060e-05 0.0 
3.996415107476e-04 3.832303809347e-04 0.0 
2.104478889051e-05 -2.199409639740e-06 0.0 
2.948291955252e-04 8.117269440404e-04 0.0 
5.084514337058e-05 -2.800499397696e-05 0.0 
-7.256192210013e-05 1.649996259411e-04 0.0 
2.915391099138e-05 -5.317141443318e-06 0.0 
1.168377642997e-04 1.780561872199e-05 0.0 
1.226609373904e-05 -2.958719734022e-05 0.0 
2.684435874147e-04 8.660099883517e-05 0.0 
2.879899929963e-04 8.332038533264e-04 0.0 
3.005227494260e-04 8.978936658397e-04 0.0 
3.752090379301e-04 2.374607515045e-04 0.0 
2.930455816479e-04 1.382963892016e-03 0.0 
3.027042766129e-04 1.384794390513e-03 0.0 
2.601178757608e-05 -5.670013203362e-06 0.0 
1.266744112700e-04 -8.381591114444e-06 0.0 
1.591629597005e-04 -9.562912128842e-06 0.0 
1.498113972483e-04 8.463860287055e-06 0.0 
1.828461599197e-04 1.263967319681e-06 0.0 
1.346782050523e-04 2.304665587897e-05 0.0 
2.812380405054e-04 1.434160166008e-03 0.0 
3.172633531940e-04 1.028086540519e-03 0.0 
4.140423697485e-05 1.447086338948e-03 0.0 
1.728749873732e-04 3.193146495960e-05 0.0 
2.696527782524e-04 8.965155128507e-05 0.0 
1.193610164766e-04 3.418959377486e-05 0.0 
1.087233221420e-05 -6.948149630628e-06 0.0 
1.898578411097e-04 6.624296922094e-06 0.0 
1.757981347487e-05 -9.927960413524e-07 0.0 
1.399588448629e-04 -6.875641855448e-06 0.0 
1.530674564058e-04 4.830493772898e-05 0.0 
3.627810765470e-04 2.093068641581e-04 0.0 
3.313088295394e-04 1.653562318552e-04 0.0 
1.030717953774e-04 1.003302394847e-05 0.0 
7.498932766853e-05 -4.821017677561e-05 0.0 
4.075223351597e-04 3.636296638973e-04 0.0 
1.724905106221e-04 -4.675241737310e-06 0.0 
4.200666178674e-04 4.086808427342e-04 0.0 
1.771349043946e-04 1.291933542466e-04 0.0 
3.021383439253e-04 1.287969827830e-04 0.0 
1.647260526113e-04 -9.813857236436e-06 0.0 
6.379735855085e-05 -2.396533669176e-05 0.0 
4.237638679344e-04 4.469940024704e-04 0.0 
-5.980877799959e-05 1.048255927820e-04 0.0 
2.730122849487e-04 7.627048191184e-05 0.0 
-4.581238880748e-05 1.616255043714e-04 0.0 
1.607031486276e-05 -6.629255613542e-05 0.0 
5.629448903410e-05 -2.766943834109e-05 0.0 
3.164454660063e-04 2.378736664549e-04 0.0 
3.190493081956e-04 8.085258803784e-04 0.0 
2.456996112014e-04 1.302519015770e-03 0.0 
1.577549169463e-05 3.456765155305e-05 0.0 
-8.301970883304e-05 1.270193548124e-04 0.0 
2.753535412239e-04 1.356863234602e-03 0.0 
1.545723830338e-04 -8.979182965308e-06 0.0 
4.340449359702e-05 -3.127894257333e-05 0.0 
3.863404343939e-04 1.080364188807e-03 0.0 
1.239178003352e-04 -2.804999458245e-05 0.0 
1.315511286740e-04 -1.417048331557e-05 0.0 
3.740974428570e-04 2.383368710251e-04 0.0 
2.608390963043e-04 7.209163833045e-05 0.0 
2.763216344448e-04 2.852578773219e-04 0.0 
1.900717099388e-05 7.879206167879e-05 0.0 
5.683103728072e-05 -3.367159534434e-05 0.0 
4.048565692467e-05 -2.846068002877e-05 0.0 
4.616842739796e-05 -5.881990668797e-05 0.0 
3.126457702228e-04 1.221955726958e-03 0.0 
3.342322163048e-04 7.923843776744e-04 0.0 
3.937817942382e-06 -1.324591210949e-05 0.0 
8.024516505487e-06 -6.673899779665e-05 0.0 
-3.590994781180e-05 1.470419569797e-05 0.0 
3.088595805136e-05 -6.433180931835e-05 0.0 
3.550175049313e-05 -2.862655248580e-05 0.0 
1.593517025519e-04 -4.668804221128e-06 0.0 
1.193716805853e-04 -2.701277773927e-05 0.0 
1.171576615076e-04 -7.899607288752e-06 0.0 
4.742515117400e-05 -2.522196437377e-05 0.0 
3.423073978230e-04 6.259691743524e-04 0.0 
3.249273356514e-05 -2.587158347797e-05 0.0 
1.682208540633e-04 3.575909847927e-06 0.0 
3.969247326200e-04 3.525143343543e-04 0.0 
1.930745544212e-04 1.178368723171e-03 0.0 
2.388914903430e-04 7.605674458973e-05 0.0 
2.773947895873e-05 -2.603447737123e-05 0.0 
4.229813808806e-05 -2.548322677017e-05 0.0 
1.469004899873e-04 1.059436589274e-03 0.0 
1.539592551447e-04 -1.345776428744e-05 0.0 
2.463258290753e-05 -2.336020374671e-05 0.0 
7.609694168866e-06 8.776508723738e-04 0.0 
8.329496060126e-06 1.023788466823e-03 0.0 
2.040579918274e-04 1.206825429785e-03 0.0 
3.884457241636e-05 -2.276549730132e-05 0.0 
1.004329511661e-04 -4.024361547742e-05 0.0 
-1.457752931467e-05 1.817009212378e-04 0.0 
1.473038862232e-04 4.332587814151e-05 0.0 
3.183884711149e-05 -6.321938420455e-05 0.0 
1.037367545145e-04 -3.992920744299e-05 0.0 
2.821854985502e-04 8.506659485266e-05 0.0 
2.347880041558e-04 1.392124035419e-03 0.0 
2.004870257937e-05 -2.352822752499e-05 0.0 
2.823972299752e-06 -5.701900769050e-05 0.0 
3.115701784195e-04 1.165312125565e-03 0.0 
3.402307432498e-05 -2.298798155208e-05 0.0 
1.439919230412e-04 -1.825795844624e-05 0.0 
5.955311833293e-05 -3.048645442290e-05 0.0 
-4.713845214142e-05 7.707194064995e-05 0.0 
9.748344331633e-06 4.494084006186e-04 0.0 
1.292451502156e-04 -2.856513970630e-05 0.0 
1.286580770154e-04 2.129603207434e-05 0.0 
3.203674188009e-04 1.462905992498e-04 0.0 
3.062614178152e-05 -2.036311584521e-05 0.0 
2.598890497049e-05 -2.057244414658e-05 0.0 
1.462231442545e-04 -9.728848689276e-06 0.0 
1.784152280292e-05 -6.171659068807e-05 0.0 
-4.842826819621e-05 9.319149673541e-05 0.0 
2.263298108884e-05 -1.803894686135e-05 0.0 
1.095343388468e-04 1.249146864905e-05 0.0 
8.321209020834e-05 -4.832967036348e-05 0.0 
3.792753670327e-04 3.103128198801e-04 0.0 
2.350659216620e-04 6.715153251545e-04 0.0 
3.839057356867e-04 3.650961927562e-04 0.0 
3.564122270535e-05 3.334636367365e-06 0.0 
-6.380250153716e-05 2.514800669760e-05 0.0 
1.452514751002e-06 3.906310772385e-05 0.0 
8.029176045875e-07 -9.904189765133e-08 0.0 
5.145173398038e-06 1.255727775056e-03 0.0 
1.072191449512e-04 -3.814646698881e-05 0.0 
3.481470789841e-04 1.874771110583e-04 0.0 
1.624410114468e-04 7.154168197321e-06 0.0 
1.479635013782e-05 -6.701615787147e-05 0.0 
-7.574443239702e-05 1.350807219566e-04 0.0 
4.116275400966e-05 3.224523139607e-04 0.0 
3.473127162915e-04 6.982175784503e-04 0.0 
2.953788739461e-04 1.302729554310e-03 0.0 
5.083505951258e-05 2.240538905982e-05 0.0 
2.457037699483e-06 -6.008106201022e-05 0.0 
4.621295520930e-05 1.842344312637e-05 0.0 
3.333569703732e-04 7.173181837859e-04 0.0 
8.744977927174e-05 -4.381774336415e-05 0.0 
3.507587194050e-04 1.865085324058e-04 0.0 
9.937339156500e-05 -4.176173417891e-05 0.0 
1.885542486098e-06 2.234420759152e-04 0.0 
8.542013362008e-05 -4.713156053967e-05 0.0 
3.451077132912e-04 5.379404719888e-04 0.0 
1.081859725271e-05 -5.109880093902e-06 0.0 
1.198430107858e-04 -3.269048339683e-05 0.0 
3.643941077090e-04 3.194046638539e-04 0.0 
-5.286913691440e-05 1.253783388626e-05 0.0 
1.426514746596e-04 -1.824778627436e-05 0.0 
2.850120481094e-04 5.278652596825e-04 0.0 
6.870275240809e-05 -5.109830618737e-05 0.0 
7.023144971947e-05 -5.293509511665e-05 0.0 
3.381567573260e-04 1.634700178545e-04 0.0 
3.662313318716e-05 -4.165760862339e-05 0.0 
4.342658419716e-05 6.772797456078e-04 0.0 
9.058839396533e-05 8.700319552403e-04 0.0 
6.076191926265e-05 -5.535800442776e-05 0.0 
1.453677002862e-04 -1.264565514938e-05 0.0 
2.943828834818e-04 1.055685249302e-04 0.0 
3.624805171827e-04 2.953373375582e-04 0.0 
1.829147990925e-04 2.027780893729e-04 0.0 
1.371766624659e-04 1.207506636399e-03 0.0 
1.423569943737e-05 7.261489670911e-04 0.0 
1.884151947365e-04 1.291519326661e-04 0.0 
1.473075605439e-04 1.762660962094e-06 0.0 
-5.169917413590e-05 1.865235777872e-04 0.0 
2.843519147221e-04 7.043531856657e-04 0.0 
1.322186905260e-04 -2.013413168612e-05 0.0 
3.605540253380e-04 3.917819787469e-04 0.0 
1.408444127331e-04 -1.712724918927e-05 0.0 
-1.073784504916e-05 7.227647094928e-05 0.0 
1.423092773252e-04 -7.075696920597e-06 0.0 
2.451411261923e-05 2.749211807023e-04 0.0 
2.804817795137e-04 8.787582076529e-05 0.0 
1.400683777094e-04 -1.139022645063e-05 0.0 
3.246037061665e-04 1.453729639016e-04 0.0 
5.344543479411e-05 9.058023284880e-04 0.0 
5.624266218356e-05 -5.615069287481e-05 0.0 
-2.664925628037e-05 1.474620964142e-04 0.0 
1.348887551649e-04 -5.804840344467e-06 0.0 
5.632103903469e-05 3.414996800152e-04 0.0 
-3.935779483256e-05 2.535354269407e-05 0.0 
3.650509874074e-06 2.937757817780e-04 0.0 
4.897019104089e-06 4.386897989067e-04 0.0 
5.693841050851e-06 -6.209641715862e-05 0.0 
1.346325351312e-04 -1.841563571773e-06 0.0 
3.862554040315e-05 -6.200777733557e-05 0.0 
4.075067482821e-05 -6.067838547395e-05 0.0 
3.174687419700e-04 2.561132758856e-04 0.0 
3.123190586866e-04 1.269123244355e-04 0.0 
3.396566160239e-04 2.560250401036e-04 0.0 
1.347518824870e-04 -2.377293528515e-05 0.0 
9.260076747141e-05 1.452726337243e-03 0.0 
2.480770135247e-05 1.889489614866e-06 0.0 
3.348937380603e-05 -6.344367072037e-05 0.0 
1.473572010838e-04 2.409555074599e-05 0.0 
3.030279600074e-04 1.124005335423e-04 0.0 
7.922509223647e-06 -6.320622748883e-05 0.0 
3.720321555779e-04 4.718598860460e-04 0.0 
1.629463916627e-04 -6.822690075385e-06 0.0 
1.074735024161e-05 -5.653761866754e-05 0.0 
1.260643409577e-04 -2.116068869807e-05 0.0 
2.097307510891e-06 -1.555378814306e-05 0.0 
3.553762110062e-04 5.175474105361e-04 0.0 
2.758859967257e-05 -6.312670689061e-05 0.0 
8.237527243290e-06 -3.028080903425e-05 0.0 
3.419351514568e-04 3.194795409242e-04 0.0 
2.251709907460e-04 7.451269279004e-05 0.0 
7.248235910358e-05 -5.166327962455e-05 0.0 
5.754702388631e-06 -5.687112214158e-05 0.0 
2.955242946577e-04 1.008336957460e-04 0.0 
3.983094666960e-06 9.540396770484e-04 0.0 
7.348067104045e-06 -4.994251822749e-05 0.0 
1.338571158219e-04 7.942278042329e-05 0.0 
1.037660080800e-04 1.301820159318e-04 0.0 
1.799342779090e-05 1.157097370779e-03 0.0 
7.069117046463e-05 2.152053569110e-04 0.0 
1.092351648995e-04 1.068094988259e-04 0.0 
1.371758009516e-04 -2.423600200970e-05 0.0 
1.127661672499e-04 -3.622451827201e-05 0.0 
7.226360585821e-05 1.589387743334e-05 0.0 
-6.317040237932e-05 3.687743704769e-05 0.0 
1.302754783135e-06 -5.863033803978e-05 0.0 
6.105273821122e-06 -2.816257677965e-05 0.0 
6.737144354711e-05 -5.284256255956e-05 0.0 
1.065589324858e-04 -3.648684790713e-05 0.0 
-3.516460152232e-05 4.440424024779e-04 0.0 
-4.664548214747e-06 5.401349998655e-04 0.0 
1.658947672371e-04 1.174331762576e-03 0.0 
1.385100528802e-04 -1.667275653045e-05 0.0 
1.553000118246e-05 -5.628044097574e-05 0.0 
2.693724533315e-04 1.103371135891e-04 0.0 
8.302444181795e-06 5.262482557044e-07 0.0 
1.095183496534e-05 8.289914980435e-07 0.0 
1.143053239963e-04 -3.545575596981e-05 0.0 
2.098177343499e-04 1.253082930694e-03 0.0 
-4.173456166369e-05 9.221120040416e-06 0.0 
-5.903990963730e-05 2.973603193557e-04 0.0 
2.897365537758e-05 -3.770165406202e-05 0.0 
-4.818237403879e-05 3.623896237242e-04 0.0 
2.990869459982e-04 1.059812737531e-04 0.0 
8.881874931066e-05 -4.609523464942e-05 0.0 
1.169395793700e-04 -3.263840499752e-05 0.0 
-8.875311425228e-06 -1.997555211530e-05 0.0 
1.119640249988e-05 3.968254015323e-04 0.0 
9.743015787466e-05 -4.277571233090e-05 0.0 
3.571880620764e-05 3.152904257029e-04 0.0 
2.943220922045e-05 5.269938393093e-04 0.0 
4.356587754802e-06 8.627924740972e-05 0.0 
1.805213781911e-06 -1.684353542723e-07 0.0 
9.491574791205e-06 1.173567112379e-03 0.0 
9.297002641274e-05 -4.388314667362e-05 0.0 
3.597442207860e-05 8.111667938034e-04 0.0 
9.382401236044e-05 -4.227817597485e-05 0.0 
3.120301130875e-06 1.324390052545e-07 0.0 
-6.954393955344e-05 2.009272763404e-04 0.0 
-6.557853524896e-05 2.445166729068e-04 0.0 
1.429001416239e-04 2.863672817899e-05 0.0 
1.566196755850e-04 1.308754656897e-03 0.0 
2.138892164972e-05 3.022243294366e-04 0.0 
3.425934825139e-04 2.983319758301e-04 0.0 
1.879325642209e-04 6.612400436677e-05 0.0 
3.014319215652e-04 3.376717202412e-04 0.0 
6.112211942304e-05 1.122887177679e-03 0.0 
5.848916044160e-05 -5.668788825995e-05 0.0 
6.284777534195e-05 -5.544426188385e-05 0.0 
1.772808221273e-05 7.990513897892e-04 0.0 
2.171153620601e-04 8.007931907763e-05 0.0 
2.612067857484e-04 1.327465678097e-03 0.0 
3.253900687380e-05 1.320015952585e-03 0.0 
3.915283780565e-05 1.190786427022e-03 0.0 
7.007882962898e-05 1.140340000598e-03 0.0 
1.493279747069e-05 -1.694692379421e-05 0.0 
5.177585696031e-05 -5.881854814286e-05 0.0 
3.199737744046e-05 1.920883483923e-04 0.0 
6.828018531123e-05 9.841963854282e-04 0.0 
6.475964475207e-05 1.905857389615e-05 0.0 
1.967455160228e-04 2.063412459756e-04 0.0 
3.777244363940e-04 4.468579917523e-04 0.0 
1.038947122958e-04 2.963097623783e-04 0.0 
2.576926303809e-05 -4.527619816628e-05 0.0 
2.420431853034e-05 -4.996680811025e-05 0.0 
4.291253787667e-05 2.199996318503e-06 0.0 
-2.077509109052e-05 -1.876579147397e-05 0.0 
6.908652640865e-06 -5.827328123297e-05 0.0 
2.391804916795e-05 9.973930084784e-06 0.0 
1.620731707705e-06 -6.451660692725e-05 0.0 
4.020994575863e-05 1.275892187647e-03 0.0 
9.094845934685e-05 1.515428133016e-05 0.0 
1.257466804441e-05 -6.685461271653e-05 0.0 
9.380941834016e-06 -6.797876898535e-05 0.0 
1.983556990569e-05 7.357117079687e-05 0.0 
1.356602639942e-04 1.408412154103e-03 0.0 
4.760072254166e-05 2.068760254542e-04 0.0 
9.410034940647e-05 1.970289161309e-05 0.0 
1.180916341868e-04 1.410720284046e-03 0.0 
-5.126127215952e-05 3.621275163905e-05 0.0 
7.561707008044e-06 1.617676064616e-04 0.0 
1.491469592160e-05 -6.598224449762e-05 0.0 
5.268390813013e-05 2.708039799574e-04 0.0 
2.428580425688e-06 5.386392098172e-08 0.0 
1.701688060971e-04 2.194700587184e-04 0.0 
3.786475268609e-05 -1.987301554685e-05 0.0 
2.374535535199e-04 1.144961292961e-03 0.0 
1.556383344328e-05 -4.496675502570e-05 0.0 
2.595178805840e-04 9.819206633252e-05 0.0 
3.452999976886e-05 1.050958229622e-05 0.0 
1.705219431162e-05 6.519523661807e-04 0.0 
3.210777169639e-05 8.786783327436e-06 0.0 
-8.839481265064e-06 -1.173520078907e-05 0.0 
1.479578955308e-05 2.952928648137e-08 0.0 
4.851530865830e-05 -3.313802659243e-05 0.0 
7.354948804499e-06 -6.493900161027e-05 0.0 
4.948913332523e-05 7.590745201020e-06 0.0 
8.528831442513e-05 1.723970078026e-04 0.0 
4.323985183219e-05 1.442929957607e-04 0.0 
8.972343722128e-05 1.302181878692e-03 0.0 
3.022958842694e-04 1.037152103864e-03 0.0 
5.855698943823e-06 1.928616362498e-04 0.0 
1.277861855342e-04 1.199196502796e-04 0.0 
1.211199379525e-05 -5.121249468123e-05 0.0 
-2.952947238636e-05 1.002194301219e-04 0.0 
2.350095817248e-04 8.443297730689e-05 0.0 
7.369606559987e-05 1.454303648131e-03 0.0 
1.143077407177e-04 2.367294981296e-04 0.0 
6.123035061420e-07 8.202088159400e-05 0.0 
6.123035061420e-07 3.460689500516e-05 0.0 
1.177222990513e-06 -6.774097229143e-05 0.0 
4.999507245563e-07 -6.742047309203e-05 0.0 
4.009223157661e-06 1.401318141657e-03 0.0 
9.542601062395e-06 1.452194844170e-03 0.0 
3.111143395537e-07 -9.860380593986e-08 0.0 
3.111143395537e-07 -3.084479951589e-07 0.0 
2.250592144913e-06 -6.703916652469e-05 0.0 
-4.189275439392e-05 -7.537249082643e-06 0.0 
1.460791353826e-05 -1.589855579256e-06 0.0 
1.873361214850e-04 8.777741834178e-05 0.0 
1.404369951379e-05 -6.486891528670e-05 0.0 
2.488706319843e-05 -1.008052116194e-07 0.0 
3.633149438857e-06 -2.356818948214e-05 0.0 
3.728165251387e-06 -3.407371695581e-05 0.0 
4.652445799325e-05 9.269138600654e-04 0.0 
2.708407828702e-05 -4.858198550988e-05 0.0 
2.912415075188e-04 1.136314159469e-04 0.0 
1.285407081539e-05 -6.636681835608e-05 0.0 
2.201328999303e-05 -3.956171771444e-05 0.0 
1.697248510075e-04 1.642061925061e-04 0.0 
2.105107327969e-06 3.631785994530e-04 0.0 
7.205680389199e-06 -3.344780510123e-05 0.0 
2.983920044157e-05 1.075666831333e-03 0.0 
1.951472166067e-04 1.142055790250e-04 0.0 
2.819020877607e-04 2.747689114716e-04 0.0 
3.358768398713e-04 3.595947219770e-04 0.0 
1.013305452376e-04 1.405628487140e-03 0.0 
2.851758140726e-04 9.784901306181e-05 0.0 
1.409071135312e-04 2.341759516284e-04 0.0 
9.970193098163e-06 -5.803588810100e-05 0.0 
5.144538483604e-06 -6.336821596538e-05 0.0 
2.302803976888e-04 1.413731996029e-04 0.0 
1.549417728500e-04 2.829547288556e-05 0.0 
1.899675358193e-05 -4.710948556039e-05 0.0 
2.451845516679e-05 8.148644086471e-04 0.0 
8.020452990492e-06 -4.355866120598e-07 0.0 
2.234658377398e-04 1.181667724094e-04 0.0 
1.903016499526e-04 9.983874153283e-05 0.0 
4.385195234104e-06 -1.841844933842e-05 0.0 
-5.816102779278e-05 7.523753677574e-05 0.0 
-4.382430506322e-05 5.076297018886e-04 0.0 
5.664334348283e-05 2.936367347393e-04 0.0 
2.515377342254e-04 1.090958661451e-03 0.0 
2.971859349145e-04 1.126643929476e-04 0.0 
4.099098747161e-05 2.628426908269e-04 0.0 
6.389937167768e-05 1.526473165208e-05 0.0 
5.325531983874e-06 -5.309658709146e-05 0.0 
9.935720400516e-06 -6.246648359257e-05 0.0 
-6.779531062284e-05 3.385417660590e-04 0.0 
4.046148764666e-05 7.474671242382e-04 0.0 
1.806437644688e-05 -5.427957050991e-05 0.0 
9.709616257518e-05 2.369727256615e-04 0.0 
8.476873065114e-06 -6.416054132262e-05 0.0 
1.099158615904e-04 2.538529759803e-05 0.0 
1.537349710336e-04 1.164469928856e-03 0.0 
8.701716583451e-05 3.176061355266e-05 0.0 
2.526073676451e-04 1.053735790614e-04 0.0 
2.765033466696e-04 1.070588433279e-03 0.0 
3.947352839548e-05 4.504526537181e-06 0.0 
7.514825802437e-05 1.722837703965e-04 0.0 
6.203036550349e-06 1.894595172608e-04 0.0 
-7.640503444974e-05 2.290958699567e-04 0.0 
9.489223503920e-05 2.917622504949e-04 0.0 
1.116508936879e-04 6.883650425373e-05 0.0 
1.103020237142e-04 2.357513691748e-05 0.0 
2.248585752330e-04 8.887487357557e-05 0.0 
4.441690613476e-06 3.004128827740e-07 0.0 
3.305647422426e-04 3.779143739933e-04 0.0 
-8.163896990430e-05 9.079418934060e-05 0.0 
-2.242018755141e-05 1.259844589665e-04 0.0 
2.430879052744e-04 2.463727890931e-04 0.0 
2.326511865346e-04 1.008684784253e-03 0.0 
7.564236095499e-06 -2.309597467527e-06 0.0 
2.010747585707e-04 8.084779338543e-05 0.0 
1.561441773951e-05 6.851679325379e-07 0.0 
3.569728969168e-05 5.983232522535e-04 0.0 
7.871801026412e-05 2.611241949454e-05 0.0 
4.833958396602e-05 3.894895247371e-06 0.0 
5.155240253759e-05 4.849072308397e-06 0.0 
1.328727813274e-05 -5.292681088382e-05 0.0 
6.981054699194e-06 3.582743781849e-07 0.0 
1.975948367975e-04 1.307977064180e-03 0.0 
2.592978228694e-05 3.061260748805e-04 0.0 
1.239829278404e-05 -6.101898769230e-05 0.0 
1.672811544812e-05 4.256516199017e-04 0.0 
3.697655935517e-05 8.075803452575e-04 0.0 
1.301271239997e-06 -6.590051146296e-05 0.0 
2.615889387080e-05 -1.381029091047e-05 0.0 
3.123244725098e-04 3.088631023745e-04 0.0 
3.476744518862e-05 1.562467262338e-04 0.0 
1.310916981310e-05 2.923328259439e-04 0.0 
9.970726352661e-05 3.163093718119e-05 0.0 
7.411137433633e-05 1.062620972236e-03 0.0 
8.843908908193e-06 -6.706238044400e-05 0.0 
-3.458678050949e-05 4.378954990202e-05 0.0 
1.065147507172e-05 -6.744808867087e-05 0.0 
1.795810720739e-05 -6.344236822958e-05 0.0 
-8.770047381760e-05 1.049732708400e-04 0.0 
1.957831312372e-05 -4.143582605942e-05 0.0 
9.525863022983e-06 -2.218790715915e-06 0.0 
1.674572312428e-04 2.316978429726e-04 0.0 
2.956421492699e-04 9.686908699951e-04 0.0 
2.724321768907e-05 -4.778772866195e-05 0.0 
4.135985596816e-05 1.441534553885e-06 0.0 
8.407906471546e-05 1.181719925034e-05 0.0 
1.063973215447e-04 4.073941865021e-05 0.0 
1.742329351603e-04 1.060929550829e-04 0.0 
2.530816906370e-04 2.291064192064e-04 0.0 
1.323697140311e-05 -6.382707240755e-05 0.0 
-2.047961668315e-05 -3.276078777316e-06 0.0 
1.337479354552e-05 -1.933940950722e-06 0.0 
2.664092048875e-06 -6.572061570232e-05 0.0 
6.005383335673e-07 -6.524297942483e-05 0.0 
-6.270309319168e-05 1.228721297225e-04 0.0 
1.288531914046e-05 -6.730249550700e-05 0.0 
2.952499320171e-05 3.389186156199e-06 0.0 
1.080174194829e-04 8.332981549856e-05 0.0 
3.666277298830e-05 2.625219823233e-04 0.0 
8.648586745990e-05 3.462795799444e-05 0.0 
1.009596326177e-04 1.352586038525e-05 0.0 
6.023383294116e-05 9.796613936451e-04 0.0 
9.062021697699e-06 3.064608209976e-05 0.0 
4.716618342991e-05 -3.934344906487e-05 0.0 
1.264359466715e-04 1.457620654281e-03 0.0 
1.450966866975e-05 -5.051345263340e-05 0.0 
9.745071284146e-06 -6.785964418405e-05 0.0 
4.680686179377e-06 3.992260208599e-08 0.0 
2.687971951496e-04 1.239375662047e-03 0.0 
8.121364803381e-06 -6.556400498175e-05 0.0 
1.369218891774e-05 -4.259143548691e-05 0.0 
1.256454656088e-04 1.044981354324e-04 0.0 
5.905869559202e-05 2.776819427495e-04 0.0 
7.243644948271e-05 1.327851956016e-04 0.0 
7.769932783747e-06 -5.502859072435e-05 0.0 
-2.868376425351e-05 2.934937010599e-05 0.0 
2.087702837886e-05 7.288774519845e-07 0.0 
2.064818257144e-06 7.367000272902e-05 0.0 
1.114031944141e-06 -1.976457035912e-07 0.0 
9.154396555699e-06 1.320146679666e-03 0.0 
7.656560412294e-05 1.233163786689e-05 0.0 
9.899116364124e-06 -6.531033525535e-05 0.0 
9.048551041637e-05 2.391233373752e-04 0.0 
1.011326482227e-05 -6.789931086762e-05 0.0 
3.684775316530e-05 5.666061661252e-06 0.0 
9.594058366987e-05 1.710443418480e-04 0.0 
-4.881024844083e-05 4.864290843707e-05 0.0 
2.212030187265e-04 1.093373485641e-04 0.0 
3.510090919331e-05 6.693951839272e-04 0.0 
2.284775083025e-05 1.487644289435e-04 0.0 
1.369761944247e-05 3.943904621158e-06 0.0 
1.448051099483e-05 8.750487745344e-04 0.0 
1.028572107613e-04 8.888749699404e-05 0.0 
1.222759354556e-04 2.349061589942e-04 0.0 
2.899943219109e-05 7.690280320823e-04 0.0 
1.643493343383e-04 1.417844301925e-04 0.0 
1.471449130466e-05 -4.928081967217e-05 0.0 
6.482825418469e-05 1.410097121473e-03 0.0 
1.484984743183e-04 6.233127119473e-05 0.0 
2.157706052247e-06 1.569289320791e-04 0.0 
2.227131504440e-06 -6.754830219614e-05 0.0 
1.776642751592e-05 1.409172047866e-03 0.0 
1.004201670357e-06 -7.039512027968e-07 0.0 
1.586111496981e-05 -6.502359951342e-05 0.0 
1.002187369379e-04 1.903089479034e-05 0.0 
1.522926891039e-04 2.390320477437e-04 0.0 
2.668961802782e-05 1.932973988729e-04 0.0 
1.024278098682e-05 -6.438958270301e-05 0.0 
-3.596220242605e-05 9.203813904432e-05 0.0 
1.534134819192e-06 -3.136142782127e-05 0.0 
1.408633137982e-05 5.196676331832e-04 0.0 
-5.276768539742e-05 3.028826133631e-06 0.0 
5.602647273122e-05 1.346512222918e-04 0.0 
2.605299030544e-05 9.035492798604e-04 0.0 
2.687366809053e-05 -5.259146169485e-05 0.0 
4.873024952715e-05 1.011224838361e-03 0.0 
1.140046104362e-04 4.850153245356e-05 0.0 
2.879396534836e-06 -2.861728371209e-05 0.0 
-7.979594070468e-05 1.117705812210e-04 0.0 
1.686796345934e-05 -5.253107870325e-05 0.0 
1.993465484097e-05 -3.683808133590e-05 0.0 
1.345261715644e-06 -2.592947972552e-05 0.0 
1.318878150734e-04 4.294069381136e-05 0.0 
1.029766473635e-05 -3.771560874007e-05 0.0 
1.328423175349e-05 -3.435075369118e-05 0.0 
1.228771473823e-05 -6.768093735093e-05 0.0 
2.693342586508e-05 2.165381995238e-07 0.0 
2.332308286614e-04 1.530237974809e-04 0.0 
-1.256177790457e-05 8.873266319015e-05 0.0 
3.610220803249e-06 1.485780532141e-04 0.0 
1.807119274945e-06 -5.931489112291e-07 0.0 
1.737822300922e-05 1.327943135613e-03 0.0 
1.961911251644e-05 9.360754510291e-04 0.0 
1.418848061882e-05 -3.837309159832e-05 0.0 
1.589156293034e-05 -3.651857189205e-05 0.0 
9.726341712041e-06 -3.507099401822e-05 0.0 
1.258871993110e-04 2.505846411841e-05 0.0 
1.951955239218e-05 -5.357086081732e-05 0.0 
1.989939958303e-04 1.298670692948e-04 0.0 
3.175992546699e-05 1.159871861732e-03 0.0 
6.746074441660e-05 1.768969169968e-04 0.0 
1.192297064687e-04 2.191769015334e-05 0.0 
5.710831176032e-05 1.040633157534e-03 0.0 
2.189042483682e-04 2.072405146471e-04 0.0 
1.338353085232e-04 4.628185709475e-05 0.0 
1.017151331905e-04 3.563213256004e-05 0.0 
-6.962634907656e-05 1.017854114246e-04 0.0 
2.233175804150e-04 2.004631106108e-04 0.0 
1.905204223660e-04 1.613448615204e-04 0.0 
1.168855436251e-05 -6.776120542903e-05 0.0 
1.579659566014e-05 -4.056670938715e-05 0.0 
-6.926841492454e-05 8.831691150378e-05 0.0 
1.834997449641e-04 1.704603339806e-04 0.0 
2.584090651432e-05 1.999547966236e-03 0.0 
3.277734625614e-05 2.050378956871e-03 0.0 
4.182943359544e-05 1.998994219085e-03 0.0 
4.827773432497e-05 2.049543980387e-03 0.0 
5.785173226139e-05 1.998757167002e-03 0.0 
6.448078338130e-05 2.049507249077e-03 0.0 
7.394303569296e-05 1.998949828134e-03 0.0 
8.079220229768e-05 2.049775394977e-03 0.0 
8.968491027712e-05 1.999198341153e-03 0.0 
9.656700450410e-05 2.049875100836e-03 0.0 
1.046948034882e-04 1.999114212055e-03 0.0 
1.113469604397e-04 2.049415114033e-03 0.0 
1.186459364488e-04 1.998293788098e-03 0.0 
1.247772350298e-04 2.047973513342e-03 0.0 
1.312584129688e-04 1.996289818613e-03 0.0 
1.365415371561e-04 2.045088802564e-03 0.0 
1.058325682033e-04 1.525773056242e-03 0.0 
1.422549608324e-04 1.992600307995e-03 0.0 
1.462874077081e-04 2.040191289228e-03 0.0 
4.511404737253e-05 1.546767813184e-03 0.0 
1.513291141340e-04 1.986566508233e-03 0.0 
1.536114571730e-04 2.032531355290e-03 0.0 
1.306062364345e-04 1.555827771946e-03 0.0 
1.581707609578e-04 1.977338052909e-03 0.0 
1.581024921302e-04 2.021134977317e-03 0.0 
1.624960966638e-04 1.963821537105e-03 0.0 
1.593670156036e-04 2.004770045514e-03 0.0 
1.640643453100e-04 1.944684823408e-03 0.0 
1.570281793209e-04 1.982012951012e-03 0.0 
1.383925586913e-04 1.420806618986e-03 0.0 
1.627180290580e-04 1.918307637583e-03 0.0 
1.506448676809e-04 1.950901777728e-03 0.0 
1.583564050614e-04 1.882342921280e-03 0.0 
1.399938511442e-04 1.908836468955e-03 0.0 
1.252305492020e-04 1.851894348465e-03 0.0 
1.514111546924e-04 1.833685101966e-03 0.0 
1.077470025443e-04 1.775300648142e-03 0.0 
1.427472138369e-04 1.767734027831e-03 0.0 
8.988582017847e-05 1.671750327040e-03 0.0 
1.343463258776e-04 1.678826947667e-03 0.0 
7.767403786049e-05 1.441801375928e-03 0.0 
3.538043950569e-06 2.024759641269e-03 0.0 
1.761810309476e-05 2.024817422916e-03 0.0 
1.165752257480e-05 2.076438842196e-03 0.0 
9.498624470525e-06 1.973138221990e-03 0.0 
6.555223781231e-05 1.347206938849e-03 0.0 
2.347549474985e-05 1.897052773659e-03 0.0 
2.903012029894e-05 1.846221119180e-03 0.0 
4.044761940271e-05 1.897331573971e-03 0.0 
4.578995444034e-05 1.846415432924e-03 0.0 
5.674576656949e-05 1.897291264652e-03 0.0 
6.213599198056e-05 1.846605421058e-03 0.0 
7.270420998412e-05 1.897513902464e-03 0.0 
7.814103406237e-05 1.846987914384e-03 0.0 
8.827256775066e-05 1.897846786230e-03 0.0 
9.372327881458e-05 1.847348343849e-03 0.0 
1.032634203251e-04 1.897939009991e-03 0.0 
1.087339486479e-04 1.847333460148e-03 0.0 
1.174643078200e-04 1.897387336277e-03 0.0 
1.230124975327e-04 1.846516736759e-03 0.0 
1.306753041004e-04 1.895739493852e-03 0.0 
2.106798227519e-04 1.572249021277e-03 0.0 
1.364011132784e-04 1.844418213323e-03 0.0 
2.197404425176e-04 1.580439046017e-03 0.0 
1.426976458231e-04 1.892480043515e-03 0.0 
1.487547353967e-04 1.840442344912e-03 0.0 
1.533537568319e-04 1.886937828397e-03 0.0 
1.599690294065e-04 1.833812208626e-03 0.0 
1.625036904933e-04 1.878247586080e-03 0.0 
1.699936334045e-04 1.823536340642e-03 0.0 
1.828406892309e-04 1.603151189748e-03 0.0 
1.700543084026e-04 1.865313367259e-03 0.0 
1.788485289564e-04 1.808368573973e-03 0.0 
1.759876469239e-04 1.846791521713e-03 0.0 
1.866827353186e-04 1.786769913331e-03 0.0 
1.804492834417e-04 1.820957901596e-03 0.0 
1.938449636720e-04 1.756614546377e-03 0.0 
1.838252466687e-04 1.785405425915e-03 0.0 
2.010209002600e-04 1.715107780770e-03 0.0 
2.090306133294e-04 1.658281635616e-03 0.0 
1.869693622009e-04 1.736893909146e-03 0.0 
2.306835296314e-04 1.502179689797e-03 0.0 
1.909890704559e-04 1.670912507802e-03 0.0 
2.028443961104e-04 1.533081858268e-03 0.0 
2.870500566646e-06 1.870854711167e-03 0.0 
1.458514794636e-05 1.871222313851e-03 0.0 
8.624567426403e-06 1.820038719516e-03 0.0 
8.831081086602e-06 1.922038305502e-03 0.0 
1.950704490131e-04 1.492835061093e-03 0.0 
2.210779654454e-05 1.693140535252e-03 0.0 
2.817362431142e-05 1.744272708454e-03 0.0 
3.876842025903e-05 1.693720081367e-03 0.0 
4.496725128418e-05 1.744752351047e-03 0.0 
5.517006369348e-05 1.694150079820e-03 0.0 
6.138299226071e-05 1.745127318103e-03 0.0 
7.130119897112e-05 1.694668204481e-03 0.0 
7.749102276923e-05 1.745620319356e-03 0.0 
8.720502483055e-05 1.695213780597e-03 0.0 
9.330574718762e-05 1.746082933244e-03 0.0 
1.028860156236e-04 1.695552547182e-03 0.0 
1.087740755733e-04 1.746212407943e-03 0.0 
1.183010409006e-04 1.695321256813e-03 0.0 
2.520838050962e-04 1.545115701669e-03 0.0 
1.238091036879e-04 1.745571709500e-03 0.0 
1.334153831090e-04 1.694083415074e-03 0.0 
2.377482445850e-04 1.584247049064e-03 0.0 
1.383445861318e-04 1.743707161805e-03 0.0 
1.482037716650e-04 1.691325145617e-03 0.0 
2.530496807440e-04 1.538828125861e-03 0.0 
1.523173883853e-04 1.739998498532e-03 0.0 
1.626655536147e-04 1.686324051894e-03 0.0 
1.657181732007e-04 1.733642278503e-03 0.0 
1.768725378829e-04 1.678192311960e-03 0.0 
1.786133370000e-04 1.723650996645e-03 0.0 
2.685376774138e-04 1.490553413830e-03 0.0 
1.909732766586e-04 1.665829969073e-03 0.0 
1.911477936169e-04 1.708770519784e-03 0.0 
2.036066611848e-04 1.687406184891e-03 0.0 
2.052108374506e-04 1.647829739086e-03 0.0 
2.164770719550e-04 1.657472824062e-03 0.0 
2.200053175908e-04 1.622452450842e-03 0.0 
2.302108864655e-04 1.616092457749e-03 0.0 
2.356473411571e-04 1.587248380579e-03 0.0 
2.542021169026e-04 1.529684761225e-03 0.0 
2.756570811519e-06 1.718151472811e-03 0.0 
1.396001597345e-05 1.718349155265e-03 0.0 
8.510637671276e-06 1.769129388610e-03 0.0 
8.205949113695e-06 1.667371239466e-03 0.0 
2.542358577088e-04 1.513245885992e-03 0.0 
2.188710758952e-05 1.591383728919e-03 0.0 
2.753967804273e-05 1.540677630392e-03 0.0 
3.835516294536e-05 1.591881809639e-03 0.0 
4.412384541086e-05 1.541216057102e-03 0.0 
5.473991513383e-05 1.592452057604e-03 0.0 
6.063756794247e-05 1.541858145422e-03 0.0 
7.098592321253e-05 1.593097054017e-03 0.0 
7.710681789172e-05 1.542540244290e-03 0.0 
8.713609571164e-05 1.593704855996e-03 0.0 
9.357126546643e-05 1.543091865942e-03 0.0 
1.032204630213e-04 1.594070404481e-03 0.0 
1.101008489294e-04 1.543286824178e-03 0.0 
2.597540030880e-04 1.469351759454e-03 0.0 
1.192933668589e-04 1.593877815749e-03 0.0 
2.557538491221e-04 1.454088714185e-03 0.0 
1.267182595550e-04 1.542701797343e-03 0.0 
1.353322130177e-04 1.592656943981e-03 0.0 
1.434966033626e-04 1.540892909563e-03 0.0 
1.514389589871e-04 1.589937364468e-03 0.0 
1.605478221245e-04 1.537260584983e-03 0.0 
1.676608000318e-04 1.584973919494e-03 0.0 
1.779467011520e-04 1.530934827272e-03 0.0 
2.534762326587e-04 1.512551130090e-03 0.0 
1.841058194171e-04 1.576834993128e-03 0.0 
1.958742374719e-04 1.520892383470e-03 0.0 
2.010008955962e-04 1.564428674730e-03 0.0 
2.145870408149e-04 1.505887606757e-03 0.0 
2.343853273385e-04 1.484275860951e-03 0.0 
2.186224657109e-04 1.546348120402e-03 0.0 
2.373723554842e-04 1.520803745586e-03 0.0 
2.737012529726e-04 1.426270298562e-03 0.0 
2.674234825433e-04 1.469469669199e-03 0.0 
2.700162288813e-06 1.565589315207e-03 0.0 
1.368291849572e-05 1.565735343008e-03 0.0 
8.233540193546e-06 1.514810424672e-03 0.0 
8.149540590989e-06 1.616514233542e-03 0.0 
2.724333853203e-04 1.466902587800e-03 0.0 

VECTORS element_materi_displacement float
0.0 0.0 0.0 
0.0 0.0 0.0 
0.0 0.0 0.0 
0.0 0.0 0.0 
0.0 0.0 0.0 
0.0 0.0 0.0 
0.0 0.0 0.0 
0.0 0.0 0.0 
0.0 0.0 0.0 
0.0 0.0 0.0 
0.0 0.0 0.0 
0.0 0.0 0.0 
0.0 0.0 0.0 
0.0 0.0 0.0 
0.0 0.0 0.0 
0.0 0.0 0.0 
0.0 0.0 0.0 
0.0 0.0 0.0 
0.0 0.0 0.0 
0.0 0.0 0.0 
0.0 0.0 0.0 
0.0 0.0 0.0 
0.0 0.0 0.0 
0.0 0.0 0.0 
0.0 0.0 0.0 
0.0 0.0 0.0 
0.0 0.0 0.0 
0.0 0.0 0.0 
0.0 0.0 0.0 
0.0 0.0 0.0 
0.0 0.0 0.0 
0.0 0.0 0.0 
0.0 0.0 0.0 
0.0 0.0 0.0 
0.0 0.0 0.0 
0.0 0.0 0.0 
0.0 0.0 0.0 
0.0 0.0 0.0 
0.0 0.0 0.0 
0.0 0.0 0.0 
0.0 0.0 0.0 
0.0 0.0 0.0 
0.0 0.0 0.0 
0.0 0.0 0.0 
0.0 0.0 0.0 
0.0 0.0 0.0 
0.0 0.0 0.0 
0.0 0.0 0.0 
0.0 0.0 0.0 
0.0 0.0 0.0 
0.0 0.0 0.0 
0.0 0.0 0.0 
0.0 0.0 0.0 
0.0 0.0 0.0 
0.0 0.0 0.0 
0.0 0.0 0.0 
0.0 0.0 0.0 
0.0 0.0 0.0 
0.0 0.0 0.0 
0.0 0.0 0.0 
0.0 0.0 0.0 
0.0 0.0 0.0 
0.0 0.0 0.0 
0.0 0.0 0.0 
0.0 0.0 0.0 
0.0 0.0 0.0 
0.0 0.0 0.0 
0.0 0.0 0.0 
0.0 0.0 0.0 
0.0 0.0 0.0 
0.0 0.0 0.0 
0.0 0.0 0.0 
0.0 0.0 0.0 
0.0 0.0 0.0 
0.0 0.0 0.0 
0.0 0.0 0.0 
0.0 0.0 0.0 
0.0 0.0 0.0 
0.0 0.0 0.0 
0.0 0.0 0.0 
0.0 0.0 0.0 
0.0 0.0 0.0 
0.0 0.0 0.0 
0.0 0.0 0.0 
0.0 0.0 0.0 
0.0 0.0 0.0 
0.0 0.0 0.0 
0.0 0.0 0.0 
0.0 0.0 0.0 
0.0 0.0 0.0 
0.0 0.0 0.0 
0.0 0.0 0.0 
0.0 0.0 0.0 
0.0 0.0 0.0 
0.0 0.0 0.0 
0.0 0.0 0.0 
0.0 0.0 0.0 
0.0 0.0 0.0 
0.0 0.0 0.0 
0.0 0.0 0.0 
0.0 0.0 0.0 
0.0 0.0 0.0 
0.0 0.0 0.0 
0.0 0.0 0.0 
0.0 0.0 0.0 
0.0 0.0 0.0 
0.0 0.0 0.0 
0.0 0.0 0.0 
0.0 0.0 0.0 
0.0 0.0 0.0 
0.0 0.0 0.0 
0.0 0.0 0.0 
0.0 0.0 0.0 
0.0 0.0 0.0 
0.0 0.0 0.0 
0.0 0.0 0.0 
0.0 0.0 0.0 
0.0 0.0 0.0 
0.0 0.0 0.0 
0.0 0.0 0.0 
0.0 0.0 0.0 
0.0 0.0 0.0 
0.0 0.0 0.0 
0.0 0.0 0.0 
0.0 0.0 0.0 
0.0 0.0 0.0 
0.0 0.0 0.0 
0.0 0.0 0.0 
0.0 0.0 0.0 
0.0 0.0 0.0 
0.0 0.0 0.0 
0.0 0.0 0.0 
0.0 0.0 0.0 
0.0 0.0 0.0 
0.0 0.0 0.0 
0.0 0.0 0.0 
0.0 0.0 0.0 
0.0 0.0 0.0 
0.0 0.0 0.0 
0.0 0.0 0.0 
0.0 0.0 0.0 
0.0 0.0 0.0 
0.0 0.0 0.0 
0.0 0.0 0.0 
0.0 0.0 0.0 
0.0 0.0 0.0 
0.0 0.0 0.0 
0.0 0.0 0.0 
0.0 0.0 0.0 
0.0 0.0 0.0 
0.0 0.0 0.0 
0.0 0.0 0.0 
0.0 0.0 0.0 
0.0 0.0 0.0 
0.0 0.0 0.0 
0.0 0.0 0.0 
0.0 0.0 0.0 
0.0 0.0 0.0 
0.0 0.0 0.0 
0.0 0.0 0.0 
0.0 0.0 0.0 
0.0 0.0 0.0 
0.0 0.0 0.0 
0.0 0.0 0.0 
0.0 0.0 0.0 
0.0 0.0 0.0 
0.0 0.0 0.0 
0.0 0.0 0.0 
0.0 0.0 0.0 
0.0 0.0 0.0 
0.0 0.0 0.0 
0.0 0.0 0.0 
0.0 0.0 0.0 
0.0 0.0 0.0 
0.0 0.0 0.0 
0.0 0.0 0.0 
0.0 0.0 0.0 
0.0 0.0 0.0 
0.0 0.0 0.0 
0.0 0.0 0.0 
0.0 0.0 0.0 
0.0 0.0 0.0 
0.0 0.0 0.0 
0.0 0.0 0.0 
0.0 0.0 0.0 
0.0 0.0 0.0 
0.0 0.0 0.0 
0.0 0.0 0.0 
0.0 0.0 0.0 
0.0 0.0 0.0 
0.0 0.0 0.0 
0.0 0.0 0.0 
0.0 0.0 0.0 
0.0 0.0 0.0 
0.0 0.0 0.0 
0.0 0.0 0.0 
0.0 0.0 0.0 
0.0 0.0 0.0 
0.0 0.0 0.0 
0.0 0.0 0.0 
0.0 0.0 0.0 
0.0 0.0 0.0 
0.0 0.0 0.0 
0.0 0.0 0.0 
0.0 0.0 0.0 
0.0 0.0 0.0 
0.0 0.0 0.0 
0.0 0.0 0.0 
0.0 0.0 0.0 
0.0 0.0 0.0 
0.0 0.0 0.0 
0.0 0.0 0.0 
0.0 0.0 0.0 
0.0 0.0 0.0 
0.0 0.0 0.0 
0.0 0.0 0.0 
0.0 0.0 0.0 
0.0 0.0 0.0 
0.0 0.0 0.0 
0.0 0.0 0.0 
0.0 0.0 0.0 
0.0 0.0 0.0 
0.0 0.0 0.0 
0.0 0.0 0.0 
0.0 0.0 0.0 
0.0 0.0 0.0 
0.0 0.0 0.0 
0.0 0.0 0.0 
0.0 0.0 0.0 
0.0 0.0 0.0 
0.0 0.0 0.0 
0.0 0.0 0.0 
0.0 0.0 0.0 
0.0 0.0 0.0 
0.0 0.0 0.0 
0.0 0.0 0.0 
0.0 0.0 0.0 
0.0 0.0 0.0 
0.0 0.0 0.0 
0.0 0.0 0.0 
0.0 0.0 0.0 
0.0 0.0 0.0 
0.0 0.0 0.0 
0.0 0.0 0.0 
0.0 0.0 0.0 
0.0 0.0 0.0 
0.0 0.0 0.0 
0.0 0.0 0.0 
0.0 0.0 0.0 
0.0 0.0 0.0 
0.0 0.0 0.0 
0.0 0.0 0.0 
0.0 0.0 0.0 
0.0 0.0 0.0 
0.0 0.0 0.0 
0.0 0.0 0.0 
0.0 0.0 0.0 
0.0 0.0 0.0 
0.0 0.0 0.0 
0.0 0.0 0.0 
0.0 0.0 0.0 
0.0 0.0 0.0 
0.0 0.0 0.0 
0.0 0.0 0.0 
0.0 0.0 0.0 
0.0 0.0 0.0 
0.0 0.0 0.0 
0.0 0.0 0.0 
0.0 0.0 0.0 
0.0 0.0 0.0 
0.0 0.0 0.0 
0.0 0.0 0.0 
0.0 0.0 0.0 
0.0 0.0 0.0 
0.0 0.0 0.0 
0.0 0.0 0.0 
0.0 0.0 0.0 
0.0 0.0 0.0 
0.0 0.0 0.0 
0.0 0.0 0.0 
0.0 0.0 0.0 
0.0 0.0 0.0 
0.0 0.0 0.0 
0.0 0.0 0.0 
0.0 0.0 0.0 
0.0 0.0 0.0 
0.0 0.0 0.0 
0.0 0.0 0.0 
0.0 0.0 0.0 
0.0 0.0 0.0 
0.0 0.0 0.0 
0.0 0.0 0.0 
0.0 0.0 0.0 
0.0 0.0 0.0 
0.0 0.0 0.0 
0.0 0.0 0.0 
0.0 0.0 0.0 
0.0 0.0 0.0 
0.0 0.0 0.0 
0.0 0.0 0.0 
0.0 0.0 0.0 
0.0 0.0 0.0 
0.0 0.0 0.0 
0.0 0.0 0.0 
0.0 0.0 0.0 
0.0 0.0 0.0 
0.0 0.0 0.0 
0.0 0.0 0.0 
0.0 0.0 0.0 
0.0 0.0 0.0 
0.0 0.0 0.0 
0.0 0.0 0.0 
0.0 0.0 0.0 
0.0 0.0 0.0 
0.0 0.0 0.0 
0.0 0.0 0.0 
0.0 0.0 0.0 
0.0 0.0 0.0 
0.0 0.0 0.0 
0.0 0.0 0.0 
0.0 0.0 0.0 
0.0 0.0 0.0 
0.0 0.0 0.0 
0.0 0.0 0.0 
0.0 0.0 0.0 
0.0 0.0 0.0 
0.0 0.0 0.0 
0.0 0.0 0.0 
0.0 0.0 0.0 
0.0 0.0 0.0 
0.0 0.0 0.0 
0.0 0.0 0.0 
0.0 0.0 0.0 
0.0 0.0 0.0 
0.0 0.0 0.0 
0.0 0.0 0.0 
0.0 0.0 0.0 
0.0 0.0 0.0 
0.0 0.0 0.0 
0.0 0.0 0.0 
0.0 0.0 0.0 
0.0 0.0 0.0 
0.0 0.0 0.0 
0.0 0.0 0.0 
0.0 0.0 0.0 
0.0 0.0 0.0 
0.0 0.0 0.0 
0.0 0.0 0.0 
0.0 0.0 0.0 
0.0 0.0 0.0 
0.0 0.0 0.0 
0.0 0.0 0.0 
0.0 0.0 0.0 
0.0 0.0 0.0 
0.0 0.0 0.0 
0.0 0.0 0.0 
0.0 0.0 0.0 
0.0 0.0 0.0 
0.0 0.0 0.0 
0.0 0.0 0.0 
0.0 0.0 0.0 
0.0 0.0 0.0 
0.0 0.0 0.0 
0.0 0.0 0.0 
0.0 0.0 0.0 
0.0 0.0 0.0 
0.0 0.0 0.0 
0.0 0.0 0.0 
0.0 0.0 0.0 
0.0 0.0 0.0 
0.0 0.0 0.0 
0.0 0.0 0.0 
0.0 0.0 0.0 
0.0 0.0 0.0 
0.0 0.0 0.0 
0.0 0.0 0.0 
0.0 0.0 0.0 
0.0 0.0 0.0 
0.0 0.0 0.0 
0.0 0.0 0.0 
0.0 0.0 0.0 
0.0 0.0 0.0 
0.0 0.0 0.0 
0.0 0.0 0.0 
0.0 0.0 0.0 
0.0 0.0 0.0 
0.0 0.0 0.0 
0.0 0.0 0.0 
0.0 0.0 0.0 
0.0 0.0 0.0 
0.0 0.0 0.0 
0.0 0.0 0.0 
0.0 0.0 0.0 
0.0 0.0 0.0 
0.0 0.0 0.0 
0.0 0.0 0.0 
0.0 0.0 0.0 
0.0 0.0 0.0 
0.0 0.0 0.0 
0.0 0.0 0.0 
0.0 0.0 0.0 
0.0 0.0 0.0 
0.0 0.0 0.0 
0.0 0.0 0.0 
0.0 0.0 0.0 
0.0 0.0 0.0 
0.0 0.0 0.0 
0.0 0.0 0.0 
0.0 0.0 0.0 
0.0 0.0 0.0 
0.0 0.0 0.0 
0.0 0.0 0.0 
0.0 0.0 0.0 
0.0 0.0 0.0 
0.0 0.0 0.0 
0.0 0.0 0.0 
0.0 0.0 0.0 
0.0 0.0 0.0 
0.0 0.0 0.0 
0.0 0.0 0.0 
0.0 0.0 0.0 
0.0 0.0 0.0 
0.0 0.0 0.0 
0.0 0.0 0.0 
0.0 0.0 0.0 
0.0 0.0 0.0 
0.0 0.0 0.0 
0.0 0.0 0.0 
0.0 0.0 0.0 
0.0 0.0 0.0 
0.0 0.0 0.0 
0.0 0.0 0.0 
0.0 0.0 0.0 
0.0 0.0 0.0 
0.0 0.0 0.0 
0.0 0.0 0.0 
0.0 0.0 0.0 
0.0 0.0 0.0 
0.0 0.0 0.0 
0.0 0.0 0.0 
0.0 0.0 0.0 
0.0 0.0 0.0 
0.0 0.0 0.0 
0.0 0.0 0.0 
0.0 0.0 0.0 
0.0 0.0 0.0 
0.0 0.0 0.0 
0.0 0.0 0.0 
0.0 0.0 0.0 
0.0 0.0 0.0 
0.0 0.0 0.0 
0.0 0.0 0.0 
0.0 0.0 0.0 
0.0 0.0 0.0 
0.0 0.0 0.0 
0.0 0.0 0.0 
0.0 0.0 0.0 
0.0 0.0 0.0 
0.0 0.0 0.0 
0.0 0.0 0.0 
0.0 0.0 0.0 
0.0 0.0 0.0 
0.0 0.0 0.0 
0.0 0.0 0.0 
0.0 0.0 0.0 
0.0 0.0 0.0 
0.0 0.0 0.0 
0.0 0.0 0.0 
0.0 0.0 0.0 
0.0 0.0 0.0 
0.0 0.0 0.0 
0.0 0.0 0.0 
0.0 0.0 0.0 
0.0 0.0 0.0 
0.0 0.0 0.0 
0.0 0.0 0.0 
0.0 0.0 0.0 
0.0 0.0 0.0 
0.0 0.0 0.0 
0.0 0.0 0.0 
0.0 0.0 0.0 
0.0 0.0 0.0 
0.0 0.0 0.0 
0.0 0.0 0.0 
0.0 0.0 0.0 
0.0 0.0 0.0 
0.0 0.0 0.0 
0.0 0.0 0.0 
0.0 0.0 0.0 
0.0 0.0 0.0 
0.0 0.0 0.0 
0.0 0.0 0.0 
0.0 0.0 0.0 
0.0 0.0 0.0 
0.0 0.0 0.0 
0.0 0.0 0.0 
0.0 0.0 0.0 
0.0 0.0 0.0 
0.0 0.0 0.0 
0.0 0.0 0.0 
0.0 0.0 0.0 
0.0 0.0 0.0 
0.0 0.0 0.0 
0.0 0.0 0.0 
0.0 0.0 0.0 
0.0 0.0 0.0 
0.0 0.0 0.0 
0.0 0.0 0.0 
0.0 0.0 0.0 
0.0 0.0 0.0 
0.0 0.0 0.0 
0.0 0.0 0.0 
0.0 0.0 0.0 
0.0 0.0 0.0 
0.0 0.0 0.0 
0.0 0.0 0.0 
0.0 0.0 0.0 
0.0 0.0 0.0 
0.0 0.0 0.0 
0.0 0.0 0.0 
0.0 0.0 0.0 
0.0 0.0 0.0 
0.0 0.0 0.0 
0.0 0.0 0.0 
0.0 0.0 0.0 
0.0 0.0 0.0 
0.0 0.0 0.0 
0.0 0.0 0.0 
0.0 0.0 0.0 
0.0 0.0 0.0 
0.0 0.0 0.0 
0.0 0.0 0.0 
0.0 0.0 0.0 
0.0 0.0 0.0 
0.0 0.0 0.0 
0.0 0.0 0.0 
0.0 0.0 0.0 
0.0 0.0 0.0 
0.0 0.0 0.0 
0.0 0.0 0.0 
0.0 0.0 0.0 
0.0 0.0 0.0 
0.0 0.0 0.0 
0.0 0.0 0.0 
0.0 0.0 0.0 
0.0 0.0 0.0 
0.0 0.0 0.0 
0.0 0.0 0.0 
0.0 0.0 0.0 
0.0 0.0 0.0 
0.0 0.0 0.0 
0.0 0.0 0.0 
0.0 0.0 0.0 
0.0 0.0 0.0 
0.0 0.0 0.0 
0.0 0.0 0.0 
0.0 0.0 0.0 
0.0 0.0 0.0 
0.0 0.0 0.0 
0.0 0.0 0.0 
0.0 0.0 0.0 
0.0 0.0 0.0 
0.0 0.0 0.0 
0.0 0.0 0.0 
0.0 0.0 0.0 
0.0 0.0 0.0 
0.0 0.0 0.0 
0.0 0.0 0.0 
0.0 0.0 0.0 
0.0 0.0 0.0 
0.0 0.0 0.0 
0.0 0.0 0.0 
0.0 0.0 0.0 
0.0 0.0 0.0 
0.0 0.0 0.0 
0.0 0.0 0.0 
0.0 0.0 0.0 
0.0 0.0 0.0 
0.0 0.0 0.0 
0.0 0.0 0.0 
0.0 0.0 0.0 
0.0 0.0 0.0 
0.0 0.0 0.0 
0.0 0.0 0.0 
0.0 0.0 0.0 
0.0 0.0 0.0 
0.0 0.0 0.0 
0.0 0.0 0.0 
0.0 0.0 0.0 
0.0 0.0 0.0 
0.0 0.0 0.0 
0.0 0.0 0.0 
0.0 0.0 0.0 
0.0 0.0 0.0 
0.0 0.0 0.0 
0.0 0.0 0.0 
0.0 0.0 0.0 
0.0 0.0 0.0 
0.0 0.0 0.0 
0.0 0.0 0.0 
0.0 0.0 0.0 
0.0 0.0 0.0 
0.0 0.0 0.0 
0.0 0.0 0.0 
0.0 0.0 0.0 
0.0 0.0 0.0 
0.0 0.0 0.0 
0.0 0.0 0.0 
0.0 0.0 0.0 
0.0 0.0 0.0 
0.0 0.0 0.0 
0.0 0.0 0.0 
0.0 0.0 0.0 
0.0 0.0 0.0 
0.0 0.0 0.0 
0.0 0.0 0.0 
0.0 0.0 0.0 
0.0 0.0 0.0 
0.0 0.0 0.0 
0.0 0.0 0.0 
0.0 0.0 0.0 
0.0 0.0 0.0 
0.0 0.0 0.0 
0.0 0.0 0.0 
0.0 0.0 0.0 
0.0 0.0 0.0 
0.0 0.0 0.0 
0.0 0.0 0.0 
0.0 0.0 0.0 
0.0 0.0 0.0 
0.0 0.0 0.0 
0.0 0.0 0.0 
0.0 0.0 0.0 
0.0 0.0 0.0 
0.0 0.0 0.0 
0.0 0.0 0.0 
0.0 0.0 0.0 
0.0 0.0 0.0 
0.0 0.0 0.0 
0.0 0.0 0.0 
0.0 0.0 0.0 
0.0 0.0 0.0 
0.0 0.0 0.0 
0.0 0.0 0.0 
0.0 0.0 0.0 
0.0 0.0 0.0 
0.0 0.0 0.0 
0.0 0.0 0.0 
0.0 0.0 0.0 
0.0 0.0 0.0 
0.0 0.0 0.0 
0.0 0.0 0.0 
0.0 0.0 0.0 
0.0 0.0 0.0 
0.0 0.0 0.0 
0.0 0.0 0.0 
0.0 0.0 0.0 
0.0 0.0 0.0 
0.0 0.0 0.0 
0.0 0.0 0.0 
0.0 0.0 0.0 
0.0 0.0 0.0 
0.0 0.0 0.0 
0.0 0.0 0.0 
0.0 0.0 0.0 
0.0 0.0 0.0 
0.0 0.0 0.0 
0.0 0.0 0.0 
0.0 0.0 0.0 
0.0 0.0 0.0 
0.0 0.0 0.0 
0.0 0.0 0.0 
0.0 0.0 0.0 
0.0 0.0 0.0 
0.0 0.0 0.0 
0.0 0.0 0.0 
0.0 0.0 0.0 
0.0 0.0 0.0 
0.0 0.0 0.0 
0.0 0.0 0.0 
0.0 0.0 0.0 
0.0 0.0 0.0 
0.0 0.0 0.0 
0.0 0.0 0.0 
0.0 0.0 0.0 
0.0 0.0 0.0 
0.0 0.0 0.0 
0.0 0.0 0.0 
0.0 0.0 0.0 
0.0 0.0 0.0 
0.0 0.0 0.0 
0.0 0.0 0.0 
0.0 0.0 0.0 
0.0 0.0 0.0 
0.0 0.0 0.0 
0.0 0.0 0.0 
0.0 0.0 0.0 
0.0 0.0 0.0 
0.0 0.0 0.0 
0.0 0.0 0.0 
0.0 0.0 0.0 
0.0 0.0 0.0 
0.0 0.0 0.0 
0.0 0.0 0.0 
0.0 0.0 0.0 
0.0 0.0 0.0 
0.0 0.0 0.0 
0.0 0.0 0.0 
0.0 0.0 0.0 
0.0 0.0 0.0 
0.0 0.0 0.0 
0.0 0.0 0.0 
0.0 0.0 0.0 
0.0 0.0 0.0 
0.0 0.0 0.0 
0.0 0.0 0.0 
0.0 0.0 0.0 
0.0 0.0 0.0 
0.0 0.0 0.0 
0.0 0.0 0.0 
0.0 0.0 0.0 
0.0 0.0 0.0 
0.0 0.0 0.0 
0.0 0.0 0.0 
0.0 0.0 0.0 
0.0 0.0 0.0 
0.0 0.0 0.0 
0.0 0.0 0.0 
0.0 0.0 0.0 
0.0 0.0 0.0 
0.0 0.0 0.0 
0.0 0.0 0.0 
0.0 0.0 0.0 
0.0 0.0 0.0 
0.0 0.0 0.0 
0.0 0.0 0.0 
0.0 0.0 0.0 
0.0 0.0 0.0 
0.0 0.0 0.0 
0.0 0.0 0.0 
0.0 0.0 0.0 
0.0 0.0 0.0 
0.0 0.0 0.0 
0.0 0.0 0.0 
0.0 0.0 0.0 
0.0 0.0 0.0 
0.0 0.0 0.0 
0.0 0.0 0.0 
0.0 0.0 0.0 
0.0 0.0 0.0 
0.0 0.0 0.0 
0.0 0.0 0.0 
0.0 0.0 0.0 
0.0 0.0 0.0 
0.0 0.0 0.0 
0.0 0.0 0.0 
0.0 0.0 0.0 
0.0 0.0 0.0 
0.0 0.0 0.0 
0.0 0.0 0.0 
0.0 0.0 0.0 
0.0 0.0 0.0 
0.0 0.0 0.0 
0.0 0.0 0.0 
0.0 0.0 0.0 
0.0 0.0 0.0 
0.0 0.0 0.0 
0.0 0.0 0.0 
0.0 0.0 0.0 
0.0 0.0 0.0 
0.0 0.0 0.0 
0.0 0.0 0.0 
0.0 0.0 0.0 
0.0 0.0 0.0 
0.0 0.0 0.0 
0.0 0.0 0.0 
0.0 0.0 0.0 
0.0 0.0 0.0 
0.0 0.0 0.0 
0.0 0.0 0.0 
0.0 0.0 0.0 
0.0 0.0 0.0 
0.0 0.0 0.0 
0.0 0.0 0.0 
0.0 0.0 0.0 
0.0 0.0 0.0 
0.0 0.0 0.0 
0.0 0.0 0.0 
0.0 0.0 0.0 
0.0 0.0 0.0 
0.0 0.0 0.0 
0.0 0.0 0.0 
0.0 0.0 0.0 
0.0 0.0 0.0 
0.0 0.0 0.0 
0.0 0.0 0.0 
0.0 0.0 0.0 
0.0 0.0 0.0 
0.0 0.0 0.0 
0.0 0.0 0.0 
0.0 0.0 0.0 
0.0 0.0 0.0 
0.0 0.0 0.0 
0.0 0.0 0.0 
0.0 0.0 0.0 
0.0 0.0 0.0 
0.0 0.0 0.0 
0.0 0.0 0.0 
0.0 0.0 0.0 
0.0 0.0 0.0 
0.0 0.0 0.0 
0.0 0.0 0.0 
0.0 0.0 0.0 
0.0 0.0 0.0 
0.0 0.0 0.0 
0.0 0.0 0.0 
0.0 0.0 0.0 
0.0 0.0 0.0 
0.0 0.0 0.0 
0.0 0.0 0.0 
0.0 0.0 0.0 
0.0 0.0 0.0 
0.0 0.0 0.0 
0.0 0.0 0.0 
0.0 0.0 0.0 
0.0 0.0 0.0 
0.0 0.0 0.0 
0.0 0.0 0.0 
0.0 0.0 0.0 
0.0 0.0 0.0 
0.0 0.0 0.0 
0.0 0.0 0.0 
0.0 0.0 0.0 
0.0 0.0 0.0 
0.0 0.0 0.0 
0.0 0.0 0.0 
0.0 0.0 0.0 
0.0 0.0 0.0 
0.0 0.0 0.0 
0.0 0.0 0.0 
0.0 0.0 0.0 
0.0 0.0 0.0 
0.0 0.0 0.0 
0.0 0.0 0.0 
0.0 0.0 0.0 
0.0 0.0 0.0 
0.0 0.0 0.0 
0.0 0.0 0.0 
0.0 0.0 0.0 
0.0 0.0 0.0 
0.0 0.0 0.0 
0.0 0.0 0.0 
0.0 0.0 0.0 
0.0 0.0 0.0 
0.0 0.0 0.0 
0.0 0.0 0.0 
0.0 0.0 0.0 
0.0 0.0 0.0 
0.0 0.0 0.0 
0.0 0.0 0.0 
0.0 0.0 0.0 
0.0 0.0 0.0 
0.0 0.0 0.0 
0.0 0.0 0.0 
0.0 0.0 0.0 
0.0 0.0 0.0 
0.0 0.0 0.0 
0.0 0.0 0.0 
0.0 0.0 0.0 
0.0 0.0 0.0 
0.0 0.0 0.0 
0.0 0.0 0.0 
0.0 0.0 0.0 
0.0 0.0 0.0 
0.0 0.0 0.0 
0.0 0.0 0.0 
0.0 0.0 0.0 
0.0 0.0 0.0 
0.0 0.0 0.0 
0.0 0.0 0.0 
0.0 0.0 0.0 
0.0 0.0 0.0 
0.0 0.0 0.0 
0.0 0.0 0.0 
0.0 0.0 0.0 
0.0 0.0 0.0 
0.0 0.0 0.0 
0.0 0.0 0.0 
0.0 0.0 0.0 
0.0 0.0 0.0 
0.0 0.0 0.0 
0.0 0.0 0.0 
0.0 0.0 0.0 
0.0 0.0 0.0 
0.0 0.0 0.0 
0.0 0.0 0.0 
0.0 0.0 0.0 
0.0 0.0 0.0 
0.0 0.0 0.0 
0.0 0.0 0.0 
0.0 0.0 0.0 
0.0 0.0 0.0 
0.0 0.0 0.0 
0.0 0.0 0.0 
0.0 0.0 0.0 
0.0 0.0 0.0 
0.0 0.0 0.0 
0.0 0.0 0.0 
0.0 0.0 0.0 
0.0 0.0 0.0 
0.0 0.0 0.0 
0.0 0.0 0.0 
0.0 0.0 0.0 
0.0 0.0 0.0 
0.0 0.0 0.0 
0.0 0.0 0.0 
0.0 0.0 0.0 
0.0 0.0 0.0 
0.0 0.0 0.0 
0.0 0.0 0.0 
0.0 0.0 0.0 
0.0 0.0 0.0 
0.0 0.0 0.0 
0.0 0.0 0.0 
0.0 0.0 0.0 
0.0 0.0 0.0 
0.0 0.0 0.0 
0.0 0.0 0.0 
0.0 0.0 0.0 
0.0 0.0 0.0 
0.0 0.0 0.0 
0.0 0.0 0.0 
0.0 0.0 0.0 
0.0 0.0 0.0 
0.0 0.0 0.0 
0.0 0.0 0.0 
0.0 0.0 0.0 
0.0 0.0 0.0 
0.0 0.0 0.0 
0.0 0.0 0.0 
0.0 0.0 0.0 
0.0 0.0 0.0 
0.0 0.0 0.0 
0.0 0.0 0.0 
0.0 0.0 0.0 
0.0 0.0 0.0 
0.0 0.0 0.0 
0.0 0.0 0.0 
0.0 0.0 0.0 
0.0 0.0 0.0 
0.0 0.0 0.0 
0.0 0.0 0.0 
0.0 0.0 0.0 
0.0 0.0 0.0 
0.0 0.0 0.0 
0.0 0.0 0.0 
0.0 0.0 0.0 
0.0 0.0 0.0 
0.0 0.0 0.0 
0.0 0.0 0.0 
0.0 0.0 0.0 
0.0 0.0 0.0 
0.0 0.0 0.0 
0.0 0.0 0.0 
0.0 0.0 0.0 
0.0 0.0 0.0 
0.0 0.0 0.0 
0.0 0.0 0.0 
0.0 0.0 0.0 
0.0 0.0 0.0 
0.0 0.0 0.0 
0.0 0.0 0.0 
0.0 0.0 0.0 
0.0 0.0 0.0 
0.0 0.0 0.0 
0.0 0.0 0.0 
0.0 0.0 0.0 
0.0 0.0 0.0 
0.0 0.0 0.0 
0.0 0.0 0.0 
0.0 0.0 0.0 
0.0 0.0 0.0 
0.0 0.0 0.0 
0.0 0.0 0.0 
0.0 0.0 0.0 
0.0 0.0 0.0 
0.0 0.0 0.0 
0.0 0.0 0.0 
0.0 0.0 0.0 
0.0 0.0 0.0 
0.0 0.0 0.0 
0.0 0.0 0.0 
0.0 0.0 0.0 
0.0 0.0 0.0 
0.0 0.0 0.0 
0.0 0.0 0.0 
0.0 0.0 0.0 
0.0 0.0 0.0 
0.0 0.0 0.0 
0.0 0.0 0.0 
0.0 0.0 0.0 
0.0 0.0 0.0 
0.0 0.0 0.0 
0.0 0.0 0.0 
0.0 0.0 0.0 
0.0 0.0 0.0 
0.0 0.0 0.0 
0.0 0.0 0.0 
0.0 0.0 0.0 
0.0 0.0 0.0 
0.0 0.0 0.0 
0.0 0.0 0.0 
0.0 0.0 0.0 
0.0 0.0 0.0 
0.0 0.0 0.0 
0.0 0.0 0.0 
0.0 0.0 0.0 
0.0 0.0 0.0 
0.0 0.0 0.0 
0.0 0.0 0.0 
0.0 0.0 0.0 
0.0 0.0 0.0 
0.0 0.0 0.0 
0.0 0.0 0.0 
0.0 0.0 0.0 
0.0 0.0 0.0 
0.0 0.0 0.0 
0.0 0.0 0.0 
0.0 0.0 0.0 
0.0 0.0 0.0 
0.0 0.0 0.0 
0.0 0.0 0.0 
0.0 0.0 0.0 
0.0 0.0 0.0 
0.0 0.0 0.0 
0.0 0.0 0.0 
0.0 0.0 0.0 
0.0 0.0 0.0 
0.0 0.0 0.0 
0.0 0.0 0.0 
0.0 0.0 0.0 
0.0 0.0 0.0 
0.0 0.0 0.0 
0.0 0.0 0.0 
0.0 0.0 0.0 
0.0 0.0 0.0 
0.0 0.0 0.0 
0.0 0.0 0.0 
0.0 0.0 0.0 
0.0 0.0 0.0 
0.0 0.0 0.0 
0.0 0.0 0.0 
0.0 0.0 0.0 
0.0 0.0 0.0 
0.0 0.0 0.0 
0.0 0.0 0.0 
0.0 0.0 0.0 
0.0 0.0 0.0 
0.0 0.0 0.0 
0.0 0.0 0.0 
0.0 0.0 0.0 
0.0 0.0 0.0 
0.0 0.0 0.0 
0.0 0.0 0.0 
0.0 0.0 0.0 
0.0 0.0 0.0 
0.0 0.0 0.0 
0.0 0.0 0.0 
0.0 0.0 0.0 
0.0 0.0 0.0 
0.0 0.0 0.0 
0.0 0.0 0.0 
0.0 0.0 0.0 
0.0 0.0 0.0 
0.0 0.0 0.0 
0.0 0.0 0.0 
0.0 0.0 0.0 
0.0 0.0 0.0 
0.0 0.0 0.0 
0.0 0.0 0.0 
0.0 0.0 0.0 
0.0 0.0 0.0 
0.0 0.0 0.0 
0.0 0.0 0.0 
0.0 0.0 0.0 
0.0 0.0 0.0 
0.0 0.0 0.0 
0.0 0.0 0.0 
0.0 0.0 0.0 
0.0 0.0 0.0 
0.0 0.0 0.0 
0.0 0.0 0.0 
0.0 0.0 0.0 
0.0 0.0 0.0 
0.0 0.0 0.0 
0.0 0.0 0.0 
0.0 0.0 0.0 
0.0 0.0 0.0 
0.0 0.0 0.0 
0.0 0.0 0.0 
0.0 0.0 0.0 
0.0 0.0 0.0 
0.0 0.0 0.0 
0.0 0.0 0.0 
0.0 0.0 0.0 
0.0 0.0 0.0 
0.0 0.0 0.0 
0.0 0.0 0.0 
0.0 0.0 0.0 
0.0 0.0 0.0 
0.0 0.0 0.0 
0.0 0.0 0.0 
0.0 0.0 0.0 
0.0 0.0 0.0 
0.0 0.0 0.0 
0.0 0.0 0.0 
0.0 0.0 0.0 
0.0 0.0 0.0 
0.0 0.0 0.0 
0.0 0.0 0.0 
0.0 0.0 0.0 
0.0 0.0 0.0 
0.0 0.0 0.0 
0.0 0.0 0.0 
0.0 0.0 0.0 
0.0 0.0 0.0 
0.0 0.0 0.0 
0.0 0.0 0.0 
0.0 0.0 0.0 
0.0 0.0 0.0 
0.0 0.0 0.0 
0.0 0.0 0.0 
0.0 0.0 0.0 
0.0 0.0 0.0 
0.0 0.0 0.0 
0.0 0.0 0.0 
0.0 0.0 0.0 
0.0 0.0 0.0 
0.0 0.0 0.0 
0.0 0.0 0.0 
0.0 0.0 0.0 
0.0 0.0 0.0 
0.0 0.0 0.0 
0.0 0.0 0.0 
0.0 0.0 0.0 
0.0 0.0 0.0 
0.0 0.0 0.0 
0.0 0.0 0.0 
0.0 0.0 0.0 
0.0 0.0 0.0 
0.0 0.0 0.0 
0.0 0.0 0.0 
0.0 0.0 0.0 
0.0 0.0 0.0 
0.0 0.0 0.0 
0.0 0.0 0.0 
0.0 0.0 0.0 
0.0 0.0 0.0 
0.0 0.0 0.0 
0.0 0.0 0.0 
0.0 0.0 0.0 
0.0 0.0 0.0 
0.0 0.0 0.0 
0.0 0.0 0.0 
0.0 0.0 0.0 
0.0 0.0 0.0 
0.0 0.0 0.0 
0.0 0.0 0.0 
0.0 0.0 0.0 
0.0 0.0 0.0 
0.0 0.0 0.0 
0.0 0.0 0.0 
0.0 0.0 0.0 
0.0 0.0 0.0 
0.0 0.0 0.0 
0.0 0.0 0.0 
0.0 0.0 0.0 
0.0 0.0 0.0 
0.0 0.0 0.0 
0.0 0.0 0.0 
0.0 0.0 0.0 
0.0 0.0 0.0 
0.0 0.0 0.0 
0.0 0.0 0.0 
0.0 0.0 0.0 
0.0 0.0 0.0 
0.0 0.0 0.0 
0.0 0.0 0.0 
0.0 0.0 0.0 
0.0 0.0 0.0 
0.0 0.0 0.0 
0.0 0.0 0.0 
0.0 0.0 0.0 
0.0 0.0 0.0 
0.0 0.0 0.0 
0.0 0.0 0.0 
0.0 0.0 0.0 
0.0 0.0 0.0 
0.0 0.0 0.0 
0.0 0.0 0.0 
0.0 0.0 0.0 
0.0 0.0 0.0 
0.0 0.0 0.0 
0.0 0.0 0.0 
0.0 0.0 0.0 
0.0 0.0 0.0 
0.0 0.0 0.0 
0.0 0.0 0.0 
0.0 0.0 0.0 
0.0 0.0 0.0 
0.0 0.0 0.0 
0.0 0.0 0.0 
0.0 0.0 0.0 
0.0 0.0 0.0 
0.0 0.0 0.0 
0.0 0.0 0.0 
0.0 0.0 0.0 
0.0 0.0 0.0 
0.0 0.0 0.0 
0.0 0.0 0.0 
0.0 0.0 0.0 
0.0 0.0 0.0 
0.0 0.0 0.0 
0.0 0.0 0.0 
0.0 0.0 0.0 
0.0 0.0 0.0 
0.0 0.0 0.0 
0.0 0.0 0.0 
0.0 0.0 0.0 
0.0 0.0 0.0 
0.0 0.0 0.0 
0.0 0.0 0.0 
0.0 0.0 0.0 
0.0 0.0 0.0 
0.0 0.0 0.0 
0.0 0.0 0.0 
0.0 0.0 0.0 
0.0 0.0 0.0 
0.0 0.0 0.0 
0.0 0.0 0.0 
0.0 0.0 0.0 
0.0 0.0 0.0 
0.0 0.0 0.0 
0.0 0.0 0.0 
0.0 0.0 0.0 
0.0 0.0 0.0 
0.0 0.0 0.0 
0.0 0.0 0.0 
0.0 0.0 0.0 
0.0 0.0 0.0 
0.0 0.0 0.0 
0.0 0.0 0.0 
0.0 0.0 0.0 
0.0 0.0 0.0 
0.0 0.0 0.0 
0.0 0.0 0.0 
0.0 0.0 0.0 
0.0 0.0 0.0 
0.0 0.0 0.0 
0.0 0.0 0.0 
0.0 0.0 0.0 
0.0 0.0 0.0 
0.0 0.0 0.0 
0.0 0.0 0.0 
0.0 0.0 0.0 
0.0 0.0 0.0 
0.0 0.0 0.0 
0.0 0.0 0.0 
0.0 0.0 0.0 
0.0 0.0 0.0 
0.0 0.0 0.0 
0.0 0.0 0.0 
0.0 0.0 0.0 
0.0 0.0 0.0 
0.0 0.0 0.0 
0.0 0.0 0.0 
0.0 0.0 0.0 
0.0 0.0 0.0 
0.0 0.0 0.0 
0.0 0.0 0.0 
0.0 0.0 0.0 
0.0 0.0 0.0 
0.0 0.0 0.0 
0.0 0.0 0.0 
0.0 0.0 0.0 
0.0 0.0 0.0 
0.0 0.0 0.0 
0.0 0.0 0.0 
0.0 0.0 0.0 
0.0 0.0 0.0 
0.0 0.0 0.0 
0.0 0.0 0.0 
0.0 0.0 0.0 
0.0 0.0 0.0 
0.0 0.0 0.0 
0.0 0.0 0.0 
0.0 0.0 0.0 
0.0 0.0 0.0 
0.0 0.0 0.0 
0.0 0.0 0.0 
0.0 0.0 0.0 
0.0 0.0 0.0 
0.0 0.0 0.0 
0.0 0.0 0.0 
0.0 0.0 0.0 
0.0 0.0 0.0 
0.0 0.0 0.0 
0.0 0.0 0.0 
0.0 0.0 0.0 
0.0 0.0 0.0 
0.0 0.0 0.0 
0.0 0.0 0.0 
0.0 0.0 0.0 
0.0 0.0 0.0 
0.0 0.0 0.0 
0.0 0.0 0.0 
0.0 0.0 0.0 
0.0 0.0 0.0 
0.0 0.0 0.0 
0.0 0.0 0.0 
0.0 0.0 0.0 
0.0 0.0 0.0 
0.0 0.0 0.0 
0.0 0.0 0.0 
0.0 0.0 0.0 
0.0 0.0 0.0 
0.0 0.0 0.0 
0.0 0.0 0.0 
0.0 0.0 0.0 
0.0 0.0 0.0 
0.0 0.0 0.0 
0.0 0.0 0.0 
0.0 0.0 0.0 
0.0 0.0 0.0 
0.0 0.0 0.0 
0.0 0.0 0.0 
0.0 0.0 0.0 
0.0 0.0 0.0 
0.0 0.0 0.0 
0.0 0.0 0.0 
0.0 0.0 0.0 
0.0 0.0 0.0 
0.0 0.0 0.0 
0.0 0.0 0.0 
0.0 0.0 0.0 
0.0 0.0 0.0 
0.0 0.0 0.0 
0.0 0.0 0.0 
0.0 0.0 0.0 
0.0 0.0 0.0 
0.0 0.0 0.0 
0.0 0.0 0.0 
0.0 0.0 0.0 
0.0 0.0 0.0 
0.0 0.0 0.0 
0.0 0.0 0.0 
0.0 0.0 0.0 
0.0 0.0 0.0 
0.0 0.0 0.0 
0.0 0.0 0.0 
0.0 0.0 0.0 
0.0 0.0 0.0 
0.0 0.0 0.0 
0.0 0.0 0.0 
0.0 0.0 0.0 
0.0 0.0 0.0 
0.0 0.0 0.0 
0.0 0.0 0.0 
0.0 0.0 0.0 
0.0 0.0 0.0 
0.0 0.0 0.0 
0.0 0.0 0.0 
0.0 0.0 0.0 
0.0 0.0 0.0 
0.0 0.0 0.0 
0.0 0.0 0.0 
0.0 0.0 0.0 
0.0 0.0 0.0 
0.0 0.0 0.0 
0.0 0.0 0.0 
0.0 0.0 0.0 
0.0 0.0 0.0 
0.0 0.0 0.0 
0.0 0.0 0.0 
0.0 0.0 0.0 
0.0 0.0 0.0 
0.0 0.0 0.0 
0.0 0.0 0.0 
0.0 0.0 0.0 
0.0 0.0 0.0 
0.0 0.0 0.0 
0.0 0.0 0.0 
0.0 0.0 0.0 
0.0 0.0 0.0 
0.0 0.0 0.0 
0.0 0.0 0.0 
0.0 0.0 0.0 
0.0 0.0 0.0 
0.0 0.0 0.0 
0.0 0.0 0.0 
0.0 0.0 0.0 
0.0 0.0 0.0 
0.0 0.0 0.0 
0.0 0.0 0.0 
0.0 0.0 0.0 
0.0 0.0 0.0 
0.0 0.0 0.0 
0.0 0.0 0.0 
0.0 0.0 0.0 
0.0 0.0 0.0 
0.0 0.0 0.0 
0.0 0.0 0.0 
0.0 0.0 0.0 
0.0 0.0 0.0 
0.0 0.0 0.0 
0.0 0.0 0.0 
0.0 0.0 0.0 
0.0 0.0 0.0 
0.0 0.0 0.0 
0.0 0.0 0.0 
0.0 0.0 0.0 
0.0 0.0 0.0 
0.0 0.0 0.0 
0.0 0.0 0.0 
0.0 0.0 0.0 
0.0 0.0 0.0 
0.0 0.0 0.0 
0.0 0.0 0.0 
0.0 0.0 0.0 
0.0 0.0 0.0 
0.0 0.0 0.0 
0.0 0.0 0.0 
0.0 0.0 0.0 
0.0 0.0 0.0 
0.0 0.0 0.0 
0.0 0.0 0.0 
0.0 0.0 0.0 
0.0 0.0 0.0 
0.0 0.0 0.0 
0.0 0.0 0.0 
0.0 0.0 0.0 
0.0 0.0 0.0 
0.0 0.0 0.0 
0.0 0.0 0.0 
0.0 0.0 0.0 
0.0 0.0 0.0 
0.0 0.0 0.0 
0.0 0.0 0.0 
0.0 0.0 0.0 
0.0 0.0 0.0 
0.0 0.0 0.0 
0.0 0.0 0.0 
0.0 0.0 0.0 
0.0 0.0 0.0 
0.0 0.0 0.0 
0.0 0.0 0.0 
0.0 0.0 0.0 
0.0 0.0 0.0 
0.0 0.0 0.0 
0.0 0.0 0.0 
0.0 0.0 0.0 
0.0 0.0 0.0 
0.0 0.0 0.0 
0.0 0.0 0.0 
0.0 0.0 0.0 
0.0 0.0 0.0 
0.0 0.0 0.0 
0.0 0.0 0.0 
0.0 0.0 0.0 
0.0 0.0 0.0 
0.0 0.0 0.0 
0.0 0.0 0.0 
0.0 0.0 0.0 
0.0 0.0 0.0 
0.0 0.0 0.0 
0.0 0.0 0.0 
0.0 0.0 0.0 
0.0 0.0 0.0 
0.0 0.0 0.0 
0.0 0.0 0.0 
0.0 0.0 0.0 
0.0 0.0 0.0 
0.0 0.0 0.0 
0.0 0.0 0.0 
0.0 0.0 0.0 
0.0 0.0 0.0 
0.0 0.0 0.0 
0.0 0.0 0.0 
0.0 0.0 0.0 
0.0 0.0 0.0 
0.0 0.0 0.0 
0.0 0.0 0.0 
0.0 0.0 0.0 
0.0 0.0 0.0 
0.0 0.0 0.0 
0.0 0.0 0.0 
0.0 0.0 0.0 
0.0 0.0 0.0 
0.0 0.0 0.0 
0.0 0.0 0.0 
0.0 0.0 0.0 
0.0 0.0 0.0 
0.0 0.0 0.0 
0.0 0.0 0.0 
0.0 0.0 0.0 
0.0 0.0 0.0 
0.0 0.0 0.0 
0.0 0.0 0.0 
0.0 0.0 0.0 
0.0 0.0 0.0 
0.0 0.0 0.0 
0.0 0.0 0.0 
0.0 0.0 0.0 
0.0 0.0 0.0 
0.0 0.0 0.0 
0.0 0.0 0.0 
0.0 0.0 0.0 
0.0 0.0 0.0 
0.0 0.0 0.0 
0.0 0.0 0.0 
0.0 0.0 0.0 
0.0 0.0 0.0 
0.0 0.0 0.0 
0.0 0.0 0.0 
0.0 0.0 0.0 
0.0 0.0 0.0 
0.0 0.0 0.0 
0.0 0.0 0.0 
0.0 0.0 0.0 
0.0 0.0 0.0 
0.0 0.0 0.0 
0.0 0.0 0.0 
0.0 0.0 0.0 
0.0 0.0 0.0 
0.0 0.0 0.0 
0.0 0.0 0.0 
0.0 0.0 0.0 
0.0 0.0 0.0 
0.0 0.0 0.0 
0.0 0.0 0.0 
0.0 0.0 0.0 
0.0 0.0 0.0 
0.0 0.0 0.0 
0.0 0.0 0.0 
0.0 0.0 0.0 
0.0 0.0 0.0 
0.0 0.0 0.0 
0.0 0.0 0.0 
0.0 0.0 0.0 
0.0 0.0 0.0 
0.0 0.0 0.0 
0.0 0.0 0.0 
0.0 0.0 0.0 
0.0 0.0 0.0 
0.0 0.0 0.0 
0.0 0.0 0.0 
0.0 0.0 0.0 
0.0 0.0 0.0 
0.0 0.0 0.0 
0.0 0.0 0.0 
0.0 0.0 0.0 
0.0 0.0 0.0 
0.0 0.0 0.0 
0.0 0.0 0.0 
0.0 0.0 0.0 
0.0 0.0 0.0 
0.0 0.0 0.0 
0.0 0.0 0.0 
0.0 0.0 0.0 
0.0 0.0 0.0 
0.0 0.0 0.0 
0.0 0.0 0.0 
0.0 0.0 0.0 
0.0 0.0 0.0 
0.0 0.0 0.0 
0.0 0.0 0.0 
0.0 0.0 0.0 
0.0 0.0 0.0 
0.0 0.0 0.0 
0.0 0.0 0.0 
0.0 0.0 0.0 
0.0 0.0 0.0 
0.0 0.0 0.0 
0.0 0.0 0.0 
0.0 0.0 0.0 
0.0 0.0 0.0 
0.0 0.0 0.0 
0.0 0.0 0.0 
0.0 0.0 0.0 
0.0 0.0 0.0 
0.0 0.0 0.0 
0.0 0.0 0.0 
0.0 0.0 0.0 
0.0 0.0 0.0 
0.0 0.0 0.0 
0.0 0.0 0.0 
0.0 0.0 0.0 
0.0 0.0 0.0 
0.0 0.0 0.0 
0.0 0.0 0.0 
0.0 0.0 0.0 
0.0 0.0 0.0 
0.0 0.0 0.0 
0.0 0.0 0.0 
0.0 0.0 0.0 
0.0 0.0 0.0 
0.0 0.0 0.0 
0.0 0.0 0.0 
0.0 0.0 0.0 
0.0 0.0 0.0 
0.0 0.0 0.0 
0.0 0.0 0.0 
0.0 0.0 0.0 
0.0 0.0 0.0 
0.0 0.0 0.0 
0.0 0.0 0.0 
0.0 0.0 0.0 
0.0 0.0 0.0 
0.0 0.0 0.0 
0.0 0.0 0.0 
0.0 0.0 0.0 
0.0 0.0 0.0 
0.0 0.0 0.0 
0.0 0.0 0.0 
0.0 0.0 0.0 
0.0 0.0 0.0 
0.0 0.0 0.0 
0.0 0.0 0.0 
0.0 0.0 0.0 
0.0 0.0 0.0 
0.0 0.0 0.0 
0.0 0.0 0.0 
0.0 0.0 0.0 
0.0 0.0 0.0 
0.0 0.0 0.0 
0.0 0.0 0.0 
0.0 0.0 0.0 
0.0 0.0 0.0 
0.0 0.0 0.0 
0.0 0.0 0.0 
0.0 0.0 0.0 
0.0 0.0 0.0 
0.0 0.0 0.0 
0.0 0.0 0.0 
0.0 0.0 0.0 
0.0 0.0 0.0 
0.0 0.0 0.0 
0.0 0.0 0.0 
0.0 0.0 0.0 
0.0 0.0 0.0 
0.0 0.0 0.0 
0.0 0.0 0.0 
0.0 0.0 0.0 
0.0 0.0 0.0 
0.0 0.0 0.0 
0.0 0.0 0.0 
0.0 0.0 0.0 
0.0 0.0 0.0 
0.0 0.0 0.0 
0.0 0.0 0.0 
0.0 0.0 0.0 
0.0 0.0 0.0 
0.0 0.0 0.0 
0.0 0.0 0.0 
0.0 0.0 0.0 
0.0 0.0 0.0 
0.0 0.0 0.0 
0.0 0.0 0.0 
0.0 0.0 0.0 
0.0 0.0 0.0 
0.0 0.0 0.0 
0.0 0.0 0.0 
0.0 0.0 0.0 
0.0 0.0 0.0 
0.0 0.0 0.0 
0.0 0.0 0.0 
0.0 0.0 0.0 
0.0 0.0 0.0 
0.0 0.0 0.0 
0.0 0.0 0.0 
0.0 0.0 0.0 
0.0 0.0 0.0 
0.0 0.0 0.0 
0.0 0.0 0.0 
0.0 0.0 0.0 
0.0 0.0 0.0 
0.0 0.0 0.0 
0.0 0.0 0.0 
0.0 0.0 0.0 
0.0 0.0 0.0 
0.0 0.0 0.0 
0.0 0.0 0.0 
0.0 0.0 0.0 
0.0 0.0 0.0 
0.0 0.0 0.0 
0.0 0.0 0.0 
0.0 0.0 0.0 
0.0 0.0 0.0 
0.0 0.0 0.0 
0.0 0.0 0.0 
0.0 0.0 0.0 
0.0 0.0 0.0 
0.0 0.0 0.0 
0.0 0.0 0.0 
0.0 0.0 0.0 
0.0 0.0 0.0 
0.0 0.0 0.0 
0.0 0.0 0.0 
0.0 0.0 0.0 
0.0 0.0 0.0 
0.0 0.0 0.0 
0.0 0.0 0.0 
0.0 0.0 0.0 
0.0 0.0 0.0 
0.0 0.0 0.0 
0.0 0.0 0.0 
0.0 0.0 0.0 
0.0 0.0 0.0 
0.0 0.0 0.0 
0.0 0.0 0.0 
0.0 0.0 0.0 
0.0 0.0 0.0 
0.0 0.0 0.0 
0.0 0.0 0.0 
0.0 0.0 0.0 
0.0 0.0 0.0 
0.0 0.0 0.0 
0.0 0.0 0.0 
0.0 0.0 0.0 
0.0 0.0 0.0 
0.0 0.0 0.0 
0.0 0.0 0.0 
0.0 0.0 0.0 
0.0 0.0 0.0 
0.0 0.0 0.0 
0.0 0.0 0.0 
0.0 0.0 0.0 
0.0 0.0 0.0 
0.0 0.0 0.0 
0.0 0.0 0.0 
0.0 0.0 0.0 
0.0 0.0 0.0 
0.0 0.0 0.0 
0.0 0.0 0.0 
0.0 0.0 0.0 
0.0 0.0 0.0 
0.0 0.0 0.0 
0.0 0.0 0.0 
0.0 0.0 0.0 
0.0 0.0 0.0 
0.0 0.0 0.0 
0.0 0.0 0.0 
0.0 0.0 0.0 
0.0 0.0 0.0 
0.0 0.0 0.0 
0.0 0.0 0.0 
0.0 0.0 0.0 
0.0 0.0 0.0 
0.0 0.0 0.0 
0.0 0.0 0.0 
0.0 0.0 0.0 
0.0 0.0 0.0 
0.0 0.0 0.0 
0.0 0.0 0.0 
0.0 0.0 0.0 
0.0 0.0 0.0 
0.0 0.0 0.0 
0.0 0.0 0.0 
0.0 0.0 0.0 
0.0 0.0 0.0 
0.0 0.0 0.0 
0.0 0.0 0.0 
0.0 0.0 0.0 
0.0 0.0 0.0 
0.0 0.0 0.0 
0.0 0.0 0.0 
0.0 0.0 0.0 
0.0 0.0 0.0 
0.0 0.0 0.0 
0.0 0.0 0.0 
0.0 0.0 0.0 
0.0 0.0 0.0 
0.0 0.0 0.0 
0.0 0.0 0.0 
0.0 0.0 0.0 
0.0 0.0 0.0 
0.0 0.0 0.0 
0.0 0.0 0.0 
0.0 0.0 0.0 
0.0 0.0 0.0 
0.0 0.0 0.0 
0.0 0.0 0.0 
0.0 0.0 0.0 
0.0 0.0 0.0 
0.0 0.0 0.0 
0.0 0.0 0.0 
0.0 0.0 0.0 
0.0 0.0 0.0 
0.0 0.0 0.0 
0.0 0.0 0.0 
0.0 0.0 0.0 
0.0 0.0 0.0 
0.0 0.0 0.0 
0.0 0.0 0.0 
0.0 0.0 0.0 
0.0 0.0 0.0 
0.0 0.0 0.0 
0.0 0.0 0.0 
0.0 0.0 0.0 
0.0 0.0 0.0 
0.0 0.0 0.0 
0.0 0.0 0.0 
0.0 0.0 0.0 
0.0 0.0 0.0 
0.0 0.0 0.0 
0.0 0.0 0.0 
0.0 0.0 0.0 
0.0 0.0 0.0 
0.0 0.0 0.0 
0.0 0.0 0.0 
0.0 0.0 0.0 
0.0 0.0 0.0 
0.0 0.0 0.0 
0.0 0.0 0.0 
0.0 0.0 0.0 
0.0 0.0 0.0 
0.0 0.0 0.0 
0.0 0.0 0.0 
0.0 0.0 0.0 
0.0 0.0 0.0 
0.0 0.0 0.0 
0.0 0.0 0.0 
0.0 0.0 0.0 
0.0 0.0 0.0 
0.0 0.0 0.0 
0.0 0.0 0.0 
0.0 0.0 0.0 
0.0 0.0 0.0 
0.0 0.0 0.0 
0.0 0.0 0.0 
0.0 0.0 0.0 
0.0 0.0 0.0 
0.0 0.0 0.0 
0.0 0.0 0.0 
0.0 0.0 0.0 
0.0 0.0 0.0 
0.0 0.0 0.0 
0.0 0.0 0.0 
0.0 0.0 0.0 
0.0 0.0 0.0 
0.0 0.0 0.0 
0.0 0.0 0.0 
0.0 0.0 0.0 
0.0 0.0 0.0 
0.0 0.0 0.0 
0.0 0.0 0.0 
0.0 0.0 0.0 
0.0 0.0 0.0 
0.0 0.0 0.0 
0.0 0.0 0.0 
0.0 0.0 0.0 
0.0 0.0 0.0 
0.0 0.0 0.0 
0.0 0.0 0.0 
0.0 0.0 0.0 
0.0 0.0 0.0 
0.0 0.0 0.0 
0.0 0.0 0.0 
0.0 0.0 0.0 
0.0 0.0 0.0 
0.0 0.0 0.0 
0.0 0.0 0.0 
0.0 0.0 0.0 
0.0 0.0 0.0 
0.0 0.0 0.0 
0.0 0.0 0.0 
0.0 0.0 0.0 
0.0 0.0 0.0 
0.0 0.0 0.0 
0.0 0.0 0.0 
0.0 0.0 0.0 
0.0 0.0 0.0 
0.0 0.0 0.0 
0.0 0.0 0.0 
0.0 0.0 0.0 
0.0 0.0 0.0 
0.0 0.0 0.0 
0.0 0.0 0.0 
0.0 0.0 0.0 
0.0 0.0 0.0 
0.0 0.0 0.0 
0.0 0.0 0.0 
0.0 0.0 0.0 
0.0 0.0 0.0 
0.0 0.0 0.0 
0.0 0.0 0.0 
0.0 0.0 0.0 
0.0 0.0 0.0 
0.0 0.0 0.0 
0.0 0.0 0.0 
0.0 0.0 0.0 
0.0 0.0 0.0 
0.0 0.0 0.0 
0.0 0.0 0.0 
0.0 0.0 0.0 
0.0 0.0 0.0 
0.0 0.0 0.0 
0.0 0.0 0.0 
0.0 0.0 0.0 
0.0 0.0 0.0 
0.0 0.0 0.0 
0.0 0.0 0.0 
0.0 0.0 0.0 
0.0 0.0 0.0 
0.0 0.0 0.0 
0.0 0.0 0.0 
0.0 0.0 0.0 
0.0 0.0 0.0 
0.0 0.0 0.0 
0.0 0.0 0.0 
0.0 0.0 0.0 
0.0 0.0 0.0 
0.0 0.0 0.0 
0.0 0.0 0.0 
0.0 0.0 0.0 
0.0 0.0 0.0 
0.0 0.0 0.0 
0.0 0.0 0.0 
0.0 0.0 0.0 
0.0 0.0 0.0 
0.0 0.0 0.0 
0.0 0.0 0.0 
0.0 0.0 0.0 
0.0 0.0 0.0 
0.0 0.0 0.0 
0.0 0.0 0.0 
0.0 0.0 0.0 
0.0 0.0 0.0 
0.0 0.0 0.0 
0.0 0.0 0.0 
0.0 0.0 0.0 
0.0 0.0 0.0 
0.0 0.0 0.0 
0.0 0.0 0.0 
0.0 0.0 0.0 
0.0 0.0 0.0 
0.0 0.0 0.0 
0.0 0.0 0.0 
0.0 0.0 0.0 
0.0 0.0 0.0 
0.0 0.0 0.0 
0.0 0.0 0.0 
0.0 0.0 0.0 
0.0 0.0 0.0 
0.0 0.0 0.0 
0.0 0.0 0.0 
0.0 0.0 0.0 
0.0 0.0 0.0 
0.0 0.0 0.0 
0.0 0.0 0.0 
0.0 0.0 0.0 
0.0 0.0 0.0 
0.0 0.0 0.0 
0.0 0.0 0.0 
0.0 0.0 0.0 
0.0 0.0 0.0 
0.0 0.0 0.0 
0.0 0.0 0.0 
0.0 0.0 0.0 
0.0 0.0 0.0 
0.0 0.0 0.0 
0.0 0.0 0.0 
0.0 0.0 0.0 
0.0 0.0 0.0 
0.0 0.0 0.0 
0.0 0.0 0.0 
0.0 0.0 0.0 
0.0 0.0 0.0 
0.0 0.0 0.0 
0.0 0.0 0.0 
0.0 0.0 0.0 
0.0 0.0 0.0 
0.0 0.0 0.0 
0.0 0.0 0.0 
0.0 0.0 0.0 
0.0 0.0 0.0 
0.0 0.0 0.0 
0.0 0.0 0.0 
0.0 0.0 0.0 
0.0 0.0 0.0 
0.0 0.0 0.0 
0.0 0.0 0.0 
0.0 0.0 0.0 
0.0 0.0 0.0 
0.0 0.0 0.0 
0.0 0.0 0.0 
0.0 0.0 0.0 
0.0 0.0 0.0 
0.0 0.0 0.0 
0.0 0.0 0.0 
0.0 0.0 0.0 
0.0 0.0 0.0 
0.0 0.0 0.0 
0.0 0.0 0.0 
0.0 0.0 0.0 
0.0 0.0 0.0 
0.0 0.0 0.0 
0.0 0.0 0.0 
0.0 0.0 0.0 
0.0 0.0 0.0 
0.0 0.0 0.0 
0.0 0.0 0.0 
0.0 0.0 0.0 
0.0 0.0 0.0 
0.0 0.0 0.0 
0.0 0.0 0.0 
0.0 0.0 0.0 
0.0 0.0 0.0 
0.0 0.0 0.0 
0.0 0.0 0.0 
0.0 0.0 0.0 
0.0 0.0 0.0 
0.0 0.0 0.0 
0.0 0.0 0.0 
0.0 0.0 0.0 
0.0 0.0 0.0 
0.0 0.0 0.0 
0.0 0.0 0.0 
0.0 0.0 0.0 
0.0 0.0 0.0 
0.0 0.0 0.0 
0.0 0.0 0.0 
0.0 0.0 0.0 
0.0 0.0 0.0 
0.0 0.0 0.0 
0.0 0.0 0.0 
0.0 0.0 0.0 
0.0 0.0 0.0 
0.0 0.0 0.0 
0.0 0.0 0.0 
0.0 0.0 0.0 
0.0 0.0 0.0 
0.0 0.0 0.0 
0.0 0.0 0.0 
0.0 0.0 0.0 
0.0 0.0 0.0 
0.0 0.0 0.0 
0.0 0.0 0.0 
0.0 0.0 0.0 
0.0 0.0 0.0 
0.0 0.0 0.0 
0.0 0.0 0.0 
0.0 0.0 0.0 
0.0 0.0 0.0 
0.0 0.0 0.0 
0.0 0.0 0.0 
0.0 0.0 0.0 
0.0 0.0 0.0 
0.0 0.0 0.0 
0.0 0.0 0.0 
0.0 0.0 0.0 
0.0 0.0 0.0 
0.0 0.0 0.0 
0.0 0.0 0.0 
0.0 0.0 0.0 
0.0 0.0 0.0 
0.0 0.0 0.0 
0.0 0.0 0.0 
0.0 0.0 0.0 
0.0 0.0 0.0 
0.0 0.0 0.0 
0.0 0.0 0.0 
0.0 0.0 0.0 
0.0 0.0 0.0 
0.0 0.0 0.0 
0.0 0.0 0.0 
0.0 0.0 0.0 
0.0 0.0 0.0 
0.0 0.0 0.0 
0.0 0.0 0.0 
0.0 0.0 0.0 
0.0 0.0 0.0 
0.0 0.0 0.0 
0.0 0.0 0.0 
0.0 0.0 0.0 

TENSORS element_materi_stress float
-2.538038962725e+01 1.774929811922e+01 0.0 
1.774929811922e+01 -3.891503927689e+01 0.0 
0.0 0.0 -1.888862867124e+01 
-2.773217194853e+01 1.695389364541e+01 0.0 
1.695389364541e+01 -4.050128788634e+01 0.0 
0.0 0.0 -2.007003795046e+01 
-1.188773040428e+02 1.712015228176e+01 0.0 
1.712015228176e+01 -2.698929576612e+02 0.0 
0.0 0.0 -1.162310785112e+02 
-1.082401682453e+02 2.298978319549e+00 0.0 
2.298978319549e+00 -2.468844458957e+02 0.0 
0.0 0.0 -1.061373842423e+02 
-5.718262241705e+01 -1.913341164026e-01 0.0 
-1.913341164026e-01 -1.088467971804e+02 0.0 
0.0 0.0 -4.940882587922e+01 
-2.018756726655e+01 4.498034243075e+00 0.0 
4.498034243075e+00 -3.929721790493e+01 0.0 
0.0 0.0 -1.744543555144e+01 
-5.662223930990e+01 -5.837812629728e-01 0.0 
-5.837812629728e-01 -1.090556259482e+02 0.0 
0.0 0.0 -4.930335957742e+01 
-2.749101086520e+01 1.845496625491e+01 0.0 
1.845496625491e+01 -4.443075408017e+01 0.0 
0.0 0.0 -2.117652948361e+01 
-5.743893452478e+01 1.768692923771e+00 0.0 
1.768692923771e+00 -1.097627022594e+02 0.0 
0.0 0.0 -4.976049103527e+01 
-1.076023252405e+02 1.663075379329e+00 0.0 
1.663075379329e+00 -2.452263304807e+02 0.0 
0.0 0.0 -1.054485967163e+02 
-9.728301216062e+01 -2.947679207392e-01 0.0 
-2.947679207392e-01 -2.521540285730e+02 0.0 
0.0 0.0 -1.044311122201e+02 
-2.225501963896e+01 1.525706898631e+01 0.0 
1.525706898631e+01 -3.240254265197e+01 0.0 
0.0 0.0 -1.599726868728e+01 
-1.509070241629e+02 4.738858332780e-01 0.0 
4.738858332780e-01 -3.617516051786e+02 0.0 
0.0 0.0 -1.533975888025e+02 
-6.715186697340e+01 1.903430892916e+00 0.0 
1.903430892916e+00 -1.267189736177e+02 0.0 
0.0 0.0 -5.776125217734e+01 
-1.556933084316e+02 2.618178628806e+00 0.0 
2.618178628806e+00 -3.695215707013e+02 0.0 
0.0 0.0 -1.571644637399e+02 
-1.103602455416e+02 1.257537168616e+00 0.0 
1.257537168616e+00 -2.549971778251e+02 0.0 
0.0 0.0 -1.092072270100e+02 
-5.658715912459e+01 1.049412584288e+00 0.0 
1.049412584288e+00 -1.049643915272e+02 0.0 
0.0 0.0 -4.806546519553e+01 
-2.003463133333e+01 2.755533028435e+00 0.0 
2.755533028435e+00 -3.985509998960e+01 0.0 
0.0 0.0 -1.756691939688e+01 
-2.878339715511e+01 -9.066735273224e-02 0.0 
-9.066735273224e-02 -7.718807190691e+01 0.0 
0.0 0.0 -3.139144071860e+01 
-2.921629785839e+01 -7.218607519881e-01 0.0 
-7.218607519881e-01 -7.984359053840e+01 0.0 
0.0 0.0 -3.231796651904e+01 
-1.088215204625e+02 3.695341169417e+00 0.0 
3.695341169417e+00 -2.462318243248e+02 0.0 
0.0 0.0 -1.061160034362e+02 
-2.811533890185e+01 1.426514863840e+01 0.0 
1.426514863840e+01 -3.768969740641e+01 0.0 
0.0 0.0 -1.934151089248e+01 
-3.389694525110e+01 1.737804607785e+01 0.0 
1.737804607785e+01 -4.644484027860e+01 0.0 
0.0 0.0 -2.370253565891e+01 
-1.356892036658e+02 1.362777364299e+01 0.0 
1.362777364299e+01 -3.330791111318e+02 0.0 
0.0 0.0 -1.402304944393e+02 
-7.632989429864e+01 4.022763060930e+00 0.0 
4.022763060930e+00 -1.459069839513e+02 0.0 
0.0 0.0 -6.627106347498e+01 
-1.029679457722e+02 1.077980414410e+00 0.0 
1.077980414410e+00 -2.650990170654e+02 0.0 
0.0 0.0 -1.100200888513e+02 
-5.296082089415e+01 2.853917083566e+00 0.0 
2.853917083566e+00 -8.974485562881e+01 0.0 
0.0 0.0 -4.241170295689e+01 
-1.312900380501e+02 2.313666267867e+01 0.0 
2.313666267867e+01 -3.094028253583e+02 0.0 
0.0 0.0 -1.318078590225e+02 
-7.866253103898e+01 6.803253621034e+00 0.0 
6.803253621034e+00 -1.472450116314e+02 0.0 
0.0 0.0 -6.737226280111e+01 
-1.395681074583e+02 1.219038394744e+01 0.0 
1.219038394744e+01 -3.421462099014e+02 0.0 
0.0 0.0 -1.441142952079e+02 
-2.568131166041e+01 -1.479454779054e+00 0.0 
-1.479454779054e+00 -5.786045867147e+01 0.0 
0.0 0.0 -2.466253109956e+01 
-1.423192447037e+01 -1.538773220508e+00 0.0 
-1.538773220508e+00 -2.598080675422e+01 0.0 
0.0 0.0 -1.166381936738e+01 
-1.206665778708e+02 1.709347139487e+01 0.0 
1.709347139487e+01 -2.702726096252e+02 0.0 
0.0 0.0 -1.168817562488e+02 
-1.261731434025e+02 1.146487568140e+00 0.0 
1.146487568140e+00 -3.133680835741e+02 0.0 
0.0 0.0 -1.314623680930e+02 
-1.479132801230e+02 8.735918485143e+00 0.0 
8.735918485143e+00 -3.561643130502e+02 0.0 
0.0 0.0 -1.508232779520e+02 
-1.580693105170e+02 3.854039637921e+00 0.0 
3.854039637921e+00 -3.760922429804e+02 0.0 
0.0 0.0 -1.598484660492e+02 
-1.589406755555e+02 6.545359062564e+00 0.0 
6.545359062564e+00 -3.762278147166e+02 0.0 
0.0 0.0 -1.601505470816e+02 
-1.376259998025e+02 1.787942068396e+01 0.0 
1.787942068396e+01 -3.334493107934e+02 0.0 
0.0 0.0 -1.409225931788e+02 
-4.862502215350e+01 1.378980891977e+00 0.0 
1.378980891977e+00 -9.034613378660e+01 0.0 
0.0 0.0 -4.129134678203e+01 
-4.839487457641e+01 -1.337918803259e+00 0.0 
-1.337918803259e+00 -9.088659182104e+01 0.0 
0.0 0.0 -4.138443991924e+01 
-4.194439910428e+01 1.290844871602e+01 0.0 
1.290844871602e+01 -5.661840979249e+01 0.0 
0.0 0.0 -2.916884266903e+01 
-1.503402957987e+02 9.783220635103e+00 0.0 
9.783220635103e+00 -3.586899414501e+02 0.0 
0.0 0.0 -1.523090711746e+02 
-2.341287121226e+01 1.568583329261e+01 0.0 
1.568583329261e+01 -3.660472666521e+01 0.0 
0.0 0.0 -1.760527936324e+01 
-5.456227823251e+01 2.575272717780e+00 0.0 
2.575272717780e+00 -9.031546405952e+01 0.0 
0.0 0.0 -4.306332268761e+01 
-1.043022047767e+02 9.605407582827e-01 0.0 
9.605407582827e-01 -2.354879668109e+02 0.0 
0.0 0.0 -1.015370514763e+02 
-2.410986034253e+01 1.559990075625e+01 0.0 
1.559990075625e+01 -3.691344732888e+01 0.0 
0.0 0.0 -1.790699230142e+01 
-1.957321578374e+01 -1.946627969827e+00 0.0 
-1.946627969827e+00 -4.327256213354e+01 0.0 
0.0 0.0 -1.845373337518e+01 
-1.039575126912e+02 6.216008273252e-01 0.0 
6.216008273252e-01 -2.368780620668e+02 0.0 
0.0 0.0 -1.018506724274e+02 
-1.649733564304e+01 -1.611868066623e+00 0.0 
-1.611868066623e+00 -2.567274151566e+01 0.0 
0.0 0.0 -1.264089657891e+01 
-6.447983210370e+01 3.013795975371e+00 0.0 
3.013795975371e+00 -1.182247470037e+02 0.0 
0.0 0.0 -5.441137373223e+01 
-3.828483355665e+01 1.518782895027e+01 0.0 
1.518782895027e+01 -5.147743811885e+01 0.0 
0.0 0.0 -2.652868150265e+01 
-3.652005917398e+01 -3.127914032062e-01 0.0 
-3.127914032062e-01 -9.705634054205e+01 0.0 
0.0 0.0 -3.967291991481e+01 
-2.893461818836e+01 -9.300226116055e-01 0.0 
-9.300226116055e-01 -7.917744995141e+01 0.0 
0.0 0.0 -3.203362044193e+01 
-3.423479568650e+01 9.450121041925e+00 0.0 
9.450121041925e+00 -4.411257032959e+01 0.0 
0.0 0.0 -2.310420980483e+01 
-1.155159942371e+02 1.297231979149e+01 0.0 
1.297231979149e+01 -2.618652072698e+02 0.0 
0.0 0.0 -1.128143604521e+02 
-4.748767898280e+01 -1.640831626278e-01 0.0 
-1.640831626278e-01 -1.280545753878e+02 0.0 
0.0 0.0 -5.226267631118e+01 
-3.678392674982e+01 -8.509932853438e-01 0.0 
-8.509932853438e-01 -1.000200360314e+02 0.0 
0.0 0.0 -4.064118883437e+01 
-1.258077202830e+02 -1.539711941997e-01 0.0 
-1.539711941997e-01 -3.132626757806e+02 0.0 
0.0 0.0 -1.313211188191e+02 
-2.286574118856e+01 -1.131609967152e+00 0.0 
-1.131609967152e+00 -5.917791573114e+01 0.0 
0.0 0.0 -2.421309707591e+01 
-1.109189000636e+02 3.080733991077e+00 0.0 
3.080733991077e+00 -2.552736594410e+02 0.0 
0.0 0.0 -1.094577678514e+02 
-2.085680455231e+01 -8.212488192181e-01 0.0 
-8.212488192181e-01 -2.222966040378e+01 0.0 
0.0 0.0 -1.252593948683e+01 
-1.249625093329e+02 1.952933545603e+01 0.0 
1.952933545603e+01 -3.025513477751e+02 0.0 
0.0 0.0 -1.278541571324e+02 
-3.967781697226e+01 1.805727328348e+01 0.0 
1.805727328348e+01 -9.273469097359e+01 0.0 
0.0 0.0 -3.932375238375e+01 
-2.726815622237e+01 -1.112158457090e+00 0.0 
-1.112158457090e+00 -7.249059480114e+01 0.0 
0.0 0.0 -2.952762530705e+01 
-1.506121763780e+02 3.294623061375e+00 0.0 
3.294623061375e+00 -3.610194685741e+02 0.0 
0.0 0.0 -1.530894934856e+02 
-3.065293220301e+01 1.170851541032e+01 0.0 
1.170851541032e+01 -3.794054189139e+01 0.0 
0.0 0.0 -2.017804222832e+01 
-1.710613403424e+01 -9.973713029871e-01 0.0 
-9.973713029871e-01 -2.095223807438e+01 0.0 
0.0 0.0 -1.171946558734e+01 
-1.225768795490e+02 1.877431827561e+01 0.0 
1.877431827561e+01 -2.732272396295e+02 0.0 
0.0 0.0 -1.183412357536e+02 
-2.549220651633e+01 -2.099836573174e+00 0.0 
-2.099836573174e+00 -6.355250209569e+01 0.0 
0.0 0.0 -2.631341258361e+01 
-1.253132805932e+02 2.092840181345e+01 0.0 
2.092840181345e+01 -2.894324212792e+02 0.0 
0.0 0.0 -1.240237105617e+02 
-1.077276719594e+02 1.586131462010e+00 0.0 
1.586131462010e+00 -2.754493674252e+02 0.0 
0.0 0.0 -1.145531118154e+02 
-1.159209173973e+02 8.348052815455e+00 0.0 
8.348052815455e+00 -2.718154739269e+02 0.0 
0.0 0.0 -1.159209173973e+02 
-1.253998865643e+02 2.092723550699e+01 0.0 
2.092723550699e+01 -2.944806536538e+02 0.0 
0.0 0.0 -1.255641620654e+02 
-1.116158335783e+01 -9.459716419142e-01 0.0 
-9.459716419142e-01 -2.982598324952e+01 0.0 
0.0 0.0 -1.189626998220e+01 
-4.892183301105e+01 -1.053462983675e+00 0.0 
-1.053462983675e+00 -1.332849745710e+02 0.0 
0.0 0.0 -5.426204227461e+01 
-1.112988170818e+02 6.823470056730e+00 0.0 
6.823470056730e+00 -2.505143502359e+02 0.0 
0.0 0.0 -1.081439501953e+02 
-1.188566971347e+02 1.414948867518e+01 0.0 
1.414948867518e+01 -2.645772944301e+02 0.0 
0.0 0.0 -1.146301974694e+02 
-2.208546586372e+01 1.316334408194e+01 0.0 
1.316334408194e+01 -3.404723875439e+01 0.0 
0.0 0.0 -1.643981138543e+01 
-2.211169687012e+01 -1.201247042325e+00 0.0 
-1.201247042325e+00 -5.908819844240e+01 0.0 
0.0 0.0 -2.395996859376e+01 
-2.278323182587e+01 1.446713066631e+01 0.0 
1.446713066631e+01 -3.426707942793e+01 0.0 
0.0 0.0 -1.671509337614e+01 
-2.463683803017e+01 -3.094661770976e+00 0.0 
-3.094661770976e+00 -6.297064766235e+01 0.0 
0.0 0.0 -2.588224570775e+01 
-5.664527640394e+01 7.947626592695e-01 0.0 
7.947626592695e-01 -1.045204238017e+02 0.0 
0.0 0.0 -4.794971006169e+01 
-3.157066096480e+01 1.848104283159e+01 0.0 
1.848104283159e+01 -4.491677535142e+01 0.0 
0.0 0.0 -2.254623089487e+01 
-2.517795112532e+01 1.491585669842e+01 0.0 
1.491585669842e+01 -3.347239610386e+01 0.0 
0.0 0.0 -1.719510416876e+01 
-6.226665795467e+01 2.012935302994e+00 0.0 
2.012935302994e+00 -1.201355510122e+02 0.0 
0.0 0.0 -5.432066269005e+01 
-6.117431068150e+01 -3.704318201611e-02 0.0 
-3.704318201611e-02 -1.196376417597e+02 0.0 
0.0 0.0 -5.384358573235e+01 
-1.117845697108e+02 1.377844846114e+00 0.0 
1.377844846114e+00 -2.839339331706e+02 0.0 
0.0 0.0 -1.183155508644e+02 
-1.218828573201e+02 -6.875218249857e-01 0.0 
-6.875218249857e-01 -3.050992692479e+02 0.0 
0.0 0.0 -1.276946379704e+02 
-1.044069559334e+02 1.676101771336e+01 0.0 
1.676101771336e+01 -2.173732469274e+02 0.0 
0.0 0.0 -9.613406085825e+01 
-5.802856072156e+01 2.097301859212e+00 0.0 
2.097301859212e+00 -1.084694106928e+02 0.0 
0.0 0.0 -4.954939142432e+01 
-1.338782565589e+01 -1.558034970848e+00 0.0 
-1.558034970848e+00 -2.575208054529e+01 0.0 
0.0 0.0 -1.169808707969e+01 
-6.211983468436e+01 3.623829849379e+00 0.0 
3.623829849379e+00 -1.080767157323e+02 0.0 
0.0 0.0 -5.065896512499e+01 
-8.643863225128e+01 1.097944351433e+00 0.0 
1.097944351433e+00 -1.882196621027e+02 0.0 
0.0 0.0 -8.199748830618e+01 
-8.586913782669e+01 4.285967129198e-01 0.0 
4.285967129198e-01 -1.847629864864e+02 0.0 
0.0 0.0 -8.078963729392e+01 
-1.197599301861e+02 9.281496222054e+00 0.0 
9.281496222054e+00 -2.740396927301e+02 0.0 
0.0 0.0 -1.177398868749e+02 
-1.432416854141e+02 2.055462865168e+01 0.0 
2.055462865168e+01 -3.397045988168e+02 0.0 
0.0 0.0 -1.444838852693e+02 
-5.761258850647e+01 1.668328602564e+00 0.0 
1.668328602564e+00 -1.043309659525e+02 0.0 
0.0 0.0 -4.818306633770e+01 
-1.476175158512e+02 9.668451481088e+00 0.0 
9.668451481088e+00 -3.583263211691e+02 0.0 
0.0 0.0 -1.513831511061e+02 
-6.784669862002e+01 7.775823335437e-01 0.0 
7.775823335437e-01 -1.393924385324e+02 0.0 
0.0 0.0 -6.177174114573e+01 
-3.701407669102e+01 1.993286366314e+01 0.0 
1.993286366314e+01 -7.740564276530e+01 0.0 
0.0 0.0 -3.392591583689e+01 
-5.376370280920e+01 1.273939529070e+00 0.0 
1.273939529070e+00 -9.979934689232e+01 0.0 
0.0 0.0 -4.566891491045e+01 
-1.550487557384e+02 1.338156751481e+00 0.0 
1.338156751481e+00 -3.691314724844e+02 0.0 
0.0 0.0 -1.568540684668e+02 
-1.041598195400e+02 1.842711143957e+01 0.0 
1.842711143957e+01 -2.598625434723e+02 0.0 
0.0 0.0 -1.088067089037e+02 
-1.268162046887e+02 2.124159605426e+01 0.0 
2.124159605426e+01 -3.037262882751e+02 0.0 
0.0 0.0 -1.287627478891e+02 
-3.461821154817e+01 1.665329089709e+01 0.0 
1.665329089709e+01 -8.825638493313e+01 0.0 
0.0 0.0 -3.646237894439e+01 
-2.318570424766e+01 -2.111642498492e+00 0.0 
-2.111642498492e+00 -4.246276106578e+01 0.0 
0.0 0.0 -1.929453959403e+01 
-1.406932366626e+02 1.880688760259e+00 0.0 
1.880688760259e+00 -3.420323769653e+02 0.0 
0.0 0.0 -1.444176840884e+02 
-9.298048608271e+01 7.657513632231e-01 0.0 
7.657513632231e-01 -2.039777527716e+02 0.0 
0.0 0.0 -8.868747165628e+01 
-2.071282191557e+01 -1.402895776406e+00 0.0 
-1.402895776406e+00 -2.545994903407e+01 0.0 
0.0 0.0 -1.345183128489e+01 
-1.546112648911e+02 4.401073407250e+00 0.0 
4.401073407250e+00 -3.664314023508e+02 0.0 
0.0 0.0 -1.559128001726e+02 
-9.874255689945e+01 1.454952469039e+01 0.0 
1.454952469039e+01 -2.070269813822e+02 0.0 
0.0 0.0 -9.133086148448e+01 
-8.345437497701e+00 3.583338714621e-01 0.0 
3.583338714621e-01 -2.206843181292e+01 0.0 
0.0 0.0 -8.724160793186e+00 
-5.002322219759e+01 1.588112352361e+01 0.0 
1.588112352361e+01 -1.367099530432e+02 0.0 
0.0 0.0 -5.561995257224e+01 
-5.698375529142e+01 7.028029173465e+00 0.0 
7.028029173465e+00 -9.107470400532e+01 0.0 
0.0 0.0 -4.401753778902e+01 
-5.939682933335e+01 -3.256577731953e-01 0.0 
-3.256577731953e-01 -1.617944826224e+02 0.0 
0.0 0.0 -6.595739358674e+01 
-3.296250389721e+01 1.744726010942e+01 0.0 
1.744726010942e+01 -7.345927916882e+01 0.0 
0.0 0.0 -3.152653491981e+01 
-4.052967618293e+01 1.947869332946e+01 0.0 
1.947869332946e+01 -9.325104229357e+01 0.0 
0.0 0.0 -3.973421554295e+01 
-1.518384588873e+02 6.888828080718e+00 0.0 
6.888828080718e+00 -3.634249914947e+02 0.0 
0.0 0.0 -1.541790351146e+02 
-6.542459791047e+01 -5.041869009095e-01 0.0 
-5.041869009095e-01 -1.327789047321e+02 0.0 
0.0 0.0 -5.906105079278e+01 
-3.607750677930e+01 1.740695039153e+01 0.0 
1.740695039153e+01 -9.007141237985e+01 0.0 
0.0 0.0 -3.744467574774e+01 
-2.441788921190e+01 -1.728844858402e+00 0.0 
-1.728844858402e+00 -6.087972893940e+01 0.0 
0.0 0.0 -2.518928544539e+01 
-6.199144995876e+01 3.665217261189e+00 0.0 
3.665217261189e+00 -1.082568728986e+02 0.0 
0.0 0.0 -5.067449685721e+01 
-9.309023528959e+01 1.208653892619e+00 0.0 
1.208653892619e+00 -2.054606854815e+02 0.0 
0.0 0.0 -8.916527623133e+01 
-3.743104536878e+01 1.823282295368e+01 0.0 
1.823282295368e+01 -9.070755442585e+01 0.0 
0.0 0.0 -3.804157993839e+01 
-2.012946807549e+01 9.300506381813e+00 0.0 
9.300506381813e+00 -2.944184555431e+01 0.0 
0.0 0.0 -1.447139408894e+01 
-4.973941235427e+01 9.203175066283e+00 0.0 
9.203175066283e+00 -7.348124116109e+01 0.0 
0.0 0.0 -3.656619605461e+01 
-5.947112734196e+01 -7.952673150890e-01 0.0 
-7.952673150890e-01 -1.604705568880e+02 0.0 
0.0 0.0 -6.558250526898e+01 
-4.217515379453e+01 6.043339151606e+00 0.0 
6.043339151606e+00 -6.079445261986e+01 0.0 
0.0 0.0 -3.049088192432e+01 
-1.127777322787e+02 6.242173958927e+00 0.0 
6.242173958927e+00 -2.587848846704e+02 0.0 
0.0 0.0 -1.110687850847e+02 
-2.072266458352e+01 9.109571038483e+00 0.0 
9.109571038483e+00 -4.024819524236e+01 0.0 
0.0 0.0 -1.789125794776e+01 
-1.024716124916e+02 -5.464530135848e-02 0.0 
-5.464530135848e-02 -2.641013360663e+02 0.0 
0.0 0.0 -1.095718845674e+02 
-1.077455219470e+02 5.177331986388e-01 0.0 
5.177331986388e-01 -2.467482644466e+02 0.0 
0.0 0.0 -1.059481359181e+02 
-5.332623989862e+01 1.708995987457e+01 0.0 
1.708995987457e+01 -1.021275388901e+02 0.0 
0.0 0.0 -4.623613363663e+01 
-4.614100973281e+01 1.069101051860e+01 0.0 
1.069101051860e+01 -6.521106166865e+01 0.0 
0.0 0.0 -3.300562142044e+01 
-1.466118355480e+02 7.245622113325e+00 0.0 
7.245622113325e+00 -3.556494453316e+02 0.0 
0.0 0.0 -1.502783842639e+02 
-1.513931090575e+02 2.185276524600e+00 0.0 
2.185276524600e+00 -3.624246915561e+02 0.0 
0.0 0.0 -1.537453401841e+02 
-1.114922056888e+02 8.296324315526e-02 0.0 
8.296324315526e-02 -2.838587756384e+02 0.0 
0.0 0.0 -1.182052943982e+02 
-5.722931425680e+01 1.903248394701e+01 0.0 
1.903248394701e+01 -1.067595695967e+02 0.0 
0.0 0.0 -4.879666515605e+01 
-1.458283748741e+02 1.268015505293e+01 0.0 
1.268015505293e+01 -3.543655602933e+02 0.0 
0.0 0.0 -1.496581805502e+02 
-4.941184238577e+01 1.500296672678e+01 0.0 
1.500296672678e+01 -8.560797089465e+01 0.0 
0.0 0.0 -4.010594398413e+01 
-1.104543084930e+02 4.625866763804e+00 0.0 
4.625866763804e+00 -2.529651233550e+02 0.0 
0.0 0.0 -1.086258295544e+02 
-1.259578587386e+02 2.152910544822e+01 0.0 
2.152910544822e+01 -2.885473612372e+02 0.0 
0.0 0.0 -1.239515659928e+02 
-6.849710250840e+01 4.251176302170e+00 0.0 
4.251176302170e+00 -1.266147369758e+02 0.0 
0.0 0.0 -5.813355184527e+01 
-7.795083562080e+01 3.706243165320e-01 0.0 
3.706243165320e-01 -1.637246242814e+02 0.0 
0.0 0.0 -7.210263797067e+01 
-4.904321506891e+01 1.902746818451e+01 0.0 
1.902746818451e+01 -8.569178369973e+01 0.0 
0.0 0.0 -4.002049963059e+01 
-3.833005992657e+01 7.249399939412e+00 0.0 
7.249399939412e+00 -5.266886945202e+01 0.0 
0.0 0.0 -2.689967881358e+01 
-6.121167780752e+01 1.719097736483e+01 0.0 
1.719097736483e+01 -1.221129363938e+02 0.0 
0.0 0.0 -5.459738426039e+01 
-4.042731806587e+01 1.731659048973e+01 0.0 
1.731659048973e+01 -1.060816654839e+02 0.0 
0.0 0.0 -4.355269506492e+01 
-5.396555184949e+01 1.151059799751e+00 0.0 
1.151059799751e+00 -1.025163557142e+02 0.0 
0.0 0.0 -4.654457226910e+01 
-5.059921408250e+01 1.654933435972e+01 0.0 
1.654933435972e+01 -1.370722523213e+02 0.0 
0.0 0.0 -5.590143992114e+01 
-1.231575058572e+01 -1.259310269802e+00 0.0 
-1.259310269802e+00 -2.507430695938e+01 0.0 
0.0 0.0 -1.123519485562e+01 
-5.903005276374e+01 2.041957320401e-01 0.0 
2.041957320401e-01 -1.174636780431e+02 0.0 
0.0 0.0 -5.254811924206e+01 
-2.152499631370e+01 -4.022174950923e-01 0.0 
-4.022174950923e-01 -6.014625642836e+01 0.0 
0.0 0.0 -2.410137582262e+01 
-5.339841437718e+01 8.002157810501e+00 0.0 
8.002157810501e+00 -8.247647745824e+01 0.0 
0.0 0.0 -4.036246755063e+01 
-1.492546526087e+02 1.195045694370e+01 0.0 
1.195045694370e+01 -3.561764446826e+02 0.0 
0.0 0.0 -1.512293291874e+02 
-3.329148695287e+01 1.638524860124e+01 0.0 
1.638524860124e+01 -8.766095680431e+01 0.0 
0.0 0.0 -3.588573312715e+01 
-1.164604920240e+02 -3.238110459492e-01 0.0 
-3.238110459492e-01 -2.940593632188e+02 0.0 
0.0 0.0 -1.227559565728e+02 
-2.514528425102e+01 1.647827730686e+01 0.0 
1.647827730686e+01 -3.754105845896e+01 0.0 
0.0 0.0 -1.840590281299e+01 
-1.029875133129e+02 1.697723732336e+01 0.0 
1.697723732336e+01 -2.591746580773e+02 0.0 
0.0 0.0 -1.082486514171e+02 
-5.344272656704e+01 1.386739666116e-01 0.0 
1.386739666116e-01 -1.039784970262e+02 0.0 
0.0 0.0 -4.682636707797e+01 
-4.619739014726e+01 1.446993629756e+01 0.0 
1.446993629756e+01 -1.322896865103e+02 0.0 
0.0 0.0 -5.314612299726e+01 
-1.306251606915e+02 1.823419572435e+00 0.0 
1.823419572435e+00 -3.225748356032e+02 0.0 
0.0 0.0 -1.355599988884e+02 
-2.415700330087e+01 -2.915285307730e+00 0.0 
-2.915285307730e+00 -6.044834846040e+01 0.0 
0.0 0.0 -2.498160552838e+01 
-1.403745020273e+02 4.054561555146e-01 0.0 
4.054561555146e-01 -3.416735310639e+02 0.0 
0.0 0.0 -1.442144099274e+02 
-6.437177169908e+01 8.502545550523e+00 0.0 
8.502545550523e+00 -1.121422124343e+02 0.0 
0.0 0.0 -5.255419524003e+01 
-1.515900457757e+02 3.707797630194e+00 0.0 
3.707797630194e+00 -3.648175397873e+02 0.0 
0.0 0.0 -1.545222756689e+02 
-5.279800493933e+01 -3.498355899693e-02 0.0 
-3.498355899693e-02 -1.029379000315e+02 0.0 
0.0 0.0 -4.632077149125e+01 
-3.658690657581e+01 1.518605607444e+01 0.0 
1.518605607444e+01 -1.015443637008e+02 0.0 
0.0 0.0 -4.103938108299e+01 
-5.034802884670e+01 4.401260768560e+00 0.0 
4.401260768560e+00 -7.924227051484e+01 0.0 
0.0 0.0 -3.847708980846e+01 
-9.728799299982e+01 6.972350182176e-01 0.0 
6.972350182176e-01 -2.531072119015e+02 0.0 
0.0 0.0 -1.047185614704e+02 
-2.448342865645e+01 1.682307574043e+01 0.0 
1.682307574043e+01 -3.712921287567e+01 0.0 
0.0 0.0 -1.808379245964e+01 
-4.722518223228e+01 1.470280614313e+01 0.0 
1.470280614313e+01 -1.327714913740e+02 0.0 
0.0 0.0 -5.359900208187e+01 
-8.225221619593e+01 2.054051364866e+00 0.0 
2.054051364866e+00 -1.746268987238e+02 0.0 
0.0 0.0 -7.666373447592e+01 
-5.307329541149e+01 -4.540248344978e-01 0.0 
-4.540248344978e-01 -1.027214103414e+02 0.0 
0.0 0.0 -4.633841172586e+01 
-4.293488232154e+01 1.559267692848e+01 0.0 
1.559267692848e+01 -1.187831586777e+02 0.0 
0.0 0.0 -4.811541229978e+01 
-4.615830791412e+01 5.087734833979e+00 0.0 
5.087734833979e+00 -6.971061111832e+01 0.0 
0.0 0.0 -3.436067570973e+01 
-1.104913378556e+02 1.816107514447e+01 0.0 
1.816107514447e+01 -2.471483167540e+02 0.0 
0.0 0.0 -1.068918963829e+02 
-6.671125830390e+01 -1.377586379176e-01 0.0 
-1.377586379176e-01 -1.788856610498e+02 0.0 
0.0 0.0 -7.327907580611e+01 
-1.328221515112e+02 2.164463704975e+01 0.0 
2.164463704975e+01 -3.127870709624e+02 0.0 
0.0 0.0 -1.332827667421e+02 
-1.276410179675e+02 2.263970684400e+01 0.0 
2.263970684400e+01 -2.928170927652e+02 0.0 
0.0 0.0 -1.257374332198e+02 
-3.104916984206e+01 1.910207813841e+01 0.0 
1.910207813841e+01 -5.913082130448e+01 0.0 
0.0 0.0 -2.665399734396e+01 
-6.683068794076e+01 -6.095401094896e-01 0.0 
-6.095401094896e-01 -1.799134589506e+02 0.0 
0.0 0.0 -7.362324406740e+01 
-1.250072328026e+02 1.458943679013e+01 0.0 
1.458943679013e+01 -3.124452347344e+02 0.0 
0.0 0.0 -1.308357402611e+02 
-4.552678218712e+01 1.663197740657e+01 0.0 
1.663197740657e+01 -7.002761853199e+01 0.0 
0.0 0.0 -3.426632021573e+01 
-2.746544187964e+01 1.624968087014e+01 0.0 
1.624968087014e+01 -5.514374594963e+01 0.0 
0.0 0.0 -2.438275634878e+01 
-5.944492011784e+01 6.088699958664e+00 0.0 
6.088699958664e+00 -1.004344564506e+02 0.0 
0.0 0.0 -4.756381297052e+01 
-4.706815071453e+01 1.783956668144e+01 0.0 
1.783956668144e+01 -1.237123101746e+02 0.0 
0.0 0.0 -5.083413826673e+01 
-1.091073630481e+02 2.754181851877e+00 0.0 
2.754181851877e+00 -2.516011456744e+02 0.0 
0.0 0.0 -1.078125526167e+02 
-9.809590515329e+01 1.235870534054e+01 0.0 
1.235870534054e+01 -2.027831757119e+02 0.0 
0.0 0.0 -8.986372425954e+01 
-1.356281987136e+02 -2.499536133764e-01 0.0 
-2.499536133764e-01 -3.325115750586e+02 0.0 
0.0 0.0 -1.400419321317e+02 
-2.344085576991e+01 1.471381415648e+01 0.0 
1.471381415648e+01 -3.582491501524e+01 0.0 
0.0 0.0 -1.737973123554e+01 
-4.426586998012e+01 1.263364836815e+01 0.0 
1.263364836815e+01 -1.283711712483e+02 0.0 
0.0 0.0 -5.139111236853e+01 
-1.020809350134e+02 1.402273191971e+01 0.0 
1.402273191971e+01 -2.153978909062e+02 0.0 
0.0 0.0 -9.484364777590e+01 
-1.631551646998e+01 3.026823891294e+00 0.0 
3.026823891294e+00 -4.372152403378e+00 0.0 
0.0 0.0 -5.806300662006e+00 
-4.477406722773e+01 1.194445486019e+01 0.0 
1.194445486019e+01 -6.957732588419e+01 0.0 
0.0 0.0 -3.390541793358e+01 
-1.164146267172e+02 1.166932382834e+01 0.0 
1.166932382834e+01 -2.975514332071e+02 0.0 
0.0 0.0 -1.237898179773e+02 
-1.708191392270e+01 -8.601023130326e-01 0.0 
-8.601023130326e-01 -4.265589368808e+01 0.0 
0.0 0.0 -1.752134228323e+01 
-1.168549796154e+02 1.391675152998e+01 0.0 
1.391675152998e+01 -2.613500651058e+02 0.0 
0.0 0.0 -1.130615134164e+02 
-8.572316308613e+01 7.286205739261e+00 0.0 
7.286205739261e+00 -1.681514645499e+02 0.0 
0.0 0.0 -7.576238829081e+01 
-5.837399465308e+01 -6.679338259008e-01 0.0 
-6.679338259008e-01 -1.673960270858e+02 0.0 
0.0 0.0 -6.733100652168e+01 
-1.144640039210e+02 1.030278734581e+01 0.0 
1.030278734581e+01 -2.965844892342e+02 0.0 
0.0 0.0 -1.229145479466e+02 
-6.925924581422e+01 5.116009394008e+00 0.0 
5.116009394008e+00 -1.244024063903e+02 0.0 
0.0 0.0 -5.769849566135e+01 
-7.486027070734e+01 5.153688729444e+00 0.0 
5.153688729444e+00 -1.390451551843e+02 0.0 
0.0 0.0 -6.377162776750e+01 
-1.412356165196e+02 1.294469191398e+01 0.0 
1.294469191398e+01 -3.425538154443e+02 0.0 
0.0 0.0 -1.447368295892e+02 
-4.498109893740e+01 -2.405501793111e+00 0.0 
-2.405501793111e+00 -1.268321089440e+02 0.0 
0.0 0.0 -5.114396236443e+01 
-6.462954018083e+01 1.810051319943e+01 0.0 
1.810051319943e+01 -1.377587134461e+02 0.0 
0.0 0.0 -6.031647608809e+01 
-6.904946952138e+01 1.092080519304e+01 0.0 
1.092080519304e+01 -1.249052582319e+02 0.0 
0.0 0.0 -5.778641832598e+01 
-9.142816376501e+01 9.436556409704e+00 0.0 
9.436556409704e+00 -1.794464006527e+02 0.0 
0.0 0.0 -8.086236932532e+01 
-7.006663314846e+01 1.081155016339e+01 0.0 
1.081155016339e+01 -1.220808404563e+02 0.0 
0.0 0.0 -5.724424208142e+01 
-6.173742917447e+01 9.477521868258e+00 0.0 
9.477521868258e+00 -1.013894556188e+02 0.0 
0.0 0.0 -4.853806543798e+01 
-9.060690036969e+01 1.640269243099e+01 0.0 
1.640269243099e+01 -2.349894120804e+02 0.0 
0.0 0.0 -9.727889373503e+01 
-1.076262731910e+02 1.945125204573e+01 0.0 
1.945125204573e+01 -2.340802049422e+02 0.0 
0.0 0.0 -1.021119434400e+02 
-1.991937205205e+01 2.847071601385e+00 0.0 
2.847071601385e+00 -2.078793078834e+01 0.0 
0.0 0.0 -1.181219085212e+01 
-3.062446347588e+01 1.781838800733e+01 0.0 
1.781838800733e+01 -5.917495815239e+01 0.0 
0.0 0.0 -2.653982648848e+01 
-3.647969725652e+01 1.800824879169e+01 0.0 
1.800824879169e+01 -7.673021619394e+01 0.0 
0.0 0.0 -3.356297403514e+01 
-6.044198059019e+01 2.006425778086e+01 0.0 
2.006425778086e+01 -1.223453543587e+02 0.0 
0.0 0.0 -5.443620048468e+01 
-1.037428575977e+02 1.451267397968e+01 0.0 
1.451267397968e+01 -2.136496109668e+02 0.0 
0.0 0.0 -9.481774056937e+01 
-2.213286305475e+01 4.589333084897e+00 0.0 
4.589333084897e+00 -5.870531570003e+01 0.0 
0.0 0.0 -2.385145362644e+01 
-1.118881993236e+02 1.015777132769e+01 0.0 
1.015777132769e+01 -2.892419541631e+02 0.0 
0.0 0.0 -1.199390460460e+02 
-5.309179275542e+01 1.138570096372e+00 0.0 
1.138570096372e+00 -1.015007127230e+02 0.0 
0.0 0.0 -4.597775164354e+01 
-4.305787654652e+01 1.275881789974e+01 0.0 
1.275881789974e+01 -1.278835915605e+02 0.0 
0.0 0.0 -5.088244043210e+01 
-1.075259735118e+02 8.706476637067e+00 0.0 
8.706476637067e+00 -2.807391735155e+02 0.0 
0.0 0.0 -1.160795441082e+02 
-1.278173780148e+01 -6.202404650592e-01 0.0 
-6.202404650592e-01 -2.862638285502e+01 0.0 
0.0 0.0 -1.202243619695e+01 
-9.308910417791e+01 8.577220674096e+00 0.0 
8.577220674096e+00 -1.887093005230e+02 0.0 
0.0 0.0 -8.413952141028e+01 
-1.217754648996e+01 -1.152419606366e+00 0.0 
-1.152419606366e+00 -2.416175405922e+01 0.0 
0.0 0.0 -1.050179016475e+01 
-1.635443548698e+01 -1.167004937129e+00 0.0 
-1.167004937129e+00 -4.298983442820e+01 0.0 
0.0 0.0 -1.740328097456e+01 
-2.291837403528e+01 1.507294940106e+01 0.0 
1.507294940106e+01 -3.557530373229e+01 0.0 
0.0 0.0 -1.714810333027e+01 
-3.843629078210e+01 -2.662475621897e+00 0.0 
-2.662475621897e+00 -1.074827389387e+02 0.0 
0.0 0.0 -4.337570891625e+01 
-9.855537078161e+01 1.059853587582e+01 0.0 
1.059853587582e+01 -1.998477499587e+02 0.0 
0.0 0.0 -8.912093622208e+01 
-3.718813427348e+01 -1.774273390794e+00 0.0 
-1.774273390794e+00 -1.009335854178e+02 0.0 
0.0 0.0 -4.103651590738e+01 
-2.526222517750e+01 1.277135702199e+01 0.0 
1.277135702199e+01 -6.442233100363e+01 0.0 
0.0 0.0 -2.650536685434e+01 
-2.958839334702e+01 -1.836314411820e+00 0.0 
-1.836314411820e+00 -7.814862894115e+01 0.0 
0.0 0.0 -3.192110668645e+01 
-2.635108849219e+01 -2.910260159534e+00 0.0 
-2.910260159534e+00 -6.865144505903e+01 0.0 
0.0 0.0 -2.810076006537e+01 
-1.188833624764e+02 1.181441178683e+01 0.0 
1.181441178683e+01 -3.040775216161e+02 0.0 
0.0 0.0 -1.264882652277e+02 
-6.629071966669e+01 1.208139298188e+01 0.0 
1.208139298188e+01 -1.131625978771e+02 0.0 
0.0 0.0 -5.343599526313e+01 
-1.501438051053e+02 1.813798464657e+00 0.0 
1.813798464657e+00 -3.609356590172e+02 0.0 
0.0 0.0 -1.529238392367e+02 
-1.575053778805e+01 1.711125583578e+00 0.0 
1.711125583578e+00 -8.606136941978e+00 0.0 
0.0 0.0 -7.848701943861e+00 
-2.890941886814e+01 1.308370557603e+01 0.0 
1.308370557603e+01 -8.089806718596e+01 0.0 
0.0 0.0 -3.254224581623e+01 
-5.001890243160e+01 1.323003346536e+01 0.0 
1.323003346536e+01 -1.455577828874e+02 0.0 
0.0 0.0 -5.827300559570e+01 
-4.032351287092e+01 1.393250301377e+01 0.0 
1.393250301377e+01 -6.398298327012e+01 0.0 
0.0 0.0 -3.089194884231e+01 
-1.100132987297e+02 8.873125600942e+00 0.0 
8.873125600942e+00 -2.883142643194e+02 0.0 
0.0 0.0 -1.190982689147e+02 
-1.525107869768e+02 3.575989421786e+00 0.0 
3.575989421786e+00 -3.663045361975e+02 0.0 
0.0 0.0 -1.552445969523e+02 
-9.662520929465e+01 1.338716748228e+01 0.0 
1.338716748228e+01 -1.926291893166e+02 0.0 
0.0 0.0 -8.637631958338e+01 
-3.595012738314e+01 9.554481162798e+00 0.0 
9.554481162798e+00 -1.063158257456e+02 0.0 
0.0 0.0 -4.227978593862e+01 
-1.205740285091e+02 1.299114971710e+01 0.0 
1.299114971710e+01 -3.048136426714e+02 0.0 
0.0 0.0 -1.272163013541e+02 
-1.068305351002e+02 -6.304798824300e-01 0.0 
-6.304798824300e-01 -2.736757943613e+02 0.0 
0.0 0.0 -1.137518988384e+02 
-6.517628633521e+01 1.906996053326e+01 0.0 
1.906996053326e+01 -1.272854052387e+02 0.0 
0.0 0.0 -5.733850747216e+01 
-8.989977874662e+01 8.879678702555e+00 0.0 
8.879678702555e+00 -1.789705045163e+02 0.0 
0.0 0.0 -8.026108497888e+01 
-1.299331721550e+02 2.168766386891e+01 0.0 
2.168766386891e+01 -3.072309589789e+02 0.0 
0.0 0.0 -1.307492393402e+02 
-5.113132694499e+01 1.346090611151e+01 0.0 
1.346090611151e+01 -1.460782066469e+02 0.0 
0.0 0.0 -5.876286007756e+01 
-2.758875824306e+01 1.386009127623e+01 0.0 
1.386009127623e+01 -6.759498224164e+01 0.0 
0.0 0.0 -2.815512214541e+01 
-7.798681990832e+01 1.198891250729e+01 0.0 
1.198891250729e+01 -1.424760267268e+02 0.0 
0.0 0.0 -6.573885399052e+01 
-1.187777241369e+02 7.738251881215e+00 0.0 
7.738251881215e+00 -2.733791500624e+02 0.0 
0.0 0.0 -1.172470622598e+02 
-6.373609675696e+01 2.042015778888e+01 0.0 
2.042015778888e+01 -1.377970258205e+02 0.0 
0.0 0.0 -6.005993677325e+01 
-6.999667206478e+01 1.364395837452e+01 0.0 
1.364395837452e+01 -1.934872390894e+02 0.0 
0.0 0.0 -7.864517334625e+01 
-6.087468795230e+01 5.755188021429e-01 0.0 
5.755188021429e-01 -1.212556722899e+02 0.0 
0.0 0.0 -5.423910807266e+01 
-2.495291401107e+01 -2.396284322651e+00 0.0 
-2.396284322651e+00 -5.742004309902e+01 0.0 
0.0 0.0 -2.431188713303e+01 
-6.757690857428e+01 7.495982416557e+00 0.0 
7.495982416557e+00 -1.202769203920e+02 0.0 
0.0 0.0 -5.595614868987e+01 
-3.442272008499e+01 1.012054552323e+01 0.0 
1.012054552323e+01 -1.057906111960e+02 0.0 
0.0 0.0 -4.166399938430e+01 
-2.590465168298e+01 5.230672612627e+00 0.0 
5.230672612627e+00 -7.644751413178e+01 0.0 
0.0 0.0 -3.030564974443e+01 
-2.407635399497e+01 -1.372419516694e+00 0.0 
-1.372419516694e+00 -6.111566392957e+01 0.0 
0.0 0.0 -2.515760537736e+01 
-9.603523957811e+01 8.306955048070e+00 0.0 
8.306955048070e+00 -1.983538627477e+02 0.0 
0.0 0.0 -8.791673069775e+01 
-7.434188276347e+01 1.305846088749e+01 0.0 
1.305846088749e+01 -1.341732216411e+02 0.0 
0.0 0.0 -6.215453132137e+01 
-3.995805959935e+01 1.673319100255e+01 0.0 
1.673319100255e+01 -1.057486629968e+02 0.0 
0.0 0.0 -4.331201677884e+01 
-1.013466048226e+02 1.022023480726e+01 0.0 
1.022023480726e+01 -2.095162356405e+02 0.0 
0.0 0.0 -9.285885213892e+01 
-1.005357231763e+02 1.507224536972e+01 0.0 
1.507224536972e+01 -2.046005662273e+02 0.0 
0.0 0.0 -9.114088682108e+01 
-6.976807574076e+01 1.778582742802e+01 0.0 
1.778582742802e+01 -1.330747123609e+02 0.0 
0.0 0.0 -6.045283643050e+01 
-1.539963073212e+02 5.504275341707e+00 0.0 
5.504275341707e+00 -3.657337450018e+02 0.0 
0.0 0.0 -1.555190156969e+02 
-7.330381846253e+01 1.214257343810e+01 0.0 
1.214257343810e+01 -2.050002114125e+02 0.0 
0.0 0.0 -8.309120896251e+01 
-7.412631480561e+01 1.642488577220e+01 0.0 
1.642488577220e+01 -1.395839151266e+02 0.0 
0.0 0.0 -6.371306897967e+01 
-5.438772231801e+01 1.809072826413e+01 0.0 
1.809072826413e+01 -1.415668305657e+02 0.0 
0.0 0.0 -5.838636586511e+01 
-7.811789568283e+01 1.434844044074e+01 0.0 
1.434844044074e+01 -2.113294915174e+02 0.0 
0.0 0.0 -8.643421616006e+01 
-3.010863815575e+01 5.808791300272e+00 0.0 
5.808791300272e+00 -9.356941834783e+01 0.0 
0.0 0.0 -3.670341695107e+01 
-5.993294005443e+01 2.497543694126e+00 0.0 
2.497543694126e+00 -1.058430824607e+02 0.0 
0.0 0.0 -4.933280675455e+01 
-5.494910004109e+01 1.218763937713e+01 0.0 
1.218763937713e+01 -1.583321375091e+02 0.0 
0.0 0.0 -6.358437126505e+01 
-4.184830685712e+01 2.503317848926e+00 0.0 
2.503317848926e+00 -1.244651253912e+02 0.0 
0.0 0.0 -4.949402967451e+01 
-9.412357023691e+01 1.067353646701e+01 0.0 
1.067353646701e+01 -1.908381434087e+02 0.0 
0.0 0.0 -8.508851409367e+01 
-2.073485403095e+01 8.045994268220e-01 0.0 
8.045994268220e-01 -6.225429362404e+00 0.0 
0.0 0.0 -7.688085018006e+00 
-7.364543140370e+01 9.950155645020e+00 0.0 
9.950155645020e+00 -1.309198089350e+02 0.0 
0.0 0.0 -6.096957210161e+01 
-3.759698827683e+01 8.698521382901e+00 0.0 
8.698521382901e+00 -1.173299549006e+02 0.0 
0.0 0.0 -4.607808295324e+01 
-3.004348230801e+01 1.244049796220e+01 0.0 
1.244049796220e+01 -8.125168420643e+01 0.0 
0.0 0.0 -3.298854995433e+01 
-3.211952485299e+01 5.138428377891e+00 0.0 
5.138428377891e+00 -9.425635762080e+01 0.0 
0.0 0.0 -3.751276474214e+01 
-8.031906099673e+01 1.090594543052e+01 0.0 
1.090594543052e+01 -1.533342805288e+02 0.0 
0.0 0.0 -6.969600245766e+01 
-1.925736821631e+01 -1.892090270999e+00 0.0 
-1.892090270999e+00 -4.144005649822e+01 0.0 
0.0 0.0 -1.780922741436e+01 
-4.052345686937e+01 1.780247588637e+01 0.0 
1.780247588637e+01 -7.921748162672e+01 0.0 
0.0 0.0 -3.552228154883e+01 
-8.162038865328e+01 1.278323344480e+01 0.0 
1.278323344480e+01 -2.229867631773e+02 0.0 
0.0 0.0 -9.098214554917e+01 
-7.237592401898e+01 9.741648400266e+00 0.0 
9.741648400266e+00 -1.325196345159e+02 0.0 
0.0 0.0 -6.106866756045e+01 
-6.783351160602e+01 4.093739046230e+00 0.0 
4.093739046230e+00 -1.240625164196e+02 0.0 
0.0 0.0 -5.716880840767e+01 
-2.148297837269e+01 3.051073824007e+00 0.0 
3.051073824007e+00 -5.165500633605e+01 0.0 
0.0 0.0 -2.154139541262e+01 
-3.961759136302e+01 2.528985122533e+00 0.0 
2.528985122533e+00 -1.235256055145e+02 0.0 
0.0 0.0 -4.854295906327e+01 
-3.945426902750e+01 1.064846602739e+00 0.0 
1.064846602739e+00 -1.157245401615e+02 0.0 
0.0 0.0 -4.615364275671e+01 
-3.369985690726e+01 1.983139625709e+01 0.0 
1.983139625709e+01 -6.023148202662e+01 0.0 
0.0 0.0 -2.777940168016e+01 
-9.248005119156e+01 1.165764060398e+01 0.0 
1.165764060398e+01 -1.808042887404e+02 0.0 
0.0 0.0 -8.158530197957e+01 
-4.055670724214e+01 2.041619885300e+01 0.0 
2.041619885300e+01 -7.979175948325e+01 0.0 
0.0 0.0 -3.570454001762e+01 
-5.045498704316e+01 1.015526704948e+01 0.0 
1.015526704948e+01 -1.519860003717e+02 0.0 
0.0 0.0 -6.033229622446e+01 
-4.669729989050e+01 1.142304814427e+01 0.0 
1.142304814427e+01 -1.402620272060e+02 0.0 
0.0 0.0 -5.568779812896e+01 
-2.401596305567e+01 3.726168303961e+00 0.0 
3.726168303961e+00 -5.903597289215e+01 0.0 
0.0 0.0 -2.451558078435e+01 
-5.789195330647e+01 1.626806832539e+01 0.0 
1.626806832539e+01 -1.550565928863e+02 0.0 
0.0 0.0 -6.348456385784e+01 
-2.327956941370e+01 1.153310653804e+01 0.0 
1.153310653804e+01 -4.843415054655e+01 0.0 
0.0 0.0 -2.111411598808e+01 
-1.238339495698e+02 1.479494742073e+01 0.0 
1.479494742073e+01 -2.816755308237e+02 0.0 
0.0 0.0 -1.212528441180e+02 
-1.252973999014e+02 1.769501767912e+01 0.0 
1.769501767912e+01 -2.860071642181e+02 0.0 
0.0 0.0 -1.229913692359e+02 
-6.797217938053e+01 1.843608458793e+01 0.0 
1.843608458793e+01 -1.529990640799e+02 0.0 
0.0 0.0 -6.589137303814e+01 
-3.218404994430e+01 7.967672367400e+00 0.0 
7.967672367400e+00 -1.001722359390e+02 0.0 
0.0 0.0 -3.930688576499e+01 
-2.836220038951e+01 1.021982954319e+01 0.0 
1.021982954319e+01 -7.725497759037e+01 0.0 
0.0 0.0 -3.128515339396e+01 
-7.726664111485e+01 1.495675067482e+01 0.0 
1.495675067482e+01 -1.527860660346e+02 0.0 
0.0 0.0 -6.861581214485e+01 
-3.102715717994e+01 8.725424454119e+00 0.0 
8.725424454119e+00 -8.935508894249e+01 0.0 
0.0 0.0 -3.571467383673e+01 
-3.728916678062e+01 9.013135569000e-01 0.0 
9.013135569000e-01 -1.147709550215e+02 0.0 
0.0 0.0 -4.521803654064e+01 
-6.547834809801e+01 1.589171078294e+01 0.0 
1.589171078294e+01 -1.266028211721e+02 0.0 
0.0 0.0 -5.722435078104e+01 
-1.122201022107e+02 5.234156889342e+00 0.0 
5.234156889342e+00 -2.543408612745e+02 0.0 
0.0 0.0 -1.095682890456e+02 
-4.017044292674e+01 1.076496112769e+01 0.0 
1.076496112769e+01 -1.229001980971e+02 0.0 
0.0 0.0 -4.852119230715e+01 
-8.986113055770e+01 1.544050744451e+01 0.0 
1.544050744451e+01 -2.345065224361e+02 0.0 
0.0 0.0 -9.691029589814e+01 
-2.386145301701e+01 1.090925275289e+01 0.0 
1.090925275289e+01 -6.063264866160e+01 0.0 
0.0 0.0 -2.494823050358e+01 
-1.529585730515e+02 1.589006975411e+01 0.0 
1.589006975411e+01 -3.650424069411e+02 0.0 
0.0 0.0 -1.550002939978e+02 
-2.946637830727e+01 9.517362844258e+00 0.0 
9.517362844258e+00 -8.887774705631e+01 0.0 
0.0 0.0 -3.510323760907e+01 
-6.906996137933e+01 1.724273620886e+01 0.0 
1.724273620886e+01 -1.420742195476e+02 0.0 
0.0 0.0 -6.294325427809e+01 
-2.435290439568e+01 3.195831898961e+00 0.0 
3.195831898961e+00 -6.902143212168e+01 0.0 
0.0 0.0 -2.761230095521e+01 
-9.101939235978e+01 8.998233715420e+00 0.0 
8.998233715420e+00 -2.488679761286e+02 0.0 
0.0 0.0 -1.015662105465e+02 
-5.382550184371e+01 1.198096418774e+01 0.0 
1.198096418774e+01 -1.578092582020e+02 0.0 
0.0 0.0 -6.309042801370e+01 
-4.069106501334e+01 3.982581358604e-01 0.0 
3.982581358604e-01 -1.242234145725e+02 0.0 
0.0 0.0 -4.907434387576e+01 
-7.044001297223e+01 1.443629391448e+01 0.0 
1.443629391448e+01 -1.261417078811e+02 0.0 
0.0 0.0 -5.857451625600e+01 
-1.300092352986e+02 2.170220151080e+01 0.0 
2.170220151080e+01 -2.989336606079e+02 0.0 
0.0 0.0 -1.282828687720e+02 
-4.371247930626e+01 9.443443167147e+00 0.0 
9.443443167147e+00 -1.345900452494e+02 0.0 
0.0 0.0 -5.309075736670e+01 
-8.264120038130e+01 1.352922618362e+01 0.0 
1.352922618362e+01 -2.235704522475e+02 0.0 
0.0 0.0 -9.146349578865e+01 
-2.474186594472e+01 9.634281243028e+00 0.0 
9.634281243028e+00 -6.075732612854e+01 0.0 
0.0 0.0 -2.524975762198e+01 
-7.880422558463e+01 2.912852575331e+00 0.0 
2.912852575331e+00 -1.573296289378e+02 0.0 
0.0 0.0 -7.044015635673e+01 
-1.057012500674e+02 7.491605222610e+00 0.0 
7.491605222610e+00 -2.797435257770e+02 0.0 
0.0 0.0 -1.152334327533e+02 
-2.945649247649e+01 1.575466739259e+01 0.0 
1.575466739259e+01 -7.035416690966e+01 0.0 
0.0 0.0 -2.954319781585e+01 
-7.638967648936e+01 3.964796717267e+00 0.0 
3.964796717267e+00 -1.491049242345e+02 0.0 
0.0 0.0 -6.724838021716e+01 
-1.345447979712e+02 2.414168917455e+01 0.0 
2.414168917455e+01 -3.128118171314e+02 0.0 
0.0 0.0 -1.338069845308e+02 
-1.154865742593e+02 8.512062161271e+00 0.0 
8.512062161271e+00 -2.986394926880e+02 0.0 
0.0 0.0 -1.238378200842e+02 
-1.287371615295e+02 2.046026846559e+01 0.0 
2.046026846559e+01 -2.945232900543e+02 0.0 
0.0 0.0 -1.265781354751e+02 
-7.762440494997e+01 5.160403413755e+00 0.0 
5.160403413755e+00 -1.481765009863e+02 0.0 
0.0 0.0 -6.734027178089e+01 
-1.004912628756e+02 1.715306266556e+01 0.0 
1.715306266556e+01 -2.085164411830e+02 0.0 
0.0 0.0 -9.230231121758e+01 
-2.581414817250e+01 1.503892894148e+01 0.0 
1.503892894148e+01 -5.313181522626e+01 0.0 
0.0 0.0 -2.328378901963e+01 
-6.252412721369e+01 1.356330846440e+01 0.0 
1.356330846440e+01 -1.054223796962e+02 0.0 
0.0 0.0 -4.998395207297e+01 
-7.332576761009e+01 1.310534954035e+01 0.0 
1.310534954035e+01 -1.385662436632e+02 0.0 
0.0 0.0 -6.316760338198e+01 
-7.821004897418e+01 1.511700259575e+01 0.0 
1.511700259575e+01 -1.468660731018e+02 0.0 
0.0 0.0 -6.712283662281e+01 
-5.919789583886e+01 2.049623592252e+01 0.0 
2.049623592252e+01 -1.340015421851e+02 0.0 
0.0 0.0 -5.755983140720e+01 
-1.379315337418e+02 2.472823147658e+01 0.0 
2.472823147658e+01 -3.230950346867e+02 0.0 
0.0 0.0 -1.379079705286e+02 
-7.426500826334e+01 4.823448203358e+00 0.0 
4.823448203358e+00 -1.387234563069e+02 0.0 
0.0 0.0 -6.349653937106e+01 
-6.548101482004e+01 8.535311142332e+00 0.0 
8.535311142332e+00 -1.109455201650e+02 0.0 
0.0 0.0 -5.252796049552e+01 
-4.802290351533e+01 1.136992189341e+01 0.0 
1.136992189341e+01 -1.408123942464e+02 0.0 
0.0 0.0 -5.625058932851e+01 
-3.232105883802e+01 -2.908097177550e+00 0.0 
-2.908097177550e+00 -8.825347120234e+01 0.0 
0.0 0.0 -3.577235901211e+01 
-5.814813570361e+01 1.085999667858e+01 0.0 
1.085999667858e+01 -9.284206473678e+01 0.0 
0.0 0.0 -4.489706013212e+01 
-3.085286303054e+01 1.475595146128e+01 0.0 
1.475595146128e+01 -8.425958693050e+01 0.0 
0.0 0.0 -3.413373498831e+01 
-5.350042544488e+01 2.943385400746e-01 0.0 
2.943385400746e-01 -1.036796710854e+02 0.0 
0.0 0.0 -4.675402895907e+01 
-4.287831298445e+01 6.031207577531e-01 0.0 
6.031207577531e-01 -1.251944917637e+02 0.0 
0.0 0.0 -5.002184142444e+01 
-4.165512893125e+01 1.047028799572e+01 0.0 
1.047028799572e+01 -1.234701101439e+02 0.0 
0.0 0.0 -4.913757172256e+01 
-9.720013942584e+01 1.020079437721e+01 0.0 
1.020079437721e+01 -2.000915384935e+02 0.0 
0.0 0.0 -8.878750337581e+01 
-3.205253887027e+01 1.460123861168e+01 0.0 
1.460123861168e+01 -8.474074095690e+01 0.0 
0.0 0.0 -3.463798394815e+01 
-6.529356819930e+01 1.227993915453e+01 0.0 
1.227993915453e+01 -1.176624548087e+02 0.0 
0.0 0.0 -5.448680690241e+01 
-8.602281526276e+01 1.194725817663e+01 0.0 
1.194725817663e+01 -2.345375808515e+02 0.0 
0.0 0.0 -9.576811883427e+01 
-8.036340927827e+01 3.019401674971e+00 0.0 
3.019401674971e+00 -2.245071337295e+02 0.0 
0.0 0.0 -9.106116290233e+01 
-1.433019145373e+02 2.364276433094e+01 0.0 
2.364276433094e+01 -3.386851053183e+02 0.0 
0.0 0.0 -1.441961059567e+02 
-5.017228277574e+01 1.445260765107e+01 0.0 
1.445260765107e+01 -7.732411576635e+01 0.0 
0.0 0.0 -3.784891956263e+01 
-3.620650738064e+01 3.412458354433e+00 0.0 
3.412458354433e+00 -1.137249355955e+02 0.0 
0.0 0.0 -4.457943289285e+01 
-5.666316188152e+01 2.081755689459e-01 0.0 
2.081755689459e-01 -1.600584360381e+02 0.0 
0.0 0.0 -6.461647937588e+01 
-2.856977419913e+01 1.769559202898e+01 0.0 
1.769559202898e+01 -5.590959465974e+01 0.0 
0.0 0.0 -2.494381065766e+01 
-2.835164300609e+01 1.571538939004e+01 0.0 
1.571538939004e+01 -6.987721140565e+01 0.0 
0.0 0.0 -2.906865632352e+01 
-1.074350889949e+02 1.605978651285e+01 0.0 
1.605978651285e+01 -2.257380175195e+02 0.0 
0.0 0.0 -9.955193195432e+01 
-7.304787233539e+01 1.905912063599e+01 0.0 
1.905912063599e+01 -1.475429333669e+02 0.0 
0.0 0.0 -6.577724171069e+01 
-4.101718271213e+01 1.870033199282e+01 0.0 
1.870033199282e+01 -6.484540952524e+01 0.0 
0.0 0.0 -3.135877767121e+01 
-5.699677784837e+01 1.120608249676e+01 0.0 
1.120608249676e+01 -9.662026531415e+01 0.0 
0.0 0.0 -4.568511294876e+01 
-1.486531688937e+02 1.968096242236e+01 0.0 
1.968096242236e+01 -3.548822770392e+02 0.0 
0.0 0.0 -1.506606337799e+02 
-1.383117799245e+02 1.929795666146e+01 0.0 
1.929795666146e+01 -3.344622592520e+02 0.0 
0.0 0.0 -1.414322117530e+02 
-1.051455162757e+02 1.348837105415e+01 0.0 
1.348837105415e+01 -2.239756208080e+02 0.0 
0.0 0.0 -9.833634112512e+01 
-9.574482305150e+01 1.109041900554e+01 0.0 
1.109041900554e+01 -1.904577622877e+02 0.0 
0.0 0.0 -8.546077560177e+01 
-7.786694822390e+01 4.176283196858e+00 0.0 
4.176283196858e+00 -2.161270712344e+02 0.0 
0.0 0.0 -8.779820583748e+01 
-4.407671114433e+01 2.038564525448e+01 0.0 
2.038564525448e+01 -9.624003499954e+01 0.0 
0.0 0.0 -4.169502384316e+01 
-3.399742280496e+01 7.315641579095e+00 0.0 
7.315641579095e+00 -1.007922336775e+02 0.0 
0.0 0.0 -4.003689694475e+01 
-3.933044922355e+01 8.272275694911e+00 0.0 
8.272275694911e+00 -1.179711560224e+02 0.0 
0.0 0.0 -4.679048157379e+01 
-6.840187639193e+01 1.992382068083e+01 0.0 
1.992382068083e+01 -1.423569553669e+02 0.0 
0.0 0.0 -6.282764952764e+01 
-8.791735878658e+01 1.046539772463e+01 0.0 
1.046539772463e+01 -2.391855568811e+02 0.0 
0.0 0.0 -9.773087470031e+01 
-7.146516561460e+01 7.657654875517e-01 0.0 
7.657654875517e-01 -1.943822735889e+02 0.0 
0.0 0.0 -7.935423176104e+01 
-1.040417170775e+02 1.149553907154e+01 0.0 
1.149553907154e+01 -2.210405305658e+02 0.0 
0.0 0.0 -9.712467429300e+01 
-3.842097248447e+01 3.151652258001e+00 0.0 
3.151652258001e+00 -1.146049367391e+02 0.0 
0.0 0.0 -4.550777276708e+01 
-5.488827186496e+01 2.000889795931e+01 0.0 
2.000889795931e+01 -1.306207089997e+02 0.0 
0.0 0.0 -5.525269425940e+01 
-6.944714084442e+01 1.444219744528e+01 0.0 
1.444219744528e+01 -1.320178845486e+02 0.0 
0.0 0.0 -6.003950761790e+01 
-4.748634071114e+01 1.987050624713e+01 0.0 
1.987050624713e+01 -1.121905491106e+02 0.0 
0.0 0.0 -4.750306694653e+01 
-1.277548733795e+02 1.919841290831e+01 0.0 
1.919841290831e+01 -2.905324846713e+02 0.0 
0.0 0.0 -1.250862074152e+02 
-1.238914532487e+02 1.594209891482e+01 0.0 
1.594209891482e+01 -2.832417586916e+02 0.0 
0.0 0.0 -1.217399635821e+02 
-1.191005636742e+02 1.642592736366e+01 0.0 
1.642592736366e+01 -2.628341182936e+02 0.0 
0.0 0.0 -1.141804045903e+02 
-8.592164130414e+01 5.225721323045e+00 0.0 
5.225721323045e+00 -2.346050769940e+02 0.0 
0.0 0.0 -9.575801548945e+01 
-9.886954550029e+01 8.040651220428e+00 0.0 
8.040651220428e+00 -2.080641288015e+02 0.0 
0.0 0.0 -9.168010229055e+01 
-2.674363213858e+01 1.437747601427e+01 0.0 
1.437747601427e+01 -6.732103798147e+01 0.0 
0.0 0.0 -2.781940103602e+01 
-4.531883430055e+01 9.235816460746e+00 0.0 
9.235816460746e+00 -1.352250895349e+02 0.0 
0.0 0.0 -5.376317715063e+01 
-2.781221965389e+01 4.256389267317e+00 0.0 
4.256389267317e+00 -7.701613442263e+01 0.0 
0.0 0.0 -3.104850622296e+01 
-4.460166688700e+01 2.007623432291e+01 0.0 
2.007623432291e+01 -8.232061906427e+01 0.0 
0.0 0.0 -3.767668578538e+01 
-5.955249689392e+01 2.132916340334e+00 0.0 
2.132916340334e+00 -1.055540955743e+02 0.0 
0.0 0.0 -4.913197774046e+01 
-7.527532798889e+01 2.849609376873e+00 0.0 
2.849609376873e+00 -1.468621353782e+02 0.0 
0.0 0.0 -6.624123901012e+01 
-1.429676331926e+02 1.542781729685e+01 0.0 
1.542781729685e+01 -3.478983602356e+02 0.0 
0.0 0.0 -1.468597980285e+02 
-1.055354112772e+02 1.537861281322e+01 0.0 
1.537861281322e+01 -2.277568864570e+02 0.0 
0.0 0.0 -9.958768932025e+01 
-7.591536855908e+01 8.871779569925e+00 0.0 
8.871779569925e+00 -1.409169196880e+02 0.0 
0.0 0.0 -6.464968647413e+01 
-8.097208863294e+01 1.382017863320e+01 0.0 
1.382017863320e+01 -1.592262325971e+02 0.0 
0.0 0.0 -7.165949636900e+01 
-2.834851492015e+01 3.804383695182e+00 0.0 
3.804383695182e+00 -8.637349911079e+01 0.0 
0.0 0.0 -3.401660420928e+01 
-2.092299269634e+01 -2.417082043228e+00 0.0 
-2.417082043228e+00 -4.209671064043e+01 0.0 
0.0 0.0 -1.850591100103e+01 
-5.373809331058e+01 1.486044939584e+01 0.0 
1.486044939584e+01 -1.504246015866e+02 0.0 
0.0 0.0 -6.084880846915e+01 
-6.263009386811e+01 2.002293573946e+01 0.0 
2.002293573946e+01 -1.490869508907e+02 0.0 
0.0 0.0 -6.311511342765e+01 
-5.807370907535e+01 1.695777674718e+01 0.0 
1.695777674718e+01 -1.552747575708e+02 0.0 
0.0 0.0 -6.360453999386e+01 
-2.108960659104e+01 1.178987826835e+01 0.0 
1.178987826835e+01 -2.978164684887e+01 0.0 
0.0 0.0 -1.486137603197e+01 
-5.999765923656e+01 -9.647676504116e-03 0.0 
-9.647676504116e-03 -1.202652208601e+02 0.0 
0.0 0.0 -5.367886402900e+01 
-3.082057684504e+01 -1.940040874986e+00 0.0 
-1.940040874986e+00 -8.111971572417e+01 0.0 
0.0 0.0 -3.318208777077e+01 
-3.150801423410e+01 1.157947939708e+01 0.0 
1.157947939708e+01 -9.367062904519e+01 0.0 
0.0 0.0 -3.715359298379e+01 
-1.559512863852e+02 1.583544592329e+01 0.0 
1.583544592329e+01 -3.652196682321e+02 0.0 
0.0 0.0 -1.559512863852e+02 
-9.543420285528e+01 1.582620219449e+01 0.0 
1.582620219449e+01 -2.479902851179e+02 0.0 
0.0 0.0 -1.026273463919e+02 
-6.261781636448e+01 5.376086430848e+00 0.0 
5.376086430848e+00 -1.091746527029e+02 0.0 
0.0 0.0 -5.113774072023e+01 
-2.248241632358e+01 -8.442039874652e-01 0.0 
-8.442039874652e-01 -5.925896742538e+01 0.0 
0.0 0.0 -2.412241512469e+01 
-6.007527658799e+01 1.859350026035e+01 0.0 
1.859350026035e+01 -1.340004649682e+02 0.0 
0.0 0.0 -5.782272246685e+01 
-5.444841883946e+01 1.530308604803e+01 0.0 
1.530308604803e+01 -1.508153225825e+02 0.0 
0.0 0.0 -6.117912242659e+01 
-8.198929070706e+01 1.398778859006e+01 0.0 
1.398778859006e+01 -1.546046485893e+02 0.0 
0.0 0.0 -7.057818178890e+01 
-1.312196714109e+02 2.251235149616e+01 0.0 
2.251235149616e+01 -3.033042861650e+02 0.0 
0.0 0.0 -1.299571872728e+02 
-6.069906156356e+01 9.728487641470e+00 0.0 
9.728487641470e+00 -1.040260297342e+02 0.0 
0.0 0.0 -4.901752738932e+01 
-7.750782518313e+01 1.800175735525e+01 0.0 
1.800175735525e+01 -1.534485530872e+02 0.0 
0.0 0.0 -6.888691348110e+01 
-6.998575512838e+01 -5.217324959098e-01 0.0 
-5.217324959098e-01 -1.934791036121e+02 0.0 
0.0 0.0 -7.863945762214e+01 
-1.001342473599e+02 9.909789706174e+00 0.0 
9.909789706174e+00 -2.095046519351e+02 0.0 
0.0 0.0 -9.249166978849e+01 
-8.871090809734e+01 3.972676563577e+00 0.0 
3.972676563577e+00 -2.432312882206e+02 0.0 
0.0 0.0 -9.918265889537e+01 
-1.333747470212e+02 2.364135128910e+01 0.0 
2.364135128910e+01 -3.080303434327e+02 0.0 
0.0 0.0 -1.320215271362e+02 
-1.240688608355e+02 1.878974610887e+01 0.0 
1.878974610887e+01 -2.908273419495e+02 0.0 
0.0 0.0 -1.240688608355e+02 
-1.187791258649e+02 1.341648591992e+01 0.0 
1.341648591992e+01 -2.784846270181e+02 0.0 
0.0 0.0 -1.187791258649e+02 
-1.204142342699e+02 1.603090104100e+01 0.0 
1.603090104100e+01 -2.822998799630e+02 0.0 
0.0 0.0 -1.204142342699e+02 
-8.451363656695e+01 1.280651350734e+01 0.0 
1.280651350734e+01 -1.663186894766e+02 0.0 
0.0 0.0 -7.484969781305e+01 
-1.025891744473e+02 1.220456417096e+01 0.0 
1.220456417096e+01 -2.109764637046e+02 0.0 
0.0 0.0 -9.366969144557e+01 
-1.089617371817e+02 1.515096131462e+01 0.0 
1.515096131462e+01 -2.368901493300e+02 0.0 
0.0 0.0 -1.033555659535e+02 
-4.763397291902e+01 1.850835704709e+01 0.0 
1.850835704709e+01 -1.120157898780e+02 0.0 
0.0 0.0 -4.749492883911e+01 
-4.403172805520e+01 1.846614874923e+01 0.0 
1.846614874923e+01 -9.587475767631e+01 0.0 
0.0 0.0 -4.157194571946e+01 
-6.763899191819e+01 3.511158911817e-01 0.0 
3.511158911817e-01 -1.837745562317e+02 0.0 
0.0 0.0 -7.502406444498e+01 
-1.065669315529e+02 1.395847881094e+01 0.0 
1.395847881094e+01 -2.226333407933e+02 0.0 
0.0 0.0 -9.836008170388e+01 
-1.361630015848e+02 2.459575570383e+01 0.0 
2.459575570383e+01 -3.178336086352e+02 0.0 
0.0 0.0 -1.357989830660e+02 
-1.028408695694e+02 9.532557939740e+00 0.0 
9.532557939740e+00 -2.188547954911e+02 0.0 
0.0 0.0 -9.610869951814e+01 
-8.661851121558e+01 1.507454872988e+01 0.0 
1.507454872988e+01 -2.295443650340e+02 0.0 
0.0 0.0 -9.444886287488e+01 
-1.052312388114e+02 1.173975323211e+01 0.0 
1.173975323211e+01 -2.203013251897e+02 0.0 
0.0 0.0 -9.725976920033e+01 
-9.502904706418e+01 2.012627547287e+01 0.0 
2.012627547287e+01 -2.243896134085e+02 0.0 
0.0 0.0 -9.542559814180e+01 
-5.889539611146e+01 1.811123743810e+01 0.0 
1.811123743810e+01 -1.453712046191e+02 0.0 
0.0 0.0 -6.087998021917e+01 
-4.497990991710e+01 1.684788161555e+01 0.0 
1.684788161555e+01 -8.199832753088e+01 0.0 
0.0 0.0 -3.769347123439e+01 
-2.547381461770e+01 9.054670127642e+00 0.0 
9.054670127642e+00 -7.218670525290e+01 0.0 
0.0 0.0 -2.889815596118e+01 
-1.118647566306e+02 8.190416553938e+00 0.0 
8.190416553938e+00 -2.559940398234e+02 0.0 
0.0 0.0 -1.099576389362e+02 
-4.360097461140e+01 1.788005242501e+01 0.0 
1.788005242501e+01 -1.091316508320e+02 0.0 
0.0 0.0 -4.541978763303e+01 
-1.239199873876e+02 2.095927194511e+01 0.0 
2.095927194511e+01 -2.883016530508e+02 0.0 
0.0 0.0 -1.232664921315e+02 
-6.629821557085e+01 -9.903034042799e-01 0.0 
-9.903034042799e-01 -1.829181102713e+02 0.0 
0.0 0.0 -7.436489775265e+01 
-4.033883513199e+01 -5.069914302430e-01 0.0 
-5.069914302430e-01 -1.155526010720e+02 0.0 
0.0 0.0 -4.636743086121e+01 
-1.468930163239e+02 1.400848692366e+01 0.0 
1.400848692366e+01 -3.511868575341e+02 0.0 
0.0 0.0 -1.490239621574e+02 
-3.380407759840e+01 1.351290736025e+01 0.0 
1.351290736025e+01 -9.776208981216e+01 0.0 
0.0 0.0 -3.906985022317e+01 
-1.259479214992e+02 2.004851494139e+01 0.0 
2.004851494139e+01 -2.952118168315e+02 0.0 
0.0 0.0 -1.259479214992e+02 
-1.163632763747e+02 1.405816513659e+01 0.0 
1.405816513659e+01 -2.640697646797e+02 0.0 
0.0 0.0 -1.137299123163e+02 
-7.680413269983e+01 1.728844380762e+01 0.0 
1.728844380762e+01 -1.619085985803e+02 0.0 
0.0 0.0 -7.121381938403e+01 
-1.427518777160e+01 -1.716702713199e+00 0.0 
-1.716702713199e+00 -2.481273402468e+01 0.0 
0.0 0.0 -1.175342536770e+01 
-1.298550505390e+02 2.192437162868e+01 0.0 
2.192437162868e+01 -3.043284512578e+02 0.0 
0.0 0.0 -1.298550505390e+02 
-1.444324748050e+02 1.656151891751e+01 0.0 
1.656151891751e+01 -3.448443529292e+02 0.0 
0.0 0.0 -1.463830483203e+02 
-3.823837403120e+01 -8.968546598399e-01 0.0 
-8.968546598399e-01 -1.145780303046e+02 0.0 
0.0 0.0 -4.544492130074e+01 
-9.125353498931e+01 1.433299698654e+01 0.0 
1.433299698654e+01 -2.417655541120e+02 0.0 
0.0 0.0 -9.950572673038e+01 
-1.445005046908e+02 2.281396490895e+01 0.0 
2.281396490895e+01 -3.430603398570e+02 0.0 
0.0 0.0 -1.458682533643e+02 
-1.066641119206e+01 -7.011238558478e-01 0.0 
-7.011238558478e-01 -8.891470195532e+00 0.0 
0.0 0.0 -6.437277559066e+00 
-5.119824563085e+01 1.807428611780e+01 0.0 
1.807428611780e+01 -1.273277673796e+02 0.0 
0.0 0.0 -5.315780390313e+01 
-8.094813223492e+01 1.637654076304e+01 0.0 
1.637654076304e+01 -1.672253381519e+02 0.0 
0.0 0.0 -7.405204111604e+01 
-7.246495473725e+01 1.801281198817e+01 0.0 
1.801281198817e+01 -1.572241135700e+02 0.0 
0.0 0.0 -6.850672049218e+01 
-7.325304450471e+01 1.613832221704e+01 0.0 
1.613832221704e+01 -1.470440111230e+02 0.0 
0.0 0.0 -6.568911668832e+01 
-2.705068820789e+01 1.110268563673e+01 0.0 
1.110268563673e+01 -7.688928187741e+01 0.0 
0.0 0.0 -3.078199102559e+01 
-1.343307055478e+02 2.315353041949e+01 0.0 
2.315353041949e+01 -3.147716462781e+02 0.0 
0.0 0.0 -1.343307055478e+02 
-5.188230035991e+01 1.017118812692e+01 0.0 
1.017118812692e+01 -1.525940705796e+02 0.0 
0.0 0.0 -6.094291128186e+01 
-2.305538294816e+01 1.487708303732e+00 0.0 
1.487708303732e+00 -5.194513622873e+01 0.0 
0.0 0.0 -2.210015575307e+01 
-1.511272975716e+02 6.123599046494e+00 0.0 
6.123599046494e+00 -3.642535267211e+02 0.0 
0.0 0.0 -1.542142472878e+02 
-1.629248054515e+01 -1.642959600353e+00 0.0 
-1.642959600353e+00 -2.520846979388e+01 0.0 
0.0 0.0 -1.205028510171e+01 
-5.314712793628e+01 1.299117466010e+01 0.0 
1.299117466010e+01 -9.028729389339e+01 0.0 
0.0 0.0 -4.263032654890e+01 
-2.284729849088e+01 -1.920879320972e+00 0.0 
-1.920879320972e+00 -5.847653294335e+01 0.0 
0.0 0.0 -2.399714943027e+01 
-5.560974584044e+01 6.944780058395e+00 0.0 
6.944780058395e+00 -9.105361218323e+01 0.0 
0.0 0.0 -4.359900740710e+01 
-1.502331134098e+02 1.844725827124e+01 0.0 
1.844725827124e+01 -3.585335149074e+02 0.0 
0.0 0.0 -1.522299884952e+02 
-1.391953669691e+02 2.338501028456e+01 0.0 
2.338501028456e+01 -3.261225229279e+02 0.0 
0.0 0.0 -1.391953669691e+02 
-7.685116462585e+01 1.189962647130e+01 0.0 
1.189962647130e+01 -1.456496242610e+02 0.0 
0.0 0.0 -6.635023666604e+01 
-1.879069424435e+01 -2.177671932035e+00 0.0 
-2.177671932035e+00 -4.191816620442e+01 0.0 
0.0 0.0 -1.781265813463e+01 
-2.021943443153e+01 9.777202612509e-01 0.0 
9.777202612509e-01 -4.283243405376e+01 0.0 
0.0 0.0 -1.851556054559e+01 
-2.563242001901e+01 -2.253217922432e+00 0.0 
-2.253217922432e+00 -5.799329173096e+01 0.0 
0.0 0.0 -2.468771352499e+01 
-1.274246785132e+02 7.218071821198e+00 0.0 
7.218071821198e+00 -3.189063603865e+02 0.0 
0.0 0.0 -1.334993116699e+02 
-5.948715492652e+01 2.364088154996e+00 0.0 
2.364088154996e+00 -1.060191437072e+02 0.0 
0.0 0.0 -4.925188959012e+01 
-6.883156961603e+01 7.948346569515e+00 0.0 
7.948346569515e+00 -1.196707506312e+02 0.0 
0.0 0.0 -5.615069607416e+01 
-1.437883199354e+02 2.278728192210e+01 0.0 
2.278728192210e+01 -3.368394131827e+02 0.0 
0.0 0.0 -1.437883199354e+02 
-5.825679702885e+01 2.064105875083e+00 0.0 
2.064105875083e+00 -1.055914146542e+02 0.0 
0.0 0.0 -4.875446350490e+01 
-1.220646323546e+02 1.317523177696e+01 0.0 
1.317523177696e+01 -2.793917752704e+02 0.0 
0.0 0.0 -1.200369222875e+02 
-9.882232921607e+01 1.829199738321e+01 0.0 
1.829199738321e+01 -2.376475136326e+02 0.0 
0.0 0.0 -1.005409528546e+02 
-7.061334529525e+01 1.864751318313e+00 0.0 
1.864751318313e+00 -1.371344860459e+02 0.0 
0.0 0.0 -6.192434940236e+01 
-3.033368735752e+01 1.705253367465e+01 0.0 
1.705253367465e+01 -7.189483518502e+01 0.0 
0.0 0.0 -3.026855676276e+01 
-9.021558645319e+01 1.341963201843e+01 0.0 
1.341963201843e+01 -2.411423057964e+02 0.0 
0.0 0.0 -9.900736767488e+01 
-2.581875878860e+01 5.652446309243e+00 0.0 
5.652446309243e+00 -6.706193300864e+01 0.0 
0.0 0.0 -2.746420753917e+01 
-1.477835397511e+02 2.139205275185e+01 0.0 
2.139205275185e+01 -3.461615927525e+02 0.0 
0.0 0.0 -1.477835397511e+02 
-1.221693369600e+02 1.733564383592e+01 0.0 
1.733564383592e+01 -2.863951195734e+02 0.0 
0.0 0.0 -1.221693369600e+02 
-1.196917465806e+02 1.477371754614e+01 0.0 
1.477371754614e+01 -2.806140753547e+02 0.0 
0.0 0.0 -1.196917465806e+02 
-9.053936643059e+01 5.032348374116e+00 0.0 
5.032348374116e+00 -2.442317894871e+02 0.0 
0.0 0.0 -1.000313467753e+02 
-6.375700061516e+01 7.464097233490e-02 0.0 
7.464097233490e-02 -1.729632137155e+02 0.0 
0.0 0.0 -7.061606429920e+01 
-5.838148585743e+01 1.925765550626e+01 0.0 
1.925765550626e+01 -1.454050746225e+02 0.0 
0.0 0.0 -6.073596814397e+01 
-9.337911406983e+01 3.716399437253e+00 0.0 
3.716399437253e+00 -2.525662909403e+02 0.0 
0.0 0.0 -1.033836215030e+02 
-1.512101893643e+02 1.945787621472e+01 0.0 
1.945787621472e+01 -3.541571085167e+02 0.0 
0.0 0.0 -1.512101893643e+02 
-3.283333588062e+01 1.097328274341e+01 0.0 
1.097328274341e+01 -9.410318044459e+01 0.0 
0.0 0.0 -3.768095489756e+01 
-4.313428734727e+01 1.826107161031e+00 0.0 
1.826107161031e+00 -1.330705654749e+02 0.0 
0.0 0.0 -5.246145584665e+01 
-4.674171364193e+01 1.306203249459e+00 0.0 
1.306203249459e+00 -1.424023284498e+02 0.0 
0.0 0.0 -5.634321262753e+01 
-7.449129193992e+01 2.041898728670e+00 0.0 
2.041898728670e+00 -1.479839609343e+02 0.0 
0.0 0.0 -6.634257586226e+01 
-1.541755931007e+02 1.461903420316e+01 0.0 
1.461903420316e+01 -3.677712931647e+02 0.0 
0.0 0.0 -1.561840658796e+02 
-2.258024080641e+01 -2.237413293473e+00 0.0 
-2.237413293473e+00 -4.163802702758e+01 0.0 
0.0 0.0 -1.886548035020e+01 
-1.544701950897e+02 1.701284629651e+01 0.0 
1.701284629651e+01 -3.617637885426e+02 0.0 
0.0 0.0 -1.544701950897e+02 
-4.409049488888e+01 -6.885040214850e-02 0.0 
-6.885040214850e-02 -1.331172098196e+02 0.0 
0.0 0.0 -5.276231141255e+01 
-1.280781149918e+02 2.114441937790e+01 0.0 
2.114441937790e+01 -3.001822683141e+02 0.0 
0.0 0.0 -1.280781149918e+02 
-1.112941183336e+02 1.761140023492e+01 0.0 
1.761140023492e+01 -2.384775878957e+02 0.0 
0.0 0.0 -1.045315118688e+02 
-1.232481366982e+01 -6.763351322679e-01 0.0 
-6.763351322679e-01 -7.902357231557e+00 0.0 
0.0 0.0 -5.668151270413e+00 
-5.448768616609e+01 1.724089384957e+01 0.0 
1.724089384957e+01 -1.414248465779e+02 0.0 
0.0 0.0 -5.837375982318e+01 
-1.041157485457e+02 9.887388898668e+00 0.0 
9.887388898668e+00 -2.194730426206e+02 0.0 
0.0 0.0 -9.667663734989e+01 
-1.321770233302e+02 2.271488903583e+01 0.0 
2.271488903583e+01 -3.097463877704e+02 0.0 
0.0 0.0 -1.321770233302e+02 
-8.574234800937e+01 1.577675788218e+01 0.0 
1.577675788218e+01 -1.674002511714e+02 0.0 
0.0 0.0 -7.554277975422e+01 
-1.027334705934e+02 1.807765308481e+01 0.0 
1.807765308481e+01 -2.509835186702e+02 0.0 
0.0 0.0 -1.057150967791e+02 
-2.239681095763e+01 8.815026517641e+00 0.0 
8.815026517641e+00 -5.590792365298e+01 0.0 
0.0 0.0 -2.309142038319e+01 
-1.361343680719e+02 1.490577489282e+01 0.0 
1.490577489282e+01 -3.314451683819e+02 0.0 
0.0 0.0 -1.398738609361e+02 
-4.766249423435e+01 -3.287061489159e-01 0.0 
-3.287061489159e-01 -1.420361336086e+02 0.0 
0.0 0.0 -5.650958835289e+01 
-4.887398241416e+01 1.569985052196e+00 0.0 
1.569985052196e+00 -1.433588016930e+02 0.0 
0.0 0.0 -5.726983523214e+01 
-1.989769240545e+01 -1.778204242394e+00 0.0 
-1.778204242394e+00 -2.582237629525e+01 0.0 
0.0 0.0 -1.331602061021e+01 
-1.367161330989e+02 2.337059455564e+01 0.0 
2.337059455564e+01 -3.203376438975e+02 0.0 
0.0 0.0 -1.367161330989e+02 
-2.942789849372e+01 6.445437362494e+00 0.0 
6.445437362494e+00 -8.374851184533e+01 0.0 
0.0 0.0 -3.355292310171e+01 
-1.216778899702e+02 1.119734241201e+01 0.0 
1.119734241201e+01 -3.082136516463e+02 0.0 
0.0 0.0 -1.285674624850e+02 
-6.759183255271e+01 3.163604201577e+00 0.0 
3.163604201577e+00 -1.277379479886e+02 0.0 
0.0 0.0 -5.819893416238e+01 
-4.376768489532e+01 -1.209434085172e+00 0.0 
-1.209434085172e+00 -1.228017031542e+02 0.0 
0.0 0.0 -4.957081641485e+01 
-4.529237122744e+01 2.007216993726e+00 0.0 
2.007216993726e+00 -1.340236756962e+02 0.0 
0.0 0.0 -5.339481407709e+01 
-8.176863936954e+01 1.685020332117e+01 0.0 
1.685020332117e+01 -1.601511293438e+02 0.0 
0.0 0.0 -7.217593061399e+01 
-1.458669123083e+02 2.224283749477e+01 0.0 
2.224283749477e+01 -3.416894620528e+02 0.0 
0.0 0.0 -1.458669123083e+02 
-6.627901816263e+01 -1.114500394711e+00 0.0 
-1.114500394711e+00 -1.809602661629e+02 0.0 
0.0 0.0 -7.377178529767e+01 
-1.032819623557e+02 7.321076980879e+00 0.0 
7.321076980879e+00 -2.719269952295e+02 0.0 
0.0 0.0 -1.121626872756e+02 
-7.129564271898e+01 1.836385130317e+01 0.0 
1.836385130317e+01 -1.676775307841e+02 0.0 
0.0 0.0 -7.129195205094e+01 
-8.868474125185e+01 8.333318778499e+00 0.0 
8.333318778499e+00 -2.417226723793e+02 0.0 
0.0 0.0 -9.872222408934e+01 
-4.776033982164e+01 3.540709118457e+00 0.0 
3.540709118457e+00 -1.422840658267e+02 0.0 
0.0 0.0 -5.661332169449e+01 
-9.438443374253e+01 6.272942857664e+00 0.0 
6.272942857664e+00 -2.531924431152e+02 0.0 
0.0 0.0 -1.038730630573e+02 
-6.710677807195e+01 2.034184401935e+01 0.0 
2.034184401935e+01 -1.529955115295e+02 0.0 
0.0 0.0 -6.563068688045e+01 
-9.565154293697e+01 2.024356754396e+01 0.0 
2.024356754396e+01 -2.158082874223e+02 0.0 
0.0 0.0 -9.303794910779e+01 
-9.912393167985e+01 1.409563964529e+01 0.0 
1.409563964529e+01 -2.594233152927e+02 0.0 
0.0 0.0 -1.071641740918e+02 
-6.674416080181e+01 1.806437887543e+01 0.0 
1.806437887543e+01 -1.635568701733e+02 0.0 
0.0 0.0 -6.869030929254e+01 
-6.601605676041e+01 -6.126857742785e-01 0.0 
-6.126857742785e-01 -1.846683098140e+02 0.0 
0.0 0.0 -7.480530997231e+01 
-3.489664753438e+01 1.314773653509e+01 0.0 
1.314773653509e+01 -9.815047802388e+01 0.0 
0.0 0.0 -3.951413766748e+01 
-6.256125345250e+01 -1.312693645118e+00 0.0 
-1.312693645118e+00 -1.721581318317e+02 0.0 
0.0 0.0 -7.001581558527e+01 
-9.899756267150e+01 1.991870833132e+01 0.0 
1.991870833132e+01 -2.381311272707e+02 0.0 
0.0 0.0 -1.007386069827e+02 
-7.756357681517e+01 1.122360307449e+01 0.0 
1.122360307449e+01 -2.164766833163e+02 0.0 
0.0 0.0 -8.781207803944e+01 
-1.516805050603e+02 1.727353425206e+01 0.0 
1.727353425206e+01 -3.619666930766e+02 0.0 
0.0 0.0 -1.536941594411e+02 
-1.079766481932e+02 1.133890644018e+01 0.0 
1.133890644018e+01 -2.298256167557e+02 0.0 
0.0 0.0 -1.009406794847e+02 
-3.918694213789e+01 -2.519199688437e+00 0.0 
-2.519199688437e+00 -1.114026418976e+02 0.0 
0.0 0.0 -4.477687521064e+01 
-1.529393301315e+02 1.819899678628e+01 0.0 
1.819899678628e+01 -3.581917703069e+02 0.0 
0.0 0.0 -1.529393301315e+02 
-1.419093636842e+02 1.675416065999e+01 0.0 
1.675416065999e+01 -3.449421169230e+02 0.0 
0.0 0.0 -1.456554441821e+02 
-6.157123659609e+01 1.525670391684e+01 0.0 
1.525670391684e+01 -1.682946629312e+02 0.0 
0.0 0.0 -6.855976985819e+01 
-1.596095036934e+01 -1.732683560680e+00 0.0 
-1.732683560680e+00 -2.540018821401e+01 0.0 
0.0 0.0 -1.238612509670e+01 
-1.552240235480e+02 1.328525925421e+01 0.0 
1.328525925421e+01 -3.701812823939e+02 0.0 
0.0 0.0 -1.572215917826e+02 
-1.089487634518e+02 1.325959542215e+01 0.0 
1.325959542215e+01 -2.312584781369e+02 0.0 
0.0 0.0 -1.016621724766e+02 
-4.154722428462e+01 -1.171950880336e+00 0.0 
-1.171950880336e+00 -1.234323224221e+02 0.0 
0.0 0.0 -4.909386401202e+01 
-1.571285762772e+02 1.461469558013e+01 0.0 
1.461469558013e+01 -3.679666779802e+02 0.0 
0.0 0.0 -1.571285762772e+02 
-9.918640741884e+01 6.035440446514e+00 0.0 
6.035440446514e+00 -2.629481671925e+02 0.0 
0.0 0.0 -1.082403723834e+02 
-4.861961913406e+01 1.813729747191e+01 0.0 
1.813729747191e+01 -9.873654031502e+01 0.0 
0.0 0.0 -4.380684783473e+01 
-7.137298205027e+01 6.876590679297e+00 0.0 
6.876590679297e+00 -1.293405339623e+02 0.0 
0.0 0.0 -5.981405480377e+01 
-7.436581120323e+01 1.272422993632e+01 0.0 
1.272422993632e+01 -2.055569164152e+02 0.0 
0.0 0.0 -8.357681828552e+01 
-8.226454157680e+01 4.032333615057e+00 0.0 
4.032333615057e+00 -2.255236513962e+02 0.0 
0.0 0.0 -9.193645789190e+01 
-9.259652296990e+01 9.883717469415e+00 0.0 
9.883717469415e+00 -2.497417828863e+02 0.0 
0.0 0.0 -1.023014917569e+02 
-8.833860265356e+01 9.877112002356e+00 0.0 
9.877112002356e+00 -1.697908676822e+02 0.0 
0.0 0.0 -7.703884110073e+01 
-5.749660555663e+01 1.548921563733e+01 0.0 
1.548921563733e+01 -1.061824954320e+02 0.0 
0.0 0.0 -4.870373029659e+01 
-1.034713368529e+02 1.540904721611e+01 0.0 
1.540904721611e+01 -2.658565126924e+02 0.0 
0.0 0.0 -1.103983548636e+02 
-6.717661513777e+01 5.203767183914e-01 0.0 
5.203767183914e-01 -1.370549373847e+02 0.0 
0.0 0.0 -6.086946575675e+01 
-6.763216368398e+01 5.934124872373e-01 0.0 
5.934124872373e-01 -1.856128231187e+02 0.0 
0.0 0.0 -7.557349604080e+01 
-9.477067933351e+01 1.269457217171e+01 0.0 
1.269457217171e+01 -2.527173507638e+02 0.0 
0.0 0.0 -1.038464090292e+02 
-4.967865410248e+01 2.136780779144e-01 0.0 
2.136780779144e-01 -1.429922362062e+02 0.0 
0.0 0.0 -5.740126709262e+01 
-9.866006423363e+01 1.375323547319e+00 0.0 
1.375323547319e+00 -2.594163063231e+02 0.0 
0.0 0.0 -1.070229111670e+02 
-1.394057093947e+01 -6.752846140524e-01 0.0 
-6.752846140524e-01 -8.043005246241e+00 0.0 
0.0 0.0 -6.195072855713e+00 
-3.731107356172e+01 1.526501730262e+01 0.0 
1.526501730262e+01 -1.018687254525e+02 0.0 
0.0 0.0 -4.135393970428e+01 
-4.621691839259e+01 3.505089050691e-01 0.0 
3.505089050691e-01 -1.341049526825e+02 0.0 
0.0 0.0 -5.369656132253e+01 
-7.398850620584e+01 -4.129761180925e-01 0.0 
-4.129761180925e-01 -2.022970666387e+02 0.0 
0.0 0.0 -8.248567185337e+01 
-6.579555530373e+01 1.649257345849e+01 0.0 
1.649257345849e+01 -1.729841867864e+02 0.0 
0.0 0.0 -7.123392262705e+01 
-9.742664191893e+01 4.905976815101e+00 0.0 
4.905976815101e+00 -2.619634938206e+02 0.0 
0.0 0.0 -1.074170407219e+02 
-7.210807674774e+01 3.077584882223e+00 0.0 
3.077584882223e+00 -1.398913690624e+02 0.0 
0.0 0.0 -6.319983374304e+01 
-4.352732573850e+01 -5.885800741753e-01 0.0 
-5.885800741753e-01 -1.244010073547e+02 0.0 
0.0 0.0 -4.997849992795e+01 
-1.582570069410e+02 1.338724741400e+01 0.0 
1.338724741400e+01 -3.705996828624e+02 0.0 
0.0 0.0 -1.582570069410e+02 
-8.083495696294e+01 1.909392303468e+01 0.0 
1.909392303468e+01 -1.677100771582e+02 0.0 
0.0 0.0 -7.416351023634e+01 
-7.798808214821e+01 -3.341421760357e-01 0.0 
-3.341421760357e-01 -2.109722952945e+02 0.0 
0.0 0.0 -8.628811323283e+01 
-7.630445402669e+01 1.980870937837e+01 0.0 
1.980870937837e+01 -1.622005755360e+02 0.0 
0.0 0.0 -7.115150886882e+01 
-7.531355729849e+01 9.020452846117e-01 0.0 
9.020452846117e-01 -2.031392257286e+02 0.0 
0.0 0.0 -8.313583490812e+01 
-1.185467602450e+01 -7.212313980276e-01 0.0 
-7.212313980276e-01 -8.932890001232e+00 0.0 
0.0 0.0 -6.810515786970e+00 
-7.711531573031e+01 9.116213943297e+00 0.0 
9.116213943297e+00 -1.400694440137e+02 0.0 
0.0 0.0 -6.475542792320e+01 
-6.266213756296e+01 -1.103981987486e+00 0.0 
-1.103981987486e+00 -1.692068733147e+02 0.0 
0.0 0.0 -6.916070326331e+01 
-5.901059637236e+00 -4.519457764494e-01 0.0 
-4.519457764494e-01 -8.752688060969e+00 0.0 
0.0 0.0 -4.950799098108e+00 
-7.399436125974e+01 -7.556770268401e-01 0.0 
-7.556770268401e-01 -2.002480642255e+02 0.0 
0.0 0.0 -8.187272764557e+01 
-1.065523721762e+02 5.832669393276e+00 0.0 
5.832669393276e+00 -2.807027220032e+02 0.0 
0.0 0.0 -1.157765282538e+02 
-9.624445414411e+01 1.728948775579e+00 0.0 
1.728948775579e+00 -2.127357668265e+02 0.0 
0.0 0.0 -9.229406629119e+01 
-8.409716617025e+01 8.857935503347e+00 0.0 
8.857935503347e+00 -2.315478518654e+02 0.0 
0.0 0.0 -9.429350541069e+01 
-8.698913096061e+01 7.486035867902e+00 0.0 
7.486035867902e+00 -2.407975048746e+02 0.0 
0.0 0.0 -9.793599075055e+01 
-6.073370859565e+01 6.291339734194e+00 0.0 
6.291339734194e+00 -1.006227163920e+02 0.0 
0.0 0.0 -4.800692749629e+01 
-5.028390373239e+01 9.369262366226e-01 0.0 
9.369262366226e-01 -8.714736515666e+01 0.0 
0.0 0.0 -4.082938066671e+01 
-1.141538706868e+02 1.081477680928e+01 0.0 
1.081477680928e+01 -2.592824760641e+02 0.0 
0.0 0.0 -1.116309040253e+02 
-7.170126422045e+01 2.024544548666e+01 0.0 
2.024544548666e+01 -1.573155581977e+02 0.0 
0.0 0.0 -6.830504672545e+01 
-4.772638405978e+00 -3.315959865093e-01 0.0 
-3.315959865093e-01 -7.339354772596e+00 0.0 
0.0 0.0 -3.233597953572e+00 
-2.680567272394e+01 -1.745230181930e+00 0.0 
-1.745230181930e+00 -6.913606191186e+01 0.0 
0.0 0.0 -2.838252039074e+01 
-1.533093935285e+01 -1.720251622341e+00 0.0 
-1.720251622341e+00 -2.515831593407e+01 0.0 
0.0 0.0 -1.214028984347e+01 
-4.354698963446e+01 -1.554792444337e+00 0.0 
-1.554792444337e+00 -1.200460243068e+02 0.0 
0.0 0.0 -4.867790418237e+01 
-1.115069928264e+02 2.036505755814e+01 0.0 
2.036505755814e+01 -2.477213250580e+02 0.0 
0.0 0.0 -1.073684953653e+02 
-9.735606531660e+01 3.463984090312e+00 0.0 
3.463984090312e+00 -2.135060526484e+02 0.0 
0.0 0.0 -9.285863538950e+01 
-1.214117416927e+02 4.776447572110e+00 0.0 
4.776447572110e+00 -3.084616458717e+02 0.0 
0.0 0.0 -1.285620162693e+02 
-4.956511523020e+01 -9.453740871321e-01 0.0 
-9.453740871321e-01 -1.361304220652e+02 0.0 
0.0 0.0 -5.530866118861e+01 
-9.983080749110e+01 2.700112097952e+00 0.0 
2.700112097952e+00 -2.602173887408e+02 0.0 
0.0 0.0 -1.076144588696e+02 
-1.254753242534e+02 9.462043586927e+00 0.0 
9.462043586927e+00 -3.172547522754e+02 0.0 
0.0 0.0 -1.324190229586e+02 
-2.647292024274e+01 2.176743915916e+00 0.0 
2.176743915916e+00 -6.967726009799e+01 0.0 
0.0 0.0 -2.844505410222e+01 
-6.302320926031e+01 5.802027391989e-01 0.0 
5.802027391989e-01 -1.694048685663e+02 0.0 
0.0 0.0 -6.932842334798e+01 
-5.167654027900e+01 -9.977125838944e-01 0.0 
-9.977125838944e-01 -1.395444910184e+02 0.0 
0.0 0.0 -5.696630938922e+01 
-1.559323171098e+02 1.191487315434e+01 0.0 
1.191487315434e+01 -3.719815633672e+02 0.0 
0.0 0.0 -1.579741641431e+02 
-1.591816730606e+02 1.217151665026e+01 0.0 
1.217151665026e+01 -3.727572371415e+02 0.0 
0.0 0.0 -1.591816730606e+02 
-7.018610714039e+01 4.797154980255e-01 0.0 
4.797154980255e-01 -1.879723297573e+02 0.0 
0.0 0.0 -7.704753106932e+01 
-7.924670512518e+01 1.025963974288e+00 0.0 
1.025963974288e+00 -2.118030003397e+02 0.0 
0.0 0.0 -8.691491163948e+01 
-8.485823328452e+01 2.811137083164e+00 0.0 
2.811137083164e+00 -2.337589212547e+02 0.0 
0.0 0.0 -9.518514636176e+01 
-1.300822745162e+02 1.107168237146e+01 0.0 
1.107168237146e+01 -3.255441078093e+02 0.0 
0.0 0.0 -1.362879146977e+02 
-2.872152881218e+01 -2.860272990103e+00 0.0 
-2.860272990103e+00 -7.659393934339e+01 0.0 
0.0 0.0 -3.119464044667e+01 
-1.207158539094e+02 8.041524539373e+00 0.0 
8.041524539373e+00 -3.084763980597e+02 0.0 
0.0 0.0 -1.283576755907e+02 
-1.725881849161e+01 -1.162259840066e+00 0.0 
-1.162259840066e+00 -4.304539320362e+01 0.0 
0.0 0.0 -1.769126350857e+01 
-7.127856718325e+01 5.220170052418e-01 0.0 
5.220170052418e-01 -1.924515617804e+02 0.0 
0.0 0.0 -7.871903868908e+01 
-7.926689065884e+01 1.427479530846e+00 0.0 
1.427479530846e+00 -2.136354793787e+02 0.0 
0.0 0.0 -8.747071101127e+01 
-9.993752577238e+00 -6.224736132146e-01 0.0 
-6.224736132146e-01 -2.555237898028e+01 0.0 
0.0 0.0 -1.064443463703e+01 
-6.670949883596e+01 -8.820982852450e-01 0.0 
-8.820982852450e-01 -1.785942814743e+02 0.0 
0.0 0.0 -7.319113409307e+01 
-1.052449477694e+02 9.341934184523e+00 0.0 
9.341934184523e+00 -2.281738274440e+02 0.0 
0.0 0.0 -9.962563256401e+01 
-3.982414189121e+00 -3.022558267579e-01 0.0 
-3.022558267579e-01 -7.812763402099e+00 0.0 
0.0 0.0 -3.138553277366e+00 
-5.156769835558e+01 1.318572345928e+00 0.0 
1.318572345928e+00 -8.767999397763e+01 0.0 
0.0 0.0 -4.137430769996e+01 
-5.157993090188e+01 1.839573055601e+00 0.0 
1.839573055601e+00 -8.855995307996e+01 0.0 
0.0 0.0 -4.164196519455e+01 
-9.664066089568e+01 1.146149711186e+01 0.0 
1.146149711186e+01 -2.574111544096e+02 0.0 
0.0 0.0 -1.058155445916e+02 
-5.176177750444e+01 5.217364912129e-01 0.0 
5.217364912129e-01 -1.395009527577e+02 0.0 
0.0 0.0 -5.697881907864e+01 
-4.492699217691e+01 -1.328859935056e+00 0.0 
-1.328859935056e+00 -1.322099821633e+02 0.0 
0.0 0.0 -5.274109230206e+01 
-2.614486572592e+01 1.182955042173e+01 0.0 
1.182955042173e+01 -6.462286076825e+01 0.0 
0.0 0.0 -2.683031794825e+01 
-1.361579208532e+02 5.043418457985e+00 0.0 
5.043418457985e+00 -3.357699354548e+02 0.0 
0.0 0.0 -1.411783568924e+02 
-1.292222359048e+02 2.191681685567e+01 0.0 
2.191681685567e+01 -3.014094205803e+02 0.0 
0.0 0.0 -1.287894969455e+02 
-9.434412551452e+01 4.649938827428e+00 0.0 
4.649938827428e+00 -2.010662959557e+02 0.0 
0.0 0.0 -8.822312644106e+01 
-3.129247644470e+01 1.725460312407e+01 0.0 
1.725460312407e+01 -7.233895916709e+01 0.0 
0.0 0.0 -3.068943068354e+01 
-1.977641657840e+01 -2.863049580126e+00 0.0 
-2.863049580126e+00 -4.774513780284e+01 0.0 
0.0 0.0 -1.985646631437e+01 
-5.837821035667e+01 1.531248871944e+01 0.0 
1.531248871944e+01 -9.796781475447e+01 0.0 
0.0 0.0 -4.650380753334e+01 
-4.888589504786e+01 2.617452593604e-01 0.0 
2.617452593604e-01 -8.759878779735e+01 0.0 
0.0 0.0 -4.054540485356e+01 
-4.787913449785e+01 3.395621271010e-01 0.0 
3.395621271010e-01 -8.734840379110e+01 0.0 
0.0 0.0 -4.016826148668e+01 
-5.292174195532e+00 -3.826348519621e-01 0.0 
-3.826348519621e-01 -8.979171008292e+00 0.0 
0.0 0.0 -4.850291011787e+00 
-1.028183384376e+01 -7.496423598881e-01 0.0 
-7.496423598881e-01 -2.540091594892e+01 0.0 
0.0 0.0 -1.072615430777e+01 
-1.518890962815e+01 -2.664773707458e-01 0.0 
-2.664773707458e-01 -4.209176302476e+01 0.0 
0.0 0.0 -1.678420179587e+01 
-3.808085922645e+01 -2.630744351254e+00 0.0 
-2.630744351254e+00 -1.047837406311e+02 0.0 
0.0 0.0 -4.245937995726e+01 
-1.012891440906e+01 -4.809678606307e-01 0.0 
-4.809678606307e-01 -2.589923186441e+01 0.0 
0.0 0.0 -1.040844388204e+01 
-7.405500754355e+01 -7.639672624323e-01 0.0 
-7.639672624323e-01 -1.981917022007e+02 0.0 
0.0 0.0 -8.127401292327e+01 
-1.514268862591e+01 -6.592966292172e-01 0.0 
-6.592966292172e-01 -8.847040194239e+00 0.0 
0.0 0.0 -7.765254011197e+00 
-4.479588535898e+01 -2.391327149586e+00 0.0 
-2.391327149586e+00 -1.243915982650e+02 0.0 
0.0 0.0 -5.035624508721e+01 
-7.372041685182e+01 3.909510547728e-01 0.0 
3.909510547728e-01 -1.540595028236e+02 0.0 
0.0 0.0 -6.793397590262e+01 
-4.955975640127e+01 7.558414389966e-01 0.0 
7.558414389966e-01 -8.744481688442e+01 0.0 
0.0 0.0 -4.070137198571e+01 
-1.150693004318e+02 2.014608668638e+01 0.0 
2.014608668638e+01 -2.540403191950e+02 0.0 
0.0 0.0 -1.103328858880e+02 
-1.022776109008e+02 4.606237248417e+00 0.0 
4.606237248417e+00 -2.713560836571e+02 0.0 
0.0 0.0 -1.116901083674e+02 
-6.642908772220e+01 6.939655884701e-02 0.0 
6.939655884701e-02 -1.363344360453e+02 0.0 
0.0 0.0 -6.042905713024e+01 
-5.521844837404e+01 -7.971343150042e-01 0.0 
-7.971343150042e-01 -1.489825110032e+02 0.0 
0.0 0.0 -6.086028781316e+01 
-1.661352189074e+01 -5.484813053284e-01 0.0 
-5.484813053284e-01 -4.279428950486e+01 0.0 
0.0 0.0 -1.742234341868e+01 
-1.151374001338e+02 5.497588628198e+00 0.0 
5.497588628198e+00 -2.699872669788e+02 0.0 
0.0 0.0 -1.151374001338e+02 
-1.178057341087e+02 6.024932989688e+00 0.0 
6.024932989688e+00 -2.712824962294e+02 0.0 
0.0 0.0 -1.163264691014e+02 
-6.592747852301e+01 8.963959456551e-01 0.0 
8.963959456551e-01 -1.267842408118e+02 0.0 
0.0 0.0 -5.741351580044e+01 
-4.904758883864e+01 4.059809276450e-01 0.0 
4.059809276450e-01 -8.717218806098e+01 0.0 
0.0 0.0 -4.046593306989e+01 
-5.616519250753e+01 4.050546134309e-02 0.0 
4.050546134309e-02 -1.510543370971e+02 0.0 
0.0 0.0 -6.176585888140e+01 
-1.171691763674e+02 4.275461031051e+00 0.0 
4.275461031051e+00 -2.703701050044e+02 0.0 
0.0 0.0 -1.158617844115e+02 
-4.265768693035e+01 -1.330808247341e+00 0.0 
-1.330808247341e+00 -1.165229919621e+02 0.0 
0.0 0.0 -4.735420366774e+01 
-5.043084802043e+01 1.234731464629e+00 0.0 
1.234731464629e+00 -8.772926896015e+01 0.0 
0.0 0.0 -4.104803509418e+01 
-5.002067556523e+01 5.876040201433e-01 0.0 
5.876040201433e-01 -8.714914959649e+01 0.0 
0.0 0.0 -4.075094754851e+01 
-5.190341908860e+01 8.222469465778e+00 0.0 
8.222469465778e+00 -8.271714844863e+01 0.0 
0.0 0.0 -3.998617026117e+01 
-1.182160680170e+02 1.221933185707e+01 0.0 
1.221933185707e+01 -2.771708253731e+02 0.0 
0.0 0.0 -1.182160680170e+02 
-1.182628884738e+02 5.004627702761e+00 0.0 
5.004627702761e+00 -2.712850470294e+02 0.0 
0.0 0.0 -1.164643806510e+02 
-1.050965332623e+01 -6.505124678155e-01 0.0 
-6.505124678155e-01 -2.569389262679e+01 0.0 
0.0 0.0 -1.046106378591e+01 
-4.940857178793e+00 -2.733830343685e-01 0.0 
-2.733830343685e-01 -9.091338396387e+00 0.0 
0.0 0.0 -4.786913479850e+00 
-2.262668215576e+01 -2.637375613517e+00 0.0 
-2.637375613517e+00 -5.731823208052e+01 0.0 
0.0 0.0 -2.358347427088e+01 
-7.781370305125e+01 1.368437153862e-01 0.0 
1.368437153862e-01 -2.127443159910e+02 0.0 
0.0 0.0 -8.676740571268e+01 
-1.458159121182e+02 -2.231659051408e-01 0.0 
-2.231659051408e-01 -3.521397836871e+02 0.0 
0.0 0.0 -1.489867087416e+02 
-1.897766328330e+01 -4.562061364357e-01 0.0 
-4.562061364357e-01 -7.157884254736e+00 0.0 
0.0 0.0 -7.440664261411e+00 
-8.997166560943e+01 1.267535337535e+00 0.0 
1.267535337535e+00 -1.968233715812e+02 0.0 
0.0 0.0 -8.563851115718e+01 
-1.415741938057e+01 -7.546840086459e-01 0.0 
-7.546840086459e-01 -9.000563247022e+00 0.0 
0.0 0.0 -7.528344829012e+00 
-9.572680810446e+01 8.415850772404e+00 0.0 
8.415850772404e+00 -2.591264610325e+02 0.0 
0.0 0.0 -1.060559807411e+02 
-1.567257711534e+01 -7.757763280494e-01 0.0 
-7.757763280494e-01 -8.233109486458e+00 0.0 
0.0 0.0 -6.771705980539e+00 
-1.735169921610e+01 -6.880137473030e-01 0.0 
-6.880137473030e-01 -8.138641778552e+00 0.0 
0.0 0.0 -7.247102298396e+00 
-9.162949957248e+01 6.949372105562e+00 0.0 
6.949372105562e+00 -2.507731266980e+02 0.0 
0.0 0.0 -1.023207878811e+02 
-1.403547280346e+02 1.729463119196e+00 0.0 
1.729463119196e+00 -3.420951441437e+02 0.0 
0.0 0.0 -1.443349616535e+02 
-7.363472029855e+01 8.968406626674e-01 0.0 
8.968406626674e-01 -1.529351003667e+02 0.0 
0.0 0.0 -6.757094619958e+01 
-6.189716762934e+01 1.751169848064e+01 0.0 
1.751169848064e+01 -1.122863765904e+02 0.0 
0.0 0.0 -5.185506326592e+01 
-9.692035681103e+00 -3.597890068256e-01 0.0 
-3.597890068256e-01 -2.554437914473e+01 0.0 
0.0 0.0 -1.055341857225e+01 
-1.040376700622e+02 2.588469961531e+00 0.0 
2.588469961531e+00 -2.688104450973e+02 0.0 
0.0 0.0 -1.114544345479e+02 
-1.142343592583e+02 1.750946001768e+00 0.0 
1.750946001768e+00 -2.678801716028e+02 0.0 
0.0 0.0 -1.142343592583e+02 
-1.165069650996e+02 2.529892179855e+00 0.0 
2.529892179855e+00 -2.695163086393e+02 0.0 
0.0 0.0 -1.154069821217e+02 
-4.886751196843e+01 4.626275515720e-01 0.0 
4.626275515720e-01 -8.726130596867e+01 0.0 
0.0 0.0 -4.043864538113e+01 
-9.995549839915e+01 9.912160363731e+00 0.0 
9.912160363731e+00 -2.671705567428e+02 0.0 
0.0 0.0 -1.097378165426e+02 
-1.150921284750e+02 4.426191418403e+00 0.0 
4.426191418403e+00 -2.698816331084e+02 0.0 
0.0 0.0 -1.150921284750e+02 
-1.033525830333e+02 1.968889112203e+01 0.0 
1.968889112203e+01 -2.515812191293e+02 0.0 
0.0 0.0 -1.060801406488e+02 
-1.585019592042e+01 -5.406873619529e-01 0.0 
-5.406873619529e-01 -4.162560358257e+01 0.0 
0.0 0.0 -1.684273985090e+01 
-9.783641274341e+00 -3.139493062383e-01 0.0 
-3.139493062383e-01 -2.568103124712e+01 0.0 
0.0 0.0 -1.023940175644e+01 
-9.255603883358e+00 -1.165615090799e-01 0.0 
-1.165615090799e-01 -2.513386349187e+01 0.0 
0.0 0.0 -1.015810772660e+01 
-6.282727325224e+01 -7.576639485487e-01 0.0 
-7.576639485487e-01 -1.687322820890e+02 0.0 
0.0 0.0 -6.906786660236e+01 
-1.608254285007e+02 3.095345667220e+00 0.0 
3.095345667220e+00 -3.811720667787e+02 0.0 
0.0 0.0 -1.621992485838e+02 
-1.083422473492e+02 1.042428208324e+00 0.0 
1.042428208324e+00 -2.474797964363e+02 0.0 
0.0 0.0 -1.063466131357e+02 
-4.090900919761e+00 -6.616090248243e-02 0.0 
-6.616090248243e-02 -9.065988481408e+00 0.0 
0.0 0.0 -4.515744932022e+00 
-7.443564096446e+01 6.642450032541e-01 0.0 
6.642450032541e-01 -1.983577731996e+02 0.0 
0.0 0.0 -8.143802424921e+01 
-1.637730647849e+02 2.096395328752e+00 0.0 
2.096395328752e+00 -3.834704844981e+02 0.0 
0.0 0.0 -1.637730647849e+02 
-1.600644734742e+02 3.252687515277e+00 0.0 
3.252687515277e+00 -3.802998011173e+02 0.0 
0.0 0.0 -1.617092823775e+02 
-1.566428372865e+02 1.077439663087e+01 0.0 
1.077439663087e+01 -3.735138779083e+02 0.0 
0.0 0.0 -1.586470145584e+02 
-8.238268487433e+01 -6.236347880337e-01 0.0 
-6.236347880337e-01 -1.771146041405e+02 0.0 
0.0 0.0 -7.744918670446e+01 
-9.389152656006e+01 9.309125423351e-01 0.0 
9.309125423351e-01 -2.071633093874e+02 0.0 
0.0 0.0 -8.991645078424e+01 
-1.628695472356e+02 2.885825404668e+00 0.0 
2.885825404668e+00 -3.813622768831e+02 0.0 
0.0 0.0 -1.628695472356e+02 
-1.630193914096e+02 3.815840256996e+00 0.0 
3.815840256996e+00 -3.817119132891e+02 0.0 
0.0 0.0 -1.630193914096e+02 
-9.004580299911e+01 -3.902826543961e-01 0.0 
-3.902826543961e-01 -1.969386710698e+02 0.0 
0.0 0.0 -8.569534222067e+01 
-2.530711522960e+00 -3.479058466945e-01 0.0 
-3.479058466945e-01 -6.801898358490e+00 0.0 
0.0 0.0 -2.399782964435e+00 
-4.695010001940e+01 7.636836486328e-02 0.0 
7.636836486328e-02 -8.648369032706e+01 0.0 
0.0 0.0 -3.963013710394e+01 
-4.835412182423e+01 1.975946484255e-01 0.0 
1.975946484255e-01 -8.741656113475e+01 0.0 
0.0 0.0 -4.033120488769e+01 
-4.488407840506e+00 -1.673030538361e-01 0.0 
-1.673030538361e-01 -9.062782880939e+00 0.0 
0.0 0.0 -4.641508958785e+00 
-1.624024889666e+02 6.587621064188e+00 0.0 
6.587621064188e+00 -3.802724742553e+02 0.0 
0.0 0.0 -1.624024889666e+02 
-1.569331970682e+02 9.438163657423e+00 0.0 
9.438163657423e+00 -3.746083104103e+02 0.0 
0.0 0.0 -1.590624522436e+02 
-1.608436338912e+02 8.629241178100e+00 0.0 
8.629241178100e+00 -3.766351457461e+02 0.0 
0.0 0.0 -1.608436338912e+02 
-2.921553009726e+00 -1.144990693244e-01 0.0 
-1.144990693244e-01 -7.941546640809e+00 0.0 
0.0 0.0 -2.858929895161e+00 
-3.340032559348e+00 -2.646151041019e-01 0.0 
-2.646151041019e-01 -8.045746005589e+00 0.0 
0.0 0.0 -3.015733569481e+00 
-1.598159362479e+02 1.096703884762e+01 0.0 
1.096703884762e+01 -3.742371845785e+02 0.0 
0.0 0.0 -1.598159362479e+02 
-1.604576406780e+02 9.856178502688e+00 0.0 
9.856178502688e+00 -3.757344949154e+02 0.0 
0.0 0.0 -1.604576406780e+02 
-7.836978394802e+01 9.639697030836e-01 0.0 
9.639697030836e-01 -1.671310443696e+02 0.0 
0.0 0.0 -7.325024849530e+01 
-4.614922688486e+01 -1.199328297760e-01 0.0 
-1.199328297760e-01 -8.614753016908e+01 0.0 
0.0 0.0 -3.928902711618e+01 
-8.640524451662e+01 9.634272284033e-01 0.0 
9.634272284033e-01 -1.871192398609e+02 0.0 
0.0 0.0 -8.165734531326e+01 
-6.267183789320e+01 9.045253766968e-01 0.0 
9.045253766968e-01 -1.275480511311e+02 0.0 
0.0 0.0 -5.666596670731e+01 
-4.620053055405e+01 -6.689293014716e-02 0.0 
-6.689293014716e-02 -8.628086194413e+01 0.0 
0.0 0.0 -3.934441774945e+01 
-5.827917426075e+00 -5.162219913380e-01 0.0 
-5.162219913380e-01 -7.642752538129e+00 0.0 
0.0 0.0 -3.641200989261e+00 
-8.244105707494e+00 -3.520853881028e-01 0.0 
-3.520853881028e-01 -8.312326410521e+00 0.0 
0.0 0.0 -4.566929635405e+00 
-9.371782660358e+00 -5.080104597783e-01 0.0 
-5.080104597783e-01 -7.902913952504e+00 0.0 
0.0 0.0 -4.782408983859e+00 
-1.077926060846e+01 -5.795900622018e-01 0.0 
-5.795900622018e-01 -8.027763950686e+00 0.0 
0.0 0.0 -5.242107367743e+00 
-7.838269554371e+01 -8.891516720023e-01 0.0 
-8.891516720023e-01 -2.083815008832e+02 0.0 
0.0 0.0 -8.562925892806e+01 
-7.053541514628e+01 -7.797024160306e-01 0.0 
-7.797024160306e-01 -1.884821310684e+02 0.0 
0.0 0.0 -7.730526386441e+01 
-8.416632882151e+00 -5.458310085156e-01 0.0 
-5.458310085156e-01 -8.984288617933e+00 0.0 
0.0 0.0 -5.797303920960e+00 
-1.034234648678e+02 -7.986387065388e-01 0.0 
-7.986387065388e-01 -2.660400676622e+02 0.0 
0.0 0.0 -1.104390597590e+02 
-9.722089202381e+00 -6.574663632758e-01 0.0 
-6.574663632758e-01 -8.953642583959e+00 0.0 
0.0 0.0 -6.174558708675e+00 
-1.165574173354e+02 9.565818828593e+00 0.0 
9.565818828593e+00 -2.733006404493e+02 0.0 
0.0 0.0 -1.165574173354e+02 
-1.146769486554e+02 3.662819357041e+00 0.0 
3.662819357041e+00 -2.689128801959e+02 0.0 
0.0 0.0 -1.146769486554e+02 
-1.153023699038e+02 6.404351100790e+00 0.0 
6.404351100790e+00 -2.703721964421e+02 0.0 
0.0 0.0 -1.153023699038e+02 
-2.579201978009e+01 -9.633472518414e-01 0.0 
-9.633472518414e-01 -6.901699012759e+01 0.0 
0.0 0.0 -2.804270297230e+01 
-4.787908591440e+01 -8.188993444205e-01 0.0 
-8.188993444205e-01 -1.291242491505e+02 0.0 
0.0 0.0 -5.270100051947e+01 
-1.143453131489e+02 2.946163914888e+00 0.0 
2.946163914888e+00 -2.681390640141e+02 0.0 
0.0 0.0 -1.143453131489e+02 
-1.313340128845e+02 -6.614405957288e-01 0.0 
-6.614405957288e-01 -3.241231872258e+02 0.0 
0.0 0.0 -1.362371600331e+02 
-1.151818027119e+02 2.388223678041e+00 0.0 
2.388223678041e+00 -2.700908729945e+02 0.0 
0.0 0.0 -1.151818027119e+02 
-1.411251366652e+02 -7.035483894022e-01 0.0 
-7.035483894022e-01 -3.432451937864e+02 0.0 
0.0 0.0 -1.449110991355e+02 
-1.512498806660e+02 -7.735047235682e-01 0.0 
-7.735047235682e-01 -3.622659604237e+02 0.0 
0.0 0.0 -1.536547523269e+02 
-6.667035662786e+01 6.703634793208e-01 0.0 
6.703634793208e-01 -1.785783317847e+02 0.0 
0.0 0.0 -7.317460652377e+01 
-1.167137048184e+02 3.483142053177e+00 0.0 
3.483142053177e+00 -2.694556959008e+02 0.0 
0.0 0.0 -1.154508202158e+02 
-1.163820822915e+02 2.243705967919e+00 0.0 
2.243705967919e+00 -2.696152889330e+02 0.0 
0.0 0.0 -1.153992113673e+02 
-1.359087029604e+02 1.304608497014e+00 0.0 
1.304608497014e+00 -3.327666197022e+02 0.0 
0.0 0.0 -1.402025967988e+02 
-1.460420220260e+02 1.374677190872e+00 0.0 
1.374677190872e+00 -3.523657898749e+02 0.0 
0.0 0.0 -1.491223435703e+02 
-1.124809580637e+02 2.180508707431e+00 0.0 
2.180508707431e+00 -2.858815752105e+02 0.0 
0.0 0.0 -1.191087599822e+02 
-1.302117176335e+01 -7.768691821337e-01 0.0 
-7.768691821337e-01 -8.905881216961e+00 0.0 
0.0 0.0 -7.154592076972e+00 
-6.710231976774e+01 2.940475358849e-01 0.0 
2.940475358849e-01 -1.815944130021e+02 0.0 
0.0 0.0 -7.420901983097e+01 
-1.086687367654e+01 -6.526723650474e-01 0.0 
-6.526723650474e-01 -2.540592398888e+01 0.0 
0.0 0.0 -1.048183929963e+01 
-1.369792605768e+02 6.303602552981e+00 0.0 
6.303602552981e+00 -3.363025717261e+02 0.0 
0.0 0.0 -1.415845496909e+02 
-7.015071973338e+01 -8.394115225393e-01 0.0 
-8.394115225393e-01 -1.916782670123e+02 0.0 
0.0 0.0 -7.814869602371e+01 
-1.260752817479e+02 1.857185533505e+00 0.0 
1.857185533505e+00 -3.147560019329e+02 0.0 
0.0 0.0 -1.318493851042e+02 
-3.588580654282e+01 -1.565450541058e+00 0.0 
-1.565450541058e+00 -9.685991963994e+01 0.0 
0.0 0.0 -3.942371785483e+01 
-1.663236316154e+01 -1.658511434640e+00 0.0 
-1.658511434640e+00 -4.155113053982e+01 0.0 
0.0 0.0 -1.705504811041e+01 
-1.361461747603e+02 3.553660064920e+00 0.0 
3.553660064920e+00 -3.339349470956e+02 0.0 
0.0 0.0 -1.406243365568e+02 
-7.521738819123e+01 6.932276590392e-01 0.0 
6.932276590392e-01 -2.010990364539e+02 0.0 
0.0 0.0 -8.249492739355e+01 
-5.871134420344e+01 -9.698418662467e-01 0.0 
-9.698418662467e-01 -1.589231698459e+02 0.0 
0.0 0.0 -6.489035421481e+01 
-1.266467302529e+02 3.209039751474e+00 0.0 
3.209039751474e+00 -3.153053616235e+02 0.0 
0.0 0.0 -1.321856275629e+02 
-1.002045377915e+02 4.476297523946e-01 0.0 
4.476297523946e-01 -2.250313766557e+02 0.0 
0.0 0.0 -9.717077433416e+01 
-5.910865175453e+01 6.160224602878e-01 0.0 
6.160224602878e-01 -1.590505484228e+02 0.0 
0.0 0.0 -6.504776005320e+01 
-1.125543789164e+02 8.335303301850e+00 0.0 
8.335303301850e+00 -2.906832980015e+02 0.0 
0.0 0.0 -1.205713030754e+02 
-9.847315804563e+01 2.316543023503e+00 0.0 
2.316543023503e+00 -2.608527227930e+02 0.0 
0.0 0.0 -1.073977642516e+02 
-1.118148435110e+02 7.974542569833e-01 0.0 
7.974542569833e-01 -2.852939635836e+02 0.0 
0.0 0.0 -1.187326421284e+02 
-1.162189663168e+02 5.756852852357e-01 0.0 
5.756852852357e-01 -2.940703210249e+02 0.0 
0.0 0.0 -1.226867862025e+02 
-4.733635813137e+01 8.190204224108e+00 0.0 
8.190204224108e+00 -1.456208969805e+02 0.0 
0.0 0.0 -5.748717653357e+01 
-5.391248517976e+01 1.714459333045e+01 0.0 
1.714459333045e+01 -9.145805458716e+01 0.0 
0.0 0.0 -4.321116193008e+01 
-6.199722746354e+01 1.831076741543e+01 0.0 
1.831076741543e+01 -1.595155000949e+02 0.0 
0.0 0.0 -6.605381826752e+01 
-1.030445626773e+02 1.224629704756e+00 0.0 
1.224629704756e+00 -2.680886349836e+02 0.0 
0.0 0.0 -1.109399592983e+02 
-1.310829915508e+02 2.853240379668e+00 0.0 
2.853240379668e+00 -3.239196791868e+02 0.0 
0.0 0.0 -1.361008012213e+02 
-1.206585406509e+02 2.091271431903e-01 0.0 
2.091271431903e-01 -3.029437604578e+02 0.0 
0.0 0.0 -1.266806903326e+02 
-3.592385660340e+01 -2.882295798003e+00 0.0 
-2.882295798003e+00 -1.001266841700e+02 0.0 
0.0 0.0 -4.041516223201e+01 
-1.003199942101e+02 1.323200700954e+00 0.0 
1.323200700954e+00 -2.239776683740e+02 0.0 
0.0 0.0 -9.688929877523e+01 
-9.270212152317e+01 1.023942523440e+00 0.0 
1.023942523440e+00 -2.036410995571e+02 0.0 
0.0 0.0 -8.850296632408e+01 
-5.748850811498e+01 -5.304801154600e-01 0.0 
-5.304801154600e-01 -1.128460634612e+02 0.0 
0.0 0.0 -5.070037147286e+01 
-1.075616393759e+02 1.954480748458e+00 0.0 
1.954480748458e+00 -2.784561140165e+02 0.0 
0.0 0.0 -1.154053260177e+02 
-1.074395371179e+02 1.036366793437e+00 0.0 
1.036366793437e+00 -2.767325438066e+02 0.0 
0.0 0.0 -1.148516242774e+02 
-1.009515156309e+02 2.248590885030e+00 0.0 
2.248590885030e+00 -2.260706984291e+02 0.0 
0.0 0.0 -9.770666421799e+01 
-9.663699111434e+01 8.807723695153e-01 0.0 
8.807723695153e-01 -2.145490392682e+02 0.0 
0.0 0.0 -9.295580911478e+01 
-9.549254049135e+01 3.693809642367e+00 0.0 
3.693809642367e+00 -2.528557140207e+02 0.0 
0.0 0.0 -1.041044763536e+02 
-1.407407018927e+02 3.062423383170e+00 0.0 
3.062423383170e+00 -3.424312743501e+02 0.0 
0.0 0.0 -1.445515928728e+02 
-9.269844894147e+01 2.862938793560e+00 0.0 
2.862938793560e+00 -2.000645268580e+02 0.0 
0.0 0.0 -8.742889273985e+01 
-1.210246569158e+02 1.539337172276e+00 0.0 
1.539337172276e+00 -3.030988792711e+02 0.0 
0.0 0.0 -1.268370608560e+02 
-1.422924187281e+02 5.979441787336e+00 0.0 
5.979441787336e+00 -3.459874921513e+02 0.0 
0.0 0.0 -1.460839732638e+02 
-1.010116042332e+02 3.227419882103e+00 0.0 
3.227419882103e+00 -2.247220278518e+02 0.0 
0.0 0.0 -9.732008962551e+01 
-8.255439067332e+01 2.562243552466e+00 0.0 
2.562243552466e+00 -1.734187114829e+02 0.0 
0.0 0.0 -7.639193064688e+01 
-1.081915838998e+02 7.005156721943e+00 0.0 
7.005156721943e+00 -2.816515828848e+02 0.0 
0.0 0.0 -1.165529500354e+02 
-3.680278266206e+01 -1.845543875913e+00 0.0 
-1.845543875913e+00 -9.980262506535e+01 0.0 
0.0 0.0 -4.058162231822e+01 
-3.334208760452e+01 -2.871367593004e+00 0.0 
-2.871367593004e+00 -9.225044381862e+01 0.0 
0.0 0.0 -3.727775942694e+01 
-1.985483562712e+01 -1.365907448828e+00 0.0 
-1.365907448828e+00 -4.807028792840e+01 0.0 
0.0 0.0 -1.997753706666e+01 
-1.877230771294e+01 -1.776472416805e+00 0.0 
-1.776472416805e+00 -2.564509836663e+01 0.0 
0.0 0.0 -1.292522182387e+01 
-9.737509573213e+01 2.566815334382e+00 0.0 
2.566815334382e+00 -2.150984774373e+02 0.0 
0.0 0.0 -9.334207195084e+01 
-1.352582298985e+02 9.795415371763e-01 0.0 
9.795415371763e-01 -3.319189120327e+02 0.0 
0.0 0.0 -1.397531425793e+02 
-1.749731862085e+01 -1.766945605462e+00 0.0 
-1.766945605462e+00 -2.529449710519e+01 0.0 
0.0 0.0 -1.243754471781e+01 
-1.103736205200e+02 1.548401264627e+01 0.0 
1.548401264627e+01 -2.340125485633e+02 0.0 
0.0 0.0 -1.029158507250e+02 
-6.175093991343e+01 -2.035791202195e-01 0.0 
-2.035791202195e-01 -1.218734611829e+02 0.0 
0.0 0.0 -5.468732032890e+01 
-1.222664157827e+02 3.574349918978e+00 0.0 
3.574349918978e+00 -3.067940689159e+02 0.0 
0.0 0.0 -1.283181454096e+02 
-1.255308487025e+02 7.853016566737e-01 0.0 
7.853016566737e-01 -3.129492949978e+02 0.0 
0.0 0.0 -1.311440431101e+02 
-4.827088944659e+01 -1.360450510582e+00 0.0 
-1.360450510582e+00 -1.406186004574e+02 0.0 
0.0 0.0 -5.626684697119e+01 
-1.259022208407e+02 2.188509838258e+00 0.0 
2.188509838258e+00 -3.133957747509e+02 0.0 
0.0 0.0 -1.313893986775e+02 
-5.816496859105e+01 1.546150190262e+00 0.0 
1.546150190262e+00 -1.130700370716e+02 0.0 
0.0 0.0 -5.097050169879e+01 
-1.001554194749e+02 1.516465971433e+01 0.0 
1.516465971433e+01 -2.600860256131e+02 0.0 
0.0 0.0 -1.076724335264e+02 
-1.469169478255e+02 3.894764776272e+00 0.0 
3.894764776272e+00 -3.546847207171e+02 0.0 
0.0 0.0 -1.500805005628e+02 
-3.558485261038e+01 -1.133041683571e+00 0.0 
-1.133041683571e+00 -9.643765262756e+01 0.0 
0.0 0.0 -3.920675157138e+01 
-1.419659495636e+02 7.348484210645e+00 0.0 
7.348484210645e+00 -3.461073419549e+02 0.0 
0.0 0.0 -1.460219874556e+02 
-8.634886470761e+01 2.366611169843e+00 0.0 
2.366611169843e+00 -1.843661369566e+02 0.0 
0.0 0.0 -8.081450049928e+01 
-3.994158375498e+01 -1.612223396023e+00 0.0 
-1.612223396023e+00 -1.083703934322e+02 0.0 
0.0 0.0 -4.409359315615e+01 
-4.064661725027e+01 -1.657600057024e+00 0.0 
-1.657600057024e+00 -1.121929410567e+02 0.0 
0.0 0.0 -4.545186749210e+01 
-8.568922489153e+01 -5.339827895063e-01 0.0 
-5.339827895063e-01 -2.263318824381e+02 0.0 
0.0 0.0 -9.320633219889e+01 
-7.361966249514e+01 7.976712022929e-01 0.0 
7.976712022929e-01 -1.510028554273e+02 0.0 
0.0 0.0 -6.698675537674e+01 
-5.522819777846e+01 -1.754727294365e+00 0.0 
-1.754727294365e+00 -1.525928891166e+02 0.0 
0.0 0.0 -6.194632606851e+01 
-9.008549603732e+01 2.260273142633e+00 0.0 
2.260273142633e+00 -1.952070079566e+02 0.0 
0.0 0.0 -8.518775119818e+01 
-7.852430302650e+01 2.132005919057e+00 0.0 
2.132005919057e+00 -1.638786777128e+02 0.0 
0.0 0.0 -7.232089422178e+01 
-8.201549239715e+01 -2.451731979846e-01 0.0 
-2.451731979846e-01 -2.196818970382e+02 0.0 
0.0 0.0 -9.010921683060e+01 
-1.165654486299e+02 1.893991532581e+00 0.0 
1.893991532581e+00 -2.943526601499e+02 0.0 
0.0 0.0 -1.228754326339e+02 
-1.216142297488e+02 2.549180096986e+00 0.0 
2.549180096986e+00 -3.049405551879e+02 0.0 
0.0 0.0 -1.275664354810e+02 
-8.516522086068e+01 6.136091634593e-01 0.0 
6.136091634593e-01 -1.835070204273e+02 0.0 
0.0 0.0 -8.020167238638e+01 
-3.132678611476e+01 -9.581500562742e-01 0.0 
-9.581500562742e-01 -8.352179734785e+01 0.0 
0.0 0.0 -3.405457503878e+01 
-7.792863213694e+01 -5.840653630106e-01 0.0 
-5.840653630106e-01 -2.090351855600e+02 0.0 
0.0 0.0 -8.568914530909e+01 
-1.170234424648e+02 1.745056646112e+01 0.0 
1.745056646112e+01 -2.906880084674e+02 0.0 
0.0 0.0 -1.219134352797e+02 
-9.012680660354e+01 3.000588987932e+00 0.0 
3.000588987932e+00 -1.934756407568e+02 0.0 
0.0 0.0 -8.468073420810e+01 
-6.992500608485e+01 -1.072138898364e+00 0.0 
-1.072138898364e+00 -1.892493177773e+02 0.0 
0.0 0.0 -7.735229715864e+01 
-9.989752391510e+01 3.586089036742e+00 0.0 
3.586089036742e+00 -2.617473458819e+02 0.0 
0.0 0.0 -1.080934609391e+02 
-1.373160038561e+02 7.950837246990e+00 0.0 
7.950837246990e+00 -3.373732655492e+02 0.0 
0.0 0.0 -1.420067808216e+02 
-8.157325892549e+01 8.468085329362e-01 0.0 
8.468085329362e-01 -1.727147679516e+02 0.0 
0.0 0.0 -7.588640806313e+01 
-2.171484325886e+01 2.208191645642e-01 0.0 
2.208191645642e-01 -4.335446280377e+01 0.0 
0.0 0.0 -1.912079181879e+01 
-1.882119539974e+01 -9.861687107678e-01 0.0 
-9.861687107678e-01 -4.673751729752e+01 0.0 
0.0 0.0 -1.926761380918e+01 
-3.041682678611e+01 3.072314320516e+00 0.0 
3.072314320516e+00 -8.707526811507e+01 0.0 
0.0 0.0 -3.484762847035e+01 
-1.306284657610e+02 1.431818418424e+00 0.0 
1.431818418424e+00 -3.234196318972e+02 0.0 
0.0 0.0 -1.358144292975e+02 
-7.753773002922e+01 8.682121152814e-01 0.0 
8.682121152814e-01 -1.618375581797e+02 0.0 
0.0 0.0 -7.141258646267e+01 
-9.461718161211e+01 1.193649045357e+00 0.0 
1.193649045357e+00 -2.460155223591e+02 0.0 
0.0 0.0 -1.017898111914e+02 
-6.577090998294e+01 2.844581898762e-01 0.0 
2.844581898762e-01 -1.312996893883e+02 0.0 
0.0 0.0 -5.872117981137e+01 
-1.268745755963e+02 1.069578268280e+01 0.0 
1.069578268280e+01 -3.181043217892e+02 0.0 
0.0 0.0 -1.330936692157e+02 
-8.601217356446e+01 -2.136747522888e-01 0.0 
-2.136747522888e-01 -2.283331997693e+02 0.0 
0.0 0.0 -9.390361200013e+01 
-1.211172192607e+02 1.147971661929e+00 0.0 
1.147971661929e+00 -3.044225785669e+02 0.0 
0.0 0.0 -1.272619393483e+02 
-3.738132020019e+01 -4.042122695805e-01 0.0 
-4.042122695805e-01 -1.003816746271e+02 0.0 
0.0 0.0 -4.092889844819e+01 
-1.414740518989e+02 4.439324233021e+00 0.0 
4.439324233021e+00 -3.457284647370e+02 0.0 
0.0 0.0 -1.457607549908e+02 
-8.305768000758e+01 1.138280544462e+00 0.0 
1.138280544462e+00 -2.204354135440e+02 0.0 
0.0 0.0 -9.064792806548e+01 
-4.044417128190e+01 -5.335265280885e-02 0.0 
-5.335265280885e-02 -1.089304633557e+02 0.0 
0.0 0.0 -4.441239039127e+01 
-7.882262479619e+01 8.897451576072e-01 0.0 
8.897451576072e-01 -2.097584683087e+02 0.0 
0.0 0.0 -8.617432793147e+01 
-5.878959840055e+01 -1.496958242114e+00 0.0 
-1.496958242114e+00 -1.612402414971e+02 0.0 
0.0 0.0 -6.560895196929e+01 
-4.584982168178e+01 -1.042609045832e+00 0.0 
-1.042609045832e+00 -1.251397674602e+02 0.0 
0.0 0.0 -5.089687674258e+01 
-9.393134540560e+01 -2.906021849653e-01 0.0 
-2.906021849653e-01 -2.453150909315e+02 0.0 
0.0 0.0 -1.013739309011e+02 
-6.958434319459e+00 -5.188830347161e-01 0.0 
-5.188830347161e-01 -9.245506795082e+00 0.0 
0.0 0.0 -5.456851561085e+00 
-8.201676721519e+00 -5.529193724664e-01 0.0 
-5.529193724664e-01 -9.512857272651e+00 0.0 
0.0 0.0 -5.924367932257e+00 
-1.082455468306e+02 2.419134253866e+00 0.0 
2.419134253866e+00 -2.773782389303e+02 0.0 
0.0 0.0 -1.152871357283e+02 
-3.446809808840e+01 -7.509757483640e-01 0.0 
-7.509757483640e-01 -9.213677111167e+01 0.0 
0.0 0.0 -3.758146076002e+01 
-1.086512998310e+02 3.299628370063e+00 0.0 
3.299628370063e+00 -2.792137801206e+02 0.0 
0.0 0.0 -1.159595239855e+02 
-1.042874978519e+02 3.454184101122e+00 0.0 
3.454184101122e+00 -2.705393459928e+02 0.0 
0.0 0.0 -1.120480531534e+02 
-6.246472471829e+01 -1.144670108472e+00 0.0 
-1.144670108472e+00 -1.741330561950e+02 0.0 
0.0 0.0 -7.057933427397e+01 
-3.892854245538e+01 -1.997669142152e+00 0.0 
-1.997669142152e+00 -1.133053925736e+02 0.0 
0.0 0.0 -4.527018050868e+01 
-9.769730381489e+01 4.502083780786e+00 0.0 
4.502083780786e+00 -2.119397376791e+02 0.0 
0.0 0.0 -9.249111244819e+01 
-1.935401169909e+01 4.834255301869e+00 0.0 
4.834255301869e+00 -4.215880606358e+01 0.0 
0.0 0.0 -1.805384532880e+01 
-6.236999694538e+01 -1.228378344027e+00 0.0 
-1.228378344027e+00 -1.700761693594e+02 0.0 
0.0 0.0 -6.933384989142e+01 
-1.314338658835e+02 1.211631145785e+01 0.0 
1.211631145785e+01 -3.259840724828e+02 0.0 
0.0 0.0 -1.368253815099e+02 
-2.963971298126e+01 -1.881176606063e+00 0.0 
-1.881176606063e+00 -7.949899639049e+01 0.0 
0.0 0.0 -3.234161281153e+01 
-7.082920533746e+01 2.022257785426e+00 0.0 
2.022257785426e+00 -1.427752081894e+02 0.0 
0.0 0.0 -6.368132405806e+01 
-6.268572779935e+01 1.639024643939e+00 0.0 
1.639024643939e+00 -1.226233479139e+02 0.0 
0.0 0.0 -5.519272271399e+01 
-2.935313666137e+01 -1.632140800422e+00 0.0 
-1.632140800422e+00 -7.715783374218e+01 0.0 
0.0 0.0 -3.155329112106e+01 
-1.322323562069e+02 8.398261408708e+00 0.0 
8.398261408708e+00 -3.281713226081e+02 0.0 
0.0 0.0 -1.377211036445e+02 
-8.695904155598e+01 3.943962770281e+00 0.0 
3.943962770281e+00 -1.810073535042e+02 0.0 
0.0 0.0 -7.998991851805e+01 
-3.381473454436e+01 -2.037389726021e+00 0.0 
-2.037389726021e+00 -9.149115419171e+01 0.0 
0.0 0.0 -3.719176662082e+01 
-1.013362065907e+02 5.289021127133e+00 0.0 
5.289021127133e+00 -2.209854534206e+02 0.0 
0.0 0.0 -9.629649800338e+01 
-9.955428317283e+01 3.668384142835e+00 0.0 
3.668384142835e+00 -2.198683828392e+02 0.0 
0.0 0.0 -9.542679980361e+01 
-3.818564303671e+01 -8.159396481367e-01 0.0 
-8.159396481367e-01 -1.028658800880e+02 0.0 
0.0 0.0 -4.191545693741e+01 
-3.372014917436e+01 1.895835873225e+01 0.0 
1.895835873225e+01 -7.399009138292e+01 0.0 
0.0 0.0 -3.191307216718e+01 
-3.893981112359e+01 -1.301103708672e+00 0.0 
-1.301103708672e+00 -1.054447501352e+02 0.0 
0.0 0.0 -4.291536837764e+01 
-1.173728668773e+02 2.841184803670e+00 0.0 
2.841184803670e+00 -2.964175506536e+02 0.0 
0.0 0.0 -1.237371252593e+02 
-8.998740056910e+01 -2.343767809492e-01 0.0 
-2.343767809492e-01 -2.369310447444e+02 0.0 
0.0 0.0 -9.767553359404e+01 
-1.063701771111e+02 1.122930060567e+01 0.0 
1.122930060567e+01 -2.296669744222e+02 0.0 
0.0 0.0 -1.004111454600e+02 
-9.620253562906e+01 2.685795781434e+00 0.0 
2.685795781434e+00 -2.109982833766e+02 0.0 
0.0 0.0 -9.176024570170e+01 
-1.130135236629e+02 3.091884373170e+00 0.0 
3.091884373170e+00 -2.878463432192e+02 0.0 
0.0 0.0 -1.198579600646e+02 
-1.121005692048e+02 1.728922124127e+00 0.0 
1.728922124127e+00 -2.871606170747e+02 0.0 
0.0 0.0 -1.193783558839e+02 
-3.157023204854e+01 -2.724134740644e+00 0.0 
-2.724134740644e+00 -8.518606124270e+01 0.0 
0.0 0.0 -3.462688798737e+01 
-1.166236156094e+02 1.455054990517e+00 0.0 
1.455054990517e+00 -2.957961769138e+02 0.0 
0.0 0.0 -1.233259377570e+02 
-8.532215599957e+01 2.127017923080e+00 0.0 
2.127017923080e+00 -1.800068587570e+02 0.0 
0.0 0.0 -7.919870442697e+01 
-9.072445154269e+01 1.159693424532e+00 0.0 
1.159693424532e+00 -2.375526109508e+02 0.0 
0.0 0.0 -9.808311874805e+01 
-7.879323105206e+01 2.582744146410e+00 0.0 
2.582744146410e+00 -1.626575796003e+02 0.0 
0.0 0.0 -7.203524319571e+01 
-9.044933137763e+01 3.860374848066e+00 0.0 
3.860374848066e+00 -1.918114221675e+02 0.0 
0.0 0.0 -8.427822606353e+01 
-6.532139842672e+01 1.149630550212e+01 0.0 
1.149630550212e+01 -1.871832538515e+02 0.0 
0.0 0.0 -7.535139568347e+01 
-9.255894563778e+01 1.927424523948e+00 0.0 
1.927424523948e+00 -2.017868532654e+02 0.0 
0.0 0.0 -8.790373967094e+01 
-7.407825660405e+01 -8.892648490310e-01 0.0 
-8.892648490310e-01 -1.991775762617e+02 0.0 
0.0 0.0 -8.157674985974e+01 
-8.683549372103e+01 1.199904234395e+00 0.0 
1.199904234395e+00 -2.290002349358e+02 0.0 
0.0 0.0 -9.435071859704e+01 
-5.506103047772e+01 -1.740638146680e+00 0.0 
-1.740638146680e+00 -1.506076384390e+02 0.0 
0.0 0.0 -6.130060067501e+01 
-5.673853385417e+01 -3.208235841217e-01 0.0 
-3.208235841217e-01 -1.578343031220e+02 0.0 
0.0 0.0 -6.397185109286e+01 
-8.141377048618e+01 1.430218154350e+00 0.0 
1.430218154350e+00 -1.708737840038e+02 0.0 
0.0 0.0 -7.528626634700e+01 
-7.859712483057e+01 2.934708691369e+00 0.0 
2.934708691369e+00 -2.159738882437e+02 0.0 
0.0 0.0 -8.797130392230e+01 
-4.208106596973e+01 -9.930828890889e-01 0.0 
-9.930828890889e-01 -1.140619692080e+02 0.0 
0.0 0.0 -4.644291055332e+01 
-2.285985893463e+01 -1.593416965029e+00 0.0 
-1.593416965029e+00 -5.760472464852e+01 0.0 
0.0 0.0 -2.373937507495e+01 
-8.289660241633e+01 3.195580090231e+00 0.0 
3.195580090231e+00 -1.717999177953e+02 0.0 
0.0 0.0 -7.600895606350e+01 
-4.120072845307e+01 -2.391468189084e+00 0.0 
-2.391468189084e+00 -1.133787187656e+02 0.0 
0.0 0.0 -4.597383416559e+01 
-1.415766646604e+02 6.075891391177e+00 0.0 
6.075891391177e+00 -3.457589498750e+02 0.0 
0.0 0.0 -1.458006843606e+02 
-8.521232649127e+01 1.390986583176e+00 0.0 
1.390986583176e+00 -1.817491837496e+02 0.0 
0.0 0.0 -7.968845307227e+01 
-1.214731310927e+02 2.210219818219e+00 0.0 
2.210219818219e+00 -3.061613515045e+02 0.0 
0.0 0.0 -1.278903447791e+02 
-1.456208650388e+02 1.539131138900e+01 0.0 
1.539131138900e+01 -3.480330568023e+02 0.0 
0.0 0.0 -1.476961765523e+02 
-7.093007143052e+01 5.650322551179e-01 0.0 
5.650322551179e-01 -1.901635686834e+02 0.0 
0.0 0.0 -7.792809203419e+01 
-3.749091127672e+01 -2.294758899850e+00 0.0 
-2.294758899850e+00 -1.022446282437e+02 0.0 
0.0 0.0 -4.152066185613e+01 
-2.513454968186e+01 -2.690865262981e+00 0.0 
-2.690865262981e+00 -6.536988604405e+01 0.0 
0.0 0.0 -2.675133071777e+01 
-1.132773551337e+02 4.122540265411e+00 0.0 
4.122540265411e+00 -2.894392822220e+02 0.0 
0.0 0.0 -1.204149912067e+02 
-7.375917700748e+01 3.734568527728e-01 0.0 
3.734568527728e-01 -1.529181285456e+02 0.0 
0.0 0.0 -6.760319166591e+01 
-1.916459758009e+01 -2.289159253594e+00 0.0 
-2.289159253594e+00 -4.642309647641e+01 0.0 
0.0 0.0 -1.927630821695e+01 
-5.643884710119e+01 -3.768300083828e-01 0.0 
-3.768300083828e-01 -1.534089773276e+02 0.0 
0.0 0.0 -6.255434732862e+01 
-3.363305716270e+01 -1.880799829279e-01 0.0 
-1.880799829279e-01 -8.952120285045e+01 0.0 
0.0 0.0 -3.654627800394e+01 
-7.506036938754e+01 2.519917335443e+00 0.0 
2.519917335443e+00 -1.519015602027e+02 0.0 
0.0 0.0 -6.768857887708e+01 
-6.007163222348e+01 -5.231015285947e-02 0.0 
-5.231015285947e-02 -1.621001344021e+02 0.0 
0.0 0.0 -6.625152998767e+01 
-1.030256954707e+02 2.152257374932e+00 0.0 
2.152257374932e+00 -2.697096354897e+02 0.0 
0.0 0.0 -1.114205992881e+02 
-5.562981977609e+01 -1.107754471689e-01 0.0 
-1.107754471689e-01 -1.510933560902e+02 0.0 
0.0 0.0 -6.161695275989e+01 
-9.374230322011e+01 2.851548410321e+00 0.0 
2.851548410321e+00 -2.044244199621e+02 0.0 
0.0 0.0 -8.905001695466e+01 
-4.813048156623e+01 -2.139502678066e+00 0.0 
-2.139502678066e+00 -1.330522922642e+02 0.0 
0.0 0.0 -5.395483214912e+01 
-1.132629549864e+02 5.315645894385e+00 0.0 
5.315645894385e+00 -2.905348268033e+02 0.0 
0.0 0.0 -1.207393345369e+02 
-3.454854673611e+01 -1.971667091985e+00 0.0 
-1.971667091985e+00 -9.296329646201e+01 0.0 
0.0 0.0 -3.785355295944e+01 
-1.087489169724e+02 4.334706592404e+00 0.0 
4.334706592404e+00 -2.806261178437e+02 0.0 
0.0 0.0 -1.164125104448e+02 
-8.266563112332e+01 8.003970795258e-01 0.0 
8.003970795258e-01 -2.187745153143e+02 0.0 
0.0 0.0 -9.003204393130e+01 
-1.168046957464e+02 2.521297649336e+00 0.0 
2.521297649336e+00 -2.974511468485e+02 0.0 
0.0 0.0 -1.238767527785e+02 
-4.564416306708e+01 3.497354172332e+00 0.0 
3.497354172332e+00 -1.413768895831e+02 0.0 
0.0 0.0 -5.570631579506e+01 
-3.279284603551e+01 -1.684330318792e+00 0.0 
-1.684330318792e+00 -8.862890145757e+01 0.0 
0.0 0.0 -3.602652424792e+01 
-6.687933811103e+01 1.610352644160e+00 0.0 
1.610352644160e+00 -1.336896050633e+02 0.0 
0.0 0.0 -5.977068295231e+01 
-9.737939064803e+01 9.389421609009e+00 0.0 
9.389421609009e+00 -2.600344710586e+02 0.0 
0.0 0.0 -1.068241585120e+02 
-5.550345077852e+01 1.859172371673e+01 0.0 
1.859172371673e+01 -1.305988438848e+02 0.0 
0.0 0.0 -5.543068839900e+01 
-7.471136628539e+01 2.110859639427e+00 0.0 
2.110859639427e+00 -1.534071709142e+02 0.0 
0.0 0.0 -6.803556115989e+01 
-3.760304271437e+01 -1.723793322216e+00 0.0 
-1.723793322216e+00 -1.036306310312e+02 0.0 
0.0 0.0 -4.197010212367e+01 
-7.811446642319e+01 2.115041516407e+00 0.0 
2.115041516407e+00 -1.586032457261e+02 0.0 
0.0 0.0 -7.061531364478e+01 
-2.999427735406e+01 -3.874792267680e-01 0.0 
-3.874792267680e-01 -8.045850852078e+01 0.0 
0.0 0.0 -3.273583576245e+01 
-1.322969916706e+02 6.806118888771e+00 0.0 
6.806118888771e+00 -3.279374694304e+02 0.0 
0.0 0.0 -1.376703383303e+02 
-1.014988227175e+02 1.092164282412e+01 0.0 
1.092164282412e+01 -2.680416376633e+02 0.0 
0.0 0.0 -1.104621381142e+02 
-1.044917591413e+02 1.658556852149e+01 0.0 
1.658556852149e+01 -2.665236369093e+02 0.0 
0.0 0.0 -1.109046188152e+02 
-1.046792283718e+02 5.113968241290e+00 0.0 
5.113968241290e+00 -2.324558620791e+02 0.0 
0.0 0.0 -1.007405271353e+02 
-8.667021822406e+01 3.896333179449e+00 0.0 
3.896333179449e+00 -2.347609350719e+02 0.0 
0.0 0.0 -9.602934598877e+01 
-3.076838694925e+01 -2.341593666877e+00 0.0 
-2.341593666877e+00 -8.285471465145e+01 0.0 
0.0 0.0 -3.368693048021e+01 
-9.966083962472e+01 4.683035688192e+00 0.0 
4.683035688192e+00 -2.626905976118e+02 0.0 
0.0 0.0 -1.083054311709e+02 
-1.362657868946e+02 6.617057242222e+00 0.0 
6.617057242222e+00 -3.366324797617e+02 0.0 
0.0 0.0 -1.414694799969e+02 
-4.681514205171e+01 -6.044633776261e-01 0.0 
-6.044633776261e-01 -1.331623198267e+02 0.0 
0.0 0.0 -5.359323856353e+01 
-1.177879939607e+02 3.876828611018e+00 0.0 
3.876828611018e+00 -2.981637834560e+02 0.0 
0.0 0.0 -1.243855332250e+02 
-8.649719653917e+01 3.148691820217e+00 0.0 
3.148691820217e+00 -1.825902009830e+02 0.0 
0.0 0.0 -8.032621925664e+01 
-3.587972185530e+01 -1.835945386480e+00 0.0 
-1.835945386480e+00 -1.046248614046e+02 0.0 
0.0 0.0 -4.175137497796e+01 
-1.042107319170e+02 4.516145015914e+00 0.0 
4.516145015914e+00 -2.717146910749e+02 0.0 
0.0 0.0 -1.123776268976e+02 
-6.736593591599e+01 2.416269143275e+00 0.0 
2.416269143275e+00 -1.303747050652e+02 0.0 
0.0 0.0 -5.892219229436e+01 
-4.454980165715e+01 -2.947296365865e-01 0.0 
-2.947296365865e-01 -1.201847786441e+02 0.0 
0.0 0.0 -4.902037409038e+01 
-5.295551624333e+01 -6.657444182604e-01 0.0 
-6.657444182604e-01 -1.447640576559e+02 0.0 
0.0 0.0 -5.891587216977e+01 
-7.055465861135e+01 1.996212178173e+01 0.0 
1.996212178173e+01 -1.676900625682e+02 0.0 
0.0 0.0 -7.107341635388e+01 
-1.121179282023e+02 2.796917545257e+00 0.0 
2.796917545257e+00 -2.886558539196e+02 0.0 
0.0 0.0 -1.198321346366e+02 
-4.803546476012e+01 2.061745473094e+01 0.0 
2.061745473094e+01 -9.898776575159e+01 0.0 
0.0 0.0 -4.370696915352e+01 
-6.616827134501e+01 1.932416882604e+01 0.0 
1.932416882604e+01 -1.635822565318e+02 0.0 
0.0 0.0 -6.852515836303e+01 
-8.172612773380e+01 2.135893182682e+00 0.0 
2.135893182682e+00 -1.692627614806e+02 0.0 
0.0 0.0 -7.489666676432e+01 
-6.967529436393e+01 2.917581090147e-01 0.0 
2.917581090147e-01 -1.419965740677e+02 0.0 
0.0 0.0 -6.310156052950e+01 
-7.016185430984e+01 1.236776204479e+00 0.0 
1.236776204479e+00 -1.387168757927e+02 0.0 
0.0 0.0 -6.226361903078e+01 
-8.194790424635e+01 -4.303017727445e-01 0.0 
-4.303017727445e-01 -2.180876771301e+02 0.0 
0.0 0.0 -8.961067441293e+01 
-1.272184689036e+02 8.842621633573e+00 0.0 
8.842621633573e+00 -3.188591763592e+02 0.0 
0.0 0.0 -1.334232935788e+02 
-9.510367723735e+01 4.853301520776e+00 0.0 
4.853301520776e+00 -2.535407737359e+02 0.0 
0.0 0.0 -1.041933352920e+02 
-6.683993471166e+01 1.907525461508e+00 0.0 
1.907525461508e+00 -1.320205149870e+02 0.0 
0.0 0.0 -5.925813490960e+01 
-1.148996067787e+02 1.750478541370e+01 0.0 
1.750478541370e+01 -2.478474719355e+02 0.0 
0.0 0.0 -1.084241236143e+02 
-1.089070886711e+02 1.792784972909e+01 0.0 
1.792784972909e+01 -2.726989712639e+02 0.0 
0.0 0.0 -1.140818179805e+02 
-1.074302821368e+02 3.036962328895e+00 0.0 
3.036962328895e+00 -2.797811889067e+02 0.0 
0.0 0.0 -1.157634413131e+02 
-8.894667301084e+01 2.068044591597e+00 0.0 
2.068044591597e+00 -1.908717234537e+02 0.0 
0.0 0.0 -8.354551893936e+01 
-6.027405682069e+01 -8.277089334499e-02 0.0 
-8.277089334499e-02 -1.663370508025e+02 0.0 
0.0 0.0 -6.758333228696e+01 
-5.664157293971e+01 -4.460074959573e-01 0.0 
-4.460074959573e-01 -1.556204535553e+02 0.0 
0.0 0.0 -6.327860794851e+01 
-3.202424271246e+01 -1.388041466503e+00 0.0 
-1.388041466503e+00 -8.567275634913e+01 0.0 
0.0 0.0 -3.490909971848e+01 
-1.038880277326e+02 5.789358844289e+00 0.0 
5.789358844289e+00 -2.722954486442e+02 0.0 
0.0 0.0 -1.124550429131e+02 
-6.019172303856e+01 -1.843151302383e-01 0.0 
-1.843151302383e-01 -1.642954730194e+02 0.0 
0.0 0.0 -6.694615881740e+01 
-7.926666700490e+01 3.217058516065e+00 0.0 
3.217058516065e+00 -1.610005966754e+02 0.0 
0.0 0.0 -7.168017910408e+01 
-7.561625935534e+01 3.210016775290e+00 0.0 
3.210016775290e+00 -1.502992051403e+02 0.0 
0.0 0.0 -6.737463934868e+01 
-7.073223919322e+01 1.097938998416e+01 0.0 
1.097938998416e+01 -1.992203588017e+02 0.0 
0.0 0.0 -8.058577939849e+01 
-4.828495644275e+01 -2.202387381918e+00 0.0 
-2.202387381918e+00 -1.353283735826e+02 0.0 
0.0 0.0 -5.468399900760e+01 
-4.095536628394e+01 7.379513181336e+00 0.0 
7.379513181336e+00 -1.282202056433e+02 0.0 
0.0 0.0 -5.035267157816e+01 
-5.171585744347e+01 -1.990867039040e+00 0.0 
-1.990867039040e+00 -1.439448177450e+02 0.0 
0.0 0.0 -5.829820255654e+01 
-5.524156567271e+01 -1.711367492447e+00 0.0 
-1.711367492447e+00 -1.547477417671e+02 0.0 
0.0 0.0 -6.259679223195e+01 
-3.446970997407e+01 -2.539241385938e+00 0.0 
-2.539241385938e+00 -9.374338514037e+01 0.0 
0.0 0.0 -3.806392853433e+01 
-1.221579975150e+02 9.310083558375e+00 0.0 
9.310083558375e+00 -3.093519499828e+02 0.0 
0.0 0.0 -1.290529842493e+02 
-6.556602441172e+01 1.023328930200e-01 0.0 
1.023328930200e-01 -1.862273119446e+02 0.0 
0.0 0.0 -7.513800090691e+01 
-9.391310181784e+01 3.702473252007e+00 0.0 
3.702473252007e+00 -2.026618729799e+02 0.0 
0.0 0.0 -8.857249243932e+01 
-6.898192833990e+01 1.026115715863e+00 0.0 
1.026115715863e+00 -1.962051623260e+02 0.0 
0.0 0.0 -7.915612719978e+01 
-9.805904567218e+01 3.482425320486e+00 0.0 
3.482425320486e+00 -2.617494409162e+02 0.0 
0.0 0.0 -1.075425459765e+02 
-8.106770792300e+01 1.768099058695e+00 0.0 
1.768099058695e+00 -2.240006292471e+02 0.0 
0.0 0.0 -9.112050115104e+01 
-6.573775706295e+01 1.729693846003e+01 0.0 
1.729693846003e+01 -1.731335392071e+02 0.0 
0.0 0.0 -7.126138888102e+01 
-3.515585714906e+01 -1.174511127763e+00 0.0 
-1.174511127763e+00 -9.435656906848e+01 0.0 
0.0 0.0 -3.845372786526e+01 
-1.310123310990e+02 7.121800158280e+00 0.0 
7.121800158280e+00 -3.273188562420e+02 0.0 
0.0 0.0 -1.370993562023e+02 
-1.375641398401e+02 9.839232753097e+00 0.0 
9.839232753097e+00 -3.383379016492e+02 0.0 
0.0 0.0 -1.423706124468e+02 
-9.147333823000e+01 1.833143266659e+01 0.0 
1.833143266659e+01 -2.101375727621e+02 0.0 
0.0 0.0 -9.008327329764e+01 
-5.869400603055e+01 -1.294972102777e+00 0.0 
-1.294972102777e+00 -1.653996485986e+02 0.0 
0.0 0.0 -6.682809638874e+01 
-8.937773722483e+01 2.628790021112e+00 0.0 
2.628790021112e+00 -2.428885586117e+02 0.0 
0.0 0.0 -9.927988875096e+01 
-7.765098776202e+01 1.382729335112e+00 0.0 
1.382729335112e+00 -1.600083517552e+02 0.0 
0.0 0.0 -7.089780185518e+01 
-6.393279164244e+01 1.314511266708e-01 0.0 
1.314511266708e-01 -1.750352589585e+02 0.0 
0.0 0.0 -7.129041518027e+01 
-5.088936556710e+01 1.911049216591e+01 0.0 
1.911049216591e+01 -1.274257625992e+02 0.0 
0.0 0.0 -5.309453844989e+01 
-4.908989384668e+01 -7.375786301290e-01 0.0 
-7.375786301290e-01 -1.337687593606e+02 0.0 
0.0 0.0 -5.445759596219e+01 
-4.066403023714e+01 -1.298557424989e+00 0.0 
-1.298557424989e+00 -1.141951679426e+02 0.0 
0.0 0.0 -4.605775945391e+01 
-6.384818640626e+01 4.338548091824e-01 0.0 
4.338548091824e-01 -1.768831289266e+02 0.0 
0.0 0.0 -7.181939459986e+01 
-4.440689894456e+01 -2.108439514248e+00 0.0 
-2.108439514248e+00 -1.219933502920e+02 0.0 
0.0 0.0 -4.952007477097e+01 
-4.134809771066e+01 -5.554056149418e-01 0.0 
-5.554056149418e-01 -1.115266346638e+02 0.0 
0.0 0.0 -4.546241971235e+01 
-8.284325444914e+01 2.891243551931e+00 0.0 
2.891243551931e+00 -2.249996124906e+02 0.0 
0.0 0.0 -9.195286008191e+01 
-1.027433892177e+02 3.259695732085e+00 0.0 
3.259695732085e+00 -2.708170277661e+02 0.0 
0.0 0.0 -1.116681250951e+02 
-1.107365313662e+02 1.912036673356e+01 0.0 
1.912036673356e+01 -2.541739643118e+02 0.0 
0.0 0.0 -1.090731487034e+02 
-7.154266967759e+00 -6.559600539519e-01 0.0 
-6.559600539519e-01 -9.087858689078e+00 0.0 
0.0 0.0 -4.472637697051e+00 
-6.401797617889e+01 2.699895206779e+00 0.0 
2.699895206779e+00 -1.873635341009e+02 0.0 
0.0 0.0 -7.501445308395e+01 
-6.488240149919e+01 1.190554225454e+00 0.0 
1.190554225454e+00 -1.872208991674e+02 0.0 
0.0 0.0 -7.523099019998e+01 
-6.211781682048e+01 -6.847113320970e-01 0.0 
-6.847113320970e-01 -1.759177367950e+02 0.0 
0.0 0.0 -7.101066608465e+01 
-7.391504868183e+01 1.328967887054e+00 0.0 
1.328967887054e+00 -1.492661285266e+02 0.0 
0.0 0.0 -6.655435316253e+01 
-7.312651620539e+01 9.142159768503e-01 0.0 
9.142159768503e-01 -2.050970353621e+02 0.0 
0.0 0.0 -8.306706547025e+01 
-5.154075644107e+01 -1.905324615287e+00 0.0 
-1.905324615287e+00 -1.417386226974e+02 0.0 
0.0 0.0 -5.758381374153e+01 
-6.739198825622e+01 1.122836024448e+00 0.0 
1.122836024448e+00 -1.872250991837e+02 0.0 
0.0 0.0 -7.598512623199e+01 
-8.885705562479e+01 1.269739304064e+00 0.0 
1.269739304064e+00 -1.926477424566e+02 0.0 
0.0 0.0 -8.405143942443e+01 
-5.230544819947e+01 -4.358208643057e-01 0.0 
-4.358208643057e-01 -1.423891445834e+02 0.0 
0.0 0.0 -5.800837783485e+01 
-2.145968021235e+01 -2.233091799152e+00 0.0 
-2.233091799152e+00 -5.451853901135e+01 0.0 
0.0 0.0 -2.239346576711e+01 
-2.794877445373e+01 -2.470081001463e+00 0.0 
-2.470081001463e+00 -7.432626038796e+01 0.0 
0.0 0.0 -3.028251045251e+01 
-4.210098218547e+01 -2.050745795257e+00 0.0 
-2.050745795257e+00 -1.219208290737e+02 0.0 
0.0 0.0 -4.880654337776e+01 
-5.171023943894e+01 -1.870437618040e+00 0.0 
-1.870437618040e+00 -1.461911929395e+02 0.0 
0.0 0.0 -5.897042971353e+01 
-6.818305315909e+01 2.347092415969e+00 0.0 
2.347092415969e+00 -1.966471087024e+02 0.0 
0.0 0.0 -7.904904855846e+01 
-7.089554108366e+01 1.984459397977e+00 0.0 
1.984459397977e+00 -1.972398397303e+02 0.0 
0.0 0.0 -8.004061424418e+01 
-3.155521928916e+01 -1.961003720362e+00 0.0 
-1.961003720362e+00 -8.395258733864e+01 0.0 
0.0 0.0 -3.425234198834e+01 
-2.794784310405e+01 -1.106769690742e+00 0.0 
-1.106769690742e+00 -7.461262041738e+01 0.0 
0.0 0.0 -3.036813905643e+01 
-7.251672708049e+01 4.075944248970e+00 0.0 
4.075944248970e+00 -1.379283118036e+02 0.0 
0.0 0.0 -6.273351166523e+01 
-4.525671654924e+01 -6.505098042549e-01 0.0 
-6.505098042549e-01 -1.226716574181e+02 0.0 
0.0 0.0 -4.997851219021e+01 
-1.160473065575e+02 6.734806417289e+00 0.0 
6.734806417289e+00 -2.993888674689e+02 0.0 
0.0 0.0 -1.242308522079e+02 
-1.070669254747e+02 1.895041221410e+01 0.0 
1.895041221410e+01 -2.486640531192e+02 0.0 
0.0 0.0 -1.063192935782e+02 
-8.150650197273e+01 1.106840927710e+01 0.0 
1.106840927710e+01 -1.512012642494e+02 0.0 
0.0 0.0 -6.941232986663e+01 
-9.698396527178e+01 4.989140599564e+00 0.0 
4.989140599564e+00 -2.083943708313e+02 0.0 
0.0 0.0 -9.121350083092e+01 
-1.141980792616e+02 1.909423468168e+01 0.0 
1.909423468168e+01 -2.599683465812e+02 0.0 
0.0 0.0 -1.118499277528e+02 
-6.645017666080e+01 1.190658738779e+01 0.0 
1.190658738779e+01 -1.877498266181e+02 0.0 
0.0 0.0 -7.586000098365e+01 
-9.926169075237e+01 1.853853292293e+01 0.0 
1.853853292293e+01 -2.293605969805e+02 0.0 
0.0 0.0 -9.818668631986e+01 
-3.484152562812e+01 -1.855144761537e+00 0.0 
-1.855144761537e+00 -9.506572249271e+01 0.0 
0.0 0.0 -3.857217443625e+01 
-7.129406648079e+01 1.217972991873e+00 0.0 
1.217972991873e+00 -1.959792348917e+02 0.0 
0.0 0.0 -7.978199041174e+01 
-5.759101759933e+01 1.375568100196e+01 0.0 
1.375568100196e+01 -1.633319786511e+02 0.0 
0.0 0.0 -6.587689887512e+01 
-3.527290718863e+01 -3.063982252887e-01 0.0 
-3.063982252887e-01 -1.060797771765e+02 0.0 
0.0 0.0 -4.200580530955e+01 
-2.943826345992e+01 -2.138940795816e+00 0.0 
-2.138940795816e+00 -7.592837181133e+01 0.0 
0.0 0.0 -3.120999058137e+01 
-5.887791826672e+01 -1.519891049443e+00 0.0 
-1.519891049443e+00 -1.634464317295e+02 0.0 
0.0 0.0 -6.629730499885e+01 
-6.685681658022e+01 2.029494769943e+00 0.0 
2.029494769943e+00 -1.882623474934e+02 0.0 
0.0 0.0 -7.613574922208e+01 
-7.019253587872e+01 3.149125698214e+00 0.0 
3.149125698214e+00 -1.976816676427e+02 0.0 
0.0 0.0 -7.996226105642e+01 
-4.765962149862e+01 -1.794229533099e+00 0.0 
-1.794229533099e+00 -1.306221389701e+02 0.0 
0.0 0.0 -5.308452814061e+01 
-7.671070698992e+01 1.906764435873e+00 0.0 
1.906764435873e+00 -2.149493597732e+02 0.0 
0.0 0.0 -8.709802002894e+01 
-6.604677039581e+01 3.357453611388e+00 0.0 
3.357453611388e+00 -1.883835802733e+02 0.0 
0.0 0.0 -7.592910520072e+01 
-6.727065544240e+01 4.106062593806e+00 0.0 
4.106062593806e+00 -1.961597834038e+02 0.0 
0.0 0.0 -7.862913165386e+01 
-5.320127465890e+01 -7.105017158738e-01 0.0 
-7.105017158738e-01 -1.470703830750e+02 0.0 
0.0 0.0 -5.968149732016e+01 
-1.007993932217e+02 1.303835243418e+01 0.0 
1.303835243418e+01 -2.647506952720e+02 0.0 
0.0 0.0 -1.092650265481e+02 
-8.347354667429e+01 4.011490043255e+00 0.0 
4.011490043255e+00 -1.703167603858e+02 0.0 
0.0 0.0 -7.573709211802e+01 
-6.308991982818e+01 4.659206810140e+00 0.0 
4.659206810140e+00 -1.865012605590e+02 0.0 
0.0 0.0 -7.447735411616e+01 
-1.259032786745e+02 7.607895818885e+00 0.0 
7.607895818885e+00 -3.180338875752e+02 0.0 
0.0 0.0 -1.327811498749e+02 
-3.765837377995e+01 -1.310739151893e+00 0.0 
-1.310739151893e+00 -1.054917334805e+02 0.0 
0.0 0.0 -4.254503217814e+01 
-1.358172864886e+02 1.052022789116e+01 0.0 
1.052022789116e+01 -3.362557879265e+02 0.0 
0.0 0.0 -1.412219223245e+02 
-7.240760312921e+01 2.084110814904e+00 0.0 
2.084110814904e+00 -2.057936383547e+02 0.0 
0.0 0.0 -8.306037244518e+01 
-1.179160492318e+02 1.915300340171e+01 0.0 
1.915300340171e+01 -2.677328156400e+02 0.0 
0.0 0.0 -1.152946594615e+02 
-8.519630993468e+01 1.820762109504e+01 0.0 
1.820762109504e+01 -1.738521082471e+02 0.0 
0.0 0.0 -7.731452545453e+01 
-3.619715841970e+01 -2.581434288296e+00 0.0 
-2.581434288296e+00 -1.028464377585e+02 0.0 
0.0 0.0 -4.131307885346e+01 
-8.558546457182e+01 1.299823218200e+01 0.0 
1.299823218200e+01 -1.628599322200e+02 0.0 
0.0 0.0 -7.413361903754e+01 
-1.017087618935e+02 7.752077988877e+00 0.0 
7.752077988877e+00 -2.180633398258e+02 0.0 
0.0 0.0 -9.553163051579e+01 
-7.591476284860e+01 3.301101823651e+00 0.0 
3.301101823651e+00 -2.151072684088e+02 0.0 
0.0 0.0 -8.690660937721e+01 
-4.344547338973e+01 1.591835029260e+01 0.0 
1.591835029260e+01 -1.190673979713e+02 0.0 
0.0 0.0 -4.835386140832e+01 
-8.945803255093e+01 1.479648118589e+01 0.0 
1.479648118589e+01 -1.750851910177e+02 0.0 
0.0 0.0 -7.896296707059e+01 
-6.338722918654e+01 1.848352674585e+01 0.0 
1.848352674585e+01 -1.490753189804e+02 0.0 
0.0 0.0 -6.333876445007e+01 
-3.057079693722e+01 -2.943778132135e+00 0.0 
-2.943778132135e+00 -8.330634863483e+01 0.0 
0.0 0.0 -3.376314367161e+01 
-1.106627909909e+02 6.686579697086e+00 0.0 
6.686579697086e+00 -2.496319296137e+02 0.0 
0.0 0.0 -1.076884161814e+02 
-2.770001857886e+01 -3.024670171692e+00 0.0 
-3.024670171692e+00 -7.284283215974e+01 0.0 
0.0 0.0 -2.976285522158e+01 
-1.286630246212e+02 1.817766894247e+01 0.0 
1.817766894247e+01 -3.154787385679e+02 0.0 
0.0 0.0 -1.328425289567e+02 
-9.960089532361e+01 2.455788755209e+00 0.0 
2.455788755209e+00 -2.217344283460e+02 0.0 
0.0 0.0 -9.600059710087e+01 
-1.057415276467e+02 1.247784309694e+01 0.0 
1.247784309694e+01 -2.757353924376e+02 0.0 
0.0 0.0 -1.140430760253e+02 
-6.968209081500e+01 6.349852597040e-01 0.0 
6.349852597040e-01 -1.399985313756e+02 0.0 
0.0 0.0 -6.250418665717e+01 
-9.508906664372e+01 5.839550736906e+00 0.0 
5.839550736906e+00 -1.999578128746e+02 0.0 
0.0 0.0 -8.811406385549e+01 
-6.926707830676e+01 4.723898565075e+00 0.0 
4.723898565075e+00 -1.971484194975e+02 0.0 
0.0 0.0 -7.952464934128e+01 
-7.878758367078e+01 1.187425036205e+01 0.0 
1.187425036205e+01 -2.171278748477e+02 0.0 
0.0 0.0 -8.837463755556e+01 
-1.039788204291e+02 5.860858771800e+00 0.0 
5.860858771800e+00 -2.286804078772e+02 0.0 
0.0 0.0 -9.939776849188e+01 
-1.119115545294e+02 4.032392975199e+00 0.0 
4.032392975199e+00 -2.896761513402e+02 0.0 
0.0 0.0 -1.200763117609e+02 
-8.773839826559e+01 4.925442062803e+00 0.0 
4.925442062803e+00 -1.797872941713e+02 0.0 
0.0 0.0 -7.985770773106e+01 
-1.005854696061e+02 7.903803261027e+00 0.0 
7.903803261027e+00 -2.693501843934e+02 0.0 
0.0 0.0 -1.105806961999e+02 
-3.332163237270e+01 -2.514003840684e+00 0.0 
-2.514003840684e+00 -9.427354470095e+01 0.0 
0.0 0.0 -3.787855312209e+01 
-9.198724372339e+01 5.996976558383e+00 0.0 
5.996976558383e+00 -1.893766698074e+02 0.0 
0.0 0.0 -8.400917405922e+01 
-1.306576559285e+02 2.322898701646e+01 0.0 
2.322898701646e+01 -3.043737848705e+02 0.0 
0.0 0.0 -1.301094322397e+02 
-1.365170827064e+02 8.393399825638e+00 0.0 
8.393399825638e+00 -3.374388478101e+02 0.0 
0.0 0.0 -1.417867791549e+02 
-6.956917507695e+01 7.888344932747e-02 0.0 
7.888344932747e-02 -1.949995136607e+02 0.0 
0.0 0.0 -7.897060662129e+01 
-7.115632822014e+01 2.537244966861e+00 0.0 
2.537244966861e+00 -1.408808466263e+02 0.0 
0.0 0.0 -6.321115245393e+01 
-6.574475975774e+01 5.221463486645e-01 0.0 
5.221463486645e-01 -1.293737610209e+02 0.0 
0.0 0.0 -5.813555623359e+01 
-7.435407090645e+01 3.022409051489e+00 0.0 
3.022409051489e+00 -2.068247615368e+02 0.0 
0.0 0.0 -8.395364973298e+01 
-1.070915305956e+02 4.315631195431e+00 0.0 
4.315631195431e+00 -2.805758678562e+02 0.0 
0.0 0.0 -1.159002195355e+02 
-1.115312797718e+02 5.472366772524e+00 0.0 
5.472366772524e+00 -2.901081733202e+02 0.0 
0.0 0.0 -1.200918359276e+02 
-2.543434840746e+01 -1.258033934504e+00 0.0 
-1.258033934504e+00 -6.581936279432e+01 0.0 
0.0 0.0 -2.697611336053e+01 
-3.518329582106e+01 6.569175019342e+00 0.0 
6.569175019342e+00 -1.108996401501e+02 0.0 
0.0 0.0 -4.342488079133e+01 
-6.642955734527e+01 6.270440490986e+00 0.0 
6.270440490986e+00 -1.946349914952e+02 0.0 
0.0 0.0 -7.791936465215e+01 
-6.506262900875e+01 5.155963825637e+00 0.0 
5.155963825637e+00 -1.874547446866e+02 0.0 
0.0 0.0 -7.535521210860e+01 
-6.226456789153e+01 1.736219979807e+01 0.0 
1.736219979807e+01 -1.594281755578e+02 0.0 
0.0 0.0 -6.610782303481e+01 
-1.087693311780e+02 7.381742022206e+00 0.0 
7.381742022206e+00 -2.400449044134e+02 0.0 
0.0 0.0 -1.042442706774e+02 
-1.078111459547e+02 1.333785573102e+01 0.0 
1.333785573102e+01 -2.325657049537e+02 0.0 
0.0 0.0 -1.017130552725e+02 
-1.008792541995e+02 4.176377670605e+00 0.0 
4.176377670605e+00 -2.224731508233e+02 0.0 
0.0 0.0 -9.660572150682e+01 
-5.243531208345e+01 2.018536912308e+01 0.0 
2.018536912308e+01 -1.021456027107e+02 0.0 
0.0 0.0 -4.597427443825e+01 
-9.484447344265e+01 6.601103525426e+00 0.0 
6.601103525426e+00 -1.976020683122e+02 0.0 
0.0 0.0 -8.733396252645e+01 
-1.085796989418e+02 5.555319246107e+00 0.0 
5.555319246107e+00 -2.814764991661e+02 0.0 
0.0 0.0 -1.166168594324e+02 
-1.034124849998e+02 4.439039204580e+00 0.0 
4.439039204580e+00 -2.297987416396e+02 0.0 
0.0 0.0 -9.956336799182e+01 
-8.882740010448e+01 6.129776353266e+00 0.0 
6.129776353266e+00 -1.788573703974e+02 0.0 
0.0 0.0 -7.990543115056e+01 
-7.494110649482e+01 2.000039255265e+00 0.0 
2.000039255265e+00 -2.061069008966e+02 0.0 
0.0 0.0 -8.391440221741e+01 
-6.225728572951e+01 7.046652142678e+00 0.0 
7.046652142678e+00 -1.844154899951e+02 0.0 
0.0 0.0 -7.360183271737e+01 
-8.980476788797e+01 4.013963377672e+00 0.0 
4.013963377672e+00 -1.881167201055e+02 0.0 
0.0 0.0 -8.297644639805e+01 
-1.021126395320e+02 6.713238235837e+00 0.0 
6.713238235837e+00 -2.202284616021e+02 0.0 
0.0 0.0 -9.630233034024e+01 
-8.924123302786e+01 2.933648846546e+00 0.0 
2.933648846546e+00 -1.893259762157e+02 0.0 
0.0 0.0 -8.317016277305e+01 
-8.576719592710e+01 3.002865965125e+00 0.0 
3.002865965125e+00 -1.786279020463e+02 0.0 
0.0 0.0 -7.891852939203e+01 
-1.261974008342e+02 5.890871264439e+00 0.0 
5.890871264439e+00 -3.180774069627e+02 0.0 
0.0 0.0 -1.328824423391e+02 
-1.236117106068e+02 1.850670471377e+01 0.0 
1.850670471377e+01 -3.037929349216e+02 0.0 
0.0 0.0 -1.278213936585e+02 
-1.211481017622e+02 6.303149836695e+00 0.0 
6.303149836695e+00 -3.088267711229e+02 0.0 
0.0 0.0 -1.285924618655e+02 
-9.392083922509e+01 2.468977217795e+00 0.0 
2.468977217795e+00 -2.519127882470e+02 0.0 
0.0 0.0 -1.033500882416e+02 
-4.813549542185e+01 9.744271511192e+00 0.0 
9.744271511192e+00 -7.486509565422e+01 0.0 
0.0 0.0 -3.650017732282e+01 
-1.099942621501e+02 1.400415955770e+01 0.0 
1.400415955770e+01 -2.829986670977e+02 0.0 
0.0 0.0 -1.174978787743e+02 
-8.885296538128e+01 7.035457955691e+00 0.0 
7.035457955691e+00 -1.778601212221e+02 0.0 
0.0 0.0 -7.961392598101e+01 
-4.063739536679e+01 -1.983756970773e+00 0.0 
-1.983756970773e+00 -1.109162279221e+02 0.0 
0.0 0.0 -4.506608698666e+01 
-6.827909679233e+01 6.760805184352e+00 0.0 
6.760805184352e+00 -1.955309867079e+02 0.0 
0.0 0.0 -7.874302505006e+01 
-7.864654500890e+01 6.561552537186e+00 0.0 
6.561552537186e+00 -2.226330756979e+02 0.0 
0.0 0.0 -8.998388621204e+01 
-8.720229637855e+01 1.275823090620e+01 0.0 
1.275823090620e+01 -2.352054641432e+02 0.0 
0.0 0.0 -9.632232815652e+01 
-3.409507337886e+01 1.620972482449e+00 0.0 
1.620972482449e+00 -1.054590772479e+02 0.0 
0.0 0.0 -4.146624518801e+01 
-6.403922413203e+01 7.411932895497e+00 0.0 
7.411932895497e+00 -1.852570138409e+02 0.0 
0.0 0.0 -7.438887139187e+01 
-9.595770607777e+01 1.364897050602e+01 0.0 
1.364897050602e+01 -2.534233791171e+02 0.0 
0.0 0.0 -1.044143255584e+02 
-6.150049458651e+01 1.384693566999e+01 0.0 
1.384693566999e+01 -1.113715849577e+02 0.0 
0.0 0.0 -5.146162386326e+01 
-7.733763028613e+01 8.637658893806e-01 0.0 
8.637658893806e-01 -2.140074799536e+02 0.0 
0.0 0.0 -8.700353307193e+01 
-8.106362521466e+01 5.062522371483e+00 0.0 
5.062522371483e+00 -1.585657825920e+02 0.0 
0.0 0.0 -7.148882234200e+01 
-5.276097474166e+01 -3.040723184618e-01 0.0 
-3.040723184618e-01 -9.942616614599e+01 0.0 
0.0 0.0 -4.525614226629e+01 
-2.294800886674e+01 1.477797307143e+01 0.0 
1.477797307143e+01 -1.773317186561e+01 0.0 
0.0 0.0 -1.180435421970e+01 
-9.108301274321e+01 3.791605609839e+00 0.0 
3.791605609839e+00 -2.438656933386e+02 0.0 
0.0 0.0 -1.000846118245e+02 
-1.092487832220e+02 1.084669453514e+01 0.0 
1.084669453514e+01 -2.855510005061e+02 0.0 
0.0 0.0 -1.180399351184e+02 
-1.105477643547e+02 1.265191051294e+01 0.0 
1.265191051294e+01 -2.412942914097e+02 0.0 
0.0 0.0 -1.051526167293e+02 
-7.364572805541e+01 9.589559178495e+00 0.0 
9.589559178495e+00 -2.095768762031e+02 0.0 
0.0 0.0 -8.456678127756e+01 
-8.545234185636e+01 1.663029292407e+00 0.0 
1.663029292407e+00 -2.329791543833e+02 0.0 
0.0 0.0 -9.512944887188e+01 
-7.997214423081e+01 4.013161940430e+00 0.0 
4.013161940430e+00 -1.597011888903e+02 0.0 
0.0 0.0 -7.150199993635e+01 
-2.334153126274e+01 1.569115056145e+01 0.0 
1.569115056145e+01 -1.895347140464e+01 0.0 
0.0 0.0 -1.228850080022e+01 
-1.042762389608e+02 1.142287662589e+01 0.0 
1.142287662589e+01 -2.748866297999e+02 0.0 
0.0 0.0 -1.133488606282e+02 
-8.330849032193e+01 1.112428528978e+01 0.0 
1.112428528978e+01 -2.283296961078e+02 0.0 
0.0 0.0 -9.309145592891e+01 
-6.636434388575e+01 1.595416986751e+01 0.0 
1.595416986751e+01 -1.188826818368e+02 0.0 
0.0 0.0 -5.517410771676e+01 
-1.130149596935e+02 6.701771378067e+00 0.0 
6.701771378067e+00 -2.910028847105e+02 0.0 
0.0 0.0 -1.208053533212e+02 
-3.734974680833e+01 -3.634537571000e-01 0.0 
-3.634537571000e-01 -1.069523659789e+02 0.0 
0.0 0.0 -4.289063383618e+01 
-1.175394437969e+02 7.950184228240e+00 0.0 
7.950184228240e+00 -3.002859469987e+02 0.0 
0.0 0.0 -1.249476172387e+02 
-1.307467979105e+02 8.935740625262e+00 0.0 
8.935740625262e+00 -3.271361221764e+02 0.0 
0.0 0.0 -1.369648760261e+02 
-9.944002227172e+01 1.202992588368e+01 0.0 
1.202992588368e+01 -2.639577852634e+02 0.0 
0.0 0.0 -1.086193422605e+02 
-9.102591996738e+01 4.821819317483e+00 0.0 
4.821819317483e+00 -1.904084292788e+02 0.0 
0.0 0.0 -8.403030477387e+01 
-1.076908898653e+02 2.040480174740e+01 0.0 
2.040480174740e+01 -2.572286311088e+02 0.0 
0.0 0.0 -1.090758562923e+02 
-1.322230758573e+02 1.031759775977e+01 0.0 
1.031759775977e+01 -3.280146822815e+02 0.0 
0.0 0.0 -1.376713274416e+02 
-2.248147909897e+01 1.528683739909e+01 0.0 
1.528683739909e+01 -1.927142970573e+01 0.0 
0.0 0.0 -1.212587264141e+01 
-8.444358016471e+01 4.974218688820e+00 0.0 
4.974218688820e+00 -1.692044666213e+02 0.0 
0.0 0.0 -7.569441403580e+01 
-1.226105021951e+02 2.002581901359e+01 0.0 
2.002581901359e+01 -2.975044385355e+02 0.0 
0.0 0.0 -1.256344822192e+02 
-9.311180086940e+01 3.896897830847e+00 0.0 
3.896897830847e+00 -1.987875641932e+02 0.0 
0.0 0.0 -8.716980951877e+01 
-9.053353038574e+01 1.120017013089e+01 0.0 
1.120017013089e+01 -2.457198444122e+02 0.0 
0.0 0.0 -1.004760124394e+02 
-6.728698979035e+01 9.192546719445e+00 0.0 
9.192546719445e+00 -1.924429933733e+02 0.0 
0.0 0.0 -7.751899494910e+01 
-8.606872082352e+01 2.166071737632e-01 0.0 
2.166071737632e-01 -2.301455202351e+02 0.0 
0.0 0.0 -9.446427231760e+01 
-2.302883859392e+01 1.259767083504e+00 0.0 
1.259767083504e+00 -6.051518205001e+01 0.0 
0.0 0.0 -2.466320619318e+01 
-9.645508061937e+01 3.704339684506e+00 0.0 
3.704339684506e+00 -2.094934137274e+02 0.0 
0.0 0.0 -9.138454830403e+01 
-4.393468473454e+01 -1.768488887446e+00 0.0 
-1.768488887446e+00 -1.196511721804e+02 0.0 
0.0 0.0 -4.867575707447e+01 
-2.116613398376e+01 1.430103613734e+01 0.0 
1.430103613734e+01 -1.875045867517e+01 0.0 
0.0 0.0 -1.157497779768e+01 
-1.034092622557e+02 2.044222342760e+01 0.0 
2.044222342760e+01 -2.436111863360e+02 0.0 
0.0 0.0 -1.037061345775e+02 
-1.034355117979e+02 3.256756226183e+00 0.0 
3.256756226183e+00 -2.315868411934e+02 0.0 
0.0 0.0 -1.001067058974e+02 
-3.481637136719e+01 -1.226666311764e+00 0.0 
-1.226666311764e+00 -9.693311055880e+01 0.0 
0.0 0.0 -3.912484457780e+01 
-7.509163345003e+01 2.021315388256e+01 0.0 
2.021315388256e+01 -1.720576962762e+02 0.0 
0.0 0.0 -7.374479891786e+01 
-8.652381910204e+01 4.058330960165e+00 0.0 
4.058330960165e+00 -1.775364073128e+02 0.0 
0.0 0.0 -7.881806792446e+01 
-8.317500211236e+01 2.071363103044e+00 0.0 
2.071363103044e+00 -2.238652564740e+02 0.0 
0.0 0.0 -9.171207757590e+01 
-3.641204127561e+01 1.488783645829e+00 0.0 
1.488783645829e+00 -1.064103829517e+02 0.0 
0.0 0.0 -4.244672726821e+01 
-3.962544388835e+01 1.401699804481e+01 0.0 
1.401699804481e+01 -1.147931904423e+02 0.0 
0.0 0.0 -4.592559029919e+01 
-2.833099819734e+01 -2.724423843835e+00 0.0 
-2.724423843835e+00 -7.532017821006e+01 0.0 
0.0 0.0 -3.069535292222e+01 
-3.304340260004e+01 -1.559511301772e+00 0.0 
-1.559511301772e+00 -9.611981123686e+01 0.0 
0.0 0.0 -3.834896415107e+01 
-3.068572564299e+01 -2.303900066369e+00 0.0 
-2.303900066369e+00 -8.612123462136e+01 0.0 
0.0 0.0 -3.464208807931e+01 
-8.192793599520e+01 1.039506351581e+01 0.0 
1.039506351581e+01 -2.275887246936e+02 0.0 
0.0 0.0 -9.245499820665e+01 
-1.221899475054e+02 1.187679344309e+01 0.0 
1.187679344309e+01 -2.782128474836e+02 0.0 
0.0 0.0 -1.197208384967e+02 
-2.359881197375e+01 1.271371789453e+01 0.0 
1.271371789453e+01 -1.852416346052e+01 0.0 
0.0 0.0 -1.223689263028e+01 
-1.313018849555e+02 5.467643607521e+00 0.0 
5.467643607521e+00 -3.272055284309e+02 0.0 
0.0 0.0 -1.371522240159e+02 
-5.426080345046e+01 8.983959899170e+00 0.0 
8.983959899170e+00 -1.631452334317e+02 0.0 
0.0 0.0 -6.482181106465e+01 
-8.565561960493e+01 6.290177403487e+00 0.0 
6.290177403487e+00 -1.685587697116e+02 0.0 
0.0 0.0 -7.586431679495e+01 
-2.667592776950e+01 1.885829452291e+00 0.0 
1.885829452291e+00 -7.834561402155e+01 0.0 
0.0 0.0 -3.110646253731e+01 
-1.370798004359e+02 1.170544241631e+01 0.0 
1.170544241631e+01 -3.366993174733e+02 0.0 
0.0 0.0 -1.417337353728e+02 
-3.238272152838e+01 -1.927056756696e+00 0.0 
-1.927056756696e+00 -8.689639857286e+01 0.0 
0.0 0.0 -3.538373603037e+01 
-5.145025703484e+01 -1.585134346677e+00 0.0 
-1.585134346677e+00 -1.400057253831e+02 0.0 
0.0 0.0 -5.703679472539e+01 
-1.037936207773e+02 1.347850000965e+01 0.0 
1.347850000965e+01 -2.709974005500e+02 0.0 
0.0 0.0 -1.120373063982e+02 
-7.351298039911e+01 4.411024469282e+00 0.0 
4.411024469282e+00 -2.066278119955e+02 0.0 
0.0 0.0 -8.364223771839e+01 
-1.183595831978e+02 1.883355854790e+01 0.0 
1.883355854790e+01 -2.915136145826e+02 0.0 
0.0 0.0 -1.225619593341e+02 
-4.388972965711e+01 1.881734147036e+01 0.0 
1.881734147036e+01 -1.094229058865e+02 0.0 
0.0 0.0 -4.559379066307e+01 
-9.433253998259e+01 9.055062580068e+00 0.0 
9.055062580068e+00 -1.890944161171e+02 0.0 
0.0 0.0 -8.462808682991e+01 
-1.274343385156e+02 1.674287002660e+01 0.0 
1.674287002660e+01 -3.146437521332e+02 0.0 
0.0 0.0 -1.322234271946e+02 
-8.229866529697e+01 2.992135839578e+00 0.0 
2.992135839578e+00 -1.679774181403e+02 0.0 
0.0 0.0 -7.468282503117e+01 
-1.124957723259e+02 1.497558143051e+01 0.0 
1.497558143051e+01 -2.426194606229e+02 0.0 
0.0 0.0 -1.061345698846e+02 
-9.610880502881e+01 7.181460328461e+00 0.0 
7.181460328461e+00 -1.990787675977e+02 0.0 
0.0 0.0 -8.815627178796e+01 
-1.001518784929e+02 8.475685831931e+00 0.0 
8.475685831931e+00 -2.091213789978e+02 0.0 
0.0 0.0 -9.238197724721e+01 
-2.763131899196e+01 7.386204848219e+00 0.0 
7.386204848219e+00 -8.321946182507e+01 0.0 
0.0 0.0 -3.285523424511e+01 
-1.263251512807e+02 4.412496379770e+00 0.0 
4.412496379770e+00 -3.173707470269e+02 0.0 
0.0 0.0 -1.327087694923e+02 
-9.074422884250e+01 5.281581729738e+00 0.0 
5.281581729738e+00 -1.874532153166e+02 0.0 
0.0 0.0 -8.305923324773e+01 
-6.918185348587e+01 1.313171897931e+01 0.0 
1.313171897931e+01 -1.930392549241e+02 0.0 
0.0 0.0 -7.826633252298e+01 
-2.320244512628e+01 5.567518147574e+00 0.0 
5.567518147574e+00 -2.300236191617e+01 0.0 
0.0 0.0 -1.346144211274e+01 
-1.335714737864e+02 1.964817604020e+01 0.0 
1.964817604020e+01 -3.223253585192e+02 0.0 
0.0 0.0 -1.363690496917e+02 
-3.303925347717e+01 4.518366679772e+00 0.0 
4.518366679772e+00 -1.038249503703e+02 0.0 
0.0 0.0 -4.065926115424e+01 
-4.857685246532e+01 -3.035787860516e-01 0.0 
-3.035787860516e-01 -1.313201096416e+02 0.0 
0.0 0.0 -5.356908863207e+01 
-1.126654281732e+02 1.613597381523e+01 0.0 
1.613597381523e+01 -2.843522590851e+02 0.0 
0.0 0.0 -1.187053061775e+02 
-2.990250286452e+01 3.369560010342e-01 0.0 
3.369560010342e-01 -8.035638882884e+01 0.0 
0.0 0.0 -3.267766750801e+01 
-6.984964371857e+01 1.849510311304e+01 0.0 
1.849510311304e+01 -1.775560292123e+02 0.0 
0.0 0.0 -7.382170187927e+01 
-1.086278479686e+02 1.290932989247e+01 0.0 
1.290932989247e+01 -2.822087885182e+02 0.0 
0.0 0.0 -1.168509909461e+02 
-1.064261522475e+02 9.344807554498e+00 0.0 
9.344807554498e+00 -2.288732766151e+02 0.0 
0.0 0.0 -1.001898286588e+02 
-1.102667182317e+02 1.085560080908e+01 0.0 
1.085560080908e+01 -2.397450230347e+02 0.0 
0.0 0.0 -1.046035223799e+02 
-1.050162847456e+02 1.456341897337e+01 0.0 
1.456341897337e+01 -2.717422415681e+02 0.0 
0.0 0.0 -1.126275578941e+02 
-9.907252273703e+01 6.974493892056e+00 0.0 
6.974493892056e+00 -2.096219463985e+02 0.0 
0.0 0.0 -9.220834074065e+01 
-5.766746614445e+01 1.083151087386e+01 0.0 
1.083151087386e+01 -1.695235433492e+02 0.0 
0.0 0.0 -6.775730284810e+01 
-1.036956179454e+02 2.055347937549e+01 0.0 
2.055347937549e+01 -2.354744374188e+02 0.0 
0.0 0.0 -1.013510166092e+02 
-3.144899717560e+01 3.303858473014e+00 0.0 
3.303858473014e+00 -4.078511572299e+01 0.0 
0.0 0.0 -2.127023386958e+01 
-1.122085176896e+02 1.659020102223e+01 0.0 
1.659020102223e+01 -2.483805419239e+02 0.0 
0.0 0.0 -1.077767178840e+02 
-4.030796480078e+01 2.460193019668e+00 0.0 
2.460193019668e+00 -6.019157879830e+01 0.0 
0.0 0.0 -2.974986307972e+01 
-4.488919171054e+01 2.226576593045e+00 0.0 
2.226576593045e+00 -6.974268815444e+01 0.0 
0.0 0.0 -3.398956395949e+01 
-6.940952169523e+01 1.048903041222e+01 0.0 
1.048903041222e+01 -1.985563371418e+02 0.0 
0.0 0.0 -7.998975765111e+01 
-4.880509104180e+01 1.919005686436e+00 0.0 
1.919005686436e+00 -7.976578945736e+01 0.0 
0.0 0.0 -3.817126414975e+01 
-8.187225029674e+01 1.790827098269e+01 0.0 
1.790827098269e+01 -2.091228676694e+02 0.0 
0.0 0.0 -8.689853538985e+01 
-6.187301266114e+01 1.581544901446e+01 0.0 
1.581544901446e+01 -1.685434624468e+02 0.0 
0.0 0.0 -6.872494253238e+01 
-7.160441635462e+01 8.446644772630e+00 0.0 
8.446644772630e+00 -2.031086953304e+02 0.0 
0.0 0.0 -8.201393350552e+01 
-3.201884240599e+01 6.542272313325e-02 0.0 
6.542272313325e-02 -9.637823284958e+01 0.0 
0.0 0.0 -3.811912257667e+01 
-6.571627956574e+01 8.773622041860e+00 0.0 
8.773622041860e+00 -1.916861714657e+02 0.0 
0.0 0.0 -7.682073530943e+01 
-1.001657804805e+02 4.774212878431e+00 0.0 
4.774212878431e+00 -2.190695767511e+02 0.0 
0.0 0.0 -9.537060716949e+01 
-1.123629108831e+02 1.475376515537e+01 0.0 
1.475376515537e+01 -2.465636798881e+02 0.0 
0.0 0.0 -1.072779772314e+02 
-1.167223261797e+02 3.740024425414e+00 0.0 
3.740024425414e+00 -2.986414307296e+02 0.0 
0.0 0.0 -1.242091270728e+02 
-1.221664810748e+02 1.708133202587e+01 0.0 
1.708133202587e+01 -3.028762611495e+02 0.0 
0.0 0.0 -1.271128226673e+02 
-7.152584023220e+01 3.650364392470e+00 0.0 
3.650364392470e+00 -2.056160040610e+02 0.0 
0.0 0.0 -8.274255328796e+01 
-9.784774193713e+01 6.392425669285e+00 0.0 
6.392425669285e+00 -2.077813419261e+02 0.0 
0.0 0.0 -9.128872515897e+01 
-6.992604064509e+01 7.921527923947e+00 0.0 
7.921527923947e+00 -2.022846713554e+02 0.0 
0.0 0.0 -8.126321360016e+01 
-1.312620066734e+02 4.006851375983e+00 0.0 
4.006851375983e+00 -3.262010888184e+02 0.0 
0.0 0.0 -1.368389286475e+02 
-9.381856428261e+01 5.177061501863e+00 0.0 
5.177061501863e+00 -1.977663283958e+02 0.0 
0.0 0.0 -8.707546780352e+01 
-9.727094384666e+01 8.761895655873e+00 0.0 
8.761895655873e+00 -1.990187525796e+02 0.0 
0.0 0.0 -8.848690892788e+01 
-9.517933175596e+01 1.052547447926e+01 0.0 
1.052547447926e+01 -2.565875436244e+02 0.0 
0.0 0.0 -1.051300626141e+02 
-6.162887064415e+01 9.747871963047e+00 0.0 
9.747871963047e+00 -1.807853222878e+02 0.0 
0.0 0.0 -7.232425787958e+01 
-1.114225796275e+02 2.093426467094e+01 0.0 
2.093426467094e+01 -2.546416714913e+02 0.0 
0.0 0.0 -1.094192753356e+02 
-8.479672241564e+01 1.541952448523e+01 0.0 
1.541952448523e+01 -1.731421845696e+02 0.0 
0.0 0.0 -7.698167209558e+01 
-3.403879476345e+01 1.535289054509e-01 0.0 
1.535289054509e-01 -9.725354089569e+01 0.0 
0.0 0.0 -3.898770069774e+01 
-3.516243650935e+01 4.025339218001e+00 0.0 
4.025339218001e+00 -1.046106490665e+02 0.0 
0.0 0.0 -4.153192567276e+01 
-4.699029569854e+01 1.702944112579e+01 0.0 
1.702944112579e+01 -1.235031850690e+02 0.0 
0.0 0.0 -5.074804423027e+01 
-7.582531431428e+01 1.830918268762e+01 0.0 
1.830918268762e+01 -1.719884288426e+02 0.0 
0.0 0.0 -7.394412294707e+01 
-1.361938750552e+02 3.519529192077e+00 0.0 
3.519529192077e+00 -3.351373166552e+02 0.0 
0.0 0.0 -1.409993575131e+02 
-9.308267823426e+01 7.402658529005e+00 0.0 
7.402658529005e+00 -1.888091450720e+02 0.0 
0.0 0.0 -8.416754699188e+01 
-6.306844706170e+01 1.005916753149e+01 0.0 
1.005916753149e+01 -1.814636081787e+02 0.0 
0.0 0.0 -7.295961657212e+01 
-8.761196887868e+01 2.010054642503e+01 0.0 
2.010054642503e+01 -1.961842698731e+02 0.0 
0.0 0.0 -8.473887162554e+01 
-1.137110657319e+02 1.236998324349e+01 0.0 
1.236998324349e+01 -2.932925708275e+02 0.0 
0.0 0.0 -1.217010909678e+02 
-9.823336113721e+01 5.627489900274e+00 0.0 
5.627489900274e+00 -2.105871098297e+02 0.0 
0.0 0.0 -9.224614129008e+01 
-1.149712446695e+02 2.099504203885e+01 0.0 
2.099504203885e+01 -2.605904413176e+02 0.0 
0.0 0.0 -1.122685057961e+02 
-7.994658966141e+01 4.142215371627e+00 0.0 
4.142215371627e+00 -1.570353923471e+02 0.0 
0.0 0.0 -7.069459460256e+01 
-1.201396026533e+02 9.920718256124e+00 0.0 
9.920718256124e+00 -3.072828327121e+02 0.0 
0.0 0.0 -1.278267306096e+02 
-7.511482897470e+01 1.016883443698e+01 0.0 
1.016883443698e+01 -2.103245949790e+02 0.0 
0.0 0.0 -8.523182718610e+01 
-1.151302342059e+02 1.348068426809e+01 0.0 
1.348068426809e+01 -2.940448960008e+02 0.0 
0.0 0.0 -1.223525390620e+02 
-7.018499569795e+01 1.742352743582e+01 0.0 
1.742352743582e+01 -1.774689354682e+02 0.0 
0.0 0.0 -7.389617934983e+01 
-1.056966548566e+02 7.774266143264e+00 0.0 
7.774266143264e+00 -2.296932706626e+02 0.0 
0.0 0.0 -1.002169776558e+02 
-1.196517398107e+02 2.146704163348e+01 0.0 
2.146704163348e+01 -2.686777803505e+02 0.0 
0.0 0.0 -1.160988560484e+02 
-8.641289769804e+01 9.652892105683e+00 0.0 
9.652892105683e+00 -2.383661046232e+02 0.0 
0.0 0.0 -9.703370069637e+01 
-3.108947842875e+01 2.591518148333e+00 0.0 
2.591518148333e+00 -9.602232952786e+01 0.0 
0.0 0.0 -3.773354238698e+01 
-1.111653911389e+02 1.867777709510e+01 0.0 
1.867777709510e+01 -2.697513424971e+02 0.0 
0.0 0.0 -1.138750200908e+02 
-7.791124554126e+01 1.866572488666e+01 0.0 
1.866572488666e+01 -1.957289856896e+02 0.0 
0.0 0.0 -8.169206936924e+01 
-5.895152031640e+01 1.105907097458e+01 0.0 
1.105907097458e+01 -1.701182889092e+02 0.0 
0.0 0.0 -6.832094276769e+01 
-9.187458965382e+01 1.207111829054e+01 0.0 
1.207111829054e+01 -2.464749187157e+02 0.0 
0.0 0.0 -1.011048525109e+02 
-1.170540410910e+02 9.716190106816e+00 0.0 
9.716190106816e+00 -2.995294885720e+02 0.0 
0.0 0.0 -1.245750588989e+02 
-3.327181681551e+01 2.160715880879e+00 0.0 
2.160715880879e+00 -9.684593779277e+01 0.0 
0.0 0.0 -3.863532638248e+01 
-7.799247535008e+01 8.794886399592e+00 0.0 
8.794886399592e+00 -2.202671109596e+02 0.0 
0.0 0.0 -8.907787589289e+01 
-8.781276921750e+01 1.196328258833e+01 0.0 
1.196328258833e+01 -1.738419564815e+02 0.0 
0.0 0.0 -7.809641770969e+01 
-1.369302050299e+02 4.935629531572e+00 0.0 
4.935629531572e+00 -3.357336502854e+02 0.0 
0.0 0.0 -1.413991565946e+02 
-9.180702093222e+01 1.370607508018e+01 0.0 
1.370607508018e+01 -1.866555189335e+02 0.0 
0.0 0.0 -8.313876195971e+01 
-1.069986286566e+02 1.874709027487e+01 0.0 
1.874709027487e+01 -2.565896799353e+02 0.0 
0.0 0.0 -1.086764925776e+02 
-8.358269799247e+01 1.010602062742e+01 0.0 
1.010602062742e+01 -1.614633341282e+02 0.0 
0.0 0.0 -7.311380963619e+01 
-7.421372464547e+01 6.215679818032e+00 0.0 
6.215679818032e+00 -1.381882865272e+02 0.0 
0.0 0.0 -6.332060335179e+01 
-8.844448853987e+01 1.665609628461e+01 0.0 
1.665609628461e+01 -1.872319476915e+02 0.0 
0.0 0.0 -8.230293086941e+01 
-1.176517385967e+02 1.568948186477e+01 0.0 
1.568948186477e+01 -2.962344767076e+02 0.0 
0.0 0.0 -1.237658645913e+02 
-1.226358232931e+02 6.087209234400e+00 0.0 
6.087209234400e+00 -3.092783544136e+02 0.0 
0.0 0.0 -1.291742533120e+02 
-8.762243870643e+01 5.425045425576e+00 0.0 
5.425045425576e+00 -1.773163337339e+02 0.0 
0.0 0.0 -7.908163173210e+01 
-1.083581770083e+02 8.933722640942e+00 0.0 
8.933722640942e+00 -2.385883785246e+02 0.0 
0.0 0.0 -1.036839666599e+02 
-7.916159904607e+01 8.178021504071e+00 0.0 
8.178021504071e+00 -1.496405725187e+02 0.0 
0.0 0.0 -6.824065146942e+01 
-4.907034977241e+01 8.132657078664e+00 0.0 
8.132657078664e+00 -1.463416513670e+02 0.0 
0.0 0.0 -5.822360034182e+01 
-1.162582593568e+02 2.107201964643e+01 0.0 
2.107201964643e+01 -2.762803025888e+02 0.0 
0.0 0.0 -1.173615685837e+02 
-1.052224480538e+02 6.478164240531e+00 0.0 
6.478164240531e+00 -2.309062928933e+02 0.0 
0.0 0.0 -1.004386222841e+02 
-6.941631754975e+01 1.553749169278e+01 0.0 
1.553749169278e+01 -1.859318713229e+02 0.0 
0.0 0.0 -7.620445666181e+01 
-7.375090822883e+01 1.664621331188e+01 0.0 
1.664621331188e+01 -1.908433089174e+02 0.0 
0.0 0.0 -7.897826514387e+01 
-5.584087204652e+01 9.116050095874e+00 0.0 
9.116050095874e+00 -1.638440977962e+02 0.0 
0.0 0.0 -6.550549095281e+01 
-9.184569538515e+01 6.797087017897e+00 0.0 
6.797087017897e+00 -1.876092110701e+02 0.0 
0.0 0.0 -8.343647193657e+01 
-5.208465318198e+01 1.867488996693e+01 0.0 
1.867488996693e+01 -1.150684407541e+02 0.0 
0.0 0.0 -4.974592818083e+01 
-8.569536647125e+01 1.609573804383e+01 0.0 
1.609573804383e+01 -2.217152401036e+02 0.0 
0.0 0.0 -9.182318197246e+01 
-5.145933255100e+01 2.052733138154e+01 0.0 
2.052733138154e+01 -1.151633906241e+02 0.0 
0.0 0.0 -4.958681695252e+01 
-1.082245190029e+02 1.485048017099e+01 0.0 
1.485048017099e+01 -2.777839050900e+02 0.0 
0.0 0.0 -1.154025272279e+02 
-1.247385279620e+02 2.168355436006e+01 0.0 
2.168355436006e+01 -2.946179831730e+02 0.0 
0.0 0.0 -1.254069533405e+02 
-5.988590291555e+01 8.199955197280e+00 0.0 
8.199955197280e+00 -1.747005029656e+02 0.0 
0.0 0.0 -6.997592176433e+01 
-2.502981040026e+01 6.772163068357e-01 0.0 
6.772163068357e-01 -6.122707065408e+01 0.0 
0.0 0.0 -2.547706431630e+01 
-1.093486987999e+02 1.082150182594e+01 0.0 
1.082150182594e+01 -2.396619911492e+02 0.0 
0.0 0.0 -1.043032069847e+02 
-5.675061011428e+01 1.819231831420e+01 0.0 
1.819231831420e+01 -1.182636514009e+02 0.0 
0.0 0.0 -5.210427845455e+01 
-7.501065470350e+01 5.063028203168e+00 0.0 
5.063028203168e+00 -2.142941936098e+02 0.0 
0.0 0.0 -8.639145449400e+01 
-1.199568091489e+02 1.947234110542e+01 0.0 
1.947234110542e+01 -2.888835189542e+02 0.0 
0.0 0.0 -1.222520984309e+02 
-9.004063726770e+01 7.613651865632e+00 0.0 
7.613651865632e+00 -1.787179249163e+02 0.0 
0.0 0.0 -8.022756865519e+01 
-1.178323409185e+02 6.400833358294e+00 0.0 
6.400833358294e+00 -3.002112906258e+02 0.0 
0.0 0.0 -1.250130894633e+02 
-5.829852888272e+01 1.407700408001e+01 0.0 
1.407700408001e+01 -1.637011087280e+02 0.0 
0.0 0.0 -6.619989128321e+01 
-2.170484258850e+01 -1.308643853331e-01 0.0 
-1.308643853331e-01 -5.149315134480e+01 0.0 
0.0 0.0 -2.155939817999e+01 
-1.418134348631e+02 4.518890226902e+00 0.0 
4.518890226902e+00 -3.455266121917e+02 0.0 
0.0 0.0 -1.458020141165e+02 
-7.919809591072e+01 1.827424540960e+01 0.0 
1.827424540960e+01 -1.863385255350e+02 0.0 
0.0 0.0 -7.926098643373e+01 
-9.963539463137e+01 1.714439161518e+01 0.0 
1.714439161518e+01 -2.536851802751e+02 0.0 
0.0 0.0 -1.055961724719e+02 
-1.149906417799e+02 1.970989935995e+01 0.0 
1.970989935995e+01 -2.682562921705e+02 0.0 
0.0 0.0 -1.145740801851e+02 
-1.933814218419e+01 -3.813787803933e-02 0.0 
-3.813787803933e-02 -3.439367881064e+01 0.0 
0.0 0.0 -1.571954629845e+01 
-1.164730595429e+02 5.121740291119e+00 0.0 
5.121740291119e+00 -2.993519987817e+02 0.0 
0.0 0.0 -1.243475174974e+02 
-3.816083427198e+01 1.179837300903e+01 0.0 
1.179837300903e+01 -1.111237333503e+02 0.0 
0.0 0.0 -4.438537028668e+01 
-8.257262163153e+01 6.384458803379e+00 0.0 
6.384458803379e+00 -1.585163989263e+02 0.0 
0.0 0.0 -7.192670616734e+01 
-9.138441233434e+01 2.830333676044e+00 0.0 
2.830333676044e+00 -2.428422652326e+02 0.0 
0.0 0.0 -9.986800327007e+01 
-5.819318799706e+01 7.944121896433e+00 0.0 
7.944121896433e+00 -1.739238163832e+02 0.0 
0.0 0.0 -6.923510131408e+01 
-1.321267992110e+02 5.329822467872e+00 0.0 
5.329822467872e+00 -3.268596892976e+02 0.0 
0.0 0.0 -1.372959465526e+02 
-8.185878575888e+01 1.682502424465e+01 0.0 
1.682502424465e+01 -2.088810325082e+02 0.0 
0.0 0.0 -8.682194548012e+01 
-5.110074490369e+01 7.093346698459e+00 0.0 
7.093346698459e+00 -1.562874745399e+02 0.0 
0.0 0.0 -6.181646583307e+01 
-8.313841817683e+01 2.015381744465e+01 0.0 
2.015381744465e+01 -1.911792476331e+02 0.0 
0.0 0.0 -8.189529974298e+01 
-2.364422333538e+01 -7.810675060836e-01 0.0 
-7.810675060836e-01 -5.214426887832e+01 0.0 
0.0 0.0 -2.233654766411e+01 
-9.942527353500e+01 2.041536093117e+01 0.0 
2.041536093117e+01 -2.297970288553e+02 0.0 
0.0 0.0 -9.836669071709e+01 
-1.093707906057e+02 1.605020151343e+01 0.0 
1.605020151343e+01 -2.785271033337e+02 0.0 
0.0 0.0 -1.159693681818e+02 
-1.208799393515e+02 2.046322604867e+01 0.0 
2.046322604867e+01 -2.721778783642e+02 0.0 
0.0 0.0 -1.175173453147e+02 
-1.076371633422e+02 2.082361879034e+01 0.0 
2.082361879034e+01 -2.492767453391e+02 0.0 
0.0 0.0 -1.066741726044e+02 
-4.053365300957e+01 5.047445422971e+00 0.0 
5.047445422971e+00 -1.220967011025e+02 0.0 
0.0 0.0 -4.838910623363e+01 
-1.179233852648e+02 5.052623327610e+00 0.0 
5.052623327610e+00 -2.994459419854e+02 0.0 
0.0 0.0 -1.248107981750e+02 
-1.070871020908e+02 5.637298498109e+00 0.0 
5.637298498109e+00 -2.392264924330e+02 0.0 
0.0 0.0 -1.034940783571e+02 
-1.375468508418e+02 2.095454196658e+01 0.0 
2.095454196658e+01 -3.280282900250e+02 0.0 
0.0 0.0 -1.392725422600e+02 
-1.138332694417e+02 1.746653874278e+01 0.0 
1.746653874278e+01 -2.851318961211e+02 0.0 
0.0 0.0 -1.192895496688e+02 
-6.228070553902e+01 1.294216064947e+01 0.0 
1.294216064947e+01 -1.758705309145e+02 0.0 
0.0 0.0 -7.104537093604e+01 
-9.124405950131e+01 2.021113452635e+01 0.0 
2.021113452635e+01 -2.103991980803e+02 0.0 
0.0 0.0 -9.009297727449e+01 
-1.355727342567e+02 2.225225226897e+00 0.0 
2.225225226897e+00 -3.333637667264e+02 0.0 
0.0 0.0 -1.402809502949e+02 
-8.619628572063e+01 9.164456064484e-01 0.0 
9.164456064484e-01 -2.269250675011e+02 0.0 
0.0 0.0 -9.353640596651e+01 
-1.030494937987e+02 1.870854654727e+01 0.0 
1.870854654727e+01 -2.431029669305e+02 0.0 
0.0 0.0 -1.034457382188e+02 
-8.326919469930e+01 4.100484989362e+00 0.0 
4.100484989362e+00 -1.671865775313e+02 0.0 
0.0 0.0 -7.473673166918e+01 
-1.273916693109e+02 5.735120207026e+00 0.0 
5.735120207026e+00 -3.181134131600e+02 0.0 
0.0 0.0 -1.332515247413e+02 
-1.224856829398e+02 7.580788132481e+00 0.0 
7.580788132481e+00 -3.096766647525e+02 0.0 
0.0 0.0 -1.292487043077e+02 
-4.610100900984e+01 5.321442565743e-02 0.0 
5.321442565743e-02 -8.642996279136e+01 0.0 
0.0 0.0 -3.935929154036e+01 
-4.600926154533e+01 -1.380392802051e-01 0.0 
-1.380392802051e-01 -8.640095580199e+01 0.0 
0.0 0.0 -3.932306520420e+01 
-9.312532575807e+01 1.405463781086e+01 0.0 
1.405463781086e+01 -1.835951282768e+02 0.0 
0.0 0.0 -8.261613621046e+01 
-9.508342296053e+01 1.840028858941e+01 0.0 
1.840028858941e+01 -2.240358502508e+02 0.0 
0.0 0.0 -9.533578196341e+01 
-9.564166195219e+01 2.772403892693e+00 0.0 
2.772403892693e+00 -2.516277420778e+02 0.0 
0.0 0.0 -1.037808212090e+02 
-9.274898757773e+01 1.849650005786e+01 0.0 
1.849650005786e+01 -1.940484403135e+02 0.0 
0.0 0.0 -8.563922836738e+01 
-7.746215760196e+01 1.579619049473e+01 0.0 
1.579619049473e+01 -2.037096420996e+02 0.0 
0.0 0.0 -8.395153991046e+01 
-1.285197835161e+02 1.295619834480e+01 0.0 
1.295619834480e+01 -3.211277646675e+02 0.0 
0.0 0.0 -1.344942644551e+02 
-6.135649197174e+01 1.258763878520e+01 0.0 
1.258763878520e+01 -1.754027776707e+02 0.0 
0.0 0.0 -7.062778089275e+01 
-1.203502934984e+02 1.063536280648e+01 0.0 
1.063536280648e+01 -2.757811007179e+02 0.0 
0.0 0.0 -1.184394182649e+02 
-6.665407170384e+01 5.067439985138e+00 0.0 
5.067439985138e+00 -1.185600728761e+02 0.0 
0.0 0.0 -5.516424337399e+01 
-7.370250937859e+01 1.761107728424e+01 0.0 
1.761107728424e+01 -1.910337573376e+02 0.0 
0.0 0.0 -7.902088001487e+01 
-8.987039917029e+01 1.580482254427e+00 0.0 
1.580482254427e+00 -2.419127180846e+02 0.0 
0.0 0.0 -9.913493517646e+01 
-3.715115001638e+01 6.092461354303e+00 0.0 
6.092461354303e+00 -1.116264862749e+02 0.0 
0.0 0.0 -4.423329088737e+01 
-7.903804651452e+01 2.029561865353e+00 0.0 
2.029561865353e+00 -2.149865360175e+02 0.0 
0.0 0.0 -8.780737475960e+01 
-8.711427081108e+01 1.827274876064e+01 0.0 
1.827274876064e+01 -2.051037871764e+02 0.0 
0.0 0.0 -8.726541739626e+01 
-8.022227003712e+01 1.797020646079e+01 0.0 
1.797020646079e+01 -1.765979699116e+02 0.0 
0.0 0.0 -7.664607198461e+01 
-8.447868399105e+01 5.559786993768e+00 0.0 
5.559786993768e+00 -1.673316099481e+02 0.0 
0.0 0.0 -7.514308818174e+01 
-9.582910892434e+01 1.703384512802e+01 0.0 
1.703384512802e+01 -2.071665029653e+02 0.0 
0.0 0.0 -9.049868356688e+01 
-1.001786310514e+02 1.888403695595e+01 0.0 
1.888403695595e+01 -2.141112096766e+02 0.0 
0.0 0.0 -9.388695221840e+01 
-2.255533266208e+01 -1.631267956959e-01 0.0 
-1.631267956959e-01 -5.931621834138e+01 0.0 
0.0 0.0 -2.416146530104e+01 
-7.365801958191e+01 9.892447743286e-02 0.0 
9.892447743286e-02 -2.038428880836e+02 0.0 
0.0 0.0 -8.285027229965e+01 
-5.578804135221e+01 2.059626501465e+01 0.0 
2.059626501465e+01 -1.182548337741e+02 0.0 
0.0 0.0 -5.181286253788e+01 
-8.837912981277e+01 1.451326354447e+01 0.0 
1.451326354447e+01 -1.795761846655e+02 0.0 
0.0 0.0 -7.998659434349e+01 
-9.320257113928e+01 1.646019878161e+01 0.0 
1.646019878161e+01 -1.880274202244e+02 0.0 
0.0 0.0 -8.396899740910e+01 
-1.225708016170e+02 1.523956349382e+01 0.0 
1.523956349382e+01 -3.071003758801e+02 0.0 
0.0 0.0 -1.285013532491e+02 
-3.289932929591e+01 -8.326098835843e-01 0.0 
-8.326098835843e-01 -8.935987219231e+01 0.0 
0.0 0.0 -3.627776044647e+01 
-3.136472351368e+01 5.330225040950e-01 0.0 
5.330225040950e-01 -8.832214936671e+01 0.0 
0.0 0.0 -3.550606186412e+01 
-7.468327509178e+01 1.801121006069e+01 0.0 
1.801121006069e+01 -1.818704230399e+02 0.0 
0.0 0.0 -7.656610943950e+01 
-7.525916235149e+01 1.322270704397e+00 0.0 
1.322270704397e+00 -2.047857858981e+02 0.0 
0.0 0.0 -8.361348447487e+01 
-4.772410896291e+01 5.634150087137e+00 0.0 
5.634150087137e+00 -7.193951452321e+01 0.0 
0.0 0.0 -3.549908704584e+01 
-5.165301142453e+01 4.957669046291e+00 0.0 
4.957669046291e+00 -8.157914746322e+01 0.0 
0.0 0.0 -3.956964766633e+01 
-8.697003601077e+01 7.849264915350e+00 0.0 
7.849264915350e+00 -1.687764586270e+02 0.0 
0.0 0.0 -7.632394839134e+01 
-2.689666043770e+01 7.994012584990e+00 0.0 
7.994012584990e+00 -7.253096250666e+01 0.0 
0.0 0.0 -2.942828688331e+01 
-8.590714730969e+01 8.244362133342e-01 0.0 
8.244362133342e-01 -2.318133858863e+02 0.0 
0.0 0.0 -9.491615995879e+01 
-1.108348521895e+02 1.198554666424e+01 0.0 
1.198554666424e+01 -2.864707783962e+02 0.0 
0.0 0.0 -1.187916891757e+02 
-2.921473923532e+01 8.572967820450e-01 0.0 
8.572967820450e-01 -8.752092772842e+01 0.0 
0.0 0.0 -3.462070008912e+01 
-1.309749434942e+02 2.205919417992e+01 0.0 
2.205919417992e+01 -3.069969652343e+02 0.0 
0.0 0.0 -1.309915726185e+02 
-1.027391983857e+02 8.043920961784e+00 0.0 
8.043920961784e+00 -2.189846718812e+02 0.0 
0.0 0.0 -9.611716108008e+01 
-8.326551471725e+01 1.489871931010e+00 0.0 
1.489871931010e+00 -2.223138346895e+02 0.0 
0.0 0.0 -9.127380482203e+01 
-1.215351954071e+02 3.421402853594e+00 0.0 
3.421402853594e+00 -3.075025429132e+02 0.0 
0.0 0.0 -1.283113214961e+02 
-1.566594926796e+01 -9.507218955883e-01 0.0 
-9.507218955883e-01 -4.238031072117e+01 0.0 
0.0 0.0 -1.701387799674e+01 
-1.065349885681e+02 1.047287449862e+01 0.0 
1.047287449862e+01 -2.785216997150e+02 0.0 
0.0 0.0 -1.151170064849e+02 
-7.860682725945e+01 1.991886343490e+01 0.0 
1.991886343490e+01 -1.864319195214e+02 0.0 
0.0 0.0 -7.911162403426e+01 
-1.586194744670e+01 -7.592540392371e-01 0.0 
-7.592540392371e-01 -4.230848218065e+01 0.0 
0.0 0.0 -1.705112888821e+01 
-1.007032799066e+02 6.222480538522e+00 0.0 
6.222480538522e+00 -2.178835524204e+02 0.0 
0.0 0.0 -9.517604969811e+01 
-2.877735097928e+01 1.338872088805e+00 0.0 
1.338872088805e+00 -7.910616947939e+01 0.0 
0.0 0.0 -3.196505613760e+01 
-8.926991416719e+01 1.728715983384e+01 0.0 
1.728715983384e+01 -1.805606278498e+02 0.0 
0.0 0.0 -8.054916260509e+01 
-7.965526258429e+01 2.012467448616e+01 0.0 
2.012467448616e+01 -1.767724618051e+02 0.0 
0.0 0.0 -7.652831731682e+01 
-7.255483736748e+01 6.229851810419e+00 0.0 
6.229851810419e+00 -2.054832196510e+02 0.0 
0.0 0.0 -8.301141710556e+01 
-9.251616384662e+01 5.213383442084e+00 0.0 
5.213383442084e+00 -2.521797583145e+02 0.0 
0.0 0.0 -1.030087766483e+02 
-1.043911775209e+02 7.497984230239e+00 0.0 
7.497984230239e+00 -2.278403149986e+02 0.0 
0.0 0.0 -9.926944775583e+01 
-1.014781418671e+02 6.154432678531e+00 0.0 
6.154432678531e+00 -2.709145072186e+02 0.0 
0.0 0.0 -1.113177947257e+02 
-7.819279453355e+01 1.746783094155e+01 0.0 
1.746783094155e+01 -1.955884533024e+02 0.0 
0.0 0.0 -8.173437435078e+01 
-7.415076651931e+01 1.937481986800e+01 0.0 
1.937481986800e+01 -1.819322482260e+02 0.0 
0.0 0.0 -7.642490442358e+01 
-2.179630233802e+01 1.362561789021e+01 0.0 
1.362561789021e+01 -1.596409721999e+01 0.0 
0.0 0.0 -1.092811986740e+01 
-2.519630101417e+01 3.047084072656e-01 0.0 
3.047084072656e-01 -6.977249971885e+01 0.0 
0.0 0.0 -2.809064021991e+01 
-1.116893691102e+02 2.093278440391e+01 0.0 
2.093278440391e+01 -2.627287880925e+02 0.0 
0.0 0.0 -1.119254471608e+02 
-8.046127876303e+01 8.721808691305e+00 0.0 
8.721808691305e+00 -1.493648202181e+02 0.0 
0.0 0.0 -6.854782969435e+01 
-1.150463213790e+02 1.950783897075e+01 0.0 
1.950783897075e+01 -2.753620960749e+02 0.0 
0.0 0.0 -1.167225252362e+02 
-3.688211550092e+01 1.215278183483e+01 0.0 
1.215278183483e+01 -1.106585812024e+02 0.0 
0.0 0.0 -4.386220901100e+01 
-1.011356150978e+02 1.192430188033e+01 0.0 
1.192430188033e+01 -2.118222106605e+02 0.0 
0.0 0.0 -9.348734772749e+01 
-1.157860193504e+02 2.147338722042e+01 0.0 
2.147338722042e+01 -2.687799282585e+02 0.0 
0.0 0.0 -1.149697842827e+02 
-5.440893809523e+01 3.778050908353e+00 0.0 
3.778050908353e+00 -8.927713608747e+01 0.0 
0.0 0.0 -4.270582225481e+01 
-1.109766057529e+02 1.923879113601e+01 0.0 
1.923879113601e+01 -2.620046483179e+02 0.0 
0.0 0.0 -1.114943762212e+02 
-1.225651193477e+02 4.750243060038e+00 0.0 
4.750243060038e+00 -3.082397476589e+02 0.0 
0.0 0.0 -1.288414601020e+02 
-9.069134722747e+01 1.808323402368e+01 0.0 
1.808323402368e+01 -2.188476380916e+02 0.0 
0.0 0.0 -9.246169559571e+01 
-8.160549814087e+01 8.335110355235e-01 0.0 
8.335110355235e-01 -2.229290392916e+02 0.0 
0.0 0.0 -9.096036122974e+01 
-8.710556321060e+01 2.864997628370e+00 0.0 
2.864997628370e+00 -2.339428413421e+02 0.0 
0.0 0.0 -9.591452136581e+01 
-1.120674697967e+02 1.314411601633e+01 0.0 
1.314411601633e+01 -2.417930699895e+02 0.0 
0.0 0.0 -1.057581619359e+02 
-8.401224413063e+01 4.263628203334e+00 0.0 
4.263628203334e+00 -2.335956614595e+02 0.0 
0.0 0.0 -9.488237167704e+01 
-8.365080238691e+01 1.825752528499e+01 0.0 
1.825752528499e+01 -1.910261488065e+02 0.0 
0.0 0.0 -8.200308535801e+01 
-7.728459835580e+01 1.364084798251e+01 0.0 
1.364084798251e+01 -2.108479635931e+02 0.0 
0.0 0.0 -8.603976858468e+01 
-1.109338122859e+02 7.112961898473e+00 0.0 
7.112961898473e+00 -2.897395776333e+02 0.0 
0.0 0.0 -1.198020169758e+02 
-6.964447117182e+01 1.626320296219e+01 0.0 
1.626320296219e+01 -1.861802330514e+02 0.0 
0.0 0.0 -7.634741126697e+01 
-4.196472466549e+01 4.322931535507e+00 0.0 
4.322931535507e+00 -1.314090495141e+02 0.0 
0.0 0.0 -5.161213225387e+01 
-8.244107364760e+01 8.095675953371e+00 0.0 
8.095675953371e+00 -2.306659329175e+02 0.0 
0.0 0.0 -9.353210196952e+01 
-4.450936143242e+01 6.232556602288e+00 0.0 
6.232556602288e+00 -1.387484077974e+02 0.0 
0.0 0.0 -5.457733076894e+01 
-9.213690518775e+01 1.593002185950e+01 0.0 
1.593002185950e+01 -1.932647316566e+02 0.0 
0.0 0.0 -8.522049105331e+01 
-4.647650968420e+01 6.113169410402e+00 0.0 
6.113169410402e+00 -1.395551979431e+02 0.0 
0.0 0.0 -5.540951228818e+01 
-8.859641364264e+01 1.921273213253e+01 0.0 
1.921273213253e+01 -1.877934318436e+02 0.0 
0.0 0.0 -8.251695364589e+01 
-1.188643465533e+02 1.700837892704e+01 0.0 
1.700837892704e+01 -2.970389166451e+02 0.0 
0.0 0.0 -1.243709789595e+02 
-1.130817070808e+02 1.432456908611e+01 0.0 
1.432456908611e+01 -2.892812956565e+02 0.0 
0.0 0.0 -1.203089008212e+02 
-6.526956037782e+01 1.417490010007e+01 0.0 
1.417490010007e+01 -1.808297135429e+02 0.0 
0.0 0.0 -7.342978217623e+01 
-8.126802232896e+01 5.685328724141e+00 0.0 
5.685328724141e+00 -1.575325581268e+02 0.0 
0.0 0.0 -7.124017413671e+01 
-1.263453699694e+02 3.057915808070e+00 0.0 
3.057915808070e+00 -3.162934671014e+02 0.0 
0.0 0.0 -1.323916511212e+02 
-1.271793379742e+02 4.402544781261e+00 0.0 
4.402544781261e+00 -3.169558708855e+02 0.0 
0.0 0.0 -1.328405626579e+02 
-2.339757461559e+01 7.477138662336e+00 0.0 
7.477138662336e+00 -5.600300565390e+01 0.0 
0.0 0.0 -2.342017408085e+01 
-9.195287072746e+01 1.755770920264e+01 0.0 
1.755770920264e+01 -2.012740406941e+02 0.0 
0.0 0.0 -8.756807342647e+01 
-1.415482621180e+02 2.849682621056e+00 0.0 
2.849682621056e+00 -3.448706298579e+02 0.0 
0.0 0.0 -1.455256675928e+02 
-3.665867957316e+01 1.630976767143e+01 0.0 
1.630976767143e+01 -6.182040680061e+01 0.0 
0.0 0.0 -2.914372591213e+01 
-9.138987331855e+01 2.090015382385e+00 0.0 
2.090015382385e+00 -2.412965881081e+02 0.0 
0.0 0.0 -9.940593842799e+01 
-1.996296585055e+01 1.245268653014e+01 0.0 
1.245268653014e+01 -1.659848012397e+01 0.0 
0.0 0.0 -1.056843379236e+01 
-1.310986261575e+02 2.657054764338e+00 0.0 
2.657054764338e+00 -3.249793638271e+02 0.0 
0.0 0.0 -1.364233969954e+02 
-3.847215416012e+01 5.358350580083e+00 0.0 
5.358350580083e+00 -1.212919782186e+02 0.0 
0.0 0.0 -4.752923971361e+01 
-8.885389829748e+01 -3.651914179958e-01 0.0 
-3.651914179958e-01 -2.331284195886e+02 0.0 
0.0 0.0 -9.619469536581e+01 
-9.858232760742e+01 1.588353559914e+01 0.0 
1.588353559914e+01 -2.530215243859e+02 0.0 
0.0 0.0 -1.050811555980e+02 
-8.394010325927e+01 8.140560350359e+00 0.0 
8.140560350359e+00 -1.591248174417e+02 0.0 
0.0 0.0 -7.251947621030e+01 
-7.839609209125e+01 6.065481358832e+00 0.0 
6.065481358832e+00 -1.479918387341e+02 0.0 
0.0 0.0 -6.751637924760e+01 
-8.266659498388e+01 1.800626796541e+01 0.0 
1.800626796541e+01 -2.002923984481e+02 0.0 
0.0 0.0 -8.448769802960e+01 
-3.993862243162e+01 7.109907551223e+00 0.0 
7.109907551223e+00 -5.307540143937e+01 0.0 
0.0 0.0 -2.750420716130e+01 
-4.380307618580e+01 6.109052173564e+00 0.0 
6.109052173564e+00 -6.249734568353e+01 0.0 
0.0 0.0 -3.149012656080e+01 
-1.316812172167e+02 3.970157137158e+00 0.0 
3.970157137158e+00 -3.255346381018e+02 0.0 
0.0 0.0 -1.367647565955e+02 
-9.831562431291e+01 7.629459801325e+00 0.0 
7.629459801325e+00 -2.618804167253e+02 0.0 
0.0 0.0 -1.076588123115e+02 
-8.043258003912e+01 7.285763131208e+00 0.0 
7.285763131208e+00 -2.235597925953e+02 0.0 
0.0 0.0 -9.079771179032e+01 
-1.048603522419e+02 9.358746348768e+00 0.0 
9.358746348768e+00 -2.776106567858e+02 0.0 
0.0 0.0 -1.143413027083e+02 
-7.424873119412e+01 7.192743944319e+00 0.0 
7.192743944319e+00 -2.126090403407e+02 0.0 
0.0 0.0 -8.565733146045e+01 
-4.282143603525e+01 7.109452981186e+00 0.0 
7.109452981186e+00 -1.289499266984e+02 0.0 
0.0 0.0 -5.113140882011e+01 
-3.598294581964e+01 2.758522762073e+00 0.0 
2.758522762073e+00 -4.999412352408e+01 0.0 
0.0 0.0 -2.539312080312e+01 
-7.224643104966e+01 7.212023244671e+00 0.0 
7.212023244671e+00 -1.293051525884e+02 0.0 
0.0 0.0 -6.006547509141e+01 
-4.621971578519e+01 -3.529425813412e-02 0.0 
-3.529425813412e-02 -8.662080307308e+01 0.0 
0.0 0.0 -3.945215565748e+01 
-1.143264265878e+02 1.552371468515e+01 0.0 
1.552371468515e+01 -2.900528108008e+02 0.0 
0.0 0.0 -1.209137712166e+02 
-6.583743876232e+01 1.468688088737e+01 0.0 
1.468688088737e+01 -1.811768855012e+02 0.0 
0.0 0.0 -7.370429727905e+01 
-1.317147230683e+02 1.822997130458e+01 0.0 
1.822997130458e+01 -3.211427245289e+02 0.0 
0.0 0.0 -1.354572342792e+02 
-1.302983433585e+02 2.621343899460e-01 0.0 
2.621343899460e-01 -3.221413290619e+02 0.0 
0.0 0.0 -1.353319017261e+02 
-7.957009864120e+01 9.466185871053e+00 0.0 
9.466185871053e+00 -2.210867244409e+02 0.0 
0.0 0.0 -8.979704692463e+01 
-1.474814175818e+02 5.356991265023e+00 0.0 
5.356991265023e+00 -3.551484055185e+02 0.0 
0.0 0.0 -1.503889469301e+02 
-5.027234186371e+01 5.310394882761e+00 0.0 
5.310394882761e+00 -1.499209651108e+02 0.0 
0.0 0.0 -5.965799209237e+01 
-1.260853109806e+02 1.841146081387e+01 0.0 
1.841146081387e+01 -3.087638070881e+02 0.0 
0.0 0.0 -1.300547354206e+02 
-8.228928902990e+01 1.945064258543e+01 0.0 
1.945064258543e+01 -2.004436661567e+02 0.0 
0.0 0.0 -8.441988655599e+01 
-9.441180514247e+01 1.775720497262e+01 0.0 
1.775720497262e+01 -2.322046135530e+02 0.0 
0.0 0.0 -9.758492560864e+01 
-1.260416818460e+02 1.256133598557e+01 0.0 
1.256133598557e+01 -3.158101269722e+02 0.0 
0.0 0.0 -1.321555426455e+02 
-6.018840211816e+01 2.848483354086e-01 0.0 
2.848483354086e-01 -1.683703729510e+02 0.0 
0.0 0.0 -6.816763252076e+01 
-8.790998648760e+01 1.801106869987e+01 0.0 
1.801106869987e+01 -1.959703142771e+02 0.0 
0.0 0.0 -8.476409022940e+01 
-7.599183846973e+01 7.807713472352e+00 0.0 
7.807713472352e+00 -2.134819666860e+02 0.0 
0.0 0.0 -8.644214154673e+01 
-8.415480964427e+01 1.976806394196e+01 0.0 
1.976806394196e+01 -1.819517502046e+02 0.0 
0.0 0.0 -7.943196795466e+01 
-4.054996099604e+01 1.387963239436e+01 0.0 
1.387963239436e+01 -1.151566135977e+02 0.0 
0.0 0.0 -4.631197237812e+01 
-9.828613412698e+01 1.737407201668e+01 0.0 
1.737407201668e+01 -2.453047475777e+02 0.0 
0.0 0.0 -1.026772645114e+02 
-7.067471882462e+01 5.605248532895e+00 0.0 
5.605248532895e+00 -2.045442725741e+02 0.0 
0.0 0.0 -8.216569741961e+01 
-9.428928051571e+01 1.493812628508e+00 0.0 
1.493812628508e+00 -2.507517875488e+02 0.0 
0.0 0.0 -1.031123204193e+02 
-8.443751763877e+01 1.737723255811e+01 0.0 
1.737723255811e+01 -1.816146920231e+02 0.0 
0.0 0.0 -7.941566289855e+01 
-1.889915910018e+01 7.138341801857e+00 0.0 
7.138341801857e+00 -2.441829382621e+01 0.0 
0.0 0.0 -1.259523587792e+01 
-8.571525922662e+01 1.415423776427e+01 0.0 
1.415423776427e+01 -2.289826380962e+02 0.0 
0.0 0.0 -9.400936919684e+01 
-2.130962545990e+01 1.162802110006e+01 0.0 
1.162802110006e+01 -3.234599992067e+01 0.0 
0.0 0.0 -1.569668761417e+01 
-2.415702702426e+01 -2.296728980842e+00 0.0 
-2.296728980842e+00 -6.350811408278e+01 0.0 
0.0 0.0 -2.589954233211e+01 
-9.013479782546e+01 7.962867199955e-01 0.0 
7.962867199955e-01 -2.404418367906e+02 0.0 
0.0 0.0 -9.877299038482e+01 
-1.076757063034e+02 2.050678197823e+01 0.0 
2.050678197823e+01 -2.413537279980e+02 0.0 
0.0 0.0 -1.043088302904e+02 
-8.253276813903e+01 7.693391212556e+00 0.0 
7.693391212556e+00 -1.584879254831e+02 0.0 
0.0 0.0 -7.190620808663e+01 
-3.296686054855e+01 1.022033423500e+01 0.0 
1.022033423500e+01 -3.557135906253e+01 0.0 
0.0 0.0 -2.016146588333e+01 
-1.175003154518e+02 1.070868520539e+01 0.0 
1.070868520539e+01 -2.755007360542e+02 0.0 
0.0 0.0 -1.175003154518e+02 
-1.965176080577e+01 1.151682505896e+01 0.0 
1.151682505896e+01 -1.248064047907e+01 0.0 
0.0 0.0 -9.347298401871e+00 
-3.596979478816e+01 8.202947305518e+00 0.0 
8.202947305518e+00 -4.386019665631e+01 0.0 
0.0 0.0 -2.354899743334e+01 
-8.312520484659e+01 6.019508362283e+00 0.0 
6.019508362283e+00 -2.324446690131e+02 0.0 
0.0 0.0 -9.427096215789e+01 
-8.722426971859e+01 1.550010654376e+00 0.0 
1.550010654376e+00 -2.309466437511e+02 0.0 
0.0 0.0 -9.505127404090e+01 
-5.440347329414e+01 1.241228808135e+01 0.0 
1.241228808135e+01 -8.502046661084e+01 0.0 
0.0 0.0 -4.142718197149e+01 
-5.317540651062e+01 2.239306152473e+00 0.0 
2.239306152473e+00 -1.603086890984e+02 0.0 
0.0 0.0 -6.364522868271e+01 
-8.957155317619e+01 6.538812764100e+00 0.0 
6.538812764100e+00 -2.432179419366e+02 0.0 
0.0 0.0 -9.943684853384e+01 
-8.677647622448e+01 1.996822818570e+01 0.0 
1.996822818570e+01 -2.053242903977e+02 0.0 
0.0 0.0 -8.723022998667e+01 
-9.444839985228e+01 1.478288221416e+01 0.0 
1.478288221416e+01 -2.473704030647e+02 0.0 
0.0 0.0 -1.021456408751e+02 
-1.090729701191e+02 1.677612747751e+01 0.0 
1.677612747751e+01 -2.402937226894e+02 0.0 
0.0 0.0 -1.044100078425e+02 
-2.396952301339e+01 6.942078418528e+00 0.0 
6.942078418528e+00 -6.666222517050e+01 0.0 
0.0 0.0 -2.678952445517e+01 
-8.193391034869e+01 1.881087370977e-01 0.0 
1.881087370977e-01 -2.214613702363e+02 0.0 
0.0 0.0 -9.061858417550e+01 
-9.020807282953e+01 2.082124259992e-01 0.0 
2.082124259992e-01 -2.388292277099e+02 0.0 
0.0 0.0 -9.831119016183e+01 
-4.627628177078e+01 -1.161758540695e+00 0.0 
-1.161758540695e+00 -1.275487580608e+02 0.0 
0.0 0.0 -5.174751194949e+01 
-5.804863635574e+01 3.319608250973e+00 0.0 
3.319608250973e+00 -9.865878987217e+01 0.0 
0.0 0.0 -4.661222786837e+01 
-8.482240731470e+01 1.041323843553e+01 0.0 
1.041323843553e+01 -1.600058863168e+02 0.0 
0.0 0.0 -7.304848808945e+01 
-1.168045951117e+02 1.101354719745e+00 0.0 
1.101354719745e+00 -2.942576398945e+02 0.0 
0.0 0.0 -1.229186705019e+02 
-1.689078197765e+01 -8.476425608490e-01 0.0 
-8.476425608490e-01 -4.261855427070e+01 0.0 
0.0 0.0 -1.745280087451e+01 
-1.904814557261e+01 -5.870907557058e-03 0.0 
-5.870907557058e-03 -2.559477694648e+01 0.0 
0.0 0.0 -1.299287675573e+01 
-3.333567509942e+01 -1.810687437403e+00 0.0 
-1.810687437403e+00 -8.895480130430e+01 0.0 
0.0 0.0 -3.628714292112e+01 
-9.118060388728e+01 1.561302543087e+00 0.0 
1.561302543087e+00 -2.395574710132e+02 0.0 
0.0 0.0 -9.882142247015e+01 
-5.693510645757e+01 6.366692933486e+00 0.0 
6.366692933486e+00 -1.675600264250e+02 0.0 
0.0 0.0 -6.694853986477e+01 
-5.147398037610e+01 3.023100310437e+00 0.0 
3.023100310437e+00 -1.519187725813e+02 0.0 
0.0 0.0 -6.061782588721e+01 
-4.406759354844e+01 4.203677980142e+00 0.0 
4.203677980142e+00 -1.322751283918e+02 0.0 
0.0 0.0 -5.250281658208e+01 
-9.437683066046e+01 7.395171393110e-01 0.0 
7.395171393110e-01 -2.490938479072e+02 0.0 
0.0 0.0 -1.026412035703e+02 
-9.098049917451e+01 1.122019272268e+01 0.0 
1.122019272268e+01 -1.819003750363e+02 0.0 
0.0 0.0 -8.146426226324e+01 
-9.432535818061e+01 1.552004663838e-01 0.0 
1.552004663838e-01 -2.474450604533e+02 0.0 
0.0 0.0 -1.021311255902e+02 
-5.503715043064e+01 6.168112256069e+00 0.0 
6.168112256069e+00 -1.667105003166e+02 0.0 
0.0 0.0 -6.612429522417e+01 
-9.206029447125e+01 1.987810322073e+01 0.0 
1.987810322073e+01 -2.017518718403e+02 0.0 
0.0 0.0 -8.774364989346e+01 
-6.264986239952e+01 1.148682555536e+00 0.0 
1.148682555536e+00 -1.174756578454e+02 0.0 
0.0 0.0 -5.363765607348e+01 
-1.078487717526e+02 1.653156413227e+01 0.0 
1.653156413227e+01 -2.720033574026e+02 0.0 
0.0 0.0 -1.135556387466e+02 
-9.513459778497e+01 1.532307207898e+00 0.0 
1.532307207898e+00 -2.481171933108e+02 0.0 
0.0 0.0 -1.025755373287e+02 
-9.546135878468e+01 2.058592724391e+00 0.0 
2.058592724391e+00 -2.498831350031e+02 0.0 
0.0 0.0 -1.032033481363e+02 
-2.718040453193e+01 1.466646348632e+01 0.0 
1.466646348632e+01 -2.095593919992e+01 0.0 
0.0 0.0 -1.404090311955e+01 
-6.097291187382e+01 5.701400815444e+00 0.0 
5.701400815444e+00 -1.776728498386e+02 0.0 
0.0 0.0 -7.119372851373e+01 
-9.843231456725e+01 6.431250979474e-02 0.0 
6.431250979474e-02 -2.559472623968e+02 0.0 
0.0 0.0 -1.059138730892e+02 
-7.493507433883e+01 -4.877806094173e-01 0.0 
-4.877806094173e-01 -1.577167301406e+02 0.0 
0.0 0.0 -6.939554134382e+01 
-6.771674910898e+01 -5.933322880782e-01 0.0 
-5.933322880782e-01 -1.394607406244e+02 0.0 
0.0 0.0 -6.175324692000e+01 
-2.984283722439e+01 1.226858760389e+01 0.0 
1.226858760389e+01 -2.760911920155e+01 0.0 
0.0 0.0 -1.683558692778e+01 
-9.863275885653e+01 6.393240331474e-01 0.0 
6.393240331474e-01 -2.577414677466e+02 0.0 
0.0 0.0 -1.065122679809e+02 
-5.244253187963e+01 1.302269531016e+00 0.0 
1.302269531016e+00 -1.523126134907e+02 0.0 
0.0 0.0 -6.102654361110e+01 
-2.303723241246e+01 1.278961220075e+01 0.0 
1.278961220075e+01 -4.830565628658e+01 0.0 
0.0 0.0 -2.100286660971e+01 
-1.278561581937e+02 1.979124060619e+01 0.0 
1.979124060619e+01 -3.099519779091e+02 0.0 
0.0 0.0 -1.309424408309e+02 
-2.986234764392e+01 -3.049335144540e+00 0.0 
-3.049335144540e+00 -8.044985674268e+01 0.0 
0.0 0.0 -3.269366131598e+01 
-5.411403704811e+01 5.569039339435e-01 0.0 
5.569039339435e-01 -1.602765865185e+02 0.0 
0.0 0.0 -6.391718706997e+01 
-8.205823175316e+01 1.584884655667e+01 0.0 
1.584884655667e+01 -2.168557099940e+02 0.0 
0.0 0.0 -8.927418252416e+01 
-2.662874380048e+01 3.910206403382e+00 0.0 
3.910206403382e+00 -3.020088074292e+01 0.0 
0.0 0.0 -1.664888736302e+01 
-9.913470715097e+01 1.455212794953e+00 0.0 
1.455212794953e+00 -2.567367939198e+02 0.0 
0.0 0.0 -1.063614503212e+02 
-4.444253913927e+01 6.231876530728e-01 0.0 
6.231876530728e-01 -1.199084238769e+02 0.0 
0.0 0.0 -4.890528890485e+01 
-6.344174774232e+01 5.635699036467e+00 0.0 
5.635699036467e+00 -1.072323051002e+02 0.0 
0.0 0.0 -5.080221585276e+01 
-9.953056654837e+01 1.979208700439e+00 0.0 
1.979208700439e+00 -2.584560938309e+02 0.0 
0.0 0.0 -1.069959981138e+02 
-7.691210712794e+01 5.791886941725e+00 0.0 
5.791886941725e+00 -2.152735826721e+02 0.0 
0.0 0.0 -8.725570694002e+01 
-8.732908678451e+01 2.093127031247e+00 0.0 
2.093127031247e+00 -2.327084404282e+02 0.0 
0.0 0.0 -9.561125816382e+01 
-2.001322426324e+01 4.465823263922e+00 0.0 
4.465823263922e+00 -3.050958899519e+01 0.0 
0.0 0.0 -1.475684397753e+01 
-9.673798467889e+01 1.256924320567e+00 0.0 
1.256924320567e+00 -2.158946993748e+02 0.0 
0.0 0.0 -9.338980521611e+01 
-6.203529048186e+01 3.659081954196e+00 0.0 
3.659081954196e+00 -1.791421168421e+02 0.0 
0.0 0.0 -7.195322219720e+01 
-1.234330557478e+02 1.348304569982e+01 0.0 
1.348304569982e+01 -3.118539870800e+02 0.0 
0.0 0.0 -1.301861128484e+02 
-9.463585538948e+01 1.925494153870e+01 0.0 
1.925494153870e+01 -2.326968095300e+02 0.0 
0.0 0.0 -9.779979947584e+01 
-1.028722642119e+02 4.903723939455e-01 0.0 
4.903723939455e-01 -2.663151167766e+02 0.0 
0.0 0.0 -1.103562142965e+02 
-1.035881218509e+02 1.813505893267e+00 0.0 
1.813505893267e+00 -2.669437256624e+02 0.0 
0.0 0.0 -1.107595542540e+02 
-5.210410411717e+01 4.423589263668e+00 0.0 
4.423589263668e+00 -1.590502339998e+02 0.0 
0.0 0.0 -6.294630143508e+01 
-2.356775225638e+01 -2.746349571835e+00 0.0 
-2.746349571835e+00 -5.457356614574e+01 0.0 
0.0 0.0 -2.304239552064e+01 
-1.761403796198e+01 6.105307951340e+00 0.0 
6.105307951340e+00 -2.996615375113e+01 0.0 
0.0 0.0 -1.387405751393e+01 
-1.071534554547e+02 2.966903281850e-01 0.0 
2.966903281850e-01 -2.748815675084e+02 0.0 
0.0 0.0 -1.142105068889e+02 
-1.244195869107e+02 1.156283672088e+01 0.0 
1.156283672088e+01 -3.151666577041e+02 0.0 
0.0 0.0 -1.314758733844e+02 
-5.318109237087e+01 1.710607574990e-01 0.0 
1.710607574990e-01 -1.516616043780e+02 0.0 
0.0 0.0 -6.105280902466e+01 
-9.555548222718e+01 1.815096208601e+01 0.0 
1.815096208601e+01 -2.153565625485e+02 0.0 
0.0 0.0 -9.287361343271e+01 
-3.269054788533e+01 1.683812577967e+01 0.0 
1.683812577967e+01 -5.888603459201e+01 0.0 
0.0 0.0 -2.707297474320e+01 
-9.629973863374e+01 1.945420919139e+01 0.0 
1.945420919139e+01 -2.078510769150e+02 0.0 
0.0 0.0 -9.084524466463e+01 
-1.470929885090e+02 1.014658159698e+01 0.0 
1.014658159698e+01 -3.573094532813e+02 0.0 
0.0 0.0 -1.509207325371e+02 
-2.149381850106e+01 -3.420449995775e-01 0.0 
-3.420449995775e-01 -6.865003077143e+00 0.0 
0.0 0.0 -8.107646473462e+00 
-1.148230987960e+02 1.135652084123e+00 0.0 
1.135652084123e+00 -2.692538971907e+02 0.0 
0.0 0.0 -1.148230987960e+02 
-1.635563463670e+02 1.285876674443e+00 0.0 
1.285876674443e+00 -3.829648081896e+02 0.0 
0.0 0.0 -1.635563463670e+02 
-5.478501494252e+01 7.770119590600e-01 0.0 
7.770119590600e-01 -1.077162481039e+02 0.0 
0.0 0.0 -4.835037891394e+01 
-6.294332990261e+01 2.122985056154e+00 0.0 
2.122985056154e+00 -1.794056729683e+02 0.0 
0.0 0.0 -7.230470086127e+01 
-9.057905562663e+01 1.962790689995e+01 0.0 
1.962790689995e+01 -2.191658451725e+02 0.0 
0.0 0.0 -9.252347023973e+01 
-5.294349962225e+01 7.167916156448e+00 0.0 
7.167916156448e+00 -1.570846689895e+02 0.0 
0.0 0.0 -6.260845058351e+01 
-2.172301245053e+01 -1.068534172307e+00 0.0 
-1.068534172307e+00 -5.519845517904e+01 0.0 
0.0 0.0 -2.267644028887e+01 
-1.838955710081e+01 1.053555935540e+01 0.0 
1.053555935540e+01 -1.452863167948e+01 0.0 
0.0 0.0 -9.475456634084e+00 
-1.040900397698e+02 3.705432071960e+00 0.0 
3.705432071960e+00 -2.332859372245e+02 0.0 
0.0 0.0 -1.008127930983e+02 
-8.916302623792e+01 1.230556183629e+01 0.0 
1.230556183629e+01 -1.717154557779e+02 0.0 
0.0 0.0 -7.786354460473e+01 
-5.579894369272e+01 4.722892650247e+00 0.0 
4.722892650247e+00 -9.226720099949e+01 0.0 
0.0 0.0 -4.401984340766e+01 
-1.399874520426e+02 2.466178924700e+01 0.0 
2.466178924700e+01 -3.285041158431e+02 0.0 
0.0 0.0 -1.401474703657e+02 
-3.709584296823e+01 5.692950794933e-01 0.0 
5.692950794933e-01 -1.003134772486e+02 0.0 
0.0 0.0 -4.082279606506e+01 
-1.412582337563e+02 2.423255384275e+01 0.0 
2.423255384275e+01 -3.335814150423e+02 0.0 
0.0 0.0 -1.420518946396e+02 
-8.687441496432e+01 9.474852339305e+00 0.0 
9.474852339305e+00 -1.700559127330e+02 0.0 
0.0 0.0 -7.667909830921e+01 
-6.359837269941e+01 1.057131597404e+00 0.0 
1.057131597404e+00 -1.786370915693e+02 0.0 
0.0 0.0 -7.227063928061e+01 
-8.626954806802e+01 1.756882783483e+01 0.0 
1.756882783483e+01 -2.138114869202e+02 0.0 
0.0 0.0 -8.962431049647e+01 
-5.784089421549e+01 3.434718063643e-01 0.0 
3.434718063643e-01 -1.689222423318e+02 0.0 
0.0 0.0 -6.762894096419e+01 
-2.369030527138e+01 1.407288343449e+01 0.0 
1.407288343449e+01 -5.051173390799e+01 0.0 
0.0 0.0 -2.186061175381e+01 
-5.479153247601e+01 -6.205140074109e-01 0.0 
-6.205140074109e-01 -1.590900836390e+02 0.0 
0.0 0.0 -6.376448483449e+01 
-9.497410818064e+01 1.289691666189e+01 0.0 
1.289691666189e+01 -1.942974162824e+02 0.0 
0.0 0.0 -8.638145733892e+01 
-1.356212172443e+02 2.400385683746e+00 0.0 
2.400385683746e+00 -3.324032330236e+02 0.0 
0.0 0.0 -1.400073350804e+02 
-5.697052501891e+01 1.781831961768e+00 0.0 
1.781831961768e+00 -1.693195131515e+02 0.0 
0.0 0.0 -6.748701145113e+01 
-9.945595741572e+01 1.788328149399e+01 0.0 
1.788328149399e+01 -2.210256192449e+02 0.0 
0.0 0.0 -9.574447299819e+01 
-1.728524150291e+01 -5.388560601354e-01 0.0 
-5.388560601354e-01 -8.442460703606e+00 0.0 
0.0 0.0 -8.219566185198e+00 
-5.599853226046e+01 3.743647988331e+00 0.0 
3.743647988331e+00 -1.686780727688e+02 0.0 
0.0 0.0 -6.700298150878e+01 
-9.978679051333e+01 1.283219120557e+01 0.0 
1.283219120557e+01 -2.018611853858e+02 0.0 
0.0 0.0 -9.009439276975e+01 
-5.504247335024e+01 -1.361270750242e+00 0.0 
-1.361270750242e+00 -1.568675691377e+02 0.0 
0.0 0.0 -6.317301274638e+01 
-5.009283774236e+01 -5.793635328750e-01 0.0 
-5.793635328750e-01 -1.415475301487e+02 0.0 
0.0 0.0 -5.709211036733e+01 
-8.616100567815e+01 1.888407793942e+01 0.0 
1.888407793942e+01 -2.140744289191e+02 0.0 
0.0 0.0 -8.967063037917e+01 
-2.794088835938e+01 -2.211652073543e+00 0.0 
-2.211652073543e+00 -7.737999682870e+01 0.0 
0.0 0.0 -3.119626555642e+01 
-2.296313155411e+01 1.538726258787e+01 0.0 
1.538726258787e+01 -1.881924342481e+01 0.0 
0.0 0.0 -1.213471249368e+01 
-2.516681536740e+01 1.723033907003e+01 0.0 
1.723033907003e+01 -2.002457635253e+01 0.0 
0.0 0.0 -1.315741751598e+01 
-4.838493779151e+01 -1.944862312913e+00 0.0 
-1.944862312913e+00 -1.380555297703e+02 0.0 
0.0 0.0 -5.553214026853e+01 
-8.494102218491e+01 6.867291072367e+00 0.0 
6.867291072367e+00 -2.334377971005e+02 0.0 
0.0 0.0 -9.511364578562e+01 
-7.322244209612e+01 1.457206079712e+01 0.0 
1.457206079712e+01 -1.984949784008e+02 0.0 
0.0 0.0 -8.111522614908e+01 
-9.991527424075e+01 2.009121225219e+01 0.0 
2.009121225219e+01 -2.215817321337e+02 0.0 
0.0 0.0 -9.604910191235e+01 
-1.149620662943e+02 1.651609192700e+01 0.0 
1.651609192700e+01 -2.573450191872e+02 0.0 
0.0 0.0 -1.112921256445e+02 
-1.924176828003e+01 6.830524555543e+00 0.0 
6.830524555543e+00 -1.527602105145e+01 0.0 
0.0 0.0 -9.955336799446e+00 
-8.272679203730e+01 1.321841776317e+00 0.0 
1.321841776317e+00 -1.774747775681e+02 0.0 
0.0 0.0 -7.766047088163e+01 
-1.204330616904e+02 1.998615361873e+01 0.0 
1.998615361873e+01 -2.782023769248e+02 0.0 
0.0 0.0 -1.191906315846e+02 
-4.825303391287e+01 5.244811405129e+00 0.0 
5.244811405129e+00 -1.490509846424e+02 0.0 
0.0 0.0 -5.879120556658e+01 
-2.210013715927e+01 1.324976617801e+01 0.0 
1.324976617801e+01 -3.260051268732e+01 0.0 
0.0 0.0 -1.601019495398e+01 
-3.730885913473e+01 1.954003851943e+01 0.0 
1.954003851943e+01 -6.291710770891e+01 0.0 
0.0 0.0 -2.966779005309e+01 
-8.132315212253e+01 5.451809352380e+00 0.0 
5.451809352380e+00 -2.248595423008e+02 0.0 
0.0 0.0 -9.145480832700e+01 
-9.923362780795e+01 1.647169404289e+01 0.0 
1.647169404289e+01 -2.132722315989e+02 0.0 
0.0 0.0 -9.335175782205e+01 
-7.941605017186e+01 4.619402201855e+00 0.0 
4.619402201855e+00 -2.238703186763e+02 0.0 
0.0 0.0 -9.058591065444e+01 
-2.319868326103e+01 5.917618725022e+00 0.0 
5.917618725022e+00 -5.125365332217e+01 0.0 
0.0 0.0 -2.193570097496e+01 
-9.343552807988e+01 7.940275156418e+00 0.0 
7.940275156418e+00 -2.517532601693e+02 0.0 
0.0 0.0 -1.031566364748e+02 
-2.493125508507e+01 1.543073194049e+01 0.0 
1.543073194049e+01 -5.272501236701e+01 0.0 
0.0 0.0 -2.289688023562e+01 
-7.375597133808e+01 1.526842605624e+01 0.0 
1.526842605624e+01 -1.988637741661e+02 0.0 
0.0 0.0 -8.138592365126e+01 
-8.767900247455e+01 5.536116978439e+00 0.0 
5.536116978439e+00 -2.421946809696e+02 0.0 
0.0 0.0 -9.856210503325e+01 
-9.002392306474e+01 1.708778760067e+01 0.0 
1.708778760067e+01 -2.269441739181e+02 0.0 
0.0 0.0 -9.469042909487e+01 
-7.401873932682e+01 1.489914058170e+00 0.0 
1.489914058170e+00 -1.529382218782e+02 0.0 
0.0 0.0 -6.768708836152e+01 
-4.998189786081e+01 -9.897378489630e-01 0.0 
-9.897378489630e-01 -1.389206455122e+02 0.0 
0.0 0.0 -5.627076301190e+01 
-2.167533663558e+01 1.099057427122e+01 0.0 
1.099057427122e+01 -4.465082998816e+01 0.0 
0.0 0.0 -1.949784998712e+01 
-9.645538930536e+01 6.491732872358e+00 0.0 
6.491732872358e+00 -2.608477773011e+02 0.0 
0.0 0.0 -1.067909499819e+02 
-2.581987519246e+01 1.622869757733e+01 0.0 
1.622869757733e+01 -5.393407724213e+01 0.0 
0.0 0.0 -2.352618573038e+01 
-1.785787443189e+01 4.218415425581e-01 0.0 
4.218415425581e-01 -2.515120779089e+01 0.0 
0.0 0.0 -1.250272466684e+01 
-1.034595071228e+02 -2.442083359404e-01 0.0 
-2.442083359404e-01 -2.347460476566e+02 0.0 
0.0 0.0 -1.010616664338e+02 
-9.695453010143e+01 -4.150974937426e-01 0.0 
-4.150974937426e-01 -2.160819862307e+02 0.0 
0.0 0.0 -9.351095489965e+01 
-1.377378051020e+01 -1.485903633745e+00 0.0 
-1.485903633745e+00 -2.469860281855e+01 0.0 
0.0 0.0 -1.152376283219e+01 
-1.023805905636e+02 9.011332838681e+00 0.0 
9.011332838681e+00 -2.703013369828e+02 0.0 
0.0 0.0 -1.114045782639e+02 
-3.973172091841e+01 -1.643482069655e+00 0.0 
-1.643482069655e+00 -1.083333878085e+02 0.0 
0.0 0.0 -4.401953261808e+01 
-4.152912753288e+01 -2.643959658672e+00 0.0 
-2.643959658672e+00 -1.157203342572e+02 0.0 
0.0 0.0 -4.677483853704e+01 
-1.069395503261e+02 1.837966357432e+01 0.0 
1.837966357432e+01 -2.408445217159e+02 0.0 
0.0 0.0 -1.039352216126e+02 
-9.027238259147e+01 1.826399888669e+01 0.0 
1.826399888669e+01 -2.272782670835e+02 0.0 
0.0 0.0 -9.486519490249e+01 
-1.031998704859e+02 1.852475509251e+01 0.0 
1.852475509251e+01 -2.348927664704e+02 0.0 
0.0 0.0 -1.010277910869e+02 
-5.803551504863e+01 4.072093472861e+00 0.0 
4.072093472861e+00 -1.696235777535e+02 0.0 
0.0 0.0 -6.789772784065e+01 
-4.669195644378e+01 -3.883937185857e-02 0.0 
-3.883937185857e-02 -8.644798481405e+01 0.0 
0.0 0.0 -3.954198237735e+01 
-1.509593828124e+02 9.005869937199e+00 0.0 
9.005869937199e+00 -3.600867598061e+02 0.0 
0.0 0.0 -1.529138427855e+02 
-3.506539615198e+01 -2.839800401953e+00 0.0 
-2.839800401953e+00 -9.625241422578e+01 0.0 
0.0 0.0 -3.899534311333e+01 
-1.193717595313e+02 1.494765782322e+01 0.0 
1.494765782322e+01 -3.007824664382e+02 0.0 
0.0 0.0 -1.256462677908e+02 
-7.772754277932e+01 1.669892543944e+01 0.0 
1.669892543944e+01 -2.040337331978e+02 0.0 
0.0 0.0 -8.412838279313e+01 
-2.857769107229e+01 -1.274916514093e+00 0.0 
-1.274916514093e+00 -7.630690699449e+01 0.0 
0.0 0.0 -3.106537942003e+01 
-9.553148583882e+01 1.516702567374e+01 0.0 
1.516702567374e+01 -1.997172884651e+02 0.0 
0.0 0.0 -8.817463229117e+01 
-5.904137554226e+01 5.354411404624e+00 0.0 
5.354411404624e+00 -1.767710258195e+02 0.0 
0.0 0.0 -7.034372040854e+01 
-1.873563535561e+01 -2.289213170330e+00 0.0 
-2.289213170330e+00 -4.201059303105e+01 0.0 
0.0 0.0 -1.782386851600e+01 
-4.939060478220e+01 2.814068089653e+00 0.0 
2.814068089653e+00 -1.509913664187e+02 0.0 
0.0 0.0 -5.971459136026e+01 
-1.126345219170e+02 -6.922608566548e-01 0.0 
-6.922608566548e-01 -2.858507025549e+02 0.0 
0.0 0.0 -1.191455673416e+02 
-9.691699078756e+01 1.570428539600e+01 0.0 
1.570428539600e+01 -1.960518685749e+02 0.0 
0.0 0.0 -8.749065780873e+01 
-2.866351571887e+01 -2.133790346774e+00 0.0 
-2.133790346774e+00 -7.345175113352e+01 0.0 
0.0 0.0 -3.023458005572e+01 
-8.955263014796e+01 5.878270018984e-01 0.0 
5.878270018984e-01 -2.337162817256e+02 0.0 
0.0 0.0 -9.658067356207e+01 
-1.031667900786e+02 1.753209394191e+01 0.0 
1.753209394191e+01 -2.272083454450e+02 0.0 
0.0 0.0 -9.871254065707e+01 
-1.132636313309e+02 1.907694981349e+01 0.0 
1.907694981349e+01 -2.786953842261e+02 0.0 
0.0 0.0 -1.171877046671e+02 
-5.158870652393e+01 -1.360354628128e+00 0.0 
-1.360354628128e+00 -1.486879544979e+02 0.0 
0.0 0.0 -5.968299830656e+01 
-4.413735353588e+01 -1.026092664450e+00 0.0 
-1.026092664450e+00 -1.198298047815e+02 0.0 
0.0 0.0 -4.879014749522e+01 
-8.141269109842e+01 1.495595141910e+01 0.0 
1.495595141910e+01 -2.164050473337e+02 0.0 
0.0 0.0 -8.894532152963e+01 
-7.093018117118e+01 8.790098746509e-01 0.0 
8.790098746509e-01 -1.471725465343e+02 0.0 
0.0 0.0 -6.503081831165e+01 
-1.905515446430e+01 -2.213788876738e+00 0.0 
-2.213788876738e+00 -4.139086206491e+01 0.0 
0.0 0.0 -1.773380495876e+01 
-1.290700902328e+02 2.295526315903e+01 0.0 
2.295526315903e+01 -2.991152531605e+02 0.0 
0.0 0.0 -1.280556030180e+02 
-1.170257927481e+02 1.583839325940e+01 0.0 
1.583839325940e+01 -2.674854333427e+02 0.0 
0.0 0.0 -1.149533678272e+02 
-5.983741349253e+01 8.598238677482e-01 0.0 
8.598238677482e-01 -1.195957380988e+02 0.0 
0.0 0.0 -5.342994547741e+01 
-1.127314374551e+02 8.853354352732e+00 0.0 
8.853354352732e+00 -2.509509795745e+02 0.0 
0.0 0.0 -1.087047251089e+02 
-1.204584409159e+02 1.798437877310e+01 0.0 
1.798437877310e+01 -2.763678761191e+02 0.0 
0.0 0.0 -1.186478951105e+02 
-5.998880737948e+01 3.170319562911e+00 0.0 
3.170319562911e+00 -1.781520906927e+02 0.0 
0.0 0.0 -7.104226942167e+01 
-5.903100704444e+01 2.313502873414e+00 0.0 
2.313502873414e+00 -1.703278436727e+02 0.0 
0.0 0.0 -6.840765521513e+01 
-1.406069202320e+02 1.805242882624e+01 0.0 
1.805242882624e+01 -3.414004632185e+02 0.0 
0.0 0.0 -1.442022150352e+02 
-1.691321117937e+01 5.053524820750e-01 0.0 
5.053524820750e-01 -8.674328885718e+00 0.0 
0.0 0.0 -8.226874202311e+00 
-4.033624197498e+01 -8.292642738699e-01 0.0 
-8.292642738699e-01 -1.092759858989e+02 0.0 
0.0 0.0 -4.448366836215e+01 
-9.089024941706e+01 -7.244079155598e-01 0.0 
-7.244079155598e-01 -2.381312857278e+02 0.0 
0.0 0.0 -9.830646054345e+01 
-5.337077375525e+01 -4.965428003993e-01 0.0 
-4.965428003993e-01 -1.496623181069e+02 0.0 
0.0 0.0 -6.050992755866e+01 
-5.036172749584e+01 8.717288195272e-01 0.0 
8.717288195272e-01 -1.513479773107e+02 0.0 
0.0 0.0 -6.011291144196e+01 
-2.207056768514e+01 1.512792615949e+01 0.0 
1.512792615949e+01 -1.802281033767e+01 0.0 
0.0 0.0 -1.162801340684e+01 
-2.457573745968e+01 1.732110665161e+01 0.0 
1.732110665161e+01 -2.088153416512e+01 0.0 
0.0 0.0 -1.323718148744e+01 
-6.377090721395e+01 2.231593022399e+00 0.0 
2.231593022399e+00 -1.204614870376e+02 0.0 
0.0 0.0 -5.486971827548e+01 
-5.413364886639e+01 4.630428669372e+00 0.0 
4.630428669372e+00 -1.599578622288e+02 0.0 
0.0 0.0 -6.382745332855e+01 
-4.671823955547e+01 -1.364395439522e+00 0.0 
-1.364395439522e+00 -1.275536848189e+02 0.0 
0.0 0.0 -5.188157731230e+01 
-1.068254224703e+02 1.791788268325e+01 0.0 
1.791788268325e+01 -2.638971095193e+02 0.0 
0.0 0.0 -1.108167595969e+02 
-1.594237022177e+02 7.381415196513e+00 0.0 
7.381415196513e+00 -3.784677576206e+02 0.0 
0.0 0.0 -1.609674379515e+02 
-1.580147272465e+02 8.801212260032e+00 0.0 
8.801212260032e+00 -3.762028322358e+02 0.0 
0.0 0.0 -1.598652678447e+02 
-6.091869868333e+01 1.449339715372e+00 0.0 
1.449339715372e+00 -1.783741792557e+02 0.0 
0.0 0.0 -7.138786338171e+01 
-5.773674641780e+01 1.031423694143e+00 0.0 
1.031423694143e+00 -1.041320308469e+02 0.0 
0.0 0.0 -4.816063317941e+01 
-2.106160966286e+01 -8.699438411746e-02 0.0 
-8.699438411746e-02 -2.066108184922e+01 0.0 
0.0 0.0 -1.211680745362e+01 
-2.300598798594e+01 1.550296665643e+01 0.0 
1.550296665643e+01 -1.925162785563e+01 0.0 
0.0 0.0 -1.227728475247e+01 
-2.894247600322e+01 -1.484762028163e+00 0.0 
-1.484762028163e+00 -7.274240276738e+01 0.0 
0.0 0.0 -3.010546363118e+01 
-2.321924843483e+01 1.573081794597e+01 0.0 
1.573081794597e+01 -1.951659125651e+01 0.0 
0.0 0.0 -1.242075190740e+01 
-8.606399557122e+01 1.711812542587e+01 0.0 
1.711812542587e+01 -2.220431089401e+02 0.0 
0.0 0.0 -9.203213135339e+01 
-5.123717865972e+01 -4.767225537051e-01 0.0 
-4.767225537051e-01 -1.507187791490e+02 0.0 
0.0 0.0 -6.018678734261e+01 
-5.524491897992e+01 2.619468517181e+00 0.0 
2.619468517181e+00 -1.612715693828e+02 0.0 
0.0 0.0 -6.455494650881e+01 
-2.266947629988e+01 -1.136080755902e+00 0.0 
-1.136080755902e+00 -4.119752875820e+01 0.0 
0.0 0.0 -1.876010151742e+01 
-9.732019638613e+01 6.906697613020e-01 0.0 
6.906697613020e-01 -2.190096004768e+02 0.0 
0.0 0.0 -9.449893905888e+01 
-5.611587123241e+01 1.162449150249e+00 0.0 
1.162449150249e+00 -1.612512952796e+02 0.0 
0.0 0.0 -6.481014995361e+01 
-1.031742267657e+02 2.119880008289e+00 0.0 
2.119880008289e+00 -2.325454361471e+02 0.0 
0.0 0.0 -1.003158988738e+02 
-9.285252522859e+01 1.715535125606e+00 0.0 
1.715535125606e+00 -2.035602921180e+02 0.0 
0.0 0.0 -8.852384520399e+01 
-1.163658340296e+02 1.112358448011e+00 0.0 
1.112358448011e+00 -2.693457946359e+02 0.0 
0.0 0.0 -1.153134885997e+02 
-1.613277941530e+02 1.470352303147e+00 0.0 
1.470352303147e+00 -3.821635685235e+02 0.0 
0.0 0.0 -1.626474088029e+02 
-5.985408255769e+01 -5.311182248951e-01 0.0 
-5.311182248951e-01 -1.200621358718e+02 0.0 
0.0 0.0 -5.357486552886e+01 
-5.981831970932e+01 1.059074488079e+00 0.0 
1.059074488079e+00 -1.699320850892e+02 0.0 
0.0 0.0 -6.852512143955e+01 
-2.039866130462e+01 1.380261344165e+01 0.0 
1.380261344165e+01 -1.794854010426e+01 0.0 
0.0 0.0 -1.110416042266e+01 
-6.168556449213e+01 1.913231877905e-01 0.0 
1.913231877905e-01 -1.776204355146e+02 0.0 
0.0 0.0 -7.139180000203e+01 
-1.627929968325e+02 5.849652572043e+00 0.0 
5.849652572043e+00 -3.811836592759e+02 0.0 
0.0 0.0 -1.627929968325e+02 
-2.126430804248e+01 1.384672300250e+01 0.0 
1.384672300250e+01 -1.779942293341e+01 0.0 
0.0 0.0 -1.131911929277e+01 
-2.206172380414e+01 1.468245667362e+01 0.0 
1.468245667362e+01 -1.854169993853e+01 0.0 
0.0 0.0 -1.178102712280e+01 
-1.234531413400e+02 1.641120937007e+01 0.0 
1.641120937007e+01 -3.076117768016e+02 0.0 
0.0 0.0 -1.289194754425e+02 
-5.600415931439e+01 7.919603884751e-01 0.0 
7.919603884751e-01 -1.044415626644e+02 0.0 
0.0 0.0 -4.773371659363e+01 
-1.035402586415e+02 1.062526240518e+00 0.0 
1.062526240518e+00 -2.344875047552e+02 0.0 
0.0 0.0 -1.010083290190e+02 
-1.039009398827e+02 1.981853706994e+01 0.0 
1.981853706994e+01 -2.277278266959e+02 0.0 
0.0 0.0 -9.908862997359e+01 
-1.208238915789e+02 1.848868339294e+01 0.0 
1.848868339294e+01 -2.962052954254e+02 0.0 
0.0 0.0 -1.247087561013e+02 
-1.079843464714e+02 1.817135898910e+01 0.0 
1.817135898910e+01 -2.297302202896e+02 0.0 
0.0 0.0 -1.009143700283e+02 
-6.185893153245e+01 -2.646178248226e-01 0.0 
-2.646178248226e-01 -1.235436048769e+02 0.0 
0.0 0.0 -5.522076092282e+01 
-4.687490801924e+01 -1.158938677445e+00 0.0 
-1.158938677445e+00 -1.310035152084e+02 0.0 
0.0 0.0 -5.296352696828e+01 
-4.525087367989e+01 -1.994976444753e+00 0.0 
-1.994976444753e+00 -1.301563624056e+02 0.0 
0.0 0.0 -5.222217082565e+01 
-7.871648354577e+01 -3.033855738042e-01 0.0 
-3.033855738042e-01 -1.668491092639e+02 0.0 
0.0 0.0 -7.326967784291e+01 
-1.173007925952e+02 2.023843587297e+01 0.0 
2.023843587297e+01 -2.838694958211e+02 0.0 
0.0 0.0 -1.199510865249e+02 
-5.276636226946e+01 1.826901442670e+00 0.0 
1.826901442670e+00 -8.867208701668e+01 0.0 
0.0 0.0 -4.203153478584e+01 
-5.317336632894e+01 3.870886716042e-02 0.0 
3.870886716042e-02 -1.031167595968e+02 0.0 
0.0 0.0 -4.648703777773e+01 
-5.998876755615e+01 4.965350222158e-01 0.0 
4.965350222158e-01 -1.190505520273e+02 0.0 
0.0 0.0 -5.331179587504e+01 
-6.254987066848e+01 1.486896457975e+00 0.0 
1.486896457975e+00 -1.247251446376e+02 0.0 
0.0 0.0 -5.578250459184e+01 
-2.402707488393e+01 -7.679756049472e-01 0.0 
-7.679756049472e-01 -6.095128059633e+01 0.0 
0.0 0.0 -2.509350664408e+01 
-4.207113321425e+01 -2.403785681953e+00 0.0 
-2.403785681953e+00 -1.192461703721e+02 0.0 
0.0 0.0 -4.799519107592e+01 
-1.116461489221e+02 4.030314784371e+00 0.0 
4.030314784371e+00 -2.541325640683e+02 0.0 
0.0 0.0 -1.093336138971e+02 
-7.071831269097e+01 1.740514475956e+00 0.0 
1.740514475956e+00 -1.440524687607e+02 0.0 
0.0 0.0 -6.403123443550e+01 
-1.412636999668e+02 1.942109339094e+01 0.0 
1.942109339094e+01 -3.384758845828e+02 0.0 
0.0 0.0 -1.435218753649e+02 
-1.185982496246e+02 1.894554333948e+01 0.0 
1.894554333948e+01 -2.604633477922e+02 0.0 
0.0 0.0 -1.133184792250e+02 
-9.666644633085e+01 1.780608300287e+01 0.0 
1.780608300287e+01 -2.008990881020e+02 0.0 
0.0 0.0 -8.886966032985e+01 
-1.086646437897e+02 8.764408661768e+00 0.0 
8.764408661768e+00 -2.383279995792e+02 0.0 
0.0 0.0 -1.036977930107e+02 
-6.576693892800e+01 -9.618929803617e-01 0.0 
-9.618929803617e-01 -1.778024821978e+02 0.0 
0.0 0.0 -7.267082633773e+01 
-5.958301219727e+01 -1.168015284311e+00 0.0 
-1.168015284311e+00 -1.623678399687e+02 0.0 
0.0 0.0 -6.618525564978e+01 
-1.413507168899e+02 7.907418314377e+00 0.0 
7.907418314377e+00 -3.449885314254e+02 0.0 
0.0 0.0 -1.455017744946e+02 
-1.674514049614e+01 -1.383625756535e+00 0.0 
-1.383625756535e+00 -2.422325359537e+01 0.0 
0.0 0.0 -1.234320289849e+01 
-4.323645678552e+01 -3.219278559770e-01 0.0 
-3.219278559770e-01 -1.155490204537e+02 0.0 
0.0 0.0 -4.723564317178e+01 
-1.415179863230e+02 2.329116333821e+01 0.0 
2.329116333821e+01 -3.315419680870e+02 0.0 
0.0 0.0 -1.415179863230e+02 
-2.132515973012e+01 5.163856673818e-01 0.0 
5.163856673818e-01 -5.773474329036e+01 0.0 
0.0 0.0 -2.331797090614e+01 
-5.315003365092e+01 2.159729745548e-02 0.0 
2.159729745548e-02 -1.031526409085e+02 0.0 
0.0 0.0 -4.649080236783e+01 
-1.342348576605e+02 1.537276146333e+01 0.0 
1.537276146333e+01 -3.318284820957e+02 0.0 
0.0 0.0 -1.394190019269e+02 
-1.797332639523e+01 -2.109061972701e+00 0.0 
-2.109061972701e+00 -3.926413302710e+01 0.0 
0.0 0.0 -1.677123782670e+01 
-1.110760951346e+01 -6.770955890642e-01 0.0 
-6.770955890642e-01 -2.405285177859e+01 0.0 
0.0 0.0 -1.014813838761e+01 
-1.187264799535e+02 7.391618219177e+00 0.0 
7.391618219177e+00 -2.726032234733e+02 0.0 
0.0 0.0 -1.169989110280e+02 
-4.768080976209e+01 -2.561117887756e-01 0.0 
-2.561117887756e-01 -8.643629437750e+01 0.0 
0.0 0.0 -3.983513124188e+01 
-1.108658954796e+02 4.988757749154e+00 0.0 
4.988757749154e+00 -2.506933922854e+02 0.0 
0.0 0.0 -1.080677863295e+02 
-1.349496186780e+02 1.576535708832e+01 0.0 
1.576535708832e+01 -3.290134972741e+02 0.0 
0.0 0.0 -1.387889347856e+02 
-4.735701673511e+01 3.163253639426e-01 0.0 
3.163253639426e-01 -8.615700667464e+01 0.0 
0.0 0.0 -3.965420702293e+01 
-2.142763757946e+01 6.594468365261e-01 0.0 
6.594468365261e-01 -2.165693727092e+01 0.0 
0.0 0.0 -1.252537245512e+01 
-1.091213262671e+02 1.479810925780e+00 0.0 
1.479810925780e+00 -2.519702781489e+02 0.0 
0.0 0.0 -1.079274813248e+02 
-2.389779839239e+01 -6.640200835035e-01 0.0 
-6.640200835035e-01 -6.351507916661e+01 0.0 
0.0 0.0 -2.582386326770e+01 
-1.055656943483e+02 4.400193959782e+00 0.0 
4.400193959782e+00 -2.386782473897e+02 0.0 
0.0 0.0 -1.028731825214e+02 
-1.630769961159e+02 4.502179573110e+00 0.0 
4.502179573110e+00 -3.818463242705e+02 0.0 
0.0 0.0 -1.630769961159e+02 
-1.148533631533e+02 1.597306771343e+01 0.0 
1.597306771343e+01 -2.527200206474e+02 0.0 
0.0 0.0 -1.098720151402e+02 
-2.745888533896e+01 -5.749621738622e-01 0.0 
-5.749621738622e-01 -7.878030567032e+01 0.0 
0.0 0.0 -3.147175730278e+01 
-6.648529288596e+01 3.093265135951e+00 0.0 
3.093265135951e+00 -1.228096301790e+02 0.0 
0.0 0.0 -5.638847691950e+01 
-6.711098275888e+01 1.796935566386e-01 0.0 
1.796935566386e-01 -1.807104900027e+02 0.0 
0.0 0.0 -7.394644182847e+01 
-1.079631753339e+02 1.917858190894e+01 0.0 
1.917858190894e+01 -2.645182240347e+02 0.0 
0.0 0.0 -1.113444198106e+02 
-1.469285469068e+02 2.232637253627e+01 0.0 
2.232637253627e+01 -3.478646928111e+02 0.0 
0.0 0.0 -1.480379719154e+02 
-8.668262525653e+01 1.218586027777e-01 0.0 
1.218586027777e-01 -1.882095533059e+02 0.0 
0.0 0.0 -8.206765356874e+01 
-1.475698856983e+02 2.030701666074e+01 0.0 
2.030701666074e+01 -3.520662323925e+02 0.0 
0.0 0.0 -1.494908354273e+02 
-1.982774702987e+01 -1.259159817906e+00 0.0 
-1.259159817906e+00 -4.011781028833e+01 0.0 
0.0 0.0 -1.758366719546e+01 
-1.530645901204e+02 6.245202699110e+00 0.0 
6.245202699110e+00 -3.660117861168e+02 0.0 
0.0 0.0 -1.553229128711e+02 
-3.111342152169e+01 -6.259036136148e-01 0.0 
-6.259036136148e-01 -8.904008937925e+01 0.0 
0.0 0.0 -3.564605327028e+01 
-2.126332551151e+01 -1.049847640555e+00 0.0 
-1.049847640555e+00 -5.768669602441e+01 0.0 
0.0 0.0 -2.328500646078e+01 
-1.451461658270e+02 1.472807533397e+01 0.0 
1.472807533397e+01 -3.516216056012e+02 0.0 
0.0 0.0 -1.486303314285e+02 
-1.174702491029e+02 1.189101995363e+01 0.0 
1.189101995363e+01 -2.617213648192e+02 0.0 
0.0 0.0 -1.133574841766e+02 
-1.138321382335e+02 7.818167175931e+00 0.0 
7.818167175931e+00 -2.592218092575e+02 0.0 
0.0 0.0 -1.115161842473e+02 
-5.313325700226e+01 -5.247707899072e-01 0.0 
-5.247707899072e-01 -1.018369228328e+02 0.0 
0.0 0.0 -4.609105395052e+01 
-6.962169317140e+01 4.418296975793e+00 0.0 
4.418296975793e+00 -1.268339835610e+02 0.0 
0.0 0.0 -5.853670301973e+01 
-2.445261678739e+01 1.337612239371e+01 0.0 
1.337612239371e+01 -5.088619678239e+01 0.0 
0.0 0.0 -2.220164407093e+01 
-1.248401160788e+02 2.011361664250e+01 0.0 
2.011361664250e+01 -2.805097659987e+02 0.0 
0.0 0.0 -1.212049646232e+02 
-5.598888256349e+01 -1.046505571402e+00 0.0 
-1.046505571402e+00 -1.510426841740e+02 0.0 
0.0 0.0 -6.170947002124e+01 
-2.008105143733e+01 6.822828907627e+00 0.0 
6.822828907627e+00 -4.081195592119e+01 0.0 
0.0 0.0 -1.786790220756e+01 
-1.120934889513e+02 1.790226171454e+01 0.0 
1.790226171454e+01 -2.779760771209e+02 0.0 
0.0 0.0 -1.166208698217e+02 
-4.629625574300e+01 1.131465579777e-01 0.0 
1.131465579777e-01 -8.577022712190e+01 0.0 
0.0 0.0 -3.921994485947e+01 
-1.109016678336e+02 1.039325237571e+01 0.0 
1.039325237571e+01 -2.472732670720e+02 0.0 
0.0 0.0 -1.070524804717e+02 
-1.155697134692e+02 8.261603981810e-01 0.0 
8.261603981810e-01 -2.676063182876e+02 0.0 
0.0 0.0 -1.145528095271e+02 
-1.150293721677e+02 5.084519710813e-01 0.0 
5.084519710813e-01 -2.697352017247e+02 0.0 
0.0 0.0 -1.150293721677e+02 
-2.525207376906e+00 3.185336776447e-01 0.0 
3.185336776447e-01 -6.654247585454e+00 0.0 
0.0 0.0 -2.353836488708e+00 
-4.680780665166e+00 -2.756636992496e-01 0.0 
-2.756636992496e-01 -1.042674257982e+01 0.0 
0.0 0.0 -4.768763523657e+00 
-4.675643435742e+01 6.569441333076e-01 0.0 
6.569441333076e-01 -8.823615303650e+01 0.0 
0.0 0.0 -4.009777621818e+01 
-4.543162747050e+01 -1.083894155457e-01 0.0 
-1.083894155457e-01 -8.573429217915e+01 0.0 
0.0 0.0 -3.894977589489e+01 
-1.637879416621e+02 5.713964796901e-01 0.0 
5.713964796901e-01 -3.835051972116e+02 0.0 
0.0 0.0 -1.637879416621e+02 
-1.608569961627e+02 -6.207052136362e-01 0.0 
-6.207052136362e-01 -3.804756342443e+02 0.0 
0.0 0.0 -1.619997891221e+02 
-9.132058053588e+00 -7.435541090763e-01 0.0 
-7.435541090763e-01 -2.305323939695e+01 0.0 
0.0 0.0 -9.255589235162e+00 
-1.653085453961e+01 -4.507527822481e-01 0.0 
-4.507527822481e-01 -8.265970994398e+00 0.0 
0.0 0.0 -7.939474007408e+00 
-1.455560422019e+02 2.686880208765e+00 0.0 
2.686880208765e+00 -3.511876023735e+02 0.0 
0.0 0.0 -1.486230933726e+02 
-1.236092583733e+02 2.051993893856e+01 0.0 
2.051993893856e+01 -2.944673356476e+02 0.0 
0.0 0.0 -1.250229782063e+02 
-2.855153178766e+01 -7.971841515640e-01 0.0 
-7.971841515640e-01 -7.437257889049e+01 0.0 
0.0 0.0 -3.047723320345e+01 
-1.463773092246e+02 6.587508916282e+00 0.0 
6.587508916282e+00 -3.527701650877e+02 0.0 
0.0 0.0 -1.493442422937e+02 
-9.818467467054e+01 3.447161135758e-01 0.0 
3.447161135758e-01 -2.538466615895e+02 0.0 
0.0 0.0 -1.052094008780e+02 
-8.298812832303e+01 7.823641764074e-01 0.0 
7.823641764074e-01 -2.194984097732e+02 0.0 
0.0 0.0 -9.034596142887e+01 
-7.399010131035e+01 3.247854903165e-01 0.0 
3.247854903165e-01 -1.539627622792e+02 0.0 
0.0 0.0 -6.798585907685e+01 
-2.715216368054e+01 -2.384934182596e+00 0.0 
-2.384934182596e+00 -6.894840396572e+01 0.0 
0.0 0.0 -2.843017029388e+01 
-9.907486409396e+01 1.873168436239e+01 0.0 
1.873168436239e+01 -2.458904001521e+02 0.0 
0.0 0.0 -1.030895792738e+02 
-2.350592413355e+01 -1.361748577855e+00 0.0 
-1.361748577855e+00 -5.971939181847e+01 0.0 
0.0 0.0 -2.456759478561e+01 
-7.503497224113e+01 6.062146633487e-01 0.0 
6.062146633487e-01 -1.997889557773e+02 0.0 
0.0 0.0 -8.204717840554e+01 
-1.179360710404e+02 1.791131287011e+01 0.0 
1.791131287011e+01 -2.663300291006e+02 0.0 
0.0 0.0 -1.148798300423e+02 
-1.011444419808e+02 9.263870645664e-01 0.0 
9.263870645664e-01 -2.272868768581e+02 0.0 
0.0 0.0 -9.812939565167e+01 
-8.306474640441e+01 -3.851566458952e-01 0.0 
-3.851566458952e-01 -2.186030076330e+02 0.0 
0.0 0.0 -9.010032621121e+01 
-6.562343711040e+01 1.005132803341e+00 0.0 
1.005132803341e+00 -1.334383248891e+02 0.0 
0.0 0.0 -5.931852859984e+01 
-1.232119785830e+02 2.182689888372e+01 0.0 
2.182689888372e+01 -2.866720559494e+02 0.0 
0.0 0.0 -1.225652103597e+02 
-1.114895323265e+02 1.927274408512e+01 0.0 
1.927274408512e+01 -2.418402366559e+02 0.0 
0.0 0.0 -1.055989306947e+02 
-1.041137783960e+02 1.851515141243e+01 0.0 
1.851515141243e+01 -2.213537486986e+02 0.0 
0.0 0.0 -9.724025812838e+01 
-4.688276676177e+01 2.775172335176e-02 0.0 
2.775172335176e-02 -8.638484138656e+01 0.0 
0.0 0.0 -3.958028244450e+01 
-9.483309531342e+01 1.773576829482e+01 0.0 
1.773576829482e+01 -2.405678414893e+02 0.0 
0.0 0.0 -1.002202810408e+02 
-1.113600127465e+02 1.251424672467e+01 0.0 
1.251424672467e+01 -2.480386935738e+02 0.0 
0.0 0.0 -1.074196118961e+02 
-4.207159917490e+01 -9.739078926246e-01 0.0 
-9.739078926246e-01 -1.148978690291e+02 0.0 
0.0 0.0 -4.669084046120e+01 
-1.527917509471e+01 -1.324788692751e+00 0.0 
-1.324788692751e+00 -2.515845312932e+01 0.0 
0.0 0.0 -1.173128846721e+01 
-1.184482327855e+02 2.128708375267e+01 0.0 
2.128708375267e+01 -2.720873415641e+02 0.0 
0.0 0.0 -1.167606723049e+02 
-1.179710981105e+02 1.383994257822e+01 0.0 
1.383994257822e+01 -3.000777794280e+02 0.0 
0.0 0.0 -1.250146632616e+02 
-2.316469324261e+01 -2.240361419585e+00 0.0 
-2.240361419585e+00 -5.740335949751e+01 0.0 
0.0 0.0 -2.377041582203e+01 
-7.949426788066e+01 1.152879841226e+00 0.0 
1.152879841226e+00 -1.681657066798e+02 0.0 
0.0 0.0 -7.389799236812e+01 
-1.538903534624e+02 3.476325003820e+00 0.0 
3.476325003820e+00 -3.656852415527e+02 0.0 
0.0 0.0 -1.554726785046e+02 
-1.184102445217e+02 2.000892905373e+01 0.0 
2.000892905373e+01 -2.797358265024e+02 0.0 
0.0 0.0 -1.190438213072e+02 
-1.242699412087e+02 2.232636628602e+01 0.0 
2.232636628602e+01 -2.911746740670e+02 0.0 
0.0 0.0 -1.242333845827e+02 
-1.072413325600e+02 1.073639348675e+00 0.0 
1.073639348675e+00 -2.739002189630e+02 0.0 
0.0 0.0 -1.139424654569e+02 
-1.642487036736e+01 4.200877307086e+00 0.0 
4.200877307086e+00 -2.123213492222e+01 0.0 
0.0 0.0 -1.117389263610e+01 
-2.115325090729e+01 1.510968245202e+01 0.0 
1.510968245202e+01 -1.763348175172e+01 0.0 
0.0 0.0 -1.123601979771e+01 
-2.727602934768e+01 1.649867549239e+01 0.0 
1.649867549239e+01 -5.454262594126e+01 0.0 
0.0 0.0 -2.414559658668e+01 
-6.727540406303e+01 3.267756619241e+00 0.0 
3.267756619241e+00 -1.226304819186e+02 0.0 
0.0 0.0 -5.657176579449e+01 
-9.411618392444e+01 1.646364826334e+01 0.0 
1.646364826334e+01 -2.400434358039e+02 0.0 
0.0 0.0 -9.984788591849e+01 
-1.067159999619e+02 4.412931399000e+00 0.0 
4.412931399000e+00 -2.409208962126e+02 0.0 
0.0 0.0 -1.038910688524e+02 
-1.422157766898e+02 1.717442209725e+01 0.0 
1.717442209725e+01 -3.407324781771e+02 0.0 
0.0 0.0 -1.444844764601e+02 
-2.192102884763e+01 -2.136081194868e+00 0.0 
-2.136081194868e+00 -4.165481751069e+01 0.0 
0.0 0.0 -1.867275390750e+01 
-2.008012400459e+01 -2.494132240833e+00 0.0 
-2.494132240833e+00 -4.049849549711e+01 0.0 
0.0 0.0 -1.777358585051e+01 
-2.294658336610e+01 1.560921625065e+01 0.0 
1.560921625065e+01 -1.921303894259e+01 0.0 
0.0 0.0 -1.224788669261e+01 
-8.153445748074e+01 -1.180588034792e-01 0.0 
-1.180588034792e-01 -1.737169952707e+02 0.0 
0.0 0.0 -7.617543582545e+01 
-5.206594940373e+01 -1.334813961072e-01 0.0 
-1.334813961072e-01 -1.408116320658e+02 0.0 
0.0 0.0 -5.746327444086e+01 
-1.114838013990e+02 9.970679669720e+00 0.0 
9.970679669720e+00 -2.469817595685e+02 0.0 
0.0 0.0 -1.071396682902e+02 
-2.711023697716e+01 -1.607557510693e-01 0.0 
-1.607557510693e-01 -7.126966787808e+01 0.0 
0.0 0.0 -2.911397145657e+01 
-1.321116249208e+02 1.625126373856e+01 0.0 
1.625126373856e+01 -3.237044319868e+02 0.0 
0.0 0.0 -1.363448170723e+02 
-6.229199380501e+01 5.497587406912e-01 0.0 
5.497587406912e-01 -1.193102994168e+02 0.0 
0.0 0.0 -5.408068796655e+01 
-1.368306178627e+02 2.118658410408e+01 0.0 
2.118658410408e+01 -3.233963201062e+02 0.0 
0.0 0.0 -1.376680813907e+02 
-1.124120481788e+02 2.046340605725e+01 0.0 
2.046340605725e+01 -2.707554812026e+02 0.0 
0.0 0.0 -1.145502588144e+02 
-6.881661321930e+01 4.686442783742e+00 0.0 
4.686442783742e+00 -1.234588928004e+02 0.0 
0.0 0.0 -5.728265180591e+01 
-1.470177526834e+02 1.215588715986e+01 0.0 
1.215588715986e+01 -3.561758717842e+02 0.0 
0.0 0.0 -1.505580873403e+02 
-1.159217925935e+02 1.027222081773e+01 0.0 
1.027222081773e+01 -2.605091388214e+02 0.0 
0.0 0.0 -1.125292794245e+02 
-1.111648872426e+02 6.188667303585e-01 0.0 
6.188667303585e-01 -2.537005716963e+02 0.0 
0.0 0.0 -1.090596376817e+02 
-2.339280213527e+01 1.537761609926e+01 0.0 
1.537761609926e+01 -1.859767253348e+01 0.0 
0.0 0.0 -1.219714240063e+01 
-1.068046472027e+02 7.147549332354e+00 0.0 
7.147549332354e+00 -2.373579848060e+02 0.0 
0.0 0.0 -1.028487896026e+02 
-1.272191261899e+02 2.142174773686e+01 0.0 
2.142174773686e+01 -2.958318492552e+02 0.0 
0.0 0.0 -1.265152926335e+02 
-1.318814134701e+02 1.740996800308e+01 0.0 
1.740996800308e+01 -3.243055252743e+02 0.0 
0.0 0.0 -1.364560816233e+02 
-1.155377180945e+02 1.847719722498e+01 0.0 
1.847719722498e+01 -2.825488901239e+02 0.0 
0.0 0.0 -1.190259824655e+02 
-1.618906150058e+02 7.545463827453e+00 0.0 
7.545463827453e+00 -3.790781016802e+02 0.0 
0.0 0.0 -1.618906150058e+02 
-1.024757913913e+02 1.590813279839e+01 0.0 
1.590813279839e+01 -2.201476621456e+02 0.0 
0.0 0.0 -9.638703606105e+01 
-1.610227088948e+01 3.917679589010e+00 0.0 
3.917679589010e+00 -9.506014644164e+00 0.0 
0.0 0.0 -8.234228560618e+00 
-2.211608305224e+01 9.476915670511e+00 0.0 
9.476915670511e+00 -4.491683689654e+01 0.0 
0.0 0.0 -1.970987598463e+01 
-1.144222891618e+02 1.889975284514e+01 0.0 
1.889975284514e+01 -2.499381911247e+02 0.0 
0.0 0.0 -1.089081440859e+02 
-7.232556431531e+01 3.130037902749e+00 0.0 
3.130037902749e+00 -1.373878788602e+02 0.0 
0.0 0.0 -6.251403295265e+01 
-1.455153852168e+02 2.571568096037e+00 0.0 
2.571568096037e+00 -3.509789608070e+02 0.0 
0.0 0.0 -1.485483038071e+02 
-1.215598159734e+02 2.116956231761e+01 0.0 
2.116956231761e+01 -2.899274177647e+02 0.0 
0.0 0.0 -1.230461701214e+02 
-1.540054376351e+02 6.724756348056e+00 0.0 
6.724756348056e+00 -3.657480293664e+02 0.0 
0.0 0.0 -1.555260401004e+02 
-8.970510752049e+01 3.812387160925e-01 0.0 
3.812387160925e-01 -1.947225302599e+02 0.0 
0.0 0.0 -8.492829133413e+01 
-1.386315543706e+02 2.065341434743e+01 0.0 
2.065341434743e+01 -3.282981363814e+02 0.0 
0.0 0.0 -1.396789072256e+02 
-1.423427688290e+02 1.095277410397e+01 0.0 
1.095277410397e+01 -3.456186794124e+02 0.0 
0.0 0.0 -1.459884344724e+02 
-1.411818434081e+02 9.871535393555e+00 0.0 
9.871535393555e+00 -3.449827208923e+02 0.0 
0.0 0.0 -1.454493692901e+02 
-5.426847817440e+01 -1.727270036236e-01 0.0 
-1.727270036236e-01 -1.462834482051e+02 0.0 
0.0 0.0 -5.976557791386e+01 
-1.600993591862e+02 6.420493151499e+00 0.0 
6.420493151499e+00 -3.797105293803e+02 0.0 
0.0 0.0 -1.615429665699e+02 
-5.696226158662e+01 1.311999220154e+00 0.0 
1.311999220154e+00 -1.034825169011e+02 0.0 
0.0 0.0 -4.773343354632e+01 
-1.046197173050e+02 2.749585569903e+00 0.0 
2.749585569903e+00 -2.352438865689e+02 0.0 
0.0 0.0 -1.015590811622e+02 
-1.827099324703e+01 -2.146504936056e+00 0.0 
-2.146504936056e+00 -4.109300769632e+01 0.0 
0.0 0.0 -1.740920028300e+01 
-9.941815778247e+01 1.419453649287e+00 0.0 
1.419453649287e+00 -2.202503214909e+02 0.0 
0.0 0.0 -9.550054378202e+01 
-8.059148258784e+01 9.022288029568e-01 0.0 
9.022288029568e-01 -1.700511851607e+02 0.0 
0.0 0.0 -7.479280032457e+01 
-1.599033170915e+01 1.102332215977e-01 0.0 
1.102332215977e-01 -4.213580562832e+01 0.0 
0.0 0.0 -1.703784120124e+01 
-2.681641434838e+01 2.902202184682e-02 0.0 
2.902202184682e-02 -7.039908875582e+01 0.0 
0.0 0.0 -2.876465093126e+01 
-1.062949761311e+02 1.707011902673e+01 0.0 
1.707011902673e+01 -2.334225901823e+02 0.0 
0.0 0.0 -1.015152698940e+02 
-1.104813944880e+02 5.437265701587e+00 0.0 
5.437265701587e+00 -2.537718882346e+02 0.0 
0.0 0.0 -1.088759848168e+02 
-1.050425218928e+02 1.672178114128e+00 0.0 
1.672178114128e+00 -2.378718336013e+02 0.0 
0.0 0.0 -1.024743066482e+02 
-1.354469178631e+02 1.974330105337e+01 0.0 
1.974330105337e+01 -3.271588548701e+02 0.0 
0.0 0.0 -1.383817318199e+02 
-6.572435204460e+01 -2.385966719669e-01 0.0 
-2.385966719669e-01 -1.328051821336e+02 0.0 
0.0 0.0 -5.915886025345e+01 
-1.316885237800e+01 -1.425587301536e+00 0.0 
-1.425587301536e+00 -2.465136971273e+01 0.0 
0.0 0.0 -1.094606662722e+01 
-2.075094324138e+01 2.311016161112e+00 0.0 
2.311016161112e+00 -3.467278823489e+01 0.0 
0.0 0.0 -1.622711944288e+01 
-1.295785079807e+01 -1.986845243555e+00 0.0 
-1.986845243555e+00 -2.819593800346e+01 0.0 
0.0 0.0 -1.193755149759e+01 
-2.344218758743e+01 -2.014742386655e+00 0.0 
-2.014742386655e+00 -5.453650214985e+01 0.0 
0.0 0.0 -2.299360692118e+01 
-1.529365245474e+01 7.477475710077e+00 0.0 
7.477475710077e+00 -6.916887497751e+00 0.0 
0.0 0.0 -6.458783785058e+00 
-7.318549142777e+01 -6.057193619511e-01 0.0 
-6.057193619511e-01 -1.948444631117e+02 0.0 
0.0 0.0 -8.000898636183e+01 
-1.451929158341e+02 1.165646807164e+00 0.0 
1.165646807164e+00 -3.507980887044e+02 0.0 
0.0 0.0 -1.483973013615e+02 
-1.139813798911e+02 1.452506254851e+01 0.0 
1.452506254851e+01 -2.526438109049e+02 0.0 
0.0 0.0 -1.095875572388e+02 
-7.635169310158e+01 6.953440489943e+00 0.0 
6.953440489943e+00 -1.394068823867e+02 0.0 
0.0 0.0 -6.432757264648e+01 
-6.319490845784e+01 4.676052551257e-01 0.0 
4.676052551257e-01 -1.707747886700e+02 0.0 
0.0 0.0 -6.979090913835e+01 
-1.420021742051e+02 9.054812973840e+00 0.0 
9.054812973840e+00 -3.458197254187e+02 0.0 
0.0 0.0 -1.459465698872e+02 
-1.339999591017e+02 1.271081693879e+01 0.0 
1.271081693879e+01 -3.327050173227e+02 0.0 
0.0 0.0 -1.396114929273e+02 
-1.346119229194e+02 2.218112430336e+01 0.0 
2.218112430336e+01 -3.214803152159e+02 0.0 
0.0 0.0 -1.364276714406e+02 
-1.229838090444e+02 2.101003909180e+01 0.0 
2.101003909180e+01 -2.847227710148e+02 0.0 
0.0 0.0 -1.219119740178e+02 
-1.130587238255e+02 1.799786953011e+01 0.0 
1.799786953011e+01 -2.529773940424e+02 0.0 
0.0 0.0 -1.094108353604e+02 
-1.774037377057e+01 -2.341955089688e+00 0.0 
-2.341955089688e+00 -4.054022359481e+01 0.0 
0.0 0.0 -1.708417920961e+01 
-2.255908286132e+01 -5.863159276228e-01 0.0 
-5.863159276228e-01 -3.532488289879e+01 0.0 
0.0 0.0 -1.696518972803e+01 
-1.454234237408e+02 3.725661925822e+00 0.0 
3.725661925822e+00 -3.516183064707e+02 0.0 
0.0 0.0 -1.487125190635e+02 
-1.483463426524e+01 -4.104086380757e-01 0.0 
-4.104086380757e-01 -4.127697917518e+01 0.0 
0.0 0.0 -1.643348403212e+01 
-1.820652713823e+01 -1.108990305288e+00 0.0 
-1.108990305288e+00 -4.923831502065e+01 0.0 
0.0 0.0 -1.983345264766e+01 
-1.930683175484e+01 9.541764989985e+00 0.0 
9.541764989985e+00 -2.525958074997e+01 0.0 
0.0 0.0 -1.296992375144e+01 
-1.660657525950e+01 -1.179928299422e+00 0.0 
-1.179928299422e+00 -3.863775552202e+01 0.0 
0.0 0.0 -1.617329923446e+01 
-1.504470266227e+02 1.097280314438e+01 0.0 
1.097280314438e+01 -3.588912212021e+02 0.0 
0.0 0.0 -1.524014743474e+02 
-1.245613133781e+02 2.072399212006e+01 0.0 
2.072399212006e+01 -2.864967731770e+02 0.0 
0.0 0.0 -1.229174259665e+02 
-1.058887802776e+02 2.817159159377e+00 0.0 
2.817159159377e+00 -2.406983502473e+02 0.0 
0.0 0.0 -1.035761391575e+02 
-1.354978161517e+02 2.174784535595e+01 0.0 
2.174784535595e+01 -3.202120624644e+02 0.0 
0.0 0.0 -1.363129635848e+02 
-1.296729425602e+02 1.393854329788e+01 0.0 
1.393854329788e+01 -3.217954647156e+02 0.0 
0.0 0.0 -1.350405221827e+02 
-7.034206375060e+01 -2.497481904282e-01 0.0 
-2.497481904282e-01 -1.441549288305e+02 0.0 
0.0 0.0 -6.394909777432e+01 
-1.163862710990e+02 7.432775790962e+00 0.0 
7.432775790962e+00 -2.729012992309e+02 0.0 
0.0 0.0 -1.163862710990e+02 
-3.285029094695e+01 -1.337788163614e+00 0.0 
-1.337788163614e+00 -8.981882404862e+01 0.0 
0.0 0.0 -3.640073449867e+01 
-4.711477812178e+01 8.694450739053e-02 0.0 
8.694450739053e-02 -8.556686661494e+01 0.0 
0.0 0.0 -3.940449342101e+01 
-2.521667434441e+01 -2.676897654003e+00 0.0 
-2.676897654003e+00 -5.569110373892e+01 0.0 
0.0 0.0 -2.387233342500e+01 
-1.041083711221e+01 -1.046191105076e+00 0.0 
-1.046191105076e+00 -2.435206315469e+01 0.0 
0.0 0.0 -1.057572996055e+01 
-1.606382164535e+02 4.175545128462e+00 0.0 
4.175545128462e+00 -3.807550859461e+02 0.0 
0.0 0.0 -1.620179907199e+02 
-6.138107212558e+01 3.571256689536e+00 0.0 
3.571256689536e+00 -1.080084243936e+02 0.0 
0.0 0.0 -5.041684895574e+01 
-2.234554075348e+01 -9.524920056904e-01 0.0 
-9.524920056904e-01 -5.742740640740e+01 0.0 
0.0 0.0 -2.353188414826e+01 
-6.962807019036e+01 -1.076293840265e+00 0.0 
-1.076293840265e+00 -1.874196204219e+02 0.0 
0.0 0.0 -7.671430718367e+01 
-1.258755697224e+02 2.088086131626e+01 0.0 
2.088086131626e+01 -2.860944416110e+02 0.0 
0.0 0.0 -1.231910034000e+02 
-1.073694375007e+02 5.775810712045e+00 0.0 
5.775810712045e+00 -2.400331028041e+02 0.0 
0.0 0.0 -1.038207620914e+02 
-1.146549613263e+02 1.194709608690e+01 0.0 
1.194709608690e+01 -2.617606876983e+02 0.0 
0.0 0.0 -1.125246947074e+02 
-4.969457122463e+01 6.428908980550e-02 0.0 
6.428908980550e-02 -1.336046478372e+02 0.0 
0.0 0.0 -5.458976571856e+01 
-2.065381118158e+01 7.244053392671e-01 0.0 
7.244053392671e-01 -3.529659481683e+01 0.0 
0.0 0.0 -1.638512179952e+01 
-1.510342079022e+02 7.740034907096e+00 0.0 
7.740034907096e+00 -3.634538026368e+02 0.0 
0.0 0.0 -1.539464031617e+02 
-1.171890277837e+02 6.022428206068e-01 0.0 
6.022428206068e-01 -2.705142455597e+02 0.0 
0.0 0.0 -1.159109820030e+02 
-1.612585174991e+02 9.782984412746e-01 0.0 
9.782984412746e-01 -3.822631910183e+02 0.0 
0.0 0.0 -1.626565125552e+02 
-5.174017265736e+01 -4.814732422402e-01 0.0 
-4.814732422402e-01 -1.001406993922e+02 0.0 
0.0 0.0 -4.516426161487e+01 
-1.377469859422e+02 1.396458946006e+01 0.0 
1.396458946006e+01 -3.351141542700e+02 0.0 
0.0 0.0 -1.414583420637e+02 
-2.203274259814e+01 -6.908487687556e-01 0.0 
-6.908487687556e-01 -5.845083614358e+01 0.0 
0.0 0.0 -2.374507362252e+01 
-1.099660674827e+02 8.392748308456e+00 0.0 
8.392748308456e+00 -2.465154745052e+02 0.0 
0.0 0.0 -1.065444625964e+02 
-1.067084620591e+01 -9.898962121143e-01 0.0 
-9.898962121143e-01 -2.334604771339e+01 0.0 
0.0 0.0 -1.031282592333e+01 
-1.488068966485e+02 1.320751243930e+01 0.0 
1.320751243930e+01 -3.552937187215e+02 0.0 
0.0 0.0 -1.508301846110e+02 
-1.173110009901e+02 1.255594948500e+01 0.0 
1.255594948500e+01 -2.628805853735e+02 0.0 
0.0 0.0 -1.136574759091e+02 
-1.670912728041e+01 1.794897366095e+00 0.0 
1.794897366095e+00 -2.241906871843e+01 0.0 
0.0 0.0 -1.184773033427e+01 
-1.194163611124e+02 2.155926525996e+01 0.0 
2.155926525996e+01 -2.809549771576e+02 0.0 
0.0 0.0 -1.197114014810e+02 
-8.616101594693e+01 1.717890938081e+00 0.0 
1.717890938081e+00 -1.847145379594e+02 0.0 
0.0 0.0 -8.086266617189e+01 
-1.103407163321e+02 4.059766919643e+00 0.0 
4.059766919643e+00 -2.544531580487e+02 0.0 
0.0 0.0 -1.090381623142e+02 
-1.503505150639e+02 2.063539598255e+01 0.0 
2.063539598255e+01 -3.521512018158e+02 0.0 
0.0 0.0 -1.503505150639e+02 
-7.509690227068e+01 1.452048061685e+00 0.0 
1.452048061685e+00 -1.577528163811e+02 0.0 
0.0 0.0 -6.945491559552e+01 
-1.229150154683e+02 1.953755233199e+01 0.0 
1.953755233199e+01 -2.829086021083e+02 0.0 
0.0 0.0 -1.213470852730e+02 
-1.130914118760e+02 1.214293578051e+01 0.0 
1.214293578051e+01 -2.490388905349e+02 0.0 
0.0 0.0 -1.082390907233e+02 
-7.934802601640e+01 5.931220992497e-01 0.0 
5.931220992497e-01 -1.693084888900e+02 0.0 
0.0 0.0 -7.419695447192e+01 
-1.200830373058e+02 1.919408717300e+01 0.0 
1.919408717300e+01 -2.717701356201e+02 0.0 
0.0 0.0 -1.171559518778e+02 
-5.963926102607e+01 -1.483311347170e-02 0.0 
-1.483311347170e-02 -1.600970235009e+02 0.0 
0.0 0.0 -6.552088535810e+01 
-4.583513315091e+01 1.120343971756e-01 0.0 
1.120343971756e-01 -8.562569150631e+01 0.0 
0.0 0.0 -3.903824739717e+01 
-1.281207422583e+02 2.082395802507e+01 0.0 
2.082395802507e+01 -3.066451417164e+02 0.0 
0.0 0.0 -1.300297651924e+02 
-1.108878249773e+02 2.284808292169e-02 0.0 
2.284808292169e-02 -2.554779739372e+02 0.0 
0.0 0.0 -1.095097396744e+02 
-3.856889406559e+00 8.844999596851e-02 0.0 
8.844999596851e-02 -8.542126725129e+00 0.0 
0.0 0.0 -4.244953662673e+00 
-4.557956718198e+01 -2.247827645508e-01 0.0 
-2.247827645508e-01 -8.590966700157e+01 0.0 
0.0 0.0 -3.904677025507e+01 
-1.556725553565e+02 1.095523453298e+00 0.0 
1.095523453298e+00 -3.699800943065e+02 0.0 
0.0 0.0 -1.572957948989e+02 
-2.768897543713e+01 -1.826063560094e+00 0.0 
-1.826063560094e+00 -7.338462940105e+01 0.0 
0.0 0.0 -2.992208145145e+01 
-1.327059898346e+02 1.602575030162e+01 0.0 
1.602575030162e+01 -3.289028663432e+02 0.0 
0.0 0.0 -1.380826568533e+02 
-1.151361440481e+02 1.426964328702e+01 0.0 
1.426964328702e+01 -2.506907715278e+02 0.0 
0.0 0.0 -1.093480746728e+02 
-1.115178589001e+02 4.183202686430e+00 0.0 
4.183202686430e+00 -2.537611346256e+02 0.0 
0.0 0.0 -1.091836980577e+02 
-2.670877059690e+01 -1.356359126890e+00 0.0 
-1.356359126890e+00 -7.057482525279e+01 0.0 
0.0 0.0 -2.878507875491e+01 
-2.220253860456e+01 6.982180058596e+00 0.0 
6.982180058596e+00 -4.061022688206e+01 0.0 
0.0 0.0 -1.844382964599e+01 
-8.639033493197e+01 -1.312820486512e+00 0.0 
-1.312820486512e+00 -2.280308661986e+02 0.0 
0.0 0.0 -9.392636033916e+01 
-9.310780301976e+01 4.363470714324e-01 0.0 
4.363470714324e-01 -2.059869471181e+02 0.0 
0.0 0.0 -8.932842504136e+01 
-2.097767333150e+01 -5.763156426401e-01 0.0 
-5.763156426401e-01 -5.720628548893e+00 0.0 
0.0 0.0 -7.609490564118e+00 
-1.134174350842e+02 9.839246346959e+00 0.0 
9.839246346959e+00 -2.597660735280e+02 0.0 
0.0 0.0 -1.115550525836e+02 
-7.243264779840e+01 2.642592166651e-01 0.0 
2.642592166651e-01 -1.516503734803e+02 0.0 
0.0 0.0 -6.682490638360e+01 
-2.794140726347e+01 -2.175185665020e+00 0.0 
-2.175185665020e+00 -6.924929723200e+01 0.0 
0.0 0.0 -2.875721134864e+01 
-6.709479275501e+01 2.755049045112e-01 0.0 
2.755049045112e-01 -1.377942154795e+02 0.0 
0.0 0.0 -6.106670247035e+01 
-1.336011803067e+02 2.350605104780e+01 0.0 
2.350605104780e+01 -3.153361776619e+02 0.0 
0.0 0.0 -1.342812073906e+02 
-9.127288141121e+01 1.206090073758e+00 0.0 
1.206090073758e+00 -2.386888683540e+02 0.0 
0.0 0.0 -9.858852492956e+01 
-1.671202378267e+01 8.019524581151e+00 0.0 
8.019524581151e+00 -1.144580767504e+01 0.0 
0.0 0.0 -8.021346761944e+00 
-5.296191115621e+01 -1.196542708618e+00 0.0 
-1.196542708618e+00 -1.453079354237e+02 0.0 
0.0 0.0 -5.908095397398e+01 
-7.876549228584e+01 -3.506616277217e-01 0.0 
-3.506616277217e-01 -2.096712932698e+02 0.0 
0.0 0.0 -8.613103566669e+01 
-9.551709376333e+01 -1.331789483771e+00 0.0 
-1.331789483771e+00 -2.477116040688e+02 0.0 
0.0 0.0 -1.025686093496e+02 
-1.312290699376e+02 2.086642714562e+01 0.0 
2.086642714562e+01 -3.148829815319e+02 0.0 
0.0 0.0 -1.334336154409e+02 
-7.660516492946e+01 6.238590457911e-01 0.0 
6.238590457911e-01 -2.044054231434e+02 0.0 
0.0 0.0 -8.390317642185e+01 
-8.209849091593e+01 -2.455080565636e-01 0.0 
-2.455080565636e-01 -2.169233300031e+02 0.0 
0.0 0.0 -8.930654627570e+01 
-1.565746372952e+01 -1.642811450947e+00 0.0 
-1.642811450947e+00 -3.722251886855e+01 0.0 
0.0 0.0 -1.546399477942e+01 
-1.454978731467e+02 5.722981582084e+00 0.0 
5.722981582084e+00 -3.526750706961e+02 0.0 
0.0 0.0 -1.490518831529e+02 
-1.173640570233e+02 1.998171347367e+01 0.0 
1.998171347367e+01 -2.718224340118e+02 0.0 
0.0 0.0 -1.163559473106e+02 
-2.218647248205e+01 7.281061471177e+00 0.0 
7.281061471177e+00 -5.201105949642e+01 0.0 
0.0 0.0 -2.185925959354e+01 
-1.105238857660e+02 9.096226144752e-01 0.0 
9.096226144752e-01 -2.547629224876e+02 0.0 
0.0 0.0 -1.091860424761e+02 
-1.557397049458e+02 1.222096345583e-01 0.0 
1.222096345583e-01 -3.695905570222e+02 0.0 
0.0 0.0 -1.571990785904e+02 
-5.221676613798e+01 6.459848538374e-01 0.0 
6.459848538374e-01 -1.011813466599e+02 0.0 
0.0 0.0 -4.561943383936e+01 
-7.284820709153e+01 2.348099787668e-01 0.0 
2.348099787668e-01 -1.518069453966e+02 0.0 
0.0 0.0 -6.699654574642e+01 
-7.680790067484e+01 -6.544530040069e-01 0.0 
-6.544530040069e-01 -2.042878231438e+02 0.0 
0.0 0.0 -8.392871714560e+01 
-7.966923566214e+01 4.103357338752e-01 0.0 
4.103357338752e-01 -2.105574501553e+02 0.0 
0.0 0.0 -8.666800574522e+01 
-8.198349582034e+01 2.044925110147e-01 0.0 
2.044925110147e-01 -2.173495912662e+02 0.0 
0.0 0.0 -8.939992612595e+01 
-1.268727537859e+02 1.488952298323e+01 0.0 
1.488952298323e+01 -3.162056358197e+02 0.0 
0.0 0.0 -1.325235168817e+02 
-2.276841350954e+01 -2.770497196801e+00 0.0 
-2.770497196801e+00 -5.632217706257e+01 0.0 
0.0 0.0 -2.332717717164e+01 
-1.225435744157e+02 2.226206379298e+01 0.0 
2.226206379298e+01 -2.805906526368e+02 0.0 
0.0 0.0 -1.205402681158e+02 
-5.900758129472e+01 -8.104991356698e-02 0.0 
-8.104991356698e-02 -1.179614969500e+02 0.0 
0.0 0.0 -5.269072347341e+01 
-1.155019292300e+02 9.834695502870e+00 0.0 
9.834695502870e+00 -2.589175040197e+02 0.0 
0.0 0.0 -1.119258299749e+02 
-1.282991224874e+02 1.557680842895e+01 0.0 
1.557680842895e+01 -3.166900105774e+02 0.0 
0.0 0.0 -1.330967399194e+02 
-6.839715297177e+01 8.417780660058e-01 0.0 
8.417780660058e-01 -1.386856427159e+02 0.0 
0.0 0.0 -6.172483870629e+01 
-1.152728187575e+02 1.805248962296e+01 0.0 
1.805248962296e+01 -2.583223116659e+02 0.0 
0.0 0.0 -1.116785391270e+02 
-1.296387111970e+02 1.951597030059e+01 0.0 
1.951597030059e+01 -3.135487522022e+02 0.0 
0.0 0.0 -1.325562390198e+02 
-1.358626660360e+02 2.216586639057e+01 0.0 
2.216586639057e+01 -3.254542349020e+02 0.0 
0.0 0.0 -1.379950702814e+02 
-1.738410138734e+01 7.413537770806e+00 0.0 
7.413537770806e+00 -1.801905874048e+01 0.0 
0.0 0.0 -1.043498089941e+01 
-1.167779532246e+02 1.956786660171e+01 0.0 
1.956786660171e+01 -2.592040466702e+02 0.0 
0.0 0.0 -1.123945999684e+02 
-1.204838516837e+02 1.944218172640e+01 0.0 
1.944218172640e+01 -2.725490043000e+02 0.0 
0.0 0.0 -1.175098567951e+02 
-1.654073122295e+01 -7.657121601099e-01 0.0 
-7.657121601099e-01 -3.825273837185e+01 0.0 
0.0 0.0 -1.603804087844e+01 
-7.280790219136e+01 2.893651960167e-01 0.0 
2.893651960167e-01 -1.944124373734e+02 0.0 
0.0 0.0 -7.976610186944e+01 
-1.801843835512e+01 5.720417022579e+00 0.0 
5.720417022579e+00 -1.689363984359e+01 0.0 
0.0 0.0 -1.007362345961e+01 
-1.209299788262e+02 2.002735494083e+01 0.0 
2.002735494083e+01 -2.694762632118e+02 0.0 
0.0 0.0 -1.167218726114e+02 
-1.407133394095e+01 4.466379855204e-01 0.0 
4.466379855204e-01 -1.146439365788e+01 0.0 
0.0 0.0 -7.260718279649e+00 
-1.303404705688e+01 -1.192291838950e-01 0.0 
-1.192291838950e-01 -9.761358834104e+00 0.0 
0.0 0.0 -6.438621767296e+00 
-1.324340106519e+01 7.663360395992e-02 0.0 
7.663360395992e-02 -9.822643859799e+00 0.0 
0.0 0.0 -6.519813477498e+00 
-1.299548517986e+01 -1.588825324385e-04 0.0 
-1.588825324385e-04 -9.669355276573e+00 0.0 
0.0 0.0 -6.399452136930e+00 
-1.312139708516e+01 -2.529453163297e-02 0.0 
-2.529453163297e-02 -9.728137184147e+00 0.0 
0.0 0.0 -6.454860280792e+00 
-1.296479517220e+01 -5.880872981534e-02 0.0 
-5.880872981534e-02 -9.687627674390e+00 0.0 
0.0 0.0 -6.395726853976e+00 
-1.301210237166e+01 -8.119601385876e-02 0.0 
-8.119601385876e-02 -9.713938242883e+00 0.0 
0.0 0.0 -6.417812184361e+00 
-1.281839914582e+01 -1.144164482249e-01 0.0 
-1.144164482249e-01 -9.687500703396e+00 0.0 
0.0 0.0 -6.351769954766e+00 
-1.289299955153e+01 -1.163995692364e-01 0.0 
-1.163995692364e-01 -9.719227387471e+00 0.0 
0.0 0.0 -6.383668081701e+00 
-1.257977088630e+01 -1.668285821859e-01 0.0 
-1.668285821859e-01 -9.675186985788e+00 0.0 
0.0 0.0 -6.276487361626e+00 
-1.274581908849e+01 -1.444430714189e-01 0.0 
-1.444430714189e-01 -9.733583737691e+00 0.0 
0.0 0.0 -6.343820847855e+00 
-1.225885441304e+01 -2.187439073084e-01 0.0 
-2.187439073084e-01 -9.659609101564e+00 0.0 
0.0 0.0 -6.175539054380e+00 
-1.256792789102e+01 -1.630962313631e-01 0.0 
-1.630962313631e-01 -9.756045680483e+00 0.0 
0.0 0.0 -6.297192071451e+00 
-1.186583431098e+01 -2.676877648251e-01 0.0 
-2.676877648251e-01 -9.631170476454e+00 0.0 
0.0 0.0 -6.049101436230e+00 
-1.237330920419e+01 -1.834459390585e-01 0.0 
-1.834459390585e-01 -9.782822279776e+00 0.0 
0.0 0.0 -6.246839445190e+00 
-1.140030670351e+01 -3.223004669190e-01 0.0 
-3.223004669190e-01 -9.594218640183e+00 0.0 
0.0 0.0 -5.898357603108e+00 
-1.216824580682e+01 3.475740541418e+00 0.0 
3.475740541418e+00 -1.247198628366e+01 0.0 
0.0 0.0 -6.992069627145e+00 
-1.216554814112e+01 -2.098051065699e-01 0.0 
-2.098051065699e-01 -9.815930825248e+00 0.0 
0.0 0.0 -6.194443689911e+00 
-1.085022080586e+01 -3.829722275632e-01 0.0 
-3.829722275632e-01 -9.559104954786e+00 0.0 
0.0 0.0 -5.722797728195e+00 
-5.174538414204e+00 3.362040445630e-01 0.0 
3.362040445630e-01 -5.431169915767e+00 0.0 
0.0 0.0 -2.781712498991e+00 
-1.192125733500e+01 -2.376658067646e-01 0.0 
-2.376658067646e-01 -9.855324991924e+00 0.0 
0.0 0.0 -6.132974698078e+00 
-1.020945016574e+01 -4.429720286240e-01 0.0 
-4.429720286240e-01 -9.520834966418e+00 0.0 
0.0 0.0 -5.519085539648e+00 
-1.712590138292e+01 1.934382584949e+00 0.0 
1.934382584949e+00 -1.099734466845e+01 0.0 
0.0 0.0 -8.036973815409e+00 
-1.167907583151e+01 -2.577197281236e-01 0.0 
-2.577197281236e-01 -9.906477673316e+00 0.0 
0.0 0.0 -6.075666051449e+00 
-9.488251183344e+00 -4.958917557394e-01 0.0 
-4.958917557394e-01 -9.473863968882e+00 0.0 
0.0 0.0 -5.288634545668e+00 
-1.146906804981e+01 -2.698749685372e-01 0.0 
-2.698749685372e-01 -9.969916755216e+00 0.0 
0.0 0.0 -6.031695441507e+00 
-8.702554404083e+00 -5.398290950708e-01 0.0 
-5.398290950708e-01 -9.415966295389e+00 0.0 
0.0 0.0 -5.035556209841e+00 
-1.131118833293e+01 -2.782600589845e-01 0.0 
-2.782600589845e-01 -1.004395759327e+01 0.0 
0.0 0.0 -6.006543777858e+00 
-7.862587419349e+00 -5.836536801498e-01 0.0 
-5.836536801498e-01 -9.325827177025e+00 0.0 
0.0 0.0 -4.756524378912e+00 
-2.148689830539e+01 6.381511592813e+00 0.0 
6.381511592813e+00 -1.281603635223e+01 0.0 
0.0 0.0 -9.890880397288e+00 
-1.128143156801e+01 -3.073993903669e-01 0.0 
-3.073993903669e-01 -1.013865696400e+01 0.0 
0.0 0.0 -6.026026559605e+00 
-6.957708427055e+00 -6.021058521303e-01 0.0 
-6.021058521303e-01 -9.309518994509e+00 0.0 
0.0 0.0 -4.480168226469e+00 
-1.132875931309e+01 -2.542477264620e-01 0.0 
-2.542477264620e-01 -1.025225928937e+01 0.0 
0.0 0.0 -6.074305580738e+00 
-6.108410127448e+00 -5.627265217917e-01 0.0 
-5.627265217917e-01 -9.203692878873e+00 0.0 
0.0 0.0 -4.193630901896e+00 
-5.405779223397e+00 -3.788668430931e-01 0.0 
-3.788668430931e-01 -9.352115853226e+00 0.0 
0.0 0.0 -4.027368522987e+00 
-1.177407521677e+01 -2.092067513965e-01 0.0 
-2.092067513965e-01 -1.040358432168e+01 0.0 
0.0 0.0 -6.253297861537e+00 
-5.318447253421e+00 -2.657266846130e-02 0.0 
-2.657266846130e-02 -9.208152160025e+00 0.0 
0.0 0.0 -3.957979824034e+00 
-1.243948153987e+01 1.461273493696e-01 0.0 
1.461273493696e-01 -1.055144521732e+01 0.0 
0.0 0.0 -6.497278027158e+00 
-6.126027187343e+00 8.679058786956e-01 0.0 
8.679058786956e-01 -1.012828584524e+01 0.0 
0.0 0.0 -4.476293909775e+00 
-1.406546922696e+01 4.204508812410e-01 0.0 
4.204508812410e-01 -1.074416316160e+01 0.0 
0.0 0.0 -7.042889716570e+00 
-1.437587873290e+01 1.698628833754e+00 0.0 
1.698628833754e+00 -1.700832734641e-01 0.0 
0.0 0.0 -3.963788601909e+00 
-1.430127033192e+01 1.491684932083e+00 0.0 
1.491684932083e+00 -9.452516416605e+00 0.0 
0.0 0.0 -6.726136024558e+00 
-1.395081740426e+01 -1.293997364319e+00 0.0 
-1.293997364319e+00 -1.153716962634e+01 0.0 
0.0 0.0 -7.246396109180e+00 
-1.229535289022e+01 2.303077909166e-01 0.0 
2.303077909166e-01 -5.290038260368e+00 0.0 
0.0 0.0 -4.875617345176e+00 
-1.585372852266e+01 -9.004636170927e-02 0.0 
-9.004636170927e-02 -1.552043766493e+01 0.0 
0.0 0.0 -9.012249856278e+00 
-1.929089652637e+01 6.858537388605e+00 0.0 
6.858537388605e+00 -9.408940519968e+00 0.0 
0.0 0.0 -8.209951113901e+00 
-2.102349529723e+01 2.117887472731e-01 0.0 
2.117887472731e-01 -2.768610348920e+01 0.0 
0.0 0.0 -1.421287963593e+01 
-2.167003295152e+01 -2.663609992670e-01 0.0 
-2.663609992670e-01 -2.930286680110e+01 0.0 
0.0 0.0 -1.489186992579e+01 
-2.159169942376e+01 -3.874553432379e-02 0.0 
-3.874553432379e-02 -2.930200669646e+01 0.0 
0.0 0.0 -1.486811183607e+01 
-2.174529680153e+01 -9.774707112374e-02 0.0 
-9.774707112374e-02 -2.944465285905e+01 0.0 
0.0 0.0 -1.495698489817e+01 
-2.153092770905e+01 -1.135373641140e-01 0.0 
-1.135373641140e-01 -2.935037530656e+01 0.0 
0.0 0.0 -1.486439090468e+01 
-2.171775202799e+01 -1.760919170631e-01 0.0 
-1.760919170631e-01 -2.948760966573e+01 0.0 
0.0 0.0 -1.496160850812e+01 
-2.143622649011e+01 -1.727326227268e-01 0.0 
-1.727326227268e-01 -2.937022785262e+01 0.0 
0.0 0.0 -1.484193630282e+01 
-2.172745671104e+01 -2.527286634509e-01 0.0 
-2.527286634509e-01 -2.952178865746e+01 0.0 
0.0 0.0 -1.497477361055e+01 
-2.130796938814e+01 -2.339219762676e-01 0.0 
-2.339219762676e-01 -2.935415700623e+01 0.0 
0.0 0.0 -1.479863791831e+01 
-2.172296697278e+01 -3.399385618381e-01 0.0 
-3.399385618381e-01 -2.955041658706e+01 0.0 
0.0 0.0 -1.498201506795e+01 
-2.114656244570e+01 -2.908517077432e-01 0.0 
-2.908517077432e-01 -2.933531823784e+01 0.0 
0.0 0.0 -1.474456420506e+01 
-2.172407887783e+01 -4.282506239734e-01 0.0 
-4.282506239734e-01 -2.958705181915e+01 0.0 
0.0 0.0 -1.499333920910e+01 
-2.095345856459e+01 -3.375050644295e-01 0.0 
-3.375050644295e-01 -2.932228391881e+01 0.0 
0.0 0.0 -1.468272274502e+01 
-2.170252291970e+01 -4.977588952008e-01 0.0 
-4.977588952008e-01 -2.960878904608e+01 0.0 
0.0 0.0 -1.499339358974e+01 
-2.073600514610e+01 -3.789032670195e-01 0.0 
-3.789032670195e-01 -2.929577947757e+01 0.0 
0.0 0.0 -1.460953538710e+01 
-2.448942890974e+01 3.626002859952e+00 0.0 
3.626002859952e+00 -3.285039074871e+01 0.0 
0.0 0.0 -1.680194589753e+01 
-2.175750689604e+01 -5.714423442295e-01 0.0 
-5.714423442295e-01 -2.963322510006e+01 0.0 
0.0 0.0 -1.501721959883e+01 
-2.716909858820e+01 1.772232641108e+00 0.0 
1.772232641108e+00 -3.090383545700e+01 0.0 
0.0 0.0 -1.702188021356e+01 
-2.048673564476e+01 -4.348680685837e-01 0.0 
-4.348680685837e-01 -2.923203500040e+01 0.0 
0.0 0.0 -1.451563119355e+01 
-2.177985524211e+01 -6.696678302115e-01 0.0 
-6.696678302115e-01 -2.966680145719e+01 0.0 
0.0 0.0 -1.503399700979e+01 
-2.022237083273e+01 -4.739704261247e-01 0.0 
-4.739704261247e-01 -2.922458981996e+01 0.0 
0.0 0.0 -1.443408819581e+01 
-2.182211821420e+01 -7.299877798704e-01 0.0 
-7.299877798704e-01 -2.970870612779e+01 0.0 
0.0 0.0 -1.505924730260e+01 
-1.996062457929e+01 -4.831995150233e-01 0.0 
-4.831995150233e-01 -2.923009141814e+01 0.0 
0.0 0.0 -1.435721479923e+01 
-2.196189532796e+01 -7.524470037507e-01 0.0 
-7.524470037507e-01 -2.975611644890e+01 0.0 
0.0 0.0 -1.511540353306e+01 
-2.069351910642e+01 1.978567215735e+00 0.0 
1.978567215735e+00 -2.620961288033e+01 0.0 
0.0 0.0 -1.367093959603e+01 
-1.972048879375e+01 -4.648103431607e-01 0.0 
-4.648103431607e-01 -2.922323182442e+01 0.0 
0.0 0.0 -1.428311618545e+01 
-2.217891926659e+01 -7.411265217392e-01 0.0 
-7.411265217392e-01 -2.980278635939e+01 0.0 
0.0 0.0 -1.519451168780e+01 
-1.953642899599e+01 -4.046623291034e-01 0.0 
-4.046623291034e-01 -2.923618580707e+01 0.0 
0.0 0.0 -1.423178444092e+01 
-2.248962701675e+01 -6.545355325984e-01 0.0 
-6.545355325984e-01 -2.982473575231e+01 0.0 
0.0 0.0 -1.529430883072e+01 
-1.946067181471e+01 -2.970815599623e-01 0.0 
-2.970815599623e-01 -2.922355087297e+01 0.0 
0.0 0.0 -1.420526680630e+01 
-2.314904882454e+01 -5.724866609935e-01 0.0 
-5.724866609935e-01 -2.998233502832e+01 0.0 
0.0 0.0 -1.553941515586e+01 
-1.957964200683e+01 -3.246855077838e-02 0.0 
-3.246855077838e-02 -2.950431890810e+01 0.0 
0.0 0.0 -1.432518827448e+01 
-2.360839264613e+01 -1.219080562589e-01 0.0 
-1.219080562589e-01 -3.001227066014e+01 0.0 
0.0 0.0 -1.568619899188e+01 
-2.511732960798e+01 3.686099221144e-01 0.0 
3.686099221144e-01 -3.043623777531e+01 0.0 
0.0 0.0 -1.626607021499e+01 
-2.004027041200e+01 4.550691659143e-01 0.0 
4.550691659143e-01 -2.969137311054e+01 0.0 
0.0 0.0 -1.451949305676e+01 
-2.932879271071e+01 4.262784076884e+00 0.0 
4.262784076884e+00 -3.384447096738e+01 0.0 
0.0 0.0 -1.855197910343e+01 
-2.107517960961e+01 1.395451692169e+00 0.0 
1.395451692169e+00 -3.070140738005e+01 0.0 
0.0 0.0 -1.513297609690e+01 
-2.433221682199e+01 2.482713122897e+00 0.0 
2.482713122897e+00 -2.355627006252e+01 0.0 
0.0 0.0 -1.396654606535e+01 
-2.131539251879e+01 1.425097554880e+00 0.0 
1.425097554880e+00 -2.991987717377e+01 0.0 
0.0 0.0 -1.497058090777e+01 
-2.166935407612e+01 -1.460799978183e+00 0.0 
-1.460799978183e+00 -2.784306786777e+01 0.0 
0.0 0.0 -1.445372658317e+01 
-2.362936172430e+01 1.170027181207e-01 0.0 
1.170027181207e-01 -3.403058697678e+01 0.0 
0.0 0.0 -1.689798461032e+01 
-1.944558834237e+01 -2.055782971968e-01 0.0 
-2.055782971968e-01 -2.390144391094e+01 0.0 
0.0 0.0 -1.260410967599e+01 
-2.402099830836e+01 5.044456375719e+00 0.0 
5.044456375719e+00 -2.708590416115e+01 0.0 
0.0 0.0 -1.493207074085e+01 
-3.068879612124e+01 2.458568994502e-01 0.0 
2.458568994502e-01 -5.078299026568e+01 0.0 
0.0 0.0 -2.404153591608e+01 
-3.008570299426e+01 -2.819976928093e-01 0.0 
-2.819976928093e-01 -4.893943023415e+01 0.0 
0.0 0.0 -2.330753996852e+01 
-3.015589839707e+01 -2.885961565423e-02 0.0 
-2.885961565423e-02 -4.892670800655e+01 0.0 
0.0 0.0 -2.332478192109e+01 
-3.000606765087e+01 -1.031556864335e-01 0.0 
-1.031556864335e-01 -4.871978484085e+01 0.0 
0.0 0.0 -2.321775574752e+01 
-3.015536887007e+01 -1.590007320363e-01 0.0 
-1.590007320363e-01 -4.879694473476e+01 0.0 
0.0 0.0 -2.328569408145e+01 
-2.998157183200e+01 -1.902878076875e-01 0.0 
-1.902878076875e-01 -4.876985587508e+01 0.0 
0.0 0.0 -2.322542831212e+01 
-3.019183077801e+01 -1.799576490615e-01 0.0 
-1.799576490615e-01 -4.885408399434e+01 0.0 
0.0 0.0 -2.331377443170e+01 
-2.995099913757e+01 -2.501743325413e-01 0.0 
-2.501743325413e-01 -4.871005431937e+01 0.0 
0.0 0.0 -2.319831603708e+01 
-3.036517950773e+01 -2.506443136430e-01 0.0 
-2.506443136430e-01 -4.888037911603e+01 0.0 
0.0 0.0 -2.337366758713e+01 
-2.993824614713e+01 -3.444687829937e-01 0.0 
-3.444687829937e-01 -4.871940132721e+01 0.0 
0.0 0.0 -2.319729424230e+01 
-3.044817660304e+01 -3.079563758161e-01 0.0 
-3.079563758161e-01 -4.890614553129e+01 0.0 
0.0 0.0 -2.340629664030e+01 
-2.991517644047e+01 -4.218469560147e-01 0.0 
-4.218469560147e-01 -4.869961279864e+01 0.0 
0.0 0.0 -2.318443677173e+01 
-3.064719477924e+01 -3.715593141865e-01 0.0 
-3.715593141865e-01 -4.895740866196e+01 0.0 
0.0 0.0 -2.348138103236e+01 
-3.479131772768e+01 2.969127773813e+00 0.0 
2.969127773813e+00 -5.249407999879e+01 0.0 
0.0 0.0 -2.578561931794e+01 
-2.990652548579e+01 -4.951491537430e-01 0.0 
-4.951491537430e-01 -4.875146170029e+01 0.0 
0.0 0.0 -2.319739615582e+01 
-3.079111904478e+01 -3.453338354158e-01 0.0 
-3.453338354158e-01 -4.898645881644e+01 0.0 
0.0 0.0 -2.353327335837e+01 
-3.171899134789e+01 1.699305392929e+00 0.0 
1.699305392929e+00 -4.584011516844e+01 0.0 
0.0 0.0 -2.286773195490e+01 
-2.989428887144e+01 -5.275460346342e-01 0.0 
-5.275460346342e-01 -4.861904970934e+01 0.0 
0.0 0.0 -2.315400157423e+01 
-3.107114829151e+01 -4.328329357079e-01 0.0 
-4.328329357079e-01 -4.898016896189e+01 0.0 
0.0 0.0 -2.361539517602e+01 
-3.654142991873e+01 1.572943029858e+00 0.0 
1.572943029858e+00 -5.061020684666e+01 0.0 
0.0 0.0 -2.574549102962e+01 
-2.992352616729e+01 -5.939509231092e-01 0.0 
-5.939509231092e-01 -4.866870028260e+01 0.0 
0.0 0.0 -2.317766793497e+01 
-3.132199582044e+01 -4.584560029211e-01 0.0 
-4.584560029211e-01 -4.904724219017e+01 0.0 
0.0 0.0 -2.371077140318e+01 
-2.998949234931e+01 -5.954885043413e-01 0.0 
-5.954885043413e-01 -4.876591244304e+01 0.0 
0.0 0.0 -2.322662143770e+01 
-3.169586375589e+01 -3.790575456370e-01 0.0 
-3.790575456370e-01 -4.913510585578e+01 0.0 
0.0 0.0 -2.384929088350e+01 
-3.012072834318e+01 -5.223034890946e-01 0.0 
-5.223034890946e-01 -4.879339348441e+01 0.0 
0.0 0.0 -2.327423654828e+01 
-3.862189617996e+01 3.232221499771e+00 0.0 
3.232221499771e+00 -5.353766084669e+01 0.0 
0.0 0.0 -2.724786710799e+01 
-3.222714748265e+01 -2.853158722096e-01 0.0 
-2.853158722096e-01 -4.921741073386e+01 0.0 
0.0 0.0 -2.403336746496e+01 
-3.036095605188e+01 -3.887302366791e-01 0.0 
-3.887302366791e-01 -4.889420552507e+01 0.0 
0.0 0.0 -2.337654847309e+01 
-3.076436651864e+01 -1.195666957262e-01 0.0 
-1.195666957262e-01 -4.913246125673e+01 0.0 
0.0 0.0 -2.356904833261e+01 
-3.280136450524e+01 -1.240937768548e-01 0.0 
-1.240937768548e-01 -4.932096188798e+01 0.0 
0.0 0.0 -2.423669791797e+01 
-3.135689936912e+01 2.912982785498e-01 0.0 
2.912982785498e-01 -4.913398629902e+01 0.0 
0.0 0.0 -2.374726570044e+01 
-3.340551010682e+01 2.719886123371e-01 0.0 
2.719886123371e-01 -4.937343013063e+01 0.0 
0.0 0.0 -2.443368207123e+01 
-3.237938785941e+01 1.020851235093e+00 0.0 
1.020851235093e+00 -5.047792615779e+01 0.0 
0.0 0.0 -2.445719420516e+01 
-3.473289825031e+01 4.125572115310e-01 0.0 
4.125572115310e-01 -4.982886627292e+01 0.0 
0.0 0.0 -2.496852935697e+01 
-3.426115301739e+01 2.236870991199e+00 0.0 
2.236870991199e+00 -4.393900797714e+01 0.0 
0.0 0.0 -2.306004829836e+01 
-3.051498373148e+01 1.395199953034e+00 0.0 
1.395199953034e+00 -4.852317243278e+01 0.0 
0.0 0.0 -2.331144684928e+01 
-3.014143164588e+01 -1.517466509435e+00 0.0 
-1.517466509435e+00 -5.069702555658e+01 0.0 
0.0 0.0 -2.385153716074e+01 
-2.810216136251e+01 7.631704269809e-02 0.0 
7.631704269809e-02 -4.446711946593e+01 0.0 
0.0 0.0 -2.137078424853e+01 
-3.245050306067e+01 -2.602583318101e-01 0.0 
-2.602583318101e-01 -5.455558716857e+01 0.0 
0.0 0.0 -2.570182706877e+01 
-3.374309155045e+01 3.741718919439e+00 0.0 
3.741718919439e+00 -4.624315236891e+01 0.0 
0.0 0.0 -2.359587317581e+01 
-3.774129141745e+01 3.849357293032e-01 0.0 
3.849357293032e-01 -6.723881262352e+01 0.0 
0.0 0.0 -3.109403121229e+01 
-3.855584142570e+01 -3.143056801592e-02 0.0 
-3.143056801592e-02 -6.844325397796e+01 0.0 
0.0 0.0 -3.169972862110e+01 
-3.851062629177e+01 -4.884342106299e-02 0.0 
-4.884342106299e-02 -6.842107309419e+01 0.0 
0.0 0.0 -3.167950981579e+01 
-3.843311425993e+01 -4.451852905136e-02 0.0 
-4.451852905136e-02 -6.845206618082e+01 0.0 
0.0 0.0 -3.166555413223e+01 
-3.860091056916e+01 -1.224018729294e-01 0.0 
-1.224018729294e-01 -6.850320869930e+01 0.0 
0.0 0.0 -3.173123578054e+01 
-3.863847533355e+01 -1.591320654191e-01 0.0 
-1.591320654191e-01 -6.862244321601e+01 0.0 
0.0 0.0 -3.177827556487e+01 
-3.868335000881e+01 -8.086958000020e-02 0.0 
-8.086958000020e-02 -6.866762886623e+01 0.0 
0.0 0.0 -3.180529366251e+01 
-3.892270881592e+01 -8.132860743254e-02 0.0 
-8.132860743254e-02 -6.856528429203e+01 0.0 
0.0 0.0 -3.184639793238e+01 
-3.875583671424e+01 -1.713122470282e-01 0.0 
-1.713122470282e-01 -6.845857926455e+01 0.0 
0.0 0.0 -3.176432479364e+01 
-3.905087962871e+01 -2.509175900886e-01 0.0 
-2.509175900886e-01 -6.861880557891e+01 0.0 
0.0 0.0 -3.190090556229e+01 
-3.888468305548e+01 -1.736868962156e-01 0.0 
-1.736868962156e-01 -6.859132725364e+01 0.0 
0.0 0.0 -3.184280309273e+01 
-3.929891603798e+01 -2.233117101950e-01 0.0 
-2.233117101950e-01 -6.863092770374e+01 0.0 
0.0 0.0 -3.197895312252e+01 
-4.409705386431e+01 2.740794647089e+00 0.0 
2.740794647089e+00 -7.205564365162e+01 0.0 
0.0 0.0 -3.444580925478e+01 
-3.904272303800e+01 -1.952453848790e-01 0.0 
-1.952453848790e-01 -6.854697459905e+01 0.0 
0.0 0.0 -3.187690929111e+01 
-4.453046735105e+01 1.219414741986e+00 0.0 
1.219414741986e+00 -7.007403069491e+01 0.0 
0.0 0.0 -3.398134941379e+01 
-3.992335832869e+01 -3.404915613780e-01 0.0 
-3.404915613780e-01 -6.878688709774e+01 0.0 
0.0 0.0 -3.221307362793e+01 
-3.920304690534e+01 -1.912586005925e-01 0.0 
-1.912586005925e-01 -6.861429049108e+01 0.0 
0.0 0.0 -3.194520121892e+01 
-3.985013482792e+01 -2.257024587166e-01 0.0 
-2.257024587166e-01 -6.861407122794e+01 0.0 
0.0 0.0 -3.213926181676e+01 
-3.942962813279e+01 -1.941049080580e-01 0.0 
-1.941049080580e-01 -6.848328859154e+01 0.0 
0.0 0.0 -3.197387501730e+01 
-4.034815984301e+01 -3.243867853310e-01 0.0 
-3.243867853310e-01 -6.873598317857e+01 0.0 
0.0 0.0 -3.232524290647e+01 
-3.975223949834e+01 -1.026355907725e-01 0.0 
-1.026355907725e-01 -6.871781077195e+01 0.0 
0.0 0.0 -3.214101508109e+01 
-4.100525818752e+01 -2.039135325751e-01 0.0 
-2.039135325751e-01 -6.891604714653e+01 0.0 
0.0 0.0 -3.257639160021e+01 
-4.146359638750e+01 1.598204288822e+00 0.0 
1.598204288822e+00 -6.553382859305e+01 0.0 
0.0 0.0 -3.169922749416e+01 
-4.016404080289e+01 6.826068153647e-02 0.0 
6.826068153647e-02 -6.889418563210e+01 0.0 
0.0 0.0 -3.231746793050e+01 
-4.165153036330e+01 3.267175973069e-02 0.0 
3.267175973069e-02 -6.899228946248e+01 0.0 
0.0 0.0 -3.279314594773e+01 
-4.068080382622e+01 2.786808204340e-01 0.0 
2.786808204340e-01 -6.894260886886e+01 0.0 
0.0 0.0 -3.248702380853e+01 
-4.247152395061e+01 2.245897612669e-01 0.0 
2.245897612669e-01 -6.915751279722e+01 0.0 
0.0 0.0 -3.308871102435e+01 
-4.340387185315e+01 5.727696380689e-01 0.0 
5.727696380689e-01 -6.948248196626e+01 0.0 
0.0 0.0 -3.346590614582e+01 
-4.134012682753e+01 5.918822516488e-01 0.0 
5.918822516488e-01 -6.924474063998e+01 0.0 
0.0 0.0 -3.277546024025e+01 
-4.219476287291e+01 1.153643995423e+00 0.0 
1.153643995423e+00 -6.988168658485e+01 0.0 
0.0 0.0 -3.322293483733e+01 
-4.733756728809e+01 2.596720131067e+00 0.0 
2.596720131067e+00 -7.328376754159e+01 0.0 
0.0 0.0 -3.578640044891e+01 
-4.322931084441e+01 1.900059286702e+00 0.0 
1.900059286702e+00 -6.399548685455e+01 0.0 
0.0 0.0 -3.176743930969e+01 
-3.784836521488e+01 1.273471691123e+00 0.0 
1.273471691123e+00 -6.854020096101e+01 0.0 
0.0 0.0 -3.151656985277e+01 
-3.807273957806e+01 -1.587416767482e+00 0.0 
-1.587416767482e+00 -6.721482231408e+01 0.0 
0.0 0.0 -3.118626856764e+01 
-3.999408601001e+01 -9.280753146153e-02 0.0 
-9.280753146153e-02 -7.304669543799e+01 0.0 
0.0 0.0 -3.351223443440e+01 
-3.602360245815e+01 -2.786899288183e-01 0.0 
-2.786899288183e-01 -6.289281909604e+01 0.0 
0.0 0.0 -2.927492646626e+01 
-4.294664790141e+01 3.087049150944e+00 0.0 
3.087049150944e+00 -6.555571547293e+01 0.0 
0.0 0.0 -3.215070901230e+01 

TENSORS element_materi_strain_total float
-9.221039345053e-05 2.483123128518e-04 0.0 
2.483123128518e-04 9.961088496608e-04 0.0 
0.0 0.0 0.0 
-9.352333997337e-05 2.006236350452e-04 0.0 
2.006236350452e-04 9.639202288623e-04 0.0 
0.0 0.0 0.0 
-3.156665374771e-05 2.202440992737e-04 0.0 
2.202440992737e-04 1.896407395090e-03 0.0 
0.0 0.0 0.0 
-2.821615699033e-05 1.677735371524e-05 0.0 
1.677735371524e-05 2.027119268576e-03 0.0 
0.0 0.0 0.0 
-1.013806580182e-04 1.478583169760e-05 0.0 
1.478583169760e-05 1.635470716238e-03 0.0 
0.0 0.0 0.0 
-3.963601870172e-05 7.503149770516e-05 0.0 
7.503149770516e-05 1.919186141899e-04 0.0 
0.0 0.0 0.0 
-9.316459015551e-05 1.262521005823e-05 0.0 
1.262521005823e-05 1.634219978755e-03 0.0 
0.0 0.0 0.0 
-8.332702984126e-05 2.429752538648e-04 0.0 
2.429752538648e-04 8.983969446017e-04 0.0 
0.0 0.0 0.0 
-1.005934920126e-04 1.409759137395e-06 0.0 
1.409759137395e-06 1.635437608912e-03 0.0 
0.0 0.0 0.0 
-2.732787133031e-05 3.843568798693e-05 0.0 
3.843568798693e-05 2.022247750530e-03 0.0 
0.0 0.0 0.0 
9.416239118942e-05 7.271290381063e-06 0.0 
7.271290381063e-06 7.377143272076e-04 0.0 
0.0 0.0 0.0 
-8.252335506687e-05 1.983583291313e-04 0.0 
1.983583291313e-04 8.421680694535e-04 0.0 
0.0 0.0 0.0 
3.347304766299e-05 2.310341752211e-05 0.0 
2.310341752211e-05 1.153861455588e-03 0.0 
0.0 0.0 0.0 
-1.213726838579e-04 3.869575620891e-05 0.0 
3.869575620891e-05 1.687847045446e-03 0.0 
0.0 0.0 0.0 
1.932743503597e-05 2.028995798388e-05 0.0 
2.028995798388e-05 1.189373678169e-03 0.0 
0.0 0.0 0.0 
-1.726871023022e-05 3.164532681438e-05 0.0 
3.164532681438e-05 2.047208342465e-03 0.0 
0.0 0.0 0.0 
-1.130083312610e-04 1.399406507479e-05 0.0 
1.399406507479e-05 1.622268924681e-03 0.0 
0.0 0.0 0.0 
-3.080217020379e-05 2.093752279543e-05 0.0 
2.093752279543e-05 1.783662843813e-04 0.0 
0.0 0.0 0.0 
2.898579969246e-05 -1.009504860904e-05 0.0 
-1.009504860904e-05 2.069179019393e-04 0.0 
0.0 0.0 0.0 
4.052936687460e-05 -1.124870778428e-06 0.0 
-1.124870778428e-06 2.133749951210e-04 0.0 
0.0 0.0 0.0 
-3.316020853850e-05 3.098936862430e-05 0.0 
3.098936862430e-05 2.023542122785e-03 0.0 
0.0 0.0 0.0 
-1.137251211012e-04 1.923737607061e-04 0.0 
1.923737607061e-04 1.160596475034e-03 0.0 
0.0 0.0 0.0 
-1.334561730002e-04 2.184122695019e-04 0.0 
2.184122695019e-04 1.219894342224e-03 0.0 
0.0 0.0 0.0 
5.940556456596e-05 1.657533085536e-04 0.0 
1.657533085536e-04 1.200623447341e-03 0.0 
0.0 0.0 0.0 
-1.288733723998e-04 6.877324975399e-05 0.0 
6.877324975399e-05 1.731902606227e-03 0.0 
0.0 0.0 0.0 
9.175295686670e-05 3.132660094835e-06 0.0 
3.132660094835e-06 7.840545155240e-04 0.0 
0.0 0.0 0.0 
-1.368831241145e-04 3.572855315519e-05 0.0 
3.572855315519e-05 1.563527843844e-03 0.0 
0.0 0.0 0.0 
5.386732247814e-06 3.017667823453e-04 0.0 
3.017667823453e-04 1.603918958901e-03 0.0 
0.0 0.0 0.0 
-1.463365418519e-04 6.944760129479e-05 0.0 
6.944760129479e-05 1.731876900920e-03 0.0 
0.0 0.0 0.0 
5.748684285956e-05 1.697305757201e-04 0.0 
1.697305757201e-04 1.221121432140e-03 0.0 
0.0 0.0 0.0 
-1.289206053212e-05 -1.671652657002e-05 0.0 
-1.671652657002e-05 1.840969872147e-04 0.0 
0.0 0.0 0.0 
-3.403069399510e-05 -1.768470499142e-05 0.0 
-1.768470499142e-05 7.454960406861e-05 0.0 
0.0 0.0 0.0 
-5.370034986929e-05 2.263873893445e-04 0.0 
2.263873893445e-04 1.908496282853e-03 0.0 
0.0 0.0 0.0 
6.936457662876e-05 1.080671726420e-06 0.0 
1.080671726420e-06 9.602837420328e-04 0.0 
0.0 0.0 0.0 
4.163436715166e-05 9.795331913178e-05 0.0 
9.795331913178e-05 1.183270559374e-03 0.0 
0.0 0.0 0.0 
2.027275489058e-05 7.913471004571e-05 0.0 
7.913471004571e-05 1.235907197161e-03 0.0 
0.0 0.0 0.0 
1.499393759152e-05 5.446976538826e-05 0.0 
5.446976538826e-05 1.234391180181e-03 0.0 
0.0 0.0 0.0 
4.490997510165e-05 2.455957526382e-04 0.0 
2.455957526382e-04 1.366900621488e-03 0.0 
0.0 0.0 0.0 
-9.355176178250e-05 -5.878603614852e-06 0.0 
-5.878603614852e-06 1.571240848194e-03 0.0 
0.0 0.0 0.0 
-8.997147518430e-05 9.367006220157e-06 0.0 
9.367006220157e-06 1.573714982598e-03 0.0 
0.0 0.0 0.0 
-1.659202277497e-04 1.575659729662e-04 0.0 
1.575659729662e-04 1.375676220343e-03 0.0 
0.0 0.0 0.0 
2.827589556476e-05 1.279466359023e-04 0.0 
1.279466359023e-04 1.222219944955e-03 0.0 
0.0 0.0 0.0 
-7.577239206114e-05 2.202618888346e-04 0.0 
2.202618888346e-04 6.631624810964e-04 0.0 
0.0 0.0 0.0 
-1.476595145902e-04 3.762816845836e-05 0.0 
3.762816845836e-05 1.571606258311e-03 0.0 
0.0 0.0 0.0 
-3.777660052784e-05 5.124598890996e-06 0.0 
5.124598890996e-06 1.997650199635e-03 0.0 
0.0 0.0 0.0 
-8.075916650563e-05 1.885166422918e-04 0.0 
1.885166422918e-04 6.602811180643e-04 0.0 
0.0 0.0 0.0 
-1.383251852460e-05 -2.563451837794e-05 0.0 
-2.563451837794e-05 1.268563269454e-04 0.0 
0.0 0.0 0.0 
-2.525263955666e-05 1.281852104164e-05 0.0 
1.281852104164e-05 2.001598420330e-03 0.0 
0.0 0.0 0.0 
-5.013185806657e-05 -2.061048873346e-05 0.0 
-2.061048873346e-05 8.486573159594e-05 0.0 
0.0 0.0 0.0 
-1.277791289699e-04 2.558936968695e-05 0.0 
2.558936968695e-05 1.662502548090e-03 0.0 
0.0 0.0 0.0 
-1.535660459492e-04 1.889438297486e-04 0.0 
1.889438297486e-04 1.302180777626e-03 0.0 
0.0 0.0 0.0 
4.181746098908e-05 -9.348446713151e-06 0.0 
-9.348446713151e-06 2.624210896085e-04 0.0 
0.0 0.0 0.0 
3.989310534713e-05 -2.309876507376e-05 0.0 
-2.309876507376e-05 2.473445271167e-04 0.0 
0.0 0.0 0.0 
-1.436796124931e-04 1.325531885859e-04 0.0 
1.325531885859e-04 1.340449203786e-03 0.0 
0.0 0.0 0.0 
-3.277982281225e-05 1.680481646517e-04 0.0 
1.680481646517e-04 1.973237088464e-03 0.0 
0.0 0.0 0.0 
6.080031752620e-05 -1.302448543727e-05 0.0 
-1.302448543727e-05 3.508997276920e-04 0.0 
0.0 0.0 0.0 
5.137941344402e-05 -2.315966649869e-07 0.0 
-2.315966649869e-07 2.709497327107e-04 0.0 
0.0 0.0 0.0 
7.162161114360e-05 1.170155660761e-05 0.0 
1.170155660761e-05 9.605756860185e-04 0.0 
0.0 0.0 0.0 
1.712504134654e-05 -1.307616897208e-05 0.0 
-1.307616897208e-05 1.566768711063e-04 0.0 
0.0 0.0 0.0 
-1.993148134638e-05 2.461302405701e-05 0.0 
2.461302405701e-05 2.047308594487e-03 0.0 
0.0 0.0 0.0 
-1.081117267622e-04 -2.015177672443e-05 0.0 
-2.015177672443e-05 9.972068862685e-05 0.0 
0.0 0.0 0.0 
3.814890353593e-05 2.709943163426e-04 0.0 
2.709943163426e-04 1.434542630936e-03 0.0 
0.0 0.0 0.0 
-4.755363226305e-06 2.517222533556e-04 0.0 
2.517222533556e-04 9.281438854887e-04 0.0 
0.0 0.0 0.0 
3.141833150822e-05 -5.370742551953e-06 0.0 
-5.370742551953e-06 2.102977252352e-04 0.0 
0.0 0.0 0.0 
3.276847046596e-05 2.914499022013e-05 0.0 
2.914499022013e-05 1.155432020218e-03 0.0 
0.0 0.0 0.0 
-1.373947961493e-04 1.600554428398e-04 0.0 
1.600554428398e-04 1.271350318165e-03 0.0 
0.0 0.0 0.0 
-6.973798031018e-05 -9.561662904838e-06 0.0 
-9.561662904838e-06 8.064763645788e-05 0.0 
0.0 0.0 0.0 
-5.556040312960e-05 2.381150200135e-04 0.0 
2.381150200135e-04 1.884762900457e-03 0.0 
0.0 0.0 0.0 
1.003573390479e-05 -4.307316752931e-05 0.0 
-4.307316752931e-05 1.785934204204e-04 0.0 
0.0 0.0 0.0 
-1.543714456609e-05 2.717852226329e-04 0.0 
2.717852226329e-04 1.757970065294e-03 0.0 
0.0 0.0 0.0 
8.970303493050e-05 7.907615814596e-06 0.0 
7.907615814596e-06 8.213995202642e-04 0.0 
0.0 0.0 0.0 
0.0 1.081660057709e-04 0.0 
1.081660057709e-04 2.057718410245e-03 0.0 
0.0 0.0 0.0 
1.448223119427e-06 2.721800409761e-04 0.0 
2.721800409761e-04 1.559103422056e-03 0.0 
0.0 0.0 0.0 
9.386213210894e-06 4.214813007007e-06 0.0 
4.214813007007e-06 7.111795290271e-05 0.0 
0.0 0.0 0.0 
6.813973866837e-05 -2.301685954592e-06 0.0 
-2.301685954592e-06 3.663478000604e-04 0.0 
0.0 0.0 0.0 
-3.973931598511e-05 7.571762845303e-05 0.0 
7.571762845303e-05 2.022961492479e-03 0.0 
0.0 0.0 0.0 
-5.698666640752e-05 1.835336228313e-04 0.0 
1.835336228313e-04 1.963372951438e-03 0.0 
0.0 0.0 0.0 
-7.323921160385e-05 1.568428435119e-04 0.0 
1.568428435119e-04 4.634027512280e-04 0.0 
0.0 0.0 0.0 
2.751839783555e-05 -1.651837207611e-05 0.0 
-1.651837207611e-05 1.561898318894e-04 0.0 
0.0 0.0 0.0 
-8.028569404028e-05 2.030798762636e-04 0.0 
2.030798762636e-04 4.653653395865e-04 0.0 
0.0 0.0 0.0 
1.437290872408e-05 -2.393121921815e-05 0.0 
-2.393121921815e-05 1.756198540075e-04 0.0 
0.0 0.0 0.0 
-1.106134081658e-04 1.273186046889e-05 0.0 
1.273186046889e-05 1.622933493983e-03 0.0 
0.0 0.0 0.0 
-1.199547409619e-04 2.328026519530e-04 0.0 
2.328026519530e-04 1.122919926908e-03 0.0 
0.0 0.0 0.0 
-1.053889762950e-04 1.955206582993e-04 0.0 
1.955206582993e-04 1.061138321168e-03 0.0 
0.0 0.0 0.0 
-1.063419917304e-04 7.668336728810e-06 0.0 
7.668336728810e-06 1.669129632650e-03 0.0 
0.0 0.0 0.0 
-9.645785272117e-05 1.623032888888e-05 0.0 
1.623032888888e-05 1.669042301938e-03 0.0 
0.0 0.0 0.0 
8.446712267296e-05 4.057403639999e-06 0.0 
4.057403639999e-06 8.512154773703e-04 0.0 
0.0 0.0 0.0 
7.600241824979e-05 5.630780702237e-06 0.0 
5.630780702237e-06 9.291833570979e-04 0.0 
0.0 0.0 0.0 
-1.077898600660e-04 2.021441561477e-04 0.0 
2.021441561477e-04 1.751232425584e-03 0.0 
0.0 0.0 0.0 
-1.095613652401e-04 5.247167060169e-06 0.0 
5.247167060169e-06 1.633449610794e-03 0.0 
0.0 0.0 0.0 
-2.184718827025e-05 -1.747496530931e-05 0.0 
-1.747496530931e-05 7.073540778002e-05 0.0 
0.0 0.0 0.0 
-1.483326497056e-04 4.867249572088e-05 0.0 
4.867249572088e-05 1.625873035586e-03 0.0 
0.0 0.0 0.0 
-5.938138767136e-05 6.008044951699e-06 0.0 
6.008044951699e-06 1.867900009801e-03 0.0 
0.0 0.0 0.0 
-6.594930581527e-05 1.400536880833e-05 0.0 
1.400536880833e-05 1.858250924061e-03 0.0 
0.0 0.0 0.0 
-2.753057110183e-05 1.190621184480e-04 0.0 
1.190621184480e-04 2.054297387454e-03 0.0 
0.0 0.0 0.0 
1.521423154571e-05 2.560425759653e-04 0.0 
2.560425759653e-04 1.436456296357e-03 0.0 
0.0 0.0 0.0 
-1.199193208015e-04 1.344799679147e-05 0.0 
1.344799679147e-05 1.623202422839e-03 0.0 
0.0 0.0 0.0 
4.571171782253e-05 1.255644509760e-04 0.0 
1.255644509760e-04 1.218354176645e-03 0.0 
0.0 0.0 0.0 
-7.759951193675e-05 -1.488394135514e-06 0.0 
-1.488394135514e-06 1.722780323324e-03 0.0 
0.0 0.0 0.0 
-3.945511790848e-05 2.487985523653e-04 0.0 
2.487985523653e-04 9.825781681958e-04 0.0 
0.0 0.0 0.0 
-1.036448851867e-04 2.975306880032e-06 0.0 
2.975306880032e-06 1.604323239052e-03 0.0 
0.0 0.0 0.0 
2.158894053639e-05 3.189965228364e-05 0.0 
3.189965228364e-05 1.188645607068e-03 0.0 
0.0 0.0 0.0 
6.065151561918e-05 2.229114369547e-04 0.0 
2.229114369547e-04 1.225447837214e-03 0.0 
0.0 0.0 0.0 
2.479814681600e-05 2.600174087020e-04 0.0 
2.600174087020e-04 1.436372880625e-03 0.0 
0.0 0.0 0.0 
2.360717651162e-05 2.011777808125e-04 0.0 
2.011777808125e-04 7.287853894340e-04 0.0 
0.0 0.0 0.0 
-5.022528079002e-05 -2.312038879533e-05 0.0 
-2.312038879533e-05 1.418406453721e-04 0.0 
0.0 0.0 0.0 
4.900521056883e-05 9.488900196743e-06 0.0 
9.488900196743e-06 1.073892098131e-03 0.0 
0.0 0.0 0.0 
-5.745520560352e-05 1.542373998451e-05 0.0 
1.542373998451e-05 1.911967975709e-03 0.0 
0.0 0.0 0.0 
-9.473313982411e-05 -2.156857048194e-05 0.0 
-2.156857048194e-05 1.009194109318e-04 0.0 
0.0 0.0 0.0 
2.150018441771e-05 5.076370261342e-05 0.0 
5.076370261342e-05 1.183819847997e-03 0.0 
0.0 0.0 0.0 
-9.681987524601e-05 2.028739163418e-04 0.0 
2.028739163418e-04 1.696373620041e-03 0.0 
0.0 0.0 0.0 
4.902222677128e-06 -8.066846540978e-06 0.0 
-8.066846540978e-06 4.475681329175e-05 0.0 
0.0 0.0 0.0 
7.288083779500e-05 2.221319641317e-04 0.0 
2.221319641317e-04 8.225682671923e-04 0.0 
0.0 0.0 0.0 
-1.678486636855e-04 8.033636140735e-05 0.0 
8.033636140735e-05 1.545012427045e-03 0.0 
0.0 0.0 0.0 
8.447414569912e-05 -9.585315793119e-06 0.0 
-9.585315793119e-06 4.491605896251e-04 0.0 
0.0 0.0 0.0 
-1.638354722666e-05 2.393768184320e-04 0.0 
2.393768184320e-04 8.698329234946e-04 0.0 
0.0 0.0 0.0 
-1.023712015347e-05 2.363989070539e-04 0.0 
2.363989070539e-04 9.292997660328e-04 0.0 
0.0 0.0 0.0 
2.864977692063e-05 9.784882836920e-05 0.0 
9.784882836920e-05 1.205943902955e-03 0.0 
0.0 0.0 0.0 
-7.977219084054e-05 7.407629473973e-06 0.0 
7.407629473973e-06 1.703022078912e-03 0.0 
0.0 0.0 0.0 
1.825945489031e-05 2.439864713757e-04 0.0 
2.439864713757e-04 8.245486657925e-04 0.0 
0.0 0.0 0.0 
8.433715738665e-06 -3.992885253649e-05 0.0 
-3.992885253649e-05 1.688537530642e-04 0.0 
0.0 0.0 0.0 
-1.452997184240e-04 5.727059467594e-05 0.0 
5.727059467594e-05 1.609734155817e-03 0.0 
0.0 0.0 0.0 
-4.721178257250e-05 8.828115899570e-06 0.0 
8.828115899570e-06 1.915817246029e-03 0.0 
0.0 0.0 0.0 
7.929919847438e-06 2.182062980837e-04 0.0 
2.182062980837e-04 8.257930884719e-04 0.0 
0.0 0.0 0.0 
-7.202043054289e-05 1.093961667180e-04 0.0 
1.093961667180e-04 2.796927195636e-04 0.0 
0.0 0.0 0.0 
-1.712470900194e-04 1.082180951967e-04 0.0 
1.082180951967e-04 1.465038104103e-03 0.0 
0.0 0.0 0.0 
7.594206127237e-05 -4.930662508328e-06 0.0 
-4.930662508328e-06 4.469606966151e-04 0.0 
0.0 0.0 0.0 
-1.512677414623e-04 9.024927353152e-05 0.0 
9.024927353152e-05 1.437759199610e-03 0.0 
0.0 0.0 0.0 
-2.236353336738e-05 9.357322666613e-05 0.0 
9.357322666613e-05 2.036341929067e-03 0.0 
0.0 0.0 0.0 
-3.898366832200e-05 1.317167079796e-04 0.0 
1.317167079796e-04 2.694933484482e-04 0.0 
0.0 0.0 0.0 
9.343153539687e-05 1.192111621229e-05 0.0 
1.192111621229e-05 7.796689249813e-04 0.0 
0.0 0.0 0.0 
-2.565384022291e-05 2.394746209827e-05 0.0 
2.394746209827e-05 2.027332041337e-03 0.0 
0.0 0.0 0.0 
-9.247923688394e-05 2.353943613597e-04 0.0 
2.353943613597e-04 1.241003657159e-03 0.0 
0.0 0.0 0.0 
-1.708853943722e-04 1.273547137421e-04 0.0 
1.273547137421e-04 1.422934942889e-03 0.0 
0.0 0.0 0.0 
4.964817944519e-05 1.130985716227e-04 0.0 
1.130985716227e-04 1.183574115213e-03 0.0 
0.0 0.0 0.0 
3.132996020261e-05 8.735220459705e-06 0.0 
8.735220459705e-06 1.156622932602e-03 0.0 
0.0 0.0 0.0 
8.682771245971e-05 1.438853411131e-05 0.0 
1.438853411131e-05 8.514948128373e-04 0.0 
0.0 0.0 0.0 
-1.100176651512e-04 2.342957898665e-04 0.0 
2.342957898665e-04 1.329843757020e-03 0.0 
0.0 0.0 0.0 
4.953331985180e-05 1.703191327964e-04 0.0 
1.703191327964e-04 1.262451630022e-03 0.0 
0.0 0.0 0.0 
-1.212747942148e-04 2.084766825775e-04 0.0 
2.084766825775e-04 1.293866947252e-03 0.0 
0.0 0.0 0.0 
-1.940705753622e-05 5.953695029653e-05 0.0 
5.953695029653e-05 2.035713780673e-03 0.0 
0.0 0.0 0.0 
-2.740824464020e-05 2.856034004400e-04 0.0 
2.856034004400e-04 1.775462250200e-03 0.0 
0.0 0.0 0.0 
-1.350478549262e-04 3.505053030941e-05 0.0 
3.505053030941e-05 1.687257311031e-03 0.0 
0.0 0.0 0.0 
-7.445750341362e-05 1.941568545554e-05 0.0 
1.941568545554e-05 1.798531618906e-03 0.0 
0.0 0.0 0.0 
-1.176267136217e-04 2.336546002811e-04 0.0 
2.336546002811e-04 1.292807219174e-03 0.0 
0.0 0.0 0.0 
-1.496780984596e-04 1.064149365583e-04 0.0 
1.064149365583e-04 1.390771482741e-03 0.0 
0.0 0.0 0.0 
-8.655357066034e-05 2.370523696720e-04 0.0 
2.370523696720e-04 1.285767291019e-03 0.0 
0.0 0.0 0.0 
4.031720646913e-05 2.124441034845e-04 0.0 
2.124441034845e-04 7.925293137714e-04 0.0 
0.0 0.0 0.0 
-9.597949069784e-05 2.000518729958e-07 0.0 
2.000518729958e-07 1.611103483059e-03 0.0 
0.0 0.0 0.0 
6.864178485144e-05 1.989131656395e-04 0.0 
1.989131656395e-04 8.254306742266e-04 0.0 
0.0 0.0 0.0 
-1.354791626618e-05 -2.186559455270e-05 0.0 
-2.186559455270e-05 6.580878307583e-05 0.0 
0.0 0.0 0.0 
-8.498227376252e-05 1.632845728835e-06 0.0 
1.632845728835e-06 1.655302156017e-03 0.0 
0.0 0.0 0.0 
2.846054005423e-05 -4.993670458373e-06 0.0 
-4.993670458373e-06 1.575421995077e-04 0.0 
0.0 0.0 0.0 
-1.697040925319e-04 9.248596480387e-05 0.0 
9.248596480387e-05 1.504588161381e-03 0.0 
0.0 0.0 0.0 
2.837768164832e-05 1.556709513992e-04 0.0 
1.556709513992e-04 1.252720373929e-03 0.0 
0.0 0.0 0.0 
3.261621272466e-05 2.301410210785e-04 0.0 
2.301410210785e-04 7.266329411431e-04 0.0 
0.0 0.0 0.0 
8.187398973525e-05 1.112041031358e-05 0.0 
1.112041031358e-05 8.880789271566e-04 0.0 
0.0 0.0 0.0 
-8.685693054233e-05 1.975610279342e-04 0.0 
1.975610279342e-04 7.650298373065e-04 0.0 
0.0 0.0 0.0 
6.863828385439e-05 2.384652848137e-04 0.0 
2.384652848137e-04 1.224025292910e-03 0.0 
0.0 0.0 0.0 
-8.772229713438e-05 2.281998372043e-06 0.0 
2.281998372043e-06 1.614352963781e-03 0.0 
0.0 0.0 0.0 
9.009022250761e-05 2.037185964895e-04 0.0 
2.037185964895e-04 7.328143030361e-04 0.0 
0.0 0.0 0.0 
6.402829799601e-05 7.506815560532e-06 0.0 
7.506815560532e-06 9.971665682469e-04 0.0 
0.0 0.0 0.0 
1.320176171604e-05 -2.472486746896e-05 0.0 
-2.472486746896e-05 1.659384354906e-04 0.0 
0.0 0.0 0.0 
5.148775220865e-05 2.177675521858e-05 0.0 
2.177675521858e-05 1.072586657776e-03 0.0 
0.0 0.0 0.0 
-1.545184945217e-04 1.240259162581e-04 0.0 
1.240259162581e-04 1.548250060820e-03 0.0 
0.0 0.0 0.0 
3.600745713794e-05 4.917010011749e-05 0.0 
4.917010011749e-05 1.180003267403e-03 0.0 
0.0 0.0 0.0 
-8.486467260993e-05 1.365192542648e-06 0.0 
1.365192542648e-06 1.609309815495e-03 0.0 
0.0 0.0 0.0 
5.724858829415e-05 2.096041240874e-04 0.0 
2.096041240874e-04 6.902561624578e-04 0.0 
0.0 0.0 0.0 
-1.519120474134e-04 6.879199528210e-05 0.0 
6.879199528210e-05 1.513084968972e-03 0.0 
0.0 0.0 0.0 
9.232075001742e-05 -2.922445699524e-07 0.0 
-2.922445699524e-07 7.427580913169e-04 0.0 
0.0 0.0 0.0 
-8.532612273549e-05 2.372262685347e-04 0.0 
2.372262685347e-04 7.760862841975e-04 0.0 
0.0 0.0 0.0 
8.266257635992e-05 1.752868244706e-04 0.0 
1.752868244706e-04 7.367025133014e-04 0.0 
0.0 0.0 0.0 
-7.333715375946e-05 9.306240862480e-06 0.0 
9.306240862480e-06 1.829150085496e-03 0.0 
0.0 0.0 0.0 
-8.984738527962e-05 5.666474073694e-06 0.0 
5.666474073694e-06 1.611008574934e-03 0.0 
0.0 0.0 0.0 
6.719024150903e-05 2.155440221382e-04 0.0 
2.155440221382e-04 7.538402965956e-04 0.0 
0.0 0.0 0.0 
-1.539433604906e-04 7.707123454685e-05 0.0 
7.707123454685e-05 1.476616861852e-03 0.0 
0.0 0.0 0.0 
-4.612455824027e-05 2.516133963004e-04 0.0 
2.516133963004e-04 1.649989505972e-03 0.0 
0.0 0.0 0.0 
8.456392936163e-05 -6.033901853403e-06 0.0 
-6.033901853403e-06 5.018317742851e-04 0.0 
0.0 0.0 0.0 
8.330979372362e-06 2.853991637973e-04 0.0 
2.853991637973e-04 1.581474072859e-03 0.0 
0.0 0.0 0.0 
-2.596127861865e-05 2.917304347178e-04 0.0 
2.917304347178e-04 1.739479612920e-03 0.0 
0.0 0.0 0.0 
-5.681938499580e-05 2.380751197798e-04 0.0 
2.380751197798e-04 9.362069991765e-04 0.0 
0.0 0.0 0.0 
9.118317259560e-05 -2.531181046635e-06 0.0 
-2.531181046635e-06 5.036180398494e-04 0.0 
0.0 0.0 0.0 
7.504472629005e-05 1.750241233763e-04 0.0 
1.750241233763e-04 1.169598413741e-03 0.0 
0.0 0.0 0.0 
-1.467067823056e-04 2.044510375885e-04 0.0 
2.044510375885e-04 1.342449483994e-03 0.0 
0.0 0.0 0.0 
-4.245039185768e-05 2.235979389894e-04 0.0 
2.235979389894e-04 8.202676264235e-04 0.0 
0.0 0.0 0.0 
-1.551844554512e-04 9.245167996834e-05 0.0 
9.245167996834e-05 1.551270217154e-03 0.0 
0.0 0.0 0.0 
4.888794488123e-05 2.192175865375e-04 0.0 
2.192175865375e-04 8.557079267784e-04 0.0 
0.0 0.0 0.0 
-1.828811891513e-05 4.504311466809e-05 0.0 
4.504311466809e-05 2.036555937668e-03 0.0 
0.0 0.0 0.0 
-1.069962677239e-04 1.752007381777e-04 0.0 
1.752007381777e-04 1.761556906219e-03 0.0 
0.0 0.0 0.0 
5.793705003643e-05 1.388881610012e-05 0.0 
1.388881610012e-05 1.035237749605e-03 0.0 
0.0 0.0 0.0 
-7.924521982250e-05 1.749782583532e-04 0.0 
1.749782583532e-04 5.613790147634e-04 0.0 
0.0 0.0 0.0 
9.248753925983e-05 1.494875055760e-04 0.0 
1.494875055760e-04 6.544169512832e-04 0.0 
0.0 0.0 0.0 
-9.355782774112e-05 1.968501166573e-04 0.0 
1.968501166573e-04 1.752355733231e-03 0.0 
0.0 0.0 0.0 
-1.342059637183e-04 3.800703675110e-05 0.0 
3.800703675110e-05 8.795589208854e-05 0.0 
0.0 0.0 0.0 
-1.422137585957e-04 1.669431019190e-04 0.0 
1.669431019190e-04 1.343164631262e-03 0.0 
0.0 0.0 0.0 
9.584863652590e-05 1.343278006301e-04 0.0 
1.343278006301e-04 1.045917633186e-03 0.0 
0.0 0.0 0.0 
3.324227284773e-06 -1.734451425725e-05 0.0 
-1.734451425725e-05 1.113611912826e-04 0.0 
0.0 0.0 0.0 
-4.647681614101e-05 1.985766484644e-04 0.0 
1.985766484644e-04 1.931703808130e-03 0.0 
0.0 0.0 0.0 
-1.289438214498e-04 1.093181028433e-04 0.0 
1.093181028433e-04 1.760683754184e-03 0.0 
0.0 0.0 0.0 
1.166399019288e-04 5.409896130129e-06 0.0 
5.409896130129e-06 4.781510150809e-04 0.0 
0.0 0.0 0.0 
1.095251865144e-04 1.518778470397e-04 0.0 
1.518778470397e-04 1.044708520593e-03 0.0 
0.0 0.0 0.0 
-1.496763404627e-04 6.574098031289e-05 0.0 
6.574098031289e-05 1.659356572095e-03 0.0 
0.0 0.0 0.0 
-1.405871919870e-04 5.488633484945e-05 0.0 
5.488633484945e-05 1.715467730958e-03 0.0 
0.0 0.0 0.0 
4.591787124464e-05 1.576078515374e-04 0.0 
1.576078515374e-04 1.218151346556e-03 0.0 
0.0 0.0 0.0 
8.052783449619e-05 -1.599836735384e-05 0.0 
-1.599836735384e-05 3.501094399523e-04 0.0 
0.0 0.0 0.0 
-5.648674012992e-05 2.492108192845e-04 0.0 
2.492108192845e-04 1.241279719873e-03 0.0 
0.0 0.0 0.0 
-1.470122711136e-04 1.552070330906e-04 0.0 
1.552070330906e-04 1.536307096544e-03 0.0 
0.0 0.0 0.0 
-1.372025535247e-04 1.082577131602e-04 0.0 
1.082577131602e-04 1.798216086583e-03 0.0 
0.0 0.0 0.0 
-1.678370437705e-04 1.268939430184e-04 0.0 
1.268939430184e-04 1.592902508749e-03 0.0 
0.0 0.0 0.0 
-1.717314237419e-04 1.111181503509e-04 0.0 
1.111181503509e-04 1.551376343943e-03 0.0 
0.0 0.0 0.0 
8.664986142959e-05 1.983836023287e-04 0.0 
1.983836023287e-04 1.076151845171e-03 0.0 
0.0 0.0 0.0 
-7.193450645504e-05 2.373194345356e-04 0.0 
2.373194345356e-04 1.665822744147e-03 0.0 
0.0 0.0 0.0 
-1.033126100308e-04 3.662730479539e-05 0.0 
3.662730479539e-05 1.289895355097e-04 0.0 
0.0 0.0 0.0 
-5.014009036386e-05 2.397279520424e-04 0.0 
2.397279520424e-04 9.363843089445e-04 0.0 
0.0 0.0 0.0 
-3.869372051279e-05 2.480219094980e-04 0.0 
2.480219094980e-04 9.826996704081e-04 0.0 
0.0 0.0 0.0 
-7.857552720192e-05 2.473782068135e-04 0.0 
2.473782068135e-04 1.284326005264e-03 0.0 
0.0 0.0 0.0 
-1.160615451238e-04 1.729198315664e-04 0.0 
1.729198315664e-04 1.808812953814e-03 0.0 
0.0 0.0 0.0 
2.480518099723e-05 7.334336514228e-05 0.0 
7.334336514228e-05 2.446500223741e-04 0.0 
0.0 0.0 0.0 
1.047642816490e-04 1.154635641474e-04 0.0 
1.154635641474e-04 9.867659995271e-04 0.0 
0.0 0.0 0.0 
-9.168200546184e-05 -2.782533803708e-06 0.0 
-2.782533803708e-06 1.606709628168e-03 0.0 
0.0 0.0 0.0 
1.013938166674e-04 1.805962556024e-04 0.0 
1.805962556024e-04 6.499922562866e-04 0.0 
0.0 0.0 0.0 
1.112465773532e-04 9.741072810413e-05 0.0 
9.741072810413e-05 9.315142140136e-04 0.0 
0.0 0.0 0.0 
-1.103344968967e-05 -2.251119970052e-05 0.0 
-2.251119970052e-05 7.765430987550e-05 0.0 
0.0 0.0 0.0 
-1.160052127395e-04 1.266975668856e-04 0.0 
1.266975668856e-04 1.806753955914e-03 0.0 
0.0 0.0 0.0 
-2.105683919051e-05 -9.834244494847e-06 0.0 
-9.834244494847e-06 6.163622407174e-05 0.0 
0.0 0.0 0.0 
1.522040555235e-05 -1.557061910781e-05 0.0 
-1.557061910781e-05 1.102102818675e-04 0.0 
0.0 0.0 0.0 
-7.385036974039e-05 2.133225828474e-04 0.0 
2.133225828474e-04 5.633154918878e-04 0.0 
0.0 0.0 0.0 
6.435269027061e-05 -2.161147093174e-05 0.0 
-2.161147093174e-05 2.940422208300e-04 0.0 
0.0 0.0 0.0 
-1.226037544689e-04 1.238482579510e-04 0.0 
1.238482579510e-04 1.844716364164e-03 0.0 
0.0 0.0 0.0 
4.982584523283e-05 -3.753184817604e-05 0.0 
-3.753184817604e-05 2.772745662465e-04 0.0 
0.0 0.0 0.0 
1.602016859170e-05 1.792651261029e-04 0.0 
1.792651261029e-04 4.809013653635e-04 0.0 
0.0 0.0 0.0 
3.050498765877e-05 -3.744189930517e-05 0.0 
-3.744189930517e-05 2.252728553938e-04 0.0 
0.0 0.0 0.0 
2.262512498885e-05 -2.363883191523e-05 0.0 
-2.363883191523e-05 1.870952568359e-04 0.0 
0.0 0.0 0.0 
9.843277897992e-05 1.685637966089e-04 0.0 
1.685637966089e-04 1.103240200129e-03 0.0 
0.0 0.0 0.0 
-1.675610320279e-04 1.429503119484e-04 0.0 
1.429503119484e-04 1.547520091828e-03 0.0 
0.0 0.0 0.0 
3.622158025873e-05 4.216833189933e-05 0.0 
4.216833189933e-05 1.156147172024e-03 0.0 
0.0 0.0 0.0 
-1.027238659744e-04 2.224463258651e-05 0.0 
2.224463258651e-05 6.057428325534e-05 0.0 
0.0 0.0 0.0 
4.715667406407e-05 1.839860647236e-04 0.0 
1.839860647236e-04 5.378369013518e-04 0.0 
0.0 0.0 0.0 
1.071752664712e-04 1.873381438892e-04 0.0 
1.873381438892e-04 7.207377510765e-04 0.0 
0.0 0.0 0.0 
-1.230823999041e-04 1.949999090386e-04 0.0 
1.949999090386e-04 1.258811182193e-03 0.0 
0.0 0.0 0.0 
1.178296560962e-04 1.320791627622e-04 0.0 
1.320791627622e-04 9.856107619604e-04 0.0 
0.0 0.0 0.0 
3.411916169860e-05 6.116894967386e-05 0.0 
6.116894967386e-05 1.188468705682e-03 0.0 
0.0 0.0 0.0 
-1.332676732403e-04 1.586121029912e-04 0.0 
1.586121029912e-04 1.765738600831e-03 0.0 
0.0 0.0 0.0 
8.206469128758e-05 1.100766248095e-04 0.0 
1.100766248095e-04 5.109800238723e-04 0.0 
0.0 0.0 0.0 
8.564984497417e-05 1.545423342236e-04 0.0 
1.545423342236e-04 1.103336823414e-03 0.0 
0.0 0.0 0.0 
8.907427246352e-05 1.108824118460e-05 0.0 
1.108824118460e-05 8.140579545630e-04 0.0 
0.0 0.0 0.0 
-1.023881522677e-04 2.345022662920e-04 0.0 
2.345022662920e-04 1.369572613101e-03 0.0 
0.0 0.0 0.0 
-1.247479187022e-04 1.307736856629e-04 0.0 
1.307736856629e-04 1.765925200298e-03 0.0 
0.0 0.0 0.0 
1.019274539305e-05 2.700053842247e-04 0.0 
2.700053842247e-04 1.501320345353e-03 0.0 
0.0 0.0 0.0 
9.896812685262e-05 1.595541447098e-04 0.0 
1.595541447098e-04 7.248654584677e-04 0.0 
0.0 0.0 0.0 
7.229409632936e-06 1.673470525652e-04 0.0 
1.673470525652e-04 5.752532844050e-04 0.0 
0.0 0.0 0.0 
-1.600583304961e-04 1.415828366558e-04 0.0 
1.415828366558e-04 1.634685759009e-03 0.0 
0.0 0.0 0.0 
-2.083443170497e-05 1.080420554167e-04 0.0 
1.080420554167e-04 2.061971942775e-03 0.0 
0.0 0.0 0.0 
-4.809747470058e-05 2.513748693756e-04 0.0 
2.513748693756e-04 1.240973697114e-03 0.0 
0.0 0.0 0.0 
1.122465102685e-04 1.630095519959e-04 0.0 
1.630095519959e-04 8.577924020803e-04 0.0 
0.0 0.0 0.0 
-8.791613718528e-05 3.563722954577e-06 0.0 
3.563722954577e-06 1.668294735867e-03 0.0 
0.0 0.0 0.0 
-7.715583041135e-06 -3.996690801065e-05 0.0 
-3.996690801065e-05 1.675623355659e-04 0.0 
0.0 0.0 0.0 
-1.532934090716e-04 1.112712751342e-04 0.0 
1.112712751342e-04 1.595277725132e-03 0.0 
0.0 0.0 0.0 
9.394044782596e-05 1.456518999115e-04 0.0 
1.456518999115e-04 5.055462177188e-04 0.0 
0.0 0.0 0.0 
5.667671496901e-05 8.115901638644e-05 0.0 
8.115901638644e-05 3.101821103073e-04 0.0 
0.0 0.0 0.0 
1.486738630696e-05 -3.224218753149e-05 0.0 
-3.224218753149e-05 1.847660915759e-04 0.0 
0.0 0.0 0.0 
-1.056277397247e-04 1.226006223722e-04 0.0 
1.226006223722e-04 1.844806652841e-03 0.0 
0.0 0.0 0.0 
-1.592515981208e-04 1.561016500534e-04 0.0 
1.561016500534e-04 1.586258929208e-03 0.0 
0.0 0.0 0.0 
4.391677919635e-05 2.309387575193e-04 0.0 
2.309387575193e-04 7.895323996605e-04 0.0 
0.0 0.0 0.0 
-1.104600742473e-04 1.184609383133e-04 0.0 
1.184609383133e-04 1.881216263455e-03 0.0 
0.0 0.0 0.0 
-1.216716242329e-04 1.802864995871e-04 0.0 
1.802864995871e-04 1.760673806150e-03 0.0 
0.0 0.0 0.0 
-1.216553208012e-04 2.178209111073e-04 0.0 
2.178209111073e-04 1.444918747519e-03 0.0 
0.0 0.0 0.0 
2.437153960178e-05 7.723110587122e-05 0.0 
7.723110587122e-05 1.195606343957e-03 0.0 
0.0 0.0 0.0 
1.270527449744e-04 1.723432774339e-04 0.0 
1.723432774339e-04 8.524784224433e-04 0.0 
0.0 0.0 0.0 
-1.357473808351e-04 1.997828838595e-04 0.0 
1.997828838595e-04 1.512466333223e-03 0.0 
0.0 0.0 0.0 
5.207790919215e-05 2.217468913062e-04 0.0 
2.217468913062e-04 9.212532317739e-04 0.0 
0.0 0.0 0.0 
1.079497731169e-04 1.716285880943e-04 0.0 
1.716285880943e-04 9.291959324960e-04 0.0 
0.0 0.0 0.0 
8.522711524983e-05 8.987907304801e-05 0.0 
8.987907304801e-05 3.711824436838e-04 0.0 
0.0 0.0 0.0 
-1.406790071162e-04 3.583578554207e-05 0.0 
3.583578554207e-05 1.624148941431e-03 0.0 
0.0 0.0 0.0 
1.120235107193e-04 1.440505618293e-04 0.0 
1.440505618293e-04 7.166757924577e-04 0.0 
0.0 0.0 0.0 
9.946520882687e-05 1.823336450030e-05 0.0 
1.823336450030e-05 4.055169957828e-04 0.0 
0.0 0.0 0.0 
-1.174519772168e-04 1.533584500770e-04 0.0 
1.533584500770e-04 1.766592043808e-03 0.0 
0.0 0.0 0.0 
-1.702708248937e-04 8.223794407434e-06 0.0 
8.223794407434e-06 9.482184505871e-05 0.0 
0.0 0.0 0.0 
-1.658962630064e-04 1.143898890889e-04 0.0 
1.143898890889e-04 1.635565468558e-03 0.0 
0.0 0.0 0.0 
1.100391762943e-04 1.273676521112e-04 0.0 
1.273676521112e-04 5.010668559977e-04 0.0 
0.0 0.0 0.0 
3.834863835905e-05 1.483019331973e-04 0.0 
1.483019331973e-04 5.428373980587e-04 0.0 
0.0 0.0 0.0 
6.941244925684e-05 5.292660684327e-05 0.0 
5.292660684327e-05 3.775670075026e-04 0.0 
0.0 0.0 0.0 
-1.387871947087e-04 1.554320249799e-04 0.0 
1.554320249799e-04 1.628392949050e-03 0.0 
0.0 0.0 0.0 
-1.771151410612e-05 -3.338070526679e-05 0.0 
-3.338070526679e-05 1.182463573062e-04 0.0 
0.0 0.0 0.0 
-6.544272937714e-05 2.451497636720e-04 0.0 
2.451497636720e-04 1.091990287214e-03 0.0 
0.0 0.0 0.0 
1.215228661151e-04 1.804995130240e-04 0.0 
1.804995130240e-04 9.250428579144e-04 0.0 
0.0 0.0 0.0 
-1.483042776338e-04 1.402117779657e-04 0.0 
1.402117779657e-04 1.588928271484e-03 0.0 
0.0 0.0 0.0 
-1.413728909430e-04 5.129110734573e-05 0.0 
5.129110734573e-05 1.668559810534e-03 0.0 
0.0 0.0 0.0 
-9.495939705673e-07 5.388798803824e-05 0.0 
5.388798803824e-05 1.967058180012e-04 0.0 
0.0 0.0 0.0 
1.160020086579e-04 4.757281865849e-05 0.0 
4.757281865849e-05 4.008979723444e-04 0.0 
0.0 0.0 0.0 
8.667401010776e-05 -1.372489227546e-06 0.0 
-1.372489227546e-06 3.595134639554e-04 0.0 
0.0 0.0 0.0 
-7.730289149688e-05 2.451682152086e-04 0.0 
2.451682152086e-04 1.048038014927e-03 0.0 
0.0 0.0 0.0 
-1.417631778006e-04 1.356185613137e-04 0.0 
1.356185613137e-04 1.765166653265e-03 0.0 
0.0 0.0 0.0 
-6.352241769880e-05 2.526009675643e-04 0.0 
2.526009675643e-04 1.090864343122e-03 0.0 
0.0 0.0 0.0 
1.282320377687e-04 1.462266180607e-04 0.0 
1.462266180607e-04 6.383511569683e-04 0.0 
0.0 0.0 0.0 
1.166424987591e-04 1.629914347441e-04 0.0 
1.629914347441e-04 6.418976956577e-04 0.0 
0.0 0.0 0.0 
4.072958873724e-06 3.316502223498e-05 0.0 
3.316502223498e-05 2.591042517368e-04 0.0 
0.0 0.0 0.0 
7.271395721276e-05 2.263334018395e-04 0.0 
2.263334018395e-04 8.926615284519e-04 0.0 
0.0 0.0 0.0 
-2.924281296701e-05 1.357222714369e-04 0.0 
1.357222714369e-04 4.278864265974e-04 0.0 
0.0 0.0 0.0 
-3.135076491401e-05 1.921385215216e-04 0.0 
1.921385215216e-04 2.002567017254e-03 0.0 
0.0 0.0 0.0 
-3.315016889460e-05 2.278148418783e-04 0.0 
2.278148418783e-04 1.960342707332e-03 0.0 
0.0 0.0 0.0 
-2.734785547909e-05 2.536967257200e-04 0.0 
2.536967257200e-04 1.202374978264e-03 0.0 
0.0 0.0 0.0 
9.231434264390e-05 1.177956710885e-04 0.0 
1.177956710885e-04 4.350973451033e-04 0.0 
0.0 0.0 0.0 
3.816908916865e-05 1.190775916696e-04 0.0 
1.190775916696e-04 4.609611638471e-04 0.0 
0.0 0.0 0.0 
-1.129791642971e-04 2.083744705048e-04 0.0 
2.083744705048e-04 1.487449597980e-03 0.0 
0.0 0.0 0.0 
6.065274996092e-05 9.928005353222e-05 0.0 
9.928005353222e-05 4.473797057432e-04 0.0 
0.0 0.0 0.0 
1.031860245830e-04 2.656931804394e-05 0.0 
2.656931804394e-05 3.550764664582e-04 0.0 
0.0 0.0 0.0 
-1.077896161361e-04 2.199068999040e-04 0.0 
2.199068999040e-04 1.372210569649e-03 0.0 
0.0 0.0 0.0 
-3.767525211673e-05 6.514898816168e-05 0.0 
6.514898816168e-05 2.035543355272e-03 0.0 
0.0 0.0 0.0 
1.083460086249e-04 1.545317223223e-04 0.0 
1.545317223223e-04 5.726331468847e-04 0.0 
0.0 0.0 0.0 
9.134090640828e-05 2.154335692724e-04 0.0 
2.154335692724e-04 1.074085503880e-03 0.0 
0.0 0.0 0.0 
1.366403133174e-05 1.555046906330e-04 0.0 
1.555046906330e-04 3.972774776675e-04 0.0 
0.0 0.0 0.0 
2.817263877253e-05 2.071328977740e-04 0.0 
2.071328977740e-04 1.360760833957e-03 0.0 
0.0 0.0 0.0 
7.315870997116e-05 1.377388502284e-04 0.0 
1.377388502284e-04 4.410867895730e-04 0.0 
0.0 0.0 0.0 
-8.004807248529e-05 2.380938709574e-04 0.0 
2.380938709574e-04 1.331083689054e-03 0.0 
0.0 0.0 0.0 
4.110728030593e-05 5.706698642205e-05 0.0 
5.706698642205e-05 2.534766235514e-04 0.0 
0.0 0.0 0.0 
1.371379392880e-04 1.311574824219e-04 0.0 
1.311574824219e-04 8.767258084130e-04 0.0 
0.0 0.0 0.0 
1.202819465957e-04 1.701512873615e-04 0.0 
1.701512873615e-04 7.124643052512e-04 0.0 
0.0 0.0 0.0 
1.087070694066e-04 1.951358940934e-05 0.0 
1.951358940934e-05 3.733816219429e-04 0.0 
0.0 0.0 0.0 
-1.548698963592e-04 1.738015255901e-04 0.0 
1.738015255901e-04 1.533954832369e-03 0.0 
0.0 0.0 0.0 
-2.255567666831e-05 2.806487248131e-04 0.0 
2.806487248131e-04 1.875521549687e-03 0.0 
0.0 0.0 0.0 
1.216569731772e-04 1.369251563954e-04 0.0 
1.369251563954e-04 5.689841496883e-04 0.0 
0.0 0.0 0.0 
1.145624949590e-04 1.611009995531e-04 0.0 
1.611009995531e-04 9.278080111175e-04 0.0 
0.0 0.0 0.0 
6.443853446836e-06 1.125702658761e-04 0.0 
1.125702658761e-04 4.031756084346e-04 0.0 
0.0 0.0 0.0 
-1.088587584439e-04 5.361389852645e-05 0.0 
5.361389852645e-05 1.778622573628e-03 0.0 
0.0 0.0 0.0 
1.239909266149e-04 1.129275483781e-04 0.0 
1.129275483781e-04 9.295036054757e-04 0.0 
0.0 0.0 0.0 
8.029114730856e-07 1.914151852373e-04 0.0 
1.914151852373e-04 6.708415834225e-04 0.0 
0.0 0.0 0.0 
-1.198998973995e-04 3.748502173572e-05 0.0 
3.748502173572e-05 1.755112576949e-03 0.0 
0.0 0.0 0.0 
-9.739992844260e-06 3.148343223233e-04 0.0 
3.148343223233e-04 1.763316824986e-03 0.0 
0.0 0.0 0.0 
1.084526030213e-04 1.248919445847e-04 0.0 
1.248919445847e-04 1.006536902167e-03 0.0 
0.0 0.0 0.0 
-2.799591127367e-05 2.646985352988e-04 0.0 
2.646985352988e-04 1.906863183946e-03 0.0 
0.0 0.0 0.0 
-1.319378634327e-04 5.135138842791e-05 0.0 
5.135138842791e-05 1.746350838902e-03 0.0 
0.0 0.0 0.0 
-1.068654400037e-04 2.088424568958e-04 0.0 
2.088424568958e-04 1.695270402201e-03 0.0 
0.0 0.0 0.0 
-3.318469781843e-05 1.808518888054e-04 0.0 
1.808518888054e-04 6.149441531802e-04 0.0 
0.0 0.0 0.0 
-1.634896583361e-04 1.627957030101e-04 0.0 
1.627957030101e-04 1.496159219028e-03 0.0 
0.0 0.0 0.0 
-1.324959215387e-04 1.841511738531e-04 0.0 
1.841511738531e-04 1.514679523581e-03 0.0 
0.0 0.0 0.0 
-1.445923899661e-04 1.825167412386e-04 0.0 
1.825167412386e-04 1.572505502109e-03 0.0 
0.0 0.0 0.0 
-2.142488970192e-05 2.525354641981e-04 0.0 
2.525354641981e-04 1.147388328285e-03 0.0 
0.0 0.0 0.0 
-9.590278895466e-07 3.205882100133e-04 0.0 
3.205882100133e-04 1.683852975529e-03 0.0 
0.0 0.0 0.0 
-1.376607453167e-04 7.349516633709e-05 0.0 
7.349516633709e-05 1.701877985411e-03 0.0 
0.0 0.0 0.0 
-1.695667185438e-04 9.798373621153e-05 0.0 
9.798373621153e-05 1.591266393728e-03 0.0 
0.0 0.0 0.0 
1.067805373272e-04 1.332916899717e-04 0.0 
1.332916899717e-04 6.464533746495e-04 0.0 
0.0 0.0 0.0 
4.464760715273e-05 -2.363351867352e-05 0.0 
-2.363351867352e-05 2.406414772411e-04 0.0 
0.0 0.0 0.0 
-1.725149299425e-04 1.275895283180e-04 0.0 
1.275895283180e-04 1.506442431908e-03 0.0 
0.0 0.0 0.0 
4.239017115659e-05 2.058571821670e-04 0.0 
2.058571821670e-04 6.276953248399e-04 0.0 
0.0 0.0 0.0 
-8.811682178866e-05 7.213544078209e-07 0.0 
7.213544078209e-07 1.612662839470e-03 0.0 
0.0 0.0 0.0 
9.269668057055e-05 -6.052099348226e-06 0.0 
-6.052099348226e-06 3.772645825457e-04 0.0 
0.0 0.0 0.0 
9.709027632065e-05 1.216309780229e-04 0.0 
1.216309780229e-04 5.773851116517e-04 0.0 
0.0 0.0 0.0 
-1.092448550827e-04 1.481106885321e-04 0.0 
1.481106885321e-04 1.810212679691e-03 0.0 
0.0 0.0 0.0 
3.353114039073e-05 1.760638531139e-04 0.0 
1.760638531139e-04 6.316125827091e-04 0.0 
0.0 0.0 0.0 
-1.411621386774e-04 1.733849473528e-04 0.0 
1.733849473528e-04 1.477767068893e-03 0.0 
0.0 0.0 0.0 
1.265575145526e-04 1.694125840310e-04 0.0 
1.694125840310e-04 9.262700639292e-04 0.0 
0.0 0.0 0.0 
1.390963169319e-04 5.409397677457e-05 0.0 
5.409397677457e-05 6.879227756040e-04 0.0 
0.0 0.0 0.0 
1.444486241153e-05 3.071987443528e-04 0.0 
3.071987443528e-04 1.567019156615e-03 0.0 
0.0 0.0 0.0 
-1.610376617921e-04 1.752973786594e-04 0.0 
1.752973786594e-04 1.405909302580e-03 0.0 
0.0 0.0 0.0 
1.086561782770e-04 5.909234794253e-05 0.0 
5.909234794253e-05 3.868491068437e-04 0.0 
0.0 0.0 0.0 
1.035524694175e-04 -1.071854246893e-05 0.0 
-1.071854246893e-05 4.588611857357e-04 0.0 
0.0 0.0 0.0 
-4.860194575773e-05 2.189243442889e-04 0.0 
2.189243442889e-04 8.209703302433e-04 0.0 
0.0 0.0 0.0 
9.106715945117e-06 2.189539814661e-04 0.0 
2.189539814661e-04 6.677865100053e-04 0.0 
0.0 0.0 0.0 
-1.025010331419e-04 1.937222379120e-04 0.0 
1.937222379120e-04 1.802589342977e-03 0.0 
0.0 0.0 0.0 
-9.489953065966e-05 2.337634239489e-04 0.0 
2.337634239489e-04 1.411586597228e-03 0.0 
0.0 0.0 0.0 
-1.262404055093e-04 2.290120920012e-04 0.0 
2.290120920012e-04 1.255991770737e-03 0.0 
0.0 0.0 0.0 
-1.475836100303e-04 1.595495762943e-04 0.0 
1.595495762943e-04 1.442894059074e-03 0.0 
0.0 0.0 0.0 
2.579780987833e-05 2.575874284349e-04 0.0 
2.575874284349e-04 1.432405762912e-03 0.0 
0.0 0.0 0.0 
4.008831425373e-05 2.400228837635e-04 0.0 
2.400228837635e-04 1.369055482697e-03 0.0 
0.0 0.0 0.0 
-8.784579651788e-05 1.902473082267e-04 0.0 
1.902473082267e-04 1.803171991161e-03 0.0 
0.0 0.0 0.0 
-1.334945853422e-04 1.295371278928e-04 0.0 
1.295371278928e-04 1.806392242967e-03 0.0 
0.0 0.0 0.0 
1.291419912359e-04 4.012792177848e-05 0.0 
4.012792177848e-05 6.683919123611e-04 0.0 
0.0 0.0 0.0 
-3.125364949286e-05 2.515533661740e-04 0.0 
2.515533661740e-04 1.036920582836e-03 0.0 
0.0 0.0 0.0 
7.802591132089e-05 8.097422886664e-05 0.0 
8.097422886664e-05 4.410162072435e-04 0.0 
0.0 0.0 0.0 
9.672183251586e-05 9.340018769882e-05 0.0 
9.340018769882e-05 5.063422581866e-04 0.0 
0.0 0.0 0.0 
-7.281933728132e-05 2.453418334781e-04 0.0 
2.453418334781e-04 1.329975652566e-03 0.0 
0.0 0.0 0.0 
1.275689247147e-04 1.214787730475e-04 0.0 
1.214787730475e-04 8.688610472856e-04 0.0 
0.0 0.0 0.0 
1.028373854921e-04 -4.940079792099e-06 0.0 
-4.940079792099e-06 5.543487591024e-04 0.0 
0.0 0.0 0.0 
-9.048370871034e-05 1.646427373726e-04 0.0 
1.646427373726e-04 1.853065304220e-03 0.0 
0.0 0.0 0.0 
9.221235108892e-05 2.692365877975e-05 0.0 
2.692365877975e-05 3.919515461708e-04 0.0 
0.0 0.0 0.0 
4.710885075587e-06 2.461612054003e-04 0.0 
2.461612054003e-04 1.050520572569e-03 0.0 
0.0 0.0 0.0 
-1.226728602371e-04 2.013789871746e-04 0.0 
2.013789871746e-04 1.448088282686e-03 0.0 
0.0 0.0 0.0 
2.469726971821e-07 2.436041762549e-04 0.0 
2.436041762549e-04 9.908336734414e-04 0.0 
0.0 0.0 0.0 
-3.187274313610e-05 2.480454112351e-04 0.0 
2.480454112351e-04 1.934910819754e-03 0.0 
0.0 0.0 0.0 
-3.068394676564e-05 2.112257870609e-04 0.0 
2.112257870609e-04 1.981096296961e-03 0.0 
0.0 0.0 0.0 
-6.174277155202e-05 1.966301512417e-04 0.0 
1.966301512417e-04 1.932075452816e-03 0.0 
0.0 0.0 0.0 
1.279471191082e-04 5.336887370552e-05 0.0 
5.336887370552e-05 7.364619656431e-04 0.0 
0.0 0.0 0.0 
-9.350428053889e-05 1.189895103708e-04 0.0 
1.189895103708e-04 1.881079395230e-03 0.0 
0.0 0.0 0.0 
1.367210836367e-05 2.002492879626e-04 0.0 
2.002492879626e-04 5.714121178464e-04 0.0 
0.0 0.0 0.0 
1.096024748390e-04 1.059024932050e-04 0.0 
1.059024932050e-04 5.738175246237e-04 0.0 
0.0 0.0 0.0 
4.142655326911e-05 4.231294836893e-05 0.0 
4.231294836893e-05 3.169033417263e-04 0.0 
0.0 0.0 0.0 
-9.043614798043e-05 2.476865580221e-04 0.0 
2.476865580221e-04 1.194836262786e-03 0.0 
0.0 0.0 0.0 
-1.330583219086e-04 2.638692450111e-05 0.0 
2.638692450111e-05 1.626480020535e-03 0.0 
0.0 0.0 0.0 
-1.171005932358e-04 5.309676196111e-05 0.0 
5.309676196111e-05 1.746153043624e-03 0.0 
0.0 0.0 0.0 
4.956266981937e-05 2.003978403910e-04 0.0 
2.003978403910e-04 1.297077208916e-03 0.0 
0.0 0.0 0.0 
-7.705650870193e-05 2.160079831432e-04 0.0 
2.160079831432e-04 1.738775800576e-03 0.0 
0.0 0.0 0.0 
-1.469360720556e-04 1.288087350747e-04 0.0 
1.288087350747e-04 1.636558629677e-03 0.0 
0.0 0.0 0.0 
-1.216944899396e-04 1.934820426263e-04 0.0 
1.934820426263e-04 1.554234012717e-03 0.0 
0.0 0.0 0.0 
7.306018660258e-05 6.422315792666e-05 0.0 
6.422315792666e-05 3.141401819520e-04 0.0 
0.0 0.0 0.0 
-3.322108848192e-05 -2.857243008732e-05 0.0 
-2.857243008732e-05 1.266958343904e-04 0.0 
0.0 0.0 0.0 
9.226153299458e-05 2.082465279874e-04 0.0 
2.082465279874e-04 8.045268933605e-04 0.0 
0.0 0.0 0.0 
6.209894270137e-06 2.463402038409e-04 0.0 
2.463402038409e-04 1.109901996928e-03 0.0 
0.0 0.0 0.0 
7.184198607257e-05 2.056388718391e-04 0.0 
2.056388718391e-04 8.956215504825e-04 0.0 
0.0 0.0 0.0 
-8.227516560588e-05 1.675739764852e-04 0.0 
1.675739764852e-04 2.808651541215e-04 0.0 
0.0 0.0 0.0 
-8.351851908939e-05 5.838925674576e-06 0.0 
5.838925674576e-06 1.665657267670e-03 0.0 
0.0 0.0 0.0 
3.009163714429e-05 -3.999613983310e-05 0.0 
-3.999613983310e-05 2.229163799208e-04 0.0 
0.0 0.0 0.0 
7.329888985641e-05 1.649680293567e-04 0.0 
1.649680293567e-04 5.171217207782e-04 0.0 
0.0 0.0 0.0 
0.0 2.058523026389e-04 0.0 
2.058523026389e-04 1.372058244235e-03 0.0 
0.0 0.0 0.0 
9.323869654865e-05 1.904998102281e-04 0.0 
1.904998102281e-04 1.074195117937e-03 0.0 
0.0 0.0 0.0 
-1.529707517153e-04 8.369776349311e-05 0.0 
8.369776349311e-05 1.592950569799e-03 0.0 
0.0 0.0 0.0 
2.001369241711e-05 -3.841400006098e-07 0.0 
-3.841400006098e-07 1.550735467333e-04 0.0 
0.0 0.0 0.0 
-2.960831451149e-05 2.558558376591e-04 0.0 
2.558558376591e-04 1.146971253871e-03 0.0 
0.0 0.0 0.0 
8.729675847796e-05 1.836051832365e-04 0.0 
1.836051832365e-04 8.080190297366e-04 0.0 
0.0 0.0 0.0 
-1.489470918834e-04 1.673173505629e-04 0.0 
1.673173505629e-04 1.626924582775e-03 0.0 
0.0 0.0 0.0 
-1.701850953761e-05 2.956699014922e-04 0.0 
2.956699014922e-04 1.839251464497e-03 0.0 
0.0 0.0 0.0 
-1.524157580328e-04 1.403012399252e-04 0.0 
1.403012399252e-04 1.498661881685e-03 0.0 
0.0 0.0 0.0 
-1.125532757399e-04 2.198657300592e-04 0.0 
2.198657300592e-04 1.485971292960e-03 0.0 
0.0 0.0 0.0 
1.127835547572e-04 7.908226420891e-06 0.0 
7.908226420891e-06 5.523702927688e-04 0.0 
0.0 0.0 0.0 
-9.934290044478e-05 1.437823151602e-04 0.0 
1.437823151602e-04 1.851335969749e-03 0.0 
0.0 0.0 0.0 
1.362062657895e-04 6.635247065537e-05 0.0 
6.635247065537e-05 7.568330664358e-04 0.0 
0.0 0.0 0.0 
-1.628209632798e-05 3.066864274591e-04 0.0 
3.066864274591e-04 1.802591039906e-03 0.0 
0.0 0.0 0.0 
0.0 2.444498369074e-04 0.0 
2.444498369074e-04 1.920690091285e-03 0.0 
0.0 0.0 0.0 
0.0 1.739119083329e-04 0.0 
1.739119083329e-04 2.013117166488e-03 0.0 
0.0 0.0 0.0 
0.0 2.083267907856e-04 0.0 
2.083267907856e-04 1.971742423146e-03 0.0 
0.0 0.0 0.0 
-1.261453046880e-04 1.802133747093e-04 0.0 
1.802133747093e-04 1.614490153496e-03 0.0 
0.0 0.0 0.0 
-1.161602542402e-04 1.448266878177e-04 0.0 
1.448266878177e-04 1.851271274320e-03 0.0 
0.0 0.0 0.0 
-7.212291106151e-05 2.125919089538e-04 0.0 
2.125919089538e-04 1.793885330555e-03 0.0 
0.0 0.0 0.0 
-2.067053321175e-06 2.558425161220e-04 0.0 
2.558425161220e-04 9.893504473593e-04 0.0 
0.0 0.0 0.0 
-3.255868391105e-05 2.550381572259e-04 0.0 
2.550381572259e-04 1.036486621062e-03 0.0 
0.0 0.0 0.0 
9.633783849128e-05 -1.048334679745e-05 0.0 
-1.048334679745e-05 5.188172376003e-04 0.0 
0.0 0.0 0.0 
-1.071074035779e-04 1.664100072723e-04 0.0 
1.664100072723e-04 1.852894790810e-03 0.0 
0.0 0.0 0.0 
-5.041347241885e-06 3.193723100982e-04 0.0 
3.193723100982e-04 1.723039699918e-03 0.0 
0.0 0.0 0.0 
-8.737517839963e-05 1.385574389521e-04 0.0 
1.385574389521e-04 1.889231895021e-03 0.0 
0.0 0.0 0.0 
1.015421444228e-04 1.806863290627e-04 0.0 
1.806863290627e-04 1.001506844690e-03 0.0 
0.0 0.0 0.0 
-1.038912484780e-04 1.389224323647e-04 0.0 
1.389224323647e-04 1.889258988567e-03 0.0 
0.0 0.0 0.0 
5.274543560141e-06 2.473166058248e-04 0.0 
2.473166058248e-04 1.345910979197e-03 0.0 
0.0 0.0 0.0 
2.570652402012e-05 2.492584654853e-04 0.0 
2.492584654853e-04 1.013977248483e-03 0.0 
0.0 0.0 0.0 
-9.528791187430e-05 2.321843971478e-04 0.0 
2.321843971478e-04 1.196473013239e-03 0.0 
0.0 0.0 0.0 
4.448711922911e-05 1.319076595198e-04 0.0 
1.319076595198e-04 3.795042860959e-04 0.0 
0.0 0.0 0.0 
-2.558286524368e-05 1.135257800565e-04 0.0 
1.135257800565e-04 2.016372716290e-03 0.0 
0.0 0.0 0.0 
2.380042696259e-05 2.473144908103e-04 0.0 
2.473144908103e-04 8.889449583585e-04 0.0 
0.0 0.0 0.0 
-5.003884272492e-06 2.717571582652e-04 0.0 
2.717571582652e-04 1.603175691571e-03 0.0 
0.0 0.0 0.0 
1.052113348183e-04 1.707601949924e-06 0.0 
1.707601949924e-06 5.169396739768e-04 0.0 
0.0 0.0 0.0 
7.873685483295e-05 -2.027810837406e-05 0.0 
-2.027810837406e-05 3.374440514334e-04 0.0 
0.0 0.0 0.0 
2.930889649044e-05 1.853625869215e-04 0.0 
1.853625869215e-04 1.285950976961e-03 0.0 
0.0 0.0 0.0 
6.818441552747e-05 1.896693589697e-04 0.0 
1.896693589697e-04 5.996921347851e-04 0.0 
0.0 0.0 0.0 
0.0 2.607721876627e-04 0.0 
2.607721876627e-04 1.891497452148e-03 0.0 
0.0 0.0 0.0 
-3.629732248078e-05 1.816919346391e-04 0.0 
1.816919346391e-04 1.957692118020e-03 0.0 
0.0 0.0 0.0 
-7.316211581099e-05 2.385730769117e-04 0.0 
2.385730769117e-04 1.378162504101e-03 0.0 
0.0 0.0 0.0 
-3.278245954397e-05 -2.248198176202e-05 0.0 
-2.248198176202e-05 7.438398520487e-05 0.0 
0.0 0.0 0.0 
0.0 2.856045165450e-04 0.0 
2.856045165450e-04 1.821555553694e-03 0.0 
0.0 0.0 0.0 
2.593426526887e-05 2.136272042846e-04 0.0 
2.136272042846e-04 1.334838680970e-03 0.0 
0.0 0.0 0.0 
9.357585274028e-05 3.338883472790e-06 0.0 
3.338883472790e-06 3.338009848446e-04 0.0 
0.0 0.0 0.0 
1.071001294062e-04 1.715013954272e-04 0.0 
1.715013954272e-04 1.000382439043e-03 0.0 
0.0 0.0 0.0 
1.628221218253e-05 2.969074024016e-04 0.0 
2.969074024016e-04 1.530034970749e-03 0.0 
0.0 0.0 0.0 
-5.497873722893e-05 -9.114610126021e-06 0.0 
-9.114610126021e-06 4.218420428836e-05 0.0 
0.0 0.0 0.0 
2.543263229349e-05 2.487909360630e-04 0.0 
2.487909360630e-04 9.516362768969e-04 0.0 
0.0 0.0 0.0 
-9.017985617943e-05 2.267840497668e-04 0.0 
2.267840497668e-04 1.457298684021e-03 0.0 
0.0 0.0 0.0 
-5.183588418123e-05 2.482287036485e-04 0.0 
2.482287036485e-04 1.292612101981e-03 0.0 
0.0 0.0 0.0 
-9.890989503902e-05 2.239095812030e-04 0.0 
2.239095812030e-04 1.412987330620e-03 0.0 
0.0 0.0 0.0 
4.846719240281e-05 1.587110262674e-04 0.0 
1.587110262674e-04 4.549371840750e-04 0.0 
0.0 0.0 0.0 
0.0 3.009066871744e-04 0.0 
3.009066871744e-04 1.743308629729e-03 0.0 
0.0 0.0 0.0 
1.176296721985e-04 1.179577506878e-04 0.0 
1.179577506878e-04 6.428617979954e-04 0.0 
0.0 0.0 0.0 
-1.284956296166e-05 6.174884903504e-06 0.0 
6.174884903504e-06 2.047710920794e-04 0.0 
0.0 0.0 0.0 
3.911222625930e-05 8.408004957989e-05 0.0 
8.408004957989e-05 1.198489351128e-03 0.0 
0.0 0.0 0.0 
-5.519105458918e-05 -2.098926328676e-05 0.0 
-2.098926328676e-05 8.051357261540e-05 0.0 
0.0 0.0 0.0 
-1.371948422733e-04 1.827984994133e-04 0.0 
1.827984994133e-04 1.376565319577e-03 0.0 
0.0 0.0 0.0 
1.591827336567e-05 -2.406228024219e-05 0.0 
-2.406228024219e-05 1.653198570697e-04 0.0 
0.0 0.0 0.0 
-1.560129139706e-04 1.041830371940e-04 0.0 
1.041830371940e-04 1.509337842609e-03 0.0 
0.0 0.0 0.0 
2.653758343962e-05 2.392302168270e-04 0.0 
2.392302168270e-04 1.404875118576e-03 0.0 
0.0 0.0 0.0 
0.0 3.044995643509e-04 0.0 
3.044995643509e-04 1.662729977062e-03 0.0 
0.0 0.0 0.0 
-1.374139638036e-04 1.685481832884e-04 0.0 
1.685481832884e-04 1.574410191645e-03 0.0 
0.0 0.0 0.0 
-1.534946606985e-05 -3.029243189568e-05 0.0 
-3.029243189568e-05 1.236634565591e-04 0.0 
0.0 0.0 0.0 
-2.197380713931e-05 2.737790358009e-05 0.0 
2.737790358009e-05 1.558773743215e-04 0.0 
0.0 0.0 0.0 
-1.501918747693e-05 -2.598835909231e-05 0.0 
-2.598835909231e-05 1.790390309693e-04 0.0 
0.0 0.0 0.0 
7.847090337165e-05 7.898818081519e-05 0.0 
7.898818081519e-05 1.027592462959e-03 0.0 
0.0 0.0 0.0 
-1.330514950675e-04 3.291115476711e-05 0.0 
3.291115476711e-05 1.618628685428e-03 0.0 
0.0 0.0 0.0 
-1.657337237345e-04 8.747362749099e-05 0.0 
8.747362749099e-05 1.628563969357e-03 0.0 
0.0 0.0 0.0 
0.0 2.966633700394e-04 0.0 
2.966633700394e-04 1.586097394545e-03 0.0 
0.0 0.0 0.0 
-1.263159380922e-04 2.362898028357e-05 0.0 
2.362898028357e-05 1.620724419951e-03 0.0 
0.0 0.0 0.0 
-2.787892916156e-05 1.725398150541e-04 0.0 
1.725398150541e-04 2.020083488572e-03 0.0 
0.0 0.0 0.0 
2.254988487316e-05 2.521908679033e-04 0.0 
2.521908679033e-04 1.323490743182e-03 0.0 
0.0 0.0 0.0 
-1.134794840696e-04 3.935176208711e-05 0.0 
3.935176208711e-05 1.721275541316e-03 0.0 
0.0 0.0 0.0 
-4.345938087513e-06 2.353030385940e-04 0.0 
2.353030385940e-04 7.644680544405e-04 0.0 
0.0 0.0 0.0 
1.140084567945e-04 1.887467284563e-04 0.0 
1.887467284563e-04 9.979410816376e-04 0.0 
0.0 0.0 0.0 
2.247771677588e-05 6.074454415554e-05 0.0 
6.074454415554e-05 3.198099785608e-04 0.0 
0.0 0.0 0.0 
0.0 2.777402849069e-04 0.0 
2.777402849069e-04 1.513330093919e-03 0.0 
0.0 0.0 0.0 
0.0 2.270830218546e-04 0.0 
2.270830218546e-04 1.948137669231e-03 0.0 
0.0 0.0 0.0 
0.0 1.903971897145e-04 0.0 
1.903971897145e-04 1.995217038761e-03 0.0 
0.0 0.0 0.0 
1.234838943041e-04 5.084587673636e-05 0.0 
5.084587673636e-05 7.592034956254e-04 0.0 
0.0 0.0 0.0 
8.957855793956e-05 -1.427725183359e-05 0.0 
-1.427725183359e-05 4.842474637108e-04 0.0 
0.0 0.0 0.0 
3.052150447203e-05 2.367360694726e-04 0.0 
2.367360694726e-04 1.015868259463e-03 0.0 
0.0 0.0 0.0 
1.301350336125e-04 6.295100859567e-05 0.0 
6.295100859567e-05 7.804266660685e-04 0.0 
0.0 0.0 0.0 
0.0 2.532232989260e-04 0.0 
2.532232989260e-04 1.450863709286e-03 0.0 
0.0 0.0 0.0 
6.289891521871e-05 1.285830303164e-04 0.0 
1.285830303164e-04 5.226040647062e-04 0.0 
0.0 0.0 0.0 
1.212743369863e-04 3.824803751087e-05 0.0 
3.824803751087e-05 4.171807798901e-04 0.0 
0.0 0.0 0.0 
1.246193750672e-04 3.087352430767e-05 0.0 
3.087352430767e-05 4.348879171368e-04 0.0 
0.0 0.0 0.0 
-1.062116841862e-04 4.097213199597e-05 0.0 
4.097213199597e-05 1.754672462456e-03 0.0 
0.0 0.0 0.0 
2.377950924437e-05 1.882006810423e-04 0.0 
1.882006810423e-04 1.341313991388e-03 0.0 
0.0 0.0 0.0 
-4.682734194050e-05 -2.763182890044e-05 0.0 
-2.763182890044e-05 1.344662982905e-04 0.0 
0.0 0.0 0.0 
0.0 2.212821020467e-04 0.0 
2.212821020467e-04 1.393002115654e-03 0.0 
0.0 0.0 0.0 
1.125415716086e-04 1.377629322561e-05 0.0 
1.377629322561e-05 3.929799452198e-04 0.0 
0.0 0.0 0.0 
0.0 2.750906222173e-04 0.0 
2.750906222173e-04 1.858780025509e-03 0.0 
0.0 0.0 0.0 
-8.842669920495e-05 2.148053094249e-04 0.0 
2.148053094249e-04 1.793626297908e-03 0.0 
0.0 0.0 0.0 
-8.641359498440e-05 -8.717321575491e-06 0.0 
-8.717321575491e-06 5.332756882370e-05 0.0 
0.0 0.0 0.0 
5.038139261382e-05 2.381743315913e-04 0.0 
2.381743315913e-04 9.187745492003e-04 0.0 
0.0 0.0 0.0 
-9.668149292730e-05 1.136342848435e-04 0.0 
1.136342848435e-04 1.915419017222e-03 0.0 
0.0 0.0 0.0 
0.0 2.951161123431e-04 0.0 
2.951161123431e-04 1.783316104041e-03 0.0 
0.0 0.0 0.0 
-1.331341215021e-04 1.906742493553e-04 0.0 
1.906742493553e-04 1.613144052193e-03 0.0 
0.0 0.0 0.0 
3.855857393220e-05 2.497877111182e-04 0.0 
2.497877111182e-04 1.306162464665e-03 0.0 
0.0 0.0 0.0 
8.560229650900e-06 1.290831374505e-04 0.0 
1.290831374505e-04 3.207891935166e-04 0.0 
0.0 0.0 0.0 
5.161317308700e-05 1.942423524063e-04 0.0 
1.942423524063e-04 1.253181939108e-03 0.0 
0.0 0.0 0.0 
1.148876992267e-04 1.004893248014e-05 0.0 
1.004893248014e-05 4.138846565185e-04 0.0 
0.0 0.0 0.0 
1.090683863154e-04 6.884243359262e-06 0.0 
6.884243359262e-06 4.381608122439e-04 0.0 
0.0 0.0 0.0 
-8.643759054583e-05 -2.189836538028e-05 0.0 
-2.189836538028e-05 9.823795059027e-05 0.0 
0.0 0.0 0.0 
0.0 3.039128410581e-04 0.0 
3.039128410581e-04 1.702857249443e-03 0.0 
0.0 0.0 0.0 
5.305208902162e-05 6.991325058979e-05 0.0 
6.991325058979e-05 3.786301709825e-04 0.0 
0.0 0.0 0.0 
8.964176956283e-05 1.301728606581e-04 0.0 
1.301728606581e-04 1.066185143515e-03 0.0 
0.0 0.0 0.0 
-1.216509313662e-04 2.376211404402e-05 0.0 
2.376211404402e-05 1.692637214905e-03 0.0 
0.0 0.0 0.0 
7.558160071919e-05 -2.975425744144e-05 0.0 
-2.975425744144e-05 3.441355068110e-04 0.0 
0.0 0.0 0.0 
1.051651641475e-04 1.173460483710e-05 0.0 
1.173460483710e-05 4.210885281053e-04 0.0 
0.0 0.0 0.0 
-1.252197544516e-04 2.050009356076e-04 0.0 
2.050009356076e-04 1.552692456195e-03 0.0 
0.0 0.0 0.0 
0.0 2.878683573913e-04 0.0 
2.878683573913e-04 1.549325517760e-03 0.0 
0.0 0.0 0.0 
9.713735847416e-05 -3.429123200753e-07 0.0 
-3.429123200753e-07 5.088482389939e-04 0.0 
0.0 0.0 0.0 
1.154733833733e-04 8.002593275097e-05 0.0 
8.002593275097e-05 8.791622074351e-04 0.0 
0.0 0.0 0.0 
-2.122008256888e-07 2.527025686903e-04 0.0 
2.527025686903e-04 1.168092305086e-03 0.0 
0.0 0.0 0.0 
1.303823534236e-04 9.418324471590e-05 0.0 
9.418324471590e-05 8.210210052870e-04 0.0 
0.0 0.0 0.0 
1.151855265524e-04 3.205107713394e-05 0.0 
3.205107713394e-05 4.687987429810e-04 0.0 
0.0 0.0 0.0 
1.234231613869e-04 6.671407383288e-05 0.0 
6.671407383288e-05 8.066838545324e-04 0.0 
0.0 0.0 0.0 
-1.928547924746e-05 2.504303310354e-04 0.0 
2.504303310354e-04 1.202775148099e-03 0.0 
0.0 0.0 0.0 
-3.396145800327e-05 2.484378391650e-04 0.0 
2.484378391650e-04 1.450859927431e-03 0.0 
0.0 0.0 0.0 
1.043313470255e-04 1.975842742283e-04 0.0 
1.975842742283e-04 1.071121849054e-03 0.0 
0.0 0.0 0.0 
2.515753268950e-05 2.488117589996e-04 0.0 
2.488117589996e-04 1.076352838315e-03 0.0 
0.0 0.0 0.0 
1.145561391487e-04 6.716772120886e-06 0.0 
6.716772120886e-06 5.265916572263e-04 0.0 
0.0 0.0 0.0 
5.994812245236e-05 1.572037650706e-04 0.0 
1.572037650706e-04 6.044061797033e-04 0.0 
0.0 0.0 0.0 
9.730976549815e-05 -2.737876803640e-06 0.0 
-2.737876803640e-06 4.824723233330e-04 0.0 
0.0 0.0 0.0 
2.245996090955e-05 2.446704103752e-04 0.0 
2.446704103752e-04 1.324812658439e-03 0.0 
0.0 0.0 0.0 
1.331022160971e-04 1.599631464204e-04 0.0 
1.599631464204e-04 8.535539197172e-04 0.0 
0.0 0.0 0.0 
2.638888510487e-05 2.225880948904e-04 0.0 
2.225880948904e-04 1.382619840077e-03 0.0 
0.0 0.0 0.0 
-9.074608676229e-05 1.332002750103e-04 0.0 
1.332002750103e-04 1.925461354721e-03 0.0 
0.0 0.0 0.0 
7.289723481652e-05 -1.848271428031e-05 0.0 
-1.848271428031e-05 3.081149098918e-04 0.0 
0.0 0.0 0.0 
0.0 2.370455155045e-04 0.0 
2.370455155045e-04 1.417479871031e-03 0.0 
0.0 0.0 0.0 
5.169474308842e-05 2.172754761780e-04 0.0 
2.172754761780e-04 1.321972568774e-03 0.0 
0.0 0.0 0.0 
9.076927686857e-05 2.122512815085e-04 0.0 
2.122512815085e-04 8.746375804927e-04 0.0 
0.0 0.0 0.0 
-4.646468844560e-05 -2.323946116983e-05 0.0 
-2.323946116983e-05 8.198847634810e-05 0.0 
0.0 0.0 0.0 
2.866252091382e-05 1.729973756268e-04 0.0 
1.729973756268e-04 1.324587858667e-03 0.0 
0.0 0.0 0.0 
-9.537841167617e-05 1.597885791050e-04 0.0 
1.597885791050e-04 1.893549838138e-03 0.0 
0.0 0.0 0.0 
9.830947916867e-05 -1.384925054791e-07 0.0 
-1.384925054791e-07 3.546014762785e-04 0.0 
0.0 0.0 0.0 
0.0 1.890078075516e-04 0.0 
1.890078075516e-04 1.349138434861e-03 0.0 
0.0 0.0 0.0 
1.177793481577e-04 6.374450593161e-05 0.0 
6.374450593161e-05 8.298934730291e-04 0.0 
0.0 0.0 0.0 
-6.314433974874e-05 2.493474581402e-04 0.0 
2.493474581402e-04 1.140584192197e-03 0.0 
0.0 0.0 0.0 
-1.501082569947e-04 1.023472468233e-04 0.0 
1.023472468233e-04 1.637170175468e-03 0.0 
0.0 0.0 0.0 
1.196576941509e-04 1.506217196553e-04 0.0 
1.506217196553e-04 8.552485398172e-04 0.0 
0.0 0.0 0.0 
1.257988628793e-04 3.777685745815e-05 0.0 
3.777685745815e-05 6.903538587186e-04 0.0 
0.0 0.0 0.0 
1.261501457119e-04 1.142646279758e-04 0.0 
1.142646279758e-04 8.795476126746e-04 0.0 
0.0 0.0 0.0 
-1.465866237024e-04 1.135603176172e-04 0.0 
1.135603176172e-04 1.760168153258e-03 0.0 
0.0 0.0 0.0 
-1.147801430197e-04 2.150255023057e-04 0.0 
2.150255023057e-04 1.332489773340e-03 0.0 
0.0 0.0 0.0 
8.996175903753e-05 2.152427782666e-04 0.0 
2.152427782666e-04 1.144934116522e-03 0.0 
0.0 0.0 0.0 
-8.403299126081e-05 4.884959415268e-06 0.0 
4.884959415268e-06 1.716921998916e-03 0.0 
0.0 0.0 0.0 
1.036379201891e-04 -6.870883483012e-06 0.0 
-6.870883483012e-06 5.286935162865e-04 0.0 
0.0 0.0 0.0 
1.177241987369e-04 1.790214887545e-04 0.0 
1.790214887545e-04 9.994925202561e-04 0.0 
0.0 0.0 0.0 
1.005692910885e-04 -1.055939811839e-05 0.0 
-1.055939811839e-05 4.165630882618e-04 0.0 
0.0 0.0 0.0 
1.087894646761e-04 3.227016250342e-05 0.0 
3.227016250342e-05 7.734139990987e-04 0.0 
0.0 0.0 0.0 
-1.015906543403e-04 -9.155468419931e-06 0.0 
-9.155468419931e-06 5.950304967861e-05 0.0 
0.0 0.0 0.0 
5.223084612038e-05 1.854672932543e-04 0.0 
1.854672932543e-04 6.940401718569e-04 0.0 
0.0 0.0 0.0 
9.727182901997e-05 -9.030488683939e-06 0.0 
-9.030488683939e-06 3.962921772072e-04 0.0 
0.0 0.0 0.0 
1.106360458487e-04 9.097668104188e-06 0.0 
9.097668104188e-06 5.787723371347e-04 0.0 
0.0 0.0 0.0 
7.067807871031e-05 2.285378288091e-04 0.0 
2.285378288091e-04 9.608288944851e-04 0.0 
0.0 0.0 0.0 
1.299298266175e-04 7.858085560101e-05 0.0 
7.858085560101e-05 8.276414105577e-04 0.0 
0.0 0.0 0.0 
-1.149020881086e-04 2.600098986861e-05 0.0 
2.600098986861e-05 1.729202100123e-03 0.0 
0.0 0.0 0.0 
8.407699406798e-05 -2.167474207374e-05 0.0 
-2.167474207374e-05 3.580344457748e-04 0.0 
0.0 0.0 0.0 
0.0 1.744753153420e-04 0.0 
1.744753153420e-04 1.333423505075e-03 0.0 
0.0 0.0 0.0 
-8.716542465881e-05 2.340109799623e-04 0.0 
2.340109799623e-04 1.456294628483e-03 0.0 
0.0 0.0 0.0 
1.081726222998e-04 1.020413584425e-05 0.0 
1.020413584425e-05 6.052874449152e-04 0.0 
0.0 0.0 0.0 
-6.728352311169e-05 2.435170260825e-04 0.0 
2.435170260825e-04 1.377443000548e-03 0.0 
0.0 0.0 0.0 
1.016896685058e-04 -2.944205439958e-06 0.0 
-2.944205439958e-06 5.806142579889e-04 0.0 
0.0 0.0 0.0 
-6.557408308794e-05 -9.376008174359e-06 0.0 
-9.376008174359e-06 4.706111251696e-05 0.0 
0.0 0.0 0.0 
-1.614931729929e-04 1.044831875436e-04 0.0 
1.044831875436e-04 1.675255797837e-03 0.0 
0.0 0.0 0.0 
8.360656375861e-05 1.308436083473e-06 0.0 
1.308436083473e-06 4.721989822238e-04 0.0 
0.0 0.0 0.0 
-1.235338700867e-05 -5.875295093842e-06 0.0 
-5.875295093842e-06 2.268316600684e-05 0.0 
0.0 0.0 0.0 
1.028224619479e-04 5.415973827845e-06 0.0 
5.415973827845e-06 5.694304489354e-04 0.0 
0.0 0.0 0.0 
1.198654768662e-04 9.044481272957e-05 0.0 
9.044481272957e-05 9.003893932213e-04 0.0 
0.0 0.0 0.0 
-5.119054483693e-05 3.711988306942e-05 0.0 
3.711988306942e-05 1.936934296866e-03 0.0 
0.0 0.0 0.0 
1.325129751510e-04 1.008975315997e-04 0.0 
1.008975315997e-04 8.078143556633e-04 0.0 
0.0 0.0 0.0 
1.422874987818e-04 1.115065052086e-04 0.0 
1.115065052086e-04 8.179550893050e-04 0.0 
0.0 0.0 0.0 
-1.654997109876e-04 7.053424254562e-05 0.0 
7.053424254562e-05 1.581393440635e-03 0.0 
0.0 0.0 0.0 
-1.257128534117e-04 1.160636119089e-05 0.0 
1.160636119089e-05 1.569405617117e-03 0.0 
0.0 0.0 0.0 
-2.885404374198e-05 1.389031414167e-04 0.0 
1.389031414167e-04 2.001801882809e-03 0.0 
0.0 0.0 0.0 
-4.435666743463e-05 2.490186047882e-04 0.0 
2.490186047882e-04 1.292477533029e-03 0.0 
0.0 0.0 0.0 
-1.710582881220e-05 -4.944005071582e-06 0.0 
-4.944005071582e-06 2.351542964574e-05 0.0 
0.0 0.0 0.0 
1.884658669526e-05 -3.753238288593e-05 0.0 
-3.753238288593e-05 1.895592621157e-04 0.0 
0.0 0.0 0.0 
-4.145284858892e-05 -2.362484083842e-05 0.0 
-2.362484083842e-05 7.872840168988e-05 0.0 
0.0 0.0 0.0 
6.697749700257e-05 -3.212276490600e-05 0.0 
-3.212276490600e-05 3.314191194008e-04 0.0 
0.0 0.0 0.0 
-5.414365495293e-05 2.493667553108e-04 0.0 
2.493667553108e-04 1.650091902327e-03 0.0 
0.0 0.0 0.0 
-5.885403214112e-05 3.011825434601e-05 0.0 
3.011825434601e-05 1.937799809798e-03 0.0 
0.0 0.0 0.0 
9.245956946513e-05 7.654721378190e-05 0.0 
7.654721378190e-05 9.767002489565e-04 0.0 
0.0 0.0 0.0 
7.517036564808e-05 -2.690976876277e-05 0.0 
-2.690976876277e-05 3.755866400694e-04 0.0 
0.0 0.0 0.0 
1.011679979759e-04 2.046375000644e-05 0.0 
2.046375000644e-05 7.753641922490e-04 0.0 
0.0 0.0 0.0 
9.125830249102e-05 1.373150127637e-04 0.0 
1.373150127637e-04 1.083613112272e-03 0.0 
0.0 0.0 0.0 
2.612524361933e-05 1.543464760737e-05 0.0 
1.543464760737e-05 2.604484727260e-04 0.0 
0.0 0.0 0.0 
8.166128039466e-05 -9.279444288704e-06 0.0 
-9.279444288704e-06 4.723895672221e-04 0.0 
0.0 0.0 0.0 
7.115143247760e-05 1.570829888807e-06 0.0 
1.570829888807e-06 3.843154102365e-04 0.0 
0.0 0.0 0.0 
2.466010447599e-05 1.560885045004e-04 0.0 
1.560885045004e-04 1.307954282101e-03 0.0 
0.0 0.0 0.0 
0.0 1.570311510635e-04 0.0 
1.570311510635e-04 1.315768554528e-03 0.0 
0.0 0.0 0.0 
8.771041273281e-05 -6.481868538868e-06 0.0 
-6.481868538868e-06 5.293911882949e-04 0.0 
0.0 0.0 0.0 
1.005959662672e-04 -1.299569531786e-06 0.0 
-1.299569531786e-06 6.070873206949e-04 0.0 
0.0 0.0 0.0 
1.343003632812e-04 5.113754905676e-05 0.0 
5.113754905676e-05 7.112556728646e-04 0.0 
0.0 0.0 0.0 
8.280887178658e-05 1.572726644036e-04 0.0 
1.572726644036e-04 1.142212223554e-03 0.0 
0.0 0.0 0.0 
3.186740823069e-05 -2.221204509191e-05 0.0 
-2.221204509191e-05 2.071920737501e-04 0.0 
0.0 0.0 0.0 
9.982013501442e-05 1.190714801612e-04 0.0 
1.190714801612e-04 1.027789285207e-03 0.0 
0.0 0.0 0.0 
5.774473661679e-06 -1.263439630434e-05 0.0 
-1.263439630434e-05 1.102109456428e-04 0.0 
0.0 0.0 0.0 
9.601608489240e-05 -7.928511958041e-06 0.0 
-7.928511958041e-06 5.450114208214e-04 0.0 
0.0 0.0 0.0 
1.067543978897e-04 3.746602731589e-06 0.0 
3.746602731589e-06 6.174589180199e-04 0.0 
0.0 0.0 0.0 
8.477065396084e-06 -7.018640959147e-06 0.0 
-7.018640959147e-06 5.703069006779e-05 0.0 
0.0 0.0 0.0 
8.665673495467e-05 3.247389707142e-06 0.0 
3.247389707142e-06 5.001786325258e-04 0.0 
0.0 0.0 0.0 
-7.339441010246e-05 1.343658952247e-04 0.0 
1.343658952247e-04 1.925127213572e-03 0.0 
0.0 0.0 0.0 
-1.215535259380e-05 -4.285685763036e-06 0.0 
-4.285685763036e-06 2.162504059244e-05 0.0 
0.0 0.0 0.0 
-1.323607591449e-04 1.816323045586e-05 0.0 
1.816323045586e-05 1.569879486669e-03 0.0 
0.0 0.0 0.0 
-1.279552979413e-04 2.399874387481e-05 0.0 
2.399874387481e-05 1.562601989024e-03 0.0 
0.0 0.0 0.0 
1.193427797168e-04 1.344092173223e-04 0.0 
1.344092173223e-04 9.416780025808e-04 0.0 
0.0 0.0 0.0 
6.880934502562e-05 -7.536721267957e-06 0.0 
-7.536721267957e-06 3.839804039494e-04 0.0 
0.0 0.0 0.0 
1.017981703215e-04 -2.412677052963e-06 0.0 
-2.412677052963e-06 3.765545262158e-04 0.0 
0.0 0.0 0.0 
8.678049243871e-06 1.410622677291e-04 0.0 
1.410622677291e-04 4.858841333772e-04 0.0 
0.0 0.0 0.0 
6.572358023127e-05 7.865581656940e-05 0.0 
7.865581656940e-05 1.078096956660e-03 0.0 
0.0 0.0 0.0 
-5.913437453153e-06 2.843253616337e-04 0.0 
2.843253616337e-04 1.675155728413e-03 0.0 
0.0 0.0 0.0 
-7.956473675363e-05 4.574209179481e-05 0.0 
4.574209179481e-05 1.902534342035e-03 0.0 
0.0 0.0 0.0 
-8.536784365187e-06 2.120320919697e-04 0.0 
2.120320919697e-04 7.674062372951e-04 0.0 
0.0 0.0 0.0 
-2.493237818646e-06 -1.931699453513e-05 0.0 
-1.931699453513e-05 1.304621753473e-04 0.0 
0.0 0.0 0.0 
-1.548145920856e-04 1.855829707498e-04 0.0 
1.855829707498e-04 1.439556602597e-03 0.0 
0.0 0.0 0.0 
-1.064585662346e-04 3.360964451119e-06 0.0 
3.360964451119e-06 1.567744493723e-03 0.0 
0.0 0.0 0.0 
-1.013963607801e-04 1.819970259356e-06 0.0 
1.819970259356e-06 1.564173013976e-03 0.0 
0.0 0.0 0.0 
-5.744481388681e-06 -4.974253075508e-06 0.0 
-4.974253075508e-06 2.027992862863e-05 0.0 
0.0 0.0 0.0 
5.784228322092e-06 -9.041002009374e-06 0.0 
-9.041002009374e-06 5.816214137910e-05 0.0 
0.0 0.0 0.0 
1.932234186031e-05 -7.304827679980e-06 0.0 
-7.304827679980e-06 1.057294155609e-04 0.0 
0.0 0.0 0.0 
5.703549427061e-05 -1.924637815873e-05 0.0 
-1.924637815873e-05 2.853975418651e-04 0.0 
0.0 0.0 0.0 
1.959988701783e-06 -6.085071238365e-06 0.0 
-6.085071238365e-06 5.812560722074e-05 0.0 
0.0 0.0 0.0 
8.995381985177e-05 4.138246917335e-06 0.0 
4.138246917335e-06 5.615695406267e-04 0.0 
0.0 0.0 0.0 
-9.590664999126e-05 -8.570856179823e-06 0.0 
-8.570856179823e-06 5.982037709029e-05 0.0 
0.0 0.0 0.0 
7.251841304101e-05 -1.589369586287e-05 0.0 
-1.589369586287e-05 3.412973975310e-04 0.0 
0.0 0.0 0.0 
-7.375436004220e-05 9.535669777635e-06 0.0 
9.535669777635e-06 1.768652033876e-03 0.0 
0.0 0.0 0.0 
-1.150644448099e-04 1.058201196235e-05 0.0 
1.058201196235e-05 1.564431651434e-03 0.0 
0.0 0.0 0.0 
-5.937386288157e-05 2.467591701980e-04 0.0 
2.467591701980e-04 1.713829284230e-03 0.0 
0.0 0.0 0.0 
1.224389394552e-04 7.453242786621e-05 0.0 
7.453242786621e-05 8.515038302093e-04 0.0 
0.0 0.0 0.0 
-7.854313669153e-05 6.775073776912e-06 0.0 
6.775073776912e-06 1.714903822684e-03 0.0 
0.0 0.0 0.0 
7.365455019204e-05 4.862457063453e-06 0.0 
4.862457063453e-06 4.119027945166e-04 0.0 
0.0 0.0 0.0 
1.119097603186e-05 -8.200205722687e-06 0.0 
-8.200205722687e-06 1.073857822949e-04 0.0 
0.0 0.0 0.0 
0.0 6.991107957559e-05 0.0 
6.991107957559e-05 2.074800133528e-03 0.0 
0.0 0.0 0.0 
-2.094723949819e-05 7.824407998301e-05 0.0 
7.824407998301e-05 2.072272619641e-03 0.0 
0.0 0.0 0.0 
-1.091005900614e-04 2.897954431663e-05 0.0 
2.897954431663e-05 1.692229571674e-03 0.0 
0.0 0.0 0.0 
-1.136090415176e-04 4.714741338236e-06 0.0 
4.714741338236e-06 1.567889610114e-03 0.0 
0.0 0.0 0.0 
7.375318693925e-05 -8.518269597684e-06 0.0 
-8.518269597684e-06 4.176182008675e-04 0.0 
0.0 0.0 0.0 
-1.713329941666e-05 5.386818540081e-05 0.0 
5.386818540081e-05 2.079665413991e-03 0.0 
0.0 0.0 0.0 
6.119169371810e-05 -3.168965895010e-05 0.0 
-3.168965895010e-05 3.192970298065e-04 0.0 
0.0 0.0 0.0 
-1.209574417578e-04 1.573920128497e-05 0.0 
1.573920128497e-05 1.563139995500e-03 0.0 
0.0 0.0 0.0 
-1.177845839669e-04 8.180875153771e-06 0.0 
8.180875153771e-06 1.568246301222e-03 0.0 
0.0 0.0 0.0 
-1.551264965396e-04 1.203939041142e-04 0.0 
1.203939041142e-04 1.465092746603e-03 0.0 
0.0 0.0 0.0 
0.0 1.574522705100e-04 0.0 
1.574522705100e-04 2.028032182555e-03 0.0 
0.0 0.0 0.0 
-1.905807739622e-05 6.626569555534e-05 0.0 
6.626569555534e-05 2.076928925712e-03 0.0 
0.0 0.0 0.0 
-1.997172752732e-06 -7.931775426339e-06 0.0 
-7.931775426339e-06 5.948831257241e-05 0.0 
0.0 0.0 0.0 
-2.001268086249e-06 -3.553979446790e-06 0.0 
-3.553979446790e-06 1.908560103359e-05 0.0 
0.0 0.0 0.0 
9.899917731149e-06 -1.976219567603e-05 0.0 
-1.976219567603e-05 1.547540329485e-04 0.0 
0.0 0.0 0.0 
1.165923912898e-04 1.646862921192e-05 0.0 
1.646862921192e-05 6.155118338660e-04 0.0 
0.0 0.0 0.0 
4.134336857975e-05 1.470687976864e-05 0.0 
1.470687976864e-05 1.113546367462e-03 0.0 
0.0 0.0 0.0 
-1.489973921042e-04 -1.099938645539e-05 0.0 
-1.099938645539e-05 7.856961252406e-05 0.0 
0.0 0.0 0.0 
-5.670854431084e-05 4.637292294714e-07 0.0 
4.637292294714e-07 1.891510415061e-03 0.0 
0.0 0.0 0.0 
-8.617796917021e-05 -9.810892112397e-06 0.0 
-9.810892112397e-06 5.638466586144e-05 0.0 
0.0 0.0 0.0 
1.342100466748e-04 1.239723096553e-04 0.0 
1.239723096553e-04 8.907018405024e-04 0.0 
0.0 0.0 0.0 
-1.182569247041e-04 -9.582511158746e-06 0.0 
-9.582511158746e-06 6.679642709062e-05 0.0 
0.0 0.0 0.0 
-1.337996824100e-04 -1.082789471256e-05 0.0 
-1.082789471256e-05 7.287018291868e-05 0.0 
0.0 0.0 0.0 
1.387887153361e-04 1.049142281076e-04 0.0 
1.049142281076e-04 8.344250815870e-04 0.0 
0.0 0.0 0.0 
5.203091683059e-05 3.714257119857e-05 0.0 
3.714257119857e-05 1.078686103407e-03 0.0 
0.0 0.0 0.0 
-7.871144489957e-05 4.580684662360e-06 0.0 
4.580684662360e-06 1.764339453252e-03 0.0 
0.0 0.0 0.0 
-1.309111185552e-04 2.143930911792e-04 0.0 
2.143930911792e-04 1.408126730000e-03 0.0 
0.0 0.0 0.0 
1.121441652185e-05 -5.696335615325e-06 0.0 
-5.696335615325e-06 5.558892392798e-05 0.0 
0.0 0.0 0.0 
9.634868994146e-05 1.892954014462e-05 0.0 
1.892954014462e-05 8.032268197586e-04 0.0 
0.0 0.0 0.0 
0.0 2.086417735951e-05 0.0 
2.086417735951e-05 2.082085024226e-03 0.0 
0.0 0.0 0.0 
-1.485200854612e-05 2.197373554692e-05 0.0 
2.197373554692e-05 2.083826120557e-03 0.0 
0.0 0.0 0.0 
-1.095403590127e-04 6.894554746641e-06 0.0 
6.894554746641e-06 1.564014288076e-03 0.0 
0.0 0.0 0.0 
1.272234364118e-04 1.431074475281e-04 0.0 
1.431074475281e-04 9.502572831466e-04 0.0 
0.0 0.0 0.0 
0.0 5.855790630235e-05 0.0 
5.855790630235e-05 2.079200700345e-03 0.0 
0.0 0.0 0.0 
3.521767563952e-05 2.403379447272e-04 0.0 
2.403379447272e-04 1.307552447325e-03 0.0 
0.0 0.0 0.0 
1.162215838391e-05 -3.946864036806e-06 0.0 
-3.946864036806e-06 1.044314205623e-04 0.0 
0.0 0.0 0.0 
5.355678110774e-06 -4.800085349330e-06 0.0 
-4.800085349330e-06 5.650283584435e-05 0.0 
0.0 0.0 0.0 
1.188795658136e-05 -4.751545374672e-06 0.0 
-4.751545374672e-06 5.471735595686e-05 0.0 
0.0 0.0 0.0 
8.205374847825e-05 4.802865086178e-06 0.0 
4.802865086178e-06 4.704996711411e-04 0.0 
0.0 0.0 0.0 
1.623303223330e-05 3.122289989353e-05 0.0 
3.122289989353e-05 1.242234134726e-03 0.0 
0.0 0.0 0.0 
-2.455856640615e-05 -3.888807572082e-06 0.0 
-3.888807572082e-06 2.028830787103e-03 0.0 
0.0 0.0 0.0 
5.522972159389e-06 -8.600917322716e-07 0.0 
-8.600917322716e-07 1.477498837521e-05 0.0 
0.0 0.0 0.0 
9.026689568237e-05 -5.295984817773e-06 0.0 
-5.295984817773e-06 5.615831466308e-04 0.0 
0.0 0.0 0.0 
0.0 2.766521833511e-05 0.0 
2.766521833511e-05 1.245072276647e-03 0.0 
0.0 0.0 0.0 
1.860186209224e-05 4.504301108158e-05 0.0 
4.504301108158e-05 1.243566049757e-03 0.0 
0.0 0.0 0.0 
2.866372131360e-05 1.401744579852e-04 0.0 
1.401744579852e-04 1.293578019351e-03 0.0 
0.0 0.0 0.0 
-6.523065267283e-05 7.961045455308e-06 0.0 
7.961045455308e-06 1.835493545691e-03 0.0 
0.0 0.0 0.0 
-5.050151386543e-05 -4.118670211300e-06 0.0 
-4.118670211300e-06 1.920149003275e-03 0.0 
0.0 0.0 0.0 
0.0 3.699310924754e-05 0.0 
3.699310924754e-05 1.240353708868e-03 0.0 
0.0 0.0 0.0 
0.0 4.751105330333e-05 0.0 
4.751105330333e-05 1.246916820772e-03 0.0 
0.0 0.0 0.0 
-5.533626939069e-05 8.098041096163e-06 0.0 
8.098041096163e-06 1.891779262257e-03 0.0 
0.0 0.0 0.0 
1.642604301022e-06 1.120784691588e-06 0.0 
1.120784691588e-06 1.376889101778e-05 0.0 
0.0 0.0 0.0 
-9.501538419099e-05 8.783593836388e-07 0.0 
8.783593836388e-07 1.560410905890e-03 0.0 
0.0 0.0 0.0 
-1.055017423974e-04 4.830925654403e-06 0.0 
4.830925654403e-06 1.565724961665e-03 0.0 
0.0 0.0 0.0 
1.990314537625e-06 -2.174939699870e-06 0.0 
-2.174939699870e-06 1.742316551767e-05 0.0 
0.0 0.0 0.0 
0.0 8.643057072368e-05 0.0 
8.643057072368e-05 1.265641479491e-03 0.0 
0.0 0.0 0.0 
2.493444148444e-05 1.246014358830e-04 0.0 
1.246014358830e-04 1.280597482100e-03 0.0 
0.0 0.0 0.0 
0.0 1.122288031626e-04 0.0 
1.122288031626e-04 1.274530481987e-03 0.0 
0.0 0.0 0.0 
-4.271564556957e-06 -9.389853606117e-07 0.0 
-9.389853606117e-07 1.805991373471e-05 0.0 
0.0 0.0 0.0 
-7.861517647423e-06 -2.719797638661e-06 0.0 
-2.719797638661e-06 2.007609386023e-05 0.0 
0.0 0.0 0.0 
0.0 1.424842491813e-04 0.0 
1.424842491813e-04 1.300465475985e-03 0.0 
0.0 0.0 0.0 
0.0 1.265967367384e-04 0.0 
1.265967367384e-04 1.287241171767e-03 0.0 
0.0 0.0 0.0 
-7.001752248137e-05 -4.817938687062e-06 0.0 
-4.817938687062e-06 1.806255136800e-03 0.0 
0.0 0.0 0.0 
-8.966124216481e-05 8.218460392339e-07 0.0 
8.218460392339e-07 1.557024322917e-03 0.0 
0.0 0.0 0.0 
-6.045506105090e-05 -4.490919157379e-06 0.0 
-4.490919157379e-06 1.863712540682e-03 0.0 
0.0 0.0 0.0 
-8.152263678385e-05 -5.092129247056e-06 0.0 
-5.092129247056e-06 1.686660345605e-03 0.0 
0.0 0.0 0.0 
-8.691769987723e-05 1.172242860051e-07 0.0 
1.172242860051e-07 1.555780784999e-03 0.0 
0.0 0.0 0.0 
-2.629855034186e-05 -3.988231752496e-06 0.0 
-3.988231752496e-06 2.777571950840e-05 0.0 
0.0 0.0 0.0 
-4.820518460724e-05 -7.380017681529e-06 0.0 
-7.380017681529e-06 3.862892224960e-05 0.0 
0.0 0.0 0.0 
-5.755607529856e-05 -7.460813862404e-06 0.0 
-7.460813862404e-06 4.084694629514e-05 0.0 
0.0 0.0 0.0 
-7.224525564398e-05 -8.454243987109e-06 0.0 
-8.454243987109e-06 4.736637273561e-05 0.0 
0.0 0.0 0.0 
9.211070274961e-05 5.821631264467e-06 0.0 
5.821631264467e-06 5.934225163535e-04 0.0 
0.0 0.0 0.0 
8.851102418417e-05 5.099437786675e-06 0.0 
5.099437786675e-06 5.306679051029e-04 0.0 
0.0 0.0 0.0 
-3.405127649547e-05 -7.095803110702e-06 0.0 
-7.095803110702e-06 3.358277016097e-05 0.0 
0.0 0.0 0.0 
9.154797945210e-05 6.174090091172e-06 0.0 
6.174090091172e-06 7.864256284233e-04 0.0 
0.0 0.0 0.0 
-4.611789641817e-05 -8.547062722585e-06 0.0 
-8.547062722585e-06 3.821100208179e-05 0.0 
0.0 0.0 0.0 
0.0 1.247625775491e-04 0.0 
1.247625775491e-04 2.050554159638e-03 0.0 
0.0 0.0 0.0 
0.0 4.855395757436e-05 0.0 
4.855395757436e-05 2.080115592136e-03 0.0 
0.0 0.0 0.0 
0.0 8.275135537980e-05 0.0 
8.275135537980e-05 2.069563229816e-03 0.0 
0.0 0.0 0.0 
3.050271456573e-05 5.308799002330e-06 0.0 
5.308799002330e-06 1.828453872654e-04 0.0 
0.0 0.0 0.0 
6.430256335266e-05 4.839299198772e-06 0.0 
4.839299198772e-06 3.540445460661e-04 0.0 
0.0 0.0 0.0 
0.0 3.794061626077e-05 0.0 
3.794061626077e-05 2.079673491834e-03 0.0 
0.0 0.0 0.0 
6.446037158003e-05 5.542549586836e-06 0.0 
5.542549586836e-06 1.001999543369e-03 0.0 
0.0 0.0 0.0 
0.0 2.946872277913e-05 0.0 
2.946872277913e-05 2.086830194682e-03 0.0 
0.0 0.0 0.0 
4.874954823331e-05 5.918555080958e-06 0.0 
5.918555080958e-06 1.078188784884e-03 0.0 
0.0 0.0 0.0 
3.056804356305e-05 7.313226709333e-06 0.0 
7.313226709333e-06 1.156665946997e-03 0.0 
0.0 0.0 0.0 
8.527053778407e-05 -6.550251939240e-06 0.0 
-6.550251939240e-06 5.001822795885e-04 0.0 
0.0 0.0 0.0 
-1.870274687010e-05 4.281332541487e-05 0.0 
4.281332541487e-05 2.079884578279e-03 0.0 
0.0 0.0 0.0 
-1.492413922777e-05 3.788447306211e-05 0.0 
3.788447306211e-05 2.082383447971e-03 0.0 
0.0 0.0 0.0 
5.589252123617e-05 1.477186347831e-06 0.0 
1.477186347831e-06 1.035994051834e-03 0.0 
0.0 0.0 0.0 
3.946006943600e-05 2.487334479148e-06 0.0 
2.487334479148e-06 1.114239547435e-03 0.0 
0.0 0.0 0.0 
8.696817766096e-05 1.434750181157e-05 0.0 
1.434750181157e-05 8.608965691894e-04 0.0 
0.0 0.0 0.0 
-7.626553592288e-05 -1.009929936774e-05 0.0 
-1.009929936774e-05 5.217514495448e-05 0.0 
0.0 0.0 0.0 
8.976464497712e-05 -1.134453504651e-05 0.0 
-1.134453504651e-05 5.104379962650e-04 0.0 
0.0 0.0 0.0 
-5.491139340563e-06 -1.035976212695e-05 0.0 
-1.035976212695e-05 6.000163243747e-05 0.0 
0.0 0.0 0.0 
5.991171367326e-05 6.894471315373e-05 0.0 
6.894471315373e-05 1.079094405147e-03 0.0 
0.0 0.0 0.0 
1.041075121000e-04 3.549674759872e-06 0.0 
3.549674759872e-06 5.432270117269e-04 0.0 
0.0 0.0 0.0 
7.554866194881e-05 3.812162766810e-05 0.0 
3.812162766810e-05 9.727129979256e-04 0.0 
0.0 0.0 0.0 
4.563352352727e-05 -3.494856578908e-05 0.0 
-3.494856578908e-05 2.638457932691e-04 0.0 
0.0 0.0 0.0 
8.272784999486e-06 -1.251115651327e-05 0.0 
-1.251115651327e-05 1.067275749065e-04 0.0 
0.0 0.0 0.0 
5.837611140458e-05 3.198724919585e-05 0.0 
3.198724919585e-05 1.047590582196e-03 0.0 
0.0 0.0 0.0 
9.644269012488e-05 -5.801004148240e-06 0.0 
-5.801004148240e-06 5.712726358076e-04 0.0 
0.0 0.0 0.0 
7.806744267325e-05 2.436969405736e-06 0.0 
2.436969405736e-06 4.416943257068e-04 0.0 
0.0 0.0 0.0 
7.239754014088e-05 2.739633388107e-05 0.0 
2.739633388107e-05 9.744354279329e-04 0.0 
0.0 0.0 0.0 
-3.789805796017e-05 2.044117365071e-05 0.0 
2.044117365071e-05 1.969455439413e-03 0.0 
0.0 0.0 0.0 
7.782457739314e-05 -7.228895709185e-06 0.0 
-7.228895709185e-06 4.415114617324e-04 0.0 
0.0 0.0 0.0 
1.042564744274e-04 9.312189846880e-05 0.0 
9.312189846880e-05 9.538377194183e-04 0.0 
0.0 0.0 0.0 
1.160422837674e-04 4.460113463167e-05 0.0 
4.460113463167e-05 7.876026898528e-04 0.0 
0.0 0.0 0.0 
9.045684876785e-05 2.554122441095e-05 0.0 
2.554122441095e-05 8.591501749200e-04 0.0 
0.0 0.0 0.0 
8.405879178608e-05 2.144870458304e-05 0.0 
2.144870458304e-05 8.900725349366e-04 0.0 
0.0 0.0 0.0 
1.317531449907e-04 1.206579338353e-04 0.0 
1.206579338353e-04 5.697809211607e-04 0.0 
0.0 0.0 0.0 
-1.395493562344e-04 2.099249054447e-04 0.0 
2.099249054447e-04 1.372718271619e-03 0.0 
0.0 0.0 0.0 
5.274335278593e-05 2.241887784868e-04 0.0 
2.241887784868e-04 9.865534345095e-04 0.0 
0.0 0.0 0.0 
1.027058138190e-04 3.050587055570e-05 0.0 
3.050587055570e-05 8.014050888967e-04 0.0 
0.0 0.0 0.0 
6.528514493964e-05 2.175541057488e-05 0.0 
2.175541057488e-05 1.005897435533e-03 0.0 
0.0 0.0 0.0 
7.776001966686e-05 1.736044706330e-05 0.0 
1.736044706330e-05 9.223267613601e-04 0.0 
0.0 0.0 0.0 
5.887856707831e-05 -2.249965484415e-05 0.0 
-2.249965484415e-05 2.746262381788e-04 0.0 
0.0 0.0 0.0 
-4.175910994553e-05 3.361799020103e-05 0.0 
3.361799020103e-05 1.966346954492e-03 0.0 
0.0 0.0 0.0 
-5.497064317528e-05 2.896636452943e-05 0.0 
2.896636452943e-05 1.912112260597e-03 0.0 
0.0 0.0 0.0 
-8.874790089586e-05 1.066309407042e-05 0.0 
1.066309407042e-05 1.643968385922e-03 0.0 
0.0 0.0 0.0 
1.020274754537e-04 3.995291670834e-05 0.0 
3.995291670834e-05 8.427238988229e-04 0.0 
0.0 0.0 0.0 
9.655749860360e-05 2.825341217603e-05 0.0 
2.825341217603e-05 8.300234092911e-04 0.0 
0.0 0.0 0.0 
-4.361207925174e-05 1.338972251103e-05 0.0 
1.338972251103e-05 1.971556473334e-03 0.0 
0.0 0.0 0.0 
-4.789563712981e-05 2.534858015444e-05 0.0 
2.534858015444e-05 1.941580040984e-03 0.0 
0.0 0.0 0.0 
1.120138326256e-04 3.338251032300e-05 0.0 
3.338251032300e-05 7.633859982721e-04 0.0 
0.0 0.0 0.0 
5.060706336657e-05 2.523025204307e-05 0.0 
2.523025204307e-05 1.079759970240e-03 0.0 
0.0 0.0 0.0 
-6.847234502994e-05 5.171295444116e-05 0.0 
5.171295444116e-05 1.901792566467e-03 0.0 
0.0 0.0 0.0 
7.562142430695e-05 6.450875764939e-06 0.0 
6.450875764939e-06 9.223164964507e-04 0.0 
0.0 0.0 0.0 
4.969756614215e-05 6.131243754425e-05 0.0 
6.131243754425e-05 1.112561386936e-03 0.0 
0.0 0.0 0.0 
-4.824678891668e-05 2.647506145391e-05 0.0 
2.647506145391e-05 1.967574375680e-03 0.0 
0.0 0.0 0.0 
-8.020092310779e-05 1.782739248184e-05 0.0 
1.782739248184e-05 1.826538366099e-03 0.0 
0.0 0.0 0.0 
1.088002104577e-04 7.646480512392e-05 0.0 
7.646480512392e-05 9.025676189920e-04 0.0 
0.0 0.0 0.0 
4.951351621729e-05 -9.721793834361e-06 0.0 
-9.721793834361e-06 2.707879053307e-04 0.0 
0.0 0.0 0.0 
5.143477562131e-05 -2.290990339967e-05 0.0 
-2.290990339967e-05 2.535968477928e-04 0.0 
0.0 0.0 0.0 
-9.796722670874e-07 -3.529158117348e-05 0.0 
-3.529158117348e-05 1.326305859026e-04 0.0 
0.0 0.0 0.0 
-7.633055105227e-05 -2.297489390902e-05 0.0 
-2.297489390902e-05 9.176914800202e-05 0.0 
0.0 0.0 0.0 
-5.177779230547e-05 1.809459274945e-05 0.0 
1.809459274945e-05 1.942294846551e-03 0.0 
0.0 0.0 0.0 
5.895410749979e-05 2.720578994359e-05 0.0 
2.720578994359e-05 1.035179636656e-03 0.0 
0.0 0.0 0.0 
-6.568428777975e-05 -2.249526031917e-05 0.0 
-2.249526031917e-05 8.584753441143e-05 0.0 
0.0 0.0 0.0 
-9.584163448817e-05 1.866975837037e-04 0.0 
1.866975837037e-04 1.851358525393e-03 0.0 
0.0 0.0 0.0 
-8.888398282347e-05 1.335387101749e-05 0.0 
1.335387101749e-05 1.673701084121e-03 0.0 
0.0 0.0 0.0 
7.932020185430e-05 3.146389955640e-05 0.0 
3.146389955640e-05 9.451554196223e-04 0.0 
0.0 0.0 0.0 
7.287326299266e-05 2.465835524601e-05 0.0 
2.465835524601e-05 9.612863325144e-04 0.0 
0.0 0.0 0.0 
1.040515939474e-04 -3.776895790727e-06 0.0 
-3.776895790727e-06 3.982078416733e-04 0.0 
0.0 0.0 0.0 
7.126383378053e-05 1.355855251764e-05 0.0 
1.355855251764e-05 9.628907584587e-04 0.0 
0.0 0.0 0.0 
-9.281647869419e-05 -2.070683832142e-07 0.0 
-2.070683832142e-07 1.643727541732e-03 0.0 
0.0 0.0 0.0 
9.734794059324e-05 1.823139720496e-04 0.0 
1.823139720496e-04 1.073406324334e-03 0.0 
0.0 0.0 0.0 
4.289548036929e-05 6.739239864476e-05 0.0 
6.739239864476e-05 1.144163786301e-03 0.0 
0.0 0.0 0.0 
4.743092454329e-05 -3.686443377934e-06 0.0 
-3.686443377934e-06 2.612874155383e-04 0.0 
0.0 0.0 0.0 
5.178997455646e-05 8.297261039878e-05 0.0 
8.297261039878e-05 1.129892067973e-03 0.0 
0.0 0.0 0.0 
-7.188104622080e-05 1.665407905832e-05 0.0 
1.665407905832e-05 1.857250464221e-03 0.0 
0.0 0.0 0.0 
5.459122361651e-05 -5.680131748168e-06 0.0 
-5.680131748168e-06 2.948531302085e-04 0.0 
0.0 0.0 0.0 
6.290241909102e-05 -3.501526124741e-05 0.0 
-3.501526124741e-05 3.104470156821e-04 0.0 
0.0 0.0 0.0 
9.793248938661e-05 8.006108766977e-06 0.0 
8.006108766977e-06 6.516290132734e-04 0.0 
0.0 0.0 0.0 
-8.725623214512e-05 2.557989268417e-05 0.0 
2.557989268417e-05 1.763882757673e-03 0.0 
0.0 0.0 0.0 
8.794467860973e-05 -8.324133743475e-06 0.0 
-8.324133743475e-06 4.233349272287e-04 0.0 
0.0 0.0 0.0 
-6.363863688830e-05 1.429930812977e-05 0.0 
1.429930812977e-05 1.887743782555e-03 0.0 
0.0 0.0 0.0 
-7.976541978771e-05 1.092396475085e-05 0.0 
1.092396475085e-05 1.798224416802e-03 0.0 
0.0 0.0 0.0 
1.055062499200e-04 1.091406698490e-05 0.0 
1.091406698490e-05 6.324580607850e-04 0.0 
0.0 0.0 0.0 
8.132134589234e-05 1.078513520297e-05 0.0 
1.078513520297e-05 8.908354907933e-04 0.0 
0.0 0.0 0.0 
7.748915154382e-05 1.815398431112e-05 0.0 
1.815398431112e-05 9.324204742243e-04 0.0 
0.0 0.0 0.0 
-6.561530716320e-05 2.429504269070e-05 0.0 
2.429504269070e-05 1.856132730361e-03 0.0 
0.0 0.0 0.0 
3.583628011605e-05 -2.624277277712e-05 0.0 
-2.624277277712e-05 2.258744911767e-04 0.0 
0.0 0.0 0.0 
1.012341245537e-04 6.429349228355e-06 0.0 
6.429349228355e-06 5.967261226540e-04 0.0 
0.0 0.0 0.0 
6.431163292087e-05 2.424789385728e-04 0.0 
2.424789385728e-04 1.291932088509e-03 0.0 
0.0 0.0 0.0 
-7.083435146649e-05 2.412653707674e-05 0.0 
2.412653707674e-05 1.883132439073e-03 0.0 
0.0 0.0 0.0 
9.722952269997e-05 2.297544528690e-06 0.0 
2.297544528690e-06 5.341045040932e-04 0.0 
0.0 0.0 0.0 
1.066064637958e-04 3.197345280371e-05 0.0 
3.197345280371e-05 7.896886190148e-04 0.0 
0.0 0.0 0.0 
6.096481902129e-05 8.816675863503e-05 0.0 
8.816675863503e-05 1.104698510055e-03 0.0 
0.0 0.0 0.0 
-7.263272889202e-05 2.527407155168e-05 0.0 
2.527407155168e-05 1.825644276819e-03 0.0 
0.0 0.0 0.0 
-3.526098337003e-05 -1.313692647757e-05 0.0 
-1.313692647757e-05 1.602333860578e-04 0.0 
0.0 0.0 0.0 
3.784271796814e-06 -2.826916680622e-05 0.0 
-2.826916680622e-05 1.267426880969e-04 0.0 
0.0 0.0 0.0 
5.687116339192e-05 2.635040602038e-05 0.0 
2.635040602038e-05 3.205013712044e-04 0.0 
0.0 0.0 0.0 
6.726476320162e-05 3.362538921483e-05 0.0 
3.362538921483e-05 1.004093791533e-03 0.0 
0.0 0.0 0.0 
-8.025032851278e-05 2.579034691078e-05 0.0 
2.579034691078e-05 1.795005814084e-03 0.0 
0.0 0.0 0.0 
9.536637313912e-05 -5.937903845780e-07 0.0 
-5.937903845780e-07 7.173573041575e-04 0.0 
0.0 0.0 0.0 
-9.142283557062e-05 1.791991833689e-05 0.0 
1.791991833689e-05 1.704234734798e-03 0.0 
0.0 0.0 0.0 
8.112825970197e-05 1.244841998240e-04 0.0 
1.244841998240e-04 1.085524986420e-03 0.0 
0.0 0.0 0.0 
1.026964510265e-04 1.141646831647e-05 0.0 
1.141646831647e-05 6.598812455580e-04 0.0 
0.0 0.0 0.0 
8.038433700697e-05 2.958018369805e-05 0.0 
2.958018369805e-05 9.306534553271e-04 0.0 
0.0 0.0 0.0 
4.699993991619e-05 -1.894355607303e-05 0.0 
-1.894355607303e-05 2.722969643083e-04 0.0 
0.0 0.0 0.0 
5.544822622716e-05 7.569584621787e-05 0.0 
7.569584621787e-05 1.113156400041e-03 0.0 
0.0 0.0 0.0 
9.886943857573e-05 -1.013848914962e-07 0.0 
-1.013848914962e-07 6.342344419532e-04 0.0 
0.0 0.0 0.0 
5.100783215650e-05 -1.525114630238e-05 0.0 
-1.525114630238e-05 2.963629528696e-04 0.0 
0.0 0.0 0.0 
9.552463879903e-05 -4.487527951389e-06 0.0 
-4.487527951389e-06 5.985481157673e-04 0.0 
0.0 0.0 0.0 
8.935315532721e-05 -5.510608895198e-06 0.0 
-5.510608895198e-06 4.487222852505e-04 0.0 
0.0 0.0 0.0 
6.577452498724e-05 -2.815588876093e-05 0.0 
-2.815588876093e-05 3.432538747397e-04 0.0 
0.0 0.0 0.0 
9.710757262105e-05 1.030868455077e-05 0.0 
1.030868455077e-05 7.152323221926e-04 0.0 
0.0 0.0 0.0 
-1.952057585886e-05 -6.745479451310e-06 0.0 
-6.745479451310e-06 2.818448143205e-05 0.0 
0.0 0.0 0.0 
-2.960501426041e-05 -7.187951842064e-06 0.0 
-7.187951842064e-06 3.265064399560e-05 0.0 
0.0 0.0 0.0 
9.157184408815e-05 1.698030291977e-05 0.0 
1.698030291977e-05 8.317841578573e-04 0.0 
0.0 0.0 0.0 
4.159621912758e-05 -2.292494591969e-05 0.0 
-2.292494591969e-05 2.490718992556e-04 0.0 
0.0 0.0 0.0 
9.512336677719e-05 2.808279828820e-05 0.0 
2.808279828820e-05 8.445879828165e-04 0.0 
0.0 0.0 0.0 
1.009460177779e-04 3.029607291940e-05 0.0 
3.029607291940e-05 8.168154120418e-04 0.0 
0.0 0.0 0.0 
1.059127309684e-04 -1.928836006158e-07 0.0 
-1.928836006158e-07 4.910311333188e-04 0.0 
0.0 0.0 0.0 
8.285352069937e-05 -1.110562663525e-05 0.0 
-1.110562663525e-05 3.191077116986e-04 0.0 
0.0 0.0 0.0 
-6.752983988945e-05 4.323515771537e-05 0.0 
4.323515771537e-05 1.931944752442e-03 0.0 
0.0 0.0 0.0 
-1.852740403807e-05 5.622330177667e-05 0.0 
5.622330177667e-05 2.082184576651e-04 0.0 
0.0 0.0 0.0 
9.027655011540e-05 -2.951715345025e-06 0.0 
-2.951715345025e-06 4.749129413033e-04 0.0 
0.0 0.0 0.0 
7.059960450873e-05 1.450279039726e-04 0.0 
1.450279039726e-04 1.141115065268e-03 0.0 
0.0 0.0 0.0 
3.744589736310e-05 -1.029017754572e-05 0.0 
-1.029017754572e-05 2.128740363021e-04 0.0 
0.0 0.0 0.0 
-9.363025884068e-05 1.187846094747e-05 0.0 
1.187846094747e-05 1.736937655241e-03 0.0 
0.0 0.0 0.0 
-9.626656276429e-05 4.596467075811e-06 0.0 
4.596467075811e-06 1.674905181485e-03 0.0 
0.0 0.0 0.0 
2.879797095434e-05 -3.564765103649e-05 0.0 
-3.564765103649e-05 2.094804980670e-04 0.0 
0.0 0.0 0.0 
7.117306216187e-05 9.572320049327e-05 0.0 
9.572320049327e-05 1.076787134140e-03 0.0 
0.0 0.0 0.0 
-9.070230640496e-05 3.637660164228e-05 0.0 
3.637660164228e-05 1.848159219463e-03 0.0 
0.0 0.0 0.0 
4.397883795693e-05 -1.308799410250e-05 0.0 
-1.308799410250e-05 2.470704733477e-04 0.0 
0.0 0.0 0.0 
-6.531097026363e-05 5.488537381418e-05 0.0 
5.488537381418e-05 1.954173764790e-03 0.0 
0.0 0.0 0.0 
-5.407980403782e-05 6.044702427758e-05 0.0 
6.044702427758e-05 1.953237388989e-03 0.0 
0.0 0.0 0.0 
4.895888520107e-05 -2.607240543930e-05 0.0 
-2.607240543930e-05 2.795977324734e-04 0.0 
0.0 0.0 0.0 
-2.464227081078e-05 2.304837246267e-04 0.0 
2.304837246267e-04 8.707060900472e-04 0.0 
0.0 0.0 0.0 
5.177604874596e-05 -3.155371692140e-05 0.0 
-3.155371692140e-05 2.873499629770e-04 0.0 
0.0 0.0 0.0 
8.370869987839e-05 2.227021870441e-05 0.0 
2.227021870441e-05 9.021866964074e-04 0.0 
0.0 0.0 0.0 
9.983819278414e-05 1.125974990299e-05 0.0 
1.125974990299e-05 6.877473194573e-04 0.0 
0.0 0.0 0.0 
-7.829778564605e-05 1.597659678814e-04 0.0 
1.597659678814e-04 1.893426578822e-03 0.0 
0.0 0.0 0.0 
-5.793018566391e-05 4.923553746194e-05 0.0 
4.923553746194e-05 1.931207276699e-03 0.0 
0.0 0.0 0.0 
8.935753551298e-05 2.543404262443e-05 0.0 
2.543404262443e-05 8.731549862140e-04 0.0 
0.0 0.0 0.0 
9.482898565927e-05 3.701923624069e-05 0.0 
3.701923624069e-05 8.713493046237e-04 0.0 
0.0 0.0 0.0 
3.955729919536e-05 -2.060512245042e-05 0.0 
-2.060512245042e-05 2.304853600303e-04 0.0 
0.0 0.0 0.0 
8.765297816615e-05 3.352111512152e-05 0.0 
3.352111512152e-05 9.004414890785e-04 0.0 
0.0 0.0 0.0 
-7.978177013213e-05 4.241951612325e-05 0.0 
4.241951612325e-05 1.847416367094e-03 0.0 
0.0 0.0 0.0 
9.608901548463e-05 8.150920039285e-07 0.0 
8.150920039285e-07 6.893878109728e-04 0.0 
0.0 0.0 0.0 
-8.832890917410e-05 1.860592126396e-05 0.0 
1.860592126396e-05 1.795869156765e-03 0.0 
0.0 0.0 0.0 
-8.016850380566e-05 3.507832602771e-05 0.0 
3.507832602771e-05 1.878240045756e-03 0.0 
0.0 0.0 0.0 
1.301706570755e-04 1.637032843899e-04 0.0 
1.637032843899e-04 7.802034245328e-04 0.0 
0.0 0.0 0.0 
-6.082413595387e-05 3.970640620485e-05 0.0 
3.970640620485e-05 1.907367409199e-03 0.0 
0.0 0.0 0.0 
9.623545814197e-05 4.216122183847e-06 0.0 
4.216122183847e-06 5.645523431461e-04 0.0 
0.0 0.0 0.0 
9.743286131614e-05 6.240528830767e-07 0.0 
6.240528830767e-07 6.616106406925e-04 0.0 
0.0 0.0 0.0 
8.122204956429e-05 -5.834061173643e-06 0.0 
-5.834061173643e-06 4.168578429413e-04 0.0 
0.0 0.0 0.0 
9.445323325386e-05 -1.779271684999e-05 0.0 
-1.779271684999e-05 4.441728872335e-04 0.0 
0.0 0.0 0.0 
-8.010309454454e-05 3.334705125538e-05 0.0 
3.334705125538e-05 1.821682381651e-03 0.0 
0.0 0.0 0.0 
1.220031584932e-04 2.381416888568e-05 0.0 
2.381416888568e-05 6.464864142983e-04 0.0 
0.0 0.0 0.0 
5.701836537453e-05 -2.786958913371e-05 0.0 
-2.786958913371e-05 3.112975680057e-04 0.0 
0.0 0.0 0.0 
1.068624064171e-05 -3.320479143136e-05 0.0 
-3.320479143136e-05 1.564364259290e-04 0.0 
0.0 0.0 0.0 
-8.957758744033e-05 2.677291983634e-05 0.0 
2.677291983634e-05 1.822481900483e-03 0.0 
0.0 0.0 0.0 
6.221217944846e-05 -1.635569490369e-05 0.0 
-1.635569490369e-05 3.094826392922e-04 0.0 
0.0 0.0 0.0 
5.820040786708e-05 9.406641841758e-05 0.0 
9.406641841758e-05 1.128764406868e-03 0.0 
0.0 0.0 0.0 
-7.164890895472e-05 3.272373411026e-05 0.0 
3.272373411026e-05 1.852062842679e-03 0.0 
0.0 0.0 0.0 
8.379940593084e-05 4.312808802955e-05 0.0 
4.312808802955e-05 9.433594652011e-04 0.0 
0.0 0.0 0.0 
2.723747546707e-05 1.982465437490e-04 0.0 
1.982465437490e-04 1.307748369814e-03 0.0 
0.0 0.0 0.0 
9.136179788438e-05 -8.894910280356e-06 0.0 
-8.894910280356e-06 5.365150338110e-04 0.0 
0.0 0.0 0.0 
5.257255333380e-05 -1.523614662669e-05 0.0 
-1.523614662669e-05 2.779037289806e-04 0.0 
0.0 0.0 0.0 
2.081423818301e-05 -1.922045682461e-05 0.0 
-1.922045682461e-05 1.756900227141e-04 0.0 
0.0 0.0 0.0 
9.288468874380e-05 3.876622883663e-05 0.0 
3.876622883663e-05 8.874780109147e-04 0.0 
0.0 0.0 0.0 
-8.046884108415e-05 1.991505329378e-05 0.0 
1.991505329378e-05 1.767832338390e-03 0.0 
0.0 0.0 0.0 
2.516959794363e-06 -1.684943649342e-05 0.0 
-1.684943649342e-05 1.239734286189e-04 0.0 
0.0 0.0 0.0 
8.091129685828e-05 -1.975057977924e-05 0.0 
-1.975057977924e-05 4.251313015868e-04 0.0 
0.0 0.0 0.0 
4.058968037191e-05 -1.556773908951e-05 0.0 
-1.556773908951e-05 2.411902425163e-04 0.0 
0.0 0.0 0.0 
-9.590981792429e-05 1.878864162705e-05 0.0 
1.878864162705e-05 1.764697857165e-03 0.0 
0.0 0.0 0.0 
8.345445259894e-05 -1.643273147294e-05 0.0 
-1.643273147294e-05 4.504281024262e-04 0.0 
0.0 0.0 0.0 
1.091455305078e-04 4.240984038546e-05 0.0 
4.240984038546e-05 8.148450517778e-04 0.0 
0.0 0.0 0.0 
7.646923057925e-05 -1.707851908007e-05 0.0 
-1.707851908007e-05 4.180439739525e-04 0.0 
0.0 0.0 0.0 
-6.138033701675e-05 2.153680365868e-05 0.0 
2.153680365868e-05 1.913108525508e-03 0.0 
0.0 0.0 0.0 
7.607079005312e-05 -1.287206507749e-05 0.0 
-1.287206507749e-05 3.659345166109e-04 0.0 
0.0 0.0 0.0 
9.711894088782e-05 5.431913709863e-05 0.0 
5.431913709863e-05 9.049243145265e-04 0.0 
0.0 0.0 0.0 
4.301782719240e-05 -3.997429277748e-05 0.0 
-3.997429277748e-05 2.563214130906e-04 0.0 
0.0 0.0 0.0 
9.964707350041e-05 4.155461715248e-05 0.0 
4.155461715248e-05 8.597954200356e-04 0.0 
0.0 0.0 0.0 
9.537278967553e-05 -1.964143295812e-06 0.0 
-1.964143295812e-06 6.273175222771e-04 0.0 
0.0 0.0 0.0 
9.207943481937e-05 4.727698619581e-05 0.0 
4.727698619581e-05 9.141376972659e-04 0.0 
0.0 0.0 0.0 
1.306520653719e-04 5.953922591129e-05 0.0 
5.953922591129e-05 4.648924033088e-04 0.0 
0.0 0.0 0.0 
4.234722230678e-05 -6.109849175002e-06 0.0 
-6.109849175002e-06 2.387750943622e-04 0.0 
0.0 0.0 0.0 
-9.124314169928e-05 6.453153433035e-06 0.0 
6.453153433035e-06 1.708456307313e-03 0.0 
0.0 0.0 0.0 
1.225624009902e-04 1.076473494601e-04 0.0 
1.076473494601e-04 8.931928251432e-04 0.0 
0.0 0.0 0.0 
-1.136530446200e-06 2.560633094258e-04 0.0 
2.560633094258e-04 1.049167437615e-03 0.0 
0.0 0.0 0.0 
-8.701370045960e-05 1.180142026454e-05 0.0 
1.180142026454e-05 1.768099397897e-03 0.0 
0.0 0.0 0.0 
5.681427793314e-05 -3.691460986417e-05 0.0 
-3.691460986417e-05 2.886472493731e-04 0.0 
0.0 0.0 0.0 
-9.781402634257e-05 4.201286874966e-05 0.0 
4.201286874966e-05 1.786057341001e-03 0.0 
0.0 0.0 0.0 
3.445672758184e-05 -1.949946203022e-05 0.0 
-1.949946203022e-05 2.164570709764e-04 0.0 
0.0 0.0 0.0 
6.943700931705e-05 7.309292277173e-05 0.0 
7.309292277173e-05 1.054552055227e-03 0.0 
0.0 0.0 0.0 
1.164647036802e-04 1.276773525887e-04 0.0 
1.276773525887e-04 9.526313539685e-04 0.0 
0.0 0.0 0.0 
8.300759419644e-05 2.010624801096e-04 0.0 
2.010624801096e-04 1.146936291683e-03 0.0 
0.0 0.0 0.0 
-5.197512515243e-05 5.100117422511e-05 0.0 
5.100117422511e-05 1.984611128295e-03 0.0 
0.0 0.0 0.0 
1.217510253397e-04 3.611827673569e-05 0.0 
3.611827673569e-05 7.135866983305e-04 0.0 
0.0 0.0 0.0 
3.751608802327e-05 -1.613878498290e-05 0.0 
-1.613878498290e-05 2.236510050266e-04 0.0 
0.0 0.0 0.0 
1.124057348794e-04 4.628859151265e-05 0.0 
4.628859151265e-05 8.073510459645e-04 0.0 
0.0 0.0 0.0 
6.748613679441e-05 1.015294860976e-04 0.0 
1.015294860976e-04 1.102589942997e-03 0.0 
0.0 0.0 0.0 
8.828079442647e-05 -2.170222201159e-05 0.0 
-2.170222201159e-05 3.794412827618e-04 0.0 
0.0 0.0 0.0 
8.606305980940e-05 3.543195376919e-05 0.0 
3.543195376919e-05 9.159780797121e-04 0.0 
0.0 0.0 0.0 
-8.031399596520e-05 2.572180215821e-05 0.0 
2.572180215821e-05 1.852910911154e-03 0.0 
0.0 0.0 0.0 
7.697182911937e-05 -8.911382164124e-06 0.0 
-8.911382164124e-06 2.973125655681e-04 0.0 
0.0 0.0 0.0 
1.061831960745e-04 4.399707787567e-05 0.0 
4.399707787567e-05 8.331081468649e-04 0.0 
0.0 0.0 0.0 
-1.086182604748e-04 1.692840922515e-05 0.0 
1.692840922515e-05 1.700626262882e-03 0.0 
0.0 0.0 0.0 
5.857869872972e-05 -1.788257587302e-05 0.0 
-1.788257587302e-05 3.284200963267e-04 0.0 
0.0 0.0 0.0 
7.824229077746e-05 -2.333664318448e-05 0.0 
-2.333664318448e-05 4.001787496224e-04 0.0 
0.0 0.0 0.0 
6.637607816495e-06 2.454878748625e-04 0.0 
2.454878748625e-04 1.169088346603e-03 0.0 
0.0 0.0 0.0 
1.002701256680e-04 5.081858809090e-05 0.0 
5.081858809090e-05 8.855796928595e-04 0.0 
0.0 0.0 0.0 
-5.680745447245e-05 2.546122552085e-04 0.0 
2.546122552085e-04 1.139812642743e-03 0.0 
0.0 0.0 0.0 
3.056523797484e-05 2.373814836457e-04 0.0 
2.373814836457e-04 1.078030625468e-03 0.0 
0.0 0.0 0.0 
-8.900233267706e-05 4.251275439270e-05 0.0 
4.251275439270e-05 1.816953617686e-03 0.0 
0.0 0.0 0.0 
-8.620910075796e-05 1.958088642472e-05 0.0 
1.958088642472e-05 1.736018902123e-03 0.0 
0.0 0.0 0.0 
-1.026919564541e-04 3.050712707679e-05 0.0 
3.050712707679e-05 1.728555026530e-03 0.0 
0.0 0.0 0.0 
9.949382665453e-05 7.157838019522e-06 0.0 
7.157838019522e-06 6.252743983639e-04 0.0 
0.0 0.0 0.0 
8.070358214973e-05 1.007165691313e-04 0.0 
1.007165691313e-04 1.053093272626e-03 0.0 
0.0 0.0 0.0 
1.182195510201e-04 4.851140601391e-05 0.0 
4.851140601391e-05 7.826507302338e-04 0.0 
0.0 0.0 0.0 
-1.000397428024e-04 1.123208198134e-05 0.0 
1.123208198134e-05 1.705027711866e-03 0.0 
0.0 0.0 0.0 
-8.219197200499e-05 2.084820626571e-04 0.0 
2.084820626571e-04 1.848725820019e-03 0.0 
0.0 0.0 0.0 
6.713892620325e-05 2.178446422908e-04 0.0 
2.178446422908e-04 1.221629263239e-03 0.0 
0.0 0.0 0.0 
1.082741419383e-04 5.398044697422e-05 0.0 
5.398044697422e-05 8.578309334890e-04 0.0 
0.0 0.0 0.0 
-7.029643079981e-05 4.141241546583e-05 0.0 
4.141241546583e-05 1.877465473546e-03 0.0 
0.0 0.0 0.0 
9.555404551409e-05 -1.563759036946e-05 0.0 
-1.563759036946e-05 4.680158170602e-04 0.0 
0.0 0.0 0.0 
8.689200400158e-05 -2.046260804486e-05 0.0 
-2.046260804486e-05 4.335454957982e-04 0.0 
0.0 0.0 0.0 
3.645893031190e-05 -3.310461672848e-05 0.0 
-3.310461672848e-05 2.324261835749e-04 0.0 
0.0 0.0 0.0 
1.114047472022e-04 6.072711659222e-05 0.0 
6.072711659222e-05 8.536591593491e-04 0.0 
0.0 0.0 0.0 
8.846897885939e-05 -1.734572942362e-05 0.0 
-1.734572942362e-05 4.586578871348e-04 0.0 
0.0 0.0 0.0 
-9.846982373507e-05 2.698353158562e-05 0.0 
2.698353158562e-05 1.791613469621e-03 0.0 
0.0 0.0 0.0 
-1.069207456588e-04 2.665846219699e-05 0.0 
2.665846219699e-05 1.760407200697e-03 0.0 
0.0 0.0 0.0 
1.280320119035e-04 1.281845004134e-04 0.0 
1.281845004134e-04 7.844925140341e-04 0.0 
0.0 0.0 0.0 
8.369802079233e-05 -1.388096846603e-05 0.0 
-1.388096846603e-05 3.736688284361e-04 0.0 
0.0 0.0 0.0 
1.219015025764e-04 1.101489895709e-04 0.0 
1.101489895709e-04 5.018413330093e-04 0.0 
0.0 0.0 0.0 
8.608961850043e-05 -1.117844500591e-05 0.0 
-1.117844500591e-05 3.982479745419e-04 0.0 
0.0 0.0 0.0 
9.616015000402e-05 -7.528099982892e-06 0.0 
-7.528099982892e-06 4.314953732352e-04 0.0 
0.0 0.0 0.0 
4.662964437641e-05 -1.823757148605e-05 0.0 
-1.823757148605e-05 2.541574599373e-04 0.0 
0.0 0.0 0.0 
8.975438916070e-05 1.060681493365e-04 0.0 
1.060681493365e-04 1.029730251997e-03 0.0 
0.0 0.0 0.0 
1.245915107790e-04 1.575716738349e-05 0.0 
1.575716738349e-05 5.393717981763e-04 0.0 
0.0 0.0 0.0 
-6.947731093687e-05 3.289376965478e-05 0.0 
3.289376965478e-05 1.908198032889e-03 0.0 
0.0 0.0 0.0 
1.322938257575e-04 2.779912832371e-05 0.0 
2.779912832371e-05 5.789890798453e-04 0.0 
0.0 0.0 0.0 
1.233265941849e-04 5.995116089872e-05 0.0 
5.995116089872e-05 8.052032968378e-04 0.0 
0.0 0.0 0.0 
1.307640433179e-04 3.765339329207e-05 0.0 
3.765339329207e-05 6.682338646207e-04 0.0 
0.0 0.0 0.0 
7.172739732608e-05 2.108150624276e-04 0.0 
2.108150624276e-04 9.634977674420e-04 0.0 
0.0 0.0 0.0 
4.306851306746e-05 -2.965322556460e-05 0.0 
-2.965322556460e-05 2.560672126981e-04 0.0 
0.0 0.0 0.0 
7.813012208668e-05 1.062458034504e-04 0.0 
1.062458034504e-04 1.074783736915e-03 0.0 
0.0 0.0 0.0 
6.104907344451e-05 1.118703597654e-04 0.0 
1.118703597654e-04 1.135506779393e-03 0.0 
0.0 0.0 0.0 
-1.803373309461e-05 2.521133011245e-04 0.0 
2.521133011245e-04 1.369975395923e-03 0.0 
0.0 0.0 0.0 
1.061372593940e-04 -1.856677500836e-06 0.0 
-1.856677500836e-06 4.658260094683e-04 0.0 
0.0 0.0 0.0 
1.287678903039e-04 4.881879836141e-05 0.0 
4.881879836141e-05 7.357367875733e-04 0.0 
0.0 0.0 0.0 
-8.813792783724e-05 3.329228771746e-05 0.0 
3.329228771746e-05 1.790847327838e-03 0.0 
0.0 0.0 0.0 
9.616339862317e-05 -1.306952159820e-05 0.0 
-1.306952159820e-05 4.930617296088e-04 0.0 
0.0 0.0 0.0 
2.854846855049e-05 2.349416180985e-04 0.0 
2.349416180985e-04 9.537535477757e-04 0.0 
0.0 0.0 0.0 
6.951473566086e-05 -2.436559330945e-05 0.0 
-2.436559330945e-05 3.677479073516e-04 0.0 
0.0 0.0 0.0 
7.036829695362e-05 -3.098903349518e-05 0.0 
-3.098903349518e-05 3.222488879020e-04 0.0 
0.0 0.0 0.0 
1.040125551832e-04 -8.773788827828e-06 0.0 
-8.773788827828e-06 5.038339392516e-04 0.0 
0.0 0.0 0.0 
6.653924712330e-05 -1.316518599834e-05 0.0 
-1.316518599834e-05 3.339381924925e-04 0.0 
0.0 0.0 0.0 
5.396375097555e-05 -2.225806477701e-05 0.0 
-2.225806477701e-05 3.037260284746e-04 0.0 
0.0 0.0 0.0 
1.185729618329e-04 2.310338928398e-05 0.0 
2.310338928398e-05 6.705358242907e-04 0.0 
0.0 0.0 0.0 
1.160164047895e-04 5.703060942895e-05 0.0 
5.703060942895e-05 8.310523305641e-04 0.0 
0.0 0.0 0.0 
-2.212266245938e-05 2.616850409934e-04 0.0 
2.616850409934e-04 1.559243342438e-03 0.0 
0.0 0.0 0.0 
-3.916423549966e-05 -4.678008634390e-06 0.0 
-4.678008634390e-06 3.324277574124e-05 0.0 
0.0 0.0 0.0 
1.429181138453e-04 4.923728740035e-05 0.0 
4.923728740035e-05 5.786181468810e-04 0.0 
0.0 0.0 0.0 
1.345261448957e-04 2.970035403029e-05 0.0 
2.970035403029e-05 5.560923002010e-04 0.0 
0.0 0.0 0.0 
1.158280880484e-04 5.850067582211e-06 0.0 
5.850067582211e-06 5.016614411160e-04 0.0 
0.0 0.0 0.0 
-9.566187009691e-05 3.222226578162e-05 0.0 
3.222226578162e-05 1.759732234089e-03 0.0 
0.0 0.0 0.0 
1.293612810596e-04 2.659119186625e-05 0.0 
2.659119186625e-05 6.027175533532e-04 0.0 
0.0 0.0 0.0 
7.895099128064e-05 -9.524038128788e-06 0.0 
-9.524038128788e-06 3.909680613958e-04 0.0 
0.0 0.0 0.0 
1.119738818895e-04 5.165255601505e-07 0.0 
5.165255601505e-07 5.417818001594e-04 0.0 
0.0 0.0 0.0 
-6.343293419531e-05 3.129956297296e-05 0.0 
3.129956297296e-05 1.882275561951e-03 0.0 
0.0 0.0 0.0 
7.249944799237e-05 -2.048122767495e-05 0.0 
-2.048122767495e-05 3.927069823653e-04 0.0 
0.0 0.0 0.0 
1.309600092081e-05 -1.567410864350e-05 0.0 
-1.567410864350e-05 1.436836362572e-04 0.0 
0.0 0.0 0.0 
2.978549968735e-05 -1.822894433269e-05 0.0 
-1.822894433269e-05 1.994989802505e-04 0.0 
0.0 0.0 0.0 
8.748846072737e-05 -1.191006747546e-05 0.0 
-1.191006747546e-05 3.415010779426e-04 0.0 
0.0 0.0 0.0 
9.481054484417e-05 -9.722542291696e-06 0.0 
-9.722542291696e-06 4.072111821722e-04 0.0 
0.0 0.0 0.0 
1.411976531267e-04 4.504426558338e-05 0.0 
4.504426558338e-05 5.991613365850e-04 0.0 
0.0 0.0 0.0 
1.190342368025e-04 1.185155496113e-05 0.0 
1.185155496113e-05 5.816925056983e-04 0.0 
0.0 0.0 0.0 
3.478764006282e-05 -4.174368428180e-05 0.0 
-4.174368428180e-05 2.340354127803e-04 0.0 
0.0 0.0 0.0 
2.871537811933e-05 -3.019021659324e-05 0.0 
-3.019021659324e-05 2.012618117058e-04 0.0 
0.0 0.0 0.0 
-1.293477267246e-04 3.560198320522e-05 0.0 
3.560198320522e-05 1.721249746199e-03 0.0 
0.0 0.0 0.0 
6.154306141948e-05 -2.401709748422e-05 0.0 
-2.401709748422e-05 3.356206700407e-04 0.0 
0.0 0.0 0.0 
1.065788810739e-04 1.019774072945e-04 0.0 
1.019774072945e-04 9.747968701732e-04 0.0 
0.0 0.0 0.0 
-9.726680958999e-06 2.603018309709e-04 0.0 
2.603018309709e-04 1.483465047535e-03 0.0 
0.0 0.0 0.0 
-1.578531084661e-04 1.295654546288e-04 0.0 
1.295654546288e-04 1.679215872312e-03 0.0 
0.0 0.0 0.0 
-7.521244233044e-05 7.908548306381e-05 0.0 
7.908548306381e-05 1.914940763641e-03 0.0 
0.0 0.0 0.0 
-2.919880848584e-05 2.613053005524e-04 0.0 
2.613053005524e-04 1.630264432537e-03 0.0 
0.0 0.0 0.0 
1.221501561515e-04 1.402631735639e-04 0.0 
1.402631735639e-04 7.837588506676e-04 0.0 
0.0 0.0 0.0 
-1.396064058456e-05 2.549452092104e-04 0.0 
2.549452092104e-04 1.426389958629e-03 0.0 
0.0 0.0 0.0 
4.894795254340e-05 -3.828460025108e-05 0.0 
-3.828460025108e-05 2.668761350557e-04 0.0 
0.0 0.0 0.0 
1.106402701545e-04 1.387453193586e-06 0.0 
1.387453193586e-06 5.659542998182e-04 0.0 
0.0 0.0 0.0 
1.074407492188e-04 1.927551861051e-04 0.0 
1.927551861051e-04 7.918753269067e-04 0.0 
0.0 0.0 0.0 
8.685455054613e-05 9.357285641102e-06 0.0 
9.357285641102e-06 3.146287875848e-04 0.0 
0.0 0.0 0.0 
2.310386428994e-05 -4.246547667615e-05 0.0 
-4.246547667615e-05 2.142820279993e-04 0.0 
0.0 0.0 0.0 
9.696519110114e-05 -5.163822671563e-06 0.0 
-5.163822671563e-06 4.567469720069e-04 0.0 
0.0 0.0 0.0 
1.207005815058e-04 1.252229691412e-05 0.0 
1.252229691412e-05 5.591566249104e-04 0.0 
0.0 0.0 0.0 
1.270231303563e-04 2.695447059591e-05 0.0 
2.695447059591e-05 6.021474231204e-04 0.0 
0.0 0.0 0.0 
7.014177125231e-05 -9.843102020870e-06 0.0 
-9.843102020870e-06 3.586842268180e-04 0.0 
0.0 0.0 0.0 
1.350575152350e-04 3.937224599643e-05 0.0 
3.937224599643e-05 6.440314040828e-04 0.0 
0.0 0.0 0.0 
1.284260317864e-04 2.982473214826e-05 0.0 
2.982473214826e-05 5.820839485280e-04 0.0 
0.0 0.0 0.0 
1.475249785992e-04 6.752512231679e-05 0.0 
6.752512231679e-05 6.263923545800e-04 0.0 
0.0 0.0 0.0 
8.481179820241e-05 -2.341060644946e-05 0.0 
-2.341060644946e-05 4.093012365500e-04 0.0 
0.0 0.0 0.0 
1.101171479927e-04 1.547008235125e-04 0.0 
1.547008235125e-04 1.006965357725e-03 0.0 
0.0 0.0 0.0 
-1.009126945483e-04 3.713525917497e-05 0.0 
3.713525917497e-05 1.817614330386e-03 0.0 
0.0 0.0 0.0 
1.479412280703e-04 7.458937682053e-05 0.0 
7.458937682053e-05 6.097585110063e-04 0.0 
0.0 0.0 0.0 
8.977536912669e-05 1.133803015373e-04 0.0 
1.133803015373e-04 1.051123270567e-03 0.0 
0.0 0.0 0.0 
6.399923824363e-05 -3.114939393012e-05 0.0 
-3.114939393012e-05 3.007199286462e-04 0.0 
0.0 0.0 0.0 
7.079814012223e-05 1.521822795855e-04 0.0 
1.521822795855e-04 1.166591483451e-03 0.0 
0.0 0.0 0.0 
1.384784838478e-04 4.172806468604e-05 0.0 
4.172806468604e-05 6.208498577920e-04 0.0 
0.0 0.0 0.0 
-3.054328636731e-05 2.664355135539e-04 0.0 
2.664355135539e-04 1.702146966724e-03 0.0 
0.0 0.0 0.0 
-1.029253889762e-04 2.224473001238e-04 0.0 
2.224473001238e-04 1.528765157823e-03 0.0 
0.0 0.0 0.0 
6.693792944934e-05 -1.870133000706e-05 0.0 
-1.870133000706e-05 2.857934592124e-04 0.0 
0.0 0.0 0.0 
-1.494227370423e-04 1.544648418654e-04 0.0 
1.544648418654e-04 1.676632983458e-03 0.0 
0.0 0.0 0.0 
-8.029472358262e-05 1.151125598996e-04 0.0 
1.151125598996e-04 1.915166914393e-03 0.0 
0.0 0.0 0.0 
1.428306700400e-04 5.743087123457e-05 0.0 
5.743087123457e-05 6.656526513305e-04 0.0 
0.0 0.0 0.0 
6.358815826424e-05 1.930181017826e-04 0.0 
1.930181017826e-04 7.571253390466e-04 0.0 
0.0 0.0 0.0 
-1.367358168138e-04 1.777023337159e-04 0.0 
1.777023337159e-04 1.668244674426e-03 0.0 
0.0 0.0 0.0 
-7.464218749753e-07 2.544529558188e-04 0.0 
2.544529558188e-04 1.108717627162e-03 0.0 
0.0 0.0 0.0 
4.260807146150e-05 -2.307166271340e-05 0.0 
-2.307166271340e-05 2.309371094056e-04 0.0 
0.0 0.0 0.0 
-3.690081850460e-05 1.023327244258e-04 0.0 
1.023327244258e-04 2.011108008908e-03 0.0 
0.0 0.0 0.0 
2.554837221846e-05 -2.406990690141e-05 0.0 
-2.406990690141e-05 2.002505063190e-04 0.0 
0.0 0.0 0.0 
5.638868103031e-05 2.216150622048e-04 0.0 
2.216150622048e-04 1.294934698055e-03 0.0 
0.0 0.0 0.0 
-4.756326603994e-05 4.606802389608e-05 0.0 
4.606802389608e-05 1.960225838566e-03 0.0 
0.0 0.0 0.0 
1.080315151034e-04 1.474518878695e-04 0.0 
1.474518878695e-04 1.015714552996e-03 0.0 
0.0 0.0 0.0 
-9.364525723810e-05 2.488007603879e-05 0.0 
2.488007603879e-05 1.731596132687e-03 0.0 
0.0 0.0 0.0 
-9.096471081094e-05 6.060400542345e-05 0.0 
6.060400542345e-05 1.895088226373e-03 0.0 
0.0 0.0 0.0 
1.333001421404e-04 4.753701475484e-05 0.0 
4.753701475484e-05 6.297338382304e-04 0.0 
0.0 0.0 0.0 
1.245542924373e-04 1.396625942066e-04 0.0 
1.396625942066e-04 8.564649542397e-04 0.0 
0.0 0.0 0.0 
-5.767364419551e-05 9.055451575869e-05 0.0 
9.055451575869e-05 1.963084046934e-03 0.0 
0.0 0.0 0.0 
1.060080981123e-04 6.703038426492e-05 0.0 
6.703038426492e-05 9.028910574831e-04 0.0 
0.0 0.0 0.0 
-1.026857296000e-04 4.906565446156e-05 0.0 
4.906565446156e-05 1.842047217753e-03 0.0 
0.0 0.0 0.0 
1.296390468128e-04 1.180015179768e-04 0.0 
1.180015179768e-04 9.083421136540e-04 0.0 
0.0 0.0 0.0 
5.992434070268e-05 -1.806376230651e-05 0.0 
-1.806376230651e-05 2.636264655345e-04 0.0 
0.0 0.0 0.0 
-1.035854252265e-04 6.278015920215e-05 0.0 
6.278015920215e-05 1.864517308340e-03 0.0 
0.0 0.0 0.0 
-3.696502032802e-06 3.017556645087e-04 0.0 
3.017556645087e-04 1.651751780624e-03 0.0 
0.0 0.0 0.0 
6.884015123987e-05 1.254975543498e-04 0.0 
1.254975543498e-04 1.132386036598e-03 0.0 
0.0 0.0 0.0 
1.224454987723e-04 1.567034099187e-05 0.0 
1.567034099187e-05 5.637084107446e-04 0.0 
0.0 0.0 0.0 
-1.028281867993e-04 1.775552670749e-05 0.0 
1.775552670749e-05 1.732278969399e-03 0.0 
0.0 0.0 0.0 
-9.935939046102e-05 2.301069730034e-05 0.0 
2.301069730034e-05 1.699898899201e-03 0.0 
0.0 0.0 0.0 
1.248297799594e-04 2.487742278776e-05 0.0 
2.487742278776e-05 6.235172681994e-04 0.0 
0.0 0.0 0.0 
1.145511157012e-04 7.086806984388e-05 0.0 
7.086806984388e-05 8.766149013237e-04 0.0 
0.0 0.0 0.0 
1.114499250070e-04 8.584760592055e-05 0.0 
8.584760592055e-05 9.243696986527e-04 0.0 
0.0 0.0 0.0 
2.101897189499e-05 -3.209412942442e-05 0.0 
-3.209412942442e-05 1.777117465442e-04 0.0 
0.0 0.0 0.0 
1.067515892588e-04 9.976915412578e-05 0.0 
9.976915412578e-05 4.355609999391e-04 0.0 
0.0 0.0 0.0 
1.492646289929e-04 9.567119973375e-05 0.0 
9.567119973375e-05 6.641530745854e-04 0.0 
0.0 0.0 0.0 
1.336604810334e-04 5.291657796595e-05 0.0 
5.291657796595e-05 6.134944437592e-04 0.0 
0.0 0.0 0.0 
4.986338032764e-05 2.399063300533e-04 0.0 
2.399063300533e-04 9.842466561527e-04 0.0 
0.0 0.0 0.0 
-5.612393056209e-05 8.155044030867e-05 0.0 
8.155044030867e-05 1.993655409119e-03 0.0 
0.0 0.0 0.0 
-7.975894118273e-05 1.863541266390e-04 0.0 
1.863541266390e-04 1.851344358796e-03 0.0 
0.0 0.0 0.0 
-5.562988725161e-05 3.954435163434e-05 0.0 
3.954435163434e-05 1.960748633965e-03 0.0 
0.0 0.0 0.0 
-8.447709832382e-05 2.488195201622e-04 0.0 
2.488195201622e-04 1.239778913500e-03 0.0 
0.0 0.0 0.0 
-9.764172829752e-05 9.999710932774e-05 0.0 
9.999710932774e-05 1.868424303984e-03 0.0 
0.0 0.0 0.0 
1.044428897710e-04 5.762863231569e-05 0.0 
5.762863231569e-05 8.786858609544e-04 0.0 
0.0 0.0 0.0 
-5.086136648247e-05 7.271983735028e-05 0.0 
7.271983735028e-05 1.974657858778e-03 0.0 
0.0 0.0 0.0 
-1.155785016057e-04 6.446689164336e-05 0.0 
6.446689164336e-05 1.833235406013e-03 0.0 
0.0 0.0 0.0 
1.168551589337e-04 1.161872419576e-05 0.0 
1.161872419576e-05 6.051139644714e-04 0.0 
0.0 0.0 0.0 
1.473781862691e-04 1.056625979068e-04 0.0 
1.056625979068e-04 6.525532471935e-04 0.0 
0.0 0.0 0.0 
-8.915670352527e-05 6.658072474597e-05 0.0 
6.658072474597e-05 1.864025337405e-03 0.0 
0.0 0.0 0.0 
-7.537684096459e-05 7.151901721591e-05 0.0 
7.151901721591e-05 1.945903833021e-03 0.0 
0.0 0.0 0.0 
-7.910430162439e-05 5.295013823672e-05 0.0 
5.295013823672e-05 1.871750192159e-03 0.0 
0.0 0.0 0.0 
-8.946683097599e-05 5.368135374483e-05 0.0 
5.368135374483e-05 1.841465401325e-03 0.0 
0.0 0.0 0.0 
8.642529674985e-05 9.183752144259e-05 0.0 
9.183752144259e-05 1.025447246857e-03 0.0 
0.0 0.0 0.0 
5.650376948929e-05 2.257081651555e-04 0.0 
2.257081651555e-04 1.292528538460e-03 0.0 
0.0 0.0 0.0 
9.702154755975e-05 9.676484280251e-05 0.0 
9.676484280251e-05 9.990109330840e-04 0.0 
0.0 0.0 0.0 
1.226112000330e-04 4.670522854117e-05 0.0 
4.670522854117e-05 7.612134672306e-04 0.0 
0.0 0.0 0.0 
-1.512512628062e-04 1.391244406430e-04 0.0 
1.391244406430e-04 1.414375618504e-03 0.0 
0.0 0.0 0.0 
9.742734318197e-05 1.676887022239e-04 0.0 
1.676887022239e-04 1.080603327670e-03 0.0 
0.0 0.0 0.0 
-1.200477182468e-04 1.058967845098e-04 0.0 
1.058967845098e-04 1.798466618931e-03 0.0 
0.0 0.0 0.0 
5.768804018325e-05 -1.197643326349e-05 0.0 
-1.197643326349e-05 3.021508818977e-04 0.0 
0.0 0.0 0.0 
1.359584647811e-04 7.378587016174e-05 0.0 
7.378587016174e-05 6.677647570217e-04 0.0 
0.0 0.0 0.0 
1.473198871769e-04 9.927966725301e-05 0.0 
9.927966725301e-05 7.473474257187e-04 0.0 
0.0 0.0 0.0 
1.184789508120e-04 1.511042376145e-04 0.0 
1.511042376145e-04 9.289516821840e-04 0.0 
0.0 0.0 0.0 
9.593044219502e-05 3.603224334165e-05 0.0 
3.603224334165e-05 3.385627986556e-04 0.0 
0.0 0.0 0.0 
1.344604668054e-04 8.219301604330e-05 0.0 
8.219301604330e-05 6.565993203878e-04 0.0 
0.0 0.0 0.0 
1.098424151218e-04 1.625813354682e-04 0.0 
1.625813354682e-04 1.001973528958e-03 0.0 
0.0 0.0 0.0 
-1.310999911818e-04 1.936993521180e-04 0.0 
1.936993521180e-04 1.411071686726e-03 0.0 
0.0 0.0 0.0 
1.257991738979e-04 2.583871546897e-05 0.0 
2.583871546897e-05 6.275804158180e-04 0.0 
0.0 0.0 0.0 
-1.234377638122e-04 5.048901194948e-05 0.0 
5.048901194948e-05 1.778926976036e-03 0.0 
0.0 0.0 0.0 
-9.714883415235e-05 9.135946449575e-06 0.0 
9.135946449575e-06 1.604476429544e-03 0.0 
0.0 0.0 0.0 
-1.487592514329e-04 2.077338683617e-04 0.0 
2.077338683617e-04 3.183105268489e-04 0.0 
0.0 0.0 0.0 
1.170894327791e-04 3.471620957857e-05 0.0 
3.471620957857e-05 7.379596916699e-04 0.0 
0.0 0.0 0.0 
1.143811181850e-04 1.552974992914e-04 0.0 
1.552974992914e-04 1.025081500756e-03 0.0 
0.0 0.0 0.0 
-6.973969204749e-05 1.796461939641e-04 0.0 
1.796461939641e-04 1.892848108936e-03 0.0 
0.0 0.0 0.0 
1.418501279737e-04 1.388096066807e-04 0.0 
1.388096066807e-04 7.859275562769e-04 0.0 
0.0 0.0 0.0 
1.258844582588e-04 3.627941086905e-05 0.0 
3.627941086905e-05 6.934329677795e-04 0.0 
0.0 0.0 0.0 
-1.106869736980e-04 3.736190521598e-05 0.0 
3.736190521598e-05 1.786623611078e-03 0.0 
0.0 0.0 0.0 
-1.484042668085e-04 2.204750868468e-04 0.0 
2.204750868468e-04 5.209663126235e-04 0.0 
0.0 0.0 0.0 
1.179784652163e-04 1.626523519387e-04 0.0 
1.626523519387e-04 1.013368301516e-03 0.0 
0.0 0.0 0.0 
1.271379628494e-04 1.299821679656e-04 0.0 
1.299821679656e-04 8.610326674352e-04 0.0 
0.0 0.0 0.0 
-1.459553282993e-04 1.934361242787e-04 0.0 
1.934361242787e-04 1.474873071585e-03 0.0 
0.0 0.0 0.0 
1.012965528195e-04 7.270792090302e-05 0.0 
7.270792090302e-05 9.264110032166e-04 0.0 
0.0 0.0 0.0 
7.219504312284e-05 -1.758602988346e-05 0.0 
-1.758602988346e-05 3.181488877648e-04 0.0 
0.0 0.0 0.0 
9.647799603330e-05 8.879568191281e-05 0.0 
8.879568191281e-05 9.768595060771e-04 0.0 
0.0 0.0 0.0 
8.085137547353e-05 1.311570568553e-04 0.0 
1.311570568553e-04 1.105694260824e-03 0.0 
0.0 0.0 0.0 
1.191968375391e-04 1.703451860436e-04 0.0 
1.703451860436e-04 1.004568036539e-03 0.0 
0.0 0.0 0.0 
-9.127718120072e-05 4.772328317467e-05 0.0 
4.772328317467e-05 1.872418179285e-03 0.0 
0.0 0.0 0.0 
1.827349226979e-05 2.501915605504e-04 0.0 
2.501915605504e-04 1.387406753658e-03 0.0 
0.0 0.0 0.0 
7.138175706922e-05 1.189072523032e-04 0.0 
1.189072523032e-04 1.107285441350e-03 0.0 
0.0 0.0 0.0 
-1.403488895697e-04 2.161062616033e-04 0.0 
2.161062616033e-04 7.274942658702e-04 0.0 
0.0 0.0 0.0 
-1.135117256849e-04 4.997142441929e-05 0.0 
4.997142441929e-05 1.810965998457e-03 0.0 
0.0 0.0 0.0 
4.008814266432e-05 2.460114999171e-04 0.0 
2.460114999171e-04 1.363918790893e-03 0.0 
0.0 0.0 0.0 
-7.773076969664e-05 6.527641671010e-05 0.0 
6.527641671010e-05 1.894489779132e-03 0.0 
0.0 0.0 0.0 
1.291544778568e-04 1.596504761530e-04 0.0 
1.596504761530e-04 9.310017347794e-04 0.0 
0.0 0.0 0.0 
1.329336077982e-04 1.050801207050e-04 0.0 
1.050801207050e-04 7.180497158341e-04 0.0 
0.0 0.0 0.0 
1.092735098105e-04 1.684737154277e-05 0.0 
1.684737154277e-05 6.689510910352e-04 0.0 
0.0 0.0 0.0 
2.220561236488e-05 3.219462411982e-05 0.0 
3.219462411982e-05 2.071364655221e-04 0.0 
0.0 0.0 0.0 
-6.612121039351e-05 6.307170721737e-05 0.0 
6.307170721737e-05 1.924199709322e-03 0.0 
0.0 0.0 0.0 
6.216137921089e-05 -8.257843424687e-06 0.0 
-8.257843424687e-06 3.271636019977e-04 0.0 
0.0 0.0 0.0 
-1.291720155867e-04 1.996621373821e-04 0.0 
1.996621373821e-04 9.310055133107e-04 0.0 
0.0 0.0 0.0 
4.231386017572e-06 2.516229229692e-04 0.0 
2.516229229692e-04 1.404884972257e-03 0.0 
0.0 0.0 0.0 
-4.331922943124e-05 5.670215173946e-05 0.0 
5.670215173946e-05 1.983846035864e-03 0.0 
0.0 0.0 0.0 
5.639081957787e-05 -2.950567629543e-05 0.0 
-2.950567629543e-05 2.808984556630e-04 0.0 
0.0 0.0 0.0 
-1.762642443159e-05 2.486298385561e-04 0.0 
2.486298385561e-04 1.258423759301e-03 0.0 
0.0 0.0 0.0 
-1.001729444582e-04 6.731536345882e-05 0.0 
6.731536345882e-05 1.832858007303e-03 0.0 
0.0 0.0 0.0 
1.111468178923e-04 1.227052058326e-05 0.0 
1.227052058326e-05 6.555468015870e-04 0.0 
0.0 0.0 0.0 
7.870130070753e-05 4.987945075433e-06 0.0 
4.987945075433e-06 3.435684448239e-04 0.0 
0.0 0.0 0.0 
8.146619665372e-05 1.963481360394e-04 0.0 
1.963481360394e-04 6.642135034025e-04 0.0 
0.0 0.0 0.0 
3.407249316312e-05 -2.307174036003e-05 0.0 
-2.307174036003e-05 2.109701238404e-04 0.0 
0.0 0.0 0.0 
6.978977616101e-05 -5.694185026420e-06 0.0 
-5.694185026420e-06 2.778962412711e-04 0.0 
0.0 0.0 0.0 
5.127446912345e-05 -1.543466295594e-05 0.0 
-1.543466295594e-05 2.439293050460e-04 0.0 
0.0 0.0 0.0 
1.367697722074e-04 1.492028444767e-04 0.0 
1.492028444767e-04 8.581156363290e-04 0.0 
0.0 0.0 0.0 
-2.815059628070e-05 1.547571981876e-04 0.0 
1.547571981876e-04 2.034744181000e-03 0.0 
0.0 0.0 0.0 
-1.510470467652e-04 1.782276376301e-04 0.0 
1.782276376301e-04 1.150147799943e-03 0.0 
0.0 0.0 0.0 
7.566523407965e-05 8.544004079526e-05 0.0 
8.544004079526e-05 1.052509740250e-03 0.0 
0.0 0.0 0.0 
1.371219345017e-04 1.309553248955e-04 0.0 
1.309553248955e-04 6.392315289214e-04 0.0 
0.0 0.0 0.0 
-1.268494444439e-04 6.621673838780e-05 0.0 
6.621673838780e-05 1.801302507310e-03 0.0 
0.0 0.0 0.0 
5.703138903645e-05 3.939197514488e-05 0.0 
3.939197514488e-05 2.649742643006e-04 0.0 
0.0 0.0 0.0 
5.985298500288e-05 1.377792096729e-04 0.0 
1.377792096729e-04 1.165778038000e-03 0.0 
0.0 0.0 0.0 
4.049849050025e-05 -3.810326992399e-05 0.0 
-3.810326992399e-05 2.460981447638e-04 0.0 
0.0 0.0 0.0 
7.399125737217e-05 -5.813771074469e-06 0.0 
-5.813771074469e-06 3.858255752802e-04 0.0 
0.0 0.0 0.0 
1.068026438402e-04 1.892042820566e-04 0.0 
1.892042820566e-04 1.073184918286e-03 0.0 
0.0 0.0 0.0 
1.316537190097e-04 4.314768751783e-05 0.0 
4.314768751783e-05 6.478952968132e-04 0.0 
0.0 0.0 0.0 
5.556123081707e-05 2.303315601718e-04 0.0 
2.303315601718e-04 1.293550102144e-03 0.0 
0.0 0.0 0.0 
2.235444586174e-05 2.300610051529e-04 0.0 
2.300610051529e-04 8.911173461257e-04 0.0 
0.0 0.0 0.0 
-1.264076438893e-04 1.033101939834e-04 0.0 
1.033101939834e-04 1.834300099127e-03 0.0 
0.0 0.0 0.0 
6.517286170116e-05 2.323321801714e-04 0.0 
2.323321801714e-04 1.293244163492e-03 0.0 
0.0 0.0 0.0 
-9.943046363414e-05 5.377375230101e-05 0.0 
5.377375230101e-05 1.810503098604e-03 0.0 
0.0 0.0 0.0 
-8.418921205355e-05 1.808728912290e-04 0.0 
1.808728912290e-04 1.892745376585e-03 0.0 
0.0 0.0 0.0 
-1.031827720408e-04 7.817508538352e-05 0.0 
7.817508538352e-05 1.884569190081e-03 0.0 
0.0 0.0 0.0 
-1.010273424537e-04 9.506200132453e-05 0.0 
9.506200132453e-05 1.901798179404e-03 0.0 
0.0 0.0 0.0 
6.765668434294e-05 1.094247234097e-04 0.0 
1.094247234097e-04 3.717774077514e-04 0.0 
0.0 0.0 0.0 
8.274549305587e-05 7.106403478138e-05 0.0 
7.106403478138e-05 1.003673129310e-03 0.0 
0.0 0.0 0.0 
-9.975624619385e-05 8.279574892319e-05 0.0 
8.279574892319e-05 1.852387578405e-03 0.0 
0.0 0.0 0.0 
1.178177181687e-04 1.849772886107e-04 0.0 
1.849772886107e-04 8.547097522276e-04 0.0 
0.0 0.0 0.0 
-1.311346760214e-04 8.620984387053e-05 0.0 
8.620984387053e-05 1.316992508714e-03 0.0 
0.0 0.0 0.0 
4.012290203970e-05 2.408853390894e-04 0.0 
2.408853390894e-04 1.363682373525e-03 0.0 
0.0 0.0 0.0 
9.861489635310e-05 7.360589042438e-05 0.0 
7.360589042438e-05 3.764635275487e-04 0.0 
0.0 0.0 0.0 
6.594959701434e-05 -2.036385927991e-05 0.0 
-2.036385927991e-05 3.602283600639e-04 0.0 
0.0 0.0 0.0 
7.862198016784e-05 2.248593610474e-04 0.0 
2.248593610474e-04 1.217783279656e-03 0.0 
0.0 0.0 0.0 
3.564775120535e-05 -7.935005085026e-06 0.0 
-7.935005085026e-06 2.143970199988e-04 0.0 
0.0 0.0 0.0 
5.163673625419e-05 2.265743812657e-04 0.0 
2.265743812657e-04 1.051481231955e-03 0.0 
0.0 0.0 0.0 
1.065891491936e-04 1.814120735449e-04 0.0 
1.814120735449e-04 1.078729931482e-03 0.0 
0.0 0.0 0.0 
-8.112116186343e-05 1.079119904532e-04 0.0 
1.079119904532e-04 1.947380610722e-03 0.0 
0.0 0.0 0.0 
-7.445792358107e-05 1.278825536578e-04 0.0 
1.278825536578e-04 1.959711080464e-03 0.0 
0.0 0.0 0.0 
9.866101436806e-05 1.744098928205e-04 0.0 
1.744098928205e-04 1.075381790123e-03 0.0 
0.0 0.0 0.0 
-8.938090455601e-05 7.518234411455e-05 0.0 
7.518234411455e-05 1.915456263881e-03 0.0 
0.0 0.0 0.0 
1.308816963945e-04 1.550699883659e-04 0.0 
1.550699883659e-04 7.088531570441e-04 0.0 
0.0 0.0 0.0 
-3.046467704948e-05 2.523022118694e-04 0.0 
2.523022118694e-04 1.505086384404e-03 0.0 
0.0 0.0 0.0 
-1.365489962897e-04 5.701320551288e-05 0.0 
5.701320551288e-05 1.397171268996e-03 0.0 
0.0 0.0 0.0 
-5.907003452432e-05 2.291076875188e-04 0.0 
2.291076875188e-04 1.780824360396e-03 0.0 
0.0 0.0 0.0 
-1.416533830316e-04 4.578265536773e-05 0.0 
4.578265536773e-05 1.465327812958e-03 0.0 
0.0 0.0 0.0 
-1.389974691917e-04 3.996694902527e-05 0.0 
3.996694902527e-05 1.499204261836e-03 0.0 
0.0 0.0 0.0 
1.373981003767e-04 1.505605287804e-04 0.0 
1.505605287804e-04 7.811609337176e-04 0.0 
0.0 0.0 0.0 
-1.413665908087e-04 4.019627652018e-05 0.0 
4.019627652018e-05 1.532458304177e-03 0.0 
0.0 0.0 0.0 
6.512405356207e-05 2.188520750478e-04 0.0 
2.188520750478e-04 1.097067032920e-03 0.0 
0.0 0.0 0.0 
8.887418184278e-05 1.914247789102e-04 0.0 
1.914247789102e-04 8.777945233485e-04 0.0 
0.0 0.0 0.0 
1.352484902892e-04 9.536867678207e-05 0.0 
9.536867678207e-05 7.260954694654e-04 0.0 
0.0 0.0 0.0 
7.943165508495e-05 1.559300988680e-05 0.0 
1.559300988680e-05 2.956580207842e-04 0.0 
0.0 0.0 0.0 
1.442468060462e-04 1.282601134434e-04 0.0 
1.282601134434e-04 7.144661248137e-04 0.0 
0.0 0.0 0.0 
-6.263087365288e-05 7.646795195325e-05 0.0 
7.646795195325e-05 1.945269750946e-03 0.0 
0.0 0.0 0.0 
-6.518486406748e-05 2.099812575750e-04 0.0 
2.099812575750e-04 1.848639547485e-03 0.0 
0.0 0.0 0.0 
9.712841772602e-05 6.287666474301e-05 0.0 
6.287666474301e-05 9.299661133642e-04 0.0 
0.0 0.0 0.0 
6.527011950186e-05 2.366025107046e-04 0.0 
2.366025107046e-04 1.290858218869e-03 0.0 
0.0 0.0 0.0 
1.456936582660e-04 6.181464336009e-05 0.0 
6.181464336009e-05 6.448955923426e-04 0.0 
0.0 0.0 0.0 
-8.494545948123e-05 9.754017943885e-05 0.0 
9.754017943885e-05 1.901440927378e-03 0.0 
0.0 0.0 0.0 
1.472708212962e-04 1.171934169078e-04 0.0 
1.171934169078e-04 7.227663709755e-04 0.0 
0.0 0.0 0.0 
7.313684514987e-05 6.629939509814e-05 0.0 
6.629939509814e-05 1.032417715208e-03 0.0 
0.0 0.0 0.0 
-8.769617360671e-05 8.129815361850e-05 0.0 
8.129815361850e-05 1.884148165721e-03 0.0 
0.0 0.0 0.0 
-1.143615195593e-04 9.906470284425e-05 0.0 
9.906470284425e-05 1.868604851173e-03 0.0 
0.0 0.0 0.0 
1.293755708165e-04 1.509833323169e-04 0.0 
1.509833323169e-04 9.390941716152e-04 0.0 
0.0 0.0 0.0 
1.387963862707e-04 1.409252975747e-04 0.0 
1.409252975747e-04 7.097033628007e-04 0.0 
0.0 0.0 0.0 
-2.628687815909e-05 2.584262727259e-04 0.0 
2.584262727259e-04 1.559467165576e-03 0.0 
0.0 0.0 0.0 
-1.022417316623e-04 2.144041420611e-04 0.0 
2.144041420611e-04 1.529850688517e-03 0.0 
0.0 0.0 0.0 
6.363603843873e-05 -1.336286825923e-05 0.0 
-1.336286825923e-05 3.003785552851e-04 0.0 
0.0 0.0 0.0 
8.271790660697e-05 3.854707278507e-05 0.0 
3.854707278507e-05 3.821794637480e-04 0.0 
0.0 0.0 0.0 
4.889601377034e-05 2.348841935450e-04 0.0 
2.348841935450e-04 8.533295628481e-04 0.0 
0.0 0.0 0.0 
-2.467179304755e-05 2.519037912892e-04 0.0 
2.519037912892e-04 1.258000763264e-03 0.0 
0.0 0.0 0.0 
6.311895824118e-05 6.065711722876e-05 0.0 
6.065711722876e-05 1.062578788831e-03 0.0 
0.0 0.0 0.0 
-1.159433007225e-04 8.095740743179e-05 0.0 
8.095740743179e-05 1.852663049465e-03 0.0 
0.0 0.0 0.0 
1.284657084162e-04 1.163885447647e-04 0.0 
1.163885447647e-04 7.135184973044e-04 0.0 
0.0 0.0 0.0 
-3.732937502943e-05 2.468395074721e-04 0.0 
2.468395074721e-04 1.397360418699e-03 0.0 
0.0 0.0 0.0 
1.039298157277e-04 1.755359865702e-04 0.0 
1.755359865702e-04 1.089436619741e-03 0.0 
0.0 0.0 0.0 
-7.807911060820e-05 5.800890694021e-05 0.0 
5.800890694021e-05 1.924864627291e-03 0.0 
0.0 0.0 0.0 
-3.729501525351e-05 2.621946864713e-04 0.0 
2.621946864713e-04 1.630192164701e-03 0.0 
0.0 0.0 0.0 
-1.199020418869e-04 6.777157374516e-05 0.0 
6.777157374516e-05 1.768442544586e-03 0.0 
0.0 0.0 0.0 
9.971392398289e-05 1.434197183923e-04 0.0 
1.434197183923e-04 1.064105989021e-03 0.0 
0.0 0.0 0.0 
1.314783739463e-04 1.176133181371e-04 0.0 
1.176133181371e-04 7.891782328282e-04 0.0 
0.0 0.0 0.0 
9.368105868668e-05 1.608606517164e-04 0.0 
1.608606517164e-04 1.090812903453e-03 0.0 
0.0 0.0 0.0 
4.814798028963e-05 2.405721265570e-04 0.0 
2.405721265570e-04 1.049409158063e-03 0.0 
0.0 0.0 0.0 
-7.143419951916e-05 8.689724745143e-05 0.0 
8.689724745143e-05 1.963494802136e-03 0.0 
0.0 0.0 0.0 
-4.353213829433e-05 2.633529001679e-04 0.0 
2.633529001679e-04 1.702347817181e-03 0.0 
0.0 0.0 0.0 
1.380454532773e-04 1.396391260622e-04 0.0 
1.396391260622e-04 8.659531775563e-04 0.0 
0.0 0.0 0.0 
8.616069556822e-05 4.885867076981e-05 0.0 
4.885867076981e-05 3.241212557612e-04 0.0 
0.0 0.0 0.0 
3.478477119834e-05 2.565624201506e-04 0.0 
2.565624201506e-04 1.371503169283e-03 0.0 
0.0 0.0 0.0 
4.908075434984e-05 2.287745821465e-04 0.0 
2.287745821465e-04 1.115928134152e-03 0.0 
0.0 0.0 0.0 
1.215989614649e-04 1.294549011804e-04 0.0 
1.294549011804e-04 7.129039369607e-04 0.0 
0.0 0.0 0.0 
1.199934710283e-04 1.422464089734e-04 0.0 
1.422464089734e-04 9.336549865102e-04 0.0 
0.0 0.0 0.0 
9.784440589011e-05 1.109997151159e-04 0.0 
1.109997151159e-04 1.008384265410e-03 0.0 
0.0 0.0 0.0 
7.013109202680e-05 1.431968729343e-05 0.0 
1.431968729343e-05 3.298206716544e-04 0.0 
0.0 0.0 0.0 
1.440408285640e-04 1.284114304659e-04 0.0 
1.284114304659e-04 7.938755547858e-04 0.0 
0.0 0.0 0.0 
-1.268660997948e-04 1.689784799573e-04 0.0 
1.689784799573e-04 1.669370908552e-03 0.0 
0.0 0.0 0.0 
5.884894397834e-05 4.865559226916e-05 0.0 
4.865559226916e-05 1.064279302692e-03 0.0 
0.0 0.0 0.0 
-1.129665007124e-04 1.913749112724e-04 0.0 
1.913749112724e-04 1.655706808769e-03 0.0 
0.0 0.0 0.0 
2.177894061028e-05 2.582414054390e-04 0.0 
2.582414054390e-04 1.386217249788e-03 0.0 
0.0 0.0 0.0 
-1.369349523035e-04 1.448245726989e-04 0.0 
1.448245726989e-04 1.677848914750e-03 0.0 
0.0 0.0 0.0 
-1.449012032426e-04 9.570656958259e-05 0.0 
9.570656958259e-05 1.676531449823e-03 0.0 
0.0 0.0 0.0 
-8.036410866996e-05 2.304190923323e-04 0.0 
2.304190923323e-04 1.503022686570e-03 0.0 
0.0 0.0 0.0 
7.987456932557e-05 2.193325014513e-04 0.0 
2.193325014513e-04 1.218781279647e-03 0.0 
0.0 0.0 0.0 
8.487181017736e-05 6.406911972926e-05 0.0 
6.406911972926e-05 9.787314700482e-04 0.0 
0.0 0.0 0.0 
-1.109834850617e-04 8.429264665203e-05 0.0 
8.429264665203e-05 1.819550280278e-03 0.0 
0.0 0.0 0.0 
-6.059920940327e-05 1.293221754459e-04 0.0 
1.293221754459e-04 1.959476102462e-03 0.0 
0.0 0.0 0.0 
-1.431911205270e-04 1.199862698317e-04 0.0 
1.199862698317e-04 1.680454952515e-03 0.0 
0.0 0.0 0.0 
1.188258870006e-04 9.143390669047e-05 0.0 
9.143390669047e-05 5.745565442319e-04 0.0 
0.0 0.0 0.0 
1.432437700233e-05 2.588460693057e-04 0.0 
2.588460693057e-04 1.449150353670e-03 0.0 
0.0 0.0 0.0 
-6.123226728760e-05 6.747925073654e-05 0.0 
6.747925073654e-05 1.975297426251e-03 0.0 
0.0 0.0 0.0 
8.812756035326e-05 2.160103695707e-04 0.0 
2.160103695707e-04 9.435936540170e-04 0.0 
0.0 0.0 0.0 
6.791744990209e-05 2.305744480611e-04 0.0 
2.305744480611e-04 1.028155315248e-03 0.0 
0.0 0.0 0.0 
1.255262579645e-04 1.041200959372e-04 0.0 
1.041200959372e-04 6.435026932297e-04 0.0 
0.0 0.0 0.0 
-1.094269196543e-04 1.027074194872e-04 0.0 
1.027074194872e-04 1.834305414866e-03 0.0 
0.0 0.0 0.0 
-3.093935416798e-05 2.572338169627e-04 0.0 
2.572338169627e-04 1.091396930509e-03 0.0 
0.0 0.0 0.0 
7.942208772627e-05 2.239736971895e-04 0.0 
2.239736971895e-04 1.081419498564e-03 0.0 
0.0 0.0 0.0 
-2.453274543623e-05 2.533716314953e-04 0.0 
2.533716314953e-04 1.091892515042e-03 0.0 
0.0 0.0 0.0 
9.307121870883e-05 2.076856592367e-04 0.0 
2.076856592367e-04 1.144639680715e-03 0.0 
0.0 0.0 0.0 
8.935220707551e-06 2.702605624448e-04 0.0 
2.702605624448e-04 1.509682350708e-03 0.0 
0.0 0.0 0.0 
1.310325187298e-04 9.223622951012e-05 0.0 
9.223622951012e-05 6.483567595192e-04 0.0 
0.0 0.0 0.0 
7.320482083850e-06 -6.432393354195e-06 0.0 
-6.432393354195e-06 2.134804131750e-04 0.0 
0.0 0.0 0.0 
-6.517686190577e-05 1.553890366805e-04 0.0 
1.553890366805e-04 1.932389124855e-03 0.0 
0.0 0.0 0.0 
-6.091945978848e-05 2.499983029380e-04 0.0 
2.499983029380e-04 1.190847428416e-03 0.0 
0.0 0.0 0.0 
1.478433352544e-04 7.991532374467e-05 0.0 
7.991532374467e-05 6.941249803283e-04 0.0 
0.0 0.0 0.0 
3.246637373078e-05 2.681819787400e-04 0.0 
2.681819787400e-04 1.435102203364e-03 0.0 
0.0 0.0 0.0 
-1.277574526142e-04 8.399763276102e-05 0.0 
8.399763276102e-05 1.819644596155e-03 0.0 
0.0 0.0 0.0 
9.315479979755e-05 6.864434040585e-05 0.0 
6.864434040585e-05 9.520110151726e-04 0.0 
0.0 0.0 0.0 
1.026017441590e-04 1.690434019173e-04 0.0 
1.690434019173e-04 7.954677211413e-04 0.0 
0.0 0.0 0.0 
-6.971330263061e-07 1.319181175067e-05 0.0 
1.319181175067e-05 1.666958876883e-04 0.0 
0.0 0.0 0.0 
4.946939517292e-05 4.130935557283e-05 0.0 
4.130935557283e-05 1.099749281491e-03 0.0 
0.0 0.0 0.0 
7.382439191073e-07 2.515035036850e-04 0.0 
2.515035036850e-04 1.227079970326e-03 0.0 
0.0 0.0 0.0 
7.727757815967e-05 2.068214351776e-04 0.0 
2.068214351776e-04 1.148173147127e-03 0.0 
0.0 0.0 0.0 
-5.810802877204e-06 2.701556141213e-04 0.0 
2.701556141213e-04 1.541854825150e-03 0.0 
0.0 0.0 0.0 
-4.875529861148e-05 1.018127792018e-05 0.0 
1.018127792018e-05 1.217114453271e-04 0.0 
0.0 0.0 0.0 
1.023535639104e-04 8.152486410055e-05 0.0 
8.152486410055e-05 9.499634209769e-04 0.0 
0.0 0.0 0.0 
8.073115643947e-05 1.391677789427e-04 0.0 
1.391677789427e-04 5.871838878004e-04 0.0 
0.0 0.0 0.0 
-1.376960516535e-04 6.790271080480e-05 0.0 
6.790271080480e-05 1.768484517409e-03 0.0 
0.0 0.0 0.0 
1.104157833520e-04 2.216586212407e-05 0.0 
2.216586212407e-05 7.216785959969e-04 0.0 
0.0 0.0 0.0 
1.434288014679e-04 1.173839410573e-04 0.0 
1.173839410573e-04 6.441034406155e-04 0.0 
0.0 0.0 0.0 
6.768437056537e-05 5.451320681845e-05 0.0 
5.451320681845e-05 1.034267598879e-03 0.0 
0.0 0.0 0.0 
6.445768355734e-05 2.330259673163e-04 0.0 
2.330259673163e-04 1.094913501960e-03 0.0 
0.0 0.0 0.0 
1.391341225838e-04 1.064342606148e-04 0.0 
1.064342606148e-04 5.751231609556e-04 0.0 
0.0 0.0 0.0 
-1.614438379360e-05 2.477074965899e-04 0.0 
2.477074965899e-04 1.314136189516e-03 0.0 
0.0 0.0 0.0 
-1.507696228575e-05 -2.444214952534e-05 0.0 
-2.444214952534e-05 1.735648806644e-04 0.0 
0.0 0.0 0.0 
-1.354721466751e-05 2.508857546741e-04 0.0 
2.508857546741e-04 1.426942500372e-03 0.0 
0.0 0.0 0.0 
8.516530192137e-05 1.938284721104e-04 0.0 
1.938284721104e-04 1.146758460655e-03 0.0 
0.0 0.0 0.0 
-4.313521132915e-05 2.550396484507e-04 0.0 
2.550396484507e-04 1.759442783945e-03 0.0 
0.0 0.0 0.0 
-1.243393030936e-05 2.559226393452e-04 0.0 
2.559226393452e-04 1.484083090802e-03 0.0 
0.0 0.0 0.0 
1.019883586009e-04 5.173482768532e-05 0.0 
5.173482768532e-05 4.462789042712e-04 0.0 
0.0 0.0 0.0 
8.957488400463e-05 5.085308213779e-05 0.0 
5.085308213779e-05 9.319049060603e-04 0.0 
0.0 0.0 0.0 
-4.354853782096e-05 8.684808330899e-05 0.0 
8.684808330899e-05 1.993442282514e-03 0.0 
0.0 0.0 0.0 
2.340553551328e-05 2.586650974645e-04 0.0 
2.586650974645e-04 1.433588204208e-03 0.0 
0.0 0.0 0.0 
7.055698118674e-05 2.127903173766e-04 0.0 
2.127903173766e-04 1.219630055960e-03 0.0 
0.0 0.0 0.0 
1.137383444538e-04 1.539317118106e-04 0.0 
1.539317118106e-04 7.870778075312e-04 0.0 
0.0 0.0 0.0 
-1.485169570226e-05 2.482524090754e-04 0.0 
2.482524090754e-04 1.370476486228e-03 0.0 
0.0 0.0 0.0 
5.992476014849e-05 4.180070573957e-05 0.0 
4.180070573957e-05 1.045883576235e-03 0.0 
0.0 0.0 0.0 
9.478819407738e-05 -2.499034519562e-06 0.0 
-2.499034519562e-06 6.535714937721e-04 0.0 
0.0 0.0 0.0 
5.282393631179e-06 2.570793009365e-04 0.0 
2.570793009365e-04 1.404098006755e-03 0.0 
0.0 0.0 0.0 
-1.105296911059e-04 6.760361469650e-05 0.0 
6.760361469650e-05 1.801092394850e-03 0.0 
0.0 0.0 0.0 
7.651376485018e-05 5.970181720371e-05 0.0 
5.970181720371e-05 1.005453692351e-03 0.0 
0.0 0.0 0.0 
8.783029118287e-05 8.447702724573e-05 0.0 
8.447702724573e-05 1.000967666853e-03 0.0 
0.0 0.0 0.0 
-8.808727745069e-05 -1.809924489207e-08 0.0 
-1.809924489207e-08 1.557472271186e-03 0.0 
0.0 0.0 0.0 
-8.684578727292e-05 7.574986049932e-07 0.0 
7.574986049932e-07 1.556505490354e-03 0.0 
0.0 0.0 0.0 
-1.369858850255e-04 1.672527096346e-04 0.0 
1.672527096346e-04 1.718535933429e-03 0.0 
0.0 0.0 0.0 
3.462315518954e-06 2.531318516178e-04 0.0 
2.531318516178e-04 1.345035031715e-03 0.0 
0.0 0.0 0.0 
1.059121502232e-04 2.158969566261e-05 0.0 
2.158969566261e-05 7.483972384132e-04 0.0 
0.0 0.0 0.0 
-9.287417373638e-05 2.260202725450e-04 0.0 
2.260202725450e-04 1.572894052331e-03 0.0 
0.0 0.0 0.0 
8.421715019402e-05 2.194903353046e-04 0.0 
2.194903353046e-04 1.012238606869e-03 0.0 
0.0 0.0 0.0 
7.568034254235e-05 1.782803883850e-04 0.0 
1.782803883850e-04 1.177680759879e-03 0.0 
0.0 0.0 0.0 
1.203120372475e-04 1.778685828749e-04 0.0 
1.778685828749e-04 7.834630565355e-04 0.0 
0.0 0.0 0.0 
-2.586025201001e-05 1.357532120807e-04 0.0 
1.357532120807e-04 2.046422408406e-03 0.0 
0.0 0.0 0.0 
-1.482117904797e-04 7.741380892208e-05 0.0 
7.741380892208e-05 1.628991482434e-03 0.0 
0.0 0.0 0.0 
6.904121514140e-05 2.147719821209e-04 0.0 
2.147719821209e-04 1.030561287890e-03 0.0 
0.0 0.0 0.0 
1.205193166753e-04 3.504420239464e-05 0.0 
3.504420239464e-05 7.195360910415e-04 0.0 
0.0 0.0 0.0 
9.175963401864e-05 6.528757238771e-05 0.0 
6.528757238771e-05 4.410402994819e-04 0.0 
0.0 0.0 0.0 
1.141916477596e-04 1.187619951095e-05 0.0 
1.187619951095e-05 6.298129821420e-04 0.0 
0.0 0.0 0.0 
1.984564990787e-06 2.515007004556e-04 0.0 
2.515007004556e-04 1.286048142231e-03 0.0 
0.0 0.0 0.0 
-4.681124211081e-05 2.475782385224e-04 0.0 
2.475782385224e-04 1.344576695565e-03 0.0 
0.0 0.0 0.0 
-1.213596120018e-04 8.606987797306e-05 0.0 
8.606987797306e-05 1.785814732285e-03 0.0 
0.0 0.0 0.0 
-6.972228945645e-05 2.354712083370e-04 0.0 
2.354712083370e-04 1.549964736774e-03 0.0 
0.0 0.0 0.0 
-8.232982148104e-05 2.310427252630e-04 0.0 
2.310427252630e-04 1.617819012398e-03 0.0 
0.0 0.0 0.0 
1.945088033772e-05 -9.846453027146e-06 0.0 
-9.846453027146e-06 1.553032336401e-04 0.0 
0.0 0.0 0.0 
1.197241647797e-04 1.595353079726e-05 0.0 
1.595353079726e-05 5.891396858548e-04 0.0 
0.0 0.0 0.0 
-5.208523559430e-05 2.538061653830e-04 0.0 
2.538061653830e-04 1.190373375142e-03 0.0 
0.0 0.0 0.0 
-1.097633607543e-04 2.021037758176e-04 0.0 
2.021037758176e-04 1.595583640815e-03 0.0 
0.0 0.0 0.0 
-1.206031054058e-04 1.995627689523e-04 0.0 
1.995627689523e-04 1.654155254224e-03 0.0 
0.0 0.0 0.0 
7.775124699738e-05 2.115964537725e-04 0.0 
2.115964537725e-04 1.220640696102e-03 0.0 
0.0 0.0 0.0 
4.156565025526e-05 4.922066347388e-06 0.0 
4.922066347388e-06 2.405695368815e-04 0.0 
0.0 0.0 0.0 
5.451348148200e-05 -6.321572699630e-06 0.0 
-6.321572699630e-06 2.843603721199e-04 0.0 
0.0 0.0 0.0 
2.438235184177e-05 2.481810848825e-04 0.0 
2.481810848825e-04 1.138636020777e-03 0.0 
0.0 0.0 0.0 
1.088598659116e-04 2.534431653462e-06 0.0 
2.534431653462e-06 5.912246683533e-04 0.0 
0.0 0.0 0.0 
-1.597922954081e-04 5.714906464917e-05 0.0 
5.714906464917e-05 1.495888097699e-03 0.0 
0.0 0.0 0.0 
-1.571299869364e-04 5.160896279454e-05 0.0 
5.160896279454e-05 1.530949479964e-03 0.0 
0.0 0.0 0.0 
-1.382740159869e-04 8.776278138807e-05 0.0 
8.776278138807e-05 1.785674356090e-03 0.0 
0.0 0.0 0.0 
3.326002309922e-05 8.999905639015e-05 0.0 
8.999905639015e-05 3.866763721216e-04 0.0 
0.0 0.0 0.0 
1.172381720140e-04 2.504842151921e-05 0.0 
2.504842151921e-05 6.800642584317e-04 0.0 
0.0 0.0 0.0 
1.033364831493e-04 1.413882490381e-04 0.0 
1.413882490381e-04 1.027255898441e-03 0.0 
0.0 0.0 0.0 
7.036722715448e-05 2.656102529312e-05 0.0 
2.656102529312e-05 2.771219212008e-04 0.0 
0.0 0.0 0.0 
-4.069607431045e-07 2.846202566979e-04 0.0 
2.846202566979e-04 1.628316054467e-03 0.0 
0.0 0.0 0.0 
-8.619245603125e-05 9.098913905577e-05 0.0 
9.098913905577e-05 1.932757639549e-03 0.0 
0.0 0.0 0.0 
1.044865017872e-04 4.845985165971e-06 0.0 
4.845985165971e-06 6.438485317233e-04 0.0 
0.0 0.0 0.0 
8.820643353702e-05 5.877435952261e-05 0.0 
5.877435952261e-05 9.581557516314e-04 0.0 
0.0 0.0 0.0 
1.721199421501e-05 -1.275845584738e-05 0.0 
-1.275845584738e-05 1.073479913467e-04 0.0 
0.0 0.0 0.0 
1.112679647119e-04 1.211430133470e-04 0.0 
1.211430133470e-04 9.676260801283e-04 0.0 
0.0 0.0 0.0 
6.493869660895e-06 2.448662529402e-04 0.0 
2.448662529402e-04 1.228019402089e-03 0.0 
0.0 0.0 0.0 
1.869081227412e-05 -9.415741487314e-06 0.0 
-9.415741487314e-06 1.059387291671e-04 0.0 
0.0 0.0 0.0 
-7.147902218241e-05 9.429595335475e-05 0.0 
9.429595335475e-05 1.932434045115e-03 0.0 
0.0 0.0 0.0 
4.034620454130e-05 3.246845817985e-06 0.0 
3.246845817985e-06 2.710131205608e-04 0.0 
0.0 0.0 0.0 
-1.139334218377e-04 2.105938761613e-04 0.0 
2.105938761613e-04 1.594310874248e-03 0.0 
0.0 0.0 0.0 
-4.077102297306e-05 2.473937354860e-04 0.0 
2.473937354860e-04 1.344574149361e-03 0.0 
0.0 0.0 0.0 
1.358263390132e-04 6.670698268667e-05 0.0 
6.670698268667e-05 6.812658623494e-04 0.0 
0.0 0.0 0.0 
1.362792055366e-04 8.267082924447e-05 0.0 
8.267082924447e-05 8.043018749564e-04 0.0 
0.0 0.0 0.0 
-6.710161973189e-05 1.109018095724e-04 0.0 
1.109018095724e-04 1.947183376689e-03 0.0 
0.0 0.0 0.0 
1.278979736452e-04 9.514060908722e-05 0.0 
9.514060908722e-05 8.768545172628e-04 0.0 
0.0 0.0 0.0 
4.596677778168e-05 2.411111938178e-04 0.0 
2.411111938178e-04 1.114077168487e-03 0.0 
0.0 0.0 0.0 
2.947549045973e-05 2.378492180989e-04 0.0 
2.378492180989e-04 1.140130620588e-03 0.0 
0.0 0.0 0.0 
-1.400323305364e-04 1.889049795130e-04 0.0 
1.889049795130e-04 2.228295381619e-04 0.0 
0.0 0.0 0.0 
3.746613007971e-05 1.804813892545e-05 0.0 
1.804813892545e-05 2.225058683465e-04 0.0 
0.0 0.0 0.0 
2.986851112885e-06 2.588108756809e-04 0.0 
2.588108756809e-04 1.463448824851e-03 0.0 
0.0 0.0 0.0 
-1.556146698548e-04 9.725048126360e-05 0.0 
9.725048126360e-05 1.713472729254e-03 0.0 
0.0 0.0 0.0 
2.048011027012e-05 2.671835915763e-04 0.0 
2.671835915763e-04 1.447586500502e-03 0.0 
0.0 0.0 0.0 
9.059402038103e-05 1.724327781402e-04 0.0 
1.724327781402e-04 5.820892368840e-04 0.0 
0.0 0.0 0.0 
-9.972517465773e-05 1.697523489093e-04 0.0 
1.697523489093e-04 1.809278123217e-03 0.0 
0.0 0.0 0.0 
-1.129650449438e-05 2.649071207526e-04 0.0 
2.649071207526e-04 1.542244431850e-03 0.0 
0.0 0.0 0.0 
-1.501457688209e-04 6.240301842500e-05 0.0 
6.240301842500e-05 1.547631579770e-03 0.0 
0.0 0.0 0.0 
6.416493670836e-06 2.626171422689e-04 0.0 
2.626171422689e-04 1.462759478544e-03 0.0 
0.0 0.0 0.0 
8.176437008967e-05 4.690855054619e-05 0.0 
4.690855054619e-05 9.600729479629e-04 0.0 
0.0 0.0 0.0 
2.307768226273e-05 2.492218331783e-04 0.0 
2.492218331783e-04 1.262052406532e-03 0.0 
0.0 0.0 0.0 
1.217370269568e-04 2.546454022742e-05 0.0 
2.546454022742e-05 6.534673867371e-04 0.0 
0.0 0.0 0.0 
1.146451898848e-04 2.257508894961e-05 0.0 
2.257508894961e-05 6.955928613104e-04 0.0 
0.0 0.0 0.0 
-8.254136941788e-05 1.556375068774e-04 0.0 
1.556375068774e-04 1.932713936589e-03 0.0 
0.0 0.0 0.0 
1.412393633904e-04 7.009295338806e-05 0.0 
7.009295338806e-05 7.339730495226e-04 0.0 
0.0 0.0 0.0 
-2.150312196769e-05 2.512391511826e-04 0.0 
2.512391511826e-04 1.313678823440e-03 0.0 
0.0 0.0 0.0 
1.135820437270e-04 1.920522251925e-04 0.0 
1.920522251925e-04 9.266104207790e-04 0.0 
0.0 0.0 0.0 
1.152370547581e-04 1.072701323757e-04 0.0 
1.072701323757e-04 9.517070032612e-04 0.0 
0.0 0.0 0.0 
8.697138128322e-05 1.972548234986e-04 0.0 
1.972548234986e-04 9.463356977721e-04 0.0 
0.0 0.0 0.0 
1.252391363440e-04 7.063848676854e-05 0.0 
7.063848676854e-05 4.512147929714e-04 0.0 
0.0 0.0 0.0 
1.441552274923e-04 1.193955718950e-04 0.0 
1.193955718950e-04 8.046594050146e-04 0.0 
0.0 0.0 0.0 
1.306445530134e-04 9.527270551450e-05 0.0 
9.527270551450e-05 5.074084889396e-04 0.0 
0.0 0.0 0.0 
-9.053013142679e-05 2.210416595710e-04 0.0 
2.210416595710e-04 1.573592038013e-03 0.0 
0.0 0.0 0.0 
1.160925127441e-04 6.535712103230e-05 0.0 
6.535712103230e-05 5.121432034370e-04 0.0 
0.0 0.0 0.0 
-7.939267825907e-05 2.352098206169e-04 0.0 
2.352098206169e-04 1.502367657449e-03 0.0 
0.0 0.0 0.0 
7.075515639610e-05 2.066416709081e-04 0.0 
2.066416709081e-04 1.220787812628e-03 0.0 
0.0 0.0 0.0 
9.362125513146e-05 2.002350893262e-04 0.0 
2.002350893262e-04 1.147360193047e-03 0.0 
0.0 0.0 0.0 
1.058832295076e-04 1.984072294022e-04 0.0 
1.984072294022e-04 8.619154621095e-04 0.0 
0.0 0.0 0.0 
-1.297685798847e-04 8.819244840558e-05 0.0 
8.819244840558e-05 1.750357092634e-03 0.0 
0.0 0.0 0.0 
7.895829246696e-05 5.401985409432e-05 0.0 
5.401985409432e-05 9.872535283888e-04 0.0 
0.0 0.0 0.0 
7.391909441878e-05 4.235213897783e-05 0.0 
4.235213897783e-05 9.891601113097e-04 0.0 
0.0 0.0 0.0 
-6.789214317404e-07 8.353291457179e-05 0.0 
8.353291457179e-05 3.286451683053e-04 0.0 
0.0 0.0 0.0 
-5.741699750217e-05 2.422101639608e-04 0.0 
2.422101639608e-04 1.476059543540e-03 0.0 
0.0 0.0 0.0 
5.274693994517e-05 5.536672140440e-05 0.0 
5.536672140440e-05 1.096511012198e-03 0.0 
0.0 0.0 0.0 
-9.888556478488e-05 2.253213664129e-04 0.0 
2.253213664129e-04 1.156596730764e-03 0.0 
0.0 0.0 0.0 
1.042452421980e-04 1.271381024171e-05 0.0 
1.271381024171e-05 7.086867590318e-04 0.0 
0.0 0.0 0.0 
-1.234755339227e-04 1.488928701460e-04 0.0 
1.488928701460e-04 3.157577986677e-04 0.0 
0.0 0.0 0.0 
6.978526001644e-05 4.863848192220e-05 0.0 
4.863848192220e-05 1.016931724405e-03 0.0 
0.0 0.0 0.0 
1.174286410603e-04 8.410596227375e-05 0.0 
8.410596227375e-05 4.411905801731e-04 0.0 
0.0 0.0 0.0 
9.643505301660e-05 5.899642146659e-06 0.0 
5.899642146659e-06 6.736463867865e-04 0.0 
0.0 0.0 0.0 
8.455795013940e-05 2.227907644115e-04 0.0 
2.227907644115e-04 1.146240321590e-03 0.0 
0.0 0.0 0.0 
-1.479420622964e-04 9.158095719741e-05 0.0 
9.158095719741e-05 1.749993685387e-03 0.0 
0.0 0.0 0.0 
-1.392687462877e-04 9.191149233544e-05 0.0 
9.191149233544e-05 1.714098687525e-03 0.0 
0.0 0.0 0.0 
2.361449417854e-05 2.481385359851e-04 0.0 
2.481385359851e-04 1.200547351319e-03 0.0 
0.0 0.0 0.0 
-1.628342228067e-04 7.765927206974e-05 0.0 
7.765927206974e-05 1.425689450359e-03 0.0 
0.0 0.0 0.0 
-1.601187550176e-04 6.757069163491e-05 0.0 
6.757069163491e-05 1.462000918216e-03 0.0 
0.0 0.0 0.0 
6.621424395847e-05 3.719862771542e-05 0.0 
3.719862771542e-05 1.018833576851e-03 0.0 
0.0 0.0 0.0 
1.213752261957e-04 8.361162658341e-05 0.0 
8.361162658341e-05 8.570849082830e-04 0.0 
0.0 0.0 0.0 
1.347297067060e-04 8.049028281912e-05 0.0 
8.049028281912e-05 7.505337870051e-04 0.0 
0.0 0.0 0.0 
1.231290794153e-04 1.369871023924e-04 0.0 
1.369871023924e-04 9.656057479179e-04 0.0 
0.0 0.0 0.0 
1.482090948968e-04 1.075799420946e-04 0.0 
1.075799420946e-04 7.339609258985e-04 0.0 
0.0 0.0 0.0 
1.078467628530e-04 7.838553489041e-05 0.0 
7.838553489041e-05 5.069070648376e-04 0.0 
0.0 0.0 0.0 
-1.352279809105e-04 4.700093922854e-05 0.0 
4.700093922854e-05 1.432334385182e-03 0.0 
0.0 0.0 0.0 
-1.601575310222e-04 8.059746137484e-05 0.0 
8.059746137484e-05 1.664867576093e-03 0.0 
0.0 0.0 0.0 
-8.855808049635e-05 1.101024810581e-07 0.0 
1.101024810581e-07 1.557801649773e-03 0.0 
0.0 0.0 0.0 
8.483912583634e-05 1.872912620155e-04 0.0 
1.872912620155e-04 1.149237684537e-03 0.0 
0.0 0.0 0.0 
1.020526596962e-04 1.767661635732e-04 0.0 
1.767661635732e-04 8.650718373193e-04 0.0 
0.0 0.0 0.0 
5.216107644967e-05 2.502340095660e-04 0.0 
2.502340095660e-04 1.361719115280e-03 0.0 
0.0 0.0 0.0 
6.587022748294e-05 2.020124858707e-05 0.0 
2.020124858707e-05 9.954849423597e-04 0.0 
0.0 0.0 0.0 
1.329161379122e-04 1.085907996405e-04 0.0 
1.085907996405e-04 7.970675469484e-04 0.0 
0.0 0.0 0.0 
3.757414039707e-05 5.359705296874e-05 0.0 
5.359705296874e-05 1.145650385789e-03 0.0 
0.0 0.0 0.0 
1.219433926460e-04 5.467173240466e-05 0.0 
5.467173240466e-05 5.215506558591e-04 0.0 
0.0 0.0 0.0 
5.106879419037e-05 2.532194986362e-04 0.0 
2.532194986362e-04 1.361233291967e-03 0.0 
0.0 0.0 0.0 
2.765447575537e-05 2.387726480375e-04 0.0 
2.387726480375e-04 1.201933721406e-03 0.0 
0.0 0.0 0.0 
4.118293805622e-05 2.448804576941e-04 0.0 
2.448804576941e-04 1.241829928475e-03 0.0 
0.0 0.0 0.0 
7.973180739174e-05 1.494786409463e-04 0.0 
1.494786409463e-04 1.124204168534e-03 0.0 
0.0 0.0 0.0 
1.039485865071e-04 -1.003846652912e-05 0.0 
-1.003846652912e-05 4.805453013201e-04 0.0 
0.0 0.0 0.0 
-4.120194080237e-05 2.482147876692e-04 0.0 
2.482147876692e-04 1.397216170780e-03 0.0 
0.0 0.0 0.0 
1.358370370730e-04 8.734046381536e-05 0.0 
8.734046381536e-05 7.371156653115e-04 0.0 
0.0 0.0 0.0 
-6.166850607370e-05 2.427145742989e-04 0.0 
2.427145742989e-04 1.425957126494e-03 0.0 
0.0 0.0 0.0 
7.472923949381e-05 1.664898745765e-04 0.0 
1.664898745765e-04 6.686148636386e-04 0.0 
0.0 0.0 0.0 
5.687816623845e-05 2.416423040056e-04 0.0 
2.416423040056e-04 1.228720517481e-03 0.0 
0.0 0.0 0.0 
1.493145654037e-04 8.703900291143e-05 0.0 
8.703900291143e-05 6.779299301416e-04 0.0 
0.0 0.0 0.0 
1.147856482722e-04 3.375602469055e-05 0.0 
3.375602469055e-05 7.463173552842e-04 0.0 
0.0 0.0 0.0 
-6.574291317141e-05 2.396688664384e-04 0.0 
2.396688664384e-04 1.426382219255e-03 0.0 
0.0 0.0 0.0 
-8.775236988789e-05 8.506708130233e-05 0.0 
8.506708130233e-05 2.028746234504e-04 0.0 
0.0 0.0 0.0 
1.076735987049e-04 1.993731682610e-04 0.0 
1.993731682610e-04 9.989539444406e-04 0.0 
0.0 0.0 0.0 
-7.246485417700e-05 1.354007200629e-04 0.0 
1.354007200629e-04 3.692947095908e-04 0.0 
0.0 0.0 0.0 
2.099987667936e-05 -1.440817923632e-05 0.0 
-1.440817923632e-05 1.693306229751e-04 0.0 
0.0 0.0 0.0 
1.124143661617e-04 2.437801131017e-05 0.0 
2.437801131017e-05 7.065813415517e-04 0.0 
0.0 0.0 0.0 
-4.410887117667e-05 2.516241679648e-04 0.0 
2.516241679648e-04 1.578901512341e-03 0.0 
0.0 0.0 0.0 
-1.373837936061e-04 1.133087252695e-04 0.0 
1.133087252695e-04 1.721434119240e-03 0.0 
0.0 0.0 0.0 
-1.679927992965e-04 1.182309371188e-04 0.0 
1.182309371188e-04 1.349017535016e-03 0.0 
0.0 0.0 0.0 
0.0 1.402292139886e-04 0.0 
1.402292139886e-04 2.041874493481e-03 0.0 
0.0 0.0 0.0 
-1.319898876720e-04 1.597803146948e-04 0.0 
1.597803146948e-04 1.329065032136e-04 0.0 
0.0 0.0 0.0 
-1.620614412656e-04 9.666767911904e-05 0.0 
9.666767911904e-05 1.390776217159e-03 0.0 
0.0 0.0 0.0 
1.448205104457e-04 9.217358307651e-05 0.0 
9.217358307651e-05 7.630748821110e-04 0.0 
0.0 0.0 0.0 
1.018573914320e-04 5.500694479731e-06 0.0 
5.500694479731e-06 6.708549988408e-04 0.0 
0.0 0.0 0.0 
-1.690534685270e-04 1.489547566554e-04 0.0 
1.489547566554e-04 1.459287579757e-03 0.0 
0.0 0.0 0.0 
1.360193190711e-04 4.278401854296e-05 0.0 
4.278401854296e-05 4.969963685677e-04 0.0 
0.0 0.0 0.0 
1.281517314486e-04 7.012097944518e-05 0.0 
7.012097944518e-05 7.849388060719e-04 0.0 
0.0 0.0 0.0 
5.938570230679e-06 2.452753197086e-04 0.0 
2.452753197086e-04 1.286958557401e-03 0.0 
0.0 0.0 0.0 
1.000031238183e-04 2.073925951552e-04 0.0 
2.073925951552e-04 1.071890214842e-03 0.0 
0.0 0.0 0.0 
-6.224937811483e-05 2.333251077025e-04 0.0 
2.333251077025e-04 1.725761325216e-03 0.0 
0.0 0.0 0.0 
3.633037872652e-05 1.038803039572e-04 0.0 
1.038803039572e-04 3.108765833699e-04 0.0 
0.0 0.0 0.0 
1.130516750096e-04 1.671274748121e-05 0.0 
1.671274748121e-05 6.419624219203e-04 0.0 
0.0 0.0 0.0 
1.053589119455e-04 1.671996609843e-05 0.0 
1.671996609843e-05 6.965526945548e-04 0.0 
0.0 0.0 0.0 
7.153267565796e-05 -3.034401036163e-05 0.0 
-3.034401036163e-05 3.514499614470e-04 0.0 
0.0 0.0 0.0 
-1.486238472737e-04 5.955924591786e-05 0.0 
5.955924591786e-05 1.583379712902e-03 0.0 
0.0 0.0 0.0 
-1.532681844512e-04 1.203195048457e-04 0.0 
1.203195048457e-04 1.720529272077e-03 0.0 
0.0 0.0 0.0 
7.994039179460e-05 -2.838799604897e-07 0.0 
-2.838799604897e-07 8.883640308852e-04 0.0 
0.0 0.0 0.0 
8.498890619268e-06 -1.037436726939e-05 0.0 
-1.037436726939e-05 1.079511837989e-04 0.0 
0.0 0.0 0.0 
-7.998176896873e-05 -1.905883547447e-05 0.0 
-1.905883547447e-05 1.066872695479e-04 0.0 
0.0 0.0 0.0 
3.825433200522e-05 -3.736139908607e-05 0.0 
-3.736139908607e-05 2.430701190108e-04 0.0 
0.0 0.0 0.0 
9.925710844794e-05 5.754436022855e-06 0.0 
5.754436022855e-06 6.983852072753e-04 0.0 
0.0 0.0 0.0 
1.301266005158e-04 6.865709438551e-05 0.0 
6.865709438551e-05 5.885183985621e-04 0.0 
0.0 0.0 0.0 
1.188474543470e-04 2.552740768287e-05 0.0 
2.552740768287e-05 4.839484349437e-04 0.0 
0.0 0.0 0.0 
1.096370850839e-04 4.058591216407e-05 0.0 
4.058591216407e-05 4.557954085149e-04 0.0 
0.0 0.0 0.0 
1.074368898302e-04 2.359100663811e-05 0.0 
2.359100663811e-05 7.339660088479e-04 0.0 
0.0 0.0 0.0 
-1.236334221996e-04 1.598423373785e-04 0.0 
1.598423373785e-04 1.719853135506e-03 0.0 
0.0 0.0 0.0 
1.013623579162e-04 1.608337564376e-05 0.0 
1.608337564376e-05 7.245850692641e-04 0.0 
0.0 0.0 0.0 
1.439878884337e-04 9.415027327601e-05 0.0 
9.415027327601e-05 5.842602207837e-04 0.0 
0.0 0.0 0.0 
-5.630253853206e-05 2.433244589804e-04 0.0 
2.433244589804e-04 1.475909815536e-03 0.0 
0.0 0.0 0.0 
-1.151449470141e-04 2.724274980099e-05 0.0 
2.724274980099e-05 1.662523791326e-03 0.0 
0.0 0.0 0.0 
7.482135706227e-05 2.308925616332e-04 0.0 
2.308925616332e-04 1.219998245373e-03 0.0 
0.0 0.0 0.0 
9.659613488222e-05 5.351952445565e-06 0.0 
5.351952445565e-06 7.264128282201e-04 0.0 
0.0 0.0 0.0 
1.005277146786e-04 1.234855726512e-05 0.0 
1.234855726512e-05 7.359891625014e-04 0.0 
0.0 0.0 0.0 
-1.722696342475e-04 1.757995829101e-04 0.0 
1.757995829101e-04 1.246777097442e-03 0.0 
0.0 0.0 0.0 
1.327265860547e-04 6.013752206576e-05 0.0 
6.013752206576e-05 6.000325994389e-04 0.0 
0.0 0.0 0.0 
9.733024809777e-05 1.465888915889e-05 0.0 
1.465888915889e-05 7.526623276852e-04 0.0 
0.0 0.0 0.0 
-7.297264205219e-05 6.385966261355e-06 0.0 
6.385966261355e-06 1.778465385568e-03 0.0 
0.0 0.0 0.0 
-7.912859078441e-05 5.831947787671e-06 0.0 
5.831947787671e-06 1.723244727516e-03 0.0 
0.0 0.0 0.0 
-1.703945452088e-04 1.478688099425e-04 0.0 
1.478688099425e-04 1.305732365309e-03 0.0 
0.0 0.0 0.0 
1.023901919039e-04 2.246216326992e-05 0.0 
2.246216326992e-05 7.620591212971e-04 0.0 
0.0 0.0 0.0 
1.115836261107e-04 3.554219825997e-06 0.0 
3.554219825997e-06 4.566074738765e-04 0.0 
0.0 0.0 0.0 
-2.695957309717e-05 1.810970157824e-04 0.0 
1.810970157824e-04 4.285092866612e-04 0.0 
0.0 0.0 0.0 
4.222014389388e-05 2.428938157790e-04 0.0 
2.428938157790e-04 1.363679106221e-03 0.0 
0.0 0.0 0.0 
3.680835488695e-05 -2.501054846200e-05 0.0 
-2.501054846200e-05 2.203748586445e-04 0.0 
0.0 0.0 0.0 
1.273446937748e-04 2.119359818371e-05 0.0 
2.119359818371e-05 4.738393317927e-04 0.0 
0.0 0.0 0.0 
9.357865042237e-05 1.911339559446e-04 0.0 
1.911339559446e-04 1.005493581107e-03 0.0 
0.0 0.0 0.0 
-1.270495416946e-04 6.137206089200e-05 0.0 
6.137206089200e-05 1.365398887811e-03 0.0 
0.0 0.0 0.0 
9.406052122296e-05 4.083189541677e-06 0.0 
4.083189541677e-06 7.553428825635e-04 0.0 
0.0 0.0 0.0 
5.837775503470e-05 -8.240278514413e-06 0.0 
-8.240278514413e-06 3.275662174762e-04 0.0 
0.0 0.0 0.0 
-1.606428291857e-04 6.085683445842e-05 0.0 
6.085683445842e-05 1.612762078684e-03 0.0 
0.0 0.0 0.0 
9.671155322355e-05 1.153734953483e-05 0.0 
1.153734953483e-05 7.640108174787e-04 0.0 
0.0 0.0 0.0 
1.343094222355e-04 6.128760584882e-05 0.0 
6.128760584882e-05 6.973501426197e-04 0.0 
0.0 0.0 0.0 
1.078593534294e-04 1.269941522172e-05 0.0 
1.269941522172e-05 6.821176355492e-04 0.0 
0.0 0.0 0.0 
-6.783664379040e-05 4.940607092822e-05 0.0 
4.940607092822e-05 1.809798750891e-04 0.0 
0.0 0.0 0.0 
-4.818416431585e-05 1.370715151398e-06 0.0 
1.370715151398e-06 1.944780082676e-03 0.0 
0.0 0.0 0.0 
1.288724120425e-04 3.405407997282e-05 0.0 
3.405407997282e-05 5.643514194138e-04 0.0 
0.0 0.0 0.0 
8.660203722877e-05 1.907730713204e-04 0.0 
1.907730713204e-04 1.170412585736e-03 0.0 
0.0 0.0 0.0 
4.085330260684e-05 2.356241601457e-04 0.0 
2.356241601457e-04 1.243547145303e-03 0.0 
0.0 0.0 0.0 
9.728931725195e-05 2.085030488974e-05 0.0 
2.085030488974e-05 7.905975312341e-04 0.0 
0.0 0.0 0.0 
9.298252784240e-05 1.026684282417e-05 0.0 
1.026684282417e-05 7.924497511083e-04 0.0 
0.0 0.0 0.0 
1.408494746480e-04 7.139707960103e-05 0.0 
7.139707960103e-05 5.295508777301e-04 0.0 
0.0 0.0 0.0 
-4.450832877034e-06 -2.382172166185e-05 0.0 
-2.382172166185e-05 1.543579598693e-04 0.0 
0.0 0.0 0.0 
-4.780863530962e-05 8.831941906013e-05 0.0 
8.831941906013e-05 1.730816851948e-04 0.0 
0.0 0.0 0.0 
9.226682820018e-05 1.832136705265e-05 0.0 
1.832136705265e-05 8.195464524094e-04 0.0 
0.0 0.0 0.0 
8.991415026482e-05 1.644469735790e-04 0.0 
1.644469735790e-04 1.124738982104e-03 0.0 
0.0 0.0 0.0 
1.025400209118e-04 -1.083293204103e-05 0.0 
-1.083293204103e-05 4.375640006877e-04 0.0 
0.0 0.0 0.0 
-3.485334154096e-05 2.502136190381e-04 0.0 
2.502136190381e-04 1.450620518315e-03 0.0 
0.0 0.0 0.0 
-7.320815073131e-05 2.331286634610e-04 0.0 
2.331286634610e-04 1.050575153627e-03 0.0 
0.0 0.0 0.0 
-7.130499867947e-05 2.379418752466e-04 0.0 
2.379418752466e-04 1.549626823922e-03 0.0 
0.0 0.0 0.0 
4.837289466475e-05 1.400708999762e-04 0.0 
1.400708999762e-04 1.228715617466e-03 0.0 
0.0 0.0 0.0 
-1.753585920672e-04 -3.273210034630e-06 0.0 
-3.273210034630e-06 9.357321705328e-05 0.0 
0.0 0.0 0.0 
0.0 1.219580000938e-05 0.0 
1.219580000938e-05 2.085929195874e-03 0.0 
0.0 0.0 0.0 
0.0 1.697284814892e-05 0.0 
1.697284814892e-05 1.242022189032e-03 0.0 
0.0 0.0 0.0 
-8.437480984913e-05 -4.699692022853e-06 0.0 
-4.699692022853e-06 1.624245147684e-03 0.0 
0.0 0.0 0.0 
1.217136628595e-04 1.431162658387e-05 0.0 
1.431162658387e-05 5.385567239560e-04 0.0 
0.0 0.0 0.0 
2.533193137566e-05 2.408870165371e-04 0.0 
2.408870165371e-04 1.263414277069e-03 0.0 
0.0 0.0 0.0 
1.255643465516e-04 7.889777591923e-05 0.0 
7.889777591923e-05 5.796051398808e-04 0.0 
0.0 0.0 0.0 
1.360292776065e-05 -2.729987628564e-05 0.0 
-2.729987628564e-05 1.476259403075e-04 0.0 
0.0 0.0 0.0 
-1.182426637382e-04 1.245689944751e-04 0.0 
1.245689944751e-04 2.224716228785e-04 0.0 
0.0 0.0 0.0 
-4.479680434633e-05 3.615846571032e-05 0.0 
3.615846571032e-05 1.989785548603e-03 0.0 
0.0 0.0 0.0 
-1.472252246320e-04 1.442065762087e-04 0.0 
1.442065762087e-04 1.722556489103e-03 0.0 
0.0 0.0 0.0 
-1.573433706321e-04 4.765709462970e-05 0.0 
4.765709462970e-05 1.567422591436e-03 0.0 
0.0 0.0 0.0 
4.413492411093e-06 3.198859342329e-04 0.0 
3.198859342329e-04 1.644774790631e-03 0.0 
0.0 0.0 0.0 
4.682773348685e-05 -8.317317256812e-06 0.0 
-8.317317256812e-06 2.715946398857e-04 0.0 
0.0 0.0 0.0 
8.265758966397e-06 3.141601000966e-04 0.0 
3.141601000966e-04 1.605064693169e-03 0.0 
0.0 0.0 0.0 
-1.323345444629e-04 1.371387563748e-04 0.0 
1.371387563748e-04 1.723654361758e-03 0.0 
0.0 0.0 0.0 
1.129426119415e-04 3.726849926099e-07 0.0 
3.726849926099e-07 5.192922375639e-04 0.0 
0.0 0.0 0.0 
4.357855855130e-05 2.423317270401e-04 0.0 
2.423317270401e-04 1.178064867044e-03 0.0 
0.0 0.0 0.0 
1.272384432489e-04 1.809438444671e-05 0.0 
1.809438444671e-05 4.943500869972e-04 0.0 
0.0 0.0 0.0 
-2.381091942172e-05 1.988399549460e-04 0.0 
1.988399549460e-04 5.185750530912e-04 0.0 
0.0 0.0 0.0 
1.168560676965e-04 6.074613410411e-06 0.0 
6.074613410411e-06 4.563195715739e-04 0.0 
0.0 0.0 0.0 
-1.115164454050e-04 1.821306306167e-04 0.0 
1.821306306167e-04 1.710603433865e-03 0.0 
0.0 0.0 0.0 
5.768168457010e-05 1.596182758660e-05 0.0 
1.596182758660e-05 1.037014855305e-03 0.0 
0.0 0.0 0.0 
1.366370826903e-04 3.680043005702e-05 0.0 
3.680043005702e-05 5.149155599460e-04 0.0 
0.0 0.0 0.0 
-4.843065543958e-05 2.466528365760e-04 0.0 
2.466528365760e-04 1.526466851635e-03 0.0 
0.0 0.0 0.0 
-1.178537791303e-04 -7.005128781761e-06 0.0 
-7.005128781761e-06 6.226558928213e-05 0.0 
0.0 0.0 0.0 
1.429021542110e-04 6.211263582284e-05 0.0 
6.211263582284e-05 5.437830951289e-04 0.0 
0.0 0.0 0.0 
-1.261861626146e-04 1.513686382248e-04 0.0 
1.513686382248e-04 1.809763837117e-03 0.0 
0.0 0.0 0.0 
1.059009188200e-04 -3.347150282231e-06 0.0 
-3.347150282231e-06 4.416743338247e-04 0.0 
0.0 0.0 0.0 
9.126899905731e-05 -2.077909889444e-05 0.0 
-2.077909889444e-05 4.006306151458e-04 0.0 
0.0 0.0 0.0 
4.558992131209e-05 2.315381816137e-04 0.0 
2.315381816137e-04 1.179820522070e-03 0.0 
0.0 0.0 0.0 
4.503677577783e-05 -1.356725735100e-05 0.0 
-1.356725735100e-05 2.221944259051e-04 0.0 
0.0 0.0 0.0 
-1.463269225350e-04 1.910816288343e-04 0.0 
1.910816288343e-04 1.030413738663e-03 0.0 
0.0 0.0 0.0 
-1.528198118295e-04 2.105048432586e-04 0.0 
2.105048432586e-04 1.145991864440e-03 0.0 
0.0 0.0 0.0 
9.306840110401e-05 -1.141502078709e-05 0.0 
-1.141502078709e-05 3.845659732791e-04 0.0 
0.0 0.0 0.0 
1.320160170823e-04 7.497119030420e-05 0.0 
7.497119030420e-05 7.664137978793e-04 0.0 
0.0 0.0 0.0 
1.023774420426e-04 2.038159395232e-04 0.0 
2.038159395232e-04 9.323164701116e-04 0.0 
0.0 0.0 0.0 
-5.024641940654e-05 2.460792580407e-04 0.0 
2.460792580407e-04 1.526538225975e-03 0.0 
0.0 0.0 0.0 
-4.731518081746e-05 2.246656356946e-04 0.0 
2.246656356946e-04 1.836055505787e-03 0.0 
0.0 0.0 0.0 
-1.187212499975e-04 9.846457607513e-05 0.0 
9.846457607513e-05 1.262342970448e-03 0.0 
0.0 0.0 0.0 
-6.551137344080e-05 -1.338396188159e-06 0.0 
-1.338396188159e-06 1.836206585389e-03 0.0 
0.0 0.0 0.0 
-1.674050598399e-05 2.690619898101e-04 0.0 
2.690619898101e-04 1.680221318401e-03 0.0 
0.0 0.0 0.0 
1.368925415339e-04 8.246168697209e-05 0.0 
8.246168697209e-05 5.170948864870e-04 0.0 
0.0 0.0 0.0 
-7.831972260708e-05 1.880134242414e-04 0.0 
1.880134242414e-04 3.712054476970e-04 0.0 
0.0 0.0 0.0 
-9.925355205920e-05 2.422866795134e-04 0.0 
2.422866795134e-04 1.153586934068e-03 0.0 
0.0 0.0 0.0 
1.316753663667e-04 5.673468751957e-05 0.0 
5.673468751957e-05 7.154556816014e-04 0.0 
0.0 0.0 0.0 
-7.719937068706e-05 2.288050065500e-04 0.0 
2.288050065500e-04 1.618081768974e-03 0.0 
0.0 0.0 0.0 
1.449351091476e-04 7.433420090737e-05 0.0 
7.433420090737e-05 7.127089861236e-04 0.0 
0.0 0.0 0.0 
-1.814435857228e-05 6.839256666429e-05 0.0 
6.839256666429e-05 2.767989578705e-04 0.0 
0.0 0.0 0.0 
1.262849720149e-04 8.812041342362e-05 0.0 
8.812041342362e-05 8.370358715286e-04 0.0 
0.0 0.0 0.0 
-2.722169902647e-05 2.167348940428e-04 0.0 
2.167348940428e-04 6.167924246117e-04 0.0 
0.0 0.0 0.0 
9.894020592482e-05 1.840375730620e-04 0.0 
1.840375730620e-04 9.351582612813e-04 0.0 
0.0 0.0 0.0 
1.413051425230e-04 8.715314647163e-05 0.0 
8.715314647163e-05 7.822351930975e-04 0.0 
0.0 0.0 0.0 
6.039196839414e-05 2.363685455429e-04 0.0 
2.363685455429e-04 1.161701378251e-03 0.0 
0.0 0.0 0.0 
-7.901335156479e-05 6.560905760672e-06 0.0 
6.560905760672e-06 1.765408378131e-03 0.0 
0.0 0.0 0.0 
8.216359147428e-05 -2.598833079567e-05 0.0 
-2.598833079567e-05 3.866080192929e-04 0.0 
0.0 0.0 0.0 
-2.868263705458e-05 1.567752306812e-04 0.0 
1.567752306812e-04 3.434376573013e-04 0.0 
0.0 0.0 0.0 
1.343039047923e-04 9.997886702750e-05 0.0 
9.997886702750e-05 8.545619867923e-04 0.0 
0.0 0.0 0.0 
-2.891098005009e-05 2.258759564793e-04 0.0 
2.258759564793e-04 7.151530814065e-04 0.0 
0.0 0.0 0.0 
-6.773794315118e-05 2.119416476582e-05 0.0 
2.119416476582e-05 1.024495524917e-04 0.0 
0.0 0.0 0.0 
-3.021403112236e-05 9.695107290531e-06 0.0 
9.695107290531e-06 1.996525588535e-03 0.0 
0.0 0.0 0.0 
-4.407448845078e-05 8.964343726927e-06 0.0 
8.964343726927e-06 1.945079010569e-03 0.0 
0.0 0.0 0.0 
-2.922607806710e-05 -2.053196002570e-05 0.0 
-2.053196002570e-05 7.104302939154e-05 0.0 
0.0 0.0 0.0 
1.173198912965e-04 1.015138020938e-04 0.0 
1.015138020938e-04 9.103299392925e-04 0.0 
0.0 0.0 0.0 
5.559949633516e-05 -3.459134121434e-05 0.0 
-3.459134121434e-05 2.968647970483e-04 0.0 
0.0 0.0 0.0 
6.831642865790e-05 -1.852343547906e-05 0.0 
-1.852343547906e-05 3.169634965077e-04 0.0 
0.0 0.0 0.0 
-3.901247697358e-05 2.534393433836e-04 0.0 
2.534393433836e-04 1.578780278306e-03 0.0 
0.0 0.0 0.0 
5.966869006713e-05 2.233470561991e-04 0.0 
2.233470561991e-04 1.163472334995e-03 0.0 
0.0 0.0 0.0 
-2.822144893799e-05 2.549820751734e-04 0.0 
2.549820751734e-04 1.504734907738e-03 0.0 
0.0 0.0 0.0 
1.280900469391e-04 3.933449443310e-05 0.0 
3.933449443310e-05 5.480988401532e-04 0.0 
0.0 0.0 0.0 
-9.236189451489e-05 1.054636632166e-06 0.0 
1.054636632166e-06 1.559399542850e-03 0.0 
0.0 0.0 0.0 
2.351681032331e-05 1.141777857643e-04 0.0 
1.141777857643e-04 1.212602373383e-03 0.0 
0.0 0.0 0.0 
5.108410679888e-05 -2.170644639000e-05 0.0 
-2.170644639000e-05 2.619363040883e-04 0.0 
0.0 0.0 0.0 
8.097088900261e-05 1.811632611547e-04 0.0 
1.811632611547e-04 1.154018212449e-03 0.0 
0.0 0.0 0.0 
8.299098258080e-05 2.026952405233e-04 0.0 
2.026952405233e-04 1.014997380113e-03 0.0 
0.0 0.0 0.0 
3.750271326197e-05 -4.073134129575e-06 0.0 
-4.073134129575e-06 2.036710320723e-04 0.0 
0.0 0.0 0.0 
-9.598074255168e-05 2.112010096689e-04 0.0 
2.112010096689e-04 1.637397674003e-03 0.0 
0.0 0.0 0.0 
1.468734492585e-04 8.353604022527e-05 0.0 
8.353604022527e-05 5.958905531667e-04 0.0 
0.0 0.0 0.0 
-1.025942579569e-05 -2.822694201113e-05 0.0 
-2.822694201113e-05 1.193710976251e-04 0.0 
0.0 0.0 0.0 
1.341405336499e-04 5.022934331102e-05 0.0 
5.022934331102e-05 4.802726473907e-04 0.0 
0.0 0.0 0.0 
8.511169412762e-05 5.519951176779e-06 0.0 
5.519951176779e-06 8.576260510091e-04 0.0 
0.0 0.0 0.0 
-1.230391724869e-04 1.891680546449e-04 0.0 
1.891680546449e-04 1.709114957536e-03 0.0 
0.0 0.0 0.0 
2.109092658431e-05 -4.189285448821e-05 0.0 
-4.189285448821e-05 2.030837777254e-04 0.0 
0.0 0.0 0.0 
9.571120285434e-05 -1.208922096134e-06 0.0 
-1.208922096134e-06 6.751877773279e-04 0.0 
0.0 0.0 0.0 
-5.825438558105e-05 2.428110836362e-04 0.0 
2.428110836362e-04 1.598470077993e-03 0.0 
0.0 0.0 0.0 
5.206252523160e-05 2.344882820950e-04 0.0 
2.344882820950e-04 1.296255379377e-03 0.0 
0.0 0.0 0.0 
1.053731178335e-04 -4.141213238659e-06 0.0 
-4.141213238659e-06 4.192547592308e-04 0.0 
0.0 0.0 0.0 
6.091965615140e-05 1.148224700806e-06 0.0 
1.148224700806e-06 3.277736765173e-04 0.0 
0.0 0.0 0.0 
9.772172674904e-05 2.094015870467e-04 0.0 
2.094015870467e-04 1.002951008995e-03 0.0 
0.0 0.0 0.0 
-7.550441942650e-05 -4.729235275172e-06 0.0 
-4.729235275172e-06 1.746352295611e-03 0.0 
0.0 0.0 0.0 
-1.584755379991e-05 -2.990526249846e-05 0.0 
-2.990526249846e-05 1.198301618999e-04 0.0 
0.0 0.0 0.0 
-1.392884407447e-05 2.985440967131e-04 0.0 
2.985440967131e-04 1.696539772529e-03 0.0 
0.0 0.0 0.0 
-2.953806871409e-05 2.073012395357e-04 0.0 
2.073012395357e-04 1.922111941542e-03 0.0 
0.0 0.0 0.0 
-8.187497945367e-05 -3.201103441893e-06 0.0 
-3.201103441893e-06 1.661513794495e-03 0.0 
0.0 0.0 0.0 
-5.083456612376e-05 9.797852891849e-05 0.0 
9.797852891849e-05 2.011797474196e-03 0.0 
0.0 0.0 0.0 
-2.355142766131e-05 2.403656210091e-04 0.0 
2.403656210091e-04 1.867723901204e-03 0.0 
0.0 0.0 0.0 
1.435768135316e-04 5.505983962460e-05 0.0 
5.505983962460e-05 5.604342865870e-04 0.0 
0.0 0.0 0.0 
1.217886775715e-04 1.663132361136e-05 0.0 
1.663132361136e-05 5.187274964265e-04 0.0 
0.0 0.0 0.0 
4.411418069372e-05 2.319228219663e-04 0.0 
2.319228219663e-04 1.351249861390e-03 0.0 
0.0 0.0 0.0 
-1.129223807017e-04 6.569582266975e-06 0.0 
6.569582266975e-06 6.576267287794e-05 0.0 
0.0 0.0 0.0 
5.317615852585e-05 4.891936170599e-06 0.0 
4.891936170599e-06 2.972179756311e-04 0.0 
0.0 0.0 0.0 
9.363373866589e-05 6.508271121629e-06 0.0 
6.508271121629e-06 6.908351962578e-04 0.0 
0.0 0.0 0.0 
9.297019595511e-05 -1.945090001660e-05 0.0 
-1.945090001660e-05 4.221043126962e-04 0.0 
0.0 0.0 0.0 
1.265235867363e-04 2.516934720802e-05 0.0 
2.516934720802e-05 4.537366132831e-04 0.0 
0.0 0.0 0.0 
-1.390389529544e-04 1.868526280089e-04 0.0 
1.868526280089e-04 8.195338178598e-04 0.0 
0.0 0.0 0.0 
-1.481154559183e-04 2.115607021591e-04 0.0 
2.115607021591e-04 9.292343622391e-04 0.0 
0.0 0.0 0.0 
-1.143350038686e-04 1.663961638178e-05 0.0 
1.663961638178e-05 1.670094631805e-03 0.0 
0.0 0.0 0.0 
1.259227320030e-04 4.614107692949e-05 0.0 
4.614107692949e-05 5.338586389498e-04 0.0 
0.0 0.0 0.0 
6.602426824021e-05 -4.997906553028e-06 0.0 
-4.997906553028e-06 3.500788774924e-04 0.0 
0.0 0.0 0.0 
5.126355729779e-05 2.480848485276e-04 0.0 
2.480848485276e-04 1.297193160298e-03 0.0 
0.0 0.0 0.0 
2.176964860379e-05 9.572763000729e-05 0.0 
9.572763000729e-05 1.268304428453e-03 0.0 
0.0 0.0 0.0 
2.098644271076e-05 1.091168616412e-04 0.0 
1.091168616412e-04 1.272976587139e-03 0.0 
0.0 0.0 0.0 
1.360280005098e-04 3.275863363965e-05 0.0 
3.275863363965e-05 5.350384881571e-04 0.0 
0.0 0.0 0.0 
-1.219575542023e-04 2.122188691008e-05 0.0 
2.122188691008e-05 1.621969258745e-03 0.0 
0.0 0.0 0.0 
-1.156140499831e-04 3.502690496847e-06 0.0 
3.502690496847e-06 1.021890197814e-04 0.0 
0.0 0.0 0.0 
-1.404921992416e-04 1.850153035927e-04 0.0 
1.850153035927e-04 6.193771106353e-04 0.0 
0.0 0.0 0.0 
1.574564782070e-05 -2.692165974953e-05 0.0 
-2.692165974953e-05 2.247802679900e-04 0.0 
0.0 0.0 0.0 
-1.408986607550e-04 1.902993723158e-04 0.0 
1.902993723158e-04 7.246824885792e-04 0.0 
0.0 0.0 0.0 
7.733732367887e-05 2.078424257003e-04 0.0 
2.078424257003e-04 1.083311530733e-03 0.0 
0.0 0.0 0.0 
1.162675418709e-04 7.512532978195e-06 0.0 
7.512532978195e-06 4.352158329317e-04 0.0 
0.0 0.0 0.0 
1.208903984689e-04 2.033879561802e-05 0.0 
2.033879561802e-05 5.006646244707e-04 0.0 
0.0 0.0 0.0 
-5.431391064992e-05 -2.565882291726e-05 0.0 
-2.565882291726e-05 1.454302992081e-04 0.0 
0.0 0.0 0.0 
-3.862225398688e-05 1.130472804681e-05 0.0 
1.130472804681e-05 1.954976701033e-03 0.0 
0.0 0.0 0.0 
1.129379455560e-04 1.546877738107e-06 0.0 
1.546877738107e-06 4.767547852496e-04 0.0 
0.0 0.0 0.0 
-3.640086216350e-05 4.235055115450e-05 0.0 
4.235055115450e-05 1.988773750325e-03 0.0 
0.0 0.0 0.0 
-5.408645769800e-05 1.155158065293e-05 0.0 
1.155158065293e-05 1.910875852937e-03 0.0 
0.0 0.0 0.0 
-1.482564190547e-05 1.823992218004e-05 0.0 
1.823992218004e-05 2.083977730589e-03 0.0 
0.0 0.0 0.0 
1.740836964714e-05 2.219948692894e-05 0.0 
2.219948692894e-05 1.243158991436e-03 0.0 
0.0 0.0 0.0 
-8.334095203066e-05 4.735003488382e-06 0.0 
4.735003488382e-06 1.663357707762e-03 0.0 
0.0 0.0 0.0 
1.133280865024e-04 5.560016713318e-07 0.0 
5.560016713318e-07 4.974267671674e-04 0.0 
0.0 0.0 0.0 
-1.191531261332e-04 1.909853583626e-04 0.0 
1.909853583626e-04 1.030338309544e-03 0.0 
0.0 0.0 0.0 
1.262617090694e-04 1.659337385632e-05 0.0 
1.659337385632e-05 5.164808235161e-04 0.0 
0.0 0.0 0.0 
0.0 7.436380941460e-05 0.0 
7.436380941460e-05 1.260679641224e-03 0.0 
0.0 0.0 0.0 
-1.300055100188e-04 1.644061241056e-04 0.0 
1.644061241056e-04 4.136898519678e-04 0.0 
0.0 0.0 0.0 
-1.338989894601e-04 1.781745518810e-04 0.0 
1.781745518810e-04 5.169917959993e-04 0.0 
0.0 0.0 0.0 
6.939923064198e-05 2.021323454672e-04 0.0 
2.021323454672e-04 1.221413650793e-03 0.0 
0.0 0.0 0.0 
-1.058502646852e-04 1.111599705252e-05 0.0 
1.111599705252e-05 1.619618007306e-03 0.0 
0.0 0.0 0.0 
-3.285076314630e-05 2.925267619976e-05 0.0 
2.925267619976e-05 1.994937034375e-03 0.0 
0.0 0.0 0.0 
-6.284020733061e-05 2.423685581729e-04 0.0 
2.423685581729e-04 1.598502430337e-03 0.0 
0.0 0.0 0.0 
5.076126508841e-05 2.551078029869e-04 0.0 
2.551078029869e-04 1.361459076754e-03 0.0 
0.0 0.0 0.0 
-9.264191821312e-05 2.196730821053e-04 0.0 
2.196730821053e-04 1.738125663315e-03 0.0 
0.0 0.0 0.0 
-8.433604199964e-05 1.022943161212e-05 0.0 
1.022943161212e-05 1.676502359792e-03 0.0 
0.0 0.0 0.0 
7.942620797241e-05 -2.791546703529e-05 0.0 
-2.791546703529e-05 3.653673300397e-04 0.0 
0.0 0.0 0.0 
9.090705777393e-05 -1.207431357060e-05 0.0 
-1.207431357060e-05 3.632415479378e-04 0.0 
0.0 0.0 0.0 
-6.801744161167e-05 1.002069124867e-05 0.0 
1.002069124867e-05 1.806075978791e-03 0.0 
0.0 0.0 0.0 
3.522740056461e-05 2.457111800846e-04 0.0 
2.457111800846e-04 1.366530099672e-03 0.0 
0.0 0.0 0.0 
-1.378745339929e-04 2.671405217523e-05 0.0 
2.671405217523e-05 1.569538562596e-03 0.0 
0.0 0.0 0.0 
-8.684613664323e-05 1.209644400034e-06 0.0 
1.209644400034e-06 1.610224332815e-03 0.0 
0.0 0.0 0.0 
-8.548770817718e-05 1.633237611615e-06 0.0 
1.633237611615e-06 1.660872726140e-03 0.0 
0.0 0.0 0.0 
-9.043769876860e-05 1.327826906590e-06 0.0 
1.327826906590e-06 1.679866680917e-03 0.0 
0.0 0.0 0.0 
1.200874058727e-05 2.554431423864e-06 0.0 
2.554431423864e-06 1.905530474147e-04 0.0 
0.0 0.0 0.0 
7.745361680311e-05 -1.795339157062e-05 0.0 
-1.795339157062e-05 3.293433048692e-04 0.0 
0.0 0.0 0.0 
-3.205509856652e-05 5.899908603343e-05 0.0 
5.899908603343e-05 2.038103217672e-03 0.0 
0.0 0.0 0.0 
-8.587136637006e-05 6.390359474554e-06 0.0 
6.390359474554e-06 1.739420027472e-03 0.0 
0.0 0.0 0.0 
2.919427860948e-05 2.635022650594e-04 0.0 
2.635022650594e-04 1.434380294566e-03 0.0 
0.0 0.0 0.0 
-6.900796644838e-05 2.338561326930e-04 0.0 
2.338561326930e-04 1.832857753364e-03 0.0 
0.0 0.0 0.0 
-1.020975793115e-04 2.170665004855e-04 0.0 
2.170665004855e-04 1.636360184553e-03 0.0 
0.0 0.0 0.0 
-6.613853775461e-05 1.028329751885e-04 0.0 
1.028329751885e-04 1.977042609049e-03 0.0 
0.0 0.0 0.0 
9.242656898234e-05 -1.255127504780e-06 0.0 
-1.255127504780e-06 4.981507213662e-04 0.0 
0.0 0.0 0.0 
8.159513181583e-05 -3.531933815594e-06 0.0 
-3.531933815594e-06 4.517507982866e-04 0.0 
0.0 0.0 0.0 
5.195371843447e-05 1.133059373389e-04 0.0 
1.133059373389e-04 1.150271546617e-03 0.0 
0.0 0.0 0.0 
-5.683092656328e-05 -1.321565963075e-05 0.0 
-1.321565963075e-05 8.457422437402e-05 0.0 
0.0 0.0 0.0 
5.314700324188e-05 -9.010387401655e-06 0.0 
-9.010387401655e-06 3.145407016241e-04 0.0 
0.0 0.0 0.0 
0.0 3.019111558646e-04 0.0 
3.019111558646e-04 1.623832116005e-03 0.0 
0.0 0.0 0.0 
2.566083006483e-05 -7.776335676006e-06 0.0 
-7.776335676006e-06 1.505939583304e-04 0.0 
0.0 0.0 0.0 
-8.521695353181e-05 1.968895220924e-06 0.0 
1.968895220924e-06 1.610535907363e-03 0.0 
0.0 0.0 0.0 
6.411797972627e-05 1.963979482574e-04 0.0 
1.963979482574e-04 1.247829240062e-03 0.0 
0.0 0.0 0.0 
-1.408738934883e-05 -1.688147255592e-05 0.0 
-1.688147255592e-05 1.071327296780e-04 0.0 
0.0 0.0 0.0 
-1.212878838264e-05 -1.215237947973e-05 0.0 
-1.215237947973e-05 5.872809482943e-05 0.0 
0.0 0.0 0.0 
-2.176452819647e-05 8.785130160402e-05 0.0 
8.785130160402e-05 2.069291816237e-03 0.0 
0.0 0.0 0.0 
-1.002867552949e-04 3.409898208258e-06 0.0 
3.409898208258e-06 1.562467711300e-03 0.0 
0.0 0.0 0.0 
-3.496915484058e-05 8.137008140216e-05 0.0 
8.137008140216e-05 2.023719728054e-03 0.0 
0.0 0.0 0.0 
4.743239639904e-05 2.057843360835e-04 0.0 
2.057843360835e-04 1.276694023062e-03 0.0 
0.0 0.0 0.0 
-9.893574600472e-05 -2.076142660080e-08 0.0 
-2.076142660080e-08 1.560529876311e-03 0.0 
0.0 0.0 0.0 
-1.129501550210e-04 7.809436149474e-06 0.0 
7.809436149474e-06 1.167153373010e-04 0.0 
0.0 0.0 0.0 
-1.574505445501e-05 1.198572664440e-05 0.0 
1.198572664440e-05 2.041770663493e-03 0.0 
0.0 0.0 0.0 
2.489874650080e-05 -2.600322556413e-05 0.0 
-2.600322556413e-05 1.699142159299e-04 0.0 
0.0 0.0 0.0 
-3.668422422876e-05 6.656371647978e-05 0.0 
6.656371647978e-05 1.998986082772e-03 0.0 
0.0 0.0 0.0 
0.0 5.848674011642e-05 0.0 
5.848674011642e-05 1.253663167011e-03 0.0 
0.0 0.0 0.0 
-6.727499418702e-05 1.965747928504e-04 0.0 
1.965747928504e-04 1.889618955456e-03 0.0 
0.0 0.0 0.0 
5.204119524871e-05 7.492458925596e-06 0.0 
7.492458925596e-06 2.354805307556e-04 0.0 
0.0 0.0 0.0 
-1.302091385943e-04 4.186365763567e-05 0.0 
4.186365763567e-05 1.668648933210e-03 0.0 
0.0 0.0 0.0 
8.396760918350e-05 -7.574198118412e-06 0.0 
-7.574198118412e-06 5.072612211001e-04 0.0 
0.0 0.0 0.0 
4.464465768339e-05 2.342005607358e-04 0.0 
2.342005607358e-04 1.298241047446e-03 0.0 
0.0 0.0 0.0 
1.505155309123e-05 2.833234880921e-04 0.0 
2.833234880921e-04 1.501865981832e-03 0.0 
0.0 0.0 0.0 
-6.106252323901e-05 1.105227710415e-05 0.0 
1.105227710415e-05 1.867489498083e-03 0.0 
0.0 0.0 0.0 
2.324911224116e-05 2.722723363894e-04 0.0 
2.722723363894e-04 1.462331624331e-03 0.0 
0.0 0.0 0.0 
-2.501410104239e-05 -2.993986211110e-06 0.0 
-2.993986211110e-06 1.275403010046e-04 0.0 
0.0 0.0 0.0 
3.032168845118e-05 7.181977776023e-05 0.0 
7.181977776023e-05 1.198176330524e-03 0.0 
0.0 0.0 0.0 
5.780095980090e-05 1.349337588527e-06 0.0 
1.349337588527e-06 2.647071403148e-04 0.0 
0.0 0.0 0.0 
2.674372540556e-05 -7.084629196256e-06 0.0 
-7.084629196256e-06 1.509938663604e-04 0.0 
0.0 0.0 0.0 
4.370919200891e-05 1.838922596970e-04 0.0 
1.838922596970e-04 1.284698067448e-03 0.0 
0.0 0.0 0.0 
-5.325733439132e-05 1.503056853032e-04 0.0 
1.503056853032e-04 1.996761479710e-03 0.0 
0.0 0.0 0.0 
-3.016110333398e-05 8.919335187159e-05 0.0 
8.919335187159e-05 2.036312923569e-03 0.0 
0.0 0.0 0.0 
-9.087272528596e-05 8.557564744705e-06 0.0 
8.557564744705e-06 1.609944550261e-03 0.0 
0.0 0.0 0.0 
-1.445939721744e-04 7.245765951435e-05 0.0 
7.245765951435e-05 1.667236034107e-03 0.0 
0.0 0.0 0.0 
-2.972121981515e-05 1.580514404205e-04 0.0 
1.580514404205e-04 5.166070711085e-04 0.0 
0.0 0.0 0.0 
-4.566903521608e-05 2.554077887173e-04 0.0 
2.554077887173e-04 1.858520207166e-03 0.0 
0.0 0.0 0.0 
7.714544477810e-05 -7.047190737773e-07 0.0 
-7.047190737773e-07 4.179379702047e-04 0.0 
0.0 0.0 0.0 
-2.378566379901e-05 7.600697051606e-05 0.0 
7.600697051606e-05 2.551878195494e-04 0.0 
0.0 0.0 0.0 
5.978536527240e-05 2.466646684769e-04 0.0 
2.466646684769e-04 1.294613992462e-03 0.0 
0.0 0.0 0.0 
-9.064436670014e-05 -4.203684924849e-08 0.0 
-4.203684924849e-08 1.555662753421e-03 0.0 
0.0 0.0 0.0 
-4.989255208654e-05 1.465325895073e-04 0.0 
1.465325895073e-04 1.962559451562e-03 0.0 
0.0 0.0 0.0 
-1.199131332164e-05 -3.223744032195e-06 0.0 
-3.223744032195e-06 2.081941592156e-03 0.0 
0.0 0.0 0.0 
0.0 5.995656660828e-06 0.0 
5.995656660828e-06 2.088389080221e-03 0.0 
0.0 0.0 0.0 
1.041382157174e-06 -4.464854945865e-07 0.0 
-4.464854945865e-07 1.412405687162e-05 0.0 
0.0 0.0 0.0 
2.497852469974e-06 6.785344491105e-07 0.0 
6.785344491105e-07 1.491762644612e-05 0.0 
0.0 0.0 0.0 
-8.583060946710e-05 -4.183098972353e-06 0.0 
-4.183098972353e-06 1.561585291648e-03 0.0 
0.0 0.0 0.0 
-8.810299897832e-05 6.393857175375e-07 0.0 
6.393857175375e-07 1.554212711779e-03 0.0 
0.0 0.0 0.0 
0.0 8.313076526348e-06 0.0 
8.313076526348e-06 1.242072769511e-03 0.0 
0.0 0.0 0.0 
1.662615305276e-05 5.660574159877e-06 0.0 
5.660574159877e-06 1.230751621191e-03 0.0 
0.0 0.0 0.0 
4.529162574762e-06 1.814490335622e-06 0.0 
1.814490335622e-06 4.894091192487e-05 0.0 
0.0 0.0 0.0 
-1.116879469186e-04 -5.859786169225e-06 0.0 
-5.859786169225e-06 6.081096430588e-05 0.0 
0.0 0.0 0.0 
3.833461456471e-05 4.439205317699e-05 0.0 
4.439205317699e-05 1.118647986827e-03 0.0 
0.0 0.0 0.0 
1.872164169381e-05 2.852118653452e-04 0.0 
2.852118653452e-04 1.512497322161e-03 0.0 
0.0 0.0 0.0 
2.796969098351e-05 -2.132410478296e-05 0.0 
-2.132410478296e-05 2.000876083799e-04 0.0 
0.0 0.0 0.0 
3.780958625832e-05 7.579807944691e-05 0.0 
7.579807944691e-05 1.150311228352e-03 0.0 
0.0 0.0 0.0 
9.241968484575e-05 5.703193875606e-07 0.0 
5.703193875606e-07 7.435827538402e-04 0.0 
0.0 0.0 0.0 
9.236240277621e-05 -4.439765671723e-06 0.0 
-4.439765671723e-06 6.296645226529e-04 0.0 
0.0 0.0 0.0 
-8.045913622168e-05 1.157131364391e-05 0.0 
1.157131364391e-05 1.768532788521e-03 0.0 
0.0 0.0 0.0 
1.879070326383e-05 -1.978143104262e-05 0.0 
-1.978143104262e-05 2.001349671703e-04 0.0 
0.0 0.0 0.0 
5.230373279486e-05 2.282836032907e-04 0.0 
2.282836032907e-04 1.230460483890e-03 0.0 
0.0 0.0 0.0 
1.507232313491e-05 -1.526661370201e-05 0.0 
-1.526661370201e-05 1.581833792779e-04 0.0 
0.0 0.0 0.0 
9.423033195088e-05 -6.313968227344e-06 0.0 
-6.313968227344e-06 5.655570641632e-04 0.0 
0.0 0.0 0.0 
-3.787308897019e-05 2.412913081698e-04 0.0 
2.412913081698e-04 1.816496116672e-03 0.0 
0.0 0.0 0.0 
-3.889262018930e-05 -3.940604174981e-06 0.0 
-3.940604174981e-06 1.975327639732e-03 0.0 
0.0 0.0 0.0 
9.617591752709e-05 3.271622620660e-06 0.0 
3.271622620660e-06 6.252515337766e-04 0.0 
0.0 0.0 0.0 
-8.270344690553e-05 -7.304145753218e-07 0.0 
-7.304145753218e-07 1.705235423472e-03 0.0 
0.0 0.0 0.0 
-1.083529982904e-05 2.898697141483e-04 0.0 
2.898697141483e-04 1.624271427713e-03 0.0 
0.0 0.0 0.0 
-7.667225781161e-05 2.343005278305e-04 0.0 
2.343005278305e-04 1.725695761494e-03 0.0 
0.0 0.0 0.0 
-9.007077926815e-05 2.250466334514e-04 0.0 
2.250466334514e-04 1.680331316490e-03 0.0 
0.0 0.0 0.0 
-9.484957896233e-05 1.134827646813e-06 0.0 
1.134827646813e-06 1.560071440592e-03 0.0 
0.0 0.0 0.0 
6.981037813358e-05 2.146750459289e-04 0.0 
2.146750459289e-04 1.153270560374e-03 0.0 
0.0 0.0 0.0 
-5.213623704703e-05 1.718665173019e-04 0.0 
1.718665173019e-04 1.929815375630e-03 0.0 
0.0 0.0 0.0 
5.855647646102e-05 -3.772016551347e-06 0.0 
-3.772016551347e-06 3.136111711604e-04 0.0 
0.0 0.0 0.0 
-4.577765386549e-05 -2.055305972247e-05 0.0 
-2.055305972247e-05 7.712355345535e-05 0.0 
0.0 0.0 0.0 
-2.352012271334e-05 2.658463456766e-04 0.0 
2.658463456766e-04 1.610249606768e-03 0.0 
0.0 0.0 0.0 
9.112164108793e-05 1.932509634313e-04 0.0 
1.932509634313e-04 1.153200061446e-03 0.0 
0.0 0.0 0.0 
1.130492973522e-05 -3.722659592421e-05 0.0 
-3.722659592421e-05 1.627604444940e-04 0.0 
0.0 0.0 0.0 
-7.337246164663e-05 2.992640736677e-06 0.0 
2.992640736677e-06 1.809745516722e-03 0.0 
0.0 0.0 0.0 
1.880834034185e-05 4.203361022456e-05 0.0 
4.203361022456e-05 1.177099260570e-03 0.0 
0.0 0.0 0.0 
7.283446176398e-06 2.691731701140e-04 0.0 
2.691731701140e-04 1.518146933417e-03 0.0 
0.0 0.0 0.0 
-2.633306407152e-06 2.880509531339e-04 0.0 
2.880509531339e-04 1.582326561372e-03 0.0 
0.0 0.0 0.0 
8.753654498839e-05 -1.874714642126e-06 0.0 
-1.874714642126e-06 8.143158241849e-04 0.0 
0.0 0.0 0.0 
-6.717934887246e-05 5.838530198418e-05 0.0 
5.838530198418e-05 1.078756906967e-04 0.0 
0.0 0.0 0.0 
-1.289094054195e-04 2.040207714115e-04 0.0 
2.040207714115e-04 8.210421501267e-04 0.0 
0.0 0.0 0.0 
-4.120556800213e-05 1.982971875214e-04 0.0 
1.982971875214e-04 7.140807667305e-04 0.0 
0.0 0.0 0.0 
-1.343569701369e-04 4.494241050182e-05 0.0 
4.494241050182e-05 1.673152092174e-03 0.0 
0.0 0.0 0.0 
7.458947402728e-05 2.302419328555e-04 0.0 
2.302419328555e-04 1.151377773124e-03 0.0 
0.0 0.0 0.0 
-3.774592572847e-05 4.507652358996e-05 0.0 
4.507652358996e-05 2.007430123903e-03 0.0 
0.0 0.0 0.0 
2.939482021613e-05 2.283933888192e-04 0.0 
2.283933888192e-04 1.356667329490e-03 0.0 
0.0 0.0 0.0 
-4.152775916832e-05 -3.008664505007e-05 0.0 
-3.008664505007e-05 1.303678979292e-04 0.0 
0.0 0.0 0.0 
-2.965040654512e-05 -2.841302532341e-05 0.0 
-2.841302532341e-05 1.181100029162e-04 0.0 
0.0 0.0 0.0 
-1.367551695488e-04 2.181931473590e-04 0.0 
2.181931473590e-04 6.222577443642e-04 0.0 
0.0 0.0 0.0 
-6.733171513518e-05 1.945738118251e-05 0.0 
1.945738118251e-05 1.827112402047e-03 0.0 
0.0 0.0 0.0 
6.822484677071e-05 -1.539123338989e-05 0.0 
-1.539123338989e-05 3.884507850813e-04 0.0 
0.0 0.0 0.0 
-5.663141714241e-05 1.183083905694e-04 0.0 
1.183083905694e-04 1.986582877763e-03 0.0 
0.0 0.0 0.0 
2.835975178561e-05 -1.509492817963e-05 0.0 
-1.509492817963e-05 1.904593953415e-04 0.0 
0.0 0.0 0.0 
5.439404884511e-05 2.185297127273e-04 0.0 
2.185297127273e-04 1.290394299452e-03 0.0 
0.0 0.0 0.0 
-1.036366502981e-04 2.056651936424e-05 0.0 
2.056651936424e-05 1.669099669442e-03 0.0 
0.0 0.0 0.0 
1.373517300807e-05 2.755290517569e-04 0.0 
2.755290517569e-04 1.510205681323e-03 0.0 
0.0 0.0 0.0 
2.799238295403e-05 2.484490012684e-04 0.0 
2.484490012684e-04 1.373079672743e-03 0.0 
0.0 0.0 0.0 
-1.460006551013e-04 5.430075754582e-05 0.0 
5.430075754582e-05 1.672247070983e-03 0.0 
0.0 0.0 0.0 
4.576380802290e-05 1.543874408821e-04 0.0 
1.543874408821e-04 1.249096405638e-03 0.0 
0.0 0.0 0.0 
-4.559543919103e-05 1.393810954752e-04 0.0 
1.393810954752e-04 2.006742129443e-03 0.0 
0.0 0.0 0.0 
-2.526281538906e-05 1.271334460373e-05 0.0 
1.271334460373e-05 2.044441596027e-03 0.0 
0.0 0.0 0.0 
-1.428340219630e-04 2.148213348383e-04 0.0 
2.148213348383e-04 4.162980973788e-04 0.0 
0.0 0.0 0.0 
-5.141399026010e-05 1.060073697780e-04 0.0 
1.060073697780e-04 1.976781062577e-03 0.0 
0.0 0.0 0.0 
-9.306633587336e-06 2.806840662079e-04 0.0 
2.806840662079e-04 1.716472523200e-03 0.0 
0.0 0.0 0.0 
5.893724087436e-05 2.184671848671e-04 0.0 
2.184671848671e-04 1.290228718580e-03 0.0 
0.0 0.0 0.0 
4.711651853251e-05 2.570780325283e-04 0.0 
2.570780325283e-04 1.363747021625e-03 0.0 
0.0 0.0 0.0 
0.0 9.993799943562e-05 0.0 
9.993799943562e-05 1.270557973967e-03 0.0 
0.0 0.0 0.0 
-7.967089637240e-05 2.225330174555e-04 0.0 
2.225330174555e-04 1.680626449206e-03 0.0 
0.0 0.0 0.0 
-1.022845502752e-04 5.092983465714e-05 0.0 
5.092983465714e-05 5.519335798221e-05 0.0 
0.0 0.0 0.0 
-3.394019702130e-05 1.076622203568e-04 0.0 
1.076622203568e-04 3.416854727956e-04 0.0 
0.0 0.0 0.0 
-7.401967813792e-05 2.323527113519e-04 0.0 
2.323527113519e-04 1.780345067136e-03 0.0 
0.0 0.0 0.0 
-1.245650987262e-04 5.255756022921e-05 0.0 
5.255756022921e-05 1.715776159852e-03 0.0 
0.0 0.0 0.0 
4.124367541047e-05 1.876544543737e-05 0.0 
1.876544543737e-05 1.110904581027e-03 0.0 
0.0 0.0 0.0 
2.029847618279e-05 2.586294342476e-04 0.0 
2.586294342476e-04 1.436602213504e-03 0.0 
0.0 0.0 0.0 
2.139941123547e-05 8.375983940838e-05 0.0 
8.375983940838e-05 1.204379666568e-03 0.0 
0.0 0.0 0.0 
-5.835907173224e-05 2.263284651173e-05 0.0 
2.263284651173e-05 1.886724894573e-03 0.0 
0.0 0.0 0.0 
1.264798634537e-05 2.674857462835e-04 0.0 
2.674857462835e-04 1.477454628095e-03 0.0 
0.0 0.0 0.0 
4.635102932449e-05 1.300563640355e-04 0.0 
1.300563640355e-04 1.186027475648e-03 0.0 
0.0 0.0 0.0 
5.528502596319e-05 1.409375780063e-04 0.0 
1.409375780063e-04 1.185021061854e-03 0.0 
0.0 0.0 0.0 
7.003065460376e-05 -1.099613352972e-05 0.0 
-1.099613352972e-05 4.030924519449e-04 0.0 
0.0 0.0 0.0 
2.360489087150e-05 8.196074859776e-05 0.0 
8.196074859776e-05 1.262805688597e-03 0.0 
0.0 0.0 0.0 
-1.173272547530e-04 1.813131933816e-05 0.0 
1.813131933816e-05 1.615426844753e-03 0.0 
0.0 0.0 0.0 
-3.768035310414e-05 2.189620554630e-05 0.0 
2.189620554630e-05 1.995860707045e-03 0.0 
0.0 0.0 0.0 
-6.881383669444e-06 -3.361075347380e-05 0.0 
-3.361075347380e-05 1.159986445842e-04 0.0 
0.0 0.0 0.0 
-4.741298718836e-05 9.130539233671e-06 0.0 
9.130539233671e-06 1.956133263563e-03 0.0 
0.0 0.0 0.0 
-7.419794920038e-05 9.533109926204e-06 0.0 
9.533109926204e-06 1.814579070527e-03 0.0 
0.0 0.0 0.0 
1.268351941364e-05 -6.656489833654e-06 0.0 
-6.656489833654e-06 1.047679265240e-04 0.0 
0.0 0.0 0.0 
2.159796207168e-05 -1.642433944200e-05 0.0 
-1.642433944200e-05 2.278427439180e-04 0.0 
0.0 0.0 0.0 
-6.275626698771e-05 2.382578494572e-04 0.0 
2.382578494572e-04 1.665797170403e-03 0.0 
0.0 0.0 0.0 
-2.199950824777e-05 6.922546714159e-05 0.0 
6.922546714159e-05 2.034912517764e-03 0.0 
0.0 0.0 0.0 
-3.468315210009e-05 9.178994271820e-06 0.0 
9.178994271820e-06 2.003252290282e-03 0.0 
0.0 0.0 0.0 
3.970023833788e-05 2.742271675580e-04 0.0 
2.742271675580e-04 1.433860378107e-03 0.0 
0.0 0.0 0.0 
-8.523307865760e-05 1.535956995767e-05 0.0 
1.535956995767e-05 1.707095265572e-03 0.0 
0.0 0.0 0.0 
-2.774768398717e-05 -1.922443679558e-05 0.0 
-1.922443679558e-05 6.846082824530e-05 0.0 
0.0 0.0 0.0 
-5.365864786133e-05 4.453616340085e-05 0.0 
4.453616340085e-05 1.544202615131e-04 0.0 
0.0 0.0 0.0 
-1.661881290960e-05 -1.039794730681e-05 0.0 
-1.039794730681e-05 7.471442646878e-05 0.0 
0.0 0.0 0.0 
-2.980069688685e-06 -3.909712335667e-05 0.0 
-3.909712335667e-05 1.546025634838e-04 0.0 
0.0 0.0 0.0 
-1.119241939964e-04 1.058406258326e-04 0.0 
1.058406258326e-04 7.805015226769e-05 0.0 
0.0 0.0 0.0 
9.153991892807e-05 1.863704930215e-06 0.0 
1.863704930215e-06 5.507786116037e-04 0.0 
0.0 0.0 0.0 
4.409053238819e-05 2.965681883608e-05 0.0 
2.965681883608e-05 1.110672715388e-03 0.0 
0.0 0.0 0.0 
-5.709422514333e-05 2.019760735501e-04 0.0 
2.019760735501e-04 1.890333578640e-03 0.0 
0.0 0.0 0.0 
-1.539577413147e-04 7.676013944936e-05 0.0 
7.676013944936e-05 1.702121157752e-03 0.0 
0.0 0.0 0.0 
8.497522790796e-05 -1.445813718349e-05 0.0 
-1.445813718349e-05 4.765919749696e-04 0.0 
0.0 0.0 0.0 
5.108423570821e-05 1.056330862418e-04 0.0 
1.056330862418e-04 1.152921315726e-03 0.0 
0.0 0.0 0.0 
7.369330083007e-05 1.823271705311e-04 0.0 
1.823271705311e-04 1.204528825459e-03 0.0 
0.0 0.0 0.0 
2.258871330074e-05 2.949291301892e-04 0.0 
2.949291301892e-04 1.525284681358e-03 0.0 
0.0 0.0 0.0 
-1.472629779486e-05 2.703582222884e-04 0.0 
2.703582222884e-04 1.652377092122e-03 0.0 
0.0 0.0 0.0 
-4.783919245355e-05 2.488865561096e-04 0.0 
2.488865561096e-04 1.713675985725e-03 0.0 
0.0 0.0 0.0 
-7.615701980490e-06 -2.352203627421e-05 0.0 
-2.352203627421e-05 1.127179603593e-04 0.0 
0.0 0.0 0.0 
-6.802988125254e-05 -1.918363051134e-05 0.0 
-1.918363051134e-05 1.347937732479e-04 0.0 
0.0 0.0 0.0 
4.137748696631e-05 3.655803473937e-05 0.0 
3.655803473937e-05 1.121098739939e-03 0.0 
0.0 0.0 0.0 
2.006582289460e-05 -3.285927523755e-06 0.0 
-3.285927523755e-06 1.022094538994e-04 0.0 
0.0 0.0 0.0 
1.879084795364e-05 5.681421277957e-06 0.0 
5.681421277957e-06 1.268650844293e-04 0.0 
0.0 0.0 0.0 
-8.085983764872e-05 1.382570351741e-04 0.0 
1.382570351741e-04 1.924764404384e-04 0.0 
0.0 0.0 0.0 
-6.179038863352e-06 -2.913145060595e-05 0.0 
-2.913145060595e-05 1.067535018415e-04 0.0 
0.0 0.0 0.0 
2.362833303815e-05 1.418777857583e-04 0.0 
1.418777857583e-04 1.242243667168e-03 0.0 
0.0 0.0 0.0 
-2.228290682837e-05 2.637259778414e-04 0.0 
2.637259778414e-04 1.805823497840e-03 0.0 
0.0 0.0 0.0 
-3.319777440425e-05 5.077938256058e-05 0.0 
5.077938256058e-05 2.007754982624e-03 0.0 
0.0 0.0 0.0 
8.540427653525e-06 2.827287457077e-04 0.0 
2.827287457077e-04 1.550346800991e-03 0.0 
0.0 0.0 0.0 
6.758321991907e-05 1.697766981688e-04 0.0 
1.697766981688e-04 1.178785084587e-03 0.0 
0.0 0.0 0.0 
-8.070220951739e-05 1.661008681941e-05 0.0 
1.661008681941e-05 1.740353639185e-03 0.0 
0.0 0.0 0.0 
0.0 9.570781566188e-05 0.0 
9.570781566188e-05 2.068829352025e-03 0.0 
0.0 0.0 0.0 
4.858935910312e-05 -2.595918463647e-05 0.0 
-2.595918463647e-05 2.637761093232e-04 0.0 
0.0 0.0 0.0 
-9.647954170811e-05 1.339859721269e-06 0.0 
1.339859721269e-06 1.557213658032e-03 0.0 
0.0 0.0 0.0 
-1.593746288353e-05 -3.024653851837e-05 0.0 
-3.024653851837e-05 1.680601851215e-04 0.0 
0.0 0.0 0.0 
2.375820459033e-06 -1.005395935467e-05 0.0 
-1.005395935467e-05 5.735607924384e-05 0.0 
0.0 0.0 0.0 
2.206484440648e-05 5.727123491797e-05 0.0 
5.727123491797e-05 1.250831959602e-03 0.0 
0.0 0.0 0.0 
-1.411172360575e-04 4.196872720965e-05 0.0 
4.196872720965e-05 1.617465365588e-03 0.0 
0.0 0.0 0.0 
1.866914516024e-05 -1.038073525419e-05 0.0 
-1.038073525419e-05 1.502041062711e-04 0.0 
0.0 0.0 0.0 
8.918260059820e-05 3.527874745774e-06 0.0 
3.527874745774e-06 5.279645808591e-04 0.0 
0.0 0.0 0.0 
-3.393706577048e-05 2.727947430330e-04 0.0 
2.727947430330e-04 1.823178409240e-03 0.0 
0.0 0.0 0.0 
-4.759292893786e-05 6.272902352622e-05 0.0 
6.272902352622e-05 2.000443165516e-03 0.0 
0.0 0.0 0.0 
-2.913031086493e-05 1.547914880437e-04 0.0 
1.547914880437e-04 1.991412791049e-03 0.0 
0.0 0.0 0.0 
6.394718613967e-05 -9.977122376049e-06 0.0 
-9.977122376049e-06 3.662926145533e-04 0.0 
0.0 0.0 0.0 
-5.405997464125e-05 -2.399710197535e-06 0.0 
-2.399710197535e-06 1.408079735929e-04 0.0 
0.0 0.0 0.0 
3.594322465306e-05 9.188202655621e-05 0.0 
9.188202655621e-05 1.207534443560e-03 0.0 
0.0 0.0 0.0 
-1.263403319185e-05 9.560971902457e-06 0.0 
9.560971902457e-06 2.087471727814e-03 0.0 
0.0 0.0 0.0 
1.694423163046e-05 1.138934393422e-05 0.0 
1.138934393422e-05 1.242054656960e-03 0.0 
0.0 0.0 0.0 
-8.529288043901e-05 3.592416679162e-06 0.0 
3.592416679162e-06 1.600057835170e-03 0.0 
0.0 0.0 0.0 
4.766073074935e-05 1.812001689098e-04 0.0 
1.812001689098e-04 1.234650007260e-03 0.0 
0.0 0.0 0.0 
2.782563776771e-05 -1.609934786755e-05 0.0 
-1.609934786755e-05 1.533518357857e-04 0.0 
0.0 0.0 0.0 
-4.688217107940e-05 1.215608754324e-04 0.0 
1.215608754324e-04 1.986829621189e-03 0.0 
0.0 0.0 0.0 
-4.641912620729e-06 -1.367887202582e-05 0.0 
-1.367887202582e-05 5.721369116185e-05 0.0 
0.0 0.0 0.0 
2.396539429950e-05 1.709008448104e-04 0.0 
1.709008448104e-04 1.276379673520e-03 0.0 
0.0 0.0 0.0 
-4.937851909670e-05 1.715899851521e-04 0.0 
1.715899851521e-04 1.977484192527e-03 0.0 
0.0 0.0 0.0 
-6.276323053889e-05 1.848583010995e-05 0.0 
1.848583010995e-05 9.422343339538e-05 0.0 
0.0 0.0 0.0 
1.217557070499e-06 2.697489685944e-04 0.0 
2.697489685944e-04 1.518137725178e-03 0.0 
0.0 0.0 0.0 
-6.503454555817e-05 8.384954691378e-06 0.0 
8.384954691378e-06 1.857721454654e-03 0.0 
0.0 0.0 0.0 
-1.690327446158e-05 5.048238930384e-05 0.0 
5.048238930384e-05 2.042341717871e-03 0.0 
0.0 0.0 0.0 
0.0 2.674747334304e-04 0.0 
2.674747334304e-04 1.486244895784e-03 0.0 
0.0 0.0 0.0 
-7.330983849885e-05 -3.605546696820e-06 0.0 
-3.605546696820e-06 1.778345466713e-03 0.0 
0.0 0.0 0.0 
-2.045217630353e-05 2.549970065639e-04 0.0 
2.549970065639e-04 1.841613430016e-03 0.0 
0.0 0.0 0.0 
-6.452137906932e-05 1.463535514493e-04 0.0 
1.463535514493e-04 1.963065514486e-03 0.0 
0.0 0.0 0.0 
-6.665117255311e-05 8.372517902018e-06 0.0 
8.372517902018e-06 1.813800609949e-03 0.0 
0.0 0.0 0.0 
-3.686354430610e-05 2.484478828296e-04 0.0 
2.484478828296e-04 1.795114211034e-03 0.0 
0.0 0.0 0.0 
7.989406913245e-05 -9.891857098170e-06 0.0 
-9.891857098170e-06 4.448838353488e-04 0.0 
0.0 0.0 0.0 
-9.037566318060e-05 -3.318599001716e-07 0.0 
-3.318599001716e-07 1.555839935829e-03 0.0 
0.0 0.0 0.0 
2.313058480463e-05 2.815448953770e-04 0.0 
2.815448953770e-04 1.502955590784e-03 0.0 
0.0 0.0 0.0 
-1.662901351673e-05 8.999036311729e-06 0.0 
8.999036311729e-06 2.049771343854e-03 0.0 
0.0 0.0 0.0 
5.044835329482e-06 1.149849947591e-06 0.0 
1.149849947591e-06 1.241909719973e-05 0.0 
0.0 0.0 0.0 
-8.653295430594e-05 1.172857961157e-06 0.0 
1.172857961157e-06 1.554392894465e-03 0.0 
0.0 0.0 0.0 
2.193353495250e-05 5.142581739197e-06 0.0 
5.142581739197e-06 1.188306420158e-03 0.0 
0.0 0.0 0.0 
3.049506858255e-05 -1.370400844657e-05 0.0 
-1.370400844657e-05 1.966552909516e-04 0.0 
0.0 0.0 0.0 
6.523732592068e-05 2.107749808597e-04 0.0 
2.107749808597e-04 1.267916552266e-03 0.0 
0.0 0.0 0.0 
-7.327436437499e-05 1.751631201769e-04 0.0 
1.751631201769e-04 1.929434106029e-03 0.0 
0.0 0.0 0.0 
-3.149953806492e-05 4.276556168879e-05 0.0 
4.276556168879e-05 2.039253399017e-03 0.0 
0.0 0.0 0.0 
2.969520288731e-05 -7.452917324195e-06 0.0 
-7.452917324195e-06 1.880777925176e-04 0.0 
0.0 0.0 0.0 
-4.795744066177e-05 9.464200566647e-05 0.0 
9.464200566647e-05 2.408792059421e-04 0.0 
0.0 0.0 0.0 
9.276548643977e-05 8.305470311502e-06 0.0 
8.305470311502e-06 6.578973606122e-04 0.0 
0.0 0.0 0.0 
-5.195351532794e-05 1.170427483488e-05 0.0 
1.170427483488e-05 1.917391857473e-03 0.0 
0.0 0.0 0.0 
-1.665282035176e-04 -7.122914227659e-06 0.0 
-7.122914227659e-06 8.924487477935e-05 0.0 
0.0 0.0 0.0 
-2.502068358334e-05 1.256826932604e-04 0.0 
1.256826932604e-04 2.015664940259e-03 0.0 
0.0 0.0 0.0 
-7.281802812265e-05 6.317574014225e-06 0.0 
6.317574014225e-06 1.760889250159e-03 0.0 
0.0 0.0 0.0 
1.484508997351e-05 -4.077490683926e-05 0.0 
-4.077490683926e-05 1.976900028633e-04 0.0 
0.0 0.0 0.0 
-8.063830100258e-05 8.513995330494e-06 0.0 
8.513995330494e-06 1.720496863215e-03 0.0 
0.0 0.0 0.0 
7.386099764695e-06 2.964649753189e-04 0.0 
2.964649753189e-04 1.572627786111e-03 0.0 
0.0 0.0 0.0 
9.377144471756e-05 -6.119596619376e-06 0.0 
-6.119596619376e-06 6.926400881131e-04 0.0 
0.0 0.0 0.0 
-1.133455272255e-04 9.018834937271e-05 0.0 
9.018834937271e-05 1.331832135647e-04 0.0 
0.0 0.0 0.0 
7.626459432442e-05 -5.027308537797e-06 0.0 
-5.027308537797e-06 4.011783085514e-04 0.0 
0.0 0.0 0.0 
9.659047684440e-05 3.437758310395e-06 0.0 
3.437758310395e-06 5.967169076915e-04 0.0 
0.0 0.0 0.0 
9.497708680151e-05 8.988417884136e-06 0.0 
8.988417884136e-06 7.230640611784e-04 0.0 
0.0 0.0 0.0 
2.745955275407e-05 2.604662001358e-04 0.0 
2.604662001358e-04 1.427425705032e-03 0.0 
0.0 0.0 0.0 
9.185681497259e-05 -4.844140077063e-06 0.0 
-4.844140077063e-06 5.810144998684e-04 0.0 
0.0 0.0 0.0 
9.636573665239e-05 3.338325895990e-06 0.0 
3.338325895990e-06 6.201230403944e-04 0.0 
0.0 0.0 0.0 
-5.130749694993e-06 -1.179779500657e-05 0.0 
-1.179779500657e-05 9.703494819391e-05 0.0 
0.0 0.0 0.0 
4.292213120349e-05 8.491475487124e-05 0.0 
8.491475487124e-05 1.152254713867e-03 0.0 
0.0 0.0 0.0 
-1.652714335176e-05 2.719221907489e-04 0.0 
2.719221907489e-04 1.610872044649e-03 0.0 
0.0 0.0 0.0 
-1.495253143302e-06 1.011322472688e-04 0.0 
1.011322472688e-04 2.572295090872e-04 0.0 
0.0 0.0 0.0 
-1.301855576619e-05 5.580072522117e-06 0.0 
5.580072522117e-06 2.048077262685e-03 0.0 
0.0 0.0 0.0 
1.845406580792e-05 1.289342072421e-05 0.0 
1.289342072421e-05 1.186080185555e-03 0.0 
0.0 0.0 0.0 
-8.636698619957e-05 -3.094869189747e-06 0.0 
-3.094869189747e-06 1.603611838148e-03 0.0 
0.0 0.0 0.0 
-7.664418283015e-05 5.370955262388e-06 0.0 
5.370955262388e-06 1.760740723656e-03 0.0 
0.0 0.0 0.0 
9.347619686184e-05 3.781805561866e-06 0.0 
3.781805561866e-06 5.800472800166e-04 0.0 
0.0 0.0 0.0 
9.494044036740e-05 -2.933061719673e-06 0.0 
-2.933061719673e-06 5.999206380021e-04 0.0 
0.0 0.0 0.0 
9.217836455355e-05 5.118133262723e-08 0.0 
5.118133262723e-08 6.228676358979e-04 0.0 
0.0 0.0 0.0 
7.128241424903e-05 2.050635594558e-04 0.0 
2.050635594558e-04 1.225970695238e-03 0.0 
0.0 0.0 0.0 
9.857643267219e-06 -2.653041229114e-05 0.0 
-2.653041229114e-05 1.594800600313e-04 0.0 
0.0 0.0 0.0 
-2.790202362091e-05 2.789716077574e-04 0.0 
2.789716077574e-04 1.676142097046e-03 0.0 
0.0 0.0 0.0 
-8.227762367796e-05 4.407835640797e-06 0.0 
4.407835640797e-06 1.657506999141e-03 0.0 
0.0 0.0 0.0 
-4.724525577815e-05 1.168936979366e-04 0.0 
1.168936979366e-04 2.016703992602e-03 0.0 
0.0 0.0 0.0 
5.921276632326e-05 1.925981337220e-04 0.0 
1.925981337220e-04 1.224465911973e-03 0.0 
0.0 0.0 0.0 
-8.513815304545e-05 6.483898244931e-06 0.0 
6.483898244931e-06 1.721719855066e-03 0.0 
0.0 0.0 0.0 
-4.825438742584e-05 2.436397370838e-04 0.0 
2.436397370838e-04 1.765035551557e-03 0.0 
0.0 0.0 0.0 
3.588822572764e-05 2.631711926779e-04 0.0 
2.631711926779e-04 1.426200205870e-03 0.0 
0.0 0.0 0.0 
2.435651284083e-05 2.864480050011e-04 0.0 
2.864480050011e-04 1.492398342231e-03 0.0 
0.0 0.0 0.0 
-9.015295647974e-05 9.974072422378e-05 0.0 
9.974072422378e-05 1.217714495489e-04 0.0 
0.0 0.0 0.0 
-5.917465330529e-05 2.441437360911e-04 0.0 
2.441437360911e-04 1.765013237744e-03 0.0 
0.0 0.0 0.0 
-3.962347588382e-05 2.665785990884e-04 0.0 
2.665785990884e-04 1.763467505460e-03 0.0 
0.0 0.0 0.0 
-3.654177314294e-06 -2.059301740280e-05 0.0 
-2.059301740280e-05 1.017305134505e-04 0.0 
0.0 0.0 0.0 
9.135863345211e-05 -5.023730398452e-06 0.0 
-5.023730398452e-06 5.493135185928e-04 0.0 
0.0 0.0 0.0 
-1.001891828039e-04 6.978884678691e-05 0.0 
6.978884678691e-05 1.422071116410e-04 0.0 
0.0 0.0 0.0 
-5.599886716867e-05 2.525697725832e-04 0.0 
2.525697725832e-04 1.810926736097e-03 0.0 
0.0 0.0 0.0 
-8.901697681640e-05 6.127852640515e-08 0.0 
6.127852640515e-08 1.312563625665e-03 0.0 
0.0 0.0 0.0 
-8.608277514566e-05 2.344981201887e-06 0.0 
2.344981201887e-06 1.305576473573e-03 0.0 
0.0 0.0 0.0 
-8.760947726705e-05 2.876931203474e-07 0.0 
2.876931203474e-07 1.305374561521e-03 0.0 
0.0 0.0 0.0 
-8.589535304326e-05 -1.193999035668e-07 0.0 
-1.193999035668e-07 1.304661036076e-03 0.0 
0.0 0.0 0.0 
-8.664601961872e-05 -5.969055256492e-07 0.0 
-5.969055256492e-07 1.304593632732e-03 0.0 
0.0 0.0 0.0 
-8.547332934572e-05 -9.546180360748e-07 0.0 
-9.546180360748e-07 1.304287636130e-03 0.0 
0.0 0.0 0.0 
-8.574344964829e-05 -1.191508771316e-06 0.0 
-1.191508771316e-06 1.304242959186e-03 0.0 
0.0 0.0 0.0 
-8.416931298871e-05 -1.620450186158e-06 0.0 
-1.620450186158e-06 1.303788408282e-03 0.0 
0.0 0.0 0.0 
-8.467018557667e-05 -1.605201011775e-06 0.0 
-1.605201011775e-06 1.303800046709e-03 0.0 
0.0 0.0 0.0 
-8.212503107874e-05 -2.267725749999e-06 0.0 
-2.267725749999e-06 1.303087464639e-03 0.0 
0.0 0.0 0.0 
-8.338494845384e-05 -1.931902721586e-06 0.0 
-1.931902721586e-06 1.303216559689e-03 0.0 
0.0 0.0 0.0 
-7.938981403133e-05 -2.935698005922e-06 0.0 
-2.935698005922e-06 1.302153633541e-03 0.0 
0.0 0.0 0.0 
-8.184958056445e-05 -2.277882075107e-06 0.0 
-2.277882075107e-06 1.302459199467e-03 0.0 
0.0 0.0 0.0 
-7.599455720908e-05 -3.642484540383e-06 0.0 
-3.642484540383e-06 1.300895348463e-03 0.0 
0.0 0.0 0.0 
-8.002379313055e-05 -2.624662973072e-06 0.0 
-2.624662973072e-06 1.301463646526e-03 0.0 
0.0 0.0 0.0 
-7.191760231451e-05 -4.383632737287e-06 0.0 
-4.383632737287e-06 1.299321268801e-03 0.0 
0.0 0.0 0.0 
-7.496763991621e-05 3.404075935345e-05 0.0 
3.404075935345e-05 1.294622727787e-03 0.0 
0.0 0.0 0.0 
-7.790645045280e-05 -2.917040254649e-06 0.0 
-2.917040254649e-06 1.300284420854e-03 0.0 
0.0 0.0 0.0 
-6.708175911285e-05 -5.105799029734e-06 0.0 
-5.105799029734e-06 1.297478670136e-03 0.0 
0.0 0.0 0.0 
-2.553870313127e-05 5.335334724478e-06 0.0 
5.335334724478e-06 1.256528362441e-03 0.0 
0.0 0.0 0.0 
-7.570797079226e-05 -3.163031721683e-06 0.0 
-3.163031721683e-06 1.298989192019e-03 0.0 
0.0 0.0 0.0 
-6.147636196052e-05 -5.831168309676e-06 0.0 
-5.831168309676e-06 1.295377500677e-03 0.0 
0.0 0.0 0.0 
-1.096610031524e-04 2.666025682309e-05 0.0 
2.666025682309e-05 1.310676571127e-03 0.0 
0.0 0.0 0.0 
-7.348759287973e-05 -3.412054607867e-06 0.0 
-3.412054607867e-06 1.297616362550e-03 0.0 
0.0 0.0 0.0 
-5.514461628164e-05 -6.522932088618e-06 0.0 
-6.522932088618e-06 1.292983532486e-03 0.0 
0.0 0.0 0.0 
-7.134971188272e-05 -3.646895647066e-06 0.0 
-3.646895647066e-06 1.296167612953e-03 0.0 
0.0 0.0 0.0 
-4.817214745489e-05 -7.106189134276e-06 0.0 
-7.106189134276e-06 1.290277381365e-03 0.0 
0.0 0.0 0.0 
-6.957374308736e-05 -3.823595509712e-06 0.0 
-3.823595509712e-06 1.294671610757e-03 0.0 
0.0 0.0 0.0 
-4.068045109140e-05 -7.519805949728e-06 0.0 
-7.519805949728e-06 1.287269268457e-03 0.0 
0.0 0.0 0.0 
-1.407218482867e-04 8.482242007889e-05 0.0 
8.482242007889e-05 1.334401374936e-03 0.0 
0.0 0.0 0.0 
-6.845722019777e-05 -3.388918526612e-06 0.0 
-3.388918526612e-06 1.293563543866e-03 0.0 
0.0 0.0 0.0 
-3.279275798462e-05 -7.413902548936e-06 0.0 
-7.413902548936e-06 1.284663343338e-03 0.0 
0.0 0.0 0.0 
-6.936371080624e-05 -3.094760786390e-06 0.0 
-3.094760786390e-06 1.293045489898e-03 0.0 
0.0 0.0 0.0 
-2.533377623315e-05 -6.815220220562e-06 0.0 
-6.815220220562e-06 1.281659264768e-03 0.0 
0.0 0.0 0.0 
-1.930617893109e-05 -4.564813957965e-06 0.0 
-4.564813957965e-06 1.280222488123e-03 0.0 
0.0 0.0 0.0 
-7.212038558868e-05 -1.109050916684e-06 0.0 
-1.109050916684e-06 1.293710057705e-03 0.0 
0.0 0.0 0.0 
-1.743144118194e-05 -1.016290265161e-07 0.0 
-1.016290265161e-07 1.276441649322e-03 0.0 
0.0 0.0 0.0 
-8.009942676290e-05 1.043911080079e-07 0.0 
1.043911080079e-07 1.295172092816e-03 0.0 
0.0 0.0 0.0 
-2.372928621552e-05 1.253320945909e-05 0.0 
1.253320945909e-05 1.277867532500e-03 0.0 
0.0 0.0 0.0 
-8.549980205264e-05 9.095355046871e-06 0.0 
9.095355046871e-06 1.298502778062e-03 0.0 
0.0 0.0 0.0 
-1.222683553661e-04 1.944673352349e-05 0.0 
1.944673352349e-05 1.330798431872e-03 0.0 
0.0 0.0 0.0 
-9.106644673751e-05 -8.368881106720e-06 0.0 
-8.368881106720e-06 1.305321318916e-03 0.0 
0.0 0.0 0.0 
-9.543061452832e-05 9.873793588780e-06 0.0 
9.873793588780e-06 1.313058259941e-03 0.0 
0.0 0.0 0.0 
-9.704904870667e-05 4.296531524360e-08 0.0 
4.296531524360e-08 1.294605429390e-03 0.0 
0.0 0.0 0.0 
-8.940651424694e-05 1.672521374257e-06 0.0 
1.672521374257e-06 1.323324080430e-03 0.0 
0.0 0.0 0.0 
-1.353573426087e-04 8.728424040200e-05 0.0 
8.728424040200e-05 1.266233171804e-03 0.0 
0.0 0.0 0.0 
-8.901697681640e-05 -3.156564743731e-06 0.0 
-3.156564743731e-06 1.364332421105e-03 0.0 
0.0 0.0 0.0 
-8.864403890629e-05 2.330901303399e-08 0.0 
2.330901303399e-08 1.370037604779e-03 0.0 
0.0 0.0 0.0 
-8.760947726705e-05 -1.346955336770e-06 0.0 
-1.346955336770e-06 1.370172044810e-03 0.0 
0.0 0.0 0.0 
-8.813737073854e-05 -1.686192416847e-06 0.0 
-1.686192416847e-06 1.369996135064e-03 0.0 
0.0 0.0 0.0 
-8.664601961872e-05 -1.710697930253e-06 0.0 
-1.710697930253e-06 1.369991422041e-03 0.0 
0.0 0.0 0.0 
-8.787959709455e-05 -2.437444658623e-06 0.0 
-2.437444658623e-06 1.369682475685e-03 0.0 
0.0 0.0 0.0 
-8.574344964829e-05 -2.426001774374e-06 0.0 
-2.426001774374e-06 1.369658825634e-03 0.0 
0.0 0.0 0.0 
-8.760958018594e-05 -3.376004058277e-06 0.0 
-3.376004058277e-06 1.369425077830e-03 0.0 
0.0 0.0 0.0 
-8.467018557667e-05 -3.119848962824e-06 0.0 
-3.119848962824e-06 1.369315111015e-03 0.0 
0.0 0.0 0.0 
-8.755470301081e-05 -4.367203697586e-06 0.0 
-4.367203697586e-06 1.369278671812e-03 0.0 
0.0 0.0 0.0 
-8.338494845384e-05 -3.809017709113e-06 0.0 
-3.809017709113e-06 1.369017396538e-03 0.0 
0.0 0.0 0.0 
-8.747033671608e-05 -5.420094957001e-06 0.0 
-5.420094957001e-06 1.369139736465e-03 0.0 
0.0 0.0 0.0 
-8.184958056445e-05 -4.468813363092e-06 0.0 
-4.468813363092e-06 1.368634652250e-03 0.0 
0.0 0.0 0.0 
-8.763783627230e-05 -6.561717760304e-06 0.0 
-6.561717760304e-06 1.368990488868e-03 0.0 
0.0 0.0 0.0 
-8.002379313055e-05 -5.147367923996e-06 0.0 
-5.147367923996e-06 1.368120187208e-03 0.0 
0.0 0.0 0.0 
-1.081144916975e-04 3.514352952383e-05 0.0 
3.514352952383e-05 1.367566907518e-03 0.0 
0.0 0.0 0.0 
-8.758869857295e-05 -7.715330900814e-06 0.0 
-7.715330900814e-06 1.368683515925e-03 0.0 
0.0 0.0 0.0 
-1.240744001773e-04 2.451736759025e-05 0.0 
2.451736759025e-05 1.380362334724e-03 0.0 
0.0 0.0 0.0 
-7.790645045280e-05 -5.645504621155e-06 0.0 
-5.645504621155e-06 1.367261930288e-03 0.0 
0.0 0.0 0.0 
-8.788407257354e-05 -8.556777401207e-06 0.0 
-8.556777401207e-06 1.368507433561e-03 0.0 
0.0 0.0 0.0 
-7.570797079226e-05 -6.017581393635e-06 0.0 
-6.017581393635e-06 1.366476829196e-03 0.0 
0.0 0.0 0.0 
-8.862239044904e-05 -9.294647053669e-06 0.0 
-9.294647053669e-06 1.368513225821e-03 0.0 
0.0 0.0 0.0 
-7.348759287973e-05 -6.218613618029e-06 0.0 
-6.218613618029e-06 1.365676838366e-03 0.0 
0.0 0.0 0.0 
-8.971867400953e-05 -9.801847944505e-06 0.0 
-9.801847944505e-06 1.368613540063e-03 0.0 
0.0 0.0 0.0 
-8.549980205264e-05 2.706822397696e-05 0.0 
2.706822397696e-05 1.338261925979e-03 0.0 
0.0 0.0 0.0 
-7.134971188272e-05 -6.038871221877e-06 0.0 
-6.038871221877e-06 1.364702547438e-03 0.0 
0.0 0.0 0.0 
-9.157033870100e-05 -9.754332732996e-06 0.0 
-9.754332732996e-06 1.368899697492e-03 0.0 
0.0 0.0 0.0 
-6.957374308736e-05 -5.314292137906e-06 0.0 
-5.314292137906e-06 1.363690280694e-03 0.0 
0.0 0.0 0.0 
-9.461476208317e-05 -9.043536388635e-06 0.0 
-9.043536388635e-06 1.369422093694e-03 0.0 
0.0 0.0 0.0 
-6.845722019777e-05 -3.344261665710e-06 0.0 
-3.344261665710e-06 1.362228302508e-03 0.0 
0.0 0.0 0.0 
-9.837344623920e-05 -5.828569399544e-06 0.0 
-5.828569399544e-06 1.370808943639e-03 0.0 
0.0 0.0 0.0 
-6.936371080624e-05 1.639481388197e-07 0.0 
1.639481388197e-07 1.362235061440e-03 0.0 
0.0 0.0 0.0 
-1.061660424796e-04 -2.022779451145e-06 0.0 
-2.022779451145e-06 1.372859827736e-03 0.0 
0.0 0.0 0.0 
-1.103958096459e-04 8.523016913240e-06 0.0 
8.523016913240e-06 1.374861628329e-03 0.0 
0.0 0.0 0.0 
-7.212038558868e-05 6.866129371698e-06 0.0 
6.866129371698e-06 1.360301395576e-03 0.0 
0.0 0.0 0.0 
-1.305660005393e-04 5.732214647019e-05 0.0 
5.732214647019e-05 1.384636351429e-03 0.0 
0.0 0.0 0.0 
-8.009942676290e-05 1.874005519581e-05 0.0 
1.874005519581e-05 1.360704861631e-03 0.0 
0.0 0.0 0.0 
-1.218817193370e-04 3.030365542844e-05 0.0 
3.030365542844e-05 1.366750895958e-03 0.0 
0.0 0.0 0.0 
-9.094350537064e-05 -9.235897498922e-06 0.0 
-9.235897498922e-06 1.371408552619e-03 0.0 
0.0 0.0 0.0 
-8.668162311054e-05 7.635357468811e-06 0.0 
7.635357468811e-06 1.363791365399e-03 0.0 
0.0 0.0 0.0 
-8.818018945611e-05 -1.443349018487e-06 0.0 
-1.443349018487e-06 1.383977144964e-03 0.0 
0.0 0.0 0.0 
-8.940651424694e-05 1.140211122852e-07 0.0 
1.140211122852e-07 1.351715109140e-03 0.0 
0.0 0.0 0.0 
-1.096610031524e-04 6.394640959085e-05 0.0 
6.394640959085e-05 1.333997722187e-03 0.0 
0.0 0.0 0.0 
-8.858708733905e-05 -3.331460407254e-06 0.0 
-3.331460407254e-06 1.439843475514e-03 0.0 
0.0 0.0 0.0 
-8.864403890629e-05 -5.517816581806e-07 0.0 
-5.517816581806e-07 1.434661587492e-03 0.0 
0.0 0.0 0.0 
-8.835798938511e-05 -2.149819074086e-06 0.0 
-2.149819074086e-06 1.434472593300e-03 0.0 
0.0 0.0 0.0 
-8.813737073854e-05 -2.083431243019e-06 0.0 
-2.083431243019e-06 1.434168129574e-03 0.0 
0.0 0.0 0.0 
-8.881996552457e-05 -2.137864513481e-06 0.0 
-2.137864513481e-06 1.434163838022e-03 0.0 
0.0 0.0 0.0 
-8.787959709455e-05 -2.668630854540e-06 0.0 
-2.668630854540e-06 1.434368363756e-03 0.0 
0.0 0.0 0.0 
-8.955437226732e-05 -2.841770919091e-06 0.0 
-2.841770919091e-06 1.434350805196e-03 0.0 
0.0 0.0 0.0 
-8.760958018594e-05 -3.611863581251e-06 0.0 
-3.611863581251e-06 1.434249639616e-03 0.0 
0.0 0.0 0.0 
-9.006271605094e-05 -3.247121177274e-06 0.0 
-3.247121177274e-06 1.434409969040e-03 0.0 
0.0 0.0 0.0 
-8.755470301081e-05 -4.406520036965e-06 0.0 
-4.406520036965e-06 1.434618630982e-03 0.0 
0.0 0.0 0.0 
-9.141962783643e-05 -3.963383259570e-06 0.0 
-3.963383259570e-06 1.434895393178e-03 0.0 
0.0 0.0 0.0 
-8.747033671608e-05 -5.370580711240e-06 0.0 
-5.370580711240e-06 1.434639840664e-03 0.0 
0.0 0.0 0.0 
-9.259616425294e-05 -4.291278643912e-06 0.0 
-4.291278643912e-06 1.435301530398e-03 0.0 
0.0 0.0 0.0 
-1.254425531340e-04 2.732034345054e-05 0.0 
2.732034345054e-05 1.438947841460e-03 0.0 
0.0 0.0 0.0 
-8.763783627230e-05 -6.128575071914e-06 0.0 
-6.128575071914e-06 1.435212006496e-03 0.0 
0.0 0.0 0.0 
-9.471619352674e-05 -5.246010428972e-06 0.0 
-5.246010428972e-06 1.436019212403e-03 0.0 
0.0 0.0 0.0 
-1.103958096459e-04 2.306925435847e-05 0.0 
2.306925435847e-05 1.412693364589e-03 0.0 
0.0 0.0 0.0 
-8.758869857295e-05 -7.042533508084e-06 0.0 
-7.042533508084e-06 1.434807624935e-03 0.0 
0.0 0.0 0.0 
-9.663752451616e-05 -5.313267827994e-06 0.0 
-5.313267827994e-06 1.436357162562e-03 0.0 
0.0 0.0 0.0 
-1.329593485396e-04 2.214715799312e-05 0.0 
2.214715799312e-05 1.446000225769e-03 0.0 
0.0 0.0 0.0 
-8.788407257354e-05 -7.340211154134e-06 0.0 
-7.340211154134e-06 1.434857148018e-03 0.0 
0.0 0.0 0.0 
-9.947316931125e-05 -5.092217189084e-06 0.0 
-5.092217189084e-06 1.437182014427e-03 0.0 
0.0 0.0 0.0 
-8.862239044904e-05 -7.248986270095e-06 0.0 
-7.248986270095e-06 1.435134544550e-03 0.0 
0.0 0.0 0.0 
-1.029020864868e-04 -4.794436981229e-06 0.0 
-4.794436981229e-06 1.438217456390e-03 0.0 
0.0 0.0 0.0 
-8.971867400953e-05 -6.569446612946e-06 0.0 
-6.569446612946e-06 1.434994829027e-03 0.0 
0.0 0.0 0.0 
-1.381957050880e-04 4.352651432755e-05 0.0 
4.352651432755e-05 1.450779614465e-03 0.0 
0.0 0.0 0.0 
-1.069775325613e-04 -3.571762333477e-06 0.0 
-3.571762333477e-06 1.439260733873e-03 0.0 
0.0 0.0 0.0 
-9.157033870100e-05 -4.745910438064e-06 0.0 
-4.745910438064e-06 1.434833494253e-03 0.0 
0.0 0.0 0.0 
-9.461476208317e-05 -1.496594692508e-06 0.0 
-1.496594692508e-06 1.434856606782e-03 0.0 
0.0 0.0 0.0 
-1.123199765714e-04 -1.171407543112e-06 0.0 
-1.171407543112e-06 1.440600405461e-03 0.0 
0.0 0.0 0.0 
-9.837344623920e-05 4.544880452396e-06 0.0 
4.544880452396e-06 1.432090536507e-03 0.0 
0.0 0.0 0.0 
-1.196513377260e-04 1.793137328124e-06 0.0 
1.793137328124e-06 1.441810753588e-03 0.0 
0.0 0.0 0.0 
-1.061660424796e-04 1.518182220734e-05 0.0 
1.518182220734e-05 1.433511149917e-03 0.0 
0.0 0.0 0.0 
-1.225064796457e-04 1.101823826746e-05 0.0 
1.101823826746e-05 1.442499496271e-03 0.0 
0.0 0.0 0.0 
-1.329653261324e-04 2.638194119453e-05 0.0 
2.638194119453e-05 1.430052379176e-03 0.0 
0.0 0.0 0.0 
-8.521084620805e-05 -8.845628315574e-06 0.0 
-8.845628315574e-06 1.430719268249e-03 0.0 
0.0 0.0 0.0 
-9.068313694216e-05 7.822740952105e-06 0.0 
7.822740952105e-06 1.440501418197e-03 0.0 
0.0 0.0 0.0 
-8.818018945611e-05 -1.349460715222e-06 0.0 
-1.349460715222e-06 1.418965128718e-03 0.0 
0.0 0.0 0.0 
-8.778964058753e-05 6.803657500786e-07 0.0 
6.803657500786e-07 1.451640235172e-03 0.0 
0.0 0.0 0.0 
-1.240744001773e-04 4.699389450879e-05 0.0 
4.699389450879e-05 1.407217694373e-03 0.0 
0.0 0.0 0.0 
-8.858708733905e-05 -3.659959720691e-06 0.0 
-3.659959720691e-06 1.493996812148e-03 0.0 
0.0 0.0 0.0 
-8.691769987723e-05 -7.797895583255e-07 0.0 
-7.797895583255e-07 1.497939543561e-03 0.0 
0.0 0.0 0.0 
-8.835798938511e-05 -1.685576790457e-06 0.0 
-1.685576790457e-06 1.498051090465e-03 0.0 
0.0 0.0 0.0 
-8.855808049635e-05 -1.345287265107e-06 0.0 
-1.345287265107e-06 1.498837957141e-03 0.0 
0.0 0.0 0.0 
-8.881996552457e-05 -1.622595861647e-06 0.0 
-1.622595861647e-06 1.498888932849e-03 0.0 
0.0 0.0 0.0 
-8.966124216481e-05 -1.545435347641e-06 0.0 
-1.545435347641e-06 1.499680071625e-03 0.0 
0.0 0.0 0.0 
-8.955437226732e-05 -2.190555579160e-06 0.0 
-2.190555579160e-06 1.499830385453e-03 0.0 
0.0 0.0 0.0 
-9.064436670014e-05 -2.701304719941e-06 0.0 
-2.701304719941e-06 1.499752087886e-03 0.0 
0.0 0.0 0.0 
-9.006271605094e-05 -2.093750574373e-06 0.0 
-2.093750574373e-06 1.499560816540e-03 0.0 
0.0 0.0 0.0 
-9.236189451489e-05 -2.306666887723e-06 0.0 
-2.306666887723e-06 1.500769435273e-03 0.0 
0.0 0.0 0.0 
-9.141962783643e-05 -2.466140347763e-06 0.0 
-2.466140347763e-06 1.500796376079e-03 0.0 
0.0 0.0 0.0 
-9.501538419099e-05 -3.432690761857e-06 0.0 
-3.432690761857e-06 1.501528832673e-03 0.0 
0.0 0.0 0.0 
-1.344195060456e-04 2.335655104478e-05 0.0 
2.335655104478e-05 1.507665269031e-03 0.0 
0.0 0.0 0.0 
-9.259616425294e-05 -2.375040263617e-06 0.0 
-2.375040263617e-06 1.500990784737e-03 0.0 
0.0 0.0 0.0 
-1.368831241145e-04 1.898558292170e-05 0.0 
1.898558292170e-05 1.512001516047e-03 0.0 
0.0 0.0 0.0 
-9.647954170811e-05 -2.790387942109e-06 0.0 
-2.790387942109e-06 1.502626449500e-03 0.0 
0.0 0.0 0.0 
-9.471619352674e-05 -2.293466368924e-06 0.0 
-2.293466368924e-06 1.502294979241e-03 0.0 
0.0 0.0 0.0 
-1.013963607801e-04 -3.800767812135e-06 0.0 
-3.800767812135e-06 1.503690041595e-03 0.0 
0.0 0.0 0.0 
-9.663752451616e-05 -1.628472303261e-06 0.0 
-1.628472303261e-06 1.502206554927e-03 0.0 
0.0 0.0 0.0 
-1.055017423974e-04 -2.780792754618e-06 0.0 
-2.780792754618e-06 1.504996522509e-03 0.0 
0.0 0.0 0.0 
-9.947316931125e-05 -6.287914590472e-07 0.0 
-6.287914590472e-07 1.503209136533e-03 0.0 
0.0 0.0 0.0 
-1.095403590127e-04 -1.680305767037e-06 0.0 
-1.680305767037e-06 1.506393370942e-03 0.0 
0.0 0.0 0.0 
-1.225064796457e-04 2.250700270853e-05 0.0 
2.250700270853e-05 1.482191228861e-03 0.0 
0.0 0.0 0.0 
-1.029020864868e-04 1.170138885585e-06 0.0 
1.170138885585e-06 1.503854129095e-03 0.0 
0.0 0.0 0.0 
-1.150644448099e-04 1.861428214391e-07 0.0 
1.861428214391e-07 1.507672920893e-03 0.0 
0.0 0.0 0.0 
-1.069775325613e-04 4.341733342147e-06 0.0 
4.341733342147e-06 1.503732196648e-03 0.0 
0.0 0.0 0.0 
-1.209574417578e-04 4.118326717697e-06 0.0 
4.118326717697e-06 1.508789389812e-03 0.0 
0.0 0.0 0.0 
-1.279552979413e-04 1.061147797236e-05 0.0 
1.061147797236e-05 1.510132064271e-03 0.0 
0.0 0.0 0.0 
-1.123199765714e-04 9.498429644246e-06 0.0 
9.498429644246e-06 1.503412449845e-03 0.0 
0.0 0.0 0.0 
-1.196513377260e-04 1.651671684371e-05 0.0 
1.651671684371e-05 1.503860988487e-03 0.0 
0.0 0.0 0.0 
-1.407518164512e-04 3.524454577763e-05 0.0 
3.524454577763e-05 1.516219869645e-03 0.0 
0.0 0.0 0.0 
-1.364764772257e-04 2.330813109494e-05 0.0 
2.330813109494e-05 1.492682356006e-03 0.0 
0.0 0.0 0.0 
-8.944306713754e-05 -7.803234363023e-06 0.0 
-7.803234363023e-06 1.498533706436e-03 0.0 
0.0 0.0 0.0 
-8.649820262108e-05 8.776268186460e-06 0.0 
8.776268186460e-06 1.493263462337e-03 0.0 
0.0 0.0 0.0 
-8.810299897832e-05 1.535181568247e-07 0.0 
1.535181568247e-07 1.512716767361e-03 0.0 
0.0 0.0 0.0 
-8.778964058753e-05 1.129441314471e-06 0.0 
1.129441314471e-06 1.479636210127e-03 0.0 
0.0 0.0 0.0 
-1.329593485396e-04 3.782400794563e-05 0.0 
3.782400794563e-05 1.479189667130e-03 0.0 
0.0 0.0 0.0 

TENSORS element_materi_strain_plasti float
-7.112834060814e-05 3.514287460403e-05 0.0 
3.514287460403e-05 4.221004333340e-04 0.0 
0.0 0.0 -6.331083958573e-05 
-5.846555959083e-05 -3.955396469031e-05 0.0 
-3.955396469031e-05 3.778270157352e-04 0.0 
0.0 0.0 -6.454996159239e-05 
-1.889012089990e-04 -4.635760778403e-06 0.0 
-4.635760778403e-06 1.261715003762e-03 0.0 
0.0 0.0 -1.917354871627e-04 
-1.892197240299e-04 -2.621872887778e-05 0.0 
-2.621872887778e-05 1.272074442975e-03 0.0 
0.0 0.0 -1.883397590782e-04 
-1.197492232907e-04 3.454635042166e-05 0.0 
3.454635042166e-05 7.881734594548e-04 0.0 
0.0 0.0 -1.194279202642e-04 
-3.089019924433e-05 3.311410509038e-05 0.0 
3.311410509038e-05 1.513652850395e-04 0.0 
0.0 0.0 -2.690189283898e-05 
-1.181845121128e-04 4.042873295375e-05 0.0 
4.042873295375e-05 7.806844228614e-04 0.0 
0.0 0.0 -1.201653584795e-04 
-6.192381097420e-05 6.121385101827e-06 0.0 
6.121385101827e-06 4.031113170469e-04 0.0 
0.0 0.0 -6.068503909357e-05 
-1.204422882212e-04 -4.316649774326e-05 0.0 
-4.316649774326e-05 7.921064928151e-04 0.0 
0.0 0.0 -1.196685615722e-04 
-1.872884217324e-04 3.363141611130e-05 0.0 
3.363141611130e-05 1.259931992447e-03 0.0 
0.0 0.0 -1.879590212157e-04 
-1.310105652939e-04 2.220654670134e-05 0.0 
2.220654670134e-05 8.586450598517e-04 0.0 
0.0 0.0 -1.322476557103e-04 
-5.719807020115e-05 3.286461856494e-08 0.0 
3.286461856494e-08 3.230799459092e-04 0.0 
0.0 0.0 -5.602547750609e-05 
-1.877824496395e-04 3.388580337900e-05 0.0 
3.388580337900e-05 1.270169470641e-03 0.0 
0.0 0.0 -1.888781569884e-04 
-1.271872132406e-04 2.790230920199e-05 0.0 
2.790230920199e-05 8.458021199286e-04 0.0 
0.0 0.0 -1.278925217316e-04 
-1.932284152260e-04 -2.749272838120e-05 0.0 
-2.749272838120e-05 1.293984431102e-03 0.0 
0.0 0.0 -1.934308312547e-04 
-1.951772105051e-04 3.059468724474e-05 0.0 
3.059468724474e-05 1.293909326463e-03 0.0 
0.0 0.0 -1.928977411855e-04 
-1.183364621444e-04 7.034029580759e-07 0.0 
7.034029580759e-07 7.884128395372e-04 0.0 
0.0 0.0 -1.161101519611e-04 
-2.611548289249e-05 -2.976881314846e-05 0.0 
-2.976881314846e-05 1.366026820107e-04 0.0 
0.0 0.0 -2.739356786257e-05 
-4.655901900947e-05 -1.783274604704e-05 0.0 
-1.783274604704e-05 2.713105741166e-04 0.0 
0.0 0.0 -4.164025237647e-05 
-4.525890771348e-05 1.651863799484e-05 0.0 
1.651863799484e-05 2.466759593770e-04 0.0 
0.0 0.0 -4.546658199970e-05 
-1.855467270519e-04 -3.410013315625e-05 0.0 
-3.410013315625e-05 1.271232436366e-03 0.0 
0.0 0.0 -1.875582398551e-04 
-7.183248799894e-05 1.385365681385e-05 0.0 
1.385365681385e-05 4.407830654411e-04 0.0 
0.0 0.0 -7.216713101957e-05 
-7.730219154025e-05 -1.500465902034e-05 0.0 
-1.500465902034e-05 4.983174969402e-04 0.0 
0.0 0.0 -7.637334323853e-05 
-1.811871610611e-04 -2.281549761052e-05 0.0 
-2.281549761052e-05 1.217872226341e-03 0.0 
0.0 0.0 -1.815559455716e-04 
-1.350733973102e-04 3.295465992380e-05 0.0 
3.295465992380e-05 9.016620137675e-04 0.0 
0.0 0.0 -1.369648256180e-04 
-1.376188637296e-04 -2.176217058498e-05 0.0 
-2.176217058498e-05 9.243651343577e-04 0.0 
0.0 0.0 -1.376939605679e-04 
-1.069658315495e-04 -2.744737862324e-06 0.0 
-2.744737862324e-06 7.297614599069e-04 0.0 
0.0 0.0 -1.072212406194e-04 
-1.912521162051e-04 1.980335045204e-06 0.0 
1.980335045204e-06 1.305953059909e-03 0.0 
0.0 0.0 -1.899071758113e-04 
-1.362716787782e-04 -3.798939155730e-05 0.0 
-3.798939155730e-05 9.083018994538e-04 0.0 
0.0 0.0 -1.367086240186e-04 
-1.873007466112e-04 2.251116880675e-05 0.0 
2.251116880675e-05 1.247916240988e-03 0.0 
0.0 0.0 -1.856871487262e-04 
-3.243755210516e-05 5.032771115372e-06 0.0 
5.032771115372e-06 2.086151015531e-04 0.0 
0.0 0.0 -3.278963886402e-05 
-1.654166470030e-05 4.638693750366e-06 0.0 
4.638693750366e-06 9.012172148024e-05 0.0 
0.0 0.0 -1.589633704410e-05 
-1.936928702910e-04 8.344522422306e-06 0.0 
8.344522422306e-06 1.305844555641e-03 0.0 
0.0 0.0 -1.891952015075e-04 
-1.629254088575e-04 -2.764733331880e-05 0.0 
-2.764733331880e-05 1.087637140145e-03 0.0 
0.0 0.0 -1.635300645102e-04 
-1.844440851533e-04 -3.122724235015e-05 0.0 
-3.122724235015e-05 1.269225288252e-03 0.0 
0.0 0.0 -1.882484805285e-04 
-2.000892196314e-04 5.806438950548e-05 0.0 
5.806438950548e-05 1.337814960827e-03 0.0 
0.0 0.0 -1.972329526028e-04 
-1.979323581362e-04 -6.123980485016e-05 0.0 
-6.123980485016e-05 1.334624137008e-03 0.0 
0.0 0.0 -1.971979658877e-04 
-1.876565914579e-04 2.632656749342e-05 0.0 
2.632656749342e-05 1.265796013128e-03 0.0 
0.0 0.0 -1.897108526679e-04 
-1.089254337778e-04 -4.761071042110e-05 0.0 
-4.761071042110e-05 7.109927537120e-04 0.0 
0.0 0.0 -1.107114518244e-04 
-1.094034421642e-04 5.351990132505e-05 0.0 
5.351990132505e-05 7.212963119965e-04 0.0 
0.0 0.0 -1.105676175232e-04 
-8.675634194158e-05 -2.048772068430e-05 0.0 
-2.048772068430e-05 5.676637230470e-04 0.0 
0.0 0.0 -8.691834785005e-05 
-1.894316575551e-04 1.529535291875e-06 0.0 
1.529535291875e-06 1.267582633286e-03 0.0 
0.0 0.0 -1.921134732322e-04 
-4.839148529355e-05 3.269211206116e-05 0.0 
3.269211206116e-05 2.885062742471e-04 0.0 
0.0 0.0 -4.811778726964e-05 
-1.084239785972e-04 8.299246254447e-06 0.0 
8.299246254447e-06 6.943716908755e-04 0.0 
0.0 0.0 -1.102508860907e-04 
-1.837583847109e-04 -1.472486193336e-05 0.0 
-1.472486193336e-05 1.244009219740e-03 0.0 
0.0 0.0 -1.819287770889e-04 
-4.809827435414e-05 -2.856413507896e-05 0.0 
-2.856413507896e-05 2.876955400614e-04 0.0 
0.0 0.0 -4.797639238285e-05 
-2.674214069171e-05 -6.567095403776e-07 0.0 
-6.567095403776e-07 1.170205921082e-04 0.0 
0.0 0.0 -2.746289347828e-05 
-1.830752196458e-04 9.475420572823e-06 0.0 
9.475420572823e-06 1.215993436390e-03 0.0 
0.0 0.0 -1.852115035180e-04 
-1.474418981779e-05 6.875922652759e-07 0.0 
6.875922652759e-07 4.915161551588e-05 0.0 
0.0 0.0 -1.474603958490e-05 
-1.203307146343e-04 -2.717995598574e-05 0.0 
-2.717995598574e-05 8.158947777103e-04 0.0 
0.0 0.0 -1.234415444935e-04 
-8.234981639965e-05 -1.699589320995e-05 0.0 
-1.699589320995e-05 5.359221535030e-04 0.0 
0.0 0.0 -8.161374715243e-05 
-5.082688459540e-05 -1.056431694294e-05 0.0 
-1.056431694294e-05 3.372053744103e-04 0.0 
0.0 0.0 -5.165715595373e-05 
-4.611236241503e-05 -2.201694224577e-05 0.0 
-2.201694224577e-05 2.721561722188e-04 0.0 
0.0 0.0 -4.571843846580e-05 
-8.132390918315e-05 1.940323008173e-05 0.0 
1.940323008173e-05 5.127711064819e-04 0.0 
0.0 0.0 -8.234191315183e-05 
-1.899869588384e-04 -1.183985275253e-06 0.0 
-1.183985275253e-06 1.270300843848e-03 0.0 
0.0 0.0 -1.923283752319e-04 
-6.895815039131e-05 -2.178280864622e-05 0.0 
-2.178280864622e-05 4.406253786073e-04 0.0 
0.0 0.0 -6.768350264862e-05 
-5.417817485919e-05 2.166263208896e-05 0.0 
2.166263208896e-05 3.190902094138e-04 0.0 
0.0 0.0 -5.541318120416e-05 
-1.632126763507e-04 2.740636426442e-05 0.0 
2.740636426442e-05 1.093574435161e-03 0.0 
0.0 0.0 -1.631601065255e-04 
-3.323583887555e-05 3.269521201795e-06 0.0 
3.269521201795e-06 2.033859620122e-04 0.0 
0.0 0.0 -3.284525368658e-05 
-1.937347679597e-04 -3.087303565399e-05 0.0 
-3.087303565399e-05 1.295743109935e-03 0.0 
0.0 0.0 -1.927980053726e-04 
-1.410948374280e-05 -1.895108414919e-05 0.0 
-1.895108414919e-05 7.768302090073e-05 0.0 
0.0 0.0 -1.429900283189e-05 
-1.810662248895e-04 3.422591082853e-05 0.0 
3.422591082853e-05 1.214874210850e-03 0.0 
0.0 0.0 -1.816237070315e-04 
-8.260879868620e-05 3.395540134069e-05 0.0 
3.395540134069e-05 5.200982356105e-04 0.0 
0.0 0.0 -8.245627511043e-05 
-3.949603130373e-05 1.817463478044e-05 0.0 
1.817463478044e-05 2.392386227040e-04 0.0 
0.0 0.0 -4.154126471103e-05 
-1.880584302466e-04 -2.737021915549e-05 0.0 
-2.737021915549e-05 1.269816799986e-03 0.0 
0.0 0.0 -1.886217783130e-04 
-7.828481688491e-05 1.568948501134e-05 0.0 
1.568948501134e-05 4.753725480920e-04 0.0 
0.0 0.0 -7.706359040663e-05 
-9.040619779534e-06 6.808328067989e-06 0.0 
6.808328067989e-06 3.080905476409e-05 0.0 
0.0 0.0 -9.329329279096e-06 
-1.897461617520e-04 -1.190223513879e-05 0.0 
-1.190223513879e-05 1.300793159363e-03 0.0 
0.0 0.0 -1.892491279630e-04 
-3.670459678346e-05 -3.155058415611e-05 0.0 
-3.155058415611e-05 2.097964586862e-04 0.0 
0.0 0.0 -3.606465181366e-05 
-1.910292024481e-04 -5.680018839650e-07 0.0 
-5.680018839650e-07 1.267292748539e-03 0.0 
0.0 0.0 -1.923564682915e-04 
-1.423720417950e-04 -2.542418638308e-05 0.0 
-2.542418638308e-05 9.582298228247e-04 0.0 
0.0 0.0 -1.433443585977e-04 
-2.007748921200e-04 -7.173616599767e-07 0.0 
-7.173616599767e-07 1.325499155450e-03 0.0 
0.0 0.0 -2.007748921200e-04 
-1.856237250837e-04 2.519587703745e-07 0.0 
2.519587703745e-07 1.217908679066e-03 0.0 
0.0 0.0 -1.849363666885e-04 
-1.959401746035e-05 3.302488870378e-05 0.0 
3.302488870378e-05 8.419396161668e-05 0.0 
0.0 0.0 -1.942930455437e-05 
-7.294356160709e-05 2.278666566635e-05 0.0 
2.278666566635e-05 4.423978020253e-04 0.0 
0.0 0.0 -7.166057984914e-05 
-1.881200936435e-04 -2.597496456892e-05 0.0 
-2.597496456892e-05 1.274260032451e-03 0.0 
0.0 0.0 -1.893940471826e-04 
-1.918449780582e-04 -8.194598920857e-07 0.0 
-8.194598920857e-07 1.307445909733e-03 0.0 
0.0 0.0 -1.898028072996e-04 
-3.750417093390e-05 -2.856125910662e-05 0.0 
-2.856125910662e-05 2.170807613547e-04 0.0 
0.0 0.0 -3.765846754783e-05 
-3.201050297440e-05 -1.804321051782e-06 0.0 
-1.804321051782e-06 1.678376622842e-04 0.0 
0.0 0.0 -3.550136840268e-05 
-3.928328821311e-05 3.001435520315e-05 0.0 
3.001435520315e-05 2.151736419894e-04 0.0 
0.0 0.0 -3.788339401932e-05 
-3.841727809162e-05 3.259876760906e-05 0.0 
3.259876760906e-05 1.973706613177e-04 0.0 
0.0 0.0 -3.659988700710e-05 
-1.163465053479e-04 4.799891796781e-06 0.0 
4.799891796781e-06 7.474963377636e-04 0.0 
0.0 0.0 -1.187754596314e-04 
-7.387818471422e-05 -1.490180971543e-05 0.0 
-1.490180971543e-05 4.683625195835e-04 0.0 
0.0 0.0 -7.124103466145e-05 
-6.818690854032e-05 3.229042439658e-06 0.0 
3.229042439658e-06 3.926939187943e-04 0.0 
0.0 0.0 -6.657494268075e-05 
-1.280956191016e-04 -3.699964442022e-05 0.0 
-3.699964442022e-05 8.260012594816e-04 0.0 
0.0 0.0 -1.250515658111e-04 
-1.265295814047e-04 3.342378051017e-05 0.0 
3.342378051017e-05 8.211688879782e-04 0.0 
0.0 0.0 -1.253711530225e-04 
-1.484422711167e-04 -2.770915871896e-05 0.0 
-2.770915871896e-05 9.841615042540e-04 0.0 
0.0 0.0 -1.480066387926e-04 
-1.583372546511e-04 2.913712885410e-05 0.0 
2.913712885410e-05 1.064432221446e-03 0.0 
0.0 0.0 -1.587865244471e-04 
-1.631334298294e-04 -3.149814825206e-05 0.0 
-3.149814825206e-05 1.098864964118e-03 0.0 
0.0 0.0 -1.628912057403e-04 
-1.190806096983e-04 -4.403551421918e-05 0.0 
-4.403551421918e-05 7.749316267703e-04 0.0 
0.0 0.0 -1.197484453225e-04 
-1.483799586843e-05 5.558978623438e-06 0.0 
5.558978623438e-06 4.973861707578e-05 0.0 
0.0 0.0 -1.495740908886e-05 
-1.182760976271e-04 3.125415357905e-06 0.0 
3.125415357905e-06 7.592172627745e-04 0.0 
0.0 0.0 -1.189347521933e-04 
-1.620624140011e-04 -1.653046323385e-05 0.0 
-1.653046323385e-05 1.054965702531e-03 0.0 
0.0 0.0 -1.604158976160e-04 
-1.568829102868e-04 1.686722308074e-05 0.0 
1.686722308074e-05 1.064364903998e-03 0.0 
0.0 0.0 -1.569671113975e-04 
-1.992656462665e-04 -3.194664877417e-06 0.0 
-3.194664877417e-06 1.366255928620e-03 0.0 
0.0 0.0 -1.979956382108e-04 
-1.950636109885e-04 -2.233519301319e-05 0.0 
-2.233519301319e-05 1.308516150632e-03 0.0 
0.0 0.0 -1.941292444173e-04 
-1.156817175628e-04 -1.648055008373e-05 0.0 
-1.648055008373e-05 7.482785284577e-04 0.0 
0.0 0.0 -1.183461849553e-04 
-1.927191275468e-04 -2.508365562690e-07 0.0 
-2.508365562690e-07 1.307929168688e-03 0.0 
0.0 0.0 -1.894775870554e-04 
-1.342251932282e-04 -2.319392894316e-05 0.0 
-2.319392894316e-05 8.854475909505e-04 0.0 
0.0 0.0 -1.356001284572e-04 
-7.729101182484e-05 -2.065735051107e-05 0.0 
-2.065735051107e-05 5.080668279858e-04 0.0 
0.0 0.0 -7.798198501994e-05 
-1.130620333788e-04 -2.717181399575e-05 0.0 
-2.717181399575e-05 7.549273825549e-04 0.0 
0.0 0.0 -1.146493908758e-04 
-1.950077973870e-04 2.900722902877e-05 0.0 
2.900722902877e-05 1.296464444951e-03 0.0 
0.0 0.0 -1.931276724533e-04 
-1.563208394466e-04 -3.328202351934e-05 0.0 
-3.328202351934e-05 1.049294579874e-03 0.0 
0.0 0.0 -1.565627933380e-04 
-1.819468009343e-04 -3.224668000663e-05 0.0 
-3.224668000663e-05 1.222740499621e-03 0.0 
0.0 0.0 -1.814398861444e-04 
-7.158014488702e-05 -3.063000169944e-05 0.0 
-3.063000169944e-05 4.571234338187e-04 0.0 
0.0 0.0 -7.121314524778e-05 
-2.401359942616e-05 8.661927370116e-06 0.0 
8.661927370116e-06 1.537990966386e-04 0.0 
0.0 0.0 -2.437345913330e-05 
-1.778980369956e-04 -2.992010737325e-05 0.0 
-2.992010737325e-05 1.196087071121e-03 0.0 
0.0 0.0 -1.784854310292e-04 
-1.679646052206e-04 1.093794452522e-05 0.0 
1.093794452522e-05 1.134281409959e-03 0.0 
0.0 0.0 -1.663185871606e-04 
-1.591223534516e-05 -6.661850777305e-06 0.0 
-6.661850777305e-06 9.101730959340e-05 0.0 
0.0 0.0 -1.557197371984e-05 
-1.881889712418e-04 -1.290050336167e-05 0.0 
-1.290050336167e-05 1.273792918307e-03 0.0 
0.0 0.0 -1.927691970005e-04 
-1.581915922847e-04 2.746019073347e-05 0.0 
2.746019073347e-05 1.044290574645e-03 0.0 
0.0 0.0 -1.577237574333e-04 
-1.522398741045e-05 -2.545037373997e-05 0.0 
-2.545037373997e-05 5.739303510054e-05 0.0 
0.0 0.0 -1.520280724627e-05 
-9.452563605332e-05 3.135471664961e-05 0.0 
3.135471664961e-05 6.036525676249e-04 0.0 
0.0 0.0 -9.464897897786e-05 
-1.065966120753e-04 -2.205603569538e-05 0.0 
-2.205603569538e-05 7.064327249630e-04 0.0 
0.0 0.0 -1.073087759210e-04 
-8.739882265024e-05 -1.070352948316e-05 0.0 
-1.070352948316e-05 5.348438843142e-04 0.0 
0.0 0.0 -8.658563305536e-05 
-7.050193455009e-05 2.512487401893e-05 0.0 
2.512487401893e-05 4.479548223167e-04 0.0 
0.0 0.0 -7.278598402964e-05 
-8.197347761458e-05 -3.364821245799e-05 0.0 
-3.364821245799e-05 5.279356728588e-04 0.0 
0.0 0.0 -8.207734578087e-05 
-1.943526740554e-04 1.658812663972e-05 0.0 
1.658812663972e-05 1.282091895606e-03 0.0 
0.0 0.0 -1.925749600208e-04 
-1.285507174143e-04 2.792411837159e-05 0.0 
2.792411837159e-05 8.722892326704e-04 0.0 
0.0 0.0 -1.315046391038e-04 
-7.635084208109e-05 3.539223257155e-05 0.0 
3.539223257155e-05 4.849768366675e-04 0.0 
0.0 0.0 -7.683710038160e-05 
-3.602345366775e-05 -3.490773875451e-05 0.0 
-3.490773875451e-05 2.028232612913e-04 0.0 
0.0 0.0 -3.442901837107e-05 
-1.143531422852e-04 1.924554056095e-05 0.0 
1.924554056095e-05 7.838716458168e-04 0.0 
0.0 0.0 -1.161738141813e-04 
-1.655806278350e-04 -1.376876940895e-05 0.0 
-1.376876940895e-05 1.108151184003e-03 0.0 
0.0 0.0 -1.693933130199e-04 
-7.665289294717e-05 -3.764080062832e-05 0.0 
-3.764080062832e-05 4.894086693533e-04 0.0 
0.0 0.0 -7.664586338968e-05 
-2.552121638192e-05 -2.302083249112e-05 0.0 
-2.302083249112e-05 1.475281213149e-04 0.0 
0.0 0.0 -2.705574766418e-05 
-9.705129782474e-05 -2.284636133005e-05 0.0 
-2.284636133005e-05 6.381494146743e-04 0.0 
0.0 0.0 -9.705601970096e-05 
-8.718862749644e-05 1.081562517566e-05 0.0 
1.081562517566e-05 5.609465076163e-04 0.0 
0.0 0.0 -8.368277571755e-05 
-9.188005610208e-05 2.337172912127e-05 0.0 
2.337172912127e-05 5.885957333175e-04 0.0 
0.0 0.0 -9.250784895245e-05 
-1.937480155634e-04 2.484993040014e-05 0.0 
2.484993040014e-05 1.298240083639e-03 0.0 
0.0 0.0 -1.936007957173e-04 
-3.355945300028e-05 2.658456895858e-05 0.0 
2.658456895858e-05 1.727565400742e-04 0.0 
0.0 0.0 -3.138407094312e-05 
-1.371246585787e-04 2.526301025991e-05 0.0 
2.526301025991e-05 9.050145966039e-04 0.0 
0.0 0.0 -1.382526569903e-04 
-1.907913629677e-04 3.443386103192e-05 0.0 
3.443386103192e-05 1.270684136511e-03 0.0 
0.0 0.0 -1.885035411211e-04 
-9.913884905617e-05 2.644976598076e-05 0.0 
2.644976598076e-05 6.359580153606e-04 0.0 
0.0 0.0 -9.883099357817e-05 
-9.221379330775e-05 -2.325684599943e-05 0.0 
-2.325684599943e-05 6.043674081660e-04 0.0 
0.0 0.0 -9.208844699642e-05 
-1.862615746056e-04 3.781096829900e-05 0.0 
3.781096829900e-05 1.269973218665e-03 0.0 
0.0 0.0 -1.882446207449e-04 
-1.884096905909e-04 -3.934674872020e-05 0.0 
-3.934674872020e-05 1.273205454370e-03 0.0 
0.0 0.0 -1.891606461478e-04 
-1.485481393432e-04 2.662002390059e-05 0.0 
2.662002390059e-05 9.835102888330e-04 0.0 
0.0 0.0 -1.481056985806e-04 
-1.041353074706e-04 -2.625300288913e-05 0.0 
-2.625300288913e-05 6.829723859406e-04 0.0 
0.0 0.0 -1.037420806291e-04 
-1.908037455824e-04 1.095423421666e-05 0.0 
1.095423421666e-05 1.307953283663e-03 0.0 
0.0 0.0 -1.905495916442e-04 
-9.518883604242e-05 2.687623025881e-05 0.0 
2.687623025881e-05 6.089232024020e-04 0.0 
0.0 0.0 -9.489072104906e-05 
-1.881130056819e-04 -1.198635265848e-06 0.0 
-1.198635265848e-06 1.269458159220e-03 0.0 
0.0 0.0 -1.924761743472e-04 
-1.914420449492e-04 1.145005922615e-05 0.0 
1.145005922615e-05 1.305589104302e-03 0.0 
0.0 0.0 -1.901156060054e-04 
-1.284773038693e-04 -4.042952323759e-05 0.0 
-4.042952323759e-05 8.353342118354e-04 0.0 
0.0 0.0 -1.281556075638e-04 
-1.456984047061e-04 2.919513868125e-05 0.0 
2.919513868125e-05 9.798728505287e-04 0.0 
0.0 0.0 -1.472674707441e-04 
-9.472925069399e-05 -2.740497223510e-05 0.0 
-2.740497223510e-05 6.169641832868e-04 0.0 
0.0 0.0 -9.439783777044e-05 
-8.853676466141e-05 2.434547469191e-05 0.0 
2.434547469191e-05 5.534202716498e-04 0.0 
0.0 0.0 -8.745362067080e-05 
-1.087467394465e-04 2.713932785840e-05 0.0 
2.713932785840e-05 7.009636801692e-04 0.0 
0.0 0.0 -1.081789848988e-04 
-8.105832168209e-05 -2.534314576398e-05 0.0 
-2.534314576398e-05 5.269671489274e-04 0.0 
0.0 0.0 -8.074562716359e-05 
-1.149166540237e-04 -2.952745104752e-05 0.0 
-2.952745104752e-05 7.749980976508e-04 0.0 
0.0 0.0 -1.154098978710e-04 
-9.441274236993e-05 -3.245636207382e-05 0.0 
-3.245636207382e-05 6.148929569629e-04 0.0 
0.0 0.0 -9.412559131899e-05 
-1.356916071786e-05 -1.098912209053e-05 0.0 
-1.098912209053e-05 4.639558825144e-05 0.0 
0.0 0.0 -1.406846894296e-05 
-1.232833288672e-04 -2.043397575373e-06 0.0 
-2.043397575373e-06 8.352777480186e-04 0.0 
0.0 0.0 -1.225661908866e-04 
-4.062993237950e-05 4.703139556520e-07 0.0 
4.703139556520e-07 1.797601039323e-04 0.0 
0.0 0.0 -3.559753881786e-05 
-1.023820434635e-04 -2.308417346528e-05 0.0 
-2.308417346528e-05 6.740366547045e-04 0.0 
0.0 0.0 -1.021452596768e-04 
-1.900125356384e-04 6.300222620786e-07 0.0 
6.300222620786e-07 1.270960970669e-03 0.0 
0.0 0.0 -1.927194217641e-04 
-7.262888074723e-05 3.426557852476e-05 0.0 
3.426557852476e-05 4.504323440592e-04 0.0 
0.0 0.0 -7.151989320621e-05 
-1.531305076902e-04 3.065990782185e-05 0.0 
3.065990782185e-05 1.022734797488e-03 0.0 
0.0 0.0 -1.531634582904e-04 
-5.235610672335e-05 -3.331315410991e-05 0.0 
-3.331315410991e-05 3.222309724492e-04 0.0 
0.0 0.0 -5.311113487535e-05 
-1.564923507781e-04 3.552239921985e-05 0.0 
3.552239921985e-05 1.043761629599e-03 0.0 
0.0 0.0 -1.567358392781e-04 
-1.202044561882e-04 9.584736121846e-07 0.0 
9.584736121846e-07 7.504029993438e-04 0.0 
0.0 0.0 -1.184948324117e-04 
-8.921525541755e-05 3.121884924231e-05 0.0 
3.121884924231e-05 5.680733164514e-04 0.0 
0.0 0.0 -8.897195087526e-05 
-1.682691344288e-04 -3.239527776225e-05 0.0 
-3.239527776225e-05 1.126335943431e-03 0.0 
0.0 0.0 -1.681445358649e-04 
-3.271371250102e-05 2.634768306306e-05 0.0 
2.634768306306e-05 1.862670599746e-04 0.0 
0.0 0.0 -3.519564525945e-05 
-1.767977369675e-04 3.301165039377e-05 0.0 
3.301165039377e-05 1.194421621902e-03 0.0 
0.0 0.0 -1.783666864750e-04 
-1.165583599501e-04 2.698564820255e-05 0.0 
2.698564820255e-05 7.555372528015e-04 0.0 
0.0 0.0 -1.156683593961e-04 
-1.920096128522e-04 1.937461849935e-06 0.0 
1.937461849935e-06 1.307268561636e-03 0.0 
0.0 0.0 -1.898980813789e-04 
-1.182997139398e-04 3.639957619216e-06 0.0 
3.639957619216e-06 7.503854203479e-04 0.0 
0.0 0.0 -1.176390761550e-04 
-7.627591541802e-05 2.437079023937e-05 0.0 
2.437079023937e-05 4.698282448248e-04 0.0 
0.0 0.0 -7.564233511891e-05 
-1.002018332227e-04 2.315121058164e-05 0.0 
2.315121058164e-05 6.584644118649e-04 0.0 
0.0 0.0 -1.026119933064e-04 
-1.351190133783e-04 -1.871259961356e-05 0.0 
-1.871259961356e-05 8.920173210254e-04 0.0 
0.0 0.0 -1.308423732783e-04 
-5.484982403945e-05 3.705256781827e-05 0.0 
3.705256781827e-05 3.376111435306e-04 0.0 
0.0 0.0 -5.271897186252e-05 
-8.886891279122e-05 -3.169931078017e-05 0.0 
-3.169931078017e-05 5.765392386080e-04 0.0 
0.0 0.0 -8.867183110647e-05 
-1.531566637255e-04 -3.479285376154e-05 0.0 
-3.479285376154e-05 1.020094408152e-03 0.0 
0.0 0.0 -1.524697723262e-04 
-1.174942329115e-04 2.313759384433e-05 0.0 
2.313759384433e-05 7.831828593042e-04 0.0 
0.0 0.0 -1.152003355451e-04 
-8.515004989233e-05 2.567844413580e-05 0.0 
2.567844413580e-05 5.346133759294e-04 0.0 
0.0 0.0 -8.499340168425e-05 
-9.805234325585e-05 2.186136341024e-05 0.0 
2.186136341024e-05 6.234712022513e-04 0.0 
0.0 0.0 -9.747820142233e-05 
-1.698406473465e-04 3.103883884451e-05 0.0 
3.103883884451e-05 1.138199375279e-03 0.0 
0.0 0.0 -1.705088282513e-04 
-9.365555901584e-05 -8.486079120948e-06 0.0 
-8.486079120948e-06 6.269873305719e-04 0.0 
0.0 0.0 -9.283786084866e-05 
-1.904373484596e-04 8.037764301143e-06 0.0 
8.037764301143e-06 1.268105410096e-03 0.0 
0.0 0.0 -1.927803298305e-04 
-1.910376123415e-04 -5.171508508335e-06 0.0 
-5.171508508335e-06 1.305994090806e-03 0.0 
0.0 0.0 -1.898229354431e-04 
-6.861783798480e-05 -2.050379203895e-05 0.0 
-2.050379203895e-05 4.453059741638e-04 0.0 
0.0 0.0 -6.893569546425e-05 
-9.290116882094e-05 1.078568075346e-05 0.0 
1.078568075346e-05 5.964552685483e-04 0.0 
0.0 0.0 -9.578111177017e-05 
-1.736492418864e-04 -2.927710979079e-05 0.0 
-2.927710979079e-05 1.161594644870e-03 0.0 
0.0 0.0 -1.729233712160e-04 
-9.087963058823e-05 -2.352933739376e-05 0.0 
-2.352933739376e-05 5.915224073559e-04 0.0 
0.0 0.0 -9.055885391067e-05 
-6.615167518160e-05 2.470417535513e-05 0.0 
2.470417535513e-05 3.792937580834e-04 0.0 
0.0 0.0 -6.377619522508e-05 
-1.123815242548e-04 2.659716101140e-05 0.0 
2.659716101140e-05 7.274681183303e-04 0.0 
0.0 0.0 -1.116514617188e-04 
-9.023769363097e-05 -2.539356064248e-05 0.0 
-2.539356064248e-05 5.927749569100e-04 0.0 
0.0 0.0 -9.016780033359e-05 
-1.933145694824e-04 1.847750118737e-05 0.0 
1.847750118737e-05 1.271781840963e-03 0.0 
0.0 0.0 -1.918589861752e-04 
-1.590817006198e-04 2.907513750142e-05 0.0 
2.907513750142e-05 1.054056791896e-03 0.0 
0.0 0.0 -1.591037845145e-04 
-1.728367159342e-04 3.427642614804e-05 0.0 
3.427642614804e-05 1.161809866144e-03 0.0 
0.0 0.0 -1.733952315365e-04 
-4.323292157822e-05 -3.260265136202e-05 0.0 
-3.260265136202e-05 2.542139140644e-04 0.0 
0.0 0.0 -4.278232070249e-05 
-8.351564551766e-05 -2.949984641989e-05 0.0 
-2.949984641989e-05 5.399072445252e-04 0.0 
0.0 0.0 -8.337503372822e-05 
-1.628911585660e-04 2.910920340207e-05 0.0 
2.910920340207e-05 1.083707985150e-03 0.0 
0.0 0.0 -1.634180649126e-04 
-4.265741739718e-06 -2.683347671446e-06 0.0 
-2.683347671446e-06 2.779779537552e-05 0.0 
0.0 0.0 -6.679583525061e-06 
-9.202938689146e-05 2.333037747325e-05 0.0 
2.333037747325e-05 5.833864669440e-04 0.0 
0.0 0.0 -9.110806911972e-05 
-1.621301817421e-04 -3.474681827654e-05 0.0 
-3.474681827654e-05 1.087399984763e-03 0.0 
0.0 0.0 -1.621013318865e-04 
-2.647246740284e-05 -1.232636837565e-05 0.0 
-1.232636837565e-05 1.529325955368e-04 0.0 
0.0 0.0 -2.408412600064e-05 
-1.857893834714e-04 3.531775714936e-05 0.0 
3.531775714936e-05 1.270668189248e-03 0.0 
0.0 0.0 -1.886276279175e-04 
-1.456981155765e-04 2.919485646583e-05 0.0 
2.919485646583e-05 9.663206150300e-04 0.0 
0.0 0.0 -1.462443664659e-04 
-8.972960447932e-05 2.818607173368e-05 0.0 
2.818607173368e-05 5.719993527864e-04 0.0 
0.0 0.0 -8.992835211634e-05 
-1.626522217749e-04 3.588322308841e-05 0.0 
3.588322308841e-05 1.081933053943e-03 0.0 
0.0 0.0 -1.623203359564e-04 
-1.232850647809e-04 -1.534283618420e-06 0.0 
-1.534283618420e-06 8.439287432935e-04 0.0 
0.0 0.0 -1.238984763055e-04 
-1.290139728958e-04 -2.422323726664e-05 0.0 
-2.422323726664e-05 8.899156396031e-04 0.0 
0.0 0.0 -1.325791391267e-04 
-1.852665524105e-04 -2.134628668879e-05 0.0 
-2.134628668879e-05 1.242411010167e-03 0.0 
0.0 0.0 -1.856686537505e-04 
-6.834313658287e-05 3.054631191321e-05 0.0 
3.054631191321e-05 4.235028941011e-04 0.0 
0.0 0.0 -6.875374652758e-05 
-1.126229297884e-04 2.780829538386e-05 0.0 
2.780829538386e-05 7.291444854309e-04 0.0 
0.0 0.0 -1.122060228641e-04 
-1.204186006984e-04 2.647313116222e-05 0.0 
2.647313116222e-05 7.832880835705e-04 0.0 
0.0 0.0 -1.198259951250e-04 
-1.511295492835e-04 -2.883504033183e-05 0.0 
-2.883504033183e-05 1.013855965193e-03 0.0 
0.0 0.0 -1.512823234748e-04 
-1.216859479991e-04 -2.731241821125e-05 0.0 
-2.731241821125e-05 8.002184542220e-04 0.0 
0.0 0.0 -1.205399881000e-04 
-1.113723575775e-04 -2.417926787298e-05 0.0 
-2.417926787298e-05 7.331871425551e-04 0.0 
0.0 0.0 -1.112326624099e-04 
-1.413007434337e-04 -2.970279854823e-05 0.0 
-2.970279854823e-05 9.413829080689e-04 0.0 
0.0 0.0 -1.412146911137e-04 
-1.660148486685e-04 -3.109368411777e-05 0.0 
-3.109368411777e-05 1.112677337996e-03 0.0 
0.0 0.0 -1.657666289772e-04 
-1.315732548335e-05 -7.692520452242e-07 0.0 
-7.692520452242e-07 8.434115995763e-05 0.0 
0.0 0.0 -1.523807105164e-05 
-6.678617265699e-05 1.617781589415e-05 0.0 
1.617781589415e-05 4.361919367653e-04 0.0 
0.0 0.0 -6.974636312929e-05 
-7.951724172922e-05 2.782935041198e-05 0.0 
2.782935041198e-05 4.935008951510e-04 0.0 
0.0 0.0 -7.874092309440e-05 
-1.082260438161e-04 -2.691428867534e-05 0.0 
-2.691428867534e-05 7.109857938248e-04 0.0 
0.0 0.0 -1.077256579858e-04 
-1.642964652876e-04 -3.148986033885e-05 0.0 
-3.148986033885e-05 1.105967087523e-03 0.0 
0.0 0.0 -1.642614415327e-04 
-3.618362754970e-05 2.736407007723e-05 0.0 
2.736407007723e-05 2.086903937200e-04 0.0 
0.0 0.0 -3.864713111506e-05 
-1.564000420693e-04 -3.317492622528e-05 0.0 
-3.317492622528e-05 1.048657376479e-03 0.0 
0.0 0.0 -1.565033163265e-04 
-1.156497145505e-04 -3.516789011310e-05 0.0 
-3.516789011310e-05 7.502047125979e-04 0.0 
0.0 0.0 -1.164502435431e-04 
-8.397727272477e-05 2.946324581154e-05 0.0 
2.946324581154e-05 5.318825966419e-04 0.0 
0.0 0.0 -8.365175887955e-05 
-1.508856871714e-04 -3.154693635550e-05 0.0 
-3.154693635550e-05 1.010987541511e-03 0.0 
0.0 0.0 -1.509358467712e-04 
-1.992206068345e-05 -2.889614730951e-05 0.0 
-2.889614730951e-05 8.287217049265e-05 0.0 
0.0 0.0 -1.875953185269e-05 
-1.556622730397e-04 3.038739624462e-05 0.0 
3.038739624462e-05 1.034138176467e-03 0.0 
0.0 0.0 -1.560016362795e-04 
-1.437982534633e-05 1.029442077582e-05 0.0 
1.029442077582e-05 7.970629733058e-05 0.0 
0.0 0.0 -1.510781838351e-05 
-2.570586355009e-05 -7.991098502523e-07 0.0 
-7.991098502523e-07 1.127575880689e-04 0.0 
0.0 0.0 -2.729127776400e-05 
-4.194184282385e-05 3.474848126707e-05 0.0 
3.474848126707e-05 2.513992056333e-04 0.0 
0.0 0.0 -4.310499224862e-05 
-5.889908142508e-05 2.600142430583e-05 0.0 
2.600142430583e-05 3.528829077978e-04 0.0 
0.0 0.0 -5.903933595174e-05 
-1.610257286591e-04 -2.786541686928e-05 0.0 
-2.786541686928e-05 1.081190214243e-03 0.0 
0.0 0.0 -1.610696234640e-04 
-5.476704679840e-05 -2.893258819142e-05 0.0 
-2.893258819142e-05 3.440414388131e-04 0.0 
0.0 0.0 -5.456393079061e-05 
-5.163315478531e-05 2.647496963403e-05 0.0 
2.647496963403e-05 3.049271572106e-04 0.0 
0.0 0.0 -5.149248157812e-05 
-4.366093994894e-05 -2.713962390303e-05 0.0 
-2.713962390303e-05 2.644614859736e-04 0.0 
0.0 0.0 -4.384065419509e-05 
-3.933534437072e-05 2.838910031743e-05 0.0 
2.838910031743e-05 2.172478170370e-04 0.0 
0.0 0.0 -3.921473890832e-05 
-1.680595828810e-04 2.995288676004e-05 0.0 
2.995288676004e-05 1.117099767863e-03 0.0 
0.0 0.0 -1.676286260939e-04 
-1.157691997288e-04 -2.821559363196e-05 0.0 
-2.821559363196e-05 7.614917365493e-04 0.0 
0.0 0.0 -1.153195849472e-04 
-1.884304056946e-04 3.717790371758e-05 0.0 
3.717790371758e-05 1.273139237753e-03 0.0 
0.0 0.0 -1.885115422441e-04 
0.0 0.0 0.0 
0.0 0.0 0.0 
0.0 0.0 0.0 
-6.073075435371e-05 2.779578447063e-05 0.0 
2.779578447063e-05 3.692130858621e-04 0.0 
0.0 0.0 -6.066067809259e-05 
-9.359168136837e-05 3.069541767913e-05 0.0 
3.069541767913e-05 5.989493619825e-04 0.0 
0.0 0.0 -9.346360670616e-05 
-8.611303417377e-05 2.775473971904e-05 0.0 
2.775473971904e-05 5.420210967722e-04 0.0 
0.0 0.0 -8.564096664159e-05 
-1.570602199792e-04 3.345705989991e-05 0.0 
3.345705989991e-05 1.042425010846e-03 0.0 
0.0 0.0 -1.567852636697e-04 
-1.928100163882e-04 2.936217438128e-05 0.0 
2.936217438128e-05 1.304792838197e-03 0.0 
0.0 0.0 -1.913896484052e-04 
-1.544569729700e-04 -3.084214855682e-05 0.0 
-3.084214855682e-05 1.037077783695e-03 0.0 
0.0 0.0 -1.544248659763e-04 
-6.869349223690e-05 -2.826326061375e-05 0.0 
-2.826326061375e-05 4.368318291179e-04 0.0 
0.0 0.0 -6.847262230322e-05 
-1.681247358756e-04 -2.868522419727e-05 0.0 
-2.868522419727e-05 1.120151786447e-03 0.0 
0.0 0.0 -1.674250338637e-04 
-1.435900585209e-04 3.856895931237e-05 0.0 
3.856895931237e-05 9.474561629382e-04 0.0 
0.0 0.0 -1.426866023873e-04 
-1.135532837026e-04 -2.681444128085e-05 0.0 
-2.681444128085e-05 7.480946909015e-04 0.0 
0.0 0.0 -1.130562566545e-04 
-1.499249798733e-04 3.067572505939e-05 0.0 
3.067572505939e-05 9.944265321611e-04 0.0 
0.0 0.0 -1.504800801517e-04 
-1.863757598195e-04 -2.386849214221e-05 0.0 
-2.386849214221e-05 1.244147855382e-03 0.0 
0.0 0.0 -1.859596318053e-04 
-9.333492539951e-05 -3.087526947971e-05 0.0 
-3.087526947971e-05 6.086612624671e-04 0.0 
0.0 0.0 -9.309312152870e-05 
-5.642363476155e-05 -2.566826805163e-05 0.0 
-2.566826805163e-05 3.519070743608e-04 0.0 
0.0 0.0 -5.629031366394e-05 
-1.307741012141e-04 -2.854605187792e-05 0.0 
-2.854605187792e-05 8.651184174892e-04 0.0 
0.0 0.0 -1.299393276493e-04 
-1.994711361555e-04 1.488956192184e-05 0.0 
1.488956192184e-05 1.364194760264e-03 0.0 
0.0 0.0 -1.985353088532e-04 
-1.121064498204e-04 -2.817436375982e-05 0.0 
-2.817436375982e-05 7.383690860162e-04 0.0 
0.0 0.0 -1.117990549081e-04 
-1.167106519063e-04 -2.872381374577e-05 0.0 
-2.872381374577e-05 7.713662195201e-04 0.0 
0.0 0.0 -1.165266455158e-04 
-1.260578035270e-04 -7.836042946560e-06 0.0 
-7.836042946560e-06 8.498512038137e-04 0.0 
0.0 0.0 -1.244042047770e-04 
-3.179935585513e-05 -1.763042363236e-05 0.0 
-1.763042363236e-05 1.961286519246e-04 0.0 
0.0 0.0 -3.241712222852e-05 
-1.231319864475e-04 2.764700743790e-05 0.0 
2.764700743790e-05 7.907293750341e-04 0.0 
0.0 0.0 -1.209084558732e-04 
-6.905505917890e-05 2.816961621887e-05 0.0 
2.816961621887e-05 4.271679056782e-04 0.0 
0.0 0.0 -6.885887611378e-05 
-4.897721551762e-05 2.632054484457e-05 0.0 
2.632054484457e-05 2.838529677145e-04 0.0 
0.0 0.0 -4.844095568774e-05 
-3.558784672985e-05 -2.880146762892e-05 0.0 
-2.880146762892e-05 1.946353418351e-04 0.0 
0.0 0.0 -3.639896506568e-05 
-1.614850212427e-04 2.922041349465e-05 0.0 
2.922041349465e-05 1.072918812013e-03 0.0 
0.0 0.0 -1.613978969627e-04 
-1.255033903270e-04 -2.731668296794e-05 0.0 
-2.731668296794e-05 8.288788500150e-04 0.0 
0.0 0.0 -1.246873609535e-04 
-8.112707161296e-05 2.681454897224e-05 0.0 
2.681454897224e-05 5.130150958306e-04 0.0 
0.0 0.0 -8.144240747594e-05 
-1.665837591113e-04 -2.880422836215e-05 0.0 
-2.880422836215e-05 1.119259672453e-03 0.0 
0.0 0.0 -1.664644697516e-04 
-1.582047777180e-04 -3.130538043856e-05 0.0 
-3.130538043856e-05 1.066325272985e-03 0.0 
0.0 0.0 -1.586660261033e-04 
-1.188629648026e-04 -2.678969091403e-05 0.0 
-2.678969091403e-05 7.847225641269e-04 0.0 
0.0 0.0 -1.183057550348e-04 
-1.886854844882e-04 1.135105285806e-05 0.0 
1.135105285806e-05 1.274732412044e-03 0.0 
0.0 0.0 -1.932618152055e-04 
-1.213677155165e-04 2.897964547722e-05 0.0 
2.897964547722e-05 7.927140784185e-04 0.0 
0.0 0.0 -1.211843839911e-04 
-1.239491645660e-04 -2.748126235811e-05 0.0 
-2.748126235811e-05 8.207516205795e-04 0.0 
0.0 0.0 -1.235739794681e-04 
-9.975160353529e-05 -2.686515225488e-05 0.0 
-2.686515225488e-05 6.567392202688e-04 0.0 
0.0 0.0 -9.984714661518e-05 
-1.263578697939e-04 -2.980227527077e-05 0.0 
-2.980227527077e-05 8.380978382458e-04 0.0 
0.0 0.0 -1.261954767068e-04 
-5.849212426998e-05 2.872957228896e-05 0.0 
2.872957228896e-05 3.506208493125e-04 0.0 
0.0 0.0 -5.798711518065e-05 
-1.213481477356e-04 6.735435036876e-06 0.0 
6.735435036876e-06 7.521902963625e-04 0.0 
0.0 0.0 -1.184708735178e-04 
-9.753040931020e-05 -2.877750014671e-05 0.0 
-2.877750014671e-05 6.382612359797e-04 0.0 
0.0 0.0 -9.729539411790e-05 
-7.014498760133e-05 -2.861953507146e-05 0.0 
-2.861953507146e-05 4.491200428710e-04 0.0 
0.0 0.0 -7.021579980210e-05 
-1.548439846447e-04 2.920495201174e-05 0.0 
2.920495201174e-05 1.025468902843e-03 0.0 
0.0 0.0 -1.548477372900e-04 
-7.400239448952e-06 -4.471996282504e-06 0.0 
-4.471996282504e-06 3.348355740734e-05 0.0 
0.0 0.0 -6.737411723468e-06 
-1.269059540153e-04 -2.992426859267e-05 0.0 
-2.992426859267e-05 8.357764802867e-04 0.0 
0.0 0.0 -1.257958619361e-04 
-7.326865481566e-05 2.857374826703e-05 0.0 
2.857374826703e-05 4.565907868803e-04 0.0 
0.0 0.0 -7.305360031667e-05 
-6.016605764575e-05 -2.684908062252e-05 0.0 
-2.684908062252e-05 3.790547108985e-04 0.0 
0.0 0.0 -6.022881660267e-05 
-5.821846839884e-05 -2.774592413861e-05 0.0 
-2.774592413861e-05 3.619705275702e-04 0.0 
0.0 0.0 -5.751879909679e-05 
-1.351640918224e-04 2.730946876611e-05 0.0 
2.730946876611e-05 8.850173502736e-04 0.0 
0.0 0.0 -1.344766581215e-04 
-2.303458757806e-05 -1.756706348761e-05 0.0 
-1.756706348761e-05 1.393624808345e-04 0.0 
0.0 0.0 -2.414890389727e-05 
-8.463000670150e-05 2.743515429835e-05 0.0 
2.743515429835e-05 5.331920973471e-04 0.0 
0.0 0.0 -8.420255649138e-05 
-1.310820143303e-04 2.863495648326e-05 0.0 
2.863495648326e-05 8.604743158959e-04 0.0 
0.0 0.0 -1.309020407989e-04 
-1.263625231525e-04 2.714069752448e-05 0.0 
2.714069752448e-05 8.190547291893e-04 0.0 
0.0 0.0 -1.250525794797e-04 
-1.272471088817e-04 -3.855000510512e-06 0.0 
-3.855000510512e-06 8.469629814487e-04 0.0 
0.0 0.0 -1.245153595172e-04 
-3.451533027297e-05 2.844805665229e-05 0.0 
2.844805665229e-05 1.808943530399e-04 0.0 
0.0 0.0 -3.280631478328e-05 
-7.063190463533e-05 2.939202413112e-05 0.0 
2.939202413112e-05 4.392145115516e-04 0.0 
0.0 0.0 -7.060413318996e-05 
-6.508843028441e-05 -3.043099012630e-05 0.0 
-3.043099012630e-05 4.105469834446e-04 0.0 
0.0 0.0 -6.467058191239e-05 
-7.469256331376e-05 -2.527987226695e-05 0.0 
-2.527987226695e-05 4.809368026629e-04 0.0 
0.0 0.0 -7.435558976913e-05 
-1.502309888333e-04 -3.186153307622e-05 0.0 
-3.186153307622e-05 1.005619770116e-03 0.0 
0.0 0.0 -1.500995507885e-04 
-8.411103689448e-05 -2.561923504937e-05 0.0 
-2.561923504937e-05 5.446630925718e-04 0.0 
0.0 0.0 -8.366679311450e-05 
-9.244608085661e-05 2.841629283501e-05 0.0 
2.841629283501e-05 5.900259211260e-04 0.0 
0.0 0.0 -9.227309926833e-05 
-8.825859911860e-05 2.898361773724e-05 0.0 
2.898361773724e-05 5.610179827723e-04 0.0 
0.0 0.0 -8.802462077767e-05 
-4.037281909572e-05 -3.055033143304e-05 0.0 
-3.055033143304e-05 2.285588841850e-04 0.0 
0.0 0.0 -3.795074749666e-05 
-1.043807176337e-04 2.969702721876e-05 0.0 
2.969702721876e-05 6.736275783202e-04 0.0 
0.0 0.0 -1.043907376787e-04 
-4.291565100880e-05 -2.841622711530e-05 0.0 
-2.841622711530e-05 2.495146198089e-04 0.0 
0.0 0.0 -4.182373257491e-05 
-1.960133420005e-04 -3.915898958087e-07 0.0 
-3.915898958087e-07 1.365024672998e-03 0.0 
0.0 0.0 -1.982169479593e-04 
-2.008761767446e-04 -4.440775900705e-06 0.0 
-4.440775900705e-06 1.363686351067e-03 0.0 
0.0 0.0 -1.977044065024e-04 
-1.166270540496e-04 2.805525215368e-05 0.0 
2.805525215368e-05 7.581594275037e-04 0.0 
0.0 0.0 -1.163296810217e-04 
-6.377729921261e-05 2.843186062466e-05 0.0 
2.843186062466e-05 3.894200307401e-04 0.0 
0.0 0.0 -6.349477618752e-05 
-5.472494021236e-05 -2.756038478394e-05 0.0 
-2.756038478394e-05 3.420299138774e-04 0.0 
0.0 0.0 -5.489564032307e-05 
-1.286062633098e-04 2.787342346443e-05 0.0 
2.787342346443e-05 8.404326398301e-04 0.0 
0.0 0.0 -1.280878756227e-04 
-5.924292318693e-05 -2.830092874267e-05 0.0 
-2.830092874267e-05 3.712937095837e-04 0.0 
0.0 0.0 -5.895795660960e-05 
-6.498740843255e-05 2.970448360848e-05 0.0 
2.970448360848e-05 3.998906408149e-04 0.0 
0.0 0.0 -6.509812613533e-05 
-1.139448242020e-04 2.662931945144e-05 0.0 
2.662931945144e-05 7.377302601230e-04 0.0 
0.0 0.0 -1.134571731864e-04 
-1.931977199045e-04 -5.790102799525e-06 0.0 
-5.790102799525e-06 1.309642249160e-03 0.0 
0.0 0.0 -1.899960389348e-04 
-7.860743769092e-05 2.917445532478e-05 0.0 
2.917445532478e-05 4.940483609679e-04 0.0 
0.0 0.0 -7.839370437043e-05 
-1.417199735287e-04 2.941394498762e-05 0.0 
2.941394498762e-05 9.349322217144e-04 0.0 
0.0 0.0 -1.414217305113e-04 
-4.661344112576e-05 2.736880969088e-05 0.0 
2.736880969088e-05 2.670838018736e-04 0.0 
0.0 0.0 -4.614936513201e-05 
-1.967992094278e-04 1.123981941095e-06 0.0 
1.123981941095e-06 1.365295639638e-03 0.0 
0.0 0.0 -1.984294758987e-04 
-5.951651457585e-05 2.802626650619e-05 0.0 
2.802626650619e-05 3.606106616578e-04 0.0 
0.0 0.0 -5.939605362352e-05 
-1.179287062834e-04 2.787660048455e-05 0.0 
2.787660048455e-05 7.663966719587e-04 0.0 
0.0 0.0 -1.175278261142e-04 
-4.409418717161e-05 3.104234347111e-05 0.0 
3.104234347111e-05 2.441849578649e-04 0.0 
0.0 0.0 -4.282931220362e-05 
-1.381450842626e-04 2.836088824292e-05 0.0 
2.836088824292e-05 9.092073412549e-04 0.0 
0.0 0.0 -1.381743871232e-04 
-9.791138306631e-05 2.879750584179e-05 0.0 
2.879750584179e-05 6.273190453691e-04 0.0 
0.0 0.0 -9.774928945211e-05 
-6.965606683394e-05 2.867246728631e-05 0.0 
2.867246728631e-05 4.309923865951e-04 0.0 
0.0 0.0 -6.938051102899e-05 
-1.200769966056e-04 -2.774059059615e-05 0.0 
-2.774059059615e-05 7.919085176899e-04 0.0 
0.0 0.0 -1.194585575575e-04 
-1.988427120039e-04 -2.959789654558e-06 0.0 
-2.959789654558e-06 1.363764641001e-03 0.0 
0.0 0.0 -1.987298001823e-04 
-8.291571741031e-05 2.832079044508e-05 0.0 
2.832079044508e-05 5.233038309385e-04 0.0 
0.0 0.0 -8.265507580179e-05 
-1.306758629051e-04 -2.955788166782e-05 0.0 
-2.955788166782e-05 8.695191991227e-04 0.0 
0.0 0.0 -1.305485175686e-04 
-4.578173906005e-05 -2.535078056645e-05 0.0 
-2.535078056645e-05 2.780519891852e-04 0.0 
0.0 0.0 -4.562300070248e-05 
-1.437792750518e-04 3.149363009429e-05 0.0 
3.149363009429e-05 9.490378851935e-04 0.0 
0.0 0.0 -1.436534165706e-04 
-1.511792253345e-04 3.107336096836e-05 0.0 
3.107336096836e-05 1.002609936336e-03 0.0 
0.0 0.0 -1.512517770320e-04 
-6.196699647241e-05 -2.679098173262e-05 0.0 
-2.679098173262e-05 3.903858421673e-04 0.0 
0.0 0.0 -6.164273853391e-05 
-1.399199792627e-04 -2.811467117751e-05 0.0 
-2.811467117751e-05 9.272505815491e-04 0.0 
0.0 0.0 -1.388569334018e-04 
-1.985355386787e-04 1.984726108435e-06 0.0 
1.984726108435e-06 1.364959960964e-03 0.0 
0.0 0.0 -1.983871205594e-04 
-1.614928444495e-04 2.847027297627e-05 0.0 
2.847027297627e-05 1.071649121551e-03 0.0 
0.0 0.0 -1.613792517474e-04 
-1.982422487002e-04 -2.569909507912e-06 0.0 
-2.569909507912e-06 1.365758727609e-03 0.0 
0.0 0.0 -1.983136761333e-04 
-1.361916076227e-04 -3.146771190181e-05 0.0 
-3.146771190181e-05 9.179571631392e-04 0.0 
0.0 0.0 -1.379474753881e-04 
-1.576486168105e-04 -2.829471551287e-05 0.0 
-2.829471551287e-05 1.056700414691e-03 0.0 
0.0 0.0 -1.572395483614e-04 
-5.266868770523e-05 -2.930837486761e-05 0.0 
-2.930837486761e-05 3.216672696281e-04 0.0 
0.0 0.0 -5.237865887416e-05 
-1.106230900853e-04 -2.705461405413e-05 0.0 
-2.705461405413e-05 7.266788580309e-04 0.0 
0.0 0.0 -1.101557085785e-04 
-1.243986606814e-04 2.756325965713e-05 0.0 
2.756325965713e-05 8.114376097232e-04 0.0 
0.0 0.0 -1.239588741081e-04 
-1.293044827764e-04 -2.800858501220e-05 0.0 
-2.800858501220e-05 8.573256290427e-04 0.0 
0.0 0.0 -1.288458533782e-04 
-1.066562308207e-04 -2.783120558929e-05 0.0 
-2.783120558929e-05 7.017640661734e-04 0.0 
0.0 0.0 -1.065261787303e-04 
-1.990029541207e-04 -1.757598364359e-06 0.0 
-1.757598364359e-06 1.366381337533e-03 0.0 
0.0 0.0 -1.983502480037e-04 
-1.298318789187e-04 2.158067938686e-05 0.0 
2.158067938686e-05 8.815706967553e-04 0.0 
0.0 0.0 -1.321612292015e-04 
-1.176326388033e-04 -2.595061727756e-05 0.0 
-2.595061727756e-05 7.723158987367e-04 0.0 
0.0 0.0 -1.164556264782e-04 
-8.783787209566e-05 -2.903458928538e-05 0.0 
-2.903458928538e-05 5.705379246605e-04 0.0 
0.0 0.0 -8.765849385151e-05 
-4.943082231834e-05 2.834348926926e-05 0.0 
2.834348926926e-05 2.859345548030e-04 0.0 
0.0 0.0 -4.921152720794e-05 
-1.062878110515e-04 -2.718085700709e-05 0.0 
-2.718085700709e-05 6.972114022315e-04 0.0 
0.0 0.0 -1.060368635384e-04 
-6.633274732441e-05 2.805962634071e-05 0.0 
2.805962634071e-05 4.063292376683e-04 0.0 
0.0 0.0 -6.607158303000e-05 
-1.158557996194e-04 -6.210093226299e-06 0.0 
-6.210093226299e-06 7.885063370646e-04 0.0 
0.0 0.0 -1.154421321462e-04 
-6.910380331659e-05 -2.778533839803e-05 0.0 
-2.778533839803e-05 4.414244386129e-04 0.0 
0.0 0.0 -6.893461416734e-05 
-7.822135333654e-05 -2.896553184294e-05 0.0 
-2.896553184294e-05 5.031498839476e-04 0.0 
0.0 0.0 -7.803987337015e-05 
-1.602384540181e-04 3.100072325668e-05 0.0 
3.100072325668e-05 1.064154990020e-03 0.0 
0.0 0.0 -1.603578675858e-04 
-6.566815985925e-05 -2.750449767600e-05 0.0 
-2.750449767600e-05 4.167092244980e-04 0.0 
0.0 0.0 -6.558851423748e-05 
-1.152845892592e-04 2.749147668780e-05 0.0 
2.749147668780e-05 7.465056274970e-04 0.0 
0.0 0.0 -1.146103474413e-04 
-1.353451354842e-04 2.819645546977e-05 0.0 
2.819645546977e-05 8.892812196543e-04 0.0 
0.0 0.0 -1.352137036071e-04 
-1.205044148237e-04 2.968350999990e-05 0.0 
2.968350999990e-05 7.873013113578e-04 0.0 
0.0 0.0 -1.205299346428e-04 
-1.958940259279e-04 -3.143838988158e-07 0.0 
-3.143838988158e-07 1.365374549896e-03 0.0 
0.0 0.0 -1.987143998872e-04 
-9.668730117964e-05 -2.517304160907e-05 0.0 
-2.517304160907e-05 6.291397970161e-04 0.0 
0.0 0.0 -9.585336115805e-05 
-6.653143432307e-05 2.946077866981e-05 0.0 
2.946077866981e-05 4.089865087981e-04 0.0 
0.0 0.0 -6.633958094145e-05 
-8.520951336944e-05 -2.684964973046e-05 0.0 
-2.684964973046e-05 5.564426473023e-04 0.0 
0.0 0.0 -8.536885536016e-05 
-6.423500688610e-05 -2.223670417576e-05 0.0 
-2.223670417576e-05 3.967373019254e-04 0.0 
0.0 0.0 -6.277058716750e-05 
-6.233409830209e-05 2.930783879135e-05 0.0 
2.930783879135e-05 3.806227503841e-04 0.0 
0.0 0.0 -6.211964112063e-05 
-1.686029388230e-04 -3.010997351014e-05 0.0 
-3.010997351014e-05 1.134847194407e-03 0.0 
0.0 0.0 -1.685829472084e-04 
-1.228035280568e-04 -2.801028863811e-05 0.0 
-2.801028863811e-05 8.126298515026e-04 0.0 
0.0 0.0 -1.224221955183e-04 
-8.576695021724e-05 -2.818444781109e-05 0.0 
-2.818444781109e-05 5.521166414815e-04 0.0 
0.0 0.0 -8.508581023982e-05 
-1.058888784043e-04 2.774100767274e-05 0.0 
2.774100767274e-05 6.820542708577e-04 0.0 
0.0 0.0 -1.053569120690e-04 
-1.984005188917e-04 3.469833888432e-06 0.0 
3.469833888432e-06 1.365869131785e-03 0.0 
0.0 0.0 -1.981012852499e-04 
-1.891870000816e-04 -2.170110567076e-05 0.0 
-2.170110567076e-05 1.288510292263e-03 0.0 
0.0 0.0 -1.887097005658e-04 
-1.683150849776e-04 2.979696904543e-05 0.0 
2.979696904543e-05 1.122642711197e-03 0.0 
0.0 0.0 -1.689885654173e-04 
-1.554302986174e-04 -2.927663835836e-05 0.0 
-2.927663835836e-05 1.044556448181e-03 0.0 
0.0 0.0 -1.556283301217e-04 
-1.157857925219e-04 -2.832751956135e-05 0.0 
-2.832751956135e-05 7.671670755825e-04 0.0 
0.0 0.0 -1.158214347813e-04 
-8.793389765940e-05 -2.692004426865e-05 0.0 
-2.692004426865e-05 5.710151647237e-04 0.0 
0.0 0.0 -8.764218308180e-05 
-6.353474277312e-05 -2.825822332319e-05 0.0 
-2.825822332319e-05 4.001707208949e-04 0.0 
0.0 0.0 -6.304749027677e-05 
-7.291093511829e-05 -2.827879267007e-05 0.0 
-2.827879267007e-05 4.665581668852e-04 0.0 
0.0 0.0 -7.265234708097e-05 
-1.174853072823e-04 -2.733567074543e-05 0.0 
-2.733567074543e-05 7.760237591612e-04 0.0 
0.0 0.0 -1.171309192368e-04 
-1.335212434515e-04 -2.914279474533e-05 0.0 
-2.914279474533e-05 8.905694576090e-04 0.0 
0.0 0.0 -1.335144612876e-04 
-1.018718395078e-04 -2.979006226054e-05 0.0 
-2.979006226054e-05 6.715941915170e-04 0.0 
0.0 0.0 -1.021513650962e-04 
-1.706976735812e-04 3.040145888498e-05 0.0 
3.040145888498e-05 1.134074140794e-03 0.0 
0.0 0.0 -1.701355210695e-04 
-6.585088392687e-05 -2.809564114852e-05 0.0 
-2.809564114852e-05 4.191270390209e-04 0.0 
0.0 0.0 -6.593483134188e-05 
-1.012822856145e-04 -2.790893614150e-05 0.0 
-2.790893614150e-05 6.647252503200e-04 0.0 
0.0 0.0 -1.012556795624e-04 
-1.190728906021e-04 2.726084077196e-05 0.0 
2.726084077196e-05 7.740175104497e-04 0.0 
0.0 0.0 -1.186992623097e-04 
-9.180435571147e-05 -2.942480991547e-05 0.0 
-2.942480991547e-05 5.980965186942e-04 0.0 
0.0 0.0 -9.183388734860e-05 
-1.951933135343e-04 -3.067913145712e-06 0.0 
-3.067913145712e-06 1.365527233008e-03 0.0 
0.0 0.0 -1.980132279339e-04 
-2.004839790609e-04 7.957002336378e-06 0.0 
7.957002336378e-06 1.363848061926e-03 0.0 
0.0 0.0 -1.977693979613e-04 
-1.862548850903e-04 -3.381380897180e-05 0.0 
-3.381380897180e-05 1.277935188165e-03 0.0 
0.0 0.0 -1.884741816281e-04 
-1.255545849599e-04 -2.913100698812e-05 0.0 
-2.913100698812e-05 8.346700099746e-04 0.0 
0.0 0.0 -1.256288396591e-04 
-1.668512740992e-04 2.892208901038e-05 0.0 
2.892208901038e-05 1.110735165857e-03 0.0 
0.0 0.0 -1.668097552869e-04 
-5.710219261571e-05 2.668419955422e-05 0.0 
2.668419955422e-05 3.418831237588e-04 0.0 
0.0 0.0 -5.678930531275e-05 
-8.241925476564e-05 -2.832624156936e-05 0.0 
-2.832624156936e-05 5.333885698677e-04 0.0 
0.0 0.0 -8.224527255367e-05 
-4.853944390359e-05 -2.604022421239e-05 0.0 
-2.604022421239e-05 2.959627034739e-04 0.0 
0.0 0.0 -4.789427177487e-05 
-8.945478626281e-05 -2.660897635143e-05 0.0 
-2.660897635143e-05 5.805998989638e-04 0.0 
0.0 0.0 -8.904339260345e-05 
-1.163162734636e-04 -2.681975846469e-06 0.0 
-2.681975846469e-06 7.498217446733e-04 0.0 
0.0 0.0 -1.187247005501e-04 
-1.378749770551e-04 3.210368012353e-05 0.0 
3.210368012353e-05 9.111791288023e-04 0.0 
0.0 0.0 -1.382175405433e-04 
-1.908460110853e-04 -3.275689360254e-07 0.0 
-3.275689360254e-07 1.305230985070e-03 0.0 
0.0 0.0 -1.898105380384e-04 
-1.673198694714e-04 3.217203314276e-05 0.0 
3.217203314276e-05 1.110802916425e-03 0.0 
0.0 0.0 -1.675837462092e-04 
-1.307963472837e-04 2.695120133125e-05 0.0 
2.695120133125e-05 8.556346688023e-04 0.0 
0.0 0.0 -1.303141423325e-04 
-1.340100066794e-04 2.763944078925e-05 0.0 
2.763944078925e-05 8.772925572874e-04 0.0 
0.0 0.0 -1.333792161710e-04 
-5.307775534031e-05 2.953233977858e-05 0.0 
2.953233977858e-05 3.124408790926e-04 0.0 
0.0 0.0 -5.245278118421e-05 
-2.595268965567e-05 5.699272949294e-06 0.0 
5.699272949294e-06 1.472249447242e-04 0.0 
0.0 0.0 -2.415366321274e-05 
-9.908936880668e-05 3.012137168314e-05 0.0 
3.012137168314e-05 6.362497375305e-04 0.0 
0.0 0.0 -9.891160473977e-05 
-1.107375038864e-04 -2.791592154402e-05 0.0 
-2.791592154402e-05 7.305458695935e-04 0.0 
0.0 0.0 -1.106421438825e-04 
-1.040373993302e-04 -2.962445174837e-05 0.0 
-2.962445174837e-05 6.836342105130e-04 0.0 
0.0 0.0 -1.039785834622e-04 
-2.890800069675e-05 2.861111799326e-05 0.0 
2.861111799326e-05 1.404310217184e-04 0.0 
0.0 0.0 -2.759983235877e-05 
-1.283084597460e-04 1.192869093826e-05 0.0 
1.192869093826e-05 8.062000095070e-04 0.0 
0.0 0.0 -1.269342783548e-04 
-4.518956868723e-05 -2.955121691656e-05 0.0 
-2.955121691656e-05 2.739636501554e-04 0.0 
0.0 0.0 -4.458156379712e-05 
-6.480437248805e-05 2.886959438942e-05 0.0 
2.886959438942e-05 3.978928491972e-04 0.0 
0.0 0.0 -6.471073859852e-05 
-2.011730791700e-04 -1.698872758040e-08 0.0 
-1.698872758040e-08 1.328124099864e-03 0.0 
0.0 0.0 -2.011730791700e-04 
-1.460374838192e-04 -3.048163660064e-05 0.0 
-3.048163660064e-05 9.751989198997e-04 0.0 
0.0 0.0 -1.457653143910e-04 
-1.205798788541e-04 2.761727978419e-05 0.0 
2.761727978419e-05 7.635288783755e-04 0.0 
0.0 0.0 -1.168501105142e-04 
-3.395354607204e-05 2.118102367287e-05 0.0 
2.118102367287e-05 2.067871695949e-04 0.0 
0.0 0.0 -3.264725407480e-05 
-1.072259052960e-04 2.828066854900e-05 0.0 
2.828066854900e-05 6.926707853574e-04 0.0 
0.0 0.0 -1.069007943593e-04 
-9.875212805042e-05 -3.066987077576e-05 0.0 
-3.066987077576e-05 6.455932732231e-04 0.0 
0.0 0.0 -9.854973989574e-05 
-1.347121276017e-04 -2.904780221579e-05 0.0 
-2.904780221579e-05 8.937363280174e-04 0.0 
0.0 0.0 -1.341094516545e-04 
-1.991811038418e-04 6.018664084073e-06 0.0 
6.018664084073e-06 1.364715316697e-03 0.0 
0.0 0.0 -1.985748880999e-04 
-1.110533222846e-04 2.766180117225e-05 0.0 
2.766180117225e-05 7.188072929314e-04 0.0 
0.0 0.0 -1.104975085169e-04 
-1.281880349500e-04 -2.831423111803e-05 0.0 
-2.831423111803e-05 8.493800491293e-04 0.0 
0.0 0.0 -1.277066113365e-04 
-1.022800064688e-04 2.938149773544e-05 0.0 
2.938149773544e-05 6.613696873366e-04 0.0 
0.0 0.0 -1.025654288072e-04 
-1.657781793003e-04 2.991009795984e-05 0.0 
2.991009795984e-05 1.103461715683e-03 0.0 
0.0 0.0 -1.657887872837e-04 
-1.303012997508e-04 2.941535065773e-05 0.0 
2.941535065773e-05 8.562179753406e-04 0.0 
0.0 0.0 -1.303748051659e-04 
-1.970164637737e-04 -1.302278598282e-06 0.0 
-1.302278598282e-06 1.366138488450e-03 0.0 
0.0 0.0 -1.983262259508e-04 
-2.010155577921e-04 3.662749840252e-07 0.0 
3.662749840252e-07 1.326332536677e-03 0.0 
0.0 0.0 -2.010155577921e-04 
-2.011542863586e-04 -1.004817252029e-06 0.0 
-1.004817252029e-06 1.325128672458e-03 0.0 
0.0 0.0 -2.011542863586e-04 
-2.007067363607e-04 -1.498454949362e-07 0.0 
-1.498454949362e-07 1.318361508107e-03 0.0 
0.0 0.0 -2.007067363607e-04 
-1.391843029499e-04 2.745739822782e-05 0.0 
2.745739822782e-05 9.142042162451e-04 0.0 
0.0 0.0 -1.386702020626e-04 
-1.656573127809e-04 -2.766529280961e-05 0.0 
-2.766529280961e-05 1.111954587801e-03 0.0 
0.0 0.0 -1.654503375633e-04 
-1.726299045536e-04 3.125882372741e-05 0.0 
3.125882372741e-05 1.154413842026e-03 0.0 
0.0 0.0 -1.733872194588e-04 
-9.246943249656e-05 3.046774901958e-05 0.0 
3.046774901958e-05 5.891823098647e-04 0.0 
0.0 0.0 -9.220995221430e-05 
-8.867527655773e-05 2.995644697179e-05 0.0 
2.995644697179e-05 5.611104943418e-04 0.0 
0.0 0.0 -8.809376301141e-05 
-9.622211545223e-05 -3.009570676563e-05 0.0 
-3.009570676563e-05 6.328174754954e-04 0.0 
0.0 0.0 -9.655401109520e-05 
-1.701961923366e-04 -3.010043453970e-05 0.0 
-3.010043453970e-05 1.143557443824e-03 0.0 
0.0 0.0 -1.697778367964e-04 
-1.986751491008e-04 -7.450281032107e-07 0.0 
-7.450281032107e-07 1.364365235868e-03 0.0 
0.0 0.0 -1.983660426036e-04 
-1.710340879663e-04 2.926837147099e-05 0.0 
2.926837147099e-05 1.140451459410e-03 0.0 
0.0 0.0 -1.711771202328e-04 
-1.362026136940e-04 -3.056560885154e-05 0.0 
-3.056560885154e-05 9.064457611163e-04 0.0 
0.0 0.0 -1.359501865459e-04 
-1.710918547977e-04 -2.738871930552e-05 0.0 
-2.738871930552e-05 1.149183258739e-03 0.0 
0.0 0.0 -1.708297112636e-04 
-1.484338095600e-04 -2.864995064493e-05 0.0 
-2.864995064493e-05 9.946985301084e-04 0.0 
0.0 0.0 -1.485531891111e-04 
-1.058391682515e-04 2.762475757998e-05 0.0 
2.762475757998e-05 6.839177814814e-04 0.0 
0.0 0.0 -1.057460988714e-04 
-9.007502322936e-05 2.632387229137e-05 0.0 
2.632387229137e-05 5.712847458693e-04 0.0 
0.0 0.0 -8.951081423028e-05 
-5.003262353380e-05 2.839389572085e-05 0.0 
2.839389572085e-05 2.942091527215e-04 0.0 
0.0 0.0 -5.000330529763e-05 
-1.931223455613e-04 1.410072971069e-05 0.0 
1.410072971069e-05 1.274197783005e-03 0.0 
0.0 0.0 -1.923320103442e-04 
-8.673133120512e-05 2.974761857028e-05 0.0 
2.974761857028e-05 5.527785355338e-04 0.0 
0.0 0.0 -8.688718888654e-05 
-1.811235048976e-04 -1.426754042441e-06 0.0 
-1.426754042441e-06 1.216021958167e-03 0.0 
0.0 0.0 -1.846150589539e-04 
-9.663648622258e-05 2.916309241112e-05 0.0 
2.916309241112e-05 6.223980992345e-04 0.0 
0.0 0.0 -9.698095267749e-05 
-6.297861531256e-05 -2.737443956180e-05 0.0 
-2.737443956180e-05 4.020391048555e-04 0.0 
0.0 0.0 -6.334372566563e-05 
-1.910403343780e-04 6.504513827889e-06 0.0 
6.504513827889e-06 1.269011526396e-03 0.0 
0.0 0.0 -1.926469350330e-04 
-7.031800198741e-05 2.800312657303e-05 0.0 
2.800312657303e-05 4.340280219417e-04 0.0 
0.0 0.0 -7.004737339288e-05 
-2.012981183411e-04 2.829868493084e-07 0.0 
2.829868493084e-07 1.325754434692e-03 0.0 
0.0 0.0 -2.012981183411e-04 
-1.944617061092e-04 -2.128424273080e-06 0.0 
-2.128424273080e-06 1.270536569317e-03 0.0 
0.0 0.0 -1.923981163876e-04 
-1.274261734323e-04 2.764661482526e-05 0.0 
2.764661482526e-05 8.320608034777e-04 0.0 
0.0 0.0 -1.269381307268e-04 
-1.388257339176e-05 -3.296929808695e-07 0.0 
-3.296929808695e-07 4.627629862134e-05 0.0 
0.0 0.0 -1.388302509839e-05 
-2.011432062587e-04 1.175370744358e-06 0.0 
1.175370744358e-06 1.325704875416e-03 0.0 
0.0 0.0 -2.011432062587e-04 
-1.921224080021e-04 -3.345083285998e-06 0.0 
-3.345083285998e-06 1.269046594870e-03 0.0 
0.0 0.0 -1.926992175726e-04 
-6.391416598869e-05 2.999598810142e-05 0.0 
2.999598810142e-05 3.912627427439e-04 0.0 
0.0 0.0 -6.380490422505e-05 
-1.404753262357e-04 -2.965513079560e-05 0.0 
-2.965513079560e-05 9.376027128924e-04 0.0 
0.0 0.0 -1.402969630079e-04 
-1.999507595383e-04 6.517171705068e-07 0.0 
6.517171705068e-07 1.367200749641e-03 0.0 
0.0 0.0 -1.984522389651e-04 
0.0 0.0 0.0 
0.0 0.0 0.0 
0.0 0.0 0.0 
-9.642422921866e-05 2.765043306328e-05 0.0 
2.765043306328e-05 6.184893464754e-04 0.0 
0.0 0.0 -9.638260397252e-05 
-1.327711764227e-04 2.777803969438e-05 0.0 
2.777803969438e-05 8.691844784454e-04 0.0 
0.0 0.0 -1.322405047887e-04 
-1.220159274826e-04 2.812429560457e-05 0.0 
2.812429560457e-05 7.950189731712e-04 0.0 
0.0 0.0 -1.216370884873e-04 
-1.233780413330e-04 2.822278476293e-05 0.0 
2.822278476293e-05 8.034120475729e-04 0.0 
0.0 0.0 -1.227992079070e-04 
-5.537653594295e-05 2.875222597985e-05 0.0 
2.875222597985e-05 3.316168811288e-04 0.0 
0.0 0.0 -5.533679171570e-05 
-2.012041008673e-04 -1.784165579864e-07 0.0 
-1.784165579864e-07 1.324183447082e-03 0.0 
0.0 0.0 -2.012041008673e-04 
-9.201494534921e-05 -2.853538992438e-05 0.0 
-2.853538992438e-05 6.003334109930e-04 0.0 
0.0 0.0 -9.185667556238e-05 
-3.303106360170e-05 -2.633064609002e-05 0.0 
-2.633064609002e-05 1.883634797952e-04 0.0 
0.0 0.0 -3.259945417627e-05 
-1.918713440306e-04 8.946523950926e-06 0.0 
8.946523950926e-06 1.309054848055e-03 0.0 
0.0 0.0 -1.908532239790e-04 
-1.533408055875e-05 7.384230356388e-07 0.0 
7.384230356388e-07 8.948803933365e-05 0.0 
0.0 0.0 -1.529156673429e-05 
-1.006599210971e-04 2.782645766406e-05 0.0 
2.782645766406e-05 6.455369390174e-04 0.0 
0.0 0.0 -1.001834968599e-04 
-3.451081164849e-05 1.818301860879e-06 0.0 
1.818301860879e-06 1.688175235099e-04 0.0 
0.0 0.0 -3.548102280213e-05 
-1.062965573196e-04 2.780179286973e-05 0.0 
2.780179286973e-05 6.883223029444e-04 0.0 
0.0 0.0 -1.064232429825e-04 
-1.976952572840e-04 -1.168281398261e-06 0.0 
-1.168281398261e-06 1.362992457342e-03 0.0 
0.0 0.0 -1.982734646138e-04 
-2.011883062674e-04 9.888613031940e-07 0.0 
9.888613031940e-07 1.328146716782e-03 0.0 
0.0 0.0 -2.011883062674e-04 
-1.301088029822e-04 2.770607832302e-05 0.0 
2.770607832302e-05 8.484055931934e-04 0.0 
0.0 0.0 -1.292069026561e-04 
-2.954464874618e-05 -3.965393558445e-06 0.0 
-3.965393558445e-06 1.122999320296e-04 0.0 
0.0 0.0 -2.690965210263e-05 
-2.739399671943e-05 2.933508036766e-05 0.0 
2.933508036766e-05 1.380090285650e-04 0.0 
0.0 0.0 -2.757055009735e-05 
-3.542847344044e-05 6.606947798617e-06 0.0 
6.606947798617e-06 2.063449622469e-04 0.0 
0.0 0.0 -3.269047038571e-05 
-1.687743102681e-04 -2.969350572077e-05 0.0 
-2.969350572077e-05 1.134034339831e-03 0.0 
0.0 0.0 -1.682749826031e-04 
-1.155575491131e-04 4.356017504332e-06 0.0 
4.356017504332e-06 7.906999410851e-04 0.0 
0.0 0.0 -1.155645034189e-04 
-1.225223585343e-04 -3.170975582543e-05 0.0 
-3.170975582543e-05 8.033648067797e-04 0.0 
0.0 0.0 -1.216399908441e-04 
-2.013754095761e-04 8.574101042672e-07 0.0 
8.574101042672e-07 1.328505872694e-03 0.0 
0.0 0.0 -2.013754095761e-04 
-1.185922722511e-04 -6.408792185017e-06 0.0 
-6.408792185017e-06 7.903114053093e-04 0.0 
0.0 0.0 -1.158066699702e-04 
-1.999465830534e-04 2.523603907241e-06 0.0 
2.523603907241e-06 1.365706190659e-03 0.0 
0.0 0.0 -1.984278847636e-04 
-1.529420189163e-04 2.878980384314e-05 0.0 
2.878980384314e-05 1.013778882456e-03 0.0 
0.0 0.0 -1.531497964885e-04 
-1.341342697016e-04 3.021998989808e-05 0.0 
3.021998989808e-05 8.804430663277e-04 0.0 
0.0 0.0 -1.336117322397e-04 
-7.066337245358e-05 2.724020164699e-05 0.0 
2.724020164699e-05 4.173118245595e-04 0.0 
0.0 0.0 -6.716413209789e-05 
-1.409646218039e-04 2.858302443344e-05 0.0 
2.858302443344e-05 9.281763591865e-04 0.0 
0.0 0.0 -1.406799227165e-04 
-4.298549671642e-05 -2.547451572923e-05 0.0 
-2.547451572923e-05 2.695670933754e-04 0.0 
0.0 0.0 -4.407237973489e-05 
-2.011132486541e-04 -7.128017343343e-07 0.0 
-7.128017343343e-07 1.328659301781e-03 0.0 
0.0 0.0 -2.011132486541e-04 
-2.009976701417e-04 3.439303975141e-06 0.0 
3.439303975141e-06 1.321105461220e-03 0.0 
0.0 0.0 -2.009976701417e-04 
-2.010626616006e-04 -3.322276770676e-06 0.0 
-3.322276770676e-06 1.324330050416e-03 0.0 
0.0 0.0 -2.010626616006e-04 
-1.299093591511e-04 -2.914930425429e-05 0.0 
-2.914930425429e-05 8.658441252439e-04 0.0 
0.0 0.0 -1.299975089739e-04 
-9.052284020770e-05 -3.049516894790e-05 0.0 
-3.049516894790e-05 5.936904225557e-04 0.0 
0.0 0.0 -9.093357025479e-05 
-1.054046505950e-04 -2.722690421760e-05 0.0 
-2.722690421760e-05 6.941162488956e-04 0.0 
0.0 0.0 -1.053178853420e-04 
-1.346471619318e-04 2.927563182277e-05 0.0 
2.927563182277e-05 8.856709839770e-04 0.0 
0.0 0.0 -1.347235989126e-04 
-2.009441844947e-04 5.418162692690e-07 0.0 
5.418162692690e-07 1.327955075341e-03 0.0 
0.0 0.0 -2.009441844947e-04 
-6.443925901357e-05 -2.813929069584e-05 0.0 
-2.813929069584e-05 4.076252186495e-04 0.0 
0.0 0.0 -6.431912701200e-05 
-7.485675959243e-05 2.901728883495e-05 0.0 
2.901728883495e-05 4.688085198426e-04 0.0 
0.0 0.0 -7.487790608676e-05 
-7.928698614329e-05 2.778576412939e-05 0.0 
2.778576412939e-05 4.984401812577e-04 0.0 
0.0 0.0 -7.908687439778e-05 
-1.394721343079e-04 2.885489704653e-05 0.0 
2.885489704653e-05 9.192978405546e-04 0.0 
0.0 0.0 -1.391937591313e-04 
-2.008612103287e-04 -3.693527197654e-06 0.0 
-3.693527197654e-06 1.364519917838e-03 0.0 
0.0 0.0 -1.985305734468e-04 
-2.250927834624e-05 2.909087829438e-06 0.0 
2.909087829438e-06 1.468758923848e-04 0.0 
0.0 0.0 -2.397382233655e-05 
-2.011163638586e-04 2.302003841696e-07 0.0 
2.302003841696e-07 1.324189736521e-03 0.0 
0.0 0.0 -2.011163638586e-04 
-7.377337448231e-05 2.934269690708e-05 0.0 
2.934269690708e-05 4.594549865471e-04 0.0 
0.0 0.0 -7.358133128319e-05 
-2.014316818412e-04 4.263406091418e-07 0.0 
4.263406091418e-07 1.328090472923e-03 0.0 
0.0 0.0 -2.014316818412e-04 
-1.734276927947e-04 -2.828578725819e-05 0.0 
-2.828578725819e-05 1.166116999412e-03 0.0 
0.0 0.0 -1.729148776319e-04 
-6.741246855669e-06 1.500702879826e-07 0.0 
1.500702879826e-07 3.827256342879e-05 0.0 
0.0 0.0 -6.864263063556e-06 
-1.004959508363e-04 2.808542309375e-05 0.0 
2.808542309375e-05 6.454212743012e-04 0.0 
0.0 0.0 -1.003583859079e-04 
-1.718759866272e-04 -2.980354167843e-05 0.0 
-2.980354167843e-05 1.157131136303e-03 0.0 
0.0 0.0 -1.719029392456e-04 
-2.011830196921e-04 -3.548902454823e-07 0.0 
-3.548902454823e-07 1.327155566075e-03 0.0 
0.0 0.0 -2.011830196921e-04 
-1.388407500422e-04 -2.884720622620e-05 0.0 
-2.884720622620e-05 9.230769586163e-04 0.0 
0.0 0.0 -1.383010158571e-04 
-1.575526722260e-04 2.955644203139e-05 0.0 
2.955644203139e-05 1.043750468826e-03 0.0 
0.0 0.0 -1.573501057445e-04 
-4.123088931291e-05 2.897558544234e-05 0.0 
2.897558544234e-05 2.287469859808e-04 0.0 
0.0 0.0 -4.076119643165e-05 
-1.813025862255e-04 9.345575993617e-07 0.0 
9.345575993617e-07 1.215376006819e-03 0.0 
0.0 0.0 -1.843023520775e-04 
-7.788490820688e-05 2.864422483209e-05 0.0 
2.864422483209e-05 4.890843703452e-04 0.0 
0.0 0.0 -7.776038389268e-05 
-7.872164132443e-05 -2.705112463858e-05 0.0 
-2.705112463858e-05 5.083022021505e-04 0.0 
0.0 0.0 -7.864394100603e-05 
-1.651857613722e-05 2.436579541672e-06 0.0 
2.436579541672e-06 9.382250948335e-05 0.0 
0.0 0.0 -1.564271892946e-05 
-2.011619417363e-04 1.902236696590e-07 0.0 
1.902236696590e-07 1.325669705516e-03 0.0 
0.0 0.0 -2.011619417363e-04 
-5.404101206327e-05 -2.775487024526e-05 0.0 
-2.775487024526e-05 3.346238881161e-04 0.0 
0.0 0.0 -5.346778118095e-05 
-1.664978969876e-04 -3.078518139598e-05 0.0 
-3.078518139598e-05 1.121532468591e-03 0.0 
0.0 0.0 -1.665752238587e-04 
-1.278730840806e-04 -3.472948115295e-05 0.0 
-3.472948115295e-05 8.520267496029e-04 0.0 
0.0 0.0 -1.283298317887e-04 
-6.603291402412e-05 -2.806322866842e-05 0.0 
-2.806322866842e-05 4.217037645698e-04 0.0 
0.0 0.0 -6.617380498945e-05 
-7.463675443451e-05 -2.871843216267e-05 0.0 
-2.871843216267e-05 4.786814676414e-04 0.0 
0.0 0.0 -7.447016153659e-05 
-1.335206736850e-04 -2.810341513530e-05 0.0 
-2.810341513530e-05 8.862841769034e-04 0.0 
0.0 0.0 -1.330061330556e-04 
-2.013389903111e-04 -2.577060081338e-06 0.0 
-2.577060081338e-06 1.328272800082e-03 0.0 
0.0 0.0 -2.013389903111e-04 
-9.595163826972e-05 2.829118562233e-05 0.0 
2.829118562233e-05 6.147361544056e-04 0.0 
0.0 0.0 -9.568302398834e-05 
-1.453761414593e-04 -3.029613600092e-05 0.0 
-3.029613600092e-05 9.724967985982e-04 0.0 
0.0 0.0 -1.454001008742e-04 
-1.206262125757e-04 2.794500349809e-05 0.0 
2.794500349809e-05 7.866369625336e-04 0.0 
0.0 0.0 -1.204619904346e-04 
-1.322723275388e-04 -2.829979880917e-05 0.0 
-2.829979880917e-05 8.816831760065e-04 0.0 
0.0 0.0 -1.321674040750e-04 
-7.980000717296e-05 -2.795628281200e-05 0.0 
-2.795628281200e-05 5.159636454028e-04 0.0 
0.0 0.0 -7.989676937832e-05 
-1.354049195082e-04 -2.966836663350e-05 0.0 
-2.966836663350e-05 9.031731980439e-04 0.0 
0.0 0.0 -1.354758998029e-04 
-1.160382141721e-04 -2.802728243222e-05 0.0 
-2.802728243222e-05 7.673309827378e-04 0.0 
0.0 0.0 -1.159419204142e-04 
-1.497221933922e-04 -2.945707781299e-05 0.0 
-2.945707781299e-05 1.002549953165e-03 0.0 
0.0 0.0 -1.497374551683e-04 
-1.506619844600e-04 2.868191767905e-05 0.0 
2.868191767905e-05 9.959081628399e-04 0.0 
0.0 0.0 -1.504701801305e-04 
-1.152928167139e-04 2.794966723813e-05 0.0 
2.794966723813e-05 7.495122634304e-04 0.0 
0.0 0.0 -1.151504190239e-04 
-9.797200402357e-05 2.936337437301e-05 0.0 
2.936337437301e-05 6.310607353231e-04 0.0 
0.0 0.0 -9.826785141749e-05 
-6.968070852175e-05 -2.743361977117e-05 0.0 
-2.743361977117e-05 4.442581749229e-04 0.0 
0.0 0.0 -6.960145924383e-05 
-9.096858632181e-05 2.865428116578e-05 0.0 
2.865428116578e-05 5.831558172230e-04 0.0 
0.0 0.0 -9.136904409386e-05 
-1.529042345816e-04 -2.854559586381e-05 0.0 
-2.854559586381e-05 1.024686749938e-03 0.0 
0.0 0.0 -1.527306194461e-04 
-1.256058487050e-04 2.811261290406e-05 0.0 
2.811261290406e-05 8.215081039068e-04 0.0 
0.0 0.0 -1.254775488864e-04 
-1.980780648734e-04 -3.935700772683e-06 0.0 
-3.935700772683e-06 1.366110574938e-03 0.0 
0.0 0.0 -1.982894430286e-04 
-1.754272809192e-04 -2.841101742405e-05 0.0 
-2.841101742405e-05 1.186882516095e-03 0.0 
0.0 0.0 -1.761487873678e-04 
-6.082182731614e-05 2.853376333875e-05 0.0 
2.853376333875e-05 3.715508262051e-04 0.0 
0.0 0.0 -6.104993218691e-05 
-2.011571007552e-04 9.171145657886e-07 0.0 
9.171145657886e-07 1.321562182738e-03 0.0 
0.0 0.0 -2.011571007552e-04 
-1.869664199368e-04 -1.057224803579e-06 0.0 
-1.057224803579e-06 1.305229682683e-03 0.0 
0.0 0.0 -1.899621165515e-04 
-1.086484700099e-04 2.782826117920e-05 0.0 
2.782826117920e-05 7.032557878447e-04 0.0 
0.0 0.0 -1.085668144712e-04 
-1.464969908307e-05 -1.429149761968e-06 0.0 
-1.429149761968e-06 4.885109050726e-05 0.0 
0.0 0.0 -1.465773918180e-05 
-1.958263237412e-04 5.780106440854e-07 0.0 
5.780106440854e-07 1.365777430136e-03 0.0 
0.0 0.0 -1.985204576056e-04 
-1.757264082716e-04 -2.517232276593e-05 0.0 
-2.517232276593e-05 1.179270301901e-03 0.0 
0.0 0.0 -1.750736792729e-04 
-6.782541782712e-05 3.019373787777e-05 0.0 
3.019373787777e-05 4.206013080560e-04 0.0 
0.0 0.0 -6.802858053956e-05 
-2.012563967287e-04 -1.966469980067e-06 0.0 
-1.966469980067e-06 1.324444202799e-03 0.0 
0.0 0.0 -2.012563967287e-04 
-1.398061958654e-04 -2.943243974614e-05 0.0 
-2.943243974614e-05 9.347188127772e-04 0.0 
0.0 0.0 -1.398839994836e-04 
-9.402070193648e-05 2.712518201061e-05 0.0 
2.712518201061e-05 5.984767473335e-04 0.0 
0.0 0.0 -9.344238907910e-05 
-1.259751156612e-04 2.590313598485e-05 0.0 
2.590313598485e-05 8.271536243356e-04 0.0 
0.0 0.0 -1.261329128710e-04 
-1.209053773198e-04 -2.958653903370e-05 0.0 
-2.958653903370e-05 8.015101038896e-04 0.0 
0.0 0.0 -1.208199794009e-04 
-1.200662961737e-04 -2.928695907517e-05 0.0 
-2.928695907517e-05 7.971639168788e-04 0.0 
0.0 0.0 -1.201302469568e-04 
-1.377407696400e-04 -2.844739825321e-05 0.0 
-2.844739825321e-05 9.201029016574e-04 0.0 
0.0 0.0 -1.377263211214e-04 
-1.455051528160e-04 -2.968427682686e-05 0.0 
-2.968427682686e-05 9.765284886093e-04 0.0 
0.0 0.0 -1.458154293005e-04 
-1.046610403714e-04 2.733139804099e-05 0.0 
2.733139804099e-05 6.730778598484e-04 0.0 
0.0 0.0 -1.041882757323e-04 
-1.560008307498e-04 2.985032891431e-05 0.0 
2.985032891431e-05 1.035131189223e-03 0.0 
0.0 0.0 -1.559113556481e-04 
-1.346325198006e-04 -3.759875847639e-06 0.0 
-3.759875847639e-06 9.030385431769e-04 0.0 
0.0 0.0 -1.325924704931e-04 
-9.742891063834e-05 -2.917049163419e-05 0.0 
-2.917049163419e-05 6.415916256564e-04 0.0 
0.0 0.0 -9.782951018876e-05 
-1.452307842680e-04 2.798410104444e-05 0.0 
2.798410104444e-05 9.572278053497e-04 0.0 
0.0 0.0 -1.449704969611e-04 
-7.715625378280e-05 -2.667442626255e-05 0.0 
-2.667442626255e-05 4.986036227452e-04 0.0 
0.0 0.0 -7.733157599954e-05 
-1.363333543933e-04 2.878191277654e-05 0.0 
2.878191277654e-05 8.968468110316e-04 0.0 
0.0 0.0 -1.364058089354e-04 
-7.777375980435e-06 -7.535368744987e-07 0.0 
-7.535368744987e-07 3.923141655039e-05 0.0 
0.0 0.0 -6.878196728934e-06 
-7.528604578945e-05 -2.595586335955e-05 0.0 
-2.595586335955e-05 4.832975377931e-04 0.0 
0.0 0.0 -7.495963205652e-05 
-7.310000528410e-05 -2.717420889967e-05 0.0 
-2.717420889967e-05 4.696905978795e-04 0.0 
0.0 0.0 -7.313647621482e-05 
-1.067255440210e-04 2.893271527878e-05 0.0 
2.893271527878e-05 6.917423590188e-04 0.0 
0.0 0.0 -1.068984364518e-04 
-1.139491260445e-04 2.826874769749e-05 0.0 
2.826874769749e-05 7.405843148328e-04 0.0 
0.0 0.0 -1.139284295517e-04 
-1.402043620025e-04 2.960631400939e-05 0.0 
2.960631400939e-05 9.251192422938e-04 0.0 
0.0 0.0 -1.402590041820e-04 
-1.335394728763e-04 -2.801522720058e-05 0.0 
-2.801522720058e-05 8.959684456723e-04 0.0 
0.0 0.0 -1.344445438287e-04 
-6.737158343628e-05 -2.804640221892e-05 0.0 
-2.804640221892e-05 4.313606597416e-04 0.0 
0.0 0.0 -6.758331304146e-05 
-2.012741767181e-04 8.821979198629e-07 0.0 
8.821979198629e-07 1.328039817999e-03 0.0 
0.0 0.0 -2.012741767181e-04 
-1.322856537807e-04 -2.842003897691e-05 0.0 
-2.842003897691e-05 8.785134865185e-04 0.0 
0.0 0.0 -1.318490365677e-04 
-1.109362290093e-04 2.909596826543e-05 0.0 
2.909596826543e-05 7.212635507904e-04 0.0 
0.0 0.0 -1.112084472091e-04 
-1.268451666326e-04 -2.799239167254e-05 0.0 
-2.799239167254e-05 8.413818391972e-04 0.0 
0.0 0.0 -1.265499305732e-04 
-1.064793262471e-04 -2.934158827982e-05 0.0 
-2.934158827982e-05 7.019469370670e-04 0.0 
0.0 0.0 -1.064793858277e-04 
0.0 0.0 0.0 
0.0 0.0 0.0 
0.0 0.0 0.0 
-1.318178097822e-04 -2.805518743843e-05 0.0 
-2.805518743843e-05 8.722935110683e-04 0.0 
0.0 0.0 -1.310031782818e-04 
-9.021933528390e-05 3.132040384158e-05 0.0 
3.132040384158e-05 5.739755637610e-04 0.0 
0.0 0.0 -8.934454493796e-05 
0.0 0.0 0.0 
0.0 0.0 0.0 
0.0 0.0 0.0 
-1.052154278640e-04 3.047955035353e-05 0.0 
3.047955035353e-05 6.816420493296e-04 0.0 
0.0 0.0 -1.056191267961e-04 
-1.502367494217e-04 2.924022123396e-05 0.0 
2.924022123396e-05 9.937951500591e-04 0.0 
0.0 0.0 -1.501881972789e-04 
-1.718775265069e-04 2.928709797380e-05 0.0 
2.928709797380e-05 1.146088071217e-03 0.0 
0.0 0.0 -1.720420237578e-04 
-1.280234877616e-04 -2.851125988754e-05 0.0 
-2.851125988754e-05 8.523441205577e-04 0.0 
0.0 0.0 -1.279840527869e-04 
-1.326450779531e-04 2.837607785170e-05 0.0 
2.837607785170e-05 8.704271803974e-04 0.0 
0.0 0.0 -1.326233994657e-04 
-1.124800331858e-04 -2.250634799779e-05 0.0 
-2.250634799779e-05 7.434000254204e-04 0.0 
0.0 0.0 -1.124284764899e-04 
-1.124934330556e-04 -1.147359770401e-06 0.0 
-1.147359770401e-06 6.878881025193e-04 0.0 
0.0 0.0 -1.096893794977e-04 
-1.889722149430e-04 -3.377914207804e-06 0.0 
-3.377914207804e-06 1.272437990102e-03 0.0 
0.0 0.0 -1.929167378009e-04 
-1.214486582279e-04 -2.834437307674e-05 0.0 
-2.834437307674e-05 8.042147269737e-04 0.0 
0.0 0.0 -1.212428182282e-04 
-3.901684544272e-06 -1.266514493921e-06 0.0 
-1.266514493921e-06 3.364292570627e-05 0.0 
0.0 0.0 -6.803381613341e-06 
-4.019702923064e-05 -2.968878104168e-05 0.0 
-2.968878104168e-05 2.317309542851e-04 0.0 
0.0 0.0 -3.854459625752e-05 
-1.433007491539e-05 -2.523139495984e-06 0.0 
-2.523139495984e-06 4.782663812836e-05 0.0 
0.0 0.0 -1.435566994842e-05 
-6.398639061022e-05 -2.382092625923e-05 0.0 
-2.382092625923e-05 4.115367021604e-04 0.0 
0.0 0.0 -6.426199848985e-05 
-1.705216486236e-04 -3.075798588999e-05 0.0 
-3.075798588999e-05 1.144180239023e-03 0.0 
0.0 0.0 -1.701784606649e-04 
-1.720848907896e-04 -2.982707765609e-05 0.0 
-2.982707765609e-05 1.154451966353e-03 0.0 
0.0 0.0 -1.716974477008e-04 
-1.636081653310e-04 2.890679068895e-05 0.0 
2.890679068895e-05 1.083797119579e-03 0.0 
0.0 0.0 -1.631141653006e-04 
-7.191278251010e-05 -2.923981126011e-05 0.0 
-2.923981126011e-05 4.644308216806e-04 0.0 
0.0 0.0 -7.241705069886e-05 
-1.359669915306e-04 -2.927541453388e-05 0.0 
-2.927541453388e-05 9.079369783679e-04 0.0 
0.0 0.0 -1.359475215862e-04 
-1.703257054035e-04 2.861689226726e-05 0.0 
2.861689226726e-05 1.140054647222e-03 0.0 
0.0 0.0 -1.713159247262e-04 
-4.183047912369e-05 -2.572604659906e-05 0.0 
-2.572604659906e-05 2.560153946945e-04 0.0 
0.0 0.0 -4.231798256975e-05 
-8.943823586418e-05 -3.364415979658e-05 0.0 
-3.364415979658e-05 5.775390913927e-04 0.0 
0.0 0.0 -8.913173311911e-05 
-7.231586338472e-05 2.908218695887e-05 0.0 
2.908218695887e-05 4.640276074048e-04 0.0 
0.0 0.0 -7.470029742937e-05 
-2.002434364986e-04 2.390306987834e-06 0.0 
2.390306987834e-06 1.365017058433e-03 0.0 
0.0 0.0 -1.983595295415e-04 
-2.012462808875e-04 -2.397130779802e-06 0.0 
-2.397130779802e-06 1.326802955155e-03 0.0 
0.0 0.0 -2.012462808875e-04 
-1.001924190894e-04 -2.543634002640e-05 0.0 
-2.543634002640e-05 6.415530807948e-04 0.0 
0.0 0.0 -9.870432074603e-05 
-1.098744198639e-04 -2.927420239507e-05 0.0 
-2.927420239507e-05 7.316606535654e-04 0.0 
0.0 0.0 -1.107837014452e-04 
-1.248013625041e-04 2.918553395126e-05 0.0 
2.918553395126e-05 8.167887655362e-04 0.0 
0.0 0.0 -1.248518557812e-04 
-1.744561955947e-04 2.668158714920e-05 0.0 
2.668158714920e-05 1.182258303691e-03 0.0 
0.0 0.0 -1.765917450224e-04 
-4.348855545644e-05 2.994300755885e-05 0.0 
2.994300755885e-05 2.445057852649e-04 0.0 
0.0 0.0 -4.320551243875e-05 
-1.652296485327e-04 2.906332229875e-05 0.0 
2.906332229875e-05 1.101447253650e-03 0.0 
0.0 0.0 -1.657061016896e-04 
-2.403565913090e-05 4.949963233040e-06 0.0 
4.949963233040e-06 1.531777656687e-04 0.0 
0.0 0.0 -2.418834757213e-05 
-1.015799043054e-04 -2.942946605237e-05 0.0 
-2.942946605237e-05 6.633561862995e-04 0.0 
0.0 0.0 -1.008698596220e-04 
-1.119529650465e-04 -2.962126233882e-05 0.0 
-2.962126233882e-05 7.407931298335e-04 0.0 
0.0 0.0 -1.120576983545e-04 
-1.459957790494e-05 2.147032025287e-06 0.0 
2.147032025287e-06 4.870772312705e-05 0.0 
0.0 0.0 -1.461777652376e-05 
-9.161840063277e-05 2.942933483065e-05 0.0 
2.942933483065e-05 6.062252670522e-04 0.0 
0.0 0.0 -9.401387724495e-05 
-1.768726332775e-04 2.584150165173e-05 0.0 
2.584150165173e-05 1.176843255176e-03 0.0 
0.0 0.0 -1.765293208453e-04 
-8.070653634049e-06 -7.127200303669e-07 0.0 
-7.127200303669e-07 3.799287171116e-05 0.0 
0.0 0.0 -6.885492893058e-06 
-1.096879873477e-04 2.043579917607e-06 0.0 
2.043579917607e-06 6.860751141181e-04 0.0 
0.0 0.0 -1.098413067258e-04 
-1.057188370874e-04 1.685883039911e-07 0.0 
1.685883039911e-07 7.271365247556e-04 0.0 
0.0 0.0 -1.069570933414e-04 
-1.432107105009e-04 -2.918049026374e-05 0.0 
-2.918049026374e-05 9.585008998201e-04 0.0 
0.0 0.0 -1.432800021710e-04 
-7.316489204152e-05 -2.863859130745e-05 0.0 
-2.863859130745e-05 4.706303893412e-04 0.0 
0.0 0.0 -7.415269660255e-05 
-7.204753212898e-05 2.972500420552e-05 0.0 
2.972500420552e-05 4.499764828814e-04 0.0 
0.0 0.0 -7.226240082359e-05 
-5.120365076624e-05 -2.544377550683e-05 0.0 
-2.544377550683e-05 3.155956943602e-04 0.0 
0.0 0.0 -5.097082111979e-05 
-1.766764062378e-04 2.618275323120e-05 0.0 
2.618275323120e-05 1.179907026535e-03 0.0 
0.0 0.0 -1.771343179597e-04 
-1.932169887683e-04 -1.186514980036e-06 0.0 
-1.186514980036e-06 1.270206526665e-03 0.0 
0.0 0.0 -1.929291577857e-04 
-1.651550878866e-04 -2.941422592351e-05 0.0 
-2.941422592351e-05 1.109208798495e-03 0.0 
0.0 0.0 -1.651633390879e-04 
-6.755242304519e-05 -2.455549728632e-05 0.0 
-2.455549728632e-05 4.248768375292e-04 0.0 
0.0 0.0 -6.685523357515e-05 
-3.212136007057e-05 3.580530001302e-05 0.0 
3.580530001302e-05 1.447902451166e-04 0.0 
0.0 0.0 -2.858747568434e-05 
-1.054343223867e-04 -2.695876520577e-05 0.0 
-2.695876520577e-05 6.907711584095e-04 0.0 
0.0 0.0 -1.049869670044e-04 
-1.082088607967e-04 -8.344784113160e-08 0.0 
-8.344784113160e-08 6.889651327617e-04 0.0 
0.0 0.0 -1.101766670879e-04 
-1.083270449213e-04 -5.188674785914e-06 0.0 
-5.188674785914e-06 7.291063979252e-04 0.0 
0.0 0.0 -1.071720332863e-04 
0.0 0.0 0.0 
0.0 0.0 0.0 
0.0 0.0 0.0 
-1.419401195472e-05 1.408697338343e-06 0.0 
1.408697338343e-06 4.733218519253e-05 0.0 
0.0 0.0 -1.420207424477e-05 
-2.834770026484e-05 -7.681243720571e-06 0.0 
-7.681243720571e-06 1.096902963104e-04 0.0 
0.0 0.0 -2.693124394472e-05 
-5.719939767419e-05 2.990659681515e-05 0.0 
2.990659681515e-05 3.452165164042e-04 0.0 
0.0 0.0 -5.731412244432e-05 
-1.720930858718e-05 3.350218996686e-07 0.0 
3.350218996686e-07 9.401005302813e-05 0.0 
0.0 0.0 -1.553541414024e-05 
-1.076654832369e-04 2.813964265791e-05 0.0 
2.813964265791e-05 6.806882370998e-04 0.0 
0.0 0.0 -1.037722331524e-04 
0.0 0.0 0.0 
0.0 0.0 0.0 
0.0 0.0 0.0 
-6.700184681606e-05 3.038711416349e-05 0.0 
3.038711416349e-05 4.144588213805e-04 0.0 
0.0 0.0 -6.723558339016e-05 
-1.422690385554e-04 8.906612131176e-06 0.0 
8.906612131176e-06 9.279461319085e-04 0.0 
0.0 0.0 -1.437384108528e-04 
-1.067106135208e-04 1.512146510798e-06 0.0 
1.512146510798e-06 7.288241095318e-04 0.0 
0.0 0.0 -1.068051661132e-04 
-1.732229403376e-04 -3.027991344990e-05 0.0 
-3.027991344990e-05 1.178111385867e-03 0.0 
0.0 0.0 -1.754224665252e-04 
-1.445452663558e-04 2.930268727359e-05 0.0 
2.930268727359e-05 9.544571665351e-04 0.0 
0.0 0.0 -1.446217387457e-04 
-1.353694455665e-04 1.174583702380e-05 0.0 
1.174583702380e-05 8.660998565929e-04 0.0 
0.0 0.0 -1.348267065705e-04 
-7.873004197628e-05 3.045040631702e-05 0.0 
3.045040631702e-05 5.029221835495e-04 0.0 
0.0 0.0 -7.904067945980e-05 
-2.336863266121e-05 -2.139897506835e-06 0.0 
-2.139897506835e-06 1.525920777976e-04 0.0 
0.0 0.0 -2.404492882983e-05 
-2.011462452073e-04 -3.115145181966e-06 0.0 
-3.115145181966e-06 1.323800969612e-03 0.0 
0.0 0.0 -2.011462452073e-04 
-1.997611016349e-04 -1.600977658654e-07 0.0 
-1.600977658654e-07 1.366080671060e-03 0.0 
0.0 0.0 -1.980443072317e-04 
-1.272448923164e-04 3.465279404623e-05 0.0 
3.465279404623e-05 8.424875497443e-04 0.0 
0.0 0.0 -1.288258176484e-04 
-1.119386170519e-04 -1.126021442298e-06 0.0 
-1.126021442298e-06 6.885955176049e-04 0.0 
0.0 0.0 -1.098911005281e-04 
-7.877315288786e-05 -1.808968119029e-05 0.0 
-1.808968119029e-05 5.143209401366e-04 0.0 
0.0 0.0 -7.971767696681e-05 
-1.985236644042e-04 -3.425616005704e-06 0.0 
-3.425616005704e-06 1.362863135910e-03 0.0 
0.0 0.0 -1.983864604134e-04 
-6.236203446175e-05 -2.877830346934e-05 0.0 
-2.877830346934e-05 3.955051293210e-04 0.0 
0.0 0.0 -6.249901059374e-05 
-1.058650871008e-04 -6.246155104236e-07 0.0 
-6.246155104236e-07 7.256170483752e-04 0.0 
0.0 0.0 -1.068842133844e-04 
-1.069697525894e-04 1.084045783815e-06 0.0 
1.084045783815e-06 6.877400680898e-04 0.0 
0.0 0.0 -1.096916328397e-04 
-1.015389602943e-04 2.700360211827e-05 0.0 
2.700360211827e-05 6.538816838809e-04 0.0 
0.0 0.0 -1.013366985113e-04 
-2.012735984050e-04 -2.798087263703e-06 0.0 
-2.798087263703e-06 1.328613650514e-03 0.0 
0.0 0.0 -2.012735984050e-04 
-1.940648784859e-04 2.411070838906e-06 0.0 
2.411070838906e-06 1.364173949612e-03 0.0 
0.0 0.0 -1.983874027871e-04 
-1.690083312634e-05 1.049773310524e-06 0.0 
1.049773310524e-06 9.202054593460e-05 0.0 
0.0 0.0 -1.553532439781e-05 
0.0 0.0 0.0 
0.0 0.0 0.0 
0.0 0.0 0.0 
-3.585533076935e-05 2.904737459937e-05 0.0 
2.904737459937e-05 1.788685704198e-04 0.0 
0.0 0.0 -3.331695100386e-05 
-1.122713198486e-04 2.937932182379e-05 0.0 
2.937932182379e-05 7.306935959273e-04 0.0 
0.0 0.0 -1.124655765398e-04 
-1.835773402027e-04 3.521607307094e-05 0.0 
3.521607307094e-05 1.234731404255e-03 0.0 
0.0 0.0 -1.837003526785e-04 
-5.776823163620e-06 -1.013741336344e-05 0.0 
-1.013741336344e-05 3.224761562078e-05 0.0 
0.0 0.0 -6.760418344035e-06 
-1.642553307267e-04 -3.202846031696e-05 0.0 
-3.202846031696e-05 1.094624480443e-03 0.0 
0.0 0.0 -1.638777942950e-04 
0.0 0.0 0.0 
0.0 0.0 0.0 
0.0 0.0 0.0 
-1.424654463444e-04 2.913249922816e-05 0.0 
2.913249922816e-05 9.390706018894e-04 0.0 
0.0 0.0 -1.423962487430e-04 
-9.432165051581e-06 1.005162211791e-06 0.0 
1.005162211791e-06 4.138276126950e-05 0.0 
0.0 0.0 -6.886565099861e-06 
-9.362857787326e-06 -3.767431995236e-06 0.0 
-3.767431995236e-06 3.953910185584e-05 0.0 
0.0 0.0 -6.922935307491e-06 
-1.370365661157e-04 2.914478147057e-05 0.0 
2.914478147057e-05 9.005660180564e-04 0.0 
0.0 0.0 -1.368385334393e-04 
-1.786566956368e-04 2.931910129804e-05 0.0 
2.931910129804e-05 1.196344419870e-03 0.0 
0.0 0.0 -1.789445754221e-04 
-1.403014539755e-04 -1.415648790463e-05 0.0 
-1.415648790463e-05 9.602064443499e-04 0.0 
0.0 0.0 -1.404190723625e-04 
-1.093898583646e-04 -2.651797813815e-05 0.0 
-2.651797813815e-05 7.193684517441e-04 0.0 
0.0 0.0 -1.090260965338e-04 
-1.456607726240e-05 -2.038157053184e-06 0.0 
-2.038157053184e-06 4.859194839432e-05 0.0 
0.0 0.0 -1.458251619940e-05 
-1.403045830740e-04 -2.944113871056e-05 0.0 
-2.944113871056e-05 9.375602710699e-04 0.0 
0.0 0.0 -1.402353347023e-04 
-2.006696725991e-04 -3.796241326952e-06 0.0 
-3.796241326952e-06 1.322105168317e-03 0.0 
0.0 0.0 -2.006696725991e-04 
-1.989054431028e-04 -2.182972558240e-05 0.0 
-2.182972558240e-05 1.362302379513e-03 0.0 
0.0 0.0 -1.983532132695e-04 
-1.068515601043e-04 1.760793152409e-06 0.0 
1.760793152409e-06 7.282983415426e-04 0.0 
0.0 0.0 -1.068864667265e-04 
-1.479030554931e-04 2.849872559925e-05 0.0 
2.849872559925e-05 9.774939211832e-04 0.0 
0.0 0.0 -1.479563560404e-04 
-2.012411575798e-04 2.034835726214e-06 0.0 
2.034835726214e-06 1.326088054461e-03 0.0 
0.0 0.0 -2.012411575798e-04 
-1.572471139556e-04 -3.123527971848e-05 0.0 
-3.123527971848e-05 1.052974899250e-03 0.0 
0.0 0.0 -1.570065405944e-04 
-2.512952758235e-05 6.164143337161e-06 0.0 
6.164143337161e-06 1.447280408939e-04 0.0 
0.0 0.0 -2.384861487001e-05 
-1.601508775722e-05 -1.437488736464e-06 0.0 
-1.437488736464e-06 9.300170481307e-05 0.0 
0.0 0.0 -1.544587960073e-05 
-1.543264015197e-05 -6.472491513265e-06 0.0 
-6.472491513265e-06 5.180474928483e-05 0.0 
0.0 0.0 -1.558804677123e-05 
-8.807433739710e-05 2.930499283462e-05 0.0 
2.930499283462e-05 5.721318599330e-04 0.0 
0.0 0.0 -8.900037232384e-05 
-2.000509150237e-04 -1.803318756068e-05 0.0 
-1.803318756068e-05 1.362940764782e-03 0.0 
0.0 0.0 -1.984242861770e-04 
-1.873647884484e-04 -3.488074856058e-05 0.0 
-3.488074856058e-05 1.273069634555e-03 0.0 
0.0 0.0 -1.887494668184e-04 
0.0 0.0 0.0 
0.0 0.0 0.0 
0.0 0.0 0.0 
-1.048455043466e-04 -2.786233972015e-05 0.0 
-2.786233972015e-05 6.764000404035e-04 0.0 
0.0 0.0 -1.040814173273e-04 
-2.017197471554e-04 8.241581226717e-07 0.0 
8.241581226717e-07 1.329062272743e-03 0.0 
0.0 0.0 -2.017197471554e-04 
-2.005984413255e-04 5.516146765968e-06 0.0 
5.516146765968e-06 1.367793765917e-03 0.0 
0.0 0.0 -1.978177876756e-04 
-1.955632613542e-04 2.146035678259e-07 0.0 
2.146035678259e-07 1.364429749039e-03 0.0 
0.0 0.0 -1.981726781329e-04 
-1.551674337257e-04 3.213659539949e-05 0.0 
3.213659539949e-05 1.026132370703e-03 0.0 
0.0 0.0 -1.540722572613e-04 
-1.676819576491e-04 -3.244106652331e-05 0.0 
-3.244106652331e-05 1.132368160945e-03 0.0 
0.0 0.0 -1.688564288694e-04 
-2.007045390215e-04 -1.045242026293e-06 0.0 
-1.045242026293e-06 1.322895647985e-03 0.0 
0.0 0.0 -2.007045390215e-04 
-2.011132486540e-04 -4.189740075221e-06 0.0 
-4.189740075221e-06 1.326334124050e-03 0.0 
0.0 0.0 -2.011132486540e-04 
-1.626580735659e-04 2.634343120663e-05 0.0 
2.634343120663e-05 1.095653417165e-03 0.0 
0.0 0.0 -1.638777942950e-04 
-3.467643311259e-06 1.128712139723e-05 0.0 
1.128712139723e-05 2.762392691705e-05 0.0 
0.0 0.0 -6.812318873104e-06 
-1.069489536729e-04 -2.288587191676e-07 0.0 
-2.288587191676e-07 7.222038744284e-04 0.0 
0.0 0.0 -1.070930873830e-04 
-1.082084560241e-04 4.524390449744e-06 0.0 
4.524390449744e-06 7.317697196541e-04 0.0 
0.0 0.0 -1.070046338016e-04 
0.0 0.0 0.0 
0.0 0.0 0.0 
0.0 0.0 0.0 
-2.013470386860e-04 1.582993778474e-06 0.0 
1.582993778474e-06 1.331092746641e-03 0.0 
0.0 0.0 -2.013470386860e-04 
-2.004992679381e-04 3.810616673030e-06 0.0 
3.810616673030e-06 1.366146148260e-03 0.0 
0.0 0.0 -1.977533921434e-04 
-2.006939626645e-04 9.733569450267e-08 0.0 
9.733569450267e-08 1.322104658797e-03 0.0 
0.0 0.0 -2.006939626645e-04 
-1.033192631121e-05 1.099005081210e-06 0.0 
1.099005081210e-06 3.989146001766e-05 0.0 
0.0 0.0 -6.874462243606e-06 
-1.053268595906e-05 1.440397429326e-06 0.0 
1.440397429326e-06 4.104748301093e-05 0.0 
0.0 0.0 -6.887055179908e-06 
-2.011132486540e-04 -1.745116755587e-07 0.0 
-1.745116755587e-07 1.324356223126e-03 0.0 
0.0 0.0 -2.011132486540e-04 
-2.010594294788e-04 -3.067167593136e-06 0.0 
-3.067167593136e-06 1.323008264150e-03 0.0 
0.0 0.0 -2.010594294788e-04 
-1.525144534316e-04 -3.469908965430e-05 0.0 
-3.469908965430e-05 9.919929974676e-04 0.0 
0.0 0.0 -1.490508918356e-04 
-1.073514247561e-04 4.761945652643e-06 0.0 
4.761945652643e-06 7.219659484264e-04 0.0 
0.0 0.0 -1.068727795842e-04 
-1.577537368329e-04 -3.403094625324e-05 0.0 
-3.403094625324e-05 1.060418053842e-03 0.0 
0.0 0.0 -1.590213654257e-04 
-1.328454241957e-04 -3.370191828823e-05 0.0 
-3.370191828823e-05 8.485398635158e-04 0.0 
0.0 0.0 -1.293991128285e-04 
-1.046169236010e-04 1.973664755836e-06 0.0 
1.973664755836e-06 7.223528969599e-04 0.0 
0.0 0.0 -1.068286901835e-04 
-4.614602936406e-06 5.445308269796e-06 0.0 
5.445308269796e-06 3.738876181996e-05 0.0 
0.0 0.0 -6.743366273123e-06 
-7.288647016025e-06 -5.605815272385e-06 0.0 
-5.605815272385e-06 4.290456148284e-05 0.0 
0.0 0.0 -6.886751345948e-06 
-4.777740867475e-06 -1.713355770572e-06 0.0 
-1.713355770572e-06 3.704418379984e-05 0.0 
0.0 0.0 -6.883523363406e-06 
-7.097131879007e-06 -1.839146356973e-06 0.0 
-1.839146356973e-06 3.989175121334e-05 0.0 
0.0 0.0 -6.834868364323e-06 
-1.111644977681e-04 3.476120600100e-05 0.0 
3.476120600100e-05 7.142233904721e-04 0.0 
0.0 0.0 -1.090698765213e-04 
-9.850854995735e-05 3.047113839014e-05 0.0 
3.047113839014e-05 6.418056074726e-04 0.0 
0.0 0.0 -9.901154080588e-05 
0.0 0.0 0.0 
0.0 0.0 0.0 
0.0 0.0 0.0 
-1.379803939868e-04 3.311278655235e-05 0.0 
3.311278655235e-05 9.246797732210e-04 0.0 
0.0 0.0 -1.383256398532e-04 
0.0 0.0 0.0 
0.0 0.0 0.0 
0.0 0.0 0.0 
-2.012207460908e-04 8.138655548157e-07 0.0 
8.138655548157e-07 1.323125614848e-03 0.0 
0.0 0.0 -2.012207460908e-04 
-2.011453028336e-04 1.874611865645e-06 0.0 
1.874611865645e-06 1.321148462492e-03 0.0 
0.0 0.0 -2.011453028336e-04 
-2.008980620244e-04 -1.010417860952e-06 0.0 
-1.010417860952e-06 1.324898106472e-03 0.0 
0.0 0.0 -2.008980620244e-04 
-3.774320917617e-05 3.566462655254e-05 0.0 
3.566462655254e-05 2.216925288799e-04 0.0 
0.0 0.0 -3.898704224316e-05 
-6.749434365589e-05 3.096998135248e-05 0.0 
3.096998135248e-05 4.319785382730e-04 0.0 
0.0 0.0 -6.911201714261e-05 
-2.005699367862e-04 -7.190292655296e-07 0.0 
-7.190292655296e-07 1.323013138076e-03 0.0 
0.0 0.0 -2.005699367862e-04 
-1.680240814146e-04 2.828255466262e-05 0.0 
2.828255466262e-05 1.134108335992e-03 0.0 
0.0 0.0 -1.687435400630e-04 
-2.016835406704e-04 -3.156370070795e-06 0.0 
-3.156370070795e-06 1.329078538970e-03 0.0 
0.0 0.0 -2.016835406704e-04 
-1.793487015674e-04 3.012936828637e-05 0.0 
3.012936828637e-05 1.204201687729e-03 0.0 
0.0 0.0 -1.788807376869e-04 
-1.896811634642e-04 3.473757623144e-05 0.0 
3.473757623144e-05 1.274809396155e-03 0.0 
0.0 0.0 -1.889858754357e-04 
-9.329662399263e-05 -3.052995434082e-05 0.0 
-3.052995434082e-05 6.062639241622e-04 0.0 
0.0 0.0 -9.401191312989e-05 
-2.000004866553e-04 -4.935042552872e-06 0.0 
-4.935042552872e-06 1.365934607507e-03 0.0 
0.0 0.0 -1.977152396198e-04 
-2.004002946706e-04 1.743259095834e-05 0.0 
1.743259095834e-05 1.363643771933e-03 0.0 
0.0 0.0 -1.982534774566e-04 
-1.735523764126e-04 -3.096544822671e-05 0.0 
-3.096544822671e-05 1.160586461079e-03 0.0 
0.0 0.0 -1.736242777500e-04 
-1.844507237627e-04 -3.076693800438e-05 0.0 
-3.076693800438e-05 1.234271765678e-03 0.0 
0.0 0.0 -1.838666131227e-04 
-1.480705946354e-04 -2.799822277007e-05 0.0 
-2.799822277007e-05 9.966603041907e-04 0.0 
0.0 0.0 -1.488773473547e-04 
0.0 0.0 0.0 
0.0 0.0 0.0 
0.0 0.0 0.0 
-9.787607230901e-05 -3.033430602603e-05 0.0 
-3.033430602603e-05 6.248974769917e-04 0.0 
0.0 0.0 -9.525361646419e-05 
-1.594166567358e-05 -3.750042762657e-06 0.0 
-3.750042762657e-06 8.963110813763e-05 0.0 
0.0 0.0 -1.545597323287e-05 
-1.766298993527e-04 -2.600424007003e-05 0.0 
-2.600424007003e-05 1.189008728009e-03 0.0 
0.0 0.0 -1.766728545426e-04 
-1.011715525641e-04 2.892404910577e-05 0.0 
2.892404910577e-05 6.528362141215e-04 0.0 
0.0 0.0 -1.013053728898e-04 
-1.643672164407e-04 2.795643146507e-05 0.0 
2.795643146507e-05 1.094563530101e-03 0.0 
0.0 0.0 -1.648525347569e-04 
-5.293095072300e-05 -2.919541751065e-05 0.0 
-2.919541751065e-05 3.265136357570e-04 0.0 
0.0 0.0 -5.257162719418e-05 
-2.326140168062e-05 1.809898427410e-05 0.0 
1.809898427410e-05 1.126266936620e-04 0.0 
0.0 0.0 -2.603928234478e-05 
-1.740902369364e-04 -2.842066329623e-05 0.0 
-2.842066329623e-05 1.173125089393e-03 0.0 
0.0 0.0 -1.742502449863e-04 
-1.033465261807e-04 -2.962592743150e-05 0.0 
-2.962592743150e-05 6.925891601377e-04 0.0 
0.0 0.0 -1.051812066754e-04 
-8.643013593859e-05 3.008982733389e-05 0.0 
3.008982733389e-05 5.377346504154e-04 0.0 
0.0 0.0 -8.417044846400e-05 
-1.640235310558e-04 -2.864236577619e-05 0.0 
-2.864236577619e-05 1.105176284391e-03 0.0 
0.0 0.0 -1.644154061664e-04 
-1.767953130454e-04 2.924397373916e-05 0.0 
2.924397373916e-05 1.186936749162e-03 0.0 
0.0 0.0 -1.783361800308e-04 
-8.342488227328e-05 -3.047437538585e-05 0.0 
-3.047437538585e-05 5.389729855638e-04 0.0 
0.0 0.0 -8.404105178381e-05 
-1.553105581953e-04 -3.047408891050e-05 0.0 
-3.047408891050e-05 1.042435393668e-03 0.0 
0.0 0.0 -1.553470185564e-04 
-1.377037381347e-04 2.897215065226e-05 0.0 
2.897215065226e-05 9.063511737441e-04 0.0 
0.0 0.0 -1.377261412248e-04 
-1.487663362168e-04 3.034863814033e-05 0.0 
3.034863814033e-05 9.863621124124e-04 0.0 
0.0 0.0 -1.492918029589e-04 
-1.536565537427e-04 2.792959174996e-05 0.0 
2.792959174996e-05 1.019186869417e-03 0.0 
0.0 0.0 -1.536336870150e-04 
-8.703976113535e-05 2.837055784379e-05 0.0 
2.837055784379e-05 5.518675504069e-04 0.0 
0.0 0.0 -8.683226689744e-05 
-1.002022259484e-04 -2.590961570230e-05 0.0 
-2.590961570230e-05 6.551468687222e-04 0.0 
0.0 0.0 -9.977007195992e-05 
-1.093881919947e-04 -2.770239582758e-05 0.0 
-2.770239582758e-05 7.220131976624e-04 0.0 
0.0 0.0 -1.093958643288e-04 
-1.406127741505e-04 2.917136878775e-05 0.0 
2.917136878775e-05 9.268398262503e-04 0.0 
0.0 0.0 -1.406784318969e-04 
-1.687115161712e-04 -3.067342872161e-05 0.0 
-3.067342872161e-05 1.136830953558e-03 0.0 
0.0 0.0 -1.687651353947e-04 
-1.585913072065e-04 2.928358840365e-05 0.0 
2.928358840365e-05 1.052859338839e-03 0.0 
0.0 0.0 -1.580633810106e-04 
-5.479081598616e-05 2.994038105978e-05 0.0 
2.994038105978e-05 3.289222848753e-04 0.0 
0.0 0.0 -5.528240989263e-05 
-1.746871843674e-04 3.283276217726e-05 0.0 
3.283276217726e-05 1.185116148222e-03 0.0 
0.0 0.0 -1.775271150753e-04 
-1.679442359996e-04 3.131022344942e-05 0.0 
3.131022344942e-05 1.115031446851e-03 0.0 
0.0 0.0 -1.675626104125e-04 
-1.221593488371e-04 3.511867114280e-05 0.0 
3.511867114280e-05 8.006612417280e-04 0.0 
0.0 0.0 -1.216572242888e-04 
-1.462466688388e-04 2.908933395677e-05 0.0 
2.908933395677e-05 9.660970915257e-04 0.0 
0.0 0.0 -1.463062179487e-04 
-1.447835164611e-04 2.956128772271e-05 0.0 
2.956128772271e-05 9.567010152770e-04 0.0 
0.0 0.0 -1.449838819924e-04 
-1.792333390310e-04 -3.168391798873e-05 0.0 
-3.168391798873e-05 1.203028324022e-03 0.0 
0.0 0.0 -1.778043281469e-04 
-1.726861877255e-04 2.779707870147e-05 0.0 
2.779707870147e-05 1.157249200719e-03 0.0 
0.0 0.0 -1.726459165900e-04 
-1.329452909279e-04 -2.927403005553e-05 0.0 
-2.927403005553e-05 8.870966851266e-04 0.0 
0.0 0.0 -1.330039573441e-04 
-1.775653267684e-04 -2.916250387629e-05 0.0 
-2.916250387629e-05 1.203364525945e-03 0.0 
0.0 0.0 -1.786308073928e-04 
-1.654805505207e-04 2.898950024976e-05 0.0 
2.898950024976e-05 1.100881704438e-03 0.0 
0.0 0.0 -1.655124361118e-04 
-1.580020696379e-04 -2.712101494930e-05 0.0 
-2.712101494930e-05 1.052848737751e-03 0.0 
0.0 0.0 -1.580622427210e-04 
-1.810952274087e-04 -3.284061138223e-05 0.0 
-3.284061138223e-05 1.222270948259e-03 0.0 
0.0 0.0 -1.815025845867e-04 
-1.775177136140e-04 -3.096279402686e-05 0.0 
-3.096279402686e-05 1.194150968252e-03 0.0 
0.0 0.0 -1.772606145979e-04 
-1.518616300347e-04 -3.096354740043e-05 0.0 
-3.096354740043e-05 1.015068895178e-03 0.0 
0.0 0.0 -1.517726872707e-04 
-1.496823891535e-04 -2.920446452269e-05 0.0 
-2.920446452269e-05 1.003862088151e-03 0.0 
0.0 0.0 -1.497848398488e-04 
-5.427687096238e-05 2.854055310501e-05 0.0 
2.854055310501e-05 3.273443379495e-04 0.0 
0.0 0.0 -5.466547164957e-05 
-5.095033440368e-05 2.883575061878e-05 0.0 
2.883575061878e-05 3.031424762161e-04 0.0 
0.0 0.0 -5.122137633346e-05 
-3.072034194903e-05 -3.506956867742e-05 0.0 
-3.506956867742e-05 1.557986335542e-04 0.0 
0.0 0.0 -2.814555096794e-05 
-1.579898709992e-05 2.384950188940e-07 0.0 
2.384950188940e-07 9.239980657952e-05 0.0 
0.0 0.0 -1.548055260559e-05 
-1.719981887166e-04 -3.054801319503e-05 0.0 
-3.054801319503e-05 1.160032239923e-03 0.0 
0.0 0.0 -1.726497055680e-04 
-1.730057153277e-04 2.894349992059e-05 0.0 
2.894349992059e-05 1.155971227885e-03 0.0 
0.0 0.0 -1.735259579760e-04 
-1.534650184937e-05 9.500651036844e-07 0.0 
9.500651036844e-07 8.883806811954e-05 0.0 
0.0 0.0 -1.543927480913e-05 
-1.729354271187e-04 -2.918916139558e-05 0.0 
-2.918916139558e-05 1.170988397774e-03 0.0 
0.0 0.0 -1.740447999656e-04 
-1.236089081148e-04 3.200079916068e-05 0.0 
3.200079916068e-05 8.273931967603e-04 0.0 
0.0 0.0 -1.265519798902e-04 
-1.594739007149e-04 -3.000529878065e-05 0.0 
-3.000529878065e-05 1.075639781327e-03 0.0 
0.0 0.0 -1.601216174199e-04 
-1.636627678593e-04 2.889886741851e-05 0.0 
2.889886741851e-05 1.086851557310e-03 0.0 
0.0 0.0 -1.635645035532e-04 
-7.625528765098e-05 2.781792169367e-05 0.0 
2.781792169367e-05 4.777485640918e-04 0.0 
0.0 0.0 -7.635943377870e-05 
-1.632628531148e-04 -2.978415075944e-05 0.0 
-2.978415075944e-05 1.096266397172e-03 0.0 
0.0 0.0 -1.631933750172e-04 
-1.207910536096e-04 -4.061404171323e-05 0.0 
-4.061404171323e-05 8.019844783726e-04 0.0 
0.0 0.0 -1.215026445147e-04 
-1.504315644849e-04 -2.965320847345e-05 0.0 
-2.965320847345e-05 1.005966507733e-03 0.0 
0.0 0.0 -1.500583224091e-04 
-1.846754410923e-04 3.352091310646e-05 0.0 
3.352091310646e-05 1.245792346023e-03 0.0 
0.0 0.0 -1.864447358774e-04 
-5.279032525833e-05 2.208619701697e-05 0.0 
2.208619701697e-05 3.133772429488e-04 0.0 
0.0 0.0 -5.313656330857e-05 
-1.831953493923e-04 -2.511536867923e-05 0.0 
-2.511536867923e-05 1.231406037521e-03 0.0 
0.0 0.0 -1.822568313532e-04 
-1.571776203955e-04 -2.822373229928e-05 0.0 
-2.822373229928e-05 1.054015413805e-03 0.0 
0.0 0.0 -1.572433088830e-04 
-5.834406746481e-05 3.055754480025e-05 0.0 
3.055754480025e-05 3.570231696704e-04 0.0 
0.0 0.0 -5.895916886618e-05 
-6.008933693805e-05 -2.693292101219e-05 0.0 
-2.693292101219e-05 3.827519316289e-04 0.0 
0.0 0.0 -6.052350288525e-05 
-1.184340009129e-04 2.989577006112e-05 0.0 
2.989577006112e-05 7.732438321287e-04 0.0 
0.0 0.0 -1.186440953039e-04 
-1.421755537841e-04 3.042033410873e-05 0.0 
3.042033410873e-05 9.320324598368e-04 0.0 
0.0 0.0 -1.411471141782e-04 
-8.083756678408e-05 2.897464216654e-05 0.0 
2.897464216654e-05 5.134881601291e-04 0.0 
0.0 0.0 -8.144657762318e-05 
-1.627359267385e-04 -3.016848544890e-05 0.0 
-3.016848544890e-05 1.091242501789e-03 0.0 
0.0 0.0 -1.627679727590e-04 
-1.463730196707e-04 -3.358422439378e-05 0.0 
-3.358422439378e-05 9.789488013624e-04 0.0 
0.0 0.0 -1.472519143444e-04 
-1.152261228612e-04 2.820263711739e-05 0.0 
2.820263711739e-05 7.517075314357e-04 0.0 
0.0 0.0 -1.155139551463e-04 
-1.539721025279e-04 -2.767350944115e-05 0.0 
-2.767350944115e-05 1.026348259349e-03 0.0 
0.0 0.0 -1.532636563680e-04 
-1.586940631686e-04 -2.997071389939e-05 0.0 
-2.997071389939e-05 1.067020467702e-03 0.0 
0.0 0.0 -1.588045401937e-04 
-1.586913358411e-04 3.263624713145e-05 0.0 
3.263624713145e-05 1.044672031080e-03 0.0 
0.0 0.0 -1.576021588438e-04 
-4.550621427776e-05 -2.757364409112e-05 0.0 
-2.757364409112e-05 2.786110438531e-04 0.0 
0.0 0.0 -4.588123838153e-05 
-1.095812830794e-04 2.804439789498e-05 0.0 
2.804439789498e-05 7.132223363853e-04 0.0 
0.0 0.0 -1.099287363951e-04 
-1.704275424327e-04 3.124314915643e-05 0.0 
3.124314915643e-05 1.141631777300e-03 0.0 
0.0 0.0 -1.711692687607e-04 
-1.617652388930e-04 -2.976223953276e-05 0.0 
-2.976223953276e-05 1.085248624266e-03 0.0 
0.0 0.0 -1.617298285672e-04 
-9.932779323652e-05 3.247070041484e-05 0.0 
3.247070041484e-05 6.407303244551e-04 0.0 
0.0 0.0 -1.000025319772e-04 
-1.372362599773e-04 -2.929140934786e-05 0.0 
-2.929140934786e-05 9.170515288159e-04 0.0 
0.0 0.0 -1.372955424611e-04 
-1.781532306591e-04 -3.038825115168e-05 0.0 
-3.038825115168e-05 1.202531523701e-03 0.0 
0.0 0.0 -1.781379491294e-04 
-1.507990336472e-04 2.853112124702e-05 0.0 
2.853112124702e-05 1.007077831849e-03 0.0 
0.0 0.0 -1.520953659658e-04 
-2.863924773083e-05 -3.201515123380e-05 0.0 
-3.201515123380e-05 1.478580457183e-04 0.0 
0.0 0.0 -2.710093308172e-05 
-2.955220796048e-05 -3.089794713249e-05 0.0 
-3.089794713249e-05 1.503888673604e-04 0.0 
0.0 0.0 -2.753304043464e-05 
-5.273989345688e-05 -2.717936029267e-05 0.0 
-2.717936029267e-05 3.233117972350e-04 0.0 
0.0 0.0 -5.201063495363e-05 
-1.693284171481e-04 3.002349955065e-05 0.0 
3.002349955065e-05 1.126502264070e-03 0.0 
0.0 0.0 -1.691756543757e-04 
-1.472485094623e-04 2.900717882423e-05 0.0 
2.900717882423e-05 9.697797839987e-04 0.0 
0.0 0.0 -1.466250473148e-04 
-1.255735830660e-04 -3.222245594843e-05 0.0 
-3.222245594843e-05 8.565507458900e-04 0.0 
0.0 0.0 -1.276957716749e-04 
-1.309605655324e-04 2.844392373699e-05 0.0 
2.844392373699e-05 8.631762486065e-04 0.0 
0.0 0.0 -1.311842221922e-04 
-1.705994579248e-04 -2.912195010466e-05 0.0 
-2.912195010466e-05 1.150350461823e-03 0.0 
0.0 0.0 -1.708795005752e-04 
-1.197229653638e-04 2.838848019244e-05 0.0 
2.838848019244e-05 7.818358523863e-04 0.0 
0.0 0.0 -1.198307167265e-04 
-1.587419479579e-04 2.931310418594e-05 0.0 
2.931310418594e-05 1.056312831607e-03 0.0 
0.0 0.0 -1.592449238259e-04 
-5.334541196780e-05 -2.737759313696e-05 0.0 
-2.737759313696e-05 3.380073693947e-04 0.0 
0.0 0.0 -5.422683465997e-05 
-1.820085836177e-04 3.596926237720e-05 0.0 
3.596926237720e-05 1.220521251632e-03 0.0 
0.0 0.0 -1.817296696507e-04 
-1.149006963939e-04 -2.979806393901e-05 0.0 
-2.979806393901e-05 7.621150101384e-04 0.0 
0.0 0.0 -1.150969102169e-04 
-5.891651114318e-05 -2.911512363173e-05 0.0 
-2.911512363173e-05 3.703729731158e-04 0.0 
0.0 0.0 -5.833749487792e-05 
-1.097144826368e-04 -3.210843000057e-05 0.0 
-3.210843000057e-05 7.218042111898e-04 0.0 
0.0 0.0 -1.096669806773e-04 
-8.504854609334e-05 2.789969650457e-05 0.0 
2.789969650457e-05 5.434275787344e-04 0.0 
0.0 0.0 -8.575010502696e-05 
-6.662869610533e-05 -2.920394233023e-05 0.0 
-2.920394233023e-05 4.253303798385e-04 0.0 
0.0 0.0 -6.679150530213e-05 
-1.281203035701e-04 2.817302591064e-05 0.0 
2.817302591064e-05 8.398276961004e-04 0.0 
0.0 0.0 -1.284742647491e-04 
0.0 0.0 0.0 
0.0 0.0 0.0 
0.0 0.0 0.0 
0.0 0.0 0.0 
0.0 0.0 0.0 
0.0 0.0 0.0 
-1.445088964832e-04 -2.893688476098e-05 0.0 
-2.893688476098e-05 9.674073108634e-04 0.0 
0.0 0.0 -1.445400849015e-04 
-4.892423638284e-05 -2.632452238192e-05 0.0 
-2.632452238192e-05 3.096365629157e-04 0.0 
0.0 0.0 -5.004674077938e-05 
-1.457493822096e-04 -2.962474104525e-05 0.0 
-2.962474104525e-05 9.767716228798e-04 0.0 
0.0 0.0 -1.458658349781e-04 
-1.415183033580e-04 -2.921664079038e-05 0.0 
-2.921664079038e-05 9.471227879207e-04 0.0 
0.0 0.0 -1.415771022166e-04 
-9.224355795817e-05 2.937565561905e-05 0.0 
2.937565561905e-05 5.919004124542e-04 0.0 
0.0 0.0 -9.266636470267e-05 
-6.202111907479e-05 2.972814442546e-05 0.0 
2.972814442546e-05 3.814986374049e-04 0.0 
0.0 0.0 -6.243334508123e-05 
-1.705073254263e-04 -3.058386286971e-05 0.0 
-3.058386286971e-05 1.147565254188e-03 0.0 
0.0 0.0 -1.706579733040e-04 
-3.233825504350e-05 -1.324403429526e-05 0.0 
-1.324403429526e-05 1.436007537479e-04 0.0 
0.0 0.0 -3.071301381923e-05 
-9.032577727252e-05 2.603440625466e-05 0.0 
2.603440625466e-05 5.755517471348e-04 0.0 
0.0 0.0 -9.007223908940e-05 
-1.758201471036e-04 -2.496828995894e-05 0.0 
-2.496828995894e-05 1.183557369344e-03 0.0 
0.0 0.0 -1.763300484694e-04 
-4.234236352950e-05 2.833023666619e-05 0.0 
2.833023666619e-05 2.526301394403e-04 0.0 
0.0 0.0 -4.466356309917e-05 
-1.370406890181e-04 -2.882178052615e-05 0.0 
-2.882178052615e-05 9.084977336144e-04 0.0 
0.0 0.0 -1.363328868096e-04 
-1.251017907088e-04 -3.342170659080e-05 0.0 
-3.342170659080e-05 8.360831923250e-04 0.0 
0.0 0.0 -1.262442940543e-04 
-4.243995648314e-05 -2.885964126201e-05 0.0 
-2.885964126201e-05 2.574366796815e-04 0.0 
0.0 0.0 -4.263591946142e-05 
-1.739889600423e-04 -2.690839563986e-05 0.0 
-2.690839563986e-05 1.171323703451e-03 0.0 
0.0 0.0 -1.738083055154e-04 
-1.553384911707e-04 -2.978982874275e-05 0.0 
-2.978982874275e-05 1.040098894659e-03 0.0 
0.0 0.0 -1.552347842588e-04 
-5.039241409165e-05 2.679614467153e-05 0.0 
2.679614467153e-05 2.983848210045e-04 0.0 
0.0 0.0 -5.046983505462e-05 
-1.747728255798e-04 -2.774380167709e-05 0.0 
-2.774380167709e-05 1.177437247902e-03 0.0 
0.0 0.0 -1.749780669508e-04 
-1.757727651253e-04 2.551606084145e-05 0.0 
2.551606084145e-05 1.168074540028e-03 0.0 
0.0 0.0 -1.753502448874e-04 
-5.505726652839e-05 -3.093038002705e-05 0.0 
-3.093038002705e-05 3.465532391474e-04 0.0 
0.0 0.0 -5.552857102027e-05 
-7.317029843834e-05 -3.194987778490e-05 0.0 
-3.194987778490e-05 4.614269377597e-04 0.0 
0.0 0.0 -7.202002872087e-05 
-5.677279645057e-05 -2.927873741732e-05 0.0 
-2.927873741732e-05 3.560995133108e-04 0.0 
0.0 0.0 -5.686660089389e-05 
-1.535151853389e-04 -2.933036748660e-05 0.0 
-2.933036748660e-05 1.036192859014e-03 0.0 
0.0 0.0 -1.544885262514e-04 
-1.242530601195e-04 2.861329611066e-05 0.0 
2.861329611066e-05 8.120316343009e-04 0.0 
0.0 0.0 -1.241455235793e-04 
-1.762597939278e-04 2.757012001528e-05 0.0 
2.757012001528e-05 1.169740478878e-03 0.0 
0.0 0.0 -1.754294197466e-04 
-1.711850229745e-04 2.864038460658e-05 0.0 
2.864038460658e-05 1.139237277346e-03 0.0 
0.0 0.0 -1.710046063662e-04 
-1.497953027623e-04 -2.952090845357e-05 0.0 
-2.952090845357e-05 1.006551656477e-03 0.0 
0.0 0.0 -1.501751650533e-04 
-1.503962620125e-04 2.908649725408e-05 0.0 
2.908649725408e-05 9.959224082837e-04 0.0 
0.0 0.0 -1.506140208444e-04 
-4.755962799573e-05 2.961725835591e-05 0.0 
2.961725835591e-05 2.764290125414e-04 0.0 
0.0 0.0 -4.738039998630e-05 
-1.544053010064e-04 2.921080048960e-05 0.0 
2.921080048960e-05 1.025561320549e-03 0.0 
0.0 0.0 -1.549280912548e-04 
-1.557486119605e-04 2.953656624643e-05 0.0 
2.953656624643e-05 1.031918401575e-03 0.0 
0.0 0.0 -1.555717122721e-04 
-1.233043498576e-04 -2.852184502998e-05 0.0 
-2.852184502998e-05 8.222615261922e-04 0.0 
0.0 0.0 -1.237306916726e-04 
-1.467661945651e-04 -2.993950527874e-05 0.0 
-2.993950527874e-05 9.778837446955e-04 0.0 
0.0 0.0 -1.462911275235e-04 
-1.606564974618e-04 -3.021309399430e-05 0.0 
-3.021309399430e-05 1.078198516753e-03 0.0 
0.0 0.0 -1.607123627396e-04 
-1.117498861518e-04 2.850262572474e-05 0.0 
2.850262572474e-05 7.245894762642e-04 0.0 
0.0 0.0 -1.115305788895e-04 
-1.668451985095e-04 2.929977478704e-05 0.0 
2.929977478704e-05 1.108305524184e-03 0.0 
0.0 0.0 -1.665387401245e-04 
-1.057225299962e-04 3.155313044250e-05 0.0 
3.155313044250e-05 6.826770249726e-04 0.0 
0.0 0.0 -1.044775758143e-04 
-1.196746585436e-04 -2.994940432812e-05 0.0 
-2.994940432812e-05 7.923200024953e-04 0.0 
0.0 0.0 -1.194095964715e-04 
-8.002674295402e-05 3.358846946639e-05 0.0 
3.358846946639e-05 5.079680145232e-04 0.0 
0.0 0.0 -8.013437995356e-05 
-8.330364669840e-05 -2.724402051282e-05 0.0 
-2.724402051282e-05 5.442521817240e-04 0.0 
0.0 0.0 -8.372375584921e-05 
-1.515465133375e-04 2.950843049766e-05 0.0 
2.950843049766e-05 1.000906494757e-03 0.0 
0.0 0.0 -1.511009726023e-04 
-1.144286686682e-04 -2.867408820424e-05 0.0 
-2.867408820424e-05 7.585750249113e-04 0.0 
0.0 0.0 -1.145674989690e-04 
-6.084802831260e-05 -2.991902315111e-05 0.0 
-2.991902315111e-05 3.860715331104e-04 0.0 
0.0 0.0 -6.116241410045e-05 
-3.353257843682e-05 -2.498074177198e-05 0.0 
-2.498074177198e-05 1.896944408225e-04 0.0 
0.0 0.0 -3.278510925449e-05 
-1.508054349256e-04 -2.953924267332e-05 0.0 
-2.953924267332e-05 1.009022901988e-03 0.0 
0.0 0.0 -1.507672500721e-04 
-6.144560576959e-05 2.946678310881e-05 0.0 
2.946678310881e-05 3.752423857179e-04 0.0 
0.0 0.0 -6.160741095528e-05 
-1.795193782850e-04 3.015966066455e-05 0.0 
3.015966066455e-05 1.220916437867e-03 0.0 
0.0 0.0 -1.828075300492e-04 
-1.564210717973e-04 2.928181705796e-05 0.0 
2.928181705796e-05 1.038697099430e-03 0.0 
0.0 0.0 -1.565825172896e-04 
-1.601803915316e-04 2.879046078541e-05 0.0 
2.879046078541e-05 1.065098279090e-03 0.0 
0.0 0.0 -1.605560195386e-04 
-1.924510169718e-04 -3.681008615861e-06 0.0 
-3.681008615861e-06 1.266195614385e-03 0.0 
0.0 0.0 -1.927094427628e-04 
-9.917312679716e-05 -3.248065919378e-05 0.0 
-3.248065919378e-05 6.537270345769e-04 0.0 
0.0 0.0 -9.956065683389e-05 
-5.578848237072e-05 2.919143814272e-05 0.0 
2.919143814272e-05 3.356753976095e-04 0.0 
0.0 0.0 -5.597427817213e-05 
-3.764707681470e-05 3.152158318827e-05 0.0 
3.152158318827e-05 2.055269805242e-04 0.0 
0.0 0.0 -3.744316153082e-05 
-1.513908916278e-04 -2.965358922743e-05 0.0 
-2.965358922743e-05 1.015985434205e-03 0.0 
0.0 0.0 -1.514863114221e-04 
-1.425433722621e-04 3.012022841548e-05 0.0 
3.012022841548e-05 9.394937491690e-04 0.0 
0.0 0.0 -1.421023406183e-04 
-2.681800511095e-05 2.581926760662e-05 0.0 
2.581926760662e-05 1.385235032261e-04 0.0 
0.0 0.0 -2.788272662613e-05 
-7.959731755198e-05 -2.970357934053e-05 0.0 
-2.970357934053e-05 5.241419312225e-04 0.0 
0.0 0.0 -8.100711145360e-05 
-4.597324572621e-05 -2.624539862290e-05 0.0 
-2.624539862290e-05 3.001894932538e-04 0.0 
0.0 0.0 -4.869105516194e-05 
-1.408940546525e-04 -2.794056746742e-05 0.0 
-2.794056746742e-05 9.400214273018e-04 0.0 
0.0 0.0 -1.408175133641e-04 
-8.220239972126e-05 -3.150539897154e-05 0.0 
-3.150539897154e-05 5.540054204137e-04 0.0 
0.0 0.0 -8.531818138572e-05 
-1.420072539078e-04 2.886098902268e-05 0.0 
2.886098902268e-05 9.363360353424e-04 0.0 
0.0 0.0 -1.420190347897e-04 
-8.142682941929e-05 -3.127687653374e-05 0.0 
-3.127687653374e-05 5.123505803199e-04 0.0 
0.0 0.0 -8.006333120906e-05 
-1.676020446456e-04 -3.106665135098e-05 0.0 
-3.106665135098e-05 1.123875757488e-03 0.0 
0.0 0.0 -1.672214290798e-04 
-7.117572739314e-05 2.988293947474e-05 0.0 
2.988293947474e-05 4.447820599446e-04 0.0 
0.0 0.0 -7.152995986871e-05 
-1.528626195223e-04 -2.956851905674e-05 0.0 
-2.956851905674e-05 1.025224946446e-03 0.0 
0.0 0.0 -1.527886262531e-04 
-5.059375724921e-05 -2.868524116335e-05 0.0 
-2.868524116335e-05 3.156970290875e-04 0.0 
0.0 0.0 -5.064650353833e-05 
-1.471629417592e-04 -2.959313709753e-05 0.0 
-2.959313709753e-05 9.860061145689e-04 0.0 
0.0 0.0 -1.471833001180e-04 
-1.144539418112e-04 -2.473861065929e-05 0.0 
-2.473861065929e-05 7.560825404925e-04 0.0 
0.0 0.0 -1.140633649831e-04 
-1.560905633689e-04 2.900023350889e-05 0.0 
2.900023350889e-05 1.035339225371e-03 0.0 
0.0 0.0 -1.562332567718e-04 
-8.041016399686e-05 2.814724334195e-05 0.0 
2.814724334195e-05 5.070504478833e-04 0.0 
0.0 0.0 -8.025424390503e-05 
-4.885024697967e-05 3.157288993858e-05 0.0 
3.157288993858e-05 2.863708627365e-04 0.0 
0.0 0.0 -4.915965252508e-05 
-1.306396509784e-04 -2.896286188210e-05 0.0 
-2.896286188210e-05 8.760759259617e-04 0.0 
0.0 0.0 -1.318090263425e-04 
-1.421840376928e-04 -2.883026291404e-05 0.0 
-2.883026291404e-05 9.494244979280e-04 0.0 
0.0 0.0 -1.419644564515e-04 
-1.018318441446e-04 2.874180221663e-05 0.0 
2.874180221663e-05 6.553763140814e-04 0.0 
0.0 0.0 -1.016412246321e-04 
-1.420263861118e-04 -3.127951009604e-05 0.0 
-3.127951009604e-05 9.447561927313e-04 0.0 
0.0 0.0 -1.417981522837e-04 
-5.634120637729e-05 -2.901059335072e-05 0.0 
-2.901059335072e-05 3.528621573190e-04 0.0 
0.0 0.0 -5.638371198943e-05 
-1.449671090102e-04 2.903465807275e-05 0.0 
2.903465807275e-05 9.569114950414e-04 0.0 
0.0 0.0 -1.446420687869e-04 
-4.539864356175e-05 -2.892446416447e-05 0.0 
-2.892446416447e-05 2.698402511523e-04 0.0 
0.0 0.0 -4.421511183446e-05 
-1.729769140722e-04 -3.077324556460e-05 0.0 
-3.077324556460e-05 1.164178924141e-03 0.0 
0.0 0.0 -1.725604168134e-04 
-1.475790650913e-04 -2.860800824990e-05 0.0 
-2.860800824990e-05 9.878754875081e-04 0.0 
0.0 0.0 -1.475206686141e-04 
-1.559172333653e-04 -2.909982133967e-05 0.0 
-2.909982133967e-05 1.044176401684e-03 0.0 
0.0 0.0 -1.555576518016e-04 
-1.814415509393e-04 -3.096082582331e-05 0.0 
-3.096082582331e-05 1.219536896500e-03 0.0 
0.0 0.0 -1.806695418618e-04 
-1.243391768637e-04 -2.906810919430e-05 0.0 
-2.906810919430e-05 8.271957787415e-04 0.0 
0.0 0.0 -1.244215412621e-04 
-4.664731672080e-05 2.860386537301e-05 0.0 
2.860386537301e-05 2.677194554706e-04 0.0 
0.0 0.0 -4.622233884158e-05 
-1.385662832492e-04 -2.918174486768e-05 0.0 
-2.918174486768e-05 9.260656173097e-04 0.0 
0.0 0.0 -1.385923280275e-04 
-1.786563386237e-04 3.101548389749e-05 0.0 
3.101548389749e-05 1.192786428697e-03 0.0 
0.0 0.0 -1.784944650888e-04 
-7.162593897649e-05 -2.768839620490e-05 0.0 
-2.768839620490e-05 4.607586366936e-04 0.0 
0.0 0.0 -7.179147874927e-05 
-1.555062997913e-04 -2.993363634807e-05 0.0 
-2.993363634807e-05 1.045876444410e-03 0.0 
0.0 0.0 -1.558013491646e-04 
-1.563360137049e-04 -3.042238300922e-05 0.0 
-3.042238300922e-05 1.046916559821e-03 0.0 
0.0 0.0 -1.562447224125e-04 
-5.757013598642e-05 2.991181572022e-05 0.0 
2.991181572022e-05 3.517212459558e-04 0.0 
0.0 0.0 -5.821047451129e-05 
-1.428729262720e-04 -2.942561466243e-05 0.0 
-2.942561466243e-05 9.560791547854e-04 0.0 
0.0 0.0 -1.428864875989e-04 
-1.287965022508e-04 -2.896617927485e-05 0.0 
-2.896617927485e-05 8.622522049021e-04 0.0 
0.0 0.0 -1.299469088572e-04 
-6.374853467835e-05 -2.810218119480e-05 0.0 
-2.810218119480e-05 4.066202706617e-04 0.0 
0.0 0.0 -6.420979177598e-05 
-7.595105816060e-05 -2.936393149418e-05 0.0 
-2.936393149418e-05 4.942830544211e-04 0.0 
0.0 0.0 -7.670872189436e-05 
-1.201712666697e-04 -2.803941660002e-05 0.0 
-2.803941660002e-05 7.961944137223e-04 0.0 
0.0 0.0 -1.200650238334e-04 
-1.519360189963e-04 2.891732000513e-05 0.0 
2.891732000513e-05 1.005387589283e-03 0.0 
0.0 0.0 -1.519214610183e-04 
-9.356553445047e-05 -2.682931258762e-05 0.0 
-2.682931258762e-05 6.080636784229e-04 0.0 
0.0 0.0 -9.302852286394e-05 
-1.148225546297e-04 -2.766542218562e-05 0.0 
-2.766542218562e-05 7.592972424786e-04 0.0 
0.0 0.0 -1.147482613702e-04 
-1.503198881368e-04 2.949228603565e-05 0.0 
2.949228603565e-05 9.943051761167e-04 0.0 
0.0 0.0 -1.501005480629e-04 
-1.374005660342e-04 3.157606201505e-05 0.0 
3.157606201505e-05 9.005540063851e-04 0.0 
0.0 0.0 -1.366500051239e-04 
-1.347749466574e-04 2.885807283713e-05 0.0 
2.885807283713e-05 8.878066807984e-04 0.0 
0.0 0.0 -1.347600488312e-04 
-1.145362197550e-04 2.550352213040e-05 0.0 
2.550352213040e-05 7.456789542705e-04 0.0 
0.0 0.0 -1.144140342440e-04 
-1.695537970541e-04 -2.847502421030e-05 0.0 
-2.847502421030e-05 1.141434530816e-03 0.0 
0.0 0.0 -1.695946584253e-04 
-1.342454359541e-04 -2.916302751234e-05 0.0 
-2.916302751234e-05 8.959753783056e-04 0.0 
0.0 0.0 -1.342994322642e-04 
-1.322842234433e-04 -2.713149803653e-05 0.0 
-2.713149803653e-05 8.716283599231e-04 0.0 
0.0 0.0 -1.308078780678e-04 
-1.770483125758e-04 -3.816029544209e-05 0.0 
-3.816029544209e-05 1.206702644282e-03 0.0 
0.0 0.0 -1.790376217081e-04 
-1.611476114444e-04 -3.043480837471e-05 0.0 
-3.043480837471e-05 1.081441463167e-03 0.0 
0.0 0.0 -1.610150566254e-04 
-1.476770815163e-04 2.899987339716e-05 0.0 
2.899987339716e-05 9.753794939162e-04 0.0 
0.0 0.0 -1.476201541636e-04 
-1.611330782201e-04 2.905567155013e-05 0.0 
2.905567155013e-05 1.069983027336e-03 0.0 
0.0 0.0 -1.610516503497e-04 
-8.740593351110e-05 -2.912313751195e-05 0.0 
-2.912313751195e-05 5.726625862703e-04 0.0 
0.0 0.0 -8.793939796372e-05 
-8.171492670432e-05 -2.932902119484e-05 0.0 
-2.932902119484e-05 5.334328304052e-04 0.0 
0.0 0.0 -8.232547559154e-05 
-4.800447364230e-05 -3.012015532788e-05 0.0 
-3.012015532788e-05 2.869100395093e-04 0.0 
0.0 0.0 -4.696026287600e-05 
-1.441554214945e-04 -2.906909676708e-05 0.0 
-2.906909676708e-05 9.649388349351e-04 0.0 
0.0 0.0 -1.441889713514e-04 
-8.596373130116e-05 -2.989926546104e-05 0.0 
-2.989926546104e-05 5.634483412629e-04 0.0 
0.0 0.0 -8.662504503560e-05 
-1.451435112077e-04 -2.967645824646e-05 0.0 
-2.967645824646e-05 9.706064754812e-04 0.0 
0.0 0.0 -1.452980301833e-04 
-1.396166376490e-04 -3.014351176356e-05 0.0 
-3.014351176356e-05 9.327092269117e-04 0.0 
0.0 0.0 -1.398369520768e-04 
-1.154194635136e-04 -2.909513876125e-05 0.0 
-2.909513876125e-05 7.637657077962e-04 0.0 
0.0 0.0 -1.153554527486e-04 
-7.239252784308e-05 2.950013499781e-05 0.0 
2.950013499781e-05 4.534037638191e-04 0.0 
0.0 0.0 -7.290299529228e-05 
-7.749228313482e-05 2.843063642712e-05 0.0 
2.843063642712e-05 4.849158394470e-04 0.0 
0.0 0.0 -7.722881688633e-05 
-7.663260260600e-05 2.940565300322e-05 0.0 
2.940565300322e-05 4.835296870814e-04 0.0 
0.0 0.0 -7.715173463647e-05 
-8.222724475915e-05 2.943935483783e-05 0.0 
2.943935483783e-05 5.226854242882e-04 0.0 
0.0 0.0 -8.276944949314e-05 
-5.179916544049e-05 2.954513306229e-05 0.0 
2.954513306229e-05 3.061348363473e-04 0.0 
0.0 0.0 -5.170396853346e-05 
-1.651578227306e-04 -2.992587384468e-05 0.0 
-2.992587384468e-05 1.111733425696e-03 0.0 
0.0 0.0 -1.652773843454e-04 
-9.948855107052e-05 2.885367954846e-05 0.0 
2.885367954846e-05 6.405116978971e-04 0.0 
0.0 0.0 -9.964436741213e-05 
-1.662477458002e-04 -3.047676524263e-05 0.0 
-3.047676524263e-05 1.116582984939e-03 0.0 
0.0 0.0 -1.661983567841e-04 
-1.051663505476e-04 2.891924803496e-05 0.0 
2.891924803496e-05 6.798882607135e-04 0.0 
0.0 0.0 -1.051955911267e-04 
-1.389859752123e-04 2.935926346480e-05 0.0 
2.935926346480e-05 9.155140148814e-04 0.0 
0.0 0.0 -1.390270654409e-04 
-1.191970428493e-04 2.933621105808e-05 0.0 
2.933621105808e-05 7.778286910325e-04 0.0 
0.0 0.0 -1.192747742027e-04 
-1.135913502195e-04 -2.809027510556e-05 0.0 
-2.809027510556e-05 7.506742469309e-04 0.0 
0.0 0.0 -1.135115339107e-04 
-5.106044890974e-05 -2.876916180737e-05 0.0 
-2.876916180737e-05 3.172111510085e-04 0.0 
0.0 0.0 -5.125664266653e-05 
-1.752549930891e-04 2.732480278546e-05 0.0 
2.732480278546e-05 1.160084193771e-03 0.0 
0.0 0.0 -1.742537888328e-04 
-1.812425183446e-04 -3.207933204969e-05 0.0 
-3.207933204969e-05 1.217777268391e-03 0.0 
0.0 0.0 -1.798074479024e-04 
-1.447184212035e-04 2.760935291747e-05 0.0 
2.760935291747e-05 9.561038377489e-04 0.0 
0.0 0.0 -1.447555322295e-04 
-8.799170026550e-05 2.995591967052e-05 0.0 
2.995591967052e-05 5.618551981543e-04 0.0 
0.0 0.0 -8.838578500301e-05 
-1.291031073422e-04 2.928905617391e-05 0.0 
2.928905617391e-05 8.466471064723e-04 0.0 
0.0 0.0 -1.291430278065e-04 
-1.459743152275e-04 3.063361272201e-05 0.0 
3.063361272201e-05 9.624952180302e-04 0.0 
0.0 0.0 -1.456278041792e-04 
-9.171757827104e-05 -2.955677248983e-05 0.0 
-2.955677248983e-05 6.024985060915e-04 0.0 
0.0 0.0 -9.223187090242e-05 
-9.603230277326e-05 -2.698956011667e-05 0.0 
-2.698956011667e-05 6.292701278524e-04 0.0 
0.0 0.0 -9.591352384746e-05 
-7.135185944171e-05 -2.955414223554e-05 0.0 
-2.955414223554e-05 4.555824851191e-04 0.0 
0.0 0.0 -7.108646760088e-05 
-6.173474433371e-05 -2.821557394065e-05 0.0 
-2.821557394065e-05 3.922513376835e-04 0.0 
0.0 0.0 -6.198456146935e-05 
-9.316424430426e-05 -2.882780269440e-05 0.0 
-2.882780269440e-05 6.119471839096e-04 0.0 
0.0 0.0 -9.355109297069e-05 
-6.583505479960e-05 2.848905537375e-05 0.0 
2.848905537375e-05 4.054485477537e-04 0.0 
0.0 0.0 -6.590301617946e-05 
-5.935575914896e-05 -3.007558356553e-05 0.0 
-3.007558356553e-05 3.768942854085e-04 0.0 
0.0 0.0 -5.983332410254e-05 
-1.186940583282e-04 -2.896555378225e-05 0.0 
-2.896555378225e-05 7.883535485114e-04 0.0 
0.0 0.0 -1.188421469351e-04 
-1.433278607698e-04 2.930912982368e-05 0.0 
2.930912982368e-05 9.454702771552e-04 0.0 
0.0 0.0 -1.433226991522e-04 
-1.697903046334e-04 2.624054691426e-05 0.0 
2.624054691426e-05 1.127471310275e-03 0.0 
0.0 0.0 -1.692916167909e-04 
-1.151638097456e-05 7.698944133971e-06 0.0 
7.698944133971e-06 4.425408472007e-05 0.0 
0.0 0.0 -7.213325994108e-06 
-1.023191081859e-04 2.827729942445e-05 0.0 
2.827729942445e-05 6.591938883861e-04 0.0 
0.0 0.0 -1.022830222654e-04 
-1.009919753862e-04 2.844629819877e-05 0.0 
2.844629819877e-05 6.501505763727e-04 0.0 
0.0 0.0 -1.009864671718e-04 
-9.380039017869e-05 2.950262979894e-05 0.0 
2.950262979894e-05 6.011532312502e-04 0.0 
0.0 0.0 -9.402143779290e-05 
-1.401352914634e-04 2.989136649985e-05 0.0 
2.989136649985e-05 9.247108301771e-04 0.0 
0.0 0.0 -1.401624631175e-04 
-1.092974960508e-04 2.941276833440e-05 0.0 
2.941276833440e-05 7.090642486070e-04 0.0 
0.0 0.0 -1.094316366672e-04 
-7.543451708232e-05 3.049036373989e-05 0.0 
3.049036373989e-05 4.754198894243e-04 0.0 
0.0 0.0 -7.582576345695e-05 
-9.891173193058e-05 -2.816068551534e-05 0.0 
-2.816068551534e-05 6.514539666403e-04 0.0 
0.0 0.0 -9.917482013514e-05 
-1.630278650561e-04 2.958590404027e-05 0.0 
2.958590404027e-05 1.077076320853e-03 0.0 
0.0 0.0 -1.620679414655e-04 
-7.702359286568e-05 -2.963111287796e-05 0.0 
-2.963111287796e-05 4.862675717220e-04 0.0 
0.0 0.0 -7.538495559814e-05 
-3.103148260616e-05 2.671216949097e-05 0.0 
2.671216949097e-05 1.654737900210e-04 0.0 
0.0 0.0 -3.198827131509e-05 
-4.232169889993e-05 2.776421737267e-05 0.0 
2.776421737267e-05 2.393069009664e-04 0.0 
0.0 0.0 -4.176863060321e-05 
-6.634744212772e-05 2.949925572575e-05 0.0 
2.949925572575e-05 4.106962890164e-04 0.0 
0.0 0.0 -6.666360735527e-05 
-7.816150117384e-05 2.918629348564e-05 0.0 
2.918629348564e-05 4.928270898341e-04 0.0 
0.0 0.0 -7.858957244827e-05 
-1.065476951188e-04 2.906412835157e-05 0.0 
2.906412835157e-05 6.891124057052e-04 0.0 
0.0 0.0 -1.064874080537e-04 
-1.046128651473e-04 -2.789283442515e-05 0.0 
-2.789283442515e-05 6.906263249349e-04 0.0 
0.0 0.0 -1.047611508630e-04 
-4.666634849019e-05 -3.250127183419e-05 0.0 
-3.250127183419e-05 2.826590938430e-04 0.0 
0.0 0.0 -4.639139346366e-05 
-4.422650169735e-05 -3.160442122719e-05 0.0 
-3.160442122719e-05 2.477476152980e-04 0.0 
0.0 0.0 -4.147803243573e-05 
-1.354421094691e-04 -3.477058406277e-05 0.0 
-3.477058406277e-05 8.849155839961e-04 0.0 
0.0 0.0 -1.332761831430e-04 
-6.529992034190e-05 -3.112094005781e-05 0.0 
-3.112094005781e-05 4.161966199991e-04 0.0 
0.0 0.0 -6.545963842888e-05 
-1.599173792757e-04 2.884984773938e-05 0.0 
2.884984773938e-05 1.062308732050e-03 0.0 
0.0 0.0 -1.601101668940e-04 
-1.640145792258e-04 2.789294437519e-05 0.0 
2.789294437519e-05 1.089847340667e-03 0.0 
0.0 0.0 -1.640071129216e-04 
-1.358364218526e-04 -2.864773194701e-05 0.0 
-2.864773194701e-05 9.015663085663e-04 0.0 
0.0 0.0 -1.352075507658e-04 
-1.691090522456e-04 2.845331053896e-05 0.0 
2.845331053896e-05 1.125515006597e-03 0.0 
0.0 0.0 -1.689126476464e-04 
-1.733194685301e-04 2.616049938131e-05 0.0 
2.616049938131e-05 1.162751062090e-03 0.0 
0.0 0.0 -1.746466296582e-04 
-1.113103175969e-04 -2.904492495481e-05 0.0 
-2.904492495481e-05 7.344679781971e-04 0.0 
0.0 0.0 -1.111327575513e-04 
-1.543419338426e-04 2.788856242459e-05 0.0 
2.788856242459e-05 1.022661884889e-03 0.0 
0.0 0.0 -1.543563508806e-04 
-5.167148472389e-05 -2.833543670219e-05 0.0 
-2.833543670219e-05 3.235982211277e-04 0.0 
0.0 0.0 -5.212100276158e-05 
-1.031213424207e-04 -2.889239140152e-05 0.0 
-2.889239140152e-05 6.806580574394e-04 0.0 
0.0 0.0 -1.034186014727e-04 
-1.034709279330e-04 2.786266615920e-05 0.0 
2.786266615920e-05 6.660582760632e-04 0.0 
0.0 0.0 -1.031952205665e-04 
-6.028919658758e-05 2.668092513971e-05 0.0 
2.668092513971e-05 3.649654199911e-04 0.0 
0.0 0.0 -5.961607156176e-05 
-4.213494566204e-05 -2.931849266110e-05 0.0 
-2.931849266110e-05 2.567319807664e-04 0.0 
0.0 0.0 -4.220635737303e-05 
-8.654776667846e-05 2.918952194239e-05 0.0 
2.918952194239e-05 5.528325958387e-04 0.0 
0.0 0.0 -8.706093026186e-05 
-1.004769780148e-04 -2.772227019028e-05 0.0 
-2.772227019028e-05 6.610823099679e-04 0.0 
0.0 0.0 -1.005514351764e-04 
-1.060430099672e-04 -2.796832696173e-05 0.0 
-2.796832696173e-05 6.996637265558e-04 0.0 
0.0 0.0 -1.060597130133e-04 
-7.058429708504e-05 2.696376381882e-05 0.0 
2.696376381882e-05 4.358412197202e-04 0.0 
0.0 0.0 -7.020228199149e-05 
-1.149702114763e-04 2.916861666016e-05 0.0 
2.916861666016e-05 7.482016199016e-04 0.0 
0.0 0.0 -1.149926572041e-04 
-1.018961975089e-04 -2.764432959957e-05 0.0 
-2.764432959957e-05 6.700658488310e-04 0.0 
0.0 0.0 -1.018518768314e-04 
-1.078880338181e-04 2.829261719461e-05 0.0 
2.829261719461e-05 6.977513239732e-04 0.0 
0.0 0.0 -1.077528216683e-04 
-7.751274952550e-05 -2.834816828620e-05 0.0 
-2.834816828620e-05 5.042136075216e-04 0.0 
0.0 0.0 -7.808165313150e-05 
-1.487528116968e-04 -2.959551626362e-05 0.0 
-2.959551626362e-05 9.968448808877e-04 0.0 
0.0 0.0 -1.488167264463e-04 
-1.501088830239e-04 -3.002822277470e-05 0.0 
-3.002822277470e-05 1.002368649967e-03 0.0 
0.0 0.0 -1.497700977071e-04 
-1.036611104552e-04 2.803937657742e-05 0.0 
2.803937657742e-05 6.681495958179e-04 0.0 
0.0 0.0 -1.035656927818e-04 
-1.696613133079e-04 2.895531178363e-05 0.0 
2.895531178363e-05 1.131067865055e-03 0.0 
0.0 0.0 -1.700243568296e-04 
-5.727268235776e-05 -2.821956991103e-05 0.0 
-2.821956991103e-05 3.625919856272e-04 0.0 
0.0 0.0 -5.774536142498e-05 
-1.807378797874e-04 3.083863400090e-05 0.0 
3.083863400090e-05 1.216171179677e-03 0.0 
0.0 0.0 -1.812757540428e-04 
-1.107278423169e-04 2.926924818457e-05 0.0 
2.926924818457e-05 7.182977638167e-04 0.0 
0.0 0.0 -1.107203250571e-04 
-1.769840871489e-04 3.489293866335e-05 0.0 
3.489293866335e-05 1.208578847919e-03 0.0 
0.0 0.0 -1.805188677947e-04 
-1.376232392385e-04 -2.850354822354e-05 0.0 
-2.850354822354e-05 9.154990550666e-04 0.0 
0.0 0.0 -1.371610485043e-04 
-5.639757509564e-05 2.971463148157e-05 0.0 
2.971463148157e-05 3.421275802933e-04 0.0 
0.0 0.0 -5.682853890605e-05 
-1.399417025807e-04 -2.902435300106e-05 0.0 
-2.902435300106e-05 9.305736500539e-04 0.0 
0.0 0.0 -1.393929574840e-04 
-1.722474544452e-04 2.867109208845e-05 0.0 
2.867109208845e-05 1.148502992599e-03 0.0 
0.0 0.0 -1.722554387731e-04 
-1.162793321609e-04 2.903309505420e-05 0.0 
2.903309505420e-05 7.572372561352e-04 0.0 
0.0 0.0 -1.162159973290e-04 
-8.454182586218e-05 -2.784090404248e-05 0.0 
-2.784090404248e-05 5.479081559787e-04 0.0 
0.0 0.0 -8.432093988479e-05 
-1.438863246759e-04 -2.930384340139e-05 0.0 
-2.930384340139e-05 9.596245582464e-04 0.0 
0.0 0.0 -1.435863591065e-04 
-1.111530589725e-04 2.833421624542e-05 0.0 
2.833421624542e-05 7.207793346527e-04 0.0 
0.0 0.0 -1.110366786716e-04 
-4.573862906079e-05 3.039490600873e-05 0.0 
3.039490600873e-05 2.711520722753e-04 0.0 
0.0 0.0 -4.684619297515e-05 
-1.870955320648e-04 3.081437672742e-05 0.0 
3.081437672742e-05 1.264311478356e-03 0.0 
0.0 0.0 -1.888615860838e-04 
-4.248482680505e-05 3.050161066116e-05 0.0 
3.050161066116e-05 2.352616891617e-04 0.0 
0.0 0.0 -4.121632266810e-05 
-1.771088727211e-04 -2.938926809476e-05 0.0 
-2.938926809476e-05 1.212909459550e-03 0.0 
0.0 0.0 -1.791639973893e-04 
-1.771566623871e-04 2.828554015672e-05 0.0 
2.828554015672e-05 1.177203819354e-03 0.0 
0.0 0.0 -1.763972732427e-04 
-1.529661344135e-04 -2.952014478129e-05 0.0 
-2.952014478129e-05 1.026629378024e-03 0.0 
0.0 0.0 -1.530775205951e-04 
-1.359594450574e-04 3.325053532527e-05 0.0 
3.325053532527e-05 8.922454278314e-04 0.0 
0.0 0.0 -1.356269418710e-04 
-1.644239763161e-04 -3.062030831265e-05 0.0 
-3.062030831265e-05 1.103176739090e-03 0.0 
0.0 0.0 -1.641343017522e-04 
-1.073732254289e-04 -2.774733318227e-05 0.0 
-2.774733318227e-05 7.082936325730e-04 0.0 
0.0 0.0 -1.073249441206e-04 
-1.251403265974e-04 -2.940532100017e-05 0.0 
-2.940532100017e-05 8.313761795825e-04 0.0 
0.0 0.0 -1.250629185325e-04 
-1.768873143391e-04 2.872670345058e-05 0.0 
2.872670345058e-05 1.193015524360e-03 0.0 
0.0 0.0 -1.787673453274e-04 
-1.533533607312e-04 2.921855117467e-05 0.0 
2.921855117467e-05 1.014614364332e-03 0.0 
0.0 0.0 -1.532196148344e-04 
-1.544705070620e-04 -2.993018470978e-05 0.0 
-2.993018470978e-05 1.033859279725e-03 0.0 
0.0 0.0 -1.542337544108e-04 
-1.470105554746e-04 3.050415116692e-05 0.0 
3.050415116692e-05 9.703822682050e-04 0.0 
0.0 0.0 -1.467116565689e-04 
-5.190467070807e-05 2.923657524478e-05 0.0 
2.923657524478e-05 3.125147726987e-04 0.0 
0.0 0.0 -5.258904166863e-05 
-1.585497388479e-04 -3.036107211364e-05 0.0 
-3.036107211364e-05 1.064785683487e-03 0.0 
0.0 0.0 -1.586792192556e-04 
-1.867823602022e-04 -4.423334107091e-07 0.0 
-4.423334107091e-07 1.306209639085e-03 0.0 
0.0 0.0 -1.902127661242e-04 
-1.799952498831e-04 3.276671323295e-05 0.0 
3.276671323295e-05 1.203252067028e-03 0.0 
0.0 0.0 -1.803293472919e-04 
-1.036283366723e-04 2.928971230122e-05 0.0 
2.928971230122e-05 6.701110471026e-04 0.0 
0.0 0.0 -1.038552253682e-04 
-1.348425674588e-04 -3.045731572340e-05 0.0 
-3.045731572340e-05 8.997616749557e-04 0.0 
0.0 0.0 -1.353016656203e-04 
-1.306027592527e-04 3.244558953540e-05 0.0 
3.244558953540e-05 8.557133569559e-04 0.0 
0.0 0.0 -1.301630146057e-04 
-1.102559799513e-04 -2.882778976320e-05 0.0 
-2.882778976320e-05 7.287644293276e-04 0.0 
0.0 0.0 -1.102912351658e-04 
-1.488807296024e-04 2.952972860655e-05 0.0 
2.952972860655e-05 9.845338823176e-04 0.0 
0.0 0.0 -1.489188890839e-04 
-1.543542798127e-04 2.941367575548e-05 0.0 
2.941367575548e-05 1.023344437634e-03 0.0 
0.0 0.0 -1.545169747944e-04 
-3.601998227787e-05 -3.147937655175e-05 0.0 
-3.147937655175e-05 2.167298522228e-04 0.0 
0.0 0.0 -3.699600978290e-05 
-6.801309851159e-05 2.873975774867e-05 0.0 
2.873975774867e-05 4.179957074076e-04 0.0 
0.0 0.0 -6.762408315677e-05 
-1.091497725492e-04 2.831094670187e-05 0.0 
2.831094670187e-05 7.067995318092e-04 0.0 
0.0 0.0 -1.090469065526e-04 
-1.032766425254e-04 -2.822190353465e-05 0.0 
-2.822190353465e-05 6.789187616226e-04 0.0 
0.0 0.0 -1.031335432607e-04 
-1.099107092343e-04 2.839546535684e-05 0.0 
2.839546535684e-05 7.120464211608e-04 0.0 
0.0 0.0 -1.098117726994e-04 
-1.811121707674e-04 -2.882441196002e-05 0.0 
-2.882441196002e-05 1.237667273714e-03 0.0 
0.0 0.0 -1.838140267123e-04 
-1.748866853698e-04 2.592400427167e-05 0.0 
2.592400427167e-05 1.162787881872e-03 0.0 
0.0 0.0 -1.744029230557e-04 
-1.761187774956e-04 -2.949711616705e-05 0.0 
-2.949711616705e-05 1.184397801600e-03 0.0 
0.0 0.0 -1.760448152485e-04 
-9.882657544989e-05 -2.718055687570e-05 0.0 
-2.718055687570e-05 6.452046498512e-04 0.0 
0.0 0.0 -9.834296651366e-05 
-1.624121206718e-04 2.836552699441e-05 0.0 
2.836552699441e-05 1.080211199209e-03 0.0 
0.0 0.0 -1.624070342850e-04 
-1.485275509050e-04 -2.918103576740e-05 0.0 
-2.918103576740e-05 9.950382173190e-04 0.0 
0.0 0.0 -1.484873542982e-04 
-1.805851059427e-04 3.002465538148e-05 0.0 
3.002465538148e-05 1.203046068310e-03 0.0 
0.0 0.0 -1.797622605636e-04 
-1.528376056470e-04 -3.044040189818e-05 0.0 
-3.044040189818e-05 1.026184810031e-03 0.0 
0.0 0.0 -1.532447004422e-04 
-1.087929439093e-04 -2.876357224537e-05 0.0 
-2.876357224537e-05 7.196828290104e-04 0.0 
0.0 0.0 -1.089952584493e-04 
-1.049428023921e-04 2.811224010391e-05 0.0 
2.811224010391e-05 6.773445023375e-04 0.0 
0.0 0.0 -1.048418778190e-04 
-1.594051931958e-04 2.879840167248e-05 0.0 
2.879840167248e-05 1.056615529052e-03 0.0 
0.0 0.0 -1.590166690394e-04 
-1.738854057278e-04 -3.150615969996e-05 0.0 
-3.150615969996e-05 1.172347359832e-03 0.0 
0.0 0.0 -1.740425842566e-04 
-1.602067260143e-04 2.962540646325e-05 0.0 
2.962540646325e-05 1.063407039079e-03 0.0 
0.0 0.0 -1.600263377024e-04 
-1.549984104106e-04 2.928819239640e-05 0.0 
2.928819239640e-05 1.025787824362e-03 0.0 
0.0 0.0 -1.545642443906e-04 
-1.691936656852e-04 3.051239000977e-05 0.0 
3.051239000977e-05 1.122993866756e-03 0.0 
0.0 0.0 -1.687134228720e-04 
-1.733516422302e-04 -2.975799224699e-05 0.0 
-2.975799224699e-05 1.180345126224e-03 0.0 
0.0 0.0 -1.751295320469e-04 
-1.641761333923e-04 2.964778985093e-05 0.0 
2.964778985093e-05 1.092162958901e-03 0.0 
0.0 0.0 -1.644209996092e-04 
-1.334029697755e-04 2.921704941968e-05 0.0 
2.921704941968e-05 8.764535109902e-04 0.0 
0.0 0.0 -1.334339325936e-04 
-9.629059373289e-05 2.489782199496e-05 0.0 
2.489782199496e-05 6.169410298163e-04 0.0 
0.0 0.0 -9.629846621400e-05 
-1.586938225999e-04 -2.873074405230e-05 0.0 
-2.873074405230e-05 1.064075480535e-03 0.0 
0.0 0.0 -1.585741496670e-04 
-1.515595690388e-04 2.887166217167e-05 0.0 
2.887166217167e-05 1.004996075128e-03 0.0 
0.0 0.0 -1.516193629955e-04 
-6.015828007311e-05 2.762481471313e-05 0.0 
2.762481471313e-05 3.663761052862e-04 0.0 
0.0 0.0 -6.027332919800e-05 
-1.086909470084e-04 -2.820919446967e-05 0.0 
-2.820919446967e-05 7.173514364266e-04 0.0 
0.0 0.0 -1.086183444390e-04 
-1.229754690729e-04 2.795896853918e-05 0.0 
2.795896853918e-05 8.030480005080e-04 0.0 
0.0 0.0 -1.229099206091e-04 
-1.348799327205e-04 -2.950552833220e-05 0.0 
-2.950552833220e-05 8.992538641476e-04 0.0 
0.0 0.0 -1.347984704188e-04 
-6.075364579538e-05 2.991920213964e-05 0.0 
2.991920213964e-05 3.704456528343e-04 0.0 
0.0 0.0 -6.085885447137e-05 
-1.045153483669e-04 -2.832422319633e-05 0.0 
-2.832422319633e-05 6.878595611022e-04 0.0 
0.0 0.0 -1.044304007945e-04 
-1.446479183094e-04 -2.971056222020e-05 0.0 
-2.971056222020e-05 9.673313026673e-04 0.0 
0.0 0.0 -1.445542801823e-04 
-1.100060346855e-04 2.737837681636e-05 0.0 
2.737837681636e-05 7.101421002689e-04 0.0 
0.0 0.0 -1.094113629060e-04 
-1.135560558010e-04 2.921951781404e-05 0.0 
2.921951781404e-05 7.388528165105e-04 0.0 
0.0 0.0 -1.136984934835e-04 
-1.423148992764e-04 -3.064755775960e-05 0.0 
-3.064755775960e-05 9.560334399626e-04 0.0 
0.0 0.0 -1.433495728088e-04 
-1.141564569451e-04 2.617777317916e-05 0.0 
2.617777317916e-05 7.567005103659e-04 0.0 
0.0 0.0 -1.145704449725e-04 
-2.757145428849e-05 3.124043686616e-05 0.0 
3.124043686616e-05 1.158691705071e-04 0.0 
0.0 0.0 -2.367971326705e-05 
-1.286436208275e-04 -2.914932669868e-05 0.0 
-2.914932669868e-05 8.571420336644e-04 0.0 
0.0 0.0 -1.287122655492e-04 
-1.576792209224e-04 2.858094066912e-05 0.0 
2.858094066912e-05 1.045870248437e-03 0.0 
0.0 0.0 -1.577753644542e-04 
-1.791334658592e-04 3.034271459186e-05 0.0 
3.034271459186e-05 1.201260178593e-03 0.0 
0.0 0.0 -1.795306929420e-04 
-1.201199461226e-04 2.829067472047e-05 0.0 
2.829067472047e-05 7.831094393938e-04 0.0 
0.0 0.0 -1.199963822083e-04 
-1.234760846803e-04 2.932006013550e-05 0.0 
2.932006013550e-05 8.076650151061e-04 0.0 
0.0 0.0 -1.235581517372e-04 
-1.448894787138e-04 -2.961840001921e-05 0.0 
-2.961840001921e-05 9.648117356658e-04 0.0 
0.0 0.0 -1.443143808439e-04 
-3.842228905377e-05 3.298025909580e-05 0.0 
3.298025909580e-05 1.877070748678e-04 0.0 
0.0 0.0 -3.370741825810e-05 
-1.534698621194e-04 2.830991160432e-05 0.0 
2.830991160432e-05 1.016299861510e-03 0.0 
0.0 0.0 -1.535042456599e-04 
-1.293327155133e-04 -2.926708160322e-05 0.0 
-2.926708160322e-05 8.610400331546e-04 0.0 
0.0 0.0 -1.292921254718e-04 
-1.147182049359e-04 -2.793616799804e-05 0.0 
-2.793616799804e-05 7.557812794768e-04 0.0 
0.0 0.0 -1.142359468334e-04 
-1.540623557645e-04 -2.883021402370e-05 0.0 
-2.883021402370e-05 1.033805831342e-03 0.0 
0.0 0.0 -1.540837914240e-04 
-5.903277897526e-05 -2.572226208233e-05 0.0 
-2.572226208233e-05 3.742033353159e-04 0.0 
0.0 0.0 -5.919629073606e-05 
-1.595117392718e-04 -2.911342610863e-05 0.0 
-2.911342610863e-05 1.072689065088e-03 0.0 
0.0 0.0 -1.596834805621e-04 
-1.756154530572e-04 2.998485745368e-05 0.0 
2.998485745368e-05 1.171075078384e-03 0.0 
0.0 0.0 -1.756318130281e-04 
-1.493681148336e-04 2.791229911131e-05 0.0 
2.791229911131e-05 9.866947003208e-04 0.0 
0.0 0.0 -1.492337925182e-04 
-1.600204318750e-04 -2.992073590521e-05 0.0 
-2.992073590521e-05 1.071726323190e-03 0.0 
0.0 0.0 -1.596862481900e-04 
-1.621340043399e-04 -3.014172433171e-05 0.0 
-3.014172433171e-05 1.091751763439e-03 0.0 
0.0 0.0 -1.624029330596e-04 
-1.746509001542e-04 -3.044303714749e-05 0.0 
-3.044303714749e-05 1.180873641495e-03 0.0 
0.0 0.0 -1.752053866267e-04 
-4.948712705896e-05 3.475475083029e-05 0.0 
3.475475083029e-05 2.597308075809e-04 0.0 
0.0 0.0 -4.376112143753e-05 
-1.485603472495e-04 -2.938683707073e-05 0.0 
-2.938683707073e-05 9.955677447018e-04 0.0 
0.0 0.0 -1.487877812405e-04 
-1.753095903577e-04 -2.864829451917e-05 0.0 
-2.864829451917e-05 1.185024325076e-03 0.0 
0.0 0.0 -1.760859927092e-04 
-1.649582730615e-04 2.923348981816e-05 0.0 
2.923348981816e-05 1.094893116976e-03 0.0 
0.0 0.0 -1.644733909230e-04 
-1.395633018813e-04 2.809652890280e-05 0.0 
2.809652890280e-05 9.186543678537e-04 0.0 
0.0 0.0 -1.394655130409e-04 
-1.099611654985e-04 -2.884597329549e-05 0.0 
-2.884597329549e-05 7.257598080870e-04 0.0 
0.0 0.0 -1.098787062330e-04 
-1.209104407542e-04 2.806295656769e-05 0.0 
2.806295656769e-05 7.902223779801e-04 0.0 
0.0 0.0 -1.210417811416e-04 
-3.627372368124e-05 3.163530406853e-05 0.0 
3.163530406853e-05 2.039563500799e-04 0.0 
0.0 0.0 -3.723255725578e-05 
-1.701409886376e-04 2.983058263759e-05 0.0 
2.983058263759e-05 1.132501183017e-03 0.0 
0.0 0.0 -1.699366983435e-04 
-6.411787123099e-05 2.946502422422e-05 0.0 
2.946502422422e-05 3.968096580559e-04 0.0 
0.0 0.0 -6.464531002275e-05 
-5.822127891541e-05 2.749733519323e-05 0.0 
2.749733519323e-05 3.240066522493e-04 0.0 
0.0 0.0 -5.373429374777e-05 
-1.578004283830e-04 -2.825196317906e-05 0.0 
-2.825196317906e-05 1.061236006077e-03 0.0 
0.0 0.0 -1.581724742171e-04 
-1.810622318850e-04 2.872864159815e-05 0.0 
2.872864159815e-05 1.210843086462e-03 0.0 
0.0 0.0 -1.810174791607e-04 
-5.321706588155e-05 -2.711802848501e-05 0.0 
-2.711802848501e-05 3.340376413156e-04 0.0 
0.0 0.0 -5.359773372147e-05 
-1.254962992742e-04 -2.828232383433e-05 0.0 
-2.828232383433e-05 8.331892923083e-04 0.0 
0.0 0.0 -1.253787237607e-04 
-1.535703452329e-04 2.911412195335e-05 0.0 
2.911412195335e-05 1.018186094186e-03 0.0 
0.0 0.0 -1.535721660833e-04 
-1.174362539490e-04 -2.931439951264e-05 0.0 
-2.931439951264e-05 7.791228558505e-04 0.0 
0.0 0.0 -1.176010908151e-04 
-6.016009984886e-05 -2.873248464068e-05 0.0 
-2.873248464068e-05 3.813492115723e-04 0.0 
0.0 0.0 -6.041048265268e-05 
-7.982616898902e-05 2.825432291390e-05 0.0 
2.825432291390e-05 5.000258330386e-04 0.0 
0.0 0.0 -7.939046230173e-05 
-3.959656613655e-05 2.469153921964e-05 0.0 
2.469153921964e-05 2.420385823143e-04 0.0 
0.0 0.0 -4.293244787628e-05 
-5.330489538924e-05 2.915892379323e-05 0.0 
2.915892379323e-05 3.232040539711e-04 0.0 
0.0 0.0 -5.412237138681e-05 
-4.874214390061e-05 2.903207581372e-05 0.0 
2.903207581372e-05 2.849835911649e-04 0.0 
0.0 0.0 -4.858390135199e-05 
-1.298006905679e-04 2.813403754230e-05 0.0 
2.813403754230e-05 8.507929242894e-04 0.0 
0.0 0.0 -1.297186540265e-04 
-1.946741073417e-04 7.177668550596e-07 0.0 
7.177668550596e-07 1.366433303394e-03 0.0 
0.0 0.0 -1.986219281740e-04 
-6.700715880952e-05 2.589861000239e-05 0.0 
2.589861000239e-05 3.925714316040e-04 0.0 
0.0 0.0 -6.366506350946e-05 
-1.734025229933e-04 2.872134779497e-05 0.0 
2.872134779497e-05 1.153015807625e-03 0.0 
0.0 0.0 -1.730133492871e-04 
-9.662877635408e-05 2.832769241253e-05 0.0 
2.832769241253e-05 6.190294534954e-04 0.0 
0.0 0.0 -9.645761187127e-05 
-1.474086229932e-04 -3.111113571506e-05 0.0 
-3.111113571506e-05 9.884847841183e-04 0.0 
0.0 0.0 -1.478461150791e-04 
-4.750635885556e-05 2.975238453019e-05 0.0 
2.975238453019e-05 2.739120908498e-04 0.0 
0.0 0.0 -4.694079591042e-05 
-1.816621119292e-04 -2.878308347844e-05 0.0 
-2.878308347844e-05 1.218135406772e-03 0.0 
0.0 0.0 -1.810139427526e-04 
-4.655502041116e-05 -2.610306417390e-05 0.0 
-2.610306417390e-05 2.951982444198e-04 0.0 
0.0 0.0 -4.804032238546e-05 
-7.357331614798e-05 2.958595086467e-05 0.0 
2.958595086467e-05 4.672675042292e-04 0.0 
0.0 0.0 -7.493958354298e-05 
-1.550973332285e-04 2.796756386232e-05 0.0 
2.796756386232e-05 1.025417246301e-03 0.0 
0.0 0.0 -1.547320639971e-04 
-1.115692087861e-04 -2.839126116568e-05 0.0 
-2.839126116568e-05 7.371116053840e-04 0.0 
0.0 0.0 -1.115425826451e-04 
-1.699290889586e-04 -2.900940190171e-05 0.0 
-2.900940190171e-05 1.149889600330e-03 0.0 
0.0 0.0 -1.708594300032e-04 
-8.624183478928e-05 -2.912886792339e-05 0.0 
-2.912886792339e-05 5.626870180004e-04 0.0 
0.0 0.0 -8.644348757353e-05 
-1.569167022033e-04 -2.881123911490e-05 0.0 
-2.881123911490e-05 1.051025089677e-03 0.0 
0.0 0.0 -1.566669492989e-04 
-1.769191692021e-04 2.934973965132e-05 0.0 
2.934973965132e-05 1.199034094636e-03 0.0 
0.0 0.0 -1.798338780755e-04 
-1.495364599630e-04 2.975197277300e-05 0.0 
2.975197277300e-05 9.877659320422e-04 0.0 
0.0 0.0 -1.491119197843e-04 
-1.807112013151e-04 -2.761933473531e-05 0.0 
-2.761933473531e-05 1.210002262212e-03 0.0 
0.0 0.0 -1.792176209978e-04 
-1.628975544781e-04 -3.036779777295e-05 0.0 
-3.036779777295e-05 1.095193631651e-03 0.0 
0.0 0.0 -1.630977145684e-04 
-1.675201900776e-04 -3.024382898117e-05 0.0 
-3.024382898117e-05 1.126388508701e-03 0.0 
0.0 0.0 -1.675015638186e-04 
-5.424555064715e-05 2.680812076581e-05 0.0 
2.680812076581e-05 3.226336525028e-04 0.0 
0.0 0.0 -5.399133669915e-05 
-1.676277495680e-04 2.740316368874e-05 0.0 
2.740316368874e-05 1.112871955034e-03 0.0 
0.0 0.0 -1.673862058733e-04 
-1.578559859789e-04 2.827037287320e-05 0.0 
2.827037287320e-05 1.049443790061e-03 0.0 
0.0 0.0 -1.580046825171e-04 
-1.171678476607e-04 2.852988375933e-05 0.0 
2.852988375933e-05 7.623350065851e-04 0.0 
0.0 0.0 -1.168873383469e-04 
-7.813173762117e-05 2.766421590413e-05 0.0 
2.766421590413e-05 4.622030552975e-04 0.0 
0.0 0.0 -7.363010077577e-05 
-1.810895077962e-04 -2.908189886640e-05 0.0 
-2.908189886640e-05 1.245299465341e-03 0.0 
0.0 0.0 -1.848439230673e-04 
-6.258589564450e-05 2.973424717467e-05 0.0 
2.973424717467e-05 3.796477966190e-04 0.0 
0.0 0.0 -6.214069219561e-05 
-6.877743183419e-05 -3.283467012249e-05 0.0 
-3.283467012249e-05 4.454002116560e-04 0.0 
0.0 0.0 -6.982795868082e-05 
-1.656560229546e-04 3.018340289880e-05 0.0 
3.018340289880e-05 1.102559420523e-03 0.0 
0.0 0.0 -1.657595890666e-04 
-4.452637910278e-05 -2.463086619694e-05 0.0 
-2.463086619694e-05 2.688625379708e-04 0.0 
0.0 0.0 -4.409698994278e-05 
-1.188635475057e-04 -2.772391840776e-05 0.0 
-2.772391840776e-05 7.879380998938e-04 0.0 
0.0 0.0 -1.188635276708e-04 
-1.592882983328e-04 2.718156988550e-05 0.0 
2.718156988550e-05 1.054709056437e-03 0.0 
0.0 0.0 -1.589765888202e-04 
-1.772222272296e-04 -2.714101551062e-05 0.0 
-2.714101551062e-05 1.191839625875e-03 0.0 
0.0 0.0 -1.771732720199e-04 
-1.824779395496e-04 -2.648051372033e-05 0.0 
-2.648051372033e-05 1.225568720394e-03 0.0 
0.0 0.0 -1.816415620416e-04 
-1.546092874475e-04 -2.982910766663e-05 0.0 
-2.982910766663e-05 1.035340165495e-03 0.0 
0.0 0.0 -1.543237508850e-04 
-1.687071199467e-04 -3.097215296435e-05 0.0 
-3.097215296435e-05 1.133984998622e-03 0.0 
0.0 0.0 -1.685605813437e-04 
-1.021935529673e-04 2.852069401152e-05 0.0 
2.852069401152e-05 6.571110725585e-04 0.0 
0.0 0.0 -1.019073722143e-04 
-1.593527883530e-04 -2.978604002386e-05 0.0 
-2.978604002386e-05 1.069539853505e-03 0.0 
0.0 0.0 -1.593679286731e-04 
-8.787271678042e-05 2.812609072738e-05 0.0 
2.812609072738e-05 5.317977245242e-04 0.0 
0.0 0.0 -8.364764346898e-05 
-1.787194194283e-04 2.687014845945e-05 0.0 
2.687014845945e-05 1.178995119648e-03 0.0 
0.0 0.0 -1.772627823762e-04 
-9.805451043270e-05 2.760029222410e-05 0.0 
2.760029222410e-05 6.018798204524e-04 0.0 
0.0 0.0 -9.365644977482e-05 
-9.596485627522e-05 2.204290663138e-05 0.0 
2.204290663138e-05 6.347192065111e-04 0.0 
0.0 0.0 -9.866254784712e-05 
-1.159093866371e-04 2.840626684317e-05 0.0 
2.840626684317e-05 7.538245928729e-04 0.0 
0.0 0.0 -1.157644195874e-04 
-1.068023676316e-04 3.049840519302e-05 0.0 
3.049840519302e-05 6.737297633016e-04 0.0 
0.0 0.0 -1.036755264196e-04 
-1.327131526045e-04 -2.791089545435e-05 0.0 
-2.791089545435e-05 8.830463531689e-04 0.0 
0.0 0.0 -1.324954999561e-04 
-1.083462229029e-04 -2.835211655561e-05 0.0 
-2.835211655561e-05 7.134008523618e-04 0.0 
0.0 0.0 -1.081453164196e-04 
-1.141683981921e-04 -2.887541052425e-05 0.0 
-2.887541052425e-05 7.550230559135e-04 0.0 
0.0 0.0 -1.140931655197e-04 
-5.515908320108e-05 2.948502897213e-05 0.0 
2.948502897213e-05 3.310071093917e-04 0.0 
0.0 0.0 -5.528709606717e-05 
-1.104134789677e-04 2.840605379835e-05 0.0 
2.840605379835e-05 7.154837500031e-04 0.0 
0.0 0.0 -1.103023603459e-04 
-1.746713077398e-04 2.880636906730e-05 0.0 
2.880636906730e-05 1.164068735679e-03 0.0 
0.0 0.0 -1.743776871305e-04 
-1.783703106015e-04 3.636462111026e-05 0.0 
3.636462111026e-05 1.201299505939e-03 0.0 
0.0 0.0 -1.792895840060e-04 
-1.577150641991e-04 2.851269442524e-05 0.0 
2.851269442524e-05 1.044375076497e-03 0.0 
0.0 0.0 -1.575150703147e-04 
-1.745723709241e-04 2.909038873658e-05 0.0 
2.909038873658e-05 1.170222223010e-03 0.0 
0.0 0.0 -1.755400497234e-04 
-1.120725847370e-04 2.871981251597e-05 0.0 
2.871981251597e-05 7.269648264993e-04 0.0 
0.0 0.0 -1.119489732781e-04 
-1.675311839949e-04 2.887729147629e-05 0.0 
2.887729147629e-05 1.117903748534e-03 0.0 
0.0 0.0 -1.678529426297e-04 
-1.146259152953e-04 2.842710779289e-05 0.0 
2.842710779289e-05 7.448564873363e-04 0.0 
0.0 0.0 -1.145134881756e-04 
-1.710224470009e-04 2.842065442071e-05 0.0 
2.842065442071e-05 1.142895506605e-03 0.0 
0.0 0.0 -1.716593064874e-04 
-1.634807050442e-04 2.799270818855e-05 0.0 
2.799270818855e-05 1.086902354100e-03 0.0 
0.0 0.0 -1.634447856658e-04 
-1.622367908960e-04 -2.967988136421e-05 0.0 
-2.967988136421e-05 1.088570664713e-03 0.0 
0.0 0.0 -1.620677252808e-04 
-1.436975778517e-04 2.830432817314e-05 0.0 
2.830432817314e-05 9.480503595790e-04 0.0 
0.0 0.0 -1.437136475121e-04 
-1.063431585595e-04 2.840592411012e-05 0.0 
2.840592411012e-05 6.863040493332e-04 0.0 
0.0 0.0 -1.060995107696e-04 
-1.691497108962e-04 -2.743833599267e-05 0.0 
-2.743833599267e-05 1.134677276168e-03 0.0 
0.0 0.0 -1.689057885308e-04 
-1.381914899866e-04 2.790064750608e-05 0.0 
2.790064750608e-05 9.063015758904e-04 0.0 
0.0 0.0 -1.375454124849e-04 
-5.561996790627e-05 -3.071748806018e-05 0.0 
-3.071748806018e-05 3.409512690699e-04 0.0 
0.0 0.0 -5.492022919918e-05 
-6.179236649455e-05 -2.756467409787e-05 0.0 
-2.756467409787e-05 3.903060721867e-04 0.0 
0.0 0.0 -6.170691397715e-05 
-9.087582305261e-05 2.700291781953e-05 0.0 
2.700291781953e-05 5.782509110046e-04 0.0 
0.0 0.0 -9.092110591052e-05 
-1.259880962207e-04 2.776883270027e-05 0.0 
2.776883270027e-05 8.237716666486e-04 0.0 
0.0 0.0 -1.257717909469e-04 
-1.753841120844e-04 2.980647546350e-05 0.0 
2.980647546350e-05 1.173927080456e-03 0.0 
0.0 0.0 -1.760317983730e-04 
-1.577119756164e-04 -3.055430689054e-05 0.0 
-3.055430689054e-05 1.057688489879e-03 0.0 
0.0 0.0 -1.576653810449e-04 
-1.057975756223e-04 -2.876126628924e-05 0.0 
-2.876126628924e-05 6.965772625478e-04 0.0 
0.0 0.0 -1.056780804030e-04 
-1.401532218735e-04 -2.893519210654e-05 0.0 
-2.893519210654e-05 9.357130400283e-04 0.0 
0.0 0.0 -1.401741111350e-04 
-1.632303776345e-04 2.945240880963e-05 0.0 
2.945240880963e-05 1.086067743780e-03 0.0 
0.0 0.0 -1.632898652955e-04 
-1.698320922867e-04 -3.029692352669e-05 0.0 
-3.029692352669e-05 1.141081462631e-03 0.0 
0.0 0.0 -1.695868396911e-04 
-1.762766478419e-04 -2.148172006753e-05 0.0 
-2.148172006753e-05 1.172735995291e-03 0.0 
0.0 0.0 -1.741172379421e-04 
-1.423952570170e-04 2.784554782803e-05 0.0 
2.784554782803e-05 9.441048027351e-04 0.0 
0.0 0.0 -1.427691508950e-04 
-1.672340961037e-04 2.890076212539e-05 0.0 
2.890076212539e-05 1.110820323191e-03 0.0 
0.0 0.0 -1.670153566545e-04 
-1.196206745500e-04 -2.916305908743e-05 0.0 
-2.916305908743e-05 7.932912096618e-04 0.0 
0.0 0.0 -1.195780717481e-04 
-1.631267095900e-04 -2.877648753756e-05 0.0 
-2.877648753756e-05 1.093964271595e-03 0.0 
0.0 0.0 -1.629178051474e-04 
-1.193648583036e-04 2.813253978265e-05 0.0 
2.813253978265e-05 7.781106719393e-04 0.0 
0.0 0.0 -1.192674511187e-04 
-1.785040923208e-04 -2.833642482200e-05 0.0 
-2.833642482200e-05 1.202406861450e-03 0.0 
0.0 0.0 -1.783056964125e-04 
-1.774180478980e-04 -3.143728213467e-05 0.0 
-3.143728213467e-05 1.216846253912e-03 0.0 
0.0 0.0 -1.800733985141e-04 
-1.339733609669e-04 2.830305737665e-05 0.0 
2.830305737665e-05 8.799971748813e-04 0.0 
0.0 0.0 -1.339483752660e-04 
-5.685501053660e-05 3.033786968296e-05 0.0 
3.033786968296e-05 3.408752435242e-04 0.0 
0.0 0.0 -5.664287464774e-05 
-1.674932513127e-04 2.750263582860e-05 0.0 
2.750263582860e-05 1.111155514655e-03 0.0 
0.0 0.0 -1.670528461364e-04 
-1.284040368042e-04 -2.775968276020e-05 0.0 
-2.775968276020e-05 8.537309068525e-04 0.0 
0.0 0.0 -1.283340813903e-04 
-1.016895440755e-04 -2.862604297841e-05 0.0 
-2.862604297841e-05 6.674652453701e-04 0.0 
0.0 0.0 -1.014860136736e-04 
-1.390418925560e-04 -2.935625760733e-05 0.0 
-2.935625760733e-05 9.288785969762e-04 0.0 
0.0 0.0 -1.390419464427e-04 
-1.608753793423e-04 -3.062151254544e-05 0.0 
-3.062151254544e-05 1.081540098949e-03 0.0 
0.0 0.0 -1.609465537294e-04 
-5.579409708541e-05 -2.753923831601e-05 0.0 
-2.753923831601e-05 3.517647136068e-04 0.0 
0.0 0.0 -5.619956474153e-05 
-1.242874580104e-04 2.815581454240e-05 0.0 
2.815581454240e-05 8.122824974036e-04 0.0 
0.0 0.0 -1.242180795178e-04 
-1.444954382542e-04 2.691161261798e-05 0.0 
2.691161261798e-05 9.508761997336e-04 0.0 
0.0 0.0 -1.439419080609e-04 
-1.748732396412e-04 -3.101518328253e-05 0.0 
-3.101518328253e-05 1.183866334775e-03 0.0 
0.0 0.0 -1.756258132784e-04 
-1.484265095921e-04 2.639187046033e-05 0.0 
2.639187046033e-05 9.793613921147e-04 0.0 
0.0 0.0 -1.481473755224e-04 
-1.628394148518e-04 2.905846373136e-05 0.0 
2.905846373136e-05 1.081802942582e-03 0.0 
0.0 0.0 -1.628061244897e-04 
-1.405884391169e-04 2.689260908494e-05 0.0 
2.689260908494e-05 9.219062369141e-04 0.0 
0.0 0.0 -1.397490354451e-04 
-1.346362126131e-04 2.980546389634e-05 0.0 
2.980546389634e-05 8.629731244664e-04 0.0 
0.0 0.0 -1.313455861883e-04 
-1.422308942789e-04 2.777968126491e-05 0.0 
2.777968126491e-05 9.352014107076e-04 0.0 
0.0 0.0 -1.417070353249e-04 
-1.696348231764e-04 3.073847441857e-05 0.0 
3.073847441857e-05 1.132512673150e-03 0.0 
0.0 0.0 -1.700257545721e-04 
-1.628061011134e-04 -3.012920063587e-05 0.0 
-3.012920063587e-05 1.094588289745e-03 0.0 
0.0 0.0 -1.626783210446e-04 
-1.525480366069e-04 2.753411223908e-05 0.0 
2.753411223908e-05 1.012270815341e-03 0.0 
0.0 0.0 -1.525950422115e-04 
-1.817674885626e-04 2.636756222739e-05 0.0 
2.636756222739e-05 1.218171265063e-03 0.0 
0.0 0.0 -1.819330136886e-04 
-1.367783378107e-04 2.734398055764e-05 0.0 
2.734398055764e-05 8.928204252328e-04 0.0 
0.0 0.0 -1.355595357802e-04 
-8.657515392004e-05 -2.858127066433e-05 0.0 
-2.858127066433e-05 5.623682383036e-04 0.0 
0.0 0.0 -8.640878351826e-05 
-1.720286776127e-04 -3.018037219569e-05 0.0 
-3.018037219569e-05 1.158953410419e-03 0.0 
0.0 0.0 -1.720100346656e-04 
-1.785542716781e-04 -3.347376878072e-05 0.0 
-3.347376878072e-05 1.210212792631e-03 0.0 
0.0 0.0 -1.795117393957e-04 
-1.181566759780e-04 2.804595512909e-05 0.0 
2.804595512909e-05 7.695120543693e-04 0.0 
0.0 0.0 -1.180384278745e-04 
-1.234361083838e-04 2.834735001336e-05 0.0 
2.834735001336e-05 8.068300268397e-04 0.0 
0.0 0.0 -1.233979183903e-04 
-9.615008310342e-05 -2.877711061827e-05 0.0 
-2.877711061827e-05 6.293964481875e-04 0.0 
0.0 0.0 -9.603629528614e-05 
-1.570985069047e-04 2.869057650911e-05 0.0 
2.869057650911e-05 1.042670134457e-03 0.0 
0.0 0.0 -1.569914920818e-04 
-9.804713378094e-05 2.892049478508e-05 0.0 
2.892049478508e-05 6.274327291699e-04 0.0 
0.0 0.0 -9.751120462800e-05 
-1.373039782519e-04 2.945820523949e-05 0.0 
2.945820523949e-05 9.031137517948e-04 0.0 
0.0 0.0 -1.370644644624e-04 
-9.733425656402e-05 -2.696735292952e-05 0.0 
-2.696735292952e-05 6.363689780604e-04 0.0 
0.0 0.0 -9.714421390796e-05 
-1.604810832406e-04 2.925883402761e-05 0.0 
2.925883402761e-05 1.064262862584e-03 0.0 
0.0 0.0 -1.602381950242e-04 
-1.814386097987e-04 -2.325128847214e-05 0.0 
-2.325128847214e-05 1.217845530327e-03 0.0 
0.0 0.0 -1.816843005860e-04 
-1.003684445551e-04 -2.872637610904e-05 0.0 
-2.872637610904e-05 6.585462596242e-04 0.0 
0.0 0.0 -1.002307182508e-04 
-3.526749537505e-05 -3.047241068612e-05 0.0 
-3.047241068612e-05 2.153990238607e-04 0.0 
0.0 0.0 -3.677367655039e-05 
-1.806631145188e-04 2.941902588667e-05 0.0 
2.941902588667e-05 1.208966272057e-03 0.0 
0.0 0.0 -1.810776462098e-04 
-1.033178748637e-04 2.699632970684e-05 0.0 
2.699632970684e-05 6.637091035959e-04 0.0 
0.0 0.0 -1.028007266516e-04 
-1.175293277585e-04 2.819191420696e-05 0.0 
2.819191420696e-05 7.649488685247e-04 0.0 
0.0 0.0 -1.174222657364e-04 
-1.740611927883e-04 3.008308873920e-05 0.0 
3.008308873920e-05 1.179667388234e-03 0.0 
0.0 0.0 -1.766888058523e-04 
-1.524480229041e-04 -2.995968298439e-05 0.0 
-2.995968298439e-05 1.020372756015e-03 0.0 
0.0 0.0 -1.522604622525e-04 
-1.585768344365e-04 -2.913298650394e-05 0.0 
-2.913298650394e-05 1.064240986158e-03 0.0 
0.0 0.0 -1.583819031520e-04 
-1.028812223476e-04 -2.791530224567e-05 0.0 
-2.791530224567e-05 6.762699737186e-04 0.0 
0.0 0.0 -1.027652553003e-04 
-3.047731217096e-05 2.978609752000e-05 0.0 
2.978609752000e-05 1.644412884572e-04 0.0 
0.0 0.0 -3.167095645526e-05 
-1.827018091400e-04 -3.487243475378e-05 0.0 
-3.487243475378e-05 1.223693620193e-03 0.0 
0.0 0.0 -1.803196740198e-04 
-1.299869374800e-04 2.787662672047e-05 0.0 
2.787662672047e-05 8.523815142426e-04 0.0 
0.0 0.0 -1.299076046001e-04 
-1.512839301296e-04 -3.211131163956e-05 0.0 
-3.211131163956e-05 1.010330699503e-03 0.0 
0.0 0.0 -1.510713963618e-04 
-1.740688791628e-04 2.785384488376e-05 0.0 
2.785384488376e-05 1.160296302710e-03 0.0 
0.0 0.0 -1.736733770178e-04 
-2.424829434384e-05 2.135414066938e-05 0.0 
2.135414066938e-05 1.009887765283e-04 0.0 
0.0 0.0 -2.253474224696e-05 
-1.588289344536e-04 2.988448063203e-05 0.0 
2.988448063203e-05 1.053618048293e-03 0.0 
0.0 0.0 -1.588145449557e-04 
-7.398149687921e-05 -2.842214034926e-05 0.0 
-2.842214034926e-05 4.736710158424e-04 0.0 
0.0 0.0 -7.379368512750e-05 
-1.417757164372e-04 -3.019050727827e-05 0.0 
-3.019050727827e-05 9.514786018212e-04 0.0 
0.0 0.0 -1.424765658182e-04 
-1.273110853056e-04 -2.925695132898e-05 0.0 
-2.925695132898e-05 8.481813906053e-04 0.0 
0.0 0.0 -1.274401864931e-04 
-1.007593383753e-04 2.822071280729e-05 0.0 
2.822071280729e-05 6.480510024074e-04 0.0 
0.0 0.0 -1.006432667219e-04 
-1.707598802574e-04 -2.954897052777e-05 0.0 
-2.954897052777e-05 1.153161559221e-03 0.0 
0.0 0.0 -1.712453353817e-04 
-1.329505705343e-04 2.860130427155e-05 0.0 
2.860130427155e-05 8.732611453068e-04 0.0 
0.0 0.0 -1.328871777156e-04 
-9.118212509623e-05 2.844150706971e-05 0.0 
2.844150706971e-05 5.810800157713e-04 0.0 
0.0 0.0 -9.101187559806e-05 
-1.348270760039e-04 -2.858426038110e-05 0.0 
-2.858426038110e-05 8.990222661828e-04 0.0 
0.0 0.0 -1.348432318503e-04 
-2.929431270807e-05 -2.857654389252e-05 0.0 
-2.857654389252e-05 1.760253783659e-04 0.0 
0.0 0.0 -3.121713414881e-05 
-1.537482864892e-04 -2.902787486223e-05 0.0 
-2.902787486223e-05 1.032059817805e-03 0.0 
0.0 0.0 -1.539626484545e-04 
-1.604406715089e-04 -2.964829512842e-05 0.0 
-2.964829512842e-05 1.074466508454e-03 0.0 
0.0 0.0 -1.598244649411e-04 
-1.844616251081e-04 -2.196458036396e-05 0.0 
-2.196458036396e-05 1.231467805983e-03 0.0 
0.0 0.0 -1.850401362575e-04 
-1.635274807000e-04 -2.956880985849e-05 0.0 
-2.956880985849e-05 1.099342516608e-03 0.0 
0.0 0.0 -1.636124299818e-04 
-7.150477036681e-05 -2.776392562661e-05 0.0 
-2.776392562661e-05 4.572663187996e-04 0.0 
0.0 0.0 -7.137223705482e-05 
-1.570462429545e-04 -2.966204224228e-05 0.0 
-2.966204224228e-05 1.054975147839e-03 0.0 
0.0 0.0 -1.570847591254e-04 
-1.810625471898e-04 2.712640566716e-05 0.0 
2.712640566716e-05 1.230837214805e-03 0.0 
0.0 0.0 -1.842233179068e-04 
-1.891002400454e-04 -2.748789620214e-05 0.0 
-2.748789620214e-05 1.278407905451e-03 0.0 
0.0 0.0 -1.900717871215e-04 
-1.657110930776e-04 -2.854937255919e-05 0.0 
-2.854937255919e-05 1.112870521473e-03 0.0 
0.0 0.0 -1.653364313119e-04 
-1.071209963560e-04 -2.863275326497e-05 0.0 
-2.863275326497e-05 7.049432181714e-04 0.0 
0.0 0.0 -1.069186906485e-04 
-1.442583782278e-04 -2.898467953421e-05 0.0 
-2.898467953421e-05 9.652668360639e-04 0.0 
0.0 0.0 -1.443707514742e-04 
-1.759295624301e-04 2.574555557981e-05 0.0 
2.574555557981e-05 1.162894992702e-03 0.0 
0.0 0.0 -1.746475140816e-04 
-1.188179409512e-04 -2.882565480678e-05 0.0 
-2.882565480678e-05 7.850400880713e-04 0.0 
0.0 0.0 -1.181845718321e-04 
-1.584483271371e-04 2.773639164420e-05 0.0 
2.773639164420e-05 1.051528373706e-03 0.0 
0.0 0.0 -1.585795433073e-04 
-1.477641435519e-04 2.859461966958e-05 0.0 
2.859461966958e-05 9.807497853317e-04 0.0 
0.0 0.0 -1.481564718376e-04 
-1.666109147089e-04 -2.970949097526e-05 0.0 
-2.970949097526e-05 1.123406416293e-03 0.0 
0.0 0.0 -1.669465589644e-04 
-1.640742339727e-04 -2.814643695304e-05 0.0 
-2.814643695304e-05 1.102737689409e-03 0.0 
0.0 0.0 -1.639852473733e-04 
-1.101476556860e-04 -1.419773556877e-06 0.0 
-1.419773556877e-06 6.855531227093e-04 0.0 
0.0 0.0 -1.097027053386e-04 
-1.095838507761e-04 5.104018495319e-06 0.0 
5.104018495319e-06 6.852974449944e-04 0.0 
0.0 0.0 -1.096586159380e-04 
-1.492847548809e-04 -3.091516381313e-05 0.0 
-3.091516381313e-05 9.984061546489e-04 0.0 
0.0 0.0 -1.489183339744e-04 
-1.487773235054e-04 2.785619991096e-05 0.0 
2.785619991096e-05 9.847103116342e-04 0.0 
0.0 0.0 -1.489589719869e-04 
-1.316033445496e-04 -2.890310988479e-05 0.0 
-2.890310988479e-05 8.785172676280e-04 0.0 
0.0 0.0 -1.317064244343e-04 
-1.470787480711e-04 -2.886845641438e-05 0.0 
-2.886845641438e-05 9.813735906609e-04 0.0 
0.0 0.0 -1.466314440693e-04 
-1.276790192920e-04 2.827971774625e-05 0.0 
2.827971774625e-05 8.356151426700e-04 0.0 
0.0 0.0 -1.275341994755e-04 
-1.790311321725e-04 1.969961980520e-05 0.0 
1.969961980520e-05 1.177311147527e-03 0.0 
0.0 0.0 -1.770432225081e-04 
-1.075373971259e-04 2.845855733448e-05 0.0 
2.845855733448e-05 6.950205170450e-04 0.0 
0.0 0.0 -1.073226784003e-04 
-1.995879498343e-04 -5.013008806985e-06 0.0 
-5.013008806985e-06 1.363897218258e-03 0.0 
0.0 0.0 -1.985690758598e-04 
-1.206431140158e-04 2.307417823056e-05 0.0 
2.307417823056e-05 7.999499804229e-04 0.0 
0.0 0.0 -1.217990918242e-04 
-1.230873173652e-04 -2.834404514853e-05 0.0 
-2.834404514853e-05 8.168726937961e-04 0.0 
0.0 0.0 -1.229897142350e-04 
-1.277789710916e-04 2.899586617417e-05 0.0 
2.899586617417e-05 8.376167932335e-04 0.0 
0.0 0.0 -1.278593196867e-04 
-6.749379846372e-05 -2.782885043647e-05 0.0 
-2.782885043647e-05 4.285534232864e-04 0.0 
0.0 0.0 -6.718560115948e-05 
-1.130846881410e-04 -2.901620947727e-05 0.0 
-2.901620947727e-05 7.492911164906e-04 0.0 
0.0 0.0 -1.132750687146e-04 
-1.393795706141e-04 2.790993313463e-05 0.0 
2.790993313463e-05 9.183577294076e-04 0.0 
0.0 0.0 -1.393992299975e-04 
-1.313953089638e-04 2.793110906410e-05 0.0 
2.793110906410e-05 8.609063871163e-04 0.0 
0.0 0.0 -1.310746415357e-04 
-1.472158165240e-04 2.758529410816e-05 0.0 
2.758529410816e-05 9.752002146418e-04 0.0 
0.0 0.0 -1.472189500432e-04 
-1.516300742627e-04 2.806244334544e-05 0.0 
2.806244334544e-05 1.001799986608e-03 0.0 
0.0 0.0 -1.512033144533e-04 
-1.566655293626e-04 -2.889951032878e-05 0.0 
-2.889951032878e-05 1.046948901408e-03 0.0 
0.0 0.0 -1.561275327105e-04 
-3.388460750578e-05 -1.545160936620e-05 0.0 
-1.545160936620e-05 2.099343336454e-04 0.0 
0.0 0.0 -3.245576353708e-05 
-1.079103303358e-04 2.933502518126e-05 0.0 
2.933502518126e-05 7.001507540581e-04 0.0 
0.0 0.0 -1.081352097849e-04 
-1.027907419891e-04 -2.789055961483e-05 0.0 
-2.789055961483e-05 6.727593674768e-04 0.0 
0.0 0.0 -1.023828309811e-04 
-1.434897197293e-04 2.686269947909e-05 0.0 
2.686269947909e-05 9.426378339422e-04 0.0 
0.0 0.0 -1.428293200757e-04 
-1.483261696105e-04 -2.883963041716e-05 0.0 
-2.883963041716e-05 9.902814330651e-04 0.0 
0.0 0.0 -1.477595226970e-04 
-1.733622378423e-04 2.696425670561e-05 0.0 
2.696425670561e-05 1.158199599596e-03 0.0 
0.0 0.0 -1.740163136221e-04 
-5.146390240149e-05 3.149198966797e-05 0.0 
3.149198966797e-05 2.950977217837e-04 0.0 
0.0 0.0 -4.910994769955e-05 
-4.998322073950e-05 -2.650173050573e-05 0.0 
-2.650173050573e-05 3.137392583323e-04 0.0 
0.0 0.0 -5.065930366581e-05 
-1.246841514279e-04 2.807070818710e-05 0.0 
2.807070818710e-05 8.153369030926e-04 0.0 
0.0 0.0 -1.245896567492e-04 
-1.074667000404e-04 -2.931017500739e-05 0.0 
-2.931017500739e-05 7.103792899815e-04 0.0 
0.0 0.0 -1.077203783481e-04 
-9.918600810801e-05 -3.218977296722e-05 0.0 
-3.218977296722e-05 6.451476881974e-04 0.0 
0.0 0.0 -9.831899762194e-05 
-1.033843323464e-04 -2.568146961447e-05 0.0 
-2.568146961447e-05 6.823399375890e-04 0.0 
0.0 0.0 -1.033380742667e-04 
-1.467772705035e-04 -2.855532502296e-05 0.0 
-2.855532502296e-05 9.829234791858e-04 0.0 
0.0 0.0 -1.469023935692e-04 
-4.918821938130e-05 -2.784621442943e-05 0.0 
-2.784621442943e-05 3.054917735983e-04 0.0 
0.0 0.0 -4.953709868763e-05 
-1.222003796169e-04 2.866150149173e-05 0.0 
2.866150149173e-05 7.992287747919e-04 0.0 
0.0 0.0 -1.223213871927e-04 
-1.574838851652e-04 -2.884771519407e-05 0.0 
-2.884771519407e-05 1.055743233401e-03 0.0 
0.0 0.0 -1.573814874934e-04 
-5.103366446644e-05 3.083233425307e-05 0.0 
3.083233425307e-05 3.010972732110e-04 0.0 
0.0 0.0 -5.112340052147e-05 
-1.934610965695e-04 -4.298535282019e-06 0.0 
-4.298535282019e-06 1.268654757538e-03 0.0 
0.0 0.0 -1.928379572095e-04 
-1.729742724807e-04 -2.716366689485e-05 0.0 
-2.716366689485e-05 1.161879060048e-03 0.0 
0.0 0.0 -1.728683014225e-04 
-1.159629787201e-04 -2.904469987433e-05 0.0 
-2.904469987433e-05 7.705849919696e-04 0.0 
0.0 0.0 -1.163417091451e-04 
-1.616915685660e-04 2.859224485179e-05 0.0 
2.859224485179e-05 1.074324548804e-03 0.0 
0.0 0.0 -1.618083629464e-04 
-2.727429490673e-05 -7.981424094550e-07 0.0 
-7.981424094550e-07 1.116265976979e-04 0.0 
0.0 0.0 -2.696321564760e-05 
-1.521690046607e-04 -3.000871026997e-05 0.0 
-3.000871026997e-05 1.017696781759e-03 0.0 
0.0 0.0 -1.518707364543e-04 
-1.295839926014e-04 -2.815794342717e-05 0.0 
-2.815794342717e-05 8.619661847659e-04 0.0 
0.0 0.0 -1.295155041898e-04 
-2.359634361323e-05 9.091220455368e-07 0.0 
9.091220455368e-07 1.106951619002e-04 0.0 
0.0 0.0 -2.682779714776e-05 
-1.728538985111e-04 2.680741270793e-05 0.0 
2.680741270793e-05 1.154427413958e-03 0.0 
0.0 0.0 -1.732288690391e-04 
-4.759083390138e-05 -2.831698267297e-05 0.0 
-2.831698267297e-05 2.848913946214e-04 0.0 
0.0 0.0 -4.649687138448e-05 
-1.430104513494e-04 -2.827840335732e-05 0.0 
-2.827840335732e-05 9.522047249633e-04 0.0 
0.0 0.0 -1.424467998190e-04 
-1.308115066644e-04 -2.845406566805e-05 0.0 
-2.845406566805e-05 8.700772173504e-04 0.0 
0.0 0.0 -1.306907721685e-04 
-1.129064275361e-04 -2.856218169756e-05 0.0 
-2.856218169756e-05 7.462380760800e-04 0.0 
0.0 0.0 -1.127972299543e-04 
-1.359129833258e-04 2.979368899475e-05 0.0 
2.979368899475e-05 8.944895224544e-04 0.0 
0.0 0.0 -1.357882224401e-04 
-1.779538886446e-04 2.685602915856e-05 0.0 
2.685602915856e-05 1.186518068831e-03 0.0 
0.0 0.0 -1.774347558581e-04 
-1.457575943922e-04 3.026596853263e-05 0.0 
3.026596853263e-05 9.632506474158e-04 0.0 
0.0 0.0 -1.457400808753e-04 
-1.288002410826e-04 2.805878315534e-05 0.0 
2.805878315534e-05 8.440094574945e-04 0.0 
0.0 0.0 -1.287264812403e-04 
-1.242825439840e-04 -2.804688037007e-05 0.0 
-2.804688037007e-05 8.250067063846e-04 0.0 
0.0 0.0 -1.241942416882e-04 
-1.736395521226e-05 2.354389388036e-05 0.0 
2.354389388036e-05 7.964528863018e-05 0.0 
0.0 0.0 -1.861799679395e-05 
-4.157545693324e-05 2.817385926199e-05 0.0 
2.817385926199e-05 2.365575590948e-04 0.0 
0.0 0.0 -4.141517733842e-05 
-1.678318203631e-04 -2.663064313971e-05 0.0 
-2.663064313971e-05 1.127397061509e-03 0.0 
0.0 0.0 -1.677496568182e-04 
-1.370203440637e-04 -3.226606344672e-05 0.0 
-3.226606344672e-05 9.081664366392e-04 0.0 
0.0 0.0 -1.362805121017e-04 
-1.736141937904e-04 2.716336991301e-05 0.0 
2.716336991301e-05 1.149649766564e-03 0.0 
0.0 0.0 -1.723036539172e-04 
-7.429185192102e-05 2.889322857484e-05 0.0 
2.889322857484e-05 4.644168819778e-04 0.0 
0.0 0.0 -7.414465667103e-05 
-1.649902886651e-04 2.947284893012e-05 0.0 
2.947284893012e-05 1.093935083842e-03 0.0 
0.0 0.0 -1.646925898217e-04 
-1.739966132604e-04 -2.849382622555e-05 0.0 
-2.849382622555e-05 1.167419998479e-03 0.0 
0.0 0.0 -1.733111646468e-04 
-1.056965695515e-04 2.657671323282e-05 0.0 
2.657671323282e-05 6.973803664085e-04 0.0 
0.0 0.0 -1.076913066561e-04 
-1.684634156381e-04 2.502571500154e-05 0.0 
2.502571500154e-05 1.117308510720e-03 0.0 
0.0 0.0 -1.681488932201e-04 
-1.612200699048e-04 -2.968921846860e-05 0.0 
-2.968921846860e-05 1.084762543557e-03 0.0 
0.0 0.0 -1.613920101890e-04 
-1.435042771724e-04 2.827958174112e-05 0.0 
2.827958174112e-05 9.471256299073e-04 0.0 
0.0 0.0 -1.435674306479e-04 
-1.178719447516e-04 2.925779353124e-05 0.0 
2.925779353124e-05 7.691196797978e-04 0.0 
0.0 0.0 -1.179957515531e-04 
-1.230064472571e-04 -2.933976043839e-05 0.0 
-2.933976043839e-05 8.180684852634e-04 0.0 
0.0 0.0 -1.231351811242e-04 
-1.812260547849e-04 -3.047200266982e-05 0.0 
-3.047200266982e-05 1.223288115478e-03 0.0 
0.0 0.0 -1.807056875578e-04 
-1.260212927046e-04 2.933157348944e-05 0.0 
2.933157348944e-05 8.259598448106e-04 0.0 
0.0 0.0 -1.259489979917e-04 
-1.353161328246e-04 2.778264495549e-05 0.0 
2.778264495549e-05 8.897119970146e-04 0.0 
0.0 0.0 -1.352333322325e-04 
-1.267391738953e-04 2.944240283988e-05 0.0 
2.944240283988e-05 8.300608908324e-04 0.0 
0.0 0.0 -1.265040046469e-04 
-1.558042942572e-04 2.960325539106e-05 0.0 
2.960325539106e-05 1.032329659142e-03 0.0 
0.0 0.0 -1.557546880476e-04 
-1.178031641948e-04 -2.833363001983e-05 0.0 
-2.833363001983e-05 7.792538415973e-04 0.0 
0.0 0.0 -1.176363242409e-04 
-7.616423057155e-05 2.888075361391e-05 0.0 
2.888075361391e-05 4.767557616214e-04 0.0 
0.0 0.0 -7.598706826662e-05 
-1.284551892997e-04 2.830356900228e-05 0.0 
2.830356900228e-05 8.414205268390e-04 0.0 
0.0 0.0 -1.284270486071e-04 
-8.163145150663e-05 2.849893936950e-05 0.0 
2.849893936950e-05 5.141388462768e-04 0.0 
0.0 0.0 -8.139240314519e-05 
-1.476035922618e-04 2.790275079514e-05 0.0 
2.790275079514e-05 9.723513416990e-04 0.0 
0.0 0.0 -1.469868445827e-04 
-8.102880366192e-05 -2.822816260586e-05 0.0 
-2.822816260586e-05 5.241451611897e-04 0.0 
0.0 0.0 -8.099228255434e-05 
-1.416684014624e-04 -2.911139421202e-05 0.0 
-2.911139421202e-05 9.446400297649e-04 0.0 
0.0 0.0 -1.413087031611e-04 
-1.704134817182e-04 -2.893451028680e-05 0.0 
-2.893451028680e-05 1.143317166872e-03 0.0 
0.0 0.0 -1.695824168335e-04 
-1.648116269840e-04 2.803138241354e-05 0.0 
2.803138241354e-05 1.093290237044e-03 0.0 
0.0 0.0 -1.644793634901e-04 
-1.128875860972e-04 2.826705620268e-05 0.0 
2.826705620268e-05 7.324835187191e-04 0.0 
0.0 0.0 -1.126879322255e-04 
-1.413103611302e-04 2.856634998349e-05 0.0 
2.856634998349e-05 9.375047760794e-04 0.0 
0.0 0.0 -1.419038077447e-04 
-1.657595976086e-04 2.853389717882e-05 0.0 
2.853389717882e-05 1.104349844714e-03 0.0 
0.0 0.0 -1.661162351013e-04 
-1.653889785276e-04 -2.976188635714e-05 0.0 
-2.976188635714e-05 1.114688989457e-03 0.0 
0.0 0.0 -1.657121520580e-04 
-4.122208403583e-05 -2.733977607716e-05 0.0 
-2.733977607716e-05 2.407308049745e-04 0.0 
0.0 0.0 -4.024936955575e-05 
-1.462865341652e-04 2.791988865304e-05 0.0 
2.791988865304e-05 9.640304959560e-04 0.0 
0.0 0.0 -1.458719015759e-04 
-1.798320892613e-04 3.664169466135e-05 0.0 
3.664169466135e-05 1.207776909166e-03 0.0 
0.0 0.0 -1.808727580343e-04 
-8.155951077410e-05 2.658877336874e-05 0.0 
2.658877336874e-05 5.082367721589e-04 0.0 
0.0 0.0 -8.036834358255e-05 
-1.261065842356e-04 -2.891277945860e-05 0.0 
-2.891277945860e-05 8.392634847212e-04 0.0 
0.0 0.0 -1.261429800108e-04 
-2.464432722711e-05 -2.598410949159e-05 0.0 
-2.598410949159e-05 1.199804601247e-04 0.0 
0.0 0.0 -2.329771006100e-05 
-1.698720281199e-04 2.819353997162e-05 0.0 
2.819353997162e-05 1.134065551803e-03 0.0 
0.0 0.0 -1.704352672439e-04 
-7.209795018933e-05 2.889480946534e-05 0.0 
2.889480946534e-05 4.471234739761e-04 0.0 
0.0 0.0 -7.178447905439e-05 
-1.214879839983e-04 2.129426116121e-05 0.0 
2.129426116121e-05 7.908873499093e-04 0.0 
0.0 0.0 -1.224926751266e-04 
-1.512350690369e-04 3.260960324541e-05 0.0 
3.260960324541e-05 1.003149541653e-03 0.0 
0.0 0.0 -1.513082552986e-04 
-1.410567308220e-04 -2.849265471453e-05 0.0 
-2.849265471453e-05 9.457036391268e-04 0.0 
0.0 0.0 -1.415828201621e-04 
-1.344535840298e-04 2.612046934124e-05 0.0 
2.612046934124e-05 8.995841949147e-04 0.0 
0.0 0.0 -1.366211047096e-04 
-1.341134389053e-04 2.811410486968e-05 0.0 
2.811410486968e-05 8.812581479058e-04 0.0 
0.0 0.0 -1.340535934895e-04 
-8.946040519151e-05 -2.953905219233e-05 0.0 
-2.953905219233e-05 5.742848433877e-04 0.0 
0.0 0.0 -8.827358089900e-05 
-9.333279709743e-05 -2.369397324284e-05 0.0 
-2.369397324284e-05 6.111413459436e-04 0.0 
0.0 0.0 -9.328238720484e-05 
-1.698818200285e-04 -2.882683013526e-05 0.0 
-2.882683013526e-05 1.144701307571e-03 0.0 
0.0 0.0 -1.700100520615e-04 
-1.409975246060e-04 -3.114270166762e-05 0.0 
-3.114270166762e-05 9.412074701777e-04 0.0 
0.0 0.0 -1.409113068204e-04 
-1.224899796510e-04 -2.844927577316e-05 0.0 
-2.844927577316e-05 8.138192071892e-04 0.0 
0.0 0.0 -1.224729735915e-04 
-1.523712328566e-04 3.064679971689e-05 0.0 
3.064679971689e-05 1.008635964013e-03 0.0 
0.0 0.0 -1.522479562080e-04 
-1.188292947714e-04 2.814854163685e-05 0.0 
2.814854163685e-05 7.741609344605e-04 0.0 
0.0 0.0 -1.187265862058e-04 
-7.698231420718e-05 -2.807470773001e-05 0.0 
-2.807470773001e-05 4.953557652573e-04 0.0 
0.0 0.0 -7.679943085705e-05 
-8.618619312566e-05 2.228028664320e-05 0.0 
2.228028664320e-05 5.633842965339e-04 0.0 
0.0 0.0 -8.862593743002e-05 
-1.284395253225e-04 -2.631768161175e-05 0.0 
-2.631768161175e-05 8.441014789476e-04 0.0 
0.0 0.0 -1.266344217576e-04 
-1.074097245906e-04 1.137855673603e-06 0.0 
1.137855673603e-06 7.273751056144e-04 0.0 
0.0 0.0 -1.068299257544e-04 
-1.648361548193e-04 -2.903405778283e-05 0.0 
-2.903405778283e-05 1.103487992394e-03 0.0 
0.0 0.0 -1.640398004813e-04 
-1.125117604938e-04 -2.832657592519e-05 0.0 
-2.832657592519e-05 7.420818515929e-04 0.0 
0.0 0.0 -1.122952594724e-04 
-1.815273626527e-04 2.648876521301e-05 0.0 
2.648876521301e-05 1.237129381465e-03 0.0 
0.0 0.0 -1.850357933615e-04 
-1.677426973633e-04 3.358700303554e-05 0.0 
3.358700303554e-05 1.121534172788e-03 0.0 
0.0 0.0 -1.681766660669e-04 
-1.238211064038e-04 -2.893923336642e-05 0.0 
-2.893923336642e-05 8.228165218213e-04 0.0 
0.0 0.0 -1.237869166313e-04 
-1.864446355504e-04 -3.208766695310e-05 0.0 
-3.208766695310e-05 1.252430825566e-03 0.0 
0.0 0.0 -1.862208944195e-04 
-8.530940149586e-05 -2.872680214247e-05 0.0 
-2.872680214247e-05 5.536185287289e-04 0.0 
0.0 0.0 -8.523934116932e-05 
-1.812060938045e-04 2.774101611193e-05 0.0 
2.774101611193e-05 1.207038039800e-03 0.0 
0.0 0.0 -1.806723702746e-04 
-1.337032776849e-04 -2.817141114612e-05 0.0 
-2.817141114612e-05 8.910030578001e-04 0.0 
0.0 0.0 -1.336599856011e-04 
-1.477881411962e-04 2.807358610009e-05 0.0 
2.807358610009e-05 9.757986870607e-04 0.0 
0.0 0.0 -1.477205131922e-04 
-1.717661370758e-04 -2.763745373205e-05 0.0 
-2.763745373205e-05 1.155465207730e-03 0.0 
0.0 0.0 -1.720177540750e-04 
-8.915482971043e-05 -2.748298977886e-05 0.0 
-2.748298977886e-05 5.839530331415e-04 0.0 
0.0 0.0 -8.937342098373e-05 
-1.408472522219e-04 2.814178914188e-05 0.0 
2.814178914188e-05 9.273096045331e-04 0.0 
0.0 0.0 -1.405419627762e-04 
-1.183094889317e-04 -2.831962265042e-05 0.0 
-2.831962265042e-05 7.845371880710e-04 0.0 
0.0 0.0 -1.182925860037e-04 
-1.362566173497e-04 -2.854051389334e-05 0.0 
-2.854051389334e-05 9.069235503698e-04 0.0 
0.0 0.0 -1.359850532410e-04 
-7.919830953849e-05 -2.789069310031e-05 0.0 
-2.789069310031e-05 5.092955845790e-04 0.0 
0.0 0.0 -7.902140106529e-05 
-1.521909368861e-04 3.155873557746e-05 0.0 
3.155873557746e-05 1.007096083567e-03 0.0 
0.0 0.0 -1.519844081269e-04 
-1.132987595353e-04 2.834154396761e-05 0.0 
2.834154396761e-05 7.356229622935e-04 0.0 
0.0 0.0 -1.132306032040e-04 
-1.320680958621e-04 2.867292103990e-05 0.0 
2.867292103990e-05 8.674712725503e-04 0.0 
0.0 0.0 -1.321542253869e-04 
-1.368300496681e-04 2.752968636588e-05 0.0 
2.752968636588e-05 8.977721242010e-04 0.0 
0.0 0.0 -1.363712481195e-04 
-2.669160915437e-05 -1.546272424362e-05 0.0 
-1.546272424362e-05 1.161110005952e-04 0.0 
0.0 0.0 -2.089024115593e-05 
-1.363872734664e-04 3.073615465078e-05 0.0 
3.073615465078e-05 8.982822443154e-04 0.0 
0.0 0.0 -1.362374425583e-04 
-3.196098953400e-05 -3.152710847565e-05 0.0 
-3.152710847565e-05 1.832351866553e-04 0.0 
0.0 0.0 -3.246432735143e-05 
-3.780823483309e-05 3.089859502925e-05 0.0 
3.089859502925e-05 2.040662805879e-04 0.0 
0.0 0.0 -3.615541251042e-05 
-1.264532196870e-04 2.805256790047e-05 0.0 
2.805256790047e-05 8.282811887478e-04 0.0 
0.0 0.0 -1.265710825771e-04 
-1.650927065987e-04 -2.992799550430e-05 0.0 
-2.992799550430e-05 1.105940052269e-03 0.0 
0.0 0.0 -1.647532235908e-04 
-1.400518033137e-04 2.658927901254e-05 0.0 
2.658927901254e-05 9.276103799496e-04 0.0 
0.0 0.0 -1.408132903889e-04 
-7.975221115210e-05 -2.926681587233e-05 0.0 
-2.926681587233e-05 5.061325512957e-04 0.0 
0.0 0.0 -7.822954250360e-05 
-2.013483297690e-04 2.032612637039e-06 0.0 
2.032612637039e-06 1.329003344546e-03 0.0 
0.0 0.0 -2.013483297690e-04 
-1.035627632493e-05 2.012317785662e-05 0.0 
2.012317785662e-05 3.911320943316e-05 0.0 
0.0 0.0 -1.232439990353e-05 
-8.383816084979e-05 -1.994127170537e-05 0.0 
-1.994127170537e-05 5.413626143026e-04 0.0 
0.0 0.0 -8.324708519681e-05 
-1.271654449798e-04 2.783994873367e-05 0.0 
2.783994873367e-05 8.320575259278e-04 0.0 
0.0 0.0 -1.270911103786e-04 
-1.205324376648e-04 -2.929888805432e-05 0.0 
-2.929888805432e-05 8.005519843790e-04 0.0 
0.0 0.0 -1.206387729067e-04 
-1.013602283131e-04 -2.480997680423e-05 0.0 
-2.480997680423e-05 6.640206223424e-04 0.0 
0.0 0.0 -1.009985469804e-04 
-8.871913647433e-05 2.734607712163e-05 0.0 
2.734607712163e-05 5.647906116567e-04 0.0 
0.0 0.0 -8.863076730824e-05 
-1.311043943365e-04 -2.976717297625e-05 0.0 
-2.976717297625e-05 8.719910144079e-04 0.0 
0.0 0.0 -1.310072861357e-04 
-1.389619207248e-04 -2.862329341105e-05 0.0 
-2.862329341105e-05 9.281576540868e-04 0.0 
0.0 0.0 -1.390016920470e-04 
-1.460738362541e-04 3.043025274219e-05 0.0 
3.043025274219e-05 9.676325484449e-04 0.0 
0.0 0.0 -1.460128267758e-04 
-1.732762100729e-04 3.047090098963e-05 0.0 
3.047090098963e-05 1.141214836478e-03 0.0 
0.0 0.0 -1.716453415534e-04 
-4.497460723320e-05 2.726656903271e-05 0.0 
2.726656903271e-05 2.561921516371e-04 0.0 
0.0 0.0 -4.464496721659e-05 
-1.166209944052e-04 2.853466779788e-05 0.0 
2.853466779788e-05 7.601119053809e-04 0.0 
0.0 0.0 -1.167719096664e-04 
-1.253239379370e-04 2.802640912089e-05 0.0 
2.802640912089e-05 8.204946388047e-04 0.0 
0.0 0.0 -1.253423245625e-04 
-6.775366326737e-05 -3.048229866519e-05 0.0 
-3.048229866519e-05 4.346213084644e-04 0.0 
0.0 0.0 -6.816034660215e-05 
-1.127220931764e-04 3.280867731043e-05 0.0 
3.280867731043e-05 7.331832316127e-04 0.0 
0.0 0.0 -1.127715562385e-04 
-1.406419564968e-04 -3.010518963226e-05 0.0 
-3.010518963226e-05 9.368893413982e-04 0.0 
0.0 0.0 -1.404347219739e-04 
-1.530603703096e-04 -2.920298263434e-05 0.0 
-2.920298263434e-05 1.018521684544e-03 0.0 
0.0 0.0 -1.535177820318e-04 
-2.288599488340e-05 1.289972043286e-06 0.0 
1.289972043286e-06 1.500050201402e-04 0.0 
0.0 0.0 -2.407863984352e-05 
-1.904718743730e-05 -3.796502735245e-05 0.0 
-3.796502735245e-05 7.353718879473e-05 0.0 
0.0 0.0 -1.778391308807e-05 
-4.862036817725e-05 -2.764492479964e-05 0.0 
-2.764492479964e-05 3.006710189870e-04 0.0 
0.0 0.0 -4.850561850037e-05 
-1.250248464412e-04 -2.908499407456e-05 0.0 
-2.908499407456e-05 8.306354519711e-04 0.0 
0.0 0.0 -1.249513133117e-04 
-9.487833492244e-05 -2.821982749961e-05 0.0 
-2.821982749961e-05 6.208435078207e-04 0.0 
0.0 0.0 -9.483030114460e-05 
-8.410233070287e-05 -2.754579270561e-05 0.0 
-2.754579270561e-05 5.457436342908e-04 0.0 
0.0 0.0 -8.407979340540e-05 
-7.564452835468e-05 -2.812380315554e-05 0.0 
-2.812380315554e-05 4.861034660231e-04 0.0 
0.0 0.0 -7.562371400132e-05 
-1.308199925164e-04 2.795456765413e-05 0.0 
2.795456765413e-05 8.583699019635e-04 0.0 
0.0 0.0 -1.308200345188e-04 
-1.492653203134e-04 2.795966396730e-05 0.0 
2.795966396730e-05 9.867209101107e-04 0.0 
0.0 0.0 -1.493429779604e-04 
-1.297619321001e-04 2.813153916154e-05 0.0 
2.813153916154e-05 8.505758307982e-04 0.0 
0.0 0.0 -1.296493136919e-04 
-9.537410332307e-05 2.792962789421e-05 0.0 
2.792962789421e-05 6.106733548119e-04 0.0 
0.0 0.0 -9.522910944095e-05 
-1.456775150903e-04 -3.018176577816e-05 0.0 
-3.018176577816e-05 9.731377158713e-04 0.0 
0.0 0.0 -1.454913560695e-04 
-1.215295702296e-04 2.461975315803e-05 0.0 
2.461975315803e-05 8.148115380054e-04 0.0 
0.0 0.0 -1.235433054540e-04 
-1.607975492377e-04 3.196445582729e-05 0.0 
3.196445582729e-05 1.071803692603e-03 0.0 
0.0 0.0 -1.614296353785e-04 
-1.294007234012e-04 -2.913608251421e-05 0.0 
-2.913608251421e-05 8.607493369835e-04 0.0 
0.0 0.0 -1.292646442145e-04 
-1.305405341983e-04 -2.882629630394e-05 0.0 
-2.882629630394e-05 8.689129694931e-04 0.0 
0.0 0.0 -1.304223873054e-04 
-6.968339329854e-05 -2.972888482406e-05 0.0 
-2.972888482406e-05 4.334906827197e-04 0.0 
0.0 0.0 -6.822727741190e-05 
-9.912831729497e-05 -2.796137707004e-05 0.0 
-2.796137707004e-05 6.504811582310e-04 0.0 
0.0 0.0 -9.898428703081e-05 
-1.338904054535e-04 2.764565306312e-05 0.0 
2.764565306312e-05 8.796508899650e-04 0.0 
0.0 0.0 -1.339603927656e-04 
-1.451942325546e-04 2.545422836756e-05 0.0 
2.545422836756e-05 9.593435678016e-04 0.0 
0.0 0.0 -1.442355194375e-04 
-1.361868027580e-04 2.709053506538e-05 0.0 
2.709053506538e-05 9.012697796478e-04 0.0 
0.0 0.0 -1.345837404303e-04 
-7.449260603113e-05 -2.324565781608e-05 0.0 
-2.324565781608e-05 4.730958793735e-04 0.0 
0.0 0.0 -7.319231467821e-05 
-1.351502038915e-04 2.830190167801e-05 0.0 
2.830190167801e-05 8.885438377553e-04 0.0 
0.0 0.0 -1.351067771782e-04 
-8.277379542059e-05 -2.675056815443e-05 0.0 
-2.675056815443e-05 5.366126160003e-04 0.0 
0.0 0.0 -8.276526902223e-05 
-4.268302624522e-05 2.966411434536e-05 0.0 
2.966411434536e-05 2.450626322876e-04 0.0 
0.0 0.0 -4.217020858377e-05 
-1.783377964352e-04 -2.878462420289e-05 0.0 
-2.878462420289e-05 1.216695363592e-03 0.0 
0.0 0.0 -1.804362660462e-04 
-4.529678387534e-05 2.926161683405e-05 0.0 
2.926161683405e-05 2.590325448345e-04 0.0 
0.0 0.0 -4.529806102550e-05 
-8.742939480876e-05 2.790769408488e-05 0.0 
2.790769408488e-05 5.558475884308e-04 0.0 
0.0 0.0 -8.733313829944e-05 
-1.317265343520e-04 -2.980209858436e-05 0.0 
-2.980209858436e-05 8.750838916963e-04 0.0 
0.0 0.0 -1.314978247514e-04 
-7.591084973546e-05 2.107875529606e-05 0.0 
2.107875529606e-05 4.931826175602e-04 0.0 
0.0 0.0 -7.859944172783e-05 
-1.334719851974e-04 -2.966915358544e-05 0.0 
-2.966915358544e-05 8.920345164479e-04 0.0 
0.0 0.0 -1.335848452069e-04 
-6.387562636780e-05 -3.268343600872e-05 0.0 
-3.268343600872e-05 4.032800898130e-04 0.0 
0.0 0.0 -6.423763444998e-05 
-1.136812058642e-04 -2.481450603128e-05 0.0 
-2.481450603128e-05 7.554211615018e-04 0.0 
0.0 0.0 -1.173522912428e-04 
-1.350637719422e-04 -2.838472714175e-05 0.0 
-2.838472714175e-05 8.988460543843e-04 0.0 
0.0 0.0 -1.347247148155e-04 
-1.171592619295e-04 -2.801384878721e-05 0.0 
-2.801384878721e-05 7.755561146277e-04 0.0 
0.0 0.0 -1.170018866078e-04 
-1.217089587309e-04 -2.902247236899e-05 0.0 
-2.902247236899e-05 8.097798257773e-04 0.0 
0.0 0.0 -1.219000842292e-04 
-2.184335631700e-05 -1.729926300555e-05 0.0 
-1.729926300555e-05 1.250103729472e-04 0.0 
0.0 0.0 -2.233965624082e-05 
-1.775429286585e-04 -2.993860203194e-05 0.0 
-2.993860203194e-05 1.168952343716e-03 0.0 
0.0 0.0 -1.728850973588e-04 
-9.777928932074e-05 -2.702797086344e-05 0.0 
-2.702797086344e-05 6.417468029030e-04 0.0 
0.0 0.0 -9.771858906392e-05 
-1.742936274983e-04 3.098695444566e-05 0.0 
3.098695444566e-05 1.160612036868e-03 0.0 
0.0 0.0 -1.731059224200e-04 
-1.475958375390e-04 -2.938015971493e-05 0.0 
-2.938015971493e-05 9.867581376832e-04 0.0 
0.0 0.0 -1.473178670231e-04 
-1.394115090974e-04 2.895092753690e-05 0.0 
2.895092753690e-05 9.183306099949e-04 0.0 
0.0 0.0 -1.394094752486e-04 
-1.392759160733e-04 -2.661746757661e-05 0.0 
-2.661746757661e-05 9.284264619517e-04 0.0 
0.0 0.0 -1.390298226761e-04 
-8.994283602845e-05 2.778083834669e-05 0.0 
2.778083834669e-05 5.730895634602e-04 0.0 
0.0 0.0 -8.984374554363e-05 
-2.917258118515e-05 2.376164554401e-05 0.0 
2.376164554401e-05 1.745437757761e-04 0.0 
0.0 0.0 -3.155138587282e-05 
-2.317643182854e-05 1.790083138541e-05 0.0 
1.790083138541e-05 9.845334346925e-05 0.0 
0.0 0.0 -2.398754234351e-05 
-1.432208171698e-04 2.892878557249e-05 0.0 
2.892878557249e-05 9.478265663156e-04 0.0 
0.0 0.0 -1.437459767248e-04 
-1.740260011077e-04 2.826019241499e-05 0.0 
2.826019241499e-05 1.153801197259e-03 0.0 
0.0 0.0 -1.722084272143e-04 
-8.118601345419e-05 -2.611344377703e-05 0.0 
-2.611344377703e-05 5.279662901466e-04 0.0 
0.0 0.0 -8.139371786675e-05 
-1.500944745800e-04 2.850222383989e-05 0.0 
2.850222383989e-05 9.934228736818e-04 0.0 
0.0 0.0 -1.501054273671e-04 
-7.521111464244e-05 2.846605665054e-05 0.0 
2.846605665054e-05 4.657051250380e-04 0.0 
0.0 0.0 -7.503141475880e-05 
-1.512386812048e-04 -2.992568848289e-05 0.0 
-2.992568848289e-05 1.010913185445e-03 0.0 
0.0 0.0 -1.508421041237e-04 
-1.913679647201e-04 1.633067843082e-05 0.0 
1.633067843082e-05 1.304046368860e-03 0.0 
0.0 0.0 -1.899801870201e-04 
-8.107065812765e-06 2.346749919756e-06 0.0 
2.346749919756e-06 3.465691143960e-05 0.0 
0.0 0.0 -6.768710104395e-06 
-2.012431250737e-04 -5.135354168430e-06 0.0 
-5.135354168430e-06 1.328125823973e-03 0.0 
0.0 0.0 -2.012431250738e-04 
-2.010076978229e-04 5.129027623315e-07 0.0 
5.129027623315e-07 1.332224423205e-03 0.0 
0.0 0.0 -2.010076978229e-04 
-1.200525084162e-04 -2.960169498126e-05 0.0 
-2.960169498126e-05 7.774099100136e-04 0.0 
0.0 0.0 -1.193279669386e-04 
-9.640785059628e-05 -2.657435829226e-05 0.0 
-2.657435829226e-05 6.329376874412e-04 0.0 
0.0 0.0 -9.642369099328e-05 
-1.430993903661e-04 -2.855154632445e-05 0.0 
-2.855154632445e-05 9.576101063938e-04 0.0 
0.0 0.0 -1.431539317715e-04 
-9.069725416876e-05 -2.857026822921e-05 0.0 
-2.857026822921e-05 5.911546440220e-04 0.0 
0.0 0.0 -9.061723822400e-05 
-3.022990634783e-05 -2.681786409130e-05 0.0 
-2.681786409130e-05 1.822763229384e-04 0.0 
0.0 0.0 -3.143827221009e-05 
-2.037753453247e-05 -2.478655429001e-05 0.0 
-2.478655429001e-05 8.790842240506e-05 0.0 
0.0 0.0 -1.801817686168e-05 
-1.836175097671e-04 -2.402430245032e-05 0.0 
-2.402430245032e-05 1.223987652140e-03 0.0 
0.0 0.0 -1.814249121503e-04 
-1.450545934085e-04 -3.153145532631e-05 0.0 
-3.153145532631e-05 9.685145142433e-04 0.0 
0.0 0.0 -1.447226300079e-04 
-1.125869054840e-04 -2.748101964700e-05 0.0 
-2.748101964700e-05 7.294325003239e-04 0.0 
0.0 0.0 -1.083718385576e-04 
-1.962159152819e-04 -1.434651956338e-06 0.0 
-1.434651956338e-06 1.365722808943e-03 0.0 
0.0 0.0 -1.985491694924e-04 
-5.585822177885e-05 -3.143630658045e-05 0.0 
-3.143630658045e-05 3.376755851757e-04 0.0 
0.0 0.0 -5.423556500690e-05 
-2.007881053171e-04 -1.726199718446e-06 0.0 
-1.726199718446e-06 1.364640639189e-03 0.0 
0.0 0.0 -1.987362728011e-04 
-1.448517594688e-04 2.793135192776e-05 0.0 
2.793135192776e-05 9.587643079544e-04 0.0 
0.0 0.0 -1.450563315224e-04 
-9.484276981656e-05 -2.674005154729e-05 0.0 
-2.674005154729e-05 6.234132904817e-04 0.0 
0.0 0.0 -9.504591620249e-05 
-1.382279383007e-04 2.787393037445e-05 0.0 
2.787393037445e-05 9.097739666025e-04 0.0 
0.0 0.0 -1.381945852821e-04 
-9.142868377808e-05 2.725850192794e-05 0.0 
2.725850192794e-05 5.832477346610e-04 0.0 
0.0 0.0 -9.142251929393e-05 
-4.742959093977e-05 3.178494059526e-05 0.0 
3.178494059526e-05 2.793740196453e-04 0.0 
0.0 0.0 -4.740468724644e-05 
-8.571259270612e-05 2.828259101351e-05 0.0 
2.828259101351e-05 5.446684396391e-04 0.0 
0.0 0.0 -8.592027974235e-05 
-1.533744480417e-04 2.894142802439e-05 0.0 
2.894142802439e-05 1.015636410024e-03 0.0 
0.0 0.0 -1.535624635791e-04 
-1.726464644829e-04 -3.048637260420e-05 0.0 
-3.048637260420e-05 1.163840887987e-03 0.0 
0.0 0.0 -1.733086171842e-04 
-9.280503597506e-05 2.727322910805e-05 0.0 
2.727322910805e-05 5.925489514016e-04 0.0 
0.0 0.0 -9.272779504641e-05 
-1.556220947506e-04 2.834035430820e-05 0.0 
2.834035430820e-05 1.030951438499e-03 0.0 
0.0 0.0 -1.554407367389e-04 
0.0 0.0 0.0 
0.0 0.0 0.0 
0.0 0.0 0.0 
-9.414991845574e-05 2.689042394907e-05 0.0 
2.689042394907e-05 6.016400273679e-04 0.0 
0.0 0.0 -9.399423243866e-05 
-1.601427960654e-04 -3.089969489527e-05 0.0 
-3.089969489527e-05 1.075322883485e-03 0.0 
0.0 0.0 -1.599578041173e-04 
-8.403714033751e-05 2.869873894183e-05 0.0 
2.869873894183e-05 5.323289088036e-04 0.0 
0.0 0.0 -8.424104700772e-05 
-7.551475753824e-05 -2.649474593413e-05 0.0 
-2.649474593413e-05 4.894460977115e-04 0.0 
0.0 0.0 -7.579321247091e-05 
-1.378493770478e-04 -2.790966319756e-05 0.0 
-2.790966319756e-05 9.196714216363e-04 0.0 
0.0 0.0 -1.378141772466e-04 
-4.197657932346e-05 3.036843921012e-05 0.0 
3.036843921012e-05 2.488746108878e-04 0.0 
0.0 0.0 -4.469345153978e-05 
-6.356553012414e-05 -1.790556961603e-05 0.0 
-1.790556961603e-05 3.571998655218e-04 0.0 
0.0 0.0 -5.800805537475e-05 
-5.963646489739e-05 -2.697912930355e-05 0.0 
-2.697912930355e-05 4.061213774054e-04 0.0 
0.0 0.0 -6.293882513644e-05 
-7.444587698182e-05 2.773637856154e-05 0.0 
2.773637856154e-05 4.649609944167e-04 0.0 
0.0 0.0 -7.460064588462e-05 
-1.268907598115e-04 -2.860718727315e-05 0.0 
-2.860718727315e-05 8.433503837867e-04 0.0 
0.0 0.0 -1.266626700847e-04 
-1.224386685492e-04 2.875829832121e-05 0.0 
2.875829832121e-05 7.993143987396e-04 0.0 
0.0 0.0 -1.222099179032e-04 
-1.550707846259e-04 -3.021300247570e-05 0.0 
-3.021300247570e-05 1.039277942014e-03 0.0 
0.0 0.0 -1.550846054886e-04 
-1.832450820655e-04 1.991288128733e-05 0.0 
1.991288128733e-05 1.215795306098e-03 0.0 
0.0 0.0 -1.836391296960e-04 
-6.655985465225e-05 1.933551370614e-05 0.0 
1.933551370614e-05 4.236408710896e-04 0.0 
0.0 0.0 -6.856221390244e-05 
-1.539423275274e-04 -3.704467856056e-05 0.0 
-3.704467856056e-05 1.025688764769e-03 0.0 
0.0 0.0 -1.542931291103e-04 
-1.848510975897e-04 1.848398553320e-05 0.0 
1.848398553320e-05 1.219703446086e-03 0.0 
0.0 0.0 -1.842621829813e-04 
-8.571771551762e-05 2.855827741082e-05 0.0 
2.855827741082e-05 5.438756567258e-04 0.0 
0.0 0.0 -8.561402555334e-05 
-3.203347885951e-05 3.153292785458e-05 0.0 
3.153292785458e-05 1.785175093333e-04 0.0 
0.0 0.0 -3.288300492123e-05 
-7.987216545887e-05 -2.346764247849e-05 0.0 
-2.346764247849e-05 5.184929031400e-04 0.0 
0.0 0.0 -7.995251146095e-05 
-1.212808198145e-04 -2.827766812275e-05 0.0 
-2.827766812275e-05 8.042920459384e-04 0.0 
0.0 0.0 -1.212446555230e-04 
-1.571887129407e-04 2.934596798488e-05 0.0 
2.934596798488e-05 1.038696799089e-03 0.0 
0.0 0.0 -1.564536520703e-04 
-1.218972312950e-04 2.856394456649e-05 0.0 
2.856394456649e-05 7.946681320418e-04 0.0 
0.0 0.0 -1.216241541690e-04 
-3.687132775950e-05 -1.707295352198e-05 0.0 
-1.707295352198e-05 2.178919936982e-04 0.0 
0.0 0.0 -3.514573890614e-05 
-1.365304663594e-04 -3.020632721963e-05 0.0 
-3.020632721963e-05 9.106175701847e-04 0.0 
0.0 0.0 -1.364410292409e-04 
-5.340251844815e-05 3.227075763275e-05 0.0 
3.227075763275e-05 3.197704478175e-04 0.0 
0.0 0.0 -5.262769246444e-05 
-1.221027789088e-04 -2.890393133813e-05 0.0 
-2.890393133813e-05 8.084198513028e-04 0.0 
0.0 0.0 -1.218536047623e-04 
-1.315166503229e-04 3.036725150384e-05 0.0 
3.036725150384e-05 8.626782461118e-04 0.0 
0.0 0.0 -1.313414595827e-04 
-1.426434875643e-04 2.845461346825e-05 0.0 
2.845461346825e-05 9.398077750181e-04 0.0 
0.0 0.0 -1.423708775668e-04 
-1.391130870296e-04 -2.561595399108e-05 0.0 
-2.561595399108e-05 9.319163416573e-04 0.0 
0.0 0.0 -1.424111980137e-04 
-7.359597002428e-05 -2.624347751830e-05 0.0 
-2.624347751830e-05 4.769960883137e-04 0.0 
0.0 0.0 -7.400431453448e-05 
-3.726862459375e-05 2.779553031089e-05 0.0 
2.779553031089e-05 2.059200017464e-04 0.0 
0.0 0.0 -3.689331396917e-05 
-1.412883241773e-04 3.117267937368e-05 0.0 
3.117267937368e-05 9.320815795036e-04 0.0 
0.0 0.0 -1.412299401741e-04 
-5.695030605691e-05 2.980577594809e-05 0.0 
2.980577594809e-05 3.524536248651e-04 0.0 
0.0 0.0 -5.785728901387e-05 
-1.619887946569e-05 3.142044942513e-05 0.0 
3.142044942513e-05 6.578946746101e-05 0.0 
0.0 0.0 -1.807788326025e-05 
-1.825504858472e-04 2.573963131551e-05 0.0 
2.573963131551e-05 1.217305172889e-03 0.0 
0.0 0.0 -1.835083836816e-04 
-1.729233565602e-04 2.872122229116e-05 0.0 
2.872122229116e-05 1.159887577617e-03 0.0 
0.0 0.0 -1.736153457326e-04 
-1.409164917213e-05 -2.430425574027e-06 0.0 
-2.430425574027e-06 4.702851798331e-05 0.0 
0.0 0.0 -1.411580091908e-05 
-1.463665932977e-04 -3.126704961804e-05 0.0 
-3.126704961804e-05 9.787427797795e-04 0.0 
0.0 0.0 -1.463746444899e-04 
-5.845062236023e-05 -2.645214861765e-05 0.0 
-2.645214861765e-05 3.686249821293e-04 0.0 
0.0 0.0 -5.830856659963e-05 
-6.281564360845e-05 3.169608016734e-05 0.0 
3.169608016734e-05 3.841253318981e-04 0.0 
0.0 0.0 -6.293782921230e-05 
-1.650668794472e-04 2.900743383490e-05 0.0 
2.900743383490e-05 1.099051719168e-03 0.0 
0.0 0.0 -1.651106757487e-04 
-1.420507125182e-04 -2.816985865578e-05 0.0 
-2.816985865578e-05 9.486624777595e-04 0.0 
0.0 0.0 -1.420128425420e-04 
-1.597126278327e-04 2.832051794153e-05 0.0 
2.832051794153e-05 1.060784632571e-03 0.0 
0.0 0.0 -1.597282110823e-04 
-9.370204679761e-05 -2.720544142818e-05 0.0 
-2.720544142818e-05 6.123683048539e-04 0.0 
0.0 0.0 -9.358332744048e-05 
-1.060009958935e-04 3.119096932655e-06 0.0 
3.119096932655e-06 7.289348751363e-04 0.0 
0.0 0.0 -1.065887642422e-04 
-1.941219239478e-04 -5.797046838501e-06 0.0 
-5.797046838501e-06 1.266619729961e-03 0.0 
0.0 0.0 -1.922307546206e-04 
-5.313245642963e-05 3.042191767076e-05 0.0 
3.042191767076e-05 3.144966903172e-04 0.0 
0.0 0.0 -5.312725273094e-05 
-1.687809558173e-04 -2.631258109430e-05 0.0 
-2.631258109430e-05 1.128223470622e-03 0.0 
0.0 0.0 -1.681832374459e-04 
-1.273764443761e-04 -2.878158037897e-05 0.0 
-2.878158037897e-05 8.455758404914e-04 0.0 
0.0 0.0 -1.271565067773e-04 
-3.822255344261e-05 2.500156110728e-05 0.0 
2.500156110728e-05 2.364164359659e-04 0.0 
0.0 0.0 -4.338531818388e-05 
-1.526166386163e-04 2.805935182056e-05 0.0 
2.805935182056e-05 1.007602313688e-03 0.0 
0.0 0.0 -1.522749921841e-04 
-9.947746693308e-05 2.785738393031e-05 0.0 
2.785738393031e-05 6.395594624911e-04 0.0 
0.0 0.0 -9.942043292989e-05 
-2.527098467302e-05 3.065658406321e-06 0.0 
3.065658406321e-06 1.096951272292e-04 0.0 
0.0 0.0 -2.686452779226e-05 
-8.455323570062e-05 2.729291629105e-05 0.0 
2.729291629105e-05 5.361235094493e-04 0.0 
0.0 0.0 -8.448194383576e-05 
-1.482631539770e-04 2.903868462658e-05 0.0 
2.903868462658e-05 9.945552025979e-04 0.0 
0.0 0.0 -1.487312575846e-04 
-1.536438978435e-04 -2.997531100621e-05 0.0 
-2.997531100621e-05 1.028351940357e-03 0.0 
0.0 0.0 -1.531470540813e-04 
-4.003077281978e-05 -2.830715996030e-05 0.0 
-2.830715996030e-05 2.471369193857e-04 0.0 
0.0 0.0 -4.069786302508e-05 
-1.167976821101e-04 -1.770134624163e-05 0.0 
-1.770134624163e-05 8.139301953201e-04 0.0 
0.0 0.0 -1.211443205810e-04 
-1.611165232338e-04 2.978772478272e-05 0.0 
2.978772478272e-05 1.070172218379e-03 0.0 
0.0 0.0 -1.607673801326e-04 
-1.654344347163e-04 -2.702413096073e-05 0.0 
-2.702413096073e-05 1.117079121565e-03 0.0 
0.0 0.0 -1.664840065771e-04 
-8.012874751740e-05 2.708679385402e-05 0.0 
2.708679385402e-05 5.044541792441e-04 0.0 
0.0 0.0 -8.027607217676e-05 
-6.457567760665e-05 2.897485867730e-05 0.0 
2.897485867730e-05 3.931630492274e-04 0.0 
0.0 0.0 -6.500901228656e-05 
-1.319964825975e-04 2.994843719676e-05 0.0 
2.994843719676e-05 8.668112520758e-04 0.0 
0.0 0.0 -1.317940137408e-04 
-1.379973298544e-04 -3.231272729127e-05 0.0 
-3.231272729127e-05 9.176099760799e-04 0.0 
0.0 0.0 -1.391846276019e-04 
-2.511391392826e-05 -2.252014201736e-06 0.0 
-2.252014201736e-06 1.091572524748e-04 0.0 
0.0 0.0 -2.644390370036e-05 
-1.911173997413e-04 2.513512913462e-07 0.0 
2.513512913462e-07 1.307038771946e-03 0.0 
0.0 0.0 -1.903768894597e-04 
-1.947762233824e-04 2.804254327122e-06 0.0 
2.804254327122e-06 1.266513292292e-03 0.0 
0.0 0.0 -1.921796786394e-04 
-1.243941132727e-04 -2.875762744524e-05 0.0 
-2.875762744524e-05 8.122420463557e-04 0.0 
0.0 0.0 -1.258162180156e-04 
-1.867429468804e-04 -3.423015533406e-05 0.0 
-3.423015533406e-05 1.277419804644e-03 0.0 
0.0 0.0 -1.882556412575e-04 
-1.928393192665e-04 1.313739391776e-05 0.0 
1.313739391776e-05 1.270533835261e-03 0.0 
0.0 0.0 -1.928249870753e-04 
-9.825942552837e-05 2.769137061349e-05 0.0 
2.769137061349e-05 6.308847079493e-04 0.0 
0.0 0.0 -9.814123251155e-05 
-9.240950567659e-05 -2.688842748606e-05 0.0 
-2.688842748606e-05 6.034653479681e-04 0.0 
0.0 0.0 -9.230175702903e-05 
-1.924550016248e-04 -5.517505549700e-06 0.0 
-5.517505549700e-06 1.309202189480e-03 0.0 
0.0 0.0 -1.898303498781e-04 
0.0 0.0 0.0 
0.0 0.0 0.0 
0.0 0.0 0.0 
-5.986600181462e-05 3.134474346182e-05 0.0 
3.134474346182e-05 3.637594613067e-04 0.0 
0.0 0.0 -5.912561730725e-05 
-1.277191406744e-04 3.185114804781e-05 0.0 
3.185114804781e-05 8.113680378929e-04 0.0 
0.0 0.0 -1.249421346972e-04 
-7.954199844612e-05 -2.599168722282e-05 0.0 
-2.599168722282e-05 5.172406604270e-04 0.0 
0.0 0.0 -7.970319495692e-05 
-8.344577563047e-05 2.767374510833e-05 0.0 
2.767374510833e-05 5.269368746357e-04 0.0 
0.0 0.0 -8.320397106721e-05 
-5.123352415357e-05 -1.962082412885e-05 0.0 
-1.962082412885e-05 2.833973025222e-04 0.0 
0.0 0.0 -4.794777681703e-05 
-5.363517740645e-05 -2.722736862369e-05 0.0 
-2.722736862369e-05 3.397176592673e-04 0.0 
0.0 0.0 -5.292094912726e-05 
-1.229699465830e-04 -2.474218581881e-05 0.0 
-2.474218581881e-05 8.338820409090e-04 0.0 
0.0 0.0 -1.243503989146e-04 
-8.954054874187e-05 -2.810899154469e-05 0.0 
-2.810899154469e-05 5.833404363378e-04 0.0 
0.0 0.0 -8.944382273678e-05 
-6.985122537492e-05 2.547846832151e-05 0.0 
2.547846832151e-05 4.232868362094e-04 0.0 
0.0 0.0 -6.875210277632e-05 
-1.622986423916e-04 3.030474729066e-05 0.0 
3.030474729066e-05 1.075790270672e-03 0.0 
0.0 0.0 -1.616748170441e-04 
-1.970457297167e-04 -4.615350947610e-07 0.0 
-4.615350947610e-07 1.365353191212e-03 0.0 
0.0 0.0 -1.987468137814e-04 
-2.011643228250e-04 -1.059779547839e-05 0.0 
-1.059779547839e-05 1.364052595584e-03 0.0 
0.0 0.0 -1.980937377599e-04 
-9.693254618166e-05 2.783443467965e-05 0.0 
2.783443467965e-05 6.218009159431e-04 0.0 
0.0 0.0 -9.686140561256e-05 
-1.156312054849e-04 1.562675777246e-05 0.0 
1.562675777246e-05 7.473137010807e-04 0.0 
0.0 0.0 -1.181631233816e-04 
-1.315446083417e-05 9.267234980749e-06 0.0 
9.267234980749e-06 7.174483292748e-05 0.0 
0.0 0.0 -1.382283957119e-05 
-3.950432290439e-05 -3.304652588177e-05 0.0 
-3.304652588177e-05 2.232498512061e-04 0.0 
0.0 0.0 -3.848526569788e-05 
-4.026754611448e-05 -1.523950676683e-05 0.0 
-1.523950676683e-05 2.585395099571e-04 0.0 
0.0 0.0 -4.089435477168e-05 
-4.405717477573e-05 -2.840252196370e-05 0.0 
-2.840252196370e-05 2.593828358352e-04 0.0 
0.0 0.0 -4.353896887732e-05 
-1.369891124347e-04 -2.938640967182e-05 0.0 
-2.938640967182e-05 9.110848461242e-04 0.0 
0.0 0.0 -1.367406709454e-04 
-8.197230901988e-05 2.741985235272e-05 0.0 
2.741985235272e-05 5.176025942286e-04 0.0 
0.0 0.0 -8.189493801327e-05 
-8.833783776842e-05 -2.742859021068e-05 0.0 
-2.742859021068e-05 5.752104247670e-04 0.0 
0.0 0.0 -8.819787836180e-05 
-2.759805077317e-05 -2.177954618106e-05 0.0 
-2.177954618106e-05 1.516326812049e-04 0.0 
0.0 0.0 -2.410601229523e-05 
-1.783949706295e-04 4.652042299768e-06 0.0 
4.652042299768e-06 1.155328432911e-03 0.0 
0.0 0.0 -1.764490618968e-04 
-8.697929300319e-05 -2.712992243026e-05 0.0 
-2.712992243026e-05 5.660070619168e-04 0.0 
0.0 0.0 -8.689161518363e-05 
-1.811862770176e-04 2.958422209347e-05 0.0 
2.958422209347e-05 1.212546250600e-03 0.0 
0.0 0.0 -1.819436774484e-04 
-1.654326848783e-04 -2.150075195991e-05 0.0 
-2.150075195991e-05 1.111682717818e-03 0.0 
0.0 0.0 -1.676190675002e-04 
-1.990579489887e-04 7.558524711792e-06 0.0 
7.558524711792e-06 1.367618541641e-03 0.0 
0.0 0.0 -1.979127976728e-04 
-1.984740657803e-04 6.169813976071e-06 0.0 
6.169813976071e-06 1.366684838106e-03 0.0 
0.0 0.0 -1.987274449783e-04 
-1.264382104229e-04 2.327908082404e-05 0.0 
2.327908082404e-05 8.335131054815e-04 0.0 
0.0 0.0 -1.247270797671e-04 
-9.081273998971e-05 -2.642393334738e-05 0.0 
-2.642393334738e-05 5.943836386239e-04 0.0 
0.0 0.0 -9.095240399918e-05 
-5.659837629473e-05 2.310276724227e-05 0.0 
2.310276724227e-05 3.554825826269e-04 0.0 
0.0 0.0 -5.827376162698e-05 
-9.543789626242e-05 2.821234483008e-05 0.0 
2.821234483008e-05 6.121934733358e-04 0.0 
0.0 0.0 -9.551854370315e-05 
-2.014992525440e-04 -3.363348043908e-06 0.0 
-3.363348043908e-06 1.330768717372e-03 0.0 
0.0 0.0 -2.014992525440e-04 
-2.911856940717e-05 -3.120254985375e-05 0.0 
-3.120254985375e-05 1.523266154115e-04 0.0 
0.0 0.0 -2.840051313461e-05 
-3.367815072839e-05 -2.539476975202e-05 0.0 
-2.539476975202e-05 1.888854888445e-04 0.0 
0.0 0.0 -3.342821812567e-05 
-1.750673059660e-04 -2.242675268741e-05 0.0 
-2.242675268741e-05 1.168754862597e-03 0.0 
0.0 0.0 -1.734041932760e-04 
-1.140629508000e-04 1.641024004697e-06 0.0 
1.641024004697e-06 7.886218254393e-04 0.0 
0.0 0.0 -1.157284414847e-04 
-1.828276393895e-04 3.087967014604e-05 0.0 
3.087967014604e-05 1.221678860241e-03 0.0 
0.0 0.0 -1.828919613360e-04 
-1.607219730026e-04 -3.054484747269e-05 0.0 
-3.054484747269e-05 1.076626864861e-03 0.0 
0.0 0.0 -1.604417944905e-04 
-1.759974315114e-04 2.950983775753e-05 0.0 
2.950983775753e-05 1.175337678647e-03 0.0 
0.0 0.0 -1.762554578086e-04 
-1.677687622884e-04 -3.310916950601e-05 0.0 
-3.310916950601e-05 1.126220187005e-03 0.0 
0.0 0.0 -1.670365378361e-04 
-1.261810872000e-04 2.733892666963e-05 0.0 
2.733892666963e-05 8.227216474371e-04 0.0 
0.0 0.0 -1.281412631256e-04 
-6.984160407426e-05 -2.569852845702e-05 0.0 
-2.569852845702e-05 4.502664572317e-04 0.0 
0.0 0.0 -7.011576570921e-05 
-7.045526019658e-05 2.772076042237e-05 0.0 
2.772076042237e-05 4.380896674180e-04 0.0 
0.0 0.0 -7.073545507566e-05 
-1.466548664850e-04 2.792940741624e-05 0.0 
2.792940741624e-05 9.823660011168e-04 0.0 
0.0 0.0 -1.494458990106e-04 
-1.706023771645e-04 -3.477697252798e-05 0.0 
-3.477697252798e-05 1.150206027511e-03 0.0 
0.0 0.0 -1.713759566437e-04 
-1.085001106667e-04 5.928666841059e-06 0.0 
5.928666841059e-06 6.853690661460e-04 0.0 
0.0 0.0 -1.101783339608e-04 
-1.150649004483e-04 1.412858253897e-06 0.0 
1.412858253897e-06 7.864362268725e-04 0.0 
0.0 0.0 -1.151410349708e-04 
-1.223216217609e-04 -9.643435354381e-06 0.0 
-9.643435354381e-06 8.365929199838e-04 0.0 
0.0 0.0 -1.236345454383e-04 
-1.294729616351e-04 -3.600365409418e-05 0.0 
-3.600365409418e-05 8.499666954327e-04 0.0 
0.0 0.0 -1.270110218628e-04 
-3.781341392471e-05 2.507622857635e-05 0.0 
2.507622857635e-05 2.052845259731e-04 0.0 
0.0 0.0 -3.595854163006e-05 
-6.458682171984e-05 2.659164458955e-05 0.0 
2.659164458955e-05 3.972184272214e-04 0.0 
0.0 0.0 -6.502768632134e-05 
-1.923886982600e-04 1.320998767323e-05 0.0 
1.320998767323e-05 1.306937799646e-03 0.0 
0.0 0.0 -1.903965550180e-04 
-1.361980047059e-04 -3.247265742576e-05 0.0 
-3.247265742576e-05 9.100748945017e-04 0.0 
0.0 0.0 -1.372586556570e-04 
-1.944603101426e-04 2.205610195430e-05 0.0 
2.205610195430e-05 1.300606094326e-03 0.0 
0.0 0.0 -1.942983085767e-04 
-1.827075834453e-04 -2.487186144062e-05 0.0 
-2.487186144062e-05 1.245028194062e-03 0.0 
0.0 0.0 -1.823366321910e-04 
-1.526241956249e-04 -2.882515710348e-05 0.0 
-2.882515710348e-05 1.018355065020e-03 0.0 
0.0 0.0 -1.518848343264e-04 
-1.838055376607e-04 -2.220867482896e-05 0.0 
-2.220867482896e-05 1.227930453973e-03 0.0 
0.0 0.0 -1.822360600334e-04 
-9.189141723329e-05 2.249896247985e-05 0.0 
2.249896247985e-05 5.929179490977e-04 0.0 
0.0 0.0 -9.456744988920e-05 
-8.923687427635e-05 2.330452976089e-05 0.0 
2.330452976089e-05 5.640846174988e-04 0.0 
0.0 0.0 -8.500284120953e-05 
-1.860377161479e-04 2.101899850403e-05 0.0 
2.101899850403e-05 1.219211786622e-03 0.0 
0.0 0.0 -1.840276857211e-04 
-1.302266885565e-05 9.542950408396e-06 0.0 
9.542950408396e-06 4.432884133333e-05 0.0 
0.0 0.0 -1.341693106186e-05 
-5.991703112053e-05 -9.650650547908e-06 0.0 
-9.650650547908e-06 3.995700475142e-04 0.0 
0.0 0.0 -6.107461134110e-05 
-2.013608632250e-04 -1.747935064146e-06 0.0 
-1.747935064146e-06 1.327091793787e-03 0.0 
0.0 0.0 -2.013608632250e-04 
-3.423275746667e-05 -2.897869870394e-05 0.0 
-2.897869870394e-05 1.741934079208e-04 0.0 
0.0 0.0 -3.398704224317e-05 
-1.166987184465e-04 3.376260708005e-06 0.0 
3.376260708005e-06 7.464150060637e-04 0.0 
0.0 0.0 -1.180517715949e-04 
-1.852951862543e-04 -6.895901531864e-06 0.0 
-6.895901531864e-06 1.252882415007e-03 0.0 
0.0 0.0 -1.820192905179e-04 
-2.189567273794e-05 2.107266617838e-05 0.0 
2.107266617838e-05 1.234442803628e-04 0.0 
0.0 0.0 -2.343543478003e-05 
-1.465373239062e-05 -6.700273643796e-06 0.0 
-6.700273643796e-06 8.151640789741e-05 0.0 
0.0 0.0 -1.499806864391e-05 
-1.979646109231e-04 -1.647947049056e-05 0.0 
-1.647947049056e-05 1.362929175419e-03 0.0 
0.0 0.0 -1.986584787576e-04 
-1.077110760694e-04 1.347870292468e-05 0.0 
1.347870292468e-05 6.884288505410e-04 0.0 
0.0 0.0 -1.094181415373e-04 
-1.878064882795e-04 3.303246132633e-05 0.0 
3.303246132633e-05 1.280874072015e-03 0.0 
0.0 0.0 -1.892127523904e-04 
-1.872574646803e-04 1.669387870556e-06 0.0 
1.669387870556e-06 1.214710811889e-03 0.0 
0.0 0.0 -1.847787516803e-04 
-1.081384153803e-04 -8.265982315710e-06 0.0 
-8.265982315710e-06 6.863175329085e-04 0.0 
0.0 0.0 -1.093391956339e-04 
-1.183108474329e-05 -1.526745450730e-06 0.0 
-1.526745450730e-06 8.288041116295e-05 0.0 
0.0 0.0 -1.461037633882e-05 
-1.928461778371e-04 -1.450363078147e-05 0.0 
-1.450363078147e-05 1.269631515360e-03 0.0 
0.0 0.0 -1.926211076318e-04 
-3.664328028393e-05 -3.474192895717e-05 0.0 
-3.474192895717e-05 2.008554549357e-04 0.0 
0.0 0.0 -3.650318340572e-05 
-1.865092181227e-04 1.872239000524e-05 0.0 
1.872239000524e-05 1.228864859043e-03 0.0 
0.0 0.0 -1.848276476440e-04 
-2.014642658289e-04 -8.318866801388e-08 0.0 
-8.318866801388e-08 1.329164711416e-03 0.0 
0.0 0.0 -2.014642658289e-04 
-1.863725232052e-04 -2.215017484820e-05 0.0 
-2.215017484820e-05 1.224672282405e-03 0.0 
0.0 0.0 -1.838550531888e-04 
-4.579760219593e-05 2.993393437161e-05 0.0 
2.993393437161e-05 2.630911927245e-04 0.0 
0.0 0.0 -4.567146191493e-05 
-1.231376912533e-04 3.302421736628e-06 0.0 
3.302421736628e-06 8.455036824614e-04 0.0 
0.0 0.0 -1.241871602230e-04 
-9.897320674459e-05 -1.982042870943e-05 0.0 
-1.982042870943e-05 6.300759750379e-04 0.0 
0.0 0.0 -9.407984802336e-05 
-1.609514246157e-04 -3.024200816091e-05 0.0 
-3.024200816091e-05 1.078541844928e-03 0.0 
0.0 0.0 -1.616399041023e-04 
-1.984206323310e-04 -1.383870975889e-05 0.0 
-1.383870975889e-05 1.364918109129e-03 0.0 
0.0 0.0 -1.990496603105e-04 
-1.603101285724e-04 1.893623053607e-05 0.0 
1.893623053607e-05 1.069942872822e-03 0.0 
0.0 0.0 -1.592422372747e-04 
-2.006038303863e-04 1.656223959945e-05 0.0 
1.656223959945e-05 1.363483438763e-03 0.0 
0.0 0.0 -1.988805961512e-04 
-2.157799468526e-05 2.675018284335e-05 0.0 
2.675018284335e-05 1.121671203490e-04 0.0 
0.0 0.0 -2.573693149021e-05 
-1.906849838871e-04 -1.873571465641e-05 0.0 
-1.873571465641e-05 1.306053010621e-03 0.0 
0.0 0.0 -1.916484765783e-04 
-5.146266627946e-05 1.897216913104e-05 0.0 
1.897216913104e-05 3.060778228498e-04 0.0 
0.0 0.0 -5.033941334868e-05 
-3.400990015803e-05 1.312678026193e-05 0.0 
1.312678026193e-05 1.676110055634e-04 0.0 
0.0 0.0 -3.447177322316e-05 
-1.921352674404e-04 -1.514543928923e-05 0.0 
-1.514543928923e-05 1.307880338866e-03 0.0 
0.0 0.0 -1.905503066306e-04 
-1.903818942750e-04 -8.555148187785e-06 0.0 
-8.555148187785e-06 1.309224873111e-03 0.0 
0.0 0.0 -1.905905039252e-04 
-1.935313273260e-04 -2.488564283104e-05 0.0 
-2.488564283104e-05 1.299799287321e-03 0.0 
0.0 0.0 -1.934776258129e-04 
-1.157635836836e-04 3.075917002700e-05 0.0 
3.075917002700e-05 7.564878727472e-04 0.0 
0.0 0.0 -1.164394980702e-04 
-1.278320406392e-04 3.003959765809e-05 0.0 
3.003959765809e-05 8.242995150328e-04 0.0 
0.0 0.0 -1.273429404365e-04 
-4.747607610046e-05 -3.167630139555e-05 0.0 
-3.167630139555e-05 2.832612339686e-04 0.0 
0.0 0.0 -4.701750159920e-05 
-1.893682873149e-04 -1.213845527048e-05 0.0 
-1.213845527048e-05 1.308095530746e-03 0.0 
0.0 0.0 -1.909562210215e-04 
-7.758444785249e-05 2.579970670889e-05 0.0 
2.579970670889e-05 5.061981746731e-04 0.0 
0.0 0.0 -8.036225567980e-05 
-2.672886924063e-05 -2.537961056617e-05 0.0 
-2.537961056617e-05 1.614624818245e-04 0.0 
0.0 0.0 -3.171414542872e-05 
-1.655918154031e-04 2.787053237580e-05 0.0 
2.787053237580e-05 1.112934476303e-03 0.0 
0.0 0.0 -1.665212293607e-04 
-1.050972551552e-04 -3.025884205917e-06 0.0 
-3.025884205917e-06 7.225874036591e-04 0.0 
0.0 0.0 -1.064449299410e-04 
-1.855125743211e-04 2.284061724598e-05 0.0 
2.284061724598e-05 1.238197266214e-03 0.0 
0.0 0.0 -1.856594579394e-04 
-1.969980593816e-04 -2.792765841710e-05 0.0 
-2.792765841710e-05 1.348466243731e-03 0.0 
0.0 0.0 -1.982264973081e-04 
-2.015598306414e-04 -1.228437926459e-06 0.0 
-1.228437926459e-06 1.329727235481e-03 0.0 
0.0 0.0 -2.015598306414e-04 
-3.170965654814e-06 -9.174846607934e-06 0.0 
-9.174846607934e-06 3.186703010945e-05 0.0 
0.0 0.0 -6.440169358563e-06 
-2.054361880700e-06 8.524325078712e-06 0.0 
8.524325078712e-06 1.000738199139e-05 0.0 
0.0 0.0 -3.408437190294e-06 
-1.090415563488e-04 -2.544674541070e-05 0.0 
-2.544674541070e-05 7.025551525996e-04 0.0 
0.0 0.0 -1.097735026919e-04 
-1.102790978540e-04 4.096896239264e-06 0.0 
4.096896239264e-06 7.242490524547e-04 0.0 
0.0 0.0 -1.064401693586e-04 
-2.015598306414e-04 1.769844580753e-06 0.0 
1.769844580753e-06 1.328559462674e-03 0.0 
0.0 0.0 -2.015598306414e-04 
-1.964566527274e-04 2.745948387429e-05 0.0 
2.745948387429e-05 1.347766645467e-03 0.0 
0.0 0.0 -1.982264973081e-04 
-1.175853557175e-05 2.296138750723e-05 0.0 
2.296138750723e-05 7.476526502358e-05 0.0 
0.0 0.0 -1.468179278604e-05 
0.0 0.0 0.0 
0.0 0.0 0.0 
0.0 0.0 0.0 
-1.860643112087e-04 1.892522092608e-05 0.0 
1.892522092608e-05 1.220604956089e-03 0.0 
0.0 0.0 -1.845272605536e-04 
-1.810613338557e-04 3.690531828789e-05 0.0 
3.690531828789e-05 1.227609320804e-03 0.0 
0.0 0.0 -1.814046177210e-04 
-3.775454928550e-05 -2.192142162525e-05 0.0 
-2.192142162525e-05 2.530653962175e-04 0.0 
0.0 0.0 -4.069012186385e-05 
-1.867893258397e-04 -1.967907292950e-05 0.0 
-1.967907292950e-05 1.242445273872e-03 0.0 
0.0 0.0 -1.860287822001e-04 
-1.322273957044e-04 -7.821980177849e-06 0.0 
-7.821980177849e-06 8.613081851453e-04 0.0 
0.0 0.0 -1.333256398531e-04 
-1.174513720599e-04 -2.922099993004e-05 0.0 
-2.922099993004e-05 7.623791286875e-04 0.0 
0.0 0.0 -1.141619444601e-04 
-1.434157263431e-04 1.469820453960e-05 0.0 
1.469820453960e-05 9.640681819544e-04 0.0 
0.0 0.0 -1.410117391569e-04 
-3.721642999109e-05 2.244542666226e-05 0.0 
2.244542666226e-05 2.273693429633e-04 0.0 
0.0 0.0 -3.939304728150e-05 
-1.516361842959e-04 -3.045658684071e-05 0.0 
-3.045658684071e-05 1.014390478774e-03 0.0 
0.0 0.0 -1.517486197524e-04 
-3.145165589743e-05 4.872235620209e-06 0.0 
4.872235620209e-06 2.090450929269e-04 0.0 
0.0 0.0 -3.272226055558e-05 
-1.018895751593e-04 -2.838951770175e-05 0.0 
-2.838951770175e-05 6.787429923759e-04 0.0 
0.0 0.0 -1.049612269729e-04 
-1.842198203986e-04 1.688848171670e-05 0.0 
1.688848171670e-05 1.232258602772e-03 0.0 
0.0 0.0 -1.860778644041e-04 
-1.784559347742e-04 -3.196727202869e-05 0.0 
-3.196727202869e-05 1.203750059331e-03 0.0 
0.0 0.0 -1.787589168632e-04 
-1.106507503052e-04 1.655731803460e-05 0.0 
1.655731803460e-05 7.326885674445e-04 0.0 
0.0 0.0 -1.153641303439e-04 
-1.319245288081e-04 -2.759428203750e-05 0.0 
-2.759428203750e-05 8.842042796758e-04 0.0 
0.0 0.0 -1.311848925397e-04 
-1.849952147230e-04 1.224005731978e-05 0.0 
1.224005731978e-05 1.253709795229e-03 0.0 
0.0 0.0 -1.825679017964e-04 
-1.712361580956e-04 -3.249029055204e-05 0.0 
-3.249029055204e-05 1.152848638026e-03 0.0 
0.0 0.0 -1.711417214974e-04 
-1.621790656513e-04 -3.130066982025e-05 0.0 
-3.130066982025e-05 1.085309995837e-03 0.0 
0.0 0.0 -1.614640498619e-04 
-1.095991344629e-04 1.548110486480e-06 0.0 
1.548110486480e-06 6.849847840864e-04 0.0 
0.0 0.0 -1.096818516252e-04 
-1.466797614329e-04 -3.177988380746e-05 0.0 
-3.177988380746e-05 9.793946946612e-04 0.0 
0.0 0.0 -1.464567251102e-04 
-1.856217654582e-04 1.836261976242e-05 0.0 
1.836261976242e-05 1.223913084915e-03 0.0 
0.0 0.0 -1.847107394661e-04 
-6.401317792094e-05 1.777757210555e-05 0.0 
1.777757210555e-05 3.770292953028e-04 0.0 
0.0 0.0 -6.251951766002e-05 
-1.488249501970e-05 -6.661613433420e-06 0.0 
-6.661613433420e-06 9.049355169821e-05 0.0 
0.0 0.0 -1.522736731176e-05 
-1.794781203063e-04 -2.177148621612e-05 0.0 
-2.177148621612e-05 1.190948333360e-03 0.0 
0.0 0.0 -1.778962838413e-04 
-1.689754393540e-04 2.666341982877e-05 0.0 
2.666341982877e-05 1.121590302909e-03 0.0 
0.0 0.0 -1.685307334786e-04 
-3.117516894872e-05 -1.620379493923e-05 0.0 
-1.620379493923e-05 1.675088401558e-04 0.0 
0.0 0.0 -3.460570515138e-05 
-1.490209525484e-04 -2.398959439852e-05 0.0 
-2.398959439852e-05 1.009624786866e-03 0.0 
0.0 0.0 -1.484000725648e-04 
-1.941728230886e-04 -6.317229650202e-06 0.0 
-6.317229650202e-06 1.268109449836e-03 0.0 
0.0 0.0 -1.924109378829e-04 
-1.782640686020e-04 1.811418483105e-05 0.0 
1.811418483105e-05 1.176788769021e-03 0.0 
0.0 0.0 -1.773110165667e-04 
-1.844275111855e-04 -4.383617168842e-06 0.0 
-4.383617168842e-06 1.252791151838e-03 0.0 
0.0 0.0 -1.822694409164e-04 
-1.426350801095e-04 -3.166405234979e-05 0.0 
-3.166405234979e-05 9.429700556337e-04 0.0 
0.0 0.0 -1.430568974379e-04 
-1.367048638434e-05 7.547793984128e-06 0.0 
7.547793984128e-06 4.809613176051e-05 0.0 
0.0 0.0 -1.475384801836e-05 
-4.817205637438e-05 1.518979907033e-05 0.0 
1.518979907033e-05 2.815959802160e-04 0.0 
0.0 0.0 -4.818665537949e-05 
-5.802518359896e-05 -3.237118775929e-05 0.0 
-3.237118775929e-05 3.560287674836e-04 0.0 
0.0 0.0 -5.751524148975e-05 
-1.222811217371e-04 4.923148903369e-06 0.0 
4.923148903369e-06 8.049151145100e-04 0.0 
0.0 0.0 -1.270714490912e-04 
-1.466466955193e-04 3.242901086422e-05 0.0 
3.242901086422e-05 9.717833108994e-04 0.0 
0.0 0.0 -1.467240436239e-04 
-1.865030099579e-04 -2.458316919408e-05 0.0 
-2.458316919408e-05 1.244081238438e-03 0.0 
0.0 0.0 -1.854811886535e-04 
-1.924470582108e-04 1.025180310993e-05 0.0 
1.025180310993e-05 1.267008412016e-03 0.0 
0.0 0.0 -1.923487814140e-04 
-2.301609062590e-05 -4.635179033559e-06 0.0 
-4.635179033559e-06 1.491120452597e-04 0.0 
0.0 0.0 -2.371590567936e-05 
-2.273962015617e-05 8.021387614828e-06 0.0 
8.021387614828e-06 1.424948937247e-04 0.0 
0.0 0.0 -2.307420961409e-05 
-3.644996023323e-05 3.054667220110e-05 0.0 
3.054667220110e-05 2.219148594571e-04 0.0 
0.0 0.0 -3.877784743978e-05 
-1.505507532998e-04 4.198429125548e-05 0.0 
4.198429125548e-05 1.006744199268e-03 0.0 
0.0 0.0 -1.528863196834e-04 
-7.623962459717e-05 -2.731195048099e-05 0.0 
-2.731195048099e-05 4.837899918121e-04 0.0 
0.0 0.0 -7.429924588525e-05 
-1.863524508622e-04 -2.262089027383e-05 0.0 
-2.262089027383e-05 1.249803366509e-03 0.0 
0.0 0.0 -1.861947641336e-04 
-3.704741075814e-05 -2.601020683146e-05 0.0 
-2.601020683146e-05 2.394628484622e-04 0.0 
0.0 0.0 -3.935861431135e-05 
-1.838103394031e-04 1.452656825211e-05 0.0 
1.452656825211e-05 1.213648829434e-03 0.0 
0.0 0.0 -1.831728902790e-04 
-1.220456595190e-04 2.683931147050e-05 0.0 
2.683931147050e-05 8.169008266022e-04 0.0 
0.0 0.0 -1.251559851210e-04 
-1.901741937142e-04 2.069168076264e-07 0.0 
2.069168076264e-07 1.274360012601e-03 0.0 
0.0 0.0 -1.930223408588e-04 
-1.664726505804e-04 -3.515055495158e-05 0.0 
-3.515055495158e-05 1.122391429995e-03 0.0 
0.0 0.0 -1.666682952710e-04 
-1.230362842828e-04 -1.324599728564e-05 0.0 
-1.324599728564e-05 8.068584181325e-04 0.0 
0.0 0.0 -1.269771275557e-04 
-1.906319308292e-04 -7.278184392237e-06 0.0 
-7.278184392237e-06 1.308928167031e-03 0.0 
0.0 0.0 -1.903713883127e-04 
-1.924018578301e-04 1.168444968946e-05 0.0 
1.168444968946e-05 1.309753043894e-03 0.0 
0.0 0.0 -1.909090898364e-04 
-1.885954729481e-04 9.336154218136e-06 0.0 
9.336154218136e-06 1.306961112302e-03 0.0 
0.0 0.0 -1.907009018511e-04 
-2.601124528020e-05 2.982465109597e-05 0.0 
2.982465109597e-05 1.494137909599e-04 0.0 
0.0 0.0 -2.872079986757e-05 
-1.827342744304e-04 2.617845691474e-05 0.0 
2.617845691474e-05 1.218950538624e-03 0.0 
0.0 0.0 -1.827464329712e-04 
-1.931535913243e-04 4.402691257463e-06 0.0 
4.402691257463e-06 1.267632643707e-03 0.0 
0.0 0.0 -1.929967939697e-04 
-1.822938180469e-04 -1.572479834584e-05 0.0 
-1.572479834584e-05 1.239626265032e-03 0.0 
0.0 0.0 -1.817603729293e-04 
-1.697190279031e-04 3.374893720717e-05 0.0 
3.374893720717e-05 1.140711286613e-03 0.0 
0.0 0.0 -1.714881096122e-04 
-2.013997750954e-04 3.693939357452e-06 0.0 
3.693939357452e-06 1.326398449399e-03 0.0 
0.0 0.0 -2.013997750954e-04 
-1.623768653750e-04 3.145458215279e-05 0.0 
3.145458215279e-05 1.075477552169e-03 0.0 
0.0 0.0 -1.618597882954e-04 
0.0 0.0 0.0 
0.0 0.0 0.0 
0.0 0.0 0.0 
-3.901664739789e-05 -3.107536671977e-05 0.0 
-3.107536671977e-05 2.123759730741e-04 0.0 
0.0 0.0 -3.635714225545e-05 
-1.788762468223e-04 -2.668815126998e-05 0.0 
-2.668815126998e-05 1.194169313249e-03 0.0 
0.0 0.0 -1.765404546707e-04 
-1.302843948315e-04 2.373413498694e-05 0.0 
2.373413498694e-05 8.753673031711e-04 0.0 
0.0 0.0 -1.332692038199e-04 
-1.814833852286e-04 -2.932987962222e-05 0.0 
-2.932987962222e-05 1.228315456518e-03 0.0 
0.0 0.0 -1.832991189648e-04 
-1.755755594055e-04 -3.314975176265e-05 0.0 
-3.314975176265e-05 1.186338389567e-03 0.0 
0.0 0.0 -1.765514316642e-04 
-1.922058959132e-04 -7.323986232709e-06 0.0 
-7.323986232709e-06 1.275540875639e-03 0.0 
0.0 0.0 -1.938374750990e-04 
-1.590886801341e-04 3.535348640505e-05 0.0 
3.535348640505e-05 1.086454937064e-03 0.0 
0.0 0.0 -1.628282188246e-04 
-1.943136192193e-04 -2.017280466188e-06 0.0 
-2.017280466188e-06 1.274660348820e-03 0.0 
0.0 0.0 -1.933460184500e-04 
-1.860409899402e-04 -2.465939863213e-05 0.0 
-2.465939863213e-05 1.243243537266e-03 0.0 
0.0 0.0 -1.849983659001e-04 
-1.854493454621e-04 2.521523578023e-05 0.0 
2.521523578023e-05 1.237363143253e-03 0.0 
0.0 0.0 -1.852565349593e-04 
-7.800610219477e-05 -1.750136496523e-05 0.0 
-1.750136496523e-05 5.077823231346e-04 0.0 
0.0 0.0 -7.657446018549e-05 
-1.940082963474e-04 -3.011324743449e-06 0.0 
-3.011324743449e-06 1.367135927910e-03 0.0 
0.0 0.0 -1.988462912301e-04 
-1.122847898646e-04 2.150658952302e-06 0.0 
2.150658952302e-06 7.831127334676e-04 0.0 
0.0 0.0 -1.149322996356e-04 
-1.805030425337e-04 -2.769681372488e-05 0.0 
-2.769681372488e-05 1.229209747324e-03 0.0 
0.0 0.0 -1.826109592864e-04 
-2.210772205688e-05 -1.141237861015e-05 0.0 
-1.141237861015e-05 1.058730840806e-04 0.0 
0.0 0.0 -2.642964691976e-05 
-1.709643782764e-04 -1.864471641412e-05 0.0 
-1.864471641412e-05 1.187155150464e-03 0.0 
0.0 0.0 -1.744803730939e-04 
-1.477070854664e-04 -4.391729024467e-06 0.0 
-4.391729024467e-06 1.020449993757e-03 0.0 
0.0 0.0 -1.488920056885e-04 
-2.536340853786e-05 -1.617904342885e-05 0.0 
-1.617904342885e-05 1.410312003150e-04 0.0 
0.0 0.0 -2.442930455436e-05 
-4.478297823031e-05 -3.360325145203e-05 0.0 
-3.360325145203e-05 2.463363294936e-04 0.0 
0.0 0.0 -4.105386472454e-05 
-1.667572652522e-04 3.269260421942e-05 0.0 
3.269260421942e-05 1.106671823298e-03 0.0 
0.0 0.0 -1.661371793467e-04 
-1.939345119211e-04 -2.917973958076e-06 0.0 
-2.917973958076e-06 1.271284650607e-03 0.0 
0.0 0.0 -1.928053293992e-04 
-1.848839491830e-04 -2.511864242369e-05 0.0 
-2.511864242369e-05 1.245193806993e-03 0.0 
0.0 0.0 -1.835875952628e-04 
-1.881692614413e-04 3.512850772842e-05 0.0 
3.512850772842e-05 1.283926120996e-03 0.0 
0.0 0.0 -1.897169183402e-04 
-1.319951739136e-04 3.692265338647e-05 0.0 
3.692265338647e-05 8.669086104393e-04 0.0 
0.0 0.0 -1.321134885410e-04 
-1.418897775030e-05 -1.383603751222e-06 0.0 
-1.383603751222e-06 8.390464903167e-05 0.0 
0.0 0.0 -1.533750852324e-05 
-1.776342507387e-05 2.898590661281e-05 0.0 
2.898590661281e-05 1.254111435077e-04 0.0 
0.0 0.0 -2.291448659297e-05 
-2.228661035164e-05 3.086208171882e-05 0.0 
3.086208171882e-05 7.414588274207e-05 0.0 
0.0 0.0 -1.893168834827e-05 
-2.834935998913e-05 -2.581094466031e-05 0.0 
-2.581094466031e-05 1.798484559935e-04 0.0 
0.0 0.0 -3.120083896163e-05 
-3.619195444299e-06 1.726688320319e-05 0.0 
1.726688320319e-05 1.889854846973e-05 0.0 
0.0 0.0 -6.548294153755e-06 
-9.846508312271e-05 1.947611327116e-05 0.0 
1.947611327116e-05 6.774458586389e-04 0.0 
0.0 0.0 -1.012995679080e-04 
-1.809123785598e-04 2.900682068589e-05 0.0 
2.900682068589e-05 1.227040363573e-03 0.0 
0.0 0.0 -1.833458990909e-04 
-1.833994977543e-04 2.630052083884e-05 0.0 
2.630052083884e-05 1.234115337032e-03 0.0 
0.0 0.0 -1.834249670905e-04 
-1.300388728735e-04 -2.726917383980e-05 0.0 
-2.726917383980e-05 8.766264197221e-04 0.0 
0.0 0.0 -1.323946974752e-04 
-9.060072859628e-05 -4.107401100024e-05 0.0 
-4.107401100024e-05 5.837911416729e-04 0.0 
0.0 0.0 -8.982794765771e-05 
-1.833530943830e-04 -2.415896483629e-05 0.0 
-2.415896483629e-05 1.239029730488e-03 0.0 
0.0 0.0 -1.831601862249e-04 
-1.805620370494e-04 3.417310065365e-05 0.0 
3.417310065365e-05 1.228469068547e-03 0.0 
0.0 0.0 -1.813053981465e-04 
-1.918538788466e-04 1.314902849118e-05 0.0 
1.314902849118e-05 1.311238991232e-03 0.0 
0.0 0.0 -1.908378613718e-04 
-1.864057830892e-04 -5.544571809971e-06 0.0 
-5.544571809971e-06 1.222330684115e-03 0.0 
0.0 0.0 -1.856133406407e-04 
-1.761014518088e-04 2.982850443616e-05 0.0 
2.982850443616e-05 1.172453916966e-03 0.0 
0.0 0.0 -1.756848094018e-04 
-2.508081297429e-05 1.384675978348e-05 0.0 
1.384675978348e-05 1.057075733602e-04 0.0 
0.0 0.0 -2.599564028619e-05 
-1.693383348172e-05 -2.312304690448e-05 0.0 
-2.312304690448e-05 1.227259030012e-04 0.0 
0.0 0.0 -2.162456296189e-05 
-1.849301832798e-04 -2.375114059264e-05 0.0 
-2.375114059264e-05 1.241181941517e-03 0.0 
0.0 0.0 -1.835494310512e-04 
-2.714207379428e-05 4.098769542459e-06 0.0 
4.098769542459e-06 1.072549946886e-04 0.0 
0.0 0.0 -2.642284971932e-05 
-3.135918366895e-05 4.019659049340e-05 0.0 
4.019659049340e-05 1.551282952784e-04 0.0 
0.0 0.0 -2.899999999997e-05 
-2.063383903873e-05 2.842818060864e-05 0.0 
2.842818060864e-05 9.408870534127e-05 0.0 
0.0 0.0 -2.215380543414e-05 
-2.425090272541e-05 -2.758476542693e-05 0.0 
-2.758476542693e-05 1.189291029536e-04 0.0 
0.0 0.0 -2.370445218759e-05 
-1.950651601912e-04 -1.537310237433e-06 0.0 
-1.537310237433e-06 1.272610956963e-03 0.0 
0.0 0.0 -1.932856728082e-04 
-1.944294159836e-04 -1.137183943863e-05 0.0 
-1.137183943863e-05 1.275116374494e-03 0.0 
0.0 0.0 -1.935170455059e-04 
-1.886696034913e-04 2.831262697735e-05 0.0 
2.831262697735e-05 1.244837435708e-03 0.0 
0.0 0.0 -1.855361636489e-04 
-1.959472726026e-04 1.351216089980e-08 0.0 
1.351216089980e-08 1.278564115673e-03 0.0 
0.0 0.0 -1.938907836251e-04 
-1.787271859105e-04 -2.284872940721e-05 0.0 
-2.284872940721e-05 1.187153147202e-03 0.0 
0.0 0.0 -1.765318707366e-04 
-1.351456084785e-04 3.971362658995e-05 0.0 
3.971362658995e-05 9.093020497765e-04 0.0 
0.0 0.0 -1.375519566527e-04 
-2.017604167332e-04 -1.836539241269e-06 0.0 
-1.836539241269e-06 1.330878883476e-03 0.0 
0.0 0.0 -2.017604167332e-04 
-4.752774343128e-05 -1.713587701896e-05 0.0 
-1.713587701896e-05 3.107525644044e-04 0.0 
0.0 0.0 -4.996133636201e-05 
-1.024919488492e-04 4.191622503833e-07 0.0 
4.191622503833e-07 7.218789940397e-04 0.0 
0.0 0.0 -1.062461082510e-04 
-2.975599916326e-05 9.106261967341e-06 0.0 
9.106261967341e-06 1.955746439529e-04 0.0 
0.0 0.0 -3.129496823211e-05 
-1.232098886184e-05 7.093050022653e-06 0.0 
7.093050022653e-06 4.161179421085e-05 0.0 
0.0 0.0 -1.255320229243e-05 
-1.944497355390e-04 5.978296495926e-06 0.0 
5.978296495926e-06 1.366328994781e-03 0.0 
0.0 0.0 -1.985775144829e-04 
-1.145512522937e-04 -8.915219508627e-06 0.0 
-8.915219508627e-06 7.945910020626e-04 0.0 
0.0 0.0 -1.159689174441e-04 
-2.848344092071e-05 4.003321639578e-06 0.0 
4.003321639578e-06 1.986241883576e-04 0.0 
0.0 0.0 -3.173012194873e-05 
-1.014959600204e-04 3.503938933843e-05 0.0 
3.503938933843e-05 6.393289370777e-04 0.0 
0.0 0.0 -9.855747970559e-05 
-1.905583345653e-04 2.687091843220e-06 0.0 
2.687091843220e-06 1.311634272187e-03 0.0 
0.0 0.0 -1.915206309854e-04 
-1.857526928997e-04 -2.471303146073e-05 0.0 
-2.471303146073e-05 1.243107974826e-03 0.0 
0.0 0.0 -1.842925442824e-04 
-1.948868254755e-04 -1.041522172143e-06 0.0 
-1.041522172143e-06 1.275180970734e-03 0.0 
0.0 0.0 -1.934499806569e-04 
-7.012133808743e-05 -2.162576108704e-05 0.0 
-2.162576108704e-05 4.594521408120e-04 0.0 
0.0 0.0 -7.043099580601e-05 
-2.186534210929e-05 -2.363395921601e-05 0.0 
-2.363395921601e-05 1.124805107313e-04 0.0 
0.0 0.0 -2.329832943476e-05 
-1.928869723946e-04 -1.747685447208e-05 0.0 
-1.747685447208e-05 1.309527415302e-03 0.0 
0.0 0.0 -1.909716586738e-04 
-1.948223937585e-04 3.463630469138e-06 0.0 
3.463630469138e-06 1.366072774039e-03 0.0 
0.0 0.0 -1.988029557152e-04 
-1.997972325631e-04 -2.657071604694e-06 0.0 
-2.657071604694e-06 1.368996078479e-03 0.0 
0.0 0.0 -1.985675284643e-04 
-1.149075065172e-04 1.970313765657e-05 0.0 
1.970313765657e-05 7.553309514488e-04 0.0 
0.0 0.0 -1.151014696305e-04 
-1.853670490970e-04 -6.789881419617e-07 0.0 
-6.789881419617e-07 1.217253462195e-03 0.0 
0.0 0.0 -1.847801502676e-04 
-2.929766823262e-05 -1.423662774746e-05 0.0 
-1.423662774746e-05 1.684447109910e-04 0.0 
0.0 0.0 -3.486300268346e-05 
-1.886376341972e-04 2.491029484498e-05 0.0 
2.491029484498e-05 1.251144203043e-03 0.0 
0.0 0.0 -1.862363266401e-04 
-1.225588461862e-05 -1.620442536661e-06 0.0 
-1.620442536661e-06 4.088176785210e-05 0.0 
0.0 0.0 -1.226823567149e-05 
-1.959443734270e-04 -1.593633800896e-06 0.0 
-1.593633800896e-06 1.275907277954e-03 0.0 
0.0 0.0 -1.936070242144e-04 
-1.921705025686e-04 1.672528369413e-05 0.0 
1.672528369413e-05 1.305355282221e-03 0.0 
0.0 0.0 -1.902878095246e-04 
-1.213509693042e-05 -9.695671298578e-06 0.0 
-9.695671298578e-06 4.146515921011e-05 0.0 
0.0 0.0 -1.257002669129e-05 
-1.793207099600e-04 -2.104295957024e-05 0.0 
-2.104295957024e-05 1.192465817629e-03 0.0 
0.0 0.0 -1.767027422389e-04 
-1.542349507493e-04 -2.789525500736e-05 0.0 
-2.789525500736e-05 1.046690456158e-03 0.0 
0.0 0.0 -1.580789522666e-04 
-1.934231585208e-04 -4.589161303043e-06 0.0 
-4.589161303043e-06 1.276393454338e-03 0.0 
0.0 0.0 -1.934530862915e-04 
-2.019364116565e-04 -1.570828685488e-06 0.0 
-1.570828685488e-06 1.334544060367e-03 0.0 
0.0 0.0 -2.019364116565e-04 
-1.443736664853e-04 -4.496434299745e-05 0.0 
-4.496434299745e-05 9.564830102373e-04 0.0 
0.0 0.0 -1.444096547634e-04 
-1.939456756852e-04 2.017652496131e-06 0.0 
2.017652496131e-06 1.279640861987e-03 0.0 
0.0 0.0 -1.938765919206e-04 
-1.869172796684e-04 -2.300922739472e-05 0.0 
-2.300922739472e-05 1.248797853845e-03 0.0 
0.0 0.0 -1.854760755851e-04 
-1.511310601618e-04 1.323861223544e-06 0.0 
1.323861223544e-06 9.820371097651e-04 0.0 
0.0 0.0 -1.514438176870e-04 
-1.859523187257e-04 -2.150500838709e-06 0.0 
-2.150500838709e-06 1.237126209909e-03 0.0 
0.0 0.0 -1.871408849840e-04 
-8.159488617983e-05 -1.939805324608e-05 0.0 
-1.939805324608e-05 5.359838852638e-04 0.0 
0.0 0.0 -8.502783899585e-05 
-1.113338579071e-04 -3.576614126909e-06 0.0 
-3.576614126909e-06 6.830287758959e-04 0.0 
0.0 0.0 -1.093177095251e-04 
-1.875695645106e-04 2.166688210212e-05 0.0 
2.166688210212e-05 1.248595569192e-03 0.0 
0.0 0.0 -1.858828511717e-04 
-1.916898687047e-04 1.740402246749e-05 0.0 
1.740402246749e-05 1.297694891500e-03 0.0 
0.0 0.0 -1.929759641265e-04 
0.0 0.0 0.0 
0.0 0.0 0.0 
0.0 0.0 0.0 
-1.108754537982e-04 8.190067800634e-06 0.0 
8.190067800634e-06 6.858465185805e-04 0.0 
0.0 0.0 -1.092688595421e-04 
-1.923809518426e-04 -1.819844630735e-05 0.0 
-1.819844630735e-05 1.300229094043e-03 0.0 
0.0 0.0 -1.932123727438e-04 
-4.002001247467e-05 2.006963566931e-05 0.0 
2.006963566931e-05 2.328825741027e-04 0.0 
0.0 0.0 -4.148470287098e-05 
-1.866472002231e-04 4.880453877379e-06 0.0 
4.880453877379e-06 1.252749307024e-03 0.0 
0.0 0.0 -1.819878549007e-04 
-1.819209478198e-04 -2.068448510872e-05 0.0 
-2.068448510872e-05 1.244408370608e-03 0.0 
0.0 0.0 -1.838914853240e-04 
-1.915111223810e-04 -2.323214646959e-05 0.0 
-2.323214646959e-05 1.305780620660e-03 0.0 
0.0 0.0 -1.903556752671e-04 
-3.701661376552e-05 2.035950265076e-05 0.0 
2.035950265076e-05 2.272671486071e-04 0.0 
0.0 0.0 -3.971981059879e-05 
-2.769286414478e-05 7.747329809448e-06 0.0 
7.747329809448e-06 1.806614107884e-04 0.0 
0.0 0.0 -2.859863994447e-05 
-1.242949117924e-04 5.074427327232e-05 0.0 
5.074427327232e-05 7.859669856420e-04 0.0 
0.0 0.0 -1.190920679387e-04 
-1.709477821043e-04 1.206352581251e-05 0.0 
1.206352581251e-05 1.132186117532e-03 0.0 
0.0 0.0 -1.681261804956e-04 
1.014327330368e-06 7.383782533250e-07 0.0 
7.383782533250e-07 2.927583678911e-05 0.0 
0.0 0.0 -6.243845128022e-06 
-1.946447373769e-04 -4.455018500166e-06 0.0 
-4.455018500166e-06 1.280717844331e-03 0.0 
0.0 0.0 -1.938350263003e-04 
-1.424463118062e-04 5.764408395156e-06 0.0 
5.764408395156e-06 9.202154133526e-04 0.0 
0.0 0.0 -1.425289220759e-04 
-3.478878306297e-05 -2.499498638801e-05 0.0 
-2.499498638801e-05 2.296892403380e-04 0.0 
0.0 0.0 -3.902841992921e-05 
-1.377312918912e-04 9.864863143696e-06 0.0 
9.864863143696e-06 8.735402280856e-04 0.0 
0.0 0.0 -1.354581645892e-04 
-1.922007867126e-04 -1.822737660514e-05 0.0 
-1.822737660514e-05 1.307890918218e-03 0.0 
0.0 0.0 -1.907465343871e-04 
-1.254239889598e-04 -4.359753515645e-05 0.0 
-4.359753515645e-05 8.286556014884e-04 0.0 
0.0 0.0 -1.240920679387e-04 
-1.353144492439e-05 -2.813094036452e-05 0.0 
-2.813094036452e-05 4.877548767693e-05 0.0 
0.0 0.0 -1.316471896826e-05 
-8.142748840058e-05 2.105549334848e-05 0.0 
2.105549334848e-05 4.801057020835e-04 0.0 
0.0 0.0 -7.814452609390e-05 
-1.089615496817e-04 1.599271894156e-05 0.0 
1.599271894156e-05 7.175407804816e-04 0.0 
0.0 0.0 -1.097999625750e-04 
-1.256926158202e-04 5.260336234632e-05 0.0 
5.260336234632e-05 8.559229925287e-04 0.0 
0.0 0.0 -1.289999999999e-04 
-1.861165675973e-04 -2.159470551462e-05 0.0 
-2.159470551462e-05 1.249429060897e-03 0.0 
0.0 0.0 -1.849170288086e-04 
-1.106499789189e-04 -2.590861534469e-05 0.0 
-2.590861534469e-05 6.926866843830e-04 0.0 
0.0 0.0 -1.076326444904e-04 
-1.112884178496e-04 1.305986126263e-05 0.0 
1.305986126263e-05 7.358491413001e-04 0.0 
0.0 0.0 -1.139494348250e-04 
-2.588411427290e-05 1.911750771148e-05 0.0 
1.911750771148e-05 1.061373083438e-04 0.0 
0.0 0.0 -2.326846092920e-05 
-1.893744793615e-04 2.103198860830e-05 0.0 
2.103198860830e-05 1.246033425132e-03 0.0 
0.0 0.0 -1.860944804855e-04 
-1.813760335911e-04 2.431983118237e-05 0.0 
2.431983118237e-05 1.192575940689e-03 0.0 
0.0 0.0 -1.779543165055e-04 
-3.341687545780e-05 1.295689628708e-05 0.0 
1.295689628708e-05 1.947474497127e-04 0.0 
0.0 0.0 -3.617538986514e-05 
-1.891790155312e-04 -1.249004293212e-05 0.0 
-1.249004293212e-05 1.282842787366e-03 0.0 
0.0 0.0 -1.935524225335e-04 
-1.940711954716e-04 2.260939094991e-05 0.0 
2.260939094991e-05 1.289421750568e-03 0.0 
0.0 0.0 -1.935534039001e-04 
-1.151984927981e-04 -2.298534457927e-05 0.0 
-2.298534457927e-05 7.735611340850e-04 0.0 
0.0 0.0 -1.145968264807e-04 
-1.409477362984e-04 4.636851076838e-06 0.0 
4.636851076838e-06 9.500238057427e-04 0.0 
0.0 0.0 -1.403751509546e-04 
-1.057221588411e-04 2.457938922791e-05 0.0 
2.457938922791e-05 7.039272758311e-04 0.0 
0.0 0.0 -1.066277415830e-04 
-1.061891266013e-04 -1.653485252010e-05 0.0 
-1.653485252010e-05 7.204456328921e-04 0.0 
0.0 0.0 -1.101455558886e-04 
-1.167125773018e-04 -5.214442621127e-06 0.0 
-5.214442621127e-06 7.635304123669e-04 0.0 
0.0 0.0 -1.124773478824e-04 
-1.793168656901e-04 2.299952134744e-05 0.0 
2.299952134744e-05 1.185887205723e-03 0.0 
0.0 0.0 -1.771393596935e-04 
-3.152584898735e-05 1.897210253453e-05 0.0 
1.897210253453e-05 1.627411535502e-04 0.0 
0.0 0.0 -3.411956464738e-05 
-1.845315344105e-04 -2.087044310257e-05 0.0 
-2.087044310257e-05 1.251382198176e-03 0.0 
0.0 0.0 -1.826724926888e-04 
-1.258093955466e-04 1.092296903434e-05 0.0 
1.092296903434e-05 7.989141246955e-04 0.0 
0.0 0.0 -1.256509235457e-04 
-1.915790341267e-04 -2.191468720141e-05 0.0 
-2.191468720141e-05 1.308072793879e-03 0.0 
0.0 0.0 -1.908230686647e-04 
-1.803448451633e-04 -1.980075170866e-05 0.0 
-1.980075170866e-05 1.182538242344e-03 0.0 
0.0 0.0 -1.771885848702e-04 
-1.319350983937e-04 -8.918433226287e-06 0.0 
-8.918433226287e-06 9.046918759966e-04 0.0 
0.0 0.0 -1.335370307995e-04 
-1.816836816126e-04 1.791474397062e-05 0.0 
1.791474397062e-05 1.201235583197e-03 0.0 
0.0 0.0 -1.801549293832e-04 
-1.875547155475e-04 1.892715754060e-05 0.0 
1.892715754060e-05 1.233891763137e-03 0.0 
0.0 0.0 -1.855150795789e-04 
-1.939054531168e-04 -3.416516152566e-06 0.0 
-3.416516152566e-06 1.313797531553e-03 0.0 
0.0 0.0 -1.905407107676e-04 
-1.393318625630e-05 6.729466406601e-06 0.0 
6.729466406601e-06 4.687704386898e-05 0.0 
0.0 0.0 -1.411879611972e-05 
-1.819939651451e-04 -2.047705946231e-05 0.0 
-2.047705946231e-05 1.208295386483e-03 0.0 
0.0 0.0 -1.798029041703e-04 
-1.850233720890e-04 2.766047329041e-05 0.0 
2.766047329041e-05 1.254110806432e-03 0.0 
0.0 0.0 -1.840618297566e-04 
-1.944390477997e-05 -2.127751864275e-05 0.0 
-2.127751864275e-05 1.299757536440e-04 0.0 
0.0 0.0 -2.232470194434e-05 
-1.017184515676e-04 -1.757095589334e-05 0.0 
-1.757095589334e-05 6.550290312805e-04 0.0 
0.0 0.0 -1.026204892046e-04 
-1.144511734995e-05 -9.153149013219e-06 0.0 
-9.153149013219e-06 7.932793000554e-05 0.0 
0.0 0.0 -1.453852818766e-05 
-1.859119756783e-04 -1.557168329532e-05 0.0 
-1.557168329532e-05 1.264074963678e-03 0.0 
0.0 0.0 -1.846184893018e-04 
-7.114563988620e-05 -1.149003057072e-05 0.0 
-1.149003057072e-05 4.298780722485e-04 0.0 
0.0 0.0 -7.066666666667e-05 
-6.767557971435e-05 7.789921185043e-06 0.0 
7.789921185043e-06 4.581053887753e-04 0.0 
0.0 0.0 -6.733333333333e-05 
-7.086950529367e-05 -1.417087462263e-06 0.0 
-1.417087462263e-06 4.109780231572e-04 0.0 
0.0 0.0 -7.066666666667e-05 
-6.748025681849e-05 -2.346688612902e-07 0.0 
-2.346688612902e-07 4.565031102245e-04 0.0 
0.0 0.0 -6.733333333333e-05 
-7.064770782861e-05 -5.361532288411e-07 0.0 
-5.361532288411e-07 4.098128991423e-04 0.0 
0.0 0.0 -7.066666666667e-05 
-6.740877454217e-05 -3.802090969509e-07 0.0 
-3.802090969509e-07 4.564156801283e-04 0.0 
0.0 0.0 -6.733333333333e-05 
-7.068434388014e-05 -2.719211823047e-07 0.0 
-2.719211823047e-07 4.097592646131e-04 0.0 
0.0 0.0 -7.066666666667e-05 
-6.743646683829e-05 -2.660727184679e-07 0.0 
-2.660727184679e-07 4.564862413471e-04 0.0 
0.0 0.0 -6.733333333333e-05 
-7.071554313554e-05 -1.840132234043e-07 0.0 
-1.840132234043e-07 4.098289843511e-04 0.0 
0.0 0.0 -7.066666666667e-05 
-6.751567859134e-05 -1.979083631644e-07 0.0 
-1.979083631644e-07 4.566038930868e-04 0.0 
0.0 0.0 -6.733333333333e-05 
-7.082563799221e-05 -1.082855862797e-07 0.0 
-1.082855862797e-07 4.099501439232e-04 0.0 
0.0 0.0 -7.066666666667e-05 
-6.764004770212e-05 -1.840544218250e-07 0.0 
-1.840544218250e-07 4.567798774879e-04 0.0 
0.0 0.0 -6.733333333333e-05 
-7.099668157673e-05 -3.152621347735e-07 0.0 
-3.152621347735e-07 4.100909630507e-04 0.0 
0.0 0.0 -7.066666666667e-05 
-6.771036317068e-05 -3.250871953116e-07 0.0 
-3.250871953116e-07 4.567955793193e-04 0.0 
0.0 0.0 -6.733333333333e-05 
-7.104635293021e-05 -4.797315306229e-07 0.0 
-4.797315306229e-07 4.100980900426e-04 0.0 
0.0 0.0 -7.066666666667e-05 
-6.772559734261e-05 -3.874533346802e-07 0.0 
-3.874533346802e-07 4.567007956159e-04 0.0 
0.0 0.0 -6.733333333333e-05 
-7.641374413823e-05 -2.228773536997e-05 0.0 
-2.228773536997e-05 4.555521205124e-04 0.0 
0.0 0.0 -6.873639455783e-05 
-7.094875925373e-05 -3.791477384795e-07 0.0 
-3.791477384795e-07 4.100304202801e-04 0.0 
0.0 0.0 -7.066666666667e-05 
-6.775859243649e-05 -2.543201428247e-07 0.0 
-2.543201428247e-07 4.566839974153e-04 0.0 
0.0 0.0 -6.733333333333e-05 
-5.983502745799e-05 1.929364290318e-06 0.0 
1.929364290318e-06 4.273284517158e-04 0.0 
0.0 0.0 -6.540306122449e-05 
-7.112696317891e-05 -1.467524674862e-07 0.0 
-1.467524674862e-07 4.100464125056e-04 0.0 
0.0 0.0 -7.066666666667e-05 
-6.783495515464e-05 -1.450638751277e-07 0.0 
-1.450638751277e-07 4.567335765583e-04 0.0 
0.0 0.0 -6.733333333333e-05 
-6.217161144140e-05 3.026566437504e-06 0.0 
3.026566437504e-06 4.118280588832e-04 0.0 
0.0 0.0 -7.066666666667e-05 
-7.130993240556e-05 -1.233962845206e-07 0.0 
-1.233962845206e-07 4.100835803005e-04 0.0 
0.0 0.0 -7.066666666667e-05 
-6.788293332518e-05 -1.526785280095e-07 0.0 
-1.526785280095e-07 4.567248483215e-04 0.0 
0.0 0.0 -6.733333333333e-05 
-7.133053464148e-05 -2.770421121640e-07 0.0 
-2.770421121640e-07 4.100311566981e-04 0.0 
0.0 0.0 -7.066666666667e-05 
-6.783450426309e-05 -1.768217967110e-07 0.0 
-1.768217967110e-07 4.565560458107e-04 0.0 
0.0 0.0 -6.733333333333e-05 
-7.128003053814e-05 -4.124294858267e-07 0.0 
-4.124294858267e-07 4.098246570243e-04 0.0 
0.0 0.0 -7.066666666667e-05 
-6.763496489906e-05 1.353837844384e-07 0.0 
1.353837844384e-07 4.560035381661e-04 0.0 
0.0 0.0 -6.733333333333e-05 
-6.037667670586e-05 3.725538744657e-06 0.0 
3.725538744657e-06 4.387855452071e-04 0.0 
0.0 0.0 -7.040306122449e-05 
-7.080362175516e-05 1.214547096315e-06 0.0 
1.214547096315e-06 4.096944057901e-04 0.0 
0.0 0.0 -7.066666666667e-05 
-6.791806871034e-05 8.269470575155e-07 0.0 
8.269470575155e-07 4.567782366562e-04 0.0 
0.0 0.0 -6.733333333333e-05 
-7.172247895238e-05 4.209193152321e-07 0.0 
4.209193152321e-07 4.100255547766e-04 0.0 
0.0 0.0 -7.066666666667e-05 
-6.777497963431e-05 1.000449125460e-06 0.0 
1.000449125460e-06 4.561234038025e-04 0.0 
0.0 0.0 -6.733333333333e-05 
-6.872017315909e-05 7.209100044906e-07 0.0 
7.209100044906e-07 4.587775367494e-04 0.0 
0.0 0.0 -6.733333333333e-05 
-7.101694663725e-05 3.221273702941e-06 0.0 
3.221273702941e-06 4.103304483538e-04 0.0 
0.0 0.0 -7.066666666667e-05 
-6.707869793323e-05 4.876313269616e-07 0.0 
4.876313269616e-07 4.540272230233e-04 0.0 
0.0 0.0 -6.733333333333e-05 
-7.351744776430e-05 -3.590528867594e-06 0.0 
-3.590528867594e-06 4.105429329544e-04 0.0 
0.0 0.0 -7.066666666667e-05 
-6.961608694047e-05 2.500866072093e-06 0.0 
2.500866072093e-06 4.606767609940e-04 0.0 
0.0 0.0 -6.733333333333e-05 
-6.487293508417e-05 7.258987181476e-06 0.0 
7.258987181476e-06 4.092859995140e-04 0.0 
0.0 0.0 -7.066666666667e-05 
-5.398091155439e-05 -5.270882630615e-06 0.0 
-5.270882630615e-06 3.945040721260e-04 0.0 
0.0 0.0 -6.706972789116e-05 
-6.158970074179e-05 -5.552157044761e-05 0.0 
-5.552157044761e-05 4.267642640122e-04 0.0 
0.0 0.0 -6.900000000000e-05 
-7.727313769225e-05 5.339151864984e-05 0.0 
5.339151864984e-05 4.548383156643e-04 0.0 
0.0 0.0 -6.900000000000e-05 
-6.625915328777e-05 -5.902071933345e-06 0.0 
-5.902071933345e-06 4.326595679538e-04 0.0 
0.0 0.0 -6.566666666667e-05 
-7.280062491732e-05 5.686248152954e-06 0.0 
5.686248152954e-06 4.472638552754e-04 0.0 
0.0 0.0 -7.233333333333e-05 
-5.697171891331e-05 -3.753491299719e-06 0.0 
-3.753491299719e-06 4.144867007492e-04 0.0 
0.0 0.0 -6.566666666667e-05 
-7.781230655286e-05 -1.181963691656e-05 0.0 
-1.181963691656e-05 5.088176645313e-04 0.0 
0.0 0.0 -7.733333333333e-05 
-8.119458623839e-05 6.972004007010e-06 0.0 
6.972004007010e-06 4.800472308251e-04 0.0 
0.0 0.0 -8.066666666667e-05 
-7.753617196034e-05 -1.686526781122e-06 0.0 
-1.686526781122e-06 5.271460113287e-04 0.0 
0.0 0.0 -7.733333333333e-05 
-8.055598266159e-05 -8.309609844759e-07 0.0 
-8.309609844759e-07 4.810024852218e-04 0.0 
0.0 0.0 -8.066666666667e-05 
-7.731437449528e-05 -4.694243935429e-07 0.0 
-4.694243935429e-07 5.276425525984e-04 0.0 
0.0 0.0 -7.733333333333e-05 
-8.071639800283e-05 -2.964994736049e-07 0.0 
-2.964994736049e-07 4.811871574007e-04 0.0 
0.0 0.0 -8.066666666667e-05 
-7.735101054680e-05 -3.609553578528e-07 0.0 
-3.609553578528e-07 5.278599491145e-04 0.0 
0.0 0.0 -7.733333333333e-05 
-8.049136654625e-05 -1.810628668294e-07 0.0 
-1.810628668294e-07 4.812029401063e-04 0.0 
0.0 0.0 -8.066666666667e-05 
-7.738220980221e-05 -1.577265426917e-07 0.0 
-1.577265426917e-07 5.278701924915e-04 0.0 
0.0 0.0 -7.733333333333e-05 
-8.058899491475e-05 1.039952126182e-07 0.0 
1.039952126182e-07 4.813345582273e-04 0.0 
0.0 0.0 -8.066666666667e-05 
-7.749230465888e-05 -5.589101690134e-08 0.0 
-5.589101690134e-08 5.280305322976e-04 0.0 
0.0 0.0 -7.733333333333e-05 
-8.063738768920e-05 2.943263093068e-07 0.0 
2.943263093068e-07 4.815246670627e-04 0.0 
0.0 0.0 -8.066666666667e-05 
-7.766334824340e-05 -1.624950510170e-07 0.0 
-1.624950510170e-07 5.282822808427e-04 0.0 
0.0 0.0 -7.733333333333e-05 
-8.108582164939e-05 -1.817042453861e-07 0.0 
-1.817042453861e-07 4.816572964670e-04 0.0 
0.0 0.0 -8.066666666667e-05 
-7.771301959687e-05 -4.432509054863e-07 0.0 
-4.432509054863e-07 5.283746937170e-04 0.0 
0.0 0.0 -7.733333333333e-05 
-8.689319893331e-05 -2.398901531109e-05 0.0 
-2.398901531109e-05 5.261728810593e-04 0.0 
0.0 0.0 -7.871598639454e-05 
-8.063163037591e-05 -5.731608516610e-07 0.0 
-5.731608516610e-07 4.813582541077e-04 0.0 
0.0 0.0 -8.066666666667e-05 
-7.282722797358e-05 2.956686511685e-06 0.0 
2.956686511685e-06 4.834944195558e-04 0.0 
0.0 0.0 -8.066666666667e-05 
-7.761542592040e-05 1.556054086580e-08 0.0 
1.556054086580e-08 5.279085131106e-04 0.0 
0.0 0.0 -7.733333333333e-05 
-8.085458222001e-05 2.978087830834e-07 0.0 
2.978087830834e-07 4.814005580441e-04 0.0 
0.0 0.0 -8.066666666667e-05 
-7.779362984557e-05 2.880682919728e-07 0.0 
2.880682919728e-07 5.280866836434e-04 0.0 
0.0 0.0 -7.733333333333e-05 
-8.137173526484e-05 3.903881692923e-07 0.0 
3.903881692923e-07 4.816228572156e-04 0.0 
0.0 0.0 -8.066666666667e-05 
-7.797659907223e-05 1.259601545473e-07 0.0 
1.259601545473e-07 5.283575677450e-04 0.0 
0.0 0.0 -7.733333333333e-05 
-8.138094734250e-05 -4.007379149124e-08 0.0 
-4.007379149124e-08 4.816094746352e-04 0.0 
0.0 0.0 -8.066666666667e-05 
-6.958892147872e-05 2.693700344811e-06 0.0 
2.693700344811e-06 4.979075358180e-04 0.0 
0.0 0.0 -7.538265306121e-05 
-7.799720130815e-05 7.326478423502e-09 0.0 
7.326478423502e-09 5.282573840779e-04 0.0 
0.0 0.0 -7.733333333333e-05 
-8.143970684332e-05 -2.393759007723e-07 0.0 
-2.393759007723e-07 4.814739348898e-04 0.0 
0.0 0.0 -8.066666666667e-05 
-7.794669720480e-05 -1.073637191230e-07 0.0 
-1.073637191230e-07 5.280808317875e-04 0.0 
0.0 0.0 -7.733333333333e-05 
-8.174229233143e-05 -1.069148929710e-06 0.0 
-1.069148929710e-06 4.809843103418e-04 0.0 
0.0 0.0 -8.066666666667e-05 
-7.747028842183e-05 1.035597227599e-06 0.0 
1.035597227599e-06 5.267993287079e-04 0.0 
0.0 0.0 -7.733333333333e-05 
-8.011487521303e-05 3.227514386744e-06 0.0 
3.227514386744e-06 4.812335686475e-04 0.0 
0.0 0.0 -8.066666666667e-05 
-7.838914561904e-05 1.172078597877e-06 0.0 
1.172078597877e-06 5.288970930108e-04 0.0 
0.0 0.0 -7.733333333333e-05 
-8.384419164103e-05 -8.759494395606e-07 0.0 
-8.759494395606e-07 4.817654260896e-04 0.0 
0.0 0.0 -8.066666666667e-05 
-7.599610420366e-05 7.462175851506e-06 0.0 
7.462175851506e-06 4.817404732796e-04 0.0 
0.0 0.0 -8.066666666667e-05 
-7.768361330392e-05 1.900460429623e-06 0.0 
1.900460429623e-06 5.268691696083e-04 0.0 
0.0 0.0 -7.733333333333e-05 
-7.085007670582e-05 3.811906941392e-06 0.0 
3.811906941392e-06 5.100816028034e-04 0.0 
0.0 0.0 -8.038265306121e-05 
-8.018411443096e-05 1.198366395229e-06 0.0 
1.198366395229e-06 5.324278016454e-04 0.0 
0.0 0.0 -7.733333333333e-05 
-6.417731922861e-05 -3.943230338450e-06 0.0 
-3.943230338450e-06 4.647268317312e-04 0.0 
0.0 0.0 -7.704931972788e-05 
-8.746095442730e-05 -5.552433142474e-05 0.0 
-5.552433142474e-05 5.117494040768e-04 0.0 
0.0 0.0 -7.900000000000e-05 
-7.187846570217e-05 5.325151437038e-05 0.0 
5.325151437038e-05 4.838528020986e-04 0.0 
0.0 0.0 -7.900000000000e-05 
-8.300562030776e-05 -5.928768708113e-06 0.0 
-5.928768708113e-06 5.060343090617e-04 0.0 
0.0 0.0 -8.233333333333e-05 
-7.613395825065e-05 5.573077951687e-06 0.0 
5.573077951687e-06 4.912471208609e-04 0.0 
0.0 0.0 -7.566666666667e-05 
-6.717161144140e-05 -3.263046586986e-06 0.0 
-3.263046586986e-06 4.846642233179e-04 0.0 
0.0 0.0 -7.566666666667e-05 
-9.283937133862e-05 -1.305520020021e-05 0.0 
-1.305520020021e-05 5.701490487258e-04 0.0 
0.0 0.0 -9.066666666667e-05 
-8.786125290506e-05 6.228376696680e-06 0.0 
6.228376696680e-06 5.972094942788e-04 0.0 
0.0 0.0 -8.733333333333e-05 
-9.022014186398e-05 -3.549288141163e-06 0.0 
-3.549288141163e-06 5.499642990775e-04 0.0 
0.0 0.0 -9.066666666667e-05 
-8.722264932826e-05 -1.484814638766e-06 0.0 
-1.484814638766e-06 5.950278411204e-04 0.0 
0.0 0.0 -8.733333333333e-05 
-9.018085993915e-05 -1.417099940171e-07 0.0 
-1.417099940171e-07 5.484767631814e-04 0.0 
0.0 0.0 -9.066666666667e-05 
-8.738306466949e-05 -3.897787092036e-07 0.0 
-3.897787092036e-07 5.957792554076e-04 0.0 
0.0 0.0 -8.733333333333e-05 
-9.080630643208e-05 -1.004642962581e-06 0.0 
-1.004642962581e-06 5.490414961774e-04 0.0 
0.0 0.0 -9.066666666667e-05 
-8.715803321291e-05 -7.191945164273e-07 0.0 
-7.191945164273e-07 5.952355706191e-04 0.0 
0.0 0.0 -8.733333333333e-05 
-8.983972774977e-05 2.250980017127e-08 0.0 
2.250980017127e-08 5.486638855821e-04 0.0 
0.0 0.0 -9.066666666667e-05 
-8.725566158141e-05 1.431482839066e-07 0.0 
1.431482839066e-07 5.957393564191e-04 0.0 
0.0 0.0 -8.733333333333e-05 
-9.054185498745e-05 8.009925208000e-08 0.0 
8.009925208000e-08 5.490600954273e-04 0.0 
0.0 0.0 -9.066666666667e-05 
-8.730405435587e-05 2.268594339034e-07 0.0 
2.268594339034e-07 5.956704623471e-04 0.0 
0.0 0.0 -8.733333333333e-05 
-9.010725221013e-05 1.077984881025e-06 0.0 
1.077984881025e-06 5.491565562495e-04 0.0 
0.0 0.0 -9.066666666667e-05 
-9.710486836519e-05 -2.255663521806e-05 0.0 
-2.255663521806e-05 5.958483065018e-04 0.0 
0.0 0.0 -8.873639455782e-05 
-8.775248831606e-05 6.167278534911e-07 0.0 
6.167278534911e-07 5.967481919071e-04 0.0 
0.0 0.0 -8.733333333333e-05 
-9.103086627003e-05 -1.513341137134e-06 0.0 
-1.513341137134e-06 5.495772900249e-04 0.0 
0.0 0.0 -9.066666666667e-05 
-8.073249876148e-05 1.956568500793e-06 0.0 
1.956568500793e-06 5.676914892222e-04 0.0 
0.0 0.0 -8.540306122449e-05 
-8.729829704258e-05 -3.688701156799e-07 0.0 
-3.688701156799e-07 5.951865840250e-04 0.0 
0.0 0.0 -8.733333333333e-05 
-9.037940068144e-05 6.271206724163e-07 0.0 
6.271206724163e-07 5.487658884447e-04 0.0 
0.0 0.0 -9.066666666667e-05 
-8.327880964785e-05 3.397797209923e-06 0.0 
3.397797209923e-06 5.519081980575e-04 0.0 
0.0 0.0 -9.066666666667e-05 
-8.752124888667e-05 7.623016925715e-07 0.0 
7.623016925715e-07 5.955739018708e-04 0.0 
0.0 0.0 -8.733333333333e-05 
-9.119391855359e-05 1.735421697781e-06 0.0 
1.735421697781e-06 5.492228013243e-04 0.0 
0.0 0.0 -9.066666666667e-05 
-8.803840193151e-05 9.847285726832e-07 0.0 
9.847285726832e-07 5.964786609531e-04 0.0 
0.0 0.0 -8.733333333333e-05 
-9.156330581238e-05 2.666222241028e-07 0.0 
2.666222241028e-07 5.495997176964e-04 0.0 
0.0 0.0 -9.066666666667e-05 
-8.804761400916e-05 4.409974905671e-07 0.0 
4.409974905671e-07 5.960772025302e-04 0.0 
0.0 0.0 -8.733333333333e-05 
-8.073638837697e-05 3.015269661059e-06 0.0 
3.015269661059e-06 5.789040759249e-04 0.0 
0.0 0.0 -9.040306122449e-05 
-9.112505899787e-05 2.746880104957e-07 0.0 
2.746880104957e-07 5.493199630352e-04 0.0 
0.0 0.0 -9.066666666667e-05 
-8.810637350998e-05 6.151652775298e-07 0.0 
6.151652775298e-07 5.958963692618e-04 0.0 
0.0 0.0 -8.733333333333e-05 
-8.840895899809e-05 1.155447038660e-07 0.0 
1.155447038660e-07 5.965143081286e-04 0.0 
0.0 0.0 -8.733333333333e-05 
-9.164597760345e-05 8.836231120007e-07 0.0 
8.836231120007e-07 5.493625037381e-04 0.0 
0.0 0.0 -9.066666666667e-05 
-8.678154187969e-05 1.516005662498e-06 0.0 
1.516005662498e-06 5.914512376221e-04 0.0 
0.0 0.0 -8.733333333333e-05 
-9.368423993004e-05 -3.485429264516e-06 0.0 
-3.485429264516e-06 5.486941450264e-04 0.0 
0.0 0.0 -9.066666666667e-05 
-9.051085830770e-05 3.821512302252e-06 0.0 
3.821512302252e-06 6.011139986344e-04 0.0 
0.0 0.0 -8.733333333333e-05 
-8.623635069903e-05 1.130998903511e-05 0.0 
1.130998903511e-05 5.483505428446e-04 0.0 
0.0 0.0 -9.066666666667e-05 
-7.442069267613e-05 -5.394763382115e-06 0.0 
-5.394763382115e-06 5.345026645236e-04 0.0 
0.0 0.0 -8.706972789116e-05 
-8.056486673946e-05 -5.396645541003e-05 0.0 
-5.396645541003e-05 5.644717008348e-04 0.0 
0.0 0.0 -8.900000000000e-05 
-9.791450863527e-05 5.509961114953e-05 0.0 
5.509961114953e-05 5.954927673430e-04 0.0 
0.0 0.0 -8.900000000000e-05 
-8.633895364109e-05 -4.683164540594e-06 0.0 
-4.683164540594e-06 5.718841532106e-04 0.0 
0.0 0.0 -8.566666666667e-05 
-9.239018602622e-05 8.127448127221e-06 0.0 
8.127448127221e-06 5.860724498030e-04 0.0 
0.0 0.0 -9.233333333333e-05 
-7.782722797358e-05 -3.296902887834e-06 0.0 
-3.296902887834e-06 5.542989905497e-04 0.0 
0.0 0.0 -8.566666666667e-05 
-9.950603800529e-05 -1.732824840327e-05 0.0 
-1.732824840327e-05 6.532123038277e-04 0.0 
0.0 0.0 -9.733333333333e-05 
-9.845490008412e-05 -7.423843482372e-07 0.0 
-7.423843482372e-07 6.182720398665e-04 0.0 
0.0 0.0 -1.006666666667e-04 
-9.688680853064e-05 -2.101224633275e-06 0.0 
-2.101224633275e-06 6.650247464175e-04 0.0 
0.0 0.0 -9.733333333333e-05 
-1.012464655028e-04 -1.533092774878e-06 0.0 
-1.533092774878e-06 6.197292804394e-04 0.0 
0.0 0.0 -1.006666666667e-04 
-9.684752660582e-05 -6.274302712925e-08 0.0 
-6.274302712925e-08 6.662579141266e-04 0.0 
0.0 0.0 -9.733333333333e-05 
-1.011453118386e-04 1.046563005614e-06 0.0 
1.046563005614e-06 6.213209177569e-04 0.0 
0.0 0.0 -1.006666666667e-04 
-9.747297309875e-05 -2.278502078315e-06 0.0 
-2.278502078315e-06 6.683740764344e-04 0.0 
0.0 0.0 -9.733333333333e-05 
-9.931899188090e-05 -3.288065646636e-06 0.0 
-3.288065646636e-06 6.197642772278e-04 0.0 
0.0 0.0 -1.006666666667e-04 
-9.650639441644e-05 2.666172739854e-07 0.0 
2.666172739854e-07 6.659194579952e-04 0.0 
0.0 0.0 -9.733333333333e-05 
-1.000788983180e-04 1.910523566858e-06 0.0 
1.910523566858e-06 6.207688021561e-04 0.0 
0.0 0.0 -1.006666666667e-04 
-9.720852165412e-05 -4.164213939214e-07 0.0 
-4.164213939214e-07 6.678605235040e-04 0.0 
0.0 0.0 -9.733333333333e-05 
-1.005225329566e-04 -1.059277058645e-06 0.0 
-1.059277058645e-06 6.206711688955e-04 0.0 
0.0 0.0 -1.006666666667e-04 
-1.076654382393e-04 -2.454755873475e-05 0.0 
-2.454755873475e-05 6.666235465443e-04 0.0 
0.0 0.0 -9.871211211756e-05 
-9.677391887680e-05 3.262994796209e-07 0.0 
3.262994796209e-07 6.670349670739e-04 0.0 
0.0 0.0 -9.733333333333e-05 
-1.004112575968e-04 6.266382551746e-06 0.0 
6.266382551746e-06 6.238730393685e-04 0.0 
0.0 0.0 -1.006666666667e-04 
-9.691250726488e-05 3.272004711609e-06 0.0 
3.272004711609e-06 6.207526912737e-04 0.0 
0.0 0.0 -1.006666666667e-04 
-9.769753293670e-05 3.857908775590e-07 0.0 
3.857908775590e-07 6.683264731120e-04 0.0 
0.0 0.0 -9.733333333333e-05 
-1.018216783017e-04 -1.733271697638e-06 0.0 
-1.733271697638e-06 6.205292306068e-04 0.0 
0.0 0.0 -1.006666666667e-04 
-9.704606734811e-05 1.789783002985e-06 0.0 
1.789783002985e-06 6.661622647259e-04 0.0 
0.0 0.0 -9.733333333333e-05 
-1.018704888891e-04 2.872470909369e-06 0.0 
2.872470909369e-06 6.210028127133e-04 0.0 
0.0 0.0 -1.006666666667e-04 
-9.786058522026e-05 1.410942441991e-06 0.0 
1.410942441991e-06 6.680408138480e-04 0.0 
0.0 0.0 -9.733333333333e-05 
-1.006317600444e-04 1.941140312877e-06 0.0 
1.941140312877e-06 6.214755597104e-04 0.0 
0.0 0.0 -1.006666666667e-04 
-9.094846281658e-05 3.460693907673e-06 0.0 
3.460693907673e-06 6.387381401671e-04 0.0 
0.0 0.0 -9.537877878422e-05 
-9.822997247904e-05 5.655000512226e-07 0.0 
5.655000512226e-07 6.686847925497e-04 0.0 
0.0 0.0 -9.733333333333e-05 
-1.005721140742e-04 -4.771801101198e-07 0.0 
-4.771801101198e-07 6.209284532513e-04 0.0 
0.0 0.0 -1.006666666667e-04 
-9.779172566454e-05 1.437765353010e-06 0.0 
1.437765353010e-06 6.669881357659e-04 0.0 
0.0 0.0 -9.733333333333e-05 
-9.964754038308e-05 2.397319642453e-06 0.0 
2.397319642453e-06 6.203504795262e-04 0.0 
0.0 0.0 -1.006666666667e-04 
-9.942841041269e-05 6.330945354939e-06 0.0 
6.330945354939e-06 6.210142166029e-04 0.0 
0.0 0.0 -1.006666666667e-04 
-9.831264427012e-05 3.607920745624e-06 0.0 
3.607920745624e-06 6.668464283750e-04 0.0 
0.0 0.0 -9.733333333333e-05 
-1.003509065967e-04 3.038689806417e-06 0.0 
3.038689806417e-06 6.697580945376e-04 0.0 
0.0 0.0 -9.733333333333e-05 
-9.096542632604e-05 2.974368147523e-06 0.0 
2.974368147523e-06 6.503827388711e-04 0.0 
0.0 0.0 -1.003787787842e-04 
-8.451759272524e-05 -2.785279264380e-06 0.0 
-2.785279264380e-06 6.050107377767e-04 0.0 
0.0 0.0 -9.704544545089e-05 
-1.061297274301e-04 -4.871673269526e-05 0.0 
-4.871673269526e-05 6.458409108431e-04 0.0 
0.0 0.0 -9.900000000000e-05 
-9.597407948562e-05 5.882537232744e-05 0.0 
5.882537232744e-05 6.276346610407e-04 0.0 
0.0 0.0 -9.900000000000e-05 
-1.061722618288e-04 2.720032131649e-06 0.0 
2.720032131649e-06 6.459980937412e-04 0.0 
0.0 0.0 -1.023333333333e-04 
-9.572351935955e-05 9.504820778219e-06 0.0 
9.504820778219e-06 6.293354809804e-04 0.0 
0.0 0.0 -9.566666666667e-05 
-8.827880964785e-05 -4.615262033286e-06 0.0 
-4.615262033286e-06 6.261214177850e-04 0.0 
0.0 0.0 -9.566666666667e-05 

SCALARS element_materi_plasti_kappa_shear float
LOOKUP_TABLE default
2.847132974464e-04
2.567335577462e-04
8.383458615127e-04
8.438320912051e-04
5.252340220499e-04
1.092332508777e-04
5.211056369626e-04
2.682011350187e-04
5.284032086376e-04
8.364231581825e-04
5.721664887116e-04
2.192159031084e-04
8.427469438431e-04
5.626516430071e-04
8.591411753051e-04
8.596118674820e-04
5.228709310720e-04
9.890289689114e-05
1.829897689724e-04
1.694158919351e-04
8.423436282844e-04
2.963793359042e-04
3.324051967767e-04
8.081759085961e-04
6.000118969987e-04
6.135444959901e-04
4.831662702076e-04
8.640260917564e-04
6.044060870881e-04
8.284633969501e-04
1.393644665420e-04
6.157167640348e-05
8.645031697050e-04
7.227162512376e-04
8.409567717064e-04
8.889842858592e-04
8.867272022491e-04
8.401574712595e-04
4.762820424766e-04
4.829160232604e-04
3.784313710213e-04
8.419842235364e-04
1.971583877801e-04
4.640967896192e-04
8.239259452907e-04
1.959288160543e-04
8.321288766212e-05
8.084255947212e-04
3.689720172040e-05
5.421120849717e-04
3.571518168043e-04
2.245192715023e-04
1.849539392691e-04
3.438430703420e-04
8.437751075118e-04
2.946472074171e-04
2.169482347232e-04
7.261086015541e-04
1.365401986572e-04
8.602343425103e-04
5.633449810247e-05
8.068338246298e-04
3.495820234045e-04
1.625404768038e-04
8.423121318073e-04
3.196875078224e-04
2.407380933191e-05
8.605021510781e-04
1.455927549119e-04
8.423461725362e-04
6.362218458080e-04
8.811950242161e-04
8.101315001547e-04
6.837837458653e-05
2.980351712693e-04
8.450728483081e-04
8.650274645366e-04
1.497776459891e-04
1.164171881254e-04
1.495511738586e-04
1.394737434445e-04
4.994656174592e-04
3.126596433046e-04
2.656451840487e-04
5.512146343309e-04
5.478404078236e-04
6.543703068282e-04
7.066969326251e-04
7.292257809066e-04
5.182254199727e-04
3.772961361312e-05
5.068209088843e-04
7.023712359703e-04
7.053137767572e-04
9.034935541177e-04
8.681099508839e-04
4.998503861448e-04
8.654654996241e-04
5.895620793702e-04
3.387865222816e-04
5.023282053966e-04
8.610484090904e-04
6.969273947015e-04
8.114912522944e-04
3.066747276919e-04
1.031286558348e-04
7.940042257422e-04
7.514569823258e-04
6.199677439276e-05
8.454993593349e-04
6.946613572604e-04
4.904031993171e-05
4.043465054525e-04
4.701260917007e-04
3.591769958220e-04
3.010429561774e-04
3.537650535641e-04
8.520744351586e-04
5.793631570773e-04
3.261491376649e-04
1.418039967851e-04
5.194733326263e-04
7.366211917707e-04
3.289742658715e-04
1.029625399055e-04
4.250840810499e-04
3.733497519716e-04
3.937484836423e-04
8.617156175713e-04
1.214391796965e-04
6.025351137927e-04
8.438264723838e-04
4.251430981113e-04
4.028071146061e-04
8.421798094545e-04
8.449973380302e-04
6.540085342924e-04
4.550812470554e-04
8.653037555385e-04
4.073208974335e-04
8.427923186268e-04
8.640045548534e-04
5.578310155526e-04
6.509573146725e-04
4.117138516470e-04
3.711211770560e-04
4.681101004950e-04
3.518672901193e-04
5.147824992523e-04
4.107193794640e-04
3.646113790963e-05
5.532223658631e-04
1.258155624666e-04
4.487912821367e-04
8.442761777728e-04
3.036097253508e-04
6.795876328870e-04
2.190343751187e-04
6.939470314270e-04
5.021535652402e-04
3.806977165922e-04
7.481063603695e-04
1.298522692207e-04
7.928147477738e-04
5.039709184499e-04
8.650019251011e-04
5.013582088109e-04
3.160516627979e-04
4.393239970158e-04
5.920825198174e-04
2.289923969885e-04
3.854224720753e-04
6.780718451192e-04
5.198603884199e-04
3.586956886529e-04
4.169796386473e-04
7.560276412873e-04
4.159140997811e-04
8.428055575623e-04
8.639767009483e-04
2.975132247583e-04
3.989799041527e-04
7.712498508064e-04
3.945945745463e-04
2.576819868644e-04
4.854060291149e-04
3.951341740237e-04
8.456558194475e-04
7.010154264104e-04
7.714816593418e-04
1.746707301352e-04
3.610997931363e-04
7.204647992586e-04
1.945331205908e-05
3.903836025195e-04
7.222445599691e-04
1.036327141325e-04
8.424473339204e-04
6.428453457772e-04
3.831449392291e-04
7.193613777923e-04
5.586004203897e-04
5.898087867421e-04
8.246624455494e-04
2.857235697232e-04
4.866694704310e-04
5.222557039026e-04
6.732665719341e-04
5.326319802480e-04
4.881655111683e-04
6.257681940146e-04
7.388362075692e-04
5.690614774354e-05
2.917017983456e-04
3.317775165376e-04
4.735931798939e-04
7.340526410142e-04
1.447054251006e-04
6.965604954019e-04
5.013674676710e-04
3.566918662294e-04
6.715636749960e-04
6.571013662795e-05
6.877012871154e-04
5.549518836130e-05
8.040745949318e-05
1.732184497000e-04
2.392003364027e-04
7.177475001527e-04
2.320046903568e-04
2.075153724814e-04
1.800041788403e-04
1.507998795129e-04
7.424671531813e-04
5.071426105021e-04
8.446796247734e-04
0.0
2.497594834345e-04
4.009784043096e-04
3.635781274630e-04
6.932515688423e-04
8.647303225506e-04
6.886146806345e-04
2.931670056878e-04
7.441379809633e-04
6.308353337863e-04
4.980516236996e-04
6.615635321969e-04
8.261379668094e-04
4.064024309512e-04
2.371048478647e-04
5.754464620744e-04
9.026357122934e-04
4.917413561400e-04
5.134823346619e-04
5.630191156583e-04
1.329471826665e-04
5.277021269871e-04
2.878196777098e-04
1.938006262720e-04
1.362334838042e-04
7.132570322814e-04
5.514544182274e-04
3.441653812797e-04
7.429062318585e-04
7.078085783757e-04
5.222121837301e-04
8.463050092743e-04
5.284876028695e-04
5.460070011469e-04
4.376131710040e-04
5.575789166973e-04
2.377977007102e-04
5.035541614816e-04
4.257154416742e-04
3.011811086088e-04
6.820805742593e-04
2.384378149136e-05
5.562902183290e-04
3.071842567668e-04
2.550196540710e-04
2.439773196071e-04
5.894366693464e-04
9.570931057482e-05
3.576303071845e-04
5.731391386351e-04
5.461339597621e-04
5.616867596350e-04
1.271009961872e-04
2.958157551279e-04
2.761694005421e-04
3.216903735558e-04
6.680530276719e-04
3.637979337747e-04
3.949989305544e-04
3.759115002993e-04
1.575634516332e-04
4.501668004302e-04
1.708993772794e-04
9.019026024371e-04
9.023973057295e-04
5.057511345693e-04
2.631127598013e-04
2.307674832005e-04
5.600193776098e-04
2.500946570906e-04
2.700679866253e-04
4.922948739685e-04
8.667616329614e-04
3.318462296128e-04
6.222149882880e-04
1.830371105394e-04
9.023475672024e-04
2.441397582287e-04
5.112104398270e-04
1.689503966276e-04
6.053623747982e-04
4.196544349858e-04
2.903890059932e-04
5.270871447235e-04
9.021440381368e-04
3.510699855254e-04
5.781821550489e-04
1.886309360797e-04
6.316875196563e-04
6.668857487106e-04
2.624435093985e-04
6.164660003841e-04
9.026438880277e-04
7.124911027791e-04
9.030006616607e-04
6.099328680256e-04
7.015574955173e-04
2.180182464546e-04
4.840383207087e-04
5.408811792003e-04
5.701871426172e-04
4.675332375955e-04
9.035883904622e-04
5.850053230518e-04
5.141279373987e-04
3.811690988531e-04
1.956242149518e-04
4.646237938930e-04
2.742553589397e-04
5.220512861019e-04
2.960117191843e-04
3.368501384635e-04
7.076177555195e-04
2.798327001462e-04
4.981195041245e-04
5.922020028833e-04
5.249691217824e-04
9.022141612185e-04
4.195717744466e-04
2.760615473356e-04
3.714756492195e-04
2.666495641069e-04
2.573536274963e-04
7.531436391681e-04
5.406886875803e-04
3.691632618911e-04
4.556110258937e-04
9.030518011549e-04
8.532871781874e-04
7.461245423291e-04
6.934880992847e-04
5.105698072066e-04
3.813116805693e-04
2.690679185398e-04
3.126694468458e-04
5.164893174634e-04
5.919748660066e-04
4.476339003619e-04
7.537614717665e-04
2.814322894241e-04
4.431267281225e-04
5.162384399113e-04
3.994083330778e-04
9.019027868779e-04
9.024199943997e-04
8.466674059490e-04
5.551721733312e-04
7.381697029613e-04
2.318050061718e-04
3.566133739436e-04
2.004113789535e-04
3.876518657495e-04
5.007689008681e-04
6.066206779727e-04
8.634617584911e-04
7.387016338322e-04
5.700145676085e-04
5.843478329972e-04
2.129102317008e-04
9.963202888370e-05
4.255642556790e-04
4.864892581303e-04
4.557093610505e-04
1.015080950596e-04
5.392744089157e-04
1.864447400827e-04
2.686669338435e-04
8.829401381496e-04
6.479849204365e-04
5.101152900271e-04
1.402250907171e-04
4.625920286436e-04
4.307827734044e-04
5.943113921106e-04
9.027611341500e-04
4.797580040648e-04
5.649702214781e-04
4.419535104601e-04
7.334092120784e-04
5.703474346401e-04
9.028672049198e-04
8.818149095568e-04
8.812004500203e-04
8.770344726619e-04
6.086454399872e-04
7.380884957385e-04
7.670249911297e-04
3.946547610248e-04
3.761808931614e-04
4.220813725199e-04
7.589723938571e-04
9.023328764655e-04
7.577932565223e-04
6.026760527823e-04
7.626774697069e-04
6.606437481449e-04
4.567756297563e-04
3.825801685651e-04
2.007576887360e-04
8.470469883245e-04
3.704624717408e-04
8.076533810370e-04
4.162571300339e-04
2.699749840163e-04
8.434505841465e-04
2.924500070844e-04
8.816442479766e-04
8.452247512919e-04
5.545088614739e-04
3.473443607641e-05
8.815269345483e-04
8.437795076668e-04
2.644715325930e-04
6.230832692165e-04
9.043633052623e-04
0.0
4.136686690805e-04
5.789929662664e-04
5.300876254499e-04
5.356595073985e-04
2.252617715596e-04
8.806829294995e-04
4.006991802615e-04
1.303841541133e-04
8.663125818618e-04
6.051131586377e-05
4.315774978662e-04
1.176867923368e-04
4.596515473754e-04
9.012311898413e-04
8.829625409697e-04
5.653646595553e-04
8.124087917367e-05
9.994837872237e-05
1.389614691644e-04
7.526188084607e-04
5.232481456078e-04
5.352467886841e-04
8.832777862969e-04
5.239926934470e-04
9.034954834455e-04
6.742815143354e-04
5.863949273689e-04
2.820464387522e-04
6.178481751699e-04
1.825530642902e-04
8.832148814275e-04
8.787933827960e-04
8.806921593160e-04
5.756624678762e-04
3.963242992692e-04
4.623808742286e-04
5.898300044950e-04
8.827105655163e-04
2.739608454354e-04
3.152297798322e-04
3.346486994201e-04
6.118815291473e-04
9.031087235632e-04
9.826315240639e-05
8.806359177385e-04
3.091995583178e-04
8.830701307018e-04
7.737556814763e-04
2.602550826630e-05
4.315307198807e-04
7.678889909001e-04
8.823867652728e-04
6.136211757286e-04
6.941437612341e-04
1.584089862020e-04
8.072406538752e-04
3.285549430036e-04
3.399738602395e-04
6.350089245098e-05
8.815166830728e-04
2.259416864064e-04
7.443039276558e-04
5.669420517884e-04
2.830302926058e-04
3.206987936709e-04
5.893066187854e-04
8.831255390235e-04
4.112126309151e-04
6.461218310913e-04
5.245062035981e-04
5.860608677982e-04
3.451263767299e-04
6.003773440688e-04
5.107552153637e-04
6.659208771778e-04
6.625383459481e-04
5.000360828217e-04
4.220154532181e-04
2.979654696955e-04
3.903746207876e-04
6.804313980790e-04
5.475016889342e-04
9.031543334572e-04
7.872511197512e-04
2.513213857487e-04
8.791428665884e-04
8.623865534780e-04
4.695549206328e-04
3.669236207070e-05
9.023712677026e-04
7.825243345501e-04
2.836634880462e-04
8.808658468444e-04
6.210975252764e-04
4.005662234096e-04
5.509439591359e-04
5.333534302821e-04
5.303907689406e-04
6.114043158285e-04
6.485756697789e-04
4.497226363466e-04
6.883221258394e-04
5.985234349652e-04
4.277851164570e-04
6.370445780655e-04
3.335340985590e-04
5.972217102501e-04
2.690095818511e-05
3.234473257320e-04
3.145667651333e-04
4.619525145775e-04
4.941683527065e-04
6.157927676169e-04
5.953076823754e-04
2.893667186736e-04
8.829502872488e-04
5.841509097848e-04
4.814294041828e-04
5.596214459887e-04
4.676664971932e-04
0.0
5.801676505400e-04
3.844985916664e-04
0.0
4.554300220234e-04
6.611400294946e-04
7.615386503395e-04
5.667217612568e-04
5.798125605848e-04
4.946399896661e-04
4.612945919967e-04
8.448933154629e-04
5.351237915902e-04
2.265059230248e-05
1.593136185292e-04
3.598215869650e-05
2.756541644965e-04
7.595674519950e-04
7.663452637067e-04
7.206272217663e-04
3.111805889127e-04
6.034032161237e-04
7.573752906356e-04
1.740144548794e-04
3.864583664951e-04
3.117083041406e-04
9.031633853049e-04
8.822228944503e-04
4.285735382123e-04
4.870038452020e-04
5.444247428616e-04
7.843706278062e-04
1.688678543700e-04
7.320309974875e-04
1.024779424926e-04
4.424111468176e-04
4.932536473152e-04
3.661873855527e-05
4.046650665538e-04
7.818962903618e-04
2.628493764547e-05
4.594828512294e-04
4.812071489687e-04
6.367624673799e-04
3.155481759348e-04
3.029147364413e-04
2.132280228371e-04
7.837934729915e-04
8.448257163848e-04
7.363444438744e-04
2.851623301377e-04
1.072863423376e-04
4.603504121984e-04
4.608177344525e-04
4.831872055831e-04
0.0
3.555241354687e-05
7.966173186171e-05
2.342846998403e-04
6.373569268983e-05
4.549076851565e-04
0.0
2.796945326255e-04
6.183777696222e-04
4.824258644607e-04
7.814158546744e-04
6.352076666034e-04
5.781612852690e-04
3.372841396968e-04
1.018092465349e-04
8.804341959841e-04
9.035439950554e-04
5.614027168615e-04
4.616000397093e-04
3.431731325220e-04
9.014339937115e-04
2.659509024599e-04
4.803513075401e-04
4.596149613707e-04
4.369192074101e-04
8.832852469207e-04
9.009032309479e-04
6.250414495270e-05
0.0
1.266214781953e-04
4.876279566065e-04
8.196533199701e-04
2.444433938167e-05
7.274110977346e-04
0.0
6.250843933025e-04
2.867078562402e-05
2.783203544243e-05
5.997115799954e-04
7.944815531001e-04
6.355701656843e-04
4.791132808813e-04
3.652595870710e-05
6.229816343343e-04
8.791826602914e-04
9.014687340808e-04
4.821873124554e-04
6.503883133201e-04
8.818062794857e-04
6.993504510242e-04
9.789390783998e-05
6.279365927203e-05
3.939974307887e-05
3.825618914400e-04
9.021047273405e-04
8.443030366409e-04
0.0
4.516920689161e-04
8.837977955305e-04
9.047268419961e-04
9.014166279866e-04
6.824648899155e-04
7.516239818066e-04
8.796515991076e-04
8.818821043928e-04
7.273160736883e-04
2.211575098140e-05
4.787532764467e-04
4.846356056311e-04
0.0
8.847559387122e-04
9.037195635447e-04
8.791881994104e-04
2.812709352533e-05
2.886337119670e-05
8.807302274622e-04
8.799262388240e-04
6.606959234620e-04
4.786921816039e-04
7.045004432885e-04
5.666139951839e-04
4.780950833957e-04
2.553609013369e-05
2.943212211666e-05
2.487007266475e-05
2.712132983020e-05
4.772021594015e-04
4.286502641088e-04
0.0
6.145195953194e-04
0.0
8.800821581416e-04
8.788987143881e-04
8.809194080868e-04
1.543232978874e-04
2.904945093705e-04
8.796413922759e-04
7.525259440061e-04
8.837915350881e-04
7.992262474011e-04
8.460368269156e-04
4.052497561465e-04
9.034475555497e-04
9.025505378386e-04
7.709083270601e-04
8.195089923752e-04
6.617362762152e-04
0.0
4.176416125064e-04
6.092826118018e-05
7.888929342565e-04
4.363249681698e-04
7.275214838645e-04
2.209065391860e-04
8.130906403886e-05
7.783803544764e-04
4.610171208733e-04
3.609674789086e-04
7.334454872421e-04
7.883388593484e-04
3.608088371091e-04
6.922006084626e-04
6.034876983327e-04
6.562206089320e-04
6.777106223571e-04
3.699030016403e-04
4.367455166762e-04
4.808107450878e-04
6.170029851944e-04
7.543946188843e-04
6.998918906109e-04
2.236916744938e-04
7.865894495829e-04
7.412777532416e-04
5.338023001125e-04
6.428876137913e-04
6.366868729429e-04
7.982659732682e-04
7.683299234494e-04
5.896655507063e-04
7.981209395123e-04
7.317182777283e-04
6.996282799597e-04
8.110166413216e-04
7.924641880626e-04
6.744131504159e-04
6.666687721535e-04
2.222812676772e-04
2.065367340502e-04
1.125541859685e-04
6.237733767345e-05
7.698425966603e-04
7.679810230491e-04
6.018528781591e-05
7.767838420586e-04
5.508431979073e-04
7.139111020130e-04
7.225345758280e-04
3.210916204918e-04
7.277792051553e-04
5.345154592761e-04
6.681973168260e-04
8.270717611794e-04
2.126569924616e-04
8.168359037540e-04
6.998709092975e-04
2.419277465397e-04
2.572139128868e-04
5.157383088969e-04
6.206435762795e-04
3.445305893728e-04
7.246223149107e-04
6.508258121004e-04
5.014012835763e-04
6.818156971164e-04
7.083328473163e-04
6.952144219196e-04
1.892569743241e-04
4.759731321316e-04
7.583758524429e-04
7.205684773619e-04
4.286991399852e-04
6.094148028769e-04
7.977133214395e-04
6.694832793452e-04
1.063908867657e-04
1.078325644387e-04
2.185995729447e-04
7.487063186169e-04
6.453888805748e-04
5.685571839540e-04
5.747340170202e-04
7.632873978513e-04
5.213198554590e-04
7.022694847875e-04
2.278532579141e-04
8.104690401052e-04
5.072778477496e-04
2.493887876613e-04
4.811363962896e-04
3.641239825016e-04
2.855768811343e-04
5.596568083914e-04
0.0
0.0
6.426259570283e-04
2.090044132862e-04
6.487981239576e-04
6.292228741945e-04
3.962033144448e-04
2.579044153745e-04
7.616473441749e-04
1.019762165520e-04
3.852520764996e-04
7.853811998397e-04
1.733076863571e-04
6.041255787992e-04
5.562754309982e-04
1.755785073398e-04
7.771304788849e-04
6.907987842018e-04
2.031638653013e-04
7.812508794649e-04
7.761681869909e-04
2.340588006309e-04
3.099693431780e-04
2.401902132467e-04
6.877850878179e-04
5.412899770906e-04
7.773630800326e-04
7.570625316910e-04
6.683791686238e-04
6.625290522613e-04
1.893340517518e-04
6.820308372633e-04
6.862847063831e-04
5.467902184326e-04
6.498698714300e-04
7.159072219897e-04
4.836380743717e-04
7.367030404168e-04
4.559169101876e-04
5.273150536082e-04
3.411674526490e-04
3.634633618335e-04
6.658946142908e-04
5.048839066709e-04
2.598481237302e-04
1.310675626010e-04
6.702674056581e-04
2.538844621688e-04
8.100545142142e-04
6.906694072021e-04
7.081089564605e-04
8.422326803080e-04
4.360105328501e-04
2.279423584865e-04
1.438342882826e-04
6.746645813760e-04
6.253129879063e-04
9.918819555369e-05
3.502385490956e-04
2.023555415197e-04
6.246699331793e-04
3.695628740598e-04
6.232537801749e-04
3.438500574503e-04
7.461722125166e-04
2.994852823397e-04
6.807902368991e-04
2.134297640903e-04
6.549102842848e-04
5.031003560477e-04
6.885245121902e-04
3.402916395449e-04
1.961866029563e-04
5.822861240524e-04
6.308362435894e-04
4.380632245669e-04
6.281676019648e-04
2.380403549025e-04
6.367384190698e-04
1.839508450066e-04
7.725002622059e-04
6.561620715167e-04
6.933815038025e-04
8.092250112126e-04
5.501611933615e-04
1.836188012187e-04
6.153653481655e-04
7.923633784811e-04
3.086645625323e-04
6.943493645374e-04
6.953376833628e-04
2.383737125918e-04
6.351661673105e-04
5.732469191631e-04
2.731502544442e-04
3.307497968412e-04
5.297758459477e-04
6.688023425968e-04
4.058187172305e-04
5.054096064123e-04
6.614441040854e-04
5.998784189862e-04
5.910883509517e-04
4.972646323121e-04
7.574466861930e-04
5.955283378909e-04
5.798186174699e-04
8.003940697799e-04
7.180161900282e-04
6.490287924266e-04
7.113553544645e-04
3.823555630989e-04
3.565404549641e-04
1.953976897051e-04
6.410050228313e-04
3.763189430417e-04
6.449063337001e-04
6.199045494020e-04
5.084125206731e-04
3.051454170769e-04
3.258730291925e-04
3.248932828681e-04
3.506411482378e-04
2.087274372249e-04
7.378551383479e-04
4.282574386795e-04
7.412552030348e-04
4.541815597642e-04
6.095351943613e-04
5.187506594856e-04
4.997510169959e-04
2.146153585684e-04
7.711538397404e-04
8.079476018067e-04
6.361701368165e-04
3.764967077337e-04
5.641220258623e-04
6.406080403220e-04
4.020423173836e-04
4.195882062222e-04
3.055816158326e-04
2.636950223364e-04
4.082271319947e-04
2.736025990170e-04
2.537953830401e-04
5.245273162057e-04
6.292993035881e-04
7.492900454241e-04
3.203758316606e-05
4.405577458711e-04
4.346027194587e-04
4.023785191973e-04
6.155232675037e-04
4.734346387430e-04
3.196066524516e-04
4.342139395113e-04
7.163087986927e-04
3.260933403649e-04
1.168244718053e-04
1.647945889040e-04
2.770873895178e-04
3.310730520104e-04
4.602757153186e-04
4.600207765890e-04
1.928157764076e-04
1.707341749778e-04
5.895058594021e-04
2.797745439378e-04
7.062976887918e-04
7.244525292788e-04
5.994482200641e-04
7.479362706433e-04
7.722073383501e-04
4.891222082220e-04
6.801196645123e-04
2.186358735565e-04
4.535223376976e-04
4.450813002302e-04
2.467733830818e-04
1.750442891068e-04
3.704464435431e-04
4.405809917950e-04
4.660198440887e-04
2.935158266565e-04
4.992118488517e-04
4.465362306875e-04
4.659568211177e-04
3.372178723478e-04
6.620913788087e-04
6.659627664384e-04
4.464589383721e-04
7.516390930913e-04
2.441816649308e-04
8.072504021232e-04
4.795300791222e-04
8.017371460895e-04
6.085549533664e-04
2.321228935279e-04
6.185852731565e-04
7.630767509020e-04
5.051417859831e-04
3.661414466216e-04
6.376993777508e-04
4.811178594329e-04
1.857807587189e-04
8.390465361483e-04
1.628736303485e-04
8.036589317589e-04
7.822328340233e-04
6.817113985780e-04
5.944690303378e-04
7.324063707552e-04
4.717283072585e-04
5.530050660420e-04
7.919782093495e-04
6.749206336022e-04
6.866667910661e-04
6.457616521014e-04
2.126152465348e-04
7.069826387246e-04
8.629714234730e-04
7.993865070988e-04
4.477431927428e-04
5.982374328927e-04
5.702467583064e-04
4.852758503030e-04
6.550541832802e-04
6.806275031619e-04
1.495582113029e-04
2.819536409307e-04
4.719088448474e-04
4.524404810498e-04
4.753774359264e-04
8.204202764358e-04
7.726022105671e-04
7.860269249390e-04
4.302864262974e-04
7.179879766962e-04
6.608709654568e-04
7.991666135651e-04
6.815066276248e-04
4.792430800077e-04
4.524987585418e-04
7.025482517895e-04
7.779314873333e-04
7.070226180185e-04
6.822309135255e-04
7.465300404061e-04
7.826368761700e-04
7.260240088116e-04
5.837814341675e-04
4.125387530949e-04
7.065160572798e-04
6.683788434956e-04
2.478373517059e-04
4.777284192442e-04
5.353515613939e-04
5.977625510039e-04
2.507745920709e-04
4.583293862520e-04
6.426616075672e-04
4.741323037944e-04
4.930461985426e-04
6.351704220665e-04
5.035899061353e-04
8.748336872995e-05
5.699093729231e-04
6.954848808431e-04
7.976626568000e-04
5.222109466484e-04
5.384171766190e-04
6.412047717611e-04
1.333587154635e-04
6.759698665895e-04
5.725287969111e-04
5.032199876639e-04
6.864279124225e-04
2.514950635447e-04
7.120564692623e-04
7.780948302509e-04
6.564610749456e-04
7.116821158201e-04
7.246360851013e-04
7.833643354194e-04
1.802790547338e-04
6.612816129093e-04
7.861355491829e-04
7.278229343817e-04
6.115797601383e-04
4.833414631772e-04
5.268286526492e-04
1.425296761520e-04
7.526132568008e-04
2.678943445110e-04
2.211120256558e-04
7.044851606333e-04
8.041173484503e-04
2.253293374700e-04
5.541855973425e-04
6.771406016496e-04
5.185055617143e-04
2.565916003583e-04
3.358426263350e-04
1.654267237843e-04
2.195587793392e-04
1.948064560472e-04
5.668209511317e-04
9.024478657275e-04
2.656438147348e-04
7.662341416689e-04
4.141061097714e-04
6.566720836641e-04
1.877799869201e-04
8.084989395093e-04
1.994569434083e-04
3.140464818660e-04
6.820386484981e-04
4.908002713549e-04
7.628181862507e-04
3.758479425673e-04
6.979283655874e-04
7.957911377227e-04
6.571731431381e-04
8.029731230695e-04
7.270515574910e-04
7.476451225947e-04
2.191637260577e-04
7.397348748796e-04
6.976508043859e-04
5.085012302089e-04
3.119003519742e-04
8.251246623771e-04
2.569217320374e-04
2.989728286296e-04
7.328562567959e-04
1.824812964156e-04
5.242757088580e-04
7.013386659934e-04
7.908799406318e-04
8.131260850100e-04
6.875825611049e-04
7.527048348785e-04
4.392290927810e-04
7.101308226447e-04
3.576610988848e-04
7.839173444398e-04
4.037880571282e-04
4.232159837033e-04
5.029022043263e-04
4.507734252293e-04
5.870500808989e-04
4.752244134070e-04
5.026363052125e-04
2.249310114461e-04
4.776453301647e-04
7.733738486002e-04
7.976476035845e-04
6.945548351068e-04
7.772416007150e-04
4.852334699188e-04
7.428006378953e-04
4.970035832582e-04
7.593068717160e-04
7.224411528600e-04
7.227149131649e-04
6.309607774765e-04
4.584456414079e-04
7.531944029664e-04
6.034972236900e-04
2.308119231500e-04
2.624460620044e-04
3.872761120802e-04
5.489843774695e-04
7.797820896700e-04
7.023632392719e-04
4.641088760791e-04
6.218312804433e-04
7.219008359154e-04
7.573917115974e-04
7.785266204010e-04
6.280166874005e-04
7.383877363914e-04
5.278638301658e-04
7.262918204668e-04
5.188928070716e-04
7.977154867570e-04
8.063595481928e-04
5.860927408408e-04
2.315643799225e-04
7.386133228481e-04
5.676947967437e-04
4.449348027813e-04
6.172626666964e-04
7.179827493323e-04
2.370266014843e-04
5.414414582278e-04
6.328258620691e-04
7.852987061870e-04
6.515827953541e-04
7.191722898294e-04
6.137788463094e-04
5.757943947390e-04
6.225247935544e-04
7.525361268811e-04
7.265450907645e-04
6.730854564585e-04
8.087327558910e-04
5.947165434318e-04
3.757083337357e-04
7.690299236002e-04
8.027797653313e-04
5.132285230033e-04
5.378259550272e-04
4.198490164914e-04
6.932498007595e-04
4.196989786401e-04
6.013383056530e-04
4.244065472614e-04
7.076412824923e-04
8.082825049946e-04
4.390606027736e-04
1.483230989868e-04
8.029617023961e-04
4.435164002791e-04
5.102475381477e-04
7.829133683486e-04
6.777367698023e-04
7.065388141310e-04
4.506750626245e-04
1.167461404750e-04
8.120451166423e-04
5.678324770761e-04
6.713655535843e-04
7.707853918245e-04
7.492364537136e-05
7.006400612350e-04
3.174082064534e-04
6.321144681100e-04
5.639974680990e-04
4.332125152761e-04
7.650774128591e-04
5.816219672421e-04
3.891223975006e-04
5.975818898240e-04
1.224806412890e-04
6.853035704159e-04
7.134125102004e-04
8.179492543020e-04
7.297421601193e-04
3.065079168190e-04
7.004003726196e-04
8.165253916176e-04
8.479924542833e-04
7.386332535642e-04
4.696607101220e-04
6.412724926972e-04
7.730297312436e-04
5.224557452220e-04
6.991686312028e-04
6.522881639181e-04
7.454810025326e-04
7.319099201394e-04
4.592718609033e-04
4.589748948831e-04
6.632348156822e-04
6.550643866417e-04
5.839389106664e-04
6.520225668259e-04
5.568349206801e-04
7.827592798598e-04
4.641682869918e-04
9.023985271437e-04
5.323389960366e-04
5.433977192185e-04
5.581483784777e-04
2.876533767836e-04
4.987925639303e-04
6.113280308229e-04
5.734936793023e-04
6.486149626944e-04
6.664011184541e-04
6.953526663878e-04
1.412062264109e-04
4.675204502198e-04
4.485143747990e-04
6.274607649306e-04
6.578443530004e-04
7.694390836844e-04
2.018827599834e-04
2.118548485698e-04
5.434196226545e-04
4.731655300954e-04
4.306957946138e-04
4.543511483622e-04
6.528939094235e-04
2.067591147696e-04
5.327937831684e-04
7.010212531473e-04
2.056531891882e-04
8.439841012356e-04
7.711259233898e-04
5.127813030370e-04
7.142204993727e-04
8.010879403205e-05
6.760026335023e-04
5.731440943210e-04
7.848797575394e-05
7.668831780950e-04
1.937244266693e-04
6.327922999710e-04
5.785286832994e-04
4.968174943866e-04
5.956127873224e-04
7.880861604784e-04
6.409960854337e-04
5.623311144195e-04
5.487641104452e-04
6.109272857416e-05
1.629874435700e-04
7.482510755206e-04
6.040877386252e-04
7.640917445135e-04
3.123204989809e-04
7.273523556962e-04
7.747935678475e-04
4.649937047846e-04
7.426717535746e-04
7.200303897050e-04
6.303284010484e-04
5.129756421741e-04
5.441585730997e-04
8.113189037915e-04
5.503878304791e-04
5.924281748206e-04
5.531250535128e-04
6.865936238777e-04
5.186424646122e-04
3.204813496190e-04
5.606647508770e-04
3.450779890533e-04
6.470302402466e-04
3.505252796099e-04
6.277520247305e-04
7.587948185470e-04
7.268103064184e-04
4.888355696636e-04
6.236801479114e-04
7.339558663339e-04
7.397456106695e-04
1.647892676569e-04
6.415300113062e-04
8.022742046258e-04
3.412132358055e-04
5.581165807734e-04
8.708025055710e-05
7.535189856760e-04
3.010719485934e-04
5.274804108231e-04
6.673026496075e-04
6.282397646401e-04
5.981992314315e-04
5.868815627898e-04
3.840091498006e-04
4.074033715262e-04
7.595591585227e-04
6.255621355900e-04
5.413215478798e-04
6.709724982699e-04
5.163063894937e-04
3.315774455480e-04
3.763959762493e-04
5.615934434708e-04
4.817973037771e-04
7.326130562771e-04
4.941499276580e-04
8.205042127968e-04
7.452468947420e-04
5.472972600878e-04
8.312900741524e-04
3.699819044739e-04
8.018291199323e-04
5.922723470957e-04
6.492908331354e-04
7.668482132430e-04
3.896525471501e-04
6.172543904820e-04
5.220226255599e-04
6.028779115149e-04
3.408590409728e-04
6.699987248021e-04
4.909242862165e-04
5.778210378881e-04
5.978296419796e-04
8.229029560999e-05
5.981137410256e-04
1.283223021349e-04
1.425604046919e-04
5.519635169088e-04
7.343432326655e-04
6.172079870032e-04
3.390874049380e-04
8.835512891396e-04
3.541794485888e-05
3.613399971481e-04
5.544855267789e-04
5.326254913468e-04
4.424845602747e-04
3.782682788717e-04
5.798739096979e-04
6.167777849602e-04
6.437007506706e-04
7.590632464972e-04
1.759096795290e-04
5.070291229362e-04
5.467926510370e-04
2.917605163706e-04
4.894986857120e-04
6.227812367473e-04
6.771752748072e-04
1.001730422140e-04
6.527003657202e-05
2.035166912421e-04
5.524955955533e-04
4.141708406182e-04
3.646770521929e-04
3.255364608925e-04
5.717928128404e-04
6.564800500114e-04
5.666644769925e-04
4.085506308660e-04
6.465993337185e-04
5.417387641994e-04
7.125425157821e-04
5.723661868930e-04
5.777202621077e-04
2.916076193924e-04
4.336480661839e-04
5.858412025591e-04
6.379366452071e-04
5.991263956497e-04
3.166301193058e-04
5.916947495787e-04
3.585996022864e-04
1.686121238923e-04
8.065430386563e-04
1.781249146415e-04
3.724154870578e-04
5.819798147523e-04
3.300189918571e-04
5.928518961627e-04
2.717893358977e-04
5.034514971512e-04
5.975048584584e-04
5.161248570229e-04
5.386329409282e-04
8.667360441849e-05
7.766355700003e-04
4.278027150325e-04
7.709884658025e-04
6.554981013868e-04
6.113729652278e-04
6.169416889889e-04
3.837801442347e-04
1.206709874370e-04
7.269670928316e-05
6.307319205139e-04
7.666183021714e-04
3.527221907689e-04
6.608281624571e-04
3.135411494528e-04
6.715213762121e-04
8.631320342243e-04
2.443176703526e-05
8.829965077119e-04
8.852121263970e-04
5.187863560737e-04
4.219301114264e-04
6.361517130024e-04
3.946797178833e-04
1.259295258068e-04
6.663094765465e-05
8.124043100395e-04
6.435964837156e-04
4.857059802391e-04
9.024611897643e-04
2.289087475018e-04
9.032106261994e-04
6.378439507150e-04
4.156051056860e-04
6.056962681492e-04
3.904754317435e-04
1.913315701783e-04
3.651077128311e-04
6.756031953244e-04
7.724144175276e-04
3.966058680347e-04
6.856021964007e-04
0.0
4.025686827041e-04
7.139120631654e-04
3.570731400853e-04
3.273347299656e-04
6.111873319657e-04
1.714241601602e-04
2.420040212522e-04
2.712090176002e-04
3.127039070016e-04
5.608332313648e-04
5.328849272093e-04
6.902231196026e-04
8.080955017943e-04
2.842556977963e-04
6.821682045895e-04
8.109606697113e-04
3.645861892778e-04
1.258230046435e-04
3.462855414954e-04
5.351169772372e-04
6.908562819823e-04
5.298709099370e-04
1.475829349837e-04
6.052995487488e-04
2.176340386909e-04
5.379426478049e-04
5.747509196573e-04
6.255223732288e-04
6.198429424376e-04
3.190834650638e-04
1.430237184057e-04
6.204770996910e-04
2.385014860191e-04
5.727538746632e-05
8.088933360730e-04
7.702342677557e-04
3.537830069708e-05
6.503365910815e-04
2.479462791813e-04
2.600158871832e-04
7.304280687047e-04
6.303423890785e-04
7.052277971026e-04
4.085225165101e-04
4.822303009211e-04
8.428341203802e-04
2.144184038726e-04
7.491156234450e-04
5.624077246742e-04
1.620147722767e-04
6.703416370318e-04
4.275751542475e-04
7.844671194514e-05
3.593652216937e-04
6.605802268349e-04
6.829403826903e-04
1.683856497506e-04
5.389059366488e-04
7.114080209456e-04
7.412554945830e-04
3.386366915786e-04
2.659836531276e-04
5.773807037095e-04
6.106537074396e-04
7.794080869892e-05
8.647472179011e-04
8.429320017221e-04
5.419416684599e-04
8.464641737961e-04
8.449768812639e-04
4.218473016108e-04
4.026312649594e-04
8.662430778611e-04
0.0
2.463689065015e-04
5.423185032493e-04
3.455780040321e-04
3.534199359639e-04
1.932563100895e-04
2.285242578868e-04
5.533910755366e-04
3.894757547290e-04
2.855356333337e-04
7.152732176559e-04
9.025430170280e-04
9.028555141478e-04
4.158729496666e-04
4.991986293731e-04
5.007569812017e-05
1.549723110472e-04
1.733686555641e-04
1.773311158401e-04
6.057473022357e-04
3.472267394595e-04
3.840401147294e-04
1.047743844350e-04
7.694785082956e-04
3.779515105815e-04
8.054340909103e-04
7.382880291593e-04
9.042222901304e-04
9.037391284983e-04
5.542239624201e-04
3.965200569982e-04
2.395169663989e-04
4.095473271816e-04
8.846617183911e-04
1.091075619098e-04
1.309117937249e-04
7.757007018757e-04
5.216493301951e-04
8.114985139276e-04
7.149555952708e-04
7.808260194802e-04
7.476070933347e-04
5.490969887376e-04
3.014610573917e-04
2.949948221418e-04
6.532450277148e-04
7.635848575454e-04
4.588641132707e-04
5.205058156001e-04
5.540928897098e-04
5.659168286544e-04
1.420511469143e-04
2.680728897049e-04
8.651629045309e-04
6.052440982456e-04
8.634119896890e-04
8.245717668539e-04
6.764662760295e-04
8.149161431282e-04
3.967880254959e-04
3.767005960415e-04
8.110139756078e-04
3.456957431072e-05
2.657950424331e-04
8.824542840959e-04
1.237061144379e-04
4.987214213507e-04
8.294168402688e-04
8.695215841111e-05
5.602562008274e-05
9.015334466947e-04
4.603425485765e-04
8.489922161072e-04
8.087138917440e-04
4.591008030381e-04
5.552241480747e-05
8.444214902365e-04
1.414135789209e-04
8.168961864666e-04
8.837090559571e-04
8.142426765288e-04
1.807958899793e-04
5.595583047635e-04
4.199792468794e-04
7.164591502921e-04
9.028817437699e-04
7.102313129860e-04
9.026811156521e-04
8.288145526137e-05
8.646233726606e-04
2.069739792553e-04
1.172764018555e-04
8.657097316282e-04
8.659008612292e-04
8.625184092857e-04
5.047279818662e-04
5.503926425959e-04
1.934303277458e-04
8.651050625011e-04
3.388354453695e-04
1.130064855855e-04
7.389517174799e-04
4.782630476822e-04
8.223389270151e-04
8.930658412704e-04
8.840898532866e-04
2.334843234610e-05
1.127894866393e-05
4.694771593736e-04
4.807281389759e-04
8.834165587509e-04
8.924916119185e-04
5.576594174246e-05
0.0
8.119181321880e-04
8.142322994912e-04
1.701766019211e-04
8.251842060796e-04
5.739886326733e-04
5.078648088346e-04
6.388823889726e-04
1.550243662730e-04
6.739268272391e-04
1.393043346543e-04
4.524792319836e-04
8.185153464905e-04
7.987444324357e-04
4.885491561285e-04
5.870976835179e-04
8.300271616539e-04
7.651236002798e-04
7.207118451452e-04
4.587797315069e-04
6.508513547530e-04
8.137396714987e-04
2.548267730587e-04
6.130172025363e-05
7.910594940571e-04
7.454571359396e-04
1.168423234533e-04
6.691954016891e-04
8.437645600948e-04
7.822748954745e-04
8.291678905268e-04
6.276953752614e-04
3.676099362061e-05
1.910008398258e-04
2.410902129174e-04
5.367277688070e-04
6.465619629803e-04
8.260192756098e-04
8.426510046720e-04
9.968867775761e-05
9.583122356830e-05
1.529254075451e-04
6.701562114990e-04
3.239280242567e-04
8.294279570789e-04
1.624109286017e-04
8.067702666274e-04
5.436640056567e-04
8.463726308532e-04
7.450121923899e-04
5.381792224530e-04
8.657268182902e-04
8.669176791877e-04
8.641188598614e-04
1.063408641689e-04
8.096899185402e-04
8.433515583067e-04
8.209426083778e-04
7.578403458605e-04
8.820824508574e-04
7.152183658321e-04
0.0
1.476863544574e-04
7.925042984467e-04
5.819610102914e-04
8.150003304523e-04
7.872814678585e-04
8.479070143319e-04
7.210640868520e-04
8.478357315245e-04
8.252654922693e-04
8.217924527872e-04
3.382456616413e-04
9.027319105777e-04
5.177284306761e-04
8.149780141979e-04
7.602985457212e-05
7.853489742656e-04
6.747924126657e-04
9.715604780866e-05
1.703587158512e-04
7.357623737217e-04
8.456239339759e-04
8.256639794594e-04
8.510870588008e-04
5.779321806582e-04
5.698562791087e-05
8.903845588755e-05
6.283407249005e-05
1.237561416650e-04
2.218122983909e-05
4.492152745151e-04
8.141022284179e-04
8.188324132241e-04
5.825183578263e-04
3.912991429551e-04
8.215127337613e-04
8.144364166830e-04
8.676175675571e-04
8.131246206762e-04
7.790398171077e-04
7.703091579876e-05
8.521732389425e-05
8.233105816384e-04
7.749586532649e-05
1.142956473345e-04
7.248547269918e-05
8.699680012183e-05
8.468513703275e-04
8.482556314247e-04
8.272172742286e-04
8.507165112290e-04
7.882896166762e-04
6.050128159723e-04
8.848716184046e-04
2.082654753157e-04
4.770383954530e-04
1.308584681555e-04
3.200133854228e-05
9.023297721724e-04
5.253788953819e-04
1.321285258096e-04
4.283053972209e-04
8.675733916602e-04
8.249021745336e-04
8.483302000566e-04
3.066024421433e-04
8.148429218192e-05
8.670431337253e-04
9.023411771345e-04
9.053923630978e-04
5.028745524170e-04
8.096342445588e-04
1.166784308444e-04
8.309395715063e-04
3.072536449823e-05
8.491015123024e-04
8.642157995563e-04
3.254999792424e-05
7.915264275696e-04
6.950269549080e-04
8.486200653357e-04
8.870888049155e-04
6.371787866159e-04
8.507580346647e-04
8.288142407060e-04
6.543265911992e-04
8.219609091343e-04
3.580802034436e-04
4.580585415293e-04
8.289670477400e-04
8.604442280761e-04
0.0
4.595975431844e-04
8.621910031762e-04
1.592545715764e-04
8.297085483634e-04
8.243206064822e-04
8.644406776067e-04
1.547160338610e-04
1.208044010377e-04
5.264955792143e-04
7.516483182700e-04
1.891156848520e-05
8.515789897366e-04
6.135789601255e-04
1.559509946477e-04
5.832862224491e-04
8.658507257749e-04
5.521778443811e-04
4.558321396471e-05
3.239427989419e-04
4.776913424967e-04
5.701251507253e-04
8.287479897685e-04
4.636624967177e-04
4.900391319366e-04
7.786229875005e-05
8.280550521141e-04
7.926388045417e-04
1.331660701839e-04
8.512291248288e-04
8.566440339275e-04
5.134667395409e-04
6.297245589001e-04
4.683583638002e-04
4.786896715519e-04
5.070171589005e-04
7.879088551411e-04
1.144990407912e-04
8.287518740281e-04
5.339553679767e-04
8.658836050112e-04
7.862007520820e-04
5.990262297868e-04
7.981889298720e-04
8.203027348467e-04
8.695097463781e-04
3.580066420134e-05
8.023135303917e-04
8.310675113497e-04
8.967195667714e-05
4.375219600786e-04
5.410315473195e-05
8.369220774202e-04
2.893562250950e-04
3.035610020743e-04
2.781398742463e-04
3.024796248070e-04
2.774000520103e-04
3.024086532762e-04
2.773792771481e-04
3.024572659554e-04
2.774284649834e-04
3.025480157212e-04
2.775301685476e-04
3.026855389739e-04
2.776610420386e-04
3.027150412041e-04
2.776797469847e-04
3.026647938250e-04
3.057519497818e-04
2.776123204034e-04
3.026644902344e-04
2.828915978971e-04
2.776728359796e-04
3.027151159073e-04
2.761654015987e-04
2.777471929607e-04
3.027239513287e-04
2.777229964406e-04
3.026125050717e-04
2.775893337710e-04
3.022358251205e-04
2.911528140928e-04
2.773787975288e-04
3.027660250717e-04
2.778333905826e-04
3.023471162595e-04
3.041522434489e-04
2.778236615926e-04
3.009345726581e-04
2.786762187220e-04
3.055181121834e-04
2.755391628935e-04
2.628456973792e-04
2.894887970220e-04
3.094946284243e-04
2.879404696216e-04
3.001784249515e-04
2.747666986158e-04
3.387590509463e-04
3.239558570236e-04
3.490589559299e-04
3.242489538052e-04
3.492778332294e-04
3.244009492226e-04
3.494137940559e-04
3.243450263155e-04
3.494285644229e-04
3.244491555650e-04
3.495528953540e-04
3.245729995313e-04
3.497476816412e-04
3.247790095566e-04
3.498156307860e-04
3.524344535621e-04
3.244756318896e-04
3.234927653718e-04
3.495180048905e-04
3.245640602665e-04
3.496724803304e-04
3.248419696225e-04
3.498816701128e-04
3.248366754099e-04
3.293404958308e-04
3.498297634467e-04
3.247755033259e-04
3.497132450553e-04
3.245820555673e-04
3.488372345038e-04
3.242701434091e-04
3.503144451308e-04
3.256426464242e-04
3.234521601643e-04
3.489428141026e-04
3.382079507074e-04
3.528736187585e-04
3.091709295256e-04
3.479959789487e-04
3.272882465017e-04
3.399401601187e-04
3.274902301269e-04
3.210995550700e-04
3.823738146998e-04
3.954225263856e-04
3.697566624949e-04
3.939322582241e-04
3.688694981486e-04
3.944097865815e-04
3.693773633783e-04
3.940314017453e-04
3.688791821506e-04
3.943498072948e-04
3.693104022334e-04
3.943240387101e-04
3.692423004483e-04
3.983221388088e-04
3.950761893213e-04
3.697532978986e-04
3.757283910689e-04
3.940431169502e-04
3.690941919872e-04
3.688922250286e-04
3.943316706399e-04
3.695967294386e-04
3.950039595106e-04
3.699171745464e-04
3.947738597822e-04
3.836764221872e-04
3.696289525296e-04
3.946866788540e-04
3.951305091693e-04
3.698050963930e-04
3.917401968718e-04
3.700257270424e-04
3.984140208452e-04
3.678384251997e-04
3.553107824800e-04
3.787353646523e-04
4.015883610286e-04
3.798602337846e-04
3.917784855672e-04
3.672570110000e-04
4.343021193814e-04
4.144431140943e-04
4.400238155636e-04
4.160910928413e-04
4.407194433539e-04
4.169792812266e-04
4.421275663542e-04
4.155655137509e-04
4.404257626118e-04
4.163557751547e-04
4.417490498800e-04
4.164243392235e-04
4.451512402664e-04
4.411469643058e-04
4.182864247912e-04
4.154450539294e-04
4.421592365310e-04
4.167200733669e-04
4.407251200889e-04
4.170139093125e-04
4.420435047998e-04
4.169234513539e-04
4.225836555007e-04
4.425201970351e-04
4.165861177248e-04
4.414159334299e-04
4.159924669279e-04
4.163537947849e-04
4.414971076271e-04
4.437645096039e-04
4.307709466435e-04
4.017743348262e-04
4.348445271150e-04
4.227645607119e-04
4.331703470473e-04
4.187044942453e-04
4.146339968586e-04

SCALARS element_materi_plasti_phimob float
LOOKUP_TABLE default
7.361910357588e+00
5.350930061656e+00
1.914112846337e+01
1.855424277557e+01
1.092080598292e+01
-6.888162342729e+00
1.103535828419e+01
8.766988950412e+00
1.106199090867e+01
1.851258495168e+01
2.129780895879e+01
2.286968699952e+00
2.089213972318e+01
1.242995253088e+01
2.072131313820e+01
1.880466709229e+01
1.031538108867e+01
-7.064252582429e+00
1.026555210109e+01
1.122041653784e+01
1.848805501658e+01
8.183343673141e-02
5.047159577766e+00
2.143883940331e+01
1.381923587657e+01
2.138525852293e+01
7.739257857625e+00
2.072687059818e+01
1.381539521594e+01
2.144478141527e+01
2.282705218916e+00
-2.091366270853e+01
1.904490065368e+01
2.124170826835e+01
2.104112485977e+01
2.085041129541e+01
2.075253346720e+01
2.129893366612e+01
8.484448310709e+00
8.643569430854e+00
3.074273751212e+00
2.085684454261e+01
3.919606933358e+00
7.615889887988e+00
1.823538276443e+01
3.553677570710e+00
-4.566551730678e+00
1.833457354268e+01
-2.206484150264e+01
1.154644968853e+01
3.231348717096e+00
1.358658261159e+01
1.111400727891e+01
-2.544361945553e+00
1.891233215597e+01
1.719998417872e+01
1.448239254704e+01
2.130167061666e+01
4.527443576605e+00
1.878643503708e+01
-2.787777223264e+01
2.109130996228e+01
1.544591665999e+01
9.024884700765e+00
2.089581382236e+01
-3.071400135627e+00
-3.006223066435e+01
1.909362949610e+01
5.429770632557e+00
1.989894701695e+01
2.140126122844e+01
1.935144102992e+01
2.035618972566e+01
-1.452660681193e+01
1.784387471091e+01
1.855966340643e+01
1.884324665007e+01
-1.100116663748e+00
5.067059966741e+00
1.140801822684e+00
5.888941104107e+00
1.022199433251e+01
7.158626841315e+00
9.451292927429e-01
1.208863792217e+01
1.213357069593e+01
2.137616163618e+01
2.132503623588e+01
1.751109026596e+01
1.076646210441e+01
-2.133663628282e+01
1.020603261922e+01
1.666478534588e+01
1.645090023034e+01
1.912037910740e+01
2.095287591206e+01
1.006679349985e+01
2.128242847348e+01
1.395495210379e+01
1.397912272946e+01
9.732617482614e+00
2.078979610221e+01
2.126904063364e+01
2.094721201106e+01
1.622512779747e+01
-5.964213550132e+00
2.104865165027e+01
1.721951293918e+01
-2.284383471982e+01
2.067166153913e+01
1.723376551933e+01
-2.584364184377e+01
2.009199129991e+01
7.889023207634e+00
1.958238555164e+01
1.316909661145e+01
1.592401986214e+01
2.092367287158e+01
1.342518539368e+01
1.632262957537e+01
4.517689935129e+00
1.025664808854e+01
1.730996240010e+01
1.620135603808e+01
-1.014244883017e+01
5.162927462094e+00
1.930116868945e+01
1.293295069255e+00
1.885147080992e+01
-3.057251415715e+00
2.139030997510e+01
1.857751984286e+01
1.198786507450e+01
3.933646013434e+00
2.119243046542e+01
2.086977122348e+01
2.142897336946e+01
1.252797154636e+01
2.135373689435e+01
9.353476298024e+00
1.871619642955e+01
1.973354670062e+01
1.231847652067e+01
1.541956916689e+01
1.044630433184e+01
-8.333314767208e-01
1.368810591163e+01
1.818676298956e+01
1.022915090125e+01
2.007346184144e+01
-2.226122878938e+01
1.208029834777e+01
6.188729581759e+00
6.606825297841e+00
2.089565044584e+01
1.669477111770e+01
2.138136114970e+01
4.867303156468e+00
2.135769710253e+01
1.056933927463e+01
2.057995383179e+01
2.121758564438e+01
4.647639433893e+00
2.107080300744e+01
1.096422530155e+01
2.103465567598e+01
1.046726625717e+01
1.823052926157e+01
5.606251076901e+00
2.140776138195e+01
5.673575345084e+00
2.025488375210e+01
1.597380069637e+01
1.038827550276e+01
1.939836890426e+01
3.522407600984e+00
1.868986061533e+01
1.999606878199e+01
2.063277039179e+01
1.989194636445e+01
1.152627715006e+01
2.013118648895e+01
2.171086473290e+01
7.348008060937e+00
9.100482863173e+00
9.336349967738e+00
1.921762791063e+01
1.873043516137e+01
1.693420804415e+01
2.114931931463e+01
1.879136433251e+00
2.021992263304e+01
1.746956605891e+01
-3.385263680235e+01
5.634757076426e+00
2.196067378304e+01
-4.118891264763e+00
1.882139545831e+01
1.518958945273e+01
2.103267814543e+01
2.223033348483e+01
1.195723907426e+01
1.322101618957e+01
2.120731408154e+01
1.813665230465e+01
1.510313604987e+01
1.246765251314e+01
1.569841258344e+01
1.197241133896e+01
9.623231737372e+00
2.166075300043e+01
1.828713981668e+01
-2.622992416167e+01
1.036224102152e+01
1.262121650918e+01
1.417927991917e+01
1.725662022477e+01
5.571486012335e+00
2.206864513167e+01
1.016024048835e+01
2.073605457382e+01
2.213546067021e+01
-1.720337376138e+01
1.624255724984e+01
-2.333815139360e+01
-3.108814894959e+00
2.672899142780e+00
1.608375982637e+01
1.664377495139e+01
1.459846227246e+01
1.113418516499e+01
1.025375040630e+01
7.852929606689e+00
2.206560074551e+01
1.130725556888e+01
2.095837907424e+01
-3.888969261607e+01
1.547012589744e+01
2.134720626599e+01
5.479723175719e+00
2.234457284639e+01
2.099747714066e+01
1.640290727512e+01
1.819108879899e+01
2.183475520330e+01
2.141342222732e+01
1.408344732106e+01
1.577566617722e+01
2.069088955991e+01
2.100294109408e+01
1.169518335031e+01
1.367774648658e+01
1.913563494681e+01
1.605785436959e+01
2.198801288190e+01
1.241242566172e+01
2.315010047656e+00
1.171358944856e+01
1.907849627594e+01
1.260565708942e+01
4.881679359857e+00
1.668215509573e+01
1.322548113299e+01
1.811338567877e+01
1.704881856492e+01
1.696218155168e+01
1.406907949562e+01
2.072995411274e+01
2.242959752165e+01
1.415652058418e+01
1.972944289946e+01
2.200515107771e+01
1.682555771196e+01
1.005119069037e+01
2.154199809529e+01
1.909968231581e+01
1.637773433665e+01
-2.683566278888e+01
1.263971688826e+01
2.018220550358e+01
1.451274056376e+01
1.565097551447e+01
1.448541291943e+01
-5.847624377232e+00
1.114675691815e+01
2.236745651013e+01
1.295763995316e+01
1.203478737101e+01
6.146895306873e-01
2.002855708572e+01
1.792356423752e+01
1.123003907998e+01
1.580228470786e+01
1.316804172177e+01
2.196472171319e+01
2.145789139873e+01
4.059493858771e+00
2.043666940934e+01
3.341688839074e+00
1.927771646904e+01
1.942298215022e+01
1.682549106665e+01
1.819609200048e+01
1.300205026639e+01
1.500137990425e+01
1.539544358012e+01
1.884247153957e+01
1.358870865625e+01
1.866805444113e+01
2.061151291819e+01
2.171919869622e+01
8.933560850546e+00
2.109810706734e+01
1.650546431382e+01
1.498741246895e+01
9.581379686770e+00
2.270577500139e+01
2.188040396903e+01
1.958170524790e+01
1.284165253576e+01
1.992908835268e+01
2.133694840351e+01
2.220589212307e+01
7.459409310250e+00
1.474135283493e+01
2.241130705310e+01
1.296484411028e+01
1.416119986657e+01
2.048910234746e+01
2.215267215378e+01
1.967616356256e+01
1.396423438834e+01
1.729656043765e+01
7.950825353299e+00
1.081595309151e+01
1.382217529583e+01
1.436015390982e+01
1.704040831484e+01
2.078582814240e+01
1.323594367598e+01
1.064493076279e+01
2.094994797358e+01
1.293768554488e+01
8.743772983199e+00
1.625279508236e+01
1.050605044399e+01
1.870857407718e+01
1.991518813166e+01
1.675766021671e+01
1.556537121673e+01
1.207195266401e+01
2.250707238262e+01
2.247558862607e+01
2.103751580543e+01
7.566679791564e+00
1.927812795293e+01
2.032109459573e+01
1.037351602810e+01
1.348527989513e+01
1.773740702623e+01
1.527749492751e+01
7.945952534148e+00
9.633551983685e+00
2.118643427625e+01
2.133003050696e+01
1.772260919486e+01
1.622960102297e+01
2.212384379478e+01
1.540978519791e+01
1.713396471702e+01
1.932387526750e+01
1.534401850251e+01
2.246377563280e+01
2.091510072554e+01
1.758002462939e+01
1.826312238762e+01
1.793083529028e+01
1.362676891624e+01
1.722312393194e+01
1.948786755474e+01
1.936021834467e+01
1.880187335092e+01
2.223335324912e+01
1.709775300267e+01
1.255696022620e+01
2.066493950568e+01
1.128565438734e+01
1.168806603309e+01
1.003832995147e+01
1.401248782284e+01
2.142612005842e+01
1.796210752006e+01
1.350563634624e+01
1.515474278459e+01
1.491758136944e+01
-5.648024175886e+00
2.099320040810e+01
1.839592673217e+01
2.053986687903e+01
-5.344976717219e+00
1.237695297584e+01
1.080243559764e+01
1.754311169531e+01
2.062400287016e+01
2.187705923099e+01
1.043464921747e+01
4.858481930383e+00
1.613475734808e+01
2.085536251022e+01
1.464820576424e+01
2.015419082018e+01
1.023734269539e+01
1.528333247168e+01
2.126167915826e+01
1.713447407273e+01
2.249599261128e+01
2.025270317194e+01
2.012786234382e+01
1.966601820034e+01
1.986047263437e+01
1.538492453147e+01
1.710260468681e+01
1.819671250238e+01
1.656232185655e+01
1.431148325427e+01
2.049761672350e+01
1.755651419533e+01
2.065475944417e+01
1.749359041801e+01
2.196319646268e+01
1.745467228513e+01
1.961325568534e+01
1.865291676795e+01
9.694279219020e+00
1.228989476417e+01
1.880300425856e+01
1.754772829516e+01
2.007042371943e+01
2.082409648149e+01
1.738995517790e+01
2.096251211962e+01
1.812158726923e+01
2.025477566943e+01
1.897849593555e+01
1.601217557324e+01
-2.286077897239e+01
2.046307660936e+01
2.097201124341e+01
1.825556599861e+01
2.212540554618e+01
2.112915791579e+01
-5.254617358996e+01
1.820601036406e+01
1.600159254126e+01
1.608574405791e+01
1.494849978564e+01
1.418832014314e+01
2.062704896125e+01
2.146558221380e+01
-6.075258380330e-02
2.109436486662e+01
-2.236918067356e+01
9.301281873144e+00
4.171185286774e+00
8.059775698131e+00
2.114936984261e+01
2.071995427459e+01
1.411994237040e+01
-5.324608426669e+00
-5.158282581618e+00
2.413474263642e+00
2.157537688940e+01
1.013940335359e+01
1.151398299970e+01
2.075280928507e+01
1.022059151337e+01
1.926225312385e+01
2.005516015308e+01
1.338021742530e+01
1.395204687810e+01
2.226166684969e+01
8.084821171470e+00
2.073537985994e+01
1.998738536540e+01
1.976675123592e+01
2.215306043214e+01
2.001416524960e+01
1.914225371573e+01
2.236186315039e+01
2.069335527934e+01
1.663439810009e+01
2.057491937991e+01
2.096742527363e+01
1.420712350241e+01
2.106387243163e+01
-6.407363562985e+00
2.064281647725e+01
2.008342912753e+01
2.037442656602e+01
1.819267006189e+01
-4.778275332520e+01
1.945065628361e+01
1.744242040819e+01
2.056018644204e+01
1.554524621223e+01
2.061090492964e+01
5.881238216213e+00
2.126942122679e+01
2.044583161628e+01
2.020153462756e+01
-2.196460101579e+01
2.068032826887e+01
1.363221032141e+01
2.185506166915e+01
1.254450092980e+01
1.764200825597e+01
1.974743529981e+01
1.537496301731e+01
2.075270939775e+01
2.050459253546e+01
2.215467620510e+01
1.820098852408e+01
2.245807015166e+01
2.054567307980e+01
2.223653877339e+01
1.756832162377e+01
1.840325437557e+01
2.211239538362e+01
1.899727578452e+01
2.120905993242e+01
1.744278629742e+01
2.031615419054e+01
2.022990974486e+01
2.260450940201e+01
2.112509466274e+01
1.778762112603e+01
1.686196248826e+01
2.066562103041e+01
2.142678810281e+01
2.117323357527e+01
-2.227431811654e+01
2.103551863334e+01
1.784573198848e+01
1.893771472876e+01
2.060266740518e+01
2.212940031647e+01
1.278586850346e+01
1.247679001793e+01
2.222178407204e+01
2.207755209754e+01
2.243612024487e+01
1.518923803264e+01
1.181027391838e+01
2.184709271972e+01
1.375133861482e+01
2.080324397768e+01
2.236680608828e+01
1.974081878172e+01
2.179057701457e+01
-4.354281963499e+01
1.794047714658e+01
1.929207394445e+01
2.129986233699e+01
2.061470849613e+01
2.242497525106e+01
1.356513158187e+01
1.817451575378e+01
2.058444191244e+01
1.623758975709e+01
2.131551424556e+01
1.627091130777e+01
2.100975636236e+01
-4.941794850388e+01
1.329842774033e+01
1.974447020326e+01
-5.860382672696e+01
2.099430976870e+01
2.227324498060e+01
1.752518200187e+01
2.250053764136e+01
2.277181207967e+01
9.221047463324e+00
7.449235874615e+00
1.884397729313e+01
1.674389598375e+01
-6.302485757396e+01
7.630609198482e+00
-2.252538218797e+01
1.701672274955e+01
1.871988807328e+01
1.749644990800e+01
2.177016796345e+01
1.823004917483e+01
2.160736177734e+01
2.186313384201e+01
8.210112634172e+00
1.964331697896e+01
1.808912406076e+01
2.101956714271e+01
2.056689088503e+01
2.032203282048e+01
2.105751013128e+01
2.237063299309e+01
2.175168040725e+01
1.022176865450e+01
2.197841978524e+01
-3.842683796134e+00
2.067384392098e+01
2.131116070293e+01
-2.055662080025e+01
1.995034442961e+01
1.785052028545e+01
-6.144888892177e+01
7.388839719980e+00
7.618628461139e+00
2.235311405362e+01
1.803659774424e+01
1.946885386410e+01
9.907404187606e+00
2.136517025494e+01
2.032050718814e+01
1.693954392493e+01
1.366032861772e+01
-1.225639425088e+00
1.046624034373e+01
7.772641048968e+00
7.872292948648e+00
-5.794414784954e+01
-2.103461062962e+01
-3.051575401685e+00
1.542147811206e+01
-2.008932823421e+01
2.066488943673e+01
-4.118840105035e+01
1.759486136837e+01
1.491492045955e+01
7.633480693536e+00
1.876988863248e+01
2.226493370126e+01
1.374914766495e+01
1.866628484435e+01
-3.606383564906e+00
1.924110125489e+01
1.908937396936e+01
1.257421960026e+01
7.643290136937e+00
1.871092722939e+01
1.907711341625e+01
1.647570769388e+01
7.576186875058e+00
7.485374696248e+00
6.908002067057e+00
1.958855141182e+01
1.905241184074e+01
-2.071672182722e+01
-5.763411326440e+01
3.695411354610e+00
2.161681898397e+01
2.098304191063e+01
-3.160332867646e+01
1.698301029083e+01
-4.353460677976e+01
2.263617326686e+01
-3.924939583073e+01
-3.542892649705e+01
2.268832874447e+01
2.111317956369e+01
1.481105868471e+01
1.246974585390e+01
-2.035699111885e+01
2.154986161857e+01
1.914935671733e+01
1.907332663002e+01
7.694371307358e+00
2.253089145950e+01
1.921719013157e+01
2.067263092869e+01
-4.115190845555e+00
-2.019884199472e+01
-2.073688364047e+01
1.959369708391e+01
2.079095939827e+01
1.857348534161e+01
-5.758093809437e+01
2.056896436870e+01
2.049869092041e+01
2.084629735739e+01
2.099294658919e+01
1.616081995109e+01
1.735535244702e+01
2.048563038477e+01
2.049501870576e+01
1.698269419479e+01
-6.478470888366e+01
7.807411375683e+00
7.812359885558e+00
-5.768184290549e+01
2.051370321294e+01
2.099966779845e+01
2.051759388157e+01
-6.101905636002e+01
-6.065884492266e+01
2.054805703206e+01
2.053482818762e+01
1.568983813778e+01
7.853720965562e+00
1.658445959960e+01
1.307352015005e+01
7.878450531272e+00
-6.175225261682e+01
-5.912769899244e+01
-5.628226424664e+01
-5.216769727856e+01
2.082988136300e+01
2.028963519662e+01
-5.725043979828e+01
2.138006389403e+01
-5.491831091320e+01
1.941827627541e+01
1.918839332724e+01
1.926972821264e+01
8.233331386042e+00
1.729373674871e+01
1.916558574919e+01
2.121654587405e+01
1.919159421494e+01
2.106942348370e+01
2.087618154065e+01
1.995973739474e+01
1.906140409512e+01
1.908479995374e+01
2.112216796863e+01
2.096487346060e+01
2.142714801591e+01
-4.634684612769e+01
2.031932959684e+01
-2.123607571072e+01
2.128010671786e+01
2.092662031512e+01
2.139089329403e+01
1.392058501295e+01
-4.693444999753e+00
2.119381108484e+01
2.073584694541e+01
1.929567060493e+01
2.133965413704e+01
1.795451945908e+01
1.916288587833e+01
2.200573370142e+01
2.200432288267e+01
2.150528397510e+01
2.143372406518e+01
2.184348928400e+01
1.034833090159e+01
2.006235375705e+01
2.169364316558e+01
2.125701553495e+01
2.136883170678e+01
1.512557785912e+01
1.788640998192e+01
1.722058731059e+01
1.155426782198e+01
2.175546526795e+01
2.159821649184e+01
1.796308883848e+01
1.760441602801e+01
2.185809609514e+01
2.108106341764e+01
1.698827868391e+01
2.131284130775e+01
2.113582057861e+01
1.788662838271e+01
1.584793090865e+01
2.202806860788e+01
1.443580020815e+01
1.384770033619e+01
-1.386722784841e+00
-2.206415085336e+01
1.758724919791e+01
2.116735628160e+01
-2.236767925544e+01
1.795752526593e+01
1.239056954226e+01
2.142657485723e+01
2.132822224408e+01
1.986065414582e+01
2.130264098208e+01
1.151191902368e+01
2.200296484065e+01
2.101858108755e+01
1.392746750099e+01
2.122589678960e+01
1.638642395422e+01
1.548350992905e+01
1.627180876003e+01
2.116778200245e+01
1.461196489795e+01
1.943115390498e+01
1.686423680302e+01
1.538690665962e+01
2.132642387039e+01
2.139405046969e+01
2.137412805773e+01
1.641705530028e+01
1.146522353758e+01
2.105921786825e+01
2.146852047670e+01
1.674246466386e+01
2.061814207544e+01
2.177367251216e+01
2.134065691829e+01
1.586904469942e+01
-5.180685446156e+00
-1.748303289443e+00
1.370940878195e+01
2.129001385399e+01
1.528585430935e+01
2.124975264127e+01
1.319378157846e+01
2.170270696890e+01
2.133751329011e+01
2.141762032591e+01
1.425808502566e+01
2.123789157508e+01
2.113186522258e+01
1.535627789819e+01
2.089423697730e+01
1.972304628329e+01
1.723561775686e+01
2.133801356813e+01
-5.702371103478e+01
-5.603362880637e+01
2.149304209520e+01
1.298881163573e+01
2.160231839367e+01
2.168816202980e+01
2.069921463368e+01
1.753995901643e+01
1.738135889292e+01
-4.516987140331e+00
2.001159865790e+01
2.156867698589e+01
1.084618123959e+01
1.402424496915e+01
1.239391464856e+01
9.928948568407e+00
2.150089706970e+01
1.608465174858e+01
1.319955422924e+01
1.766237110009e+01
1.771560536041e+01
1.465101614597e+01
1.408547048403e+01
1.509077841702e+01
2.143377782387e+01
2.134685595981e+01
1.789230018229e+01
1.742408743746e+01
2.151804367652e+01
2.163548784694e+01
1.214470529071e+01
2.152018606024e+01
1.613279486808e+01
2.123177817523e+01
1.525150476619e+01
1.660285995534e+01
2.241382274868e+01
1.711124396560e+01
2.080752347284e+01
2.120026689035e+01
1.908853417400e+01
1.985602534908e+01
1.572814494822e+01
2.185533411070e+01
1.605317576847e+01
3.525130547865e+00
1.568426785882e+01
1.636422515372e+01
2.124410268743e+01
1.627735677881e+01
2.151481404502e+01
2.097738859489e+01
2.042701669435e+01
1.489742860973e+01
6.858833889577e+00
2.163336689424e+01
1.479451181628e+01
-2.045107446802e+00
1.908742382575e+01
1.247233353189e+01
1.456968149605e+01
1.938135694169e+01
2.187923372000e+01
1.893699747284e+01
1.719683627331e+01
1.817911772411e+01
2.176508569842e+01
1.330893042249e+01
2.174110878725e+01
2.101786692350e+01
2.164990225571e+01
2.133562815194e+01
1.268844176669e+01
1.337832975260e+01
2.236396004587e+01
1.723617945778e+01
1.475628398883e+01
1.526118094994e+01
1.492633936006e+01
1.096986650376e+01
2.143470920121e+01
2.229800014455e+01
2.175783860102e+01
1.806730486397e+01
2.201395757472e+01
1.163379719367e+01
2.195480868752e+01
2.144297746588e+01
1.878417182335e+01
2.152788801587e+01
1.624180112620e+01
1.657861181973e+01
2.184852592575e+01
1.290676000182e+01
1.653280060671e+01
1.870336171633e+01
1.875822235359e+01
2.179007376991e+01
1.436886540202e+01
1.945260903728e+01
1.556216570921e+01
1.405059831614e+01
1.361597712032e+01
2.113024349991e+01
2.164962327524e+01
2.205769783103e+01
1.317426701701e+01
1.840885874590e+01
2.148317004753e+01
2.193254140815e+01
1.664699627129e+01
2.010373252590e+01
1.945453243936e+01
1.195017024812e+01
2.201165622620e+01
1.975317487265e+01
1.505652158556e+01
1.435418858378e+01
2.233835309558e+01
1.865456026777e+01
2.094925842883e+01
1.908125835157e+01
1.986338225903e+01
1.368956693954e+01
2.180209707185e+01
2.161974289762e+01
1.707234480485e+01
2.202037615138e+01
2.221995419146e+01
2.218590085837e+01
2.078930038171e+01
1.342396709835e+01
2.162848302440e+01
2.142102305901e+01
1.850966519291e+01
2.054531025701e+01
2.225434120440e+01
1.510304658999e+01
2.031597242497e+01
1.868659591852e+01
1.787951012583e+01
1.684030579220e+01
2.066862814851e+01
1.713768470158e+01
1.567470525505e+01
2.182011001310e+01
2.207633302458e+01
1.921870694426e+01
-5.696599430581e+01
2.238269953348e+01
2.202745137905e+01
2.113458591653e+01
1.439986181839e+01
2.198683193023e+01
1.866503764459e+01
2.115161253768e+01
1.678052484814e+01
1.845443256399e+01
2.556550476775e+00
9.602210805551e+00
1.827681039138e+01
1.956976402291e+01
2.237410186202e+01
2.155338474545e+01
1.156289469624e+01
9.619962136894e+00
1.330973075991e+01
1.686392827675e+01
2.206054288749e+01
1.942201759584e+01
1.416757112518e+01
1.721715562813e+01
1.908451591571e+01
2.214675662018e+01
1.898564380097e+01
1.390458868266e+01
2.122083364573e+01
2.161202782032e+01
1.736000652797e+01
9.330745921832e+00
2.011037607782e+01
2.151502306055e+01
2.187482994515e+01
1.779154736886e+01
2.226957746195e+01
2.184560695225e+01
2.265419748895e+01
1.909965674270e+01
2.222036686698e+01
1.551279970638e+01
2.263916867750e+01
2.180194518223e+01
1.581791410898e+01
2.158190020954e+01
2.233020674835e+01
1.916104774857e+01
1.625981476908e+01
1.585638014629e+01
1.499671331822e+01
1.749604748409e+01
2.255862791169e+01
1.930935530931e+01
1.577397720548e+01
1.774346594031e+01
1.202308837070e+01
1.855798457197e+01
9.113487841523e+00
2.144720651615e+01
1.781447398453e+01
2.218361566942e+01
1.381844671187e+01
1.681986439958e+01
2.214915317730e+01
2.237004328420e+01
1.791666252862e+01
2.195154142063e+01
1.593223991656e+01
2.253795924868e+01
1.458261926204e+01
1.632425721528e+01
2.040906647009e+01
2.150051278259e+01
2.163485755097e+01
1.377695229488e+01
1.294465706734e+01
2.187640920417e+01
2.210875817134e+01
2.210152541105e+01
6.714177918663e+00
1.941256287343e+01
2.279871509214e+01
2.210687850730e+01
1.975957075360e+01
1.820945353794e+01
1.799952996379e+01
1.777320080026e+01
1.301358179759e+01
1.669026518014e+01
2.188891487334e+01
1.800617747643e+01
1.578378255945e+01
2.157088474591e+01
2.272648486473e+01
1.638576119772e+01
1.757777999479e+01
1.651351836985e+01
1.598860084150e+01
2.171401150403e+01
2.140917114195e+01
2.188391139800e+01
2.213007295585e+01
5.861264717878e+00
2.203629520198e+01
1.572288690308e+01
1.590790822751e+01
2.232650087557e+01
2.283808983568e+01
2.231812216630e+01
1.789855349086e+01
2.223927892415e+01
2.220509830731e+01
1.183597999433e+01
2.193925656649e+01
1.468042826757e+01
9.792967842699e+00
1.756771741052e-02
2.193900131649e+01
2.231074295454e+01
1.824807471619e+01
2.276978978938e+01
2.209329381206e+01
1.487550000814e+01
2.320087421562e+00
2.238463782941e+01
2.244669734977e+01
1.258431166666e+01
2.189418458961e+01
1.643727182955e+01
2.186318777693e+01
2.170360927028e+01
2.240904777689e+01
1.646309435890e+01
2.034594626480e+01
2.153925235066e+01
1.024481596580e+00
1.534143100308e+01
2.112897264972e+01
1.687550791851e+01
2.257657083925e+01
2.234674502370e+01
2.155504344212e+01
5.287295716686e+00
1.731598802234e+01
1.672177375898e+01
-1.838549426082e+00
1.984820236001e+01
1.809481633470e+01
1.456364379107e+01
1.803824294765e+01
1.584393056143e+01
2.156428007946e+01
1.682767066750e+01
1.966924126683e+01
9.858706349273e+00
1.536585831623e+01
1.306409156662e+01
2.270345099053e+01
1.918389363057e+01
-5.366535385921e+00
2.153482181368e+01
2.233159903227e+01
1.520225534534e+01
1.237327580140e+01
2.142463517787e+01
1.226271351575e+01
1.830455415242e+01
2.219580525290e+01
2.214968093357e+01
2.135653419542e+01
1.785869444005e+01
1.617972393431e+01
2.153520037546e+01
1.540214662038e+01
1.824030350743e+01
1.670064871019e+01
1.707423436668e+01
1.491318339386e+01
2.160294912699e+01
1.627331494119e+01
2.213995159560e+01
-1.835120479741e+01
2.119554685018e+01
1.825394675909e+01
1.751336564173e+01
2.170377921263e+01
1.098389407591e+01
2.027692731349e+01
2.220661149308e+01
1.780353861079e+01
1.814818301549e+01
2.205073465902e+01
1.716116794238e+01
2.229111642435e+01
1.886240402547e+01
-8.308783517319e+00
1.858745838526e+01
4.714998938248e-01
3.310181600101e+00
2.264013462096e+01
5.768124481253e+00
2.097900055700e+01
2.119085007655e+01
2.243862931632e+01
1.606502263629e+01
2.274486935459e+01
1.763143042386e+01
1.843960558567e+01
2.179472299635e+01
2.153269982130e+01
2.262067208665e+01
1.712927164572e+01
2.283871134241e+01
2.143512881294e+01
1.676223664505e+01
1.663857091866e+01
2.258106749507e+01
2.256919787950e+01
1.928463665012e+01
1.606657500784e+01
1.512363861711e+01
1.716457138628e+01
1.895392514261e+01
1.744171042305e+01
2.128736499920e+01
1.621915728916e+01
2.217922320178e+01
1.790032369575e+01
2.215595048417e+01
1.726746173960e+01
1.915204530159e+01
1.461930248143e+01
2.203889210661e+01
2.245036419040e+01
2.197502314941e+01
1.997631001677e+01
1.787459300685e+01
1.915843238616e+01
2.273270301898e+01
1.663812539234e+01
2.073619704563e+01
2.042070302618e+01
2.192004573270e+01
2.236248576071e+01
2.194451971420e+01
1.551926238597e+01
2.282648595848e+01
1.567111053291e+01
2.122023486620e+01
1.639003098359e+01
2.028958878077e+01
1.489976032165e+01
1.323236642684e+01
1.685643854085e+01
2.176315347278e+01
2.162166523269e+01
1.575058957076e+01
1.818571390076e+01
1.408125996166e+01
2.119543258018e+01
2.048533171713e+01
1.795787868244e+01
2.127021669711e+01
2.073450732386e+01
2.182757587387e+01
1.622059377290e+01
1.536785301966e+01
2.133313171262e+01
1.638608314816e+01
2.195442667553e+01
2.055480555172e+01
2.207970344539e+01
4.190334937008e+00
1.820738931912e+01
1.400687085438e+01
2.277419581495e+01
2.082019830297e+01
1.570288555226e+01
2.175823779791e+01
2.144793020869e+01
-5.149719804818e-02
2.116250408548e+01
1.861759143504e+01
2.157481241507e+01
1.983387482768e+01
-1.226012175934e+01
2.193561626526e+01
1.887616223931e+01
1.456535735725e+01
2.172112393312e+01
2.257693669030e+01
2.134761848611e+01
2.082531495672e+01
2.220103473908e+01
1.845952324775e+01
-1.313613631175e-01
1.920276247470e+01
2.184397259734e+01
1.919939170382e+01
1.953792253238e+01
1.934777322110e+01
2.164049576976e+01
1.826424603743e+01
2.102469442276e+01
2.160989330751e+01
2.185606637820e+01
1.884489923406e+01
2.123930354698e+01
2.110599261833e+01
1.970636743646e+01
1.525511647089e+01
2.148234634110e+01
2.172045539973e+01
7.931583260337e+00
7.939468552562e+00
1.607081674492e+01
1.936162652757e+01
2.166486037183e+01
1.705743928874e+01
2.131223092296e+01
2.173008499886e+01
2.207837782524e+01
1.917641960681e+01
1.141495671822e+01
2.090880156888e+01
2.199449350207e+01
1.841642161256e+01
2.157338181286e+01
1.900369330140e+01
1.688262343151e+01
1.518427146247e+01
1.756785051658e+01
1.772481705320e+01
4.812110421346e+00
2.163174773309e+01
1.528711141728e+01
1.619768932330e+01
1.650679532011e+01
2.174226895494e+01
1.287345161329e+01
1.342457104405e+01
1.929249240328e+01
2.127163477801e+01
4.096324954514e+00
6.109956669694e+00
1.514755137079e+01
1.095851885186e+01
2.181408849886e+01
2.209876517426e+01
1.453187549122e+01
2.049793558716e+01
1.747850768644e+01
2.132666898819e+01
2.163849896181e+01
-3.133730380273e+00
2.219854544897e+01
1.907029002594e+01
-3.406915711590e+00
1.753708156516e+01
1.120954717110e+01
1.634869606046e+01
1.735571978949e+01
2.235862638402e+01
2.257055312826e+01
1.786173688962e+01
2.244109230470e+01
2.015183593991e+01
1.969181966329e+01
-3.166582707011e+00
9.060021092027e+00
2.008136993476e+01
1.394814085011e+01
2.052758602617e+01
1.956560466617e+01
1.725821538415e+01
1.986745393245e+01
7.478665039033e+00
2.001593114513e+01
2.151682801246e+01
1.981686356280e+01
2.188113093849e+01
2.177352843077e+01
1.818042674027e+01
2.261520247837e+01
1.800063782645e+01
2.212753535977e+01
2.223249209424e+01
2.132783979794e+01
2.089472327617e+01
2.282416663272e+01
2.149394246987e+01
1.692673531567e+01
2.072012659601e+01
1.702205349445e+01
2.166029517072e+01
2.199527270636e+01
2.173119063951e+01
1.457586856691e+01
2.148661099206e+01
2.139920117432e+01
4.301722912224e+00
1.753439152394e+01
2.113937255782e+01
6.646359610792e+00
2.152350449378e+01
-7.270782617107e+00
2.134594248869e+01
2.027771552894e+01
2.117424812250e+01
2.166262936143e+01
1.455661439247e+01
1.389475917997e+01
1.956301684914e+01
-8.995525188503e-01
1.698492714840e+00
2.129737920334e+01
2.227154077750e+01
2.246125713836e+01
2.244632660426e+01
2.286537675682e+01
2.013437393651e+01
-3.636734146442e+00
1.239351258428e+01
7.959488743548e+00
2.186607570447e+01
2.165130010748e+01
2.136318052529e+01
2.123634903187e+01
2.250099910419e+01
2.097617777843e+01
2.115063077752e+01
2.136433564521e+01
1.988844375244e+01
2.046359912989e+01
2.172537909452e+01
2.051135264107e+01
1.754826607330e+01
2.247332779655e+01
1.703042630105e+01
1.922739723473e+01
2.098703369885e+01
2.280723881712e+01
2.189255212765e+01
1.684135798619e+01
-1.667126580166e+01
2.206822204787e+01
-4.454699182947e+00
6.422777044131e+00
2.174100858674e+01
1.868103892982e+01
1.461381389487e+01
-4.857624686648e+00
1.949677508848e+01
-9.751462713441e+00
-3.535190395079e+00
2.277125553843e+01
2.134597810710e+01
8.034068184659e+00
2.182792122950e+01
2.233220077551e+01
1.935098513058e+01
2.197953343343e+01
1.841014198063e+01
9.735372181114e+00
2.158888591461e+01
2.152264454162e+01
1.765507339875e+01
8.966181790926e+00
1.466245777293e+01
2.133035680597e+01
-3.992722711783e+00
-2.292217261912e+01
1.248960289924e+01
2.136130667337e+01
2.183790278724e+01
2.091359499526e+01
2.003824957278e+01
2.167264969294e+01
1.599843983353e+01
2.149033499690e+01
2.243398815236e+01
1.766645383055e+01
1.162228538429e+01
2.155395467330e+01
2.136974550401e+01
2.149906665762e+01
-1.657556075589e-02
2.201143344802e+01
2.145002237668e+01
1.515294528874e+01
1.397692081797e+01
-5.229512839724e+00
2.160544686674e+01
2.053069669361e+01
4.875869770590e+00
2.120812322197e+01
1.125526239507e+01
2.140320592455e+01
2.171671082650e+01
-1.514160883617e+01
2.137282694331e+01
1.651283459318e+01
1.001258302760e+01
2.147505144477e+01
2.234815327296e+01
2.154654975729e+01
-1.439564013335e+01
1.768024871633e+01
2.177715784132e+01
2.192173586494e+01
2.061552685234e+01
2.153888794401e+01
2.144558636541e+01
2.212306525585e+01
1.310319785246e+00
-1.322559460365e+01
2.146679229211e+01
2.195033640862e+01
2.007234030875e+01
1.811438808542e+01
8.140398373081e+00
1.768065199264e+01
2.130226478752e+01
-2.583283997297e+01
1.916851730370e+01
2.049172998605e+01
1.105726029785e+01
2.144818600721e+01
2.006443013138e+01
2.157308326652e+01
2.664600810115e+00
-1.359479763358e+01
1.814353801935e+01
1.539275049643e+01
8.039167422878e+00
2.086075504719e+01
1.439912602723e+01
2.102133238972e+01
1.532920389841e+01
2.106420744343e+01
2.031017690883e+01
2.151775769382e+01
7.048814301571e+00
2.089397092631e+01
1.663418396660e+01
2.114907239331e+01
2.194814522605e+01
1.812501397493e+01
-3.624157530321e+01
2.227574498383e+01
1.675627161897e+01
2.036258611318e+01
1.923570520716e+01
2.052706630021e+01
1.105375368029e+01
1.456408819620e+00
6.388636807231e+00
1.923778033278e+01
2.241406866979e+01
2.176586434948e+01
1.820944896900e+01
1.882279930050e+01
-2.271745156254e+01
1.616086257012e+01
1.972071246214e+01
2.187173915550e+01
-1.555492078287e+00
9.861993912884e+00
2.230226226612e+01
1.764766724876e+01
2.270709733223e+01
3.972891029920e-01
2.236920866022e+01
8.803994862341e+00
2.172517935236e+01
2.268737396452e+01
2.090406721021e+01
1.477480947865e+01
1.869318322728e+01
1.562092553382e+00
2.258165319402e+01
9.646855636611e+00
-2.327179872994e+01
1.825571956884e+01
1.767308137377e+01
-2.301398963146e+01
2.225059040783e+01
1.558630863352e+01
1.688473826064e+01
1.863451051030e+01
2.099686869944e+01
1.869853947377e+01
2.165275217602e+01
7.840241825401e+00
2.084671853553e+01
1.427333050967e+01
2.179563732826e+01
2.137887370099e+01
1.002338360413e+01
1.704537804074e+01
2.257159756681e+01
-5.221645096669e+00
2.163194665005e+01
2.138282073681e+01
1.671686910194e+01
8.634779979018e+00
2.106140063280e+01
1.817565911673e+01
2.121014600069e+01
2.014433071763e+01
1.664902075896e+01
2.175944297023e+01
1.449230515116e+01
-5.777087471327e+00
2.021865165735e+01
1.912471589740e+01
1.230156069265e+01
1.851064295539e+01
1.938391927019e+01
2.235841264134e+01
2.133598778234e+01
2.142732272260e+01
-3.714048032729e+01
1.552889224325e+01
2.125736291642e+01
1.957697486456e+01
2.122858539860e+01
7.545880345105e-01
6.343204281081e+00
1.195267621865e+01
2.145474834812e+01
1.745094884132e+01
2.104191697593e+01
2.085672855627e+01
2.093463296732e+01
2.200953146142e+01
1.000030083054e+01
-3.054901525550e+01
1.688893937358e+00
8.024122369069e+00
2.283251289425e+00
2.137301211456e+01
2.071172810960e+01
2.116659265786e+01
-6.958407562891e+00
1.782206450636e+01
2.077850654065e+01
1.816080403884e+01
1.720534079528e+01
1.907114706836e+01
2.077846370962e+01
1.236656484794e+01
2.094139337110e+01
-3.341647557500e+00
2.158585531390e+01
2.051136742658e+01
-3.007183839002e+00
-5.972387575021e-01
2.167085579838e+01
1.029708249636e+01
1.823684011999e+01
1.823617028301e+01
2.126967010330e+01
1.798947082499e+01
1.261705861399e+01
1.823724188760e+01
1.882637352721e+01
1.562891106584e+01
2.094365865663e+01
7.462451595767e+00
1.044700383829e+01
1.219828017033e+01
1.270689721512e+01
4.765521492760e+00
1.758076481960e+01
1.868768659059e+01
1.417776885484e+01
2.114035376718e+01
1.879562381374e+01
1.715077544326e+01
1.814744396104e+01
2.014571444568e+01
1.962760674536e+01
2.125296777564e+01
-2.438070581028e+01
1.588510933198e+01
2.074937733788e+01
4.735324176369e+00
1.045707519504e+01
2.166903437851e+01
-7.214050688273e+00
-2.339435246940e+01
1.910149919125e+01
7.678479808837e+00
1.857979504475e+01
2.131669537044e+01
7.661338750242e+00
-2.863182260376e+01
1.874307121965e+01
6.456727302412e+00
1.833227219151e+01
2.050208836313e+01
1.860114611275e+01
1.194224084848e+01
1.198425534408e+01
2.016725391399e+01
2.094775691366e+01
2.106508146648e+01
1.664056231546e+01
2.117985379131e+01
-7.115357962776e+00
2.091362825770e+01
1.387615560868e+01
4.786976849633e+00
2.132076151171e+01
1.875851801209e+01
1.881913743072e+01
1.021179010975e+01
1.222253662089e+01
5.918644191066e+00
1.928921318445e+01
1.878714426946e+01
-4.641293973897e+00
2.130953847437e+01
7.735435631518e+00
1.847890800513e+01
1.904435726100e+01
1.917433592176e+01
-6.530934452109e+01
-5.337543250996e+01
8.269972491495e+00
7.867529306010e+00
2.049474722269e+01
2.072442828451e+01
-2.443329379070e+01
-3.791489252373e+01
2.095919752960e+01
2.068116987784e+01
9.069301838939e+00
2.099082155434e+01
2.127054347718e+01
2.102327880719e+01
1.487681789707e+01
7.362451314106e+00
2.097940213403e+01
4.413627585209e+00
2.059618764410e+01
1.906699210650e+01
1.801361312460e+01
2.087843874145e+01
1.348790972457e+01
2.012376312776e+01
1.840273405587e+01
1.782679233398e+01
7.793693705328e+00
2.133875183259e+01
1.852730038884e+01
1.630082600385e+01
-2.241321390739e+01
1.962582638526e+01
2.196635137818e+01
3.258175062580e+00
1.567334489892e+01
2.072274926571e+01
2.029165129755e+01
2.037637558405e+01
2.134525893127e+01
-2.496077657214e+01
6.285023395980e-01
9.282944921906e+00
1.186745361459e+01
2.134986048920e+01
1.836813013957e+01
2.105024020805e+01
-6.266698011703e+00
-6.640796618014e+00
1.983017807869e+00
1.595656239784e+01
1.820148925367e+01
1.841700907331e+01
8.468322033863e+00
2.141133738091e+01
1.194367557190e+01
2.077850473385e+01
2.070719448277e+01
1.185581140184e+01
2.127871804470e+01
1.877586714950e+01
1.868641683583e+01
1.552731273880e+00
1.820362363025e+01
2.016106522885e+01
2.156148157502e+01
2.106063861291e+01
2.051844580256e+01
1.778061148087e+01
-3.446518727936e+01
-2.988177324777e-01
1.858298737872e+01
1.324105505074e+01
2.094848897376e+01
2.071466026455e+01
2.074653570952e+01
1.685478826794e+01
2.083468477482e+01
2.120312751998e+01
2.132648630002e+01
1.847775505013e+01
2.082914506151e+01
9.990844203821e+00
1.820555177271e+01
-5.828200557096e+00
1.773591741858e+01
1.573257311891e+01
-3.738278282274e+00
8.214759133514e+00
1.826342397482e+01
1.876003049444e+01
1.831152070211e+01
2.126500127345e+01
1.339248972249e+01
-2.268965306447e+01
-1.186257062721e+01
-1.744374568154e+01
1.239498545926e+00
-2.614898054571e+01
2.042827354337e+01
2.098273469554e+01
1.861901446695e+01
1.318023287507e+01
1.982813999230e+01
2.123128853629e+01
2.168481479299e+01
2.108364688281e+01
1.991914225740e+01
1.878730693227e+01
-6.088031814010e+00
-1.208037842932e+01
2.102506014047e+01
-3.562819377611e+00
9.473024780531e-01
-1.210131405325e+01
-7.552425980609e+00
2.088396462464e+01
1.975258870558e+01
1.840474805441e+01
2.078561665630e+01
2.160624921093e+01
1.422171114649e+01
1.933850632959e+01
1.310454326474e+01
7.551180820632e+00
1.480827294181e+00
-2.291457337718e+01
2.079744762944e+01
1.028919012597e+01
3.735522570010e+00
2.042315198190e+01
1.946745087301e+01
1.828812476365e+01
1.894440931294e+01
1.756205900226e+01
-1.164122175704e+01
2.107316858262e+01
1.906955059415e+01
2.079541835343e+01
1.008488081963e+01
2.124871832081e+01
4.663507018577e+00
1.847266971765e+01
-2.476385414242e+01
2.093879439269e+01
1.883409477895e+01
-2.680707168960e+01
2.032425414766e+01
1.642570008557e+01
1.879181089126e+01
2.073649589543e+01
1.514440394579e+01
1.964621876739e+01
1.845122766548e+01
1.578634895278e+01
1.919726124675e+01
1.916015919542e+01
7.774310969858e+00
2.092817042138e+01
1.879074347078e+01
-5.924005194905e+01
7.887603917400e+00
2.075365275552e+01
9.240732989690e+00
2.173364597941e+01
1.844249254916e+01
1.867940082474e+01
8.437555948567e+00
-5.017179810785e+00
2.119852235749e+01
1.734145363044e+01
-2.593757190309e+01
1.889938220728e+01
1.480361355492e+01
6.947775779099e+00
1.384909487438e+01
2.083525552281e+01
2.122775154607e+01
-2.259070181225e+01
1.882638748595e+01
2.089671929187e+01
2.122375684749e+01
2.106443555841e+01
2.079380831778e+01
2.092712194307e+01
-8.481360656229e+00
2.112068241781e+01
1.971729147007e+01
2.485744391055e+00
1.878169773143e+01
2.071151639110e+01
1.021930009571e+01
1.477577618890e+01
2.071431750585e+01
2.075264040062e+01
2.101874809313e+01
2.169423385335e+01
2.933428338948e+00
1.970932791628e+01
1.215906327286e+01
1.872247061764e+01
2.149258119508e+01
1.380912154693e+01
1.888794613424e+01
2.116713477886e+01
2.118802160678e+01
-2.162587844629e+01
1.887406801186e+01
1.921149330254e+01
-7.907850732661e+00
2.048165360503e+01
-2.499341280392e+01
1.907111891290e+01
-4.372320254736e+01
-4.637412357164e+01
-4.583240974531e+01
-4.647717627630e+01
-4.614802580345e+01
-4.655897743209e+01
-4.643303625585e+01
-4.694422964768e+01
-4.674709877705e+01
-4.757483016558e+01
-4.713878087635e+01
-4.842860385566e+01
-4.761789810824e+01
-4.948075477226e+01
-4.814410244353e+01
-5.072363186632e+01
-3.925709394448e+01
-4.870527410681e+01
-5.216027455244e+01
8.999999999514e+01
-4.936583674845e+01
-5.370433930053e+01
-3.525792825977e+01
-5.002408097930e+01
-5.502414999696e+01
-5.059601835006e+01
-5.579837751980e+01
-5.102134731336e+01
-5.627546365418e+01
-2.138067127397e+01
-5.106048044481e+01
-5.643601690975e+01
-5.099848119217e+01
-5.684294211288e+01
-5.651820154483e+01
-4.983089923972e+01
-5.708260414794e+01
-4.806447991625e+01
-5.372245169628e+01
-4.369115749254e+01
-3.815029372349e+01
-4.191169212662e+01
-4.273751363146e+01
-4.779725416776e+01
-4.017759456599e+01
-2.223958972812e+01
-2.043611501621e+01
-1.850366166083e+01
-1.850019397180e+01
-1.835740959997e+01
-1.842426384665e+01
-1.829423172739e+01
-1.837494812579e+01
-1.824833228628e+01
-1.836099819504e+01
-1.820264786626e+01
-1.834212095418e+01
-1.814564170796e+01
-1.830906988273e+01
-1.810256621929e+01
-1.828720773980e+01
-1.336039957066e+01
-1.807075850667e+01
-1.687686384682e+01
-1.830177502725e+01
-1.801291219154e+01
-1.824490452790e+01
-1.795637090428e+01
-1.817685626472e+01
-1.792365197598e+01
-2.136827155917e+01
-1.813303475177e+01
-1.791761868901e+01
-1.808247596077e+01
-1.798120058556e+01
-1.809212036821e+01
-1.795581388437e+01
-1.778439614565e+01
-1.808796950197e+01
-1.788950157873e+01
-1.763122324539e+01
-1.205598302689e+01
-1.641727674273e+01
-2.221395612460e+01
-1.735066059018e+01
-1.987997552292e+01
-1.364978650731e+01
-2.556323980185e+01
-1.636353499664e+01
-2.472167687073e+00
-3.420258211076e+00
-3.446702250932e+00
-3.538690244320e+00
-3.523927835159e+00
-3.501838536143e+00
-3.497014396411e+00
-3.530249157144e+00
-3.517608219919e+00
-3.519320132634e+00
-3.518713993140e+00
-3.523670680859e+00
-3.529159867707e+00
-2.028523564429e+00
-3.487406883732e+00
-3.543750482380e+00
-5.566698304108e+00
-3.563608817764e+00
-3.605089068725e+00
-3.671035051374e+00
-3.536561769938e+00
-3.617857319353e+00
-3.491989685097e+00
-3.648682028609e+00
-3.507590179279e+00
-2.124249767199e+00
-3.716250925805e+00
-3.504426683322e+00
-3.454929544668e+00
-3.780110968905e+00
-3.579082994183e+00
-3.874122699610e+00
-2.966987250054e+00
-3.878173233184e+00
-7.146201052812e+00
-3.681116255932e+00
-2.317145560989e+00
-5.880540544506e+00
-8.139488279029e-01
-5.021209105404e+00
3.620427063684e+00
3.901038385255e+00
3.901604179796e+00
3.927241123298e+00
3.914293052726e+00
3.950013404502e+00
3.957373681670e+00
3.876086251580e+00
3.869560920412e+00
3.872289402183e+00
3.892929181889e+00
3.830110906036e+00
4.275333491017e+00
3.847694574792e+00
3.416253104007e+00
3.770922695565e+00
3.841796758880e+00
3.721588480673e+00
3.752707926749e+00
3.673951402438e+00
3.776063144566e+00
3.615843108142e+00
2.334626701143e+00
3.762464090983e+00
3.523711708898e+00
3.685688159881e+00
3.434014742832e+00
3.386223300349e+00
3.677029085142e+00
3.763884529242e+00
4.107952223081e+00
1.439444282332e+00
4.097408926991e+00
3.593995911121e+00
5.200252263533e+00
2.265950089518e+00
2.244012352907e+00


