# vtk DataFile Version 2.0
Calculation  at time 8.000000000000e+00 
ASCII
DATASET UNSTRUCTURED_GRID
Field FieldData 1
Time 1 1 double
8.000000000000e+00

POINTS 1089 float
0.0 0.0 0.0 
5.000000000000e+01 -1.000000000000e+01 0.0 
0.0 -2.000000000000e+01 0.0 
5.000000000000e+01 -2.000000000000e+01 0.0 
0.0 -9.999999999991e-01 0.0 
0.0 -1.999999999998e+00 0.0 
0.0 -2.999999999997e+00 0.0 
0.0 -3.999999999994e+00 0.0 
0.0 -4.999999999991e+00 0.0 
0.0 -5.999999999988e+00 0.0 
0.0 -6.999999999985e+00 0.0 
0.0 -7.999999999982e+00 0.0 
0.0 -8.999999999983e+00 0.0 
0.0 -9.999999999985e+00 0.0 
0.0 -1.099999999999e+01 0.0 
0.0 -1.199999999999e+01 0.0 
0.0 -1.299999999999e+01 0.0 
0.0 -1.399999999999e+01 0.0 
0.0 -1.499999999999e+01 0.0 
0.0 -1.599999999999e+01 0.0 
0.0 -1.700000000000e+01 0.0 
0.0 -1.800000000000e+01 0.0 
0.0 -1.900000000000e+01 0.0 
4.900000000001e+01 -2.000000000000e+01 0.0 
4.800000000001e+01 -2.000000000000e+01 0.0 
4.700000000002e+01 -2.000000000000e+01 0.0 
4.600000000003e+01 -2.000000000000e+01 0.0 
4.500000000004e+01 -2.000000000000e+01 0.0 
4.400000000004e+01 -2.000000000000e+01 0.0 
4.300000000005e+01 -2.000000000000e+01 0.0 
4.200000000006e+01 -2.000000000000e+01 0.0 
4.100000000006e+01 -2.000000000000e+01 0.0 
4.000000000007e+01 -2.000000000000e+01 0.0 
3.900000000008e+01 -2.000000000000e+01 0.0 
3.800000000009e+01 -2.000000000000e+01 0.0 
3.700000000009e+01 -2.000000000000e+01 0.0 
3.600000000010e+01 -2.000000000000e+01 0.0 
3.500000000011e+01 -2.000000000000e+01 0.0 
3.400000000011e+01 -2.000000000000e+01 0.0 
3.300000000012e+01 -2.000000000000e+01 0.0 
3.200000000013e+01 -2.000000000000e+01 0.0 
3.100000000013e+01 -2.000000000000e+01 0.0 
3.000000000013e+01 -2.000000000000e+01 0.0 
2.900000000013e+01 -2.000000000000e+01 0.0 
2.800000000013e+01 -2.000000000000e+01 0.0 
2.700000000013e+01 -2.000000000000e+01 0.0 
2.600000000013e+01 -2.000000000000e+01 0.0 
2.500000000013e+01 -2.000000000000e+01 0.0 
2.400000000013e+01 -2.000000000000e+01 0.0 
2.300000000013e+01 -2.000000000000e+01 0.0 
2.200000000013e+01 -2.000000000000e+01 0.0 
2.100000000013e+01 -2.000000000000e+01 0.0 
2.000000000013e+01 -2.000000000000e+01 0.0 
1.900000000013e+01 -2.000000000000e+01 0.0 
1.800000000013e+01 -2.000000000000e+01 0.0 
1.700000000012e+01 -2.000000000000e+01 0.0 
1.600000000011e+01 -2.000000000000e+01 0.0 
1.500000000011e+01 -2.000000000000e+01 0.0 
1.400000000010e+01 -2.000000000000e+01 0.0 
1.300000000009e+01 -2.000000000000e+01 0.0 
1.200000000009e+01 -2.000000000000e+01 0.0 
1.100000000008e+01 -2.000000000000e+01 0.0 
1.000000000007e+01 -2.000000000000e+01 0.0 
9.000000000064e+00 -2.000000000000e+01 0.0 
8.000000000057e+00 -2.000000000000e+01 0.0 
7.000000000050e+00 -2.000000000000e+01 0.0 
6.000000000043e+00 -2.000000000000e+01 0.0 
5.000000000036e+00 -2.000000000000e+01 0.0 
4.000000000028e+00 -2.000000000000e+01 0.0 
3.000000000021e+00 -2.000000000000e+01 0.0 
2.000000000014e+00 -2.000000000000e+01 0.0 
1.000000000007e+00 -2.000000000000e+01 0.0 
5.000000000000e+01 -1.100000000000e+01 0.0 
5.000000000000e+01 -1.200000000000e+01 0.0 
5.000000000000e+01 -1.300000000000e+01 0.0 
5.000000000000e+01 -1.400000000000e+01 0.0 
5.000000000000e+01 -1.500000000000e+01 0.0 
5.000000000000e+01 -1.600000000000e+01 0.0 
5.000000000000e+01 -1.700000000000e+01 0.0 
5.000000000000e+01 -1.800000000000e+01 0.0 
5.000000000000e+01 -1.900000000000e+01 0.0 
2.000000000000e+01 0.0 0.0 
3.500000000000e+01 -1.000000000000e+01 0.0 
2.150000000000e+01 -1.000000000000e+00 0.0 
2.300000000000e+01 -2.000000000000e+00 0.0 
2.450000000000e+01 -3.000000000000e+00 0.0 
2.600000000000e+01 -4.000000000000e+00 0.0 
2.750000000000e+01 -5.000000000000e+00 0.0 
2.900000000000e+01 -6.000000000000e+00 0.0 
3.050000000000e+01 -7.000000000000e+00 0.0 
3.200000000000e+01 -8.000000000000e+00 0.0 
3.350000000000e+01 -9.000000000000e+00 0.0 
5.000000000000e+01 -7.000000000000e+00 0.0 
5.000000000000e+01 -8.000000000000e+00 0.0 
5.000000000000e+01 -9.000000000000e+00 0.0 
4.900000000000e+01 -1.000000000000e+01 0.0 
4.800000000000e+01 -1.000000000000e+01 0.0 
4.700000000000e+01 -1.000000000000e+01 0.0 
4.600000000000e+01 -1.000000000000e+01 0.0 
4.500000000000e+01 -1.000000000000e+01 0.0 
4.400000000000e+01 -1.000000000000e+01 0.0 
4.300000000000e+01 -1.000000000000e+01 0.0 
4.200000000000e+01 -1.000000000000e+01 0.0 
4.100000000000e+01 -1.000000000000e+01 0.0 
4.000000000000e+01 -1.000000000000e+01 0.0 
3.900000000000e+01 -1.000000000000e+01 0.0 
3.800000000000e+01 -1.000000000000e+01 0.0 
3.700000000000e+01 -1.000000000000e+01 0.0 
3.600000000000e+01 -1.000000000000e+01 0.0 
1.900000000000e+01 0.0 0.0 
1.800000000000e+01 0.0 0.0 
1.700000000000e+01 0.0 0.0 
1.600000000000e+01 0.0 0.0 
1.500000000000e+01 0.0 0.0 
1.400000000000e+01 0.0 0.0 
1.300000000000e+01 0.0 0.0 
1.200000000000e+01 0.0 0.0 
1.100000000000e+01 0.0 0.0 
1.000000000000e+01 0.0 0.0 
9.000000000000e+00 0.0 0.0 
8.000000000000e+00 0.0 0.0 
7.000000000000e+00 0.0 0.0 
6.000000000000e+00 0.0 0.0 
5.000000000000e+00 0.0 0.0 
4.000000000000e+00 0.0 0.0 
3.000000000000e+00 0.0 0.0 
2.000000000000e+00 0.0 0.0 
1.000000000000e+00 0.0 0.0 
3.147499999998e+01 -7.000000000000e+00 0.0 
3.244999999998e+01 -7.000000000000e+00 0.0 
3.342499999998e+01 -7.000000000000e+00 0.0 
3.439999999998e+01 -7.000000000000e+00 0.0 
3.537499999998e+01 -7.000000000000e+00 0.0 
3.634999999998e+01 -7.000000000000e+00 0.0 
3.732499999998e+01 -7.000000000000e+00 0.0 
3.829999999998e+01 -7.000000000000e+00 0.0 
3.927499999999e+01 -7.000000000000e+00 0.0 
4.024999999999e+01 -7.000000000000e+00 0.0 
4.122499999999e+01 -7.000000000000e+00 0.0 
4.219999999999e+01 -7.000000000000e+00 0.0 
4.317499999999e+01 -7.000000000000e+00 0.0 
4.414999999999e+01 -7.000000000000e+00 0.0 
4.512499999999e+01 -7.000000000000e+00 0.0 
4.609999999999e+01 -7.000000000000e+00 0.0 
4.707500000000e+01 -7.000000000000e+00 0.0 
4.805000000000e+01 -7.000000000000e+00 0.0 
4.902500000000e+01 -7.000000000000e+00 0.0 
4.900000000000e+01 -8.000000000000e+00 0.0 
4.800000000000e+01 -8.000000000000e+00 0.0 
4.700000000000e+01 -8.000000000000e+00 0.0 
4.600000000000e+01 -8.000000000000e+00 0.0 
4.500000000000e+01 -8.000000000000e+00 0.0 
4.400000000000e+01 -8.000000000000e+00 0.0 
4.300000000000e+01 -8.000000000000e+00 0.0 
4.200000000000e+01 -8.000000000000e+00 0.0 
4.100000000000e+01 -8.000000000000e+00 0.0 
4.000000000000e+01 -8.000000000000e+00 0.0 
3.900000000000e+01 -8.000000000000e+00 0.0 
3.800000000000e+01 -8.000000000000e+00 0.0 
3.700000000000e+01 -8.000000000000e+00 0.0 
3.600000000000e+01 -8.000000000000e+00 0.0 
3.500000000000e+01 -8.000000000000e+00 0.0 
3.400000000000e+01 -8.000000000000e+00 0.0 
3.300000000000e+01 -8.000000000000e+00 0.0 
3.447058823527e+01 -9.000000000000e+00 0.0 
3.544117647055e+01 -9.000000000000e+00 0.0 
3.641176470582e+01 -9.000000000000e+00 0.0 
3.738235294109e+01 -9.000000000000e+00 0.0 
3.835294117637e+01 -9.000000000000e+00 0.0 
3.932352941164e+01 -9.000000000000e+00 0.0 
4.029411764691e+01 -9.000000000000e+00 0.0 
4.126470588219e+01 -9.000000000000e+00 0.0 
4.223529411748e+01 -9.000000000000e+00 0.0 
4.320588235279e+01 -9.000000000000e+00 0.0 
4.417647058811e+01 -9.000000000000e+00 0.0 
4.514705882342e+01 -9.000000000000e+00 0.0 
4.611764705874e+01 -9.000000000000e+00 0.0 
4.708823529405e+01 -9.000000000000e+00 0.0 
4.805882352937e+01 -9.000000000000e+00 0.0 
4.902941176468e+01 -9.000000000000e+00 0.0 
2.075000000000e+01 -5.000000000006e-01 0.0 
2.225000000000e+01 -1.500000000000e+00 0.0 
2.375000000000e+01 -2.500000000000e+00 0.0 
2.525000000000e+01 -3.500000000000e+00 0.0 
2.675000000000e+01 -4.500000000000e+00 0.0 
2.825000000000e+01 -5.500000000000e+00 0.0 
2.975000000000e+01 -6.500000000000e+00 0.0 
3.125000000000e+01 -7.500000000000e+00 0.0 
3.275000000000e+01 -8.500000000000e+00 0.0 
3.425000000000e+01 -9.500000000000e+00 0.0 
2.226951693683e+01 -2.403913980114e+00 0.0 
1.650149491944e+01 -1.913490915758e+01 0.0 
1.050042386896e+01 -8.504605092970e-01 0.0 
1.553146524712e+01 -8.281255032105e-01 0.0 
1.150000000008e+01 -1.913397459621e+01 0.0 
2.530060260647e+01 -4.428336431260e+00 0.0 
8.651114563942e-01 -1.052096295641e+01 0.0 
2.050000000013e+01 -1.913397459622e+01 0.0 
2.819198729811e+01 -6.399519052838e+00 0.0 
2.445670302931e+01 -1.915649188023e+01 0.0 
3.117591465718e+01 -8.394293040695e+00 0.0 
7.465053044742e+00 -1.920411160581e+01 0.0 
6.398295709691e+00 -8.230098819370e-01 0.0 
2.849659607461e+01 -1.914296187762e+01 0.0 
3.418732642882e+01 -1.040265792588e+01 0.0 
8.386450935063e-01 -6.533605142809e+00 0.0 
9.178661865596e-01 -1.329769195597e+01 0.0 
3.149448624493e+01 -1.910466733764e+01 0.0 
3.552916747426e+01 -1.914628590759e+01 0.0 
4.449210346537e+01 -1.914359085008e+01 0.0 
4.140975975145e+01 -1.906941860733e+01 0.0 
3.847475958753e+01 -1.916622382724e+01 0.0 
3.653774794640e+01 -1.088712800241e+01 0.0 
4.047886341787e+01 -1.090139014048e+01 0.0 
4.348006339825e+01 -1.092792621489e+01 0.0 
4.919519968029e+01 -1.451526755068e+01 0.0 
4.500000000032e+00 -1.913397459621e+01 0.0 
1.856136921614e+01 -8.212235170404e-01 0.0 
3.499895312306e+00 -8.661165539723e-01 0.0 
9.076088696565e-01 -1.642306201891e+01 0.0 
4.655174095477e+01 -1.086183387525e+01 0.0 
9.430688970604e-01 -3.496112672958e+00 0.0 
3.353992337063e+01 -1.901202090820e+01 0.0 
2.249746016977e+01 -1.921262287282e+01 0.0 
2.650122741777e+01 -1.916123026018e+01 0.0 
1.863571384842e+01 -1.908325534840e+01 0.0 
1.450089971693e+01 -1.917691901860e+01 0.0 
1.350044695317e+01 -8.659695299584e-01 0.0 
3.849987469880e+01 -1.084154983397e+01 0.0 
9.454419857884e+00 -1.900818879936e+01 0.0 
4.917398660523e+01 -1.645692866081e+01 0.0 
8.500000000000e+00 -8.660254037844e-01 0.0 
8.660319230785e-01 -8.500111697188e+00 0.0 
4.649022621545e+01 -1.930506220113e+01 0.0 
2.667688107845e+01 -5.420288124331e+00 0.0 
2.379251615665e+01 -3.412225477429e+00 0.0 
2.966631491830e+01 -7.389030232731e+00 0.0 
3.267915035995e+01 -9.396934932445e+00 0.0 
2.074836922338e+01 -1.320054020319e+00 0.0 
4.915985743621e+01 -1.261973384855e+01 0.0 
2.527129768623e+00 -1.931592414663e+01 0.0 
1.538676247410e+00 -8.436956619311e-01 0.0 
4.908096641539e+01 -1.842484004551e+01 0.0 
3.478612492673e+01 -1.090889364140e+01 0.0 
3.409757055860e+01 -1.131991530427e+01 0.0 
3.501895309466e+01 -1.177687842717e+01 0.0 
3.407758073088e+01 -1.224293381580e+01 0.0 
3.484541875390e+01 -1.277051428430e+01 0.0 
3.400322025842e+01 -1.319022775640e+01 0.0 
3.321672625034e+01 -1.266779191233e+01 0.0 
3.315244139236e+01 -1.360984106532e+01 0.0 
3.236335186892e+01 -1.308463225210e+01 0.0 
3.478337442841e+01 -1.372341158982e+01 0.0 
3.230105923633e+01 -1.403023731610e+01 0.0 
3.150954055289e+01 -1.350301767700e+01 0.0 
3.144604792090e+01 -1.444931742516e+01 0.0 
3.065653897123e+01 -1.392357262981e+01 0.0 
3.071897610812e+01 -1.297447031198e+01 0.0 
2.986790411740e+01 -1.339226181535e+01 0.0 
2.993181466745e+01 -1.244703272398e+01 0.0 
2.908023061869e+01 -1.286254537734e+01 0.0 
2.901619051372e+01 -1.380881655279e+01 0.0 
2.822986160390e+01 -1.327695262116e+01 0.0 
2.829453476870e+01 -1.233265343811e+01 0.0 
2.744542905518e+01 -1.274510491105e+01 0.0 
2.751120089246e+01 -1.180368086886e+01 0.0 
2.666218649885e+01 -1.221619339205e+01 0.0 
2.672371209234e+01 -1.127125228527e+01 0.0 
2.587763216302e+01 -1.168539979114e+01 0.0 
2.581165585299e+01 -1.262994410089e+01 0.0 
2.502890882577e+01 -1.209827323619e+01 0.0 
2.509631327757e+01 -1.115492410304e+01 0.0 
2.424662989877e+01 -1.156630981079e+01 0.0 
2.431704046904e+01 -1.062389179334e+01 0.0 
2.346445438728e+01 -1.103427680694e+01 0.0 
2.339382552877e+01 -1.197964871788e+01 0.0 
2.260936050780e+01 -1.144513277642e+01 0.0 
2.268075012022e+01 -1.049911928216e+01 0.0 
2.182525737661e+01 -1.090920811464e+01 0.0 
2.189682319817e+01 -9.961716944568e+00 0.0 
2.104174127792e+01 -1.037266986667e+01 0.0 
2.111304367575e+01 -9.424179358711e+00 0.0 
2.025306185381e+01 -9.832727364719e+00 0.0 
2.018141124247e+01 -1.079140628871e+01 0.0 
1.938594498257e+01 -1.025147354112e+01 0.0 
1.946106490453e+01 -9.288010758448e+00 0.0 
1.858929958352e+01 -9.706319802516e+00 0.0 
1.851540991219e+01 -1.067205988724e+01 0.0 
1.771485303178e+01 -1.012504443115e+01 0.0 
1.764134552256e+01 -1.109360378538e+01 0.0 
1.683745148095e+01 -1.054496365337e+01 0.0 
1.691852964353e+01 -9.582555261178e+00 0.0 
1.603603813062e+01 -1.000160132379e+01 0.0 
1.595824239350e+01 -1.096750698862e+01 0.0 
1.515080624291e+01 -1.041639501931e+01 0.0 
1.523171602559e+01 -9.451711491453e+00 0.0 
1.434621060709e+01 -9.871956467464e+00 0.0 
1.426777178765e+01 -1.083749501371e+01 0.0 
1.345775282374e+01 -1.028803175500e+01 0.0 
1.354103873368e+01 -9.324918457162e+00 0.0 
1.265072018622e+01 -9.742612837270e+00 0.0 
1.257285762070e+01 -1.071557782384e+01 0.0 
1.175874815690e+01 -1.015972324288e+01 0.0 
1.184203019714e+01 -9.193604071377e+00 0.0 
1.094927709905e+01 -9.612103238656e+00 0.0 
1.086938022910e+01 -1.058685085646e+01 0.0 
1.005424098961e+01 -1.002939116380e+01 0.0 
9.977974613295e+00 -1.101324897989e+01 0.0 
1.012915646404e+01 -9.051815821181e+00 0.0 
9.237127782494e+00 -9.471239055559e+00 0.0 
9.308426593771e+00 -8.483376461131e+00 0.0 
8.418806073345e+00 -8.910712374517e+00 0.0 
2.253688464062e+01 -1.239459402279e+01 0.0 
8.495126726666e+00 -7.921646665254e+00 0.0 
9.389727383206e+00 -7.512103628377e+00 0.0 
7.601560812974e+00 -8.349460349344e+00 0.0 
7.525680547759e+00 -9.339736686940e+00 0.0 
7.677888324502e+00 -7.359727833346e+00 0.0 
6.782001206724e+00 -7.788454494773e+00 0.0 
6.858778622885e+00 -6.797338062822e+00 0.0 
2.196596590865e+01 -8.979025665442e+00 0.0 
2.816540108272e+01 -1.422634142353e+01 0.0 
5.961601194403e+00 -7.226824010712e+00 0.0 
6.038171749656e+00 -6.234825887079e+00 0.0 
6.936257279557e+00 -5.805287640737e+00 0.0 
6.115068918323e+00 -5.242109758768e+00 0.0 
3.564391741903e+01 -1.329240553876e+01 0.0 
3.558115605778e+01 -1.425902892003e+01 0.0 
3.645445282201e+01 -1.381970786460e+01 0.0 
3.639744204358e+01 -1.479198128612e+01 0.0 
3.727266909778e+01 -1.435399586226e+01 0.0 
5.216667013081e+00 -5.671788584287e+00 0.0 
3.220697293295e+01 -1.499594545107e+01 0.0 
3.551112158269e+01 -1.523479869250e+01 0.0 
2.836056961467e+01 -1.139032434851e+01 0.0 
2.516730388602e+01 -1.021382726837e+01 0.0 
1.844436907403e+01 -1.164097215196e+01 0.0 
5.885434318740e+00 -8.218694781467e+00 0.0 
5.064071066867e+00 -7.656614643901e+00 0.0 
4.988089103470e+00 -8.649722082718e+00 0.0 
1.079421050408e+01 -1.157014985435e+01 0.0 
9.902420005256e+00 -1.199903342656e+01 0.0 
1.071994252214e+01 -1.255727909771e+01 0.0 
9.826974788171e+00 -1.298659581767e+01 0.0 
1.064607883789e+01 -1.354595476388e+01 0.0 
9.751541265343e+00 -1.397556905071e+01 0.0 
8.932296185869e+00 -1.341553353988e+01 0.0 
8.856399248106e+00 -1.440570715508e+01 0.0 
8.036186803543e+00 -1.384470558472e+01 0.0 
1.057112875118e+01 -1.453516759081e+01 0.0 
1.146582585687e+01 -1.410539926903e+01 0.0 
7.959894480382e+00 -1.483563350928e+01 0.0 
7.138792279156e+00 -1.427465094140e+01 0.0 
7.062506792418e+00 -1.526615385482e+01 0.0 
6.240693558277e+00 -1.470508863040e+01 0.0 
6.316957575451e+00 -1.371212581281e+01 0.0 
5.418183007107e+00 -1.414253605022e+01 0.0 
5.494748364428e+00 -1.314886770603e+01 0.0 
1.756825565873e+01 -1.206433872514e+01 0.0 
1.837565773345e+01 -1.261356468266e+01 0.0 
1.749574831391e+01 -1.303769280014e+01 0.0 
1.830539187332e+01 -1.358828364284e+01 0.0 
1.742278925170e+01 -1.401367746928e+01 0.0 
1.823303007798e+01 -1.456432294258e+01 0.0 
1.734941694138e+01 -1.499213734361e+01 0.0 
1.653760041637e+01 -1.443920312098e+01 0.0 
3.056237977307e+01 -1.487132260174e+01 0.0 
1.866469084762e+01 -8.742953000418e+00 0.0 
1.953669694916e+01 -8.326038909849e+00 0.0 
1.874194303780e+01 -7.780688158966e+00 0.0 
1.961032016741e+01 -7.366854697285e+00 0.0 
1.881715755159e+01 -6.821102209649e+00 0.0 
1.968369797150e+01 -6.407747217358e+00 0.0 
1.889237123259e+01 -5.858375520026e+00 0.0 
1.802038875366e+01 -6.276202618170e+00 0.0 
1.809793837984e+01 -5.307629520489e+00 0.0 
1.721985207997e+01 -5.728242054488e+00 0.0 
1.729850893523e+01 -4.756990819347e+00 0.0 
1.641745664240e+01 -5.174636548624e+00 0.0 
2.495978509456e+01 -1.304406404294e+01 0.0 
1.911567814831e+01 -1.413854250293e+01 0.0 
1.904387332608e+01 -1.511463127723e+01 0.0 
1.992115934240e+01 -1.468788025898e+01 0.0 
7.013706899628e+00 -4.812582868662e+00 0.0 
5.342091874585e+00 -1.513658157269e+01 0.0 
1.139098043784e+01 -1.509488509480e+01 0.0 
1.228151810610e+01 -1.465617481983e+01 0.0 
1.646373110164e+01 -1.541993323337e+01 0.0 
5.293328636712e+00 -4.678385108584e+00 0.0 
1.975965862987e+01 -5.448124345648e+00 0.0 
2.054318374236e+01 -5.992561293251e+00 0.0 
3.721453439063e+01 -1.533216152738e+01 0.0 
3.809302733893e+01 -1.489235527381e+01 0.0 
1.220852788900e+01 -1.565304565230e+01 0.0 
4.394120899730e+00 -5.108397613210e+00 0.0 
8.779354620288e+00 -1.539524721159e+01 0.0 
1.817791047702e+01 -4.338570146253e+00 0.0 
4.518860013839e+00 -1.457343189307e+01 0.0 
4.442712140414e+00 -1.556841391069e+01 0.0 
8.115343466391e+00 -1.285760324283e+01 0.0 
1.985334703171e+01 -1.566478400426e+01 0.0 
2.071953850276e+01 -1.522074243119e+01 0.0 
1.634012953883e+01 -6.154777738301e+00 0.0 
1.553479994708e+01 -5.593730508879e+00 0.0 
1.561265946942e+01 -4.617761762647e+00 0.0 
1.470674212978e+01 -5.064576488228e+00 0.0 
1.464498299883e+01 -6.026514471420e+00 0.0 
1.383271561817e+01 -5.467796261169e+00 0.0 
1.389241253067e+01 -4.504338666645e+00 0.0 
1.301868735463e+01 -4.907185188626e+00 0.0 
1.294514184846e+01 -5.888160903592e+00 0.0 
1.212955968622e+01 -5.328262335277e+00 0.0 
1.220721122383e+01 -4.341264976687e+00 0.0 
1.131324345897e+01 -4.766773516508e+00 0.0 
5.266597955397e+00 -1.613148974258e+01 0.0 
1.737805990867e+01 -3.786677807525e+00 0.0 
3.078438094513e+01 -1.203225297748e+01 0.0 
1.131569882285e+01 -1.608511932110e+01 0.0 
1.728478341782e+01 -1.596017432313e+01 0.0 
3.803465906019e+01 -1.587509751228e+01 0.0 
3.891681276677e+01 -1.543395196905e+01 0.0 
3.897340985302e+01 -1.444710288980e+01 0.0 
3.980095968193e+01 -1.499059496613e+01 0.0 
3.974334598189e+01 -1.597921884150e+01 0.0 
4.062964983717e+01 -1.553518690417e+01 0.0 
4.068729602479e+01 -1.454434445295e+01 0.0 
4.151772679790e+01 -1.508974196007e+01 0.0 
4.157505195739e+01 -1.409694289912e+01 0.0 
4.240699932656e+01 -1.464347955968e+01 0.0 
4.234898051011e+01 -1.563721375790e+01 0.0 
4.323934606035e+01 -1.519082036405e+01 0.0 
4.329740528208e+01 -1.419587509788e+01 0.0 
4.413056841369e+01 -1.474359631875e+01 0.0 
4.418850110108e+01 -1.374786684042e+01 0.0 
4.502219770667e+01 -1.429605103525e+01 0.0 
4.496411937907e+01 -1.529215882720e+01 0.0 
4.490027319897e+00 -4.154167794594e+00 0.0 
1.565080385988e+01 -1.486411982419e+01 0.0 
1.557610691279e+01 -1.584855627870e+01 0.0 
4.195350646612e+00 -8.089117689096e+00 0.0 
4.124027797830e+00 -9.082831955007e+00 0.0 
4.917944318925e+00 -9.643530901533e+00 0.0 
4.020105689502e+00 -1.007439673661e+01 0.0 
4.587185899277e+01 -1.484039992728e+01 0.0 
4.580078661551e+01 -1.584043391042e+01 0.0 
2.061956522375e+01 -5.046701343981e+00 0.0 
2.139572955529e+01 -5.579553449826e+00 0.0 
3.715344357292e+01 -1.631485124583e+01 0.0 
3.618886196443e+00 -1.500471207167e+01 0.0 
3.695606940204e+00 -1.400939692294e+01 0.0 
2.438890661143e+01 -9.686110599723e+00 0.0 
2.523267572778e+01 -9.276766000622e+00 0.0 
2.446094171539e+01 -8.751904591412e+00 0.0 
2.529089822738e+01 -8.321495612547e+00 0.0 
2.606882688827e+01 -8.864724051119e+00 0.0 
2.452116646430e+01 -7.792756462004e+00 0.0 
1.235543269617e+01 -1.365845617339e+01 0.0 
4.318116874181e+01 -1.618567469992e+01 0.0 
7.835066111909e+00 -5.376366223896e+00 0.0 
7.905687335704e+00 -4.382539065697e+00 0.0 
3.542640009567e+00 -1.600035116542e+01 0.0 
1.572431503071e+01 -1.388358386695e+01 0.0 
2.574684696680e+01 -1.357896141127e+01 0.0 
2.488842657651e+01 -1.399674354505e+01 0.0 
2.568301775611e+01 -1.453552048595e+01 0.0 
2.481535572009e+01 -1.495542756508e+01 0.0 
2.561729699688e+01 -1.549784648532e+01 0.0 
2.474623061296e+01 -1.592058894178e+01 0.0 
2.394234041695e+01 -1.537572575827e+01 0.0 
2.065825452567e+01 -1.621899055217e+01 0.0 
2.387180528935e+01 -1.634552264687e+01 0.0 
4.585364400844e+01 -1.383912334080e+01 0.0 
1.998744432052e+01 -1.370317155541e+01 0.0 
1.205356951443e+01 -6.313580285498e+00 0.0 
5.396543905849e+00 -3.731818611283e+00 0.0 
1.139652573295e+01 -3.745819399350e+00 0.0 
3.574124306703e+00 -4.551456826011e+00 0.0 
3.494140761930e+00 -5.539787055649e+00 0.0 
1.213651452413e+01 -1.664505033022e+01 0.0 
2.555045568519e+01 -1.646529356744e+01 0.0 
2.641671114986e+01 -1.603899382371e+01 0.0 
2.612920721894e+01 -7.906435260873e+00 0.0 
2.690339829698e+01 -8.456969591431e+00 0.0 
1.978024383368e+01 -1.664410216353e+01 0.0 
3.732829979082e+01 -1.336926601859e+01 0.0 
4.074336584605e+01 -1.355133328401e+01 0.0 
4.163204691081e+01 -1.310280943992e+01 0.0 
3.773826114429e+00 -3.493444309145e+00 0.0 
1.228783001032e+01 -3.374822835872e+00 0.0 
4.057110462520e+01 -1.652588478000e+01 0.0 
2.132535497898e+01 -6.523623360525e+00 0.0 
2.216932532211e+01 -6.110044769206e+00 0.0 
1.825781152128e+01 -3.370146817147e+00 0.0 
1.745679445888e+01 -2.812942552063e+00 0.0 
4.666517057280e+01 -1.539981381543e+01 0.0 
4.660575894464e+01 -1.639014410186e+01 0.0 
4.838230979954e+00 -1.063643436446e+01 0.0 
3.938942630206e+00 -1.106778981745e+01 0.0 
1.302967218620e+01 -1.621373452436e+01 0.0 
1.049548003190e+01 -4.204825123240e+00 0.0 
4.573571907195e+01 -1.683820511148e+01 0.0 
1.483686335807e+01 -1.430849689310e+01 0.0 
1.490982658890e+01 -1.332679386284e+01 0.0 
3.190805600162e+00 -9.510968358545e+00 0.0 
2.146625721848e+01 -4.642437303115e+00 0.0 
2.069866208266e+01 -4.111852942193e+00 0.0 
1.286859345584e+01 -6.873252723348e+00 0.0 
1.041794493184e+01 -5.194814260291e+00 0.0 
2.671081808965e+00 -4.976806516331e+00 0.0 
1.295786792925e+01 -1.720506531799e+01 0.0 
3.968438206511e+01 -1.696869067241e+01 0.0 
2.308550456051e+01 -1.579963151273e+01 0.0 
2.315593682844e+01 -1.482967445235e+01 0.0 
2.299471449450e+01 -1.677069968132e+01 0.0 
1.057344714696e+01 -3.214252277840e+00 0.0 
1.124057603753e+01 -1.707713739755e+01 0.0 
2.718402535754e+00 -1.543629882103e+01 0.0 
2.638549692805e+01 -1.696744916809e+01 0.0 
2.723416349007e+01 -1.658104204545e+01 0.0 
2.210193351704e+01 -7.046769643417e+00 0.0 
2.295180925161e+01 -6.657397605239e+00 0.0 
2.301355235833e+01 -5.709111896800e+00 0.0 
2.379052718281e+01 -6.254965406962e+00 0.0 
3.243528601237e+01 -1.214181853533e+01 0.0 
2.287977995457e+01 -7.583722368300e+00 0.0 
2.999876029544e+01 -1.150837653096e+01 0.0 
3.084435366963e+01 -1.109693775882e+01 0.0 
3.006650579669e+01 -1.057778994262e+01 0.0 
2.683802665066e+01 -9.386863216633e+00 0.0 
2.768641973621e+01 -8.988883915666e+00 0.0 
2.040296980397e+01 -7.903629133404e+00 0.0 
1.925235024054e+01 -1.218872783130e+01 0.0 
5.735667000424e+00 -1.020577277283e+01 0.0 
6.396559909872e+00 -1.272326295703e+01 0.0 
1.161199420714e+01 -1.212812778229e+01 0.0 
4.229046132615e+01 -1.663084237572e+01 0.0 
4.312275399692e+01 -1.718087491556e+01 0.0 
4.335502068163e+01 -1.320039231514e+01 0.0 
4.424630298089e+01 -1.275160688731e+01 0.0 
7.090116643816e+00 -3.818998061530e+00 0.0 
7.989472176569e+00 -3.389238711200e+00 0.0 
9.085824861778e+00 -1.144036167408e+01 0.0 
1.041972423731e+01 -1.651614080893e+01 0.0 
3.797525112640e+01 -1.686052038746e+01 0.0 
3.709114253394e+01 -1.730125999865e+01 0.0 
3.626966748340e+01 -1.675477052919e+01 0.0 
1.385164591440e+01 -1.677597757552e+01 0.0 
1.787152588784e+01 -8.198993896093e+00 0.0 
1.668849729812e+01 -1.248560611628e+01 0.0 
1.659546177905e+01 -3.232482605530e+00 0.0 
2.332214717345e+01 -1.292598167641e+01 0.0 
7.168238450786e+00 -2.824711686516e+00 0.0 
2.894878403906e+01 -1.475427524446e+01 0.0 
2.646763248247e+00 -1.643270107952e+01 0.0 
3.467431944285e+00 -1.699648837348e+01 0.0 
2.059475877282e+01 -1.719473628526e+01 0.0 
3.333868355437e+01 -1.080596971682e+01 0.0 
2.246451062637e+01 -1.334557761546e+01 0.0 
2.167821896388e+01 -1.280847834858e+01 0.0 
3.089653185767e+01 -1.017198487212e+01 0.0 
3.012604365669e+01 -9.657298805968e+00 0.0 
2.929627299435e+01 -1.006100135274e+01 0.0 
2.936201435219e+01 -9.136748899251e+00 0.0 
1.198219052702e+01 -7.291887238230e+00 0.0 
1.116702076035e+01 -6.731976101053e+00 0.0 
2.551388807505e+01 -1.746927036981e+01 0.0 
2.378639090370e+01 -1.728678807149e+01 0.0 
2.718543627188e+01 -1.748668016909e+01 0.0 
2.804681050301e+01 -1.712626668293e+01 0.0 
1.970737034667e+01 -1.762317646822e+01 0.0 
1.889535776135e+01 -1.707158098231e+01 0.0 
2.593777711283e+00 -5.971157087874e+00 0.0 
2.773468281110e+01 -8.067164273938e+00 0.0 
4.051205884347e+01 -1.751819982458e+01 0.0 
3.166903145421e+01 -1.068032992414e+01 0.0 
1.033042452886e+01 -1.748285844336e+01 0.0 
9.519274604626e+00 -1.694349240233e+01 0.0 
1.668308673328e+01 -2.255861778986e+00 0.0 
1.570531902832e+01 -2.676795860126e+00 0.0 
4.655826903379e+01 -1.736656245706e+01 0.0 
2.384148070773e+01 -5.328744256413e+00 0.0 
2.460255123641e+01 -5.852182672816e+00 0.0 
2.306638135119e+01 -4.798935440613e+00 0.0 
8.467720450578e-01 -1.849576263072e+01 0.0 
4.849657322345e+01 -1.084860705506e+01 0.0 
2.565860899507e+00 -1.742859793981e+01 0.0 
2.764418872564e+01 -9.927142821799e+00 0.0 
4.565165880064e+01 -1.785336695404e+01 0.0 
2.162231831329e+01 -1.376528337468e+01 0.0 
2.360646352969e+01 -9.136041963102e+00 0.0 
1.392738739903e+01 -1.578285505772e+01 0.0 
4.756405947478e+01 -1.683706841809e+01 0.0 
4.740895034054e+01 -1.793766756892e+01 0.0 
4.080779328826e+01 -1.257387192544e+01 0.0 
4.168907939671e+01 -1.210739129181e+01 0.0 
3.991197722154e+01 -1.300815793917e+01 0.0 
1.905536506762e+01 -3.940076697685e+00 0.0 
1.923879596617e+01 -2.875000734166e+00 0.0 
4.401386745746e+01 -1.673483229438e+01 0.0 
4.247233362525e+00 -7.094581653070e+00 0.0 
3.286051630211e+00 -7.635300020553e+00 0.0 
9.609533347623e+00 -4.594311677967e+00 0.0 
9.523554636369e+00 -5.595597029530e+00 0.0 
5.660336628893e+00 -1.119290329628e+01 0.0 
6.558070063295e+00 -1.076385809362e+01 0.0 
2.809866407414e+01 -1.518037766799e+01 0.0 
2.888868674504e+01 -1.570360690070e+01 0.0 
2.654431550819e+01 -1.411217777162e+01 0.0 
1.402158265969e+01 -1.375404617952e+01 0.0 
1.409592494026e+01 -1.277071998942e+01 0.0 
1.499355196178e+01 -1.235270737023e+01 0.0 
4.221535326155e+01 -1.759335617494e+01 0.0 
4.305583287033e+01 -1.822663146802e+01 0.0 
1.280748808359e+01 -7.834332838285e+00 0.0 
1.368988389326e+01 -7.420529606172e+00 0.0 
1.110091796060e+01 -7.683966794328e+00 0.0 
3.963446145980e+01 -1.794331310122e+01 0.0 
3.423932362213e+00 -1.796415590455e+01 0.0 
4.280814572302e+00 -1.752272834860e+01 0.0 
8.050136380041e+00 -2.421582378631e+00 0.0 
8.888674091650e+00 -2.984264211327e+00 0.0 
2.152839430898e+01 -3.732609965436e+00 0.0 
2.077799585292e+01 -3.183896021866e+00 0.0 
3.618719395821e+01 -1.770276572576e+01 0.0 
3.538165138340e+01 -1.718709995539e+01 0.0 
3.702925326420e+01 -1.828844288807e+01 0.0 
1.756739438711e+00 -5.353284859169e+00 0.0 
2.233710191104e+01 -1.527265621324e+01 0.0 
1.389483555057e+01 -1.771797164730e+01 0.0 
1.475634224300e+01 -1.728357428390e+01 0.0 
1.298797563052e+01 -1.825968924755e+01 0.0 
2.145331271866e+01 -1.673705379077e+01 0.0 
2.133282821169e+01 -1.769400773673e+01 0.0 
2.292139194136e+01 -1.774915400288e+01 0.0 
1.750750053243e+01 -1.861475593469e+00 0.0 
4.830478841772e+01 -1.752611802221e+01 0.0 
4.341203507805e+01 -1.220326745522e+01 0.0 
1.685254151866e+01 -1.443085301632e+00 0.0 
4.431538535165e+01 -1.171841387375e+01 0.0 
4.511308610496e+01 -1.229557320599e+01 0.0 
4.510133242889e+01 -1.123680627466e+01 0.0 
1.846818030617e+00 -4.410877617069e+00 0.0 
3.995468694584e+01 -1.186571542989e+01 0.0 
3.901387459804e+01 -1.242507616755e+01 0.0 
8.966735877533e+00 -1.837818700423e+00 0.0 
4.049310011091e+01 -1.848269508791e+01 0.0 
7.278862053803e+00 -1.918523922691e+00 0.0 
6.429715522129e+00 -2.316676521184e+00 0.0 
9.443505505022e+00 -1.792198868094e+01 0.0 
8.620386951051e+00 -1.737590365556e+01 0.0 
8.571868171503e+00 -1.834436667826e+01 0.0 
7.758629848526e+00 -1.775677907213e+01 0.0 
7.806648388584e+00 -1.680761266021e+01 0.0 
6.908555145436e+00 -1.723746463044e+01 0.0 
4.251709122090e+01 -1.156937480156e+01 0.0 
6.931136405615e+00 -1.832465719263e+01 0.0 
6.015545461353e+00 -1.768865355295e+01 0.0 
5.960535926343e+00 -1.872011001764e+01 0.0 
3.023253444786e+01 -8.761960642196e+00 0.0 
2.454622702599e+01 -6.749421992767e+00 0.0 
2.537499741604e+01 -6.347634963783e+00 0.0 
2.544077378460e+01 -5.431358513649e+00 0.0 
2.801367161747e+01 -1.820907270221e+01 0.0 
2.884507806914e+01 -1.762032095326e+01 0.0 
1.821474531936e+00 -1.588901260460e+01 0.0 
1.821006262604e+00 -1.489370287756e+01 0.0 
4.599962488908e+01 -1.176478780598e+01 0.0 
4.705457470007e+01 -1.172182804229e+01 0.0 
4.667668314802e+01 -1.263464558483e+01 0.0 
4.759648056504e+01 -1.252380987933e+01 0.0 
4.728041618103e+01 -1.341928568376e+01 0.0 
4.825209352360e+01 -1.330491640804e+01 0.0 
4.778118233428e+01 -1.420151961695e+01 0.0 
2.388192727579e+01 -1.826934810142e+01 0.0 
2.381714684947e+01 -4.385917965223e+00 0.0 
3.172733219247e+01 -9.758744265248e+00 0.0 
1.882012070658e+01 -1.805540597212e+01 0.0 
1.805667505243e+01 -1.742221226236e+01 0.0 
2.852599958080e+01 -8.597196079481e+00 0.0 
2.856486123437e+01 -7.661382718527e+00 0.0 
1.111792842875e+01 -1.818223852980e+01 0.0 
2.203322722466e+01 -7.986646678802e+00 0.0 
3.955703676900e+01 -1.903246763601e+01 0.0 
1.944842206513e+01 -8.038750575182e-01 0.0 
1.909882767783e+01 -1.746322740933e+00 0.0 
2.281147422941e+01 -8.525912918334e+00 0.0 
2.850633001468e+01 -9.533271335986e+00 0.0 
2.532883344309e+01 -7.308951659710e+00 0.0 
2.620475466461e+01 -6.979208585400e+00 0.0 
1.396278270396e+01 -1.475095389807e+01 0.0 
9.791001166724e+00 -2.554159793552e+00 0.0 
2.229293380421e+01 -4.269762271052e+00 0.0 
4.677238984118e+01 -1.430071795514e+01 0.0 
2.228658385918e+01 -3.344747535984e+00 0.0 
8.940223674553e-01 -1.543595733415e+01 0.0 
2.118566862474e+01 -8.435876987696e+00 0.0 
2.678325936437e+01 -1.032621195706e+01 0.0 
2.223400220487e+01 -5.179046761770e+00 0.0 
2.375370625384e+01 -7.251580562134e+00 0.0 
3.156971327386e+01 -1.255534750737e+01 0.0 
3.328226391312e+01 -1.172914813316e+01 0.0 
3.250948774219e+01 -1.120157009348e+01 0.0 
2.032993445717e+01 -8.867880112202e+00 0.0 
2.697226974856e+01 -7.536633082045e+00 0.0 
2.707377810386e+01 -6.590835263295e+00 0.0 
2.914099246827e+01 -1.191678458549e+01 0.0 
3.544824072239e+01 -1.621126558525e+01 0.0 
3.456511855436e+01 -1.665054783843e+01 0.0 
3.448395810225e+01 -1.759117813016e+01 0.0 
3.368378673938e+01 -1.708037781328e+01 0.0 
3.375560452567e+01 -1.610973066913e+01 0.0 
3.288001547988e+01 -1.654324255651e+01 0.0 
3.282475929147e+01 -1.749725654692e+01 0.0 
3.199880906313e+01 -1.697294088625e+01 0.0 
3.197001272932e+01 -1.811667776864e+01 0.0 
3.111884713021e+01 -1.742166785755e+01 0.0 
3.120418962865e+01 -1.642155709385e+01 0.0 
3.034666704371e+01 -1.683123833816e+01 0.0 
3.026224379976e+01 -1.772592851714e+01 0.0 
3.046632362943e+01 -1.582232843075e+01 0.0 
1.961344017324e+01 -1.857459447985e+01 0.0 
2.274975894774e+01 -9.532738811922e+00 0.0 
1.833923246887e+01 -2.396746883672e+00 0.0 
1.988859500848e+01 -2.249244376594e+00 0.0 
2.758045562861e+01 -1.086434261689e+01 0.0 
3.247300178163e+01 -1.909930104252e+01 0.0 
3.461947482503e+01 -1.911879848019e+01 0.0 
2.047161538662e+01 -6.941478180358e+00 0.0 
2.750230940214e+01 -1.915490590764e+01 0.0 
3.165081350803e+01 -1.161860780120e+01 0.0 
1.897456727641e+01 -4.889634688522e+00 0.0 
2.549338539756e+01 -1.914858252089e+01 0.0 
3.462873135081e+01 -1.567482276144e+01 0.0 
3.384432415243e+01 -1.512280684518e+01 0.0 
3.471433767690e+01 -1.469086942990e+01 0.0 
3.651470373046e+01 -1.918207952149e+01 0.0 
3.901742690249e+01 -1.345028556517e+01 0.0 
2.153224102692e+01 -1.920169709333e+01 0.0 
1.918382939341e+01 -1.316226275662e+01 0.0 
2.005389162382e+01 -1.271962165174e+01 0.0 
2.011472087878e+01 -1.175029352900e+01 0.0 
3.210679478412e+01 -1.598038618242e+01 0.0 
1.752175226543e+01 -1.914713022656e+01 0.0 
1.696897240059e+01 -1.832772588765e+01 0.0 
1.599682523337e+01 -1.832599992024e+01 0.0 
1.644507199462e+01 -1.743697981535e+01 0.0 
1.549987712903e+01 -1.915192375101e+01 0.0 
3.050250861901e+01 -1.918943550234e+01 0.0 
2.949944061527e+01 -1.922950455235e+01 0.0 
1.375892575273e+01 -6.447160534926e+00 0.0 
1.457223670180e+01 -7.006709243857e+00 0.0 
1.450818793236e+01 -7.965943451779e+00 0.0 
1.538804712402e+01 -7.553409623699e+00 0.0 
1.545817644768e+01 -6.580929593419e+00 0.0 
1.626506893751e+01 -7.129032608911e+00 0.0 
1.619833811522e+01 -8.086588580887e+00 0.0 
1.714448609609e+01 -6.697429609777e+00 0.0 
2.887616543568e+01 -1.668015232137e+01 0.0 
1.349814589130e+01 -1.918225301544e+01 0.0 
1.153887772210e+01 -1.311384581217e+01 0.0 
1.242708159886e+01 -1.267046795531e+01 0.0 
1.249799674267e+01 -1.169005616014e+01 0.0 
6.631723893693e+00 -9.774184881867e+00 0.0 
7.451471631867e+00 -1.033148796006e+01 0.0 
7.377795355458e+00 -1.132196345268e+01 0.0 
5.810931797536e+00 -9.211654212252e+00 0.0 
2.402683899133e+01 -1.441378562320e+01 0.0 
1.249768692036e+01 -1.917388426624e+01 0.0 
1.580373499437e+01 -1.290751860664e+01 0.0 
8.344650507834e+00 -9.898403995170e+00 0.0 
3.750622115305e+01 -1.086526401533e+01 0.0 
3.699391251667e+01 -1.171695900794e+01 0.0 
3.606517829518e+01 -1.173717504500e+01 0.0 
3.650257641795e+01 -1.270047380221e+01 0.0 
3.808951488918e+01 -1.183518714175e+01 0.0 
4.760380962420e+00 -1.162484888315e+01 0.0 
3.861210370848e+00 -1.205657631736e+01 0.0 
3.038284309476e+00 -1.149851280664e+01 0.0 
2.961598794889e+00 -1.248856794980e+01 0.0 
2.138953225512e+00 -1.193212674534e+01 0.0 
2.227383593457e+00 -1.096258903918e+01 0.0 
2.043265419276e+00 -1.292158472959e+01 0.0 
1.252449446028e+00 -1.225502002753e+01 0.0 
3.949985210740e+01 -1.086594001795e+01 0.0 
1.453499444792e+01 -8.768805922472e-01 0.0 
1.403518950933e+01 -1.749965556633e+00 0.0 
1.300715031023e+01 -1.714737233040e+00 0.0 
1.350929389899e+01 -2.527443911291e+00 0.0 
1.449600910711e+01 -2.595486162864e+00 0.0 
1.395693872901e+01 -3.484211041558e+00 0.0 
1.495105865208e+01 -3.364609636216e+00 0.0 
1.508822528740e+01 -1.766586020494e+00 0.0 
1.250223858430e+01 -8.634590186802e-01 0.0 
1.200279523409e+01 -1.709044504992e+00 0.0 
1.150086239419e+01 -8.592789190668e-01 0.0 
1.101482754194e+01 -1.677730591922e+00 0.0 
1.148018564526e+01 -2.659323866909e+00 0.0 
8.800552119754e+00 -3.989875954728e+00 0.0 
3.452790439430e+00 -1.901136170646e+01 0.0 
8.658451825200e-01 -9.503462241795e+00 0.0 
1.694787786797e+00 -9.000589234502e+00 0.0 
1.703436717094e+00 -8.038819004041e+00 0.0 
2.594197971110e+00 -8.563955242845e+00 0.0 
1.630513735412e+00 -9.907244747511e+00 0.0 
8.566859292791e-01 -7.512203837972e+00 0.0 
1.685461277022e+00 -7.164280248030e+00 0.0 
2.506394468801e+00 -8.623386730818e-01 0.0 
2.007475081581e+00 -1.727729545205e+00 0.0 
9.211534699767e-01 -1.628791366312e+00 0.0 
1.500000000020e+00 -2.598063549486e+00 0.0 
2.482078929963e+00 -2.553580088725e+00 0.0 
2.999795253092e+00 -1.732169015019e+00 0.0 
3.999712607169e+00 -1.728832897453e+00 0.0 
4.499752199340e+00 -8.656478679175e-01 0.0 
4.964377774841e+00 -1.730129617941e+00 0.0 
4.425017908337e+00 -2.597541756243e+00 0.0 
5.446573195014e+00 -8.410144840023e-01 0.0 
4.915722346614e+01 -1.550640962770e+01 0.0 
4.826794919243e+01 -1.600000000000e+01 0.0 
1.053139533193e+01 -1.911782884365e+01 0.0 
4.156049861949e+01 -1.095160998589e+01 0.0 
9.494526624416e+00 -8.650570090219e-01 0.0 
4.555762166964e+01 -1.897098103585e+01 0.0 
4.250656411371e+01 -1.914387356218e+01 0.0 
4.350906466345e+01 -1.917234727395e+01 0.0 
8.759665722424e-01 -1.746422130609e+01 0.0 
1.698936011838e+00 -1.795012186674e+01 0.0 
4.742476811029e+01 -1.900090177972e+01 0.0 
7.749196752349e+00 -6.368049313489e+00 0.0 
3.361572113416e+01 -1.798765193915e+01 0.0 
4.484660149212e+01 -1.728661231383e+01 0.0 
1.984038172228e+01 -4.502575320116e+00 0.0 
1.035080352627e+01 -6.166639575753e+00 0.0 
2.753558010652e+00 -1.444909521181e+01 0.0 
7.217069543032e+00 -1.328635391078e+01 0.0 
4.364336727739e+00 -1.655585677381e+01 0.0 
4.595208426108e+00 -1.357919665443e+01 0.0 
6.164967006980e+00 -1.569873454630e+01 0.0 
1.487855768353e+01 -1.826523774028e+01 0.0 
2.791876456372e+00 -4.019632415181e+00 0.0 
4.246464893515e+01 -1.364898659620e+01 0.0 
4.503855590351e+01 -1.329552780944e+01 0.0 
4.407239109604e+01 -1.573900004093e+01 0.0 
5.141054449252e+00 -6.664290382472e+00 0.0 
3.141083947149e+00 -1.055790764912e+01 0.0 
6.196463198741e+00 -4.256497932609e+00 0.0 
2.599618716181e+01 -1.836893455464e+01 0.0 
2.923057372337e+01 -1.098461757645e+01 0.0 
1.168343877486e+01 -1.114079645041e+01 0.0 
6.706222096238e+00 -8.780364234441e+00 0.0 
8.567858614669e+00 -6.943121440850e+00 0.0 
1.123755132901e+01 -5.753525820030e+00 0.0 
2.353456234423e+01 -1.008536320953e+01 0.0 
9.162073319168e+00 -1.045593739109e+01 0.0 
9.676343469685e+00 -1.496493008366e+01 0.0 
4.490637882905e+01 -1.628778970202e+01 0.0 
7.398129387772e+00 -9.639977982323e-01 0.0 
1.049641705805e+01 -1.552503975272e+01 0.0 
9.010356286268e+00 -1.242805042052e+01 0.0 
3.985573925497e+01 -1.399863651620e+01 0.0 
1.816196318262e+01 -1.554066497931e+01 0.0 
1.306332244168e+01 -3.963646550326e+00 0.0 
4.145850903932e+01 -1.608094559275e+01 0.0 
3.794664933633e+01 -1.779020121986e+01 0.0 
3.819614412903e+01 -1.290749321016e+01 0.0 
6.270014188119e+00 -3.255093186826e+00 0.0 
4.251165370388e+01 -1.263870364997e+01 0.0 
1.207347709171e+01 -1.763942826023e+01 0.0 
3.633240829927e+01 -1.577330481104e+01 0.0 
4.319052668832e+00 -6.101812561904e+00 0.0 
1.676492415806e+01 -1.151547901392e+01 0.0 
2.594059220037e+01 -1.074225223009e+01 0.0 
3.340750911501e+01 -9.898764354137e+00 0.0 
4.397619591281e+01 -1.769773736461e+01 0.0 
2.175611595028e+01 -1.185718747128e+01 0.0 
1.641818733106e+01 -1.640685203215e+01 0.0 
1.661211421753e+01 -1.346121366338e+01 0.0 
3.428853504935e+00 -6.551993389271e+00 0.0 
8.700728832502e+00 -1.638460872825e+01 0.0 
1.931369795309e+01 -1.121629383702e+01 0.0 
4.139798872363e+01 -1.706922153459e+01 0.0 
2.647837478700e+01 -1.507353829290e+01 0.0 
1.779469616424e+01 -9.161615782908e+00 0.0 
3.885879219319e+01 -1.642026488918e+01 0.0 
1.338194936770e+01 -1.125916521471e+01 0.0 
1.897071181111e+01 -1.609204322578e+01 0.0 
2.844308548793e+01 -1.046221003096e+01 0.0 
2.659854702194e+01 -1.316109415760e+01 0.0 
2.979604503271e+01 -1.433296157755e+01 0.0 
2.417694041347e+01 -1.251231397779e+01 0.0 
1.807401327411e+00 -1.388891148480e+01 0.0 
9.599810618782e+00 -1.595439365034e+01 0.0 
1.652144692160e+01 -4.205392788472e+00 0.0 
2.367839450246e+01 -8.188385218643e+00 0.0 
3.814894930468e+01 -1.390748338767e+01 0.0 
2.466448215774e+01 -1.685878545680e+01 0.0 
4.134044524611e+01 -1.806610045954e+01 0.0 
2.600511411958e+01 -9.801774120648e+00 0.0 
7.882158050716e+00 -1.582364037353e+01 0.0 
3.881607873422e+01 -1.737970515013e+01 0.0 
8.270182347708e+00 -1.088622154920e+01 0.0 
8.672520392520e-01 -4.532984309881e+00 0.0 
1.993447205337e+01 -3.579061902667e+00 0.0 
1.794616079549e+01 -7.238038888498e+00 0.0 
2.097277068165e+01 -1.132450168636e+01 0.0 
8.194803300681e+00 -1.187214224265e+01 0.0 
3.522279404911e+01 -1.823342818178e+01 0.0 
6.984481050295e+00 -1.625271465557e+01 0.0 
1.309433007797e+01 -1.521718594215e+01 0.0 
2.150246167611e+01 -1.885399038185e+00 0.0 
3.250689370209e+01 -1.028789870535e+01 0.0 
6.085886272238e+00 -1.668342132851e+01 0.0 
1.588455661727e+01 -1.193498985921e+01 0.0 
1.809323400821e+01 -1.651110084195e+01 0.0 
1.348885082381e+00 -1.136065576512e+01 0.0 
2.497670221995e+01 -1.834631276173e+01 0.0 
2.937062818424e+01 -8.233711194470e+00 0.0 
5.185823744469e+00 -1.711566910207e+01 0.0 
1.477497877209e+01 -1.530177014512e+01 0.0 
2.125346158933e+01 -7.473003997367e+00 0.0 
4.751561118290e+01 -1.084897772632e+01 0.0 
5.056026576843e+00 -1.825750475525e+01 0.0 
1.473948554523e+01 -1.634577436309e+01 0.0 
2.410566630936e+01 -1.345970002612e+01 0.0 
1.507337507513e+01 -1.138527895328e+01 0.0 
3.189857338687e+01 -8.887781229006e+00 0.0 
7.298712468334e+00 -1.230231046246e+01 0.0 
2.738235495295e+01 -1.368931690364e+01 0.0 
3.750141041969e+01 -1.920449893070e+01 0.0 
1.557271965640e+01 -1.683317951731e+01 0.0 
3.393731848929e+01 -1.413034777044e+01 0.0 
6.482156824153e+00 -1.174575135362e+01 0.0 
2.077971718439e+01 -1.421279621836e+01 0.0 
3.455084320178e+00 -2.562590040585e+00 0.0 
3.099056096250e+01 -9.270280416035e+00 0.0 
5.580176125418e+00 -1.217387969259e+01 0.0 
1.707247630389e+01 -7.660651981710e+00 0.0 
1.418658814174e+01 -1.180390575393e+01 0.0 
2.049103025389e+01 -1.811296706038e+01 0.0 
4.680386172316e+00 -1.260396879301e+01 0.0 
1.699679896554e+01 -8.624561788199e+00 0.0 
3.779470168555e+00 -1.303424899720e+01 0.0 
3.036589870126e+01 -7.879832518349e+00 0.0 
3.306993001774e+01 -1.457671062095e+01 0.0 
2.840150110165e+00 -1.346530088269e+01 0.0 
2.732011135052e+01 -1.464591214560e+01 0.0 
5.423639259568e+00 -2.659711955016e+00 0.0 
2.324455961696e+01 -1.387269388211e+01 0.0 
1.752768355571e+00 -1.693128613594e+01 0.0 
1.020244783051e+01 -8.076834012808e+00 0.0 
1.330873875224e+01 -1.222417528206e+01 0.0 
3.297727364880e+01 -1.555480372087e+01 0.0 
2.890929955439e+01 -6.868664170731e+00 0.0 
1.323294664622e+01 -1.320754260334e+01 0.0 
2.726532861246e+01 -1.560593120806e+01 0.0 
2.240020643398e+01 -1.429299177247e+01 0.0 
2.090445823633e+01 -1.228128621332e+01 0.0 
1.315809881502e+01 -1.420739326938e+01 0.0 
2.781328038068e+01 -7.181956082300e+00 0.0 
8.614200829057e+00 -5.936933226306e+00 0.0 
8.714765730069e+00 -4.979270529687e+00 0.0 
1.611881701099e+01 -9.041973294003e+00 0.0 
2.806830314340e+01 -1.614622947108e+01 0.0 
2.084435391396e+00 -3.385085422913e+00 0.0 
3.133211811152e+01 -1.542347619750e+01 0.0 
9.693114650768e+00 -3.590281506442e+00 0.0 
1.531883592202e+01 -8.504584946143e+00 0.0 
2.151589117094e+01 -1.578915763018e+01 0.0 
4.918943882696e+01 -1.355538828056e+01 0.0 
1.443236615188e+01 -8.918701794549e+00 0.0 
8.276250966452e-01 -5.537685192197e+00 0.0 
1.362790867918e+01 -8.374718262212e+00 0.0 
2.083767477370e+01 -1.324843956035e+01 0.0 
1.273834678703e+01 -8.790890389337e+00 0.0 
1.192275845670e+01 -8.242261327467e+00 0.0 
4.477236023583e+01 -1.824312396664e+01 0.0 
1.102989384254e+01 -8.649855800911e+00 0.0 
4.849096516045e+01 -1.917293752213e+01 0.0 
1.588996752238e+00 -1.910230934687e+01 0.0 
4.904245197583e+01 -1.159839008158e+01 0.0 
2.753852929608e+01 -5.782128488093e+00 0.0 
1.756133602833e+01 -8.306130313187e-01 0.0 
2.615423700951e+01 -6.153865090092e+00 0.0 
1.028818761294e+01 -7.122020845892e+00 0.0 
2.970818901196e+01 -1.527821347593e+01 0.0 
4.801461623449e+01 -1.164472570985e+01 0.0 
9.455722100419e+00 -6.546069291118e+00 0.0 
3.089099236677e+01 -1.835339328261e+01 0.0 
2.350000000013e+01 -1.920825896750e+01 0.0 
4.830620531887e+01 -1.506626155470e+01 0.0 
1.725381944701e+01 -1.688794487850e+01 0.0 
2.156246225273e+01 -1.475893794002e+01 0.0 
4.919319648787e+01 -1.742767505896e+01 0.0 
4.437935623576e+01 -1.077662927266e+01 0.0 
1.001520521978e+01 -1.652692675208e+00 0.0 
9.067160240050e-01 -1.441937727541e+01 0.0 
2.603365149390e+01 -4.755996613848e+00 0.0 
2.458344439002e+01 -4.873645517696e+00 0.0 
2.304312390142e+01 -3.836552768096e+00 0.0 
2.546923202198e+00 -6.902480355749e+00 0.0 
1.251534969393e+01 -2.490989965776e+00 0.0 
2.454061833377e+01 -3.933354231935e+00 0.0 
1.788186558740e+01 -1.827424884923e+01 0.0 
4.090785243552e+01 -1.166553231904e+01 0.0 
2.230128851568e+01 -1.623015738726e+01 0.0 
2.302362347568e+01 -2.916239960270e+00 0.0 
3.878119254461e+01 -1.830091164002e+01 0.0 
2.210081359958e+01 -1.829238229150e+01 0.0 
8.443704882233e+00 -1.921993252862e+01 0.0 
2.218405824691e+01 -1.724557581508e+01 0.0 
2.151157503963e+01 -2.790636689331e+00 0.0 
3.741658958955e+01 -1.250400191722e+01 0.0 
2.697247663737e+01 -1.838290202309e+01 0.0 
4.743362342862e+01 -1.585850773010e+01 0.0 
6.671345075358e+00 -1.924977576322e+01 0.0 
3.900825404537e+01 -1.157220003875e+01 0.0 
4.649692961375e+01 -1.836335837481e+01 0.0 
1.578831424832e+01 -3.678284023361e+00 0.0 
4.814208768888e+01 -1.841249298770e+01 0.0 
2.964123298315e+01 -1.625739458193e+01 0.0 
4.580760351902e+01 -1.284294554687e+01 0.0 
3.561520879615e+01 -1.245548941949e+01 0.0 
2.555418095658e+00 -1.841101588290e+01 0.0 
3.288468366144e+01 -1.834258164109e+01 0.0 
2.065894391445e+01 -2.240688571739e+00 0.0 
4.739171429915e+01 -1.496536413446e+01 0.0 
3.478086729185e+00 -8.576434653209e+00 0.0 
1.606010630246e+01 -1.588421807951e+00 0.0 
1.018329200594e+01 -1.834320874317e+01 0.0 
2.957213339430e+01 -1.720496954591e+01 0.0 
4.142712790164e+00 -1.837794506222e+01 0.0 
6.698721532573e-01 -2.499999999997e+00 0.0 
8.037039123140e+00 -1.571229354954e+00 0.0 
1.203541361428e+01 -1.847784298001e+01 0.0 
2.899968332038e+01 -1.848264722179e+01 0.0 
1.469229460948e+01 -4.219485753730e+00 0.0 
4.049590781957e+01 -1.932812501995e+01 0.0 
1.996211678340e+01 -1.506329754720e+00 0.0 
4.250588298353e+01 -1.067383247529e+01 0.0 
5.831497011152e+00 -1.635396227234e+00 0.0 
5.317606125670e+00 -1.923927974868e+01 0.0 
4.208546426993e+01 -1.842830665025e+01 0.0 
2.327553405011e+00 -9.459409929662e+00 0.0 
3.568351902251e+01 -1.096637218582e+01 0.0 
1.682104374890e+00 -6.231413350963e+00 0.0 
2.451812238018e+01 -1.766524914339e+01 0.0 
1.058003429638e+01 -2.391839617098e+00 0.0 
4.399988753123e+01 -1.851998776342e+01 0.0 
1.400000000010e+01 -1.852293523028e+01 0.0 
3.604719565984e+01 -1.850662876800e+01 0.0 
1.951297136734e+01 -1.938092349694e+01 0.0 
1.821365318472e+01 -1.531276353287e+00 0.0 
2.298031859732e+01 -1.854635324722e+01 0.0 
1.552168066204e+01 -1.764280741977e+01 0.0 
4.572957713638e+01 -1.073347898229e+01 0.0 
3.429637429624e+01 -1.838861552790e+01 0.0 
2.427434426052e+00 -7.705577451869e+00 0.0 
4.662792031485e+00 -3.359424455416e+00 0.0 
4.926794919243e+01 -1.926794919243e+01 0.0 
7.320508075690e-01 -7.320508075688e-01 0.0 
4.926794919243e+01 -1.073205080757e+01 0.0 
7.320508075705e-01 -1.926794919243e+01 0.0 
2.917460242467e+00 -3.202866455310e+00 0.0 
4.838200575963e+01 -1.232674147454e+01 0.0 
2.998445708009e+01 -1.854403752148e+01 0.0 
5.949940090766e-01 -1.152762038165e+01 0.0 
4.844763495759e+01 -1.678092548787e+01 0.0 
1.301685480160e+01 -3.170056592566e+00 0.0 
1.650046335855e+01 -6.731535384067e-01 0.0 
4.854881540991e+01 -1.405224059779e+01 0.0 
2.119545114693e+01 -1.846813384545e+01 0.0 
3.797852849897e+01 -1.857978513215e+01 0.0 
4.649823708745e+01 -1.338351810816e+01 0.0 
2.012685900976e+01 -2.889659035009e+00 0.0 
2.953271913273e+01 -1.791558075192e+01 0.0 
2.408509097292e+00 -1.021949208421e+01 0.0 
2.642589566221e+01 -1.773216561448e+01 0.0 
1.730010270775e+01 -1.763165076721e+01 0.0 
2.017406551304e+01 -8.513536440582e-01 0.0 
5.254761581934e-01 -1.249999999999e+01 0.0 
6.640448215642e+00 -1.545337834885e+00 0.0 
7.843361506349e+00 -1.852719839527e+01 0.0 
1.588442191088e+00 -1.066158564320e+01 0.0 
3.180701530612e+01 -7.414795918363e+00 0.0 
4.951250000000e+01 -7.500000000000e+00 0.0 
3.331250000000e+01 -8.420918367347e+00 0.0 
4.951470588234e+01 -8.500000000000e+00 0.0 
3.480610198624e+01 -9.413633635267e+00 0.0 
4.951470588234e+01 -9.500000000000e+00 0.0 

CELLS 2039 8156 
3 234 704 980 
3 704 234 982 
3 714 207 725 
3 827 592 1016 
3 594 654 820 
3 684 597 723 
3 214 636 638 
3 234 661 982 
3 636 214 654 
3 587 822 1016 
3 206 781 782 
3 661 234 996 
3 826 978 1022 
3 643 774 864 
3 978 240 1022 
3 233 827 1016 
3 642 213 783 
3 597 684 722 
3 221 641 963 
3 641 221 901 
3 822 587 975 
3 952 198 958 
3 679 952 958 
3 629 628 838 
3 328 484 773 
3 781 206 890 
3 108 82 1043 
3 673 199 915 
3 326 328 773 
3 838 628 1048 
3 578 788 790 
3 231 644 821 
3 714 725 1023 
3 19 219 694 
3 229 648 650 
3 657 66 1014 
3 66 657 1040 
3 676 225 720 
3 640 99 993 
3 99 640 1054 
3 916 658 942 
3 194 680 819 
3 997 195 1001 
3 82 243 1043 
3 635 242 992 
3 674 997 1001 
3 788 578 791 
3 242 635 1018 
3 784 785 791 
3 774 643 1015 
3 236 679 916 
3 626 641 901 
3 404 1017 1035 
3 236 916 942 
3 726 208 906 
3 999 571 1044 
3 626 901 970 
3 219 664 694 
3 487 815 933 
3 822 233 1016 
3 193 1027 1068 
3 1007 633 1009 
3 453 481 687 
3 1017 790 1035 
3 798 617 1022 
3 679 236 952 
3 1027 637 1068 
3 207 714 987 
3 514 475 796 
3 203 662 728 
3 890 833 944 
3 33 32 682 
3 673 915 1045 
3 4 5 808 
3 805 999 1044 
3 645 210 896 
3 726 906 1055 
3 693 998 1005 
3 815 487 1057 
3 998 235 1005 
3 475 488 796 
3 213 642 1003 
3 198 704 958 
3 704 198 980 
3 654 594 866 
3 636 654 866 
3 665 890 995 
3 18 19 694 
3 719 716 964 
3 594 820 1003 
3 821 644 994 
3 245 772 1043 
3 818 989 1013 
3 1013 989 1025 
3 211 33 682 
3 720 225 1050 
3 642 783 1015 
3 819 680 1028 
3 239 671 968 
3 687 481 688 
3 820 654 1038 
3 240 798 1022 
3 401 967 991 
3 632 1007 1009 
3 522 520 698 
3 785 788 791 
3 825 826 948 
3 591 818 1013 
3 193 784 791 
3 921 216 1040 
3 366 719 964 
3 4 808 1059 
3 589 685 721 
3 556 872 910 
3 600 802 1026 
3 660 687 688 
3 455 453 687 
3 229 650 1008 
3 671 239 1063 
3 659 455 687 
3 690 620 965 
3 243 245 1043 
3 818 591 1066 
3 455 659 698 
3 1010 909 1024 
3 675 925 934 
3 802 600 1056 
3 925 200 934 
3 210 645 1036 
3 622 1010 1024 
3 781 890 944 
3 592 827 1018 
3 529 586 686 
3 200 658 934 
3 648 229 1028 
3 826 583 978 
3 665 833 890 
3 686 586 886 
3 630 758 1048 
3 562 678 686 
3 612 823 824 
3 662 203 1034 
3 864 774 1011 
3 471 443 692 
3 678 529 686 
3 658 200 942 
3 586 724 886 
3 698 524 893 
3 214 638 993 
3 685 320 721 
3 644 231 1032 
3 979 985 1063 
3 809 221 963 
3 237 675 910 
3 758 630 767 
3 659 522 698 
3 694 665 995 
3 661 195 997 
3 967 627 991 
3 220 666 667 
3 681 320 685 
3 664 219 948 
3 514 690 965 
3 826 585 948 
3 701 574 729 
3 216 921 1030 
3 979 584 985 
3 520 524 698 
3 872 237 910 
3 206 782 1079 
3 195 661 996 
3 320 681 695 
3 443 494 692 
3 666 220 1054 
3 524 685 893 
3 675 237 925 
3 568 757 962 
3 802 503 1026 
3 199 673 988 
3 728 662 1012 
3 660 688 982 
3 503 802 1042 
3 745 875 929 
3 678 562 916 
3 661 660 982 
3 701 556 910 
3 685 589 893 
3 209 822 975 
3 332 741 951 
3 219 825 948 
3 674 235 998 
3 530 695 919 
3 716 741 964 
3 81 109 683 
3 562 658 916 
3 918 590 922 
3 814 946 1039 
3 829 222 1055 
3 327 252 734 
3 949 308 976 
3 438 918 922 
3 772 245 1021 
3 773 484 1011 
3 628 630 1048 
3 959 850 986 
3 696 267 724 
3 526 416 729 
3 333 327 734 
3 523 701 729 
3 574 701 910 
3 472 932 972 
3 757 606 962 
3 683 217 684 
3 688 704 982 
3 688 481 703 
3 586 696 724 
3 741 711 951 
3 597 596 902 
3 590 689 908 
3 640 666 1054 
3 695 681 919 
3 386 908 957 
3 646 856 1080 
3 732 333 734 
3 856 202 1080 
3 814 815 946 
3 235 674 1001 
3 959 602 960 
3 706 333 732 
3 602 601 960 
3 582 691 697 
3 408 789 861 
3 620 797 965 
3 875 438 929 
3 574 526 729 
3 617 798 1030 
3 109 217 683 
3 491 521 697 
3 281 320 695 
3 679 678 916 
3 689 590 918 
3 657 921 1040 
3 943 332 951 
3 390 372 727 
3 438 922 929 
3 890 206 995 
3 724 334 886 
3 733 734 930 
3 633 1007 1052 
3 281 695 702 
3 521 582 697 
3 251 523 699 
3 682 32 1036 
3 267 696 871 
3 740 283 879 
3 667 666 668 
3 796 488 1000 
3 523 700 701 
3 490 390 727 
3 596 730 831 
3 578 790 1017 
3 333 706 868 
3 416 699 729 
3 455 698 893 
3 706 545 868 
3 741 332 964 
3 334 705 847 
3 201 655 1014 
3 531 740 879 
3 259 525 705 
3 589 721 852 
3 531 739 740 
3 373 389 730 
3 771 212 772 
3 285 282 702 
3 402 753 754 
3 733 943 951 
3 109 110 217 
3 523 249 700 
3 372 370 727 
3 446 491 697 
3 375 373 730 
3 254 251 699 
3 644 690 994 
3 482 572 703 
3 531 738 739 
3 699 523 729 
3 771 772 773 
3 492 597 722 
3 402 754 756 
3 403 406 753 
3 688 703 704 
3 733 930 943 
3 481 482 703 
3 368 285 702 
3 695 530 702 
3 492 596 597 
3 721 277 852 
3 621 691 693 
3 37 208 726 
3 39 222 725 
3 268 267 871 
3 389 372 390 
3 445 446 504 
3 260 259 705 
3 389 390 445 
3 402 403 753 
3 334 847 886 
3 823 612 1041 
3 727 530 919 
3 932 588 972 
3 621 504 691 
3 226 57 746 
3 445 390 446 
3 265 334 724 
3 492 396 596 
3 768 461 876 
3 282 281 702 
3 406 750 753 
3 525 416 526 
3 42 747 748 
3 370 368 530 
3 531 359 738 
3 505 504 621 
3 736 421 859 
3 908 689 957 
3 521 522 580 
3 595 736 859 
3 224 45 728 
3 498 590 908 
3 41 207 747 
3 864 484 894 
3 719 366 984 
3 582 580 674 
3 527 526 559 
3 259 416 525 
3 259 257 416 
3 335 871 897 
3 199 47 731 
3 326 773 1021 
3 700 556 701 
3 530 368 702 
3 601 797 960 
3 559 574 675 
3 521 520 522 
3 220 667 920 
3 406 749 750 
3 370 530 727 
3 710 732 733 
3 491 520 521 
3 525 526 527 
3 359 361 738 
3 534 761 848 
3 50 223 737 
3 562 560 658 
3 374 376 756 
3 615 949 976 
3 581 660 661 
3 580 522 581 
3 716 713 741 
3 265 263 334 
3 572 678 679 
3 527 559 560 
3 54 225 742 
3 225 676 1002 
3 713 711 741 
3 733 732 734 
3 761 301 848 
3 453 454 481 
3 373 372 389 
3 371 370 372 
3 267 265 724 
3 548 768 876 
3 316 762 763 
3 709 707 710 
3 376 402 756 
3 450 335 451 
3 705 525 847 
3 452 451 453 
3 207 40 725 
3 222 38 726 
3 222 829 1023 
3 534 760 761 
3 545 447 868 
3 521 580 582 
3 369 368 370 
3 596 396 730 
3 482 529 572 
3 770 771 774 
3 736 864 894 
3 746 744 838 
3 717 716 719 
3 251 249 523 
3 258 257 259 
3 396 375 730 
3 793 795 796 
3 320 279 721 
3 273 271 335 
3 279 277 721 
3 190 909 1010 
3 667 668 669 
3 797 601 965 
3 446 490 491 
3 57 56 746 
3 380 382 472 
3 244 556 700 
3 221 809 1031 
3 871 696 897 
3 281 279 320 
3 257 254 699 
3 203 43 748 
3 559 526 574 
3 263 260 705 
3 316 763 769 
3 707 706 732 
3 534 759 760 
3 44 203 728 
3 41 40 207 
3 37 36 208 
3 39 38 222 
3 256 254 257 
3 710 707 732 
3 715 713 716 
3 453 451 454 
3 481 454 482 
3 765 762 849 
3 709 710 711 
3 46 224 731 
3 624 545 706 
3 738 472 739 
3 624 706 707 
3 465 463 766 
3 273 335 450 
3 572 529 678 
3 445 504 505 
3 211 682 1006 
3 452 453 455 
3 846 565 915 
3 762 316 849 
3 407 410 749 
3 226 746 838 
3 491 519 520 
3 42 41 747 
3 222 726 1055 
3 264 263 265 
3 793 794 795 
3 44 43 203 
3 191 742 743 
3 406 407 749 
3 361 380 738 
3 197 51 737 
3 117 192 794 
3 450 451 452 
3 262 260 263 
3 266 265 267 
3 334 263 705 
3 504 446 697 
3 46 45 224 
3 367 285 368 
3 493 492 722 
3 655 201 1081 
3 794 192 795 
3 561 560 562 
3 788 789 790 
3 675 574 910 
3 191 55 742 
3 48 47 199 
3 416 257 699 
3 785 787 788 
3 634 493 722 
3 788 787 789 
3 878 576 891 
3 770 212 771 
3 246 244 700 
3 50 49 223 
3 228 770 774 
3 208 36 735 
3 468 465 766 
3 595 643 736 
3 581 659 660 
3 380 472 738 
3 596 831 902 
3 52 51 197 
3 40 39 725 
3 38 37 726 
3 534 342 759 
3 337 339 765 
3 273 450 852 
3 342 344 759 
3 54 53 225 
3 446 390 490 
3 753 752 754 
3 750 751 752 
3 485 595 859 
3 58 226 758 
3 785 786 787 
3 56 55 191 
3 749 614 750 
3 43 42 748 
3 715 716 717 
3 116 117 794 
3 450 589 852 
3 544 447 545 
3 45 44 728 
3 256 257 258 
3 511 468 512 
3 505 621 622 
3 744 743 745 
3 506 613 614 
3 750 614 751 
3 784 227 785 
3 47 46 731 
3 730 389 831 
3 498 546 590 
3 595 642 643 
3 832 564 851 
3 750 752 753 
3 258 259 260 
3 51 50 737 
3 339 441 765 
3 350 386 456 
3 270 268 271 
3 609 502 610 
3 754 752 755 
3 759 456 760 
3 271 268 871 
3 607 464 881 
3 380 381 382 
3 272 271 273 
3 309 311 769 
3 491 490 519 
3 337 765 849 
3 512 468 766 
3 336 359 531 
3 56 191 746 
3 623 545 624 
3 507 832 851 
3 55 54 742 
3 191 743 744 
3 278 277 279 
3 785 227 786 
3 59 758 767 
3 708 707 709 
3 410 506 749 
3 58 57 226 
3 344 350 759 
3 482 528 529 
3 249 246 700 
3 336 531 879 
3 340 534 848 
3 502 461 768 
3 734 252 930 
3 561 686 886 
3 382 400 401 
3 669 668 670 
3 311 316 769 
3 361 363 380 
3 506 563 613 
3 533 355 834 
3 115 116 792 
3 520 519 524 
3 506 614 749 
3 762 604 763 
3 276 274 277 
3 350 456 759 
3 485 593 595 
3 410 473 506 
3 59 58 758 
3 262 263 264 
3 532 603 604 
3 264 265 266 
3 532 604 762 
3 792 116 794 
3 248 246 249 
3 801 800 802 
3 202 122 816 
3 441 496 532 
3 350 385 386 
3 830 500 855 
3 610 768 912 
3 610 502 768 
3 244 204 556 
3 228 106 770 
3 625 735 928 
3 266 267 268 
3 122 123 816 
3 620 540 797 
3 786 792 793 
3 602 959 986 
3 518 568 962 
3 598 830 855 
3 395 878 891 
3 319 317 828 
3 357 355 533 
3 498 509 546 
3 415 396 492 
3 232 800 801 
3 205 804 805 
3 194 60 767 
3 60 59 767 
3 800 799 803 
3 532 496 603 
3 340 342 534 
3 546 628 629 
3 540 459 797 
3 393 478 498 
3 814 812 815 
3 441 532 765 
3 763 604 764 
3 218 811 812 
3 232 799 800 
3 544 545 623 
3 123 124 813 
3 107 212 770 
3 107 108 212 
3 461 365 876 
3 205 10 804 
3 506 473 563 
3 691 504 697 
3 651 649 652 
3 731 224 846 
3 535 429 862 
3 581 522 659 
3 644 620 690 
3 527 560 561 
3 103 213 820 
3 102 103 820 
3 123 813 816 
3 813 812 814 
3 807 809 810 
3 383 324 458 
3 218 806 811 
3 799 196 803 
3 193 113 784 
3 324 319 828 
3 672 670 692 
3 105 106 228 
3 568 663 757 
3 344 349 350 
3 669 670 671 
3 10 11 804 
3 807 810 811 
3 30 29 823 
3 210 30 823 
3 595 593 642 
3 213 104 783 
3 804 801 805 
3 28 209 824 
3 458 324 828 
3 106 107 770 
3 105 228 783 
3 559 675 934 
3 36 35 735 
3 823 29 824 
3 218 812 813 
3 124 218 813 
3 619 540 620 
3 763 764 900 
3 825 583 826 
3 112 113 193 
3 230 817 818 
3 114 227 784 
3 501 461 502 
3 114 115 227 
3 113 114 784 
3 608 502 609 
3 554 617 618 
3 671 670 672 
3 847 561 886 
3 806 807 811 
3 356 357 836 
3 25 24 827 
3 233 25 827 
3 104 105 783 
3 437 365 461 
3 29 28 824 
3 511 512 627 
3 807 808 809 
3 806 241 807 
3 807 241 808 
3 11 12 232 
3 240 69 798 
3 80 79 242 
3 126 241 806 
3 13 196 799 
3 70 69 240 
3 68 216 798 
3 61 194 819 
3 76 215 817 
3 78 77 230 
3 69 68 798 
3 68 67 216 
3 230 77 817 
3 126 127 241 
3 100 101 214 
3 103 104 213 
3 218 125 806 
3 65 64 201 
3 229 62 819 
3 63 62 229 
3 125 126 806 
3 124 125 218 
3 61 60 194 
3 62 61 819 
3 76 75 215 
3 97 98 220 
3 77 76 817 
3 74 73 239 
3 95 96 584 
3 121 122 202 
3 119 120 231 
3 118 119 821 
3 117 118 192 
3 13 14 196 
3 12 13 799 
3 119 231 821 
3 16 17 206 
3 192 118 821 
3 34 33 211 
3 28 27 209 
3 31 30 210 
3 6 7 221 
3 9 10 205 
3 27 26 822 
3 19 20 219 
3 26 25 233 
3 20 21 825 
3 21 22 583 
3 232 12 799 
3 209 27 822 
3 26 233 822 
3 219 20 825 
3 21 583 825 
3 448 449 833 
3 227 115 792 
3 339 440 441 
3 813 814 816 
3 651 652 653 
3 532 762 765 
3 414 398 835 
3 383 458 459 
3 946 647 1039 
3 554 618 835 
3 441 442 496 
3 232 801 804 
3 398 460 835 
3 591 592 635 
3 11 232 804 
3 386 385 393 
3 348 346 399 
3 448 397 449 
3 516 448 833 
3 367 368 369 
3 561 562 686 
3 277 274 852 
3 356 355 357 
3 460 553 554 
3 664 516 665 
3 507 601 602 
3 579 500 587 
3 495 444 500 
3 640 639 666 
3 354 352 355 
3 397 356 836 
3 591 579 592 
3 495 579 591 
3 399 346 858 
3 554 585 617 
3 457 429 535 
3 664 665 694 
3 655 653 656 
3 587 500 830 
3 434 432 435 
3 350 349 385 
3 394 476 477 
3 413 499 507 
3 619 620 644 
3 786 227 792 
3 495 500 579 
3 554 553 585 
3 793 792 794 
3 712 711 713 
3 638 538 639 
3 384 398 414 
3 460 516 553 
3 563 564 615 
3 553 516 664 
3 638 639 640 
3 380 363 381 
3 655 656 657 
3 626 508 641 
3 650 649 651 
3 443 435 444 
3 477 508 571 
3 507 602 832 
3 779 777 780 
3 431 433 537 
3 318 322 337 
3 494 444 495 
3 434 443 471 
3 603 496 775 
3 665 516 833 
3 460 448 516 
3 443 444 494 
3 436 388 474 
3 496 442 497 
3 469 555 631 
3 435 842 855 
3 441 440 442 
3 348 399 834 
3 648 576 649 
3 434 435 443 
3 577 493 634 
3 551 646 647 
3 377 375 396 
3 460 554 835 
3 433 432 434 
3 781 779 782 
3 537 538 636 
3 498 478 509 
3 775 497 776 
3 398 448 460 
3 477 476 508 
3 651 653 655 
3 496 497 775 
3 571 508 626 
3 497 442 844 
3 337 338 339 
3 323 319 324 
3 778 779 781 
3 121 202 856 
3 231 120 856 
3 449 397 836 
3 394 436 476 
3 354 355 356 
3 355 352 834 
3 311 315 316 
3 410 411 473 
3 457 535 536 
3 723 597 1073 
3 339 439 440 
3 546 509 628 
3 476 436 487 
3 537 433 538 
3 636 538 638 
3 539 459 540 
3 575 542 576 
3 428 426 429 
3 394 388 436 
3 611 535 880 
3 536 535 611 
3 331 388 394 
3 660 659 687 
3 325 324 383 
3 398 397 448 
3 776 777 778 
3 624 707 708 
3 457 536 598 
3 384 356 397 
3 354 356 384 
3 383 459 539 
3 384 397 398 
3 428 429 430 
3 778 777 779 
3 431 432 433 
3 430 429 457 
3 283 284 879 
3 842 598 855 
3 442 503 844 
3 776 497 777 
3 439 338 599 
3 313 310 314 
3 431 430 432 
3 305 307 340 
3 323 325 331 
3 551 540 619 
3 428 430 431 
3 323 324 325 
3 648 649 650 
3 435 432 842 
3 384 414 837 
3 191 744 746 
3 442 440 503 
3 331 325 388 
3 539 540 551 
3 353 352 354 
3 434 471 841 
3 551 619 646 
3 337 322 338 
3 641 508 839 
3 431 537 840 
3 339 338 439 
3 352 348 834 
3 439 599 600 
3 500 444 855 
3 322 319 323 
3 347 351 395 
3 507 499 601 
3 351 348 352 
3 780 777 844 
3 353 354 837 
3 754 755 936 
3 508 476 839 
3 639 538 841 
3 501 502 608 
3 451 335 897 
3 433 434 841 
3 413 507 851 
3 425 427 485 
3 476 487 839 
3 652 649 878 
3 437 461 501 
3 382 381 400 
3 536 611 612 
3 340 341 342 
3 474 388 845 
3 345 343 346 
3 575 576 648 
3 563 473 564 
3 354 384 837 
3 432 430 842 
3 407 409 410 
3 347 346 348 
3 593 486 594 
3 477 571 877 
3 318 319 322 
3 270 271 272 
3 351 352 353 
3 482 454 528 
3 272 273 274 
3 427 426 428 
3 538 433 841 
3 485 486 593 
3 777 497 844 
3 515 417 542 
3 342 343 344 
3 537 636 866 
3 714 713 715 
3 401 400 469 
3 347 348 351 
3 430 457 842 
3 311 313 315 
3 315 317 318 
3 383 539 845 
3 344 345 349 
3 318 337 849 
3 427 428 840 
3 485 427 486 
3 287 289 336 
3 828 317 850 
3 369 370 371 
3 318 317 319 
3 315 313 317 
3 325 383 845 
3 393 417 478 
3 306 304 308 
3 457 598 842 
3 302 304 305 
3 344 343 345 
3 340 307 341 
3 276 277 278 
3 388 325 845 
3 515 542 575 
3 515 575 680 
3 462 464 607 
3 311 310 313 
3 342 341 343 
3 428 431 840 
3 316 315 849 
3 450 452 589 
3 322 323 843 
3 473 411 851 
3 309 310 311 
3 323 331 843 
3 394 477 869 
3 341 307 541 
3 345 346 347 
3 480 517 518 
3 120 121 856 
3 298 296 299 
3 302 300 303 
3 309 308 310 
3 486 427 840 
3 305 306 307 
3 338 322 843 
3 306 308 309 
3 444 435 855 
3 599 338 843 
3 551 647 865 
3 845 539 865 
3 564 473 851 
3 313 314 850 
3 298 300 301 
3 305 304 306 
3 413 475 499 
3 474 845 865 
3 736 643 864 
3 843 331 869 
3 393 385 417 
3 466 479 480 
3 250 249 251 
3 489 423 510 
3 518 567 568 
3 284 287 879 
3 464 466 881 
3 411 412 413 
3 309 769 853 
3 280 279 281 
3 403 405 406 
3 475 412 488 
3 315 318 849 
3 302 303 304 
3 301 300 302 
3 599 843 869 
3 305 340 848 
3 298 299 300 
3 294 296 297 
3 317 313 850 
3 364 362 365 
3 425 426 427 
3 294 292 295 
3 478 417 515 
3 410 409 411 
3 628 509 630 
3 301 302 848 
3 568 662 663 
3 261 260 262 
3 411 413 851 
3 253 251 254 
3 543 447 544 
3 301 761 884 
3 524 681 685 
3 255 254 256 
3 335 271 871 
3 413 412 475 
3 645 616 682 
3 499 475 514 
3 676 570 677 
3 830 598 873 
3 387 365 437 
3 840 537 866 
3 424 423 489 
3 297 296 298 
3 336 358 359 
3 573 510 616 
3 347 395 854 
3 422 424 425 
3 501 608 689 
3 411 409 412 
3 422 420 423 
3 731 846 915 
3 515 680 867 
3 306 309 853 
3 486 840 866 
3 594 486 866 
3 302 305 848 
3 349 345 854 
3 385 349 857 
3 539 551 865 
3 371 372 373 
3 290 292 293 
3 294 295 296 
3 274 273 852 
3 573 616 645 
3 709 711 712 
3 598 536 873 
3 529 528 586 
3 419 391 447 
3 345 347 854 
3 611 880 896 
3 392 420 421 
3 307 306 853 
3 290 288 291 
3 422 423 424 
3 489 510 573 
3 429 426 862 
3 425 424 426 
3 576 542 891 
3 569 483 570 
3 542 417 857 
3 346 343 858 
3 658 560 934 
3 364 387 418 
3 329 327 333 
3 331 394 869 
3 293 292 294 
3 610 912 924 
3 359 360 361 
3 376 378 402 
3 290 291 292 
3 361 362 363 
3 527 561 847 
3 541 307 853 
3 421 736 894 
3 654 214 1038 
3 84 181 190 
3 343 341 858 
3 387 437 438 
3 708 709 829 
3 336 289 358 
3 341 541 858 
3 425 485 859 
3 85 182 235 
3 364 365 387 
3 360 358 548 
3 525 527 847 
3 349 854 857 
3 406 405 407 
3 417 385 857 
3 509 478 867 
3 363 362 364 
3 426 424 862 
3 470 468 511 
3 478 515 867 
3 86 183 195 
3 421 422 859 
3 631 555 632 
3 424 489 862 
3 361 360 362 
3 289 288 290 
3 931 603 935 
3 415 492 493 
3 535 862 880 
3 869 477 877 
3 87 184 234 
3 467 465 468 
3 536 612 873 
3 407 408 409 
3 269 268 270 
3 421 420 422 
3 900 764 905 
3 402 378 403 
3 524 519 681 
3 488 412 861 
3 407 405 408 
3 409 408 861 
3 359 358 360 
3 735 35 928 
3 88 185 198 
3 649 576 878 
3 286 285 367 
3 330 392 894 
3 377 396 415 
3 630 509 867 
3 412 409 861 
3 600 599 877 
3 381 363 860 
3 298 301 884 
3 469 483 555 
3 452 455 893 
3 329 333 868 
3 569 570 676 
3 422 425 859 
3 709 712 829 
3 420 419 883 
3 419 447 543 
3 389 445 831 
3 652 878 898 
3 392 419 420 
3 283 740 904 
3 89 186 236 
3 569 676 720 
3 374 373 375 
3 599 869 877 
3 469 400 483 
3 221 7 901 
3 275 274 276 
3 364 418 860 
3 543 544 863 
3 544 623 625 
3 363 364 860 
3 510 423 883 
3 284 282 285 
3 466 480 881 
3 90 187 200 
3 715 717 718 
3 91 188 237 
3 189 91 872 
3 287 336 879 
3 82 189 204 
3 557 312 558 
3 278 279 280 
3 290 293 870 
3 403 378 404 
3 287 288 289 
3 489 573 880 
3 712 713 714 
3 395 351 898 
3 555 483 569 
3 297 298 884 
3 419 543 883 
3 289 290 870 
3 653 652 907 
3 423 420 883 
3 447 391 868 
3 365 362 876 
3 284 286 287 
3 480 479 517 
3 258 260 261 
3 403 404 405 
3 374 375 376 
3 589 452 893 
3 266 268 269 
3 656 653 911 
3 392 391 419 
3 287 286 288 
3 462 607 887 
3 418 387 875 
3 862 489 880 
3 518 517 567 
3 484 330 894 
3 590 546 922 
3 358 289 870 
3 387 438 875 
3 272 274 275 
3 616 510 899 
3 568 567 662 
3 360 548 876 
3 376 375 377 
3 470 511 513 
3 275 312 550 
3 284 285 286 
3 362 360 876 
3 393 498 908 
3 376 377 378 
3 548 358 870 
3 253 254 255 
3 656 911 917 
3 255 256 366 
3 467 468 470 
3 250 251 253 
3 247 246 248 
3 261 262 321 
3 570 483 885 
3 878 395 898 
3 330 391 392 
3 544 625 863 
3 248 249 250 
3 367 369 547 
3 470 513 566 
3 880 573 896 
3 276 278 874 
3 275 276 312 
3 286 367 882 
3 391 329 868 
3 528 454 897 
3 557 558 588 
3 454 451 897 
3 400 381 885 
3 566 633 673 
3 291 288 882 
3 415 493 549 
3 623 624 906 
3 586 528 696 
3 924 297 937 
3 566 513 633 
3 330 329 391 
3 854 395 891 
3 280 281 282 
3 549 493 577 
3 917 618 921 
3 269 270 379 
3 382 401 932 
3 517 479 565 
3 577 634 637 
3 857 854 891 
3 490 727 919 
3 328 330 484 
3 399 905 926 
3 288 286 882 
3 653 907 911 
3 550 312 557 
3 367 547 882 
3 269 379 462 
3 549 577 578 
3 464 465 466 
3 381 860 885 
3 663 662 1034 
3 466 467 479 
3 374 756 903 
3 351 353 898 
3 573 645 896 
3 720 197 938 
3 483 400 885 
3 283 282 284 
3 462 463 464 
3 835 618 917 
3 779 780 914 
3 466 465 467 
3 392 421 894 
3 652 898 907 
3 542 857 891 
3 97 220 920 
3 584 96 920 
3 253 255 332 
3 464 463 465 
3 533 834 926 
3 261 321 552 
3 558 312 874 
3 745 929 1053 
3 280 282 283 
3 34 211 928 
3 245 244 246 
3 312 276 874 
3 399 858 905 
3 371 373 374 
3 541 853 900 
3 462 379 463 
3 264 266 887 
3 328 329 330 
3 552 321 605 
3 552 605 606 
3 810 809 963 
3 853 769 900 
3 696 528 897 
3 256 258 888 
3 366 256 888 
3 677 570 913 
3 7 8 901 
3 404 378 892 
3 270 272 889 
3 769 763 900 
3 91 237 872 
3 204 189 872 
3 328 327 329 
3 445 505 831 
3 905 764 926 
3 438 437 918 
3 378 377 892 
3 199 731 915 
3 883 543 899 
3 604 603 931 
3 898 353 907 
3 815 812 933 
3 501 689 918 
3 379 270 889 
3 811 810 933 
3 510 883 899 
3 377 415 892 
3 258 261 888 
3 266 269 887 
3 294 297 924 
3 760 456 953 
3 543 863 899 
3 456 386 957 
3 275 550 889 
3 272 275 889 
3 181 83 909 
3 415 549 892 
3 467 470 895 
3 247 248 252 
3 470 566 895 
3 519 490 919 
3 711 710 951 
3 565 479 895 
3 556 204 872 
3 479 467 895 
3 353 837 907 
3 766 463 923 
3 541 900 905 
3 858 541 905 
3 624 708 906 
3 761 760 950 
3 269 462 887 
3 740 739 956 
3 386 393 908 
3 874 278 904 
3 903 756 936 
3 768 548 912 
3 547 369 903 
3 261 552 888 
3 547 903 936 
3 321 262 927 
3 570 885 913 
3 885 860 913 
3 278 280 904 
3 326 327 328 
3 907 837 911 
3 837 414 911 
3 505 622 902 
3 321 927 945 
3 656 917 921 
3 572 679 958 
3 533 931 935 
3 190 181 909 
3 911 414 917 
3 371 374 903 
3 782 779 914 
3 932 401 991 
3 326 252 327 
3 247 252 326 
3 379 889 923 
3 90 200 925 
3 237 188 925 
3 414 835 917 
3 953 456 957 
3 610 924 937 
3 437 501 918 
3 870 293 912 
3 369 371 903 
3 188 90 925 
3 245 246 247 
3 96 97 920 
3 860 418 913 
3 280 283 904 
3 569 720 938 
3 553 664 948 
3 548 870 912 
3 657 656 921 
3 936 755 940 
3 632 555 938 
3 889 550 923 
3 512 766 947 
3 546 629 922 
3 310 308 949 
3 887 607 927 
3 912 293 924 
3 264 887 927 
3 681 519 919 
3 627 512 955 
3 293 294 924 
3 834 399 926 
3 262 264 927 
3 1024 238 1037 
3 739 472 972 
3 693 190 1010 
3 474 865 946 
3 533 926 931 
3 480 518 954 
3 252 248 930 
3 89 236 942 
3 35 34 928 
3 83 180 238 
3 200 187 942 
3 609 610 937 
3 603 775 935 
3 560 559 934 
3 966 751 969 
3 950 760 953 
3 463 379 923 
3 472 382 932 
3 717 1019 1029 
3 831 505 902 
3 764 604 931 
3 935 775 939 
3 828 850 959 
3 243 204 244 
3 248 250 930 
3 18 694 995 
3 812 811 933 
3 637 634 981 
3 797 459 960 
3 775 776 939 
3 291 940 961 
3 752 751 966 
3 756 754 936 
3 357 533 935 
3 253 332 943 
3 939 776 941 
3 291 882 940 
3 927 607 945 
3 643 642 1015 
3 401 469 967 
3 776 778 941 
3 357 935 939 
3 88 198 952 
3 295 292 961 
3 941 778 944 
3 215 75 968 
3 74 239 968 
3 236 186 952 
3 836 357 939 
3 614 613 971 
3 693 691 998 
3 555 569 938 
3 601 499 965 
3 971 613 973 
3 956 739 972 
3 187 89 942 
3 778 781 944 
3 9 205 970 
3 243 244 245 
3 836 939 941 
3 297 884 937 
3 926 764 931 
3 684 723 1037 
3 992 230 1066 
3 299 296 969 
3 875 745 990 
3 512 947 955 
3 449 836 941 
3 449 941 944 
3 940 755 961 
3 514 796 1046 
3 723 1024 1037 
3 833 449 944 
3 922 629 929 
3 563 615 974 
3 607 881 945 
3 704 703 958 
3 605 321 945 
3 680 194 1033 
3 110 111 981 
3 24 23 977 
3 71 70 978 
3 73 72 979 
3 303 300 973 
3 766 923 947 
3 882 547 940 
3 865 647 946 
3 83 238 909 
3 830 873 975 
3 250 253 943 
3 82 204 243 
3 48 199 988 
3 901 8 970 
3 223 49 988 
3 930 250 943 
3 308 304 976 
3 923 550 947 
3 303 973 974 
3 582 674 998 
3 974 615 976 
3 332 255 964 
3 585 553 948 
3 299 969 971 
3 605 945 954 
3 981 111 1068 
3 295 961 966 
3 710 733 951 
3 314 310 949 
3 615 564 983 
3 550 557 947 
3 789 408 1035 
3 87 234 980 
3 198 185 980 
3 314 983 986 
3 609 937 950 
3 874 904 956 
3 945 881 954 
3 714 715 987 
3 186 88 952 
3 817 215 989 
3 662 567 1012 
3 547 936 940 
3 190 693 1005 
3 703 572 958 
3 884 761 950 
3 552 606 984 
3 937 884 950 
3 597 902 1073 
3 608 609 953 
3 674 580 997 
3 904 740 956 
3 609 950 953 
3 947 557 955 
3 471 692 1072 
3 850 314 986 
3 621 693 1010 
3 608 953 957 
3 581 661 997 
3 981 634 1051 
3 242 79 992 
3 78 230 992 
3 795 192 994 
3 689 608 957 
3 458 959 960 
3 458 828 959 
3 954 518 962 
3 557 588 955 
3 881 480 954 
3 295 966 969 
3 99 100 993 
3 229 819 1028 
3 459 458 960 
3 418 875 990 
3 558 874 956 
3 641 839 963 
3 366 888 984 
3 292 291 961 
3 793 796 1000 
3 755 752 966 
3 17 18 995 
3 255 366 964 
3 499 514 965 
3 782 914 1065 
3 606 605 962 
3 469 631 967 
3 949 615 983 
3 970 205 1044 
3 558 956 972 
3 75 74 968 
3 787 786 1000 
3 846 224 1012 
3 725 222 1023 
3 239 979 1063 
3 682 616 1006 
3 747 207 987 
3 296 295 969 
3 299 971 973 
3 743 742 1002 
3 217 110 981 
3 8 9 970 
3 782 1065 1079 
3 314 949 983 
3 751 614 971 
3 86 195 996 
3 234 184 996 
3 642 593 1003 
3 961 755 966 
3 877 571 999 
3 511 627 1004 
3 201 64 1008 
3 63 229 1008 
3 300 299 973 
3 228 774 1015 
3 637 981 1068 
3 85 235 1001 
3 790 789 1035 
3 195 183 1001 
3 588 558 972 
3 613 563 974 
3 969 751 971 
3 791 578 1027 
3 635 992 1066 
3 973 613 974 
3 587 830 975 
3 495 591 1013 
3 827 24 977 
3 70 240 978 
3 239 73 979 
3 303 974 976 
3 185 87 980 
3 304 303 976 
3 66 65 1014 
3 84 190 1005 
3 235 182 1005 
3 677 913 990 
3 820 213 1003 
3 592 579 1016 
3 605 954 962 
3 631 632 1009 
3 717 719 1019 
3 668 666 1020 
3 983 832 986 
3 564 832 983 
3 989 215 1069 
3 1004 631 1009 
3 212 108 1043 
3 584 920 985 
3 667 669 985 
3 666 639 1020 
3 549 578 1017 
3 832 602 986 
3 612 824 1047 
3 841 471 1020 
3 197 720 1050 
3 715 718 987 
3 888 552 984 
3 899 863 1006 
3 503 440 1026 
3 439 600 1026 
3 680 575 1028 
3 193 791 1027 
3 626 970 1044 
3 49 48 988 
3 6 221 1031 
3 920 667 985 
3 744 745 1053 
3 619 644 1032 
3 202 816 1039 
3 31 210 1036 
3 102 820 1038 
3 896 210 1041 
3 743 1002 1077 
3 214 101 1038 
3 217 981 1051 
3 827 977 1018 
3 474 946 1057 
3 612 611 1041 
3 67 66 1040 
3 712 714 1023 
3 404 892 1017 
3 774 771 1011 
3 802 800 1042 
3 627 967 1004 
3 52 197 1050 
3 818 817 989 
3 225 53 1050 
3 578 577 1027 
3 655 657 1014 
3 405 404 1035 
3 810 963 1062 
3 226 838 1048 
3 735 625 1049 
3 645 682 1036 
3 638 640 993 
3 245 247 1021 
3 691 582 998 
3 747 987 1064 
3 805 801 1056 
3 622 1024 1073 
3 967 631 1004 
3 98 99 1054 
3 625 623 1049 
3 3 80 1058 
3 23 3 1058 
3 127 0 1059 
3 0 4 1059 
3 72 1 1060 
3 1 95 1060 
3 2 71 1061 
3 22 2 1061 
3 808 241 1059 
3 112 193 1068 
3 921 618 1030 
3 566 673 1045 
3 487 436 1057 
3 651 655 1081 
3 16 206 1079 
3 196 14 1065 
3 692 670 1072 
3 861 789 1067 
3 627 955 991 
3 946 815 1057 
3 844 503 1075 
3 987 718 1064 
3 79 78 992 
3 914 196 1065 
3 669 671 1063 
3 565 846 1076 
3 1019 757 1029 
3 984 606 1019 
3 100 214 993 
3 588 932 991 
3 906 708 1055 
3 571 626 1044 
3 192 821 994 
3 517 565 1076 
3 913 418 990 
3 789 787 1067 
3 672 989 1069 
3 798 216 1030 
3 565 895 1045 
3 915 565 1045 
3 206 17 995 
3 683 684 1037 
3 184 86 996 
3 580 581 997 
3 771 773 1011 
3 955 588 991 
3 873 612 1047 
3 742 225 1002 
3 786 793 1000 
3 795 994 1046 
3 183 85 1001 
3 692 494 1025 
3 600 877 999 
3 863 625 1071 
3 963 839 1062 
3 676 677 1002 
3 593 594 1003 
3 737 223 1007 
3 513 511 1004 
3 773 772 1021 
3 767 630 1033 
3 625 928 1071 
3 977 242 1018 
3 182 84 1005 
3 616 899 1006 
3 224 728 1012 
3 1002 677 1077 
3 513 1004 1009 
3 64 63 1008 
3 719 984 1019 
3 81 683 1078 
3 622 621 1010 
3 718 717 1029 
3 484 864 1011 
3 585 826 1022 
3 633 513 1009 
3 201 1008 1081 
3 494 495 1013 
3 197 737 1070 
3 867 680 1033 
3 630 867 1033 
3 999 805 1056 
3 65 201 1014 
3 783 228 1015 
3 579 587 1016 
3 796 795 1046 
3 591 635 1066 
3 672 692 1025 
3 808 5 1031 
3 892 549 1017 
3 606 757 1019 
3 210 823 1041 
3 635 592 1018 
3 938 197 1070 
3 639 841 1020 
3 231 856 1032 
3 722 684 1051 
3 856 646 1032 
3 690 514 1046 
3 180 81 1078 
3 503 1042 1075 
3 617 585 1022 
3 829 712 1023 
3 247 326 1021 
3 440 439 1026 
3 575 648 1028 
3 629 838 1053 
3 1007 223 1052 
3 846 1012 1076 
3 757 663 1029 
3 994 690 1046 
3 577 637 1027 
3 618 617 1030 
3 809 808 1031 
3 5 6 1031 
3 909 238 1024 
3 646 619 1032 
3 194 767 1033 
3 203 748 1034 
3 975 873 1047 
3 223 988 1052 
3 929 629 1053 
3 1020 471 1072 
3 32 31 1036 
3 408 405 1035 
3 101 102 1038 
3 787 1000 1067 
3 816 814 1039 
3 216 67 1040 
3 772 212 1043 
3 933 810 1062 
3 800 803 1042 
3 1034 748 1064 
3 611 896 1041 
3 208 735 1049 
3 205 805 1044 
3 634 722 1051 
3 1008 650 1081 
3 977 23 1058 
3 71 978 1061 
3 979 72 1060 
3 838 744 1053 
3 487 933 1062 
3 1006 863 1071 
3 202 1039 1080 
3 758 226 1048 
3 906 208 1049 
3 684 217 1051 
3 895 566 1045 
3 494 1013 1025 
3 824 209 1047 
3 53 52 1050 
3 215 968 1069 
3 748 747 1064 
3 623 906 1049 
3 989 672 1025 
3 1034 1064 1074 
3 801 802 1056 
3 220 98 1054 
3 673 633 1052 
3 80 242 1058 
3 241 127 1059 
3 95 584 1060 
3 583 22 1061 
3 436 474 1057 
3 745 743 1077 
3 708 829 1055 
3 209 975 1047 
3 839 487 1062 
3 1024 723 1073 
3 14 15 1065 
3 230 818 1066 
3 111 112 1068 
3 928 211 1071 
3 671 672 1069 
3 488 861 1067 
3 670 668 1072 
3 988 673 1052 
3 1065 15 1079 
3 238 180 1078 
3 600 999 1056 
3 780 844 1075 
3 15 16 1079 
3 632 938 1070 
3 803 196 1082 
3 914 780 1082 
3 647 646 1080 
3 650 651 1081 
3 567 517 1076 
3 902 622 1073 
3 242 977 1058 
3 978 583 1061 
3 584 979 1060 
3 968 671 1069 
3 1075 803 1082 
3 780 1075 1082 
3 196 914 1082 
3 677 990 1077 
3 1000 488 1067 
3 1012 567 1076 
3 985 669 1063 
3 211 1006 1071 
3 990 745 1077 
3 668 1020 1072 
3 718 1029 1074 
3 1007 632 1070 
3 737 1007 1070 
3 1037 238 1078 
3 1029 663 1074 
3 663 1034 1074 
3 1039 647 1080 
3 1042 803 1075 
3 683 1037 1078 
3 1064 718 1074 
3 145 146 147 
3 148 145 147 
3 144 145 148 
3 149 144 148 
3 143 144 149 
3 150 143 149 
3 142 143 150 
3 151 142 150 
3 141 142 151 
3 152 141 151 
3 140 141 152 
3 153 140 152 
3 139 140 153 
3 139 153 154 
3 138 139 154 
3 129 90 1083 
3 155 138 154 
3 90 129 163 
3 138 155 137 
3 155 156 137 
3 137 156 136 
3 156 157 136 
3 157 135 136 
3 135 157 158 
3 128 129 1083 
3 135 158 134 
3 158 159 134 
3 159 133 134 
3 159 160 133 
3 160 132 133 
3 161 132 160 
3 132 161 131 
3 131 161 162 
3 130 162 163 
3 130 131 162 
3 90 187 1083 
3 129 130 163 
3 187 128 1083 
3 92 93 1084 
3 147 146 1084 
3 93 147 1084 
3 146 92 1084 
3 89 128 187 
3 178 179 147 
3 148 178 147 
3 177 178 148 
3 149 177 148 
3 176 177 149 
3 150 176 149 
3 175 176 150 
3 151 175 150 
3 174 175 151 
3 152 174 151 
3 173 174 152 
3 153 173 152 
3 172 173 153 
3 91 162 1085 
3 172 153 154 
3 171 172 154 
3 162 163 1085 
3 155 171 154 
3 171 155 170 
3 162 91 164 
3 155 156 170 
3 156 169 170 
3 156 157 169 
3 157 168 169 
3 157 158 168 
3 188 91 1085 
3 158 167 168 
3 158 159 167 
3 159 160 166 
3 159 166 167 
3 160 161 165 
3 160 165 166 
3 161 162 164 
3 161 164 165 
3 163 188 1085 
3 94 93 1086 
3 147 179 1086 
3 93 147 1086 
3 179 94 1086 
3 90 188 163 
3 178 179 95 
3 178 95 96 
3 177 178 96 
3 177 96 97 
3 176 177 97 
3 176 97 98 
3 175 176 98 
3 175 98 99 
3 174 175 99 
3 174 99 100 
3 173 174 100 
3 173 100 101 
3 165 82 1087 
3 172 173 101 
3 108 82 165 
3 172 101 102 
3 171 172 102 
3 103 171 102 
3 170 171 103 
3 104 170 103 
3 169 170 104 
3 169 104 105 
3 164 165 1087 
3 169 105 168 
3 105 106 168 
3 106 167 168 
3 106 107 167 
3 107 108 166 
3 167 107 166 
3 166 108 165 
3 82 189 1087 
3 189 164 1087 
3 94 1 1088 
3 95 179 1088 
3 1 95 1088 
3 179 94 1088 
3 189 91 164 

CELL_TYPES 2039
5
5
5
5
5
5
5
5
5
5
5
5
5
5
5
5
5
5
5
5
5
5
5
5
5
5
5
5
5
5
5
5
5
5
5
5
5
5
5
5
5
5
5
5
5
5
5
5
5
5
5
5
5
5
5
5
5
5
5
5
5
5
5
5
5
5
5
5
5
5
5
5
5
5
5
5
5
5
5
5
5
5
5
5
5
5
5
5
5
5
5
5
5
5
5
5
5
5
5
5
5
5
5
5
5
5
5
5
5
5
5
5
5
5
5
5
5
5
5
5
5
5
5
5
5
5
5
5
5
5
5
5
5
5
5
5
5
5
5
5
5
5
5
5
5
5
5
5
5
5
5
5
5
5
5
5
5
5
5
5
5
5
5
5
5
5
5
5
5
5
5
5
5
5
5
5
5
5
5
5
5
5
5
5
5
5
5
5
5
5
5
5
5
5
5
5
5
5
5
5
5
5
5
5
5
5
5
5
5
5
5
5
5
5
5
5
5
5
5
5
5
5
5
5
5
5
5
5
5
5
5
5
5
5
5
5
5
5
5
5
5
5
5
5
5
5
5
5
5
5
5
5
5
5
5
5
5
5
5
5
5
5
5
5
5
5
5
5
5
5
5
5
5
5
5
5
5
5
5
5
5
5
5
5
5
5
5
5
5
5
5
5
5
5
5
5
5
5
5
5
5
5
5
5
5
5
5
5
5
5
5
5
5
5
5
5
5
5
5
5
5
5
5
5
5
5
5
5
5
5
5
5
5
5
5
5
5
5
5
5
5
5
5
5
5
5
5
5
5
5
5
5
5
5
5
5
5
5
5
5
5
5
5
5
5
5
5
5
5
5
5
5
5
5
5
5
5
5
5
5
5
5
5
5
5
5
5
5
5
5
5
5
5
5
5
5
5
5
5
5
5
5
5
5
5
5
5
5
5
5
5
5
5
5
5
5
5
5
5
5
5
5
5
5
5
5
5
5
5
5
5
5
5
5
5
5
5
5
5
5
5
5
5
5
5
5
5
5
5
5
5
5
5
5
5
5
5
5
5
5
5
5
5
5
5
5
5
5
5
5
5
5
5
5
5
5
5
5
5
5
5
5
5
5
5
5
5
5
5
5
5
5
5
5
5
5
5
5
5
5
5
5
5
5
5
5
5
5
5
5
5
5
5
5
5
5
5
5
5
5
5
5
5
5
5
5
5
5
5
5
5
5
5
5
5
5
5
5
5
5
5
5
5
5
5
5
5
5
5
5
5
5
5
5
5
5
5
5
5
5
5
5
5
5
5
5
5
5
5
5
5
5
5
5
5
5
5
5
5
5
5
5
5
5
5
5
5
5
5
5
5
5
5
5
5
5
5
5
5
5
5
5
5
5
5
5
5
5
5
5
5
5
5
5
5
5
5
5
5
5
5
5
5
5
5
5
5
5
5
5
5
5
5
5
5
5
5
5
5
5
5
5
5
5
5
5
5
5
5
5
5
5
5
5
5
5
5
5
5
5
5
5
5
5
5
5
5
5
5
5
5
5
5
5
5
5
5
5
5
5
5
5
5
5
5
5
5
5
5
5
5
5
5
5
5
5
5
5
5
5
5
5
5
5
5
5
5
5
5
5
5
5
5
5
5
5
5
5
5
5
5
5
5
5
5
5
5
5
5
5
5
5
5
5
5
5
5
5
5
5
5
5
5
5
5
5
5
5
5
5
5
5
5
5
5
5
5
5
5
5
5
5
5
5
5
5
5
5
5
5
5
5
5
5
5
5
5
5
5
5
5
5
5
5
5
5
5
5
5
5
5
5
5
5
5
5
5
5
5
5
5
5
5
5
5
5
5
5
5
5
5
5
5
5
5
5
5
5
5
5
5
5
5
5
5
5
5
5
5
5
5
5
5
5
5
5
5
5
5
5
5
5
5
5
5
5
5
5
5
5
5
5
5
5
5
5
5
5
5
5
5
5
5
5
5
5
5
5
5
5
5
5
5
5
5
5
5
5
5
5
5
5
5
5
5
5
5
5
5
5
5
5
5
5
5
5
5
5
5
5
5
5
5
5
5
5
5
5
5
5
5
5
5
5
5
5
5
5
5
5
5
5
5
5
5
5
5
5
5
5
5
5
5
5
5
5
5
5
5
5
5
5
5
5
5
5
5
5
5
5
5
5
5
5
5
5
5
5
5
5
5
5
5
5
5
5
5
5
5
5
5
5
5
5
5
5
5
5
5
5
5
5
5
5
5
5
5
5
5
5
5
5
5
5
5
5
5
5
5
5
5
5
5
5
5
5
5
5
5
5
5
5
5
5
5
5
5
5
5
5
5
5
5
5
5
5
5
5
5
5
5
5
5
5
5
5
5
5
5
5
5
5
5
5
5
5
5
5
5
5
5
5
5
5
5
5
5
5
5
5
5
5
5
5
5
5
5
5
5
5
5
5
5
5
5
5
5
5
5
5
5
5
5
5
5
5
5
5
5
5
5
5
5
5
5
5
5
5
5
5
5
5
5
5
5
5
5
5
5
5
5
5
5
5
5
5
5
5
5
5
5
5
5
5
5
5
5
5
5
5
5
5
5
5
5
5
5
5
5
5
5
5
5
5
5
5
5
5
5
5
5
5
5
5
5
5
5
5
5
5
5
5
5
5
5
5
5
5
5
5
5
5
5
5
5
5
5
5
5
5
5
5
5
5
5
5
5
5
5
5
5
5
5
5
5
5
5
5
5
5
5
5
5
5
5
5
5
5
5
5
5
5
5
5
5
5
5
5
5
5
5
5
5
5
5
5
5
5
5
5
5
5
5
5
5
5
5
5
5
5
5
5
5
5
5
5
5
5
5
5
5
5
5
5
5
5
5
5
5
5
5
5
5
5
5
5
5
5
5
5
5
5
5
5
5
5
5
5
5
5
5
5
5
5
5
5
5
5
5
5
5
5
5
5
5
5
5
5
5
5
5
5
5
5
5
5
5
5
5
5
5
5
5
5
5
5
5
5
5
5
5
5
5
5
5
5
5
5
5
5
5
5
5
5
5
5
5
5
5
5
5
5
5
5
5
5
5
5
5
5
5
5
5
5
5
5
5
5
5
5
5
5
5
5
5
5
5
5
5
5
5
5
5
5
5
5
5
5
5
5
5
5
5
5
5
5
5
5
5
5
5
5
5
5
5
5
5
5
5
5
5
5
5
5
5
5
5
5
5
5
5
5
5
5
5
5
5
5
5
5
5
5
5
5
5
5
5
5
5
5
5
5
5
5
5
5
5
5
5
5
5
5
5
5
5
5
5
5
5
5
5
5
5
5
5
5
5
5
5
5
5
5
5
5
5
5
5
5
5
5
5
5
5
5
5
5
5
5
5
5
5
5
5
5
5
5
5
5
5
5
5
5
5
5
5
5
5
5
5
5
5
5
5
5
5
5
5
5
5
5
5
5
5
5
5
5
5
5
5
5
5
5
5
5
5
5
5
5
5
5
5
5
5
5
5
5
5
5
5
5
5
5
5
5
5
5
5
5
5
5
5
5
5
5
5
5
5
5
5
5
5
5
5
5
5
5
5
5
5
5
5
5
5
5
5
5
5
5
5
5
5
5
5
5
5
5
5
5
5
5
5
5
5
5
5
5
5
5
5
5
5
5
5
5
5
5
5
5
5
5
5
5
5
5
5
5
5
5
5
5
5
5
5
5
5
5
5
5
5
5
5
5
5
5
5
5
5
5
5
5
5
5
5
5
5
5
5
5
5
5
5
5
5
5
5
5
5
5
5
5
5
5
5
5
5
5
5
5
5
5
5
5
5
5
5
5
5
5
5
5
5
5
5
5
5
5
5
5
5
5
5
5
5
5
5
5
5
5
5
5
5
5
5
5
5
5
5
5
5
5
5
5
5
5
5
5
5
5
5
5
5
5
5
5
5
5
5
5
5
5
5
5
5
5
5
5
5
5
5
5
5
5
5
5
5
5
5
5
5
5
5
5
5
5
5
5
5
5
5
5
5
5
5
5
5
5
5
5
5
5
5
5
5
5
5
5
5
5
5
5
5
5
5
5
5
5
5
5
5
5
5
5
5
5
5
5
5
5
5
5
5
5
5
5
5
5
5
5
5
5
5
5
5
5
5
5
5
5
5
5
5
5
5
5
5
5
5
5
5
5
5
5
5
5
5
5
5
5
5
5
5
5
5
5
5
5
5
5
5
5
5
5
5
5
5
5
5
5
5
5
5
5
5
5
5
5
5
5
5
5
5
5
5
5
5
5
5
5
5
5
5
5
5
5
5
5
5
5
5
5
5
5
5
5
5
5
5
5
5
5
5
5
5
5
5
5
5
5
5
5
5
5
5
5
5
5
5
5
5
5
5
5
5
5
5
5
5
5
5
5
5
5
5
5
5
5
5
5
5
5
5
5
5
5
5
5
5
5
5
5
5
5
5
5
5
5
5
5
5
5
5
5
5
5
5
5
5
5
5
5
5
5
5
5
5
5
5
5
5
5
5
5
5
5
5
5
5
5
5
5
5
5
5
5
5
5
5
5
5
5
5
5
5
5
5
5
5
5
5
5
5
5
5
5
5
5
5
5
5
5
5
5
5
5
5
5
5
5
5
5
5
5
5
5
5
5
5
5
5

POINT_DATA 1089

VECTORS coord float
0.0 0.0 0.0 
5.000000000000e+01 -1.000000000000e+01 0.0 
0.0 -2.000000000000e+01 0.0 
5.000000000000e+01 -2.000000000000e+01 0.0 
0.0 -9.999999999991e-01 0.0 
0.0 -1.999999999998e+00 0.0 
0.0 -2.999999999997e+00 0.0 
0.0 -3.999999999994e+00 0.0 
0.0 -4.999999999991e+00 0.0 
0.0 -5.999999999988e+00 0.0 
0.0 -6.999999999985e+00 0.0 
0.0 -7.999999999982e+00 0.0 
0.0 -8.999999999983e+00 0.0 
0.0 -9.999999999985e+00 0.0 
0.0 -1.099999999999e+01 0.0 
0.0 -1.199999999999e+01 0.0 
0.0 -1.299999999999e+01 0.0 
0.0 -1.399999999999e+01 0.0 
0.0 -1.499999999999e+01 0.0 
0.0 -1.599999999999e+01 0.0 
0.0 -1.700000000000e+01 0.0 
0.0 -1.800000000000e+01 0.0 
0.0 -1.900000000000e+01 0.0 
4.900000000001e+01 -2.000000000000e+01 0.0 
4.800000000001e+01 -2.000000000000e+01 0.0 
4.700000000002e+01 -2.000000000000e+01 0.0 
4.600000000003e+01 -2.000000000000e+01 0.0 
4.500000000004e+01 -2.000000000000e+01 0.0 
4.400000000004e+01 -2.000000000000e+01 0.0 
4.300000000005e+01 -2.000000000000e+01 0.0 
4.200000000006e+01 -2.000000000000e+01 0.0 
4.100000000006e+01 -2.000000000000e+01 0.0 
4.000000000007e+01 -2.000000000000e+01 0.0 
3.900000000008e+01 -2.000000000000e+01 0.0 
3.800000000009e+01 -2.000000000000e+01 0.0 
3.700000000009e+01 -2.000000000000e+01 0.0 
3.600000000010e+01 -2.000000000000e+01 0.0 
3.500000000011e+01 -2.000000000000e+01 0.0 
3.400000000011e+01 -2.000000000000e+01 0.0 
3.300000000012e+01 -2.000000000000e+01 0.0 
3.200000000013e+01 -2.000000000000e+01 0.0 
3.100000000013e+01 -2.000000000000e+01 0.0 
3.000000000013e+01 -2.000000000000e+01 0.0 
2.900000000013e+01 -2.000000000000e+01 0.0 
2.800000000013e+01 -2.000000000000e+01 0.0 
2.700000000013e+01 -2.000000000000e+01 0.0 
2.600000000013e+01 -2.000000000000e+01 0.0 
2.500000000013e+01 -2.000000000000e+01 0.0 
2.400000000013e+01 -2.000000000000e+01 0.0 
2.300000000013e+01 -2.000000000000e+01 0.0 
2.200000000013e+01 -2.000000000000e+01 0.0 
2.100000000013e+01 -2.000000000000e+01 0.0 
2.000000000013e+01 -2.000000000000e+01 0.0 
1.900000000013e+01 -2.000000000000e+01 0.0 
1.800000000013e+01 -2.000000000000e+01 0.0 
1.700000000012e+01 -2.000000000000e+01 0.0 
1.600000000011e+01 -2.000000000000e+01 0.0 
1.500000000011e+01 -2.000000000000e+01 0.0 
1.400000000010e+01 -2.000000000000e+01 0.0 
1.300000000009e+01 -2.000000000000e+01 0.0 
1.200000000009e+01 -2.000000000000e+01 0.0 
1.100000000008e+01 -2.000000000000e+01 0.0 
1.000000000007e+01 -2.000000000000e+01 0.0 
9.000000000064e+00 -2.000000000000e+01 0.0 
8.000000000057e+00 -2.000000000000e+01 0.0 
7.000000000050e+00 -2.000000000000e+01 0.0 
6.000000000043e+00 -2.000000000000e+01 0.0 
5.000000000036e+00 -2.000000000000e+01 0.0 
4.000000000028e+00 -2.000000000000e+01 0.0 
3.000000000021e+00 -2.000000000000e+01 0.0 
2.000000000014e+00 -2.000000000000e+01 0.0 
1.000000000007e+00 -2.000000000000e+01 0.0 
5.000000000000e+01 -1.100000000000e+01 0.0 
5.000000000000e+01 -1.200000000000e+01 0.0 
5.000000000000e+01 -1.300000000000e+01 0.0 
5.000000000000e+01 -1.400000000000e+01 0.0 
5.000000000000e+01 -1.500000000000e+01 0.0 
5.000000000000e+01 -1.600000000000e+01 0.0 
5.000000000000e+01 -1.700000000000e+01 0.0 
5.000000000000e+01 -1.800000000000e+01 0.0 
5.000000000000e+01 -1.900000000000e+01 0.0 
2.000000000000e+01 0.0 0.0 
3.500000000000e+01 -1.000000000000e+01 0.0 
2.150000000000e+01 -1.000000000000e+00 0.0 
2.300000000000e+01 -2.000000000000e+00 0.0 
2.450000000000e+01 -3.000000000000e+00 0.0 
2.600000000000e+01 -4.000000000000e+00 0.0 
2.750000000000e+01 -5.000000000000e+00 0.0 
2.900000000000e+01 -6.000000000000e+00 0.0 
3.050000000000e+01 -7.000000000000e+00 0.0 
3.200000000000e+01 -8.000000000000e+00 0.0 
3.350000000000e+01 -9.000000000000e+00 0.0 
5.000000000000e+01 -7.000000000000e+00 0.0 
5.000000000000e+01 -8.000000000000e+00 0.0 
5.000000000000e+01 -9.000000000000e+00 0.0 
4.900000000000e+01 -1.000000000000e+01 0.0 
4.800000000000e+01 -1.000000000000e+01 0.0 
4.700000000000e+01 -1.000000000000e+01 0.0 
4.600000000000e+01 -1.000000000000e+01 0.0 
4.500000000000e+01 -1.000000000000e+01 0.0 
4.400000000000e+01 -1.000000000000e+01 0.0 
4.300000000000e+01 -1.000000000000e+01 0.0 
4.200000000000e+01 -1.000000000000e+01 0.0 
4.100000000000e+01 -1.000000000000e+01 0.0 
4.000000000000e+01 -1.000000000000e+01 0.0 
3.900000000000e+01 -1.000000000000e+01 0.0 
3.800000000000e+01 -1.000000000000e+01 0.0 
3.700000000000e+01 -1.000000000000e+01 0.0 
3.600000000000e+01 -1.000000000000e+01 0.0 
1.900000000000e+01 0.0 0.0 
1.800000000000e+01 0.0 0.0 
1.700000000000e+01 0.0 0.0 
1.600000000000e+01 0.0 0.0 
1.500000000000e+01 0.0 0.0 
1.400000000000e+01 0.0 0.0 
1.300000000000e+01 0.0 0.0 
1.200000000000e+01 0.0 0.0 
1.100000000000e+01 0.0 0.0 
1.000000000000e+01 0.0 0.0 
9.000000000000e+00 0.0 0.0 
8.000000000000e+00 0.0 0.0 
7.000000000000e+00 0.0 0.0 
6.000000000000e+00 0.0 0.0 
5.000000000000e+00 0.0 0.0 
4.000000000000e+00 0.0 0.0 
3.000000000000e+00 0.0 0.0 
2.000000000000e+00 0.0 0.0 
1.000000000000e+00 0.0 0.0 
3.147499999998e+01 -7.000000000000e+00 0.0 
3.244999999998e+01 -7.000000000000e+00 0.0 
3.342499999998e+01 -7.000000000000e+00 0.0 
3.439999999998e+01 -7.000000000000e+00 0.0 
3.537499999998e+01 -7.000000000000e+00 0.0 
3.634999999998e+01 -7.000000000000e+00 0.0 
3.732499999998e+01 -7.000000000000e+00 0.0 
3.829999999998e+01 -7.000000000000e+00 0.0 
3.927499999999e+01 -7.000000000000e+00 0.0 
4.024999999999e+01 -7.000000000000e+00 0.0 
4.122499999999e+01 -7.000000000000e+00 0.0 
4.219999999999e+01 -7.000000000000e+00 0.0 
4.317499999999e+01 -7.000000000000e+00 0.0 
4.414999999999e+01 -7.000000000000e+00 0.0 
4.512499999999e+01 -7.000000000000e+00 0.0 
4.609999999999e+01 -7.000000000000e+00 0.0 
4.707500000000e+01 -7.000000000000e+00 0.0 
4.805000000000e+01 -7.000000000000e+00 0.0 
4.902500000000e+01 -7.000000000000e+00 0.0 
4.900000000000e+01 -8.000000000000e+00 0.0 
4.800000000000e+01 -8.000000000000e+00 0.0 
4.700000000000e+01 -8.000000000000e+00 0.0 
4.600000000000e+01 -8.000000000000e+00 0.0 
4.500000000000e+01 -8.000000000000e+00 0.0 
4.400000000000e+01 -8.000000000000e+00 0.0 
4.300000000000e+01 -8.000000000000e+00 0.0 
4.200000000000e+01 -8.000000000000e+00 0.0 
4.100000000000e+01 -8.000000000000e+00 0.0 
4.000000000000e+01 -8.000000000000e+00 0.0 
3.900000000000e+01 -8.000000000000e+00 0.0 
3.800000000000e+01 -8.000000000000e+00 0.0 
3.700000000000e+01 -8.000000000000e+00 0.0 
3.600000000000e+01 -8.000000000000e+00 0.0 
3.500000000000e+01 -8.000000000000e+00 0.0 
3.400000000000e+01 -8.000000000000e+00 0.0 
3.300000000000e+01 -8.000000000000e+00 0.0 
3.447058823527e+01 -9.000000000000e+00 0.0 
3.544117647055e+01 -9.000000000000e+00 0.0 
3.641176470582e+01 -9.000000000000e+00 0.0 
3.738235294109e+01 -9.000000000000e+00 0.0 
3.835294117637e+01 -9.000000000000e+00 0.0 
3.932352941164e+01 -9.000000000000e+00 0.0 
4.029411764691e+01 -9.000000000000e+00 0.0 
4.126470588219e+01 -9.000000000000e+00 0.0 
4.223529411748e+01 -9.000000000000e+00 0.0 
4.320588235279e+01 -9.000000000000e+00 0.0 
4.417647058811e+01 -9.000000000000e+00 0.0 
4.514705882342e+01 -9.000000000000e+00 0.0 
4.611764705874e+01 -9.000000000000e+00 0.0 
4.708823529405e+01 -9.000000000000e+00 0.0 
4.805882352937e+01 -9.000000000000e+00 0.0 
4.902941176468e+01 -9.000000000000e+00 0.0 
2.075000000000e+01 -5.000000000006e-01 0.0 
2.225000000000e+01 -1.500000000000e+00 0.0 
2.375000000000e+01 -2.500000000000e+00 0.0 
2.525000000000e+01 -3.500000000000e+00 0.0 
2.675000000000e+01 -4.500000000000e+00 0.0 
2.825000000000e+01 -5.500000000000e+00 0.0 
2.975000000000e+01 -6.500000000000e+00 0.0 
3.125000000000e+01 -7.500000000000e+00 0.0 
3.275000000000e+01 -8.500000000000e+00 0.0 
3.425000000000e+01 -9.500000000000e+00 0.0 
2.226951693683e+01 -2.403913980114e+00 0.0 
1.650149491944e+01 -1.913490915758e+01 0.0 
1.050042386896e+01 -8.504605092970e-01 0.0 
1.553146524712e+01 -8.281255032105e-01 0.0 
1.150000000008e+01 -1.913397459621e+01 0.0 
2.530060260647e+01 -4.428336431260e+00 0.0 
8.651114563942e-01 -1.052096295641e+01 0.0 
2.050000000013e+01 -1.913397459622e+01 0.0 
2.819198729811e+01 -6.399519052838e+00 0.0 
2.445670302931e+01 -1.915649188023e+01 0.0 
3.117591465718e+01 -8.394293040695e+00 0.0 
7.465053044742e+00 -1.920411160581e+01 0.0 
6.398295709691e+00 -8.230098819370e-01 0.0 
2.849659607461e+01 -1.914296187762e+01 0.0 
3.418732642882e+01 -1.040265792588e+01 0.0 
8.386450935063e-01 -6.533605142809e+00 0.0 
9.178661865596e-01 -1.329769195597e+01 0.0 
3.149448624493e+01 -1.910466733764e+01 0.0 
3.552916747426e+01 -1.914628590759e+01 0.0 
4.449210346537e+01 -1.914359085008e+01 0.0 
4.140975975145e+01 -1.906941860733e+01 0.0 
3.847475958753e+01 -1.916622382724e+01 0.0 
3.653774794640e+01 -1.088712800241e+01 0.0 
4.047886341787e+01 -1.090139014048e+01 0.0 
4.348006339825e+01 -1.092792621489e+01 0.0 
4.919519968029e+01 -1.451526755068e+01 0.0 
4.500000000032e+00 -1.913397459621e+01 0.0 
1.856136921614e+01 -8.212235170404e-01 0.0 
3.499895312306e+00 -8.661165539723e-01 0.0 
9.076088696565e-01 -1.642306201891e+01 0.0 
4.655174095477e+01 -1.086183387525e+01 0.0 
9.430688970604e-01 -3.496112672958e+00 0.0 
3.353992337063e+01 -1.901202090820e+01 0.0 
2.249746016977e+01 -1.921262287282e+01 0.0 
2.650122741777e+01 -1.916123026018e+01 0.0 
1.863571384842e+01 -1.908325534840e+01 0.0 
1.450089971693e+01 -1.917691901860e+01 0.0 
1.350044695317e+01 -8.659695299584e-01 0.0 
3.849987469880e+01 -1.084154983397e+01 0.0 
9.454419857884e+00 -1.900818879936e+01 0.0 
4.917398660523e+01 -1.645692866081e+01 0.0 
8.500000000000e+00 -8.660254037844e-01 0.0 
8.660319230785e-01 -8.500111697188e+00 0.0 
4.649022621545e+01 -1.930506220113e+01 0.0 
2.667688107845e+01 -5.420288124331e+00 0.0 
2.379251615665e+01 -3.412225477429e+00 0.0 
2.966631491830e+01 -7.389030232731e+00 0.0 
3.267915035995e+01 -9.396934932445e+00 0.0 
2.074836922338e+01 -1.320054020319e+00 0.0 
4.915985743621e+01 -1.261973384855e+01 0.0 
2.527129768623e+00 -1.931592414663e+01 0.0 
1.538676247410e+00 -8.436956619311e-01 0.0 
4.908096641539e+01 -1.842484004551e+01 0.0 
3.478612492673e+01 -1.090889364140e+01 0.0 
3.409757055860e+01 -1.131991530427e+01 0.0 
3.501895309466e+01 -1.177687842717e+01 0.0 
3.407758073088e+01 -1.224293381580e+01 0.0 
3.484541875390e+01 -1.277051428430e+01 0.0 
3.400322025842e+01 -1.319022775640e+01 0.0 
3.321672625034e+01 -1.266779191233e+01 0.0 
3.315244139236e+01 -1.360984106532e+01 0.0 
3.236335186892e+01 -1.308463225210e+01 0.0 
3.478337442841e+01 -1.372341158982e+01 0.0 
3.230105923633e+01 -1.403023731610e+01 0.0 
3.150954055289e+01 -1.350301767700e+01 0.0 
3.144604792090e+01 -1.444931742516e+01 0.0 
3.065653897123e+01 -1.392357262981e+01 0.0 
3.071897610812e+01 -1.297447031198e+01 0.0 
2.986790411740e+01 -1.339226181535e+01 0.0 
2.993181466745e+01 -1.244703272398e+01 0.0 
2.908023061869e+01 -1.286254537734e+01 0.0 
2.901619051372e+01 -1.380881655279e+01 0.0 
2.822986160390e+01 -1.327695262116e+01 0.0 
2.829453476870e+01 -1.233265343811e+01 0.0 
2.744542905518e+01 -1.274510491105e+01 0.0 
2.751120089246e+01 -1.180368086886e+01 0.0 
2.666218649885e+01 -1.221619339205e+01 0.0 
2.672371209234e+01 -1.127125228527e+01 0.0 
2.587763216302e+01 -1.168539979114e+01 0.0 
2.581165585299e+01 -1.262994410089e+01 0.0 
2.502890882577e+01 -1.209827323619e+01 0.0 
2.509631327757e+01 -1.115492410304e+01 0.0 
2.424662989877e+01 -1.156630981079e+01 0.0 
2.431704046904e+01 -1.062389179334e+01 0.0 
2.346445438728e+01 -1.103427680694e+01 0.0 
2.339382552877e+01 -1.197964871788e+01 0.0 
2.260936050780e+01 -1.144513277642e+01 0.0 
2.268075012022e+01 -1.049911928216e+01 0.0 
2.182525737661e+01 -1.090920811464e+01 0.0 
2.189682319817e+01 -9.961716944568e+00 0.0 
2.104174127792e+01 -1.037266986667e+01 0.0 
2.111304367575e+01 -9.424179358711e+00 0.0 
2.025306185381e+01 -9.832727364719e+00 0.0 
2.018141124247e+01 -1.079140628871e+01 0.0 
1.938594498257e+01 -1.025147354112e+01 0.0 
1.946106490453e+01 -9.288010758448e+00 0.0 
1.858929958352e+01 -9.706319802516e+00 0.0 
1.851540991219e+01 -1.067205988724e+01 0.0 
1.771485303178e+01 -1.012504443115e+01 0.0 
1.764134552256e+01 -1.109360378538e+01 0.0 
1.683745148095e+01 -1.054496365337e+01 0.0 
1.691852964353e+01 -9.582555261178e+00 0.0 
1.603603813062e+01 -1.000160132379e+01 0.0 
1.595824239350e+01 -1.096750698862e+01 0.0 
1.515080624291e+01 -1.041639501931e+01 0.0 
1.523171602559e+01 -9.451711491453e+00 0.0 
1.434621060709e+01 -9.871956467464e+00 0.0 
1.426777178765e+01 -1.083749501371e+01 0.0 
1.345775282374e+01 -1.028803175500e+01 0.0 
1.354103873368e+01 -9.324918457162e+00 0.0 
1.265072018622e+01 -9.742612837270e+00 0.0 
1.257285762070e+01 -1.071557782384e+01 0.0 
1.175874815690e+01 -1.015972324288e+01 0.0 
1.184203019714e+01 -9.193604071377e+00 0.0 
1.094927709905e+01 -9.612103238656e+00 0.0 
1.086938022910e+01 -1.058685085646e+01 0.0 
1.005424098961e+01 -1.002939116380e+01 0.0 
9.977974613295e+00 -1.101324897989e+01 0.0 
1.012915646404e+01 -9.051815821181e+00 0.0 
9.237127782494e+00 -9.471239055559e+00 0.0 
9.308426593771e+00 -8.483376461131e+00 0.0 
8.418806073345e+00 -8.910712374517e+00 0.0 
2.253688464062e+01 -1.239459402279e+01 0.0 
8.495126726666e+00 -7.921646665254e+00 0.0 
9.389727383206e+00 -7.512103628377e+00 0.0 
7.601560812974e+00 -8.349460349344e+00 0.0 
7.525680547759e+00 -9.339736686940e+00 0.0 
7.677888324502e+00 -7.359727833346e+00 0.0 
6.782001206724e+00 -7.788454494773e+00 0.0 
6.858778622885e+00 -6.797338062822e+00 0.0 
2.196596590865e+01 -8.979025665442e+00 0.0 
2.816540108272e+01 -1.422634142353e+01 0.0 
5.961601194403e+00 -7.226824010712e+00 0.0 
6.038171749656e+00 -6.234825887079e+00 0.0 
6.936257279557e+00 -5.805287640737e+00 0.0 
6.115068918323e+00 -5.242109758768e+00 0.0 
3.564391741903e+01 -1.329240553876e+01 0.0 
3.558115605778e+01 -1.425902892003e+01 0.0 
3.645445282201e+01 -1.381970786460e+01 0.0 
3.639744204358e+01 -1.479198128612e+01 0.0 
3.727266909778e+01 -1.435399586226e+01 0.0 
5.216667013081e+00 -5.671788584287e+00 0.0 
3.220697293295e+01 -1.499594545107e+01 0.0 
3.551112158269e+01 -1.523479869250e+01 0.0 
2.836056961467e+01 -1.139032434851e+01 0.0 
2.516730388602e+01 -1.021382726837e+01 0.0 
1.844436907403e+01 -1.164097215196e+01 0.0 
5.885434318740e+00 -8.218694781467e+00 0.0 
5.064071066867e+00 -7.656614643901e+00 0.0 
4.988089103470e+00 -8.649722082718e+00 0.0 
1.079421050408e+01 -1.157014985435e+01 0.0 
9.902420005256e+00 -1.199903342656e+01 0.0 
1.071994252214e+01 -1.255727909771e+01 0.0 
9.826974788171e+00 -1.298659581767e+01 0.0 
1.064607883789e+01 -1.354595476388e+01 0.0 
9.751541265343e+00 -1.397556905071e+01 0.0 
8.932296185869e+00 -1.341553353988e+01 0.0 
8.856399248106e+00 -1.440570715508e+01 0.0 
8.036186803543e+00 -1.384470558472e+01 0.0 
1.057112875118e+01 -1.453516759081e+01 0.0 
1.146582585687e+01 -1.410539926903e+01 0.0 
7.959894480382e+00 -1.483563350928e+01 0.0 
7.138792279156e+00 -1.427465094140e+01 0.0 
7.062506792418e+00 -1.526615385482e+01 0.0 
6.240693558277e+00 -1.470508863040e+01 0.0 
6.316957575451e+00 -1.371212581281e+01 0.0 
5.418183007107e+00 -1.414253605022e+01 0.0 
5.494748364428e+00 -1.314886770603e+01 0.0 
1.756825565873e+01 -1.206433872514e+01 0.0 
1.837565773345e+01 -1.261356468266e+01 0.0 
1.749574831391e+01 -1.303769280014e+01 0.0 
1.830539187332e+01 -1.358828364284e+01 0.0 
1.742278925170e+01 -1.401367746928e+01 0.0 
1.823303007798e+01 -1.456432294258e+01 0.0 
1.734941694138e+01 -1.499213734361e+01 0.0 
1.653760041637e+01 -1.443920312098e+01 0.0 
3.056237977307e+01 -1.487132260174e+01 0.0 
1.866469084762e+01 -8.742953000418e+00 0.0 
1.953669694916e+01 -8.326038909849e+00 0.0 
1.874194303780e+01 -7.780688158966e+00 0.0 
1.961032016741e+01 -7.366854697285e+00 0.0 
1.881715755159e+01 -6.821102209649e+00 0.0 
1.968369797150e+01 -6.407747217358e+00 0.0 
1.889237123259e+01 -5.858375520026e+00 0.0 
1.802038875366e+01 -6.276202618170e+00 0.0 
1.809793837984e+01 -5.307629520489e+00 0.0 
1.721985207997e+01 -5.728242054488e+00 0.0 
1.729850893523e+01 -4.756990819347e+00 0.0 
1.641745664240e+01 -5.174636548624e+00 0.0 
2.495978509456e+01 -1.304406404294e+01 0.0 
1.911567814831e+01 -1.413854250293e+01 0.0 
1.904387332608e+01 -1.511463127723e+01 0.0 
1.992115934240e+01 -1.468788025898e+01 0.0 
7.013706899628e+00 -4.812582868662e+00 0.0 
5.342091874585e+00 -1.513658157269e+01 0.0 
1.139098043784e+01 -1.509488509480e+01 0.0 
1.228151810610e+01 -1.465617481983e+01 0.0 
1.646373110164e+01 -1.541993323337e+01 0.0 
5.293328636712e+00 -4.678385108584e+00 0.0 
1.975965862987e+01 -5.448124345648e+00 0.0 
2.054318374236e+01 -5.992561293251e+00 0.0 
3.721453439063e+01 -1.533216152738e+01 0.0 
3.809302733893e+01 -1.489235527381e+01 0.0 
1.220852788900e+01 -1.565304565230e+01 0.0 
4.394120899730e+00 -5.108397613210e+00 0.0 
8.779354620288e+00 -1.539524721159e+01 0.0 
1.817791047702e+01 -4.338570146253e+00 0.0 
4.518860013839e+00 -1.457343189307e+01 0.0 
4.442712140414e+00 -1.556841391069e+01 0.0 
8.115343466391e+00 -1.285760324283e+01 0.0 
1.985334703171e+01 -1.566478400426e+01 0.0 
2.071953850276e+01 -1.522074243119e+01 0.0 
1.634012953883e+01 -6.154777738301e+00 0.0 
1.553479994708e+01 -5.593730508879e+00 0.0 
1.561265946942e+01 -4.617761762647e+00 0.0 
1.470674212978e+01 -5.064576488228e+00 0.0 
1.464498299883e+01 -6.026514471420e+00 0.0 
1.383271561817e+01 -5.467796261169e+00 0.0 
1.389241253067e+01 -4.504338666645e+00 0.0 
1.301868735463e+01 -4.907185188626e+00 0.0 
1.294514184846e+01 -5.888160903592e+00 0.0 
1.212955968622e+01 -5.328262335277e+00 0.0 
1.220721122383e+01 -4.341264976687e+00 0.0 
1.131324345897e+01 -4.766773516508e+00 0.0 
5.266597955397e+00 -1.613148974258e+01 0.0 
1.737805990867e+01 -3.786677807525e+00 0.0 
3.078438094513e+01 -1.203225297748e+01 0.0 
1.131569882285e+01 -1.608511932110e+01 0.0 
1.728478341782e+01 -1.596017432313e+01 0.0 
3.803465906019e+01 -1.587509751228e+01 0.0 
3.891681276677e+01 -1.543395196905e+01 0.0 
3.897340985302e+01 -1.444710288980e+01 0.0 
3.980095968193e+01 -1.499059496613e+01 0.0 
3.974334598189e+01 -1.597921884150e+01 0.0 
4.062964983717e+01 -1.553518690417e+01 0.0 
4.068729602479e+01 -1.454434445295e+01 0.0 
4.151772679790e+01 -1.508974196007e+01 0.0 
4.157505195739e+01 -1.409694289912e+01 0.0 
4.240699932656e+01 -1.464347955968e+01 0.0 
4.234898051011e+01 -1.563721375790e+01 0.0 
4.323934606035e+01 -1.519082036405e+01 0.0 
4.329740528208e+01 -1.419587509788e+01 0.0 
4.413056841369e+01 -1.474359631875e+01 0.0 
4.418850110108e+01 -1.374786684042e+01 0.0 
4.502219770667e+01 -1.429605103525e+01 0.0 
4.496411937907e+01 -1.529215882720e+01 0.0 
4.490027319897e+00 -4.154167794594e+00 0.0 
1.565080385988e+01 -1.486411982419e+01 0.0 
1.557610691279e+01 -1.584855627870e+01 0.0 
4.195350646612e+00 -8.089117689096e+00 0.0 
4.124027797830e+00 -9.082831955007e+00 0.0 
4.917944318925e+00 -9.643530901533e+00 0.0 
4.020105689502e+00 -1.007439673661e+01 0.0 
4.587185899277e+01 -1.484039992728e+01 0.0 
4.580078661551e+01 -1.584043391042e+01 0.0 
2.061956522375e+01 -5.046701343981e+00 0.0 
2.139572955529e+01 -5.579553449826e+00 0.0 
3.715344357292e+01 -1.631485124583e+01 0.0 
3.618886196443e+00 -1.500471207167e+01 0.0 
3.695606940204e+00 -1.400939692294e+01 0.0 
2.438890661143e+01 -9.686110599723e+00 0.0 
2.523267572778e+01 -9.276766000622e+00 0.0 
2.446094171539e+01 -8.751904591412e+00 0.0 
2.529089822738e+01 -8.321495612547e+00 0.0 
2.606882688827e+01 -8.864724051119e+00 0.0 
2.452116646430e+01 -7.792756462004e+00 0.0 
1.235543269617e+01 -1.365845617339e+01 0.0 
4.318116874181e+01 -1.618567469992e+01 0.0 
7.835066111909e+00 -5.376366223896e+00 0.0 
7.905687335704e+00 -4.382539065697e+00 0.0 
3.542640009567e+00 -1.600035116542e+01 0.0 
1.572431503071e+01 -1.388358386695e+01 0.0 
2.574684696680e+01 -1.357896141127e+01 0.0 
2.488842657651e+01 -1.399674354505e+01 0.0 
2.568301775611e+01 -1.453552048595e+01 0.0 
2.481535572009e+01 -1.495542756508e+01 0.0 
2.561729699688e+01 -1.549784648532e+01 0.0 
2.474623061296e+01 -1.592058894178e+01 0.0 
2.394234041695e+01 -1.537572575827e+01 0.0 
2.065825452567e+01 -1.621899055217e+01 0.0 
2.387180528935e+01 -1.634552264687e+01 0.0 
4.585364400844e+01 -1.383912334080e+01 0.0 
1.998744432052e+01 -1.370317155541e+01 0.0 
1.205356951443e+01 -6.313580285498e+00 0.0 
5.396543905849e+00 -3.731818611283e+00 0.0 
1.139652573295e+01 -3.745819399350e+00 0.0 
3.574124306703e+00 -4.551456826011e+00 0.0 
3.494140761930e+00 -5.539787055649e+00 0.0 
1.213651452413e+01 -1.664505033022e+01 0.0 
2.555045568519e+01 -1.646529356744e+01 0.0 
2.641671114986e+01 -1.603899382371e+01 0.0 
2.612920721894e+01 -7.906435260873e+00 0.0 
2.690339829698e+01 -8.456969591431e+00 0.0 
1.978024383368e+01 -1.664410216353e+01 0.0 
3.732829979082e+01 -1.336926601859e+01 0.0 
4.074336584605e+01 -1.355133328401e+01 0.0 
4.163204691081e+01 -1.310280943992e+01 0.0 
3.773826114429e+00 -3.493444309145e+00 0.0 
1.228783001032e+01 -3.374822835872e+00 0.0 
4.057110462520e+01 -1.652588478000e+01 0.0 
2.132535497898e+01 -6.523623360525e+00 0.0 
2.216932532211e+01 -6.110044769206e+00 0.0 
1.825781152128e+01 -3.370146817147e+00 0.0 
1.745679445888e+01 -2.812942552063e+00 0.0 
4.666517057280e+01 -1.539981381543e+01 0.0 
4.660575894464e+01 -1.639014410186e+01 0.0 
4.838230979954e+00 -1.063643436446e+01 0.0 
3.938942630206e+00 -1.106778981745e+01 0.0 
1.302967218620e+01 -1.621373452436e+01 0.0 
1.049548003190e+01 -4.204825123240e+00 0.0 
4.573571907195e+01 -1.683820511148e+01 0.0 
1.483686335807e+01 -1.430849689310e+01 0.0 
1.490982658890e+01 -1.332679386284e+01 0.0 
3.190805600162e+00 -9.510968358545e+00 0.0 
2.146625721848e+01 -4.642437303115e+00 0.0 
2.069866208266e+01 -4.111852942193e+00 0.0 
1.286859345584e+01 -6.873252723348e+00 0.0 
1.041794493184e+01 -5.194814260291e+00 0.0 
2.671081808965e+00 -4.976806516331e+00 0.0 
1.295786792925e+01 -1.720506531799e+01 0.0 
3.968438206511e+01 -1.696869067241e+01 0.0 
2.308550456051e+01 -1.579963151273e+01 0.0 
2.315593682844e+01 -1.482967445235e+01 0.0 
2.299471449450e+01 -1.677069968132e+01 0.0 
1.057344714696e+01 -3.214252277840e+00 0.0 
1.124057603753e+01 -1.707713739755e+01 0.0 
2.718402535754e+00 -1.543629882103e+01 0.0 
2.638549692805e+01 -1.696744916809e+01 0.0 
2.723416349007e+01 -1.658104204545e+01 0.0 
2.210193351704e+01 -7.046769643417e+00 0.0 
2.295180925161e+01 -6.657397605239e+00 0.0 
2.301355235833e+01 -5.709111896800e+00 0.0 
2.379052718281e+01 -6.254965406962e+00 0.0 
3.243528601237e+01 -1.214181853533e+01 0.0 
2.287977995457e+01 -7.583722368300e+00 0.0 
2.999876029544e+01 -1.150837653096e+01 0.0 
3.084435366963e+01 -1.109693775882e+01 0.0 
3.006650579669e+01 -1.057778994262e+01 0.0 
2.683802665066e+01 -9.386863216633e+00 0.0 
2.768641973621e+01 -8.988883915666e+00 0.0 
2.040296980397e+01 -7.903629133404e+00 0.0 
1.925235024054e+01 -1.218872783130e+01 0.0 
5.735667000424e+00 -1.020577277283e+01 0.0 
6.396559909872e+00 -1.272326295703e+01 0.0 
1.161199420714e+01 -1.212812778229e+01 0.0 
4.229046132615e+01 -1.663084237572e+01 0.0 
4.312275399692e+01 -1.718087491556e+01 0.0 
4.335502068163e+01 -1.320039231514e+01 0.0 
4.424630298089e+01 -1.275160688731e+01 0.0 
7.090116643816e+00 -3.818998061530e+00 0.0 
7.989472176569e+00 -3.389238711200e+00 0.0 
9.085824861778e+00 -1.144036167408e+01 0.0 
1.041972423731e+01 -1.651614080893e+01 0.0 
3.797525112640e+01 -1.686052038746e+01 0.0 
3.709114253394e+01 -1.730125999865e+01 0.0 
3.626966748340e+01 -1.675477052919e+01 0.0 
1.385164591440e+01 -1.677597757552e+01 0.0 
1.787152588784e+01 -8.198993896093e+00 0.0 
1.668849729812e+01 -1.248560611628e+01 0.0 
1.659546177905e+01 -3.232482605530e+00 0.0 
2.332214717345e+01 -1.292598167641e+01 0.0 
7.168238450786e+00 -2.824711686516e+00 0.0 
2.894878403906e+01 -1.475427524446e+01 0.0 
2.646763248247e+00 -1.643270107952e+01 0.0 
3.467431944285e+00 -1.699648837348e+01 0.0 
2.059475877282e+01 -1.719473628526e+01 0.0 
3.333868355437e+01 -1.080596971682e+01 0.0 
2.246451062637e+01 -1.334557761546e+01 0.0 
2.167821896388e+01 -1.280847834858e+01 0.0 
3.089653185767e+01 -1.017198487212e+01 0.0 
3.012604365669e+01 -9.657298805968e+00 0.0 
2.929627299435e+01 -1.006100135274e+01 0.0 
2.936201435219e+01 -9.136748899251e+00 0.0 
1.198219052702e+01 -7.291887238230e+00 0.0 
1.116702076035e+01 -6.731976101053e+00 0.0 
2.551388807505e+01 -1.746927036981e+01 0.0 
2.378639090370e+01 -1.728678807149e+01 0.0 
2.718543627188e+01 -1.748668016909e+01 0.0 
2.804681050301e+01 -1.712626668293e+01 0.0 
1.970737034667e+01 -1.762317646822e+01 0.0 
1.889535776135e+01 -1.707158098231e+01 0.0 
2.593777711283e+00 -5.971157087874e+00 0.0 
2.773468281110e+01 -8.067164273938e+00 0.0 
4.051205884347e+01 -1.751819982458e+01 0.0 
3.166903145421e+01 -1.068032992414e+01 0.0 
1.033042452886e+01 -1.748285844336e+01 0.0 
9.519274604626e+00 -1.694349240233e+01 0.0 
1.668308673328e+01 -2.255861778986e+00 0.0 
1.570531902832e+01 -2.676795860126e+00 0.0 
4.655826903379e+01 -1.736656245706e+01 0.0 
2.384148070773e+01 -5.328744256413e+00 0.0 
2.460255123641e+01 -5.852182672816e+00 0.0 
2.306638135119e+01 -4.798935440613e+00 0.0 
8.467720450578e-01 -1.849576263072e+01 0.0 
4.849657322345e+01 -1.084860705506e+01 0.0 
2.565860899507e+00 -1.742859793981e+01 0.0 
2.764418872564e+01 -9.927142821799e+00 0.0 
4.565165880064e+01 -1.785336695404e+01 0.0 
2.162231831329e+01 -1.376528337468e+01 0.0 
2.360646352969e+01 -9.136041963102e+00 0.0 
1.392738739903e+01 -1.578285505772e+01 0.0 
4.756405947478e+01 -1.683706841809e+01 0.0 
4.740895034054e+01 -1.793766756892e+01 0.0 
4.080779328826e+01 -1.257387192544e+01 0.0 
4.168907939671e+01 -1.210739129181e+01 0.0 
3.991197722154e+01 -1.300815793917e+01 0.0 
1.905536506762e+01 -3.940076697685e+00 0.0 
1.923879596617e+01 -2.875000734166e+00 0.0 
4.401386745746e+01 -1.673483229438e+01 0.0 
4.247233362525e+00 -7.094581653070e+00 0.0 
3.286051630211e+00 -7.635300020553e+00 0.0 
9.609533347623e+00 -4.594311677967e+00 0.0 
9.523554636369e+00 -5.595597029530e+00 0.0 
5.660336628893e+00 -1.119290329628e+01 0.0 
6.558070063295e+00 -1.076385809362e+01 0.0 
2.809866407414e+01 -1.518037766799e+01 0.0 
2.888868674504e+01 -1.570360690070e+01 0.0 
2.654431550819e+01 -1.411217777162e+01 0.0 
1.402158265969e+01 -1.375404617952e+01 0.0 
1.409592494026e+01 -1.277071998942e+01 0.0 
1.499355196178e+01 -1.235270737023e+01 0.0 
4.221535326155e+01 -1.759335617494e+01 0.0 
4.305583287033e+01 -1.822663146802e+01 0.0 
1.280748808359e+01 -7.834332838285e+00 0.0 
1.368988389326e+01 -7.420529606172e+00 0.0 
1.110091796060e+01 -7.683966794328e+00 0.0 
3.963446145980e+01 -1.794331310122e+01 0.0 
3.423932362213e+00 -1.796415590455e+01 0.0 
4.280814572302e+00 -1.752272834860e+01 0.0 
8.050136380041e+00 -2.421582378631e+00 0.0 
8.888674091650e+00 -2.984264211327e+00 0.0 
2.152839430898e+01 -3.732609965436e+00 0.0 
2.077799585292e+01 -3.183896021866e+00 0.0 
3.618719395821e+01 -1.770276572576e+01 0.0 
3.538165138340e+01 -1.718709995539e+01 0.0 
3.702925326420e+01 -1.828844288807e+01 0.0 
1.756739438711e+00 -5.353284859169e+00 0.0 
2.233710191104e+01 -1.527265621324e+01 0.0 
1.389483555057e+01 -1.771797164730e+01 0.0 
1.475634224300e+01 -1.728357428390e+01 0.0 
1.298797563052e+01 -1.825968924755e+01 0.0 
2.145331271866e+01 -1.673705379077e+01 0.0 
2.133282821169e+01 -1.769400773673e+01 0.0 
2.292139194136e+01 -1.774915400288e+01 0.0 
1.750750053243e+01 -1.861475593469e+00 0.0 
4.830478841772e+01 -1.752611802221e+01 0.0 
4.341203507805e+01 -1.220326745522e+01 0.0 
1.685254151866e+01 -1.443085301632e+00 0.0 
4.431538535165e+01 -1.171841387375e+01 0.0 
4.511308610496e+01 -1.229557320599e+01 0.0 
4.510133242889e+01 -1.123680627466e+01 0.0 
1.846818030617e+00 -4.410877617069e+00 0.0 
3.995468694584e+01 -1.186571542989e+01 0.0 
3.901387459804e+01 -1.242507616755e+01 0.0 
8.966735877533e+00 -1.837818700423e+00 0.0 
4.049310011091e+01 -1.848269508791e+01 0.0 
7.278862053803e+00 -1.918523922691e+00 0.0 
6.429715522129e+00 -2.316676521184e+00 0.0 
9.443505505022e+00 -1.792198868094e+01 0.0 
8.620386951051e+00 -1.737590365556e+01 0.0 
8.571868171503e+00 -1.834436667826e+01 0.0 
7.758629848526e+00 -1.775677907213e+01 0.0 
7.806648388584e+00 -1.680761266021e+01 0.0 
6.908555145436e+00 -1.723746463044e+01 0.0 
4.251709122090e+01 -1.156937480156e+01 0.0 
6.931136405615e+00 -1.832465719263e+01 0.0 
6.015545461353e+00 -1.768865355295e+01 0.0 
5.960535926343e+00 -1.872011001764e+01 0.0 
3.023253444786e+01 -8.761960642196e+00 0.0 
2.454622702599e+01 -6.749421992767e+00 0.0 
2.537499741604e+01 -6.347634963783e+00 0.0 
2.544077378460e+01 -5.431358513649e+00 0.0 
2.801367161747e+01 -1.820907270221e+01 0.0 
2.884507806914e+01 -1.762032095326e+01 0.0 
1.821474531936e+00 -1.588901260460e+01 0.0 
1.821006262604e+00 -1.489370287756e+01 0.0 
4.599962488908e+01 -1.176478780598e+01 0.0 
4.705457470007e+01 -1.172182804229e+01 0.0 
4.667668314802e+01 -1.263464558483e+01 0.0 
4.759648056504e+01 -1.252380987933e+01 0.0 
4.728041618103e+01 -1.341928568376e+01 0.0 
4.825209352360e+01 -1.330491640804e+01 0.0 
4.778118233428e+01 -1.420151961695e+01 0.0 
2.388192727579e+01 -1.826934810142e+01 0.0 
2.381714684947e+01 -4.385917965223e+00 0.0 
3.172733219247e+01 -9.758744265248e+00 0.0 
1.882012070658e+01 -1.805540597212e+01 0.0 
1.805667505243e+01 -1.742221226236e+01 0.0 
2.852599958080e+01 -8.597196079481e+00 0.0 
2.856486123437e+01 -7.661382718527e+00 0.0 
1.111792842875e+01 -1.818223852980e+01 0.0 
2.203322722466e+01 -7.986646678802e+00 0.0 
3.955703676900e+01 -1.903246763601e+01 0.0 
1.944842206513e+01 -8.038750575182e-01 0.0 
1.909882767783e+01 -1.746322740933e+00 0.0 
2.281147422941e+01 -8.525912918334e+00 0.0 
2.850633001468e+01 -9.533271335986e+00 0.0 
2.532883344309e+01 -7.308951659710e+00 0.0 
2.620475466461e+01 -6.979208585400e+00 0.0 
1.396278270396e+01 -1.475095389807e+01 0.0 
9.791001166724e+00 -2.554159793552e+00 0.0 
2.229293380421e+01 -4.269762271052e+00 0.0 
4.677238984118e+01 -1.430071795514e+01 0.0 
2.228658385918e+01 -3.344747535984e+00 0.0 
8.940223674553e-01 -1.543595733415e+01 0.0 
2.118566862474e+01 -8.435876987696e+00 0.0 
2.678325936437e+01 -1.032621195706e+01 0.0 
2.223400220487e+01 -5.179046761770e+00 0.0 
2.375370625384e+01 -7.251580562134e+00 0.0 
3.156971327386e+01 -1.255534750737e+01 0.0 
3.328226391312e+01 -1.172914813316e+01 0.0 
3.250948774219e+01 -1.120157009348e+01 0.0 
2.032993445717e+01 -8.867880112202e+00 0.0 
2.697226974856e+01 -7.536633082045e+00 0.0 
2.707377810386e+01 -6.590835263295e+00 0.0 
2.914099246827e+01 -1.191678458549e+01 0.0 
3.544824072239e+01 -1.621126558525e+01 0.0 
3.456511855436e+01 -1.665054783843e+01 0.0 
3.448395810225e+01 -1.759117813016e+01 0.0 
3.368378673938e+01 -1.708037781328e+01 0.0 
3.375560452567e+01 -1.610973066913e+01 0.0 
3.288001547988e+01 -1.654324255651e+01 0.0 
3.282475929147e+01 -1.749725654692e+01 0.0 
3.199880906313e+01 -1.697294088625e+01 0.0 
3.197001272932e+01 -1.811667776864e+01 0.0 
3.111884713021e+01 -1.742166785755e+01 0.0 
3.120418962865e+01 -1.642155709385e+01 0.0 
3.034666704371e+01 -1.683123833816e+01 0.0 
3.026224379976e+01 -1.772592851714e+01 0.0 
3.046632362943e+01 -1.582232843075e+01 0.0 
1.961344017324e+01 -1.857459447985e+01 0.0 
2.274975894774e+01 -9.532738811922e+00 0.0 
1.833923246887e+01 -2.396746883672e+00 0.0 
1.988859500848e+01 -2.249244376594e+00 0.0 
2.758045562861e+01 -1.086434261689e+01 0.0 
3.247300178163e+01 -1.909930104252e+01 0.0 
3.461947482503e+01 -1.911879848019e+01 0.0 
2.047161538662e+01 -6.941478180358e+00 0.0 
2.750230940214e+01 -1.915490590764e+01 0.0 
3.165081350803e+01 -1.161860780120e+01 0.0 
1.897456727641e+01 -4.889634688522e+00 0.0 
2.549338539756e+01 -1.914858252089e+01 0.0 
3.462873135081e+01 -1.567482276144e+01 0.0 
3.384432415243e+01 -1.512280684518e+01 0.0 
3.471433767690e+01 -1.469086942990e+01 0.0 
3.651470373046e+01 -1.918207952149e+01 0.0 
3.901742690249e+01 -1.345028556517e+01 0.0 
2.153224102692e+01 -1.920169709333e+01 0.0 
1.918382939341e+01 -1.316226275662e+01 0.0 
2.005389162382e+01 -1.271962165174e+01 0.0 
2.011472087878e+01 -1.175029352900e+01 0.0 
3.210679478412e+01 -1.598038618242e+01 0.0 
1.752175226543e+01 -1.914713022656e+01 0.0 
1.696897240059e+01 -1.832772588765e+01 0.0 
1.599682523337e+01 -1.832599992024e+01 0.0 
1.644507199462e+01 -1.743697981535e+01 0.0 
1.549987712903e+01 -1.915192375101e+01 0.0 
3.050250861901e+01 -1.918943550234e+01 0.0 
2.949944061527e+01 -1.922950455235e+01 0.0 
1.375892575273e+01 -6.447160534926e+00 0.0 
1.457223670180e+01 -7.006709243857e+00 0.0 
1.450818793236e+01 -7.965943451779e+00 0.0 
1.538804712402e+01 -7.553409623699e+00 0.0 
1.545817644768e+01 -6.580929593419e+00 0.0 
1.626506893751e+01 -7.129032608911e+00 0.0 
1.619833811522e+01 -8.086588580887e+00 0.0 
1.714448609609e+01 -6.697429609777e+00 0.0 
2.887616543568e+01 -1.668015232137e+01 0.0 
1.349814589130e+01 -1.918225301544e+01 0.0 
1.153887772210e+01 -1.311384581217e+01 0.0 
1.242708159886e+01 -1.267046795531e+01 0.0 
1.249799674267e+01 -1.169005616014e+01 0.0 
6.631723893693e+00 -9.774184881867e+00 0.0 
7.451471631867e+00 -1.033148796006e+01 0.0 
7.377795355458e+00 -1.132196345268e+01 0.0 
5.810931797536e+00 -9.211654212252e+00 0.0 
2.402683899133e+01 -1.441378562320e+01 0.0 
1.249768692036e+01 -1.917388426624e+01 0.0 
1.580373499437e+01 -1.290751860664e+01 0.0 
8.344650507834e+00 -9.898403995170e+00 0.0 
3.750622115305e+01 -1.086526401533e+01 0.0 
3.699391251667e+01 -1.171695900794e+01 0.0 
3.606517829518e+01 -1.173717504500e+01 0.0 
3.650257641795e+01 -1.270047380221e+01 0.0 
3.808951488918e+01 -1.183518714175e+01 0.0 
4.760380962420e+00 -1.162484888315e+01 0.0 
3.861210370848e+00 -1.205657631736e+01 0.0 
3.038284309476e+00 -1.149851280664e+01 0.0 
2.961598794889e+00 -1.248856794980e+01 0.0 
2.138953225512e+00 -1.193212674534e+01 0.0 
2.227383593457e+00 -1.096258903918e+01 0.0 
2.043265419276e+00 -1.292158472959e+01 0.0 
1.252449446028e+00 -1.225502002753e+01 0.0 
3.949985210740e+01 -1.086594001795e+01 0.0 
1.453499444792e+01 -8.768805922472e-01 0.0 
1.403518950933e+01 -1.749965556633e+00 0.0 
1.300715031023e+01 -1.714737233040e+00 0.0 
1.350929389899e+01 -2.527443911291e+00 0.0 
1.449600910711e+01 -2.595486162864e+00 0.0 
1.395693872901e+01 -3.484211041558e+00 0.0 
1.495105865208e+01 -3.364609636216e+00 0.0 
1.508822528740e+01 -1.766586020494e+00 0.0 
1.250223858430e+01 -8.634590186802e-01 0.0 
1.200279523409e+01 -1.709044504992e+00 0.0 
1.150086239419e+01 -8.592789190668e-01 0.0 
1.101482754194e+01 -1.677730591922e+00 0.0 
1.148018564526e+01 -2.659323866909e+00 0.0 
8.800552119754e+00 -3.989875954728e+00 0.0 
3.452790439430e+00 -1.901136170646e+01 0.0 
8.658451825200e-01 -9.503462241795e+00 0.0 
1.694787786797e+00 -9.000589234502e+00 0.0 
1.703436717094e+00 -8.038819004041e+00 0.0 
2.594197971110e+00 -8.563955242845e+00 0.0 
1.630513735412e+00 -9.907244747511e+00 0.0 
8.566859292791e-01 -7.512203837972e+00 0.0 
1.685461277022e+00 -7.164280248030e+00 0.0 
2.506394468801e+00 -8.623386730818e-01 0.0 
2.007475081581e+00 -1.727729545205e+00 0.0 
9.211534699767e-01 -1.628791366312e+00 0.0 
1.500000000020e+00 -2.598063549486e+00 0.0 
2.482078929963e+00 -2.553580088725e+00 0.0 
2.999795253092e+00 -1.732169015019e+00 0.0 
3.999712607169e+00 -1.728832897453e+00 0.0 
4.499752199340e+00 -8.656478679175e-01 0.0 
4.964377774841e+00 -1.730129617941e+00 0.0 
4.425017908337e+00 -2.597541756243e+00 0.0 
5.446573195014e+00 -8.410144840023e-01 0.0 
4.915722346614e+01 -1.550640962770e+01 0.0 
4.826794919243e+01 -1.600000000000e+01 0.0 
1.053139533193e+01 -1.911782884365e+01 0.0 
4.156049861949e+01 -1.095160998589e+01 0.0 
9.494526624416e+00 -8.650570090219e-01 0.0 
4.555762166964e+01 -1.897098103585e+01 0.0 
4.250656411371e+01 -1.914387356218e+01 0.0 
4.350906466345e+01 -1.917234727395e+01 0.0 
8.759665722424e-01 -1.746422130609e+01 0.0 
1.698936011838e+00 -1.795012186674e+01 0.0 
4.742476811029e+01 -1.900090177972e+01 0.0 
7.749196752349e+00 -6.368049313489e+00 0.0 
3.361572113416e+01 -1.798765193915e+01 0.0 
4.484660149212e+01 -1.728661231383e+01 0.0 
1.984038172228e+01 -4.502575320116e+00 0.0 
1.035080352627e+01 -6.166639575753e+00 0.0 
2.753558010652e+00 -1.444909521181e+01 0.0 
7.217069543032e+00 -1.328635391078e+01 0.0 
4.364336727739e+00 -1.655585677381e+01 0.0 
4.595208426108e+00 -1.357919665443e+01 0.0 
6.164967006980e+00 -1.569873454630e+01 0.0 
1.487855768353e+01 -1.826523774028e+01 0.0 
2.791876456372e+00 -4.019632415181e+00 0.0 
4.246464893515e+01 -1.364898659620e+01 0.0 
4.503855590351e+01 -1.329552780944e+01 0.0 
4.407239109604e+01 -1.573900004093e+01 0.0 
5.141054449252e+00 -6.664290382472e+00 0.0 
3.141083947149e+00 -1.055790764912e+01 0.0 
6.196463198741e+00 -4.256497932609e+00 0.0 
2.599618716181e+01 -1.836893455464e+01 0.0 
2.923057372337e+01 -1.098461757645e+01 0.0 
1.168343877486e+01 -1.114079645041e+01 0.0 
6.706222096238e+00 -8.780364234441e+00 0.0 
8.567858614669e+00 -6.943121440850e+00 0.0 
1.123755132901e+01 -5.753525820030e+00 0.0 
2.353456234423e+01 -1.008536320953e+01 0.0 
9.162073319168e+00 -1.045593739109e+01 0.0 
9.676343469685e+00 -1.496493008366e+01 0.0 
4.490637882905e+01 -1.628778970202e+01 0.0 
7.398129387772e+00 -9.639977982323e-01 0.0 
1.049641705805e+01 -1.552503975272e+01 0.0 
9.010356286268e+00 -1.242805042052e+01 0.0 
3.985573925497e+01 -1.399863651620e+01 0.0 
1.816196318262e+01 -1.554066497931e+01 0.0 
1.306332244168e+01 -3.963646550326e+00 0.0 
4.145850903932e+01 -1.608094559275e+01 0.0 
3.794664933633e+01 -1.779020121986e+01 0.0 
3.819614412903e+01 -1.290749321016e+01 0.0 
6.270014188119e+00 -3.255093186826e+00 0.0 
4.251165370388e+01 -1.263870364997e+01 0.0 
1.207347709171e+01 -1.763942826023e+01 0.0 
3.633240829927e+01 -1.577330481104e+01 0.0 
4.319052668832e+00 -6.101812561904e+00 0.0 
1.676492415806e+01 -1.151547901392e+01 0.0 
2.594059220037e+01 -1.074225223009e+01 0.0 
3.340750911501e+01 -9.898764354137e+00 0.0 
4.397619591281e+01 -1.769773736461e+01 0.0 
2.175611595028e+01 -1.185718747128e+01 0.0 
1.641818733106e+01 -1.640685203215e+01 0.0 
1.661211421753e+01 -1.346121366338e+01 0.0 
3.428853504935e+00 -6.551993389271e+00 0.0 
8.700728832502e+00 -1.638460872825e+01 0.0 
1.931369795309e+01 -1.121629383702e+01 0.0 
4.139798872363e+01 -1.706922153459e+01 0.0 
2.647837478700e+01 -1.507353829290e+01 0.0 
1.779469616424e+01 -9.161615782908e+00 0.0 
3.885879219319e+01 -1.642026488918e+01 0.0 
1.338194936770e+01 -1.125916521471e+01 0.0 
1.897071181111e+01 -1.609204322578e+01 0.0 
2.844308548793e+01 -1.046221003096e+01 0.0 
2.659854702194e+01 -1.316109415760e+01 0.0 
2.979604503271e+01 -1.433296157755e+01 0.0 
2.417694041347e+01 -1.251231397779e+01 0.0 
1.807401327411e+00 -1.388891148480e+01 0.0 
9.599810618782e+00 -1.595439365034e+01 0.0 
1.652144692160e+01 -4.205392788472e+00 0.0 
2.367839450246e+01 -8.188385218643e+00 0.0 
3.814894930468e+01 -1.390748338767e+01 0.0 
2.466448215774e+01 -1.685878545680e+01 0.0 
4.134044524611e+01 -1.806610045954e+01 0.0 
2.600511411958e+01 -9.801774120648e+00 0.0 
7.882158050716e+00 -1.582364037353e+01 0.0 
3.881607873422e+01 -1.737970515013e+01 0.0 
8.270182347708e+00 -1.088622154920e+01 0.0 
8.672520392520e-01 -4.532984309881e+00 0.0 
1.993447205337e+01 -3.579061902667e+00 0.0 
1.794616079549e+01 -7.238038888498e+00 0.0 
2.097277068165e+01 -1.132450168636e+01 0.0 
8.194803300681e+00 -1.187214224265e+01 0.0 
3.522279404911e+01 -1.823342818178e+01 0.0 
6.984481050295e+00 -1.625271465557e+01 0.0 
1.309433007797e+01 -1.521718594215e+01 0.0 
2.150246167611e+01 -1.885399038185e+00 0.0 
3.250689370209e+01 -1.028789870535e+01 0.0 
6.085886272238e+00 -1.668342132851e+01 0.0 
1.588455661727e+01 -1.193498985921e+01 0.0 
1.809323400821e+01 -1.651110084195e+01 0.0 
1.348885082381e+00 -1.136065576512e+01 0.0 
2.497670221995e+01 -1.834631276173e+01 0.0 
2.937062818424e+01 -8.233711194470e+00 0.0 
5.185823744469e+00 -1.711566910207e+01 0.0 
1.477497877209e+01 -1.530177014512e+01 0.0 
2.125346158933e+01 -7.473003997367e+00 0.0 
4.751561118290e+01 -1.084897772632e+01 0.0 
5.056026576843e+00 -1.825750475525e+01 0.0 
1.473948554523e+01 -1.634577436309e+01 0.0 
2.410566630936e+01 -1.345970002612e+01 0.0 
1.507337507513e+01 -1.138527895328e+01 0.0 
3.189857338687e+01 -8.887781229006e+00 0.0 
7.298712468334e+00 -1.230231046246e+01 0.0 
2.738235495295e+01 -1.368931690364e+01 0.0 
3.750141041969e+01 -1.920449893070e+01 0.0 
1.557271965640e+01 -1.683317951731e+01 0.0 
3.393731848929e+01 -1.413034777044e+01 0.0 
6.482156824153e+00 -1.174575135362e+01 0.0 
2.077971718439e+01 -1.421279621836e+01 0.0 
3.455084320178e+00 -2.562590040585e+00 0.0 
3.099056096250e+01 -9.270280416035e+00 0.0 
5.580176125418e+00 -1.217387969259e+01 0.0 
1.707247630389e+01 -7.660651981710e+00 0.0 
1.418658814174e+01 -1.180390575393e+01 0.0 
2.049103025389e+01 -1.811296706038e+01 0.0 
4.680386172316e+00 -1.260396879301e+01 0.0 
1.699679896554e+01 -8.624561788199e+00 0.0 
3.779470168555e+00 -1.303424899720e+01 0.0 
3.036589870126e+01 -7.879832518349e+00 0.0 
3.306993001774e+01 -1.457671062095e+01 0.0 
2.840150110165e+00 -1.346530088269e+01 0.0 
2.732011135052e+01 -1.464591214560e+01 0.0 
5.423639259568e+00 -2.659711955016e+00 0.0 
2.324455961696e+01 -1.387269388211e+01 0.0 
1.752768355571e+00 -1.693128613594e+01 0.0 
1.020244783051e+01 -8.076834012808e+00 0.0 
1.330873875224e+01 -1.222417528206e+01 0.0 
3.297727364880e+01 -1.555480372087e+01 0.0 
2.890929955439e+01 -6.868664170731e+00 0.0 
1.323294664622e+01 -1.320754260334e+01 0.0 
2.726532861246e+01 -1.560593120806e+01 0.0 
2.240020643398e+01 -1.429299177247e+01 0.0 
2.090445823633e+01 -1.228128621332e+01 0.0 
1.315809881502e+01 -1.420739326938e+01 0.0 
2.781328038068e+01 -7.181956082300e+00 0.0 
8.614200829057e+00 -5.936933226306e+00 0.0 
8.714765730069e+00 -4.979270529687e+00 0.0 
1.611881701099e+01 -9.041973294003e+00 0.0 
2.806830314340e+01 -1.614622947108e+01 0.0 
2.084435391396e+00 -3.385085422913e+00 0.0 
3.133211811152e+01 -1.542347619750e+01 0.0 
9.693114650768e+00 -3.590281506442e+00 0.0 
1.531883592202e+01 -8.504584946143e+00 0.0 
2.151589117094e+01 -1.578915763018e+01 0.0 
4.918943882696e+01 -1.355538828056e+01 0.0 
1.443236615188e+01 -8.918701794549e+00 0.0 
8.276250966452e-01 -5.537685192197e+00 0.0 
1.362790867918e+01 -8.374718262212e+00 0.0 
2.083767477370e+01 -1.324843956035e+01 0.0 
1.273834678703e+01 -8.790890389337e+00 0.0 
1.192275845670e+01 -8.242261327467e+00 0.0 
4.477236023583e+01 -1.824312396664e+01 0.0 
1.102989384254e+01 -8.649855800911e+00 0.0 
4.849096516045e+01 -1.917293752213e+01 0.0 
1.588996752238e+00 -1.910230934687e+01 0.0 
4.904245197583e+01 -1.159839008158e+01 0.0 
2.753852929608e+01 -5.782128488093e+00 0.0 
1.756133602833e+01 -8.306130313187e-01 0.0 
2.615423700951e+01 -6.153865090092e+00 0.0 
1.028818761294e+01 -7.122020845892e+00 0.0 
2.970818901196e+01 -1.527821347593e+01 0.0 
4.801461623449e+01 -1.164472570985e+01 0.0 
9.455722100419e+00 -6.546069291118e+00 0.0 
3.089099236677e+01 -1.835339328261e+01 0.0 
2.350000000013e+01 -1.920825896750e+01 0.0 
4.830620531887e+01 -1.506626155470e+01 0.0 
1.725381944701e+01 -1.688794487850e+01 0.0 
2.156246225273e+01 -1.475893794002e+01 0.0 
4.919319648787e+01 -1.742767505896e+01 0.0 
4.437935623576e+01 -1.077662927266e+01 0.0 
1.001520521978e+01 -1.652692675208e+00 0.0 
9.067160240050e-01 -1.441937727541e+01 0.0 
2.603365149390e+01 -4.755996613848e+00 0.0 
2.458344439002e+01 -4.873645517696e+00 0.0 
2.304312390142e+01 -3.836552768096e+00 0.0 
2.546923202198e+00 -6.902480355749e+00 0.0 
1.251534969393e+01 -2.490989965776e+00 0.0 
2.454061833377e+01 -3.933354231935e+00 0.0 
1.788186558740e+01 -1.827424884923e+01 0.0 
4.090785243552e+01 -1.166553231904e+01 0.0 
2.230128851568e+01 -1.623015738726e+01 0.0 
2.302362347568e+01 -2.916239960270e+00 0.0 
3.878119254461e+01 -1.830091164002e+01 0.0 
2.210081359958e+01 -1.829238229150e+01 0.0 
8.443704882233e+00 -1.921993252862e+01 0.0 
2.218405824691e+01 -1.724557581508e+01 0.0 
2.151157503963e+01 -2.790636689331e+00 0.0 
3.741658958955e+01 -1.250400191722e+01 0.0 
2.697247663737e+01 -1.838290202309e+01 0.0 
4.743362342862e+01 -1.585850773010e+01 0.0 
6.671345075358e+00 -1.924977576322e+01 0.0 
3.900825404537e+01 -1.157220003875e+01 0.0 
4.649692961375e+01 -1.836335837481e+01 0.0 
1.578831424832e+01 -3.678284023361e+00 0.0 
4.814208768888e+01 -1.841249298770e+01 0.0 
2.964123298315e+01 -1.625739458193e+01 0.0 
4.580760351902e+01 -1.284294554687e+01 0.0 
3.561520879615e+01 -1.245548941949e+01 0.0 
2.555418095658e+00 -1.841101588290e+01 0.0 
3.288468366144e+01 -1.834258164109e+01 0.0 
2.065894391445e+01 -2.240688571739e+00 0.0 
4.739171429915e+01 -1.496536413446e+01 0.0 
3.478086729185e+00 -8.576434653209e+00 0.0 
1.606010630246e+01 -1.588421807951e+00 0.0 
1.018329200594e+01 -1.834320874317e+01 0.0 
2.957213339430e+01 -1.720496954591e+01 0.0 
4.142712790164e+00 -1.837794506222e+01 0.0 
6.698721532573e-01 -2.499999999997e+00 0.0 
8.037039123140e+00 -1.571229354954e+00 0.0 
1.203541361428e+01 -1.847784298001e+01 0.0 
2.899968332038e+01 -1.848264722179e+01 0.0 
1.469229460948e+01 -4.219485753730e+00 0.0 
4.049590781957e+01 -1.932812501995e+01 0.0 
1.996211678340e+01 -1.506329754720e+00 0.0 
4.250588298353e+01 -1.067383247529e+01 0.0 
5.831497011152e+00 -1.635396227234e+00 0.0 
5.317606125670e+00 -1.923927974868e+01 0.0 
4.208546426993e+01 -1.842830665025e+01 0.0 
2.327553405011e+00 -9.459409929662e+00 0.0 
3.568351902251e+01 -1.096637218582e+01 0.0 
1.682104374890e+00 -6.231413350963e+00 0.0 
2.451812238018e+01 -1.766524914339e+01 0.0 
1.058003429638e+01 -2.391839617098e+00 0.0 
4.399988753123e+01 -1.851998776342e+01 0.0 
1.400000000010e+01 -1.852293523028e+01 0.0 
3.604719565984e+01 -1.850662876800e+01 0.0 
1.951297136734e+01 -1.938092349694e+01 0.0 
1.821365318472e+01 -1.531276353287e+00 0.0 
2.298031859732e+01 -1.854635324722e+01 0.0 
1.552168066204e+01 -1.764280741977e+01 0.0 
4.572957713638e+01 -1.073347898229e+01 0.0 
3.429637429624e+01 -1.838861552790e+01 0.0 
2.427434426052e+00 -7.705577451869e+00 0.0 
4.662792031485e+00 -3.359424455416e+00 0.0 
4.926794919243e+01 -1.926794919243e+01 0.0 
7.320508075690e-01 -7.320508075688e-01 0.0 
4.926794919243e+01 -1.073205080757e+01 0.0 
7.320508075705e-01 -1.926794919243e+01 0.0 
2.917460242467e+00 -3.202866455310e+00 0.0 
4.838200575963e+01 -1.232674147454e+01 0.0 
2.998445708009e+01 -1.854403752148e+01 0.0 
5.949940090766e-01 -1.152762038165e+01 0.0 
4.844763495759e+01 -1.678092548787e+01 0.0 
1.301685480160e+01 -3.170056592566e+00 0.0 
1.650046335855e+01 -6.731535384067e-01 0.0 
4.854881540991e+01 -1.405224059779e+01 0.0 
2.119545114693e+01 -1.846813384545e+01 0.0 
3.797852849897e+01 -1.857978513215e+01 0.0 
4.649823708745e+01 -1.338351810816e+01 0.0 
2.012685900976e+01 -2.889659035009e+00 0.0 
2.953271913273e+01 -1.791558075192e+01 0.0 
2.408509097292e+00 -1.021949208421e+01 0.0 
2.642589566221e+01 -1.773216561448e+01 0.0 
1.730010270775e+01 -1.763165076721e+01 0.0 
2.017406551304e+01 -8.513536440582e-01 0.0 
5.254761581934e-01 -1.249999999999e+01 0.0 
6.640448215642e+00 -1.545337834885e+00 0.0 
7.843361506349e+00 -1.852719839527e+01 0.0 
1.588442191088e+00 -1.066158564320e+01 0.0 
3.180701530612e+01 -7.414795918363e+00 0.0 
4.951250000000e+01 -7.500000000000e+00 0.0 
3.331250000000e+01 -8.420918367347e+00 0.0 
4.951470588234e+01 -8.500000000000e+00 0.0 
3.480610198624e+01 -9.413633635267e+00 0.0 
4.951470588234e+01 -9.500000000000e+00 0.0 

SCALARS node_number int
LOOKUP_TABLE default
1
2
3
4
5
6
7
8
9
10
11
12
13
14
15
16
17
18
19
20
21
22
23
24
25
26
27
28
29
30
31
32
33
34
35
36
37
38
39
40
41
42
43
44
45
46
47
48
49
50
51
52
53
54
55
56
57
58
59
60
61
62
63
64
65
66
67
68
69
70
71
72
73
74
75
76
77
78
79
80
81
82
84
85
86
87
88
89
90
91
92
93
100
101
102
104
105
106
107
108
109
110
111
112
113
114
115
116
117
118
119
120
121
122
123
124
125
126
127
128
129
130
131
132
133
134
135
136
310
311
312
313
314
315
316
317
318
319
320
321
322
323
324
325
326
327
328
329
330
331
332
333
334
335
336
337
338
339
340
341
342
343
344
345
346
347
348
349
350
351
352
353
354
355
356
357
358
359
360
361
362
363
364
365
366
367
368
369
370
371
372
373
374
375
376
377
378
379
380
381
382
383
384
385
386
387
388
389
390
391
392
393
394
395
396
397
398
399
400
401
402
403
404
405
406
407
408
409
410
411
412
413
414
415
416
417
418
419
420
421
422
423
424
425
426
427
428
429
430
431
432
433
434
435
436
437
438
439
440
441
442
443
444
445
446
447
448
449
450
451
452
453
454
455
456
457
458
459
460
461
462
463
464
465
466
467
468
469
470
471
472
473
474
475
476
477
478
479
480
481
482
483
484
485
486
487
488
489
490
491
492
493
494
495
496
497
498
499
500
501
502
503
504
505
506
507
508
509
510
511
512
513
514
515
516
517
518
519
520
521
522
523
524
525
526
527
528
529
530
531
532
533
534
535
536
537
538
539
540
541
542
543
544
545
546
547
548
549
550
551
552
553
554
555
556
557
558
559
560
561
562
563
564
565
566
567
568
569
570
571
572
573
574
575
576
577
578
579
580
581
582
583
584
585
586
587
588
589
590
591
592
593
594
595
596
597
598
599
600
601
602
603
604
605
606
607
608
609
610
611
612
613
614
615
616
617
618
619
620
621
622
623
624
625
626
627
628
629
630
631
632
633
634
635
636
637
638
639
640
641
642
643
644
645
646
647
648
649
650
651
652
653
654
655
656
657
658
659
660
661
662
663
664
665
666
667
668
669
670
671
672
673
674
675
676
677
678
679
680
681
682
683
684
685
686
687
688
689
690
691
692
693
694
695
696
697
698
699
700
701
702
703
704
705
706
707
708
709
710
711
712
713
714
715
716
717
718
719
720
721
722
723
724
725
726
727
728
729
730
731
732
733
734
735
736
737
738
739
740
741
742
743
744
745
746
747
748
749
750
751
752
753
754
755
756
757
758
759
760
761
762
763
764
765
766
767
768
769
770
771
772
773
774
775
776
777
778
779
780
781
782
783
784
785
786
787
788
789
790
791
792
793
794
795
796
797
798
799
800
801
802
803
804
805
806
807
808
809
810
811
812
813
814
815
816
817
818
819
820
821
822
823
824
825
826
827
828
829
830
831
832
833
834
835
836
837
838
839
840
841
842
843
844
845
846
847
848
849
850
851
852
853
854
855
856
857
858
859
860
861
862
863
864
865
866
867
868
869
870
871
872
873
874
875
876
877
878
879
880
881
882
883
884
885
886
887
888
889
890
891
892
893
894
895
896
897
898
899
900
901
902
903
904
905
906
907
908
909
910
911
912
913
914
915
916
917
918
919
920
921
922
923
924
925
926
927
928
929
930
931
932
933
934
935
936
937
938
939
940
941
942
943
944
945
946
947
948
949
950
951
952
953
954
955
956
957
958
959
960
961
962
963
964
965
966
967
968
969
970
971
972
973
974
975
976
977
978
979
980
981
982
983
984
985
986
987
988
989
990
991
992
993
994
995
996
997
998
999
1000
1001
1002
1003
1004
1005
1006
1007
1008
1009
1010
1011
1012
1013
1014
1015
1016
1017
1018
1019
1020
1021
1022
1023
1024
1025
1026
1027
1028
1029
1030
1031
1032
1033
1034
1035
1036
1037
1038
1039
1040
1041
1042
1043
1044
1045
1046
1047
1048
1049
1050
1051
1052
1053
1054
1055
1056
1057
1058
1059
1060
1061
1062
1063
1064
1065
1066
1067
1068
1069
1070
1071
1072
1073
1074
1075
1076
1077
1078
1079
1080
1081
1082
1083
1084
1085
1086
1087
1088
1089
1090
1091
1092
1093
1094
1095
1096
1097
1098
1099
1100
1101
1102
1103
1104
1105
1106
1107
1108
1109
1110
1111
1112
1113
1114
1115
1116
1117
1118
1119
1120
1121
1122
1123
1124
1125
1126
1127
1128
1129
1130
1131
1132
1133
1134
1135
1136
1137
1138
1139
1140
1141
1142
1143
1144
1145
1146
1147
1148
1149
1150
1151
1152
1153
1154
1155
1156
1157
1158
1159
1160
1161
1162
1163
1164
1165
1166
1167
1168
1169
1170
1171
1172
1173
1174
1175
1176
1177
1178
1179
1180
1181
1182
1183
1184
1185
1186
1187
1188
1189
1190
1191
1192
1193
1194
1195
1196
1197
1198
1199
1200
1201
1202
1203
1204
1205
1206
1207
1208
1209
1210
1211
1212
1213
1214
1215
1216
1217
1218
1219
1220
1221
1222
1223
1224
1225
1226
1227
1228
1229
1230
1231
1232
1233
1234
1235
1236
1237
1238
1239
1240
1241
1242
1243
1244
1245
1246
1247
1248
1249
1250
1251
1252
1253
1254
1255
1256
1257
1258
1259
1260
1261
1262
1263
1264
1279
1280
1281
1282
1283
1284

VECTORS node_mesh_deformation float
0.0 1.166179088683e-02 0.0 
0.000000000000e+00 1.978527406469e-02 0.0 
0.0 0.000000000000e+00 0.0 
0.000000000000e+00 0.000000000000e+00 0.0 
0.0 1.164805845011e-02 0.0 
0.0 1.157823385438e-02 0.0 
0.0 1.145287003893e-02 0.0 
0.0 1.127180347730e-02 0.0 
0.0 1.103339824374e-02 0.0 
0.0 1.073872987620e-02 0.0 
0.0 1.038762232969e-02 0.0 
0.0 9.979038147736e-03 0.0 
0.0 9.512189393545e-03 0.0 
0.0 8.985443792783e-03 0.0 
0.0 8.396125020878e-03 0.0 
0.0 7.742388189426e-03 0.0 
0.0 7.023436251307e-03 0.0 
0.0 6.241007319250e-03 0.0 
0.0 5.387069076811e-03 0.0 
0.0 4.461146031071e-03 0.0 
0.0 3.461869234890e-03 0.0 
0.0 2.385713310574e-03 0.0 
0.0 1.230260745050e-03 0.0 
0.000000000000e+00 0.000000000000e+00 0.0 
0.000000000000e+00 0.000000000000e+00 0.0 
0.000000000000e+00 0.000000000000e+00 0.0 
0.000000000000e+00 0.000000000000e+00 0.0 
0.000000000000e+00 0.000000000000e+00 0.0 
0.000000000000e+00 0.000000000000e+00 0.0 
0.000000000000e+00 0.000000000000e+00 0.0 
0.000000000000e+00 0.000000000000e+00 0.0 
0.000000000000e+00 0.000000000000e+00 0.0 
0.000000000000e+00 0.000000000000e+00 0.0 
0.000000000000e+00 0.000000000000e+00 0.0 
0.000000000000e+00 0.000000000000e+00 0.0 
0.000000000000e+00 0.000000000000e+00 0.0 
0.000000000000e+00 0.000000000000e+00 0.0 
0.000000000000e+00 0.000000000000e+00 0.0 
0.000000000000e+00 0.000000000000e+00 0.0 
0.000000000000e+00 0.000000000000e+00 0.0 
0.000000000000e+00 0.000000000000e+00 0.0 
0.000000000000e+00 0.000000000000e+00 0.0 
0.000000000000e+00 0.000000000000e+00 0.0 
0.000000000000e+00 0.000000000000e+00 0.0 
0.000000000000e+00 0.000000000000e+00 0.0 
0.000000000000e+00 0.000000000000e+00 0.0 
0.000000000000e+00 0.000000000000e+00 0.0 
0.000000000000e+00 0.000000000000e+00 0.0 
0.000000000000e+00 0.000000000000e+00 0.0 
0.000000000000e+00 0.000000000000e+00 0.0 
0.000000000000e+00 0.000000000000e+00 0.0 
0.000000000000e+00 0.000000000000e+00 0.0 
0.000000000000e+00 0.000000000000e+00 0.0 
0.000000000000e+00 0.000000000000e+00 0.0 
0.000000000000e+00 0.000000000000e+00 0.0 
0.000000000000e+00 0.000000000000e+00 0.0 
0.000000000000e+00 0.000000000000e+00 0.0 
0.000000000000e+00 0.000000000000e+00 0.0 
0.000000000000e+00 0.000000000000e+00 0.0 
0.000000000000e+00 0.000000000000e+00 0.0 
0.000000000000e+00 0.000000000000e+00 0.0 
0.000000000000e+00 0.000000000000e+00 0.0 
0.000000000000e+00 0.000000000000e+00 0.0 
0.000000000000e+00 0.000000000000e+00 0.0 
0.000000000000e+00 0.000000000000e+00 0.0 
0.000000000000e+00 0.000000000000e+00 0.0 
0.000000000000e+00 0.000000000000e+00 0.0 
0.000000000000e+00 0.000000000000e+00 0.0 
0.000000000000e+00 0.000000000000e+00 0.0 
0.000000000000e+00 0.000000000000e+00 0.0 
0.000000000000e+00 0.000000000000e+00 0.0 
0.000000000000e+00 0.000000000000e+00 0.0 
0.000000000000e+00 1.807140214275e-02 0.0 
0.000000000000e+00 1.629488708325e-02 0.0 
0.000000000000e+00 1.445618611350e-02 0.0 
0.000000000000e+00 1.255819885477e-02 0.0 
0.000000000000e+00 1.060108928820e-02 0.0 
0.000000000000e+00 8.587581738643e-03 0.0 
0.000000000000e+00 6.519073104634e-03 0.0 
0.000000000000e+00 4.397203619313e-03 0.0 
0.000000000000e+00 2.224027304919e-03 0.0 
-1.563559404168e-03 1.531677956021e-02 0.0 
1.818125123513e-03 1.930080311147e-02 0.0 
-1.129284851647e-03 1.655817141429e-02 0.0 
-6.867715472403e-04 1.791510609307e-02 0.0 
-1.881954566407e-04 1.924000975898e-02 0.0 
3.431362076292e-04 2.041603191651e-02 0.0 
8.749362200682e-04 2.135365705653e-02 0.0 
1.361748535142e-03 2.196401353120e-02 0.0 
1.684919784466e-03 2.211629570018e-02 0.0 
1.885142609254e-03 2.157862835868e-02 0.0 
1.913825373485e-03 2.058240789196e-02 0.0 
0.000000000000e+00 2.454729748492e-02 0.0 
0.000000000000e+00 2.301962502344e-02 0.0 
0.000000000000e+00 2.143607454011e-02 0.0 
1.054179542592e-04 1.978670524842e-02 0.0 
2.098968930753e-04 1.979078599798e-02 0.0 
3.159722801414e-04 1.979604300857e-02 0.0 
4.230087602295e-04 1.980086586095e-02 0.0 
5.308559428556e-04 1.980675973056e-02 0.0 
6.402643187542e-04 1.980936363445e-02 0.0 
7.522953294981e-04 1.981035849477e-02 0.0 
8.656071242612e-04 1.980514223175e-02 0.0 
9.840172809277e-04 1.979457860620e-02 0.0 
1.106739177374e-03 1.977143638452e-02 0.0 
1.233866364075e-03 1.973306717954e-02 0.0 
1.367280832639e-03 1.967493872880e-02 0.0 
1.507794823539e-03 1.958931463537e-02 0.0 
1.657072987292e-03 1.946718337920e-02 0.0 
-1.423950888121e-03 1.463259286896e-02 0.0 
-1.246129850667e-03 1.406298646419e-02 0.0 
-1.062558628352e-03 1.359125419285e-02 0.0 
-8.877883814247e-04 1.320494776944e-02 0.0 
-7.314146973911e-04 1.289071283047e-02 0.0 
-5.911569634804e-04 1.263251752947e-02 0.0 
-4.674512441181e-04 1.242131329361e-02 0.0 
-3.614883596690e-04 1.224965017627e-02 0.0 
-2.717427646974e-04 1.211143735055e-02 0.0 
-1.971747950158e-04 1.200218752289e-02 0.0 
-1.382482519077e-04 1.191370782277e-02 0.0 
-8.948016246269e-05 1.184731618643e-02 0.0 
-5.055715401969e-05 1.179257567906e-02 0.0 
-2.511103787395e-05 1.174977518136e-02 0.0 
-9.420960425999e-06 1.171885624774e-02 0.0 
8.500752275431e-07 1.169642381346e-02 0.0 
6.446976574814e-06 1.168008057729e-02 0.0 
8.182028267134e-06 1.166934021004e-02 0.0 
3.839424905117e-06 1.166224404368e-02 0.0 
1.503767946019e-03 2.282753969753e-02 0.0 
1.445820876846e-03 2.330757590574e-02 0.0 
1.391137489392e-03 2.366283242454e-02 0.0 
1.345040072259e-03 2.392861189502e-02 0.0 
1.297750580122e-03 2.412607759013e-02 0.0 
1.245637417732e-03 2.427160203352e-02 0.0 
1.187169617317e-03 2.437732864318e-02 0.0 
1.122155612165e-03 2.445228127289e-02 0.0 
1.050692021231e-03 2.450350201406e-02 0.0 
9.731340014696e-04 2.453675369637e-02 0.0 
8.900618157099e-04 2.455672794818e-02 0.0 
8.023162230870e-04 2.456708262573e-02 0.0 
7.106585226637e-04 2.457069594211e-02 0.0 
6.157409832355e-04 2.456985764365e-02 0.0 
5.182752833477e-04 2.456648216975e-02 0.0 
4.190524845882e-04 2.456192586605e-02 0.0 
3.189016475318e-04 2.455711307254e-02 0.0 
2.188734944184e-04 2.455173860565e-02 0.0 
1.134098633955e-04 2.454478309017e-02 0.0 
1.081859250576e-04 2.302624828189e-02 0.0 
2.155806889874e-04 2.302940428041e-02 0.0 
3.212346911283e-04 2.303488731309e-02 0.0 
4.259045056401e-04 2.304033275016e-02 0.0 
5.296506038519e-04 2.304553387941e-02 0.0 
6.325424107203e-04 2.304940498947e-02 0.0 
7.343311252512e-04 2.305049606455e-02 0.0 
8.350179109016e-04 2.304675837395e-02 0.0 
9.341076465148e-04 2.303582446685e-02 0.0 
1.031702574664e-03 2.301395578800e-02 0.0 
1.128069885695e-03 2.297695569949e-02 0.0 
1.223485993599e-03 2.291960430709e-02 0.0 
1.318801151754e-03 2.283512344603e-02 0.0 
1.415587449820e-03 2.271549006090e-02 0.0 
1.515625944904e-03 2.254744636210e-02 0.0 
1.624846697069e-03 2.231946130128e-02 0.0 
1.741909448938e-03 2.200648578865e-02 0.0 
1.763893267473e-03 2.084527486327e-02 0.0 
1.629297279507e-03 2.104173734299e-02 0.0 
1.498988670505e-03 2.118190929473e-02 0.0 
1.377284642018e-03 2.128432095085e-02 0.0 
1.261226231044e-03 2.135606159888e-02 0.0 
1.149031455597e-03 2.140443092610e-02 0.0 
1.039758404715e-03 2.143559113144e-02 0.0 
9.326305309898e-04 2.145336257605e-02 0.0 
8.267077265032e-04 2.146129961322e-02 0.0 
7.222170446823e-04 2.146406520912e-02 0.0 
6.182777531691e-04 2.146214615323e-02 0.0 
5.151369312486e-04 2.145823948146e-02 0.0 
4.119966234342e-04 2.145272839369e-02 0.0 
3.090759817894e-04 2.144729394722e-02 0.0 
2.061341416351e-04 2.144131084212e-02 0.0 
1.026676661553e-04 2.143316292933e-02 0.0 
-1.337032724845e-03 1.591045299740e-02 0.0 
-9.125811722512e-04 1.723213855310e-02 0.0 
-4.395153276491e-04 1.859037463909e-02 0.0 
7.955043019692e-05 1.985326296559e-02 0.0 
6.182463958240e-04 2.092679309157e-02 0.0 
1.134488006830e-03 2.171324598470e-02 0.0 
1.562951556743e-03 2.210855022275e-02 0.0 
1.813496583161e-03 2.191541201261e-02 0.0 
1.923113670294e-03 2.112175487598e-02 0.0 
1.880628108815e-03 1.997066053194e-02 0.0 
-2.917904243915e-04 1.696488835849e-02 0.0 
4.154395364075e-04 1.210608782461e-03 0.0 
-1.262018022210e-04 1.201577942616e-02 0.0 
-5.353845851115e-04 1.298997794418e-02 0.0 
2.638838275981e-04 1.127732137025e-03 0.0 
7.833132224668e-04 1.923818076450e-02 0.0 
8.480338705152e-05 8.688419526552e-03 0.0 
5.326634344165e-04 1.323885028558e-03 0.0 
1.741309473637e-03 2.062354133428e-02 0.0 
5.858629886397e-04 1.430024265769e-03 0.0 
2.174104370596e-03 2.049840510580e-02 0.0 
1.461234172124e-04 1.007619309430e-03 0.0 
7.149588240551e-06 1.174433205945e-02 0.0 
5.793915815211e-04 1.614177532105e-03 0.0 
2.004456741560e-03 1.843475866311e-02 0.0 
5.781461642063e-05 1.055935618845e-02 0.0 
8.921789291172e-05 6.801871581347e-03 0.0 
5.308013812950e-04 1.798520291185e-03 0.0 
3.670046506059e-04 1.819051632694e-03 0.0 
1.020519908934e-04 1.901849631956e-03 0.0 
1.903070241482e-04 2.053778998039e-03 0.0 
2.577624235585e-04 1.818691842672e-03 0.0 
1.632010925057e-03 1.801167669176e-02 0.0 
1.060514973609e-03 1.823339350827e-02 0.0 
6.966320271218e-04 1.822014668843e-02 0.0 
6.791437617437e-05 1.155744405754e-02 0.0 
8.723966177815e-05 1.079742519703e-03 0.0 
-8.929506081827e-04 1.430188947087e-02 0.0 
2.285514554901e-05 1.167173453208e-02 0.0 
6.200539170420e-05 4.048533733812e-03 0.0 
3.586935571889e-04 1.832454999398e-02 0.0 
3.189444834084e-05 1.137288116640e-02 0.0 
5.050506151818e-04 2.051612112574e-03 0.0 
5.245013702471e-04 1.266720956810e-03 0.0 
5.863321508279e-04 1.500608020358e-03 0.0 
5.085927403137e-04 1.339535233125e-03 0.0 
3.352501448983e-04 1.113646679983e-03 0.0 
-3.287692341090e-04 1.246718782592e-02 0.0 
1.329601857670e-03 1.825894078487e-02 0.0 
2.371428079808e-04 1.264884935512e-03 0.0 
5.074953926965e-05 7.648969588065e-03 0.0 
-4.275485477123e-05 1.184688051386e-02 0.0 
7.577249428992e-05 9.753760150746e-03 0.0 
5.032002301419e-05 1.548324367032e-03 0.0 
1.310808134722e-03 1.998103236934e-02 0.0 
2.352096733880e-04 1.816501070221e-02 0.0 
2.044678833279e-03 2.081873180218e-02 0.0 
2.142563358404e-03 1.964506627768e-02 0.0 
-8.255170529274e-04 1.579854508085e-02 0.0 
8.214909193782e-05 1.516404918321e-02 0.0 
4.004516291989e-05 8.515341768529e-04 0.0 
1.040699376831e-05 1.165544119534e-02 0.0 
2.762072788443e-05 3.480532974820e-03 0.0 
1.932291064833e-03 1.769255784338e-02 0.0 
2.082214388864e-03 1.682574682336e-02 0.0 
1.921897930067e-03 1.620978712985e-02 0.0 
2.091267045451e-03 1.518646922289e-02 0.0 
1.931075902817e-03 1.437880578186e-02 0.0 
2.053284533581e-03 1.345406129039e-02 0.0 
2.231984372685e-03 1.422449665752e-02 0.0 
2.157330825341e-03 1.250882076080e-02 0.0 
2.348999617446e-03 1.325894685072e-02 0.0 
1.865183652050e-03 1.260192290589e-02 0.0 
2.234786459312e-03 1.155089283289e-02 0.0 
2.436299881783e-03 1.228088855357e-02 0.0 
2.281512309626e-03 1.059180986588e-02 0.0 
2.488725213524e-03 1.130055087762e-02 0.0 
2.619204742590e-03 1.293417898674e-02 0.0 
2.674723580302e-03 1.193852163203e-02 0.0 
2.777009899429e-03 1.349943547773e-02 0.0 
2.832442482219e-03 1.248773781281e-02 0.0 
2.691479662847e-03 1.096169384992e-02 0.0 
2.847493615896e-03 1.150382633869e-02 0.0 
2.956320604170e-03 1.294836640754e-02 0.0 
2.967325673346e-03 1.196115972877e-02 0.0 
3.040809380781e-03 1.331803626125e-02 0.0 
3.046745972501e-03 1.233027323761e-02 0.0 
3.082756609093e-03 1.360129758349e-02 0.0 
3.083857676998e-03 1.262093163574e-02 0.0 
3.014640887894e-03 1.138781615600e-02 0.0 
3.048139495913e-03 1.169363320694e-02 0.0 
3.077342326488e-03 1.283680881183e-02 0.0 
3.039120617288e-03 1.193039660441e-02 0.0 
3.027707270835e-03 1.298494276761e-02 0.0 
2.988532929002e-03 1.210416516786e-02 0.0 
2.968806059883e-03 1.107683360106e-02 0.0 
2.918702470524e-03 1.128114216772e-02 0.0 
2.898326023523e-03 1.222441816536e-02 0.0 
2.831047446282e-03 1.143644462741e-02 0.0 
2.771703753446e-03 1.229870859234e-02 0.0 
2.709293651758e-03 1.154911112819e-02 0.0 
2.613069577567e-03 1.233295457205e-02 0.0 
2.556601579816e-03 1.162615773240e-02 0.0 
2.622903619230e-03 1.084721307633e-02 0.0 
2.477410245820e-03 1.096470808787e-02 0.0 
2.377481583824e-03 1.167604949917e-02 0.0 
2.307566386996e-03 1.105895105977e-02 0.0 
2.378241667703e-03 1.035064018422e-02 0.0 
2.218473640685e-03 1.048871995216e-02 0.0 
2.262231371269e-03 9.778358838446e-03 0.0 
2.113460184447e-03 9.958039326266e-03 0.0 
2.042517516170e-03 1.060553793887e-02 0.0 
1.949259194394e-03 1.011587561472e-02 0.0 
1.995778755100e-03 9.459848500093e-03 0.0 
1.843130732736e-03 9.660517931399e-03 0.0 
1.772847048917e-03 1.026273221649e-02 0.0 
1.680678344446e-03 9.842722797138e-03 0.0 
1.728162457884e-03 9.227778225922e-03 0.0 
1.578061957984e-03 9.447897115555e-03 0.0 
1.511975188247e-03 1.001501043885e-02 0.0 
1.422726725453e-03 9.653712761455e-03 0.0 
1.469097896644e-03 9.064450011245e-03 0.0 
1.325366015942e-03 9.307908909514e-03 0.0 
1.264868494163e-03 9.851199300577e-03 0.0 
1.180290784351e-03 9.535328674659e-03 0.0 
1.222750075929e-03 8.967362580638e-03 0.0 
1.088676107701e-03 9.228484459602e-03 0.0 
1.115170672907e-03 8.633840288029e-03 0.0 
1.033879233798e-03 9.758080973493e-03 0.0 
9.544430457247e-04 9.477606922406e-03 0.0 
8.905901000702e-04 9.974505671632e-03 0.0 
8.228352674635e-04 9.716255664809e-03 0.0 
2.869946989687e-03 1.027369947440e-02 0.0 
7.552816662990e-04 1.017811918587e-02 0.0 
8.065046616199e-04 1.040644004410e-02 0.0 
6.967518465455e-04 9.943840608432e-03 0.0 
7.477468463337e-04 9.457573516016e-03 0.0 
6.281087650049e-04 1.037151289106e-02 0.0 
5.778247734041e-04 1.015963156434e-02 0.0 
5.109902162168e-04 1.055453531533e-02 0.0 
2.635429781275e-03 1.312625086671e-02 0.0 
2.668956421417e-03 1.000998237269e-02 0.0 
4.677420654158e-04 1.036375380959e-02 0.0 
4.055183141523e-04 1.072659343281e-02 0.0 
4.323743082342e-04 1.089393158081e-02 0.0 
3.344517360819e-04 1.103421494954e-02 0.0 
1.755957655242e-03 1.353352037383e-02 0.0 
1.668663217004e-03 1.169577048249e-02 0.0 
1.576145639504e-03 1.263241194178e-02 0.0 
1.466874164855e-03 1.074989433123e-02 0.0 
1.391065821807e-03 1.167559171443e-02 0.0 
3.122033785434e-04 1.088696595471e-02 0.0 
2.057144760165e-03 9.766146371486e-03 0.0 
1.525445089364e-03 9.798031369563e-03 0.0 
2.994035769564e-03 1.434998937946e-02 0.0 
3.032477893814e-03 1.392595223298e-02 0.0 
2.389629656069e-03 9.575197423976e-03 0.0 
5.191043791433e-04 9.944540817713e-03 0.0 
4.153052557383e-04 1.016892377796e-02 0.0 
4.531729195696e-04 9.724647998897e-03 0.0 
1.234159796798e-03 8.331901215099e-03 0.0 
1.112111489885e-03 7.974176651700e-03 0.0 
1.212475084218e-03 7.628441469413e-03 0.0 
1.078627600435e-03 7.247190204296e-03 0.0 
1.156946002915e-03 6.856076987555e-03 0.0 
1.014392276772e-03 6.450808209840e-03 0.0 
9.465193066891e-04 6.867020415626e-03 0.0 
8.761899309313e-04 6.044673799032e-03 0.0 
8.176247225364e-04 6.485045207986e-03 0.0 
1.067471647714e-03 6.013247621640e-03 0.0 
1.220688862203e-03 6.443549566210e-03 0.0 
7.437697396364e-04 5.635958158836e-03 0.0 
6.933042025707e-04 6.098556035873e-03 0.0 
6.184133987173e-04 5.221727195323e-03 0.0 
5.748855596241e-04 5.705929724423e-03 0.0 
6.304194634668e-04 6.541113462385e-03 0.0 
5.184576373098e-04 6.169661161209e-03 0.0 
5.579174689876e-04 6.964047215584e-03 0.0 
2.249237429236e-03 9.000094519459e-03 0.0 
2.341463554188e-03 8.730031155212e-03 0.0 
2.179059546023e-03 8.152166762169e-03 0.0 
2.232766589760e-03 7.814121017748e-03 0.0 
2.051181412359e-03 7.232816756538e-03 0.0 
2.063431511878e-03 6.826987398806e-03 0.0 
1.865133283918e-03 6.240754922246e-03 0.0 
1.863160174285e-03 6.677224534114e-03 0.0 
2.295598849706e-03 9.626828780371e-03 0.0 
2.177626991980e-03 1.170208278463e-02 0.0 
2.214777173421e-03 1.232319117789e-02 0.0 
1.988665478102e-03 1.228262170537e-02 0.0 
1.989431387948e-03 1.290573836025e-02 0.0 
1.741387713199e-03 1.279980927137e-02 0.0 
1.701611177232e-03 1.342777231451e-02 0.0 
1.435712738523e-03 1.325905088317e-02 0.0 
1.488980710878e-03 1.268703426173e-02 0.0 
1.170791328764e-03 1.308966682759e-02 0.0 
1.237574772738e-03 1.257559702201e-02 0.0 
9.141948188116e-04 1.292528248797e-02 0.0 
9.928997868549e-04 1.247200137354e-02 0.0 
2.947596886600e-03 1.049294154264e-02 0.0 
2.254332076305e-03 7.438894789344e-03 0.0 
2.040660669788e-03 6.380669581974e-03 0.0 
2.239657718935e-03 7.020887134493e-03 0.0 
3.447200473348e-04 1.117867402299e-02 0.0 
4.634087853796e-04 5.305269338837e-03 0.0 
1.102153753532e-03 5.551576539686e-03 0.0 
1.266577424973e-03 6.014847683639e-03 0.0 
1.663208640831e-03 5.676316624742e-03 0.0 
2.505213012656e-04 1.116312716498e-02 0.0 
1.352297763606e-03 1.389304516369e-02 0.0 
1.627308367755e-03 1.412393105982e-02 0.0 
1.265265539352e-03 9.748687185885e-03 0.0 
1.206522450396e-03 1.067427562552e-02 0.0 
1.114659087030e-03 5.064659786987e-03 0.0 
2.314327481141e-04 1.103459767297e-02 0.0 
7.786583549052e-04 5.151693699185e-03 0.0 
8.028528622503e-04 1.343691703687e-02 0.0 
4.121105592620e-04 5.790090350485e-03 0.0 
3.598431160228e-04 4.896012943023e-03 0.0 
8.673022943935e-04 7.261703197674e-03 0.0 
1.979468695030e-03 5.888931669299e-03 0.0 
2.190306328547e-03 6.573257135340e-03 0.0 
1.278768207342e-03 1.211210529120e-02 0.0 
1.046123591598e-03 1.206507028504e-02 0.0 
7.618611700160e-04 1.237858076167e-02 0.0 
8.349730497645e-04 1.200855521231e-02 0.0 
1.077965227884e-03 1.169029802443e-02 0.0 
8.729807315309e-04 1.169486545022e-02 0.0 
6.357683881006e-04 1.197553499368e-02 0.0 
6.850183859797e-04 1.170388598580e-02 0.0 
8.934930450906e-04 1.139966674369e-02 0.0 
7.167442396323e-04 1.144782927263e-02 0.0 
5.166612805603e-04 1.171933014475e-02 0.0 
5.584263191487e-04 1.149739412641e-02 0.0 
3.934850920375e-04 4.368179673961e-03 0.0 
5.478948429420e-04 1.322057182037e-02 0.0 
2.681274553918e-03 1.452480292429e-02 0.0 
9.471252868227e-04 4.585364655775e-03 0.0 
1.624712588889e-03 5.189825929500e-03 0.0 
1.067361185541e-03 8.706392796809e-03 0.0 
1.025281646704e-03 9.634569976999e-03 0.0 
1.134690778180e-03 1.159387245292e-02 0.0 
9.691122229114e-04 1.055245227955e-02 0.0 
8.503865432061e-04 8.559692879206e-03 0.0 
8.095378869228e-04 9.483300329602e-03 0.0 
9.024876547343e-04 1.145952574734e-02 0.0 
7.568666489419e-04 1.039495930952e-02 0.0 
8.282122263807e-04 1.235143829631e-02 0.0 
6.951321860953e-04 1.129255859467e-02 0.0 
6.188090890902e-04 9.304965763070e-03 0.0 
5.687830818175e-04 1.021234789444e-02 0.0 
6.266110393511e-04 1.217707154338e-02 0.0 
5.103793578840e-04 1.110683504940e-02 0.0 
5.528427386849e-04 1.304662078286e-02 0.0 
4.451816087752e-04 1.198754616237e-02 0.0 
4.021570928714e-04 1.001734960201e-02 0.0 
1.833464867005e-04 1.127078400417e-02 0.0 
1.672264000835e-03 6.143295877669e-03 0.0 
1.460798236833e-03 5.128794365850e-03 0.0 
3.574002417155e-04 9.967759677396e-03 0.0 
3.850315846208e-04 9.497791192558e-03 0.0 
4.800004519820e-04 9.220854587872e-03 0.0 
3.967796027631e-04 8.969639870752e-03 0.0 
3.437996819642e-04 1.091920350818e-02 0.0 
3.031495851502e-04 8.911566070848e-03 0.0 
1.235026835946e-03 1.459713999889e-02 0.0 
1.514339817909e-03 1.489538836367e-02 0.0 
1.091306151523e-03 7.768798108874e-03 0.0 
3.122548887364e-04 5.401219879579e-03 0.0 
3.502003098483e-04 6.254190205043e-03 0.0 
2.941923002794e-03 1.398047165994e-02 0.0 
2.908971692808e-03 1.495457146890e-02 0.0 
2.778041440273e-03 1.491892872090e-02 0.0 
2.695616682264e-03 1.594406190553e-02 0.0 
2.833100212520e-03 1.599673856835e-02 0.0 
2.522019990074e-03 1.581799574084e-02 0.0 
1.378409840932e-03 6.891570358020e-03 0.0 
4.906131640539e-04 8.193760986952e-03 0.0 
4.473421967024e-04 1.105981383981e-02 0.0 
3.411140985552e-04 1.132236363909e-02 0.0 
2.654002784719e-04 4.476416063811e-03 0.0 
1.830581222766e-03 7.081194107545e-03 0.0 
2.874264647147e-03 1.009791415015e-02 0.0 
2.776219959280e-03 9.228465884993e-03 0.0 
2.662328722025e-03 8.745616694625e-03 0.0 
2.533285748694e-03 7.900897312878e-03 0.0 
2.377600733155e-03 7.331643894782e-03 0.0 
2.216679482117e-03 6.510261598720e-03 0.0 
2.375619418874e-03 7.095117474195e-03 0.0 
1.875867505589e-03 5.341178939332e-03 0.0 
2.028656349978e-03 5.720578546473e-03 0.0 
3.807176948243e-04 1.287194323250e-02 0.0 
2.435278212310e-03 8.091015286190e-03 0.0 
8.960603058963e-04 1.112353654456e-02 0.0 
1.900661724052e-04 1.137636227194e-02 0.0 
3.660036646025e-04 1.174347506602e-02 0.0 
1.637540743715e-04 1.116711959596e-02 0.0 
2.017957102440e-04 1.090014409095e-02 0.0 
9.238082237992e-04 4.043782195154e-03 0.0 
2.017456994082e-03 5.856000835351e-03 0.0 
2.183102528424e-03 6.692206334908e-03 0.0 
2.567845897342e-03 1.704006228606e-02 0.0 
2.711011479892e-03 1.710232743661e-02 0.0 
1.651156177886e-03 4.683028387952e-03 0.0 
1.470032508379e-03 1.356855233160e-02 0.0 
9.656460386793e-04 1.338667702615e-02 0.0 
8.742819665102e-04 1.425474931500e-02 0.0 
1.244988608313e-04 1.139466713824e-02 0.0 
3.062835121419e-04 1.193604699004e-02 0.0 
6.852913115267e-04 7.457196721425e-03 0.0 
1.890964927121e-03 1.435299235285e-02 0.0 
1.785344212898e-03 1.518238082949e-02 0.0 
3.902414830925e-04 1.372849777796e-02 0.0 
1.430983919661e-04 1.346250559844e-02 0.0 
2.546500747371e-04 9.803876859543e-03 0.0 
2.175023757047e-04 7.786426501145e-03 0.0 
4.926042833597e-04 8.657353957242e-03 0.0 
4.014885608843e-04 8.379112249148e-03 0.0 
1.101067042876e-03 4.545885232059e-03 0.0 
4.205160687007e-04 1.154608285718e-02 0.0 
2.500295667502e-04 6.854196943063e-03 0.0 
1.650810276047e-03 6.575239269718e-03 0.0 
1.771074768648e-03 7.454982507339e-03 0.0 
3.036156293192e-04 9.267392313737e-03 0.0 
1.072981792326e-03 1.538151017798e-02 0.0 
7.872625204932e-04 1.501496121222e-02 0.0 
1.076143729733e-03 1.103860669423e-02 0.0 
5.808966076106e-04 1.128794812704e-02 0.0 
1.359199206026e-04 1.105017730322e-02 0.0 
8.702071161721e-04 3.469624213313e-03 0.0 
6.959286724779e-04 6.517900227301e-03 0.0 
2.193608339894e-03 6.327324076780e-03 0.0 
2.494115843003e-03 7.620507994503e-03 0.0 
1.818794173243e-03 4.966660912334e-03 0.0 
2.522928538120e-04 1.175255368540e-02 0.0 
7.561138682224e-04 3.541592160335e-03 0.0 
2.205204611982e-04 5.002110718340e-03 0.0 
1.798357363718e-03 5.205958572201e-03 0.0 
1.951948486138e-03 5.983057194051e-03 0.0 
2.138756580408e-03 1.456734453012e-02 0.0 
2.049781270845e-03 1.544431166890e-02 0.0 
1.638287644710e-03 1.609507449234e-02 0.0 
1.908861072646e-03 1.640812116317e-02 0.0 
2.397434316300e-03 1.493282841599e-02 0.0 
2.371999915855e-03 1.474817992321e-02 0.0 
2.809836989076e-03 1.501788177201e-02 0.0 
2.675415586022e-03 1.607259889788e-02 0.0 
2.770228034013e-03 1.649427733616e-02 0.0 
2.921631449471e-03 1.598736301238e-02 0.0 
2.801077061218e-03 1.710114124341e-02 0.0 
2.224369237506e-03 1.300510522157e-02 0.0 
2.491793051650e-03 9.343332125114e-03 0.0 
5.816904510381e-04 8.928161260688e-03 0.0 
6.675874140516e-04 7.304346084323e-03 0.0 
1.346469284744e-03 8.013316507153e-03 0.0 
5.183370715116e-04 7.265421091642e-03 0.0 
3.914336790132e-04 6.123080185105e-03 0.0 
6.658122301886e-04 1.408616917463e-02 0.0 
5.803954056205e-04 1.492929077793e-02 0.0 
2.516802546300e-04 1.140969783501e-02 0.0 
2.314171440156e-04 1.153194846826e-02 0.0 
1.004509205462e-03 8.303296150494e-03 0.0 
7.884072305107e-04 4.107279590507e-03 0.0 
8.835519556953e-04 6.688624536260e-03 0.0 
8.676908694625e-04 5.739917885297e-03 0.0 
1.092603134765e-03 6.821281640054e-03 0.0 
1.056951049479e-03 3.992774186106e-03 0.0 
1.964085738688e-03 1.171306586530e-02 0.0 
2.097590708921e-03 8.459460199763e-03 0.0 
3.137557993576e-04 1.302930218185e-02 0.0 
2.879686614417e-03 9.989803187912e-03 0.0 
1.586517170971e-04 1.158715861881e-02 0.0 
2.483134328450e-03 9.397240626578e-03 0.0 
1.815534975989e-04 4.046113298880e-03 0.0 
2.101204256357e-04 3.477486626700e-03 0.0 
1.497581308236e-03 4.066361591235e-03 0.0 
2.199536670027e-03 1.751449097150e-02 0.0 
2.753409822901e-03 9.204204391279e-03 0.0 
2.746771004656e-03 9.521810673462e-03 0.0 
2.597783083399e-03 1.757198629878e-02 0.0 
2.654381714059e-03 1.792337697318e-02 0.0 
2.826798437948e-03 1.680638453314e-02 0.0 
2.666526729527e-03 1.816405821138e-02 0.0 
1.049777320992e-03 1.074719570759e-02 0.0 
8.815998439058e-04 1.086647393153e-02 0.0 
1.563458241950e-03 4.272388140858e-03 0.0 
1.619280433236e-03 4.326803526247e-03 0.0 
1.538724077708e-03 4.459149630687e-03 0.0 
1.687355240705e-03 5.193907441665e-03 0.0 
1.255705344260e-03 3.406430085583e-03 0.0 
1.419338659467e-03 4.045252861523e-03 0.0 
1.622653103786e-04 1.075813618964e-02 0.0 
2.544093069201e-03 1.824945310483e-02 0.0 
5.289380909943e-04 5.380447755009e-03 0.0 
2.507595511094e-03 1.712006561648e-02 0.0 
6.052057062735e-04 3.066992443273e-03 0.0 
6.410914082853e-04 3.628891999146e-03 0.0 
-7.490681270639e-05 1.323106024383e-02 0.0 
1.095706077567e-04 1.282252853385e-02 0.0 
1.711459103078e-04 5.745627745736e-03 0.0 
1.445940524825e-03 1.707839828886e-02 0.0 
1.710711888276e-03 1.744304851292e-02 0.0 
1.165069124621e-03 1.666826540662e-02 0.0 
2.740648816812e-05 1.825453202429e-03 0.0 
1.549181070502e-04 1.833896942742e-02 0.0 
1.362573669206e-04 3.016323623985e-03 0.0 
2.963539372093e-03 1.589388478964e-02 0.0 
1.838811989572e-04 4.707807976239e-03 0.0 
2.606422338943e-03 8.468740600536e-03 0.0 
2.807474555301e-03 1.399300718905e-02 0.0 
1.286201420353e-03 5.052660955288e-03 0.0 
1.390355302320e-04 6.861136906434e-03 0.0 
1.027130414570e-04 4.530670597056e-03 0.0 
9.990840805187e-04 1.522863697335e-02 0.0 
8.985695839456e-04 1.610131242253e-02 0.0 
1.104974211231e-03 1.439315968231e-02 0.0 
6.645008557165e-04 1.401230221127e-02 0.0 
1.511031088093e-04 1.439279891319e-02 0.0 
3.742868847070e-04 7.062792441317e-03 0.0 
3.218425218563e-04 1.038020731249e-02 0.0 
2.649066524456e-04 1.015290913567e-02 0.0 
4.443021830767e-04 1.137751292364e-02 0.0 
5.824005970787e-04 1.109677675597e-02 0.0 
5.899874248456e-04 8.332451405913e-03 0.0 
6.861743844855e-04 8.622659275510e-03 0.0 
2.420204980130e-03 8.465486411870e-03 0.0 
2.204704067523e-03 7.789150050991e-03 0.0 
2.760235212484e-03 9.635248186651e-03 0.0 
1.602776361050e-03 6.976397438734e-03 0.0 
1.688944808075e-03 7.801720103595e-03 0.0 
1.843637205223e-03 8.260149317135e-03 0.0 
3.984273559112e-04 5.242365569874e-03 0.0 
2.653322434654e-04 3.894972978674e-03 0.0 
1.226402701249e-03 1.063318639070e-02 0.0 
1.265893508336e-03 1.095865156410e-02 0.0 
1.007181899293e-03 1.048237593289e-02 0.0 
5.082611014799e-04 4.463724351176e-03 0.0 
1.507863169619e-04 2.434875755096e-03 0.0 
2.241057196137e-04 2.926563793093e-03 0.0 
1.252088799166e-04 1.168474553997e-02 0.0 
1.969906705774e-04 1.165408107709e-02 0.0 
5.833950551093e-04 1.580046680619e-02 0.0 
2.875874815196e-04 1.538058866031e-02 0.0 
8.367437325063e-04 4.866115384200e-03 0.0 
1.069352259968e-03 5.884579316721e-03 0.0 
5.949017259894e-04 3.670806863216e-03 0.0 
9.712028371589e-05 1.094088870083e-02 0.0 
2.313518594317e-03 6.854928568568e-03 0.0 
8.036674253429e-04 2.921110720479e-03 0.0 
1.001570543250e-03 3.470764357434e-03 0.0 
5.852987667669e-04 2.242092687368e-03 0.0 
1.742975742193e-03 4.786931071518e-03 0.0 
1.319760343009e-03 3.460357345109e-03 0.0 
1.363165779949e-03 3.537923951576e-03 0.0 
-2.837096268919e-04 1.363910737397e-02 0.0 
7.746759970928e-05 5.408817705884e-03 0.0 
6.878224326812e-04 1.593926702380e-02 0.0 
-4.224992884581e-04 1.340590018057e-02 0.0 
5.932717714998e-04 1.681765377138e-02 0.0 
4.966200269507e-04 1.576982541680e-02 0.0 
5.126304069876e-04 1.767241923126e-02 0.0 
8.133898900287e-05 1.118615127649e-02 0.0 
1.130739126062e-03 1.650444600998e-02 0.0 
1.253150975472e-03 1.544273562127e-02 0.0 
5.126791032950e-05 1.180948290980e-02 0.0 
3.437752707498e-04 3.319684463065e-03 0.0 
7.605569171432e-05 1.170473634140e-02 0.0 
1.078634733824e-04 1.162766019874e-02 0.0 
4.631823958654e-04 2.549163120797e-03 0.0 
5.055731514734e-04 3.142076895106e-03 0.0 
3.360214586383e-04 2.049291578263e-03 0.0 
3.919602510614e-04 2.708573018733e-03 0.0 
5.269789984679e-04 3.730898243500e-03 0.0 
4.095692411328e-04 3.261174895478e-03 0.0 
8.035854739035e-04 1.708147272305e-02 0.0 
2.684417444234e-04 2.053667127715e-03 0.0 
3.030669701589e-04 2.760308290071e-03 0.0 
1.764917864975e-04 1.580402252561e-03 0.0 
2.448255937541e-03 1.932424522906e-02 0.0 
2.135416557614e-03 1.670115455852e-02 0.0 
1.940882617120e-03 1.779680161783e-02 0.0 
1.435737008439e-03 1.861660487601e-02 0.0 
1.144834711400e-03 3.288488060861e-03 0.0 
1.421009036971e-03 4.426678836595e-03 0.0 
1.374324803689e-04 4.571702745851e-03 0.0 
1.572633470808e-04 5.486365946791e-03 0.0 
4.097028822869e-04 1.673066938956e-02 0.0 
2.991324767549e-04 1.680302925479e-02 0.0 
3.268578096112e-04 1.514290109838e-02 0.0 
2.357623063176e-04 1.534528301199e-02 0.0 
2.533453947891e-04 1.367306383554e-02 0.0 
1.629696799270e-04 1.388738620103e-02 0.0 
1.933975790394e-04 1.217173949337e-02 0.0 
1.114501795744e-03 2.831738537857e-03 0.0 
8.908299631472e-04 1.763976722609e-02 0.0 
2.388448476996e-03 1.864654385826e-02 0.0 
1.008422796964e-03 2.762186817357e-03 0.0 
1.218093951600e-03 3.530610907546e-03 0.0 
2.633891333154e-03 1.825514434331e-02 0.0 
2.316036798330e-03 1.947640484145e-02 0.0 
5.016342297584e-04 2.286670327763e-03 0.0 
2.418781310123e-03 1.389491555326e-02 0.0 
2.592215646899e-04 2.120190409563e-03 0.0 
-1.000282680529e-03 1.486647899058e-02 0.0 
-4.363191064520e-04 1.451956071729e-02 0.0 
2.621173218188e-03 1.399030680127e-02 0.0 
2.839017009034e-03 1.700905198694e-02 0.0 
2.363811628843e-03 1.691634178723e-02 0.0 
2.209357511955e-03 1.801983857532e-02 0.0 
1.470609294865e-03 6.068887490530e-03 0.0 
1.408461565298e-04 1.178575816536e-02 0.0 
8.768289786190e-04 1.623471865597e-02 0.0 
2.815313554336e-04 1.197934604125e-02 0.0 
3.228371092909e-04 1.662974579048e-02 0.0 
7.206302421081e-05 4.993534222121e-03 0.0 
2.440273786039e-03 1.308376020033e-02 0.0 
3.042863022372e-03 1.482307198898e-02 0.0 
1.360950671430e-03 1.574021539903e-02 0.0 
2.310412912738e-03 1.564967414740e-02 0.0 
2.526463738331e-03 1.393870426303e-02 0.0 
2.245364812985e-03 1.590106922007e-02 0.0 
2.379976602818e-03 1.657247895219e-02 0.0 
2.424230920536e-03 1.234825984658e-02 0.0 
2.404080797319e-03 1.816798229948e-02 0.0 
1.972735000876e-03 1.925705302265e-02 0.0 
2.904891583253e-03 1.397390939732e-02 0.0 
1.325322082138e-03 7.859785579328e-03 0.0 
1.316075744121e-03 6.905180630067e-03 0.0 
1.023818573138e-03 5.003319153094e-03 0.0 
1.277365812427e-03 5.970717697522e-03 0.0 
1.567256792093e-03 7.890219117712e-03 0.0 
1.542291599335e-03 6.942351130995e-03 0.0 
1.206533186121e-03 5.068135012362e-03 0.0 
1.483928796777e-03 6.009204511280e-03 0.0 
1.010347343094e-03 3.781114969961e-03 0.0 
1.377092681604e-03 5.052154055566e-03 0.0 
1.759984729389e-03 6.946071420547e-03 0.0 
1.680672323037e-03 6.059828440943e-03 0.0 
1.296280521125e-03 4.386043996984e-03 0.0 
2.034089474424e-03 7.914916177437e-03 0.0 
8.033024729457e-04 2.096899826626e-03 0.0 
2.803494243189e-03 1.312438737464e-02 0.0 
-6.707554869223e-05 1.397048080000e-02 0.0 
-2.088404261897e-04 1.495655073247e-02 0.0 
3.041190909926e-03 1.463019483036e-02 0.0 
4.991355605881e-04 1.841670822415e-03 0.0 
4.136907041641e-04 1.856749913475e-03 0.0 
1.956865930982e-03 1.359666452032e-02 0.0 
5.847928776070e-04 1.552308991528e-03 0.0 
2.545646169057e-03 1.555474694395e-02 0.0 
1.072411568568e-03 1.366659870150e-02 0.0 
5.956037086072e-04 1.482931097595e-03 0.0 
1.560548515442e-03 8.841023813915e-03 0.0 
1.794167622457e-03 9.808057943346e-03 0.0 
1.742801431220e-03 1.075778175626e-02 0.0 
3.190515932445e-04 1.758920701370e-03 0.0 
1.208887628813e-03 1.352068133173e-02 0.0 
5.122698344842e-04 1.251756534771e-03 0.0 
2.404610580207e-03 8.426792054461e-03 0.0 
2.564103912615e-03 9.090122805112e-03 0.0 
2.625400844778e-03 1.000547351049e-02 0.0 
1.807175992830e-03 7.912628422437e-03 0.0 
4.406281439095e-04 1.215654350560e-03 0.0 
7.871788757647e-04 2.301515359093e-03 0.0 
7.305077951720e-04 2.260684012448e-03 0.0 
1.091074150754e-03 3.396014092978e-03 0.0 
3.774500471003e-04 1.167962574712e-03 0.0 
5.089100498736e-04 1.597534690006e-03 0.0 
5.061932544983e-04 1.486536787649e-03 0.0 
1.085826010724e-03 1.135324496837e-02 0.0 
1.290558242518e-03 1.130763064794e-02 0.0 
1.462464640165e-03 1.087778826474e-02 0.0 
1.500909116716e-03 1.126829298023e-02 0.0 
1.295495575841e-03 1.169216505814e-02 0.0 
1.519221513227e-03 1.169694395517e-02 0.0 
1.711250005709e-03 1.123257911041e-02 0.0 
1.515081836665e-03 1.217023018123e-02 0.0 
1.841790062592e-03 6.100441577189e-03 0.0 
3.065763890735e-04 1.092994089255e-03 0.0 
1.302302296562e-03 7.265443017852e-03 0.0 
1.448422049775e-03 7.688504047398e-03 0.0 
1.478022227932e-03 8.411161299358e-03 0.0 
6.671056108418e-04 9.194135377051e-03 0.0 
7.795303418865e-04 8.910337060680e-03 0.0 
7.905933238161e-04 8.301683358214e-03 0.0 
5.576614423521e-04 9.466657063077e-03 0.0 
2.648296474213e-03 8.403498356406e-03 0.0 
2.780469026025e-04 1.088884233141e-03 0.0 
1.937382533951e-03 7.945406591276e-03 0.0 
8.692966813779e-04 9.195779447877e-03 0.0 
1.478426593195e-03 1.814814780491e-02 0.0 
1.576092995847e-03 1.658795483519e-02 0.0 
1.733636017356e-03 1.644494467977e-02 0.0 
1.643987857527e-03 1.474242272115e-02 0.0 
1.402916301203e-03 1.646797405655e-02 0.0 
4.926390992388e-04 8.034347897734e-03 0.0 
3.953363455542e-04 7.729071102018e-03 0.0 
3.089161543564e-04 8.093474224390e-03 0.0 
2.990040713491e-04 7.415263051060e-03 0.0 
2.161095655620e-04 7.796852075762e-03 0.0 
2.233814827255e-04 8.426065478369e-03 0.0 
2.026249451519e-04 7.091709450302e-03 0.0 
1.250543316362e-04 7.570902302275e-03 0.0 
1.191136870609e-03 1.826568277491e-02 0.0 
-4.197819634548e-04 1.270432133232e-02 0.0 
-1.321972855841e-04 1.250175267134e-02 0.0 
-9.058068146750e-05 1.229684939194e-02 0.0 
9.922360044001e-05 1.228899064074e-02 0.0 
1.019901298811e-04 1.249810300397e-02 0.0 
3.620516820622e-04 1.221726742314e-02 0.0 
3.411135542457e-04 1.248321428711e-02 0.0 
-1.835402155557e-04 1.276817969202e-02 0.0 
-2.495678604735e-04 1.228292794619e-02 0.0 
-4.816872178104e-05 1.213479522384e-02 0.0 
-1.818857932179e-04 1.213366207875e-02 0.0 
-2.015296387547e-05 1.200956386135e-02 0.0 
1.530458374663e-04 1.194567323900e-02 0.0 
3.274462311893e-04 1.146016780193e-02 0.0 
7.746233029238e-05 1.226004045346e-03 0.0 
8.160397393719e-05 9.255719389772e-03 0.0 
1.551786186813e-04 9.515074250636e-03 0.0 
1.420712197813e-04 9.965808531843e-03 0.0 
2.290769319231e-04 9.733985147715e-03 0.0 
1.561834343251e-04 9.039055350538e-03 0.0 
6.744101846767e-05 1.018654132425e-02 0.0 
1.275578917368e-04 1.032813704526e-02 0.0 
1.841062286845e-05 1.166017225085e-02 0.0 
2.840886480104e-05 1.160937257346e-02 0.0 
1.123210864395e-05 1.161179776371e-02 0.0 
3.479492304570e-05 1.151605244980e-02 0.0 
5.575097344890e-05 1.152545079791e-02 0.0 
4.224966983735e-05 1.161647507939e-02 0.0 
5.308466687559e-05 1.163024788734e-02 0.0 
2.299067819322e-05 1.168963971113e-02 0.0 
6.086018483131e-05 1.164949614379e-02 0.0 
9.766918669918e-05 1.154411025254e-02 0.0 
1.838953605038e-05 1.171343043895e-02 0.0 
6.180158388958e-05 9.588815992934e-03 0.0 
1.178741416581e-04 8.588219775740e-03 0.0 
2.383946530440e-04 1.136620885688e-03 0.0 
9.249643265576e-04 1.816667841228e-02 0.0 
-7.704140258902e-05 1.192168155166e-02 0.0 
9.578356321782e-05 2.285141400360e-03 0.0 
1.477897008400e-04 1.895140268484e-03 0.0 
1.191764432633e-04 1.836586858637e-03 0.0 
4.524229747105e-05 2.972769549604e-03 0.0 
7.347688611903e-05 2.444392811093e-03 0.0 
5.124088719555e-05 2.221661466301e-03 0.0 
5.433089369529e-04 1.074299856702e-02 0.0 
9.477610956736e-04 4.145948924961e-03 0.0 
2.713240570529e-04 5.909404681439e-03 0.0 
9.503402204416e-04 1.429998391857e-02 0.0 
7.252955494774e-04 1.098349909346e-02 0.0 
2.494911382196e-04 5.877868010520e-03 0.0 
7.470940991121e-04 6.902609718745e-03 0.0 
2.963264965308e-04 3.936934902462e-03 0.0 
4.518614089530e-04 6.613225939478e-03 0.0 
5.012671898532e-04 4.798995268217e-03 0.0 
6.918107642253e-04 2.296378323962e-03 0.0 
1.106011286875e-04 1.127888621987e-02 0.0 
7.487120295409e-04 1.322666558757e-02 0.0 
4.796199863435e-04 1.390910375691e-02 0.0 
4.512684089661e-04 9.111957816435e-03 0.0 
3.681626478231e-04 1.055599244873e-02 0.0 
3.136727185256e-04 8.679641303425e-03 0.0 
2.585305698606e-04 1.128587775436e-02 0.0 
1.076284962974e-03 2.839117983612e-03 0.0 
2.902121415435e-03 1.541865218673e-02 0.0 
1.353614526119e-03 8.694957049087e-03 0.0 
6.304490751656e-04 9.706965745233e-03 0.0 
6.691881576852e-04 1.057816254350e-02 0.0 
7.301492041751e-04 1.120714760313e-02 0.0 
2.935990051160e-03 1.307670661038e-02 0.0 
9.926327938654e-04 8.921562966417e-03 0.0 
9.196577879305e-04 5.583629021368e-03 0.0 
3.443312098241e-04 7.993025133192e-03 0.0 
-3.449608306560e-06 1.178250086082e-02 0.0 
9.445207609105e-04 5.097897309644e-03 0.0 
9.894477767460e-04 7.618472875597e-03 0.0 
1.053684661990e-03 1.250108686430e-02 0.0 
1.833645380490e-03 5.769333544693e-03 0.0 
4.635738347840e-04 1.194210394454e-02 0.0 
6.587421756024e-04 8.389053574835e-03 0.0 
6.668339346874e-04 4.747614430720e-03 0.0 
1.360830412395e-03 1.450042438849e-02 0.0 
1.786033919746e-04 1.148705655472e-02 0.0 
7.835644900638e-04 1.513209181151e-02 0.0 
6.937699075173e-04 2.943266487684e-03 0.0 
1.306318297779e-03 8.806150064931e-03 0.0 
2.793195611090e-04 1.073509309891e-02 0.0 
2.132822573522e-03 9.242359498744e-03 0.0 
3.079929467777e-03 1.379947086874e-02 0.0 
2.089456346326e-03 1.907039719993e-02 0.0 
2.817093061722e-04 5.032850269220e-03 0.0 
2.822712431929e-03 1.051342568554e-02 0.0 
1.409386311849e-03 4.598227691925e-03 0.0 
2.007755317884e-03 7.604086461589e-03 0.0 
2.379894219775e-04 1.057043550312e-02 0.0 
6.548545869940e-04 4.185595739720e-03 0.0 
2.515130575819e-03 1.018862248758e-02 0.0 
5.332004644032e-04 6.339695734354e-03 0.0 
2.508705263349e-03 8.191642996243e-03 0.0 
2.119469853195e-03 1.113306354095e-02 0.0 
8.763005342729e-04 7.628788898458e-03 0.0 
1.605538408899e-03 8.814666815114e-03 0.0 
1.762887939169e-03 5.250233891470e-03 0.0 
2.956151264289e-03 1.570313310344e-02 0.0 
2.939010146985e-03 1.100979242706e-02 0.0 
2.506938685258e-03 1.034747507369e-02 0.0 
2.978855819528e-03 1.081624122236e-02 0.0 
1.700606341577e-04 6.337944149163e-03 0.0 
7.948461482314e-04 4.643655647653e-03 0.0 
6.736290523612e-04 1.278128419093e-02 0.0 
2.599239714613e-03 1.485126434915e-02 0.0 
1.302798515930e-03 1.259907632893e-02 0.0 
1.837454215206e-03 5.102093559401e-03 0.0 
3.782559626586e-04 4.225406186215e-03 0.0 
2.998517184544e-03 1.492515095720e-02 0.0 
6.463235353271e-04 4.717903254203e-03 0.0 
6.918300380860e-04 5.635416775252e-03 0.0 
8.928779735164e-04 8.613958739963e-03 0.0 
3.930613364889e-05 1.115313009233e-02 0.0 
5.060681815934e-04 1.465606179028e-02 0.0 
1.753560101033e-03 1.222990487587e-02 0.0 
2.739332170322e-03 1.070119500239e-02 0.0 
8.925030118068e-04 7.970195755183e-03 0.0 
7.375767128295e-04 3.723006927732e-03 0.0 
5.233754573020e-04 4.277328452265e-03 0.0 
1.288807303103e-03 5.550367019850e-03 0.0 
-5.487354040383e-04 1.636206441298e-02 0.0 
2.311478432063e-03 1.810868333308e-02 0.0 
4.109890061779e-04 3.827771766634e-03 0.0 
1.992681891467e-03 8.738555720232e-03 0.0 
1.544466311994e-03 4.647354016214e-03 0.0 
1.354886541647e-04 8.170692434424e-03 0.0 
1.084540831222e-03 2.794945620554e-03 0.0 
2.423524608734e-03 1.942067716386e-02 0.0 
3.099993082190e-04 3.368229323634e-03 0.0 
1.480734402314e-03 5.613047371746e-03 0.0 
2.199272544480e-03 1.375087621089e-02 0.0 
2.570772804589e-04 1.834104536449e-02 0.0 
1.960238584289e-04 2.115491640531e-03 0.0 
1.250943974574e-03 4.522300653203e-03 0.0 
2.848836422643e-03 9.643498201989e-03 0.0 
1.867321013941e-03 8.992672853161e-03 0.0 
2.179193772641e-03 2.012567000761e-02 0.0 
7.797045161082e-04 7.635965450179e-03 0.0 
2.823554808348e-03 1.055694425106e-02 0.0 
2.763911070289e-04 1.725331698335e-03 0.0 
1.204430558742e-03 4.044614028487e-03 0.0 
1.955897040261e-03 1.170043974701e-02 0.0 
6.866190271806e-04 7.993796426021e-03 0.0 
2.435161047323e-03 7.743514049638e-03 0.0 
7.691706381197e-05 1.153401364967e-02 0.0 
2.436345906418e-03 1.903442940434e-02 0.0 
5.821128454295e-04 7.678002077759e-03 0.0 
1.742562595265e-03 1.170961864601e-02 0.0 
1.731445330812e-03 8.548146321411e-03 0.0 
1.075883169595e-03 2.798427605928e-03 0.0 
4.790617173027e-04 7.354461955588e-03 0.0 
1.919125164957e-03 1.118704642514e-02 0.0 
3.781610642939e-04 7.022981659143e-03 0.0 
2.139789701026e-03 2.071474977331e-02 0.0 
2.019533945166e-03 1.070973213673e-02 0.0 
2.765749884635e-04 6.681841214986e-03 0.0 
2.607870594542e-03 9.088573109731e-03 0.0 
1.186478600737e-04 1.155727666600e-02 0.0 
2.722243642921e-03 8.842163424291e-03 0.0 
1.066646344994e-04 3.535878183182e-03 0.0 
9.524203361160e-04 1.022726488141e-02 0.0 
1.592183936960e-03 8.121673092742e-03 0.0 
1.816075330808e-03 8.853544807716e-03 0.0 
1.908659145499e-03 2.079109233102e-02 0.0 
1.535825623524e-03 7.348087940128e-03 0.0 
2.319892165183e-03 7.570147616578e-03 0.0 
2.571543218234e-03 8.080310903992e-03 0.0 
2.703728765347e-03 9.785373532109e-03 0.0 
1.434737584384e-03 6.490412459499e-03 0.0 
2.192234194823e-03 1.934718594461e-02 0.0 
5.618996509327e-04 1.093073540244e-02 0.0 
4.514501531343e-04 1.121733906297e-02 0.0 
1.854439302463e-03 1.070622219815e-02 0.0 
2.094464828200e-03 6.865956230797e-03 0.0 
6.630989153944e-05 1.139663678732e-02 0.0 
2.060373382914e-03 8.808561332730e-03 0.0 
2.966716056090e-04 1.160518096605e-02 0.0 
1.660068983744e-03 1.079574523352e-02 0.0 
2.090591183059e-03 6.030946316624e-03 0.0 
7.380368237619e-05 1.340976313743e-02 0.0 
1.592825388263e-03 1.039071199173e-02 0.0 
4.748284084821e-05 1.088292092023e-02 0.0 
1.409009774518e-03 1.051658319362e-02 0.0 
2.601770382118e-03 8.794951511186e-03 0.0 
1.343193564747e-03 1.017220718464e-02 0.0 
1.173206626257e-03 1.032846074609e-02 0.0 
1.879155767597e-04 3.866554988228e-03 0.0 
1.108601138254e-03 1.003702489566e-02 0.0 
2.494033395095e-05 1.842213731774e-03 0.0 
3.222979798556e-05 1.114698855922e-03 0.0 
9.686641134721e-05 1.701759308271e-02 0.0 
1.436801829040e-03 2.059355429122e-02 0.0 
-7.684490220257e-04 1.377519183226e-02 0.0 
1.799030960829e-03 1.874424925694e-02 0.0 
8.503498836063e-04 1.063277724043e-02 0.0 
2.272854485462e-03 8.709565619590e-03 0.0 
2.013219911774e-04 1.693685878110e-02 0.0 
7.013845705472e-04 1.078036906484e-02 0.0 
9.539044872646e-04 3.242830350434e-03 0.0 
5.407895167231e-04 1.307159461298e-03 0.0 
1.333742755776e-04 1.047212096186e-02 0.0 
1.342331370644e-03 4.117467712685e-03 0.0 
2.390017584531e-03 7.306401355903e-03 0.0 
3.822928369601e-05 5.617651233901e-03 0.0 
5.955920969001e-04 1.847859116040e-02 0.0 
6.049636100514e-06 1.190875721080e-02 0.0 
8.189261619040e-05 5.892926078104e-03 0.0 
9.256961650443e-04 1.983543795212e-02 0.0 
1.148707054497e-03 1.812774378754e-02 0.0 
5.887932302819e-04 1.714907393350e-02 0.0 
1.856013165793e-04 1.043405519244e-02 0.0 
1.072232551156e-04 1.211530647745e-02 0.0 
5.208202007445e-04 1.870730343008e-02 0.0 
8.587367444228e-04 2.416783889920e-03 0.0 
1.004432653481e-03 1.688739180664e-02 0.0 
1.993870540577e-03 5.598080597139e-03 0.0 
-2.415584605231e-05 1.755997629698e-02 0.0 
4.790074787948e-04 3.684636825863e-03 0.0 
1.053371812198e-03 2.659439183770e-03 0.0 
1.657811381701e-04 9.915500572681e-04 0.0 
1.571466600982e-03 4.184336510260e-03 0.0 
2.281300873008e-05 1.611330937214e-02 0.0 
1.497541335738e-03 1.519185236286e-02 0.0 
1.061268220401e-03 2.891940957081e-03 0.0 
1.807551931137e-04 8.877452762539e-03 0.0 
1.184690895872e-04 9.459404770915e-04 0.0 
1.265167943053e-03 1.699193491946e-02 0.0 
1.138409936274e-04 3.611052609120e-03 0.0 
4.629470933963e-04 1.265940205993e-02 0.0 
5.706546897244e-05 3.505363194023e-03 0.0 
1.955381769420e-03 6.980772113614e-03 0.0 
4.117997453150e-04 1.475726419130e-02 0.0 
1.804098773114e-03 1.507655698819e-02 0.0 
8.888419587993e-05 1.926763820695e-03 0.0 
8.449284236605e-04 3.386346707590e-03 0.0 
-2.567464895336e-04 1.553812004904e-02 0.0 
2.093166667834e-04 1.067126634327e-02 0.0 
3.090866701396e-04 9.735073626794e-03 0.0 
-3.046779684901e-04 1.309189913928e-02 0.0 
4.149136280880e-04 2.074210336705e-03 0.0 
1.576316515138e-03 5.268032733383e-03 0.0 
1.490056403171e-04 1.969593894628e-03 0.0 
1.460325290870e-05 1.152307197547e-02 0.0 
3.580668471059e-05 1.177453830547e-02 0.0 
4.699818243985e-04 1.948896415229e-03 0.0 
9.597038305138e-04 2.867241546252e-03 0.0 
5.951948573042e-04 1.222813337470e-02 0.0 
1.592359000142e-04 1.481010566390e-03 0.0 
-6.374369085655e-04 1.514356410071e-02 0.0 
8.106314759999e-04 1.865559554912e-02 0.0 
5.981821723555e-05 1.167941408828e-02 0.0 
9.433019565108e-05 9.537042064665e-04 0.0 
2.790836569417e-04 3.451290192938e-03 0.0 
2.189188656230e-04 9.283519160816e-03 0.0 
1.778182982541e-03 1.775670676125e-02 0.0 
1.100831152958e-04 1.066700181330e-02 0.0 
1.447979037852e-03 3.838896082087e-03 0.0 
1.110795931076e-04 1.188002703154e-02 0.0 
1.882282343786e-04 3.263199253894e-03 0.0 
5.532684948104e-04 1.942583394197e-03 0.0 
5.832324632919e-04 3.180717650643e-03 0.0 
3.645711738898e-04 9.279773348965e-04 0.0 
-4.899145120092e-04 1.403365433034e-02 0.0 
9.326059247776e-04 2.330064936494e-03 0.0 
9.477625428893e-04 3.088063610292e-03 0.0 
4.481112793044e-04 1.854931966262e-02 0.0 
7.362506064581e-04 3.361523192822e-03 0.0 
1.967265755978e-04 1.011284791418e-02 0.0 
1.446199415982e-04 1.143014833117e-02 0.0 
1.078689207645e-05 1.632485494795e-03 0.0 
3.827881471574e-06 1.165267304572e-02 0.0 
7.533726748221e-05 1.853697402083e-02 0.0 
1.285158574604e-05 9.090194907913e-04 0.0 
8.626839172976e-05 1.143336150671e-02 0.0 
1.596288607502e-04 1.570289313998e-02 0.0 
8.915751300655e-04 2.816595941539e-03 0.0 
5.873159070313e-05 8.061054665019e-03 0.0 
8.931922400279e-05 6.975847586432e-03 0.0 
2.668643895287e-04 1.209158095163e-02 0.0 
-7.053294600290e-04 1.333569160670e-02 0.0 
1.277134456927e-04 1.245864785338e-02 0.0 
9.219208664923e-04 2.336583902188e-03 0.0 
4.489060718527e-04 3.072765882617e-03 0.0 
3.300141688172e-04 1.374035139171e-02 0.0 
1.367727055346e-04 1.497835724358e-02 0.0 
1.240221172296e-03 3.959624748571e-03 0.0 
2.353580545469e-04 8.869095985565e-03 0.0 
1.421693994292e-03 3.950550778871e-03 0.0 
1.080495995783e-03 3.208891819266e-03 0.0 
-1.049288772322e-03 1.539569110900e-02 0.0 
5.298105414009e-05 7.392371387521e-03 0.0 
5.163641396422e-05 1.171151118632e-02 0.0 
2.733470442369e-04 1.823626968157e-03 0.0 
1.563344749840e-04 8.604060925252e-03 0.0 
1.678934680008e-03 2.237742299737e-02 0.0 
5.601038931502e-05 2.379155781276e-02 0.0 
1.812873643516e-03 2.144726952016e-02 0.0 
5.055380588459e-05 2.223661956090e-02 0.0 
1.777207528448e-03 2.023786198466e-02 0.0 
5.191270997784e-05 2.061847125271e-02 0.0 

VECTORS node_bounda_dof_materi_velocity_x float
1.000000000000e+00 0.0 0.0 
1.000000000000e+00 0.0 0.0 
1.000000000000e+00 0.0 0.0 
1.000000000000e+00 0.0 0.0 
1.000000000000e+00 0.0 0.0 
1.000000000000e+00 0.0 0.0 
1.000000000000e+00 0.0 0.0 
1.000000000000e+00 0.0 0.0 
1.000000000000e+00 0.0 0.0 
1.000000000000e+00 0.0 0.0 
1.000000000000e+00 0.0 0.0 
1.000000000000e+00 0.0 0.0 
1.000000000000e+00 0.0 0.0 
1.000000000000e+00 0.0 0.0 
1.000000000000e+00 0.0 0.0 
1.000000000000e+00 0.0 0.0 
1.000000000000e+00 0.0 0.0 
1.000000000000e+00 0.0 0.0 
1.000000000000e+00 0.0 0.0 
1.000000000000e+00 0.0 0.0 
1.000000000000e+00 0.0 0.0 
1.000000000000e+00 0.0 0.0 
1.000000000000e+00 0.0 0.0 
1.000000000000e+00 0.0 0.0 
1.000000000000e+00 0.0 0.0 
1.000000000000e+00 0.0 0.0 
1.000000000000e+00 0.0 0.0 
1.000000000000e+00 0.0 0.0 
1.000000000000e+00 0.0 0.0 
1.000000000000e+00 0.0 0.0 
1.000000000000e+00 0.0 0.0 
1.000000000000e+00 0.0 0.0 
1.000000000000e+00 0.0 0.0 
1.000000000000e+00 0.0 0.0 
1.000000000000e+00 0.0 0.0 
1.000000000000e+00 0.0 0.0 
1.000000000000e+00 0.0 0.0 
1.000000000000e+00 0.0 0.0 
1.000000000000e+00 0.0 0.0 
1.000000000000e+00 0.0 0.0 
1.000000000000e+00 0.0 0.0 
1.000000000000e+00 0.0 0.0 
1.000000000000e+00 0.0 0.0 
1.000000000000e+00 0.0 0.0 
1.000000000000e+00 0.0 0.0 
1.000000000000e+00 0.0 0.0 
1.000000000000e+00 0.0 0.0 
1.000000000000e+00 0.0 0.0 
1.000000000000e+00 0.0 0.0 
1.000000000000e+00 0.0 0.0 
1.000000000000e+00 0.0 0.0 
1.000000000000e+00 0.0 0.0 
1.000000000000e+00 0.0 0.0 
1.000000000000e+00 0.0 0.0 
1.000000000000e+00 0.0 0.0 
1.000000000000e+00 0.0 0.0 
1.000000000000e+00 0.0 0.0 
1.000000000000e+00 0.0 0.0 
1.000000000000e+00 0.0 0.0 
1.000000000000e+00 0.0 0.0 
1.000000000000e+00 0.0 0.0 
1.000000000000e+00 0.0 0.0 
1.000000000000e+00 0.0 0.0 
1.000000000000e+00 0.0 0.0 
1.000000000000e+00 0.0 0.0 
1.000000000000e+00 0.0 0.0 
1.000000000000e+00 0.0 0.0 
1.000000000000e+00 0.0 0.0 
1.000000000000e+00 0.0 0.0 
1.000000000000e+00 0.0 0.0 
1.000000000000e+00 0.0 0.0 
1.000000000000e+00 0.0 0.0 
1.000000000000e+00 0.0 0.0 
1.000000000000e+00 0.0 0.0 
1.000000000000e+00 0.0 0.0 
1.000000000000e+00 0.0 0.0 
1.000000000000e+00 0.0 0.0 
1.000000000000e+00 0.0 0.0 
1.000000000000e+00 0.0 0.0 
1.000000000000e+00 0.0 0.0 
1.000000000000e+00 0.0 0.0 
0.0 0.0 0.0 
0.0 0.0 0.0 
0.0 0.0 0.0 
0.0 0.0 0.0 
0.0 0.0 0.0 
0.0 0.0 0.0 
0.0 0.0 0.0 
0.0 0.0 0.0 
0.0 0.0 0.0 
0.0 0.0 0.0 
0.0 0.0 0.0 
1.000000000000e+00 0.0 0.0 
1.000000000000e+00 0.0 0.0 
1.000000000000e+00 0.0 0.0 
0.0 0.0 0.0 
0.0 0.0 0.0 
0.0 0.0 0.0 
0.0 0.0 0.0 
0.0 0.0 0.0 
0.0 0.0 0.0 
0.0 0.0 0.0 
0.0 0.0 0.0 
0.0 0.0 0.0 
0.0 0.0 0.0 
0.0 0.0 0.0 
0.0 0.0 0.0 
0.0 0.0 0.0 
0.0 0.0 0.0 
0.0 0.0 0.0 
0.0 0.0 0.0 
0.0 0.0 0.0 
0.0 0.0 0.0 
0.0 0.0 0.0 
0.0 0.0 0.0 
0.0 0.0 0.0 
0.0 0.0 0.0 
0.0 0.0 0.0 
0.0 0.0 0.0 
0.0 0.0 0.0 
0.0 0.0 0.0 
0.0 0.0 0.0 
0.0 0.0 0.0 
0.0 0.0 0.0 
0.0 0.0 0.0 
0.0 0.0 0.0 
0.0 0.0 0.0 
0.0 0.0 0.0 
0.0 0.0 0.0 
0.0 0.0 0.0 
0.0 0.0 0.0 
0.0 0.0 0.0 
0.0 0.0 0.0 
0.0 0.0 0.0 
0.0 0.0 0.0 
0.0 0.0 0.0 
0.0 0.0 0.0 
0.0 0.0 0.0 
0.0 0.0 0.0 
0.0 0.0 0.0 
0.0 0.0 0.0 
0.0 0.0 0.0 
0.0 0.0 0.0 
0.0 0.0 0.0 
0.0 0.0 0.0 
0.0 0.0 0.0 
0.0 0.0 0.0 
0.0 0.0 0.0 
0.0 0.0 0.0 
0.0 0.0 0.0 
0.0 0.0 0.0 
0.0 0.0 0.0 
0.0 0.0 0.0 
0.0 0.0 0.0 
0.0 0.0 0.0 
0.0 0.0 0.0 
0.0 0.0 0.0 
0.0 0.0 0.0 
0.0 0.0 0.0 
0.0 0.0 0.0 
0.0 0.0 0.0 
0.0 0.0 0.0 
0.0 0.0 0.0 
0.0 0.0 0.0 
0.0 0.0 0.0 
0.0 0.0 0.0 
0.0 0.0 0.0 
0.0 0.0 0.0 
0.0 0.0 0.0 
0.0 0.0 0.0 
0.0 0.0 0.0 
0.0 0.0 0.0 
0.0 0.0 0.0 
0.0 0.0 0.0 
0.0 0.0 0.0 
0.0 0.0 0.0 
0.0 0.0 0.0 
0.0 0.0 0.0 
0.0 0.0 0.0 
0.0 0.0 0.0 
0.0 0.0 0.0 
0.0 0.0 0.0 
0.0 0.0 0.0 
0.0 0.0 0.0 
0.0 0.0 0.0 
0.0 0.0 0.0 
0.0 0.0 0.0 
0.0 0.0 0.0 
0.0 0.0 0.0 
0.0 0.0 0.0 
0.0 0.0 0.0 
0.0 0.0 0.0 
0.0 0.0 0.0 
0.0 0.0 0.0 
0.0 0.0 0.0 
0.0 0.0 0.0 
0.0 0.0 0.0 
0.0 0.0 0.0 
0.0 0.0 0.0 
0.0 0.0 0.0 
0.0 0.0 0.0 
0.0 0.0 0.0 
0.0 0.0 0.0 
0.0 0.0 0.0 
0.0 0.0 0.0 
0.0 0.0 0.0 
0.0 0.0 0.0 
0.0 0.0 0.0 
0.0 0.0 0.0 
0.0 0.0 0.0 
0.0 0.0 0.0 
0.0 0.0 0.0 
0.0 0.0 0.0 
0.0 0.0 0.0 
0.0 0.0 0.0 
0.0 0.0 0.0 
0.0 0.0 0.0 
0.0 0.0 0.0 
0.0 0.0 0.0 
0.0 0.0 0.0 
0.0 0.0 0.0 
0.0 0.0 0.0 
0.0 0.0 0.0 
0.0 0.0 0.0 
0.0 0.0 0.0 
0.0 0.0 0.0 
0.0 0.0 0.0 
0.0 0.0 0.0 
0.0 0.0 0.0 
0.0 0.0 0.0 
0.0 0.0 0.0 
0.0 0.0 0.0 
0.0 0.0 0.0 
0.0 0.0 0.0 
0.0 0.0 0.0 
0.0 0.0 0.0 
0.0 0.0 0.0 
0.0 0.0 0.0 
0.0 0.0 0.0 
0.0 0.0 0.0 
0.0 0.0 0.0 
0.0 0.0 0.0 
0.0 0.0 0.0 
0.0 0.0 0.0 
0.0 0.0 0.0 
0.0 0.0 0.0 
0.0 0.0 0.0 
0.0 0.0 0.0 
0.0 0.0 0.0 
0.0 0.0 0.0 
0.0 0.0 0.0 
0.0 0.0 0.0 
0.0 0.0 0.0 
0.0 0.0 0.0 
0.0 0.0 0.0 
0.0 0.0 0.0 
0.0 0.0 0.0 
0.0 0.0 0.0 
0.0 0.0 0.0 
0.0 0.0 0.0 
0.0 0.0 0.0 
0.0 0.0 0.0 
0.0 0.0 0.0 
0.0 0.0 0.0 
0.0 0.0 0.0 
0.0 0.0 0.0 
0.0 0.0 0.0 
0.0 0.0 0.0 
0.0 0.0 0.0 
0.0 0.0 0.0 
0.0 0.0 0.0 
0.0 0.0 0.0 
0.0 0.0 0.0 
0.0 0.0 0.0 
0.0 0.0 0.0 
0.0 0.0 0.0 
0.0 0.0 0.0 
0.0 0.0 0.0 
0.0 0.0 0.0 
0.0 0.0 0.0 
0.0 0.0 0.0 
0.0 0.0 0.0 
0.0 0.0 0.0 
0.0 0.0 0.0 
0.0 0.0 0.0 
0.0 0.0 0.0 
0.0 0.0 0.0 
0.0 0.0 0.0 
0.0 0.0 0.0 
0.0 0.0 0.0 
0.0 0.0 0.0 
0.0 0.0 0.0 
0.0 0.0 0.0 
0.0 0.0 0.0 
0.0 0.0 0.0 
0.0 0.0 0.0 
0.0 0.0 0.0 
0.0 0.0 0.0 
0.0 0.0 0.0 
0.0 0.0 0.0 
0.0 0.0 0.0 
0.0 0.0 0.0 
0.0 0.0 0.0 
0.0 0.0 0.0 
0.0 0.0 0.0 
0.0 0.0 0.0 
0.0 0.0 0.0 
0.0 0.0 0.0 
0.0 0.0 0.0 
0.0 0.0 0.0 
0.0 0.0 0.0 
0.0 0.0 0.0 
0.0 0.0 0.0 
0.0 0.0 0.0 
0.0 0.0 0.0 
0.0 0.0 0.0 
0.0 0.0 0.0 
0.0 0.0 0.0 
0.0 0.0 0.0 
0.0 0.0 0.0 
0.0 0.0 0.0 
0.0 0.0 0.0 
0.0 0.0 0.0 
0.0 0.0 0.0 
0.0 0.0 0.0 
0.0 0.0 0.0 
0.0 0.0 0.0 
0.0 0.0 0.0 
0.0 0.0 0.0 
0.0 0.0 0.0 
0.0 0.0 0.0 
0.0 0.0 0.0 
0.0 0.0 0.0 
0.0 0.0 0.0 
0.0 0.0 0.0 
0.0 0.0 0.0 
0.0 0.0 0.0 
0.0 0.0 0.0 
0.0 0.0 0.0 
0.0 0.0 0.0 
0.0 0.0 0.0 
0.0 0.0 0.0 
0.0 0.0 0.0 
0.0 0.0 0.0 
0.0 0.0 0.0 
0.0 0.0 0.0 
0.0 0.0 0.0 
0.0 0.0 0.0 
0.0 0.0 0.0 
0.0 0.0 0.0 
0.0 0.0 0.0 
0.0 0.0 0.0 
0.0 0.0 0.0 
0.0 0.0 0.0 
0.0 0.0 0.0 
0.0 0.0 0.0 
0.0 0.0 0.0 
0.0 0.0 0.0 
0.0 0.0 0.0 
0.0 0.0 0.0 
0.0 0.0 0.0 
0.0 0.0 0.0 
0.0 0.0 0.0 
0.0 0.0 0.0 
0.0 0.0 0.0 
0.0 0.0 0.0 
0.0 0.0 0.0 
0.0 0.0 0.0 
0.0 0.0 0.0 
0.0 0.0 0.0 
0.0 0.0 0.0 
0.0 0.0 0.0 
0.0 0.0 0.0 
0.0 0.0 0.0 
0.0 0.0 0.0 
0.0 0.0 0.0 
0.0 0.0 0.0 
0.0 0.0 0.0 
0.0 0.0 0.0 
0.0 0.0 0.0 
0.0 0.0 0.0 
0.0 0.0 0.0 
0.0 0.0 0.0 
0.0 0.0 0.0 
0.0 0.0 0.0 
0.0 0.0 0.0 
0.0 0.0 0.0 
0.0 0.0 0.0 
0.0 0.0 0.0 
0.0 0.0 0.0 
0.0 0.0 0.0 
0.0 0.0 0.0 
0.0 0.0 0.0 
0.0 0.0 0.0 
0.0 0.0 0.0 
0.0 0.0 0.0 
0.0 0.0 0.0 
0.0 0.0 0.0 
0.0 0.0 0.0 
0.0 0.0 0.0 
0.0 0.0 0.0 
0.0 0.0 0.0 
0.0 0.0 0.0 
0.0 0.0 0.0 
0.0 0.0 0.0 
0.0 0.0 0.0 
0.0 0.0 0.0 
0.0 0.0 0.0 
0.0 0.0 0.0 
0.0 0.0 0.0 
0.0 0.0 0.0 
0.0 0.0 0.0 
0.0 0.0 0.0 
0.0 0.0 0.0 
0.0 0.0 0.0 
0.0 0.0 0.0 
0.0 0.0 0.0 
0.0 0.0 0.0 
0.0 0.0 0.0 
0.0 0.0 0.0 
0.0 0.0 0.0 
0.0 0.0 0.0 
0.0 0.0 0.0 
0.0 0.0 0.0 
0.0 0.0 0.0 
0.0 0.0 0.0 
0.0 0.0 0.0 
0.0 0.0 0.0 
0.0 0.0 0.0 
0.0 0.0 0.0 
0.0 0.0 0.0 
0.0 0.0 0.0 
0.0 0.0 0.0 
0.0 0.0 0.0 
0.0 0.0 0.0 
0.0 0.0 0.0 
0.0 0.0 0.0 
0.0 0.0 0.0 
0.0 0.0 0.0 
0.0 0.0 0.0 
0.0 0.0 0.0 
0.0 0.0 0.0 
0.0 0.0 0.0 
0.0 0.0 0.0 
0.0 0.0 0.0 
0.0 0.0 0.0 
0.0 0.0 0.0 
0.0 0.0 0.0 
0.0 0.0 0.0 
0.0 0.0 0.0 
0.0 0.0 0.0 
0.0 0.0 0.0 
0.0 0.0 0.0 
0.0 0.0 0.0 
0.0 0.0 0.0 
0.0 0.0 0.0 
0.0 0.0 0.0 
0.0 0.0 0.0 
0.0 0.0 0.0 
0.0 0.0 0.0 
0.0 0.0 0.0 
0.0 0.0 0.0 
0.0 0.0 0.0 
0.0 0.0 0.0 
0.0 0.0 0.0 
0.0 0.0 0.0 
0.0 0.0 0.0 
0.0 0.0 0.0 
0.0 0.0 0.0 
0.0 0.0 0.0 
0.0 0.0 0.0 
0.0 0.0 0.0 
0.0 0.0 0.0 
0.0 0.0 0.0 
0.0 0.0 0.0 
0.0 0.0 0.0 
0.0 0.0 0.0 
0.0 0.0 0.0 
0.0 0.0 0.0 
0.0 0.0 0.0 
0.0 0.0 0.0 
0.0 0.0 0.0 
0.0 0.0 0.0 
0.0 0.0 0.0 
0.0 0.0 0.0 
0.0 0.0 0.0 
0.0 0.0 0.0 
0.0 0.0 0.0 
0.0 0.0 0.0 
0.0 0.0 0.0 
0.0 0.0 0.0 
0.0 0.0 0.0 
0.0 0.0 0.0 
0.0 0.0 0.0 
0.0 0.0 0.0 
0.0 0.0 0.0 
0.0 0.0 0.0 
0.0 0.0 0.0 
0.0 0.0 0.0 
0.0 0.0 0.0 
0.0 0.0 0.0 
0.0 0.0 0.0 
0.0 0.0 0.0 
0.0 0.0 0.0 
0.0 0.0 0.0 
0.0 0.0 0.0 
0.0 0.0 0.0 
0.0 0.0 0.0 
0.0 0.0 0.0 
0.0 0.0 0.0 
0.0 0.0 0.0 
0.0 0.0 0.0 
0.0 0.0 0.0 
0.0 0.0 0.0 
0.0 0.0 0.0 
0.0 0.0 0.0 
0.0 0.0 0.0 
0.0 0.0 0.0 
0.0 0.0 0.0 
0.0 0.0 0.0 
0.0 0.0 0.0 
0.0 0.0 0.0 
0.0 0.0 0.0 
0.0 0.0 0.0 
0.0 0.0 0.0 
0.0 0.0 0.0 
0.0 0.0 0.0 
0.0 0.0 0.0 
0.0 0.0 0.0 
0.0 0.0 0.0 
0.0 0.0 0.0 
0.0 0.0 0.0 
0.0 0.0 0.0 
0.0 0.0 0.0 
0.0 0.0 0.0 
0.0 0.0 0.0 
0.0 0.0 0.0 
0.0 0.0 0.0 
0.0 0.0 0.0 
0.0 0.0 0.0 
0.0 0.0 0.0 
0.0 0.0 0.0 
0.0 0.0 0.0 
0.0 0.0 0.0 
0.0 0.0 0.0 
0.0 0.0 0.0 
0.0 0.0 0.0 
0.0 0.0 0.0 
0.0 0.0 0.0 
0.0 0.0 0.0 
0.0 0.0 0.0 
0.0 0.0 0.0 
0.0 0.0 0.0 
0.0 0.0 0.0 
0.0 0.0 0.0 
0.0 0.0 0.0 
0.0 0.0 0.0 
0.0 0.0 0.0 
0.0 0.0 0.0 
0.0 0.0 0.0 
0.0 0.0 0.0 
0.0 0.0 0.0 
0.0 0.0 0.0 
0.0 0.0 0.0 
0.0 0.0 0.0 
0.0 0.0 0.0 
0.0 0.0 0.0 
0.0 0.0 0.0 
0.0 0.0 0.0 
0.0 0.0 0.0 
0.0 0.0 0.0 
0.0 0.0 0.0 
0.0 0.0 0.0 
0.0 0.0 0.0 
0.0 0.0 0.0 
0.0 0.0 0.0 
0.0 0.0 0.0 
0.0 0.0 0.0 
0.0 0.0 0.0 
0.0 0.0 0.0 
0.0 0.0 0.0 
0.0 0.0 0.0 
0.0 0.0 0.0 
0.0 0.0 0.0 
0.0 0.0 0.0 
0.0 0.0 0.0 
0.0 0.0 0.0 
0.0 0.0 0.0 
0.0 0.0 0.0 
0.0 0.0 0.0 
0.0 0.0 0.0 
0.0 0.0 0.0 
0.0 0.0 0.0 
0.0 0.0 0.0 
0.0 0.0 0.0 
0.0 0.0 0.0 
0.0 0.0 0.0 
0.0 0.0 0.0 
0.0 0.0 0.0 
0.0 0.0 0.0 
0.0 0.0 0.0 
0.0 0.0 0.0 
0.0 0.0 0.0 
0.0 0.0 0.0 
0.0 0.0 0.0 
0.0 0.0 0.0 
0.0 0.0 0.0 
0.0 0.0 0.0 
0.0 0.0 0.0 
0.0 0.0 0.0 
0.0 0.0 0.0 
0.0 0.0 0.0 
0.0 0.0 0.0 
0.0 0.0 0.0 
0.0 0.0 0.0 
0.0 0.0 0.0 
0.0 0.0 0.0 
0.0 0.0 0.0 
0.0 0.0 0.0 
0.0 0.0 0.0 
0.0 0.0 0.0 
0.0 0.0 0.0 
0.0 0.0 0.0 
0.0 0.0 0.0 
0.0 0.0 0.0 
0.0 0.0 0.0 
0.0 0.0 0.0 
0.0 0.0 0.0 
0.0 0.0 0.0 
0.0 0.0 0.0 
0.0 0.0 0.0 
0.0 0.0 0.0 
0.0 0.0 0.0 
0.0 0.0 0.0 
0.0 0.0 0.0 
0.0 0.0 0.0 
0.0 0.0 0.0 
0.0 0.0 0.0 
0.0 0.0 0.0 
0.0 0.0 0.0 
0.0 0.0 0.0 
0.0 0.0 0.0 
0.0 0.0 0.0 
0.0 0.0 0.0 
0.0 0.0 0.0 
0.0 0.0 0.0 
0.0 0.0 0.0 
0.0 0.0 0.0 
0.0 0.0 0.0 
0.0 0.0 0.0 
0.0 0.0 0.0 
0.0 0.0 0.0 
0.0 0.0 0.0 
0.0 0.0 0.0 
0.0 0.0 0.0 
0.0 0.0 0.0 
0.0 0.0 0.0 
0.0 0.0 0.0 
0.0 0.0 0.0 
0.0 0.0 0.0 
0.0 0.0 0.0 
0.0 0.0 0.0 
0.0 0.0 0.0 
0.0 0.0 0.0 
0.0 0.0 0.0 
0.0 0.0 0.0 
0.0 0.0 0.0 
0.0 0.0 0.0 
0.0 0.0 0.0 
0.0 0.0 0.0 
0.0 0.0 0.0 
0.0 0.0 0.0 
0.0 0.0 0.0 
0.0 0.0 0.0 
0.0 0.0 0.0 
0.0 0.0 0.0 
0.0 0.0 0.0 
0.0 0.0 0.0 
0.0 0.0 0.0 
0.0 0.0 0.0 
0.0 0.0 0.0 
0.0 0.0 0.0 
0.0 0.0 0.0 
0.0 0.0 0.0 
0.0 0.0 0.0 
0.0 0.0 0.0 
0.0 0.0 0.0 
0.0 0.0 0.0 
0.0 0.0 0.0 
0.0 0.0 0.0 
0.0 0.0 0.0 
0.0 0.0 0.0 
0.0 0.0 0.0 
0.0 0.0 0.0 
0.0 0.0 0.0 
0.0 0.0 0.0 
0.0 0.0 0.0 
0.0 0.0 0.0 
0.0 0.0 0.0 
0.0 0.0 0.0 
0.0 0.0 0.0 
0.0 0.0 0.0 
0.0 0.0 0.0 
0.0 0.0 0.0 
0.0 0.0 0.0 
0.0 0.0 0.0 
0.0 0.0 0.0 
0.0 0.0 0.0 
0.0 0.0 0.0 
0.0 0.0 0.0 
0.0 0.0 0.0 
0.0 0.0 0.0 
0.0 0.0 0.0 
0.0 0.0 0.0 
0.0 0.0 0.0 
0.0 0.0 0.0 
0.0 0.0 0.0 
0.0 0.0 0.0 
0.0 0.0 0.0 
0.0 0.0 0.0 
0.0 0.0 0.0 
0.0 0.0 0.0 
0.0 0.0 0.0 
0.0 0.0 0.0 
0.0 0.0 0.0 
0.0 0.0 0.0 
0.0 0.0 0.0 
0.0 0.0 0.0 
0.0 0.0 0.0 
0.0 0.0 0.0 
0.0 0.0 0.0 
0.0 0.0 0.0 
0.0 0.0 0.0 
0.0 0.0 0.0 
0.0 0.0 0.0 
0.0 0.0 0.0 
0.0 0.0 0.0 
0.0 0.0 0.0 
0.0 0.0 0.0 
0.0 0.0 0.0 
0.0 0.0 0.0 
0.0 0.0 0.0 
0.0 0.0 0.0 
0.0 0.0 0.0 
0.0 0.0 0.0 
0.0 0.0 0.0 
0.0 0.0 0.0 
0.0 0.0 0.0 
0.0 0.0 0.0 
0.0 0.0 0.0 
0.0 0.0 0.0 
0.0 0.0 0.0 
0.0 0.0 0.0 
0.0 0.0 0.0 
0.0 0.0 0.0 
0.0 0.0 0.0 
0.0 0.0 0.0 
0.0 0.0 0.0 
0.0 0.0 0.0 
0.0 0.0 0.0 
0.0 0.0 0.0 
0.0 0.0 0.0 
0.0 0.0 0.0 
0.0 0.0 0.0 
0.0 0.0 0.0 
0.0 0.0 0.0 
0.0 0.0 0.0 
0.0 0.0 0.0 
0.0 0.0 0.0 
0.0 0.0 0.0 
0.0 0.0 0.0 
0.0 0.0 0.0 
0.0 0.0 0.0 
0.0 0.0 0.0 
0.0 0.0 0.0 
0.0 0.0 0.0 
0.0 0.0 0.0 
0.0 0.0 0.0 
0.0 0.0 0.0 
0.0 0.0 0.0 
0.0 0.0 0.0 
0.0 0.0 0.0 
0.0 0.0 0.0 
0.0 0.0 0.0 
0.0 0.0 0.0 
0.0 0.0 0.0 
0.0 0.0 0.0 
0.0 0.0 0.0 
0.0 0.0 0.0 
0.0 0.0 0.0 
0.0 0.0 0.0 
0.0 0.0 0.0 
0.0 0.0 0.0 
0.0 0.0 0.0 
0.0 0.0 0.0 
0.0 0.0 0.0 
0.0 0.0 0.0 
0.0 0.0 0.0 
0.0 0.0 0.0 
0.0 0.0 0.0 
0.0 0.0 0.0 
0.0 0.0 0.0 
0.0 0.0 0.0 
0.0 0.0 0.0 
0.0 0.0 0.0 
0.0 0.0 0.0 
0.0 0.0 0.0 
0.0 0.0 0.0 
0.0 0.0 0.0 
0.0 0.0 0.0 
0.0 0.0 0.0 
0.0 0.0 0.0 
0.0 0.0 0.0 
0.0 0.0 0.0 
0.0 0.0 0.0 
0.0 0.0 0.0 
0.0 0.0 0.0 
0.0 0.0 0.0 
0.0 0.0 0.0 
0.0 0.0 0.0 
0.0 0.0 0.0 
0.0 0.0 0.0 
0.0 0.0 0.0 
0.0 0.0 0.0 
0.0 0.0 0.0 
0.0 0.0 0.0 
0.0 0.0 0.0 
0.0 0.0 0.0 
0.0 0.0 0.0 
0.0 0.0 0.0 
0.0 0.0 0.0 
0.0 0.0 0.0 
0.0 0.0 0.0 
0.0 0.0 0.0 
0.0 0.0 0.0 
0.0 0.0 0.0 
0.0 0.0 0.0 
0.0 0.0 0.0 
0.0 0.0 0.0 
0.0 0.0 0.0 
0.0 0.0 0.0 
0.0 0.0 0.0 
0.0 0.0 0.0 
0.0 0.0 0.0 
0.0 0.0 0.0 
0.0 0.0 0.0 
0.0 0.0 0.0 
0.0 0.0 0.0 
0.0 0.0 0.0 
0.0 0.0 0.0 
0.0 0.0 0.0 
0.0 0.0 0.0 
0.0 0.0 0.0 
0.0 0.0 0.0 
0.0 0.0 0.0 
0.0 0.0 0.0 
0.0 0.0 0.0 
0.0 0.0 0.0 
0.0 0.0 0.0 
0.0 0.0 0.0 
0.0 0.0 0.0 
0.0 0.0 0.0 
0.0 0.0 0.0 
0.0 0.0 0.0 
0.0 0.0 0.0 
0.0 0.0 0.0 
0.0 0.0 0.0 
0.0 0.0 0.0 
0.0 0.0 0.0 
0.0 0.0 0.0 
0.0 0.0 0.0 
0.0 0.0 0.0 
0.0 0.0 0.0 
0.0 0.0 0.0 
0.0 0.0 0.0 
0.0 0.0 0.0 
0.0 0.0 0.0 
0.0 0.0 0.0 
0.0 0.0 0.0 
0.0 0.0 0.0 
0.0 0.0 0.0 
0.0 0.0 0.0 
0.0 0.0 0.0 
0.0 0.0 0.0 
0.0 0.0 0.0 
0.0 0.0 0.0 
0.0 0.0 0.0 
0.0 0.0 0.0 
0.0 0.0 0.0 
0.0 0.0 0.0 
0.0 0.0 0.0 
0.0 0.0 0.0 
0.0 0.0 0.0 
0.0 0.0 0.0 
0.0 0.0 0.0 
0.0 0.0 0.0 
0.0 0.0 0.0 
0.0 0.0 0.0 
0.0 0.0 0.0 
0.0 0.0 0.0 
0.0 0.0 0.0 
0.0 0.0 0.0 
0.0 0.0 0.0 
0.0 0.0 0.0 
0.0 0.0 0.0 
0.0 0.0 0.0 
0.0 0.0 0.0 
0.0 0.0 0.0 
0.0 0.0 0.0 
0.0 0.0 0.0 
0.0 0.0 0.0 
0.0 0.0 0.0 
0.0 0.0 0.0 
0.0 0.0 0.0 
0.0 0.0 0.0 
0.0 0.0 0.0 
0.0 0.0 0.0 
0.0 0.0 0.0 
0.0 0.0 0.0 
0.0 0.0 0.0 
0.0 0.0 0.0 
0.0 0.0 0.0 
0.0 0.0 0.0 
0.0 0.0 0.0 
0.0 0.0 0.0 
0.0 0.0 0.0 
0.0 0.0 0.0 
0.0 0.0 0.0 
0.0 0.0 0.0 
0.0 0.0 0.0 
0.0 0.0 0.0 
0.0 0.0 0.0 
0.0 0.0 0.0 
0.0 0.0 0.0 
0.0 0.0 0.0 
0.0 0.0 0.0 
0.0 0.0 0.0 
0.0 0.0 0.0 
0.0 0.0 0.0 
0.0 0.0 0.0 
0.0 0.0 0.0 
0.0 0.0 0.0 
0.0 0.0 0.0 
0.0 0.0 0.0 
0.0 0.0 0.0 
0.0 0.0 0.0 
0.0 0.0 0.0 
0.0 0.0 0.0 
0.0 0.0 0.0 
0.0 0.0 0.0 
0.0 0.0 0.0 
0.0 0.0 0.0 
0.0 0.0 0.0 
0.0 0.0 0.0 
0.0 0.0 0.0 
0.0 0.0 0.0 
0.0 0.0 0.0 
0.0 0.0 0.0 
0.0 0.0 0.0 
0.0 0.0 0.0 
0.0 0.0 0.0 
0.0 0.0 0.0 
0.0 0.0 0.0 
0.0 0.0 0.0 
0.0 0.0 0.0 
0.0 0.0 0.0 
0.0 0.0 0.0 
0.0 0.0 0.0 
0.0 0.0 0.0 
0.0 0.0 0.0 
0.0 0.0 0.0 
0.0 0.0 0.0 
0.0 0.0 0.0 
0.0 0.0 0.0 
0.0 0.0 0.0 
0.0 0.0 0.0 
0.0 0.0 0.0 
0.0 0.0 0.0 
0.0 0.0 0.0 
0.0 0.0 0.0 
0.0 0.0 0.0 
0.0 0.0 0.0 
0.0 0.0 0.0 
0.0 0.0 0.0 
0.0 0.0 0.0 
0.0 0.0 0.0 
0.0 0.0 0.0 
0.0 0.0 0.0 
0.0 0.0 0.0 
0.0 0.0 0.0 
0.0 0.0 0.0 
0.0 0.0 0.0 
0.0 0.0 0.0 
0.0 0.0 0.0 
0.0 0.0 0.0 
0.0 0.0 0.0 
0.0 0.0 0.0 
0.0 0.0 0.0 
0.0 0.0 0.0 
0.0 0.0 0.0 
0.0 0.0 0.0 
0.0 0.0 0.0 
0.0 0.0 0.0 
0.0 0.0 0.0 
0.0 0.0 0.0 
0.0 0.0 0.0 
0.0 0.0 0.0 
0.0 0.0 0.0 
0.0 0.0 0.0 
0.0 0.0 0.0 
0.0 0.0 0.0 
0.0 0.0 0.0 
0.0 0.0 0.0 
0.0 0.0 0.0 
0.0 0.0 0.0 
0.0 0.0 0.0 
0.0 0.0 0.0 
0.0 0.0 0.0 
0.0 0.0 0.0 
0.0 0.0 0.0 
0.0 0.0 0.0 
0.0 0.0 0.0 
0.0 0.0 0.0 
0.0 0.0 0.0 
0.0 0.0 0.0 
0.0 0.0 0.0 
0.0 0.0 0.0 
0.0 0.0 0.0 
0.0 0.0 0.0 
0.0 0.0 0.0 
0.0 0.0 0.0 
0.0 0.0 0.0 
0.0 0.0 0.0 
0.0 0.0 0.0 
0.0 0.0 0.0 
0.0 0.0 0.0 
0.0 0.0 0.0 
0.0 0.0 0.0 
0.0 0.0 0.0 
0.0 0.0 0.0 
0.0 0.0 0.0 
0.0 0.0 0.0 
0.0 0.0 0.0 
0.0 0.0 0.0 
0.0 0.0 0.0 
0.0 0.0 0.0 
0.0 0.0 0.0 
0.0 0.0 0.0 
0.0 0.0 0.0 
0.0 0.0 0.0 
0.0 0.0 0.0 
0.0 0.0 0.0 
0.0 0.0 0.0 
0.0 0.0 0.0 
0.0 0.0 0.0 
0.0 0.0 0.0 
0.0 0.0 0.0 
0.0 0.0 0.0 
0.0 0.0 0.0 
0.0 0.0 0.0 
0.0 0.0 0.0 
0.0 0.0 0.0 
0.0 0.0 0.0 
0.0 0.0 0.0 
0.0 0.0 0.0 
0.0 0.0 0.0 
0.0 0.0 0.0 
0.0 0.0 0.0 
0.0 0.0 0.0 
0.0 0.0 0.0 
0.0 0.0 0.0 
0.0 0.0 0.0 
0.0 0.0 0.0 
0.0 0.0 0.0 
0.0 0.0 0.0 
0.0 0.0 0.0 
0.0 0.0 0.0 
0.0 0.0 0.0 
0.0 0.0 0.0 
0.0 0.0 0.0 
0.0 0.0 0.0 
0.0 0.0 0.0 
0.0 0.0 0.0 
0.0 0.0 0.0 
0.0 0.0 0.0 
0.0 0.0 0.0 
0.0 0.0 0.0 
0.0 0.0 0.0 
0.0 0.0 0.0 

VECTORS node_bounda_dof_materi_velocity_y float
0.0 0.0 0.0 
0.0 0.0 0.0 
0.0 1.000000000000e+00 0.0 
0.0 1.000000000000e+00 0.0 
0.0 0.0 0.0 
0.0 0.0 0.0 
0.0 0.0 0.0 
0.0 0.0 0.0 
0.0 0.0 0.0 
0.0 0.0 0.0 
0.0 0.0 0.0 
0.0 0.0 0.0 
0.0 0.0 0.0 
0.0 0.0 0.0 
0.0 0.0 0.0 
0.0 0.0 0.0 
0.0 0.0 0.0 
0.0 0.0 0.0 
0.0 0.0 0.0 
0.0 0.0 0.0 
0.0 0.0 0.0 
0.0 0.0 0.0 
0.0 0.0 0.0 
0.0 1.000000000000e+00 0.0 
0.0 1.000000000000e+00 0.0 
0.0 1.000000000000e+00 0.0 
0.0 1.000000000000e+00 0.0 
0.0 1.000000000000e+00 0.0 
0.0 1.000000000000e+00 0.0 
0.0 1.000000000000e+00 0.0 
0.0 1.000000000000e+00 0.0 
0.0 1.000000000000e+00 0.0 
0.0 1.000000000000e+00 0.0 
0.0 1.000000000000e+00 0.0 
0.0 1.000000000000e+00 0.0 
0.0 1.000000000000e+00 0.0 
0.0 1.000000000000e+00 0.0 
0.0 1.000000000000e+00 0.0 
0.0 1.000000000000e+00 0.0 
0.0 1.000000000000e+00 0.0 
0.0 1.000000000000e+00 0.0 
0.0 1.000000000000e+00 0.0 
0.0 1.000000000000e+00 0.0 
0.0 1.000000000000e+00 0.0 
0.0 1.000000000000e+00 0.0 
0.0 1.000000000000e+00 0.0 
0.0 1.000000000000e+00 0.0 
0.0 1.000000000000e+00 0.0 
0.0 1.000000000000e+00 0.0 
0.0 1.000000000000e+00 0.0 
0.0 1.000000000000e+00 0.0 
0.0 1.000000000000e+00 0.0 
0.0 1.000000000000e+00 0.0 
0.0 1.000000000000e+00 0.0 
0.0 1.000000000000e+00 0.0 
0.0 1.000000000000e+00 0.0 
0.0 1.000000000000e+00 0.0 
0.0 1.000000000000e+00 0.0 
0.0 1.000000000000e+00 0.0 
0.0 1.000000000000e+00 0.0 
0.0 1.000000000000e+00 0.0 
0.0 1.000000000000e+00 0.0 
0.0 1.000000000000e+00 0.0 
0.0 1.000000000000e+00 0.0 
0.0 1.000000000000e+00 0.0 
0.0 1.000000000000e+00 0.0 
0.0 1.000000000000e+00 0.0 
0.0 1.000000000000e+00 0.0 
0.0 1.000000000000e+00 0.0 
0.0 1.000000000000e+00 0.0 
0.0 1.000000000000e+00 0.0 
0.0 1.000000000000e+00 0.0 
0.0 0.0 0.0 
0.0 0.0 0.0 
0.0 0.0 0.0 
0.0 0.0 0.0 
0.0 0.0 0.0 
0.0 0.0 0.0 
0.0 0.0 0.0 
0.0 0.0 0.0 
0.0 0.0 0.0 
0.0 0.0 0.0 
0.0 0.0 0.0 
0.0 0.0 0.0 
0.0 0.0 0.0 
0.0 0.0 0.0 
0.0 0.0 0.0 
0.0 0.0 0.0 
0.0 0.0 0.0 
0.0 0.0 0.0 
0.0 0.0 0.0 
0.0 0.0 0.0 
0.0 0.0 0.0 
0.0 0.0 0.0 
0.0 0.0 0.0 
0.0 0.0 0.0 
0.0 0.0 0.0 
0.0 0.0 0.0 
0.0 0.0 0.0 
0.0 0.0 0.0 
0.0 0.0 0.0 
0.0 0.0 0.0 
0.0 0.0 0.0 
0.0 0.0 0.0 
0.0 0.0 0.0 
0.0 0.0 0.0 
0.0 0.0 0.0 
0.0 0.0 0.0 
0.0 0.0 0.0 
0.0 0.0 0.0 
0.0 0.0 0.0 
0.0 0.0 0.0 
0.0 0.0 0.0 
0.0 0.0 0.0 
0.0 0.0 0.0 
0.0 0.0 0.0 
0.0 0.0 0.0 
0.0 0.0 0.0 
0.0 0.0 0.0 
0.0 0.0 0.0 
0.0 0.0 0.0 
0.0 0.0 0.0 
0.0 0.0 0.0 
0.0 0.0 0.0 
0.0 0.0 0.0 
0.0 0.0 0.0 
0.0 0.0 0.0 
0.0 0.0 0.0 
0.0 0.0 0.0 
0.0 0.0 0.0 
0.0 0.0 0.0 
0.0 0.0 0.0 
0.0 0.0 0.0 
0.0 0.0 0.0 
0.0 0.0 0.0 
0.0 0.0 0.0 
0.0 0.0 0.0 
0.0 0.0 0.0 
0.0 0.0 0.0 
0.0 0.0 0.0 
0.0 0.0 0.0 
0.0 0.0 0.0 
0.0 0.0 0.0 
0.0 0.0 0.0 
0.0 0.0 0.0 
0.0 0.0 0.0 
0.0 0.0 0.0 
0.0 0.0 0.0 
0.0 0.0 0.0 
0.0 0.0 0.0 
0.0 0.0 0.0 
0.0 0.0 0.0 
0.0 0.0 0.0 
0.0 0.0 0.0 
0.0 0.0 0.0 
0.0 0.0 0.0 
0.0 0.0 0.0 
0.0 0.0 0.0 
0.0 0.0 0.0 
0.0 0.0 0.0 
0.0 0.0 0.0 
0.0 0.0 0.0 
0.0 0.0 0.0 
0.0 0.0 0.0 
0.0 0.0 0.0 
0.0 0.0 0.0 
0.0 0.0 0.0 
0.0 0.0 0.0 
0.0 0.0 0.0 
0.0 0.0 0.0 
0.0 0.0 0.0 
0.0 0.0 0.0 
0.0 0.0 0.0 
0.0 0.0 0.0 
0.0 0.0 0.0 
0.0 0.0 0.0 
0.0 0.0 0.0 
0.0 0.0 0.0 
0.0 0.0 0.0 
0.0 0.0 0.0 
0.0 0.0 0.0 
0.0 0.0 0.0 
0.0 0.0 0.0 
0.0 0.0 0.0 
0.0 0.0 0.0 
0.0 0.0 0.0 
0.0 0.0 0.0 
0.0 0.0 0.0 
0.0 0.0 0.0 
0.0 0.0 0.0 
0.0 0.0 0.0 
0.0 0.0 0.0 
0.0 0.0 0.0 
0.0 0.0 0.0 
0.0 0.0 0.0 
0.0 0.0 0.0 
0.0 0.0 0.0 
0.0 0.0 0.0 
0.0 0.0 0.0 
0.0 0.0 0.0 
0.0 0.0 0.0 
0.0 0.0 0.0 
0.0 0.0 0.0 
0.0 0.0 0.0 
0.0 0.0 0.0 
0.0 0.0 0.0 
0.0 0.0 0.0 
0.0 0.0 0.0 
0.0 0.0 0.0 
0.0 0.0 0.0 
0.0 0.0 0.0 
0.0 0.0 0.0 
0.0 0.0 0.0 
0.0 0.0 0.0 
0.0 0.0 0.0 
0.0 0.0 0.0 
0.0 0.0 0.0 
0.0 0.0 0.0 
0.0 0.0 0.0 
0.0 0.0 0.0 
0.0 0.0 0.0 
0.0 0.0 0.0 
0.0 0.0 0.0 
0.0 0.0 0.0 
0.0 0.0 0.0 
0.0 0.0 0.0 
0.0 0.0 0.0 
0.0 0.0 0.0 
0.0 0.0 0.0 
0.0 0.0 0.0 
0.0 0.0 0.0 
0.0 0.0 0.0 
0.0 0.0 0.0 
0.0 0.0 0.0 
0.0 0.0 0.0 
0.0 0.0 0.0 
0.0 0.0 0.0 
0.0 0.0 0.0 
0.0 0.0 0.0 
0.0 0.0 0.0 
0.0 0.0 0.0 
0.0 0.0 0.0 
0.0 0.0 0.0 
0.0 0.0 0.0 
0.0 0.0 0.0 
0.0 0.0 0.0 
0.0 0.0 0.0 
0.0 0.0 0.0 
0.0 0.0 0.0 
0.0 0.0 0.0 
0.0 0.0 0.0 
0.0 0.0 0.0 
0.0 0.0 0.0 
0.0 0.0 0.0 
0.0 0.0 0.0 
0.0 0.0 0.0 
0.0 0.0 0.0 
0.0 0.0 0.0 
0.0 0.0 0.0 
0.0 0.0 0.0 
0.0 0.0 0.0 
0.0 0.0 0.0 
0.0 0.0 0.0 
0.0 0.0 0.0 
0.0 0.0 0.0 
0.0 0.0 0.0 
0.0 0.0 0.0 
0.0 0.0 0.0 
0.0 0.0 0.0 
0.0 0.0 0.0 
0.0 0.0 0.0 
0.0 0.0 0.0 
0.0 0.0 0.0 
0.0 0.0 0.0 
0.0 0.0 0.0 
0.0 0.0 0.0 
0.0 0.0 0.0 
0.0 0.0 0.0 
0.0 0.0 0.0 
0.0 0.0 0.0 
0.0 0.0 0.0 
0.0 0.0 0.0 
0.0 0.0 0.0 
0.0 0.0 0.0 
0.0 0.0 0.0 
0.0 0.0 0.0 
0.0 0.0 0.0 
0.0 0.0 0.0 
0.0 0.0 0.0 
0.0 0.0 0.0 
0.0 0.0 0.0 
0.0 0.0 0.0 
0.0 0.0 0.0 
0.0 0.0 0.0 
0.0 0.0 0.0 
0.0 0.0 0.0 
0.0 0.0 0.0 
0.0 0.0 0.0 
0.0 0.0 0.0 
0.0 0.0 0.0 
0.0 0.0 0.0 
0.0 0.0 0.0 
0.0 0.0 0.0 
0.0 0.0 0.0 
0.0 0.0 0.0 
0.0 0.0 0.0 
0.0 0.0 0.0 
0.0 0.0 0.0 
0.0 0.0 0.0 
0.0 0.0 0.0 
0.0 0.0 0.0 
0.0 0.0 0.0 
0.0 0.0 0.0 
0.0 0.0 0.0 
0.0 0.0 0.0 
0.0 0.0 0.0 
0.0 0.0 0.0 
0.0 0.0 0.0 
0.0 0.0 0.0 
0.0 0.0 0.0 
0.0 0.0 0.0 
0.0 0.0 0.0 
0.0 0.0 0.0 
0.0 0.0 0.0 
0.0 0.0 0.0 
0.0 0.0 0.0 
0.0 0.0 0.0 
0.0 0.0 0.0 
0.0 0.0 0.0 
0.0 0.0 0.0 
0.0 0.0 0.0 
0.0 0.0 0.0 
0.0 0.0 0.0 
0.0 0.0 0.0 
0.0 0.0 0.0 
0.0 0.0 0.0 
0.0 0.0 0.0 
0.0 0.0 0.0 
0.0 0.0 0.0 
0.0 0.0 0.0 
0.0 0.0 0.0 
0.0 0.0 0.0 
0.0 0.0 0.0 
0.0 0.0 0.0 
0.0 0.0 0.0 
0.0 0.0 0.0 
0.0 0.0 0.0 
0.0 0.0 0.0 
0.0 0.0 0.0 
0.0 0.0 0.0 
0.0 0.0 0.0 
0.0 0.0 0.0 
0.0 0.0 0.0 
0.0 0.0 0.0 
0.0 0.0 0.0 
0.0 0.0 0.0 
0.0 0.0 0.0 
0.0 0.0 0.0 
0.0 0.0 0.0 
0.0 0.0 0.0 
0.0 0.0 0.0 
0.0 0.0 0.0 
0.0 0.0 0.0 
0.0 0.0 0.0 
0.0 0.0 0.0 
0.0 0.0 0.0 
0.0 0.0 0.0 
0.0 0.0 0.0 
0.0 0.0 0.0 
0.0 0.0 0.0 
0.0 0.0 0.0 
0.0 0.0 0.0 
0.0 0.0 0.0 
0.0 0.0 0.0 
0.0 0.0 0.0 
0.0 0.0 0.0 
0.0 0.0 0.0 
0.0 0.0 0.0 
0.0 0.0 0.0 
0.0 0.0 0.0 
0.0 0.0 0.0 
0.0 0.0 0.0 
0.0 0.0 0.0 
0.0 0.0 0.0 
0.0 0.0 0.0 
0.0 0.0 0.0 
0.0 0.0 0.0 
0.0 0.0 0.0 
0.0 0.0 0.0 
0.0 0.0 0.0 
0.0 0.0 0.0 
0.0 0.0 0.0 
0.0 0.0 0.0 
0.0 0.0 0.0 
0.0 0.0 0.0 
0.0 0.0 0.0 
0.0 0.0 0.0 
0.0 0.0 0.0 
0.0 0.0 0.0 
0.0 0.0 0.0 
0.0 0.0 0.0 
0.0 0.0 0.0 
0.0 0.0 0.0 
0.0 0.0 0.0 
0.0 0.0 0.0 
0.0 0.0 0.0 
0.0 0.0 0.0 
0.0 0.0 0.0 
0.0 0.0 0.0 
0.0 0.0 0.0 
0.0 0.0 0.0 
0.0 0.0 0.0 
0.0 0.0 0.0 
0.0 0.0 0.0 
0.0 0.0 0.0 
0.0 0.0 0.0 
0.0 0.0 0.0 
0.0 0.0 0.0 
0.0 0.0 0.0 
0.0 0.0 0.0 
0.0 0.0 0.0 
0.0 0.0 0.0 
0.0 0.0 0.0 
0.0 0.0 0.0 
0.0 0.0 0.0 
0.0 0.0 0.0 
0.0 0.0 0.0 
0.0 0.0 0.0 
0.0 0.0 0.0 
0.0 0.0 0.0 
0.0 0.0 0.0 
0.0 0.0 0.0 
0.0 0.0 0.0 
0.0 0.0 0.0 
0.0 0.0 0.0 
0.0 0.0 0.0 
0.0 0.0 0.0 
0.0 0.0 0.0 
0.0 0.0 0.0 
0.0 0.0 0.0 
0.0 0.0 0.0 
0.0 0.0 0.0 
0.0 0.0 0.0 
0.0 0.0 0.0 
0.0 0.0 0.0 
0.0 0.0 0.0 
0.0 0.0 0.0 
0.0 0.0 0.0 
0.0 0.0 0.0 
0.0 0.0 0.0 
0.0 0.0 0.0 
0.0 0.0 0.0 
0.0 0.0 0.0 
0.0 0.0 0.0 
0.0 0.0 0.0 
0.0 0.0 0.0 
0.0 0.0 0.0 
0.0 0.0 0.0 
0.0 0.0 0.0 
0.0 0.0 0.0 
0.0 0.0 0.0 
0.0 0.0 0.0 
0.0 0.0 0.0 
0.0 0.0 0.0 
0.0 0.0 0.0 
0.0 0.0 0.0 
0.0 0.0 0.0 
0.0 0.0 0.0 
0.0 0.0 0.0 
0.0 0.0 0.0 
0.0 0.0 0.0 
0.0 0.0 0.0 
0.0 0.0 0.0 
0.0 0.0 0.0 
0.0 0.0 0.0 
0.0 0.0 0.0 
0.0 0.0 0.0 
0.0 0.0 0.0 
0.0 0.0 0.0 
0.0 0.0 0.0 
0.0 0.0 0.0 
0.0 0.0 0.0 
0.0 0.0 0.0 
0.0 0.0 0.0 
0.0 0.0 0.0 
0.0 0.0 0.0 
0.0 0.0 0.0 
0.0 0.0 0.0 
0.0 0.0 0.0 
0.0 0.0 0.0 
0.0 0.0 0.0 
0.0 0.0 0.0 
0.0 0.0 0.0 
0.0 0.0 0.0 
0.0 0.0 0.0 
0.0 0.0 0.0 
0.0 0.0 0.0 
0.0 0.0 0.0 
0.0 0.0 0.0 
0.0 0.0 0.0 
0.0 0.0 0.0 
0.0 0.0 0.0 
0.0 0.0 0.0 
0.0 0.0 0.0 
0.0 0.0 0.0 
0.0 0.0 0.0 
0.0 0.0 0.0 
0.0 0.0 0.0 
0.0 0.0 0.0 
0.0 0.0 0.0 
0.0 0.0 0.0 
0.0 0.0 0.0 
0.0 0.0 0.0 
0.0 0.0 0.0 
0.0 0.0 0.0 
0.0 0.0 0.0 
0.0 0.0 0.0 
0.0 0.0 0.0 
0.0 0.0 0.0 
0.0 0.0 0.0 
0.0 0.0 0.0 
0.0 0.0 0.0 
0.0 0.0 0.0 
0.0 0.0 0.0 
0.0 0.0 0.0 
0.0 0.0 0.0 
0.0 0.0 0.0 
0.0 0.0 0.0 
0.0 0.0 0.0 
0.0 0.0 0.0 
0.0 0.0 0.0 
0.0 0.0 0.0 
0.0 0.0 0.0 
0.0 0.0 0.0 
0.0 0.0 0.0 
0.0 0.0 0.0 
0.0 0.0 0.0 
0.0 0.0 0.0 
0.0 0.0 0.0 
0.0 0.0 0.0 
0.0 0.0 0.0 
0.0 0.0 0.0 
0.0 0.0 0.0 
0.0 0.0 0.0 
0.0 0.0 0.0 
0.0 0.0 0.0 
0.0 0.0 0.0 
0.0 0.0 0.0 
0.0 0.0 0.0 
0.0 0.0 0.0 
0.0 0.0 0.0 
0.0 0.0 0.0 
0.0 0.0 0.0 
0.0 0.0 0.0 
0.0 0.0 0.0 
0.0 0.0 0.0 
0.0 0.0 0.0 
0.0 0.0 0.0 
0.0 0.0 0.0 
0.0 0.0 0.0 
0.0 0.0 0.0 
0.0 0.0 0.0 
0.0 0.0 0.0 
0.0 0.0 0.0 
0.0 0.0 0.0 
0.0 0.0 0.0 
0.0 0.0 0.0 
0.0 0.0 0.0 
0.0 0.0 0.0 
0.0 0.0 0.0 
0.0 0.0 0.0 
0.0 0.0 0.0 
0.0 0.0 0.0 
0.0 0.0 0.0 
0.0 0.0 0.0 
0.0 0.0 0.0 
0.0 0.0 0.0 
0.0 0.0 0.0 
0.0 0.0 0.0 
0.0 0.0 0.0 
0.0 0.0 0.0 
0.0 0.0 0.0 
0.0 0.0 0.0 
0.0 0.0 0.0 
0.0 0.0 0.0 
0.0 0.0 0.0 
0.0 0.0 0.0 
0.0 0.0 0.0 
0.0 0.0 0.0 
0.0 0.0 0.0 
0.0 0.0 0.0 
0.0 0.0 0.0 
0.0 0.0 0.0 
0.0 0.0 0.0 
0.0 0.0 0.0 
0.0 0.0 0.0 
0.0 0.0 0.0 
0.0 0.0 0.0 
0.0 0.0 0.0 
0.0 0.0 0.0 
0.0 0.0 0.0 
0.0 0.0 0.0 
0.0 0.0 0.0 
0.0 0.0 0.0 
0.0 0.0 0.0 
0.0 0.0 0.0 
0.0 0.0 0.0 
0.0 0.0 0.0 
0.0 0.0 0.0 
0.0 0.0 0.0 
0.0 0.0 0.0 
0.0 0.0 0.0 
0.0 0.0 0.0 
0.0 0.0 0.0 
0.0 0.0 0.0 
0.0 0.0 0.0 
0.0 0.0 0.0 
0.0 0.0 0.0 
0.0 0.0 0.0 
0.0 0.0 0.0 
0.0 0.0 0.0 
0.0 0.0 0.0 
0.0 0.0 0.0 
0.0 0.0 0.0 
0.0 0.0 0.0 
0.0 0.0 0.0 
0.0 0.0 0.0 
0.0 0.0 0.0 
0.0 0.0 0.0 
0.0 0.0 0.0 
0.0 0.0 0.0 
0.0 0.0 0.0 
0.0 0.0 0.0 
0.0 0.0 0.0 
0.0 0.0 0.0 
0.0 0.0 0.0 
0.0 0.0 0.0 
0.0 0.0 0.0 
0.0 0.0 0.0 
0.0 0.0 0.0 
0.0 0.0 0.0 
0.0 0.0 0.0 
0.0 0.0 0.0 
0.0 0.0 0.0 
0.0 0.0 0.0 
0.0 0.0 0.0 
0.0 0.0 0.0 
0.0 0.0 0.0 
0.0 0.0 0.0 
0.0 0.0 0.0 
0.0 0.0 0.0 
0.0 0.0 0.0 
0.0 0.0 0.0 
0.0 0.0 0.0 
0.0 0.0 0.0 
0.0 0.0 0.0 
0.0 0.0 0.0 
0.0 0.0 0.0 
0.0 0.0 0.0 
0.0 0.0 0.0 
0.0 0.0 0.0 
0.0 0.0 0.0 
0.0 0.0 0.0 
0.0 0.0 0.0 
0.0 0.0 0.0 
0.0 0.0 0.0 
0.0 0.0 0.0 
0.0 0.0 0.0 
0.0 0.0 0.0 
0.0 0.0 0.0 
0.0 0.0 0.0 
0.0 0.0 0.0 
0.0 0.0 0.0 
0.0 0.0 0.0 
0.0 0.0 0.0 
0.0 0.0 0.0 
0.0 0.0 0.0 
0.0 0.0 0.0 
0.0 0.0 0.0 
0.0 0.0 0.0 
0.0 0.0 0.0 
0.0 0.0 0.0 
0.0 0.0 0.0 
0.0 0.0 0.0 
0.0 0.0 0.0 
0.0 0.0 0.0 
0.0 0.0 0.0 
0.0 0.0 0.0 
0.0 0.0 0.0 
0.0 0.0 0.0 
0.0 0.0 0.0 
0.0 0.0 0.0 
0.0 0.0 0.0 
0.0 0.0 0.0 
0.0 0.0 0.0 
0.0 0.0 0.0 
0.0 0.0 0.0 
0.0 0.0 0.0 
0.0 0.0 0.0 
0.0 0.0 0.0 
0.0 0.0 0.0 
0.0 0.0 0.0 
0.0 0.0 0.0 
0.0 0.0 0.0 
0.0 0.0 0.0 
0.0 0.0 0.0 
0.0 0.0 0.0 
0.0 0.0 0.0 
0.0 0.0 0.0 
0.0 0.0 0.0 
0.0 0.0 0.0 
0.0 0.0 0.0 
0.0 0.0 0.0 
0.0 0.0 0.0 
0.0 0.0 0.0 
0.0 0.0 0.0 
0.0 0.0 0.0 
0.0 0.0 0.0 
0.0 0.0 0.0 
0.0 0.0 0.0 
0.0 0.0 0.0 
0.0 0.0 0.0 
0.0 0.0 0.0 
0.0 0.0 0.0 
0.0 0.0 0.0 
0.0 0.0 0.0 
0.0 0.0 0.0 
0.0 0.0 0.0 
0.0 0.0 0.0 
0.0 0.0 0.0 
0.0 0.0 0.0 
0.0 0.0 0.0 
0.0 0.0 0.0 
0.0 0.0 0.0 
0.0 0.0 0.0 
0.0 0.0 0.0 
0.0 0.0 0.0 
0.0 0.0 0.0 
0.0 0.0 0.0 
0.0 0.0 0.0 
0.0 0.0 0.0 
0.0 0.0 0.0 
0.0 0.0 0.0 
0.0 0.0 0.0 
0.0 0.0 0.0 
0.0 0.0 0.0 
0.0 0.0 0.0 
0.0 0.0 0.0 
0.0 0.0 0.0 
0.0 0.0 0.0 
0.0 0.0 0.0 
0.0 0.0 0.0 
0.0 0.0 0.0 
0.0 0.0 0.0 
0.0 0.0 0.0 
0.0 0.0 0.0 
0.0 0.0 0.0 
0.0 0.0 0.0 
0.0 0.0 0.0 
0.0 0.0 0.0 
0.0 0.0 0.0 
0.0 0.0 0.0 
0.0 0.0 0.0 
0.0 0.0 0.0 
0.0 0.0 0.0 
0.0 0.0 0.0 
0.0 0.0 0.0 
0.0 0.0 0.0 
0.0 0.0 0.0 
0.0 0.0 0.0 
0.0 0.0 0.0 
0.0 0.0 0.0 
0.0 0.0 0.0 
0.0 0.0 0.0 
0.0 0.0 0.0 
0.0 0.0 0.0 
0.0 0.0 0.0 
0.0 0.0 0.0 
0.0 0.0 0.0 
0.0 0.0 0.0 
0.0 0.0 0.0 
0.0 0.0 0.0 
0.0 0.0 0.0 
0.0 0.0 0.0 
0.0 0.0 0.0 
0.0 0.0 0.0 
0.0 0.0 0.0 
0.0 0.0 0.0 
0.0 0.0 0.0 
0.0 0.0 0.0 
0.0 0.0 0.0 
0.0 0.0 0.0 
0.0 0.0 0.0 
0.0 0.0 0.0 
0.0 0.0 0.0 
0.0 0.0 0.0 
0.0 0.0 0.0 
0.0 0.0 0.0 
0.0 0.0 0.0 
0.0 0.0 0.0 
0.0 0.0 0.0 
0.0 0.0 0.0 
0.0 0.0 0.0 
0.0 0.0 0.0 
0.0 0.0 0.0 
0.0 0.0 0.0 
0.0 0.0 0.0 
0.0 0.0 0.0 
0.0 0.0 0.0 
0.0 0.0 0.0 
0.0 0.0 0.0 
0.0 0.0 0.0 
0.0 0.0 0.0 
0.0 0.0 0.0 
0.0 0.0 0.0 
0.0 0.0 0.0 
0.0 0.0 0.0 
0.0 0.0 0.0 
0.0 0.0 0.0 
0.0 0.0 0.0 
0.0 0.0 0.0 
0.0 0.0 0.0 
0.0 0.0 0.0 
0.0 0.0 0.0 
0.0 0.0 0.0 
0.0 0.0 0.0 
0.0 0.0 0.0 
0.0 0.0 0.0 
0.0 0.0 0.0 
0.0 0.0 0.0 
0.0 0.0 0.0 
0.0 0.0 0.0 
0.0 0.0 0.0 
0.0 0.0 0.0 
0.0 0.0 0.0 
0.0 0.0 0.0 
0.0 0.0 0.0 
0.0 0.0 0.0 
0.0 0.0 0.0 
0.0 0.0 0.0 
0.0 0.0 0.0 
0.0 0.0 0.0 
0.0 0.0 0.0 
0.0 0.0 0.0 
0.0 0.0 0.0 
0.0 0.0 0.0 
0.0 0.0 0.0 
0.0 0.0 0.0 
0.0 0.0 0.0 
0.0 0.0 0.0 
0.0 0.0 0.0 
0.0 0.0 0.0 
0.0 0.0 0.0 
0.0 0.0 0.0 
0.0 0.0 0.0 
0.0 0.0 0.0 
0.0 0.0 0.0 
0.0 0.0 0.0 
0.0 0.0 0.0 
0.0 0.0 0.0 
0.0 0.0 0.0 
0.0 0.0 0.0 
0.0 0.0 0.0 
0.0 0.0 0.0 
0.0 0.0 0.0 
0.0 0.0 0.0 
0.0 0.0 0.0 
0.0 0.0 0.0 
0.0 0.0 0.0 
0.0 0.0 0.0 
0.0 0.0 0.0 
0.0 0.0 0.0 
0.0 0.0 0.0 
0.0 0.0 0.0 
0.0 0.0 0.0 
0.0 0.0 0.0 
0.0 0.0 0.0 
0.0 0.0 0.0 
0.0 0.0 0.0 
0.0 0.0 0.0 
0.0 0.0 0.0 
0.0 0.0 0.0 
0.0 0.0 0.0 
0.0 0.0 0.0 
0.0 0.0 0.0 
0.0 0.0 0.0 
0.0 0.0 0.0 
0.0 0.0 0.0 
0.0 0.0 0.0 
0.0 0.0 0.0 
0.0 0.0 0.0 
0.0 0.0 0.0 
0.0 0.0 0.0 
0.0 0.0 0.0 
0.0 0.0 0.0 
0.0 0.0 0.0 
0.0 0.0 0.0 
0.0 0.0 0.0 
0.0 0.0 0.0 
0.0 0.0 0.0 
0.0 0.0 0.0 
0.0 0.0 0.0 
0.0 0.0 0.0 
0.0 0.0 0.0 
0.0 0.0 0.0 
0.0 0.0 0.0 
0.0 0.0 0.0 
0.0 0.0 0.0 
0.0 0.0 0.0 
0.0 0.0 0.0 
0.0 0.0 0.0 
0.0 0.0 0.0 
0.0 0.0 0.0 
0.0 0.0 0.0 
0.0 0.0 0.0 
0.0 0.0 0.0 
0.0 0.0 0.0 
0.0 0.0 0.0 
0.0 0.0 0.0 
0.0 0.0 0.0 
0.0 0.0 0.0 
0.0 0.0 0.0 
0.0 0.0 0.0 
0.0 0.0 0.0 
0.0 0.0 0.0 
0.0 0.0 0.0 
0.0 0.0 0.0 
0.0 0.0 0.0 
0.0 0.0 0.0 
0.0 0.0 0.0 
0.0 0.0 0.0 
0.0 0.0 0.0 
0.0 0.0 0.0 
0.0 0.0 0.0 
0.0 0.0 0.0 
0.0 0.0 0.0 
0.0 0.0 0.0 
0.0 0.0 0.0 
0.0 0.0 0.0 
0.0 0.0 0.0 
0.0 0.0 0.0 
0.0 0.0 0.0 
0.0 0.0 0.0 
0.0 0.0 0.0 
0.0 0.0 0.0 
0.0 0.0 0.0 
0.0 0.0 0.0 
0.0 0.0 0.0 
0.0 0.0 0.0 
0.0 0.0 0.0 
0.0 0.0 0.0 
0.0 0.0 0.0 
0.0 0.0 0.0 
0.0 0.0 0.0 
0.0 0.0 0.0 
0.0 0.0 0.0 
0.0 0.0 0.0 
0.0 0.0 0.0 
0.0 0.0 0.0 
0.0 0.0 0.0 
0.0 0.0 0.0 
0.0 0.0 0.0 
0.0 0.0 0.0 
0.0 0.0 0.0 
0.0 0.0 0.0 
0.0 0.0 0.0 
0.0 0.0 0.0 
0.0 0.0 0.0 
0.0 0.0 0.0 
0.0 0.0 0.0 
0.0 0.0 0.0 
0.0 0.0 0.0 
0.0 0.0 0.0 
0.0 0.0 0.0 
0.0 0.0 0.0 
0.0 0.0 0.0 
0.0 0.0 0.0 
0.0 0.0 0.0 
0.0 0.0 0.0 
0.0 0.0 0.0 
0.0 0.0 0.0 
0.0 0.0 0.0 
0.0 0.0 0.0 
0.0 0.0 0.0 
0.0 0.0 0.0 
0.0 0.0 0.0 
0.0 0.0 0.0 
0.0 0.0 0.0 
0.0 0.0 0.0 
0.0 0.0 0.0 
0.0 0.0 0.0 
0.0 0.0 0.0 
0.0 0.0 0.0 
0.0 0.0 0.0 
0.0 0.0 0.0 
0.0 0.0 0.0 
0.0 0.0 0.0 
0.0 0.0 0.0 
0.0 0.0 0.0 
0.0 0.0 0.0 
0.0 0.0 0.0 
0.0 0.0 0.0 
0.0 0.0 0.0 
0.0 0.0 0.0 
0.0 0.0 0.0 
0.0 0.0 0.0 
0.0 0.0 0.0 
0.0 0.0 0.0 
0.0 0.0 0.0 
0.0 0.0 0.0 
0.0 0.0 0.0 
0.0 0.0 0.0 
0.0 0.0 0.0 
0.0 0.0 0.0 
0.0 0.0 0.0 
0.0 0.0 0.0 
0.0 0.0 0.0 
0.0 0.0 0.0 
0.0 0.0 0.0 
0.0 0.0 0.0 
0.0 0.0 0.0 
0.0 0.0 0.0 
0.0 0.0 0.0 
0.0 0.0 0.0 
0.0 0.0 0.0 
0.0 0.0 0.0 
0.0 0.0 0.0 
0.0 0.0 0.0 
0.0 0.0 0.0 
0.0 0.0 0.0 
0.0 0.0 0.0 
0.0 0.0 0.0 
0.0 0.0 0.0 
0.0 0.0 0.0 
0.0 0.0 0.0 
0.0 0.0 0.0 
0.0 0.0 0.0 
0.0 0.0 0.0 
0.0 0.0 0.0 
0.0 0.0 0.0 
0.0 0.0 0.0 
0.0 0.0 0.0 
0.0 0.0 0.0 
0.0 0.0 0.0 
0.0 0.0 0.0 
0.0 0.0 0.0 
0.0 0.0 0.0 
0.0 0.0 0.0 
0.0 0.0 0.0 
0.0 0.0 0.0 
0.0 0.0 0.0 
0.0 0.0 0.0 
0.0 0.0 0.0 
0.0 0.0 0.0 
0.0 0.0 0.0 
0.0 0.0 0.0 
0.0 0.0 0.0 
0.0 0.0 0.0 
0.0 0.0 0.0 
0.0 0.0 0.0 
0.0 0.0 0.0 
0.0 0.0 0.0 
0.0 0.0 0.0 
0.0 0.0 0.0 
0.0 0.0 0.0 
0.0 0.0 0.0 
0.0 0.0 0.0 
0.0 0.0 0.0 
0.0 0.0 0.0 
0.0 0.0 0.0 
0.0 0.0 0.0 
0.0 0.0 0.0 
0.0 0.0 0.0 
0.0 0.0 0.0 
0.0 0.0 0.0 
0.0 0.0 0.0 
0.0 0.0 0.0 
0.0 0.0 0.0 
0.0 0.0 0.0 
0.0 0.0 0.0 
0.0 0.0 0.0 
0.0 0.0 0.0 
0.0 0.0 0.0 
0.0 0.0 0.0 
0.0 0.0 0.0 
0.0 0.0 0.0 
0.0 0.0 0.0 
0.0 0.0 0.0 
0.0 0.0 0.0 

SCALARS node_boundary float
LOOKUP_TABLE default
1.000000000000e+00 
1.000000000000e+00 
1.000000000000e+00 
1.000000000000e+00 
1.000000000000e+00 
1.000000000000e+00 
1.000000000000e+00 
1.000000000000e+00 
1.000000000000e+00 
1.000000000000e+00 
1.000000000000e+00 
1.000000000000e+00 
1.000000000000e+00 
1.000000000000e+00 
1.000000000000e+00 
1.000000000000e+00 
1.000000000000e+00 
1.000000000000e+00 
1.000000000000e+00 
1.000000000000e+00 
1.000000000000e+00 
1.000000000000e+00 
1.000000000000e+00 
1.000000000000e+00 
1.000000000000e+00 
1.000000000000e+00 
1.000000000000e+00 
1.000000000000e+00 
1.000000000000e+00 
1.000000000000e+00 
1.000000000000e+00 
1.000000000000e+00 
1.000000000000e+00 
1.000000000000e+00 
1.000000000000e+00 
1.000000000000e+00 
1.000000000000e+00 
1.000000000000e+00 
1.000000000000e+00 
1.000000000000e+00 
1.000000000000e+00 
1.000000000000e+00 
1.000000000000e+00 
1.000000000000e+00 
1.000000000000e+00 
1.000000000000e+00 
1.000000000000e+00 
1.000000000000e+00 
1.000000000000e+00 
1.000000000000e+00 
1.000000000000e+00 
1.000000000000e+00 
1.000000000000e+00 
1.000000000000e+00 
1.000000000000e+00 
1.000000000000e+00 
1.000000000000e+00 
1.000000000000e+00 
1.000000000000e+00 
1.000000000000e+00 
1.000000000000e+00 
1.000000000000e+00 
1.000000000000e+00 
1.000000000000e+00 
1.000000000000e+00 
1.000000000000e+00 
1.000000000000e+00 
1.000000000000e+00 
1.000000000000e+00 
1.000000000000e+00 
1.000000000000e+00 
1.000000000000e+00 
1.000000000000e+00 
1.000000000000e+00 
1.000000000000e+00 
1.000000000000e+00 
1.000000000000e+00 
1.000000000000e+00 
1.000000000000e+00 
1.000000000000e+00 
1.000000000000e+00 
1.000000000000e+00 
0.0
1.000000000000e+00 
1.000000000000e+00 
1.000000000000e+00 
1.000000000000e+00 
1.000000000000e+00 
1.000000000000e+00 
1.000000000000e+00 
0.0
0.0
1.000000000000e+00 
1.000000000000e+00 
1.000000000000e+00 
0.0
0.0
0.0
0.0
0.0
0.0
0.0
0.0
0.0
0.0
0.0
0.0
0.0
0.0
1.000000000000e+00 
1.000000000000e+00 
1.000000000000e+00 
1.000000000000e+00 
1.000000000000e+00 
1.000000000000e+00 
1.000000000000e+00 
1.000000000000e+00 
1.000000000000e+00 
1.000000000000e+00 
1.000000000000e+00 
1.000000000000e+00 
1.000000000000e+00 
1.000000000000e+00 
1.000000000000e+00 
1.000000000000e+00 
1.000000000000e+00 
1.000000000000e+00 
1.000000000000e+00 
1.000000000000e+00 
1.000000000000e+00 
1.000000000000e+00 
1.000000000000e+00 
1.000000000000e+00 
1.000000000000e+00 
1.000000000000e+00 
1.000000000000e+00 
1.000000000000e+00 
1.000000000000e+00 
1.000000000000e+00 
1.000000000000e+00 
1.000000000000e+00 
1.000000000000e+00 
1.000000000000e+00 
1.000000000000e+00 
1.000000000000e+00 
1.000000000000e+00 
1.000000000000e+00 
0.0
0.0
0.0
0.0
0.0
0.0
0.0
0.0
0.0
0.0
0.0
0.0
0.0
0.0
0.0
0.0
0.0
0.0
0.0
0.0
0.0
0.0
0.0
0.0
0.0
0.0
0.0
0.0
0.0
0.0
0.0
0.0
0.0
1.000000000000e+00 
1.000000000000e+00 
1.000000000000e+00 
1.000000000000e+00 
1.000000000000e+00 
1.000000000000e+00 
1.000000000000e+00 
0.0
0.0
0.0
0.0
0.0
0.0
0.0
0.0
0.0
0.0
0.0
0.0
0.0
0.0
0.0
0.0
0.0
0.0
0.0
0.0
0.0
0.0
0.0
0.0
0.0
0.0
0.0
0.0
0.0
0.0
0.0
0.0
0.0
0.0
0.0
0.0
0.0
0.0
0.0
0.0
0.0
0.0
0.0
0.0
0.0
0.0
0.0
0.0
0.0
0.0
0.0
0.0
0.0
0.0
0.0
0.0
0.0
0.0
0.0
0.0
0.0
0.0
0.0
0.0
0.0
0.0
0.0
0.0
0.0
0.0
0.0
0.0
0.0
0.0
0.0
0.0
0.0
0.0
0.0
0.0
0.0
0.0
0.0
0.0
0.0
0.0
0.0
0.0
0.0
0.0
0.0
0.0
0.0
0.0
0.0
0.0
0.0
0.0
0.0
0.0
0.0
0.0
0.0
0.0
0.0
0.0
0.0
0.0
0.0
0.0
0.0
0.0
0.0
0.0
0.0
0.0
0.0
0.0
0.0
0.0
0.0
0.0
0.0
0.0
0.0
0.0
0.0
0.0
0.0
0.0
0.0
0.0
0.0
0.0
0.0
0.0
0.0
0.0
0.0
0.0
0.0
0.0
0.0
0.0
0.0
0.0
0.0
0.0
0.0
0.0
0.0
0.0
0.0
0.0
0.0
0.0
0.0
0.0
0.0
0.0
0.0
0.0
0.0
0.0
0.0
0.0
0.0
0.0
0.0
0.0
0.0
0.0
0.0
0.0
0.0
0.0
0.0
0.0
0.0
0.0
0.0
0.0
0.0
0.0
0.0
0.0
0.0
0.0
0.0
0.0
0.0
0.0
0.0
0.0
0.0
0.0
0.0
0.0
0.0
0.0
0.0
0.0
0.0
0.0
0.0
0.0
0.0
0.0
0.0
0.0
0.0
0.0
0.0
0.0
0.0
0.0
0.0
0.0
0.0
0.0
0.0
0.0
0.0
0.0
0.0
0.0
0.0
0.0
0.0
0.0
0.0
0.0
0.0
0.0
0.0
0.0
0.0
0.0
0.0
0.0
0.0
0.0
0.0
0.0
0.0
0.0
0.0
0.0
0.0
0.0
0.0
0.0
0.0
0.0
0.0
0.0
0.0
0.0
0.0
0.0
0.0
0.0
0.0
0.0
0.0
0.0
0.0
0.0
0.0
0.0
0.0
0.0
0.0
0.0
0.0
0.0
0.0
0.0
0.0
0.0
0.0
0.0
0.0
0.0
0.0
0.0
0.0
0.0
0.0
0.0
0.0
0.0
0.0
0.0
0.0
0.0
0.0
0.0
0.0
0.0
0.0
0.0
0.0
0.0
0.0
0.0
0.0
0.0
0.0
0.0
0.0
0.0
0.0
0.0
0.0
0.0
0.0
0.0
0.0
0.0
0.0
0.0
0.0
0.0
0.0
0.0
0.0
0.0
0.0
0.0
0.0
0.0
0.0
0.0
0.0
0.0
0.0
0.0
0.0
0.0
0.0
0.0
0.0
0.0
0.0
0.0
0.0
0.0
0.0
0.0
0.0
0.0
0.0
0.0
0.0
0.0
0.0
0.0
0.0
0.0
0.0
0.0
0.0
0.0
0.0
0.0
0.0
0.0
0.0
0.0
0.0
0.0
0.0
0.0
0.0
0.0
0.0
0.0
0.0
0.0
0.0
0.0
0.0
0.0
0.0
0.0
0.0
0.0
0.0
0.0
0.0
0.0
0.0
0.0
0.0
0.0
0.0
0.0
0.0
0.0
0.0
0.0
0.0
0.0
0.0
0.0
0.0
0.0
0.0
0.0
0.0
0.0
0.0
0.0
0.0
0.0
0.0
0.0
0.0
0.0
0.0
0.0
0.0
0.0
0.0
0.0
0.0
0.0
0.0
0.0
0.0
0.0
0.0
0.0
0.0
0.0
0.0
0.0
0.0
0.0
0.0
0.0
0.0
0.0
0.0
0.0
0.0
0.0
0.0
0.0
0.0
0.0
0.0
0.0
0.0
0.0
0.0
0.0
0.0
0.0
0.0
0.0
0.0
0.0
0.0
0.0
0.0
0.0
0.0
0.0
0.0
0.0
0.0
0.0
0.0
0.0
0.0
0.0
0.0
0.0
0.0
0.0
0.0
0.0
0.0
0.0
0.0
0.0
0.0
0.0
0.0
0.0
0.0
0.0
0.0
0.0
0.0
0.0
0.0
0.0
0.0
0.0
0.0
0.0
0.0
0.0
0.0
0.0
0.0
0.0
0.0
0.0
0.0
0.0
0.0
0.0
0.0
0.0
0.0
0.0
0.0
0.0
0.0
0.0
0.0
0.0
0.0
0.0
0.0
0.0
0.0
0.0
0.0
0.0
0.0
0.0
0.0
0.0
0.0
0.0
0.0
0.0
0.0
0.0
0.0
0.0
0.0
0.0
0.0
0.0
0.0
0.0
0.0
0.0
0.0
0.0
0.0
0.0
0.0
0.0
0.0
0.0
0.0
0.0
0.0
0.0
0.0
0.0
0.0
0.0
0.0
0.0
0.0
0.0
0.0
0.0
0.0
0.0
0.0
0.0
0.0
0.0
0.0
0.0
0.0
0.0
0.0
0.0
0.0
0.0
0.0
0.0
0.0
0.0
0.0
0.0
0.0
0.0
0.0
0.0
0.0
0.0
0.0
0.0
0.0
0.0
0.0
0.0
0.0
0.0
0.0
0.0
0.0
0.0
0.0
0.0
0.0
0.0
0.0
0.0
0.0
0.0
0.0
0.0
0.0
0.0
0.0
0.0
0.0
0.0
0.0
0.0
0.0
0.0
0.0
0.0
0.0
0.0
0.0
0.0
0.0
0.0
0.0
0.0
0.0
0.0
0.0
0.0
0.0
0.0
0.0
0.0
0.0
0.0
0.0
0.0
0.0
0.0
0.0
0.0
0.0
0.0
0.0
0.0
0.0
0.0
0.0
0.0
0.0
0.0
0.0
0.0
0.0
0.0
0.0
0.0
0.0
0.0
0.0
0.0
0.0
0.0
0.0
0.0
0.0
0.0
0.0
0.0
0.0
0.0
0.0
0.0
0.0
0.0
0.0
0.0
0.0
0.0
0.0
0.0
0.0
0.0
0.0
0.0
0.0
0.0
0.0
0.0
0.0
0.0
0.0
0.0
0.0
0.0
0.0
0.0
0.0
0.0
0.0
0.0
0.0
0.0
0.0
0.0
0.0
0.0
0.0
0.0
0.0
0.0
0.0
0.0
0.0
0.0
0.0
0.0
0.0
0.0
0.0
0.0
0.0
0.0
0.0
0.0
0.0
0.0
0.0
0.0
0.0
0.0
0.0
0.0
0.0
0.0
0.0
0.0
0.0
0.0
0.0
0.0
0.0
0.0
0.0
0.0
0.0
0.0
0.0
0.0
0.0
0.0
0.0
0.0
0.0
0.0
0.0
0.0
0.0
0.0
0.0
0.0
0.0
0.0
0.0
0.0
0.0
0.0
0.0
0.0
0.0
0.0
0.0
0.0
0.0
0.0
0.0
0.0
0.0
0.0
0.0
0.0
0.0
0.0
0.0
0.0
0.0
0.0
0.0
0.0
0.0
0.0
0.0
0.0
0.0
0.0
0.0
0.0
0.0
0.0
0.0
0.0
0.0
0.0
0.0
0.0
0.0
0.0
0.0
0.0
0.0
0.0
0.0
0.0
0.0
0.0
0.0
0.0
0.0
0.0
0.0
0.0
0.0
0.0
0.0
0.0
0.0
0.0
0.0
0.0
0.0
0.0
0.0
0.0
0.0
0.0
0.0
0.0
0.0
0.0
0.0
0.0
0.0
0.0
0.0
0.0
0.0
0.0
0.0
0.0
0.0
0.0
0.0
0.0
0.0
0.0
0.0
0.0
0.0
0.0
0.0
0.0
0.0
0.0
0.0
0.0
0.0
0.0
0.0
0.0
0.0
0.0
0.0
0.0
0.0
0.0
0.0
0.0
0.0
0.0
0.0
0.0
0.0
0.0

VECTORS node_force_gravity float
0.0 -1.962000000000e+01 0.0 
0.0 -1.962000000000e+01 0.0 
0.0 -1.962000000000e+01 0.0 
0.0 -1.962000000000e+01 0.0 
0.0 -1.962000000000e+01 0.0 
0.0 -1.962000000000e+01 0.0 
0.0 -1.962000000000e+01 0.0 
0.0 -1.962000000000e+01 0.0 
0.0 -1.962000000000e+01 0.0 
0.0 -1.962000000000e+01 0.0 
0.0 -1.962000000000e+01 0.0 
0.0 -1.962000000000e+01 0.0 
0.0 -1.962000000000e+01 0.0 
0.0 -1.962000000000e+01 0.0 
0.0 -1.962000000000e+01 0.0 
0.0 -1.962000000000e+01 0.0 
0.0 -1.962000000000e+01 0.0 
0.0 -1.962000000000e+01 0.0 
0.0 -1.962000000000e+01 0.0 
0.0 -1.962000000000e+01 0.0 
0.0 -1.962000000000e+01 0.0 
0.0 -1.962000000000e+01 0.0 
0.0 -1.962000000000e+01 0.0 
0.0 -1.962000000000e+01 0.0 
0.0 -1.962000000000e+01 0.0 
0.0 -1.962000000000e+01 0.0 
0.0 -1.962000000000e+01 0.0 
0.0 -1.962000000000e+01 0.0 
0.0 -1.962000000000e+01 0.0 
0.0 -1.962000000000e+01 0.0 
0.0 -1.962000000000e+01 0.0 
0.0 -1.962000000000e+01 0.0 
0.0 -1.962000000000e+01 0.0 
0.0 -1.962000000000e+01 0.0 
0.0 -1.962000000000e+01 0.0 
0.0 -1.962000000000e+01 0.0 
0.0 -1.962000000000e+01 0.0 
0.0 -1.962000000000e+01 0.0 
0.0 -1.962000000000e+01 0.0 
0.0 -1.962000000000e+01 0.0 
0.0 -1.962000000000e+01 0.0 
0.0 -1.962000000000e+01 0.0 
0.0 -1.962000000000e+01 0.0 
0.0 -1.962000000000e+01 0.0 
0.0 -1.962000000000e+01 0.0 
0.0 -1.962000000000e+01 0.0 
0.0 -1.962000000000e+01 0.0 
0.0 -1.962000000000e+01 0.0 
0.0 -1.962000000000e+01 0.0 
0.0 -1.962000000000e+01 0.0 
0.0 -1.962000000000e+01 0.0 
0.0 -1.962000000000e+01 0.0 
0.0 -1.962000000000e+01 0.0 
0.0 -1.962000000000e+01 0.0 
0.0 -1.962000000000e+01 0.0 
0.0 -1.962000000000e+01 0.0 
0.0 -1.962000000000e+01 0.0 
0.0 -1.962000000000e+01 0.0 
0.0 -1.962000000000e+01 0.0 
0.0 -1.962000000000e+01 0.0 
0.0 -1.962000000000e+01 0.0 
0.0 -1.962000000000e+01 0.0 
0.0 -1.962000000000e+01 0.0 
0.0 -1.962000000000e+01 0.0 
0.0 -1.962000000000e+01 0.0 
0.0 -1.962000000000e+01 0.0 
0.0 -1.962000000000e+01 0.0 
0.0 -1.962000000000e+01 0.0 
0.0 -1.962000000000e+01 0.0 
0.0 -1.962000000000e+01 0.0 
0.0 -1.962000000000e+01 0.0 
0.0 -1.962000000000e+01 0.0 
0.0 -1.962000000000e+01 0.0 
0.0 -1.962000000000e+01 0.0 
0.0 -1.962000000000e+01 0.0 
0.0 -1.962000000000e+01 0.0 
0.0 -1.962000000000e+01 0.0 
0.0 -1.962000000000e+01 0.0 
0.0 -1.962000000000e+01 0.0 
0.0 -1.962000000000e+01 0.0 
0.0 -1.962000000000e+01 0.0 
0.0 -1.962000000000e+01 0.0 
0.0 -1.962000000000e+01 0.0 
0.0 -1.962000000000e+01 0.0 
0.0 -1.962000000000e+01 0.0 
0.0 -1.962000000000e+01 0.0 
0.0 -1.962000000000e+01 0.0 
0.0 -1.962000000000e+01 0.0 
0.0 -1.962000000000e+01 0.0 
0.0 -1.962000000000e+01 0.0 
0.0 -1.962000000000e+01 0.0 
0.0 -1.962000000000e+01 0.0 
0.0 -1.962000000000e+01 0.0 
0.0 -1.962000000000e+01 0.0 
0.0 -1.962000000000e+01 0.0 
0.0 -1.962000000000e+01 0.0 
0.0 -1.962000000000e+01 0.0 
0.0 -1.962000000000e+01 0.0 
0.0 -1.962000000000e+01 0.0 
0.0 -1.962000000000e+01 0.0 
0.0 -1.962000000000e+01 0.0 
0.0 -1.962000000000e+01 0.0 
0.0 -1.962000000000e+01 0.0 
0.0 -1.962000000000e+01 0.0 
0.0 -1.962000000000e+01 0.0 
0.0 -1.962000000000e+01 0.0 
0.0 -1.962000000000e+01 0.0 
0.0 -1.962000000000e+01 0.0 
0.0 -1.962000000000e+01 0.0 
0.0 -1.962000000000e+01 0.0 
0.0 -1.962000000000e+01 0.0 
0.0 -1.962000000000e+01 0.0 
0.0 -1.962000000000e+01 0.0 
0.0 -1.962000000000e+01 0.0 
0.0 -1.962000000000e+01 0.0 
0.0 -1.962000000000e+01 0.0 
0.0 -1.962000000000e+01 0.0 
0.0 -1.962000000000e+01 0.0 
0.0 -1.962000000000e+01 0.0 
0.0 -1.962000000000e+01 0.0 
0.0 -1.962000000000e+01 0.0 
0.0 -1.962000000000e+01 0.0 
0.0 -1.962000000000e+01 0.0 
0.0 -1.962000000000e+01 0.0 
0.0 -1.962000000000e+01 0.0 
0.0 -1.962000000000e+01 0.0 
0.0 -1.962000000000e+01 0.0 
0.0 -1.962000000000e+01 0.0 
0.0 -1.962000000000e+01 0.0 
0.0 -1.962000000000e+01 0.0 
0.0 -1.962000000000e+01 0.0 
0.0 -1.962000000000e+01 0.0 
0.0 -1.962000000000e+01 0.0 
0.0 -1.962000000000e+01 0.0 
0.0 -1.962000000000e+01 0.0 
0.0 -1.962000000000e+01 0.0 
0.0 -1.962000000000e+01 0.0 
0.0 -1.962000000000e+01 0.0 
0.0 -1.962000000000e+01 0.0 
0.0 -1.962000000000e+01 0.0 
0.0 -1.962000000000e+01 0.0 
0.0 -1.962000000000e+01 0.0 
0.0 -1.962000000000e+01 0.0 
0.0 -1.962000000000e+01 0.0 
0.0 -1.962000000000e+01 0.0 
0.0 -1.962000000000e+01 0.0 
0.0 -1.962000000000e+01 0.0 
0.0 -1.962000000000e+01 0.0 
0.0 -1.962000000000e+01 0.0 
0.0 -1.962000000000e+01 0.0 
0.0 -1.962000000000e+01 0.0 
0.0 -1.962000000000e+01 0.0 
0.0 -1.962000000000e+01 0.0 
0.0 -1.962000000000e+01 0.0 
0.0 -1.962000000000e+01 0.0 
0.0 -1.962000000000e+01 0.0 
0.0 -1.962000000000e+01 0.0 
0.0 -1.962000000000e+01 0.0 
0.0 -1.962000000000e+01 0.0 
0.0 -1.962000000000e+01 0.0 
0.0 -1.962000000000e+01 0.0 
0.0 -1.962000000000e+01 0.0 
0.0 -1.962000000000e+01 0.0 
0.0 -1.962000000000e+01 0.0 
0.0 -1.962000000000e+01 0.0 
0.0 -1.962000000000e+01 0.0 
0.0 -1.962000000000e+01 0.0 
0.0 -1.962000000000e+01 0.0 
0.0 -1.962000000000e+01 0.0 
0.0 -1.962000000000e+01 0.0 
0.0 -1.962000000000e+01 0.0 
0.0 -1.962000000000e+01 0.0 
0.0 -1.962000000000e+01 0.0 
0.0 -1.962000000000e+01 0.0 
0.0 -1.962000000000e+01 0.0 
0.0 -1.962000000000e+01 0.0 
0.0 -1.962000000000e+01 0.0 
0.0 -1.962000000000e+01 0.0 
0.0 -1.962000000000e+01 0.0 
0.0 -1.962000000000e+01 0.0 
0.0 -1.962000000000e+01 0.0 
0.0 -1.962000000000e+01 0.0 
0.0 -1.962000000000e+01 0.0 
0.0 -1.962000000000e+01 0.0 
0.0 -1.962000000000e+01 0.0 
0.0 -1.962000000000e+01 0.0 
0.0 -1.962000000000e+01 0.0 
0.0 -1.962000000000e+01 0.0 
0.0 -1.962000000000e+01 0.0 
0.0 -1.962000000000e+01 0.0 
0.0 -1.962000000000e+01 0.0 
0.0 -1.962000000000e+01 0.0 
0.0 -1.962000000000e+01 0.0 
0.0 -1.962000000000e+01 0.0 
0.0 -1.962000000000e+01 0.0 
0.0 -1.962000000000e+01 0.0 
0.0 -1.962000000000e+01 0.0 
0.0 -1.962000000000e+01 0.0 
0.0 -1.962000000000e+01 0.0 
0.0 -1.962000000000e+01 0.0 
0.0 -1.962000000000e+01 0.0 
0.0 -1.962000000000e+01 0.0 
0.0 -1.962000000000e+01 0.0 
0.0 -1.962000000000e+01 0.0 
0.0 -1.962000000000e+01 0.0 
0.0 -1.962000000000e+01 0.0 
0.0 -1.962000000000e+01 0.0 
0.0 -1.962000000000e+01 0.0 
0.0 -1.962000000000e+01 0.0 
0.0 -1.962000000000e+01 0.0 
0.0 -1.962000000000e+01 0.0 
0.0 -1.962000000000e+01 0.0 
0.0 -1.962000000000e+01 0.0 
0.0 -1.962000000000e+01 0.0 
0.0 -1.962000000000e+01 0.0 
0.0 -1.962000000000e+01 0.0 
0.0 -1.962000000000e+01 0.0 
0.0 -1.962000000000e+01 0.0 
0.0 -1.962000000000e+01 0.0 
0.0 -1.962000000000e+01 0.0 
0.0 -1.962000000000e+01 0.0 
0.0 -1.962000000000e+01 0.0 
0.0 -1.962000000000e+01 0.0 
0.0 -1.962000000000e+01 0.0 
0.0 -1.962000000000e+01 0.0 
0.0 -1.962000000000e+01 0.0 
0.0 -1.962000000000e+01 0.0 
0.0 -1.962000000000e+01 0.0 
0.0 -1.962000000000e+01 0.0 
0.0 -1.962000000000e+01 0.0 
0.0 -1.962000000000e+01 0.0 
0.0 -1.962000000000e+01 0.0 
0.0 -1.962000000000e+01 0.0 
0.0 -1.962000000000e+01 0.0 
0.0 -1.962000000000e+01 0.0 
0.0 -1.962000000000e+01 0.0 
0.0 -1.962000000000e+01 0.0 
0.0 -1.962000000000e+01 0.0 
0.0 -1.962000000000e+01 0.0 
0.0 -1.962000000000e+01 0.0 
0.0 -1.962000000000e+01 0.0 
0.0 -1.962000000000e+01 0.0 
0.0 -1.962000000000e+01 0.0 
0.0 -1.962000000000e+01 0.0 
0.0 -1.962000000000e+01 0.0 
0.0 -1.962000000000e+01 0.0 
0.0 -1.962000000000e+01 0.0 
0.0 -1.962000000000e+01 0.0 
0.0 -1.962000000000e+01 0.0 
0.0 -1.962000000000e+01 0.0 
0.0 -1.962000000000e+01 0.0 
0.0 -1.962000000000e+01 0.0 
0.0 -1.962000000000e+01 0.0 
0.0 -1.962000000000e+01 0.0 
0.0 -1.962000000000e+01 0.0 
0.0 -1.962000000000e+01 0.0 
0.0 -1.962000000000e+01 0.0 
0.0 -1.962000000000e+01 0.0 
0.0 -1.962000000000e+01 0.0 
0.0 -1.962000000000e+01 0.0 
0.0 -1.962000000000e+01 0.0 
0.0 -1.962000000000e+01 0.0 
0.0 -1.962000000000e+01 0.0 
0.0 -1.962000000000e+01 0.0 
0.0 -1.962000000000e+01 0.0 
0.0 -1.962000000000e+01 0.0 
0.0 -1.962000000000e+01 0.0 
0.0 -1.962000000000e+01 0.0 
0.0 -1.962000000000e+01 0.0 
0.0 -1.962000000000e+01 0.0 
0.0 -1.962000000000e+01 0.0 
0.0 -1.962000000000e+01 0.0 
0.0 -1.962000000000e+01 0.0 
0.0 -1.962000000000e+01 0.0 
0.0 -1.962000000000e+01 0.0 
0.0 -1.962000000000e+01 0.0 
0.0 -1.962000000000e+01 0.0 
0.0 -1.962000000000e+01 0.0 
0.0 -1.962000000000e+01 0.0 
0.0 -1.962000000000e+01 0.0 
0.0 -1.962000000000e+01 0.0 
0.0 -1.962000000000e+01 0.0 
0.0 -1.962000000000e+01 0.0 
0.0 -1.962000000000e+01 0.0 
0.0 -1.962000000000e+01 0.0 
0.0 -1.962000000000e+01 0.0 
0.0 -1.962000000000e+01 0.0 
0.0 -1.962000000000e+01 0.0 
0.0 -1.962000000000e+01 0.0 
0.0 -1.962000000000e+01 0.0 
0.0 -1.962000000000e+01 0.0 
0.0 -1.962000000000e+01 0.0 
0.0 -1.962000000000e+01 0.0 
0.0 -1.962000000000e+01 0.0 
0.0 -1.962000000000e+01 0.0 
0.0 -1.962000000000e+01 0.0 
0.0 -1.962000000000e+01 0.0 
0.0 -1.962000000000e+01 0.0 
0.0 -1.962000000000e+01 0.0 
0.0 -1.962000000000e+01 0.0 
0.0 -1.962000000000e+01 0.0 
0.0 -1.962000000000e+01 0.0 
0.0 -1.962000000000e+01 0.0 
0.0 -1.962000000000e+01 0.0 
0.0 -1.962000000000e+01 0.0 
0.0 -1.962000000000e+01 0.0 
0.0 -1.962000000000e+01 0.0 
0.0 -1.962000000000e+01 0.0 
0.0 -1.962000000000e+01 0.0 
0.0 -1.962000000000e+01 0.0 
0.0 -1.962000000000e+01 0.0 
0.0 -1.962000000000e+01 0.0 
0.0 -1.962000000000e+01 0.0 
0.0 -1.962000000000e+01 0.0 
0.0 -1.962000000000e+01 0.0 
0.0 -1.962000000000e+01 0.0 
0.0 -1.962000000000e+01 0.0 
0.0 -1.962000000000e+01 0.0 
0.0 -1.962000000000e+01 0.0 
0.0 -1.962000000000e+01 0.0 
0.0 -1.962000000000e+01 0.0 
0.0 -1.962000000000e+01 0.0 
0.0 -1.962000000000e+01 0.0 
0.0 -1.962000000000e+01 0.0 
0.0 -1.962000000000e+01 0.0 
0.0 -1.962000000000e+01 0.0 
0.0 -1.962000000000e+01 0.0 
0.0 -1.962000000000e+01 0.0 
0.0 -1.962000000000e+01 0.0 
0.0 -1.962000000000e+01 0.0 
0.0 -1.962000000000e+01 0.0 
0.0 -1.962000000000e+01 0.0 
0.0 -1.962000000000e+01 0.0 
0.0 -1.962000000000e+01 0.0 
0.0 -1.962000000000e+01 0.0 
0.0 -1.962000000000e+01 0.0 
0.0 -1.962000000000e+01 0.0 
0.0 -1.962000000000e+01 0.0 
0.0 -1.962000000000e+01 0.0 
0.0 -1.962000000000e+01 0.0 
0.0 -1.962000000000e+01 0.0 
0.0 -1.962000000000e+01 0.0 
0.0 -1.962000000000e+01 0.0 
0.0 -1.962000000000e+01 0.0 
0.0 -1.962000000000e+01 0.0 
0.0 -1.962000000000e+01 0.0 
0.0 -1.962000000000e+01 0.0 
0.0 -1.962000000000e+01 0.0 
0.0 -1.962000000000e+01 0.0 
0.0 -1.962000000000e+01 0.0 
0.0 -1.962000000000e+01 0.0 
0.0 -1.962000000000e+01 0.0 
0.0 -1.962000000000e+01 0.0 
0.0 -1.962000000000e+01 0.0 
0.0 -1.962000000000e+01 0.0 
0.0 -1.962000000000e+01 0.0 
0.0 -1.962000000000e+01 0.0 
0.0 -1.962000000000e+01 0.0 
0.0 -1.962000000000e+01 0.0 
0.0 -1.962000000000e+01 0.0 
0.0 -1.962000000000e+01 0.0 
0.0 -1.962000000000e+01 0.0 
0.0 -1.962000000000e+01 0.0 
0.0 -1.962000000000e+01 0.0 
0.0 -1.962000000000e+01 0.0 
0.0 -1.962000000000e+01 0.0 
0.0 -1.962000000000e+01 0.0 
0.0 -1.962000000000e+01 0.0 
0.0 -1.962000000000e+01 0.0 
0.0 -1.962000000000e+01 0.0 
0.0 -1.962000000000e+01 0.0 
0.0 -1.962000000000e+01 0.0 
0.0 -1.962000000000e+01 0.0 
0.0 -1.962000000000e+01 0.0 
0.0 -1.962000000000e+01 0.0 
0.0 -1.962000000000e+01 0.0 
0.0 -1.962000000000e+01 0.0 
0.0 -1.962000000000e+01 0.0 
0.0 -1.962000000000e+01 0.0 
0.0 -1.962000000000e+01 0.0 
0.0 -1.962000000000e+01 0.0 
0.0 -1.962000000000e+01 0.0 
0.0 -1.962000000000e+01 0.0 
0.0 -1.962000000000e+01 0.0 
0.0 -1.962000000000e+01 0.0 
0.0 -1.962000000000e+01 0.0 
0.0 -1.962000000000e+01 0.0 
0.0 -1.962000000000e+01 0.0 
0.0 -1.962000000000e+01 0.0 
0.0 -1.962000000000e+01 0.0 
0.0 -1.962000000000e+01 0.0 
0.0 -1.962000000000e+01 0.0 
0.0 -1.962000000000e+01 0.0 
0.0 -1.962000000000e+01 0.0 
0.0 -1.962000000000e+01 0.0 
0.0 -1.962000000000e+01 0.0 
0.0 -1.962000000000e+01 0.0 
0.0 -1.962000000000e+01 0.0 
0.0 -1.962000000000e+01 0.0 
0.0 -1.962000000000e+01 0.0 
0.0 -1.962000000000e+01 0.0 
0.0 -1.962000000000e+01 0.0 
0.0 -1.962000000000e+01 0.0 
0.0 -1.962000000000e+01 0.0 
0.0 -1.962000000000e+01 0.0 
0.0 -1.962000000000e+01 0.0 
0.0 -1.962000000000e+01 0.0 
0.0 -1.962000000000e+01 0.0 
0.0 -1.962000000000e+01 0.0 
0.0 -1.962000000000e+01 0.0 
0.0 -1.962000000000e+01 0.0 
0.0 -1.962000000000e+01 0.0 
0.0 -1.962000000000e+01 0.0 
0.0 -1.962000000000e+01 0.0 
0.0 -1.962000000000e+01 0.0 
0.0 -1.962000000000e+01 0.0 
0.0 -1.962000000000e+01 0.0 
0.0 -1.962000000000e+01 0.0 
0.0 -1.962000000000e+01 0.0 
0.0 -1.962000000000e+01 0.0 
0.0 -1.962000000000e+01 0.0 
0.0 -1.962000000000e+01 0.0 
0.0 -1.962000000000e+01 0.0 
0.0 -1.962000000000e+01 0.0 
0.0 -1.962000000000e+01 0.0 
0.0 -1.962000000000e+01 0.0 
0.0 -1.962000000000e+01 0.0 
0.0 -1.962000000000e+01 0.0 
0.0 -1.962000000000e+01 0.0 
0.0 -1.962000000000e+01 0.0 
0.0 -1.962000000000e+01 0.0 
0.0 -1.962000000000e+01 0.0 
0.0 -1.962000000000e+01 0.0 
0.0 -1.962000000000e+01 0.0 
0.0 -1.962000000000e+01 0.0 
0.0 -1.962000000000e+01 0.0 
0.0 -1.962000000000e+01 0.0 
0.0 -1.962000000000e+01 0.0 
0.0 -1.962000000000e+01 0.0 
0.0 -1.962000000000e+01 0.0 
0.0 -1.962000000000e+01 0.0 
0.0 -1.962000000000e+01 0.0 
0.0 -1.962000000000e+01 0.0 
0.0 -1.962000000000e+01 0.0 
0.0 -1.962000000000e+01 0.0 
0.0 -1.962000000000e+01 0.0 
0.0 -1.962000000000e+01 0.0 
0.0 -1.962000000000e+01 0.0 
0.0 -1.962000000000e+01 0.0 
0.0 -1.962000000000e+01 0.0 
0.0 -1.962000000000e+01 0.0 
0.0 -1.962000000000e+01 0.0 
0.0 -1.962000000000e+01 0.0 
0.0 -1.962000000000e+01 0.0 
0.0 -1.962000000000e+01 0.0 
0.0 -1.962000000000e+01 0.0 
0.0 -1.962000000000e+01 0.0 
0.0 -1.962000000000e+01 0.0 
0.0 -1.962000000000e+01 0.0 
0.0 -1.962000000000e+01 0.0 
0.0 -1.962000000000e+01 0.0 
0.0 -1.962000000000e+01 0.0 
0.0 -1.962000000000e+01 0.0 
0.0 -1.962000000000e+01 0.0 
0.0 -1.962000000000e+01 0.0 
0.0 -1.962000000000e+01 0.0 
0.0 -1.962000000000e+01 0.0 
0.0 -1.962000000000e+01 0.0 
0.0 -1.962000000000e+01 0.0 
0.0 -1.962000000000e+01 0.0 
0.0 -1.962000000000e+01 0.0 
0.0 -1.962000000000e+01 0.0 
0.0 -1.962000000000e+01 0.0 
0.0 -1.962000000000e+01 0.0 
0.0 -1.962000000000e+01 0.0 
0.0 -1.962000000000e+01 0.0 
0.0 -1.962000000000e+01 0.0 
0.0 -1.962000000000e+01 0.0 
0.0 -1.962000000000e+01 0.0 
0.0 -1.962000000000e+01 0.0 
0.0 -1.962000000000e+01 0.0 
0.0 -1.962000000000e+01 0.0 
0.0 -1.962000000000e+01 0.0 
0.0 -1.962000000000e+01 0.0 
0.0 -1.962000000000e+01 0.0 
0.0 -1.962000000000e+01 0.0 
0.0 -1.962000000000e+01 0.0 
0.0 -1.962000000000e+01 0.0 
0.0 -1.962000000000e+01 0.0 
0.0 -1.962000000000e+01 0.0 
0.0 -1.962000000000e+01 0.0 
0.0 -1.962000000000e+01 0.0 
0.0 -1.962000000000e+01 0.0 
0.0 -1.962000000000e+01 0.0 
0.0 -1.962000000000e+01 0.0 
0.0 -1.962000000000e+01 0.0 
0.0 -1.962000000000e+01 0.0 
0.0 -1.962000000000e+01 0.0 
0.0 -1.962000000000e+01 0.0 
0.0 -1.962000000000e+01 0.0 
0.0 -1.962000000000e+01 0.0 
0.0 -1.962000000000e+01 0.0 
0.0 -1.962000000000e+01 0.0 
0.0 -1.962000000000e+01 0.0 
0.0 -1.962000000000e+01 0.0 
0.0 -1.962000000000e+01 0.0 
0.0 -1.962000000000e+01 0.0 
0.0 -1.962000000000e+01 0.0 
0.0 -1.962000000000e+01 0.0 
0.0 -1.962000000000e+01 0.0 
0.0 -1.962000000000e+01 0.0 
0.0 -1.962000000000e+01 0.0 
0.0 -1.962000000000e+01 0.0 
0.0 -1.962000000000e+01 0.0 
0.0 -1.962000000000e+01 0.0 
0.0 -1.962000000000e+01 0.0 
0.0 -1.962000000000e+01 0.0 
0.0 -1.962000000000e+01 0.0 
0.0 -1.962000000000e+01 0.0 
0.0 -1.962000000000e+01 0.0 
0.0 -1.962000000000e+01 0.0 
0.0 -1.962000000000e+01 0.0 
0.0 -1.962000000000e+01 0.0 
0.0 -1.962000000000e+01 0.0 
0.0 -1.962000000000e+01 0.0 
0.0 -1.962000000000e+01 0.0 
0.0 -1.962000000000e+01 0.0 
0.0 -1.962000000000e+01 0.0 
0.0 -1.962000000000e+01 0.0 
0.0 -1.962000000000e+01 0.0 
0.0 -1.962000000000e+01 0.0 
0.0 -1.962000000000e+01 0.0 
0.0 -1.962000000000e+01 0.0 
0.0 -1.962000000000e+01 0.0 
0.0 -1.962000000000e+01 0.0 
0.0 -1.962000000000e+01 0.0 
0.0 -1.962000000000e+01 0.0 
0.0 -1.962000000000e+01 0.0 
0.0 -1.962000000000e+01 0.0 
0.0 -1.962000000000e+01 0.0 
0.0 -1.962000000000e+01 0.0 
0.0 -1.962000000000e+01 0.0 
0.0 -1.962000000000e+01 0.0 
0.0 -1.962000000000e+01 0.0 
0.0 -1.962000000000e+01 0.0 
0.0 -1.962000000000e+01 0.0 
0.0 -1.962000000000e+01 0.0 
0.0 -1.962000000000e+01 0.0 
0.0 -1.962000000000e+01 0.0 
0.0 -1.962000000000e+01 0.0 
0.0 -1.962000000000e+01 0.0 
0.0 -1.962000000000e+01 0.0 
0.0 -1.962000000000e+01 0.0 
0.0 -1.962000000000e+01 0.0 
0.0 -1.962000000000e+01 0.0 
0.0 -1.962000000000e+01 0.0 
0.0 -1.962000000000e+01 0.0 
0.0 -1.962000000000e+01 0.0 
0.0 -1.962000000000e+01 0.0 
0.0 -1.962000000000e+01 0.0 
0.0 -1.962000000000e+01 0.0 
0.0 -1.962000000000e+01 0.0 
0.0 -1.962000000000e+01 0.0 
0.0 -1.962000000000e+01 0.0 
0.0 -1.962000000000e+01 0.0 
0.0 -1.962000000000e+01 0.0 
0.0 -1.962000000000e+01 0.0 
0.0 -1.962000000000e+01 0.0 
0.0 -1.962000000000e+01 0.0 
0.0 -1.962000000000e+01 0.0 
0.0 -1.962000000000e+01 0.0 
0.0 -1.962000000000e+01 0.0 
0.0 -1.962000000000e+01 0.0 
0.0 -1.962000000000e+01 0.0 
0.0 -1.962000000000e+01 0.0 
0.0 -1.962000000000e+01 0.0 
0.0 -1.962000000000e+01 0.0 
0.0 -1.962000000000e+01 0.0 
0.0 -1.962000000000e+01 0.0 
0.0 -1.962000000000e+01 0.0 
0.0 -1.962000000000e+01 0.0 
0.0 -1.962000000000e+01 0.0 
0.0 -1.962000000000e+01 0.0 
0.0 -1.962000000000e+01 0.0 
0.0 -1.962000000000e+01 0.0 
0.0 -1.962000000000e+01 0.0 
0.0 -1.962000000000e+01 0.0 
0.0 -1.962000000000e+01 0.0 
0.0 -1.962000000000e+01 0.0 
0.0 -1.962000000000e+01 0.0 
0.0 -1.962000000000e+01 0.0 
0.0 -1.962000000000e+01 0.0 
0.0 -1.962000000000e+01 0.0 
0.0 -1.962000000000e+01 0.0 
0.0 -1.962000000000e+01 0.0 
0.0 -1.962000000000e+01 0.0 
0.0 -1.962000000000e+01 0.0 
0.0 -1.962000000000e+01 0.0 
0.0 -1.962000000000e+01 0.0 
0.0 -1.962000000000e+01 0.0 
0.0 -1.962000000000e+01 0.0 
0.0 -1.962000000000e+01 0.0 
0.0 -1.962000000000e+01 0.0 
0.0 -1.962000000000e+01 0.0 
0.0 -1.962000000000e+01 0.0 
0.0 -1.962000000000e+01 0.0 
0.0 -1.962000000000e+01 0.0 
0.0 -1.962000000000e+01 0.0 
0.0 -1.962000000000e+01 0.0 
0.0 -1.962000000000e+01 0.0 
0.0 -1.962000000000e+01 0.0 
0.0 -1.962000000000e+01 0.0 
0.0 -1.962000000000e+01 0.0 
0.0 -1.962000000000e+01 0.0 
0.0 -1.962000000000e+01 0.0 
0.0 -1.962000000000e+01 0.0 
0.0 -1.962000000000e+01 0.0 
0.0 -1.962000000000e+01 0.0 
0.0 -1.962000000000e+01 0.0 
0.0 -1.962000000000e+01 0.0 
0.0 -1.962000000000e+01 0.0 
0.0 -1.962000000000e+01 0.0 
0.0 -1.962000000000e+01 0.0 
0.0 -1.962000000000e+01 0.0 
0.0 -1.962000000000e+01 0.0 
0.0 -1.962000000000e+01 0.0 
0.0 -1.962000000000e+01 0.0 
0.0 -1.962000000000e+01 0.0 
0.0 -1.962000000000e+01 0.0 
0.0 -1.962000000000e+01 0.0 
0.0 -1.962000000000e+01 0.0 
0.0 -1.962000000000e+01 0.0 
0.0 -1.962000000000e+01 0.0 
0.0 -1.962000000000e+01 0.0 
0.0 -1.962000000000e+01 0.0 
0.0 -1.962000000000e+01 0.0 
0.0 -1.962000000000e+01 0.0 
0.0 -1.962000000000e+01 0.0 
0.0 -1.962000000000e+01 0.0 
0.0 -1.962000000000e+01 0.0 
0.0 -1.962000000000e+01 0.0 
0.0 -1.962000000000e+01 0.0 
0.0 -1.962000000000e+01 0.0 
0.0 -1.962000000000e+01 0.0 
0.0 -1.962000000000e+01 0.0 
0.0 -1.962000000000e+01 0.0 
0.0 -1.962000000000e+01 0.0 
0.0 -1.962000000000e+01 0.0 
0.0 -1.962000000000e+01 0.0 
0.0 -1.962000000000e+01 0.0 
0.0 -1.962000000000e+01 0.0 
0.0 -1.962000000000e+01 0.0 
0.0 -1.962000000000e+01 0.0 
0.0 -1.962000000000e+01 0.0 
0.0 -1.962000000000e+01 0.0 
0.0 -1.962000000000e+01 0.0 
0.0 -1.962000000000e+01 0.0 
0.0 -1.962000000000e+01 0.0 
0.0 -1.962000000000e+01 0.0 
0.0 -1.962000000000e+01 0.0 
0.0 -1.962000000000e+01 0.0 
0.0 -1.962000000000e+01 0.0 
0.0 -1.962000000000e+01 0.0 
0.0 -1.962000000000e+01 0.0 
0.0 -1.962000000000e+01 0.0 
0.0 -1.962000000000e+01 0.0 
0.0 -1.962000000000e+01 0.0 
0.0 -1.962000000000e+01 0.0 
0.0 -1.962000000000e+01 0.0 
0.0 -1.962000000000e+01 0.0 
0.0 -1.962000000000e+01 0.0 
0.0 -1.962000000000e+01 0.0 
0.0 -1.962000000000e+01 0.0 
0.0 -1.962000000000e+01 0.0 
0.0 -1.962000000000e+01 0.0 
0.0 -1.962000000000e+01 0.0 
0.0 -1.962000000000e+01 0.0 
0.0 -1.962000000000e+01 0.0 
0.0 -1.962000000000e+01 0.0 
0.0 -1.962000000000e+01 0.0 
0.0 -1.962000000000e+01 0.0 
0.0 -1.962000000000e+01 0.0 
0.0 -1.962000000000e+01 0.0 
0.0 -1.962000000000e+01 0.0 
0.0 -1.962000000000e+01 0.0 
0.0 -1.962000000000e+01 0.0 
0.0 -1.962000000000e+01 0.0 
0.0 -1.962000000000e+01 0.0 
0.0 -1.962000000000e+01 0.0 
0.0 -1.962000000000e+01 0.0 
0.0 -1.962000000000e+01 0.0 
0.0 -1.962000000000e+01 0.0 
0.0 -1.962000000000e+01 0.0 
0.0 -1.962000000000e+01 0.0 
0.0 -1.962000000000e+01 0.0 
0.0 -1.962000000000e+01 0.0 
0.0 -1.962000000000e+01 0.0 
0.0 -1.962000000000e+01 0.0 
0.0 -1.962000000000e+01 0.0 
0.0 -1.962000000000e+01 0.0 
0.0 -1.962000000000e+01 0.0 
0.0 -1.962000000000e+01 0.0 
0.0 -1.962000000000e+01 0.0 
0.0 -1.962000000000e+01 0.0 
0.0 -1.962000000000e+01 0.0 
0.0 -1.962000000000e+01 0.0 
0.0 -1.962000000000e+01 0.0 
0.0 -1.962000000000e+01 0.0 
0.0 -1.962000000000e+01 0.0 
0.0 -1.962000000000e+01 0.0 
0.0 -1.962000000000e+01 0.0 
0.0 -1.962000000000e+01 0.0 
0.0 -1.962000000000e+01 0.0 
0.0 -1.962000000000e+01 0.0 
0.0 -1.962000000000e+01 0.0 
0.0 -1.962000000000e+01 0.0 
0.0 -1.962000000000e+01 0.0 
0.0 -1.962000000000e+01 0.0 
0.0 -1.962000000000e+01 0.0 
0.0 -1.962000000000e+01 0.0 
0.0 -1.962000000000e+01 0.0 
0.0 -1.962000000000e+01 0.0 
0.0 -1.962000000000e+01 0.0 
0.0 -1.962000000000e+01 0.0 
0.0 -1.962000000000e+01 0.0 
0.0 -1.962000000000e+01 0.0 
0.0 -1.962000000000e+01 0.0 
0.0 -1.962000000000e+01 0.0 
0.0 -1.962000000000e+01 0.0 
0.0 -1.962000000000e+01 0.0 
0.0 -1.962000000000e+01 0.0 
0.0 -1.962000000000e+01 0.0 
0.0 -1.962000000000e+01 0.0 
0.0 -1.962000000000e+01 0.0 
0.0 -1.962000000000e+01 0.0 
0.0 -1.962000000000e+01 0.0 
0.0 -1.962000000000e+01 0.0 
0.0 -1.962000000000e+01 0.0 
0.0 -1.962000000000e+01 0.0 
0.0 -1.962000000000e+01 0.0 
0.0 -1.962000000000e+01 0.0 
0.0 -1.962000000000e+01 0.0 
0.0 -1.962000000000e+01 0.0 
0.0 -1.962000000000e+01 0.0 
0.0 -1.962000000000e+01 0.0 
0.0 -1.962000000000e+01 0.0 
0.0 -1.962000000000e+01 0.0 
0.0 -1.962000000000e+01 0.0 
0.0 -1.962000000000e+01 0.0 
0.0 -1.962000000000e+01 0.0 
0.0 -1.962000000000e+01 0.0 
0.0 -1.962000000000e+01 0.0 
0.0 -1.962000000000e+01 0.0 
0.0 -1.962000000000e+01 0.0 
0.0 -1.962000000000e+01 0.0 
0.0 -1.962000000000e+01 0.0 
0.0 -1.962000000000e+01 0.0 
0.0 -1.962000000000e+01 0.0 
0.0 -1.962000000000e+01 0.0 
0.0 -1.962000000000e+01 0.0 
0.0 -1.962000000000e+01 0.0 
0.0 -1.962000000000e+01 0.0 
0.0 -1.962000000000e+01 0.0 
0.0 -1.962000000000e+01 0.0 
0.0 -1.962000000000e+01 0.0 
0.0 -1.962000000000e+01 0.0 
0.0 -1.962000000000e+01 0.0 
0.0 -1.962000000000e+01 0.0 
0.0 -1.962000000000e+01 0.0 
0.0 -1.962000000000e+01 0.0 
0.0 -1.962000000000e+01 0.0 
0.0 -1.962000000000e+01 0.0 
0.0 -1.962000000000e+01 0.0 
0.0 -1.962000000000e+01 0.0 
0.0 -1.962000000000e+01 0.0 
0.0 -1.962000000000e+01 0.0 
0.0 -1.962000000000e+01 0.0 
0.0 -1.962000000000e+01 0.0 
0.0 -1.962000000000e+01 0.0 
0.0 -1.962000000000e+01 0.0 
0.0 -1.962000000000e+01 0.0 
0.0 -1.962000000000e+01 0.0 
0.0 -1.962000000000e+01 0.0 
0.0 -1.962000000000e+01 0.0 
0.0 -1.962000000000e+01 0.0 
0.0 -1.962000000000e+01 0.0 
0.0 -1.962000000000e+01 0.0 
0.0 -1.962000000000e+01 0.0 
0.0 -1.962000000000e+01 0.0 
0.0 -1.962000000000e+01 0.0 
0.0 -1.962000000000e+01 0.0 
0.0 -1.962000000000e+01 0.0 
0.0 -1.962000000000e+01 0.0 
0.0 -1.962000000000e+01 0.0 
0.0 -1.962000000000e+01 0.0 
0.0 -1.962000000000e+01 0.0 
0.0 -1.962000000000e+01 0.0 
0.0 -1.962000000000e+01 0.0 
0.0 -1.962000000000e+01 0.0 
0.0 -1.962000000000e+01 0.0 
0.0 -1.962000000000e+01 0.0 
0.0 -1.962000000000e+01 0.0 
0.0 -1.962000000000e+01 0.0 
0.0 -1.962000000000e+01 0.0 
0.0 -1.962000000000e+01 0.0 
0.0 -1.962000000000e+01 0.0 
0.0 -1.962000000000e+01 0.0 
0.0 -1.962000000000e+01 0.0 
0.0 -1.962000000000e+01 0.0 
0.0 -1.962000000000e+01 0.0 
0.0 -1.962000000000e+01 0.0 
0.0 -1.962000000000e+01 0.0 
0.0 -1.962000000000e+01 0.0 
0.0 -1.962000000000e+01 0.0 
0.0 -1.962000000000e+01 0.0 
0.0 -1.962000000000e+01 0.0 
0.0 -1.962000000000e+01 0.0 
0.0 -1.962000000000e+01 0.0 
0.0 -1.962000000000e+01 0.0 
0.0 -1.962000000000e+01 0.0 
0.0 -1.962000000000e+01 0.0 
0.0 -1.962000000000e+01 0.0 
0.0 -1.962000000000e+01 0.0 
0.0 -1.962000000000e+01 0.0 
0.0 -1.962000000000e+01 0.0 
0.0 -1.962000000000e+01 0.0 
0.0 -1.962000000000e+01 0.0 
0.0 -1.962000000000e+01 0.0 
0.0 -1.962000000000e+01 0.0 
0.0 -1.962000000000e+01 0.0 
0.0 -1.962000000000e+01 0.0 
0.0 -1.962000000000e+01 0.0 
0.0 -1.962000000000e+01 0.0 
0.0 -1.962000000000e+01 0.0 
0.0 -1.962000000000e+01 0.0 
0.0 -1.962000000000e+01 0.0 
0.0 -1.962000000000e+01 0.0 
0.0 -1.962000000000e+01 0.0 
0.0 -1.962000000000e+01 0.0 
0.0 -1.962000000000e+01 0.0 
0.0 -1.962000000000e+01 0.0 
0.0 -1.962000000000e+01 0.0 
0.0 -1.962000000000e+01 0.0 
0.0 -1.962000000000e+01 0.0 
0.0 -1.962000000000e+01 0.0 
0.0 -1.962000000000e+01 0.0 
0.0 -1.962000000000e+01 0.0 
0.0 -1.962000000000e+01 0.0 
0.0 -1.962000000000e+01 0.0 
0.0 -1.962000000000e+01 0.0 
0.0 -1.962000000000e+01 0.0 
0.0 -1.962000000000e+01 0.0 
0.0 -1.962000000000e+01 0.0 
0.0 -1.962000000000e+01 0.0 
0.0 -1.962000000000e+01 0.0 
0.0 -1.962000000000e+01 0.0 
0.0 -1.962000000000e+01 0.0 
0.0 -1.962000000000e+01 0.0 
0.0 -1.962000000000e+01 0.0 
0.0 -1.962000000000e+01 0.0 
0.0 -1.962000000000e+01 0.0 
0.0 -1.962000000000e+01 0.0 
0.0 -1.962000000000e+01 0.0 
0.0 -1.962000000000e+01 0.0 
0.0 -1.962000000000e+01 0.0 
0.0 -1.962000000000e+01 0.0 
0.0 -1.962000000000e+01 0.0 
0.0 -1.962000000000e+01 0.0 
0.0 -1.962000000000e+01 0.0 
0.0 -1.962000000000e+01 0.0 
0.0 -1.962000000000e+01 0.0 
0.0 -1.962000000000e+01 0.0 
0.0 -1.962000000000e+01 0.0 
0.0 -1.962000000000e+01 0.0 
0.0 -1.962000000000e+01 0.0 
0.0 -1.962000000000e+01 0.0 
0.0 -1.962000000000e+01 0.0 
0.0 -1.962000000000e+01 0.0 
0.0 -1.962000000000e+01 0.0 
0.0 -1.962000000000e+01 0.0 
0.0 -1.962000000000e+01 0.0 
0.0 -1.962000000000e+01 0.0 
0.0 -1.962000000000e+01 0.0 
0.0 -1.962000000000e+01 0.0 
0.0 -1.962000000000e+01 0.0 
0.0 -1.962000000000e+01 0.0 
0.0 -1.962000000000e+01 0.0 
0.0 -1.962000000000e+01 0.0 
0.0 -1.962000000000e+01 0.0 
0.0 -1.962000000000e+01 0.0 
0.0 -1.962000000000e+01 0.0 
0.0 -1.962000000000e+01 0.0 
0.0 -1.962000000000e+01 0.0 
0.0 -1.962000000000e+01 0.0 
0.0 -1.962000000000e+01 0.0 
0.0 -1.962000000000e+01 0.0 
0.0 -1.962000000000e+01 0.0 
0.0 -1.962000000000e+01 0.0 
0.0 -1.962000000000e+01 0.0 
0.0 -1.962000000000e+01 0.0 
0.0 -1.962000000000e+01 0.0 
0.0 -1.962000000000e+01 0.0 
0.0 -1.962000000000e+01 0.0 
0.0 -1.962000000000e+01 0.0 
0.0 -1.962000000000e+01 0.0 
0.0 -1.962000000000e+01 0.0 
0.0 -1.962000000000e+01 0.0 
0.0 -1.962000000000e+01 0.0 
0.0 -1.962000000000e+01 0.0 
0.0 -1.962000000000e+01 0.0 
0.0 -1.962000000000e+01 0.0 
0.0 -1.962000000000e+01 0.0 
0.0 -1.962000000000e+01 0.0 
0.0 -1.962000000000e+01 0.0 
0.0 -1.962000000000e+01 0.0 
0.0 -1.962000000000e+01 0.0 
0.0 -1.962000000000e+01 0.0 
0.0 -1.962000000000e+01 0.0 
0.0 -1.962000000000e+01 0.0 
0.0 -1.962000000000e+01 0.0 
0.0 -1.962000000000e+01 0.0 
0.0 -1.962000000000e+01 0.0 
0.0 -1.962000000000e+01 0.0 
0.0 -1.962000000000e+01 0.0 
0.0 -1.962000000000e+01 0.0 
0.0 -1.962000000000e+01 0.0 
0.0 -1.962000000000e+01 0.0 
0.0 -1.962000000000e+01 0.0 
0.0 -1.962000000000e+01 0.0 
0.0 -1.962000000000e+01 0.0 
0.0 -1.962000000000e+01 0.0 
0.0 -1.962000000000e+01 0.0 
0.0 -1.962000000000e+01 0.0 
0.0 -1.962000000000e+01 0.0 
0.0 -1.962000000000e+01 0.0 
0.0 -1.962000000000e+01 0.0 
0.0 -1.962000000000e+01 0.0 
0.0 -1.962000000000e+01 0.0 
0.0 -1.962000000000e+01 0.0 
0.0 -1.962000000000e+01 0.0 
0.0 -1.962000000000e+01 0.0 
0.0 -1.962000000000e+01 0.0 
0.0 -1.962000000000e+01 0.0 
0.0 -1.962000000000e+01 0.0 
0.0 -1.962000000000e+01 0.0 
0.0 -1.962000000000e+01 0.0 
0.0 -1.962000000000e+01 0.0 
0.0 -1.962000000000e+01 0.0 
0.0 -1.962000000000e+01 0.0 
0.0 -1.962000000000e+01 0.0 
0.0 -1.962000000000e+01 0.0 
0.0 -1.962000000000e+01 0.0 
0.0 -1.962000000000e+01 0.0 
0.0 -1.962000000000e+01 0.0 
0.0 -1.962000000000e+01 0.0 
0.0 -1.962000000000e+01 0.0 
0.0 -1.962000000000e+01 0.0 
0.0 -1.962000000000e+01 0.0 
0.0 -1.962000000000e+01 0.0 
0.0 -1.962000000000e+01 0.0 
0.0 -1.962000000000e+01 0.0 
0.0 -1.962000000000e+01 0.0 
0.0 -1.962000000000e+01 0.0 
0.0 -1.962000000000e+01 0.0 
0.0 -1.962000000000e+01 0.0 
0.0 -1.962000000000e+01 0.0 
0.0 -1.962000000000e+01 0.0 
0.0 -1.962000000000e+01 0.0 
0.0 -1.962000000000e+01 0.0 
0.0 -1.962000000000e+01 0.0 
0.0 -1.962000000000e+01 0.0 
0.0 -1.962000000000e+01 0.0 
0.0 -1.962000000000e+01 0.0 
0.0 -1.962000000000e+01 0.0 
0.0 -1.962000000000e+01 0.0 
0.0 -1.962000000000e+01 0.0 
0.0 -1.962000000000e+01 0.0 
0.0 -1.962000000000e+01 0.0 
0.0 -1.962000000000e+01 0.0 
0.0 -1.962000000000e+01 0.0 
0.0 -1.962000000000e+01 0.0 
0.0 -1.962000000000e+01 0.0 
0.0 -1.962000000000e+01 0.0 
0.0 -1.962000000000e+01 0.0 
0.0 -1.962000000000e+01 0.0 
0.0 -1.962000000000e+01 0.0 
0.0 -1.962000000000e+01 0.0 
0.0 -1.962000000000e+01 0.0 
0.0 -1.962000000000e+01 0.0 
0.0 -1.962000000000e+01 0.0 
0.0 -1.962000000000e+01 0.0 
0.0 -1.962000000000e+01 0.0 
0.0 -1.962000000000e+01 0.0 
0.0 -1.962000000000e+01 0.0 
0.0 -1.962000000000e+01 0.0 
0.0 -1.962000000000e+01 0.0 
0.0 -1.962000000000e+01 0.0 
0.0 -1.962000000000e+01 0.0 
0.0 -1.962000000000e+01 0.0 
0.0 -1.962000000000e+01 0.0 
0.0 -1.962000000000e+01 0.0 
0.0 -1.962000000000e+01 0.0 
0.0 -1.962000000000e+01 0.0 
0.0 -1.962000000000e+01 0.0 
0.0 -1.962000000000e+01 0.0 
0.0 -1.962000000000e+01 0.0 
0.0 -1.962000000000e+01 0.0 
0.0 -1.962000000000e+01 0.0 
0.0 -1.962000000000e+01 0.0 
0.0 -1.962000000000e+01 0.0 
0.0 -1.962000000000e+01 0.0 
0.0 -1.962000000000e+01 0.0 
0.0 -1.962000000000e+01 0.0 
0.0 -1.962000000000e+01 0.0 
0.0 -1.962000000000e+01 0.0 
0.0 -1.962000000000e+01 0.0 
0.0 -1.962000000000e+01 0.0 
0.0 -1.962000000000e+01 0.0 
0.0 -1.962000000000e+01 0.0 
0.0 -1.962000000000e+01 0.0 
0.0 -1.962000000000e+01 0.0 
0.0 -1.962000000000e+01 0.0 
0.0 -1.962000000000e+01 0.0 
0.0 -1.962000000000e+01 0.0 
0.0 -1.962000000000e+01 0.0 
0.0 -1.962000000000e+01 0.0 
0.0 -1.962000000000e+01 0.0 
0.0 -1.962000000000e+01 0.0 
0.0 -1.962000000000e+01 0.0 
0.0 -1.962000000000e+01 0.0 
0.0 -1.962000000000e+01 0.0 
0.0 -1.962000000000e+01 0.0 
0.0 -1.962000000000e+01 0.0 
0.0 -1.962000000000e+01 0.0 
0.0 -1.962000000000e+01 0.0 
0.0 -1.962000000000e+01 0.0 
0.0 -1.962000000000e+01 0.0 
0.0 -1.962000000000e+01 0.0 
0.0 -1.962000000000e+01 0.0 
0.0 -1.962000000000e+01 0.0 
0.0 -1.962000000000e+01 0.0 
0.0 -1.962000000000e+01 0.0 
0.0 -1.962000000000e+01 0.0 
0.0 -1.962000000000e+01 0.0 
0.0 -1.962000000000e+01 0.0 
0.0 -1.962000000000e+01 0.0 
0.0 -1.962000000000e+01 0.0 
0.0 -1.962000000000e+01 0.0 
0.0 -1.962000000000e+01 0.0 
0.0 -1.962000000000e+01 0.0 
0.0 -1.962000000000e+01 0.0 
0.0 -1.962000000000e+01 0.0 
0.0 -1.962000000000e+01 0.0 
0.0 -1.962000000000e+01 0.0 
0.0 -1.962000000000e+01 0.0 
0.0 -1.962000000000e+01 0.0 
0.0 -1.962000000000e+01 0.0 
0.0 -1.962000000000e+01 0.0 
0.0 -1.962000000000e+01 0.0 
0.0 -1.962000000000e+01 0.0 
0.0 -1.962000000000e+01 0.0 
0.0 -1.962000000000e+01 0.0 
0.0 -1.962000000000e+01 0.0 
0.0 -1.962000000000e+01 0.0 
0.0 -1.962000000000e+01 0.0 
0.0 -1.962000000000e+01 0.0 
0.0 -1.962000000000e+01 0.0 
0.0 -1.962000000000e+01 0.0 
0.0 -1.962000000000e+01 0.0 
0.0 -1.962000000000e+01 0.0 
0.0 -1.962000000000e+01 0.0 
0.0 -1.962000000000e+01 0.0 
0.0 -1.962000000000e+01 0.0 
0.0 -1.962000000000e+01 0.0 
0.0 -1.962000000000e+01 0.0 
0.0 -1.962000000000e+01 0.0 
0.0 -1.962000000000e+01 0.0 
0.0 -1.962000000000e+01 0.0 
0.0 -1.962000000000e+01 0.0 
0.0 -1.962000000000e+01 0.0 
0.0 -1.962000000000e+01 0.0 
0.0 -1.962000000000e+01 0.0 
0.0 -1.962000000000e+01 0.0 
0.0 -1.962000000000e+01 0.0 
0.0 -1.962000000000e+01 0.0 
0.0 -1.962000000000e+01 0.0 
0.0 -1.962000000000e+01 0.0 
0.0 -1.962000000000e+01 0.0 
0.0 -1.962000000000e+01 0.0 

VECTORS node_rhside_materi_fixed float
-1.339532905552e+00 0.0 0.0 
3.595710541951e+01 0.0 0.0 
-8.163885264148e+01 -1.953019029798e+02 0.0 
5.393871534909e+01 -1.297165096446e+02 0.0 
-6.856362365308e+00 0.0 0.0 
-1.479569924959e+01 0.0 0.0 
-2.118293591139e+01 0.0 0.0 
-2.932829823356e+01 0.0 0.0 
-3.635884086679e+01 0.0 0.0 
-4.370217061348e+01 0.0 0.0 
-5.109500564418e+01 0.0 0.0 
-5.854699428829e+01 0.0 0.0 
-6.612655649797e+01 0.0 0.0 
-7.380093571816e+01 0.0 0.0 
-8.213398690978e+01 0.0 0.0 
-9.057497434118e+01 0.0 0.0 
-9.873627477252e+01 0.0 0.0 
-1.077969617068e+02 0.0 0.0 
-1.169232724012e+02 0.0 0.0 
-1.263374747481e+02 0.0 0.0 
-1.360417153399e+02 0.0 0.0 
-1.459985201711e+02 0.0 0.0 
-1.565138285659e+02 0.0 0.0 
6.474426517793e-01 -2.582728355990e+02 0.0 
1.077631429829e+00 -2.595657879420e+02 0.0 
3.461242380910e+00 -2.588142557743e+02 0.0 
2.377221137994e+00 -2.590819093040e+02 0.0 
4.578433813998e+00 -2.600841706862e+02 0.0 
5.345782444933e+00 -2.597333982878e+02 0.0 
6.143454872454e+00 -2.608142878650e+02 0.0 
7.358482680576e+00 -2.618809783842e+02 0.0 
9.691647300110e+00 -2.620280809169e+02 0.0 
9.106757681307e+00 -2.632470616424e+02 0.0 
1.198704573945e+01 -2.655720337208e+02 0.0 
1.341206619449e+01 -2.663924127771e+02 0.0 
1.481720474369e+01 -2.692866483457e+02 0.0 
1.638872189087e+01 -2.714014632280e+02 0.0 
1.832854990900e+01 -2.743211153134e+02 0.0 
1.969662007305e+01 -2.782391330962e+02 0.0 
2.237326135645e+01 -2.820718932764e+02 0.0 
2.375936873818e+01 -2.866410845609e+02 0.0 
2.530299952672e+01 -2.915080398070e+02 0.0 
2.648852943940e+01 -2.964632794233e+02 0.0 
2.706558861119e+01 -3.020540182354e+02 0.0 
2.829122499870e+01 -3.083119033556e+02 0.0 
2.858942074200e+01 -3.141269053033e+02 0.0 
2.885517405337e+01 -3.201619542223e+02 0.0 
2.879580663806e+01 -3.264329983060e+02 0.0 
2.828247993154e+01 -3.322335631634e+02 0.0 
2.762336105618e+01 -3.378384464810e+02 0.0 
2.670819001632e+01 -3.434486745718e+02 0.0 
2.576539756288e+01 -3.488439381036e+02 0.0 
2.456184958503e+01 -3.535774418872e+02 0.0 
2.304158235679e+01 -3.578393768829e+02 0.0 
2.172600242037e+01 -3.626292068387e+02 0.0 
2.031188933962e+01 -3.660700306002e+02 0.0 
1.886750606103e+01 -3.696865261417e+02 0.0 
1.725399563920e+01 -3.727414125085e+02 0.0 
1.585452014793e+01 -3.754717630326e+02 0.0 
1.439598270385e+01 -3.779849137899e+02 0.0 
1.292373695644e+01 -3.801329440210e+02 0.0 
1.161774633908e+01 -3.819735129290e+02 0.0 
1.037867294585e+01 -3.839301725112e+02 0.0 
9.101503451203e+00 -3.851360996061e+02 0.0 
7.926237395357e+00 -3.862134097629e+02 0.0 
6.749338650241e+00 -3.870310327684e+02 0.0 
5.835885306680e+00 -3.886196302526e+02 0.0 
4.565211764092e+00 -3.885030826400e+02 0.0 
3.626961657564e+00 -3.896654116088e+02 0.0 
2.900492398018e+00 -3.895944424650e+02 0.0 
1.837823365617e+00 -3.900424432583e+02 0.0 
8.276697302999e-01 -3.901014621775e+02 0.0 
4.384074168153e+01 0.0 0.0 
5.234549195054e+01 0.0 0.0 
6.028603061989e+01 0.0 0.0 
6.791379613533e+01 0.0 0.0 
7.546928702511e+01 0.0 0.0 
8.318717983281e+01 0.0 0.0 
9.024813418958e+01 0.0 0.0 
9.675668233969e+01 0.0 0.0 
1.044796705115e+02 0.0 0.0 
0.0 0.0 0.0 
0.0 0.0 0.0 
0.0 0.0 0.0 
0.0 0.0 0.0 
0.0 0.0 0.0 
0.0 0.0 0.0 
0.0 0.0 0.0 
0.0 0.0 0.0 
0.0 0.0 0.0 
0.0 0.0 0.0 
0.0 0.0 0.0 
7.030287543711e+00 0.0 0.0 
1.986457620515e+01 0.0 0.0 
2.788777925910e+01 0.0 0.0 
0.0 0.0 0.0 
0.0 0.0 0.0 
0.0 0.0 0.0 
0.0 0.0 0.0 
0.0 0.0 0.0 
0.0 0.0 0.0 
0.0 0.0 0.0 
0.0 0.0 0.0 
0.0 0.0 0.0 
0.0 0.0 0.0 
0.0 0.0 0.0 
0.0 0.0 0.0 
0.0 0.0 0.0 
0.0 0.0 0.0 
0.0 0.0 0.0 
0.0 0.0 0.0 
0.0 0.0 0.0 
0.0 0.0 0.0 
0.0 0.0 0.0 
0.0 0.0 0.0 
0.0 0.0 0.0 
0.0 0.0 0.0 
0.0 0.0 0.0 
0.0 0.0 0.0 
0.0 0.0 0.0 
0.0 0.0 0.0 
0.0 0.0 0.0 
0.0 0.0 0.0 
0.0 0.0 0.0 
0.0 0.0 0.0 
0.0 0.0 0.0 
0.0 0.0 0.0 
0.0 0.0 0.0 
0.0 0.0 0.0 
0.0 0.0 0.0 
0.0 0.0 0.0 
0.0 0.0 0.0 
0.0 0.0 0.0 
0.0 0.0 0.0 
0.0 0.0 0.0 
0.0 0.0 0.0 
0.0 0.0 0.0 
0.0 0.0 0.0 
0.0 0.0 0.0 
0.0 0.0 0.0 
0.0 0.0 0.0 
0.0 0.0 0.0 
0.0 0.0 0.0 
0.0 0.0 0.0 
0.0 0.0 0.0 
0.0 0.0 0.0 
0.0 0.0 0.0 
0.0 0.0 0.0 
0.0 0.0 0.0 
0.0 0.0 0.0 
0.0 0.0 0.0 
0.0 0.0 0.0 
0.0 0.0 0.0 
0.0 0.0 0.0 
0.0 0.0 0.0 
0.0 0.0 0.0 
0.0 0.0 0.0 
0.0 0.0 0.0 
0.0 0.0 0.0 
0.0 0.0 0.0 
0.0 0.0 0.0 
0.0 0.0 0.0 
0.0 0.0 0.0 
0.0 0.0 0.0 
0.0 0.0 0.0 
0.0 0.0 0.0 
0.0 0.0 0.0 
0.0 0.0 0.0 
0.0 0.0 0.0 
0.0 0.0 0.0 
0.0 0.0 0.0 
0.0 0.0 0.0 
0.0 0.0 0.0 
0.0 0.0 0.0 
0.0 0.0 0.0 
0.0 0.0 0.0 
0.0 0.0 0.0 
0.0 0.0 0.0 
0.0 0.0 0.0 
0.0 0.0 0.0 
0.0 0.0 0.0 
0.0 0.0 0.0 
0.0 0.0 0.0 
0.0 0.0 0.0 
0.0 0.0 0.0 
0.0 0.0 0.0 
0.0 0.0 0.0 
0.0 0.0 0.0 
0.0 0.0 0.0 
0.0 0.0 0.0 
0.0 0.0 0.0 
0.0 0.0 0.0 
0.0 0.0 0.0 
0.0 0.0 0.0 
0.0 0.0 0.0 
0.0 0.0 0.0 
0.0 0.0 0.0 
0.0 0.0 0.0 
0.0 0.0 0.0 
0.0 0.0 0.0 
0.0 0.0 0.0 
0.0 0.0 0.0 
0.0 0.0 0.0 
0.0 0.0 0.0 
0.0 0.0 0.0 
0.0 0.0 0.0 
0.0 0.0 0.0 
0.0 0.0 0.0 
0.0 0.0 0.0 
0.0 0.0 0.0 
0.0 0.0 0.0 
0.0 0.0 0.0 
0.0 0.0 0.0 
0.0 0.0 0.0 
0.0 0.0 0.0 
0.0 0.0 0.0 
0.0 0.0 0.0 
0.0 0.0 0.0 
0.0 0.0 0.0 
0.0 0.0 0.0 
0.0 0.0 0.0 
0.0 0.0 0.0 
0.0 0.0 0.0 
0.0 0.0 0.0 
0.0 0.0 0.0 
0.0 0.0 0.0 
0.0 0.0 0.0 
0.0 0.0 0.0 
0.0 0.0 0.0 
0.0 0.0 0.0 
0.0 0.0 0.0 
0.0 0.0 0.0 
0.0 0.0 0.0 
0.0 0.0 0.0 
0.0 0.0 0.0 
0.0 0.0 0.0 
0.0 0.0 0.0 
0.0 0.0 0.0 
0.0 0.0 0.0 
0.0 0.0 0.0 
0.0 0.0 0.0 
0.0 0.0 0.0 
0.0 0.0 0.0 
0.0 0.0 0.0 
0.0 0.0 0.0 
0.0 0.0 0.0 
0.0 0.0 0.0 
0.0 0.0 0.0 
0.0 0.0 0.0 
0.0 0.0 0.0 
0.0 0.0 0.0 
0.0 0.0 0.0 
0.0 0.0 0.0 
0.0 0.0 0.0 
0.0 0.0 0.0 
0.0 0.0 0.0 
0.0 0.0 0.0 
0.0 0.0 0.0 
0.0 0.0 0.0 
0.0 0.0 0.0 
0.0 0.0 0.0 
0.0 0.0 0.0 
0.0 0.0 0.0 
0.0 0.0 0.0 
0.0 0.0 0.0 
0.0 0.0 0.0 
0.0 0.0 0.0 
0.0 0.0 0.0 
0.0 0.0 0.0 
0.0 0.0 0.0 
0.0 0.0 0.0 
0.0 0.0 0.0 
0.0 0.0 0.0 
0.0 0.0 0.0 
0.0 0.0 0.0 
0.0 0.0 0.0 
0.0 0.0 0.0 
0.0 0.0 0.0 
0.0 0.0 0.0 
0.0 0.0 0.0 
0.0 0.0 0.0 
0.0 0.0 0.0 
0.0 0.0 0.0 
0.0 0.0 0.0 
0.0 0.0 0.0 
0.0 0.0 0.0 
0.0 0.0 0.0 
0.0 0.0 0.0 
0.0 0.0 0.0 
0.0 0.0 0.0 
0.0 0.0 0.0 
0.0 0.0 0.0 
0.0 0.0 0.0 
0.0 0.0 0.0 
0.0 0.0 0.0 
0.0 0.0 0.0 
0.0 0.0 0.0 
0.0 0.0 0.0 
0.0 0.0 0.0 
0.0 0.0 0.0 
0.0 0.0 0.0 
0.0 0.0 0.0 
0.0 0.0 0.0 
0.0 0.0 0.0 
0.0 0.0 0.0 
0.0 0.0 0.0 
0.0 0.0 0.0 
0.0 0.0 0.0 
0.0 0.0 0.0 
0.0 0.0 0.0 
0.0 0.0 0.0 
0.0 0.0 0.0 
0.0 0.0 0.0 
0.0 0.0 0.0 
0.0 0.0 0.0 
0.0 0.0 0.0 
0.0 0.0 0.0 
0.0 0.0 0.0 
0.0 0.0 0.0 
0.0 0.0 0.0 
0.0 0.0 0.0 
0.0 0.0 0.0 
0.0 0.0 0.0 
0.0 0.0 0.0 
0.0 0.0 0.0 
0.0 0.0 0.0 
0.0 0.0 0.0 
0.0 0.0 0.0 
0.0 0.0 0.0 
0.0 0.0 0.0 
0.0 0.0 0.0 
0.0 0.0 0.0 
0.0 0.0 0.0 
0.0 0.0 0.0 
0.0 0.0 0.0 
0.0 0.0 0.0 
0.0 0.0 0.0 
0.0 0.0 0.0 
0.0 0.0 0.0 
0.0 0.0 0.0 
0.0 0.0 0.0 
0.0 0.0 0.0 
0.0 0.0 0.0 
0.0 0.0 0.0 
0.0 0.0 0.0 
0.0 0.0 0.0 
0.0 0.0 0.0 
0.0 0.0 0.0 
0.0 0.0 0.0 
0.0 0.0 0.0 
0.0 0.0 0.0 
0.0 0.0 0.0 
0.0 0.0 0.0 
0.0 0.0 0.0 
0.0 0.0 0.0 
0.0 0.0 0.0 
0.0 0.0 0.0 
0.0 0.0 0.0 
0.0 0.0 0.0 
0.0 0.0 0.0 
0.0 0.0 0.0 
0.0 0.0 0.0 
0.0 0.0 0.0 
0.0 0.0 0.0 
0.0 0.0 0.0 
0.0 0.0 0.0 
0.0 0.0 0.0 
0.0 0.0 0.0 
0.0 0.0 0.0 
0.0 0.0 0.0 
0.0 0.0 0.0 
0.0 0.0 0.0 
0.0 0.0 0.0 
0.0 0.0 0.0 
0.0 0.0 0.0 
0.0 0.0 0.0 
0.0 0.0 0.0 
0.0 0.0 0.0 
0.0 0.0 0.0 
0.0 0.0 0.0 
0.0 0.0 0.0 
0.0 0.0 0.0 
0.0 0.0 0.0 
0.0 0.0 0.0 
0.0 0.0 0.0 
0.0 0.0 0.0 
0.0 0.0 0.0 
0.0 0.0 0.0 
0.0 0.0 0.0 
0.0 0.0 0.0 
0.0 0.0 0.0 
0.0 0.0 0.0 
0.0 0.0 0.0 
0.0 0.0 0.0 
0.0 0.0 0.0 
0.0 0.0 0.0 
0.0 0.0 0.0 
0.0 0.0 0.0 
0.0 0.0 0.0 
0.0 0.0 0.0 
0.0 0.0 0.0 
0.0 0.0 0.0 
0.0 0.0 0.0 
0.0 0.0 0.0 
0.0 0.0 0.0 
0.0 0.0 0.0 
0.0 0.0 0.0 
0.0 0.0 0.0 
0.0 0.0 0.0 
0.0 0.0 0.0 
0.0 0.0 0.0 
0.0 0.0 0.0 
0.0 0.0 0.0 
0.0 0.0 0.0 
0.0 0.0 0.0 
0.0 0.0 0.0 
0.0 0.0 0.0 
0.0 0.0 0.0 
0.0 0.0 0.0 
0.0 0.0 0.0 
0.0 0.0 0.0 
0.0 0.0 0.0 
0.0 0.0 0.0 
0.0 0.0 0.0 
0.0 0.0 0.0 
0.0 0.0 0.0 
0.0 0.0 0.0 
0.0 0.0 0.0 
0.0 0.0 0.0 
0.0 0.0 0.0 
0.0 0.0 0.0 
0.0 0.0 0.0 
0.0 0.0 0.0 
0.0 0.0 0.0 
0.0 0.0 0.0 
0.0 0.0 0.0 
0.0 0.0 0.0 
0.0 0.0 0.0 
0.0 0.0 0.0 
0.0 0.0 0.0 
0.0 0.0 0.0 
0.0 0.0 0.0 
0.0 0.0 0.0 
0.0 0.0 0.0 
0.0 0.0 0.0 
0.0 0.0 0.0 
0.0 0.0 0.0 
0.0 0.0 0.0 
0.0 0.0 0.0 
0.0 0.0 0.0 
0.0 0.0 0.0 
0.0 0.0 0.0 
0.0 0.0 0.0 
0.0 0.0 0.0 
0.0 0.0 0.0 
0.0 0.0 0.0 
0.0 0.0 0.0 
0.0 0.0 0.0 
0.0 0.0 0.0 
0.0 0.0 0.0 
0.0 0.0 0.0 
0.0 0.0 0.0 
0.0 0.0 0.0 
0.0 0.0 0.0 
0.0 0.0 0.0 
0.0 0.0 0.0 
0.0 0.0 0.0 
0.0 0.0 0.0 
0.0 0.0 0.0 
0.0 0.0 0.0 
0.0 0.0 0.0 
0.0 0.0 0.0 
0.0 0.0 0.0 
0.0 0.0 0.0 
0.0 0.0 0.0 
0.0 0.0 0.0 
0.0 0.0 0.0 
0.0 0.0 0.0 
0.0 0.0 0.0 
0.0 0.0 0.0 
0.0 0.0 0.0 
0.0 0.0 0.0 
0.0 0.0 0.0 
0.0 0.0 0.0 
0.0 0.0 0.0 
0.0 0.0 0.0 
0.0 0.0 0.0 
0.0 0.0 0.0 
0.0 0.0 0.0 
0.0 0.0 0.0 
0.0 0.0 0.0 
0.0 0.0 0.0 
0.0 0.0 0.0 
0.0 0.0 0.0 
0.0 0.0 0.0 
0.0 0.0 0.0 
0.0 0.0 0.0 
0.0 0.0 0.0 
0.0 0.0 0.0 
0.0 0.0 0.0 
0.0 0.0 0.0 
0.0 0.0 0.0 
0.0 0.0 0.0 
0.0 0.0 0.0 
0.0 0.0 0.0 
0.0 0.0 0.0 
0.0 0.0 0.0 
0.0 0.0 0.0 
0.0 0.0 0.0 
0.0 0.0 0.0 
0.0 0.0 0.0 
0.0 0.0 0.0 
0.0 0.0 0.0 
0.0 0.0 0.0 
0.0 0.0 0.0 
0.0 0.0 0.0 
0.0 0.0 0.0 
0.0 0.0 0.0 
0.0 0.0 0.0 
0.0 0.0 0.0 
0.0 0.0 0.0 
0.0 0.0 0.0 
0.0 0.0 0.0 
0.0 0.0 0.0 
0.0 0.0 0.0 
0.0 0.0 0.0 
0.0 0.0 0.0 
0.0 0.0 0.0 
0.0 0.0 0.0 
0.0 0.0 0.0 
0.0 0.0 0.0 
0.0 0.0 0.0 
0.0 0.0 0.0 
0.0 0.0 0.0 
0.0 0.0 0.0 
0.0 0.0 0.0 
0.0 0.0 0.0 
0.0 0.0 0.0 
0.0 0.0 0.0 
0.0 0.0 0.0 
0.0 0.0 0.0 
0.0 0.0 0.0 
0.0 0.0 0.0 
0.0 0.0 0.0 
0.0 0.0 0.0 
0.0 0.0 0.0 
0.0 0.0 0.0 
0.0 0.0 0.0 
0.0 0.0 0.0 
0.0 0.0 0.0 
0.0 0.0 0.0 
0.0 0.0 0.0 
0.0 0.0 0.0 
0.0 0.0 0.0 
0.0 0.0 0.0 
0.0 0.0 0.0 
0.0 0.0 0.0 
0.0 0.0 0.0 
0.0 0.0 0.0 
0.0 0.0 0.0 
0.0 0.0 0.0 
0.0 0.0 0.0 
0.0 0.0 0.0 
0.0 0.0 0.0 
0.0 0.0 0.0 
0.0 0.0 0.0 
0.0 0.0 0.0 
0.0 0.0 0.0 
0.0 0.0 0.0 
0.0 0.0 0.0 
0.0 0.0 0.0 
0.0 0.0 0.0 
0.0 0.0 0.0 
0.0 0.0 0.0 
0.0 0.0 0.0 
0.0 0.0 0.0 
0.0 0.0 0.0 
0.0 0.0 0.0 
0.0 0.0 0.0 
0.0 0.0 0.0 
0.0 0.0 0.0 
0.0 0.0 0.0 
0.0 0.0 0.0 
0.0 0.0 0.0 
0.0 0.0 0.0 
0.0 0.0 0.0 
0.0 0.0 0.0 
0.0 0.0 0.0 
0.0 0.0 0.0 
0.0 0.0 0.0 
0.0 0.0 0.0 
0.0 0.0 0.0 
0.0 0.0 0.0 
0.0 0.0 0.0 
0.0 0.0 0.0 
0.0 0.0 0.0 
0.0 0.0 0.0 
0.0 0.0 0.0 
0.0 0.0 0.0 
0.0 0.0 0.0 
0.0 0.0 0.0 
0.0 0.0 0.0 
0.0 0.0 0.0 
0.0 0.0 0.0 
0.0 0.0 0.0 
0.0 0.0 0.0 
0.0 0.0 0.0 
0.0 0.0 0.0 
0.0 0.0 0.0 
0.0 0.0 0.0 
0.0 0.0 0.0 
0.0 0.0 0.0 
0.0 0.0 0.0 
0.0 0.0 0.0 
0.0 0.0 0.0 
0.0 0.0 0.0 
0.0 0.0 0.0 
0.0 0.0 0.0 
0.0 0.0 0.0 
0.0 0.0 0.0 
0.0 0.0 0.0 
0.0 0.0 0.0 
0.0 0.0 0.0 
0.0 0.0 0.0 
0.0 0.0 0.0 
0.0 0.0 0.0 
0.0 0.0 0.0 
0.0 0.0 0.0 
0.0 0.0 0.0 
0.0 0.0 0.0 
0.0 0.0 0.0 
0.0 0.0 0.0 
0.0 0.0 0.0 
0.0 0.0 0.0 
0.0 0.0 0.0 
0.0 0.0 0.0 
0.0 0.0 0.0 
0.0 0.0 0.0 
0.0 0.0 0.0 
0.0 0.0 0.0 
0.0 0.0 0.0 
0.0 0.0 0.0 
0.0 0.0 0.0 
0.0 0.0 0.0 
0.0 0.0 0.0 
0.0 0.0 0.0 
0.0 0.0 0.0 
0.0 0.0 0.0 
0.0 0.0 0.0 
0.0 0.0 0.0 
0.0 0.0 0.0 
0.0 0.0 0.0 
0.0 0.0 0.0 
0.0 0.0 0.0 
0.0 0.0 0.0 
0.0 0.0 0.0 
0.0 0.0 0.0 
0.0 0.0 0.0 
0.0 0.0 0.0 
0.0 0.0 0.0 
0.0 0.0 0.0 
0.0 0.0 0.0 
0.0 0.0 0.0 
0.0 0.0 0.0 
0.0 0.0 0.0 
0.0 0.0 0.0 
0.0 0.0 0.0 
0.0 0.0 0.0 
0.0 0.0 0.0 
0.0 0.0 0.0 
0.0 0.0 0.0 
0.0 0.0 0.0 
0.0 0.0 0.0 
0.0 0.0 0.0 
0.0 0.0 0.0 
0.0 0.0 0.0 
0.0 0.0 0.0 
0.0 0.0 0.0 
0.0 0.0 0.0 
0.0 0.0 0.0 
0.0 0.0 0.0 
0.0 0.0 0.0 
0.0 0.0 0.0 
0.0 0.0 0.0 
0.0 0.0 0.0 
0.0 0.0 0.0 
0.0 0.0 0.0 
0.0 0.0 0.0 
0.0 0.0 0.0 
0.0 0.0 0.0 
0.0 0.0 0.0 
0.0 0.0 0.0 
0.0 0.0 0.0 
0.0 0.0 0.0 
0.0 0.0 0.0 
0.0 0.0 0.0 
0.0 0.0 0.0 
0.0 0.0 0.0 
0.0 0.0 0.0 
0.0 0.0 0.0 
0.0 0.0 0.0 
0.0 0.0 0.0 
0.0 0.0 0.0 
0.0 0.0 0.0 
0.0 0.0 0.0 
0.0 0.0 0.0 
0.0 0.0 0.0 
0.0 0.0 0.0 
0.0 0.0 0.0 
0.0 0.0 0.0 
0.0 0.0 0.0 
0.0 0.0 0.0 
0.0 0.0 0.0 
0.0 0.0 0.0 
0.0 0.0 0.0 
0.0 0.0 0.0 
0.0 0.0 0.0 
0.0 0.0 0.0 
0.0 0.0 0.0 
0.0 0.0 0.0 
0.0 0.0 0.0 
0.0 0.0 0.0 
0.0 0.0 0.0 
0.0 0.0 0.0 
0.0 0.0 0.0 
0.0 0.0 0.0 
0.0 0.0 0.0 
0.0 0.0 0.0 
0.0 0.0 0.0 
0.0 0.0 0.0 
0.0 0.0 0.0 
0.0 0.0 0.0 
0.0 0.0 0.0 
0.0 0.0 0.0 
0.0 0.0 0.0 
0.0 0.0 0.0 
0.0 0.0 0.0 
0.0 0.0 0.0 
0.0 0.0 0.0 
0.0 0.0 0.0 
0.0 0.0 0.0 
0.0 0.0 0.0 
0.0 0.0 0.0 
0.0 0.0 0.0 
0.0 0.0 0.0 
0.0 0.0 0.0 
0.0 0.0 0.0 
0.0 0.0 0.0 
0.0 0.0 0.0 
0.0 0.0 0.0 
0.0 0.0 0.0 
0.0 0.0 0.0 
0.0 0.0 0.0 
0.0 0.0 0.0 
0.0 0.0 0.0 
0.0 0.0 0.0 
0.0 0.0 0.0 
0.0 0.0 0.0 
0.0 0.0 0.0 
0.0 0.0 0.0 
0.0 0.0 0.0 
0.0 0.0 0.0 
0.0 0.0 0.0 
0.0 0.0 0.0 
0.0 0.0 0.0 
0.0 0.0 0.0 
0.0 0.0 0.0 
0.0 0.0 0.0 
0.0 0.0 0.0 
0.0 0.0 0.0 
0.0 0.0 0.0 
0.0 0.0 0.0 
0.0 0.0 0.0 
0.0 0.0 0.0 
0.0 0.0 0.0 
0.0 0.0 0.0 
0.0 0.0 0.0 
0.0 0.0 0.0 
0.0 0.0 0.0 
0.0 0.0 0.0 
0.0 0.0 0.0 
0.0 0.0 0.0 
0.0 0.0 0.0 
0.0 0.0 0.0 
0.0 0.0 0.0 
0.0 0.0 0.0 
0.0 0.0 0.0 
0.0 0.0 0.0 
0.0 0.0 0.0 
0.0 0.0 0.0 
0.0 0.0 0.0 
0.0 0.0 0.0 
0.0 0.0 0.0 
0.0 0.0 0.0 
0.0 0.0 0.0 
0.0 0.0 0.0 
0.0 0.0 0.0 
0.0 0.0 0.0 
0.0 0.0 0.0 
0.0 0.0 0.0 
0.0 0.0 0.0 
0.0 0.0 0.0 
0.0 0.0 0.0 
0.0 0.0 0.0 
0.0 0.0 0.0 
0.0 0.0 0.0 
0.0 0.0 0.0 
0.0 0.0 0.0 
0.0 0.0 0.0 
0.0 0.0 0.0 
0.0 0.0 0.0 
0.0 0.0 0.0 
0.0 0.0 0.0 
0.0 0.0 0.0 
0.0 0.0 0.0 
0.0 0.0 0.0 
0.0 0.0 0.0 
0.0 0.0 0.0 
0.0 0.0 0.0 
0.0 0.0 0.0 
0.0 0.0 0.0 
0.0 0.0 0.0 
0.0 0.0 0.0 
0.0 0.0 0.0 
0.0 0.0 0.0 
0.0 0.0 0.0 
0.0 0.0 0.0 
0.0 0.0 0.0 
0.0 0.0 0.0 
0.0 0.0 0.0 
0.0 0.0 0.0 
0.0 0.0 0.0 
0.0 0.0 0.0 
0.0 0.0 0.0 
0.0 0.0 0.0 
0.0 0.0 0.0 
0.0 0.0 0.0 
0.0 0.0 0.0 
0.0 0.0 0.0 
0.0 0.0 0.0 
0.0 0.0 0.0 
0.0 0.0 0.0 
0.0 0.0 0.0 
0.0 0.0 0.0 
0.0 0.0 0.0 
0.0 0.0 0.0 
0.0 0.0 0.0 
0.0 0.0 0.0 
0.0 0.0 0.0 
0.0 0.0 0.0 
0.0 0.0 0.0 
0.0 0.0 0.0 
0.0 0.0 0.0 
0.0 0.0 0.0 
0.0 0.0 0.0 
0.0 0.0 0.0 
0.0 0.0 0.0 
0.0 0.0 0.0 
0.0 0.0 0.0 
0.0 0.0 0.0 
0.0 0.0 0.0 
0.0 0.0 0.0 
0.0 0.0 0.0 
0.0 0.0 0.0 
0.0 0.0 0.0 
0.0 0.0 0.0 
0.0 0.0 0.0 
0.0 0.0 0.0 
0.0 0.0 0.0 
0.0 0.0 0.0 
0.0 0.0 0.0 
0.0 0.0 0.0 
0.0 0.0 0.0 
0.0 0.0 0.0 
0.0 0.0 0.0 
0.0 0.0 0.0 
0.0 0.0 0.0 
0.0 0.0 0.0 
0.0 0.0 0.0 
0.0 0.0 0.0 
0.0 0.0 0.0 
0.0 0.0 0.0 
0.0 0.0 0.0 
0.0 0.0 0.0 
0.0 0.0 0.0 
0.0 0.0 0.0 
0.0 0.0 0.0 
0.0 0.0 0.0 
0.0 0.0 0.0 
0.0 0.0 0.0 
0.0 0.0 0.0 
0.0 0.0 0.0 
0.0 0.0 0.0 
0.0 0.0 0.0 
0.0 0.0 0.0 
0.0 0.0 0.0 
0.0 0.0 0.0 
0.0 0.0 0.0 
0.0 0.0 0.0 
0.0 0.0 0.0 
0.0 0.0 0.0 
0.0 0.0 0.0 
0.0 0.0 0.0 
0.0 0.0 0.0 
0.0 0.0 0.0 
0.0 0.0 0.0 
0.0 0.0 0.0 
0.0 0.0 0.0 
0.0 0.0 0.0 
0.0 0.0 0.0 
0.0 0.0 0.0 
0.0 0.0 0.0 
0.0 0.0 0.0 
0.0 0.0 0.0 
0.0 0.0 0.0 
0.0 0.0 0.0 
0.0 0.0 0.0 
0.0 0.0 0.0 
0.0 0.0 0.0 
0.0 0.0 0.0 
0.0 0.0 0.0 
0.0 0.0 0.0 
0.0 0.0 0.0 
0.0 0.0 0.0 
0.0 0.0 0.0 
0.0 0.0 0.0 
0.0 0.0 0.0 
0.0 0.0 0.0 
0.0 0.0 0.0 
0.0 0.0 0.0 
0.0 0.0 0.0 
0.0 0.0 0.0 
0.0 0.0 0.0 
0.0 0.0 0.0 
0.0 0.0 0.0 
0.0 0.0 0.0 
0.0 0.0 0.0 
0.0 0.0 0.0 
0.0 0.0 0.0 
0.0 0.0 0.0 
0.0 0.0 0.0 
0.0 0.0 0.0 
0.0 0.0 0.0 
0.0 0.0 0.0 
0.0 0.0 0.0 
0.0 0.0 0.0 
0.0 0.0 0.0 
0.0 0.0 0.0 
0.0 0.0 0.0 
0.0 0.0 0.0 
0.0 0.0 0.0 
0.0 0.0 0.0 
0.0 0.0 0.0 
0.0 0.0 0.0 
0.0 0.0 0.0 
0.0 0.0 0.0 
0.0 0.0 0.0 
0.0 0.0 0.0 
0.0 0.0 0.0 
0.0 0.0 0.0 
0.0 0.0 0.0 
0.0 0.0 0.0 
0.0 0.0 0.0 
0.0 0.0 0.0 
0.0 0.0 0.0 
0.0 0.0 0.0 
0.0 0.0 0.0 
0.0 0.0 0.0 
0.0 0.0 0.0 
0.0 0.0 0.0 
0.0 0.0 0.0 
0.0 0.0 0.0 
0.0 0.0 0.0 
0.0 0.0 0.0 
0.0 0.0 0.0 
0.0 0.0 0.0 
0.0 0.0 0.0 
0.0 0.0 0.0 
0.0 0.0 0.0 
0.0 0.0 0.0 
0.0 0.0 0.0 
0.0 0.0 0.0 
0.0 0.0 0.0 
0.0 0.0 0.0 
0.0 0.0 0.0 
0.0 0.0 0.0 
0.0 0.0 0.0 
0.0 0.0 0.0 
0.0 0.0 0.0 
0.0 0.0 0.0 
0.0 0.0 0.0 
0.0 0.0 0.0 
0.0 0.0 0.0 
0.0 0.0 0.0 
0.0 0.0 0.0 
0.0 0.0 0.0 
0.0 0.0 0.0 
0.0 0.0 0.0 
0.0 0.0 0.0 
0.0 0.0 0.0 
0.0 0.0 0.0 
0.0 0.0 0.0 
0.0 0.0 0.0 
0.0 0.0 0.0 
0.0 0.0 0.0 
0.0 0.0 0.0 
0.0 0.0 0.0 
0.0 0.0 0.0 
0.0 0.0 0.0 
0.0 0.0 0.0 
0.0 0.0 0.0 
0.0 0.0 0.0 
0.0 0.0 0.0 
0.0 0.0 0.0 
0.0 0.0 0.0 
0.0 0.0 0.0 
0.0 0.0 0.0 
0.0 0.0 0.0 
0.0 0.0 0.0 
0.0 0.0 0.0 
0.0 0.0 0.0 
0.0 0.0 0.0 
0.0 0.0 0.0 
0.0 0.0 0.0 
0.0 0.0 0.0 
0.0 0.0 0.0 
0.0 0.0 0.0 
0.0 0.0 0.0 
0.0 0.0 0.0 
0.0 0.0 0.0 
0.0 0.0 0.0 
0.0 0.0 0.0 
0.0 0.0 0.0 
0.0 0.0 0.0 
0.0 0.0 0.0 
0.0 0.0 0.0 
0.0 0.0 0.0 
0.0 0.0 0.0 
0.0 0.0 0.0 
0.0 0.0 0.0 
0.0 0.0 0.0 
0.0 0.0 0.0 
0.0 0.0 0.0 
0.0 0.0 0.0 
0.0 0.0 0.0 
0.0 0.0 0.0 
0.0 0.0 0.0 
0.0 0.0 0.0 
0.0 0.0 0.0 
0.0 0.0 0.0 
0.0 0.0 0.0 
0.0 0.0 0.0 
0.0 0.0 0.0 
0.0 0.0 0.0 
0.0 0.0 0.0 
0.0 0.0 0.0 
0.0 0.0 0.0 
0.0 0.0 0.0 
0.0 0.0 0.0 
0.0 0.0 0.0 
0.0 0.0 0.0 
0.0 0.0 0.0 
0.0 0.0 0.0 
0.0 0.0 0.0 
0.0 0.0 0.0 
0.0 0.0 0.0 
0.0 0.0 0.0 
0.0 0.0 0.0 
0.0 0.0 0.0 
0.0 0.0 0.0 
0.0 0.0 0.0 
0.0 0.0 0.0 
0.0 0.0 0.0 
0.0 0.0 0.0 
0.0 0.0 0.0 
0.0 0.0 0.0 
0.0 0.0 0.0 
0.0 0.0 0.0 
0.0 0.0 0.0 
0.0 0.0 0.0 
0.0 0.0 0.0 
0.0 0.0 0.0 
0.0 0.0 0.0 
0.0 0.0 0.0 
0.0 0.0 0.0 
0.0 0.0 0.0 
0.0 0.0 0.0 
0.0 0.0 0.0 
0.0 0.0 0.0 

VECTORS node_materi_velocity float
0.0 -5.408246467444e-05 0.0 
0.0 1.490214284391e-03 0.0 
0.0 0.0 0.0 
0.0 0.0 0.0 
0.0 -5.289727495355e-05 0.0 
0.0 -5.160391778380e-05 0.0 
0.0 -5.010264880480e-05 0.0 
0.0 -4.832382316282e-05 0.0 
0.0 -4.615951984805e-05 0.0 
0.0 -4.360991175688e-05 0.0 
0.0 -4.067291220710e-05 0.0 
0.0 -3.735429964002e-05 0.0 
0.0 -3.370338268968e-05 0.0 
0.0 -2.978107834714e-05 0.0 
0.0 -2.567733389880e-05 0.0 
0.0 -2.151680473855e-05 0.0 
0.0 -1.740468167777e-05 0.0 
0.0 -1.340798530884e-05 0.0 
0.0 -9.720176739640e-06 0.0 
0.0 -6.459865378052e-06 0.0 
0.0 -3.737118188099e-06 0.0 
0.0 -1.704257620838e-06 0.0 
0.0 -4.908761440861e-07 0.0 
0.0 0.0 0.0 
0.0 0.0 0.0 
0.0 0.0 0.0 
0.0 0.0 0.0 
0.0 0.0 0.0 
0.0 0.0 0.0 
0.0 0.0 0.0 
0.0 0.0 0.0 
0.0 0.0 0.0 
0.0 0.0 0.0 
0.0 0.0 0.0 
0.0 0.0 0.0 
0.0 0.0 0.0 
0.0 0.0 0.0 
0.0 0.0 0.0 
0.0 0.0 0.0 
0.0 0.0 0.0 
0.0 0.0 0.0 
0.0 0.0 0.0 
0.0 0.0 0.0 
0.0 0.0 0.0 
0.0 0.0 0.0 
0.0 0.0 0.0 
0.0 0.0 0.0 
0.0 0.0 0.0 
0.0 0.0 0.0 
0.0 0.0 0.0 
0.0 0.0 0.0 
0.0 0.0 0.0 
0.0 0.0 0.0 
0.0 0.0 0.0 
0.0 0.0 0.0 
0.0 0.0 0.0 
0.0 0.0 0.0 
0.0 0.0 0.0 
0.0 0.0 0.0 
0.0 0.0 0.0 
0.0 0.0 0.0 
0.0 0.0 0.0 
0.0 0.0 0.0 
0.0 0.0 0.0 
0.0 0.0 0.0 
0.0 0.0 0.0 
0.0 0.0 0.0 
0.0 0.0 0.0 
0.0 0.0 0.0 
0.0 0.0 0.0 
0.0 0.0 0.0 
0.0 0.0 0.0 
0.0 1.337927654099e-03 0.0 
0.0 1.185657742283e-03 0.0 
0.0 1.033617118142e-03 0.0 
0.0 8.819821550247e-04 0.0 
0.0 7.311277252485e-04 0.0 
0.0 5.813327163772e-04 0.0 
0.0 4.329730856440e-04 0.0 
0.0 2.864312400525e-04 0.0 
0.0 1.420857127617e-04 0.0 
-4.595799288426e-05 3.834015070413e-05 0.0 
2.730851440667e-04 1.341170047217e-03 0.0 
-4.076874048690e-05 6.874762967272e-05 0.0 
-4.117453631644e-05 1.120248890762e-04 0.0 
-4.239400957618e-05 1.752797068010e-04 0.0 
-3.960297897267e-05 2.701757390025e-04 0.0 
-2.277289862355e-05 4.155038507781e-04 0.0 
6.160688909577e-05 6.546599006635e-04 0.0 
1.038812705624e-04 1.117164960742e-03 0.0 
2.030203219451e-04 1.335030782700e-03 0.0 
2.586509617184e-04 1.377396302035e-03 0.0 
0.0 1.951576177323e-03 0.0 
0.0 1.795312268454e-03 0.0 
0.0 1.642481053380e-03 0.0 
1.731495528220e-05 1.490651850050e-03 0.0 
3.487619421781e-05 1.491891736362e-03 0.0 
5.239350078703e-05 1.493274601401e-03 0.0 
6.976873870907e-05 1.494542207480e-03 0.0 
8.697155463627e-05 1.495511366101e-03 0.0 
1.040180360220e-04 1.495958812622e-03 0.0 
1.210336625752e-04 1.495566903754e-03 0.0 
1.378659156315e-04 1.493716193454e-03 0.0 
1.548797115182e-04 1.489824154039e-03 0.0 
1.720998655623e-04 1.482910255530e-03 0.0 
1.896866932550e-04 1.471553615160e-03 0.0 
2.080367170048e-04 1.454188063895e-03 0.0 
2.275932661515e-04 1.428680091846e-03 0.0 
2.489161319623e-04 1.392151067651e-03 0.0 
-4.055544055512e-05 1.949811169499e-05 0.0 
-3.300522799704e-05 2.030265763806e-06 0.0 
-2.479259774775e-05 -1.273337104657e-05 0.0 
-1.655055433887e-05 -2.475338077487e-05 0.0 
-9.174262409673e-06 -3.433528247515e-05 0.0 
-2.716210908755e-06 -4.170104580992e-05 0.0 
2.732583750275e-06 -4.714493710516e-05 0.0 
7.104813857505e-06 -5.105986602776e-05 0.0 
1.043681384597e-05 -5.370281484359e-05 0.0 
1.275952788264e-05 -5.532224628011e-05 0.0 
1.412999569319e-05 -5.624202440117e-05 0.0 
1.469290053147e-05 -5.652088334607e-05 0.0 
1.445167347418e-05 -5.645169436623e-05 0.0 
1.359923927842e-05 -5.613113035574e-05 0.0 
1.218348791439e-05 -5.571664065646e-05 0.0 
1.029917097332e-05 -5.523658189661e-05 0.0 
8.034554673405e-06 -5.478143120202e-05 0.0 
5.498041809637e-06 -5.443227607298e-05 0.0 
2.798042747173e-06 -5.419280715523e-05 0.0 
2.964891018615e-05 1.399133105571e-03 0.0 
5.506414801728e-05 1.555560928919e-03 0.0 
7.847770165653e-05 1.668212143146e-03 0.0 
1.026976604716e-04 1.748552687671e-03 0.0 
1.230377863725e-04 1.808455880441e-03 0.0 
1.376704136699e-04 1.852095715379e-03 0.0 
1.470370127695e-04 1.884575282964e-03 0.0 
1.515889767053e-04 1.907971671075e-03 0.0 
1.517757888236e-04 1.924437302603e-03 0.0 
1.480330405905e-04 1.935728760430e-03 0.0 
1.409196440189e-04 1.943281299037e-03 0.0 
1.311972496996e-04 1.948083171678e-03 0.0 
1.193428903270e-04 1.950820079628e-03 0.0 
1.057256756386e-04 1.952063996906e-03 0.0 
9.081340668788e-05 1.952427230119e-03 0.0 
7.519047133470e-05 1.952206912856e-03 0.0 
5.951950340958e-05 1.951626001888e-03 0.0 
4.491059063240e-05 1.950359268460e-03 0.0 
2.623851200288e-05 1.950745225921e-03 0.0 
2.000573559858e-05 1.796354595858e-03 0.0 
3.875646062758e-05 1.797986335035e-03 0.0 
5.627309203025e-05 1.799066135055e-03 0.0 
7.306330944223e-05 1.799827906038e-03 0.0 
8.919982747307e-05 1.800314729375e-03 0.0 
1.045369313283e-04 1.800308398383e-03 0.0 
1.188553091394e-04 1.799412158395e-03 0.0 
1.319042585237e-04 1.797018144017e-03 0.0 
1.434052955645e-04 1.792506297193e-03 0.0 
1.531161511403e-04 1.785038508046e-03 0.0 
1.608610717194e-04 1.773370549632e-03 0.0 
1.665585056142e-04 1.755860711658e-03 0.0 
1.703033250709e-04 1.730476047195e-03 0.0 
1.724748610529e-04 1.694786007274e-03 0.0 
1.741399098968e-04 1.644968368598e-03 0.0 
1.771946195803e-04 1.575780997586e-03 0.0 
1.838615618017e-04 1.478321399079e-03 0.0 
2.377676351636e-04 1.460377384877e-03 0.0 
2.220749950898e-04 1.519191330067e-03 0.0 
2.078985668180e-04 1.561496941041e-03 0.0 
1.952109861801e-04 1.591911441693e-03 0.0 
1.829837097439e-04 1.613251107389e-03 0.0 
1.706644888330e-04 1.627784631645e-03 0.0 
1.579389258065e-04 1.637295443711e-03 0.0 
1.446062964599e-04 1.643152074198e-03 0.0 
1.306139151061e-04 1.646455230665e-03 0.0 
1.159959809424e-04 1.648030296729e-03 0.0 
1.007875046867e-04 1.648352447425e-03 0.0 
8.506049540332e-05 1.647963251325e-03 0.0 
6.884060773502e-05 1.647142932860e-03 0.0 
5.212757968663e-05 1.646029419285e-03 0.0 
3.494496452899e-05 1.644644146547e-03 0.0 
1.746007381828e-05 1.643319483960e-03 0.0 
-4.209032579388e-05 5.237448868398e-05 0.0 
-4.063213990136e-05 8.838507822631e-05 0.0 
-4.183781760243e-05 1.406429555033e-04 0.0 
-4.196925428778e-05 2.175408014828e-04 0.0 
-3.513590599449e-05 3.344390780804e-04 0.0 
2.405852340660e-06 5.181770755748e-04 0.0 
8.917143321466e-05 8.886520908528e-04 0.0 
1.585087683799e-04 1.253067940016e-03 0.0 
2.387576708337e-04 1.368341036991e-03 0.0 
2.703287283951e-04 1.366241043579e-03 0.0 
-2.784193087963e-05 8.756117770093e-05 0.0 
3.258129626426e-05 5.535408732931e-06 0.0 
1.397036813621e-05 -5.530793282272e-05 0.0 
-4.465908997307e-06 -3.191717060025e-05 0.0 
1.709386873616e-05 1.495998068131e-06 0.0 
-1.154008403914e-05 2.188571459283e-04 0.0 
5.117362845974e-06 -2.772691585769e-05 0.0 
5.160314965085e-05 1.330272291129e-05 0.0 
9.431469786227e-05 5.163743597171e-04 0.0 
7.216727864755e-05 2.749802913607e-05 0.0 
2.772957110735e-04 1.113184213682e-03 0.0 
8.545240927285e-06 3.099446951394e-07 0.0 
1.428069697477e-05 -5.588949451340e-05 0.0 
8.984366431510e-05 5.303498055080e-05 0.0 
3.117027326319e-04 1.223773141708e-03 0.0 
3.887587165554e-06 -4.218051799452e-05 0.0 
5.189098124789e-06 -1.619074513698e-05 0.0 
9.307353471157e-05 7.886371819302e-05 0.0 
7.006255664124e-05 1.004251379888e-04 0.0 
1.888788383092e-05 1.204196059670e-04 0.0 
3.629328107912e-05 1.278819654261e-04 0.0 
4.971429472925e-05 1.089886434058e-04 0.0 
2.593015468033e-04 1.276839936838e-03 0.0 
1.704776337601e-04 1.348425272129e-03 0.0 
1.139006933005e-04 1.353967020118e-03 0.0 
1.156425169639e-05 8.041770608435e-04 0.0 
4.948103534650e-06 -1.191235001031e-07 0.0 
-2.416320845557e-05 8.849611557857e-06 0.0 
9.111975009923e-06 -5.413667402213e-05 0.0 
3.500586717045e-06 -5.225147200600e-06 0.0 
5.940393624285e-05 1.362084221578e-03 0.0 
3.128286958098e-06 -4.939273395792e-05 0.0 
9.340558806959e-05 1.035718240984e-04 0.0 
5.732946616760e-05 1.786414687007e-05 0.0 
8.154930340116e-05 3.837349456883e-05 0.0 
4.431053041317e-05 9.463687441472e-06 0.0 
2.411268143619e-05 3.196492975963e-06 0.0 
5.817397185243e-06 -4.639887174752e-05 0.0 
2.113821162721e-04 1.334360974384e-03 0.0 
1.452323995743e-05 7.913279183078e-07 0.0 
9.034612360639e-06 5.132875248916e-04 0.0 
1.548289020782e-05 -5.655931662403e-05 0.0 
4.711328699346e-06 -3.564877653458e-05 0.0 
9.362164324344e-06 9.810718492046e-05 0.0 
1.996557047027e-05 3.245670381844e-04 0.0 
-2.340599083510e-05 1.408882823310e-04 0.0 
1.943387528478e-04 8.185216608940e-04 0.0 
3.099384372051e-04 1.223362637754e-03 0.0 
-3.170957150890e-05 5.097435577918e-05 0.0 
1.365845486289e-05 1.091544120376e-03 0.0 
2.194947237573e-06 -1.897033061164e-07 0.0 
4.182938392441e-06 -5.333043435226e-05 0.0 
5.050580568728e-06 2.245412699532e-04 0.0 
3.088039075867e-04 1.188471492717e-03 0.0 
3.403734045080e-04 1.081317552411e-03 0.0 
3.194625283204e-04 1.072829520663e-03 0.0 
3.522116112480e-04 9.485997321969e-04 0.0 
3.310110418458e-04 9.188252416521e-04 0.0 
3.532444683473e-04 8.146850274369e-04 0.0 
3.767909414503e-04 8.318946061373e-04 0.0 
3.696298341951e-04 7.094826868978e-04 0.0 
3.934527370340e-04 7.171136164231e-04 0.0 
3.260336710124e-04 7.821787006227e-04 0.0 
3.783611487442e-04 6.065933847497e-04 0.0 
4.011490948996e-04 6.063979719976e-04 0.0 
3.788615374657e-04 5.090716920331e-04 0.0 
3.996826062676e-04 5.035473442814e-04 0.0 
4.168256066922e-04 5.903291247972e-04 0.0 
4.125872031744e-04 4.841004481164e-04 0.0 
4.235255074176e-04 5.578782616090e-04 0.0 
4.159965339346e-04 4.509869514993e-04 0.0 
4.002784395786e-04 3.911383142022e-04 0.0 
4.012590140752e-04 3.604565869524e-04 0.0 
4.090540813994e-04 4.068559259015e-04 0.0 
3.926375107665e-04 3.217842172376e-04 0.0 
3.917285079546e-04 3.553762293052e-04 0.0 
3.750768669693e-04 2.782432796934e-04 0.0 
3.652073112694e-04 3.004754137993e-04 0.0 
3.500834947608e-04 2.332414123197e-04 0.0 
3.553100554294e-04 2.162892027014e-04 0.0 
3.324539100181e-04 1.796123655377e-04 0.0 
3.199300240306e-04 1.897850420355e-04 0.0 
3.053497007135e-04 1.443123431872e-04 0.0 
2.869752224902e-04 1.498339847689e-04 0.0 
2.759545095032e-04 1.118896787331e-04 0.0 
2.888897636059e-04 1.084365929726e-04 0.0 
2.628881799632e-04 8.211446044518e-05 0.0 
2.459215967383e-04 8.316481810691e-05 0.0 
2.363074075348e-04 5.872667223470e-05 0.0 
2.166492419450e-04 5.841120048593e-05 0.0 
2.102624840835e-04 3.846870089420e-05 0.0 
1.891141652064e-04 3.751841331140e-05 0.0 
1.853929017214e-04 2.115994729078e-05 0.0 
2.018388541747e-04 2.316406747184e-05 0.0 
1.794894879050e-04 8.715179551111e-06 0.0 
1.622264321544e-04 6.593362306291e-06 0.0 
1.584599095123e-04 -3.519280190852e-06 0.0 
1.716437119185e-04 -4.319287881544e-07 0.0 
1.526608035265e-04 -1.077985221894e-05 0.0 
1.622119335930e-04 -6.881173211134e-06 0.0 
1.452167298491e-04 -1.570355287378e-05 0.0 
1.350705463763e-04 -1.948998163701e-05 0.0 
1.292540069602e-04 -2.319308874652e-05 0.0 
1.365173221756e-04 -1.872833333348e-05 0.0 
1.220801788720e-04 -2.525985670565e-05 0.0 
1.142666476002e-04 -2.958300725622e-05 0.0 
1.085300643636e-04 -3.078900554053e-05 0.0 
1.140197902479e-04 -2.598280882879e-05 0.0 
1.017430520304e-04 -3.086565028911e-05 0.0 
9.585174082258e-05 -3.546347449355e-05 0.0 
9.019827465324e-05 -3.498757324424e-05 0.0 
9.433348528445e-05 -3.001301194491e-05 0.0 
8.379207960532e-05 -3.375706763880e-05 0.0 
7.935174016034e-05 -3.846318030007e-05 0.0 
7.389288688847e-05 -3.687948879868e-05 0.0 
7.692619307825e-05 -3.193723390413e-05 0.0 
6.786853372266e-05 -3.484071193696e-05 0.0 
6.969204523353e-05 -2.976325424891e-05 0.0 
6.446867733931e-05 -3.953572558675e-05 0.0 
5.926572869541e-05 -3.729857528407e-05 0.0 
5.566673760132e-05 -4.175147219057e-05 0.0 
5.117051943280e-05 -3.936561662095e-05 0.0 
2.708819597838e-04 8.033142374088e-05 0.0 
4.764360264667e-05 -4.351686990226e-05 0.0 
5.116252436956e-05 -4.564119735601e-05 0.0 
4.364888304816e-05 -4.108516812825e-05 0.0 
4.621057176912e-05 -3.679798734298e-05 0.0 
4.028661028913e-05 -4.492912712287e-05 0.0 
3.669715868465e-05 -4.250797630459e-05 0.0 
3.360466945104e-05 -4.604767660280e-05 0.0 
1.889226099974e-04 5.846815733797e-05 0.0 
3.814792754180e-04 3.121405387204e-04 0.0 
3.032888331771e-05 -4.369385193062e-05 0.0 
2.759183438616e-05 -4.693061656436e-05 0.0 
3.010861137278e-05 -4.907843004350e-05 0.0 
2.461715777936e-05 -4.966715785473e-05 0.0 
3.051935938566e-04 8.796160924919e-04 0.0 
2.959108291990e-04 7.392784646568e-04 0.0 
2.775625995758e-04 8.307526688725e-04 0.0 
2.635063359649e-04 6.883602913235e-04 0.0 
2.479063290991e-04 7.731751066524e-04 0.0 
2.222411568595e-05 -4.764362586982e-05 0.0 
3.512072609981e-04 4.970061259243e-04 0.0 
2.749938302616e-04 6.018801439732e-04 0.0 
4.040886818886e-04 4.508567582383e-04 0.0 
2.956094908501e-04 1.978445640233e-04 0.0 
1.798769572817e-04 3.340588437309e-06 0.0 
3.264479332754e-05 -4.000063791245e-05 0.0 
2.658954411918e-05 -4.130190456765e-05 0.0 
2.821943085840e-05 -3.749369153574e-05 0.0 
7.811510745962e-05 -2.664651643866e-05 0.0 
6.972999868678e-05 -2.448271189610e-05 0.0 
7.718048314647e-05 -2.121995980686e-05 0.0 
6.782208985380e-05 -1.918697266987e-05 0.0 
7.396105187377e-05 -1.588591151210e-05 0.0 
6.387645603168e-05 -1.408879656050e-05 0.0 
5.875207781745e-05 -1.709722107225e-05 0.0 
5.433135554522e-05 -1.227783019869e-05 0.0 
5.008310010264e-05 -1.502740029309e-05 0.0 
6.839132203202e-05 -1.088627509623e-05 0.0 
7.959690871027e-05 -1.231375495516e-05 0.0 
4.541168050731e-05 -1.051975131981e-05 0.0 
4.190429011875e-05 -1.303837165188e-05 0.0 
3.718383453506e-05 -8.869258660832e-06 0.0 
3.429196153548e-05 -1.117062992387e-05 0.0 
3.780933839075e-05 -1.547684304111e-05 0.0 
3.074455356529e-05 -1.344571978250e-05 0.0 
3.328010735878e-05 -1.782270800122e-05 0.0 
1.669912851826e-04 -2.484586462459e-06 0.0 
1.824997853500e-04 7.375051392833e-06 0.0 
1.664730643858e-04 2.024232004912e-06 0.0 
1.789418463102e-04 1.118751070240e-05 0.0 
1.602789928494e-04 6.221545296377e-06 0.0 
1.689309146263e-04 1.432606243273e-05 0.0 
1.481957421186e-04 9.697087427032e-06 0.0 
1.418746439034e-04 2.925377335222e-06 0.0 
3.711467662675e-04 4.176518627596e-04 0.0 
1.411388120050e-04 -5.570075477915e-06 0.0 
1.408002613275e-04 5.670289556259e-06 0.0 
1.206451932584e-04 -6.295483074890e-06 0.0 
1.164225656821e-04 6.182107462644e-06 0.0 
9.808854313225e-05 -5.570231171270e-06 0.0 
9.037649163888e-05 8.302048194656e-06 0.0 
7.451261427527e-05 -3.329295686580e-06 0.0 
8.236599306913e-05 -1.544794093574e-05 0.0 
6.114166927384e-05 -1.325310527722e-05 0.0 
6.881286746276e-05 -2.384091050913e-05 0.0 
4.985510856022e-05 -2.184725432448e-05 0.0 
5.707323039452e-05 -3.099251805423e-05 0.0 
3.332399149862e-04 1.668494399308e-04 0.0 
1.901361623248e-04 2.101890963144e-05 0.0 
1.754980805376e-04 2.258817298201e-05 0.0 
1.992236270341e-04 3.118091191926e-05 0.0 
2.642557852460e-05 -5.156621185063e-05 0.0 
2.729433800295e-05 -9.440377886726e-06 0.0 
7.204818263832e-05 -7.541967376536e-06 0.0 
8.449654045538e-05 -8.556382467480e-06 0.0 
1.282278689975e-04 6.512119399804e-06 0.0 
1.980408597266e-05 -5.010120381422e-05 0.0 
6.403542770446e-05 1.202934050022e-05 0.0 
7.950040867176e-05 2.577653594961e-05 0.0 
2.299375500470e-04 6.291007054767e-04 0.0 
2.173081266306e-04 7.089768456439e-04 0.0 
7.454984874835e-05 -4.135194391004e-06 0.0 
1.746243224051e-05 -4.824906643133e-05 0.0 
4.813811410995e-05 -7.958011723447e-06 0.0 
4.035962164374e-05 -9.826936043501e-06 0.0 
2.417823552250e-05 -1.156123424658e-05 0.0 
2.094762840143e-05 -7.852492636184e-06 0.0 
5.322513824843e-05 -1.987969154908e-05 0.0 
1.791887855461e-04 3.066112951940e-05 0.0 
2.057156177341e-04 4.123375185959e-05 0.0 
7.423526030573e-05 -3.169220240671e-05 0.0 
6.226618922135e-05 -3.766945396470e-05 0.0 
4.694284537740e-05 -3.708853349687e-05 0.0 
5.231060159749e-05 -4.287715454726e-05 0.0 
6.566168820839e-05 -4.223717189899e-05 0.0 
5.529002507967e-05 -4.631888275275e-05 0.0 
4.335787953905e-05 -4.692749102292e-05 0.0 
4.627492159608e-05 -4.962586745985e-05 0.0 
5.692244563535e-05 -4.824362238858e-05 0.0 
4.796793185937e-05 -5.087698678876e-05 0.0 
3.851649446431e-05 -5.213331391306e-05 0.0 
4.021686110506e-05 -5.285550672858e-05 0.0 
2.298429629704e-05 -5.960924807325e-06 0.0 
3.150449466790e-05 -1.883177427399e-05 0.0 
4.217415087767e-04 6.800600214286e-04 0.0 
6.187903275915e-05 -3.525397014770e-06 0.0 
1.305514163032e-04 1.205489237079e-05 0.0 
1.959336813496e-04 5.638372548437e-04 0.0 
1.863671529895e-04 6.397221409369e-04 0.0 
2.019413630068e-04 7.883573817153e-04 0.0 
1.740614512184e-04 7.151095834583e-04 0.0 
1.557789896212e-04 5.666892175649e-04 0.0 
1.465299719465e-04 6.392410021070e-04 0.0 
1.599805950394e-04 7.896005083359e-04 0.0 
1.352538045024e-04 7.111585702636e-04 0.0 
1.448626364890e-04 8.627529475500e-04 0.0 
1.226226745790e-04 7.821779617154e-04 0.0 
1.113052449177e-04 6.312826266037e-04 0.0 
1.010337948405e-04 7.008436445519e-04 0.0 
1.091644830697e-04 8.523922566199e-04 0.0 
8.959052704880e-05 7.698735821102e-04 0.0 
9.523942668677e-05 9.217433043856e-04 0.0 
7.730989647705e-05 8.383761694533e-04 0.0 
7.100875135911e-05 6.872667301519e-04 0.0 
1.575146959249e-05 -5.039924989148e-05 0.0 
1.240423518562e-04 8.656925050842e-07 0.0 
1.092613014624e-04 4.416553295705e-06 0.0 
2.263984147194e-05 -3.895957707600e-05 0.0 
2.369147864355e-05 -3.505147768737e-05 0.0 
2.933679309903e-05 -3.334175141474e-05 0.0 
2.409003981181e-05 -3.087756638181e-05 0.0 
6.001487125996e-05 7.557947070845e-04 0.0 
5.384870773506e-05 6.050242881744e-04 0.0 
5.093686956611e-05 3.091501046249e-05 0.0 
6.541741267351e-05 4.733221859559e-05 0.0 
2.017273718397e-04 4.880791823162e-04 0.0 
1.815052964025e-05 -9.840096284146e-06 0.0 
2.049488102972e-05 -1.370478341133e-05 0.0 
2.581650849963e-04 1.541398488927e-04 0.0 
2.595917444273e-04 2.037527305281e-04 0.0 
2.198831950676e-04 1.579031683444e-04 0.0 
2.119028910831e-04 2.082645960216e-04 0.0 
2.568544030872e-04 2.655171453525e-04 0.0 
1.723441073940e-04 1.613708144509e-04 0.0 
9.141979278339e-05 -1.368067107096e-05 0.0 
8.868029225676e-05 5.507919471635e-04 0.0 
3.200286717726e-05 -5.103994349510e-05 0.0 
2.754926836016e-05 -5.323212465586e-05 0.0 
1.527846315949e-05 -6.437026725724e-06 0.0 
1.339917204743e-04 -3.615456354798e-06 0.0 
3.484686690300e-04 1.964418657626e-04 0.0 
3.225182087982e-04 1.514359759035e-04 0.0 
3.298428582204e-04 1.738151996759e-04 0.0 
3.004202886306e-04 1.335112677351e-04 0.0 
2.994687993281e-04 1.485715085934e-04 0.0 
2.670443201946e-04 1.133391119655e-04 0.0 
2.696587635569e-04 1.016182587945e-04 0.0 
1.790013264690e-04 3.793419393944e-05 0.0 
2.336362662215e-04 8.535513218820e-05 0.0 
6.547321436521e-05 9.078665097945e-04 0.0 
2.114466255511e-04 3.021448007337e-05 0.0 
5.721061191430e-05 -4.883294543822e-05 0.0 
1.764774323281e-05 -5.201434408671e-05 0.0 
3.176857710887e-05 -5.400463860329e-05 0.0 
1.328808082900e-05 -4.876243993337e-05 0.0 
1.464629052720e-05 -4.637602840216e-05 0.0 
6.173089423902e-05 -6.937079757111e-07 0.0 
2.573453794926e-04 1.208831407774e-04 0.0 
2.909964794581e-04 1.590507391228e-04 0.0 
1.996092747687e-04 2.718062999842e-04 0.0 
2.496101885806e-04 3.433362624577e-04 0.0 
1.511882374598e-04 2.824264158155e-05 0.0 
2.557264512444e-04 9.215533461487e-04 0.0 
1.671929436478e-04 9.419342271571e-04 0.0 
1.493265997586e-04 1.015680157049e-03 0.0 
1.227404505973e-05 -5.095793985211e-05 0.0 
2.944996523583e-05 -5.260900027119e-05 0.0 
1.263344845479e-04 4.912298193899e-04 0.0 
9.785607224106e-05 4.239587240865e-05 0.0 
8.341441563716e-05 6.715377061454e-05 0.0 
2.083811246176e-05 -5.541685669123e-06 0.0 
1.424341282443e-05 -1.514054265507e-05 0.0 
4.481748482903e-05 6.713224145789e-04 0.0 
3.881619346005e-05 5.229656392653e-04 0.0 
2.977364225816e-05 -2.895463811274e-05 0.0 
2.407945746234e-05 -2.652102608240e-05 0.0 
7.555317842357e-05 -7.716004730253e-07 0.0 
3.361157020331e-05 -5.427520470804e-05 0.0 
4.500634858881e-05 4.561545196801e-04 0.0 
1.181623537108e-04 -4.704151851764e-06 0.0 
1.250455435671e-04 -9.757400185035e-06 0.0 
1.853640302834e-05 -3.273306348570e-05 0.0 
3.502108902481e-05 5.355164554095e-05 0.0 
2.467681810215e-05 3.712938673173e-05 0.0 
6.715425895437e-05 -4.602695412824e-05 0.0 
4.075912993579e-05 -5.259104137342e-05 0.0 
1.049148556325e-05 -4.714431673043e-05 0.0 
5.961717237261e-05 1.813251662191e-06 0.0 
1.297284580460e-04 4.210866513090e-04 0.0 
2.386562092317e-04 7.711705333126e-05 0.0 
2.665153369611e-04 8.779406881406e-05 0.0 
2.001524561018e-04 6.371550702258e-05 0.0 
2.674106045148e-05 -5.527048032122e-05 0.0 
4.921300990651e-05 -5.246051639120e-07 0.0 
1.269815048182e-05 -8.269650622589e-06 0.0 
2.425009804131e-04 1.254996131177e-04 0.0 
2.746381558745e-04 1.639133482456e-04 0.0 
1.197603305699e-04 6.256997261918e-05 0.0 
1.065430257512e-04 9.180455370829e-05 0.0 
6.558815374952e-05 9.761606843043e-05 0.0 
8.842888963097e-05 1.276565343629e-04 0.0 
3.958258847094e-04 8.338145785535e-04 0.0 
1.466896843145e-04 8.752349614921e-05 0.0 
4.222020783563e-04 6.329732643194e-04 0.0 
4.136854212619e-04 7.730144212944e-04 0.0 
4.069459914579e-04 7.096098371022e-04 0.0 
3.027302786322e-04 3.323763894982e-04 0.0 
3.013878383232e-04 4.292066658708e-04 0.0 
1.374518316021e-04 2.042027351039e-05 0.0 
1.979494134932e-04 1.511504409788e-05 0.0 
3.541560103104e-05 -3.150551505541e-05 0.0 
4.022385703695e-05 -2.008165748556e-05 0.0 
8.668704235189e-05 -2.307793409335e-05 0.0 
9.485353979997e-05 4.822815595860e-04 0.0 
7.184581101411e-05 4.027692172496e-04 0.0 
1.135956875512e-04 1.004930721763e-03 0.0 
9.804332577896e-05 1.074348571792e-03 0.0 
2.281259171681e-05 -5.350992991770e-05 0.0 
2.332923083767e-05 -5.485137859978e-05 0.0 
6.227575091220e-05 -2.738482968896e-05 0.0 
5.032437561026e-05 -2.828608096166e-06 0.0 
1.649442929653e-04 4.218644576713e-04 0.0 
1.628902851117e-04 3.506931886217e-04 0.0 
2.026733767548e-04 4.130977387704e-04 0.0 
7.460503418951e-05 2.406079479335e-06 0.0 
1.222684945989e-04 -1.564864785922e-05 0.0 
1.533541976970e-04 -6.317445678155e-06 0.0 
2.398576713165e-05 -2.655095101843e-05 0.0 
2.917581054691e-04 1.035411349742e-04 0.0 
1.954279524853e-05 -5.491243777352e-05 0.0 
3.730332897045e-04 3.309040365881e-04 0.0 
1.033442035955e-05 -5.162531375108e-06 0.0 
1.194555876402e-05 -3.633514168171e-06 0.0 
1.442066130556e-04 3.242017392460e-05 0.0 
3.512807565431e-04 1.092688520166e-03 0.0 
2.695239539305e-04 7.740055898435e-05 0.0 
2.517024011456e-04 5.860074256470e-05 0.0 
3.902268384384e-04 8.689614452435e-04 0.0 
3.752568332306e-04 7.866648063470e-04 0.0 
3.863463644870e-04 6.263616594695e-04 0.0 
3.438124895504e-04 6.799735612399e-04 0.0 
6.581759009126e-05 -4.601465962804e-05 0.0 
5.626074388462e-05 -4.840894846677e-05 0.0 
2.018072948392e-04 9.049403547571e-05 0.0 
1.881398680815e-04 6.692465838523e-05 0.0 
2.184348458647e-04 1.226149483996e-04 0.0 
2.495685142830e-04 1.605647697264e-04 0.0 
1.156783267744e-04 2.353781491480e-05 0.0 
1.247280120200e-04 2.085508312717e-05 0.0 
1.140350669855e-05 -4.457088613329e-05 0.0 
2.378232290255e-04 4.424069673712e-04 0.0 
9.908113598965e-05 3.459296275631e-04 0.0 
3.923776907003e-04 9.235099672326e-04 0.0 
3.834849615869e-05 -3.002524082983e-07 0.0 
3.997945366790e-05 -2.229823089582e-06 0.0 
8.570462114443e-06 -2.338666434989e-05 0.0 
1.800192776656e-05 -3.429353541604e-05 0.0 
3.077751801563e-05 3.783945936772e-04 0.0 
4.476938464307e-05 1.340126891012e-04 0.0 
6.540928504831e-05 1.700435408970e-04 0.0 
2.918150095009e-05 1.041675774193e-04 0.0 
1.522323406848e-06 -9.178848915243e-07 0.0 
2.566814189800e-05 1.361732412702e-03 0.0 
7.655576913616e-06 -2.692619947054e-06 0.0 
3.481992372251e-04 4.112444881560e-04 0.0 
3.357602595165e-05 3.067562401719e-04 0.0 
2.469631680338e-04 5.761533668544e-05 0.0 
2.212192510241e-04 1.166206136754e-04 0.0 
9.066505367546e-05 -5.372367449251e-07 0.0 
2.482761393683e-05 4.566714037432e-04 0.0 
1.854007192630e-05 2.950659899412e-04 0.0 
1.685372447293e-04 1.092918925710e-03 0.0 
1.495806929973e-04 1.169210010991e-03 0.0 
1.890445703008e-04 1.018796609190e-03 0.0 
2.904068344580e-05 5.261085549772e-06 0.0 
6.028016955758e-06 1.304069064847e-05 0.0 
6.789818252680e-05 4.700945105191e-04 0.0 
2.104868386346e-05 -4.247851023990e-05 0.0 
1.698934445047e-05 -3.990197268858e-05 0.0 
3.391126228625e-05 -5.372768860081e-05 0.0 
4.009666385466e-05 -5.159176645804e-05 0.0 
3.562558093505e-05 -2.694131008402e-05 0.0 
4.175901594949e-05 -2.951563562372e-05 0.0 
3.499103241828e-04 2.622785006611e-04 0.0 
3.342757470991e-04 2.709446845959e-04 0.0 
3.572194046072e-04 2.242836400093e-04 0.0 
1.110658029125e-04 -9.985636846388e-06 0.0 
1.154764614928e-04 -1.537307156055e-05 0.0 
1.279082193991e-04 -1.505451961738e-05 0.0 
7.392689426565e-05 3.402831691350e-04 0.0 
4.938100195492e-05 2.500536103155e-04 0.0 
7.636615417878e-05 -4.302875154886e-05 0.0 
7.823249633822e-05 -4.250961382745e-05 0.0 
6.324065636008e-05 -4.520321906001e-05 0.0 
9.633924717142e-05 2.811679124846e-04 0.0 
8.440302768495e-06 -1.611427194358e-06 0.0 
1.273998223046e-05 -2.305801937536e-06 0.0 
1.966687089850e-05 -5.587175850621e-05 0.0 
2.316863266417e-05 -5.569943489387e-05 0.0 
8.755592817018e-06 6.002841566621e-05 0.0 
1.581369684750e-06 4.379472634128e-05 0.0 
1.573164649930e-04 2.862662261241e-04 0.0 
1.982504532199e-04 3.412022414534e-04 0.0 
1.133641358360e-04 2.177186468771e-04 0.0 
7.208025706118e-06 -4.573545438862e-05 0.0 
2.381418979235e-04 6.695576625603e-05 0.0 
5.680859024972e-05 4.075526891170e-06 0.0 
7.312791451626e-05 5.209480978576e-06 0.0 
4.001678142315e-05 3.068242002793e-06 0.0 
1.751836171062e-04 4.397588216611e-05 0.0 
1.331537189342e-04 3.450604049338e-05 0.0 
1.511190384490e-04 4.819740468901e-05 0.0 
-1.527648904081e-06 -1.147320751095e-05 0.0 
1.381601833417e-05 3.552924338205e-04 0.0 
1.150026617250e-04 1.158126470557e-03 0.0 
-4.092233482255e-06 -1.902806838846e-05 0.0 
9.843463616168e-05 1.232855612183e-03 0.0 
8.309016367189e-05 1.144094824228e-03 0.0 
8.467778669636e-05 1.306211405367e-03 0.0 
6.809302400625e-06 -4.792659389442e-05 0.0 
1.869776498848e-04 1.195547202512e-03 0.0 
2.111096750852e-04 1.098144522291e-03 0.0 
1.831439714181e-05 -5.642806316008e-05 0.0 
6.529312094967e-05 2.081332855026e-04 0.0 
1.711247880010e-05 -5.577031233700e-05 0.0 
1.672724252059e-05 -5.488100733329e-05 0.0 
2.863700173472e-05 -1.949528277871e-07 0.0 
3.082851205884e-05 -1.628419428289e-06 0.0 
2.035196455486e-05 5.283348794708e-08 0.0 
2.341855638083e-05 -1.091921940799e-06 0.0 
3.176168126332e-05 -3.365104479240e-06 0.0 
2.422335717052e-05 -2.537365603648e-06 0.0 
1.324124235869e-04 1.254406288154e-03 0.0 
1.570170157273e-05 -4.681273129277e-07 0.0 
1.759913821630e-05 -1.766372001593e-06 0.0 
1.015566157545e-05 -3.305017801170e-07 0.0 
3.229297029971e-04 8.751807015700e-04 0.0 
1.149561540344e-04 1.641020693226e-04 0.0 
9.191141100021e-05 2.162682413994e-04 0.0 
3.605192990097e-05 2.230123923459e-04 0.0 
1.712635143010e-04 1.016609971227e-04 0.0 
2.198744853773e-04 1.518912132192e-04 0.0 
7.839738295313e-06 -6.795009297689e-06 0.0 
9.053653325106e-06 -1.012512268002e-05 0.0 
6.814393744721e-05 1.224641081746e-03 0.0 
4.982290924371e-05 1.230035027539e-03 0.0 
5.490144758631e-05 1.091070694507e-03 0.0 
3.954369287515e-05 1.107079362711e-03 0.0 
4.313495348487e-05 9.709742524140e-04 0.0 
2.769426286060e-05 9.877526333006e-04 0.0 
3.318465002245e-05 8.519623924497e-04 0.0 
1.316727574446e-04 4.724704929803e-05 0.0 
6.711931380531e-06 1.377634739400e-04 0.0 
3.574896694748e-04 1.042101269409e-03 0.0 
8.882087929816e-05 1.677150049089e-05 0.0 
1.029151064717e-04 1.591957392066e-05 0.0 
2.944438197090e-04 5.526975572360e-04 0.0 
2.164476277146e-04 5.710276950961e-04 0.0 
3.232642962095e-05 1.306816098625e-06 0.0 
1.551713231775e-04 5.969148258092e-05 0.0 
4.991334215555e-05 1.292812516667e-04 0.0 
-3.045447044757e-05 2.573455815010e-05 0.0 
-1.309997941760e-05 1.535485905638e-05 0.0 
1.847702482003e-04 8.499361279461e-05 0.0 
3.503166264201e-04 5.290494240902e-04 0.0 
1.522609427619e-04 2.114698220381e-04 0.0 
1.362671718190e-04 2.791130019841e-04 0.0 
1.029513475500e-04 -4.952657911285e-06 0.0 
2.204953521730e-05 -5.599370438857e-05 0.0 
1.770166545948e-05 7.985162385695e-05 0.0 
4.857225966561e-05 8.374078038826e-04 0.0 
-8.066596564525e-06 8.442853599140e-05 0.0 
4.115162314863e-06 -8.238819914396e-06 0.0 
1.614143453062e-04 3.757208156131e-05 0.0 
3.414307936879e-04 3.187071786109e-04 0.0 
4.849813977695e-05 7.319491072610e-05 0.0 
1.376895439891e-04 1.233910479922e-04 0.0 
4.115663305974e-04 7.079225323236e-04 0.0 
3.711038924986e-04 9.603505806155e-04 0.0 
3.840726166843e-04 9.574421525061e-04 0.0 
1.634962681469e-04 2.014436407210e-05 0.0 
1.850115819614e-04 3.524278255751e-04 0.0 
1.098679431798e-04 3.631057838884e-04 0.0 
4.196298250162e-04 5.099268080102e-04 0.0 
2.424070290803e-04 4.692290083872e-04 0.0 
2.398762530122e-04 3.919629200575e-04 0.0 
1.887409146858e-04 2.756961656150e-04 0.0 
2.308265148248e-04 3.198838086135e-04 0.0 
2.801530844815e-04 4.353442015615e-04 0.0 
2.722825703959e-04 3.581975075017e-04 0.0 
2.151618430705e-04 2.543903769061e-04 0.0 
2.573502698482e-04 2.873502234130e-04 0.0 
1.775254651478e-04 1.757502623735e-04 0.0 
2.336010925916e-04 2.220181822009e-04 0.0 
2.960162926255e-04 3.134377733866e-04 0.0 
2.752461472390e-04 2.491543320914e-04 0.0 
2.136645266465e-04 1.764089490765e-04 0.0 
3.309857265689e-04 3.346784316404e-04 0.0 
7.388096781705e-05 1.652676078231e-05 0.0 
2.199159170413e-04 8.397218465918e-05 0.0 
2.770555277426e-06 -5.422816609538e-07 0.0 
-1.001327917256e-05 2.881686241805e-05 0.0 
3.775275586489e-04 3.857025627483e-04 0.0 
9.006867849922e-05 8.698525471233e-05 0.0 
7.813411828002e-05 9.856162657390e-05 0.0 
1.087622075523e-04 2.223517897217e-05 0.0 
8.599111140182e-05 4.523908718590e-05 0.0 
4.086184455406e-04 8.157678816580e-04 0.0 
5.097818856851e-05 4.404927872966e-07 0.0 
7.809029860272e-05 3.308867098794e-05 0.0 
2.808836251694e-04 5.167953931902e-04 0.0 
3.171832487622e-04 5.583009787848e-04 0.0 
3.094979733506e-04 6.483304648274e-04 0.0 
6.148472036462e-05 1.001516481755e-04 0.0 
2.097913130718e-04 9.406259203838e-04 0.0 
5.265754159620e-05 1.492547056086e-05 0.0 
1.975465276797e-04 1.835067981333e-05 0.0 
2.156369779594e-04 2.824216372640e-05 0.0 
2.121177323430e-04 2.567244420091e-05 0.0 
3.109549739088e-04 3.903073075514e-04 0.0 
3.629023370220e-05 6.728614092382e-06 0.0 
6.327842169077e-05 9.742781184342e-06 0.0 
5.618467580982e-05 7.441236995122e-06 0.0 
8.545804895606e-05 9.904380913048e-06 0.0 
2.829314976545e-05 4.352565544154e-06 0.0 
8.616469528087e-05 6.435400788351e-05 0.0 
8.228111028114e-05 5.435523981940e-05 0.0 
6.714164938797e-05 -4.486980489991e-05 0.0 
7.873836944343e-05 -4.068451039689e-05 0.0 
9.055405001731e-05 -3.819038503224e-05 0.0 
9.163323022839e-05 -3.558507866645e-05 0.0 
7.746934699315e-05 -3.718267466964e-05 0.0 
9.075554532254e-05 -3.121148979472e-05 0.0 
1.058305444974e-04 -2.953039487323e-05 0.0 
8.766325327792e-05 -2.462084738665e-05 0.0 
2.823535991290e-04 2.109317827531e-04 0.0 
2.122306307185e-05 2.591038838641e-06 0.0 
8.447167899123e-05 -1.759759156108e-05 0.0 
9.522212054321e-05 -1.914086972944e-05 0.0 
9.609802382958e-05 -2.466755040475e-05 0.0 
4.093263102995e-05 -3.413926064556e-05 0.0 
4.780237059661e-05 -3.216139102085e-05 0.0 
4.826228113976e-05 -2.731133322886e-05 0.0 
3.438913588349e-05 -3.591085941796e-05 0.0 
2.950386766721e-04 1.158163940245e-04 0.0 
1.859509343560e-05 1.907128260896e-06 0.0 
1.392882411273e-04 -8.604646746500e-06 0.0 
5.367197863035e-05 -3.479719505944e-05 0.0 
2.346770638752e-04 1.309609998133e-03 0.0 
2.601661582597e-04 1.164130726542e-03 0.0 
2.868757333537e-04 1.128789309060e-03 0.0 
2.811923568137e-04 9.987674235759e-04 0.0 
2.322117753302e-04 1.173467622424e-03 0.0 
2.950703898506e-05 -2.445997791358e-05 0.0 
2.348867720000e-05 -2.211529548728e-05 0.0 
1.838422040122e-05 -2.423112604640e-05 0.0 
1.762510972334e-05 -1.992354722327e-05 0.0 
1.277495509445e-05 -2.207986390961e-05 0.0 
1.334626864438e-05 -2.624005936637e-05 0.0 
1.185557134791e-05 -1.787387160730e-05 0.0 
7.384905628394e-06 -2.053449648909e-05 0.0 
1.902604601208e-04 1.345009483884e-03 0.0 
1.303781340297e-06 -4.019120383295e-05 0.0 
1.165858018004e-05 -4.490831562714e-05 0.0 
1.409868690827e-05 -4.977728527315e-05 0.0 
2.062383227118e-05 -4.837450512650e-05 0.0 
1.977380848150e-05 -4.314659572955e-05 0.0 
3.093678929497e-05 -4.682241158084e-05 0.0 
2.882467500826e-05 -4.082093848488e-05 0.0 
8.305790402702e-06 -3.781266871479e-05 0.0 
9.393629757280e-06 -5.065326388737e-05 0.0 
1.604895881752e-05 -5.301628745274e-05 0.0 
1.210154679700e-05 -5.355668407593e-05 0.0 
1.706507834019e-05 -5.499433050579e-05 0.0 
2.323074428287e-05 -5.444536604094e-05 0.0 
2.811610816230e-05 -5.446070875065e-05 0.0 
4.316721493276e-06 -2.571287774382e-07 0.0 
4.967130047907e-06 -3.183278058516e-05 0.0 
9.510920754064e-06 -3.400790469281e-05 0.0 
9.013247501573e-06 -3.756307902008e-05 0.0 
1.426561088146e-05 -3.609712339713e-05 0.0 
9.525512029262e-06 -3.041474857450e-05 0.0 
4.342201690638e-06 -3.910692250735e-05 0.0 
8.295017256440e-06 -4.050780927550e-05 0.0 
6.707362281474e-06 -5.364214600601e-05 0.0 
5.618217710684e-06 -5.240183757942e-05 0.0 
2.585965773717e-06 -5.220458582679e-05 0.0 
4.539074203079e-06 -5.104581399874e-05 0.0 
7.401784512560e-06 -5.149110382573e-05 0.0 
8.245149635809e-06 -5.287671060696e-05 0.0 
1.069816104914e-05 -5.354582679606e-05 0.0 
1.126049789043e-05 -5.475158272744e-05 0.0 
1.284343690180e-05 -5.427188063653e-05 0.0 
1.275940191866e-05 -5.281159571225e-05 0.0 
1.296516642300e-05 -5.535829948162e-05 0.0 
1.085147708464e-05 6.550867212863e-04 0.0 
2.079663734383e-05 5.811958315336e-04 0.0 
1.503467376675e-05 1.053852691962e-06 0.0 
1.497743331522e-04 1.346667205058e-03 0.0 
1.514747376131e-05 -5.623407097448e-05 0.0 
1.770033592987e-05 1.451179380144e-04 0.0 
2.808425379991e-05 1.188490209779e-04 0.0 
2.224522169995e-05 1.157307309924e-04 0.0 
2.539322807451e-06 -2.687510355995e-06 0.0 
4.103419949326e-06 -1.742880605684e-06 0.0 
9.550162260585e-06 1.414540241331e-04 0.0 
3.628954247980e-05 -4.826257629598e-05 0.0 
1.729516837971e-04 2.161607377049e-04 0.0 
4.936469811293e-05 3.892394239816e-04 0.0 
3.903257901106e-05 1.712062299655e-05 0.0 
4.770956671627e-05 -5.025393713375e-05 0.0 
1.449380631359e-05 -1.184075742858e-05 0.0 
4.532625418353e-05 -1.762042517516e-05 0.0 
1.708104894537e-05 -4.721003109549e-06 0.0 
2.668962344012e-05 -1.568481981085e-05 0.0 
2.969540238702e-05 -7.344450813931e-06 0.0 
5.080190293342e-05 5.605293687317e-06 0.0 
9.770149415938e-06 -4.925839179881e-05 0.0 
1.292586171155e-04 9.344771439039e-04 0.0 
8.179978545208e-05 9.910360698793e-04 0.0 
8.059851057183e-05 6.191812832317e-04 0.0 
2.454115185282e-05 -4.470381660150e-05 0.0 
1.888063683309e-05 -2.832424184881e-05 0.0 
2.164106553954e-05 -5.187350167182e-05 0.0 
1.443735786859e-04 6.649157489900e-05 0.0 
4.105068981023e-04 5.703964705832e-04 0.0 
8.636868015695e-05 -2.855357108439e-05 0.0 
3.919475888223e-05 -3.851374465949e-05 0.0 
4.333000127967e-05 -4.711673811723e-05 0.0 
4.843039180852e-05 -5.099457568419e-05 0.0 
2.531178907946e-04 1.143743534334e-04 0.0 
6.151981196044e-05 -3.246802040295e-05 0.0 
5.788125040690e-05 -9.411152517002e-06 0.0 
6.177406563821e-05 5.375780274522e-04 0.0 
1.529604563229e-05 -5.630190084059e-05 0.0 
6.049227448485e-05 -6.456319287256e-06 0.0 
6.139716536759e-05 -2.219404310029e-05 0.0 
1.849794242678e-04 8.662771734141e-04 0.0 
1.524293264548e-04 1.638780230956e-05 0.0 
3.599093835608e-05 -5.028421714881e-05 0.0 
1.199890463764e-04 5.615794309447e-04 0.0 
1.263137342717e-04 2.919194585572e-04 0.0 
2.330092850821e-04 1.010531746064e-03 0.0 
1.881096574456e-05 -5.361593098945e-05 0.0 
1.321588188643e-04 1.089853780911e-03 0.0 
4.612671825098e-05 1.533457155094e-06 0.0 
2.386742163834e-04 5.485557484983e-04 0.0 
1.932431162540e-05 -4.558538358292e-05 0.0 
1.515814217493e-04 -1.115852749846e-05 0.0 
3.321326376881e-04 2.468691322310e-04 0.0 
3.147011368232e-04 1.231193052759e-03 0.0 
5.174682589907e-05 3.280745369317e-04 0.0 
2.482640768475e-04 5.904999562077e-05 0.0 
1.095937897961e-04 8.962905971314e-06 0.0 
1.502040047589e-04 -1.489879019272e-06 0.0 
1.605413932347e-05 -4.350036054886e-05 0.0 
4.025819611219e-05 -4.344041230582e-06 0.0 
1.915947105924e-04 1.166214081681e-05 0.0 
9.874491867818e-05 4.148640496817e-04 0.0 
3.300404022108e-04 1.927001750686e-04 0.0 
1.391341469277e-04 -1.376145691058e-05 0.0 
1.622160585623e-04 4.940921402467e-04 0.0 
1.052524834767e-04 -2.571188529098e-05 0.0 
1.536545973952e-04 2.267897638583e-05 0.0 
3.855191372115e-04 4.932141210678e-04 0.0 
3.721172605216e-04 2.525081536091e-04 0.0 
3.901194406757e-04 4.113618824727e-04 0.0 
3.128651291879e-04 1.370346004825e-04 0.0 
9.887667668946e-06 -1.390804717559e-05 0.0 
4.987375218610e-05 -5.380319594552e-06 0.0 
4.026568618347e-05 -2.906897867682e-05 0.0 
1.818535543801e-04 1.193385464884e-04 0.0 
2.294218310689e-04 8.575010153776e-04 0.0 
2.236660826052e-04 9.124614783301e-05 0.0 
7.093449280371e-05 2.699308262508e-04 0.0 
3.010395309336e-04 2.575101382329e-04 0.0 
3.925551920316e-05 -6.574775596077e-06 0.0 
1.301688767389e-04 3.559087766399e-04 0.0 
5.494508551941e-05 -2.992546292100e-05 0.0 
3.258238702504e-06 -4.731476369543e-05 0.0 
1.656325031421e-05 2.322873216898e-05 0.0 
1.030301077041e-04 -1.624180181414e-05 0.0 
2.249891819720e-04 3.995834569045e-05 0.0 
5.483872331160e-05 -2.490139122924e-05 0.0 
1.385121073304e-04 2.080388882578e-04 0.0 
3.124671340034e-05 -5.319814511120e-06 0.0 
8.822447034820e-05 -4.599412704360e-06 0.0 
-2.934788135314e-05 6.742033399716e-05 0.0 
3.589841295525e-04 1.076899356485e-03 0.0 
2.413773932644e-05 -4.191078745117e-06 0.0 
1.400648952411e-04 -1.374656093286e-05 0.0 
1.296373302709e-04 1.696111833478e-05 0.0 
8.034326649293e-06 -2.431518054208e-05 0.0 
1.367830700495e-04 5.591801484182e-05 0.0 
2.793429637594e-04 7.190968792060e-04 0.0 
1.793046870318e-05 -3.185079504969e-06 0.0 
1.070258467542e-04 -2.586756336330e-07 0.0 
1.304211589574e-04 3.907180127070e-05 0.0 
4.263605013769e-05 1.362813412781e-03 0.0 
1.117068116318e-05 -9.238951092792e-07 0.0 
9.098927599221e-05 3.321104464670e-06 0.0 
3.094576371237e-04 1.276464040371e-04 0.0 
1.268043613884e-04 -2.031078542862e-05 0.0 
2.993103791558e-04 1.184232994486e-03 0.0 
4.744911489185e-05 -2.243334208854e-05 0.0 
3.812130811236e-04 2.854918872102e-04 0.0 
5.328612768105e-05 1.010183554030e-04 0.0 
9.066841956154e-05 6.837257231569e-06 0.0 
3.415048446778e-04 6.877141186633e-04 0.0 
4.155920668750e-05 -2.478913721260e-05 0.0 
2.235843532389e-04 4.257578571689e-05 0.0 
1.011812826807e-05 -5.210502081842e-05 0.0 
3.474989339311e-04 9.768249714205e-04 0.0 
3.492268446631e-05 -2.233467814633e-05 0.0 
1.055251305074e-04 -2.409370919027e-05 0.0 
1.164776513511e-04 -2.075166661905e-05 0.0 
1.038373192351e-04 2.446601471508e-05 0.0 
2.848563332434e-05 -1.999953337591e-05 0.0 
1.216395667122e-04 -2.234187788302e-05 0.0 
2.228805214811e-05 -1.781127189875e-05 0.0 
2.439142019972e-04 9.787911794299e-04 0.0 
3.499069681403e-04 5.885659012975e-04 0.0 
1.616245504391e-05 -1.577189938740e-05 0.0 
3.577264387365e-04 2.465259221322e-04 0.0 
1.530602650575e-05 -5.361980185499e-05 0.0 
2.843799423932e-04 9.677219184941e-05 0.0 
6.012300359419e-06 -3.885471119164e-06 0.0 
5.973314001258e-05 -4.374343051277e-05 0.0 
1.059431343674e-04 -2.031070199099e-05 0.0 
3.176962227261e-04 4.714358089520e-04 0.0 
1.413890368080e-04 6.438026519173e-04 0.0 
1.034871308789e-04 -1.478930785756e-05 0.0 
3.224165412666e-04 2.059926070649e-04 0.0 
2.589298681673e-04 7.315712063643e-05 0.0 
2.324668466544e-04 4.143261147419e-05 0.0 
9.760712078354e-05 -9.438683491989e-06 0.0 
1.655239461495e-04 4.567594977083e-04 0.0 
3.819276015969e-05 -5.021375147349e-05 0.0 
3.327885907335e-05 -5.261861091743e-05 0.0 
1.188530472991e-04 -2.684068799277e-05 0.0 
3.063889988104e-04 2.124505035422e-04 0.0 
6.835280973191e-06 -4.998118028713e-05 0.0 
3.443616822919e-04 4.104090241434e-04 0.0 
2.781186007113e-05 -5.517980684365e-05 0.0 
1.040676743937e-04 -3.300461657241e-05 0.0 
2.076393423168e-04 5.051901059130e-05 0.0 
1.260273159318e-05 9.494310717893e-04 0.0 
1.006416781536e-04 -3.486906487050e-05 0.0 
3.472917509005e-06 -4.492451729407e-05 0.0 
8.798142230091e-05 -3.933630302729e-05 0.0 
2.320756778447e-04 4.242440979728e-05 0.0 
8.421991578394e-05 -3.931211597622e-05 0.0 
7.330283680092e-05 -4.255606451189e-05 0.0 
3.472685280572e-05 2.494158109502e-04 0.0 
6.928414718596e-05 -4.131381540377e-05 0.0 
4.766956799190e-06 1.170199623626e-04 0.0 
1.757063705618e-06 -2.528541524930e-07 0.0 
1.607347888850e-05 1.247050418869e-03 0.0 
3.727435855498e-05 4.215941816027e-04 0.0 
-1.724954038561e-05 -7.585556549059e-06 0.0 
7.756122898003e-05 2.765830177593e-04 0.0 
5.415607781649e-05 -4.730705244135e-05 0.0 
3.562154692284e-04 3.389268319757e-04 0.0 
3.343382113845e-05 1.240769327585e-03 0.0 
4.581124487986e-05 -4.894475718773e-05 0.0 
1.621237755966e-04 1.371284482430e-04 0.0 
6.271861618773e-05 2.150494516478e-05 0.0 
2.316993268579e-05 7.211381698971e-04 0.0 
1.086457633002e-04 1.297026972710e-05 0.0 
2.324856092272e-04 5.501581400305e-05 0.0 
6.850581132174e-06 3.699909931241e-04 0.0 
9.769676608339e-05 1.377079736870e-03 0.0 
1.762363286302e-05 -5.605855706535e-05 0.0 
4.720479294725e-06 -1.183040622308e-05 0.0 
-8.098195802694e-06 2.718335710494e-04 0.0 
1.763277810452e-05 1.736180797133e-04 0.0 
-2.647654414327e-06 1.083282507795e-04 0.0 
1.227743663161e-05 -4.179793526424e-05 0.0 
2.144983016945e-05 -5.199163955641e-05 0.0 
-1.829572826288e-05 1.755865642093e-04 0.0 
7.211757246330e-05 1.249920446961e-05 0.0 
1.652203947230e-04 1.233545530763e-03 0.0 
2.088479275499e-04 5.914985182714e-05 0.0 
-2.579746426541e-05 1.113995973641e-04 0.0 
9.152578398574e-05 2.268846370585e-04 0.0 
1.117385192101e-04 3.255224402068e-05 0.0 
9.864373141310e-06 4.291112726663e-07 0.0 
1.658915755424e-04 4.728465950056e-05 0.0 
-1.318062346325e-05 6.426190361022e-05 0.0 
2.537252203834e-04 1.055106610201e-03 0.0 
1.503613019031e-04 7.773175055001e-05 0.0 
3.180087879268e-05 6.024016411129e-04 0.0 
6.890025261419e-06 1.480554217465e-07 0.0 
2.071559467434e-04 1.229622220152e-03 0.0 
2.076437582411e-05 2.329190599176e-04 0.0 
3.243791517994e-05 -3.501344404071e-05 0.0 
1.049104119593e-05 2.262870110190e-04 0.0 
3.089859612413e-04 2.667269511222e-04 0.0 
6.954247147753e-05 1.059938561618e-03 0.0 
3.066341113838e-04 1.001077080002e-03 0.0 
4.930537560403e-06 -9.579198926922e-07 0.0 
1.524357192718e-04 1.672866190871e-04 0.0 
-1.634422112535e-05 4.552946851462e-05 0.0 
3.640846454781e-05 7.367099131158e-04 0.0 
1.926910869029e-05 -3.657501494927e-05 0.0 
1.990769071334e-06 -2.853416968996e-05 0.0 
2.603252448432e-05 7.668127792395e-07 0.0 
2.510146523146e-04 1.977924735774e-04 0.0 
8.380894259072e-06 -8.964757364795e-07 0.0 
2.015787128683e-06 -5.094490628858e-05 0.0 
1.700861420105e-05 -5.628295145359e-05 0.0 
3.114592373508e-05 2.047456800427e-06 0.0 
1.510703929307e-04 9.998201954014e-05 0.0 
4.053396368520e-05 -4.307795715041e-05 0.0 
3.062852653985e-05 9.101588677343e-05 0.0 
-2.300989771797e-05 3.347696156641e-05 0.0 
1.312354890361e-04 1.391768068722e-03 0.0 
1.440154244407e-05 -5.500745900278e-05 0.0 
5.346100370078e-06 1.724698088258e-08 0.0 
5.228519921849e-05 2.196137095460e-04 0.0 
1.341758146778e-05 -3.247816284839e-05 0.0 
2.842407594532e-04 1.229145936338e-03 0.0 
7.578279241530e-06 -4.335274945871e-05 0.0 
1.765081826427e-04 6.923984997833e-05 0.0 
2.145938565072e-05 -5.551775521570e-05 0.0 
3.495153718621e-05 2.090816619008e-04 0.0 
3.923679600383e-05 4.014758475323e-06 0.0 
1.107673916485e-04 1.822657713072e-04 0.0 
3.339652863293e-05 7.878042128543e-06 0.0 
-1.083463647504e-05 5.280308770355e-07 0.0 
1.045218625033e-04 3.379460969675e-05 0.0 
7.139990589036e-05 7.246367827620e-06 0.0 
7.390945428556e-05 1.382710187875e-03 0.0 
1.366063203867e-04 1.796035845377e-04 0.0 
1.254366869530e-05 -3.904999063980e-05 0.0 
1.469897009418e-05 -5.192529572630e-05 0.0 
2.008641474471e-06 1.036785820995e-04 0.0 
1.999326553038e-06 -5.327328868653e-05 0.0 
1.250490050948e-05 1.378949532405e-03 0.0 
6.803969768443e-07 -2.408831873904e-07 0.0 
9.284131450311e-06 -5.076671886652e-05 0.0 
2.668003336452e-05 1.136548753415e-03 0.0 
1.465913022787e-04 1.088934122367e-04 0.0 
3.536682021860e-06 -2.351104341444e-05 0.0 
1.574654081585e-05 4.652179418125e-04 0.0 
2.762876495458e-05 -5.049339733902e-05 0.0 
-1.229222249128e-05 -2.125067592737e-05 0.0 
2.184077355603e-05 8.743156781815e-04 0.0 
9.282701960174e-05 2.452919039325e-05 0.0 
8.599612083311e-05 1.851997045422e-04 0.0 
5.613471099840e-05 9.770217989717e-04 0.0 
3.772444101134e-07 3.081679953686e-05 0.0 
1.986278690422e-04 1.470028217723e-04 0.0 
1.425083996789e-05 -2.943896865476e-05 0.0 
1.939741368719e-04 9.728119096283e-05 0.0 
8.813793491121e-05 1.239790637714e-05 0.0 
-3.425894730717e-05 4.011585160220e-05 0.0 
3.072859450826e-06 -1.944797464891e-05 0.0 
1.550842181411e-05 -5.563753665113e-05 0.0 
1.625934431930e-05 -5.077858537616e-08 0.0 
9.441318417174e-06 -2.730512050177e-05 0.0 
1.179851958652e-04 1.393924105941e-03 0.0 
1.167543044783e-05 1.872535781407e-03 0.0 
2.180303859462e-04 1.446384992012e-03 0.0 
9.201483460290e-06 1.719080977266e-03 0.0 
2.521424123496e-04 1.418466192162e-03 0.0 
8.506515634172e-06 1.566570891721e-03 0.0 

VECTORS node_materi_displacement float
0.0 1.166179088683e-02 0.0 
0.0 1.978527406469e-02 0.0 
0.0 0.0 0.0 
0.0 0.0 0.0 
0.0 1.164805845011e-02 0.0 
0.0 1.157823385438e-02 0.0 
0.0 1.145287003893e-02 0.0 
0.0 1.127180347730e-02 0.0 
0.0 1.103339824374e-02 0.0 
0.0 1.073872987620e-02 0.0 
0.0 1.038762232968e-02 0.0 
0.0 9.979038147736e-03 0.0 
0.0 9.512189393545e-03 0.0 
0.0 8.985443792783e-03 0.0 
0.0 8.396125020878e-03 0.0 
0.0 7.742388189425e-03 0.0 
0.0 7.023436251307e-03 0.0 
0.0 6.241007319251e-03 0.0 
0.0 5.387069076810e-03 0.0 
0.0 4.461146031071e-03 0.0 
0.0 3.461869234891e-03 0.0 
0.0 2.385713310572e-03 0.0 
0.0 1.230260745050e-03 0.0 
0.0 0.0 0.0 
0.0 0.0 0.0 
0.0 0.0 0.0 
0.0 0.0 0.0 
0.0 0.0 0.0 
0.0 0.0 0.0 
0.0 0.0 0.0 
0.0 0.0 0.0 
0.0 0.0 0.0 
0.0 0.0 0.0 
0.0 0.0 0.0 
0.0 0.0 0.0 
0.0 0.0 0.0 
0.0 0.0 0.0 
0.0 0.0 0.0 
0.0 0.0 0.0 
0.0 0.0 0.0 
0.0 0.0 0.0 
0.0 0.0 0.0 
0.0 0.0 0.0 
0.0 0.0 0.0 
0.0 0.0 0.0 
0.0 0.0 0.0 
0.0 0.0 0.0 
0.0 0.0 0.0 
0.0 0.0 0.0 
0.0 0.0 0.0 
0.0 0.0 0.0 
0.0 0.0 0.0 
0.0 0.0 0.0 
0.0 0.0 0.0 
0.0 0.0 0.0 
0.0 0.0 0.0 
0.0 0.0 0.0 
0.0 0.0 0.0 
0.0 0.0 0.0 
0.0 0.0 0.0 
0.0 0.0 0.0 
0.0 0.0 0.0 
0.0 0.0 0.0 
0.0 0.0 0.0 
0.0 0.0 0.0 
0.0 0.0 0.0 
0.0 0.0 0.0 
0.0 0.0 0.0 
0.0 0.0 0.0 
0.0 0.0 0.0 
0.0 0.0 0.0 
0.0 0.0 0.0 
0.0 1.807140214275e-02 0.0 
0.0 1.629488708325e-02 0.0 
0.0 1.445618611350e-02 0.0 
0.0 1.255819885477e-02 0.0 
0.0 1.060108928820e-02 0.0 
0.0 8.587581738644e-03 0.0 
0.0 6.519073104635e-03 0.0 
0.0 4.397203619312e-03 0.0 
0.0 2.224027304919e-03 0.0 
-1.563559404167e-03 1.531677956021e-02 0.0 
1.818125123512e-03 1.930080311147e-02 0.0 
-1.129284851646e-03 1.655817141429e-02 0.0 
-6.867715472401e-04 1.791510609307e-02 0.0 
-1.881954566415e-04 1.924000975898e-02 0.0 
3.431362076279e-04 2.041603191651e-02 0.0 
8.749362200678e-04 2.135365705653e-02 0.0 
1.361748535141e-03 2.196401353120e-02 0.0 
1.684919784466e-03 2.211629570018e-02 0.0 
1.885142609257e-03 2.157862835869e-02 0.0 
1.913825373487e-03 2.058240789196e-02 0.0 
0.0 2.454729748492e-02 0.0 
0.0 2.301962502344e-02 0.0 
0.0 2.143607454011e-02 0.0 
1.054179542603e-04 1.978670524842e-02 0.0 
2.098968930737e-04 1.979078599798e-02 0.0 
3.159722801389e-04 1.979604300857e-02 0.0 
4.230087602261e-04 1.980086586095e-02 0.0 
5.308559428537e-04 1.980675973056e-02 0.0 
6.402643187538e-04 1.980936363445e-02 0.0 
7.522953294980e-04 1.981035849477e-02 0.0 
8.656071242621e-04 1.980514223175e-02 0.0 
9.840172809290e-04 1.979457860620e-02 0.0 
1.106739177371e-03 1.977143638452e-02 0.0 
1.233866364076e-03 1.973306717954e-02 0.0 
1.367280832636e-03 1.967493872880e-02 0.0 
1.507794823540e-03 1.958931463537e-02 0.0 
1.657072987292e-03 1.946718337920e-02 0.0 
-1.423950888120e-03 1.463259286896e-02 0.0 
-1.246129850668e-03 1.406298646419e-02 0.0 
-1.062558628351e-03 1.359125419285e-02 0.0 
-8.877883814245e-04 1.320494776944e-02 0.0 
-7.314146973920e-04 1.289071283047e-02 0.0 
-5.911569634805e-04 1.263251752947e-02 0.0 
-4.674512441174e-04 1.242131329361e-02 0.0 
-3.614883596697e-04 1.224965017627e-02 0.0 
-2.717427646971e-04 1.211143735055e-02 0.0 
-1.971747950166e-04 1.200218752289e-02 0.0 
-1.382482519072e-04 1.191370782277e-02 0.0 
-8.948016246235e-05 1.184731618643e-02 0.0 
-5.055715401992e-05 1.179257567906e-02 0.0 
-2.511103787371e-05 1.174977518136e-02 0.0 
-9.420960425823e-06 1.171885624774e-02 0.0 
8.500752272785e-07 1.169642381346e-02 0.0 
6.446976574868e-06 1.168008057729e-02 0.0 
8.182028267087e-06 1.166934021004e-02 0.0 
3.839424905143e-06 1.166224404368e-02 0.0 
1.503767946018e-03 2.282753969753e-02 0.0 
1.445820876848e-03 2.330757590574e-02 0.0 
1.391137489394e-03 2.366283242454e-02 0.0 
1.345040072260e-03 2.392861189502e-02 0.0 
1.297750580124e-03 2.412607759013e-02 0.0 
1.245637417729e-03 2.427160203352e-02 0.0 
1.187169617318e-03 2.437732864318e-02 0.0 
1.122155612168e-03 2.445228127290e-02 0.0 
1.050692021228e-03 2.450350201406e-02 0.0 
9.731340014726e-04 2.453675369637e-02 0.0 
8.900618157096e-04 2.455672794818e-02 0.0 
8.023162230881e-04 2.456708262573e-02 0.0 
7.106585226653e-04 2.457069594211e-02 0.0 
6.157409832339e-04 2.456985764365e-02 0.0 
5.182752833457e-04 2.456648216975e-02 0.0 
4.190524845849e-04 2.456192586605e-02 0.0 
3.189016475317e-04 2.455711307254e-02 0.0 
2.188734944193e-04 2.455173860565e-02 0.0 
1.134098633935e-04 2.454478309017e-02 0.0 
1.081859250548e-04 2.302624828189e-02 0.0 
2.155806889895e-04 2.302940428041e-02 0.0 
3.212346911313e-04 2.303488731310e-02 0.0 
4.259045056377e-04 2.304033275016e-02 0.0 
5.296506038543e-04 2.304553387941e-02 0.0 
6.325424107208e-04 2.304940498947e-02 0.0 
7.343311252482e-04 2.305049606455e-02 0.0 
8.350179109040e-04 2.304675837395e-02 0.0 
9.341076465179e-04 2.303582446685e-02 0.0 
1.031702574667e-03 2.301395578800e-02 0.0 
1.128069885696e-03 2.297695569949e-02 0.0 
1.223485993600e-03 2.291960430709e-02 0.0 
1.318801151758e-03 2.283512344603e-02 0.0 
1.415587449823e-03 2.271549006090e-02 0.0 
1.515625944906e-03 2.254744636210e-02 0.0 
1.624846697069e-03 2.231946130128e-02 0.0 
1.741909448936e-03 2.200648578865e-02 0.0 
1.763893267470e-03 2.084527486327e-02 0.0 
1.629297279508e-03 2.104173734299e-02 0.0 
1.498988670504e-03 2.118190929473e-02 0.0 
1.377284642020e-03 2.128432095085e-02 0.0 
1.261226231041e-03 2.135606159888e-02 0.0 
1.149031455601e-03 2.140443092610e-02 0.0 
1.039758404715e-03 2.143559113144e-02 0.0 
9.326305309873e-04 2.145336257605e-02 0.0 
8.267077265053e-04 2.146129961322e-02 0.0 
7.222170446824e-04 2.146406520912e-02 0.0 
6.182777531716e-04 2.146214615323e-02 0.0 
5.151369312487e-04 2.145823948146e-02 0.0 
4.119966234369e-04 2.145272839369e-02 0.0 
3.090759817891e-04 2.144729394722e-02 0.0 
2.061341416380e-04 2.144131084212e-02 0.0 
1.026676661548e-04 2.143316292932e-02 0.0 
-1.337032724843e-03 1.591045299740e-02 0.0 
-9.125811722508e-04 1.723213855310e-02 0.0 
-4.395153276482e-04 1.859037463909e-02 0.0 
7.955043019807e-05 1.985326296559e-02 0.0 
6.182463958233e-04 2.092679309157e-02 0.0 
1.134488006832e-03 2.171324598470e-02 0.0 
1.562951556744e-03 2.210855022275e-02 0.0 
1.813496583162e-03 2.191541201261e-02 0.0 
1.923113670296e-03 2.112175487598e-02 0.0 
1.880628108812e-03 1.997066053194e-02 0.0 
-2.917904243928e-04 1.696488835849e-02 0.0 
4.154395364085e-04 1.210608782460e-03 0.0 
-1.262018022205e-04 1.201577942616e-02 0.0 
-5.353845851115e-04 1.298997794418e-02 0.0 
2.638838275983e-04 1.127732137024e-03 0.0 
7.833132224679e-04 1.923818076450e-02 0.0 
8.480338705158e-05 8.688419526551e-03 0.0 
5.326634344183e-04 1.323885028557e-03 0.0 
1.741309473636e-03 2.062354133428e-02 0.0 
5.858629886380e-04 1.430024265769e-03 0.0 
2.174104370594e-03 2.049840510580e-02 0.0 
1.461234172122e-04 1.007619309430e-03 0.0 
7.149588240372e-06 1.174433205945e-02 0.0 
5.793915815227e-04 1.614177532105e-03 0.0 
2.004456741561e-03 1.843475866311e-02 0.0 
5.781461642068e-05 1.055935618845e-02 0.0 
8.921789291176e-05 6.801871581347e-03 0.0 
5.308013812934e-04 1.798520291184e-03 0.0 
3.670046506051e-04 1.819051632694e-03 0.0 
1.020519908933e-04 1.901849631957e-03 0.0 
1.903070241480e-04 2.053778998041e-03 0.0 
2.577624235553e-04 1.818691842674e-03 0.0 
1.632010925059e-03 1.801167669176e-02 0.0 
1.060514973607e-03 1.823339350827e-02 0.0 
6.966320271209e-04 1.822014668843e-02 0.0 
6.791437617447e-05 1.155744405754e-02 0.0 
8.723966177783e-05 1.079742519703e-03 0.0 
-8.929506081825e-04 1.430188947087e-02 0.0 
2.285514554898e-05 1.167173453208e-02 0.0 
6.200539170425e-05 4.048533733812e-03 0.0 
3.586935571882e-04 1.832454999398e-02 0.0 
3.189444834082e-05 1.137288116640e-02 0.0 
5.050506151842e-04 2.051612112574e-03 0.0 
5.245013702486e-04 1.266720956811e-03 0.0 
5.863321508264e-04 1.500608020359e-03 0.0 
5.085927403147e-04 1.339535233127e-03 0.0 
3.352501448992e-04 1.113646679984e-03 0.0 
-3.287692341082e-04 1.246718782592e-02 0.0 
1.329601857671e-03 1.825894078487e-02 0.0 
2.371428079808e-04 1.264884935512e-03 0.0 
5.074953926957e-05 7.648969588063e-03 0.0 
-4.275485477161e-05 1.184688051386e-02 0.0 
7.577249428989e-05 9.753760150746e-03 0.0 
5.032002301180e-05 1.548324367032e-03 0.0 
1.310808134722e-03 1.998103236934e-02 0.0 
2.352096733869e-04 1.816501070221e-02 0.0 
2.044678833280e-03 2.081873180218e-02 0.0 
2.142563358403e-03 1.964506627768e-02 0.0 
-8.255170529270e-04 1.579854508085e-02 0.0 
8.214909193729e-05 1.516404918321e-02 0.0 
4.004516291986e-05 8.515341768522e-04 0.0 
1.040699376835e-05 1.165544119534e-02 0.0 
2.762072788569e-05 3.480532974818e-03 0.0 
1.932291064832e-03 1.769255784338e-02 0.0 
2.082214388867e-03 1.682574682336e-02 0.0 
1.921897930067e-03 1.620978712985e-02 0.0 
2.091267045451e-03 1.518646922289e-02 0.0 
1.931075902819e-03 1.437880578186e-02 0.0 
2.053284533584e-03 1.345406129039e-02 0.0 
2.231984372684e-03 1.422449665752e-02 0.0 
2.157330825344e-03 1.250882076080e-02 0.0 
2.348999617445e-03 1.325894685073e-02 0.0 
1.865183652048e-03 1.260192290589e-02 0.0 
2.234786459313e-03 1.155089283289e-02 0.0 
2.436299881784e-03 1.228088855357e-02 0.0 
2.281512309625e-03 1.059180986588e-02 0.0 
2.488725213525e-03 1.130055087762e-02 0.0 
2.619204742589e-03 1.293417898674e-02 0.0 
2.674723580302e-03 1.193852163203e-02 0.0 
2.777009899429e-03 1.349943547773e-02 0.0 
2.832442482221e-03 1.248773781281e-02 0.0 
2.691479662847e-03 1.096169384992e-02 0.0 
2.847493615897e-03 1.150382633869e-02 0.0 
2.956320604171e-03 1.294836640754e-02 0.0 
2.967325673347e-03 1.196115972877e-02 0.0 
3.040809380783e-03 1.331803626125e-02 0.0 
3.046745972501e-03 1.233027323761e-02 0.0 
3.082756609092e-03 1.360129758349e-02 0.0 
3.083857676997e-03 1.262093163574e-02 0.0 
3.014640887893e-03 1.138781615600e-02 0.0 
3.048139495913e-03 1.169363320694e-02 0.0 
3.077342326488e-03 1.283680881183e-02 0.0 
3.039120617289e-03 1.193039660441e-02 0.0 
3.027707270837e-03 1.298494276761e-02 0.0 
2.988532929004e-03 1.210416516786e-02 0.0 
2.968806059884e-03 1.107683360106e-02 0.0 
2.918702470525e-03 1.128114216772e-02 0.0 
2.898326023523e-03 1.222441816536e-02 0.0 
2.831047446282e-03 1.143644462741e-02 0.0 
2.771703753445e-03 1.229870859234e-02 0.0 
2.709293651759e-03 1.154911112819e-02 0.0 
2.613069577568e-03 1.233295457205e-02 0.0 
2.556601579814e-03 1.162615773240e-02 0.0 
2.622903619229e-03 1.084721307633e-02 0.0 
2.477410245819e-03 1.096470808787e-02 0.0 
2.377481583825e-03 1.167604949917e-02 0.0 
2.307566386997e-03 1.105895105977e-02 0.0 
2.378241667704e-03 1.035064018422e-02 0.0 
2.218473640686e-03 1.048871995216e-02 0.0 
2.262231371269e-03 9.778358838447e-03 0.0 
2.113460184448e-03 9.958039326267e-03 0.0 
2.042517516171e-03 1.060553793887e-02 0.0 
1.949259194393e-03 1.011587561473e-02 0.0 
1.995778755100e-03 9.459848500092e-03 0.0 
1.843130732736e-03 9.660517931399e-03 0.0 
1.772847048916e-03 1.026273221649e-02 0.0 
1.680678344446e-03 9.842722797138e-03 0.0 
1.728162457884e-03 9.227778225922e-03 0.0 
1.578061957984e-03 9.447897115555e-03 0.0 
1.511975188247e-03 1.001501043885e-02 0.0 
1.422726725452e-03 9.653712761456e-03 0.0 
1.469097896644e-03 9.064450011245e-03 0.0 
1.325366015942e-03 9.307908909514e-03 0.0 
1.264868494163e-03 9.851199300578e-03 0.0 
1.180290784352e-03 9.535328674658e-03 0.0 
1.222750075928e-03 8.967362580637e-03 0.0 
1.088676107700e-03 9.228484459602e-03 0.0 
1.115170672907e-03 8.633840288029e-03 0.0 
1.033879233799e-03 9.758080973493e-03 0.0 
9.544430457255e-04 9.477606922406e-03 0.0 
8.905901000705e-04 9.974505671633e-03 0.0 
8.228352674642e-04 9.716255664810e-03 0.0 
2.869946989687e-03 1.027369947440e-02 0.0 
7.552816662987e-04 1.017811918587e-02 0.0 
8.065046616203e-04 1.040644004409e-02 0.0 
6.967518465452e-04 9.943840608433e-03 0.0 
7.477468463336e-04 9.457573516016e-03 0.0 
6.281087650050e-04 1.037151289106e-02 0.0 
5.778247734039e-04 1.015963156434e-02 0.0 
5.109902162167e-04 1.055453531533e-02 0.0 
2.635429781274e-03 1.312625086671e-02 0.0 
2.668956421418e-03 1.000998237269e-02 0.0 
4.677420654159e-04 1.036375380959e-02 0.0 
4.055183141519e-04 1.072659343281e-02 0.0 
4.323743082343e-04 1.089393158081e-02 0.0 
3.344517360819e-04 1.103421494954e-02 0.0 
1.755957655240e-03 1.353352037383e-02 0.0 
1.668663217003e-03 1.169577048249e-02 0.0 
1.576145639505e-03 1.263241194178e-02 0.0 
1.466874164856e-03 1.074989433123e-02 0.0 
1.391065821810e-03 1.167559171444e-02 0.0 
3.122033785435e-04 1.088696595471e-02 0.0 
2.057144760166e-03 9.766146371486e-03 0.0 
1.525445089363e-03 9.798031369564e-03 0.0 
2.994035769565e-03 1.434998937947e-02 0.0 
3.032477893815e-03 1.392595223298e-02 0.0 
2.389629656070e-03 9.575197423975e-03 0.0 
5.191043791435e-04 9.944540817713e-03 0.0 
4.153052557383e-04 1.016892377796e-02 0.0 
4.531729195697e-04 9.724647998897e-03 0.0 
1.234159796798e-03 8.331901215099e-03 0.0 
1.112111489885e-03 7.974176651701e-03 0.0 
1.212475084218e-03 7.628441469413e-03 0.0 
1.078627600435e-03 7.247190204297e-03 0.0 
1.156946002915e-03 6.856076987554e-03 0.0 
1.014392276773e-03 6.450808209839e-03 0.0 
9.465193066899e-04 6.867020415626e-03 0.0 
8.761899309306e-04 6.044673799031e-03 0.0 
8.176247225356e-04 6.485045207986e-03 0.0 
1.067471647714e-03 6.013247621639e-03 0.0 
1.220688862202e-03 6.443549566211e-03 0.0 
7.437697396360e-04 5.635958158835e-03 0.0 
6.933042025711e-04 6.098556035873e-03 0.0 
6.184133987169e-04 5.221727195324e-03 0.0 
5.748855596241e-04 5.705929724423e-03 0.0 
6.304194634664e-04 6.541113462385e-03 0.0 
5.184576373099e-04 6.169661161209e-03 0.0 
5.579174689872e-04 6.964047215584e-03 0.0 
2.249237429238e-03 9.000094519460e-03 0.0 
2.341463554187e-03 8.730031155212e-03 0.0 
2.179059546024e-03 8.152166762169e-03 0.0 
2.232766589760e-03 7.814121017748e-03 0.0 
2.051181412359e-03 7.232816756538e-03 0.0 
2.063431511879e-03 6.826987398807e-03 0.0 
1.865133283916e-03 6.240754922245e-03 0.0 
1.863160174286e-03 6.677224534114e-03 0.0 
2.295598849706e-03 9.626828780371e-03 0.0 
2.177626991980e-03 1.170208278462e-02 0.0 
2.214777173422e-03 1.232319117789e-02 0.0 
1.988665478102e-03 1.228262170537e-02 0.0 
1.989431387949e-03 1.290573836025e-02 0.0 
1.741387713200e-03 1.279980927137e-02 0.0 
1.701611177232e-03 1.342777231451e-02 0.0 
1.435712738525e-03 1.325905088317e-02 0.0 
1.488980710876e-03 1.268703426173e-02 0.0 
1.170791328764e-03 1.308966682759e-02 0.0 
1.237574772737e-03 1.257559702201e-02 0.0 
9.141948188107e-04 1.292528248797e-02 0.0 
9.928997868546e-04 1.247200137354e-02 0.0 
2.947596886599e-03 1.049294154264e-02 0.0 
2.254332076305e-03 7.438894789343e-03 0.0 
2.040660669787e-03 6.380669581973e-03 0.0 
2.239657718936e-03 7.020887134493e-03 0.0 
3.447200473349e-04 1.117867402299e-02 0.0 
4.634087853793e-04 5.305269338837e-03 0.0 
1.102153753533e-03 5.551576539686e-03 0.0 
1.266577424973e-03 6.014847683640e-03 0.0 
1.663208640832e-03 5.676316624742e-03 0.0 
2.505213012653e-04 1.116312716498e-02 0.0 
1.352297763606e-03 1.389304516369e-02 0.0 
1.627308367757e-03 1.412393105982e-02 0.0 
1.265265539354e-03 9.748687185884e-03 0.0 
1.206522450398e-03 1.067427562552e-02 0.0 
1.114659087030e-03 5.064659786987e-03 0.0 
2.314327481144e-04 1.103459767297e-02 0.0 
7.786583549047e-04 5.151693699184e-03 0.0 
8.028528622514e-04 1.343691703687e-02 0.0 
4.121105592620e-04 5.790090350486e-03 0.0 
3.598431160231e-04 4.896012943022e-03 0.0 
8.673022943931e-04 7.261703197675e-03 0.0 
1.979468695029e-03 5.888931669298e-03 0.0 
2.190306328548e-03 6.573257135340e-03 0.0 
1.278768207341e-03 1.211210529120e-02 0.0 
1.046123591597e-03 1.206507028504e-02 0.0 
7.618611700160e-04 1.237858076167e-02 0.0 
8.349730497650e-04 1.200855521231e-02 0.0 
1.077965227884e-03 1.169029802443e-02 0.0 
8.729807315313e-04 1.169486545022e-02 0.0 
6.357683881000e-04 1.197553499368e-02 0.0 
6.850183859804e-04 1.170388598580e-02 0.0 
8.934930450909e-04 1.139966674369e-02 0.0 
7.167442396330e-04 1.144782927263e-02 0.0 
5.166612805603e-04 1.171933014475e-02 0.0 
5.584263191480e-04 1.149739412641e-02 0.0 
3.934850920371e-04 4.368179673959e-03 0.0 
5.478948429435e-04 1.322057182037e-02 0.0 
2.681274553917e-03 1.452480292429e-02 0.0 
9.471252868231e-04 4.585364655775e-03 0.0 
1.624712588888e-03 5.189825929500e-03 0.0 
1.067361185542e-03 8.706392796809e-03 0.0 
1.025281646704e-03 9.634569976998e-03 0.0 
1.134690778183e-03 1.159387245292e-02 0.0 
9.691122229101e-04 1.055245227955e-02 0.0 
8.503865432084e-04 8.559692879207e-03 0.0 
8.095378869206e-04 9.483300329602e-03 0.0 
9.024876547314e-04 1.145952574734e-02 0.0 
7.568666489394e-04 1.039495930952e-02 0.0 
8.282122263829e-04 1.235143829631e-02 0.0 
6.951321860936e-04 1.129255859467e-02 0.0 
6.188090890937e-04 9.304965763069e-03 0.0 
5.687830818201e-04 1.021234789444e-02 0.0 
6.266110393487e-04 1.217707154338e-02 0.0 
5.103793578811e-04 1.110683504940e-02 0.0 
5.528427386882e-04 1.304662078287e-02 0.0 
4.451816087786e-04 1.198754616237e-02 0.0 
4.021570928709e-04 1.001734960201e-02 0.0 
1.833464867001e-04 1.127078400417e-02 0.0 
1.672264000835e-03 6.143295877668e-03 0.0 
1.460798236832e-03 5.128794365851e-03 0.0 
3.574002417153e-04 9.967759677396e-03 0.0 
3.850315846208e-04 9.497791192557e-03 0.0 
4.800004519822e-04 9.220854587872e-03 0.0 
3.967796027634e-04 8.969639870752e-03 0.0 
3.437996819652e-04 1.091920350818e-02 0.0 
3.031495851496e-04 8.911566070848e-03 0.0 
1.235026835947e-03 1.459713999889e-02 0.0 
1.514339817909e-03 1.489538836367e-02 0.0 
1.091306151526e-03 7.768798108875e-03 0.0 
3.122548887365e-04 5.401219879579e-03 0.0 
3.502003098483e-04 6.254190205043e-03 0.0 
2.941923002793e-03 1.398047165994e-02 0.0 
2.908971692807e-03 1.495457146890e-02 0.0 
2.778041440274e-03 1.491892872090e-02 0.0 
2.695616682264e-03 1.594406190553e-02 0.0 
2.833100212518e-03 1.599673856835e-02 0.0 
2.522019990075e-03 1.581799574084e-02 0.0 
1.378409840932e-03 6.891570358020e-03 0.0 
4.906131640563e-04 8.193760986951e-03 0.0 
4.473421967021e-04 1.105981383981e-02 0.0 
3.411140985553e-04 1.132236363909e-02 0.0 
2.654002784717e-04 4.476416063812e-03 0.0 
1.830581222766e-03 7.081194107546e-03 0.0 
2.874264647148e-03 1.009791415015e-02 0.0 
2.776219959281e-03 9.228465884993e-03 0.0 
2.662328722024e-03 8.745616694625e-03 0.0 
2.533285748694e-03 7.900897312877e-03 0.0 
2.377600733156e-03 7.331643894782e-03 0.0 
2.216679482118e-03 6.510261598719e-03 0.0 
2.375619418875e-03 7.095117474195e-03 0.0 
1.875867505591e-03 5.341178939331e-03 0.0 
2.028656349977e-03 5.720578546472e-03 0.0 
3.807176948260e-04 1.287194323250e-02 0.0 
2.435278212311e-03 8.091015286191e-03 0.0 
8.960603058965e-04 1.112353654456e-02 0.0 
1.900661724057e-04 1.137636227194e-02 0.0 
3.660036646028e-04 1.174347506602e-02 0.0 
1.637540743716e-04 1.116711959596e-02 0.0 
2.017957102440e-04 1.090014409095e-02 0.0 
9.238082237990e-04 4.043782195155e-03 0.0 
2.017456994083e-03 5.856000835352e-03 0.0 
2.183102528425e-03 6.692206334906e-03 0.0 
2.567845897342e-03 1.704006228606e-02 0.0 
2.711011479892e-03 1.710232743661e-02 0.0 
1.651156177887e-03 4.683028387952e-03 0.0 
1.470032508377e-03 1.356855233160e-02 0.0 
9.656460386764e-04 1.338667702615e-02 0.0 
8.742819665129e-04 1.425474931500e-02 0.0 
1.244988608313e-04 1.139466713824e-02 0.0 
3.062835121425e-04 1.193604699004e-02 0.0 
6.852913115268e-04 7.457196721425e-03 0.0 
1.890964927120e-03 1.435299235285e-02 0.0 
1.785344212898e-03 1.518238082949e-02 0.0 
3.902414830925e-04 1.372849777796e-02 0.0 
1.430983919666e-04 1.346250559844e-02 0.0 
2.546500747358e-04 9.803876859544e-03 0.0 
2.175023757077e-04 7.786426501144e-03 0.0 
4.926042833594e-04 8.657353957241e-03 0.0 
4.014885608842e-04 8.379112249149e-03 0.0 
1.101067042876e-03 4.545885232058e-03 0.0 
4.205160687003e-04 1.154608285718e-02 0.0 
2.500295667525e-04 6.854196943063e-03 0.0 
1.650810276047e-03 6.575239269719e-03 0.0 
1.771074768648e-03 7.454982507339e-03 0.0 
3.036156293194e-04 9.267392313737e-03 0.0 
1.072981792326e-03 1.538151017798e-02 0.0 
7.872625204943e-04 1.501496121222e-02 0.0 
1.076143729734e-03 1.103860669423e-02 0.0 
5.808966076108e-04 1.128794812704e-02 0.0 
1.359199206027e-04 1.105017730322e-02 0.0 
8.702071161720e-04 3.469624213312e-03 0.0 
6.959286724804e-04 6.517900227301e-03 0.0 
2.193608339896e-03 6.327324076781e-03 0.0 
2.494115843005e-03 7.620507994503e-03 0.0 
1.818794173243e-03 4.966660912334e-03 0.0 
2.522928538116e-04 1.175255368540e-02 0.0 
7.561138682217e-04 3.541592160334e-03 0.0 
2.205204611981e-04 5.002110718340e-03 0.0 
1.798357363718e-03 5.205958572201e-03 0.0 
1.951948486139e-03 5.983057194050e-03 0.0 
2.138756580409e-03 1.456734453012e-02 0.0 
2.049781270845e-03 1.544431166890e-02 0.0 
1.638287644709e-03 1.609507449234e-02 0.0 
1.908861072647e-03 1.640812116317e-02 0.0 
2.397434316300e-03 1.493282841599e-02 0.0 
2.371999915854e-03 1.474817992321e-02 0.0 
2.809836989075e-03 1.501788177201e-02 0.0 
2.675415586022e-03 1.607259889788e-02 0.0 
2.770228034013e-03 1.649427733616e-02 0.0 
2.921631449472e-03 1.598736301238e-02 0.0 
2.801077061219e-03 1.710114124341e-02 0.0 
2.224369237507e-03 1.300510522157e-02 0.0 
2.491793051649e-03 9.343332125115e-03 0.0 
5.816904510382e-04 8.928161260688e-03 0.0 
6.675874140517e-04 7.304346084324e-03 0.0 
1.346469284745e-03 8.013316507152e-03 0.0 
5.183370715106e-04 7.265421091640e-03 0.0 
3.914336790116e-04 6.123080185105e-03 0.0 
6.658122301878e-04 1.408616917463e-02 0.0 
5.803954056238e-04 1.492929077793e-02 0.0 
2.516802546302e-04 1.140969783501e-02 0.0 
2.314171440152e-04 1.153194846826e-02 0.0 
1.004509205461e-03 8.303296150494e-03 0.0 
7.884072305099e-04 4.107279590508e-03 0.0 
8.835519556979e-04 6.688624536258e-03 0.0 
8.676908694628e-04 5.739917885297e-03 0.0 
1.092603134767e-03 6.821281640053e-03 0.0 
1.056951049479e-03 3.992774186107e-03 0.0 
1.964085738687e-03 1.171306586531e-02 0.0 
2.097590708921e-03 8.459460199763e-03 0.0 
3.137557993569e-04 1.302930218185e-02 0.0 
2.879686614418e-03 9.989803187912e-03 0.0 
1.586517170966e-04 1.158715861881e-02 0.0 
2.483134328449e-03 9.397240626578e-03 0.0 
1.815534975987e-04 4.046113298882e-03 0.0 
2.101204256358e-04 3.477486626701e-03 0.0 
1.497581308235e-03 4.066361591234e-03 0.0 
2.199536670027e-03 1.751449097150e-02 0.0 
2.753409822900e-03 9.204204391280e-03 0.0 
2.746771004655e-03 9.521810673463e-03 0.0 
2.597783083399e-03 1.757198629878e-02 0.0 
2.654381714059e-03 1.792337697318e-02 0.0 
2.826798437947e-03 1.680638453314e-02 0.0 
2.666526729527e-03 1.816405821138e-02 0.0 
1.049777320991e-03 1.074719570759e-02 0.0 
8.815998439064e-04 1.086647393153e-02 0.0 
1.563458241949e-03 4.272388140857e-03 0.0 
1.619280433237e-03 4.326803526246e-03 0.0 
1.538724077709e-03 4.459149630687e-03 0.0 
1.687355240705e-03 5.193907441665e-03 0.0 
1.255705344261e-03 3.406430085582e-03 0.0 
1.419338659465e-03 4.045252861523e-03 0.0 
1.622653103787e-04 1.075813618964e-02 0.0 
2.544093069200e-03 1.824945310483e-02 0.0 
5.289380909958e-04 5.380447755010e-03 0.0 
2.507595511095e-03 1.712006561648e-02 0.0 
6.052057062728e-04 3.066992443271e-03 0.0 
6.410914082852e-04 3.628891999147e-03 0.0 
-7.490681270794e-05 1.323106024383e-02 0.0 
1.095706077572e-04 1.282252853385e-02 0.0 
1.711459103071e-04 5.745627745736e-03 0.0 
1.445940524826e-03 1.707839828886e-02 0.0 
1.710711888275e-03 1.744304851292e-02 0.0 
1.165069124621e-03 1.666826540662e-02 0.0 
2.740648816809e-05 1.825453202427e-03 0.0 
1.549181070493e-04 1.833896942742e-02 0.0 
1.362573669205e-04 3.016323623983e-03 0.0 
2.963539372094e-03 1.589388478964e-02 0.0 
1.838811989576e-04 4.707807976240e-03 0.0 
2.606422338944e-03 8.468740600537e-03 0.0 
2.807474555299e-03 1.399300718905e-02 0.0 
1.286201420352e-03 5.052660955288e-03 0.0 
1.390355302309e-04 6.861136906432e-03 0.0 
1.027130414535e-04 4.530670597058e-03 0.0 
9.990840805174e-04 1.522863697335e-02 0.0 
8.985695839433e-04 1.610131242253e-02 0.0 
1.104974211233e-03 1.439315968231e-02 0.0 
6.645008557164e-04 1.401230221127e-02 0.0 
1.511031088094e-04 1.439279891319e-02 0.0 
3.742868847094e-04 7.062792441316e-03 0.0 
3.218425218559e-04 1.038020731249e-02 0.0 
2.649066524455e-04 1.015290913567e-02 0.0 
4.443021830775e-04 1.137751292364e-02 0.0 
5.824005970792e-04 1.109677675597e-02 0.0 
5.899874248453e-04 8.332451405913e-03 0.0 
6.861743844851e-04 8.622659275509e-03 0.0 
2.420204980129e-03 8.465486411871e-03 0.0 
2.204704067524e-03 7.789150050991e-03 0.0 
2.760235212484e-03 9.635248186650e-03 0.0 
1.602776361050e-03 6.976397438735e-03 0.0 
1.688944808075e-03 7.801720103595e-03 0.0 
1.843637205222e-03 8.260149317134e-03 0.0 
3.984273559097e-04 5.242365569874e-03 0.0 
2.653322434651e-04 3.894972978675e-03 0.0 
1.226402701249e-03 1.063318639070e-02 0.0 
1.265893508335e-03 1.095865156410e-02 0.0 
1.007181899294e-03 1.048237593289e-02 0.0 
5.082611014816e-04 4.463724351176e-03 0.0 
1.507863169617e-04 2.434875755094e-03 0.0 
2.241057196134e-04 2.926563793094e-03 0.0 
1.252088799171e-04 1.168474553997e-02 0.0 
1.969906705769e-04 1.165408107709e-02 0.0 
5.833950551081e-04 1.580046680619e-02 0.0 
2.875874815187e-04 1.538058866031e-02 0.0 
8.367437325090e-04 4.866115384199e-03 0.0 
1.069352259967e-03 5.884579316720e-03 0.0 
5.949017259926e-04 3.670806863217e-03 0.0 
9.712028371584e-05 1.094088870083e-02 0.0 
2.313518594317e-03 6.854928568569e-03 0.0 
8.036674253426e-04 2.921110720477e-03 0.0 
1.001570543251e-03 3.470764357436e-03 0.0 
5.852987667678e-04 2.242092687369e-03 0.0 
1.742975742194e-03 4.786931071518e-03 0.0 
1.319760343008e-03 3.460357345110e-03 0.0 
1.363165779951e-03 3.537923951578e-03 0.0 
-2.837096268907e-04 1.363910737397e-02 0.0 
7.746759970638e-05 5.408817705884e-03 0.0 
6.878224326783e-04 1.593926702380e-02 0.0 
-4.224992884594e-04 1.340590018057e-02 0.0 
5.932717715011e-04 1.681765377138e-02 0.0 
4.966200269505e-04 1.576982541680e-02 0.0 
5.126304069841e-04 1.767241923126e-02 0.0 
8.133898900297e-05 1.118615127649e-02 0.0 
1.130739126060e-03 1.650444600998e-02 0.0 
1.253150975476e-03 1.544273562127e-02 0.0 
5.126791032965e-05 1.180948290980e-02 0.0 
3.437752707527e-04 3.319684463065e-03 0.0 
7.605569171471e-05 1.170473634140e-02 0.0 
1.078634733826e-04 1.162766019874e-02 0.0 
4.631823958656e-04 2.549163120796e-03 0.0 
5.055731514727e-04 3.142076895105e-03 0.0 
3.360214586385e-04 2.049291578263e-03 0.0 
3.919602510611e-04 2.708573018732e-03 0.0 
5.269789984683e-04 3.730898243502e-03 0.0 
4.095692411329e-04 3.261174895478e-03 0.0 
8.035854739057e-04 1.708147272305e-02 0.0 
2.684417444237e-04 2.053667127715e-03 0.0 
3.030669701591e-04 2.760308290071e-03 0.0 
1.764917864978e-04 1.580402252561e-03 0.0 
2.448255937542e-03 1.932424522906e-02 0.0 
2.135416557616e-03 1.670115455852e-02 0.0 
1.940882617121e-03 1.779680161783e-02 0.0 
1.435737008439e-03 1.861660487601e-02 0.0 
1.144834711401e-03 3.288488060861e-03 0.0 
1.421009036971e-03 4.426678836595e-03 0.0 
1.374324803689e-04 4.571702745850e-03 0.0 
1.572633470809e-04 5.486365946790e-03 0.0 
4.097028822889e-04 1.673066938956e-02 0.0 
2.991324767517e-04 1.680302925479e-02 0.0 
3.268578096109e-04 1.514290109838e-02 0.0 
2.357623063195e-04 1.534528301199e-02 0.0 
2.533453947899e-04 1.367306383554e-02 0.0 
1.629696799245e-04 1.388738620103e-02 0.0 
1.933975790419e-04 1.217173949337e-02 0.0 
1.114501795745e-03 2.831738537858e-03 0.0 
8.908299631480e-04 1.763976722609e-02 0.0 
2.388448476995e-03 1.864654385826e-02 0.0 
1.008422796966e-03 2.762186817358e-03 0.0 
1.218093951599e-03 3.530610907545e-03 0.0 
2.633891333154e-03 1.825514434331e-02 0.0 
2.316036798330e-03 1.947640484145e-02 0.0 
5.016342297589e-04 2.286670327764e-03 0.0 
2.418781310124e-03 1.389491555326e-02 0.0 
2.592215646897e-04 2.120190409563e-03 0.0 
-1.000282680531e-03 1.486647899058e-02 0.0 
-4.363191064528e-04 1.451956071729e-02 0.0 
2.621173218186e-03 1.399030680127e-02 0.0 
2.839017009035e-03 1.700905198694e-02 0.0 
2.363811628843e-03 1.691634178723e-02 0.0 
2.209357511955e-03 1.801983857532e-02 0.0 
1.470609294865e-03 6.068887490530e-03 0.0 
1.408461565300e-04 1.178575816536e-02 0.0 
8.768289786194e-04 1.623471865597e-02 0.0 
2.815313554358e-04 1.197934604125e-02 0.0 
3.228371092913e-04 1.662974579048e-02 0.0 
7.206302421086e-05 4.993534222122e-03 0.0 
2.440273786039e-03 1.308376020033e-02 0.0 
3.042863022374e-03 1.482307198898e-02 0.0 
1.360950671428e-03 1.574021539903e-02 0.0 
2.310412912739e-03 1.564967414740e-02 0.0 
2.526463738332e-03 1.393870426303e-02 0.0 
2.245364812982e-03 1.590106922007e-02 0.0 
2.379976602815e-03 1.657247895219e-02 0.0 
2.424230920534e-03 1.234825984658e-02 0.0 
2.404080797319e-03 1.816798229948e-02 0.0 
1.972735000876e-03 1.925705302265e-02 0.0 
2.904891583251e-03 1.397390939732e-02 0.0 
1.325322082136e-03 7.859785579328e-03 0.0 
1.316075744120e-03 6.905180630066e-03 0.0 
1.023818573141e-03 5.003319153095e-03 0.0 
1.277365812426e-03 5.970717697522e-03 0.0 
1.567256792096e-03 7.890219117714e-03 0.0 
1.542291599339e-03 6.942351130996e-03 0.0 
1.206533186119e-03 5.068135012360e-03 0.0 
1.483928796778e-03 6.009204511281e-03 0.0 
1.010347343093e-03 3.781114969962e-03 0.0 
1.377092681604e-03 5.052154055567e-03 0.0 
1.759984729389e-03 6.946071420548e-03 0.0 
1.680672323036e-03 6.059828440942e-03 0.0 
1.296280521125e-03 4.386043996985e-03 0.0 
2.034089474423e-03 7.914916177438e-03 0.0 
8.033024729439e-04 2.096899826624e-03 0.0 
2.803494243188e-03 1.312438737464e-02 0.0 
-6.707554869058e-05 1.397048080000e-02 0.0 
-2.088404261900e-04 1.495655073247e-02 0.0 
3.041190909927e-03 1.463019483036e-02 0.0 
4.991355605911e-04 1.841670822416e-03 0.0 
4.136907041668e-04 1.856749913477e-03 0.0 
1.956865930982e-03 1.359666452032e-02 0.0 
5.847928776072e-04 1.552308991529e-03 0.0 
2.545646169056e-03 1.555474694395e-02 0.0 
1.072411568570e-03 1.366659870150e-02 0.0 
5.956037086088e-04 1.482931097594e-03 0.0 
1.560548515443e-03 8.841023813914e-03 0.0 
1.794167622460e-03 9.808057943345e-03 0.0 
1.742801431221e-03 1.075778175626e-02 0.0 
3.190515932421e-04 1.758920701372e-03 0.0 
1.208887628811e-03 1.352068133173e-02 0.0 
5.122698344859e-04 1.251756534771e-03 0.0 
2.404610580206e-03 8.426792054461e-03 0.0 
2.564103912614e-03 9.090122805113e-03 0.0 
2.625400844778e-03 1.000547351049e-02 0.0 
1.807175992828e-03 7.912628422436e-03 0.0 
4.406281439100e-04 1.215654350558e-03 0.0 
7.871788757639e-04 2.301515359095e-03 0.0 
7.305077951721e-04 2.260684012448e-03 0.0 
1.091074150754e-03 3.396014092979e-03 0.0 
3.774500471008e-04 1.167962574711e-03 0.0 
5.089100498729e-04 1.597534690007e-03 0.0 
5.061932544986e-04 1.486536787650e-03 0.0 
1.085826010724e-03 1.135324496837e-02 0.0 
1.290558242518e-03 1.130763064794e-02 0.0 
1.462464640164e-03 1.087778826474e-02 0.0 
1.500909116716e-03 1.126829298023e-02 0.0 
1.295495575841e-03 1.169216505814e-02 0.0 
1.519221513226e-03 1.169694395517e-02 0.0 
1.711250005707e-03 1.123257911041e-02 0.0 
1.515081836666e-03 1.217023018123e-02 0.0 
1.841790062591e-03 6.100441577190e-03 0.0 
3.065763890738e-04 1.092994089255e-03 0.0 
1.302302296563e-03 7.265443017851e-03 0.0 
1.448422049775e-03 7.688504047397e-03 0.0 
1.478022227932e-03 8.411161299358e-03 0.0 
6.671056108416e-04 9.194135377051e-03 0.0 
7.795303418866e-04 8.910337060680e-03 0.0 
7.905933238159e-04 8.301683358214e-03 0.0 
5.576614423524e-04 9.466657063077e-03 0.0 
2.648296474212e-03 8.403498356407e-03 0.0 
2.780469026032e-04 1.088884233143e-03 0.0 
1.937382533951e-03 7.945406591275e-03 0.0 
8.692966813775e-04 9.195779447877e-03 0.0 
1.478426593197e-03 1.814814780491e-02 0.0 
1.576092995847e-03 1.658795483519e-02 0.0 
1.733636017353e-03 1.644494467977e-02 0.0 
1.643987857530e-03 1.474242272115e-02 0.0 
1.402916301205e-03 1.646797405655e-02 0.0 
4.926390992386e-04 8.034347897733e-03 0.0 
3.953363455544e-04 7.729071102017e-03 0.0 
3.089161543565e-04 8.093474224389e-03 0.0 
2.990040713489e-04 7.415263051060e-03 0.0 
2.161095655618e-04 7.796852075762e-03 0.0 
2.233814827254e-04 8.426065478370e-03 0.0 
2.026249451518e-04 7.091709450302e-03 0.0 
1.250543316363e-04 7.570902302275e-03 0.0 
1.191136870611e-03 1.826568277491e-02 0.0 
-4.197819634551e-04 1.270432133232e-02 0.0 
-1.321972855836e-04 1.250175267134e-02 0.0 
-9.058068146662e-05 1.229684939194e-02 0.0 
9.922360043954e-05 1.228899064074e-02 0.0 
1.019901298811e-04 1.249810300397e-02 0.0 
3.620516820615e-04 1.221726742314e-02 0.0 
3.411135542449e-04 1.248321428711e-02 0.0 
-1.835402155550e-04 1.276817969202e-02 0.0 
-2.495678604727e-04 1.228292794619e-02 0.0 
-4.816872178034e-05 1.213479522384e-02 0.0 
-1.818857932172e-04 1.213366207875e-02 0.0 
-2.015296387634e-05 1.200956386135e-02 0.0 
1.530458374665e-04 1.194567323900e-02 0.0 
3.274462311892e-04 1.146016780193e-02 0.0 
7.746233029241e-05 1.226004045346e-03 0.0 
8.160397393722e-05 9.255719389771e-03 0.0 
1.551786186813e-04 9.515074250636e-03 0.0 
1.420712197813e-04 9.965808531843e-03 0.0 
2.290769319231e-04 9.733985147716e-03 0.0 
1.561834343251e-04 9.039055350538e-03 0.0 
6.744101846773e-05 1.018654132425e-02 0.0 
1.275578917369e-04 1.032813704526e-02 0.0 
1.841062286855e-05 1.166017225085e-02 0.0 
2.840886480083e-05 1.160937257346e-02 0.0 
1.123210864393e-05 1.161179776371e-02 0.0 
3.479492304579e-05 1.151605244980e-02 0.0 
5.575097344887e-05 1.152545079791e-02 0.0 
4.224966983735e-05 1.161647507939e-02 0.0 
5.308466687575e-05 1.163024788734e-02 0.0 
2.299067819315e-05 1.168963971113e-02 0.0 
6.086018483140e-05 1.164949614379e-02 0.0 
9.766918669950e-05 1.154411025254e-02 0.0 
1.838953605046e-05 1.171343043895e-02 0.0 
6.180158389150e-05 9.588815992934e-03 0.0 
1.178741416576e-04 8.588219775740e-03 0.0 
2.383946530434e-04 1.136620885689e-03 0.0 
9.249643265598e-04 1.816667841228e-02 0.0 
-7.704140258829e-05 1.192168155166e-02 0.0 
9.578356321819e-05 2.285141400361e-03 0.0 
1.477897008421e-04 1.895140268483e-03 0.0 
1.191764432656e-04 1.836586858636e-03 0.0 
4.524229747105e-05 2.972769549605e-03 0.0 
7.347688611893e-05 2.444392811094e-03 0.0 
5.124088719524e-05 2.221661466299e-03 0.0 
5.433089369526e-04 1.074299856702e-02 0.0 
9.477610956769e-04 4.145948924959e-03 0.0 
2.713240570558e-04 5.909404681440e-03 0.0 
9.503402204399e-04 1.429998391857e-02 0.0 
7.252955494776e-04 1.098349909346e-02 0.0 
2.494911382198e-04 5.877868010521e-03 0.0 
7.470940991117e-04 6.902609718744e-03 0.0 
2.963264965304e-04 3.936934902464e-03 0.0 
4.518614089531e-04 6.613225939479e-03 0.0 
5.012671898536e-04 4.798995268218e-03 0.0 
6.918107642261e-04 2.296378323963e-03 0.0 
1.106011286874e-04 1.127888621987e-02 0.0 
7.487120295413e-04 1.322666558757e-02 0.0 
4.796199863437e-04 1.390910375691e-02 0.0 
4.512684089637e-04 9.111957816435e-03 0.0 
3.681626478232e-04 1.055599244874e-02 0.0 
3.136727185256e-04 8.679641303425e-03 0.0 
2.585305698604e-04 1.128587775436e-02 0.0 
1.076284962973e-03 2.839117983612e-03 0.0 
2.902121415434e-03 1.541865218673e-02 0.0 
1.353614526119e-03 8.694957049088e-03 0.0 
6.304490751660e-04 9.706965745232e-03 0.0 
6.691881576845e-04 1.057816254350e-02 0.0 
7.301492041751e-04 1.120714760313e-02 0.0 
2.935990051159e-03 1.307670661038e-02 0.0 
9.926327938659e-04 8.921562966417e-03 0.0 
9.196577879312e-04 5.583629021369e-03 0.0 
3.443312098266e-04 7.993025133194e-03 0.0 
-3.449608306408e-06 1.178250086082e-02 0.0 
9.445207609107e-04 5.097897309645e-03 0.0 
9.894477767455e-04 7.618472875597e-03 0.0 
1.053684661988e-03 1.250108686430e-02 0.0 
1.833645380489e-03 5.769333544692e-03 0.0 
4.635738347839e-04 1.194210394454e-02 0.0 
6.587421756058e-04 8.389053574834e-03 0.0 
6.668339346896e-04 4.747614430718e-03 0.0 
1.360830412397e-03 1.450042438849e-02 0.0 
1.786033919743e-04 1.148705655472e-02 0.0 
7.835644900653e-04 1.513209181151e-02 0.0 
6.937699075182e-04 2.943266487685e-03 0.0 
1.306318297776e-03 8.806150064931e-03 0.0 
2.793195611093e-04 1.073509309891e-02 0.0 
2.132822573523e-03 9.242359498745e-03 0.0 
3.079929467778e-03 1.379947086874e-02 0.0 
2.089456346325e-03 1.907039719993e-02 0.0 
2.817093061741e-04 5.032850269220e-03 0.0 
2.822712431929e-03 1.051342568554e-02 0.0 
1.409386311850e-03 4.598227691926e-03 0.0 
2.007755317883e-03 7.604086461589e-03 0.0 
2.379894219777e-04 1.057043550312e-02 0.0 
6.548545869947e-04 4.185595739719e-03 0.0 
2.515130575820e-03 1.018862248758e-02 0.0 
5.332004644020e-04 6.339695734353e-03 0.0 
2.508705263349e-03 8.191642996243e-03 0.0 
2.119469853194e-03 1.113306354095e-02 0.0 
8.763005342723e-04 7.628788898459e-03 0.0 
1.605538408900e-03 8.814666815115e-03 0.0 
1.762887939169e-03 5.250233891472e-03 0.0 
2.956151264291e-03 1.570313310344e-02 0.0 
2.939010146984e-03 1.100979242706e-02 0.0 
2.506938685259e-03 1.034747507369e-02 0.0 
2.978855819529e-03 1.081624122236e-02 0.0 
1.700606341577e-04 6.337944149162e-03 0.0 
7.948461482310e-04 4.643655647653e-03 0.0 
6.736290523604e-04 1.278128419093e-02 0.0 
2.599239714614e-03 1.485126434915e-02 0.0 
1.302798515929e-03 1.259907632893e-02 0.0 
1.837454215206e-03 5.102093559402e-03 0.0 
3.782559626604e-04 4.225406186215e-03 0.0 
2.998517184543e-03 1.492515095720e-02 0.0 
6.463235353271e-04 4.717903254203e-03 0.0 
6.918300380855e-04 5.635416775254e-03 0.0 
8.928779735170e-04 8.613958739962e-03 0.0 
3.930613364885e-05 1.115313009233e-02 0.0 
5.060681815942e-04 1.465606179028e-02 0.0 
1.753560101032e-03 1.222990487587e-02 0.0 
2.739332170323e-03 1.070119500239e-02 0.0 
8.925030118075e-04 7.970195755184e-03 0.0 
7.375767128296e-04 3.723006927734e-03 0.0 
5.233754573019e-04 4.277328452265e-03 0.0 
1.288807303103e-03 5.550367019850e-03 0.0 
-5.487354040368e-04 1.636206441298e-02 0.0 
2.311478432066e-03 1.810868333308e-02 0.0 
4.109890061781e-04 3.827771766632e-03 0.0 
1.992681891467e-03 8.738555720233e-03 0.0 
1.544466311994e-03 4.647354016214e-03 0.0 
1.354886541648e-04 8.170692434424e-03 0.0 
1.084540831220e-03 2.794945620554e-03 0.0 
2.423524608735e-03 1.942067716386e-02 0.0 
3.099993082188e-04 3.368229323634e-03 0.0 
1.480734402314e-03 5.613047371746e-03 0.0 
2.199272544480e-03 1.375087621089e-02 0.0 
2.570772804572e-04 1.834104536449e-02 0.0 
1.960238584291e-04 2.115491640532e-03 0.0 
1.250943974573e-03 4.522300653204e-03 0.0 
2.848836422642e-03 9.643498201988e-03 0.0 
1.867321013942e-03 8.992672853161e-03 0.0 
2.179193772642e-03 2.012567000761e-02 0.0 
7.797045161080e-04 7.635965450179e-03 0.0 
2.823554808349e-03 1.055694425105e-02 0.0 
2.763911070299e-04 1.725331698334e-03 0.0 
1.204430558742e-03 4.044614028487e-03 0.0 
1.955897040260e-03 1.170043974701e-02 0.0 
6.866190271802e-04 7.993796426021e-03 0.0 
2.435161047323e-03 7.743514049638e-03 0.0 
7.691706381209e-05 1.153401364967e-02 0.0 
2.436345906417e-03 1.903442940434e-02 0.0 
5.821128454293e-04 7.678002077759e-03 0.0 
1.742562595265e-03 1.170961864601e-02 0.0 
1.731445330812e-03 8.548146321412e-03 0.0 
1.075883169593e-03 2.798427605927e-03 0.0 
4.790617173030e-04 7.354461955587e-03 0.0 
1.919125164957e-03 1.118704642514e-02 0.0 
3.781610642939e-04 7.022981659143e-03 0.0 
2.139789701027e-03 2.071474977331e-02 0.0 
2.019533945167e-03 1.070973213673e-02 0.0 
2.765749884637e-04 6.681841214987e-03 0.0 
2.607870594541e-03 9.088573109731e-03 0.0 
1.186478600740e-04 1.155727666600e-02 0.0 
2.722243642923e-03 8.842163424290e-03 0.0 
1.066646344995e-04 3.535878183181e-03 0.0 
9.524203361163e-04 1.022726488141e-02 0.0 
1.592183936961e-03 8.121673092741e-03 0.0 
1.816075330811e-03 8.853544807715e-03 0.0 
1.908659145498e-03 2.079109233102e-02 0.0 
1.535825623523e-03 7.348087940129e-03 0.0 
2.319892165184e-03 7.570147616578e-03 0.0 
2.571543218235e-03 8.080310903992e-03 0.0 
2.703728765347e-03 9.785373532109e-03 0.0 
1.434737584385e-03 6.490412459498e-03 0.0 
2.192234194822e-03 1.934718594461e-02 0.0 
5.618996509328e-04 1.093073540244e-02 0.0 
4.514501531348e-04 1.121733906297e-02 0.0 
1.854439302463e-03 1.070622219815e-02 0.0 
2.094464828201e-03 6.865956230798e-03 0.0 
6.630989153963e-05 1.139663678732e-02 0.0 
2.060373382913e-03 8.808561332730e-03 0.0 
2.966716056093e-04 1.160518096605e-02 0.0 
1.660068983745e-03 1.079574523352e-02 0.0 
2.090591183058e-03 6.030946316624e-03 0.0 
7.380368237388e-05 1.340976313743e-02 0.0 
1.592825388263e-03 1.039071199173e-02 0.0 
4.748284084826e-05 1.088292092023e-02 0.0 
1.409009774517e-03 1.051658319362e-02 0.0 
2.601770382117e-03 8.794951511186e-03 0.0 
1.343193564746e-03 1.017220718464e-02 0.0 
1.173206626257e-03 1.032846074609e-02 0.0 
1.879155767583e-04 3.866554988227e-03 0.0 
1.108601138255e-03 1.003702489566e-02 0.0 
2.494033395021e-05 1.842213731774e-03 0.0 
3.222979798550e-05 1.114698855922e-03 0.0 
9.686641134896e-05 1.701759308271e-02 0.0 
1.436801829041e-03 2.059355429122e-02 0.0 
-7.684490220259e-04 1.377519183226e-02 0.0 
1.799030960828e-03 1.874424925694e-02 0.0 
8.503498836062e-04 1.063277724043e-02 0.0 
2.272854485460e-03 8.709565619589e-03 0.0 
2.013219911766e-04 1.693685878110e-02 0.0 
7.013845705471e-04 1.078036906484e-02 0.0 
9.539044872662e-04 3.242830350435e-03 0.0 
5.407895167236e-04 1.307159461299e-03 0.0 
1.333742755773e-04 1.047212096186e-02 0.0 
1.342331370645e-03 4.117467712686e-03 0.0 
2.390017584530e-03 7.306401355902e-03 0.0 
3.822928369710e-05 5.617651233903e-03 0.0 
5.955920969027e-04 1.847859116040e-02 0.0 
6.049636101308e-06 1.190875721080e-02 0.0 
8.189261619042e-05 5.892926078103e-03 0.0 
9.256961650444e-04 1.983543795212e-02 0.0 
1.148707054497e-03 1.812774378754e-02 0.0 
5.887932302814e-04 1.714907393350e-02 0.0 
1.856013165794e-04 1.043405519244e-02 0.0 
1.072232551164e-04 1.211530647745e-02 0.0 
5.208202007445e-04 1.870730343008e-02 0.0 
8.587367444240e-04 2.416783889922e-03 0.0 
1.004432653479e-03 1.688739180664e-02 0.0 
1.993870540577e-03 5.598080597140e-03 0.0 
-2.415584605178e-05 1.755997629698e-02 0.0 
4.790074787960e-04 3.684636825864e-03 0.0 
1.053371812197e-03 2.659439183771e-03 0.0 
1.657811381710e-04 9.915500572692e-04 0.0 
1.571466600983e-03 4.184336510258e-03 0.0 
2.281300872845e-05 1.611330937214e-02 0.0 
1.497541335741e-03 1.519185236286e-02 0.0 
1.061268220402e-03 2.891940957081e-03 0.0 
1.807551931155e-04 8.877452762539e-03 0.0 
1.184690895870e-04 9.459404770899e-04 0.0 
1.265167943056e-03 1.699193491946e-02 0.0 
1.138409936294e-04 3.611052609120e-03 0.0 
4.629470933963e-04 1.265940205993e-02 0.0 
5.706546896998e-05 3.505363194021e-03 0.0 
1.955381769420e-03 6.980772113613e-03 0.0 
4.117997453131e-04 1.475726419130e-02 0.0 
1.804098773112e-03 1.507655698819e-02 0.0 
8.888419587983e-05 1.926763820695e-03 0.0 
8.449284236609e-04 3.386346707589e-03 0.0 
-2.567464895336e-04 1.553812004904e-02 0.0 
2.093166667804e-04 1.067126634327e-02 0.0 
3.090866701398e-04 9.735073626795e-03 0.0 
-3.046779684897e-04 1.309189913928e-02 0.0 
4.149136280873e-04 2.074210336704e-03 0.0 
1.576316515137e-03 5.268032733385e-03 0.0 
1.490056403167e-04 1.969593894627e-03 0.0 
1.460325290869e-05 1.152307197547e-02 0.0 
3.580668471008e-05 1.177453830547e-02 0.0 
4.699818243992e-04 1.948896415230e-03 0.0 
9.597038305137e-04 2.867241546252e-03 0.0 
5.951948573046e-04 1.222813337470e-02 0.0 
1.592359000165e-04 1.481010566390e-03 0.0 
-6.374369085658e-04 1.514356410071e-02 0.0 
8.106314759970e-04 1.865559554912e-02 0.0 
5.981821723559e-05 1.167941408828e-02 0.0 
9.433019565101e-05 9.537042064668e-04 0.0 
2.790836569399e-04 3.451290192937e-03 0.0 
2.189188656232e-04 9.283519160816e-03 0.0 
1.778182982540e-03 1.775670676125e-02 0.0 
1.100831152957e-04 1.066700181330e-02 0.0 
1.447979037851e-03 3.838896082088e-03 0.0 
1.110795931083e-04 1.188002703154e-02 0.0 
1.882282343791e-04 3.263199253893e-03 0.0 
5.532684948112e-04 1.942583394197e-03 0.0 
5.832324632900e-04 3.180717650643e-03 0.0 
3.645711738892e-04 9.279773348953e-04 0.0 
-4.899145120104e-04 1.403365433034e-02 0.0 
9.326059247780e-04 2.330064936493e-03 0.0 
9.477625428885e-04 3.088063610293e-03 0.0 
4.481112793056e-04 1.854931966262e-02 0.0 
7.362506064612e-04 3.361523192822e-03 0.0 
1.967265755979e-04 1.011284791418e-02 0.0 
1.446199415983e-04 1.143014833117e-02 0.0 
1.078689207531e-05 1.632485494796e-03 0.0 
3.827881471564e-06 1.165267304572e-02 0.0 
7.533726748411e-05 1.853697402083e-02 0.0 
1.285158574608e-05 9.090194907928e-04 0.0 
8.626839172982e-05 1.143336150671e-02 0.0 
1.596288607478e-04 1.570289313998e-02 0.0 
8.915751300650e-04 2.816595941539e-03 0.0 
5.873159070310e-05 8.061054665019e-03 0.0 
8.931922400061e-05 6.975847586433e-03 0.0 
2.668643895296e-04 1.209158095163e-02 0.0 
-7.053294600279e-04 1.333569160670e-02 0.0 
1.277134456896e-04 1.245864785338e-02 0.0 
9.219208664931e-04 2.336583902190e-03 0.0 
4.489060718520e-04 3.072765882617e-03 0.0 
3.300141688199e-04 1.374035139171e-02 0.0 
1.367727055346e-04 1.497835724358e-02 0.0 
1.240221172296e-03 3.959624748571e-03 0.0 
2.353580545471e-04 8.869095985565e-03 0.0 
1.421693994291e-03 3.950550778871e-03 0.0 
1.080495995784e-03 3.208891819267e-03 0.0 
-1.049288772320e-03 1.539569110900e-02 0.0 
5.298105414012e-05 7.392371387521e-03 0.0 
5.163641396465e-05 1.171151118632e-02 0.0 
2.733470442373e-04 1.823626968159e-03 0.0 
1.563344749841e-04 8.604060925252e-03 0.0 
1.678934680010e-03 2.237742299737e-02 0.0 
5.601038931618e-05 2.379155781276e-02 0.0 
1.812873643517e-03 2.144726952016e-02 0.0 
5.055380588555e-05 2.223661956090e-02 0.0 
1.777207528449e-03 2.023786198466e-02 0.0 
5.191270998120e-05 2.061847125271e-02 0.0 

TENSORS node_materi_stress float
-3.300094465255e+00 1.906450148945e-02 0.0 
1.906450148945e-02 -8.542597864116e+00 0.0 
0.0 0.0 -3.471060973891e+00 
-3.605028987946e+01 4.208530339041e-01 0.0 
4.208530339041e-01 -5.938371891840e+01 0.0 
0.0 0.0 -2.823020263936e+01 
-1.622835622701e+02 -3.668537247224e-03 0.0 
-3.668537247224e-03 -3.820187924800e+02 0.0 
0.0 0.0 -1.628907064250e+02 
-1.073001881815e+02 7.288829359343e-01 0.0 
7.288829359343e-01 -2.496538228684e+02 0.0 
0.0 0.0 -1.066862033150e+02 
-7.761211067069e+00 -2.923215881830e-01 0.0 
-2.923215881830e-01 -2.077955115997e+01 0.0 
0.0 0.0 -8.374397518164e+00 
-1.481045028696e+01 -6.549333659953e-01 0.0 
-6.549333659953e-01 -4.042209381650e+01 0.0 
0.0 0.0 -1.616976323104e+01 
-2.144101812858e+01 -5.268558850214e-01 0.0 
-5.268558850214e-01 -5.869841320544e+01 0.0 
0.0 0.0 -2.364182940020e+01 
-2.917010943260e+01 -4.965597620351e-01 0.0 
-4.965597620351e-01 -7.964063302989e+01 0.0 
0.0 0.0 -3.224322273875e+01 
-3.637911164308e+01 -3.738409886750e-01 0.0 
-3.738409886750e-01 -9.973893638641e+01 0.0 
0.0 0.0 -4.043541440885e+01 
-4.378398898433e+01 -3.512122730583e-01 0.0 
-3.512122730583e-01 -1.195515815660e+02 0.0 
0.0 0.0 -4.860067116511e+01 
-5.114767587408e+01 -3.743327135333e-01 0.0 
-3.743327135333e-01 -1.393444701269e+02 0.0 
0.0 0.0 -5.674764380030e+01 
-5.854555341989e+01 -3.215339767798e-01 0.0 
-3.215339767798e-01 -1.590884991120e+02 0.0 
0.0 0.0 -6.489021575956e+01 
-6.614419464278e+01 -2.962605035569e-01 0.0 
-2.962605035569e-01 -1.787856646691e+02 0.0 
0.0 0.0 -7.307895779355e+01 
-7.389902596462e+01 -3.403110244576e-01 0.0 
-3.403110244576e-01 -1.986122715392e+02 0.0 
0.0 0.0 -8.135338925115e+01 
-8.202814108146e+01 -4.760774363701e-01 0.0 
-4.760774363701e-01 -2.188529400240e+02 0.0 
0.0 0.0 -8.986432433162e+01 
-9.050562260185e+01 -4.795764915712e-01 0.0 
-4.795764915712e-01 -2.383621351180e+02 0.0 
0.0 0.0 -9.826032731594e+01 
-9.850425277193e+01 -5.926629387951e-01 0.0 
-5.926629387951e-01 -2.560823941305e+02 0.0 
0.0 0.0 -1.059759940707e+02 
-1.072605053247e+02 -1.343812397369e-01 0.0 
-1.343812397369e-01 -2.754706889689e+02 0.0 
0.0 0.0 -1.144193582881e+02 
-1.166504733655e+02 -8.549464518649e-02 0.0 
-8.549464518649e-02 -2.952573046212e+02 0.0 
0.0 0.0 -1.231723333960e+02 
-1.260702229737e+02 -5.755162529101e-02 0.0 
-5.755162529101e-02 -3.143593934053e+02 0.0 
0.0 0.0 -1.317288849137e+02 
-1.358081204565e+02 -8.048183363119e-03 0.0 
-8.048183363119e-03 -3.335069239084e+02 0.0 
0.0 0.0 -1.403945133095e+02 
-1.459188085456e+02 -1.893975986212e-02 0.0 
-1.893975986212e-02 -3.527129467949e+02 0.0 
0.0 0.0 -1.491895266021e+02 
-1.557972530140e+02 -8.286036498299e-02 0.0 
-8.286036498299e-02 -3.709464958461e+02 0.0 
0.0 0.0 -1.576231246580e+02 
-1.076514066342e+02 9.092842005678e-01 0.0 
9.092842005678e-01 -2.508369244631e+02 0.0 
0.0 0.0 -1.071464993292e+02 
-1.071212182142e+02 1.627000832381e+00 0.0 
1.627000832381e+00 -2.498361875282e+02 0.0 
0.0 0.0 -1.066872217227e+02 
-1.073017903418e+02 2.663753184531e+00 0.0 
2.663753184531e+00 -2.501933255898e+02 0.0 
0.0 0.0 -1.068485347795e+02 
-1.073104314206e+02 3.123377491051e+00 0.0 
3.123377491051e+00 -2.503515161294e+02 0.0 
0.0 0.0 -1.068985842650e+02 
-1.073129356918e+02 4.122255818535e+00 0.0 
4.122255818535e+00 -2.499614688236e+02 0.0 
0.0 0.0 -1.067823213546e+02 
-1.077416644625e+02 5.070565291552e+00 0.0 
5.070565291552e+00 -2.509249148080e+02 0.0 
0.0 0.0 -1.071999737811e+02 
-1.083496196017e+02 6.135937849644e+00 0.0 
6.135937849644e+00 -2.517256269785e+02 0.0 
0.0 0.0 -1.076225739741e+02 
-1.083396180528e+02 7.369743612035e+00 0.0 
7.369743612035e+00 -2.520501281742e+02 0.0 
0.0 0.0 -1.077169238681e+02 
-1.091766157244e+02 8.712999689650e+00 0.0 
8.712999689650e+00 -2.536864589455e+02 0.0 
0.0 0.0 -1.084589224010e+02 
-1.094955800109e+02 9.737247209745e+00 0.0 
9.737247209745e+00 -2.546933597032e+02 0.0 
0.0 0.0 -1.088566819142e+02 
-1.100855280682e+02 1.123239680080e+01 0.0 
1.123239680080e+01 -2.553853227519e+02 0.0 
0.0 0.0 -1.092412552460e+02 
-1.109765734635e+02 1.277580770488e+01 0.0 
1.277580770488e+01 -2.576296613618e+02 0.0 
0.0 0.0 -1.101818704476e+02 
-1.124084729072e+02 1.438453719939e+01 0.0 
1.438453719939e+01 -2.603044150683e+02 0.0 
0.0 0.0 -1.114138663926e+02 
-1.130263304546e+02 1.601603540767e+01 0.0 
1.601603540767e+01 -2.623092740490e+02 0.0 
0.0 0.0 -1.122006813511e+02 
-1.144401280362e+02 1.768983674986e+01 0.0 
1.768983674986e+01 -2.649560337141e+02 0.0 
0.0 0.0 -1.134188485251e+02 
-1.153213130071e+02 1.919013036432e+01 0.0 
1.919013036432e+01 -2.675962319660e+02 0.0 
0.0 0.0 -1.144752634919e+02 
-1.170308298693e+02 2.085404070374e+01 0.0 
2.085404070374e+01 -2.714308734100e+02 0.0 
0.0 0.0 -1.161385109838e+02 
-1.194975855848e+02 2.246242443478e+01 0.0 
2.246242443478e+01 -2.768856187755e+02 0.0 
0.0 0.0 -1.185149613081e+02 
-1.215061904051e+02 2.390430674598e+01 0.0 
2.390430674598e+01 -2.822767584427e+02 0.0 
0.0 0.0 -1.207348846543e+02 
-1.237018170822e+02 2.515224386903e+01 0.0 
2.515224386903e+01 -2.880198835729e+02 0.0 
0.0 0.0 -1.231165101965e+02 
-1.258305286957e+02 2.601928303917e+01 0.0 
2.601928303917e+01 -2.936706831762e+02 0.0 
0.0 0.0 -1.254503635616e+02 
-1.283542168615e+02 2.682475702494e+01 0.0 
2.682475702494e+01 -2.995480334920e+02 0.0 
0.0 0.0 -1.279706751060e+02 
-1.306493860821e+02 2.724711778150e+01 0.0 
2.724711778150e+01 -3.056876192544e+02 0.0 
0.0 0.0 -1.305011016009e+02 
-1.330888031969e+02 2.741410089051e+01 0.0 
2.741410089051e+01 -3.118640731623e+02 0.0 
0.0 0.0 -1.330858629078e+02 
-1.356571039778e+02 2.730477592408e+01 0.0 
2.730477592408e+01 -3.182708168889e+02 0.0 
0.0 0.0 -1.357783762600e+02 
-1.382631643004e+02 2.701057644292e+01 0.0 
2.701057644292e+01 -3.245871643588e+02 0.0 
0.0 0.0 -1.384550985978e+02 
-1.405236203531e+02 2.640597570247e+01 0.0 
2.640597570247e+01 -3.305347842418e+02 0.0 
0.0 0.0 -1.409175213785e+02 
-1.428743362241e+02 2.560003575330e+01 0.0 
2.560003575330e+01 -3.361810339987e+02 0.0 
0.0 0.0 -1.433166110668e+02 
-1.448402429167e+02 2.459544491399e+01 0.0 
2.459544491399e+01 -3.412516436605e+02 0.0 
0.0 0.0 -1.454275659731e+02 
-1.473545863031e+02 2.366489662136e+01 0.0 
2.366489662136e+01 -3.467468213755e+02 0.0 
0.0 0.0 -1.478304223036e+02 
-1.488480878334e+02 2.211282998894e+01 0.0 
2.211282998894e+01 -3.511711079652e+02 0.0 
0.0 0.0 -1.496057587396e+02 
-1.502044113387e+02 2.088136299371e+01 0.0 
2.088136299371e+01 -3.544349672805e+02 0.0 
0.0 0.0 -1.509918135858e+02 
-1.519511801997e+02 1.944407578532e+01 0.0 
1.944407578532e+01 -3.584565323777e+02 0.0 
0.0 0.0 -1.527223137732e+02 
-1.535362450868e+02 1.808723809977e+01 0.0 
1.808723809977e+01 -3.621362957633e+02 0.0 
0.0 0.0 -1.543017622550e+02 
-1.549333311596e+02 1.666544053542e+01 0.0 
1.666544053542e+01 -3.654036299987e+02 0.0 
0.0 0.0 -1.557010883475e+02 
-1.561942268617e+02 1.527705835463e+01 0.0 
1.527705835463e+01 -3.682519009560e+02 0.0 
0.0 0.0 -1.569338383453e+02 
-1.572692880028e+02 1.388900962479e+01 0.0 
1.388900962479e+01 -3.707563582066e+02 0.0 
0.0 0.0 -1.580076938628e+02 
-1.580882895394e+02 1.250286267514e+01 0.0 
1.250286267514e+01 -3.726754560823e+02 0.0 
0.0 0.0 -1.588291236865e+02 
-1.587789533369e+02 1.124530968638e+01 0.0 
1.124530968638e+01 -3.742522468787e+02 0.0 
0.0 0.0 -1.595093600647e+02 
-1.592607558713e+02 9.920922209424e+00 0.0 
9.920922209424e+00 -3.754855695431e+02 0.0 
0.0 0.0 -1.600238976243e+02 
-1.601337300670e+02 8.855587516713e+00 0.0 
8.855587516713e+00 -3.771806248577e+02 0.0 
0.0 0.0 -1.607943064774e+02 
-1.611426835812e+02 7.623837842994e+00 0.0 
7.623837842994e+00 -3.791796596581e+02 0.0 
0.0 0.0 -1.616967029718e+02 
-1.616801364263e+02 6.669997293025e+00 0.0 
6.669997293025e+00 -3.803208022074e+02 0.0 
0.0 0.0 -1.622002815901e+02 
-1.606435387467e+02 5.498605576050e+00 0.0 
5.498605576050e+00 -3.788127450320e+02 0.0 
0.0 0.0 -1.614368851336e+02 
-1.621886632696e+02 4.412964098119e+00 0.0 
4.412964098119e+00 -3.814195273695e+02 0.0 
0.0 0.0 -1.626824571917e+02 
-1.619425073704e+02 3.513169111570e+00 0.0 
3.513169111570e+00 -3.811285749284e+02 0.0 
0.0 0.0 -1.625213246896e+02 
-1.624596132939e+02 2.839892933079e+00 0.0 
2.839892933079e+00 -3.820183296996e+02 0.0 
0.0 0.0 -1.629433828980e+02 
-1.628561620940e+02 1.714890024118e+00 0.0 
1.714890024118e+00 -3.828843467119e+02 0.0 
0.0 0.0 -1.633221526418e+02 
-1.628402250297e+02 9.994293052068e-01 0.0 
9.994293052068e-01 -3.829331351237e+02 0.0 
0.0 0.0 -1.633320080460e+02 
-4.458905696479e+01 3.106898831188e-01 0.0 
3.106898831188e-01 -7.917442654752e+01 0.0 
0.0 0.0 -3.672904505369e+01 
-5.255143965055e+01 3.809835852699e-01 0.0 
3.809835852699e-01 -9.891111876309e+01 0.0 
0.0 0.0 -4.503876752409e+01 
-6.048958040087e+01 3.999224677842e-01 0.0 
3.999224677842e-01 -1.185377184093e+02 0.0 
0.0 0.0 -5.330818964304e+01 
-6.803353374982e+01 4.624959107124e-01 0.0 
4.624959107124e-01 -1.378405558575e+02 0.0 
0.0 0.0 -6.136222688219e+01 
-7.554507428480e+01 4.523830942002e-01 0.0 
4.523830942002e-01 -1.576668241429e+02 0.0 
0.0 0.0 -6.956356952832e+01 
-8.311322445396e+01 5.280847335604e-01 0.0 
5.280847335604e-01 -1.776875047072e+02 0.0 
0.0 0.0 -7.784021874836e+01 
-9.012211582150e+01 5.136900106206e-01 0.0 
5.136900106206e-01 -1.975456383082e+02 0.0 
0.0 0.0 -8.590032623891e+01 
-9.684338144975e+01 6.193117512345e-01 0.0 
6.193117512345e-01 -2.173033840982e+02 0.0 
0.0 0.0 -9.384402966438e+01 
-1.038732630182e+02 6.797483792496e-01 0.0 
6.797483792496e-01 -2.378002800860e+02 0.0 
0.0 0.0 -1.021020629313e+02 
-1.650360203306e+01 4.981218987517e+00 0.0 
4.981218987517e+00 -6.941104433358e+00 0.0 
0.0 0.0 -7.015866839871e+00 
-4.435558338756e+01 3.546156690323e+00 0.0 
3.546156690323e+00 -6.191276530736e+01 0.0 
0.0 0.0 -3.148050460848e+01 
-2.082519922135e+01 1.233712031254e+01 0.0 
1.233712031254e+01 -1.452550281492e+01 0.0 
0.0 0.0 -1.024106994969e+01 
-2.385258531428e+01 1.538600912100e+01 0.0 
1.538600912100e+01 -1.843098235117e+01 0.0 
0.0 0.0 -1.228507029964e+01 
-2.492868901785e+01 1.661529374200e+01 0.0 
1.661529374200e+01 -1.970880683918e+01 0.0 
0.0 0.0 -1.299124875711e+01 
-2.431927490146e+01 1.661793300527e+01 0.0 
1.661793300527e+01 -1.915433682356e+01 0.0 
0.0 0.0 -1.264208351750e+01 
-2.390740390317e+01 1.634444415087e+01 0.0 
1.634444415087e+01 -1.958268434551e+01 0.0 
0.0 0.0 -1.264702647460e+01 
-2.431770340289e+01 1.607648965076e+01 0.0 
1.607648965076e+01 -1.990772265225e+01 0.0 
0.0 0.0 -1.286762781654e+01 
-2.709038642518e+01 1.144602124941e+01 0.0 
1.144602124941e+01 -1.711221652630e+01 0.0 
0.0 0.0 -1.286078088544e+01 
-2.638107072499e+01 5.591640651697e+00 0.0 
5.591640651697e+00 -2.199730401189e+01 0.0 
0.0 0.0 -1.411351242106e+01 
-3.520054427432e+01 4.259287088581e+00 0.0 
4.259287088581e+00 -4.136190289524e+01 0.0 
0.0 0.0 -2.256873415087e+01 
-1.476015407543e+01 7.175169107771e-01 0.0 
7.175169107771e-01 -7.275914780277e+00 0.0 
0.0 0.0 -6.210820656712e+00 
-1.979649181374e+01 7.943528257437e-01 0.0 
7.943528257437e-01 -1.970040140670e+01 0.0 
0.0 0.0 -1.144906796613e+01 
-2.784839411536e+01 5.211085651325e-01 0.0 
5.211085651325e-01 -3.914032734953e+01 0.0 
0.0 0.0 -1.969661643947e+01 
-3.521052254609e+01 -2.603113564349e-01 0.0 
-2.603113564349e-01 -5.674059072117e+01 0.0 
0.0 0.0 -2.718533398018e+01 
-3.586618161205e+01 -7.482934570092e-02 0.0 
-7.482934570092e-02 -5.788013138386e+01 0.0 
0.0 0.0 -2.772389389877e+01 
-3.588157831943e+01 -8.034501880197e-02 0.0 
-8.034501880197e-02 -5.789107082122e+01 0.0 
0.0 0.0 -2.773179474219e+01 
-3.592625934397e+01 -4.465323270395e-02 0.0 
-4.465323270395e-02 -5.766096159402e+01 0.0 
0.0 0.0 -2.767616628140e+01 
-3.731408375890e+01 -6.906145583642e-02 0.0 
-6.906145583642e-02 -6.029673365807e+01 0.0 
0.0 0.0 -2.888324522509e+01 
-3.643517934524e+01 -1.225164625406e-01 0.0 
-1.225164625406e-01 -5.795540785484e+01 0.0 
0.0 0.0 -2.791717616002e+01 
-3.674451164389e+01 -7.970197671056e-02 0.0 
-7.970197671056e-02 -5.779328791694e+01 0.0 
0.0 0.0 -2.796133986825e+01 
-3.706383677577e+01 -1.415695653297e-01 0.0 
-1.415695653297e-01 -5.799344110500e+01 0.0 
0.0 0.0 -2.811718336423e+01 
-3.760017763632e+01 -3.208011328131e-02 0.0 
-3.208011328131e-02 -5.846635234755e+01 0.0 
0.0 0.0 -2.841995899516e+01 
-3.807169821846e+01 4.305332160886e-02 0.0 
4.305332160886e-02 -5.847858646948e+01 0.0 
0.0 0.0 -2.856508540638e+01 
-3.877511979807e+01 2.920643379762e-01 0.0 
2.920643379762e-01 -5.856131259248e+01 0.0 
0.0 0.0 -2.880092971717e+01 
-3.952014722793e+01 6.586607010523e-01 0.0 
6.586607010523e-01 -5.871228760093e+01 0.0 
0.0 0.0 -2.906973044866e+01 
-4.064854279795e+01 1.182860278336e+00 0.0 
1.182860278336e+00 -5.917403170154e+01 0.0 
0.0 0.0 -2.954677234985e+01 
-4.202169488577e+01 2.035104669173e+00 0.0 
2.035104669173e+00 -6.002271609085e+01 0.0 
0.0 0.0 -3.021332329299e+01 
-1.830813808388e+01 1.942888648039e+00 0.0 
1.942888648039e+00 -6.366919339545e+00 0.0 
0.0 0.0 -7.316417068644e+00 
-2.052638044485e+01 3.570625312540e-01 0.0 
3.570625312540e-01 -7.224775128700e+00 0.0 
0.0 0.0 -8.242217399659e+00 
-2.075947052906e+01 -4.935667385085e-01 0.0 
-4.935667385085e-01 -6.992320337842e+00 0.0 
0.0 0.0 -8.225955767819e+00 
-1.962776722954e+01 -5.163437468447e-01 0.0 
-5.163437468447e-01 -7.038002753570e+00 0.0 
0.0 0.0 -7.899873110668e+00 
-1.785759641338e+01 -6.386402077277e-01 0.0 
-6.386402077277e-01 -8.042576576700e+00 0.0 
0.0 0.0 -7.692830352074e+00 
-1.632596209881e+01 -7.869052976708e-01 0.0 
-7.869052976708e-01 -8.457325350961e+00 0.0 
0.0 0.0 -7.361969581843e+00 
-1.470401207829e+01 -7.929132721094e-01 0.0 
-7.929132721094e-01 -8.396507737446e+00 0.0 
0.0 0.0 -6.855648005681e+00 
-1.309000024876e+01 -7.402451937960e-01 0.0 
-7.402451937960e-01 -8.296029062132e+00 0.0 
0.0 0.0 -6.340557453018e+00 
-1.153479693433e+01 -6.996757634151e-01 0.0 
-6.996757634151e-01 -8.277197984628e+00 0.0 
0.0 0.0 -5.866902856617e+00 
-1.013663043353e+01 -6.251784903206e-01 0.0 
-6.251784903206e-01 -8.299176142621e+00 0.0 
0.0 0.0 -5.454688363768e+00 
-8.762033687539e+00 -5.076113361336e-01 0.0 
-5.076113361336e-01 -8.403114234980e+00 0.0 
0.0 0.0 -5.075220200401e+00 
-7.871661810232e+00 -5.562742656740e-01 0.0 
-5.562742656740e-01 -8.975516544201e+00 0.0 
0.0 0.0 -4.990822750999e+00 
-6.574116250555e+00 -5.960919744477e-01 0.0 
-5.960919744477e-01 -8.663370096279e+00 0.0 
0.0 0.0 -4.503135646291e+00 
-5.368400770524e+00 -4.593239162347e-01 0.0 
-4.593239162347e-01 -7.915536093044e+00 0.0 
0.0 0.0 -3.903405988619e+00 
-4.496638865863e+00 -3.604936684915e-01 0.0 
-3.604936684915e-01 -8.046179867425e+00 0.0 
0.0 0.0 -3.685808103533e+00 
-3.858248234459e+00 -2.977689083775e-01 0.0 
-2.977689083775e-01 -8.319335060853e+00 0.0 
0.0 0.0 -3.579026591026e+00 
-3.320080089733e+00 -1.949907843686e-01 0.0 
-1.949907843686e-01 -8.353042397977e+00 0.0 
0.0 0.0 -3.427320660430e+00 
-2.894577587213e+00 -1.842875993881e-01 0.0 
-1.842875993881e-01 -7.938771261448e+00 0.0 
0.0 0.0 -3.172897358489e+00 
-2.670656240207e+00 1.535901976751e-02 0.0 
1.535901976751e-02 -7.334526515472e+00 0.0 
0.0 0.0 -2.909971101093e+00 
-1.735895765498e+01 3.374318768397e+00 0.0 
3.374318768397e+00 -5.079875238047e+00 0.0 
0.0 0.0 -6.331649867907e+00 
-1.393300418642e+01 1.996635072923e+00 0.0 
1.996635072923e+00 -9.941965608836e+00 0.0 
0.0 0.0 -6.762490938578e+00 
-1.193323201421e+01 6.477401777994e-01 0.0 
6.477401777994e-01 -1.021197033699e+01 0.0 
0.0 0.0 -6.243560705359e+00 
-1.098248834720e+01 5.399271189645e-02 0.0 
5.399271189645e-02 -9.829346285609e+00 0.0 
0.0 0.0 -5.843550389843e+00 
-1.098539889945e+01 -2.166346759031e-01 0.0 
-2.166346759031e-01 -9.756617969947e+00 0.0 
0.0 0.0 -5.822605060820e+00 
-1.122438050988e+01 -2.819506428870e-01 0.0 
-2.819506428870e-01 -9.713577980388e+00 0.0 
0.0 0.0 -5.881387547079e+00 
-1.165927632549e+01 -3.075658108456e-01 0.0 
-3.075658108456e-01 -9.742337764751e+00 0.0 
0.0 0.0 -6.020484227074e+00 
-1.215845173040e+01 -3.152092712861e-01 0.0 
-3.152092712861e-01 -9.756753597853e+00 0.0 
0.0 0.0 -6.174561598476e+00 
-1.267809702123e+01 -3.070021472245e-01 0.0 
-3.070021472245e-01 -9.770144518293e+00 0.0 
0.0 0.0 -6.334472461858e+00 
-1.319482237356e+01 -2.803734119622e-01 0.0 
-2.803734119622e-01 -9.778213552584e+00 0.0 
0.0 0.0 -6.491910777845e+00 
-1.365215747146e+01 -2.344513597005e-01 0.0 
-2.344513597005e-01 -9.798562777525e+00 0.0 
0.0 0.0 -6.635216074696e+00 
-1.402491778300e+01 -2.004724950828e-01 0.0 
-2.004724950828e-01 -9.822132350024e+00 0.0 
0.0 0.0 -6.754115039906e+00 
-1.436383792714e+01 -1.743637205920e-01 0.0 
-1.743637205920e-01 -9.832867331508e+00 0.0 
0.0 0.0 -6.859011577595e+00 
-1.463629681596e+01 -1.349924237172e-01 0.0 
-1.349924237172e-01 -9.837019603406e+00 0.0 
0.0 0.0 -6.941994925809e+00 
-1.483837179599e+01 -8.459796060832e-02 0.0 
-8.459796060832e-02 -9.837684776904e+00 0.0 
0.0 0.0 -7.002816971867e+00 
-1.495792823121e+01 -2.073570139214e-02 0.0 
-2.073570139214e-02 -9.815751760300e+00 0.0 
0.0 0.0 -7.032103997454e+00 
-1.500059349346e+01 8.256070616460e-02 0.0 
8.256070616460e-02 -9.762701814418e+00 0.0 
0.0 0.0 -7.028988592364e+00 
-1.496928154260e+01 2.018609915297e-01 0.0 
2.018609915297e-01 -9.172269175431e+00 0.0 
0.0 0.0 -6.842465215408e+00 
-1.484404965233e+01 -2.845534001481e-01 0.0 
-2.845534001481e-01 -6.889456486907e+00 0.0 
0.0 0.0 -6.120051841772e+00 
-1.966043364679e+01 -2.521506941206e-01 0.0 
-2.521506941206e-01 -1.969463518137e+01 0.0 
0.0 0.0 -1.140652064845e+01 
-1.941941498910e+01 -1.765627864559e-02 0.0 
-1.765627864559e-02 -1.954440358155e+01 0.0 
0.0 0.0 -1.128914557119e+01 
-1.933316151339e+01 -4.467866261474e-02 0.0 
-4.467866261474e-02 -1.951957513799e+01 0.0 
0.0 0.0 -1.125582099541e+01 
-1.925304331926e+01 -1.147624114463e-01 0.0 
-1.147624114463e-01 -1.954947753954e+01 0.0 
0.0 0.0 -1.124075625764e+01 
-1.918017493926e+01 -1.874821295355e-01 0.0 
-1.874821295355e-01 -1.955754758777e+01 0.0 
0.0 0.0 -1.122131675811e+01 
-1.906042865360e+01 -2.586436428470e-01 0.0 
-2.586436428470e-01 -1.956915941811e+01 0.0 
0.0 0.0 -1.118887642151e+01 
-1.892415143922e+01 -3.201415539614e-01 0.0 
-3.201415539614e-01 -1.958944686715e+01 0.0 
0.0 0.0 -1.115407949191e+01 
-1.875960634134e+01 -3.584259491185e-01 0.0 
-3.584259491185e-01 -1.958570602140e+01 0.0 
0.0 0.0 -1.110359370882e+01 
-1.859778372214e+01 -4.256880103905e-01 0.0 
-4.256880103905e-01 -1.957238607214e+01 0.0 
0.0 0.0 -1.105105093829e+01 
-1.840676718018e+01 -4.763420595667e-01 0.0 
-4.763420595667e-01 -1.961228564086e+01 0.0 
0.0 0.0 -1.100571584631e+01 
-1.825377743645e+01 -4.731791130165e-01 0.0 
-4.731791130165e-01 -1.964860708407e+01 0.0 
0.0 0.0 -1.097071535615e+01 
-1.818652534858e+01 -4.331934545089e-01 0.0 
-4.331934545089e-01 -1.968214916538e+01 0.0 
0.0 0.0 -1.096060235419e+01 
-1.822983136879e+01 -3.301153373538e-01 0.0 
-3.301153373538e-01 -1.975542233546e+01 0.0 
0.0 0.0 -1.099557611127e+01 
-1.848949198305e+01 -1.264937033712e-01 0.0 
-1.264937033712e-01 -1.981077438845e+01 0.0 
0.0 0.0 -1.109007991145e+01 
-1.912631880822e+01 2.407881921334e-01 0.0 
2.407881921334e-01 -2.015721274843e+01 0.0 
0.0 0.0 -1.138505946699e+01 
-2.121073954138e+01 1.377857310760e+00 0.0 
1.377857310760e+00 -2.169873475695e+01 0.0 
0.0 0.0 -1.247284228950e+01 
-2.129365871574e+01 2.323662932527e+00 0.0 
2.323662932527e+00 -1.821969854491e+01 0.0 
0.0 0.0 -1.145400717819e+01 
-3.205648786451e+01 2.144150265504e+00 0.0 
2.144150265504e+00 -3.813030397899e+01 0.0 
0.0 0.0 -2.065603755305e+01 
-3.214680312457e+01 1.418925699236e+00 0.0 
1.418925699236e+00 -4.132905389958e+01 0.0 
0.0 0.0 -2.164275710724e+01 
-3.036895133883e+01 5.178983994047e-01 0.0 
5.178983994047e-01 -3.982105345832e+01 0.0 
0.0 0.0 -2.065700143914e+01 
-2.961761301862e+01 9.774031918022e-02 0.0 
9.774031918022e-02 -3.953791104402e+01 0.0 
0.0 0.0 -2.034665721879e+01 
-2.906039527443e+01 -1.250267774211e-01 0.0 
-1.250267774211e-01 -3.940414090854e+01 0.0 
0.0 0.0 -2.013936085489e+01 
-2.867079502703e+01 -2.841914102992e-01 0.0 
-2.841914102992e-01 -3.932867135121e+01 0.0 
0.0 0.0 -1.999983991347e+01 
-2.839458449637e+01 -3.586592338274e-01 0.0 
-3.586592338274e-01 -3.919581802145e+01 0.0 
0.0 0.0 -1.987712075535e+01 
-2.820417478944e+01 -3.205697350545e-01 0.0 
-3.205697350545e-01 -3.914138354968e+01 0.0 
0.0 0.0 -1.980366750174e+01 
-2.815655731448e+01 -3.162156606845e-01 0.0 
-3.162156606845e-01 -3.919849186824e+01 0.0 
0.0 0.0 -1.980651475481e+01 
-2.801745788123e+01 -2.699916859410e-01 0.0 
-2.699916859410e-01 -3.914955315514e+01 0.0 
0.0 0.0 -1.975010331091e+01 
-2.794613553269e+01 -2.306743124246e-01 0.0 
-2.306743124246e-01 -3.912304868641e+01 0.0 
0.0 0.0 -1.972075526573e+01 
-2.790554523004e+01 -1.436656734354e-01 0.0 
-1.436656734354e-01 -3.911486194000e+01 0.0 
0.0 0.0 -1.970612215101e+01 
-2.785256926085e+01 -1.196126718899e-01 0.0 
-1.196126718899e-01 -3.912263197997e+01 0.0 
0.0 0.0 -1.969256037225e+01 
-2.783931600486e+01 -5.864389164739e-02 0.0 
-5.864389164739e-02 -3.905556576033e+01 0.0 
0.0 0.0 -1.966846452956e+01 
-2.788145424150e+01 5.228720086157e-02 0.0 
5.228720086157e-02 -3.923487117177e+01 0.0 
0.0 0.0 -1.973489762398e+01 
-2.781655994824e+01 -5.025944501659e-01 0.0 
-5.025944501659e-01 -3.938309549511e+01 0.0 
0.0 0.0 -1.975989663301e+01 
-1.788757923798e+01 9.303072735914e+00 0.0 
9.303072735914e+00 -1.037184725530e+01 0.0 
0.0 0.0 -8.170226994772e+00 
-2.266583816287e+01 1.420196506512e+01 0.0 
1.420196506512e+01 -1.706347339308e+01 0.0 
0.0 0.0 -1.151879346679e+01 
-2.450037782325e+01 1.611524593245e+01 0.0 
1.611524593245e+01 -1.917911195151e+01 0.0 
0.0 0.0 -1.270384693243e+01 
-2.497826414635e+01 1.674540187683e+01 0.0 
1.674540187683e+01 -1.999626680939e+01 0.0 
0.0 0.0 -1.309235928672e+01 
-2.491511575363e+01 1.715323697279e+01 0.0 
1.715323697279e+01 -1.993169406245e+01 0.0 
0.0 0.0 -1.305404294482e+01 
-2.413090911696e+01 1.673997163077e+01 0.0 
1.673997163077e+01 -1.992870476060e+01 0.0 
0.0 0.0 -1.281788416327e+01 
-2.652345846347e+01 1.570380348138e+01 0.0 
1.570380348138e+01 -1.999366581673e+01 0.0 
0.0 0.0 -1.355513728406e+01 
-2.556869510818e+01 7.176456612661e+00 0.0 
7.176456612661e+00 -1.503479533564e+01 0.0 
0.0 0.0 -1.178104713315e+01 
-3.232844044641e+01 5.009688114213e+00 0.0 
5.009688114213e+00 -3.349117427841e+01 0.0 
0.0 0.0 -1.934588441745e+01 
-4.106322923633e+01 3.855720210133e+00 0.0 
3.855720210133e+00 -5.312247471579e+01 0.0 
0.0 0.0 -2.785571118564e+01 
-2.257529659368e+01 1.345963193373e+01 0.0 
1.345963193373e+01 -2.466350710688e+01 0.0 
0.0 0.0 -1.377164111017e+01 
-1.472475474573e+02 1.832506007292e+01 0.0 
1.832506007292e+01 -3.524378831139e+02 0.0 
0.0 0.0 -1.495056291714e+02 
-1.291962336800e+01 -1.147708780892e+00 0.0 
-1.147708780892e+00 -1.682716368523e+01 0.0 
0.0 0.0 -8.911336140824e+00 
-1.879097072769e+01 -9.241767476963e-01 0.0 
-9.241767476963e-01 -1.601729260367e+01 0.0 
0.0 0.0 -1.042938672997e+01 
-1.530104219125e+02 1.150464949620e+01 0.0 
1.150464949620e+01 -3.655064321764e+02 0.0 
0.0 0.0 -1.551550562267e+02 
-2.530972429050e+01 1.682258476600e+01 0.0 
1.682258476600e+01 -2.842279348851e+01 0.0 
0.0 0.0 -1.571975533370e+01 
-7.822856351003e+01 2.450743715466e-02 0.0 
2.450743715466e-02 -2.094678045107e+02 0.0 
0.0 0.0 -8.590891040621e+01 
-1.402407864985e+02 2.328049638557e+01 0.0 
2.328049638557e+01 -3.349080833745e+02 0.0 
0.0 0.0 -1.421446609619e+02 
-2.671486943977e+01 1.769814930696e+01 0.0 
1.769814930696e+01 -2.969869702910e+01 0.0 
0.0 0.0 -1.652406994066e+01 
-1.328876654256e+02 2.652316510276e+01 0.0 
2.652316510276e+01 -3.133766660918e+02 0.0 
0.0 0.0 -1.334792994552e+02 
-3.558819181957e+01 1.131281913924e+01 0.0 
1.131281913924e+01 -3.779152367376e+01 0.0 
0.0 0.0 -2.161391464800e+01 
-1.566505432365e+02 6.859601652468e+00 0.0 
6.859601652468e+00 -3.722983468889e+02 0.0 
0.0 0.0 -1.582846670376e+02 
-8.649365296407e+00 -7.682631484246e-01 0.0 
-7.682631484246e-01 -1.620473439040e+01 0.0 
0.0 0.0 -7.465913533194e+00 
-1.245875390335e+02 2.589936392040e+01 0.0 
2.589936392040e+01 -2.883441004360e+02 0.0 
0.0 0.0 -1.234794918408e+02 
-5.031136143338e+01 5.759070523890e+00 0.0 
5.759070523890e+00 -7.193620418003e+01 0.0 
0.0 0.0 -3.627426968402e+01 
-4.780909262828e+01 -2.951031063234e-01 0.0 
-2.951031063234e-01 -1.303824437109e+02 0.0 
0.0 0.0 -5.305746090176e+01 
-1.013579171161e+02 2.186020106339e-01 0.0 
2.186020106339e-01 -2.627612260531e+02 0.0 
0.0 0.0 -1.088357429508e+02 
-1.189597606283e+02 2.271942716866e+01 0.0 
2.271942716866e+01 -2.707525547933e+02 0.0 
0.0 0.0 -1.165136946265e+02 
-1.125834924698e+02 1.627321732926e+01 0.0 
1.627321732926e+01 -2.552617965560e+02 0.0 
0.0 0.0 -1.099535867077e+02 
-1.056163981669e+02 4.569218284216e+00 0.0 
4.569218284216e+00 -2.425749197525e+02 0.0 
0.0 0.0 -1.040573953758e+02 
-1.066183303745e+02 7.646140801352e+00 0.0 
7.646140801352e+00 -2.427076176709e+02 0.0 
0.0 0.0 -1.043977844136e+02 
-1.094136147460e+02 1.182434833327e+01 0.0 
1.182434833327e+01 -2.488258257048e+02 0.0 
0.0 0.0 -1.070718321352e+02 
-5.071816118910e+01 2.822241597391e+00 0.0 
2.822241597391e+00 -7.828252183152e+01 0.0 
0.0 0.0 -3.830020490619e+01 
-4.638276963141e+01 6.197036479406e-01 0.0 
6.197036479406e-01 -7.647147773982e+01 0.0 
0.0 0.0 -3.645627421137e+01 
-4.531713282784e+01 3.492546953644e-01 0.0 
3.492546953644e-01 -7.753334067424e+01 0.0 
0.0 0.0 -3.645514205062e+01 
-7.193634768186e+01 4.265147827432e-01 0.0 
4.265147827432e-01 -1.478554811852e+02 0.0 
0.0 0.0 -6.553754866010e+01 
-1.571700968634e+02 4.027059128298e+00 0.0 
4.027059128298e+00 -3.732878799652e+02 0.0 
0.0 0.0 -1.587373930486e+02 
-1.930160919677e+01 1.457910073283e+00 0.0 
1.457910073283e+00 -1.466957274757e+01 0.0 
0.0 0.0 -1.019161845701e+01 
-6.982638747964e+00 -4.381655106840e-01 0.0 
-4.381655106840e-01 -1.723081882488e+01 0.0 
0.0 0.0 -7.253037558424e+00 
-1.305542069353e+02 5.638957506444e-01 0.0 
5.638957506444e-01 -3.232494812141e+02 0.0 
0.0 0.0 -1.357411064448e+02 
-4.320992368583e+01 -7.454151533905e-03 0.0 
-7.454151533905e-03 -7.518835922110e+01 0.0 
0.0 0.0 -3.511948487208e+01 
-2.522998266770e+01 -3.331128695465e-01 0.0 
-3.331128695465e-01 -6.912650410364e+01 0.0 
0.0 0.0 -2.790694603140e+01 
-1.144100998952e+02 1.929372440185e+01 0.0 
1.929372440185e+01 -2.584047880829e+02 0.0 
0.0 0.0 -1.114444663934e+02 
-1.372996345431e+02 2.539062311790e+01 0.0 
2.539062311790e+01 -3.259063184813e+02 0.0 
0.0 0.0 -1.385617859073e+02 
-1.286532904508e+02 2.674932732503e+01 0.0 
2.674932732503e+01 -3.007478130642e+02 0.0 
0.0 0.0 -1.284203310545e+02 
-1.429517842997e+02 2.100974620840e+01 0.0 
2.100974620840e+01 -3.427717944127e+02 0.0 
0.0 0.0 -1.453170736137e+02 
-1.502842049106e+02 1.562007073432e+01 0.0 
1.562007073432e+01 -3.592414533385e+02 0.0 
0.0 0.0 -1.524576974747e+02 
-1.668907516558e+01 -1.355740281144e+00 0.0 
-1.355740281144e+00 -1.716499762664e+01 0.0 
0.0 0.0 -1.014542346189e+01 
-4.787122072321e+01 1.296459722116e+00 0.0 
1.296459722116e+00 -7.636533993062e+01 0.0 
0.0 0.0 -3.687096819615e+01 
-1.530132179726e+02 8.937682447603e+00 0.0 
8.937682447603e+00 -3.659878980112e+02 0.0 
0.0 0.0 -1.553003347951e+02 
-8.636299052925e+01 5.912165239831e-01 0.0 
5.912165239831e-01 -1.871348281615e+02 0.0 
0.0 0.0 -8.164934560723e+01 
-1.076375467842e+01 -1.017527177120e+00 0.0 
-1.017527177120e+00 -1.708950748707e+01 0.0 
0.0 0.0 -8.356847449152e+00 
-6.231958285293e+01 -1.423728336690e-01 0.0 
-1.423728336690e-01 -1.690589381399e+02 0.0 
0.0 0.0 -6.901355629786e+01 
-1.060816087532e+02 2.805216276112e+00 0.0 
2.805216276112e+00 -2.449564274755e+02 0.0 
0.0 0.0 -1.049114108686e+02 
-2.615350746706e+01 1.760449907905e+01 0.0 
1.760449907905e+01 -3.113072455957e+01 0.0 
0.0 0.0 -1.678526960799e+01 
-2.442703643644e+01 1.572823166915e+01 0.0 
1.572823166915e+01 -2.737987568804e+01 0.0 
0.0 0.0 -1.514207363735e+01 
-3.097007677076e+01 1.661717778259e+01 0.0 
1.661717778259e+01 -3.129073433191e+01 0.0 
0.0 0.0 -1.827824333080e+01 
-4.264816722818e+01 7.781042951040e+00 0.0 
7.781042951040e+00 -5.322381753661e+01 0.0 
0.0 0.0 -2.836159542944e+01 
-1.920006545609e+01 9.340014760496e+00 0.0 
9.340014760496e+00 -1.775597196584e+01 0.0 
0.0 0.0 -1.073607926026e+01 
-5.730945966093e+01 1.607129788447e-01 0.0 
1.607129788447e-01 -1.102745688013e+02 0.0 
0.0 0.0 -4.987520853866e+01 
-1.592420809386e+02 2.243752192530e+00 0.0 
2.243752192530e+00 -3.771080703346e+02 0.0 
0.0 0.0 -1.605050453819e+02 
-6.148940014763e+00 -2.619114862828e-01 0.0 
-2.619114862828e-01 -1.638512341022e+01 0.0 
0.0 0.0 -6.716084768971e+00 
-9.992339229872e+01 6.826295850888e-01 0.0 
6.826295850888e-01 -2.263612580694e+02 0.0 
0.0 0.0 -9.748539511045e+01 
-5.415629850715e+01 5.352769058942e+00 0.0 
5.352769058942e+00 -8.079307378481e+01 0.0 
0.0 0.0 -4.008481168759e+01 
-5.914265701287e+01 7.610096947342e+00 0.0 
7.610096947342e+00 -9.123807110573e+01 0.0 
0.0 0.0 -4.471421843558e+01 
-6.204323734663e+01 6.566571158741e+00 0.0 
6.566571158741e+00 -9.939075900367e+01 0.0 
0.0 0.0 -4.803019890509e+01 
-6.763877311106e+01 9.385577032678e+00 0.0 
9.385577032678e+00 -1.121579728839e+02 0.0 
0.0 0.0 -5.353902379848e+01 
-7.096717469331e+01 8.580829976298e+00 0.0 
8.580829976298e+00 -1.210258803408e+02 0.0 
0.0 0.0 -5.719791651022e+01 
-7.563279877045e+01 1.091542815936e+01 0.0 
1.091542815936e+01 -1.328676610523e+02 0.0 
0.0 0.0 -6.215013794681e+01 
-7.248865252563e+01 1.190777376103e+01 0.0 
1.190777376103e+01 -1.245946577237e+02 0.0 
0.0 0.0 -5.872499307480e+01 
-8.015667179874e+01 1.325648435291e+01 0.0 
1.325648435291e+01 -1.455005346681e+02 0.0 
0.0 0.0 -6.729716194004e+01 
-7.683490014998e+01 1.434489881491e+01 0.0 
1.434489881491e+01 -1.377646104853e+02 0.0 
0.0 0.0 -6.397985319058e+01 
-7.900660849320e+01 1.020068710848e+01 0.0 
1.020068710848e+01 -1.418915664919e+02 0.0 
0.0 0.0 -6.586945249554e+01 
-8.430712098176e+01 1.545809976770e+01 0.0 
1.545809976770e+01 -1.587584897024e+02 0.0 
0.0 0.0 -7.251968320525e+01 
-8.086352416733e+01 1.654270533927e+01 0.0 
1.654270533927e+01 -1.516333007264e+02 0.0 
0.0 0.0 -6.934904746813e+01 
-8.819499423185e+01 1.741376514063e+01 0.0 
1.741376514063e+01 -1.725568710479e+02 0.0 
0.0 0.0 -7.782555958392e+01 
-8.464386655751e+01 1.840987197558e+01 0.0 
1.840987197558e+01 -1.660270544323e+02 0.0 
0.0 0.0 -7.480127629695e+01 
-7.720552887616e+01 1.777860454192e+01 0.0 
1.777860454192e+01 -1.453139830823e+02 0.0 
0.0 0.0 -6.635585358753e+01 
-8.083599831482e+01 1.942853912784e+01 0.0 
1.942853912784e+01 -1.602623964945e+02 0.0 
0.0 0.0 -7.192951844281e+01 
-7.328642721127e+01 1.904934730175e+01 0.0 
1.904934730175e+01 -1.397507528435e+02 0.0 
0.0 0.0 -6.351115401642e+01 
-7.679578510141e+01 2.038228439788e+01 0.0 
2.038228439788e+01 -1.552399652635e+02 0.0 
0.0 0.0 -6.921072510946e+01 
-8.436186445356e+01 2.062297336911e+01 0.0 
2.062297336911e+01 -1.753545780457e+02 0.0 
0.0 0.0 -7.751493274979e+01 
-8.025596037645e+01 2.123038698904e+01 0.0 
2.123038698904e+01 -1.706823846870e+02 0.0 
0.0 0.0 -7.488150351903e+01 
-7.251806961866e+01 2.113246030289e+01 0.0 
2.113246030289e+01 -1.509027790918e+02 0.0 
0.0 0.0 -6.662625461315e+01 
-7.594997385628e+01 2.159174752036e+01 0.0 
2.159174752036e+01 -1.665120451525e+02 0.0 
0.0 0.0 -7.233860570262e+01 
-6.814851248420e+01 2.155107855586e+01 0.0 
2.155107855586e+01 -1.471764266120e+02 0.0 
0.0 0.0 -6.419748172885e+01 
-7.161008108799e+01 2.161880093616e+01 0.0 
2.161880093616e+01 -1.628080967348e+02 0.0 
0.0 0.0 -6.992545334684e+01 
-6.379828872658e+01 2.156268603293e+01 0.0 
2.156268603293e+01 -1.438737593334e+02 0.0 
0.0 0.0 -6.190161441800e+01 
-6.730716933235e+01 2.128544567757e+01 0.0 
2.128544567757e+01 -1.593814154034e+02 0.0 
0.0 0.0 -6.760657542071e+01 
-7.517233112936e+01 2.140165453937e+01 0.0 
2.140165453937e+01 -1.780060087802e+02 0.0 
0.0 0.0 -7.555350197287e+01 
-7.090095910006e+01 2.078931196062e+01 0.0 
2.078931196062e+01 -1.743486280816e+02 0.0 
0.0 0.0 -7.317487615449e+01 
-6.311766519427e+01 2.059922912483e+01 0.0 
2.059922912483e+01 -1.560811611150e+02 0.0 
0.0 0.0 -6.535964789278e+01 
-6.675652336286e+01 1.986109172526e+01 0.0 
1.986109172526e+01 -1.707271513145e+02 0.0 
0.0 0.0 -7.084510240321e+01 
-5.913250748975e+01 1.956203825355e+01 0.0 
1.956203825355e+01 -1.527787965815e+02 0.0 
0.0 0.0 -6.317339122137e+01 
-6.279963379304e+01 1.862388282448e+01 0.0 
1.862388282448e+01 -1.669976594438e+02 0.0 
0.0 0.0 -6.853918797106e+01 
-7.053442996843e+01 1.902132668528e+01 0.0 
1.902132668528e+01 -1.848334709967e+02 0.0 
0.0 0.0 -7.621037028955e+01 
-6.660961725882e+01 1.764040436172e+01 0.0 
1.764040436172e+01 -1.806736288087e+02 0.0 
0.0 0.0 -7.378497382026e+01 
-5.904475862654e+01 1.711735336016e+01 0.0 
1.711735336016e+01 -1.629993327485e+02 0.0 
0.0 0.0 -6.621322741250e+01 
-6.287855963118e+01 1.603541078671e+01 0.0 
1.603541078671e+01 -1.762400477619e+02 0.0 
0.0 0.0 -7.133558221793e+01 
-5.552249609341e+01 1.539398439314e+01 0.0 
1.539398439314e+01 -1.586709619811e+02 0.0 
0.0 0.0 -6.385803742235e+01 
-5.938532466496e+01 1.424690607542e+01 0.0 
1.424690607542e+01 -1.714879893064e+02 0.0 
0.0 0.0 -6.886199419139e+01 
-5.227540682412e+01 1.349911709504e+01 0.0 
1.349911709504e+01 -1.539559542919e+02 0.0 
0.0 0.0 -6.146940833480e+01 
-5.611097961126e+01 1.231618283595e+01 0.0 
1.231618283595e+01 -1.662637702648e+02 0.0 
0.0 0.0 -6.631242496281e+01 
-6.340688356634e+01 1.315772718358e+01 0.0 
1.315772718358e+01 -1.837882287160e+02 0.0 
0.0 0.0 -7.375853368471e+01 
-6.011905177433e+01 1.124310703300e+01 0.0 
1.124310703300e+01 -1.781193474328e+02 0.0 
0.0 0.0 -7.107151976213e+01 
-5.307541091989e+01 1.032324089685e+01 0.0 
1.032324089685e+01 -1.605590303809e+02 0.0 
0.0 0.0 -6.369033239023e+01 
-5.702266835206e+01 9.282311015857e+00 0.0 
9.282311015857e+00 -1.719053686209e+02 0.0 
0.0 0.0 -6.827841109189e+01 
-6.428010301309e+01 1.027764835170e+01 0.0 
1.027764835170e+01 -1.895819400802e+02 0.0 
0.0 0.0 -7.575861292798e+01 
-6.111111522355e+01 8.378516151861e+00 0.0 
8.378516151861e+00 -1.828798555366e+02 0.0 
0.0 0.0 -7.279729122804e+01 
-6.858057359430e+01 9.433196639101e+00 0.0 
9.433196639101e+00 -2.006817908020e+02 0.0 
0.0 0.0 -8.037870931889e+01 
-6.533467027049e+01 7.605902135185e+00 0.0 
7.605902135185e+00 -1.935431403263e+02 0.0 
0.0 0.0 -7.726334317904e+01 
-5.814385456453e+01 6.525835537825e+00 0.0 
6.525835537825e+00 -1.757536355372e+02 0.0 
0.0 0.0 -6.976924703053e+01 
-6.226364047699e+01 5.842490926641e+00 0.0 
5.842490926641e+00 -1.859835938483e+02 0.0 
0.0 0.0 -7.407417029758e+01 
-6.966929756280e+01 6.953714760814e+00 0.0 
6.953714760814e+00 -2.039081758873e+02 0.0 
0.0 0.0 -8.167324203503e+01 
-6.647425760568e+01 5.284080045845e+00 0.0 
5.284080045845e+00 -1.959310584289e+02 0.0 
0.0 0.0 -7.832159481038e+01 
-5.933289589100e+01 4.181583972508e+00 0.0 
4.181583972508e+00 -1.779890405557e+02 0.0 
0.0 0.0 -7.079658093401e+01 
-6.342773683110e+01 3.729850414646e+00 0.0 
3.729850414646e+00 -1.876017951009e+02 0.0 
0.0 0.0 -7.490885957962e+01 
-7.078936255497e+01 4.839441896430e+00 0.0 
4.839441896430e+00 -2.057018554701e+02 0.0 
0.0 0.0 -8.254736540751e+01 
-6.760800779847e+01 3.387848842011e+00 0.0 
3.387848842011e+00 -1.970435784080e+02 0.0 
0.0 0.0 -7.899547586194e+01 
-6.047246834711e+01 2.316959463279e+00 0.0 
2.316959463279e+00 -1.788841011414e+02 0.0 
0.0 0.0 -7.140697084654e+01 
-6.451101152496e+01 2.085957768314e+00 0.0 
2.085957768314e+00 -1.880596638357e+02 0.0 
0.0 0.0 -7.537120260821e+01 
-7.190314388288e+01 3.145257977742e+00 0.0 
3.145257977742e+00 -2.064488049929e+02 0.0 
0.0 0.0 -8.310558466272e+01 
-6.862211210576e+01 1.942005936376e+00 0.0 
1.942005936376e+00 -1.971393182314e+02 0.0 
0.0 0.0 -7.932842910113e+01 
-6.144017087872e+01 9.456644289948e-01 0.0 
9.456644289948e-01 -1.786868989365e+02 0.0 
0.0 0.0 -7.163812094456e+01 
-6.538099357598e+01 8.941527696060e-01 0.0 
8.941527696060e-01 -1.875208922949e+02 0.0 
0.0 0.0 -7.547056576126e+01 
-7.282318620738e+01 1.863096104718e+00 0.0 
1.863096104718e+00 -2.062161344086e+02 0.0 
0.0 0.0 -8.331179618479e+01 
-6.938903124201e+01 9.008395511415e-01 0.0 
9.008395511415e-01 -1.963276774532e+02 0.0 
0.0 0.0 -7.931501260857e+01 
-7.707466499993e+01 1.830537642460e+00 0.0 
1.830537642460e+00 -2.152186557510e+02 0.0 
0.0 0.0 -8.728799622528e+01 
-6.208590319154e+01 1.250701797386e-02 0.0 
1.250701797386e-02 -1.774580770274e+02 0.0 
0.0 0.0 -7.146319406568e+01 
-6.593212482679e+01 1.057623322513e-01 0.0 
1.057623322513e-01 -1.861276763921e+02 0.0 
0.0 0.0 -7.521794036566e+01 
-5.873704871157e+01 -6.900058120776e-01 0.0 
-6.900058120776e-01 -1.670418992541e+02 0.0 
0.0 0.0 -6.733368438969e+01 
-6.245684823380e+01 -5.160700651052e-01 0.0 
-5.160700651052e-01 -1.756858758894e+02 0.0 
0.0 0.0 -7.104281723696e+01 
-7.448117831914e+01 1.814459318331e+01 0.0 
1.814459318331e+01 -1.984398755327e+02 0.0 
0.0 0.0 -8.147631615555e+01 
-5.535008160732e+01 -1.199000188586e+00 0.0 
-1.199000188586e+00 -1.564216925447e+02 0.0 
0.0 0.0 -6.313153224561e+01 
-5.192361249219e+01 -1.397034949235e+00 0.0 
-1.397034949235e+00 -1.480622064445e+02 0.0 
0.0 0.0 -5.959574568102e+01 
-5.894088165088e+01 -9.630846483812e-01 0.0 
-9.630846483812e-01 -1.650603990832e+02 0.0 
0.0 0.0 -6.680038422021e+01 
-6.627498099845e+01 -3.255622508929e-01 0.0 
-3.255622508929e-01 -1.844539437497e+02 0.0 
0.0 0.0 -7.481867742444e+01 
-5.187960143495e+01 -1.528845717363e+00 0.0 
-1.528845717363e+00 -1.456235809761e+02 0.0 
0.0 0.0 -5.885095472331e+01 
-5.536200565373e+01 -1.256942272279e+00 0.0 
-1.256942272279e+00 -1.542745793889e+02 0.0 
0.0 0.0 -6.249097551279e+01 
-4.832854195652e+01 -1.711616209529e+00 0.0 
-1.711616209529e+00 -1.347088578644e+02 0.0 
0.0 0.0 -5.451121994628e+01 
-4.847804749927e+01 1.471628555236e+01 0.0 
1.471628555236e+01 -1.408255789459e+02 0.0 
0.0 0.0 -5.639108793355e+01 
-8.790645778020e+01 2.143669879695e+01 0.0 
2.143669879695e+01 -1.904456060055e+02 0.0 
0.0 0.0 -8.310561913571e+01 
-5.170750973459e+01 -1.416384362426e+00 0.0 
-1.416384362426e+00 -1.433723258190e+02 0.0 
0.0 0.0 -5.812395066608e+01 
-4.466572031897e+01 -1.733853865588e+00 0.0 
-1.733853865588e+00 -1.236902474872e+02 0.0 
0.0 0.0 -5.010679034185e+01 
-4.148722891649e+01 -2.039455722979e+00 0.0 
-2.039455722979e+00 -1.150545705371e+02 0.0 
0.0 0.0 -4.656253983607e+01 
-3.782959391675e+01 -1.950566461034e+00 0.0 
-1.950566461034e+00 -1.039682732290e+02 0.0 
0.0 0.0 -4.213936014373e+01 
-7.441688933714e+01 8.170289389940e+00 0.0 
8.170289389940e+00 -1.305583441542e+02 0.0 
0.0 0.0 -6.109257004741e+01 
-8.191310310874e+01 9.577496142817e+00 0.0 
9.577496142817e+00 -1.511388748155e+02 0.0 
0.0 0.0 -6.951559337726e+01 
-7.707285105771e+01 7.600453579057e+00 0.0 
7.600453579057e+00 -1.394579950394e+02 0.0 
0.0 0.0 -6.455925382912e+01 
-8.471549595522e+01 9.150494448758e+00 0.0 
9.150494448758e+00 -1.605376838304e+02 0.0 
0.0 0.0 -7.317595393568e+01 
-8.017232518357e+01 7.323834840586e+00 0.0 
7.323834840586e+00 -1.496030747466e+02 0.0 
0.0 0.0 -6.853261997906e+01 
-4.092044601195e+01 -1.618154375389e+00 0.0 
-1.618154375389e+00 -1.125680401560e+02 0.0 
0.0 0.0 -4.564654585038e+01 
-9.154124442646e+01 1.651912147991e+01 0.0 
1.651912147991e+01 -1.799074547420e+02 0.0 
0.0 0.0 -8.103460975053e+01 
-8.913668636870e+01 1.107756437906e+01 0.0 
1.107756437906e+01 -1.719608228963e+02 0.0 
0.0 0.0 -7.792925277949e+01 
-6.472658288079e+01 2.107426713452e+01 0.0 
2.107426713452e+01 -1.311058488060e+02 0.0 
0.0 0.0 -5.834972950605e+01 
-5.557493173859e+01 2.037251276612e+01 0.0 
2.037251276612e+01 -1.379469862219e+02 0.0 
0.0 0.0 -5.765657538813e+01 
-7.200702702572e+01 1.128271045814e+01 0.0 
1.128271045814e+01 -2.073860031982e+02 0.0 
0.0 0.0 -8.341790906717e+01 
-5.891652976039e+01 -9.745585871965e-01 0.0 
-9.745585871965e-01 -1.629521774845e+02 0.0 
0.0 0.0 -6.616061217346e+01 
-5.516795374545e+01 -1.125421962281e+00 0.0 
-1.125421962281e+00 -1.520771375008e+02 0.0 
0.0 0.0 -6.177352737387e+01 
-6.248332662422e+01 -6.908922512712e-01 0.0 
-6.908922512712e-01 -1.716752180643e+02 0.0 
0.0 0.0 -6.984756340657e+01 
-8.069341814122e+01 2.871157152811e+00 0.0 
2.871157152811e+00 -2.249998112947e+02 0.0 
0.0 0.0 -9.130796883076e+01 
-8.514454907170e+01 2.785642599632e+00 0.0 
2.785642599632e+00 -2.341041998300e+02 0.0 
0.0 0.0 -9.537462467052e+01 
-8.896874251374e+01 3.892923142303e+00 0.0 
3.892923142303e+00 -2.437905477958e+02 0.0 
0.0 0.0 -9.942778709286e+01 
-9.359722665347e+01 3.747308494227e+00 0.0 
3.747308494227e+00 -2.529536740613e+02 0.0 
0.0 0.0 -1.035652702144e+02 
-9.764383995890e+01 4.912653344106e+00 0.0 
4.912653344106e+00 -2.625582029760e+02 0.0 
0.0 0.0 -1.076606128805e+02 
-1.024305739553e+02 4.696506128672e+00 0.0 
4.696506128672e+00 -2.717592256158e+02 0.0 
0.0 0.0 -1.118569398713e+02 
-9.822866920831e+01 3.605387783099e+00 0.0 
3.605387783099e+00 -2.619934613968e+02 0.0 
0.0 0.0 -1.076666391815e+02 
-1.072122874889e+02 4.478247567423e+00 0.0 
4.478247567423e+00 -2.808294110302e+02 0.0 
0.0 0.0 -1.160125095558e+02 
-1.028564773787e+02 3.452935423735e+00 0.0 
3.452935423735e+00 -2.709275198875e+02 0.0 
0.0 0.0 -1.117351991799e+02 
-1.067081630100e+02 5.910761816071e+00 0.0 
5.910761816071e+00 -2.812843582295e+02 0.0 
0.0 0.0 -1.159977563718e+02 
-1.017446628524e+02 6.200715798004e+00 0.0 
6.200715798004e+00 -2.718640467948e+02 0.0 
0.0 0.0 -1.116826128942e+02 
-1.119817215237e+02 4.241883900742e+00 0.0 
4.241883900742e+00 -2.897772163149e+02 0.0 
0.0 0.0 -1.201276813516e+02 
-1.074726100594e+02 3.272331168498e+00 0.0 
3.272331168498e+00 -2.797586722637e+02 0.0 
0.0 0.0 -1.157693846969e+02 
-1.167375646413e+02 3.970886364787e+00 0.0 
3.970886364787e+00 -2.986149562834e+02 0.0 
0.0 0.0 -1.242057562774e+02 
-1.120734200811e+02 3.054886964562e+00 0.0 
3.054886964562e+00 -2.884972411628e+02 0.0 
0.0 0.0 -1.197711983732e+02 
-1.029985971792e+02 2.422343183069e+00 0.0 
2.422343183069e+00 -2.695265508120e+02 0.0 
0.0 0.0 -1.113575443974e+02 
-1.074347544501e+02 2.253204484840e+00 0.0 
2.253204484840e+00 -2.781757016549e+02 0.0 
0.0 0.0 -1.152831368315e+02 
-9.857951577700e+01 1.707339365711e+00 0.0 
1.707339365711e+00 -2.591879063567e+02 0.0 
0.0 0.0 -1.069302266401e+02 
-7.649957775708e+01 1.049792756376e+01 0.0 
1.049792756376e+01 -2.185962231475e+02 0.0 
0.0 0.0 -8.812874027137e+01 
-8.016125105997e+01 1.229591265163e+01 0.0 
1.229591265163e+01 -2.253272421375e+02 0.0 
0.0 0.0 -9.124654795923e+01 
-8.483880948930e+01 1.156835285011e+01 0.0 
1.156835285011e+01 -2.366245161146e+02 0.0 
0.0 0.0 -9.603899768116e+01 
-8.871692938375e+01 1.332187552080e+01 0.0 
1.332187552080e+01 -2.433959125434e+02 0.0 
0.0 0.0 -9.923385257814e+01 
-9.358810110152e+01 1.265716259929e+01 0.0 
1.265716259929e+01 -2.547619640540e+02 0.0 
0.0 0.0 -1.041050195467e+02 
-9.764909737413e+01 1.437509199525e+01 0.0 
1.437509199525e+01 -2.615623529747e+02 0.0 
0.0 0.0 -1.073634351047e+02 
-1.027167115565e+02 1.377123135731e+01 0.0 
1.377123135731e+01 -2.729501490169e+02 0.0 
0.0 0.0 -1.123000581720e+02 
-9.858831688281e+01 1.205781372387e+01 0.0 
1.205781372387e+01 -2.657910122528e+02 0.0 
0.0 0.0 -1.089137987407e+02 
-9.187607664777e+01 1.909933628410e+01 0.0 
1.909933628410e+01 -1.867263410146e+02 0.0 
0.0 0.0 -8.318072529870e+01 
-5.025096199896e+01 8.296627250628e+00 0.0 
8.296627250628e+00 -1.543348859087e+02 0.0 
0.0 0.0 -6.097575437231e+01 
-4.653351459699e+01 9.412385946397e+00 0.0 
9.412385946397e+00 -1.430916401014e+02 0.0 
0.0 0.0 -5.648754640952e+01 
-4.401070766666e+01 7.326359198764e+00 0.0 
7.326359198764e+00 -1.368737920079e+02 0.0 
0.0 0.0 -5.386534990236e+01 
-4.057136734281e+01 8.515214050176e+00 0.0 
8.515214050176e+00 -1.257555654744e+02 0.0 
0.0 0.0 -4.949807984516e+01 
-3.835155431206e+01 6.391443521691e+00 0.0 
6.391443521691e+00 -1.195051866860e+02 0.0 
0.0 0.0 -4.695702229941e+01 
-3.525716172854e+01 7.668052868377e+00 0.0 
7.668052868377e+00 -1.085342019702e+02 0.0 
0.0 0.0 -4.273740910963e+01 
-3.332041355193e+01 5.534859660297e+00 0.0 
5.534859660297e+00 -1.021671982320e+02 0.0 
0.0 0.0 -4.024628353519e+01 
-3.630125917856e+01 4.351770343666e+00 0.0 
4.351770343666e+00 -1.125974205077e+02 0.0 
0.0 0.0 -4.426960390588e+01 
-3.154422615975e+01 3.518002638182e+00 0.0 
3.518002638182e+00 -9.509051435343e+01 0.0 
0.0 0.0 -3.759042215395e+01 
-3.438313415146e+01 2.459229956002e+00 0.0 
2.459229956002e+00 -1.050017339045e+02 0.0 
0.0 0.0 -4.141546041679e+01 
-2.984984935994e+01 1.675280385656e+00 0.0 
1.675280385656e+00 -8.727648827771e+01 0.0 
0.0 0.0 -3.473790129130e+01 
-3.251169335699e+01 7.778298650003e-01 0.0 
7.778298650003e-01 -9.666729555339e+01 0.0 
0.0 0.0 -3.835369667312e+01 
-7.886288066590e+01 2.100189567319e+01 0.0 
2.100189567319e+01 -1.927594600559e+02 0.0 
0.0 0.0 -8.108670221654e+01 
-9.272155902214e+01 1.503924492253e+01 0.0 
1.503924492253e+01 -2.497938313583e+02 0.0 
0.0 0.0 -1.023546171141e+02 
-1.018355955645e+02 1.605512811881e+01 0.0 
1.605512811881e+01 -2.680441109225e+02 0.0 
0.0 0.0 -1.105639119461e+02 
-9.681297690794e+01 1.668173318251e+01 0.0 
1.668173318251e+01 -2.557953793673e+02 0.0 
0.0 0.0 -1.053825068826e+02 
-3.480499002706e+01 -2.214613876669e+00 0.0 
-2.214613876669e+00 -9.536553394768e+01 0.0 
0.0 0.0 -3.865115719242e+01 
-1.166555711713e+02 2.788877581011e+00 0.0 
2.788877581011e+00 -2.971633440069e+02 0.0 
0.0 0.0 -1.237456745534e+02 
-1.110628572429e+02 7.245362107948e+00 0.0 
7.245362107948e+00 -2.905356767385e+02 0.0 
0.0 0.0 -1.200795601944e+02 
-1.059117063116e+02 7.593316348683e+00 0.0 
7.593316348683e+00 -2.808323509998e+02 0.0 
0.0 0.0 -1.156232171934e+02 
-1.079351656743e+02 1.320816242823e+01 0.0 
1.320816242823e+01 -2.840371572331e+02 0.0 
0.0 0.0 -1.171916968722e+02 
-3.409464428087e+01 -1.745985102674e+00 0.0 
-1.745985102674e+00 -9.297062075415e+01 0.0 
0.0 0.0 -3.771957951051e+01 
-3.066746869901e+01 6.943828671049e+00 0.0 
6.943828671049e+00 -9.143901352393e+01 0.0 
0.0 0.0 -3.623194466688e+01 
-3.242657312823e+01 9.119810526725e+00 0.0 
9.119810526725e+00 -9.702116364176e+01 0.0 
0.0 0.0 -3.843432103100e+01 
-8.746010024757e+01 8.799983565020e+00 0.0 
8.799983565020e+00 -1.702032150245e+02 0.0 
0.0 0.0 -7.689899458162e+01 
-8.304779530360e+01 7.101732380559e+00 0.0 
7.101732380559e+00 -1.595347723439e+02 0.0 
0.0 0.0 -7.237477029425e+01 
-1.155279890153e+02 8.675686934032e+00 0.0 
8.675686934032e+00 -2.995236096832e+02 0.0 
0.0 0.0 -1.241154796095e+02 
-3.715109338190e+01 -1.451739261388e+00 0.0 
-1.451739261388e+00 -1.015502076040e+02 0.0 
0.0 0.0 -4.121039029577e+01 
-1.165576139820e+02 5.325164467749e+00 0.0 
5.325164467749e+00 -2.995953742351e+02 0.0 
0.0 0.0 -1.244458964651e+02 
-2.747366200810e+01 2.810941352879e+00 0.0 
2.810941352879e+00 -7.765945249180e+01 0.0 
0.0 0.0 -3.113993434997e+01 
-1.118623598913e+02 2.030087806848e+00 0.0 
2.030087806848e+00 -2.867716316630e+02 0.0 
0.0 0.0 -1.191901974663e+02 
-1.211920242793e+02 2.469937345896e+00 0.0 
2.469937345896e+00 -3.057505238092e+02 0.0 
0.0 0.0 -1.276827644266e+02 
-9.409666539569e+01 2.645390968668e+00 0.0 
2.645390968668e+00 -2.520317863381e+02 0.0 
0.0 0.0 -1.034385355202e+02 
-1.061077262964e+02 1.768108931548e+01 0.0 
1.768108931548e+01 -2.742332664735e+02 0.0 
0.0 0.0 -1.137022978310e+02 
-1.009860144501e+02 1.821119736422e+01 0.0 
1.821119736422e+01 -2.614898204459e+02 0.0 
0.0 0.0 -1.083427504688e+02 
-3.748240032405e+01 1.656073205034e+00 0.0 
1.656073205034e+00 -1.147264338353e+02 0.0 
0.0 0.0 -4.526265024780e+01 
-3.539687800517e+01 2.053960577167e-01 0.0 
2.053960577167e-01 -1.060032203865e+02 0.0 
0.0 0.0 -4.202002951750e+01 
-3.068682664523e+01 -5.484763969626e-01 0.0 
-5.484763969626e-01 -8.805377623458e+01 0.0 
0.0 0.0 -3.522218086394e+01 
-3.368833111369e+01 -1.008755480532e+00 0.0 
-1.008755480532e+00 -9.749034680996e+01 0.0 
0.0 0.0 -3.895360337710e+01 
-3.852039034742e+01 -2.727922376813e-01 0.0 
-2.727922376813e-01 -1.154168365142e+02 0.0 
0.0 0.0 -4.578116805849e+01 
-3.624663331961e+01 -1.405598738146e+00 0.0 
-1.405598738146e+00 -1.057800359430e+02 0.0 
0.0 0.0 -4.220800077878e+01 
-3.130001897577e+01 -2.062613412717e+00 0.0 
-2.062613412717e+00 -8.739703491313e+01 0.0 
0.0 0.0 -3.520911616667e+01 
-3.384356393459e+01 -2.172597069734e+00 0.0 
-2.172597069734e+00 -9.573445977682e+01 0.0 
0.0 0.0 -3.847340711342e+01 
-3.919869569358e+01 -1.567565405968e+00 0.0 
-1.567565405968e+00 -1.144947242132e+02 0.0 
0.0 0.0 -4.570802597203e+01 
-3.657077517680e+01 -2.240636506157e+00 0.0 
-2.240636506157e+00 -1.042367542582e+02 0.0 
0.0 0.0 -4.184225883049e+01 
-3.126956174295e+01 -2.646854992871e+00 0.0 
-2.646854992871e+00 -8.515516685060e+01 0.0 
0.0 0.0 -3.452741857807e+01 
-3.372389803290e+01 -2.613311974089e+00 0.0 
-2.613311974089e+00 -9.355602678896e+01 0.0 
0.0 0.0 -3.778397744656e+01 
-1.261505745964e+02 3.282078112343e+00 0.0 
3.282078112343e+00 -3.160072237822e+02 0.0 
0.0 0.0 -1.322473395136e+02 
-2.604337194098e+01 1.048807287622e+00 0.0 
1.048807287622e+00 -6.957926868817e+01 0.0 
0.0 0.0 -2.828679218874e+01 
-6.957518169921e+01 1.715900008772e+01 0.0 
1.715900008772e+01 -1.244102347327e+02 0.0 
0.0 0.0 -5.779562492959e+01 
-1.207683518474e+02 8.250975485813e+00 0.0 
8.250975485813e+00 -3.091368954029e+02 0.0 
0.0 0.0 -1.285715741751e+02 
-1.121644072436e+02 1.490954736405e+01 0.0 
1.490954736405e+01 -2.909943597552e+02 0.0 
0.0 0.0 -1.205476300996e+02 
-9.015351825448e+01 8.491379978921e+00 0.0 
8.491379978921e+00 -1.801027015161e+02 0.0 
0.0 0.0 -8.067686593117e+01 
-8.588834058309e+01 6.902884802813e+00 0.0 
6.902884802813e+00 -1.697036556174e+02 0.0 
0.0 0.0 -7.627759886015e+01 
-7.847039004317e+01 5.532984331305e+00 0.0 
5.532984331305e+00 -1.492276044490e+02 0.0 
0.0 0.0 -6.790939834765e+01 
-8.152528774448e+01 5.454608315910e+00 0.0 
5.454608315910e+00 -1.597002210971e+02 0.0 
0.0 0.0 -7.196765265248e+01 
-8.869665614842e+01 6.714185512489e+00 0.0 
6.714185512489e+00 -1.801242830806e+02 0.0 
0.0 0.0 -8.024628176871e+01 
-8.454039709031e+01 5.352693596606e+00 0.0 
5.352693596606e+00 -1.702549931246e+02 0.0 
0.0 0.0 -7.603861706448e+01 
-7.711552094097e+01 4.211398059215e+00 0.0 
4.211398059215e+00 -1.499680686309e+02 0.0 
0.0 0.0 -6.772507687155e+01 
-8.035582329362e+01 4.171160755443e+00 0.0 
4.171160755443e+00 -1.605962925577e+02 0.0 
0.0 0.0 -7.188563475539e+01 
-7.273953757120e+01 3.158283380617e+00 0.0 
3.158283380617e+00 -1.404287510267e+02 0.0 
0.0 0.0 -6.355048657935e+01 
-7.616868194553e+01 3.166463175343e+00 0.0 
3.166463175343e+00 -1.511451396662e+02 0.0 
0.0 0.0 -6.779414648350e+01 
-8.358040409761e+01 4.084622518013e+00 0.0 
4.084622518013e+00 -1.713034927433e+02 0.0 
0.0 0.0 -7.606516905227e+01 
-7.958153592254e+01 3.142203996466e+00 0.0 
3.142203996466e+00 -1.619622505551e+02 0.0 
0.0 0.0 -7.206313594329e+01 
-7.199022980527e+01 2.327982615387e+00 0.0 
2.327982615387e+00 -1.419153160463e+02 0.0 
0.0 0.0 -6.377166375547e+01 
-7.558593934449e+01 2.351492431972e+00 0.0 
2.351492431972e+00 -1.527436425296e+02 0.0 
0.0 0.0 -6.809887456222e+01 
-6.784948321788e+01 1.669482012580e+00 0.0 
1.669482012580e+00 -1.327648787350e+02 0.0 
0.0 0.0 -5.978430858588e+01 
-7.163335261402e+01 1.720008946869e+00 0.0 
1.720008946869e+00 -1.435336126781e+02 0.0 
0.0 0.0 -6.415008958763e+01 
-7.918499057205e+01 2.259033417791e+00 0.0 
2.259033417791e+00 -1.636414904451e+02 0.0 
0.0 0.0 -7.244794430516e+01 
-3.057746649311e+01 -1.490906720029e+00 0.0 
-1.490906720029e+00 -8.246845831368e+01 0.0 
0.0 0.0 -3.351377744204e+01 
-1.037119199862e+02 1.151206256141e+01 0.0 
1.151206256141e+01 -2.765385817333e+02 0.0 
0.0 0.0 -1.136751505158e+02 
-1.133308927811e+02 1.267242664169e+01 0.0 
1.267242664169e+01 -2.949499437493e+02 0.0 
0.0 0.0 -1.220842509591e+02 
-5.877827042819e+01 -7.345333815372e-01 0.0 
-7.345333815372e-01 -1.613453638728e+02 0.0 
0.0 0.0 -6.563709029031e+01 
-6.597034069453e+01 -3.997964943561e-01 0.0 
-3.997964943561e-01 -1.801363111878e+02 0.0 
0.0 0.0 -7.343199556469e+01 
-7.001968689443e+01 -3.171055933070e-01 0.0 
-3.171055933070e-01 -1.911374554366e+02 0.0 
0.0 0.0 -7.794714269930e+01 
-7.388294077394e+01 -1.203083580191e-01 0.0 
-1.203083580191e-01 -1.999568542220e+02 0.0 
0.0 0.0 -8.175193849878e+01 
-7.534866666648e+01 1.634817802495e+00 0.0 
1.634817802495e+00 -1.543345000545e+02 0.0 
0.0 0.0 -6.850495001629e+01 
-8.270398310066e+01 2.067388405118e+00 0.0 
2.067388405118e+00 -1.745769008728e+02 0.0 
0.0 0.0 -7.678426519203e+01 
-2.833340696896e+01 8.561444000559e+00 0.0 
8.561444000559e+00 -8.019063266874e+01 0.0 
0.0 0.0 -3.215721189131e+01 
-2.993352325044e+01 1.069328466913e+01 0.0 
1.069328466913e+01 -8.492717197650e+01 0.0 
0.0 0.0 -3.405820856808e+01 
-9.428758781035e+01 1.021423773011e+01 0.0 
1.021423773011e+01 -1.909082327447e+02 0.0 
0.0 0.0 -8.515874616652e+01 
-1.162668253710e+02 1.764773129172e+00 0.0 
1.764773129172e+00 -2.953568958855e+02 0.0 
0.0 0.0 -1.230871163770e+02 
-1.071373478192e+02 1.388824468698e+00 0.0 
1.388824468698e+00 -2.763218657244e+02 0.0 
0.0 0.0 -1.146377640631e+02 
-5.184607874238e+01 1.920526853599e+01 0.0 
1.920526853599e+01 -1.349604747054e+02 0.0 
0.0 0.0 -5.564196603434e+01 
-4.838542736194e+01 2.003013064286e+01 0.0 
2.003013064286e+01 -1.198962044216e+02 0.0 
0.0 0.0 -5.008448953507e+01 
-4.502023619945e+01 1.876277113097e+01 0.0 
1.876277113097e+01 -1.171659157880e+02 0.0 
0.0 0.0 -4.825584559624e+01 
-4.163528339836e+01 1.950713518917e+01 0.0 
1.950713518917e+01 -1.015760485424e+02 0.0 
0.0 0.0 -4.256339958222e+01 
-4.493274215446e+01 2.057975387125e+01 0.0 
2.057975387125e+01 -1.040292164501e+02 0.0 
0.0 0.0 -4.428858758138e+01 
-3.874237546704e+01 1.818653484875e+01 0.0 
1.818653484875e+01 -9.900307888675e+01 0.0 
0.0 0.0 -4.092363630614e+01 
-9.670576919724e+01 6.477894060279e+00 0.0 
6.477894060279e+00 -2.620948177081e+02 0.0 
0.0 0.0 -1.072401760716e+02 
-8.680862318650e+01 3.952559028872e+00 0.0 
3.952559028872e+00 -1.821522870194e+02 0.0 
0.0 0.0 -8.028827306178e+01 
-3.842677651588e+01 -2.324511049982e+00 0.0 
-2.324511049982e+00 -1.065089182745e+02 0.0 
0.0 0.0 -4.308070843713e+01 
-3.201153501658e+01 -2.446400898638e+00 0.0 
-2.446400898638e+00 -8.690493179824e+01 0.0 
0.0 0.0 -3.527494004445e+01 
-1.256697771757e+02 2.103612381098e+00 0.0 
2.103612381098e+00 -3.143172910021e+02 0.0 
0.0 0.0 -1.315961204534e+02 
-9.453502051915e+01 1.035140025449e+01 0.0 
1.035140025449e+01 -2.582305905855e+02 0.0 
0.0 0.0 -1.054296833314e+02 
-8.314613854050e+01 2.157865890062e+01 0.0 
2.157865890062e+01 -1.967515891862e+02 0.0 
0.0 0.0 -8.356931831800e+01 
-8.697751738559e+01 2.129052500740e+01 0.0 
2.129052500740e+01 -2.113519977450e+02 0.0 
0.0 0.0 -8.909885453917e+01 
-9.122862429296e+01 2.187475393245e+01 0.0 
2.187475393245e+01 -2.156962011953e+02 0.0 
0.0 0.0 -9.167744764648e+01 
-9.524275302863e+01 2.170705562837e+01 0.0 
2.170705562837e+01 -2.301653243816e+02 0.0 
0.0 0.0 -9.722242322308e+01 
-9.938645212462e+01 2.233945520104e+01 0.0 
2.233945520104e+01 -2.347973396661e+02 0.0 
0.0 0.0 -9.985513753721e+01 
-1.035902353203e+02 2.231640656876e+01 0.0 
2.231640656876e+01 -2.490564071689e+02 0.0 
0.0 0.0 -1.053939927468e+02 
-9.948505060217e+01 2.145933698220e+01 0.0 
2.145933698220e+01 -2.442934751305e+02 0.0 
0.0 0.0 -1.027335577198e+02 
-1.104136390070e+02 1.923771130101e+01 0.0 
1.923771130101e+01 -2.801239793931e+02 0.0 
0.0 0.0 -1.167612855200e+02 
-1.080739675815e+02 2.225353473522e+01 0.0 
2.225353473522e+01 -2.630358710808e+02 0.0 
0.0 0.0 -1.109329515987e+02 
-6.770268208323e+01 1.125056456014e+00 0.0 
1.125056456014e+00 -1.340831464355e+02 0.0 
0.0 0.0 -6.013574855561e+01 
-8.784139039686e+01 1.573373122991e+01 0.0 
1.573373122991e+01 -2.374563931078e+02 0.0 
0.0 0.0 -9.718933505139e+01 
-4.231282841100e+01 -1.626676928857e+00 0.0 
-1.626676928857e+00 -1.232605709819e+02 0.0 
0.0 0.0 -4.927201981787e+01 
-2.732431088323e+01 -1.664093117534e+00 0.0 
-1.664093117534e+00 -7.362062740952e+01 0.0 
0.0 0.0 -2.988348148782e+01 
-2.808120470615e+01 -2.808604012960e+00 0.0 
-2.808604012960e+00 -7.378937732187e+01 0.0 
0.0 0.0 -3.016117460841e+01 
-3.314457532585e+01 -1.254445883894e+00 0.0 
-1.254445883894e+00 -9.022789714356e+01 0.0 
0.0 0.0 -3.661174174082e+01 
-4.024398797865e+01 -1.176484422422e+00 0.0 
-1.176484422422e+00 -1.100904688799e+02 0.0 
0.0 0.0 -4.470033705756e+01 
-1.255224406078e+02 9.730072770635e+00 0.0 
9.730072770635e+00 -3.181163455156e+02 0.0 
0.0 0.0 -1.326916358370e+02 
-1.075571626907e+02 2.303078523308e+01 0.0 
2.303078523308e+01 -2.539015984521e+02 0.0 
0.0 0.0 -1.080376283428e+02 
-1.032983927762e+02 2.276525886939e+01 0.0 
2.276525886939e+01 -2.394171799260e+02 0.0 
0.0 0.0 -1.024146718107e+02 
-3.830371715472e+01 1.997528588075e+01 0.0 
1.997528588075e+01 -8.546857849502e+01 0.0 
0.0 0.0 -3.673168869492e+01 
-4.150986509273e+01 2.074517828710e+01 0.0 
2.074517828710e+01 -8.751345608117e+01 0.0 
0.0 0.0 -3.830699635217e+01 
-1.157769700045e+02 1.880450214262e+01 0.0 
1.880450214262e+01 -2.926717816467e+02 0.0 
0.0 0.0 -1.221346254954e+02 
-7.237268716002e+01 5.794111082975e+00 0.0 
5.794111082975e+00 -1.290344670552e+02 0.0 
0.0 0.0 -6.002214626456e+01 
-6.930122259293e+01 3.091172067803e+00 0.0 
3.091172067803e+00 -1.298527056244e+02 0.0 
0.0 0.0 -5.934617846521e+01 
-6.468194068153e+01 2.172839626842e+00 0.0 
2.172839626842e+00 -1.203530320145e+02 0.0 
0.0 0.0 -5.511049180881e+01 
-2.566659690593e+01 -1.152776427708e+00 0.0 
-1.152776427708e+00 -6.885003299787e+01 0.0 
0.0 0.0 -2.795498897114e+01 
-2.628452639743e+01 -2.813811633502e+00 0.0 
-2.813811633502e+00 -6.621146859809e+01 0.0 
0.0 0.0 -2.734879849865e+01 
-9.152628689803e+01 6.475724147731e+00 0.0 
6.475724147731e+00 -1.906794184054e+02 0.0 
0.0 0.0 -8.426171159103e+01 
-3.434467168231e+01 1.126769957615e+01 0.0 
1.126769957615e+01 -1.017906587522e+02 0.0 
0.0 0.0 -4.044059913034e+01 
-3.172031435616e+01 1.277900916976e+01 0.0 
1.277900916976e+01 -8.896291335935e+01 0.0 
0.0 0.0 -3.580496831465e+01 
-2.410248850414e+01 2.337907490115e+00 0.0 
2.337907490115e+00 -6.007864857133e+01 0.0 
0.0 0.0 -2.485434112264e+01 
-2.284049475275e+01 6.171459678757e-01 0.0 
6.171459678757e-01 -5.173269756781e+01 0.0 
0.0 0.0 -2.197195769617e+01 
-7.904856785131e+01 1.374913142306e+00 0.0 
1.374913142306e+00 -1.649762351853e+02 0.0 
0.0 0.0 -7.280744091099e+01 
-8.627123236895e+01 1.774055376786e+00 0.0 
1.774055376786e+00 -1.851109867019e+02 0.0 
0.0 0.0 -8.101466572127e+01 
-7.794326799172e+01 1.639784867285e-01 0.0 
1.639784867285e-01 -2.106001627916e+02 0.0 
0.0 0.0 -8.616302923500e+01 
-8.182187586739e+01 3.054643932155e-01 0.0 
3.054643932155e-01 -2.193280376480e+02 0.0 
0.0 0.0 -8.994497405462e+01 
-1.201298150270e+02 1.019931601463e+01 0.0 
1.019931601463e+01 -3.082721742147e+02 0.0 
0.0 0.0 -1.281205967725e+02 
-3.071152561438e+01 -2.764710254090e+00 0.0 
-2.764710254090e+00 -8.270189317114e+01 0.0 
0.0 0.0 -3.362402563566e+01 
-8.991121705419e+01 2.558218986756e+00 0.0 
2.558218986756e+00 -1.948206695082e+02 0.0 
0.0 0.0 -8.501956596871e+01 
-9.956228782816e+01 9.850142127177e+00 0.0 
9.850142127177e+00 -2.686757465173e+02 0.0 
0.0 0.0 -1.100714103036e+02 
-9.060377700694e+01 8.689299430815e+00 0.0 
8.689299430815e+00 -2.503074370430e+02 0.0 
0.0 0.0 -1.018733642150e+02 
-6.979285189924e+01 -3.427148108377e-01 0.0 
-3.427148108377e-01 -1.888536658645e+02 0.0 
0.0 0.0 -7.719395532912e+01 
-2.641880602636e+01 1.032772742999e+01 0.0 
1.032772742999e+01 -6.838437792019e+01 0.0 
0.0 0.0 -2.804095518396e+01 
-2.500922977863e+01 8.211823003562e+00 0.0 
8.211823003562e+00 -6.369278967585e+01 0.0 
0.0 0.0 -2.621060583634e+01 
-4.498187044882e+01 -8.008765829521e-01 0.0 
-8.008765829521e-01 -1.332434095454e+02 0.0 
0.0 0.0 -5.306758399828e+01 
-3.651367232889e+01 -2.549690861576e+00 0.0 
-2.549690861576e+00 -1.021654277378e+02 0.0 
0.0 0.0 -4.120373002000e+01 
-3.623848404766e+01 -9.182458661828e-01 0.0 
-9.182458661828e-01 -9.879963142361e+01 0.0 
0.0 0.0 -4.011143464138e+01 
-1.303186852526e+02 1.128862498838e+01 0.0 
1.128862498838e+01 -3.267276379592e+02 0.0 
0.0 0.0 -1.367138969636e+02 
-9.540035671845e+01 7.879757346403e+00 0.0 
7.879757346403e+00 -2.005728578355e+02 0.0 
0.0 0.0 -8.839196436617e+01 
-1.040428401546e+02 2.122400899149e+01 0.0 
2.122400899149e+01 -2.580711043845e+02 0.0 
0.0 0.0 -1.082341833617e+02 
-9.523792567510e+01 2.046259832190e+01 0.0 
2.046259832190e+01 -2.394032118499e+02 0.0 
0.0 0.0 -9.999234125749e+01 
-1.130833682913e+02 2.214105527927e+01 0.0 
2.214105527927e+01 -2.768698571945e+02 0.0 
0.0 0.0 -1.165859676457e+02 
-2.540377600822e+01 -2.721086711115e+00 0.0 
-2.721086711115e+00 -6.326512352711e+01 0.0 
0.0 0.0 -2.620066986060e+01 
-1.309847528038e+02 9.240876364328e+00 0.0 
9.240876364328e+00 -3.279465309103e+02 0.0 
0.0 0.0 -1.372793851142e+02 
-1.206281013661e+02 1.437023477726e+00 0.0 
1.437023477726e+00 -3.039513788484e+02 0.0 
0.0 0.0 -1.269738440643e+02 
-1.108797362775e+02 2.348943631953e+01 0.0 
2.348943631953e+01 -2.579488022933e+02 0.0 
0.0 0.0 -1.102485615712e+02 
-1.069916169219e+02 2.301786676679e+01 0.0 
2.301786676679e+01 -2.442943607073e+02 0.0 
0.0 0.0 -1.049857932888e+02 
-3.643909995442e+01 1.333312114751e+01 0.0 
1.333312114751e+01 -1.058869214246e+02 0.0 
0.0 0.0 -4.229780641371e+01 
-3.374091185264e+01 1.475012231077e+01 0.0 
1.475012231077e+01 -9.257860283173e+01 0.0 
0.0 0.0 -3.749585440531e+01 
-2.947863069831e+01 1.426541503333e+01 0.0 
1.426541503333e+01 -7.547619567880e+01 0.0 
0.0 0.0 -3.108644791313e+01 
-3.123936813046e+01 1.598226939367e+01 0.0 
1.598226939367e+01 -7.838055830554e+01 0.0 
0.0 0.0 -3.248597793080e+01 
-6.900044161461e+01 1.315308273794e+01 0.0 
1.315308273794e+01 -1.166551816913e+02 0.0 
0.0 0.0 -5.529668699178e+01 
-3.890075958255e+01 1.531560318092e+01 0.0 
1.531560318092e+01 -1.097636005299e+02 0.0 
0.0 0.0 -4.419930803374e+01 
-6.551254072893e+01 1.868900431540e+01 0.0 
1.868900431540e+01 -1.189840023721e+02 0.0 
0.0 0.0 -5.494896293032e+01 
-6.163125849277e+01 1.646242051140e+01 0.0 
1.646242051140e+01 -1.031989813792e+02 0.0 
0.0 0.0 -4.904907196159e+01 
-5.756536414641e+01 1.823506954956e+01 0.0 
1.823506954956e+01 -9.811673052586e+01 0.0 
0.0 0.0 -4.630462840168e+01 
-4.859287578180e+01 2.122693429405e+01 0.0 
2.122693429405e+01 -1.061832674668e+02 0.0 
0.0 0.0 -4.603284297457e+01 
-4.509710446186e+01 2.102847500710e+01 0.0 
2.102847500710e+01 -8.930597775859e+01 0.0 
0.0 0.0 -3.992092466613e+01 
-4.295040543602e+01 1.065178150518e+01 0.0 
1.065178150518e+01 -1.312878522160e+02 0.0 
0.0 0.0 -5.187147729561e+01 
-7.559082516087e+01 1.310925452310e+01 0.0 
1.310925452310e+01 -2.136172139564e+02 0.0 
0.0 0.0 -8.636241173519e+01 
-7.400747251408e+01 1.456177546168e-02 0.0 
1.456177546168e-02 -2.019269183736e+02 0.0 
0.0 0.0 -8.238031726632e+01 
-9.430266615894e+01 1.782656571502e+00 0.0 
1.782656571502e+00 -2.505658494425e+02 0.0 
0.0 0.0 -1.030605546804e+02 
-8.434380185765e+01 4.053237510037e+00 0.0 
4.053237510037e+00 -2.344557792239e+02 0.0 
0.0 0.0 -9.523987432445e+01 
-9.054831215554e+01 4.992350374445e+00 0.0 
4.992350374445e+00 -1.914778012862e+02 0.0 
0.0 0.0 -8.420783403252e+01 
-9.364574189753e+01 4.739152892219e+00 0.0 
4.739152892219e+00 -2.024668890105e+02 0.0 
0.0 0.0 -8.843378927240e+01 
-6.407080155190e+01 1.561690678588e+00 0.0 
1.561690678588e+00 -1.219745349072e+02 0.0 
0.0 0.0 -5.541360093773e+01 
-5.993318407942e+01 1.053539716949e+00 0.0 
1.053539716949e+00 -1.128162689574e+02 0.0 
0.0 0.0 -5.142483591105e+01 
-2.829913464113e+01 -2.203432284620e+00 0.0 
-2.203432284620e+00 -7.564691124774e+01 0.0 
0.0 0.0 -3.078381376666e+01 
-2.569600462661e+01 -2.379675297176e+00 0.0 
-2.379675297176e+00 -6.724350004913e+01 0.0 
0.0 0.0 -2.748185140272e+01 
-8.136828395842e+01 1.825860962915e+00 0.0 
1.825860962915e+00 -2.241758967897e+02 0.0 
0.0 0.0 -9.126325422443e+01 
-1.259566137739e+02 7.800788538921e+00 0.0 
7.800788538921e+00 -3.185138425018e+02 0.0 
0.0 0.0 -1.329411368827e+02 
-9.662669172449e+01 9.773726089360e+00 0.0 
9.773726089360e+00 -2.005242654202e+02 0.0 
0.0 0.0 -8.874528714340e+01 
-1.004906780394e+02 1.156614559061e+01 0.0 
1.156614559061e+01 -2.114838024395e+02 0.0 
0.0 0.0 -9.319234414367e+01 
-9.826279805641e+01 1.205564151460e+01 0.0 
1.205564151460e+01 -2.020052680625e+02 0.0 
0.0 0.0 -8.968041983566e+01 
-1.246967941570e+02 1.179763218479e+01 0.0 
1.179763218479e+01 -3.164682223122e+02 0.0 
0.0 0.0 -1.319495049408e+02 
-4.763840091289e+01 6.304588286376e+00 0.0 
6.304588286376e+00 -1.476089358827e+02 0.0 
0.0 0.0 -5.817420103869e+01 
-8.110234749601e+01 9.811392980919e+00 0.0 
9.811392980919e+00 -2.294604761474e+02 0.0 
0.0 0.0 -9.276884709303e+01 
-2.462794011627e+01 -3.157564326748e-01 0.0 
-3.157564326748e-01 -6.086647226595e+01 0.0 
0.0 0.0 -2.524832371467e+01 
-7.853432748448e+01 1.942603454335e+01 0.0 
1.942603454335e+01 -2.028117036611e+02 0.0 
0.0 0.0 -8.400380934368e+01 
-2.194147836500e+01 -1.993432946660e+00 0.0 
-1.993432946660e+00 -5.611290368386e+01 0.0 
0.0 0.0 -2.301631461466e+01 
-9.178772386182e+01 2.098524542753e+01 0.0 
2.098524542753e+01 -1.953856131030e+02 0.0 
0.0 0.0 -8.575200108946e+01 
-1.302373632696e+02 1.665482986892e+00 0.0 
1.665482986892e+00 -3.229338994778e+02 0.0 
0.0 0.0 -1.355513788242e+02 
-1.353532039678e+02 2.397210886505e+00 0.0 
2.397210886505e+00 -3.330752289410e+02 0.0 
0.0 0.0 -1.401285298726e+02 
-1.200347096045e+02 2.040668808071e+01 0.0 
2.040668808071e+01 -2.985140840876e+02 0.0 
0.0 0.0 -1.251646381077e+02 
-5.584015134192e+01 8.647981281559e+00 0.0 
8.647981281559e+00 -8.302654533800e+01 0.0 
0.0 0.0 -4.126000900398e+01 
-8.262969420043e+01 1.868348676349e+01 0.0 
1.868348676349e+01 -2.163441872637e+02 0.0 
0.0 0.0 -8.929216443923e+01 
-7.862665158049e+01 1.726403199225e+01 0.0 
1.726403199225e+01 -2.116035392090e+02 0.0 
0.0 0.0 -8.666905723685e+01 
-5.344386568544e+01 1.551022314074e+01 0.0 
1.551022314074e+01 -8.193413449604e+01 0.0 
0.0 0.0 -4.021340005444e+01 
-4.939605730312e+01 1.754475922836e+01 0.0 
1.754475922836e+01 -7.704640117518e+01 0.0 
0.0 0.0 -3.753273754349e+01 
-5.331958544000e+01 1.972763715567e+01 0.0 
1.972763715567e+01 -9.426656611701e+01 0.0 
0.0 0.0 -4.387584546710e+01 
-4.540740591437e+01 1.926768598385e+01 0.0 
1.926768598385e+01 -7.395111352846e+01 0.0 
0.0 0.0 -3.540755583285e+01 
-4.836216268689e+01 -8.623223142396e-01 0.0 
-8.623223142396e-01 -1.419781093825e+02 0.0 
0.0 0.0 -5.670208162082e+01 
-4.548685532178e+01 -1.591192495349e+00 0.0 
-1.591192495349e+00 -1.317934170632e+02 0.0 
0.0 0.0 -5.278408171549e+01 
-1.163964034610e+02 2.414864162748e+01 0.0 
2.414864162748e+01 -2.743482265738e+02 0.0 
0.0 0.0 -1.168233890104e+02 
-1.167103378070e+02 2.323279943978e+01 0.0 
2.323279943978e+01 -2.815984633139e+02 0.0 
0.0 0.0 -1.190926403363e+02 
-1.143696443485e+02 2.405712779237e+01 0.0 
2.405712779237e+01 -2.633483310640e+02 0.0 
0.0 0.0 -1.129153926237e+02 
-1.107596292257e+02 2.324500217954e+01 0.0 
2.324500217954e+01 -2.499888713669e+02 0.0 
0.0 0.0 -1.078245501778e+02 
-1.257498223734e+02 2.006618847213e+01 0.0 
2.006618847213e+01 -3.109858523779e+02 0.0 
0.0 0.0 -1.306207024254e+02 
-1.211684648716e+02 1.835196051579e+01 0.0 
1.835196051579e+01 -3.045897261391e+02 0.0 
0.0 0.0 -1.273274573032e+02 
-4.310110081003e+01 -8.147851425397e-01 0.0 
-8.147851425397e-01 -1.181133755173e+02 0.0 
0.0 0.0 -4.796434289819e+01 
-3.814665155733e+01 2.039377536509e+01 0.0 
2.039377536509e+01 -7.034261603685e+01 0.0 
0.0 0.0 -3.214678027826e+01 
-9.816069410637e+01 7.531952100523e+00 0.0 
7.531952100523e+00 -2.110848701100e+02 0.0 
0.0 0.0 -9.237366926491e+01 
-5.722451020223e+01 1.349805740073e+01 0.0 
1.349805740073e+01 -8.807775735232e+01 0.0 
0.0 0.0 -4.319068026636e+01 
-1.361352743090e+02 8.675728163439e+00 0.0 
8.675728163439e+00 -3.368388209438e+02 0.0 
0.0 0.0 -1.414922285758e+02 
-1.311588741563e+02 7.347197078934e+00 0.0 
7.347197078934e+00 -3.277540476042e+02 0.0 
0.0 0.0 -1.372738765281e+02 
-2.188848927166e+01 -5.540630989949e-01 0.0 
-5.540630989949e-01 -4.270880377484e+01 0.0 
0.0 0.0 -1.897918791395e+01 
-2.305294850292e+01 -1.443226657340e+00 0.0 
-1.443226657340e+00 -5.087853322443e+01 0.0 
0.0 0.0 -2.177944451820e+01 
-9.338381276988e+01 2.186282808611e+00 0.0 
2.186282808611e+00 -2.056716242738e+02 0.0 
0.0 0.0 -8.931663111310e+01 
-2.775200206039e+01 1.555180762477e+01 0.0 
1.555180762477e+01 -6.108633886874e+01 0.0 
0.0 0.0 -2.625150227874e+01 
-2.903274068401e+01 1.686585937522e+01 0.0 
1.686585937522e+01 -6.284914645180e+01 0.0 
0.0 0.0 -2.716456614074e+01 
-2.635509933226e+01 1.398303494021e+01 0.0 
1.398303494021e+01 -5.874515741359e+01 0.0 
0.0 0.0 -2.513007702375e+01 
-1.508184397410e+02 6.675934211402e-01 0.0 
6.675934211402e-01 -3.615306565080e+02 0.0 
0.0 0.0 -1.533047288747e+02 
-4.284741049375e+01 2.011752299064e-02 0.0 
2.011752299064e-02 -7.476521109608e+01 0.0 
0.0 0.0 -3.488378647695e+01 
-1.401613334859e+02 1.865776123793e+00 0.0 
1.865776123793e+00 -3.418093667166e+02 0.0 
0.0 0.0 -1.441912100607e+02 
-5.264838544044e+01 2.136969286482e+01 0.0 
2.136969286482e+01 -1.085239601958e+02 0.0 
0.0 0.0 -4.795170369086e+01 
-9.700517227916e+01 2.999059382386e+00 0.0 
2.999059382386e+00 -2.155153380550e+02 0.0 
0.0 0.0 -9.335615310026e+01 
-8.702176266328e+01 1.795607774880e+01 0.0 
1.795607774880e+01 -2.296120186482e+02 0.0 
0.0 0.0 -9.459013439346e+01 
-4.828363810771e+01 1.770332261651e+01 0.0 
1.770332261651e+01 -1.314489720660e+02 0.0 
0.0 0.0 -5.351978305210e+01 
-1.146749115641e+02 1.065965560736e+01 0.0 
1.065965560736e+01 -2.980779733583e+02 0.0 
0.0 0.0 -1.234258654767e+02 
-8.947849131910e+01 1.478605277395e+00 0.0 
1.478605277395e+00 -1.948234595479e+02 0.0 
0.0 0.0 -8.489058526010e+01 
-9.689236298507e+01 1.679505023708e+00 0.0 
1.679505023708e+00 -2.170058607295e+02 0.0 
0.0 0.0 -9.376946711437e+01 
-6.105216868064e+01 2.007291531716e+00 0.0 
2.007291531716e+00 -1.097985290822e+02 0.0 
0.0 0.0 -5.085520932884e+01 
-5.606655548308e+01 1.371608874356e+00 0.0 
1.371608874356e+00 -9.988792114902e+01 0.0 
0.0 0.0 -4.638634298963e+01 
-6.554971713752e+01 2.963158520355e+00 0.0 
2.963158520355e+00 -1.187822931984e+02 0.0 
0.0 0.0 -5.489960310079e+01 
-2.533271418818e+01 4.262708111809e+00 0.0 
4.262708111809e+00 -6.758753486250e+01 0.0 
0.0 0.0 -2.747607471520e+01 
-2.205945340177e+01 4.166618758637e+00 0.0 
4.166618758637e+00 -4.861550572399e+01 0.0 
0.0 0.0 -2.080248773773e+01 
-8.998341515566e+01 3.708559654230e+00 0.0 
3.708559654230e+00 -1.929689340617e+02 0.0 
0.0 0.0 -8.448570476520e+01 
-5.128367520241e+01 -1.104977935753e+00 0.0 
-1.104977935753e+00 -1.411539437509e+02 0.0 
0.0 0.0 -5.733128568599e+01 
-5.528219176943e+01 -8.396367447261e-01 0.0 
-8.396367447261e-01 -1.518534336384e+02 0.0 
0.0 0.0 -6.174068762236e+01 
-3.314167765148e+01 -2.673693882380e+00 0.0 
-2.673693882380e+00 -9.070632890759e+01 0.0 
0.0 0.0 -3.675440196772e+01 
-3.922195797424e+01 -2.415950170724e+00 0.0 
-2.415950170724e+00 -1.100946456958e+02 0.0 
0.0 0.0 -4.439498110103e+01 
-8.196416868891e+01 5.828405431324e-01 0.0 
5.828405431324e-01 -2.211975087374e+02 0.0 
0.0 0.0 -9.054850322789e+01 
-7.792466912630e+01 4.850184240496e-01 0.0 
4.850184240496e-01 -2.125190504053e+02 0.0 
0.0 0.0 -8.673311585947e+01 
-9.550039797480e+01 2.179690620625e+01 0.0 
2.179690620625e+01 -2.102347653743e+02 0.0 
0.0 0.0 -9.132054900473e+01 
-9.916062841629e+01 2.151724774405e+01 0.0 
2.151724774405e+01 -2.154365668886e+02 0.0 
0.0 0.0 -9.397915859148e+01 
-8.739643138380e+01 2.189193633343e+01 0.0 
2.189193633343e+01 -2.009078031506e+02 0.0 
0.0 0.0 -8.609127036031e+01 
-9.555524725098e+01 8.255542170194e+00 0.0 
8.255542170194e+00 -2.604978817733e+02 0.0 
0.0 0.0 -1.064159387073e+02 
-8.682279849964e+01 7.105814902684e+00 0.0 
7.105814902684e+00 -2.420742357063e+02 0.0 
0.0 0.0 -9.826911026179e+01 
-8.212295778449e+01 7.551238990889e+00 0.0 
7.551238990889e+00 -2.320884055828e+02 0.0 
0.0 0.0 -9.386340901018e+01 
-9.688289519526e+01 5.838647599032e+00 0.0 
5.838647599032e+00 -2.113900320974e+02 0.0 
0.0 0.0 -9.208187818778e+01 
-1.006981776151e+02 5.438328799305e+00 0.0 
5.438328799305e+00 -2.247115939948e+02 0.0 
0.0 0.0 -9.722293148297e+01 
-5.111154703060e+01 1.074663057779e-01 0.0 
1.074663057779e-01 -1.516672217941e+02 0.0 
0.0 0.0 -6.043363064742e+01 
-4.755019709962e+01 2.874073990069e-01 0.0 
2.874073990069e-01 -1.427382011764e+02 0.0 
0.0 0.0 -5.668651948281e+01 
-5.174801268276e+01 -8.572352647835e-01 0.0 
-8.572352647835e-01 -1.503930781344e+02 0.0 
0.0 0.0 -6.024232724516e+01 
-1.017223132084e+02 8.974097590373e+00 0.0 
8.974097590373e+00 -2.211342814848e+02 0.0 
0.0 0.0 -9.645697840797e+01 
-1.451557403255e+02 2.612516904907e+00 0.0 
2.612516904907e+00 -3.515601641261e+02 0.0 
0.0 0.0 -1.486147713355e+02 
-1.405030803590e+02 3.248497617780e+00 0.0 
3.248497617780e+00 -3.430498090868e+02 0.0 
0.0 0.0 -1.446658668338e+02 
-1.971107427390e+01 -2.016006457311e+00 0.0 
-2.016006457311e+00 -4.791028506504e+01 0.0 
0.0 0.0 -1.988640780168e+01 
-2.315196006752e+01 -2.398989251898e+00 0.0 
-2.398989251898e+00 -5.866797807238e+01 0.0 
0.0 0.0 -2.414598144197e+01 
-2.379776492815e+01 1.028167351159e+01 0.0 
1.028167351159e+01 -5.232552761444e+01 0.0 
0.0 0.0 -2.243698776278e+01 
-2.256914417667e+01 8.217822257690e+00 0.0 
8.217822257690e+00 -4.809406627635e+01 0.0 
0.0 0.0 -2.079896313591e+01 
-1.039621434808e+02 1.338229591925e+01 0.0 
1.338229591925e+01 -2.223067209467e+02 0.0 
0.0 0.0 -9.748065932826e+01 
-1.022184762070e+02 1.399981907676e+01 0.0 
1.399981907676e+01 -2.138413789782e+02 0.0 
0.0 0.0 -9.441795655557e+01 
-1.066801918389e+02 1.292977087685e+01 0.0 
1.292977087685e+01 -2.336093860249e+02 0.0 
0.0 0.0 -1.016868733591e+02 
-3.870116256046e+01 -6.558630587608e-01 0.0 
-6.558630587608e-01 -1.055794918730e+02 0.0 
0.0 0.0 -4.288419633004e+01 
-9.986564032844e+01 1.999984737680e+01 0.0 
1.999984737680e+01 -2.529848919130e+02 0.0 
0.0 0.0 -1.054551596724e+02 
-1.347215162113e+02 1.294844787545e+01 0.0 
1.294844787545e+01 -3.339454471646e+02 0.0 
0.0 0.0 -1.402000890128e+02 
-1.288392265260e+02 1.348990561147e+01 0.0 
1.348990561147e+01 -3.236462455317e+02 0.0 
0.0 0.0 -1.353456416173e+02 
-1.417890233719e+02 1.252293910398e+01 0.0 
1.252293910398e+01 -3.464426099666e+02 0.0 
0.0 0.0 -1.460694900015e+02 
-1.145130483342e+02 2.074122568392e+01 0.0 
2.074122568392e+01 -2.855248669535e+02 0.0 
0.0 0.0 -1.196113745863e+02 
-1.238911657595e+02 2.184586345521e+01 0.0 
2.184586345521e+01 -3.036449187394e+02 0.0 
0.0 0.0 -1.278608253497e+02 
-1.221774971598e+02 2.321106791396e+01 0.0 
2.321106791396e+01 -2.952939758992e+02 0.0 
0.0 0.0 -1.248414419177e+02 
-2.035561612942e+01 3.336421627903e-01 0.0 
3.336421627903e-01 -3.433758227416e+01 0.0 
0.0 0.0 -1.600795952107e+01 
-9.435489602550e+01 1.157697831610e+00 0.0 
1.157697831610e+00 -2.098451544276e+02 0.0 
0.0 0.0 -9.086001513592e+01 
-5.547943640639e+01 9.112678414180e-01 0.0 
9.112678414180e-01 -1.011670159824e+02 0.0 
0.0 0.0 -4.659393571662e+01 
-2.041086770723e+01 -4.020274962031e-01 0.0 
-4.020274962031e-01 -2.732376676022e+01 0.0 
0.0 0.0 -1.406078113119e+01 
-5.134150571980e+01 5.354731813890e-01 0.0 
5.354731813890e-01 -9.224941177616e+01 0.0 
0.0 0.0 -4.267727524879e+01 
-5.568571667854e+01 6.666287438922e-01 0.0 
6.666287438922e-01 -1.035960398893e+02 0.0 
0.0 0.0 -4.738452697036e+01 
-4.671539324827e+01 2.824779004873e-01 0.0 
2.824779004873e-01 -8.216896431766e+01 0.0 
0.0 0.0 -3.826530726978e+01 
-3.168495259479e+01 -6.684164439980e-01 0.0 
-6.684164439980e-01 -8.612962168734e+01 0.0 
0.0 0.0 -3.494437228464e+01 
-5.569172137652e+01 1.789934552941e+00 0.0 
1.789934552941e+00 -9.572077103858e+01 0.0 
0.0 0.0 -4.502374772453e+01 
-6.198339166696e+01 3.001035471133e+00 0.0 
3.001035471133e+00 -1.082535483236e+02 0.0 
0.0 0.0 -5.067108199718e+01 
-1.664435642901e+01 -1.936854965987e+00 0.0 
-1.936854965987e+00 -3.620529790568e+01 0.0 
0.0 0.0 -1.556550955918e+01 
-1.038959076085e+02 8.345687149061e+00 0.0 
8.345687149061e+00 -2.311851433792e+02 0.0 
0.0 0.0 -1.001243152963e+02 
-1.585728405208e+01 -1.568114958917e+00 0.0 
-1.568114958917e+00 -3.765363738292e+01 0.0 
0.0 0.0 -1.565184557336e+01 
-1.827942677889e+01 -1.510153691580e+00 0.0 
-1.510153691580e+00 -4.560462969061e+01 0.0 
0.0 0.0 -1.876521694085e+01 
-1.414550446369e+02 8.100475100457e+00 0.0 
8.100475100457e+00 -3.461897474019e+02 0.0 
0.0 0.0 -1.458934376116e+02 
-1.362512011923e+02 6.843041631711e+00 0.0 
6.843041631711e+00 -3.367188277602e+02 0.0 
0.0 0.0 -1.414910086858e+02 
-1.462635351845e+02 7.528930624412e+00 0.0 
7.528930624412e+00 -3.545593749225e+02 0.0 
0.0 0.0 -1.498468730321e+02 
-1.410028228339e+02 6.272277482326e+00 0.0 
6.272277482326e+00 -3.449214670520e+02 0.0 
0.0 0.0 -1.453772869658e+02 
-1.312015629211e+02 5.700303686364e+00 0.0 
5.700303686364e+00 -3.270319664734e+02 0.0 
0.0 0.0 -1.370700588184e+02 
-1.362821023192e+02 5.224002291987e+00 0.0 
5.224002291987e+00 -3.361103068426e+02 0.0 
0.0 0.0 -1.413177227485e+02 
-5.117577327315e+01 8.049626339645e-01 0.0 
8.049626339645e-01 -9.003542698619e+01 0.0 
0.0 0.0 -4.196336007780e+01 
-1.475928061997e+02 5.881378325626e+00 0.0 
5.881378325626e+00 -3.564606743923e+02 0.0 
0.0 0.0 -1.508160441776e+02 
-1.415482495206e+02 4.686972520852e+00 0.0 
4.686972520852e+00 -3.453242490355e+02 0.0 
0.0 0.0 -1.456617495668e+02 
-1.526084303768e+02 5.209778520797e+00 0.0 
5.209778520797e+00 -3.657399924685e+02 0.0 
0.0 0.0 -1.551045268536e+02 
-4.116371389091e+01 1.631302279572e+01 0.0 
1.631302279572e+01 -5.578348063303e+01 0.0 
0.0 0.0 -2.868415835718e+01 
-3.316474727244e+01 1.756510621891e+01 0.0 
1.756510621891e+01 -8.064309931773e+01 0.0 
0.0 0.0 -3.374235397705e+01 
-3.059741012931e+01 1.802227627529e+01 0.0 
1.802227627529e+01 -6.465575571142e+01 0.0 
0.0 0.0 -2.817594975222e+01 
-2.703298346349e+01 1.732318142251e+01 0.0 
1.732318142251e+01 -4.527352848101e+01 0.0 
0.0 0.0 -2.129195358335e+01 
-1.186912840957e+02 2.458978385762e+01 0.0 
2.458978385762e+01 -2.719706960704e+02 0.0 
0.0 0.0 -1.167985940498e+02 
-1.132613153346e+02 2.315177119890e+01 0.0 
2.315177119890e+01 -2.544953931375e+02 0.0 
0.0 0.0 -1.099270125416e+02 
-1.253130606481e+02 1.030492304784e+00 0.0 
1.030492304784e+00 -3.130664929681e+02 0.0 
0.0 0.0 -1.311138660849e+02 
-1.158613610207e+02 8.361144034603e-01 0.0 
8.361144034603e-01 -2.938980166144e+02 0.0 
0.0 0.0 -1.225278132905e+02 
-5.102757289935e+01 3.147703580185e-01 0.0 
3.147703580185e-01 -9.336693198352e+01 0.0 
0.0 0.0 -4.291835146486e+01 
-5.033538707283e+01 2.553237809213e-01 0.0 
2.553237809213e-01 -9.233315212348e+01 0.0 
0.0 0.0 -4.240056175889e+01 
-5.772930010183e+01 3.633158049069e-01 0.0 
3.633158049069e-01 -1.102113651709e+02 0.0 
0.0 0.0 -4.998219958183e+01 
-5.649607023609e+01 3.548919060587e-01 0.0 
3.548919060587e-01 -1.078000164637e+02 0.0 
0.0 0.0 -4.888882600994e+01 
-6.375802769754e+01 4.780818839244e-01 0.0 
4.780818839244e-01 -1.258214193968e+02 0.0 
0.0 0.0 -5.647383412829e+01 
-6.256501714621e+01 4.300327807469e-01 0.0 
4.300327807469e-01 -1.230896385215e+02 0.0 
0.0 0.0 -5.529639670032e+01 
-6.986135940167e+01 7.866972978695e-01 0.0 
7.866972978695e-01 -1.415277749975e+02 0.0 
0.0 0.0 -6.301674031974e+01 
-1.257673310620e+02 2.461424777664e+01 0.0 
2.461424777664e+01 -3.001827051180e+02 0.0 
0.0 0.0 -1.273850108540e+02 
-2.536021409004e+01 1.536164167093e+01 0.0 
1.536164167093e+01 -4.410589227014e+01 0.0 
0.0 0.0 -2.043983190805e+01 
-4.859395598657e+01 1.185506059058e+01 0.0 
1.185506059058e+01 -6.671794125890e+01 0.0 
0.0 0.0 -3.419356917364e+01 
-1.313165522330e+02 1.964691767017e+01 0.0 
1.964691767017e+01 -3.227471320650e+02 0.0 
0.0 0.0 -1.358191052894e+02 
-1.259216683575e+02 1.777981561324e+01 0.0 
1.777981561324e+01 -3.147761019742e+02 0.0 
0.0 0.0 -1.318093310995e+02 
-4.142832303479e+01 2.012811569778e+01 0.0 
2.012811569778e+01 -7.165281778720e+01 0.0 
0.0 0.0 -3.352434224660e+01 
-3.458009598232e+01 1.907676798522e+01 0.0 
1.907676798522e+01 -5.192655854695e+01 0.0 
0.0 0.0 -2.555199635878e+01 
-1.427065490830e+02 1.016661909526e+01 0.0 
1.016661909526e+01 -3.485217214239e+02 0.0 
0.0 0.0 -1.469684811521e+02 
-4.201698444141e+01 1.401416014925e+01 0.0 
1.401416014925e+01 -1.230834658559e+02 0.0 
0.0 0.0 -4.913013508918e+01 
-1.078445227708e+02 1.006012546976e+01 0.0 
1.006012546976e+01 -2.442150656605e+02 0.0 
0.0 0.0 -1.052178765294e+02 
-1.777169357233e+01 3.718101777012e+00 0.0 
3.718101777012e+00 -1.351481241727e+01 0.0 
0.0 0.0 -9.347657375982e+00 
-1.982318826299e+01 3.348985728517e+00 0.0 
3.348985728517e+00 -2.968134183435e+01 0.0 
0.0 0.0 -1.456365368404e+01 
-4.490826553149e+01 1.593179395988e+01 0.0 
1.593179395988e+01 -1.272258841753e+02 0.0 
0.0 0.0 -5.124024491204e+01 
-4.914285164331e+01 2.069922257477e+01 0.0 
2.069922257477e+01 -9.148367780878e+01 0.0 
0.0 0.0 -4.178795883563e+01 
-3.548312735913e+01 1.883504390042e+01 0.0 
1.883504390042e+01 -8.284577207239e+01 0.0 
0.0 0.0 -3.509866982946e+01 
-3.283202798686e+01 1.929226347617e+01 0.0 
1.929226347617e+01 -6.718894985034e+01 0.0 
0.0 0.0 -2.960629335116e+01 
-1.048125318766e+02 9.442627668646e+00 0.0 
9.442627668646e+00 -2.791831308266e+02 0.0 
0.0 0.0 -1.147986988110e+02 
-2.139122469370e+01 -2.485392401149e+00 0.0 
-2.485392401149e+00 -5.095379682210e+01 0.0 
0.0 0.0 -2.130350645474e+01 
-2.513648617214e+01 1.225926077925e+01 0.0 
1.225926077925e+01 -5.598945582333e+01 0.0 
0.0 0.0 -2.393778259864e+01 
-7.109818292737e+01 9.127940520821e-01 0.0 
9.127940520821e-01 -1.437991562669e+02 0.0 
0.0 0.0 -6.406920175829e+01 
-2.330209700256e+01 1.251006844704e+01 0.0 
1.251006844704e+01 -4.001718872688e+01 0.0 
0.0 0.0 -1.859578571883e+01 
-1.209294362561e+02 4.601238494491e-01 0.0 
4.601238494491e-01 -3.040358221111e+02 0.0 
0.0 0.0 -1.270895775102e+02 
-4.558729680334e+01 1.275188376582e+01 0.0 
1.275188376582e+01 -1.362869045371e+02 0.0 
0.0 0.0 -5.416226040214e+01 
-5.609483654516e+01 2.146573388279e+01 0.0 
2.146573388279e+01 -1.249734258552e+02 0.0 
0.0 0.0 -5.392047872010e+01 
-2.788598363299e+01 1.237002830800e+01 0.0 
1.237002830800e+01 -7.225228601992e+01 0.0 
0.0 0.0 -2.964148089587e+01 
-3.613990014844e+01 1.661479480406e+01 0.0 
1.661479480406e+01 -9.610245043396e+01 0.0 
0.0 0.0 -3.927270517472e+01 
-7.329524513703e+01 1.566371065539e+01 0.0 
1.566371065539e+01 -1.306777337043e+02 0.0 
0.0 0.0 -6.079189365241e+01 
-6.426209686191e+01 1.043901470701e+01 0.0 
1.043901470701e+01 -1.035941936941e+02 0.0 
0.0 0.0 -4.995688716681e+01 
-6.086923845232e+01 1.176174043478e+01 0.0 
1.176174043478e+01 -9.561875028844e+01 0.0 
0.0 0.0 -4.654639662223e+01 
-4.927544995775e+01 1.149320323248e+01 0.0 
1.149320323248e+01 -1.487445431337e+02 0.0 
0.0 0.0 -5.900599792743e+01 
-3.512923830822e+01 1.999601941077e+01 0.0 
1.999601941077e+01 -6.873099883600e+01 0.0 
0.0 0.0 -3.075807114327e+01 
-2.937043766249e+01 1.875196323027e+01 0.0 
1.875196323027e+01 -4.777653902979e+01 0.0 
0.0 0.0 -2.274409300768e+01 
-6.906919041616e+01 2.020692841930e+01 0.0 
2.020692841930e+01 -1.349929928979e+02 0.0 
0.0 0.0 -6.081865499421e+01 
-9.589661618702e+01 1.251517753810e+01 0.0 
1.251517753810e+01 -1.928574223202e+02 0.0 
0.0 0.0 -8.622621155218e+01 
-9.979353017681e+01 1.446019216373e+01 0.0 
1.446019216373e+01 -2.048150275104e+02 0.0 
0.0 0.0 -9.098256730618e+01 
-1.056739538221e+02 1.587052383328e+01 0.0 
1.587052383328e+01 -2.251667555496e+02 0.0 
0.0 0.0 -9.885221281151e+01 
-1.036753243577e+02 1.641953950806e+01 0.0 
1.641953950806e+01 -2.172630881423e+02 0.0 
0.0 0.0 -9.588152374999e+01 
-9.740113803912e+01 1.507959659437e+01 0.0 
1.507959659437e+01 -1.964095783519e+02 0.0 
0.0 0.0 -8.774321491730e+01 
-1.013140777121e+02 1.704855985648e+01 0.0 
1.704855985648e+01 -2.092175660386e+02 0.0 
0.0 0.0 -9.275949312523e+01 
-1.072547165911e+02 1.824734636451e+01 0.0 
1.824734636451e+01 -2.299072866253e+02 0.0 
0.0 0.0 -1.007486009649e+02 
-1.053854339650e+02 1.890081683398e+01 0.0 
1.890081683398e+01 -2.231098052375e+02 0.0 
0.0 0.0 -9.814857176074e+01 
-1.123341126438e+02 2.050156291017e+01 0.0 
2.050156291017e+01 -2.471986599742e+02 0.0 
0.0 0.0 -1.074598317854e+02 
-1.090550345216e+02 2.071312584662e+01 0.0 
2.071312584662e+01 -2.367008717644e+02 0.0 
0.0 0.0 -1.033267718858e+02 
-1.022794744908e+02 1.938986936973e+01 0.0 
1.938986936973e+01 -2.151685169511e+02 0.0 
0.0 0.0 -9.483439743258e+01 
-1.057727044278e+02 2.088057638237e+01 0.0 
2.088057638237e+01 -2.285109776223e+02 0.0 
0.0 0.0 -9.988510461502e+01 
-1.122346677000e+02 2.217164420113e+01 0.0 
2.217164420113e+01 -2.484235807351e+02 0.0 
0.0 0.0 -1.077974745305e+02 
-9.899655695927e+01 1.993380095993e+01 0.0 
1.993380095993e+01 -2.076814378686e+02 0.0 
0.0 0.0 -9.160339844835e+01 
-1.359364189888e+02 2.136738735149e+01 0.0 
2.136738735149e+01 -3.289005843642e+02 0.0 
0.0 0.0 -1.390511010059e+02 
-5.174967067826e+01 1.653158270107e+01 0.0 
1.653158270107e+01 -1.451514544821e+02 0.0 
0.0 0.0 -5.867033754811e+01 
-2.157298030667e+01 1.845201940025e+00 0.0 
1.845201940025e+00 -4.253563743580e+01 0.0 
0.0 0.0 -1.883258532274e+01 
-2.061339758262e+01 5.483205027008e+00 0.0 
5.483205027008e+00 -3.633627135277e+01 0.0 
0.0 0.0 -1.668490068062e+01 
-6.034764700556e+01 2.150873859727e+01 0.0 
2.150873859727e+01 -1.278368007541e+02 0.0 
0.0 0.0 -5.605533432791e+01 
-1.168398811850e+02 2.123632212820e+01 0.0 
2.123632212820e+01 -2.655307985537e+02 0.0 
0.0 0.0 -1.143112039216e+02 
-1.139077952593e+02 1.782816417414e+01 0.0 
1.782816417414e+01 -2.576787014481e+02 0.0 
0.0 0.0 -1.110759490122e+02 
-3.731786011770e+01 9.838432445628e+00 0.0 
9.838432445628e+00 -1.140561047815e+02 0.0 
0.0 0.0 -4.501218946975e+01 
-1.265954398965e+02 2.647968614624e+01 0.0 
2.647968614624e+01 -2.941937693238e+02 0.0 
0.0 0.0 -1.258367627661e+02 
-6.546875873111e+01 1.468723012186e+01 0.0 
1.468723012186e+01 -1.095064918302e+02 0.0 
0.0 0.0 -5.209257516838e+01 
-2.900269001215e+01 4.820748374763e+00 0.0 
4.820748374763e+00 -8.491340015491e+01 0.0 
0.0 0.0 -3.377482705012e+01 
-1.308224823071e+02 2.681409156504e+01 0.0 
2.681409156504e+01 -3.070503994433e+02 0.0 
0.0 0.0 -1.309618645251e+02 
-9.337636301586e+01 1.306089612151e+01 0.0 
1.306089612151e+01 -1.839119029945e+02 0.0 
0.0 0.0 -8.278647980312e+01 
-9.058542505481e+01 1.372084942443e+01 0.0 
1.372084942443e+01 -1.750948705092e+02 0.0 
0.0 0.0 -7.930408866921e+01 
-8.637073290304e+01 1.163180065224e+01 0.0 
1.163180065224e+01 -1.628039939257e+02 0.0 
0.0 0.0 -7.435241804862e+01 
-1.117729881814e+02 1.483651428743e+01 0.0 
1.483651428743e+01 -2.531704958970e+02 0.0 
0.0 0.0 -1.090830452235e+02 
-7.039998486604e+01 4.175366122150e+00 0.0 
4.175366122150e+00 -1.287151180733e+02 0.0 
0.0 0.0 -5.933453088180e+01 
-1.391529675179e+02 2.463560178856e+01 0.0 
2.463560178856e+01 -3.308138013016e+02 0.0 
0.0 0.0 -1.405900306458e+02 
-8.396156218050e+01 1.406185080490e+01 0.0 
1.406185080490e+01 -2.316343531849e+02 0.0 
0.0 0.0 -9.427877460962e+01 
-7.928725535970e+01 1.484830046395e+01 0.0 
1.484830046395e+01 -2.193309120959e+02 0.0 
0.0 0.0 -8.918545023668e+01 
-7.112875389097e+01 1.399512185522e+01 0.0 
1.399512185522e+01 -2.014382188575e+02 0.0 
0.0 0.0 -8.137009182454e+01 
-9.852014860174e+01 1.764590392405e+01 0.0 
1.764590392405e+01 -2.013281230399e+02 0.0 
0.0 0.0 -8.955448149250e+01 
-1.455658628887e+02 1.961930030366e+01 0.0 
1.961930030366e+01 -3.486304768200e+02 0.0 
0.0 0.0 -1.478589019126e+02 
-1.372720022141e+02 1.771897816433e+01 0.0 
1.771897816433e+01 -3.358832199274e+02 0.0 
0.0 0.0 -1.415465666424e+02 
-1.387408913128e+02 1.652949934495e+01 0.0 
1.652949934495e+01 -3.391887484305e+02 0.0 
0.0 0.0 -1.429788919230e+02 
-1.284035074856e+02 1.585038766545e+01 0.0 
1.585038766545e+01 -3.213987548880e+02 0.0 
0.0 0.0 -1.345406787121e+02 
-1.486554361007e+02 1.689186060119e+01 0.0 
1.689186060119e+01 -3.558348812746e+02 0.0 
0.0 0.0 -1.509470952126e+02 
-1.210162380947e+02 2.406337687542e+01 0.0 
2.406337687542e+01 -2.774235091374e+02 0.0 
0.0 0.0 -1.191319241696e+02 
-1.229839004851e+02 2.518312937740e+01 0.0 
2.518312937740e+01 -2.834880239823e+02 0.0 
0.0 0.0 -1.215415773402e+02 
-4.167087297780e+01 -6.277219471444e-01 0.0 
-6.277219471444e-01 -1.243342771725e+02 0.0 
0.0 0.0 -4.940154504508e+01 
-4.409749959675e+01 6.160950526778e-01 0.0 
6.160950526778e-01 -1.336953685693e+02 0.0 
0.0 0.0 -5.293786044981e+01 
-5.012343780795e+01 1.614388830325e+00 0.0 
1.614388830325e+00 -1.517638762120e+02 0.0 
0.0 0.0 -6.016619420598e+01 
-4.649815859946e+01 2.065281962879e+00 0.0 
2.065281962879e+00 -1.423850808979e+02 0.0 
0.0 0.0 -5.626497184921e+01 
-4.070622050078e+01 1.080709414172e+00 0.0 
1.080709414172e+00 -1.242959920790e+02 0.0 
0.0 0.0 -4.910066377392e+01 
-4.296098385542e+01 2.638621195822e+00 0.0 
2.638621195822e+00 -1.327046136356e+02 0.0 
0.0 0.0 -5.229967924732e+01 
-4.892357409966e+01 3.690207404700e+00 0.0 
3.690207404700e+00 -1.504891702337e+02 0.0 
0.0 0.0 -5.942382330000e+01 
-3.953042967145e+01 3.386278269326e+00 0.0 
3.386278269326e+00 -1.227425721429e+02 0.0 
0.0 0.0 -4.828190054429e+01 
-1.064783605859e+02 2.225585282962e+01 0.0 
2.225585282962e+01 -2.353779800473e+02 0.0 
0.0 0.0 -1.021569021899e+02 
-1.514288441458e+02 1.416322947573e+01 0.0 
1.416322947573e+01 -3.619429573614e+02 0.0 
0.0 0.0 -1.536115404522e+02 
-9.283235246805e+01 5.130900433461e+00 0.0 
5.130900433461e+00 -2.531545734922e+02 0.0 
0.0 0.0 -1.033960777881e+02 
-8.798273622399e+01 5.357986391370e+00 0.0 
5.357986391370e+00 -2.434456002493e+02 0.0 
0.0 0.0 -9.902850094200e+01 
-7.972647036589e+01 4.239179376169e+00 0.0 
4.239179376169e+00 -2.249193133882e+02 0.0 
0.0 0.0 -9.099373512623e+01 
-7.013602254038e+01 -1.373131826960e-01 0.0 
-1.373131826960e-01 -1.932358015808e+02 0.0 
0.0 0.0 -7.861154723634e+01 
-7.390001857154e+01 3.662621907176e-01 0.0 
3.662621907176e-01 -2.037623614173e+02 0.0 
0.0 0.0 -8.289871399665e+01 
-8.181759811088e+01 1.087791164746e+00 0.0 
1.087791164746e+00 -2.229206601043e+02 0.0 
0.0 0.0 -9.102147746454e+01 
-6.632152027006e+01 -4.918011952922e-01 0.0 
-4.918011952922e-01 -1.825274786486e+02 0.0 
0.0 0.0 -7.425469967559e+01 
-9.098749530306e+01 2.089231492251e+01 0.0 
2.089231492251e+01 -2.255642986259e+02 0.0 
0.0 0.0 -9.456553817870e+01 
-1.524226111615e+02 1.293115756144e+01 0.0 
1.293115756144e+01 -3.640112650144e+02 0.0 
0.0 0.0 -1.545301628528e+02 
-8.580615687742e+01 9.212012297740e+00 0.0 
9.212012297740e+00 -2.400165020779e+02 0.0 
0.0 0.0 -9.734679768660e+01 
-6.988631440466e+01 2.309190304968e-01 0.0 
2.309190304968e-01 -1.949253135325e+02 0.0 
0.0 0.0 -7.904348838116e+01 
-4.924651782685e+01 2.021679687121e+00 0.0 
2.021679687121e+00 -7.725889407823e+01 0.0 
0.0 0.0 -3.755162357152e+01 
-5.826001051653e+01 3.635024832366e+00 0.0 
3.635024832366e+00 -9.543042873232e+01 0.0 
0.0 0.0 -4.570713177466e+01 
-6.009661711138e+01 5.026300473292e+00 0.0 
5.026300473292e+00 -9.690018741159e+01 0.0 
0.0 0.0 -4.669904135689e+01 
-6.784397649513e+01 5.910197090396e+00 0.0 
5.910197090396e+00 -1.158810701342e+02 0.0 
0.0 0.0 -5.471751398881e+01 
-5.773808520110e+01 2.997588393919e+00 0.0 
2.997588393919e+00 -9.641910381630e+01 0.0 
0.0 0.0 -4.584715670522e+01 
-8.597688133964e+01 6.517243037857e-01 0.0 
6.517243037857e-01 -2.298531850004e+02 0.0 
0.0 0.0 -9.434901990202e+01 
-8.996975750191e+01 6.665894269426e-01 0.0 
6.665894269426e-01 -2.384535536689e+02 0.0 
0.0 0.0 -9.812699335124e+01 
-8.571625947622e+01 3.146347538129e-01 0.0 
3.146347538129e-01 -2.280010275352e+02 0.0 
0.0 0.0 -9.371518610341e+01 
-9.397679483804e+01 6.233226188706e-01 0.0 
6.233226188706e-01 -2.469883916609e+02 0.0 
0.0 0.0 -1.018895559497e+02 
-8.942898794222e+01 3.438851727077e-01 0.0 
3.438851727077e-01 -2.360998584398e+02 0.0 
0.0 0.0 -9.725865391460e+01 
-8.193672782561e+01 1.488900940760e-01 0.0 
1.488900940760e-01 -2.184157848137e+02 0.0 
0.0 0.0 -8.970575379178e+01 
-9.784703753096e+01 5.264356266591e-01 0.0 
5.264356266591e-01 -2.551230318841e+02 0.0 
0.0 0.0 -1.054910208245e+02 
-9.252403380127e+01 1.834770104141e-01 0.0 
1.834770104141e-01 -2.429295579166e+02 0.0 
0.0 0.0 -1.002360775154e+02 
-4.711060179562e+01 1.009404430579e+00 0.0 
1.009404430579e+00 -7.621737107465e+01 0.0 
0.0 0.0 -3.659839186108e+01 
-1.782576622014e+01 -1.231045756191e+00 0.0 
-1.231045756191e+00 -1.714767655816e+01 0.0 
0.0 0.0 -1.048189263969e+01 
-1.981141005702e+01 -2.099284845383e+00 0.0 
-2.099284845383e+00 -3.380571144922e+01 0.0 
0.0 0.0 -1.581307927737e+01 
-1.919350652072e+01 -2.131566294253e+00 0.0 
-2.131566294253e+00 -3.347844609222e+01 0.0 
0.0 0.0 -1.553013524706e+01 
-2.255441716912e+01 -2.520849922298e+00 0.0 
-2.520849922298e+00 -4.932519571280e+01 0.0 
0.0 0.0 -2.116388386457e+01 
-2.282446995568e+01 -2.191210022261e+00 0.0 
-2.191210022261e+00 -5.030270075697e+01 0.0 
0.0 0.0 -2.153815121379e+01 
-2.647241356962e+01 -2.317210740883e+00 0.0 
-2.317210740883e+00 -6.726842678202e+01 0.0 
0.0 0.0 -2.772225210549e+01 
-2.585503880344e+01 -1.727544025080e+00 0.0 
-1.727544025080e+00 -6.447680029431e+01 0.0 
0.0 0.0 -2.669955172932e+01 
-2.030033204129e+01 -1.741247811626e+00 0.0 
-1.741247811626e+00 -3.368682036944e+01 0.0 
0.0 0.0 -1.593657207361e+01 
-1.541800161507e+01 -1.330574988924e+00 0.0 
-1.330574988924e+00 -1.699769796957e+01 0.0 
0.0 0.0 -9.715415778648e+00 
-1.829315162985e+01 -2.167475516088e+00 0.0 
-2.167475516088e+00 -3.350919255355e+01 0.0 
0.0 0.0 -1.527746360272e+01 
-1.407213543575e+01 -1.292099723249e+00 0.0 
-1.292099723249e+00 -1.684300562296e+01 0.0 
0.0 0.0 -9.269743642756e+00 
-1.737531706772e+01 -2.138598289388e+00 0.0 
-2.138598289388e+00 -3.307602814393e+01 0.0 
0.0 0.0 -1.487025300723e+01 
-2.237742932467e+01 -2.673320764982e+00 0.0 
-2.673320764982e+00 -5.197343328005e+01 0.0 
0.0 0.0 -2.190525878141e+01 
-2.947124235224e+01 -2.583317694857e+00 0.0 
-2.583317694857e+00 -7.884139866151e+01 0.0 
0.0 0.0 -3.209379230412e+01 
-1.560790585168e+02 2.900916346697e+00 0.0 
2.900916346697e+00 -3.713985406560e+02 0.0 
0.0 0.0 -1.578432797518e+02 
-6.988651740752e+01 -1.165747840367e-01 0.0 
-1.165747840367e-01 -1.885602198732e+02 0.0 
0.0 0.0 -7.713402118423e+01 
-6.601400040269e+01 -3.368788053548e-01 0.0 
-3.368788053548e-01 -1.790745559214e+02 0.0 
0.0 0.0 -7.312656689724e+01 
-5.885222401930e+01 -4.588402157978e-01 0.0 
-4.588402157978e-01 -1.601226818770e+02 0.0 
0.0 0.0 -6.529247176889e+01 
-6.258401055043e+01 -4.564544647176e-01 0.0 
-4.564544647176e-01 -1.703363742523e+02 0.0 
0.0 0.0 -6.947611544082e+01 
-7.278903791909e+01 -2.081851622083e-01 0.0 
-2.081851622083e-01 -1.963177160561e+02 0.0 
0.0 0.0 -8.033202619257e+01 
-5.494869178596e+01 -2.860165602231e-01 0.0 
-2.860165602231e-01 -1.496646713967e+02 0.0 
0.0 0.0 -6.098400895479e+01 
-5.230686397151e+01 -5.716022313502e-01 0.0 
-5.716022313502e-01 -1.426181974000e+02 0.0 
0.0 0.0 -5.807751841146e+01 
-6.574681030648e+00 -2.700624512122e-01 0.0 
-2.700624512122e-01 -1.720580208830e+01 0.0 
0.0 0.0 -7.122032265439e+00 
-1.243732935923e+01 -3.861613146489e-01 0.0 
-3.861613146489e-01 -3.382681078688e+01 0.0 
0.0 0.0 -1.358320231692e+01 
-1.177791291111e+01 -3.405339903290e-01 0.0 
-3.405339903290e-01 -3.217300585893e+01 0.0 
0.0 0.0 -1.281974241873e+01 
-1.842282559840e+01 -4.672415547414e-01 0.0 
-4.672415547414e-01 -5.064790380566e+01 0.0 
0.0 0.0 -2.032121882122e+01 
-1.866889670286e+01 -6.717857318072e-01 0.0 
-6.717857318072e-01 -5.030047540684e+01 0.0 
0.0 0.0 -2.029081163291e+01 
-1.292183794098e+01 -6.466948356768e-01 0.0 
-6.466948356768e-01 -3.413625281376e+01 0.0 
0.0 0.0 -1.384460877547e+01 
-1.318051252408e+01 -8.890288613699e-01 0.0 
-8.890288613699e-01 -3.413143336008e+01 0.0 
0.0 0.0 -1.392723785520e+01 
-7.427674207011e+00 -5.380665037751e-01 0.0 
-5.380665037751e-01 -1.706942253294e+01 0.0 
0.0 0.0 -7.343707626634e+00 
-1.348475003630e+01 -1.011860250287e+00 0.0 
-1.011860250287e+00 -3.399003273956e+01 0.0 
0.0 0.0 -1.400379970783e+01 
-1.935690340208e+01 -1.249230731934e+00 0.0 
-1.249230731934e+00 -5.109671756817e+01 0.0 
0.0 0.0 -2.073608629108e+01 
-7.882384040070e+00 -6.332056313212e-01 0.0 
-6.332056313212e-01 -1.648475920883e+01 0.0 
0.0 0.0 -7.321879994631e+00 
-7.945851439760e+01 5.026792285020e-01 0.0 
5.026792285020e-01 -1.678553158648e+02 0.0 
0.0 0.0 -7.379414907873e+01 
-8.337727801826e+01 9.541394530423e-01 0.0 
9.541394530423e-01 -1.787222619460e+02 0.0 
0.0 0.0 -7.822986198928e+01 
-1.535042195303e+02 1.040386119455e+01 0.0 
1.040386119455e+01 -3.666297434456e+02 0.0 
0.0 0.0 -1.556401888928e+02 
-4.649723577072e+01 6.356977186084e-01 0.0 
6.356977186084e-01 -7.800460629741e+01 0.0 
0.0 0.0 -3.695055262044e+01 
-1.181768376452e+01 -1.097978398374e+00 0.0 
-1.097978398374e+00 -1.712769098197e+01 0.0 
0.0 0.0 -8.667776067787e+00 
-1.043413778533e+02 3.472884093933e+00 0.0 
3.472884093933e+00 -2.389838162465e+02 0.0 
0.0 0.0 -1.025975582299e+02 
-1.066217319786e+02 6.523160605213e+00 0.0 
6.523160605213e+00 -2.436572501164e+02 0.0 
0.0 0.0 -1.046836946285e+02 
-1.062613799156e+02 5.423344166504e+00 0.0 
5.423344166504e+00 -2.434268463597e+02 0.0 
0.0 0.0 -1.045064678826e+02 
-1.405982908834e+02 5.979201123562e-01 0.0 
5.979201123562e-01 -3.426220842080e+02 0.0 
0.0 0.0 -1.445661125274e+02 
-1.455530227536e+02 1.286452405648e+00 0.0 
1.286452405648e+00 -3.519232581210e+02 0.0 
0.0 0.0 -1.488428842624e+02 
-1.040467460726e+02 1.914587668113e+00 0.0 
1.914587668113e+00 -2.391642608950e+02 0.0 
0.0 0.0 -1.025633020903e+02 
-4.503477730904e+01 -1.989939466616e+00 0.0 
-1.989939466616e+00 -1.260639421738e+02 0.0 
0.0 0.0 -5.092961584486e+01 
-1.096982046067e+02 1.781098090714e+01 0.0 
1.781098090714e+01 -2.375902781055e+02 0.0 
0.0 0.0 -1.037865448137e+02 
-9.322155972477e+01 3.378538662076e+00 0.0 
3.378538662076e+00 -2.038926766399e+02 0.0 
0.0 0.0 -8.873427090941e+01 
-2.688398785699e+01 6.388812902813e+00 0.0 
6.388812902813e+00 -7.460263783856e+01 0.0 
0.0 0.0 -3.004598770866e+01 
-4.248395285367e+01 -2.102462345539e+00 0.0 
-2.102462345539e+00 -1.212280566002e+02 0.0 
0.0 0.0 -4.871360283617e+01 
-1.114280175847e+02 1.153054551703e+00 0.0 
1.153054551703e+00 -2.849478761312e+02 0.0 
0.0 0.0 -1.185127681148e+02 
-9.856202688471e+01 2.550143476566e+00 0.0 
2.550143476566e+00 -2.608383249751e+02 0.0 
0.0 0.0 -1.074201055580e+02 
-1.307153020198e+02 2.859037265169e+00 0.0 
2.859037265169e+00 -3.245215092391e+02 0.0 
0.0 0.0 -1.361710433777e+02 
-1.028579969881e+02 1.580682002230e+00 0.0 
1.580682002230e+00 -2.677840834270e+02 0.0 
0.0 0.0 -1.107926241245e+02 
-1.214735151112e+02 3.654622537545e+00 0.0 
3.654622537545e+00 -3.073632490660e+02 0.0 
0.0 0.0 -1.282510292532e+02 
-1.393783774660e+02 1.486958245349e+01 0.0 
1.486958245349e+01 -3.414510245156e+02 0.0 
0.0 0.0 -1.438488205945e+02 
-2.945445264239e+01 -9.123811694178e-01 0.0 
-9.123811694178e-01 -7.952194157466e+01 0.0 
0.0 0.0 -3.229291826511e+01 
-6.835509968283e+01 2.259693763599e+00 0.0 
2.259693763599e+00 -1.310436532638e+02 0.0 
0.0 0.0 -5.941962588397e+01 
-6.382767453672e+01 1.117150419536e+00 0.0 
1.117150419536e+00 -1.235969974732e+02 0.0 
0.0 0.0 -5.582740160298e+01 
-8.298774604647e+01 3.036308105640e+00 0.0 
3.036308105640e+00 -1.728419374530e+02 0.0 
0.0 0.0 -7.634890504983e+01 
-4.789550420761e+01 -1.409543704163e+00 0.0 
-1.409543704163e+00 -1.323340092027e+02 0.0 
0.0 0.0 -5.366885402308e+01 
-7.796295931920e+01 7.131385542655e-02 0.0 
7.131385542655e-02 -2.094246629318e+02 0.0 
0.0 0.0 -8.581628667530e+01 
-3.105948110717e+01 -1.998140474278e+00 0.0 
-1.998140474278e+00 -8.433066802677e+01 0.0 
0.0 0.0 -3.421704474018e+01 
-1.232334274833e+02 2.536147712368e+01 0.0 
2.536147712368e+01 -2.885349792389e+02 0.0 
0.0 0.0 -1.231305220167e+02 
-6.125149433606e+01 2.002482900976e+01 0.0 
2.002482900976e+01 -1.146420358434e+02 0.0 
0.0 0.0 -5.236805905383e+01 
-7.626838953343e+01 2.982169674037e+00 0.0 
2.982169674037e+00 -2.157694733664e+02 0.0 
0.0 0.0 -8.721135886995e+01 
-6.262074107536e+01 -7.229190255612e-01 0.0 
-7.229190255612e-01 -1.737909888341e+02 0.0 
0.0 0.0 -7.052351897284e+01 
-4.852890859911e+01 -1.781599960004e+00 0.0 
-1.781599960004e+00 -1.371154780859e+02 0.0 
0.0 0.0 -5.529331600551e+01 
-3.948815354276e+01 -2.196416037084e+00 0.0 
-2.196416037084e+00 -1.128684166513e+02 0.0 
0.0 0.0 -4.530697105822e+01 
-5.535885276697e+01 1.818948313663e+01 0.0 
1.818948313663e+01 -1.492271920613e+02 0.0 
0.0 0.0 -6.097581344849e+01 
-7.347762061600e+01 9.511365691944e-01 0.0 
9.511365691944e-01 -2.051827204960e+02 0.0 
0.0 0.0 -8.319810233360e+01 
-1.116384654493e+02 5.622705092428e+00 0.0 
5.622705092428e+00 -2.905087388790e+02 0.0 
0.0 0.0 -1.202441612985e+02 
-8.637208514102e+01 2.849865124573e+00 0.0 
2.849865124573e+00 -1.837752569170e+02 0.0 
0.0 0.0 -8.064420261739e+01 
-1.041478075170e+01 -1.055354665011e+00 0.0 
-1.055354665011e+00 -1.907569324105e+01 0.0 
0.0 0.0 -8.732441028949e+00 
-1.161560473499e+02 6.878563589096e+00 0.0 
6.878563589096e+00 -2.999533609880e+02 0.0 
0.0 0.0 -1.244328225014e+02 
-8.961591457351e+01 2.717160323007e+00 0.0 
2.717160323007e+00 -2.431105291847e+02 0.0 
0.0 0.0 -9.941793312745e+01 
-7.383433361243e+01 4.190966916750e+00 0.0 
4.190966916750e+00 -1.393914286584e+02 0.0 
0.0 0.0 -6.356772868125e+01 
-1.069396881209e+02 1.547022151670e+01 0.0 
1.547022151670e+01 -2.797687969198e+02 0.0 
0.0 0.0 -1.156125455122e+02 
-2.923299222104e+01 -2.516890636539e+00 0.0 
-2.516890636539e+00 -7.744711910995e+01 0.0 
0.0 0.0 -3.160403339930e+01 
-8.756711257091e+01 5.181136844621e+00 0.0 
5.181136844621e+00 -1.808798001816e+02 0.0 
0.0 0.0 -8.013407382574e+01 
-1.022542165529e+02 1.090331096167e+01 0.0 
1.090331096167e+01 -2.202128066793e+02 0.0 
0.0 0.0 -9.634010696965e+01 
-6.701957489010e+01 4.323833118542e+00 0.0 
4.323833118542e+00 -1.182352722314e+02 0.0 
0.0 0.0 -5.517645413644e+01 
-2.452017128273e+01 -1.882892814762e+00 0.0 
-1.882892814762e+00 -6.471001627436e+01 0.0 
0.0 0.0 -2.636905626713e+01 
-6.000427646821e+01 1.430839297523e+00 0.0 
1.430839297523e+00 -1.108102541930e+02 0.0 
0.0 0.0 -5.084435919837e+01 
-1.359537968483e+02 1.070555539431e+01 0.0 
1.070555539431e+01 -3.364993744271e+02 0.0 
0.0 0.0 -1.413359513826e+02 
-9.174461387239e+01 1.061462471230e+01 0.0 
1.061462471230e+01 -1.812849083786e+02 0.0 
0.0 0.0 -8.150885667529e+01 
-4.412366667710e+01 -1.294216246320e+00 0.0 
-1.294216246320e+00 -1.212389550015e+02 0.0 
0.0 0.0 -4.920878650359e+01 
-7.300111791752e+01 8.706275957666e+00 0.0 
8.706275957666e+00 -2.114528492632e+02 0.0 
0.0 0.0 -8.493619015423e+01 
-5.957941982609e+01 2.116660235442e+01 0.0 
2.116660235442e+01 -1.408482244989e+02 0.0 
0.0 0.0 -5.972829329751e+01 
-4.646779908687e+01 6.632988355934e+00 0.0 
6.632988355934e+00 -6.223124327391e+01 0.0 
0.0 0.0 -3.220971270824e+01 
-9.637609192724e+01 4.237133209180e+00 0.0 
4.237133209180e+00 -2.127060449392e+02 0.0 
0.0 0.0 -9.232464105993e+01 
-7.058551527056e+01 1.664996605592e+01 0.0 
1.664996605592e+01 -1.938313143544e+02 0.0 
0.0 0.0 -7.892504888749e+01 
-1.176659491933e+02 1.440771953978e+01 0.0 
1.440771953978e+01 -3.022620545902e+02 0.0 
0.0 0.0 -1.255784011351e+02 
-8.963405718955e+01 1.092402895963e+01 0.0 
1.092402895963e+01 -2.475796960273e+02 0.0 
0.0 0.0 -1.007641259651e+02 
-4.741950311307e+01 -1.000136441059e+00 0.0 
-1.000136441059e+00 -1.300529778523e+02 0.0 
0.0 0.0 -5.284174428961e+01 
-1.262606863868e+02 6.129292392189e+00 0.0 
6.129292392189e+00 -3.182756060411e+02 0.0 
0.0 0.0 -1.329608877284e+02 
-6.763274043655e+01 1.216959565255e+01 0.0 
1.216959565255e+01 -1.957880403431e+02 0.0 
0.0 0.0 -7.862623423388e+01 
-9.438654243145e+01 6.170621439436e+00 0.0 
6.170621439436e+00 -2.012661799601e+02 0.0 
0.0 0.0 -8.829581671745e+01 
-9.536467923887e+01 2.222936231062e+01 0.0 
2.222936231062e+01 -2.201849167081e+02 0.0 
0.0 0.0 -9.426487878409e+01 
-5.412586484920e+01 7.336984869885e+00 0.0 
7.336984869885e+00 -1.651997964572e+02 0.0 
0.0 0.0 -6.539769839192e+01 
-9.271935615312e+01 8.190524948069e+00 0.0 
8.190524948069e+00 -1.901329293966e+02 0.0 
0.0 0.0 -8.445568566493e+01 
-7.519251117277e+01 4.494593940069e+00 0.0 
4.494593940069e+00 -2.153095089817e+02 0.0 
0.0 0.0 -8.675060604635e+01 
-1.113061201099e+02 1.714252713325e+01 0.0 
1.714252713325e+01 -2.863539843093e+02 0.0 
0.0 0.0 -1.188980313257e+02 
-5.690579610301e+01 2.095385031710e+01 0.0 
2.095385031710e+01 -1.112650032378e+02 0.0 
0.0 0.0 -5.005123980223e+01 
-7.947010229666e+01 2.170465051025e+01 0.0 
2.170465051025e+01 -1.817931674933e+02 0.0 
0.0 0.0 -7.797898093700e+01 
-8.822590651161e+01 1.988375543231e+01 0.0 
1.988375543231e+01 -1.806440596793e+02 0.0 
0.0 0.0 -8.026098985726e+01 
-7.463265360395e+01 2.014783541734e+01 0.0 
2.014783541734e+01 -1.888177265025e+02 0.0 
0.0 0.0 -7.863511403192e+01 
-1.066927649508e+02 5.991475453128e-01 0.0 
5.991475453128e-01 -2.745613224262e+02 0.0 
0.0 0.0 -1.139762262131e+02 
-1.212179260298e+02 6.514825666554e+00 0.0 
6.514825666554e+00 -3.091965968868e+02 0.0 
0.0 0.0 -1.287243568750e+02 
-2.815177912832e+01 1.331940058691e-01 0.0 
1.331940058691e-01 -7.883465875063e+01 0.0 
0.0 0.0 -3.169593136369e+01 
-4.185230531607e+01 1.719017730467e+01 0.0 
1.719017730467e+01 -1.138034106535e+02 0.0 
0.0 0.0 -4.629671479086e+01 
-7.534901222378e+01 5.645372383018e+00 0.0 
5.645372383018e+00 -1.389492813125e+02 0.0 
0.0 0.0 -6.388948806088e+01 
-1.117845035001e+02 2.314605445183e+01 0.0 
2.314605445183e+01 -2.675716925593e+02 0.0 
0.0 0.0 -1.134068588178e+02 
-1.007848037180e+02 6.998473084328e+00 0.0 
6.998473084328e+00 -2.215329465212e+02 0.0 
0.0 0.0 -9.629532507175e+01 
-5.207134739971e+01 2.096932230449e+01 0.0 
2.096932230449e+01 -1.224266375270e+02 0.0 
0.0 0.0 -5.194939547802e+01 
-1.214503518542e+02 5.000128998795e+00 0.0 
5.000128998795e+00 -3.085192770236e+02 0.0 
0.0 0.0 -1.285908886633e+02 
-9.884386077266e+01 9.340554703142e+00 0.0 
9.340554703142e+00 -2.102197236927e+02 0.0 
0.0 0.0 -9.231907533961e+01 
-7.763212499538e+01 1.017714970842e+00 0.0 
1.017714970842e+00 -2.140669021951e+02 0.0 
0.0 0.0 -8.710970815714e+01 
-3.335311629650e+01 -3.257523390129e-01 0.0 
-3.257523390129e-01 -9.123531210907e+01 0.0 
0.0 0.0 -3.697652852167e+01 
-2.400149810125e+01 6.227766750602e+00 0.0 
6.227766750602e+00 -5.832501004570e+01 0.0 
0.0 0.0 -2.429795244409e+01 
-4.168629948853e+01 5.299691331105e+00 0.0 
5.299691331105e+00 -1.300906852263e+02 0.0 
0.0 0.0 -5.113309541445e+01 
-6.688748019417e+01 1.497750766632e+01 0.0 
1.497750766632e+01 -1.889826713486e+02 0.0 
0.0 0.0 -7.636104546283e+01 
-8.569791948443e+01 1.830748369388e+00 0.0 
1.830748369388e+00 -2.330950731893e+02 0.0 
0.0 0.0 -9.523789780214e+01 
-1.084379862409e+02 1.559696666822e+01 0.0 
1.559696666822e+01 -2.368173185546e+02 0.0 
0.0 0.0 -1.031765914386e+02 
-1.263246730760e+02 4.629579813461e+00 0.0 
4.629579813461e+00 -3.173231628904e+02 0.0 
0.0 0.0 -1.326943507899e+02 
-1.102255648969e+02 9.083575269135e+00 0.0 
9.083575269135e+00 -2.895765816609e+02 0.0 
0.0 0.0 -1.195406439673e+02 
-2.107177276201e+01 1.161305372140e+01 0.0 
1.161305372140e+01 -2.205282146344e+01 0.0 
0.0 0.0 -1.253737826763e+01 
-5.225318620193e+01 1.004988331281e+01 0.0 
1.004988331281e+01 -7.442989911998e+01 0.0 
0.0 0.0 -3.760492559657e+01 
-1.311845414700e+02 4.211142296262e+00 0.0 
4.211142296262e+00 -3.261061230811e+02 0.0 
0.0 0.0 -1.367871993653e+02 
-7.751974858798e+01 8.082665949891e+00 0.0 
8.082665949891e+00 -2.219143296360e+02 0.0 
0.0 0.0 -8.943022346721e+01 
-1.164622798548e+02 1.659231347690e+01 0.0 
1.659231347690e+01 -2.977047141317e+02 0.0 
0.0 0.0 -1.238500981959e+02 
-8.472507985530e+01 1.109844321685e-01 0.0 
1.109844321685e-01 -2.246597802582e+02 0.0 
0.0 0.0 -9.241545803405e+01 
-1.247490801424e+02 2.525579236133e+01 0.0 
2.525579236133e+01 -2.944494616146e+02 0.0 
0.0 0.0 -1.253595625271e+02 
-3.755893350514e+01 1.817763304748e+01 0.0 
1.817763304748e+01 -5.331305413940e+01 0.0 
0.0 0.0 -2.686159629336e+01 
-1.360573326025e+02 3.728921522510e+00 0.0 
3.728921522510e+00 -3.351039867384e+02 0.0 
0.0 0.0 -1.409483958023e+02 
-1.090668716872e+02 1.104794789916e+01 0.0 
1.104794789916e+01 -2.873368844326e+02 0.0 
0.0 0.0 -1.185211268359e+02 
-3.955012403460e+01 1.196825679036e+01 0.0 
1.196825679036e+01 -1.188555747021e+02 0.0 
0.0 0.0 -4.712170962102e+01 
-4.321414250918e+01 2.403729863743e-02 0.0 
2.403729863743e-02 -7.533711393007e+01 0.0 
0.0 0.0 -3.516537693177e+01 
-1.476196656362e+02 4.101862478545e+00 0.0 
4.101862478545e+00 -3.563733530273e+02 0.0 
0.0 0.0 -1.507979055990e+02 
-1.190336692257e+02 1.226212046639e+01 0.0 
1.226212046639e+01 -3.059450325977e+02 0.0 
0.0 0.0 -1.270936105470e+02 
-8.271652429795e+01 2.047796177298e+01 0.0 
2.047796177298e+01 -2.070777158727e+02 0.0 
0.0 0.0 -8.653827205121e+01 
-7.408575770697e+01 6.412561263602e+00 0.0 
6.412561263602e+00 -2.139841255184e+02 0.0 
0.0 0.0 -8.602096496761e+01 
-3.887412756842e+01 9.257217777010e+00 0.0 
9.257217777010e+00 -4.458349287845e+01 0.0 
0.0 0.0 -2.463728613406e+01 
-9.002451155673e+01 1.821401656036e+00 0.0 
1.821401656036e+00 -2.419131443280e+02 0.0 
0.0 0.0 -9.918129676543e+01 
-8.374874291033e+01 2.170704229056e+01 0.0 
2.170704229056e+01 -1.858965049789e+02 0.0 
0.0 0.0 -8.049357436677e+01 
-1.106324757656e+02 1.325428934792e+01 0.0 
1.325428934792e+01 -2.511835348149e+02 0.0 
0.0 0.0 -1.081448031741e+02 
-1.231744919669e+02 1.390480916469e+01 0.0 
1.390480916469e+01 -3.128305445178e+02 0.0 
0.0 0.0 -1.304015109454e+02 
-8.334625425676e+01 1.235634705929e+01 0.0 
1.235634705929e+01 -1.537968976690e+02 0.0 
0.0 0.0 -7.074294557774e+01 
-8.597517973861e+01 1.133523676121e+00 0.0 
1.133523676121e+00 -2.316149737203e+02 0.0 
0.0 0.0 -9.487704603768e+01 
-9.178318546320e+01 1.729612152121e+01 0.0 
1.729612152121e+01 -2.428221837845e+02 0.0 
0.0 0.0 -9.998161077432e+01 
-1.898830145848e+01 -9.569132644717e-01 0.0 
-9.569132644717e-01 -5.042267306095e+01 0.0 
0.0 0.0 -2.042329235583e+01 
-4.487506998895e+01 1.397632502031e+01 0.0 
1.397632502031e+01 -6.030452631326e+01 0.0 
0.0 0.0 -3.115387889066e+01 
-9.011820777718e+01 1.150339763982e+00 0.0 
1.150339763982e+00 -2.402544145025e+02 0.0 
0.0 0.0 -9.871178668390e+01 
-4.522843690918e+01 4.405514567304e+00 0.0 
4.405514567304e+00 -1.404196222152e+02 0.0 
0.0 0.0 -5.529441773730e+01 
-7.858819572866e+01 5.972596908287e+00 0.0 
5.972596908287e+00 -2.238496688839e+02 0.0 
0.0 0.0 -9.033135938377e+01 
-1.296678320090e+02 2.168750671128e+01 0.0 
2.168750671128e+01 -3.164421525352e+02 0.0 
0.0 0.0 -1.334329953633e+02 
-9.426041262591e+01 1.120268075546e+00 0.0 
1.120268075546e+00 -2.488732338956e+02 0.0 
0.0 0.0 -1.025400939565e+02 
-5.144045734857e+01 5.457489071301e+00 0.0 
5.457489071301e+00 -1.580689357474e+02 0.0 
0.0 0.0 -6.245281792880e+01 
-9.839006506640e+01 1.033782241479e+00 0.0 
1.033782241479e+00 -2.574226139455e+02 0.0 
0.0 0.0 -1.063438037036e+02 
-3.245129785222e+01 1.381693355686e+01 0.0 
1.381693355686e+01 -3.247358311288e+01 0.0 
0.0 0.0 -1.907746428953e+01 
-8.757227329896e+01 1.452927490938e+01 0.0 
1.452927490938e+01 -1.666370304758e+02 0.0 
0.0 0.0 -7.586279113243e+01 
-1.025310580485e+02 8.901466721369e-01 0.0 
8.901466721369e-01 -2.658911513047e+02 0.0 
0.0 0.0 -1.101266628059e+02 
-9.154446532932e+01 2.194647321362e+01 0.0 
2.194647321362e+01 -2.053814072036e+02 0.0 
0.0 0.0 -8.867776175989e+01 
-2.023213208218e+01 -1.405734925256e+00 0.0 
-1.405734925256e+00 -5.276612853018e+01 0.0 
0.0 0.0 -2.149947818371e+01 
-8.676382872797e+01 1.990361168139e+01 0.0 
1.990361168139e+01 -2.209629552342e+02 0.0 
0.0 0.0 -9.191803518865e+01 
-1.352145422221e+02 1.150098036976e+00 0.0 
1.150098036976e+00 -3.323527613483e+02 0.0 
0.0 0.0 -1.398701910711e+02 
-5.517418086340e+01 -7.993557907476e-01 0.0 
-7.993557907476e-01 -1.586489682953e+02 0.0 
0.0 0.0 -6.374694474762e+01 
-8.319371532195e+01 5.618776679005e+00 0.0 
5.618776679005e+00 -2.336061435369e+02 0.0 
0.0 0.0 -9.463995765766e+01 
-9.462623704948e+01 1.577309629869e+01 0.0 
1.577309629869e+01 -1.880099308715e+02 0.0 
0.0 0.0 -8.439085037629e+01 
-2.813335948665e+01 1.746330947897e+01 0.0 
1.746330947897e+01 -3.032761160385e+01 0.0 
0.0 0.0 -1.713829132715e+01 
-9.168355296487e+01 6.757358018645e+00 0.0 
6.757358018645e+00 -2.520691064558e+02 0.0 
0.0 0.0 -1.027257978262e+02 
-9.932540553755e+01 2.237458237147e+01 0.0 
2.237458237147e+01 -2.249376523261e+02 0.0 
0.0 0.0 -9.687891735910e+01 
-9.107284385458e+01 1.929900969213e+01 0.0 
1.929900969213e+01 -2.344914338505e+02 0.0 
0.0 0.0 -9.726928331153e+01 
-7.479353820774e+01 1.570828418254e+01 0.0 
1.570828418254e+01 -2.066762661478e+02 0.0 
0.0 0.0 -8.404094130665e+01 
-1.006919785392e+02 7.913640493033e+00 0.0 
7.913640493033e+00 -2.707596084839e+02 0.0 
0.0 0.0 -1.110354761069e+02 
-3.197976850066e+01 1.934474874264e+01 0.0 
1.934474874264e+01 -5.097837272373e+01 0.0 
0.0 0.0 -2.448744236732e+01 
-4.196481107076e+01 -2.248827790110e+00 0.0 
-2.248827790110e+00 -1.177680808084e+02 0.0 
0.0 0.0 -4.751986756375e+01 
-3.565739865046e+01 -2.508900049409e+00 0.0 
-2.508900049409e+00 -9.844990978883e+01 0.0 
0.0 0.0 -3.983219253179e+01 
-5.534704705606e+01 4.756156062552e+00 0.0 
4.756156062552e+00 -1.681924069709e+02 0.0 
0.0 0.0 -6.666183620810e+01 
-1.030896436767e+02 2.235613309576e+01 0.0 
2.235613309576e+01 -2.300231153668e+02 0.0 
0.0 0.0 -9.953382771305e+01 
-2.463517602551e+01 -5.715745908049e-01 0.0 
-5.715745908049e-01 -6.703150430785e+01 0.0 
0.0 0.0 -2.710000410001e+01 
-9.537357543012e+01 1.836703101469e+01 0.0 
1.836703101469e+01 -1.937444121847e+02 0.0 
0.0 0.0 -8.633539628444e+01 
-2.718932778562e+01 -2.676268040220e+00 0.0 
-2.676268040220e+00 -7.087535953594e+01 0.0 
0.0 0.0 -2.901940619647e+01 
-5.269413631920e+01 3.111191169224e+00 0.0 
3.111191169224e+00 -1.602040340664e+02 0.0 
0.0 0.0 -6.346945111567e+01 
-1.051359591543e+02 1.964705293281e+01 0.0 
1.964705293281e+01 -2.669158777407e+02 0.0 
0.0 0.0 -1.112155510685e+02 
-6.490900983582e+01 4.002665380145e-01 0.0 
4.002665380145e-01 -1.293713430531e+02 0.0 
0.0 0.0 -5.788410586667e+01 
-5.654633420543e+01 2.654794530680e+00 0.0 
2.654794530680e+00 -1.696521978813e+02 0.0 
0.0 0.0 -6.745955962603e+01 
-4.058604082165e+01 -3.294632335612e-01 0.0 
-3.294632335612e-01 -1.109200963842e+02 0.0 
0.0 0.0 -4.505184116176e+01 
-5.380688986375e+01 1.285575868604e+00 0.0 
1.285575868604e+00 -1.608559294654e+02 0.0 
0.0 0.0 -6.399884579875e+01 
-8.307628058020e+01 1.645494907769e+01 0.0 
1.645494907769e+01 -2.245829515379e+02 0.0 
0.0 0.0 -9.189776963543e+01 
-5.759384057753e+01 1.074711324523e+00 0.0 
1.074711324523e+00 -1.698498723524e+02 0.0 
0.0 0.0 -6.783311387897e+01 
-5.471259895259e+01 1.023076612379e-02 0.0 
1.023076612379e-02 -1.603691442773e+02 0.0 
0.0 0.0 -6.412452296895e+01 
-9.978327918732e+01 3.918110245318e+00 0.0 
3.918110245318e+00 -2.239929625045e+02 0.0 
0.0 0.0 -9.673287250754e+01 
-5.836376118458e+01 -2.208662582144e-02 0.0 
-2.208662582144e-02 -1.689264138541e+02 0.0 
0.0 0.0 -6.778705251159e+01 
-1.053928510186e+02 1.180133887433e+00 0.0 
1.180133887433e+00 -2.425766365562e+02 0.0 
0.0 0.0 -1.039908462724e+02 
-1.570133398245e+02 1.378780858674e+00 0.0 
1.378780858674e+00 -3.729881952795e+02 0.0 
0.0 0.0 -1.586004605312e+02 
-4.923064426411e+01 2.015485173102e-01 0.0 
2.015485173102e-01 -9.033773865411e+01 0.0 
0.0 0.0 -4.147051487547e+01 
-2.534551876044e+01 1.743877674898e+01 0.0 
1.743877674898e+01 -2.673948955651e+01 0.0 
0.0 0.0 -1.522550249508e+01 
-2.001714834458e+01 9.108836546863e-02 0.0 
9.108836546863e-02 -1.667710652134e+01 0.0 
0.0 0.0 -1.087282898921e+01 
-2.918335361658e+01 1.829253576072e+01 0.0 
1.829253576072e+01 -5.154659012881e+01 0.0 
0.0 0.0 -2.381898312362e+01 
-4.866583489032e+01 -1.519413515807e+00 0.0 
-1.519413515807e+00 -1.399707504316e+02 0.0 
0.0 0.0 -5.619097559656e+01 
-9.546246896999e+01 2.045872564454e+01 0.0 
2.045872564454e+01 -2.010236743473e+02 0.0 
0.0 0.0 -8.854584299520e+01 
-4.968148156624e+01 1.037525843734e-01 0.0 
1.037525843734e-01 -9.106290315640e+01 0.0 
0.0 0.0 -4.182331541679e+01 
-4.545626682430e+01 -1.996312050205e+00 0.0 
-1.996312050205e+00 -1.291328554825e+02 0.0 
0.0 0.0 -5.197673669203e+01 
-1.153861559728e+02 2.222220465047e+01 0.0 
2.222220465047e+01 -2.578698029770e+02 0.0 
0.0 0.0 -1.115767876849e+02 
-1.352953745133e+02 2.619317476473e+01 0.0 
2.619317476473e+01 -3.199293813574e+02 0.0 
0.0 0.0 -1.361674267612e+02 
-7.593590153938e+01 7.298347770653e-01 0.0 
7.298347770653e-01 -1.581043928521e+02 0.0 
0.0 0.0 -6.981208831744e+01 
-1.216035737905e+02 1.601816741291e+01 0.0 
1.601816741291e+01 -3.081738042858e+02 0.0 
0.0 0.0 -1.285332134229e+02 
-9.589414691675e+01 1.874163340826e+01 0.0 
1.874163340826e+01 -2.481587692428e+02 0.0 
0.0 0.0 -1.028158748479e+02 
-9.266801050005e+01 6.228072388781e-01 0.0 
6.228072388781e-01 -2.054802529404e+02 0.0 
0.0 0.0 -8.904447903212e+01 
-4.341554305477e+01 3.891783542103e-01 0.0 
3.891783542103e-01 -7.392661564577e+01 0.0 
0.0 0.0 -3.480264761016e+01 
-1.662958822605e+01 -1.993514615745e+00 0.0 
-1.993514615745e+00 -3.302652728114e+01 0.0 
0.0 0.0 -1.461986182764e+01 
-1.114739222761e+02 3.339465226022e-01 0.0 
3.339465226022e-01 -2.844798755112e+02 0.0 
0.0 0.0 -1.183861393362e+02 
-2.500883780357e+01 1.712006381311e+01 0.0 
1.712006381311e+01 -2.582586390743e+01 0.0 
0.0 0.0 -1.485041051330e+01 
-2.631987340609e+01 1.641210285989e+01 0.0 
1.641210285989e+01 -4.537576421971e+01 0.0 
0.0 0.0 -2.110869128774e+01 
-2.439386894911e+01 1.409439637076e+01 0.0 
1.409439637076e+01 -4.228147470839e+01 0.0 
0.0 0.0 -1.960260309725e+01 
-4.992947312050e+01 -7.477974361295e-01 0.0 
-7.477974361295e-01 -1.370244791120e+02 0.0 
0.0 0.0 -5.568618566975e+01 
-2.220231780250e+01 -2.632327716916e+00 0.0 
-2.632327716916e+00 -4.908351101695e+01 0.0 
0.0 0.0 -2.098574864584e+01 
-2.495421904419e+01 1.634954416242e+01 0.0 
1.634954416242e+01 -2.821427978324e+01 0.0 
0.0 0.0 -1.555054964823e+01 
-1.353409118317e+02 1.884641302928e+01 0.0 
1.884641302928e+01 -3.312066307040e+02 0.0 
0.0 0.0 -1.395642627607e+02 
-5.330549062398e+01 1.417194347567e+00 0.0 
1.417194347567e+00 -9.192204337454e+01 0.0 
0.0 0.0 -4.316826019956e+01 
-1.090078583831e+02 2.096551685323e+01 0.0 
2.096551685323e+01 -2.716534615224e+02 0.0 
0.0 0.0 -1.137983959717e+02 
-2.359154598750e+01 1.473424492730e+01 0.0 
1.473424492730e+01 -2.622566306124e+01 0.0 
0.0 0.0 -1.454516271462e+01 
-1.045342569032e+02 1.053029799818e+01 0.0 
1.053029799818e+01 -2.301813004966e+02 0.0 
0.0 0.0 -1.000146672199e+02 
-1.289666053957e+02 2.350219284967e+01 0.0 
2.350219284967e+01 -3.112282381265e+02 0.0 
0.0 0.0 -1.316584530567e+02 
-1.558166421757e+02 7.983123529074e+00 0.0 
7.983123529074e+00 -3.709661543807e+02 0.0 
0.0 0.0 -1.576348389669e+02 
-1.184607428858e+02 2.203249999172e+01 0.0 
2.203249999172e+01 -2.906848347602e+02 0.0 
0.0 0.0 -1.223436732938e+02 
-2.212368190021e+01 1.062546430596e+01 0.0 
1.062546430596e+01 -3.682197063176e+01 0.0 
0.0 0.0 -1.728369575959e+01 
-6.483981524681e+01 4.635888419107e+00 0.0 
4.635888419107e+00 -1.107536000950e+02 0.0 
0.0 0.0 -5.227802460256e+01 
-1.214510516068e+02 2.528477306658e+01 0.0 
2.528477306658e+01 -2.820142798791e+02 0.0 
0.0 0.0 -1.206395994458e+02 
-8.211480127949e+01 1.206330664911e+00 0.0 
1.206330664911e+00 -1.739227266712e+02 0.0 
0.0 0.0 -7.641125838520e+01 
-1.574434288112e+02 5.929439731780e+00 0.0 
5.929439731780e+00 -3.737039150829e+02 0.0 
0.0 0.0 -1.589442031682e+02 
-5.415387530897e+01 1.903029232034e+00 0.0 
1.903029232034e+00 -9.010771983465e+01 0.0 
0.0 0.0 -4.287847854309e+01 
-1.000391828223e+02 2.470185848500e+00 0.0 
2.470185848500e+00 -2.262503946420e+02 0.0 
0.0 0.0 -9.748687323930e+01 
-2.649220556817e+01 -1.050805951744e+00 0.0 
-1.050805951744e+00 -7.038890617009e+01 0.0 
0.0 0.0 -2.866433352148e+01 
-9.982309131248e+01 1.210218807508e+00 0.0 
1.210218807508e+00 -2.262937702150e+02 0.0 
0.0 0.0 -9.743505845826e+01 
-1.026424644558e+02 2.123664209095e+01 0.0 
2.123664209095e+01 -2.215604233189e+02 0.0 
0.0 0.0 -9.686086633242e+01 
-6.013746299970e+01 6.283052743177e-01 0.0 
6.283052743177e-01 -1.151039591932e+02 0.0 
0.0 0.0 -5.217242665787e+01 
-6.718440642215e+01 6.717808256366e+00 0.0 
6.717808256366e+00 -1.123654252703e+02 0.0 
0.0 0.0 -5.346494950773e+01 
-1.503128020488e+02 2.023392343546e+00 0.0 
2.023392343546e+00 -3.605991030797e+02 0.0 
0.0 0.0 -1.528735715386e+02 
-1.121503045321e+02 1.954629363902e+01 0.0 
1.954629363902e+01 -2.476858797728e+02 0.0 
0.0 0.0 -1.075508552915e+02 
-2.068919279320e+01 8.049245878673e+00 0.0 
8.049245878673e+00 -3.285648051138e+01 0.0 
0.0 0.0 -1.566370199137e+01 
-7.595117688219e+01 8.510505865429e-01 0.0 
8.510505865429e-01 -1.570454257247e+02 0.0 
0.0 0.0 -6.949898078208e+01 
-6.238134250895e+01 -4.976114442468e-01 0.0 
-4.976114442468e-01 -1.705086643165e+02 0.0 
0.0 0.0 -6.946700204763e+01 
-2.046387883161e+01 -1.136348180021e+00 0.0 
-1.136348180021e+00 -3.062536618245e+01 0.0 
0.0 0.0 -1.511921327518e+01 
-1.452559906637e+02 9.147462054209e+00 0.0 
9.147462054209e+00 -3.528679715636e+02 0.0 
0.0 0.0 -1.490371886682e+02 
-1.091151134165e+02 2.209744442228e+01 0.0 
2.209744442228e+01 -2.408930377910e+02 0.0 
0.0 0.0 -1.046024453623e+02 
-1.491070494753e+02 3.272237484224e+00 0.0 
3.272237484224e+00 -3.589028625788e+02 0.0 
0.0 0.0 -1.520029736162e+02 
-1.824806401686e+01 -3.613767195379e-01 0.0 
-3.613767195379e-01 -4.995705648007e+01 0.0 
0.0 0.0 -2.006153614908e+01 
-1.452982094469e+01 -1.706520087457e+00 0.0 
-1.706520087457e+00 -3.117614993867e+01 0.0 
0.0 0.0 -1.339370975485e+01 
-1.450521342524e+02 1.157112357907e+01 0.0 
1.157112357907e+01 -3.523511811364e+02 0.0 
0.0 0.0 -1.488209946166e+02 
-1.189269573096e+02 2.423997914545e+01 0.0 
2.423997914545e+01 -2.706782553308e+02 0.0 
0.0 0.0 -1.164815637921e+02 
-2.944155634535e+01 -1.581178704467e+00 0.0 
-1.581178704467e+00 -8.004740006503e+01 0.0 
0.0 0.0 -3.244668692311e+01 
-1.088479237681e+02 9.058867893363e+00 0.0 
9.058867893363e+00 -2.492466452705e+02 0.0 
0.0 0.0 -1.070283707116e+02 
-1.880575322952e+01 6.027698212428e+00 0.0 
6.027698212428e+00 -2.341064903870e+01 0.0 
0.0 0.0 -1.234672466551e+01 
-4.334354094560e+01 2.069251614304e-01 0.0 
2.069251614304e-01 -7.190273367023e+01 0.0 
0.0 0.0 -3.417388238475e+01 
-1.355599407172e+01 -1.082473545461e+00 0.0 
-1.082473545461e+00 -3.237992300431e+01 0.0 
0.0 0.0 -1.355654472748e+01 
-1.578220973467e+02 4.904220526418e+00 0.0 
4.904220526418e+00 -3.743029490422e+02 0.0 
0.0 0.0 -1.592375139167e+02 
-1.022259181288e+02 6.372071042242e+00 0.0 
6.372071042242e+00 -2.287867231203e+02 0.0 
0.0 0.0 -9.890379237472e+01 
-6.935598530115e+01 -4.044441351132e-01 0.0 
-4.044441351132e-01 -1.876572680882e+02 0.0 
0.0 0.0 -7.670397601682e+01 
-5.258016512636e+01 3.965346614064e+00 0.0 
3.965346614064e+00 -7.992824388955e+01 0.0 
0.0 0.0 -3.935252270477e+01 
-4.548127868820e+01 -6.259029089027e-01 0.0 
-6.259029089027e-01 -1.243277059326e+02 0.0 
0.0 0.0 -5.054269538624e+01 
-1.190528552214e+02 2.394354916892e+01 0.0 
2.394354916892e+01 -2.840311182663e+02 0.0 
0.0 0.0 -1.205251920463e+02 
-2.062028660732e+01 -2.541831577215e+00 0.0 
-2.541831577215e+00 -4.626505099673e+01 0.0 
0.0 0.0 -1.966560128122e+01 
-1.018993254967e+02 4.764461784638e+00 0.0 
4.764461784638e+00 -2.298850147862e+02 0.0 
0.0 0.0 -9.913530208485e+01 
-1.433840065375e+02 1.412362193368e+01 0.0 
1.412362193368e+01 -3.487595223898e+02 0.0 
0.0 0.0 -1.472430586782e+02 
-1.088461160934e+02 1.459166537035e+01 0.0 
1.459166537035e+01 -2.402328522108e+02 0.0 
0.0 0.0 -1.043236904913e+02 
-1.446739732141e+02 2.271782756576e+01 0.0 
2.271782756576e+01 -3.442440966516e+02 0.0 
0.0 0.0 -1.462754209597e+02 
-2.012848186293e+01 1.208039275246e+00 0.0 
1.208039275246e+00 -2.774243418033e+01 0.0 
0.0 0.0 -1.406312911990e+01 
-1.299758202728e+02 2.470302833930e+01 0.0 
2.470302833930e+01 -3.109208558277e+02 0.0 
0.0 0.0 -1.318690028301e+02 
-1.316716189549e+02 1.484703723046e+01 0.0 
1.484703723046e+01 -3.279947479934e+02 0.0 
0.0 0.0 -1.374999100845e+02 
-4.287164295831e+01 -9.480022951081e-02 0.0 
-9.480022951081e-02 -7.372221458904e+01 0.0 
0.0 0.0 -3.457815726421e+01 
-1.103511347764e+02 1.702309722668e+01 0.0 
1.702309722668e+01 -2.428340296866e+02 0.0 
0.0 0.0 -1.055555493389e+02 
-5.596363801102e+01 -7.042868674361e-01 0.0 
-7.042868674361e-01 -1.528018104494e+02 0.0 
0.0 0.0 -6.222963453813e+01 
-2.485552639437e+01 -1.278325577458e+00 0.0 
-1.278325577458e+00 -6.606071695595e+01 0.0 
0.0 0.0 -2.687487300510e+01 
-1.059676488148e+02 6.757928669600e-01 0.0 
6.757928669600e-01 -2.445954439174e+02 0.0 
0.0 0.0 -1.047689278197e+02 
-5.408644004003e+00 -5.642652311620e-02 0.0 
-5.642652311620e-02 -1.415297373548e+01 0.0 
0.0 0.0 -5.780836396511e+00 
-4.185937436369e+01 8.802069389456e-02 0.0 
8.802069389456e-02 -7.271796183280e+01 0.0 
0.0 0.0 -3.397320085894e+01 
-1.593817400811e+02 4.635618358410e-01 0.0 
4.635618358410e-01 -3.771920514085e+02 0.0 
0.0 0.0 -1.605721374469e+02 
-2.357392736221e+01 -9.083372823917e-01 0.0 
-9.083372823917e-01 -6.312215410854e+01 0.0 
0.0 0.0 -2.560882444122e+01 
-5.523620937279e+01 3.067017345632e-01 0.0 
3.067017345632e-01 -1.047068014942e+02 0.0 
0.0 0.0 -4.758290326010e+01 
-1.178087687118e+02 2.351894948780e+01 0.0 
2.351894948780e+01 -2.661313339040e+02 0.0 
0.0 0.0 -1.147820307848e+02 
-8.680180541276e+01 2.326318674790e-02 0.0 
2.326318674790e-02 -2.296642759969e+02 0.0 
0.0 0.0 -9.453982442289e+01 
-8.876208226405e+01 1.155012455403e+00 0.0 
1.155012455403e+00 -1.939910904938e+02 0.0 
0.0 0.0 -8.442595182737e+01 
-2.526368464992e+01 -2.707569421560e+00 0.0 
-2.707569421560e+00 -6.151705401543e+01 0.0 
0.0 0.0 -2.563422159960e+01 
-1.968101314606e+01 -6.119132092679e-01 0.0 
-6.119132092679e-01 -1.435957040350e+01 0.0 
0.0 0.0 -1.022944770240e+01 
-6.901998359338e+01 6.179827718919e-01 0.0 
6.179827718919e-01 -1.397402360533e+02 0.0 
0.0 0.0 -6.222806589399e+01 
-1.321975583520e+02 2.285299826435e+01 0.0 
2.285299826435e+01 -3.196088543145e+02 0.0 
0.0 0.0 -1.351419238000e+02 
-1.069381288148e+02 1.194491479280e+01 0.0 
1.194491479280e+01 -2.371472185567e+02 0.0 
0.0 0.0 -1.028256042114e+02 
-6.424208067395e+01 6.253302309177e-01 0.0 
6.253302309177e-01 -1.259695226153e+02 0.0 
0.0 0.0 -5.666348098677e+01 
-2.210404368491e+01 6.407906556232e+00 0.0 
6.407906556232e+00 -4.513862666858e+01 0.0 
0.0 0.0 -1.977280110605e+01 
-1.145160944654e+02 2.304726031942e+01 0.0 
2.304726031942e+01 -2.567730725949e+02 0.0 
0.0 0.0 -1.109867501181e+02 
-7.547630269636e+01 -8.135127534133e-02 0.0 
-8.135127534133e-02 -2.024710674365e+02 0.0 
0.0 0.0 -8.298421103985e+01 
-1.173216651352e+02 2.460547596546e+01 0.0 
2.460547596546e+01 -2.732890634865e+02 0.0 
0.0 0.0 -1.167832185865e+02 
-1.294999641747e+02 1.724866983274e+01 0.0 
1.724866983274e+01 -3.221883153737e+02 0.0 
0.0 0.0 -1.351064838645e+02 
-1.738051656594e+01 6.737416402815e+00 0.0 
6.737416402815e+00 -1.257233361581e+01 0.0 
0.0 0.0 -8.852934031629e+00 
-9.408250246774e+01 4.055611520507e-02 0.0 
4.055611520507e-02 -2.465166949058e+02 0.0 
0.0 0.0 -1.017797592120e+02 
-1.342514460752e+01 -1.124356991644e+00 0.0 
-1.124356991644e+00 -3.033161842913e+01 0.0 
0.0 0.0 -1.282858046050e+01 
-1.493101611980e+02 6.983656411535e+00 0.0 
6.983656411535e+00 -3.597489591662e+02 0.0 
0.0 0.0 -1.523177361093e+02 
-7.886617480175e+01 5.041007619185e-02 0.0 
5.041007619185e-02 -2.109191829260e+02 0.0 
0.0 0.0 -8.653560731834e+01 
-1.726601273687e+01 3.304267036576e+00 0.0 
3.304267036576e+00 -7.819264119828e+00 0.0 
0.0 0.0 -7.125583057010e+00 
-1.570801356692e+01 9.569176912502e-02 0.0 
9.569176912502e-02 -9.364028381737e+00 0.0 
0.0 0.0 -7.121612584598e+00 
-2.827366137987e+01 3.388418202020e+00 0.0 
3.388418202020e+00 -2.917337145240e+01 0.0 
0.0 0.0 -1.683410984968e+01 
-2.403859723160e+01 -7.516586434023e-02 0.0 
-7.516586434023e-02 -3.007251688691e+01 0.0 
0.0 0.0 -1.583333423555e+01 
-3.806305001325e+01 2.890842724884e+00 0.0 
2.890842724884e+00 -4.927301694893e+01 0.0 
0.0 0.0 -2.580082008865e+01 
-3.156375919250e+01 -1.835627106978e-01 0.0 
-1.835627106978e-01 -4.841614202817e+01 0.0 
0.0 0.0 -2.359397036620e+01 

TENSORS node_materi_strain_total float
4.534204118944e-06 8.520813705721e-08 0.0 
8.520813705721e-08 1.332039807989e-05 0.0 
0.0 0.0 0.0 
-1.051800436408e-04 -2.947229276127e-06 0.0 
-2.947229276127e-06 1.684079609625e-03 0.0 
0.0 0.0 0.0 
8.777796304038e-06 7.259641129548e-06 0.0 
7.259641129548e-06 1.236002231003e-03 0.0 
0.0 0.0 0.0 
-7.367584301365e-06 2.186454081257e-06 0.0 
2.186454081257e-06 2.227021981058e-03 0.0 
0.0 0.0 0.0 
8.360817944049e-06 -1.117040639291e-06 0.0 
-1.117040639291e-06 4.236897469068e-05 0.0 
0.0 0.0 0.0 
1.651840142018e-05 9.929388701165e-07 0.0 
9.929388701165e-07 9.951103063299e-05 0.0 
0.0 0.0 0.0 
2.815685792264e-05 9.646265517209e-07 0.0 
9.646265517209e-07 1.518148821611e-04 0.0 
0.0 0.0 0.0 
3.943730271498e-05 6.323480974715e-07 0.0 
6.323480974715e-07 2.106231685588e-04 0.0 
0.0 0.0 0.0 
5.115960396126e-05 3.734715721141e-07 0.0 
3.734715721141e-07 2.674304104443e-04 0.0 
0.0 0.0 0.0 
6.302996737073e-05 3.727885845045e-07 0.0 
3.727885845045e-07 3.235287827847e-04 0.0 
0.0 0.0 0.0 
7.377162155138e-05 5.973074510741e-07 0.0 
5.973074510741e-07 3.801767964315e-04 0.0 
0.0 0.0 0.0 
8.309822438927e-05 7.002289294930e-07 0.0 
7.002289294930e-07 4.378144760822e-04 0.0 
0.0 0.0 0.0 
9.086669259754e-05 1.022976267751e-06 0.0 
1.022976267751e-06 4.966577970192e-04 0.0 
0.0 0.0 0.0 
9.612148358558e-05 1.804290793882e-06 0.0 
1.804290793882e-06 5.578707714253e-04 0.0 
0.0 0.0 0.0 
9.834141801868e-05 3.191739884401e-06 0.0 
3.191739884401e-06 6.228493125608e-04 0.0 
0.0 0.0 0.0 
9.973536771827e-05 3.723855686605e-06 0.0 
3.723855686605e-06 6.870509925544e-04 0.0 
0.0 0.0 0.0 
9.871626161580e-05 5.277743249134e-06 0.0 
5.277743249134e-06 7.469597548172e-04 0.0 
0.0 0.0 0.0 
9.347681079186e-05 3.334280354944e-06 0.0 
3.334280354944e-06 8.155987543864e-04 0.0 
0.0 0.0 0.0 
8.524244210525e-05 3.717374753633e-06 0.0 
3.717374753633e-06 8.882310425651e-04 0.0 
0.0 0.0 0.0 
7.415373325233e-05 4.213887237538e-06 0.0 
4.213887237538e-06 9.608098908983e-04 0.0 
0.0 0.0 0.0 
5.973090579089e-05 4.469786069993e-06 0.0 
4.469786069993e-06 1.036330749480e-03 0.0 
0.0 0.0 0.0 
4.193688055221e-05 5.437117540698e-06 0.0 
5.437117540698e-06 1.114711543160e-03 0.0 
0.0 0.0 0.0 
2.437165719045e-05 6.255917554952e-06 0.0 
6.255917554952e-06 1.191046698719e-03 0.0 
0.0 0.0 0.0 
-5.236940979906e-06 1.133733433642e-05 0.0 
1.133733433642e-05 2.228827337765e-03 0.0 
0.0 0.0 0.0 
-6.023671494123e-06 2.092216569035e-05 0.0 
2.092216569035e-05 2.225532734118e-03 0.0 
0.0 0.0 0.0 
-6.076398920955e-06 2.983173523555e-05 0.0 
2.983173523555e-05 2.225643072248e-03 0.0 
0.0 0.0 0.0 
-6.069618760485e-06 4.286343932066e-05 0.0 
4.286343932066e-05 2.224056158350e-03 0.0 
0.0 0.0 0.0 
-7.659735395478e-06 5.295941564883e-05 0.0 
5.295941564883e-05 2.220712055380e-03 0.0 
0.0 0.0 0.0 
-7.087713520685e-06 6.599798738787e-05 0.0 
6.599798738787e-05 2.219882614797e-03 0.0 
0.0 0.0 0.0 
-8.010751725962e-06 7.998898560923e-05 0.0 
7.998898560923e-05 2.216297061517e-03 0.0 
0.0 0.0 0.0 
-8.667289202346e-06 9.509239015499e-05 0.0 
9.509239015499e-05 2.210341793898e-03 0.0 
0.0 0.0 0.0 
-9.098723926404e-06 1.100479247000e-04 0.0 
1.100479247000e-04 2.205756548448e-03 0.0 
0.0 0.0 0.0 
-8.617617691072e-06 1.286401572301e-04 0.0 
1.286401572301e-04 2.197310337770e-03 0.0 
0.0 0.0 0.0 
-1.139888270670e-05 1.455047982467e-04 0.0 
1.455047982467e-04 2.186379978697e-03 0.0 
0.0 0.0 0.0 
-1.067076386452e-05 1.657244117276e-04 0.0 
1.657244117276e-04 2.175165485357e-03 0.0 
0.0 0.0 0.0 
-1.161394441188e-05 1.869910322968e-04 0.0 
1.869910322968e-04 2.159577629659e-03 0.0 
0.0 0.0 0.0 
-1.123967110920e-05 2.079952435317e-04 0.0 
2.079952435317e-04 2.140398057265e-03 0.0 
0.0 0.0 0.0 
-1.254209832487e-05 2.291814304285e-04 0.0 
2.291814304285e-04 2.118202572120e-03 0.0 
0.0 0.0 0.0 
-1.190350406351e-05 2.502191747480e-04 0.0 
2.502191747480e-04 2.090788330959e-03 0.0 
0.0 0.0 0.0 
-1.265740225901e-05 2.709106429119e-04 0.0 
2.709106429119e-04 2.060824855947e-03 0.0 
0.0 0.0 0.0 
-1.183414413042e-05 2.921344619544e-04 0.0 
2.921344619544e-04 2.026959990608e-03 0.0 
0.0 0.0 0.0 
-1.000316561524e-05 3.104358797519e-04 0.0 
3.104358797519e-04 1.990165184321e-03 0.0 
0.0 0.0 0.0 
-7.646626787613e-06 3.266040932647e-04 0.0 
3.266040932647e-04 1.950270797348e-03 0.0 
0.0 0.0 0.0 
-5.144218657864e-06 3.395207420821e-04 0.0 
3.395207420821e-04 1.906005022288e-03 0.0 
0.0 0.0 0.0 
-4.549455428049e-06 3.486415416410e-04 0.0 
3.486415416410e-04 1.860205426504e-03 0.0 
0.0 0.0 0.0 
-1.977170961842e-06 3.544544343770e-04 0.0 
3.544544343770e-04 1.812954720433e-03 0.0 
0.0 0.0 0.0 
-1.412592584756e-07 3.562611080780e-04 0.0 
3.562611080780e-04 1.765372460480e-03 0.0 
0.0 0.0 0.0 
1.358970963021e-06 3.548656681145e-04 0.0 
3.548656681145e-04 1.718933173137e-03 0.0 
0.0 0.0 0.0 
3.272897269424e-06 3.507718728051e-04 0.0 
3.507718728051e-04 1.673729166873e-03 0.0 
0.0 0.0 0.0 
4.436769157623e-06 3.428415633523e-04 0.0 
3.428415633523e-04 1.629926897477e-03 0.0 
0.0 0.0 0.0 
6.689697608531e-06 3.324614591469e-04 0.0 
3.324614591469e-04 1.588147975057e-03 0.0 
0.0 0.0 0.0 
7.135692876581e-06 3.193010931077e-04 0.0 
3.193010931077e-04 1.547885504241e-03 0.0 
0.0 0.0 0.0 
6.395543999727e-06 3.049565993812e-04 0.0 
3.049565993812e-04 1.514590798722e-03 0.0 
0.0 0.0 0.0 
9.275310368799e-06 2.900556610535e-04 0.0 
2.900556610535e-04 1.477863548968e-03 0.0 
0.0 0.0 0.0 
1.013648466460e-05 2.722791797055e-04 0.0 
2.722791797055e-04 1.442646460922e-03 0.0 
0.0 0.0 0.0 
1.021747223258e-05 2.527694908011e-04 0.0 
2.527694908011e-04 1.412255620071e-03 0.0 
0.0 0.0 0.0 
1.002218257251e-05 2.345136804443e-04 0.0 
2.345136804443e-04 1.388327336434e-03 0.0 
0.0 0.0 0.0 
1.052426559944e-05 2.165074808327e-04 0.0 
2.165074808327e-04 1.365163381022e-03 0.0 
0.0 0.0 0.0 
8.838070326552e-06 1.978054587338e-04 0.0 
1.978054587338e-04 1.344818517776e-03 0.0 
0.0 0.0 0.0 
1.049732080120e-05 1.804009714197e-04 0.0 
1.804009714197e-04 1.327331702280e-03 0.0 
0.0 0.0 0.0 
9.002874926667e-06 1.625069921989e-04 0.0 
1.625069921989e-04 1.310078700147e-03 0.0 
0.0 0.0 0.0 
1.036509305393e-05 1.456845133061e-04 0.0 
1.456845133061e-04 1.295218879430e-03 0.0 
0.0 0.0 0.0 
9.005550857181e-06 1.291121195182e-04 0.0 
1.291121195182e-04 1.281782948797e-03 0.0 
0.0 0.0 0.0 
7.563964980288e-06 1.139882176462e-04 0.0 
1.139882176462e-04 1.273371314742e-03 0.0 
0.0 0.0 0.0 
7.769280098824e-06 9.991245829912e-05 0.0 
9.991245829912e-05 1.268639954122e-03 0.0 
0.0 0.0 0.0 
8.374552090758e-06 8.591135164117e-05 0.0 
8.591135164117e-05 1.263331080763e-03 0.0 
0.0 0.0 0.0 
9.415838210625e-06 7.065412848158e-05 0.0 
7.065412848158e-05 1.246087481999e-03 0.0 
0.0 0.0 0.0 
7.795247302915e-06 5.765276123433e-05 0.0 
5.765276123433e-05 1.250417499611e-03 0.0 
0.0 0.0 0.0 
6.597740600300e-06 4.571805922782e-05 0.0 
4.571805922782e-05 1.243412944519e-03 0.0 
0.0 0.0 0.0 
5.746795237978e-06 3.387622955264e-05 0.0 
3.387622955264e-05 1.242285257735e-03 0.0 
0.0 0.0 0.0 
6.142336853957e-06 2.354471612371e-05 0.0 
2.354471612371e-05 1.243138141571e-03 0.0 
0.0 0.0 0.0 
5.983277846289e-06 1.293019359075e-05 0.0 
1.293019359075e-05 1.241742268443e-03 0.0 
0.0 0.0 0.0 
-1.021130321846e-04 -1.851915308689e-06 0.0 
-1.851915308689e-06 1.747589095152e-03 0.0 
0.0 0.0 0.0 
-9.962539881077e-05 -1.717968799068e-06 0.0 
-1.717968799068e-06 1.810266471389e-03 0.0 
0.0 0.0 0.0 
-9.464543850091e-05 -1.288359671159e-06 0.0 
-1.288359671159e-06 1.870604243137e-03 0.0 
0.0 0.0 0.0 
-8.780531493432e-05 -9.138179237400e-07 0.0 
-9.138179237400e-07 1.928295418520e-03 0.0 
0.0 0.0 0.0 
-7.885659832355e-05 -2.179265267385e-07 0.0 
-2.179265267385e-07 1.985513231786e-03 0.0 
0.0 0.0 0.0 
-6.732846732538e-05 1.770046079638e-07 0.0 
1.770046079638e-07 2.040991239939e-03 0.0 
0.0 0.0 0.0 
-5.416011707970e-05 7.301174279270e-07 0.0 
7.301174279270e-07 2.094356102567e-03 0.0 
0.0 0.0 0.0 
-3.810972044538e-05 1.199654553755e-06 0.0 
1.199654553755e-06 2.145814928980e-03 0.0 
0.0 0.0 0.0 
-2.172586389126e-05 1.269331511881e-06 0.0 
1.269331511881e-06 2.196775765431e-03 0.0 
0.0 0.0 0.0 
-1.215595773465e-04 6.718643609301e-05 0.0 
6.718643609301e-05 7.598659206047e-05 0.0 
0.0 0.0 0.0 
-1.680251892950e-04 4.561897168153e-05 0.0 
4.561897168153e-05 1.692102529311e-03 0.0 
0.0 0.0 0.0 
-1.373060780351e-04 1.635293169709e-04 0.0 
1.635293169709e-04 1.943357368957e-04 0.0 
0.0 0.0 0.0 
-1.510111094259e-04 2.049952082578e-04 0.0 
2.049952082578e-04 3.843777915459e-04 0.0 
0.0 0.0 0.0 
-1.563220703215e-04 2.210788862151e-04 0.0 
2.210788862151e-04 5.894914866236e-04 0.0 
0.0 0.0 0.0 
-1.548025393090e-04 2.210870833638e-04 0.0 
2.210870833638e-04 7.910946540866e-04 0.0 
0.0 0.0 0.0 
-1.491745980996e-04 2.179268627646e-04 0.0 
2.179268627646e-04 9.968079979751e-04 0.0 
0.0 0.0 0.0 
-1.497829332680e-04 2.115785719407e-04 0.0 
2.115785719407e-04 1.208501018118e-03 0.0 
0.0 0.0 0.0 
-1.836950365857e-04 1.508249148350e-04 0.0 
1.508249148350e-04 1.450717079395e-03 0.0 
0.0 0.0 0.0 
-1.574693882506e-04 7.271632850295e-05 0.0 
7.271632850295e-05 1.552256801124e-03 0.0 
0.0 0.0 0.0 
-1.622840268184e-04 5.513463183069e-05 0.0 
5.513463183069e-05 1.620843048389e-03 0.0 
0.0 0.0 0.0 
-1.156054574490e-04 -3.160093528160e-06 0.0 
-3.160093528160e-06 1.518318705529e-03 0.0 
0.0 0.0 0.0 
-1.088591087978e-04 -4.686253275766e-06 0.0 
-4.686253275766e-06 1.555267557069e-03 0.0 
0.0 0.0 0.0 
-1.056751846755e-04 -3.856953553259e-06 0.0 
-3.856953553259e-06 1.617661893785e-03 0.0 
0.0 0.0 0.0 
-1.048999802482e-04 7.399095451546e-07 0.0 
7.399095451546e-07 1.675747419555e-03 0.0 
0.0 0.0 0.0 
-1.052188693630e-04 -6.528783967479e-07 0.0 
-6.528783967479e-07 1.680273261675e-03 0.0 
0.0 0.0 0.0 
-1.062931917768e-04 -7.169223300109e-07 0.0 
-7.169223300109e-07 1.681131306287e-03 0.0 
0.0 0.0 0.0 
-1.073208313001e-04 -1.110538475111e-06 0.0 
-1.110538475111e-06 1.680742760842e-03 0.0 
0.0 0.0 0.0 
-1.085083268550e-04 -5.484075812378e-07 0.0 
-5.484075812378e-07 1.689906922464e-03 0.0 
0.0 0.0 0.0 
-1.104554859147e-04 -1.186616195172e-06 0.0 
-1.186616195172e-06 1.683144522475e-03 0.0 
0.0 0.0 0.0 
-1.125884362610e-04 -1.497513334896e-06 0.0 
-1.497513334896e-06 1.683133015318e-03 0.0 
0.0 0.0 0.0 
-1.152163007837e-04 -9.542614925624e-07 0.0 
-9.542614925624e-07 1.684619305016e-03 0.0 
0.0 0.0 0.0 
-1.197532749082e-04 -2.352706362059e-07 0.0 
-2.352706362059e-07 1.687366148116e-03 0.0 
0.0 0.0 0.0 
-1.244047331589e-04 1.508336166256e-06 0.0 
1.508336166256e-06 1.688035638379e-03 0.0 
0.0 0.0 0.0 
-1.293171111295e-04 4.329040202107e-06 0.0 
4.329040202107e-06 1.688556752208e-03 0.0 
0.0 0.0 0.0 
-1.360279328200e-04 8.820762123290e-06 0.0 
8.820762123290e-06 1.689185471727e-03 0.0 
0.0 0.0 0.0 
-1.437082202393e-04 1.653749515622e-05 0.0 
1.653749515622e-05 1.689500583996e-03 0.0 
0.0 0.0 0.0 
-1.532341672597e-04 2.803873861557e-05 0.0 
2.803873861557e-05 1.690351074553e-03 0.0 
0.0 0.0 0.0 
-1.423087018447e-04 2.406499509884e-05 0.0 
2.406499509884e-05 8.419021197599e-05 0.0 
0.0 0.0 0.0 
-1.603611807320e-04 4.287605179178e-06 0.0 
4.287605179178e-06 8.816200225555e-05 0.0 
0.0 0.0 0.0 
-1.609624196462e-04 -5.902179571763e-06 0.0 
-5.902179571763e-06 8.512784042436e-05 0.0 
0.0 0.0 0.0 
-1.497153676657e-04 -8.278974560668e-06 0.0 
-8.278974560668e-06 7.941717002743e-05 0.0 
0.0 0.0 0.0 
-1.326274012301e-04 -1.061979692691e-05 0.0 
-1.061979692691e-05 7.319905443581e-05 0.0 
0.0 0.0 0.0 
-1.181937435311e-04 -1.069014716696e-05 0.0 
-1.069014716696e-05 6.768649970941e-05 0.0 
0.0 0.0 0.0 
-1.031769926783e-04 -1.026593498121e-05 0.0 
-1.026593498121e-05 6.138973921950e-05 0.0 
0.0 0.0 0.0 
-8.800147735921e-05 -9.723765283767e-06 0.0 
-9.723765283767e-06 5.476233387366e-05 0.0 
0.0 0.0 0.0 
-7.372903877922e-05 -9.377297602561e-06 0.0 
-9.377297602561e-06 4.867978440082e-05 0.0 
0.0 0.0 0.0 
-6.025074057977e-05 -8.719404062091e-06 0.0 
-8.719404062091e-06 4.279916276221e-05 0.0 
0.0 0.0 0.0 
-4.736061305751e-05 -7.818809210229e-06 0.0 
-7.818809210229e-06 3.798609836222e-05 0.0 
0.0 0.0 0.0 
-3.901922465355e-05 -6.882710643497e-06 0.0 
-6.882710643497e-06 3.481922548317e-05 0.0 
0.0 0.0 0.0 
-2.764751173667e-05 -5.558486933859e-06 0.0 
-5.558486933859e-06 2.940813140192e-05 0.0 
0.0 0.0 0.0 
-1.736811202950e-05 -5.274745281738e-06 0.0 
-5.274745281738e-06 2.410693546273e-05 0.0 
0.0 0.0 0.0 
-9.968621134263e-06 -5.016290111105e-06 0.0 
-5.016290111105e-06 2.106030343281e-05 0.0 
0.0 0.0 0.0 
-5.240145204681e-06 -3.749716242414e-06 0.0 
-3.749716242414e-06 1.934237412297e-05 0.0 
0.0 0.0 0.0 
-9.735708631868e-07 -2.111646445036e-06 0.0 
-2.111646445036e-06 1.746558856638e-05 0.0 
0.0 0.0 0.0 
3.580560857993e-06 -3.313843789718e-07 0.0 
-3.313843789718e-07 1.439646495682e-05 0.0 
0.0 0.0 0.0 
5.315719613375e-06 5.517130551942e-07 0.0 
5.517130551942e-07 1.225015937356e-05 0.0 
0.0 0.0 0.0 
-1.343014054629e-04 4.311404789239e-05 0.0 
4.311404789239e-05 1.511166251271e-03 0.0 
0.0 0.0 0.0 
-9.256537806218e-05 2.381372319057e-05 0.0 
2.381372319057e-05 1.509012726901e-03 0.0 
0.0 0.0 0.0 
-7.347589321679e-05 1.018078942412e-05 0.0 
1.018078942412e-05 1.508312045189e-03 0.0 
0.0 0.0 0.0 
-6.833406585586e-05 1.068003519310e-06 0.0 
1.068003519310e-06 1.506917438480e-03 0.0 
0.0 0.0 0.0 
-6.732997854242e-05 -1.910385751370e-06 0.0 
-1.910385751370e-06 1.507390051192e-03 0.0 
0.0 0.0 0.0 
-7.006755672460e-05 -3.688844261070e-06 0.0 
-3.688844261070e-06 1.508358570202e-03 0.0 
0.0 0.0 0.0 
-7.398772128712e-05 -4.054924397905e-06 0.0 
-4.054924397905e-06 1.510442176484e-03 0.0 
0.0 0.0 0.0 
-7.846437651153e-05 -4.082185053140e-06 0.0 
-4.082185053140e-06 1.512395201716e-03 0.0 
0.0 0.0 0.0 
-8.306999622165e-05 -3.856958477949e-06 0.0 
-3.856958477949e-06 1.514247521690e-03 0.0 
0.0 0.0 0.0 
-8.744795229524e-05 -3.544614752855e-06 0.0 
-3.544614752855e-06 1.515965537750e-03 0.0 
0.0 0.0 0.0 
-9.142915234458e-05 -3.214676212154e-06 0.0 
-3.214676212154e-06 1.517645868731e-03 0.0 
0.0 0.0 0.0 
-9.489672104560e-05 -2.737384136391e-06 0.0 
-2.737384136391e-06 1.519109420866e-03 0.0 
0.0 0.0 0.0 
-9.771597829681e-05 -2.254071660798e-06 0.0 
-2.254071660798e-06 1.520174590822e-03 0.0 
0.0 0.0 0.0 
-1.000693165861e-04 -1.773171899486e-06 0.0 
-1.773171899486e-06 1.520998662419e-03 0.0 
0.0 0.0 0.0 
-1.018259639008e-04 -1.216397615804e-06 0.0 
-1.216397615804e-06 1.521679967994e-03 0.0 
0.0 0.0 0.0 
-1.030518649427e-04 -4.573773222646e-07 0.0 
-4.573773222646e-07 1.522264687676e-03 0.0 
0.0 0.0 0.0 
-1.036552623089e-04 5.754704869496e-07 0.0 
5.754704869496e-07 1.522614300052e-03 0.0 
0.0 0.0 0.0 
-1.060518560595e-04 1.535166274773e-06 0.0 
1.535166274773e-06 1.521271739637e-03 0.0 
0.0 0.0 0.0 
-1.113535483725e-04 4.134965032325e-06 0.0 
4.134965032325e-06 1.515303602110e-03 0.0 
0.0 0.0 0.0 
-1.081565021436e-04 2.101086967565e-06 0.0 
2.101086967565e-06 1.555440444831e-03 0.0 
0.0 0.0 0.0 
-1.057919665924e-04 2.412008907875e-07 0.0 
2.412008907875e-07 1.555081206174e-03 0.0 
0.0 0.0 0.0 
-1.049009815831e-04 -8.819216301258e-07 0.0 
-8.819216301258e-07 1.554757205302e-03 0.0 
0.0 0.0 0.0 
-1.041440950361e-04 -1.737922506010e-06 0.0 
-1.737922506010e-06 1.554371018140e-03 0.0 
0.0 0.0 0.0 
-1.032511553229e-04 -2.502961903065e-06 0.0 
-2.502961903065e-06 1.553970083122e-03 0.0 
0.0 0.0 0.0 
-1.023002220484e-04 -3.296322567435e-06 0.0 
-3.296322567435e-06 1.553616266341e-03 0.0 
0.0 0.0 0.0 
-1.011026607257e-04 -4.005865269721e-06 0.0 
-4.005865269721e-06 1.553180133268e-03 0.0 
0.0 0.0 0.0 
-9.978018476451e-05 -4.864837288696e-06 0.0 
-4.864837288696e-06 1.552549591645e-03 0.0 
0.0 0.0 0.0 
-9.815762371131e-05 -5.470547408277e-06 0.0 
-5.470547408277e-06 1.551588259860e-03 0.0 
0.0 0.0 0.0 
-9.667592012400e-05 -5.820887007085e-06 0.0 
-5.820887007085e-06 1.550845503179e-03 0.0 
0.0 0.0 0.0 
-9.540957428261e-05 -5.970609900906e-06 0.0 
-5.970609900906e-06 1.550144987666e-03 0.0 
0.0 0.0 0.0 
-9.461981592894e-05 -5.543287611553e-06 0.0 
-5.543287611553e-06 1.549392279526e-03 0.0 
0.0 0.0 0.0 
-9.492698609620e-05 -4.274962340284e-06 0.0 
-4.274962340284e-06 1.548840708777e-03 0.0 
0.0 0.0 0.0 
-9.689272305987e-05 -1.532744494952e-06 0.0 
-1.532744494952e-06 1.548243788211e-03 0.0 
0.0 0.0 0.0 
-1.009491986625e-04 4.811175709811e-06 0.0 
4.811175709811e-06 1.548763985150e-03 0.0 
0.0 0.0 0.0 
-1.133562102433e-04 1.756256858535e-05 0.0 
1.756256858535e-05 1.553523794449e-03 0.0 
0.0 0.0 0.0 
-1.221124272498e-04 3.061446237196e-05 0.0 
3.061446237196e-05 1.544952937743e-03 0.0 
0.0 0.0 0.0 
-1.427080750949e-04 2.908974104799e-05 0.0 
2.908974104799e-05 1.615142676667e-03 0.0 
0.0 0.0 0.0 
-1.373126896809e-04 1.827166073037e-05 0.0 
1.827166073037e-05 1.626091649138e-03 0.0 
0.0 0.0 0.0 
-1.275605383311e-04 7.606953730455e-06 0.0 
7.606953730455e-06 1.623565606486e-03 0.0 
0.0 0.0 0.0 
-1.209606454692e-04 2.038664327769e-06 0.0 
2.038664327769e-06 1.622641013556e-03 0.0 
0.0 0.0 0.0 
-1.165284126268e-04 -1.416315354868e-06 0.0 
-1.416315354868e-06 1.622157570107e-03 0.0 
0.0 0.0 0.0 
-1.133087404832e-04 -3.119125392168e-06 0.0 
-3.119125392168e-06 1.621642248990e-03 0.0 
0.0 0.0 0.0 
-1.110389802299e-04 -3.896066671663e-06 0.0 
-3.896066671663e-06 1.620985016028e-03 0.0 
0.0 0.0 0.0 
-1.094189018369e-04 -4.235138922166e-06 0.0 
-4.235138922166e-06 1.620700979867e-03 0.0 
0.0 0.0 0.0 
-1.079296475880e-04 -3.763681366717e-06 0.0 
-3.763681366717e-06 1.620503659132e-03 0.0 
0.0 0.0 0.0 
-1.072186319210e-04 -3.490263201061e-06 0.0 
-3.490263201061e-06 1.620049447608e-03 0.0 
0.0 0.0 0.0 
-1.065017865883e-04 -2.831559662930e-06 0.0 
-2.831559662930e-06 1.619772205712e-03 0.0 
0.0 0.0 0.0 
-1.061095711592e-04 -2.451093598810e-06 0.0 
-2.451093598810e-06 1.619519510082e-03 0.0 
0.0 0.0 0.0 
-1.060527893159e-04 -1.790865881705e-06 0.0 
-1.790865881705e-06 1.619617472947e-03 0.0 
0.0 0.0 0.0 
-1.059884778073e-04 -1.501776692185e-06 0.0 
-1.501776692185e-06 1.619381158060e-03 0.0 
0.0 0.0 0.0 
-1.061999881490e-04 -1.865930474589e-06 0.0 
-1.865930474589e-06 1.619472332578e-03 0.0 
0.0 0.0 0.0 
-1.064612402398e-04 1.897422462754e-06 0.0 
1.897422462754e-06 1.619214533413e-03 0.0 
0.0 0.0 0.0 
-1.248154137177e-04 1.224831323494e-04 0.0 
1.224831323494e-04 1.164944886748e-04 0.0 
0.0 0.0 0.0 
-1.462396865844e-04 1.894255827224e-04 0.0 
1.894255827224e-04 2.871960946148e-04 0.0 
0.0 0.0 0.0 
-1.541066511843e-04 2.157332205285e-04 0.0 
2.157332205285e-04 4.864870421488e-04 0.0 
0.0 0.0 0.0 
-1.558222046130e-04 2.238400412434e-04 0.0 
2.238400412434e-04 6.936224126846e-04 0.0 
0.0 0.0 0.0 
-1.559228179951e-04 2.255687082529e-04 0.0 
2.255687082529e-04 8.962928245696e-04 0.0 
0.0 0.0 0.0 
-1.465241076409e-04 2.212900058569e-04 0.0 
2.212900058569e-04 1.103046830720e-03 0.0 
0.0 0.0 0.0 
-1.698546983151e-04 2.081084572237e-04 0.0 
2.081084572237e-04 1.322407334659e-03 0.0 
0.0 0.0 0.0 
-1.744440778241e-04 9.544970299243e-05 0.0 
9.544970299243e-05 1.526720432056e-03 0.0 
0.0 0.0 0.0 
-1.640821582916e-04 6.683512956940e-05 0.0 
6.683512956940e-05 1.595106301243e-03 0.0 
0.0 0.0 0.0 
-1.668887922452e-04 5.199383515337e-05 0.0 
5.199383515337e-05 1.662039133096e-03 0.0 
0.0 0.0 0.0 
-1.154328077721e-04 1.751977747129e-04 0.0 
1.751977747129e-04 3.475576385540e-04 0.0 
0.0 0.0 0.0 
3.012514852600e-05 2.371460227403e-04 0.0 
2.371460227403e-04 1.362624921776e-03 0.0 
0.0 0.0 0.0 
-5.209702617004e-05 -1.576961101233e-05 0.0 
-1.576961101233e-05 6.002262962734e-05 0.0 
0.0 0.0 0.0 
-1.084960728286e-04 -1.419824754351e-05 0.0 
-1.419824754351e-05 8.331412042458e-05 0.0 
0.0 0.0 0.0 
2.792025615369e-05 1.511232186477e-04 0.0 
1.511232186477e-04 1.266830452846e-03 0.0 
0.0 0.0 0.0 
-1.265328432559e-04 2.206238461670e-04 0.0 
2.206238461670e-04 7.494605026735e-04 0.0 
0.0 0.0 0.0 
9.804728539896e-05 -3.062769543116e-07 0.0 
-3.062769543116e-07 5.923673451199e-04 0.0 
0.0 0.0 0.0 
2.482466931635e-05 3.036307129190e-04 0.0 
3.036307129190e-04 1.488225959493e-03 0.0 
0.0 0.0 0.0 
-1.333821141284e-04 2.276902314416e-04 0.0 
2.276902314416e-04 1.143633654087e-03 0.0 
0.0 0.0 0.0 
8.033817337161e-06 3.450941609231e-04 0.0 
3.450941609231e-04 1.664925684293e-03 0.0 
0.0 0.0 0.0 
-1.827628816818e-04 1.473254925304e-04 0.0 
1.473254925304e-04 1.533505042987e-03 0.0 
0.0 0.0 0.0 
2.319842088146e-05 9.009846519179e-05 0.0 
9.009846519179e-05 1.232390030805e-03 0.0 
0.0 0.0 0.0 
-1.484929897509e-05 -9.369169857423e-06 0.0 
-9.369169857423e-06 4.217721380399e-05 0.0 
0.0 0.0 0.0 
-1.443927969474e-05 3.371418954763e-04 0.0 
3.371418954763e-04 1.861597599841e-03 0.0 
0.0 0.0 0.0 
-1.833814465328e-04 7.605249668365e-05 0.0 
7.605249668365e-05 1.706951639128e-03 0.0 
0.0 0.0 0.0 
6.924460631741e-05 -3.329737166751e-06 0.0 
-3.329737166751e-06 3.543633846328e-04 0.0 
0.0 0.0 0.0 
9.692564990216e-05 3.836646841089e-06 0.0 
3.836646841089e-06 7.706750710131e-04 0.0 
0.0 0.0 0.0 
-3.092981568762e-05 2.946298740534e-04 0.0 
2.946298740534e-04 1.990693049919e-03 0.0 
0.0 0.0 0.0 
-3.423764387387e-05 2.128540730309e-04 0.0 
2.128540730309e-04 2.115795041281e-03 0.0 
0.0 0.0 0.0 
-2.110096189650e-05 5.808068325496e-05 0.0 
5.808068325496e-05 2.201390288150e-03 0.0 
0.0 0.0 0.0 
-2.881268481793e-05 1.002097923520e-04 0.0 
1.002097923520e-04 2.186423540442e-03 0.0 
0.0 0.0 0.0 
-3.121732290440e-05 1.520779629891e-04 0.0 
1.520779629891e-04 2.165718933518e-03 0.0 
0.0 0.0 0.0 
-1.611639076504e-04 3.754889644068e-05 0.0 
3.754889644068e-05 1.747195937013e-03 0.0 
0.0 0.0 0.0 
-1.289470067388e-04 8.927750750384e-06 0.0 
8.927750750384e-06 1.748047643412e-03 0.0 
0.0 0.0 0.0 
-1.146998825726e-04 3.609298667860e-06 0.0 
3.609298667860e-06 1.748411029413e-03 0.0 
0.0 0.0 0.0 
-8.357432541467e-05 2.945702173244e-06 0.0 
2.945702173244e-06 1.957718482500e-03 0.0 
0.0 0.0 0.0 
2.071717280350e-05 5.152047133660e-05 0.0 
5.152047133660e-05 1.213150762346e-03 0.0 
0.0 0.0 0.0 
-1.176578564170e-04 1.758085886292e-05 0.0 
1.758085886292e-05 9.687967930701e-05 0.0 
0.0 0.0 0.0 
2.404045313357e-06 -5.281799583491e-06 0.0 
-5.281799583491e-06 3.749951220426e-05 0.0 
0.0 0.0 0.0 
6.772592076520e-05 7.243751905654e-06 0.0 
7.243751905654e-06 9.957945895751e-04 0.0 
0.0 0.0 0.0 
-1.064018599983e-04 1.374057046649e-06 0.0 
1.374057046649e-06 1.737615794539e-03 0.0 
0.0 0.0 0.0 
3.330323098208e-05 -4.159589359249e-06 0.0 
-4.159589359249e-06 1.811743315700e-04 0.0 
0.0 0.0 0.0 
-3.933737049785e-05 2.512145714507e-04 0.0 
2.512145714507e-04 2.057743131706e-03 0.0 
0.0 0.0 0.0 
1.649866475754e-05 3.310936241949e-04 0.0 
3.310936241949e-04 1.578314932366e-03 0.0 
0.0 0.0 0.0 
-3.302249357591e-06 3.481186559767e-04 0.0 
3.481186559767e-04 1.764080743818e-03 0.0 
0.0 0.0 0.0 
3.053759686097e-05 2.740635551146e-04 0.0 
2.740635551146e-04 1.419186278667e-03 0.0 
0.0 0.0 0.0 
2.775272337004e-05 2.018300383379e-04 0.0 
2.018300383379e-04 1.319369318908e-03 0.0 
0.0 0.0 0.0 
-8.568944740726e-05 -1.743703307067e-05 0.0 
-1.743703307067e-05 7.630878521891e-05 0.0 
0.0 0.0 0.0 
-1.426022487398e-04 1.792209780950e-05 0.0 
1.792209780950e-05 1.747310820807e-03 0.0 
0.0 0.0 0.0 
2.920424687779e-05 1.169530834359e-04 0.0 
1.169530834359e-04 1.230486285889e-03 0.0 
0.0 0.0 0.0 
-6.207251535593e-05 5.412485681620e-06 0.0 
5.412485681620e-06 2.066857572139e-03 0.0 
0.0 0.0 0.0 
-3.118969136851e-05 -1.433950724954e-05 0.0 
-1.433950724954e-05 5.225060381501e-05 0.0 
0.0 0.0 0.0 
8.736945144531e-05 -2.336208048038e-06 0.0 
-2.336208048038e-06 4.674165899593e-04 0.0 
0.0 0.0 0.0 
-1.639562829077e-05 3.568462627905e-05 0.0 
3.568462627905e-05 2.211510947747e-03 0.0 
0.0 0.0 0.0 
-1.239161138526e-04 2.277233134982e-04 0.0 
2.277233134982e-04 9.438415875509e-04 0.0 
0.0 0.0 0.0 
-1.218163840965e-04 2.050252740798e-04 0.0 
2.050252740798e-04 5.442605238967e-04 0.0 
0.0 0.0 0.0 
-1.663711494867e-04 2.154606915153e-04 0.0 
2.154606915153e-04 1.360586652886e-03 0.0 
0.0 0.0 0.0 
-1.863448078125e-04 1.006239705752e-04 0.0 
1.006239705752e-04 1.631298974193e-03 0.0 
0.0 0.0 0.0 
-1.108407791770e-04 1.203285757176e-04 0.0 
1.203285757176e-04 1.701888737943e-04 0.0 
0.0 0.0 0.0 
-9.681352170449e-05 1.475957023679e-06 0.0 
1.475957023679e-06 1.845497396429e-03 0.0 
0.0 0.0 0.0 
1.580834605330e-05 2.821630702146e-05 0.0 
2.821630702146e-05 1.221191975604e-03 0.0 
0.0 0.0 0.0 
8.348570344522e-06 -1.209971933783e-06 0.0 
-1.209971933783e-06 3.232974046818e-05 0.0 
0.0 0.0 0.0 
-3.020622290733e-05 8.864154259576e-06 0.0 
8.864154259576e-06 2.168422371447e-03 0.0 
0.0 0.0 0.0 
-1.822987164735e-04 7.039179161101e-05 0.0 
7.039179161101e-05 1.739825720433e-03 0.0 
0.0 0.0 0.0 
-1.875342292509e-04 9.930372077134e-05 0.0 
9.930372077134e-05 1.749628135999e-03 0.0 
0.0 0.0 0.0 
-1.813658429677e-04 8.699530081692e-05 0.0 
8.699530081692e-05 1.786125692857e-03 0.0 
0.0 0.0 0.0 
-1.842099000906e-04 1.214041808612e-04 0.0 
1.214041808612e-04 1.790888507016e-03 0.0 
0.0 0.0 0.0 
-1.793005758590e-04 1.115601740250e-04 0.0 
1.115601740250e-04 1.832306611384e-03 0.0 
0.0 0.0 0.0 
-1.761928639349e-04 1.413432563174e-04 0.0 
1.413432563174e-04 1.831483660423e-03 0.0 
0.0 0.0 0.0 
-1.796103736005e-04 1.542653197180e-04 0.0 
1.542653197180e-04 1.785265953870e-03 0.0 
0.0 0.0 0.0 
-1.676772452729e-04 1.716579269766e-04 0.0 
1.716579269766e-04 1.823135889743e-03 0.0 
0.0 0.0 0.0 
-1.677858491509e-04 1.860616131235e-04 0.0 
1.860616131235e-04 1.769953494715e-03 0.0 
0.0 0.0 0.0 
-1.701877292184e-04 1.318973998962e-04 0.0 
1.318973998962e-04 1.874199031059e-03 0.0 
0.0 0.0 0.0 
-1.536637586982e-04 2.001463731076e-04 0.0 
2.001463731076e-04 1.807220093330e-03 0.0 
0.0 0.0 0.0 
-1.502226056554e-04 2.145803761600e-04 0.0 
2.145803761600e-04 1.747057676547e-03 0.0 
0.0 0.0 0.0 
-1.351039635836e-04 2.257164962350e-04 0.0 
2.257164962350e-04 1.784910546913e-03 0.0 
0.0 0.0 0.0 
-1.284303369337e-04 2.388051096927e-04 0.0 
2.388051096927e-04 1.718614805361e-03 0.0 
0.0 0.0 0.0 
-1.416537506276e-04 2.308634693688e-04 0.0 
2.308634693688e-04 1.679747361121e-03 0.0 
0.0 0.0 0.0 
-1.163767706710e-04 2.523354889165e-04 0.0 
2.523354889165e-04 1.645157317343e-03 0.0 
0.0 0.0 0.0 
-1.275681048488e-04 2.475984200398e-04 0.0 
2.475984200398e-04 1.604460428351e-03 0.0 
0.0 0.0 0.0 
-9.913132852864e-05 2.648556068548e-04 0.0 
2.648556068548e-04 1.564211240725e-03 0.0 
0.0 0.0 0.0 
-8.955341721589e-05 2.679263764293e-04 0.0 
2.679263764293e-04 1.609023258816e-03 0.0 
0.0 0.0 0.0 
-7.032991221068e-05 2.757493996836e-04 0.0 
2.757493996836e-04 1.524211320689e-03 0.0 
0.0 0.0 0.0 
-7.707641526006e-05 2.746305573167e-04 0.0 
2.746305573167e-04 1.475831903856e-03 0.0 
0.0 0.0 0.0 
-4.732627417485e-05 2.805389232407e-04 0.0 
2.805389232407e-04 1.433797080748e-03 0.0 
0.0 0.0 0.0 
-5.174651957183e-05 2.801897845477e-04 0.0 
2.801897845477e-04 1.381673244463e-03 0.0 
0.0 0.0 0.0 
-2.215643101033e-05 2.809638627494e-04 0.0 
2.809638627494e-04 1.339343868892e-03 0.0 
0.0 0.0 0.0 
-2.498355632900e-05 2.803260380581e-04 0.0 
2.803260380581e-04 1.283323556883e-03 0.0 
0.0 0.0 0.0 
3.709344196338e-06 2.766370528925e-04 0.0 
2.766370528925e-04 1.242440414558e-03 0.0 
0.0 0.0 0.0 
4.855122147485e-06 2.780637968862e-04 0.0 
2.780637968862e-04 1.301735800100e-03 0.0 
0.0 0.0 0.0 
2.945586229737e-05 2.702121100335e-04 0.0 
2.702121100335e-04 1.206835278384e-03 0.0 
0.0 0.0 0.0 
2.902562562572e-05 2.678105008232e-04 0.0 
2.678105008232e-04 1.144816043830e-03 0.0 
0.0 0.0 0.0 
5.305100453364e-05 2.582276254328e-04 0.0 
2.582276254328e-04 1.112144856490e-03 0.0 
0.0 0.0 0.0 
5.243301815753e-05 2.544033008151e-04 0.0 
2.544033008151e-04 1.048007724267e-03 0.0 
0.0 0.0 0.0 
7.456692415212e-05 2.422525614196e-04 0.0 
2.422525614196e-04 1.018740577908e-03 0.0 
0.0 0.0 0.0 
7.372595174704e-05 2.473612628597e-04 0.0 
2.473612628597e-04 1.084999305870e-03 0.0 
0.0 0.0 0.0 
9.322053965484e-05 2.293672412172e-04 0.0 
2.293672412172e-04 9.955516784041e-04 0.0 
0.0 0.0 0.0 
9.315287891261e-05 2.225570031332e-04 0.0 
2.225570031332e-04 9.275467679242e-04 0.0 
0.0 0.0 0.0 
1.098001069178e-04 2.084074444631e-04 0.0 
2.084074444631e-04 9.090401462310e-04 0.0 
0.0 0.0 0.0 
1.081958310298e-04 1.998856187726e-04 0.0 
1.998856187726e-04 8.399409892873e-04 0.0 
0.0 0.0 0.0 
1.229927947577e-04 1.852093027280e-04 0.0 
1.852093027280e-04 8.263751073199e-04 0.0 
0.0 0.0 0.0 
1.193343471863e-04 1.753131178337e-04 0.0 
1.753131178337e-04 7.567213127440e-04 0.0 
0.0 0.0 0.0 
1.324160760635e-04 1.601479769949e-04 0.0 
1.601479769949e-04 7.476902751929e-04 0.0 
0.0 0.0 0.0 
1.343518934686e-04 1.710344470434e-04 0.0 
1.710344470434e-04 8.177927924275e-04 0.0 
0.0 0.0 0.0 
1.421599951813e-04 1.460875183164e-04 0.0 
1.460875183164e-04 7.433665690067e-04 0.0 
0.0 0.0 0.0 
1.377894554135e-04 1.341459438432e-04 0.0 
1.341459438432e-04 6.737223716936e-04 0.0 
0.0 0.0 0.0 
1.461633727237e-04 1.205692023265e-04 0.0 
1.205692023265e-04 6.735886127060e-04 0.0 
0.0 0.0 0.0 
1.490771623118e-04 1.334691714676e-04 0.0 
1.334691714676e-04 7.434766604264e-04 0.0 
0.0 0.0 0.0 
1.518089887854e-04 1.087878258922e-04 0.0 
1.087878258922e-04 6.775621176285e-04 0.0 
0.0 0.0 0.0 
1.532864006716e-04 1.224665284056e-04 0.0 
1.224665284056e-04 7.475614178379e-04 0.0 
0.0 0.0 0.0 
1.549796049445e-04 9.877711838929e-05 0.0 
9.877711838929e-05 6.851804000699e-04 0.0 
0.0 0.0 0.0 
1.510344920392e-04 8.472159741868e-05 0.0 
8.472159741868e-05 6.169673516634e-04 0.0 
0.0 0.0 0.0 
1.534440713211e-04 7.592845808579e-05 0.0 
7.592845808579e-05 6.276984353873e-04 0.0 
0.0 0.0 0.0 
1.559781999618e-04 9.034802561241e-05 0.0 
9.034802561241e-05 6.958808259075e-04 0.0 
0.0 0.0 0.0 
1.539114360661e-04 6.866639543246e-05 0.0 
6.866639543246e-05 6.409782147137e-04 0.0 
0.0 0.0 0.0 
1.488987146270e-04 5.429662906820e-05 0.0 
5.429662906820e-05 5.748438536412e-04 0.0 
0.0 0.0 0.0 
1.491643337445e-04 4.859339536141e-05 0.0 
4.859339536141e-05 5.906163812017e-04 0.0 
0.0 0.0 0.0 
1.527405804426e-04 6.298615967446e-05 0.0 
6.298615967446e-05 6.568627194193e-04 0.0 
0.0 0.0 0.0 
1.479805493965e-04 4.423189464152e-05 0.0 
4.423189464152e-05 6.085222515845e-04 0.0 
0.0 0.0 0.0 
1.420823263259e-04 3.027249262789e-05 0.0 
3.027249262789e-05 5.443379723867e-04 0.0 
0.0 0.0 0.0 
1.411576985683e-04 2.738060485278e-05 0.0 
2.738060485278e-05 5.639031747612e-04 0.0 
0.0 0.0 0.0 
1.456141601392e-04 4.111163403577e-05 0.0 
4.111163403577e-05 6.286138499569e-04 0.0 
0.0 0.0 0.0 
1.392058926944e-04 2.542244446481e-05 0.0 
2.542244446481e-05 5.849774080920e-04 0.0 
0.0 0.0 0.0 
1.326231735743e-04 1.256001950417e-05 0.0 
1.256001950417e-05 5.223602636268e-04 0.0 
0.0 0.0 0.0 
1.312797040127e-04 1.192649569244e-05 0.0 
1.192649569244e-05 5.443046584137e-04 0.0 
0.0 0.0 0.0 
1.364366293987e-04 2.439574274775e-05 0.0 
2.439574274775e-05 6.076563844801e-04 0.0 
0.0 0.0 0.0 
1.292261801177e-04 1.193916983136e-05 0.0 
1.193916983136e-05 5.674227801395e-04 0.0 
0.0 0.0 0.0 
1.329138964463e-04 2.392742959987e-05 0.0 
2.392742959987e-05 6.315171729117e-04 0.0 
0.0 0.0 0.0 
1.221148542732e-04 5.091457536254e-07 0.0 
5.091457536254e-07 5.055866843638e-04 0.0 
0.0 0.0 0.0 
1.209974319432e-04 1.564480057760e-06 0.0 
1.564480057760e-06 5.292452033006e-04 0.0 
0.0 0.0 0.0 
1.120636951676e-04 -8.586535938242e-06 0.0 
-8.586535938242e-06 4.687334220107e-04 0.0 
0.0 0.0 0.0 
1.120232056319e-04 -6.577784361198e-06 0.0 
-6.577784361198e-06 4.929698663878e-04 0.0 
0.0 0.0 0.0 
9.083152290316e-05 2.359808571054e-04 0.0 
2.359808571054e-04 1.063523152249e-03 0.0 
0.0 0.0 0.0 
1.016399979570e-04 -1.526481564470e-05 0.0 
-1.526481564470e-05 4.337863631511e-04 0.0 
0.0 0.0 0.0 
1.000337976247e-04 -1.764960219546e-05 0.0 
-1.764960219546e-05 4.107162355836e-04 0.0 
0.0 0.0 0.0 
1.026962802401e-04 -1.252046699540e-05 0.0 
-1.252046699540e-05 4.582733401423e-04 0.0 
0.0 0.0 0.0 
1.114425724226e-04 -4.282065979854e-06 0.0 
-4.282065979854e-06 5.182931070279e-04 0.0 
0.0 0.0 0.0 
9.117018023123e-05 -1.975598248424e-05 0.0 
-1.975598248424e-05 4.000847184822e-04 0.0 
0.0 0.0 0.0 
9.328841363595e-05 -1.642544962612e-05 0.0 
-1.642544962612e-05 4.247253929004e-04 0.0 
0.0 0.0 0.0 
8.079678756686e-05 -2.209534226079e-05 0.0 
-2.209534226079e-05 3.675138079668e-04 0.0 
0.0 0.0 0.0 
1.026635649520e-04 1.910792200952e-04 0.0 
1.910792200952e-04 7.700213551315e-04 0.0 
0.0 0.0 0.0 
-6.283904083458e-05 2.783317905398e-04 0.0 
2.783317905398e-04 1.573223793536e-03 0.0 
0.0 0.0 0.0 
8.395649135673e-05 -1.835247235229e-05 0.0 
-1.835247235229e-05 3.921314574832e-04 0.0 
0.0 0.0 0.0 
7.086654399502e-05 -2.260996106594e-05 0.0 
-2.260996106594e-05 3.356797617072e-04 0.0 
0.0 0.0 0.0 
6.612968467146e-05 -2.630463182618e-05 0.0 
-2.630463182618e-05 3.116456035681e-04 0.0 
0.0 0.0 0.0 
5.616975896209e-05 -2.533766133193e-05 0.0 
-2.533766133193e-05 2.802963351594e-04 0.0 
0.0 0.0 0.0 
-1.718146213067e-04 1.047567852859e-04 0.0 
1.047567852859e-04 1.869695535347e-03 0.0 
0.0 0.0 0.0 
-1.608337134996e-04 1.245699372359e-04 0.0 
1.245699372359e-04 1.914363273222e-03 0.0 
0.0 0.0 0.0 
-1.620516096168e-04 9.817015320749e-05 0.0 
9.817015320749e-05 1.905570250986e-03 0.0 
0.0 0.0 0.0 
-1.500734258935e-04 1.187748683061e-04 0.0 
1.187748683061e-04 1.952367893449e-03 0.0 
0.0 0.0 0.0 
-1.510870320225e-04 9.451848861074e-05 0.0 
9.451848861074e-05 1.941457418499e-03 0.0 
0.0 0.0 0.0 
6.165833367829e-05 -2.159142646392e-05 0.0 
-2.159142646392e-05 3.041103910765e-04 0.0 
0.0 0.0 0.0 
-1.365278378597e-04 2.141580406292e-04 0.0 
2.141580406292e-04 1.845066623923e-03 0.0 
0.0 0.0 0.0 
-1.456534784916e-04 1.442556515607e-04 0.0 
1.442556515607e-04 1.957365159711e-03 0.0 
0.0 0.0 0.0 
-8.338291619914e-05 2.740583297376e-04 0.0 
2.740583297376e-04 1.428661097100e-03 0.0 
0.0 0.0 0.0 
2.695268622077e-05 2.649297253569e-04 0.0 
2.649297253569e-04 1.083054772030e-03 0.0 
0.0 0.0 0.0 
1.482375252836e-04 1.464021155952e-04 0.0 
1.464021155952e-04 8.147094340536e-04 0.0 
0.0 0.0 0.0 
9.487188224122e-05 -1.305004445960e-05 0.0 
-1.305004445960e-05 4.499084176166e-04 0.0 
0.0 0.0 0.0 
8.655368727043e-05 -1.453561563292e-05 0.0 
-1.453561563292e-05 4.172392953984e-04 0.0 
0.0 0.0 0.0 
9.591565522649e-05 -9.824064730185e-06 0.0 
-9.824064730185e-06 4.756503406435e-04 0.0 
0.0 0.0 0.0 
1.380617949375e-04 3.738014341952e-05 0.0 
3.738014341952e-05 6.735216876798e-04 0.0 
0.0 0.0 0.0 
1.330741188849e-04 3.627688193623e-05 0.0 
3.627688193623e-05 6.978753359974e-04 0.0 
0.0 0.0 0.0 
1.360328064041e-04 5.063881593219e-05 0.0 
5.063881593219e-05 7.416573855756e-04 0.0 
0.0 0.0 0.0 
1.296280095125e-04 4.874594958992e-05 0.0 
4.874594958992e-05 7.664024808527e-04 0.0 
0.0 0.0 0.0 
1.302779395443e-04 6.388724501802e-05 0.0 
6.388724501802e-05 8.119484084564e-04 0.0 
0.0 0.0 0.0 
1.225583379289e-04 6.111843338048e-05 0.0 
6.111843338048e-05 8.371174764673e-04 0.0 
0.0 0.0 0.0 
1.227180224541e-04 4.683811953946e-05 0.0 
4.683811953946e-05 7.922569882491e-04 0.0 
0.0 0.0 0.0 
1.143534762992e-04 5.816325045225e-05 0.0 
5.816325045225e-05 8.634395411918e-04 0.0 
0.0 0.0 0.0 
1.154351265462e-04 4.476506483892e-05 0.0 
4.476506483892e-05 8.190719551602e-04 0.0 
0.0 0.0 0.0 
1.208371742153e-04 7.693509663577e-05 0.0 
7.693509663577e-05 8.843666949151e-04 0.0 
0.0 0.0 0.0 
1.292411465687e-04 8.054398722799e-05 0.0 
8.054398722799e-05 8.600379566581e-04 0.0 
0.0 0.0 0.0 
1.058497114371e-04 5.494500649556e-05 0.0 
5.494500649556e-05 8.907119725521e-04 0.0 
0.0 0.0 0.0 
1.078966284588e-04 4.240732817958e-05 0.0 
4.240732817958e-05 8.467797679704e-04 0.0 
0.0 0.0 0.0 
9.717829227844e-05 5.141360177785e-05 0.0 
5.141360177785e-05 9.189705248691e-04 0.0 
0.0 0.0 0.0 
1.002256050103e-04 3.954387204756e-05 0.0 
3.954387204756e-05 8.752764608166e-04 0.0 
0.0 0.0 0.0 
1.087252210160e-04 3.140094630919e-05 0.0 
3.140094630919e-05 8.045609105837e-04 0.0 
0.0 0.0 0.0 
1.021807790916e-04 2.922768876585e-05 0.0 
2.922768876585e-05 8.330773527585e-04 0.0 
0.0 0.0 0.0 
1.085284758581e-04 2.201916080187e-05 0.0 
2.201916080187e-05 7.641685979396e-04 0.0 
0.0 0.0 0.0 
1.511065160431e-04 1.362018137551e-04 0.0 
1.362018137551e-04 8.189259767030e-04 0.0 
0.0 0.0 0.0 
1.440041957003e-04 1.595113957141e-04 0.0 
1.595113957141e-04 8.871524545599e-04 0.0 
0.0 0.0 0.0 
1.455479782377e-04 1.500889834080e-04 0.0 
1.500889834080e-04 8.914429514715e-04 0.0 
0.0 0.0 0.0 
1.365795062470e-04 1.728015371095e-04 0.0 
1.728015371095e-04 9.604837627215e-04 0.0 
0.0 0.0 0.0 
1.366789879559e-04 1.641806821321e-04 0.0 
1.641806821321e-04 9.651292037842e-04 0.0 
0.0 0.0 0.0 
1.260343412270e-04 1.864321197431e-04 0.0 
1.864321197431e-04 1.034780005224e-03 0.0 
0.0 0.0 0.0 
1.244580154960e-04 1.786300420299e-04 0.0 
1.786300420299e-04 1.039877769206e-03 0.0 
0.0 0.0 0.0 
1.342893218771e-04 1.564863129160e-04 0.0 
1.564863129160e-04 9.733792708347e-04 0.0 
0.0 0.0 0.0 
-1.134664299509e-04 2.478581846998e-04 0.0 
2.478581846998e-04 1.757686924439e-03 0.0 
0.0 0.0 0.0 
1.392577448161e-04 1.077933197681e-04 0.0 
1.077933197681e-04 6.050853299309e-04 0.0 
0.0 0.0 0.0 
1.292102889499e-04 1.222953023319e-04 0.0 
1.222953023319e-04 6.052717125195e-04 0.0 
0.0 0.0 0.0 
1.279048082622e-04 9.526916239032e-05 0.0 
9.526916239032e-05 5.380123265566e-04 0.0 
0.0 0.0 0.0 
1.158217271019e-04 1.106773334070e-04 0.0 
1.106773334070e-04 5.383455005034e-04 0.0 
0.0 0.0 0.0 
1.115851469305e-04 8.324567018237e-05 0.0 
8.324567018237e-05 4.725986948063e-04 0.0 
0.0 0.0 0.0 
9.693433206311e-05 9.976344479168e-05 0.0 
9.976344479168e-05 4.733743782177e-04 0.0 
0.0 0.0 0.0 
8.956391861648e-05 7.223405719336e-05 0.0 
7.223405719336e-05 4.090301022769e-04 0.0 
0.0 0.0 0.0 
1.033423629386e-04 5.698404656339e-05 0.0 
5.698404656339e-05 4.129544933475e-04 0.0 
0.0 0.0 0.0 
7.813443228858e-05 4.632690913862e-05 0.0 
4.632690913862e-05 3.510271449068e-04 0.0 
0.0 0.0 0.0 
9.143777177582e-05 3.251318083886e-05 0.0 
3.251318083886e-05 3.595554299376e-04 0.0 
0.0 0.0 0.0 
6.319372241714e-05 2.243589561225e-05 0.0 
2.243589561225e-05 2.996067863896e-04 0.0 
0.0 0.0 0.0 
7.622185827353e-05 1.073371423687e-05 0.0 
1.073371423687e-05 3.120807226612e-04 0.0 
0.0 0.0 0.0 
2.888766679913e-05 2.729025743769e-04 0.0 
2.729025743769e-04 1.268793395260e-03 0.0 
0.0 0.0 0.0 
1.249696609534e-04 1.951317729335e-04 0.0 
1.951317729335e-04 1.033199758580e-03 0.0 
0.0 0.0 0.0 
1.131099476302e-04 2.085089147634e-04 0.0 
2.085089147634e-04 1.107845744281e-03 0.0 
0.0 0.0 0.0 
1.112061273922e-04 2.166350088522e-04 0.0 
2.166350088522e-04 1.108536003218e-03 0.0 
0.0 0.0 0.0 
4.975526815002e-05 -2.875042389857e-05 0.0 
-2.875042389857e-05 2.567899856590e-04 0.0 
0.0 0.0 0.0 
9.257781154411e-05 3.605773479871e-05 0.0 
3.605773479871e-05 9.044698931047e-04 0.0 
0.0 0.0 0.0 
1.173200688372e-04 9.408235450224e-05 0.0 
9.408235450224e-05 9.342812112160e-04 0.0 
0.0 0.0 0.0 
1.262487927148e-04 9.844580285710e-05 0.0 
9.844580285710e-05 9.106843011912e-04 0.0 
0.0 0.0 0.0 
1.203303761630e-04 1.716491019596e-04 0.0 
1.716491019596e-04 1.049151064533e-03 0.0 
0.0 0.0 0.0 
4.727095152487e-05 -2.292128447962e-05 0.0 
-2.292128447962e-05 2.495390915005e-04 0.0 
0.0 0.0 0.0 
7.194032157931e-05 9.024106700434e-05 0.0 
9.024106700434e-05 4.106436443642e-04 0.0 
0.0 0.0 0.0 
7.789653347678e-05 1.185512254555e-04 0.0 
1.185512254555e-04 4.800278996138e-04 0.0 
0.0 0.0 0.0 
-1.373724263979e-04 1.139328150539e-04 0.0 
1.139328150539e-04 1.987979130876e-03 0.0 
0.0 0.0 0.0 
-1.385183213319e-04 9.168029263711e-05 0.0 
9.168029263711e-05 1.974919303124e-03 0.0 
0.0 0.0 0.0 
1.117785162138e-04 1.124918426531e-04 0.0 
1.124918426531e-04 9.869912005136e-04 0.0 
0.0 0.0 0.0 
5.321293398312e-05 -1.923669152178e-05 0.0 
-1.923669152178e-05 2.730209011553e-04 0.0 
0.0 0.0 0.0 
1.023435982085e-04 6.904441558843e-05 0.0 
6.904441558843e-05 9.368248882149e-04 0.0 
0.0 0.0 0.0 
4.710448390181e-05 3.749069064374e-05 0.0 
3.749069064374e-05 2.912577180831e-04 0.0 
0.0 0.0 0.0 
9.570072416543e-05 2.650218862665e-05 0.0 
2.650218862665e-05 8.621883568369e-04 0.0 
0.0 0.0 0.0 
8.496695810748e-05 3.198437750474e-05 0.0 
3.198437750474e-05 9.341461284326e-04 0.0 
0.0 0.0 0.0 
1.215169668342e-04 3.429162818717e-05 0.0 
3.429162818717e-05 7.497010827710e-04 0.0 
0.0 0.0 0.0 
9.854683072371e-05 2.299548747318e-04 0.0 
2.299548747318e-04 1.183413702871e-03 0.0 
0.0 0.0 0.0 
9.572301201037e-05 2.366285861060e-04 0.0 
2.366285861060e-04 1.185976434152e-03 0.0 
0.0 0.0 0.0 
1.012421319008e-04 2.182628908366e-05 0.0 
2.182628908366e-05 3.721138608582e-04 0.0 
0.0 0.0 0.0 
8.588403653823e-05 2.335938324747e-06 0.0 
2.335938324747e-06 3.276763286503e-04 0.0 
0.0 0.0 0.0 
5.870311149729e-05 -7.200612188589e-06 0.0 
-7.200612188589e-06 2.717502638232e-04 0.0 
0.0 0.0 0.0 
6.860161676185e-05 -1.301078867171e-05 0.0 
-1.301078867171e-05 2.894114090269e-04 0.0 
0.0 0.0 0.0 
9.414319885141e-05 -3.428733263125e-06 0.0 
-3.428733263125e-06 3.447091330000e-04 0.0 
0.0 0.0 0.0 
7.787408408796e-05 -1.753511713875e-05 0.0 
-1.753511713875e-05 3.062843974663e-04 0.0 
0.0 0.0 0.0 
5.187994359538e-05 -2.538348191448e-05 0.0 
-2.538348191448e-05 2.518080942156e-04 0.0 
0.0 0.0 0.0 
6.077214729457e-05 -2.768211155581e-05 0.0 
-2.768211155581e-05 2.709035107218e-04 0.0 
0.0 0.0 0.0 
8.500550133139e-05 -1.986224308328e-05 0.0 
-1.986224308328e-05 3.258796137549e-04 0.0 
0.0 0.0 0.0 
6.897921666763e-05 -2.880254369688e-05 0.0 
-2.880254369688e-05 2.912729683070e-04 0.0 
0.0 0.0 0.0 
4.354114691278e-05 -3.436194599599e-05 0.0 
-3.436194599599e-05 2.377607698177e-04 0.0 
0.0 0.0 0.0 
5.311880542388e-05 -3.404822347799e-05 0.0 
-3.404822347799e-05 2.584021303963e-04 0.0 
0.0 0.0 0.0 
7.967849520910e-05 4.236255020621e-05 0.0 
4.236255020621e-05 9.778522449167e-04 0.0 
0.0 0.0 0.0 
2.935324874409e-05 1.405500373096e-05 0.0 
1.405500373096e-05 2.423995833959e-04 0.0 
0.0 0.0 0.0 
-1.537721363872e-04 2.229567186875e-04 0.0 
2.229567186875e-04 1.642845721914e-03 0.0 
0.0 0.0 0.0 
1.016307005323e-04 1.072575667498e-04 0.0 
1.072575667498e-04 1.010476029193e-03 0.0 
0.0 0.0 0.0 
1.086134515671e-04 1.937591170322e-04 0.0 
1.937591170322e-04 1.115605064364e-03 0.0 
0.0 0.0 0.0 
-1.230964288620e-04 1.099168778676e-04 0.0 
1.099168778676e-04 2.021837442750e-03 0.0 
0.0 0.0 0.0 
-1.247977535144e-04 8.925483003909e-05 0.0 
8.925483003909e-05 2.007011615984e-03 0.0 
0.0 0.0 0.0 
-1.369699765462e-04 7.182276088936e-05 0.0 
7.182276088936e-05 1.956939534877e-03 0.0 
0.0 0.0 0.0 
-1.243644364855e-04 7.074210831556e-05 0.0 
7.074210831556e-05 1.988210176984e-03 0.0 
0.0 0.0 0.0 
-1.100094637518e-04 8.672531891314e-05 0.0 
8.672531891314e-05 2.037828512410e-03 0.0 
0.0 0.0 0.0 
-1.108845042049e-04 6.932242133583e-05 0.0 
6.932242133583e-05 2.018450333598e-03 0.0 
0.0 0.0 0.0 
-1.224648366125e-04 5.462300941467e-05 0.0 
5.462300941467e-05 1.966243680418e-03 0.0 
0.0 0.0 0.0 
-1.103808793836e-04 5.411401461015e-05 0.0 
5.411401461015e-05 1.996269040527e-03 0.0 
0.0 0.0 0.0 
-1.195378563200e-04 4.093852709998e-05 0.0 
4.093852709998e-05 1.941741577648e-03 0.0 
0.0 0.0 0.0 
-1.089906482730e-04 4.121876589126e-05 0.0 
4.121876589126e-05 1.971911901000e-03 0.0 
0.0 0.0 0.0 
-9.775888772971e-05 5.299461975907e-05 0.0 
5.299461975907e-05 2.025702952919e-03 0.0 
0.0 0.0 0.0 
-9.786877959054e-05 4.067581433884e-05 0.0 
4.067581433884e-05 2.001516058131e-03 0.0 
0.0 0.0 0.0 
-1.072430727428e-04 3.052569582577e-05 0.0 
3.052569582577e-05 1.945947052466e-03 0.0 
0.0 0.0 0.0 
-9.759231858425e-05 3.027540083993e-05 0.0 
3.027540083993e-05 1.975933286369e-03 0.0 
0.0 0.0 0.0 
-1.054828645064e-04 2.178349775080e-05 0.0 
2.178349775080e-05 1.918806685816e-03 0.0 
0.0 0.0 0.0 
-9.715015990824e-05 2.167938685900e-05 0.0 
2.167938685900e-05 1.949041260400e-03 0.0 
0.0 0.0 0.0 
-8.750840319995e-05 2.923821135735e-05 0.0 
2.923821135735e-05 2.005495113108e-03 0.0 
0.0 0.0 0.0 
3.955477767067e-05 -1.943375161798e-05 0.0 
-1.943375161798e-05 2.200087097065e-04 0.0 
0.0 0.0 0.0 
1.295181234622e-04 1.497193631117e-04 0.0 
1.497193631117e-04 9.850552575470e-04 0.0 
0.0 0.0 0.0 
1.135140391142e-04 1.654171816410e-04 0.0 
1.654171816410e-04 1.062586577695e-03 0.0 
0.0 0.0 0.0 
8.859791958504e-05 -1.129300737861e-05 0.0 
-1.129300737861e-05 4.443951781993e-04 0.0 
0.0 0.0 0.0 
9.701643438994e-05 -7.104430015855e-06 0.0 
-7.104430015855e-06 5.011102070151e-04 0.0 
0.0 0.0 0.0 
1.029422593563e-04 -3.968061306257e-06 0.0 
-3.968061306257e-06 5.356063459060e-04 0.0 
0.0 0.0 0.0 
1.026222948307e-04 -1.742907643708e-06 0.0 
-1.742907643708e-06 5.627023837547e-04 0.0 
0.0 0.0 0.0 
-8.862933093223e-05 2.073277281620e-05 0.0 
2.073277281620e-05 1.978832718216e-03 0.0 
0.0 0.0 0.0 
-7.740860068436e-05 2.721550806003e-05 0.0 
2.721550806003e-05 2.034767298163e-03 0.0 
0.0 0.0 0.0 
4.968123394111e-05 1.112588349270e-04 0.0 
1.112588349270e-04 4.187669201117e-04 0.0 
0.0 0.0 0.0 
5.359749046219e-05 1.392709782631e-04 0.0 
1.392709782631e-04 4.939119066349e-04 0.0 
0.0 0.0 0.0 
-1.187081680577e-04 1.324710451639e-04 0.0 
1.324710451639e-04 2.032050351324e-03 0.0 
0.0 0.0 0.0 
8.914647416684e-05 2.296638650592e-05 0.0 
2.296638650592e-05 8.922440381789e-04 0.0 
0.0 0.0 0.0 
9.777881786891e-05 1.844436610491e-05 0.0 
1.844436610491e-05 8.216960957080e-04 0.0 
0.0 0.0 0.0 
4.926246649787e-05 2.497714254063e-04 0.0 
2.497714254063e-04 9.844558063388e-04 0.0 
0.0 0.0 0.0 
2.197466789881e-05 2.606049387999e-04 0.0 
2.606049387999e-04 1.021911803212e-03 0.0 
0.0 0.0 0.0 
4.210824228975e-05 2.438208356608e-04 0.0 
2.438208356608e-04 9.216553580251e-04 0.0 
0.0 0.0 0.0 
1.199643356505e-05 2.539408993165e-04 0.0 
2.539408993165e-04 9.612692453850e-04 0.0 
0.0 0.0 0.0 
-8.773291416982e-06 2.682557987421e-04 0.0 
2.682557987421e-04 1.066703676454e-03 0.0 
0.0 0.0 0.0 
2.856571478127e-05 2.357196629591e-04 0.0 
2.357196629591e-04 8.588788026318e-04 0.0 
0.0 0.0 0.0 
1.369341376503e-04 8.409252005319e-05 0.0 
8.409252005319e-05 8.365199068772e-04 0.0 
0.0 0.0 0.0 
-8.477669074604e-05 5.100092023365e-05 0.0 
5.100092023365e-05 2.054496512579e-03 0.0 
0.0 0.0 0.0 
6.047899889587e-05 -2.958541656180e-05 0.0 
-2.958541656180e-05 2.882832735600e-04 0.0 
0.0 0.0 0.0 
4.230000120342e-05 -3.144636168119e-05 0.0 
-3.144636168119e-05 2.341470150201e-04 0.0 
0.0 0.0 0.0 
7.717711596763e-05 2.725937451743e-05 0.0 
2.725937451743e-05 9.650042241612e-04 0.0 
0.0 0.0 0.0 
1.416322586394e-04 1.345478880003e-04 0.0 
1.345478880003e-04 9.100893601461e-04 0.0 
0.0 0.0 0.0 
5.521901802733e-06 2.802557156236e-04 0.0 
2.802557156236e-04 1.361137537266e-03 0.0 
0.0 0.0 0.0 
2.766671390667e-05 2.765924743626e-04 0.0 
2.765924743626e-04 1.330748205810e-03 0.0 
0.0 0.0 0.0 
5.930565851409e-06 2.840288413754e-04 0.0 
2.840288413754e-04 1.420645634536e-03 0.0 
0.0 0.0 0.0 
2.594011745694e-05 2.820627737282e-04 0.0 
2.820627737282e-04 1.392623060223e-03 0.0 
0.0 0.0 0.0 
6.168346775489e-06 2.900075154219e-04 0.0 
2.900075154219e-04 1.480315370032e-03 0.0 
0.0 0.0 0.0 
2.347521903763e-05 2.898940482438e-04 0.0 
2.898940482438e-04 1.454652465792e-03 0.0 
0.0 0.0 0.0 
4.230380588695e-05 2.790101662879e-04 0.0 
2.790101662879e-04 1.369317000587e-03 0.0 
0.0 0.0 0.0 
8.307352744708e-05 2.506671358002e-04 0.0 
2.506671358002e-04 1.260692127192e-03 0.0 
0.0 0.0 0.0 
3.689744002659e-05 2.890269290417e-04 0.0 
2.890269290417e-04 1.434206037796e-03 0.0 
0.0 0.0 0.0 
-9.690812932942e-05 1.523874708452e-05 0.0 
1.523874708452e-05 1.920586859465e-03 0.0 
0.0 0.0 0.0 
1.213389157805e-04 2.044551216410e-04 0.0 
2.044551216410e-04 1.034388931676e-03 0.0 
0.0 0.0 0.0 
9.073121269628e-05 -2.072996407578e-05 0.0 
-2.072996407578e-05 3.469161573183e-04 0.0 
0.0 0.0 0.0 
3.274810921949e-05 -2.282886871160e-05 0.0 
-2.282886871160e-05 1.960889600998e-04 0.0 
0.0 0.0 0.0 
2.656930546396e-05 -3.650144086619e-05 0.0 
-3.650144086619e-05 2.047532364349e-04 0.0 
0.0 0.0 0.0 
4.571309692192e-05 -1.582303815509e-05 0.0 
-1.582303815509e-05 2.412421076404e-04 0.0 
0.0 0.0 0.0 
5.849110229642e-05 -1.504365047213e-05 0.0 
-1.504365047213e-05 2.969712373463e-04 0.0 
0.0 0.0 0.0 
9.350119587814e-05 1.263669985549e-04 0.0 
1.263669985549e-04 1.064927329083e-03 0.0 
0.0 0.0 0.0 
5.985734717014e-06 2.990061690453e-04 0.0 
2.990061690453e-04 1.540454167549e-03 0.0 
0.0 0.0 0.0 
-1.166484521048e-05 2.955568351113e-04 0.0 
2.955568351113e-04 1.565803195785e-03 0.0 
0.0 0.0 0.0 
-2.069559346398e-05 2.612240971910e-04 0.0 
2.612240971910e-04 1.010854036672e-03 0.0 
0.0 0.0 0.0 
-4.213394790055e-05 2.701422560067e-04 0.0 
2.701422560067e-04 1.119447665069e-03 0.0 
0.0 0.0 0.0 
8.328214561526e-05 2.446831527996e-04 0.0 
2.446831527996e-04 1.258602066507e-03 0.0 
0.0 0.0 0.0 
-1.586783625490e-04 7.521118460301e-05 0.0 
7.521118460301e-05 1.891602258648e-03 0.0 
0.0 0.0 0.0 
-1.294269112797e-04 4.009944429586e-05 0.0 
4.009944429586e-05 1.911113475868e-03 0.0 
0.0 0.0 0.0 
-1.241951106160e-04 2.838258365815e-05 0.0 
2.838258365815e-05 1.884071763697e-03 0.0 
0.0 0.0 0.0 
3.195510426836e-05 -1.605234885093e-05 0.0 
-1.605234885093e-05 1.817139306625e-04 0.0 
0.0 0.0 0.0 
1.534237419359e-05 -3.621967567871e-05 0.0 
-3.621967567871e-05 1.872775315528e-04 0.0 
0.0 0.0 0.0 
-9.466492165402e-05 8.369022874427e-05 0.0 
8.369022874427e-05 2.067647601481e-03 0.0 
0.0 0.0 0.0 
7.910968928515e-05 1.466415435205e-04 0.0 
1.466415435205e-04 5.556211657498e-04 0.0 
0.0 0.0 0.0 
5.301208901239e-05 1.663672281538e-04 0.0 
1.663672281538e-04 5.757604126976e-04 0.0 
0.0 0.0 0.0 
9.043878296922e-06 3.110268737731e-05 0.0 
3.110268737731e-05 2.337977662428e-04 0.0 
0.0 0.0 0.0 
-1.098010034597e-05 8.184420411239e-06 0.0 
8.184420411239e-06 1.876605488538e-04 0.0 
0.0 0.0 0.0 
-7.977213618826e-05 1.930032339783e-05 0.0 
1.930032339783e-05 2.007933350994e-03 0.0 
0.0 0.0 0.0 
-6.730410184293e-05 2.408301472756e-05 0.0 
2.408301472756e-05 2.062534815139e-03 0.0 
0.0 0.0 0.0 
1.075200895679e-04 1.967419627499e-06 0.0 
1.967419627499e-06 5.974285395041e-04 0.0 
0.0 0.0 0.0 
1.056363879271e-04 3.144412274312e-06 0.0 
3.144412274312e-06 6.249925088031e-04 0.0 
0.0 0.0 0.0 
1.041770999729e-04 1.322262618149e-04 0.0 
1.322262618149e-04 1.042997799978e-03 0.0 
0.0 0.0 0.0 
3.777061634506e-05 -3.601579120683e-05 0.0 
-3.601579120683e-05 2.265762275864e-04 0.0 
0.0 0.0 0.0 
-6.315203000436e-05 3.332789891346e-05 0.0 
3.332789891346e-05 2.087916255792e-03 0.0 
0.0 0.0 0.0 
1.364406556677e-04 1.282882200431e-04 0.0 
1.282882200431e-04 9.246519165326e-04 0.0 
0.0 0.0 0.0 
1.463999900398e-04 1.130505508151e-04 0.0 
1.130505508151e-04 8.505742969150e-04 0.0 
0.0 0.0 0.0 
9.761248600145e-05 -3.386890331570e-06 0.0 
-3.386890331570e-06 5.275308715120e-04 0.0 
0.0 0.0 0.0 
2.096227132383e-05 1.347737891344e-04 0.0 
1.347737891344e-04 4.352508999651e-04 0.0 
0.0 0.0 0.0 
1.534935130602e-05 1.070953056399e-04 0.0 
1.070953056399e-04 3.598796081834e-04 0.0 
0.0 0.0 0.0 
1.052337811172e-04 -9.855734783858e-06 0.0 
-9.855734783858e-06 3.831734793556e-04 0.0 
0.0 0.0 0.0 
6.122410974363e-05 -3.292255290957e-05 0.0 
-3.292255290957e-05 2.799030664850e-04 0.0 
0.0 0.0 0.0 
5.106351786166e-05 -1.181398656336e-05 0.0 
-1.181398656336e-05 2.651354222835e-04 0.0 
0.0 0.0 0.0 
8.341879030715e-05 1.472993798639e-04 0.0 
1.472993798639e-04 1.122755019313e-03 0.0 
0.0 0.0 0.0 
-9.079729375720e-05 1.018679029375e-04 0.0 
1.018679029375e-04 2.084172601762e-03 0.0 
0.0 0.0 0.0 
5.431366220036e-05 2.751484724018e-04 0.0 
2.751484724018e-04 1.351452006160e-03 0.0 
0.0 0.0 0.0 
6.161258886150e-05 2.660160888856e-04 0.0 
2.660160888856e-04 1.283759646317e-03 0.0 
0.0 0.0 0.0 
4.638531887446e-05 2.872382172027e-04 0.0 
2.872382172027e-04 1.418584559917e-03 0.0 
0.0 0.0 0.0 
1.143809633375e-05 -3.579560637021e-05 0.0 
-3.579560637021e-05 1.754668132334e-04 0.0 
0.0 0.0 0.0 
8.163958904794e-05 1.199688456025e-04 0.0 
1.199688456025e-04 1.089910332864e-03 0.0 
0.0 0.0 0.0 
8.227523766687e-05 1.857161133312e-05 0.0 
1.857161133312e-05 9.232681968070e-04 0.0 
0.0 0.0 0.0 
-9.588783815018e-06 3.060062288793e-04 0.0 
3.060062288793e-04 1.621971178495e-03 0.0 
0.0 0.0 0.0 
-2.640400911104e-05 2.991689995240e-04 0.0 
2.991689995240e-04 1.647905323501e-03 0.0 
0.0 0.0 0.0 
7.592383363471e-05 1.736531167368e-04 0.0 
1.736531167368e-04 6.372801416069e-04 0.0 
0.0 0.0 0.0 
4.849118115443e-05 1.914468550749e-04 0.0 
1.914468550749e-04 6.646962477423e-04 0.0 
0.0 0.0 0.0 
2.070473170660e-05 1.856650506754e-04 0.0 
1.856650506754e-04 6.067718537971e-04 0.0 
0.0 0.0 0.0 
1.571041806029e-05 2.085742156959e-04 0.0 
2.085742156959e-04 7.016507437314e-04 0.0 
0.0 0.0 0.0 
-1.793332275537e-04 1.706530895609e-04 0.0 
1.706530895609e-04 1.734045752275e-03 0.0 
0.0 0.0 0.0 
6.853347496164e-05 1.990331450289e-04 0.0 
1.990331450289e-04 7.262265094545e-04 0.0 
0.0 0.0 0.0 
-1.378204345373e-04 2.428868524472e-04 0.0 
2.428868524472e-04 1.566197772835e-03 0.0 
0.0 0.0 0.0 
-1.641281076545e-04 2.138961008766e-04 0.0 
2.138961008766e-04 1.608522502004e-03 0.0 
0.0 0.0 0.0 
-1.469225438355e-04 2.371110136375e-04 0.0 
2.371110136375e-04 1.530198459419e-03 0.0 
0.0 0.0 0.0 
-3.379041345292e-05 2.760452772747e-04 0.0 
2.760452772747e-04 1.172839022584e-03 0.0 
0.0 0.0 0.0 
-6.773646948668e-05 2.732622013274e-04 0.0 
2.732622013274e-04 1.229068602051e-03 0.0 
0.0 0.0 0.0 
1.157722969629e-04 1.383880675639e-04 0.0 
1.383880675639e-04 6.099238684365e-04 0.0 
0.0 0.0 0.0 
1.398861685966e-04 1.701520187080e-04 0.0 
1.701520187080e-04 8.862900548599e-04 0.0 
0.0 0.0 0.0 
1.090151541017e-04 2.271623307914e-07 0.0 
2.271623307914e-07 5.706322029768e-04 0.0 
0.0 0.0 0.0 
1.139042783044e-04 2.298268080068e-05 0.0 
2.298268080068e-05 7.363527616493e-04 0.0 
0.0 0.0 0.0 
1.417115877045e-04 5.275184798809e-05 0.0 
5.275184798809e-05 7.180550331158e-04 0.0 
0.0 0.0 0.0 
-8.246467968100e-05 6.461674263933e-05 0.0 
6.461674263933e-05 2.076498983979e-03 0.0 
0.0 0.0 0.0 
-6.797921962963e-05 6.092926111436e-05 0.0 
6.092926111436e-05 2.104916388026e-03 0.0 
0.0 0.0 0.0 
-1.131099371518e-04 2.098705775005e-05 0.0 
2.098705775005e-05 1.887780099709e-03 0.0 
0.0 0.0 0.0 
-1.099384855178e-04 1.376388597980e-05 0.0 
1.376388597980e-05 1.859010387969e-03 0.0 
0.0 0.0 0.0 
3.216608998635e-05 -2.877429588546e-05 0.0 
-2.877429588546e-05 2.025998735485e-04 0.0 
0.0 0.0 0.0 
2.234446188206e-05 -3.035387875738e-05 0.0 
-3.035387875738e-05 1.808987193057e-04 0.0 
0.0 0.0 0.0 
1.287705325562e-04 2.377584649979e-05 0.0 
2.377584649979e-05 6.565386085432e-04 0.0 
0.0 0.0 0.0 
9.055457364674e-05 1.017398448262e-04 0.0 
1.017398448262e-04 1.035155970268e-03 0.0 
0.0 0.0 0.0 
-1.025187499459e-04 1.270464309397e-04 0.0 
1.270464309397e-04 2.065579923718e-03 0.0 
0.0 0.0 0.0 
-9.504970449072e-05 1.501478164327e-04 0.0 
1.501478164327e-04 2.073236816822e-03 0.0 
0.0 0.0 0.0 
-1.115063550815e-04 1.564744375788e-04 0.0 
1.564744375788e-04 2.037403090304e-03 0.0 
0.0 0.0 0.0 
9.490955261145e-05 1.534365781068e-04 0.0 
1.534365781068e-04 1.101178850681e-03 0.0 
0.0 0.0 0.0 
1.368327524223e-04 8.196956625210e-05 0.0 
8.196956625210e-05 5.422276274598e-04 0.0 
0.0 0.0 0.0 
1.516304836173e-04 1.273325530191e-04 0.0 
1.273325530191e-04 8.264662067349e-04 0.0 
0.0 0.0 0.0 
7.878050363360e-06 -4.906168680799e-06 0.0 
-4.906168680799e-06 2.011799050183e-04 0.0 
0.0 0.0 0.0 
7.105010533985e-05 2.525962207884e-04 0.0 
2.525962207884e-04 1.151177506266e-03 0.0 
0.0 0.0 0.0 
1.397736886836e-05 -2.619004873745e-05 0.0 
-2.619004873745e-05 1.495999919994e-04 0.0 
0.0 0.0 0.0 
-7.904826775929e-05 2.727013604145e-04 0.0 
2.727013604145e-04 1.654355109733e-03 0.0 
0.0 0.0 0.0 
6.933257568894e-05 2.169173035372e-05 0.0 
2.169173035372e-05 9.968230264025e-04 0.0 
0.0 0.0 0.0 
6.240164802296e-05 3.116620026416e-05 0.0 
3.116620026416e-05 1.039398201843e-03 0.0 
0.0 0.0 0.0 
6.751921964121e-05 2.654229644977e-04 0.0 
2.654229644977e-04 1.333988637985e-03 0.0 
0.0 0.0 0.0 
-1.900387668843e-04 1.132802694151e-04 0.0 
1.132802694151e-04 1.709022797846e-03 0.0 
0.0 0.0 0.0 
8.646773993248e-05 2.430956367313e-04 0.0 
2.430956367313e-04 1.131755949539e-03 0.0 
0.0 0.0 0.0 
1.043391344995e-04 2.245663721224e-04 0.0 
2.245663721224e-04 1.047892094584e-03 0.0 
0.0 0.0 0.0 
-1.723910619094e-04 2.019129810877e-04 0.0 
2.019129810877e-04 1.576298029759e-03 0.0 
0.0 0.0 0.0 
-1.546637393465e-04 2.283754952780e-04 0.0 
2.283754952780e-04 1.497647759698e-03 0.0 
0.0 0.0 0.0 
-1.232331416240e-04 2.567217724800e-04 0.0 
2.567217724800e-04 1.439582493545e-03 0.0 
0.0 0.0 0.0 
-1.305451723414e-04 2.507650070143e-04 0.0 
2.507650070143e-04 1.401393703000e-03 0.0 
0.0 0.0 0.0 
1.085506478441e-04 -1.083631408450e-05 0.0 
-1.083631408450e-05 4.039326097686e-04 0.0 
0.0 0.0 0.0 
9.507817510242e-05 -2.045287185334e-05 0.0 
-2.045287185334e-05 3.681587927084e-04 0.0 
0.0 0.0 0.0 
4.878002371747e-06 3.140846556845e-04 0.0 
3.140846556845e-04 1.606033643270e-03 0.0 
0.0 0.0 0.0 
3.084817240995e-05 3.036661557756e-04 0.0 
3.036661557756e-04 1.498309201909e-03 0.0 
0.0 0.0 0.0 
-1.957970101692e-05 3.123405672001e-04 0.0 
3.123405672001e-04 1.700398885661e-03 0.0 
0.0 0.0 0.0 
-3.648239236844e-05 3.021531196185e-04 0.0 
3.021531196185e-04 1.727788538509e-03 0.0 
0.0 0.0 0.0 
6.582503952209e-05 2.606358149948e-04 0.0 
2.606358149948e-04 1.333286025078e-03 0.0 
0.0 0.0 0.0 
8.122717921892e-05 2.384897117175e-04 0.0 
2.384897117175e-04 1.259397941063e-03 0.0 
0.0 0.0 0.0 
6.266046575124e-05 -1.102441754014e-05 0.0 
-1.102441754014e-05 3.196325799584e-04 0.0 
0.0 0.0 0.0 
-7.853082896727e-05 2.652929741893e-04 0.0 
2.652929741893e-04 1.181155978385e-03 0.0 
0.0 0.0 0.0 
-7.380404239119e-05 9.715330545216e-05 0.0 
9.715330545216e-05 2.113831507553e-03 0.0 
0.0 0.0 0.0 
-1.827996868531e-04 1.757142065206e-04 0.0 
1.757142065206e-04 1.642310037064e-03 0.0 
0.0 0.0 0.0 
6.881011524510e-05 1.124688488465e-04 0.0 
1.124688488465e-04 1.113484202785e-03 0.0 
0.0 0.0 0.0 
7.920727187179e-05 9.578515112530e-05 0.0 
9.578515112530e-05 1.062237828178e-03 0.0 
0.0 0.0 0.0 
-3.636854010619e-05 -7.688180370107e-06 0.0 
-7.688180370107e-06 1.499483534431e-04 0.0 
0.0 0.0 0.0 
-1.618143675062e-05 -2.040159545312e-05 0.0 
-2.040159545312e-05 1.635350438192e-04 0.0 
0.0 0.0 0.0 
-5.217429416497e-05 2.855340702162e-05 0.0 
2.855340702162e-05 2.115740809659e-03 0.0 
0.0 0.0 0.0 
-1.991089705265e-05 2.021561867569e-04 0.0 
2.021561867569e-04 6.473778060598e-04 0.0 
0.0 0.0 0.0 
-2.519931337547e-05 2.198553741417e-04 0.0 
2.198553741417e-04 7.454305974985e-04 0.0 
0.0 0.0 0.0 
-1.615202144946e-05 1.816370513451e-04 0.0 
1.816370513451e-04 5.513774806683e-04 0.0 
0.0 0.0 0.0 
3.230645852030e-05 9.032956743186e-06 0.0 
9.032956743186e-06 1.151292701012e-03 0.0 
0.0 0.0 0.0 
-1.036114842337e-04 3.946299434802e-08 0.0 
3.946299434802e-08 1.734165327888e-03 0.0 
0.0 0.0 0.0 
5.373274209763e-05 2.442035751744e-05 0.0 
2.442035751744e-05 1.072236180638e-03 0.0 
0.0 0.0 0.0 
-6.151852605209e-05 2.778258051681e-04 0.0 
2.778258051681e-04 1.279642894160e-03 0.0 
0.0 0.0 0.0 
-4.608220579875e-05 3.926182692718e-05 0.0 
3.926182692718e-05 2.139967650240e-03 0.0 
0.0 0.0 0.0 
9.822720641058e-05 2.335927614807e-04 0.0 
2.335927614807e-04 1.118525168636e-03 0.0 
0.0 0.0 0.0 
6.805953956220e-05 2.307427593938e-04 0.0 
2.307427593938e-04 8.869382495292e-04 0.0 
0.0 0.0 0.0 
1.136864779990e-04 1.379189536543e-04 0.0 
1.379189536543e-04 1.022109381444e-03 0.0 
0.0 0.0 0.0 
-5.850840311981e-05 1.796335726286e-05 0.0 
1.796335726286e-05 2.087565984793e-03 0.0 
0.0 0.0 0.0 
-4.131230676431e-05 2.279491661044e-05 0.0 
2.279491661044e-05 2.144607454598e-03 0.0 
0.0 0.0 0.0 
-1.312084244071e-04 2.681367208394e-05 0.0 
2.681367208394e-05 1.852415108781e-03 0.0 
0.0 0.0 0.0 
-1.256555179367e-04 1.648340815940e-05 0.0 
1.648340815940e-05 1.821960566246e-03 0.0 
0.0 0.0 0.0 
-1.382716848953e-04 3.876008588626e-05 0.0 
3.876008588626e-05 1.878050176396e-03 0.0 
0.0 0.0 0.0 
2.764402152766e-05 5.563702937171e-05 0.0 
5.563702937171e-05 2.879683801708e-04 0.0 
0.0 0.0 0.0 
-1.744464435200e-05 5.404390810665e-05 0.0 
5.404390810665e-05 2.266339148855e-04 0.0 
0.0 0.0 0.0 
-7.176307815763e-05 4.791333721204e-05 0.0 
4.791333721204e-05 2.082804140198e-03 0.0 
0.0 0.0 0.0 
7.847564973151e-05 -1.466508611348e-05 0.0 
-1.466508611348e-05 3.854437744621e-04 0.0 
0.0 0.0 0.0 
8.199278233456e-05 -9.810331777739e-06 0.0 
-9.810331777739e-06 4.167400020575e-04 0.0 
0.0 0.0 0.0 
4.688461633399e-05 -3.472665039663e-05 0.0 
-3.472665039663e-05 2.469195247982e-04 0.0 
0.0 0.0 0.0 
6.751252912377e-05 -3.117010101172e-05 0.0 
-3.117010101172e-05 3.004273257902e-04 0.0 
0.0 0.0 0.0 
1.119439720269e-04 7.388908029622e-06 0.0 
7.388908029622e-06 6.334609663826e-04 0.0 
0.0 0.0 0.0 
1.146897323988e-04 6.184889583406e-06 0.0 
6.184889583406e-06 6.066243654422e-04 0.0 
0.0 0.0 0.0 
-5.470003880546e-05 2.830948203606e-04 0.0 
2.830948203606e-04 1.622937299244e-03 0.0 
0.0 0.0 0.0 
-6.789336139088e-05 2.797685900660e-04 0.0 
2.797685900660e-04 1.701471525369e-03 0.0 
0.0 0.0 0.0 
-1.703496557468e-05 2.842351165180e-04 0.0 
2.842351165180e-04 1.451971548971e-03 0.0 
0.0 0.0 0.0 
1.410462751399e-04 1.073652125675e-04 0.0 
1.073652125675e-04 8.675444666019e-04 0.0 
0.0 0.0 0.0 
1.486570515201e-04 9.239548276873e-05 0.0 
9.239548276873e-05 7.949573384362e-04 0.0 
0.0 0.0 0.0 
1.525720449255e-04 9.807566193611e-05 0.0 
9.807566193611e-05 7.788855884363e-04 0.0 
0.0 0.0 0.0 
-6.323886316715e-05 7.513953939301e-05 0.0 
7.513953939301e-05 2.123392644721e-03 0.0 
0.0 0.0 0.0 
-4.579974387873e-05 7.056458054767e-05 0.0 
7.056458054767e-05 2.156000108367e-03 0.0 
0.0 0.0 0.0 
1.211505813801e-04 1.681799843651e-06 0.0 
1.681799843651e-06 4.418691049957e-04 0.0 
0.0 0.0 0.0 
1.186708363377e-04 4.126693283325e-06 0.0 
4.126693283325e-06 4.222216150439e-04 0.0 
0.0 0.0 0.0 
1.106101991711e-04 -1.083326951555e-05 0.0 
-1.083326951555e-05 4.247549413851e-04 0.0 
0.0 0.0 0.0 
-6.717028607872e-05 1.161906474229e-04 0.0 
1.161906474229e-04 2.127908673977e-03 0.0 
0.0 0.0 0.0 
4.547583868408e-05 3.523104993688e-05 0.0 
3.523104993688e-05 1.115267186696e-03 0.0 
0.0 0.0 0.0 
5.309387441850e-05 4.114260562792e-05 0.0 
4.114260562792e-05 1.083206554272e-03 0.0 
0.0 0.0 0.0 
1.645568042904e-06 -2.718273123604e-05 0.0 
-2.718273123604e-05 1.295298753796e-04 0.0 
0.0 0.0 0.0 
1.091985639033e-05 -3.172221973665e-05 0.0 
-3.172221973665e-05 1.596467302057e-04 0.0 
0.0 0.0 0.0 
-1.855997672214e-05 1.336032182375e-04 0.0 
1.336032182375e-04 3.774826296931e-04 0.0 
0.0 0.0 0.0 
-2.276793752413e-05 1.055585474604e-04 0.0 
1.055585474604e-04 3.004634322339e-04 0.0 
0.0 0.0 0.0 
-8.448228936099e-05 1.739865458040e-04 0.0 
1.739865458040e-04 2.074713829565e-03 0.0 
0.0 0.0 0.0 
-1.014623912246e-04 1.819964628290e-04 0.0 
1.819964628290e-04 2.037773727497e-03 0.0 
0.0 0.0 0.0 
-6.463046751916e-05 1.680768901685e-04 0.0 
1.680768901685e-04 2.113148526261e-03 0.0 
0.0 0.0 0.0 
5.462884224594e-05 -7.509860589815e-06 0.0 
-7.509860589815e-06 2.840585718650e-04 0.0 
0.0 0.0 0.0 
7.265933080088e-05 2.604523498457e-04 0.0 
2.604523498457e-04 1.270716316101e-03 0.0 
0.0 0.0 0.0 
7.161154858792e-05 1.692382653557e-04 0.0 
1.692382653557e-04 1.180929755421e-03 0.0 
0.0 0.0 0.0 
8.449780001496e-05 1.766865395714e-04 0.0 
1.766865395714e-04 1.161421336030e-03 0.0 
0.0 0.0 0.0 
5.597337841211e-05 1.635289634732e-04 0.0 
1.635289634732e-04 1.214277609369e-03 0.0 
0.0 0.0 0.0 
6.703302798994e-05 2.694837773312e-04 0.0 
2.694837773312e-04 1.336574627967e-03 0.0 
0.0 0.0 0.0 
5.106467726756e-05 2.834702525319e-04 0.0 
2.834702525319e-04 1.406450582886e-03 0.0 
0.0 0.0 0.0 
3.501525133628e-05 3.022194119892e-04 0.0 
3.022194119892e-04 1.486940247758e-03 0.0 
0.0 0.0 0.0 
-5.669063534134e-05 3.378642504599e-06 0.0 
3.378642504599e-06 1.343468933308e-04 0.0 
0.0 0.0 0.0 
-4.507990566458e-05 1.379033979764e-05 0.0 
1.379033979764e-05 2.126947467232e-03 0.0 
0.0 0.0 0.0 
-1.155217579727e-04 1.172787650763e-05 0.0 
1.172787650763e-05 1.824054647870e-03 0.0 
0.0 0.0 0.0 
-8.201692723444e-05 -7.592194504521e-06 0.0 
-7.592194504521e-06 1.120602248615e-04 0.0 
0.0 0.0 0.0 
-1.113104676854e-04 6.929943257214e-06 0.0 
6.929943257214e-06 1.794566005317e-03 0.0 
0.0 0.0 0.0 
-1.075857514810e-04 8.537970837302e-06 0.0 
8.537970837302e-06 1.829254589529e-03 0.0 
0.0 0.0 0.0 
-1.090784338634e-04 3.339304393621e-06 0.0 
3.339304393621e-06 1.761290606354e-03 0.0 
0.0 0.0 0.0 
4.309678784120e-05 -7.942419229791e-06 0.0 
-7.942419229791e-06 2.294004340736e-04 0.0 
0.0 0.0 0.0 
-1.374980900346e-04 2.247083668135e-05 0.0 
2.247083668135e-05 1.809414652484e-03 0.0 
0.0 0.0 0.0 
-1.464603327914e-04 3.785196371278e-05 0.0 
3.785196371278e-05 1.845298854336e-03 0.0 
0.0 0.0 0.0 
-1.452232405300e-05 -2.493269425000e-05 0.0 
-2.493269425000e-05 9.963471690089e-05 0.0 
0.0 0.0 0.0 
-4.758041458149e-05 1.087527407240e-04 0.0 
1.087527407240e-04 2.156261728606e-03 0.0 
0.0 0.0 0.0 
-4.109700344497e-06 -2.135049470192e-05 0.0 
-2.135049470192e-05 1.004766017832e-04 0.0 
0.0 0.0 0.0 
6.846774027180e-06 -2.088738702304e-05 0.0 
-2.088738702304e-05 1.196154916637e-04 0.0 
0.0 0.0 0.0 
5.915003034736e-05 1.064071475162e-04 0.0 
1.064071475162e-04 1.141109284791e-03 0.0 
0.0 0.0 0.0 
6.844859624022e-05 8.885844923685e-05 0.0 
8.885844923685e-05 1.089155232312e-03 0.0 
0.0 0.0 0.0 
4.644689242983e-05 9.737279065162e-05 0.0 
9.737279065162e-05 1.166830087964e-03 0.0 
0.0 0.0 0.0 
5.607518244651e-05 8.257171748173e-05 0.0 
8.257171748173e-05 1.115285467109e-03 0.0 
0.0 0.0 0.0 
7.642633494801e-05 7.373058081696e-05 0.0 
7.373058081696e-05 1.039379168082e-03 0.0 
0.0 0.0 0.0 
6.578663213171e-05 6.839557731928e-05 0.0 
6.839557731928e-05 1.069957533525e-03 0.0 
0.0 0.0 0.0 
-1.203107325102e-04 9.365343237518e-06 0.0 
9.365343237518e-06 1.789967214175e-03 0.0 
0.0 0.0 0.0 
4.271050767184e-05 7.778165775632e-05 0.0 
7.778165775632e-05 1.157682682008e-03 0.0 
0.0 0.0 0.0 
5.420780718960e-05 6.126611123886e-05 0.0 
6.126611123886e-05 1.102361611610e-03 0.0 
0.0 0.0 0.0 
3.203225737950e-05 6.846747831483e-05 0.0 
6.846747831483e-05 1.190304538845e-03 0.0 
0.0 0.0 0.0 
-1.626998668894e-04 2.123739685000e-04 0.0 
2.123739685000e-04 1.470875987875e-03 0.0 
0.0 0.0 0.0 
6.512810769762e-06 2.285757005995e-04 0.0 
2.285757005995e-04 7.987944720924e-04 0.0 
0.0 0.0 0.0 
-3.246023536707e-05 2.344878313306e-04 0.0 
2.344878313306e-04 8.491570786440e-04 0.0 
0.0 0.0 0.0 
-7.559340348738e-05 2.282132806753e-04 0.0 
2.282132806753e-04 8.093457820770e-04 0.0 
0.0 0.0 0.0 
-2.389555948171e-05 3.200733051870e-04 0.0 
3.200733051870e-04 1.785923621101e-03 0.0 
0.0 0.0 0.0 
-4.288867426433e-05 3.026113891785e-04 0.0 
3.026113891785e-04 1.798686442976e-03 0.0 
0.0 0.0 0.0 
7.536373219478e-05 1.347777598158e-05 0.0 
1.347777598158e-05 9.570530715231e-04 0.0 
0.0 0.0 0.0 
8.632699254770e-05 1.120780699637e-05 0.0 
1.120780699637e-05 8.841496879898e-04 0.0 
0.0 0.0 0.0 
-1.062570899762e-04 4.631020233891e-06 0.0 
4.631020233891e-06 1.795885470031e-03 0.0 
0.0 0.0 0.0 
-1.035669115087e-04 2.700363629577e-06 0.0 
2.700363629577e-06 1.791448522243e-03 0.0 
0.0 0.0 0.0 
-1.013421148299e-04 7.107949524714e-06 0.0 
7.107949524714e-06 1.847518727003e-03 0.0 
0.0 0.0 0.0 
-9.948453398765e-05 4.080253425169e-06 0.0 
4.080253425169e-06 1.839251719238e-03 0.0 
0.0 0.0 0.0 
-9.564000175137e-05 8.489993914851e-06 0.0 
8.489993914851e-06 1.894406605246e-03 0.0 
0.0 0.0 0.0 
-9.411004794413e-05 4.528034434145e-06 0.0 
4.528034434145e-06 1.885064969500e-03 0.0 
0.0 0.0 0.0 
-8.855564827877e-05 8.015154074158e-06 0.0 
8.015154074158e-06 1.940088565397e-03 0.0 
0.0 0.0 0.0 
2.070965037767e-05 3.219397634841e-04 0.0 
3.219397634841e-04 1.572586968047e-03 0.0 
0.0 0.0 0.0 
-6.404815035419e-05 2.003954265710e-04 0.0 
2.003954265710e-04 5.940023505789e-04 0.0 
0.0 0.0 0.0 
-1.873938164643e-04 1.544120682272e-04 0.0 
1.544120682272e-04 1.612139939948e-03 0.0 
0.0 0.0 0.0 
6.014381662989e-05 2.545791466093e-04 0.0 
2.545791466093e-04 1.334817575748e-03 0.0 
0.0 0.0 0.0 
7.615589689969e-05 2.308833969036e-04 0.0 
2.308833969036e-04 1.259469645726e-03 0.0 
0.0 0.0 0.0 
-1.031963704304e-04 2.618185111402e-04 0.0 
2.618185111402e-04 1.293000206465e-03 0.0 
0.0 0.0 0.0 
-1.182370482274e-04 2.488186503127e-04 0.0 
2.488186503127e-04 1.258135345989e-03 0.0 
0.0 0.0 0.0 
5.453352689596e-05 1.332129309684e-04 0.0 
1.332129309684e-04 1.181139326161e-03 0.0 
0.0 0.0 0.0 
9.220439155270e-05 1.823095411106e-04 0.0 
1.823095411106e-04 7.016269571800e-04 0.0 
0.0 0.0 0.0 
-3.411370452254e-05 1.305514056538e-04 0.0 
1.305514056538e-04 2.171741689183e-03 0.0 
0.0 0.0 0.0 
-1.080672439150e-04 4.791382687234e-05 0.0 
4.791382687234e-05 1.002659510891e-04 0.0 
0.0 0.0 0.0 
-6.744020995916e-05 4.440215776996e-05 0.0 
4.440215776996e-05 1.520474484011e-04 0.0 
0.0 0.0 0.0 
8.217330858851e-05 2.073267534175e-04 0.0 
2.073267534175e-04 7.907061250616e-04 0.0 
0.0 0.0 0.0 
-9.598619464389e-05 2.691807104265e-04 0.0 
2.691807104265e-04 1.337709360953e-03 0.0 
0.0 0.0 0.0 
-4.620888577704e-06 2.455403263036e-04 0.0 
2.455403263036e-04 9.020679041428e-04 0.0 
0.0 0.0 0.0 
-4.107792052295e-05 2.510236773159e-04 0.0 
2.510236773159e-04 9.606936032005e-04 0.0 
0.0 0.0 0.0 
1.297054624342e-04 1.228028168526e-04 0.0 
1.228028168526e-04 9.432486632937e-04 0.0 
0.0 0.0 0.0 
-7.679644932757e-07 -3.250060155185e-05 0.0 
-3.250060155185e-05 1.413136237260e-04 0.0 
0.0 0.0 0.0 
-1.606662802950e-05 1.592013559346e-04 0.0 
1.592013559346e-04 4.613586960355e-04 0.0 
0.0 0.0 0.0 
-9.041016129241e-05 1.400801623638e-05 0.0 
1.400801623638e-05 1.947591868208e-03 0.0 
0.0 0.0 0.0 
-6.126086105960e-05 1.626715546293e-04 0.0 
1.626715546293e-04 4.051606743059e-04 0.0 
0.0 0.0 0.0 
8.034048480732e-05 6.250949212666e-06 0.0 
6.250949212666e-06 9.215040728382e-04 0.0 
0.0 0.0 0.0 
1.112633494189e-04 1.655301435013e-04 0.0 
1.655301435013e-04 6.871925104405e-04 0.0 
0.0 0.0 0.0 
-2.867912802978e-05 2.790633806088e-04 0.0 
2.790633806088e-04 1.227819995611e-03 0.0 
0.0 0.0 0.0 
2.272915017039e-05 1.612321893293e-04 0.0 
1.612321893293e-04 5.177317404941e-04 0.0 
0.0 0.0 0.0 
4.037413939291e-05 2.153120799232e-04 0.0 
2.153120799232e-04 7.604974348372e-04 0.0 
0.0 0.0 0.0 
-1.634023620643e-04 2.033987141494e-04 0.0 
2.033987141494e-04 1.710287945222e-03 0.0 
0.0 0.0 0.0 
-1.874618883361e-04 1.351724229837e-04 0.0 
1.351724229837e-04 1.747686762275e-03 0.0 
0.0 0.0 0.0 
-1.872479873005e-04 1.532182517597e-04 0.0 
1.532182517597e-04 1.698367401897e-03 0.0 
0.0 0.0 0.0 
1.262929151308e-04 1.492041468141e-04 0.0 
1.492041468141e-04 6.782555187056e-04 0.0 
0.0 0.0 0.0 
-5.717256315291e-05 2.607285699705e-04 0.0 
2.607285699705e-04 1.070983266254e-03 0.0 
0.0 0.0 0.0 
-8.664800878233e-05 2.440098179161e-04 0.0 
2.440098179161e-04 1.027029601484e-03 0.0 
0.0 0.0 0.0 
-1.077377384662e-04 2.627543915017e-04 0.0 
2.627543915017e-04 1.520589293118e-03 0.0 
0.0 0.0 0.0 
-1.257604306061e-04 1.630590178610e-04 0.0 
1.630590178610e-04 1.998569536342e-03 0.0 
0.0 0.0 0.0 
-1.149598117283e-04 1.886204432934e-04 0.0 
1.886204432934e-04 1.995776162443e-03 0.0 
0.0 0.0 0.0 
-8.877375510595e-05 2.063123634847e-04 0.0 
2.063123634847e-04 2.031355009522e-03 0.0 
0.0 0.0 0.0 
-1.018549666665e-04 2.137686874137e-04 0.0 
2.137686874137e-04 1.987521004079e-03 0.0 
0.0 0.0 0.0 
-1.258114606659e-04 1.962188897957e-04 0.0 
1.962188897957e-04 1.950038363204e-03 0.0 
0.0 0.0 0.0 
-1.111182641572e-04 2.211658086320e-04 0.0 
2.211658086320e-04 1.938417185173e-03 0.0 
0.0 0.0 0.0 
-8.498628598408e-05 2.380180423421e-04 0.0 
2.380180423421e-04 1.976129576998e-03 0.0 
0.0 0.0 0.0 
-9.317441546906e-05 2.457073674697e-04 0.0 
2.457073674697e-04 1.923091402189e-03 0.0 
0.0 0.0 0.0 
-6.356211748198e-05 2.656470005902e-04 0.0 
2.656470005902e-04 1.968657995080e-03 0.0 
0.0 0.0 0.0 
-7.433403623217e-05 2.681642951172e-04 0.0 
2.681642951172e-04 1.901994666311e-03 0.0 
0.0 0.0 0.0 
-9.665715723682e-05 2.522888144107e-04 0.0 
2.522888144107e-04 1.862264239225e-03 0.0 
0.0 0.0 0.0 
-7.760620766597e-05 2.715666575173e-04 0.0 
2.715666575173e-04 1.839078940256e-03 0.0 
0.0 0.0 0.0 
-5.853810704633e-05 2.877765144597e-04 0.0 
2.877765144597e-04 1.875466937538e-03 0.0 
0.0 0.0 0.0 
-9.646181933920e-05 2.589881435422e-04 0.0 
2.589881435422e-04 1.797825618090e-03 0.0 
0.0 0.0 0.0 
4.202291391101e-05 2.774399061176e-04 0.0 
2.774399061176e-04 1.408125672894e-03 0.0 
0.0 0.0 0.0 
8.991953181873e-05 2.150961709034e-04 0.0 
2.150961709034e-04 8.589843582442e-04 0.0 
0.0 0.0 0.0 
-3.464212441153e-05 2.457392731852e-05 0.0 
2.457392731852e-05 1.755134956820e-04 0.0 
0.0 0.0 0.0 
-5.175053200424e-05 7.410356224955e-05 0.0 
7.410356224955e-05 2.034645009841e-04 0.0 
0.0 0.0 0.0 
-5.625628857029e-05 2.797602536833e-04 0.0 
2.797602536833e-04 1.330369008127e-03 0.0 
0.0 0.0 0.0 
-3.364143629142e-05 2.762758235750e-04 0.0 
2.762758235750e-04 2.025803820352e-03 0.0 
0.0 0.0 0.0 
-3.719322108305e-05 2.317754064497e-04 0.0 
2.317754064497e-04 2.092761284734e-03 0.0 
0.0 0.0 0.0 
9.982375948725e-05 1.279218623769e-04 0.0 
1.279218623769e-04 5.437679084241e-04 0.0 
0.0 0.0 0.0 
-9.676613420310e-06 3.441518147453e-04 0.0 
3.441518147453e-04 1.813057146955e-03 0.0 
0.0 0.0 0.0 
-1.747577452912e-04 1.907468900908e-04 0.0 
1.907468900908e-04 1.675582959791e-03 0.0 
0.0 0.0 0.0 
6.144039559552e-05 6.292318206491e-05 0.0 
6.292318206491e-05 3.478878284298e-04 0.0 
0.0 0.0 0.0 
2.071572661355e-06 3.478965414729e-04 0.0 
3.478965414729e-04 1.714765844512e-03 0.0 
0.0 0.0 0.0 
-1.375844257853e-04 1.703325553649e-04 0.0 
1.703325553649e-04 1.956637545939e-03 0.0 
0.0 0.0 0.0 
-1.465640616790e-04 1.782746703507e-04 0.0 
1.782746703507e-04 1.910844620676e-03 0.0 
0.0 0.0 0.0 
-1.558877936761e-04 1.514185770002e-04 0.0 
1.514185770002e-04 1.915822271391e-03 0.0 
0.0 0.0 0.0 
-3.411169008068e-05 1.918304106475e-04 0.0 
1.918304106475e-04 2.136784116357e-03 0.0 
0.0 0.0 0.0 
-1.442675903134e-04 5.430346684762e-05 0.0 
5.430346684762e-05 1.903114864466e-03 0.0 
0.0 0.0 0.0 
1.865476356507e-05 3.196406060328e-04 0.0 
3.196406060328e-04 1.538336278467e-03 0.0 
0.0 0.0 0.0 
1.339313882105e-04 1.824403783863e-04 0.0 
1.824403783863e-04 9.593405197373e-04 0.0 
0.0 0.0 0.0 
1.284751161468e-04 1.929148669703e-04 0.0 
1.929148669703e-04 9.611860968662e-04 0.0 
0.0 0.0 0.0 
1.329216291844e-04 1.818967434280e-04 0.0 
1.818967434280e-04 8.889667219849e-04 0.0 
0.0 0.0 0.0 
-1.162822218041e-04 2.289864256511e-04 0.0 
2.289864256511e-04 1.883249103017e-03 0.0 
0.0 0.0 0.0 
2.949831643025e-05 2.554348940584e-04 0.0 
2.554348940584e-04 1.389540153037e-03 0.0 
0.0 0.0 0.0 
5.503759789697e-05 2.301437649452e-04 0.0 
2.301437649452e-04 1.304317438965e-03 0.0 
0.0 0.0 0.0 
5.531994470724e-05 2.139079802819e-04 0.0 
2.139079802819e-04 1.279328970265e-03 0.0 
0.0 0.0 0.0 
7.806990867129e-05 2.060927412720e-04 0.0 
2.060927412720e-04 1.216423892513e-03 0.0 
0.0 0.0 0.0 
3.023676812530e-05 2.195664568752e-04 0.0 
2.195664568752e-04 1.338257653749e-03 0.0 
0.0 0.0 0.0 
-2.425224213202e-05 3.126380559496e-04 0.0 
3.126380559496e-04 1.953132654874e-03 0.0 
0.0 0.0 0.0 
-1.887324844776e-05 3.271155252345e-04 0.0 
3.271155252345e-04 1.911041340117e-03 0.0 
0.0 0.0 0.0 
1.005211118553e-04 -7.560515643980e-06 0.0 
-7.560515643980e-06 3.632224870162e-04 0.0 
0.0 0.0 0.0 
1.147444922371e-04 8.196405111770e-06 0.0 
8.196405111770e-06 4.039290162276e-04 0.0 
0.0 0.0 0.0 
1.304274194249e-04 2.105206136126e-05 0.0 
2.105206136126e-05 4.647683149900e-04 0.0 
0.0 0.0 0.0 
1.269114680624e-04 2.683828731536e-05 0.0 
2.683828731536e-05 4.484834555093e-04 0.0 
0.0 0.0 0.0 
1.090182091047e-04 1.401799591501e-05 0.0 
1.401799591501e-05 3.871312740745e-04 0.0 
0.0 0.0 0.0 
1.214004092629e-04 3.445682015144e-05 0.0 
3.445682015144e-05 4.338819467291e-04 0.0 
0.0 0.0 0.0 
1.364371851765e-04 4.784177305115e-05 0.0 
4.784177305115e-05 4.970545337332e-04 0.0 
0.0 0.0 0.0 
1.136914234500e-04 4.433413304158e-05 0.0 
4.433413304158e-05 4.215971880451e-04 0.0 
0.0 0.0 0.0 
-5.593090539833e-05 2.893007584001e-04 0.0 
2.893007584001e-04 1.750496880092e-03 0.0 
0.0 0.0 0.0 
2.845486530908e-05 1.847684251881e-04 0.0 
1.847684251881e-04 1.300687602474e-03 0.0 
0.0 0.0 0.0 
1.374020155454e-04 6.670563778965e-05 0.0 
6.670563778965e-05 7.879315173412e-04 0.0 
0.0 0.0 0.0 
1.435823707691e-04 6.965166196648e-05 0.0 
6.965166196648e-05 7.648507559661e-04 0.0 
0.0 0.0 0.0 
1.464683790413e-04 5.530199721281e-05 0.0 
5.530199721281e-05 6.956484130571e-04 0.0 
0.0 0.0 0.0 
1.103922643847e-04 -1.969029750908e-06 0.0 
-1.969029750908e-06 5.443027956876e-04 0.0 
0.0 0.0 0.0 
1.171981253039e-04 4.675744748600e-06 0.0 
4.675744748600e-06 5.802053541955e-04 0.0 
0.0 0.0 0.0 
1.198049107977e-04 1.402606488278e-05 0.0 
1.402606488278e-05 6.438737161385e-04 0.0 
0.0 0.0 0.0 
1.031810397425e-04 -6.739317694800e-06 0.0 
-6.739317694800e-06 5.095539762374e-04 0.0 
0.0 0.0 0.0 
4.654849219417e-05 2.715497505635e-04 0.0 
2.715497505635e-04 1.304675333364e-03 0.0 
0.0 0.0 0.0 
2.764435250872e-05 1.674705245057e-04 0.0 
1.674705245057e-04 1.283601680442e-03 0.0 
0.0 0.0 0.0 
1.500148001898e-04 1.196677500549e-04 0.0 
1.196677500549e-04 8.370216618802e-04 0.0 
0.0 0.0 0.0 
1.193362093765e-04 3.060850667010e-06 0.0 
3.060850667010e-06 5.542575847092e-04 0.0 
0.0 0.0 0.0 
-1.523672634500e-04 2.590990710838e-05 0.0 
2.590990710838e-05 1.748732847703e-03 0.0 
0.0 0.0 0.0 
-1.627463979554e-04 4.832032672277e-05 0.0 
4.832032672277e-05 1.799858874383e-03 0.0 
0.0 0.0 0.0 
-1.739982263197e-04 6.386776860876e-05 0.0 
6.386776860876e-05 1.796462733880e-03 0.0 
0.0 0.0 0.0 
-1.686122538216e-04 7.541433800329e-05 0.0 
7.541433800329e-05 1.849713101749e-03 0.0 
0.0 0.0 0.0 
-1.536251199155e-04 3.683516636782e-05 0.0 
3.683516636782e-05 1.807590435240e-03 0.0 
0.0 0.0 0.0 
1.089449656791e-04 8.175380979451e-06 0.0 
8.175380979451e-06 6.608752486047e-04 0.0 
0.0 0.0 0.0 
1.059462197123e-04 8.412565429234e-06 0.0 
8.412565429234e-06 6.886986526827e-04 0.0 
0.0 0.0 0.0 
1.039445586960e-04 4.157145823299e-06 0.0 
4.157145823299e-06 6.528375242945e-04 0.0 
0.0 0.0 0.0 
1.029858168827e-04 7.861935208217e-06 0.0 
7.861935208217e-06 7.168485808584e-04 0.0 
0.0 0.0 0.0 
1.023663089747e-04 3.619932357515e-06 0.0 
3.619932357515e-06 6.792177117263e-04 0.0 
0.0 0.0 0.0 
1.021043388268e-04 1.006340579582e-06 0.0 
1.006340579582e-06 6.206395652282e-04 0.0 
0.0 0.0 0.0 
1.002099820601e-04 6.176063375989e-06 0.0 
6.176063375989e-06 7.440715091992e-04 0.0 
0.0 0.0 0.0 
1.005327287078e-04 2.944830644280e-06 0.0 
2.944830644280e-06 7.020693789244e-04 0.0 
0.0 0.0 0.0 
-1.360262395942e-04 1.212995170758e-05 0.0 
1.212995170758e-05 1.747361227182e-03 0.0 
0.0 0.0 0.0 
-9.607938847017e-05 -1.661235407761e-05 0.0 
-1.661235407761e-05 8.101023087100e-05 0.0 
0.0 0.0 0.0 
-5.225772685006e-05 -2.651564934947e-05 0.0 
-2.651564934947e-05 1.122363781343e-04 0.0 
0.0 0.0 0.0 
-4.708890164869e-05 -2.835135346236e-05 0.0 
-2.835135346236e-05 1.072182281706e-04 0.0 
0.0 0.0 0.0 
-1.767842640310e-05 -3.308762441521e-05 0.0 
-3.308762441521e-05 1.486730843010e-04 0.0 
0.0 0.0 0.0 
-1.721715852648e-05 -2.702757653554e-05 0.0 
-2.702757653554e-05 1.545270430739e-04 0.0 
0.0 0.0 0.0 
1.729972335366e-05 -2.993401177986e-05 0.0 
-2.993401177986e-05 1.973708951304e-04 0.0 
0.0 0.0 0.0 
1.193975969904e-05 -2.435959898995e-05 0.0 
-2.435959898995e-05 1.947596779678e-04 0.0 
0.0 0.0 0.0 
-5.712147551928e-05 -2.348669125572e-05 0.0 
-2.348669125572e-05 1.159076087418e-04 0.0 
0.0 0.0 0.0 
-7.431682349905e-05 -1.747148454334e-05 0.0 
-1.747148454334e-05 7.053004005216e-05 0.0 
0.0 0.0 0.0 
-3.910175244779e-05 -2.799159963007e-05 0.0 
-2.799159963007e-05 1.032233777817e-04 0.0 
0.0 0.0 0.0 
-6.240213880065e-05 -1.667155761503e-05 0.0 
-1.667155761503e-05 6.485189742237e-05 0.0 
0.0 0.0 0.0 
-3.209256986862e-05 -2.777789555916e-05 0.0 
-2.777789555916e-05 9.813144314878e-05 0.0 
0.0 0.0 0.0 
-5.473120412832e-06 -3.442945865118e-05 0.0 
-3.442945865118e-05 1.482230303170e-04 0.0 
0.0 0.0 0.0 
3.359346085278e-05 -3.360057383416e-05 0.0 
-3.360057383416e-05 2.135717140328e-04 0.0 
0.0 0.0 0.0 
2.187704633773e-05 3.906444115847e-05 0.0 
3.906444115847e-05 1.199755854525e-03 0.0 
0.0 0.0 0.0 
9.379560262239e-05 -1.164515376533e-06 0.0 
-1.164515376533e-06 5.266711488219e-04 0.0 
0.0 0.0 0.0 
9.111240545271e-05 -2.972074513091e-06 0.0 
-2.972074513091e-06 4.977333373512e-04 0.0 
0.0 0.0 0.0 
8.434227143746e-05 -4.625085834421e-06 0.0 
-4.625085834421e-06 4.409264819166e-04 0.0 
0.0 0.0 0.0 
8.894136459757e-05 -6.325792383393e-06 0.0 
-6.325792383393e-06 4.713913500218e-04 0.0 
0.0 0.0 0.0 
9.647059042317e-05 -1.136197945389e-06 0.0 
-1.136197945389e-06 5.508563602427e-04 0.0 
0.0 0.0 0.0 
7.895643689537e-05 -2.683234222385e-06 0.0 
-2.683234222385e-06 4.101728326390e-04 0.0 
0.0 0.0 0.0 
7.563547436973e-05 -5.726516333256e-06 0.0 
-5.726516333256e-06 3.893756249853e-04 0.0 
0.0 0.0 0.0 
6.168211429939e-06 -3.680946766489e-06 0.0 
-3.680946766489e-06 3.560817464210e-05 0.0 
0.0 0.0 0.0 
1.449327587263e-05 -6.153858356532e-06 0.0 
-6.153858356532e-06 7.944559881131e-05 0.0 
0.0 0.0 0.0 
1.353785931227e-05 -3.130707559380e-06 0.0 
-3.130707559380e-06 7.454673395868e-05 0.0 
0.0 0.0 0.0 
2.281509145744e-05 -5.342357093190e-06 0.0 
-5.342357093190e-06 1.285532032954e-04 0.0 
0.0 0.0 0.0 
2.188006134192e-05 -9.336008400707e-06 0.0 
-9.336008400707e-06 1.278093483410e-04 0.0 
0.0 0.0 0.0 
1.257287714370e-05 -8.365108409319e-06 0.0 
-8.365108409319e-06 8.077906253974e-05 0.0 
0.0 0.0 0.0 
9.656597025010e-06 -1.072010056939e-05 0.0 
-1.072010056939e-05 8.223134562668e-05 0.0 
0.0 0.0 0.0 
-1.596282148260e-06 -7.161888894423e-06 0.0 
-7.161888894423e-06 3.887439444498e-05 0.0 
0.0 0.0 0.0 
6.598369818681e-06 -1.343950078660e-05 0.0 
-1.343950078660e-05 8.353857973231e-05 0.0 
0.0 0.0 0.0 
1.889569560583e-05 -1.543248728651e-05 0.0 
-1.543248728651e-05 1.318109266409e-04 0.0 
0.0 0.0 0.0 
-6.787793538669e-06 -8.616988280319e-06 0.0 
-8.616988280319e-06 3.970021562842e-05 0.0 
0.0 0.0 0.0 
-7.358715802678e-05 4.394177638144e-06 0.0 
4.394177638144e-06 2.014178839616e-03 0.0 
0.0 0.0 0.0 
-6.754088814320e-05 1.070464688239e-05 0.0 
1.070464688239e-05 2.044496784788e-03 0.0 
0.0 0.0 0.0 
2.733637618598e-05 1.349535042413e-04 0.0 
1.349535042413e-04 1.252972140592e-03 0.0 
0.0 0.0 0.0 
-1.232327036818e-04 6.348829378271e-06 0.0 
6.348829378271e-06 1.751675764123e-03 0.0 
0.0 0.0 0.0 
-4.062800999880e-05 -1.412182724805e-05 0.0 
-1.412182724805e-05 5.611287804275e-05 0.0 
0.0 0.0 0.0 
-2.326141194038e-05 4.506994090886e-05 0.0 
4.506994090886e-05 2.195730301208e-03 0.0 
0.0 0.0 0.0 
-2.475481303895e-05 8.390351419007e-05 0.0 
8.390351419007e-05 2.195413381986e-03 0.0 
0.0 0.0 0.0 
-2.171614417899e-05 7.120701430320e-05 0.0 
7.120701430320e-05 2.199816123682e-03 0.0 
0.0 0.0 0.0 
5.162980619329e-05 8.437075952380e-06 0.0 
8.437075952380e-06 1.073109913029e-03 0.0 
0.0 0.0 0.0 
4.375849172422e-05 1.701694720076e-05 0.0 
1.701694720076e-05 1.111854468301e-03 0.0 
0.0 0.0 0.0 
-2.033758712294e-05 2.533526442975e-05 0.0 
2.533526442975e-05 2.199115416480e-03 0.0 
0.0 0.0 0.0 
7.695195384609e-05 -2.561230340484e-05 0.0 
-2.561230340484e-05 3.433678573263e-04 0.0 
0.0 0.0 0.0 
-7.585871154433e-05 2.323630321065e-04 0.0 
2.323630321065e-04 2.022338398615e-03 0.0 
0.0 0.0 0.0 
-5.878052646378e-05 4.411622644788e-05 0.0 
4.411622644788e-05 2.110799394251e-03 0.0 
0.0 0.0 0.0 
4.106306767978e-05 8.299787058983e-05 0.0 
8.299787058983e-05 3.505176809517e-04 0.0 
0.0 0.0 0.0 
8.128518025556e-05 -2.715271964091e-05 0.0 
-2.715271964091e-05 3.340366235047e-04 0.0 
0.0 0.0 0.0 
9.229016946203e-05 1.518824939120e-05 0.0 
1.518824939120e-05 8.519023051028e-04 0.0 
0.0 0.0 0.0 
1.152202771148e-04 3.306058709670e-05 0.0 
3.306058709670e-05 7.768230873141e-04 0.0 
0.0 0.0 0.0 
7.087974138413e-05 3.698712006285e-05 0.0 
3.698712006285e-05 1.007757803506e-03 0.0 
0.0 0.0 0.0 
1.031131174218e-04 2.055314655602e-05 0.0 
2.055314655602e-05 7.926765062481e-04 0.0 
0.0 0.0 0.0 
8.838520419352e-05 4.725508051303e-05 0.0 
4.725508051303e-05 9.481194167872e-04 0.0 
0.0 0.0 0.0 
5.781544862603e-05 1.950346639890e-04 0.0 
1.950346639890e-04 1.248077600768e-03 0.0 
0.0 0.0 0.0 
3.890352782573e-05 -1.221479819595e-05 0.0 
-1.221479819595e-05 2.111828497750e-04 0.0 
0.0 0.0 0.0 
-1.161802871738e-04 2.985111668594e-05 0.0 
2.985111668594e-05 1.915141462475e-03 0.0 
0.0 0.0 0.0 
-1.038487957119e-04 1.501494832173e-05 0.0 
1.501494832173e-05 1.890679710207e-03 0.0 
0.0 0.0 0.0 
-8.637202152260e-05 3.921999500754e-05 0.0 
3.921999500754e-05 2.030686451653e-03 0.0 
0.0 0.0 0.0 
7.477569454103e-05 -1.868765250736e-05 0.0 
-1.868765250736e-05 3.601573258853e-04 0.0 
0.0 0.0 0.0 
1.024440633337e-04 -8.851878338469e-08 0.0 
-8.851878338469e-08 5.920728649180e-04 0.0 
0.0 0.0 0.0 
4.027003900349e-05 -2.635753637848e-05 0.0 
-2.635753637848e-05 2.259376076063e-04 0.0 
0.0 0.0 0.0 
-8.921271765587e-07 3.300234721385e-04 0.0 
3.300234721385e-04 1.688396886420e-03 0.0 
0.0 0.0 0.0 
-1.159611888005e-04 2.603248354594e-04 0.0 
2.603248354594e-04 1.479381721977e-03 0.0 
0.0 0.0 0.0 
1.422878174654e-04 3.890813129956e-05 0.0 
3.890813129956e-05 6.503608099088e-04 0.0 
0.0 0.0 0.0 
1.031970443038e-04 -9.610018098729e-06 0.0 
-9.610018098729e-06 4.836323571494e-04 0.0 
0.0 0.0 0.0 
8.839280963639e-05 -2.281423315280e-05 0.0 
-2.281423315280e-05 3.763888182150e-04 0.0 
0.0 0.0 0.0 
7.587936897128e-05 -2.834855393323e-05 0.0 
-2.834855393323e-05 3.127628992295e-04 0.0 
0.0 0.0 0.0 
7.298548365009e-05 2.368285693903e-04 0.0 
2.368285693903e-04 9.526769174691e-04 0.0 
0.0 0.0 0.0 
1.265802889943e-04 1.246244891389e-05 0.0 
1.246244891389e-05 5.918727342948e-04 0.0 
0.0 0.0 0.0 
1.118201013484e-04 7.321920987808e-05 0.0 
7.321920987808e-05 9.099832744927e-04 0.0 
0.0 0.0 0.0 
-7.478003175794e-05 3.684131397455e-05 0.0 
3.684131397455e-05 2.059497963122e-03 0.0 
0.0 0.0 0.0 
-2.286241382502e-05 -1.239277524744e-05 0.0 
-1.239277524744e-05 5.345247039476e-05 0.0 
0.0 0.0 0.0 
1.076809706442e-04 8.965931575434e-05 0.0 
8.965931575434e-05 9.588044284618e-04 0.0 
0.0 0.0 0.0 
1.275011451137e-04 3.530390574382e-05 0.0 
3.530390574382e-05 7.233098905686e-04 0.0 
0.0 0.0 0.0 
-1.338391113680e-04 5.473095255494e-05 0.0 
5.473095255494e-05 1.935389632517e-03 0.0 
0.0 0.0 0.0 
1.122959228031e-04 2.006686343490e-04 0.0 
2.006686343490e-04 1.109964675489e-03 0.0 
0.0 0.0 0.0 
3.270002024539e-05 -3.289196433911e-05 0.0 
-3.289196433911e-05 2.202404840027e-04 0.0 
0.0 0.0 0.0 
-9.686962799116e-05 6.727624511037e-05 0.0 
6.727624511037e-05 2.047811870461e-03 0.0 
0.0 0.0 0.0 
-7.763859704585e-05 1.422566513031e-04 0.0 
1.422566513031e-04 2.104708516529e-03 0.0 
0.0 0.0 0.0 
-1.534104154473e-04 5.429918930024e-05 0.0 
5.429918930024e-05 1.870431191687e-03 0.0 
0.0 0.0 0.0 
2.373330849637e-05 -2.485482992335e-05 0.0 
-2.485482992335e-05 1.717584475791e-04 0.0 
0.0 0.0 0.0 
-1.200775872946e-04 1.897853146703e-05 0.0 
1.897853146703e-05 1.854948370587e-03 0.0 
0.0 0.0 0.0 
6.980489896861e-05 1.395123273935e-04 0.0 
1.395123273935e-04 1.145548557425e-03 0.0 
0.0 0.0 0.0 
-1.331938045280e-04 1.379515987743e-04 0.0 
1.379515987743e-04 1.996037257932e-03 0.0 
0.0 0.0 0.0 
6.643127152943e-05 -1.765627711796e-05 0.0 
-1.765627711796e-05 3.284251252048e-04 0.0 
0.0 0.0 0.0 
1.550831825064e-04 1.129944008658e-04 0.0 
1.129944008658e-04 7.551599342119e-04 0.0 
0.0 0.0 0.0 
1.723254290801e-06 2.752189377046e-04 0.0 
2.752189377046e-04 1.183199893700e-03 0.0 
0.0 0.0 0.0 
-1.842048755823e-04 8.554914464120e-05 0.0 
8.554914464120e-05 1.670308115014e-03 0.0 
0.0 0.0 0.0 
-5.387318842150e-05 5.568458346274e-05 0.0 
5.568458346274e-05 2.131037863430e-03 0.0 
0.0 0.0 0.0 
1.082512371453e-04 2.164182850311e-04 0.0 
2.164182850311e-04 9.782277553887e-04 0.0 
0.0 0.0 0.0 
1.023465972943e-04 1.878025266498e-04 0.0 
1.878025266498e-04 1.127820092126e-03 0.0 
0.0 0.0 0.0 
1.447047191170e-04 1.417864374066e-04 0.0 
1.417864374066e-04 8.991681404174e-04 0.0 
0.0 0.0 0.0 
7.055013343175e-05 -1.331172026609e-05 0.0 
-1.331172026609e-05 3.536890253854e-04 0.0 
0.0 0.0 0.0 
8.674123036956e-05 7.921708028607e-05 0.0 
7.921708028607e-05 1.012387096745e-03 0.0 
0.0 0.0 0.0 
1.427496576666e-04 1.580825151757e-04 0.0 
1.580825151757e-04 8.142123802916e-04 0.0 
0.0 0.0 0.0 
-7.924665091358e-05 7.998033813783e-05 0.0 
7.998033813783e-05 2.096467541050e-03 0.0 
0.0 0.0 0.0 
-1.428320990648e-05 2.885863086959e-04 0.0 
2.885863086959e-04 1.508632313832e-03 0.0 
0.0 0.0 0.0 
1.464066952053e-04 9.525731104306e-05 0.0 
9.525731104306e-05 6.091828541732e-04 0.0 
0.0 0.0 0.0 
-1.073263063109e-04 1.060746405533e-04 0.0 
1.060746405533e-04 2.053701820201e-03 0.0 
0.0 0.0 0.0 
1.501418684948e-04 5.856589405932e-05 0.0 
5.856589405932e-05 6.750551742324e-04 0.0 
0.0 0.0 0.0 
9.836048688383e-05 2.229275621393e-04 0.0 
2.229275621393e-04 1.183328067214e-03 0.0 
0.0 0.0 0.0 
-8.957292956393e-05 2.725262727091e-04 0.0 
2.725262727091e-04 1.383102987941e-03 0.0 
0.0 0.0 0.0 
-1.956460547712e-05 2.819876042577e-04 0.0 
2.819876042577e-04 1.395488911377e-03 0.0 
0.0 0.0 0.0 
-1.041253254245e-04 2.582289548881e-04 0.0 
2.582289548881e-04 1.686684276308e-03 0.0 
0.0 0.0 0.0 
5.196062177567e-05 2.619108071978e-04 0.0 
2.619108071978e-04 1.176448194359e-03 0.0 
0.0 0.0 0.0 
9.475064354906e-05 9.085291237888e-06 0.0 
9.085291237888e-06 8.130598046692e-04 0.0 
0.0 0.0 0.0 
9.728828800570e-05 8.488696134462e-05 0.0 
8.488696134462e-05 9.850945094493e-04 0.0 
0.0 0.0 0.0 
4.535003290692e-05 1.774702347627e-06 0.0 
1.774702347627e-06 2.544622308318e-04 0.0 
0.0 0.0 0.0 
5.778116241913e-05 2.234414996772e-04 0.0 
2.234414996772e-04 8.227966418832e-04 0.0 
0.0 0.0 0.0 
-1.482510109451e-04 7.299962783295e-05 0.0 
7.299962783295e-05 1.924642300365e-03 0.0 
0.0 0.0 0.0 
2.009667009580e-05 3.004100279413e-04 0.0 
3.004100279413e-04 1.515258779299e-03 0.0 
0.0 0.0 0.0 
-5.761064538601e-05 9.148196322664e-05 0.0 
9.148196322664e-05 2.141892824347e-03 0.0 
0.0 0.0 0.0 
-1.881985874734e-06 2.728723439098e-04 0.0 
2.728723439098e-04 1.124439603640e-03 0.0 
0.0 0.0 0.0 
9.281391804535e-05 6.458562441036e-05 0.0 
6.458562441036e-05 9.643328396457e-04 0.0 
0.0 0.0 0.0 
-8.515651868154e-05 1.216049721605e-04 0.0 
1.216049721605e-04 2.096557240943e-03 0.0 
0.0 0.0 0.0 
1.234005542177e-04 1.325790766586e-05 0.0 
1.325790766586e-05 6.174665362872e-04 0.0 
0.0 0.0 0.0 
4.674885081986e-05 -3.981299571215e-06 0.0 
-3.981299571215e-06 2.433556956016e-04 0.0 
0.0 0.0 0.0 
4.400732730336e-06 8.076932526355e-05 0.0 
8.076932526355e-05 2.944665106170e-04 0.0 
0.0 0.0 0.0 
1.226280771085e-04 6.907996284489e-05 0.0 
6.907996284489e-05 4.767806558083e-04 0.0 
0.0 0.0 0.0 
1.229327770003e-04 1.947068580788e-04 0.0 
1.947068580788e-04 8.962311544608e-04 0.0 
0.0 0.0 0.0 
1.241443572790e-04 2.371673296181e-05 0.0 
2.371673296181e-05 6.825698559080e-04 0.0 
0.0 0.0 0.0 
-6.897549143195e-05 2.034050134091e-04 0.0 
2.034050134091e-04 2.074887023828e-03 0.0 
0.0 0.0 0.0 
8.315636545161e-05 5.990113061497e-05 0.0 
5.990113061497e-05 9.930337337226e-04 0.0 
0.0 0.0 0.0 
1.211183547544e-04 1.175701046829e-04 0.0 
1.175701046829e-04 9.646284441715e-04 0.0 
0.0 0.0 0.0 
-1.110647290794e-04 1.515356730623e-04 0.0 
1.515356730623e-04 2.549638697823e-04 0.0 
0.0 0.0 0.0 
-1.900703098526e-04 1.313343736856e-04 0.0 
1.313343736856e-04 1.663798494126e-03 0.0 
0.0 0.0 0.0 
7.335601350567e-05 5.442883922194e-05 0.0 
5.442883922194e-05 1.022919288450e-03 0.0 
0.0 0.0 0.0 
1.547883525304e-04 1.049614042881e-04 0.0 
1.049614042881e-04 7.657244271505e-04 0.0 
0.0 0.0 0.0 
9.547273418461e-05 2.158053867157e-04 0.0 
2.158053867157e-04 1.185453269161e-03 0.0 
0.0 0.0 0.0 
1.012844376696e-04 1.373630683933e-06 0.0 
1.373630683933e-06 6.409072248672e-04 0.0 
0.0 0.0 0.0 
8.287679594747e-06 3.276320551900e-04 0.0 
3.276320551900e-04 1.635571639439e-03 0.0 
0.0 0.0 0.0 
-1.392770873117e-04 2.370988459494e-04 0.0 
2.370988459494e-04 1.368769968613e-03 0.0 
0.0 0.0 0.0 
6.338724327989e-05 4.813150829606e-05 0.0 
4.813150829606e-05 1.054602954211e-03 0.0 
0.0 0.0 0.0 
1.227120445148e-04 1.441553092695e-04 0.0 
1.441553092695e-04 1.002017416590e-03 0.0 
0.0 0.0 0.0 
9.823198355178e-05 1.557305257615e-04 0.0 
1.557305257615e-04 6.198839276661e-04 0.0 
0.0 0.0 0.0 
-1.046230298103e-04 5.959120779239e-07 0.0 
5.959120779239e-07 1.736959059642e-03 0.0 
0.0 0.0 0.0 
4.102370068404e-05 5.382463698894e-05 0.0 
5.382463698894e-05 1.143280015221e-03 0.0 
0.0 0.0 0.0 
1.043050481726e-04 1.595721228483e-04 0.0 
1.595721228483e-04 1.081732664748e-03 0.0 
0.0 0.0 0.0 
4.968621673980e-05 2.661236168907e-04 0.0 
2.661236168907e-04 1.240614834728e-03 0.0 
0.0 0.0 0.0 
1.550937154906e-04 8.329340864288e-05 0.0 
8.329340864288e-05 7.091409811817e-04 0.0 
0.0 0.0 0.0 
-1.848687914779e-04 1.196299971352e-04 0.0 
1.196299971352e-04 1.588726394763e-03 0.0 
0.0 0.0 0.0 
1.191629254733e-04 2.352859293258e-05 0.0 
2.352859293258e-05 7.092805124338e-04 0.0 
0.0 0.0 0.0 
-4.264988190211e-05 2.818380239670e-04 0.0 
2.818380239670e-04 1.486394680359e-03 0.0 
0.0 0.0 0.0 
-3.157791191472e-05 1.724381688285e-04 0.0 
1.724381688285e-04 2.153337384152e-03 0.0 
0.0 0.0 0.0 
9.264169202043e-05 1.805209887731e-04 0.0 
1.805209887731e-04 1.141382465896e-03 0.0 
0.0 0.0 0.0 
-1.635942189400e-04 1.600946248094e-04 0.0 
1.600946248094e-04 1.871237035805e-03 0.0 
0.0 0.0 0.0 
1.158919902609e-04 1.454166116992e-05 0.0 
1.454166116992e-05 6.705765116857e-04 0.0 
0.0 0.0 0.0 
1.064449142705e-04 2.247545636907e-04 0.0 
2.247545636907e-04 1.111342778608e-03 0.0 
0.0 0.0 0.0 
2.074395658647e-05 -1.290344187369e-05 0.0 
-1.290344187369e-05 1.288570632511e-04 0.0 
0.0 0.0 0.0 
-1.783836346476e-04 1.820555560225e-04 0.0 
1.820555560225e-04 1.550701629369e-03 0.0 
0.0 0.0 0.0 
1.117455846440e-04 1.470491439225e-05 0.0 
1.470491439225e-05 6.978677189560e-04 0.0 
0.0 0.0 0.0 
1.307637227409e-04 5.731398158018e-05 0.0 
5.731398158018e-05 4.852887548664e-04 0.0 
0.0 0.0 0.0 
1.525183033735e-04 7.760421778052e-05 0.0 
7.760421778052e-05 7.249704898398e-04 0.0 
0.0 0.0 0.0 
5.001259726819e-05 2.828951758411e-04 0.0 
2.828951758411e-04 1.406302318021e-03 0.0 
0.0 0.0 0.0 
1.075244580230e-04 1.441047101878e-05 0.0 
1.441047101878e-05 7.257965833444e-04 0.0 
0.0 0.0 0.0 
1.430697068130e-04 7.084334507528e-05 0.0 
7.084334507528e-05 5.504051201296e-04 0.0 
0.0 0.0 0.0 
1.032709531740e-04 1.348832268331e-05 0.0 
1.348832268331e-05 7.541615121629e-04 0.0 
0.0 0.0 0.0 
-1.737478840520e-04 1.792144405565e-04 0.0 
1.792144405565e-04 1.462115821921e-03 0.0 
0.0 0.0 0.0 
-1.522581891805e-04 1.881189764010e-04 0.0 
1.881189764010e-04 1.861448804969e-03 0.0 
0.0 0.0 0.0 
9.916989996273e-05 1.158246018365e-05 0.0 
1.158246018365e-05 7.827342487781e-04 0.0 
0.0 0.0 0.0 
-3.745947191143e-05 2.848409859490e-04 0.0 
2.848409859490e-04 1.539425857658e-03 0.0 
0.0 0.0 0.0 
1.685564286207e-05 -1.976137233910e-05 0.0 
-1.976137233910e-05 1.377954648864e-04 0.0 
0.0 0.0 0.0 
6.689931400021e-05 2.586270152502e-04 0.0 
2.586270152502e-04 1.217320609999e-03 0.0 
0.0 0.0 0.0 
6.113783203469e-05 1.562405130049e-05 0.0 
1.562405130049e-05 1.032778239325e-03 0.0 
0.0 0.0 0.0 
1.116274486184e-04 -1.008768546327e-05 0.0 
-1.008768546327e-05 4.460890235677e-04 0.0 
0.0 0.0 0.0 
1.486541628979e-04 7.317832525936e-05 0.0 
7.317832525936e-05 7.435310495553e-04 0.0 
0.0 0.0 0.0 
-1.331473575849e-04 2.045936881040e-04 0.0 
2.045936881040e-04 1.899929230032e-03 0.0 
0.0 0.0 0.0 
-1.433641326983e-04 2.254313110492e-04 0.0 
2.254313110492e-04 1.250355958546e-03 0.0 
0.0 0.0 0.0 
1.434440000750e-04 8.786377240978e-05 0.0 
8.786377240978e-05 8.143927918746e-04 0.0 
0.0 0.0 0.0 
-3.192564950627e-05 2.904514425484e-04 0.0 
2.904514425484e-04 1.593313463651e-03 0.0 
0.0 0.0 0.0 
8.045284699243e-05 2.512567722226e-04 0.0 
2.512567722226e-04 1.200565290425e-03 0.0 
0.0 0.0 0.0 
1.199888719364e-04 2.042628217111e-04 0.0 
2.042628217111e-04 9.669888339462e-04 0.0 
0.0 0.0 0.0 
1.344602429109e-04 1.027569365122e-04 0.0 
1.027569365122e-04 8.881013292671e-04 0.0 
0.0 0.0 0.0 
-9.815388580127e-05 2.527762649559e-04 0.0 
2.527762649559e-04 1.148913036101e-03 0.0 
0.0 0.0 0.0 
7.241794866375e-05 -2.861072436774e-05 0.0 
-2.861072436774e-05 3.207331701388e-04 0.0 
0.0 0.0 0.0 
5.418162616929e-05 -3.247093650589e-05 0.0 
-3.247093650589e-05 2.668428152892e-04 0.0 
0.0 0.0 0.0 
1.469921588845e-04 6.168323298916e-05 0.0 
6.168323298916e-05 5.614675236246e-04 0.0 
0.0 0.0 0.0 
-4.631039953662e-05 2.904161869100e-04 0.0 
2.904161869100e-04 1.674929345570e-03 0.0 
0.0 0.0 0.0 
3.146873783455e-05 -9.155128590451e-06 0.0 
-9.155128590451e-06 1.757613219619e-04 0.0 
0.0 0.0 0.0 
-1.175014509660e-04 2.381657350630e-04 0.0 
2.381657350630e-04 1.823165652160e-03 0.0 
0.0 0.0 0.0 
2.392889508514e-05 -3.552212747426e-05 0.0 
-3.552212747426e-05 1.935905596019e-04 0.0 
0.0 0.0 0.0 
1.399868707362e-04 4.033458450686e-05 0.0 
4.033458450686e-05 5.109505790194e-04 0.0 
0.0 0.0 0.0 
7.966552719078e-05 2.558124568584e-04 0.0 
2.558124568584e-04 1.264669596154e-03 0.0 
0.0 0.0 0.0 
-9.141310818791e-05 1.596016267346e-06 0.0 
1.596016267346e-06 1.903269455491e-03 0.0 
0.0 0.0 0.0 
1.417714001124e-04 3.456638509391e-05 0.0 
3.456638509391e-05 5.267530459786e-04 0.0 
0.0 0.0 0.0 
5.819288576277e-05 -3.598701945379e-06 0.0 
-3.598701945379e-06 2.990255395739e-04 0.0 
0.0 0.0 0.0 
1.323835044127e-04 1.686140982935e-05 0.0 
1.686140982935e-05 4.825311001282e-04 0.0 
0.0 0.0 0.0 
1.144770666861e-04 2.140149405125e-04 0.0 
2.140149405125e-04 1.038470401049e-03 0.0 
0.0 0.0 0.0 
1.330516949799e-04 1.417190742579e-05 0.0 
1.417190742579e-05 5.018794908670e-04 0.0 
0.0 0.0 0.0 
1.224189859040e-04 4.074704379017e-07 0.0 
4.074704379017e-07 4.622419890927e-04 0.0 
0.0 0.0 0.0 
-4.051664594483e-05 5.052024720430e-05 0.0 
5.052024720430e-05 2.158894396717e-03 0.0 
0.0 0.0 0.0 
1.226676596679e-04 1.018216103322e-07 0.0 
1.018216103322e-07 4.834185955313e-04 0.0 
0.0 0.0 0.0 
-1.671119897623e-05 1.436084732971e-05 0.0 
1.436084732971e-05 2.207871209873e-03 0.0 
0.0 0.0 0.0 
2.071184953859e-05 1.747281990285e-05 0.0 
1.747281990285e-05 1.201137502595e-03 0.0 
0.0 0.0 0.0 
-1.012815458181e-04 -6.004166490209e-09 0.0 
-6.004166490209e-09 1.783378648876e-03 0.0 
0.0 0.0 0.0 
-1.335620506616e-04 2.283630962734e-04 0.0 
2.283630962734e-04 1.050535792071e-03 0.0 
0.0 0.0 0.0 
-1.184868596099e-04 1.437196002696e-06 0.0 
1.437196002696e-06 9.600778160339e-05 0.0 
0.0 0.0 0.0 
-6.858717678524e-05 2.364975268516e-04 0.0 
2.364975268516e-04 9.134282219042e-04 0.0 
0.0 0.0 0.0 
9.804284610104e-05 -1.938912810350e-05 0.0 
-1.938912810350e-05 3.891294111928e-04 0.0 
0.0 0.0 0.0 
-9.049234265881e-05 2.660000466725e-04 0.0 
2.660000466725e-04 1.728891234403e-03 0.0 
0.0 0.0 0.0 
-1.019551826792e-04 1.987551320663e-06 0.0 
1.987551320663e-06 1.786483866428e-03 0.0 
0.0 0.0 0.0 
8.509350119275e-05 -2.519277308352e-05 0.0 
-2.519277308352e-05 3.548337503884e-04 0.0 
0.0 0.0 0.0 
-4.902883639052e-05 2.889741775455e-04 0.0 
2.889741775455e-04 1.933470818072e-03 0.0 
0.0 0.0 0.0 
1.118895618361e-05 3.392541980347e-04 0.0 
3.392541980347e-04 1.621913095743e-03 0.0 
0.0 0.0 0.0 
-7.958049973122e-05 8.594422534968e-06 0.0 
8.594422534968e-06 1.987614962067e-03 0.0 
0.0 0.0 0.0 
8.854748050369e-05 2.092453272122e-04 0.0 
2.092453272122e-04 1.191561411722e-03 0.0 
0.0 0.0 0.0 
9.007002575308e-05 2.440614442376e-04 0.0 
2.440614442376e-04 1.191089390379e-03 0.0 
0.0 0.0 0.0 
-4.818598884276e-05 6.636674098119e-06 0.0 
6.636674098119e-06 2.115880099678e-03 0.0 
0.0 0.0 0.0 
-1.112425084216e-04 8.881402024848e-07 0.0 
8.881402024848e-07 1.735396190376e-03 0.0 
0.0 0.0 0.0 
-2.565108145460e-05 -2.585168804412e-05 0.0 
-2.585168804412e-05 9.472292697036e-05 0.0 
0.0 0.0 0.0 
8.986568758148e-05 5.148917965306e-06 0.0 
5.148917965306e-06 8.485608161916e-04 0.0 
0.0 0.0 0.0 
-1.335173190700e-04 2.231035334459e-04 0.0 
2.231035334459e-04 8.402390381041e-04 0.0 
0.0 0.0 0.0 
-6.774842370179e-05 2.134006845697e-04 0.0 
2.134006845697e-04 6.937885771955e-04 0.0 
0.0 0.0 0.0 
-6.273520512608e-05 1.831124193432e-04 0.0 
1.831124193432e-04 4.970077222380e-04 0.0 
0.0 0.0 0.0 
7.311864061917e-05 -9.494324732690e-06 0.0 
-9.494324732690e-06 3.735338315863e-04 0.0 
0.0 0.0 0.0 
-1.441976586214e-05 -3.366805981652e-05 0.0 
-3.366805981652e-05 1.444612168940e-04 0.0 
0.0 0.0 0.0 
-1.219880032256e-04 2.132085809952e-04 0.0 
2.132085809952e-04 6.453991951224e-04 0.0 
0.0 0.0 0.0 
5.376192286040e-05 2.436287318528e-04 0.0 
2.436287318528e-04 1.326835659165e-03 0.0 
0.0 0.0 0.0 
-1.299333838124e-04 1.487377924177e-05 0.0 
1.487377924177e-05 1.797091795550e-03 0.0 
0.0 0.0 0.0 
6.289905098052e-05 2.718646091947e-04 0.0 
2.718646091947e-04 1.341172765256e-03 0.0 
0.0 0.0 0.0 
-1.173787335150e-04 1.920629636750e-04 0.0 
1.920629636750e-04 4.439933912473e-04 0.0 
0.0 0.0 0.0 
-5.942003803994e-05 1.357968709852e-04 0.0 
1.357968709852e-04 2.134921956724e-03 0.0 
0.0 0.0 0.0 
3.443147540505e-05 3.060268874290e-04 0.0 
3.060268874290e-04 1.490764209834e-03 0.0 
0.0 0.0 0.0 
2.306473335726e-05 1.024824304379e-04 0.0 
1.024824304379e-04 1.238310617749e-03 0.0 
0.0 0.0 0.0 
5.111594982018e-05 2.861984400170e-04 0.0 
2.861984400170e-04 1.411646863849e-03 0.0 
0.0 0.0 0.0 
-6.366656933848e-05 1.379116951088e-04 0.0 
1.379116951088e-04 3.184705813573e-04 0.0 
0.0 0.0 0.0 
-1.608896633278e-04 5.699724396066e-05 0.0 
5.699724396066e-05 1.844759876423e-03 0.0 
0.0 0.0 0.0 
-1.144094197882e-05 3.279980085873e-04 0.0 
3.279980085873e-04 1.739213608933e-03 0.0 
0.0 0.0 0.0 
-7.305245937661e-05 1.545164729466e-05 0.0 
1.545164729466e-05 2.031955881323e-03 0.0 
0.0 0.0 0.0 
2.101437689368e-05 8.151322200512e-05 0.0 
8.151322200512e-05 1.230393357714e-03 0.0 
0.0 0.0 0.0 
-1.439864659278e-04 2.461304639777e-05 0.0 
2.461304639777e-05 1.791496201130e-03 0.0 
0.0 0.0 0.0 
-3.338891769145e-05 3.297218230095e-05 0.0 
3.297218230095e-05 2.166992845769e-03 0.0 
0.0 0.0 0.0 
2.769638034505e-05 -1.459688267253e-05 0.0 
-1.459688267253e-05 2.171701715876e-04 0.0 
0.0 0.0 0.0 
-3.095793374430e-05 1.709516075937e-05 0.0 
1.709516075937e-05 2.168278566951e-03 0.0 
0.0 0.0 0.0 
-7.587906032822e-05 2.758861769726e-04 0.0 
2.758861769726e-04 1.773193707556e-03 0.0 
0.0 0.0 0.0 
-1.027645587252e-04 1.038300705778e-05 0.0 
1.038300705778e-05 1.863599011462e-03 0.0 
0.0 0.0 0.0 
-1.766028739916e-04 8.828858956286e-05 0.0 
8.828858956286e-05 1.828719092402e-03 0.0 
0.0 0.0 0.0 
3.399510349655e-05 2.694635262732e-05 0.0 
2.694635262732e-05 1.150174650911e-03 0.0 
0.0 0.0 0.0 
-6.126622366152e-05 2.522503486841e-04 0.0 
2.522503486841e-04 2.012022242602e-03 0.0 
0.0 0.0 0.0 
-6.507710754872e-05 1.058400352414e-04 0.0 
1.058400352414e-04 2.347853512691e-04 0.0 
0.0 0.0 0.0 
-8.232625994968e-05 1.385249677785e-05 0.0 
1.385249677785e-05 1.985104527160e-03 0.0 
0.0 0.0 0.0 
9.132124018048e-05 -7.914961511570e-06 0.0 
-7.914961511570e-06 4.716842265854e-04 0.0 
0.0 0.0 0.0 
-6.844229913326e-05 -1.650187766652e-05 0.0 
-1.650187766652e-05 1.145247491702e-04 0.0 
0.0 0.0 0.0 
4.808505360532e-05 1.217793185619e-04 0.0 
1.217793185619e-04 1.182746885472e-03 0.0 
0.0 0.0 0.0 
-6.003094351907e-05 2.871466648323e-04 0.0 
2.871466648323e-04 1.816188952405e-03 0.0 
0.0 0.0 0.0 
3.630499722980e-05 4.533630891998e-05 0.0 
4.533630891998e-05 1.149274581563e-03 0.0 
0.0 0.0 0.0 
2.246223392923e-05 -2.666033196398e-06 0.0 
-2.666033196398e-06 1.263993109132e-04 0.0 
0.0 0.0 0.0 
-1.491219976808e-05 -2.098703547408e-05 0.0 
-2.098703547408e-05 8.417872974831e-05 0.0 
0.0 0.0 0.0 
4.806253630627e-05 1.512317086228e-04 0.0 
1.512317086228e-04 1.218244027119e-03 0.0 
0.0 0.0 0.0 
-3.186861204870e-05 3.156456208673e-04 0.0 
3.156456208673e-04 1.852541417036e-03 0.0 
0.0 0.0 0.0 
4.011758589954e-05 -1.946174673390e-05 0.0 
-1.946174673390e-05 2.391432177897e-04 0.0 
0.0 0.0 0.0 
-2.374276590027e-05 1.174190665896e-04 0.0 
1.174190665896e-04 2.191262221205e-03 0.0 
0.0 0.0 0.0 
-8.398930053620e-05 7.754865638771e-05 0.0 
7.754865638771e-05 1.585828997998e-04 0.0 
0.0 0.0 0.0 
-1.174728911615e-04 3.153811302872e-06 0.0 
3.153811302872e-06 1.731000774928e-03 0.0 
0.0 0.0 0.0 
6.503647187091e-07 -1.546653683283e-05 0.0 
-1.546653683283e-05 8.136140590320e-05 0.0 
0.0 0.0 0.0 
1.971106430387e-05 5.986656424318e-05 0.0 
5.986656424318e-05 1.221806119805e-03 0.0 
0.0 0.0 0.0 
-4.440089849793e-05 8.467029786047e-05 0.0 
8.467029786047e-05 2.161452736860e-03 0.0 
0.0 0.0 0.0 
9.528080457075e-05 -2.466793880443e-06 0.0 
-2.466793880443e-06 5.238220077011e-04 0.0 
0.0 0.0 0.0 
-1.706830962356e-04 5.362774861979e-05 0.0 
5.362774861979e-05 1.745411183004e-03 0.0 
0.0 0.0 0.0 
6.543996421745e-05 -6.763414801732e-06 0.0 
-6.763414801732e-06 3.370503275255e-04 0.0 
0.0 0.0 0.0 
1.792574581323e-05 3.142506277109e-04 0.0 
3.142506277109e-04 1.563283422379e-03 0.0 
0.0 0.0 0.0 
-1.025058418078e-05 -3.220316353660e-05 0.0 
-3.220316353660e-05 1.310055309179e-04 0.0 
0.0 0.0 0.0 
-3.738688909978e-05 6.084981696867e-05 0.0 
6.084981696867e-05 2.170483317502e-03 0.0 
0.0 0.0 0.0 
4.909008572760e-05 1.831450894623e-04 0.0 
1.831450894623e-04 1.253675231981e-03 0.0 
0.0 0.0 0.0 
-5.967258256312e-05 1.903876501331e-04 0.0 
1.903876501331e-04 2.103830864238e-03 0.0 
0.0 0.0 0.0 
2.038070581438e-05 2.954191193645e-04 0.0 
2.954191193645e-04 1.476044605763e-03 0.0 
0.0 0.0 0.0 
-7.651413086025e-05 1.825950858546e-05 0.0 
1.825950858546e-05 1.251345190199e-04 0.0 
0.0 0.0 0.0 
2.328545321926e-05 3.204127238116e-04 0.0 
3.204127238116e-04 1.550902855583e-03 0.0 
0.0 0.0 0.0 
7.430725302338e-05 1.953563941337e-04 0.0 
1.953563941337e-04 1.208884765375e-03 0.0 
0.0 0.0 0.0 
-1.080148473456e-04 2.256307688706e-06 0.0 
2.256307688706e-06 1.733533608485e-03 0.0 
0.0 0.0 0.0 
-6.238421159142e-05 2.243050647107e-04 0.0 
2.243050647107e-04 2.057180354149e-03 0.0 
0.0 0.0 0.0 
8.105601576216e-05 -7.078588574497e-06 0.0 
-7.078588574497e-06 4.193822303908e-04 0.0 
0.0 0.0 0.0 
2.805583317604e-05 -1.997081254142e-05 0.0 
-1.997081254142e-05 1.746458486089e-04 0.0 
0.0 0.0 0.0 
-1.340967247545e-05 6.707458636576e-06 0.0 
6.707458636576e-06 2.213545554062e-03 0.0 
0.0 0.0 0.0 
6.343572315304e-06 -1.047495576707e-06 0.0 
-1.047495576707e-06 2.582737517209e-05 0.0 
0.0 0.0 0.0 
-1.035445114841e-04 -4.999298087210e-07 0.0 
-4.999298087210e-07 1.727132986744e-03 0.0 
0.0 0.0 0.0 
1.564591971768e-05 9.124624015225e-06 0.0 
9.124624015225e-06 1.217270697306e-03 0.0 
0.0 0.0 0.0 
2.931131981327e-05 -1.208410767376e-05 0.0 
-1.208410767376e-05 1.650099984646e-04 0.0 
0.0 0.0 0.0 
-9.894082342845e-05 2.032300584103e-06 0.0 
2.032300584103e-06 1.828798828696e-03 0.0 
0.0 0.0 0.0 
-3.864188134339e-05 3.050573922291e-04 0.0 
3.050573922291e-04 1.899042392436e-03 0.0 
0.0 0.0 0.0 
1.000040504747e-04 1.021826263274e-06 0.0 
1.021826263274e-06 6.577391028568e-04 0.0 
0.0 0.0 0.0 
-5.678902800457e-05 1.045150994597e-05 0.0 
1.045150994597e-05 2.085743115483e-03 0.0 
0.0 0.0 0.0 
7.612875363572e-06 -3.426590149659e-05 0.0 
-3.426590149659e-05 1.777365974628e-04 0.0 
0.0 0.0 0.0 
-1.214695541369e-04 -8.132966957743e-06 0.0 
-8.132966957743e-06 8.542767788581e-05 0.0 
0.0 0.0 0.0 
-8.795169694289e-05 4.971448983821e-06 0.0 
4.971448983821e-06 1.934531549627e-03 0.0 
0.0 0.0 0.0 
3.707197862832e-05 2.997916937501e-04 0.0 
2.997916937501e-04 1.464370985038e-03 0.0 
0.0 0.0 0.0 
-5.458630760693e-05 1.540443071622e-04 0.0 
1.540443071622e-04 2.136112435453e-03 0.0 
0.0 0.0 0.0 
-9.799594051825e-05 1.110352370752e-05 0.0 
1.110352370752e-05 1.895641444117e-03 0.0 
0.0 0.0 0.0 
-2.924640626174e-05 7.980354800232e-05 0.0 
7.980354800232e-05 2.524884839398e-04 0.0 
0.0 0.0 0.0 
-4.683873164621e-05 3.003519815190e-04 0.0 
3.003519815190e-04 1.849927703010e-03 0.0 
0.0 0.0 0.0 
9.968757499172e-05 -1.261491968985e-06 0.0 
-1.261491968985e-06 5.695867317359e-04 0.0 
0.0 0.0 0.0 
-9.016275262308e-06 3.187085262883e-04 0.0 
3.187085262883e-04 1.674385545937e-03 0.0 
0.0 0.0 0.0 
7.028370202202e-05 2.236350891298e-04 0.0 
2.236350891298e-04 1.259032344190e-03 0.0 
0.0 0.0 0.0 
-1.096902942551e-04 8.625763925980e-05 0.0 
8.625763925980e-05 1.085808192360e-04 0.0 
0.0 0.0 0.0 
9.926834992204e-05 1.959469042292e-06 0.0 
1.959469042292e-06 7.144404677463e-04 0.0 
0.0 0.0 0.0 
-7.786742095228e-06 -1.685485889153e-05 0.0 
-1.685485889153e-05 7.841736396390e-05 0.0 
0.0 0.0 0.0 
3.802999442621e-05 8.933739324245e-05 0.0 
8.933739324245e-05 1.181714205084e-03 0.0 
0.0 0.0 0.0 
9.975671574698e-05 -3.465350090434e-07 0.0 
-3.465350090434e-07 5.966329755289e-04 0.0 
0.0 0.0 0.0 
-1.268203118636e-04 4.027714168008e-05 0.0 
4.027714168008e-05 1.529061501893e-03 0.0 
0.0 0.0 0.0 
-1.122429624422e-04 9.154295222774e-07 0.0 
9.154295222774e-07 1.523069503662e-03 0.0 
0.0 0.0 0.0 
-1.440597207129e-04 4.117699157147e-05 0.0 
4.117699157147e-05 1.587469090351e-03 0.0 
0.0 0.0 0.0 
-1.069705477092e-04 -4.049763206576e-07 0.0 
-4.049763206576e-07 1.588370893330e-03 0.0 
0.0 0.0 0.0 
-1.550544402623e-04 3.496873343050e-05 0.0 
3.496873343050e-05 1.653353134635e-03 0.0 
0.0 0.0 0.0 
-1.056071517679e-04 4.053713286858e-07 0.0 
4.053713286858e-07 1.648514055046e-03 0.0 
0.0 0.0 0.0 

TENSORS node_materi_strain_plasti float
-2.612663767757e-06 -3.252607646113e-07 0.0 
-3.252607646113e-07 2.093720605042e-05 0.0 
0.0 0.0 -4.924303274428e-06 
-1.079056608654e-04 -1.683663743376e-05 0.0 
-1.683663743376e-05 6.796608024097e-04 0.0 
0.0 0.0 -1.043867513459e-04 
-1.990082416844e-04 1.461466422752e-05 0.0 
1.461466422752e-05 1.338163054070e-03 0.0 
0.0 0.0 -1.998931639748e-04 
-1.992789450115e-04 -1.457804817178e-05 0.0 
-1.457804817178e-05 1.339096739606e-03 0.0 
0.0 0.0 -1.998931639748e-04 
-1.229078891716e-05 5.366280014175e-06 0.0 
5.366280014175e-06 5.053145956954e-05 0.0 
0.0 0.0 -1.268018299698e-05 
-2.543886988905e-05 1.901414525611e-05 0.0 
1.901414525611e-05 1.267844857367e-04 0.0 
0.0 0.0 -2.428620303623e-05 
-3.444505010393e-05 1.562750611400e-05 0.0 
1.562750611400e-05 1.836714106930e-04 0.0 
0.0 0.0 -3.399136149544e-05 
-4.457783022682e-05 1.417525000785e-05 0.0 
1.417525000785e-05 2.618842628781e-04 0.0 
0.0 0.0 -4.406465996183e-05 
-5.572937533165e-05 1.046680884978e-05 0.0 
1.046680884978e-05 3.321775894220e-04 0.0 
0.0 0.0 -5.415704333790e-05 
-6.374532394610e-05 9.877096268524e-06 0.0 
9.877096268524e-06 3.996726964643e-04 0.0 
0.0 0.0 -6.415842296661e-05 
-7.312975922456e-05 1.092726545402e-05 0.0 
1.092726545402e-05 4.685103703879e-04 0.0 
0.0 0.0 -7.410179773499e-05 
-8.340975388222e-05 9.760341255261e-06 0.0 
9.760341255261e-06 5.380090096821e-04 0.0 
0.0 0.0 -8.402736785582e-05 
-9.329317044903e-05 9.748725627981e-06 0.0 
9.748725627981e-06 6.067337971893e-04 0.0 
0.0 0.0 -9.400794208654e-05 
-1.048395173574e-04 1.245666822366e-05 0.0 
1.245666822366e-05 6.774763461161e-04 0.0 
0.0 0.0 -1.040542782181e-04 
-1.176369272068e-04 1.876149311443e-05 0.0 
1.876149311443e-05 7.541898349339e-04 0.0 
0.0 0.0 -1.141079629734e-04 
-1.251371721908e-04 1.991670015406e-05 0.0 
1.991670015406e-05 8.235151932197e-04 0.0 
0.0 0.0 -1.240613786258e-04 
-1.319668018372e-04 2.596472290694e-05 0.0 
2.596472290694e-05 8.806369836317e-04 0.0 
0.0 0.0 -1.335504265687e-04 
-1.429595426911e-04 1.016247294305e-05 0.0 
1.016247294305e-05 9.540683438175e-04 0.0 
0.0 0.0 -1.433712649586e-04 
-1.532202596459e-04 9.657610282115e-06 0.0 
9.657610282115e-06 1.025836369529e-03 0.0 
0.0 0.0 -1.536785213545e-04 
-1.630955816410e-04 9.924116732642e-06 0.0 
9.924116732642e-06 1.095392565861e-03 0.0 
0.0 0.0 -1.636867096734e-04 
-1.736417197982e-04 9.148824907428e-06 0.0 
9.148824907428e-06 1.166298828267e-03 0.0 
0.0 0.0 -1.737495185000e-04 
-1.844935295981e-04 1.136666883781e-05 0.0 
1.136666883781e-05 1.237760949854e-03 0.0 
0.0 0.0 -1.839110754151e-04 
-1.928395893447e-04 1.466620459946e-05 0.0 
1.466620459946e-05 1.307601711888e-03 0.0 
0.0 0.0 -1.934749151625e-04 
-1.992084498245e-04 -9.667205419172e-07 0.0 
-9.667205419172e-07 1.341308611164e-03 0.0 
0.0 0.0 -2.005353038101e-04 
-2.003235822205e-04 -4.576902611969e-07 0.0 
-4.576902611969e-07 1.339283177977e-03 0.0 
0.0 0.0 -1.999418651152e-04 
-2.004195521241e-04 -9.594112326717e-06 0.0 
-9.594112326717e-06 1.337828695600e-03 0.0 
0.0 0.0 -2.002354755130e-04 
-2.008845907091e-04 4.519063874005e-06 0.0 
4.519063874005e-06 1.338578482993e-03 0.0 
0.0 0.0 -2.001689849711e-04 
-2.005719087583e-04 -1.259819984252e-06 0.0 
-1.259819984252e-06 1.336698736025e-03 0.0 
0.0 0.0 -1.998101597465e-04 
-2.003033749392e-04 1.612771953848e-07 0.0 
1.612771953848e-07 1.336699884288e-03 0.0 
0.0 0.0 -2.002576402756e-04 
-1.988174270910e-04 4.435871277179e-07 0.0 
4.435871277179e-07 1.338020991228e-03 0.0 
0.0 0.0 -2.002582685247e-04 
-2.006018029555e-04 -1.428553602928e-06 0.0 
-1.428553602928e-06 1.338259915715e-03 0.0 
0.0 0.0 -2.000295381545e-04 
-2.002076965602e-04 -6.442142530929e-06 0.0 
-6.442142530929e-06 1.339568721789e-03 0.0 
0.0 0.0 -2.004389858384e-04 
-2.006688150029e-04 4.111887006867e-06 0.0 
4.111887006867e-06 1.340190933063e-03 0.0 
0.0 0.0 -2.003568725688e-04 
-2.004204281591e-04 -1.032720327526e-06 0.0 
-1.032720327526e-06 1.338293566306e-03 0.0 
0.0 0.0 -1.999970921405e-04 
-2.007190085647e-04 -7.221768717101e-07 0.0 
-7.221768717101e-07 1.338675392550e-03 0.0 
0.0 0.0 -2.003793839065e-04 
-1.990986785052e-04 -1.590259053469e-08 0.0 
-1.590259053469e-08 1.341350099485e-03 0.0 
0.0 0.0 -2.004146187826e-04 
-2.007914892723e-04 -4.264335361636e-07 0.0 
-4.264335361636e-07 1.339816171211e-03 0.0 
0.0 0.0 -2.002852565091e-04 
-1.994100966532e-04 -1.572894639504e-06 0.0 
-1.572894639504e-06 1.338161131957e-03 0.0 
0.0 0.0 -2.001446319728e-04 
-2.007511256741e-04 1.494960023588e-06 0.0 
1.494960023588e-06 1.335513206817e-03 0.0 
0.0 0.0 -1.998462653075e-04 
-2.008601944157e-04 -3.837724735005e-07 0.0 
-3.837724735005e-07 1.334384440132e-03 0.0 
0.0 0.0 -1.998029376683e-04 
-1.990688471561e-04 2.458886044847e-07 0.0 
2.458886044847e-07 1.337655076969e-03 0.0 
0.0 0.0 -2.000088186226e-04 
-2.001853082778e-04 -6.402158915262e-07 0.0 
-6.402158915262e-07 1.339281899659e-03 0.0 
0.0 0.0 -2.002091174222e-04 
-2.005241707287e-04 -7.501540653693e-07 0.0 
-7.501540653693e-07 1.339203182872e-03 0.0 
0.0 0.0 -2.004865334549e-04 
-2.005853306472e-04 2.540125145858e-06 0.0 
2.540125145858e-06 1.339503555012e-03 0.0 
0.0 0.0 -2.003832587333e-04 
-1.997808965748e-04 -1.605993664685e-07 0.0 
-1.605993664685e-07 1.339666309980e-03 0.0 
0.0 0.0 -2.002174839672e-04 
-2.003075530794e-04 4.838064349885e-07 0.0 
4.838064349885e-07 1.338766324707e-03 0.0 
0.0 0.0 -2.002580803729e-04 
-2.003470639015e-04 -2.444069971795e-07 0.0 
-2.444069971795e-07 1.338072796155e-03 0.0 
0.0 0.0 -2.002440284024e-04 
-2.004510673748e-04 -1.928377971685e-07 0.0 
-1.928377971685e-07 1.340065919944e-03 0.0 
0.0 0.0 -2.002334986692e-04 
-1.995883615915e-04 -7.312419057637e-07 0.0 
-7.312419057637e-07 1.340320439837e-03 0.0 
0.0 0.0 -2.003661129950e-04 
-2.011747927060e-04 -8.722415594418e-07 0.0 
-8.722415594418e-07 1.340079435223e-03 0.0 
0.0 0.0 -2.004908485340e-04 
-1.995361419384e-04 -6.780112919623e-07 0.0 
-6.780112919623e-07 1.340717740891e-03 0.0 
0.0 0.0 -2.004762665914e-04 
-2.008009995012e-04 -8.793815483882e-07 0.0 
-8.793815483882e-07 1.341377617168e-03 0.0 
0.0 0.0 -2.003014926434e-04 
-2.004900975472e-04 -5.374113392905e-06 0.0 
-5.374113392905e-06 1.342707157093e-03 0.0 
0.0 0.0 -2.006997735404e-04 
-2.011614755125e-04 5.177742394410e-06 0.0 
5.177742394410e-06 1.341994191491e-03 0.0 
0.0 0.0 -2.005870641008e-04 
-2.001672680472e-04 1.642921574496e-06 0.0 
1.642921574496e-06 1.338462129955e-03 0.0 
0.0 0.0 -2.000675234999e-04 
-1.999895739659e-04 -6.988816101146e-09 0.0 
-6.988816101146e-09 1.336248125534e-03 0.0 
0.0 0.0 -2.001823097425e-04 
-2.001225026340e-04 -1.240829705364e-06 0.0 
-1.240829705364e-06 1.339474803775e-03 0.0 
0.0 0.0 -2.001929620191e-04 
-1.997428951088e-04 -2.864922555172e-07 0.0 
-2.864922555172e-07 1.339287980767e-03 0.0 
0.0 0.0 -2.002863172658e-04 
-2.011305945918e-04 -1.592599752619e-06 0.0 
-1.592599752619e-06 1.339001312879e-03 0.0 
0.0 0.0 -2.003537156312e-04 
-1.994489271156e-04 -3.123074052847e-07 0.0 
-3.123074052847e-07 1.340206734430e-03 0.0 
0.0 0.0 -2.003469717371e-04 
-2.008676553467e-04 -6.044515584228e-08 0.0 
-6.044515584228e-08 1.338725412238e-03 0.0 
0.0 0.0 -2.002396863610e-04 
-1.992453131624e-04 -1.009025233623e-06 0.0 
-1.009025233623e-06 1.337264745438e-03 0.0 
0.0 0.0 -2.001151187552e-04 
-2.007508866938e-04 2.802615914654e-07 0.0 
2.802615914654e-07 1.337086357069e-03 0.0 
0.0 0.0 -1.998355947622e-04 
-2.010860201950e-04 -2.268840142145e-06 0.0 
-2.268840142145e-06 1.337518567927e-03 0.0 
0.0 0.0 -2.000624918399e-04 
-1.999308478327e-04 1.605132680389e-06 0.0 
1.605132680389e-06 1.340948129084e-03 0.0 
0.0 0.0 -2.004978758543e-04 
-1.989515291925e-04 -1.597226336294e-06 0.0 
-1.597226336294e-06 1.342999130641e-03 0.0 
0.0 0.0 -2.005641941534e-04 
-2.002462740351e-04 -1.655488014151e-06 0.0 
-1.655488014151e-06 1.333093131656e-03 0.0 
0.0 0.0 -1.993486092159e-04 
-1.990090833406e-04 5.684559175637e-07 0.0 
5.684559175637e-07 1.340609276749e-03 0.0 
0.0 0.0 -2.003850096553e-04 
-2.008054096670e-04 9.372155481796e-08 0.0 
9.372155481796e-08 1.339007845984e-03 0.0 
0.0 0.0 -1.998785251170e-04 
-2.008250670669e-04 -6.084757154766e-06 0.0 
-6.084757154766e-06 1.338299561836e-03 0.0 
0.0 0.0 -2.002828574513e-04 
-2.004005035862e-04 2.502291620358e-06 0.0 
2.502291620358e-06 1.342657178018e-03 0.0 
0.0 0.0 -2.004849633189e-04 
-2.007882536758e-04 -1.247747538696e-07 0.0 
-1.247747538696e-07 1.343259988120e-03 0.0 
0.0 0.0 -2.003783523096e-04 
-1.146671904274e-04 -1.178176757847e-05 0.0 
-1.178176757847e-05 7.450986713540e-04 0.0 
0.0 0.0 -1.147343130870e-04 
-1.264453810116e-04 -1.334151081515e-05 0.0 
-1.334151081515e-05 8.198209596703e-04 0.0 
0.0 0.0 -1.244847198447e-04 
-1.356765189360e-04 -1.297470350471e-05 0.0 
-1.297470350471e-05 8.891398730811e-04 0.0 
0.0 0.0 -1.343891602869e-04 
-1.452353386135e-04 -1.385252952600e-05 0.0 
-1.385252952600e-05 9.563155137830e-04 0.0 
0.0 0.0 -1.441570129583e-04 
-1.551452079967e-04 -1.219781350268e-05 0.0 
-1.219781350268e-05 1.026181140671e-03 0.0 
0.0 0.0 -1.540481715075e-04 
-1.626979226826e-04 -1.337619385664e-05 0.0 
-1.337619385664e-05 1.096146543984e-03 0.0 
0.0 0.0 -1.639185295300e-04 
-1.730204163278e-04 -1.189570542028e-05 0.0 
-1.189570542028e-05 1.165335265964e-03 0.0 
0.0 0.0 -1.737435638217e-04 
-1.827904030233e-04 -1.370279642459e-05 0.0 
-1.370279642459e-05 1.231374955592e-03 0.0 
0.0 0.0 -1.836722557877e-04 
-1.920175721782e-04 -1.513479483673e-05 0.0 
-1.513479483673e-05 1.306410256595e-03 0.0 
0.0 0.0 -1.933173094176e-04 
-2.628312394672e-06 4.861178510582e-06 0.0 
4.861178510582e-06 1.556544794842e-05 0.0 
0.0 0.0 -4.409292559605e-06 
-1.048316007749e-04 -9.621305853345e-07 0.0 
-9.621305853345e-07 6.811678198845e-04 0.0 
0.0 0.0 -1.041824356080e-04 
-1.603258868989e-05 6.293505815657e-06 0.0 
6.293505815657e-06 6.888897348946e-05 0.0 
0.0 0.0 -1.632019118638e-05 
-2.756708965862e-05 9.954179369459e-06 0.0 
9.954179369459e-06 1.392031922928e-04 0.0 
0.0 0.0 -2.693367542308e-05 
-3.812552406380e-05 1.016013513838e-05 0.0 
1.016013513838e-05 2.109572618436e-04 0.0 
0.0 0.0 -3.699017713192e-05 
-4.963090252897e-05 1.010790859059e-05 0.0 
1.010790859059e-05 2.749080301063e-04 0.0 
0.0 0.0 -4.663185121135e-05 
-5.946172844476e-05 1.089817760649e-05 0.0 
1.089817760649e-05 3.455630334660e-04 0.0 
0.0 0.0 -5.667203691650e-05 
-6.775013558677e-05 5.168412961490e-06 0.0 
5.168412961490e-06 4.165676618044e-04 0.0 
0.0 0.0 -6.681818494127e-05 
-7.524160248753e-05 4.053277185220e-06 0.0 
4.053277185220e-06 4.865456118678e-04 0.0 
0.0 0.0 -7.653143791847e-05 
-8.170243524055e-05 5.000006177166e-08 0.0 
5.000006177166e-08 5.347878226306e-04 0.0 
0.0 0.0 -8.371130494101e-05 
-9.180060726483e-05 -4.722006417284e-07 0.0 
-4.722006417284e-07 6.049326733472e-04 0.0 
0.0 0.0 -9.373011205136e-05 
-8.179745633898e-05 -2.497562673652e-05 0.0 
-2.497562673652e-05 5.014982624689e-04 0.0 
0.0 0.0 -7.733333333333e-05 
-8.434259877890e-05 -3.002568002087e-05 0.0 
-3.002568002087e-05 5.385348917960e-04 0.0 
0.0 0.0 -8.400000000000e-05 
-9.370207488883e-05 -2.126272979996e-05 0.0 
-2.126272979996e-05 6.064301356153e-04 0.0 
0.0 0.0 -9.400000000000e-05 
-1.036969649510e-04 8.247914357618e-06 0.0 
8.247914357618e-06 6.682236523530e-04 0.0 
0.0 0.0 -1.031244360596e-04 
-1.030331121809e-04 6.398061947281e-07 0.0 
6.398061947281e-07 6.730085857154e-04 0.0 
0.0 0.0 -1.036639830904e-04 
-1.040246848300e-04 6.551258288294e-07 0.0 
6.551258288294e-07 6.737003815122e-04 0.0 
0.0 0.0 -1.036786795573e-04 
-1.036199691061e-04 -1.060092899920e-06 0.0 
-1.060092899920e-06 6.728402332334e-04 0.0 
0.0 0.0 -1.035503476195e-04 
-1.036187730866e-04 6.987826892712e-07 0.0 
6.987826892712e-07 6.843234116976e-04 0.0 
0.0 0.0 -1.047113471711e-04 
-1.033931728263e-04 8.121956357098e-07 0.0 
8.121956357098e-07 6.742373380345e-04 0.0 
0.0 0.0 -1.036717283195e-04 
-1.019647128334e-04 -9.227752753182e-07 0.0 
-9.227752753182e-07 6.731432047700e-04 0.0 
0.0 0.0 -1.035575096558e-04 
-1.024936313905e-04 1.772285713447e-06 0.0 
1.772285713447e-06 6.748371062497e-04 0.0 
0.0 0.0 -1.035838249569e-04 
-1.042470993802e-04 3.635416729023e-07 0.0 
3.635416729023e-07 6.762559263978e-04 0.0 
0.0 0.0 -1.038366668071e-04 
-1.045602445557e-04 1.897285970682e-06 0.0 
1.897285970682e-06 6.765304608455e-04 0.0 
0.0 0.0 -1.037414779538e-04 
-1.033276288020e-04 1.064407616834e-06 0.0 
1.064407616834e-06 6.759918874459e-04 0.0 
0.0 0.0 -1.036749887244e-04 
-1.038467522998e-04 5.163460192194e-07 0.0 
5.163460192194e-07 6.750993881616e-04 0.0 
0.0 0.0 -1.036742376103e-04 
-1.031100844336e-04 2.320623075698e-06 0.0 
2.320623075698e-06 6.745066352922e-04 0.0 
0.0 0.0 -1.037248800197e-04 
-1.035625589850e-04 3.164755832638e-06 0.0 
3.164755832638e-06 6.761520668862e-04 0.0 
0.0 0.0 -1.038372224314e-04 
-3.888660396223e-06 -2.385114651317e-06 0.0 
-2.385114651317e-06 2.042711759429e-05 0.0 
0.0 0.0 -4.472331749510e-06 
-5.169101753905e-06 -7.084154542495e-07 0.0 
-7.084154542495e-07 2.271348961565e-05 0.0 
0.0 0.0 -4.502040609288e-06 
-2.364246160799e-06 1.028376057694e-06 0.0 
1.028376057694e-06 2.131091607623e-05 0.0 
0.0 0.0 -4.337518410806e-06 
-1.587498611084e-06 -3.133011703373e-06 0.0 
-3.133011703373e-06 2.050781746996e-05 0.0 
0.0 0.0 -4.334754490686e-06 
-5.046560316982e-06 -4.634948452893e-06 0.0 
-4.634948452893e-06 2.392890582554e-05 0.0 
0.0 0.0 -4.561117883842e-06 
-6.265007612969e-06 -9.207565944816e-07 0.0 
-9.207565944816e-07 2.697395437511e-05 0.0 
0.0 0.0 -4.603166802451e-06 
-5.736513677339e-06 8.387511243074e-08 0.0 
8.387511243074e-08 2.687139260663e-05 0.0 
0.0 0.0 -4.588253942932e-06 
-4.839540945368e-06 -2.011555288387e-07 0.0 
-2.011555288387e-07 2.583465999306e-05 0.0 
0.0 0.0 -4.580819930830e-06 
-4.612792911559e-06 -5.630253563300e-07 0.0 
-5.630253563300e-07 2.605477154738e-05 0.0 
0.0 0.0 -4.566377142626e-06 
-3.958290915494e-06 -1.184167375848e-06 0.0 
-1.184167375848e-06 2.564531167106e-05 0.0 
0.0 0.0 -4.572797242576e-06 
-4.022129294500e-06 -2.439723680986e-06 0.0 
-2.439723680986e-06 2.664958176089e-05 0.0 
0.0 0.0 -4.590091569785e-06 
-6.268342663527e-06 6.977096205287e-07 0.0 
6.977096205287e-07 2.905288206764e-05 0.0 
0.0 0.0 -4.700025780019e-06 
-5.376994636987e-06 4.381417467922e-06 0.0 
4.381417467922e-06 2.721428218001e-05 0.0 
0.0 0.0 -4.652230755744e-06 
-2.838762493559e-06 1.392931258625e-06 0.0 
1.392931258625e-06 2.367722917541e-05 0.0 
0.0 0.0 -4.515582628821e-06 
-3.990779392774e-06 -6.597448414294e-07 0.0 
-6.597448414294e-07 2.387859913914e-05 0.0 
0.0 0.0 -4.562958168800e-06 
-6.201113197701e-06 2.425591329864e-07 0.0 
2.425591329864e-07 2.634678490736e-05 0.0 
0.0 0.0 -4.590849357655e-06 
-6.954870756754e-06 8.464675035122e-07 0.0 
8.464675035122e-07 2.697964767619e-05 0.0 
0.0 0.0 -4.587172474505e-06 
-4.599856540822e-06 4.128708826148e-06 0.0 
4.128708826148e-06 2.250512897823e-05 0.0 
0.0 0.0 -4.562260372237e-06 
-2.212869655358e-06 7.040915964333e-07 0.0 
7.040915964333e-07 1.983031900883e-05 0.0 
0.0 0.0 -4.417496077222e-06 
-6.697928404958e-05 -1.504192193542e-06 0.0 
-1.504192193542e-06 4.824328636224e-04 0.0 
0.0 0.0 -7.603287981858e-05 
-7.737336570414e-05 -4.285065514842e-06 0.0 
-4.285065514842e-06 5.100006595196e-04 0.0 
0.0 0.0 -7.802465986394e-05 
-7.795461064618e-05 3.520334225453e-06 0.0 
3.520334225453e-06 5.136791481777e-04 0.0 
0.0 0.0 -7.844444444444e-05 
-7.997231685466e-05 7.321965293131e-07 0.0 
7.321965293131e-07 5.125105629029e-04 0.0 
0.0 0.0 -7.844444444444e-05 
-7.865810308463e-05 1.811730070740e-06 0.0 
1.811730070740e-06 5.123099967887e-04 0.0 
0.0 0.0 -7.844444444444e-05 
-7.905309265269e-05 -4.697180707798e-08 0.0 
-4.697180707798e-08 5.119548236124e-04 0.0 
0.0 0.0 -7.844444444444e-05 
-7.912786845209e-05 -1.131377138239e-07 0.0 
-1.131377138239e-07 5.126040502517e-04 0.0 
0.0 0.0 -7.844444444444e-05 
-7.911824924096e-05 3.107094715985e-08 0.0 
3.107094715985e-08 5.127414754860e-04 0.0 
0.0 0.0 -7.844444444444e-05 
-7.904732139421e-05 2.681388719375e-07 0.0 
2.681388719375e-07 5.126890362013e-04 0.0 
0.0 0.0 -7.844444444444e-05 
-7.875454599533e-05 2.004792053073e-07 0.0 
2.004792053073e-07 5.124652515994e-04 0.0 
0.0 0.0 -7.844444444444e-05 
-7.865335863106e-05 -3.336170720939e-07 0.0 
-3.336170720939e-07 5.125471536451e-04 0.0 
0.0 0.0 -7.844444444444e-05 
-7.882072982989e-05 -2.624834006298e-07 0.0 
-2.624834006298e-07 5.127714236756e-04 0.0 
0.0 0.0 -7.844444444444e-05 
-7.859768019716e-05 2.531341379615e-08 0.0 
2.531341379615e-08 5.126124934010e-04 0.0 
0.0 0.0 -7.844444444444e-05 
-7.848783645861e-05 -3.654078232493e-08 0.0 
-3.654078232493e-08 5.124117610055e-04 0.0 
0.0 0.0 -7.844444444444e-05 
-7.840819563175e-05 -2.332482557913e-07 0.0 
-2.332482557913e-07 5.123110272374e-04 0.0 
0.0 0.0 -7.844444444444e-05 
-7.846059434830e-05 -3.756264083336e-07 0.0 
-3.756264083336e-07 5.122298863712e-04 0.0 
0.0 0.0 -7.844444444444e-05 
-7.846884303907e-05 -9.956373863804e-07 0.0 
-9.956373863804e-07 5.119303497163e-04 0.0 
0.0 0.0 -7.844444444444e-05 
-7.884768825053e-05 -2.178053230225e-06 0.0 
-2.178053230225e-06 5.053369688950e-04 0.0 
0.0 0.0 -7.844444444444e-05 
-7.527491016856e-05 1.566831846850e-05 0.0 
1.566831846850e-05 4.946391958303e-04 0.0 
0.0 0.0 -7.733333333333e-05 
-8.485563316515e-05 1.075809198226e-05 0.0 
1.075809198226e-05 5.391859337594e-04 0.0 
0.0 0.0 -8.400000000000e-05 
-8.409846415960e-05 9.414650263605e-07 0.0 
9.414650263605e-07 5.383995603087e-04 0.0 
0.0 0.0 -8.400000000000e-05 
-8.389555484943e-05 -6.021980322684e-07 0.0 
-6.021980322684e-07 5.381860091551e-04 0.0 
0.0 0.0 -8.400000000000e-05 
-8.398436323506e-05 -4.920223144165e-07 0.0 
-4.920223144165e-07 5.383843948043e-04 0.0 
0.0 0.0 -8.400000000000e-05 
-8.378599896788e-05 -1.313884382087e-07 0.0 
-1.313884382087e-07 5.383410839076e-04 0.0 
0.0 0.0 -8.400000000000e-05 
-8.397004303126e-05 1.320895791523e-07 0.0 
1.320895791523e-07 5.385599452968e-04 0.0 
0.0 0.0 -8.400000000000e-05 
-8.409172541067e-05 3.119498635538e-07 0.0 
3.119498635538e-07 5.388399091460e-04 0.0 
0.0 0.0 -8.400000000000e-05 
-8.425202054181e-05 -4.105999003094e-07 0.0 
-4.105999003094e-07 5.388170517081e-04 0.0 
0.0 0.0 -8.400000000000e-05 
-8.405009752117e-05 1.267934535993e-07 0.0 
1.267934535993e-07 5.383656166005e-04 0.0 
0.0 0.0 -8.400000000000e-05 
-8.446225278370e-05 7.431195345639e-07 0.0 
7.431195345639e-07 5.387309105085e-04 0.0 
0.0 0.0 -8.400000000000e-05 
-8.472976723877e-05 3.614371366169e-07 0.0 
3.614371366169e-07 5.389575801292e-04 0.0 
0.0 0.0 -8.400000000000e-05 
-8.468281700183e-05 1.764545941254e-07 0.0 
1.764545941254e-07 5.387723880717e-04 0.0 
0.0 0.0 -8.400000000000e-05 
-8.488166774851e-05 3.307409063184e-08 0.0 
3.307409063184e-08 5.387187096913e-04 0.0 
0.0 0.0 -8.400000000000e-05 
-8.470036612902e-05 2.233472977468e-07 0.0 
2.233472977468e-07 5.376128164124e-04 0.0 
0.0 0.0 -8.400000000000e-05 
-8.431282722659e-05 3.361858424154e-06 0.0 
3.361858424154e-06 5.388019778082e-04 0.0 
0.0 0.0 -8.400000000000e-05 
-8.416442060440e-05 -6.991529090742e-07 0.0 
-6.991529090742e-07 5.438481516276e-04 0.0 
0.0 0.0 -8.440087463557e-05 
-7.699797766990e-05 8.136884982107e-07 0.0 
8.136884982107e-07 5.256926397960e-04 0.0 
0.0 0.0 -8.280102040816e-05 
-8.729514730737e-05 2.431575192883e-06 0.0 
2.431575192883e-06 5.952071725442e-04 0.0 
0.0 0.0 -9.279292626141e-05 
-9.515402825116e-05 -3.487467194031e-07 0.0 
-3.487467194031e-07 6.124983923015e-04 0.0 
0.0 0.0 -9.439393679549e-05 
-9.530518963518e-05 1.748549076388e-06 0.0 
1.748549076388e-06 6.086982827348e-04 0.0 
0.0 0.0 -9.400000000000e-05 
-9.443822007151e-05 1.536080356852e-06 0.0 
1.536080356852e-06 6.081273132837e-04 0.0 
0.0 0.0 -9.400000000000e-05 
-9.455496517287e-05 4.180655032130e-07 0.0 
4.180655032130e-07 6.085997108048e-04 0.0 
0.0 0.0 -9.400000000000e-05 
-9.458632400686e-05 1.150725883443e-06 0.0 
1.150725883443e-06 6.089170576803e-04 0.0 
0.0 0.0 -9.400000000000e-05 
-9.431195159654e-05 1.533006736186e-06 0.0 
1.533006736186e-06 6.081280804878e-04 0.0 
0.0 0.0 -9.400000000000e-05 
-9.421230709675e-05 -1.354647329153e-07 0.0 
-1.354647329153e-07 6.080912884899e-04 0.0 
0.0 0.0 -9.400000000000e-05 
-9.337909431243e-05 6.942444443618e-07 0.0 
6.942444443618e-07 6.085993616068e-04 0.0 
0.0 0.0 -9.400000000000e-05 
-9.374302250683e-05 3.925743234368e-08 0.0 
3.925743234368e-08 6.082422955829e-04 0.0 
0.0 0.0 -9.400000000000e-05 
-9.357184311787e-05 3.344127971799e-07 0.0 
3.344127971799e-07 6.080020201806e-04 0.0 
0.0 0.0 -9.400000000000e-05 
-9.351707113181e-05 -1.166879688300e-06 0.0 
-1.166879688300e-06 6.078331273393e-04 0.0 
0.0 0.0 -9.400000000000e-05 
-9.397267376399e-05 -4.718022942719e-07 0.0 
-4.718022942719e-07 6.082084038474e-04 0.0 
0.0 0.0 -9.400000000000e-05 
-9.376740862845e-05 -1.478812201538e-06 0.0 
-1.478812201538e-06 6.074134740605e-04 0.0 
0.0 0.0 -9.400000000000e-05 
-9.429475212128e-05 -5.091328171579e-06 0.0 
-5.091328171579e-06 6.089719886990e-04 0.0 
0.0 0.0 -9.400000000000e-05 
-9.572461714176e-05 1.686230062982e-05 0.0 
1.686230062982e-05 6.103161186201e-04 0.0 
0.0 0.0 -9.400000000000e-05 
-9.168972231207e-06 3.086373565098e-06 0.0 
3.086373565098e-06 3.559574852661e-05 0.0 
0.0 0.0 -1.067913767518e-05 
-2.319324557595e-05 9.600073751645e-06 0.0 
9.600073751645e-06 1.051649730873e-04 0.0 
0.0 0.0 -2.186514004066e-05 
-3.270389502079e-05 1.247004681325e-05 0.0 
1.247004681325e-05 1.753354515574e-04 0.0 
0.0 0.0 -3.195214541711e-05 
-4.333142068931e-05 1.229963368923e-05 0.0 
1.229963368923e-05 2.470095009577e-04 0.0 
0.0 0.0 -4.202597925154e-05 
-5.334283756541e-05 5.153255213289e-06 0.0 
5.153255213289e-06 3.151067639109e-04 0.0 
0.0 0.0 -5.161396608484e-05 
-6.108066666722e-05 7.340749313707e-06 0.0 
7.340749313707e-06 3.847251305454e-04 0.0 
0.0 0.0 -6.162588342429e-05 
-7.306139943485e-05 7.918023931397e-06 0.0 
7.918023931397e-06 4.529799352535e-04 0.0 
0.0 0.0 -7.179487645214e-05 
-7.497012245692e-05 4.311534055672e-06 0.0 
4.311534055672e-06 5.043026023732e-04 0.0 
0.0 0.0 -7.976546830823e-05 
-8.509296828041e-05 3.418368169262e-06 0.0 
3.418368169262e-06 5.740185323213e-04 0.0 
0.0 0.0 -8.978403836533e-05 
-9.498556415872e-05 3.738944843297e-06 0.0 
3.738944843297e-06 6.453839669724e-04 0.0 
0.0 0.0 -9.979450657254e-05 
-2.903947000217e-05 4.451191488364e-07 0.0 
4.451191488364e-07 1.483933272917e-04 0.0 
0.0 0.0 -2.805418351568e-05 
-1.947382551544e-04 -2.159516415369e-06 0.0 
-2.159516415369e-06 1.315627443457e-03 0.0 
0.0 0.0 -1.955083413980e-04 
-8.567559438263e-06 -1.698793721464e-06 0.0 
-1.698793721464e-06 4.448364337142e-05 0.0 
0.0 0.0 -8.578267221574e-06 
-8.136868517871e-06 -4.367899646924e-06 0.0 
-4.367899646924e-06 4.087946457471e-05 0.0 
0.0 0.0 -8.341387659605e-06 
-1.954641214955e-04 3.125550394228e-06 0.0 
3.125550394228e-06 1.316340498285e-03 0.0 
0.0 0.0 -1.955041315648e-04 
-5.006254034077e-05 3.860488417876e-06 0.0 
3.860488417876e-06 2.918098893608e-04 0.0 
0.0 0.0 -4.819929352323e-05 
-1.113057377054e-04 -1.249747274644e-06 0.0 
-1.249747274644e-06 7.175137801225e-04 0.0 
0.0 0.0 -1.095085134540e-04 
-1.950754387674e-04 1.968519813096e-06 0.0 
1.968519813096e-06 1.314054090021e-03 0.0 
0.0 0.0 -1.951497400597e-04 
-6.837076637649e-05 -4.771419097857e-06 0.0 
-4.771419097857e-06 4.223371659246e-04 0.0 
0.0 0.0 -6.746904573659e-05 
-1.952596228174e-04 5.860291744707e-07 0.0 
5.860291744707e-07 1.317160681800e-03 0.0 
0.0 0.0 -1.956021977692e-04 
-8.896698281549e-05 5.176874405716e-07 0.0 
5.176874405716e-07 5.656380992247e-04 0.0 
0.0 0.0 -8.786970436408e-05 
-1.941939648637e-04 1.847287419424e-06 0.0 
1.847287419424e-06 1.320485000250e-03 0.0 
0.0 0.0 -1.961487763302e-04 
-7.650674215329e-06 1.236502144193e-06 0.0 
1.236502144193e-06 3.991553915001e-05 0.0 
0.0 0.0 -8.186248162006e-06 
-1.957069062092e-04 9.003290222840e-07 0.0 
9.003290222840e-07 1.317426151316e-03 0.0 
0.0 0.0 -1.956722400187e-04 
-1.089453835626e-04 2.369159746168e-06 0.0 
2.369159746168e-06 7.099109707760e-04 0.0 
0.0 0.0 -1.080461297714e-04 
-6.859129019067e-05 1.013206430907e-06 0.0 
1.013206430907e-06 4.370886358119e-04 0.0 
0.0 0.0 -6.960710895285e-05 
-1.371687672462e-04 1.989641405698e-06 0.0 
1.989641405698e-06 9.073488131676e-04 0.0 
0.0 0.0 -1.368826812983e-04 
-1.943229683407e-04 -1.445358278172e-06 0.0 
-1.445358278172e-06 1.315110082613e-03 0.0 
0.0 0.0 -1.951920106767e-04 
-1.956930830492e-04 2.604495501023e-06 0.0 
2.604495501023e-06 1.317782772153e-03 0.0 
0.0 0.0 -1.956442140825e-04 
-1.963197173795e-04 -2.638308879700e-06 0.0 
-2.638308879700e-06 1.317317020312e-03 0.0 
0.0 0.0 -1.954857917668e-04 
-1.946046977129e-04 1.619923868870e-06 0.0 
1.619923868870e-06 1.311223827380e-03 0.0 
0.0 0.0 -1.946591103862e-04 
-1.965700765428e-04 -3.277130686746e-06 0.0 
-3.277130686746e-06 1.319377863823e-03 0.0 
0.0 0.0 -1.957959275784e-04 
-1.125606473740e-04 1.719511349206e-06 0.0 
1.719511349206e-06 7.393436574216e-04 0.0 
0.0 0.0 -1.128301714015e-04 
-1.128503086942e-04 1.743206654311e-06 0.0 
1.743206654311e-06 7.389768954601e-04 0.0 
0.0 0.0 -1.129477424158e-04 
-1.131980592598e-04 -1.862024743753e-06 0.0 
-1.862024743753e-06 7.425708164452e-04 0.0 
0.0 0.0 -1.137040567910e-04 
-1.496411633683e-04 -5.197980004835e-06 0.0 
-5.197980004835e-06 9.903344520159e-04 0.0 
0.0 0.0 -1.492512252364e-04 
-1.950888054502e-04 -1.662594662544e-06 0.0 
-1.662594662544e-06 1.318271302421e-03 0.0 
0.0 0.0 -1.954311278458e-04 
-7.420624434335e-06 -2.743944179506e-06 0.0 
-2.743944179506e-06 4.036171462300e-05 0.0 
0.0 0.0 -8.192647634203e-06 
-9.873734262922e-06 8.287041108010e-07 0.0 
8.287041108010e-07 4.596430085012e-05 0.0 
0.0 0.0 -8.762595040287e-06 
-1.681367322331e-04 -1.737857054474e-07 0.0 
-1.737857054474e-07 1.127342030325e-03 0.0 
0.0 0.0 -1.684329593750e-04 
-1.137312378447e-04 2.941922033179e-06 0.0 
2.941922033179e-06 7.354400071240e-04 0.0 
0.0 0.0 -1.125050824252e-04 
-4.041482156002e-05 3.417558897106e-07 0.0 
3.417558897106e-07 2.241831831132e-04 0.0 
0.0 0.0 -3.891752881399e-05 
-1.947641557456e-04 7.923084531912e-07 0.0 
7.923084531912e-07 1.304507022875e-03 0.0 
0.0 0.0 -1.939800207710e-04 
-1.960054809974e-04 2.031047324451e-06 0.0 
2.031047324451e-06 1.320447363547e-03 0.0 
0.0 0.0 -1.960961780200e-04 
-1.959837947468e-04 7.548015026684e-07 0.0 
7.548015026684e-07 1.316397764372e-03 0.0 
0.0 0.0 -1.957100175409e-04 
-1.949003992159e-04 1.873708810936e-06 0.0 
1.873708810936e-06 1.312448359133e-03 0.0 
0.0 0.0 -1.946892349944e-04 
-1.963394652884e-04 -2.461762416476e-06 0.0 
-2.461762416476e-06 1.317843150582e-03 0.0 
0.0 0.0 -1.958367853254e-04 
-9.399904561966e-06 3.751811683983e-07 0.0 
3.751811683983e-07 4.607602797327e-05 0.0 
0.0 0.0 -8.777929302786e-06 
-1.121136777944e-04 2.136242843992e-06 0.0 
2.136242843992e-06 7.375316866664e-04 0.0 
0.0 0.0 -1.125147119063e-04 
-1.945054015985e-04 1.526423234173e-06 0.0 
1.526423234173e-06 1.305744790732e-03 0.0 
0.0 0.0 -1.939771297832e-04 
-1.693349048774e-04 -4.546658260319e-06 0.0 
-4.546658260319e-06 1.130612016236e-03 0.0 
0.0 0.0 -1.685397735077e-04 
-8.598075030748e-06 -2.223307893963e-06 0.0 
-2.223307893963e-06 4.388775337436e-05 0.0 
0.0 0.0 -8.698177642707e-06 
-8.871376934976e-05 -9.707224206822e-07 0.0 
-9.707224206822e-07 5.731446297532e-04 0.0 
0.0 0.0 -8.906156601093e-05 
-1.979802513817e-04 -1.566370620822e-06 0.0 
-1.566370620822e-06 1.328935425363e-03 0.0 
0.0 0.0 -1.967971955909e-04 
-6.059110968862e-05 -2.270349058910e-06 0.0 
-2.270349058910e-06 3.638632698663e-04 0.0 
0.0 0.0 -5.846208800394e-05 
-3.934380255029e-05 1.116524761702e-06 0.0 
1.116524761702e-06 2.201048627676e-04 0.0 
0.0 0.0 -3.823193484201e-05 
-7.905584954535e-05 -1.125239316858e-06 0.0 
-1.125239316858e-06 4.942495490073e-04 0.0 
0.0 0.0 -7.767853477808e-05 
-9.853492259670e-05 -1.059175576559e-06 0.0 
-1.059175576559e-06 6.356901872357e-04 0.0 
0.0 0.0 -9.791554816786e-05 
-1.758731503853e-05 -2.183232337716e-06 0.0 
-2.183232337716e-06 7.214564488676e-05 0.0 
0.0 0.0 -1.677835640721e-05 
-1.304400768820e-04 -1.226623402604e-06 0.0 
-1.226623402604e-06 8.588836031036e-04 0.0 
0.0 0.0 -1.302718197671e-04 
-1.976961881145e-04 -1.904942962871e-06 0.0 
-1.904942962871e-06 1.329827350337e-03 0.0 
0.0 0.0 -1.970859964037e-04 
-7.778984465367e-06 4.389754775789e-06 0.0 
4.389754775789e-06 4.119927433976e-05 0.0 
0.0 0.0 -8.754673005183e-06 
-1.866018908338e-04 -2.006069315689e-08 0.0 
-2.006069315689e-08 1.262553750678e-03 0.0 
0.0 0.0 -1.880896313740e-04 
-1.123534650814e-04 1.611587689509e-06 0.0 
1.611587689509e-06 7.392560460262e-04 0.0 
0.0 0.0 -1.129840772622e-04 
-1.171047806051e-04 7.449209117804e-07 0.0 
7.449209117804e-07 7.664746806855e-04 0.0 
0.0 0.0 -1.171402528589e-04 
-1.209300272193e-04 3.259751506580e-06 0.0 
3.259751506580e-06 8.015413982557e-04 0.0 
0.0 0.0 -1.217336839916e-04 
-1.273390226549e-04 -1.216641127310e-06 0.0 
-1.216641127310e-06 8.349727543367e-04 0.0 
0.0 0.0 -1.264258636278e-04 
-1.320700965903e-04 1.876866623280e-08 0.0 
1.876866623280e-08 8.692918616205e-04 0.0 
0.0 0.0 -1.317698771115e-04 
-1.368244106801e-04 -1.114619508482e-06 0.0 
-1.114619508482e-06 9.001255364591e-04 0.0 
0.0 0.0 -1.359061374524e-04 
-1.313516644010e-04 -1.071478350727e-06 0.0 
-1.071478350727e-06 8.642075030487e-04 0.0 
0.0 0.0 -1.306688636612e-04 
-1.406252513591e-04 -1.352739222539e-06 0.0 
-1.352739222539e-06 9.300768557182e-04 0.0 
0.0 0.0 -1.401216342492e-04 
-1.355168506451e-04 -8.441429406154e-07 0.0 
-8.441429406154e-07 8.933027720166e-04 0.0 
0.0 0.0 -1.348466119664e-04 
-1.406309551036e-04 -1.423065028085e-06 0.0 
-1.423065028085e-06 9.373189590449e-04 0.0 
0.0 0.0 -1.412262538548e-04 
-1.447717080924e-04 -1.617847745048e-06 0.0 
-1.617847745048e-06 9.594996109507e-04 0.0 
0.0 0.0 -1.443446404888e-04 
-1.395639979808e-04 -9.495865010562e-07 0.0 
-9.495865010562e-07 9.223387170950e-04 0.0 
0.0 0.0 -1.390295894150e-04 
-1.488518955481e-04 -1.324901186338e-06 0.0 
-1.324901186338e-06 9.887094425207e-04 0.0 
0.0 0.0 -1.485505823874e-04 
-1.436922961000e-04 -1.046451979584e-06 0.0 
-1.046451979584e-06 9.515310653716e-04 0.0 
0.0 0.0 -1.432156325536e-04 
-1.343600788387e-04 -5.167793523512e-07 0.0 
-5.167793523512e-07 8.856735470671e-04 0.0 
0.0 0.0 -1.337521069633e-04 
-1.385105152453e-04 -4.710394907328e-07 0.0 
-4.710394907328e-07 9.146329712672e-04 0.0 
0.0 0.0 -1.379179829106e-04 
-1.289648752830e-04 -8.618976580085e-08 0.0 
-8.618976580085e-08 8.489207055611e-04 0.0 
0.0 0.0 -1.284753219673e-04 
-1.331501462654e-04 -2.281806353288e-07 0.0 
-2.281806353288e-07 8.778469958775e-04 0.0 
0.0 0.0 -1.326245976321e-04 
-1.426230691977e-04 -3.445547381829e-07 0.0 
-3.445547381829e-07 9.438219498313e-04 0.0 
0.0 0.0 -1.420797641308e-04 
-1.372349024752e-04 -4.912623478829e-07 0.0 
-4.912623478829e-07 9.068017641173e-04 0.0 
0.0 0.0 -1.367729294110e-04 
-1.278087679959e-04 -1.828532417458e-07 0.0 
-1.828532417458e-07 8.408634527744e-04 0.0 
0.0 0.0 -1.273259478075e-04 
-1.318398283045e-04 -3.075890479270e-07 0.0 
-3.075890479270e-07 8.695930318134e-04 0.0 
0.0 0.0 -1.314613401273e-04 
-1.224174681950e-04 5.152664304940e-08 0.0 
5.152664304940e-08 8.039186497448e-04 0.0 
0.0 0.0 -1.220343484428e-04 
-1.264174440320e-04 -1.610988413995e-07 0.0 
-1.610988413995e-07 8.325618017429e-04 0.0 
0.0 0.0 -1.261611736566e-04 
-1.170510544419e-04 2.223926002140e-08 0.0 
2.223926002140e-08 7.668217430428e-04 0.0 
0.0 0.0 -1.167242641243e-04 
-1.210374224200e-04 -1.474818318750e-07 0.0 
-1.474818318750e-07 7.955505097843e-04 0.0 
0.0 0.0 -1.208544874677e-04 
-1.304043414113e-04 -3.154242512108e-07 0.0 
-3.154242512108e-07 8.613589922912e-04 0.0 
0.0 0.0 -1.303042425932e-04 
-1.250914766715e-04 -9.789090931182e-08 0.0 
-9.789090931182e-08 8.242842117775e-04 0.0 
0.0 0.0 -1.249864172613e-04 
-1.156698454984e-04 4.104440089511e-08 0.0 
4.104440089511e-08 7.584999711117e-04 0.0 
0.0 0.0 -1.155496960434e-04 
-1.197696986214e-04 6.686600869331e-08 0.0 
6.686600869331e-08 7.872430335080e-04 0.0 
0.0 0.0 -1.196691756306e-04 
-1.103345672185e-04 1.936070379505e-07 0.0 
1.936070379505e-07 7.215726378401e-04 0.0 
0.0 0.0 -1.102360968649e-04 
-1.143831646187e-04 2.841694026702e-07 0.0 
2.841694026702e-07 7.499983246613e-04 0.0 
0.0 0.0 -1.143358844566e-04 
-1.238585560106e-04 1.680319022196e-07 0.0 
1.680319022196e-07 8.159376449007e-04 0.0 
0.0 0.0 -1.237972835831e-04 
-1.185140209161e-04 8.396902968236e-08 0.0 
8.396902968236e-08 7.787352394438e-04 0.0 
0.0 0.0 -1.184549252722e-04 
-1.089992092054e-04 6.281890232422e-08 0.0 
6.281890232422e-08 7.122982226840e-04 0.0 
0.0 0.0 -1.089619939006e-04 
-1.132389115670e-04 -1.057915283391e-07 0.0 
-1.057915283391e-07 7.414300503039e-04 0.0 
0.0 0.0 -1.130977248571e-04 
-1.037240861722e-04 -4.723566763673e-07 0.0 
-4.723566763673e-07 6.746986895894e-04 0.0 
0.0 0.0 -1.035578799258e-04 
-1.079391861501e-04 -9.525050174505e-10 0.0 
-9.525050174505e-10 7.042191649168e-04 0.0 
0.0 0.0 -1.077352770641e-04 
-9.832371136087e-05 -3.508088035029e-07 0.0 
-3.508088035029e-07 6.371418654706e-04 0.0 
0.0 0.0 -9.813603890825e-05 
-1.025291601956e-04 7.520025507380e-08 0.0 
7.520025507380e-08 6.664875104737e-04 0.0 
0.0 0.0 -1.023264466889e-04 
-1.121330899491e-04 -3.201268622921e-08 0.0 
-3.201268622921e-08 7.333893815298e-04 0.0 
0.0 0.0 -1.119135318789e-04 
-1.067345759512e-04 -1.457462253013e-07 0.0 
-1.457462253013e-07 6.958135066491e-04 0.0 
0.0 0.0 -1.065124872911e-04 
-9.708388481881e-05 -1.123756317370e-07 0.0 
-1.123756317370e-07 6.287043899204e-04 0.0 
0.0 0.0 -9.687936111797e-05 
-1.012280793484e-04 -2.016817593289e-07 0.0 
-2.016817593289e-07 6.578039102236e-04 0.0 
0.0 0.0 -1.010667964543e-04 
-1.108655634829e-04 -2.805142089434e-07 0.0 
-2.805142089434e-07 7.250705567917e-04 0.0 
0.0 0.0 -1.107220969010e-04 
-1.053738009019e-04 -2.657681640372e-07 0.0 
-2.657681640372e-07 6.869604308345e-04 0.0 
0.0 0.0 -1.052625016289e-04 
-1.150267739913e-04 -3.300558054111e-07 0.0 
-3.300558054111e-07 7.543777337130e-04 0.0 
0.0 0.0 -1.149374102432e-04 
-1.095605670490e-04 -1.992187362342e-07 0.0 
-1.992187362342e-07 7.162738244309e-04 0.0 
0.0 0.0 -1.094674241824e-04 
-9.992608341546e-05 -2.285291460902e-07 0.0 
-2.285291460902e-07 6.491377746979e-04 0.0 
0.0 0.0 -9.983047339662e-05 
-1.041038271013e-04 -4.784792107379e-08 0.0 
-4.784792107379e-08 6.783667909797e-04 0.0 
0.0 0.0 -1.040110107548e-04 
-1.137411101647e-04 -1.005325563355e-07 0.0 
-1.005325563355e-07 7.455825181624e-04 0.0 
0.0 0.0 -1.136680319875e-04 
-1.082869868131e-04 -5.329032704077e-08 0.0 
-5.329032704077e-08 7.073386927023e-04 0.0 
0.0 0.0 -1.081830392180e-04 
-9.869624350956e-05 -1.279251488152e-07 0.0 
-1.279251488152e-07 6.404070926404e-04 0.0 
0.0 0.0 -9.856705257735e-05 
-1.028159541346e-04 2.106799420310e-07 0.0 
2.106799420310e-07 6.694648529012e-04 0.0 
0.0 0.0 -1.027256921484e-04 
-1.124881435347e-04 1.468300417498e-07 0.0 
1.468300417498e-07 7.366254737130e-04 0.0 
0.0 0.0 -1.123746868942e-04 
-1.069630032943e-04 3.797193907440e-07 0.0 
3.797193907440e-07 6.984570345631e-04 0.0 
0.0 0.0 -1.069064678657e-04 
-9.735694714147e-05 3.040392105123e-07 0.0 
3.040392105123e-07 6.314702925721e-04 0.0 
0.0 0.0 -9.729074097479e-05 
-1.014698791265e-04 5.263077294053e-07 0.0 
5.263077294053e-07 6.606218601415e-04 0.0 
0.0 0.0 -1.014450936127e-04 
-1.111588134786e-04 4.465606502621e-07 0.0 
4.465606502621e-07 7.280983055299e-04 0.0 
0.0 0.0 -1.111412434799e-04 
-1.056103560307e-04 3.527345838497e-07 0.0 
3.527345838497e-07 6.896411777924e-04 0.0 
0.0 0.0 -1.056341277852e-04 
-9.592602067126e-05 5.327638544791e-07 0.0 
5.327638544791e-07 6.223325700671e-04 0.0 
0.0 0.0 -9.597584338962e-05 
-1.000042351432e-04 6.050193751295e-07 0.0 
6.050193751295e-07 6.512858928885e-04 0.0 
0.0 0.0 -1.001195007473e-04 
-1.097885953069e-04 3.509867728239e-07 0.0 
3.509867728239e-07 7.191866513993e-04 0.0 
0.0 0.0 -1.098732949993e-04 
-1.041219874635e-04 4.565113330363e-07 0.0 
4.565113330363e-07 6.802416856987e-04 0.0 
0.0 0.0 -1.043104098158e-04 
-1.139943776011e-04 2.608804957770e-07 0.0 
2.608804957770e-07 7.487261930972e-04 0.0 
0.0 0.0 -1.141349681178e-04 
-9.432131286435e-05 6.931090399304e-07 0.0 
6.931090399304e-07 6.120807620329e-04 0.0 
0.0 0.0 -9.453138577379e-05 
-9.843300825502e-05 3.791394769862e-07 0.0 
3.791394769862e-07 6.410640369442e-04 0.0 
0.0 0.0 -9.871483819285e-05 
-8.857532524913e-05 7.670792375352e-07 0.0 
7.670792375352e-07 5.725816228305e-04 0.0 
0.0 0.0 -8.888275660121e-05 
-9.270105845016e-05 2.622529703410e-07 0.0 
2.622529703410e-07 6.018362902946e-04 0.0 
0.0 0.0 -9.310666704106e-05 
-1.280450341640e-04 2.022914446804e-07 0.0 
2.022914446804e-07 8.448927114390e-04 0.0 
0.0 0.0 -1.279397651938e-04 
-8.276712932225e-05 6.443736138370e-07 0.0 
6.443736138370e-07 5.330826812988e-04 0.0 
0.0 0.0 -8.324826898147e-05 
-7.884768894366e-05 1.023704289178e-06 0.0 
1.023704289178e-06 5.047676539199e-04 0.0 
0.0 0.0 -7.914375511354e-05 
-8.697616798037e-05 -7.331328903707e-10 0.0 
-7.331328903707e-10 5.626687258914e-04 0.0 
0.0 0.0 -8.749891481923e-05 
-9.702972984445e-05 -9.951343649239e-08 0.0 
-9.951343649239e-08 6.318920870484e-04 0.0 
0.0 0.0 -9.740424872913e-05 
-7.706547232469e-05 2.380236829533e-07 0.0 
2.380236829533e-07 4.936160224660e-04 0.0 
0.0 0.0 -7.760805980730e-05 
-8.127460870577e-05 -1.704001729844e-07 0.0 
-1.704001729844e-07 5.235024448564e-04 0.0 
0.0 0.0 -8.188641417383e-05 
-7.155045226521e-05 3.113369261567e-07 0.0 
3.113369261567e-07 4.544691373911e-04 0.0 
0.0 0.0 -7.197242596511e-05 
-9.398834813403e-05 -4.649841708638e-07 0.0 
-4.649841708638e-07 6.067163141264e-04 0.0 
0.0 0.0 -9.378238744040e-05 
-1.466888889075e-04 -6.905876409821e-07 0.0 
-6.905876409821e-07 9.729931165237e-04 0.0 
0.0 0.0 -1.462607504514e-04 
-7.572467440231e-05 1.210487184868e-07 0.0 
1.210487184868e-07 4.846162633768e-04 0.0 
0.0 0.0 -7.626743364961e-05 
-6.621416197033e-05 -1.397216265960e-07 0.0 
-1.397216265960e-07 4.154095652474e-04 0.0 
0.0 0.0 -6.634679566782e-05 
-6.190172954625e-05 4.165851450949e-07 0.0 
4.165851450949e-07 3.853087909955e-04 0.0 
0.0 0.0 -6.205237226325e-05 
-5.628575454228e-05 3.940532300385e-08 0.0 
3.940532300385e-08 3.460724695174e-04 0.0 
0.0 0.0 -5.642855255362e-05 
-1.354938510920e-04 -2.913953566673e-06 0.0 
-2.913953566673e-06 9.082152710087e-04 0.0 
0.0 0.0 -1.368953805519e-04 
-1.462552660591e-04 1.249747586105e-07 0.0 
1.249747586105e-07 9.752174249571e-04 0.0 
0.0 0.0 -1.465891790687e-04 
-1.414040401139e-04 -1.271486640511e-06 0.0 
-1.271486640511e-06 9.428451641582e-04 0.0 
0.0 0.0 -1.420291944686e-04 
-1.520026480131e-04 -3.631190555519e-07 0.0 
-3.631190555519e-07 1.012864624851e-03 0.0 
0.0 0.0 -1.519432683735e-04 
-1.472985787471e-04 -1.382728633740e-06 0.0 
-1.382728633740e-06 9.819853291120e-04 0.0 
0.0 0.0 -1.475277143832e-04 
-6.049783873772e-05 -1.110839167728e-06 0.0 
-1.110839167728e-06 3.760535738177e-04 0.0 
0.0 0.0 -6.071687451653e-05 
-1.539446624240e-04 -1.181077219234e-06 0.0 
-1.181077219234e-06 1.026370553893e-03 0.0 
0.0 0.0 -1.540030753513e-04 
-1.562964739112e-04 4.946292658218e-07 0.0 
4.946292658218e-07 1.043020722120e-03 0.0 
0.0 0.0 -1.563396320792e-04 
-1.184118913967e-04 1.857139776562e-07 0.0 
1.857139776562e-07 7.754976810309e-04 0.0 
0.0 0.0 -1.179280690692e-04 
-1.062500152817e-04 1.741187945377e-07 0.0 
1.741187945377e-07 6.928514360504e-04 0.0 
0.0 0.0 -1.061413340584e-04 
-1.205167248159e-04 -5.462407212351e-07 0.0 
-5.462407212351e-07 7.925156879070e-04 0.0 
0.0 0.0 -1.204127835607e-04 
-8.548976471001e-05 -7.615656520967e-07 0.0 
-7.615656520967e-07 5.535587085213e-04 0.0 
0.0 0.0 -8.618857558133e-05 
-7.988885271144e-05 1.897397534693e-07 0.0 
1.897397534693e-07 5.152050676733e-04 0.0 
0.0 0.0 -8.057008281249e-05 
-9.032121231226e-05 -1.684930927318e-06 0.0 
-1.684930927318e-06 5.843848000393e-04 0.0 
0.0 0.0 -9.050178936823e-05 
-1.196337930892e-04 1.102008659663e-07 0.0 
1.102008659663e-07 7.876256328336e-04 0.0 
0.0 0.0 -1.197064290626e-04 
-1.239088484819e-04 1.270562820447e-07 0.0 
1.270562820447e-07 8.174720289214e-04 0.0 
0.0 0.0 -1.239919845821e-04 
-1.295076006245e-04 6.163016450208e-08 0.0 
6.163016450208e-08 8.563536897128e-04 0.0 
0.0 0.0 -1.295728275001e-04 
-1.338245653935e-04 6.187832994800e-08 0.0 
6.187832994800e-08 8.862996102706e-04 0.0 
0.0 0.0 -1.338680086136e-04 
-1.393975761356e-04 4.550308926586e-08 0.0 
4.550308926586e-08 9.252125319019e-04 0.0 
0.0 0.0 -1.394574676997e-04 
-1.437406368722e-04 1.277074154763e-07 0.0 
1.277074154763e-07 9.552601406530e-04 0.0 
0.0 0.0 -1.437562178924e-04 
-1.381365115215e-04 -6.384328167060e-08 0.0 
-6.384328167060e-08 9.162527365186e-04 0.0 
0.0 0.0 -1.381609243235e-04 
-1.481035666194e-04 -1.079358485102e-07 0.0 
-1.079358485102e-07 9.853010756590e-04 0.0 
0.0 0.0 -1.480541560501e-04 
-1.424433669279e-04 -2.461913392847e-07 0.0 
-2.461913392847e-07 9.462005835288e-04 0.0 
0.0 0.0 -1.424551100593e-04 
-1.492800736972e-04 1.903860536895e-07 0.0 
1.903860536895e-07 9.941570401524e-04 0.0 
0.0 0.0 -1.493525342080e-04 
-1.449751840430e-04 -1.306362921351e-07 0.0 
-1.306362921351e-07 9.640748764024e-04 0.0 
0.0 0.0 -1.450229800689e-04 
-1.523999948246e-04 -3.989684281702e-07 0.0 
-3.989684281702e-07 1.015224728092e-03 0.0 
0.0 0.0 -1.523522284989e-04 
-1.467103464147e-04 -2.659540217928e-07 0.0 
-2.659540217928e-07 9.761558421408e-04 0.0 
0.0 0.0 -1.467489045856e-04 
-1.565625592364e-04 -4.158419287493e-07 0.0 
-4.158419287493e-07 1.045129081510e-03 0.0 
0.0 0.0 -1.566543602455e-04 
-1.508966779748e-04 -3.393169835015e-07 0.0 
-3.393169835015e-07 1.005998704446e-03 0.0 
0.0 0.0 -1.510511651883e-04 
-1.410712457468e-04 -1.790301414096e-07 0.0 
-1.790301414096e-07 9.369358529960e-04 0.0 
0.0 0.0 -1.411301529270e-04 
-1.452736367783e-04 -1.279390741405e-07 0.0 
-1.279390741405e-07 9.667244667063e-04 0.0 
0.0 0.0 -1.454254449112e-04 
-1.355658465602e-04 -3.525019047488e-07 0.0 
-3.525019047488e-07 8.980272974833e-04 0.0 
0.0 0.0 -1.355350811980e-04 
-1.247169685603e-04 -5.424891476076e-07 0.0 
-5.424891476076e-07 8.219820472476e-04 0.0 
0.0 0.0 -1.246443719175e-04 
-1.302412994967e-04 -6.709375140069e-07 0.0 
-6.709375140069e-07 8.602885817839e-04 0.0 
0.0 0.0 -1.301366355066e-04 
-1.344319823677e-04 -5.992072868323e-07 0.0 
-5.992072868323e-07 8.897694935505e-04 0.0 
0.0 0.0 -1.343775141111e-04 
-1.400237331498e-04 -7.656893218292e-07 0.0 
-7.656893218292e-07 9.282252120942e-04 0.0 
0.0 0.0 -1.398832378697e-04 
-1.441786028548e-04 -7.248633173166e-07 0.0 
-7.248633173166e-07 9.577423680475e-04 0.0 
0.0 0.0 -1.441376510238e-04 
-1.498975004286e-04 -8.881523903681e-07 0.0 
-8.881523903681e-07 9.963296213112e-04 0.0 
0.0 0.0 -1.496454511588e-04 
-1.540303661717e-04 -7.919312302377e-07 0.0 
-7.919312302377e-07 1.025660690864e-03 0.0 
0.0 0.0 -1.539048756661e-04 
-1.483333586792e-04 -5.305309886562e-07 0.0 
-5.305309886562e-07 9.873032168340e-04 0.0 
0.0 0.0 -1.483914164041e-04 
-1.531422374596e-04 -8.663739869801e-07 0.0 
-8.663739869801e-07 1.017764678093e-03 0.0 
0.0 0.0 -1.527153750466e-04 
-9.159847415972e-05 -1.256689801575e-07 0.0 
-1.256689801575e-07 5.906791861929e-04 0.0 
0.0 0.0 -9.143391812226e-05 
-8.744560526880e-05 -1.314299425382e-07 0.0 
-1.314299425382e-07 5.615762013321e-04 0.0 
0.0 0.0 -8.725348065585e-05 
-8.202336977827e-05 5.298561278517e-08 0.0 
5.298561278517e-08 5.236724682599e-04 0.0 
0.0 0.0 -8.181782897632e-05 
-7.787136643021e-05 -4.089849052197e-08 0.0 
-4.089849052197e-08 4.946511796611e-04 0.0 
0.0 0.0 -7.764583100160e-05 
-7.249839660415e-05 3.138088007648e-07 0.0 
3.138088007648e-07 4.567503960433e-04 0.0 
0.0 0.0 -7.221245969917e-05 
-6.836637044469e-05 1.575150055604e-07 0.0 
1.575150055604e-07 4.279278736544e-04 0.0 
0.0 0.0 -6.805748655366e-05 
-6.305635467696e-05 5.617632190065e-07 0.0 
5.617632190065e-07 3.898265041818e-04 0.0 
0.0 0.0 -6.258396351101e-05 
-6.700103591366e-05 8.220641914788e-07 0.0 
8.220641914788e-07 4.186472656110e-04 0.0 
0.0 0.0 -6.675491739715e-05 
-5.754489831194e-05 1.185749684510e-06 0.0 
1.185749684510e-06 3.514253860379e-04 0.0 
0.0 0.0 -5.707878267586e-05 
-6.126290636031e-05 1.086382821669e-06 0.0 
1.086382821669e-06 3.802508716618e-04 0.0 
0.0 0.0 -6.128043668686e-05 
-5.191997638371e-05 1.314501197429e-06 0.0 
1.314501197429e-06 3.126420855080e-04 0.0 
0.0 0.0 -5.156902369321e-05 
-5.548063518944e-05 1.243851983737e-06 0.0 
1.243851983737e-06 3.415672031581e-04 0.0 
0.0 0.0 -5.575645035334e-05 
-1.344754893882e-04 -2.441387490925e-07 0.0 
-2.441387490925e-07 8.901905827652e-04 0.0 
0.0 0.0 -1.344534760290e-04 
-1.456336275119e-04 -7.568221187932e-07 0.0 
-7.568221187932e-07 9.666800779835e-04 0.0 
0.0 0.0 -1.453735332694e-04 
-1.555049783814e-04 -4.155015620935e-07 0.0 
-4.155015620935e-07 1.035032948266e-03 0.0 
0.0 0.0 -1.551468130506e-04 
-1.509958831296e-04 -4.550450407199e-07 0.0 
-4.550450407199e-07 1.004729653599e-03 0.0 
0.0 0.0 -1.507981208515e-04 
-5.237773532105e-05 7.911299625011e-08 0.0 
7.911299625011e-08 3.162172589784e-04 0.0 
0.0 0.0 -5.213283032136e-05 
-1.549595763032e-04 -3.953475088672e-07 0.0 
-3.953475088672e-07 1.035774981690e-03 0.0 
0.0 0.0 -1.553660438793e-04 
-1.548355158551e-04 -2.147058021658e-07 0.0 
-2.147058021658e-07 1.033072477775e-03 0.0 
0.0 0.0 -1.549384463224e-04 
-1.505618374828e-04 -5.346193515462e-07 0.0 
-5.346193515462e-07 1.002549198399e-03 0.0 
0.0 0.0 -1.505609887339e-04 
-1.581943545466e-04 -1.140192146814e-07 0.0 
-1.140192146814e-07 1.055484497313e-03 0.0 
0.0 0.0 -1.581898251365e-04 
-5.074202381651e-05 -4.469562897144e-07 0.0 
-4.469562897144e-07 3.073591846823e-04 0.0 
0.0 0.0 -5.088881735611e-05 
-5.888894202551e-05 -5.741143861351e-08 0.0 
-5.741143861351e-08 3.614604751917e-04 0.0 
0.0 0.0 -5.849107602244e-05 
-6.412075790079e-05 -1.262278375689e-08 0.0 
-1.262278375689e-08 3.988248925712e-04 0.0 
0.0 0.0 -6.391656864161e-05 
-1.574092422667e-04 -9.339425827556e-07 0.0 
-9.339425827556e-07 1.050297343269e-03 0.0 
0.0 0.0 -1.573311895261e-04 
-1.526877283991e-04 -1.284456620320e-06 0.0 
-1.284456620320e-06 1.019137079127e-03 0.0 
0.0 0.0 -1.529187321887e-04 
-1.603825137223e-04 -5.841749785691e-07 0.0 
-5.841749785691e-07 1.071965760526e-03 0.0 
0.0 0.0 -1.605236522104e-04 
-5.469413786455e-05 -7.281622474744e-07 0.0 
-7.281622474744e-07 3.375315586186e-04 0.0 
0.0 0.0 -5.513621196740e-05 
-1.581536908889e-04 -3.654449846176e-07 0.0 
-3.654449846176e-07 1.054473463793e-03 0.0 
0.0 0.0 -1.579496168166e-04 
-4.796468630861e-05 1.896906112626e-06 0.0 
1.896906112626e-06 2.843046372018e-04 0.0 
0.0 0.0 -4.740762976608e-05 
-1.492957563781e-04 2.220942752480e-07 0.0 
2.220942752480e-07 9.964627124321e-04 0.0 
0.0 0.0 -1.497345920687e-04 
-1.590878470858e-04 -2.496159838046e-07 0.0 
-2.496159838046e-07 1.065574434498e-03 0.0 
0.0 0.0 -1.596751832792e-04 
-1.325072402165e-04 -1.969088110070e-07 0.0 
-1.969088110070e-07 8.772948073459e-04 0.0 
0.0 0.0 -1.325798954328e-04 
-1.608189791387e-04 2.014272611917e-07 0.0 
2.014272611917e-07 1.073406976442e-03 0.0 
0.0 0.0 -1.606363799130e-04 
-1.561309716741e-04 -2.339592577674e-07 0.0 
-2.339592577674e-07 1.041858527671e-03 0.0 
0.0 0.0 -1.562164154417e-04 
-6.542148837339e-05 5.946748364299e-07 0.0 
5.946748364299e-07 4.098578497775e-04 0.0 
0.0 0.0 -6.552037126556e-05 
-6.021736437679e-05 -6.684208511404e-07 0.0 
-6.684208511404e-07 3.714517723808e-04 0.0 
0.0 0.0 -6.000043125475e-05 
-5.068915045621e-05 -1.408380561498e-07 0.0 
-1.408380561498e-07 3.045038040978e-04 0.0 
0.0 0.0 -5.043265711026e-05 
-5.453954142818e-05 2.060651504186e-07 0.0 
2.060651504186e-07 3.366924109337e-04 0.0 
0.0 0.0 -5.469261876575e-05 
-6.451407366441e-05 2.351316534634e-07 0.0 
2.351316534634e-07 4.022325511173e-04 0.0 
0.0 0.0 -6.426716227193e-05 
-5.833627625562e-05 1.475332914289e-06 0.0 
1.475332914289e-06 3.627446873596e-04 0.0 
0.0 0.0 -5.871258337438e-05 
-4.807156131251e-05 2.860984901678e-06 0.0 
2.860984901678e-06 2.943856579529e-04 0.0 
0.0 0.0 -4.913324142619e-05 
-5.254361987426e-05 1.123300701462e-06 0.0 
1.123300701462e-06 3.235079135303e-04 0.0 
0.0 0.0 -5.312780584397e-05 
-6.250659233249e-05 1.032214388617e-06 0.0 
1.032214388617e-06 3.916354902735e-04 0.0 
0.0 0.0 -6.289080004402e-05 
-5.683371271564e-05 6.514617663209e-07 0.0 
6.514617663209e-07 3.524304224725e-04 0.0 
0.0 0.0 -5.728364188530e-05 
-4.626688611708e-05 9.433782266078e-08 0.0 
9.433782266078e-08 2.835389789337e-04 0.0 
0.0 0.0 -4.745589417336e-05 
-5.129426302525e-05 -1.503356296708e-07 0.0 
-1.503356296708e-07 3.125902668457e-04 0.0 
0.0 0.0 -5.163203607156e-05 
-1.648607225605e-04 -6.089305084909e-07 0.0 
-6.089305084909e-07 1.104792906558e-03 0.0 
0.0 0.0 -1.652812738464e-04 
-4.167405797836e-05 8.410179837610e-07 0.0 
8.410179837610e-07 2.451219688669e-04 0.0 
0.0 0.0 -4.186284350154e-05 
-1.249684890118e-04 -2.205649056543e-07 0.0 
-2.205649056543e-07 8.202073805391e-04 0.0 
0.0 0.0 -1.243305906297e-04 
-1.646630308387e-04 -1.022913161014e-08 0.0 
-1.022913161014e-08 1.101899429601e-03 0.0 
0.0 0.0 -1.648518411109e-04 
-1.639675080930e-04 -1.299974009233e-07 0.0 
-1.299974009233e-07 1.093025674446e-03 0.0 
0.0 0.0 -1.635990625314e-04 
-1.626548351363e-04 -9.421237167934e-07 0.0 
-9.421237167934e-07 1.087804894673e-03 0.0 
0.0 0.0 -1.627548864773e-04 
-1.581986558715e-04 -9.653447949461e-07 0.0 
-9.653447949461e-07 1.056782727253e-03 0.0 
0.0 0.0 -1.583405447554e-04 
-1.481377693349e-04 -2.120708352150e-07 0.0 
-2.120708352150e-07 9.876266265678e-04 0.0 
0.0 0.0 -1.484606848305e-04 
-1.540154319252e-04 -3.355995825505e-07 0.0 
-3.355995825505e-07 1.026130043866e-03 0.0 
0.0 0.0 -1.539002516356e-04 
-1.639459642661e-04 -1.118185498440e-06 0.0 
-1.118185498440e-06 1.095163385158e-03 0.0 
0.0 0.0 -1.637913674505e-04 
-1.597127986535e-04 -5.251908400988e-07 0.0 
-5.251908400988e-07 1.064343135399e-03 0.0 
0.0 0.0 -1.593514347843e-04 
-1.498284746973e-04 -2.503307102558e-07 0.0 
-2.503307102558e-07 9.952508194671e-04 0.0 
0.0 0.0 -1.494394109873e-04 
-1.551654717719e-04 -2.221504212274e-07 0.0 
-2.221504212274e-07 1.032948984562e-03 0.0 
0.0 0.0 -1.548970433853e-04 
-1.450485534152e-04 -2.383136960808e-07 0.0 
-2.383136960808e-07 9.636019756158e-04 0.0 
0.0 0.0 -1.449683599891e-04 
-1.505550421048e-04 1.094892235923e-07 0.0 
1.094892235923e-07 1.001407844642e-03 0.0 
0.0 0.0 -1.504333548381e-04 
-1.604309941691e-04 -2.109459501863e-07 0.0 
-2.109459501863e-07 1.070618892500e-03 0.0 
0.0 0.0 -1.603701620288e-04 
-1.560376916017e-04 -3.456752304364e-07 0.0 
-3.456752304364e-07 1.039490983705e-03 0.0 
0.0 0.0 -1.559081117414e-04 
-1.463603444154e-04 5.238436514868e-07 0.0 
5.238436514868e-07 9.703937077682e-04 0.0 
0.0 0.0 -1.459586303199e-04 
-1.516966554836e-04 -5.880015514228e-07 0.0 
-5.880015514228e-07 1.008208762980e-03 0.0 
0.0 0.0 -1.514361790689e-04 
-1.421096498293e-04 1.604631745138e-07 0.0 
1.604631745138e-07 9.389173202103e-04 0.0 
0.0 0.0 -1.414740555389e-04 
-1.468086585315e-04 -1.361458900587e-06 0.0 
-1.361458900587e-06 9.758542090481e-04 0.0 
0.0 0.0 -1.469409179663e-04 
-1.568420766373e-04 -2.584461478695e-07 0.0 
-2.584461478695e-07 1.046197364230e-03 0.0 
0.0 0.0 -1.569152749070e-04 
-4.415663167365e-05 -1.039285152091e-07 0.0 
-1.039285152091e-07 2.708684229223e-04 0.0 
0.0 0.0 -4.553936700826e-05 
-1.526637656570e-04 1.250996266671e-07 0.0 
1.250996266671e-07 1.017041372094e-03 0.0 
0.0 0.0 -1.526598922342e-04 
-1.628543927015e-04 1.351270598111e-06 0.0 
1.351270598111e-06 1.085793726948e-03 0.0 
0.0 0.0 -1.625747755015e-04 
-8.563655870662e-05 -3.488146837263e-06 0.0 
-3.488146837263e-06 5.496252535939e-04 0.0 
0.0 0.0 -8.506982008416e-05 
-9.486581924080e-05 -3.814151178450e-06 0.0 
-3.814151178450e-06 6.119359456549e-04 0.0 
0.0 0.0 -9.488074031859e-05 
-1.005495603609e-04 3.086228134672e-07 0.0 
3.086228134672e-07 6.529918919365e-04 0.0 
0.0 0.0 -1.004348942539e-04 
-1.044776236545e-04 -3.577979789199e-07 0.0 
-3.577979789199e-07 6.841250152862e-04 0.0 
0.0 0.0 -1.048029480622e-04 
-1.519826796643e-04 -1.039717232479e-06 0.0 
-1.039717232479e-06 1.014113556129e-03 0.0 
0.0 0.0 -1.523216651845e-04 
-1.628631714461e-04 6.789175869979e-07 0.0 
6.789175869979e-07 1.084318911977e-03 0.0 
0.0 0.0 -1.624109035739e-04 
-5.449179525623e-05 -7.987416053228e-08 0.0 
-7.987416053228e-08 3.327114773236e-04 0.0 
0.0 0.0 -5.446356520677e-05 
-5.983794664642e-05 5.165551288588e-07 0.0 
5.165551288588e-07 3.698050392348e-04 0.0 
0.0 0.0 -5.981452797925e-05 
-1.671906361362e-04 -6.280906550937e-07 0.0 
-6.280906550937e-07 1.118589944564e-03 0.0 
0.0 0.0 -1.671574094483e-04 
-1.535741135101e-04 4.867165336144e-08 0.0 
4.867165336144e-08 1.026955907390e-03 0.0 
0.0 0.0 -1.540568046000e-04 
-1.438756782793e-04 7.792960236787e-07 0.0 
7.792960236787e-07 9.575022276215e-04 0.0 
0.0 0.0 -1.441490849774e-04 
-1.009130978815e-04 2.058688768753e-07 0.0 
2.058688768753e-07 6.559900048877e-04 0.0 
0.0 0.0 -1.008290295839e-04 
-9.685773395831e-05 4.264808855014e-07 0.0 
4.264808855014e-07 6.270397862493e-04 0.0 
0.0 0.0 -9.674459360631e-05 
-9.135164612507e-05 -1.903780837399e-07 0.0 
-1.903780837399e-07 5.899287429268e-04 0.0 
0.0 0.0 -9.139696625653e-05 
-8.725354889556e-05 6.962837147412e-07 0.0 
6.962837147412e-07 5.598510728809e-04 0.0 
0.0 0.0 -8.718447207042e-05 
-9.300425525152e-05 1.437996831778e-06 0.0 
1.437996831778e-06 5.988622257639e-04 0.0 
0.0 0.0 -9.260497328457e-05 
-8.151290837503e-05 -1.410580149274e-06 0.0 
-1.410580149274e-06 5.218003047074e-04 0.0 
0.0 0.0 -8.172223224803e-05 
-1.406089208823e-04 -2.402054608790e-07 0.0 
-2.402054608790e-07 9.332894798307e-04 0.0 
0.0 0.0 -1.405957691658e-04 
-1.658683700673e-04 -7.646942833601e-07 0.0 
-7.646942833601e-07 1.108741460833e-03 0.0 
0.0 0.0 -1.658562309426e-04 
-5.781518420954e-05 1.266454175936e-06 0.0 
1.266454175936e-06 3.557470476378e-04 0.0 
0.0 0.0 -5.779306812918e-05 
-4.802865254420e-05 7.137000022052e-07 0.0 
7.137000022052e-07 2.866754704248e-04 0.0 
0.0 0.0 -4.790438838533e-05 
-1.638603738935e-04 -1.751728736807e-07 0.0 
-1.751728736807e-07 1.096449059773e-03 0.0 
0.0 0.0 -1.639950272516e-04 
-1.428406885554e-04 -4.063061608443e-08 0.0 
-4.063061608443e-08 9.487085255522e-04 0.0 
0.0 0.0 -1.428423306355e-04 
-1.397754667912e-04 -5.337001690441e-07 0.0 
-5.337001690441e-07 9.273626177410e-04 0.0 
0.0 0.0 -1.397960314865e-04 
-1.438858799674e-04 -3.687014672478e-07 0.0 
-3.687014672478e-07 9.563861152014e-04 0.0 
0.0 0.0 -1.439752108775e-04 
-1.492610894434e-04 -6.859194927331e-07 0.0 
-6.859194927331e-07 9.938921068845e-04 0.0 
0.0 0.0 -1.493569516990e-04 
-1.533583656652e-04 -2.578988813191e-07 0.0 
-2.578988813191e-07 1.023001986965e-03 0.0 
0.0 0.0 -1.535627705943e-04 
-1.589055659580e-04 -8.108043834342e-07 0.0 
-8.108043834342e-07 1.060829964530e-03 0.0 
0.0 0.0 -1.589810023698e-04 
-1.631518145122e-04 -4.384743000290e-07 0.0 
-4.384743000290e-07 1.089769235200e-03 0.0 
0.0 0.0 -1.631781870057e-04 
-1.576954622164e-04 7.757103855091e-08 0.0 
7.757103855091e-08 1.052834468886e-03 0.0 
0.0 0.0 -1.577686755743e-04 
-1.655653749574e-04 1.153777774229e-06 0.0 
1.153777774229e-06 1.110734179248e-03 0.0 
0.0 0.0 -1.661194977352e-04 
-1.676568937117e-04 -5.380450323562e-07 0.0 
-5.380450323562e-07 1.120118409862e-03 0.0 
0.0 0.0 -1.673875415144e-04 
-1.408452494755e-04 1.226026312677e-06 0.0 
1.226026312677e-06 9.416014478326e-04 0.0 
0.0 0.0 -1.423072560050e-04 
-1.411610954119e-04 -1.667686956675e-07 0.0 
-1.667686956675e-07 9.361864568386e-04 0.0 
0.0 0.0 -1.409767306836e-04 
-6.685806001299e-05 8.336719987082e-07 0.0 
8.336719987082e-07 4.210903405702e-04 0.0 
0.0 0.0 -6.711978442003e-05 
-4.180859338127e-05 -2.391316367319e-06 0.0 
-2.391316367319e-06 2.386470707080e-04 0.0 
0.0 0.0 -4.128748474099e-05 
-4.202443748219e-05 2.082260459363e-08 0.0 
2.082260459363e-08 2.421619926750e-04 0.0 
0.0 0.0 -4.155413421678e-05 
-4.885629556399e-05 9.695166710736e-07 0.0 
9.695166710736e-07 2.973049205982e-04 0.0 
0.0 0.0 -4.949622909127e-05 
-5.886475257555e-05 5.012940386976e-07 0.0 
5.012940386976e-07 3.671165151901e-04 0.0 
0.0 0.0 -5.942331684616e-05 
-1.701524326179e-04 -2.478949267954e-07 0.0 
-2.478949267954e-07 1.141091287684e-03 0.0 
0.0 0.0 -1.704540905158e-04 
-1.688701131472e-04 -7.880779693718e-07 0.0 
-7.880779693718e-07 1.128148657559e-03 0.0 
0.0 0.0 -1.686097943865e-04 
-1.645187862567e-04 -7.830603816417e-07 0.0 
-7.830603816417e-07 1.098043410909e-03 0.0 
0.0 0.0 -1.643423135982e-04 
-8.335621055865e-05 3.090761482562e-06 0.0 
3.090761482562e-06 5.330757850641e-04 0.0 
0.0 0.0 -8.309698707208e-05 
-8.907622380058e-05 9.098765487222e-07 0.0 
9.098765487222e-07 5.710176681635e-04 0.0 
0.0 0.0 -8.857956952730e-05 
-1.698091735536e-04 4.492498910094e-07 0.0 
4.492498910094e-07 1.141399927452e-03 0.0 
0.0 0.0 -1.704417977873e-04 
-1.357890576857e-04 -2.245189513229e-07 0.0 
-2.245189513229e-07 9.134142540395e-04 0.0 
0.0 0.0 -1.376677267776e-04 
-1.395432965358e-04 -1.715851711574e-07 0.0 
-1.715851711574e-07 9.262509041073e-04 0.0 
0.0 0.0 -1.395319589165e-04 
-1.347947841220e-04 2.713370184276e-07 0.0 
2.713370184276e-07 8.938256624501e-04 0.0 
0.0 0.0 -1.350285088515e-04 
-3.672231146069e-05 -2.132510581459e-06 0.0 
-2.132510581459e-06 2.203530386721e-04 0.0 
0.0 0.0 -3.892831888128e-05 
-3.637712963261e-05 7.197511136289e-07 0.0 
7.197511136289e-07 2.141167117019e-04 0.0 
0.0 0.0 -3.788396651026e-05 
-1.694800178962e-04 -9.883703524795e-07 0.0 
-9.883703524795e-07 1.133513736801e-03 0.0 
0.0 0.0 -1.692545752333e-04 
-6.937545800042e-05 3.228980611411e-07 0.0 
3.228980611411e-07 4.358386743780e-04 0.0 
0.0 0.0 -6.923809046111e-05 
-6.522800914265e-05 4.802178938972e-07 0.0 
4.802178938972e-07 4.068593445534e-04 0.0 
0.0 0.0 -6.513959669466e-05 
-3.835293382449e-05 1.419780011636e-06 0.0 
1.419780011636e-06 2.169955699432e-04 0.0 
0.0 0.0 -3.762272808090e-05 
-3.184713987987e-05 3.230456577081e-07 0.0 
3.230456577081e-07 1.763378694127e-04 0.0 
0.0 0.0 -3.215802126946e-05 
-1.564097184147e-04 2.852905095697e-06 0.0 
2.852905095697e-06 1.049316422252e-03 0.0 
0.0 0.0 -1.577722324506e-04 
-1.666476506988e-04 2.040589658683e-06 0.0 
2.040589658683e-06 1.120282174027e-03 0.0 
0.0 0.0 -1.676789152757e-04 
-1.096907460405e-04 -3.286013999443e-07 0.0 
-3.286013999443e-07 7.221561234987e-04 0.0 
0.0 0.0 -1.103539394458e-04 
-1.146883842954e-04 -1.653249674978e-06 0.0 
-1.653249674978e-06 7.528293944776e-04 0.0 
0.0 0.0 -1.147244957885e-04 
-1.658368221067e-04 -7.296927506317e-07 0.0 
-7.296927506317e-07 1.111095675298e-03 0.0 
0.0 0.0 -1.661337593878e-04 
-4.600380394054e-05 -1.491158073069e-07 0.0 
-1.491158073069e-07 2.738216254214e-04 0.0 
0.0 0.0 -4.591192000902e-05 
-1.719378156417e-04 1.421041712674e-07 0.0 
1.421041712674e-07 1.154049105325e-03 0.0 
0.0 0.0 -1.723772497485e-04 
-1.472965570201e-04 4.727447796768e-07 0.0 
4.727447796768e-07 9.788476002172e-04 0.0 
0.0 0.0 -1.471186205066e-04 
-1.373907042142e-04 1.793164290012e-07 0.0 
1.793164290012e-07 9.102123959892e-04 0.0 
0.0 0.0 -1.372860605493e-04 
-9.767120859221e-05 2.136804418641e-06 0.0 
2.136804418641e-06 6.441362083975e-04 0.0 
0.0 0.0 -9.906935000530e-05 
-5.062215510686e-05 1.026665089058e-06 0.0 
1.026665089058e-06 3.047645721911e-04 0.0 
0.0 0.0 -5.049648738178e-05 
-4.540502709285e-05 6.832131871421e-07 0.0 
6.832131871421e-07 2.672371430162e-04 0.0 
0.0 0.0 -4.513648964862e-05 
-7.256428344436e-05 1.111321589037e-06 0.0 
1.111321589037e-06 4.598861736081e-04 0.0 
0.0 0.0 -7.268378841861e-05 
-5.559787971176e-05 4.468565818418e-07 0.0 
4.468565818418e-07 3.424877842220e-04 0.0 
0.0 0.0 -5.585123947100e-05 
-5.303663475667e-05 2.464193940360e-07 0.0 
2.464193940360e-07 3.275568518533e-04 0.0 
0.0 0.0 -5.375179489994e-05 
-1.757934592010e-04 1.094510029965e-06 0.0 
1.094510029965e-06 1.179890690537e-03 0.0 
0.0 0.0 -1.760744972657e-04 
-1.733244805152e-04 -1.137885131472e-06 0.0 
-1.137885131472e-06 1.163616194136e-03 0.0 
0.0 0.0 -1.736362873376e-04 
-1.621997224677e-04 -1.527288975187e-06 0.0 
-1.527288975187e-06 1.082969057806e-03 0.0 
0.0 0.0 -1.620259229750e-04 
-1.525464893974e-04 4.621401952063e-09 0.0 
4.621401952063e-09 1.015177504387e-03 0.0 
0.0 0.0 -1.523516756879e-04 
-1.708917266004e-04 -1.191002855825e-06 0.0 
-1.191002855825e-06 1.149869569914e-03 0.0 
0.0 0.0 -1.717432538670e-04 
-3.490930834727e-05 -8.429582514125e-07 0.0 
-8.429582514125e-07 2.054757264963e-04 0.0 
0.0 0.0 -3.598778460012e-05 
-1.750597953055e-04 -3.250942675729e-07 0.0 
-3.250942675729e-07 1.172414927759e-03 0.0 
0.0 0.0 -1.748691643181e-04 
-1.586399412700e-04 -2.193877546445e-07 0.0 
-2.193877546445e-07 1.058088814965e-03 0.0 
0.0 0.0 -1.584205238596e-04 
-1.750232827386e-04 1.287113450679e-06 0.0 
1.287113450679e-06 1.163117526416e-03 0.0 
0.0 0.0 -1.736397701047e-04 
-1.700112759458e-04 -1.265368885601e-07 0.0 
-1.265368885601e-07 1.135355063019e-03 0.0 
0.0 0.0 -1.696829740659e-04 
-7.476684779119e-05 6.450836384553e-07 0.0 
6.450836384553e-07 4.725536723755e-04 0.0 
0.0 0.0 -7.452749745521e-05 
-7.091016921093e-05 -6.094699303137e-07 0.0 
-6.094699303137e-07 4.445526167574e-04 0.0 
0.0 0.0 -7.058709718060e-05 
-6.137074756451e-05 4.293104842188e-07 0.0 
4.293104842188e-07 3.794045980526e-04 0.0 
0.0 0.0 -6.117385547845e-05 
-6.706588179639e-05 1.609427156406e-06 0.0 
1.609427156406e-06 4.182950742711e-04 0.0 
0.0 0.0 -6.657037245228e-05 
-1.266094766854e-04 -6.739720647021e-07 0.0 
-6.739720647021e-07 8.277553541706e-04 0.0 
0.0 0.0 -1.254250592285e-04 
-8.035638793885e-05 -1.393926461579e-07 0.0 
-1.393926461579e-07 5.104400494154e-04 0.0 
0.0 0.0 -8.000873303496e-05 
-1.195834177750e-04 -1.404073059007e-07 0.0 
-1.404073059007e-07 7.834003609027e-04 0.0 
0.0 0.0 -1.190894946197e-04 
-1.155376331103e-04 -2.307315433275e-07 0.0 
-2.307315433275e-07 7.547800193782e-04 0.0 
0.0 0.0 -1.149779503611e-04 
-1.103258532928e-04 1.102189864938e-07 0.0 
1.102189864938e-07 7.186555490901e-04 0.0 
0.0 0.0 -1.097928741388e-04 
-9.842809374509e-05 1.902629040633e-07 0.0 
1.902629040633e-07 6.359410459750e-04 0.0 
0.0 0.0 -9.791810678625e-05 
-9.437419777145e-05 -2.159475299138e-07 0.0 
-2.159475299138e-07 6.080813734442e-04 0.0 
0.0 0.0 -9.392806562918e-05 
-8.322610419495e-05 -1.701840068509e-07 0.0 
-1.701840068509e-07 5.319942046353e-04 0.0 
0.0 0.0 -8.302446698330e-05 
-1.259991147617e-04 -5.365801846220e-07 0.0 
-5.365801846220e-07 8.306372732465e-04 0.0 
0.0 0.0 -1.258546578921e-04 
-1.058761433090e-04 7.571849957901e-08 0.0 
7.571849957901e-08 6.921175985289e-04 0.0 
0.0 0.0 -1.060443156317e-04 
-1.312139144854e-04 -3.837092576883e-07 0.0 
-3.837092576883e-07 8.682026054100e-04 0.0 
0.0 0.0 -1.312656420104e-04 
-1.251895528939e-04 1.195207152196e-07 0.0 
1.195207152196e-07 8.263310173887e-04 0.0 
0.0 0.0 -1.252521985300e-04 
-1.703049238627e-04 -5.676244569172e-07 0.0 
-5.676244569172e-07 1.139278121345e-03 0.0 
0.0 0.0 -1.702664597809e-04 
-1.760146123077e-04 -1.359452968980e-06 0.0 
-1.359452968980e-06 1.178275809354e-03 0.0 
0.0 0.0 -1.757907768048e-04 
-1.365524219146e-04 1.370157856815e-06 0.0 
1.370157856815e-06 9.012669428523e-04 0.0 
0.0 0.0 -1.359860927471e-04 
-1.307920283978e-04 1.357393189447e-07 0.0 
1.357393189447e-07 8.686300506088e-04 0.0 
0.0 0.0 -1.314620690688e-04 
-4.233213601894e-05 -2.593523707964e-07 0.0 
-2.593523707964e-07 2.470565775743e-04 0.0 
0.0 0.0 -4.219739737344e-05 
-3.886008786518e-05 1.163800211807e-06 0.0 
1.163800211807e-06 2.179605684997e-04 0.0 
0.0 0.0 -3.798854165781e-05 
-1.182815464932e-04 7.930796381184e-08 0.0 
7.930796381184e-08 7.785584436133e-04 0.0 
0.0 0.0 -1.184174655913e-04 
-1.693736305393e-04 6.591876404939e-07 0.0 
6.591876404939e-07 1.131789490517e-03 0.0 
0.0 0.0 -1.691294037713e-04 
-1.725748694788e-04 -2.401644388832e-08 0.0 
-2.401644388832e-08 1.155505334098e-03 0.0 
0.0 0.0 -1.725143790870e-04 
-1.770772882819e-04 -4.241524903003e-07 0.0 
-4.241524903003e-07 1.186342832568e-03 0.0 
0.0 0.0 -1.769059244357e-04 
-1.714408370001e-04 -4.978042219237e-07 0.0 
-4.978042219237e-07 1.148550534216e-03 0.0 
0.0 0.0 -1.715053987883e-04 
-1.710166963781e-04 1.347194091456e-07 0.0 
1.347194091456e-07 1.148948053295e-03 0.0 
0.0 0.0 -1.716410088010e-04 
-8.613875064520e-05 1.983705843856e-08 0.0 
1.983705843856e-08 5.527937603815e-04 0.0 
0.0 0.0 -8.600610143220e-05 
-1.288985122743e-04 -4.311114656055e-07 0.0 
-4.311114656055e-07 8.513543686181e-04 0.0 
0.0 0.0 -1.288645011303e-04 
-3.653516155706e-05 -1.602670112053e-06 0.0 
-1.602670112053e-06 2.073406842075e-04 0.0 
0.0 0.0 -3.634822514125e-05 
-1.333225735758e-04 1.155434495762e-07 0.0 
1.155434495762e-07 8.819083259488e-04 0.0 
0.0 0.0 -1.332694147460e-04 
-3.243355553450e-05 -5.508408617257e-07 0.0 
-5.508408617257e-07 1.777229056962e-04 0.0 
0.0 0.0 -3.243805315734e-05 
-1.521318087540e-04 -2.136602868639e-07 0.0 
-2.136602868639e-07 1.009920947414e-03 0.0 
0.0 0.0 -1.515479370354e-04 
-1.681720023865e-04 8.090304823283e-08 0.0 
8.090304823283e-08 1.126882532784e-03 0.0 
0.0 0.0 -1.684223758654e-04 
-1.735596513314e-04 4.917479192746e-09 0.0 
4.917479192746e-09 1.165356413454e-03 0.0 
0.0 0.0 -1.738820625913e-04 
-1.749637471521e-04 2.720388968622e-07 0.0 
2.720388968622e-07 1.178416888185e-03 0.0 
0.0 0.0 -1.757938962529e-04 
-1.125612094541e-04 1.713025509613e-06 0.0 
1.713025509613e-06 7.350876687057e-04 0.0 
0.0 0.0 -1.120642929630e-04 
-1.375852130868e-04 4.206176119325e-07 0.0 
4.206176119325e-07 9.112604874474e-04 0.0 
0.0 0.0 -1.374408399149e-04 
-1.323430315928e-04 2.679124462261e-07 0.0 
2.679124462261e-07 8.742078643875e-04 0.0 
0.0 0.0 -1.321308925596e-04 
-1.061253817389e-04 5.601605163015e-07 0.0 
5.601605163015e-07 6.904423550458e-04 0.0 
0.0 0.0 -1.057303730324e-04 
-1.010535408523e-04 5.872506187826e-07 0.0 
5.872506187826e-07 6.547439695766e-04 0.0 
0.0 0.0 -1.006129583810e-04 
-1.050589004756e-04 5.249789125324e-07 0.0 
5.249789125324e-07 6.823405630018e-04 0.0 
0.0 0.0 -1.045943784994e-04 
-9.594121695788e-05 5.701784484999e-07 0.0 
5.701784484999e-07 6.189426135763e-04 0.0 
0.0 0.0 -9.539409567622e-05 
-7.670722250222e-05 7.477520012380e-07 0.0 
7.477520012380e-07 4.887760317978e-04 0.0 
0.0 0.0 -7.683892420519e-05 
-7.103860008569e-05 4.652611723913e-07 0.0 
4.652611723913e-07 4.497405032502e-04 0.0 
0.0 0.0 -7.125283206988e-05 
-1.794791303054e-04 3.046290545188e-07 0.0 
3.046290545188e-07 1.202568044115e-03 0.0 
0.0 0.0 -1.788063205342e-04 
-1.769207863009e-04 3.279526117005e-06 0.0 
3.279526117005e-06 1.187698538996e-03 0.0 
0.0 0.0 -1.767990258301e-04 
-1.796288049769e-04 -8.041882013151e-07 0.0 
-8.041882013151e-07 1.202665816041e-03 0.0 
0.0 0.0 -1.789543763817e-04 
-1.735511399808e-04 -6.381743090037e-08 0.0 
-6.381743090037e-08 1.174777860682e-03 0.0 
0.0 0.0 -1.752247752347e-04 
-1.776329748734e-04 -4.492702858951e-07 0.0 
-4.492702858951e-07 1.208120942378e-03 0.0 
0.0 0.0 -1.801365737201e-04 
-1.734650378150e-04 -1.715499755081e-07 0.0 
-1.715499755081e-07 1.171053020005e-03 0.0 
0.0 0.0 -1.746253154232e-04 
-6.397194449559e-05 -8.644213742386e-07 0.0 
-8.644213742386e-07 3.958263205946e-04 0.0 
0.0 0.0 -6.341026310084e-05 
-8.522640710731e-05 3.477888862429e-07 0.0 
3.477888862429e-07 5.439871764934e-04 0.0 
0.0 0.0 -8.469390476807e-05 
-1.776955029070e-04 -1.524143709276e-06 0.0 
-1.524143709276e-06 1.201358150170e-03 0.0 
0.0 0.0 -1.791227834549e-04 
-1.112229346520e-04 4.789206220836e-07 0.0 
4.789206220836e-07 7.257595216689e-04 0.0 
0.0 0.0 -1.108630369651e-04 
-1.797556034384e-04 -6.312345564761e-07 0.0 
-6.312345564761e-07 1.200035518570e-03 0.0 
0.0 0.0 -1.789253132142e-04 
-1.736948380453e-04 5.431781983200e-07 0.0 
5.431781983200e-07 1.162780945010e-03 0.0 
0.0 0.0 -1.734070790826e-04 
-2.519516585345e-05 -9.707201663460e-07 0.0 
-9.707201663460e-07 1.373677520700e-04 0.0 
0.0 0.0 -2.664754339747e-05 
-3.015018737399e-05 -3.279297815400e-06 0.0 
-3.279297815400e-06 1.664829630556e-04 0.0 
0.0 0.0 -3.052430242461e-05 
-1.769892636273e-04 2.634610193557e-07 0.0 
2.634610193557e-07 1.192719086742e-03 0.0 
0.0 0.0 -1.776883310004e-04 
-5.758327952376e-05 -3.462473019845e-08 0.0 
-3.462473019845e-08 3.517263668732e-04 0.0 
0.0 0.0 -5.717887963261e-05 
-6.329339839047e-05 1.198404527509e-06 0.0 
1.198404527509e-06 3.880051844578e-04 0.0 
0.0 0.0 -6.238035407746e-05 
-5.212222281800e-05 -2.848057552127e-07 0.0 
-2.848057552127e-07 3.138366464287e-04 0.0 
0.0 0.0 -5.189549137910e-05 
-1.887618442224e-04 7.084845367266e-07 0.0 
7.084845367266e-07 1.267778144178e-03 0.0 
0.0 0.0 -1.887465440047e-04 
-1.122732225603e-04 -4.441296090606e-07 0.0 
-4.441296090606e-07 7.339799403067e-04 0.0 
0.0 0.0 -1.121888505450e-04 
-1.770685012225e-04 3.305358162577e-07 0.0 
3.305358162577e-07 1.195492347302e-03 0.0 
0.0 0.0 -1.784128478473e-04 
-1.037318983505e-04 3.959585097156e-08 0.0 
3.959585097156e-08 6.732989381237e-04 0.0 
0.0 0.0 -1.032702350429e-04 
-1.811215610528e-04 5.481099123404e-07 0.0 
5.481099123404e-07 1.225364590535e-03 0.0 
0.0 0.0 -1.824766045798e-04 
-1.418983722809e-04 3.275014927134e-07 0.0 
3.275014927134e-07 9.414952171589e-04 0.0 
0.0 0.0 -1.417367461992e-04 
-9.531983498029e-05 1.199130758146e-06 0.0 
1.199130758146e-06 6.176848429937e-04 0.0 
0.0 0.0 -9.530949026541e-05 
-1.618025468886e-04 -1.313138482705e-06 0.0 
-1.313138482705e-06 1.080414047570e-03 0.0 
0.0 0.0 -1.617266240239e-04 
-1.712367337160e-04 -2.517022686550e-06 0.0 
-2.517022686550e-06 1.155497819449e-03 0.0 
0.0 0.0 -1.723711093632e-04 
-1.839585546077e-04 1.922702604488e-06 0.0 
1.922702604488e-06 1.233266053318e-03 0.0 
0.0 0.0 -1.832438941626e-04 
-1.282285700338e-04 1.437764343269e-06 0.0 
1.437764343269e-06 8.565496247714e-04 0.0 
0.0 0.0 -1.295806172002e-04 
-1.247283955189e-04 -2.695014414448e-06 0.0 
-2.695014414448e-06 8.206621223611e-04 0.0 
0.0 0.0 -1.249156399969e-04 
-1.336973054243e-04 4.780502432985e-07 0.0 
4.780502432985e-07 8.862457055751e-04 0.0 
0.0 0.0 -1.338771030064e-04 
-4.352546499244e-05 4.436478363747e-07 0.0 
4.436478363747e-07 2.551361667223e-04 0.0 
0.0 0.0 -4.330579966881e-05 
-3.389814883689e-05 -2.442715112613e-07 0.0 
-2.442715112613e-07 1.810863350630e-04 0.0 
0.0 0.0 -3.279405811742e-05 
-1.716063829927e-04 -5.958765859028e-07 0.0 
-5.958765859028e-07 1.146696562296e-03 0.0 
0.0 0.0 -1.713135399111e-04 
-7.523536838437e-05 -6.007458973842e-07 0.0 
-6.007458973842e-07 4.758491836951e-04 0.0 
0.0 0.0 -7.509208182934e-05 
-8.235594042686e-05 2.209891807401e-06 0.0 
2.209891807401e-06 5.147698268391e-04 0.0 
0.0 0.0 -8.038827667338e-05 
-5.001146581911e-05 6.274014862644e-08 0.0 
6.274014862644e-08 3.012652504281e-04 0.0 
0.0 0.0 -4.993066604202e-05 
-5.951991557963e-05 4.745024153846e-07 0.0 
4.745024153846e-07 3.695589487495e-04 0.0 
0.0 0.0 -5.978314405524e-05 
-1.155737714789e-04 -3.760380621998e-07 0.0 
-3.760380621998e-07 7.609985150200e-04 0.0 
0.0 0.0 -1.159213944990e-04 
-1.114463395749e-04 -2.406998584791e-07 0.0 
-2.406998584791e-07 7.310738123434e-04 0.0 
0.0 0.0 -1.116262644424e-04 
-1.561658126362e-04 -5.299206413354e-07 0.0 
-5.299206413354e-07 1.039568765867e-03 0.0 
0.0 0.0 -1.558038104416e-04 
-1.616536575182e-04 8.873878670215e-08 0.0 
8.873878670215e-08 1.076746179334e-03 0.0 
0.0 0.0 -1.611194038499e-04 
-1.452021797269e-04 -7.201116330739e-07 0.0 
-7.201116330739e-07 9.647061708381e-04 0.0 
0.0 0.0 -1.451343074576e-04 
-1.417360905196e-04 8.632870990912e-08 0.0 
8.632870990912e-08 9.403024522762e-04 0.0 
0.0 0.0 -1.415933767274e-04 
-1.319020358547e-04 3.977806768524e-08 0.0 
3.977806768524e-08 8.718254866790e-04 0.0 
0.0 0.0 -1.317570344669e-04 
-1.275952978262e-04 -1.808898908879e-07 0.0 
-1.808898908879e-07 8.422298684311e-04 0.0 
0.0 0.0 -1.275414768178e-04 
-1.808056931016e-04 -1.525758788825e-06 0.0 
-1.525758788825e-06 1.206677931101e-03 0.0 
0.0 0.0 -1.799800510317e-04 
-1.870307763930e-04 -2.673876865902e-07 0.0 
-2.673876865902e-07 1.255623469781e-03 0.0 
0.0 0.0 -1.864092322314e-04 
-8.236599237368e-05 5.694757370752e-07 0.0 
5.694757370752e-07 5.272929756111e-04 0.0 
0.0 0.0 -8.232948673513e-05 
-7.828325005813e-05 7.807941924694e-07 0.0 
7.807941924694e-07 4.983469412597e-04 0.0 
0.0 0.0 -7.818189541436e-05 
-8.066781870606e-05 6.215778532638e-07 0.0 
6.215778532638e-07 5.167877030226e-04 0.0 
0.0 0.0 -8.085192856594e-05 
-1.821793884671e-04 -9.452425038887e-07 0.0 
-9.452425038887e-07 1.232295246858e-03 0.0 
0.0 0.0 -1.834584547941e-04 
-1.830922366977e-04 2.536660346183e-06 0.0 
2.536660346183e-06 1.235147881441e-03 0.0 
0.0 0.0 -1.836006722523e-04 
-1.803954664386e-04 -2.175726806454e-06 0.0 
-2.175726806454e-06 1.202974169961e-03 0.0 
0.0 0.0 -1.793731166858e-04 
-2.884547195492e-05 -1.949294581992e-06 0.0 
-1.949294581992e-06 1.508764218898e-04 0.0 
0.0 0.0 -2.821170413667e-05 
-3.570881000968e-05 -1.070718923965e-06 0.0 
-1.070718923965e-06 1.885432469507e-04 0.0 
0.0 0.0 -3.370638853217e-05 
-4.213783208319e-05 -1.170748262368e-07 0.0 
-1.170748262368e-07 2.402822286115e-04 0.0 
0.0 0.0 -4.126795851095e-05 
-3.586246974089e-05 -2.546283779184e-06 0.0 
-2.546283779184e-06 2.018033726068e-04 0.0 
0.0 0.0 -3.610688574664e-05 
-1.813118037091e-04 3.339770754458e-08 0.0 
3.339770754458e-08 1.214209313964e-03 0.0 
0.0 0.0 -1.810888083315e-04 
-1.759503644858e-04 -2.370337744190e-09 0.0 
-2.370337744190e-09 1.179752016776e-03 0.0 
0.0 0.0 -1.758947287297e-04 
-1.868380600491e-04 -2.026246098820e-08 0.0 
-2.026246098820e-08 1.260450932184e-03 0.0 
0.0 0.0 -1.871207327665e-04 
-5.677368414960e-05 2.032718348151e-06 0.0 
2.032718348151e-06 3.527741904510e-04 0.0 
0.0 0.0 -5.702308739092e-05 
-1.568027754872e-04 9.086678946456e-07 0.0 
9.086678946456e-07 1.045425867798e-03 0.0 
0.0 0.0 -1.567983548164e-04 
-1.807947804281e-04 1.816885949765e-06 0.0 
1.816885949765e-06 1.215031055035e-03 0.0 
0.0 0.0 -1.811848825972e-04 
-1.767874529665e-04 2.635533244675e-06 0.0 
2.635533244675e-06 1.187503191795e-03 0.0 
0.0 0.0 -1.767018567944e-04 
-1.863663002342e-04 1.461510242915e-06 0.0 
1.461510242915e-06 1.257417594462e-03 0.0 
0.0 0.0 -1.866936124609e-04 
-1.705605319310e-04 -3.043131196870e-07 0.0 
-3.043131196870e-07 1.147035567734e-03 0.0 
0.0 0.0 -1.713153186433e-04 
-1.813551999588e-04 -1.051944771726e-06 0.0 
-1.051944771726e-06 1.212243561196e-03 0.0 
0.0 0.0 -1.808143025540e-04 
-1.810144852020e-04 9.510582154736e-07 0.0 
9.510582154736e-07 1.215244823925e-03 0.0 
0.0 0.0 -1.813984546852e-04 
-2.289882463440e-05 -1.917411223350e-06 0.0 
-1.917411223350e-06 1.064438362998e-04 0.0 
0.0 0.0 -2.272772520152e-05 
-1.796453692485e-04 -2.519464026569e-06 0.0 
-2.519464026569e-06 1.205769465943e-03 0.0 
0.0 0.0 -1.799989151485e-04 
-1.255838269039e-04 -2.372108616113e-07 0.0 
-2.372108616113e-07 8.274746007515e-04 0.0 
0.0 0.0 -1.255735778981e-04 
-1.648487917531e-05 -4.731674107763e-06 0.0 
-4.731674107763e-06 7.996115120316e-05 0.0 
0.0 0.0 -1.701907742944e-05 
-1.197277503755e-04 -6.241620168613e-08 0.0 
-6.241620168613e-08 7.962718767862e-04 0.0 
0.0 0.0 -1.210522788133e-04 
-1.264445161814e-04 -2.564056665928e-07 0.0 
-2.564056665928e-07 8.371650247824e-04 0.0 
0.0 0.0 -1.267742309066e-04 
-1.154487627705e-04 -6.658166254296e-07 0.0 
-6.658166254296e-07 7.569378951924e-04 0.0 
0.0 0.0 -1.162214466274e-04 
-4.660515595758e-05 1.493989084367e-06 0.0 
1.493989084367e-06 2.841958466787e-04 0.0 
0.0 0.0 -4.732948783071e-05 
-1.214260254664e-04 -1.596625013767e-06 0.0 
-1.596625013767e-06 8.039136548600e-04 0.0 
0.0 0.0 -1.226115929076e-04 
-1.277494935593e-04 -2.322994823893e-06 0.0 
-2.322994823893e-06 8.489823059285e-04 0.0 
0.0 0.0 -1.283491864751e-04 
-2.181725480317e-05 4.928406156628e-07 0.0 
4.928406156628e-07 1.070930809537e-04 0.0 
0.0 0.0 -2.131994005793e-05 
-1.874449477591e-04 5.176155724587e-07 0.0 
5.176155724587e-07 1.267519228381e-03 0.0 
0.0 0.0 -1.888952332360e-04 
-2.478565018414e-05 -1.930000472000e-06 0.0 
-1.930000472000e-06 1.118328058531e-04 0.0 
0.0 0.0 -2.334665006309e-05 
-2.656716960799e-05 -2.510778064998e-06 0.0 
-2.510778064998e-06 1.411464559949e-04 0.0 
0.0 0.0 -2.709867152969e-05 
-1.817312836183e-04 2.201942420487e-06 0.0 
2.201942420487e-06 1.232410437945e-03 0.0 
0.0 0.0 -1.831822052943e-04 
-1.773206336066e-04 -2.021839507971e-07 0.0 
-2.021839507971e-07 1.191992626232e-03 0.0 
0.0 0.0 -1.776517324320e-04 
-1.872954897737e-04 -1.006614931482e-06 0.0 
-1.006614931482e-06 1.259866749947e-03 0.0 
0.0 0.0 -1.871589901852e-04 
-1.824456739670e-04 2.064220422989e-06 0.0 
2.064220422989e-06 1.218220290450e-03 0.0 
0.0 0.0 -1.816528226986e-04 
-1.719240551568e-04 -7.467342115413e-07 0.0 
-7.467342115413e-07 1.152044759436e-03 0.0 
0.0 0.0 -1.720599434401e-04 
-1.761500249536e-04 9.670950468971e-07 0.0 
9.670950468971e-07 1.183630845697e-03 0.0 
0.0 0.0 -1.764735915037e-04 
-1.203392003903e-04 -2.198342008040e-06 0.0 
-2.198342008040e-06 7.898463321084e-04 0.0 
0.0 0.0 -1.197898394197e-04 
-1.865443414806e-04 2.647479046358e-06 0.0 
2.647479046358e-06 1.260124298644e-03 0.0 
0.0 0.0 -1.873527554397e-04 
-1.803841241731e-04 6.709369355739e-07 0.0 
6.709369355739e-07 1.214344074041e-03 0.0 
0.0 0.0 -1.811164307615e-04 
-1.921061091143e-04 1.480715088923e-06 0.0 
1.480715088923e-06 1.296918019707e-03 0.0 
0.0 0.0 -1.916891122952e-04 
-9.208569695246e-05 6.093443112199e-07 0.0 
6.093443112199e-07 5.924864494399e-04 0.0 
0.0 0.0 -9.162005200151e-05 
-7.283645161877e-05 4.586395072898e-07 0.0 
4.586395072898e-07 4.547389083214e-04 0.0 
0.0 0.0 -7.184037522857e-05 
-6.889002091575e-05 3.964795035728e-07 0.0 
3.964795035728e-07 4.246717698014e-04 0.0 
0.0 0.0 -6.790877045087e-05 
-5.909497143754e-05 6.023844365174e-06 0.0 
6.023844365174e-06 3.592168662585e-04 0.0 
0.0 0.0 -5.813495639200e-05 
-1.853176739262e-04 8.122300759659e-07 0.0 
8.122300759659e-07 1.250781756793e-03 0.0 
0.0 0.0 -1.860270850411e-04 
-1.796312402729e-04 3.276727185624e-06 0.0 
3.276727185624e-06 1.208836358275e-03 0.0 
0.0 0.0 -1.800885023177e-04 
-1.631801230170e-04 1.627520387689e-07 0.0 
1.627520387689e-07 1.090569837524e-03 0.0 
0.0 0.0 -1.631333845344e-04 
-1.534477329204e-04 6.766395027793e-07 0.0 
6.766395027793e-07 1.020410487752e-03 0.0 
0.0 0.0 -1.531108459605e-04 
-1.224599435499e-04 1.078011159301e-06 0.0 
1.078011159301e-06 8.009987656653e-04 0.0 
0.0 0.0 -1.216227322220e-04 
-1.215744765480e-04 -1.237691044798e-06 0.0 
-1.237691044798e-06 7.963280792961e-04 0.0 
0.0 0.0 -1.211602941205e-04 
-1.308077100931e-04 4.769688121849e-06 0.0 
4.769688121849e-06 8.600072513362e-04 0.0 
0.0 0.0 -1.301779020232e-04 
-1.297276618714e-04 -1.066682707188e-06 0.0 
-1.066682707188e-06 8.491749556053e-04 0.0 
0.0 0.0 -1.291373028237e-04 
-1.389532460221e-04 4.549858847667e-06 0.0 
4.549858847667e-06 9.158165643447e-04 0.0 
0.0 0.0 -1.380077606708e-04 
-1.362521981567e-04 -2.124783431130e-06 0.0 
-2.124783431130e-06 9.054980890478e-04 0.0 
0.0 0.0 -1.366342160092e-04 
-1.454793170856e-04 -4.423821596291e-06 0.0 
-4.423821596291e-06 9.700799799999e-04 0.0 
0.0 0.0 -1.459037168719e-04 
-1.870833549466e-04 3.909084775636e-06 0.0 
3.909084775636e-06 1.256272641087e-03 0.0 
0.0 0.0 -1.867631680280e-04 
-4.779563930822e-05 1.388169697748e-06 0.0 
1.388169697748e-06 2.856867328083e-04 0.0 
0.0 0.0 -4.771245731983e-05 
-1.019348355349e-04 5.925610993024e-07 0.0 
5.925610993024e-07 6.625121101145e-04 0.0 
0.0 0.0 -1.017460476387e-04 
-1.826285801103e-04 -1.661566205844e-06 0.0 
-1.661566205844e-06 1.237533025725e-03 0.0 
0.0 0.0 -1.842392070075e-04 
-1.784932399449e-04 -5.084121371408e-07 0.0 
-5.084121371408e-07 1.196504370322e-03 0.0 
0.0 0.0 -1.781095211982e-04 
-9.045878749083e-05 3.060141382144e-07 0.0 
3.060141382144e-07 5.804720461946e-04 0.0 
0.0 0.0 -9.001416730698e-05 
-8.189605333165e-05 1.641333009624e-06 0.0 
1.641333009624e-06 5.186644514913e-04 0.0 
0.0 0.0 -8.102430021026e-05 
-1.866907463054e-04 2.093765460227e-06 0.0 
2.093765460227e-06 1.251863261449e-03 0.0 
0.0 0.0 -1.858191563033e-04 
-8.427129088721e-05 2.509183407974e-07 0.0 
2.509183407974e-07 5.389541208829e-04 0.0 
0.0 0.0 -8.400472401885e-05 
-1.942862609106e-04 -4.604509060763e-07 0.0 
-4.604509060763e-07 1.310239742523e-03 0.0 
0.0 0.0 -1.943189575261e-04 
-7.089778492893e-06 -8.429924576269e-07 0.0 
-8.429924576269e-07 3.992716951653e-05 0.0 
0.0 0.0 -8.535005130452e-06 
-1.936791033226e-05 1.730686598501e-06 0.0 
1.730686598501e-06 1.017559906333e-04 0.0 
0.0 0.0 -2.030164989952e-05 
-8.968053387105e-05 4.268638781565e-07 0.0 
4.268638781565e-07 5.769858883096e-04 0.0 
0.0 0.0 -8.953811051246e-05 
-9.967591826382e-05 1.816339090067e-07 0.0 
1.816339090067e-07 6.455070859268e-04 0.0 
0.0 0.0 -9.930333011984e-05 
-7.698272719919e-05 1.369511196201e-06 0.0 
1.369511196201e-06 4.917432221998e-04 0.0 
0.0 0.0 -7.735978650723e-05 
-7.290112700995e-05 4.485042513467e-07 0.0 
4.485042513467e-07 4.686595431743e-04 0.0 
0.0 0.0 -7.375775675111e-05 
-1.516976068027e-04 9.731432031668e-08 0.0 
9.731432031668e-08 1.010085692234e-03 0.0 
0.0 0.0 -1.515828990902e-04 
-2.955388113014e-05 -3.810006738129e-07 0.0 
-3.810006738129e-07 1.597998460951e-04 0.0 
0.0 0.0 -2.992625374333e-05 
-4.708750000530e-05 -3.380683912340e-07 0.0 
-3.380683912340e-07 2.775741899182e-04 0.0 
0.0 0.0 -4.660401843130e-05 
-1.459872513037e-04 4.283387118632e-06 0.0 
4.283387118632e-06 9.787274438894e-04 0.0 
0.0 0.0 -1.469538452094e-04 
-3.739432352920e-05 8.132963554318e-08 0.0 
8.132963554318e-08 2.132217851977e-04 0.0 
0.0 0.0 -3.731550915806e-05 
-1.581113812495e-04 5.386783396549e-07 0.0 
5.386783396549e-07 1.056624836089e-03 0.0 
0.0 0.0 -1.583700297543e-04 
-8.859117282002e-05 -4.886909086431e-07 0.0 
-4.886909086431e-07 5.694929478328e-04 0.0 
0.0 0.0 -8.837999545446e-05 
-1.077149909289e-04 1.768026495193e-08 0.0 
1.768026495193e-08 7.012731036170e-04 0.0 
0.0 0.0 -1.073025146250e-04 
-5.592229804259e-05 8.436426505878e-07 0.0 
8.436426505878e-07 3.420524339702e-04 0.0 
0.0 0.0 -5.582998379547e-05 
-7.655387121575e-05 -1.360505059231e-06 0.0 
-1.360505059231e-06 4.844624894690e-04 0.0 
0.0 0.0 -7.620154526702e-05 
-1.304375061833e-04 -4.590487413422e-07 0.0 
-4.590487413422e-07 8.567018780296e-04 0.0 
0.0 0.0 -1.295787134191e-04 
-1.227913220526e-04 -1.069536414788e-06 0.0 
-1.069536414788e-06 7.988115105914e-04 0.0 
0.0 0.0 -1.212971597528e-04 
-1.171271358387e-04 6.312522150106e-07 0.0 
6.312522150106e-07 7.632427069466e-04 0.0 
0.0 0.0 -1.160760923294e-04 
-9.288654497448e-05 -4.149904162910e-07 0.0 
-4.149904162910e-07 5.993038953958e-04 0.0 
0.0 0.0 -9.268233649937e-05 
-7.967235479004e-05 1.560635261010e-06 0.0 
1.560635261010e-06 5.060818193185e-04 0.0 
0.0 0.0 -7.932496478153e-05 
-6.976412058096e-05 4.685918450986e-07 0.0 
4.685918450986e-07 4.348311074162e-04 0.0 
0.0 0.0 -6.925859231108e-05 
-1.236762265939e-04 1.286441015265e-07 0.0 
1.286441015265e-07 8.121194052814e-04 0.0 
0.0 0.0 -1.231954486131e-04 
-1.661664385129e-04 7.234197314207e-07 0.0 
7.234197314207e-07 1.111077522090e-03 0.0 
0.0 0.0 -1.661212681597e-04 
-1.708685371099e-04 1.275890329840e-06 0.0 
1.275890329840e-06 1.141280747299e-03 0.0 
0.0 0.0 -1.704512426999e-04 
-1.799814060202e-04 -8.892695818899e-09 0.0 
-8.892695818899e-09 1.206980088396e-03 0.0 
0.0 0.0 -1.798902840516e-04 
-1.752252711223e-04 6.293476179296e-07 0.0 
6.293476179296e-07 1.171825368199e-03 0.0 
0.0 0.0 -1.746897123557e-04 
-1.653204529079e-04 3.682681378693e-07 0.0 
3.682681378693e-07 1.103833188294e-03 0.0 
0.0 0.0 -1.650619928257e-04 
-1.692700239592e-04 -9.309390044845e-07 0.0 
-9.309390044845e-07 1.133313101005e-03 0.0 
0.0 0.0 -1.693613594316e-04 
-1.794459408941e-04 1.605079206946e-06 0.0 
1.605079206946e-06 1.200644277872e-03 0.0 
0.0 0.0 -1.790391580507e-04 
-1.729836631084e-04 -6.502744119850e-09 0.0 
-6.502744119850e-09 1.165149049271e-03 0.0 
0.0 0.0 -1.738884562940e-04 
-1.853394956414e-04 -1.746634483939e-06 0.0 
-1.746634483939e-06 1.245260351070e-03 0.0 
0.0 0.0 -1.851430293189e-04 
-1.779629991439e-04 -2.212681777784e-06 0.0 
-2.212681777784e-06 1.194508684255e-03 0.0 
0.0 0.0 -1.780963771770e-04 
-1.680008323397e-04 4.410252086396e-07 0.0 
4.410252086396e-07 1.124792316923e-03 0.0 
0.0 0.0 -1.681296768602e-04 
-1.732313668130e-04 2.383290929427e-07 0.0 
2.383290929427e-07 1.152919895369e-03 0.0 
0.0 0.0 -1.721639567129e-04 
-1.820197878976e-04 -9.097203098577e-07 0.0 
-9.097203098577e-07 1.219293629434e-03 0.0 
0.0 0.0 -1.811651920545e-04 
-1.627398560099e-04 -3.025378736543e-07 0.0 
-3.025378736543e-07 1.085392768176e-03 0.0 
0.0 0.0 -1.623890973126e-04 
-1.881496038472e-04 -6.722589035001e-07 0.0 
-6.722589035001e-07 1.272625835057e-03 0.0 
0.0 0.0 -1.896816515354e-04 
-9.936624462153e-05 3.711915790745e-07 0.0 
3.711915790745e-07 6.447993785367e-04 0.0 
0.0 0.0 -9.931710713211e-05 
-2.678077344496e-05 1.172604196378e-06 0.0 
1.172604196378e-06 1.469601996083e-04 0.0 
0.0 0.0 -2.776378382453e-05 
-2.718822131563e-05 5.643793796886e-06 0.0 
5.643793796886e-06 1.398182331985e-04 0.0 
0.0 0.0 -2.650814903740e-05 
-1.130938350532e-04 2.933038375313e-07 0.0 
2.933038375313e-07 7.386015135744e-04 0.0 
0.0 0.0 -1.126376112924e-04 
-1.957395771822e-04 4.072718166247e-07 0.0 
4.072718166247e-07 1.314065316165e-03 0.0 
0.0 0.0 -1.949709453146e-04 
-1.956422709446e-04 1.854437157901e-08 0.0 
1.854437157901e-08 1.316914351373e-03 0.0 
0.0 0.0 -1.952630510734e-04 
-7.363791568969e-05 4.448116745508e-08 0.0 
4.448116745508e-08 4.652432970724e-04 0.0 
0.0 0.0 -7.343539360029e-05 
-1.953259047097e-04 -1.682103116944e-07 0.0 
-1.682103116944e-07 1.316528916423e-03 0.0 
0.0 0.0 -1.955120939844e-04 
-1.210496703093e-04 -3.742029869830e-07 0.0 
-3.742029869830e-07 7.914115177246e-04 0.0 
0.0 0.0 -1.201823113336e-04 
-5.355766991560e-05 5.069063859747e-07 0.0 
5.069063859747e-07 3.232453025466e-04 0.0 
0.0 0.0 -5.296028401754e-05 
-1.953834150830e-04 -1.373297745112e-06 0.0 
-1.373297745112e-06 1.316914533701e-03 0.0 
0.0 0.0 -1.956430189105e-04 
-1.606320410693e-04 1.081811570651e-06 0.0 
1.081811570651e-06 1.073242688732e-03 0.0 
0.0 0.0 -1.607160970497e-04 
-1.551352503420e-04 -1.927443336718e-07 0.0 
-1.927443336718e-07 1.034924921134e-03 0.0 
0.0 0.0 -1.552285616758e-04 
-1.505583948677e-04 4.103370421325e-07 0.0 
4.103370421325e-07 1.004971037607e-03 0.0 
0.0 0.0 -1.509086942990e-04 
-1.950225372489e-04 -2.088550178189e-06 0.0 
-2.088550178189e-06 1.319599496419e-03 0.0 
0.0 0.0 -1.958801056209e-04 
-1.389109183028e-04 4.741451933545e-08 0.0 
4.741451933545e-08 9.181432809719e-04 0.0 
0.0 0.0 -1.384942297845e-04 
-1.959295069713e-04 -1.244434436796e-06 0.0 
-1.244434436796e-06 1.320610998766e-03 0.0 
0.0 0.0 -1.959024498733e-04 
-1.357909290755e-04 -7.273641547469e-07 0.0 
-7.273641547469e-07 8.985832613114e-04 0.0 
0.0 0.0 -1.355985557075e-04 
-1.314159132553e-04 -2.260781221254e-07 0.0 
-2.260781221254e-07 8.680741570170e-04 0.0 
0.0 0.0 -1.312144960014e-04 
-1.217410062802e-04 -7.968137970639e-08 0.0 
-7.968137970639e-08 8.004989808175e-04 0.0 
0.0 0.0 -1.215252423283e-04 
-1.635653543320e-04 -8.206507231057e-07 0.0 
-8.206507231057e-07 1.094591173860e-03 0.0 
0.0 0.0 -1.638368049481e-04 
-1.957128907948e-04 7.679802216983e-07 0.0 
7.679802216983e-07 1.315946828038e-03 0.0 
0.0 0.0 -1.954016999139e-04 
-1.877918467821e-04 -4.059023819967e-07 0.0 
-4.059023819967e-07 1.261052432127e-03 0.0 
0.0 0.0 -1.872601071101e-04 
-1.870380449284e-04 -1.951022404988e-06 0.0 
-1.951022404988e-06 1.260361361027e-03 0.0 
0.0 0.0 -1.872639817026e-04 
-1.800805456319e-04 7.540324232601e-08 0.0 
7.540324232601e-08 1.200437685780e-03 0.0 
0.0 0.0 -1.783672283586e-04 
-1.950646193177e-04 -5.546188052734e-08 0.0 
-5.546188052734e-08 1.316661406715e-03 0.0 
0.0 0.0 -1.955098189886e-04 
-1.957560602186e-04 -3.716868616249e-07 0.0 
-3.716868616249e-07 1.318924671883e-03 0.0 
0.0 0.0 -1.959998991124e-04 
-1.963981539868e-04 -5.303133434367e-07 0.0 
-5.303133434367e-07 1.320493656548e-03 0.0 
0.0 0.0 -1.962751064225e-04 
-6.844923036856e-05 1.199739337794e-06 0.0 
1.199739337794e-06 4.307455297825e-04 0.0 
0.0 0.0 -6.847160534926e-05 
-7.419643775584e-05 3.743388539179e-07 0.0 
3.743388539179e-07 4.695492771341e-04 0.0 
0.0 0.0 -7.401623890332e-05 
-8.376895134064e-05 1.300131340796e-07 0.0 
1.300131340796e-07 5.365706547931e-04 0.0 
0.0 0.0 -8.364053759108e-05 
-7.953934562445e-05 -2.075640414835e-08 0.0 
-2.075640414835e-08 5.072934929808e-04 0.0 
0.0 0.0 -7.948224144010e-05 
-6.989506786319e-05 -6.245293844846e-08 0.0 
-6.245293844846e-08 4.396733402016e-04 0.0 
0.0 0.0 -6.978551441703e-05 
-7.524805855893e-05 3.094892115024e-07 0.0 
3.094892115024e-07 4.777101055957e-04 0.0 
0.0 0.0 -7.524542772725e-05 
-8.492603218944e-05 -2.618464199118e-07 0.0 
-2.618464199118e-07 5.448643552104e-04 0.0 
0.0 0.0 -8.485997776147e-05 
-7.105462536305e-05 6.250310806945e-07 0.0 
6.250310806945e-07 4.479089343025e-04 0.0 
0.0 0.0 -7.097692746601e-05 
-1.705288852515e-04 -5.065676993734e-08 0.0 
-5.065676993734e-08 1.143493746239e-03 0.0 
0.0 0.0 -1.707769389999e-04 
-1.957870609060e-04 1.292884007357e-06 0.0 
1.292884007357e-06 1.318859783043e-03 0.0 
0.0 0.0 -1.958668742322e-04 
-1.350455497016e-04 7.864309328469e-09 0.0 
7.864309328469e-09 8.951240562794e-04 0.0 
0.0 0.0 -1.351191360868e-04 
-1.307165790976e-04 -4.322242656577e-09 0.0 
-4.322242656577e-09 8.644169275053e-04 0.0 
0.0 0.0 -1.307040085326e-04 
-1.209043728309e-04 3.853306452192e-07 0.0 
3.853306452192e-07 7.961045906332e-04 0.0 
0.0 0.0 -1.208983099878e-04 
-1.015178106691e-04 -3.679167517203e-07 0.0 
-3.679167517203e-07 6.622225460757e-04 0.0 
0.0 0.0 -1.017282540064e-04 
-1.070947291555e-04 -1.713274614578e-07 0.0 
-1.713274614578e-07 7.010953756025e-04 0.0 
0.0 0.0 -1.073098139330e-04 
-1.170318119329e-04 -2.304405178400e-07 0.0 
-2.304405178400e-07 7.699550145936e-04 0.0 
0.0 0.0 -1.171862911330e-04 
-9.606943952016e-05 -6.918043120030e-07 0.0 
-6.918043120030e-07 6.234320450168e-04 0.0 
0.0 0.0 -9.611914699067e-05 
-1.481119786321e-04 -1.006868581402e-07 0.0 
-1.006868581402e-07 9.856164309774e-04 0.0 
0.0 0.0 -1.481459134429e-04 
-1.955042779643e-04 -1.269047585912e-06 0.0 
-1.269047585912e-06 1.318349589731e-03 0.0 
0.0 0.0 -1.957504584866e-04 
-1.330884753948e-04 -1.768196315291e-07 0.0 
-1.768196315291e-07 8.806785880526e-04 0.0 
0.0 0.0 -1.330749450653e-04 
-1.026965489879e-04 1.178065411022e-07 0.0 
1.178065411022e-07 6.708683582992e-04 0.0 
0.0 0.0 -1.029894966699e-04 
-1.130854337220e-04 -7.438576483952e-07 0.0 
-7.438576483952e-07 7.384022260134e-04 0.0 
0.0 0.0 -1.127517955912e-04 
-1.209813153641e-04 2.130007804038e-06 0.0 
2.130007804038e-06 7.983489600902e-04 0.0 
0.0 0.0 -1.214223410530e-04 
-1.212906592670e-04 -2.948275088070e-06 0.0 
-2.948275088070e-06 8.006247840124e-04 0.0 
0.0 0.0 -1.214609177556e-04 
-1.289650632578e-04 -2.836448343722e-06 0.0 
-2.836448343722e-06 8.628838233816e-04 0.0 
0.0 0.0 -1.309968220184e-04 
-1.213818105996e-04 -4.266965506249e-06 0.0 
-4.266965506249e-06 8.042830918570e-04 0.0 
0.0 0.0 -1.223387611305e-04 
-1.201218344436e-04 -5.940699395266e-07 0.0 
-5.940699395266e-07 7.912234115192e-04 0.0 
0.0 0.0 -1.202289988118e-04 
-1.246396976616e-04 -5.061942420403e-07 0.0 
-5.061942420403e-07 8.213580181559e-04 0.0 
0.0 0.0 -1.245418513326e-04 
-1.191093718333e-04 1.337880474637e-07 0.0 
1.337880474637e-07 7.836030816467e-04 0.0 
0.0 0.0 -1.190678843757e-04 
-1.287401379332e-04 -4.825176742022e-07 0.0 
-4.825176742022e-07 8.510925999983e-04 0.0 
0.0 0.0 -1.288600603647e-04 
-1.226230270594e-04 -1.701149775371e-06 0.0 
-1.701149775371e-06 8.113018730487e-04 0.0 
0.0 0.0 -1.232036783932e-04 
-1.130241629680e-04 -1.858461286811e-06 0.0 
-1.858461286811e-06 7.480336692277e-04 0.0 
0.0 0.0 -1.141311642346e-04 
-1.321533265726e-04 -1.335199541160e-06 0.0 
-1.335199541160e-06 8.794062915419e-04 0.0 
0.0 0.0 -1.329915258165e-04 
-1.262846614202e-04 1.119259017791e-06 0.0 
1.119259017791e-06 8.372331183149e-04 0.0 
0.0 0.0 -1.265608218447e-04 
-1.120104832196e-04 -1.984611779904e-06 0.0 
-1.984611779904e-06 7.374063381166e-04 0.0 
0.0 0.0 -1.126429727744e-04 
-9.422976514582e-06 -1.217518494265e-06 0.0 
-1.217518494265e-06 4.558842274141e-05 0.0 
0.0 0.0 -8.813944590281e-06 
-2.032999859278e-05 1.550107281015e-06 0.0 
1.550107281015e-06 1.008000227599e-04 0.0 
0.0 0.0 -2.005057187811e-05 
-1.923634066646e-05 -1.281983274152e-06 0.0 
-1.281983274152e-06 9.903712088906e-05 0.0 
0.0 0.0 -1.977126557535e-05 
-2.892124709552e-05 -6.331508506686e-07 0.0 
-6.331508506686e-07 1.562935872075e-04 0.0 
0.0 0.0 -2.931975365146e-05 
-3.044620434302e-05 2.916307507694e-06 0.0 
2.916307507694e-06 1.611495346811e-04 0.0 
0.0 0.0 -2.995118946101e-05 
-3.774799277366e-05 3.794557032569e-07 0.0 
3.794557032569e-07 2.202737536706e-04 0.0 
0.0 0.0 -3.879981516104e-05 
-3.645995758034e-05 -3.803053327811e-06 0.0 
-3.803053327811e-06 2.139692199118e-04 0.0 
0.0 0.0 -3.742104924291e-05 
-2.033881415161e-05 -1.700939409159e-06 0.0 
-1.700939409159e-06 1.011583560657e-04 0.0 
0.0 0.0 -1.994621821224e-05 
-8.875489974186e-06 -3.480193746507e-07 0.0 
-3.480193746507e-07 4.471598822964e-05 0.0 
0.0 0.0 -8.692282348679e-06 
-1.963315251852e-05 3.711641581478e-07 0.0 
3.711641581478e-07 9.816218701372e-05 0.0 
0.0 0.0 -1.973534442338e-05 
-8.550733775924e-06 2.514775744061e-07 0.0 
2.514775744061e-07 4.381249491722e-05 0.0 
0.0 0.0 -8.579688284227e-06 
-1.901805583189e-05 4.776440578629e-08 0.0 
4.776440578629e-08 9.639762974465e-05 0.0 
0.0 0.0 -1.949131874972e-05 
-2.991788690013e-05 6.474225871532e-07 0.0 
6.474225871532e-07 1.629475291055e-04 0.0 
0.0 0.0 -3.058298354955e-05 
-4.437694804010e-05 -3.488760205637e-08 0.0 
-3.488760205637e-08 2.590089634221e-04 0.0 
0.0 0.0 -4.387725951834e-05 
-1.952890502554e-04 2.705057302809e-06 0.0 
2.705057302809e-06 1.308737158744e-03 0.0 
0.0 0.0 -1.942312205382e-04 
-9.935449687594e-05 7.019136318893e-07 0.0 
7.019136318893e-07 6.421560261642e-04 0.0 
0.0 0.0 -9.893255040107e-05 
-9.532292627254e-05 2.814699913044e-06 0.0 
2.814699913044e-06 6.114496525194e-04 0.0 
0.0 0.0 -9.397196729617e-05 
-8.400669900114e-05 2.679673941902e-06 0.0 
2.679673941902e-06 5.409587176071e-04 0.0 
0.0 0.0 -8.462574969392e-05 
-9.027594374168e-05 -7.837686841303e-07 0.0 
-7.837686841303e-07 5.798954878733e-04 0.0 
0.0 0.0 -8.961994476413e-05 
-1.045740752791e-04 3.140418326638e-06 0.0 
3.140418326638e-06 6.688688744112e-04 0.0 
0.0 0.0 -1.029858181470e-04 
-7.880649475037e-05 2.069962121031e-06 0.0 
2.069962121031e-06 5.047681260686e-04 0.0 
0.0 0.0 -7.930380845106e-05 
-7.495741100239e-05 3.408625348592e-06 0.0 
3.408625348592e-06 4.823631646977e-04 0.0 
0.0 0.0 -7.557437765277e-05 
-9.687066653002e-06 -3.402698014617e-07 0.0 
-3.402698014617e-07 4.591586104220e-05 0.0 
0.0 0.0 -8.739712030662e-06 
-2.047661094667e-05 -2.267522532193e-06 0.0 
-2.267522532193e-06 1.000681362490e-04 0.0 
0.0 0.0 -2.007353836932e-05 
-1.994917007271e-05 2.592468629793e-06 0.0 
2.592468629793e-06 9.445303527474e-05 0.0 
0.0 0.0 -1.994324578594e-05 
-3.151456459980e-05 1.463566236896e-06 0.0 
1.463566236896e-06 1.596924898443e-04 0.0 
0.0 0.0 -2.965054416063e-05 
-2.861510418730e-05 -1.205587774427e-06 0.0 
-1.205587774427e-06 1.581911772624e-04 0.0 
0.0 0.0 -2.941027143855e-05 
-1.937098915206e-05 8.384890895993e-08 0.0 
8.384890895993e-08 1.007669973979e-04 0.0 
0.0 0.0 -1.994784544742e-05 
-1.998172865117e-05 1.674549256837e-06 0.0 
1.674549256837e-06 1.004783062935e-04 0.0 
0.0 0.0 -1.993089637160e-05 
-9.184527398116e-06 -3.340486906928e-07 0.0 
-3.340486906928e-07 4.449611849599e-05 0.0 
0.0 0.0 -8.679810794752e-06 
-1.977844276233e-05 -5.706350657546e-07 0.0 
-5.706350657546e-07 9.957383946922e-05 0.0 
0.0 0.0 -1.962916685114e-05 
-2.895230255585e-05 1.615024457259e-06 0.0 
1.615024457259e-06 1.596384447765e-04 0.0 
0.0 0.0 -2.991862060476e-05 
-7.803011911719e-06 -7.706301462869e-07 0.0 
-7.706301462869e-07 4.106703932536e-05 0.0 
0.0 0.0 -8.301770963759e-06 
-1.590145051585e-04 -4.281304664763e-06 0.0 
-4.281304664763e-06 1.062076659957e-03 0.0 
0.0 0.0 -1.590640962770e-04 
-1.651868147433e-04 -3.398332014324e-06 0.0 
-3.398332014324e-06 1.099025294548e-03 0.0 
0.0 0.0 -1.645623349770e-04 
-1.955657779701e-04 -5.933825758627e-07 0.0 
-5.933825758627e-07 1.315952615564e-03 0.0 
0.0 0.0 -1.951345524439e-04 
-1.128859712793e-04 -3.830481927276e-06 0.0 
-3.830481927276e-06 7.447363822067e-04 0.0 
0.0 0.0 -1.137601485512e-04 
-8.506649409316e-06 3.037838616352e-07 0.0 
3.037838616352e-07 4.456634567568e-05 0.0 
0.0 0.0 -8.827439468020e-06 
-1.944078863341e-04 -1.551046245181e-07 0.0 
-1.551046245181e-07 1.307325842461e-03 0.0 
0.0 0.0 -1.938161294973e-04 
-1.950362438059e-04 -1.795147355396e-06 0.0 
-1.795147355396e-06 1.317406774879e-03 0.0 
0.0 0.0 -1.954759163179e-04 
-1.946257604888e-04 1.407080277293e-06 0.0 
1.407080277293e-06 1.317652425531e-03 0.0 
0.0 0.0 -1.957234727395e-04 
-1.786106491459e-04 1.328228983500e-06 0.0 
1.328228983500e-06 1.198614709334e-03 0.0 
0.0 0.0 -1.786587739673e-04 
-1.826581066041e-04 5.861318546716e-07 0.0 
5.861318546716e-07 1.232821746468e-03 0.0 
0.0 0.0 -1.836483987139e-04 
-1.952382200043e-04 8.912494885484e-07 0.0 
8.912494885484e-07 1.308332215826e-03 0.0 
0.0 0.0 -1.941854046512e-04 
-6.737308308447e-05 5.138193223354e-07 0.0 
5.138193223354e-07 4.244241960940e-04 0.0 
0.0 0.0 -6.769213596492e-05 
-1.828682302183e-04 1.640560627373e-06 0.0 
1.640560627373e-06 1.239731587643e-03 0.0 
0.0 0.0 -1.838610959833e-04 
-1.772400966804e-04 3.904476817882e-07 0.0 
3.904476817882e-07 1.184738121319e-03 0.0 
0.0 0.0 -1.767943248163e-04 
-4.906868359316e-05 -1.133942934727e-07 0.0 
-1.133942934727e-07 2.953935878240e-04 0.0 
0.0 0.0 -4.902575320116e-05 
-6.530462737817e-05 3.585817021726e-07 0.0 
3.585817021726e-07 4.102635123792e-04 0.0 
0.0 0.0 -6.560435786130e-05 
-1.483067082024e-04 3.970804381230e-07 0.0 
3.970804381230e-07 9.886270184883e-04 0.0 
0.0 0.0 -1.484951207735e-04 
-1.367944353413e-04 -1.825561973167e-07 0.0 
-1.825561973167e-07 9.072242838815e-04 0.0 
0.0 0.0 -1.368596897040e-04 
-1.696034640066e-04 -3.607287686916e-07 0.0 
-3.607287686916e-07 1.134493911371e-03 0.0 
0.0 0.0 -1.695585677381e-04 
-1.398704134916e-04 8.561054054624e-09 0.0 
8.561054054624e-09 9.278981832241e-04 0.0 
0.0 0.0 -1.398333781397e-04 
-1.606909834555e-04 -5.100249501151e-07 0.0 
-5.100249501151e-07 1.075019221100e-03 0.0 
0.0 0.0 -1.609685038039e-04 
-1.869198009603e-04 3.460184187222e-06 0.0 
3.460184187222e-06 1.256233406915e-03 0.0 
0.0 0.0 -1.866194889163e-04 
-4.208478570565e-05 -7.076859870355e-07 0.0 
-7.076859870355e-07 2.599245066963e-04 0.0 
0.0 0.0 -4.408826043591e-05 
-1.404915308446e-04 9.501955183076e-07 0.0 
9.501955183076e-07 9.316401756296e-04 0.0 
0.0 0.0 -1.404724030559e-04 
-1.368005256677e-04 9.839857355172e-07 0.0 
9.839857355172e-07 9.063105631980e-04 0.0 
0.0 0.0 -1.369552780944e-04 
-1.614580578208e-04 -5.040207315794e-07 0.0 
-5.040207315794e-07 1.077622303329e-03 0.0 
0.0 0.0 -1.613909692546e-04 
-7.092154026938e-05 -7.271687064730e-07 0.0 
-7.271687064730e-07 4.457927222897e-04 0.0 
0.0 0.0 -7.064368720930e-05 
-1.092130498400e-04 -2.031197807860e-06 0.0 
-2.031197807860e-06 7.170877506305e-04 0.0 
0.0 0.0 -1.095638575444e-04 
-4.734326755177e-05 -7.634204257468e-07 0.0 
-7.634204257468e-07 2.775049997667e-04 0.0 
0.0 0.0 -4.656497932609e-05 
-1.872735419036e-04 6.485390613282e-07 0.0 
6.485390613282e-07 1.262586229201e-03 0.0 
0.0 0.0 -1.877191857934e-04 
-1.143324629321e-04 4.116664924991e-09 0.0 
4.116664924991e-09 7.469603610316e-04 0.0 
0.0 0.0 -1.138559328007e-04 
-1.153850895440e-04 2.798510741524e-07 0.0 
2.798510741524e-07 7.578160194775e-04 0.0 
0.0 0.0 -1.154143056347e-04 
-9.134271070788e-05 -4.241415328680e-07 0.0 
-4.241415328680e-07 5.928584725244e-04 0.0 
0.0 0.0 -9.180364234441e-05 
-7.295992473616e-05 6.931326544943e-07 0.0 
6.931326544943e-07 4.642607920090e-04 0.0 
0.0 0.0 -7.341543808938e-05 
-6.127928487910e-05 4.097090977135e-07 0.0 
4.097090977135e-07 3.818653258479e-04 0.0 
0.0 0.0 -6.151402614941e-05 
-1.048886373049e-04 7.305772282163e-07 0.0 
7.305772282163e-07 6.839939901015e-04 0.0 
0.0 0.0 -1.048536320953e-04 
-1.083489495467e-04 1.953470287276e-07 0.0 
1.953470287276e-07 7.097911034353e-04 0.0 
0.0 0.0 -1.085629762122e-04 
-1.537049609822e-04 2.480873530320e-07 0.0 
2.480873530320e-07 1.024308554960e-03 0.0 
0.0 0.0 -1.536510162914e-04 
-1.672004607334e-04 -4.138652897847e-07 0.0 
-4.138652897847e-07 1.115841044060e-03 0.0 
0.0 0.0 -1.668829017826e-04 
-1.175626501518e-05 2.653670795412e-06 0.0 
2.653670795412e-06 5.212615490244e-05 0.0 
0.0 0.0 -1.076426758597e-05 
-1.591679461113e-04 4.759781921774e-07 0.0 
4.759781921774e-07 1.063059671778e-03 0.0 
0.0 0.0 -1.592508397865e-04 
-1.282088974266e-04 -3.835691054215e-08 0.0 
-3.835691054215e-08 8.473404205640e-04 0.0 
0.0 0.0 -1.282838013392e-04 
-1.443596124248e-04 4.967652743944e-07 0.0 
4.967652743944e-07 9.572886199512e-04 0.0 
0.0 0.0 -1.439863651620e-04 
-1.598472287202e-04 -8.884907360879e-07 0.0 
-8.884907360879e-07 1.064451867688e-03 0.0 
0.0 0.0 -1.593960054358e-04 
-4.175998057522e-05 -3.447721282185e-07 0.0 
-3.447721282185e-07 2.572900811957e-04 0.0 
0.0 0.0 -4.363646550326e-05 
-1.650522666270e-04 -1.570677394041e-07 0.0 
-1.570677394041e-07 1.102136320565e-03 0.0 
0.0 0.0 -1.648121423230e-04 
-1.826232045261e-04 1.027217602921e-06 0.0 
1.027217602921e-06 1.220901163882e-03 0.0 
0.0 0.0 -1.818680320623e-04 
-1.325762676814e-04 -3.821282481616e-06 0.0 
-3.821282481616e-06 8.784259184788e-04 0.0 
0.0 0.0 -1.331264220316e-04 
-3.693963444370e-05 -7.544466628916e-07 0.0 
-7.544466628916e-07 2.092667936724e-04 0.0 
0.0 0.0 -3.663743814291e-05 
-1.313856992864e-04 7.552411984502e-07 0.0 
7.552411984502e-07 8.610864945210e-04 0.0 
0.0 0.0 -1.303870364997e-04 
-1.805690084043e-04 6.802145348003e-07 0.0 
6.802145348003e-07 1.208990479033e-03 0.0 
0.0 0.0 -1.804058984264e-04 
-1.618620090762e-04 -7.704497118780e-08 0.0 
-7.704497118780e-08 1.080863256528e-03 0.0 
0.0 0.0 -1.617330481104e-04 
-6.471559328570e-05 -1.662931831611e-06 0.0 
-1.662931831611e-06 4.062530166876e-04 0.0 
0.0 0.0 -6.504030707074e-05 
-1.192254745372e-04 -3.743731676597e-07 0.0 
-3.743731676597e-07 7.837384510995e-04 0.0 
0.0 0.0 -1.191527179664e-04 
-1.116344855219e-04 1.062141944629e-07 0.0 
1.062141944629e-07 7.298456137402e-04 0.0 
0.0 0.0 -1.114223846842e-04 
-1.018383685965e-04 -1.359407971871e-06 0.0 
-1.359407971871e-06 6.707473892556e-04 0.0 
0.0 0.0 -1.029886159366e-04 
-1.821879658306e-04 1.203703486797e-06 0.0 
1.203703486797e-06 1.214225172284e-03 0.0 
0.0 0.0 -1.809836386841e-04 
-1.227568816259e-04 -6.254739179716e-08 0.0 
-6.254739179716e-08 8.076906619440e-04 0.0 
0.0 0.0 -1.225941817511e-04 
-1.685234158846e-04 1.004345265447e-06 0.0 
1.004345265447e-06 1.124593655933e-03 0.0 
0.0 0.0 -1.680081379364e-04 
-1.385983115983e-04 -4.518781372797e-07 0.0 
-4.518781372797e-07 9.192006383534e-04 0.0 
0.0 0.0 -1.386121366338e-04 
-6.938466731060e-05 -6.198930646466e-07 0.0 
-6.198930646466e-07 4.371957454374e-04 0.0 
0.0 0.0 -6.944566544735e-05 
-1.681992938910e-04 -9.274416247642e-07 0.0 
-9.274416247642e-07 1.123747739326e-03 0.0 
0.0 0.0 -1.678379068203e-04 
-1.163255558547e-04 -2.444566148571e-07 0.0 
-2.444566148571e-07 7.630787415271e-04 0.0 
0.0 0.0 -1.161597941560e-04 
-1.747594319775e-04 -4.754811496893e-07 0.0 
-4.754811496893e-07 1.171391248362e-03 0.0 
0.0 0.0 -1.746922153459e-04 
-1.547158004377e-04 -7.908026844222e-07 0.0 
-7.908026844222e-07 1.031372856638e-03 0.0 
0.0 0.0 -1.547299964433e-04 
-9.575522477032e-05 -2.469845308841e-07 0.0 
-2.469845308841e-07 6.198169541374e-04 0.0 
0.0 0.0 -9.562808392031e-05 
-1.680741224093e-04 -8.043675432310e-07 0.0 
-8.043675432310e-07 1.125048534485e-03 0.0 
0.0 0.0 -1.681755324449e-04 
-1.167097397872e-04 2.723456768358e-07 0.0 
2.723456768358e-07 7.659716634377e-04 0.0 
0.0 0.0 -1.165963749253e-04 
-1.652487966176e-04 1.494188142171e-07 0.0 
1.494188142171e-07 1.103453328263e-03 0.0 
0.0 0.0 -1.649144376955e-04 
-1.090718422596e-04 2.524371737844e-07 0.0 
2.524371737844e-07 7.103678881211e-04 0.0 
0.0 0.0 -1.086081446058e-04 
-1.357966733163e-04 -3.457047510780e-07 0.0 
-3.457047510780e-07 8.984402994021e-04 0.0 
0.0 0.0 -1.356166455148e-04 
-1.479451278654e-04 -5.197314638620e-07 0.0 
-5.197314638620e-07 9.805721187296e-04 0.0 
0.0 0.0 -1.473637189475e-04 
-1.291946076143e-04 -2.210645520775e-08 0.0 
-2.210645520775e-08 8.530967429073e-04 0.0 
0.0 0.0 -1.291232438263e-04 
-1.429493388473e-04 2.592746297642e-06 0.0 
2.592746297642e-06 9.504562516353e-04 0.0 
0.0 0.0 -1.430149859860e-04 
-1.638426906912e-04 3.884553588314e-07 0.0 
3.884553588314e-07 1.093570341671e-03 0.0 
0.0 0.0 -1.635473777094e-04 
-4.679395941113e-05 8.636054265736e-08 0.0 
8.636054265736e-08 2.742855012463e-04 0.0 
0.0 0.0 -4.607001325828e-05 
-8.578179911004e-05 -6.161056704653e-08 0.0 
-6.161056704653e-08 5.513847511004e-04 0.0 
0.0 0.0 -8.578563835690e-05 
-1.423249179194e-04 -7.804262925553e-07 0.0 
-7.804262925553e-07 9.497515173482e-04 0.0 
0.0 0.0 -1.430477210920e-04 
-1.735818036023e-04 -9.773598649859e-07 0.0 
-9.773598649859e-07 1.155171653987e-03 0.0 
0.0 0.0 -1.725878545680e-04 
-1.836468666056e-04 1.003626260766e-06 0.0 
1.003626260766e-06 1.240389692506e-03 0.0 
0.0 0.0 -1.843994436203e-04 
-1.023143520992e-04 5.423079028455e-07 0.0 
5.423079028455e-07 6.643953733865e-04 0.0 
0.0 0.0 -1.020177412065e-04 
-1.622496068517e-04 -8.321051479418e-07 0.0 
-8.321051479418e-07 1.084090239035e-03 0.0 
0.0 0.0 -1.622365463781e-04 
-1.781376606747e-04 3.555220392374e-07 0.0 
3.555220392374e-07 1.192018732814e-03 0.0 
0.0 0.0 -1.778033526228e-04 
-1.126735395111e-04 5.522608983233e-08 0.0 
5.522608983233e-08 7.397928820176e-04 0.0 
0.0 0.0 -1.128655126259e-04 
-5.035207840853e-05 5.069616719063e-07 0.0 
5.069616719063e-07 3.007678980219e-04 0.0 
0.0 0.0 -4.999657030114e-05 
-3.927566979207e-05 -3.832849885569e-07 0.0 
-3.832849885569e-07 2.313033145196e-04 0.0 
0.0 0.0 -3.982249606560e-05 
-7.656825341724e-05 3.679510810453e-07 0.0 
3.679510810453e-07 4.857975545201e-04 0.0 
0.0 0.0 -7.638798348873e-05 
-1.174853009841e-04 -1.483166653412e-09 0.0 
-1.483166653412e-09 7.706480780895e-04 0.0 
0.0 0.0 -1.172617294919e-04 
-1.226008469953e-04 -1.659916804789e-07 0.0 
-1.659916804789e-07 8.085563299237e-04 0.0 
0.0 0.0 -1.227254861441e-04 
-1.869186648422e-04 1.288893444476e-06 0.0 
1.288893444476e-06 1.255438194585e-03 0.0 
0.0 0.0 -1.863413058393e-04 
-1.661774130078e-04 -5.668139200530e-07 0.0 
-5.668139200530e-07 1.113816736532e-03 0.0 
0.0 0.0 -1.665279681784e-04 
-1.561062454374e-04 -1.032747631753e-06 0.0 
-1.032747631753e-06 1.041295622328e-03 0.0 
0.0 0.0 -1.561285722757e-04 
-2.290814551487e-05 1.131949368257e-06 0.0 
1.131949368257e-06 1.115970032557e-04 0.0 
0.0 0.0 -2.279054486229e-05 
-1.065384879856e-04 1.371781238190e-06 0.0 
1.371781238190e-06 6.979852258937e-04 0.0 
0.0 0.0 -1.068955660026e-04 
-1.703396393732e-04 -6.320212589166e-07 0.0 
-6.320212589166e-07 1.144009893404e-03 0.0 
0.0 0.0 -1.708611002394e-04 
-1.234023393735e-04 -2.265061210126e-07 0.0 
-2.265061210126e-07 8.130545487096e-04 0.0 
0.0 0.0 -1.233545184740e-04 
-1.695777077806e-04 2.106230318133e-07 0.0 
2.106230318133e-07 1.131440026902e-03 0.0 
0.0 0.0 -1.690088035303e-04 
-1.159592254194e-04 -1.383338685156e-07 0.0 
-1.383338685156e-07 7.703209590687e-04 0.0 
0.0 0.0 -1.172687467652e-04 
-1.871117190239e-04 -1.386491014739e-06 0.0 
-1.386491014739e-06 1.261256540934e-03 0.0 
0.0 0.0 -1.874631276173e-04 
-8.657535319631e-05 1.579232664336e-06 0.0 
1.579232664336e-06 5.555478256840e-04 0.0 
0.0 0.0 -8.636364963772e-05 
-1.755150914368e-04 -6.889429931339e-07 0.0 
-6.889429931339e-07 1.176166452702e-03 0.0 
0.0 0.0 -1.753185131199e-04 
-1.573111243631e-04 1.063973160771e-06 0.0 
1.063973160771e-06 1.048972338121e-03 0.0 
0.0 0.0 -1.571178519447e-04 
-7.892866904534e-05 2.863749736168e-07 0.0 
2.863749736168e-07 5.022036140890e-04 0.0 
0.0 0.0 -7.873003997367e-05 
-1.124601082612e-04 5.668543912746e-07 0.0 
5.668543912746e-07 7.365972072198e-04 0.0 
0.0 0.0 -1.124710309571e-04 
-1.868644922347e-04 1.000849535727e-06 0.0 
1.000849535727e-06 1.255765804165e-03 0.0 
0.0 0.0 -1.865710734017e-04 
-1.676555622800e-04 3.291135704865e-07 0.0 
3.291135704865e-07 1.118261925556e-03 0.0 
0.0 0.0 -1.671813732751e-04 
-1.386017071923e-04 -1.797723160639e-07 0.0 
-1.797723160639e-07 9.191547604494e-04 0.0 
0.0 0.0 -1.386052031399e-04 
-1.179182420809e-04 -1.397755678998e-07 0.0 
-1.397755678998e-07 7.747023837777e-04 0.0 
0.0 0.0 -1.178542631832e-04 
-9.266051543288e-05 -1.427667931752e-06 0.0 
-1.427667931752e-06 5.998378060181e-04 0.0 
0.0 0.0 -9.287066260160e-05 
-1.268908472920e-04 -2.992571917759e-07 0.0 
-2.992571917759e-07 8.385766200168e-04 0.0 
0.0 0.0 -1.270155650522e-04 
-1.412610616596e-04 -7.070516204546e-07 0.0 
-7.070516204546e-07 9.356355867827e-04 0.0 
0.0 0.0 -1.409283708239e-04 
-1.952715328492e-04 2.648146111006e-07 0.0 
2.648146111006e-07 1.320373790754e-03 0.0 
0.0 0.0 -1.960333646234e-04 
-1.736029799723e-04 -4.830607358397e-07 0.0 
-4.830607358397e-07 1.152851948528e-03 0.0 
0.0 0.0 -1.722934252721e-04 
-1.452011068003e-04 -1.075773922608e-06 0.0 
-1.075773922608e-06 9.666398033647e-04 0.0 
0.0 0.0 -1.454499006876e-04 
-1.212938627555e-04 -3.882932393123e-07 0.0 
-3.882932393123e-07 7.997072957628e-04 0.0 
0.0 0.0 -1.214615911284e-04 
-1.463822189693e-04 -1.900321700036e-07 0.0 
-1.900321700036e-07 9.728037690076e-04 0.0 
0.0 0.0 -1.462476041952e-04 
-2.746226357204e-05 -9.271388711199e-07 0.0 
-9.271388711199e-07 1.571302735165e-04 0.0 
0.0 0.0 -2.955133849294e-05 
-9.672248826247e-05 7.266615167990e-07 0.0 
7.266615167990e-07 6.276593153662e-04 0.0 
0.0 0.0 -9.671433789260e-05 
-1.257056545510e-04 -4.990050790240e-07 0.0 
-4.990050790240e-07 8.296358928903e-04 0.0 
0.0 0.0 -1.257347134077e-04 
-8.071247393308e-05 8.458441046785e-08 0.0 
8.458441046785e-08 5.152581703620e-04 0.0 
0.0 0.0 -8.061844590833e-05 
-1.221886675709e-04 -7.908405440190e-08 0.0 
-7.908405440190e-08 8.040667053497e-04 0.0 
0.0 0.0 -1.220458434280e-04 
-1.840762203294e-04 1.915177188951e-06 0.0 
1.915177188951e-06 1.245437645367e-03 0.0 
0.0 0.0 -1.851416939921e-04 
-1.301442044184e-04 -3.060279266349e-07 0.0 
-3.060279266349e-07 8.596681305344e-04 0.0 
0.0 0.0 -1.300328051442e-04 
-9.031994090937e-05 -2.080257032607e-07 0.0 
-2.080257032607e-07 5.822092092616e-04 0.0 
0.0 0.0 -9.022896017931e-05 
-1.344673763446e-04 9.830708816544e-08 0.0 
9.830708816544e-08 8.894298640129e-04 0.0 
0.0 0.0 -1.343397272354e-04 
-8.268637292058e-05 -8.113913653825e-07 0.0 
-8.113913653825e-07 5.290888140562e-04 0.0 
0.0 0.0 -8.279832518349e-05 
-1.497839366065e-04 -1.523194842093e-06 0.0 
-1.523194842093e-06 9.970276981604e-04 0.0 
0.0 0.0 -1.497490155909e-04 
-1.382259707113e-04 2.110689173294e-08 0.0 
2.110689173294e-08 9.185304756848e-04 0.0 
0.0 0.0 -1.386530088269e-04 
-1.506650140695e-04 -9.263316559379e-07 0.0 
-9.263316559379e-07 1.001955608578e-03 0.0 
0.0 0.0 -1.504726885606e-04 
-3.022468714226e-05 -2.973636621545e-06 0.0 
-2.973636621545e-06 1.677942898081e-04 0.0 
0.0 0.0 -3.060483068446e-05 
-1.428673620023e-04 -2.398732156923e-07 0.0 
-2.398732156923e-07 9.482366823991e-04 0.0 
0.0 0.0 -1.427619920137e-04 
-1.726984643621e-04 1.345553639607e-06 0.0 
1.345553639607e-06 1.160671593896e-03 0.0 
0.0 0.0 -1.733128613594e-04 
-8.463363897670e-05 6.078796328985e-07 0.0 
6.078796328985e-07 5.444031302841e-04 0.0 
0.0 0.0 -8.481515710027e-05 
-1.264518580475e-04 2.684568646023e-07 0.0 
2.684568646023e-07 8.338232778496e-04 0.0 
0.0 0.0 -1.263048705811e-04 
-1.596353680421e-04 -9.131275579431e-07 0.0 
-9.131275579431e-07 1.065304755547e-03 0.0 
0.0 0.0 -1.595480372087e-04 
-7.302589173434e-05 -3.183424354861e-06 0.0 
-3.183424354861e-06 4.574500906094e-04 0.0 
0.0 0.0 -7.259764510955e-05 
-1.362250571880e-04 3.623633479395e-08 0.0 
3.623633479395e-08 9.021775671400e-04 0.0 
0.0 0.0 -1.361198740657e-04 
-1.602145110429e-04 -8.362565613449e-07 0.0 
-8.362565613449e-07 1.068772108230e-03 0.0 
0.0 0.0 -1.600932078566e-04 
-1.471273090538e-04 7.392924497512e-07 0.0 
7.392924497512e-07 9.780830439502e-04 0.0 
0.0 0.0 -1.470264431059e-04 
-1.270633471131e-04 1.102546760644e-07 0.0 
1.102546760644e-07 8.375443541897e-04 0.0 
0.0 0.0 -1.268359787636e-04 
-1.460791581632e-04 -2.407797944151e-07 0.0 
-2.407797944151e-07 9.714799924540e-04 0.0 
0.0 0.0 -1.460739326938e-04 
-7.660927585480e-05 2.589062603144e-06 0.0 
2.589062603144e-06 4.833163137169e-04 0.0 
0.0 0.0 -7.585562978697e-05 
-6.337475630904e-05 1.248073807384e-06 0.0 
1.248073807384e-06 3.958823544252e-04 0.0 
0.0 0.0 -6.357697056388e-05 
-5.388339958482e-05 2.895282728562e-07 0.0 
2.895282728562e-07 3.277752654746e-04 0.0 
0.0 0.0 -5.379270529687e-05 
-9.451957039609e-05 -2.935916480428e-07 0.0 
-2.935916480428e-07 6.114923592848e-04 0.0 
0.0 0.0 -9.441947030406e-05 
-1.655470867204e-04 -4.270866697217e-07 0.0 
-4.270866697217e-07 1.106817959118e-03 0.0 
0.0 0.0 -1.654622947108e-04 
-3.839223720892e-05 -3.449317819975e-06 0.0 
-3.449317819975e-06 2.174158836143e-04 0.0 
0.0 0.0 -3.781821007497e-05 
-1.582398840472e-04 -1.211336256148e-06 0.0 
-1.211336256148e-06 1.056196191213e-03 0.0 
0.0 0.0 -1.582347619750e-04 
-3.976493932031e-05 -1.461285902805e-06 0.0 
-1.461285902805e-06 2.310785421131e-04 0.0 
0.0 0.0 -3.990281506442e-05 
-8.912786947884e-05 -2.218013861212e-07 0.0 
-2.218013861212e-07 5.740010873261e-04 0.0 
0.0 0.0 -8.903564786089e-05 
-1.609314023663e-04 8.015374636600e-07 0.0 
8.015374636600e-07 1.078902557479e-03 0.0 
0.0 0.0 -1.615622346724e-04 
-1.398208268631e-04 -7.214897453684e-06 0.0 
-7.214897453684e-06 9.283629550766e-04 0.0 
0.0 0.0 -1.397314702741e-04 
-9.326712864409e-05 1.081123901449e-07 0.0 
1.081123901449e-07 6.029249672552e-04 0.0 
0.0 0.0 -9.316659828873e-05 
-5.971178892461e-05 1.368640181835e-06 0.0 
1.368640181835e-06 3.694230737418e-04 0.0 
0.0 0.0 -5.984927026599e-05 
-8.786689087998e-05 2.978470750166e-07 0.0 
2.978470750166e-07 5.651036338672e-04 0.0 
0.0 0.0 -8.775496813769e-05 
-1.366866866355e-04 2.012050051266e-07 0.0 
2.012050051266e-07 9.045962273325e-04 0.0 
0.0 0.0 -1.364843956035e-04 
-9.193121234076e-05 4.013204139827e-07 0.0 
4.013204139827e-07 5.938843893935e-04 0.0 
0.0 0.0 -9.187235440198e-05 
-8.634860532519e-05 5.489409565849e-07 0.0 
5.489409565849e-07 5.556459598693e-04 0.0 
0.0 0.0 -8.641257901652e-05 
-1.873076348652e-04 -8.303719696611e-07 0.0 
-8.303719696611e-07 1.255027706073e-03 0.0 
0.0 0.0 -1.864462757575e-04 
-9.029085277060e-05 7.778954920217e-07 0.0 
7.778954920217e-07 5.838501403615e-04 0.0 
0.0 0.0 -9.045572518728e-05 
-1.942906890229e-04 -1.961786413827e-06 0.0 
-1.961786413827e-06 1.320208759113e-03 0.0 
0.0 0.0 -1.958055517464e-04 
-1.946815352992e-04 -9.026625198254e-07 0.0 
-9.026625198254e-07 1.313526635210e-03 0.0 
0.0 0.0 -1.947608156509e-04 
-1.203676963192e-04 -5.252269783046e-06 0.0 
-5.252269783046e-06 7.911029022502e-04 0.0 
0.0 0.0 -1.199678325534e-04 
-6.382312409295e-05 3.317997073278e-06 0.0 
3.317997073278e-06 3.867196355365e-04 0.0 
0.0 0.0 -6.182128488093e-05 
-9.762668327602e-06 5.060945032083e-07 0.0 
5.060945032083e-07 4.694411596940e-05 0.0 
0.0 0.0 -1.015196033753e-05 
-6.438901127768e-05 -2.610876075629e-06 0.0 
-2.610876075629e-06 4.083460003589e-04 0.0 
0.0 0.0 -6.553865090092e-05 
-7.498804079240e-05 7.264952039937e-07 0.0 
7.264952039937e-07 4.774096760748e-04 0.0 
0.0 0.0 -7.520405771235e-05 
-1.574390158364e-04 7.322658693661e-08 0.0 
7.322658693661e-08 1.047023690082e-03 0.0 
0.0 0.0 -1.568628108499e-04 
-1.202462798349e-04 1.277535447616e-06 0.0 
1.277535447616e-06 7.923369076637e-04 0.0 
0.0 0.0 -1.204472570985e-04 
-6.913329999888e-05 1.518567138290e-06 0.0 
1.518567138290e-06 4.374135939075e-04 0.0 
0.0 0.0 -6.946069291118e-05 
-1.870210423738e-04 1.710341786507e-07 0.0 
1.710341786507e-07 1.262084104717e-03 0.0 
0.0 0.0 -1.875139937252e-04 
-1.961583819331e-04 -2.514147813671e-06 0.0 
-2.514147813671e-06 1.318669280984e-03 0.0 
0.0 0.0 -1.960106588935e-04 
-1.542863799404e-04 -1.786859133762e-06 0.0 
-1.786859133762e-06 1.026998591695e-03 0.0 
0.0 0.0 -1.543154520944e-04 
-1.744631732482e-04 2.018301688582e-06 0.0 
2.018301688582e-06 1.157934353510e-03 0.0 
0.0 0.0 -1.729253385307e-04 
-1.515018167516e-04 8.404198603290e-07 0.0 
8.404198603290e-07 1.010295705910e-03 0.0 
0.0 0.0 -1.515893794002e-04 
-1.789376768634e-04 -2.919640014592e-06 0.0 
-2.919640014592e-06 1.191538801034e-03 0.0 
0.0 0.0 -1.778575971036e-04 
-1.110411603683e-04 -8.342356804498e-06 0.0 
-8.342356804498e-06 7.312796766666e-04 0.0 
0.0 0.0 -1.117662927266e-04 
-1.911119346146e-05 1.280039211139e-07 0.0 
1.280039211139e-07 9.580427244612e-05 0.0 
0.0 0.0 -1.958655518621e-05 
-1.481869069540e-04 1.615226342953e-06 0.0 
1.615226342953e-06 9.850665679094e-04 0.0 
0.0 0.0 -1.481937727541e-04 
-5.301773043500e-05 1.085407750924e-06 0.0 
1.085407750924e-06 3.130804062890e-04 0.0 
0.0 0.0 -5.155996613848e-05 
-5.287064574584e-05 8.669478230726e-08 0.0 
8.669478230726e-08 3.211142711540e-04 0.0 
0.0 0.0 -5.286758958265e-05 
-4.293484566845e-05 -2.294669534037e-07 0.0 
-2.294669534037e-07 2.490277005517e-04 0.0 
0.0 0.0 -4.248609661651e-05 
-7.457102542764e-05 4.540838739860e-07 0.0 
4.540838739860e-07 4.629980056454e-04 0.0 
0.0 0.0 -7.285240290645e-05 
-2.774703220549e-05 1.104401006757e-06 0.0 
1.104401006757e-06 1.537348123985e-04 0.0 
0.0 0.0 -2.914266538000e-05 
-4.307384339748e-05 1.329013767483e-06 0.0 
1.329013767483e-06 2.553580944067e-04 0.0 
0.0 0.0 -4.333354231935e-05 
-1.879084470079e-04 -2.749275055618e-06 0.0 
-2.749275055618e-06 1.255451133352e-03 0.0 
0.0 0.0 -1.867668077911e-04 
-1.189011343897e-04 -7.099494553202e-06 0.0 
-7.099494553202e-06 7.923665314969e-04 0.0 
0.0 0.0 -1.207517460948e-04 
-1.659393230097e-04 -1.374219794473e-06 0.0 
-1.374219794473e-06 1.113429222670e-03 0.0 
0.0 0.0 -1.665613853390e-04 
-3.293815057038e-05 1.035559240217e-06 0.0 
1.035559240217e-06 1.835663013155e-04 0.0 
0.0 0.0 -3.316239960270e-05 
-1.877702954761e-04 -2.194005982338e-06 0.0 
-2.194005982338e-06 1.259619262861e-03 0.0 
0.0 0.0 -1.871049233185e-04 
-1.875538609812e-04 9.967607666470e-07 0.0 
9.967607666470e-07 1.259292980625e-03 0.0 
0.0 0.0 -1.869913167940e-04 
-1.965092283334e-04 -2.596350880128e-06 0.0 
-2.596350880128e-06 1.320494070457e-03 0.0 
0.0 0.0 -1.959374034051e-04 
-1.758179036347e-04 -4.481197506715e-07 0.0 
-4.481197506715e-07 1.181701348802e-03 0.0 
0.0 0.0 -1.764557581508e-04 
-3.270582193410e-05 -4.386817373036e-07 0.0 
-4.386817373036e-07 1.770411407639e-04 0.0 
0.0 0.0 -3.195907242369e-05 
-1.266388969174e-04 -6.538610975457e-06 0.0 
-6.538610975457e-06 8.502071903162e-04 0.0 
0.0 0.0 -1.290525119649e-04 
-1.885161697494e-04 -1.408082556477e-06 0.0 
-1.408082556477e-06 1.262346972473e-03 0.0 
0.0 0.0 -1.876241058639e-04 
-1.609443742117e-04 -4.613026983514e-07 0.0 
-4.613026983514e-07 1.083073354588e-03 0.0 
0.0 0.0 -1.620379724609e-04 
-1.949934473796e-04 8.861010983955e-06 0.0 
8.861010983955e-06 1.323301005755e-03 0.0 
0.0 0.0 -1.964977576321e-04 
-1.170915995552e-04 -2.526672373362e-07 0.0 
-2.526672373362e-07 7.818822557443e-04 0.0 
0.0 0.0 -1.196852915840e-04 
-1.881251343584e-04 1.719532540905e-06 0.0 
1.719532540905e-06 1.262091246564e-03 0.0 
0.0 0.0 -1.879162412457e-04 
-4.159837246659e-05 -1.872810599717e-06 0.0 
-1.872810599717e-06 2.367903641582e-04 0.0 
0.0 0.0 -4.105708941867e-05 
-1.880384365163e-04 2.724632523543e-06 0.0 
2.724632523543e-06 1.261692801511e-03 0.0 
0.0 0.0 -1.881249298770e-04 
-1.672657211226e-04 -3.803404194109e-07 0.0 
-3.803404194109e-07 1.114623838802e-03 0.0 
0.0 0.0 -1.665474363985e-04 
-1.318213223878e-04 4.430076983304e-06 0.0 
4.430076983304e-06 8.772776289306e-04 0.0 
0.0 0.0 -1.326022361065e-04 
-1.268048282990e-04 1.914164460218e-06 0.0 
1.914164460218e-06 8.466567585872e-04 0.0 
0.0 0.0 -1.285548941949e-04 
-1.877454760479e-04 1.284504322459e-06 0.0 
1.284504322459e-06 1.264298494462e-03 0.0 
0.0 0.0 -1.884505761775e-04 
-1.888991999446e-04 -3.702937246346e-06 0.0 
-3.702937246346e-06 1.261816131107e-03 0.0 
0.0 0.0 -1.874258164109e-04 
-2.628632611275e-05 2.399677637307e-06 0.0 
2.399677637307e-06 1.387230862011e-04 0.0 
0.0 0.0 -2.654059898772e-05 
-1.521013519928e-04 5.577678305588e-06 0.0 
5.577678305588e-06 1.024057332589e-03 0.0 
0.0 0.0 -1.536536413446e-04 
-9.055668035440e-05 -2.892025472723e-06 0.0 
-2.892025472723e-06 5.805249846311e-04 0.0 
0.0 0.0 -8.976434653209e-05 
-1.704710855302e-05 -3.458702652501e-06 0.0 
-3.458702652501e-06 8.989110359220e-05 0.0 
0.0 0.0 -1.808546165336e-05 
-1.884986873262e-04 5.724623714394e-06 0.0 
5.724623714394e-06 1.260552726885e-03 0.0 
0.0 0.0 -1.874281668734e-04 
-1.771946189262e-04 -2.402253146538e-07 0.0 
-2.402253146538e-07 1.178369612400e-03 0.0 
0.0 0.0 -1.758283601128e-04 
-1.891214672248e-04 5.594443250151e-06 0.0 
5.594443250151e-06 1.262060829366e-03 0.0 
0.0 0.0 -1.877794506222e-04 
-3.041019390796e-05 4.063728315188e-06 0.0 
4.063728315188e-06 1.568790135595e-04 0.0 
0.0 0.0 -2.929729011833e-05 
-1.923826485663e-05 2.395451325704e-06 0.0 
2.395451325704e-06 8.936390066832e-05 0.0 
0.0 0.0 -1.909551055642e-05 
-1.897110782286e-04 1.614204189851e-06 0.0 
1.614204189851e-06 1.273238434675e-03 0.0 
0.0 0.0 -1.887784298001e-04 
-1.886445185701e-04 1.051783953079e-06 0.0 
1.051783953079e-06 1.269174095551e-03 0.0 
0.0 0.0 -1.885660222491e-04 
-4.447382147791e-05 2.187152848341e-06 0.0 
2.187152848341e-06 2.726065505036e-04 0.0 
0.0 0.0 -4.552470986649e-05 
-1.972951013402e-04 -6.924320481765e-07 0.0 
-6.924320481765e-07 1.331208438024e-03 0.0 
0.0 0.0 -1.972065251748e-04 
-1.846003121508e-05 -1.622840747709e-06 0.0 
-1.622840747709e-06 8.564597044111e-05 0.0 
0.0 0.0 -1.843810201100e-05 
-1.091119861245e-04 9.275684085525e-07 0.0 
9.275684085525e-07 7.216506540820e-04 0.0 
0.0 0.0 -1.108446562541e-04 
-1.806806328908e-05 -2.788761483685e-06 0.0 
-2.788761483685e-06 9.325750213385e-05 0.0 
0.0 0.0 -1.871126948293e-05 
-1.949690694268e-04 -7.776605200528e-06 0.0 
-7.776605200528e-06 1.321740719942e-03 0.0 
0.0 0.0 -1.962797183211e-04 
-1.894401262255e-04 3.666748622647e-06 0.0 
3.666748622647e-06 1.266754761130e-03 0.0 
0.0 0.0 -1.882268625302e-04 
-9.871077405525e-05 5.581959752057e-06 0.0 
5.581959752057e-06 6.396670141167e-04 0.0 
0.0 0.0 -9.846769932235e-05 
-1.118450688366e-04 4.156485273902e-06 0.0 
4.156485273902e-06 7.411970212637e-04 0.0 
0.0 0.0 -1.131213240816e-04 
-6.675482278899e-05 2.746646028006e-06 0.0 
2.746646028006e-06 4.187062855815e-04 0.0 
0.0 0.0 -6.639636993191e-05 
-1.817394697373e-04 5.968977030046e-06 0.0 
5.968977030046e-06 1.213512747672e-03 0.0 
0.0 0.0 -1.805248368263e-04 
-2.549001927232e-05 1.681293934372e-06 0.0 
1.681293934372e-06 1.416935565870e-04 0.0 
0.0 0.0 -2.765034433090e-05 
-1.904991185222e-04 -2.176372463226e-06 0.0 
-2.176372463226e-06 1.275606109758e-03 0.0 
0.0 0.0 -1.890445337758e-04 
-1.902901370943e-04 -9.239913511013e-07 0.0 
-9.239913511013e-07 1.276413630327e-03 0.0 
0.0 0.0 -1.892125449932e-04 
-1.899738152617e-04 1.392000637092e-06 0.0 
1.392000637092e-06 1.275351249225e-03 0.0 
0.0 0.0 -1.890927655262e-04 
-1.980969591010e-04 1.747220192360e-07 0.0 
1.747220192360e-07 1.334413570643e-03 0.0 
0.0 0.0 -1.976588442224e-04 
-1.595876566451e-05 5.109996014523e-06 0.0 
5.109996014523e-06 8.560533841461e-05 0.0 
0.0 0.0 -1.829422046362e-05 
-1.907894524984e-04 -1.453289198629e-06 0.0 
-1.453289198629e-06 1.278087489939e-03 0.0 
0.0 0.0 -1.894635324722e-04 
-1.817965180967e-04 4.689820275562e-06 0.0 
4.689820275562e-06 1.212613848096e-03 0.0 
0.0 0.0 -1.803359864353e-04 
-1.117957005377e-04 6.977421344692e-06 0.0 
6.977421344692e-06 7.320600126907e-04 0.0 
0.0 0.0 -1.115961672155e-04 
-1.879277561833e-04 6.009601527580e-06 0.0 
6.009601527580e-06 1.263394424764e-03 0.0 
0.0 0.0 -1.878861552790e-04 
-8.116031042482e-05 4.154281404345e-06 0.0 
4.154281404345e-06 5.182033185543e-04 0.0 
0.0 0.0 -8.075837133452e-05 
-3.557600018319e-05 -6.705160068937e-06 0.0 
-6.705160068937e-06 2.127372360934e-04 0.0 
0.0 0.0 -3.738032741976e-05 
-1.948498336035e-04 -4.155697267809e-06 0.0 
-4.155697267809e-06 1.324960786423e-03 0.0 
0.0 0.0 -1.970235340649e-04 
-6.441570103541e-06 -6.279015523928e-07 0.0 
-6.279015523928e-07 3.480654244499e-05 0.0 
0.0 0.0 -7.946641316233e-06 
-1.120604214633e-04 -3.288397658700e-06 0.0 
-3.288397658700e-06 7.283085618337e-04 0.0 
0.0 0.0 -1.110361655408e-04 
-1.968531726492e-04 6.196640298584e-06 0.0 
6.196640298584e-06 1.326994606246e-03 0.0 
0.0 0.0 -1.970239266116e-04 
-3.317100676700e-05 -5.514460053326e-07 0.0 
-5.514460053326e-07 2.002819803963e-04 0.0 
0.0 0.0 -3.602866455310e-05 
-1.267924167818e-04 -3.909643930437e-06 0.0 
-3.909643930437e-06 8.405854862832e-04 0.0 
0.0 0.0 -1.273445728183e-04 
-1.883260687280e-04 -1.377902224743e-06 0.0 
-1.377902224743e-06 1.272138406880e-03 0.0 
0.0 0.0 -1.890317804362e-04 
-1.203896409836e-04 1.438809671102e-06 0.0 
1.438809671102e-06 7.891647527459e-04 0.0 
0.0 0.0 -1.197994443266e-04 
-1.726861375007e-04 -9.127303948545e-06 0.0 
-9.127303948545e-06 1.150354645725e-03 0.0 
0.0 0.0 -1.722668051730e-04 
-3.289244603068e-05 1.865001967380e-06 0.0 
1.865001967380e-06 1.965766441920e-04 0.0 
0.0 0.0 -3.568834104832e-05 
-5.881706171023e-06 -3.561904745218e-07 0.0 
-3.561904745218e-07 3.491879089690e-05 0.0 
0.0 0.0 -7.282502801701e-06 
-1.446887067247e-04 -6.124654101547e-06 0.0 
-6.124654101547e-06 9.637426034631e-04 0.0 
0.0 0.0 -1.450319398739e-04 
-1.900119233844e-04 5.405432627128e-06 0.0 
5.405432627128e-06 1.271140965081e-03 0.0 
0.0 0.0 -1.888071511890e-04 
-1.907231428786e-04 -2.479170288195e-06 0.0 
-2.479170288195e-06 1.279898250331e-03 0.0 
0.0 0.0 -1.895996551150e-04 
-1.374681624272e-04 5.948461411176e-06 0.0 
5.948461411176e-06 9.167037354941e-04 0.0 
0.0 0.0 -1.379940178424e-04 
-3.140963832924e-05 -6.998474457374e-06 0.0 
-6.998474457374e-06 1.796728179544e-04 0.0 
0.0 0.0 -3.246938559274e-05 
-1.841130626501e-04 1.475194732939e-06 0.0 
1.475194732939e-06 1.232968589940e-03 0.0 
0.0 0.0 -1.831558075192e-04 
-1.038243241623e-04 -4.078507790945e-07 0.0 
-4.078507790945e-07 6.921885952500e-04 0.0 
0.0 0.0 -1.059090906887e-04 
-1.833573372240e-04 -2.325322525301e-06 0.0 
-2.325322525301e-06 1.222189390314e-03 0.0 
0.0 0.0 -1.813408670945e-04 
-1.831720387608e-04 -1.195237391827e-06 0.0 
-1.195237391827e-06 1.215102366402e-03 0.0 
0.0 0.0 -1.805709848148e-04 
-8.505788794989e-06 -2.657547953589e-06 0.0 
-2.657547953589e-06 3.877580200424e-05 0.0 
0.0 0.0 -9.674067485877e-06 
-1.292364309074e-04 2.864479089253e-06 0.0 
2.864479089253e-06 8.498544276161e-04 0.0 
0.0 0.0 -1.284404431535e-04 
-1.837715794025e-05 -4.476436000323e-06 0.0 
-4.476436000323e-06 8.791465953263e-05 0.0 
0.0 0.0 -1.834574975625e-05 
-1.906256035079e-04 -2.900280215013e-06 0.0 
-2.900280215013e-06 1.276520367600e-03 0.0 
0.0 0.0 -1.895571240875e-04 
-1.101124519025e-04 -2.003731999075e-06 0.0 
-2.003731999075e-06 7.232878293546e-04 0.0 
0.0 0.0 -1.101665449339e-04 
-7.287737908661e-05 -5.356659590835e-06 0.0 
-5.356659590835e-06 4.997222128530e-04 0.0 
0.0 0.0 -7.788265306121e-05 
-7.961974967197e-05 -6.571269526957e-07 0.0 
-6.571269526957e-07 4.982209090245e-04 0.0 
0.0 0.0 -7.900000000000e-05 
-8.324861204494e-05 -5.744890109580e-06 0.0 
-5.744890109580e-06 5.692366340431e-04 0.0 
0.0 0.0 -8.790306122449e-05 
-8.930212876051e-05 1.144359831531e-06 0.0 
1.144359831531e-06 5.794802677978e-04 0.0 
0.0 0.0 -8.900000000000e-05 
-9.352423002678e-05 -5.224443985984e-06 0.0 
-5.224443985984e-06 6.401887908398e-04 0.0 
0.0 0.0 -9.787877878422e-05 
-1.009998970260e-04 5.583373135514e-06 0.0 
5.583373135514e-06 6.372022866514e-04 0.0 
0.0 0.0 -9.900000000000e-05 

SCALARS node_materi_plasti_kappa_shear float
LOOKUP_TABLE default
1.731369050501e-05
4.545550431279e-04
8.879540853347e-04
8.885778472785e-04
4.289921439406e-05
9.327668990988e-05
1.307750198866e-04
1.795624514288e-04
2.257201379956e-04
2.695509172566e-04
3.144422750007e-04
3.602182894153e-04
4.054873038985e-04
4.525148308088e-04
5.038541824835e-04
5.495995247736e-04
5.862111262393e-04
6.342650658052e-04
6.814841447557e-04
7.273130426229e-04
7.742201728224e-04
8.215906888973e-04
8.669064806701e-04
8.898091793777e-04
8.888004860446e-04
8.881476431534e-04
8.886611550675e-04
8.873292207379e-04
8.873796625285e-04
8.877145688059e-04
8.882991997087e-04
8.891081577287e-04
8.895674516381e-04
8.882569121584e-04
8.886773248083e-04
8.897614672626e-04
8.893270601288e-04
8.879317372578e-04
8.867155421259e-04
8.860750537291e-04
8.875036930769e-04
8.888199397314e-04
8.889528056051e-04
8.891193998000e-04
8.889269682470e-04
8.885711942667e-04
8.881774963459e-04
8.893558715016e-04
8.892926716100e-04
8.896475655307e-04
8.895391621796e-04
8.902345752378e-04
8.910618100376e-04
8.908268286946e-04
8.883017444198e-04
8.870033247227e-04
8.889101297818e-04
8.887178507321e-04
8.889749525521e-04
8.891814831339e-04
8.887055024058e-04
8.873576980910e-04
8.876113339264e-04
8.880420548052e-04
8.897938021992e-04
8.907165225603e-04
8.860205656141e-04
8.893069775074e-04
8.887535151655e-04
8.885180406596e-04
8.909163501420e-04
8.913403494152e-04
4.970460226215e-04
5.465414378926e-04
5.921313660911e-04
6.364287587029e-04
6.825537522220e-04
7.278134995944e-04
7.735342273327e-04
8.173136017165e-04
8.659377019958e-04
1.387818063272e-05
4.539930109995e-04
5.438054036256e-05
1.009772649362e-04
1.470854780186e-04
1.881787348830e-04
2.342110044356e-04
2.805023773078e-04
3.255265759598e-04
3.570654865109e-04
4.033178026184e-04
3.377431045378e-04
3.616329343761e-04
4.060157178949e-04
4.461572723987e-04
4.482375507592e-04
4.489251939510e-04
4.482810220245e-04
4.560054951225e-04
4.490487455221e-04
4.479848053994e-04
4.491487522400e-04
4.505166080725e-04
4.507339705437e-04
4.500429840668e-04
4.496777136800e-04
4.491474461797e-04
4.502737102712e-04
1.443236451681e-05
1.609184950887e-05
1.444777850682e-05
1.445196928896e-05
1.742545827470e-05
1.883427368882e-05
1.852391460304e-05
1.764215548380e-05
1.771561269883e-05
1.733046749832e-05
1.810073159380e-05
2.048990176091e-05
1.919122443325e-05
1.606222747872e-05
1.631184331598e-05
1.838276961406e-05
1.899682157401e-05
1.674761483558e-05
1.515472777583e-05
3.198703268088e-04
3.395353333808e-04
3.417561976751e-04
3.416333018859e-04
3.411406076812e-04
3.410441783755e-04
3.414395039426e-04
3.415160363231e-04
3.414653733552e-04
3.412515151625e-04
3.412697558554e-04
3.414474406612e-04
3.412911921755e-04
3.411435384473e-04
3.410624615981e-04
3.410308588360e-04
3.408619143215e-04
3.372579546333e-04
3.311791758583e-04
3.611485313111e-04
3.593958689772e-04
3.591898798686e-04
3.593297202165e-04
3.592471895824e-04
3.594265497814e-04
3.596237032014e-04
3.596571460670e-04
3.593377794373e-04
3.596684783014e-04
3.598758848307e-04
3.597552388914e-04
3.597821813941e-04
3.590976444273e-04
3.597033129801e-04
3.627706280632e-04
3.496857881406e-04
3.956894430432e-04
4.084843113251e-04
4.060961241034e-04
4.055043726269e-04
4.058070391746e-04
4.060008361141e-04
4.054675210445e-04
4.054158394705e-04
4.054705070724e-04
4.053661824669e-04
4.051783298876e-04
4.050677983318e-04
4.054138231738e-04
4.048987951044e-04
4.060536754366e-04
4.085853059390e-04
3.439412955423e-05
7.855211595374e-05
1.235371244524e-04
1.701785260397e-04
2.135457077895e-04
2.587899329113e-04
3.042620563587e-04
3.362497538655e-04
3.823052700951e-04
4.292533059372e-04
1.065540971725e-04
8.722366970816e-04
3.071877777411e-05
2.955753103127e-05
8.728796448070e-04
1.993419400918e-04
4.786993620079e-04
8.715410235368e-04
2.838574358308e-04
8.733046452917e-04
3.784478368563e-04
8.750925786310e-04
2.796371051266e-05
8.736269387388e-04
4.733271556655e-04
2.936877367691e-04
6.035474916514e-04
8.717572086584e-04
8.738199405046e-04
8.737494710065e-04
8.696287808285e-04
8.750806370792e-04
4.919558859900e-04
4.918398764199e-04
4.949307231399e-04
6.589482462508e-04
8.738674271820e-04
2.813705699443e-05
3.195365789908e-05
7.486411905949e-04
4.900146372998e-04
1.541367175474e-04
8.655890379535e-04
8.755682138923e-04
8.730973644309e-04
8.703784410466e-04
8.740973276145e-04
3.187356296986e-05
4.907091952207e-04
8.662583448289e-04
7.508115515426e-04
3.074176072344e-05
3.834518994422e-04
8.815314033999e-04
2.457863140164e-04
1.527805289882e-04
3.313833785311e-04
4.244970235113e-04
5.636808983146e-05
5.718052096935e-04
8.819662471530e-04
3.001251584579e-05
8.373343036417e-04
4.924452570696e-04
5.108818745462e-04
5.332387487364e-04
5.560142054344e-04
5.787643014481e-04
5.991259251811e-04
5.752635265182e-04
6.186942134972e-04
5.944516730932e-04
6.231926228760e-04
6.380835551574e-04
6.135840024034e-04
6.573144048118e-04
6.328089844586e-04
5.894129404994e-04
6.085043193505e-04
5.651248587261e-04
5.842235601993e-04
6.277370129424e-04
6.033008816137e-04
5.598285256637e-04
5.787470750074e-04
5.354343962972e-04
5.543066005166e-04
5.109771159406e-04
5.298843866556e-04
5.732568666387e-04
5.488106401566e-04
5.054467442157e-04
5.243830125588e-04
4.810781478793e-04
4.998224426771e-04
5.432974154275e-04
5.187745459682e-04
4.750268661506e-04
4.942061513858e-04
4.503195040673e-04
4.696890934292e-04
4.255957344176e-04
4.448505048632e-04
4.889334273357e-04
4.641717549476e-04
4.199472596373e-04
4.391094936345e-04
4.834394634788e-04
4.583112576687e-04
5.027462790146e-04
4.776197235482e-04
4.333642288832e-04
4.526081348578e-04
4.969211450957e-04
4.717210733978e-04
4.275809977385e-04
4.467222286567e-04
4.910180813087e-04
4.658552900682e-04
4.216677957086e-04
4.408729284411e-04
4.853895838457e-04
4.600318407553e-04
4.156094397672e-04
4.346988666159e-04
4.795014301536e-04
4.538188443789e-04
4.989809666093e-04
4.088754149089e-04
4.280167623937e-04
3.828819013324e-04
4.021805478245e-04
5.624042399684e-04
3.568746175437e-04
3.381624883378e-04
3.763715402787e-04
4.219792148569e-04
3.309364607346e-04
3.505799184385e-04
3.052633941202e-04
4.056941669208e-04
6.469586485139e-04
3.250320809889e-04
2.796631607038e-04
2.599302819126e-04
2.342013255709e-04
6.036748186582e-04
6.482174305303e-04
6.269535787043e-04
6.731337752938e-04
6.527067380216e-04
2.538439629180e-04
6.821261244064e-04
6.930466000944e-04
5.166862193674e-04
4.621843229341e-04
5.278976428177e-04
3.703184973447e-04
3.451321418538e-04
3.906862459586e-04
5.246371866953e-04
5.443146240762e-04
5.699547953913e-04
5.897069522285e-04
6.153672919097e-04
6.351883362805e-04
6.094609170451e-04
6.550126832139e-04
6.292102542344e-04
6.608318434088e-04
6.410047653727e-04
6.747478106556e-04
6.489569127364e-04
6.944404496434e-04
6.686255413523e-04
6.230894205853e-04
6.427296395524e-04
5.974326100299e-04
5.473118415211e-04
5.725790691740e-04
5.920079111204e-04
6.173889614791e-04
6.368362109388e-04
6.623309645012e-04
6.816599341203e-04
6.563140336921e-04
6.764880034757e-04
3.948980065668e-04
3.757422617964e-04
3.507921955189e-04
3.317100384563e-04
3.067998146490e-04
2.878591714287e-04
2.628952814348e-04
2.817770972622e-04
2.377365497028e-04
2.565509120403e-04
2.123913595215e-04
2.311386405196e-04
5.922576399657e-04
6.427827676104e-04
6.878682679612e-04
6.678822000469e-04
2.148067718258e-04
6.882180801932e-04
6.864985118878e-04
6.664359755593e-04
7.013124766121e-04
2.087760264216e-04
2.441964081010e-04
2.687157839923e-04
6.978563593589e-04
6.772610625539e-04
7.121601343833e-04
2.283568469402e-04
7.006628053783e-04
1.937776703377e-04
6.622880887680e-04
7.078272471647e-04
5.837558227301e-04
7.131417687538e-04
6.924127382572e-04
2.759772220359e-04
2.508908842006e-04
2.067202652783e-04
2.273131006144e-04
2.708850174899e-04
2.448672349258e-04
1.998980645288e-04
2.191272268305e-04
2.639108306055e-04
2.381925193768e-04
1.928266391849e-04
2.123220651939e-04
7.337275495344e-04
1.682265145296e-04
5.462050413710e-04
7.318865140830e-04
7.261568958084e-04
7.225832230558e-04
7.021288971226e-04
6.565124913041e-04
6.819655065462e-04
7.275032532752e-04
7.072262295564e-04
6.616628008332e-04
6.865235503483e-04
6.407465733666e-04
6.657182290584e-04
7.113460086993e-04
6.908411643582e-04
6.453255735266e-04
6.702622678794e-04
6.246789880058e-04
6.489319520512e-04
6.952190037192e-04
1.840273521277e-04
6.759567359458e-04
7.214607443990e-04
3.679720332759e-04
4.092817550487e-04
4.360686121869e-04
4.564588720529e-04
6.740705970757e-04
7.205777350965e-04
2.252804046805e-04
2.496360743898e-04
7.429139095365e-04
6.823424879044e-04
6.366049028177e-04
4.378451378818e-04
4.188880438556e-04
3.943752891281e-04
3.748640538969e-04
4.003452629813e-04
3.498940421147e-04
6.207438251872e-04
7.364909888472e-04
2.405871186206e-04
1.954370079604e-04
7.282805554458e-04
6.308606560243e-04
6.167686675708e-04
6.359024740526e-04
6.606418547102e-04
6.798245018957e-04
7.048195630290e-04
7.239151784800e-04
6.995250348688e-04
7.376440826471e-04
7.439657402355e-04
6.261993285558e-04
6.226819723499e-04
2.832721408126e-04
1.644730842850e-04
1.669301588230e-04
2.020973455329e-04
2.478170423544e-04
7.577119654081e-04
7.492733009352e-04
7.294398050137e-04
3.569060949549e-04
3.819409900850e-04
7.577870500628e-04
6.069742862614e-04
6.160208837846e-04
5.947078797033e-04
1.502552835390e-04
1.472236624068e-04
7.528104372185e-04
2.930236053531e-04
2.739490413792e-04
1.500905215988e-04
1.240537225359e-04
6.973593058681e-04
7.439041173789e-04
4.813505419260e-04
5.017144862584e-04
7.379119109570e-04
1.870277448814e-04
7.663141417339e-04
6.508032487137e-04
6.054849935165e-04
4.293291398523e-04
2.069471688254e-04
1.825426121622e-04
3.087667916428e-04
2.317056376954e-04
2.217281548421e-04
7.833146767017e-04
7.725249111761e-04
7.195048383756e-04
6.747855449436e-04
7.634484368176e-04
1.418552388890e-04
7.784896772250e-04
7.030108063973e-04
7.725824598691e-04
7.540604595901e-04
3.171474948001e-04
2.987852970653e-04
2.558668176592e-04
2.815832131691e-04
5.513698858348e-04
3.420076733765e-04
5.219255427951e-04
5.030668813377e-04
4.792452590639e-04
4.247335201093e-04
4.063236056300e-04
3.563244576484e-04
5.530404887445e-04
4.617109805981e-04
5.777394579271e-04
5.501611182387e-04
7.566237315057e-04
7.823745579098e-04
5.997434588477e-04
5.780237946273e-04
1.697495562144e-04
1.508805515530e-04
5.186529117619e-04
7.516991623626e-04
7.672690893153e-04
7.876001356161e-04
7.626509320592e-04
7.627778325953e-04
3.699499845101e-04
5.666666454918e-04
1.438245311811e-04
5.868006376027e-04
1.247175489974e-04
6.713548583210e-04
7.483917891977e-04
7.736774679398e-04
7.821572245300e-04
4.899015071153e-04
6.061770746779e-04
5.817931729753e-04
4.605724853742e-04
4.370223372958e-04
4.552736079605e-04
4.133656439147e-04
3.276923247088e-04
3.020339028758e-04
7.979659689173e-04
7.883460447530e-04
7.982408092042e-04
7.795524967648e-04
8.013069214063e-04
7.771428291273e-04
2.665794004091e-04
3.640873967819e-04
7.971681631113e-04
4.838853975756e-04
7.968536680470e-04
7.720983615569e-04
9.810668217613e-05
1.158569237012e-04
7.915840785144e-04
2.380574401883e-04
2.618006099049e-04
2.132008951495e-04
8.415052523991e-04
4.886663809025e-04
7.934056144555e-04
4.492884086887e-04
8.130387548701e-04
6.261760504981e-04
4.125814814439e-04
7.178732318399e-04
7.666642762268e-04
8.185709815988e-04
5.696834584242e-04
5.469719599133e-04
5.897324846543e-04
1.746640571462e-04
1.267235960322e-04
7.616042996353e-04
3.196076646027e-04
3.449992437643e-04
2.048866664362e-04
2.493062780569e-04
5.070116633323e-04
4.873520815403e-04
6.908734956118e-04
7.154878992920e-04
6.414340301825e-04
6.254037858679e-04
5.801902790572e-04
5.606256376154e-04
8.012681753723e-04
8.329963825512e-04
3.530470634913e-04
3.340524441574e-04
3.460614324759e-04
8.175524335045e-04
8.195011765416e-04
7.988609115481e-04
1.072300634752e-04
1.330632502214e-04
1.652810804939e-04
1.397493906304e-04
8.060647275400e-04
7.832275887001e-04
8.359053686964e-04
2.373558503067e-04
6.948259004067e-04
8.063839968108e-04
7.881231808626e-04
8.339301416530e-04
7.615215817857e-04
8.048887775842e-04
8.067360300635e-04
8.088210451328e-05
8.001969768968e-04
5.513628864854e-04
5.991210265794e-05
5.303750343771e-04
5.575493484435e-04
5.056018791105e-04
1.923253731113e-04
5.350945061517e-04
5.648908884563e-04
7.689491788832e-05
8.408831798945e-04
8.340401133038e-05
9.990498025281e-05
8.174634215095e-04
7.911886027123e-04
8.358366351121e-04
8.088717682168e-04
7.649515697637e-04
7.857574983214e-04
5.264350640623e-04
8.358546589261e-04
8.061222461893e-04
8.605711697752e-04
3.958089654574e-04
3.059852068258e-04
2.858172523062e-04
2.426109781750e-04
8.296191495191e-04
8.022538523192e-04
7.244602053986e-04
6.782170569491e-04
5.336023792134e-04
5.298854478294e-04
5.720377334188e-04
5.651841783924e-04
6.088002111604e-04
6.018654128492e-04
6.443068834977e-04
8.334708182106e-04
1.951336418689e-04
4.420082584187e-04
8.207982746555e-04
7.940700745776e-04
3.881584802576e-04
3.471998577605e-04
8.305993334525e-04
3.609425281377e-04
8.689143425974e-04
2.787060135920e-05
7.286647819476e-05
3.859558184678e-04
4.309545412117e-04
3.298825060451e-04
3.137520652760e-04
6.714664482733e-04
1.125731627303e-04
1.894537224626e-04
6.501544121412e-04
1.477430287242e-04
7.019854955118e-04
3.810844111669e-04
4.677711350311e-04
2.313148587081e-04
3.252238421852e-04
5.703579268460e-04
5.324043867603e-04
5.086674172278e-04
4.006419728863e-04
3.391204703335e-04
2.923835719857e-04
5.408511218791e-04
7.379651171000e-04
7.579706773122e-04
8.011548755258e-04
7.780826984350e-04
7.332840892905e-04
7.526479975871e-04
7.971803115054e-04
7.735197813417e-04
8.262472905690e-04
7.929598925790e-04
7.470527542953e-04
7.659248830045e-04
8.091032939205e-04
7.211619544472e-04
8.442167902149e-04
4.306865788467e-04
1.044765289972e-04
9.827683643382e-05
4.923540219683e-04
8.714790847239e-04
8.731736799155e-04
3.123792524490e-04
8.729287150019e-04
5.272649318487e-04
2.191398239417e-04
8.732031985156e-04
7.130087249815e-04
6.877858420163e-04
6.679067510146e-04
8.747254954737e-04
6.109742344751e-04
8.755701857100e-04
5.978551322893e-04
5.777687862342e-04
5.331862976259e-04
7.271016044260e-04
8.726832412974e-04
8.363453721647e-04
8.357287884966e-04
7.967949130083e-04
8.729311769591e-04
8.746048210340e-04
8.757603934564e-04
2.896480078818e-04
3.151536061377e-04
3.591713235696e-04
3.399576539233e-04
2.956226792121e-04
3.205301867894e-04
3.646701735677e-04
3.009725532030e-04
7.593675824400e-04
8.745186206881e-04
5.955179239956e-04
5.752952465899e-04
5.302262826699e-04
4.419860638094e-04
4.675978432361e-04
5.129738354448e-04
4.164548397465e-04
6.551879346242e-04
8.741019856414e-04
5.859901048920e-04
4.476603996913e-04
4.915230817815e-04
5.309240068605e-04
5.323700613709e-04
5.736894063965e-04
5.351590388547e-04
5.269854541203e-04
5.469085242661e-04
5.219164243980e-04
5.664660482549e-04
5.401131126200e-04
4.979524260253e-04
5.848853311671e-04
5.569185072007e-04
4.906420102381e-04
3.170448400110e-05
6.995385727615e-05
6.849074955060e-05
1.073511835087e-04
1.105991917856e-04
1.504731351132e-04
1.458387750102e-04
7.076324639262e-05
3.090762372850e-05
6.811155019588e-05
3.024275800373e-05
6.701952661023e-05
1.132561805515e-04
1.774278331148e-04
8.683268420300e-04
4.289563965157e-04
4.087467011713e-04
3.620022030675e-04
3.871398276738e-04
4.468882401977e-04
3.382483447187e-04
3.227666928477e-04
3.186373403238e-05
6.968070788243e-05
6.930431433067e-05
1.103830641038e-04
1.084283513711e-04
6.955844240917e-05
6.957251263225e-05
3.087829288754e-05
6.916668823128e-05
1.092093195758e-04
2.860096868461e-05
7.056820037004e-04
7.299566898429e-04
8.725577123160e-04
4.959692094609e-04
3.091218048916e-05
8.671852048698e-04
8.733432179252e-04
8.734531321064e-04
7.957971286484e-04
8.182028176353e-04
8.680808008300e-04
2.856246407715e-04
8.221505899075e-04
7.867365561803e-04
2.006879828875e-04
2.760157267466e-04
6.570374827172e-04
6.034788526751e-04
7.534404223277e-04
6.171445062617e-04
7.141191166494e-04
8.333331487220e-04
1.769391207037e-04
6.197356729893e-04
6.031369019689e-04
7.159815276405e-04
2.996957630434e-04
4.779314782196e-04
1.896480084331e-04
8.372249201877e-04
4.978685116583e-04
5.049912460344e-04
3.962534712183e-04
3.116673154321e-04
2.575495564398e-04
4.563132910929e-04
4.733113038568e-04
6.807420950213e-04
7.412727405057e-04
3.900894407946e-05
7.062809791721e-04
5.640134143322e-04
6.366157628327e-04
7.072992914154e-04
1.751116105001e-04
7.321461800821e-04
8.104970881191e-04
5.847505123753e-04
1.450668962481e-04
5.736378135269e-04
8.027337595558e-04
7.180376744355e-04
2.736317130801e-04
5.220914710743e-04
4.865818052908e-04
4.471177866968e-04
8.063363278817e-04
5.378993798996e-04
7.470022916029e-04
6.114026488664e-04
2.939212611736e-04
7.463767332910e-04
5.084976424556e-04
7.777626792266e-04
6.854084072495e-04
4.140791467985e-04
7.471678807683e-04
5.103813785756e-04
7.329713830172e-04
4.737289604077e-04
5.977356866437e-04
6.519892618683e-04
5.678021419543e-04
6.319192717496e-04
7.264774776897e-04
1.875624189713e-04
3.688310981205e-04
6.314501505079e-04
7.672682440834e-04
8.229065015772e-04
4.434680652511e-04
7.201561125460e-04
7.914028017314e-04
4.930979507901e-04
2.040260336769e-04
1.581177402907e-04
3.258736548738e-04
5.134927945261e-04
5.384299011222e-04
8.328361271424e-04
7.396786737532e-04
6.920128991829e-04
8.196000574170e-05
4.652440764187e-04
7.595631118992e-04
5.413940581115e-04
7.514691837904e-04
5.124079232766e-04
8.363223980306e-04
3.713304271161e-04
7.809543171496e-04
6.971423152539e-04
3.367042725643e-04
4.902204304360e-04
8.332513049422e-04
7.429330284218e-04
6.113513461743e-04
5.161141755974e-04
4.006034501526e-04
5.581912762765e-04
6.223072189553e-04
8.752979443997e-04
7.659203639431e-04
6.426709006855e-04
5.325586862055e-04
6.468672484863e-04
1.073528278852e-04
4.189303666797e-04
5.523127417924e-04
3.452338039030e-04
5.354806018552e-04
8.261173123730e-04
5.721454322879e-04
3.892915712256e-04
5.917818965200e-04
3.539736687271e-04
6.627781278346e-04
6.108539446376e-04
6.660506999495e-04
1.163652973912e-04
6.305577701447e-04
7.706780509162e-04
3.642601618824e-04
5.551389630622e-04
7.078379568633e-04
3.068275794996e-04
6.002627334512e-04
7.101300016245e-04
6.503083964526e-04
5.576201452771e-04
6.459702225838e-04
3.237473504565e-04
2.667167922262e-04
2.221184360012e-04
4.085364404529e-04
7.352038309621e-04
1.486189434307e-04
7.017840156360e-04
1.592352416656e-04
3.838129177836e-04
7.166805507109e-04
6.173636955304e-04
4.028477991316e-04
2.492989866975e-04
3.779520455053e-04
6.018674573376e-04
3.968794592392e-04
3.716672737304e-04
8.329159667528e-04
3.902334651909e-04
8.748882416506e-04
8.711247298713e-04
5.265534076551e-04
2.606176973493e-04
3.608218628589e-05
2.743663405466e-04
3.201182020186e-04
6.958586502564e-04
5.269760115519e-04
2.937831755636e-04
8.369611183303e-04
8.745831491043e-04
6.824073644152e-04
7.692285890476e-04
6.715862034514e-04
7.913186766418e-04
4.873605112046e-04
6.716351408429e-05
6.550406917342e-04
2.121979415798e-04
2.182245527634e-04
1.712289286332e-04
3.107224161433e-04
1.057301483358e-04
1.752557479945e-04
8.331013379116e-04
5.272790897640e-04
7.395202468706e-04
1.285853407158e-04
8.358234000511e-04
8.354665319098e-04
8.757509275415e-04
7.846429612781e-04
1.241570316100e-04
5.651773772313e-04
8.374854402620e-04
7.189201776621e-04
8.774612593526e-04
5.201256590730e-04
8.377629979176e-04
1.628222754370e-04
8.372912793325e-04
7.405810874684e-04
5.837048570091e-04
5.629391932634e-04
8.390585364860e-04
8.374355334258e-04
9.795501197395e-05
6.799231894058e-04
3.879757720191e-04
6.464184088928e-05
8.366012277656e-04
7.827055704325e-04
8.377349647591e-04
1.105757531249e-04
6.604595936870e-05
8.445536335797e-04
8.418018754541e-04
1.845877810614e-04
8.826549608500e-04
6.138757031093e-05
4.804799717199e-04
6.556100966196e-05
8.765991424528e-04
8.406352288090e-04
4.268003565694e-04
4.929667183317e-04
2.809817149082e-04
8.054666026434e-04
9.866382460825e-05
8.462920394623e-04
8.466481683937e-04
8.459200057126e-04
8.848347209821e-04
6.317410965350e-05
8.478579638221e-04
8.049072796093e-04
4.880930937126e-04
8.381519655460e-04
3.464907722736e-04
1.453132550396e-04
8.782340449193e-04
2.788672853684e-05
4.852288266984e-04
8.800271141742e-04
1.366420641944e-04
5.591160485790e-04
8.434724703118e-04
5.260519714094e-04
7.639465125205e-04
1.346350386641e-04
2.489926233996e-05
6.405845470091e-04
8.434966522637e-04
8.489495605041e-04
6.092101199237e-04
1.233072216686e-04
8.180905916336e-04
4.606593074043e-04
8.111203909914e-04
8.066949311417e-04
3.153365254742e-05
5.661385301693e-04
6.389298898293e-05
8.469003976225e-04
4.815533645814e-04
3.322884574065e-04
3.356786539240e-04
3.782594336362e-04
3.879906112582e-04
4.250700443092e-04
4.273709822799e-04

SCALARS node_materi_plasti_phimob float
LOOKUP_TABLE default
-5.927461282636e+01
3.880046328580e-01
2.061782647725e+01
1.875364651225e+01
-3.103132616225e+01
-5.472996585122e+00
4.931182437391e+00
1.096906161435e+01
1.452718374244e+01
1.669376618945e+01
1.823803568740e+01
1.937083461735e+01
2.016673466825e+01
2.076920548396e+01
2.120810510446e+01
2.139037636487e+01
2.144785746787e+01
2.150605435122e+01
2.146058784679e+01
2.135307173983e+01
2.120481211167e+01
2.101516738712e+01
2.080876765555e+01
1.878913421029e+01
1.878036909074e+01
1.879256897141e+01
1.880651012123e+01
1.879978953549e+01
1.883333624937e+01
1.885387761421e+01
1.890077482246e+01
1.895887685863e+01
1.902251080515e+01
1.906866950480e+01
1.917471831582e+01
1.927568380204e+01
1.940566331202e+01
1.951542111588e+01
1.965714407494e+01
1.982347597181e+01
1.999073344232e+01
2.022574231269e+01
2.043401127587e+01
2.060715829842e+01
2.071383600321e+01
2.084872071651e+01
2.093412362603e+01
2.099032212247e+01
2.101720869461e+01
2.105412031859e+01
2.103909554713e+01
2.103687512442e+01
2.098340853361e+01
2.098977203288e+01
2.095318167815e+01
2.090572998979e+01
2.086914019020e+01
2.083507195463e+01
2.079818463795e+01
2.077059772946e+01
2.074473636148e+01
2.072132794843e+01
2.070771218891e+01
2.067568344807e+01
2.064493120756e+01
2.063156152807e+01
2.066789553482e+01
2.060788257297e+01
2.061730118587e+01
2.059854424347e+01
2.059595504882e+01
2.060001891725e+01
6.087042011794e+00
9.628005530585e+00
1.200432844342e+01
1.371192119354e+01
1.506256030348e+01
1.612240442421e+01
1.700570835845e+01
1.774607207115e+01
1.838198318230e+01
-2.990222821643e+01
2.998748321309e-01
-7.112424451766e+00
1.671036183192e+00
4.810379407635e+00
4.944067246787e+00
4.007989053115e+00
3.114504149465e+00
-6.521966604845e+00
-1.764201283727e+01
-8.215756423387e+00
-4.087097062337e+01
-2.973519197694e+01
-1.064914630442e+01
-7.436468824193e-01
-3.833765875154e-01
-3.735312016687e-01
-4.596020610695e-01
3.682993211383e-01
-4.463205039665e-01
-5.635484657571e-01
-5.488806485844e-01
-4.812519034415e-01
-5.488332469918e-01
-6.371482110736e-01
-7.051740732614e-01
-6.890301045935e-01
-4.878592529443e-01
-3.147635771088e+01
-2.815427014421e+01
-2.751084495261e+01
-3.002596741812e+01
-3.447637401747e+01
-3.800373722034e+01
-4.180591343291e+01
-4.587513648937e+01
-5.002248724421e+01
-5.389544304682e+01
-5.726557238956e+01
-5.725131146424e+01
-5.852327002873e+01
-6.108753531209e+01
-6.077641737646e+01
-5.988080637689e+01
-5.972769600381e+01
-6.106645419626e+01
-6.306355553176e+01
-3.232136902177e+01
-4.226406578320e+01
-4.752742473994e+01
-5.094138390040e+01
-5.160316107189e+01
-5.147657505051e+01
-5.024001888087e+01
-4.879307530554e+01
-4.734053621162e+01
-4.594707737503e+01
-4.475045567440e+01
-4.378958840777e+01
-4.293006150644e+01
-4.225028603276e+01
-4.175229675999e+01
-4.145612263585e+01
-4.133915901600e+01
-4.129397483402e+01
-4.095237123701e+01
-2.919990557498e+01
-2.995935050409e+01
-3.007303503166e+01
-3.015781908701e+01
-3.029792619917e+01
-3.048740065396e+01
-3.073267839796e+01
-3.103430850086e+01
-3.138429496507e+01
-3.176046563159e+01
-3.216707040664e+01
-3.254807800684e+01
-3.282197376688e+01
-3.283395838802e+01
-3.204142946048e+01
-2.843519499701e+01
-2.811084944204e+01
-1.165003477897e+01
-1.031275151443e+01
-1.137239663069e+01
-1.143983367472e+01
-1.142220401706e+01
-1.139312736303e+01
-1.143570459207e+01
-1.144747466853e+01
-1.139607351895e+01
-1.141420313364e+01
-1.142664394474e+01
-1.143587036210e+01
-1.142790143626e+01
-1.146896291130e+01
-1.114447281364e+01
-1.036027045353e+01
-1.792216033641e+01
-1.562380021103e+00
3.560130248285e+00
5.073403105240e+00
6.136114921817e+00
4.872725657399e+00
2.612430259670e+00
-1.498326340291e+01
-1.132201089664e+01
-2.784818875972e+00
-2.414051817920e+00
2.117587013165e+01
-3.758208310050e+01
-3.012859520325e+01
2.099318778158e+01
5.101783671784e+00
2.102449357494e+01
2.125260397488e+01
6.461906650955e+00
2.102641179085e+01
-3.472259401497e+00
2.082699758200e+01
-4.143056196495e+01
2.034764281397e+01
3.571004452668e+00
1.760109499210e+01
2.150782428073e+01
1.954181345994e+01
1.893569072577e+01
1.853135219534e+01
1.850652551416e+01
1.871327982328e+01
4.866255025723e+00
4.945331433539e+00
5.390529873847e+00
1.442926204453e+01
2.078493303199e+01
-2.971206982605e+01
-3.941451565641e+01
2.128956522004e+01
5.078427038912e+00
8.351593820781e+00
1.906719958923e+01
2.118094139449e+01
2.075062717193e+01
2.128064383670e+01
2.108730517201e+01
-3.193471694589e+01
4.680736802167e+00
2.097141565178e+01
1.657474837745e+01
-3.961318558189e+01
1.982625941817e+01
1.860765993198e+01
6.568710761926e+00
2.982485079054e+00
3.929648378179e+00
-1.083858317355e+00
-1.488596589663e+01
1.108352883946e+01
2.073224835812e+01
-4.099620650500e+01
1.804188973279e+01
5.472918415909e+00
7.624902743747e+00
8.737032735832e+00
1.061379180251e+01
1.146002709355e+01
1.270758691076e+01
1.210756951568e+01
1.384944142063e+01
1.346015833128e+01
1.334664869729e+01
1.489484035552e+01
1.465762831563e+01
1.583146894979e+01
1.570013436336e+01
1.452756439239e+01
1.565633234424e+01
1.450607773505e+01
1.569443031684e+01
1.659421944454e+01
1.669468034325e+01
1.587391147468e+01
1.719143775919e+01
1.652866751304e+01
1.798950192418e+01
1.747019277038e+01
1.879899966227e+01
1.914962579050e+01
1.985198455460e+01
1.957209191359e+01
2.051201051506e+01
2.025321731144e+01
2.108643907171e+01
2.124060004489e+01
2.172702273644e+01
2.154736840516e+01
2.211731562644e+01
2.187545204156e+01
2.238808568180e+01
2.204024862478e+01
2.251674409359e+01
2.274324029424e+01
2.284158355075e+01
2.249015046054e+01
2.280016417222e+01
2.304607789823e+01
2.299146910311e+01
2.315299209875e+01
2.308790626825e+01
2.280864578538e+01
2.290924417538e+01
2.310912982109e+01
2.293654872278e+01
2.261174338047e+01
2.265903810412e+01
2.290958206820e+01
2.265183952690e+01
2.227435990938e+01
2.230335519484e+01
2.260670002242e+01
2.229219097715e+01
2.185719407030e+01
2.189293009910e+01
2.225403613494e+01
2.189873084649e+01
2.219452790208e+01
2.140248512988e+01
2.146942102911e+01
2.081518146236e+01
2.095933355320e+01
2.179266804033e+01
2.012891614954e+01
1.984723113626e+01
2.036891210646e+01
2.107499049698e+01
1.934247355083e+01
1.969166277958e+01
1.844053130047e+01
2.136735071111e+01
1.741043900122e+01
1.892040768284e+01
1.740495930622e+01
1.662892963606e+01
1.517940064537e+01
1.233900066135e+01
1.400424691594e+01
1.310314942317e+01
1.463625135335e+01
1.390609529494e+01
1.617790953091e+01
1.604666889667e+01
1.533502684739e+01
1.491136059198e+01
1.917932174215e+01
2.311244074826e+01
1.997911825485e+01
1.932046397286e+01
2.023890038608e+01
2.244231180879e+01
2.233531588195e+01
2.249501459079e+01
2.235397960507e+01
2.244086911242e+01
2.227704270690e+01
2.221021518300e+01
2.211376642343e+01
2.206714929495e+01
2.230331337397e+01
2.248402723565e+01
2.195297245726e+01
2.192650817340e+01
2.179552505054e+01
2.178969882207e+01
2.187082065298e+01
2.175997040276e+01
2.178846900398e+01
2.316356710866e+01
2.305927776100e+01
2.306944515600e+01
2.292273356032e+01
2.289884515439e+01
2.272683857318e+01
2.267155485661e+01
2.281904815670e+01
1.666122081455e+01
2.229703313410e+01
2.182488474044e+01
2.141303809613e+01
2.068239123040e+01
1.995626172736e+01
1.881160227084e+01
1.761745681900e+01
1.893200067831e+01
1.601136155117e+01
1.755875221924e+01
1.392518696209e+01
1.577888772061e+01
2.007301486692e+01
2.271911430403e+01
2.250893516454e+01
2.246751780763e+01
1.395796585366e+01
2.165883592554e+01
2.229092156753e+01
2.248238108524e+01
2.256399315891e+01
1.346911893138e+01
1.583657141466e+01
1.723038835324e+01
1.524073389061e+01
1.461760402208e+01
2.223812379195e+01
1.473435507812e+01
2.194877755923e+01
1.143001679742e+01
2.165301470538e+01
2.153812060625e+01
2.210317525390e+01
2.225937585990e+01
2.217898862904e+01
1.869355484745e+01
1.719176917352e+01
1.363885744703e+01
1.535551861500e+01
1.828412100624e+01
1.664707583349e+01
1.303345342916e+01
1.467165626163e+01
1.766622360387e+01
1.599532259779e+01
1.216742175499e+01
1.396204253811e+01
2.150418621731e+01
8.134164610859e+00
1.303367431306e+01
2.203911950627e+01
2.239515736588e+01
1.581308172074e+01
1.527841870027e+01
1.397229628184e+01
1.473125179182e+01
1.589413839311e+01
1.541288906437e+01
1.415533007207e+01
1.490335184410e+01
1.352712114222e+01
1.435762957130e+01
1.557040959801e+01
1.509292491379e+01
1.376979567085e+01
1.457384325437e+01
1.311052396831e+01
1.398798544394e+01
1.527899927312e+01
1.139123743426e+01
2.269534371103e+01
2.241555590235e+01
1.972313058104e+01
2.046054609609e+01
2.087723432447e+01
2.097908153717e+01
1.475383997952e+01
1.590912052346e+01
1.345745369632e+01
1.508850009231e+01
1.633772525994e+01
2.155667577042e+01
2.162744671300e+01
1.982177497949e+01
1.854820629100e+01
1.905882062386e+01
1.742347621309e+01
1.691016425368e+01
1.764909365052e+01
2.266089236574e+01
1.617261035668e+01
1.568934159302e+01
1.240602497323e+01
2.143480016193e+01
2.292287949678e+01
1.945862031056e+01
2.026376574350e+01
1.974589439376e+01
2.043746367374e+01
2.001865047671e+01
2.060076928899e+01
2.097025646796e+01
2.198934163589e+01
2.103976915535e+01
1.329149498560e+01
2.264099206064e+01
1.846722725487e+01
9.393344881364e+00
9.046221816859e+00
1.295916320849e+01
1.577352253331e+01
2.194395584542e+01
2.027806628980e+01
1.965371769508e+01
1.542366934232e+01
1.481706600533e+01
2.201001300762e+01
1.222325570224e+01
1.258479072380e+01
1.177182314731e+01
7.918862340593e+00
6.303651004399e+00
1.645491161781e+01
1.819750322111e+01
1.625696543555e+01
4.220693815174e+00
-4.111744427742e-01
1.540837474182e+01
1.643151665856e+01
2.127288295609e+01
2.133244890070e+01
2.214659602607e+01
1.148870169356e+01
1.684009829755e+01
2.278879464826e+01
2.297221837692e+01
2.058420578305e+01
1.039481566632e+01
7.830396078045e+00
1.965295481173e+01
1.536182899437e+01
1.428947727758e+01
2.182168521844e+01
1.686318564096e+01
2.135248398757e+01
2.137016587973e+01
2.131416083348e+01
5.180537076650e+00
2.174200018234e+01
2.147648836162e+01
2.000655899983e+01
1.936685061989e+01
1.882478679375e+01
1.706444277508e+01
1.371464931247e+01
1.471738937367e+01
1.158469218022e+01
1.917146090785e+01
1.304559259134e+01
1.105418647686e+01
1.113259613834e+01
1.603230497830e+01
1.374865626624e+01
2.114272876817e+01
2.297674659127e+01
2.123464254499e+01
2.187104292991e+01
2.262720595121e+01
1.657115811951e+01
1.708003089049e+01
1.207826961884e+01
1.116657267050e+01
9.770159501713e+00
7.188765296773e+00
2.212255319634e+01
2.184367465804e+01
1.680775396142e+01
1.726415403423e+01
1.684590292230e+01
2.202580362946e+01
2.192363036553e+01
2.314878222515e+01
4.156847219472e+00
2.131678640295e+01
2.851928368477e+00
1.734650652652e+01
2.132553977001e+01
2.125918923511e+01
2.177413298719e+01
6.429020061285e+00
2.179392886312e+01
2.219307818495e+01
8.309292335916e+00
8.484091255809e+00
1.141676828669e+01
9.249180623816e+00
2.009321589381e+01
1.907032159641e+01
2.053393661820e+01
2.109061032305e+01
1.985987030421e+01
1.917674489738e+01
2.173148021579e+01
2.196882347746e+01
1.663970226334e+01
1.210316150339e+01
1.732513377181e+01
8.465233785663e+00
2.153136418625e+01
2.164799311055e+01
-6.300577035881e+00
-1.088980218037e+00
1.729246490447e+01
1.043018889088e+01
1.152772401240e+01
8.867040008248e+00
2.089337991121e+01
5.037145727082e+00
2.112774810403e+01
1.487964135422e+01
1.763319671389e+01
2.212890787036e+01
2.026291635614e+01
2.234665820985e+01
1.686727933313e+01
1.772589385812e+01
1.052667050421e+01
9.325906585651e+00
1.143618651177e+01
8.080802581604e+00
-1.508713269403e+00
1.671143838104e+01
1.859990629143e+01
1.921215962259e+01
1.323811778125e+01
1.637846342468e+01
2.154416913593e+01
2.155034288731e+01
1.804216432523e+01
1.798692806741e+01
1.887511867942e+01
2.282965755779e+01
2.296020264446e+01
2.307371352661e+01
1.741754715666e+01
1.791784685863e+01
2.094559907397e+01
2.063335572150e+01
2.040829495295e+01
1.768983647299e+01
2.106073148753e+01
2.117971430487e+01
-1.690154019909e+00
3.688029514033e+00
3.888788954466e+00
2.425717976250e-01
1.770162623149e+01
1.735253927902e+01
1.811381896998e+01
1.517811774209e+01
2.168902847065e+01
2.167029640968e+01
2.191361286837e+01
2.141950051586e+01
2.173363695586e+01
2.156116883112e+01
2.124714455557e+01
-1.363091411579e+01
1.748083345436e+01
9.647056328210e+00
-2.145685585692e+01
8.378178062081e+00
1.010451059427e+01
6.550907903402e+00
1.218084468853e+01
8.482531589468e+00
1.016203074012e+01
-1.137421094286e+01
1.808895932724e+01
-8.967361155840e+00
-2.759176062045e+00
2.134184081186e+01
2.146136658766e+01
2.117373960190e+01
2.128343204254e+01
2.154641817541e+01
2.137788403048e+01
7.888297660941e+00
2.107375159937e+01
2.119906665332e+01
2.095799199023e+01
4.680803246364e+00
1.532911598588e+01
1.227050316165e+01
7.703321605887e+00
1.985771858447e+01
1.911619060803e+01
2.138532132597e+01
2.149523156987e+01
8.635809795739e+00
8.538902623584e+00
1.101462916259e+01
1.075720404569e+01
1.265478409106e+01
1.241233268644e+01
1.394427439131e+01
2.108497547310e+01
5.298617923868e+00
4.337525192297e+00
2.165779586518e+01
2.189997243759e+01
1.068448846384e+01
8.248841582564e+00
2.136052053933e+01
2.042546993774e+01
1.854289059713e+01
-2.943748296077e+01
-1.689273671569e+01
2.044941316241e+01
1.233574290748e+01
1.548435363409e+01
1.301433161895e+01
2.262685286411e+01
-3.590241916416e-01
6.781330618520e+00
1.406327621759e+01
3.725730815574e-01
2.141988650394e+01
2.136211434049e+01
1.684524583369e+01
1.231965783196e+01
1.756321499961e+01
1.317690483870e+01
9.766465191636e+00
9.019974778238e+00
2.202624270081e+01
1.282560917218e+01
9.141578623297e+00
1.459076910782e+01
1.642754713940e+01
1.699602047079e+01
1.781729515132e+01
1.753495124589e+01
1.665898334792e+01
1.726023539188e+01
1.804377395193e+01
1.783541763019e+01
1.863372504725e+01
1.835906437728e+01
1.764095580385e+01
1.817946160934e+01
1.876779422954e+01
1.747822021203e+01
2.141936265552e+01
2.116785312092e+01
-6.162037138100e+00
-8.954970160973e+00
1.578105113815e+01
1.932709974550e+01
1.901066614651e+01
1.964439082047e+01
2.053939155607e+01
1.121227010342e+01
1.392542917654e+01
2.089371531240e+01
1.600846361248e+01
1.559689636184e+01
1.481620108801e+01
1.884632648915e+01
1.233494022133e+01
2.119813624599e+01
2.288169695764e+01
2.275741828881e+01
2.280438973862e+01
1.701246218165e+01
2.122261266490e+01
2.156161092094e+01
2.151478663100e+01
2.190228484882e+01
2.114413768250e+01
1.986406998082e+01
2.014908443569e+01
1.906271699514e+01
2.019547906644e+01
2.141778888571e+01
2.107815912480e+01
1.956542085551e+01
2.057877021380e+01
2.176267190923e+01
1.988386252718e+01
1.855651974397e+01
2.105667751416e+01
2.260241220781e+01
2.275337764768e+01
2.274471046761e+01
2.116723359004e+01
2.154041121635e+01
2.181948966900e+01
2.073905372439e+01
2.089451746248e+01
2.101377052951e+01
2.308110636185e+01
2.151358627506e+01
4.739807952388e+00
8.162847307918e+00
8.342056764423e+00
1.081638569131e+01
8.392852374399e+00
2.154310221755e+01
2.154047972921e+01
2.137558385127e+01
2.152632991283e+01
2.139218704252e+01
2.117472572825e+01
2.150075299020e+01
2.141251943462e+01
4.757178075063e+00
-3.046405280839e+01
-1.400554686816e+01
-1.420389877795e+01
-1.730112580384e+00
-1.202781635876e+00
6.673077992172e+00
5.625174553389e+00
-1.450466700187e+01
-3.382937488766e+01
-1.411764353404e+01
-3.578297327202e+01
-1.435238623475e+01
-1.948594107387e-01
1.054278110506e+01
2.080831084351e+01
2.050632852670e+01
2.026339955493e+01
1.945535489854e+01
1.995545059656e+01
2.077767243414e+01
1.889544880898e+01
1.848447258179e+01
-3.931997647162e+01
-1.173110587573e+01
-1.356765411359e+01
1.150372439739e+00
8.294435399904e-01
-1.173644459629e+01
-1.196867577281e+01
-3.990420546447e+01
-1.250735192530e+01
9.133432806254e-01
-4.111877378757e+01
1.562806324367e+01
1.618573080312e+01
2.097140317267e+01
5.360172339578e+00
-3.865385732155e+01
1.842019999999e+01
1.854062051230e+01
1.853904778101e+01
2.111379631684e+01
2.101607037416e+01
1.844287637585e+01
1.785618331395e+01
1.825569635928e+01
1.719652038498e+01
1.122420822367e+01
1.785120867245e+01
2.155790906220e+01
2.198567967717e+01
2.138280120736e+01
2.170843640020e+01
2.164409281093e+01
2.152051088010e+01
1.077400246801e+01
1.283523269012e+01
1.233906619384e+01
1.574425581439e+01
1.805722346858e+01
2.109937951926e+01
1.190550606892e+01
2.058945746323e+01
1.319493769986e+01
2.253510558094e+01
2.056721150786e+01
1.891946788831e+01
1.705622700223e+01
2.079461658584e+01
2.188563692015e+01
2.212485931619e+01
1.632675874218e+01
-3.575121268470e+01
2.209941737273e+01
2.222066023395e+01
1.330872359167e+01
2.248492784118e+01
1.006631308663e+01
1.602296096781e+01
1.764098837610e+01
1.122600602803e+01
6.499971130818e+00
1.082270122248e+01
2.158886587065e+01
1.584235676979e+01
1.700133336113e+01
2.318297598918e+01
1.837416608347e+01
1.190331436524e+00
1.752120037125e+01
2.219950253947e+01
2.226521635546e+01
2.301976593495e+01
1.770438371048e+01
2.172805680912e+01
2.297950281200e+01
1.695972118161e+01
1.927657933638e+01
2.261334034267e+01
1.635342062791e+01
2.284109873483e+01
2.226137176572e+01
1.373546367994e+01
1.845121503012e+01
1.659169274495e+01
2.067880622509e+01
2.153983005389e+01
2.191271836541e+01
1.131167515532e+01
1.928457770141e+01
1.313991826457e+01
2.076065832224e+01
1.775017157158e+01
1.780664410641e+01
2.177514636404e+01
1.725519846125e+01
2.185782085149e+01
1.318991236853e+01
4.540896535180e+00
2.077410029038e+01
2.252443958657e+01
2.204210536667e+01
1.822998402287e+01
2.160558369218e+01
2.243466463516e+01
-7.484703959625e+00
5.192693210570e+00
2.144756671260e+01
2.315242027507e+01
2.220425774832e+01
2.121558179927e+01
2.082026694077e+01
6.375010110171e+00
2.131505430086e+01
2.254195381573e+01
2.016979118041e+01
5.139788052436e+00
2.104077830102e+01
2.223047148956e+01
2.079788145172e+01
2.307344694741e+01
-3.036012626346e+00
2.195676298738e+01
1.779717058796e+01
1.878182464841e+01
2.208423832261e+01
1.430183316121e+01
2.177159493978e+01
2.234820239539e+01
6.713670554329e-01
4.059838093939e+00
2.172457058647e+01
2.135733639816e+01
2.299568731019e+01
2.155172281526e+01
2.167873417581e+01
2.227058626316e+01
2.163127398011e+01
-1.722846014146e+00
1.521614016351e+01
2.157554378353e+01
1.835739910569e+01
1.387035194871e+00
2.135409050751e+01
2.121668021780e+01
2.063832701825e+01
2.288744491073e+01
1.633677624766e+01
5.710456019678e+00
2.282119964528e+01
1.888212580453e+01
2.175734313940e+01
2.253723099808e+01
2.266741172841e+01
9.517828254641e+00
1.716681236410e+01
1.458070976499e+01
2.249075443755e+01
1.862069953002e+01
7.702433272683e+00
1.680683397324e+01
8.138574376537e+00
2.202886622342e+01
2.188312398862e+01
1.300803965797e+01
2.219042209591e+01
1.582991860321e+01
2.163988365563e+01
2.246901662293e+01
2.178015489500e+01
2.116032703387e+01
1.793317094941e+01
2.130438918079e+01
1.852484782958e+01
2.077246917460e+01
8.251660410007e+00
6.293983987172e+00
-2.829570688745e+01
9.593487418813e+00
1.951179149491e+01
1.737660994549e+01
8.367871371371e+00
1.843624351579e+01
1.903366024001e+01
2.110793197230e+01
1.506027784737e+01
2.207778301413e+01
2.202514537519e+01
1.733323014090e+01
4.723592185317e+00
-1.417602537752e+01
2.149840014818e+01
5.887616052168e+00
6.749225270326e+00
3.242702795695e+00
1.824581681310e+01
-1.736403104331e+00
4.327345721358e+00
2.158061554683e+01
8.049729863514e+00
2.159352007588e+01
7.212492986170e-01
1.802894548668e+01
2.135627015303e+01
2.087830177439e+01
2.148946322575e+01
-3.684055751480e+00
1.032119920340e+01
2.033220947043e+01
1.590401121318e+01
2.079408701721e+01
7.518735270347e+00
1.803341630914e+01
8.239357279992e+00
1.805084508024e+01
1.805239106379e+01
1.150904486250e+01
1.044602225668e+01
2.090803993384e+01
1.865205525310e+01
-9.183451213942e+00
1.496766020380e+01
2.007190738570e+01
-1.812016773582e+01
2.124288349953e+01
1.861919671814e+01
2.098174150247e+01
9.468105984795e-01
-1.536903337430e+01
2.129704801017e+01
1.964910838837e+01
1.106763614564e+01
1.871614060550e+01
-1.888061720185e+01
4.085418677162e+00
-1.449638866585e+01
2.076775048490e+01
1.805261391021e+01
2.054517445282e+01
5.166780109881e+00
1.715417681316e+01
2.089545823400e+01
-3.157343364937e+00
1.812060571832e+01
2.137835249316e+01
1.835462226998e+01
2.119052322273e+01
-2.047754639132e+01
2.122403442617e+01
2.180363974737e+01
4.741405565519e+00
1.845032571474e+01
1.914783618757e+01
7.103340094357e+00
1.858835305689e+01
-4.549616121939e+01
4.609441783828e+00
2.071116762866e+01
6.290901684263e+00
1.039208905995e+01
1.937047734040e+01
2.128937663630e+01
1.687703578858e+01
4.439257767909e+00
-3.032543669005e+01
1.383811441319e+01
2.142000189903e+01
1.826482511318e+01
1.263354717017e+01
-2.583048343836e+00
1.908820824303e+01
2.085330325309e+01
2.028113214425e+01
2.182419396284e+01
-2.464651659741e+01
2.144353144136e+01
-1.626893485633e+01
2.105919638763e+01
2.104126688514e+01
-3.313901233623e+01
-3.917738575053e+01
-1.586291346699e+01
-1.821913357457e+01
-4.476388055008e+00
-4.133400677006e+00

SCALARS node_materi_stress_average_a_sig float
LOOKUP_TABLE default
-5.104584434420e+00
-4.122140381240e+01
-2.357310203917e+02
-1.545467381216e+02
-1.230505324840e+01
-2.380076911150e+01
-3.459375357807e+01
-4.701798840041e+01
-5.885115414611e+01
-7.064541390516e+01
-8.241326326711e+01
-9.417475609714e+01
-1.060029390351e+02
-1.179548955850e+02
-1.302484684790e+02
-1.423760283453e+02
-1.535208803244e+02
-1.657168508606e+02
-1.783600371276e+02
-1.907195004309e+02
-2.032365192248e+02
-2.159404273142e+02
-2.281222911727e+02
-1.552116101422e+02
-1.545482091550e+02
-1.547812169037e+02
-1.548535106050e+02
-1.546855752900e+02
-1.552888510172e+02
-1.558992735181e+02
-1.560355566984e+02
-1.571073323570e+02
-1.576818738761e+02
-1.582373686887e+02
-1.595960350910e+02
-1.613755847894e+02
-1.625120952849e+02
-1.642716700918e+02
-1.657976028217e+02
-1.682000714210e+02
-1.716327218895e+02
-1.748392778340e+02
-1.782794036172e+02
-1.816505251445e+02
-1.852909751532e+02
-1.889460356458e+02
-1.926795797557e+02
-1.965687657089e+02
-2.004351424190e+02
-2.039919753245e+02
-2.074573270965e+02
-2.105064841834e+02
-2.139772766607e+02
-2.165416515127e+02
-2.185437307350e+02
-2.210433421169e+02
-2.233247677017e+02
-2.253460165020e+02
-2.271266553877e+02
-2.286777800241e+02
-2.298642897694e+02
-2.308468534267e+02
-2.315900743462e+02
-2.327028871340e+02
-2.340063487371e+02
-2.347337400746e+02
-2.336310563041e+02
-2.354302159436e+02
-2.351974689961e+02
-2.358071086305e+02
-2.363542204826e+02
-2.363684560664e+02
-5.349750952200e+01
-6.550044197924e+01
-7.744516281772e+01
-8.907877216317e+01
-1.009251559853e+02
-1.128803159699e+02
-1.245226934562e+02
-1.359969317374e+02
-1.479252020118e+02
-1.015352443543e+01
-4.591628443446e+01
-1.519725732865e+01
-1.818954598837e+01
-1.920958153805e+01
-1.870523174751e+01
-1.871237157443e+01
-1.903101795723e+01
-1.902112794564e+01
-2.083062905265e+01
-3.304372710681e+01
-9.415629837474e+00
-1.698198706219e+01
-2.889511263479e+01
-3.971214908248e+01
-4.049006896490e+01
-4.050148129428e+01
-4.042112907313e+01
-4.216468754736e+01
-4.076925445337e+01
-4.083304647636e+01
-4.105815374834e+01
-4.149549632634e+01
-4.170512336477e+01
-4.204578736924e+01
-4.243405509251e+01
-4.312311561645e+01
-4.408591142320e+01
-1.066382483069e+01
-1.199779099107e+01
-1.199258221158e+01
-1.152188103126e+01
-1.119766778072e+01
-1.071508567721e+01
-9.985389273806e+00
-9.242195587970e+00
-8.559632591859e+00
-7.963498313305e+00
-7.413456040973e+00
-7.279333701811e+00
-6.580207331042e+00
-5.729114284062e+00
-5.409542278940e+00
-5.252203295446e+00
-5.033481049380e+00
-4.668748735717e+00
-4.305051285591e+00
-9.590160920310e+00
-1.021248691128e+01
-9.462921018852e+00
-8.885128340884e+00
-8.854873976740e+00
-8.939782012448e+00
-9.140699439106e+00
-9.363255642243e+00
-9.594238000462e+00
-9.821648901331e+00
-1.002864544123e+01
-1.020038839098e+01
-1.035190561208e+01
-1.047177044839e+01
-1.055962451492e+01
-1.060192799632e+01
-1.059742796675e+01
-1.032800531115e+01
-9.284519327004e+00
-1.692052982554e+01
-1.675098804728e+01
-1.670285254893e+01
-1.668109237214e+01
-1.665301309505e+01
-1.660615483107e+01
-1.655589259943e+01
-1.648296869052e+01
-1.640707357752e+01
-1.634158955578e+01
-1.629103329222e+01
-1.627642562272e+01
-1.632694327184e+01
-1.646344876098e+01
-1.688953034121e+01
-1.846077219594e+01
-1.698912147961e+01
-3.028094313218e+01
-3.170620471046e+01
-3.028233541210e+01
-2.983406042714e+01
-2.953463234595e+01
-2.933310209724e+01
-2.915584109106e+01
-2.904974194695e+01
-2.905385464584e+01
-2.897237144910e+01
-2.892997982828e+01
-2.890884310702e+01
-2.888925387102e+01
-2.885444876491e+01
-2.895040767908e+01
-2.898651735879e+01
-1.214321782935e+01
-1.708270167425e+01
-1.879444556906e+01
-1.935563008082e+01
-1.930028425363e+01
-1.895916601361e+01
-2.002408718809e+01
-1.746151252566e+01
-2.838849971409e+01
-4.068047171259e+01
-2.033681493691e+01
-2.163970199142e+02
-1.288604106468e+01
-1.507921668711e+01
-2.245573034385e+02
-2.315075770424e+01
-1.245350928090e+02
-2.057645102783e+02
-2.431254546984e+01
-1.932478769909e+02
-3.166454338044e+01
-2.290778523877e+02
-1.077333774000e+01
-1.788037104368e+02
-5.284061176581e+01
-7.708299908031e+01
-1.576516287067e+02
-1.687420033493e+02
-1.592662919112e+02
-1.507495710984e+02
-1.512412441530e+02
-1.551037575287e+02
-5.576696264227e+01
-5.310350719420e+01
-5.310187185090e+01
-9.510979250904e+01
-2.297317899590e+02
-1.472093346712e+01
-1.048883171042e+01
-1.965149315314e+02
-5.117258925967e+01
-4.075447760091e+01
-1.614197847905e+02
-2.005892463106e+02
-1.859404781898e+02
-2.103468841087e+02
-2.206611185746e+02
-1.466649875137e+01
-5.370250961666e+01
-2.247671502596e+02
-1.183823880993e+02
-1.207003653821e+01
-1.001306924302e+02
-1.519831490324e+02
-2.468983387821e+01
-2.231632858728e+01
-2.684635147782e+01
-4.141119339808e+01
-1.589737222740e+01
-7.248641233361e+01
-2.322850655517e+02
-9.750049397984e+00
-1.412566818262e+02
-5.834472799318e+01
-6.503164885139e+01
-6.982139841846e+01
-7.777858993113e+01
-8.306365718143e+01
-9.021686592318e+01
-8.526943444137e+01
-9.765145613561e+01
-9.285978794195e+01
-9.558920916022e+01
-1.051950979631e+02
-1.006152907873e+02
-1.128591416212e+02
-1.084907324289e+02
-9.629178851531e+01
-1.043426377507e+02
-9.218277802372e+01
-1.004154918248e+02
-1.124104584164e+02
-1.086066161941e+02
-9.668236777454e+01
-1.049335415705e+02
-9.317414027500e+01
-1.014478770565e+02
-8.985788749267e+01
-9.809838671881e+01
-1.095772806275e+02
-1.061414877787e+02
-9.485282473402e+01
-1.027762590269e+02
-9.169489843087e+01
-9.944549373597e+01
-1.105260904182e+02
-1.070227399626e+02
-9.608577292917e+01
-1.034847298703e+02
-9.268383183229e+01
-9.991176938757e+01
-8.923358981693e+01
-9.622905827962e+01
-1.069845486557e+02
-1.031033063231e+02
-9.244159123033e+01
-9.906881602162e+01
-1.098735520071e+02
-1.055960873294e+02
-1.165470245717e+02
-1.120470512586e+02
-1.012222457108e+02
-1.074404682076e+02
-1.184169051617e+02
-1.135756369483e+02
-1.027061724602e+02
-1.086461305039e+02
-1.196795278108e+02
-1.145490206895e+02
-1.035878467783e+02
-1.093139593230e+02
-1.204858445128e+02
-1.150299531461e+02
-1.039217302533e+02
-1.094574838774e+02
-1.207837056002e+02
-1.150105737679e+02
-1.265271056587e+02
-1.036690580949e+02
-1.090925805282e+02
-9.770421078510e+01
-1.030618471200e+02
-1.181324566691e+02
-9.163443546588e+01
-8.652718820591e+01
-9.693388831808e+01
-1.085158673909e+02
-8.545137904478e+01
-9.070918685181e+01
-7.918287325574e+01
-8.189823812623e+01
-1.204858943071e+02
-8.440126207323e+01
-7.282091938268e+01
-6.770144642988e+01
-6.131240909650e+01
-8.868926784625e+01
-1.008558571005e+02
-9.369669997540e+01
-1.061430445738e+02
-9.943600663642e+01
-6.637834400610e+01
-1.174944363063e+02
-1.130089206815e+02
-8.472738706429e+01
-8.372616444952e+01
-1.209369797637e+02
-9.600977313945e+01
-8.967287287336e+01
-1.013353693650e+02
-1.323337327555e+02
-1.382077911908e+02
-1.440623591341e+02
-1.500387236430e+02
-1.559542186051e+02
-1.620155798142e+02
-1.559629232622e+02
-1.680180693583e+02
-1.618397321487e+02
-1.679967592038e+02
-1.617637741804e+02
-1.739622063967e+02
-1.676668890067e+02
-1.798527590673e+02
-1.734472865390e+02
-1.612942307962e+02
-1.669645309788e+02
-1.548992162579e+02
-1.277415137253e+02
-1.322450137189e+02
-1.391674410950e+02
-1.437822315018e+02
-1.508183615674e+02
-1.555249618178e+02
-1.626556395818e+02
-1.577643759588e+02
-1.205943809870e+02
-8.852053409334e+01
-8.203756703597e+01
-7.824994985897e+01
-7.194167088746e+01
-6.827125443248e+01
-6.217625760280e+01
-5.857796510638e+01
-6.438942786404e+01
-5.474172088904e+01
-6.026677615758e+01
-5.062141297632e+01
-5.584422852783e+01
-1.175696809794e+02
-1.482900024982e+02
-1.601478728110e+02
-1.526636210526e+02
-5.627389372239e+01
-1.791881965772e+02
-1.738926980586e+02
-1.674557581683e+02
-1.697213399265e+02
-5.492828151518e+01
-5.277947562994e+01
-5.596068593366e+01
-1.115207699512e+02
-1.049857793139e+02
-1.797223594360e+02
-5.997056376055e+01
-1.801996282274e+02
-4.542434961662e+01
-1.726080630069e+02
-1.848751041717e+02
-1.498556624180e+02
-1.646810968670e+02
-1.569395284549e+02
-6.582382813570e+01
-6.114004263639e+01
-5.132092791459e+01
-5.671076043358e+01
-6.657279830670e+01
-6.141155668045e+01
-5.130205668519e+01
-5.601714360828e+01
-6.646714862626e+01
-6.088326275515e+01
-5.031738239054e+01
-5.502130075614e+01
-1.914683792974e+02
-4.130314427263e+01
-8.392701378718e+01
-1.861589404751e+02
-1.745687990328e+02
-1.169776952339e+02
-1.106231983535e+02
-9.853579761327e+01
-1.043977204980e+02
-1.163557403326e+02
-1.102780024265e+02
-9.826955548112e+01
-1.042792502022e+02
-9.223959172573e+01
-9.836932269839e+01
-1.103163552977e+02
-1.045356408070e+02
-9.255906986901e+01
-9.880948547876e+01
-8.679955684627e+01
-9.310568495991e+01
-1.050914751074e+02
-4.885323408294e+01
-1.646418840784e+02
-1.767883624965e+02
-9.525357486378e+01
-1.065128824823e+02
-1.130347616768e+02
-1.185305778316e+02
-9.939603891242e+01
-1.113550497218e+02
-4.689375050967e+01
-4.963963459834e+01
-1.234515222405e+02
-1.782369458778e+02
-1.660323258689e+02
-8.081617316072e+01
-7.278870710622e+01
-7.014733252790e+01
-6.192491050764e+01
-6.441684872866e+01
-5.955636355331e+01
-1.553469209923e+02
-1.164163944226e+02
-6.267213440918e+01
-5.139713561975e+01
-1.905277295437e+02
-1.527317648120e+02
-1.211556820149e+02
-1.291427898899e+02
-1.328674243783e+02
-1.408768335445e+02
-1.446796431093e+02
-1.526802117453e+02
-1.488373611508e+02
-1.690996346400e+02
-1.606809300870e+02
-8.730719235811e+01
-1.408290395187e+02
-7.161513973692e+01
-4.360947326019e+01
-4.401058554548e+01
-5.332807140341e+01
-6.501159797203e+01
-1.921101406535e+02
-1.564987964952e+02
-1.483767481710e+02
-5.350132811489e+01
-5.577677250869e+01
-1.768611257155e+02
-8.714310015992e+01
-8.616670222752e+01
-8.004848816827e+01
-4.082387295831e+01
-3.994826449806e+01
-1.221558056315e+02
-5.885864318827e+01
-5.216273201006e+01
-3.634515939937e+01
-3.218171667224e+01
-1.056107479825e+02
-1.174656282641e+02
-1.249021533394e+02
-1.303649625233e+02
-1.855075286714e+02
-4.901248147373e+01
-1.232504841770e+02
-1.594364815497e+02
-1.475948594217e+02
-1.119468243643e+02
-4.094804637684e+01
-3.830420843027e+01
-7.709762133085e+01
-5.996094336222e+01
-5.838318337088e+01
-1.979200733918e+02
-1.281217263067e+02
-1.567827093003e+02
-1.448778262608e+02
-1.688463977105e+02
-3.828985646531e+01
-1.987368896095e+02
-1.838511080929e+02
-1.596923667140e+02
-1.520905903060e+02
-6.154127593091e+01
-5.460512302989e+01
-4.534709143008e+01
-4.736863478893e+01
-8.031743676590e+01
-6.428788938207e+01
-7.981516867713e+01
-7.129310394453e+01
-6.732890769132e+01
-6.693632874104e+01
-5.810800229553e+01
-7.536991164921e+01
-1.251901502842e+02
-1.194382360513e+02
-1.493096900940e+02
-1.380131518020e+02
-1.220779824914e+02
-1.281821400601e+02
-8.048631246561e+01
-7.472476298262e+01
-4.490995321851e+01
-4.014045202615e+01
-1.322691449908e+02
-1.924705310528e+02
-1.286320814294e+02
-1.350556082075e+02
-1.299828286515e+02
-1.910381738034e+02
-8.447384594477e+01
-1.344438902455e+02
-3.691424536563e+01
-1.217832801631e+02
-3.369023222117e+01
-1.243084460181e+02
-1.962408805239e+02
-2.028523209271e+02
-1.812378105999e+02
-6.004223522797e+01
-1.294220153011e+02
-1.256330826755e+02
-5.853046674531e+01
-5.465839867393e+01
-6.382066567470e+01
-5.158869175856e+01
-8.234745123007e+01
-7.668811803349e+01
-1.691893396817e+02
-1.724671471524e+02
-1.635444560121e+02
-1.561910169235e+02
-1.891187923922e+02
-1.843618827713e+02
-6.972627307516e+01
-4.687868262415e+01
-1.338730778271e+02
-6.283098260697e+01
-2.048221079429e+02
-1.987289327629e+02
-2.785882698681e+01
-3.190364208185e+01
-1.294573560523e+02
-3.836328106929e+01
-3.968215109219e+01
-3.674344458987e+01
-2.218846083746e+02
-5.083213602226e+01
-2.087206367544e+02
-6.970801644236e+01
-1.352922211448e+02
-1.370746385683e+02
-7.775079774192e+01
-1.787262501331e+02
-1.230641787090e+02
-1.358892302763e+02
-7.390196903055e+01
-6.744693987391e+01
-7.974387114559e+01
-4.013210792196e+01
-3.049248228783e+01
-1.224793513275e+02
-8.325630154643e+01
-8.962543767674e+01
-5.353413617560e+01
-6.457052825704e+01
-1.312367268847e+02
-1.257256117970e+02
-1.323519041179e+02
-1.361921179655e+02
-1.247985016316e+02
-1.541563559105e+02
-1.423887148226e+02
-1.360249241258e+02
-1.334516018268e+02
-1.408775676976e+02
-8.773746649072e+01
-8.232497258628e+01
-8.746113935412e+01
-1.397711910337e+02
-2.151102252624e+02
-2.094062520932e+02
-2.916925571354e+01
-3.532197319396e+01
-3.285342676846e+01
-3.048739119631e+01
-1.412498412519e+02
-1.368259372469e+02
-1.473254837409e+02
-6.238828358784e+01
-1.527685639713e+02
-2.029556841296e+02
-1.959437045583e+02
-2.114337077800e+02
-1.732164299580e+02
-1.851323032828e+02
-1.807709716589e+02
-2.356705264155e+01
-1.316866885297e+02
-6.774679603512e+01
-2.059847186621e+01
-6.208939758158e+01
-6.888876117941e+01
-5.571655494524e+01
-5.091964885559e+01
-6.547874671321e+01
-7.363600732926e+01
-2.280505463129e+01
-1.450684554280e+02
-2.305425566945e+01
-2.754975780345e+01
-2.111794098835e+02
-2.048203458794e+02
-2.168899277130e+02
-2.104338589506e+02
-1.984345294043e+02
-2.045700439701e+02
-6.105818677905e+01
-2.182898415899e+02
-2.108447493743e+02
-2.244843165663e+02
-4.187711762704e+01
-4.918340018907e+01
-4.114303853098e+01
-3.119948850928e+01
-1.691535247386e+02
-1.592279070046e+02
-1.898311399004e+02
-1.774290636419e+02
-6.243761878257e+01
-6.168970031840e+01
-7.264095495153e+01
-7.106163756992e+01
-8.201776040754e+01
-8.031701745602e+01
-9.146862490629e+01
-1.844450156780e+02
-2.996864608941e+01
-4.983515547303e+01
-1.966275965291e+02
-1.908357004771e+02
-4.886849435620e+01
-3.735288362935e+01
-2.127322505530e+02
-7.141019512882e+01
-1.524258216535e+02
-1.354472112186e+01
-2.135606126046e+01
-7.445813153961e+01
-6.080482942924e+01
-5.114252308699e+01
-4.320909039612e+01
-1.662647871714e+02
-3.121617599018e+01
-3.502124153137e+01
-9.298884698419e+01
-2.730502381609e+01
-1.840182786258e+02
-7.867882058087e+01
-7.832958037347e+01
-4.325991684959e+01
-5.717168525237e+01
-8.825495749793e+01
-7.260439257428e+01
-6.767812845433e+01
-8.567533033963e+01
-4.487276942916e+01
-3.329702323332e+01
-8.829361276942e+01
-1.249934166865e+02
-1.318637083311e+02
-1.432309740611e+02
-1.389399787500e+02
-1.271846437694e+02
-1.344303789587e+02
-1.459702013938e+02
-1.422146036544e+02
-1.556642014678e+02
-1.496942260573e+02
-1.374274629582e+02
-1.447229288884e+02
-1.561519076552e+02
-1.327604644254e+02
-2.012960347863e+02
-8.519048756950e+01
-2.764706768840e+01
-2.454485653867e+01
-8.141326069587e+01
-1.655606278867e+02
-1.608874819065e+02
-6.546205145631e+01
-1.822086573288e+02
-7.568927524322e+01
-4.923030573906e+01
-1.896115820918e+02
-1.200249152712e+02
-1.149947947444e+02
-1.078423816258e+02
-1.580088431007e+02
-8.614987794038e+01
-2.035189331551e+02
-1.366248966583e+02
-1.292678725641e+02
-1.179790215243e+02
-1.298009177114e+02
-2.140184138738e+02
-2.049005962613e+02
-2.069695105554e+02
-1.947809803619e+02
-2.184791375293e+02
-1.725238904673e+02
-1.760045006025e+02
-7.180223173178e+01
-7.691024287194e+01
-8.735116940864e+01
-8.171607044885e+01
-7.136762545122e+01
-7.598842557946e+01
-8.627885587778e+01
-7.018496745287e+01
-1.480044142744e+02
-2.223277806531e+02
-1.497943345828e+02
-1.434856124718e+02
-1.318798396268e+02
-1.139944571192e+02
-1.201870313285e+02
-1.319199118932e+02
-1.077012328647e+02
-1.370391107026e+02
-2.236546796763e+02
-1.410564855473e+02
-1.146183721061e+02
-5.468567849220e+01
-6.646585700784e+01
-6.789861529329e+01
-7.948085353939e+01
-6.666811524087e+01
-1.367263620807e+02
-1.421834348407e+02
-1.358108243716e+02
-1.476182474829e+02
-1.409291667655e+02
-1.300194221437e+02
-1.528203634132e+02
-1.452298897444e+02
-5.330878824378e+01
-1.515177847266e+01
-2.314340026120e+01
-2.273402928667e+01
-3.101449891550e+01
-3.155510730881e+01
-4.048769748571e+01
-3.901046360902e+01
-2.330790816145e+01
-1.404370512110e+01
-2.235993592871e+01
-1.339496156716e+01
-2.177386607296e+01
-3.208537379538e+01
-4.680214443929e+01
-2.284402929749e+02
-1.118602528217e+02
-1.060717077405e+02
-9.475579255506e+01
-1.007988334145e+02
-1.164795933893e+02
-8.853245737914e+01
-8.433419326099e+01
-1.030083846146e+01
-1.994911415434e+01
-1.892355372959e+01
-2.979731607509e+01
-2.975339458087e+01
-2.030089984340e+01
-2.041306124645e+01
-1.061360145553e+01
-2.049286082790e+01
-3.039656908711e+01
-1.056300774784e+01
-1.070359931137e+02
-1.134431339845e+02
-2.252580506229e+02
-5.381746489619e+01
-1.253771693809e+01
-1.486409174432e+02
-1.516542255745e+02
-1.513982313860e+02
-2.092621625396e+02
-2.154397217123e+02
-1.485914363526e+02
-7.400944510924e+01
-1.503583425086e+02
-1.286161690914e+02
-4.384420446807e+01
-7.080853743002e+01
-1.716295539436e+02
-1.556068191393e+02
-1.971359515455e+02
-1.604782348466e+02
-1.856959311435e+02
-2.082260741921e+02
-4.708977082739e+01
-8.627279294352e+01
-8.108402453764e+01
-1.107261961831e+02
-7.796612247779e+01
-1.244013029754e+02
-4.986906462470e+01
-1.782996429130e+02
-7.608719641109e+01
-1.264164072566e+02
-1.023117496274e+02
-8.031256756351e+01
-6.588784708410e+01
-8.852061942559e+01
-1.206194811485e+02
-1.741304552089e+02
-1.169305148918e+02
-1.274097167390e+01
-1.801807436131e+02
-1.440481256285e+02
-9.226449698403e+01
-1.674403435176e+02
-4.609471491009e+01
-1.161936621927e+02
-1.396023767339e+02
-8.014376708598e+01
-3.853308127474e+01
-7.388629661987e+01
-2.045963742193e+02
-1.181794596421e+02
-7.152380272740e+01
-1.231300524450e+02
-8.671864587418e+01
-4.696958502301e+01
-1.338022593088e+02
-1.144472928375e+02
-1.818354683062e+02
-1.459926263940e+02
-7.677140841832e+01
-1.924990600521e+02
-1.140156716712e+02
-1.279828463697e+02
-1.366048249104e+02
-9.490778656610e+01
-1.224359904049e+02
-1.257508754003e+02
-1.721860452483e+02
-7.274067971434e+01
-1.130807502423e+02
-1.163769853494e+02
-1.140284980461e+02
-1.650767711967e+02
-1.863796265972e+02
-4.622745641421e+01
-6.731747692013e+01
-9.272926053238e+01
-1.642543516258e+02
-1.395376917703e+02
-7.548246013492e+01
-1.861868391804e+02
-1.337942199350e+02
-1.262695784492e+02
-5.385498564241e+01
-3.554148686368e+01
-7.430336004310e+01
-1.107437323352e+02
-1.380102968253e+02
-1.494772987447e+02
-1.921140622521e+02
-1.731142635084e+02
-1.855399083103e+01
-5.476267030616e+01
-1.980259546388e+02
-1.296214338971e+02
-1.793390307275e+02
-1.339334393825e+02
-1.815193680947e+02
-3.924452797930e+01
-2.040365717144e+02
-1.716416276519e+02
-6.850913611924e+01
-5.123887779034e+01
-2.182636414208e+02
-1.840241041234e+02
-1.254441707406e+02
-1.246969493977e+02
-3.603163552698e+01
-1.437063175501e+02
-1.167129407520e+02
-1.566536045849e+02
-1.888021824767e+02
-1.026286991678e+02
-1.374890664989e+02
-1.448623266740e+02
-2.994475562509e+01
-4.544449173096e+01
-1.430281363212e+02
-8.031415895388e+01
-1.309230746654e+02
-1.931809933025e+02
-1.485579134927e+02
-9.065407034160e+01
-1.540521609052e+02
-2.800078175154e+01
-1.100240316357e+02
-1.595162907197e+02
-1.285345447643e+02
-3.149924626536e+01
-1.332149397169e+02
-2.024791648805e+02
-9.252336463545e+01
-1.371466055055e+02
-1.223423394324e+02
-2.519975413922e+01
-1.488261524156e+02
-1.403806584076e+02
-1.409445203389e+02
-1.218369152207e+02
-1.608290210434e+02
-3.581519453057e+01
-6.908425314764e+01
-5.797983365703e+01
-9.673376341170e+01
-1.442155289189e+02
-3.958889481112e+01
-1.251511279664e+02
-4.236136450601e+01
-9.212254050041e+01
-1.610891293212e+02
-8.405481958519e+01
-9.788603057093e+01
-6.551932612254e+01
-9.288722170931e+01
-1.331856672512e+02
-9.842560893629e+01
-9.306875539960e+01
-1.401697047331e+02
-9.835907585008e+01
-1.506534446157e+02
-2.295339985451e+02
-6.034629926456e+01
-2.243683693734e+01
-1.585569461837e+01
-3.484964228967e+01
-8.160918697281e+01
-1.283439954375e+02
-6.085590004648e+01
-7.552195299960e+01
-1.616109155449e+02
-1.971307275440e+02
-1.012841275696e+02
-1.861035304997e+02
-1.489562636691e+02
-1.290642474908e+02
-5.071493543690e+01
-2.142532577828e+01
-1.714466457078e+02
-2.189503740810e+01
-3.093477630451e+01
-2.875931558491e+01
-8.088004596742e+01
-3.075719248843e+01
-2.290634949189e+01
-2.020372684321e+02
-6.279859806603e+01
-1.648199052924e+02
-2.145412392112e+01
-1.449100748732e+02
-1.906177655263e+02
-2.281392118411e+02
-1.771630836466e+02
-2.540978276385e+01
-7.595714664814e+01
-1.747016436439e+02
-1.108162621119e+02
-2.300305156874e+02
-6.238002456224e+01
-1.412588169012e+02
-4.184848175325e+01
-1.411839733286e+02
-1.403545847024e+02
-7.580461628358e+01
-7.767159373339e+01
-2.212618255557e+02
-1.557956798655e+02
-2.306979176532e+01
-1.008318611297e+02
-1.007856696243e+02
-2.206948609642e+01
-2.157203836318e+02
-1.515368655233e+02
-2.200042952234e+02
-2.942221888200e+01
-1.969989354607e+01
-2.154081033352e+02
-1.686955921442e+02
-4.731188111116e+01
-1.550409799167e+02
-1.818770897791e+01
-4.980671900019e+01
-1.983082060117e+01
-2.304541867685e+02
-1.433054778746e+02
-1.112390764687e+02
-5.728697724023e+01
-7.345056000235e+01
-1.745363885113e+02
-2.885031296176e+01
-1.436398807892e+02
-2.131288625352e+02
-1.511342195985e+02
-2.117311636085e+02
-2.064468172105e+01
-1.909218929769e+02
-1.990554256776e+02
-5.039067160385e+01
-1.529135712673e+02
-9.033169433286e+01
-3.926370545181e+01
-1.517773401840e+02
-8.447484711999e+00
-4.951684568514e+01
-2.323819763122e+02
-3.743496863732e+01
-6.917530470903e+01
-1.662407111335e+02
-1.370019686108e+02
-1.223930415284e+02
-3.747165342165e+01
-1.475667708399e+01
-9.032942851355e+01
-1.956494454888e+02
-1.489703171943e+02
-8.229169475866e+01
-2.900515715318e+01
-1.607586390594e+02
-1.203105270576e+02
-1.691313157361e+02
-1.955982544710e+02
-1.293526140446e+01
-1.474596521952e+02
-1.886178116571e+01
-2.204589521578e+02
-1.254403216820e+02
-1.073695330457e+01
-1.073121817775e+01
-2.476038089399e+01
-2.331481611802e+01
-3.771229568361e+01
-3.452462386229e+01

SCALARS node_materi_stress_size_dev_sd_sig float
LOOKUP_TABLE default
4.212510676321e+00
2.292892609321e+01
1.791657130501e+02
1.164872842113e+02
1.039637316152e+01
2.040059787583e+01
2.957243417442e+01
4.001962730740e+01
5.016196183393e+01
5.999638961345e+01
6.984055800267e+01
7.963055435316e+01
8.927602554217e+01
9.892640614577e+01
1.086613305185e+02
1.176882608840e+02
1.257255428663e+02
1.345158658813e+02
1.432436339563e+02
1.514802018547e+02
1.595809673298e+02
1.675274086332e+02
1.749280160415e+02
1.171242168369e+02
1.167265465675e+02
1.169166352931e+02
1.170444333220e+02
1.168348004440e+02
1.173497039845e+02
1.176843183714e+02
1.180551439767e+02
1.189259509440e+02
1.196105122278e+02
1.200386493679e+02
1.214192988004e+02
1.228604681436e+02
1.243084187112e+02
1.258268404254e+02
1.275982815331e+02
1.298271075807e+02
1.327661939372e+02
1.358578211867e+02
1.390320159054e+02
1.420452468430e+02
1.449869711436e+02
1.480801062401e+02
1.510313909837e+02
1.539746499335e+02
1.567792962306e+02
1.594184820453e+02
1.617575671881e+02
1.638642407154e+02
1.660174565514e+02
1.678269267724e+02
1.690325853110e+02
1.705286450315e+02
1.719230928544e+02
1.731472529082e+02
1.741882686682e+02
1.751158626906e+02
1.757994920449e+02
1.763543054012e+02
1.767936958563e+02
1.773916178622e+02
1.781272988099e+02
1.785567192630e+02
1.779813702010e+02
1.789088846212e+02
1.787978851862e+02
1.791168019757e+02
1.794787093456e+02
1.795102402758e+02
3.193805022119e+01
4.126645614729e+01
5.058659160424e+01
5.991033547039e+01
6.962559772425e+01
7.946330983305e+01
8.948723495998e+01
9.960609390440e+01
1.100853631454e+02
1.049347931602e+01
2.217803827672e+01
1.900257489452e+01
2.324757390409e+01
2.497520873000e+01
2.491570462776e+01
2.447071567400e+01
2.415806430847e+01
1.920233204594e+01
1.182459637435e+01
1.482742186539e+01
6.666542040346e+00
6.869235772048e+00
1.382806872772e+01
2.161687041935e+01
2.206311469100e+01
2.206397817020e+01
2.190556421587e+01
2.299360133608e+01
2.189415476348e+01
2.168085428701e+01
2.168564788739e+01
2.177510497232e+01
2.161516013227e+01
2.142560844269e+01
2.128249406592e+01
2.123371920257e+01
2.142369567530e+01
9.780270611564e+00
1.048226305701e+01
1.079516746488e+01
9.973099747583e+00
8.210289759131e+00
7.004373159196e+00
5.986873059216e+00
5.021579588368e+00
4.142614868288e+00
3.451232601469e+00
2.963236472687e+00
3.013976329060e+00
3.060144159239e+00
2.943759885884e+00
3.319099470056e+00
3.785136841413e+00
4.075662449545e+00
4.018236648619e+00
3.714254683378e+00
1.068114358205e+01
5.813003183400e+00
4.226928766699e+00
3.814117641260e+00
3.826329131119e+00
3.915471814520e+00
4.078006208055e+00
4.281874039072e+00
4.511729332139e+00
4.756528184986e+00
4.980770543918e+00
5.169843436295e+00
5.350337913402e+00
5.499268101311e+00
5.611957662772e+00
5.686590757384e+00
5.729923779081e+00
5.925171436408e+00
6.842550634553e+00
6.762705865635e+00
6.689993977041e+00
6.672825226471e+00
6.668295359673e+00
6.663069247784e+00
6.654588989065e+00
6.647982213059e+00
6.633601695407e+00
6.623278131163e+00
6.624784016109e+00
6.624141169254e+00
6.624252710465e+00
6.634521826919e+00
6.649401033258e+00
6.789412969662e+00
7.595986311833e+00
7.840897264254e+00
1.290730773358e+01
1.407455261888e+01
1.357122455341e+01
1.357355857000e+01
1.363577976677e+01
1.369749494880e+01
1.370155364643e+01
1.372048237535e+01
1.376343295196e+01
1.377254181455e+01
1.377616930300e+01
1.378044918334e+01
1.379871472981e+01
1.376526305811e+01
1.385077413947e+01
1.396758281405e+01
1.500048074345e+01
2.157592363586e+01
2.427351078428e+01
2.514100153784e+01
2.567893336759e+01
2.501710565338e+01
2.402725437622e+01
1.438353613855e+01
1.317282285959e+01
1.868575878323e+01
2.071607965373e+01
1.686263319000e+02
5.828063606763e+00
6.163296880344e+00
1.733983823056e+02
2.556704931510e+01
1.041625812898e+02
1.615638236146e+02
2.686803152312e+01
1.518338583645e+02
2.024622918620e+01
1.756804158628e+02
6.791968781538e+00
1.390712534963e+02
2.667988443497e+01
6.538496045230e+01
1.288413586345e+02
1.290138181360e+02
1.198156866803e+02
1.126535074442e+02
1.125546026481e+02
1.160091009133e+02
2.921401243920e+01
2.948099034999e+01
3.057542152205e+01
6.476108133020e+01
1.759152895171e+02
6.763943087289e+00
8.282639746191e+00
1.552628643462e+02
2.996437086756e+01
3.480320138436e+01
1.218935165998e+02
1.576284138848e+02
1.456096369447e+02
1.648943645847e+02
1.711639536507e+02
5.869369401739e+00
2.888373608470e+01
1.734281672048e+02
8.427428623216e+01
6.539109819168e+00
8.455234925898e+01
1.139406376800e+02
2.694339112091e+01
2.400664645113e+01
2.573774118645e+01
2.079541918908e+01
1.467899424674e+01
4.657899586758e+01
1.774018614866e+02
8.144589158522e+00
1.042501185983e+02
3.020264867564e+01
3.535649759300e+01
3.867742190057e+01
4.526027547560e+01
4.902808483327e+01
5.529755603064e+01
5.194245943286e+01
6.219689482850e+01
5.931983640956e+01
5.924747176491e+01
6.964863920743e+01
6.721510093674e+01
7.749818945147e+01
7.544486455917e+01
6.554218966505e+01
7.406165056282e+01
6.455696392288e+01
7.326817818014e+01
8.256511122696e+01
8.182910611529e+01
7.294037293611e+01
8.140513661333e+01
7.287711362481e+01
8.114048885479e+01
7.285786958663e+01
8.086779102038e+01
8.910595117359e+01
8.857368297309e+01
8.046448588203e+01
8.788213591142e+01
7.981462880854e+01
8.692014669645e+01
9.498478878041e+01
9.372721453622e+01
8.560279070227e+01
9.214137960748e+01
8.390555496228e+01
9.019747881672e+01
8.179360519884e+01
8.782199489419e+01
9.616671880425e+01
9.356229381903e+01
8.502620277762e+01
9.051747654307e+01
9.903170653904e+01
9.574890946153e+01
1.042379812443e+02
1.007435601577e+02
9.211481986155e+01
9.690999734746e+01
1.055077802572e+02
1.014871709831e+02
9.274666931723e+01
9.718398590282e+01
1.059043294447e+02
1.014683218239e+02
9.260025462392e+01
9.679361179138e+01
1.056739253409e+02
1.008849698319e+02
9.186148990488e+01
9.588191879823e+01
1.049285354990e+02
9.984784727017e+01
1.088951072828e+02
9.061565028986e+01
9.457665963966e+01
8.514385387013e+01
8.915585466205e+01
1.017685648275e+02
7.955648125464e+01
7.558552726266e+01
8.363356478074e+01
9.320191262784e+01
7.389191735015e+01
7.803466925651e+01
6.818852149596e+01
7.531994071618e+01
9.095125083166e+01
7.239459361999e+01
6.246877566162e+01
5.817796570716e+01
5.240401300322e+01
5.340229701071e+01
6.366222423297e+01
5.774922541396e+01
6.835355720159e+01
6.284998461678e+01
5.671540269303e+01
8.027474534632e+01
7.430490098968e+01
6.430415360062e+01
7.240228893794e+01
1.073771563425e+02
8.215878615903e+01
7.658843461122e+01
8.631113559941e+01
1.138126732736e+02
1.177371165675e+02
1.224890726903e+02
1.263526656525e+02
1.309391095939e+02
1.347369445163e+02
1.301316556661e+02
1.384500977663e+02
1.338412474804e+02
1.391551027539e+02
1.353121732253e+02
1.420874388267e+02
1.374870406542e+02
1.456575162893e+02
1.410781012505e+02
1.327329052507e+02
1.363555614510e+02
1.278862522914e+02
1.125606459334e+02
1.155866459008e+02
1.207360670643e+02
1.236712405837e+02
1.287715770804e+02
1.316296440911e+02
1.366474738503e+02
1.335991046186e+02
8.560098168922e+01
8.180753015781e+01
7.627664878512e+01
7.287688500112e+01
6.729608989096e+01
6.368753301436e+01
5.804449697418e+01
5.417827098713e+01
5.962917827029e+01
4.985046267761e+01
5.512392490772e+01
4.508826313587e+01
5.018026247471e+01
9.677234238783e+01
1.263063600524e+02
1.342237807885e+02
1.286371572508e+02
4.805663360487e+01
1.446301959339e+02
1.433667246023e+02
1.394412110220e+02
1.413998300002e+02
4.672789710469e+01
4.851551313642e+01
5.208965972191e+01
7.332183806752e+01
6.797951822360e+01
1.473632142908e+02
5.104658864904e+01
1.465293264183e+02
3.976400816166e+01
1.399466745844e+02
1.481538613862e+02
1.253697407849e+02
1.365891554825e+02
1.307153454434e+02
6.019093426480e+01
5.514593838004e+01
4.510919629311e+01
5.010348010653e+01
6.004263801932e+01
5.453955715552e+01
4.438941820432e+01
4.885034171255e+01
5.904296942123e+01
5.332188117568e+01
4.289318520948e+01
4.742666535829e+01
1.526598015953e+02
3.469906740247e+01
5.582632277032e+01
1.511686754245e+02
1.442639774934e+02
7.852553829620e+01
7.332962198998e+01
6.301971139591e+01
6.850350032521e+01
7.890187294407e+01
7.408982324916e+01
6.394268026894e+01
6.948440904642e+01
5.954377757653e+01
6.506189118913e+01
7.510495364375e+01
7.067342726782e+01
6.081669158333e+01
6.635078784773e+01
5.663315359232e+01
6.203531506521e+01
7.193786766531e+01
4.127628273978e+01
1.381882577110e+02
1.459545489525e+02
8.109739604422e+01
9.032591932935e+01
9.582102873843e+01
9.988166619062e+01
6.749900189097e+01
7.759879776210e+01
4.262547279578e+01
4.588043842246e+01
8.411861189869e+01
1.435448050881e+02
1.351948952107e+02
7.170981204753e+01
6.428475813331e+01
6.344634349427e+01
5.585522775510e+01
5.657711128285e+01
5.475348459167e+01
1.312710298081e+02
8.083510556614e+01
5.388999604652e+01
4.368638283357e+01
1.516977074036e+02
1.302637830432e+02
9.748578538450e+01
1.051016352398e+02
1.060566822220e+02
1.135913903829e+02
1.148042298847e+02
1.221893094391e+02
1.208059900453e+02
1.387441280635e+02
1.292645637056e+02
5.755993020615e+01
1.205987596284e+02
6.348529893526e+01
3.687569862337e+01
3.671654000438e+01
4.529407908221e+01
5.532499126289e+01
1.550206205897e+02
1.236604557007e+02
1.160579373648e+02
4.829200113966e+01
4.875120157167e+01
1.443800212431e+02
5.268530447117e+01
5.414205833259e+01
4.991926644920e+01
3.440166603453e+01
3.241967371474e+01
8.457827909725e+01
5.511115326112e+01
4.864492132498e+01
2.925973387538e+01
2.396873374980e+01
7.286733295021e+01
8.296958520269e+01
1.051192620381e+02
1.091092208868e+02
1.511513006356e+02
4.149690668643e+01
8.779800815761e+01
1.347185842542e+02
1.266464371767e+02
9.433777863178e+01
3.665744159807e+01
3.320331026862e+01
6.901084327670e+01
5.192136284480e+01
4.959254111145e+01
1.586266008883e+02
8.956835168214e+01
1.276663983294e+02
1.193788543883e+02
1.359786323553e+02
3.083459247172e+01
1.588499162655e+02
1.471746474480e+02
1.248406869858e+02
1.175327995052e+02
5.764122544789e+01
5.104076572254e+01
4.207066738821e+01
4.420692240182e+01
4.919909730677e+01
5.987681659908e+01
5.527792192273e+01
4.634820179313e+01
4.637103255317e+01
5.670031447924e+01
4.855677553522e+01
7.040552375969e+01
1.101396251651e+02
1.012009227014e+02
1.241930784851e+02
1.185073425669e+02
8.540755370024e+01
9.130080643278e+01
5.122753379611e+01
4.706230048869e+01
3.781452004429e+01
3.338836850757e+01
1.128091277074e+02
1.548433754693e+02
8.930195345501e+01
9.516347827195e+01
9.004639504541e+01
1.546082622650e+02
7.819243301802e+01
1.174853517064e+02
2.934204495908e+01
1.030442010689e+02
2.761683326511e+01
9.207019901808e+01
1.552299862311e+02
1.595615986577e+02
1.465490034248e+02
3.237720189642e+01
1.097885949366e+02
1.082349889847e+02
3.728611203166e+01
3.791886489092e+01
4.704658041179e+01
3.927598258851e+01
7.328019794595e+01
6.772429043825e+01
1.332441074937e+02
1.376474840780e+02
1.268848628968e+02
1.195074217129e+02
1.519688686546e+02
1.495816064385e+02
5.937272804558e+01
4.093465074677e+01
9.525070464019e+01
3.766920162527e+01
1.621958808515e+02
1.584231031970e+02
1.832017207718e+01
2.334622996070e+01
9.343849671933e+01
3.548731074946e+01
3.709075321398e+01
3.343521979698e+01
1.710424225674e+02
2.984792433157e+01
1.630459973692e+02
5.643025066579e+01
9.837819430661e+01
1.162679304436e+02
7.046818259945e+01
1.470809194552e+02
8.797152134585e+01
9.940009717135e+01
4.464181855510e+01
4.036386723180e+01
4.858261701367e+01
3.419560002103e+01
2.298210984225e+01
8.657823716293e+01
7.105585273580e+01
7.635935624518e+01
4.575457392657e+01
5.597965360256e+01
1.103491649866e+02
1.064843478209e+02
1.002873667281e+02
1.017788374046e+02
9.822578145308e+01
1.309887989362e+02
1.227692911445e+02
1.184282492589e+02
9.587128278729e+01
1.029922592038e+02
7.857476782801e+01
7.427340494683e+01
7.731875433887e+01
1.005229300311e+02
1.671750928242e+02
1.637701754228e+02
2.312970399131e+01
2.880205294390e+01
2.794808660139e+01
2.452803471210e+01
1.011657210983e+02
9.653746070507e+01
1.073042042726e+02
5.298896024799e+01
1.260181642963e+02
1.615172096549e+02
1.576294080496e+02
1.663247266925e+02
1.406882044863e+02
1.484258152491e+02
1.440636435697e+02
1.355286523316e+01
9.577007002202e+01
4.143070758983e+01
9.398374279315e+00
3.745060202732e+01
4.292128208969e+01
3.294626695788e+01
4.319512414222e+01
3.788377773232e+01
4.335386741199e+01
1.665636663027e+01
1.061627964863e+02
1.801810176340e+01
2.221816200044e+01
1.657792867491e+02
1.618740143214e+02
1.689648034065e+02
1.649806837091e+02
1.577598103999e+02
1.613118726917e+02
3.610056624429e+01
1.694436319533e+02
1.648620623668e+02
1.731679756629e+02
3.000299112936e+01
4.584541123836e+01
3.849426481017e+01
3.022884124351e+01
1.306451765628e+02
1.212081213367e+02
1.509946252991e+02
1.427275182902e+02
3.831463844951e+01
3.794921362351e+01
4.634195039123e+01
4.531831533172e+01
5.389923630091e+01
5.264059220030e+01
6.151048652255e+01
1.459652354725e+02
2.799745960658e+01
2.850110835091e+01
1.569756194622e+02
1.539201437684e+02
4.025179040178e+01
3.297252562112e+01
1.669550026781e+02
6.650776035090e+01
1.133303130554e+02
7.945570864517e+00
1.184179917767e+01
6.858822549337e+01
4.791399024657e+01
4.708753184871e+01
4.015141381326e+01
1.391187144145e+02
2.442782659544e+01
3.099671612810e+01
6.244118006741e+01
2.380077757401e+01
1.470568366803e+02
7.307546158035e+01
6.471005996141e+01
3.960318536639e+01
5.320166127917e+01
5.716999627212e+01
4.196209275630e+01
3.937342375093e+01
7.923457343027e+01
4.078060570158e+01
3.224455052054e+01
6.420220974572e+01
8.525434060216e+01
9.186867422129e+01
1.029428169466e+02
9.885008050875e+01
8.769015656462e+01
9.490828347458e+01
1.060907511742e+02
1.027458918888e+02
1.158462045626e+02
1.105880113615e+02
9.922275882301e+01
1.068643276396e+02
1.173205030428e+02
9.613412833283e+01
1.591928475654e+02
7.722376964259e+01
1.852211344360e+01
1.662539664695e+01
6.455370828593e+01
1.260801824006e+02
1.212126512487e+02
6.136174611202e+01
1.421746577809e+02
4.728949996764e+01
4.435978715431e+01
1.487474855518e+02
8.074383957164e+01
7.653878986227e+01
6.981393670827e+01
1.184376310695e+02
5.304516002243e+01
1.597524131612e+02
1.182746336984e+02
1.125031458174e+02
1.043663058753e+02
9.130804508430e+01
1.671917286793e+02
1.623937556638e+02
1.636408241185e+02
1.567462702987e+02
1.699211472113e+02
1.329126123756e+02
1.363762510692e+02
6.457626043884e+01
6.983309306429e+01
7.924100060718e+01
7.468145246980e+01
6.511288041110e+01
6.987574143347e+01
7.916318325168e+01
6.484350852922e+01
1.115849159407e+02
1.721690232617e+02
1.270175456618e+02
1.229081739763e+02
1.143850183716e+02
9.723549237484e+01
1.025573510522e+02
1.116531528407e+02
9.181722056197e+01
1.124030345959e+02
1.728774338383e+02
1.221717759709e+02
9.856896482522e+01
2.899801279702e+01
3.692741280123e+01
3.744211117103e+01
4.629769454828e+01
3.763442764848e+01
1.142138501316e+02
1.180511016470e+02
1.130519338298e+02
1.218348114757e+02
1.166922412985e+02
1.084024843750e+02
1.254134102624e+02
1.197816466667e+02
2.906021033029e+01
5.997716285557e+00
1.368702444073e+01
1.374630979627e+01
2.272880520179e+01
2.318703303190e+01
3.297470503100e+01
3.129100308412e+01
1.331044012580e+01
5.734955347381e+00
1.415634035668e+01
5.718744492674e+00
1.427911690120e+01
2.465171648050e+01
3.945322117932e+01
1.751398804946e+02
9.407772187627e+01
8.955247087340e+01
8.018980479877e+01
8.530751218338e+01
9.792713497610e+01
7.499398324956e+01
7.150413549069e+01
8.474281572748e+00
1.702470115087e+01
1.625104931228e+01
2.558044352274e+01
2.520896054705e+01
1.698198071925e+01
1.685675366625e+01
7.943487583775e+00
1.659647260813e+01
2.543258634647e+01
7.318448721148e+00
7.459914825186e+01
8.004445971581e+01
1.737748403406e+02
3.039579767844e+01
6.242905169934e+00
1.107628157260e+02
1.130655386501e+02
1.129790429371e+02
1.633581644189e+02
1.671835969223e+02
1.109666004403e+02
6.395154631291e+01
1.098455817249e+02
9.237275469802e+01
3.880405671132e+01
6.197932587010e+01
1.388859932814e+02
1.290842514528e+02
1.561148654306e+02
1.315609895617e+02
1.491780287323e+02
1.645464447463e+02
3.979273641524e+01
5.528814229594e+01
5.239778177898e+01
7.634149205362e+01
6.674159176516e+01
1.042799364884e+02
4.236004483378e+01
1.396930864463e+02
5.541803614728e+01
1.097889639067e+02
8.772795808311e+01
6.977881316230e+01
5.776970383120e+01
7.877449878589e+01
1.038049390798e+02
1.428849746846e+02
8.206690615697e+01
7.989726303776e+00
1.471295401570e+02
1.215847251993e+02
5.847436642978e+01
1.394373941983e+02
3.859974441306e+01
7.973555080617e+01
1.000115735797e+02
4.779084605477e+01
3.219701302152e+01
4.572870661501e+01
1.623000425818e+02
7.906435586671e+01
6.102191214366e+01
1.091979675335e+02
7.273979732757e+01
2.321673752924e+01
9.686498233596e+01
1.002095352654e+02
1.489976920579e+02
1.256204884082e+02
6.538416748350e+01
1.543605910874e+02
1.019151950739e+02
9.027941116856e+01
1.070856736234e+02
8.707835432220e+01
8.392036014041e+01
1.101740477671e+02
1.420141841336e+02
5.592678617326e+01
8.958454027182e+01
8.377250547299e+01
9.596886697461e+01
1.341921860484e+02
1.507947991332e+02
4.001450305992e+01
6.198623905281e+01
5.773938246185e+01
1.307077086408e+02
1.009597328779e+02
6.469208667594e+01
1.500777606308e+02
9.464177076603e+01
1.077475701082e+02
4.585531591190e+01
2.926170693700e+01
6.905890898131e+01
9.836423668260e+01
1.166785366579e+02
1.092830749326e+02
1.535549762775e+02
1.433653213039e+02
1.801406955289e+01
2.982425040811e+01
1.570285217689e+02
1.139234681243e+02
1.469474469822e+02
1.112497145452e+02
1.428485403271e+02
3.185834805204e+01
1.606479750344e+02
1.427126288668e+02
6.416610173850e+01
3.005794315672e+01
1.692635218121e+02
1.504336056995e+02
1.041251662709e+02
1.100534697296e+02
1.955600637133e+01
1.204799966981e+02
9.015119394571e+01
1.172958149025e+02
1.532558456417e+02
6.566625561820e+01
1.154630719280e+02
1.225810716865e+02
2.513719592943e+01
2.856644546326e+01
1.192434279776e+02
7.421912942767e+01
1.144260575373e+02
1.540706142823e+02
1.230102915366e+02
8.329075899061e+01
1.267357259546e+02
2.238870130083e+01
7.278944361366e+01
1.303988028117e+02
9.912398684410e+01
2.613762969991e+01
1.111537753694e+02
1.591043983468e+02
8.122140893104e+01
1.186815623860e+02
8.377536363384e+01
2.664249427323e+01
1.270470412839e+02
1.083008049629e+02
1.178585551519e+02
1.064557692873e+02
1.352991000162e+02
3.348714742483e+01
5.983908749918e+01
4.977995785517e+01
8.814057452020e+01
1.097739865615e+02
3.366506063754e+01
8.816517428949e+01
3.515069392760e+01
8.384537777792e+01
1.326252054415e+02
5.572590074027e+01
8.831318852910e+01
5.569590369958e+01
8.357548231732e+01
1.145016829368e+02
8.778877761153e+01
8.269404985129e+01
1.028341552275e+02
8.668347002058e+01
1.125991921171e+02
1.757091955205e+02
3.714055334347e+01
2.621447048767e+01
6.545071328004e+00
3.319343406793e+01
7.170801377957e+01
9.372588947078e+01
3.741111428624e+01
6.588187979097e+01
1.220392089328e+02
1.548928956204e+02
6.973255826330e+01
1.512907827350e+02
1.244514301747e+02
9.362932020022e+01
2.907863564081e+01
1.455505120601e+01
1.385239292418e+02
2.570928018999e+01
2.941267835564e+01
2.613532692324e+01
6.889110487857e+01
2.276794336097e+01
2.492169483921e+01
1.604567827773e+02
3.643708550274e+01
1.342039251444e+02
2.256691939463e+01
1.055403267774e+02
1.514221196215e+02
1.752952273028e+02
1.425102896281e+02
2.080554647813e+01
4.402353885921e+01
1.362092932549e+02
7.741327064441e+01
1.761661466164e+02
3.498639670372e+01
1.041672367334e+02
3.502001135151e+01
1.042655115494e+02
1.039725238279e+02
4.846821604607e+01
4.460787558961e+01
1.706862102370e+02
1.159327646320e+02
1.690790975398e+01
6.900877667503e+01
8.554263558661e+01
1.125477344941e+01
1.684894422998e+02
1.138576500284e+02
1.701905587413e+02
2.518779187667e+01
1.428378406161e+01
1.685378111656e+02
1.295331561362e+02
4.021115465706e+01
1.160941111289e+02
1.159501922350e+01
2.782944037443e+01
1.544549949958e+01
1.763173391118e+02
1.051060881759e+02
9.373864544300e+01
2.979720864082e+01
6.242049699747e+01
1.383159959934e+02
2.163994405746e+01
1.058610164892e+02
1.673317464609e+02
1.111031460549e+02
1.654478704354e+02
9.842769157583e+00
1.510691825498e+02
1.593608382780e+02
2.917105198224e+01
1.127812207849e+02
7.664461173264e+01
3.290025609720e+01
1.136856738073e+02
6.993178032140e+00
2.895771136164e+01
1.773586058702e+02
3.151932427015e+01
4.385436779647e+01
1.267993190734e+02
1.136195157823e+02
8.775813378035e+01
2.969852601955e+01
6.756586474899e+00
6.071219590017e+01
1.552345201877e+02
1.093460895914e+02
5.376921639574e+01
2.180076000405e+01
1.220521926182e+02
1.007657142729e+02
1.322280548219e+02
1.569978185599e+02
1.128463408265e+01
1.214416474532e+02
1.414362230667e+01
1.708936065094e+02
1.048301901137e+02
9.274690486063e+00
6.299624326219e+00
1.084463710469e+01
1.010812790551e+01
1.709884495934e+01
1.792449644857e+01

SCALARS node_materi_strain_total_average_a_ept float
LOOKUP_TABLE default
5.951534066277e-06
5.262998553282e-04
4.149266757690e-04
7.398847989188e-04
1.690993087824e-05
3.867647735106e-05
5.999058002791e-05
8.335349042459e-05
1.061966714685e-04
1.288529167185e-04
1.513161393276e-04
1.736375668238e-04
1.958414965389e-04
2.179974183370e-04
2.403969101932e-04
2.622621200909e-04
2.818920054777e-04
3.030251883927e-04
3.244911615568e-04
3.449878747169e-04
3.653538850903e-04
3.855494745707e-04
4.051394519697e-04
7.411967989285e-04
7.398363542080e-04
7.398555577756e-04
7.393288465298e-04
7.376841066615e-04
7.375983004255e-04
7.360954365971e-04
7.338915015652e-04
7.322192748404e-04
7.295642400263e-04
7.249936986635e-04
7.214982404974e-04
7.159878950822e-04
7.097194620518e-04
7.018868245984e-04
6.929616089652e-04
6.827224845626e-04
6.717086154926e-04
6.600540062353e-04
6.475413901867e-04
6.336202678765e-04
6.185519903586e-04
6.036591831571e-04
5.884104004071e-04
5.734307146999e-04
5.590006880475e-04
5.447878888781e-04
5.316125575551e-04
5.183403990391e-04
5.069954475741e-04
4.957129531123e-04
4.842609818621e-04
4.741576974344e-04
4.661165063354e-04
4.585625488738e-04
4.512188627009e-04
4.459430076938e-04
4.396938583579e-04
4.351946574946e-04
4.302628332180e-04
4.269784265741e-04
4.254697447402e-04
4.239018776180e-04
4.185011067365e-04
4.194042489715e-04
4.166702283730e-04
4.160106843244e-04
4.164268261415e-04
4.159085154299e-04
5.484920209892e-04
5.702136908596e-04
5.919862682120e-04
6.134967011954e-04
6.355522111542e-04
6.578875908712e-04
6.800653284959e-04
7.025684028449e-04
7.250166338465e-04
-1.519099509536e-05
5.080257800052e-04
1.900988628688e-05
7.778889403999e-05
1.443898054340e-04
2.120973715925e-04
2.825444666252e-04
3.529060282833e-04
4.223406809365e-04
4.649291376245e-04
4.861863405237e-04
4.675710826934e-04
4.821361494236e-04
5.039955697030e-04
5.236158131023e-04
5.250181307707e-04
5.249460381701e-04
5.244739765140e-04
5.271328652029e-04
5.242296788534e-04
5.235148596855e-04
5.231343347441e-04
5.225376244026e-04
5.212103017399e-04
5.197465470261e-04
5.177191796356e-04
5.152641212523e-04
5.123723024311e-04
-1.937282995624e-05
-2.406639282550e-05
-2.527819307394e-05
-2.343273254610e-05
-1.980944893143e-05
-1.683574794056e-05
-1.392908448627e-05
-1.107971449519e-05
-8.349751459469e-06
-5.817192605852e-06
-3.124838231764e-06
-1.399999723459e-06
5.868732217479e-07
2.246274477745e-06
3.697227432850e-06
4.700742972763e-06
5.497339234396e-06
5.992341938272e-06
5.855292995645e-06
4.589549486026e-04
4.721491162797e-04
4.782787173240e-04
4.795277908748e-04
4.800200242166e-04
4.794303378257e-04
4.788181517323e-04
4.779769417349e-04
4.770591751561e-04
4.761725284849e-04
4.754055721287e-04
4.747375666069e-04
4.741528708418e-04
4.736431152776e-04
4.732846680311e-04
4.730709409112e-04
4.729863459143e-04
4.717399611925e-04
4.679833512459e-04
4.824279808959e-04
4.830964131939e-04
4.832854079061e-04
4.834089743678e-04
4.835729759330e-04
4.837720147642e-04
4.840258241807e-04
4.842564689600e-04
4.844768787163e-04
4.847231943518e-04
4.849118044613e-04
4.849241545324e-04
4.846379075602e-04
4.837836883839e-04
4.826049288290e-04
4.800558614018e-04
4.742801701644e-04
4.908115338573e-04
4.962596531524e-04
4.986683560515e-04
5.005601226955e-04
5.018763858268e-04
5.027778361689e-04
5.033153452662e-04
5.037606926766e-04
5.041913371814e-04
5.042769385623e-04
5.044234730412e-04
5.044699796411e-04
5.045215612104e-04
5.044642267510e-04
5.044241148096e-04
5.042510977243e-04
-2.773641680998e-06
4.698546934345e-05
1.107934636548e-04
1.792667360239e-04
2.467900021915e-04
3.188409076931e-04
3.841842121146e-04
4.507587847440e-04
4.770080476506e-04
4.983834469502e-04
7.737494359395e-05
4.642500234339e-04
2.641867819101e-06
-8.393984134677e-06
4.315835696664e-04
2.076425531392e-04
2.301382101729e-04
5.043502096032e-04
3.367505133196e-04
5.576531672099e-04
4.502473871017e-04
4.185294838956e-04
9.109304942967e-06
6.157194400489e-04
5.078567308649e-04
1.412026636501e-04
2.892002403051e-04
6.532544114105e-04
6.938524658023e-04
7.267631087512e-04
7.192036185414e-04
7.115005368711e-04
5.286773431207e-04
5.397002122242e-04
5.445703822801e-04
6.247147190285e-04
4.112893117166e-04
-6.926059036664e-06
1.330118583920e-05
3.545068367801e-04
5.437379781802e-04
7.149252085068e-05
6.728019204027e-04
5.316045323744e-04
5.869261648201e-04
4.832412918427e-04
4.490406807594e-04
-3.126887396115e-06
5.349028573556e-04
4.198968442555e-04
6.682616855942e-04
7.020304148835e-06
1.849286804682e-04
7.317051064853e-04
2.733084912327e-04
1.408147132667e-04
3.980718344664e-04
4.816513887933e-04
1.978269820577e-05
5.828946249081e-04
4.123334405526e-04
1.355943693757e-05
7.127387161798e-04
5.191756679865e-04
5.206979689160e-04
5.349199499630e-04
5.355595356419e-04
5.510020118418e-04
5.517635988292e-04
5.352185267565e-04
5.518195481566e-04
5.340558818546e-04
5.680037672801e-04
5.511854448774e-04
5.322783569639e-04
5.499355277765e-04
5.300614894759e-04
5.126978701645e-04
5.095935155572e-04
4.922974411675e-04
4.883599707322e-04
5.064899471999e-04
4.846271361593e-04
4.662518295321e-04
4.621569355243e-04
4.433089082970e-04
4.390624792939e-04
4.194466668513e-04
4.153832529182e-04
4.355303074159e-04
4.120970468937e-04
3.912805564852e-04
3.883986203411e-04
3.668135808082e-04
3.644358340199e-04
3.862417525392e-04
3.629240726863e-04
3.402332156123e-04
3.396134177163e-04
3.160456067724e-04
3.164559673592e-04
2.920185533101e-04
2.933687837521e-04
3.173815619654e-04
2.951755213960e-04
2.705039423690e-04
2.732506618099e-04
2.975179409127e-04
2.764570354713e-04
3.002826061698e-04
2.800533350048e-04
2.560006145675e-04
2.603808355695e-04
2.839530086231e-04
2.649632169266e-04
2.412475227561e-04
2.465935716487e-04
2.698677666206e-04
2.521676003270e-04
2.288067662375e-04
2.350202911098e-04
2.580760033654e-04
2.413944335954e-04
2.183278124004e-04
2.251947874755e-04
2.480310046263e-04
2.322163200857e-04
2.548103564527e-04
2.092338462123e-04
2.167475450813e-04
1.935990390594e-04
2.016643573399e-04
3.847848917175e-04
1.784754537027e-04
1.702500110694e-04
1.869898734608e-04
2.099118931502e-04
1.637516329045e-04
1.726712688455e-04
1.494368651779e-04
2.908949733612e-04
5.034615842337e-04
1.586959829466e-04
1.355154352341e-04
1.259250960798e-04
1.121553647072e-04
5.659603046802e-04
5.845098532408e-04
5.811728804564e-04
6.007648225184e-04
5.967901288256e-04
1.219229082516e-04
5.695129286878e-04
6.039038937398e-04
4.484260603004e-04
3.700024860835e-04
3.209823197791e-04
1.815934332860e-04
1.679309942230e-04
1.905219986233e-04
2.705278275391e-04
2.769831516274e-04
2.925633973266e-04
2.986768301217e-04
3.140754493336e-04
3.198919381321e-04
3.049916702344e-04
3.259310058303e-04
3.115023605688e-04
3.350679563768e-04
3.297597010756e-04
3.321872279964e-04
3.182254654764e-04
3.387162723825e-04
3.251673552756e-04
3.044287105332e-04
3.117527106167e-04
2.908990245992e-04
3.233441642487e-04
3.437188834201e-04
3.456636432364e-04
3.656877563228e-04
3.672693972467e-04
3.869381154836e-04
3.881119282341e-04
3.692228642373e-04
5.480734981628e-04
2.481143582490e-04
2.448273338231e-04
2.219723782729e-04
2.180557425351e-04
1.947279472456e-04
1.901029034270e-04
1.661980069645e-04
1.720989520954e-04
1.430538590651e-04
1.503310672378e-04
1.209335029356e-04
1.294341936449e-04
4.325603540198e-04
3.860564731779e-04
4.069852306371e-04
4.065807102033e-04
1.021817512697e-04
3.323492348829e-04
3.505337600177e-04
3.456443646353e-04
3.898271468987e-04
9.893668100844e-05
1.608613219812e-04
1.859748110302e-04
6.168689014928e-04
6.121336605973e-04
3.662565722425e-04
1.087446117128e-04
3.463894954745e-04
1.127874006616e-04
3.192963603341e-04
3.397043621800e-04
2.904060165351e-04
4.273201778648e-04
4.272331487210e-04
1.577853309197e-04
1.378534550629e-04
1.101511251068e-04
1.193376752629e-04
1.462841106171e-04
1.280528271848e-04
1.012293459370e-04
1.105585526721e-04
1.369617050287e-04
1.200840616582e-04
9.376730557681e-05
1.038403119401e-04
3.525102467086e-04
9.058427738001e-05
4.963578618424e-04
3.707022432416e-04
4.080728386436e-04
6.329136712961e-04
6.274046208231e-04
6.066565194436e-04
6.212819134995e-04
6.426063495528e-04
6.358552764644e-04
6.145929479351e-04
6.286293870478e-04
6.074012404428e-04
6.209737509091e-04
6.426480217298e-04
6.345490928467e-04
6.129013265743e-04
6.261136559283e-04
6.044412737700e-04
6.172970334973e-04
6.393289033026e-04
8.652116245906e-05
3.715244603364e-04
3.920335389366e-04
1.776643659281e-04
1.993755471350e-04
2.128495350874e-04
2.217748928618e-04
6.300677957613e-04
6.524528991595e-04
1.561493846843e-04
1.825031323657e-04
6.377807277554e-04
3.271301707819e-04
3.064916378590e-04
3.445727576122e-04
3.479621570370e-04
3.212545334383e-04
3.244218929833e-04
3.526434616790e-04
2.958148391377e-04
3.244846815092e-04
6.565732739445e-04
1.162540908186e-04
9.214900540783e-05
3.473937800429e-04
3.505738729285e-04
4.555531463563e-04
4.528049732390e-04
4.755254001290e-04
4.728543925600e-04
4.954945722692e-04
4.927092282766e-04
4.705402688248e-04
4.479218848795e-04
4.903678259408e-04
6.078929100451e-04
3.852426158187e-04
1.458824566715e-04
7.627902310644e-05
7.710751396630e-05
9.565173485410e-05
1.184874465476e-04
3.861428416537e-04
5.154799674222e-04
5.180461168581e-04
3.300528144027e-04
3.591045723894e-04
4.472947373740e-04
5.776412986998e-04
5.938955215295e-04
5.866255510269e-04
7.122301164363e-05
6.753996858214e-05
6.576608932756e-04
2.115769516783e-04
2.095908339033e-04
8.094721484656e-05
5.889348283595e-05
6.427204049352e-04
6.650769044319e-04
2.349828763573e-04
2.435429655767e-04
3.823916333169e-04
8.811561464384e-05
6.749214085958e-04
3.536975240668e-04
3.323247623183e-04
2.083811191711e-04
1.520710570963e-04
1.250763198298e-04
1.628024201576e-04
1.137090587429e-04
1.053996467151e-04
4.020579365401e-04
6.644584360016e-04
4.685885561201e-04
4.484574117261e-04
4.883232929306e-04
6.230163652240e-05
3.905166406374e-04
3.351811448246e-04
5.374607982266e-04
5.405004381301e-04
2.377346584139e-04
2.377291429656e-04
2.091588618346e-04
2.391203872639e-04
5.182375082405e-04
2.649199948054e-04
4.761257794326e-04
4.814647981166e-04
4.610919718611e-04
3.796828697104e-04
3.871107108547e-04
2.418987217998e-04
3.420587411521e-04
2.265491190262e-04
2.834190133179e-04
2.865888736068e-04
6.646781014328e-04
6.789790561320e-04
5.915567208525e-04
5.830239674837e-04
7.825532117828e-05
6.774772706260e-05
2.617697136998e-04
3.752368479715e-04
6.543537245907e-04
6.593957041105e-04
6.419655784075e-04
3.986961344307e-04
2.263534599607e-04
3.260322301174e-04
6.968598512722e-05
4.074092038686e-04
5.452578695592e-05
5.251022806580e-04
3.553852006971e-04
3.672666166219e-04
4.671692858755e-04
5.063280103206e-04
4.060745631570e-04
3.840770763611e-04
4.679689892832e-04
4.476613401172e-04
4.387831173069e-04
4.236161768863e-04
1.708277525376e-04
1.544123226036e-04
5.369705485473e-04
5.097191247729e-04
5.602730615480e-04
5.637687153801e-04
4.663703548666e-04
4.468750400941e-04
1.274310152366e-04
3.675417164725e-04
6.800091550539e-04
4.865034500702e-04
3.940981060102e-04
3.804817000167e-04
3.785993777896e-05
4.911786902287e-05
6.878555051646e-04
2.091556363357e-04
2.400770947077e-04
1.784084864063e-04
3.945330531773e-04
5.435179478848e-04
3.753229742451e-04
4.060414560361e-04
6.979618148136e-04
4.055841250154e-04
3.183325963638e-04
3.785986198143e-04
6.763525272243e-04
7.010983826112e-04
5.737355614579e-04
5.654350161032e-04
5.799261638334e-04
1.052041338995e-04
6.972975684449e-05
6.703470206800e-04
1.546398080645e-04
1.662442614640e-04
9.793471371073e-05
1.226466183046e-04
2.484683128031e-04
2.404380326137e-04
5.227457534795e-04
5.445260546595e-04
4.783121944655e-04
3.361969139139e-04
3.145381299854e-04
3.104858777873e-04
6.867179271845e-04
7.034001214961e-04
1.876732287920e-04
1.802974837939e-04
1.784550468521e-04
6.869127959659e-04
3.869143417933e-04
3.787668095634e-04
4.372514780750e-05
5.685552886536e-05
1.196408843237e-04
9.256516490327e-05
6.634105134013e-04
6.454371120910e-04
6.828393529138e-04
1.128958047037e-04
4.477918823005e-04
4.175137680030e-04
4.153063786817e-04
4.234169959269e-04
4.678692186522e-04
4.858384200513e-04
5.073184996982e-04
2.588541932983e-05
6.939558538557e-04
5.695109632992e-04
1.001443254235e-05
5.610851792105e-04
5.738896126826e-04
5.507373908300e-04
9.083240730492e-05
5.573055208165e-04
5.662795071814e-04
2.837079761596e-05
7.028937713416e-04
3.212230047956e-05
4.215408856364e-05
4.000864383796e-04
3.858679428506e-04
4.044256601313e-04
3.904535498520e-04
3.719351676766e-04
3.785813885524e-04
5.565521605551e-04
4.001310632266e-04
3.855231395998e-04
4.074455987416e-04
4.360587069952e-04
2.684357609541e-04
2.722322810923e-04
2.445841261965e-04
5.873426872063e-04
5.852659229040e-04
3.441389345726e-04
3.234922268458e-04
5.632094600183e-04
5.626272035782e-04
5.820588707242e-04
5.799223950834e-04
5.995888678315e-04
5.969849738521e-04
6.171776390393e-04
5.310988728083e-04
1.766514000749e-04
4.749153744946e-04
4.649871307925e-04
4.452085142085e-04
3.966012786780e-04
3.799660992538e-04
4.118909510191e-04
2.646104495776e-04
7.125426615535e-04
-2.600430941980e-06
2.820241281399e-05
2.909598112167e-04
4.139077221032e-04
2.991490051884e-04
3.065385608925e-04
3.576513752426e-04
4.684855307759e-05
1.484306893353e-04
6.190605689720e-04
1.146332710821e-04
3.339481858819e-04
2.661519532865e-04
3.997136225272e-04
1.801536302215e-04
2.669571914100e-04
5.156285277192e-04
5.200749579798e-04
5.037064715323e-04
2.681828112788e-04
3.379369010338e-04
3.134605309005e-04
4.709505182172e-04
6.242697019118e-04
6.269387835715e-04
6.475270848054e-04
6.285553458043e-04
6.080756341793e-04
6.090996403385e-04
6.303810970046e-04
6.099723289067e-04
6.350319591994e-04
6.092202100262e-04
5.885356939960e-04
5.871575775299e-04
6.056429434973e-04
5.671212662501e-04
4.833828622683e-04
3.163012966876e-04
4.695712375683e-05
5.057132299329e-05
4.247042398522e-04
6.640541280204e-04
6.851893545503e-04
2.145305559705e-04
6.011268445115e-04
5.002750715001e-04
1.364427413418e-04
5.722791390577e-04
6.063510400514e-04
5.880935196656e-04
5.866448259049e-04
7.008908087586e-04
5.862824247175e-04
5.189970140108e-04
3.644239693159e-04
3.632204043377e-04
3.406294503898e-04
5.889889604043e-04
4.730128231558e-04
4.531183456205e-04
4.448829716575e-04
4.314979337282e-04
4.561648072916e-04
6.429601375808e-04
6.307226972230e-04
1.545811996238e-04
1.728911694883e-04
1.983985781383e-04
1.917983078572e-04
1.653831610597e-04
1.850941186640e-04
2.111639063032e-04
1.784295371650e-04
5.648553248978e-04
4.430474892611e-04
3.084445109622e-04
3.028110422451e-04
2.807055973661e-04
2.182316866908e-04
2.324678264998e-04
2.545595423121e-04
2.042450053266e-04
4.504079418526e-04
4.370820109836e-04
3.290121540234e-04
2.245312646952e-04
5.321218614175e-04
5.457041588092e-04
5.408215025200e-04
5.603669493091e-04
5.513217717749e-04
2.566067380946e-04
2.648816241317e-04
2.522606943302e-04
2.732781325804e-04
2.605280069003e-04
2.409146346850e-04
2.814271637531e-04
2.675340358774e-04
5.371116625292e-04
-5.023052533057e-06
1.999288376142e-05
2.004310884064e-05
4.366488596595e-05
4.576996151582e-05
7.155687282800e-05
6.889981255560e-05
1.959537774084e-05
-1.262261148962e-06
2.137387511130e-05
8.165862072393e-07
2.201295776005e-05
4.758330330138e-05
8.238839162851e-05
4.072109669544e-04
2.068222504814e-04
1.962819142680e-04
1.750895844514e-04
1.867775715398e-04
2.157756502220e-04
1.630430898448e-04
1.550036997850e-04
1.392546202401e-05
3.131295822798e-05
2.936153109032e-05
5.045609825094e-05
4.989646989430e-05
3.111731322781e-05
3.062931421723e-05
1.242603743224e-05
3.004564985033e-05
5.023554074891e-05
1.097080736325e-05
6.468638938630e-04
6.589852988817e-04
4.267695055926e-04
5.428143534805e-04
5.161622681314e-06
7.241562964225e-04
7.235528563156e-04
7.260333265011e-04
3.749132397409e-04
3.852043200083e-04
7.262592764524e-04
1.401066037241e-04
6.488265623570e-04
6.840062892623e-04
1.305269162105e-04
1.384406012534e-04
3.147308248549e-04
2.973477881430e-04
3.595458482965e-04
2.985965412233e-04
3.455015403269e-04
4.352976831314e-04
8.336212586690e-05
5.996537251005e-04
5.956103048316e-04
6.481048100434e-04
1.449776734755e-04
2.315056427506e-04
8.873588220326e-05
5.625015864145e-04
4.544735110590e-04
2.642162091247e-04
1.956098004844e-04
1.549272092838e-04
1.295474227336e-04
3.418874670397e-04
2.394843410964e-04
3.406011252804e-04
6.615726437879e-04
1.019668552325e-05
3.554951330353e-04
2.836036785608e-04
6.005168403829e-04
4.074201994308e-04
8.431350141605e-05
6.503140808232e-04
6.756899731610e-04
5.723402587466e-04
6.516391869181e-05
5.782902610974e-04
4.051178187977e-04
6.209478178012e-04
1.316187989114e-04
3.034143722394e-04
3.949743826638e-04
4.953677464771e-04
6.923882250029e-04
3.621596641780e-04
4.100555631401e-04
3.479576198448e-04
1.414130529390e-04
3.663761090382e-04
3.189873459861e-04
6.724069633788e-04
4.981163679751e-04
2.518631831262e-04
6.487918379634e-04
2.750656809091e-04
4.272295180326e-04
4.311766861257e-04
4.586414352999e-04
5.275196502946e-04
4.094696053783e-04
3.026034827394e-04
3.607942658183e-04
9.993742124624e-05
2.935259347675e-04
5.921304298067e-04
5.117851497984e-04
6.947607263203e-04
3.741858725885e-04
3.523822525637e-04
6.704669074205e-04
2.469556968350e-04
9.670151547381e-05
9.962241444911e-05
1.998029109723e-04
3.397213104871e-04
2.689047377290e-04
6.686371774652e-04
3.587300330581e-04
3.619155996420e-04
4.796638023428e-05
4.912427280910e-04
3.654251006520e-04
3.068375932270e-04
4.269753344486e-04
2.473972208456e-04
5.479531063444e-04
4.098309604339e-04
3.726633991635e-04
3.749098203684e-04
2.393719704059e-04
5.441120099439e-04
3.947679053018e-04
3.953459043067e-04
4.301003504891e-04
2.880782322241e-04
4.679525344285e-04
2.761478126357e-04
4.812482661524e-04
7.072531574124e-04
4.113413859722e-04
5.692142722883e-04
2.621561673155e-04
4.059292309596e-04
4.986700661253e-05
4.574393315737e-04
2.698711012000e-04
2.053508258691e-04
2.924962644044e-04
4.854383050964e-04
2.777736804558e-04
2.311582756475e-04
2.858108217790e-04
4.294559792898e-04
5.697302052630e-04
2.939680495803e-04
5.006554619154e-04
5.155036924948e-05
4.280733079998e-04
3.646386904532e-04
1.859054907287e-04
2.973950708177e-04
5.889272908158e-04
3.689972752825e-04
3.192789306499e-04
5.204626047150e-04
4.270060458059e-04
3.623259019609e-04
3.408538573926e-04
3.502530501000e-04
1.310503729342e-04
1.070081471528e-04
2.361532275031e-04
5.428729820112e-04
6.907668659881e-05
5.685547337312e-04
7.250648489568e-05
2.169791499185e-04
4.481117077816e-04
6.039521157678e-04
2.228414820303e-04
1.190728084455e-04
2.049715348469e-04
3.843158225785e-04
2.116437286156e-04
1.948869916656e-04
7.061259169242e-04
2.020287517331e-04
7.303866702991e-04
4.072831173780e-04
5.606990343526e-04
3.056579138031e-04
-7.493026002173e-06
2.816136817063e-04
1.623907524313e-04
5.461329639148e-04
5.615095612497e-04
1.466424171937e-04
6.281473272272e-04
5.443673506422e-04
6.360114874451e-04
4.267029640754e-04
4.270531387106e-04
6.892313702784e-04
5.413845606515e-04
2.302394850525e-05
3.128088345910e-04
2.355739063447e-04
2.086800511646e-04
1.447575057040e-04
1.488841574018e-04
4.334715034396e-05
1.744703972989e-04
4.601991940085e-04
5.557194705791e-04
4.680239387456e-04
1.088715525774e-04
6.918339728947e-04
5.083985617464e-04
4.204584503687e-04
4.875876045563e-04
8.493467067294e-05
5.612900710317e-04
5.759242223182e-04
6.529678073156e-04
4.171359115360e-04
5.491699117341e-04
7.112013093591e-04
8.162218397756e-05
7.124402110689e-04
5.657715490760e-04
5.869448175789e-04
5.507054061369e-04
3.947232514693e-04
6.502520063134e-04
5.656941457347e-05
6.342594224033e-04
1.876684889220e-04
1.536081667897e-05
4.102773130257e-04
5.853860029621e-04
3.951931929308e-04
4.962051494748e-05
2.308884332674e-05
4.221021878084e-04
6.068909349959e-04
9.308693456306e-05
7.225064851016e-04
2.486453308788e-05
5.378426279221e-04
2.733725687397e-05
4.138390613696e-04
7.056839461208e-04
2.063676040906e-04
5.249093622562e-04
1.341634305810e-04
5.270697227309e-04
4.025164891238e-05
7.110321428006e-04
4.342551059028e-04
6.813860938917e-04
4.988084371925e-04
1.620679605323e-05
5.247294362673e-04
4.277306727994e-04
5.418395870465e-04
6.649320475193e-04
1.668127487177e-04
6.756722726166e-05
7.333786271955e-04
1.072364916247e-05
5.411961584200e-04
4.109722056747e-04
6.477377275928e-05
5.766193350890e-04
6.201335036975e-04
2.525810511105e-04
6.763180291594e-04
6.178315760878e-05
-1.201395875037e-05
6.155266175613e-04
5.004809878886e-04
6.938420426153e-04
5.992151678663e-04
7.441402589268e-05
6.010296571212e-04
2.230914355759e-04
5.551230902249e-04
4.431053487373e-04
-3.698250063670e-07
2.712362725561e-04
2.354354062289e-05
4.065813998368e-04
2.321298970920e-04
4.674137300099e-04
4.702755137398e-04
4.811364565459e-04
4.938001152070e-04
4.994328981243e-04
5.143023010926e-04

SCALARS node_materi_strain_total_size_dev_sd_ept float
LOOKUP_TABLE default
9.578322380561e-06
1.419940045319e-03
1.005679636234e-03
1.821373712219e-03
3.177564422150e-05
7.542986780751e-05
1.142182954967e-04
1.583502655809e-04
2.007570904773e-04
2.425586642010e-04
2.851098738742e-04
3.288431193858e-04
3.739868190520e-04
4.217784073932e-04
4.735616662813e-04
5.250425556491e-04
5.738990995941e-04
6.312596001345e-04
6.930835121953e-04
7.560688032115e-04
8.228844252673e-04
8.935627895529e-04
9.627307840641e-04
1.822042182057e-03
1.819844558269e-03
1.820204695469e-03
1.819427315034e-03
1.817882444000e-03
1.817824735630e-03
1.816404095275e-03
1.813279042198e-03
1.811416746614e-03
1.806807024265e-03
1.801633439159e-03
1.795747415995e-03
1.787715222521e-03
1.776752394671e-03
1.764667774183e-03
1.748190331345e-03
1.730784353068e-03
1.710501255725e-03
1.687182420973e-03
1.661031476327e-03
1.630645990087e-03
1.598645389423e-03
1.563608452080e-03
1.526991650439e-03
1.490008064287e-03
1.452589598506e-03
1.414701565546e-03
1.376765866920e-03
1.339356756299e-03
1.307245231006e-03
1.270919855113e-03
1.235345039765e-03
1.203278271229e-03
1.177180010631e-03
1.151822018314e-03
1.129634263857e-03
1.109239903838e-03
1.090510077959e-03
1.073295935837e-03
1.058777686599e-03
1.049088469110e-03
1.042304745497e-03
1.035257778470e-03
1.018517134626e-03
1.021054650254e-03
1.014621764511e-03
1.013117079455e-03
1.013067110340e-03
1.011609786946e-03
1.470364269408e-03
1.520383129552e-03
1.567411269564e-03
1.611490011577e-03
1.654297860838e-03
1.694618004157e-03
1.732568993062e-03
1.767814994998e-03
1.802595806355e-03
1.699600788757e-04
1.456480358825e-03
3.301800802414e-04
4.862544359830e-04
6.380778186019e-04
7.826862012659e-04
9.334716673325e-04
1.094903022054e-03
1.284019185395e-03
1.340296909157e-03
1.396573118384e-03
1.289499179380e-03
1.316581027448e-03
1.366013322263e-03
1.413015907816e-03
1.416847904313e-03
1.418025638196e-03
1.418166985733e-03
1.426167203507e-03
1.421523283471e-03
1.422467561454e-03
1.424854456941e-03
1.429128674618e-03
1.431769837755e-03
1.434424930904e-03
1.438022016939e-03
1.441915361396e-03
1.447329844261e-03
1.654451170932e-04
1.782903257413e-04
1.769416854950e-04
1.649593349473e-04
1.483119904121e-04
1.339009130647e-04
1.185027955695e-04
1.027813029271e-04
8.816124398492e-05
7.424592176350e-05
6.147312462349e-05
5.313889131078e-05
4.110940757581e-05
3.038592242075e-05
2.349952443960e-05
1.906348207407e-05
1.497499614822e-05
1.061007845440e-05
8.722309675863e-06
1.293622438813e-03
1.272024992671e-03
1.262679545711e-03
1.259218521763e-03
1.259169456684e-03
1.261158954084e-03
1.264571931106e-03
1.268125925346e-03
1.271660160448e-03
1.274991354458e-03
1.278122672918e-03
1.280853830587e-03
1.282975652883e-03
1.284695950616e-03
1.286035100682e-03
1.287059260174e-03
1.287614512265e-03
1.287596071175e-03
1.285127839573e-03
1.316393317080e-03
1.315037330658e-03
1.314374901792e-03
1.313723177010e-03
1.312999573797e-03
1.312289786270e-03
1.311403588860e-03
1.310305563555e-03
1.308803790862e-03
1.307541987198e-03
1.306409350740e-03
1.305441111100e-03
1.305118201592e-03
1.305492916369e-03
1.307740174974e-03
1.317399638588e-03
1.314853784992e-03
1.381324003069e-03
1.387398862359e-03
1.380703557253e-03
1.376924957879e-03
1.374532045881e-03
1.372670847158e-03
1.371121229377e-03
1.370166241215e-03
1.369336531032e-03
1.368647039708e-03
1.368097783033e-03
1.367715182073e-03
1.367767652059e-03
1.367545587891e-03
1.367715238658e-03
1.367621801758e-03
2.431686853788e-04
4.111068504482e-04
5.627384581057e-04
7.135766609290e-04
8.641176547711e-04
1.015451419326e-03
1.192240542307e-03
1.330404772795e-03
1.377537986211e-03
1.431947794483e-03
4.213655420980e-04
1.150454875884e-03
8.242110815430e-05
1.374934327123e-04
1.045237895683e-03
7.387185383234e-04
4.490230974068e-04
1.279339121809e-03
1.043633882861e-03
1.441280982858e-03
1.349178068496e-03
1.005016435164e-03
4.388671122699e-05
1.598671994295e-03
1.478216912534e-03
2.656611027344e-04
5.936781530682e-04
1.690326897314e-03
1.767506959782e-03
1.807970501464e-03
1.802664843836e-03
1.794120785231e-03
1.497660871928e-03
1.482777240999e-03
1.476635547838e-03
1.633664053103e-03
9.848837482499e-04
1.539587794010e-04
3.061083188871e-05
7.869392078695e-04
1.464131419839e-03
1.365075322764e-04
1.733229492689e-03
1.364839210716e-03
1.523455940940e-03
1.210238598144e-03
1.103659251378e-03
1.172368545672e-04
1.488526018789e-03
1.006660496791e-03
1.713502485954e-03
6.297865806754e-05
3.514637318017e-04
1.813124150511e-03
8.864622758721e-04
5.793471540557e-04
1.223249141583e-03
1.421318724470e-03
2.627428360878e-04
1.547882238372e-03
9.915117076745e-04
2.379629844129e-05
1.783013098866e-03
1.503830524186e-03
1.517468627299e-03
1.542678471296e-03
1.552488593666e-03
1.582269859513e-03
1.584929950796e-03
1.551661488836e-03
1.580303318245e-03
1.540934215842e-03
1.615083552162e-03
1.567915167946e-03
1.522138654729e-03
1.548795454755e-03
1.497094323550e-03
1.469569851019e-03
1.438184931154e-03
1.409292918804e-03
1.371639321334e-03
1.403904750499e-03
1.332535750445e-03
1.297186248242e-03
1.254850955586e-03
1.216200198551e-03
1.172129134842e-03
1.130001055737e-03
1.085862938226e-03
1.131423293784e-03
1.045885403673e-03
9.977924474586e-04
9.594181252838e-04
9.093156114639e-04
8.731121158983e-04
9.260054666221e-04
8.425498373796e-04
7.879135623951e-04
7.610949719157e-04
7.053093277712e-04
6.827846507960e-04
6.265083428947e-04
6.080080460394e-04
6.656935324525e-04
5.950635939698e-04
5.379227529406e-04
5.293027897657e-04
5.874170655432e-04
5.258521627427e-04
5.846639757379e-04
5.269867982040e-04
4.703261474398e-04
4.750643448106e-04
5.319933466453e-04
4.830687638842e-04
4.288489587666e-04
4.397444435297e-04
4.942135118707e-04
4.531500840961e-04
4.015799477412e-04
4.167830007510e-04
4.689664362807e-04
4.336538160692e-04
3.844002580156e-04
4.020551299725e-04
4.522094671739e-04
4.209273650633e-04
4.720594603001e-04
3.730871805577e-04
3.921826921894e-04
3.463740551905e-04
3.655810213847e-04
8.980687902835e-04
3.215693774455e-04
3.039118374580e-04
3.405567002971e-04
3.858689612566e-04
2.978533021096e-04
3.165246862882e-04
2.749123464017e-04
6.501042801361e-04
1.368757948088e-03
2.931486889984e-04
2.522540199806e-04
2.351777949997e-04
2.127641745957e-04
1.608196638381e-03
1.642173638255e-03
1.632007264889e-03
1.667249905468e-03
1.655740412890e-03
2.293941428995e-04
1.594240603589e-03
1.673323923106e-03
1.262926515126e-03
9.504757157035e-04
6.476913122062e-04
3.359022782974e-04
3.120901827777e-04
3.560058820991e-04
5.058963894134e-04
5.265090038928e-04
5.629468509454e-04
5.842131222041e-04
6.232700506655e-04
6.451856981947e-04
6.066784243827e-04
6.683393034656e-04
6.301672764520e-04
6.868278428868e-04
6.656717263455e-04
6.925061903007e-04
6.545777877460e-04
7.176705535507e-04
6.797647119272e-04
6.189353374883e-04
6.438928832853e-04
5.855211657110e-04
6.456937795805e-04
7.100960810184e-04
7.088427842701e-04
7.744166559804e-04
7.742129474858e-04
8.408358158886e-04
8.418790589088e-04
7.781389263456e-04
1.524484055788e-03
4.733683251488e-04
4.828458931490e-04
4.197071835937e-04
4.302145674936e-04
3.686509653329e-04
3.807462604477e-04
3.207764105525e-04
3.144062224927e-04
2.687455882631e-04
2.682478291261e-04
2.255874008686e-04
2.305969273961e-04
1.094667724811e-03
8.438916834868e-04
9.111295487340e-04
9.160549686521e-04
1.968413734826e-04
7.055981274202e-04
7.319334725943e-04
7.115179027163e-04
8.474836698532e-04
1.902358301226e-04
3.353526772597e-04
4.010530506506e-04
1.689766805254e-03
1.676955955296e-03
7.807197101219e-04
2.064847638022e-04
7.332750494840e-04
2.273719447788e-04
6.693889946115e-04
7.319133917288e-04
5.711067806853e-04
9.839361542207e-04
9.900023650580e-04
2.738299409207e-04
2.403082022888e-04
2.024799934125e-04
2.146608127478e-04
2.520192802744e-04
2.264881588957e-04
1.914297409800e-04
2.048047457987e-04
2.407009542670e-04
2.190814959148e-04
1.855008868405e-04
1.989055061470e-04
7.702872351945e-04
1.881428275984e-04
1.443223458692e-03
8.013354582698e-04
9.120780709158e-04
1.710381147536e-03
1.696671235289e-03
1.659696881317e-03
1.679428910249e-03
1.714952165085e-03
1.697973062464e-03
1.659489595734e-03
1.678572594520e-03
1.637434816654e-03
1.657373911369e-03
1.696955118305e-03
1.676602582313e-03
1.634971111523e-03
1.655178202551e-03
1.611783798615e-03
1.632780786648e-03
1.674859330076e-03
1.681250116056e-04
7.860339090793e-04
8.576890305847e-04
3.330132865683e-04
3.759956749512e-04
4.019800788552e-04
4.238149056157e-04
1.653341313509e-03
1.694304299713e-03
3.597820507927e-04
4.309202864828e-04
1.719919953080e-03
6.957434738703e-04
6.353063733154e-04
8.603257518365e-04
9.040926388585e-04
8.127148805613e-04
8.587233217352e-04
9.533015356777e-04
7.662225913663e-04
6.455917370222e-04
1.714666090832e-03
2.190217066228e-04
1.819822641843e-04
7.593604490876e-04
7.182078301779e-04
1.177805761392e-03
1.144362703300e-03
1.225251295653e-03
1.195163948802e-03
1.273984202340e-03
1.247539518281e-03
1.169738249403e-03
1.058306114318e-03
1.226376653887e-03
1.609319153821e-03
8.503245079720e-04
2.561198205791e-04
1.520202793234e-04
1.657040134211e-04
1.825935805555e-04
2.234903190963e-04
8.528956817951e-04
1.324645408838e-03
1.349617747561e-03
9.120995932824e-04
1.006987457529e-03
1.053820203770e-03
1.616676517536e-03
1.616844551092e-03
1.591971534613e-03
1.390621621079e-04
1.557146429040e-04
1.732218983975e-03
4.729548476289e-04
5.078203330406e-04
1.924073459738e-04
1.583214663683e-04
1.673211398465e-03
1.712529655963e-03
4.503757480273e-04
4.731330985311e-04
8.336634595879e-04
1.790658989498e-04
1.731775748890e-03
7.288395835006e-04
6.626848442402e-04
3.969532559292e-04
3.960225902592e-04
3.252006866620e-04
2.803149139066e-04
2.132431877017e-04
1.996400735822e-04
9.088344126303e-04
1.745926310663e-03
1.149808748360e-03
1.090881253535e-03
1.210027447222e-03
1.477755112485e-04
8.751256276504e-04
7.230795170142e-04
1.396985949814e-03
1.420869852104e-03
5.501344507224e-04
5.898566408910e-04
5.534451211351e-04
6.387732864680e-04
1.513806357035e-03
6.330737357701e-04
1.381980719284e-03
1.417871892535e-03
1.355625097557e-03
1.047195259010e-03
1.102260500888e-03
4.981645207114e-04
7.155201417522e-04
4.284063586232e-04
5.614863935198e-04
5.430020001615e-04
1.732514982662e-03
1.749194457058e-03
1.589833454790e-03
1.564811216188e-03
1.592658169104e-04
1.459351704287e-04
4.931381421922e-04
8.234330145271e-04
1.739216983567e-03
1.745859672113e-03
1.725124374431e-03
8.898384283316e-04
4.152882796212e-04
6.477455575514e-04
1.612921240281e-04
9.797554244423e-04
1.225894670147e-04
1.436897458493e-03
7.877234868440e-04
8.255488772284e-04
1.127050046122e-03
1.487761517599e-03
9.549081233455e-04
8.759446364339e-04
1.392475111418e-03
1.330405348673e-03
1.281329164479e-03
1.252342019720e-03
2.960291956490e-04
2.718232879058e-04
1.382625795389e-03
1.284860920145e-03
1.464628036191e-03
1.488513258531e-03
1.124874523188e-03
1.052304047988e-03
2.400383402096e-04
1.066206603168e-03
1.762206246625e-03
1.443014943550e-03
8.966272549126e-04
8.477461965351e-04
1.400902244222e-04
1.435280616266e-04
1.749650347006e-03
6.082684231944e-04
6.928661616429e-04
5.241882169244e-04
9.272069828963e-04
1.460078576040e-03
8.550838189183e-04
1.140629575979e-03
1.767262292660e-03
9.361532171550e-04
7.705641282239e-04
8.158827940912e-04
1.729058158438e-03
1.768465501827e-03
1.569260287031e-03
1.541662332460e-03
1.593817162012e-03
2.380697557658e-04
2.071762969816e-04
1.731969692914e-03
2.888166367422e-04
3.125317063593e-04
1.918480519111e-04
2.272247590374e-04
4.782300004449e-04
4.558420983222e-04
1.406205375402e-03
1.471947660594e-03
1.258468555775e-03
6.756455699743e-04
6.118228777417e-04
5.999785152644e-04
1.763332879430e-03
1.782155327437e-03
3.229051003071e-04
3.080038487017e-04
3.120055842571e-04
1.773121579991e-03
8.940152569882e-04
8.655333261250e-04
1.119054628362e-04
1.338703353672e-04
3.682328403301e-04
2.955959027322e-04
1.746933553450e-03
1.726063327136e-03
1.768407398685e-03
2.134244374673e-04
1.074298598098e-03
9.664642997208e-04
9.492299510675e-04
9.966146287180e-04
1.131133660612e-03
1.197207041540e-03
1.273881601165e-03
1.388365280888e-04
1.755446920844e-03
1.538755181698e-03
1.381979978377e-04
1.512780050402e-03
1.539430082365e-03
1.484631262535e-03
1.727902707660e-04
1.536921811867e-03
1.570804441185e-03
9.469185139626e-05
1.786953802974e-03
8.904267418801e-05
9.948069403629e-05
9.209053227594e-04
8.718106276257e-04
9.444216987106e-04
8.962590878265e-04
8.258420732484e-04
8.535345987329e-04
1.513070321311e-03
9.347934258309e-04
8.830415666225e-04
9.639454362569e-04
1.307559266552e-03
7.255587184245e-04
7.808708296315e-04
7.651492509359e-04
1.536253144150e-03
1.546819660694e-03
7.527939664122e-04
6.895524547133e-04
1.511596307145e-03
1.506778147677e-03
1.551553779213e-03
1.543971309060e-03
1.587308137900e-03
1.578985265776e-03
1.621477571669e-03
1.354455996413e-03
5.862085470145e-04
1.416038122107e-03
1.125316501066e-03
1.050735900071e-03
1.160913074951e-03
1.134717268812e-03
9.615575472747e-04
5.976616972387e-04
1.796819945016e-03
1.621819134276e-04
1.709490668249e-04
6.811494395430e-04
1.195674448345e-03
8.160009669497e-04
8.767825842186e-04
7.436121924805e-04
1.244923589869e-04
4.446404365293e-04
1.628487816118e-03
4.259222628084e-04
7.218991106293e-04
5.717542736438e-04
1.088487131159e-03
4.724282122063e-04
6.774264365307e-04
1.495629942714e-03
1.521400756122e-03
1.485026827209e-03
5.520309258761e-04
9.714054692717e-04
9.415979762784e-04
1.340334207321e-03
1.701215560103e-03
1.699510775813e-03
1.720912420866e-03
1.693151738951e-03
1.669195589612e-03
1.659707795558e-03
1.683292894439e-03
1.646665572493e-03
1.676602020338e-03
1.628952315157e-03
1.601732563561e-03
1.581603271481e-03
1.608111769530e-03
1.552659640984e-03
1.198979843186e-03
7.337116903297e-04
1.630886425949e-04
2.176837625357e-04
1.178328049749e-03
1.713115837108e-03
1.754998419908e-03
4.475558608745e-04
1.562078854789e-03
1.469714882332e-03
2.772537683573e-04
1.483232942276e-03
1.674037504932e-03
1.642805509213e-03
1.645622889794e-03
1.779568487810e-03
1.617830588594e-03
1.327815137075e-03
7.787338085979e-04
7.867843883127e-04
7.252706911371e-04
1.619967382064e-03
1.179390760168e-03
1.092820533501e-03
1.066533442085e-03
1.006061147492e-03
1.124280958525e-03
1.664514112673e-03
1.634934547456e-03
2.654493359665e-04
2.945933490455e-04
3.403252701603e-04
3.291272477821e-04
2.830085366478e-04
3.202915073562e-04
3.694393042507e-04
3.147851016804e-04
1.509162958999e-03
1.082591071116e-03
6.026612855438e-04
5.832938386528e-04
5.245087466013e-04
4.069207937154e-04
4.339279983098e-04
4.846837713717e-04
3.810962501325e-04
1.114998241893e-03
1.063657926421e-03
6.534550107344e-04
4.125754139703e-04
1.494377454321e-03
1.541839478956e-03
1.545395815948e-03
1.587201922264e-03
1.543317993773e-03
5.012162401267e-04
5.245809315869e-04
4.961143965060e-04
5.482324079880e-04
5.178969413097e-04
4.706391481383e-04
5.711015613092e-04
5.369378039971e-04
1.485463514698e-03
1.275545132103e-04
1.246390296408e-04
1.188088084311e-04
1.374260809864e-04
1.391091271060e-04
1.602669106471e-04
1.581743267382e-04
1.290300336186e-04
1.053717345374e-04
1.112678949789e-04
9.302514043902e-05
1.036784703330e-04
1.325831239269e-04
1.692213152813e-04
9.723592247348e-04
3.973115860156e-04
3.748037384897e-04
3.310641573691e-04
3.543202207319e-04
4.160222261392e-04
3.078004607139e-04
2.920980100126e-04
2.741043950825e-05
6.046399012959e-05
5.633642972719e-05
9.729379467474e-05
9.756698001705e-05
6.259730596692e-05
6.534998480383e-05
3.395780832784e-05
6.837579927106e-05
1.031341958763e-04
3.754477851191e-05
1.675431703719e-03
1.697637529358e-03
1.029910057464e-03
1.483136079431e-03
7.154170281897e-05
1.803504428364e-03
1.806639452218e-03
1.807880049431e-03
8.559749288569e-04
8.908238955052e-04
1.804286111956e-03
2.573819877063e-04
1.714836603281e-03
1.749064865773e-03
2.953206488982e-04
2.493288722013e-04
6.614755492959e-04
5.947005168490e-04
7.971926814041e-04
6.101913953157e-04
7.437032438903e-04
1.033762615466e-03
1.598823036460e-04
1.613782230871e-03
1.587970506854e-03
1.695318398603e-03
2.700881026191e-04
4.475047388348e-04
1.744613070251e-04
1.455778733919e-03
1.310693251596e-03
4.866334102114e-04
3.604788615079e-04
2.802061548432e-04
2.341751194713e-04
8.212396800597e-04
4.411216153605e-04
7.094138571283e-04
1.713710415752e-03
5.809562054833e-05
7.535571248714e-04
5.483004029194e-04
1.639443644951e-03
9.095021165576e-04
1.743921592013e-04
1.715588574452e-03
1.762563128370e-03
1.595375907733e-03
1.362378452933e-04
1.566114164289e-03
9.293655142110e-04
1.698010021916e-03
2.468382876815e-04
5.862354007947e-04
1.040885006386e-03
1.449941493584e-03
1.764149052407e-03
8.178280704863e-04
9.211709231335e-04
7.116361939341e-04
2.653953601206e-04
8.014412058899e-04
6.542481543687e-04
1.748672787612e-03
1.303219028184e-03
4.694479649445e-04
1.728849679422e-03
5.080537475357e-04
9.806927718322e-04
1.229552080890e-03
1.214804591262e-03
1.467746358634e-03
1.010410178538e-03
6.288898251342e-04
7.770265691730e-04
1.919674114150e-04
7.222968648953e-04
1.638605779381e-03
1.300435809837e-03
1.777550099471e-03
9.966149680356e-04
7.578753848737e-04
1.756075685697e-03
4.624746650892e-04
1.827172729724e-04
2.645815257129e-04
3.635077879257e-04
7.402246717422e-04
5.152757733136e-04
1.746835411182e-03
7.836743956967e-04
7.614948761488e-04
3.411242419741e-04
1.454266596418e-03
8.105945101713e-04
5.915058743093e-04
9.801196955097e-04
4.872455513159e-04
1.410351367669e-03
1.225347628691e-03
8.391689881031e-04
7.993663335260e-04
5.201084300711e-04
1.462805463951e-03
9.203484248627e-04
8.735310376171e-04
1.062204553154e-03
5.402252974257e-04
1.389212718224e-03
5.381570349127e-04
1.294315966335e-03
1.787933950859e-03
9.321517386619e-04
1.614786991245e-03
5.072959324356e-04
9.236378605795e-04
9.953540607974e-05
1.369318257084e-03
5.305164126341e-04
3.642351255695e-04
5.515674747169e-04
1.197203318748e-03
5.543310023403e-04
4.161127865788e-04
5.785541187798e-04
1.295727332771e-03
1.607847688026e-03
6.029297119188e-04
1.334742028699e-03
1.099108948363e-04
1.034591987554e-03
8.197394856665e-04
3.285986496920e-04
5.659638963177e-04
1.634218587210e-03
1.130090652169e-03
6.272437954641e-04
1.376861341162e-03
1.013453066932e-03
7.994192625504e-04
6.923708888118e-04
1.043741075535e-03
2.413061791067e-04
2.046881272808e-04
4.209003168713e-04
1.446403424084e-03
1.331735357468e-04
1.575252984497e-03
1.574864083398e-04
3.777310168563e-04
1.064989906935e-03
1.592646099003e-03
3.885647860449e-04
2.242623139292e-04
3.533981873493e-04
8.602526418008e-04
3.682502671053e-04
3.386909772833e-04
1.780935084127e-03
3.553787618706e-04
1.809694158409e-03
9.726933055284e-04
1.499182155540e-03
9.723597063159e-04
1.519615898091e-04
8.443924920507e-04
2.875303557514e-04
1.497992714039e-03
1.502014781179e-03
2.643960106166e-04
1.650459992730e-03
1.404245942603e-03
1.656370183588e-03
9.843780825870e-04
9.994075108237e-04
1.747638100778e-03
1.464474200286e-03
9.683348495622e-05
6.592694610689e-04
8.104897857877e-04
6.681093113021e-04
5.051222542999e-04
2.802760538720e-04
1.330681141702e-04
6.565190274582e-04
1.116576568916e-03
1.523283189212e-03
1.137269619144e-03
4.991244511164e-04
1.778314186078e-03
1.278851467029e-03
1.012222574137e-03
1.202478185384e-03
3.491053131793e-04
1.578094491958e-03
1.498363817759e-03
1.689839637392e-03
1.002791664997e-03
1.525332609393e-03
1.783739116504e-03
1.684326812923e-04
1.783328815323e-03
1.530329240513e-03
1.565332165093e-03
1.575170629192e-03
9.263316202901e-04
1.706096279981e-03
2.686319437850e-04
1.655580362120e-03
3.539667873492e-04
1.328044666005e-04
9.622267672338e-04
1.561736892654e-03
9.261360047241e-04
9.544090688732e-05
8.117918145339e-05
9.988292174016e-04
1.589729475500e-03
1.831963054377e-04
1.806577275505e-03
2.058533262095e-04
1.463680080748e-03
6.968896632779e-05
9.932665429438e-04
1.787237532258e-03
3.946103566323e-04
1.501584254109e-03
2.529373864134e-04
1.344721468269e-03
1.203371321337e-04
1.789720896451e-03
1.037045409025e-03
1.763320450239e-03
1.267769061186e-03
1.462596959667e-04
1.336094144546e-03
9.971918571193e-04
1.461521722921e-03
1.734965256139e-03
3.147574721702e-04
1.356096542256e-04
1.812876467591e-03
1.909185056214e-05
1.454314434348e-03
9.876562161704e-04
1.256685301362e-04
1.535198075192e-03
1.624893393779e-03
5.012305494039e-04
1.726716414443e-03
1.501501990254e-04
1.474856786935e-04
1.616656487114e-03
1.254616744264e-03
1.780214863074e-03
1.589380323675e-03
2.464359097216e-04
1.587809513932e-03
4.301865576925e-04
1.443022371004e-03
1.049333359056e-03
1.967285066010e-04
5.473387613145e-04
7.152058406379e-05
9.580875630948e-04
4.519620367092e-04
1.304580461049e-03
1.291845073975e-03
1.360046152073e-03
1.342702297433e-03
1.418366818810e-03
1.391125881476e-03


CELL_DATA 2039

SCALARS element_number int
LOOKUP_TABLE default
407
408
409
410
411
412
413
414
415
416
417
418
419
420
421
422
423
424
425
426
427
428
429
430
431
432
433
434
435
436
437
438
439
440
441
442
443
444
445
446
447
448
449
450
451
452
453
454
455
456
457
458
459
460
461
462
463
464
465
466
467
468
469
470
471
472
473
474
475
476
477
478
479
480
481
482
483
484
485
486
487
488
489
490
491
492
493
494
495
496
497
498
499
500
501
502
503
504
505
506
507
508
509
510
511
512
513
514
515
516
517
518
519
520
521
522
523
524
525
526
527
528
529
530
531
532
533
534
535
536
537
538
539
540
541
542
543
544
545
546
547
548
549
550
551
552
553
554
555
556
557
558
559
560
561
562
563
564
565
566
567
568
569
570
571
572
573
574
575
576
577
578
579
580
581
582
583
584
585
586
587
588
589
590
591
592
593
594
595
596
597
598
599
600
601
602
603
604
605
606
607
608
609
610
611
612
613
614
615
616
617
618
619
620
621
622
623
624
625
626
627
628
629
630
631
632
633
634
635
636
637
638
639
640
641
642
643
644
645
646
647
648
649
650
651
652
653
654
655
656
657
658
659
660
661
662
663
664
665
666
667
668
669
670
671
672
673
674
675
676
677
678
679
680
681
682
683
684
685
686
687
688
689
690
691
692
693
694
695
696
697
698
699
700
701
702
703
704
705
706
707
708
709
710
711
712
713
714
715
716
717
718
719
720
721
722
723
724
725
726
727
728
729
730
731
732
733
734
735
736
737
738
739
740
741
742
743
744
745
746
747
748
749
750
751
752
753
754
755
756
757
758
759
760
761
762
763
764
765
766
767
768
769
770
771
772
773
774
775
776
777
778
779
780
781
782
783
784
785
786
787
788
789
790
791
792
793
794
795
796
797
798
799
800
801
802
803
804
805
806
807
808
809
810
811
812
813
814
815
816
817
818
819
820
821
822
823
824
825
826
827
828
829
830
831
832
833
834
835
836
837
838
839
840
841
842
843
844
845
846
847
848
849
850
851
852
853
854
855
856
857
858
859
860
861
862
863
864
865
866
867
868
869
870
871
872
873
874
875
876
877
878
879
880
881
882
883
884
885
886
887
888
889
890
891
892
893
894
895
896
897
898
899
900
901
902
903
904
905
906
907
908
909
910
911
912
913
914
915
916
917
918
919
920
921
922
923
924
925
926
927
928
929
930
931
932
933
934
935
936
937
938
939
940
941
942
943
944
945
946
947
948
949
950
951
952
953
954
955
956
957
958
959
960
961
962
963
964
965
966
967
968
969
970
971
972
973
974
975
976
977
978
979
980
981
982
983
984
985
986
987
988
989
990
991
992
993
994
995
996
997
998
999
1000
1001
1002
1003
1004
1005
1006
1007
1008
1009
1010
1011
1012
1013
1014
1015
1016
1017
1018
1019
1020
1021
1022
1023
1024
1025
1026
1027
1028
1029
1030
1031
1032
1033
1034
1035
1036
1037
1038
1039
1040
1041
1042
1043
1044
1045
1046
1047
1048
1049
1050
1051
1052
1053
1054
1055
1056
1057
1058
1059
1060
1061
1062
1063
1064
1065
1066
1067
1068
1069
1070
1071
1072
1073
1074
1075
1076
1077
1078
1079
1080
1081
1082
1083
1084
1085
1086
1087
1088
1089
1090
1091
1092
1093
1094
1095
1096
1097
1098
1099
1100
1101
1102
1103
1104
1105
1106
1107
1108
1109
1110
1111
1112
1113
1114
1115
1116
1117
1118
1119
1120
1121
1122
1123
1124
1125
1126
1127
1128
1129
1130
1131
1132
1133
1134
1135
1136
1137
1138
1139
1140
1141
1142
1143
1144
1145
1146
1147
1148
1149
1150
1151
1152
1153
1154
1155
1156
1157
1158
1159
1160
1161
1162
1163
1164
1165
1166
1167
1168
1169
1170
1171
1172
1173
1174
1175
1176
1177
1178
1179
1180
1181
1182
1183
1184
1185
1186
1187
1188
1189
1190
1191
1192
1193
1194
1195
1196
1197
1198
1199
1200
1201
1202
1203
1204
1205
1206
1207
1208
1209
1210
1211
1212
1213
1214
1215
1216
1217
1218
1219
1220
1221
1222
1223
1224
1225
1226
1227
1228
1229
1230
1231
1232
1233
1234
1235
1236
1237
1238
1239
1240
1241
1242
1243
1244
1245
1246
1247
1248
1249
1250
1251
1252
1253
1254
1255
1256
1257
1258
1259
1260
1261
1262
1263
1264
1265
1266
1267
1268
1269
1270
1271
1272
1273
1274
1275
1276
1277
1278
1279
1280
1281
1282
1283
1284
1285
1286
1287
1288
1289
1290
1291
1292
1293
1294
1295
1296
1297
1298
1299
1300
1301
1302
1303
1304
1305
1306
1307
1308
1309
1310
1311
1312
1313
1314
1315
1316
1317
1318
1319
1320
1321
1322
1323
1324
1325
1326
1327
1328
1329
1330
1331
1332
1333
1334
1335
1336
1337
1338
1339
1340
1341
1342
1343
1344
1345
1346
1347
1348
1349
1350
1351
1352
1353
1354
1355
1356
1357
1358
1359
1360
1361
1362
1363
1364
1365
1366
1367
1368
1369
1370
1371
1372
1373
1374
1375
1376
1377
1378
1379
1380
1381
1382
1383
1384
1385
1386
1387
1388
1389
1390
1391
1392
1393
1394
1395
1396
1397
1398
1399
1400
1401
1402
1403
1404
1405
1406
1407
1408
1409
1410
1411
1412
1413
1414
1415
1416
1417
1418
1419
1420
1421
1422
1423
1424
1425
1426
1427
1428
1429
1430
1431
1432
1433
1434
1435
1436
1437
1438
1439
1440
1441
1442
1443
1444
1445
1446
1447
1448
1449
1450
1451
1452
1453
1454
1455
1456
1457
1458
1459
1460
1461
1462
1463
1464
1465
1466
1467
1468
1469
1470
1471
1472
1473
1474
1475
1476
1477
1478
1479
1480
1481
1482
1483
1484
1485
1486
1487
1488
1489
1490
1491
1492
1493
1494
1495
1496
1497
1498
1499
1500
1501
1502
1503
1504
1505
1506
1507
1508
1509
1510
1511
1512
1513
1514
1515
1516
1517
1518
1519
1520
1521
1522
1523
1524
1525
1526
1527
1528
1529
1530
1531
1532
1533
1534
1535
1536
1537
1538
1539
1540
1541
1542
1543
1544
1545
1546
1547
1548
1549
1550
1551
1552
1553
1554
1555
1556
1557
1558
1559
1560
1561
1562
1563
1564
1565
1566
1567
1568
1569
1570
1571
1572
1573
1574
1575
1576
1577
1578
1579
1580
1581
1582
1583
1584
1585
1586
1587
1588
1589
1590
1591
1592
1593
1594
1595
1596
1597
1598
1599
1600
1601
1602
1603
1604
1605
1606
1607
1608
1609
1610
1611
1612
1613
1614
1615
1616
1617
1618
1619
1620
1621
1622
1623
1624
1625
1626
1627
1628
1629
1630
1631
1632
1633
1634
1635
1636
1637
1638
1639
1640
1641
1642
1643
1644
1645
1646
1647
1648
1649
1650
1651
1652
1653
1654
1655
1656
1657
1658
1659
1660
1661
1662
1663
1664
1665
1666
1667
1668
1669
1670
1671
1672
1673
1674
1675
1676
1677
1678
1679
1680
1681
1682
1683
1684
1685
1686
1687
1688
1689
1690
1691
1692
1693
1694
1695
1696
1697
1698
1699
1700
1701
1702
1703
1704
1705
1706
1707
1708
1709
1710
1711
1712
1713
1714
1715
1716
1717
1718
1719
1720
1721
1722
1723
1724
1725
1726
1727
1728
1729
1730
1731
1732
1733
1734
1735
1736
1737
1738
1739
1740
1741
1742
1743
1744
1745
1746
1747
1748
1749
1750
1751
1752
1753
1754
1755
1756
1757
1758
1759
1760
1761
1762
1763
1764
1765
1766
1767
1768
1769
1770
1771
1772
1773
1774
1775
1776
1777
1778
1779
1780
1781
1782
1783
1784
1785
1786
1787
1788
1789
1790
1791
1792
1793
1794
1795
1796
1797
1798
1799
1800
1801
1802
1803
1804
1805
1806
1807
1808
1809
1810
1811
1812
1813
1814
1815
1816
1817
1818
1819
1820
1821
1822
1823
1824
1825
1826
1827
1828
1829
1830
1831
1832
1833
1834
1835
1836
1837
1838
1839
1840
1841
1842
1843
1844
1845
1846
1847
1848
1849
1850
1851
1852
1853
1854
1855
1856
1857
1858
1859
1860
1861
1862
1863
1864
1865
1866
1867
1868
1869
1870
1871
1872
1873
1874
1875
1876
1877
1878
1879
1880
1881
1882
1883
1884
1885
1886
1887
1888
1889
1890
1891
1892
1893
1894
1895
1896
1897
1898
1899
1900
1901
1902
1903
1904
1905
1906
1907
1908
1909
1910
1911
1912
1913
1914
1915
1916
1917
1918
1919
1920
1921
1922
1923
1924
1925
1926
1927
1928
1929
1930
1931
1932
1933
1934
1935
1936
1937
1938
1939
1940
1941
1942
1943
1944
1945
1946
1947
1948
1949
1950
1951
1952
1953
1954
1955
1956
1957
1958
1959
1960
1961
1962
1963
1964
1965
1966
1967
1968
1969
1970
1971
1972
1973
1974
1975
1976
1977
1978
1979
1980
1981
1982
1983
1984
1985
1986
1987
1988
1989
1990
1991
1992
1993
1994
1995
1996
1997
1998
1999
2000
2001
2002
2003
2004
2005
2006
2007
2008
2009
2010
2011
2012
2013
2014
2015
2016
2017
2018
2019
2020
2021
2022
2023
2024
2025
2026
2027
2028
2029
2030
2031
2032
2033
2034
2035
2036
2037
2038
2039
2040
2041
2042
2043
2044
2045
2046
2047
2048
2049
2050
2051
2052
2053
2054
2055
2056
2057
2058
2059
2060
2061
2062
2063
2064
2065
2066
2067
2068
2069
2070
2071
2072
2073
2074
2075
2076
2077
2078
2079
2080
2081
2082
2083
2084
2085
2086
2087
2088
2089
2090
2091
2092
2093
2094
2095
2096
2097
2098
2099
2100
2101
2102
2103
2104
2105
2106
2107
2108
2109
2110
2111
2112
2113
2114
2115
2116
2117
2118
2119
2120
2121
2122
2123
2124
2125
2126
2127
2128
2129
2130
2131
2132
2133
2134
2135
2136
2137
2138
2139
2140
2141
2142
2143
2144
2145
2146
2147
2148
2149
2150
2151
2152
2153
2154
2155
2156
2157
2158
2159
2160
2161
2162
2163
2164
2165
2166
2167
2168
2169
2170
2171
2172
2173
2174
2175
2176
2177
2178
2179
2180
2181
2182
2183
2184
2185
2186
2187
2188
2189
2190
2191
2192
2193
2194
2195
2196
2197
2198
2199
2200
2201
2202
2203
2204
2205
2206
2207
2208
2209
2210
2211
2212
2213
2214
2215
2216
2217
2218
2219
2220
2221
2222
2223
2224
2225
2226
2227
2228
2229
2230
2231
2232
2233
2234
2235
2236
2237
2238
2239
2240
2241
2242
2243
2244
2245
2246
2247
2248
2249
2250
2251
2252
2253
2254
2255
2256
2257
2258
2259
2260
2261
2262
2263
2264
2265
2266
2267
2268
2269
2270
2271
2272
2273
2274
2275
2276
2277
2278
2279
2280
2281
2282
2283
2284
2285
2286
2287
2288
2289
2290
2291
2292
2293
2294
2295
2296
2297
2298
2299
2300
2301
2302
2303
2304
2305
2306
2307
2308
2309
2310
2311
2312
2313
2314
2315
2316
2317
2318
2319
2320
2321
2322
2323
2324
2325
2711
2712
2713
2714
2715
2716
2717
2718
2719
2720
2721
2722
2723
2724
2725
2726
2727
2728
2729
2730
2731
2732
2733
2734
2735
2736
2737
2738
2739
2740
2741
2742
2743
2744
2745
2746
2747
2748
2749
2750
2751
2752
2753
2754
2755
2756
2757
2758
2759
2760
2761
2762
2763
2764
2765
2766
2767
2768
2769
2770
2771
2772
2773
2774
2775
2776
2777
2778
2779
2780
2781
2782
2783
2784
2785
2786
2787
2788
2789
2790
2791
2792
2793
2794
2795
2796
2797
2798
2799
2800
2801
2802
2803
2804
2805
2806
2807
2808
2809
2810
2811
2812
2813
2814
2815
2816
2817
2818
2819
2820
2821
2822
2823
2824
2825
2826
2827
2828
2829
2830

SCALARS element_group int
LOOKUP_TABLE default
0
0
0
0
0
0
0
0
0
0
0
0
0
0
0
0
0
0
0
0
0
0
0
0
0
0
0
0
0
0
0
0
0
0
0
0
0
0
0
0
0
0
0
0
0
0
0
0
0
0
0
0
0
0
0
0
0
0
0
0
0
0
0
0
0
0
0
0
0
0
0
0
0
0
0
0
0
0
0
0
0
0
0
0
0
0
0
0
0
0
0
0
0
0
0
0
0
0
0
0
0
0
0
0
0
0
0
0
0
0
0
0
0
0
0
0
0
0
0
0
0
0
0
0
0
0
0
0
0
0
0
0
0
0
0
0
0
0
0
0
0
0
0
0
0
0
0
0
0
0
0
0
0
0
0
0
0
0
0
0
0
0
0
0
0
0
0
0
0
0
0
0
0
0
0
0
0
0
0
0
0
0
0
0
0
0
0
0
0
0
0
0
0
0
0
0
0
0
0
0
0
0
0
0
0
0
0
0
0
0
0
0
0
0
0
0
0
0
0
0
0
0
0
0
0
0
0
0
0
0
0
0
0
0
0
0
0
0
0
0
0
0
0
0
0
0
0
0
0
0
0
0
0
0
0
0
0
0
0
0
0
0
0
0
0
0
0
0
0
0
0
0
0
0
0
0
0
0
0
0
0
0
0
0
0
0
0
0
0
0
0
0
0
0
0
0
0
0
0
0
0
0
0
0
0
0
0
0
0
0
0
0
0
0
0
0
0
0
0
0
0
0
0
0
0
0
0
0
0
0
0
0
0
0
0
0
0
0
0
0
0
0
0
0
0
0
0
0
0
0
0
0
0
0
0
0
0
0
0
0
0
0
0
0
0
0
0
0
0
0
0
0
0
0
0
0
0
0
0
0
0
0
0
0
0
0
0
0
0
0
0
0
0
0
0
0
0
0
0
0
0
0
0
0
0
0
0
0
0
0
0
0
0
0
0
0
0
0
0
0
0
0
0
0
0
0
0
0
0
0
0
0
0
0
0
0
0
0
0
0
0
0
0
0
0
0
0
0
0
0
0
0
0
0
0
0
0
0
0
0
0
0
0
0
0
0
0
0
0
0
0
0
0
0
0
0
0
0
0
0
0
0
0
0
0
0
0
0
0
0
0
0
0
0
0
0
0
0
0
0
0
0
0
0
0
0
0
0
0
0
0
0
0
0
0
0
0
0
0
0
0
0
0
0
0
0
0
0
0
0
0
0
0
0
0
0
0
0
0
0
0
0
0
0
0
0
0
0
0
0
0
0
0
0
0
0
0
0
0
0
0
0
0
0
0
0
0
0
0
0
0
0
0
0
0
0
0
0
0
0
0
0
0
0
0
0
0
0
0
0
0
0
0
0
0
0
0
0
0
0
0
0
0
0
0
0
0
0
0
0
0
0
0
0
0
0
0
0
0
0
0
0
0
0
0
0
0
0
0
0
0
0
0
0
0
0
0
0
0
0
0
0
0
0
0
0
0
0
0
0
0
0
0
0
0
0
0
0
0
0
0
0
0
0
0
0
0
0
0
0
0
0
0
0
0
0
0
0
0
0
0
0
0
0
0
0
0
0
0
0
0
0
0
0
0
0
0
0
0
0
0
0
0
0
0
0
0
0
0
0
0
0
0
0
0
0
0
0
0
0
0
0
0
0
0
0
0
0
0
0
0
0
0
0
0
0
0
0
0
0
0
0
0
0
0
0
0
0
0
0
0
0
0
0
0
0
0
0
0
0
0
0
0
0
0
0
0
0
0
0
0
0
0
0
0
0
0
0
0
0
0
0
0
0
0
0
0
0
0
0
0
0
0
0
0
0
0
0
0
0
0
0
0
0
0
0
0
0
0
0
0
0
0
0
0
0
0
0
0
0
0
0
0
0
0
0
0
0
0
0
0
0
0
0
0
0
0
0
0
0
0
0
0
0
0
0
0
0
0
0
0
0
0
0
0
0
0
0
0
0
0
0
0
0
0
0
0
0
0
0
0
0
0
0
0
0
0
0
0
0
0
0
0
0
0
0
0
0
0
0
0
0
0
0
0
0
0
0
0
0
0
0
0
0
0
0
0
0
0
0
0
0
0
0
0
0
0
0
0
0
0
0
0
0
0
0
0
0
0
0
0
0
0
0
0
0
0
0
0
0
0
0
0
0
0
0
0
0
0
0
0
0
0
0
0
0
0
0
0
0
0
0
0
0
0
0
0
0
0
0
0
0
0
0
0
0
0
0
0
0
0
0
0
0
0
0
0
0
0
0
0
0
0
0
0
0
0
0
0
0
0
0
0
0
0
0
0
0
0
0
0
0
0
0
0
0
0
0
0
0
0
0
0
0
0
0
0
0
0
0
0
0
0
0
0
0
0
0
0
0
0
0
0
0
0
0
0
0
0
0
0
0
0
0
0
0
0
0
0
0
0
0
0
0
0
0
0
0
0
0
0
0
0
0
0
0
0
0
0
0
0
0
0
0
0
0
0
0
0
0
0
0
0
0
0
0
0
0
0
0
0
0
0
0
0
0
0
0
0
0
0
0
0
0
0
0
0
0
0
0
0
0
0
0
0
0
0
0
0
0
0
0
0
0
0
0
0
0
0
0
0
0
0
0
0
0
0
0
0
0
0
0
0
0
0
0
0
0
0
0
0
0
0
0
0
0
0
0
0
0
0
0
0
0
0
0
0
0
0
0
0
0
0
0
0
0
0
0
0
0
0
0
0
0
0
0
0
0
0
0
0
0
0
0
0
0
0
0
0
0
0
0
0
0
0
0
0
0
0
0
0
0
0
0
0
0
0
0
0
0
0
0
0
0
0
0
0
0
0
0
0
0
0
0
0
0
0
0
0
0
0
0
0
0
0
0
0
0
0
0
0
0
0
0
0
0
0
0
0
0
0
0
0
0
0
0
0
0
0
0
0
0
0
0
0
0
0
0
0
0
0
0
0
0
0
0
0
0
0
0
0
0
0
0
0
0
0
0
0
0
0
0
0
0
0
0
0
0
0
0
0
0
0
0
0
0
0
0
0
0
0
0
0
0
0
0
0
0
0
0
0
0
0
0
0
0
0
0
0
0
0
0
0
0
0
0
0
0
0
0
0
0
0
0
0
0
0
0
0
0
0
0
0
0
0
0
0
0
0
0
0
0
0
0
0
0
0
0
0
0
0
0
0
0
0
0
0
0
0
0
0
0
0
0
0
0
0
0
0
0
0
0
0
0
0
0
0
0
0
0
0
0
0
0
0
0
0
0
0
0
0
0
0
0
0
0
0
0
0
0
0
0
0
0
0
0
0
0
0
0
0
0
0
0
0
0
0
0
0
0
0
0
0
0
0
0
0
0
0
0
0
0
0
0
0
0
0
0
0
0
0
0
0
0
0
0
0
0
0
0
0
0
0
0
0
0
0
0
0
0
0
0
0
0
0
0
0
0
0
0
0
0
0
0
0
0
0
0
0
0
0
0
0
0
0
0
0
0
0
0
0
0
0
0
0
0
0
0
0
0
0
0
0
0
0
0
0
0
0
0
0
0
0
0
0
0
0
0
0
0
0
0
0
0
0
0
0
0
0
0
0
0
0
0
0
0
0
0
0
0
0
0
0
0
0
0
0
0
0
0
0
0
0
0
0
0
0
0
0
0
0
0
0
0
0
0
0
0
0
0
0
0
0
0
0
0
0
0
0
0
0
0
0
0
0
0
0
0
0
0
0
0
0
0
0
0
0
0
0
0
0
0
0
0
0
0
0
0
0
0
0
0
0
0
0
0
0
0
0
0
0
0
0
0
0
0
0
0
0
0
0
0
0
0
0
0
0
0
0
0
0
0
0
0
0
0
0
0
0
0
0
0
0
0
0
0
0
0
0
0
0
0
0
0
0
0
0
0
0
0
0
0
0
0
0
0
0
0
0
0
0
0
0
0
0
0
0
0
0
0
0
0
0
0
0
0
0
0
0
0
0
0
0
0
0
0
0
0
0
0
0
0
0
0
0
0
0
0
0
0
0
0
0
0
0
0
0
0
0
0
0
0
0
0
0
0
0
0
0
0
0
0
0
0
0
0
0
0
0
0
0
0
0
0
0
0
0
0
0
0
0
0
0
0
0
0
0
0
0
0
0
0
0
0
0
0
0
0
0
0
0
0
0
0
0
0
0
0
0
0
0
0
0
0
0
0
0
0
0
0
0
0
0
0
0
0
0
0
0
0
0
0
0
0
0
0
0
0
0
0
0
0
0
0
0
0
0
0
0
0
0
0
0
0
0
0
0
0
0
0
0
0
0
0
0
0
0
0
0
0
0
0
0
0
0
0
0
0
0
0
0
0
0
0
0
0
0
0
0
0
0
0
0
0
0
0
0
0
0
0
0
0
0
0
0
0
0
0
0
0
0
0
0
0
0
0
0
0
0
0
0
0
0
0
0
0
0
0
0
0
0
0
0
0
0
0
0
0
0
0
0
0
0
0
0
0
0
0
0
0
0
0
0
0
0
0
0
0
0
0
0
0
0
0
0
0
0
0
0
0
0
0
0
0
0
0
0
0
0
0
0
0
0
0
0
0
0
0
0
0
0
0
0
0
0
0
0
0
0
0
0
0
0
0
0
0
0
0
0
0
0
0
0
0
0
0
0
0
0


VECTORS element_materi_velocity float
5.570262406835e-05 3.697556678919e-04 0.0 
6.913158087670e-05 3.214186132774e-04 0.0 
1.202225594529e-04 1.138664117596e-04 0.0 
1.628487000367e-05 2.231463579973e-04 0.0 
1.439224832455e-04 1.256761168068e-03 0.0 
-5.695080544802e-06 1.907080404097e-05 0.0 
1.091126637291e-04 1.248316367619e-03 0.0 
4.452624311709e-05 2.747208160965e-04 0.0 
1.204385928708e-04 1.255499926276e-03 0.0 
2.401357923521e-05 2.282644127013e-04 0.0 
8.143191700365e-06 -1.819970441112e-05 0.0 
1.597310152285e-05 2.731376671932e-04 0.0 
3.597007071783e-06 -9.845515502899e-07 0.0 
2.254435784992e-04 1.094047963593e-03 0.0 
2.960849501198e-06 -4.668257837672e-07 0.0 
1.322556746968e-05 1.574934229904e-04 0.0 
1.825719145885e-04 1.296327319508e-03 0.0 
-1.433802394806e-06 9.284422681300e-06 0.0 
5.590956777305e-06 -4.910016937982e-05 0.0 
4.398609353742e-06 -4.821136384926e-05 0.0 
2.866773822908e-05 2.337633297122e-04 0.0 
1.337425602733e-04 5.389788364476e-04 0.0 
1.744535368907e-04 5.571966149073e-04 0.0 
6.024613589980e-05 4.963433852354e-06 0.0 
2.714938025446e-04 9.170244795324e-04 0.0 
8.977445713882e-06 -1.599088797329e-05 0.0 
2.687473451607e-04 1.320822350402e-03 0.0 
1.135410353806e-04 4.355436442531e-05 0.0 
2.879828500820e-04 9.030453949801e-04 0.0 
4.894909639566e-05 4.565193017937e-06 0.0 
2.220013708544e-05 -3.942035654349e-05 0.0 
1.631492037031e-05 -5.640715025286e-05 0.0 
1.400099543063e-04 1.433407120576e-04 0.0 
2.538583010636e-06 -6.641277497683e-06 0.0 
2.117073541567e-05 2.164028594893e-07 0.0 
5.681895612288e-06 -6.081545279016e-08 0.0 
5.167253981841e-06 -1.044182664115e-07 0.0 
6.900412584280e-05 1.425398290489e-05 0.0 
8.978203580534e-05 1.392934169446e-03 0.0 
8.185293187273e-05 1.394810986448e-03 0.0 
2.820622895846e-04 8.576895867353e-04 0.0 
2.148499070795e-05 1.285555619573e-06 0.0 
-4.067678065831e-06 1.893539299503e-04 0.0 
2.887099370355e-04 1.252929158757e-03 0.0 
8.572393345024e-06 3.166082322993e-04 0.0 
2.016327074059e-06 1.623227059542e-04 0.0 
1.536050888359e-05 -3.841759995346e-05 0.0 
9.785880032941e-06 2.687069049309e-04 0.0 
7.089383974347e-06 -4.097072939163e-05 0.0 
2.168257990530e-04 1.167078121622e-03 0.0 
2.300431147739e-04 7.028820783987e-04 0.0 
5.758522269749e-06 -4.699227065949e-05 0.0 
3.997157474752e-05 -3.839331156266e-05 0.0 
2.391986395348e-04 8.388032398433e-04 0.0 
9.556959408389e-05 1.356752176068e-04 0.0 
1.041974085723e-05 -4.324052361874e-05 0.0 
4.646393972542e-06 -4.599157845937e-05 0.0 
5.151829109074e-06 -6.752992137562e-06 0.0 
1.171719174882e-05 -5.195818546093e-05 0.0 
1.594229202611e-05 1.587147276175e-04 0.0 
-4.922454139083e-06 -2.723400540586e-05 0.0 
1.429163777338e-04 4.267810273675e-05 0.0 
1.879243695379e-04 2.305135726813e-04 0.0 
3.393218462447e-05 -3.963744655866e-05 0.0 
5.895853940725e-06 -9.421586214960e-07 0.0 
1.840584724568e-04 6.777840026358e-04 0.0 
-4.797895634066e-06 -2.293763800193e-05 0.0 
1.442409251520e-04 1.305808096032e-04 0.0 
2.724679394774e-05 -5.457349498848e-05 0.0 
1.156994300060e-04 6.664502161980e-05 0.0 
1.351464300882e-05 -1.384023466385e-05 0.0 
1.663778071852e-05 4.309375055558e-05 0.0 
1.483213367123e-04 5.746830470606e-05 0.0 
8.619885912389e-07 -5.223525952138e-05 0.0 
9.383577709861e-06 -4.188616466615e-05 0.0 
5.750696494417e-05 2.019820257265e-04 0.0 
1.177508486657e-04 1.620680331231e-04 0.0 
-1.217057174809e-05 1.013854613783e-04 0.0 
1.324413902419e-05 -5.189827709689e-05 0.0 
-1.728370317161e-05 1.202053768248e-04 0.0 
2.814976220919e-05 -5.368633497180e-05 0.0 
1.742252261226e-04 1.259172668468e-03 0.0 
1.232355290639e-04 4.454132137713e-04 0.0 
8.048566653235e-05 4.336914417361e-04 0.0 
1.380506451495e-04 1.171156693352e-03 0.0 
1.265246347254e-04 1.167462179874e-03 0.0 
7.887266762926e-06 -1.195452535956e-05 0.0 
1.371720771621e-06 -8.139620677363e-06 0.0 
3.237879004955e-04 3.528417430568e-04 0.0 
1.548584736242e-04 1.249807582271e-03 0.0 
1.702850125538e-05 -5.624023039997e-05 0.0 
2.968596737091e-04 1.143588255354e-03 0.0 
2.525581627410e-05 6.349118808479e-04 0.0 
3.045975867543e-05 6.867499080419e-04 0.0 
3.320921229493e-05 7.942329835750e-05 0.0 
5.052934228772e-05 1.128949678411e-05 0.0 
1.947980189163e-04 1.256726302182e-03 0.0 
2.446454262400e-05 1.042493856609e-06 0.0 
1.798514977222e-05 1.009575941822e-03 0.0 
1.627124631165e-04 2.541297080022e-04 0.0 
1.378074152584e-04 1.330947187311e-03 0.0 
3.814068763751e-06 -4.682506587489e-07 0.0 
2.152801897594e-04 4.892285881798e-05 0.0 
1.369279378956e-04 3.811431467154e-05 0.0 
1.108871531237e-04 1.142840453545e-04 0.0 
1.324605968808e-05 -4.195586002383e-05 0.0 
4.218347705399e-06 -2.771954026948e-06 0.0 
2.580837669111e-05 5.467562921299e-04 0.0 
1.714554248564e-06 -3.664034771600e-05 0.0 
7.154961689304e-06 -3.419238761666e-07 0.0 
3.488313917094e-04 3.875797728478e-04 0.0 
1.528430775585e-06 -5.279171648895e-05 0.0 
2.086351387552e-04 9.519547037638e-05 0.0 
3.416553409729e-04 1.133593643137e-03 0.0 
1.684135467407e-05 -3.752470367832e-05 0.0 
1.268131751937e-04 2.356170218072e-04 0.0 
1.788359804130e-04 1.937017441702e-04 0.0 
1.491319255120e-05 4.244242263071e-07 0.0 
2.267758369600e-05 1.071948502364e-03 0.0 
1.465204013968e-04 1.789809019372e-04 0.0 
2.434334265086e-05 -5.562431537536e-05 0.0 
3.041690651201e-04 1.163482316572e-03 0.0 
2.045693069884e-05 5.010283923631e-04 0.0 
1.416632684725e-04 1.496213105886e-04 0.0 
-1.962424198058e-05 5.907056870733e-05 0.0 
3.347663275206e-04 1.067719745105e-03 0.0 
1.459954134241e-05 -3.834969557517e-05 0.0 
3.080350080535e-04 1.091414059863e-03 0.0 
4.407164285622e-05 1.423437125674e-04 0.0 
-9.314491634615e-06 5.119536615537e-05 0.0 
1.263523135359e-05 -1.585127272343e-05 0.0 
1.286042512760e-05 2.209356750311e-04 0.0 
3.333012339895e-04 4.565001927057e-04 0.0 
3.159081160006e-04 9.883966288909e-04 0.0 
2.306425539216e-05 4.543959565868e-07 0.0 
2.460935687264e-06 -9.712065499006e-07 0.0 
1.114504243588e-05 -1.195797576140e-05 0.0 
3.613450002856e-04 4.778360111047e-04 0.0 
3.349221349961e-05 3.224679772252e-06 0.0 
3.295243118932e-04 5.872401808554e-04 0.0 
3.323682581826e-05 1.615444540952e-04 0.0 
1.373925238489e-04 8.489266573788e-05 0.0 
2.396487602652e-04 1.079701992897e-03 0.0 
5.802011509693e-05 8.336896735872e-04 0.0 
3.153827614841e-04 5.036512157323e-04 0.0 
2.813798720226e-04 9.890520315608e-04 0.0 
3.704153110285e-04 4.300537239907e-04 0.0 
1.554109275612e-04 1.100843635433e-04 0.0 
1.033440318485e-04 1.321300789723e-03 0.0 
1.978695917463e-04 7.581131826392e-05 0.0 
1.693530051689e-05 -5.642344374590e-05 0.0 
2.539577779716e-05 1.208122833290e-03 0.0 
4.834214044790e-06 -5.013990941460e-05 0.0 
3.421374120775e-04 1.114121087883e-03 0.0 
2.661164597686e-05 2.522136367443e-06 0.0 
1.136915292181e-04 1.383832172259e-04 0.0 
5.963098311565e-06 -1.006478293917e-05 0.0 
1.404820798878e-05 2.051625393291e-04 0.0 
2.260889498225e-04 5.749686361679e-05 0.0 
5.912359431126e-05 1.272253443621e-03 0.0 
1.762880604584e-04 6.771775090450e-05 0.0 
5.784208457259e-06 -5.301875872484e-06 0.0 
2.553415191330e-05 -5.548133051782e-05 0.0 
5.923765740787e-06 -2.773657223968e-06 0.0 
3.950229176418e-04 8.989066671322e-04 0.0 
8.166559652302e-06 -6.464981152873e-07 0.0 
2.505848064165e-05 1.283184053052e-03 0.0 
1.303074180183e-04 1.009063659499e-04 0.0 
3.278745678603e-04 1.177151682333e-03 0.0 
5.215621068003e-06 -1.872440542500e-05 0.0 
5.471216686379e-06 2.379010364412e-04 0.0 
1.685027594937e-04 5.191057382673e-05 0.0 
5.113487191820e-05 7.548416418487e-04 0.0 
6.715244265854e-05 1.323145163733e-03 0.0 
1.711044956317e-04 9.728521847740e-05 0.0 
3.222461619452e-04 1.149898967216e-03 0.0 
2.794370374075e-04 1.946490186739e-04 0.0 
1.735704086670e-05 -3.513506727736e-05 0.0 
8.885288409330e-05 3.208334119963e-05 0.0 
1.358719758686e-04 7.487727828620e-05 0.0 
1.019132705997e-04 2.573214203810e-04 0.0 
1.540653179253e-05 -3.376944991040e-05 0.0 
9.524008610456e-05 8.568181371977e-06 0.0 
3.058664243396e-04 6.505893325606e-04 0.0 
6.850818996040e-05 2.386212171682e-04 0.0 
3.647791675933e-04 1.042343343052e-03 0.0 
1.959476845349e-04 1.069842576528e-04 0.0 
2.377169085551e-05 1.716511183106e-04 0.0 
3.266194858777e-04 4.529164141426e-04 0.0 
4.017403294638e-06 -3.932709558586e-06 0.0 
-6.447237956299e-06 1.289933356835e-04 0.0 
1.430957786219e-04 3.235471878080e-05 0.0 
3.171109829421e-04 3.713847016938e-04 0.0 
-3.898930129565e-05 2.785760684974e-05 0.0 
3.153617187690e-04 7.580837140053e-04 0.0 
9.622672547395e-05 8.417306953707e-07 0.0 
1.418366861721e-05 -5.429971383143e-05 0.0 
1.343211974178e-04 1.664453821137e-04 0.0 
3.104808245207e-04 7.232625433690e-04 0.0 
6.449532151261e-05 -4.153099050110e-05 0.0 
1.024254747363e-04 2.492994042247e-06 0.0 
3.043241243526e-04 1.067565303242e-03 0.0 
2.635480094805e-04 9.918091266417e-04 0.0 
4.535405589223e-05 3.719509123095e-06 0.0 
4.244466877308e-05 -4.875841559282e-05 0.0 
3.613885545354e-04 3.349617183862e-04 0.0 
4.146817918598e-04 7.562807747937e-04 0.0 
2.934675442704e-04 6.631630244858e-04 0.0 
3.961723156448e-04 8.690082042392e-04 0.0 
3.784781456457e-04 9.859504920747e-04 0.0 
2.223688855449e-04 3.840489186251e-05 0.0 
3.076727816795e-04 2.314423236304e-04 0.0 
-2.257255277358e-05 1.664634292144e-05 0.0 
1.078987813263e-04 3.062672678773e-04 0.0 
1.736293428497e-04 3.011157091812e-04 0.0 
3.557191965207e-04 3.718847431718e-04 0.0 
3.003112556770e-04 4.066468746684e-04 0.0 
1.721065023859e-05 1.384350278907e-05 0.0 
9.394695719122e-05 -3.363102453523e-06 0.0 
7.557705947638e-05 1.304520891663e-03 0.0 
1.490022758137e-04 4.544512180431e-05 0.0 
9.010937719571e-05 -7.531492887943e-06 0.0 
1.597231541550e-05 -5.590324994291e-05 0.0 
2.884584762605e-04 5.890020006636e-04 0.0 
1.502838814039e-05 -5.594297733504e-05 0.0 
1.363628844207e-05 -5.356775940126e-05 0.0 
-1.166326257248e-05 1.514127734934e-04 0.0 
3.718942769590e-05 -5.147470961632e-05 0.0 
2.660948281704e-04 5.293015151835e-04 0.0 
3.576226173809e-05 -5.264602199209e-05 0.0 
3.179376872884e-05 8.573803733411e-05 0.0 
3.676186906336e-05 -4.801137325086e-05 0.0 
2.636553363253e-05 -5.511331682939e-05 0.0 
1.031745036067e-04 6.738905499529e-06 0.0 
4.048938525010e-04 8.374307567283e-04 0.0 
7.045972840281e-06 -9.216772360918e-07 0.0 
-3.172437315275e-05 1.802742713431e-05 0.0 
6.583356972121e-05 7.932158325702e-05 0.0 
1.798170401700e-04 4.451955073689e-05 0.0 
2.634114703943e-04 6.142740438460e-04 0.0 
1.002140826599e-04 -1.916190096614e-06 0.0 
8.890814369569e-06 -4.123833028379e-07 0.0 
3.396034839549e-04 5.190026120579e-04 0.0 
9.287970262099e-05 1.877125437215e-05 0.0 
9.697299900538e-05 4.858304997315e-06 0.0 
6.599081696154e-06 -1.397639951188e-05 0.0 
3.890451259163e-04 4.432578140181e-04 0.0 
3.227286889302e-04 6.314485207585e-04 0.0 
1.224598067208e-04 3.818141946881e-05 0.0 
1.713415928865e-04 3.174495298161e-05 0.0 
4.775593149219e-05 9.165951885860e-05 0.0 
4.002816507802e-04 7.529502424334e-04 0.0 
2.684728956514e-05 7.343237948006e-05 0.0 
3.462569142151e-04 2.886839082137e-04 0.0 
2.018504323700e-04 2.016621749652e-05 0.0 
5.762276475908e-05 1.181915601264e-03 0.0 
2.471017989605e-05 -5.301533528951e-05 0.0 
3.836674646308e-04 9.172024372251e-04 0.0 
9.537289615504e-05 3.013586244348e-05 0.0 
3.968381700846e-05 7.607400444539e-06 0.0 
2.642150598492e-05 -3.670930598054e-05 0.0 
2.520250252418e-04 5.398883002862e-04 0.0 
4.139754283049e-04 7.345834784701e-04 0.0 
1.639624019211e-04 1.347001363105e-04 0.0 
2.279182074062e-04 4.769608318853e-04 0.0 
3.355079723996e-04 4.325741525397e-04 0.0 
4.114084683357e-04 5.103933456106e-04 0.0 
1.037898925381e-05 -3.375732013948e-09 0.0 
2.005539521429e-04 1.748320970520e-05 0.0 
4.217858035967e-04 5.669261113129e-04 0.0 
2.314176862866e-04 1.049890505893e-04 0.0 
2.085680412652e-04 2.300988400839e-05 0.0 
6.317541018275e-05 3.046845866979e-06 0.0 
2.687811461389e-04 1.189919990814e-03 0.0 
1.703718673409e-04 1.596589122306e-05 0.0 
8.082005087381e-05 -3.336212229036e-05 0.0 
3.282621465429e-04 5.394342296781e-04 0.0 
-3.257462566924e-05 1.012599633888e-05 0.0 
3.812402395528e-04 8.753532551021e-04 0.0 
1.051870882911e-04 1.223977820982e-05 0.0 
6.577665602921e-05 6.256029997874e-05 0.0 
6.221082403921e-05 -5.380636058836e-06 0.0 
4.020560541770e-04 6.771447069148e-04 0.0 
1.932918840738e-05 -5.616010820467e-05 0.0 
2.241483331892e-04 3.793903518013e-04 0.0 
2.037109730441e-04 2.056929587920e-05 0.0 
4.053368869491e-04 7.858349975117e-04 0.0 
2.760780828090e-04 1.097229153060e-03 0.0 
9.878894898316e-06 2.318907772799e-06 0.0 
8.421801963540e-05 -2.917484652936e-05 0.0 
6.846574147430e-05 -3.902976684445e-05 0.0 
1.437155656534e-04 3.315488704826e-04 0.0 
3.361983538601e-04 6.115269995819e-04 0.0 
2.114103484369e-04 3.225234626723e-04 0.0 
1.555076538763e-04 1.080267197822e-05 0.0 
1.541208150184e-04 2.604557304794e-05 0.0 
1.863560428777e-05 4.253363509708e-06 0.0 
2.396518015247e-04 9.383711873315e-05 0.0 
6.130220570657e-06 7.476952517152e-05 0.0 
4.939889164042e-05 6.632892152091e-05 0.0 
6.115808885627e-05 6.351902627023e-05 0.0 
3.491411479061e-04 2.601953194500e-04 0.0 
7.797077600504e-05 1.536930821483e-05 0.0 
5.045845708814e-05 4.393295819968e-05 0.0 
4.197172887895e-04 5.062640070395e-04 0.0 
6.482423531411e-05 2.290696230411e-05 0.0 
7.132359884008e-05 -3.551477701369e-05 0.0 
4.000382390675e-04 5.048224499631e-04 0.0 
4.325015165777e-05 1.961721136131e-04 0.0 
1.255450660373e-04 2.724241791775e-05 0.0 
2.342077330391e-04 4.753851073320e-05 0.0 
2.049278243377e-05 6.447722835470e-05 0.0 
1.746861040055e-05 2.516352840039e-06 0.0 
6.528489697046e-05 3.467458833590e-05 0.0 
3.911149161640e-04 3.973118500973e-04 0.0 
3.007947251710e-05 -3.369178720951e-06 0.0 
1.411613221202e-04 -4.569994040190e-06 0.0 
1.793344450249e-04 2.627424155809e-05 0.0 
7.395646821499e-05 -4.003478565517e-05 0.0 
4.192096694650e-04 6.953492356808e-04 0.0 
5.614860185400e-05 3.956974923430e-05 0.0 
1.315582195372e-04 1.075755684310e-05 0.0 
1.926652421743e-04 1.361359176801e-05 0.0 
2.281783331466e-05 5.023648264629e-05 0.0 
1.989040334488e-04 8.650868251711e-04 0.0 
9.626097956058e-05 -6.330251369211e-06 0.0 
6.626214267452e-05 1.197617639648e-04 0.0 
1.946051025468e-04 9.418999009961e-04 0.0 
5.584680493433e-05 2.787086058491e-05 0.0 
8.481423414908e-05 -1.969416640770e-06 0.0 
5.974607666414e-05 4.773924202551e-05 0.0 
2.393858557985e-04 9.298620358636e-04 0.0 
3.527826540216e-04 3.637523754586e-04 0.0 
2.688760565790e-05 1.253145801535e-04 0.0 
4.036194170527e-04 7.838619012134e-04 0.0 
4.224896981835e-04 6.236371824523e-04 0.0 
4.206975409622e-04 6.094224692783e-04 0.0 
3.095938864906e-04 2.340746114957e-04 0.0 
5.008585908342e-05 2.019556670800e-05 0.0 
2.976733540180e-04 9.598201986901e-04 0.0 
3.688190885753e-04 1.003493751096e-03 0.0 
1.472494536922e-04 1.541164237959e-05 0.0 
3.176874317397e-05 -5.360233608963e-05 0.0 
3.800313995378e-04 9.448575606285e-04 0.0 
8.685335637723e-05 1.056923855005e-04 0.0 
5.062096520808e-05 1.318310887299e-03 0.0 
7.051390234659e-05 -4.259716239860e-05 0.0 
1.208788682788e-04 1.627918664840e-05 0.0 
2.927399861377e-04 5.034801911788e-04 0.0 
8.518186504596e-05 8.552479758442e-05 0.0 
4.142778303587e-04 7.051991742387e-04 0.0 
1.863293864466e-04 1.230441396952e-05 0.0 
8.971791544614e-05 -2.543301852750e-05 0.0 
3.666233592127e-05 1.092987247698e-05 0.0 
3.473330085927e-04 7.806063563856e-04 0.0 
7.961403793660e-05 -2.130323294384e-05 0.0 
6.408598118620e-05 -4.342015499218e-05 0.0 
6.445754198316e-05 2.031080582141e-04 0.0 
6.620251977412e-05 1.439042547870e-04 0.0 
2.881071787942e-04 3.303651014504e-04 0.0 
4.016237570809e-04 4.043629711483e-04 0.0 
2.495715588164e-04 5.220440732344e-04 0.0 
3.908098877090e-04 7.884120295642e-04 0.0 
2.686692137179e-05 5.397433844618e-06 0.0 
6.841632739154e-05 1.291146413399e-05 0.0 
2.801959380510e-04 3.452850128221e-04 0.0 
3.025216157607e-04 5.744756122675e-04 0.0 
9.226672975699e-05 -2.774471114468e-05 0.0 
2.227888563130e-04 2.485293471194e-04 0.0 
7.630817787287e-05 5.667364336098e-06 0.0 
1.016292001511e-04 2.971308162010e-06 0.0 
3.781544592910e-04 3.471847352843e-04 0.0 
1.476154811944e-04 -5.470657147976e-06 0.0 
4.498185779856e-05 -3.436621300313e-05 0.0 
2.502852841062e-04 3.823969767442e-04 0.0 
7.690379368213e-05 -2.671798676750e-05 0.0 
2.711221067579e-04 1.852457144814e-04 0.0 
4.174462671583e-04 5.710988476376e-04 0.0 
2.304592768593e-04 1.899734982981e-04 0.0 
6.104740440360e-05 5.528299096845e-05 0.0 
5.717990211653e-05 6.737781689075e-05 0.0 
1.395976637128e-04 1.623397269635e-04 0.0 
9.266906224156e-05 -2.229545140918e-05 0.0 
2.143583216593e-04 4.832442231950e-04 0.0 
4.651301311423e-05 1.119321116503e-04 0.0 
1.259560067560e-04 1.852304648004e-06 0.0 
4.012616455269e-05 -1.375119235477e-06 0.0 
2.629404186431e-04 4.049832985665e-04 0.0 
2.423516658217e-04 1.215736115700e-03 0.0 
2.240741430743e-04 9.362195606086e-04 0.0 
4.509324283623e-05 5.799698742198e-06 0.0 
3.007493888111e-04 2.990901790395e-04 0.0 
3.886898543979e-04 7.942742670380e-04 0.0 
4.176461057614e-04 5.441026115075e-04 0.0 
5.082649316203e-05 -7.546516177809e-06 0.0 
1.878159381353e-05 -5.415199466649e-05 0.0 
2.084959229945e-04 6.695051416103e-05 0.0 
3.008382457903e-04 1.791545302759e-04 0.0 
2.274955852415e-04 7.518273441734e-05 0.0 
-2.345681189867e-05 7.308113843610e-05 0.0 
4.808934990172e-05 1.142728361586e-03 0.0 
2.994641017323e-05 -5.445606806504e-05 0.0 
8.222930018391e-05 5.229395387293e-05 0.0 
9.431049921816e-06 1.450855181385e-06 0.0 
2.002688049700e-04 2.747143387469e-05 0.0 
3.542526845166e-04 1.044785551064e-03 0.0 
3.227716096620e-06 -5.046115141508e-05 0.0 
3.248676541032e-04 2.743621496916e-04 0.0 
1.982286723829e-04 5.146592371177e-05 0.0 
4.098470107297e-04 6.348832097062e-04 0.0 
5.737492486541e-05 3.579674012340e-05 0.0 
3.987633168002e-04 8.551619445901e-04 0.0 
4.148934801167e-04 4.559232284703e-04 0.0 
4.922830699869e-05 -3.458552447442e-05 0.0 
2.543889690873e-04 4.593291072116e-04 0.0 
8.879361396211e-05 -1.993879846129e-05 0.0 
5.861159190564e-05 3.275802257890e-05 0.0 
3.102451157052e-05 2.628790606434e-05 0.0 
2.335418554708e-05 3.347504599627e-05 0.0 
3.113519602320e-05 3.452394136612e-05 0.0 
4.058857692865e-04 5.667581470254e-04 0.0 
2.669709875544e-04 4.480341716031e-04 0.0 
2.623225516884e-04 2.742687263335e-04 0.0 
2.427830128659e-04 2.258448239674e-04 0.0 
2.353579554789e-04 2.935532359315e-04 0.0 
3.817217526522e-05 -3.618795490767e-05 0.0 
2.610873899008e-04 3.711418392256e-04 0.0 
5.321320066796e-05 2.382072185226e-05 0.0 
2.144436196850e-04 4.078429962037e-04 0.0 
2.082100437300e-04 2.560244120437e-05 0.0 
2.268445784375e-04 4.007980566327e-04 0.0 
3.059923913670e-04 1.335878792210e-04 0.0 
2.802499327789e-04 1.672727992283e-04 0.0 
2.778849623526e-04 4.747703968260e-04 0.0 
3.687825889769e-05 4.053201424505e-05 0.0 
6.371780695685e-05 1.550515107103e-04 0.0 
2.013767311816e-04 1.758461929390e-04 0.0 
1.609879811915e-04 7.096787507218e-05 0.0 
4.211265389377e-05 -3.648366421601e-05 0.0 
5.978470670100e-05 -4.647743668041e-05 0.0 
3.440257804502e-05 4.384784069144e-06 0.0 
1.032392573194e-04 7.384276564734e-05 0.0 
2.872156509362e-05 2.145133596117e-05 0.0 
1.027153422454e-04 1.272456784033e-04 0.0 
3.978067000402e-04 3.613387908148e-04 0.0 
1.507186131824e-05 -5.385576734482e-05 0.0 
2.994788810503e-05 1.767832685027e-05 0.0 
4.404998388575e-05 7.335601336552e-06 0.0 
6.269778755867e-05 -4.447528651722e-05 0.0 
1.888748454382e-04 1.685236671572e-05 0.0 
3.475356374902e-05 9.409397824050e-06 0.0 
1.216957625972e-05 -5.418914391408e-05 0.0 
2.458800081637e-04 1.719319159217e-04 0.0 
4.087698764697e-04 4.060998214511e-04 0.0 
3.773375620644e-04 3.113649742660e-04 0.0 
4.109241961014e-04 4.558798307167e-04 0.0 
4.964554715842e-05 5.802625828755e-05 0.0 
2.718310113372e-05 1.279116485628e-05 0.0 
1.480551684956e-04 2.231192128212e-06 0.0 
1.261736018787e-05 -7.074836661716e-06 0.0 
1.350209560644e-05 -6.965373438818e-08 0.0 
1.437899775780e-05 -5.461964913481e-05 0.0 
3.684718957560e-04 6.976666756854e-04 0.0 
2.651175759491e-05 -4.359664859842e-05 0.0 
3.696171632426e-04 1.014170197709e-03 0.0 
2.295717665549e-05 4.088007608438e-06 0.0 
2.405575954918e-05 9.166009712023e-06 0.0 
4.167111486888e-04 6.594372261832e-04 0.0 
1.735207364424e-05 -4.547647216106e-05 0.0 
5.162106399258e-06 -9.052010608993e-06 0.0 
2.377814334921e-05 -4.611450414563e-05 0.0 
4.337046732206e-05 -3.984727971572e-06 0.0 
2.513815896460e-04 1.250193553838e-03 0.0 
3.545629694182e-04 9.967559550743e-04 0.0 
1.910982205587e-05 5.954715623356e-06 0.0 
2.260903184925e-04 1.272479531647e-03 0.0 
4.384909233528e-05 6.685892872144e-05 0.0 
2.883725762865e-04 1.169819735180e-04 0.0 
2.033151861526e-04 1.019189017288e-03 0.0 
9.075895002764e-05 1.834712838730e-04 0.0 
1.997097718519e-04 2.319468983938e-05 0.0 
2.821217092369e-05 1.520348023843e-05 0.0 
1.720104988362e-05 4.434240970429e-06 0.0 
3.002289283307e-05 2.899508490411e-05 0.0 
2.604470609334e-05 3.285387552463e-05 0.0 
8.277973482986e-05 -2.063182848710e-05 0.0 
3.175112002314e-05 -3.780172962205e-05 0.0 
2.660860660937e-04 1.394493956983e-04 0.0 
7.853773800382e-05 -1.823448762668e-05 0.0 
1.477017680439e-05 3.154562480491e-06 0.0 
8.092463119544e-05 3.850154231795e-05 0.0 
8.661937418136e-05 -3.465974771027e-05 0.0 
8.697521656305e-05 -3.815332469853e-05 0.0 
1.804056460721e-04 9.423360032539e-04 0.0 
1.511191483601e-05 1.929177271534e-06 0.0 
1.546036645316e-05 -4.768670200893e-05 0.0 
1.086043208809e-05 1.845136244310e-06 0.0 
7.470417172321e-05 -4.268797637475e-05 0.0 
2.742703676038e-05 1.811841327313e-05 0.0 
2.682878441520e-04 2.615367625596e-04 0.0 
9.881058166823e-06 -5.277312164909e-05 0.0 
2.441674089383e-04 1.283782720005e-04 0.0 
1.890970112354e-04 4.172900365694e-04 0.0 
2.866370380061e-05 1.507969572863e-05 0.0 
4.096984720447e-04 5.259923057317e-04 0.0 
2.582767699166e-04 8.884312697993e-05 0.0 
1.167126020131e-05 4.698417624640e-05 0.0 
6.830704881888e-05 9.029466364171e-06 0.0 
7.391763649045e-05 -4.385510650152e-05 0.0 
8.250830526632e-05 -4.046150308553e-05 0.0 
6.259919568528e-06 -4.383279706920e-05 0.0 
2.603009953424e-05 1.102955699598e-05 0.0 
5.134873176134e-05 9.863485428022e-06 0.0 
8.027442209618e-05 3.657474204616e-07 0.0 
1.957106317569e-04 1.104162777998e-03 0.0 
5.080023413647e-05 -4.988582042824e-05 0.0 
8.261364888832e-05 -3.781742124433e-05 0.0 
4.173697481755e-04 4.976552204082e-04 0.0 
1.755251386540e-05 4.975156853621e-06 0.0 
3.064845328031e-05 -3.558210078948e-05 0.0 
8.517108064968e-05 -1.151693616454e-05 0.0 
3.341558096032e-04 2.008796066310e-04 0.0 
1.228100748197e-04 -1.339499712099e-05 0.0 
9.607310668279e-05 -3.210898777813e-05 0.0 
9.037119743928e-05 -1.680637745383e-05 0.0 
3.340487188265e-04 2.232985288620e-04 0.0 
3.390342216795e-04 1.969330049179e-04 0.0 
1.882859566322e-04 2.492933151090e-05 0.0 
3.040849824114e-04 1.613104566639e-04 0.0 
5.470274225285e-05 -3.715379565482e-05 0.0 
1.003436061494e-04 5.737320521412e-05 0.0 
3.540956269775e-05 -3.814174732997e-05 0.0 
2.770709257300e-04 1.017429072110e-04 0.0 
1.867753853750e-04 8.610227976006e-06 0.0 
2.029148200990e-05 3.295991425695e-06 0.0 
1.860800983226e-04 3.468554021159e-04 0.0 
4.563302948686e-05 -5.127985139712e-05 0.0 
1.209674456740e-05 2.242871364127e-06 0.0 
5.068146458828e-05 7.573142304132e-06 0.0 
2.329594154060e-04 6.676756360918e-05 0.0 
1.052488809119e-05 -4.702815754927e-05 0.0 
1.327271883582e-05 1.499389033179e-06 0.0 
2.198145608410e-04 3.291809647620e-04 0.0 
6.373945132589e-05 -4.638012713891e-05 0.0 
8.037560478731e-06 1.065497658654e-06 0.0 
7.934321319176e-05 -1.526575267612e-05 0.0 
2.845761018454e-04 3.683064392755e-04 0.0 
3.667021483990e-04 9.136149729832e-04 0.0 
1.898070271224e-04 1.003925778400e-05 0.0 
8.372360998949e-05 -2.609267387213e-05 0.0 
1.327751683896e-04 -7.325834428777e-06 0.0 
3.256788296803e-04 7.060744280378e-04 0.0 
3.740607093729e-04 5.495417348758e-04 0.0 
1.947093434381e-04 3.435859776609e-05 0.0 
4.586003131544e-05 1.056374769877e-03 0.0 
5.035102327742e-05 -3.698693300779e-05 0.0 
1.793363077538e-04 1.551082758886e-05 0.0 
6.977933440813e-05 -4.502345510172e-05 0.0 
4.111981653708e-05 -1.772630856728e-05 0.0 
6.410342455020e-06 -4.961935567343e-05 0.0 
1.243310135452e-04 8.063267415889e-05 0.0 
7.084280156018e-05 -4.446879095187e-05 0.0 
4.349800585868e-05 -3.193876243004e-05 0.0 
2.615880954016e-04 9.238965242840e-05 0.0 
8.516279349496e-05 -1.453067252907e-05 0.0 
1.749249195593e-04 1.017883254019e-03 0.0 
6.042910550134e-05 -4.770117398501e-05 0.0 
7.074354357283e-06 8.636796128803e-07 0.0 
4.009835354137e-04 3.630322433638e-04 0.0 
3.760006597186e-05 -2.932082025438e-05 0.0 
3.864809618968e-04 3.184679087454e-04 0.0 
3.936908267016e-05 -3.172013710823e-05 0.0 
9.533330137261e-06 -5.175660466369e-05 0.0 
3.607490070152e-04 8.650597885904e-04 0.0 
1.092992637903e-05 -3.588936903667e-05 0.0 
1.361503422539e-05 -5.579297478359e-05 0.0 
3.150867879608e-05 -3.126730152763e-05 0.0 
7.871387726799e-05 -9.470701599727e-06 0.0 
5.204837077999e-05 4.609906570380e-04 0.0 
1.357537852559e-04 -1.246857576558e-05 0.0 
1.307473346979e-04 -1.113885551630e-05 0.0 
3.344522978943e-04 1.132593071428e-03 0.0 
2.180319657174e-04 1.366053012137e-03 0.0 
7.604499462723e-05 1.396295501519e-04 0.0 
3.634558909998e-04 2.706533686041e-04 0.0 
1.291596453860e-05 -5.573535683128e-05 0.0 
2.487132388804e-05 -5.500384074810e-05 0.0 
1.318042516103e-05 -5.114894553775e-05 0.0 
4.136688963141e-05 -5.025009170642e-05 0.0 
2.768652229893e-04 1.789762071714e-04 0.0 
5.967898209265e-05 4.656373206510e-04 0.0 
4.609002080275e-05 -5.894124182860e-06 0.0 
3.672694073999e-05 -4.641312667389e-05 0.0 
3.710443426216e-05 -1.779373617596e-05 0.0 
6.992512832856e-05 1.149243556167e-06 0.0 
3.090074292447e-05 -1.140013199554e-05 0.0 
7.745165651661e-06 -3.573992008249e-05 0.0 
5.508268704211e-06 -4.059841659246e-05 0.0 
1.189632072392e-05 1.134375443009e-06 0.0 
6.198364478533e-06 6.357094202986e-07 0.0 
8.001187610411e-06 -3.208514461749e-05 0.0 
3.360494140808e-05 -2.913382108406e-05 0.0 
8.066087765266e-05 -2.364813677962e-05 0.0 
6.818051298516e-05 3.897029116360e-06 0.0 
2.633153578671e-05 -5.418140400210e-05 0.0 
7.061130713698e-05 -1.866834279914e-06 0.0 
1.210033328987e-05 -5.354310104828e-05 0.0 
3.304717667119e-05 -3.358604196270e-05 0.0 
4.594122256195e-05 -2.966278662447e-05 0.0 
9.351761898290e-06 -5.351973714172e-05 0.0 
6.396459833773e-06 -3.382982060418e-05 0.0 
1.742933756198e-04 3.500190511720e-04 0.0 
1.124771892605e-05 -5.523493509351e-05 0.0 
2.405239589433e-04 1.338376675605e-03 0.0 
2.452703149724e-04 1.365890365445e-03 0.0 
1.420234563788e-04 -7.266526796161e-07 0.0 
2.743262952064e-06 -4.065345090299e-05 0.0 
6.339415365331e-05 -4.695818639817e-05 0.0 
3.374029808708e-05 6.886606004133e-05 0.0 
2.866958323433e-05 -2.028481949442e-06 0.0 
1.013377268966e-04 4.598458015192e-05 0.0 
1.087159436980e-04 5.583812057115e-04 0.0 
8.959810957123e-05 1.539340481942e-04 0.0 
2.117752167442e-05 -5.604040081417e-05 0.0 
3.895163963918e-04 7.075454343062e-04 0.0 
1.583772261435e-04 1.394972210409e-03 0.0 
1.475066534340e-04 1.443402517517e-03 0.0 
1.213638407594e-05 -5.527550762184e-05 0.0 
1.160069861379e-05 -5.418976338668e-05 0.0 
5.853025475441e-06 -5.164625180130e-05 0.0 
2.951235235821e-05 -5.056152846308e-05 0.0 
8.021495642402e-06 -5.355184354503e-05 0.0 
6.536668307714e-06 -2.999148167245e-05 0.0 
-4.112130022228e-06 -3.548121896945e-05 0.0 
3.333427443454e-05 -4.779622764743e-05 0.0 
4.163062105764e-05 8.867814829154e-04 0.0 
2.030351755106e-04 1.420034217813e-03 0.0 
2.505988662631e-04 1.744625885662e-04 0.0 
7.398309420535e-05 -1.302864718783e-05 0.0 
3.679096974021e-05 1.021935416142e-03 0.0 
1.447400563546e-06 -3.904471145149e-05 0.0 
7.088383953017e-06 -5.225655067070e-05 0.0 
9.361417933303e-06 3.961634032595e-05 0.0 
2.145917829301e-05 8.224366213464e-05 0.0 
1.815198216383e-04 1.102420912471e-03 0.0 
1.776126531477e-04 1.392115003847e-03 0.0 
7.216822149550e-06 -3.905927026764e-05 0.0 
1.371103517696e-05 7.871677898647e-05 0.0 
3.280034034328e-05 -4.946031661153e-05 0.0 
2.234356823438e-04 1.397492717958e-03 0.0 
1.971097565493e-04 1.383641357809e-03 0.0 
3.650718139481e-04 9.626292286911e-04 0.0 
2.049490678821e-05 3.338388272516e-05 0.0 
1.677649183329e-05 7.819325065674e-05 0.0 
1.035687798316e-05 -5.414469451521e-05 0.0 
1.022388129122e-05 -5.470827954873e-05 0.0 
2.205491146678e-05 -5.547419066662e-05 0.0 
5.033657908526e-05 -2.979939572357e-05 0.0 
2.721688721208e-06 -1.782758617735e-06 0.0 
-1.006357524862e-05 -3.033527795009e-05 0.0 
1.356090892970e-05 5.831900259038e-04 0.0 
1.468322538928e-06 -4.276370713013e-05 0.0 
1.257332059174e-04 -6.025669463865e-06 0.0 
1.944590008921e-06 -4.508161822087e-05 0.0 
-3.528897326044e-06 -3.874251070601e-05 0.0 
1.171959359908e-04 -1.170536953066e-05 0.0 
1.104194792099e-05 -2.516914433355e-06 0.0 
3.467128878931e-05 9.368964260548e-04 0.0 
3.941241332670e-04 5.633240837068e-04 0.0 
6.856909875989e-06 -5.297356473079e-05 0.0 
3.023809478806e-05 -1.565108253152e-05 0.0 
3.183387420195e-06 4.715134137769e-05 0.0 
6.304108861643e-06 7.985373635118e-05 0.0 
1.840156729794e-04 1.433157784858e-03 0.0 
1.333029054113e-04 5.853782850274e-08 0.0 
7.415073899982e-06 3.857691033078e-05 0.0 
2.477711480388e-04 7.728896280045e-05 0.0 
4.247752562493e-06 -5.188407913498e-05 0.0 
5.502839461533e-06 -5.312480597923e-05 0.0 
4.129040625614e-06 -5.264561925282e-05 0.0 
1.570442899782e-06 -3.556881962143e-05 0.0 
2.170556243616e-06 -1.489440278515e-07 0.0 
1.683526856243e-06 2.176860742558e-04 0.0 
5.462780827850e-06 -5.380161881042e-05 0.0 
3.361497631294e-06 -2.978025826333e-05 0.0 
7.316490791911e-07 -6.323443537213e-08 0.0 
3.088275009308e-06 -1.254174258471e-07 0.0 
1.070951416764e-05 8.499502533644e-07 0.0 
7.471909593677e-06 7.301305024595e-04 0.0 
3.011537453546e-06 5.091977756376e-04 0.0 
1.438907164425e-06 -8.570959247941e-08 0.0 
1.649367844883e-06 -3.970783336770e-08 0.0 
6.628696481759e-06 5.832356541850e-04 0.0 
4.159674316417e-06 -5.398517252682e-05 0.0 
1.129841306326e-04 1.448497578831e-03 0.0 
1.658190702802e-04 1.440386560566e-03 0.0 
7.951297321600e-06 -5.418675041005e-05 0.0 
2.848413642428e-06 1.033148983798e-07 0.0 
9.852637908059e-06 6.150602034232e-07 0.0 
4.841079985810e-06 2.637759727693e-07 0.0 
6.746652921505e-06 -5.428528442700e-05 0.0 
9.148566885549e-06 -5.471822904025e-05 0.0 
5.697956245387e-06 4.986660227105e-07 0.0 
5.011557922249e-06 3.512842306539e-07 0.0 
3.854750565465e-06 8.057623137056e-04 0.0 
6.052205857965e-05 1.449967010153e-03 0.0 
3.617159028213e-06 6.558490543040e-04 0.0 
4.552818287630e-06 1.103606326934e-03 0.0 
2.595309713267e-05 1.448091999704e-03 0.0 
1.411053657579e-05 -5.615743974513e-05 0.0 
1.476859547750e-05 -5.644074145709e-05 0.0 
1.401233244571e-05 -5.593278055192e-05 0.0 
1.238890328827e-05 -5.477766464880e-05 0.0 
1.705787615325e-06 -2.772844270121e-05 0.0 
1.655710015969e-06 -3.177241387399e-05 0.0 
1.492011988744e-05 -5.634513733323e-05 0.0 
1.729699374930e-06 -1.566780404119e-05 0.0 
1.395912326005e-05 -5.562141669244e-05 0.0 
1.657143157642e-05 3.632954780192e-05 0.0 
6.295961276974e-06 4.013986865568e-05 0.0 
1.209776035971e-05 4.262732180869e-05 0.0 
1.042762319366e-06 -4.927306864185e-05 0.0 
1.295862388518e-06 -4.215444731950e-05 0.0 
5.900111976624e-06 4.837264600480e-05 0.0 
1.166862239015e-06 -5.140710255583e-06 0.0 
3.120721441448e-06 3.270239497349e-05 0.0 
8.464409358169e-07 -2.709628721644e-06 0.0 
5.074411356160e-07 -1.037672885483e-06 0.0 
3.226152915751e-06 -3.372831326981e-05 0.0 
1.219607325360e-05 8.851251466048e-05 0.0 
9.020833418072e-06 8.107504097828e-05 0.0 
2.013303174832e-06 -3.883258581565e-06 0.0 
1.353882071433e-06 -1.769884289452e-06 0.0 
1.771307232785e-05 -1.179521237468e-05 0.0 
5.981203564266e-06 -4.806569091335e-05 0.0 
2.708256753366e-05 -3.529564021261e-05 0.0 
1.235636707174e-05 -5.479392094853e-05 0.0 
2.646786493822e-05 -2.331464007896e-06 0.0 
3.691245598149e-05 -3.385187837297e-05 0.0 
2.033765788128e-05 -6.178140184353e-06 0.0 
2.865923802067e-05 -5.194609333387e-05 0.0 
1.547827049013e-05 -5.450275606369e-05 0.0 
1.392219664662e-05 -3.553439738419e-06 0.0 
2.773349172300e-05 -3.105798530309e-05 0.0 
6.022259297186e-06 -3.743959268734e-05 0.0 
1.776904683543e-05 -6.336840823819e-06 0.0 
1.906123473243e-05 3.690099425016e-04 0.0 
3.017843463328e-06 -3.736999956065e-05 0.0 
7.703152394735e-05 -6.744514745007e-06 0.0 
5.402010538951e-05 -1.733477097147e-05 0.0 
2.094121539749e-05 -1.170203798068e-05 0.0 
1.511416214522e-05 -9.983501445104e-06 0.0 
1.341947555303e-04 -2.065089665515e-06 0.0 
3.601584934858e-04 6.117948815998e-04 0.0 
2.583313323454e-04 1.031429500911e-04 0.0 
3.394466643827e-05 -1.558175694161e-05 0.0 
1.251948076102e-05 -5.077690756334e-06 0.0 
9.863847367414e-06 -8.396594200101e-06 0.0 
3.825568535890e-05 -5.263683214409e-05 0.0 
3.645329751870e-05 3.804351178431e-04 0.0 
4.589041659464e-05 5.280481490399e-04 0.0 
7.863729593849e-05 1.224982437114e-03 0.0 
3.800186334833e-05 -1.322861487228e-05 0.0 
2.720413750930e-05 -1.356392461331e-05 0.0 
2.471506795959e-05 3.767106624539e-04 0.0 
3.147377513750e-05 4.526772122286e-04 0.0 
5.779146047783e-05 -1.972365190721e-05 0.0 
9.347146148712e-06 -2.645853769861e-06 0.0 
9.827969232481e-05 5.547853777844e-04 0.0 
7.002851311761e-06 -8.386317297370e-06 0.0 
1.917473231985e-05 -1.590621639390e-06 0.0 
4.264902421780e-05 3.840500612779e-04 0.0 
7.930305829499e-05 7.651721605718e-04 0.0 
7.334547112687e-05 -1.024733247598e-05 0.0 
1.513226786557e-05 -4.779584492229e-05 0.0 
3.819585374805e-05 -5.324058427001e-05 0.0 
2.038330023482e-05 -5.599975218672e-05 0.0 
9.769904616932e-06 -4.894314030268e-05 0.0 
3.820002002150e-05 4.525049175409e-04 0.0 
9.978518679064e-06 -3.829555163444e-06 0.0 
1.251471179060e-05 -5.240874513868e-05 0.0 
2.482648944382e-04 2.999793692736e-04 0.0 
9.318937520418e-05 1.150433002734e-03 0.0 
2.374208756714e-05 -7.751265110078e-06 0.0 
1.277034466696e-05 -6.623069574473e-06 0.0 
6.177299677865e-05 -4.654227571828e-05 0.0 
1.029076971223e-05 -6.742397098462e-06 0.0 
8.873419550998e-05 1.227720613926e-03 0.0 
1.781883858296e-04 1.931104834872e-05 0.0 
1.448550045483e-05 -8.550003648793e-07 0.0 
8.169604556665e-06 -4.693545500449e-05 0.0 
2.486634433151e-05 -8.891692937134e-07 0.0 
6.162411011805e-05 6.826952418036e-04 0.0 
1.218042759633e-05 -4.603041042196e-05 0.0 
4.285512016891e-05 -5.147891498840e-05 0.0 
1.483514804669e-05 -2.418368310746e-05 0.0 
1.059998657692e-04 9.263554275896e-04 0.0 
3.322361177663e-05 -4.206748871589e-05 0.0 
4.582746200805e-05 5.997707806729e-04 0.0 
6.759932736741e-05 8.340124621108e-04 0.0 
3.163542072609e-05 -2.678530870345e-05 0.0 
1.208187004017e-05 -1.007851024373e-05 0.0 
1.537571442719e-05 -8.182257877486e-06 0.0 
5.289368794135e-05 6.773804699459e-04 0.0 
1.773443293265e-05 -5.083826593081e-05 0.0 
2.598104651077e-05 -2.878441019231e-05 0.0 
1.661305188769e-04 3.811008334338e-05 0.0 
7.112710918972e-05 6.146753469453e-04 0.0 
2.570610385147e-05 -3.309026516130e-05 0.0 
4.954483084487e-05 -1.750917233911e-05 0.0 
3.314832248716e-05 -1.351065115219e-06 0.0 
6.944450636538e-05 7.604792022299e-04 0.0 
7.095408678264e-06 -1.666680483864e-05 0.0 
1.779417218974e-05 -5.518791914794e-05 0.0 
5.045213315927e-05 -1.497576521507e-05 0.0 
1.476835695630e-05 -4.930514667815e-06 0.0 
8.737995007087e-05 8.433310186497e-04 0.0 
1.067181069025e-05 -2.016274400200e-05 0.0 
1.088805583517e-04 1.079135254704e-03 0.0 
6.563374834507e-05 1.159810711516e-07 0.0 
2.569172454913e-05 -2.436543316109e-05 0.0 
1.812554040039e-05 -8.043205215351e-06 0.0 
1.280861897315e-05 -4.742759502199e-05 0.0 
2.111453837470e-05 -1.365804952458e-06 0.0 
2.778671290185e-05 -2.664521403624e-05 0.0 
9.701005989306e-06 -4.581688575078e-05 0.0 
2.235004470241e-05 -2.857427810434e-05 0.0 
2.915125610171e-05 -3.959874467195e-05 0.0 
3.043503840332e-05 -4.735224107022e-05 0.0 
1.408521205524e-05 -1.995909424673e-05 0.0 
1.467613869375e-05 -5.621436324008e-05 0.0 
1.515727879053e-05 -5.646070027023e-05 0.0 
2.378757999745e-05 -1.365027915625e-05 0.0 
1.550066088734e-05 -4.913691875206e-05 0.0 
3.428195116384e-05 -1.336439758249e-05 0.0 
4.167996089768e-05 -1.537854662272e-05 0.0 
4.700999141669e-05 -3.908292403073e-05 0.0 
5.403366313634e-05 -4.931785153852e-05 0.0 
8.512654769028e-05 4.786142413330e-04 0.0 
-1.202672602230e-06 2.422478420113e-05 0.0 
2.485025032463e-05 -3.716824876637e-05 0.0 
6.367693227061e-05 2.764952677566e-06 0.0 
1.377119849374e-05 -5.003987655899e-05 0.0 
1.022928133390e-04 1.000340865980e-03 0.0 
1.038268745552e-04 1.155110218177e-03 0.0 
2.456369697155e-05 -5.386447772445e-05 0.0 
4.288410847895e-05 -1.786227864682e-06 0.0 
1.230605746664e-04 7.082063861942e-04 0.0 
1.767266260189e-05 -4.958317337901e-05 0.0 
8.917511758127e-05 4.124762594676e-04 0.0 
8.020874835991e-05 4.084446486569e-04 0.0 
1.983021129971e-05 -4.866463203846e-05 0.0 
1.197095025988e-04 1.972800442534e-04 0.0 
2.705044922558e-05 -5.010393324962e-05 0.0 
2.109213118806e-05 -9.751274388970e-06 0.0 
1.983266910819e-05 -2.208998958565e-05 0.0 
2.089558736393e-04 3.362871090420e-04 0.0 
7.614142859923e-05 4.745518916441e-04 0.0 
2.740570903024e-05 -1.148244397193e-05 0.0 
3.077695103457e-05 -1.135224253103e-05 0.0 
2.559581286719e-05 -5.276942214140e-05 0.0 
2.414006730896e-05 -9.618034923164e-06 0.0 
1.116539047791e-04 7.047680776236e-04 0.0 
1.626142840634e-05 -2.207817905976e-05 0.0 
9.799814560174e-05 8.480030477052e-04 0.0 
1.003397773383e-04 6.276394061064e-04 0.0 
1.909743508907e-04 1.451379594659e-05 0.0 
7.009025291228e-05 5.422846070677e-04 0.0 
2.050235989108e-05 -3.064495723877e-05 0.0 
2.198411835452e-05 -2.428914920536e-05 0.0 
2.342602315153e-05 -4.091333062785e-05 0.0 
5.149095487252e-05 -4.363651314962e-05 0.0 
9.992960165299e-05 7.743698277607e-04 0.0 
7.491111525713e-05 -2.944900153056e-05 0.0 
2.481103595049e-05 -4.808046676297e-05 0.0 
2.084629899490e-05 -5.521185829317e-05 0.0 
1.109403174964e-04 7.784712876290e-04 0.0 
2.743920117943e-05 -4.855873482086e-05 0.0 
2.660582611614e-05 -5.901795893762e-07 0.0 
8.039926299325e-05 6.921071984980e-04 0.0 
2.665801222900e-05 -7.581917835994e-06 0.0 
3.901970727984e-05 5.776403757402e-06 0.0 
2.210597382790e-05 -3.288736918496e-05 0.0 
2.221511981266e-05 -4.913732917959e-05 0.0 
2.189487260100e-05 -5.442458209700e-05 0.0 
3.779336206310e-05 -1.102608674553e-05 0.0 
7.486096543145e-05 9.124262497090e-04 0.0 
1.877404831571e-05 -5.551816953891e-05 0.0 
2.985440692148e-05 -4.166546480358e-05 0.0 
9.023645793271e-06 -4.810976747456e-05 0.0 
1.173395959121e-04 9.306000407624e-04 0.0 
2.581627214984e-05 -3.925172439313e-05 0.0 
4.577121480164e-05 -1.522873237338e-05 0.0 
2.022595659529e-05 -4.044668666816e-05 0.0 
5.354304065403e-05 5.329189451022e-04 0.0 
3.050846238497e-05 -4.555738169926e-05 0.0 
4.929371672083e-05 -1.025186441398e-05 0.0 
3.609398747512e-05 -5.353131156076e-05 0.0 
4.579969024290e-05 -1.286184108826e-05 0.0 
1.687037529290e-05 -2.626514242053e-05 0.0 
3.372373281919e-05 -9.128113132877e-06 0.0 
1.007037401091e-04 -2.827853128607e-05 0.0 
1.118323860273e-05 -4.838838282087e-05 0.0 
8.764442496765e-05 1.069826488633e-03 0.0 
1.180912333968e-04 -8.149062961062e-06 0.0 
2.854135887370e-04 2.197024775948e-04 0.0 
8.478303620530e-05 9.170518479060e-04 0.0 
4.313546094979e-05 -5.214704126206e-05 0.0 
1.573453917254e-04 8.647625610143e-04 0.0 
1.177742510156e-05 -4.965959052810e-05 0.0 
3.428279647812e-05 -3.112521712704e-06 0.0 
1.253988086805e-04 -2.484638567159e-06 0.0 
1.846368310393e-04 2.814340480689e-05 0.0 
6.505123574489e-05 3.310353322333e-04 0.0 
7.500852976429e-05 -2.411639604720e-05 0.0 
1.969763158167e-05 -5.132968319092e-05 0.0 
6.348354123431e-05 -1.679099676754e-05 0.0 
3.565498385377e-05 -9.083427752225e-07 0.0 
5.976298196340e-05 -4.775218451101e-05 0.0 
3.042723397515e-05 -9.318486208175e-06 0.0 
9.040761082038e-05 6.966328366313e-04 0.0 
5.282913077037e-05 -4.806279086706e-05 0.0 
5.438884448843e-05 -1.480081718801e-05 0.0 
1.558148458284e-04 1.092603031250e-03 0.0 
1.403464551640e-05 -4.481575836144e-05 0.0 
3.354357048446e-05 -4.408316827934e-05 0.0 
3.192445449207e-04 1.712365835868e-04 0.0 
4.149993505371e-05 -1.080912721084e-05 0.0 
2.697316234334e-04 3.137432657694e-04 0.0 
2.894264775690e-04 1.353453355631e-04 0.0 
1.342463718568e-04 7.853631598430e-04 0.0 
9.169417930594e-05 9.957093153523e-04 0.0 
1.616855960453e-04 1.016844436639e-03 0.0 
2.044810489889e-05 -2.635879799253e-05 0.0 
5.380547275864e-05 -2.292870091616e-06 0.0 
7.298787495801e-05 -1.876428132961e-05 0.0 
1.202523893802e-04 1.084303657744e-03 0.0 
2.228256091959e-04 2.283728893291e-04 0.0 
1.879685765831e-04 3.660969177281e-05 0.0 
4.994204538505e-05 -1.260832727053e-05 0.0 
9.010419922304e-05 6.236056249824e-04 0.0 
4.748766837588e-05 -4.132255155049e-05 0.0 
4.021088400731e-05 -4.284075718524e-05 0.0 
2.362641192698e-05 -5.231654781338e-05 0.0 
6.874294331249e-05 -1.362032772294e-05 0.0 
3.617890363147e-05 -4.034078629218e-05 0.0 
1.322479760612e-04 8.598026843898e-04 0.0 
1.537940599652e-04 9.401224439188e-04 0.0 
1.712442009310e-04 -1.324171187326e-06 0.0 
3.996871801620e-05 -4.676948051203e-05 0.0 
1.117187673576e-04 -1.894535594506e-06 0.0 
3.686281280827e-05 -4.449492667676e-05 0.0 
4.385969866132e-05 -4.317705505113e-05 0.0 
2.422793394784e-05 -5.103562379239e-05 0.0 
6.605325858218e-05 -2.784766460495e-06 0.0 
6.874336598348e-05 -3.708530877413e-05 0.0 
7.905899511846e-05 5.466892469714e-04 0.0 
7.820371985735e-05 -3.419126344720e-05 0.0 
6.855319925308e-05 -1.638722691416e-05 0.0 
7.251238379331e-05 -2.696416086122e-05 0.0 
2.483723947454e-04 7.466865026226e-05 0.0 
2.202076976385e-05 -5.054728778026e-05 0.0 
4.596196055849e-05 -1.217821889459e-06 0.0 
3.996264522872e-05 1.606528421382e-07 0.0 
3.451769772859e-04 1.981802351492e-04 0.0 
5.149361989360e-05 -4.154465290460e-05 0.0 
7.157752389568e-05 -2.162988145761e-05 0.0 
1.203485915880e-04 8.563491207464e-04 0.0 
4.301807123317e-05 -3.879896671024e-05 0.0 
2.330891770293e-04 1.428878769708e-04 0.0 
2.748728985223e-05 -4.510942836549e-05 0.0 
5.120297852740e-05 -5.023483597039e-05 0.0 
5.536766190984e-05 -3.947188803186e-05 0.0 
2.478570064164e-05 -4.642601967856e-05 0.0 
1.714434479770e-05 -4.673682613880e-05 0.0 
6.723259827751e-05 -2.721026527799e-05 0.0 
5.898662979811e-05 -1.448794927715e-05 0.0 
2.693785385819e-04 1.494879001620e-04 0.0 
1.481353987931e-05 -5.642482618430e-05 0.0 
1.020416190722e-04 -3.237271010773e-05 0.0 
8.444736480630e-05 -3.573594039437e-05 0.0 
5.980038121201e-05 -3.952859102046e-05 0.0 
1.411492844544e-04 9.376367495011e-04 0.0 
7.149559067815e-05 -3.218040003000e-05 0.0 
2.715319309657e-05 -4.323319103326e-05 0.0 
6.386764658579e-05 -3.722500426926e-05 0.0 
6.221050824413e-05 6.099563485928e-04 0.0 
2.405979327849e-05 -4.282807713635e-05 0.0 
1.836033450456e-05 -5.446979203209e-05 0.0 
2.108820766697e-05 -5.299978752632e-05 0.0 
5.396724920248e-05 -4.941215652973e-05 0.0 
4.737870943197e-05 -4.542493512517e-05 0.0 
9.542493732270e-05 -3.195541182609e-05 0.0 
7.289587122979e-05 -3.455247821326e-05 0.0 
3.519900280575e-05 -5.371178334664e-05 0.0 
1.936659150564e-05 -5.250125891599e-05 0.0 
2.179700910797e-04 1.016434062913e-03 0.0 
2.202985972139e-05 -4.597760868475e-05 0.0 
6.949235471528e-05 -5.067519594103e-06 0.0 
2.826035527596e-04 1.428351294979e-04 0.0 
3.799578375598e-04 7.528303031527e-04 0.0 
1.372806440717e-04 4.930018960879e-04 0.0 
2.475471720074e-04 1.490310221239e-04 0.0 
1.809093034720e-04 6.648463859923e-06 0.0 
3.197840199198e-04 1.716956277793e-04 0.0 
4.223376247625e-05 -5.195526914347e-05 0.0 
5.815250642873e-05 -3.485459691548e-05 0.0 
2.053419637450e-04 4.479943823051e-05 0.0 
6.007949300908e-05 -4.092792680365e-05 0.0 
3.324501226967e-05 -5.291565092918e-05 0.0 
3.984693353835e-05 -4.070229636411e-05 0.0 
7.901223555138e-05 -3.636657891252e-05 0.0 
8.944127984767e-05 -3.291921760932e-05 0.0 
2.163804911389e-05 -4.425590347477e-05 0.0 
8.046999356494e-05 -2.904577380906e-05 0.0 
9.593102250208e-05 -3.377223267563e-05 0.0 
1.148766778278e-04 -2.734389035832e-05 0.0 
4.375340473849e-05 -4.518757838079e-05 0.0 
1.501164596238e-04 6.281336686210e-06 0.0 
1.466990120103e-04 7.878373420498e-04 0.0 
1.218669444775e-04 -2.601198423613e-05 0.0 
5.760764563490e-05 -1.581236718131e-06 0.0 
5.038843303027e-05 -4.958215887906e-05 0.0 
5.214751468183e-05 2.985673518718e-06 0.0 
8.816474834891e-05 -3.077455022270e-05 0.0 
2.135688379871e-04 1.380389933561e-04 0.0 
4.058446625295e-04 4.008606175513e-04 0.0 
4.553839492432e-05 -5.157568973384e-05 0.0 
3.909876602259e-04 6.433683243901e-04 0.0 
1.765206499722e-04 4.202122762031e-04 0.0 
9.856133086359e-05 -2.679748254688e-05 0.0 
1.622104185641e-04 7.740286384158e-05 0.0 
3.932310795443e-04 5.396723361040e-04 0.0 
3.158907175229e-04 2.114995794299e-04 0.0 
3.683397755941e-05 -5.299781974831e-05 0.0 
7.051523675888e-05 2.061941498846e-04 0.0 
3.070706925456e-05 -5.451677454418e-05 0.0 
1.054879992633e-04 1.784871917957e-05 0.0 
5.633656884627e-05 3.958028238108e-04 0.0 
1.313816215857e-04 3.434396413370e-06 0.0 
1.250043745103e-04 1.009753882193e-03 0.0 
1.428811487052e-04 5.657200130206e-04 0.0 
1.080976355473e-04 -2.921248821948e-05 0.0 
1.764560092714e-04 2.743684455894e-06 0.0 
1.083829470690e-04 3.493947304522e-04 0.0 
5.345024002069e-05 -9.882331479712e-06 0.0 
1.601906727348e-04 7.146503646337e-04 0.0 
1.107265013911e-04 -6.547482203145e-06 0.0 
4.425311597326e-05 -5.087872272056e-05 0.0 
1.720691979430e-04 6.405069806534e-04 0.0 
1.197489824460e-04 5.183275357625e-05 0.0 
4.255538592614e-05 7.718893632690e-07 0.0 
6.288469145950e-05 -3.486910254133e-05 0.0 
1.369146785795e-04 1.013337027288e-03 0.0 
1.436887038734e-04 1.091581316317e-03 0.0 
8.236231761351e-05 -3.141595754244e-05 0.0 
6.338300949020e-05 -1.146207472458e-05 0.0 
6.697725971840e-05 -8.294853920007e-06 0.0 
2.038878423663e-05 -5.401276622689e-05 0.0 
8.765921634880e-05 -1.991595543981e-07 0.0 
1.369960196616e-04 -1.920832498459e-05 0.0 
1.149589636119e-04 -2.854395650080e-05 0.0 
2.720158742627e-04 1.253660056451e-04 0.0 
8.690450137025e-05 2.784102751834e-04 0.0 
2.394236427637e-04 3.108238976738e-04 0.0 
6.383027314666e-05 4.003127549001e-04 0.0 
3.174391180602e-04 3.909425145083e-04 0.0 
2.091995344121e-04 5.603390475455e-04 0.0 
5.869635399460e-05 -1.192592642540e-05 0.0 
8.120210191585e-05 3.416926816892e-04 0.0 
2.018722142090e-04 7.123521227654e-04 0.0 
6.636013030554e-05 -3.235732886294e-05 0.0 
1.443160265839e-04 -1.532446224325e-05 0.0 
1.587901375954e-04 6.403466010434e-04 0.0 
1.183813595278e-04 4.194153660873e-04 0.0 
1.221826985988e-04 6.346735426040e-04 0.0 
1.472547904961e-04 7.133333602355e-04 0.0 
4.672586048809e-05 -3.479583593434e-06 0.0 
1.305315254180e-04 2.421184654118e-05 0.0 
5.756522761809e-05 -4.270108132731e-06 0.0 
6.265711101295e-05 -1.949274561414e-05 0.0 
3.485618233863e-04 8.795568264458e-04 0.0 
1.356583424731e-04 9.421366399207e-06 0.0 
2.781369984752e-04 6.765062999845e-04 0.0 
1.967028651729e-05 -4.715935862802e-05 0.0 
1.292838360026e-04 -2.239375959522e-05 0.0 
1.315924920095e-04 -1.637062199295e-05 0.0 
1.759715653487e-04 6.862264700050e-06 0.0 
6.670711938767e-05 -2.884187699002e-05 0.0 
1.365137610619e-04 -1.946220775244e-05 0.0 
1.693839179287e-04 1.057837281050e-05 0.0 
4.012664180158e-04 6.354559890516e-04 0.0 
6.449586936873e-05 -2.987203478027e-05 0.0 
2.137181690492e-04 8.621614391589e-04 0.0 
1.258495353078e-04 1.333380458998e-03 0.0 
-3.654953569915e-05 9.599038166781e-05 0.0 
6.631641796939e-05 -2.195457588875e-05 0.0 
1.205105074387e-04 3.931455066865e-06 0.0 
1.975063711026e-04 2.705802373112e-04 0.0 
1.696933920191e-04 -2.008390412095e-06 0.0 
6.446763832219e-05 -2.468719489512e-05 0.0 
1.707176543183e-04 8.659373029690e-04 0.0 
-3.587927267124e-05 1.522703148784e-04 0.0 
1.394327516732e-04 6.378194720686e-06 0.0 
1.622728490885e-04 -2.259266711901e-06 0.0 
4.132183226388e-04 6.376598573350e-04 0.0 
6.225494897459e-05 -8.917915633496e-06 0.0 
5.775410496185e-05 -4.381106973300e-05 0.0 
6.480649662744e-05 -5.841227892854e-06 0.0 
5.582492828754e-05 8.843336138581e-07 0.0 
1.591352165314e-04 1.008156505205e-05 0.0 
1.339242742751e-04 6.373263344384e-04 0.0 
2.473170796700e-04 8.803014810464e-05 0.0 
5.235687413217e-05 1.050480051570e-07 0.0 
-3.103743909986e-05 2.355245621379e-04 0.0 
1.869940794976e-04 7.899147128626e-04 0.0 
1.508479830320e-04 3.696736552803e-05 0.0 
1.309511676236e-04 5.640167508138e-04 0.0 
1.685646345152e-04 6.477762667897e-06 0.0 
1.533631556562e-04 -1.112152610129e-05 0.0 
3.736915736295e-05 -2.468837514765e-05 0.0 
2.219533998470e-05 -1.317133419939e-05 0.0 
1.045291682848e-04 4.862416800708e-04 0.0 
1.667491382535e-05 -4.515392417798e-05 0.0 
-1.264774471592e-05 3.581699890143e-04 0.0 
2.790411241273e-04 1.161562128317e-04 0.0 
5.765787962270e-05 3.269657881656e-04 0.0 
4.830760873826e-05 -4.762408041184e-05 0.0 
3.459491534028e-04 2.097143268529e-04 0.0 
1.874566557382e-04 7.143963687035e-04 0.0 
5.268202999026e-05 -2.737939579303e-05 0.0 
6.452489330720e-05 -3.345139147521e-05 0.0 
1.405404460206e-04 6.992831711643e-05 0.0 
3.465246601874e-05 -5.167551044435e-05 0.0 
5.031950207207e-05 -4.537450944097e-05 0.0 
4.187457983040e-05 -4.894585854386e-05 0.0 
1.719880449728e-04 2.304898978429e-06 0.0 
3.825694934855e-05 6.705666785948e-05 0.0 
5.277581309957e-05 5.630704453185e-04 0.0 
3.702205394631e-05 -2.734094582818e-06 0.0 
1.539417178905e-04 -8.319977874922e-07 0.0 
2.315454289329e-04 7.798843225579e-04 0.0 
4.057307495729e-05 -1.683532154732e-05 0.0 
4.858689068225e-05 2.138316940026e-06 0.0 
4.026078480549e-05 -5.068113284057e-05 0.0 
1.803072254580e-05 -4.196028115911e-05 0.0 
1.656194405396e-04 1.776734590810e-05 0.0 
1.004430069305e-04 -2.886351584166e-05 0.0 
1.581320589948e-04 3.286566981520e-05 0.0 
1.913602856139e-04 1.462041764279e-04 0.0 
2.590581275366e-04 6.129320612650e-04 0.0 
1.097424060308e-04 2.038813284429e-05 0.0 
1.730071568418e-04 7.903290884028e-04 0.0 
2.063133472308e-04 2.634783077415e-04 0.0 
1.815056309672e-04 5.658838453425e-04 0.0 
1.875351153849e-04 4.912602982771e-04 0.0 
5.133495876054e-05 2.002165798642e-05 0.0 
3.709179885955e-05 -4.761307101966e-06 0.0 
1.998696536566e-04 6.375120804748e-04 0.0 
2.129819228299e-04 2.959828578773e-05 0.0 
1.291304855416e-04 9.414462374962e-04 0.0 
9.279339129652e-05 1.894535872933e-05 0.0 
7.267342553941e-05 -1.067678063318e-05 0.0 
1.880904493744e-05 -4.385475145723e-05 0.0 
1.697927831583e-04 3.227932168013e-05 0.0 
2.128841886867e-06 -4.834377360539e-05 0.0 
2.759108176908e-04 1.008135773836e-04 0.0 
1.437254949588e-04 1.271326070246e-05 0.0 
1.513827707829e-04 3.548257016167e-04 0.0 
1.445236286469e-04 2.848926872076e-04 0.0 
1.565186610665e-04 1.347031738977e-05 0.0 
1.492411687432e-04 4.939560030402e-04 0.0 
1.757029405936e-04 1.215616304939e-05 0.0 
3.068352269990e-04 1.667741409283e-04 0.0 
2.129416004662e-04 1.233760978800e-03 0.0 
2.408372554924e-04 2.158604877896e-04 0.0 
2.691156899191e-04 1.323033325593e-03 0.0 
2.812269423122e-04 1.324943466124e-03 0.0 
1.810384599308e-04 4.856933488656e-06 0.0 
2.850388683646e-04 1.310394744168e-03 0.0 
2.640361049533e-04 7.211090842998e-05 0.0 
2.210730445211e-04 5.186885787161e-05 0.0 
1.444384912580e-04 -1.519680456857e-05 0.0 
5.542742166443e-05 -3.525016850527e-05 0.0 
1.621721496793e-04 -6.030984739411e-06 0.0 
1.080535130719e-04 4.173411655449e-04 0.0 
2.166791926888e-04 2.391636208975e-04 0.0 
4.426843794014e-05 -8.350846213111e-06 0.0 
1.370243924299e-04 2.806687680699e-05 0.0 
1.070051085850e-04 -2.752011480296e-05 0.0 
1.743646776258e-04 4.932646175872e-04 0.0 
1.530033617304e-04 -1.124775119446e-05 0.0 
2.907725061139e-05 -3.740761531336e-06 0.0 
1.681207337244e-04 5.668344995829e-04 0.0 
2.234463794234e-04 5.552452120971e-04 0.0 
1.507858805039e-04 2.552347870775e-06 0.0 
1.698643697786e-04 1.587990190701e-06 0.0 
2.636142797879e-04 1.351444976727e-04 0.0 
4.096207255625e-04 4.420752379393e-04 0.0 
5.383987873208e-05 -3.921171400294e-05 0.0 
7.077350993524e-05 -1.751398557403e-05 0.0 
2.076520001573e-04 1.312874428361e-04 0.0 
3.601568057198e-04 2.425912982382e-04 0.0 
2.198674490442e-05 -2.831605450119e-06 0.0 
2.143931193424e-04 6.339716019881e-04 0.0 
1.609214749857e-04 -4.910353732650e-06 0.0 
3.592684447196e-04 2.244112197936e-04 0.0 
1.227910250323e-04 9.176639247301e-06 0.0 
1.150228165341e-04 4.892244333388e-04 0.0 
2.451913273841e-04 1.373426365876e-04 0.0 
2.443515371375e-04 8.507431560595e-04 0.0 
8.541978795239e-05 1.729982399693e-06 0.0 
1.602615468416e-04 -6.841429057350e-06 0.0 
1.156943200853e-04 6.630526222274e-06 0.0 
2.900646579409e-04 1.215462049643e-04 0.0 
1.187455273188e-04 3.527211134778e-04 0.0 
2.130889581496e-04 1.282802384162e-04 0.0 
1.566770889472e-04 -1.927697564172e-06 0.0 
5.993654843227e-05 -1.964709003695e-05 0.0 
2.241483105183e-04 7.539589751401e-05 0.0 
2.838432762863e-04 9.743638389590e-05 0.0 
1.667252765239e-04 3.929753888850e-06 0.0 
1.589853539980e-04 2.251966094005e-06 0.0 
7.944249917337e-05 -3.168735856130e-06 0.0 
5.858040213917e-05 -2.556022762928e-05 0.0 
1.573089682096e-04 -6.653519879691e-06 0.0 
3.861239270365e-04 5.740210162601e-04 0.0 
1.988911541531e-05 -3.047510083893e-06 0.0 
3.832303033336e-04 4.767569663581e-04 0.0 
2.567797833243e-04 1.001041676494e-04 0.0 
3.804812399911e-04 6.777298960235e-04 0.0 
3.454890404804e-04 8.940366670953e-04 0.0 
3.943389096906e-04 3.545784799584e-04 0.0 
1.431902822916e-04 2.392556703152e-05 0.0 
4.255060980843e-05 -6.292276183369e-06 0.0 
2.317173352589e-04 7.037508859243e-04 0.0 
1.341893850731e-04 2.867770980187e-04 0.0 
3.665550813309e-04 7.853541068240e-04 0.0 
1.280174999541e-04 -9.171402137343e-06 0.0 
2.073095301349e-04 7.199843253200e-05 0.0 
8.958684915718e-05 3.435748344985e-04 0.0 
2.491532214485e-04 6.663037610022e-05 0.0 
2.742199677843e-04 9.029415905290e-05 0.0 
1.462442894816e-04 -7.616937526448e-06 0.0 
2.440393674651e-04 6.220055817662e-04 0.0 
2.868747375510e-04 2.851345576945e-04 0.0 
2.560631743700e-04 6.453887941150e-05 0.0 
2.724952261494e-04 2.422600047045e-04 0.0 
1.694471544930e-04 2.530942629575e-05 0.0 
1.569772213250e-04 5.412303745742e-05 0.0 
1.422884989435e-04 -1.467709692218e-05 0.0 
2.324455820799e-05 -2.017442264916e-05 0.0 
1.646930085144e-04 2.785024519451e-04 0.0 
3.307867698484e-04 3.541093520884e-04 0.0 
1.191006009958e-04 -2.234842029215e-05 0.0 
1.798037875441e-04 5.961252336561e-05 0.0 
2.471167383703e-04 6.968787011509e-04 0.0 
5.196437223432e-05 -7.583161278334e-06 0.0 
1.949231836704e-04 3.238235383213e-05 0.0 
1.559988069017e-05 -2.169271934113e-05 0.0 
1.394704403228e-05 -2.138258850595e-06 0.0 
3.403346268112e-04 1.875836693900e-04 0.0 
2.095078660024e-04 3.833014983191e-05 0.0 
2.338845515816e-04 1.122922631236e-04 0.0 
9.835265760355e-07 -1.796264674977e-05 0.0 
5.608242569262e-05 -7.082597132937e-06 0.0 
1.123464795836e-04 3.456761755051e-05 0.0 
2.603984599731e-04 8.418270405579e-04 0.0 
5.183765881729e-05 -2.240480828895e-05 0.0 
1.500849533221e-04 -9.353529773458e-06 0.0 
2.653593663243e-05 -4.016086286628e-06 0.0 
2.773880063945e-04 8.709103923314e-05 0.0 
1.341804845105e-04 -1.166006008257e-05 0.0 
3.456728798152e-04 1.931935027983e-04 0.0 
1.685271900422e-05 -2.807705026145e-05 0.0 
3.099106487264e-04 1.519659920014e-04 0.0 
1.605273347958e-04 2.055165055913e-05 0.0 
1.807361308697e-04 1.178447432940e-04 0.0 
2.746194996718e-04 1.275979204454e-04 0.0 
9.101978468373e-05 -1.877019671218e-05 0.0 
4.061701141518e-05 -8.654595192240e-06 0.0 
7.843624991434e-05 2.746645797721e-04 0.0 
7.644047890099e-05 1.809849946956e-05 0.0 
1.613438734670e-04 2.719424916226e-05 0.0 
1.889070812670e-04 1.767973143791e-05 0.0 
3.336099120162e-04 1.738976804473e-04 0.0 
1.591716662634e-05 -3.403961517352e-06 0.0 
1.138518346271e-05 -2.421170127269e-05 0.0 
2.889778027178e-04 1.318072960980e-04 0.0 
2.162237735688e-04 7.849450809123e-04 0.0 
3.408797128894e-05 -5.086564862146e-06 0.0 
5.356346742707e-05 -4.888415659325e-06 0.0 
5.147782905586e-05 1.406057411920e-03 0.0 
3.439346208450e-05 1.405479187282e-03 0.0 
3.694766490693e-04 5.375570675690e-04 0.0 
3.175937852164e-04 1.529208144382e-04 0.0 
4.433307537078e-05 -2.004514158309e-05 0.0 
3.849303349004e-04 3.447276298369e-04 0.0 
2.569494792590e-04 6.599405397545e-05 0.0 
8.250879146932e-05 7.996001990746e-06 0.0 
1.991647466598e-04 2.759757188560e-05 0.0 
3.433347413677e-05 7.000233293624e-05 0.0 
3.373491813588e-04 1.034248935090e-03 0.0 
2.606780721982e-04 7.383195993561e-05 0.0 
5.648700897587e-05 -2.232504195954e-05 0.0 
8.498905015888e-05 -8.115822597864e-06 0.0 
5.958021613069e-05 -2.992610433764e-05 0.0 
3.347422642715e-04 1.715757605323e-04 0.0 
3.799438794191e-04 2.841785501800e-04 0.0 
2.629917548799e-04 7.640960222828e-04 0.0 
3.681409631017e-04 3.017743586565e-04 0.0 
3.524064536621e-04 2.880424072817e-04 0.0 
6.258713229610e-06 -5.083936603720e-05 0.0 
5.671229203673e-05 -3.239689279446e-05 0.0 
3.150668677513e-04 3.028645687807e-04 0.0 
4.007964167059e-04 4.663365582902e-04 0.0 
3.869829377369e-04 4.441870298379e-04 0.0 
1.190934829208e-04 1.791192512754e-05 0.0 
1.086079567501e-06 -4.726603556877e-05 0.0 
4.809392065180e-05 -3.238334340931e-05 0.0 
3.168895799732e-04 1.536531030691e-04 0.0 
5.213981158212e-05 -3.229468300043e-05 0.0 
2.944301785822e-04 1.277317330849e-03 0.0 
2.989108659501e-04 1.273735746015e-03 0.0 
2.789932549132e-04 7.527971416176e-04 0.0 
3.821542222644e-05 2.838834006359e-05 0.0 
5.018337311440e-05 -2.488202218221e-05 0.0 
1.134431666909e-04 1.674523389052e-06 0.0 
4.906467504607e-05 -2.730291701851e-05 0.0 
9.568021576658e-05 3.883490498861e-05 0.0 
1.524430760889e-04 4.239551248526e-04 0.0 
3.964793452401e-05 -2.708202764011e-05 0.0 
3.589535571285e-05 -6.921282922676e-06 0.0 
1.119189707862e-05 -5.282081444224e-05 0.0 
1.093798493383e-04 -3.305161798894e-06 0.0 
3.261863180640e-04 1.611654686503e-04 0.0 
8.588354138811e-06 -5.215761175037e-05 0.0 
1.407044644491e-04 4.236958560652e-04 0.0 
4.054176313720e-05 -2.324933575843e-05 0.0 
4.009950278095e-04 4.288668815971e-04 0.0 
3.675013943068e-04 2.490135453346e-04 0.0 
1.209681101694e-04 -2.385115032102e-05 0.0 
9.670968140182e-05 -1.587028288599e-05 0.0 
1.404756346586e-04 3.565642309561e-04 0.0 
9.117448467410e-05 -1.055857901014e-05 0.0 
2.978376660876e-04 1.163374428098e-04 0.0 
3.023681978358e-04 1.299278455475e-04 0.0 
-3.691625391380e-05 7.485101396540e-05 0.0 
3.191864932768e-05 -2.481723465641e-05 0.0 
2.414488896737e-04 9.664679732890e-05 0.0 
3.367630604018e-04 8.385629899039e-04 0.0 
2.151474056361e-04 8.117531280215e-05 0.0 
1.160125205894e-04 4.801254876617e-05 0.0 
2.900439592012e-04 4.216591726717e-04 0.0 
2.276062523123e-04 1.008744413621e-04 0.0 
3.258948753327e-04 1.182551571544e-03 0.0 
2.493519274308e-04 1.084894668586e-04 0.0 
3.270865010748e-05 -7.177841328628e-06 0.0 
3.090048408647e-04 1.316329246550e-04 0.0 
5.735318658107e-05 -2.740389461306e-05 0.0 
5.950387986380e-05 -2.482675467283e-05 0.0 
1.751678250787e-04 2.749790984421e-04 0.0 
9.908775958006e-05 -2.137304070839e-05 0.0 
3.586319949937e-04 2.217464073577e-04 0.0 
2.200738523189e-04 3.178240646717e-05 0.0 
8.242361985064e-05 -5.763663187615e-06 0.0 
2.365202221181e-04 5.257833784864e-05 0.0 
9.873949716314e-05 -2.165211946368e-05 0.0 
1.442357780218e-04 -9.556217785837e-06 0.0 
1.153145985205e-04 -1.272864424942e-05 0.0 
3.878103899862e-04 3.778014110877e-04 0.0 
1.102745776035e-04 -1.866138628788e-05 0.0 
3.879837902056e-04 3.193630042943e-04 0.0 
1.360066465620e-04 2.016505928260e-05 0.0 
1.452404180403e-04 1.867596567673e-05 0.0 
2.238530245301e-04 4.571790627312e-05 0.0 
2.928890075438e-04 8.165490753404e-04 0.0 
2.835995170460e-05 -5.618448023389e-06 0.0 
2.560581267017e-05 -5.832151455457e-06 0.0 
1.427381270037e-05 3.471761508066e-05 0.0 
3.734729317594e-04 2.813861160210e-04 0.0 
1.556676269422e-05 -1.958448871947e-06 0.0 
2.065982676299e-04 4.900647200585e-04 0.0 
3.890191606359e-05 -2.240182428150e-05 0.0 
-3.260731737805e-05 8.112219664147e-05 0.0 
2.168416810889e-05 -4.445694352470e-06 0.0 
9.449488130184e-05 -1.241999130705e-05 0.0 
9.398062457381e-06 -2.230984698026e-05 0.0 
2.205951934001e-04 4.627511719318e-05 0.0 
3.090460313560e-04 8.003577525905e-04 0.0 
3.207461022383e-04 8.602066782556e-04 0.0 
3.185208937659e-04 1.438434814834e-04 0.0 
2.598754707248e-04 1.210815996956e-03 0.0 
2.826688290649e-04 1.258645556410e-03 0.0 
1.933193798186e-05 -4.622335807281e-06 0.0 
9.750468148193e-05 -1.263622080684e-05 0.0 
1.237300773796e-04 -1.870565722168e-05 0.0 
1.164101841071e-04 -1.365711660104e-06 0.0 
1.427212130553e-04 -1.454447392160e-05 0.0 
1.072546146983e-04 -9.369172020099e-06 0.0 
2.470294573115e-04 1.295868271392e-03 0.0 
3.342283938047e-04 9.800848315039e-04 0.0 
4.330191504751e-05 1.449326583515e-03 0.0 
1.375393576763e-04 1.513460433838e-05 0.0 
2.123635067434e-04 3.386370468550e-05 0.0 
9.779887127549e-05 2.151019680406e-05 0.0 
8.062153004761e-06 -5.281003930653e-06 0.0 
1.483335048958e-04 -1.040751136982e-05 0.0 
1.297516031831e-05 -1.006922963663e-06 0.0 
1.109984139056e-04 -2.532199398217e-05 0.0 
1.270658837416e-04 3.046407637769e-05 0.0 
3.046936239269e-04 1.227407131646e-04 0.0 
2.819779853421e-04 1.001275515627e-04 0.0 
7.957407489933e-05 3.645554974194e-06 0.0 
5.995618498440e-05 -4.167687609670e-05 0.0 
3.701832487508e-04 2.540945602762e-04 0.0 
1.344621929350e-04 -1.759522656499e-05 0.0 
3.819892841372e-04 2.865947526856e-04 0.0 
1.351176042349e-04 5.377775215693e-05 0.0 
2.545290343506e-04 7.596898523551e-05 0.0 
1.284672874787e-04 -2.143299182258e-05 0.0 
4.866683577460e-05 -1.997781960426e-05 0.0 
3.917032019884e-04 3.225775638001e-04 0.0 
-2.368789678407e-05 4.332692862007e-05 0.0 
2.197197604517e-04 3.362701786568e-05 0.0 
-1.636305030247e-05 7.875053910085e-05 0.0 
1.725491182771e-05 -5.308335897705e-05 0.0 
4.307739287210e-05 -2.243471226223e-05 0.0 
2.960170588664e-04 1.763188981444e-04 0.0 
3.402609946792e-04 7.615259489076e-04 0.0 
1.807114084691e-04 9.714926003553e-04 0.0 
1.776204256035e-05 3.367278513432e-05 0.0 
-3.818954592989e-05 5.736549137862e-05 0.0 
2.265728938169e-04 1.115014444376e-03 0.0 
1.199541107477e-04 -1.705975259899e-05 0.0 
3.335176812881e-05 -2.457865538131e-05 0.0 
3.709942018667e-04 8.774837410037e-04 0.0 
9.842113418820e-05 -3.535468882505e-05 0.0 
1.015507952632e-04 -1.808029319266e-05 0.0 
3.217385869694e-04 1.486439399571e-04 0.0 
2.114182019413e-04 3.465705923651e-05 0.0 
2.784155869316e-04 2.378912522637e-04 0.0 
2.675754914247e-05 2.582624729908e-05 0.0 
4.386016792558e-05 -2.720536868839e-05 0.0 
3.097178559190e-05 -2.226472981194e-05 0.0 
3.927076797305e-05 -4.853102196224e-05 0.0 
3.202933482422e-04 1.164520728945e-03 0.0 
3.547930490734e-04 7.372939443326e-04 0.0 
2.945213869863e-06 -9.929800959037e-06 0.0 
9.687146317671e-06 -5.284251940714e-05 0.0 
-7.623140923982e-06 -1.269561081616e-05 0.0 
2.964807853194e-05 -5.343714810798e-05 0.0 
2.716044983647e-05 -2.219160225892e-05 0.0 
1.251877201292e-04 -2.289084917093e-05 0.0 
9.541831821315e-05 -3.559336009037e-05 0.0 
9.464797636927e-05 -2.664201545721e-05 0.0 
3.614221628735e-05 -2.007968121104e-05 0.0 
3.598251259609e-04 5.640551373238e-04 0.0 
2.475412089082e-05 -1.997536692065e-05 0.0 
1.319480866720e-04 -1.853110547687e-05 0.0 
3.653863081558e-04 2.521004831172e-04 0.0 
2.017477572378e-04 1.174437981652e-03 0.0 
1.974520955066e-04 4.322898546344e-05 0.0 
2.113394635715e-05 -1.995003820310e-05 0.0 
3.222947504981e-05 -2.005230650782e-05 0.0 
9.910354125536e-05 6.049456374326e-04 0.0 
1.207912339532e-04 -2.653892799850e-05 0.0 
1.869187230512e-05 -1.783557283648e-05 0.0 
8.055661096524e-06 8.785300958858e-04 0.0 
8.753728818690e-06 1.024864103436e-03 0.0 
1.416330742902e-04 7.836588012214e-04 0.0 
2.948512137441e-05 -1.783568706266e-05 0.0 
8.086002427263e-05 -4.162488946787e-05 0.0 
2.329138160209e-06 9.086947020928e-05 0.0 
1.212407530217e-04 2.680800118483e-05 0.0 
3.177823085356e-05 -5.439423338417e-05 0.0 
8.285583075454e-05 -4.055905685079e-05 0.0 
2.267265008195e-04 3.736639499929e-05 0.0 
1.687680803132e-04 1.116341360063e-03 0.0 
1.521437870505e-05 -1.785643940599e-05 0.0 
2.453501558186e-06 -4.357164901515e-05 0.0 
3.228799468051e-04 1.114206188597e-03 0.0 
2.582110297086e-05 -1.783187502850e-05 0.0 
1.119166416919e-04 -2.414878691294e-05 0.0 
4.575686757304e-05 -2.484460417666e-05 0.0 
-1.537438543605e-05 2.588289434695e-05 0.0 
1.054391143622e-05 4.494988199428e-04 0.0 
1.016744944466e-04 -3.370718163486e-05 0.0 
1.012325340175e-04 1.061251887049e-05 0.0 
2.699417158405e-04 8.590779376664e-05 0.0 
2.315751887265e-05 -1.573362504031e-05 0.0 
1.964846274058e-05 -1.576265156583e-05 0.0 
1.154410528362e-04 -2.623765358300e-05 0.0 
2.381039679503e-05 -5.507786719262e-05 0.0 
-1.645579933863e-05 3.594109749969e-05 0.0 
1.705038079574e-05 -1.377248007577e-05 0.0 
8.492853669000e-05 5.122614224938e-06 0.0 
6.745369441742e-05 -4.459131439998e-05 0.0 
3.483287485182e-04 2.211699124034e-04 0.0 
1.534678237636e-04 3.907643690573e-04 0.0 
3.630386794458e-04 2.736483205046e-04 0.0 
2.685540736406e-05 1.616756989061e-06 0.0 
-2.501578871013e-05 -6.096220610608e-06 0.0 
1.588985599730e-06 3.900665412086e-05 0.0 
5.856879018727e-07 -8.428471749767e-08 0.0 
5.357826296167e-06 1.256878605084e-03 0.0 
8.458997686584e-05 -3.758762317351e-05 0.0 
2.962920853964e-04 1.134116633037e-04 0.0 
1.276807360796e-04 -1.725066088427e-05 0.0 
1.694807825696e-05 -5.403891339258e-05 0.0 
-3.394206444965e-05 6.238077314968e-05 0.0 
4.527945893924e-05 3.222432572879e-04 0.0 
3.659659836932e-04 6.348806576483e-04 0.0 
2.978639280951e-04 1.251138227214e-03 0.0 
4.496196494509e-05 1.633432476695e-05 0.0 
2.243718737170e-06 -4.613293361252e-05 0.0 
4.001602745178e-05 1.312303067828e-05 0.0 
3.536805490044e-04 6.619209022862e-04 0.0 
6.921523713791e-05 -3.924300992973e-05 0.0 
2.951985616620e-04 1.093199102869e-04 0.0 
7.895816424840e-05 -4.011045359606e-05 0.0 
1.108192597210e-05 1.167531007129e-04 0.0 
6.860921344899e-05 -4.302436632522e-05 0.0 
3.581434935852e-04 4.721622807003e-04 0.0 
8.000765877529e-06 -3.913540813775e-06 0.0 
9.482494709235e-05 -3.655628079711e-05 0.0 
3.433511013953e-04 2.382656766194e-04 0.0 
-1.811145354155e-05 -1.385653450766e-05 0.0 
1.123957897644e-04 -2.980943727380e-05 0.0 
3.050108519899e-04 4.883603297661e-04 0.0 
5.552080066115e-05 -4.371203335312e-05 0.0 
5.788582602040e-05 -4.697307332271e-05 0.0 
2.818873339310e-04 9.257129526931e-05 0.0 
3.827621083974e-05 -4.560928658472e-05 0.0 
1.148901013390e-05 3.872216901884e-04 0.0 
4.466496958597e-05 4.853818722982e-04 0.0 
5.037661568864e-05 -4.729766899503e-05 0.0 
1.126324157371e-04 -1.881181339020e-05 0.0 
2.352400351580e-04 4.681365092847e-05 0.0 
3.367277940713e-04 2.150729014219e-04 0.0 
1.910834444453e-04 1.782989642724e-04 0.0 
9.738911970616e-05 7.290382144779e-04 0.0 
1.519522048894e-05 7.268006506757e-04 0.0 
1.800198873563e-04 1.006692320241e-04 0.0 
1.164777306061e-04 -2.069474497751e-05 0.0 
-2.056866390319e-05 9.446310368546e-05 0.0 
1.961195857121e-04 4.171980968849e-04 0.0 
1.024312138912e-04 -2.356337922891e-05 0.0 
3.545081686773e-04 3.135918510532e-04 0.0 
1.092244230651e-04 -2.225808463367e-05 0.0 
7.656170560027e-06 2.236207411810e-05 0.0 
1.100097984281e-04 -1.338267208817e-05 0.0 
2.303803137604e-05 1.484647475848e-04 0.0 
2.231912536565e-04 3.568780045518e-05 0.0 
1.083022422464e-04 -1.682436046970e-05 0.0 
2.709445881637e-04 8.244329049007e-05 0.0 
5.672672834307e-05 9.074320375496e-04 0.0 
4.676792350970e-05 -4.723423088699e-05 0.0 
-4.163875736918e-06 6.957295175594e-05 0.0 
1.040533515250e-04 -1.140454273198e-05 0.0 
3.969799768460e-05 1.888913376521e-04 0.0 
-9.870608588242e-06 -6.176911060993e-06 0.0 
3.967053900301e-06 2.936545010433e-04 0.0 
5.295064497604e-06 4.387505345533e-04 0.0 
1.621969311314e-05 -5.545360679795e-05 0.0 
1.038747570820e-04 -8.125659416554e-06 0.0 
3.449149547010e-05 -5.129076862867e-05 0.0 
3.549505660558e-05 -4.983875708819e-05 0.0 
3.011478986505e-04 1.941188196175e-04 0.0 
2.584723300439e-04 6.939100543541e-05 0.0 
3.144844743119e-04 1.859145070854e-04 0.0 
1.063253333825e-04 -3.248556289971e-05 0.0 
9.622878558054e-05 1.456183305198e-03 0.0 
1.853014606950e-05 8.706644631697e-07 0.0 
3.094366487026e-05 -5.229689302280e-05 0.0 
1.162636564665e-04 1.132935602307e-05 0.0 
2.441444415491e-04 5.302778321989e-05 0.0 
7.804910929918e-06 -4.905538866012e-05 0.0 
3.724938920572e-04 3.893135257360e-04 0.0 
1.277258668785e-04 -2.317458612543e-05 0.0 
2.024317775662e-05 -5.315109768336e-05 0.0 
1.005104830399e-04 -3.270669670403e-05 0.0 
1.573493098242e-06 -1.165285609052e-05 0.0 
3.647899953417e-04 4.457108596454e-04 0.0 
2.938816357531e-05 -5.490849729097e-05 0.0 
6.318638099849e-06 -2.278690681520e-05 0.0 
3.301916900308e-04 2.485578962664e-04 0.0 
1.872747619640e-04 4.414302889895e-05 0.0 
5.904329139638e-05 -4.541790067138e-05 0.0 
4.979594638697e-06 -4.348592824910e-05 0.0 
2.387483085482e-04 4.748592127872e-05 0.0 
4.200910531060e-06 9.550101149854e-04 0.0 
1.872411644963e-05 -5.004780998535e-05 0.0 
1.254280613301e-04 6.086560667261e-05 0.0 
1.119699952802e-04 1.192812326326e-04 0.0 
1.880398903864e-05 1.158381097553e-03 0.0 
7.925945777090e-05 2.124446004033e-04 0.0 
1.137873351964e-04 9.344872477316e-05 0.0 
1.078127967058e-04 -3.174702588908e-05 0.0 
8.935102630248e-05 -3.803729783235e-05 0.0 
5.722874261876e-05 9.656866582112e-06 0.0 
-2.480599227941e-05 1.098106924201e-06 0.0 
1.157639169668e-06 -4.489798296633e-05 0.0 
4.664815700360e-06 -2.116450485082e-05 0.0 
5.501724739954e-05 -4.556389343671e-05 0.0 
8.558932288548e-05 -4.001210062899e-05 0.0 
-1.974708627150e-05 2.536221519934e-04 0.0 
-7.756177108969e-06 3.102798957714e-04 0.0 
1.735784297790e-04 1.174003886328e-03 0.0 
1.095837553968e-04 -2.979189981280e-05 0.0 
1.324502755121e-05 -4.328972731546e-05 0.0 
2.285486782350e-04 6.774089047147e-05 0.0 
6.136538022865e-06 2.463519892686e-07 0.0 
8.129204366247e-06 4.068130636581e-07 0.0 
9.008997708659e-05 -3.658772123800e-05 0.0 
2.169166127819e-04 1.245816938987e-03 0.0 
-1.121133211971e-05 -1.595476695496e-05 0.0 
-2.803190955805e-05 1.639181844471e-04 0.0 
3.343180932948e-05 -4.357376907204e-05 0.0 
-2.393502219660e-05 2.039948372068e-04 0.0 
2.435804156747e-04 5.288016301581e-05 0.0 
7.182886035699e-05 -4.386649189627e-05 0.0 
9.305905015726e-05 -3.746525097668e-05 0.0 
9.432829080197e-06 -3.354679127359e-05 0.0 
1.213771342740e-05 3.968337895857e-04 0.0 
7.796296892121e-05 -4.163231067899e-05 0.0 
3.922252562343e-05 3.151371583679e-04 0.0 
3.181489539652e-05 5.273462280405e-04 0.0 
4.772373019925e-06 8.615799549855e-05 0.0 
1.317336981064e-06 -1.475191528698e-07 0.0 
9.910644583798e-06 1.174750760509e-03 0.0 
7.397957471574e-05 -4.077768673858e-05 0.0 
5.635770757365e-06 4.517583693185e-04 0.0 
7.417625807826e-05 -3.888549483417e-05 0.0 
2.296675087140e-06 4.935180724884e-08 0.0 
-3.160464382050e-05 1.036618880471e-04 0.0 
-3.034709090098e-05 1.309769450661e-04 0.0 
1.137327333476e-04 1.528365399418e-05 0.0 
1.618241205451e-04 1.309546002650e-03 0.0 
2.336065525535e-05 3.021265478453e-04 0.0 
3.262386214199e-04 2.269072037561e-04 0.0 
1.580763038609e-04 4.192219405335e-05 0.0 
3.050726116831e-04 2.835199049513e-04 0.0 
6.419595217035e-05 1.125216779290e-03 0.0 
4.922562980421e-05 -4.883524892094e-05 0.0 
5.270879613913e-05 -4.865664601396e-05 0.0 
1.885831931274e-05 7.998769696407e-04 0.0 
1.833077067328e-04 5.013679783127e-05 0.0 
2.641528127396e-04 1.299378980276e-03 0.0 
3.391267105805e-05 1.321771717689e-03 0.0 
4.093347441910e-05 1.192627905945e-03 0.0 
7.359219086554e-05 1.142891489197e-03 0.0 
2.480853669272e-05 -3.195264349173e-05 0.0 
4.453915848360e-05 -5.026348692651e-05 0.0 
3.552592028036e-05 1.916220010696e-04 0.0 
7.227182376494e-05 9.862803804305e-04 0.0 
5.296021536694e-05 1.256917527405e-05 0.0 
2.031297982783e-04 1.785185265068e-04 0.0 
3.731227332028e-04 3.603975836788e-04 0.0 
1.160027983321e-04 2.915709574185e-04 0.0 
2.049899678739e-05 -3.478651870744e-05 0.0 
1.963276487090e-05 -3.847885490461e-05 0.0 
3.223581675465e-05 5.911254898554e-07 0.0 
1.943550158909e-06 -3.275466966833e-05 0.0 
6.086407485551e-06 -4.467090704713e-05 0.0 
2.090620539591e-05 7.168315054928e-06 0.0 
1.714691362260e-06 -5.014676301710e-05 0.0 
4.196426017328e-05 1.277872589302e-03 0.0 
7.101421021875e-05 8.197328578597e-06 0.0 
1.832996074712e-05 -5.619425770662e-05 0.0 
1.388246861394e-05 -5.541841766594e-05 0.0 
2.230726920632e-05 7.296595073317e-05 0.0 
1.396252459399e-04 1.410717155745e-03 0.0 
5.317099103377e-05 2.058088337409e-04 0.0 
7.451130968843e-05 1.154663067703e-05 0.0 
1.220566149706e-04 1.413767330864e-03 0.0 
-1.741579510540e-05 5.973619619445e-07 0.0 
8.269386751900e-06 1.615869991716e-04 0.0 
1.588424661091e-05 -5.251981388934e-05 0.0 
5.853103181302e-05 2.699834963321e-04 0.0 
1.782033456693e-06 5.748993627526e-09 0.0 
1.817076758300e-04 1.991424194556e-04 0.0 
3.988214891361e-05 -3.372365207147e-05 0.0 
2.487010513244e-04 1.130901653056e-03 0.0 
1.239803770110e-05 -3.419439697944e-05 0.0 
2.182097225967e-04 5.887487622482e-05 0.0 
2.833322609459e-05 7.060255013277e-06 0.0 
1.827268237142e-05 6.524735742390e-04 0.0 
2.590235301537e-05 5.780576523338e-06 0.0 
9.521052984111e-06 -2.873812315196e-05 0.0 
1.091579613653e-05 -2.168578904327e-07 0.0 
4.659580355337e-05 -4.101454839818e-05 0.0 
7.840398978688e-06 -5.074633432646e-05 0.0 
3.805046012448e-05 4.272181712867e-06 0.0 
9.520541594970e-05 1.667120221199e-04 0.0 
4.861166321503e-05 1.428101413142e-04 0.0 
9.360306298048e-05 1.305382251473e-03 0.0 
3.190358938500e-04 9.975772807724e-04 0.0 
1.474517066508e-05 9.744915068523e-05 0.0 
1.316265910521e-04 1.034586227877e-04 0.0 
9.950644484438e-06 -3.904029297846e-05 0.0 
-4.795202343496e-06 4.004699813092e-05 0.0 
1.972236289910e-04 5.121491486152e-05 0.0 
7.688324921030e-05 1.457587920485e-03 0.0 
1.271493308258e-04 2.287502147695e-04 0.0 
6.695471581570e-07 8.192143162042e-05 0.0 
6.695471581570e-07 3.455952736651e-05 0.0 
1.599123100070e-06 -5.384952017207e-05 0.0 
6.664421843461e-07 -5.341767610484e-05 0.0 
4.168300169828e-06 1.402363823632e-03 0.0 
9.939951930561e-06 1.453271888949e-03 0.0 
2.267989922814e-07 -8.029439579681e-08 0.0 
2.267989922814e-07 -2.439197771588e-07 0.0 
2.922743573065e-06 -5.293610295519e-05 0.0 
-1.110289527582e-05 -2.597374243416e-05 0.0 
1.076385255091e-05 -1.375390927765e-06 0.0 
1.654402693896e-04 6.113718588720e-05 0.0 
1.424149491547e-05 -5.109416182330e-05 0.0 
1.845986742429e-05 -5.369426130342e-07 0.0 
2.753985858538e-06 -1.768113382122e-05 0.0 
2.884681622611e-06 -2.563843105698e-05 0.0 
4.928064138296e-05 9.284679517561e-04 0.0 
3.151883086854e-05 -4.920000868956e-05 0.0 
2.431857917727e-04 6.504290029850e-05 0.0 
1.425479950620e-05 -5.278556443118e-05 0.0 
1.722262660977e-05 -3.016542466309e-05 0.0 
1.741265348406e-04 1.408102698521e-04 0.0 
2.283527044058e-06 3.631317729402e-04 0.0 
5.562790505709e-06 -2.518437993807e-05 0.0 
3.130599636676e-05 1.077126916476e-03 0.0 
1.800516701323e-04 8.475560044585e-05 0.0 
2.807847375616e-04 2.251504024842e-04 0.0 
3.331590591896e-04 2.921994892313e-04 0.0 
1.052051651353e-04 1.409001856536e-03 0.0 
2.343443768333e-04 5.173564546846e-05 0.0 
1.546197808010e-04 2.211128794702e-04 0.0 
8.729937215399e-06 -4.455302999354e-05 0.0 
1.558049158685e-05 -5.586685362085e-05 0.0 
2.127608040414e-04 1.044249465188e-04 0.0 
1.229448366248e-04 1.399542681089e-05 0.0 
2.639646217358e-05 -4.856343801545e-05 0.0 
2.606511875475e-05 8.158054135094e-04 0.0 
5.881906428999e-06 -4.242426713403e-07 0.0 
2.006605200290e-04 8.366001109568e-05 0.0 
1.716995158438e-04 7.188396676529e-05 0.0 
3.303192473171e-06 -1.380971222296e-05 0.0 
-2.218811586105e-05 2.485545959096e-05 0.0 
-2.761236025662e-05 2.921494627108e-04 0.0 
4.260381593197e-05 1.592247699038e-04 0.0 
2.650279118189e-04 1.072668253440e-03 0.0 
2.461262151428e-04 6.192942377497e-05 0.0 
4.535978834673e-05 2.624032697160e-04 0.0 
5.090611219289e-05 9.563835334488e-06 0.0 
1.719915863175e-05 -5.159507076077e-05 0.0 
1.871603228465e-05 -5.552354759561e-05 0.0 
-3.421966404228e-05 1.894690241644e-04 0.0 
4.326606968082e-05 7.484800438591e-04 0.0 
1.510697346852e-05 -4.173342283389e-05 0.0 
1.085579969803e-04 2.316126033255e-04 0.0 
8.629853946480e-06 -5.000209698415e-05 0.0 
8.795118607772e-05 1.506342629372e-05 0.0 
1.611127774832e-04 1.165224822488e-03 0.0 
7.390850899129e-05 2.178062048387e-05 0.0 
2.158855309611e-04 6.666080406033e-05 0.0 
2.915674005170e-04 1.042877937546e-03 0.0 
2.991926619794e-05 2.340942354705e-06 0.0 
8.421546145006e-05 1.679789022741e-04 0.0 
6.769526187948e-06 1.892827477783e-04 0.0 
-3.626993939476e-05 1.213558139812e-04 0.0 
1.060113026320e-04 2.879871087277e-04 0.0 
1.059672389020e-04 5.378144410158e-05 0.0 
8.772353794874e-05 1.360556158914e-05 0.0 
1.916306530647e-04 5.671667278343e-05 0.0 
3.288124380437e-06 1.430370908888e-07 0.0 
3.320623856795e-04 3.134440715794e-04 0.0 
-3.689047021300e-05 3.473018681881e-05 0.0 
-9.478869871593e-07 5.602834853924e-05 0.0 
2.466417754001e-04 2.077852515818e-04 0.0 
2.474869855700e-04 9.957305674713e-04 0.0 
5.563178141115e-06 -1.797806815144e-06 0.0 
1.723876900311e-04 5.306585707072e-05 0.0 
1.155631946263e-05 2.294257941432e-07 0.0 
3.847818569392e-05 5.988965649857e-04 0.0 
6.569590361626e-05 1.758579462180e-05 0.0 
3.653302386900e-05 1.629243351382e-06 0.0 
3.909647446974e-05 2.216385319438e-06 0.0 
1.103870752778e-05 -4.045191172651e-05 0.0 
5.145088729568e-06 1.526667056286e-07 0.0 
2.029328410454e-04 1.302997559473e-03 0.0 
2.837263993046e-05 3.060232979222e-04 0.0 
2.058506942460e-05 -5.498581725414e-05 0.0 
1.813005769562e-05 4.257272597921e-04 0.0 
3.938845807862e-05 8.086933698160e-04 0.0 
1.533917634133e-06 -5.158446996639e-05 0.0 
3.222978949836e-05 -3.021112457865e-05 0.0 
3.085384358231e-04 2.495344728237e-04 0.0 
3.888757803251e-05 1.554482319833e-04 0.0 
1.428237715213e-05 2.922151449269e-04 0.0 
8.275582949589e-05 2.076597600654e-05 0.0 
7.814414020050e-05 1.065023151908e-03 0.0 
1.592918334705e-05 -5.638138963940e-05 0.0 
-7.054686871737e-06 5.113536090820e-06 0.0 
1.647237954448e-05 -5.611838821039e-05 0.0 
2.341666043984e-05 -5.559397997517e-05 0.0 
-4.076908866177e-05 4.361016366344e-05 0.0 
1.540160815467e-05 -3.155006499628e-05 0.0 
7.008805747505e-06 -1.753989011368e-06 0.0 
1.801830820464e-04 2.126125778994e-04 0.0 
3.142795823621e-04 9.331728047155e-04 0.0 
2.186680960193e-05 -3.686202323754e-05 0.0 
3.100600745925e-05 9.053584771804e-08 0.0 
6.510990778002e-05 6.020380831171e-06 0.0 
9.119661596033e-05 2.807033352916e-05 0.0 
1.629030058203e-04 8.050150547061e-05 0.0 
2.510809122736e-04 1.868718231832e-04 0.0 
2.037751791035e-05 -5.585667222321e-05 0.0 
2.156332567840e-06 -2.364963414277e-05 0.0 
9.853726419343e-06 -1.604568289458e-06 0.0 
3.046942368493e-06 -5.139843537137e-05 0.0 
6.719290428944e-07 -5.088382429240e-05 0.0 
-2.580055799580e-05 5.464138609698e-05 0.0 
1.792932129988e-05 -5.597500743226e-05 0.0 
2.227829530228e-05 1.816861043151e-06 0.0 
1.077317225090e-04 6.912407997012e-05 0.0 
4.047507196367e-05 2.621906699276e-04 0.0 
7.485664828621e-05 2.438790057720e-05 0.0 
7.839874665605e-05 6.431035345922e-06 0.0 
6.371679894705e-05 9.816089567946e-04 0.0 
1.020950884662e-05 3.033862892448e-05 0.0 
4.540081494058e-05 -4.429420090686e-05 0.0 
1.300450224143e-04 1.460350388643e-03 0.0 
2.323414246507e-05 -5.028651400731e-05 0.0 
1.340338192296e-05 -5.487921304031e-05 0.0 
3.431401301576e-06 -3.395883974017e-08 0.0 
2.768060132034e-04 1.211591727412e-03 0.0 
8.934681410312e-06 -5.145428117022e-05 0.0 
1.081800475037e-05 -3.230027203856e-05 0.0 
1.266476018302e-04 8.774355719875e-05 0.0 
6.571552876262e-05 2.766092349773e-04 0.0 
8.077155621810e-05 1.276141858238e-04 0.0 
6.586961221175e-06 -4.201369224291e-05 0.0 
-3.197243367230e-06 -3.829152764957e-06 0.0 
1.549189400516e-05 1.437220584124e-07 0.0 
2.258532757887e-06 7.356618148736e-05 0.0 
8.124868941541e-07 -1.645791132945e-07 0.0 
9.526126465995e-06 1.321309201791e-03 0.0 
5.946216154453e-05 6.764299503353e-06 0.0 
1.055876825937e-05 -5.127655984568e-05 0.0 
1.012785463635e-04 2.346679333860e-04 0.0 
1.473022041098e-05 -5.551149672244e-05 0.0 
2.819084683729e-05 3.267430096642e-06 0.0 
1.064473518734e-04 1.635765991846e-04 0.0 
-1.603260811607e-05 8.244167163757e-06 0.0 
1.961047111098e-04 7.580355206552e-05 0.0 
3.767560938984e-05 6.701446562692e-04 0.0 
2.536154757236e-05 1.484106662867e-04 0.0 
1.113217621098e-05 2.626014042848e-06 0.0 
1.533591894853e-05 8.759746036048e-04 0.0 
1.050123692802e-04 7.586755331320e-05 0.0 
1.355319879906e-04 2.255236285630e-04 0.0 
3.092101575202e-05 7.699368251542e-04 0.0 
1.654298547505e-04 1.186260845164e-04 0.0 
1.194084235944e-05 -3.757006435233e-05 0.0 
6.769404307916e-05 1.413112205644e-03 0.0 
1.291045527990e-04 4.307968789460e-05 0.0 
2.353074014400e-06 1.567685216048e-04 0.0 
2.993435897551e-06 -5.359884339801e-05 0.0 
1.849599922989e-05 1.410444598386e-03 0.0 
7.342401278975e-07 -5.498814076669e-07 0.0 
1.603272763983e-05 -5.144629656817e-05 0.0 
7.895813518601e-05 1.068168949151e-05 0.0 
1.660996396232e-04 2.238201626192e-04 0.0 
2.952209127429e-05 1.929723596060e-04 0.0 
1.044277530866e-05 -5.032768350581e-05 0.0 
-8.660085295932e-06 3.505437682318e-05 0.0 
1.178894007287e-06 -2.356839401727e-05 0.0 
1.519259684011e-05 5.199004327459e-04 0.0 
-1.787845819263e-05 -1.957914258294e-05 0.0 
6.299884774780e-05 1.317355677836e-04 0.0 
2.757322881303e-05 9.046769013106e-04 0.0 
3.102322284883e-05 -5.112887158634e-05 0.0 
5.139037068986e-05 1.013022248631e-03 0.0 
9.963774537856e-05 3.418220138652e-05 0.0 
2.203180490895e-06 -2.149194093397e-05 0.0 
-3.601961486998e-05 4.782156535512e-05 0.0 
1.393681659246e-05 -4.024996619754e-05 0.0 
1.549258181512e-05 -2.800108995665e-05 0.0 
1.024286483609e-06 -1.945648702174e-05 0.0 
1.099393525903e-04 2.783374853390e-05 0.0 
8.028064430803e-06 -2.848226164465e-05 0.0 
1.027397123695e-05 -2.595345347008e-05 0.0 
1.644938104493e-05 -5.542961877381e-05 0.0 
2.000995508500e-05 -3.632890127426e-07 0.0 
2.183033210499e-04 1.151319174934e-04 0.0 
6.173954803024e-06 3.261341934904e-05 0.0 
3.942059614130e-06 1.484132714717e-04 0.0 
1.319928029770e-06 -4.705407438026e-07 0.0 
1.808217376533e-05 1.329244121325e-03 0.0 
2.071258933660e-05 9.371664610905e-04 0.0 
1.107255680477e-05 -2.905294591034e-05 0.0 
1.234614234315e-05 -2.766138284097e-05 0.0 
7.531002637480e-06 -2.644907230051e-05 0.0 
9.989960156105e-05 1.376258334163e-05 0.0 
2.617618678662e-05 -5.169801238887e-05 0.0 
1.875900948799e-04 9.920929663749e-05 0.0 
3.321918245938e-05 1.161465814570e-03 0.0 
7.574539984937e-05 1.736909950022e-04 0.0 
9.408058238917e-05 1.175751900576e-05 0.0 
6.019287668741e-05 1.042677018366e-03 0.0 
2.211023493344e-04 1.737347481421e-04 0.0 
1.125730859153e-04 3.052915830244e-05 0.0 
8.574102680267e-05 2.400230165827e-05 0.0 
-2.965947217801e-05 4.152238964926e-05 0.0 
2.231723355780e-04 1.655621695230e-04 0.0 
1.898575824500e-04 1.329586848439e-04 0.0 
1.554573559292e-05 -5.517533432907e-05 0.0 
1.239797782164e-05 -3.077729335921e-05 0.0 
-2.924110515757e-05 3.310912377290e-05 0.0 
1.862945659892e-04 1.441017276952e-04 0.0 
3.038494607795e-05 1.899153030080e-03 0.0 
3.455759561952e-05 1.848233399784e-03 0.0 
4.772885155652e-05 1.899990535128e-03 0.0 
5.151635202247e-05 1.849559490659e-03 0.0 
6.366102225818e-05 1.900966349933e-03 0.0 
6.817562426906e-05 1.850366984650e-03 0.0 
7.968906248827e-05 1.901487349671e-03 0.0 
8.435884786773e-05 1.850856621844e-03 0.0 
9.524630326652e-05 1.901601985467e-03 0.0 
9.982081147998e-05 1.850895708221e-03 0.0 
1.098684990980e-04 1.901064158306e-03 0.0 
1.142450435982e-04 1.850180212135e-03 0.0 
1.231318163887e-04 1.899438469900e-03 0.0 
1.273189391209e-04 1.848171158030e-03 0.0 
1.346737174141e-04 1.896127538244e-03 0.0 
1.253565552758e-04 1.428171939187e-03 0.0 
1.387430660357e-04 1.844268580082e-03 0.0 
1.473153439214e-04 1.456304370233e-03 0.0 
1.441193267246e-04 1.890505452220e-03 0.0 
1.481848290984e-04 1.837757855223e-03 0.0 
1.509749935182e-04 1.881734857027e-03 0.0 
1.552510038944e-04 1.827615453427e-03 0.0 
1.547419457495e-04 1.868593174437e-03 0.0 
1.596695180130e-04 1.812400977455e-03 0.0 
6.756608468953e-05 1.449539380144e-03 0.0 
1.550614983630e-04 1.849469221899e-03 0.0 
1.612996144849e-04 1.790304013939e-03 0.0 
1.516702505035e-04 1.822382348512e-03 0.0 
1.601495332646e-04 1.759119256616e-03 0.0 
1.443943536984e-04 1.785112534364e-03 0.0 
1.565508524407e-04 1.716070085438e-03 0.0 
1.332917855803e-04 1.733992312237e-03 0.0 
1.513440633162e-04 1.656434017952e-03 0.0 
1.465112943462e-04 1.574104846604e-03 0.0 
1.194566605695e-04 1.664181942801e-03 0.0 
1.598380953967e-04 1.327340942886e-03 0.0 
1.058011371585e-04 1.567364823715e-03 0.0 
1.020476248104e-04 1.348708383843e-03 0.0 
3.891810149278e-06 1.873141409061e-03 0.0 
1.930655934976e-05 1.873211867729e-03 0.0 
1.056038868214e-05 1.821400881907e-03 0.0 
1.263798081690e-05 1.924952394884e-03 0.0 
9.734631637615e-05 1.256455335443e-03 0.0 
2.413692464862e-05 1.694772742122e-03 0.0 
3.123572025172e-05 1.746328359147e-03 0.0 
4.194300161440e-05 1.696219966956e-03 0.0 
4.905237744815e-05 1.747693963125e-03 0.0 
5.908042648396e-05 1.697412829067e-03 0.0 
6.605900306917e-05 1.748678991318e-03 0.0 
7.565480419352e-05 1.698311363408e-03 0.0 
8.244121077287e-05 1.749368628913e-03 0.0 
9.168260918771e-05 1.698876809375e-03 0.0 
9.817475449603e-05 1.749658525061e-03 0.0 
1.071068056525e-04 1.698897047512e-03 0.0 
1.131294071367e-04 1.749250284502e-03 0.0 
1.218217350626e-04 1.697965895263e-03 0.0 
2.179586557483e-04 1.466520763878e-03 0.0 
1.271244942564e-04 1.747628511026e-03 0.0 
1.357081566966e-04 1.695541816294e-03 0.0 
1.930288557761e-04 1.500162462893e-03 0.0 
1.399719501827e-04 1.744225505136e-03 0.0 
1.486501726103e-04 1.690984605034e-03 0.0 
2.245377388207e-04 1.471184894833e-03 0.0 
1.514867908371e-04 1.738280082983e-03 0.0 
1.605731885933e-04 1.683372861134e-03 0.0 
1.615472372309e-04 1.728731229774e-03 0.0 
1.715030900988e-04 1.671468762889e-03 0.0 
1.701344290258e-04 1.714160789560e-03 0.0 
2.384796728328e-04 1.397374110346e-03 0.0 
1.815844005127e-04 1.653674420247e-03 0.0 
1.773576056217e-04 1.692749400182e-03 0.0 
1.835589176473e-04 1.662252998503e-03 0.0 
1.911376260230e-04 1.627961476643e-03 0.0 
1.895632553465e-04 1.619648568646e-03 0.0 
2.008161409869e-04 1.591824759461e-03 0.0 
1.963673882136e-04 1.560375583687e-03 0.0 
2.113275133834e-04 1.541512361181e-03 0.0 
2.135498728605e-04 1.431015809361e-03 0.0 
3.067161153430e-06 1.718958099700e-03 0.0 
1.555576429238e-05 1.719585019028e-03 0.0 
9.735739686291e-06 1.770249280526e-03 0.0 
8.887185759524e-06 1.668293838202e-03 0.0 
2.085465181935e-04 1.393897739590e-03 0.0 
2.323999787649e-05 1.592871826852e-03 0.0 
2.904537134300e-05 1.542395910986e-03 0.0 
4.064957947781e-05 1.594188434065e-03 0.0 
4.646575823049e-05 1.543731919016e-03 0.0 
5.778722940289e-05 1.595482317849e-03 0.0 
6.366761574371e-05 1.544986580580e-03 0.0 
7.455661394913e-05 1.596549463888e-03 0.0 
8.060026291622e-05 1.546005608302e-03 0.0 
9.093985157544e-05 1.597275688284e-03 0.0 
9.725903178166e-05 1.546607542050e-03 0.0 
1.069338405504e-04 1.597447185592e-03 0.0 
1.136825598465e-04 1.546518671035e-03 0.0 
2.491008505020e-04 1.426275856482e-03 0.0 
1.225478528746e-04 1.596684143716e-03 0.0 
2.480254237063e-04 1.417504148311e-03 0.0 
1.298378311043e-04 1.545246109291e-03 0.0 
1.376953757325e-04 1.594441166106e-03 0.0 
1.457839745365e-04 1.542230807231e-03 0.0 
1.524749779282e-04 1.590090557316e-03 0.0 
1.616395009624e-04 1.536676617760e-03 0.0 
1.669010934006e-04 1.582663443628e-03 0.0 
1.774836825501e-04 1.527416167445e-03 0.0 
2.373283475344e-04 1.466011635702e-03 0.0 
1.811116306106e-04 1.570863118065e-03 0.0 
1.935690400012e-04 1.512997595481e-03 0.0 
1.954104709763e-04 1.553116870993e-03 0.0 
2.102803231121e-04 1.491593199145e-03 0.0 
2.281359883106e-04 1.460776033513e-03 0.0 
2.102342730499e-04 1.527362824860e-03 0.0 
2.262965646234e-04 1.490946446253e-03 0.0 
2.651854282705e-04 1.375292427652e-03 0.0 
2.534129253028e-04 1.415028206872e-03 0.0 
2.835505211391e-06 1.566422076497e-03 0.0 
1.442718157822e-05 1.566847408577e-03 0.0 
8.607156972124e-06 1.515812342054e-03 0.0 
8.655529817484e-06 1.617457143020e-03 0.0 
2.555824417590e-04 1.401338243497e-03 0.0 

VECTORS element_materi_displacement float
0.0 0.0 0.0 
0.0 0.0 0.0 
0.0 0.0 0.0 
0.0 0.0 0.0 
0.0 0.0 0.0 
0.0 0.0 0.0 
0.0 0.0 0.0 
0.0 0.0 0.0 
0.0 0.0 0.0 
0.0 0.0 0.0 
0.0 0.0 0.0 
0.0 0.0 0.0 
0.0 0.0 0.0 
0.0 0.0 0.0 
0.0 0.0 0.0 
0.0 0.0 0.0 
0.0 0.0 0.0 
0.0 0.0 0.0 
0.0 0.0 0.0 
0.0 0.0 0.0 
0.0 0.0 0.0 
0.0 0.0 0.0 
0.0 0.0 0.0 
0.0 0.0 0.0 
0.0 0.0 0.0 
0.0 0.0 0.0 
0.0 0.0 0.0 
0.0 0.0 0.0 
0.0 0.0 0.0 
0.0 0.0 0.0 
0.0 0.0 0.0 
0.0 0.0 0.0 
0.0 0.0 0.0 
0.0 0.0 0.0 
0.0 0.0 0.0 
0.0 0.0 0.0 
0.0 0.0 0.0 
0.0 0.0 0.0 
0.0 0.0 0.0 
0.0 0.0 0.0 
0.0 0.0 0.0 
0.0 0.0 0.0 
0.0 0.0 0.0 
0.0 0.0 0.0 
0.0 0.0 0.0 
0.0 0.0 0.0 
0.0 0.0 0.0 
0.0 0.0 0.0 
0.0 0.0 0.0 
0.0 0.0 0.0 
0.0 0.0 0.0 
0.0 0.0 0.0 
0.0 0.0 0.0 
0.0 0.0 0.0 
0.0 0.0 0.0 
0.0 0.0 0.0 
0.0 0.0 0.0 
0.0 0.0 0.0 
0.0 0.0 0.0 
0.0 0.0 0.0 
0.0 0.0 0.0 
0.0 0.0 0.0 
0.0 0.0 0.0 
0.0 0.0 0.0 
0.0 0.0 0.0 
0.0 0.0 0.0 
0.0 0.0 0.0 
0.0 0.0 0.0 
0.0 0.0 0.0 
0.0 0.0 0.0 
0.0 0.0 0.0 
0.0 0.0 0.0 
0.0 0.0 0.0 
0.0 0.0 0.0 
0.0 0.0 0.0 
0.0 0.0 0.0 
0.0 0.0 0.0 
0.0 0.0 0.0 
0.0 0.0 0.0 
0.0 0.0 0.0 
0.0 0.0 0.0 
0.0 0.0 0.0 
0.0 0.0 0.0 
0.0 0.0 0.0 
0.0 0.0 0.0 
0.0 0.0 0.0 
0.0 0.0 0.0 
0.0 0.0 0.0 
0.0 0.0 0.0 
0.0 0.0 0.0 
0.0 0.0 0.0 
0.0 0.0 0.0 
0.0 0.0 0.0 
0.0 0.0 0.0 
0.0 0.0 0.0 
0.0 0.0 0.0 
0.0 0.0 0.0 
0.0 0.0 0.0 
0.0 0.0 0.0 
0.0 0.0 0.0 
0.0 0.0 0.0 
0.0 0.0 0.0 
0.0 0.0 0.0 
0.0 0.0 0.0 
0.0 0.0 0.0 
0.0 0.0 0.0 
0.0 0.0 0.0 
0.0 0.0 0.0 
0.0 0.0 0.0 
0.0 0.0 0.0 
0.0 0.0 0.0 
0.0 0.0 0.0 
0.0 0.0 0.0 
0.0 0.0 0.0 
0.0 0.0 0.0 
0.0 0.0 0.0 
0.0 0.0 0.0 
0.0 0.0 0.0 
0.0 0.0 0.0 
0.0 0.0 0.0 
0.0 0.0 0.0 
0.0 0.0 0.0 
0.0 0.0 0.0 
0.0 0.0 0.0 
0.0 0.0 0.0 
0.0 0.0 0.0 
0.0 0.0 0.0 
0.0 0.0 0.0 
0.0 0.0 0.0 
0.0 0.0 0.0 
0.0 0.0 0.0 
0.0 0.0 0.0 
0.0 0.0 0.0 
0.0 0.0 0.0 
0.0 0.0 0.0 
0.0 0.0 0.0 
0.0 0.0 0.0 
0.0 0.0 0.0 
0.0 0.0 0.0 
0.0 0.0 0.0 
0.0 0.0 0.0 
0.0 0.0 0.0 
0.0 0.0 0.0 
0.0 0.0 0.0 
0.0 0.0 0.0 
0.0 0.0 0.0 
0.0 0.0 0.0 
0.0 0.0 0.0 
0.0 0.0 0.0 
0.0 0.0 0.0 
0.0 0.0 0.0 
0.0 0.0 0.0 
0.0 0.0 0.0 
0.0 0.0 0.0 
0.0 0.0 0.0 
0.0 0.0 0.0 
0.0 0.0 0.0 
0.0 0.0 0.0 
0.0 0.0 0.0 
0.0 0.0 0.0 
0.0 0.0 0.0 
0.0 0.0 0.0 
0.0 0.0 0.0 
0.0 0.0 0.0 
0.0 0.0 0.0 
0.0 0.0 0.0 
0.0 0.0 0.0 
0.0 0.0 0.0 
0.0 0.0 0.0 
0.0 0.0 0.0 
0.0 0.0 0.0 
0.0 0.0 0.0 
0.0 0.0 0.0 
0.0 0.0 0.0 
0.0 0.0 0.0 
0.0 0.0 0.0 
0.0 0.0 0.0 
0.0 0.0 0.0 
0.0 0.0 0.0 
0.0 0.0 0.0 
0.0 0.0 0.0 
0.0 0.0 0.0 
0.0 0.0 0.0 
0.0 0.0 0.0 
0.0 0.0 0.0 
0.0 0.0 0.0 
0.0 0.0 0.0 
0.0 0.0 0.0 
0.0 0.0 0.0 
0.0 0.0 0.0 
0.0 0.0 0.0 
0.0 0.0 0.0 
0.0 0.0 0.0 
0.0 0.0 0.0 
0.0 0.0 0.0 
0.0 0.0 0.0 
0.0 0.0 0.0 
0.0 0.0 0.0 
0.0 0.0 0.0 
0.0 0.0 0.0 
0.0 0.0 0.0 
0.0 0.0 0.0 
0.0 0.0 0.0 
0.0 0.0 0.0 
0.0 0.0 0.0 
0.0 0.0 0.0 
0.0 0.0 0.0 
0.0 0.0 0.0 
0.0 0.0 0.0 
0.0 0.0 0.0 
0.0 0.0 0.0 
0.0 0.0 0.0 
0.0 0.0 0.0 
0.0 0.0 0.0 
0.0 0.0 0.0 
0.0 0.0 0.0 
0.0 0.0 0.0 
0.0 0.0 0.0 
0.0 0.0 0.0 
0.0 0.0 0.0 
0.0 0.0 0.0 
0.0 0.0 0.0 
0.0 0.0 0.0 
0.0 0.0 0.0 
0.0 0.0 0.0 
0.0 0.0 0.0 
0.0 0.0 0.0 
0.0 0.0 0.0 
0.0 0.0 0.0 
0.0 0.0 0.0 
0.0 0.0 0.0 
0.0 0.0 0.0 
0.0 0.0 0.0 
0.0 0.0 0.0 
0.0 0.0 0.0 
0.0 0.0 0.0 
0.0 0.0 0.0 
0.0 0.0 0.0 
0.0 0.0 0.0 
0.0 0.0 0.0 
0.0 0.0 0.0 
0.0 0.0 0.0 
0.0 0.0 0.0 
0.0 0.0 0.0 
0.0 0.0 0.0 
0.0 0.0 0.0 
0.0 0.0 0.0 
0.0 0.0 0.0 
0.0 0.0 0.0 
0.0 0.0 0.0 
0.0 0.0 0.0 
0.0 0.0 0.0 
0.0 0.0 0.0 
0.0 0.0 0.0 
0.0 0.0 0.0 
0.0 0.0 0.0 
0.0 0.0 0.0 
0.0 0.0 0.0 
0.0 0.0 0.0 
0.0 0.0 0.0 
0.0 0.0 0.0 
0.0 0.0 0.0 
0.0 0.0 0.0 
0.0 0.0 0.0 
0.0 0.0 0.0 
0.0 0.0 0.0 
0.0 0.0 0.0 
0.0 0.0 0.0 
0.0 0.0 0.0 
0.0 0.0 0.0 
0.0 0.0 0.0 
0.0 0.0 0.0 
0.0 0.0 0.0 
0.0 0.0 0.0 
0.0 0.0 0.0 
0.0 0.0 0.0 
0.0 0.0 0.0 
0.0 0.0 0.0 
0.0 0.0 0.0 
0.0 0.0 0.0 
0.0 0.0 0.0 
0.0 0.0 0.0 
0.0 0.0 0.0 
0.0 0.0 0.0 
0.0 0.0 0.0 
0.0 0.0 0.0 
0.0 0.0 0.0 
0.0 0.0 0.0 
0.0 0.0 0.0 
0.0 0.0 0.0 
0.0 0.0 0.0 
0.0 0.0 0.0 
0.0 0.0 0.0 
0.0 0.0 0.0 
0.0 0.0 0.0 
0.0 0.0 0.0 
0.0 0.0 0.0 
0.0 0.0 0.0 
0.0 0.0 0.0 
0.0 0.0 0.0 
0.0 0.0 0.0 
0.0 0.0 0.0 
0.0 0.0 0.0 
0.0 0.0 0.0 
0.0 0.0 0.0 
0.0 0.0 0.0 
0.0 0.0 0.0 
0.0 0.0 0.0 
0.0 0.0 0.0 
0.0 0.0 0.0 
0.0 0.0 0.0 
0.0 0.0 0.0 
0.0 0.0 0.0 
0.0 0.0 0.0 
0.0 0.0 0.0 
0.0 0.0 0.0 
0.0 0.0 0.0 
0.0 0.0 0.0 
0.0 0.0 0.0 
0.0 0.0 0.0 
0.0 0.0 0.0 
0.0 0.0 0.0 
0.0 0.0 0.0 
0.0 0.0 0.0 
0.0 0.0 0.0 
0.0 0.0 0.0 
0.0 0.0 0.0 
0.0 0.0 0.0 
0.0 0.0 0.0 
0.0 0.0 0.0 
0.0 0.0 0.0 
0.0 0.0 0.0 
0.0 0.0 0.0 
0.0 0.0 0.0 
0.0 0.0 0.0 
0.0 0.0 0.0 
0.0 0.0 0.0 
0.0 0.0 0.0 
0.0 0.0 0.0 
0.0 0.0 0.0 
0.0 0.0 0.0 
0.0 0.0 0.0 
0.0 0.0 0.0 
0.0 0.0 0.0 
0.0 0.0 0.0 
0.0 0.0 0.0 
0.0 0.0 0.0 
0.0 0.0 0.0 
0.0 0.0 0.0 
0.0 0.0 0.0 
0.0 0.0 0.0 
0.0 0.0 0.0 
0.0 0.0 0.0 
0.0 0.0 0.0 
0.0 0.0 0.0 
0.0 0.0 0.0 
0.0 0.0 0.0 
0.0 0.0 0.0 
0.0 0.0 0.0 
0.0 0.0 0.0 
0.0 0.0 0.0 
0.0 0.0 0.0 
0.0 0.0 0.0 
0.0 0.0 0.0 
0.0 0.0 0.0 
0.0 0.0 0.0 
0.0 0.0 0.0 
0.0 0.0 0.0 
0.0 0.0 0.0 
0.0 0.0 0.0 
0.0 0.0 0.0 
0.0 0.0 0.0 
0.0 0.0 0.0 
0.0 0.0 0.0 
0.0 0.0 0.0 
0.0 0.0 0.0 
0.0 0.0 0.0 
0.0 0.0 0.0 
0.0 0.0 0.0 
0.0 0.0 0.0 
0.0 0.0 0.0 
0.0 0.0 0.0 
0.0 0.0 0.0 
0.0 0.0 0.0 
0.0 0.0 0.0 
0.0 0.0 0.0 
0.0 0.0 0.0 
0.0 0.0 0.0 
0.0 0.0 0.0 
0.0 0.0 0.0 
0.0 0.0 0.0 
0.0 0.0 0.0 
0.0 0.0 0.0 
0.0 0.0 0.0 
0.0 0.0 0.0 
0.0 0.0 0.0 
0.0 0.0 0.0 
0.0 0.0 0.0 
0.0 0.0 0.0 
0.0 0.0 0.0 
0.0 0.0 0.0 
0.0 0.0 0.0 
0.0 0.0 0.0 
0.0 0.0 0.0 
0.0 0.0 0.0 
0.0 0.0 0.0 
0.0 0.0 0.0 
0.0 0.0 0.0 
0.0 0.0 0.0 
0.0 0.0 0.0 
0.0 0.0 0.0 
0.0 0.0 0.0 
0.0 0.0 0.0 
0.0 0.0 0.0 
0.0 0.0 0.0 
0.0 0.0 0.0 
0.0 0.0 0.0 
0.0 0.0 0.0 
0.0 0.0 0.0 
0.0 0.0 0.0 
0.0 0.0 0.0 
0.0 0.0 0.0 
0.0 0.0 0.0 
0.0 0.0 0.0 
0.0 0.0 0.0 
0.0 0.0 0.0 
0.0 0.0 0.0 
0.0 0.0 0.0 
0.0 0.0 0.0 
0.0 0.0 0.0 
0.0 0.0 0.0 
0.0 0.0 0.0 
0.0 0.0 0.0 
0.0 0.0 0.0 
0.0 0.0 0.0 
0.0 0.0 0.0 
0.0 0.0 0.0 
0.0 0.0 0.0 
0.0 0.0 0.0 
0.0 0.0 0.0 
0.0 0.0 0.0 
0.0 0.0 0.0 
0.0 0.0 0.0 
0.0 0.0 0.0 
0.0 0.0 0.0 
0.0 0.0 0.0 
0.0 0.0 0.0 
0.0 0.0 0.0 
0.0 0.0 0.0 
0.0 0.0 0.0 
0.0 0.0 0.0 
0.0 0.0 0.0 
0.0 0.0 0.0 
0.0 0.0 0.0 
0.0 0.0 0.0 
0.0 0.0 0.0 
0.0 0.0 0.0 
0.0 0.0 0.0 
0.0 0.0 0.0 
0.0 0.0 0.0 
0.0 0.0 0.0 
0.0 0.0 0.0 
0.0 0.0 0.0 
0.0 0.0 0.0 
0.0 0.0 0.0 
0.0 0.0 0.0 
0.0 0.0 0.0 
0.0 0.0 0.0 
0.0 0.0 0.0 
0.0 0.0 0.0 
0.0 0.0 0.0 
0.0 0.0 0.0 
0.0 0.0 0.0 
0.0 0.0 0.0 
0.0 0.0 0.0 
0.0 0.0 0.0 
0.0 0.0 0.0 
0.0 0.0 0.0 
0.0 0.0 0.0 
0.0 0.0 0.0 
0.0 0.0 0.0 
0.0 0.0 0.0 
0.0 0.0 0.0 
0.0 0.0 0.0 
0.0 0.0 0.0 
0.0 0.0 0.0 
0.0 0.0 0.0 
0.0 0.0 0.0 
0.0 0.0 0.0 
0.0 0.0 0.0 
0.0 0.0 0.0 
0.0 0.0 0.0 
0.0 0.0 0.0 
0.0 0.0 0.0 
0.0 0.0 0.0 
0.0 0.0 0.0 
0.0 0.0 0.0 
0.0 0.0 0.0 
0.0 0.0 0.0 
0.0 0.0 0.0 
0.0 0.0 0.0 
0.0 0.0 0.0 
0.0 0.0 0.0 
0.0 0.0 0.0 
0.0 0.0 0.0 
0.0 0.0 0.0 
0.0 0.0 0.0 
0.0 0.0 0.0 
0.0 0.0 0.0 
0.0 0.0 0.0 
0.0 0.0 0.0 
0.0 0.0 0.0 
0.0 0.0 0.0 
0.0 0.0 0.0 
0.0 0.0 0.0 
0.0 0.0 0.0 
0.0 0.0 0.0 
0.0 0.0 0.0 
0.0 0.0 0.0 
0.0 0.0 0.0 
0.0 0.0 0.0 
0.0 0.0 0.0 
0.0 0.0 0.0 
0.0 0.0 0.0 
0.0 0.0 0.0 
0.0 0.0 0.0 
0.0 0.0 0.0 
0.0 0.0 0.0 
0.0 0.0 0.0 
0.0 0.0 0.0 
0.0 0.0 0.0 
0.0 0.0 0.0 
0.0 0.0 0.0 
0.0 0.0 0.0 
0.0 0.0 0.0 
0.0 0.0 0.0 
0.0 0.0 0.0 
0.0 0.0 0.0 
0.0 0.0 0.0 
0.0 0.0 0.0 
0.0 0.0 0.0 
0.0 0.0 0.0 
0.0 0.0 0.0 
0.0 0.0 0.0 
0.0 0.0 0.0 
0.0 0.0 0.0 
0.0 0.0 0.0 
0.0 0.0 0.0 
0.0 0.0 0.0 
0.0 0.0 0.0 
0.0 0.0 0.0 
0.0 0.0 0.0 
0.0 0.0 0.0 
0.0 0.0 0.0 
0.0 0.0 0.0 
0.0 0.0 0.0 
0.0 0.0 0.0 
0.0 0.0 0.0 
0.0 0.0 0.0 
0.0 0.0 0.0 
0.0 0.0 0.0 
0.0 0.0 0.0 
0.0 0.0 0.0 
0.0 0.0 0.0 
0.0 0.0 0.0 
0.0 0.0 0.0 
0.0 0.0 0.0 
0.0 0.0 0.0 
0.0 0.0 0.0 
0.0 0.0 0.0 
0.0 0.0 0.0 
0.0 0.0 0.0 
0.0 0.0 0.0 
0.0 0.0 0.0 
0.0 0.0 0.0 
0.0 0.0 0.0 
0.0 0.0 0.0 
0.0 0.0 0.0 
0.0 0.0 0.0 
0.0 0.0 0.0 
0.0 0.0 0.0 
0.0 0.0 0.0 
0.0 0.0 0.0 
0.0 0.0 0.0 
0.0 0.0 0.0 
0.0 0.0 0.0 
0.0 0.0 0.0 
0.0 0.0 0.0 
0.0 0.0 0.0 
0.0 0.0 0.0 
0.0 0.0 0.0 
0.0 0.0 0.0 
0.0 0.0 0.0 
0.0 0.0 0.0 
0.0 0.0 0.0 
0.0 0.0 0.0 
0.0 0.0 0.0 
0.0 0.0 0.0 
0.0 0.0 0.0 
0.0 0.0 0.0 
0.0 0.0 0.0 
0.0 0.0 0.0 
0.0 0.0 0.0 
0.0 0.0 0.0 
0.0 0.0 0.0 
0.0 0.0 0.0 
0.0 0.0 0.0 
0.0 0.0 0.0 
0.0 0.0 0.0 
0.0 0.0 0.0 
0.0 0.0 0.0 
0.0 0.0 0.0 
0.0 0.0 0.0 
0.0 0.0 0.0 
0.0 0.0 0.0 
0.0 0.0 0.0 
0.0 0.0 0.0 
0.0 0.0 0.0 
0.0 0.0 0.0 
0.0 0.0 0.0 
0.0 0.0 0.0 
0.0 0.0 0.0 
0.0 0.0 0.0 
0.0 0.0 0.0 
0.0 0.0 0.0 
0.0 0.0 0.0 
0.0 0.0 0.0 
0.0 0.0 0.0 
0.0 0.0 0.0 
0.0 0.0 0.0 
0.0 0.0 0.0 
0.0 0.0 0.0 
0.0 0.0 0.0 
0.0 0.0 0.0 
0.0 0.0 0.0 
0.0 0.0 0.0 
0.0 0.0 0.0 
0.0 0.0 0.0 
0.0 0.0 0.0 
0.0 0.0 0.0 
0.0 0.0 0.0 
0.0 0.0 0.0 
0.0 0.0 0.0 
0.0 0.0 0.0 
0.0 0.0 0.0 
0.0 0.0 0.0 
0.0 0.0 0.0 
0.0 0.0 0.0 
0.0 0.0 0.0 
0.0 0.0 0.0 
0.0 0.0 0.0 
0.0 0.0 0.0 
0.0 0.0 0.0 
0.0 0.0 0.0 
0.0 0.0 0.0 
0.0 0.0 0.0 
0.0 0.0 0.0 
0.0 0.0 0.0 
0.0 0.0 0.0 
0.0 0.0 0.0 
0.0 0.0 0.0 
0.0 0.0 0.0 
0.0 0.0 0.0 
0.0 0.0 0.0 
0.0 0.0 0.0 
0.0 0.0 0.0 
0.0 0.0 0.0 
0.0 0.0 0.0 
0.0 0.0 0.0 
0.0 0.0 0.0 
0.0 0.0 0.0 
0.0 0.0 0.0 
0.0 0.0 0.0 
0.0 0.0 0.0 
0.0 0.0 0.0 
0.0 0.0 0.0 
0.0 0.0 0.0 
0.0 0.0 0.0 
0.0 0.0 0.0 
0.0 0.0 0.0 
0.0 0.0 0.0 
0.0 0.0 0.0 
0.0 0.0 0.0 
0.0 0.0 0.0 
0.0 0.0 0.0 
0.0 0.0 0.0 
0.0 0.0 0.0 
0.0 0.0 0.0 
0.0 0.0 0.0 
0.0 0.0 0.0 
0.0 0.0 0.0 
0.0 0.0 0.0 
0.0 0.0 0.0 
0.0 0.0 0.0 
0.0 0.0 0.0 
0.0 0.0 0.0 
0.0 0.0 0.0 
0.0 0.0 0.0 
0.0 0.0 0.0 
0.0 0.0 0.0 
0.0 0.0 0.0 
0.0 0.0 0.0 
0.0 0.0 0.0 
0.0 0.0 0.0 
0.0 0.0 0.0 
0.0 0.0 0.0 
0.0 0.0 0.0 
0.0 0.0 0.0 
0.0 0.0 0.0 
0.0 0.0 0.0 
0.0 0.0 0.0 
0.0 0.0 0.0 
0.0 0.0 0.0 
0.0 0.0 0.0 
0.0 0.0 0.0 
0.0 0.0 0.0 
0.0 0.0 0.0 
0.0 0.0 0.0 
0.0 0.0 0.0 
0.0 0.0 0.0 
0.0 0.0 0.0 
0.0 0.0 0.0 
0.0 0.0 0.0 
0.0 0.0 0.0 
0.0 0.0 0.0 
0.0 0.0 0.0 
0.0 0.0 0.0 
0.0 0.0 0.0 
0.0 0.0 0.0 
0.0 0.0 0.0 
0.0 0.0 0.0 
0.0 0.0 0.0 
0.0 0.0 0.0 
0.0 0.0 0.0 
0.0 0.0 0.0 
0.0 0.0 0.0 
0.0 0.0 0.0 
0.0 0.0 0.0 
0.0 0.0 0.0 
0.0 0.0 0.0 
0.0 0.0 0.0 
0.0 0.0 0.0 
0.0 0.0 0.0 
0.0 0.0 0.0 
0.0 0.0 0.0 
0.0 0.0 0.0 
0.0 0.0 0.0 
0.0 0.0 0.0 
0.0 0.0 0.0 
0.0 0.0 0.0 
0.0 0.0 0.0 
0.0 0.0 0.0 
0.0 0.0 0.0 
0.0 0.0 0.0 
0.0 0.0 0.0 
0.0 0.0 0.0 
0.0 0.0 0.0 
0.0 0.0 0.0 
0.0 0.0 0.0 
0.0 0.0 0.0 
0.0 0.0 0.0 
0.0 0.0 0.0 
0.0 0.0 0.0 
0.0 0.0 0.0 
0.0 0.0 0.0 
0.0 0.0 0.0 
0.0 0.0 0.0 
0.0 0.0 0.0 
0.0 0.0 0.0 
0.0 0.0 0.0 
0.0 0.0 0.0 
0.0 0.0 0.0 
0.0 0.0 0.0 
0.0 0.0 0.0 
0.0 0.0 0.0 
0.0 0.0 0.0 
0.0 0.0 0.0 
0.0 0.0 0.0 
0.0 0.0 0.0 
0.0 0.0 0.0 
0.0 0.0 0.0 
0.0 0.0 0.0 
0.0 0.0 0.0 
0.0 0.0 0.0 
0.0 0.0 0.0 
0.0 0.0 0.0 
0.0 0.0 0.0 
0.0 0.0 0.0 
0.0 0.0 0.0 
0.0 0.0 0.0 
0.0 0.0 0.0 
0.0 0.0 0.0 
0.0 0.0 0.0 
0.0 0.0 0.0 
0.0 0.0 0.0 
0.0 0.0 0.0 
0.0 0.0 0.0 
0.0 0.0 0.0 
0.0 0.0 0.0 
0.0 0.0 0.0 
0.0 0.0 0.0 
0.0 0.0 0.0 
0.0 0.0 0.0 
0.0 0.0 0.0 
0.0 0.0 0.0 
0.0 0.0 0.0 
0.0 0.0 0.0 
0.0 0.0 0.0 
0.0 0.0 0.0 
0.0 0.0 0.0 
0.0 0.0 0.0 
0.0 0.0 0.0 
0.0 0.0 0.0 
0.0 0.0 0.0 
0.0 0.0 0.0 
0.0 0.0 0.0 
0.0 0.0 0.0 
0.0 0.0 0.0 
0.0 0.0 0.0 
0.0 0.0 0.0 
0.0 0.0 0.0 
0.0 0.0 0.0 
0.0 0.0 0.0 
0.0 0.0 0.0 
0.0 0.0 0.0 
0.0 0.0 0.0 
0.0 0.0 0.0 
0.0 0.0 0.0 
0.0 0.0 0.0 
0.0 0.0 0.0 
0.0 0.0 0.0 
0.0 0.0 0.0 
0.0 0.0 0.0 
0.0 0.0 0.0 
0.0 0.0 0.0 
0.0 0.0 0.0 
0.0 0.0 0.0 
0.0 0.0 0.0 
0.0 0.0 0.0 
0.0 0.0 0.0 
0.0 0.0 0.0 
0.0 0.0 0.0 
0.0 0.0 0.0 
0.0 0.0 0.0 
0.0 0.0 0.0 
0.0 0.0 0.0 
0.0 0.0 0.0 
0.0 0.0 0.0 
0.0 0.0 0.0 
0.0 0.0 0.0 
0.0 0.0 0.0 
0.0 0.0 0.0 
0.0 0.0 0.0 
0.0 0.0 0.0 
0.0 0.0 0.0 
0.0 0.0 0.0 
0.0 0.0 0.0 
0.0 0.0 0.0 
0.0 0.0 0.0 
0.0 0.0 0.0 
0.0 0.0 0.0 
0.0 0.0 0.0 
0.0 0.0 0.0 
0.0 0.0 0.0 
0.0 0.0 0.0 
0.0 0.0 0.0 
0.0 0.0 0.0 
0.0 0.0 0.0 
0.0 0.0 0.0 
0.0 0.0 0.0 
0.0 0.0 0.0 
0.0 0.0 0.0 
0.0 0.0 0.0 
0.0 0.0 0.0 
0.0 0.0 0.0 
0.0 0.0 0.0 
0.0 0.0 0.0 
0.0 0.0 0.0 
0.0 0.0 0.0 
0.0 0.0 0.0 
0.0 0.0 0.0 
0.0 0.0 0.0 
0.0 0.0 0.0 
0.0 0.0 0.0 
0.0 0.0 0.0 
0.0 0.0 0.0 
0.0 0.0 0.0 
0.0 0.0 0.0 
0.0 0.0 0.0 
0.0 0.0 0.0 
0.0 0.0 0.0 
0.0 0.0 0.0 
0.0 0.0 0.0 
0.0 0.0 0.0 
0.0 0.0 0.0 
0.0 0.0 0.0 
0.0 0.0 0.0 
0.0 0.0 0.0 
0.0 0.0 0.0 
0.0 0.0 0.0 
0.0 0.0 0.0 
0.0 0.0 0.0 
0.0 0.0 0.0 
0.0 0.0 0.0 
0.0 0.0 0.0 
0.0 0.0 0.0 
0.0 0.0 0.0 
0.0 0.0 0.0 
0.0 0.0 0.0 
0.0 0.0 0.0 
0.0 0.0 0.0 
0.0 0.0 0.0 
0.0 0.0 0.0 
0.0 0.0 0.0 
0.0 0.0 0.0 
0.0 0.0 0.0 
0.0 0.0 0.0 
0.0 0.0 0.0 
0.0 0.0 0.0 
0.0 0.0 0.0 
0.0 0.0 0.0 
0.0 0.0 0.0 
0.0 0.0 0.0 
0.0 0.0 0.0 
0.0 0.0 0.0 
0.0 0.0 0.0 
0.0 0.0 0.0 
0.0 0.0 0.0 
0.0 0.0 0.0 
0.0 0.0 0.0 
0.0 0.0 0.0 
0.0 0.0 0.0 
0.0 0.0 0.0 
0.0 0.0 0.0 
0.0 0.0 0.0 
0.0 0.0 0.0 
0.0 0.0 0.0 
0.0 0.0 0.0 
0.0 0.0 0.0 
0.0 0.0 0.0 
0.0 0.0 0.0 
0.0 0.0 0.0 
0.0 0.0 0.0 
0.0 0.0 0.0 
0.0 0.0 0.0 
0.0 0.0 0.0 
0.0 0.0 0.0 
0.0 0.0 0.0 
0.0 0.0 0.0 
0.0 0.0 0.0 
0.0 0.0 0.0 
0.0 0.0 0.0 
0.0 0.0 0.0 
0.0 0.0 0.0 
0.0 0.0 0.0 
0.0 0.0 0.0 
0.0 0.0 0.0 
0.0 0.0 0.0 
0.0 0.0 0.0 
0.0 0.0 0.0 
0.0 0.0 0.0 
0.0 0.0 0.0 
0.0 0.0 0.0 
0.0 0.0 0.0 
0.0 0.0 0.0 
0.0 0.0 0.0 
0.0 0.0 0.0 
0.0 0.0 0.0 
0.0 0.0 0.0 
0.0 0.0 0.0 
0.0 0.0 0.0 
0.0 0.0 0.0 
0.0 0.0 0.0 
0.0 0.0 0.0 
0.0 0.0 0.0 
0.0 0.0 0.0 
0.0 0.0 0.0 
0.0 0.0 0.0 
0.0 0.0 0.0 
0.0 0.0 0.0 
0.0 0.0 0.0 
0.0 0.0 0.0 
0.0 0.0 0.0 
0.0 0.0 0.0 
0.0 0.0 0.0 
0.0 0.0 0.0 
0.0 0.0 0.0 
0.0 0.0 0.0 
0.0 0.0 0.0 
0.0 0.0 0.0 
0.0 0.0 0.0 
0.0 0.0 0.0 
0.0 0.0 0.0 
0.0 0.0 0.0 
0.0 0.0 0.0 
0.0 0.0 0.0 
0.0 0.0 0.0 
0.0 0.0 0.0 
0.0 0.0 0.0 
0.0 0.0 0.0 
0.0 0.0 0.0 
0.0 0.0 0.0 
0.0 0.0 0.0 
0.0 0.0 0.0 
0.0 0.0 0.0 
0.0 0.0 0.0 
0.0 0.0 0.0 
0.0 0.0 0.0 
0.0 0.0 0.0 
0.0 0.0 0.0 
0.0 0.0 0.0 
0.0 0.0 0.0 
0.0 0.0 0.0 
0.0 0.0 0.0 
0.0 0.0 0.0 
0.0 0.0 0.0 
0.0 0.0 0.0 
0.0 0.0 0.0 
0.0 0.0 0.0 
0.0 0.0 0.0 
0.0 0.0 0.0 
0.0 0.0 0.0 
0.0 0.0 0.0 
0.0 0.0 0.0 
0.0 0.0 0.0 
0.0 0.0 0.0 
0.0 0.0 0.0 
0.0 0.0 0.0 
0.0 0.0 0.0 
0.0 0.0 0.0 
0.0 0.0 0.0 
0.0 0.0 0.0 
0.0 0.0 0.0 
0.0 0.0 0.0 
0.0 0.0 0.0 
0.0 0.0 0.0 
0.0 0.0 0.0 
0.0 0.0 0.0 
0.0 0.0 0.0 
0.0 0.0 0.0 
0.0 0.0 0.0 
0.0 0.0 0.0 
0.0 0.0 0.0 
0.0 0.0 0.0 
0.0 0.0 0.0 
0.0 0.0 0.0 
0.0 0.0 0.0 
0.0 0.0 0.0 
0.0 0.0 0.0 
0.0 0.0 0.0 
0.0 0.0 0.0 
0.0 0.0 0.0 
0.0 0.0 0.0 
0.0 0.0 0.0 
0.0 0.0 0.0 
0.0 0.0 0.0 
0.0 0.0 0.0 
0.0 0.0 0.0 
0.0 0.0 0.0 
0.0 0.0 0.0 
0.0 0.0 0.0 
0.0 0.0 0.0 
0.0 0.0 0.0 
0.0 0.0 0.0 
0.0 0.0 0.0 
0.0 0.0 0.0 
0.0 0.0 0.0 
0.0 0.0 0.0 
0.0 0.0 0.0 
0.0 0.0 0.0 
0.0 0.0 0.0 
0.0 0.0 0.0 
0.0 0.0 0.0 
0.0 0.0 0.0 
0.0 0.0 0.0 
0.0 0.0 0.0 
0.0 0.0 0.0 
0.0 0.0 0.0 
0.0 0.0 0.0 
0.0 0.0 0.0 
0.0 0.0 0.0 
0.0 0.0 0.0 
0.0 0.0 0.0 
0.0 0.0 0.0 
0.0 0.0 0.0 
0.0 0.0 0.0 
0.0 0.0 0.0 
0.0 0.0 0.0 
0.0 0.0 0.0 
0.0 0.0 0.0 
0.0 0.0 0.0 
0.0 0.0 0.0 
0.0 0.0 0.0 
0.0 0.0 0.0 
0.0 0.0 0.0 
0.0 0.0 0.0 
0.0 0.0 0.0 
0.0 0.0 0.0 
0.0 0.0 0.0 
0.0 0.0 0.0 
0.0 0.0 0.0 
0.0 0.0 0.0 
0.0 0.0 0.0 
0.0 0.0 0.0 
0.0 0.0 0.0 
0.0 0.0 0.0 
0.0 0.0 0.0 
0.0 0.0 0.0 
0.0 0.0 0.0 
0.0 0.0 0.0 
0.0 0.0 0.0 
0.0 0.0 0.0 
0.0 0.0 0.0 
0.0 0.0 0.0 
0.0 0.0 0.0 
0.0 0.0 0.0 
0.0 0.0 0.0 
0.0 0.0 0.0 
0.0 0.0 0.0 
0.0 0.0 0.0 
0.0 0.0 0.0 
0.0 0.0 0.0 
0.0 0.0 0.0 
0.0 0.0 0.0 
0.0 0.0 0.0 
0.0 0.0 0.0 
0.0 0.0 0.0 
0.0 0.0 0.0 
0.0 0.0 0.0 
0.0 0.0 0.0 
0.0 0.0 0.0 
0.0 0.0 0.0 
0.0 0.0 0.0 
0.0 0.0 0.0 
0.0 0.0 0.0 
0.0 0.0 0.0 
0.0 0.0 0.0 
0.0 0.0 0.0 
0.0 0.0 0.0 
0.0 0.0 0.0 
0.0 0.0 0.0 
0.0 0.0 0.0 
0.0 0.0 0.0 
0.0 0.0 0.0 
0.0 0.0 0.0 
0.0 0.0 0.0 
0.0 0.0 0.0 
0.0 0.0 0.0 
0.0 0.0 0.0 
0.0 0.0 0.0 
0.0 0.0 0.0 
0.0 0.0 0.0 
0.0 0.0 0.0 
0.0 0.0 0.0 
0.0 0.0 0.0 
0.0 0.0 0.0 
0.0 0.0 0.0 
0.0 0.0 0.0 
0.0 0.0 0.0 
0.0 0.0 0.0 
0.0 0.0 0.0 
0.0 0.0 0.0 
0.0 0.0 0.0 
0.0 0.0 0.0 
0.0 0.0 0.0 
0.0 0.0 0.0 
0.0 0.0 0.0 
0.0 0.0 0.0 
0.0 0.0 0.0 
0.0 0.0 0.0 
0.0 0.0 0.0 
0.0 0.0 0.0 
0.0 0.0 0.0 
0.0 0.0 0.0 
0.0 0.0 0.0 
0.0 0.0 0.0 
0.0 0.0 0.0 
0.0 0.0 0.0 
0.0 0.0 0.0 
0.0 0.0 0.0 
0.0 0.0 0.0 
0.0 0.0 0.0 
0.0 0.0 0.0 
0.0 0.0 0.0 
0.0 0.0 0.0 
0.0 0.0 0.0 
0.0 0.0 0.0 
0.0 0.0 0.0 
0.0 0.0 0.0 
0.0 0.0 0.0 
0.0 0.0 0.0 
0.0 0.0 0.0 
0.0 0.0 0.0 
0.0 0.0 0.0 
0.0 0.0 0.0 
0.0 0.0 0.0 
0.0 0.0 0.0 
0.0 0.0 0.0 
0.0 0.0 0.0 
0.0 0.0 0.0 
0.0 0.0 0.0 
0.0 0.0 0.0 
0.0 0.0 0.0 
0.0 0.0 0.0 
0.0 0.0 0.0 
0.0 0.0 0.0 
0.0 0.0 0.0 
0.0 0.0 0.0 
0.0 0.0 0.0 
0.0 0.0 0.0 
0.0 0.0 0.0 
0.0 0.0 0.0 
0.0 0.0 0.0 
0.0 0.0 0.0 
0.0 0.0 0.0 
0.0 0.0 0.0 
0.0 0.0 0.0 
0.0 0.0 0.0 
0.0 0.0 0.0 
0.0 0.0 0.0 
0.0 0.0 0.0 
0.0 0.0 0.0 
0.0 0.0 0.0 
0.0 0.0 0.0 
0.0 0.0 0.0 
0.0 0.0 0.0 
0.0 0.0 0.0 
0.0 0.0 0.0 
0.0 0.0 0.0 
0.0 0.0 0.0 
0.0 0.0 0.0 
0.0 0.0 0.0 
0.0 0.0 0.0 
0.0 0.0 0.0 
0.0 0.0 0.0 
0.0 0.0 0.0 
0.0 0.0 0.0 
0.0 0.0 0.0 
0.0 0.0 0.0 
0.0 0.0 0.0 
0.0 0.0 0.0 
0.0 0.0 0.0 
0.0 0.0 0.0 
0.0 0.0 0.0 
0.0 0.0 0.0 
0.0 0.0 0.0 
0.0 0.0 0.0 
0.0 0.0 0.0 
0.0 0.0 0.0 
0.0 0.0 0.0 
0.0 0.0 0.0 
0.0 0.0 0.0 
0.0 0.0 0.0 
0.0 0.0 0.0 
0.0 0.0 0.0 
0.0 0.0 0.0 
0.0 0.0 0.0 
0.0 0.0 0.0 
0.0 0.0 0.0 
0.0 0.0 0.0 
0.0 0.0 0.0 
0.0 0.0 0.0 
0.0 0.0 0.0 
0.0 0.0 0.0 
0.0 0.0 0.0 
0.0 0.0 0.0 
0.0 0.0 0.0 
0.0 0.0 0.0 
0.0 0.0 0.0 
0.0 0.0 0.0 
0.0 0.0 0.0 
0.0 0.0 0.0 
0.0 0.0 0.0 
0.0 0.0 0.0 
0.0 0.0 0.0 
0.0 0.0 0.0 
0.0 0.0 0.0 
0.0 0.0 0.0 
0.0 0.0 0.0 
0.0 0.0 0.0 
0.0 0.0 0.0 
0.0 0.0 0.0 
0.0 0.0 0.0 
0.0 0.0 0.0 
0.0 0.0 0.0 
0.0 0.0 0.0 
0.0 0.0 0.0 
0.0 0.0 0.0 
0.0 0.0 0.0 
0.0 0.0 0.0 
0.0 0.0 0.0 
0.0 0.0 0.0 
0.0 0.0 0.0 
0.0 0.0 0.0 
0.0 0.0 0.0 
0.0 0.0 0.0 
0.0 0.0 0.0 
0.0 0.0 0.0 
0.0 0.0 0.0 
0.0 0.0 0.0 
0.0 0.0 0.0 
0.0 0.0 0.0 
0.0 0.0 0.0 
0.0 0.0 0.0 
0.0 0.0 0.0 
0.0 0.0 0.0 
0.0 0.0 0.0 
0.0 0.0 0.0 
0.0 0.0 0.0 
0.0 0.0 0.0 
0.0 0.0 0.0 
0.0 0.0 0.0 
0.0 0.0 0.0 
0.0 0.0 0.0 
0.0 0.0 0.0 
0.0 0.0 0.0 
0.0 0.0 0.0 
0.0 0.0 0.0 
0.0 0.0 0.0 
0.0 0.0 0.0 
0.0 0.0 0.0 
0.0 0.0 0.0 
0.0 0.0 0.0 
0.0 0.0 0.0 
0.0 0.0 0.0 
0.0 0.0 0.0 
0.0 0.0 0.0 
0.0 0.0 0.0 
0.0 0.0 0.0 
0.0 0.0 0.0 
0.0 0.0 0.0 
0.0 0.0 0.0 
0.0 0.0 0.0 
0.0 0.0 0.0 
0.0 0.0 0.0 
0.0 0.0 0.0 
0.0 0.0 0.0 
0.0 0.0 0.0 
0.0 0.0 0.0 
0.0 0.0 0.0 
0.0 0.0 0.0 
0.0 0.0 0.0 
0.0 0.0 0.0 
0.0 0.0 0.0 
0.0 0.0 0.0 
0.0 0.0 0.0 
0.0 0.0 0.0 
0.0 0.0 0.0 
0.0 0.0 0.0 
0.0 0.0 0.0 
0.0 0.0 0.0 
0.0 0.0 0.0 
0.0 0.0 0.0 
0.0 0.0 0.0 
0.0 0.0 0.0 
0.0 0.0 0.0 
0.0 0.0 0.0 
0.0 0.0 0.0 
0.0 0.0 0.0 
0.0 0.0 0.0 
0.0 0.0 0.0 
0.0 0.0 0.0 
0.0 0.0 0.0 
0.0 0.0 0.0 
0.0 0.0 0.0 
0.0 0.0 0.0 
0.0 0.0 0.0 
0.0 0.0 0.0 
0.0 0.0 0.0 
0.0 0.0 0.0 
0.0 0.0 0.0 
0.0 0.0 0.0 
0.0 0.0 0.0 
0.0 0.0 0.0 
0.0 0.0 0.0 
0.0 0.0 0.0 
0.0 0.0 0.0 
0.0 0.0 0.0 
0.0 0.0 0.0 
0.0 0.0 0.0 
0.0 0.0 0.0 
0.0 0.0 0.0 
0.0 0.0 0.0 
0.0 0.0 0.0 
0.0 0.0 0.0 
0.0 0.0 0.0 
0.0 0.0 0.0 
0.0 0.0 0.0 
0.0 0.0 0.0 
0.0 0.0 0.0 
0.0 0.0 0.0 
0.0 0.0 0.0 
0.0 0.0 0.0 
0.0 0.0 0.0 
0.0 0.0 0.0 
0.0 0.0 0.0 
0.0 0.0 0.0 
0.0 0.0 0.0 
0.0 0.0 0.0 
0.0 0.0 0.0 
0.0 0.0 0.0 
0.0 0.0 0.0 
0.0 0.0 0.0 
0.0 0.0 0.0 
0.0 0.0 0.0 
0.0 0.0 0.0 
0.0 0.0 0.0 
0.0 0.0 0.0 
0.0 0.0 0.0 
0.0 0.0 0.0 
0.0 0.0 0.0 
0.0 0.0 0.0 
0.0 0.0 0.0 
0.0 0.0 0.0 
0.0 0.0 0.0 
0.0 0.0 0.0 
0.0 0.0 0.0 
0.0 0.0 0.0 
0.0 0.0 0.0 
0.0 0.0 0.0 
0.0 0.0 0.0 
0.0 0.0 0.0 
0.0 0.0 0.0 
0.0 0.0 0.0 
0.0 0.0 0.0 
0.0 0.0 0.0 
0.0 0.0 0.0 
0.0 0.0 0.0 
0.0 0.0 0.0 
0.0 0.0 0.0 
0.0 0.0 0.0 
0.0 0.0 0.0 
0.0 0.0 0.0 
0.0 0.0 0.0 
0.0 0.0 0.0 
0.0 0.0 0.0 
0.0 0.0 0.0 
0.0 0.0 0.0 
0.0 0.0 0.0 
0.0 0.0 0.0 
0.0 0.0 0.0 
0.0 0.0 0.0 
0.0 0.0 0.0 
0.0 0.0 0.0 
0.0 0.0 0.0 
0.0 0.0 0.0 
0.0 0.0 0.0 
0.0 0.0 0.0 
0.0 0.0 0.0 
0.0 0.0 0.0 
0.0 0.0 0.0 
0.0 0.0 0.0 
0.0 0.0 0.0 
0.0 0.0 0.0 
0.0 0.0 0.0 
0.0 0.0 0.0 
0.0 0.0 0.0 
0.0 0.0 0.0 
0.0 0.0 0.0 
0.0 0.0 0.0 
0.0 0.0 0.0 
0.0 0.0 0.0 
0.0 0.0 0.0 
0.0 0.0 0.0 
0.0 0.0 0.0 
0.0 0.0 0.0 
0.0 0.0 0.0 
0.0 0.0 0.0 
0.0 0.0 0.0 
0.0 0.0 0.0 
0.0 0.0 0.0 
0.0 0.0 0.0 
0.0 0.0 0.0 
0.0 0.0 0.0 
0.0 0.0 0.0 
0.0 0.0 0.0 
0.0 0.0 0.0 
0.0 0.0 0.0 
0.0 0.0 0.0 
0.0 0.0 0.0 
0.0 0.0 0.0 
0.0 0.0 0.0 
0.0 0.0 0.0 
0.0 0.0 0.0 
0.0 0.0 0.0 
0.0 0.0 0.0 
0.0 0.0 0.0 
0.0 0.0 0.0 
0.0 0.0 0.0 
0.0 0.0 0.0 
0.0 0.0 0.0 
0.0 0.0 0.0 
0.0 0.0 0.0 
0.0 0.0 0.0 
0.0 0.0 0.0 
0.0 0.0 0.0 
0.0 0.0 0.0 
0.0 0.0 0.0 
0.0 0.0 0.0 
0.0 0.0 0.0 
0.0 0.0 0.0 
0.0 0.0 0.0 
0.0 0.0 0.0 
0.0 0.0 0.0 
0.0 0.0 0.0 
0.0 0.0 0.0 
0.0 0.0 0.0 
0.0 0.0 0.0 
0.0 0.0 0.0 
0.0 0.0 0.0 
0.0 0.0 0.0 
0.0 0.0 0.0 
0.0 0.0 0.0 
0.0 0.0 0.0 
0.0 0.0 0.0 
0.0 0.0 0.0 
0.0 0.0 0.0 
0.0 0.0 0.0 
0.0 0.0 0.0 
0.0 0.0 0.0 
0.0 0.0 0.0 
0.0 0.0 0.0 
0.0 0.0 0.0 
0.0 0.0 0.0 
0.0 0.0 0.0 
0.0 0.0 0.0 
0.0 0.0 0.0 
0.0 0.0 0.0 
0.0 0.0 0.0 
0.0 0.0 0.0 
0.0 0.0 0.0 
0.0 0.0 0.0 
0.0 0.0 0.0 
0.0 0.0 0.0 
0.0 0.0 0.0 
0.0 0.0 0.0 
0.0 0.0 0.0 
0.0 0.0 0.0 
0.0 0.0 0.0 
0.0 0.0 0.0 
0.0 0.0 0.0 
0.0 0.0 0.0 
0.0 0.0 0.0 
0.0 0.0 0.0 
0.0 0.0 0.0 
0.0 0.0 0.0 
0.0 0.0 0.0 
0.0 0.0 0.0 
0.0 0.0 0.0 
0.0 0.0 0.0 
0.0 0.0 0.0 
0.0 0.0 0.0 
0.0 0.0 0.0 
0.0 0.0 0.0 
0.0 0.0 0.0 
0.0 0.0 0.0 
0.0 0.0 0.0 
0.0 0.0 0.0 
0.0 0.0 0.0 
0.0 0.0 0.0 
0.0 0.0 0.0 
0.0 0.0 0.0 
0.0 0.0 0.0 
0.0 0.0 0.0 
0.0 0.0 0.0 
0.0 0.0 0.0 
0.0 0.0 0.0 
0.0 0.0 0.0 
0.0 0.0 0.0 
0.0 0.0 0.0 
0.0 0.0 0.0 
0.0 0.0 0.0 
0.0 0.0 0.0 
0.0 0.0 0.0 
0.0 0.0 0.0 
0.0 0.0 0.0 
0.0 0.0 0.0 
0.0 0.0 0.0 
0.0 0.0 0.0 
0.0 0.0 0.0 
0.0 0.0 0.0 
0.0 0.0 0.0 
0.0 0.0 0.0 
0.0 0.0 0.0 
0.0 0.0 0.0 
0.0 0.0 0.0 
0.0 0.0 0.0 
0.0 0.0 0.0 
0.0 0.0 0.0 
0.0 0.0 0.0 
0.0 0.0 0.0 
0.0 0.0 0.0 
0.0 0.0 0.0 
0.0 0.0 0.0 
0.0 0.0 0.0 
0.0 0.0 0.0 
0.0 0.0 0.0 
0.0 0.0 0.0 
0.0 0.0 0.0 
0.0 0.0 0.0 
0.0 0.0 0.0 
0.0 0.0 0.0 
0.0 0.0 0.0 
0.0 0.0 0.0 
0.0 0.0 0.0 
0.0 0.0 0.0 
0.0 0.0 0.0 
0.0 0.0 0.0 
0.0 0.0 0.0 
0.0 0.0 0.0 
0.0 0.0 0.0 
0.0 0.0 0.0 
0.0 0.0 0.0 
0.0 0.0 0.0 
0.0 0.0 0.0 
0.0 0.0 0.0 
0.0 0.0 0.0 
0.0 0.0 0.0 
0.0 0.0 0.0 
0.0 0.0 0.0 
0.0 0.0 0.0 
0.0 0.0 0.0 
0.0 0.0 0.0 
0.0 0.0 0.0 
0.0 0.0 0.0 
0.0 0.0 0.0 
0.0 0.0 0.0 
0.0 0.0 0.0 
0.0 0.0 0.0 
0.0 0.0 0.0 
0.0 0.0 0.0 
0.0 0.0 0.0 
0.0 0.0 0.0 
0.0 0.0 0.0 
0.0 0.0 0.0 
0.0 0.0 0.0 
0.0 0.0 0.0 
0.0 0.0 0.0 
0.0 0.0 0.0 
0.0 0.0 0.0 
0.0 0.0 0.0 
0.0 0.0 0.0 
0.0 0.0 0.0 
0.0 0.0 0.0 
0.0 0.0 0.0 
0.0 0.0 0.0 
0.0 0.0 0.0 
0.0 0.0 0.0 
0.0 0.0 0.0 
0.0 0.0 0.0 
0.0 0.0 0.0 
0.0 0.0 0.0 
0.0 0.0 0.0 
0.0 0.0 0.0 
0.0 0.0 0.0 
0.0 0.0 0.0 
0.0 0.0 0.0 
0.0 0.0 0.0 
0.0 0.0 0.0 
0.0 0.0 0.0 
0.0 0.0 0.0 
0.0 0.0 0.0 
0.0 0.0 0.0 
0.0 0.0 0.0 
0.0 0.0 0.0 
0.0 0.0 0.0 
0.0 0.0 0.0 
0.0 0.0 0.0 
0.0 0.0 0.0 
0.0 0.0 0.0 
0.0 0.0 0.0 
0.0 0.0 0.0 
0.0 0.0 0.0 
0.0 0.0 0.0 
0.0 0.0 0.0 
0.0 0.0 0.0 
0.0 0.0 0.0 
0.0 0.0 0.0 
0.0 0.0 0.0 
0.0 0.0 0.0 
0.0 0.0 0.0 
0.0 0.0 0.0 
0.0 0.0 0.0 
0.0 0.0 0.0 
0.0 0.0 0.0 
0.0 0.0 0.0 
0.0 0.0 0.0 
0.0 0.0 0.0 
0.0 0.0 0.0 
0.0 0.0 0.0 
0.0 0.0 0.0 
0.0 0.0 0.0 
0.0 0.0 0.0 
0.0 0.0 0.0 
0.0 0.0 0.0 
0.0 0.0 0.0 
0.0 0.0 0.0 
0.0 0.0 0.0 
0.0 0.0 0.0 
0.0 0.0 0.0 
0.0 0.0 0.0 
0.0 0.0 0.0 
0.0 0.0 0.0 
0.0 0.0 0.0 
0.0 0.0 0.0 
0.0 0.0 0.0 
0.0 0.0 0.0 
0.0 0.0 0.0 
0.0 0.0 0.0 
0.0 0.0 0.0 
0.0 0.0 0.0 
0.0 0.0 0.0 
0.0 0.0 0.0 
0.0 0.0 0.0 
0.0 0.0 0.0 
0.0 0.0 0.0 
0.0 0.0 0.0 
0.0 0.0 0.0 
0.0 0.0 0.0 
0.0 0.0 0.0 
0.0 0.0 0.0 
0.0 0.0 0.0 
0.0 0.0 0.0 
0.0 0.0 0.0 
0.0 0.0 0.0 
0.0 0.0 0.0 
0.0 0.0 0.0 
0.0 0.0 0.0 
0.0 0.0 0.0 
0.0 0.0 0.0 
0.0 0.0 0.0 
0.0 0.0 0.0 
0.0 0.0 0.0 
0.0 0.0 0.0 
0.0 0.0 0.0 
0.0 0.0 0.0 
0.0 0.0 0.0 
0.0 0.0 0.0 
0.0 0.0 0.0 
0.0 0.0 0.0 
0.0 0.0 0.0 
0.0 0.0 0.0 
0.0 0.0 0.0 
0.0 0.0 0.0 
0.0 0.0 0.0 
0.0 0.0 0.0 
0.0 0.0 0.0 
0.0 0.0 0.0 
0.0 0.0 0.0 
0.0 0.0 0.0 
0.0 0.0 0.0 
0.0 0.0 0.0 
0.0 0.0 0.0 
0.0 0.0 0.0 
0.0 0.0 0.0 
0.0 0.0 0.0 
0.0 0.0 0.0 
0.0 0.0 0.0 
0.0 0.0 0.0 
0.0 0.0 0.0 
0.0 0.0 0.0 
0.0 0.0 0.0 
0.0 0.0 0.0 
0.0 0.0 0.0 
0.0 0.0 0.0 
0.0 0.0 0.0 
0.0 0.0 0.0 
0.0 0.0 0.0 
0.0 0.0 0.0 
0.0 0.0 0.0 
0.0 0.0 0.0 
0.0 0.0 0.0 
0.0 0.0 0.0 
0.0 0.0 0.0 
0.0 0.0 0.0 
0.0 0.0 0.0 
0.0 0.0 0.0 
0.0 0.0 0.0 
0.0 0.0 0.0 
0.0 0.0 0.0 
0.0 0.0 0.0 
0.0 0.0 0.0 
0.0 0.0 0.0 
0.0 0.0 0.0 
0.0 0.0 0.0 
0.0 0.0 0.0 
0.0 0.0 0.0 
0.0 0.0 0.0 
0.0 0.0 0.0 
0.0 0.0 0.0 
0.0 0.0 0.0 
0.0 0.0 0.0 
0.0 0.0 0.0 
0.0 0.0 0.0 
0.0 0.0 0.0 
0.0 0.0 0.0 
0.0 0.0 0.0 
0.0 0.0 0.0 
0.0 0.0 0.0 
0.0 0.0 0.0 
0.0 0.0 0.0 
0.0 0.0 0.0 
0.0 0.0 0.0 
0.0 0.0 0.0 
0.0 0.0 0.0 
0.0 0.0 0.0 
0.0 0.0 0.0 
0.0 0.0 0.0 
0.0 0.0 0.0 
0.0 0.0 0.0 
0.0 0.0 0.0 
0.0 0.0 0.0 
0.0 0.0 0.0 
0.0 0.0 0.0 
0.0 0.0 0.0 
0.0 0.0 0.0 
0.0 0.0 0.0 
0.0 0.0 0.0 
0.0 0.0 0.0 
0.0 0.0 0.0 
0.0 0.0 0.0 
0.0 0.0 0.0 
0.0 0.0 0.0 
0.0 0.0 0.0 
0.0 0.0 0.0 
0.0 0.0 0.0 
0.0 0.0 0.0 
0.0 0.0 0.0 
0.0 0.0 0.0 
0.0 0.0 0.0 
0.0 0.0 0.0 
0.0 0.0 0.0 
0.0 0.0 0.0 
0.0 0.0 0.0 
0.0 0.0 0.0 
0.0 0.0 0.0 
0.0 0.0 0.0 
0.0 0.0 0.0 
0.0 0.0 0.0 
0.0 0.0 0.0 
0.0 0.0 0.0 
0.0 0.0 0.0 
0.0 0.0 0.0 
0.0 0.0 0.0 
0.0 0.0 0.0 
0.0 0.0 0.0 
0.0 0.0 0.0 
0.0 0.0 0.0 
0.0 0.0 0.0 
0.0 0.0 0.0 
0.0 0.0 0.0 
0.0 0.0 0.0 
0.0 0.0 0.0 
0.0 0.0 0.0 
0.0 0.0 0.0 
0.0 0.0 0.0 
0.0 0.0 0.0 
0.0 0.0 0.0 
0.0 0.0 0.0 
0.0 0.0 0.0 
0.0 0.0 0.0 
0.0 0.0 0.0 
0.0 0.0 0.0 
0.0 0.0 0.0 
0.0 0.0 0.0 
0.0 0.0 0.0 
0.0 0.0 0.0 
0.0 0.0 0.0 
0.0 0.0 0.0 
0.0 0.0 0.0 
0.0 0.0 0.0 
0.0 0.0 0.0 
0.0 0.0 0.0 
0.0 0.0 0.0 
0.0 0.0 0.0 
0.0 0.0 0.0 
0.0 0.0 0.0 
0.0 0.0 0.0 
0.0 0.0 0.0 
0.0 0.0 0.0 
0.0 0.0 0.0 
0.0 0.0 0.0 
0.0 0.0 0.0 
0.0 0.0 0.0 
0.0 0.0 0.0 
0.0 0.0 0.0 
0.0 0.0 0.0 
0.0 0.0 0.0 
0.0 0.0 0.0 
0.0 0.0 0.0 
0.0 0.0 0.0 
0.0 0.0 0.0 
0.0 0.0 0.0 
0.0 0.0 0.0 
0.0 0.0 0.0 
0.0 0.0 0.0 
0.0 0.0 0.0 
0.0 0.0 0.0 
0.0 0.0 0.0 
0.0 0.0 0.0 
0.0 0.0 0.0 
0.0 0.0 0.0 
0.0 0.0 0.0 
0.0 0.0 0.0 
0.0 0.0 0.0 
0.0 0.0 0.0 
0.0 0.0 0.0 
0.0 0.0 0.0 
0.0 0.0 0.0 
0.0 0.0 0.0 
0.0 0.0 0.0 
0.0 0.0 0.0 
0.0 0.0 0.0 
0.0 0.0 0.0 
0.0 0.0 0.0 
0.0 0.0 0.0 
0.0 0.0 0.0 
0.0 0.0 0.0 
0.0 0.0 0.0 
0.0 0.0 0.0 
0.0 0.0 0.0 
0.0 0.0 0.0 
0.0 0.0 0.0 
0.0 0.0 0.0 
0.0 0.0 0.0 
0.0 0.0 0.0 
0.0 0.0 0.0 
0.0 0.0 0.0 
0.0 0.0 0.0 
0.0 0.0 0.0 
0.0 0.0 0.0 
0.0 0.0 0.0 
0.0 0.0 0.0 
0.0 0.0 0.0 
0.0 0.0 0.0 
0.0 0.0 0.0 
0.0 0.0 0.0 
0.0 0.0 0.0 
0.0 0.0 0.0 
0.0 0.0 0.0 
0.0 0.0 0.0 
0.0 0.0 0.0 
0.0 0.0 0.0 
0.0 0.0 0.0 
0.0 0.0 0.0 
0.0 0.0 0.0 
0.0 0.0 0.0 
0.0 0.0 0.0 
0.0 0.0 0.0 
0.0 0.0 0.0 
0.0 0.0 0.0 
0.0 0.0 0.0 
0.0 0.0 0.0 
0.0 0.0 0.0 
0.0 0.0 0.0 
0.0 0.0 0.0 
0.0 0.0 0.0 
0.0 0.0 0.0 
0.0 0.0 0.0 
0.0 0.0 0.0 
0.0 0.0 0.0 
0.0 0.0 0.0 
0.0 0.0 0.0 
0.0 0.0 0.0 
0.0 0.0 0.0 
0.0 0.0 0.0 
0.0 0.0 0.0 
0.0 0.0 0.0 
0.0 0.0 0.0 
0.0 0.0 0.0 
0.0 0.0 0.0 
0.0 0.0 0.0 
0.0 0.0 0.0 
0.0 0.0 0.0 
0.0 0.0 0.0 
0.0 0.0 0.0 
0.0 0.0 0.0 
0.0 0.0 0.0 
0.0 0.0 0.0 
0.0 0.0 0.0 
0.0 0.0 0.0 
0.0 0.0 0.0 
0.0 0.0 0.0 
0.0 0.0 0.0 
0.0 0.0 0.0 
0.0 0.0 0.0 
0.0 0.0 0.0 
0.0 0.0 0.0 
0.0 0.0 0.0 
0.0 0.0 0.0 
0.0 0.0 0.0 
0.0 0.0 0.0 
0.0 0.0 0.0 
0.0 0.0 0.0 
0.0 0.0 0.0 
0.0 0.0 0.0 
0.0 0.0 0.0 
0.0 0.0 0.0 
0.0 0.0 0.0 
0.0 0.0 0.0 
0.0 0.0 0.0 
0.0 0.0 0.0 
0.0 0.0 0.0 
0.0 0.0 0.0 
0.0 0.0 0.0 
0.0 0.0 0.0 
0.0 0.0 0.0 
0.0 0.0 0.0 
0.0 0.0 0.0 
0.0 0.0 0.0 
0.0 0.0 0.0 
0.0 0.0 0.0 
0.0 0.0 0.0 
0.0 0.0 0.0 
0.0 0.0 0.0 
0.0 0.0 0.0 
0.0 0.0 0.0 
0.0 0.0 0.0 
0.0 0.0 0.0 
0.0 0.0 0.0 
0.0 0.0 0.0 
0.0 0.0 0.0 
0.0 0.0 0.0 
0.0 0.0 0.0 
0.0 0.0 0.0 
0.0 0.0 0.0 
0.0 0.0 0.0 
0.0 0.0 0.0 
0.0 0.0 0.0 
0.0 0.0 0.0 
0.0 0.0 0.0 
0.0 0.0 0.0 
0.0 0.0 0.0 
0.0 0.0 0.0 
0.0 0.0 0.0 
0.0 0.0 0.0 
0.0 0.0 0.0 
0.0 0.0 0.0 
0.0 0.0 0.0 

TENSORS element_materi_stress float
-2.693617325872e+01 1.904036135173e+01 0.0 
1.904036135173e+01 -3.890810415739e+01 0.0 
0.0 0.0 -1.935328322483e+01 
-2.802116273678e+01 1.757546586591e+01 0.0 
1.757546586591e+01 -4.075869006455e+01 0.0 
0.0 0.0 -2.023395584040e+01 
-1.139135975565e+02 2.077281812349e+01 0.0 
2.077281812349e+01 -2.574009826213e+02 0.0 
0.0 0.0 -1.109943740533e+02 
-1.007580508488e+02 2.647555249118e+00 0.0 
2.647555249118e+00 -2.278001783638e+02 0.0 
0.0 0.0 -9.816746876376e+01 
-5.092256041743e+01 -1.558704235534e-01 0.0 
-1.558704235534e-01 -8.925586434188e+01 0.0 
0.0 0.0 -4.165352742779e+01 
-2.093281758186e+01 4.576900820705e+00 0.0 
4.576900820705e+00 -3.911977528907e+01 0.0 
0.0 0.0 -1.761577786128e+01 
-5.024144400987e+01 -5.671883456870e-01 0.0 
-5.671883456870e-01 -8.944818682154e+01 0.0 
0.0 0.0 -4.150688924942e+01 
-2.875951252590e+01 1.893221584190e+01 0.0 
1.893221584190e+01 -4.421376464174e+01 0.0 
0.0 0.0 -2.149198315029e+01 
-5.118604037478e+01 1.819036947900e+00 0.0 
1.819036947900e+00 -9.021493054552e+01 0.0 
0.0 0.0 -4.202029127609e+01 
-1.001017596898e+02 2.226322201029e+00 0.0 
2.226322201029e+00 -2.261178009092e+02 0.0 
0.0 0.0 -9.746586817971e+01 
-9.673413565394e+01 -2.903828343598e-01 0.0 
-2.903828343598e-01 -2.523725150823e+02 0.0 
0.0 0.0 -1.043319952209e+02 
-2.393164881286e+01 1.632551465678e+01 0.0 
1.632551465678e+01 -3.310269190293e+01 0.0 
0.0 0.0 -1.671030221474e+01 
-1.507188222591e+02 5.530836296703e-01 0.0 
5.530836296703e-01 -3.618152587483e+02 0.0 
0.0 0.0 -1.533602243022e+02 
-6.164031348494e+01 2.415426340914e+00 0.0 
2.415426340914e+00 -1.074785540390e+02 0.0 
0.0 0.0 -5.033566025718e+01 
-1.555876628553e+02 2.728259510189e+00 0.0 
2.728259510189e+00 -3.695691548387e+02 0.0 
0.0 0.0 -1.571470453082e+02 
-1.026056525259e+02 1.716173940631e+00 0.0 
1.716173940631e+00 -2.359420335553e+02 0.0 
0.0 0.0 -1.011643058244e+02 
-5.047428479137e+01 1.166453836552e+00 0.0 
1.166453836552e+00 -8.546396539130e+01 0.0 
0.0 0.0 -4.038147505480e+01 
-2.056896735502e+01 2.742825324444e+00 0.0 
2.742825324444e+00 -3.962259248460e+01 0.0 
0.0 0.0 -1.765746795189e+01 
-2.844761460565e+01 -1.318941681198e-01 0.0 
-1.318941681198e-01 -7.725591452646e+01 0.0 
0.0 0.0 -3.131105873963e+01 
-2.883571116751e+01 -7.515615010988e-01 0.0 
-7.515615010988e-01 -7.989767103284e+01 0.0 
0.0 0.0 -3.222001466011e+01 
-1.015466144500e+02 4.311354464356e+00 0.0 
4.311354464356e+00 -2.272314216619e+02 0.0 
0.0 0.0 -9.823341083356e+01 
-2.792040451216e+01 1.732397762692e+01 0.0 
1.732397762692e+01 -3.842342992990e+01 0.0 
0.0 0.0 -1.950315033262e+01 
-3.195863712187e+01 1.998216939407e+01 0.0 
1.998216939407e+01 -4.339908860108e+01 0.0 
0.0 0.0 -2.220731771688e+01 
-1.347553762007e+02 1.459117743503e+01 0.0 
1.459117743503e+01 -3.327036464801e+02 0.0 
0.0 0.0 -1.398377068043e+02 
-7.140688733576e+01 5.236055162851e+00 0.0 
5.236055162851e+00 -1.274290668936e+02 0.0 
0.0 0.0 -5.925078626880e+01 
-1.024340337380e+02 1.097433443990e+00 0.0 
1.097433443990e+00 -2.653170633026e+02 0.0 
0.0 0.0 -1.099253291122e+02 
-4.744618344061e+01 3.713239018753e+00 0.0 
3.713239018753e+00 -7.068018564630e+01 0.0 
0.0 0.0 -3.503791072608e+01 
-1.283108277243e+02 2.634369867050e+01 0.0 
2.634369867050e+01 -3.049721613409e+02 0.0 
0.0 0.0 -1.295848967196e+02 
-7.428004487044e+01 8.377783652077e+00 0.0 
8.377783652077e+00 -1.290423426079e+02 0.0 
0.0 0.0 -6.059671624349e+01 
-1.386742526031e+02 1.312893094861e+01 0.0 
1.312893094861e+01 -3.417301077353e+02 0.0 
0.0 0.0 -1.437213081015e+02 
-2.591908540785e+01 -1.700445974994e+00 0.0 
-1.700445974994e+00 -5.781272501248e+01 0.0 
0.0 0.0 -2.471954312610e+01 
-1.427565319961e+01 -1.644435608889e+00 0.0 
-1.644435608889e+00 -2.599713046828e+01 0.0 
0.0 0.0 -1.168183510037e+01 
-1.158531315370e+02 2.096877803482e+01 0.0 
2.096877803482e+01 -2.574420163776e+02 0.0 
0.0 0.0 -1.115885443744e+02 
-1.257874560041e+02 1.170216338499e+00 0.0 
1.170216338499e+00 -3.135383836180e+02 0.0 
0.0 0.0 -1.313977518866e+02 
-1.475357342125e+02 9.242870797004e+00 0.0 
9.242870797004e+00 -3.561021178768e+02 0.0 
0.0 0.0 -1.506913556268e+02 
-1.579016781603e+02 4.179752931923e+00 0.0 
4.179752931923e+00 -3.760471095465e+02 0.0 
0.0 0.0 -1.597846363121e+02 
-1.588151773474e+02 6.839312728187e+00 0.0 
6.839312728187e+00 -3.762035051302e+02 0.0 
0.0 0.0 -1.601056047433e+02 
-1.361105800437e+02 1.963579383563e+01 0.0 
1.963579383563e+01 -3.320952011909e+02 0.0 
0.0 0.0 -1.400617343704e+02 
-4.219120449976e+01 1.369795918395e+00 0.0 
1.369795918395e+00 -7.077523447891e+01 0.0 
0.0 0.0 -3.348993169360e+01 
-4.192147574705e+01 -1.352587532907e+00 0.0 
-1.352587532907e+00 -7.130023405530e+01 0.0 
0.0 0.0 -3.356651294071e+01 
-3.772158338038e+01 1.839466923759e+01 0.0 
1.839466923759e+01 -4.574948252314e+01 0.0 
0.0 0.0 -2.464131977106e+01 
-1.500169294644e+02 1.045353860828e+01 0.0 
1.045353860828e+01 -3.585530733611e+02 0.0 
0.0 0.0 -1.521710008477e+02 
-2.535352190798e+01 1.649818241835e+01 0.0 
1.649818241835e+01 -3.690567077178e+01 0.0 
0.0 0.0 -1.827775780393e+01 
-4.958354099262e+01 3.455377500379e+00 0.0 
3.455377500379e+00 -7.114841612725e+01 0.0 
0.0 0.0 -3.581958713596e+01 
-9.698555679647e+01 1.080090086015e+00 0.0 
1.080090086015e+00 -2.163281161779e+02 0.0 
0.0 0.0 -9.359410189230e+01 
-2.525465320970e+01 1.601821809743e+01 0.0 
1.601821809743e+01 -3.692597940560e+01 0.0 
0.0 0.0 -1.825418978459e+01 
-1.981458890776e+01 -2.131404744682e+00 0.0 
-2.131404744682e+00 -4.324970602520e+01 0.0 
0.0 0.0 -1.851928847989e+01 
-9.633293831733e+01 8.084374620966e-01 0.0 
8.084374620966e-01 -2.176177810495e+02 0.0 
0.0 0.0 -9.378521581006e+01 
-1.685871575341e+01 -1.734368712313e+00 0.0 
-1.734368712313e+00 -2.565931245139e+01 0.0 
0.0 0.0 -1.274528189274e+01 
-5.906567064580e+01 3.481317331625e+00 0.0 
3.481317331625e+00 -9.895166634067e+01 0.0 
0.0 0.0 -4.700520109594e+01 
-3.510945110344e+01 1.948199885570e+01 0.0 
1.948199885570e+01 -4.541873242408e+01 0.0 
0.0 0.0 -2.375845505826e+01 
-3.615125873402e+01 -3.557790203844e-01 0.0 
-3.557790203844e-01 -9.715022400150e+01 0.0 
0.0 0.0 -3.959044482066e+01 
-2.884652086459e+01 -1.260151777271e+00 0.0 
-1.260151777271e+00 -7.903883998447e+01 0.0 
0.0 0.0 -3.196560825472e+01 
-3.246898937458e+01 1.520058356111e+01 0.0 
1.520058356111e+01 -4.004641314411e+01 0.0 
0.0 0.0 -2.135462075561e+01 
-1.095036238200e+02 1.598815364392e+01 0.0 
1.598815364392e+01 -2.461248528347e+02 0.0 
0.0 0.0 -1.062885429964e+02 
-4.704838252716e+01 -2.279094349979e-01 0.0 
-2.279094349979e-01 -1.281907686585e+02 0.0 
0.0 0.0 -5.217174535571e+01 
-3.636907438071e+01 -8.809535325640e-01 0.0 
-8.809535325640e-01 -1.001019274687e+02 0.0 
0.0 0.0 -4.054130055483e+01 
-1.253983218331e+02 -1.251917567282e-01 0.0 
-1.251917567282e-01 -3.134226189754e+02 0.0 
0.0 0.0 -1.312462822426e+02 
-2.259251157150e+01 -1.215588072897e+00 0.0 
-1.215588072897e+00 -5.922567934537e+01 0.0 
0.0 0.0 -2.414545727506e+01 
-1.032782813610e+02 3.581229913850e+00 0.0 
3.581229913850e+00 -2.362682079494e+02 0.0 
0.0 0.0 -1.014639467931e+02 
-2.150435534776e+01 -9.039296028187e-01 0.0 
-9.039296028187e-01 -2.219030765472e+01 0.0 
0.0 0.0 -1.270839890074e+01 
-1.222447471852e+02 2.187044532652e+01 0.0 
2.187044532652e+01 -2.999299642540e+02 0.0 
0.0 0.0 -1.262524134318e+02 
-3.766997936414e+01 1.867944996455e+01 0.0 
1.867944996455e+01 -9.183771628101e+01 0.0 
0.0 0.0 -3.845230869354e+01 
-2.733879924463e+01 -1.356657613732e+00 0.0 
-1.356657613732e+00 -7.246751496381e+01 0.0 
0.0 0.0 -2.954189426253e+01 
-1.504194489030e+02 3.444877639002e+00 0.0 
3.444877639002e+00 -3.610792463493e+02 0.0 
0.0 0.0 -1.530496085757e+02 
-3.052586450914e+01 1.670855300830e+01 0.0 
1.670855300830e+01 -3.860354117836e+01 0.0 
0.0 0.0 -2.033882170625e+01 
-1.767859595863e+01 -1.055391685784e+00 0.0 
-1.055391685784e+00 -2.093408855424e+01 0.0 
0.0 0.0 -1.188575930862e+01 
-1.180367073316e+02 2.276872027762e+01 0.0 
2.276872027762e+01 -2.613495998962e+02 0.0 
0.0 0.0 -1.134158921683e+02 
-2.538851534781e+01 -2.358236947060e+00 0.0 
-2.358236947060e+00 -6.356292408609e+01 0.0 
0.0 0.0 -2.628543183017e+01 
-1.217171561017e+02 2.461329966959e+01 0.0 
2.461329966959e+01 -2.817619584462e+02 0.0 
0.0 0.0 -1.206437343644e+02 
-1.072059610776e+02 1.625859290424e+00 0.0 
1.625859290424e+00 -2.756632237922e+02 0.0 
0.0 0.0 -1.144607554609e+02 
-1.082120964548e+02 1.033221789405e+01 0.0 
1.033221789405e+01 -2.538282250612e+02 0.0 
0.0 0.0 -1.082120964548e+02 
-1.226533507389e+02 2.378426641243e+01 0.0 
2.378426641243e+01 -2.904321136116e+02 0.0 
0.0 0.0 -1.235256393052e+02 
-1.085829264757e+01 -9.510055769525e-01 0.0 
-9.510055769525e-01 -2.983812867809e+01 0.0 
0.0 0.0 -1.180892639770e+01 
-4.844486818739e+01 -1.104272083815e+00 0.0 
-1.104272083815e+00 -1.334159155856e+02 0.0 
0.0 0.0 -5.415823513191e+01 
-1.044612130584e+02 8.248545644508e+00 0.0 
8.248545644508e+00 -2.320014026913e+02 0.0 
0.0 0.0 -1.005387847249e+02 
-1.135892289715e+02 1.748282779794e+01 0.0 
1.748282779794e+01 -2.495754171436e+02 0.0 
0.0 0.0 -1.085493938345e+02 
-2.310538091024e+01 1.350488609225e+01 0.0 
1.350488609225e+01 -3.403790342377e+01 0.0 
0.0 0.0 -1.674298530020e+01 
-2.179445992568e+01 -1.297019609456e+00 0.0 
-1.297019609456e+00 -5.910997333914e+01 0.0 
0.0 0.0 -2.387132997945e+01 
-2.433055849737e+01 1.506829096357e+01 0.0 
1.506829096357e+01 -3.446786406458e+01 0.0 
0.0 0.0 -1.723952676858e+01 
-2.457509197186e+01 -3.330018573089e+00 0.0 
-3.330018573089e+00 -6.300392508377e+01 0.0 
0.0 0.0 -2.587370511669e+01 
-5.065437827787e+01 8.758461549269e-01 0.0 
8.758461549269e-01 -8.497464629841e+01 0.0 
0.0 0.0 -4.028870737289e+01 
-3.070716971714e+01 2.014804818369e+01 0.0 
2.014804818369e+01 -4.336656595351e+01 0.0 
0.0 0.0 -2.182212070120e+01 
-2.537408842260e+01 1.674665518802e+01 0.0 
1.674665518802e+01 -3.434209625683e+01 0.0 
0.0 0.0 -1.751485540383e+01 
-5.621082004111e+01 2.138201933266e+00 0.0 
2.138201933266e+00 -1.006314996854e+02 0.0 
0.0 0.0 -4.665269591795e+01 
-5.488361220217e+01 3.005241593577e-02 0.0 
3.005241593577e-02 -1.000320957139e+02 0.0 
0.0 0.0 -4.607471237482e+01 
-1.113009588121e+02 1.409070520595e+00 0.0 
1.409070520595e+00 -2.841405269623e+02 0.0 
0.0 0.0 -1.182324457323e+02 
-1.214513210003e+02 -6.849405707212e-01 0.0 
-6.849405707212e-01 -3.052726010846e+02 0.0 
0.0 0.0 -1.276171766255e+02 
-1.001195021640e+02 2.040581825204e+01 0.0 
2.040581825204e+01 -2.054984371666e+02 0.0 
0.0 0.0 -9.128538179919e+01 
-5.200207608433e+01 2.197014602756e+00 0.0 
2.197014602756e+00 -8.895567900612e+01 0.0 
0.0 0.0 -4.188732652714e+01 
-1.339980709823e+01 -1.667818687151e+00 0.0 
-1.667818687151e+00 -2.575621772344e+01 0.0 
0.0 0.0 -1.170292266583e+01 
-5.734562970885e+01 4.745282890086e+00 0.0 
4.745282890086e+00 -8.913043920349e+01 0.0 
0.0 0.0 -4.354282067370e+01 
-7.949772096317e+01 1.215672366457e+00 0.0 
1.215672366457e+00 -1.687754074520e+02 0.0 
0.0 0.0 -7.408193852456e+01 
-7.907659507754e+01 5.849119795136e-01 0.0 
5.849119795136e-01 -1.653292115200e+02 0.0 
0.0 0.0 -7.292174197927e+01 
-1.130284305008e+02 1.150586643880e+01 0.0 
1.150586643880e+01 -2.566236096136e+02 0.0 
0.0 0.0 -1.104956120343e+02 
-1.420419817836e+02 2.253219305166e+01 0.0 
2.253219305166e+01 -3.380358213551e+02 0.0 
0.0 0.0 -1.436233409416e+02 
-5.185317088289e+01 1.844909690912e+00 0.0 
1.844909690912e+00 -8.483156720481e+01 0.0 
0.0 0.0 -4.060542142631e+01 
-1.470875875384e+02 1.030622522811e+01 0.0 
1.030622522811e+01 -3.581105218974e+02 0.0 
0.0 0.0 -1.511594328308e+02 
-6.122945609636e+01 7.900869394116e-01 0.0 
7.900869394116e-01 -1.198667204906e+02 0.0 
0.0 0.0 -5.392885297610e+01 
-3.588390344775e+01 2.022778991724e+01 0.0 
2.022778991724e+01 -7.674124320096e+01 0.0 
0.0 0.0 -3.338754399461e+01 
-4.749105741172e+01 1.315276613451e+00 0.0 
1.315276613451e+00 -8.025208059279e+01 0.0 
0.0 0.0 -3.792294140135e+01 
-1.549216280331e+02 1.460876034204e+00 0.0 
1.460876034204e+00 -3.691709964383e+02 0.0 
0.0 0.0 -1.568277873414e+02 
-1.013854185774e+02 1.987215934710e+01 0.0 
1.987215934710e+01 -2.582649586089e+02 0.0 
0.0 0.0 -1.074951131559e+02 
-1.244660471343e+02 2.350050317909e+01 0.0 
2.350050317909e+01 -3.012418189325e+02 0.0 
0.0 0.0 -1.273123598200e+02 
-3.416918972010e+01 1.634249435123e+01 0.0 
1.634249435123e+01 -8.776181361891e+01 0.0 
0.0 0.0 -3.617930100170e+01 
-2.354613818672e+01 -2.291179117106e+00 0.0 
-2.291179117106e+00 -4.244111826022e+01 0.0 
0.0 0.0 -1.939617693408e+01 
-1.404217731705e+02 1.943325217498e+00 0.0 
1.943325217498e+00 -3.421466038497e+02 0.0 
0.0 0.0 -1.443705131061e+02 
-8.604015142486e+01 9.706505055944e-01 0.0 
9.706505055944e-01 -1.846405670904e+02 0.0 
0.0 0.0 -8.080421555459e+01 
-2.127954608191e+01 -1.516227315035e+00 0.0 
-1.516227315035e+00 -2.543731213170e+01 0.0 
0.0 0.0 -1.361505746408e+01 
-1.544915060129e+02 4.644254044756e+00 0.0 
4.644254044756e+00 -3.664841055818e+02 0.0 
0.0 0.0 -1.558926834784e+02 
-9.456340660961e+01 1.809712945913e+01 0.0 
1.809712945913e+01 -1.961985631798e+02 0.0 
0.0 0.0 -8.682859093682e+01 
-8.043835789943e+00 3.527750795378e-01 0.0 
3.527750795378e-01 -2.207180269393e+01 0.0 
0.0 0.0 -8.634691545163e+00 
-4.765144265258e+01 1.598558491763e+01 0.0 
1.598558491763e+01 -1.358429357571e+02 0.0 
0.0 0.0 -5.464831352289e+01 
-5.307111710186e+01 9.762415371401e+00 0.0 
9.762415371401e+00 -7.352884899974e+01 0.0 
0.0 0.0 -3.757998983048e+01 
-5.884813465877e+01 -3.973209926640e-01 0.0 
-3.973209926640e-01 -1.619610754078e+02 0.0 
0.0 0.0 -6.584276301996e+01 
-3.215043526899e+01 1.797389484836e+01 0.0 
1.797389484836e+01 -7.296766170917e+01 0.0 
0.0 0.0 -3.113542909345e+01 
-3.904536450399e+01 1.956374128542e+01 0.0 
1.956374128542e+01 -9.252030483155e+01 0.0 
0.0 0.0 -3.906970080066e+01 
-1.515755118550e+02 7.355118001967e+00 0.0 
7.355118001967e+00 -3.633669666677e+02 0.0 
0.0 0.0 -1.540827435568e+02 
-5.884081022177e+01 -4.812494019108e-01 0.0 
-4.812494019108e-01 -1.132334435408e+02 0.0 
0.0 0.0 -5.122227612878e+01 
-3.490753286018e+01 1.764319859398e+01 0.0 
1.764319859398e+01 -8.944424171868e+01 0.0 
0.0 0.0 -3.690553237366e+01 
-2.426462855971e+01 -1.946168338756e+00 0.0 
-1.946168338756e+00 -6.090089216838e+01 0.0 
0.0 0.0 -2.514965621843e+01 
-5.731381330842e+01 5.005030271058e+00 0.0 
5.005030271058e+00 -8.999613024985e+01 0.0 
0.0 0.0 -4.379298306748e+01 
-8.593717682695e+01 1.373097181274e+00 0.0 
1.373097181274e+00 -1.860690541785e+02 0.0 
0.0 0.0 -8.120186930164e+01 
-3.650695682639e+01 1.805296866835e+01 0.0 
1.805296866835e+01 -9.015708417390e+01 0.0 
0.0 0.0 -3.759921230009e+01 
-2.097211539526e+01 9.548202148212e+00 0.0 
9.548202148212e+00 -2.939259620887e+01 0.0 
0.0 0.0 -1.470941348124e+01 
-4.595863410956e+01 1.353552870515e+01 0.0 
1.353552870515e+01 -5.768947892288e+01 0.0 
0.0 0.0 -3.069443390973e+01 
-5.896958588594e+01 -8.600386455068e-01 0.0 
-8.600386455068e-01 -1.606485741069e+02 0.0 
0.0 0.0 -6.548544799785e+01 
-3.823092455947e+01 1.000973664871e+01 0.0 
1.000973664871e+01 -4.615525363770e+01 0.0 
0.0 0.0 -2.491585345915e+01 
-1.055128214249e+02 7.861699617450e+00 0.0 
7.861699617450e+00 -2.404478658496e+02 0.0 
0.0 0.0 -1.033882061824e+02 
-2.168563601903e+01 9.303004776699e+00 0.0 
9.303004776699e+00 -4.010913365456e+01 0.0 
0.0 0.0 -1.813843090208e+01 
-1.019222379580e+02 -3.627784994017e-02 0.0 
-3.627784994017e-02 -2.643127495357e+02 0.0 
0.0 0.0 -1.094704962481e+02 
-1.001585311547e+02 8.303247177724e-01 0.0 
8.303247177724e-01 -2.276205998573e+02 0.0 
0.0 0.0 -9.793373930362e+01 
-4.909057027147e+01 2.014877690124e+01 0.0 
2.014877690124e+01 -9.885437320270e+01 0.0 
0.0 0.0 -4.398348304225e+01 
-4.222435442150e+01 1.579306943684e+01 0.0 
1.579306943684e+01 -5.128265326160e+01 0.0 
0.0 0.0 -2.765210230493e+01 
-1.461387512852e+02 7.777177989796e+00 0.0 
7.777177989796e+00 -3.555456066471e+02 0.0 
0.0 0.0 -1.501053073797e+02 
-1.512195826603e+02 2.251120693634e+00 0.0 
2.251120693634e+00 -3.624908703694e+02 0.0 
0.0 0.0 -1.537131359089e+02 
-1.109821171701e+02 1.159911230998e-01 0.0 
1.159911230998e-01 -2.840539561163e+02 0.0 
0.0 0.0 -1.181108219859e+02 
-5.273964944613e+01 2.224612556212e+01 0.0 
2.224612556212e+01 -1.015152736764e+02 0.0 
0.0 0.0 -4.587647693675e+01 
-1.450466893888e+02 1.362421314280e+01 0.0 
1.362421314280e+01 -3.538977770904e+02 0.0 
0.0 0.0 -1.492833399438e+02 
-4.542923071063e+01 1.908668415761e+01 0.0 
1.908668415761e+01 -8.150895760396e+01 0.0 
0.0 0.0 -3.768145649438e+01 
-1.029178677497e+02 5.671859510068e+00 0.0 
5.671859510068e+00 -2.340778825176e+02 0.0 
0.0 0.0 -1.006987250802e+02 
-1.219269617913e+02 2.554072181900e+01 0.0 
2.554072181900e+01 -2.802525637803e+02 0.0 
0.0 0.0 -1.202538576715e+02 
-6.342699130054e+01 4.984353380118e+00 0.0 
4.984353380118e+00 -1.074968206951e+02 0.0 
0.0 0.0 -5.087714359868e+01 
-7.131614294284e+01 5.543367338429e-01 0.0 
5.543367338429e-01 -1.441920779950e+02 0.0 
0.0 0.0 -6.425246628136e+01 
-4.509012495958e+01 2.197117246440e+01 0.0 
2.197117246440e+01 -8.153695641729e+01 0.0 
0.0 0.0 -3.758812441306e+01 
-3.539359883099e+01 1.232750450235e+01 0.0 
1.232750450235e+01 -4.214896579777e+01 0.0 
0.0 0.0 -2.286276938863e+01 
-5.677685082621e+01 2.036879537960e+01 0.0 
2.036879537960e+01 -1.180812237888e+02 0.0 
0.0 0.0 -5.205742238451e+01 
-3.930832977043e+01 1.704214542422e+01 0.0 
1.704214542422e+01 -1.054857492470e+02 0.0 
0.0 0.0 -4.303822370522e+01 
-4.756600892946e+01 1.165739062529e+00 0.0 
1.165739062529e+00 -8.294473609987e+01 0.0 
0.0 0.0 -3.875322350880e+01 
-4.873317791638e+01 1.639909766245e+01 0.0 
1.639909766245e+01 -1.363757502629e+02 0.0 
0.0 0.0 -5.513267845379e+01 
-1.224096865311e+01 -1.367874792223e+00 0.0 
-1.367874792223e+00 -2.506902384102e+01 0.0 
0.0 0.0 -1.121117534033e+01 
-5.251599098423e+01 2.051842395344e-01 0.0 
2.051842395344e-01 -9.792430627311e+01 0.0 
0.0 0.0 -4.473208917720e+01 
-2.117499270946e+01 -4.341326563514e-01 0.0 
-4.341326563514e-01 -6.017413001272e+01 0.0 
0.0 0.0 -2.400473681665e+01 
-4.967322236480e+01 1.142942729825e+01 0.0 
1.142942729825e+01 -6.574943143445e+01 0.0 
0.0 0.0 -3.422679613978e+01 
-1.488244701333e+02 1.282031486316e+01 0.0 
1.282031486316e+01 -3.558932410168e+02 0.0 
0.0 0.0 -1.510153133450e+02 
-3.278772522897e+01 1.639662942346e+01 0.0 
1.639662942346e+01 -8.717701550312e+01 0.0 
0.0 0.0 -3.558942221963e+01 
-1.159891380501e+02 -3.020857509890e-01 0.0 
-3.020857509890e-01 -2.942456410686e+02 0.0 
0.0 0.0 -1.226704337356e+02 
-2.628650202255e+01 1.692136654879e+01 0.0 
1.692136654879e+01 -3.755766079749e+01 0.0 
0.0 0.0 -1.875324884601e+01 
-9.973735107596e+01 1.854917413569e+01 0.0 
1.854917413569e+01 -2.573903728391e+02 0.0 
0.0 0.0 -1.067383171745e+02 
-4.696493180109e+01 1.329196005476e-01 0.0 
1.329196005476e-01 -8.440057314072e+01 0.0 
0.0 0.0 -3.900965148254e+01 
-4.439088012240e+01 1.435155800171e+01 0.0 
1.435155800171e+01 -1.316173692943e+02 0.0 
0.0 0.0 -5.240247482502e+01 
-1.302645432779e+02 1.877576088508e+00 0.0 
1.877576088508e+00 -3.227263951753e+02 0.0 
0.0 0.0 -1.354972815359e+02 
-2.404103753641e+01 -3.124256175300e+00 0.0 
-3.124256175300e+00 -6.048748568053e+01 0.0 
0.0 0.0 -2.495855696508e+01 
-1.400833856151e+02 4.780193927588e-01 0.0 
4.780193927588e-01 -3.417808804842e+02 0.0 
0.0 0.0 -1.441592798298e+02 
-6.061277646372e+01 1.209285532321e+01 0.0 
1.209285532321e+01 -9.814783722585e+01 0.0 
0.0 0.0 -4.722818410687e+01 
-1.513354603389e+02 3.928275188277e+00 0.0 
3.928275188277e+00 -3.648162603199e+02 0.0 
0.0 0.0 -1.544455161977e+02 
-4.628227100961e+01 -4.558104110840e-02 0.0 
-4.558104110840e-02 -8.339811002832e+01 0.0 
0.0 0.0 -3.850411431138e+01 
-3.564558799942e+01 1.505710949331e+01 0.0 
1.505710949331e+01 -1.009789890569e+02 0.0 
0.0 0.0 -4.058737311689e+01 
-4.581344096640e+01 6.699008009230e+00 0.0 
6.699008009230e+00 -6.155934244367e+01 0.0 
0.0 0.0 -3.181183502302e+01 
-9.673828732366e+01 7.020596445114e-01 0.0 
7.020596445114e-01 -2.533258375561e+02 0.0 
0.0 0.0 -1.046192374639e+02 
-2.648794262922e+01 1.779224715859e+01 0.0 
1.779224715859e+01 -3.729009156485e+01 0.0 
0.0 0.0 -1.873341025822e+01 
-4.576870399417e+01 1.438098217749e+01 0.0 
1.438098217749e+01 -1.322083973707e+02 0.0 
0.0 0.0 -5.299313040945e+01 
-7.564410130493e+01 2.247017687011e+00 0.0 
2.247017687011e+00 -1.551900280901e+02 0.0 
0.0 0.0 -6.885023881852e+01 
-4.660279332808e+01 -4.615815257172e-01 0.0 
-4.615815257172e-01 -8.314021194399e+01 0.0 
0.0 0.0 -3.852290158162e+01 
-4.123220543773e+01 1.552929612554e+01 0.0 
1.552929612554e+01 -1.180745871791e+02 0.0 
0.0 0.0 -4.739203778506e+01 
-4.189182817776e+01 8.056883674800e+00 0.0 
8.056883674800e+00 -5.294760012732e+01 0.0 
0.0 0.0 -2.805182849152e+01 
-1.063415806313e+02 2.163915013925e+01 0.0 
2.163915013925e+01 -2.396306331964e+02 0.0 
0.0 0.0 -1.033916641483e+02 
-6.617764585441e+01 -1.973015789954e-01 0.0 
-1.973015789954e-01 -1.790886004146e+02 0.0 
0.0 0.0 -7.317987388071e+01 
-1.305426841741e+02 2.456286532837e+01 0.0 
2.456286532837e+01 -3.090158151483e+02 0.0 
0.0 0.0 -1.314675497967e+02 
-1.239026658825e+02 2.654300887624e+01 0.0 
2.654300887624e+01 -2.855101583656e+02 0.0 
0.0 0.0 -1.224238472744e+02 
-3.105070765271e+01 1.932590443807e+01 0.0 
1.932590443807e+01 -5.895047066824e+01 0.0 
0.0 0.0 -2.660035349628e+01 
-6.626303088123e+01 -6.607576920834e-01 0.0 
-6.607576920834e-01 -1.800970417858e+02 0.0 
0.0 0.0 -7.350802180011e+01 
-1.236511383552e+02 1.561399480230e+01 0.0 
1.561399480230e+01 -3.119560629585e+02 0.0 
0.0 0.0 -1.302821603941e+02 
-4.138965279859e+01 2.076985090120e+01 0.0 
2.076985090120e+01 -6.368140460371e+01 0.0 
0.0 0.0 -3.112131722069e+01 
-2.780576319896e+01 1.687351874798e+01 0.0 
1.687351874798e+01 -5.508775802363e+01 0.0 
0.0 0.0 -2.446805636678e+01 
-5.544076009838e+01 8.898646567933e+00 0.0 
8.898646567933e+00 -8.431951285028e+01 0.0 
0.0 0.0 -4.152808188460e+01 
-4.529964556754e+01 1.772922349074e+01 0.0 
1.772922349074e+01 -1.229701246488e+02 0.0 
0.0 0.0 -5.008093106491e+01 
-1.014040982338e+02 3.479583888977e+00 0.0 
3.479583888977e+00 -2.325564852431e+02 0.0 
0.0 0.0 -9.978817504304e+01 
-9.382619350151e+01 1.560927583108e+01 0.0 
1.560927583108e+01 -1.895160260865e+02 0.0 
0.0 0.0 -8.460266587640e+01 
-1.353027422365e+02 -2.139797297595e-01 0.0 
-2.139797297595e-01 -3.326403227524e+02 0.0 
0.0 0.0 -1.399829194967e+02 
-2.454761721066e+01 1.509296250834e+01 0.0 
1.509296250834e+01 -3.583248532392e+01 0.0 
0.0 0.0 -1.771403076038e+01 
-4.314398637927e+01 1.221628715542e+01 0.0 
1.221628715542e+01 -1.278888254149e+02 0.0 
0.0 0.0 -5.090984353824e+01 
-9.779611839626e+01 1.746913582434e+01 0.0 
1.746913582434e+01 -2.034510051740e+02 0.0 
0.0 0.0 -8.997413707107e+01 
-1.688397977828e+01 3.152324230968e+00 0.0 
3.152324230968e+00 -4.313296961475e+00 0.0 
0.0 0.0 -5.959183021925e+00 
-4.147610875958e+01 1.713602349759e+01 0.0 
1.713602349759e+01 -6.361941231671e+01 0.0 
0.0 0.0 -3.112865632289e+01 
-1.151641753492e+02 1.233522174219e+01 0.0 
1.233522174219e+01 -2.974009930442e+02 0.0 
0.0 0.0 -1.233695505180e+02 
-1.687678705931e+01 -9.525380922914e-01 0.0 
-9.525380922914e-01 -4.268481658526e+01 0.0 
0.0 0.0 -1.746848109337e+01 
-1.115463209207e+02 1.733110582957e+01 0.0 
1.733110582957e+01 -2.470828509844e+02 0.0 
0.0 0.0 -1.071887515716e+02 
-8.127140489624e+01 9.447949240081e+00 0.0 
9.447949240081e+00 -1.513328996731e+02 0.0 
0.0 0.0 -6.938129137081e+01 
-5.757620136373e+01 -8.791369921148e-01 0.0 
-8.791369921148e-01 -1.675279542454e+02 0.0 
0.0 0.0 -6.713124668273e+01 
-1.129221196033e+02 1.100801154481e+01 0.0 
1.100801154481e+01 -2.963132461913e+02 0.0 
0.0 0.0 -1.223706097384e+02 
-6.488322566967e+01 6.642483094860e+00 0.0 
6.642483094860e+00 -1.062849715403e+02 0.0 
0.0 0.0 -5.095045916299e+01 
-7.019441992507e+01 6.302524848332e+00 0.0 
6.302524848332e+00 -1.204102880004e+02 0.0 
0.0 0.0 -5.678141237763e+01 
-1.405399483600e+02 1.384782634348e+01 0.0 
1.384782634348e+01 -3.422331846239e+02 0.0 
0.0 0.0 -1.444319398951e+02 
-4.445888845140e+01 -2.637856400532e+00 0.0 
-2.637856400532e+00 -1.269430159193e+02 0.0 
0.0 0.0 -5.102057131120e+01 
-6.020125505289e+01 2.064789813946e+01 0.0 
2.064789813946e+01 -1.343855256760e+02 0.0 
0.0 0.0 -5.797603421866e+01 
-6.526473656303e+01 1.494950143962e+01 0.0 
1.494950143962e+01 -1.131556336837e+02 0.0 
0.0 0.0 -5.312611107402e+01 
-8.713304984799e+01 1.172343597934e+01 0.0 
1.172343597934e+01 -1.624164098264e+02 0.0 
0.0 0.0 -7.446483790232e+01 
-6.611144313233e+01 1.444660493102e+01 0.0 
1.444660493102e+01 -1.068489785611e+02 0.0 
0.0 0.0 -5.148812650804e+01 
-5.780363627701e+01 1.309821787874e+01 0.0 
1.309821787874e+01 -8.529809221282e+01 0.0 
0.0 0.0 -4.253051854695e+01 
-8.794807114584e+01 1.726866857901e+01 0.0 
1.726866857901e+01 -2.339657296382e+02 0.0 
0.0 0.0 -9.617414023521e+01 
-1.033900184285e+02 2.297090307389e+01 0.0 
2.297090307389e+01 -2.255655695318e+02 0.0 
0.0 0.0 -9.828667638811e+01 
-2.060254346793e+01 2.964696345351e+00 0.0 
2.964696345351e+00 -2.064318192996e+01 0.0 
0.0 0.0 -1.197371761937e+01 
-3.027962196853e+01 1.875557390975e+01 0.0 
1.875557390975e+01 -5.872226724591e+01 0.0 
0.0 0.0 -2.630056676433e+01 
-3.470838858981e+01 1.901619731450e+01 0.0 
1.901619731450e+01 -7.596098724375e+01 0.0 
0.0 0.0 -3.280081275007e+01 
-5.614491675738e+01 2.256716603658e+01 0.0 
2.256716603658e+01 -1.182407690388e+02 0.0 
0.0 0.0 -5.191570573886e+01 
-9.943670313635e+01 1.784094742102e+01 0.0 
1.784094742102e+01 -1.996372402657e+02 0.0 
0.0 0.0 -8.932218302063e+01 
-2.266862841714e+01 4.518010452021e+00 0.0 
4.518010452021e+00 -5.848742418622e+01 0.0 
0.0 0.0 -2.394681578101e+01 
-1.106898997455e+02 1.067558362704e+01 0.0 
1.067558362704e+01 -2.892058673021e+02 0.0 
0.0 0.0 -1.195687301143e+02 
-4.666773886210e+01 1.140904063566e+00 0.0 
1.140904063566e+00 -8.192911857281e+01 0.0 
0.0 0.0 -3.817905723047e+01 
-4.171899248562e+01 1.250322633919e+01 0.0 
1.250322633919e+01 -1.273417368348e+02 0.0 
0.0 0.0 -5.031821879613e+01 
-1.063890240206e+02 9.095760774902e+00 0.0 
9.095760774902e+00 -2.807889174274e+02 0.0 
0.0 0.0 -1.157533824344e+02 
-1.263462702553e+01 -7.188257877815e-01 0.0 
-7.188257877815e-01 -2.861770767726e+01 0.0 
0.0 0.0 -1.197570041084e+01 
-8.851295295752e+01 1.096643025125e+01 0.0 
1.096643025125e+01 -1.723554188092e+02 0.0 
0.0 0.0 -7.786051153001e+01 
-1.209741962397e+01 -1.225929140488e+00 0.0 
-1.225929140488e+00 -2.418359637962e+01 0.0 
0.0 0.0 -1.048430480108e+01 
-1.608871355927e+01 -1.255981178913e+00 0.0 
-1.255981178913e+00 -4.300081851569e+01 0.0 
0.0 0.0 -1.732685962249e+01 
-2.467754300781e+01 1.577213297232e+01 0.0 
1.577213297232e+01 -3.583899956158e+01 0.0 
0.0 0.0 -1.775496277082e+01 
-3.801423333400e+01 -2.899662490790e+00 0.0 
-2.899662490790e+00 -1.075709296624e+02 0.0 
0.0 0.0 -4.327554889893e+01 
-9.407098729617e+01 1.308148350812e+01 0.0 
1.308148350812e+01 -1.832072124024e+02 0.0 
0.0 0.0 -8.278345990957e+01 
-3.683925574083e+01 -2.036255796342e+00 0.0 
-2.036255796342e+00 -1.010153289398e+02 0.0 
0.0 0.0 -4.095637540420e+01 
-2.604407481101e+01 1.283088150320e+01 0.0 
1.283088150320e+01 -6.420148098599e+01 0.0 
0.0 0.0 -2.667366673910e+01 
-2.947470731228e+01 -2.154799540068e+00 0.0 
-2.154799540068e+00 -7.811606250623e+01 0.0 
0.0 0.0 -3.187723094555e+01 
-2.615996720882e+01 -3.116192125528e+00 0.0 
-3.116192125528e+00 -6.870235243038e+01 0.0 
0.0 0.0 -2.805869589176e+01 
-1.172914312791e+02 1.268361620397e+01 0.0 
1.268361620397e+01 -3.036668526599e+02 0.0 
0.0 0.0 -1.258874851817e+02 
-6.213059624228e+01 1.626370286216e+01 0.0 
1.626370286216e+01 -9.902928076353e+01 0.0 
0.0 0.0 -4.794796310174e+01 
-1.499192432862e+02 1.977377886854e+00 0.0 
1.977377886854e+00 -3.609807637713e+02 0.0 
0.0 0.0 -1.528700021173e+02 
-1.649901680918e+01 1.812518766689e+00 0.0 
1.812518766689e+00 -8.616001821896e+00 0.0 
0.0 0.0 -8.076205114176e+00 
-2.913183197361e+01 1.296295980748e+01 0.0 
1.296295980748e+01 -8.054085500068e+01 0.0 
0.0 0.0 -3.250180609229e+01 
-4.810766691394e+01 1.309096115686e+01 0.0 
1.309096115686e+01 -1.449387332609e+02 0.0 
0.0 0.0 -5.751392005245e+01 
-3.718781561426e+01 1.808267223170e+01 0.0 
1.808267223170e+01 -6.136287982466e+01 0.0 
0.0 0.0 -2.916520863168e+01 
-1.085434854807e+02 9.422344690918e+00 0.0 
9.422344690918e+00 -2.881651548795e+02 0.0 
0.0 0.0 -1.186125921081e+02 
-1.522651406647e+02 3.834236814691e+00 0.0 
3.834236814691e+00 -3.662989822907e+02 0.0 
0.0 0.0 -1.551692368866e+02 
-9.246110818780e+01 1.665273441482e+01 0.0 
1.665273441482e+01 -1.782077887275e+02 0.0 
0.0 0.0 -8.080066907459e+01 
-3.550526084648e+01 9.101272323410e+00 0.0 
9.101272323410e+00 -1.058744304039e+02 0.0 
0.0 0.0 -4.201390737510e+01 
-1.192841921568e+02 1.382279681694e+01 0.0 
1.382279681694e+01 -3.045320708627e+02 0.0 
0.0 0.0 -1.267448789059e+02 
-1.063112809487e+02 -6.171912562921e-01 0.0 
-6.171912562921e-01 -2.738804148482e+02 0.0 
0.0 0.0 -1.136575087391e+02 
-6.048550744892e+01 2.238126626752e+01 0.0 
2.238126626752e+01 -1.213133584020e+02 0.0 
0.0 0.0 -5.413965975527e+01 
-8.556144255938e+01 1.146439920558e+01 0.0 
1.146439920558e+01 -1.632003232301e+02 0.0 
0.0 0.0 -7.422852973685e+01 
-1.276689448463e+02 2.422152612547e+01 0.0 
2.422152612547e+01 -3.042201939223e+02 0.0 
0.0 0.0 -1.291667416306e+02 
-4.957976859597e+01 1.316091159557e+01 0.0 
1.316091159557e+01 -1.455778502612e+02 0.0 
0.0 0.0 -5.814728565716e+01 
-2.797334517436e+01 1.367322190993e+01 0.0 
1.367322190993e+01 -6.719106999681e+01 0.0 
0.0 0.0 -2.814932455135e+01 
-7.394857065980e+01 1.558987704498e+01 0.0 
1.558987704498e+01 -1.278942182657e+02 0.0 
0.0 0.0 -6.015283667766e+01 
-1.117036903589e+02 9.693415424765e+00 0.0 
9.693415424765e+00 -2.555862965372e+02 0.0 
0.0 0.0 -1.097869960688e+02 
-5.964832043744e+01 2.239987732458e+01 0.0 
2.239987732458e+01 -1.344662942432e+02 0.0 
0.0 0.0 -5.783438440418e+01 
-6.783117805813e+01 1.376323908946e+01 0.0 
1.376323908946e+01 -1.929616504371e+02 0.0 
0.0 0.0 -7.783784854858e+01 
-5.441230391693e+01 5.966264877197e-01 0.0 
5.966264877197e-01 -1.017064999436e+02 0.0 
0.0 0.0 -4.643564115815e+01 
-2.498250693513e+01 -2.651264814147e+00 0.0 
-2.651264814147e+00 -5.742259706544e+01 0.0 
0.0 0.0 -2.432153120017e+01 
-6.362904387630e+01 1.050146164402e+01 0.0 
1.050146164402e+01 -1.049058255010e+02 0.0 
0.0 0.0 -5.016046081319e+01 
-3.398180158739e+01 9.797641049161e+00 0.0 
9.797641049161e+00 -1.053790372525e+02 0.0 
0.0 0.0 -4.140825165198e+01 
-2.618393267823e+01 5.033433761684e+00 0.0 
5.033433761684e+00 -7.617453365715e+01 0.0 
0.0 0.0 -3.030753990061e+01 
-2.415003381797e+01 -1.644372242984e+00 0.0 
-1.644372242984e+00 -6.100052459403e+01 0.0 
0.0 0.0 -2.514516752360e+01 
-9.116954618197e+01 1.053465212496e+01 0.0 
1.053465212496e+01 -1.815041527497e+02 0.0 
0.0 0.0 -8.140210967951e+01 
-7.014538885546e+01 1.706358031881e+01 0.0 
1.706358031881e+01 -1.207321876838e+02 0.0 
0.0 0.0 -5.686327296178e+01 
-3.842161134533e+01 1.679742146379e+01 0.0 
1.679742146379e+01 -1.050540510040e+02 0.0 
0.0 0.0 -4.264269870478e+01 
-9.657822879638e+01 1.253607560430e+01 0.0 
1.253607560430e+01 -1.924609661252e+02 0.0 
0.0 0.0 -8.631175847649e+01 
-9.628917806052e+01 1.855749788556e+01 0.0 
1.855749788556e+01 -1.914116856960e+02 0.0 
0.0 0.0 -8.591025912696e+01 
-6.496464743708e+01 2.167773660825e+01 0.0 
2.167773660825e+01 -1.250721771812e+02 0.0 
0.0 0.0 -5.661104738548e+01 
-1.538283634874e+02 5.863211910109e+00 0.0 
5.863211910109e+00 -3.657425618234e+02 0.0 
0.0 0.0 -1.554712775932e+02 
-7.081448332481e+01 1.239991236843e+01 0.0 
1.239991236843e+01 -2.044241627305e+02 0.0 
0.0 0.0 -8.217159381659e+01 
-6.944811110686e+01 2.055491053035e+01 0.0 
2.055491053035e+01 -1.296422315480e+02 0.0 
0.0 0.0 -5.932710279646e+01 
-5.203595548759e+01 1.822214150167e+01 0.0 
1.822214150167e+01 -1.406181740121e+02 0.0 
0.0 0.0 -5.739623884991e+01 
-7.578044769726e+01 1.470316068103e+01 0.0 
1.470316068103e+01 -2.107158568066e+02 0.0 
0.0 0.0 -8.554889135116e+01 
-3.004762464162e+01 5.512244430033e+00 0.0 
5.512244430033e+00 -9.326978010201e+01 0.0 
0.0 0.0 -3.659522142309e+01 
-5.481979123852e+01 3.191008173841e+00 0.0 
3.191008173841e+00 -8.663120914240e+01 0.0 
0.0 0.0 -4.203530011428e+01 
-5.334579569174e+01 1.191939156864e+01 0.0 
1.191939156864e+01 -1.579073306947e+02 0.0 
0.0 0.0 -6.297593791592e+01 
-4.127372633721e+01 2.095419425170e+00 0.0 
2.095419425170e+00 -1.243299388865e+02 0.0 
0.0 0.0 -4.928109956710e+01 
-8.984890997062e+01 1.364078878355e+01 0.0 
1.364078878355e+01 -1.762891192608e+02 0.0 
0.0 0.0 -7.944140876943e+01 
-2.154141766417e+01 8.638229464592e-01 0.0 
8.638229464592e-01 -6.171459235265e+00 0.0 
0.0 0.0 -7.913863069831e+00 
-6.975123339160e+01 1.308359484383e+01 0.0 
1.308359484383e+01 -1.148691322454e+02 0.0 
0.0 0.0 -5.498610969111e+01 
-3.691787050613e+01 8.341593651669e+00 0.0 
8.341593651669e+00 -1.169493241400e+02 0.0 
0.0 0.0 -4.576015839385e+01 
-3.009952964288e+01 1.210832457531e+01 0.0 
1.210832457531e+01 -8.078177656289e+01 0.0 
0.0 0.0 -3.286439186173e+01 
-3.196664829189e+01 4.755838925592e+00 0.0 
4.755838925592e+00 -9.389696771449e+01 0.0 
0.0 0.0 -3.735908480191e+01 
-7.643103748112e+01 1.442865933605e+01 0.0 
1.442865933605e+01 -1.404511710859e+02 0.0 
0.0 0.0 -6.466466257011e+01 
-1.923770412260e+01 -2.068316858277e+00 0.0 
-2.068316858277e+00 -4.144997222417e+01 0.0 
0.0 0.0 -1.780630290403e+01 
-3.785240963423e+01 1.961278908898e+01 0.0 
1.961278908898e+01 -7.796340518488e+01 0.0 
0.0 0.0 -3.434474444573e+01 
-7.899364189851e+01 1.326231062290e+01 0.0 
1.326231062290e+01 -2.223310046745e+02 0.0 
0.0 0.0 -8.999739397191e+01 
-6.854761112984e+01 1.330713585637e+01 0.0 
1.330713585637e+01 -1.191250330630e+02 0.0 
0.0 0.0 -5.590179325784e+01 
-6.298622890353e+01 5.158474234992e+00 0.0 
5.158474234992e+00 -1.054176211535e+02 0.0 
0.0 0.0 -5.012115501711e+01 
-2.207418265616e+01 3.012994259771e+00 0.0 
3.012994259771e+00 -5.150089517322e+01 0.0 
0.0 0.0 -2.167252334881e+01 
-3.900943427454e+01 2.171249160071e+00 0.0 
2.171249160071e+00 -1.233872623890e+02 0.0 
0.0 0.0 -4.831900899906e+01 
-3.899369140955e+01 6.758955433918e-01 0.0 
6.758955433918e-01 -1.156289630610e+02 0.0 
0.0 0.0 -4.598679634117e+01 
-3.291911099338e+01 2.045422042909e+01 0.0 
2.045422042909e+01 -5.979106903401e+01 0.0 
0.0 0.0 -2.741305400822e+01 
-8.837897973482e+01 1.459213564398e+01 0.0 
1.459213564398e+01 -1.652280796332e+02 0.0 
0.0 0.0 -7.568211781039e+01 
-3.851905858913e+01 2.130704693575e+01 0.0 
2.130704693575e+01 -7.860917488155e+01 0.0 
0.0 0.0 -3.473847004121e+01 
-4.887446965633e+01 9.902265343842e+00 0.0 
9.902265343842e+00 -1.515583214169e+02 0.0 
0.0 0.0 -5.972983732198e+01 
-4.520466245105e+01 1.115893417037e+01 0.0 
1.115893417037e+01 -1.397658840803e+02 0.0 
0.0 0.0 -5.509116395939e+01 
-2.437851520404e+01 3.568175796748e+00 0.0 
3.568175796748e+00 -5.870489869377e+01 0.0 
0.0 0.0 -2.452502416934e+01 
-5.500433981924e+01 1.661212978733e+01 0.0 
1.661212978733e+01 -1.540210673256e+02 0.0 
0.0 0.0 -6.230762214346e+01 
-2.404706047257e+01 1.159601845413e+01 0.0 
1.159601845413e+01 -4.819705699774e+01 0.0 
0.0 0.0 -2.127323524109e+01 
-1.180888782436e+02 1.831255113698e+01 0.0 
1.831255113698e+01 -2.666612541240e+02 0.0 
0.0 0.0 -1.150250397103e+02 
-1.201285691888e+02 2.171324192042e+01 0.0 
2.171324192042e+01 -2.727101392521e+02 0.0 
0.0 0.0 -1.174516125323e+02 
-6.364273940664e+01 2.051025993605e+01 0.0 
2.051025993605e+01 -1.501047585266e+02 0.0 
0.0 0.0 -6.372424937997e+01 
-3.196282968045e+01 7.648039752134e+00 0.0 
7.648039752134e+00 -9.981751524502e+01 0.0 
0.0 0.0 -3.913410347764e+01 
-2.854771769401e+01 9.922421643256e+00 0.0 
9.922421643256e+00 -7.680733819543e+01 0.0 
0.0 0.0 -3.120651676683e+01 
-7.306702863553e+01 1.886330649261e+01 0.0 
1.886330649261e+01 -1.448311085660e+02 0.0 
0.0 0.0 -6.496944116046e+01 
-3.096659437900e+01 8.344047794856e+00 0.0 
8.344047794856e+00 -8.891128835537e+01 0.0 
0.0 0.0 -3.556336482031e+01 
-3.681980582041e+01 5.555753693454e-01 0.0 
5.555753693454e-01 -1.146812647635e+02 0.0 
0.0 0.0 -4.505032117517e+01 
-6.112039156883e+01 1.972186665642e+01 0.0 
1.972186665642e+01 -1.209035039481e+02 0.0 
0.0 0.0 -5.420716865507e+01 
-1.052344638066e+02 6.404895060503e+00 0.0 
6.404895060503e+00 -2.357513518870e+02 0.0 
0.0 0.0 -1.018957447081e+02 
-3.919715406170e+01 1.043563278475e+01 0.0 
1.043563278475e+01 -1.224464019709e+02 0.0 
0.0 0.0 -4.809306680979e+01 
-8.672650875250e+01 1.643652949856e+01 0.0 
1.643652949856e+01 -2.333026992294e+02 0.0 
0.0 0.0 -9.560876239456e+01 
-2.466933974562e+01 1.095556727658e+01 0.0 
1.095556727658e+01 -6.041811275971e+01 0.0 
0.0 0.0 -2.512623575160e+01 
-1.522402760872e+02 1.713628778010e+01 0.0 
1.713628778010e+01 -3.642382160824e+02 0.0 
0.0 0.0 -1.545435476509e+02 
-2.952748359309e+01 9.268696076080e+00 0.0 
9.268696076080e+00 -8.851614563658e+01 0.0 
0.0 0.0 -3.501308876890e+01 
-6.457487574950e+01 2.045454518925e+01 0.0 
2.045454518925e+01 -1.374125989661e+02 0.0 
0.0 0.0 -6.019624241469e+01 
-2.469647863186e+01 3.039669085035e+00 0.0 
3.039669085035e+00 -6.882545930483e+01 0.0 
0.0 0.0 -2.765658138101e+01 
-8.914214311390e+01 9.348986636166e+00 0.0 
9.348986636166e+00 -2.486700371902e+02 0.0 
0.0 0.0 -1.009436540912e+02 
-5.186564835638e+01 1.184036395857e+01 0.0 
1.184036395857e+01 -1.572626339811e+02 0.0 
0.0 0.0 -6.233848470123e+01 
-4.010831473275e+01 5.842013408889e-02 0.0 
5.842013408889e-02 -1.241876013542e+02 0.0 
0.0 0.0 -4.888877482608e+01 
-6.597126155045e+01 1.877507758293e+01 0.0 
1.877507758293e+01 -1.141581409451e+02 0.0 
0.0 0.0 -5.363882074867e+01 
-1.257297930549e+02 2.606795282550e+01 0.0 
2.606795282550e+01 -2.888497816048e+02 0.0 
0.0 0.0 -1.239738723979e+02 
-4.256626361948e+01 9.109738612853e+00 0.0 
9.109738612853e+00 -1.341870949949e+02 0.0 
0.0 0.0 -5.262600758431e+01 
-8.044873569720e+01 1.391200102274e+01 0.0 
1.391200102274e+01 -2.230796474734e+02 0.0 
0.0 0.0 -9.065851495118e+01 
-2.526299556631e+01 9.506690870684e+00 0.0 
9.506690870684e+00 -6.038698633881e+01 0.0 
0.0 0.0 -2.529499457154e+01 
-7.321772119469e+01 3.675897236799e+00 0.0 
3.675897236799e+00 -1.382021458647e+02 0.0 
0.0 0.0 -6.302596011782e+01 
-1.043180993833e+02 7.905117219323e+00 0.0 
7.905117219323e+00 -2.796929366721e+02 0.0 
0.0 0.0 -1.148033108166e+02 
-2.967541579630e+01 1.555951986308e+01 0.0 
1.555951986308e+01 -6.994697017560e+01 0.0 
0.0 0.0 -2.948671579157e+01 
-7.103704748216e+01 4.625641554526e+00 0.0 
4.625641554526e+00 -1.299618505981e+02 0.0 
0.0 0.0 -5.989966942407e+01 
-1.311681884229e+02 2.821992628735e+01 0.0 
2.821992628735e+01 -3.059095948417e+02 0.0 
0.0 0.0 -1.307233349794e+02 
-1.142253497708e+02 9.057019671307e+00 0.0 
9.057019671307e+00 -2.985365518594e+02 0.0 
0.0 0.0 -1.234285704890e+02 
-1.241639355260e+02 2.478788143852e+01 0.0 
2.478788143852e+01 -2.833361253866e+02 0.0 
0.0 0.0 -1.218500182738e+02 
-7.273267327352e+01 6.183155236680e+00 0.0 
6.183155236680e+00 -1.293755698894e+02 0.0 
0.0 0.0 -6.023247294889e+01 
-9.614029386525e+01 2.083269663381e+01 0.0 
2.083269663381e+01 -1.976540925836e+02 0.0 
0.0 0.0 -8.773831593466e+01 
-2.654720063773e+01 1.509287754195e+01 0.0 
1.509287754195e+01 -5.288979190729e+01 0.0 
0.0 0.0 -2.343109776350e+01 
-5.808433654154e+01 1.819264329560e+01 0.0 
1.819264329560e+01 -9.302108935731e+01 0.0 
0.0 0.0 -4.493162776965e+01 
-6.935134365568e+01 1.721438683254e+01 0.0 
1.721438683254e+01 -1.289189652097e+02 0.0 
0.0 0.0 -5.908109265962e+01 
-7.376290901804e+01 1.919078258577e+01 0.0 
1.919078258577e+01 -1.352605285394e+02 0.0 
0.0 0.0 -6.230703126722e+01 
-5.564582774840e+01 2.177578673688e+01 0.0 
2.177578673688e+01 -1.317481129834e+02 0.0 
0.0 0.0 -5.581818221955e+01 
-1.351826565683e+02 2.834048813676e+01 0.0 
2.834048813676e+01 -3.179722548148e+02 0.0 
0.0 0.0 -1.355464734149e+02 
-6.964920103763e+01 6.306810320655e+00 0.0 
6.306810320655e+00 -1.206544125852e+02 0.0 
0.0 0.0 -5.669108408685e+01 
-6.161777086618e+01 1.153265626378e+01 0.0 
1.153265626378e+01 -9.419225537953e+01 0.0 
0.0 0.0 -4.634300787371e+01 
-4.678235499504e+01 1.097735275787e+01 0.0 
1.097735275787e+01 -1.403952383680e+02 0.0 
0.0 0.0 -5.575327800892e+01 
-3.201344280574e+01 -3.136536546658e+00 0.0 
-3.136536546658e+00 -8.832189408536e+01 0.0 
0.0 0.0 -3.570060106733e+01 
-5.412793265864e+01 1.518974106271e+01 0.0 
1.518974106271e+01 -7.801467872339e+01 0.0 
0.0 0.0 -3.924278341461e+01 
-3.077521317685e+01 1.467748149922e+01 0.0 
1.467748149922e+01 -8.384684597196e+01 0.0 
0.0 0.0 -3.398661774464e+01 
-4.702874648184e+01 2.820394902157e-01 0.0 
2.820394902157e-01 -8.411517862024e+01 0.0 
0.0 0.0 -3.894317753062e+01 
-4.233556385878e+01 2.246410715783e-01 0.0 
2.246410715783e-01 -1.251674284025e+02 0.0 
0.0 0.0 -4.985089767840e+01 
-4.080801110961e+01 1.001274354981e+01 0.0 
1.001274354981e+01 -1.230436684670e+02 0.0 
0.0 0.0 -4.875550387297e+01 
-9.269793492526e+01 1.296598228916e+01 0.0 
1.296598228916e+01 -1.847942362450e+02 0.0 
0.0 0.0 -8.284765135107e+01 
-3.191158117847e+01 1.425829208255e+01 0.0 
1.425829208255e+01 -8.425179762560e+01 0.0 
0.0 0.0 -3.444901364122e+01 
-6.138144089072e+01 1.666135536181e+01 0.0 
1.666135536181e+01 -1.079772551162e+02 0.0 
0.0 0.0 -5.040760880207e+01 
-8.358438046565e+01 1.243248334879e+01 0.0 
1.243248334879e+01 -2.340048645203e+02 0.0 
0.0 0.0 -9.487677349580e+01 
-7.918229135587e+01 3.013693181903e+00 0.0 
3.013693181903e+00 -2.246181970392e+02 0.0 
0.0 0.0 -9.074014651853e+01 
-1.413553536184e+02 2.643258249796e+01 0.0 
2.643258249796e+01 -3.355852402036e+02 0.0 
0.0 0.0 -1.426821781466e+02 
-4.561611793960e+01 1.956385265447e+01 0.0 
1.956385265447e+01 -6.701013256001e+01 0.0 
0.0 0.0 -3.338787514988e+01 
-3.574479917257e+01 3.057097116814e+00 0.0 
3.057097116814e+00 -1.135281601767e+02 0.0 
0.0 0.0 -4.438188780479e+01 
-5.597255924105e+01 -4.647290051365e-02 0.0 
-4.647290051365e-02 -1.602061000962e+02 0.0 
0.0 0.0 -6.445359780117e+01 
-2.901758023328e+01 1.773737781126e+01 0.0 
1.773737781126e+01 -5.577957265872e+01 0.0 
0.0 0.0 -2.503914586760e+01 
-2.880237056336e+01 1.584261240340e+01 0.0 
1.584261240340e+01 -6.961952126170e+01 0.0 
0.0 0.0 -2.912656754752e+01 
-1.030791100700e+02 1.958046201865e+01 0.0 
1.958046201865e+01 -2.129075114195e+02 0.0 
0.0 0.0 -9.439598644686e+01 
-6.834390334325e+01 2.238008361173e+01 0.0 
2.238008361173e+01 -1.411108263180e+02 0.0 
0.0 0.0 -6.243641889839e+01 
-3.818286993521e+01 2.117677986669e+01 0.0 
2.117677986669e+01 -6.215531406743e+01 0.0 
0.0 0.0 -2.970145520079e+01 
-5.320975891409e+01 1.589011407411e+01 0.0 
1.589011407411e+01 -8.690701576764e+01 0.0 
0.0 0.0 -4.163503240452e+01 
-1.475144371076e+02 2.149162440163e+01 0.0 
2.149162440163e+01 -3.534077090551e+02 0.0 
0.0 0.0 -1.498766438488e+02 
-1.368507816939e+02 2.102425449510e+01 0.0 
2.102425449510e+01 -3.331143908924e+02 0.0 
0.0 0.0 -1.405895517759e+02 
-1.006935884458e+02 1.681810456367e+01 0.0 
1.681810456367e+01 -2.110452695978e+02 0.0 
0.0 0.0 -9.312165741308e+01 
-9.150130669941e+01 1.378213235208e+01 0.0 
1.378213235208e+01 -1.743198169167e+02 0.0 
0.0 0.0 -7.934633708484e+01 
-7.681550223117e+01 4.115709841466e+00 0.0 
4.115709841466e+00 -2.162878520675e+02 0.0 
0.0 0.0 -8.753100628961e+01 
-4.189828502683e+01 2.093093554988e+01 0.0 
2.093093554988e+01 -9.510372483957e+01 0.0 
0.0 0.0 -4.070060295992e+01 
-3.372222446305e+01 6.891226041723e+00 0.0 
6.891226041723e+00 -1.003908946112e+02 0.0 
0.0 0.0 -3.983393572227e+01 
-3.870498705687e+01 7.812366814032e+00 0.0 
7.812366814032e+00 -1.175906962889e+02 0.0 
0.0 0.0 -4.648870500373e+01 
-6.390247619845e+01 2.263276057123e+01 0.0 
2.263276057123e+01 -1.375873286531e+02 0.0 
0.0 0.0 -6.004694145547e+01 
-8.621823683896e+01 1.074223400442e+01 0.0 
1.074223400442e+01 -2.390453200823e+02 0.0 
0.0 0.0 -9.717906707637e+01 
-7.079801159639e+01 6.560498303643e-01 0.0 
6.560498303643e-01 -1.946041136880e+02 0.0 
0.0 0.0 -7.922063758532e+01 
-9.931160796800e+01 1.444143090230e+01 0.0 
1.444143090230e+01 -2.061422050185e+02 0.0 
0.0 0.0 -9.123614389596e+01 
-3.795738847039e+01 2.734548768845e+00 0.0 
2.734548768845e+00 -1.143936133237e+02 0.0 
0.0 0.0 -4.530530053822e+01 
-5.192300476470e+01 2.069303108325e+01 0.0 
2.069303108325e+01 -1.290993103015e+02 0.0 
0.0 0.0 -5.390669451987e+01 
-6.527824867197e+01 1.857306122382e+01 0.0 
1.857306122382e+01 -1.243483615040e+02 0.0 
0.0 0.0 -5.648798305281e+01 
-4.516308935499e+01 2.022376512790e+01 0.0 
2.022376512790e+01 -1.110785805023e+02 0.0 
0.0 0.0 -4.647250095718e+01 
-1.229079297713e+02 2.341754543362e+01 0.0 
2.341754543362e+01 -2.782922600329e+02 0.0 
0.0 0.0 -1.199600569413e+02 
-1.183587928021e+02 1.971924263126e+01 0.0 
1.971924263126e+01 -2.690433547201e+02 0.0 
0.0 0.0 -1.158206442567e+02 
-1.141650733997e+02 1.997934653000e+01 0.0 
1.997934653000e+01 -2.487546309643e+02 0.0 
0.0 0.0 -1.084759113092e+02 
-8.482992823752e+01 5.270322029969e+00 0.0 
5.270322029969e+00 -2.347648476820e+02 0.0 
0.0 0.0 -9.547843277586e+01 
-9.365607297975e+01 1.014176646486e+01 0.0 
1.014176646486e+01 -1.907803037697e+02 0.0 
0.0 0.0 -8.493091302484e+01 
-2.740439689029e+01 1.446101503772e+01 0.0 
1.446101503772e+01 -6.707963530214e+01 0.0 
0.0 0.0 -2.794520965773e+01 
-4.434003325588e+01 8.799581788755e+00 0.0 
8.799581788755e+00 -1.348705391255e+02 0.0 
0.0 0.0 -5.336317171442e+01 
-2.793250095638e+01 3.971713021419e+00 0.0 
3.971713021419e+00 -7.665463048584e+01 0.0 
0.0 0.0 -3.097613943267e+01 
-4.161772247157e+01 2.182066910241e+01 0.0 
2.182066910241e+01 -8.013141140113e+01 0.0 
0.0 0.0 -3.612474016181e+01 
-5.420998381444e+01 2.579863847065e+00 0.0 
2.579863847065e+00 -8.616707703091e+01 0.0 
0.0 0.0 -4.171311825361e+01 
-6.986984661929e+01 3.630785186037e+00 0.0 
3.630785186037e+00 -1.278093547513e+02 0.0 
0.0 0.0 -5.890376041118e+01 
-1.419472536188e+02 1.664639522345e+01 0.0 
1.664639522345e+01 -3.471682301751e+02 0.0 
0.0 0.0 -1.463346451382e+02 
-1.012050243833e+02 1.891925078536e+01 0.0 
1.891925078536e+01 -2.170619239773e+02 0.0 
0.0 0.0 -9.508008450818e+01 
-7.201474749778e+01 1.198982210744e+01 0.0 
1.198982210744e+01 -1.262879025117e+02 0.0 
0.0 0.0 -5.909079500283e+01 
-7.691560921697e+01 1.770833818026e+01 0.0 
1.770833818026e+01 -1.495752842248e+02 0.0 
0.0 0.0 -6.754726803253e+01 
-2.840531746590e+01 3.541985921579e+00 0.0 
3.541985921579e+00 -8.614086828166e+01 0.0 
0.0 0.0 -3.396385572427e+01 
-2.106792641089e+01 -2.603907389464e+00 0.0 
-2.603907389464e+00 -4.211532287756e+01 0.0 
0.0 0.0 -1.855497478653e+01 
-5.134591480845e+01 1.491844867287e+01 0.0 
1.491844867287e+01 -1.496329921671e+02 0.0 
0.0 0.0 -5.989367209266e+01 
-5.921266405917e+01 2.104977468647e+01 0.0 
2.104977468647e+01 -1.471314519967e+02 0.0 
0.0 0.0 -6.150323481675e+01 
-5.572719338531e+01 1.705209366446e+01 0.0 
1.705209366446e+01 -1.544178073679e+02 0.0 
0.0 0.0 -6.264350022598e+01 
-2.224180234409e+01 1.220717887649e+01 0.0 
1.220717887649e+01 -2.986015679403e+01 0.0 
0.0 0.0 -1.523058774143e+01 
-5.346182694445e+01 6.895681470559e-03 0.0 
6.895681470559e-03 -1.006898342726e+02 0.0 
0.0 0.0 -4.584549836512e+01 
-3.057060387496e+01 -2.187921523598e+00 0.0 
-2.187921523598e+00 -8.117001450609e+01 0.0 
0.0 0.0 -3.312218551432e+01 
-3.136408509693e+01 1.132749929724e+01 0.0 
1.132749929724e+01 -9.326197974398e+01 0.0 
0.0 0.0 -3.698781945227e+01 
-1.556551932557e+02 1.711858298693e+01 0.0 
1.711858298693e+01 -3.645287842632e+02 0.0 
0.0 0.0 -1.556551932557e+02 
-9.299354042761e+01 1.669405614054e+01 0.0 
1.669405614054e+01 -2.471366304860e+02 0.0 
0.0 0.0 -1.016390512741e+02 
-5.836325835440e+01 7.647607108299e+00 0.0 
7.647607108299e+00 -9.212793531364e+01 0.0 
0.0 0.0 -4.474735810041e+01 
-2.217278421476e+01 -8.676089478776e-01 0.0 
-8.676089478776e-01 -5.930702177253e+01 0.0 
0.0 0.0 -2.404394179619e+01 
-5.593710182690e+01 2.041865507271e+01 0.0 
2.041865507271e+01 -1.316052667265e+02 0.0 
0.0 0.0 -5.586271056603e+01 
-5.252194124025e+01 1.515666564279e+01 0.0 
1.515666564279e+01 -1.501802313194e+02 0.0 
0.0 0.0 -6.041065176791e+01 
-7.774341214338e+01 1.783233960946e+01 0.0 
1.783233960946e+01 -1.416278397928e+02 0.0 
0.0 0.0 -6.541137558086e+01 
-1.271984705936e+02 2.684981619861e+01 0.0 
2.684981619861e+01 -2.943281133770e+02 0.0 
0.0 0.0 -1.260579751912e+02 
-5.695517916861e+01 1.393224252630e+01 0.0 
1.393224252630e+01 -9.185248840942e+01 0.0 
0.0 0.0 -4.424230027341e+01 
-7.278693490841e+01 2.174245118682e+01 0.0 
2.174245118682e+01 -1.452414505672e+02 0.0 
0.0 0.0 -6.500851564269e+01 
-6.922576084273e+01 -6.327174350461e-01 0.0 
-6.327174350461e-01 -1.936613083678e+02 0.0 
0.0 0.0 -7.846612076315e+01 
-9.535572769015e+01 1.252115847248e+01 0.0 
1.252115847248e+01 -1.935741947512e+02 0.0 
0.0 0.0 -8.627897673242e+01 
-8.750112966687e+01 4.068033642417e+00 0.0 
4.068033642417e+00 -2.433325576204e+02 0.0 
0.0 0.0 -9.885010618618e+01 
-1.296890262803e+02 2.788948286769e+01 0.0 
2.788948286769e+01 -3.001056437665e+02 0.0 
0.0 0.0 -1.285384010140e+02 
-1.189871408369e+02 2.278798216746e+01 0.0 
2.278798216746e+01 -2.789699952860e+02 0.0 
0.0 0.0 -1.189871408369e+02 
-1.119925939189e+02 1.657294513843e+01 0.0 
1.657294513843e+01 -2.626493858107e+02 0.0 
0.0 0.0 -1.119925939189e+02 
-1.143662342730e+02 1.966713448754e+01 0.0 
1.966713448754e+01 -2.681878799703e+02 0.0 
0.0 0.0 -1.143662342730e+02 
-8.053441371784e+01 1.652097823865e+01 0.0 
1.652097823865e+01 -1.551294927683e+02 0.0 
0.0 0.0 -7.029917194583e+01 
-9.811926852665e+01 1.504818985595e+01 0.0 
1.504818985595e+01 -1.952205388427e+02 0.0 
0.0 0.0 -8.760194221080e+01 
-1.045108855028e+02 1.867894790220e+01 0.0 
1.867894790220e+01 -2.252085350053e+02 0.0 
0.0 0.0 -9.851582615242e+01 
-4.466099601528e+01 1.937348431234e+01 0.0 
1.937348431234e+01 -1.107166193358e+02 0.0 
0.0 0.0 -4.621328460533e+01 
-4.114268791068e+01 1.969029560257e+01 0.0 
1.969029560257e+01 -9.455862452327e+01 0.0 
0.0 0.0 -4.031039373018e+01 
-6.702211557777e+01 2.338855149572e-01 0.0 
2.338855149572e-01 -1.839871573961e+02 0.0 
0.0 0.0 -7.490278189216e+01 
-1.020935093142e+02 1.712714517712e+01 0.0 
1.712714517712e+01 -2.078910791168e+02 0.0 
0.0 0.0 -9.259537652929e+01 
-1.331010772419e+02 2.845114355228e+01 0.0 
2.845114355228e+01 -3.118731106727e+02 0.0 
0.0 0.0 -1.330922563744e+02 
-9.771534512492e+01 1.199907441395e+01 0.0 
1.199907441395e+01 -2.023734111873e+02 0.0 
0.0 0.0 -8.962662689368e+01 
-8.418780409725e+01 1.568175103850e+01 0.0 
1.568175103850e+01 -2.288182457364e+02 0.0 
0.0 0.0 -9.350181495010e+01 
-1.004898620325e+02 1.441862110480e+01 0.0 
1.441862110480e+01 -2.040245967055e+02 0.0 
0.0 0.0 -9.095433762140e+01 
-9.119936744538e+01 2.223926651034e+01 0.0 
2.223926651034e+01 -2.209745142169e+02 0.0 
0.0 0.0 -9.325216449868e+01 
-5.538904441235e+01 1.901987060022e+01 0.0 
1.901987060022e+01 -1.438383179907e+02 0.0 
0.0 0.0 -5.936820872091e+01 
-4.129024419049e+01 1.968153456505e+01 0.0 
1.968153456505e+01 -7.967139420615e+01 0.0 
0.0 0.0 -3.588849151899e+01 
-2.596566295613e+01 8.936902737322e+00 0.0 
8.936902737322e+00 -7.189529665402e+01 0.0 
0.0 0.0 -2.895828788305e+01 
-1.048599912985e+02 1.020818409578e+01 0.0 
1.020818409578e+01 -2.380976154601e+02 0.0 
0.0 0.0 -1.024872820276e+02 
-4.137398612491e+01 1.827143489490e+01 0.0 
1.827143489490e+01 -1.081993454640e+02 0.0 
0.0 0.0 -4.447199947666e+01 
-1.208303103183e+02 2.402629179727e+01 0.0 
2.402629179727e+01 -2.833920665747e+02 0.0 
0.0 0.0 -1.208667130679e+02 
-6.560486563122e+01 -1.111096895542e+00 0.0 
-1.111096895542e+00 -1.830975237018e+02 0.0 
0.0 0.0 -7.421071679991e+01 
-3.989380169875e+01 -8.696825906121e-01 0.0 
-8.696825906121e-01 -1.155491028991e+02 0.0 
0.0 0.0 -4.623287137936e+01 
-1.462973387894e+02 1.512126560500e+01 0.0 
1.512126560500e+01 -3.506914113592e+02 0.0 
0.0 0.0 -1.486966250446e+02 
-3.335009361887e+01 1.329314608261e+01 0.0 
1.329314608261e+01 -9.729268016441e+01 0.0 
0.0 0.0 -3.879283213498e+01 
-1.213674948524e+02 2.413705663195e+01 0.0 
2.413705663195e+01 -2.845241546555e+02 0.0 
0.0 0.0 -1.213674948524e+02 
-1.106673357722e+02 1.728219586058e+01 0.0 
1.728219586058e+01 -2.491098686583e+02 0.0 
0.0 0.0 -1.075331613292e+02 
-7.233181686380e+01 2.049499076129e+01 0.0 
2.049499076129e+01 -1.567292521255e+02 0.0 
0.0 0.0 -6.831832069679e+01 
-1.440433827405e+01 -1.844903644709e+00 0.0 
-1.844903644709e+00 -2.480686468507e+01 0.0 
0.0 0.0 -1.179040971656e+01 
-1.262849521543e+02 2.595631076924e+01 0.0 
2.595631076924e+01 -2.959982216933e+02 0.0 
0.0 0.0 -1.262849521543e+02 
-1.436257421084e+02 1.798076988803e+01 0.0 
1.798076988803e+01 -3.440036819587e+02 0.0 
0.0 0.0 -1.458888272201e+02 
-3.777143126902e+01 -1.228003051070e+00 0.0 
-1.228003051070e+00 -1.145720509841e+02 0.0 
0.0 0.0 -4.530304467594e+01 
-8.901267175258e+01 1.495369749185e+01 0.0 
1.495369749185e+01 -2.411807899276e+02 0.0 
0.0 0.0 -9.865803850406e+01 
-1.428351129391e+02 2.532267368912e+01 0.0 
2.532267368912e+01 -3.404884940894e+02 0.0 
0.0 0.0 -1.445970821085e+02 
-1.087217497402e+01 -7.505010976760e-01 0.0 
-7.505010976760e-01 -8.885735826309e+00 0.0 
0.0 0.0 -6.497286382886e+00 
-4.821193661229e+01 1.870305477837e+01 0.0 
1.870305477837e+01 -1.261056337745e+02 0.0 
0.0 0.0 -5.189527111603e+01 
-7.659733295455e+01 1.994099320968e+01 0.0 
1.994099320968e+01 -1.606035809447e+02 0.0 
0.0 0.0 -7.076027416978e+01 
-6.798376034087e+01 2.070160306319e+01 0.0 
2.070160306319e+01 -1.533049623918e+02 0.0 
0.0 0.0 -6.598661681980e+01 
-6.887017173713e+01 1.983010447396e+01 0.0 
1.983010447396e+01 -1.408226280208e+02 0.0 
0.0 0.0 -6.250783992737e+01 
-2.744685479274e+01 1.097360025817e+01 0.0 
1.097360025817e+01 -7.656722676290e+01 0.0 
0.0 0.0 -3.080422446669e+01 
-1.316912976736e+02 2.689294961925e+01 0.0 
2.689294961925e+01 -3.086130279051e+02 0.0 
0.0 0.0 -1.316912976736e+02 
-5.056536795132e+01 9.815764676295e+00 0.0 
9.815764676295e+00 -1.522549545060e+02 0.0 
0.0 0.0 -6.044609673719e+01 
-2.342521039413e+01 1.353448172467e+00 0.0 
1.353448172467e+00 -5.167436231413e+01 0.0 
0.0 0.0 -2.212987181248e+01 
-1.507915528730e+02 6.513438674827e+00 0.0 
6.513438674827e+00 -3.641867275332e+02 0.0 
0.0 0.0 -1.540934841219e+02 
-1.650863999345e+01 -1.764984978832e+00 0.0 
-1.764984978832e+00 -2.522272572766e+01 0.0 
0.0 0.0 -1.211940971633e+01 
-4.924341154954e+01 1.776799876285e+01 0.0 
1.776799876285e+01 -8.357570374068e+01 0.0 
0.0 0.0 -3.944573458707e+01 
-2.290686519857e+01 -2.158720016881e+00 0.0 
-2.158720016881e+00 -5.844584551731e+01 0.0 
0.0 0.0 -2.400581321477e+01 
-5.171694040312e+01 1.041158475128e+01 0.0 
1.041158475128e+01 -7.612416677890e+01 0.0 
0.0 0.0 -3.795233215461e+01 
-1.492683245060e+02 2.003526828120e+01 0.0 
2.003526828120e+01 -3.573374262494e+02 0.0 
0.0 0.0 -1.515817252266e+02 
-1.373146206898e+02 2.667563013550e+01 0.0 
2.667563013550e+01 -3.217341149428e+02 0.0 
0.0 0.0 -1.373146206898e+02 
-7.295545055261e+01 1.576067176665e+01 0.0 
1.576067176665e+01 -1.342359523348e+02 0.0 
0.0 0.0 -6.175742086621e+01 
-1.895556614726e+01 -2.374004718112e+00 0.0 
-2.374004718112e+00 -4.189701830265e+01 0.0 
0.0 0.0 -1.785577533497e+01 
-2.075928827727e+01 9.320551836930e-01 0.0 
9.320551836930e-01 -4.272869836079e+01 0.0 
0.0 0.0 -1.864639599142e+01 
-2.580457588589e+01 -2.491505561790e+00 0.0 
-2.491505561790e+00 -5.796979142396e+01 0.0 
0.0 0.0 -2.473231019296e+01 
-1.267826772921e+02 7.598432830027e+00 0.0 
7.598432830027e+00 -3.189847003630e+02 0.0 
0.0 0.0 -1.333302132965e+02 
-5.406504347569e+01 2.962497248034e+00 0.0 
2.962497248034e+00 -8.693391415446e+01 0.0 
0.0 0.0 -4.189968728904e+01 
-6.488598315664e+01 1.044427611024e+01 0.0 
1.044427611024e+01 -1.023623805525e+02 0.0 
0.0 0.0 -4.977450911274e+01 
-1.424793869956e+02 2.558769279493e+01 0.0 
2.558769279493e+01 -3.337852363230e+02 0.0 
0.0 0.0 -1.424793869956e+02 
-5.254073867027e+01 2.443366154381e+00 0.0 
2.443366154381e+00 -8.631245229433e+01 0.0 
0.0 0.0 -4.125595728938e+01 
-1.159345610424e+02 1.636459835699e+01 0.0 
1.636459835699e+01 -2.635908180636e+02 0.0 
0.0 0.0 -1.134576137318e+02 
-9.495916642366e+01 2.040902705374e+01 0.0 
2.040902705374e+01 -2.346664975880e+02 0.0 
0.0 0.0 -9.848769920350e+01 
-6.494903320487e+01 2.350554660122e+00 0.0 
2.350554660122e+00 -1.178184740688e+02 0.0 
0.0 0.0 -5.443025218210e+01 
-3.031842571220e+01 1.730077301311e+01 0.0 
1.730077301311e+01 -7.158560651576e+01 0.0 
0.0 0.0 -3.017120966839e+01 
-8.754213917182e+01 1.412886130463e+01 0.0 
1.412886130463e+01 -2.403915667770e+02 0.0 
0.0 0.0 -9.798011178466e+01 
-2.613622924143e+01 5.445246553949e+00 0.0 
5.445246553949e+00 -6.667826284718e+01 0.0 
0.0 0.0 -2.744434762658e+01 
-1.468973477525e+02 2.368382908585e+01 0.0 
2.368382908585e+01 -3.440938114226e+02 0.0 
0.0 0.0 -1.468973477525e+02 
-1.165976861461e+02 2.118174570328e+01 0.0 
2.118174570328e+01 -2.733946010076e+02 0.0 
0.0 0.0 -1.165976861461e+02 
-1.132389119461e+02 1.818401397417e+01 0.0 
1.818401397417e+01 -2.655574612076e+02 0.0 
0.0 0.0 -1.132389119461e+02 
-8.952600390209e+01 5.114066960630e+00 0.0 
5.114066960630e+00 -2.444134555965e+02 0.0 
0.0 0.0 -9.978183784957e+01 
-6.318443228614e+01 -4.274633331085e-02 0.0 
-4.274633331085e-02 -1.731634662197e+02 0.0 
0.0 0.0 -7.050436955175e+01 
-5.549094036035e+01 1.978520210274e+01 0.0 
1.978520210274e+01 -1.440494939015e+02 0.0 
0.0 0.0 -5.946213027855e+01 
-9.226935670854e+01 3.838937311873e+00 0.0 
3.838937311873e+00 -2.526894651558e+02 0.0 
0.0 0.0 -1.030876465593e+02 
-1.506146233397e+02 2.131690115343e+01 0.0 
2.131690115343e+01 -3.527674544593e+02 0.0 
0.0 0.0 -1.506146233397e+02 
-3.261546868298e+01 1.055916616471e+01 0.0 
1.055916616471e+01 -9.362856495723e+01 0.0 
0.0 0.0 -3.747321009206e+01 
-4.241055530528e+01 1.478965152382e+00 0.0 
1.478965152382e+00 -1.329883977739e+02 0.0 
0.0 0.0 -5.221968592376e+01 
-4.593531605755e+01 9.798488911966e-01 0.0 
9.798488911966e-01 -1.423741199780e+02 0.0 
0.0 0.0 -5.609283081067e+01 
-6.869679046103e+01 2.551833892892e+00 0.0 
2.551833892892e+00 -1.286281627378e+02 0.0 
0.0 0.0 -5.879748595965e+01 
-1.536039481154e+02 1.570428094807e+01 0.0 
1.570428094807e+01 -3.671386604388e+02 0.0 
0.0 0.0 -1.558227825663e+02 
-2.287376351063e+01 -2.426745824387e+00 0.0 
-2.426745824387e+00 -4.162907295433e+01 0.0 
0.0 0.0 -1.895085093949e+01 
-1.541010425243e+02 1.846139564868e+01 0.0 
1.846139564868e+01 -3.609024325566e+02 0.0 
0.0 0.0 -1.541010425243e+02 
-4.341999800816e+01 -3.962532947235e-01 0.0 
-3.962532947235e-01 -1.331221583043e+02 0.0 
0.0 0.0 -5.256264689373e+01 
-1.240081633393e+02 2.525172214965e+01 0.0 
2.525172214965e+01 -2.906857144584e+02 0.0 
0.0 0.0 -1.240081633393e+02 
-1.069662064287e+02 2.128560143576e+01 0.0 
2.128560143576e+01 -2.268836889639e+02 0.0 
0.0 0.0 -9.975496861778e+01 
-1.269428608798e+01 -7.238963094937e-01 0.0 
-7.238963094937e-01 -7.910100569289e+00 0.0 
0.0 0.0 -5.781315997182e+00 
-5.154118097549e+01 1.769505799043e+01 0.0 
1.769505799043e+01 -1.402941091188e+02 0.0 
0.0 0.0 -5.715058702830e+01 
-9.901143712771e+01 1.206956046080e+01 0.0 
1.206956046080e+01 -2.020912632010e+02 0.0 
0.0 0.0 -8.993081009863e+01 
-1.290886721498e+02 2.662847743791e+01 0.0 
2.662847743791e+01 -3.025402350163e+02 0.0 
0.0 0.0 -1.290886721498e+02 
-8.132137860811e+01 1.965851687074e+01 0.0 
1.965851687074e+01 -1.560548008336e+02 0.0 
0.0 0.0 -7.081285383250e+01 
-9.913089752880e+01 2.004221973240e+01 0.0 
2.004221973240e+01 -2.484215215185e+02 0.0 
0.0 0.0 -1.038657257142e+02 
-2.320169955410e+01 8.857735853046e+00 0.0 
8.857735853046e+00 -5.570128125495e+01 0.0 
0.0 0.0 -2.327089424272e+01 
-1.350542015597e+02 1.612087655701e+01 0.0 
1.612087655701e+01 -3.308091053814e+02 0.0 
0.0 0.0 -1.393589920823e+02 
-4.693307643930e+01 -6.326981258608e-01 0.0 
-6.326981258608e-01 -1.420811134969e+02 0.0 
0.0 0.0 -5.630425698087e+01 
-4.815457552384e+01 1.209932653273e+00 0.0 
1.209932653273e+00 -1.433611167419e+02 0.0 
0.0 0.0 -5.705470767972e+01 
-2.038536863938e+01 -1.904560124002e+00 0.0 
-1.904560124002e+00 -2.581643129750e+01 0.0 
0.0 0.0 -1.346053998106e+01 
-1.344740346753e+02 2.689820949998e+01 0.0 
2.689820949998e+01 -3.151060809090e+02 0.0 
0.0 0.0 -1.344740346753e+02 
-2.948011603889e+01 6.109274188272e+00 0.0 
6.109274188272e+00 -8.334362068835e+01 0.0 
0.0 0.0 -3.344712101817e+01 
-1.205889363171e+02 1.185890396209e+01 0.0 
1.185890396209e+01 -3.080872843000e+02 0.0 
0.0 0.0 -1.282028661851e+02 
-6.207486728583e+01 3.584318222267e+00 0.0 
3.584318222267e+00 -1.084206270737e+02 0.0 
0.0 0.0 -5.074864830787e+01 
-4.328928707264e+01 -1.514507050669e+00 0.0 
-1.514507050669e+00 -1.228903131102e+02 0.0 
0.0 0.0 -4.945388005486e+01 
-4.463122939946e+01 1.619980860654e+00 0.0 
1.619980860654e+00 -1.339597866347e+02 0.0 
0.0 0.0 -5.317730481023e+01 
-7.717356163456e+01 2.076435918896e+01 0.0 
2.076435918896e+01 -1.502763989730e+02 0.0 
0.0 0.0 -6.783498818226e+01 
-1.447882680583e+02 2.477983196701e+01 0.0 
2.477983196701e+01 -3.391726254694e+02 0.0 
0.0 0.0 -1.447882680583e+02 
-6.565210543381e+01 -1.209278941702e+00 0.0 
-1.209278941702e+00 -1.811438110948e+02 0.0 
0.0 0.0 -7.363877495857e+01 
-1.022121450456e+02 7.600649086848e+00 0.0 
7.600649086848e+00 -2.720417246020e+02 0.0 
0.0 0.0 -1.118761608943e+02 
-6.712336493508e+01 2.008450159401e+01 0.0 
2.008450159401e+01 -1.651757420805e+02 0.0 
0.0 0.0 -6.928973210467e+01 
-8.726319832209e+01 8.519050143402e+00 0.0 
8.519050143402e+00 -2.417394349990e+02 0.0 
0.0 0.0 -9.830078999633e+01 
-4.696405523042e+01 3.149155978505e+00 0.0 
3.149155978505e+00 -1.421819805171e+02 0.0 
0.0 0.0 -5.634381072425e+01 
-9.328551131607e+01 6.432250857364e+00 0.0 
6.432250857364e+00 -2.533372374896e+02 0.0 
0.0 0.0 -1.035868246417e+02 
-6.320839815703e+01 2.195416439035e+01 0.0 
2.195416439035e+01 -1.501961170984e+02 0.0 
0.0 0.0 -6.362135457664e+01 
-9.143781612738e+01 2.297166737575e+01 0.0 
2.297166737575e+01 -2.107233118653e+02 0.0 
0.0 0.0 -9.024833839781e+01 
-9.650602522705e+01 1.503637813403e+01 0.0 
1.503637813403e+01 -2.585667012549e+02 0.0 
0.0 0.0 -1.061218179446e+02 
-6.291769740649e+01 1.925759090448e+01 0.0 
1.925759090448e+01 -1.617048221428e+02 0.0 
0.0 0.0 -6.698675586478e+01 
-6.523582224898e+01 -7.559940447456e-01 0.0 
-7.559940447456e-01 -1.848371640997e+02 0.0 
0.0 0.0 -7.462189590460e+01 
-3.446476462622e+01 1.272383317334e+01 0.0 
1.272383317334e+01 -9.764839105855e+01 0.0 
0.0 0.0 -3.923394670543e+01 
-6.192686960383e+01 -1.435701790431e+00 0.0 
-1.435701790431e+00 -1.723309688631e+02 0.0 
0.0 0.0 -6.987735154007e+01 
-9.544739049281e+01 2.187118471085e+01 0.0 
2.187118471085e+01 -2.352408359565e+02 0.0 
0.0 0.0 -9.880646793480e+01 
-7.521011157052e+01 1.149827771310e+01 0.0 
1.149827771310e+01 -2.160110258943e+02 0.0 
0.0 0.0 -8.696634123944e+01 
-1.508524994804e+02 1.868173566368e+01 0.0 
1.868173566368e+01 -3.609776704702e+02 0.0 
0.0 0.0 -1.531490509852e+02 
-1.029151825808e+02 1.387873498229e+01 0.0 
1.387873498229e+01 -2.131123079070e+02 0.0 
0.0 0.0 -9.440824714636e+01 
-3.875034914465e+01 -2.794322845464e+00 0.0 
-2.794322845464e+00 -1.114820377480e+02 0.0 
0.0 0.0 -4.466971606778e+01 
-1.524841735688e+02 1.983556342608e+01 0.0 
1.983556342608e+01 -3.571297383272e+02 0.0 
0.0 0.0 -1.524841735688e+02 
-1.406976207522e+02 1.814429460794e+01 0.0 
1.814429460794e+01 -3.440011121511e+02 0.0 
0.0 0.0 -1.450096198710e+02 
-5.876153590076e+01 1.554120999454e+01 0.0 
1.554120999454e+01 -1.673744809904e+02 0.0 
0.0 0.0 -6.744080506735e+01 
-1.624890810470e+01 -1.864850576375e+00 0.0 
-1.864850576375e+00 -2.539131542925e+01 0.0 
0.0 0.0 -1.246985058188e+01 
-1.546851681061e+02 1.424433564636e+01 0.0 
1.424433564636e+01 -3.696494508474e+02 0.0 
0.0 0.0 -1.569003856861e+02 
-1.042122916701e+02 1.627005917801e+01 0.0 
1.627005917801e+01 -2.158584025415e+02 0.0 
0.0 0.0 -9.562120826350e+01 
-4.099509682465e+01 -1.491886416050e+00 0.0 
-1.491886416050e+00 -1.234640507411e+02 0.0 
0.0 0.0 -4.893774426973e+01 
-1.569045241360e+02 1.574145083924e+01 0.0 
1.574145083924e+01 -3.674438896506e+02 0.0 
0.0 0.0 -1.569045241360e+02 
-9.818553168000e+01 6.223327612843e+00 0.0 
6.223327612843e+00 -2.631103651313e+02 0.0 
0.0 0.0 -1.079887690434e+02 
-4.488508880561e+01 2.018924302085e+01 0.0 
2.018924302085e+01 -9.670846120769e+01 0.0 
0.0 0.0 -4.207806500399e+01 
-6.732529152631e+01 9.424492271870e+00 0.0 
9.424492271870e+00 -1.131076331727e+02 0.0 
0.0 0.0 -5.372987740970e+01 
-7.229753077691e+01 1.287986473039e+01 0.0 
1.287986473039e+01 -2.051415861593e+02 0.0 
0.0 0.0 -8.283173508085e+01 
-8.127038819498e+01 4.013963644917e+00 0.0 
4.013963644917e+00 -2.257114178010e+02 0.0 
0.0 0.0 -9.169454179879e+01 
-9.103568944857e+01 1.019630187946e+01 0.0 
1.019630187946e+01 -2.496688371055e+02 0.0 
0.0 0.0 -1.018113579662e+02 
-8.424424045769e+01 1.240645688512e+01 0.0 
1.240645688512e+01 -1.531990950986e+02 0.0 
0.0 0.0 -7.083300066690e+01 
-5.321762074381e+01 1.946087043386e+01 0.0 
1.946087043386e+01 -1.011754356067e+02 0.0 
0.0 0.0 -4.591791690515e+01 
-1.006830146857e+02 1.661806209862e+01 0.0 
1.661806209862e+01 -2.646974335808e+02 0.0 
0.0 0.0 -1.092141344800e+02 
-6.066804169703e+01 5.594357452498e-01 0.0 
5.594357452498e-01 -1.175262536960e+02 0.0 
0.0 0.0 -5.305828861792e+01 
-6.695062483259e+01 4.496659678796e-01 0.0 
4.496659678796e-01 -1.858234260489e+02 0.0 
0.0 0.0 -7.543221526445e+01 
-9.233342431732e+01 1.339697779114e+01 0.0 
1.339697779114e+01 -2.521033496099e+02 0.0 
0.0 0.0 -1.029310321782e+02 
-4.902662663395e+01 -1.123161617990e-01 0.0 
-1.123161617990e-01 -1.430661237542e+02 0.0 
0.0 0.0 -5.722782511645e+01 
-9.792080249477e+01 1.438926293327e+00 0.0 
1.438926293327e+00 -2.596095586857e+02 0.0 
0.0 0.0 -1.068591083541e+02 
-1.442493342126e+01 -7.244757542059e-01 0.0 
-7.244757542059e-01 -8.052099727496e+00 0.0 
0.0 0.0 -6.343109944628e+00 
-3.659380542211e+01 1.487221035573e+01 0.0 
1.487221035573e+01 -1.013394905526e+02 0.0 
0.0 0.0 -4.097998879242e+01 
-4.560934620743e+01 -5.147401989550e-03 0.0 
-5.147401989550e-03 -1.341308717036e+02 0.0 
0.0 0.0 -5.352206537331e+01 
-7.325386601349e+01 -4.943244366255e-01 0.0 
-4.943244366255e-01 -2.024896707330e+02 0.0 
0.0 0.0 -8.232306102394e+01 
-6.254833172378e+01 1.709916652327e+01 0.0 
1.709916652327e+01 -1.717655425692e+02 0.0 
0.0 0.0 -6.989416228790e+01 
-9.622658153474e+01 5.108786215636e+00 0.0 
5.108786215636e+00 -2.620443599596e+02 0.0 
0.0 0.0 -1.070812824483e+02 
-6.650353697292e+01 3.504406848034e+00 0.0 
3.504406848034e+00 -1.205739205661e+02 0.0 
0.0 0.0 -5.572323726172e+01 
-4.301755492206e+01 -9.331582435970e-01 0.0 
-9.331582435970e-01 -1.244451938488e+02 0.0 
0.0 0.0 -4.983882463126e+01 
-1.580742083337e+02 1.438544327657e+01 0.0 
1.438544327657e+01 -3.701731527787e+02 0.0 
0.0 0.0 -1.580742083337e+02 
-7.617825790480e+01 2.240613857384e+01 0.0 
2.240613857384e+01 -1.609089365747e+02 0.0 
0.0 0.0 -7.072615834385e+01 
-7.728310256297e+01 -3.897036658013e-01 0.0 
-3.897036658013e-01 -2.111725358941e+02 0.0 
0.0 0.0 -8.613669153713e+01 
-7.175424240931e+01 2.264248813845e+01 0.0 
2.264248813845e+01 -1.569135912171e+02 0.0 
0.0 0.0 -6.820035008794e+01 
-7.466422430847e+01 8.229695530134e-01 0.0 
8.229695530134e-01 -2.033684878105e+02 0.0 
0.0 0.0 -8.300981363571e+01 
-1.215078123704e+01 -7.723635176883e-01 0.0 
-7.723635176883e-01 -8.925886889610e+00 0.0 
0.0 0.0 -6.897246417244e+00 
-7.319273508453e+01 1.179505978244e+01 0.0 
1.179505978244e+01 -1.234441463668e+02 0.0 
0.0 0.0 -5.859106443541e+01 
-6.212639824940e+01 -1.146218195844e+00 0.0 
-1.146218195844e+00 -1.693829540642e+02 0.0 
0.0 0.0 -6.905280569407e+01 
-5.746811236137e+00 -4.790684931479e-01 0.0 
-4.790684931479e-01 -8.747966026150e+00 0.0 
0.0 0.0 -4.903107967333e+00 
-7.333602915108e+01 -8.223519810652e-01 0.0 
-8.223519810652e-01 -2.004448423598e+02 0.0 
0.0 0.0 -8.173426145325e+01 
-1.054071524742e+02 6.144609535027e+00 0.0 
6.144609535027e+00 -2.807525346416e+02 0.0 
0.0 0.0 -1.154479061347e+02 
-8.922777908583e+01 2.247600644462e+00 0.0 
2.247600644462e+00 -1.934109049344e+02 0.0 
0.0 0.0 -8.439160520608e+01 
-8.256320404969e+01 9.002466421088e+00 0.0 
9.002466421088e+00 -2.315089496206e+02 0.0 
0.0 0.0 -9.382164610108e+01 
-8.528112141380e+01 7.702835463920e+00 0.0 
7.702835463920e+00 -2.407008831742e+02 0.0 
0.0 0.0 -9.739460137641e+01 
-5.673831646302e+01 8.468035766986e+00 0.0 
8.468035766986e+00 -8.275340147153e+01 0.0 
0.0 0.0 -4.144751538037e+01 
-4.444151105347e+01 1.073838031741e+00 0.0 
1.073838031741e+00 -6.761191248165e+01 0.0 
0.0 0.0 -3.321602706053e+01 
-1.076194849369e+02 1.334726671132e+01 0.0 
1.334726671132e+01 -2.422664214926e+02 0.0 
0.0 0.0 -1.045657719289e+02 
-6.741118092318e+01 2.248371716306e+01 0.0 
2.248371716306e+01 -1.533936865100e+02 0.0 
0.0 0.0 -6.584146022995e+01 
-4.619335724475e+00 -3.543722218322e-01 0.0 
-3.543722218322e-01 -7.344661686107e+00 0.0 
0.0 0.0 -3.189199223175e+00 
-2.658919357257e+01 -1.957154134652e+00 0.0 
-1.957154134652e+00 -6.917475592956e+01 0.0 
0.0 0.0 -2.832918485064e+01 
-1.554629156283e+01 -1.853764246366e+00 0.0 
-1.853764246366e+00 -2.515316378794e+01 0.0 
0.0 0.0 -1.220334986263e+01 
-4.310390684899e+01 -1.816882654317e+00 0.0 
-1.816882654317e+00 -1.201583815554e+02 0.0 
0.0 0.0 -4.857868652131e+01 
-1.074239004114e+02 2.377846199854e+01 0.0 
2.377846199854e+01 -2.402281329669e+02 0.0 
0.0 0.0 -1.038956100135e+02 
-9.060815821506e+01 4.021377495945e+00 0.0 
4.021377495945e+00 -1.943022247126e+02 0.0 
0.0 0.0 -8.507311487830e+01 
-1.206620308245e+02 5.084709072488e+00 0.0 
5.084709072488e+00 -3.085471555637e+02 0.0 
0.0 0.0 -1.283627559165e+02 
-4.906385159680e+01 -1.149142172286e+00 0.0 
-1.149142172286e+00 -1.362778858406e+02 0.0 
0.0 0.0 -5.520252123121e+01 
-9.918178741297e+01 2.760669603604e+00 0.0 
2.760669603604e+00 -2.604481350607e+02 0.0 
0.0 0.0 -1.074889767421e+02 
-1.243716637113e+02 1.013051251346e+01 0.0 
1.013051251346e+01 -3.170840809883e+02 0.0 
0.0 0.0 -1.320367234099e+02 
-2.664354038811e+01 1.930744575251e+00 0.0 
1.930744575251e+00 -6.938688867424e+01 0.0 
0.0 0.0 -2.840912871870e+01 
-6.250278616177e+01 5.487624187655e-01 0.0 
5.487624187655e-01 -1.695877897903e+02 0.0 
0.0 0.0 -6.922717278563e+01 
-5.119496926174e+01 -1.026276590855e+00 0.0 
-1.026276590855e+00 -1.396839951197e+02 0.0 
0.0 0.0 -5.686368931444e+01 
-1.555001042116e+02 1.274513386356e+01 0.0 
1.274513386356e+01 -3.715752512981e+02 0.0 
0.0 0.0 -1.577226066529e+02 
-1.590484875687e+02 1.303724995145e+01 0.0 
1.303724995145e+01 -3.724464709936e+02 0.0 
0.0 0.0 -1.590484875687e+02 
-6.964139006702e+01 4.546180770678e-01 0.0 
4.546180770678e-01 -1.881725946525e+02 0.0 
0.0 0.0 -7.694419541586e+01 
-7.861788034317e+01 9.734223678896e-01 0.0 
9.734223678896e-01 -2.120361758596e+02 0.0 
0.0 0.0 -8.679621686082e+01 
-8.375306978855e+01 2.839345600386e+00 0.0 
2.839345600386e+00 -2.338941996040e+02 0.0 
0.0 0.0 -9.489418081777e+01 
-1.289398164769e+02 1.189761442514e+01 0.0 
1.189761442514e+01 -3.252383529669e+02 0.0 
0.0 0.0 -1.358534508331e+02 
-2.846310780045e+01 -3.058356216252e+00 0.0 
-3.058356216252e+00 -7.665599780869e+01 0.0 
0.0 0.0 -3.113573168274e+01 
-1.196344954298e+02 8.575112725378e+00 0.0 
8.575112725378e+00 -3.084073213215e+02 0.0 
0.0 0.0 -1.280125450254e+02 
-1.702975207579e+01 -1.240687841105e+00 0.0 
-1.240687841105e+00 -4.308068138653e+01 0.0 
0.0 0.0 -1.763313003870e+01 
-7.067054660385e+01 4.343970410770e-01 0.0 
4.343970410770e-01 -1.926716121628e+02 0.0 
0.0 0.0 -7.860264762999e+01 
-7.857077677946e+01 1.365273169917e+00 0.0 
1.365273169917e+00 -2.138702266323e+02 0.0 
0.0 0.0 -8.733230102352e+01 
-9.725083936305e+00 -6.640933426645e-01 0.0 
-6.640933426645e-01 -2.555487107776e+01 0.0 
0.0 0.0 -1.056458167399e+01 
-6.617012351723e+01 -9.041285138674e-01 0.0 
-9.041285138674e-01 -1.787810540323e+02 0.0 
0.0 0.0 -7.308535326485e+01 
-9.970052172886e+01 1.170863716138e+01 0.0 
1.170863716138e+01 -2.112133561844e+02 0.0 
0.0 0.0 -9.287416337397e+01 
-3.777068748567e+00 -3.215920434387e-01 0.0 
-3.215920434387e-01 -7.816782230732e+00 0.0 
0.0 0.0 -3.078155293790e+00 
-4.595844717002e+01 1.609643474008e+00 0.0 
1.609643474008e+00 -6.820399156336e+01 0.0 
0.0 0.0 -3.384873162002e+01 
-4.567386194267e+01 2.297150684350e+00 0.0 
2.297150684350e+00 -6.931172401853e+01 0.0 
0.0 0.0 -3.409567578836e+01 
-9.493709920209e+01 1.192712612416e+01 0.0 
1.192712612416e+01 -2.572166283267e+02 0.0 
0.0 0.0 -1.052461182586e+02 
-5.129092199931e+01 5.053632179340e-01 0.0 
5.053632179340e-01 -1.396444040380e+02 0.0 
0.0 0.0 -5.688059781118e+01 
-4.430952166555e+01 -1.630053148417e+00 0.0 
-1.630053148417e+00 -1.322731037280e+02 0.0 
0.0 0.0 -5.257478761806e+01 
-2.662026540332e+01 1.167118179392e+01 0.0 
1.167118179392e+01 -6.423130681028e+01 0.0 
0.0 0.0 -2.685547166408e+01 
-1.356483395473e+02 5.389262051921e+00 0.0 
5.389262051921e+00 -3.358172010114e+02 0.0 
0.0 0.0 -1.410396621676e+02 
-1.263630954583e+02 2.529657581187e+01 0.0 
2.529657581187e+01 -2.958824202524e+02 0.0 
0.0 0.0 -1.262736547132e+02 
-8.820191442490e+01 5.469501597251e+00 0.0 
5.469501597251e+00 -1.819788653864e+02 0.0 
0.0 0.0 -8.065423394338e+01 
-3.122629429718e+01 1.707487882161e+01 0.0 
1.707487882161e+01 -7.193118330195e+01 0.0 
0.0 0.0 -3.054724327974e+01 
-1.970474147392e+01 -3.028929231600e+00 0.0 
-3.028929231600e+00 -4.778408177074e+01 0.0 
0.0 0.0 -1.984664697340e+01 
-5.366572677781e+01 2.003417259879e+01 0.0 
2.003417259879e+01 -8.786807449178e+01 0.0 
0.0 0.0 -4.206014038088e+01 
-4.263423559479e+01 2.400129190037e-01 0.0 
2.400129190037e-01 -6.803137623701e+01 0.0 
0.0 0.0 -3.279968354954e+01 
-4.135816530962e+01 3.101735856485e-01 0.0 
3.101735856485e-01 -6.777029725271e+01 0.0 
0.0 0.0 -3.233853876870e+01 
-5.093512124546e+00 -4.055167402038e-01 0.0 
-4.055167402038e-01 -8.977095685434e+00 0.0 
0.0 0.0 -4.790069793634e+00 
-1.003797505750e+01 -8.031133895846e-01 0.0 
-8.031133895846e-01 -2.540191213370e+01 0.0 
0.0 0.0 -1.065329552732e+01 
-1.487029292094e+01 -2.997632307253e-01 0.0 
-2.997632307253e-01 -4.210123118828e+01 0.0 
0.0 0.0 -1.669145723277e+01 
-3.767859935271e+01 -2.824933975345e+00 0.0 
-2.824933975345e+00 -1.048779510355e+02 0.0 
0.0 0.0 -4.236696511645e+01 
-9.870504251395e+00 -5.155083381699e-01 0.0 
-5.155083381699e-01 -2.591648960443e+01 0.0 
0.0 0.0 -1.033609815675e+01 
-7.349611926702e+01 -7.804346377497e-01 0.0 
-7.804346377497e-01 -1.983955902845e+02 0.0 
0.0 0.0 -8.116751286545e+01 
-1.572735077286e+01 -6.949193052654e-01 0.0 
-6.949193052654e-01 -8.840960651212e+00 0.0 
0.0 0.0 -7.938828792374e+00 
-4.430793648884e+01 -2.582132847695e+00 0.0 
-2.582132847695e+00 -1.245091477301e+02 0.0 
0.0 0.0 -5.024512526568e+01 
-6.705158713172e+01 4.786010654163e-01 0.0 
4.786010654163e-01 -1.345176425650e+02 0.0 
0.0 0.0 -6.007076890902e+01 
-4.322012882953e+01 8.516292177308e-01 0.0 
8.516292177308e-01 -6.794721825568e+01 0.0 
0.0 0.0 -3.295020412556e+01 
-1.109800533235e+02 2.375250665831e+01 0.0 
2.375250665831e+01 -2.454866245975e+02 0.0 
0.0 0.0 -1.065400033763e+02 
-1.012011419013e+02 4.826316219016e+00 0.0 
4.826316219016e+00 -2.714573329571e+02 0.0 
0.0 0.0 -1.113975424575e+02 
-5.981266002432e+01 1.085559469421e-01 0.0 
1.085559469421e-01 -1.167712230983e+02 0.0 
0.0 0.0 -5.257516493678e+01 
-5.472759472024e+01 -8.031420994275e-01 0.0 
-8.031420994275e-01 -1.491368278511e+02 0.0 
0.0 0.0 -6.075932677142e+01 
-1.633723825619e+01 -5.917391645808e-01 0.0 
-5.917391645808e-01 -4.282767879409e+01 0.0 
0.0 0.0 -1.734947511508e+01 
-1.071284496046e+02 6.759275640730e+00 0.0 
6.759275640730e+00 -2.512997157441e+02 0.0 
0.0 0.0 -1.071284496046e+02 
-1.105162027349e+02 7.445579016585e+00 0.0 
7.445579016585e+00 -2.529775312009e+02 0.0 
0.0 0.0 -1.086481201808e+02 
-6.003702741832e+01 1.162195944286e+00 0.0 
1.162195944286e+00 -1.072907241461e+02 0.0 
0.0 0.0 -4.979832546933e+01 
-4.292676572190e+01 4.042646327875e-01 0.0 
4.042646327875e-01 -6.762441215237e+01 0.0 
0.0 0.0 -3.276535336228e+01 
-5.567721296129e+01 2.373462958377e-03 0.0 
2.373462958377e-03 -1.512158426448e+02 0.0 
0.0 0.0 -6.166791668184e+01 
-1.096351448337e+02 5.240676418631e+00 0.0 
5.240676418631e+00 -2.517317644655e+02 0.0 
0.0 0.0 -1.080100727898e+02 
-4.222926901299e+01 -1.545485057667e+00 0.0 
-1.545485057667e+00 -1.166387537449e+02 0.0 
0.0 0.0 -4.726040682737e+01 
-4.426338277720e+01 1.460869367498e+00 0.0 
1.460869367498e+00 -6.832401694465e+01 0.0 
0.0 0.0 -3.337621991655e+01 
-4.399590082925e+01 6.405818723988e-01 0.0 
6.405818723988e-01 -6.759386619760e+01 0.0 
0.0 0.0 -3.307693010805e+01 
-4.819517820552e+01 1.250719805127e+01 0.0 
1.250719805127e+01 -6.978229156644e+01 0.0 
0.0 0.0 -3.499324093159e+01 
-1.111518364026e+02 1.511056272759e+01 0.0 
1.511056272759e+01 -2.606876182726e+02 0.0 
0.0 0.0 -1.111518364026e+02 
-1.108953996169e+02 6.188597161048e+00 0.0 
6.188597161048e+00 -2.528188094962e+02 0.0 
0.0 0.0 -1.087142627339e+02 
-1.028040135847e+01 -6.969744444698e-01 0.0 
-6.969744444698e-01 -2.571002485898e+01 0.0 
0.0 0.0 -1.039712786523e+01 
-4.704392407851e+00 -2.920206506284e-01 0.0 
-2.920206506284e-01 -9.090553795705e+00 0.0 
0.0 0.0 -4.715738668363e+00 
-2.247439030654e+01 -2.805261489802e+00 0.0 
-2.805261489802e+00 -5.736552238131e+01 0.0 
0.0 0.0 -2.355197380635e+01 
-7.701604861819e+01 7.459242647390e-02 0.0 
7.459242647390e-02 -2.129359960228e+02 0.0 
0.0 0.0 -8.658561339230e+01 
-1.455863903547e+02 -1.827995281047e-01 0.0 
-1.827995281047e-01 -3.522303482480e+02 0.0 
0.0 0.0 -1.489450215808e+02 
-1.978431499894e+01 -4.884187871993e-01 0.0 
-4.884187871993e-01 -7.148714686511e+00 0.0 
0.0 0.0 -7.679908905635e+00 
-8.299709637201e+01 1.343821497154e+00 0.0 
1.343821497154e+00 -1.774402212486e+02 0.0 
0.0 0.0 -7.773119528619e+01 
-1.464249260494e+01 -8.036165498110e-01 0.0 
-8.036165498110e-01 -8.993988424769e+00 0.0 
0.0 0.0 -7.671894349647e+00 
-9.401906355066e+01 8.789818356388e+00 0.0 
8.789818356388e+00 -2.589914834427e+02 0.0 
0.0 0.0 -1.055031640980e+02 
-1.627427022315e+01 -8.245168124829e-01 0.0 
-8.245168124829e-01 -8.239933235739e+00 0.0 
0.0 0.0 -6.954261037668e+00 
-1.806112346834e+01 -7.325825307184e-01 0.0 
-7.325825307184e-01 -8.138054392376e+00 0.0 
0.0 0.0 -7.459753358215e+00 
-9.006145750714e+01 7.196347946412e+00 0.0 
7.196347946412e+00 -2.507281091700e+02 0.0 
0.0 0.0 -1.018368700031e+02 
-1.400416617145e+02 1.873685879766e+00 0.0 
1.873685879766e+00 -3.421919506843e+02 0.0 
0.0 0.0 -1.442700837196e+02 
-6.705587489962e+01 9.650548071785e-01 0.0 
9.650548071785e-01 -1.334384103355e+02 0.0 
0.0 0.0 -5.974828557053e+01 
-5.709475658418e+01 2.154417760306e+01 0.0 
2.154417760306e+01 -1.046012240046e+02 0.0 
0.0 0.0 -4.810879417664e+01 
-9.402432048263e+00 -3.886612682479e-01 0.0 
-3.886612682479e-01 -2.554711633095e+01 0.0 
0.0 0.0 -1.046735863826e+01 
-1.034371627357e+02 2.657066737371e+00 0.0 
2.657066737371e+00 -2.690347689145e+02 0.0 
0.0 0.0 -1.113415794951e+02 
-1.060661842792e+02 2.118591470091e+00 0.0 
2.118591470091e+00 -2.488210966514e+02 0.0 
0.0 0.0 -1.060661842792e+02 
-1.088020408775e+02 2.966292645934e+00 0.0 
2.966292645934e+00 -2.506722064246e+02 0.0 
0.0 0.0 -1.074422741906e+02 
-4.242590506044e+01 4.834848149946e-01 0.0 
4.834848149946e-01 -6.772144685188e+01 0.0 
0.0 0.0 -3.264420557369e+01 
-9.811048598060e+01 1.043684429913e+01 0.0 
1.043684429913e+01 -2.669206068867e+02 0.0 
0.0 0.0 -1.091093278602e+02 
-1.070250095836e+02 5.459940747154e+00 0.0 
5.459940747154e+00 -2.510583556951e+02 0.0 
0.0 0.0 -1.070250095836e+02 
-1.001244651319e+02 2.151843620694e+01 0.0 
2.151843620694e+01 -2.491500112464e+02 0.0 
0.0 0.0 -1.043823429135e+02 
-1.555851116717e+01 -5.666587379697e-01 0.0 
-5.666587379697e-01 -4.165212840475e+01 0.0 
0.0 0.0 -1.676319187158e+01 
-9.504290528369e+00 -3.365865853223e-01 0.0 
-3.365865853223e-01 -2.569689485961e+01 0.0 
0.0 0.0 -1.016035561639e+01 
-8.951211234442e+00 -1.335589010473e-01 0.0 
-1.335589010473e-01 -2.513581514359e+01 0.0 
0.0 0.0 -1.006737542744e+01 
-6.230557750262e+01 -7.630085359850e-01 0.0 
-7.630085359850e-01 -1.689098978612e+02 0.0 
0.0 0.0 -6.896464260915e+01 
-1.607052241862e+02 3.246113380393e+00 0.0 
3.246113380393e+00 -3.811498858091e+02 0.0 
0.0 0.0 -1.621565329986e+02 
-1.007544042355e+02 1.066124074468e+00 0.0 
1.066124074468e+00 -2.283657178173e+02 0.0 
0.0 0.0 -9.833603661584e+01 
-3.803902633620e+00 -7.434019349234e-02 0.0 
-7.434019349234e-02 -9.065853697023e+00 0.0 
0.0 0.0 -4.429605010864e+00 
-7.388446516811e+01 6.562693450147e-01 0.0 
6.562693450147e-01 -1.985649841242e+02 0.0 
0.0 0.0 -8.133483478771e+01 
-1.637890636269e+02 2.219804227294e+00 0.0 
2.219804227294e+00 -3.835078151295e+02 0.0 
0.0 0.0 -1.637890636269e+02 
-1.599156429423e+02 3.450152893260e+00 0.0 
3.450152893260e+00 -3.802580067245e+02 0.0 
0.0 0.0 -1.616520949000e+02 
-1.562318624468e+02 1.149805372517e+01 0.0 
1.149805372517e+01 -3.731784129869e+02 0.0 
0.0 0.0 -1.584230826301e+02 
-7.553776360171e+01 -5.821860214268e-01 0.0 
-5.821860214268e-01 -1.576504034260e+02 0.0 
0.0 0.0 -6.955645010832e+01 
-8.680468767060e+01 9.428058164420e-01 0.0 
9.428058164420e-01 -1.878228365959e+02 0.0 
0.0 0.0 -8.198825727995e+01 
-1.628845520686e+02 3.053761191549e+00 0.0 
3.053761191549e+00 -3.813972881601e+02 0.0 
0.0 0.0 -1.628845520686e+02 
-1.630273271002e+02 4.035593249900e+00 0.0 
4.035593249900e+00 -3.817304299004e+02 0.0 
0.0 0.0 -1.630273271002e+02 
-8.303847136452e+01 -3.303472130994e-01 0.0 
-3.303472130994e-01 -1.775423120178e+02 0.0 
0.0 0.0 -7.777423501469e+01 
-2.235040392586e+00 -3.539465397374e-01 0.0 
-3.539465397374e-01 -6.804306505821e+00 0.0 
0.0 0.0 -2.311804069522e+00 
-4.042522461664e+01 4.851685828760e-02 0.0 
4.851685828760e-02 -6.689599988646e+01 0.0 
0.0 0.0 -3.179636735093e+01 
-4.185277812149e+01 1.808790113867e-01 0.0 
1.808790113867e-01 -6.783133504771e+01 0.0 
0.0 0.0 -3.250523395076e+01 
-4.222166986805e+00 -1.807022571059e-01 0.0 
-1.807022571059e-01 -9.062304456310e+00 0.0 
0.0 0.0 -4.561493175286e+00 
-1.623800217151e+02 7.000572320910e+00 0.0 
7.000572320910e+00 -3.802200506685e+02 0.0 
0.0 0.0 -1.623800217151e+02 
-1.565959434648e+02 1.005865625839e+01 0.0 
1.005865625839e+01 -3.743552856144e+02 0.0 
0.0 0.0 -1.588853687238e+02 
-1.607976034232e+02 9.192439246324e+00 0.0 
9.192439246324e+00 -3.765277413207e+02 0.0 
0.0 0.0 -1.607976034232e+02 
-2.644789735434e+00 -1.245760649347e-01 0.0 
-1.245760649347e-01 -7.946153581499e+00 0.0 
0.0 0.0 -2.777282995080e+00 
-3.093283546959e+00 -2.796940310653e-01 0.0 
-2.796940310653e-01 -8.050669156121e+00 0.0 
0.0 0.0 -2.943185810924e+00 
-1.597162768379e+02 1.172620421041e+01 0.0 
1.172620421041e+01 -3.740046459550e+02 0.0 
0.0 0.0 -1.597162768379e+02 
-1.603887207260e+02 1.051167112356e+01 0.0 
1.051167112356e+01 -3.755736816940e+02 0.0 
0.0 0.0 -1.603887207260e+02 
-7.160094492594e+01 9.675397066888e-01 0.0 
9.675397066888e-01 -1.476527034947e+02 0.0 
0.0 0.0 -6.537609452619e+01 
-3.966810530264e+01 -1.339589914417e-01 0.0 
-1.339589914417e-01 -6.656972393301e+01 0.0 
0.0 0.0 -3.147134877070e+01 
-7.949651432676e+01 9.717955973387e-01 0.0 
9.717955973387e-01 -1.676973655080e+02 0.0 
0.0 0.0 -7.375816395044e+01 
-5.608874694269e+01 8.994392789213e-01 0.0 
8.994392789213e-01 -1.080189655434e+02 0.0 
0.0 0.0 -4.883231374582e+01 
-3.975755693542e+01 -9.248078910478e-02 0.0 
-9.248078910478e-02 -6.674437505549e+01 0.0 
0.0 0.0 -3.155057959727e+01 
-5.739055350958e+00 -5.445310337239e-01 0.0 
-5.445310337239e-01 -7.653980566875e+00 0.0 
0.0 0.0 -3.617910775350e+00 
-8.308032615625e+00 -3.889444580978e-01 0.0 
-3.889444580978e-01 -8.317154622407e+00 0.0 
0.0 0.0 -4.587556171409e+00 
-9.526464005917e+00 -5.480056174276e-01 0.0 
-5.480056174276e-01 -7.912435089347e+00 0.0 
0.0 0.0 -4.831669728579e+00 
-1.103792974099e+01 -6.246298830755e-01 0.0 
-6.246298830755e-01 -8.035757558287e+00 0.0 
0.0 0.0 -5.322106189784e+00 
-7.782316446277e+01 -8.928744626802e-01 0.0 
-8.928744626802e-01 -2.085926627770e+02 0.0 
0.0 0.0 -8.552474817192e+01 
-6.998944826299e+01 -7.843279557074e-01 0.0 
-7.843279557074e-01 -1.886791677164e+02 0.0 
0.0 0.0 -7.720058479381e+01 
-8.451604441075e+00 -5.858839328752e-01 0.0 
-5.858839328752e-01 -8.979752993187e+00 0.0 
0.0 0.0 -5.806434701214e+00 
-1.028930039868e+02 -7.976266526669e-01 0.0 
-7.976266526669e-01 -2.662519246878e+02 0.0 
0.0 0.0 -1.103434786024e+02 
-9.845497553666e+00 -7.028999704586e-01 0.0 
-7.028999704586e-01 -8.949335780229e+00 0.0 
0.0 0.0 -6.210289172942e+00 
-1.090160572489e+02 1.185910606955e+01 0.0 
1.185910606955e+01 -2.557041335808e+02 0.0 
0.0 0.0 -1.090160572489e+02 
-1.065648389701e+02 4.511078708871e+00 0.0 
4.511078708871e+00 -2.499846242635e+02 0.0 
0.0 0.0 -1.065648389701e+02 
-1.073742018190e+02 7.904376178790e+00 0.0 
7.904376178790e+00 -2.518731375776e+02 0.0 
0.0 0.0 -1.073742018190e+02 
-2.544810691652e+01 -9.703857740989e-01 0.0 
-9.703857740989e-01 -6.906507424560e+01 0.0 
0.0 0.0 -2.795395434864e+01 
-4.742451090268e+01 -8.252192591066e-01 0.0 
-8.252192591066e-01 -1.292521784917e+02 0.0 
0.0 0.0 -5.260300681832e+01 
-1.062092252601e+02 3.607747593006e+00 0.0 
3.607747593006e+00 -2.491548589403e+02 0.0 
0.0 0.0 -1.062092252601e+02 
-1.309718919167e+02 -6.579306436512e-01 0.0 
-6.579306436512e-01 -3.242671955132e+02 0.0 
0.0 0.0 -1.361717262290e+02 
-1.070371458686e+02 2.906375437567e+00 0.0 
2.906375437567e+00 -2.510866736934e+02 0.0 
0.0 0.0 -1.070371458686e+02 
-1.408521831089e+02 -6.988981134361e-01 0.0 
-6.988981134361e-01 -3.433516049620e+02 0.0 
0.0 0.0 -1.448611364213e+02 
-1.510778724417e+02 -7.651097870916e-01 0.0 
-7.651097870916e-01 -3.623255812370e+02 0.0 
0.0 0.0 -1.536210361036e+02 
-6.613755816273e+01 6.585549810218e-01 0.0 
6.585549810218e-01 -1.787679284296e+02 0.0 
0.0 0.0 -7.307164597769e+01 
-1.091647428453e+02 4.247941153730e+00 0.0 
4.247941153730e+00 -2.507449232669e+02 0.0 
0.0 0.0 -1.075728998336e+02 
-1.086849231330e+02 2.856009442580e+00 0.0 
2.856009442580e+00 -2.508130157547e+02 0.0 
0.0 0.0 -1.074493816663e+02 
-1.356002863438e+02 1.332684206998e+00 0.0 
1.332684206998e+00 -3.329019712500e+02 0.0 
0.0 0.0 -1.401506772781e+02 
-1.458263700862e+02 1.407188620941e+00 0.0 
1.407188620941e+00 -3.524616541857e+02 0.0 
0.0 0.0 -1.490864072816e+02 
-1.119681825310e+02 2.248253055319e+00 0.0 
2.248253055319e+00 -2.860870422793e+02 0.0 
0.0 0.0 -1.190165674431e+02 
-1.341283259045e+01 -8.297472496394e-01 0.0 
-8.297472496394e-01 -8.897490249103e+00 0.0 
0.0 0.0 -7.269573034746e+00 
-6.653030904354e+01 2.052717876340e-01 0.0 
2.052717876340e-01 -1.818024767410e+02 0.0 
0.0 0.0 -7.409983573536e+01 
-1.067269554513e+01 -7.091817543255e-01 0.0 
-7.091817543255e-01 -2.542016649308e+01 0.0 
0.0 0.0 -1.042785861146e+01 
-1.365405368777e+02 6.642182599255e+00 0.0 
6.642182599255e+00 -3.363790055731e+02 0.0 
0.0 0.0 -1.414758627352e+02 
-6.947305211494e+01 -9.313626623435e-01 0.0 
-9.313626623435e-01 -1.918678561551e+02 0.0 
0.0 0.0 -7.800227248101e+01 
-1.256014323936e+02 1.997572099634e+00 0.0 
1.997572099634e+00 -3.149024827027e+02 0.0 
0.0 0.0 -1.317511745289e+02 
-3.553289364100e+01 -1.779513944260e+00 0.0 
-1.779513944260e+00 -9.694456402196e+01 0.0 
0.0 0.0 -3.934323729889e+01 
-1.642254587406e+01 -1.758073229088e+00 0.0 
-1.758073229088e+00 -4.156999668659e+01 0.0 
0.0 0.0 -1.699776276820e+01 
-1.357955118226e+02 3.714722072317e+00 0.0 
3.714722072317e+00 -3.340593092452e+02 0.0 
0.0 0.0 -1.405564463203e+02 
-7.462154924447e+01 6.318910017312e-01 0.0 
6.318910017312e-01 -2.013234955430e+02 0.0 
0.0 0.0 -8.238351343623e+01 
-5.819796373640e+01 -9.959660570218e-01 0.0 
-9.959660570218e-01 -1.590881871027e+02 0.0 
0.0 0.0 -6.478584525174e+01 
-1.262109676739e+02 3.343591460439e+00 0.0 
3.343591460439e+00 -3.154666420980e+02 0.0 
0.0 0.0 -1.321032829315e+02 
-9.286814039575e+01 7.038069089187e-01 0.0 
7.038069089187e-01 -2.057478451235e+02 0.0 
0.0 0.0 -8.918479565577e+01 
-5.860348803680e+01 6.015487050730e-01 0.0 
6.015487050730e-01 -1.592187716235e+02 0.0 
0.0 0.0 -6.494667789810e+01 
-1.115491581351e+02 8.734318476278e+00 0.0 
8.734318476278e+00 -2.907485881834e+02 0.0 
0.0 0.0 -1.202893238956e+02 
-9.761609967127e+01 2.414609398913e+00 0.0 
2.414609398913e+00 -2.610260056143e+02 0.0 
0.0 0.0 -1.071926315857e+02 
-1.112602021443e+02 8.688379173719e-01 0.0 
8.688379173719e-01 -2.854824952783e+02 0.0 
0.0 0.0 -1.186228092268e+02 
-1.157177919652e+02 6.380208762403e-01 0.0 
6.380208762403e-01 -2.942530073202e+02 0.0 
0.0 0.0 -1.225912397856e+02 
-4.607259810391e+01 7.869612498764e+00 0.0 
7.869612498764e+00 -1.452836921971e+02 0.0 
0.0 0.0 -5.700688709030e+01 
-4.928991372827e+01 2.128170592936e+01 0.0 
2.128170592936e+01 -8.431107034569e+01 0.0 
0.0 0.0 -3.968029522219e+01 
-5.919718713597e+01 1.873341849294e+01 0.0 
1.873341849294e+01 -1.583248502379e+02 0.0 
0.0 0.0 -6.485661121215e+01 
-1.023701149692e+02 1.296336772578e+00 0.0 
1.296336772578e+00 -2.682823158305e+02 0.0 
0.0 0.0 -1.107957292399e+02 
-1.306996620790e+02 2.967590257063e+00 0.0 
2.967590257063e+00 -3.240641135564e+02 0.0 
0.0 0.0 -1.360291326906e+02 
-1.202054144252e+02 2.578401012695e-01 0.0 
2.578401012695e-01 -3.031172321988e+02 0.0 
0.0 0.0 -1.265967939872e+02 
-3.555484498517e+01 -3.138397805504e+00 0.0 
-3.138397805504e+00 -1.002013680527e+02 0.0 
0.0 0.0 -4.032686391135e+01 
-9.311617238270e+01 1.786560133820e+00 0.0 
1.786560133820e+00 -2.047180896209e+02 0.0 
0.0 0.0 -8.895027860107e+01 
-8.572087794559e+01 1.393245227073e+00 0.0 
1.393245227073e+00 -1.842529335465e+02 0.0 
0.0 0.0 -8.059214344761e+01 
-5.102984534868e+01 -5.116573154439e-01 0.0 
-5.116573154439e-01 -9.325287287738e+01 0.0 
0.0 0.0 -4.288481546782e+01 
-1.068644938893e+02 2.069888112646e+00 0.0 
2.069888112646e+00 -2.786338910438e+02 0.0 
0.0 0.0 -1.152495154799e+02 
-1.068270360671e+02 1.110519005396e+00 0.0 
1.110519005396e+00 -2.769248636981e+02 0.0 
0.0 0.0 -1.147255699296e+02 
-9.378239568386e+01 2.542411630816e+00 0.0 
2.542411630816e+00 -2.068714095300e+02 0.0 
0.0 0.0 -8.979614156416e+01 
-8.951060540898e+01 1.212330249413e+00 0.0 
1.212330249413e+00 -1.952235956187e+02 0.0 
0.0 0.0 -8.502026030830e+01 
-9.469208952484e+01 3.767697108770e+00 0.0 
3.767697108770e+00 -2.530788723203e+02 0.0 
0.0 0.0 -1.039312885536e+02 
-1.404453555894e+02 3.194751222668e+00 0.0 
3.194751222668e+00 -3.425341168524e+02 0.0 
0.0 0.0 -1.444938417326e+02 
-8.616303101460e+01 3.613305612516e+00 0.0 
3.613305612516e+00 -1.807980331627e+02 0.0 
0.0 0.0 -7.968831925319e+01 
-1.205967367907e+02 1.583342147791e+00 0.0 
1.583342147791e+00 -3.032831599506e+02 0.0 
0.0 0.0 -1.267639690224e+02 
-1.419414902077e+02 6.287385308772e+00 0.0 
6.287385308772e+00 -3.460460245664e+02 0.0 
0.0 0.0 -1.459962544322e+02 
-9.401274487740e+01 3.737375933818e+00 0.0 
3.737375933818e+00 -2.055601961078e+02 0.0 
0.0 0.0 -8.947188229557e+01 
-7.615514480078e+01 2.871802294135e+00 0.0 
2.871802294135e+00 -1.540103760005e+02 0.0 
0.0 0.0 -6.864965624037e+01 
-1.072354244784e+02 7.300606118654e+00 0.0 
7.300606118654e+00 -2.817779634771e+02 0.0 
0.0 0.0 -1.163040163867e+02 
-3.640711960030e+01 -1.947630443615e+00 0.0 
-1.947630443615e+00 -9.988984750065e+01 0.0 
0.0 0.0 -4.048909013028e+01 
-3.304463086043e+01 -3.137264494971e+00 0.0 
-3.137264494971e+00 -9.231453782152e+01 0.0 
0.0 0.0 -3.720775060459e+01 
-1.971883928358e+01 -1.540230191048e+00 0.0 
-1.540230191048e+00 -4.808026375394e+01 0.0 
0.0 0.0 -1.993973091126e+01 
-1.917057883087e+01 -1.907150374551e+00 0.0 
-1.907150374551e+00 -2.565082712347e+01 0.0 
0.0 0.0 -1.304642178630e+01 
-9.040235063555e+01 2.926561051248e+00 0.0 
2.926561051248e+00 -1.958425037986e+02 0.0 
0.0 0.0 -8.547345633024e+01 
-1.349161030396e+02 1.077525235894e+00 0.0 
1.077525235894e+00 -3.320461706762e+02 0.0 
0.0 0.0 -1.396886821148e+02 
-1.780259204798e+01 -1.895948791095e+00 0.0 
-1.895948791095e+00 -2.530672003981e+01 0.0 
0.0 0.0 -1.253279362634e+01 
-1.058871567252e+02 1.889701258737e+01 0.0 
1.889701258737e+01 -2.203116009657e+02 0.0 
0.0 0.0 -9.745962730728e+01 
-5.533386172275e+01 -1.524348125805e-01 0.0 
-1.524348125805e-01 -1.022626237896e+02 0.0 
0.0 0.0 -4.687894565371e+01 
-1.217725129915e+02 3.722449072397e+00 0.0 
3.722449072397e+00 -3.069659634431e+02 0.0 
0.0 0.0 -1.282215429304e+02 
-1.251011605078e+02 8.672915373032e-01 0.0 
8.672915373032e-01 -3.131084909429e+02 0.0 
0.0 0.0 -1.310628954352e+02 
-4.760826144959e+01 -1.636578930731e+00 0.0 
-1.636578930731e+00 -1.407092067361e+02 0.0 
0.0 0.0 -5.609524045571e+01 
-1.254924449586e+02 2.264843638243e+00 0.0 
2.264843638243e+00 -3.135622558633e+02 0.0 
0.0 0.0 -1.313164102466e+02 
-5.179471517962e+01 1.577193418829e+00 0.0 
1.577193418829e+00 -9.351433968897e+01 0.0 
0.0 0.0 -4.319271646058e+01 
-9.794155323644e+01 1.602549867299e+01 0.0 
1.602549867299e+01 -2.593839500942e+02 0.0 
0.0 0.0 -1.067976509992e+02 
-1.466169061241e+02 4.183229559807e+00 0.0 
4.183229559807e+00 -3.547116556654e+02 0.0 
0.0 0.0 -1.499985685369e+02 
-3.518801173743e+01 -1.187086063701e+00 0.0 
-1.187086063701e+00 -9.651669728531e+01 0.0 
0.0 0.0 -3.911141270682e+01 
-1.415410004552e+02 7.762719087015e+00 0.0 
7.762719087015e+00 -3.461168049707e+02 0.0 
0.0 0.0 -1.458973416278e+02 
-7.977120174659e+01 2.665156831943e+00 0.0 
2.665156831943e+00 -1.649832555415e+02 0.0 
0.0 0.0 -7.302633718644e+01 
-3.952229327127e+01 -1.690610733269e+00 0.0 
-1.690610733269e+00 -1.084683108000e+02 0.0 
0.0 0.0 -4.399718122139e+01 
-4.023709918587e+01 -1.945066887793e+00 0.0 
-1.945066887793e+00 -1.122813931730e+02 0.0 
0.0 0.0 -4.535554770765e+01 
-8.509676519107e+01 -5.461655052863e-01 0.0 
-5.461655052863e-01 -2.265461108586e+02 0.0 
0.0 0.0 -9.309286281490e+01 
-6.725910111474e+01 1.041063166236e+00 0.0 
1.041063166236e+00 -1.314435324995e+02 0.0 
0.0 0.0 -5.921079008426e+01 
-5.465004477511e+01 -1.902150983142e+00 0.0 
-1.902150983142e+00 -1.527454359838e+02 0.0 
0.0 0.0 -6.181864422768e+01 
-8.332388125705e+01 2.538917694216e+00 0.0 
2.538917694216e+00 -1.758493351239e+02 0.0 
0.0 0.0 -7.735196491428e+01 
-7.205874409479e+01 2.334001538084e+00 0.0 
2.334001538084e+00 -1.444176211878e+02 0.0 
0.0 0.0 -6.454290958479e+01 
-8.134206869656e+01 -2.787649902693e-01 0.0 
-2.787649902693e-01 -2.198878261321e+02 0.0 
0.0 0.0 -8.996896844861e+01 
-1.160938008761e+02 1.952528278995e+00 0.0 
1.952528278995e+00 -2.945475833899e+02 0.0 
0.0 0.0 -1.227924152798e+02 
-1.211579954637e+02 2.641616434306e+00 0.0 
2.641616434306e+00 -3.051197033753e+02 0.0 
0.0 0.0 -1.274833096517e+02 
-7.836493937160e+01 8.832104005489e-01 0.0 
8.832104005489e-01 -1.640237608478e+02 0.0 
0.0 0.0 -7.231661006581e+01 
-3.099063760470e+01 -1.093736652094e+00 0.0 
-1.093736652094e+00 -8.358923259263e+01 0.0 
0.0 0.0 -3.397396105920e+01 
-7.729226733638e+01 -6.284695271538e-01 0.0 
-6.284695271538e-01 -2.092387516491e+02 0.0 
0.0 0.0 -8.555930569565e+01 
-1.143574707649e+02 1.919407586991e+01 0.0 
1.919407586991e+01 -2.890018421643e+02 0.0 
0.0 0.0 -1.206077938788e+02 
-8.359190717178e+01 3.432905937801e+00 0.0 
3.432905937801e+00 -1.741601373650e+02 0.0 
0.0 0.0 -7.692561336103e+01 
-6.930758188984e+01 -1.142562467517e+00 0.0 
-1.142562467517e+00 -1.894384947182e+02 0.0 
0.0 0.0 -7.722382298242e+01 
-9.916213283378e+01 3.678435429494e+00 0.0 
3.678435429494e+00 -2.619708172094e+02 0.0 
0.0 0.0 -1.079398850130e+02 
-1.367937573389e+02 8.395666693072e+00 0.0 
8.395666693072e+00 -3.373809004070e+02 0.0 
0.0 0.0 -1.418523973238e+02 
-7.493687053812e+01 1.125183623543e+00 0.0 
1.125183623543e+00 -1.532002566647e+02 0.0 
0.0 0.0 -6.804113816083e+01 
-2.212891507855e+01 8.995156171872e-02 0.0 
8.995156171872e-02 -4.318412338501e+01 0.0 
0.0 0.0 -1.919391153907e+01 
-1.862696654192e+01 -1.122458376814e+00 0.0 
-1.122458376814e+00 -4.674972159518e+01 0.0 
0.0 0.0 -1.921300644113e+01 
-3.035545832238e+01 2.729308139463e+00 0.0 
2.729308139463e+00 -8.677358940823e+01 0.0 
0.0 0.0 -3.473871431918e+01 
-1.302209295616e+02 1.554990651321e+00 0.0 
1.554990651321e+00 -3.235557126315e+02 0.0 
0.0 0.0 -1.357329926579e+02 
-7.104410246725e+01 1.135496521932e+00 0.0 
1.135496521932e+00 -1.422958093559e+02 0.0 
0.0 0.0 -6.360197354696e+01 
-9.406015491869e+01 1.199479472470e+00 0.0 
1.199479472470e+00 -2.462417707397e+02 0.0 
0.0 0.0 -1.016905776975e+02 
-5.942606471332e+01 4.006255754878e-01 0.0 
4.006255754878e-01 -1.117006247787e+02 0.0 
0.0 0.0 -5.093800684760e+01 
-1.259541895854e+02 1.133850973063e+01 0.0 
1.133850973063e+01 -3.180060707701e+02 0.0 
0.0 0.0 -1.327880781067e+02 
-8.537080233592e+01 -2.295409749393e-01 0.0 
-2.295409749393e-01 -2.285437593134e+02 0.0 
0.0 0.0 -9.377436849481e+01 
-1.206279477682e+02 1.246593946154e+00 0.0 
1.246593946154e+00 -3.045890834089e+02 0.0 
0.0 0.0 -1.271651093531e+02 
-3.699345157897e+01 -4.953561748579e-01 0.0 
-4.953561748579e-01 -1.004747330616e+02 0.0 
0.0 0.0 -4.084045539218e+01 
-1.410594111504e+02 4.764847121395e+00 0.0 
4.764847121395e+00 -3.457586709377e+02 0.0 
0.0 0.0 -1.456454246264e+02 
-8.244981317864e+01 1.108144049239e+00 0.0 
1.108144049239e+00 -2.206698852061e+02 0.0 
0.0 0.0 -9.053590951543e+01 
-4.003936229314e+01 -1.197713443402e-01 0.0 
-1.197713443402e-01 -1.090371808671e+02 0.0 
0.0 0.0 -4.432296294808e+01 
-7.823871068603e+01 8.508428075770e-01 0.0 
8.508428075770e-01 -2.099855146374e+02 0.0 
0.0 0.0 -8.606726759704e+01 
-5.820709684846e+01 -1.615560451649e+00 0.0 
-1.615560451649e+00 -1.614036795309e+02 0.0 
0.0 0.0 -6.548323291381e+01 
-4.539413904984e+01 -1.229326433106e+00 0.0 
-1.229326433106e+00 -1.252718988942e+02 0.0 
0.0 0.0 -5.079981138322e+01 
-9.335090550841e+01 -2.868136041528e-01 0.0 
-2.868136041528e-01 -2.455309181043e+02 0.0 
0.0 0.0 -1.012645470838e+02 
-6.850886070103e+00 -5.552667833567e-01 0.0 
-5.552667833567e-01 -9.237423761320e+00 0.0 
0.0 0.0 -5.422162176150e+00 
-8.174545484469e+00 -5.914002326616e-01 0.0 
-5.914002326616e-01 -9.510689049556e+00 0.0 
0.0 0.0 -5.915578094213e+00 
-1.076903176999e+02 2.490186763896e+00 0.0 
2.490186763896e+00 -2.775941457306e+02 0.0 
0.0 0.0 -1.151853390291e+02 
-3.410515552071e+01 -8.665140947622e-01 0.0 
-8.665140947622e-01 -9.221949134843e+01 0.0 
0.0 0.0 -3.749739406074e+01 
-1.080391850100e+02 3.409656158404e+00 0.0 
3.409656158404e+00 -2.794264048686e+02 0.0 
0.0 0.0 -1.158396769636e+02 
-1.036151992992e+02 3.558582157851e+00 0.0 
3.558582157851e+00 -2.707589993827e+02 0.0 
0.0 0.0 -1.119122596046e+02 
-6.176102089942e+01 -1.296714066648e+00 0.0 
-1.296714066648e+00 -1.743002613406e+02 0.0 
0.0 0.0 -7.041838467201e+01 
-3.847547513276e+01 -2.305322285074e+00 0.0 
-2.305322285074e+00 -1.133537133266e+02 0.0 
0.0 0.0 -4.514875653780e+01 
-9.125899774819e+01 5.290681779367e+00 0.0 
5.290681779367e+00 -1.928529201674e+02 0.0 
0.0 0.0 -8.483357537467e+01 
-2.000112069598e+01 4.887395071742e+00 0.0 
4.887395071742e+00 -4.195800768168e+01 0.0 
0.0 0.0 -1.818773851330e+01 
-6.178739068462e+01 -1.319723133624e+00 0.0 
-1.319723133624e+00 -1.702516627916e+02 0.0 
0.0 0.0 -6.921171604287e+01 
-1.305180793044e+02 1.291320415624e+01 0.0 
1.291320415624e+01 -3.257788807405e+02 0.0 
0.0 0.0 -1.364890880135e+02 
-2.929361097784e+01 -1.979750255048e+00 0.0 
-1.979750255048e+00 -7.955866345618e+01 0.0 
0.0 0.0 -3.225568233021e+01 
-6.461076864701e+01 2.203820625098e+00 0.0 
2.203820625098e+00 -1.232823634054e+02 0.0 
0.0 0.0 -5.596793961572e+01 
-5.642562462469e+01 1.718310914758e+00 0.0 
1.718310914758e+00 -1.030845980244e+02 0.0 
0.0 0.0 -4.745306679471e+01 
-2.907822512351e+01 -1.832907665517e+00 0.0 
-1.832907665517e+00 -7.721227217582e+01 0.0 
0.0 0.0 -3.148714918980e+01 
-1.315967497358e+02 8.877068624852e+00 0.0 
8.877068624852e+00 -3.281924447421e+02 0.0 
0.0 0.0 -1.375367583434e+02 
-8.097370855510e+01 4.573142082429e+00 0.0 
4.573142082429e+00 -1.617799512593e+02 0.0 
0.0 0.0 -7.242609794431e+01 
-3.344924159957e+01 -2.160092671588e+00 0.0 
-2.160092671588e+00 -9.157073618719e+01 0.0 
0.0 0.0 -3.710599333603e+01 
-9.494459101796e+01 6.295143766454e+00 0.0 
6.295143766454e+00 -2.020616626560e+02 0.0 
0.0 0.0 -8.870187610220e+01 
-9.275086254300e+01 4.614264223758e+00 0.0 
4.614264223758e+00 -2.007566901873e+02 0.0 
0.0 0.0 -8.765226581910e+01 
-3.779749401011e+01 -9.562626162839e-01 0.0 
-9.562626162839e-01 -1.029636678149e+02 0.0 
0.0 0.0 -4.182834854749e+01 
-3.324154870972e+01 1.892218879298e+01 0.0 
1.892218879298e+01 -7.356346469298e+01 0.0 
0.0 0.0 -3.164150402081e+01 
-3.855075281616e+01 -1.492172122329e+00 0.0 
-1.492172122329e+00 -1.055452501559e+02 0.0 
0.0 0.0 -4.282880089161e+01 
-1.168688323538e+02 2.945316545643e+00 0.0 
2.945316545643e+00 -2.966100436508e+02 0.0 
0.0 0.0 -1.236436628014e+02 
-8.937697513760e+01 -2.377791692192e-01 0.0 
-2.377791692192e-01 -2.371444807847e+02 0.0 
0.0 0.0 -9.755643677670e+01 
-1.012724231735e+02 1.406169346884e+01 0.0 
1.406169346884e+01 -2.140702272032e+02 0.0 
0.0 0.0 -9.420279511299e+01 
-8.941411661747e+01 3.410081475047e+00 0.0 
3.410081475047e+00 -1.917516022050e+02 0.0 
0.0 0.0 -8.394971564673e+01 
-1.124573185877e+02 3.201565657677e+00 0.0 
3.201565657677e+00 -2.880493140685e+02 0.0 
0.0 0.0 -1.197519897969e+02 
-1.114777093306e+02 1.844082577613e+00 0.0 
1.844082577613e+00 -2.873365425495e+02 0.0 
0.0 0.0 -1.192442755640e+02 
-3.125763203749e+01 -2.910174408479e+00 0.0 
-2.910174408479e+00 -8.525895066809e+01 0.0 
0.0 0.0 -3.455497481168e+01 
-1.160704524951e+02 1.564100951106e+00 0.0 
1.564100951106e+00 -2.959689275519e+02 0.0 
0.0 0.0 -1.232118140141e+02 
-7.896028878527e+01 2.684047479422e+00 0.0 
2.684047479422e+00 -1.606070808636e+02 0.0 
0.0 0.0 -7.147021089466e+01 
-9.015360244083e+01 1.159267161674e+00 0.0 
1.159267161674e+00 -2.377834742729e+02 0.0 
0.0 0.0 -9.798112301413e+01 
-7.256042863820e+01 2.888906243786e+00 0.0 
2.888906243786e+00 -1.432333632970e+02 0.0 
0.0 0.0 -6.433813758057e+01 
-8.421967193334e+01 4.478473265441e+00 0.0 
4.478473265441e+00 -1.725836833993e+02 0.0 
0.0 0.0 -7.664100659979e+01 
-6.305551460683e+01 1.154902431877e+01 0.0 
1.154902431877e+01 -1.866738133306e+02 0.0 
0.0 0.0 -7.451879838124e+01 
-8.576166809027e+01 2.473506392301e+00 0.0 
2.473506392301e+00 -1.824261543128e+02 0.0 
0.0 0.0 -8.005634672092e+01 
-7.347537341626e+01 -9.366023478995e-01 0.0 
-9.366023478995e-01 -1.993788088150e+02 0.0 
0.0 0.0 -8.145625466939e+01 
-8.624609829474e+01 1.187465488246e+00 0.0 
1.187465488246e+00 -2.292335788021e+02 0.0 
0.0 0.0 -9.424390312906e+01 
-5.452382979394e+01 -1.850088967136e+00 0.0 
-1.850088967136e+00 -1.507607286127e+02 0.0 
0.0 0.0 -6.118536752201e+01 
-5.611907509443e+01 -5.411086609885e-01 0.0 
-5.411086609885e-01 -1.580037285075e+02 0.0 
0.0 0.0 -6.383684108059e+01 
-7.497898094929e+01 1.824125269100e+00 0.0 
1.824125269100e+00 -1.513844566664e+02 0.0 
0.0 0.0 -6.750903128469e+01 
-7.769342004965e+01 2.867059483996e+00 0.0 
2.867059483996e+00 -2.161790352034e+02 0.0 
0.0 0.0 -8.776173657591e+01 
-4.166305716173e+01 -1.158311623046e+00 0.0 
-1.158311623046e+00 -1.141774919215e+02 0.0 
0.0 0.0 -4.635216472496e+01 
-2.265917468817e+01 -1.767615304927e+00 0.0 
-1.767615304927e+00 -5.763029827970e+01 0.0 
0.0 0.0 -2.368684189036e+01 
-7.678279845154e+01 3.644931304544e+00 0.0 
3.644931304544e+00 -1.524565196316e+02 0.0 
0.0 0.0 -6.837179542495e+01 
-4.076267677842e+01 -2.562683901731e+00 0.0 
-2.562683901731e+00 -1.134844216618e+02 0.0 
0.0 0.0 -4.587412953208e+01 
-1.410903110387e+02 6.505492445633e+00 0.0 
6.505492445633e+00 -3.457444244889e+02 0.0 
0.0 0.0 -1.456504206583e+02 
-7.859919828997e+01 1.793322472513e+00 0.0 
1.793322472513e+00 -1.622821859632e+02 0.0 
0.0 0.0 -7.186441527594e+01 
-1.209233571342e+02 2.366305135860e+00 0.0 
2.366305135860e+00 -3.063113001943e+02 0.0 
0.0 0.0 -1.277703971986e+02 
-1.449400553728e+02 1.664689634796e+01 0.0 
1.664689634796e+01 -3.474049752975e+02 0.0 
0.0 0.0 -1.473035092011e+02 
-7.036216207064e+01 5.030503851477e-01 0.0 
5.030503851477e-01 -1.903760599692e+02 0.0 
0.0 0.0 -7.782146661197e+01 
-3.709352887746e+01 -2.442952874476e+00 0.0 
-2.442952874476e+00 -1.023367639130e+02 0.0 
0.0 0.0 -4.142908783715e+01 
-2.491193626843e+01 -2.856756971903e+00 0.0 
-2.856756971903e+00 -6.542215371969e+01 0.0 
0.0 0.0 -2.670022699644e+01 
-1.126538779192e+02 4.284049364241e+00 0.0 
4.284049364241e+00 -2.896335830780e+02 0.0 
0.0 0.0 -1.202862382992e+02 
-6.722500784977e+01 5.460234228929e-01 0.0 
5.460234228929e-01 -1.333502335154e+02 0.0 
0.0 0.0 -5.977257240955e+01 
-1.901948502205e+01 -2.425788717558e+00 0.0 
-2.425788717558e+00 -4.645562998192e+01 0.0 
0.0 0.0 -1.924253450119e+01 
-5.591109681798e+01 -5.180551121554e-01 0.0 
-5.180551121554e-01 -1.535842455536e+02 0.0 
0.0 0.0 -6.244860271148e+01 
-3.326736907255e+01 -2.547901568706e-01 0.0 
-2.547901568706e-01 -8.959994859409e+01 0.0 
0.0 0.0 -3.646019529999e+01 
-6.897694172590e+01 2.812915899264e+00 0.0 
2.812915899264e+00 -1.324684648245e+02 0.0 
0.0 0.0 -6.003362196513e+01 
-5.953862544879e+01 -1.633164349756e-01 0.0 
-1.633164349756e-01 -1.622862120081e+02 0.0 
0.0 0.0 -6.614745123707e+01 
-1.022500476387e+02 2.262016641434e+00 0.0 
2.262016641434e+00 -2.698867435163e+02 0.0 
0.0 0.0 -1.112410373465e+02 
-5.512128190260e+01 -2.102461739211e-01 0.0 
-2.102461739211e-01 -1.512601558509e+02 0.0 
0.0 0.0 -6.151443132605e+01 
-8.698737739809e+01 3.257970930113e+00 0.0 
3.257970930113e+00 -1.851393890410e+02 0.0 
0.0 0.0 -8.123802993172e+01 
-4.761882328644e+01 -2.303348536338e+00 0.0 
-2.303348536338e+00 -1.331822172545e+02 0.0 
0.0 0.0 -5.384031216228e+01 
-1.125438467222e+02 5.540044616722e+00 0.0 
5.540044616722e+00 -2.907075380828e+02 0.0 
0.0 0.0 -1.205754154415e+02 
-3.425195027509e+01 -2.253025890319e+00 0.0 
-2.253025890319e+00 -9.302428582651e+01 0.0 
0.0 0.0 -3.778287083048e+01 
-1.080530019747e+02 4.493464676737e+00 0.0 
4.493464676737e+00 -2.808274241451e+02 0.0 
0.0 0.0 -1.162641278359e+02 
-8.209055242045e+01 7.806760311385e-01 0.0 
7.806760311385e-01 -2.190017842128e+02 0.0 
0.0 0.0 -8.992770098997e+01 
-1.161731778489e+02 2.686883483056e+00 0.0 
2.686883483056e+00 -2.976050092031e+02 0.0 
0.0 0.0 -1.237334561156e+02 
-4.475463223137e+01 3.153209323472e+00 0.0 
3.153209323472e+00 -1.412446712219e+02 0.0 
0.0 0.0 -5.539979103598e+01 
-3.242041633259e+01 -1.761860724058e+00 0.0 
-1.761860724058e+00 -8.870091793345e+01 0.0 
0.0 0.0 -3.593640027981e+01 
-6.056053226206e+01 1.710856761124e+00 0.0 
1.710856761124e+00 -1.141605792382e+02 0.0 
0.0 0.0 -5.201633345006e+01 
-9.596213179940e+01 9.731442795314e+00 0.0 
9.731442795314e+00 -2.600158743667e+02 0.0 
0.0 0.0 -1.063934018498e+02 
-5.188491806681e+01 1.975574282399e+01 0.0 
1.975574282399e+01 -1.288959266434e+02 0.0 
0.0 0.0 -5.383425341305e+01 
-6.838024593340e+01 2.307546280625e+00 0.0 
2.307546280625e+00 -1.339273793442e+02 0.0 
0.0 0.0 -6.029228758328e+01 
-3.724315952216e+01 -2.030067245406e+00 0.0 
-2.030067245406e+00 -1.036889438050e+02 0.0 
0.0 0.0 -4.187963099816e+01 
-7.214793598144e+01 2.642132155181e+00 0.0 
2.642132155181e+00 -1.392208820336e+02 0.0 
0.0 0.0 -6.301064540452e+01 
-2.964769794469e+01 -4.755636110224e-01 0.0 
-4.755636110224e-01 -8.052372956098e+01 0.0 
0.0 0.0 -3.265142825170e+01 
-1.317557423108e+02 7.163814253486e+00 0.0 
7.163814253486e+00 -3.280084091759e+02 0.0 
0.0 0.0 -1.375292454460e+02 
-9.996564181906e+01 1.140932423166e+01 0.0 
1.140932423166e+01 -2.679159505613e+02 0.0 
0.0 0.0 -1.099644777141e+02 
-1.021226760281e+02 1.770677740312e+01 0.0 
1.770677740312e+01 -2.655251285816e+02 0.0 
0.0 0.0 -1.098943413829e+02 
-9.793554443493e+01 6.068986235373e+00 0.0 
6.068986235373e+00 -2.135360210297e+02 0.0 
0.0 0.0 -9.304146963939e+01 
-8.573870182935e+01 3.914563047074e+00 0.0 
3.914563047074e+00 -2.349676790278e+02 0.0 
0.0 0.0 -9.581191425714e+01 
-3.043879559335e+01 -2.484167448743e+00 0.0 
-2.484167448743e+00 -8.292270814176e+01 0.0 
0.0 0.0 -3.360845112053e+01 
-9.880963033527e+01 4.816856251418e+00 0.0 
4.816856251418e+00 -2.628934600754e+02 0.0 
0.0 0.0 -1.081109271232e+02 
-1.356606288188e+02 7.083188071035e+00 0.0 
7.083188071035e+00 -3.366097128439e+02 0.0 
0.0 0.0 -1.412811024988e+02 
-4.625695049417e+01 -9.229176996100e-01 0.0 
-9.229176996100e-01 -1.332469819471e+02 0.0 
0.0 0.0 -5.345117973237e+01 
-1.172320764886e+02 4.034762091415e+00 0.0 
4.034762091415e+00 -2.983480162339e+02 0.0 
0.0 0.0 -1.242740278167e+02 
-8.017778092143e+01 3.595301790368e+00 0.0 
3.595301790368e+00 -1.632556638945e+02 0.0 
0.0 0.0 -7.263003344477e+01 
-3.551295253636e+01 -2.150189698269e+00 0.0 
-2.150189698269e+00 -1.046467393521e+02 0.0 
0.0 0.0 -4.164790756652e+01 
-1.034385372771e+02 4.665646287967e+00 0.0 
4.665646287967e+00 -2.719187955566e+02 0.0 
0.0 0.0 -1.122071998501e+02 
-6.148938133132e+01 2.670732359000e+00 0.0 
2.670732359000e+00 -1.109391070116e+02 0.0 
0.0 0.0 -5.132854650288e+01 
-4.411837151260e+01 -3.847001062140e-01 0.0 
-3.847001062140e-01 -1.203073682242e+02 0.0 
0.0 0.0 -4.892772192104e+01 
-5.243806585111e+01 -8.381760542169e-01 0.0 
-8.381760542169e-01 -1.449266782123e+02 0.0 
0.0 0.0 -5.880942321902e+01 
-6.684973522773e+01 2.130847250774e+01 0.0 
2.130847250774e+01 -1.653100359562e+02 0.0 
0.0 0.0 -6.924793135519e+01 
-1.113990396354e+02 2.965986058078e+00 0.0 
2.965986058078e+00 -2.888113924167e+02 0.0 
0.0 0.0 -1.196631296156e+02 
-4.504222314515e+01 2.185102597205e+01 0.0 
2.185102597205e+01 -9.710965928849e+01 0.0 
0.0 0.0 -4.224556473009e+01 
-6.290118587693e+01 2.017084228272e+01 0.0 
2.017084228272e+01 -1.618932356854e+02 0.0 
0.0 0.0 -6.703832646868e+01 
-7.557041716576e+01 2.679920138990e+00 0.0 
2.679920138990e+00 -1.498661952709e+02 0.0 
0.0 0.0 -6.723098373099e+01 
-6.324225250668e+01 4.400592378046e-01 0.0 
4.400592378046e-01 -1.224068245083e+02 0.0 
0.0 0.0 -5.529472310449e+01 
-6.416624288458e+01 1.544068391810e+00 0.0 
1.544068391810e+00 -1.192106625130e+02 0.0 
0.0 0.0 -5.461307161927e+01 
-8.133356337262e+01 -4.556554836760e-01 0.0 
-4.556554836760e-01 -2.182967362798e+02 0.0 
0.0 0.0 -8.948908989572e+01 
-1.264524917132e+02 9.340323680456e+00 0.0 
9.340323680456e+00 -3.188691621399e+02 0.0 
0.0 0.0 -1.331964961559e+02 
-9.417160847584e+01 4.964628269154e+00 0.0 
4.964628269154e+00 -2.537368898293e+02 0.0 
0.0 0.0 -1.039725494916e+02 
-6.071383251348e+01 2.066769540114e+00 0.0 
2.066769540114e+00 -1.125216600101e+02 0.0 
0.0 0.0 -5.157064775708e+01 
-1.104792453234e+02 2.115162256964e+01 0.0 
2.115162256964e+01 -2.352991500526e+02 0.0 
0.0 0.0 -1.033335186128e+02 
-1.064050885256e+02 1.933333273407e+01 0.0 
1.933333273407e+01 -2.713366781371e+02 0.0 
0.0 0.0 -1.129225299988e+02 
-1.066190448770e+02 3.203440107867e+00 0.0 
3.203440107867e+00 -2.799353332834e+02 0.0 
0.0 0.0 -1.155663134481e+02 
-8.236969449435e+01 2.626344869921e+00 0.0 
2.626344869921e+00 -1.714860988753e+02 0.0 
0.0 0.0 -7.575673801089e+01 
-5.964938119223e+01 -2.673893989155e-01 0.0 
-2.673893989155e-01 -1.665242895588e+02 0.0 
0.0 0.0 -6.745210122532e+01 
-5.607449437908e+01 -6.277153067996e-01 0.0 
-6.277153067996e-01 -1.557967891898e+02 0.0 
0.0 0.0 -6.316138507067e+01 
-3.170068244828e+01 -1.572308917841e+00 0.0 
-1.572308917841e+00 -8.574139195821e+01 0.0 
0.0 0.0 -3.483262232195e+01 
-1.029843739383e+02 5.996697515815e+00 0.0 
5.996697515815e+00 -2.724671849444e+02 0.0 
0.0 0.0 -1.122354676648e+02 
-5.961963823085e+01 -3.331368524905e-01 0.0 
-3.331368524905e-01 -1.644852687558e+02 0.0 
0.0 0.0 -6.683147209598e+01 
-7.334175076356e+01 3.660784237284e+00 0.0 
3.660784237284e+00 -1.416555316127e+02 0.0 
0.0 0.0 -6.409918471289e+01 
-6.986084034723e+01 3.645206571953e+00 0.0 
3.645206571953e+00 -1.309629142254e+02 0.0 
0.0 0.0 -5.984712637178e+01 
-6.891971853234e+01 1.097810026418e+01 0.0 
1.097810026418e+01 -1.989487407846e+02 0.0 
0.0 0.0 -7.996053779509e+01 
-4.773587749062e+01 -2.407803832367e+00 0.0 
-2.407803832367e+00 -1.354552079444e+02 0.0 
0.0 0.0 -5.455732563051e+01 
-4.009103850893e+01 7.015259883936e+00 0.0 
7.015259883936e+00 -1.278920698301e+02 0.0 
0.0 0.0 -4.999493250169e+01 
-5.114843546608e+01 -2.167571213529e+00 0.0 
-2.167571213529e+00 -1.440853192549e+02 0.0 
0.0 0.0 -5.817012641629e+01 
-5.460943602608e+01 -1.895224988063e+00 0.0 
-1.895224988063e+00 -1.548960401217e+02 0.0 
0.0 0.0 -6.245164284433e+01 
-3.410937986670e+01 -2.708579891761e+00 0.0 
-2.708579891761e+00 -9.382509584648e+01 0.0 
0.0 0.0 -3.798034271395e+01 
-1.212549582036e+02 9.823821327322e+00 0.0 
9.823821327322e+00 -3.093544003829e+02 0.0 
0.0 0.0 -1.287828075759e+02 
-6.467691750765e+01 -5.850538552492e-02 0.0 
-5.850538552492e-02 -1.863736985470e+02 0.0 
0.0 0.0 -7.491518481638e+01 
-8.742622731104e+01 4.296467170939e+00 0.0 
4.296467170939e+00 -1.834413843071e+02 0.0 
0.0 0.0 -8.086028348543e+01 
-6.798511889339e+01 8.917565499934e-01 0.0 
8.917565499934e-01 -1.963387792041e+02 0.0 
0.0 0.0 -7.889716942924e+01 
-9.705102704935e+01 3.626013135937e+00 0.0 
3.626013135937e+00 -2.618879798378e+02 0.0 
0.0 0.0 -1.072817020661e+02 
-8.006067881074e+01 1.743765610662e+00 0.0 
1.743765610662e+00 -2.241590026530e+02 0.0 
0.0 0.0 -9.086590443914e+01 
-6.302996379420e+01 1.766610169842e+01 0.0 
1.766610169842e+01 -1.720922479997e+02 0.0 
0.0 0.0 -7.013666353818e+01 
-3.479816800003e+01 -1.338698352859e+00 0.0 
-1.338698352859e+00 -9.444061587543e+01 0.0 
0.0 0.0 -3.837163516264e+01 
-1.302677249776e+02 7.611378810492e+00 0.0 
7.611378810492e+00 -3.272968795833e+02 0.0 
0.0 0.0 -1.368693813683e+02 
-1.369372013676e+02 1.042384864493e+01 0.0 
1.042384864493e+01 -3.382576443396e+02 0.0 
0.0 0.0 -1.421584537122e+02 
-8.720379267196e+01 2.088916983515e+01 0.0 
2.088916983515e+01 -2.060644949984e+02 0.0 
0.0 0.0 -8.758048630112e+01 
-5.798706428243e+01 -1.479570370030e+00 0.0 
-1.479570370030e+00 -1.655520358128e+02 0.0 
0.0 0.0 -6.666173002858e+01 
-8.835371437809e+01 2.685997664701e+00 0.0 
2.685997664701e+00 -2.430415975613e+02 0.0 
0.0 0.0 -9.901859358183e+01 
-7.138312795193e+01 1.755953809391e+00 0.0 
1.755953809391e+00 -1.405055593588e+02 0.0 
0.0 0.0 -6.316660619323e+01 
-6.330960218836e+01 -1.856090636537e-02 0.0 
-1.856090636537e-02 -1.752370293511e+02 0.0 
0.0 0.0 -7.116398946183e+01 
-4.852036532911e+01 1.933539466090e+01 0.0 
1.933539466090e+01 -1.263759831455e+02 0.0 
0.0 0.0 -5.206890454238e+01 
-4.861392532827e+01 -8.950030026058e-01 0.0 
-8.950030026058e-01 -1.339152257400e+02 0.0 
0.0 0.0 -5.435874532047e+01 
-4.023635333247e+01 -1.626762597250e+00 0.0 
-1.626762597250e+00 -1.142497064950e+02 0.0 
0.0 0.0 -4.594581794823e+01 
-6.315717594715e+01 2.535815218279e-01 0.0 
2.535815218279e-01 -1.770780784755e+02 0.0 
0.0 0.0 -7.167057632678e+01 
-4.394170030910e+01 -2.254449696699e+00 0.0 
-2.254449696699e+00 -1.221102294513e+02 0.0 
0.0 0.0 -4.941557892811e+01 
-4.093665211513e+01 -6.714002407301e-01 0.0 
-6.714002407301e-01 -1.116380956465e+02 0.0 
0.0 0.0 -4.537242432848e+01 
-8.198759240723e+01 2.860217136925e+00 0.0 
2.860217136925e+00 -2.252206604583e+02 0.0 
0.0 0.0 -9.176247585965e+01 
-1.018351542732e+02 3.417946403244e+00 0.0 
3.417946403244e+00 -2.709654043309e+02 0.0 
0.0 0.0 -1.114401675812e+02 
-1.067828343696e+02 2.223612407026e+01 0.0 
2.223612407026e+01 -2.486165717353e+02 0.0 
0.0 0.0 -1.062198218315e+02 
-7.132407330603e+00 -6.884781062625e-01 0.0 
-6.884781062625e-01 -9.098705960641e+00 0.0 
0.0 0.0 -4.469333987373e+00 
-6.283182478286e+01 2.521293350897e+00 0.0 
2.521293350897e+00 -1.874027862903e+02 0.0 
0.0 0.0 -7.467038332196e+01 
-6.385918563285e+01 1.017548669063e+00 0.0 
1.017548669063e+00 -1.873265367821e+02 0.0 
0.0 0.0 -7.495571672448e+01 
-6.132474507781e+01 -8.619844639238e-01 0.0 
-8.619844639238e-01 -1.760700008293e+02 0.0 
0.0 0.0 -7.081842377213e+01 
-6.779588607053e+01 1.671967807788e+00 0.0 
1.671967807788e+00 -1.297598025131e+02 0.0 
0.0 0.0 -5.886670657510e+01 
-7.216591689845e+01 8.162477710164e-01 0.0 
8.162477710164e-01 -2.052527304220e+02 0.0 
0.0 0.0 -8.282559419614e+01 
-5.101310234863e+01 -2.041572486098e+00 0.0 
-2.041572486098e+00 -1.418801521699e+02 0.0 
0.0 0.0 -5.746797635555e+01 
-6.662504191746e+01 9.562737330857e-01 0.0 
9.562737330857e-01 -1.874219967282e+02 0.0 
0.0 0.0 -7.581411159369e+01 
-8.205562088506e+01 1.665829346813e+00 0.0 
1.665829346813e+00 -1.732127311360e+02 0.0 
0.0 0.0 -7.618050560632e+01 
-5.181397121493e+01 -5.639383216728e-01 0.0 
-5.639383216728e-01 -1.425478071293e+02 0.0 
0.0 0.0 -5.790853350328e+01 
-2.125357790189e+01 -2.365278130557e+00 0.0 
-2.365278130557e+00 -5.456211407023e+01 0.0 
0.0 0.0 -2.234470759164e+01 
-2.766860220154e+01 -2.625745565779e+00 0.0 
-2.625745565779e+00 -7.438919450819e+01 0.0 
0.0 0.0 -3.021733901292e+01 
-4.158111491900e+01 -2.341847599191e+00 0.0 
-2.341847599191e+00 -1.219947265459e+02 0.0 
0.0 0.0 -4.867275243948e+01 
-5.109001939766e+01 -2.085090922383e+00 0.0 
-2.085090922383e+00 -1.463238177623e+02 0.0 
0.0 0.0 -5.882415114798e+01 
-6.702518671884e+01 2.210525274275e+00 0.0 
2.210525274275e+00 -1.967265081738e+02 0.0 
0.0 0.0 -7.872550846779e+01 
-7.004333818854e+01 1.841393279841e+00 0.0 
1.841393279841e+00 -1.974325904810e+02 0.0 
0.0 0.0 -7.984277860087e+01 
-3.131967032728e+01 -2.251313222320e+00 0.0 
-2.251313222320e+00 -8.398349526697e+01 0.0 
0.0 0.0 -3.419094967827e+01 
-2.764125853310e+01 -1.259342668683e+00 0.0 
-1.259342668683e+00 -7.466500183053e+01 0.0 
0.0 0.0 -3.029187810909e+01 
-6.734897532088e+01 4.755020190679e+00 0.0 
4.755020190679e+00 -1.188231931463e+02 0.0 
0.0 0.0 -5.545165054017e+01 
-4.481599826776e+01 -7.884139404777e-01 0.0 
-7.884139404777e-01 -1.228006807088e+02 0.0 
0.0 0.0 -4.988500369298e+01 
-1.149983058622e+02 7.152898752975e+00 0.0 
7.152898752975e+00 -2.993961315073e+02 0.0 
0.0 0.0 -1.239183312108e+02 
-1.031120021377e+02 2.177064353140e+01 0.0 
2.177064353140e+01 -2.440596263233e+02 0.0 
0.0 0.0 -1.037514885383e+02 
-7.753513673836e+01 1.425002741846e+01 0.0 
1.425002741846e+01 -1.357709049000e+02 0.0 
0.0 0.0 -6.359181249152e+01 
-9.086952309665e+01 6.264632350652e+00 0.0 
6.264632350652e+00 -1.896412996349e+02 0.0 
0.0 0.0 -8.375324681947e+01 
-1.102449404515e+02 2.244236066209e+01 0.0 
2.244236066209e+01 -2.534140758271e+02 0.0 
0.0 0.0 -1.086977048836e+02 
-6.457470240597e+01 1.185717146715e+01 0.0 
1.185717146715e+01 -1.873840091252e+02 0.0 
0.0 0.0 -7.518761345934e+01 
-9.512535996744e+01 2.122352434085e+01 0.0 
2.122352434085e+01 -2.250028659568e+02 0.0 
0.0 0.0 -9.563846777727e+01 
-3.455019415194e+01 -2.175310858841e+00 0.0 
-2.175310858841e+00 -9.509344065890e+01 0.0 
0.0 0.0 -3.849309044325e+01 
-7.054626399436e+01 1.089373551477e+00 0.0 
1.089373551477e+00 -1.961938737906e+02 0.0 
0.0 0.0 -7.962204133549e+01 
-5.521618140051e+01 1.379341061855e+01 0.0 
1.379341061855e+01 -1.626283030046e+02 0.0 
0.0 0.0 -6.495334532152e+01 
-3.492437684041e+01 -6.310537143758e-01 0.0 
-6.310537143758e-01 -1.060432583908e+02 0.0 
0.0 0.0 -4.189029056935e+01 
-2.929370183033e+01 -2.433540358024e+00 0.0 
-2.433540358024e+00 -7.593732083524e+01 0.0 
0.0 0.0 -3.116930679967e+01 
-5.824135522013e+01 -1.672903223495e+00 0.0 
-1.672903223495e+00 -1.636079849369e+02 0.0 
0.0 0.0 -6.615480204712e+01 
-6.598045563486e+01 1.844574997334e+00 0.0 
1.844574997334e+00 -1.884270854909e+02 0.0 
0.0 0.0 -7.592226233773e+01 
-6.921000722893e+01 2.996749555759e+00 0.0 
2.996749555759e+00 -1.978316680992e+02 0.0 
0.0 0.0 -7.971250259843e+01 
-4.717432777701e+01 -1.913884777427e+00 0.0 
-1.913884777427e+00 -1.307499600167e+02 0.0 
0.0 0.0 -5.297728633812e+01 
-7.564425017405e+01 1.848245529830e+00 0.0 
1.848245529830e+00 -2.150875334788e+02 0.0 
0.0 0.0 -8.681953509584e+01 
-6.503745906592e+01 3.158581553053e+00 0.0 
3.158581553053e+00 -1.884925137345e+02 0.0 
0.0 0.0 -7.565899184013e+01 
-6.591539703338e+01 3.976636088980e+00 0.0 
3.976636088980e+00 -1.961556113282e+02 0.0 
0.0 0.0 -7.822130250848e+01 
-5.264551365106e+01 -9.256167911344e-01 0.0 
-9.256167911344e-01 -1.472302435051e+02 0.0 
0.0 0.0 -5.956272714685e+01 
-9.895421104335e+01 1.368558288059e+01 0.0 
1.368558288059e+01 -2.643966675580e+02 0.0 
0.0 0.0 -1.086052635804e+02 
-7.772039509865e+01 4.649689372504e+00 0.0 
4.649689372504e+00 -1.511071805042e+02 0.0 
0.0 0.0 -6.824827268085e+01 
-6.170346798560e+01 4.485267631834e+00 0.0 
4.485267631834e+00 -1.864420745906e+02 0.0 
0.0 0.0 -7.404366277286e+01 
-1.249917714736e+02 8.126049845569e+00 0.0 
8.126049845569e+00 -3.179866222667e+02 0.0 
0.0 0.0 -1.324935181221e+02 
-3.729729304686e+01 -1.655153202208e+00 0.0 
-1.655153202208e+00 -1.055095451114e+02 0.0 
0.0 0.0 -4.244205144747e+01 
-1.349016243228e+02 1.131193394417e+01 0.0 
1.131193394417e+01 -3.359885104410e+02 0.0 
0.0 0.0 -1.408670404292e+02 
-7.129083220435e+01 1.987531832475e+00 0.0 
1.987531832475e+00 -2.059057021496e+02 0.0 
0.0 0.0 -8.275896030619e+01 
-1.138184623647e+02 2.278640451024e+01 0.0 
2.278640451024e+01 -2.600740367806e+02 0.0 
0.0 0.0 -1.117677497436e+02 
-8.056714237856e+01 2.183000955192e+01 0.0 
2.183000955192e+01 -1.654996828612e+02 0.0 
0.0 0.0 -7.342004757192e+01 
-3.582865726565e+01 -2.870988884522e+00 0.0 
-2.870988884522e+00 -1.029047722037e+02 0.0 
0.0 0.0 -4.122002884082e+01 
-8.146865780452e+01 1.653363501203e+01 0.0 
1.653363501203e+01 -1.487934657871e+02 0.0 
0.0 0.0 -6.867863707749e+01 
-9.612023192350e+01 9.749336008975e+00 0.0 
9.749336008975e+00 -2.004421918630e+02 0.0 
0.0 0.0 -8.856872713595e+01 
-7.466630913791e+01 3.256595330265e+00 0.0 
3.256595330265e+00 -2.151881043279e+02 0.0 
0.0 0.0 -8.655632403973e+01 
-4.214224149233e+01 1.559600356121e+01 0.0 
1.559600356121e+01 -1.184745379095e+02 0.0 
0.0 0.0 -4.778503382056e+01 
-8.518140132969e+01 1.850787703963e+01 0.0 
1.850787703963e+01 -1.624829921903e+02 0.0 
0.0 0.0 -7.389931805599e+01 
-5.939413138010e+01 1.994087066593e+01 0.0 
1.994087066593e+01 -1.469687974154e+02 0.0 
0.0 0.0 -6.150887863866e+01 
-3.035707606992e+01 -3.214927138474e+00 0.0 
-3.214927138474e+00 -8.335097097759e+01 0.0 
0.0 0.0 -3.371241411425e+01 
-1.038361758538e+02 8.444234833471e+00 0.0 
8.444234833471e+00 -2.314006739329e+02 0.0 
0.0 0.0 -1.001710549360e+02 
-2.755317268968e+01 -3.263587838797e+00 0.0 
-3.263587838797e+00 -7.289762768159e+01 0.0 
0.0 0.0 -2.973524011138e+01 
-1.269475770461e+02 1.971362346140e+01 0.0 
1.971362346140e+01 -3.143234468801e+02 0.0 
0.0 0.0 -1.319813071779e+02 
-9.255514457043e+01 3.141019533281e+00 0.0 
3.141019533281e+00 -2.025096574455e+02 0.0 
0.0 0.0 -8.811944060479e+01 
-1.040937516231e+02 1.313523476186e+01 0.0 
1.313523476186e+01 -2.754660862776e+02 0.0 
0.0 0.0 -1.134679513702e+02 
-6.343810059697e+01 8.449492653270e-01 0.0 
8.449492653270e-01 -1.204305639250e+02 0.0 
0.0 0.0 -5.476059935658e+01 
-8.935879151179e+01 6.949798138963e+00 0.0 
6.949798138963e+00 -1.811312077194e+02 0.0 
0.0 0.0 -8.074699976937e+01 
-6.812441219456e+01 4.568411946621e+00 0.0 
4.568411946621e+00 -1.972281438542e+02 0.0 
0.0 0.0 -7.920576681462e+01 
-7.683191893391e+01 1.207007400290e+01 0.0 
1.207007400290e+01 -2.168151288853e+02 0.0 
0.0 0.0 -8.769411434576e+01 
-9.756879077887e+01 7.373412580719e+00 0.0 
7.373412580719e+00 -2.101817512894e+02 0.0 
0.0 0.0 -9.192516262047e+01 
-1.110665570365e+02 4.267611586030e+00 0.0 
4.267611586030e+00 -2.897979478915e+02 0.0 
0.0 0.0 -1.198593514784e+02 
-8.216098863627e+01 5.802697231514e+00 0.0 
5.802697231514e+00 -1.607715716942e+02 0.0 
0.0 0.0 -7.247976809915e+01 
-9.904370329152e+01 8.298395416395e+00 0.0 
8.298395416395e+00 -2.692631910058e+02 0.0 
0.0 0.0 -1.100920682892e+02 
-3.303667813110e+01 -2.810281209048e+00 0.0 
-2.810281209048e+00 -9.430934775342e+01 0.0 
0.0 0.0 -3.780380776536e+01 
-8.657647692411e+01 7.157332343770e+00 0.0 
7.157332343770e+00 -1.706260209432e+02 0.0 
0.0 0.0 -7.676074936019e+01 
-1.273627271875e+02 2.669998782355e+01 0.0 
2.669998782355e+01 -2.990446576133e+02 0.0 
0.0 0.0 -1.275222154402e+02 
-1.357929068746e+02 9.003244814617e+00 0.0 
9.003244814617e+00 -3.373259427160e+02 0.0 
0.0 0.0 -1.415356548772e+02 
-6.870369977499e+01 -4.667630421392e-02 0.0 
-4.667630421392e-02 -1.951649444293e+02 0.0 
0.0 0.0 -7.876059326128e+01 
-6.519479098807e+01 2.811591562541e+00 0.0 
2.811591562541e+00 -1.214419973483e+02 0.0 
0.0 0.0 -5.559103650091e+01 
-5.958450246746e+01 6.934710679574e-01 0.0 
6.934710679574e-01 -1.098037084755e+02 0.0 
0.0 0.0 -5.041646328288e+01 
-7.340707304017e+01 2.913874013632e+00 0.0 
2.913874013632e+00 -2.070061376623e+02 0.0 
0.0 0.0 -8.372396321073e+01 
-1.061326733878e+02 4.546727062911e+00 0.0 
4.546727062911e+00 -2.806898774704e+02 0.0 
0.0 0.0 -1.156467652574e+02 
-1.105252606393e+02 5.789380724295e+00 0.0 
5.789380724295e+00 -2.901768872101e+02 0.0 
0.0 0.0 -1.198106443548e+02 
-2.517772976756e+01 -1.422700178204e+00 0.0 
-1.422700178204e+00 -6.585750445643e+01 0.0 
0.0 0.0 -2.691057026720e+01 
-3.472979781830e+01 6.213818627294e+00 0.0 
6.213818627294e+00 -1.105823511324e+02 0.0 
0.0 0.0 -4.319364468521e+01 
-6.483192314653e+01 6.164221247718e+00 0.0 
6.164221247718e+00 -1.945103709567e+02 0.0 
0.0 0.0 -7.740268823098e+01 
-6.389162051966e+01 4.949507757073e+00 0.0 
4.949507757073e+00 -1.874788349634e+02 0.0 
0.0 0.0 -7.501113664492e+01 
-5.888351282321e+01 1.808894894467e+01 0.0 
1.808894894467e+01 -1.580554577720e+02 0.0 
0.0 0.0 -6.468169117855e+01 
-1.024138570989e+02 8.917838528904e+00 0.0 
8.917838528904e+00 -2.216312599994e+02 0.0 
0.0 0.0 -9.681353512947e+01 
-1.031129775899e+02 1.659297632027e+01 0.0 
1.659297632027e+01 -2.187484431669e+02 0.0 
0.0 0.0 -9.615842622705e+01 
-9.413517612968e+01 4.908905857869e+00 0.0 
4.908905857869e+00 -2.033825813871e+02 0.0 
0.0 0.0 -8.885532725502e+01 
-4.860887607242e+01 2.235945398865e+01 0.0 
2.235945398865e+01 -9.893327011656e+01 0.0 
0.0 0.0 -4.386264385669e+01 
-8.952203233798e+01 8.326637413020e+00 0.0 
8.326637413020e+00 -1.796523859237e+02 0.0 
0.0 0.0 -8.035232547849e+01 
-1.077705847478e+02 5.774796402708e+00 0.0 
5.774796402708e+00 -2.816514470362e+02 0.0 
0.0 0.0 -1.164266095352e+02 
-9.665042778747e+01 5.612301790290e+00 0.0 
5.612301790290e+00 -2.109362596256e+02 0.0 
0.0 0.0 -9.187600622392e+01 
-8.371209029179e+01 7.348784693493e+00 0.0 
7.348784693493e+00 -1.602047054815e+02 0.0 
0.0 0.0 -7.277503873200e+01 
-7.411927316495e+01 1.896304212645e+00 0.0 
1.896304212645e+00 -2.063201041120e+02 0.0 
0.0 0.0 -8.373181318307e+01 
-6.062438377116e+01 6.895856128543e+00 0.0 
6.895856128543e+00 -1.842203164670e+02 0.0 
0.0 0.0 -7.305341007146e+01 
-8.389825403666e+01 5.033999023532e+00 0.0 
5.033999023532e+00 -1.691315865976e+02 0.0 
0.0 0.0 -7.550895219027e+01 
-9.612000023664e+01 8.048094467765e+00 0.0 
8.048094467765e+00 -2.016097957234e+02 0.0 
0.0 0.0 -8.891893878801e+01 
-8.296380987243e+01 3.689265071017e+00 0.0 
3.689265071017e+00 -1.700733423886e+02 0.0 
0.0 0.0 -7.551114567830e+01 
-7.973403300075e+01 3.762731575880e+00 0.0 
3.762731575880e+00 -1.593985763484e+02 0.0 
0.0 0.0 -7.133978280473e+01 
-1.254413752889e+02 6.287530995475e+00 0.0 
6.287530995475e+00 -3.181113007618e+02 0.0 
0.0 0.0 -1.326658028152e+02 
-1.216324427364e+02 2.010535499172e+01 0.0 
2.010535499172e+01 -3.024677495583e+02 0.0 
0.0 0.0 -1.268300576884e+02 
-1.202507419638e+02 6.712400268099e+00 0.0 
6.712400268099e+00 -3.088531007092e+02 0.0 
0.0 0.0 -1.283311528019e+02 
-9.298050416821e+01 2.549571248283e+00 0.0 
2.549571248283e+00 -2.520782304835e+02 0.0 
0.0 0.0 -1.031176203955e+02 
-4.455052001340e+01 1.466301744548e+01 0.0 
1.466301744548e+01 -6.489023733894e+01 0.0 
0.0 0.0 -3.243222720570e+01 
-1.082423438297e+02 1.485840570965e+01 0.0 
1.485840570965e+01 -2.825516826194e+02 0.0 
0.0 0.0 -1.168382079347e+02 
-8.415117729357e+01 9.013628924936e+00 0.0 
9.013628924936e+00 -1.605941092987e+02 0.0 
0.0 0.0 -7.302358597767e+01 
-4.021089744558e+01 -2.108535501349e+00 0.0 
-2.108535501349e+00 -1.110194071263e+02 0.0 
0.0 0.0 -4.496909137157e+01 
-6.694088857819e+01 6.614044241013e+00 0.0 
6.614044241013e+00 -1.955068156798e+02 0.0 
0.0 0.0 -7.833431127739e+01 
-7.699440697627e+01 6.631503339627e+00 0.0 
6.631503339627e+00 -2.225599459994e+02 0.0 
0.0 0.0 -8.946630589270e+01 
-8.516749466908e+01 1.316878994571e+01 0.0 
1.316878994571e+01 -2.348286042353e+02 0.0 
0.0 0.0 -9.559882967131e+01 
-3.376893406748e+01 1.283252071739e+00 0.0 
1.283252071739e+00 -1.053181887540e+02 0.0 
0.0 0.0 -4.132613684643e+01 
-6.267070797258e+01 7.210274855977e+00 0.0 
7.210274855977e+00 -1.851613322270e+02 0.0 
0.0 0.0 -7.394961205987e+01 
-9.391322497645e+01 1.428178925857e+01 0.0 
1.428178925857e+01 -2.529611682034e+02 0.0 
0.0 0.0 -1.036623179540e+02 
-5.740608325642e+01 1.827689760609e+01 0.0 
1.827689760609e+01 -1.040678885126e+02 0.0 
0.0 0.0 -4.804219153070e+01 
-7.642110866854e+01 7.996316395171e-01 0.0 
7.996316395171e-01 -2.141804016574e+02 0.0 
0.0 0.0 -8.678045309779e+01 
-7.597728537435e+01 6.014297904738e+00 0.0 
6.014297904738e+00 -1.396756900105e+02 0.0 
0.0 0.0 -6.429589261545e+01 
-4.636054919171e+01 -3.169216832123e-01 0.0 
-3.169216832123e-01 -7.982609103766e+01 0.0 
0.0 0.0 -3.745599206881e+01 
-2.424199413459e+01 1.547890795674e+01 0.0 
1.547890795674e+01 -1.811023218429e+01 0.0 
0.0 0.0 -1.230566789567e+01 
-9.021687551403e+01 3.840784395868e+00 0.0 
3.840784395868e+00 -2.440838865801e+02 0.0 
0.0 0.0 -9.989022862825e+01 
-1.075028281138e+02 1.154521313061e+01 0.0 
1.154521313061e+01 -2.852346173984e+02 0.0 
0.0 0.0 -1.174212336537e+02 
-1.055509569083e+02 1.578982763025e+01 0.0 
1.578982763025e+01 -2.267294472666e+02 0.0 
0.0 0.0 -9.928412125247e+01 
-7.155984889399e+01 9.701584097197e+00 0.0 
9.701584097197e+00 -2.092565171899e+02 0.0 
0.0 0.0 -8.384490982516e+01 
-8.450973149078e+01 1.668527742559e+00 0.0 
1.668527742559e+00 -2.331523726996e+02 0.0 
0.0 0.0 -9.489863125712e+01 
-7.443198891036e+01 4.659384546950e+00 0.0 
4.659384546950e+00 -1.405196916706e+02 0.0 
0.0 0.0 -6.408550417429e+01 
-2.520386267667e+01 1.671381630069e+01 0.0 
1.671381630069e+01 -1.953799910354e+01 0.0 
0.0 0.0 -1.302255853406e+01 
-1.023008322730e+02 1.212453113006e+01 0.0 
1.212453113006e+01 -2.744879801902e+02 0.0 
0.0 0.0 -1.126366437390e+02 
-8.147677431415e+01 1.136169814407e+01 0.0 
1.136169814407e+01 -2.281095255851e+02 0.0 
0.0 0.0 -9.247588996978e+01 
-6.164483849790e+01 2.035523436094e+01 0.0 
2.035523436094e+01 -1.088590599097e+02 0.0 
0.0 0.0 -5.075116952228e+01 
-1.121701037146e+02 7.004843255736e+00 0.0 
7.004843255736e+00 -2.911369033180e+02 0.0 
0.0 0.0 -1.205921021098e+02 
-3.698896397401e+01 -7.366534097009e-01 0.0 
-7.366534097009e-01 -1.069017168926e+02 0.0 
0.0 0.0 -4.276720425998e+01 
-1.166618418680e+02 8.350359040459e+00 0.0 
8.350359040459e+00 -3.003619554114e+02 0.0 
0.0 0.0 -1.247071391838e+02 
-1.298328085378e+02 9.576530605012e+00 0.0 
9.576530605012e+00 -3.270007239360e+02 0.0 
0.0 0.0 -1.366500597422e+02 
-9.723344346115e+01 1.273027772748e+01 0.0 
1.273027772748e+01 -2.634619449708e+02 0.0 
0.0 0.0 -1.078086165296e+02 
-8.517257606901e+01 5.672216291840e+00 0.0 
5.672216291840e+00 -1.713525095748e+02 0.0 
0.0 0.0 -7.655752569315e+01 
-1.043253306472e+02 2.259161369452e+01 0.0 
2.259161369452e+01 -2.541117245184e+02 0.0 
0.0 0.0 -1.071311165497e+02 
-1.314664204163e+02 1.094041238990e+01 0.0 
1.094041238990e+01 -3.279429344163e+02 0.0 
0.0 0.0 -1.374228064498e+02 
-2.494917552816e+01 1.674874738136e+01 0.0 
1.674874738136e+01 -2.005448038046e+01 0.0 
0.0 0.0 -1.310109677258e+01 
-7.912466960797e+01 5.881290796071e+00 0.0 
5.881290796071e+00 -1.502462115452e+02 0.0 
0.0 0.0 -6.841126434595e+01 
-1.202754503539e+02 2.198673954028e+01 0.0 
2.198673954028e+01 -2.955376296365e+02 0.0 
0.0 0.0 -1.243439239971e+02 
-8.691773928736e+01 4.894719317907e+00 0.0 
4.894719317907e+00 -1.797445068133e+02 0.0 
0.0 0.0 -7.959867383019e+01 
-8.829038012142e+01 1.169751528873e+01 0.0 
1.169751528873e+01 -2.452966987638e+02 0.0 
0.0 0.0 -9.967612366556e+01 
-6.570904648872e+01 9.074132877588e+00 0.0 
9.074132877588e+00 -1.922743028294e+02 0.0 
0.0 0.0 -7.699500479542e+01 
-8.535442920049e+01 2.015244825858e-01 0.0 
2.015244825858e-01 -2.303508370591e+02 0.0 
0.0 0.0 -9.431157987788e+01 
-2.339700375055e+01 1.122413051420e+00 0.0 
1.122413051420e+00 -6.037938726781e+01 0.0 
0.0 0.0 -2.473291730551e+01 
-8.997047618457e+01 4.671205267325e+00 0.0 
4.671205267325e+00 -1.904186361574e+02 0.0 
0.0 0.0 -8.371673370259e+01 
-4.348603979363e+01 -1.869208835845e+00 0.0 
-1.869208835845e+00 -1.197644580463e+02 0.0 
0.0 0.0 -4.857514935197e+01 
-2.404456157744e+01 1.627545219604e+01 0.0 
1.627545219604e+01 -1.976079598799e+01 0.0 
0.0 0.0 -1.274160726963e+01 
-9.972521144970e+01 2.277365164920e+01 0.0 
2.277365164920e+01 -2.399513394628e+02 0.0 
0.0 0.0 -1.015029652737e+02 
-9.637975391191e+01 4.141997781900e+00 0.0 
4.141997781900e+00 -2.125215190863e+02 0.0 
0.0 0.0 -9.227038189946e+01 
-3.453661363411e+01 -1.575011653575e+00 0.0 
-1.575011653575e+00 -9.690631928373e+01 0.0 
0.0 0.0 -3.903287987535e+01 
-7.101369465405e+01 2.210325354920e+01 0.0 
2.210325354920e+01 -1.687704608244e+02 0.0 
0.0 0.0 -7.153524664353e+01 
-8.089355324352e+01 5.100577027314e+00 0.0 
5.100577027314e+00 -1.586354262684e+02 0.0 
0.0 0.0 -7.145869385358e+01 
-8.242715045389e+01 2.035173164827e+00 0.0 
2.035173164827e+00 -2.241008784718e+02 0.0 
0.0 0.0 -9.155840867769e+01 
-3.606511297427e+01 1.096394435035e+00 0.0 
1.096394435035e+00 -1.062483348950e+02 0.0 
0.0 0.0 -4.229403436078e+01 
-3.848238737327e+01 1.379685412551e+01 0.0 
1.379685412551e+01 -1.142282492344e+02 0.0 
0.0 0.0 -4.541319098231e+01 
-2.820524644773e+01 -2.994287101072e+00 0.0 
-2.994287101072e+00 -7.534299466587e+01 0.0 
0.0 0.0 -3.066447233408e+01 
-3.277603680539e+01 -1.874052025646e+00 0.0 
-1.874052025646e+00 -9.610428624626e+01 0.0 
0.0 0.0 -3.826409691550e+01 
-3.050337243241e+01 -2.592163363537e+00 0.0 
-2.592163363537e+00 -8.613788094771e+01 0.0 
0.0 0.0 -3.459237601404e+01 
-7.972486502348e+01 1.069384987652e+01 0.0 
1.069384987652e+01 -2.272241818161e+02 0.0 
0.0 0.0 -9.168471405188e+01 
-1.158994443765e+02 1.475804223913e+01 0.0 
1.475804223913e+01 -2.618193050663e+02 0.0 
0.0 0.0 -1.129156248329e+02 
-2.274094018822e+01 1.551802571240e+01 0.0 
1.551802571240e+01 -1.918188609667e+01 0.0 
0.0 0.0 -1.217684788547e+01 
-1.306780564630e+02 5.841295259141e+00 0.0 
5.841295259141e+00 -3.272452265075e+02 0.0 
0.0 0.0 -1.369769848911e+02 
-5.263182072028e+01 8.756327039917e+00 0.0 
8.756327039917e+00 -1.627938084706e+02 0.0 
0.0 0.0 -6.422768875726e+01 
-8.081374991182e+01 7.592691919725e+00 0.0 
7.592691919725e+00 -1.500362208526e+02 0.0 
0.0 0.0 -6.885499122933e+01 
-2.680867628396e+01 1.652227374529e+00 0.0 
1.652227374529e+00 -7.817527879599e+01 0.0 
0.0 0.0 -3.109518652399e+01 
-1.363337460538e+02 1.246105898075e+01 0.0 
1.246105898075e+01 -3.365075608795e+02 0.0 
0.0 0.0 -1.414523920800e+02 
-3.217447382667e+01 -2.252783291768e+00 0.0 
-2.252783291768e+00 -8.689692621260e+01 0.0 
0.0 0.0 -3.532142001178e+01 
-5.095055586253e+01 -1.677855192273e+00 0.0 
-1.677855192273e+00 -1.401438824312e+02 0.0 
0.0 0.0 -5.692833148810e+01 
-1.014400878594e+02 1.439727550525e+01 0.0 
1.439727550525e+01 -2.702875413217e+02 0.0 
0.0 0.0 -1.111182887543e+02 
-7.241102577610e+01 4.304436032208e+00 0.0 
4.304436032208e+00 -2.067529951392e+02 0.0 
0.0 0.0 -8.334920627458e+01 
-1.160625672253e+02 2.049753185657e+01 0.0 
2.049753185657e+01 -2.899694797109e+02 0.0 
0.0 0.0 -1.214096140809e+02 
-4.219880114145e+01 1.879044418604e+01 0.0 
1.879044418604e+01 -1.086434461285e+02 0.0 
0.0 0.0 -4.485267418098e+01 
-8.978240463495e+01 1.114575548576e+01 0.0 
1.114575548576e+01 -1.716876342913e+02 0.0 
0.0 0.0 -7.804101167789e+01 
-1.254740826021e+02 1.833234299682e+01 0.0 
1.833234299682e+01 -3.133964372779e+02 0.0 
0.0 0.0 -1.312611559640e+02 
-7.649778401834e+01 3.751753473260e+00 0.0 
3.751753473260e+00 -1.487905095341e+02 0.0 
0.0 0.0 -6.718648806575e+01 
-1.077706026956e+02 1.829579784039e+01 0.0 
1.829579784039e+01 -2.282089517433e+02 0.0 
0.0 0.0 -1.003938663317e+02 
-9.083550542745e+01 8.659934741909e+00 0.0 
8.659934741909e+00 -1.806745652416e+02 0.0 
0.0 0.0 -8.105302120072e+01 
-9.498104979123e+01 1.029651488794e+01 0.0 
1.029651488794e+01 -1.911692405382e+02 0.0 
0.0 0.0 -8.544508709884e+01 
-2.782542299103e+01 7.158139819279e+00 0.0 
7.158139819279e+00 -8.290098214168e+01 0.0 
0.0 0.0 -3.281792153981e+01 
-1.256912658926e+02 4.705240930639e+00 0.0 
4.705240930639e+00 -3.174614617609e+02 0.0 
0.0 0.0 -1.325458182960e+02 
-8.528021180915e+01 6.651520778158e+00 0.0 
6.651520778158e+00 -1.689638424428e+02 0.0 
0.0 0.0 -7.587321627558e+01 
-6.657416376135e+01 1.337808646534e+01 0.0 
1.337808646534e+01 -1.923512098768e+02 0.0 
0.0 0.0 -7.727761209143e+01 
-2.798205642342e+01 1.414945578175e+01 0.0 
1.414945578175e+01 -1.985960115432e+01 0.0 
0.0 0.0 -1.395249727332e+01 
-1.319162805197e+02 2.146556186532e+01 0.0 
2.146556186532e+01 -3.208522058218e+02 0.0 
0.0 0.0 -1.354305459025e+02 
-3.276096824385e+01 4.183204571206e+00 0.0 
4.183204571206e+00 -1.035738915409e+02 0.0 
0.0 0.0 -4.050045793541e+01 
-4.811808466348e+01 -4.138541820892e-01 0.0 
-4.138541820892e-01 -1.314611284645e+02 0.0 
0.0 0.0 -5.347376393840e+01 
-1.100761922778e+02 1.757528755584e+01 0.0 
1.757528755584e+01 -2.830549701680e+02 0.0 
0.0 0.0 -1.175393487337e+02 
-2.954377420908e+01 3.197238888108e-01 0.0 
3.197238888108e-01 -8.042235231845e+01 0.0 
0.0 0.0 -3.258983795826e+01 
-6.673520264633e+01 1.922282804838e+01 0.0 
1.922282804838e+01 -1.761014579837e+02 0.0 
0.0 0.0 -7.245099818900e+01 
-1.065365883378e+02 1.380985768001e+01 0.0 
1.380985768001e+01 -2.816264551144e+02 0.0 
0.0 0.0 -1.160489130357e+02 
-1.008960877668e+02 1.138777777839e+01 0.0 
1.138777777839e+01 -2.111806487589e+02 0.0 
0.0 0.0 -9.322302095770e+01 
-1.047698892970e+02 1.327787641987e+01 0.0 
1.327787641987e+01 -2.226680207747e+02 0.0 
0.0 0.0 -9.783137302151e+01 
-1.030328503940e+02 1.541873301608e+01 0.0 
1.541873301608e+01 -2.711761636483e+02 0.0 
0.0 0.0 -1.118627042127e+02 
-9.344468551880e+01 8.380191985785e+00 0.0 
8.380191985785e+00 -1.910982102617e+02 0.0 
0.0 0.0 -8.496286873414e+01 
-5.570387195862e+01 1.071028791457e+01 0.0 
1.071028791457e+01 -1.690612587905e+02 0.0 
0.0 0.0 -6.702953922473e+01 
-9.964956730163e+01 2.342250497018e+01 0.0 
2.342250497018e+01 -2.301572920616e+02 0.0 
0.0 0.0 -9.854205780896e+01 
-2.711757983410e+01 6.067323819632e+00 0.0 
6.067323819632e+00 -2.358240368578e+01 0.0 
0.0 0.0 -1.480999505597e+01 
-1.078184432348e+02 2.021150214133e+01 0.0 
2.021150214133e+01 -2.378255467241e+02 0.0 
0.0 0.0 -1.032931969877e+02 
-3.487529038110e+01 3.862386717501e+00 0.0 
3.862386717501e+00 -4.108906102948e+01 0.0 
0.0 0.0 -2.238930542317e+01 
-3.930016195171e+01 3.292235096740e+00 0.0 
3.292235096740e+00 -5.046167173967e+01 0.0 
0.0 0.0 -2.652855010741e+01 
-6.722303344664e+01 1.056836194107e+01 0.0 
1.056836194107e+01 -1.981430202757e+02 0.0 
0.0 0.0 -7.920981611670e+01 
-4.343291363638e+01 2.863814881080e+00 0.0 
2.863814881080e+00 -6.064284227505e+01 0.0 
0.0 0.0 -3.082272677343e+01 
-7.877787659745e+01 1.884853500025e+01 0.0 
1.884853500025e+01 -2.076648464578e+02 0.0 
0.0 0.0 -8.553281691657e+01 
-5.956220982521e+01 1.590207776562e+01 0.0 
1.590207776562e+01 -1.677919570371e+02 0.0 
0.0 0.0 -6.780625005870e+01 
-7.007838083098e+01 8.382555908266e+00 0.0 
8.382555908266e+00 -2.030177836848e+02 0.0 
0.0 0.0 -8.152884935472e+01 
-3.179946154982e+01 -2.523577187979e-01 0.0 
-2.523577187979e-01 -9.628515513668e+01 0.0 
0.0 0.0 -3.802538500595e+01 
-6.381854390713e+01 8.719312159232e+00 0.0 
8.719312159232e+00 -1.913958690491e+02 0.0 
0.0 0.0 -7.616432388687e+01 
-9.371550766857e+01 6.007187088716e+00 0.0 
6.007187088716e+00 -2.002387597723e+02 0.0 
0.0 0.0 -8.778628023227e+01 
-1.076626177225e+02 1.827875136238e+01 0.0 
1.827875136238e+01 -2.338867643842e+02 0.0 
0.0 0.0 -1.020648146320e+02 
-1.159857669112e+02 3.972476668557e+00 0.0 
3.972476668557e+00 -2.987678156437e+02 0.0 
0.0 0.0 -1.240260747665e+02 
-1.198796000445e+02 1.873959547845e+01 0.0 
1.873959547845e+01 -3.014333435543e+02 0.0 
0.0 0.0 -1.259938830796e+02 
-7.021813825255e+01 3.563844895012e+00 0.0 
3.563844895012e+00 -2.056585232560e+02 0.0 
0.0 0.0 -8.236299845255e+01 
-9.217484337847e+01 8.041680387794e+00 0.0 
8.041680387794e+00 -1.895859231887e+02 0.0 
0.0 0.0 -8.412822997014e+01 
-6.809357941297e+01 7.908371793019e+00 0.0 
7.908371793019e+00 -2.020747357930e+02 0.0 
0.0 0.0 -8.065049456178e+01 
-1.307309262229e+02 4.283030524531e+00 0.0 
4.283030524531e+00 -3.262877708184e+02 0.0 
0.0 0.0 -1.367056091124e+02 
-8.803220580252e+01 6.499159232232e+00 0.0 
6.499159232232e+00 -1.791173733268e+02 0.0 
0.0 0.0 -7.974487373881e+01 
-9.243470270196e+01 1.070161114509e+01 0.0 
1.070161114509e+01 -1.813140111726e+02 0.0 
0.0 0.0 -8.172461416238e+01 
-9.313352117472e+01 1.103756314744e+01 0.0 
1.103756314744e+01 -2.562581042774e+02 0.0 
0.0 0.0 -1.044174876357e+02 
-5.968680561054e+01 9.656450880939e+00 0.0 
9.656450880939e+00 -1.804095338080e+02 0.0 
0.0 0.0 -7.162890182555e+01 
-1.075907140165e+02 2.395358295067e+01 0.0 
2.395358295067e+01 -2.491271118839e+02 0.0 
0.0 0.0 -1.066153477701e+02 
-8.058271009684e+01 1.915258675730e+01 0.0 
1.915258675730e+01 -1.649875696687e+02 0.0 
0.0 0.0 -7.327108392965e+01 
-3.377881943656e+01 -2.120775682983e-01 0.0 
-2.120775682983e-01 -9.713234607198e+01 0.0 
0.0 0.0 -3.887334965256e+01 
-3.483799651407e+01 3.615739814270e+00 0.0 
3.615739814270e+00 -1.043229766673e+02 0.0 
0.0 0.0 -4.134829195442e+01 
-4.465323863396e+01 1.725253313771e+01 0.0 
1.725253313771e+01 -1.225925057134e+02 0.0 
0.0 0.0 -4.977372330422e+01 
-7.144363791814e+01 2.057677743277e+01 0.0 
2.057677743277e+01 -1.686477273802e+02 0.0 
0.0 0.0 -7.162740958950e+01 
-1.357579801604e+02 3.772345640401e+00 0.0 
3.772345640401e+00 -3.352184014290e+02 0.0 
0.0 0.0 -1.408929144768e+02 
-8.812746678261e+01 8.971991664703e+00 0.0 
8.971991664703e+00 -1.705702517616e+02 0.0 
0.0 0.0 -7.720931556326e+01 
-6.145781417589e+01 9.886493397614e+00 0.0 
9.886493397614e+00 -1.812104674386e+02 0.0 
0.0 0.0 -7.240048448435e+01 
-8.329236504372e+01 2.268633121806e+01 0.0 
2.268633121806e+01 -1.914023909486e+02 0.0 
0.0 0.0 -8.200842679769e+01 
-1.118747158543e+02 1.326090513716e+01 0.0 
1.326090513716e+01 -2.928036342824e+02 0.0 
0.0 0.0 -1.210035050410e+02 
-9.217615958719e+01 6.689913522384e+00 0.0 
6.689913522384e+00 -1.917109407689e+02 0.0 
0.0 0.0 -8.476613010684e+01 
-1.110919999709e+02 2.432755392501e+01 0.0 
2.432755392501e+01 -2.540652613435e+02 0.0 
0.0 0.0 -1.091471783943e+02 
-7.480349761701e+01 5.274245721509e+00 0.0 
5.274245721509e+00 -1.383974048474e+02 0.0 
0.0 0.0 -6.356027073933e+01 
-1.188376227216e+02 1.060885995061e+01 0.0 
1.060885995061e+01 -3.070719887646e+02 0.0 
0.0 0.0 -1.273728834459e+02 
-7.338270433065e+01 1.021767864340e+01 0.0 
1.021767864340e+01 -2.101405791661e+02 0.0 
0.0 0.0 -8.465698504902e+01 
-1.135965223518e+02 1.432468470004e+01 0.0 
1.432468470004e+01 -2.936789426305e+02 0.0 
0.0 0.0 -1.217826394947e+02 
-6.653238255202e+01 1.842809265492e+01 0.0 
1.842809265492e+01 -1.758454124149e+02 0.0 
0.0 0.0 -7.231333849007e+01 
-9.974295807941e+01 9.405843413805e+00 0.0 
9.405843413805e+00 -2.114066448909e+02 0.0 
0.0 0.0 -9.294488089110e+01 
-1.157488381716e+02 2.507112910879e+01 0.0 
2.507112910879e+01 -2.610997248331e+02 0.0 
0.0 0.0 -1.126545689014e+02 
-8.436951697564e+01 9.978016552714e+00 0.0 
9.978016552714e+00 -2.380908857364e+02 0.0 
0.0 0.0 -9.633812081360e+01 
-3.093896812039e+01 2.281938456981e+00 0.0 
2.281938456981e+00 -9.583479250801e+01 0.0 
0.0 0.0 -3.763212818852e+01 
-1.077980342540e+02 2.085586426699e+01 0.0 
2.085586426699e+01 -2.669851358453e+02 0.0 
0.0 0.0 -1.120349510298e+02 
-7.460860149722e+01 1.969060262509e+01 0.0 
1.969060262509e+01 -1.940068308775e+02 0.0 
0.0 0.0 -8.018462971243e+01 
-5.733113954106e+01 1.083540883786e+01 0.0 
1.083540883786e+01 -1.697785084066e+02 0.0 
0.0 0.0 -6.773289438431e+01 
-9.000382583201e+01 1.251024729291e+01 0.0 
1.251024729291e+01 -2.461972005507e+02 0.0 
0.0 0.0 -1.004603079148e+02 
-1.160042553475e+02 1.023583748493e+01 0.0 
1.023583748493e+01 -2.995117360490e+02 0.0 
0.0 0.0 -1.242547974189e+02 
-3.305071856384e+01 1.782803507363e+00 0.0 
1.782803507363e+00 -9.661267199733e+01 0.0 
0.0 0.0 -3.849901716835e+01 
-7.602135504628e+01 8.942680618487e+00 0.0 
8.942680618487e+00 -2.200314062425e+02 0.0 
0.0 0.0 -8.841582838664e+01 
-8.382222252742e+01 1.543274279981e+01 0.0 
1.543274279981e+01 -1.613148427341e+02 0.0 
0.0 0.0 -7.314111957847e+01 
-1.365440071779e+02 5.176917729833e+00 0.0 
5.176917729833e+00 -3.358335250667e+02 0.0 
0.0 0.0 -1.413132596734e+02 
-8.773863676826e+01 1.731640151964e+01 0.0 
1.731640151964e+01 -1.756421494225e+02 0.0 
0.0 0.0 -7.861423585723e+01 
-1.033223070708e+02 2.106832505253e+01 0.0 
2.106832505253e+01 -2.533689317386e+02 0.0 
0.0 0.0 -1.066073716428e+02 
-7.961125071832e+01 1.327737197047e+01 0.0 
1.327737197047e+01 -1.473900003613e+02 0.0 
0.0 0.0 -6.770037532388e+01 
-6.993107639583e+01 8.384549211895e+00 0.0 
8.384549211895e+00 -1.212958101261e+02 0.0 
0.0 0.0 -5.696806595658e+01 
-8.413026671506e+01 2.012598855034e+01 0.0 
2.012598855034e+01 -1.803143981353e+02 0.0 
0.0 0.0 -7.893339945511e+01 
-1.153925115341e+02 1.707479544596e+01 0.0 
1.707479544596e+01 -2.951270243566e+02 0.0 
0.0 0.0 -1.227558607672e+02 
-1.219943455381e+02 6.382262007352e+00 0.0 
6.382262007352e+00 -3.094066828758e+02 0.0 
0.0 0.0 -1.290203085242e+02 
-8.245623247951e+01 6.868346897857e+00 0.0 
6.868346897857e+00 -1.590321660012e+02 0.0 
0.0 0.0 -7.204651954421e+01 
-1.024459003925e+02 1.120368571422e+01 0.0 
1.120368571422e+01 -2.213073338551e+02 0.0 
0.0 0.0 -9.672597027428e+01 
-7.511277091518e+01 1.090364614213e+01 0.0 
1.090364614213e+01 -1.340882271456e+02 0.0 
0.0 0.0 -6.236029941822e+01 
-4.799539433467e+01 7.731020750624e+00 0.0 
7.731020750624e+00 -1.460657255353e+02 0.0 
0.0 0.0 -5.781833596100e+01 
-1.131355032710e+02 2.348796097893e+01 0.0 
2.348796097893e+01 -2.729486129916e+02 0.0 
0.0 0.0 -1.154252348788e+02 
-9.886209234294e+01 7.747977201450e+00 0.0 
7.747977201450e+00 -2.122308207800e+02 0.0 
0.0 0.0 -9.292787393689e+01 
-6.631326314387e+01 1.606903414003e+01 0.0 
1.606903414003e+01 -1.848654032857e+02 0.0 
0.0 0.0 -7.495359992887e+01 
-7.028113984070e+01 1.751942753394e+01 0.0 
1.751942753394e+01 -1.894276485019e+02 0.0 
0.0 0.0 -7.751263650279e+01 
-5.448003013501e+01 8.807498653689e+00 0.0 
8.807498653689e+00 -1.635881056714e+02 0.0 
0.0 0.0 -6.502044074193e+01 
-8.684672793932e+01 8.627887448823e+00 0.0 
8.627887448823e+00 -1.699623821629e+02 0.0 
0.0 0.0 -7.664273303065e+01 
-4.838364147127e+01 2.020107605936e+01 0.0 
2.020107605936e+01 -1.132055147413e+02 0.0 
0.0 0.0 -4.807674686377e+01 
-8.234373696553e+01 1.714028076917e+01 0.0 
1.714028076917e+01 -2.203176095766e+02 0.0 
0.0 0.0 -9.039840396264e+01 
-4.846861935755e+01 2.143170573130e+01 0.0 
2.143170573130e+01 -1.134811559724e+02 0.0 
0.0 0.0 -4.818493259899e+01 
-1.057408800525e+02 1.601862857403e+01 0.0 
1.601862857403e+01 -2.768072658416e+02 0.0 
0.0 0.0 -1.143644437682e+02 
-1.219789898920e+02 2.433702527181e+01 0.0 
2.433702527181e+01 -2.911233992724e+02 0.0 
0.0 0.0 -1.235307167493e+02 
-5.850850306882e+01 7.943615063070e+00 0.0 
7.943615063070e+00 -1.745263895052e+02 0.0 
0.0 0.0 -6.951046777219e+01 
-2.524153744587e+01 4.605627412351e-01 0.0 
4.605627412351e-01 -6.100669670951e+01 0.0 
0.0 0.0 -2.547447024661e+01 
-1.038627813670e+02 1.355858441346e+01 0.0 
1.355858441346e+01 -2.235272862267e+02 0.0 
0.0 0.0 -9.781702027813e+01 
-5.252944926903e+01 2.052783932072e+01 0.0 
2.052783932072e+01 -1.155188513514e+02 0.0 
0.0 0.0 -5.001449018611e+01 
-7.353770965217e+01 5.044242184645e+00 0.0 
5.044242184645e+00 -2.142871042015e+02 0.0 
0.0 0.0 -8.594744415611e+01 
-1.168557646523e+02 2.187947056695e+01 0.0 
2.187947056695e+01 -2.859246633590e+02 0.0 
0.0 0.0 -1.204341284034e+02 
-8.537343924405e+01 9.303426820626e+00 0.0 
9.303426820626e+00 -1.606880931251e+02 0.0 
0.0 0.0 -7.341845971075e+01 
-1.170931368595e+02 6.703882855347e+00 0.0 
6.703882855347e+00 -3.003451053532e+02 0.0 
0.0 0.0 -1.248314726638e+02 
-5.636123443764e+01 1.395238959789e+01 0.0 
1.395238959789e+01 -1.631479739241e+02 0.0 
0.0 0.0 -6.545276250854e+01 
-2.209101357014e+01 -2.555549032788e-01 0.0 
-2.555549032788e-01 -5.142291736964e+01 0.0 
0.0 0.0 -2.165417928193e+01 
-1.414912301102e+02 4.729152052789e+00 0.0 
4.729152052789e+00 -3.456050760711e+02 0.0 
0.0 0.0 -1.457288918544e+02 
-7.497215655833e+01 2.021839989959e+01 0.0 
2.021839989959e+01 -1.834731610130e+02 0.0 
0.0 0.0 -7.713359527139e+01 
-9.701881396610e+01 1.828074794275e+01 0.0 
1.828074794275e+01 -2.525025281506e+02 0.0 
0.0 0.0 -1.044564026350e+02 
-1.112528076538e+02 2.270944063455e+01 0.0 
2.270944063455e+01 -2.634210751474e+02 0.0 
0.0 0.0 -1.120021648404e+02 
-1.990467623487e+01 -8.685738972283e-02 0.0 
-8.685738972283e-02 -3.434965592934e+01 0.0 
0.0 0.0 -1.587629964926e+01 
-1.155977369499e+02 5.438369391836e+00 0.0 
5.438369391836e+00 -2.994311522047e+02 0.0 
0.0 0.0 -1.241086667464e+02 
-3.749706259493e+01 1.134171131497e+01 0.0 
1.134171131497e+01 -1.106437664545e+02 0.0 
0.0 0.0 -4.404224871483e+01 
-7.799999546729e+01 7.794427151656e+00 0.0 
7.794427151656e+00 -1.401663318332e+02 0.0 
0.0 0.0 -6.504989819015e+01 
-9.063217719852e+01 2.856918485555e+00 0.0 
2.856918485555e+00 -2.430770163219e+02 0.0 
0.0 0.0 -9.971275805613e+01 
-5.654839992960e+01 7.751687285121e+00 0.0 
7.751687285121e+00 -1.736517879302e+02 0.0 
0.0 0.0 -6.866005635794e+01 
-1.316622692961e+02 5.594222557565e+00 0.0 
5.594222557565e+00 -3.269719677312e+02 0.0 
0.0 0.0 -1.371902711082e+02 
-7.828593327412e+01 1.796065268433e+01 0.0 
1.796065268433e+01 -2.072628028257e+02 0.0 
0.0 0.0 -8.526462082996e+01 
-4.976056074859e+01 6.799539884475e+00 0.0 
6.799539884475e+00 -1.560230290721e+02 0.0 
0.0 0.0 -6.133507694620e+01 
-7.900754473683e+01 2.227459380374e+01 0.0 
2.227459380374e+01 -1.874822526897e+02 0.0 
0.0 0.0 -7.954693922796e+01 
-2.390901238106e+01 -9.874570517847e-01 0.0 
-9.874570517847e-01 -5.200179842740e+01 0.0 
0.0 0.0 -2.237324324254e+01 
-9.545512161704e+01 2.292139891169e+01 0.0 
2.292139891169e+01 -2.254748951977e+02 0.0 
0.0 0.0 -9.587900504442e+01 
-1.072623509833e+02 1.714621042342e+01 0.0 
1.714621042342e+01 -2.776940784408e+02 0.0 
0.0 0.0 -1.150869288273e+02 
-1.170088690775e+02 2.415115339804e+01 0.0 
2.415115339804e+01 -2.635928435615e+02 0.0 
0.0 0.0 -1.137805137917e+02 
-1.038540353342e+02 2.351090438205e+01 0.0 
2.351090438205e+01 -2.447189768627e+02 0.0 
0.0 0.0 -1.041719036591e+02 
-3.993370081191e+01 4.610390287200e+00 0.0 
4.610390287200e+00 -1.218376200828e+02 0.0 
0.0 0.0 -4.813139626841e+01 
-1.172896290215e+02 5.275891276490e+00 0.0 
5.275891276490e+00 -2.996137943178e+02 0.0 
0.0 0.0 -1.246710270018e+02 
-1.002839165124e+02 7.097202735586e+00 0.0 
7.097202735586e+00 -2.206168330953e+02 0.0 
0.0 0.0 -9.587022488231e+01 
-1.359464086976e+02 2.305080509588e+01 0.0 
2.305080509588e+01 -3.261377245782e+02 0.0 
0.0 0.0 -1.382252399827e+02 
-1.116185062087e+02 1.883444752719e+01 0.0 
1.883444752719e+01 -2.839781225320e+02 0.0 
0.0 0.0 -1.182789886222e+02 
-6.036227652298e+01 1.285029877873e+01 0.0 
1.285029877873e+01 -1.754089611357e+02 0.0 
0.0 0.0 -7.033137129760e+01 
-8.715463052769e+01 2.253152855605e+01 0.0 
2.253152855605e+01 -2.063573209237e+02 0.0 
0.0 0.0 -8.765358543540e+01 
-1.351972049543e+02 2.391146757439e+00 0.0 
2.391146757439e+00 -3.334788270566e+02 0.0 
0.0 0.0 -1.402028096033e+02 
-8.563091850754e+01 9.080590505571e-01 0.0 
9.080590505571e-01 -2.271517151485e+02 0.0 
0.0 0.0 -9.343479009681e+01 
-9.912262638978e+01 2.118775507008e+01 0.0 
2.118775507008e+01 -2.393703815944e+02 0.0 
0.0 0.0 -1.011479023953e+02 
-7.789702054668e+01 5.177058329417e+00 0.0 
5.177058329417e+00 -1.484014475236e+02 0.0 
0.0 0.0 -6.748954042110e+01 
-1.268425666753e+02 6.018291758350e+00 0.0 
6.018291758350e+00 -3.182379505010e+02 0.0 
0.0 0.0 -1.331241551529e+02 
-1.217305989640e+02 7.976028854153e+00 0.0 
7.976028854153e+00 -3.097601670746e+02 0.0 
0.0 0.0 -1.290472298116e+02 
-3.962393694424e+01 3.927600978186e-02 0.0 
3.927600978186e-02 -6.685302798779e+01 0.0 
0.0 0.0 -3.154308947961e+01 
-3.952807518339e+01 -1.546062194314e-01 0.0 
-1.546062194314e-01 -6.684293447084e+01 0.0 
0.0 0.0 -3.151130289627e+01 
-8.895445741538e+01 1.755296481757e+01 0.0 
1.755296481757e+01 -1.699944600487e+02 0.0 
0.0 0.0 -7.728467523924e+01 
-9.099502484623e+01 2.071123457518e+01 0.0 
2.071123457518e+01 -2.205543182300e+02 0.0 
0.0 0.0 -9.306480292287e+01 
-9.494163784632e+01 2.819145222424e+00 0.0 
2.819145222424e+00 -2.518621213831e+02 0.0 
0.0 0.0 -1.036411277688e+02 
-8.822637874857e+01 2.203685560447e+01 0.0 
2.203685560447e+01 -1.856091900772e+02 0.0 
0.0 0.0 -8.175067064773e+01 
-7.418371630133e+01 1.658247302995e+01 0.0 
1.658247302995e+01 -2.024876520212e+02 0.0 
0.0 0.0 -8.260141049675e+01 
-1.272056172462e+02 1.396384375412e+01 0.0 
1.396384375412e+01 -3.206410953687e+02 0.0 
0.0 0.0 -1.339540137845e+02 
-5.902705070021e+01 1.262436519732e+01 0.0 
1.262436519732e+01 -1.747944630626e+02 0.0 
0.0 0.0 -6.974645412886e+01 
-1.137395251989e+02 1.318331041365e+01 0.0 
1.318331041365e+01 -2.587785286388e+02 0.0 
0.0 0.0 -1.113554161513e+02 
-6.230526479041e+01 6.961148602577e+00 0.0 
6.961148602577e+00 -1.010417772155e+02 0.0 
0.0 0.0 -4.860411260177e+01 
-7.074980240402e+01 1.826586822630e+01 0.0 
1.826586822630e+01 -1.897894725120e+02 0.0 
0.0 0.0 -7.776178247482e+01 
-8.899515195017e+01 1.610930274410e+00 0.0 
1.610930274410e+00 -2.420962968893e+02 0.0 
0.0 0.0 -9.892743465185e+01 
-3.669521785284e+01 5.652825365933e+00 0.0 
5.652825365933e+00 -1.112893042913e+02 0.0 
0.0 0.0 -4.399535664324e+01 
-7.825161116284e+01 1.961699761548e+00 0.0 
1.961699761548e+00 -2.152137431582e+02 0.0 
0.0 0.0 -8.763960629633e+01 
-8.292245693850e+01 2.041006695644e+01 0.0 
2.041006695644e+01 -2.019099840577e+02 0.0 
0.0 0.0 -8.504973229886e+01 
-7.576675335196e+01 2.075158030287e+01 0.0 
2.075158030287e+01 -1.722192536347e+02 0.0 
0.0 0.0 -7.399580209600e+01 
-7.958703638175e+01 7.109870532141e+00 0.0 
7.109870532141e+00 -1.492982318202e+02 0.0 
0.0 0.0 -6.826558046059e+01 
-9.156117412888e+01 2.045038566310e+01 0.0 
2.045038566310e+01 -2.000284513065e+02 0.0 
0.0 0.0 -8.707688763061e+01 
-9.578333136890e+01 2.238638106303e+01 0.0 
2.238638106303e+01 -2.056394270601e+02 0.0 
0.0 0.0 -9.002682752871e+01 
-2.225278977278e+01 -2.057365548358e-01 0.0 
-2.057365548358e-01 -5.936616841611e+01 0.0 
0.0 0.0 -2.408568745667e+01 
-7.282376693031e+01 6.486554193500e-03 0.0 
6.486554193500e-03 -2.040232558284e+02 0.0 
0.0 0.0 -8.265410682761e+01 
-5.210797592734e+01 2.223296740270e+01 0.0 
2.223296740270e+01 -1.156238480951e+02 0.0 
0.0 0.0 -4.991954720675e+01 
-8.427469141591e+01 1.824018596261e+01 0.0 
1.824018596261e+01 -1.699327667406e+02 0.0 
0.0 0.0 -7.586223744695e+01 
-8.881267750525e+01 2.021527222219e+01 0.0 
2.021527222219e+01 -1.769201246388e+02 0.0 
0.0 0.0 -7.931984064321e+01 
-1.206354852421e+02 1.655754093171e+01 0.0 
1.655754093171e+01 -3.061695808867e+02 0.0 
0.0 0.0 -1.276415198386e+02 
-3.251844717220e+01 -8.390174008170e-01 0.0 
-8.390174008170e-01 -8.943447252563e+01 0.0 
0.0 0.0 -3.618587590935e+01 
-3.122803065964e+01 1.841678356430e-01 0.0 
1.841678356430e-01 -8.814368648394e+01 0.0 
0.0 0.0 -3.541151514307e+01 
-7.069417050214e+01 1.947112460600e+01 0.0 
1.947112460600e+01 -1.797036072230e+02 0.0 
0.0 0.0 -7.471933331755e+01 
-7.453564757897e+01 1.228699589222e+00 0.0 
1.228699589222e+00 -2.050128530599e+02 0.0 
0.0 0.0 -8.346455019166e+01 
-4.359937239820e+01 7.781607138610e+00 0.0 
7.781607138610e+00 -5.359286228105e+01 0.0 
0.0 0.0 -2.875767040378e+01 
-4.721301693541e+01 6.684137908671e+00 0.0 
6.684137908671e+00 -6.300741616604e+01 0.0 
0.0 0.0 -3.266612993043e+01 
-8.255219023769e+01 9.702397480260e+00 0.0 
9.702397480260e+00 -1.509956522841e+02 0.0 
0.0 0.0 -6.966435275655e+01 
-2.716756020049e+01 7.738455932560e+00 0.0 
7.738455932560e+00 -7.211274502935e+01 0.0 
0.0 0.0 -2.938409156895e+01 
-8.509337728291e+01 8.163787945988e-01 0.0 
8.163787945988e-01 -2.320080446886e+02 0.0 
0.0 0.0 -9.473042659146e+01 
-1.093882631819e+02 1.265023745375e+01 0.0 
1.265023745375e+01 -2.862739327532e+02 0.0 
0.0 0.0 -1.182986587806e+02 
-2.915790232688e+01 5.727190590196e-01 0.0 
5.727190590196e-01 -8.739573605345e+01 0.0 
0.0 0.0 -3.456609151410e+01 
-1.284513027115e+02 2.519814456579e+01 0.0 
2.519814456579e+01 -3.024238723974e+02 0.0 
0.0 0.0 -1.288625525327e+02 
-9.717271419116e+01 9.755814061003e+00 0.0 
9.755814061003e+00 -2.008220591486e+02 0.0 
0.0 0.0 -8.899843200192e+01 
-8.259919667082e+01 1.454257638206e+00 0.0 
1.454257638206e+00 -2.225522408693e+02 0.0 
0.0 0.0 -9.114543126204e+01 
-1.208985370865e+02 3.646611351380e+00 0.0 
3.646611351380e+00 -3.076279570424e+02 0.0 
0.0 0.0 -1.281579482387e+02 
-1.537508750236e+01 -1.021136866674e+00 0.0 
-1.021136866674e+00 -4.239009882088e+01 0.0 
0.0 0.0 -1.692955589697e+01 
-1.051726373094e+02 1.097635047185e+01 0.0 
1.097635047185e+01 -2.784476832048e+02 0.0 
0.0 0.0 -1.146860961543e+02 
-7.475263272303e+01 2.155011960719e+01 0.0 
2.155011960719e+01 -1.836587613922e+02 0.0 
0.0 0.0 -7.712341823458e+01 
-1.556099393966e+01 -8.119996166756e-01 0.0 
-8.119996166756e-01 -4.232034919273e+01 0.0 
0.0 0.0 -1.696440293972e+01 
-9.465618260035e+01 7.806369279693e+00 0.0 
7.806369279693e+00 -1.994994452125e+02 0.0 
0.0 0.0 -8.784668834385e+01 
-2.878737254218e+01 1.032685776583e+00 0.0 
1.032685776583e+00 -7.886686090327e+01 0.0 
0.0 0.0 -3.189627003363e+01 
-8.474803891654e+01 2.104724780716e+01 0.0 
2.104724780716e+01 -1.707475585267e+02 0.0 
0.0 0.0 -7.624867923296e+01 
-7.530091158447e+01 2.255663951661e+01 0.0 
2.255663951661e+01 -1.723693592750e+02 0.0 
0.0 0.0 -7.390108125785e+01 
-7.126225739706e+01 6.135854761081e+00 0.0 
6.135854761081e+00 -2.055202919670e+02 0.0 
0.0 0.0 -8.263476480922e+01 
-9.119552586381e+01 5.390273258002e+00 0.0 
5.390273258002e+00 -2.522341369337e+02 0.0 
0.0 0.0 -1.026288988393e+02 
-9.841522329582e+01 9.411233412056e+00 0.0 
9.411233412056e+00 -2.099455290237e+02 0.0 
0.0 0.0 -9.210822569586e+01 
-1.001859970807e+02 6.452427381724e+00 0.0 
6.452427381724e+00 -2.709388604891e+02 0.0 
0.0 0.0 -1.109374572709e+02 
-7.440528466245e+01 1.873658185364e+01 0.0 
1.873658185364e+01 -1.937136817378e+02 0.0 
0.0 0.0 -8.003568992006e+01 
-7.064396861187e+01 2.053042739570e+01 0.0 
2.053042739570e+01 -1.799057944647e+02 0.0 
0.0 0.0 -7.476492892297e+01 
-2.284064640752e+01 1.417602490007e+01 0.0 
1.417602490007e+01 -1.623861725779e+01 0.0 
0.0 0.0 -1.132377909959e+01 
-2.538210123521e+01 9.421020671286e-02 0.0 
9.421020671286e-02 -6.966049977818e+01 0.0 
0.0 0.0 -2.811278030402e+01 
-1.082266069700e+02 2.348171367972e+01 0.0 
2.348171367972e+01 -2.588625793980e+02 0.0 
0.0 0.0 -1.097267559104e+02 
-7.642585191411e+01 1.107232980629e+01 0.0 
1.107232980629e+01 -1.322629205728e+02 0.0 
0.0 0.0 -6.220663174607e+01 
-1.116360232759e+02 2.203573073863e+01 0.0 
2.203573073863e+01 -2.719382419931e+02 0.0 
0.0 0.0 -1.146722795807e+02 
-3.614484750541e+01 1.185634645748e+01 0.0 
1.185634645748e+01 -1.101822130462e+02 0.0 
0.0 0.0 -4.349811816549e+01 
-9.666053106124e+01 1.501517306945e+01 0.0 
1.501517306945e+01 -1.976717631189e+02 0.0 
0.0 0.0 -8.789968825403e+01 
-1.122427922948e+02 2.436405032082e+01 0.0 
2.436405032082e+01 -2.640165665382e+02 0.0 
0.0 0.0 -1.124778076499e+02 
-4.980968516766e+01 5.578526610950e+00 0.0 
5.578526610950e+00 -7.123731801332e+01 0.0 
0.0 0.0 -3.591410095429e+01 
-1.072906247073e+02 2.187608957897e+01 0.0 
2.187608957897e+01 -2.580662339570e+02 0.0 
0.0 0.0 -1.092070575993e+02 
-1.220111263362e+02 4.965896655476e+00 0.0 
4.965896655476e+00 -3.083980016421e+02 0.0 
0.0 0.0 -1.287227383935e+02 
-8.670494656105e+01 1.999899433477e+01 0.0 
1.999899433477e+01 -2.161108442563e+02 0.0 
0.0 0.0 -9.044473724521e+01 
-8.073852522808e+01 7.996383287875e-01 0.0 
7.996383287875e-01 -2.231146866295e+02 0.0 
0.0 0.0 -9.075596355727e+01 
-8.630113479304e+01 2.865451168150e+00 0.0 
2.865451168150e+00 -2.341735161350e+02 0.0 
0.0 0.0 -9.574239527841e+01 
-1.070552629632e+02 1.608220607722e+01 0.0 
1.608220607722e+01 -2.259404446397e+02 0.0 
0.0 0.0 -9.949871228088e+01 
-8.270812060947e+01 4.325128923052e+00 0.0 
4.325128923052e+00 -2.336688087831e+02 0.0 
0.0 0.0 -9.451307881779e+01 
-7.929604132432e+01 2.068026303429e+01 0.0 
2.068026303429e+01 -1.872930914989e+02 0.0 
0.0 0.0 -7.957673984696e+01 
-7.448778293511e+01 1.411788048571e+01 0.0 
1.411788048571e+01 -2.100609037010e+02 0.0 
0.0 0.0 -8.496460599083e+01 
-1.097267611134e+02 7.532132837317e+00 0.0 
7.532132837317e+00 -2.897234806553e+02 0.0 
0.0 0.0 -1.194350725306e+02 
-6.705023124537e+01 1.660619710035e+01 0.0 
1.660619710035e+01 -1.852902329022e+02 0.0 
0.0 0.0 -7.530213924427e+01 
-4.118375554554e+01 3.960656147692e+00 0.0 
3.960656147692e+00 -1.312133458596e+02 0.0 
0.0 0.0 -5.131913042154e+01 
-8.059654639962e+01 8.279249381395e+00 0.0 
8.279249381395e+00 -2.305049852946e+02 0.0 
0.0 0.0 -9.293045950827e+01 
-4.351176963730e+01 5.879654738120e+00 0.0 
5.879654738120e+00 -1.384865970733e+02 0.0 
0.0 0.0 -5.419951001318e+01 
-8.791664986580e+01 1.954515194346e+01 0.0 
1.954515194346e+01 -1.849690690055e+02 0.0 
0.0 0.0 -8.146571566138e+01 
-4.560028630100e+01 5.693056374667e+00 0.0 
5.693056374667e+00 -1.393298497690e+02 0.0 
0.0 0.0 -5.507904082100e+01 
-8.403677851301e+01 2.251090147247e+01 0.0 
2.251090147247e+01 -1.807382518825e+02 0.0 
0.0 0.0 -7.903250911865e+01 
-1.169286900689e+02 1.832810526712e+01 0.0 
1.832810526712e+01 -2.960541178749e+02 0.0 
0.0 0.0 -1.234948423831e+02 
-1.108937818120e+02 1.545297556177e+01 0.0 
1.545297556177e+01 -2.884632968095e+02 0.0 
0.0 0.0 -1.194071235865e+02 
-6.255415387766e+01 1.442784402130e+01 0.0 
1.442784402130e+01 -1.800259643564e+02 0.0 
0.0 0.0 -7.237403547021e+01 
-7.661095205331e+01 7.382187495359e+00 0.0 
7.382187495359e+00 -1.398163447973e+02 0.0 
0.0 0.0 -6.452818905518e+01 
-1.258026128391e+02 3.269426033466e+00 0.0 
3.269426033466e+00 -3.164153296075e+02 0.0 
0.0 0.0 -1.322653827340e+02 
-1.266987400204e+02 4.604461825999e+00 0.0 
4.604461825999e+00 -3.171018375150e+02 0.0 
0.0 0.0 -1.327401732606e+02 
-2.394679440289e+01 7.382825466627e+00 0.0 
7.382825466627e+00 -5.565474611030e+01 0.0 
0.0 0.0 -2.348046215396e+01 
-8.761183826751e+01 2.074244684692e+01 0.0 
2.074244684692e+01 -1.953614955464e+02 0.0 
0.0 0.0 -8.449200014416e+01 
-1.412041483341e+02 3.074632054829e+00 0.0 
3.074632054829e+00 -3.449447333981e+02 0.0 
0.0 0.0 -1.454446645197e+02 
-3.451593761001e+01 1.902843455485e+01 0.0 
1.902843455485e+01 -6.061979518606e+01 0.0 
0.0 0.0 -2.814071983882e+01 
-9.072306832073e+01 2.101509331571e+00 0.0 
2.101509331571e+00 -2.415356500002e+02 0.0 
0.0 0.0 -9.927761549629e+01 
-2.091487394650e+01 1.295096233854e+01 0.0 
1.295096233854e+01 -1.684157073716e+01 0.0 
0.0 0.0 -1.092693340510e+01 
-1.306416393259e+02 2.849479990306e+00 0.0 
2.849479990306e+00 -3.250956771371e+02 0.0 
0.0 0.0 -1.363211949389e+02 
-3.783487247612e+01 4.991364906570e+00 0.0 
4.991364906570e+00 -1.210325702872e+02 0.0 
0.0 0.0 -4.726023282899e+01 
-8.828158108680e+01 -3.705155390150e-01 0.0 
-3.705155390150e-01 -2.333451615146e+02 0.0 
0.0 0.0 -9.608802278042e+01 
-9.549303721819e+01 1.713415854224e+01 0.0 
1.713415854224e+01 -2.516571818446e+02 0.0 
0.0 0.0 -1.037450657188e+02 
-7.975984432364e+01 1.019537773693e+01 0.0 
1.019537773693e+01 -1.416778330131e+02 0.0 
0.0 0.0 -6.603130320102e+01 
-7.401770148319e+01 7.982023062570e+00 0.0 
7.982023062570e+00 -1.306632626461e+02 0.0 
0.0 0.0 -6.100428923880e+01 
-7.863381504404e+01 1.970613466051e+01 0.0 
1.970613466051e+01 -1.978275963975e+02 0.0 
0.0 0.0 -8.253842343245e+01 
-3.689417029785e+01 1.076216806333e+01 0.0 
1.076216806333e+01 -3.560064786694e+01 0.0 
0.0 0.0 -2.134844544944e+01 
-4.003584908083e+01 8.856944867849e+00 0.0 
8.856944867849e+00 -4.440460790366e+01 0.0 
0.0 0.0 -2.493213709535e+01 
-1.312657657128e+02 4.152200549862e+00 0.0 
4.152200549862e+00 -3.256660817008e+02 0.0 
0.0 0.0 -1.366795542241e+02 
-9.712885434254e+01 7.882977562103e+00 0.0 
7.882977562103e+00 -2.619725867748e+02 0.0 
0.0 0.0 -1.073304323352e+02 
-7.905461187809e+01 7.324189726771e+00 0.0 
7.324189726771e+00 -2.235951826893e+02 0.0 
0.0 0.0 -9.039493837022e+01 
-1.032105491989e+02 9.895521491460e+00 0.0 
9.895521491460e+00 -2.774202965224e+02 0.0 
0.0 0.0 -1.137892537164e+02 
-7.249903248287e+01 7.221889598395e+00 0.0 
7.221889598395e+00 -2.124718567494e+02 0.0 
0.0 0.0 -8.509126676969e+01 
-4.205341215930e+01 6.663025532382e+00 0.0 
6.663025532382e+00 -1.286441282860e+02 0.0 
0.0 0.0 -5.080926213359e+01 
-3.023335918505e+01 4.322044702216e+00 0.0 
4.322044702216e+00 -3.070336881219e+01 0.0 
0.0 0.0 -1.788101839917e+01 
-6.819228771261e+01 9.303936217050e+00 0.0 
9.303936217050e+00 -1.116960898696e+02 0.0 
0.0 0.0 -5.356651327468e+01 
-3.976077397449e+01 -5.562142585861e-02 0.0 
-5.562142585861e-02 -6.705832177918e+01 0.0 
0.0 0.0 -3.164572872610e+01 
-1.124724693387e+02 1.659627691366e+01 0.0 
1.659627691366e+01 -2.893652461843e+02 0.0 
0.0 0.0 -1.201513146569e+02 
-6.359111774854e+01 1.478134925185e+01 0.0 
1.478134925185e+01 -1.805392744533e+02 0.0 
0.0 0.0 -7.283911766054e+01 
-1.297550768330e+02 2.008524364931e+01 0.0 
2.008524364931e+01 -3.195522562781e+02 0.0 
0.0 0.0 -1.343921999333e+02 
-1.299209026033e+02 3.245436096224e-01 0.0 
3.245436096224e-01 -3.222872956451e+02 0.0 
0.0 0.0 -1.352624594745e+02 
-7.793165540139e+01 9.564479184437e+00 0.0 
9.564479184437e+00 -2.209807339436e+02 0.0 
0.0 0.0 -8.927371680351e+01 
-1.472249651194e+02 5.627324831470e+00 0.0 
5.627324831470e+00 -3.551911540874e+02 0.0 
0.0 0.0 -1.503248357620e+02 
-4.931936574214e+01 4.927064725156e+00 0.0 
4.927064725156e+00 -1.497760010621e+02 0.0 
0.0 0.0 -5.932861004127e+01 
-1.237917177337e+02 2.035315388787e+01 0.0 
2.035315388787e+01 -3.069290876829e+02 0.0 
0.0 0.0 -1.288162416250e+02 
-7.866605008017e+01 2.089262438096e+01 0.0 
2.089262438096e+01 -1.980969177996e+02 0.0 
0.0 0.0 -8.262889036393e+01 
-9.066807843493e+01 1.950088326554e+01 0.0 
1.950088326554e+01 -2.298640928696e+02 0.0 
0.0 0.0 -9.575965139137e+01 
-1.249246464110e+02 1.337669810119e+01 0.0 
1.337669810119e+01 -3.155487461131e+02 0.0 
0.0 0.0 -1.317420177572e+02 
-5.949438569455e+01 6.723382713512e-02 0.0 
6.723382713512e-02 -1.685449156797e+02 0.0 
0.0 0.0 -6.801179041226e+01 
-8.352175366041e+01 2.086609221995e+01 0.0 
2.086609221995e+01 -1.912031299636e+02 0.0 
0.0 0.0 -8.201746508722e+01 
-7.453364621805e+01 7.796407774403e+00 0.0 
7.796407774403e+00 -2.134595062085e+02 0.0 
0.0 0.0 -8.599794572798e+01 
-7.964278881510e+01 2.268699676970e+01 0.0 
2.268699676970e+01 -1.762717796392e+02 0.0 
0.0 0.0 -7.637437053630e+01 
-3.959870118066e+01 1.345633669038e+01 0.0 
1.345633669038e+01 -1.146305044914e+02 0.0 
0.0 0.0 -4.586876170162e+01 
-9.477388238803e+01 1.900839606965e+01 0.0 
1.900839606965e+01 -2.432654110321e+02 0.0 
0.0 0.0 -1.010117880260e+02 
-6.913191412016e+01 5.543169795086e+00 0.0 
5.543169795086e+00 -2.044827220446e+02 0.0 
0.0 0.0 -8.168439084944e+01 
-9.348234119558e+01 1.543755114865e+00 0.0 
1.543755114865e+00 -2.509417096736e+02 0.0 
0.0 0.0 -1.029272152607e+02 
-8.002598379272e+01 2.056829057602e+01 0.0 
2.056829057602e+01 -1.760294577234e+02 0.0 
0.0 0.0 -7.641663245485e+01 
-1.965730663540e+01 7.344540542395e+00 0.0 
7.344540542395e+00 -2.432112377293e+01 0.0 
0.0 0.0 -1.279352912250e+01 
-8.282299642559e+01 1.487467294081e+01 0.0 
1.487467294081e+01 -2.280823318588e+02 0.0 
0.0 0.0 -9.287159848533e+01 
-2.223704341258e+01 1.192037141927e+01 0.0 
1.192037141927e+01 -3.232020879766e+01 0.0 
0.0 0.0 -1.596717566307e+01 
-2.389741851697e+01 -2.422859855364e+00 0.0 
-2.422859855364e+00 -6.355854950852e+01 0.0 
0.0 0.0 -2.583679040765e+01 
-8.937614870877e+01 8.085211717050e-01 0.0 
8.085211717050e-01 -2.406422995832e+02 0.0 
0.0 0.0 -9.860553448758e+01 
-1.036035109897e+02 2.367806162567e+01 0.0 
2.367806162567e+01 -2.349852516933e+02 0.0 
0.0 0.0 -1.011766288049e+02 
-7.832060788431e+01 1.009998591989e+01 0.0 
1.009998591989e+01 -1.422133879478e+02 0.0 
0.0 0.0 -6.576019874962e+01 
-3.155101845770e+01 1.610876188403e+01 0.0 
1.610876188403e+01 -2.281779003691e+01 0.0 
0.0 0.0 -1.591064254838e+01 
-1.101741379425e+02 1.328500663144e+01 0.0 
1.328500663144e+01 -2.584063218659e+02 0.0 
0.0 0.0 -1.101741379425e+02 
-2.045352316766e+01 1.191272221514e+01 0.0 
1.191272221514e+01 -1.264164299482e+01 0.0 
0.0 0.0 -9.636127865166e+00 
-3.366852297349e+01 1.291711236458e+01 0.0 
1.291711236458e+01 -2.797921779276e+01 0.0 
0.0 0.0 -1.809432222988e+01 
-8.158120406699e+01 6.127388850525e+00 0.0 
6.127388850525e+00 -2.324260370141e+02 0.0 
0.0 0.0 -9.380217232434e+01 
-8.658833465946e+01 1.536307426183e+00 0.0 
1.536307426183e+00 -2.311854366101e+02 0.0 
0.0 0.0 -9.493213138087e+01 
-5.009080862426e+01 1.734939983443e+01 0.0 
1.734939983443e+01 -7.202724315202e+01 0.0 
0.0 0.0 -3.623541553288e+01 
-5.216243835773e+01 1.953142476941e+00 0.0 
1.953142476941e+00 -1.602915321253e+02 0.0 
0.0 0.0 -6.333619114491e+01 
-8.837620165018e+01 6.661909637413e+00 0.0 
6.661909637413e+00 -2.433360129871e+02 0.0 
0.0 0.0 -9.911366439118e+01 
-8.288867799467e+01 2.185205911164e+01 0.0 
2.185205911164e+01 -2.022050047853e+02 0.0 
0.0 0.0 -8.512810483400e+01 
-9.155379111306e+01 1.575437737598e+01 0.0 
1.575437737598e+01 -2.463438541501e+02 0.0 
0.0 0.0 -1.009692935789e+02 
-1.047657677188e+02 2.036820015124e+01 0.0 
2.036820015124e+01 -2.307126842631e+02 0.0 
0.0 0.0 -1.002435355946e+02 
-2.451066599187e+01 6.848327161130e+00 0.0 
6.848327161130e+00 -6.640568266764e+01 0.0 
0.0 0.0 -2.687490459785e+01 
-8.117684842256e+01 1.516382855882e-01 0.0 
1.516382855882e-01 -2.216611404923e+02 0.0 
0.0 0.0 -9.045139667445e+01 
-8.953652812199e+01 2.098534675300e-01 0.0 
2.098534675300e-01 -2.390381317980e+02 0.0 
0.0 0.0 -9.817239797599e+01 
-4.579815334774e+01 -1.395139407272e+00 0.0 
-1.395139407272e+00 -1.276783457744e+02 0.0 
0.0 0.0 -5.164294973664e+01 
-5.335321747579e+01 4.795984548331e+00 0.0 
4.795984548331e+00 -8.029835668855e+01 0.0 
0.0 0.0 -3.969547224930e+01 
-8.081375042874e+01 1.323699809353e+01 0.0 
1.323699809353e+01 -1.439014741545e+02 0.0 
0.0 0.0 -6.701456737499e+01 
-1.163536438584e+02 1.119402688843e+00 0.0 
1.119402688843e+00 -2.944525279692e+02 0.0 
0.0 0.0 -1.228418515483e+02 
-1.663477521407e+01 -9.081672837222e-01 0.0 
-9.081672837222e-01 -4.265101188262e+01 0.0 
0.0 0.0 -1.738573612901e+01 
-1.963029357045e+01 -6.213743080116e-02 0.0 
-6.213743080116e-02 -2.550728390168e+01 0.0 
0.0 0.0 -1.314127324164e+01 
-3.303113885087e+01 -2.043745622451e+00 0.0 
-2.043745622451e+00 -8.902337720898e+01 0.0 
0.0 0.0 -3.621635481796e+01 
-9.057374104525e+01 1.564346844971e+00 0.0 
1.564346844971e+00 -2.397940709428e+02 0.0 
0.0 0.0 -9.871034359641e+01 
-5.576089640865e+01 6.056975428815e+00 0.0 
6.056975428815e+00 -1.674450145649e+02 0.0 
0.0 0.0 -6.656177329208e+01 
-5.062370556907e+01 2.667550057446e+00 0.0 
2.667550057446e+00 -1.518875351557e+02 0.0 
0.0 0.0 -6.035337221744e+01 
-4.335349975373e+01 3.783728135332e+00 0.0 
3.783728135332e+00 -1.320954310255e+02 0.0 
0.0 0.0 -5.223467923375e+01 
-9.367255217011e+01 7.671678063774e-01 0.0 
7.671678063774e-01 -2.492973319421e+02 0.0 
0.0 0.0 -1.024909652337e+02 
-8.687751990871e+01 1.441912812109e+01 0.0 
1.441912812109e+01 -1.682445937864e+02 0.0 
0.0 0.0 -7.613663410852e+01 
-9.369537436134e+01 1.682814532416e-01 0.0 
1.682814532416e-01 -2.476557150551e+02 0.0 
0.0 0.0 -1.020053268249e+02 
-5.365438263870e+01 5.910683060089e+00 0.0 
5.910683060089e+00 -1.665194870706e+02 0.0 
0.0 0.0 -6.565216091279e+01 
-8.765331441325e+01 2.286752585829e+01 0.0 
2.286752585829e+01 -1.957749151182e+02 0.0 
0.0 0.0 -8.462846885943e+01 
-5.682149005945e+01 1.419576081189e+00 0.0 
1.419576081189e+00 -9.802877527331e+01 0.0 
0.0 0.0 -4.605507959983e+01 
-1.049307137277e+02 1.802872352056e+01 0.0 
1.802872352056e+01 -2.704801423532e+02 0.0 
0.0 0.0 -1.122232568243e+02 
-9.455555383663e+01 1.546762919356e+00 0.0 
1.546762919356e+00 -2.483497171151e+02 0.0 
0.0 0.0 -1.024715812855e+02 
-9.483433419028e+01 2.085676069644e+00 0.0 
2.085676069644e+00 -2.501190996054e+02 0.0 
0.0 0.0 -1.030860301387e+02 
-2.680693180971e+01 1.780320218214e+01 0.0 
1.780320218214e+01 -2.141821361790e+01 0.0 
0.0 0.0 -1.406754362828e+01 
-5.979060165183e+01 5.443528892849e+00 0.0 
5.443528892849e+00 -1.776316962470e+02 0.0 
0.0 0.0 -7.082668936965e+01 
-9.784297469606e+01 8.332327361828e-02 0.0 
8.332327361828e-02 -2.561585851483e+02 0.0 
0.0 0.0 -1.058004679533e+02 
-6.822462509686e+01 -4.576271790687e-01 0.0 
-4.576271790687e-01 -1.382118074228e+02 0.0 
0.0 0.0 -6.153092975590e+01 
-6.110496303327e+01 -5.772470800857e-01 0.0 
-5.772470800857e-01 -1.199370330294e+02 0.0 
0.0 0.0 -5.391259881881e+01 
-2.818308075627e+01 1.805371360466e+01 0.0 
1.805371360466e+01 -2.099832805369e+01 0.0 
0.0 0.0 -1.435442264299e+01 
-9.798114318367e+01 6.771192046921e-01 0.0 
6.771192046921e-01 -2.579457867868e+02 0.0 
0.0 0.0 -1.063780789911e+02 
-5.168378601416e+01 9.767212199641e-01 0.0 
9.767212199641e-01 -1.523687064765e+02 0.0 
0.0 0.0 -6.081574774721e+01 
-2.421807859620e+01 1.306002501194e+01 0.0 
1.306002501194e+01 -4.824162914878e+01 0.0 
0.0 0.0 -2.133791232350e+01 
-1.258414515049e+02 2.166903185117e+01 0.0 
2.166903185117e+01 -3.082131217768e+02 0.0 
0.0 0.0 -1.298163719845e+02 
-2.961996822711e+01 -3.290025731861e+00 0.0 
-3.290025731861e+00 -8.050508203506e+01 0.0 
0.0 0.0 -3.263751507865e+01 
-5.322160366545e+01 2.891766757552e-01 0.0 
2.891766757552e-01 -1.603358054551e+02 0.0 
0.0 0.0 -6.366722273617e+01 
-7.945085910446e+01 1.645002701477e+01 0.0 
1.645002701477e+01 -2.159771297980e+02 0.0 
0.0 0.0 -8.822839667073e+01 
-2.390407409616e+01 7.952969791524e+00 0.0 
7.952969791524e+00 -1.609962938259e+01 0.0 
0.0 0.0 -1.160111104363e+01 
-9.858075740871e+01 1.475175131948e+00 0.0 
1.475175131948e+00 -2.569631745399e+02 0.0 
0.0 0.0 -1.062631795846e+02 
-4.400900040873e+01 6.071615371156e-01 0.0 
6.071615371156e-01 -1.200254548801e+02 0.0 
0.0 0.0 -4.881033658665e+01 
-5.920990183693e+01 7.343529547622e+00 0.0 
7.343529547622e+00 -8.884457539270e+01 0.0 
0.0 0.0 -4.401634316889e+01 
-9.894135485290e+01 2.016331413199e+00 0.0 
2.016331413199e+00 -2.586865991857e+02 0.0 
0.0 0.0 -1.068883862116e+02 
-7.567826080008e+01 5.747661502238e+00 0.0 
5.747661502238e+00 -2.153614582134e+02 0.0 
0.0 0.0 -8.691191570406e+01 
-8.662138710827e+01 2.083691147071e+00 0.0 
2.083691147071e+00 -2.329476743179e+02 0.0 
0.0 0.0 -9.547071842785e+01 
-2.068014263606e+01 4.580123987311e+00 0.0 
4.580123987311e+00 -3.032134898514e+01 0.0 
0.0 0.0 -1.490044748636e+01 
-8.958832521149e+01 1.348475414604e+00 0.0 
1.348475414604e+00 -1.966084327045e+02 0.0 
0.0 0.0 -8.545902737479e+01 
-6.101246870770e+01 3.412647114280e+00 0.0 
3.412647114280e+00 -1.792012230928e+02 0.0 
0.0 0.0 -7.166410754015e+01 
-1.217907659588e+02 1.456349820159e+01 0.0 
1.456349820159e+01 -3.112381502450e+02 0.0 
0.0 0.0 -1.295086748611e+02 
-9.128284007410e+01 2.083446994600e+01 0.0 
2.083446994600e+01 -2.304773984761e+02 0.0 
0.0 0.0 -9.612807156505e+01 
-1.022709673893e+02 5.328688888281e-01 0.0 
5.328688888281e-01 -2.665183362466e+02 0.0 
0.0 0.0 -1.102367910908e+02 
-1.030341652621e+02 1.855125500634e+00 0.0 
1.855125500634e+00 -2.671667309223e+02 0.0 
0.0 0.0 -1.106602688553e+02 
-5.094570484612e+01 4.125953243379e+00 0.0 
4.125953243379e+00 -1.589246979403e+02 0.0 
0.0 0.0 -6.256112083594e+01 
-2.357762049641e+01 -2.951090541649e+00 0.0 
-2.951090541649e+00 -5.461180370316e+01 0.0 
0.0 0.0 -2.305682725987e+01 
-1.845709393848e+01 6.295686601224e+00 0.0 
6.295686601224e+00 -2.987358915430e+01 0.0 
0.0 0.0 -1.409920492783e+01 
-1.066002518883e+02 3.376746861380e-01 0.0 
3.376746861380e-01 -2.750824438895e+02 0.0 
0.0 0.0 -1.141048087334e+02 
-1.230692591121e+02 1.242113464261e+01 0.0 
1.242113464261e+01 -3.148031506101e+02 0.0 
0.0 0.0 -1.309617229167e+02 
-5.250353870489e+01 -1.201427971039e-01 0.0 
-1.201427971039e-01 -1.517760718285e+02 0.0 
0.0 0.0 -6.088388316000e+01 
-9.126954638605e+01 2.107083149337e+01 0.0 
2.107083149337e+01 -2.102785760092e+02 0.0 
0.0 0.0 -9.006443671857e+01 
-3.135573654026e+01 1.854341768371e+01 0.0 
1.854341768371e+01 -5.854698049636e+01 0.0 
0.0 0.0 -2.657081511099e+01 
-9.187231030817e+01 2.275361464438e+01 0.0 
2.275361464438e+01 -2.006218490851e+02 0.0 
0.0 0.0 -8.734824781798e+01 
-1.464863351057e+02 1.086362127566e+01 0.0 
1.086362127566e+01 -3.570336451362e+02 0.0 
0.0 0.0 -1.506559940725e+02 
-2.238129980068e+01 -3.369622607689e-01 0.0 
-3.369622607689e-01 -6.829990148079e+00 0.0 
0.0 0.0 -8.363386984628e+00 
-1.066602914442e+02 1.357333634415e+00 0.0 
1.357333634415e+00 -2.502073467031e+02 0.0 
0.0 0.0 -1.066602914442e+02 
-1.635725966638e+02 1.361158034487e+00 0.0 
1.361158034487e+00 -3.830027255488e+02 0.0 
0.0 0.0 -1.635725966638e+02 
-4.825987711490e+01 7.673892352818e-01 0.0 
7.673892352818e-01 -8.818680312110e+01 0.0 
0.0 0.0 -4.053400407080e+01 
-6.205253114041e+01 1.894805209095e+00 0.0 
1.894805209095e+00 -1.795347840841e+02 0.0 
0.0 0.0 -7.207619456735e+01 
-8.694602246053e+01 2.133453365981e+01 0.0 
2.133453365981e+01 -2.165290068684e+02 0.0 
0.0 0.0 -9.064250879866e+01 
-5.180331257452e+01 6.808885272865e+00 0.0 
6.808885272865e+00 -1.568899794937e+02 0.0 
0.0 0.0 -6.220798762045e+01 
-2.148244077533e+01 -1.201430489987e+00 0.0 
-1.201430489987e+00 -5.522773327226e+01 0.0 
0.0 0.0 -2.261305221427e+01 
-1.918142808885e+01 1.092261382242e+01 0.0 
1.092261382242e+01 -1.469624819214e+01 0.0 
0.0 0.0 -9.763302884298e+00 
-9.705474218366e+01 4.373814919547e+00 0.0 
4.373814919547e+00 -2.142178351136e+02 0.0 
0.0 0.0 -9.298177318919e+01 
-8.510861751618e+01 1.553275588525e+01 0.0 
1.553275588525e+01 -1.568135754969e+02 0.0 
0.0 0.0 -7.217665790393e+01 
-5.132101892199e+01 6.163923427322e+00 0.0 
6.163923427322e+00 -7.367789046570e+01 0.0 
0.0 0.0 -3.709967281631e+01 
-1.375239006855e+02 2.801816377966e+01 0.0 
2.801816377966e+01 -3.241417779066e+02 0.0 
0.0 0.0 -1.380997035776e+02 
-3.670043211546e+01 5.530735319759e-01 0.0 
5.530735319759e-01 -1.004052253073e+02 0.0 
0.0 0.0 -4.073169722682e+01 
-1.391405025378e+02 2.729229889886e+01 0.0 
2.729229889886e+01 -3.299335161752e+02 0.0 
0.0 0.0 -1.403222056139e+02 
-8.275850447564e+01 1.233810660763e+01 0.0 
1.233810660763e+01 -1.550390259500e+02 0.0 
0.0 0.0 -7.093925912769e+01 
-6.281812758808e+01 8.511613891858e-01 0.0 
8.511613891858e-01 -1.788098961348e+02 0.0 
0.0 0.0 -7.208840711686e+01 
-8.245963364726e+01 1.908342449020e+01 0.0 
1.908342449020e+01 -2.116969251293e+02 0.0 
0.0 0.0 -8.784696763298e+01 
-5.693419030872e+01 1.102202055311e-01 0.0 
1.102202055311e-01 -1.690159835166e+02 0.0 
0.0 0.0 -6.738505214758e+01 
-2.494148047603e+01 1.439832301276e+01 0.0 
1.439832301276e+01 -5.046181805176e+01 0.0 
0.0 0.0 -2.222098955834e+01 
-5.400101635917e+01 -8.649087444318e-01 0.0 
-8.649087444318e-01 -1.591975289028e+02 0.0 
0.0 0.0 -6.355956357859e+01 
-9.083900948483e+01 1.632312780934e+01 0.0 
1.632312780934e+01 -1.820701741067e+02 0.0 
0.0 0.0 -8.147275507747e+01 
-1.352939064292e+02 2.491103643229e+00 0.0 
2.491103643229e+00 -3.325350701828e+02 0.0 
0.0 0.0 -1.399486929836e+02 
-5.593445143312e+01 1.531008279074e+00 0.0 
1.531008279074e+00 -1.693498359529e+02 0.0 
0.0 0.0 -6.718528621580e+01 
-9.520572479250e+01 2.108741082332e+01 0.0 
2.108741082332e+01 -2.148613789661e+02 0.0 
0.0 0.0 -9.262013112759e+01 
-1.802529691907e+01 -5.507464678087e-01 0.0 
-5.507464678087e-01 -8.453356529777e+00 0.0 
0.0 0.0 -8.444851557895e+00 
-5.480722938956e+01 3.483199799222e+00 0.0 
3.483199799222e+00 -1.686147543520e+02 0.0 
0.0 0.0 -6.662659512247e+01 
-9.552397643938e+01 1.587965827223e+01 0.0 
1.587965827223e+01 -1.867376477695e+02 0.0 
0.0 0.0 -8.427848726267e+01 
-5.433984617306e+01 -1.578186726487e+00 0.0 
-1.578186726487e+00 -1.570026362195e+02 0.0 
0.0 0.0 -6.300274471778e+01 
-4.950349718031e+01 -8.673737527971e-01 0.0 
-8.673737527971e-01 -1.416668941753e+02 0.0 
0.0 0.0 -5.695111740669e+01 
-8.278046174564e+01 2.019232122589e+01 0.0 
2.019232122589e+01 -2.120930635967e+02 0.0 
0.0 0.0 -8.806205760271e+01 
-2.784181798891e+01 -2.494042393813e+00 0.0 
-2.494042393813e+00 -7.736018079981e+01 0.0 
0.0 0.0 -3.116059963662e+01 
-2.476554495820e+01 1.670497802525e+01 0.0 
1.670497802525e+01 -1.984301918321e+01 0.0 
0.0 0.0 -1.298256924242e+01 
-2.673968198880e+01 1.864898694860e+01 0.0 
1.864898694860e+01 -2.145999031978e+01 0.0 
0.0 0.0 -1.405990169258e+01 
-4.778484548532e+01 -2.188093489833e+00 0.0 
-2.188093489833e+00 -1.381712821043e+02 0.0 
0.0 0.0 -5.538683827689e+01 
-8.365272552805e+01 6.950700255207e+00 0.0 
6.950700255207e+00 -2.335203286604e+02 0.0 
0.0 0.0 -9.475191625653e+01 
-7.027074696293e+01 1.506311711774e+01 0.0 
1.506311711774e+01 -1.975738169099e+02 0.0 
0.0 0.0 -7.995336916186e+01 
-9.565405780843e+01 2.315700961541e+01 0.0 
2.315700961541e+01 -2.153902284969e+02 0.0 
0.0 0.0 -9.291328589160e+01 
-1.103049238840e+02 2.013444500647e+01 0.0 
2.013444500647e+01 -2.457858231456e+02 0.0 
0.0 0.0 -1.064272241089e+02 
-2.340523821073e+01 1.490824105774e+01 0.0 
1.490824105774e+01 -1.912306824217e+01 0.0 
0.0 0.0 -1.235849193587e+01 
-7.591054701432e+01 1.376831456916e+00 0.0 
1.376831456916e+00 -1.580243155867e+02 0.0 
0.0 0.0 -6.978045878031e+01 
-1.167160352809e+02 2.342276962144e+01 0.0 
2.342276962144e+01 -2.715035867254e+02 0.0 
0.0 0.0 -1.160658866019e+02 
-4.715908188129e+01 4.915372697503e+00 0.0 
4.915372697503e+00 -1.488584343530e+02 0.0 
0.0 0.0 -5.840525487028e+01 
-2.344891671172e+01 1.375225906900e+01 0.0 
1.375225906900e+01 -3.274429884801e+01 0.0 
0.0 0.0 -1.645796466792e+01 
-3.542072550250e+01 2.104244501258e+01 0.0 
2.104244501258e+01 -6.151437617545e+01 0.0 
0.0 0.0 -2.868053050338e+01 
-8.015667062337e+01 5.453626950359e+00 0.0 
5.453626950359e+00 -2.249880704294e+02 0.0 
0.0 0.0 -9.114342231584e+01 
-9.500263496532e+01 2.002306464474e+01 0.0 
2.002306464474e+01 -2.048792104828e+02 0.0 
0.0 0.0 -8.956455363442e+01 
-7.802466244657e+01 4.641398930334e+00 0.0 
4.641398930334e+00 -2.239079025246e+02 0.0 
0.0 0.0 -9.017976949136e+01 
-2.379194190218e+01 5.860029585030e+00 0.0 
5.860029585030e+00 -5.091494655937e+01 0.0 
0.0 0.0 -2.201206653847e+01 
-9.213429449955e+01 8.161506842894e+00 0.0 
8.161506842894e+00 -2.518157665576e+02 0.0 
0.0 0.0 -1.027850183172e+02 
-2.619278999831e+01 1.579533589278e+01 0.0 
1.579533589278e+01 -5.268627937069e+01 0.0 
0.0 0.0 -2.326372081070e+01 
-7.128446756917e+01 1.560845204132e+01 0.0 
1.560845204132e+01 -1.981155295930e+02 0.0 
0.0 0.0 -8.041999914866e+01 
-8.624391107406e+01 5.679895377663e+00 0.0 
5.679895377663e+00 -2.422157378369e+02 0.0 
0.0 0.0 -9.813789467327e+01 
-8.644593600538e+01 1.847603750090e+01 0.0 
1.847603750090e+01 -2.251172444651e+02 0.0 
0.0 0.0 -9.306895414115e+01 
-6.749902864601e+01 1.604573780148e+00 0.0 
1.604573780148e+00 -1.334250868707e+02 0.0 
0.0 0.0 -5.987723465502e+01 
-4.944499925617e+01 -1.238092406336e+00 0.0 
-1.238092406336e+00 -1.390622376101e+02 0.0 
0.0 0.0 -5.615217105987e+01 
-2.275610191204e+01 1.122685063566e+01 0.0 
1.122685063566e+01 -4.456203514532e+01 0.0 
0.0 0.0 -1.979544111721e+01 
-9.502253035909e+01 6.767585433792e+00 0.0 
6.767585433792e+00 -2.608403976448e+02 0.0 
0.0 0.0 -1.063588784012e+02 
-2.694193482166e+01 1.668002919228e+01 0.0 
1.668002919228e+01 -5.388315977768e+01 0.0 
0.0 0.0 -2.384752837980e+01 
-1.852192278753e+01 4.482122033245e-01 0.0 
4.482122033245e-01 -2.511097712407e+01 0.0 
0.0 0.0 -1.268986997348e+01 
-9.594261406042e+01 -1.493445210316e-01 0.0 
-1.493445210316e-01 -2.154944782464e+02 0.0 
0.0 0.0 -9.303112769205e+01 
-8.972853374060e+01 -3.428914848472e-01 0.0 
-3.428914848472e-01 -1.967641220979e+02 0.0 
0.0 0.0 -8.554779675156e+01 
-1.384642165729e+01 -1.604410181867e+00 0.0 
-1.604410181867e+00 -2.469815338152e+01 0.0 
0.0 0.0 -1.154542034521e+01 
-1.011073660492e+02 9.377974586354e+00 0.0 
9.377974586354e+00 -2.703239518952e+02 0.0 
0.0 0.0 -1.110293953833e+02 
-3.934010852519e+01 -1.883492305344e+00 0.0 
-1.883492305344e+00 -1.084334999305e+02 0.0 
0.0 0.0 -4.393208253670e+01 
-4.107357591723e+01 -2.859933482408e+00 0.0 
-2.859933482408e+00 -1.158243120085e+02 0.0 
0.0 0.0 -4.666936637773e+01 
-1.028025153385e+02 2.164463831919e+01 0.0 
2.164463831919e+01 -2.344568706778e+02 0.0 
0.0 0.0 -1.007778158049e+02 
-8.714422061447e+01 1.948309340039e+01 0.0 
1.948309340039e+01 -2.256095566601e+02 0.0 
0.0 0.0 -9.342613318237e+01 
-9.905172784228e+01 2.153063606818e+01 0.0 
2.153063606818e+01 -2.295572258589e+02 0.0 
0.0 0.0 -9.818268611036e+01 
-5.701375805087e+01 3.777393524048e+00 0.0 
3.777393524048e+00 -1.696227121045e+02 0.0 
0.0 0.0 -6.759094104660e+01 
-4.016829073346e+01 -6.325054080468e-02 0.0 
-6.325054080468e-02 -6.685520549378e+01 0.0 
0.0 0.0 -3.170704886817e+01 
-1.507042735411e+02 9.595022223815e+00 0.0 
9.595022223815e+00 -3.600074851195e+02 0.0 
0.0 0.0 -1.528135275982e+02 
-3.470621264614e+01 -3.053707534869e+00 0.0 
-3.053707534869e+00 -9.633442890591e+01 0.0 
0.0 0.0 -3.891219246561e+01 
-1.177911213608e+02 1.599961819362e+01 0.0 
1.599961819362e+01 -3.002286847650e+02 0.0 
0.0 0.0 -1.250059418378e+02 
-7.494533156583e+01 1.731310672118e+01 0.0 
1.731310672118e+01 -2.029813084955e+02 0.0 
0.0 0.0 -8.297799201839e+01 
-2.821975025156e+01 -1.329387753813e+00 0.0 
-1.329387753813e+00 -7.635727468386e+01 0.0 
0.0 0.0 -3.097310748062e+01 
-9.136720727272e+01 1.878504101208e+01 0.0 
1.878504101208e+01 -1.901065084778e+02 0.0 
0.0 0.0 -8.404211472515e+01 
-5.764425352724e+01 5.137608690453e+00 0.0 
5.137608690453e+00 -1.766492733886e+02 0.0 
0.0 0.0 -6.988805807476e+01 
-1.879560043228e+01 -2.478679556379e+00 0.0 
-2.478679556379e+00 -4.201212500026e+01 0.0 
0.0 0.0 -1.784231762976e+01 
-4.842409003500e+01 2.496190837093e+00 0.0 
2.496190837093e+00 -1.509186653280e+02 0.0 
0.0 0.0 -5.940282660889e+01 
-1.121464552379e+02 -6.909460536815e-01 0.0 
-6.909460536815e-01 -2.860467848100e+02 0.0 
0.0 0.0 -1.190579720144e+02 
-9.263423786550e+01 1.934947685776e+01 0.0 
1.934947685776e+01 -1.838366077850e+02 0.0 
0.0 0.0 -8.254125369515e+01 
-2.847976130670e+01 -2.393044346275e+00 0.0 
-2.393044346275e+00 -7.348633039521e+01 0.0 
0.0 0.0 -3.018982751057e+01 
-8.899510492750e+01 5.859516131481e-01 0.0 
5.859516131481e-01 -2.339402897681e+02 0.0 
0.0 0.0 -9.648061840868e+01 
-9.894495079642e+01 2.095390726663e+01 0.0 
2.095390726663e+01 -2.198825275644e+02 0.0 
0.0 0.0 -9.524824350826e+01 
-1.106498015207e+02 2.079731626910e+01 0.0 
2.079731626910e+01 -2.769007638250e+02 0.0 
0.0 0.0 -1.158651696037e+02 
-5.089920316155e+01 -1.607934463124e+00 0.0 
-1.607934463124e+00 -1.488026670677e+02 0.0 
0.0 0.0 -5.951056106878e+01 
-4.368985840039e+01 -1.055614200213e+00 0.0 
-1.055614200213e+00 -1.199412825393e+02 0.0 
0.0 0.0 -4.868934228191e+01 
-7.832204110891e+01 1.569712171454e+01 0.0 
1.569712171454e+01 -2.153489083892e+02 0.0 
0.0 0.0 -8.770128484944e+01 
-6.427503122664e+01 8.775752045170e-01 0.0 
8.775752045170e-01 -1.276571566550e+02 0.0 
0.0 0.0 -5.717965636449e+01 
-1.917933606422e+01 -2.409237275321e+00 0.0 
-2.409237275321e+00 -4.138533832763e+01 0.0 
0.0 0.0 -1.776940231756e+01 
-1.255891533660e+02 2.665144694073e+01 0.0 
2.665144694073e+01 -2.928736992064e+02 0.0 
0.0 0.0 -1.251388557717e+02 
-1.116383729100e+02 1.936380355360e+01 0.0 
1.936380355360e+01 -2.539447920305e+02 0.0 
0.0 0.0 -1.092749494822e+02 
-5.328708677746e+01 8.571258951254e-01 0.0 
8.571258951254e-01 -1.000636625784e+02 0.0 
0.0 0.0 -4.560522480677e+01 
-1.064038132259e+02 1.073235806699e+01 0.0 
1.073235806699e+01 -2.329562143115e+02 0.0 
0.0 0.0 -1.014080082612e+02 
-1.157492527474e+02 2.178161557122e+01 0.0 
2.178161557122e+01 -2.651663655366e+02 0.0 
0.0 0.0 -1.138746854852e+02 
-5.879069774845e+01 2.950606230023e+00 0.0 
2.950606230023e+00 -1.781441710768e+02 0.0 
0.0 0.0 -7.068046064756e+01 
-5.813690673025e+01 2.040690133735e+00 0.0 
2.040690133735e+00 -1.704122756369e+02 0.0 
0.0 0.0 -6.816475471016e+01 
-1.392857009873e+02 1.961647669145e+01 0.0 
1.961647669145e+01 -3.402300336311e+02 0.0 
0.0 0.0 -1.434547203855e+02 
-1.765642386969e+01 5.443269080718e-01 0.0 
5.443269080718e-01 -8.672876002756e+00 0.0 
0.0 0.0 -8.449402144519e+00 
-3.991845564157e+01 -8.355790971838e-01 0.0 
-8.355790971838e-01 -1.093771113263e+02 0.0 
0.0 0.0 -4.438867009038e+01 
-9.033493889704e+01 -7.257302942694e-01 0.0 
-7.257302942694e-01 -2.383517728390e+02 0.0 
0.0 0.0 -9.820601352081e+01 
-5.276288954647e+01 -7.516374893822e-01 0.0 
-7.516374893822e-01 -1.498095364636e+02 0.0 
0.0 0.0 -6.037172780301e+01 
-4.950040040483e+01 5.718893433786e-01 0.0 
5.718893433786e-01 -1.513652403353e+02 0.0 
0.0 0.0 -5.985969222203e+01 
-2.392381189229e+01 1.629829852784e+01 0.0 
1.629829852784e+01 -1.870224987002e+01 0.0 
0.0 0.0 -1.238781852869e+01 
-2.661594839953e+01 1.837750561572e+01 0.0 
1.837750561572e+01 -2.132800597915e+01 0.0 
0.0 0.0 -1.398318631360e+01 
-5.792683091990e+01 2.476241940454e+00 0.0 
2.476241940454e+00 -1.010350918824e+02 0.0 
0.0 0.0 -4.728857684068e+01 
-5.313359651294e+01 4.289670320596e+00 0.0 
4.289670320596e+00 -1.598890053328e+02 0.0 
0.0 0.0 -6.350678055371e+01 
-4.624835102162e+01 -1.438998485341e+00 0.0 
-1.438998485341e+00 -1.276752797217e+02 0.0 
0.0 0.0 -5.177708922298e+01 
-1.034800504671e+02 1.978734520188e+01 0.0 
1.978734520188e+01 -2.616448749395e+02 0.0 
0.0 0.0 -1.091374776220e+02 
-1.591891502771e+02 7.839110520183e+00 0.0 
7.839110520183e+00 -3.783148778854e+02 0.0 
0.0 0.0 -1.608512084487e+02 
-1.577447080263e+02 9.342492615923e+00 0.0 
9.342492615923e+00 -3.760100828321e+02 0.0 
0.0 0.0 -1.597264372575e+02 
-5.988169936282e+01 1.237536348637e+00 0.0 
1.237536348637e+00 -1.784459721407e+02 0.0 
0.0 0.0 -7.109830145104e+01 
-5.204146146885e+01 1.252611320611e+00 0.0 
1.252611320611e+00 -8.465762170453e+01 0.0 
0.0 0.0 -4.060972495201e+01 
-2.177884396123e+01 -1.007990458608e-01 0.0 
-1.007990458608e-01 -2.061437610806e+01 0.0 
0.0 0.0 -1.231796602079e+01 
-2.445397922875e+01 1.632127323726e+01 0.0 
1.632127323726e+01 -1.968070891276e+01 0.0 
0.0 0.0 -1.284040644245e+01 
-2.896041034819e+01 -1.777524276811e+00 0.0 
-1.777524276811e+00 -7.265739138391e+01 0.0 
0.0 0.0 -3.008534051963e+01 
-2.485739176279e+01 1.667666656109e+01 0.0 
1.667666656109e+01 -2.002660754648e+01 0.0 
0.0 0.0 -1.306519979278e+01 
-8.318720694388e+01 1.800267471844e+01 0.0 
1.800267471844e+01 -2.208209103139e+02 0.0 
0.0 0.0 -9.080243517732e+01 
-5.046807717316e+01 -7.519251477774e-01 0.0 
-7.519251477774e-01 -1.507971683011e+02 0.0 
0.0 0.0 -5.997957364229e+01 
-5.436419093470e+01 2.303969559714e+00 0.0 
2.303969559714e+00 -1.613037129357e+02 0.0 
0.0 0.0 -6.430037116113e+01 
-2.307991797550e+01 -1.300362471150e+00 0.0 
-1.300362471150e+00 -4.111869208876e+01 0.0 
0.0 0.0 -1.885958301928e+01 
-8.992990713802e+01 8.593582382616e-01 0.0 
8.593582382616e-01 -1.996364121847e+02 0.0 
0.0 0.0 -8.646989579681e+01 
-5.533611225755e+01 8.758393743856e-01 0.0 
8.758393743856e-01 -1.613544132808e+02 0.0 
0.0 0.0 -6.460715766152e+01 
-9.587078941622e+01 2.750043445404e+00 0.0 
2.750043445404e+00 -2.133552415255e+02 0.0 
0.0 0.0 -9.236780928252e+01 
-8.587679616581e+01 1.939244136518e+00 0.0 
1.939244136518e+00 -1.842012361971e+02 0.0 
0.0 0.0 -8.062340970887e+01 
-1.086371789192e+02 1.405077392636e+00 0.0 
1.405077392636e+00 -2.504801192303e+02 0.0 
0.0 0.0 -1.073351894448e+02 
-1.612068259912e+02 1.563707810572e+00 0.0 
1.563707810572e+00 -3.821424994575e+02 0.0 
0.0 0.0 -1.626047976346e+02 
-5.330569489405e+01 -5.238777583935e-01 0.0 
-5.238777583935e-01 -1.005275876248e+02 0.0 
0.0 0.0 -4.574998475566e+01 
-5.903265891206e+01 8.123017061391e-01 0.0 
8.123017061391e-01 -1.700736998337e+02 0.0 
0.0 0.0 -6.833190762373e+01 
-2.291210517385e+01 1.605290223132e+01 0.0 
1.605290223132e+01 -1.914423786534e+01 0.0 
0.0 0.0 -1.221690291176e+01 
-6.078200364339e+01 -5.464213193330e-03 0.0 
-5.464213193330e-03 -1.777433039115e+02 0.0 
0.0 0.0 -7.115759226648e+01 
-1.627816113580e+02 6.202881591611e+00 0.0 
6.202881591611e+00 -3.811570931686e+02 0.0 
0.0 0.0 -1.627816113580e+02 
-2.236714901258e+01 1.444811194232e+01 0.0 
1.444811194232e+01 -1.810457528011e+01 0.0 
0.0 0.0 -1.174151728781e+01 
-2.334865799739e+01 1.540091403271e+01 0.0 
1.540091403271e+01 -1.892119716188e+01 0.0 
0.0 0.0 -1.228095654778e+01 
-1.217740479270e+02 1.768676163697e+01 0.0 
1.768676163697e+01 -3.067855874693e+02 0.0 
0.0 0.0 -1.281678906189e+02 
-4.975417528101e+01 8.507653329868e-01 0.0 
8.507653329868e-01 -8.490313131212e+01 0.0 
0.0 0.0 -3.999719197794e+01 
-9.610839964933e+01 1.467133670485e+00 0.0 
1.467133670485e+00 -2.152648685696e+02 0.0 
0.0 0.0 -9.301198046569e+01 
-9.963489645391e+01 2.314973777704e+01 0.0 
2.314973777704e+01 -2.203749582636e+02 0.0 
0.0 0.0 -9.560295641525e+01 
-1.181201186920e+02 2.050211572142e+01 0.0 
2.050211572142e+01 -2.941042862999e+02 0.0 
0.0 0.0 -1.232673214976e+02 
-1.037231157790e+02 2.185327950559e+01 0.0 
2.185327950559e+01 -2.191122621853e+02 0.0 
0.0 0.0 -9.645061338931e+01 
-5.536239919765e+01 -2.280100359639e-01 0.0 
-2.280100359639e-01 -1.039560497171e+02 0.0 
0.0 0.0 -4.739553467443e+01 
-4.636255315333e+01 -1.437511960613e+00 0.0 
-1.437511960613e+00 -1.311217429140e+02 0.0 
0.0 0.0 -5.284528882019e+01 
-4.468202081496e+01 -2.263929939094e+00 0.0 
-2.263929939094e+00 -1.302523798645e+02 0.0 
0.0 0.0 -5.208032020383e+01 
-7.193292698635e+01 -2.313836150872e-01 0.0 
-2.313836150872e-01 -1.473351884417e+02 0.0 
0.0 0.0 -6.538043462842e+01 
-1.146208996315e+02 2.224747470675e+01 0.0 
2.224747470675e+01 -2.815855663429e+02 0.0 
0.0 0.0 -1.184619397923e+02 
-4.740047090927e+01 2.350201864465e+00 0.0 
2.350201864465e+00 -6.932795207658e+01 0.0 
0.0 0.0 -3.461852689576e+01 
-4.669554304873e+01 2.169063416557e-02 0.0 
2.169063416557e-02 -8.356658659539e+01 0.0 
0.0 0.0 -3.867863889324e+01 
-5.349673387024e+01 5.020161226226e-01 0.0 
5.020161226226e-01 -9.950019263677e+01 0.0 
0.0 0.0 -4.549907795211e+01 
-5.615299784090e+01 1.534191231421e+00 0.0 
1.534191231421e+00 -1.051831976891e+02 0.0 
0.0 0.0 -4.800085865899e+01 
-2.426261147587e+01 -9.590352337321e-01 0.0 
-9.590352337321e-01 -6.088538819329e+01 0.0 
0.0 0.0 -2.514439990075e+01 
-4.158240775060e+01 -2.659435389599e+00 0.0 
-2.659435389599e+00 -1.193404727918e+02 0.0 
0.0 0.0 -4.787686416271e+01 
-1.044353285972e+02 5.029218225616e+00 0.0 
5.029218225616e+00 -2.353886760523e+02 0.0 
0.0 0.0 -1.015472013948e+02 
-6.431566095120e+01 1.856793634765e+00 0.0 
1.856793634765e+00 -1.245343421804e+02 0.0 
0.0 0.0 -5.625500093948e+01 
-1.398481860549e+02 2.143472661113e+01 0.0 
2.143472661113e+01 -3.367302969613e+02 0.0 
0.0 0.0 -1.425735449049e+02 
-1.142505027558e+02 2.281663602434e+01 0.0 
2.281663602434e+01 -2.492024866950e+02 0.0 
0.0 0.0 -1.086358968352e+02 
-9.223617409347e+01 2.146963364638e+01 0.0 
2.146963364638e+01 -1.911883306862e+02 0.0 
0.0 0.0 -8.462735143390e+01 
-1.027078022556e+02 1.069316993394e+01 0.0 
1.069316993394e+01 -2.204155193956e+02 0.0 
0.0 0.0 -9.653699649537e+01 
-6.518243729237e+01 -1.029609070008e+00 0.0 
-1.029609070008e+00 -1.779802217864e+02 0.0 
0.0 0.0 -7.254879772363e+01 
-5.904633155306e+01 -1.248619111797e+00 0.0 
-1.248619111797e+00 -1.625444728534e+02 0.0 
0.0 0.0 -6.607724132194e+01 
-1.408382558264e+02 8.460430223119e+00 0.0 
8.460430223119e+00 -3.449205220063e+02 0.0 
0.0 0.0 -1.453276333498e+02 
-1.722308534245e+01 -1.473944509472e+00 0.0 
-1.473944509472e+00 -2.421478125935e+01 0.0 
0.0 0.0 -1.248404465157e+01 
-4.282942398303e+01 -3.648676404982e-01 0.0 
-3.648676404982e-01 -1.156695767835e+02 0.0 
0.0 0.0 -4.714970022995e+01 
-1.399509715259e+02 2.633793541360e+01 0.0 
2.633793541360e+01 -3.278856002272e+02 0.0 
0.0 0.0 -1.399509715259e+02 
-2.098689485093e+01 5.040690719101e-01 0.0 
5.040690719101e-01 -5.776336481687e+01 0.0 
0.0 0.0 -2.322507790034e+01 
-4.664777942241e+01 1.144530295145e-02 0.0 
1.144530295145e-02 -8.358663412697e+01 0.0 
0.0 0.0 -3.867032406481e+01 
-1.329533043645e+02 1.656491592372e+01 0.0 
1.656491592372e+01 -3.311159145949e+02 0.0 
0.0 0.0 -1.388207656878e+02 
-1.793278117200e+01 -2.240379392723e+00 0.0 
-2.240379392723e+00 -3.930039555815e+01 0.0 
0.0 0.0 -1.676995301905e+01 
-1.095937268931e+01 -7.414353329166e-01 0.0 
-7.414353329166e-01 -2.406686403910e+01 0.0 
0.0 0.0 -1.010787101852e+01 
-1.115846921352e+02 9.048514579743e+00 0.0 
9.048514579743e+00 -2.545206817478e+02 0.0 
0.0 0.0 -1.094316121649e+02 
-4.131838029615e+01 -3.074886000346e-01 0.0 
-3.074886000346e-01 -6.686381533920e+01 0.0 
0.0 0.0 -3.205465869061e+01 
-1.038411730904e+02 6.345513330048e+00 0.0 
6.345513330048e+00 -2.321144947763e+02 0.0 
0.0 0.0 -1.003867003600e+02 
-1.337574075218e+02 1.710672646173e+01 0.0 
1.710672646173e+01 -3.282337349187e+02 0.0 
0.0 0.0 -1.381973427321e+02 
-4.097583141364e+01 2.932115472865e-01 0.0 
2.932115472865e-01 -6.658752440493e+01 0.0 
0.0 0.0 -3.186900674557e+01 
-2.212595750341e+01 6.957246521237e-01 0.0 
6.957246521237e-01 -2.155088583494e+01 0.0 
0.0 0.0 -1.270305300151e+01 
-1.012995839027e+02 1.718098260610e+00 0.0 
1.718098260610e+00 -2.328135921827e+02 0.0 
0.0 0.0 -9.983395282562e+01 
-2.359612301244e+01 -7.842908085902e-01 0.0 
-7.842908085902e-01 -6.354793114157e+01 0.0 
0.0 0.0 -2.574321624620e+01 
-9.840594587201e+01 5.501891774234e+00 0.0 
5.501891774234e+00 -2.197516909266e+02 0.0 
0.0 0.0 -9.504729103959e+01 
-1.630756881211e+02 4.772475052479e+00 0.0 
4.772475052479e+00 -3.818432722826e+02 0.0 
0.0 0.0 -1.630756881211e+02 
-1.100885651518e+02 1.943580499677e+01 0.0 
1.943580499677e+01 -2.392262833420e+02 0.0 
0.0 0.0 -1.043944545481e+02 
-2.747390341653e+01 -8.373544875431e-01 0.0 
-8.373544875431e-01 -7.871963616728e+01 0.0 
0.0 0.0 -3.145806187514e+01 
-6.124143702285e+01 3.826180382719e+00 0.0 
3.826180382719e+00 -1.038695346097e+02 0.0 
0.0 0.0 -4.913329148975e+01 
-6.657734947445e+01 1.352714578437e-01 0.0 
1.352714578437e-01 -1.809121042929e+02 0.0 
0.0 0.0 -7.384683613019e+01 
-1.050579209820e+02 2.091531232834e+01 0.0 
2.091531232834e+01 -2.624399153660e+02 0.0 
0.0 0.0 -1.098493509044e+02 
-1.455500580715e+02 2.460062935261e+01 0.0 
2.460062935261e+01 -3.457084955052e+02 0.0 
0.0 0.0 -1.469775660730e+02 
-7.977069370628e+01 2.361600541291e-01 0.0 
2.361600541291e-01 -1.687772774019e+02 0.0 
0.0 0.0 -7.416439133245e+01 
-1.463132870753e+02 2.231135738779e+01 0.0 
2.231135738779e+01 -3.503077122377e+02 0.0 
0.0 0.0 -1.485862997939e+02 
-2.023538955438e+01 -1.379508882055e+00 0.0 
-1.379508882055e+00 -4.008089822986e+01 0.0 
0.0 0.0 -1.769488633527e+01 
-1.528267148447e+02 6.594814258705e+00 0.0 
6.594814258705e+00 -3.659875480908e+02 0.0 
0.0 0.0 -1.552442788807e+02 
-3.099422394427e+01 -9.130846655084e-01 0.0 
-9.130846655084e-01 -8.900299356315e+01 0.0 
0.0 0.0 -3.559916525222e+01 
-2.093171403485e+01 -1.104413894354e+00 0.0 
-1.104413894354e+00 -5.771209274299e+01 0.0 
0.0 0.0 -2.319314203335e+01 
-1.443205615385e+02 1.581635025611e+01 0.0 
1.581635025611e+01 -3.510310805033e+02 0.0 
0.0 0.0 -1.482054926125e+02 
-1.117247967616e+02 1.468732861399e+01 0.0 
1.468732861399e+01 -2.453004379637e+02 0.0 
0.0 0.0 -1.067075704176e+02 
-1.068674617026e+02 9.504601534444e+00 0.0 
9.504601534444e+00 -2.410128247070e+02 0.0 
0.0 0.0 -1.039640859229e+02 
-4.668737985240e+01 -5.287811495144e-01 0.0 
-5.287811495144e-01 -8.224198623261e+01 0.0 
0.0 0.0 -3.827880982550e+01 
-6.505253839949e+01 5.964587487934e+00 0.0 
5.964587487934e+00 -1.087413295542e+02 0.0 
0.0 0.0 -5.173816038611e+01 
-2.522009800413e+01 1.344189063572e+01 0.0 
1.344189063572e+01 -5.064714823752e+01 0.0 
0.0 0.0 -2.236017387250e+01 
-1.204940750745e+02 2.419448416600e+01 0.0 
2.419448416600e+01 -2.698083092626e+02 0.0 
0.0 0.0 -1.166907153011e+02 
-5.548305415811e+01 -1.093177317872e+00 0.0 
-1.093177317872e+00 -1.511970479658e+02 0.0 
0.0 0.0 -6.160403063717e+01 
-2.077661411369e+01 6.904028185472e+00 0.0 
6.904028185472e+00 -4.060254554470e+01 0.0 
0.0 0.0 -1.801374789752e+01 
-1.090545490421e+02 1.971963199609e+01 0.0 
1.971963199609e+01 -2.760191134522e+02 0.0 
0.0 0.0 -1.151220987483e+02 
-3.979517859727e+01 1.026833400938e-01 0.0 
1.026833400938e-01 -6.619006867225e+01 0.0 
0.0 0.0 -3.139557418086e+01 
-1.049458657357e+02 1.298600052978e+01 0.0 
1.298600052978e+01 -2.306501196515e+02 0.0 
0.0 0.0 -1.002787956162e+02 
-1.077418259438e+02 8.437810053616e-01 0.0 
8.437810053616e-01 -2.486376947589e+02 0.0 
0.0 0.0 -1.065138562108e+02 
-1.068585504191e+02 6.139848665071e-01 0.0 
6.139848665071e-01 -2.506699509779e+02 0.0 
0.0 0.0 -1.068585504191e+02 
-2.218684166814e+00 3.168632701132e-01 0.0 
3.168632701132e-01 -6.656473620354e+00 0.0 
0.0 0.0 -2.262547336150e+00 
-4.381504763695e+00 -2.787342671343e-01 0.0 
-2.787342671343e-01 -1.042872210788e+01 0.0 
0.0 0.0 -4.679574611632e+00 
-4.027016880932e+01 6.455536512745e-01 0.0 
6.455536512745e-01 -6.872153040687e+01 0.0 
0.0 0.0 -3.229750976486e+01 
-3.896856125359e+01 -1.162594980246e-01 0.0 
-1.162594980246e-01 -6.621407221610e+01 0.0 
0.0 0.0 -3.115479004091e+01 
-1.638069254632e+02 6.071441548964e-01 0.0 
6.071441548964e-01 -3.835494927476e+02 0.0 
0.0 0.0 -1.638069254632e+02 
-1.607601990770e+02 -6.144812293909e-01 0.0 
-6.144812293909e-01 -3.804880922123e+02 0.0 
0.0 0.0 -1.619744873868e+02 
-8.840951138339e+00 -7.561970270245e-01 0.0 
-7.561970270245e-01 -2.306507083501e+01 0.0 
0.0 0.0 -9.171806592006e+00 
-1.722717182223e+01 -4.676209663871e-01 0.0 
-4.676209663871e-01 -8.271679238525e+00 0.0 
0.0 0.0 -8.150081665433e+00 
-1.453252088731e+02 2.875162363000e+00 0.0 
2.875162363000e+00 -3.512731594418e+02 0.0 
0.0 0.0 -1.485795104945e+02 
-1.204139894413e+02 2.333237214083e+01 0.0 
2.333237214083e+01 -2.907450461009e+02 0.0 
0.0 0.0 -1.229477106626e+02 
-2.824452121703e+01 -9.051853749519e-01 0.0 
-9.051853749519e-01 -7.443228505553e+01 0.0 
0.0 0.0 -3.040304188177e+01 
-1.460852047106e+02 6.962721445769e+00 0.0 
6.962721445769e+00 -3.527915321292e+02 0.0 
0.0 0.0 -1.492630210520e+02 
-9.765262141258e+01 3.504927421168e-01 0.0 
3.504927421168e-01 -2.540674694856e+02 0.0 
0.0 0.0 -1.051160272695e+02 
-8.243105568150e+01 7.793301119500e-01 0.0 
7.793301119500e-01 -2.197181465891e+02 0.0 
0.0 0.0 -9.024476068116e+01 
-6.743863785410e+01 4.225207971223e-01 0.0 
4.225207971223e-01 -1.344534559458e+02 0.0 
0.0 0.0 -6.016762813996e+01 
-2.715455064338e+01 -2.640481998939e+00 0.0 
-2.640481998939e+00 -6.895334287074e+01 0.0 
0.0 0.0 -2.843236805424e+01 
-9.602017192566e+01 2.022042031831e+01 0.0 
2.022042031831e+01 -2.440187660546e+02 0.0 
0.0 0.0 -1.016116813941e+02 
-2.326089577788e+01 -1.464970822560e+00 0.0 
-1.464970822560e+00 -5.977305400140e+01 0.0 
0.0 0.0 -2.451018493378e+01 
-7.446430423572e+01 5.665973580333e-01 0.0 
5.665973580333e-01 -2.000049840502e+02 0.0 
0.0 0.0 -8.194078648579e+01 
-1.134814740434e+02 2.163732685718e+01 0.0 
2.163732685718e+01 -2.559062333262e+02 0.0 
0.0 0.0 -1.104163122109e+02 
-9.383312605330e+01 9.411557002669e-01 0.0 
9.411557002669e-01 -2.080499562308e+02 0.0 
0.0 0.0 -9.016492468523e+01 
-8.249999808144e+01 -3.920977414629e-01 0.0 
-3.920977414629e-01 -2.188168296492e+02 0.0 
0.0 0.0 -8.999504831919e+01 
-5.908658781827e+01 1.024687691992e+00 0.0 
1.024687691992e+00 -1.139110058008e+02 0.0 
0.0 0.0 -5.149927808573e+01 
-1.195567394523e+02 2.520997226817e+01 0.0 
2.520997226817e+01 -2.811193143123e+02 0.0 
0.0 0.0 -1.198028161294e+02 
-1.072950693441e+02 2.293451134922e+01 0.0 
2.293451134922e+01 -2.323215786537e+02 0.0 
0.0 0.0 -1.014849943993e+02 
-9.980050466872e+01 2.214728680660e+01 0.0 
2.214728680660e+01 -2.117505557350e+02 0.0 
0.0 0.0 -9.306531812112e+01 
-4.046483125880e+01 2.388480446660e-03 0.0 
2.388480446660e-03 -6.681591592369e+01 0.0 
0.0 0.0 -3.178422415475e+01 
-9.195889058349e+01 1.890224718869e+01 0.0 
1.890224718869e+01 -2.391611096944e+02 0.0 
0.0 0.0 -9.893600008336e+01 
-1.058028941633e+02 1.553328411257e+01 0.0 
1.553328411257e+01 -2.326979001218e+02 0.0 
0.0 0.0 -1.011502382855e+02 
-4.162984423441e+01 -1.026720751077e+00 0.0 
-1.026720751077e+00 -1.150013448320e+02 0.0 
0.0 0.0 -4.658935671992e+01 
-1.540707628861e+01 -1.438826573444e+00 0.0 
-1.438826573444e+00 -2.517127383735e+01 0.0 
0.0 0.0 -1.177350503779e+01 
-1.149369948903e+02 2.445386602176e+01 0.0 
2.445386602176e+01 -2.664209479913e+02 0.0 
0.0 0.0 -1.140073828645e+02 
-1.160692047401e+02 1.493222055019e+01 0.0 
1.493222055019e+01 -2.993904555656e+02 0.0 
0.0 0.0 -1.242378980917e+02 
-2.316396761014e+01 -2.503401397881e+00 0.0 
-2.503401397881e+00 -5.737637297215e+01 0.0 
0.0 0.0 -2.376210217469e+01 
-7.282598155144e+01 1.232289644494e+00 0.0 
1.232289644494e+00 -1.487008567009e+02 0.0 
0.0 0.0 -6.605805147571e+01 
-1.537876701984e+02 3.673255401617e+00 0.0 
3.673255401617e+00 -3.657535973390e+02 0.0 
0.0 0.0 -1.554623802612e+02 
-1.150692174434e+02 2.279450545133e+01 0.0 
2.279450545133e+01 -2.756357173029e+02 0.0 
0.0 0.0 -1.168114804239e+02 
-1.208859621738e+02 2.548236489847e+01 0.0 
2.548236489847e+01 -2.864318981495e+02 0.0 
0.0 0.0 -1.217953580970e+02 
-1.067420567493e+02 1.085428987138e+00 0.0 
1.085428987138e+00 -2.741133574090e+02 0.0 
0.0 0.0 -1.138566242475e+02 
-1.717191860421e+01 4.362722949553e+00 0.0 
4.362722949553e+00 -2.115694115312e+01 0.0 
0.0 0.0 -1.137544897642e+01 
-2.408483728392e+01 1.680675310661e+01 0.0 
1.680675310661e+01 -1.870628022020e+01 0.0 
0.0 0.0 -1.243733525124e+01 
-2.788983847637e+01 1.655948500969e+01 0.0 
1.655948500969e+01 -5.429583519501e+01 0.0 
0.0 0.0 -2.425570210141e+01 
-6.223757864416e+01 4.092125107541e+00 0.0 
4.092125107541e+00 -1.035632163030e+02 0.0 
0.0 0.0 -4.934023848415e+01 
-9.077001211981e+01 1.777164091752e+01 0.0 
1.777164091752e+01 -2.384602264151e+02 0.0 
0.0 0.0 -9.836907156048e+01 
-9.957833893305e+01 5.249453007441e+00 0.0 
5.249453007441e+00 -2.219540164645e+02 0.0 
0.0 0.0 -9.605970661925e+01 
-1.412167990539e+02 1.875609913355e+01 0.0 
1.875609913355e+01 -3.396742716985e+02 0.0 
0.0 0.0 -1.438673212257e+02 
-2.214216105108e+01 -2.327649468516e+00 0.0 
-2.327649468516e+00 -4.166095893067e+01 0.0 
0.0 0.0 -1.874093599452e+01 
-2.016983239237e+01 -2.673336008376e+00 0.0 
-2.673336008376e+00 -4.052776704767e+01 0.0 
0.0 0.0 -1.780927983201e+01 
-2.512822514812e+01 1.681079168804e+01 0.0 
1.681079168804e+01 -1.990771250124e+01 0.0 
0.0 0.0 -1.311078129481e+01 
-7.476094112871e+01 5.282807067966e-02 0.0 
5.282807067966e-02 -1.542043492828e+02 0.0 
0.0 0.0 -6.828958712345e+01 
-5.159561582456e+01 -2.162018445943e-01 0.0 
-2.162018445943e-01 -1.409657502260e+02 0.0 
0.0 0.0 -5.736840981515e+01 
-1.054627315097e+02 1.219528609797e+01 0.0 
1.219528609797e+01 -2.295161516304e+02 0.0 
0.0 0.0 -1.000936649420e+02 
-2.678419477874e+01 -2.238825173550e-01 0.0 
-2.238825173550e-01 -7.132344546496e+01 0.0 
0.0 0.0 -2.903229207311e+01 
-1.306000114926e+02 1.770992936676e+01 0.0 
1.770992936676e+01 -3.227011103267e+02 0.0 
0.0 0.0 -1.355903365458e+02 
-5.618999255680e+01 6.861037067099e-01 0.0 
6.861037067099e-01 -9.974166837369e+01 0.0 
0.0 0.0 -4.637949827915e+01 
-1.350838830524e+02 2.367705555713e+01 0.0 
2.367705555713e+01 -3.207402333223e+02 0.0 
0.0 0.0 -1.363472349124e+02 
-1.093982628985e+02 2.254857484625e+01 0.0 
2.254857484625e+01 -2.681133582391e+02 0.0 
0.0 0.0 -1.128534863413e+02 
-6.415347474934e+01 5.897606306327e+00 0.0 
5.897606306327e+00 -1.046505433961e+02 0.0 
0.0 0.0 -5.024120544362e+01 
-1.463664135410e+02 1.299856574999e+01 0.0 
1.299856574999e+01 -3.558096116099e+02 0.0 
0.0 0.0 -1.502528075452e+02 
-1.097926742385e+02 1.281095205078e+01 0.0 
1.281095205078e+01 -2.435572168059e+02 0.0 
0.0 0.0 -1.056049673133e+02 
-1.036457430096e+02 8.084356319243e-01 0.0 
8.084356319243e-01 -2.346866150530e+02 0.0 
0.0 0.0 -1.010997074188e+02 
-2.494861279568e+01 1.623100746394e+01 0.0 
1.623100746394e+01 -1.907813958912e+01 0.0 
0.0 0.0 -1.280802571544e+01 
-1.003682842136e+02 8.970898118352e+00 0.0 
8.970898118352e+00 -2.192291444849e+02 0.0 
0.0 0.0 -9.547922860955e+01 
-1.240069305417e+02 2.498392173867e+01 0.0 
2.498392173867e+01 -2.893350255068e+02 0.0 
0.0 0.0 -1.236025868145e+02 
-1.303347702405e+02 1.886499202709e+01 0.0 
1.886499202709e+01 -3.232862427564e+02 0.0 
0.0 0.0 -1.356863038991e+02 
-1.124354672775e+02 2.057476204006e+01 0.0 
2.057476204006e+01 -2.801179407949e+02 0.0 
0.0 0.0 -1.173660224217e+02 
-1.618588787516e+02 8.031830687891e+00 0.0 
8.031830687891e+00 -3.790040504203e+02 0.0 
0.0 0.0 -1.618588787516e+02 
-9.822799895446e+01 1.949463112363e+01 0.0 
1.949463112363e+01 -2.105633481187e+02 0.0 
0.0 0.0 -9.223740412195e+01 
-1.682531072042e+01 4.107470827386e+00 0.0 
4.107470827386e+00 -9.596878141269e+00 0.0 
0.0 0.0 -8.478399559032e+00 
-2.284939231828e+01 9.547177979444e+00 0.0 
9.547177979444e+00 -4.468769319012e+01 0.0 
0.0 0.0 -1.986112565252e+01 
-1.101576690221e+02 2.264562427497e+01 0.0 
2.264562427497e+01 -2.394697596200e+02 0.0 
0.0 0.0 -1.044882285926e+02 
-6.709864934145e+01 3.974258376823e+00 0.0 
3.974258376823e+00 -1.184281408672e+02 0.0 
0.0 0.0 -5.525803706258e+01 
-1.452881824617e+02 2.675965028430e+00 0.0 
2.675965028430e+00 -3.510755870264e+02 0.0 
0.0 0.0 -1.485091308464e+02 
-1.188771773944e+02 2.349969897647e+01 0.0 
2.349969897647e+01 -2.871294319372e+02 0.0 
0.0 0.0 -1.214019827995e+02 
-1.538353948606e+02 7.134738522225e+00 0.0 
7.134738522225e+00 -3.657406006380e+02 0.0 
0.0 0.0 -1.554727986496e+02 
-8.279288280074e+01 6.340339022495e-01 0.0 
6.340339022495e-01 -1.752963159269e+02 0.0 
0.0 0.0 -7.702675961830e+01 
-1.371694482963e+02 2.293995496542e+01 0.0 
2.293995496542e+01 -3.261063941013e+02 0.0 
0.0 0.0 -1.385827527193e+02 
-1.417866274036e+02 1.165542487208e+01 0.0 
1.165542487208e+01 -3.454507005105e+02 0.0 
0.0 0.0 -1.457711983742e+02 
-1.405102718035e+02 1.059666070352e+01 0.0 
1.059666070352e+01 -3.447683841045e+02 0.0 
0.0 0.0 -1.451835967724e+02 
-5.379578446369e+01 -2.322275157016e-01 0.0 
-2.322275157016e-01 -1.464490358874e+02 0.0 
0.0 0.0 -5.967344610533e+01 
-1.598787762057e+02 6.806537966553e+00 0.0 
6.806537966553e+00 -3.795852627850e+02 0.0 
0.0 0.0 -1.614392116972e+02 
-5.098758348787e+01 1.516731735831e+00 0.0 
1.516731735831e+00 -8.406896864994e+01 0.0 
0.0 0.0 -4.011696564134e+01 
-9.738295285885e+01 3.182700115886e+00 0.0 
3.182700115886e+00 -2.161092785049e+02 0.0 
0.0 0.0 -9.364766940914e+01 
-1.825474367829e+01 -2.340047533083e+00 0.0 
-2.340047533083e+00 -4.108533514408e+01 0.0 
0.0 0.0 -1.740202364671e+01 
-9.233417332747e+01 1.608696329232e+00 0.0 
1.608696329232e+00 -2.010105090971e+02 0.0 
0.0 0.0 -8.760340472737e+01 
-7.397684148329e+01 1.029680230354e+00 0.0 
1.029680230354e+00 -1.506114531190e+02 0.0 
0.0 0.0 -6.697648838068e+01 
-1.568500559502e+01 1.004564318419e-01 0.0 
1.004564318419e-01 -4.216135221756e+01 0.0 
0.0 0.0 -1.695390734377e+01 
-2.688136458945e+01 -2.472643552010e-01 0.0 
-2.472643552010e-01 -7.022153311768e+01 0.0 
0.0 0.0 -2.873086931214e+01 
-1.020423302698e+02 2.062194360940e+01 0.0 
2.062194360940e+01 -2.249021109576e+02 0.0 
0.0 0.0 -9.768333236824e+01 
-1.030380083586e+02 6.668757242343e+00 0.0 
6.668757242343e+00 -2.350182098528e+02 0.0 
0.0 0.0 -1.010168654634e+02 
-9.767866017798e+01 1.885797965136e+00 0.0 
1.885797965136e+00 -2.187302629327e+02 0.0 
0.0 0.0 -9.452267693319e+01 
-1.334389436776e+02 2.193085589901e+01 0.0 
2.193085589901e+01 -3.250913669633e+02 0.0 
0.0 0.0 -1.371590931923e+02 
-5.924234771721e+01 -1.583768199961e-01 0.0 
-1.583768199961e-01 -1.132026260528e+02 0.0 
0.0 0.0 -5.133349213102e+01 
-1.313172367663e+01 -1.526624037972e+00 0.0 
-1.526624037972e+00 -2.466329394798e+01 0.0 
0.0 0.0 -1.093850528738e+01 
-2.142163232962e+01 2.349259851249e+00 0.0 
2.349259851249e+00 -3.454252133796e+01 0.0 
0.0 0.0 -1.638924610027e+01 
-1.288185605063e+01 -2.080958566557e+00 0.0 
-2.080958566557e+00 -2.821843591097e+01 0.0 
0.0 0.0 -1.192150244561e+01 
-2.338254867233e+01 -2.236304417612e+00 0.0 
-2.236304417612e+00 -5.454456961606e+01 0.0 
0.0 0.0 -2.297813548652e+01 
-1.580151560049e+01 7.683861904196e+00 0.0 
7.683861904196e+00 -6.913138197330e+00 0.0 
0.0 0.0 -6.610017938656e+00 
-7.262500954407e+01 -6.443807300593e-01 0.0 
-6.443807300593e-01 -1.950499442300e+02 0.0 
0.0 0.0 -7.990248613222e+01 
-1.449410677804e+02 1.277292219780e+00 0.0 
1.277292219780e+00 -3.508843750773e+02 0.0 
0.0 0.0 -1.483476328573e+02 
-1.090063796619e+02 1.798373507989e+01 0.0 
1.798373507989e+01 -2.390616761497e+02 0.0 
0.0 0.0 -1.040204167435e+02 
-7.218359225464e+01 8.777554072052e+00 0.0 
8.777554072052e+00 -1.214958692757e+02 0.0 
0.0 0.0 -5.770383845910e+01 
-6.265216318615e+01 3.847935322298e-01 0.0 
3.847935322298e-01 -1.709689511202e+02 0.0 
0.0 0.0 -6.968633429190e+01 
-1.415110851274e+02 9.598454606203e+00 0.0 
9.598454606203e+00 -3.457557221476e+02 0.0 
0.0 0.0 -1.457800421825e+02 
-1.328009473032e+02 1.372934029663e+01 0.0 
1.372934029663e+01 -3.321995423732e+02 0.0 
0.0 0.0 -1.391001469029e+02 
-1.321566093731e+02 2.488758918660e+01 0.0 
2.488758918660e+01 -3.183483038783e+02 0.0 
0.0 0.0 -1.347514739754e+02 
-1.196985391174e+02 2.428458810048e+01 0.0 
2.428458810048e+01 -2.788977174742e+02 0.0 
0.0 0.0 -1.191788769775e+02 
-1.088211115179e+02 2.161610214766e+01 0.0 
2.161610214766e+01 -2.443613633467e+02 0.0 
0.0 0.0 -1.055547424594e+02 
-1.771668779721e+01 -2.508379385353e+00 0.0 
-2.508379385353e+00 -4.055577947269e+01 0.0 
0.0 0.0 -1.708174018097e+01 
-2.306192881096e+01 -7.049519288466e-01 0.0 
-7.049519288466e-01 -3.521342930778e+01 0.0 
0.0 0.0 -1.708260743562e+01 
-1.451676646796e+02 3.907116581370e+00 0.0 
3.907116581370e+00 -3.516905320219e+02 0.0 
0.0 0.0 -1.486574590104e+02 
-1.450758280529e+01 -4.295492006885e-01 0.0 
-4.295492006885e-01 -4.128674303957e+01 0.0 
0.0 0.0 -1.633829775346e+01 
-1.788805261829e+01 -1.114250952875e+00 0.0 
-1.114250952875e+00 -4.926680055383e+01 0.0 
0.0 0.0 -1.974645595164e+01 
-2.027977038981e+01 9.873340242652e+00 0.0 
9.873340242652e+00 -2.528773959066e+01 0.0 
0.0 0.0 -1.327025299414e+01 
-1.646177517108e+01 -1.316763647809e+00 0.0 
-1.316763647809e+00 -3.862960043525e+01 0.0 
0.0 0.0 -1.612741268190e+01 
-1.501110234084e+02 1.174134529409e+01 0.0 
1.174134529409e+01 -3.586935643209e+02 0.0 
0.0 0.0 -1.522413763188e+02 
-1.207086672798e+02 2.454655219824e+01 0.0 
2.454655219824e+01 -2.776181015528e+02 0.0 
0.0 0.0 -1.190980306498e+02 
-9.855339583471e+01 3.607608155044e+00 0.0 
3.607608155044e+00 -2.216506601383e+02 0.0 
0.0 0.0 -9.566121679190e+01 
-1.335820716812e+02 2.446651977190e+01 0.0 
2.446651977190e+01 -3.170453809856e+02 0.0 
0.0 0.0 -1.347882358001e+02 
-1.285453136520e+02 1.492346876820e+01 0.0 
1.492346876820e+01 -3.213840346467e+02 0.0 
0.0 0.0 -1.345788044896e+02 
-6.380150801475e+01 -1.453903736473e-01 0.0 
-1.453903736473e-01 -1.245795168635e+02 0.0 
0.0 0.0 -5.611430746348e+01 
-1.085709532191e+02 9.186108310416e+00 0.0 
9.186108310416e+00 -2.546655575112e+02 0.0 
0.0 0.0 -1.085709532191e+02 
-3.266756568150e+01 -1.685611499664e+00 0.0 
-1.685611499664e+00 -8.975747969502e+01 0.0 
0.0 0.0 -3.632751361296e+01 
-4.057188641477e+01 5.054792966124e-02 0.0 
5.054792966124e-02 -6.598415697655e+01 0.0 
0.0 0.0 -3.156681301740e+01 
-2.534929379655e+01 -2.920204756299e+00 0.0 
-2.920204756299e+00 -5.569358029606e+01 0.0 
0.0 0.0 -2.391286222778e+01 
-1.020257692082e+01 -1.109659245501e+00 0.0 
-1.109659245501e+00 -2.435180132310e+01 0.0 
0.0 0.0 -1.051317335366e+01 
-1.604629745874e+02 4.430823991979e+00 0.0 
4.430823991979e+00 -3.806848799257e+02 0.0 
0.0 0.0 -1.619443563539e+02 
-5.639135239839e+01 4.522948139645e+00 0.0 
4.522948139645e+00 -8.928634003380e+01 0.0 
0.0 0.0 -4.330330772966e+01 
-2.206035129273e+01 -1.017061929672e+00 0.0 
-1.017061929672e+00 -5.747533210686e+01 0.0 
0.0 0.0 -2.346070501988e+01 
-6.906595494628e+01 -1.109578076095e+00 0.0 
-1.109578076095e+00 -1.876108386965e+02 0.0 
0.0 0.0 -7.660303809282e+01 
-1.216654313299e+02 2.497146227308e+01 0.0 
2.497146227308e+01 -2.765901145223e+02 0.0 
0.0 0.0 -1.190766637557e+02 
-1.006099995162e+02 6.939297804084e+00 0.0 
6.939297804084e+00 -2.212978681588e+02 0.0 
0.0 0.0 -9.617236030250e+01 
-1.083078055686e+02 1.475128707557e+01 0.0 
1.475128707557e+01 -2.453583745233e+02 0.0 
0.0 0.0 -1.056998540276e+02 
-4.924529479681e+01 2.396665718420e-02 0.0 
2.396665718420e-02 -1.337473471967e+02 0.0 
0.0 0.0 -5.449779259804e+01 
-2.118860082784e+01 6.806288485294e-01 0.0 
6.806288485294e-01 -3.514475494410e+01 0.0 
0.0 0.0 -1.650000673158e+01 
-1.506962092839e+02 8.195450826258e+00 0.0 
8.195450826258e+00 -3.633603478407e+02 0.0 
0.0 0.0 -1.538169671374e+02 
-1.094353780394e+02 7.565341007817e-01 0.0 
7.565341007817e-01 -2.516334757082e+02 0.0 
0.0 0.0 -1.079206561243e+02 
-1.611411529619e+02 1.029985726237e+00 0.0 
1.029985726237e+00 -3.822471870747e+02 0.0 
0.0 0.0 -1.626165020110e+02 
-4.523712497014e+01 -4.808732372000e-01 0.0 
-4.808732372000e-01 -8.061494611460e+01 0.0 
0.0 0.0 -3.735562132542e+01 
-1.368529122085e+02 1.505361740962e+01 0.0 
1.505361740962e+01 -3.346331529832e+02 0.0 
0.0 0.0 -1.410458195575e+02 
-2.170608923055e+01 -7.675258171909e-01 0.0 
-7.675258171909e-01 -5.847356701725e+01 0.0 
0.0 0.0 -2.365389687434e+01 
-1.035975540969e+02 1.052871283342e+01 0.0 
1.052871283342e+01 -2.289116574119e+02 0.0 
0.0 0.0 -9.935276345265e+01 
-1.050264680797e+01 -1.063348106915e+00 0.0 
-1.063348106915e+00 -2.333857556936e+01 0.0 
0.0 0.0 -1.026012446073e+01 
-1.483385807974e+02 1.420078897739e+01 0.0 
1.420078897739e+01 -3.549054619964e+02 0.0 
0.0 0.0 -1.505732128381e+02 
-1.116734922255e+02 1.564976862369e+01 0.0 
1.564976862369e+01 -2.471860939796e+02 0.0 
0.0 0.0 -1.072578758615e+02 
-1.738429586625e+01 1.866370821003e+00 0.0 
1.866370821003e+00 -2.236303166058e+01 0.0 
0.0 0.0 -1.203346979267e+01 
-1.162417563095e+02 2.432423694152e+01 0.0 
2.432423694152e+01 -2.769108161668e+02 0.0 
0.0 0.0 -1.175457717429e+02 
-7.940466124483e+01 1.893471099132e+00 0.0 
1.893471099132e+00 -1.652936218404e+02 0.0 
0.0 0.0 -7.300948492558e+01 
-1.026595291128e+02 4.949772936508e+00 0.0 
4.949772936508e+00 -2.354855899313e+02 0.0 
0.0 0.0 -1.010435357132e+02 
-1.496163530852e+02 2.271023142561e+01 0.0 
2.271023142561e+01 -3.504381571987e+02 0.0 
0.0 0.0 -1.496163530852e+02 
-6.841127846598e+01 1.485914348437e+00 0.0 
1.485914348437e+00 -1.382584687390e+02 0.0 
0.0 0.0 -6.160092416150e+01 
-1.185928773130e+02 2.341127061933e+01 0.0 
2.341127061933e+01 -2.728563183786e+02 0.0 
0.0 0.0 -1.170347587075e+02 
-1.075786201755e+02 1.488394200871e+01 0.0 
1.488394200871e+01 -2.326692349359e+02 0.0 
0.0 0.0 -1.016743565334e+02 
-7.253684547659e+01 6.943615530347e-01 0.0 
6.943615530347e-01 -1.497884928614e+02 0.0 
0.0 0.0 -6.629760150140e+01 
-1.159411594587e+02 2.291306520902e+01 0.0 
2.291306520902e+01 -2.622704143905e+02 0.0 
0.0 0.0 -1.130634721548e+02 
-5.912592884881e+01 -6.881560577286e-02 0.0 
-6.881560577286e-02 -1.602642696941e+02 0.0 
0.0 0.0 -6.541705956287e+01 
-3.937102825707e+01 9.658050741031e-02 0.0 
9.658050741031e-02 -6.605143970085e+01 0.0 
0.0 0.0 -3.122674038738e+01 
-1.254393589883e+02 2.345824121653e+01 0.0 
2.345824121653e+01 -3.034362026503e+02 0.0 
0.0 0.0 -1.282626684916e+02 
-1.031235588754e+02 1.293400579193e-01 0.0 
1.293400579193e-01 -2.363974276818e+02 0.0 
0.0 0.0 -1.014562959671e+02 
-3.558244161222e+00 8.316032892674e-02 0.0 
8.316032892674e-02 -8.542799420243e+00 0.0 
0.0 0.0 -4.155561897606e+00 
-3.909455268700e+01 -2.397897345089e-01 0.0 
-2.397897345089e-01 -6.639050558802e+01 0.0 
0.0 0.0 -3.124551748251e+01 
-1.555536875233e+02 1.131009921533e+00 0.0 
1.131009921533e+00 -3.700258140891e+02 0.0 
0.0 0.0 -1.572738504837e+02 
-2.738163203880e+01 -1.940161271730e+00 0.0 
-1.940161271730e+00 -7.344034124212e+01 0.0 
0.0 0.0 -2.984659198428e+01 
-1.312113403549e+02 1.734472477979e+01 0.0 
1.734472477979e+01 -3.280216515235e+02 0.0 
0.0 0.0 -1.373698975635e+02 
-1.101498940540e+02 1.748607253276e+01 0.0 
1.748607253276e+01 -2.357041115249e+02 0.0 
0.0 0.0 -1.033562016737e+02 
-1.042700350056e+02 4.986256598579e+00 0.0 
4.986256598579e+00 -2.349461313446e+02 0.0 
0.0 0.0 -1.013648499051e+02 
-2.638728747419e+01 -1.428802253387e+00 0.0 
-1.428802253387e+00 -7.062633321063e+01 0.0 
0.0 0.0 -2.870408620545e+01 
-2.299581306072e+01 7.075918654060e+00 0.0 
7.075918654060e+00 -4.040863565367e+01 0.0 
0.0 0.0 -1.862133461431e+01 
-8.583020310012e+01 -1.314687958380e+00 0.0 
-1.314687958380e+00 -2.282480107058e+02 0.0 
0.0 0.0 -9.382346414179e+01 
-8.602082881631e+01 5.854351136451e-01 0.0 
5.854351136451e-01 -1.866310443045e+02 0.0 
0.0 0.0 -8.139556193623e+01 
-2.187181486745e+01 -5.929914869478e-01 0.0 
-5.929914869478e-01 -5.693614335672e+00 0.0 
0.0 0.0 -7.869628760935e+00 
-1.065695879001e+02 1.214115804121e+01 0.0 
1.214115804121e+01 -2.422734150198e+02 0.0 
0.0 0.0 -1.042529008760e+02 
-6.572102586737e+01 3.201964867394e-01 0.0 
3.201964867394e-01 -1.321097944030e+02 0.0 
0.0 0.0 -5.894924608111e+01 
-2.788560266375e+01 -2.466828523848e+00 0.0 
-2.466828523848e+00 -6.923550745654e+01 0.0 
0.0 0.0 -2.873633303609e+01 
-6.052136457843e+01 3.343229416376e-01 0.0 
3.343229416376e-01 -1.182215307401e+02 0.0 
0.0 0.0 -5.322286859557e+01 
-1.310321164751e+02 2.648126539600e+01 0.0 
2.648126539600e+01 -3.115541977018e+02 0.0 
0.0 0.0 -1.323758942531e+02 
-9.071953178899e+01 1.206813389502e+00 0.0 
1.206813389502e+00 -2.389106064301e+02 0.0 
0.0 0.0 -9.848904146572e+01 
-1.740769894579e+01 8.312634088408e+00 0.0 
8.312634088408e+00 -1.156076057374e+01 0.0 
0.0 0.0 -8.264535180494e+00 
-5.244383669856e+01 -1.267175252327e+00 0.0 
-1.267175252327e+00 -1.454501245929e+02 0.0 
0.0 0.0 -5.896818838743e+01 
-7.817525178410e+01 -3.779752326140e-01 0.0 
-3.779752326140e-01 -2.098801495956e+02 0.0 
0.0 0.0 -8.601662041389e+01 
-9.496713291643e+01 -1.330854905835e+00 0.0 
-1.330854905835e+00 -2.479277882180e+02 0.0 
0.0 0.0 -1.024684763403e+02 
-1.292333936071e+02 2.303594988445e+01 0.0 
2.303594988445e+01 -3.127293579318e+02 0.0 
0.0 0.0 -1.321888254617e+02 
-7.604332852568e+01 6.071145834108e-01 0.0 
6.071145834108e-01 -2.046163138545e+02 0.0 
0.0 0.0 -8.379789271405e+01 
-8.152106314479e+01 -2.597356518158e-01 0.0 
-2.597356518158e-01 -2.171345811725e+02 0.0 
0.0 0.0 -8.919669329519e+01 
-1.551899450129e+01 -1.743894656983e+00 0.0 
-1.743894656983e+00 -3.725072869696e+01 0.0 
0.0 0.0 -1.543091695948e+01 
-1.451424442619e+02 6.111932588597e+00 0.0 
6.111932588597e+00 -3.526655876900e+02 0.0 
0.0 0.0 -1.489424095856e+02 
-1.136230667638e+02 2.325605031495e+01 0.0 
2.325605031495e+01 -2.660418456585e+02 0.0 
0.0 0.0 -1.134994737267e+02 
-2.295472865200e+01 7.312161284854e+00 0.0 
7.312161284854e+00 -5.180899790349e+01 0.0 
0.0 0.0 -2.202911796665e+01 
-1.026789307964e+02 1.035324304230e+00 0.0 
1.035324304230e+00 -2.356386704602e+02 0.0 
0.0 0.0 -1.010952803770e+02 
-1.556467353800e+02 1.641506059290e-01 0.0 
1.641506059290e-01 -3.696496709190e+02 0.0 
0.0 0.0 -1.571889218897e+02 
-4.572646409837e+01 6.314722879318e-01 0.0 
6.314722879318e-01 -8.164875483840e+01 0.0 
0.0 0.0 -3.781256568103e+01 
-6.620870509577e+01 2.828969948758e-01 0.0 
2.828969948758e-01 -1.322968719816e+02 0.0 
0.0 0.0 -5.915167312322e+01 
-7.623885304882e+01 -6.780552847120e-01 0.0 
-6.780552847120e-01 -2.044945474128e+02 0.0 
0.0 0.0 -8.382002013849e+01 
-7.910581590573e+01 3.884818724764e-01 0.0 
3.884818724764e-01 -2.107803678940e+02 0.0 
0.0 0.0 -8.656585513993e+01 
-8.142181338372e+01 1.942448615998e-01 0.0 
1.942448615998e-01 -2.175701042964e+02 0.0 
0.0 0.0 -8.929757530403e+01 
-1.252381181965e+02 1.614604625551e+01 0.0 
1.614604625551e+01 -3.153906435261e+02 0.0 
0.0 0.0 -1.317886285168e+02 
-2.276500853576e+01 -3.006930430831e+00 0.0 
-3.006930430831e+00 -5.632646648166e+01 0.0 
0.0 0.0 -2.332744250522e+01 
-1.187929854523e+02 2.582290312192e+01 0.0 
2.582290312192e+01 -2.739654919964e+02 0.0 
0.0 0.0 -1.174275432346e+02 
-5.245057106221e+01 -7.223975192496e-02 0.0 
-7.223975192496e-02 -9.840158927781e+01 0.0 
0.0 0.0 -4.485564810201e+01 
-1.092680963287e+02 1.204846494060e+01 0.0 
1.204846494060e+01 -2.414776519154e+02 0.0 
0.0 0.0 -1.048237244732e+02 
-1.269581845596e+02 1.678085963960e+01 0.0 
1.678085963960e+01 -3.160093041439e+02 0.0 
0.0 0.0 -1.324902466111e+02 
-6.194986427648e+01 9.106240093276e-01 0.0 
9.106240093276e-01 -1.191680226562e+02 0.0 
0.0 0.0 -5.393536607980e+01 
-1.110223220927e+02 2.173268810674e+01 0.0 
2.173268810674e+01 -2.487808445012e+02 0.0 
0.0 0.0 -1.075409499782e+02 
-1.274602670359e+02 2.169671851815e+01 0.0 
2.169671851815e+01 -3.113273319527e+02 0.0 
0.0 0.0 -1.312362796966e+02 
-1.336857391429e+02 2.466151205470e+01 0.0 
2.466151205470e+01 -3.227898206235e+02 0.0 
0.0 0.0 -1.365426679299e+02 
-1.822066550899e+01 7.674237651962e+00 0.0 
7.674237651962e+00 -1.802831667077e+01 0.0 
0.0 0.0 -1.068872751499e+01 
-1.126287408037e+02 2.328754050384e+01 0.0 
2.328754050384e+01 -2.497119963612e+02 0.0 
0.0 0.0 -1.083022211495e+02 
-1.163106549206e+02 2.331691997529e+01 0.0 
2.331691997529e+01 -2.637454941773e+02 0.0 
0.0 0.0 -1.136168447294e+02 
-1.637203507884e+01 -8.697872660522e-01 0.0 
-8.697872660522e-01 -3.826748382243e+01 0.0 
0.0 0.0 -1.599185567038e+01 
-7.224858165974e+01 2.572243648277e-01 0.0 
2.572243648277e-01 -1.946164114361e+02 0.0 
0.0 0.0 -7.965949792875e+01 
-1.864739205398e+01 5.908877542123e+00 0.0 
5.908877542123e+00 -1.676257449593e+01 0.0 
0.0 0.0 -1.022298996497e+01 
-1.166775950512e+02 2.398608780222e+01 0.0 
2.398608780222e+01 -2.593566135440e+02 0.0 
0.0 0.0 -1.124102625786e+02 
-1.469491352763e+01 4.851503417972e-01 0.0 
4.851503417972e-01 -8.008938366152e+00 0.0 
0.0 0.0 -6.411155568135e+00 
-1.539871591396e+01 -5.636380389658e-02 0.0 
-5.636380389658e-02 -9.861915501050e+00 0.0 
0.0 0.0 -7.178189424501e+00 
-1.481421518620e+01 1.767964366885e-01 0.0 
1.767964366885e-01 -9.645953659091e+00 0.0 
0.0 0.0 -6.938050653588e+00 
-1.529710188457e+01 3.611287940195e-02 0.0 
3.611287940195e-02 -9.907420769932e+00 0.0 
0.0 0.0 -7.161356796351e+00 
-1.489046340961e+01 3.477280240338e-02 0.0 
3.477280240338e-02 -9.734731014229e+00 0.0 
0.0 0.0 -6.987558327151e+00 
-1.518248222286e+01 -5.899912280900e-02 0.0 
-5.899912280900e-02 -9.933462835321e+00 0.0 
0.0 0.0 -7.134783517453e+00 
-1.480083906117e+01 -3.798078377080e-02 0.0 
-3.798078377080e-02 -9.779061431350e+00 0.0 
0.0 0.0 -6.973970147756e+00 
-1.512044835014e+01 -1.318124853342e-01 0.0 
-1.318124853342e-01 -9.967867089550e+00 0.0 
0.0 0.0 -7.126494631907e+00 
-1.459382797665e+01 -8.400061271992e-02 0.0 
-8.400061271992e-02 -9.766125809811e+00 0.0 
0.0 0.0 -6.907986135937e+00 
-1.503250121060e+01 -2.054908356482e-01 0.0 
-2.054908356482e-01 -1.000673907643e+01 0.0 
0.0 0.0 -7.111772086110e+00 
-1.428256126062e+01 -1.154858227834e-01 0.0 
-1.154858227834e-01 -9.738193923981e+00 0.0 
0.0 0.0 -6.806226555380e+00 
-1.492552901198e+01 -2.786530358176e-01 0.0 
-2.786530358176e-01 -1.005238987283e+01 0.0 
0.0 0.0 -7.093375665441e+00 
-1.388342350883e+01 -1.289523031750e-01 0.0 
-1.289523031750e-01 -9.708018197717e+00 0.0 
0.0 0.0 -6.677432511963e+00 
-1.477144544529e+01 -3.324975324960e-01 0.0 
-3.324975324960e-01 -1.009039048182e+01 0.0 
0.0 0.0 -7.058550778133e+00 
-1.341988439487e+01 -1.399676495774e-01 0.0 
-1.399676495774e-01 -9.667988370536e+00 0.0 
0.0 0.0 -6.526361829621e+00 
-1.621529313192e+01 3.907745677448e+00 0.0 
3.907745677448e+00 -1.267344747746e+01 0.0 
0.0 0.0 -8.266622182815e+00 
-1.466573286456e+01 -3.939835514079e-01 0.0 
-3.939835514079e-01 -1.013676850330e+01 0.0 
0.0 0.0 -7.040750410358e+00 
-2.074531425065e+01 1.924382045536e+00 0.0 
1.924382045536e+00 -1.100250273515e+01 0.0 
0.0 0.0 -9.124345095741e+00 
-1.287085515496e+01 -1.694028781163e-01 0.0 
-1.694028781163e-01 -9.590931458742e+00 0.0 
0.0 0.0 -6.338535984110e+00 
-1.450112589085e+01 -4.845758112863e-01 0.0 
-4.845758112863e-01 -1.019313666956e+01 0.0 
0.0 0.0 -7.008278768124e+00 
-1.221248607489e+01 -1.871415464839e-01 0.0 
-1.871415464839e-01 -9.550572529447e+00 0.0 
0.0 0.0 -6.128917581301e+00 
-1.433443073024e+01 -5.487366768965e-01 0.0 
-5.487366768965e-01 -1.025155826012e+01 0.0 
0.0 0.0 -6.975796697110e+00 
-1.148737425857e+01 -1.851282182929e-01 0.0 
-1.851282182929e-01 -9.508302765310e+00 0.0 
0.0 0.0 -5.898703107163e+00 
-1.425628019692e+01 -5.890031871162e-01 0.0 
-5.890031871162e-01 -1.031546732403e+01 0.0 
0.0 0.0 -6.971524256286e+00 
-9.051160793720e+00 7.608863089721e-01 0.0 
7.608863089721e-01 -5.727933380509e+00 0.0 
0.0 0.0 -4.033728252269e+00 
-1.073170073571e+01 -1.714964084492e-01 0.0 
-1.714964084492e-01 -9.446490704218e+00 0.0 
0.0 0.0 -5.653457431979e+00 
-1.426865151161e+01 -6.128411953438e-01 0.0 
-6.128411953438e-01 -1.038528481397e+01 0.0 
0.0 0.0 -6.996180897674e+00 
-9.977476729160e+00 -1.383598287439e-01 0.0 
-1.383598287439e-01 -9.395237776067e+00 0.0 
0.0 0.0 -5.411814351568e+00 
-1.442705335284e+01 -5.912420660060e-01 0.0 
-5.912420660060e-01 -1.045525977179e+01 0.0 
0.0 0.0 -7.064693937390e+00 
-9.268611447625e+00 -1.162500339110e-01 0.0 
-1.162500339110e-01 -9.290236393305e+00 0.0 
0.0 0.0 -5.167654352279e+00 
-1.501900363003e+01 -5.978747968897e-01 0.0 
-5.978747968897e-01 -1.058529397354e+01 0.0 
0.0 0.0 -7.281289281070e+00 
-8.668581620710e+00 6.422080309152e-02 0.0 
6.422080309152e-02 -9.394323542995e+00 0.0 
0.0 0.0 -5.018871549111e+00 
-1.564863769880e+01 -2.791274494676e-01 0.0 
-2.791274494676e-01 -1.065625022324e+01 0.0 
0.0 0.0 -7.491466376612e+00 
-1.744920175114e+01 1.728094915983e-01 0.0 
1.728094915983e-01 -1.083446707815e+01 0.0 
0.0 0.0 -8.085100648787e+00 
-8.630245722090e+00 3.768847820654e-01 0.0 
3.768847820654e-01 -9.437465090592e+00 0.0 
0.0 0.0 -5.020313243805e+00 
-2.569628157410e+01 6.759263704017e+00 0.0 
6.759263704017e+00 -1.303582881909e+01 0.0 
0.0 0.0 -1.121963311795e+01 
-9.720248569394e+00 1.393526259735e+00 0.0 
1.393526259735e+00 -1.036397884222e+01 0.0 
0.0 0.0 -5.625268223486e+00 
-1.810131544775e+01 1.789172455868e+00 0.0 
1.789172455868e+00 1.601531977430e-01 0.0 
0.0 0.0 -4.982348675002e+00 
-1.552415174617e+01 1.496769466640e+00 0.0 
1.496769466640e+00 -1.026605872514e+01 0.0 
0.0 0.0 -7.337063141395e+00 
-1.584107902468e+01 -1.277074897155e+00 0.0 
-1.277074897155e+00 -8.373660259158e+00 0.0 
0.0 0.0 -6.864421785150e+00 
-1.747066709215e+01 2.248081521012e-01 0.0 
2.248081521012e-01 -1.453062370723e+01 0.0 
0.0 0.0 -9.200387239816e+00 
-1.399615640469e+01 -6.173564508624e-02 0.0 
-6.173564508624e-02 -4.285770835411e+00 0.0 
0.0 0.0 -5.084578172030e+00 
-2.492439672346e+01 7.572897540350e+00 0.0 
7.572897540350e+00 -9.671845531374e+00 0.0 
0.0 0.0 -9.978872676449e+00 
-2.428722380132e+01 2.708958506333e-01 0.0 
2.708958506333e-01 -3.122682513878e+01 0.0 
0.0 0.0 -1.625421468203e+01 
-2.376871191171e+01 -2.405833429291e-01 0.0 
-2.405833429291e-01 -2.939190616248e+01 0.0 
0.0 0.0 -1.554818542226e+01 
-2.369721388868e+01 2.278941450736e-02 0.0 
2.278941450736e-02 -2.931713634204e+01 0.0 
0.0 0.0 -1.550430506922e+01 
-2.354053114948e+01 -4.468925564565e-02 0.0 
-4.468925564565e-02 -2.914208905471e+01 0.0 
0.0 0.0 -1.540478606125e+01 
-2.365017506841e+01 -1.021203571374e-01 0.0 
-1.021203571374e-01 -2.920290703253e+01 0.0 
0.0 0.0 -1.545592463028e+01 
-2.343821534540e+01 -1.331489219017e-01 0.0 
-1.331489219017e-01 -2.919684012125e+01 0.0 
0.0 0.0 -1.539051663999e+01 
-2.363843027797e+01 -1.256700290965e-01 0.0 
-1.256700290965e-01 -2.927784195185e+01 0.0 
0.0 0.0 -1.547488166894e+01 
-2.333784465801e+01 -2.009631257656e-01 0.0 
-2.009631257656e-01 -2.914179180791e+01 0.0 
0.0 0.0 -1.534389093978e+01 
-2.376032509270e+01 -1.985111615693e-01 0.0 
-1.985111615693e-01 -2.931428668049e+01 0.0 
0.0 0.0 -1.552238353196e+01 
-2.323610234747e+01 -3.041145561756e-01 0.0 
-3.041145561756e-01 -2.914847506244e+01 0.0 
0.0 0.0 -1.531537322297e+01 
-2.378744204101e+01 -2.573347611455e-01 0.0 
-2.573347611455e-01 -2.934665227825e+01 0.0 
0.0 0.0 -1.554022829578e+01 
-2.309843604992e+01 -3.907828455119e-01 0.0 
-3.907828455119e-01 -2.912250629470e+01 0.0 
0.0 0.0 -1.526628270339e+01 
-2.392177965028e+01 -3.184304824631e-01 0.0 
-3.184304824631e-01 -2.940300365198e+01 0.0 
0.0 0.0 -1.559743499068e+01 
-2.796923758189e+01 3.800284791598e+00 0.0 
3.800284791598e+00 -3.305563526172e+01 0.0 
0.0 0.0 -1.790746185308e+01 
-2.294429496902e+01 -4.715331243047e-01 0.0 
-4.715331243047e-01 -2.916037270384e+01 0.0 
0.0 0.0 -1.523140030186e+01 
-2.399926740435e+01 -2.952760243550e-01 0.0 
-2.952760243550e-01 -2.944229398640e+01 0.0 
0.0 0.0 -1.563246841722e+01 
-2.406476070738e+01 2.135192168467e+00 0.0 
2.135192168467e+00 -2.627077130936e+01 0.0 
0.0 0.0 -1.470065960502e+01 
-2.275701296995e+01 -5.172978125703e-01 0.0 
-5.172978125703e-01 -2.901642208254e+01 0.0 
0.0 0.0 -1.513203051575e+01 
-2.421157293320e+01 -3.867971046838e-01 0.0 
-3.867971046838e-01 -2.945227558266e+01 0.0 
0.0 0.0 -1.569915455476e+01 
-3.045878544638e+01 2.142073656410e+00 0.0 
2.142073656410e+00 -3.090040701832e+01 0.0 
0.0 0.0 -1.800775773941e+01 
-2.258040251934e+01 -6.020709042783e-01 0.0 
-6.020709042783e-01 -2.904478213606e+01 0.0 
0.0 0.0 -1.508755539662e+01 
-2.439705192147e+01 -4.153785949743e-01 0.0 
-4.153785949743e-01 -2.952719715704e+01 0.0 
0.0 0.0 -1.577727472355e+01 
-2.241510594430e+01 -6.201488234809e-01 0.0 
-6.201488234809e-01 -2.910646709291e+01 0.0 
0.0 0.0 -1.505647191116e+01 
-2.472579522208e+01 -3.381302379319e-01 0.0 
-3.381302379319e-01 -2.961711757541e+01 0.0 
0.0 0.0 -1.590287383924e+01 
-2.230367826660e+01 -5.579275343805e-01 0.0 
-5.579275343805e-01 -2.909272948661e+01 0.0 
0.0 0.0 -1.501892232596e+01 
-3.304371701564e+01 4.700684767889e+00 0.0 
4.700684767889e+00 -3.390353662056e+01 0.0 
0.0 0.0 -1.968417609086e+01 
-2.524784270672e+01 -2.424375736084e-01 0.0 
-2.424375736084e-01 -2.970216113743e+01 0.0 
0.0 0.0 -1.608500115324e+01 
-2.231099867393e+01 -4.254548281551e-01 0.0 
-4.254548281551e-01 -2.915076152605e+01 0.0 
0.0 0.0 -1.503852805999e+01 
-2.251909453429e+01 -1.437139156761e-01 0.0 
-1.437139156761e-01 -2.933668919517e+01 0.0 
0.0 0.0 -1.515673511884e+01 
-2.587571341089e+01 -6.908019019810e-02 0.0 
-6.908019019810e-02 -2.980930092972e+01 0.0 
0.0 0.0 -1.630550430218e+01 
-2.305669006727e+01 3.354510904595e-01 0.0 
3.354510904595e-01 -2.933989566044e+01 0.0 
0.0 0.0 -1.531897571831e+01 
-2.664649886627e+01 3.546675017962e-01 0.0 
3.546675017962e-01 -2.985727133642e+01 0.0 
0.0 0.0 -1.655113106081e+01 
-2.425430788195e+01 1.296883734651e+00 0.0 
1.296883734651e+00 -3.073614731726e+01 0.0 
0.0 0.0 -1.609713655976e+01 
-2.811069195056e+01 6.251757709556e-01 0.0 
6.251757709556e-01 -3.023136577308e+01 0.0 
0.0 0.0 -1.710261731709e+01 
-2.801693021458e+01 2.917511080128e+00 0.0 
2.917511080128e+00 -2.346354261797e+01 0.0 
0.0 0.0 -1.504414184977e+01 
-2.425019109423e+01 1.380592130496e+00 0.0 
1.380592130496e+00 -2.904362228329e+01 0.0 
0.0 0.0 -1.558814401326e+01 
-2.388120058051e+01 -1.499279407253e+00 0.0 
-1.499279407253e+00 -3.120191140496e+01 0.0 
0.0 0.0 -1.612493359564e+01 
-2.194095732239e+01 7.524155373761e-02 0.0 
7.524155373761e-02 -2.496130091113e+01 0.0 
0.0 0.0 -1.367067747006e+01 
-2.608203992927e+01 -2.572177343412e-01 0.0 
-2.572177343412e-01 -3.508323294824e+01 0.0 
0.0 0.0 -1.794958186326e+01 
-2.776549680127e+01 5.398556549698e+00 0.0 
5.398556549698e+00 -2.738292868661e+01 0.0 
0.0 0.0 -1.614452764636e+01 
-3.135628806326e+01 3.584034151232e-01 0.0 
3.584034151232e-01 -4.772130841664e+01 0.0 
0.0 0.0 -2.332327894397e+01 
-3.210300755128e+01 -3.674218136290e-02 0.0 
-3.674218136290e-02 -4.888375982582e+01 0.0 
0.0 0.0 -2.389603021313e+01 
-3.207628023274e+01 -6.103995080246e-02 0.0 
-6.103995080246e-02 -4.886829114485e+01 0.0 
0.0 0.0 -2.388337141328e+01 
-3.197139579498e+01 -4.848550764533e-02 0.0 
-4.848550764533e-02 -4.888310602700e+01 0.0 
0.0 0.0 -2.385635054659e+01 
-3.210029989484e+01 -1.183176931608e-01 0.0 
-1.183176931608e-01 -4.891986496086e+01 0.0 
0.0 0.0 -2.390604945671e+01 
-3.216495800540e+01 -1.649625044872e-01 0.0 
-1.649625044872e-01 -4.906238023945e+01 0.0 
0.0 0.0 -2.396820147345e+01 
-3.212333697311e+01 -7.345652555590e-02 0.0 
-7.345652555590e-02 -4.907595757386e+01 0.0 
0.0 0.0 -2.395978836409e+01 
-3.243494892832e+01 -9.480522224299e-02 0.0 
-9.480522224299e-02 -4.901619944471e+01 0.0 
0.0 0.0 -2.403534451191e+01 
-3.213838545015e+01 -1.685879763822e-01 0.0 
-1.685879763822e-01 -4.886309418120e+01 0.0 
0.0 0.0 -2.390044388940e+01 
-3.254910235629e+01 -2.766781770063e-01 0.0 
-2.766781770063e-01 -4.907709928036e+01 0.0 
0.0 0.0 -2.408786049100e+01 
-3.220545590850e+01 -1.788192422691e-01 0.0 
-1.788192422691e-01 -4.898868463571e+01 0.0 
0.0 0.0 -2.395824216326e+01 
-3.279817119775e+01 -2.672561538976e-01 0.0 
-2.672561538976e-01 -4.909954190903e+01 0.0 
0.0 0.0 -2.416931393203e+01 
-3.801740410938e+01 3.417188554152e+00 0.0 
3.417188554152e+00 -5.278910898878e+01 0.0 
0.0 0.0 -2.684195392945e+01 
-3.229346243993e+01 -2.073266303585e-01 0.0 
-2.073266303585e-01 -4.893693016117e+01 0.0 
0.0 0.0 -2.396911778033e+01 
-3.881112343114e+01 1.628402084874e+00 0.0 
1.628402084874e+00 -5.053171229088e+01 0.0 
0.0 0.0 -2.640285071661e+01 
-3.340249378060e+01 -3.959054112426e-01 0.0 
-3.959054112426e-01 -4.925557416349e+01 0.0 
0.0 0.0 -2.439742038323e+01 
-3.237804564269e+01 -2.088222913831e-01 0.0 
-2.088222913831e-01 -4.899277654253e+01 0.0 
0.0 0.0 -2.401124665557e+01 
-3.335404921082e+01 -2.979226046275e-01 0.0 
-2.979226046275e-01 -4.909402635552e+01 0.0 
0.0 0.0 -2.433442266990e+01 
-3.252510057566e+01 -2.173025727073e-01 0.0 
-2.173025727073e-01 -4.885050674842e+01 0.0 
0.0 0.0 -2.401268219723e+01 
-3.387673700557e+01 -4.083210183919e-01 0.0 
-4.083210183919e-01 -4.922057244390e+01 0.0 
0.0 0.0 -2.452919283484e+01 
-3.277664202300e+01 -1.220852079288e-01 0.0 
-1.220852079288e-01 -4.907957406063e+01 0.0 
0.0 0.0 -2.415686482509e+01 
-3.457136137837e+01 -2.799023031949e-01 0.0 
-2.799023031949e-01 -4.939417826039e+01 0.0 
0.0 0.0 -2.478966189163e+01 
-3.495875819445e+01 2.087786422401e+00 0.0 
2.087786422401e+00 -4.621018700882e+01 0.0 
0.0 0.0 -2.395068356098e+01 
-3.313881367299e+01 7.049670571586e-02 0.0 
7.049670571586e-02 -4.924749396088e+01 0.0 
0.0 0.0 -2.431589229016e+01 
-3.529860901786e+01 -1.390427978822e-02 0.0 
-1.390427978822e-02 -4.946367202845e+01 0.0 
0.0 0.0 -2.502868431389e+01 
-3.364763276030e+01 3.317422554664e-01 0.0 
3.317422554664e-01 -4.930167126245e+01 0.0 
0.0 0.0 -2.448479120682e+01 
-3.624961892922e+01 2.477896136656e-01 0.0 
2.477896136656e-01 -4.962523463271e+01 0.0 
0.0 0.0 -2.536245606858e+01 
-3.737207433797e+01 7.378258925828e-01 0.0 
7.378258925828e-01 -4.994088627422e+01 0.0 
0.0 0.0 -2.579388818366e+01 
-3.437387163064e+01 7.438826379109e-01 0.0 
7.438826379109e-01 -4.963833677578e+01 0.0 
0.0 0.0 -2.480366252193e+01 
-3.542645525292e+01 1.483808470013e+00 0.0 
1.483808470013e+00 -5.034383623860e+01 0.0 
0.0 0.0 -2.533108744745e+01 
-4.187689918078e+01 3.581151365700e+00 0.0 
3.581151365700e+00 -5.391920135753e+01 0.0 
0.0 0.0 -2.833883016149e+01 
-3.739913856838e+01 2.477244557284e+00 0.0 
2.477244557284e+00 -4.417357044057e+01 0.0 
0.0 0.0 -2.407181270269e+01 
-3.142336015188e+01 1.255780370827e+00 0.0 
1.255780370827e+00 -4.905401538584e+01 0.0 
0.0 0.0 -2.374321266132e+01 
-3.165462202903e+01 -1.593648318706e+00 0.0 
-1.593648318706e+00 -4.768485628130e+01 0.0 
0.0 0.0 -2.340184349310e+01 
-3.353906930303e+01 -1.016623884602e-01 0.0 
-1.016623884602e-01 -5.354525766479e+01 0.0 
0.0 0.0 -2.572529809035e+01 
-2.963798528606e+01 -2.947205064514e-01 0.0 
-2.947205064514e-01 -4.338043878074e+01 0.0 
0.0 0.0 -2.150552722004e+01 
-3.715724514534e+01 4.235737451321e+00 0.0 
4.235737451321e+00 -4.653014631588e+01 0.0 
0.0 0.0 -2.470621743837e+01 

TENSORS element_materi_strain_total float
-1.063950714629e-04 2.650961348745e-04 0.0 
2.650961348745e-04 1.002239515411e-03 0.0 
0.0 0.0 0.0 
-9.514928765142e-05 2.087040739116e-04 0.0 
2.087040739116e-04 9.627049331147e-04 0.0 
0.0 0.0 0.0 
-3.511562737768e-05 2.677287552162e-04 0.0 
2.677287552162e-04 1.990725912656e-03 0.0 
0.0 0.0 0.0 
-3.455753205683e-05 2.130885379965e-05 0.0 
2.130885379965e-05 2.171605845270e-03 0.0 
0.0 0.0 0.0 
-1.208187318918e-04 1.524685970464e-05 0.0 
1.524685970464e-05 1.789333963270e-03 0.0 
0.0 0.0 0.0 
-4.710982277289e-05 7.605676321435e-05 0.0 
7.605676321435e-05 1.964398182239e-04 0.0 
0.0 0.0 0.0 
-1.115683655191e-04 1.284091798295e-05 0.0 
1.284091798295e-05 1.787762573137e-03 0.0 
0.0 0.0 0.0 
-9.571665376351e-05 2.491794984956e-04 0.0 
2.491794984956e-04 9.053187049681e-04 0.0 
0.0 0.0 0.0 
-1.199284649319e-04 2.064231451065e-06 0.0 
2.064231451065e-06 1.788936044324e-03 0.0 
0.0 0.0 0.0 
-3.359599014796e-05 4.575789666903e-05 0.0 
4.575789666903e-05 2.166883163983e-03 0.0 
0.0 0.0 0.0 
1.000092647865e-04 7.328296503995e-06 0.0 
7.328296503995e-06 7.335854815969e-04 0.0 
0.0 0.0 0.0 
-9.505009847066e-05 2.122481228475e-04 0.0 
2.122481228475e-04 8.423355650480e-04 0.0 
0.0 0.0 0.0 
3.543393390926e-05 2.413298887521e-05 0.0 
2.413298887521e-05 1.152548220679e-03 0.0 
0.0 0.0 0.0 
-1.462551834700e-04 4.535169703288e-05 0.0 
4.535169703288e-05 1.841439805007e-03 0.0 
0.0 0.0 0.0 
2.047438791664e-05 2.172100944186e-05 0.0 
2.172100944186e-05 1.188528644770e-03 0.0 
0.0 0.0 0.0 
-2.101697643964e-05 3.760760485057e-05 0.0 
3.760760485057e-05 2.190367242558e-03 0.0 
0.0 0.0 0.0 
-1.334328367587e-04 1.551560135422e-05 0.0 
1.551560135422e-05 1.775882592618e-03 0.0 
0.0 0.0 0.0 
-3.657140727065e-05 2.077232264355e-05 0.0 
2.077232264355e-05 1.825660131614e-04 0.0 
0.0 0.0 0.0 
3.230600710880e-05 -1.063099720908e-05 0.0 
-1.063099720908e-05 2.049909821584e-04 0.0 
0.0 0.0 0.0 
4.420361968993e-05 -1.510980516866e-06 0.0 
-1.510980516866e-06 2.113985745271e-04 0.0 
0.0 0.0 0.0 
-4.106013421046e-05 3.899754145851e-05 0.0 
3.899754145851e-05 2.168073653569e-03 0.0 
0.0 0.0 0.0 
-1.090896613134e-04 2.321385375569e-04 0.0 
2.321385375569e-04 1.153159264950e-03 0.0 
0.0 0.0 0.0 
-1.276960005665e-04 2.522658726128e-04 0.0 
2.522658726128e-04 1.240051280785e-03 0.0 
0.0 0.0 0.0 
6.643908235637e-05 1.782775578501e-04 0.0 
1.782775578501e-04 1.200398248558e-03 0.0 
0.0 0.0 0.0 
-1.561378855628e-04 8.454604707896e-05 0.0 
8.454604707896e-05 1.880851924297e-03 0.0 
0.0 0.0 0.0 
9.746193670224e-05 3.385549479381e-06 0.0 
3.385549479381e-06 7.799880378323e-04 0.0 
0.0 0.0 0.0 
-1.610521362191e-04 4.689973831262e-05 0.0 
4.689973831262e-05 1.715509254616e-03 0.0 
0.0 0.0 0.0 
1.521795654491e-05 3.434582502390e-04 0.0 
3.434582502390e-04 1.632619081189e-03 0.0 
0.0 0.0 0.0 
-1.774463269100e-04 8.991649169835e-05 0.0 
8.991649169835e-05 1.880429492977e-03 0.0 
0.0 0.0 0.0 
6.399812359459e-05 1.819316867353e-04 0.0 
1.819316867353e-04 1.221421927916e-03 0.0 
0.0 0.0 0.0 
-1.524196290392e-05 -1.958941211723e-05 0.0 
-1.958941211723e-05 1.854586811265e-04 0.0 
0.0 0.0 0.0 
-3.436496294640e-05 -1.905831604038e-05 0.0 
-1.905831604038e-05 7.457160031477e-05 0.0 
0.0 0.0 0.0 
-5.993730189802e-05 2.767663756638e-04 0.0 
2.767663756638e-04 2.006482240705e-03 0.0 
0.0 0.0 0.0 
7.353850212555e-05 1.389145741094e-06 0.0 
1.389145741094e-06 9.572298307789e-04 0.0 
0.0 0.0 0.0 
4.482747376100e-05 1.045436991860e-04 0.0 
1.045436991860e-04 1.182364106401e-03 0.0 
0.0 0.0 0.0 
2.162218894419e-05 8.336898286774e-05 0.0 
8.336898286774e-05 1.235664145218e-03 0.0 
0.0 0.0 0.0 
1.604116389831e-05 5.829116304135e-05 0.0 
5.829116304135e-05 1.234122954406e-03 0.0 
0.0 0.0 0.0 
5.341926745706e-05 2.684286036098e-04 0.0 
2.684286036098e-04 1.373312881811e-03 0.0 
0.0 0.0 0.0 
-1.113305284335e-04 -5.998008271421e-06 0.0 
-5.998008271421e-06 1.724244143045e-03 0.0 
0.0 0.0 0.0 
-1.074503411235e-04 9.176312734734e-06 0.0 
9.176312734734e-06 1.726704582831e-03 0.0 
0.0 0.0 0.0 
-1.698814210127e-04 2.288868397465e-04 0.0 
2.288868397465e-04 1.458114477171e-03 0.0 
0.0 0.0 0.0 
3.068474365908e-05 1.366607695536e-04 0.0 
1.366607695536e-04 1.222204315862e-03 0.0 
0.0 0.0 0.0 
-9.225863137663e-05 2.308224274692e-04 0.0 
2.308224274692e-04 6.679924274400e-04 0.0 
0.0 0.0 0.0 
-1.771044926431e-04 4.906953063215e-05 0.0 
4.906953063215e-05 1.726609319259e-03 0.0 
0.0 0.0 0.0 
-4.591852137614e-05 6.678740151512e-06 0.0 
6.678740151512e-06 2.143469913273e-03 0.0 
0.0 0.0 0.0 
-9.112790649768e-05 1.939547677271e-04 0.0 
1.939547677271e-04 6.646317683481e-04 0.0 
0.0 0.0 0.0 
-1.611815277580e-05 -2.803661645105e-05 0.0 
-2.803661645105e-05 1.280056727151e-04 0.0 
0.0 0.0 0.0 
-3.098410872227e-05 1.524739729367e-05 0.0 
1.524739729367e-05 2.147131137529e-03 0.0 
0.0 0.0 0.0 
-5.347279042156e-05 -2.220299712743e-05 0.0 
-2.220299712743e-05 8.639731851123e-05 0.0 
0.0 0.0 0.0 
-1.536752742889e-04 3.166714731826e-05 0.0 
3.166714731826e-05 1.816772352438e-03 0.0 
0.0 0.0 0.0 
-1.482990178346e-04 2.447680385191e-04 0.0 
2.447680385191e-04 1.344931007881e-03 0.0 
0.0 0.0 0.0 
4.553969048460e-05 -9.907285736467e-06 0.0 
-9.907285736467e-06 2.601284284116e-04 0.0 
0.0 0.0 0.0 
4.015421212245e-05 -2.739044422740e-05 0.0 
-2.739044422740e-05 2.482622982531e-04 0.0 
0.0 0.0 0.0 
-1.434687880779e-04 2.073092013353e-04 0.0 
2.073092013353e-04 1.370564589557e-03 0.0 
0.0 0.0 0.0 
-3.945463431299e-05 2.072540047334e-04 0.0 
2.072540047334e-04 2.093026069196e-03 0.0 
0.0 0.0 0.0 
6.532906902845e-05 -1.385422697808e-05 0.0 
-1.385422697808e-05 3.479471127512e-04 0.0 
0.0 0.0 0.0 
5.547394660854e-05 -6.210798788501e-07 0.0 
-6.210798788501e-07 2.685865963914e-04 0.0 
0.0 0.0 0.0 
7.597091549782e-05 1.207568929474e-05 0.0 
1.207568929474e-05 9.575235489905e-04 0.0 
0.0 0.0 0.0 
1.979770895733e-05 -1.416788434676e-05 0.0 
-1.416788434676e-05 1.551766267103e-04 0.0 
0.0 0.0 0.0 
-2.452311196988e-05 3.111947105306e-05 0.0 
3.111947105306e-05 2.190459790120e-03 0.0 
0.0 0.0 0.0 
-1.141579147221e-04 -2.122662691124e-05 0.0 
-2.122662691124e-05 1.026042467456e-04 0.0 
0.0 0.0 0.0 
5.265714334723e-05 3.014287446590e-04 0.0 
3.014287446590e-04 1.447797948602e-03 0.0 
0.0 0.0 0.0 
1.001775770648e-05 2.598105502095e-04 0.0 
2.598105502095e-04 9.284757885195e-04 0.0 
0.0 0.0 0.0 
3.068546864005e-05 -8.549231588298e-06 0.0 
-8.549231588298e-06 2.107832595417e-04 0.0 
0.0 0.0 0.0 
3.475542381137e-05 3.109829972928e-05 0.0 
3.109829972928e-05 1.154136405311e-03 0.0 
0.0 0.0 0.0 
-1.336527829159e-04 2.250559316136e-04 0.0 
2.250559316136e-04 1.264821460647e-03 0.0 
0.0 0.0 0.0 
-7.501816695066e-05 -1.031592788120e-05 0.0 
-1.031592788120e-05 8.304539859627e-05 0.0 
0.0 0.0 0.0 
-6.056763091167e-05 2.900422460397e-04 0.0 
2.900422460397e-04 1.975142750383e-03 0.0 
0.0 0.0 0.0 
1.101996930086e-05 -4.643237238983e-05 0.0 
-4.643237238983e-05 1.780941847505e-04 0.0 
0.0 0.0 0.0 
-1.262721674133e-05 3.196888947627e-04 0.0 
3.196888947627e-04 1.813746391557e-03 0.0 
0.0 0.0 0.0 
9.528464378650e-05 8.424077583970e-06 0.0 
8.424077583970e-06 8.174187548853e-04 0.0 
0.0 0.0 0.0 
0.0 1.339601517927e-04 0.0 
1.339601517927e-04 2.191337973247e-03 0.0 
0.0 0.0 0.0 
1.065239296638e-05 3.093214427467e-04 0.0 
3.093214427467e-04 1.585233646720e-03 0.0 
0.0 0.0 0.0 
1.219352584569e-05 4.149371851510e-06 0.0 
4.149371851510e-06 6.982459573268e-05 0.0 
0.0 0.0 0.0 
7.299078852085e-05 -2.962204256418e-06 0.0 
-2.962204256418e-06 3.632960740148e-04 0.0 
0.0 0.0 0.0 
-4.971761479633e-05 9.424361109414e-05 0.0 
9.424361109414e-05 2.164762659444e-03 0.0 
0.0 0.0 0.0 
-6.756002753883e-05 2.268670314271e-04 0.0 
2.268670314271e-04 2.079346908908e-03 0.0 
0.0 0.0 0.0 
-8.255684631653e-05 1.612828896460e-04 0.0 
1.612828896460e-04 4.674653714181e-04 0.0 
0.0 0.0 0.0 
3.049017612722e-05 -1.776341544882e-05 0.0 
-1.776341544882e-05 1.547544562457e-04 0.0 
0.0 0.0 0.0 
-9.358330666798e-05 2.108949601280e-04 0.0 
2.108949601280e-04 4.695727734119e-04 0.0 
0.0 0.0 0.0 
1.506457979827e-05 -2.699085764563e-05 0.0 
-2.699085764563e-05 1.750762198451e-04 0.0 
0.0 0.0 0.0 
-1.323247674814e-04 1.378594591244e-05 0.0 
1.378594591244e-05 1.777435566571e-03 0.0 
0.0 0.0 0.0 
-1.181427872601e-04 2.544737215303e-04 0.0 
2.544737215303e-04 1.133659216564e-03 0.0 
0.0 0.0 0.0 
-1.037819951036e-04 2.193210386641e-04 0.0 
2.193210386641e-04 1.053988985236e-03 0.0 
0.0 0.0 0.0 
-1.272996668915e-04 9.296802922343e-06 0.0 
9.296802922343e-06 1.822998731861e-03 0.0 
0.0 0.0 0.0 
-1.156741261378e-04 1.710257166225e-05 0.0 
1.710257166225e-05 1.822919046885e-03 0.0 
0.0 0.0 0.0 
8.967369763835e-05 4.463337408262e-06 0.0 
4.463337408262e-06 8.474493913611e-04 0.0 
0.0 0.0 0.0 
8.060539292321e-05 5.664337007676e-06 0.0 
5.664337007676e-06 9.259230457372e-04 0.0 
0.0 0.0 0.0 
-1.150857888315e-04 2.495265631505e-04 0.0 
2.495265631505e-04 1.842572124706e-03 0.0 
0.0 0.0 0.0 
-1.308239086194e-04 6.543432726241e-06 0.0 
6.543432726241e-06 1.787521279058e-03 0.0 
0.0 0.0 0.0 
-2.194008440071e-05 -1.890215362125e-05 0.0 
-1.890215362125e-05 7.074448708400e-05 0.0 
0.0 0.0 0.0 
-1.787778628907e-04 6.325138525007e-05 0.0 
6.325138525007e-05 1.779664752594e-03 0.0 
0.0 0.0 0.0 
-7.205168808710e-05 7.538509147010e-06 0.0 
7.538509147010e-06 2.017773173098e-03 0.0 
0.0 0.0 0.0 
-7.992888916675e-05 1.603746727405e-05 0.0 
1.603746727405e-05 2.008607359533e-03 0.0 
0.0 0.0 0.0 
-3.419664812010e-05 1.479789312657e-04 0.0 
1.479789312657e-04 2.186530895041e-03 0.0 
0.0 0.0 0.0 
1.962330248273e-05 2.817509131650e-04 0.0 
2.817509131650e-04 1.446963327099e-03 0.0 
0.0 0.0 0.0 
-1.435562755431e-04 1.574355094000e-05 0.0 
1.574355094000e-05 1.778185222712e-03 0.0 
0.0 0.0 0.0 
4.969244830888e-05 1.338555096873e-04 0.0 
1.338555096873e-04 1.218251229597e-03 0.0 
0.0 0.0 0.0 
-9.353290533443e-05 -1.325834259231e-06 0.0 
-1.325834259231e-06 1.874657111662e-03 0.0 
0.0 0.0 0.0 
-3.176169969565e-05 2.526325936686e-04 0.0 
2.526325936686e-04 9.842165285825e-04 0.0 
0.0 0.0 0.0 
-1.227981506378e-04 3.512688976993e-06 0.0 
3.512688976993e-06 1.757740045327e-03 0.0 
0.0 0.0 0.0 
2.289994607407e-05 3.349500295904e-05 0.0 
3.349500295904e-05 1.187790141038e-03 0.0 
0.0 0.0 0.0 
7.966798341186e-05 2.416970597526e-04 0.0 
2.416970597526e-04 1.229165695716e-03 0.0 
0.0 0.0 0.0 
3.649515012483e-05 2.893832013249e-04 0.0 
2.893832013249e-04 1.449815937180e-03 0.0 
0.0 0.0 0.0 
2.576444702163e-05 1.971374257163e-04 0.0 
1.971374257163e-04 7.315348032639e-04 0.0 
0.0 0.0 0.0 
-5.358963657720e-05 -2.545436483732e-05 0.0 
-2.545436483732e-05 1.434432872651e-04 0.0 
0.0 0.0 0.0 
5.192101319551e-05 1.030317414085e-05 0.0 
1.030317414085e-05 1.071793925864e-03 0.0 
0.0 0.0 0.0 
-6.971318437343e-05 1.808742883534e-05 0.0 
1.808742883534e-05 2.060869060242e-03 0.0 
0.0 0.0 0.0 
-9.997861365707e-05 -2.304188048411e-05 0.0 
-2.304188048411e-05 1.033356309921e-04 0.0 
0.0 0.0 0.0 
2.279553281048e-05 5.392505090100e-05 0.0 
5.392505090100e-05 1.182873188970e-03 0.0 
0.0 0.0 0.0 
-1.010204385977e-04 2.489927783354e-04 0.0 
2.489927783354e-04 1.778613539553e-03 0.0 
0.0 0.0 0.0 
7.659944653682e-06 -8.139110835993e-06 0.0 
-8.139110835993e-06 4.354989161426e-05 0.0 
0.0 0.0 0.0 
9.108266423863e-05 2.234899622540e-04 0.0 
2.234899622540e-04 8.212081842707e-04 0.0 
0.0 0.0 0.0 
-2.006724906822e-04 1.158833819805e-04 0.0 
1.158833819805e-04 1.689420418657e-03 0.0 
0.0 0.0 0.0 
9.011697910055e-05 -1.051693764621e-05 0.0 
-1.051693764621e-05 4.455046860479e-04 0.0 
0.0 0.0 0.0 
-1.091103080253e-05 2.462230700382e-04 0.0 
2.462230700382e-04 8.711395747274e-04 0.0 
0.0 0.0 0.0 
4.202400230024e-07 2.375045304815e-04 0.0 
2.375045304815e-04 9.301606613894e-04 0.0 
0.0 0.0 0.0 
3.081629808888e-05 1.039105973454e-04 0.0 
1.039105973454e-04 1.205446435455e-03 0.0 
0.0 0.0 0.0 
-9.608702151931e-05 7.705816960956e-06 0.0 
7.705816960956e-06 1.855209003766e-03 0.0 
0.0 0.0 0.0 
2.646025197572e-05 2.470576980075e-04 0.0 
2.470576980075e-04 8.256930205246e-04 0.0 
0.0 0.0 0.0 
9.910924266610e-06 -4.275405778108e-05 0.0 
-4.275405778108e-05 1.680634511370e-04 0.0 
0.0 0.0 0.0 
-1.739501212361e-04 7.468816380423e-05 0.0 
7.468816380423e-05 1.757664130984e-03 0.0 
0.0 0.0 0.0 
-5.774631264421e-05 1.096587865209e-05 0.0 
1.096587865209e-05 2.064384162882e-03 0.0 
0.0 0.0 0.0 
1.419229160060e-05 2.158681923744e-04 0.0 
2.158681923744e-04 8.271984224493e-04 0.0 
0.0 0.0 0.0 
-7.988059359998e-05 1.126162116812e-04 0.0 
1.126162116812e-04 2.834272131542e-04 0.0 
0.0 0.0 0.0 
-1.984298807215e-04 1.645386925019e-04 0.0 
1.645386925019e-04 1.593998105317e-03 0.0 
0.0 0.0 0.0 
8.120035567605e-05 -5.772689803760e-06 0.0 
-5.772689803760e-06 4.433847282443e-04 0.0 
0.0 0.0 0.0 
-1.724681314538e-04 1.418124409939e-04 0.0 
1.418124409939e-04 1.555593416331e-03 0.0 
0.0 0.0 0.0 
-2.776721799980e-05 1.146270602269e-04 0.0 
1.146270602269e-04 2.174875648007e-03 0.0 
0.0 0.0 0.0 
-4.828904857757e-05 1.342313465764e-04 0.0 
1.342313465764e-04 2.745143974956e-04 0.0 
0.0 0.0 0.0 
9.925535618316e-05 1.215989308073e-05 0.0 
1.215989308073e-05 7.756025017291e-04 0.0 
0.0 0.0 0.0 
-3.121011591112e-05 2.801115184700e-05 0.0 
2.801115184700e-05 2.171804525009e-03 0.0 
0.0 0.0 0.0 
-6.669998945785e-05 2.751589827066e-04 0.0 
2.751589827066e-04 1.254270353369e-03 0.0 
0.0 0.0 0.0 
-1.895646238268e-04 1.936814796792e-04 0.0 
1.936814796792e-04 1.534408503679e-03 0.0 
0.0 0.0 0.0 
5.354827536763e-05 1.200087980168e-04 0.0 
1.200087980168e-04 1.182674018616e-03 0.0 
0.0 0.0 0.0 
3.316714778889e-05 9.591194657139e-06 0.0 
9.591194657139e-06 1.155343952453e-03 0.0 
0.0 0.0 0.0 
9.223072184295e-05 1.481789655059e-05 0.0 
1.481789655059e-05 8.477293252664e-04 0.0 
0.0 0.0 0.0 
-8.961446946332e-05 2.760731308630e-04 0.0 
2.760731308630e-04 1.360057157133e-03 0.0 
0.0 0.0 0.0 
5.482230327658e-05 1.825918879648e-04 0.0 
1.825918879648e-04 1.263659883776e-03 0.0 
0.0 0.0 0.0 
-1.010191798047e-04 2.615650091784e-04 0.0 
2.615650091784e-04 1.315635782664e-03 0.0 
0.0 0.0 0.0 
-2.448568603863e-05 7.313485599796e-05 0.0 
7.313485599796e-05 2.178195553395e-03 0.0 
0.0 0.0 0.0 
-2.307679250135e-05 3.377544132601e-04 0.0 
3.377544132601e-04 1.835224408963e-03 0.0 
0.0 0.0 0.0 
-1.634697164297e-04 4.458183232275e-05 0.0 
4.458183232275e-05 1.841456915475e-03 0.0 
0.0 0.0 0.0 
-9.025873056123e-05 2.180394688058e-05 0.0 
2.180394688058e-05 1.950402488668e-03 0.0 
0.0 0.0 0.0 
-9.785742002832e-05 2.719227559197e-04 0.0 
2.719227559197e-04 1.315199096018e-03 0.0 
0.0 0.0 0.0 
-1.639839267413e-04 1.724302958765e-04 0.0 
1.724302958765e-04 1.475050407722e-03 0.0 
0.0 0.0 0.0 
-6.192032428987e-05 2.783640038640e-04 0.0 
2.783640038640e-04 1.305160050497e-03 0.0 
0.0 0.0 0.0 
4.817592663375e-05 2.088763176329e-04 0.0 
2.088763176329e-04 7.935880971750e-04 0.0 
0.0 0.0 0.0 
-1.140729666212e-04 3.908822891216e-07 0.0 
3.908822891216e-07 1.764247004161e-03 0.0 
0.0 0.0 0.0 
8.290635593533e-05 1.969600885749e-04 0.0 
1.969600885749e-04 8.244913019102e-04 0.0 
0.0 0.0 0.0 
-1.288800484101e-05 -2.327693334416e-05 0.0 
-2.327693334416e-05 6.556520991574e-05 0.0 
0.0 0.0 0.0 
-1.019078614720e-04 1.645696326260e-06 0.0 
1.645696326260e-06 1.807705598184e-03 0.0 
0.0 0.0 0.0 
3.175427983182e-05 -5.408567554742e-06 0.0 
-5.408567554742e-06 1.559235358335e-04 0.0 
0.0 0.0 0.0 
-2.010403247120e-04 1.370404681446e-04 0.0 
1.370404681446e-04 1.642276031349e-03 0.0 
0.0 0.0 0.0 
3.118784787781e-05 1.669791043521e-04 0.0 
1.669791043521e-04 1.253619815634e-03 0.0 
0.0 0.0 0.0 
3.531307333748e-05 2.302889717674e-04 0.0 
2.302889717674e-04 7.290721362607e-04 0.0 
0.0 0.0 0.0 
8.688979451210e-05 1.140283914807e-05 0.0 
1.140283914807e-05 8.845455182249e-04 0.0 
0.0 0.0 0.0 
-9.717726314296e-05 2.033211880794e-04 0.0 
2.033211880794e-04 7.693295053348e-04 0.0 
0.0 0.0 0.0 
9.125604778126e-05 2.589004633740e-04 0.0 
2.589004633740e-04 1.227586655854e-03 0.0 
0.0 0.0 0.0 
-1.051282679175e-04 2.207191613212e-06 0.0 
2.207191613212e-06 1.767248671552e-03 0.0 
0.0 0.0 0.0 
1.039074265918e-04 2.021796786433e-04 0.0 
2.021796786433e-04 7.318870006039e-04 0.0 
0.0 0.0 0.0 
6.790099879095e-05 8.210850269479e-06 0.0 
8.210850269479e-06 9.943809682280e-04 0.0 
0.0 0.0 0.0 
1.440968533117e-05 -2.744148874737e-05 0.0 
-2.744148874737e-05 1.651300203060e-04 0.0 
0.0 0.0 0.0 
5.455557429901e-05 2.272007730275e-05 0.0 
2.272007730275e-05 1.070474424043e-03 0.0 
0.0 0.0 0.0 
-1.748897011931e-04 1.706999433030e-04 0.0 
1.706999433030e-04 1.660938793800e-03 0.0 
0.0 0.0 0.0 
3.831919469000e-05 5.203630837257e-05 0.0 
5.203630837257e-05 1.179022027352e-03 0.0 
0.0 0.0 0.0 
-1.017766748618e-04 1.227425275199e-06 0.0 
1.227425275199e-06 1.761710542197e-03 0.0 
0.0 0.0 0.0 
6.360962622809e-05 2.079278185327e-04 0.0 
2.079278185327e-04 6.917299292695e-04 0.0 
0.0 0.0 0.0 
-1.796107171802e-04 9.866270941082e-05 0.0 
9.866270941082e-05 1.656314721687e-03 0.0 
0.0 0.0 0.0 
9.817571172333e-05 -2.295244281335e-07 0.0 
-2.295244281335e-07 7.386247457233e-04 0.0 
0.0 0.0 0.0 
-1.029397729999e-04 2.498254969708e-04 0.0 
2.498254969708e-04 7.824398926197e-04 0.0 
0.0 0.0 0.0 
9.372046171396e-05 1.711031129173e-04 0.0 
1.711031129173e-04 7.361464036026e-04 0.0 
0.0 0.0 0.0 
-8.900710372262e-05 1.181480305037e-05 0.0 
1.181480305037e-05 1.980253960187e-03 0.0 
0.0 0.0 0.0 
-1.073324900703e-04 5.568237087841e-06 0.0 
5.568237087841e-06 1.763962522225e-03 0.0 
0.0 0.0 0.0 
7.992117230726e-05 2.147200716999e-04 0.0 
2.147200716999e-04 7.536478573860e-04 0.0 
0.0 0.0 0.0 
-1.804941377546e-04 1.156701694775e-04 0.0 
1.156701694775e-04 1.612520990899e-03 0.0 
0.0 0.0 0.0 
-3.768073337362e-05 2.968283712325e-04 0.0 
2.968283712325e-04 1.702216373171e-03 0.0 
0.0 0.0 0.0 
9.021126617470e-05 -6.807960087415e-06 0.0 
-6.807960087415e-06 4.979039375124e-04 0.0 
0.0 0.0 0.0 
1.436623446516e-05 3.233361314194e-04 0.0 
3.233361314194e-04 1.606902578152e-03 0.0 
0.0 0.0 0.0 
-2.043931880302e-05 3.424733611369e-04 0.0 
3.424733611369e-04 1.791393142825e-03 0.0 
0.0 0.0 0.0 
-5.753674655407e-05 2.409848616754e-04 0.0 
2.409848616754e-04 9.378541874279e-04 0.0 
0.0 0.0 0.0 
9.706482489458e-05 -3.197009620355e-06 0.0 
-3.197009620355e-06 4.997335735168e-04 0.0 
0.0 0.0 0.0 
8.547741583587e-05 1.883433775345e-04 0.0 
1.883433775345e-04 1.168761108557e-03 0.0 
0.0 0.0 0.0 
-1.338091391903e-04 2.582433930187e-04 0.0 
2.582433930187e-04 1.384065226126e-03 0.0 
0.0 0.0 0.0 
-4.576566877490e-05 2.317078314013e-04 0.0 
2.317078314013e-04 8.221043696954e-04 0.0 
0.0 0.0 0.0 
-1.815948793151e-04 1.289809858888e-04 0.0 
1.289809858888e-04 1.682299979840e-03 0.0 
0.0 0.0 0.0 
6.208681816844e-05 2.177831250584e-04 0.0 
2.177831250584e-04 8.555646449895e-04 0.0 
0.0 0.0 0.0 
-2.246258478644e-05 5.447334115038e-05 0.0 
5.447334115038e-05 2.179819614816e-03 0.0 
0.0 0.0 0.0 
-1.198837752318e-04 2.174581545548e-04 0.0 
2.174581545548e-04 1.865636092368e-03 0.0 
0.0 0.0 0.0 
6.140081998485e-05 1.435647658715e-05 0.0 
1.435647658715e-05 1.032796865330e-03 0.0 
0.0 0.0 0.0 
-8.928722472945e-05 1.799071869274e-04 0.0 
1.799071869274e-04 5.656264945733e-04 0.0 
0.0 0.0 0.0 
1.008155312772e-04 1.440618098106e-04 0.0 
1.440618098106e-04 6.544309523242e-04 0.0 
0.0 0.0 0.0 
-1.011588508809e-04 2.416533674175e-04 0.0 
2.416533674175e-04 1.844361608588e-03 0.0 
0.0 0.0 0.0 
-1.396085160472e-04 3.963854116686e-05 0.0 
3.963854116686e-05 9.070848351223e-05 0.0 
0.0 0.0 0.0 
-1.354381994487e-04 2.344334942054e-04 0.0 
2.344334942054e-04 1.384519606700e-03 0.0 
0.0 0.0 0.0 
1.066410273387e-04 1.429844735102e-04 0.0 
1.429844735102e-04 1.042409878333e-03 0.0 
0.0 0.0 0.0 
5.303681040569e-06 -1.854617938761e-05 0.0 
-1.854617938761e-05 1.102979981511e-04 0.0 
0.0 0.0 0.0 
-5.381015709338e-05 2.429632543590e-04 0.0 
2.429632543590e-04 2.040831687725e-03 0.0 
0.0 0.0 0.0 
-1.540252249411e-04 1.374207683540e-04 0.0 
1.374207683540e-04 1.896370837622e-03 0.0 
0.0 0.0 0.0 
1.244143367840e-04 2.664254969347e-06 0.0 
2.664254969347e-06 4.738390841008e-04 0.0 
0.0 0.0 0.0 
1.224984859378e-04 1.610457616268e-04 0.0 
1.610457616268e-04 1.041163483444e-03 0.0 
0.0 0.0 0.0 
-1.805125530622e-04 8.558513842397e-05 0.0 
8.558513842397e-05 1.807158750666e-03 0.0 
0.0 0.0 0.0 
-1.708039318858e-04 6.982120439499e-05 0.0 
6.982120439499e-05 1.866848204282e-03 0.0 
0.0 0.0 0.0 
5.099799129726e-05 1.693485991208e-04 0.0 
1.693485991208e-04 1.218355981200e-03 0.0 
0.0 0.0 0.0 
8.571248712208e-05 -1.901897725031e-05 0.0 
-1.901897725031e-05 3.470635655825e-04 0.0 
0.0 0.0 0.0 
-2.934477776939e-05 2.823268235049e-04 0.0 
2.823268235049e-04 1.254705416583e-03 0.0 
0.0 0.0 0.0 
-1.583947369306e-04 2.075800842962e-04 0.0 
2.075800842962e-04 1.628468221395e-03 0.0 
0.0 0.0 0.0 
-1.645339811024e-04 1.379871475655e-04 0.0 
1.379871475655e-04 1.936438058826e-03 0.0 
0.0 0.0 0.0 
-1.912490760149e-04 1.741496549976e-04 0.0 
1.741496549976e-04 1.716087210932e-03 0.0 
0.0 0.0 0.0 
-1.986902256583e-04 1.581871984871e-04 0.0 
1.581871984871e-04 1.682465958638e-03 0.0 
0.0 0.0 0.0 
1.068528458419e-04 2.096412922530e-04 0.0 
2.096412922530e-04 1.075097921422e-03 0.0 
0.0 0.0 0.0 
-6.659166621692e-05 2.830748979017e-04 0.0 
2.830748979017e-04 1.726784532808e-03 0.0 
0.0 0.0 0.0 
-1.100939904630e-04 3.815642646695e-05 0.0 
3.815642646695e-05 1.329711186429e-04 0.0 
0.0 0.0 0.0 
-4.876752718230e-05 2.519113687738e-04 0.0 
2.519113687738e-04 9.391589143148e-04 0.0 
0.0 0.0 0.0 
-2.557480455145e-05 2.611252402945e-04 0.0 
2.611252402945e-04 9.827915500547e-04 0.0 
0.0 0.0 0.0 
-5.548012907097e-05 2.799160141379e-04 0.0 
2.799160141379e-04 1.304919182727e-03 0.0 
0.0 0.0 0.0 
-1.315237852593e-04 2.161873863038e-04 0.0 
2.161873863038e-04 1.919531524794e-03 0.0 
0.0 0.0 0.0 
1.907993929562e-05 7.241617091488e-05 0.0 
7.241617091488e-05 2.487223200631e-04 0.0 
0.0 0.0 0.0 
1.155280690512e-04 1.221951240388e-04 0.0 
1.221951240388e-04 9.824210216078e-04 0.0 
0.0 0.0 0.0 
-1.095523322185e-04 -2.752192230188e-06 0.0 
-2.752192230188e-06 1.759757324751e-03 0.0 
0.0 0.0 0.0 
1.114644281914e-04 1.772735653152e-04 0.0 
1.772735653152e-04 6.497014864528e-04 0.0 
0.0 0.0 0.0 
1.217868189796e-04 1.024714218960e-04 0.0 
1.024714218960e-04 9.266274413995e-04 0.0 
0.0 0.0 0.0 
-9.728574821732e-06 -2.379280889591e-05 0.0 
-2.379280889591e-05 7.715952196685e-05 0.0 
0.0 0.0 0.0 
-1.381423753180e-04 1.577572913886e-04 0.0 
1.577572913886e-04 1.937727289751e-03 0.0 
0.0 0.0 0.0 
-2.024249966037e-05 -1.078986843843e-05 0.0 
-1.078986843843e-05 6.112496417865e-05 0.0 
0.0 0.0 0.0 
1.768131303570e-05 -1.672731025099e-05 0.0 
-1.672731025099e-05 1.090740111533e-04 0.0 
0.0 0.0 0.0 
-8.883039365615e-05 2.224119692737e-04 0.0 
2.224119692737e-04 5.677766188341e-04 0.0 
0.0 0.0 0.0 
6.853735687073e-05 -2.469490022736e-05 0.0 
-2.469490022736e-05 2.915936611967e-04 0.0 
0.0 0.0 0.0 
-1.466939612210e-04 1.561265771709e-04 0.0 
1.561265771709e-04 1.978656160333e-03 0.0 
0.0 0.0 0.0 
5.331943961595e-05 -4.093761944816e-05 0.0 
-4.093761944816e-05 2.751700739185e-04 0.0 
0.0 0.0 0.0 
8.044021857945e-06 1.800389443586e-04 0.0 
1.800389443586e-04 4.859603140948e-04 0.0 
0.0 0.0 0.0 
3.141252147865e-05 -4.158220597240e-05 0.0 
-4.158220597240e-05 2.251258344161e-04 0.0 
0.0 0.0 0.0 
2.456286741581e-05 -2.631594747315e-05 0.0 
-2.631594747315e-05 1.858866267515e-04 0.0 
0.0 0.0 0.0 
1.113177439462e-04 1.798634540316e-04 0.0 
1.798634540316e-04 1.100768755961e-03 0.0 
0.0 0.0 0.0 
-1.848238456086e-04 1.973203403921e-04 0.0 
1.973203403921e-04 1.659908796207e-03 0.0 
0.0 0.0 0.0 
3.844100135297e-05 4.429486438790e-05 0.0 
4.429486438790e-05 1.154860927667e-03 0.0 
0.0 0.0 0.0 
-1.094965520351e-04 2.356274396695e-05 0.0 
2.356274396695e-05 6.340358103052e-05 0.0 
0.0 0.0 0.0 
4.373958728165e-05 1.824163697326e-04 0.0 
1.824163697326e-04 5.419549433492e-04 0.0 
0.0 0.0 0.0 
1.221532161384e-04 1.855302038787e-04 0.0 
1.855302038787e-04 7.189172841591e-04 0.0 
0.0 0.0 0.0 
-1.047659583058e-04 2.489521088717e-04 0.0 
2.489521088717e-04 1.270424904246e-03 0.0 
0.0 0.0 0.0 
1.306234298466e-04 1.392190109319e-04 0.0 
1.392190109319e-04 9.812353861922e-04 0.0 
0.0 0.0 0.0 
3.633288290184e-05 6.452616578163e-05 0.0 
6.452616578163e-05 1.187561225618e-03 0.0 
0.0 0.0 0.0 
-1.516178154655e-04 2.010644731143e-04 0.0 
2.010644731143e-04 1.880733351876e-03 0.0 
0.0 0.0 0.0 
8.439153493844e-05 1.041849098975e-04 0.0 
1.041849098975e-04 5.132617419892e-04 0.0 
0.0 0.0 0.0 
9.628922572591e-05 1.653537465216e-04 0.0 
1.653537465216e-04 1.100868765099e-03 0.0 
0.0 0.0 0.0 
9.459750514118e-05 1.126099332439e-05 0.0 
1.126099332439e-05 8.101708169410e-04 0.0 
0.0 0.0 0.0 
-8.299304706549e-05 2.775492408374e-04 0.0 
2.775492408374e-04 1.405624201658e-03 0.0 
0.0 0.0 0.0 
-1.467727664145e-04 1.643750522023e-04 0.0 
1.643750522023e-04 1.892514338873e-03 0.0 
0.0 0.0 0.0 
1.905523018175e-05 3.029455935600e-04 0.0 
3.029455935600e-04 1.519887820864e-03 0.0 
0.0 0.0 0.0 
1.111359179247e-04 1.556542160025e-04 0.0 
1.556542160025e-04 7.233676240159e-04 0.0 
0.0 0.0 0.0 
2.154410803312e-06 1.649177508032e-04 0.0 
1.649177508032e-04 5.804287748650e-04 0.0 
0.0 0.0 0.0 
-1.801793153327e-04 1.883953756458e-04 0.0 
1.883953756458e-04 1.751631043935e-03 0.0 
0.0 0.0 0.0 
-2.585285307322e-05 1.334591814829e-04 0.0 
1.334591814829e-04 2.196298178120e-03 0.0 
0.0 0.0 0.0 
-2.388856334468e-05 2.771112233396e-04 0.0 
2.771112233396e-04 1.255341026822e-03 0.0 
0.0 0.0 0.0 
1.299027099853e-04 1.645602012901e-04 0.0 
1.645602012901e-04 8.541298321898e-04 0.0 
0.0 0.0 0.0 
-1.053502146142e-04 3.838122867075e-06 0.0 
3.838122867075e-06 1.820988906481e-03 0.0 
0.0 0.0 0.0 
-7.974918181053e-06 -4.328165440009e-05 0.0 
-4.328165440009e-05 1.676545068754e-04 0.0 
0.0 0.0 0.0 
-1.773151103946e-04 1.503425050913e-04 0.0 
1.503425050913e-04 1.719758016318e-03 0.0 
0.0 0.0 0.0 
9.634766777444e-05 1.414541417485e-04 0.0 
1.414541417485e-04 5.075719584640e-04 0.0 
0.0 0.0 0.0 
5.307063406113e-05 7.859491132418e-05 0.0 
7.859491132418e-05 3.137554285080e-04 0.0 
0.0 0.0 0.0 
1.374785650898e-05 -3.577757297325e-05 0.0 
-3.577757297325e-05 1.861012108391e-04 0.0 
0.0 0.0 0.0 
-1.270637988121e-04 1.515606843719e-04 0.0 
1.515606843719e-04 1.979162809578e-03 0.0 
0.0 0.0 0.0 
-1.734835359913e-04 2.081682026605e-04 0.0 
2.081682026605e-04 1.692206011978e-03 0.0 
0.0 0.0 0.0 
5.518947153593e-05 2.317737535154e-04 0.0 
2.317737535154e-04 7.898612206045e-04 0.0 
0.0 0.0 0.0 
-1.335834035183e-04 1.485668686748e-04 0.0 
1.485668686748e-04 2.017822549542e-03 0.0 
0.0 0.0 0.0 
-1.344646977510e-04 2.255947822929e-04 0.0 
2.255947822929e-04 1.864131093033e-03 0.0 
0.0 0.0 0.0 
-1.091540104385e-04 2.684157304502e-04 0.0 
2.684157304502e-04 1.499008447270e-03 0.0 
0.0 0.0 0.0 
2.593421409314e-05 8.189728126045e-05 0.0 
8.189728126045e-05 1.194871129929e-03 0.0 
0.0 0.0 0.0 
1.474591048678e-04 1.756886835282e-04 0.0 
1.756886835282e-04 8.480120584125e-04 0.0 
0.0 0.0 0.0 
-1.319482931330e-04 2.534732057155e-04 0.0 
2.534732057155e-04 1.584690659363e-03 0.0 
0.0 0.0 0.0 
6.977922679008e-05 2.234552633943e-04 0.0 
2.234552633943e-04 9.207141157728e-04 0.0 
0.0 0.0 0.0 
1.268273744137e-04 1.762399512181e-04 0.0 
1.762399512181e-04 9.256639612201e-04 0.0 
0.0 0.0 0.0 
8.461374906976e-05 8.602396373490e-05 0.0 
8.602396373490e-05 3.736711990157e-04 0.0 
0.0 0.0 0.0 
-1.690756588330e-04 4.485082377837e-05 0.0 
4.485082377837e-05 1.779035708246e-03 0.0 
0.0 0.0 0.0 
1.249568337220e-04 1.405633403190e-04 0.0 
1.405633403190e-04 7.142886475067e-04 0.0 
0.0 0.0 0.0 
1.041666641894e-04 1.293068499149e-05 0.0 
1.293068499149e-05 4.045063289486e-04 0.0 
0.0 0.0 0.0 
-1.352937629703e-04 1.919327301920e-04 0.0 
1.919327301920e-04 1.882316988515e-03 0.0 
0.0 0.0 0.0 
-1.778210374519e-04 8.993700162717e-06 0.0 
8.993700162717e-06 9.845857138524e-05 0.0 
0.0 0.0 0.0 
-1.930567001857e-04 1.551245986734e-04 0.0 
1.551245986734e-04 1.766439254185e-03 0.0 
0.0 0.0 0.0 
1.147346880415e-04 1.227275916052e-04 0.0 
1.227275916052e-04 5.018820366132e-04 0.0 
0.0 0.0 0.0 
3.600596780196e-05 1.439836791678e-04 0.0 
1.439836791678e-04 5.473321422209e-04 0.0 
0.0 0.0 0.0 
6.940200532823e-05 4.795294396339e-05 0.0 
4.795294396339e-05 3.802412370617e-04 0.0 
0.0 0.0 0.0 
-1.536503075439e-04 2.012273057518e-04 0.0 
2.012273057518e-04 1.730465953270e-03 0.0 
0.0 0.0 0.0 
-1.749389952221e-05 -3.567165090140e-05 0.0 
-3.567165090140e-05 1.180794342346e-04 0.0 
0.0 0.0 0.0 
-4.602709766055e-05 2.686838353059e-04 0.0 
2.686838353059e-04 1.092985298617e-03 0.0 
0.0 0.0 0.0 
1.428688034228e-04 1.867275163393e-04 0.0 
1.867275163393e-04 9.207659479458e-04 0.0 
0.0 0.0 0.0 
-1.657055760088e-04 1.865631148951e-04 0.0 
1.865631148951e-04 1.695888724438e-03 0.0 
0.0 0.0 0.0 
-1.699777098879e-04 6.513266479964e-05 0.0 
6.513266479964e-05 1.819323954916e-03 0.0 
0.0 0.0 0.0 
-6.930586485154e-06 5.339295370316e-05 0.0 
5.339295370316e-05 2.004139262886e-04 0.0 
0.0 0.0 0.0 
1.209966999733e-04 4.292225114649e-05 0.0 
4.292225114649e-05 3.997850821420e-04 0.0 
0.0 0.0 0.0 
9.049251573900e-05 -6.428852999059e-06 0.0 
-6.428852999059e-06 3.585869628602e-04 0.0 
0.0 0.0 0.0 
-7.191571435172e-05 2.532649294447e-04 0.0 
2.532649294447e-04 1.049000864096e-03 0.0 
0.0 0.0 0.0 
-1.651906430623e-04 1.737669968336e-04 0.0 
1.737669968336e-04 1.890915977459e-03 0.0 
0.0 0.0 0.0 
-4.959189490306e-05 2.641819926401e-04 0.0 
2.641819926401e-04 1.093679033250e-03 0.0 
0.0 0.0 0.0 
1.409467980651e-04 1.429375958875e-04 0.0 
1.429375958875e-04 6.360790176483e-04 0.0 
0.0 0.0 0.0 
1.282905412676e-04 1.595579530835e-04 0.0 
1.595579530835e-04 6.405913120884e-04 0.0 
0.0 0.0 0.0 
-5.174550501419e-07 3.111111964120e-05 0.0 
3.111111964120e-05 2.635309803207e-04 0.0 
0.0 0.0 0.0 
9.495269025983e-05 2.308062008447e-04 0.0 
2.308062008447e-04 8.908231184541e-04 0.0 
0.0 0.0 0.0 
-3.715164644313e-05 1.365401263460e-04 0.0 
1.365401263460e-04 4.330371930212e-04 0.0 
0.0 0.0 0.0 
-3.762629497461e-05 2.378673698329e-04 0.0 
2.378673698329e-04 2.116791157049e-03 0.0 
0.0 0.0 0.0 
-3.797220677704e-05 2.800517570150e-04 0.0 
2.800517570150e-04 2.061187194743e-03 0.0 
0.0 0.0 0.0 
7.622566253751e-07 2.806610052455e-04 0.0 
2.806610052455e-04 1.211828342901e-03 0.0 
0.0 0.0 0.0 
9.294403633842e-05 1.136404470901e-04 0.0 
1.136404470901e-04 4.374625443895e-04 0.0 
0.0 0.0 0.0 
3.473508805740e-05 1.152112889704e-04 0.0 
1.152112889704e-04 4.657581998286e-04 0.0 
0.0 0.0 0.0 
-1.057870248631e-04 2.591596961361e-04 0.0 
2.591596961361e-04 1.543461222276e-03 0.0 
0.0 0.0 0.0 
5.947304915965e-05 9.432215696179e-05 0.0 
9.432215696179e-05 4.511820961624e-04 0.0 
0.0 0.0 0.0 
1.071074173147e-04 2.207472160573e-05 0.0 
2.207472160573e-05 3.540621400613e-04 0.0 
0.0 0.0 0.0 
-9.035954889447e-05 2.696989262591e-04 0.0 
2.696989262591e-04 1.407078325924e-03 0.0 
0.0 0.0 0.0 
-4.660502925091e-05 8.036858438677e-05 0.0 
8.036858438677e-05 2.177463900922e-03 0.0 
0.0 0.0 0.0 
1.154331324047e-04 1.502504538641e-04 0.0 
1.502504538641e-04 5.729668650591e-04 0.0 
0.0 0.0 0.0 
1.151710543295e-04 2.283818559751e-04 0.0 
2.283818559751e-04 1.072815270020e-03 0.0 
0.0 0.0 0.0 
5.475572083968e-06 1.561067794410e-04 0.0 
1.561067794410e-04 4.023805126163e-04 0.0 
0.0 0.0 0.0 
3.157279679833e-05 2.233337321118e-04 0.0 
2.233337321118e-04 1.365277612610e-03 0.0 
0.0 0.0 0.0 
7.119240633324e-05 1.345061822421e-04 0.0 
1.345061822421e-04 4.446156731073e-04 0.0 
0.0 0.0 0.0 
-5.732311352169e-05 2.798473877025e-04 0.0 
2.798473877025e-04 1.355973602389e-03 0.0 
0.0 0.0 0.0 
3.721646077093e-05 5.503686984102e-05 0.0 
5.503686984102e-05 2.565999157058e-04 0.0 
0.0 0.0 0.0 
1.534489455659e-04 1.357172703916e-04 0.0 
1.357172703916e-04 8.712057806934e-04 0.0 
0.0 0.0 0.0 
1.359847788689e-04 1.683234843823e-04 0.0 
1.683234843823e-04 7.097951570609e-04 0.0 
0.0 0.0 0.0 
1.138704254084e-04 1.509569538631e-05 0.0 
1.509569538631e-05 3.714347961354e-04 0.0 
0.0 0.0 0.0 
-1.609401694712e-04 2.302057132800e-04 0.0 
2.302057132800e-04 1.625577160942e-03 0.0 
0.0 0.0 0.0 
-2.293988036284e-05 3.374034919042e-04 0.0 
3.374034919042e-04 1.950595023865e-03 0.0 
0.0 0.0 0.0 
1.305160299343e-04 1.325869971896e-04 0.0 
1.325869971896e-04 5.681807558260e-04 0.0 
0.0 0.0 0.0 
1.325997849653e-04 1.660770724617e-04 0.0 
1.660770724617e-04 9.237237222939e-04 0.0 
0.0 0.0 0.0 
2.572487103336e-07 1.109115910357e-04 0.0 
1.109115910357e-04 4.085781060454e-04 0.0 
0.0 0.0 0.0 
-1.326187524805e-04 6.353347912553e-05 0.0 
6.353347912553e-05 1.930895302472e-03 0.0 
0.0 0.0 0.0 
1.363803003305e-04 1.183032043354e-04 0.0 
1.183032043354e-04 9.245696786626e-04 0.0 
0.0 0.0 0.0 
-2.777358000028e-06 1.888782673538e-04 0.0 
1.888782673538e-04 6.754008746497e-04 0.0 
0.0 0.0 0.0 
-1.458489606161e-04 4.607600462009e-05 0.0 
4.607600462009e-05 1.908439293913e-03 0.0 
0.0 0.0 0.0 
-5.931512885526e-06 3.678514047898e-04 0.0 
3.678514047898e-04 1.812958270585e-03 0.0 
0.0 0.0 0.0 
1.195282766355e-04 1.319763922151e-04 0.0 
1.319763922151e-04 1.002554888202e-03 0.0 
0.0 0.0 0.0 
-3.000949684573e-05 3.209575039468e-04 0.0 
3.209575039468e-04 1.990830801009e-03 0.0 
0.0 0.0 0.0 
-1.607467364548e-04 6.464716212593e-05 0.0 
6.464716212593e-05 1.898361558345e-03 0.0 
0.0 0.0 0.0 
-1.096347815469e-04 2.566776984831e-04 0.0 
2.566776984831e-04 1.777148995315e-03 0.0 
0.0 0.0 0.0 
-4.079936619594e-05 1.815532206115e-04 0.0 
1.815532206115e-04 6.200054699972e-04 0.0 
0.0 0.0 0.0 
-1.714525955413e-04 2.229770558158e-04 0.0 
2.229770558158e-04 1.591695777491e-03 0.0 
0.0 0.0 0.0 
-1.339530495221e-04 2.375686586515e-04 0.0 
2.375686586515e-04 1.586969504086e-03 0.0 
0.0 0.0 0.0 
-1.493850401589e-04 2.354758811090e-04 0.0 
2.354758811090e-04 1.660772111799e-03 0.0 
0.0 0.0 0.0 
2.110556034607e-06 2.691696247848e-04 0.0 
2.691696247848e-04 1.154041468468e-03 0.0 
0.0 0.0 0.0 
4.076912889062e-06 3.675475465957e-04 0.0 
3.675475465957e-04 1.719749651387e-03 0.0 
0.0 0.0 0.0 
-1.661261700773e-04 9.277887386195e-05 0.0 
9.277887386195e-05 1.848304635098e-03 0.0 
0.0 0.0 0.0 
-1.997489312271e-04 1.369492227904e-04 0.0 
1.369492227904e-04 1.728654451856e-03 0.0 
0.0 0.0 0.0 
1.164426209364e-04 1.281882912097e-04 0.0 
1.281882912097e-04 6.454113539132e-04 0.0 
0.0 0.0 0.0 
4.771376229029e-05 -2.660323047193e-05 0.0 
-2.660323047193e-05 2.388191264797e-04 0.0 
0.0 0.0 0.0 
-1.937578876855e-04 1.838762053117e-04 0.0 
1.838762053117e-04 1.625692852754e-03 0.0 
0.0 0.0 0.0 
4.148709508689e-05 2.048370726602e-04 0.0 
2.048370726602e-04 6.311484331332e-04 0.0 
0.0 0.0 0.0 
-1.055260638390e-04 5.614667596551e-07 0.0 
5.614667596551e-07 1.765460172946e-03 0.0 
0.0 0.0 0.0 
9.753015050573e-05 -1.097233526850e-05 0.0 
-1.097233526850e-05 3.753941375420e-04 0.0 
0.0 0.0 0.0 
1.031359259573e-04 1.156829002260e-04 0.0 
1.156829002260e-04 5.779619714079e-04 0.0 
0.0 0.0 0.0 
-1.279342728968e-04 1.840581313874e-04 0.0 
1.840581313874e-04 1.931859532601e-03 0.0 
0.0 0.0 0.0 
3.290697639402e-05 1.716055482352e-04 0.0 
1.716055482352e-04 6.355122320258e-04 0.0 
0.0 0.0 0.0 
-1.433340589703e-04 2.303433580474e-04 0.0 
2.303433580474e-04 1.550645089592e-03 0.0 
0.0 0.0 0.0 
1.466696775148e-04 1.757205112692e-04 0.0 
1.757205112692e-04 9.216078868339e-04 0.0 
0.0 0.0 0.0 
1.502776369338e-04 5.401976636469e-05 0.0 
5.401976636469e-05 6.823057395879e-04 0.0 
0.0 0.0 0.0 
2.006909282559e-05 3.434663805241e-04 0.0 
3.434663805241e-04 1.587636341575e-03 0.0 
0.0 0.0 0.0 
-1.598010962879e-04 2.417435637036e-04 0.0 
2.417435637036e-04 1.481997506897e-03 0.0 
0.0 0.0 0.0 
1.120902988372e-04 5.447265185349e-05 0.0 
5.447265185349e-05 3.868391011432e-04 0.0 
0.0 0.0 0.0 
1.104128432723e-04 -1.402897257191e-05 0.0 
-1.402897257191e-05 4.548240925093e-04 0.0 
0.0 0.0 0.0 
-5.318406647248e-05 2.194675594585e-04 0.0 
2.194675594585e-04 8.238999739858e-04 0.0 
0.0 0.0 0.0 
4.000103612567e-06 2.206078806398e-04 0.0 
2.206078806398e-04 6.718893277886e-04 0.0 
0.0 0.0 0.0 
-1.129005987156e-04 2.394910194874e-04 0.0 
2.394910194874e-04 1.902358630680e-03 0.0 
0.0 0.0 0.0 
-7.717863032175e-05 2.769359426334e-04 0.0 
2.769359426334e-04 1.451773292303e-03 0.0 
0.0 0.0 0.0 
-1.109395315249e-04 2.612059143615e-04 0.0 
2.612059143615e-04 1.269417819573e-03 0.0 
0.0 0.0 0.0 
-1.510034109597e-04 2.204419867998e-04 0.0 
2.204419867998e-04 1.516515256103e-03 0.0 
0.0 0.0 0.0 
3.040945399380e-05 2.811260341654e-04 0.0 
2.811260341654e-04 1.441383277601e-03 0.0 
0.0 0.0 0.0 
4.812671154997e-05 2.624647556010e-04 0.0 
2.624647556010e-04 1.375623191670e-03 0.0 
0.0 0.0 0.0 
-9.776162298580e-05 2.335338438504e-04 0.0 
2.335338438504e-04 1.903475668638e-03 0.0 
0.0 0.0 0.0 
-1.578165734850e-04 1.645294013979e-04 0.0 
1.645294013979e-04 1.936697832070e-03 0.0 
0.0 0.0 0.0 
1.393371950191e-04 3.934046815839e-05 0.0 
3.934046815839e-05 6.628281674077e-04 0.0 
0.0 0.0 0.0 
-1.586158144740e-05 2.586421400142e-04 0.0 
2.586421400142e-04 1.038765143433e-03 0.0 
0.0 0.0 0.0 
7.896499387350e-05 7.545682688081e-05 0.0 
7.545682688081e-05 4.435951192139e-04 0.0 
0.0 0.0 0.0 
1.009297452719e-04 8.742137224738e-05 0.0 
8.742137224738e-05 5.073651393117e-04 0.0 
0.0 0.0 0.0 
-5.047633970434e-05 2.805580520532e-04 0.0 
2.805580520532e-04 1.355831594906e-03 0.0 
0.0 0.0 0.0 
1.424840109225e-04 1.250776446847e-04 0.0 
1.250776446847e-04 8.635106265593e-04 0.0 
0.0 0.0 0.0 
1.097736634446e-04 -6.366383335535e-06 0.0 
-6.366383335535e-06 5.497281135292e-04 0.0 
0.0 0.0 0.0 
-1.055431854483e-04 2.029393311724e-04 0.0 
2.029393311724e-04 1.970192641173e-03 0.0 
0.0 0.0 0.0 
9.560680429677e-05 2.150131342072e-05 0.0 
2.150131342072e-05 3.920666115964e-04 0.0 
0.0 0.0 0.0 
2.576136076504e-05 2.550549360116e-04 0.0 
2.550549360116e-04 1.052800759032e-03 0.0 
0.0 0.0 0.0 
-1.146470813416e-04 2.550802162957e-04 0.0 
2.550802162957e-04 1.501622262919e-03 0.0 
0.0 0.0 0.0 
1.705188246559e-05 2.481965417050e-04 0.0 
2.481965417050e-04 9.918919074885e-04 0.0 
0.0 0.0 0.0 
-3.550243239125e-05 3.028941340641e-04 0.0 
3.028941340641e-04 2.027393783891e-03 0.0 
0.0 0.0 0.0 
-3.571051219053e-05 2.603286553745e-04 0.0 
2.603286553745e-04 2.088724397360e-03 0.0 
0.0 0.0 0.0 
-7.173981063813e-05 2.428246004041e-04 0.0 
2.428246004041e-04 2.040950375443e-03 0.0 
0.0 0.0 0.0 
1.385048136977e-04 5.394868289554e-05 0.0 
5.394868289554e-05 7.307503714225e-04 0.0 
0.0 0.0 0.0 
-1.134685982260e-04 1.463040085484e-04 0.0 
1.463040085484e-04 2.018029660190e-03 0.0 
0.0 0.0 0.0 
6.717678673773e-06 2.013352952674e-04 0.0 
2.013352952674e-04 5.761858647599e-04 0.0 
0.0 0.0 0.0 
1.171268177491e-04 1.002314424691e-04 0.0 
1.002314424691e-04 5.732266092746e-04 0.0 
0.0 0.0 0.0 
3.892212806300e-05 3.861215717225e-05 0.0 
3.861215717225e-05 3.206621246308e-04 0.0 
0.0 0.0 0.0 
-7.182016368623e-05 2.703642101556e-04 0.0 
2.703642101556e-04 1.203120669301e-03 0.0 
0.0 0.0 0.0 
-1.600508252044e-04 3.219724208862e-05 0.0 
3.219724208862e-05 1.782066088269e-03 0.0 
0.0 0.0 0.0 
-1.422165572172e-04 6.325204748024e-05 0.0 
6.325204748024e-05 1.898451969987e-03 0.0 
0.0 0.0 0.0 
5.600061670474e-05 2.162393534369e-04 0.0 
2.162393534369e-04 1.299741912129e-03 0.0 
0.0 0.0 0.0 
-7.936034163813e-05 2.620362767811e-04 0.0 
2.620362767811e-04 1.819211450255e-03 0.0 
0.0 0.0 0.0 
-1.684935873855e-04 1.693432880624e-04 0.0 
1.693432880624e-04 1.754470263843e-03 0.0 
0.0 0.0 0.0 
-1.224192259062e-04 2.440281167380e-04 0.0 
2.440281167380e-04 1.626237373183e-03 0.0 
0.0 0.0 0.0 
7.163602320270e-05 6.081198686982e-05 0.0 
6.081198686982e-05 3.164786524255e-04 0.0 
0.0 0.0 0.0 
-3.446739755952e-05 -3.100115958838e-05 0.0 
-3.100115958838e-05 1.270917045193e-04 0.0 
0.0 0.0 0.0 
1.109430806279e-04 2.090005185889e-04 0.0 
2.090005185889e-04 8.024010429197e-04 0.0 
0.0 0.0 0.0 
2.968205984466e-05 2.596891101520e-04 0.0 
2.596891101520e-04 1.114369060609e-03 0.0 
0.0 0.0 0.0 
8.985317306065e-05 2.068649917638e-04 0.0 
2.068649917638e-04 8.942683861377e-04 0.0 
0.0 0.0 0.0 
-9.245395817248e-05 1.729988843910e-04 0.0 
1.729988843910e-04 2.846442770574e-04 0.0 
0.0 0.0 0.0 
-1.003864529224e-04 6.053989328247e-06 0.0 
6.053989328247e-06 1.818303539677e-03 0.0 
0.0 0.0 0.0 
3.256255642148e-05 -4.321858826505e-05 0.0 
-4.321858826505e-05 2.214837664221e-04 0.0 
0.0 0.0 0.0 
7.301491272993e-05 1.616922880588e-04 0.0 
1.616922880588e-04 5.202791057843e-04 0.0 
0.0 0.0 0.0 
0.0 2.225330844663e-04 0.0 
2.225330844663e-04 1.377190525146e-03 0.0 
0.0 0.0 0.0 
1.121194715761e-04 2.017819115267e-04 0.0 
2.017819115267e-04 1.072444791619e-03 0.0 
0.0 0.0 0.0 
-1.807364716419e-04 1.132275323000e-04 0.0 
1.132275323000e-04 1.731482921802e-03 0.0 
0.0 0.0 0.0 
2.301875656130e-05 -6.884044859714e-07 0.0 
-6.884044859714e-07 1.534286869498e-04 0.0 
0.0 0.0 0.0 
-1.292197328029e-06 2.795828502198e-04 0.0 
2.795828502198e-04 1.152628676301e-03 0.0 
0.0 0.0 0.0 
1.023508487048e-04 1.817017179683e-04 0.0 
1.817017179683e-04 8.062850975936e-04 0.0 
0.0 0.0 0.0 
-1.609191512599e-04 2.172965138151e-04 0.0 
2.172965138151e-04 1.728454616424e-03 0.0 
0.0 0.0 0.0 
-1.543265597359e-05 3.520569426240e-04 0.0 
3.520569426240e-04 1.905251953680e-03 0.0 
0.0 0.0 0.0 
-1.658232394053e-04 1.949500534281e-04 0.0 
1.949500534281e-04 1.594839966400e-03 0.0 
0.0 0.0 0.0 
-1.016008740679e-04 2.684947498696e-04 0.0 
2.684947498696e-04 1.542244453821e-03 0.0 
0.0 0.0 0.0 
1.204101013039e-04 6.465422212119e-06 0.0 
6.465422212119e-06 5.477482517777e-04 0.0 
0.0 0.0 0.0 
-1.179871544671e-04 1.777301091221e-04 0.0 
1.777301091221e-04 1.977666903410e-03 0.0 
0.0 0.0 0.0 
1.476102001661e-04 6.759211268029e-05 0.0 
6.759211268029e-05 7.511933790185e-04 0.0 
0.0 0.0 0.0 
-1.364836628415e-05 3.619121379808e-04 0.0 
3.619121379808e-04 1.860331495980e-03 0.0 
0.0 0.0 0.0 
0.0 2.964269056690e-04 0.0 
2.964269056690e-04 2.008773237928e-03 0.0 
0.0 0.0 0.0 
0.0 2.149458781736e-04 0.0 
2.149458781736e-04 2.130750386885e-03 0.0 
0.0 0.0 0.0 
0.0 2.555978255906e-04 0.0 
2.555978255906e-04 2.076574423092e-03 0.0 
0.0 0.0 0.0 
-1.335722439234e-04 2.285014162163e-04 0.0 
2.285014162163e-04 1.700792874430e-03 0.0 
0.0 0.0 0.0 
-1.369322173237e-04 1.817938217225e-04 0.0 
1.817938217225e-04 1.977217557473e-03 0.0 
0.0 0.0 0.0 
-7.717845665001e-05 2.584557345923e-04 0.0 
2.584557345923e-04 1.882829699362e-03 0.0 
0.0 0.0 0.0 
1.992027138842e-05 2.670891705702e-04 0.0 
2.670891705702e-04 9.895782893685e-04 0.0 
0.0 0.0 0.0 
-1.140133789279e-05 2.709520663193e-04 0.0 
2.709520663193e-04 1.037196176191e-03 0.0 
0.0 0.0 0.0 
1.027805577301e-04 -1.200734168837e-05 0.0 
-1.200734168837e-05 5.144767492771e-04 0.0 
0.0 0.0 0.0 
-1.238940817438e-04 2.076026700327e-04 0.0 
2.076026700327e-04 1.969603025336e-03 0.0 
0.0 0.0 0.0 
-4.237777754268e-07 3.694923521281e-04 0.0 
3.694923521281e-04 1.765338726440e-03 0.0 
0.0 0.0 0.0 
-1.050103047396e-04 1.706221531169e-04 0.0 
1.706221531169e-04 2.019222946851e-03 0.0 
0.0 0.0 0.0 
1.208297139390e-04 1.885799590748e-04 0.0 
1.885799590748e-04 9.986347725366e-04 0.0 
0.0 0.0 0.0 
-1.242239608784e-04 1.737477147096e-04 0.0 
1.737477147096e-04 2.018885848336e-03 0.0 
0.0 0.0 0.0 
2.680574124403e-05 2.747854893120e-04 0.0 
2.747854893120e-04 1.362052631327e-03 0.0 
0.0 0.0 0.0 
5.163606663117e-05 2.610706965929e-04 0.0 
2.610706965929e-04 1.014251745175e-03 0.0 
0.0 0.0 0.0 
-7.078699372853e-05 2.690218854914e-04 0.0 
2.690218854914e-04 1.203258410160e-03 0.0 
0.0 0.0 0.0 
3.887480581377e-05 1.303766834456e-04 0.0 
1.303766834456e-04 3.840743128656e-04 0.0 
0.0 0.0 0.0 
-3.163555573915e-05 1.397567581005e-04 0.0 
1.397567581005e-04 2.151911593201e-03 0.0 
0.0 0.0 0.0 
4.043003125420e-05 2.524024629189e-04 0.0 
2.524024629189e-04 8.887436821106e-04 0.0 
0.0 0.0 0.0 
3.964789801136e-06 3.116284163434e-04 0.0 
3.116284163434e-04 1.635803187933e-03 0.0 
0.0 0.0 0.0 
1.122205316479e-04 1.372865635166e-07 0.0 
1.372865635166e-07 5.126029469946e-04 0.0 
0.0 0.0 0.0 
8.277301620097e-05 -2.499309345886e-05 0.0 
-2.499309345886e-05 3.357402544175e-04 0.0 
0.0 0.0 0.0 
3.279732197270e-05 1.998287097789e-04 0.0 
1.998287097789e-04 1.288136394767e-03 0.0 
0.0 0.0 0.0 
7.048497211493e-05 1.868124623604e-04 0.0 
1.868124623604e-04 6.021932250595e-04 0.0 
0.0 0.0 0.0 
0.0 3.139232296400e-04 0.0 
3.139232296400e-04 1.970891514027e-03 0.0 
0.0 0.0 0.0 
-4.280785748134e-05 2.236043340511e-04 0.0 
2.236043340511e-04 2.071613003465e-03 0.0 
0.0 0.0 0.0 
-5.266349287669e-05 2.802581873094e-04 0.0 
2.802581873094e-04 1.407852525079e-03 0.0 
0.0 0.0 0.0 
-3.398061954074e-05 -2.414859387165e-05 0.0 
-2.414859387165e-05 7.494108315487e-05 0.0 
0.0 0.0 0.0 
0.0 3.380197253723e-04 0.0 
3.380197253723e-04 1.883437259031e-03 0.0 
0.0 0.0 0.0 
2.999691602312e-05 2.320774669014e-04 0.0 
2.320774669014e-04 1.339342529285e-03 0.0 
0.0 0.0 0.0 
9.780171252638e-05 -9.660456132016e-07 0.0 
-9.660456132016e-07 3.320343198883e-04 0.0 
0.0 0.0 0.0 
1.252114045416e-04 1.795705019962e-04 0.0 
1.795705019962e-04 9.969644264971e-04 0.0 
0.0 0.0 0.0 
2.140707862974e-05 3.295206165438e-04 0.0 
3.295206165438e-04 1.546943739402e-03 0.0 
0.0 0.0 0.0 
-5.687355168471e-05 -9.756514269788e-06 0.0 
-9.756514269788e-06 4.303886579793e-05 0.0 
0.0 0.0 0.0 
4.784172330252e-05 2.569649286505e-04 0.0 
2.569649286505e-04 9.511110875309e-04 0.0 
0.0 0.0 0.0 
-7.641243583589e-05 2.731219315731e-04 0.0 
2.731219315731e-04 1.500588557413e-03 0.0 
0.0 0.0 0.0 
-2.634170476923e-05 2.831829876238e-04 0.0 
2.831829876238e-04 1.310799719557e-03 0.0 
0.0 0.0 0.0 
-8.328914695288e-05 2.719027505430e-04 0.0 
2.719027505430e-04 1.452508713057e-03 0.0 
0.0 0.0 0.0 
4.360606153408e-05 1.570329163461e-04 0.0 
1.570329163461e-04 4.594129352979e-04 0.0 
0.0 0.0 0.0 
0.0 3.495191367713e-04 0.0 
3.495191367713e-04 1.789058366214e-03 0.0 
0.0 0.0 0.0 
1.282912044294e-04 1.133372458296e-04 0.0 
1.133372458296e-04 6.408117178722e-04 0.0 
0.0 0.0 0.0 
-1.727101098692e-05 4.429503197056e-06 0.0 
4.429503197056e-06 2.086774617416e-04 0.0 
0.0 0.0 0.0 
4.190698618389e-05 8.914796474821e-05 0.0 
8.914796474821e-05 1.197787819413e-03 0.0 
0.0 0.0 0.0 
-5.710250742696e-05 -2.257559320700e-05 0.0 
-2.257559320700e-05 8.122686546641e-05 0.0 
0.0 0.0 0.0 
-1.278462247495e-04 2.448972127490e-04 0.0 
2.448972127490e-04 1.422416296059e-03 0.0 
0.0 0.0 0.0 
1.525653536416e-05 -2.715420928901e-05 0.0 
-2.715420928901e-05 1.658314228066e-04 0.0 
0.0 0.0 0.0 
-1.788132215679e-04 1.492514982016e-04 0.0 
1.492514982016e-04 1.630013854583e-03 0.0 
0.0 0.0 0.0 
3.065241669775e-05 2.598743469565e-04 0.0 
2.598743469565e-04 1.411996848639e-03 0.0 
0.0 0.0 0.0 
0.0 3.472776224131e-04 0.0 
3.472776224131e-04 1.695329579237e-03 0.0 
0.0 0.0 0.0 
-1.464762862492e-04 2.187417721280e-04 0.0 
2.187417721280e-04 1.663081321288e-03 0.0 
0.0 0.0 0.0 
-1.693227720323e-05 -3.284475811468e-05 0.0 
-3.284475811468e-05 1.244989028866e-04 0.0 
0.0 0.0 0.0 
-2.729104633814e-05 2.678425757184e-05 0.0 
2.678425757184e-05 1.589267991260e-04 0.0 
0.0 0.0 0.0 
-1.667745706291e-05 -2.908609840396e-05 0.0 
-2.908609840396e-05 1.799242916438e-04 0.0 
0.0 0.0 0.0 
8.461864039244e-05 8.393287392997e-05 0.0 
8.393287392997e-05 1.024375764410e-03 0.0 
0.0 0.0 0.0 
-1.581426761206e-04 4.069047297661e-05 0.0 
4.069047297661e-05 1.771158039700e-03 0.0 
0.0 0.0 0.0 
-1.973315302609e-04 1.199207115204e-04 0.0 
1.199207115204e-04 1.770682349881e-03 0.0 
0.0 0.0 0.0 
0.0 3.330687113863e-04 0.0 
3.330687113863e-04 1.608785565502e-03 0.0 
0.0 0.0 0.0 
-1.494877602325e-04 2.855936391444e-05 0.0 
2.855936391444e-05 1.773870349827e-03 0.0 
0.0 0.0 0.0 
-3.371901332760e-05 2.140015805945e-04 0.0 
2.140015805945e-04 2.139964921036e-03 0.0 
0.0 0.0 0.0 
4.607870371021e-05 2.797122536201e-04 0.0 
2.797122536201e-04 1.335551654297e-03 0.0 
0.0 0.0 0.0 
-1.372666907580e-04 4.566720553062e-05 0.0 
4.566720553062e-05 1.874960433156e-03 0.0 
0.0 0.0 0.0 
-5.413048925207e-06 2.385301499939e-04 0.0 
2.385301499939e-04 7.672225149140e-04 0.0 
0.0 0.0 0.0 
1.354089448795e-04 1.979667091769e-04 0.0 
1.979667091769e-04 9.943463623165e-04 0.0 
0.0 0.0 0.0 
1.809242202544e-05 5.805094733673e-05 0.0 
5.805094733673e-05 3.245395117961e-04 0.0 
0.0 0.0 0.0 
0.0 3.075333772489e-04 0.0 
3.075333772489e-04 1.528690755227e-03 0.0 
0.0 0.0 0.0 
0.0 2.770823461302e-04 0.0 
2.770823461302e-04 2.044712950005e-03 0.0 
0.0 0.0 0.0 
0.0 2.347310432789e-04 0.0 
2.347310432789e-04 2.107066172426e-03 0.0 
0.0 0.0 0.0 
1.334139911400e-04 5.190821836104e-05 0.0 
5.190821836104e-05 7.535982201690e-04 0.0 
0.0 0.0 0.0 
9.556991449999e-05 -1.580328680699e-05 0.0 
-1.580328680699e-05 4.801921494395e-04 0.0 
0.0 0.0 0.0 
5.153870368368e-05 2.435941752268e-04 0.0 
2.435941752268e-04 1.016930916585e-03 0.0 
0.0 0.0 0.0 
1.407142050405e-04 6.454400096574e-05 0.0 
6.454400096574e-05 7.749777269987e-04 0.0 
0.0 0.0 0.0 
0.0 2.773906231293e-04 0.0 
2.773906231293e-04 1.461186853712e-03 0.0 
0.0 0.0 0.0 
6.303050631651e-05 1.231995147933e-04 0.0 
1.231995147933e-04 5.260733835704e-04 0.0 
0.0 0.0 0.0 
1.275398445346e-04 3.373519139844e-05 0.0 
3.373519139844e-05 4.151059510051e-04 0.0 
0.0 0.0 0.0 
1.318475800451e-04 2.663091765025e-05 0.0 
2.663091765025e-05 4.319996636510e-04 0.0 
0.0 0.0 0.0 
-1.289693336944e-04 4.760128913086e-05 0.0 
4.760128913086e-05 1.908211670276e-03 0.0 
0.0 0.0 0.0 
2.651421097966e-05 2.023088887261e-04 0.0 
2.023088887261e-04 1.344841533750e-03 0.0 
0.0 0.0 0.0 
-4.953331943458e-05 -3.009315180232e-05 0.0 
-3.009315180232e-05 1.356925189036e-04 0.0 
0.0 0.0 0.0 
0.0 2.401132436250e-04 0.0 
2.401132436250e-04 1.399400760121e-03 0.0 
0.0 0.0 0.0 
1.186623923133e-04 9.520055622135e-06 0.0 
9.520055622135e-06 3.903199761746e-04 0.0 
0.0 0.0 0.0 
0.0 3.284855582500e-04 0.0 
3.284855582500e-04 1.929325854151e-03 0.0 
0.0 0.0 0.0 
-9.425890670478e-05 2.625699250358e-04 0.0 
2.625699250358e-04 1.882251921759e-03 0.0 
0.0 0.0 0.0 
-8.974559497255e-05 -9.335616879427e-06 0.0 
-9.335616879427e-06 5.469804688119e-05 0.0 
0.0 0.0 0.0 
7.278471375805e-05 2.440784654225e-04 0.0 
2.440784654225e-04 9.175728898341e-04 0.0 
0.0 0.0 0.0 
-1.180211987597e-04 1.420025151512e-04 0.0 
1.420025151512e-04 2.053686395409e-03 0.0 
0.0 0.0 0.0 
0.0 3.459927615700e-04 0.0 
3.459927615700e-04 1.836847524501e-03 0.0 
0.0 0.0 0.0 
-1.371505562681e-04 2.411371162065e-04 0.0 
2.411371162065e-04 1.699145869602e-03 0.0 
0.0 0.0 0.0 
6.135019992848e-05 2.753270775368e-04 0.0 
2.753270775368e-04 1.315426603794e-03 0.0 
0.0 0.0 0.0 
4.298380706924e-07 1.296383588108e-04 0.0 
1.296383588108e-04 3.258087048650e-04 0.0 
0.0 0.0 0.0 
5.896204264610e-05 2.100386740409e-04 0.0 
2.100386740409e-04 1.254757463015e-03 0.0 
0.0 0.0 0.0 
1.217008227261e-04 6.097036779853e-06 0.0 
6.097036779853e-06 4.106306101341e-04 0.0 
0.0 0.0 0.0 
1.156240177080e-04 2.203562173255e-06 0.0 
2.203562173255e-06 4.353340584267e-04 0.0 
0.0 0.0 0.0 
-9.089862976586e-05 -2.354099184119e-05 0.0 
-2.354099184119e-05 1.001939873821e-04 0.0 
0.0 0.0 0.0 
0.0 3.497718353346e-04 0.0 
3.497718353346e-04 1.741720288786e-03 0.0 
0.0 0.0 0.0 
5.099783384832e-05 6.554312932490e-05 0.0 
6.554312932490e-05 3.825183289372e-04 0.0 
0.0 0.0 0.0 
9.905841515523e-05 1.387731608092e-04 0.0 
1.387731608092e-04 1.063088167120e-03 0.0 
0.0 0.0 0.0 
-1.467840990055e-04 2.923139631300e-05 0.0 
2.923139631300e-05 1.846908670689e-03 0.0 
0.0 0.0 0.0 
8.028059973419e-05 -3.372020599291e-05 0.0 
-3.372020599291e-05 3.414634047025e-04 0.0 
0.0 0.0 0.0 
1.109323874422e-04 6.700535107167e-06 0.0 
6.700535107167e-06 4.190914654361e-04 0.0 
0.0 0.0 0.0 
-1.219159955094e-04 2.558849618889e-04 0.0 
2.558849618889e-04 1.624631699402e-03 0.0 
0.0 0.0 0.0 
0.0 3.208492855305e-04 0.0 
3.208492855305e-04 1.568022018093e-03 0.0 
0.0 0.0 0.0 
1.035580895405e-04 -1.575033430959e-06 0.0 
-1.575033430959e-06 5.047330204719e-04 0.0 
0.0 0.0 0.0 
1.256561654475e-04 8.366037012856e-05 0.0 
8.366037012856e-05 8.739458826361e-04 0.0 
0.0 0.0 0.0 
2.799855106361e-05 2.750710224712e-04 0.0 
2.750710224712e-04 1.174586698932e-03 0.0 
0.0 0.0 0.0 
1.433837683014e-04 9.659775245963e-05 0.0 
9.659775245963e-05 8.153244480213e-04 0.0 
0.0 0.0 0.0 
1.220335836252e-04 2.696088631456e-05 0.0 
2.696088631456e-05 4.666222093925e-04 0.0 
0.0 0.0 0.0 
1.339880535280e-04 6.878507782898e-05 0.0 
6.878507782898e-05 8.010804282617e-04 0.0 
0.0 0.0 0.0 
5.272139697032e-06 2.713904958584e-04 0.0 
2.713904958584e-04 1.213045955754e-03 0.0 
0.0 0.0 0.0 
-1.544794870845e-05 2.839031369783e-04 0.0 
2.839031369783e-04 1.480699670443e-03 0.0 
0.0 0.0 0.0 
1.248135009986e-04 2.098138745819e-04 0.0 
2.098138745819e-04 1.068707201632e-03 0.0 
0.0 0.0 0.0 
5.275536226779e-05 2.643235153773e-04 0.0 
2.643235153773e-04 1.078283268151e-03 0.0 
0.0 0.0 0.0 
1.223148049170e-04 4.853764604814e-06 0.0 
4.853764604814e-06 5.220121686318e-04 0.0 
0.0 0.0 0.0 
6.192011775186e-05 1.516930213679e-04 0.0 
1.516930213679e-04 6.072908277459e-04 0.0 
0.0 0.0 0.0 
1.037567229432e-04 -4.336982692711e-06 0.0 
-4.336982692711e-06 4.784254093382e-04 0.0 
0.0 0.0 0.0 
4.349439161033e-05 2.700526033091e-04 0.0 
2.700526033091e-04 1.337268637901e-03 0.0 
0.0 0.0 0.0 
1.527026858774e-04 1.635339167224e-04 0.0 
1.635339167224e-04 8.486128878036e-04 0.0 
0.0 0.0 0.0 
3.006654771753e-05 2.408947132415e-04 0.0 
2.408947132415e-04 1.388390724034e-03 0.0 
0.0 0.0 0.0 
-1.098686541997e-04 1.662180460578e-04 0.0 
1.662180460578e-04 2.057812749355e-03 0.0 
0.0 0.0 0.0 
7.717987487155e-05 -2.205931532166e-05 0.0 
-2.205931532166e-05 3.056896949796e-04 0.0 
0.0 0.0 0.0 
0.0 2.583208818219e-04 0.0 
2.583208818219e-04 1.425369251452e-03 0.0 
0.0 0.0 0.0 
5.905168515907e-05 2.353472175014e-04 0.0 
2.353472175014e-04 1.325809914764e-03 0.0 
0.0 0.0 0.0 
1.127488436270e-04 2.159498605186e-04 0.0 
2.159498605186e-04 8.720534034421e-04 0.0 
0.0 0.0 0.0 
-4.911970769794e-05 -2.495763237386e-05 0.0 
-2.495763237386e-05 8.319225385733e-05 0.0 
0.0 0.0 0.0 
3.149196240360e-05 1.854653687247e-04 0.0 
1.854653687247e-04 1.327325989517e-03 0.0 
0.0 0.0 0.0 
-1.123368132849e-04 1.989246079311e-04 0.0 
1.989246079311e-04 2.015218286108e-03 0.0 
0.0 0.0 0.0 
1.034575794985e-04 -4.297654469759e-06 0.0 
-4.297654469759e-06 3.521594514817e-04 0.0 
0.0 0.0 0.0 
0.0 2.036556259201e-04 0.0 
2.036556259201e-04 1.353022005310e-03 0.0 
0.0 0.0 0.0 
1.275198893425e-04 6.618703909389e-05 0.0 
6.618703909389e-05 8.245140564045e-04 0.0 
0.0 0.0 0.0 
-3.706962227845e-05 2.760227502763e-04 0.0 
2.760227502763e-04 1.144475043793e-03 0.0 
0.0 0.0 0.0 
-1.765825863062e-04 1.354699675267e-04 0.0 
1.354699675267e-04 1.769103579610e-03 0.0 
0.0 0.0 0.0 
1.368592580324e-04 1.526449719782e-04 0.0 
1.526449719782e-04 8.509617514834e-04 0.0 
0.0 0.0 0.0 
1.355779476326e-04 3.753804784633e-05 0.0 
3.753804784633e-05 6.847679862458e-04 0.0 
0.0 0.0 0.0 
1.400692422109e-04 1.183282253063e-04 0.0 
1.183282253063e-04 8.741241685468e-04 0.0 
0.0 0.0 0.0 
-1.740358407958e-04 1.464418010931e-04 0.0 
1.464418010931e-04 1.895185271204e-03 0.0 
0.0 0.0 0.0 
-9.536891454165e-05 2.666570146606e-04 0.0 
2.666570146606e-04 1.361365976980e-03 0.0 
0.0 0.0 0.0 
1.108150822238e-04 2.309599717393e-04 0.0 
2.309599717393e-04 1.144607279985e-03 0.0 
0.0 0.0 0.0 
-1.009668393360e-04 5.392726764428e-06 0.0 
5.392726764428e-06 1.869249584065e-03 0.0 
0.0 0.0 0.0 
1.106612751647e-04 -8.739588234662e-06 0.0 
-8.739588234662e-06 5.241190281009e-04 0.0 
0.0 0.0 0.0 
1.375086148843e-04 1.881527618071e-04 0.0 
1.881527618071e-04 9.955746361929e-04 0.0 
0.0 0.0 0.0 
1.067909024892e-04 -1.479732323466e-05 0.0 
-1.479732323466e-05 4.133478044479e-04 0.0 
0.0 0.0 0.0 
1.162704307140e-04 3.309699820153e-05 0.0 
3.309699820153e-05 7.687722818170e-04 0.0 
0.0 0.0 0.0 
-1.059628844478e-04 -9.794953241926e-06 0.0 
-9.794953241926e-06 6.130930357817e-05 0.0 
0.0 0.0 0.0 
5.669397008101e-05 1.803608029447e-04 0.0 
1.803608029447e-04 6.960588637019e-04 0.0 
0.0 0.0 0.0 
1.029018200871e-04 -1.365402067570e-05 0.0 
-1.365402067570e-05 3.936867825933e-04 0.0 
0.0 0.0 0.0 
1.180724275667e-04 8.040139963260e-06 0.0 
8.040139963260e-06 5.741545431268e-04 0.0 
0.0 0.0 0.0 
9.547510084085e-05 2.364235386512e-04 0.0 
2.364235386512e-04 9.592543848997e-04 0.0 
0.0 0.0 0.0 
1.411657540555e-04 8.121737780796e-05 0.0 
8.121737780796e-05 8.222252931949e-04 0.0 
0.0 0.0 0.0 
-1.392388252932e-04 3.154967542415e-05 0.0 
3.154967542415e-05 1.883133176317e-03 0.0 
0.0 0.0 0.0 
8.888823582476e-05 -2.615425827622e-05 0.0 
-2.615425827622e-05 3.556442424939e-04 0.0 
0.0 0.0 0.0 
0.0 1.874518615553e-04 0.0 
1.874518615553e-04 1.336592014269e-03 0.0 
0.0 0.0 0.0 
-7.131391150528e-05 2.770697819715e-04 0.0 
2.770697819715e-04 1.500023881466e-03 0.0 
0.0 0.0 0.0 
1.153688748639e-04 9.481836477299e-06 0.0 
9.481836477299e-06 6.007158350765e-04 0.0 
0.0 0.0 0.0 
-4.649583623728e-05 2.803561499636e-04 0.0 
2.803561499636e-04 1.407808732543e-03 0.0 
0.0 0.0 0.0 
1.084927208346e-04 -3.972189950736e-06 0.0 
-3.972189950736e-06 5.759955743820e-04 0.0 
0.0 0.0 0.0 
-6.829595265734e-05 -1.004072572995e-05 0.0 
-1.004072572995e-05 4.827965116161e-05 0.0 
0.0 0.0 0.0 
-1.906363499391e-04 1.393081834525e-04 0.0 
1.393081834525e-04 1.811247941905e-03 0.0 
0.0 0.0 0.0 
8.916850643481e-05 7.593653748180e-07 0.0 
7.593653748180e-07 4.685072640811e-04 0.0 
0.0 0.0 0.0 
-1.096814249446e-05 -6.227890410922e-06 0.0 
-6.227890410922e-06 2.212456775941e-05 0.0 
0.0 0.0 0.0 
1.095807188602e-04 4.549199422919e-06 0.0 
4.549199422919e-06 5.650722726900e-04 0.0 
0.0 0.0 0.0 
1.304812454441e-04 9.450003457233e-05 0.0 
9.450003457233e-05 8.954697413741e-04 0.0 
0.0 0.0 0.0 
-6.270576318590e-05 4.386235736491e-05 0.0 
4.386235736491e-05 2.085425507357e-03 0.0 
0.0 0.0 0.0 
1.463203116934e-04 1.027764335304e-04 0.0 
1.027764335304e-04 8.021859138210e-04 0.0 
0.0 0.0 0.0 
1.574535610265e-04 1.143248999568e-04 0.0 
1.143248999568e-04 8.121731095454e-04 0.0 
0.0 0.0 0.0 
-1.988319707704e-04 9.883129097193e-05 0.0 
9.883129097193e-05 1.728422177094e-03 0.0 
0.0 0.0 0.0 
-1.487353454660e-04 1.338621452744e-05 0.0 
1.338621452744e-05 1.724392905012e-03 0.0 
0.0 0.0 0.0 
-3.575374624709e-05 1.718255101433e-04 0.0 
1.718255101433e-04 2.131163874985e-03 0.0 
0.0 0.0 0.0 
-2.061220901173e-05 2.781161365814e-04 0.0 
2.781161365814e-04 1.311435240528e-03 0.0 
0.0 0.0 0.0 
-1.569007744784e-05 -5.240096130779e-06 0.0 
-5.240096130779e-06 2.286925627493e-05 0.0 
0.0 0.0 0.0 
2.096745364177e-05 -4.028739427132e-05 0.0 
-4.028739427132e-05 1.883628778643e-04 0.0 
0.0 0.0 0.0 
-4.343264706963e-05 -2.536050495075e-05 0.0 
-2.536050495075e-05 7.961515983856e-05 0.0 
0.0 0.0 0.0 
7.144774361989e-05 -3.552993763573e-05 0.0 
-3.552993763573e-05 3.286686455752e-04 0.0 
0.0 0.0 0.0 
-4.621096313129e-05 2.937410130360e-04 0.0 
2.937410130360e-04 1.702355889937e-03 0.0 
0.0 0.0 0.0 
-7.234300646675e-05 3.736436861924e-05 0.0 
3.736436861924e-05 2.086237806318e-03 0.0 
0.0 0.0 0.0 
9.961542616543e-05 8.055461328682e-05 0.0 
8.055461328682e-05 9.729982383724e-04 0.0 
0.0 0.0 0.0 
8.030697343608e-05 -2.955875386977e-05 0.0 
-2.955875386977e-05 3.722897915430e-04 0.0 
0.0 0.0 0.0 
1.079739913343e-04 2.125099757991e-05 0.0 
2.125099757991e-05 7.707332224334e-04 0.0 
0.0 0.0 0.0 
1.006359954046e-04 1.460051088086e-04 0.0 
1.460051088086e-04 1.080861944870e-03 0.0 
0.0 0.0 0.0 
2.344015174383e-05 1.223665617873e-05 0.0 
1.223665617873e-05 2.637562712491e-04 0.0 
0.0 0.0 0.0 
8.711052336507e-05 -9.688168454338e-06 0.0 
-9.688168454338e-06 4.686953339992e-04 0.0 
0.0 0.0 0.0 
7.607779472973e-05 1.199497798321e-06 0.0 
1.199497798321e-06 3.811677959473e-04 0.0 
0.0 0.0 0.0 
2.700862478000e-05 1.668818937203e-04 0.0 
1.668818937203e-04 1.309966091626e-03 0.0 
0.0 0.0 0.0 
0.0 1.682856839790e-04 0.0 
1.682856839790e-04 1.318077103055e-03 0.0 
0.0 0.0 0.0 
9.344837119163e-05 -6.808135011318e-06 0.0 
-6.808135011318e-06 5.254443811626e-04 0.0 
0.0 0.0 0.0 
1.072276563108e-04 -1.982610414968e-06 0.0 
-1.982610414968e-06 6.025130068148e-04 0.0 
0.0 0.0 0.0 
1.448849366570e-04 5.150425978065e-05 0.0 
5.150425978065e-05 7.057145022513e-04 0.0 
0.0 0.0 0.0 
9.201279605842e-05 1.680097811014e-04 0.0 
1.680097811014e-04 1.140539006267e-03 0.0 
0.0 0.0 0.0 
3.446106745209e-05 -2.478712703185e-05 0.0 
-2.478712703185e-05 2.056194997702e-04 0.0 
0.0 0.0 0.0 
1.093910978998e-04 1.260081265793e-04 0.0 
1.260081265793e-04 1.024200585455e-03 0.0 
0.0 0.0 0.0 
7.996601959048e-06 -1.365396031784e-05 0.0 
-1.365396031784e-05 1.089964641565e-04 0.0 
0.0 0.0 0.0 
1.024072686564e-04 -9.067571492184e-06 0.0 
-9.067571492184e-06 5.406376820818e-04 0.0 
0.0 0.0 0.0 
1.140045484809e-04 2.937920039505e-06 0.0 
2.937920039505e-06 6.126078738831e-04 0.0 
0.0 0.0 0.0 
1.093166920874e-05 -7.559697441995e-06 0.0 
-7.559697441995e-06 5.596020428111e-05 0.0 
0.0 0.0 0.0 
9.229346333117e-05 2.960996735051e-06 0.0 
2.960996735051e-06 4.963754385052e-04 0.0 
0.0 0.0 0.0 
-8.908597104573e-05 1.651330339239e-04 0.0 
1.651330339239e-04 2.057844240476e-03 0.0 
0.0 0.0 0.0 
-1.027103565310e-05 -4.537056579886e-06 0.0 
-4.537056579886e-06 2.078762203372e-05 0.0 
0.0 0.0 0.0 
-1.572729827720e-04 2.194715512091e-05 0.0 
2.194715512091e-05 1.725235029016e-03 0.0 
0.0 0.0 0.0 
-1.492781637521e-04 2.994725304855e-05 0.0 
2.994725304855e-05 1.714727204542e-03 0.0 
0.0 0.0 0.0 
1.340865394053e-04 1.404623944822e-04 0.0 
1.404623944822e-04 9.368042993299e-04 0.0 
0.0 0.0 0.0 
7.365359011535e-05 -7.749573820582e-06 0.0 
-7.749573820582e-06 3.808386608288e-04 0.0 
0.0 0.0 0.0 
1.076633260773e-04 -6.328188826656e-06 0.0 
-6.328188826656e-06 3.735719849827e-04 0.0 
0.0 0.0 0.0 
2.824851743410e-06 1.390034755675e-04 0.0 
1.390034755675e-04 4.913013331367e-04 0.0 
0.0 0.0 0.0 
7.054510578630e-05 8.315178329058e-05 0.0 
8.315178329058e-05 1.075679473001e-03 0.0 
0.0 0.0 0.0 
-1.450560669136e-06 3.282622280643e-04 0.0 
3.282622280643e-04 1.714300783655e-03 0.0 
0.0 0.0 0.0 
-9.811159505846e-05 5.639640780251e-05 0.0 
5.639640780251e-05 2.052275336966e-03 0.0 
0.0 0.0 0.0 
-9.524852696785e-06 2.096956760378e-04 0.0 
2.096956760378e-04 7.708588872926e-04 0.0 
0.0 0.0 0.0 
-1.689112893000e-06 -2.147343000429e-05 0.0 
-2.147343000429e-05 1.298282523319e-04 0.0 
0.0 0.0 0.0 
-1.513199785425e-04 2.469648611814e-04 0.0 
2.469648611814e-04 1.513085553030e-03 0.0 
0.0 0.0 0.0 
-1.258813702970e-04 3.078444026482e-06 0.0 
3.078444026482e-06 1.721426467055e-03 0.0 
0.0 0.0 0.0 
-1.184101566669e-04 1.437919220473e-06 0.0 
1.437919220473e-06 1.716902003641e-03 0.0 
0.0 0.0 0.0 
-3.944750301854e-06 -5.271717622649e-06 0.0 
-5.271717622649e-06 1.952403198979e-05 0.0 
0.0 0.0 0.0 
8.007228397666e-06 -9.736125395429e-06 0.0 
-9.736125395429e-06 5.720202683124e-05 0.0 
0.0 0.0 0.0 
2.225867973360e-05 -7.737543859714e-06 0.0 
-7.737543859714e-06 1.044006501147e-04 0.0 
0.0 0.0 0.0 
6.106347969870e-05 -2.177084327191e-05 0.0 
-2.177084327191e-05 2.829714136776e-04 0.0 
0.0 0.0 0.0 
4.378826322649e-06 -6.534097446374e-06 0.0 
-6.534097446374e-06 5.696076217165e-05 0.0 
0.0 0.0 0.0 
9.583486669507e-05 3.924171038210e-06 0.0 
3.924171038210e-06 5.575344947857e-04 0.0 
0.0 0.0 0.0 
-1.012507857463e-04 -9.033950968451e-06 0.0 
-9.033950968451e-06 6.215588330494e-05 0.0 
0.0 0.0 0.0 
7.741719067300e-05 -1.837416993828e-05 0.0 
-1.837416993828e-05 3.383246968054e-04 0.0 
0.0 0.0 0.0 
-8.928126459773e-05 1.067511991600e-05 0.0 
1.067511991600e-05 1.920474526320e-03 0.0 
0.0 0.0 0.0 
-1.334144685592e-04 1.182725308590e-05 0.0 
1.182725308590e-05 1.717135251425e-03 0.0 
0.0 0.0 0.0 
-5.552112312579e-05 2.936426298330e-04 0.0 
2.936426298330e-04 1.775719841344e-03 0.0 
0.0 0.0 0.0 
1.326296796207e-04 7.739345448401e-05 0.0 
7.739345448401e-05 8.463842324806e-04 0.0 
0.0 0.0 0.0 
-9.463017513411e-05 7.284145822148e-06 0.0 
7.284145822148e-06 1.867124992480e-03 0.0 
0.0 0.0 0.0 
7.872315414881e-05 4.784355865951e-06 0.0 
4.784355865951e-06 4.085841819501e-04 0.0 
0.0 0.0 0.0 
1.383537533428e-05 -8.762557892968e-06 0.0 
-8.762557892968e-06 1.060044335881e-04 0.0 
0.0 0.0 0.0 
0.0 8.631301073850e-05 0.0 
8.631301073850e-05 2.213621942700e-03 0.0 
0.0 0.0 0.0 
-2.600186760704e-05 9.671247833267e-05 0.0 
9.671247833267e-05 2.210418629041e-03 0.0 
0.0 0.0 0.0 
-1.315222000048e-04 3.243494429883e-05 0.0 
3.243494429883e-05 1.846647814023e-03 0.0 
0.0 0.0 0.0 
-1.341458771988e-04 4.692429505089e-06 0.0 
4.692429505089e-06 1.721903160727e-03 0.0 
0.0 0.0 0.0 
7.882367244605e-05 -9.013985576685e-06 0.0 
-9.013985576685e-06 4.142453801530e-04 0.0 
0.0 0.0 0.0 
-2.126314056206e-05 6.641598543936e-05 0.0 
6.641598543936e-05 2.219891589914e-03 0.0 
0.0 0.0 0.0 
6.554176771889e-05 -3.448045748433e-05 0.0 
-3.448045748433e-05 3.165727677055e-04 0.0 
0.0 0.0 0.0 
-1.405139909048e-04 1.867899402226e-05 0.0 
1.867899402226e-05 1.715674674392e-03 0.0 
0.0 0.0 0.0 
-1.392247391252e-04 8.869587233093e-06 0.0 
8.869587233093e-06 1.722702758682e-03 0.0 
0.0 0.0 0.0 
-1.718274463441e-04 1.760953757257e-04 0.0 
1.760953757257e-04 1.568337804787e-03 0.0 
0.0 0.0 0.0 
0.0 1.950382718269e-04 0.0 
1.950382718269e-04 2.150478863873e-03 0.0 
0.0 0.0 0.0 
-2.403225517789e-05 8.165729851308e-05 0.0 
8.165729851308e-05 2.216238480722e-03 0.0 
0.0 0.0 0.0 
1.519358594493e-07 -8.535781122846e-06 0.0 
-8.535781122846e-06 5.844742658523e-05 0.0 
0.0 0.0 0.0 
1.475013866603e-07 -3.796268458170e-06 0.0 
-3.796268458170e-06 1.817052829312e-05 0.0 
0.0 0.0 0.0 
1.147020573211e-05 -2.194471206774e-05 0.0 
-2.194471206774e-05 1.537297529994e-04 0.0 
0.0 0.0 0.0 
1.245985987546e-04 1.565936245606e-05 0.0 
1.565936245606e-05 6.106566932880e-04 0.0 
0.0 0.0 0.0 
4.378521841542e-05 1.523164267011e-05 0.0 
1.523164267011e-05 1.111827095080e-03 0.0 
0.0 0.0 0.0 
-1.563736840325e-04 -1.141815091531e-05 0.0 
-1.141815091531e-05 8.179899728589e-05 0.0 
0.0 0.0 0.0 
-6.883425054738e-05 1.455449304523e-06 0.0 
1.455449304523e-06 2.040696263061e-03 0.0 
0.0 0.0 0.0 
-9.061777731878e-05 -1.044701514754e-05 0.0 
-1.044701514754e-05 5.833628231899e-05 0.0 
0.0 0.0 0.0 
1.492241095142e-04 1.288338882471e-04 0.0 
1.288338882471e-04 8.852699328095e-04 0.0 
0.0 0.0 0.0 
-1.237057193630e-04 -1.021613745638e-05 0.0 
-1.021613745638e-05 6.908093409264e-05 0.0 
0.0 0.0 0.0 
-1.402577339115e-04 -1.140728889696e-05 0.0 
-1.140728889696e-05 7.564228271661e-05 0.0 
0.0 0.0 0.0 
1.528823297714e-04 1.081249140386e-04 0.0 
1.081249140386e-04 8.287193770373e-04 0.0 
0.0 0.0 0.0 
5.525736585232e-05 3.901746708598e-05 0.0 
3.901746708598e-05 1.076584205239e-03 0.0 
0.0 0.0 0.0 
-9.488104289113e-05 5.467468541004e-06 0.0 
5.467468541004e-06 1.916101835481e-03 0.0 
0.0 0.0 0.0 
-1.171812731288e-04 2.668153197708e-04 0.0 
2.668153197708e-04 1.459332215454e-03 0.0 
0.0 0.0 0.0 
1.386048460694e-05 -6.071675013815e-06 0.0 
-6.071675013815e-06 5.443456136534e-05 0.0 
0.0 0.0 0.0 
1.026881694997e-04 1.982129823055e-05 0.0 
1.982129823055e-05 7.988434944490e-04 0.0 
0.0 0.0 0.0 
0.0 2.564356844771e-05 0.0 
2.564356844771e-05 2.223666723865e-03 0.0 
0.0 0.0 0.0 
-1.822919676286e-05 2.764694160595e-05 0.0 
2.764694160595e-05 2.225258246245e-03 0.0 
0.0 0.0 0.0 
-1.271271867054e-04 7.165699171134e-06 0.0 
7.165699171134e-06 1.716704739097e-03 0.0 
0.0 0.0 0.0 
1.430382449819e-04 1.499283386883e-04 0.0 
1.499283386883e-04 9.453362784047e-04 0.0 
0.0 0.0 0.0 
0.0 7.199664757611e-05 0.0 
7.199664757611e-05 2.219030761129e-03 0.0 
0.0 0.0 0.0 
5.511183779938e-05 2.641220308309e-04 0.0 
2.641220308309e-04 1.317086779244e-03 0.0 
0.0 0.0 0.0 
1.437993644493e-05 -4.284491925025e-06 0.0 
-4.284491925025e-06 1.030524741428e-04 0.0 
0.0 0.0 0.0 
7.959637987831e-06 -5.094369977422e-06 0.0 
-5.094369977422e-06 5.526900906139e-05 0.0 
0.0 0.0 0.0 
1.466554112817e-05 -4.972511470248e-06 0.0 
-4.972511470248e-06 5.351246459551e-05 0.0 
0.0 0.0 0.0 
8.749388131157e-05 4.733385449505e-06 0.0 
4.733385449505e-06 4.668487541901e-04 0.0 
0.0 0.0 0.0 
1.724038571393e-05 3.318288016476e-05 0.0 
3.318288016476e-05 1.241967184723e-03 0.0 
0.0 0.0 0.0 
-3.005410068591e-05 -3.580761312207e-06 0.0 
-3.580761312207e-06 2.173176314393e-03 0.0 
0.0 0.0 0.0 
8.134130904169e-06 -9.664225154004e-07 0.0 
-9.664225154004e-07 1.365692159716e-05 0.0 
0.0 0.0 0.0 
9.609071803540e-05 -5.399668374886e-06 0.0 
-5.399668374886e-06 5.575479416104e-04 0.0 
0.0 0.0 0.0 
0.0 2.926953401616e-05 0.0 
2.926953401616e-05 1.244794963386e-03 0.0 
0.0 0.0 0.0 
1.979322180090e-05 4.761006099537e-05 0.0 
4.761006099537e-05 1.243365939657e-03 0.0 
0.0 0.0 0.0 
3.109527916179e-05 1.495820002112e-04 0.0 
1.495820002112e-04 1.295027948261e-03 0.0 
0.0 0.0 0.0 
-7.885225187854e-05 8.499879421197e-06 0.0 
8.499879421197e-06 1.985922579230e-03 0.0 
0.0 0.0 0.0 
-6.143912385814e-05 -3.964057647910e-06 0.0 
-3.964057647910e-06 2.068508634009e-03 0.0 
0.0 0.0 0.0 
0.0 3.917627447699e-05 0.0 
3.917627447699e-05 1.240093625096e-03 0.0 
0.0 0.0 0.0 
0.0 5.036784221109e-05 0.0 
5.036784221109e-05 1.246779268803e-03 0.0 
0.0 0.0 0.0 
-6.721535181864e-05 8.877201833021e-06 0.0 
8.877201833021e-06 2.040957536255e-03 0.0 
0.0 0.0 0.0 
4.342603362018e-06 1.042255682031e-06 0.0 
1.042255682031e-06 1.259385946861e-05 0.0 
0.0 0.0 0.0 
-1.120310107442e-04 5.162897981550e-07 0.0 
5.162897981550e-07 1.713211874828e-03 0.0 
0.0 0.0 0.0 
-1.227218964419e-04 4.613622372899e-06 0.0 
4.613622372899e-06 1.718595278616e-03 0.0 
0.0 0.0 0.0 
4.411240450253e-06 -2.349129342377e-06 0.0 
-2.349129342377e-06 1.638917985236e-05 0.0 
0.0 0.0 0.0 
0.0 9.179893706106e-05 0.0 
9.179893706106e-05 1.266030911850e-03 0.0 
0.0 0.0 0.0 
2.701665257154e-05 1.326678396956e-04 0.0 
1.326678396956e-04 1.281584718689e-03 0.0 
0.0 0.0 0.0 
0.0 1.195503780495e-04 0.0 
1.195503780495e-04 1.275328343432e-03 0.0 
0.0 0.0 0.0 
-1.735051692209e-06 -1.069986303546e-06 0.0 
-1.069986303546e-06 1.693861380470e-05 0.0 
0.0 0.0 0.0 
-5.596901347604e-06 -2.915823689185e-06 0.0 
-2.915823689185e-06 1.906897204207e-05 0.0 
0.0 0.0 0.0 
0.0 1.523533988976e-04 0.0 
1.523533988976e-04 1.302192905760e-03 0.0 
0.0 0.0 0.0 
0.0 1.351181408097e-04 0.0 
1.351181408097e-04 1.288435784269e-03 0.0 
0.0 0.0 0.0 
-8.438661679278e-05 -4.771528640194e-06 0.0 
-4.771528640194e-06 1.957109566576e-03 0.0 
0.0 0.0 0.0 
-1.070364800873e-04 6.395059375788e-07 0.0 
6.395059375788e-07 1.709905985495e-03 0.0 
0.0 0.0 0.0 
-7.333092629935e-05 -4.382130361219e-06 0.0 
-4.382130361219e-06 2.013507549553e-03 0.0 
0.0 0.0 0.0 
-9.777994292648e-05 -5.158248518137e-06 0.0 
-5.158248518137e-06 1.838700969746e-03 0.0 
0.0 0.0 0.0 
-1.044789388134e-04 -2.154178804440e-07 0.0 
-2.154178804440e-07 1.708435218573e-03 0.0 
0.0 0.0 0.0 
-2.544611614619e-05 -4.356249303513e-06 0.0 
-4.356249303513e-06 2.732698235386e-05 0.0 
0.0 0.0 0.0 
-4.876808944487e-05 -7.859185591464e-06 0.0 
-7.859185591464e-06 3.883430046314e-05 0.0 
0.0 0.0 0.0 
-5.892654310946e-05 -7.980750911845e-06 0.0 
-7.980750911845e-06 4.136356119755e-05 0.0 
0.0 0.0 0.0 
-7.456796968042e-05 -9.039761658467e-06 0.0 
-9.039761658467e-06 4.830244052334e-05 0.0 
0.0 0.0 0.0 
9.802596697206e-05 5.773234985656e-06 0.0 
5.773234985656e-06 5.893187719042e-04 0.0 
0.0 0.0 0.0 
9.424776574929e-05 5.039305770876e-06 0.0 
5.039305770876e-06 5.267456007614e-04 0.0 
0.0 0.0 0.0 
-3.438720661819e-05 -7.616491127378e-06 0.0 
-7.616491127378e-06 3.376043342596e-05 0.0 
0.0 0.0 0.0 
9.720141586889e-05 6.187246791507e-06 0.0 
6.187246791507e-06 7.824289320548e-04 0.0 
0.0 0.0 0.0 
-4.725770894942e-05 -9.137699615962e-06 0.0 
-9.137699615962e-06 3.873148656575e-05 0.0 
0.0 0.0 0.0 
0.0 1.545753116816e-04 0.0 
1.545753116816e-04 2.181271067804e-03 0.0 
0.0 0.0 0.0 
0.0 5.958132914814e-05 0.0 
5.958132914814e-05 2.220725493348e-03 0.0 
0.0 0.0 0.0 
0.0 1.022516813938e-04 0.0 
1.022516813938e-04 2.206984809952e-03 0.0 
0.0 0.0 0.0 
3.381984968454e-05 5.217298212982e-06 0.0 
5.217298212982e-06 1.810665616235e-04 0.0 
0.0 0.0 0.0 
6.893812038999e-05 4.757140307853e-06 0.0 
4.757140307853e-06 3.511075465155e-04 0.0 
0.0 0.0 0.0 
0.0 4.654120407631e-05 0.0 
4.654120407631e-05 2.220699015240e-03 0.0 
0.0 0.0 0.0 
6.831730470824e-05 5.588178963844e-06 0.0 
5.588178963844e-06 9.992767961788e-04 0.0 
0.0 0.0 0.0 
0.0 3.620469565298e-05 0.0 
3.620469565298e-05 2.228004246634e-03 0.0 
0.0 0.0 0.0 
5.164842918060e-05 5.979008668517e-06 0.0 
5.979008668517e-06 1.076155924317e-03 0.0 
0.0 0.0 0.0 
3.236583957644e-05 7.422360883529e-06 0.0 
7.422360883529e-06 1.155452565521e-03 0.0 
0.0 0.0 0.0 
9.085843073176e-05 -6.703762417128e-06 0.0 
-6.703762417128e-06 4.963790361061e-04 0.0 
0.0 0.0 0.0 
-2.297920618644e-05 5.275571372205e-05 0.0 
5.275571372205e-05 2.220711657551e-03 0.0 
0.0 0.0 0.0 
-1.820885628145e-05 4.584441823271e-05 0.0 
4.584441823271e-05 2.223465213176e-03 0.0 
0.0 0.0 0.0 
5.922698348382e-05 1.842170577619e-06 0.0 
1.842170577619e-06 1.033559527944e-03 0.0 
0.0 0.0 0.0 
4.179637289958e-05 2.909983070046e-06 0.0 
2.909983070046e-06 1.112526139642e-03 0.0 
0.0 0.0 0.0 
9.243575657636e-05 1.522817833411e-05 0.0 
1.522817833411e-05 8.570269942858e-04 0.0 
0.0 0.0 0.0 
-7.986237422419e-05 -1.078671424531e-05 0.0 
-1.078671424531e-05 5.377897998771e-05 0.0 
0.0 0.0 0.0 
9.578139114885e-05 -1.249861977377e-05 0.0 
-1.249861977377e-05 5.063137744172e-04 0.0 
0.0 0.0 0.0 
-3.668572578386e-06 -1.109438418756e-05 0.0 
-1.109438418756e-05 5.911473093678e-05 0.0 
0.0 0.0 0.0 
6.420219133796e-05 7.334625375531e-05 0.0 
7.334625375531e-05 1.076687834713e-03 0.0 
0.0 0.0 0.0 
1.110136850846e-04 2.354309942418e-06 0.0 
2.354309942418e-06 5.388588468158e-04 0.0 
0.0 0.0 0.0 
8.043196607543e-05 3.994665302778e-05 0.0 
3.994665302778e-05 9.695320104379e-04 0.0 
0.0 0.0 0.0 
4.917514402369e-05 -3.773139003070e-05 0.0 
-3.773139003070e-05 2.616991690756e-04 0.0 
0.0 0.0 0.0 
1.025570028790e-05 -1.380545984110e-05 0.0 
-1.380545984110e-05 1.057376055498e-04 0.0 
0.0 0.0 0.0 
6.205215652089e-05 3.408105529200e-05 0.0 
3.408105529200e-05 1.045091301178e-03 0.0 
0.0 0.0 0.0 
1.027402149876e-04 -6.598380693245e-06 0.0 
-6.598380693245e-06 5.669062862050e-04 0.0 
0.0 0.0 0.0 
8.338277222486e-05 2.097354925659e-06 0.0 
2.097354925659e-06 4.381904848485e-04 0.0 
0.0 0.0 0.0 
7.699197346045e-05 2.914550609762e-05 0.0 
2.914550609762e-05 9.712683015575e-04 0.0 
0.0 0.0 0.0 
-4.634261463432e-05 2.377147668552e-05 0.0 
2.377147668552e-05 2.116323626512e-03 0.0 
0.0 0.0 0.0 
8.307763770743e-05 -7.417054526977e-06 0.0 
-7.417054526977e-06 4.380104921065e-04 0.0 
0.0 0.0 0.0 
1.136586152468e-04 9.830909573636e-05 0.0 
9.830909573636e-05 9.493232177156e-04 0.0 
0.0 0.0 0.0 
1.245173179771e-04 4.587599751200e-05 0.0 
4.587599751200e-05 7.826832885189e-04 0.0 
0.0 0.0 0.0 
9.623935881420e-05 2.646921199600e-05 0.0 
2.646921199600e-05 8.552714351679e-04 0.0 
0.0 0.0 0.0 
8.933195493821e-05 2.225906726610e-05 0.0 
2.225906726610e-05 8.864555096773e-04 0.0 
0.0 0.0 0.0 
1.419382625851e-04 1.164902414058e-04 0.0 
1.164902414058e-04 5.679208205829e-04 0.0 
0.0 0.0 0.0 
-1.253571945675e-04 2.637073692306e-04 0.0 
2.637073692306e-04 1.419727799556e-03 0.0 
0.0 0.0 0.0 
7.358018532444e-05 2.296832424944e-04 0.0 
2.296832424944e-04 9.864681909308e-04 0.0 
0.0 0.0 0.0 
1.095986432655e-04 3.143806243739e-05 0.0 
3.143806243739e-05 7.970122471286e-04 0.0 
0.0 0.0 0.0 
6.933673717446e-05 2.324195898102e-05 0.0 
2.324195898102e-05 1.003088097830e-03 0.0 
0.0 0.0 0.0 
8.256000811002e-05 1.799371551833e-05 0.0 
1.799371551833e-05 9.189809762373e-04 0.0 
0.0 0.0 0.0 
6.252783994687e-05 -2.582898094166e-05 0.0 
-2.582898094166e-05 2.725074695349e-04 0.0 
0.0 0.0 0.0 
-5.131668845326e-05 3.964166282829e-05 0.0 
3.964166282829e-05 2.113514216019e-03 0.0 
0.0 0.0 0.0 
-6.705517406069e-05 3.376729967666e-05 0.0 
3.376729967666e-05 2.061317721341e-03 0.0 
0.0 0.0 0.0 
-1.063875129995e-04 1.090779047063e-05 0.0 
1.090779047063e-05 1.797077635447e-03 0.0 
0.0 0.0 0.0 
1.090648297877e-04 4.145321244279e-05 0.0 
4.145321244279e-05 8.383872604776e-04 0.0 
0.0 0.0 0.0 
1.028813057429e-04 2.921739093150e-05 0.0 
2.921739093150e-05 8.258845441800e-04 0.0 
0.0 0.0 0.0 
-5.325031444026e-05 1.720939220624e-05 0.0 
1.720939220624e-05 2.118310434523e-03 0.0 
0.0 0.0 0.0 
-5.841475744428e-05 2.965883259310e-05 0.0 
2.965883259310e-05 2.089648673944e-03 0.0 
0.0 0.0 0.0 
1.201682537895e-04 3.434304738624e-05 0.0 
3.434304738624e-05 7.582334989760e-04 0.0 
0.0 0.0 0.0 
5.369580048487e-05 2.695051395654e-05 0.0 
2.695051395654e-05 1.077672252886e-03 0.0 
0.0 0.0 0.0 
-8.413936730733e-05 6.146772308758e-05 0.0 
6.146772308758e-05 2.051629529180e-03 0.0 
0.0 0.0 0.0 
8.023419209469e-05 7.022940446628e-06 0.0 
7.022940446628e-06 9.189706537795e-04 0.0 
0.0 0.0 0.0 
5.311929209739e-05 6.531570332293e-05 0.0 
6.531570332293e-05 1.110660120728e-03 0.0 
0.0 0.0 0.0 
-5.928831258006e-05 3.310449012620e-05 0.0 
3.310449012620e-05 2.114651493063e-03 0.0 
0.0 0.0 0.0 
-9.766029404934e-05 2.185165612354e-05 0.0 
2.185165612354e-05 1.978197160087e-03 0.0 
0.0 0.0 0.0 
1.179941455021e-04 8.030564728116e-05 0.0 
8.030564728116e-05 8.976885338585e-04 0.0 
0.0 0.0 0.0 
5.345421757696e-05 -1.104891921450e-05 0.0 
-1.104891921450e-05 2.684510952287e-04 0.0 
0.0 0.0 0.0 
5.439159860376e-05 -2.636656312523e-05 0.0 
-2.636656312523e-05 2.518535110645e-04 0.0 
0.0 0.0 0.0 
2.968001786563e-07 -3.755777682234e-05 0.0 
-3.755777682234e-05 1.320094201505e-04 0.0 
0.0 0.0 0.0 
-7.993247607374e-05 -2.467370735972e-05 0.0 
-2.467370735972e-05 9.327027367467e-05 0.0 
0.0 0.0 0.0 
-6.342410911764e-05 2.277128706871e-05 0.0 
2.277128706871e-05 2.090330500786e-03 0.0 
0.0 0.0 0.0 
6.256377062530e-05 2.847957802691e-05 0.0 
2.847957802691e-05 1.032687288250e-03 0.0 
0.0 0.0 0.0 
-6.841460652163e-05 -2.417230173239e-05 0.0 
-2.417230173239e-05 8.692687207223e-05 0.0 
0.0 0.0 0.0 
-1.084485095861e-04 2.310665829380e-04 0.0 
2.310665829380e-04 1.958539939732e-03 0.0 
0.0 0.0 0.0 
-1.069708371222e-04 1.401874701679e-05 0.0 
1.401874701679e-05 1.827133099456e-03 0.0 
0.0 0.0 0.0 
8.448510591008e-05 3.338918855084e-05 0.0 
3.338918855084e-05 9.416649585392e-04 0.0 
0.0 0.0 0.0 
7.740428975000e-05 2.572422369420e-05 0.0 
2.572422369420e-05 9.581618654551e-04 0.0 
0.0 0.0 0.0 
1.104348732073e-04 -7.366565252665e-06 0.0 
-7.366565252665e-06 3.947990753483e-04 0.0 
0.0 0.0 0.0 
7.564207064603e-05 1.455089191744e-05 0.0 
1.455089191744e-05 9.597776543955e-04 0.0 
0.0 0.0 0.0 
-1.111143924425e-04 1.964935881596e-07 0.0 
1.964935881596e-07 1.796840399609e-03 0.0 
0.0 0.0 0.0 
1.147560288401e-04 1.935048785122e-04 0.0 
1.935048785122e-04 1.071161133225e-03 0.0 
0.0 0.0 0.0 
4.573090615079e-05 7.114244083072e-05 0.0 
7.114244083072e-05 1.142748515635e-03 0.0 
0.0 0.0 0.0 
5.135045065230e-05 -4.389020319631e-06 0.0 
-4.389020319631e-06 2.590204297483e-04 0.0 
0.0 0.0 0.0 
5.569391720384e-05 8.835766379158e-05 0.0 
8.835766379158e-05 1.128148653007e-03 0.0 
0.0 0.0 0.0 
-8.761755079445e-05 2.053517266563e-05 0.0 
2.053517266563e-05 2.007981799550e-03 0.0 
0.0 0.0 0.0 
5.878864475295e-05 -6.699167132367e-06 0.0 
-6.699167132367e-06 2.923268492745e-04 0.0 
0.0 0.0 0.0 
6.697399673028e-05 -3.875233004740e-05 0.0 
-3.875233004740e-05 3.080449809734e-04 0.0 
0.0 0.0 0.0 
1.041593635007e-04 7.847733461837e-06 0.0 
7.847733461837e-06 6.473689418152e-04 0.0 
0.0 0.0 0.0 
-1.056564830021e-04 2.874398821543e-05 0.0 
2.874398821543e-05 1.917066406933e-03 0.0 
0.0 0.0 0.0 
9.380080372257e-05 -1.024064169757e-05 0.0 
-1.024064169757e-05 4.196919540236e-04 0.0 
0.0 0.0 0.0 
-7.760286643554e-05 1.792168730036e-05 0.0 
1.792168730036e-05 2.037528307690e-03 0.0 
0.0 0.0 0.0 
-9.682695395630e-05 1.354990779820e-05 0.0 
1.354990779820e-05 1.950104351345e-03 0.0 
0.0 0.0 0.0 
1.124375290618e-04 1.047737368520e-05 0.0 
1.047737368520e-05 6.279577535979e-04 0.0 
0.0 0.0 0.0 
8.637354108809e-05 1.154611290636e-05 0.0 
1.154611290636e-05 8.872222630694e-04 0.0 
0.0 0.0 0.0 
8.233956146886e-05 1.935565669628e-05 0.0 
1.935565669628e-05 9.290109120073e-04 0.0 
0.0 0.0 0.0 
-7.971745797264e-05 2.779985877286e-05 0.0 
2.779985877286e-05 2.006909294727e-03 0.0 
0.0 0.0 0.0 
3.915822901224e-05 -2.800539852278e-05 0.0 
-2.800539852278e-05 2.239498512600e-04 0.0 
0.0 0.0 0.0 
1.078189519861e-04 5.852095094493e-06 0.0 
5.852095094493e-06 5.923918485213e-04 0.0 
0.0 0.0 0.0 
8.199592680858e-05 2.651445608870e-04 0.0 
2.651445608870e-04 1.296878912237e-03 0.0 
0.0 0.0 0.0 
-8.669722986554e-05 2.974665742504e-05 0.0 
2.974665742504e-05 2.033417412155e-03 0.0 
0.0 0.0 0.0 
1.035858729441e-04 1.382038129698e-06 0.0 
1.382038129698e-06 5.299750395702e-04 0.0 
0.0 0.0 0.0 
1.141700608132e-04 3.317395590949e-05 0.0 
3.317395590949e-05 7.847870047171e-04 0.0 
0.0 0.0 0.0 
6.574703827322e-05 9.394954143409e-05 0.0 
9.394954143409e-05 1.102592271431e-03 0.0 
0.0 0.0 0.0 
-8.834818858616e-05 2.889294772956e-05 0.0 
2.889294772956e-05 1.977344414820e-03 0.0 
0.0 0.0 0.0 
-3.969336066234e-05 -1.483820531456e-05 0.0 
-1.483820531456e-05 1.633983548652e-04 0.0 
0.0 0.0 0.0 
5.599351163843e-06 -3.004093246482e-05 0.0 
-3.004093246482e-05 1.258741364427e-04 0.0 
0.0 0.0 0.0 
5.625306945523e-05 2.189132566668e-05 0.0 
2.189132566668e-05 3.230073104281e-04 0.0 
0.0 0.0 0.0 
7.150405747991e-05 3.522662824250e-05 0.0 
3.522662824250e-05 1.001266065673e-03 0.0 
0.0 0.0 0.0 
-9.737113811137e-05 2.926504419723e-05 0.0 
2.926504419723e-05 1.947510580889e-03 0.0 
0.0 0.0 0.0 
1.013176847338e-04 -5.179948321100e-07 0.0 
-5.179948321100e-07 7.131260397892e-04 0.0 
0.0 0.0 0.0 
-1.101210955945e-04 1.943009434984e-05 0.0 
1.943009434984e-05 1.857841326194e-03 0.0 
0.0 0.0 0.0 
8.912059342658e-05 1.328396514458e-04 0.0 
1.328396514458e-04 1.082829565251e-03 0.0 
0.0 0.0 0.0 
1.093541114283e-04 1.121020742201e-05 0.0 
1.121020742201e-05 6.554638059151e-04 0.0 
0.0 0.0 0.0 
8.548607647207e-05 3.086227339297e-05 0.0 
3.086227339297e-05 9.272301024446e-04 0.0 
0.0 0.0 0.0 
5.089247226397e-05 -2.012842684163e-05 0.0 
-2.012842684163e-05 2.699374449313e-04 0.0 
0.0 0.0 0.0 
5.933926122115e-05 7.992764376673e-05 0.0 
7.992764376673e-05 1.111264424695e-03 0.0 
0.0 0.0 0.0 
1.053154662012e-04 -4.931593294025e-07 0.0 
-4.931593294025e-07 6.297300691953e-04 0.0 
0.0 0.0 0.0 
5.510779224904e-05 -1.611458929229e-05 0.0 
-1.611458929229e-05 2.938130684589e-04 0.0 
0.0 0.0 0.0 
1.017237378835e-04 -4.993258501782e-06 0.0 
-4.993258501782e-06 5.942047291463e-04 0.0 
0.0 0.0 0.0 
9.529132778319e-05 -7.052437619159e-06 0.0 
-7.052437619159e-06 4.449632430894e-04 0.0 
0.0 0.0 0.0 
7.043654953076e-05 -3.058321479550e-05 0.0 
-3.058321479550e-05 3.402743164251e-04 0.0 
0.0 0.0 0.0 
1.032313016591e-04 1.035793610133e-05 0.0 
1.035793610133e-05 7.110045793217e-04 0.0 
0.0 0.0 0.0 
-1.857341062139e-05 -7.218468183637e-06 0.0 
-7.218468183637e-06 2.783859886679e-05 0.0 
0.0 0.0 0.0 
-2.936657607333e-05 -7.688203024600e-06 0.0 
-7.688203024600e-06 3.256456300127e-05 0.0 
0.0 0.0 0.0 
9.746646569853e-05 1.790398555016e-05 0.0 
1.790398555016e-05 8.276540123655e-04 0.0 
0.0 0.0 0.0 
4.522160541698e-05 -2.442694442287e-05 0.0 
-2.442694442287e-05 2.469036690871e-04 0.0 
0.0 0.0 0.0 
1.015228481656e-04 2.951315953663e-05 0.0 
2.951315953663e-05 8.402658498077e-04 0.0 
0.0 0.0 0.0 
1.079205828287e-04 3.165324765688e-05 0.0 
3.165324765688e-05 8.121946018380e-04 0.0 
0.0 0.0 0.0 
1.129685357881e-04 -2.169455056897e-06 0.0 
-2.169455056897e-06 4.867651215998e-04 0.0 
0.0 0.0 0.0 
8.716488427196e-05 -1.510511749324e-05 0.0 
-1.510511749324e-05 3.169010302879e-04 0.0 
0.0 0.0 0.0 
-8.337984297802e-05 5.348693169692e-05 0.0 
5.348693169692e-05 2.080525398138e-03 0.0 
0.0 0.0 0.0 
-2.519920959909e-05 5.691411878501e-05 0.0 
5.691411878501e-05 2.125694480282e-04 0.0 
0.0 0.0 0.0 
9.626269147422e-05 -4.139197609775e-06 0.0 
-4.139197609775e-06 4.710437866526e-04 0.0 
0.0 0.0 0.0 
7.813301458337e-05 1.553875090517e-04 0.0 
1.553875090517e-04 1.139410742464e-03 0.0 
0.0 0.0 0.0 
4.082812715045e-05 -1.157163498253e-05 0.0 
-1.157163498253e-05 2.109812681910e-04 0.0 
0.0 0.0 0.0 
-1.130645796154e-04 1.423877786320e-05 0.0 
1.423877786320e-05 1.890070639683e-03 0.0 
0.0 0.0 0.0 
-1.155007484442e-04 5.627188596456e-06 0.0 
5.627188596456e-06 1.828293403099e-03 0.0 
0.0 0.0 0.0 
3.151197584006e-05 -3.825762028272e-05 0.0 
-3.825762028272e-05 2.079129533232e-04 0.0 
0.0 0.0 0.0 
7.703945737103e-05 1.019476943031e-04 0.0 
1.019476943031e-04 1.074116057483e-03 0.0 
0.0 0.0 0.0 
-1.112226448521e-04 4.455593270020e-05 0.0 
4.455593270020e-05 1.999785781188e-03 0.0 
0.0 0.0 0.0 
4.761519353691e-05 -1.468313239488e-05 0.0 
-1.468313239488e-05 2.449208547042e-04 0.0 
0.0 0.0 0.0 
-8.095005253383e-05 6.796496812536e-05 0.0 
6.796496812536e-05 2.101452960014e-03 0.0 
0.0 0.0 0.0 
-6.670427764854e-05 7.274346532959e-05 0.0 
7.274346532959e-05 2.100620451664e-03 0.0 
0.0 0.0 0.0 
5.287241347784e-05 -2.789660402522e-05 0.0 
-2.789660402522e-05 2.771940829553e-04 0.0 
0.0 0.0 0.0 
-2.195085067325e-05 2.300135154163e-04 0.0 
2.300135154163e-04 8.727218511135e-04 0.0 
0.0 0.0 0.0 
5.570842942415e-05 -3.403760629894e-05 0.0 
-3.403760629894e-05 2.849180853899e-04 0.0 
0.0 0.0 0.0 
8.904613673133e-05 2.362393135006e-05 0.0 
2.362393135006e-05 8.984692754908e-04 0.0 
0.0 0.0 0.0 
1.062254647681e-04 1.121551885548e-05 0.0 
1.121551885548e-05 6.834243923073e-04 0.0 
0.0 0.0 0.0 
-9.273553896738e-05 1.965870751026e-04 0.0 
1.965870751026e-04 2.015475738158e-03 0.0 
0.0 0.0 0.0 
-7.121762922802e-05 5.865125147890e-05 0.0 
5.865125147890e-05 2.079877241216e-03 0.0 
0.0 0.0 0.0 
9.521058801010e-05 2.685989932302e-05 0.0 
2.685989932302e-05 8.691387516915e-04 0.0 
0.0 0.0 0.0 
1.011831198661e-04 3.851632213601e-05 0.0 
3.851632213601e-05 8.673192292943e-04 0.0 
0.0 0.0 0.0 
4.268622805492e-05 -2.302363813227e-05 0.0 
-2.302363813227e-05 2.286029262162e-04 0.0 
0.0 0.0 0.0 
9.336048999553e-05 3.493871260918e-05 0.0 
3.493871260918e-05 8.967121221255e-04 0.0 
0.0 0.0 0.0 
-9.754791226624e-05 4.966090035570e-05 0.0 
4.966090035570e-05 1.999143063788e-03 0.0 
0.0 0.0 0.0 
1.021841092679e-04 8.095505867685e-07 0.0 
8.095505867685e-07 6.850606432443e-04 0.0 
0.0 0.0 0.0 
-1.073648507909e-04 2.258602852985e-05 0.0 
2.258602852985e-05 1.948321595711e-03 0.0 
0.0 0.0 0.0 
-9.846678405845e-05 4.311360545359e-05 0.0 
4.311360545359e-05 2.028916796713e-03 0.0 
0.0 0.0 0.0 
1.488033818051e-04 1.643886290064e-04 0.0 
1.643886290064e-04 7.760023863752e-04 0.0 
0.0 0.0 0.0 
-7.447563618668e-05 4.680547049344e-05 0.0 
4.680547049344e-05 2.057040387232e-03 0.0 
0.0 0.0 0.0 
1.025065021087e-04 3.600734698557e-06 0.0 
3.600734698557e-06 5.603698824788e-04 0.0 
0.0 0.0 0.0 
1.037064007741e-04 4.623491831424e-07 0.0 
4.623491831424e-07 6.571885693463e-04 0.0 
0.0 0.0 0.0 
8.670762746443e-05 -7.256921839568e-06 0.0 
-7.256921839568e-06 4.133696396933e-04 0.0 
0.0 0.0 0.0 
1.007510669708e-04 -2.065642284926e-05 0.0 
-2.065642284926e-05 4.402152270626e-04 0.0 
0.0 0.0 0.0 
-9.755488637497e-05 3.846784374713e-05 0.0 
3.846784374713e-05 1.973939581228e-03 0.0 
0.0 0.0 0.0 
1.310269451422e-04 2.293472918983e-05 0.0 
2.293472918983e-05 6.410951283200e-04 0.0 
0.0 0.0 0.0 
6.127278410983e-05 -3.001756267516e-05 0.0 
-3.001756267516e-05 3.086160769621e-04 0.0 
0.0 0.0 0.0 
1.261220444615e-05 -3.546936985004e-05 0.0 
-3.546936985004e-05 1.554210373240e-04 0.0 
0.0 0.0 0.0 
-1.093812241992e-04 3.261448562241e-05 0.0 
3.261448562241e-05 1.974662988310e-03 0.0 
0.0 0.0 0.0 
6.661069098324e-05 -1.858149916809e-05 0.0 
-1.858149916809e-05 3.068123414049e-04 0.0 
0.0 0.0 0.0 
6.256957681883e-05 9.965123212550e-05 0.0 
9.965123212550e-05 1.126999808757e-03 0.0 
0.0 0.0 0.0 
-8.739073369002e-05 3.795410067164e-05 0.0 
3.795410067164e-05 2.003421322551e-03 0.0 
0.0 0.0 0.0 
8.938714884343e-05 4.515719715888e-05 0.0 
4.515719715888e-05 9.398508136853e-04 0.0 
0.0 0.0 0.0 
3.098332555851e-05 2.145691482156e-04 0.0 
2.145691482156e-04 1.310808753811e-03 0.0 
0.0 0.0 0.0 
9.735848907400e-05 -9.700674589968e-06 0.0 
-9.700674589968e-06 5.323665166066e-04 0.0 
0.0 0.0 0.0 
5.654806227740e-05 -1.716266829682e-05 0.0 
-1.716266829682e-05 2.755155030327e-04 0.0 
0.0 0.0 0.0 
2.304386418017e-05 -2.137704904060e-05 0.0 
-2.137704904060e-05 1.743461945534e-04 0.0 
0.0 0.0 0.0 
9.931610473335e-05 4.086584712142e-05 0.0 
4.086584712142e-05 8.832783119892e-04 0.0 
0.0 0.0 0.0 
-9.732269236662e-05 2.215841870535e-05 0.0 
2.215841870535e-05 1.920416923449e-03 0.0 
0.0 0.0 0.0 
3.964364744036e-06 -1.862561952494e-05 0.0 
-1.862561952494e-05 1.231114347424e-04 0.0 
0.0 0.0 0.0 
8.639737051719e-05 -2.158650612829e-05 0.0 
-2.158650612829e-05 4.214781346250e-04 0.0 
0.0 0.0 0.0 
4.422455039244e-05 -1.643497135077e-05 0.0 
-1.643497135077e-05 2.390474726977e-04 0.0 
0.0 0.0 0.0 
-1.163396981785e-04 2.259762295672e-05 0.0 
2.259762295672e-05 1.917813657227e-03 0.0 
0.0 0.0 0.0 
8.903051691211e-05 -1.787581314045e-05 0.0 
-1.787581314045e-05 4.466560697902e-04 0.0 
0.0 0.0 0.0 
1.168946470835e-04 4.383671084998e-05 0.0 
4.383671084998e-05 8.102083421901e-04 0.0 
0.0 0.0 0.0 
8.174744429468e-05 -1.837163852784e-05 0.0 
-1.837163852784e-05 4.145427984237e-04 0.0 
0.0 0.0 0.0 
-7.512213262861e-05 2.682029641597e-05 0.0 
2.682029641597e-05 2.062258096184e-03 0.0 
0.0 0.0 0.0 
8.123358786150e-05 -1.500206123503e-05 0.0 
-1.500206123503e-05 3.627567319078e-04 0.0 
0.0 0.0 0.0 
1.043364000821e-04 5.723632048902e-05 0.0 
5.723632048902e-05 9.005481196529e-04 0.0 
0.0 0.0 0.0 
4.595471350921e-05 -4.363195715582e-05 0.0 
-4.363195715582e-05 2.546096836757e-04 0.0 
0.0 0.0 0.0 
1.067649945548e-04 4.361847224881e-05 0.0 
4.361847224881e-05 8.552494642020e-04 0.0 
0.0 0.0 0.0 
1.014923545757e-04 -2.220516924847e-06 0.0 
-2.220516924847e-06 6.230065683599e-04 0.0 
0.0 0.0 0.0 
9.842631086987e-05 4.942960203417e-05 0.0 
4.942960203417e-05 9.102746300382e-04 0.0 
0.0 0.0 0.0 
1.382311443681e-04 5.506534287611e-05 0.0 
5.506534287611e-05 4.626264201368e-04 0.0 
0.0 0.0 0.0 
4.601719685926e-05 -7.117744443467e-06 0.0 
-7.117744443467e-06 2.366672685903e-04 0.0 
0.0 0.0 0.0 
-1.099052091919e-04 7.759706953561e-06 0.0 
7.759706953561e-06 1.861527099511e-03 0.0 
0.0 0.0 0.0 
1.353869294143e-04 1.120936248821e-04 0.0 
1.120936248821e-04 8.878347455299e-04 0.0 
0.0 0.0 0.0 
2.515073998866e-05 2.711955578202e-04 0.0 
2.711955578202e-04 1.050551706937e-03 0.0 
0.0 0.0 0.0 
-1.053716923797e-04 1.435834660011e-05 0.0 
1.435834660011e-05 1.920674131811e-03 0.0 
0.0 0.0 0.0 
6.031663480011e-05 -4.089617086564e-05 0.0 
-4.089617086564e-05 2.867130586817e-04 0.0 
0.0 0.0 0.0 
-1.191098177233e-04 4.886504705373e-05 0.0 
4.886504705373e-05 1.939167381880e-03 0.0 
0.0 0.0 0.0 
3.786496226388e-05 -2.064455902552e-05 0.0 
-2.064455902552e-05 2.145118998140e-04 0.0 
0.0 0.0 0.0 
7.463904349914e-05 7.774296251301e-05 0.0 
7.774296251301e-05 1.051795631040e-03 0.0 
0.0 0.0 0.0 
1.299264701584e-04 1.340172108866e-04 0.0 
1.340172108866e-04 9.477957010924e-04 0.0 
0.0 0.0 0.0 
1.006720680485e-04 2.156381955708e-04 0.0 
2.156381955708e-04 1.146783293324e-03 0.0 
0.0 0.0 0.0 
-6.439498141952e-05 6.341640814820e-05 0.0 
6.341640814820e-05 2.130481314491e-03 0.0 
0.0 0.0 0.0 
1.310341259597e-04 3.635526501481e-05 0.0 
3.635526501481e-05 7.080724143922e-04 0.0 
0.0 0.0 0.0 
4.078054397416e-05 -1.799224414715e-05 0.0 
-1.799224414715e-05 2.217468579768e-04 0.0 
0.0 0.0 0.0 
1.209429030213e-04 4.802825883459e-05 0.0 
4.802825883459e-05 8.021852813169e-04 0.0 
0.0 0.0 0.0 
7.290428430529e-05 1.075891868722e-04 0.0 
1.075891868722e-04 1.100437005453e-03 0.0 
0.0 0.0 0.0 
9.369051986940e-05 -2.584212819738e-05 0.0 
-2.584212819738e-05 3.764939103923e-04 0.0 
0.0 0.0 0.0 
9.184041663945e-05 3.748508901436e-05 0.0 
3.748508901436e-05 9.121334832924e-04 0.0 
0.0 0.0 0.0 
-9.821200848892e-05 3.152773177017e-05 0.0 
3.152773177017e-05 2.004209477750e-03 0.0 
0.0 0.0 0.0 
8.039475391697e-05 -1.299655821739e-05 0.0 
-1.299655821739e-05 2.956830759020e-04 0.0 
0.0 0.0 0.0 
1.140061747764e-04 4.594059441236e-05 0.0 
4.594059441236e-05 8.282392369858e-04 0.0 
0.0 0.0 0.0 
-1.309404461634e-04 2.023643102957e-05 0.0 
2.023643102957e-05 1.854571642290e-03 0.0 
0.0 0.0 0.0 
6.298281240724e-05 -1.905219197818e-05 0.0 
-1.905219197818e-05 3.256219535845e-04 0.0 
0.0 0.0 0.0 
8.358530951669e-05 -2.557825445191e-05 0.0 
-2.557825445191e-05 3.966808460294e-04 0.0 
0.0 0.0 0.0 
3.107030682070e-05 2.629904343006e-04 0.0 
2.629904343006e-04 1.176297387576e-03 0.0 
0.0 0.0 0.0 
1.074186117647e-04 5.301647875758e-05 0.0 
5.301647875758e-05 8.813606271256e-04 0.0 
0.0 0.0 0.0 
-3.689357098224e-05 2.706486813429e-04 0.0 
2.706486813429e-04 1.145229769259e-03 0.0 
0.0 0.0 0.0 
5.370853443343e-05 2.483882385826e-04 0.0 
2.483882385826e-04 1.080659081845e-03 0.0 
0.0 0.0 0.0 
-1.086319747259e-04 4.958510482470e-05 0.0 
4.958510482470e-05 1.969455098979e-03 0.0 
0.0 0.0 0.0 
-1.040684431388e-04 2.150880109899e-05 0.0 
2.150880109899e-05 1.889196759870e-03 0.0 
0.0 0.0 0.0 
-1.242061242752e-04 3.450192551210e-05 0.0 
3.450192551210e-05 1.882678682817e-03 0.0 
0.0 0.0 0.0 
1.058996592893e-04 6.828239777412e-06 0.0 
6.828239777412e-06 6.209760306941e-04 0.0 
0.0 0.0 0.0 
8.771291912701e-05 1.071866957408e-04 0.0 
1.071866957408e-04 1.050015090979e-03 0.0 
0.0 0.0 0.0 
1.274662295143e-04 4.995865374283e-05 0.0 
4.995865374283e-05 7.772310056133e-04 0.0 
0.0 0.0 0.0 
-1.203377472088e-04 1.330225500321e-05 0.0 
1.330225500321e-05 1.858575493583e-03 0.0 
0.0 0.0 0.0 
-9.090513810506e-05 2.558909456843e-04 0.0 
2.558909456843e-04 1.945676139478e-03 0.0 
0.0 0.0 0.0 
8.459418433260e-05 2.361159213555e-04 0.0 
2.361159213555e-04 1.224268330126e-03 0.0 
0.0 0.0 0.0 
1.162575640723e-04 5.614465810086e-05 0.0 
5.614465810086e-05 8.532643943471e-04 0.0 
0.0 0.0 0.0 
-8.604986215544e-05 4.867031908404e-05 0.0 
4.867031908404e-05 2.028224440995e-03 0.0 
0.0 0.0 0.0 
1.019688248827e-04 -1.803763094188e-05 0.0 
-1.803763094188e-05 4.638757094269e-04 0.0 
0.0 0.0 0.0 
9.274012787786e-05 -2.282480958581e-05 0.0 
-2.282480958581e-05 4.297292351378e-04 0.0 
0.0 0.0 0.0 
3.967100759139e-05 -3.550009359587e-05 0.0 
-3.550009359587e-05 2.305397145019e-04 0.0 
0.0 0.0 0.0 
1.202977683012e-04 6.342251932206e-05 0.0 
6.342251932206e-05 8.485721092193e-04 0.0 
0.0 0.0 0.0 
9.441515398123e-05 -1.928041181290e-05 0.0 
-1.928041181290e-05 4.546996151842e-04 0.0 
0.0 0.0 0.0 
-1.199988396831e-04 3.275196596146e-05 0.0 
3.275196596146e-05 1.944546388350e-03 0.0 
0.0 0.0 0.0 
-1.299579672530e-04 3.231592955361e-05 0.0 
3.231592955361e-05 1.913921313891e-03 0.0 
0.0 0.0 0.0 
1.434666396507e-04 1.281677340537e-04 0.0 
1.281677340537e-04 7.798954074125e-04 0.0 
0.0 0.0 0.0 
8.918929326773e-05 -1.655138232186e-05 0.0 
-1.655138232186e-05 3.703732278304e-04 0.0 
0.0 0.0 0.0 
1.284871556575e-04 1.054136967047e-04 0.0 
1.054136967047e-04 5.014564905870e-04 0.0 
0.0 0.0 0.0 
9.180111438312e-05 -1.347559927427e-05 0.0 
-1.347559927427e-05 3.947564650904e-04 0.0 
0.0 0.0 0.0 
1.024908933713e-04 -9.918247425905e-06 0.0 
-9.918247425905e-06 4.276805525865e-04 0.0 
0.0 0.0 0.0 
5.022732010729e-05 -2.043897206175e-05 0.0 
-2.043897206175e-05 2.520086050930e-04 0.0 
0.0 0.0 0.0 
9.798160345564e-05 1.127467403328e-04 0.0 
1.127467403328e-04 1.026186100042e-03 0.0 
0.0 0.0 0.0 
1.332532913552e-04 1.366626976241e-05 0.0 
1.366626976241e-05 5.345721631693e-04 0.0 
0.0 0.0 0.0 
-8.540665874901e-05 4.061569060090e-05 0.0 
4.061569060090e-05 2.057805669235e-03 0.0 
0.0 0.0 0.0 
1.418858975450e-04 2.605245916740e-05 0.0 
2.605245916740e-05 5.738856094140e-04 0.0 
0.0 0.0 0.0 
1.330398654469e-04 6.181780249958e-05 0.0 
6.181780249958e-05 8.000113200222e-04 0.0 
0.0 0.0 0.0 
1.405456645225e-04 3.733705846765e-05 0.0 
3.733705846765e-05 6.628652530891e-04 0.0 
0.0 0.0 0.0 
9.230728036291e-05 2.156141845266e-04 0.0 
2.156141845266e-04 9.624131236809e-04 0.0 
0.0 0.0 0.0 
4.665126687065e-05 -3.178765949085e-05 0.0 
-3.178765949085e-05 2.539073990737e-04 0.0 
0.0 0.0 0.0 
8.482032882218e-05 1.126103259291e-04 0.0 
1.126103259291e-04 1.072079760635e-03 0.0 
0.0 0.0 0.0 
6.644121003663e-05 1.194703663593e-04 0.0 
1.194703663593e-04 1.133792060868e-03 0.0 
0.0 0.0 0.0 
4.934128205125e-06 2.853638843157e-04 0.0 
2.853638843157e-04 1.390389175897e-03 0.0 
0.0 0.0 0.0 
1.131647394375e-04 -4.256454975128e-06 0.0 
-4.256454975128e-06 4.616822130010e-04 0.0 
0.0 0.0 0.0 
1.386833501129e-04 4.956249772806e-05 0.0 
4.956249772806e-05 7.303504440292e-04 0.0 
0.0 0.0 0.0 
-1.071612939114e-04 3.814420588308e-05 0.0 
3.814420588308e-05 1.943878085386e-03 0.0 
0.0 0.0 0.0 
1.026213271864e-04 -1.501967802767e-05 0.0 
-1.501967802767e-05 4.887951801653e-04 0.0 
0.0 0.0 0.0 
4.601223084677e-05 2.378653505334e-04 0.0 
2.378653505334e-04 9.540674398762e-04 0.0 
0.0 0.0 0.0 
7.441726805779e-05 -2.641211015165e-05 0.0 
-2.641211015165e-05 3.645587860779e-04 0.0 
0.0 0.0 0.0 
7.447285714046e-05 -3.525570073458e-05 0.0 
-3.525570073458e-05 3.200846471469e-04 0.0 
0.0 0.0 0.0 
1.110610536017e-04 -1.111734156344e-05 0.0 
-1.111734156344e-05 4.993649575664e-04 0.0 
0.0 0.0 0.0 
7.122838342699e-05 -1.506331837021e-05 0.0 
-1.506331837021e-05 3.310603174651e-04 0.0 
0.0 0.0 0.0 
5.814260372716e-05 -2.376599491226e-05 0.0 
-2.376599491226e-05 3.011070957102e-04 0.0 
0.0 0.0 0.0 
1.272215734884e-04 2.270004588890e-05 0.0 
2.270004588890e-05 6.651872058210e-04 0.0 
0.0 0.0 0.0 
1.248600113870e-04 5.908786815401e-05 0.0 
5.908786815401e-05 8.261599875410e-04 0.0 
0.0 0.0 0.0 
-7.817850838809e-06 3.021898863705e-04 0.0 
3.021898863705e-04 1.594396196598e-03 0.0 
0.0 0.0 0.0 
-3.892300844244e-05 -5.100743314427e-06 0.0 
-5.100743314427e-06 3.305881298510e-05 0.0 
0.0 0.0 0.0 
1.538651750879e-04 4.691546327388e-05 0.0 
4.691546327388e-05 5.736349615129e-04 0.0 
0.0 0.0 0.0 
1.442493959767e-04 2.745128179721e-05 0.0 
2.745128179721e-05 5.511404560288e-04 0.0 
0.0 0.0 0.0 
1.236388706405e-04 3.545516868462e-06 0.0 
3.545516868462e-06 4.971828586076e-04 0.0 
0.0 0.0 0.0 
-1.160521617866e-04 3.668126475117e-05 0.0 
3.668126475117e-05 1.913375066627e-03 0.0 
0.0 0.0 0.0 
1.387099454864e-04 2.531760519041e-05 0.0 
2.531760519041e-05 5.975543910108e-04 0.0 
0.0 0.0 0.0 
8.430460846465e-05 -1.129526044933e-05 0.0 
-1.129526044933e-05 3.876222922354e-04 0.0 
0.0 0.0 0.0 
1.197209939956e-04 -1.648784227557e-06 0.0 
-1.648784227557e-06 5.369989417838e-04 0.0 
0.0 0.0 0.0 
-7.733642221419e-05 3.644873352871e-05 0.0 
3.644873352871e-05 2.032608569484e-03 0.0 
0.0 0.0 0.0 
7.759067248103e-05 -2.214675462073e-05 0.0 
-2.214675462073e-05 3.893463929572e-04 0.0 
0.0 0.0 0.0 
1.514147467563e-05 -1.739253095176e-05 0.0 
-1.739253095176e-05 1.424833042105e-04 0.0 
0.0 0.0 0.0 
3.258051025123e-05 -2.025258366879e-05 0.0 
-2.025258366879e-05 1.978336079729e-04 0.0 
0.0 0.0 0.0 
9.250745299383e-05 -1.569439092661e-05 0.0 
-1.569439092661e-05 3.388011286063e-04 0.0 
0.0 0.0 0.0 
1.009717840286e-04 -1.251303524816e-05 0.0 
-1.251303524816e-05 4.035854381241e-04 0.0 
0.0 0.0 0.0 
1.520438956712e-04 4.326889274137e-05 0.0 
4.326889274137e-05 5.939231222787e-04 0.0 
0.0 0.0 0.0 
1.275410110759e-04 9.991695425363e-06 0.0 
9.991695425363e-06 5.766148825757e-04 0.0 
0.0 0.0 0.0 
3.705167653645e-05 -4.551770780725e-05 0.0 
-4.551770780725e-05 2.328355096812e-04 0.0 
0.0 0.0 0.0 
3.170958522625e-05 -3.217366530647e-05 0.0 
-3.217366530647e-05 1.995894610194e-04 0.0 
0.0 0.0 0.0 
-1.568311484754e-04 4.442997044744e-05 0.0 
4.442997044744e-05 1.874952094117e-03 0.0 
0.0 0.0 0.0 
6.605678861482e-05 -2.580985125511e-05 0.0 
-2.580985125511e-05 3.327277567973e-04 0.0 
0.0 0.0 0.0 
1.161531171507e-04 1.074126076584e-04 0.0 
1.074126076584e-04 9.706396647122e-04 0.0 
0.0 0.0 0.0 
8.305856903812e-06 2.969648380958e-04 0.0 
2.969648380958e-04 1.509941130364e-03 0.0 
0.0 0.0 0.0 
-1.818920862957e-04 1.709264904665e-04 0.0 
1.709264904665e-04 1.804143817977e-03 0.0 
0.0 0.0 0.0 
-9.270799620265e-05 9.566687582796e-05 0.0 
9.566687582796e-05 2.061747387045e-03 0.0 
0.0 0.0 0.0 
-1.878690125523e-05 3.048309382979e-04 0.0 
3.048309382979e-04 1.674491055040e-03 0.0 
0.0 0.0 0.0 
1.377902836481e-04 1.396207665956e-04 0.0 
1.396207665956e-04 7.797734402590e-04 0.0 
0.0 0.0 0.0 
6.684818565805e-06 2.898500976434e-04 0.0 
2.898500976434e-04 1.449913620884e-03 0.0 
0.0 0.0 0.0 
5.170716982472e-05 -4.244675951602e-05 0.0 
-4.244675951602e-05 2.654877069863e-04 0.0 
0.0 0.0 0.0 
1.182823644867e-04 -2.843395315534e-07 0.0 
-2.843395315534e-07 5.610846561410e-04 0.0 
0.0 0.0 0.0 
1.263074236066e-04 1.932456711208e-04 0.0 
1.932456711208e-04 7.890169141145e-04 0.0 
0.0 0.0 0.0 
8.988375345043e-05 5.136764282971e-06 0.0 
5.136764282971e-06 3.136018401773e-04 0.0 
0.0 0.0 0.0 
2.445427631237e-05 -4.629527098486e-05 0.0 
-4.629527098486e-05 2.136368015264e-04 0.0 
0.0 0.0 0.0 
1.033879723342e-04 -7.152980934245e-06 0.0 
-7.152980934245e-06 4.527942419372e-04 0.0 
0.0 0.0 0.0 
1.293179442989e-04 1.011833987020e-05 0.0 
1.011833987020e-05 5.542397014460e-04 0.0 
0.0 0.0 0.0 
1.365491428496e-04 2.497358074400e-05 0.0 
2.497358074400e-05 5.969505572323e-04 0.0 
0.0 0.0 0.0 
7.505644620087e-05 -1.139862019714e-05 0.0 
-1.139862019714e-05 3.556284097792e-04 0.0 
0.0 0.0 0.0 
1.453011497110e-04 3.861150021787e-05 0.0 
3.861150021787e-05 6.386148417805e-04 0.0 
0.0 0.0 0.0 
1.380356053873e-04 2.723939538991e-05 0.0 
2.723939538991e-05 5.771563398440e-04 0.0 
0.0 0.0 0.0 
1.598415590265e-04 6.584257775405e-05 0.0 
6.584257775405e-05 6.211448126725e-04 0.0 
0.0 0.0 0.0 
9.049267905126e-05 -2.620710242785e-05 0.0 
-2.620710242785e-05 4.056790387053e-04 0.0 
0.0 0.0 0.0 
1.255275977312e-04 1.631148193158e-04 0.0 
1.631148193158e-04 1.002990799427e-03 0.0 
0.0 0.0 0.0 
-1.234763767483e-04 4.543185045520e-05 0.0 
4.543185045520e-05 1.969984216163e-03 0.0 
0.0 0.0 0.0 
1.603271145609e-04 7.232816750255e-05 0.0 
7.232816750255e-05 6.048899411328e-04 0.0 
0.0 0.0 0.0 
9.788574995206e-05 1.201163038842e-04 0.0 
1.201163038842e-04 1.047998506790e-03 0.0 
0.0 0.0 0.0 
6.735453827522e-05 -3.562677658422e-05 0.0 
-3.562677658422e-05 2.991496279461e-04 0.0 
0.0 0.0 0.0 
7.808828363753e-05 1.624744582747e-04 0.0 
1.624744582747e-04 1.165452626122e-03 0.0 
0.0 0.0 0.0 
1.490781480642e-04 4.047253791447e-05 0.0 
4.047253791447e-05 6.154746706515e-04 0.0 
0.0 0.0 0.0 
-2.312448342823e-05 3.136697279648e-04 0.0 
3.136697279648e-04 1.755861265562e-03 0.0 
0.0 0.0 0.0 
-9.337442322055e-05 2.695383500631e-04 0.0 
2.695383500631e-04 1.586718475366e-03 0.0 
0.0 0.0 0.0 
7.051879428754e-05 -2.246553975800e-05 0.0 
-2.246553975800e-05 2.838254612600e-04 0.0 
0.0 0.0 0.0 
-1.668190145482e-04 2.004250786559e-04 0.0 
2.004250786559e-04 1.788582281605e-03 0.0 
0.0 0.0 0.0 
-9.816157791032e-05 1.410769141609e-04 0.0 
1.410769141609e-04 2.053724093971e-03 0.0 
0.0 0.0 0.0 
1.545068588917e-04 5.685228682055e-05 0.0 
5.685228682055e-05 6.600480749950e-04 0.0 
0.0 0.0 0.0 
7.313541428955e-05 1.888275942745e-04 0.0 
1.888275942745e-04 7.574377612092e-04 0.0 
0.0 0.0 0.0 
-1.469670481274e-04 2.259504798146e-04 0.0 
2.259504798146e-04 1.766245821992e-03 0.0 
0.0 0.0 0.0 
2.737533406050e-05 2.733984267798e-04 0.0 
2.733984267798e-04 1.112313891957e-03 0.0 
0.0 0.0 0.0 
4.472695849067e-05 -2.659659979579e-05 0.0 
-2.659659979579e-05 2.296975347040e-04 0.0 
0.0 0.0 0.0 
-4.588051791288e-05 1.251822411988e-04 0.0 
1.251822411988e-04 2.150388636569e-03 0.0 
0.0 0.0 0.0 
2.709837234516e-05 -2.717583657378e-05 0.0 
-2.717583657378e-05 1.991791681024e-04 0.0 
0.0 0.0 0.0 
6.749361638092e-05 2.415824709508e-04 0.0 
2.415824709508e-04 1.298757606871e-03 0.0 
0.0 0.0 0.0 
-5.842354069774e-05 5.497602401101e-05 0.0 
5.497602401101e-05 2.107692825823e-03 0.0 
0.0 0.0 0.0 
1.219759828941e-04 1.559979795136e-04 0.0 
1.559979795136e-04 1.011738912560e-03 0.0 
0.0 0.0 0.0 
-1.131400193114e-04 2.760960811189e-05 0.0 
2.760960811189e-05 1.885313074637e-03 0.0 
0.0 0.0 0.0 
-1.122429672153e-04 7.503722165020e-05 0.0 
7.503722165020e-05 2.044062260270e-03 0.0 
0.0 0.0 0.0 
1.440093287526e-04 4.551568871494e-05 0.0 
4.551568871494e-05 6.245519487469e-04 0.0 
0.0 0.0 0.0 
1.411311322892e-04 1.422083015376e-04 0.0 
1.422083015376e-04 8.516838500243e-04 0.0 
0.0 0.0 0.0 
-7.148713507088e-05 1.102177152746e-04 0.0 
1.102177152746e-04 2.106422706247e-03 0.0 
0.0 0.0 0.0 
1.141725818481e-04 7.008822620572e-05 0.0 
7.008822620572e-05 8.984872186437e-04 0.0 
0.0 0.0 0.0 
-1.260926196338e-04 6.046997165480e-05 0.0 
6.046997165480e-05 1.993338394740e-03 0.0 
0.0 0.0 0.0 
1.433298460640e-04 1.231312159966e-04 0.0 
1.231312159966e-04 9.031208648544e-04 0.0 
0.0 0.0 0.0 
6.265705620589e-05 -2.191536809524e-05 0.0 
-2.191536809524e-05 2.621893362147e-04 0.0 
0.0 0.0 0.0 
-1.274749779232e-04 7.786478441219e-05 0.0 
7.786478441219e-05 2.014046222487e-03 0.0 
0.0 0.0 0.0 
5.503753208069e-06 3.468786750008e-04 0.0 
3.468786750008e-04 1.687396616573e-03 0.0 
0.0 0.0 0.0 
7.498982144227e-05 1.334255392065e-04 0.0 
1.334255392065e-04 1.130589187210e-03 0.0 
0.0 0.0 0.0 
1.309665040177e-04 1.403806419583e-05 0.0 
1.403806419583e-05 5.588276370727e-04 0.0 
0.0 0.0 0.0 
-1.243897101716e-04 2.132203245133e-05 0.0 
2.132203245133e-05 1.885922502624e-03 0.0 
0.0 0.0 0.0 
-1.196242540465e-04 2.523791865115e-05 0.0 
2.523791865115e-05 1.853961373932e-03 0.0 
0.0 0.0 0.0 
1.341548274318e-04 2.346646729561e-05 0.0 
2.346646729561e-05 6.181734537793e-04 0.0 
0.0 0.0 0.0 
1.237213537875e-04 7.387231612111e-05 0.0 
7.387231612111e-05 8.718378707244e-04 0.0 
0.0 0.0 0.0 
1.208726832833e-04 8.996878729357e-05 0.0 
8.996878729357e-05 9.198209276375e-04 0.0 
0.0 0.0 0.0 
2.350295400033e-05 -3.423479059252e-05 0.0 
-3.423479059252e-05 1.763638447234e-04 0.0 
0.0 0.0 0.0 
1.096409939150e-04 9.514952102916e-05 0.0 
9.514952102916e-05 4.366796877890e-04 0.0 
0.0 0.0 0.0 
1.633170801012e-04 9.429034957127e-05 0.0 
9.429034957127e-05 6.590563481108e-04 0.0 
0.0 0.0 0.0 
1.444106103636e-04 5.023264907462e-05 0.0 
5.023264907462e-05 6.087082891328e-04 0.0 
0.0 0.0 0.0 
7.527738208446e-05 2.493540689591e-04 0.0 
2.493540689591e-04 9.835522732378e-04 0.0 
0.0 0.0 0.0 
-7.010232965698e-05 1.015196948957e-04 0.0 
1.015196948957e-04 2.136433224378e-03 0.0 
0.0 0.0 0.0 
-9.089293003106e-05 2.286706942993e-04 0.0 
2.286706942993e-04 1.958758584433e-03 0.0 
0.0 0.0 0.0 
-6.871199761760e-05 4.906721806878e-05 0.0 
4.906721806878e-05 2.108170911362e-03 0.0 
0.0 0.0 0.0 
-6.218462774066e-05 2.770826234146e-04 0.0 
2.770826234146e-04 1.254088039664e-03 0.0 
0.0 0.0 0.0 
-1.192112755601e-04 1.224290498665e-04 0.0 
1.224290498665e-04 2.011008893412e-03 0.0 
0.0 0.0 0.0 
1.124881256294e-04 6.048183535150e-05 0.0 
6.048183535150e-05 8.739382899803e-04 0.0 
0.0 0.0 0.0 
-6.289032570539e-05 8.797225096451e-05 0.0 
8.797225096451e-05 2.119934421978e-03 0.0 
0.0 0.0 0.0 
-1.417745754820e-04 8.031400006632e-05 0.0 
8.031400006632e-05 1.983024948478e-03 0.0 
0.0 0.0 0.0 
1.251653347756e-04 1.027016864170e-05 0.0 
1.027016864170e-05 5.999686652247e-04 0.0 
0.0 0.0 0.0 
1.614764173308e-04 1.037022497230e-04 0.0 
1.037022497230e-04 6.479610086609e-04 0.0 
0.0 0.0 0.0 
-1.094494481594e-04 7.984118814216e-05 0.0 
7.984118814216e-05 2.013754648307e-03 0.0 
0.0 0.0 0.0 
-9.345662030324e-05 8.887214823097e-05 0.0 
8.887214823097e-05 2.091962399264e-03 0.0 
0.0 0.0 0.0 
-9.706502283569e-05 6.277314915484e-05 0.0 
6.277314915484e-05 2.022467209679e-03 0.0 
0.0 0.0 0.0 
-1.095594185683e-04 6.355960668464e-05 0.0 
6.355960668464e-05 1.992922929763e-03 0.0 
0.0 0.0 0.0 
9.343731502875e-05 9.699409794606e-05 0.0 
9.699409794606e-05 1.022190313659e-03 0.0 
0.0 0.0 0.0 
6.934688419302e-05 2.464906187688e-04 0.0 
2.464906187688e-04 1.296868580572e-03 0.0 
0.0 0.0 0.0 
1.052902071121e-04 1.020850984108e-04 0.0 
1.020850984108e-04 9.952716306347e-04 0.0 
0.0 0.0 0.0 
1.318134737731e-04 4.775295093752e-05 0.0 
4.775295093752e-05 7.560406361562e-04 0.0 
0.0 0.0 0.0 
-1.575299340190e-04 2.030681377888e-04 0.0 
2.030681377888e-04 1.491165425080e-03 0.0 
0.0 0.0 0.0 
1.116265604328e-04 1.787939021994e-04 0.0 
1.787939021994e-04 1.077838404972e-03 0.0 
0.0 0.0 0.0 
-1.445988931500e-04 1.316130071100e-04 0.0 
1.316130071100e-04 1.937250353892e-03 0.0 
0.0 0.0 0.0 
6.197157016286e-05 -1.359855416098e-05 0.0 
-1.359855416098e-05 2.995486092463e-04 0.0 
0.0 0.0 0.0 
1.480418925202e-04 7.187797789834e-05 0.0 
7.187797789834e-05 6.627657013423e-04 0.0 
0.0 0.0 0.0 
1.620691374498e-04 1.001890276847e-04 0.0 
1.001890276847e-04 7.415695676476e-04 0.0 
0.0 0.0 0.0 
1.355258927274e-04 1.564415051281e-04 0.0 
1.564415051281e-04 9.244453806789e-04 0.0 
0.0 0.0 0.0 
9.834884480231e-05 3.164187800243e-05 0.0 
3.164187800243e-05 3.385729406358e-04 0.0 
0.0 0.0 0.0 
1.465408055623e-04 7.957146152954e-05 0.0 
7.957146152954e-05 6.521328100522e-04 0.0 
0.0 0.0 0.0 
1.266445705805e-04 1.708079792513e-04 0.0 
1.708079792513e-04 9.982061719771e-04 0.0 
0.0 0.0 0.0 
-1.223252642139e-04 2.512888572873e-04 0.0 
2.512888572873e-04 1.461567120189e-03 0.0 
0.0 0.0 0.0 
1.348139152628e-04 2.500497022074e-05 0.0 
2.500497022074e-05 6.224323940047e-04 0.0 
0.0 0.0 0.0 
-1.508234323333e-04 6.286209388179e-05 0.0 
6.286209388179e-05 1.930990093150e-03 0.0 
0.0 0.0 0.0 
-1.153452545702e-04 8.968904707818e-06 0.0 
8.968904707818e-06 1.757875453385e-03 0.0 
0.0 0.0 0.0 
-1.590639821275e-04 2.168460218708e-04 0.0 
2.168460218708e-04 3.199258204936e-04 0.0 
0.0 0.0 0.0 
1.258222352065e-04 3.535553379695e-05 0.0 
3.535553379695e-05 7.325961979783e-04 0.0 
0.0 0.0 0.0 
1.290354155501e-04 1.643782410325e-04 0.0 
1.643782410325e-04 1.021151362114e-03 0.0 
0.0 0.0 0.0 
-8.107163644244e-05 2.204391164891e-04 0.0 
2.204391164891e-04 2.005900641596e-03 0.0 
0.0 0.0 0.0 
1.595822281908e-04 1.402659306238e-04 0.0 
1.402659306238e-04 7.807078945683e-04 0.0 
0.0 0.0 0.0 
1.351377640193e-04 3.635089072102e-05 0.0 
3.635089072102e-05 6.881805006749e-04 0.0 
0.0 0.0 0.0 
-1.350793994389e-04 4.576279910074e-05 0.0 
4.576279910074e-05 1.939568630028e-03 0.0 
0.0 0.0 0.0 
-1.630718246496e-04 2.337697414569e-04 0.0 
2.337697414569e-04 5.229102030779e-04 0.0 
0.0 0.0 0.0 
1.343999325978e-04 1.717738604929e-04 0.0 
1.717738604929e-04 1.009291926881e-03 0.0 
0.0 0.0 0.0 
1.429479134818e-04 1.330685350713e-04 0.0 
1.330685350713e-04 8.558925267610e-04 0.0 
0.0 0.0 0.0 
-1.420999547855e-04 2.506499626932e-04 0.0 
2.506499626932e-04 1.547681960109e-03 0.0 
0.0 0.0 0.0 
1.095074147972e-04 7.664785531271e-05 0.0 
7.664785531271e-05 9.218964955700e-04 0.0 
0.0 0.0 0.0 
7.528063547846e-05 -2.243762536727e-05 0.0 
-2.243762536727e-05 3.172027413967e-04 0.0 
0.0 0.0 0.0 
1.047606063964e-04 9.399795447165e-05 0.0 
9.399795447165e-05 9.727451819979e-04 0.0 
0.0 0.0 0.0 
8.864062562730e-05 1.394873265920e-04 0.0 
1.394873265920e-04 1.103361826258e-03 0.0 
0.0 0.0 0.0 
1.373429275744e-04 1.794497600129e-04 0.0 
1.794497600129e-04 1.000474525840e-03 0.0 
0.0 0.0 0.0 
-1.123298385712e-04 5.877844384132e-05 0.0 
5.877844384132e-05 2.022999007388e-03 0.0 
0.0 0.0 0.0 
3.674414545207e-05 2.786201158629e-04 0.0 
2.786201158629e-04 1.402644922680e-03 0.0 
0.0 0.0 0.0 
7.798750490751e-05 1.270038424949e-04 0.0 
1.270038424949e-04 1.104987390703e-03 0.0 
0.0 0.0 0.0 
-1.597510294439e-04 2.351110913728e-04 0.0 
2.351110913728e-04 7.299925208040e-04 0.0 
0.0 0.0 0.0 
-1.390468344153e-04 6.176336181356e-05 0.0 
6.176336181356e-05 1.962742368478e-03 0.0 
0.0 0.0 0.0 
5.366655971284e-05 2.715034667640e-04 0.0 
2.715034667640e-04 1.372710049693e-03 0.0 
0.0 0.0 0.0 
-9.563273308155e-05 7.824809604187e-05 0.0 
7.824809604187e-05 2.043624761119e-03 0.0 
0.0 0.0 0.0 
1.479168772334e-04 1.661159632049e-04 0.0 
1.661159632049e-04 9.261040741488e-04 0.0 
0.0 0.0 0.0 
1.466349987216e-04 1.035407407609e-04 0.0 
1.035407407609e-04 7.134308209078e-04 0.0 
0.0 0.0 0.0 
1.165742991935e-04 1.665129655746e-05 0.0 
1.665129655746e-05 6.642969706072e-04 0.0 
0.0 0.0 0.0 
1.832570978899e-05 3.040902170272e-05 0.0 
3.040902170272e-05 2.098080421509e-04 0.0 
0.0 0.0 0.0 
-8.150294255982e-05 7.564095979402e-05 0.0 
7.564095979402e-05 2.072490227913e-03 0.0 
0.0 0.0 0.0 
6.668586305025e-05 -9.567202753877e-06 0.0 
-9.567202753877e-06 3.243829853483e-04 0.0 
0.0 0.0 0.0 
-1.514253911692e-04 2.253295461451e-04 0.0 
2.253295461451e-04 9.330373113794e-04 0.0 
0.0 0.0 0.0 
2.348284554676e-05 2.819314898501e-04 0.0 
2.819314898501e-04 1.423821780660e-03 0.0 
0.0 0.0 0.0 
-5.346658888605e-05 6.821029196378e-05 0.0 
6.821029196378e-05 2.129823011283e-03 0.0 
0.0 0.0 0.0 
5.883212897606e-05 -3.403416573898e-05 0.0 
-3.403416573898e-05 2.800512011072e-04 0.0 
0.0 0.0 0.0 
6.662600349872e-06 2.732011342224e-04 0.0 
2.732011342224e-04 1.272433640607e-03 0.0 
0.0 0.0 0.0 
-1.226513512188e-04 8.086456233175e-05 0.0 
8.086456233175e-05 1.982898897959e-03 0.0 
0.0 0.0 0.0 
1.188711937756e-04 1.180005138644e-05 0.0 
1.180005138644e-05 6.504860199392e-04 0.0 
0.0 0.0 0.0 
8.122636082852e-05 -1.131146648820e-07 0.0 
-1.131146648820e-07 3.436900617648e-04 0.0 
0.0 0.0 0.0 
8.966474023020e-05 1.934862650886e-04 0.0 
1.934862650886e-04 6.648965479854e-04 0.0 
0.0 0.0 0.0 
3.530581826228e-05 -2.657996270411e-05 0.0 
-2.657996270411e-05 2.102720622690e-04 0.0 
0.0 0.0 0.0 
7.216225742890e-05 -9.783214436787e-06 0.0 
-9.783214436787e-06 2.769947920864e-04 0.0 
0.0 0.0 0.0 
5.299880401255e-05 -1.918208581912e-05 0.0 
-1.918208581912e-05 2.430666459550e-04 0.0 
0.0 0.0 0.0 
1.553960008278e-04 1.530870671660e-04 0.0 
1.530870671660e-04 8.528409997246e-04 0.0 
0.0 0.0 0.0 
-3.484183323565e-05 1.922134325362e-04 0.0 
1.922134325362e-04 2.159392454795e-03 0.0 
0.0 0.0 0.0 
-1.406752952359e-04 2.146836392624e-04 0.0 
2.146836392624e-04 1.140816823991e-03 0.0 
0.0 0.0 0.0 
8.149689586001e-05 9.029751226632e-05 0.0 
9.029751226632e-05 1.049715556633e-03 0.0 
0.0 0.0 0.0 
1.505751199979e-04 1.279960977252e-04 0.0 
1.279960977252e-04 6.360764634199e-04 0.0 
0.0 0.0 0.0 
-1.550263707866e-04 8.314942709890e-05 0.0 
8.314942709890e-05 1.950974410123e-03 0.0 
0.0 0.0 0.0 
5.515907017517e-05 3.635514813397e-05 0.0 
3.635514813397e-05 2.670420340596e-04 0.0 
0.0 0.0 0.0 
6.589422916359e-05 1.476022250105e-04 0.0 
1.476022250105e-04 1.164613410914e-03 0.0 
0.0 0.0 0.0 
4.239560238073e-05 -4.233771487993e-05 0.0 
-4.233771487993e-05 2.452811772056e-04 0.0 
0.0 0.0 0.0 
7.907735052748e-05 -7.019142067211e-06 0.0 
-7.019142067211e-06 3.826195115713e-04 0.0 
0.0 0.0 0.0 
1.254513424027e-04 2.011483634994e-04 0.0 
2.011483634994e-04 1.070465858884e-03 0.0 
0.0 0.0 0.0 
1.421697203392e-04 4.176203783586e-05 0.0 
4.176203783586e-05 6.424585071765e-04 0.0 
0.0 0.0 0.0 
7.044195016670e-05 2.519632131846e-04 0.0 
2.519632131846e-04 1.298643367184e-03 0.0 
0.0 0.0 0.0 
3.470200229816e-05 2.297113404568e-04 0.0 
2.297113404568e-04 8.916158087122e-04 0.0 
0.0 0.0 0.0 
-1.528878613463e-04 1.304892017574e-04 0.0 
1.304892017574e-04 1.974956285886e-03 0.0 
0.0 0.0 0.0 
7.814666257766e-05 2.529953287844e-04 0.0 
2.529953287844e-04 1.296949730613e-03 0.0 
0.0 0.0 0.0 
-1.214713875625e-04 6.364878153888e-05 0.0 
6.364878153888e-05 1.962480529933e-03 0.0 
0.0 0.0 0.0 
-9.739115304863e-05 2.240357045575e-04 0.0 
2.240357045575e-04 2.005452845831e-03 0.0 
0.0 0.0 0.0 
-1.269721348571e-04 9.739525275834e-05 0.0 
9.739525275834e-05 2.031481563076e-03 0.0 
0.0 0.0 0.0 
-1.239861412602e-04 1.187327790526e-04 0.0 
1.187327790526e-04 2.044996407449e-03 0.0 
0.0 0.0 0.0 
6.464826718622e-05 1.064598780335e-04 0.0 
1.064598780335e-04 3.754325784666e-04 0.0 
0.0 0.0 0.0 
8.886763755012e-05 7.486971394267e-05 0.0 
7.486971394267e-05 1.000375472217e-03 0.0 
0.0 0.0 0.0 
-1.221422453982e-04 1.006049565526e-04 0.0 
1.006049565526e-04 1.999331205127e-03 0.0 
0.0 0.0 0.0 
1.388643189772e-04 1.881800659291e-04 0.0 
1.881800659291e-04 8.508009722326e-04 0.0 
0.0 0.0 0.0 
-1.868859057966e-04 1.977750331148e-04 0.0 
1.977750331148e-04 1.364232115705e-03 0.0 
0.0 0.0 0.0 
4.943986524686e-05 2.645113548160e-04 0.0 
2.645113548160e-04 1.370632809331e-03 0.0 
0.0 0.0 0.0 
1.001681625414e-04 6.924878301301e-05 0.0 
6.924878301301e-05 3.776628504868e-04 0.0 
0.0 0.0 0.0 
7.067435742059e-05 -2.179743942840e-05 0.0 
-2.179743942840e-05 3.571558943478e-04 0.0 
0.0 0.0 0.0 
9.712460003897e-05 2.435704396754e-04 0.0 
2.435704396754e-04 1.219490588809e-03 0.0 
0.0 0.0 0.0 
3.916943957938e-05 -8.159022543930e-06 0.0 
-8.159022543930e-06 2.123977104871e-04 0.0 
0.0 0.0 0.0 
7.430532221986e-05 2.360348054251e-04 0.0 
2.360348054251e-04 1.052571509954e-03 0.0 
0.0 0.0 0.0 
1.233485115597e-04 1.931189347829e-04 0.0 
1.931189347829e-04 1.075873252896e-03 0.0 
0.0 0.0 0.0 
-9.979882372757e-05 1.344706033638e-04 0.0 
1.344706033638e-04 2.086816272738e-03 0.0 
0.0 0.0 0.0 
-9.103708908964e-05 1.593721365982e-04 0.0 
1.593721365982e-04 2.093674168185e-03 0.0 
0.0 0.0 0.0 
1.145025630802e-04 1.855289753758e-04 0.0 
1.855289753758e-04 1.072797705222e-03 0.0 
0.0 0.0 0.0 
-1.104101568036e-04 9.345641933303e-05 0.0 
9.345641933303e-05 2.062073697575e-03 0.0 
0.0 0.0 0.0 
1.469474937064e-04 1.534940898952e-04 0.0 
1.534940898952e-04 7.054019292041e-04 0.0 
0.0 0.0 0.0 
-1.438248308461e-05 2.895995446004e-04 0.0 
2.895995446004e-04 1.537692809644e-03 0.0 
0.0 0.0 0.0 
-1.642236754272e-04 9.293825501890e-05 0.0 
9.293825501890e-05 1.536823420902e-03 0.0 
0.0 0.0 0.0 
-6.028483826537e-05 2.761846020669e-04 0.0 
2.761846020669e-04 1.859753526341e-03 0.0 
0.0 0.0 0.0 
-1.667158651110e-04 6.401117343956e-05 0.0 
6.401117343956e-05 1.617973294418e-03 0.0 
0.0 0.0 0.0 
-1.633332624039e-04 5.382050957331e-05 0.0 
5.382050957331e-05 1.652864295151e-03 0.0 
0.0 0.0 0.0 
1.556832076610e-04 1.515918386555e-04 0.0 
1.515918386555e-04 7.763948130297e-04 0.0 
0.0 0.0 0.0 
-1.670592704304e-04 5.247879605055e-05 0.0 
5.247879605055e-05 1.685525631655e-03 0.0 
0.0 0.0 0.0 
8.759657150015e-05 2.310755072761e-04 0.0 
2.310755072761e-04 1.098266968519e-03 0.0 
0.0 0.0 0.0 
1.069716165520e-04 1.925509526752e-04 0.0 
1.925509526752e-04 8.756210915164e-04 0.0 
0.0 0.0 0.0 
1.487808581362e-04 9.453552154533e-05 0.0 
9.453552154533e-05 7.209712268990e-04 0.0 
0.0 0.0 0.0 
8.106501779581e-05 1.146186414169e-05 0.0 
1.146186414169e-05 2.956494426325e-04 0.0 
0.0 0.0 0.0 
1.603840211148e-04 1.275540849692e-04 0.0 
1.275540849692e-04 7.097067077362e-04 0.0 
0.0 0.0 0.0 
-7.737357728110e-05 9.249661668695e-05 0.0 
9.249661668695e-05 2.091474121486e-03 0.0 
0.0 0.0 0.0 
-7.185216677175e-05 2.558060782661e-04 0.0 
2.558060782661e-04 1.945668335245e-03 0.0 
0.0 0.0 0.0 
1.043240082339e-04 6.589854390387e-05 0.0 
6.589854390387e-05 9.259434294988e-04 0.0 
0.0 0.0 0.0 
8.045335825635e-05 2.581599355882e-04 0.0 
2.581599355882e-04 1.295069932967e-03 0.0 
0.0 0.0 0.0 
1.577595711411e-04 6.068988989314e-05 0.0 
6.068988989314e-05 6.394086299479e-04 0.0 
0.0 0.0 0.0 
-1.042842156734e-04 1.189804907795e-04 0.0 
1.189804907795e-04 2.044894933509e-03 0.0 
0.0 0.0 0.0 
1.631274698148e-04 1.170223872057e-04 0.0 
1.170223872057e-04 7.175301857887e-04 0.0 
0.0 0.0 0.0 
7.830773705009e-05 6.988972402926e-05 0.0 
6.988972402926e-05 1.029557695251e-03 0.0 
0.0 0.0 0.0 
-1.077712362068e-04 9.848542411329e-05 0.0 
9.848542411329e-05 2.031286858776e-03 0.0 
0.0 0.0 0.0 
-1.394002166297e-04 1.242810042041e-04 0.0 
1.242810042041e-04 2.010856657512e-03 0.0 
0.0 0.0 0.0 
1.467076336525e-04 1.576404850033e-04 0.0 
1.576404850033e-04 9.341134084058e-04 0.0 
0.0 0.0 0.0 
1.550036030051e-04 1.397368235073e-04 0.0 
1.397368235073e-04 7.055489843362e-04 0.0 
0.0 0.0 0.0 
-1.292368356787e-05 2.976774103623e-04 0.0 
2.976774103623e-04 1.594705382121e-03 0.0 
0.0 0.0 0.0 
-9.569721767511e-05 2.629339515980e-04 0.0 
2.629339515980e-04 1.587623036073e-03 0.0 
0.0 0.0 0.0 
6.552915410096e-05 -1.811575241797e-05 0.0 
-1.811575241797e-05 3.004675244060e-04 0.0 
0.0 0.0 0.0 
8.454838820704e-05 3.322228053658e-05 0.0 
3.322228053658e-05 3.835319665992e-04 0.0 
0.0 0.0 0.0 
6.661158357124e-05 2.377843897000e-04 0.0 
2.377843897000e-04 8.525022224322e-04 0.0 
0.0 0.0 0.0 
2.172726453864e-06 2.813825229761e-04 0.0 
2.813825229761e-04 1.271312608627e-03 0.0 
0.0 0.0 0.0 
6.740183240228e-05 6.394373105697e-05 0.0 
6.394373105697e-05 1.060140927300e-03 0.0 
0.0 0.0 0.0 
-1.419825604232e-04 1.013587381959e-04 0.0 
1.013587381959e-04 1.999311653929e-03 0.0 
0.0 0.0 0.0 
1.421352187907e-04 1.141437810244e-04 0.0 
1.141437810244e-04 7.095406097846e-04 0.0 
0.0 0.0 0.0 
-1.667030793695e-05 2.804547097815e-04 0.0 
2.804547097815e-04 1.424029061956e-03 0.0 
0.0 0.0 0.0 
1.187337470883e-04 1.871179711879e-04 0.0 
1.871179711879e-04 1.086724177778e-03 0.0 
0.0 0.0 0.0 
-9.657563584020e-05 7.182041402765e-05 0.0 
7.182041402765e-05 2.073014679699e-03 0.0 
0.0 0.0 0.0 
-2.744209039518e-05 3.055173409913e-04 0.0 
3.055173409913e-04 1.674442248141e-03 0.0 
0.0 0.0 0.0 
-1.457880555318e-04 8.248796829363e-05 0.0 
8.248796829363e-05 1.917990171860e-03 0.0 
0.0 0.0 0.0 
1.107396499664e-04 1.523655604206e-04 0.0 
1.523655604206e-04 1.060946947209e-03 0.0 
0.0 0.0 0.0 
1.465230465370e-04 1.182482928204e-04 0.0 
1.182482928204e-04 7.840974906137e-04 0.0 
0.0 0.0 0.0 
1.062106184149e-04 1.718326573317e-04 0.0 
1.718326573317e-04 1.088161602893e-03 0.0 
0.0 0.0 0.0 
7.505502000971e-05 2.536314744053e-04 0.0 
2.536314744053e-04 1.049938026578e-03 0.0 
0.0 0.0 0.0 
-8.857339935631e-05 1.081077519685e-04 0.0 
1.081077519685e-04 2.106683679227e-03 0.0 
0.0 0.0 0.0 
-3.757014989647e-05 3.102060373470e-04 0.0 
3.102060373470e-04 1.756086805997e-03 0.0 
0.0 0.0 0.0 
1.555668641926e-04 1.438657438736e-04 0.0 
1.438657438736e-04 8.604884846091e-04 0.0 
0.0 0.0 0.0 
8.679894499686e-05 4.483413478224e-05 0.0 
4.483413478224e-05 3.252408524392e-04 0.0 
0.0 0.0 0.0 
5.463951290929e-05 2.848775533851e-04 0.0 
2.848775533851e-04 1.383542957963e-03 0.0 
0.0 0.0 0.0 
7.241841138383e-05 2.420979927461e-04 0.0 
2.420979927461e-04 1.118719431170e-03 0.0 
0.0 0.0 0.0 
1.350192825604e-04 1.265472934030e-04 0.0 
1.265472934030e-04 7.096764545105e-04 0.0 
0.0 0.0 0.0 
1.359343209633e-04 1.479550860041e-04 0.0 
1.479550860041e-04 9.288862429067e-04 0.0 
0.0 0.0 0.0 
1.073282213158e-04 1.177551310313e-04 0.0 
1.177551310313e-04 1.004451648970e-03 0.0 
0.0 0.0 0.0 
7.123334951475e-05 9.406826437720e-06 0.0 
9.406826437720e-06 3.310811072115e-04 0.0 
0.0 0.0 0.0 
1.610587749321e-04 1.303327553115e-04 0.0 
1.303327553115e-04 7.883330985261e-04 0.0 
0.0 0.0 0.0 
-1.394078685297e-04 2.140814627065e-04 0.0 
2.140814627065e-04 1.767804511562e-03 0.0 
0.0 0.0 0.0 
6.275285607860e-05 5.179233884657e-05 0.0 
5.179233884657e-05 1.061864270560e-03 0.0 
0.0 0.0 0.0 
-1.188963459132e-04 2.383091549855e-04 0.0 
2.383091549855e-04 1.740061773079e-03 0.0 
0.0 0.0 0.0 
4.267254907386e-05 2.884174575485e-04 0.0 
2.884174575485e-04 1.401188404194e-03 0.0 
0.0 0.0 0.0 
-1.556807837996e-04 1.860521401586e-04 0.0 
1.860521401586e-04 1.790427607659e-03 0.0 
0.0 0.0 0.0 
-1.718097621352e-04 1.239018717028e-04 0.0 
1.239018717028e-04 1.813550656899e-03 0.0 
0.0 0.0 0.0 
-6.808313333329e-05 2.755276917869e-04 0.0 
2.755276917869e-04 1.549146922414e-03 0.0 
0.0 0.0 0.0 
9.611447142643e-05 2.373415780068e-04 0.0 
2.373415780068e-04 1.220048110496e-03 0.0 
0.0 0.0 0.0 
9.120973875021e-05 6.790480577764e-05 0.0 
6.790480577764e-05 9.750619177982e-04 0.0 
0.0 0.0 0.0 
-1.352792625544e-04 1.030555657917e-04 0.0 
1.030555657917e-04 1.965788002361e-03 0.0 
0.0 0.0 0.0 
-7.419356641136e-05 1.588316953985e-04 0.0 
1.588316953985e-04 2.093675730153e-03 0.0 
0.0 0.0 0.0 
-1.670009314909e-04 1.554193901265e-04 0.0 
1.554193901265e-04 1.806190865700e-03 0.0 
0.0 0.0 0.0 
1.275318707405e-04 8.621263442595e-05 0.0 
8.621263442595e-05 5.728751430929e-04 0.0 
0.0 0.0 0.0 
2.974786795407e-05 2.902533066283e-04 0.0 
2.902533066283e-04 1.467289980270e-03 0.0 
0.0 0.0 0.0 
-7.618737156112e-05 8.398681922848e-05 0.0 
8.398681922848e-05 2.120438835211e-03 0.0 
0.0 0.0 0.0 
1.122061301015e-04 2.229204213850e-04 0.0 
2.229204213850e-04 9.411966009729e-04 0.0 
0.0 0.0 0.0 
9.397126661370e-05 2.419262329479e-04 0.0 
2.419262329479e-04 1.027505728315e-03 0.0 
0.0 0.0 0.0 
1.369115500727e-04 1.001089271888e-04 0.0 
1.001089271888e-04 6.405249381101e-04 0.0 
0.0 0.0 0.0 
-1.327589486355e-04 1.265078250893e-04 0.0 
1.265078250893e-04 1.975395584883e-03 0.0 
0.0 0.0 0.0 
-4.525559050506e-06 2.770742361642e-04 0.0 
2.770742361642e-04 1.093915611554e-03 0.0 
0.0 0.0 0.0 
1.044711571729e-04 2.375527526189e-04 0.0 
2.375527526189e-04 1.081066581287e-03 0.0 
0.0 0.0 0.0 
-3.877970517374e-06 2.651284980421e-04 0.0 
2.651284980421e-04 1.095537068917e-03 0.0 
0.0 0.0 0.0 
1.118634400883e-04 2.228715884762e-04 0.0 
2.228715884762e-04 1.143840905970e-03 0.0 
0.0 0.0 0.0 
2.041813993192e-05 3.047556842975e-04 0.0 
3.047556842975e-04 1.530720865731e-03 0.0 
0.0 0.0 0.0 
1.428878148395e-04 8.890380776540e-05 0.0 
8.890380776540e-05 6.445693326067e-04 0.0 
0.0 0.0 0.0 
4.534307584958e-06 -9.248889707003e-06 0.0 
-9.248889707003e-06 2.163115515486e-04 0.0 
0.0 0.0 0.0 
-7.818036246487e-05 1.909711103183e-04 0.0 
1.909711103183e-04 2.057819861662e-03 0.0 
0.0 0.0 0.0 
-3.321161628989e-05 2.803600760228e-04 0.0 
2.803600760228e-04 1.199362581571e-03 0.0 
0.0 0.0 0.0 
1.612194865290e-04 7.967110550386e-05 0.0 
7.967110550386e-05 6.884450082438e-04 0.0 
0.0 0.0 0.0 
4.914634182773e-05 2.994746617400e-04 0.0 
2.994746617400e-04 1.449933715744e-03 0.0 
0.0 0.0 0.0 
-1.556022945844e-04 1.059647071759e-04 0.0 
1.059647071759e-04 1.965513993163e-03 0.0 
0.0 0.0 0.0 
1.004034341714e-04 7.258398386754e-05 0.0 
7.258398386754e-05 9.479104053234e-04 0.0 
0.0 0.0 0.0 
1.180738978743e-04 1.674234136498e-04 0.0 
1.674234136498e-04 7.929457995202e-04 0.0 
0.0 0.0 0.0 
-4.485201462345e-06 1.157083501738e-05 0.0 
1.157083501738e-05 1.688410836906e-04 0.0 
0.0 0.0 0.0 
5.270746755448e-05 4.404275930937e-05 0.0 
4.404275930937e-05 1.097778661652e-03 0.0 
0.0 0.0 0.0 
2.801937038988e-05 2.767775120549e-04 0.0 
2.767775120549e-04 1.236673624003e-03 0.0 
0.0 0.0 0.0 
9.647611892794e-05 2.215940674360e-04 0.0 
2.215940674360e-04 1.148730616865e-03 0.0 
0.0 0.0 0.0 
9.346141280453e-06 3.091496506911e-04 0.0 
3.091496506911e-04 1.571277746968e-03 0.0 
0.0 0.0 0.0 
-5.408244770977e-05 9.547924268292e-06 0.0 
9.547924268292e-06 1.243215363447e-04 0.0 
0.0 0.0 0.0 
1.106276978569e-04 8.564104240988e-05 0.0 
8.564104240988e-05 9.458293667146e-04 0.0 
0.0 0.0 0.0 
8.489960780711e-05 1.332311769200e-04 0.0 
1.332311769200e-04 5.889628770115e-04 0.0 
0.0 0.0 0.0 
-1.676504152219e-04 8.623229933240e-05 0.0 
8.623229933240e-05 1.917636885916e-03 0.0 
0.0 0.0 0.0 
1.181766523364e-04 2.251146464772e-05 0.0 
2.251146464772e-05 7.166086440542e-04 0.0 
0.0 0.0 0.0 
1.573354619151e-04 1.148822911102e-04 0.0 
1.148822911102e-04 6.401642260747e-04 0.0 
0.0 0.0 0.0 
7.234947868140e-05 5.795040798446e-05 0.0 
5.795040798446e-05 1.031434198466e-03 0.0 
0.0 0.0 0.0 
9.065954540710e-05 2.477891370321e-04 0.0 
2.477891370321e-04 1.095705267379e-03 0.0 
0.0 0.0 0.0 
1.502984610708e-04 1.026147720330e-04 0.0 
1.026147720330e-04 5.723028965077e-04 0.0 
0.0 0.0 0.0 
7.028284231048e-06 2.752775892581e-04 0.0 
2.752775892581e-04 1.331668437085e-03 0.0 
0.0 0.0 0.0 
-1.804217736001e-05 -2.712521361946e-05 0.0 
-2.712521361946e-05 1.758940390459e-04 0.0 
0.0 0.0 0.0 
5.724846521282e-06 2.834642484209e-04 0.0 
2.834642484209e-04 1.450790324176e-03 0.0 
0.0 0.0 0.0 
1.011033054030e-04 2.080765879402e-04 0.0 
2.080765879402e-04 1.146116072652e-03 0.0 
0.0 0.0 0.0 
-4.139010756565e-05 3.029827039926e-04 0.0 
3.029827039926e-04 1.822469426581e-03 0.0 
0.0 0.0 0.0 
4.217237505211e-06 2.908573520374e-04 0.0 
2.908573520374e-04 1.510804584707e-03 0.0 
0.0 0.0 0.0 
1.064375076225e-04 4.605311092030e-05 0.0 
4.605311092030e-05 4.462967279801e-04 0.0 
0.0 0.0 0.0 
9.599668991500e-05 5.375556547324e-05 0.0 
5.375556547324e-05 9.279058004863e-04 0.0 
0.0 0.0 0.0 
-5.421722047383e-05 1.058268383962e-04 0.0 
1.058268383962e-04 2.136257758730e-03 0.0 
0.0 0.0 0.0 
3.059635378300e-05 2.859165181454e-04 0.0 
2.859165181454e-04 1.444550625411e-03 0.0 
0.0 0.0 0.0 
8.621160961009e-05 2.305731315739e-04 0.0 
2.305731315739e-04 1.221491819012e-03 0.0 
0.0 0.0 0.0 
1.293959263626e-04 1.527375074910e-04 0.0 
1.527375074910e-04 7.837962193553e-04 0.0 
0.0 0.0 0.0 
6.598787046785e-06 2.784175314616e-04 0.0 
2.784175314616e-04 1.391308795356e-03 0.0 
0.0 0.0 0.0 
6.379081208818e-05 4.395768563661e-05 0.0 
4.395768563661e-05 1.043371962951e-03 0.0 
0.0 0.0 0.0 
1.008169615415e-04 -2.608059746149e-06 0.0 
-2.608059746149e-06 6.493040680493e-04 0.0 
0.0 0.0 0.0 
2.645980424143e-05 2.893090117332e-04 0.0 
2.893090117332e-04 1.422749750419e-03 0.0 
0.0 0.0 0.0 
-1.349049133470e-04 8.159906811722e-05 0.0 
8.159906811722e-05 1.951085598725e-03 0.0 
0.0 0.0 0.0 
8.199629446448e-05 6.338304737091e-05 0.0 
6.338304737091e-05 1.002178902269e-03 0.0 
0.0 0.0 0.0 
9.502721441934e-05 8.961515662747e-05 0.0 
8.961515662747e-05 9.972629682162e-04 0.0 
0.0 0.0 0.0 
-1.054959673876e-04 -1.992986512745e-07 0.0 
-1.992986512745e-07 1.710361796843e-03 0.0 
0.0 0.0 0.0 
-1.041432745708e-04 5.421283950509e-07 0.0 
5.421283950509e-07 1.709206857656e-03 0.0 
0.0 0.0 0.0 
-1.520735891963e-04 2.127309607218e-04 0.0 
2.127309607218e-04 1.826035627767e-03 0.0 
0.0 0.0 0.0 
2.708876347790e-05 2.831741494328e-04 0.0 
2.831741494328e-04 1.360772220459e-03 0.0 
0.0 0.0 0.0 
1.131964488772e-04 2.219733294912e-05 0.0 
2.219733294912e-05 7.435342927222e-04 0.0 
0.0 0.0 0.0 
-8.463150931282e-05 2.720448946509e-04 0.0 
2.720448946509e-04 1.632053055048e-03 0.0 
0.0 0.0 0.0 
1.092852047240e-04 2.297120082624e-04 0.0 
2.297120082624e-04 1.010572795510e-03 0.0 
0.0 0.0 0.0 
8.574124533345e-05 1.913797787062e-04 0.0 
1.913797787062e-04 1.176984202045e-03 0.0 
0.0 0.0 0.0 
1.391375258468e-04 1.783460262324e-04 0.0 
1.783460262324e-04 7.799138985103e-04 0.0 
0.0 0.0 0.0 
-3.201229159355e-05 1.688765309740e-04 0.0 
1.688765309740e-04 2.175363817958e-03 0.0 
0.0 0.0 0.0 
-1.769590006441e-04 1.020320209488e-04 0.0 
1.020320209488e-04 1.771447625983e-03 0.0 
0.0 0.0 0.0 
9.105813779020e-05 2.232842643676e-04 0.0 
2.232842643676e-04 1.030368722602e-03 0.0 
0.0 0.0 0.0 
1.292000237170e-04 3.544002665441e-05 0.0 
3.544002665441e-05 7.144520597597e-04 0.0 
0.0 0.0 0.0 
9.459360697095e-05 5.957230453889e-05 0.0 
5.957230453889e-05 4.423305200945e-04 0.0 
0.0 0.0 0.0 
1.222343173088e-04 1.099399216149e-05 0.0 
1.099399216149e-05 6.246782992896e-04 0.0 
0.0 0.0 0.0 
2.767423906813e-05 2.792858370010e-04 0.0 
2.792858370010e-04 1.298763676508e-03 0.0 
0.0 0.0 0.0 
-2.334303375562e-05 2.837360984694e-04 0.0 
2.837360984694e-04 1.367046498612e-03 0.0 
0.0 0.0 0.0 
-1.471757934558e-04 1.062209639719e-04 0.0 
1.062209639719e-04 1.930841047572e-03 0.0 
0.0 0.0 0.0 
-5.872248428695e-05 2.798862352931e-04 0.0 
2.798862352931e-04 1.598276061167e-03 0.0 
0.0 0.0 0.0 
-7.537254657453e-05 2.765731986550e-04 0.0 
2.765731986550e-04 1.677770565446e-03 0.0 
0.0 0.0 0.0 
2.239882592181e-05 -1.040037989596e-05 0.0 
-1.040037989596e-05 1.536687706918e-04 0.0 
0.0 0.0 0.0 
1.280192981139e-04 1.475183779515e-05 0.0 
1.475183779515e-05 5.842447540361e-04 0.0 
0.0 0.0 0.0 
-2.885748437575e-05 2.750832964277e-04 0.0 
2.750832964277e-04 1.199963089664e-03 0.0 
0.0 0.0 0.0 
-1.100223012501e-04 2.505537672535e-04 0.0 
2.505537672535e-04 1.667331434185e-03 0.0 
0.0 0.0 0.0 
-1.239735261199e-04 2.483787236799e-04 0.0 
2.483787236799e-04 1.738111058880e-03 0.0 
0.0 0.0 0.0 
9.173252553474e-05 2.287301604651e-04 0.0 
2.287301604651e-04 1.221563196681e-03 0.0 
0.0 0.0 0.0 
4.532261888102e-05 4.838768623362e-06 0.0 
4.838768623362e-06 2.384052335658e-04 0.0 
0.0 0.0 0.0 
5.506138121092e-05 -1.085668338951e-05 0.0 
-1.085668338951e-05 2.854512822223e-04 0.0 
0.0 0.0 0.0 
5.223262192167e-05 2.671599739716e-04 0.0 
2.671599739716e-04 1.142796536811e-03 0.0 
0.0 0.0 0.0 
1.163294122726e-04 1.318007156194e-06 0.0 
1.318007156194e-06 5.863366495680e-04 0.0 
0.0 0.0 0.0 
-1.938091364136e-04 8.506600631832e-05 0.0 
8.506600631832e-05 1.646756160500e-03 0.0 
0.0 0.0 0.0 
-1.891557891444e-04 7.405305800548e-05 0.0 
7.405305800548e-05 1.682636256260e-03 0.0 
0.0 0.0 0.0 
-1.674167641892e-04 1.118535047319e-04 0.0 
1.118535047319e-04 1.930250095296e-03 0.0 
0.0 0.0 0.0 
2.916378709639e-05 8.667681990857e-05 0.0 
8.667681990857e-05 3.915386602400e-04 0.0 
0.0 0.0 0.0 
1.254026485868e-04 2.494367507565e-05 0.0 
2.494367507565e-05 6.751191602259e-04 0.0 
0.0 0.0 0.0 
1.157327451102e-04 1.500292293017e-04 0.0 
1.500292293017e-04 1.023405496663e-03 0.0 
0.0 0.0 0.0 
7.039619548888e-05 2.286151489379e-05 0.0 
2.286151489379e-05 2.780395015001e-04 0.0 
0.0 0.0 0.0 
4.723108315563e-06 3.254266117142e-04 0.0 
3.254266117142e-04 1.660089000230e-03 0.0 
0.0 0.0 0.0 
-1.063716395182e-04 1.132437493456e-04 0.0 
1.132437493456e-04 2.076328127057e-03 0.0 
0.0 0.0 0.0 
1.114797801109e-04 4.382999359518e-06 0.0 
4.382999359518e-06 6.390803951060e-04 0.0 
0.0 0.0 0.0 
9.448913935839e-05 6.170206999383e-05 0.0 
6.170206999383e-05 9.545315156052e-04 0.0 
0.0 0.0 0.0 
1.989700987082e-05 -1.367385047148e-05 0.0 
-1.367385047148e-05 1.061245587535e-04 0.0 
0.0 0.0 0.0 
1.233766967770e-04 1.276882009990e-04 0.0 
1.276882009990e-04 9.629864604617e-04 0.0 
0.0 0.0 0.0 
3.075172323852e-05 2.660725831799e-04 0.0 
2.660725831799e-04 1.238223782373e-03 0.0 
0.0 0.0 0.0 
2.147577053524e-05 -1.010143399401e-05 0.0 
-1.010143399401e-05 1.046570206797e-04 0.0 
0.0 0.0 0.0 
-8.814845480654e-05 1.148865069900e-04 0.0 
1.148865069900e-04 2.076145741213e-03 0.0 
0.0 0.0 0.0 
3.932170487198e-05 -7.335762409012e-07 0.0 
-7.335762409012e-07 2.732299126988e-04 0.0 
0.0 0.0 0.0 
-1.110553274170e-04 2.594750198144e-04 0.0 
2.594750198144e-04 1.665974491611e-03 0.0 
0.0 0.0 0.0 
-1.831852874201e-05 2.790092808820e-04 0.0 
2.790092808820e-04 1.367660413485e-03 0.0 
0.0 0.0 0.0 
1.477333987763e-04 6.548502104528e-05 0.0 
6.548502104528e-05 6.758874423896e-04 0.0 
0.0 0.0 0.0 
1.485090877953e-04 8.497039685140e-05 0.0 
8.497039685140e-05 7.986565413882e-04 0.0 
0.0 0.0 0.0 
-8.251010158589e-05 1.357740489360e-04 0.0 
1.357740489360e-04 2.086719707583e-03 0.0 
0.0 0.0 0.0 
1.397514689567e-04 9.901454022873e-05 0.0 
9.901454022873e-05 8.715935378341e-04 0.0 
0.0 0.0 0.0 
7.312150850658e-05 2.576049556750e-04 0.0 
2.576049556750e-04 1.116366301228e-03 0.0 
0.0 0.0 0.0 
5.348418174855e-05 2.528721159591e-04 0.0 
2.528721159591e-04 1.144894837977e-03 0.0 
0.0 0.0 0.0 
-1.484652334214e-04 1.960602706411e-04 0.0 
1.960602706411e-04 2.244043476889e-04 0.0 
0.0 0.0 0.0 
3.533854829962e-05 1.531166231826e-05 0.0 
1.531166231826e-05 2.242496886686e-04 0.0 
0.0 0.0 0.0 
1.941977268083e-05 2.919469562665e-04 0.0 
2.919469562665e-04 1.485126551624e-03 0.0 
0.0 0.0 0.0 
-1.855896941465e-04 1.278072557584e-04 0.0 
1.278072557584e-04 1.853361851316e-03 0.0 
0.0 0.0 0.0 
3.816079208940e-05 3.000461845588e-04 0.0 
3.000461845588e-04 1.465443410044e-03 0.0 
0.0 0.0 0.0 
9.544532333106e-05 1.685791182346e-04 0.0 
1.685791182346e-04 5.835488419228e-04 0.0 
0.0 0.0 0.0 
-1.141886553371e-04 2.099336743679e-04 0.0 
2.099336743679e-04 1.920594368103e-03 0.0 
0.0 0.0 0.0 
2.369751002762e-06 3.024857410579e-04 0.0 
3.024857410579e-04 1.571772437987e-03 0.0 
0.0 0.0 0.0 
-1.786478576692e-04 8.580920255876e-05 0.0 
8.580920255876e-05 1.693856837827e-03 0.0 
0.0 0.0 0.0 
2.459910517771e-05 2.969020220273e-04 0.0 
2.969020220273e-04 1.484223723150e-03 0.0 
0.0 0.0 0.0 
8.742289702934e-05 4.971204728689e-05 0.0 
4.971204728689e-05 9.564722639701e-04 0.0 
0.0 0.0 0.0 
4.868043236961e-05 2.741267172225e-04 0.0 
2.741267172225e-04 1.271410267834e-03 0.0 
0.0 0.0 0.0 
1.303505050809e-04 2.502419503986e-05 0.0 
2.502419503986e-05 6.483968016027e-04 0.0 
0.0 0.0 0.0 
1.228651201770e-04 2.258098496676e-05 0.0 
2.258098496676e-05 6.903564498664e-04 0.0 
0.0 0.0 0.0 
-9.875552609739e-05 1.938326776690e-04 0.0 
1.938326776690e-04 2.057425220622e-03 0.0 
0.0 0.0 0.0 
1.533921619952e-04 7.089246274439e-05 0.0 
7.089246274439e-05 7.282213271449e-04 0.0 
0.0 0.0 0.0 
3.566280202261e-06 2.827347419235e-04 0.0 
2.827347419235e-04 1.330666076795e-03 0.0 
0.0 0.0 0.0 
1.359635304758e-04 1.982536477342e-04 0.0 
1.982536477342e-04 9.228650856570e-04 0.0 
0.0 0.0 0.0 
1.261584422141e-04 1.127193545806e-04 0.0 
1.127193545806e-04 9.471459861876e-04 0.0 
0.0 0.0 0.0 
1.071079640318e-04 2.017137472946e-04 0.0 
2.017137472946e-04 9.443171634171e-04 0.0 
0.0 0.0 0.0 
1.315827110830e-04 6.592890672695e-05 0.0 
6.592890672695e-05 4.499499166595e-04 0.0 
0.0 0.0 0.0 
1.603127297198e-04 1.217820264593e-04 0.0 
1.217820264593e-04 7.989303721154e-04 0.0 
0.0 0.0 0.0 
1.387015765251e-04 9.068498128031e-05 0.0 
9.068498128031e-05 5.059003585277e-04 0.0 
0.0 0.0 0.0 
-8.447889233665e-05 2.680383506625e-04 0.0 
2.680383506625e-04 1.632623572383e-03 0.0 
0.0 0.0 0.0 
1.231872876524e-04 5.989565156774e-05 0.0 
5.989565156774e-05 5.107766006265e-04 0.0 
0.0 0.0 0.0 
-6.541520042802e-05 2.780860220361e-04 0.0 
2.780860220361e-04 1.548787218091e-03 0.0 
0.0 0.0 0.0 
8.452891520072e-05 2.237981133291e-04 0.0 
2.237981133291e-04 1.222200421148e-03 0.0 
0.0 0.0 0.0 
1.103411795744e-04 2.149043735098e-04 0.0 
2.149043735098e-04 1.146271074006e-03 0.0 
0.0 0.0 0.0 
1.274588068314e-04 2.016955003783e-04 0.0 
2.016955003783e-04 8.586394943566e-04 0.0 
0.0 0.0 0.0 
-1.564824723612e-04 1.102516124314e-04 0.0 
1.102516124314e-04 1.893412059857e-03 0.0 
0.0 0.0 0.0 
8.437264612593e-05 5.676948702447e-05 0.0 
5.676948702447e-05 9.840278267754e-04 0.0 
0.0 0.0 0.0 
7.886180565309e-05 4.497706055941e-05 0.0 
4.497706055941e-05 9.859574829616e-04 0.0 
0.0 0.0 0.0 
-7.035033716241e-06 8.230684302757e-05 0.0 
8.230684302757e-05 3.339562873226e-04 0.0 
0.0 0.0 0.0 
-4.097252819280e-05 2.836117533365e-04 0.0 
2.836117533365e-04 1.512933677790e-03 0.0 
0.0 0.0 0.0 
5.616737918546e-05 5.829106404345e-05 0.0 
5.829106404345e-05 1.094494626225e-03 0.0 
0.0 0.0 0.0 
-8.406899821700e-05 2.606640358975e-04 0.0 
2.606640358975e-04 1.159165602800e-03 0.0 
0.0 0.0 0.0 
1.112455090575e-04 1.286323158113e-05 0.0 
1.286323158113e-05 7.039107563218e-04 0.0 
0.0 0.0 0.0 
-1.311898442043e-04 1.553704556553e-04 0.0 
1.553704556553e-04 3.172581156619e-04 0.0 
0.0 0.0 0.0 
7.439746209270e-05 5.114000985978e-05 0.0 
5.114000985978e-05 1.014091024641e-03 0.0 
0.0 0.0 0.0 
1.222162134524e-04 7.933514851808e-05 0.0 
7.933514851808e-05 4.410657937810e-04 0.0 
0.0 0.0 0.0 
1.024884331453e-04 5.830428573410e-06 0.0 
5.830428573410e-06 6.694419981379e-04 0.0 
0.0 0.0 0.0 
1.073495567703e-04 2.390488626719e-04 0.0 
2.390488626719e-04 1.146607606198e-03 0.0 
0.0 0.0 0.0 
-1.779449452539e-04 1.182935832228e-04 0.0 
1.182935832228e-04 1.892458233839e-03 0.0 
0.0 0.0 0.0 
-1.670068384972e-04 1.168265344840e-04 0.0 
1.168265344840e-04 1.854713006554e-03 0.0 
0.0 0.0 0.0 
5.070006363361e-05 2.702368030215e-04 0.0 
2.702368030215e-04 1.207249208214e-03 0.0 
0.0 0.0 0.0 
-2.032812473218e-04 1.251386587272e-04 0.0 
1.251386587272e-04 1.572836344546e-03 0.0 
0.0 0.0 0.0 
-1.963986657039e-04 1.032932966606e-04 0.0 
1.032932966606e-04 1.611952646303e-03 0.0 
0.0 0.0 0.0 
7.050748267989e-05 3.956519208058e-05 0.0 
3.956519208058e-05 1.016017179235e-03 0.0 
0.0 0.0 0.0 
1.325342961189e-04 8.690735747352e-05 0.0 
8.690735747352e-05 8.516177579485e-04 0.0 
0.0 0.0 0.0 
1.474072383381e-04 8.098982856144e-05 0.0 
8.098982856144e-05 7.448376613215e-04 0.0 
0.0 0.0 0.0 
1.373998820784e-04 1.439651792474e-04 0.0 
1.439651792474e-04 9.609037944480e-04 0.0 
0.0 0.0 0.0 
1.635963371631e-04 1.079588355976e-04 0.0 
1.079588355976e-04 7.283854716054e-04 0.0 
0.0 0.0 0.0 
1.136431663156e-04 7.258197805597e-05 0.0 
7.258197805597e-05 5.066945372747e-04 0.0 
0.0 0.0 0.0 
-1.581406859120e-04 6.732672445040e-05 0.0 
6.732672445040e-05 1.585456865185e-03 0.0 
0.0 0.0 0.0 
-1.919401712581e-04 1.077923300158e-04 0.0 
1.077923300158e-04 1.809298887819e-03 0.0 
0.0 0.0 0.0 
-1.060753870652e-04 -1.541506993602e-07 0.0 
-1.541506993602e-07 1.710630356486e-03 0.0 
0.0 0.0 0.0 
9.902863479838e-05 2.012345709862e-04 0.0 
2.012345709862e-04 1.148264089277e-03 0.0 
0.0 0.0 0.0 
1.200074978347e-04 1.779942523114e-04 0.0 
1.779942523114e-04 8.621134459017e-04 0.0 
0.0 0.0 0.0 
6.379103101284e-05 2.743525500475e-04 0.0 
2.743525500475e-04 1.368549756045e-03 0.0 
0.0 0.0 0.0 
6.987420802917e-05 2.101256844286e-05 0.0 
2.101256844286e-05 9.926846275079e-04 0.0 
0.0 0.0 0.0 
1.474126084551e-04 1.098686127145e-04 0.0 
1.098686127145e-04 7.916421318384e-04 0.0 
0.0 0.0 0.0 
4.007457722310e-05 5.711138933255e-05 0.0 
5.711138933255e-05 1.144261209210e-03 0.0 
0.0 0.0 0.0 
1.300501155621e-04 4.968844035579e-05 0.0 
4.968844035579e-05 5.191532218287e-04 0.0 
0.0 0.0 0.0 
6.478508705698e-05 2.784615085983e-04 0.0 
2.784615085983e-04 1.368984224892e-03 0.0 
0.0 0.0 0.0 
5.147363160507e-05 2.575184113794e-04 0.0 
2.575184113794e-04 1.209158499552e-03 0.0 
0.0 0.0 0.0 
6.612282042973e-05 2.675482755021e-04 0.0 
2.675482755021e-04 1.248528132534e-03 0.0 
0.0 0.0 0.0 
8.887744450070e-05 1.600783484495e-04 0.0 
1.600783484495e-04 1.122226296154e-03 0.0 
0.0 0.0 0.0 
1.109448526035e-04 -1.286745513667e-05 0.0 
-1.286745513667e-05 4.762502984377e-04 0.0 
0.0 0.0 0.0 
-1.986104089724e-05 2.853300934304e-04 0.0 
2.853300934304e-04 1.423483440006e-03 0.0 
0.0 0.0 0.0 
1.490189907010e-04 8.719348974202e-05 0.0 
8.719348974202e-05 7.316331058753e-04 0.0 
0.0 0.0 0.0 
-4.276100173317e-05 2.806607010594e-04 0.0 
2.806607010594e-04 1.460047977405e-03 0.0 
0.0 0.0 0.0 
8.133387829923e-05 1.609870304247e-04 0.0 
1.609870304247e-04 6.696925432259e-04 0.0 
0.0 0.0 0.0 
8.088624453473e-05 2.628885166941e-04 0.0 
2.628885166941e-04 1.233580698265e-03 0.0 
0.0 0.0 0.0 
1.631140411493e-04 8.623197931993e-05 0.0 
8.623197931993e-05 6.724731016123e-04 0.0 
0.0 0.0 0.0 
1.228694923721e-04 3.440527701319e-05 0.0 
3.440527701319e-05 7.414420006000e-04 0.0 
0.0 0.0 0.0 
-4.738036894103e-05 2.811526206712e-04 0.0 
2.811526206712e-04 1.460002869382e-03 0.0 
0.0 0.0 0.0 
-9.503047566617e-05 8.774766492933e-05 0.0 
8.774766492933e-05 2.067156463226e-04 0.0 
0.0 0.0 0.0 
1.304819958685e-04 2.087388255560e-04 0.0 
2.087388255560e-04 9.958669062766e-04 0.0 
0.0 0.0 0.0 
-8.100494292618e-05 1.392012742126e-04 0.0 
1.392012742126e-04 3.731463388257e-04 0.0 
0.0 0.0 0.0 
2.355901225615e-05 -1.604788060510e-05 0.0 
-1.604788060510e-05 1.678591874223e-04 0.0 
0.0 0.0 0.0 
1.200998780146e-04 2.453705918240e-05 0.0 
2.453705918240e-05 7.017983985842e-04 0.0 
0.0 0.0 0.0 
-3.188895141004e-05 2.928508033815e-04 0.0 
2.928508033815e-04 1.620973084991e-03 0.0 
0.0 0.0 0.0 
-1.625238316757e-04 1.445944564648e-04 0.0 
1.445944564648e-04 1.853104985818e-03 0.0 
0.0 0.0 0.0 
-2.048475554696e-04 1.947804965563e-04 0.0 
1.947804965563e-04 1.459553228995e-03 0.0 
0.0 0.0 0.0 
0.0 1.737213925273e-04 0.0 
1.737213925273e-04 2.168861570308e-03 0.0 
0.0 0.0 0.0 
-1.386580153538e-04 1.649269777251e-04 0.0 
1.649269777251e-04 1.345682535316e-04 0.0 
0.0 0.0 0.0 
-2.030556853200e-04 1.579518248868e-04 0.0 
1.579518248868e-04 1.526318164740e-03 0.0 
0.0 0.0 0.0 
1.587982527442e-04 9.357602942366e-05 0.0 
9.357602942366e-05 7.572228302608e-04 0.0 
0.0 0.0 0.0 
1.085756926202e-04 5.322552513227e-06 0.0 
5.322552513227e-06 6.662018370931e-04 0.0 
0.0 0.0 0.0 
-1.804817915205e-04 2.131372094455e-04 0.0 
2.131372094455e-04 1.560706521019e-03 0.0 
0.0 0.0 0.0 
1.451704170672e-04 3.906389076105e-05 0.0 
3.906389076105e-05 4.932019212269e-04 0.0 
0.0 0.0 0.0 
1.394899074323e-04 7.172123879825e-05 0.0 
7.172123879825e-05 7.792024885609e-04 0.0 
0.0 0.0 0.0 
2.915232023359e-05 2.697651217458e-04 0.0 
2.697651217458e-04 1.300181643378e-03 0.0 
0.0 0.0 0.0 
1.223405225781e-04 2.200220322589e-04 0.0 
2.200220322589e-04 1.069942835882e-03 0.0 
0.0 0.0 0.0 
-6.041988613414e-05 2.800220524610e-04 0.0 
2.800220524610e-04 1.796150685534e-03 0.0 
0.0 0.0 0.0 
3.040546186117e-05 1.026615376111e-04 0.0 
1.026615376111e-04 3.153215777620e-04 0.0 
0.0 0.0 0.0 
1.207200425357e-04 1.623863161159e-05 0.0 
1.623863161159e-05 6.371919710790e-04 0.0 
0.0 0.0 0.0 
1.122846947275e-04 1.674129963833e-05 0.0 
1.674129963833e-05 6.920326429942e-04 0.0 
0.0 0.0 0.0 
7.638903639040e-05 -3.337796162713e-05 0.0 
-3.337796162713e-05 3.484060124039e-04 0.0 
0.0 0.0 0.0 
-1.775012248822e-04 7.875213778352e-05 0.0 
7.875213778352e-05 1.732147521242e-03 0.0 
0.0 0.0 0.0 
-1.795966142218e-04 1.570283803997e-04 0.0 
1.570283803997e-04 1.851445660898e-03 0.0 
0.0 0.0 0.0 
8.480411169054e-05 -4.925636220977e-08 0.0 
-4.925636220977e-08 8.848318395183e-04 0.0 
0.0 0.0 0.0 
1.095513685434e-05 -1.116118866675e-05 0.0 
-1.116118866675e-05 1.066573931525e-04 0.0 
0.0 0.0 0.0 
-8.562053862382e-05 -1.979030027664e-05 0.0 
-1.979030027664e-05 1.097538334471e-04 0.0 
0.0 0.0 0.0 
4.129305789524e-05 -4.039115549168e-05 0.0 
-4.039115549168e-05 2.412583869089e-04 0.0 
0.0 0.0 0.0 
1.057023000357e-04 5.794011947338e-06 0.0 
5.794011947338e-06 6.938653828323e-04 0.0 
0.0 0.0 0.0 
1.403633657067e-04 6.463076682479e-05 0.0 
6.463076682479e-05 5.849855872979e-04 0.0 
0.0 0.0 0.0 
1.264631291313e-04 2.090525439399e-05 0.0 
2.090525439399e-05 4.809166237687e-04 0.0 
0.0 0.0 0.0 
1.154345188870e-04 3.512656418155e-05 0.0 
3.512656418155e-05 4.546456887495e-04 0.0 
0.0 0.0 0.0 
1.146394118288e-04 2.395046530997e-05 0.0 
2.395046530997e-05 7.293676180173e-04 0.0 
0.0 0.0 0.0 
-1.395538577554e-04 2.014284975578e-04 0.0 
2.014284975578e-04 1.828119125744e-03 0.0 
0.0 0.0 0.0 
1.079167636184e-04 1.625342847291e-05 0.0 
1.625342847291e-05 7.202111754929e-04 0.0 
0.0 0.0 0.0 
1.558261236811e-04 9.080369372826e-05 0.0 
9.080369372826e-05 5.806056469335e-04 0.0 
0.0 0.0 0.0 
-3.950915122042e-05 2.821869532687e-04 0.0 
2.821869532687e-04 1.513112899481e-03 0.0 
0.0 0.0 0.0 
-1.379496007508e-04 3.076436563447e-05 0.0 
3.076436563447e-05 1.816759770606e-03 0.0 
0.0 0.0 0.0 
9.543514639576e-05 2.503556336809e-04 0.0 
2.503556336809e-04 1.222479076026e-03 0.0 
0.0 0.0 0.0 
1.027722776490e-04 5.539876694521e-06 0.0 
5.539876694521e-06 7.220385902023e-04 0.0 
0.0 0.0 0.0 
1.071539004367e-04 1.270064075340e-05 0.0 
1.270064075340e-05 7.313964887021e-04 0.0 
0.0 0.0 0.0 
-1.670681622452e-04 2.165771859558e-04 0.0 
2.165771859558e-04 1.241113856621e-03 0.0 
0.0 0.0 0.0 
1.433251100675e-04 5.678518707202e-05 0.0 
5.678518707202e-05 5.957960872567e-04 0.0 
0.0 0.0 0.0 
1.035173996564e-04 1.490602908860e-05 0.0 
1.490602908860e-05 7.484408651490e-04 0.0 
0.0 0.0 0.0 
-8.797675254968e-05 6.777960855887e-06 0.0 
6.777960855887e-06 1.929789430256e-03 0.0 
0.0 0.0 0.0 
-9.510379711575e-05 6.041055491574e-06 0.0 
6.041055491574e-06 1.875124500935e-03 0.0 
0.0 0.0 0.0 
-1.810728468256e-04 2.230754479526e-04 0.0 
2.230754479526e-04 1.359417514529e-03 0.0 
0.0 0.0 0.0 
1.091167387837e-04 2.295350050000e-05 0.0 
2.295350050000e-05 7.576585169073e-04 0.0 
0.0 0.0 0.0 
1.187069761313e-04 -6.779082176806e-07 0.0 
-6.779082176806e-07 4.531379188302e-04 0.0 
0.0 0.0 0.0 
-3.795497920667e-05 1.846123823279e-04 0.0 
1.846123823279e-04 4.336972337318e-04 0.0 
0.0 0.0 0.0 
5.377243584581e-05 2.673051019638e-04 0.0 
2.673051019638e-04 1.371645340939e-03 0.0 
0.0 0.0 0.0 
3.922938622014e-05 -2.813952609717e-05 0.0 
-2.813952609717e-05 2.189270287583e-04 0.0 
0.0 0.0 0.0 
1.356967914101e-04 1.771314382726e-05 0.0 
1.771314382726e-05 4.698199492765e-04 0.0 
0.0 0.0 0.0 
1.138792787609e-04 1.989493018998e-04 0.0 
1.989493018998e-04 1.003319907561e-03 0.0 
0.0 0.0 0.0 
-1.572499276906e-04 1.139279849378e-04 0.0 
1.139279849378e-04 1.483094063343e-03 0.0 
0.0 0.0 0.0 
9.998434829583e-05 4.342699922602e-06 0.0 
4.342699922602e-06 7.511224149259e-04 0.0 
0.0 0.0 0.0 
6.277937839516e-05 -8.448618021857e-06 0.0 
-8.448618021857e-06 3.248104342979e-04 0.0 
0.0 0.0 0.0 
-1.938451773059e-04 8.305863110345e-05 0.0 
8.305863110345e-05 1.763586219992e-03 0.0 
0.0 0.0 0.0 
1.029723505361e-04 1.201994480070e-05 0.0 
1.201994480070e-05 7.596152931375e-04 0.0 
0.0 0.0 0.0 
1.458801384300e-04 6.071267513549e-05 0.0 
6.071267513549e-05 6.917384745153e-04 0.0 
0.0 0.0 0.0 
1.152324326528e-04 1.257674872743e-05 0.0 
1.257674872743e-05 6.771805784160e-04 0.0 
0.0 0.0 0.0 
-7.463973702226e-05 5.089198033226e-05 0.0 
5.089198033226e-05 1.852938408347e-04 0.0 
0.0 0.0 0.0 
-5.833870317673e-05 2.560879373879e-06 0.0 
2.560879373879e-06 2.092401437453e-03 0.0 
0.0 0.0 0.0 
1.384106045650e-04 3.085042705392e-05 0.0 
3.085042705392e-05 5.598245476135e-04 0.0 
0.0 0.0 0.0 
9.914511065201e-05 2.048189538435e-04 0.0 
2.048189538435e-04 1.169611770758e-03 0.0 
0.0 0.0 0.0 
6.271003886638e-05 2.561580294406e-04 0.0 
2.561580294406e-04 1.250667026163e-03 0.0 
0.0 0.0 0.0 
1.035536742700e-04 2.140275932322e-05 0.0 
2.140275932322e-05 7.864031764495e-04 0.0 
0.0 0.0 0.0 
9.889325331436e-05 1.080789771993e-05 0.0 
1.080789771993e-05 7.882599725464e-04 0.0 
0.0 0.0 0.0 
1.509013173828e-04 6.752781133727e-05 0.0 
6.752781133727e-05 5.261754987138e-04 0.0 
0.0 0.0 0.0 
-4.391507387291e-06 -2.648335426943e-05 0.0 
-2.648335426943e-05 1.540484842328e-04 0.0 
0.0 0.0 0.0 
-5.584144662341e-05 9.079434150861e-05 0.0 
9.079434150861e-05 1.772119413344e-04 0.0 
0.0 0.0 0.0 
9.808439854009e-05 1.885416370604e-05 0.0 
1.885416370604e-05 8.155609834326e-04 0.0 
0.0 0.0 0.0 
1.007844555658e-04 1.756048465614e-04 0.0 
1.756048465614e-04 1.122780618245e-03 0.0 
0.0 0.0 0.0 
1.091521823291e-04 -1.461857825086e-05 0.0 
-1.461857825086e-05 4.338798875911e-04 0.0 
0.0 0.0 0.0 
-1.565547289017e-05 2.881719213337e-04 0.0 
2.881719213337e-04 1.480115046043e-03 0.0 
0.0 0.0 0.0 
-6.238367846423e-05 2.552974582135e-04 0.0 
2.552974582135e-04 1.048454781651e-03 0.0 
0.0 0.0 0.0 
-5.920938945359e-05 2.808341461355e-04 0.0 
2.808341461355e-04 1.598145826705e-03 0.0 
0.0 0.0 0.0 
5.281778886945e-05 1.493924157989e-04 0.0 
1.493924157989e-04 1.228859523313e-03 0.0 
0.0 0.0 0.0 
-1.835712223170e-04 -3.207134430117e-06 0.0 
-3.207134430117e-06 9.735301177627e-05 0.0 
0.0 0.0 0.0 
0.0 1.507766016317e-05 0.0 
1.507766016317e-05 2.227417856639e-03 0.0 
0.0 0.0 0.0 
0.0 1.795150582950e-05 0.0 
1.795150582950e-05 1.241740517220e-03 0.0 
0.0 0.0 0.0 
-1.011608910509e-04 -4.824787431969e-06 0.0 
-4.824787431969e-06 1.776515059500e-03 0.0 
0.0 0.0 0.0 
1.303234649472e-04 1.134528857210e-05 0.0 
1.134528857210e-05 5.339076976294e-04 0.0 
0.0 0.0 0.0 
4.810886380113e-05 2.630731644153e-04 0.0 
2.630731644153e-04 1.273240676288e-03 0.0 
0.0 0.0 0.0 
1.351807596524e-04 7.423037443265e-05 0.0 
7.423037443265e-05 5.769300848064e-04 0.0 
0.0 0.0 0.0 
1.590631456860e-05 -2.902752841548e-05 0.0 
-2.902752841548e-05 1.464212801259e-04 0.0 
0.0 0.0 0.0 
-1.247949853300e-04 1.296007025465e-04 0.0 
1.296007025465e-04 2.240346094666e-04 0.0 
0.0 0.0 0.0 
-5.514119454497e-05 4.484744272895e-05 0.0 
4.484744272895e-05 2.135867617226e-03 0.0 
0.0 0.0 0.0 
-1.684474383598e-04 1.861600988451e-04 0.0 
1.861600988451e-04 1.842351405645e-03 0.0 
0.0 0.0 0.0 
-1.890925663003e-04 6.639049473168e-05 0.0 
6.639049473168e-05 1.719121410688e-03 0.0 
0.0 0.0 0.0 
9.818691808272e-06 3.635188031575e-04 0.0 
3.635188031575e-04 1.674864215561e-03 0.0 
0.0 0.0 0.0 
5.078378967571e-05 -8.528197374537e-06 0.0 
-8.528197374537e-06 2.692176302264e-04 0.0 
0.0 0.0 0.0 
1.331030747287e-05 3.539367858260e-04 0.0 
3.539367858260e-04 1.630001421107e-03 0.0 
0.0 0.0 0.0 
-1.534456174699e-04 1.743610618630e-04 0.0 
1.743610618630e-04 1.844255980578e-03 0.0 
0.0 0.0 0.0 
1.207167802602e-04 -2.304927714231e-06 0.0 
-2.304927714231e-06 5.146767600834e-04 0.0 
0.0 0.0 0.0 
7.000198879581e-05 2.620214835598e-04 0.0 
2.620214835598e-04 1.182448713100e-03 0.0 
0.0 0.0 0.0 
1.358550394210e-04 1.506211363588e-05 0.0 
1.506211363588e-05 4.899608969795e-04 0.0 
0.0 0.0 0.0 
-3.539128562335e-05 2.030706694635e-04 0.0 
2.030706694635e-04 5.239088706810e-04 0.0 
0.0 0.0 0.0 
1.244688008888e-04 2.897481829139e-06 0.0 
2.897481829139e-06 4.522588068172e-04 0.0 
0.0 0.0 0.0 
-1.215732917583e-04 2.266713755336e-04 0.0 
2.266713755336e-04 1.805744452750e-03 0.0 
0.0 0.0 0.0 
6.117437790865e-05 1.714116105988e-05 0.0 
1.714116105988e-05 1.034538624977e-03 0.0 
0.0 0.0 0.0 
1.461836112462e-04 3.353972218199e-05 0.0 
3.353972218199e-05 5.105989354692e-04 0.0 
0.0 0.0 0.0 
-3.379407565551e-05 2.883065178573e-04 0.0 
2.883065178573e-04 1.565985530941e-03 0.0 
0.0 0.0 0.0 
-1.245457896952e-04 -7.159704081513e-06 0.0 
-7.159704081513e-06 6.505265338697e-05 0.0 
0.0 0.0 0.0 
1.534960685108e-04 5.872680936442e-05 0.0 
5.872680936442e-05 5.397132115250e-04 0.0 
0.0 0.0 0.0 
-1.463763512454e-04 1.909857100913e-04 0.0 
1.909857100913e-04 1.930763054538e-03 0.0 
0.0 0.0 0.0 
1.128215877515e-04 -6.167057973409e-06 0.0 
-6.167057973409e-06 4.377049773889e-04 0.0 
0.0 0.0 0.0 
9.709751787557e-05 -2.452323175343e-05 0.0 
-2.452323175343e-05 3.972459743120e-04 0.0 
0.0 0.0 0.0 
6.862554634068e-05 2.485453443378e-04 0.0 
2.485453443378e-04 1.184666825167e-03 0.0 
0.0 0.0 0.0 
4.586103363646e-05 -1.723833151451e-05 0.0 
-1.723833151451e-05 2.219883773231e-04 0.0 
0.0 0.0 0.0 
-1.587361590545e-04 2.082119295202e-04 0.0 
2.082119295202e-04 1.028126791538e-03 0.0 
0.0 0.0 0.0 
-1.615347836119e-04 2.289472656800e-04 0.0 
2.289472656800e-04 1.139063777162e-03 0.0 
0.0 0.0 0.0 
9.898067519321e-05 -1.457702608706e-05 0.0 
-1.457702608706e-05 3.811722670450e-04 0.0 
0.0 0.0 0.0 
1.440613897434e-04 7.605550968111e-05 0.0 
7.605550968111e-05 7.606384037224e-04 0.0 
0.0 0.0 0.0 
1.256453379401e-04 2.101996716913e-04 0.0 
2.101996716913e-04 9.291874286592e-04 0.0 
0.0 0.0 0.0 
-3.561621405612e-05 2.859346237624e-04 0.0 
2.859346237624e-04 1.566262164985e-03 0.0 
0.0 0.0 0.0 
-5.001604944599e-05 2.717042257277e-04 0.0 
2.717042257277e-04 1.923081334365e-03 0.0 
0.0 0.0 0.0 
-1.416053423230e-04 2.034748906037e-04 0.0 
2.034748906037e-04 1.243572373742e-03 0.0 
0.0 0.0 0.0 
-7.934034545931e-05 -6.235303403711e-07 0.0 
-6.235303403711e-07 1.986622433830e-03 0.0 
0.0 0.0 0.0 
-9.040847435915e-06 3.137379978453e-04 0.0 
3.137379978453e-04 1.726683906219e-03 0.0 
0.0 0.0 0.0 
1.460965588926e-04 7.817898377294e-05 0.0 
7.817898377294e-05 5.145806811975e-04 0.0 
0.0 0.0 0.0 
-9.003285050768e-05 1.945458318243e-04 0.0 
1.945458318243e-04 3.751572338893e-04 0.0 
0.0 0.0 0.0 
-8.754218898643e-05 2.618179639243e-04 0.0 
2.618179639243e-04 1.158988069856e-03 0.0 
0.0 0.0 0.0 
1.427916077106e-04 5.675831629329e-05 0.0 
5.675831629329e-05 7.097367977844e-04 0.0 
0.0 0.0 0.0 
-7.143011817201e-05 2.749728243740e-04 0.0 
2.749728243740e-04 1.677957389045e-03 0.0 
0.0 0.0 0.0 
1.577433144562e-04 7.462015837758e-05 0.0 
7.462015837758e-05 7.069405609752e-04 0.0 
0.0 0.0 0.0 
-2.486396858170e-05 6.764390784441e-05 0.0 
6.764390784441e-05 2.821948981124e-04 0.0 
0.0 0.0 0.0 
1.383699725104e-04 9.099642534781e-05 0.0 
9.099642534781e-05 8.313922524317e-04 0.0 
0.0 0.0 0.0 
-3.885272542259e-05 2.214747454226e-04 0.0 
2.214747454226e-04 6.220648810398e-04 0.0 
0.0 0.0 0.0 
1.185127363867e-04 1.884579108681e-04 0.0 
1.884579108681e-04 9.323284221978e-04 0.0 
0.0 0.0 0.0 
1.544465960497e-04 8.902226566153e-05 0.0 
8.902226566153e-05 7.764467191438e-04 0.0 
0.0 0.0 0.0 
8.582662576750e-05 2.544157942459e-04 0.0 
2.544157942459e-04 1.164372286742e-03 0.0 
0.0 0.0 0.0 
-9.578521089881e-05 8.051482146391e-06 0.0 
8.051482146391e-06 1.917551035044e-03 0.0 
0.0 0.0 0.0 
8.760157795829e-05 -2.921694004152e-05 0.0 
-2.921694004152e-05 3.832256266441e-04 0.0 
0.0 0.0 0.0 
-3.886390095742e-05 1.598468234190e-04 0.0 
1.598468234190e-04 3.484606749493e-04 0.0 
0.0 0.0 0.0 
1.473141405437e-04 1.035649503261e-04 0.0 
1.035649503261e-04 8.490409917745e-04 0.0 
0.0 0.0 0.0 
-3.932030078724e-05 2.317432674736e-04 0.0 
2.317432674736e-04 7.199924628869e-04 0.0 
0.0 0.0 0.0 
-7.393768278807e-05 2.153698335578e-05 0.0 
2.153698335578e-05 1.054054401468e-04 0.0 
0.0 0.0 0.0 
-3.689142495433e-05 1.092833688435e-05 0.0 
1.092833688435e-05 2.142398987224e-03 0.0 
0.0 0.0 0.0 
-5.365759168507e-05 9.903021842566e-06 0.0 
9.903021842566e-06 2.092690188370e-03 0.0 
0.0 0.0 0.0 
-2.988886531008e-05 -2.207254515128e-05 0.0 
-2.207254515128e-05 7.133041974217e-05 0.0 
0.0 0.0 0.0 
1.289944325358e-04 1.062801448136e-04 0.0 
1.062801448136e-04 9.051585679833e-04 0.0 
0.0 0.0 0.0 
5.955360638898e-05 -3.771147427829e-05 0.0 
-3.771147427829e-05 2.944264884051e-04 0.0 
0.0 0.0 0.0 
7.286746159041e-05 -2.133109518763e-05 0.0 
-2.133109518763e-05 3.142406476697e-04 0.0 
0.0 0.0 0.0 
-2.627729763571e-05 2.958840150669e-04 0.0 
2.958840150669e-04 1.620773466301e-03 0.0 
0.0 0.0 0.0 
8.162699340653e-05 2.391952848772e-04 0.0 
2.391952848772e-04 1.166457768138e-03 0.0 
0.0 0.0 0.0 
-1.128195926536e-05 2.940585278571e-04 0.0 
2.940585278571e-04 1.537110570991e-03 0.0 
0.0 0.0 0.0 
1.373846595873e-04 3.550339509853e-05 0.0 
3.550339509853e-05 5.441218652684e-04 0.0 
0.0 0.0 0.0 
-1.094083759001e-04 7.372914358669e-07 0.0 
7.372914358669e-07 1.712251538394e-03 0.0 
0.0 0.0 0.0 
2.552913341458e-05 1.218367654903e-04 0.0 
1.218367654903e-04 1.212328846872e-03 0.0 
0.0 0.0 0.0 
5.467253395453e-05 -2.448723911791e-05 0.0 
-2.448723911791e-05 2.597891548264e-04 0.0 
0.0 0.0 0.0 
9.319494782845e-05 1.948387459699e-04 0.0 
1.948387459699e-04 1.152893136810e-03 0.0 
0.0 0.0 0.0 
1.042046482844e-04 2.106795971859e-04 0.0 
2.106795971859e-04 1.013723821171e-03 0.0 
0.0 0.0 0.0 
4.095640871915e-05 -4.781260245934e-06 0.0 
-4.781260245934e-06 2.018167168982e-04 0.0 
0.0 0.0 0.0 
-9.556784955067e-05 2.582352090673e-04 0.0 
2.582352090673e-04 1.708615085480e-03 0.0 
0.0 0.0 0.0 
1.591124251146e-04 8.071760494105e-05 0.0 
8.071760494105e-05 5.915497244293e-04 0.0 
0.0 0.0 0.0 
-1.079913331348e-05 -3.069000502977e-05 0.0 
-3.069000502977e-05 1.195910205043e-04 0.0 
0.0 0.0 0.0 
1.426522835957e-04 4.609693902774e-05 0.0 
4.609693902774e-05 4.771648198021e-04 0.0 
0.0 0.0 0.0 
9.031782170199e-05 5.537043615433e-06 0.0 
5.537043615433e-06 8.539382424397e-04 0.0 
0.0 0.0 0.0 
-1.317056379767e-04 2.365555436477e-04 0.0 
2.365555436477e-04 1.803571094328e-03 0.0 
0.0 0.0 0.0 
2.289795085564e-05 -4.526315648173e-05 0.0 
-4.526315648173e-05 2.020524642365e-04 0.0 
0.0 0.0 0.0 
1.016583137263e-04 -1.233302149888e-06 0.0 
-1.233302149888e-06 6.709749557814e-04 0.0 
0.0 0.0 0.0 
-4.840633784731e-05 2.872946568576e-04 0.0 
2.872946568576e-04 1.648669847505e-03 0.0 
0.0 0.0 0.0 
6.884935693985e-05 2.568530460179e-04 0.0 
2.568530460179e-04 1.302392488767e-03 0.0 
0.0 0.0 0.0 
1.120949774533e-04 -7.359751093600e-06 0.0 
-7.359751093600e-06 4.155218117325e-04 0.0 
0.0 0.0 0.0 
6.542662513964e-05 7.644447358849e-07 0.0 
7.644447358849e-07 3.250139978932e-04 0.0 
0.0 0.0 0.0 
1.217276997703e-04 2.190368008874e-04 0.0 
2.190368008874e-04 1.000508338430e-03 0.0 
0.0 0.0 0.0 
-9.105257546049e-05 -4.747885986913e-06 0.0 
-4.747885986913e-06 1.897987258729e-03 0.0 
0.0 0.0 0.0 
-1.699914893449e-05 -3.244609168004e-05 0.0 
-3.244609168004e-05 1.203647361487e-04 0.0 
0.0 0.0 0.0 
-6.594379007629e-06 3.465944858752e-04 0.0 
3.465944858752e-04 1.739762259731e-03 0.0 
0.0 0.0 0.0 
-3.332104930454e-05 2.531315733604e-04 0.0 
2.531315733604e-04 2.024320840114e-03 0.0 
0.0 0.0 0.0 
-9.844210087606e-05 -3.236177085989e-06 0.0 
-3.236177085989e-06 1.813709407542e-03 0.0 
0.0 0.0 0.0 
-6.343277016330e-05 1.224055772038e-04 0.0 
1.224055772038e-04 2.150872103595e-03 0.0 
0.0 0.0 0.0 
-2.438370659941e-05 2.897296993847e-04 0.0 
2.897296993847e-04 1.951291813648e-03 0.0 
0.0 0.0 0.0 
1.544487246716e-04 5.220356629704e-05 0.0 
5.220356629704e-05 5.558337275315e-04 0.0 
0.0 0.0 0.0 
1.302542750912e-04 1.308475799553e-05 0.0 
1.308475799553e-05 5.144721743264e-04 0.0 
0.0 0.0 0.0 
5.157260042998e-05 2.522554442140e-04 0.0 
2.522554442140e-04 1.356748015581e-03 0.0 
0.0 0.0 0.0 
-1.196912824272e-04 7.076249804933e-06 0.0 
7.076249804933e-06 6.867442360514e-05 0.0 
0.0 0.0 0.0 
5.737240332704e-05 4.809843467518e-06 0.0 
4.809843467518e-06 2.946683675407e-04 0.0 
0.0 0.0 0.0 
9.954696413184e-05 6.491080198404e-06 0.0 
6.491080198404e-06 6.866630525175e-04 0.0 
0.0 0.0 0.0 
9.907609384574e-05 -2.276713097338e-05 0.0 
-2.276713097338e-05 4.183938772369e-04 0.0 
0.0 0.0 0.0 
1.344289890604e-04 2.127143401809e-05 0.0 
2.127143401809e-05 4.502203441044e-04 0.0 
0.0 0.0 0.0 
-1.532536610633e-04 2.020674687976e-04 0.0 
2.020674687976e-04 8.205785705233e-04 0.0 
0.0 0.0 0.0 
-1.649401353963e-04 2.252938886925e-04 0.0 
2.252938886925e-04 9.331282913969e-04 0.0 
0.0 0.0 0.0 
-1.369168506983e-04 1.982005231649e-05 0.0 
1.982005231649e-05 1.824082930171e-03 0.0 
0.0 0.0 0.0 
1.347546665249e-04 4.171121839541e-05 0.0 
4.171121839541e-05 5.305850325250e-04 0.0 
0.0 0.0 0.0 
7.077447401915e-05 -5.967746148676e-06 0.0 
-5.967746148676e-06 3.471397985950e-04 0.0 
0.0 0.0 0.0 
7.292272766635e-05 2.723878612698e-04 0.0 
2.723878612698e-04 1.304641544161e-03 0.0 
0.0 0.0 0.0 
2.330784029647e-05 1.016776692150e-04 0.0 
1.016776692150e-04 1.268780881475e-03 0.0 
0.0 0.0 0.0 
2.269189494086e-05 1.161535062678e-04 0.0 
1.161535062678e-04 1.273677531754e-03 0.0 
0.0 0.0 0.0 
1.457446865778e-04 3.000518987211e-05 0.0 
3.000518987211e-05 5.303408755539e-04 0.0 
0.0 0.0 0.0 
-1.460806568222e-04 2.409732605418e-05 0.0 
2.409732605418e-05 1.776974770640e-03 0.0 
0.0 0.0 0.0 
-1.223230344888e-04 3.323229894184e-06 0.0 
3.323229894184e-06 1.054112557897e-04 0.0 
0.0 0.0 0.0 
-1.519955034284e-04 1.956532891435e-04 0.0 
1.956532891435e-04 6.211196388624e-04 0.0 
0.0 0.0 0.0 
1.525090088594e-05 -3.072756898196e-05 0.0 
-3.072756898196e-05 2.256238155249e-04 0.0 
0.0 0.0 0.0 
-1.538167015085e-04 2.025954043123e-04 0.0 
2.025954043123e-04 7.264300993195e-04 0.0 
0.0 0.0 0.0 
9.874952554556e-05 2.193415665038e-04 0.0 
2.193415665038e-04 1.083214062584e-03 0.0 
0.0 0.0 0.0 
1.235720830921e-04 3.934899255255e-06 0.0 
3.934899255255e-06 4.315029958493e-04 0.0 
0.0 0.0 0.0 
1.290303835371e-04 1.623730917094e-05 0.0 
1.623730917094e-05 4.969372787622e-04 0.0 
0.0 0.0 0.0 
-5.835639290885e-05 -2.779448521548e-05 0.0 
-2.779448521548e-05 1.477484354349e-04 0.0 
0.0 0.0 0.0 
-4.692605616841e-05 1.349767824728e-05 0.0 
1.349767824728e-05 2.102450586424e-03 0.0 
0.0 0.0 0.0 
1.204359124320e-04 -2.179049348116e-06 0.0 
-2.179049348116e-06 4.727753514364e-04 0.0 
0.0 0.0 0.0 
-4.478134130725e-05 5.054267583699e-05 0.0 
5.054267583699e-05 2.134921115718e-03 0.0 
0.0 0.0 0.0 
-6.610764131831e-05 1.445979779477e-05 0.0 
1.445979779477e-05 2.059837918473e-03 0.0 
0.0 0.0 0.0 
-1.807101448237e-05 2.204526846017e-05 0.0 
2.204526846017e-05 2.225513621850e-03 0.0 
0.0 0.0 0.0 
1.842701056187e-05 2.341310852547e-05 0.0 
2.341310852547e-05 1.242878944105e-03 0.0 
0.0 0.0 0.0 
-9.993536245489e-05 4.829129552902e-06 0.0 
4.829129552902e-06 1.815583384922e-03 0.0 
0.0 0.0 0.0 
1.210298972611e-04 -2.652044493881e-06 0.0 
-2.652044493881e-06 4.930739958828e-04 0.0 
0.0 0.0 0.0 
-1.373622440750e-04 2.202391126283e-04 0.0 
2.202391126283e-04 1.029259891008e-03 0.0 
0.0 0.0 0.0 
1.349632995409e-04 1.403513764353e-05 0.0 
1.403513764353e-05 5.118388337941e-04 0.0 
0.0 0.0 0.0 
0.0 7.895578666899e-05 0.0 
7.895578666899e-05 1.260876989450e-03 0.0 
0.0 0.0 0.0 
-1.388512686946e-04 1.722241803233e-04 0.0 
1.722241803233e-04 4.152140453961e-04 0.0 
0.0 0.0 0.0 
-1.441300514476e-04 1.875144975493e-04 0.0 
1.875144975493e-04 5.185574146205e-04 0.0 
0.0 0.0 0.0 
8.145684230443e-05 2.187145249369e-04 0.0 
2.187145249369e-04 1.222383509406e-03 0.0 
0.0 0.0 0.0 
-1.251752922552e-04 1.188046133118e-05 0.0 
1.188046133118e-05 1.773042794881e-03 0.0 
0.0 0.0 0.0 
-4.018912744086e-05 3.451257278932e-05 0.0 
3.451257278932e-05 2.140878773594e-03 0.0 
0.0 0.0 0.0 
-5.269539901487e-05 2.856741673652e-04 0.0 
2.856741673652e-04 1.648775963699e-03 0.0 
0.0 0.0 0.0 
6.717166276982e-05 2.812824232572e-04 0.0 
2.812824232572e-04 1.370033545537e-03 0.0 
0.0 0.0 0.0 
-9.527475551874e-05 2.675380488196e-04 0.0 
2.675380488196e-04 1.818130282363e-03 0.0 
0.0 0.0 0.0 
-1.016090628764e-04 1.070533286728e-05 0.0 
1.070533286728e-05 1.829412635641e-03 0.0 
0.0 0.0 0.0 
8.454972530414e-05 -3.153691971648e-05 0.0 
-3.153691971648e-05 3.622932739415e-04 0.0 
0.0 0.0 0.0 
9.645808693426e-05 -1.557070899704e-05 0.0 
-1.557070899704e-05 3.601492628891e-04 0.0 
0.0 0.0 0.0 
-8.239136812760e-05 1.095671671199e-05 0.0 
1.095671671199e-05 1.957196787692e-03 0.0 
0.0 0.0 0.0 
5.070710157007e-05 2.718286849238e-04 0.0 
2.718286849238e-04 1.376862275364e-03 0.0 
0.0 0.0 0.0 
-1.644870488816e-04 3.351695765858e-05 0.0 
3.351695765858e-05 1.724643214246e-03 0.0 
0.0 0.0 0.0 
-1.041436194990e-04 9.884073711007e-07 0.0 
9.884073711007e-07 1.762867396336e-03 0.0 
0.0 0.0 0.0 
-1.026566032585e-04 1.704491916904e-06 0.0 
1.704491916904e-06 1.813462065219e-03 0.0 
0.0 0.0 0.0 
-1.084397491371e-04 1.942658961383e-06 0.0 
1.942658961383e-06 1.832750594121e-03 0.0 
0.0 0.0 0.0 
9.608377228743e-06 7.065624965929e-08 0.0 
7.065624965929e-08 1.920712609909e-04 0.0 
0.0 0.0 0.0 
8.226879795892e-05 -2.127683777001e-05 0.0 
-2.127683777001e-05 3.265791235423e-04 0.0 
0.0 0.0 0.0 
-3.953779687216e-05 7.198483076962e-05 0.0 
7.198483076962e-05 2.180550399350e-03 0.0 
0.0 0.0 0.0 
-1.037279292013e-04 7.901988539064e-06 0.0 
7.901988539064e-06 1.892064637568e-03 0.0 
0.0 0.0 0.0 
3.526766348361e-05 2.896794969218e-04 0.0 
2.896794969218e-04 1.444744637665e-03 0.0 
0.0 0.0 0.0 
-7.336082822185e-05 2.841803375962e-04 0.0 
2.841803375962e-04 1.918375376560e-03 0.0 
0.0 0.0 0.0 
-9.965405587276e-05 2.646926588513e-04 0.0 
2.646926588513e-04 1.707450015310e-03 0.0 
0.0 0.0 0.0 
-8.178995251029e-05 1.279068717267e-04 0.0 
1.279068717267e-04 2.116814496737e-03 0.0 
0.0 0.0 0.0 
9.843871826232e-05 -2.135436670175e-06 0.0 
-2.135436670175e-06 4.942537347306e-04 0.0 
0.0 0.0 0.0 
8.716779392870e-05 -4.579783572914e-06 0.0 
-4.579783572914e-06 4.480503845230e-04 0.0 
0.0 0.0 0.0 
5.635187737729e-05 1.204950921526e-04 0.0 
1.204950921526e-04 1.148891834183e-03 0.0 
0.0 0.0 0.0 
-6.121326677522e-05 -1.438980341894e-05 0.0 
-1.438980341894e-05 8.651530753245e-05 0.0 
0.0 0.0 0.0 
5.732117143054e-05 -9.568604600431e-06 0.0 
-9.568604600431e-06 3.118562110938e-04 0.0 
0.0 0.0 0.0 
0.0 3.415191928447e-04 0.0 
3.415191928447e-04 1.650993705821e-03 0.0 
0.0 0.0 0.0 
2.885066441882e-05 -7.936451417139e-06 0.0 
-7.936451417139e-06 1.490142694103e-04 0.0 
0.0 0.0 0.0 
-1.023538665004e-04 1.836919292371e-06 0.0 
1.836919292371e-06 1.763227777584e-03 0.0 
0.0 0.0 0.0 
7.300110146713e-05 2.118959562424e-04 0.0 
2.118959562424e-04 1.249315546465e-03 0.0 
0.0 0.0 0.0 
-1.357700394633e-05 -1.858859901620e-05 0.0 
-1.858859901620e-05 1.066446142748e-04 0.0 
0.0 0.0 0.0 
-1.072518546696e-05 -1.298879614981e-05 0.0 
-1.298879614981e-05 5.802245964470e-05 0.0 
0.0 0.0 0.0 
-2.729617177921e-05 1.093909542914e-04 0.0 
1.093909542914e-04 2.205989973448e-03 0.0 
0.0 0.0 0.0 
-1.187213154042e-04 2.741999661892e-06 0.0 
2.741999661892e-06 1.715763795631e-03 0.0 
0.0 0.0 0.0 
-4.350188138391e-05 9.900790395379e-05 0.0 
9.900790395379e-05 2.165391278069e-03 0.0 
0.0 0.0 0.0 
5.524044473448e-05 2.232221379377e-04 0.0 
2.232221379377e-04 1.279140236987e-03 0.0 
0.0 0.0 0.0 
-1.171879404313e-04 -3.212410431308e-07 0.0 
-3.212410431308e-07 1.713725542212e-03 0.0 
0.0 0.0 0.0 
-1.197184669293e-04 8.281047752243e-06 0.0 
8.281047752243e-06 1.204038530718e-04 0.0 
0.0 0.0 0.0 
-1.927827420778e-05 1.508346199719e-05 0.0 
1.508346199719e-05 2.185591710564e-03 0.0 
0.0 0.0 0.0 
2.777211516070e-05 -2.756674499026e-05 0.0 
-2.756674499026e-05 1.684387289760e-04 0.0 
0.0 0.0 0.0 
-4.534408330015e-05 8.088578806766e-05 0.0 
8.088578806766e-05 2.143294727529e-03 0.0 
0.0 0.0 0.0 
0.0 6.200058134821e-05 0.0 
6.200058134821e-05 1.253685838921e-03 0.0 
0.0 0.0 0.0 
-7.654090786369e-05 2.415903775340e-04 0.0 
2.415903775340e-04 1.993829252728e-03 0.0 
0.0 0.0 0.0 
5.166791968092e-05 4.081358847744e-06 0.0 
4.081358847744e-06 2.360911937358e-04 0.0 
0.0 0.0 0.0 
-1.563564229605e-04 5.139155584366e-05 0.0 
5.139155584366e-05 1.820552765025e-03 0.0 
0.0 0.0 0.0 
8.960996780338e-05 -8.151685402745e-06 0.0 
-8.151685402745e-06 5.033453612504e-04 0.0 
0.0 0.0 0.0 
6.297706847747e-05 2.567780561879e-04 0.0 
2.567780561879e-04 1.305823164359e-03 0.0 
0.0 0.0 0.0 
1.918663199918e-05 3.128888267045e-04 0.0 
3.128888267045e-04 1.516111270858e-03 0.0 
0.0 0.0 0.0 
-7.394982215747e-05 1.253819597171e-05 0.0 
1.253819597171e-05 2.017366675764e-03 0.0 
0.0 0.0 0.0 
2.782593110640e-05 2.983287658410e-04 0.0 
2.983287658410e-04 1.473433423110e-03 0.0 
0.0 0.0 0.0 
-2.886760504350e-05 -4.558524045044e-06 0.0 
-4.558524045044e-06 1.294660065823e-04 0.0 
0.0 0.0 0.0 
3.239182515880e-05 7.636472803497e-05 0.0 
7.636472803497e-05 1.197469182985e-03 0.0 
0.0 0.0 0.0 
5.874098407266e-05 -2.384016086090e-06 0.0 
-2.384016086090e-06 2.645798416894e-04 0.0 
0.0 0.0 0.0 
2.986043704567e-05 -7.793990495638e-06 0.0 
-7.793990495638e-06 1.494694714623e-04 0.0 
0.0 0.0 0.0 
4.891914315275e-05 1.980398336848e-04 0.0 
1.980398336848e-04 1.286851989114e-03 0.0 
0.0 0.0 0.0 
-6.501533282155e-05 1.866576978880e-04 0.0 
1.866576978880e-04 2.123784649964e-03 0.0 
0.0 0.0 0.0 
-3.779758664912e-05 1.111169985323e-04 0.0 
1.111169985323e-04 2.174852444508e-03 0.0 
0.0 0.0 0.0 
-1.086354959630e-04 8.505430069811e-06 0.0 
8.505430069811e-06 1.763119552438e-03 0.0 
0.0 0.0 0.0 
-1.735760143766e-04 9.255943617218e-05 0.0 
9.255943617218e-05 1.814059481959e-03 0.0 
0.0 0.0 0.0 
-3.763758821251e-05 1.589064275666e-04 0.0 
1.589064275666e-04 5.217755896121e-04 0.0 
0.0 0.0 0.0 
-4.785574334754e-05 3.084590665227e-04 0.0 
3.084590665227e-04 1.938953903547e-03 0.0 
0.0 0.0 0.0 
8.235050205507e-05 -1.311451777894e-06 0.0 
-1.311451777894e-06 4.145605289183e-04 0.0 
0.0 0.0 0.0 
-3.093198462212e-05 7.706256112805e-05 0.0 
7.706256112805e-05 2.598061484131e-04 0.0 
0.0 0.0 0.0 
7.980756013848e-05 2.702904821370e-04 0.0 
2.702904821370e-04 1.300570496201e-03 0.0 
0.0 0.0 0.0 
-1.078471826276e-04 -1.780586817387e-07 0.0 
-1.780586817387e-07 1.708487994445e-03 0.0 
0.0 0.0 0.0 
-6.052502793563e-05 1.802383155101e-04 0.0 
1.802383155101e-04 2.090602464907e-03 0.0 
0.0 0.0 0.0 
-1.473516860273e-05 -2.994676138848e-06 0.0 
-2.994676138848e-06 2.224027304919e-03 0.0 
0.0 0.0 0.0 
0.0 7.367584301363e-06 0.0 
7.367584301363e-06 2.230016657197e-03 0.0 
0.0 0.0 0.0 
3.839424905117e-06 -4.682007924959e-07 0.0 
-4.682007924959e-07 1.290835943468e-05 0.0 
0.0 0.0 0.0 
5.228983332772e-06 6.386170666103e-07 0.0 
6.386170666103e-07 1.373243672509e-05 0.0 
0.0 0.0 0.0 
-1.029126212350e-04 -4.331175238783e-06 0.0 
-4.331175238783e-06 1.713871921940e-03 0.0 
0.0 0.0 0.0 
-1.054179542603e-04 5.370746453116e-07 0.0 
5.370746453116e-07 1.706640755197e-03 0.0 
0.0 0.0 0.0 
0.0 8.777796304030e-06 0.0 
8.777796304030e-06 1.241743716958e-03 0.0 
0.0 0.0 0.0 
1.755559260808e-05 5.741485955066e-06 0.0 
5.741485955066e-06 1.230260745048e-03 0.0 
0.0 0.0 0.0 
7.224378111959e-06 1.650132402296e-06 0.0 
1.650132402296e-06 4.769792886905e-05 0.0 
0.0 0.0 0.0 
-1.180021720384e-04 -6.079072563032e-06 0.0 
-6.079072563032e-06 6.347465668655e-05 0.0 
0.0 0.0 0.0 
4.076887042292e-05 4.683972118204e-05 0.0 
4.683972118204e-05 1.116969167523e-03 0.0 
0.0 0.0 0.0 
3.328165974326e-05 3.217734969747e-04 0.0 
3.217734969747e-04 1.533908608201e-03 0.0 
0.0 0.0 0.0 
3.099634121995e-05 -2.272812068700e-05 0.0 
-2.272812068700e-05 1.983469410525e-04 0.0 
0.0 0.0 0.0 
4.055106879775e-05 8.067584233025e-05 0.0 
8.067584233025e-05 1.148977580669e-03 0.0 
0.0 0.0 0.0 
9.812252028829e-05 6.454155585938e-07 0.0 
6.454155585938e-07 7.394983942790e-04 0.0 
0.0 0.0 0.0 
9.828873739592e-05 -4.479208509669e-06 0.0 
-4.479208509669e-06 6.254923343267e-04 0.0 
0.0 0.0 0.0 
-9.692711346998e-05 1.284187263239e-05 0.0 
1.284187263239e-05 1.920516768675e-03 0.0 
0.0 0.0 0.0 
1.878824363155e-05 -2.310355265508e-05 0.0 
-2.310355265508e-05 2.000993322897e-04 0.0 
0.0 0.0 0.0 
7.280205854610e-05 2.476371707177e-04 0.0 
2.476371707177e-04 1.235579054721e-03 0.0 
0.0 0.0 0.0 
1.751136368489e-05 -1.660850288318e-05 0.0 
-1.660850288318e-05 1.567394428261e-04 0.0 
0.0 0.0 0.0 
1.002659210645e-04 -6.828993196444e-06 0.0 
-6.828993196444e-06 5.613656016585e-04 0.0 
0.0 0.0 0.0 
-3.798905981667e-05 2.897294900017e-04 0.0 
2.897294900017e-04 1.893979729929e-03 0.0 
0.0 0.0 0.0 
-4.738363569590e-05 -3.748611910875e-06 0.0 
-3.748611910875e-06 2.121869485323e-03 0.0 
0.0 0.0 0.0 
1.021490331294e-04 3.181388378279e-06 0.0 
3.181388378279e-06 6.211032349692e-04 0.0 
0.0 0.0 0.0 
-9.937466279131e-05 -4.762010228561e-07 0.0 
-4.762010228561e-07 1.857440314935e-03 0.0 
0.0 0.0 0.0 
7.716838756888e-07 3.338496681461e-04 0.0 
3.338496681461e-04 1.660545944000e-03 0.0 
0.0 0.0 0.0 
-7.562541087969e-05 2.819035022639e-04 0.0 
2.819035022639e-04 1.795957143682e-03 0.0 
0.0 0.0 0.0 
-8.827244090825e-05 2.722643935757e-04 0.0 
2.722643935757e-04 1.750898604922e-03 0.0 
0.0 0.0 0.0 
-1.127651751904e-04 8.051054890464e-07 0.0 
8.051054890464e-07 1.713118713843e-03 0.0 
0.0 0.0 0.0 
9.047938717566e-05 2.298392715493e-04 0.0 
2.298392715493e-04 1.154862421261e-03 0.0 
0.0 0.0 0.0 
-6.139555240336e-05 2.111140033447e-04 0.0 
2.111140033447e-04 2.047743833569e-03 0.0 
0.0 0.0 0.0 
6.298000205063e-05 -4.458583711223e-06 0.0 
-4.458583711223e-06 3.109466970863e-04 0.0 
0.0 0.0 0.0 
-4.689155396864e-05 -2.203555217148e-05 0.0 
-2.203555217148e-05 7.750569966847e-05 0.0 
0.0 0.0 0.0 
-1.366679280101e-05 3.070145151749e-04 0.0 
3.070145151749e-04 1.648119960489e-03 0.0 
0.0 0.0 0.0 
1.057483076949e-04 2.074505770668e-04 0.0 
2.074505770668e-04 1.152037324450e-03 0.0 
0.0 0.0 0.0 
1.120628554174e-05 -4.064611564207e-05 0.0 
-4.064611564207e-05 1.630031919082e-04 0.0 
0.0 0.0 0.0 
-8.860397096810e-05 4.024968179162e-06 0.0 
4.024968179162e-06 1.960869334845e-03 0.0 
0.0 0.0 0.0 
2.000934561086e-05 4.459370539592e-05 0.0 
4.459370539592e-05 1.176076758185e-03 0.0 
0.0 0.0 0.0 
2.169636671079e-05 3.053856632828e-04 0.0 
3.053856632828e-04 1.542427921527e-03 0.0 
0.0 0.0 0.0 
9.664076732419e-06 3.290789350957e-04 0.0 
3.290789350957e-04 1.612288303986e-03 0.0 
0.0 0.0 0.0 
9.291119480470e-05 -1.721449342107e-06 0.0 
-1.721449342107e-06 8.104290886646e-04 0.0 
0.0 0.0 0.0 
-7.427074352728e-05 6.048929533625e-05 0.0 
6.048929533625e-05 1.114734421193e-04 0.0 
0.0 0.0 0.0 
-1.514029274198e-04 2.260826899211e-04 0.0 
2.260826899211e-04 8.227128709324e-04 0.0 
0.0 0.0 0.0 
-4.775371498367e-05 1.990877112464e-04 0.0 
1.990877112464e-04 7.187204181234e-04 0.0 
0.0 0.0 0.0 
-1.628750947260e-04 5.565920084972e-05 0.0 
5.565920084972e-05 1.827016690142e-03 0.0 
0.0 0.0 0.0 
9.886512083335e-05 2.472458373599e-04 0.0 
2.472458373599e-04 1.152734908524e-03 0.0 
0.0 0.0 0.0 
-4.676404138371e-05 5.595130449970e-05 0.0 
5.595130449970e-05 2.152191851599e-03 0.0 
0.0 0.0 0.0 
3.435851143685e-05 2.489551902911e-04 0.0 
2.489551902911e-04 1.362400995665e-03 0.0 
0.0 0.0 0.0 
-4.351611068176e-05 -3.257703260748e-05 0.0 
-3.257703260748e-05 1.311744266008e-04 0.0 
0.0 0.0 0.0 
-3.035259382678e-05 -3.074267430148e-05 0.0 
-3.074267430148e-05 1.181934945185e-04 0.0 
0.0 0.0 0.0 
-1.538988828865e-04 2.338136280450e-04 0.0 
2.338136280450e-04 6.244446179304e-04 0.0 
0.0 0.0 0.0 
-8.179203568470e-05 2.167891054658e-05 0.0 
2.167891054658e-05 1.978260766764e-03 0.0 
0.0 0.0 0.0 
7.310594316579e-05 -1.646659922022e-05 0.0 
-1.646659922022e-05 3.852140088652e-04 0.0 
0.0 0.0 0.0 
-6.995555210776e-05 1.472282741367e-04 0.0 
1.472282741367e-04 2.122037737430e-03 0.0 
0.0 0.0 0.0 
3.153646838006e-05 -1.591557614135e-05 0.0 
-1.591557614135e-05 1.886984547270e-04 0.0 
0.0 0.0 0.0 
6.423677656686e-05 2.374923658939e-04 0.0 
2.374923658939e-04 1.293629234190e-03 0.0 
0.0 0.0 0.0 
-1.244261000075e-04 2.233900392248e-05 0.0 
2.233900392248e-05 1.823376407067e-03 0.0 
0.0 0.0 0.0 
1.927172132432e-05 3.079051806464e-04 0.0 
3.079051806464e-04 1.527563805297e-03 0.0 
0.0 0.0 0.0 
4.511354944658e-05 2.755561955254e-04 0.0 
2.755561955254e-04 1.385369229118e-03 0.0 
0.0 0.0 0.0 
-1.769186577015e-04 7.004588333943e-05 0.0 
7.004588333943e-05 1.825216810530e-03 0.0 
0.0 0.0 0.0 
5.026257953911e-05 1.653422625537e-04 0.0 
1.653422625537e-04 1.249889150569e-03 0.0 
0.0 0.0 0.0 
-5.593295802109e-05 1.723846015048e-04 0.0 
1.723846015048e-04 2.137101058200e-03 0.0 
0.0 0.0 0.0 
-3.099303377785e-05 1.517774032408e-05 0.0 
1.517774032408e-05 2.188143938973e-03 0.0 
0.0 0.0 0.0 
-1.551180774557e-04 2.259154225792e-04 0.0 
2.259154225792e-04 4.179935087480e-04 0.0 
0.0 0.0 0.0 
-6.354556431198e-05 1.297109039960e-04 0.0 
1.297109039960e-04 2.116651693842e-03 0.0 
0.0 0.0 0.0 
-5.413265807830e-06 3.269923282315e-04 0.0 
3.269923282315e-04 1.763066056283e-03 0.0 
0.0 0.0 0.0 
6.903649244427e-05 2.373824971793e-04 0.0 
2.373824971793e-04 1.293472280897e-03 0.0 
0.0 0.0 0.0 
6.586629858418e-05 2.843463751243e-04 0.0 
2.843463751243e-04 1.373769882333e-03 0.0 
0.0 0.0 0.0 
0.0 1.062607686213e-04 0.0 
1.062607686213e-04 1.271108069040e-03 0.0 
0.0 0.0 0.0 
-7.839480990224e-05 2.691574956836e-04 0.0 
2.691574956836e-04 1.751277316347e-03 0.0 
0.0 0.0 0.0 
-1.085098450980e-04 5.339712075602e-05 0.0 
5.339712075602e-05 5.718635549923e-05 0.0 
0.0 0.0 0.0 
-4.150697179728e-05 1.085756303729e-04 0.0 
1.085756303729e-04 3.466305866615e-04 0.0 
0.0 0.0 0.0 
-7.603851773463e-05 2.810490399396e-04 0.0 
2.810490399396e-04 1.858975775284e-03 0.0 
0.0 0.0 0.0 
-1.509431506369e-04 6.353242639217e-05 0.0 
6.353242639217e-05 1.867924807190e-03 0.0 
0.0 0.0 0.0 
4.368806273725e-05 2.012260555848e-05 0.0 
2.012260555848e-05 1.109139191686e-03 0.0 
0.0 0.0 0.0 
3.379834252493e-05 2.889212108128e-04 0.0 
2.889212108128e-04 1.451601594076e-03 0.0 
0.0 0.0 0.0 
2.291782844299e-05 8.908960767257e-05 0.0 
8.908960767257e-05 1.203784101175e-03 0.0 
0.0 0.0 0.0 
-7.122006268112e-05 2.591918393177e-05 0.0 
2.591918393177e-05 2.036545768596e-03 0.0 
0.0 0.0 0.0 
1.740535672901e-05 2.972107743173e-04 0.0 
2.972107743173e-04 1.491697269154e-03 0.0 
0.0 0.0 0.0 
5.075679857813e-05 1.391908240209e-04 0.0 
1.391908240209e-04 1.185387132096e-03 0.0 
0.0 0.0 0.0 
6.056041409286e-05 1.503642070359e-04 0.0 
1.503642070359e-04 1.184352397366e-03 0.0 
0.0 0.0 0.0 
7.497795933209e-05 -1.176964018673e-05 0.0 
-1.176964018673e-05 3.997420985644e-04 0.0 
0.0 0.0 0.0 
2.512365627227e-05 8.697933119347e-05 0.0 
8.697933119347e-05 1.263085340990e-03 0.0 
0.0 0.0 0.0 
-1.386705222339e-04 2.079284204195e-05 0.0 
2.079284204195e-05 1.768788889254e-03 0.0 
0.0 0.0 0.0 
-4.645076809351e-05 2.752669464408e-05 0.0 
2.752669464408e-05 2.141762259087e-03 0.0 
0.0 0.0 0.0 
-6.763435547619e-06 -3.612680723516e-05 0.0 
-3.612680723516e-05 1.160050914915e-04 0.0 
0.0 0.0 0.0 
-5.798399698387e-05 1.159069407295e-05 0.0 
1.159069407295e-05 2.103588016972e-03 0.0 
0.0 0.0 0.0 
-8.981967011179e-05 1.118997848237e-05 0.0 
1.118997848237e-05 1.965683531799e-03 0.0 
0.0 0.0 0.0 
1.556161875027e-05 -6.783588100479e-06 0.0 
-6.783588100479e-06 1.033446807168e-04 0.0 
0.0 0.0 0.0 
2.031444788919e-05 -2.001606234363e-05 0.0 
-2.001606234363e-05 2.297118061652e-04 0.0 
0.0 0.0 0.0 
-5.728705862629e-05 2.844315690319e-04 0.0 
2.844315690319e-04 1.726748212489e-03 0.0 
0.0 0.0 0.0 
-2.740404015922e-05 8.523485717142e-05 0.0 
8.523485717142e-05 2.176541785133e-03 0.0 
0.0 0.0 0.0 
-4.232413610250e-05 1.195605233493e-05 0.0 
1.195605233493e-05 2.148721522679e-03 0.0 
0.0 0.0 0.0 
4.990960058993e-05 3.026653805513e-04 0.0 
3.026653805513e-04 1.444843418734e-03 0.0 
0.0 0.0 0.0 
-1.026968079931e-04 1.640242803329e-05 0.0 
1.640242803329e-05 1.860198709029e-03 0.0 
0.0 0.0 0.0 
-2.736330828723e-05 -2.053791436924e-05 0.0 
-2.053791436924e-05 6.820751576919e-05 0.0 
0.0 0.0 0.0 
-6.026995946240e-05 4.503333137264e-05 0.0 
4.503333137264e-05 1.582213777194e-04 0.0 
0.0 0.0 0.0 
-1.583951886863e-05 -1.162142050583e-05 0.0 
-1.162142050583e-05 7.421331599544e-05 0.0 
0.0 0.0 0.0 
-2.405892443047e-06 -4.197742975911e-05 0.0 
-4.197742975911e-05 1.542965577723e-04 0.0 
0.0 0.0 0.0 
-1.165603708944e-04 1.085236463561e-04 0.0 
1.085236463561e-04 8.006493716994e-05 0.0 
0.0 0.0 0.0 
9.744168043135e-05 1.361107144808e-06 0.0 
1.361107144808e-06 5.467228540803e-04 0.0 
0.0 0.0 0.0 
4.671886653074e-05 3.110820920008e-05 0.0 
3.110820920008e-05 1.108905301985e-03 0.0 
0.0 0.0 0.0 
-6.479204860321e-05 2.469388164580e-04 0.0 
2.469388164580e-04 1.994528504019e-03 0.0 
0.0 0.0 0.0 
-1.858809747404e-04 1.004736160168e-04 0.0 
1.004736160168e-04 1.848855783759e-03 0.0 
0.0 0.0 0.0 
9.067144343611e-05 -1.553468958113e-05 0.0 
-1.553468958113e-05 4.727083901133e-04 0.0 
0.0 0.0 0.0 
5.530353355820e-05 1.127004274625e-04 0.0 
1.127004274625e-04 1.151588498090e-03 0.0 
0.0 0.0 0.0 
8.263295589317e-05 1.955679741831e-04 0.0 
1.955679741831e-04 1.204452501485e-03 0.0 
0.0 0.0 0.0 
3.271722235509e-05 3.301131736714e-04 0.0 
3.301131736714e-04 1.544210261700e-03 0.0 
0.0 0.0 0.0 
-7.548050267481e-06 3.129273594013e-04 0.0 
3.129273594013e-04 1.692572526627e-03 0.0 
0.0 0.0 0.0 
-4.287944016768e-05 2.959235801377e-04 0.0 
2.959235801377e-04 1.775555177056e-03 0.0 
0.0 0.0 0.0 
-7.339491699176e-06 -2.568555211785e-05 0.0 
-2.568555211785e-05 1.124840265745e-04 0.0 
0.0 0.0 0.0 
-7.304044839918e-05 -2.072589852725e-05 0.0 
-2.072589852725e-05 1.377691001296e-04 0.0 
0.0 0.0 0.0 
4.398657407223e-05 3.891694526150e-05 0.0 
3.891694526150e-05 1.119444027086e-03 0.0 
0.0 0.0 0.0 
2.308007025120e-05 -3.534754837721e-06 0.0 
-3.534754837721e-06 1.008451020397e-04 0.0 
0.0 0.0 0.0 
2.180005966457e-05 5.613032859319e-06 0.0 
5.613032859319e-06 1.253638154495e-04 0.0 
0.0 0.0 0.0 
-8.960375974831e-05 1.425675134588e-04 0.0 
1.425675134588e-04 1.960146556645e-04 0.0 
0.0 0.0 0.0 
-4.893162897202e-06 -3.091031013498e-05 0.0 
-3.091031013498e-05 1.062629927864e-04 0.0 
0.0 0.0 0.0 
2.591510045180e-05 1.518688337045e-04 0.0 
1.518688337045e-04 1.242731932250e-03 0.0 
0.0 0.0 0.0 
-2.185064666804e-05 3.134192588578e-04 0.0 
3.134192588578e-04 1.871594089837e-03 0.0 
0.0 0.0 0.0 
-4.073176739894e-05 6.105521950424e-05 0.0 
6.105521950424e-05 2.152480963289e-03 0.0 
0.0 0.0 0.0 
1.362364456736e-05 3.180715131152e-04 0.0 
3.180715131152e-04 1.571692199013e-03 0.0 
0.0 0.0 0.0 
7.624006571527e-05 1.825807292830e-04 0.0 
1.825807292830e-04 1.178131345472e-03 0.0 
0.0 0.0 0.0 
-9.752725899226e-05 1.796673843756e-05 0.0 
1.796673843756e-05 1.892981720715e-03 0.0 
0.0 0.0 0.0 
0.0 1.185011384148e-04 0.0 
1.185011384148e-04 2.204294861943e-03 0.0 
0.0 0.0 0.0 
5.001291603968e-05 -3.048088800511e-05 0.0 
-3.048088800511e-05 2.636217144056e-04 0.0 
0.0 0.0 0.0 
-1.133117947640e-04 8.667042107877e-07 0.0 
8.667042107877e-07 1.709899038084e-03 0.0 
0.0 0.0 0.0 
-1.713464132513e-05 -3.340953084822e-05 0.0 
-3.340953084822e-05 1.685548643149e-04 0.0 
0.0 0.0 0.0 
4.269967057491e-06 -1.087904518019e-05 0.0 
-1.087904518019e-05 5.654624716489e-05 0.0 
0.0 0.0 0.0 
2.338574190874e-05 6.058986014368e-05 0.0 
6.058986014368e-05 1.250787391110e-03 0.0 
0.0 0.0 0.0 
-1.687269155431e-04 5.434071606107e-05 0.0 
5.434071606107e-05 1.768376426326e-03 0.0 
0.0 0.0 0.0 
2.145127948094e-05 -1.122014426594e-05 0.0 
-1.122014426594e-05 1.486557435091e-04 0.0 
0.0 0.0 0.0 
9.504360059021e-05 3.095179679986e-06 0.0 
3.095179679986e-06 5.240322451086e-04 0.0 
0.0 0.0 0.0 
-3.269168204545e-05 3.259725554716e-04 0.0 
3.259725554716e-04 1.893248246017e-03 0.0 
0.0 0.0 0.0 
-5.914945839547e-05 7.785435572272e-05 0.0 
7.785435572272e-05 2.144571992648e-03 0.0 
0.0 0.0 0.0 
-3.534021485219e-05 1.912459708963e-04 0.0 
1.912459708963e-04 2.115919933487e-03 0.0 
0.0 0.0 0.0 
6.859212913457e-05 -1.050131400013e-05 0.0 
-1.050131400013e-05 3.632418723141e-04 0.0 
0.0 0.0 0.0 
-5.951873592591e-05 -2.968804577124e-06 0.0 
-2.968804577124e-06 1.442753960552e-04 0.0 
0.0 0.0 0.0 
3.865453837437e-05 9.780243350532e-05 0.0 
9.780243350532e-05 1.207066687593e-03 0.0 
0.0 0.0 0.0 
-1.571082293972e-05 1.156675854473e-05 0.0 
1.156675854473e-05 2.229047499460e-03 0.0 
0.0 0.0 0.0 
1.794983353887e-05 1.206127863873e-05 0.0 
1.206127863873e-05 1.241742571152e-03 0.0 
0.0 0.0 0.0 
-1.022655842680e-04 3.600216744685e-06 0.0 
3.600216744685e-06 1.752380304016e-03 0.0 
0.0 0.0 0.0 
5.392089670786e-05 1.953575322541e-04 0.0 
1.953575322541e-04 1.235540231408e-03 0.0 
0.0 0.0 0.0 
3.088683382013e-05 -1.709614949721e-05 0.0 
-1.709614949721e-05 1.518710367017e-04 0.0 
0.0 0.0 0.0 
-5.758358593222e-05 1.493284142570e-04 0.0 
1.493284142570e-04 2.122187154533e-03 0.0 
0.0 0.0 0.0 
-3.140439461147e-06 -1.463374665822e-05 0.0 
-1.463374665822e-05 5.662571002052e-05 0.0 
0.0 0.0 0.0 
2.671286731681e-05 1.838134398056e-04 0.0 
1.838134398056e-04 1.278086377899e-03 0.0 
0.0 0.0 0.0 
-5.928570577585e-05 2.118096339550e-04 0.0 
2.118096339550e-04 2.098317780030e-03 0.0 
0.0 0.0 0.0 
-6.912580919560e-05 1.941498502375e-05 0.0 
1.941498502375e-05 9.736652810655e-05 0.0 
0.0 0.0 0.0 
1.433423291330e-05 3.056936004546e-04 0.0 
3.056936004546e-04 1.542558631463e-03 0.0 
0.0 0.0 0.0 
-7.929329063294e-05 1.066749678504e-05 0.0 
1.066749678504e-05 2.008102007998e-03 0.0 
0.0 0.0 0.0 
-2.097798642320e-05 6.205246752308e-05 0.0 
6.205246752308e-05 2.184989957584e-03 0.0 
0.0 0.0 0.0 
0.0 2.944475941902e-04 0.0 
2.944475941902e-04 1.498970370082e-03 0.0 
0.0 0.0 0.0 
-8.849861768012e-05 -3.165284969042e-06 0.0 
-3.165284969042e-06 1.929670097417e-03 0.0 
0.0 0.0 0.0 
-2.032462563661e-05 3.053553442993e-04 0.0 
3.053553442993e-04 1.916232873150e-03 0.0 
0.0 0.0 0.0 
-7.819663143038e-05 1.819866324159e-04 0.0 
1.819866324159e-04 2.090529492804e-03 0.0 
0.0 0.0 0.0 
-8.079741415223e-05 9.688630801224e-06 0.0 
9.688630801224e-06 1.964868969704e-03 0.0 
0.0 0.0 0.0 
-3.622136869297e-05 2.967945972980e-04 0.0 
2.967945972980e-04 1.865408350620e-03 0.0 
0.0 0.0 0.0 
8.521765209890e-05 -1.059362949809e-05 0.0 
-1.059362949809e-05 4.413598994997e-04 0.0 
0.0 0.0 0.0 
-1.078918906879e-04 -5.327604671206e-07 0.0 
-5.327604671206e-07 1.708755618173e-03 0.0 
0.0 0.0 0.0 
3.501631020408e-05 3.157905768660e-04 0.0 
3.157905768660e-04 1.521699541532e-03 0.0 
0.0 0.0 0.0 
-2.038832238516e-05 1.038343198670e-05 0.0 
1.038343198670e-05 2.193123676981e-03 0.0 
0.0 0.0 0.0 
7.765130572990e-06 1.081084276048e-06 0.0 
1.081084276048e-06 1.124825921739e-05 0.0 
0.0 0.0 0.0 
-1.036440519145e-04 9.777673517010e-07 0.0 
9.777673517010e-07 1.706725706798e-03 0.0 
0.0 0.0 0.0 
2.319353938685e-05 5.603905826262e-06 0.0 
5.603905826262e-06 1.187426785587e-03 0.0 
0.0 0.0 0.0 
3.350916968747e-05 -1.518727869784e-05 0.0 
-1.518727869784e-05 1.949496739444e-04 0.0 
0.0 0.0 0.0 
7.540189838906e-05 2.279216490760e-04 0.0 
2.279216490760e-04 1.270106474154e-03 0.0 
0.0 0.0 0.0 
-8.634746344016e-05 2.169767003715e-04 0.0 
2.169767003715e-04 2.046366337079e-03 0.0 
0.0 0.0 0.0 
-3.892285342089e-05 5.320526254674e-05 0.0 
5.320526254674e-05 2.182203415686e-03 0.0 
0.0 0.0 0.0 
3.282158033957e-05 -8.394677968651e-06 0.0 
-8.394677968651e-06 1.863552859227e-04 0.0 
0.0 0.0 0.0 
-5.596244400352e-05 9.586060740750e-05 0.0 
9.586060740750e-05 2.458074564995e-04 0.0 
0.0 0.0 0.0 
9.870954968805e-05 8.281193177217e-06 0.0 
8.281193177217e-06 6.537368314516e-04 0.0 
0.0 0.0 0.0 
-6.295007104962e-05 1.364241938364e-05 0.0 
1.364241938364e-05 2.065891373683e-03 0.0 
0.0 0.0 0.0 
-1.747702469262e-04 -7.339700203659e-06 0.0 
-7.339700203659e-06 9.297785610984e-05 0.0 
0.0 0.0 0.0 
-3.092664239090e-05 1.556075452856e-04 0.0 
1.556075452856e-04 2.148141528666e-03 0.0 
0.0 0.0 0.0 
-8.795052695165e-05 7.044758525191e-06 0.0 
7.044758525191e-06 1.912533194231e-03 0.0 
0.0 0.0 0.0 
1.529913170661e-05 -4.456626400403e-05 0.0 
-4.456626400403e-05 1.975978518811e-04 0.0 
0.0 0.0 0.0 
-9.715357507922e-05 9.278629813137e-06 0.0 
9.278629813137e-06 1.872971924455e-03 0.0 
0.0 0.0 0.0 
1.601485878799e-05 3.351427618454e-04 0.0 
3.351427618454e-04 1.597024454805e-03 0.0 
0.0 0.0 0.0 
9.967170477654e-05 -6.110193514703e-06 0.0 
-6.110193514703e-06 6.884642080940e-04 0.0 
0.0 0.0 0.0 
-1.192278549050e-04 9.399877296705e-05 0.0 
9.399877296705e-05 1.348502753227e-04 0.0 
0.0 0.0 0.0 
8.153360964869e-05 -5.945531606011e-06 0.0 
-5.945531606011e-06 3.978638967272e-04 0.0 
0.0 0.0 0.0 
1.027762050807e-04 3.082681446796e-06 0.0 
3.082681446796e-06 5.925143771703e-04 0.0 
0.0 0.0 0.0 
1.008248486902e-04 9.000567397300e-06 0.0 
9.000567397300e-06 7.189519381177e-04 0.0 
0.0 0.0 0.0 
3.722107532056e-05 2.886699957405e-04 0.0 
2.886699957405e-04 1.439240542105e-03 0.0 
0.0 0.0 0.0 
9.779200002025e-05 -5.061818088006e-06 0.0 
-5.061818088006e-06 5.769042324226e-04 0.0 
0.0 0.0 0.0 
1.024442089306e-04 3.153367157712e-06 0.0 
3.153367157712e-06 6.159486864450e-04 0.0 
0.0 0.0 0.0 
-3.760661387298e-06 -1.311187668504e-05 0.0 
-1.311187668504e-05 9.623820876525e-05 0.0 
0.0 0.0 0.0 
4.611955033207e-05 8.997111795591e-05 0.0 
8.997111795591e-05 1.150954836571e-03 0.0 
0.0 0.0 0.0 
-5.028426567688e-06 3.144885696855e-04 0.0 
3.144885696855e-04 1.648885536652e-03 0.0 
0.0 0.0 0.0 
-9.274424502270e-06 1.015365448466e-04 0.0 
1.015365448466e-04 2.620644686457e-04 0.0 
0.0 0.0 0.0 
-1.621404844965e-05 7.214194488934e-06 0.0 
7.214194488934e-06 2.191512631753e-03 0.0 
0.0 0.0 0.0 
1.953063305460e-05 1.343865335203e-05 0.0 
1.343865335203e-05 1.185179667788e-03 0.0 
0.0 0.0 0.0 
-1.034823457429e-04 -3.283532546519e-06 0.0 
-3.283532546519e-06 1.756046245769e-03 0.0 
0.0 0.0 0.0 
-9.231400098697e-05 5.996086471804e-06 0.0 
5.996086471804e-06 1.912388333948e-03 0.0 
0.0 0.0 0.0 
9.946075490763e-05 3.474975912700e-06 0.0 
3.474975912700e-06 5.759468034274e-04 0.0 
0.0 0.0 0.0 
1.009369393319e-04 -3.217161917857e-06 0.0 
-3.217161917857e-06 5.956947495294e-04 0.0 
0.0 0.0 0.0 
9.814967554456e-05 -8.203810976602e-08 0.0 
-8.203810976602e-08 6.186704058202e-04 0.0 
0.0 0.0 0.0 
8.297912816690e-05 2.213983619954e-04 0.0 
2.213983619954e-04 1.227012046311e-03 0.0 
0.0 0.0 0.0 
9.905357263085e-06 -2.960404433354e-05 0.0 
-2.960404433354e-05 1.594277469199e-04 0.0 
0.0 0.0 0.0 
-1.960979055105e-05 3.252625190337e-04 0.0 
3.252625190337e-04 1.721803761916e-03 0.0 
0.0 0.0 0.0 
-9.889247048356e-05 4.522367742143e-06 0.0 
4.522367742143e-06 1.809929819051e-03 0.0 
0.0 0.0 0.0 
-5.853279958268e-05 1.456727006270e-04 0.0 
1.456727006270e-04 2.151094698436e-03 0.0 
0.0 0.0 0.0 
6.876054637539e-05 2.082507994605e-04 0.0 
2.082507994605e-04 1.225430682599e-03 0.0 
0.0 0.0 0.0 
-1.025865441510e-04 7.378895508115e-06 0.0 
7.378895508115e-06 1.874185771697e-03 0.0 
0.0 0.0 0.0 
-4.678658971835e-05 2.914823173729e-04 0.0 
2.914823173729e-04 1.835285965763e-03 0.0 
0.0 0.0 0.0 
4.704852862036e-05 2.915209195063e-04 0.0 
2.915209195063e-04 1.437919197912e-03 0.0 
0.0 0.0 0.0 
3.377533188176e-05 3.188913986348e-04 0.0 
3.188913986348e-04 1.508154497283e-03 0.0 
0.0 0.0 0.0 
-9.772958405863e-05 1.031298226788e-04 0.0 
1.031298226788e-04 1.249498024578e-04 0.0 
0.0 0.0 0.0 
-5.843581647991e-05 2.924994968188e-04 0.0 
2.924994968188e-04 1.835208967114e-03 0.0 
0.0 0.0 0.0 
-3.598107481873e-05 3.169501963240e-04 0.0 
3.169501963240e-04 1.827303980200e-03 0.0 
0.0 0.0 0.0 
-2.061535145592e-06 -2.194599378006e-05 0.0 
-2.194599378006e-05 1.009384148882e-04 0.0 
0.0 0.0 0.0 
9.724394913424e-05 -5.441561203910e-06 0.0 
-5.441561203910e-06 5.452760045492e-04 0.0 
0.0 0.0 0.0 
-1.064238163194e-04 7.223883354099e-05 0.0 
7.223883354099e-05 1.458527257303e-04 0.0 
0.0 0.0 0.0 
-5.676880852112e-05 3.040332997812e-04 0.0 
3.040332997812e-04 1.886431251352e-03 0.0 
0.0 0.0 0.0 
-1.081678266930e-04 3.971359850816e-07 0.0 
3.971359850816e-07 1.518713154824e-03 0.0 
0.0 0.0 0.0 
-1.073947639346e-04 2.753272552849e-06 0.0 
2.753272552849e-06 1.522492125163e-03 0.0 
0.0 0.0 0.0 
-1.025929775510e-04 1.455090286389e-06 0.0 
1.455090286389e-06 1.522609938924e-03 0.0 
0.0 0.0 0.0 
-1.056540021418e-04 5.398693998741e-08 0.0 
5.398693998741e-08 1.522636986899e-03 0.0 
0.0 0.0 0.0 
-1.027188072339e-04 2.173342344725e-07 0.0 
2.173342344725e-07 1.522595974333e-03 0.0 
0.0 0.0 0.0 
-1.046698145064e-04 -9.152383333195e-07 0.0 
-9.152383333195e-07 1.522137659602e-03 0.0 
0.0 0.0 0.0 
-1.017669730878e-04 -6.742278679468e-07 0.0 
-6.742278679468e-07 1.522060429094e-03 0.0 
0.0 0.0 0.0 
-1.037460982166e-04 -1.804093742760e-06 0.0 
-1.804093742760e-06 1.521598431490e-03 0.0 
0.0 0.0 0.0 
-9.996482039809e-05 -1.170871236705e-06 0.0 
-1.170871236705e-06 1.521381043398e-03 0.0 
0.0 0.0 0.0 
-1.028918068665e-04 -2.619383257117e-06 0.0 
-2.619383257117e-06 1.521033320687e-03 0.0 
0.0 0.0 0.0 
-9.735132249367e-05 -1.529261204635e-06 0.0 
-1.529261204635e-06 1.520581623172e-03 0.0 
0.0 0.0 0.0 
-1.017887145275e-04 -3.475326310976e-06 0.0 
-3.475326310976e-06 1.520390815700e-03 0.0 
0.0 0.0 0.0 
-9.400789786929e-05 -1.757627466784e-06 0.0 
-1.757627466784e-06 1.519551333595e-03 0.0 
0.0 0.0 0.0 
-1.006867856558e-04 -4.413320045141e-06 0.0 
-4.413320045141e-06 1.519576713652e-03 0.0 
0.0 0.0 0.0 
-8.999547961175e-05 -2.041204897249e-06 0.0 
-2.041204897249e-06 1.518200215352e-03 0.0 
0.0 0.0 0.0 
-1.115099348772e-04 3.880618615127e-05 0.0 
3.880618615127e-05 1.518907961753e-03 0.0 
0.0 0.0 0.0 
-9.908973561390e-05 -5.408366594133e-06 0.0 
-5.408366594133e-06 1.518443352233e-03 0.0 
0.0 0.0 0.0 
-1.432331603207e-04 2.649530984781e-05 0.0 
2.649530984781e-05 1.536411703577e-03 0.0 
0.0 0.0 0.0 
-8.520224180808e-05 -2.194457145079e-06 0.0 
-2.194457145079e-06 1.516294038607e-03 0.0 
0.0 0.0 0.0 
-9.759492814876e-05 -6.150581155181e-06 0.0 
-6.150581155181e-06 1.517330738659e-03 0.0 
0.0 0.0 0.0 
-7.954668692889e-05 -2.288805958305e-06 0.0 
-2.288805958305e-06 1.514271835984e-03 0.0 
0.0 0.0 0.0 
-9.636731102891e-05 -6.938382715009e-06 0.0 
-6.938382715009e-06 1.516371290230e-03 0.0 
0.0 0.0 0.0 
-7.329599070716e-05 -2.343686760535e-06 0.0 
-2.343686760535e-06 1.512099438856e-03 0.0 
0.0 0.0 0.0 
-9.541610790409e-05 -7.677078328256e-06 0.0 
-7.677078328256e-06 1.515471548088e-03 0.0 
0.0 0.0 0.0 
-5.943289145638e-05 1.123837218904e-05 0.0 
1.123837218904e-05 1.479240012008e-03 0.0 
0.0 0.0 0.0 
-6.668103092333e-05 -2.225790070628e-06 0.0 
-2.225790070628e-06 1.509614618205e-03 0.0 
0.0 0.0 0.0 
-9.531515815786e-05 -8.086623489856e-06 0.0 
-8.086623489856e-06 1.514748917311e-03 0.0 
0.0 0.0 0.0 
-5.996697478017e-05 -1.852359633232e-06 0.0 
-1.852359633232e-06 1.506962993936e-03 0.0 
0.0 0.0 0.0 
-9.678629806564e-05 -8.220721322934e-06 0.0 
-8.220721322934e-06 1.514240287828e-03 0.0 
0.0 0.0 0.0 
-5.344939732799e-05 -9.934518270438e-07 0.0 
-9.934518270438e-07 1.503872428841e-03 0.0 
0.0 0.0 0.0 
-1.000384950828e-04 -6.158615166194e-06 0.0 
-6.158615166194e-06 1.515614840979e-03 0.0 
0.0 0.0 0.0 
-4.850204321649e-05 1.420909739128e-06 0.0 
1.420909739128e-06 1.502682883757e-03 0.0 
0.0 0.0 0.0 
-1.092207521628e-04 -4.066631562859e-06 0.0 
-4.066631562859e-06 1.517956569417e-03 0.0 
0.0 0.0 0.0 
-1.170627518676e-04 5.977611316531e-06 0.0 
5.977611316531e-06 1.523332043031e-03 0.0 
0.0 0.0 0.0 
-4.727940218829e-05 5.849732381662e-06 0.0 
5.849732381662e-06 1.500112862267e-03 0.0 
0.0 0.0 0.0 
-1.786638535745e-04 8.977638162292e-05 0.0 
8.977638162292e-05 1.559828201546e-03 0.0 
0.0 0.0 0.0 
-5.608552559444e-05 1.871502457416e-05 0.0 
1.871502457416e-05 1.501491230268e-03 0.0 
0.0 0.0 0.0 
-1.576745675465e-04 2.128762675706e-05 0.0 
2.128762675706e-05 1.558269832267e-03 0.0 
0.0 0.0 0.0 
-1.148931062894e-04 -8.304162646043e-06 0.0 
-8.304162646043e-06 1.527672461488e-03 0.0 
0.0 0.0 0.0 
-1.095750098160e-04 1.002378352217e-05 0.0 
1.002378352217e-05 1.518232701937e-03 0.0 
0.0 0.0 0.0 
-1.081859250548e-04 -4.187837674024e-08 0.0 
-4.187837674024e-08 1.537407901652e-03 0.0 
0.0 0.0 0.0 
-1.163178086085e-04 1.983975589722e-06 0.0 
1.983975589722e-06 1.508964949570e-03 0.0 
0.0 0.0 0.0 
-1.857967573858e-04 9.681614473105e-05 0.0 
9.681614473105e-05 1.495988909537e-03 0.0 
0.0 0.0 0.0 
-1.066018232228e-04 -3.005954041874e-06 0.0 
-3.005954041874e-06 1.592838446121e-03 0.0 
0.0 0.0 0.0 
-1.073947639346e-04 -1.339510973818e-08 0.0 
-1.339510973818e-08 1.587907791323e-03 0.0 
0.0 0.0 0.0 
-1.060612898504e-04 -1.478381681986e-06 0.0 
-1.478381681986e-06 1.587730825864e-03 0.0 
0.0 0.0 0.0 
-1.056540021418e-04 -1.323367642777e-06 0.0 
-1.323367642777e-06 1.587109568872e-03 0.0 
0.0 0.0 0.0 
-1.060394489681e-04 -1.398419639795e-06 0.0 
-1.398419639795e-06 1.587099325286e-03 0.0 
0.0 0.0 0.0 
-1.046698145064e-04 -1.925825339324e-06 0.0 
-1.925825339324e-06 1.586963716818e-03 0.0 
0.0 0.0 0.0 
-1.062657716827e-04 -2.136031859544e-06 0.0 
-2.136031859544e-06 1.586936345833e-03 0.0 
0.0 0.0 0.0 
-1.037460982166e-04 -2.972117893166e-06 0.0 
-2.972117893166e-06 1.586529526000e-03 0.0 
0.0 0.0 0.0 
-1.062663013728e-04 -2.569390200315e-06 0.0 
-2.569390200315e-06 1.586702477985e-03 0.0 
0.0 0.0 0.0 
-1.028918068665e-04 -3.881915088330e-06 0.0 
-3.881915088330e-06 1.586575699173e-03 0.0 
0.0 0.0 0.0 
-1.070889670088e-04 -3.305302268851e-06 0.0 
-3.305302268851e-06 1.586909916989e-03 0.0 
0.0 0.0 0.0 
-1.017887145275e-04 -4.966747274704e-06 0.0 
-4.966747274704e-06 1.586206222327e-03 0.0 
0.0 0.0 0.0 
-1.076570661183e-04 -3.600603831509e-06 0.0 
-3.600603831509e-06 1.587017496986e-03 0.0 
0.0 0.0 0.0 
-1.391715582819e-04 3.812538468175e-05 0.0 
3.812538468175e-05 1.589231575999e-03 0.0 
0.0 0.0 0.0 
-1.006867856558e-04 -5.821566689215e-06 0.0 
-5.821566689215e-06 1.586338217348e-03 0.0 
0.0 0.0 0.0 
-1.091325864360e-04 -4.595258885182e-06 0.0 
-4.595258885182e-06 1.587382890959e-03 0.0 
0.0 0.0 0.0 
-1.170627518676e-04 2.873578244046e-05 0.0 
2.873578244046e-05 1.560922894209e-03 0.0 
0.0 0.0 0.0 
-9.908973561390e-05 -6.909306621254e-06 0.0 
-6.909306621254e-06 1.585356160323e-03 0.0 
0.0 0.0 0.0 
-1.103741729345e-04 -4.714802024682e-06 0.0 
-4.714802024682e-06 1.587308648415e-03 0.0 
0.0 0.0 0.0 
-1.544755031718e-04 2.954585613829e-05 0.0 
2.954585613829e-05 1.601637090765e-03 0.0 
0.0 0.0 0.0 
-9.759492814876e-05 -7.445770909332e-06 0.0 
-7.445770909332e-06 1.584796620925e-03 0.0 
0.0 0.0 0.0 
-1.125843554598e-04 -4.532210885775e-06 0.0 
-4.532210885775e-06 1.587807143022e-03 0.0 
0.0 0.0 0.0 
-9.636731102891e-05 -7.569570418910e-06 0.0 
-7.569570418910e-06 1.584495390257e-03 0.0 
0.0 0.0 0.0 
-1.155946171225e-04 -4.262381981063e-06 0.0 
-4.262381981063e-06 1.588647882460e-03 0.0 
0.0 0.0 0.0 
-9.541610790409e-05 -7.032559201663e-06 0.0 
-7.032559201663e-06 1.583784376108e-03 0.0 
0.0 0.0 0.0 
-1.640073591747e-04 6.261653681308e-05 0.0 
6.261653681308e-05 1.607695246182e-03 0.0 
0.0 0.0 0.0 
-1.195753325264e-04 -3.014344451661e-06 0.0 
-3.014344451661e-06 1.589630216574e-03 0.0 
0.0 0.0 0.0 
-9.531515815786e-05 -5.223330127251e-06 0.0 
-5.223330127251e-06 1.583104000870e-03 0.0 
0.0 0.0 0.0 
-9.678629806564e-05 -1.810508551857e-06 0.0 
-1.810508551857e-06 1.582841571803e-03 0.0 
0.0 0.0 0.0 
-1.253920293500e-04 -4.562309165749e-07 0.0 
-4.562309165749e-07 1.591146480914e-03 0.0 
0.0 0.0 0.0 
-1.000384950828e-04 5.118867007222e-06 0.0 
5.118867007222e-06 1.579845945041e-03 0.0 
0.0 0.0 0.0 
-1.342573547344e-04 2.867962891093e-06 0.0 
2.867962891093e-06 1.593047654777e-03 0.0 
0.0 0.0 0.0 
-1.092207521628e-04 1.877024470159e-05 0.0 
1.877024470159e-05 1.581473525454e-03 0.0 
0.0 0.0 0.0 
-1.386746542674e-04 1.378227953998e-05 0.0 
1.378227953998e-05 1.595010146250e-03 0.0 
0.0 0.0 0.0 
-1.559972135275e-04 3.523026235061e-05 0.0 
3.523026235061e-05 1.592026645013e-03 0.0 
0.0 0.0 0.0 
-1.041714787922e-04 -9.035530008573e-06 0.0 
-9.035530008573e-06 1.583550483324e-03 0.0 
0.0 0.0 0.0 
-1.097459794386e-04 8.059173280476e-06 0.0 
8.059173280476e-06 1.593492055822e-03 0.0 
0.0 0.0 0.0 
-1.081859250548e-04 -1.363442071708e-06 0.0 
-1.363442071708e-06 1.572439381810e-03 0.0 
0.0 0.0 0.0 
-1.057788075511e-04 7.198935171749e-07 0.0 
7.198935171749e-07 1.604001652365e-03 0.0 
0.0 0.0 0.0 
-1.432331603207e-04 6.853278370216e-05 0.0 
6.853278370216e-05 1.555533110360e-03 0.0 
0.0 0.0 0.0 
-1.066018232228e-04 -4.004879805031e-06 0.0 
-4.004879805031e-06 1.646704587350e-03 0.0 
0.0 0.0 0.0 
-1.044789388134e-04 -8.488405318364e-07 0.0 
-8.488405318364e-07 1.650764888235e-03 0.0 
0.0 0.0 0.0 
-1.060612898504e-04 -1.844131677070e-06 0.0 
-1.844131677070e-06 1.650887456574e-03 0.0 
0.0 0.0 0.0 
-1.060753870652e-04 -1.396857986828e-06 0.0 
-1.396857986828e-06 1.651714792527e-03 0.0 
0.0 0.0 0.0 
-1.060394489681e-04 -1.569501524655e-06 0.0 
-1.569501524655e-06 1.651744979239e-03 0.0 
0.0 0.0 0.0 
-1.070364800873e-04 -1.621231055526e-06 0.0 
-1.621231055526e-06 1.652429927132e-03 0.0 
0.0 0.0 0.0 
-1.062657716827e-04 -2.094185871384e-06 0.0 
-2.094185871384e-06 1.652530543374e-03 0.0 
0.0 0.0 0.0 
-1.078471826276e-04 -2.876500712477e-06 0.0 
-2.876500712477e-06 1.652346496435e-03 0.0 
0.0 0.0 0.0 
-1.062663013728e-04 -2.058335055976e-06 0.0 
-2.058335055976e-06 1.652071670869e-03 0.0 
0.0 0.0 0.0 
-1.094083759001e-04 -2.641554517653e-06 0.0 
-2.641554517653e-06 1.653242031228e-03 0.0 
0.0 0.0 0.0 
-1.070889670088e-04 -2.532860846459e-06 0.0 
-2.532860846459e-06 1.653131438029e-03 0.0 
0.0 0.0 0.0 
-1.120310107442e-04 -4.003968529991e-06 0.0 
-4.003968529991e-06 1.653911538528e-03 0.0 
0.0 0.0 0.0 
-1.542341784608e-04 3.214967183661e-05 0.0 
3.214967183661e-05 1.659280100419e-03 0.0 
0.0 0.0 0.0 
-1.076570661183e-04 -2.532096454850e-06 0.0 
-2.532096454850e-06 1.653120072790e-03 0.0 
0.0 0.0 0.0 
-1.610521362191e-04 2.430241837923e-05 0.0 
2.430241837923e-05 1.667531172236e-03 0.0 
0.0 0.0 0.0 
-1.133117947640e-04 -3.510767990349e-06 0.0 
-3.510767990349e-06 1.654930025464e-03 0.0 
0.0 0.0 0.0 
-1.091325864360e-04 -2.521794349201e-06 0.0 
-2.521794349201e-06 1.654233251248e-03 0.0 
0.0 0.0 0.0 
-1.184101566669e-04 -4.739629708977e-06 0.0 
-4.739629708977e-06 1.655987716027e-03 0.0 
0.0 0.0 0.0 
-1.103741729345e-04 -1.930041943702e-06 0.0 
-1.930041943702e-06 1.653937212227e-03 0.0 
0.0 0.0 0.0 
-1.227218964419e-04 -3.871937784410e-06 0.0 
-3.871937784410e-06 1.657348211129e-03 0.0 
0.0 0.0 0.0 
-1.125843554598e-04 -8.816364820781e-07 0.0 
-8.816364820781e-07 1.654712260453e-03 0.0 
0.0 0.0 0.0 
-1.271271867054e-04 -2.668159785096e-06 0.0 
-2.668159785096e-06 1.658950180250e-03 0.0 
0.0 0.0 0.0 
-1.386746542674e-04 2.887157044505e-05 0.0 
2.887157044505e-05 1.632667498324e-03 0.0 
0.0 0.0 0.0 
-1.155946171225e-04 1.199207199917e-06 0.0 
1.199207199917e-06 1.655240637497e-03 0.0 
0.0 0.0 0.0 
-1.334144685592e-04 -4.193456923068e-07 0.0 
-4.193456923068e-07 1.660606946295e-03 0.0 
0.0 0.0 0.0 
-1.195753325264e-04 5.031531997568e-06 0.0 
5.031531997568e-06 1.655035361710e-03 0.0 
0.0 0.0 0.0 
-1.405139909048e-04 4.419924798880e-06 0.0 
4.419924798880e-06 1.662267691526e-03 0.0 
0.0 0.0 0.0 
-1.492781637521e-04 1.275720928105e-05 0.0 
1.275720928105e-05 1.664436574759e-03 0.0 
0.0 0.0 0.0 
-1.253920293500e-04 1.147443466565e-05 0.0 
1.147443466565e-05 1.654662329742e-03 0.0 
0.0 0.0 0.0 
-1.342573547344e-04 2.080885501337e-05 0.0 
2.080885501337e-05 1.655259026919e-03 0.0 
0.0 0.0 0.0 
-1.665815447925e-04 4.804215182786e-05 0.0 
4.804215182786e-05 1.671140816302e-03 0.0 
0.0 0.0 0.0 
-1.607273835283e-04 3.081153961250e-05 0.0 
3.081153961250e-05 1.650324123497e-03 0.0 
0.0 0.0 0.0 
-1.069716448074e-04 -8.033221526878e-06 0.0 
-8.033221526878e-06 1.650800475424e-03 0.0 
0.0 0.0 0.0 
-1.042602004527e-04 8.695258020539e-06 0.0 
8.695258020539e-06 1.645955494794e-03 0.0 
0.0 0.0 0.0 
-1.054179542603e-04 3.840501584161e-08 0.0 
3.840501584161e-08 1.665005285940e-03 0.0 
0.0 0.0 0.0 
-1.057788075511e-04 9.210438052405e-07 0.0 
9.210438052405e-07 1.632294964025e-03 0.0 
0.0 0.0 0.0 
-1.544755031718e-04 5.275695585053e-05 0.0 
5.275695585053e-05 1.629743675711e-03 0.0 
0.0 0.0 0.0 

TENSORS element_materi_strain_plasti float
-7.112834060814e-05 3.514287460403e-05 0.0 
3.514287460403e-05 4.221004333340e-04 0.0 
0.0 0.0 -6.331083958573e-05 
-5.846555959083e-05 -3.955396469031e-05 0.0 
-3.955396469031e-05 3.778270157352e-04 0.0 
0.0 0.0 -6.454996159239e-05 
-1.889012089990e-04 -4.635760778403e-06 0.0 
-4.635760778403e-06 1.261715003762e-03 0.0 
0.0 0.0 -1.917354871627e-04 
-1.892197240299e-04 -2.621872887778e-05 0.0 
-2.621872887778e-05 1.272074442975e-03 0.0 
0.0 0.0 -1.883397590782e-04 
-1.197492232907e-04 3.454635042166e-05 0.0 
3.454635042166e-05 7.881734594548e-04 0.0 
0.0 0.0 -1.194279202642e-04 
-3.089019924433e-05 3.311410509038e-05 0.0 
3.311410509038e-05 1.513652850395e-04 0.0 
0.0 0.0 -2.690189283898e-05 
-1.181845121128e-04 4.042873295375e-05 0.0 
4.042873295375e-05 7.806844228614e-04 0.0 
0.0 0.0 -1.201653584795e-04 
-6.192381097420e-05 6.121385101827e-06 0.0 
6.121385101827e-06 4.031113170469e-04 0.0 
0.0 0.0 -6.068503909357e-05 
-1.204422882212e-04 -4.316649774326e-05 0.0 
-4.316649774326e-05 7.921064928151e-04 0.0 
0.0 0.0 -1.196685615722e-04 
-1.872884217324e-04 3.363141611130e-05 0.0 
3.363141611130e-05 1.259931992447e-03 0.0 
0.0 0.0 -1.879590212157e-04 
-1.310105652939e-04 2.220654670134e-05 0.0 
2.220654670134e-05 8.586450598517e-04 0.0 
0.0 0.0 -1.322476557103e-04 
-5.719807020115e-05 3.286461856499e-08 0.0 
3.286461856499e-08 3.230799459092e-04 0.0 
0.0 0.0 -5.602547750609e-05 
-1.877824496395e-04 3.388580337900e-05 0.0 
3.388580337900e-05 1.270169470641e-03 0.0 
0.0 0.0 -1.888781569884e-04 
-1.271872132406e-04 2.790230920199e-05 0.0 
2.790230920199e-05 8.458021199286e-04 0.0 
0.0 0.0 -1.278925217316e-04 
-1.932284152260e-04 -2.749272838120e-05 0.0 
-2.749272838120e-05 1.293984431102e-03 0.0 
0.0 0.0 -1.934308312547e-04 
-1.951772105051e-04 3.059468724474e-05 0.0 
3.059468724474e-05 1.293909326463e-03 0.0 
0.0 0.0 -1.928977411855e-04 
-1.183364621444e-04 7.034029580760e-07 0.0 
7.034029580760e-07 7.884128395372e-04 0.0 
0.0 0.0 -1.161101519611e-04 
-2.611548289249e-05 -2.976881314846e-05 0.0 
-2.976881314846e-05 1.366026820107e-04 0.0 
0.0 0.0 -2.739356786257e-05 
-4.655901900947e-05 -1.783274604704e-05 0.0 
-1.783274604704e-05 2.713105741166e-04 0.0 
0.0 0.0 -4.164025237647e-05 
-4.525890771348e-05 1.651863799484e-05 0.0 
1.651863799484e-05 2.466759593770e-04 0.0 
0.0 0.0 -4.546658199970e-05 
-1.855467270519e-04 -3.410013315625e-05 0.0 
-3.410013315625e-05 1.271232436366e-03 0.0 
0.0 0.0 -1.875582398551e-04 
-7.183248799894e-05 1.385365681385e-05 0.0 
1.385365681385e-05 4.407830654411e-04 0.0 
0.0 0.0 -7.216713101957e-05 
-7.730219154025e-05 -1.500465902034e-05 0.0 
-1.500465902034e-05 4.983174969402e-04 0.0 
0.0 0.0 -7.637334323853e-05 
-1.811871610611e-04 -2.281549761052e-05 0.0 
-2.281549761052e-05 1.217872226341e-03 0.0 
0.0 0.0 -1.815559455716e-04 
-1.350733973102e-04 3.295465992380e-05 0.0 
3.295465992380e-05 9.016620137675e-04 0.0 
0.0 0.0 -1.369648256180e-04 
-1.376188637296e-04 -2.176217058498e-05 0.0 
-2.176217058498e-05 9.243651343577e-04 0.0 
0.0 0.0 -1.376939605679e-04 
-1.069658315495e-04 -2.744737862324e-06 0.0 
-2.744737862324e-06 7.297614599069e-04 0.0 
0.0 0.0 -1.072212406194e-04 
-1.912521162051e-04 1.980335045204e-06 0.0 
1.980335045204e-06 1.305953059909e-03 0.0 
0.0 0.0 -1.899071758113e-04 
-1.362716787782e-04 -3.798939155730e-05 0.0 
-3.798939155730e-05 9.083018994538e-04 0.0 
0.0 0.0 -1.367086240186e-04 
-1.873007466112e-04 2.251116880675e-05 0.0 
2.251116880675e-05 1.247916240988e-03 0.0 
0.0 0.0 -1.856871487262e-04 
-3.243755210516e-05 5.032771115372e-06 0.0 
5.032771115372e-06 2.086151015531e-04 0.0 
0.0 0.0 -3.278963886402e-05 
-1.654166470030e-05 4.638693750366e-06 0.0 
4.638693750366e-06 9.012172148024e-05 0.0 
0.0 0.0 -1.589633704410e-05 
-1.936928702910e-04 8.344522422306e-06 0.0 
8.344522422306e-06 1.305844555641e-03 0.0 
0.0 0.0 -1.891952015075e-04 
-1.629254088575e-04 -2.764733331880e-05 0.0 
-2.764733331880e-05 1.087637140145e-03 0.0 
0.0 0.0 -1.635300645102e-04 
-1.844440851533e-04 -3.122724235015e-05 0.0 
-3.122724235015e-05 1.269225288252e-03 0.0 
0.0 0.0 -1.882484805285e-04 
-2.000892196314e-04 5.806438950548e-05 0.0 
5.806438950548e-05 1.337814960827e-03 0.0 
0.0 0.0 -1.972329526028e-04 
-1.979323581362e-04 -6.123980485016e-05 0.0 
-6.123980485016e-05 1.334624137008e-03 0.0 
0.0 0.0 -1.971979658877e-04 
-1.876565914579e-04 2.632656749342e-05 0.0 
2.632656749342e-05 1.265796013128e-03 0.0 
0.0 0.0 -1.897108526679e-04 
-1.089254337778e-04 -4.761071042110e-05 0.0 
-4.761071042110e-05 7.109927537120e-04 0.0 
0.0 0.0 -1.107114518244e-04 
-1.094034421642e-04 5.351990132505e-05 0.0 
5.351990132505e-05 7.212963119965e-04 0.0 
0.0 0.0 -1.105676175232e-04 
-8.675634194158e-05 -2.048772068430e-05 0.0 
-2.048772068430e-05 5.676637230470e-04 0.0 
0.0 0.0 -8.691834785005e-05 
-1.894316575551e-04 1.529535291876e-06 0.0 
1.529535291876e-06 1.267582633286e-03 0.0 
0.0 0.0 -1.921134732322e-04 
-4.839148529355e-05 3.269211206116e-05 0.0 
3.269211206116e-05 2.885062742471e-04 0.0 
0.0 0.0 -4.811778726964e-05 
-1.084239785972e-04 8.299246254447e-06 0.0 
8.299246254447e-06 6.943716908755e-04 0.0 
0.0 0.0 -1.102508860907e-04 
-1.837583847109e-04 -1.472486193336e-05 0.0 
-1.472486193336e-05 1.244009219740e-03 0.0 
0.0 0.0 -1.819287770889e-04 
-4.809827435414e-05 -2.856413507896e-05 0.0 
-2.856413507896e-05 2.876955400614e-04 0.0 
0.0 0.0 -4.797639238285e-05 
-2.674214069171e-05 -6.567095403776e-07 0.0 
-6.567095403776e-07 1.170205921082e-04 0.0 
0.0 0.0 -2.746289347828e-05 
-1.830752196458e-04 9.475420572823e-06 0.0 
9.475420572823e-06 1.215993436390e-03 0.0 
0.0 0.0 -1.852115035180e-04 
-1.474418981779e-05 6.875922652759e-07 0.0 
6.875922652759e-07 4.915161551588e-05 0.0 
0.0 0.0 -1.474603958490e-05 
-1.203307146343e-04 -2.717995598574e-05 0.0 
-2.717995598574e-05 8.158947777103e-04 0.0 
0.0 0.0 -1.234415444935e-04 
-8.234981639965e-05 -1.699589320995e-05 0.0 
-1.699589320995e-05 5.359221535030e-04 0.0 
0.0 0.0 -8.161374715243e-05 
-5.082688459540e-05 -1.056431694294e-05 0.0 
-1.056431694294e-05 3.372053744103e-04 0.0 
0.0 0.0 -5.165715595373e-05 
-4.611236241503e-05 -2.201694224577e-05 0.0 
-2.201694224577e-05 2.721561722188e-04 0.0 
0.0 0.0 -4.571843846580e-05 
-8.132390918315e-05 1.940323008173e-05 0.0 
1.940323008173e-05 5.127711064819e-04 0.0 
0.0 0.0 -8.234191315183e-05 
-1.899869588384e-04 -1.183985275253e-06 0.0 
-1.183985275253e-06 1.270300843848e-03 0.0 
0.0 0.0 -1.923283752319e-04 
-6.895815039131e-05 -2.178280864622e-05 0.0 
-2.178280864622e-05 4.406253786073e-04 0.0 
0.0 0.0 -6.768350264862e-05 
-5.417817485919e-05 2.166263208896e-05 0.0 
2.166263208896e-05 3.190902094138e-04 0.0 
0.0 0.0 -5.541318120416e-05 
-1.632126763507e-04 2.740636426442e-05 0.0 
2.740636426442e-05 1.093574435161e-03 0.0 
0.0 0.0 -1.631601065255e-04 
-3.323583887555e-05 3.269521201795e-06 0.0 
3.269521201795e-06 2.033859620122e-04 0.0 
0.0 0.0 -3.284525368658e-05 
-1.937347679597e-04 -3.087303565399e-05 0.0 
-3.087303565399e-05 1.295743109935e-03 0.0 
0.0 0.0 -1.927980053726e-04 
-1.410948374280e-05 -1.895108414919e-05 0.0 
-1.895108414919e-05 7.768302090073e-05 0.0 
0.0 0.0 -1.429900283189e-05 
-1.810662248895e-04 3.422591082853e-05 0.0 
3.422591082853e-05 1.214874210850e-03 0.0 
0.0 0.0 -1.816237070315e-04 
-8.260879868620e-05 3.395540134069e-05 0.0 
3.395540134069e-05 5.200982356105e-04 0.0 
0.0 0.0 -8.245627511043e-05 
-3.949603130373e-05 1.817463478044e-05 0.0 
1.817463478044e-05 2.392386227040e-04 0.0 
0.0 0.0 -4.154126471103e-05 
-1.880584302466e-04 -2.737021915549e-05 0.0 
-2.737021915549e-05 1.269816799986e-03 0.0 
0.0 0.0 -1.886217783130e-04 
-7.828481688491e-05 1.568948501134e-05 0.0 
1.568948501134e-05 4.753725480920e-04 0.0 
0.0 0.0 -7.706359040663e-05 
-9.040619779534e-06 6.808328067989e-06 0.0 
6.808328067989e-06 3.080905476409e-05 0.0 
0.0 0.0 -9.329329279096e-06 
-1.897461617520e-04 -1.190223513879e-05 0.0 
-1.190223513879e-05 1.300793159363e-03 0.0 
0.0 0.0 -1.892491279630e-04 
-3.670459678346e-05 -3.155058415611e-05 0.0 
-3.155058415611e-05 2.097964586862e-04 0.0 
0.0 0.0 -3.606465181366e-05 
-1.910292024481e-04 -5.680018839657e-07 0.0 
-5.680018839657e-07 1.267292748539e-03 0.0 
0.0 0.0 -1.923564682915e-04 
-1.423720417950e-04 -2.542418638308e-05 0.0 
-2.542418638308e-05 9.582298228247e-04 0.0 
0.0 0.0 -1.433443585977e-04 
-2.007748921200e-04 -7.173616599767e-07 0.0 
-7.173616599767e-07 1.325499155450e-03 0.0 
0.0 0.0 -2.007748921200e-04 
-1.856237250837e-04 2.519587703745e-07 0.0 
2.519587703745e-07 1.217908679066e-03 0.0 
0.0 0.0 -1.849363666885e-04 
-1.959401746035e-05 3.302488870378e-05 0.0 
3.302488870378e-05 8.419396161668e-05 0.0 
0.0 0.0 -1.942930455437e-05 
-7.294356160709e-05 2.278666566635e-05 0.0 
2.278666566635e-05 4.423978020253e-04 0.0 
0.0 0.0 -7.166057984914e-05 
-1.881200936435e-04 -2.597496456892e-05 0.0 
-2.597496456892e-05 1.274260032451e-03 0.0 
0.0 0.0 -1.893940471826e-04 
-1.918449780582e-04 -8.194598920858e-07 0.0 
-8.194598920858e-07 1.307445909733e-03 0.0 
0.0 0.0 -1.898028072996e-04 
-3.750417093390e-05 -2.856125910662e-05 0.0 
-2.856125910662e-05 2.170807613547e-04 0.0 
0.0 0.0 -3.765846754783e-05 
-3.201050297440e-05 -1.804321051782e-06 0.0 
-1.804321051782e-06 1.678376622842e-04 0.0 
0.0 0.0 -3.550136840268e-05 
-3.928328821311e-05 3.001435520315e-05 0.0 
3.001435520315e-05 2.151736419894e-04 0.0 
0.0 0.0 -3.788339401932e-05 
-3.841727809162e-05 3.259876760906e-05 0.0 
3.259876760906e-05 1.973706613177e-04 0.0 
0.0 0.0 -3.659988700710e-05 
-1.163465053479e-04 4.799891796781e-06 0.0 
4.799891796781e-06 7.474963377636e-04 0.0 
0.0 0.0 -1.187754596314e-04 
-7.387818471422e-05 -1.490180971543e-05 0.0 
-1.490180971543e-05 4.683625195835e-04 0.0 
0.0 0.0 -7.124103466145e-05 
-6.818690854032e-05 3.229042439658e-06 0.0 
3.229042439658e-06 3.926939187943e-04 0.0 
0.0 0.0 -6.657494268075e-05 
-1.280956191016e-04 -3.699964442022e-05 0.0 
-3.699964442022e-05 8.260012594816e-04 0.0 
0.0 0.0 -1.250515658111e-04 
-1.265295814047e-04 3.342378051017e-05 0.0 
3.342378051017e-05 8.211688879782e-04 0.0 
0.0 0.0 -1.253711530225e-04 
-1.484422711167e-04 -2.770915871896e-05 0.0 
-2.770915871896e-05 9.841615042540e-04 0.0 
0.0 0.0 -1.480066387926e-04 
-1.583372546511e-04 2.913712885410e-05 0.0 
2.913712885410e-05 1.064432221446e-03 0.0 
0.0 0.0 -1.587865244471e-04 
-1.631334298294e-04 -3.149814825206e-05 0.0 
-3.149814825206e-05 1.098864964118e-03 0.0 
0.0 0.0 -1.628912057403e-04 
-1.190806096983e-04 -4.403551421918e-05 0.0 
-4.403551421918e-05 7.749316267703e-04 0.0 
0.0 0.0 -1.197484453225e-04 
-1.483799586843e-05 5.558978623438e-06 0.0 
5.558978623438e-06 4.973861707578e-05 0.0 
0.0 0.0 -1.495740908886e-05 
-1.182760976271e-04 3.125415357905e-06 0.0 
3.125415357905e-06 7.592172627745e-04 0.0 
0.0 0.0 -1.189347521933e-04 
-1.620624140011e-04 -1.653046323385e-05 0.0 
-1.653046323385e-05 1.054965702531e-03 0.0 
0.0 0.0 -1.604158976160e-04 
-1.568829102868e-04 1.686722308074e-05 0.0 
1.686722308074e-05 1.064364903998e-03 0.0 
0.0 0.0 -1.569671113975e-04 
-1.992656462665e-04 -3.194664877417e-06 0.0 
-3.194664877417e-06 1.366255928620e-03 0.0 
0.0 0.0 -1.979956382108e-04 
-1.950636109885e-04 -2.233519301319e-05 0.0 
-2.233519301319e-05 1.308516150632e-03 0.0 
0.0 0.0 -1.941292444173e-04 
-1.156817175628e-04 -1.648055008373e-05 0.0 
-1.648055008373e-05 7.482785284577e-04 0.0 
0.0 0.0 -1.183461849553e-04 
-1.927191275468e-04 -2.508365562693e-07 0.0 
-2.508365562693e-07 1.307929168688e-03 0.0 
0.0 0.0 -1.894775870554e-04 
-1.342251932282e-04 -2.319392894316e-05 0.0 
-2.319392894316e-05 8.854475909505e-04 0.0 
0.0 0.0 -1.356001284572e-04 
-7.729101182484e-05 -2.065735051107e-05 0.0 
-2.065735051107e-05 5.080668279858e-04 0.0 
0.0 0.0 -7.798198501994e-05 
-1.130620333788e-04 -2.717181399575e-05 0.0 
-2.717181399575e-05 7.549273825549e-04 0.0 
0.0 0.0 -1.146493908758e-04 
-1.950077973870e-04 2.900722902877e-05 0.0 
2.900722902877e-05 1.296464444951e-03 0.0 
0.0 0.0 -1.931276724533e-04 
-1.563208394466e-04 -3.328202351934e-05 0.0 
-3.328202351934e-05 1.049294579874e-03 0.0 
0.0 0.0 -1.565627933380e-04 
-1.819468009343e-04 -3.224668000663e-05 0.0 
-3.224668000663e-05 1.222740499621e-03 0.0 
0.0 0.0 -1.814398861444e-04 
-7.158014488702e-05 -3.063000169944e-05 0.0 
-3.063000169944e-05 4.571234338187e-04 0.0 
0.0 0.0 -7.121314524778e-05 
-2.401359942616e-05 8.661927370116e-06 0.0 
8.661927370116e-06 1.537990966386e-04 0.0 
0.0 0.0 -2.437345913330e-05 
-1.778980369956e-04 -2.992010737325e-05 0.0 
-2.992010737325e-05 1.196087071121e-03 0.0 
0.0 0.0 -1.784854310292e-04 
-1.679646052206e-04 1.093794452522e-05 0.0 
1.093794452522e-05 1.134281409959e-03 0.0 
0.0 0.0 -1.663185871606e-04 
-1.591223534516e-05 -6.661850777305e-06 0.0 
-6.661850777305e-06 9.101730959340e-05 0.0 
0.0 0.0 -1.557197371984e-05 
-1.881889712418e-04 -1.290050336167e-05 0.0 
-1.290050336167e-05 1.273792918307e-03 0.0 
0.0 0.0 -1.927691970005e-04 
-1.581915922847e-04 2.746019073347e-05 0.0 
2.746019073347e-05 1.044290574645e-03 0.0 
0.0 0.0 -1.577237574333e-04 
-1.522398741045e-05 -2.545037373997e-05 0.0 
-2.545037373997e-05 5.739303510054e-05 0.0 
0.0 0.0 -1.520280724627e-05 
-9.452563605332e-05 3.135471664961e-05 0.0 
3.135471664961e-05 6.036525676249e-04 0.0 
0.0 0.0 -9.464897897786e-05 
-1.065966120753e-04 -2.205603569538e-05 0.0 
-2.205603569538e-05 7.064327249630e-04 0.0 
0.0 0.0 -1.073087759210e-04 
-8.739882265024e-05 -1.070352948316e-05 0.0 
-1.070352948316e-05 5.348438843142e-04 0.0 
0.0 0.0 -8.658563305536e-05 
-7.050193455009e-05 2.512487401893e-05 0.0 
2.512487401893e-05 4.479548223167e-04 0.0 
0.0 0.0 -7.278598402964e-05 
-8.197347761458e-05 -3.364821245799e-05 0.0 
-3.364821245799e-05 5.279356728588e-04 0.0 
0.0 0.0 -8.207734578087e-05 
-1.943526740554e-04 1.658812663972e-05 0.0 
1.658812663972e-05 1.282091895606e-03 0.0 
0.0 0.0 -1.925749600208e-04 
-1.285507174143e-04 2.792411837159e-05 0.0 
2.792411837159e-05 8.722892326704e-04 0.0 
0.0 0.0 -1.315046391038e-04 
-7.635084208109e-05 3.539223257155e-05 0.0 
3.539223257155e-05 4.849768366675e-04 0.0 
0.0 0.0 -7.683710038160e-05 
-3.602345366775e-05 -3.490773875451e-05 0.0 
-3.490773875451e-05 2.028232612913e-04 0.0 
0.0 0.0 -3.442901837107e-05 
-1.143531422852e-04 1.924554056095e-05 0.0 
1.924554056095e-05 7.838716458168e-04 0.0 
0.0 0.0 -1.161738141813e-04 
-1.655806278350e-04 -1.376876940895e-05 0.0 
-1.376876940895e-05 1.108151184003e-03 0.0 
0.0 0.0 -1.693933130199e-04 
-7.665289294717e-05 -3.764080062832e-05 0.0 
-3.764080062832e-05 4.894086693533e-04 0.0 
0.0 0.0 -7.664586338968e-05 
-2.552121638192e-05 -2.302083249112e-05 0.0 
-2.302083249112e-05 1.475281213149e-04 0.0 
0.0 0.0 -2.705574766418e-05 
-9.705129782474e-05 -2.284636133005e-05 0.0 
-2.284636133005e-05 6.381494146743e-04 0.0 
0.0 0.0 -9.705601970096e-05 
-8.718862749644e-05 1.081562517566e-05 0.0 
1.081562517566e-05 5.609465076163e-04 0.0 
0.0 0.0 -8.368277571755e-05 
-9.188005610208e-05 2.337172912127e-05 0.0 
2.337172912127e-05 5.885957333175e-04 0.0 
0.0 0.0 -9.250784895245e-05 
-1.937480155634e-04 2.484993040014e-05 0.0 
2.484993040014e-05 1.298240083639e-03 0.0 
0.0 0.0 -1.936007957173e-04 
-3.355945300028e-05 2.658456895858e-05 0.0 
2.658456895858e-05 1.727565400742e-04 0.0 
0.0 0.0 -3.138407094312e-05 
-1.371246585787e-04 2.526301025991e-05 0.0 
2.526301025991e-05 9.050145966039e-04 0.0 
0.0 0.0 -1.382526569903e-04 
-1.907913629677e-04 3.443386103192e-05 0.0 
3.443386103192e-05 1.270684136511e-03 0.0 
0.0 0.0 -1.885035411211e-04 
-9.913884905617e-05 2.644976598076e-05 0.0 
2.644976598076e-05 6.359580153606e-04 0.0 
0.0 0.0 -9.883099357817e-05 
-9.221379330775e-05 -2.325684599943e-05 0.0 
-2.325684599943e-05 6.043674081660e-04 0.0 
0.0 0.0 -9.208844699642e-05 
-1.862615746056e-04 3.781096829900e-05 0.0 
3.781096829900e-05 1.269973218665e-03 0.0 
0.0 0.0 -1.882446207449e-04 
-1.884096905909e-04 -3.934674872020e-05 0.0 
-3.934674872020e-05 1.273205454370e-03 0.0 
0.0 0.0 -1.891606461478e-04 
-1.485481393432e-04 2.662002390059e-05 0.0 
2.662002390059e-05 9.835102888330e-04 0.0 
0.0 0.0 -1.481056985806e-04 
-1.041353074706e-04 -2.625300288913e-05 0.0 
-2.625300288913e-05 6.829723859406e-04 0.0 
0.0 0.0 -1.037420806291e-04 
-1.908037455824e-04 1.095423421666e-05 0.0 
1.095423421666e-05 1.307953283663e-03 0.0 
0.0 0.0 -1.905495916442e-04 
-9.518883604242e-05 2.687623025881e-05 0.0 
2.687623025881e-05 6.089232024020e-04 0.0 
0.0 0.0 -9.489072104906e-05 
-1.881130056819e-04 -1.198635265848e-06 0.0 
-1.198635265848e-06 1.269458159220e-03 0.0 
0.0 0.0 -1.924761743472e-04 
-1.914420449492e-04 1.145005922615e-05 0.0 
1.145005922615e-05 1.305589104302e-03 0.0 
0.0 0.0 -1.901156060054e-04 
-1.284773038693e-04 -4.042952323759e-05 0.0 
-4.042952323759e-05 8.353342118354e-04 0.0 
0.0 0.0 -1.281556075638e-04 
-1.456984047061e-04 2.919513868125e-05 0.0 
2.919513868125e-05 9.798728505287e-04 0.0 
0.0 0.0 -1.472674707441e-04 
-9.472925069399e-05 -2.740497223510e-05 0.0 
-2.740497223510e-05 6.169641832868e-04 0.0 
0.0 0.0 -9.439783777044e-05 
-8.853676466141e-05 2.434547469191e-05 0.0 
2.434547469191e-05 5.534202716498e-04 0.0 
0.0 0.0 -8.745362067080e-05 
-1.087467394465e-04 2.713932785840e-05 0.0 
2.713932785840e-05 7.009636801692e-04 0.0 
0.0 0.0 -1.081789848988e-04 
-8.105832168209e-05 -2.534314576398e-05 0.0 
-2.534314576398e-05 5.269671489274e-04 0.0 
0.0 0.0 -8.074562716359e-05 
-1.149166540237e-04 -2.952745104752e-05 0.0 
-2.952745104752e-05 7.749980976508e-04 0.0 
0.0 0.0 -1.154098978710e-04 
-9.441274236993e-05 -3.245636207382e-05 0.0 
-3.245636207382e-05 6.148929569629e-04 0.0 
0.0 0.0 -9.412559131899e-05 
-1.356916071786e-05 -1.098912209053e-05 0.0 
-1.098912209053e-05 4.639558825144e-05 0.0 
0.0 0.0 -1.406846894296e-05 
-1.232833288672e-04 -2.043397575373e-06 0.0 
-2.043397575373e-06 8.352777480186e-04 0.0 
0.0 0.0 -1.225661908866e-04 
-4.062993237950e-05 4.703139556520e-07 0.0 
4.703139556520e-07 1.797601039323e-04 0.0 
0.0 0.0 -3.559753881786e-05 
-1.023820434635e-04 -2.308417346528e-05 0.0 
-2.308417346528e-05 6.740366547045e-04 0.0 
0.0 0.0 -1.021452596768e-04 
-1.900125356384e-04 6.300222620784e-07 0.0 
6.300222620784e-07 1.270960970669e-03 0.0 
0.0 0.0 -1.927194217641e-04 
-7.262888074723e-05 3.426557852476e-05 0.0 
3.426557852476e-05 4.504323440592e-04 0.0 
0.0 0.0 -7.151989320621e-05 
-1.531305076902e-04 3.065990782185e-05 0.0 
3.065990782185e-05 1.022734797488e-03 0.0 
0.0 0.0 -1.531634582904e-04 
-5.235610672335e-05 -3.331315410991e-05 0.0 
-3.331315410991e-05 3.222309724492e-04 0.0 
0.0 0.0 -5.311113487535e-05 
-1.564923507781e-04 3.552239921985e-05 0.0 
3.552239921985e-05 1.043761629599e-03 0.0 
0.0 0.0 -1.567358392781e-04 
-1.202044561882e-04 9.584736121846e-07 0.0 
9.584736121846e-07 7.504029993438e-04 0.0 
0.0 0.0 -1.184948324117e-04 
-8.921525541755e-05 3.121884924230e-05 0.0 
3.121884924230e-05 5.680733164514e-04 0.0 
0.0 0.0 -8.897195087526e-05 
-1.682691344288e-04 -3.239527776225e-05 0.0 
-3.239527776225e-05 1.126335943431e-03 0.0 
0.0 0.0 -1.681445358649e-04 
-3.271371250102e-05 2.634768306306e-05 0.0 
2.634768306306e-05 1.862670599746e-04 0.0 
0.0 0.0 -3.519564525945e-05 
-1.767977369675e-04 3.301165039377e-05 0.0 
3.301165039377e-05 1.194421621902e-03 0.0 
0.0 0.0 -1.783666864750e-04 
-1.165583599501e-04 2.698564820255e-05 0.0 
2.698564820255e-05 7.555372528015e-04 0.0 
0.0 0.0 -1.156683593961e-04 
-1.920096128522e-04 1.937461849935e-06 0.0 
1.937461849935e-06 1.307268561636e-03 0.0 
0.0 0.0 -1.898980813789e-04 
-1.182997139398e-04 3.639957619216e-06 0.0 
3.639957619216e-06 7.503854203479e-04 0.0 
0.0 0.0 -1.176390761550e-04 
-7.627591541802e-05 2.437079023937e-05 0.0 
2.437079023937e-05 4.698282448248e-04 0.0 
0.0 0.0 -7.564233511891e-05 
-1.002018332227e-04 2.315121058164e-05 0.0 
2.315121058164e-05 6.584644118649e-04 0.0 
0.0 0.0 -1.026119933064e-04 
-1.351190133783e-04 -1.871259961356e-05 0.0 
-1.871259961356e-05 8.920173210254e-04 0.0 
0.0 0.0 -1.308423732783e-04 
-5.484982403945e-05 3.705256781827e-05 0.0 
3.705256781827e-05 3.376111435306e-04 0.0 
0.0 0.0 -5.271897186252e-05 
-8.886891279122e-05 -3.169931078017e-05 0.0 
-3.169931078017e-05 5.765392386080e-04 0.0 
0.0 0.0 -8.867183110647e-05 
-1.531566637255e-04 -3.479285376154e-05 0.0 
-3.479285376154e-05 1.020094408152e-03 0.0 
0.0 0.0 -1.524697723262e-04 
-1.174942329115e-04 2.313759384433e-05 0.0 
2.313759384433e-05 7.831828593042e-04 0.0 
0.0 0.0 -1.152003355451e-04 
-8.515004989233e-05 2.567844413580e-05 0.0 
2.567844413580e-05 5.346133759294e-04 0.0 
0.0 0.0 -8.499340168425e-05 
-9.805234325585e-05 2.186136341024e-05 0.0 
2.186136341024e-05 6.234712022513e-04 0.0 
0.0 0.0 -9.747820142233e-05 
-1.698406473465e-04 3.103883884451e-05 0.0 
3.103883884451e-05 1.138199375279e-03 0.0 
0.0 0.0 -1.705088282513e-04 
-9.365555901584e-05 -8.486079120948e-06 0.0 
-8.486079120948e-06 6.269873305719e-04 0.0 
0.0 0.0 -9.283786084866e-05 
-1.904373484596e-04 8.037764301143e-06 0.0 
8.037764301143e-06 1.268105410096e-03 0.0 
0.0 0.0 -1.927803298305e-04 
-1.910376123415e-04 -5.171508508334e-06 0.0 
-5.171508508334e-06 1.305994090806e-03 0.0 
0.0 0.0 -1.898229354431e-04 
-6.861783798480e-05 -2.050379203895e-05 0.0 
-2.050379203895e-05 4.453059741638e-04 0.0 
0.0 0.0 -6.893569546425e-05 
-9.290116882094e-05 1.078568075346e-05 0.0 
1.078568075346e-05 5.964552685483e-04 0.0 
0.0 0.0 -9.578111177017e-05 
-1.736492418864e-04 -2.927710979079e-05 0.0 
-2.927710979079e-05 1.161594644870e-03 0.0 
0.0 0.0 -1.729233712160e-04 
-9.087963058823e-05 -2.352933739376e-05 0.0 
-2.352933739376e-05 5.915224073559e-04 0.0 
0.0 0.0 -9.055885391067e-05 
-6.615167518160e-05 2.470417535513e-05 0.0 
2.470417535513e-05 3.792937580834e-04 0.0 
0.0 0.0 -6.377619522508e-05 
-1.123815242548e-04 2.659716101140e-05 0.0 
2.659716101140e-05 7.274681183303e-04 0.0 
0.0 0.0 -1.116514617188e-04 
-9.023769363097e-05 -2.539356064248e-05 0.0 
-2.539356064248e-05 5.927749569100e-04 0.0 
0.0 0.0 -9.016780033359e-05 
-1.933145694824e-04 1.847750118737e-05 0.0 
1.847750118737e-05 1.271781840963e-03 0.0 
0.0 0.0 -1.918589861752e-04 
-1.590817006198e-04 2.907513750142e-05 0.0 
2.907513750142e-05 1.054056791896e-03 0.0 
0.0 0.0 -1.591037845145e-04 
-1.728367159342e-04 3.427642614804e-05 0.0 
3.427642614804e-05 1.161809866144e-03 0.0 
0.0 0.0 -1.733952315365e-04 
-4.323292157822e-05 -3.260265136202e-05 0.0 
-3.260265136202e-05 2.542139140644e-04 0.0 
0.0 0.0 -4.278232070249e-05 
-8.351564551766e-05 -2.949984641989e-05 0.0 
-2.949984641989e-05 5.399072445252e-04 0.0 
0.0 0.0 -8.337503372822e-05 
-1.628911585660e-04 2.910920340207e-05 0.0 
2.910920340207e-05 1.083707985150e-03 0.0 
0.0 0.0 -1.634180649126e-04 
-4.265741739718e-06 -2.683347671446e-06 0.0 
-2.683347671446e-06 2.779779537552e-05 0.0 
0.0 0.0 -6.679583525061e-06 
-9.202938689146e-05 2.333037747325e-05 0.0 
2.333037747325e-05 5.833864669440e-04 0.0 
0.0 0.0 -9.110806911972e-05 
-1.621301817421e-04 -3.474681827654e-05 0.0 
-3.474681827654e-05 1.087399984763e-03 0.0 
0.0 0.0 -1.621013318865e-04 
-2.647246740284e-05 -1.232636837565e-05 0.0 
-1.232636837565e-05 1.529325955368e-04 0.0 
0.0 0.0 -2.408412600064e-05 
-1.857893834714e-04 3.531775714936e-05 0.0 
3.531775714936e-05 1.270668189248e-03 0.0 
0.0 0.0 -1.886276279175e-04 
-1.456981155765e-04 2.919485646583e-05 0.0 
2.919485646583e-05 9.663206150300e-04 0.0 
0.0 0.0 -1.462443664659e-04 
-8.972960447932e-05 2.818607173368e-05 0.0 
2.818607173368e-05 5.719993527864e-04 0.0 
0.0 0.0 -8.992835211633e-05 
-1.626522217749e-04 3.588322308841e-05 0.0 
3.588322308841e-05 1.081933053943e-03 0.0 
0.0 0.0 -1.623203359564e-04 
-1.232850647809e-04 -1.534283618420e-06 0.0 
-1.534283618420e-06 8.439287432935e-04 0.0 
0.0 0.0 -1.238984763055e-04 
-1.290139728958e-04 -2.422323726664e-05 0.0 
-2.422323726664e-05 8.899156396031e-04 0.0 
0.0 0.0 -1.325791391267e-04 
-1.852665524105e-04 -2.134628668879e-05 0.0 
-2.134628668879e-05 1.242411010167e-03 0.0 
0.0 0.0 -1.856686537505e-04 
-6.834313658287e-05 3.054631191321e-05 0.0 
3.054631191321e-05 4.235028941011e-04 0.0 
0.0 0.0 -6.875374652758e-05 
-1.126229297884e-04 2.780829538386e-05 0.0 
2.780829538386e-05 7.291444854309e-04 0.0 
0.0 0.0 -1.122060228641e-04 
-1.204186006984e-04 2.647313116222e-05 0.0 
2.647313116222e-05 7.832880835705e-04 0.0 
0.0 0.0 -1.198259951250e-04 
-1.511295492835e-04 -2.883504033183e-05 0.0 
-2.883504033183e-05 1.013855965193e-03 0.0 
0.0 0.0 -1.512823234748e-04 
-1.216859479991e-04 -2.731241821125e-05 0.0 
-2.731241821125e-05 8.002184542220e-04 0.0 
0.0 0.0 -1.205399881000e-04 
-1.113723575775e-04 -2.417926787298e-05 0.0 
-2.417926787298e-05 7.331871425551e-04 0.0 
0.0 0.0 -1.112326624099e-04 
-1.413007434337e-04 -2.970279854823e-05 0.0 
-2.970279854823e-05 9.413829080689e-04 0.0 
0.0 0.0 -1.412146911137e-04 
-1.660148486685e-04 -3.109368411777e-05 0.0 
-3.109368411777e-05 1.112677337996e-03 0.0 
0.0 0.0 -1.657666289772e-04 
-1.315732548335e-05 -7.692520452242e-07 0.0 
-7.692520452242e-07 8.434115995763e-05 0.0 
0.0 0.0 -1.523807105164e-05 
-6.678617265699e-05 1.617781589415e-05 0.0 
1.617781589415e-05 4.361919367653e-04 0.0 
0.0 0.0 -6.974636312929e-05 
-7.951724172922e-05 2.782935041198e-05 0.0 
2.782935041198e-05 4.935008951510e-04 0.0 
0.0 0.0 -7.874092309440e-05 
-1.082260438161e-04 -2.691428867534e-05 0.0 
-2.691428867534e-05 7.109857938248e-04 0.0 
0.0 0.0 -1.077256579858e-04 
-1.642964652876e-04 -3.148986033885e-05 0.0 
-3.148986033885e-05 1.105967087523e-03 0.0 
0.0 0.0 -1.642614415327e-04 
-3.618362754970e-05 2.736407007723e-05 0.0 
2.736407007723e-05 2.086903937200e-04 0.0 
0.0 0.0 -3.864713111506e-05 
-1.564000420693e-04 -3.317492622528e-05 0.0 
-3.317492622528e-05 1.048657376479e-03 0.0 
0.0 0.0 -1.565033163265e-04 
-1.156497145505e-04 -3.516789011310e-05 0.0 
-3.516789011310e-05 7.502047125979e-04 0.0 
0.0 0.0 -1.164502435431e-04 
-8.397727272477e-05 2.946324581154e-05 0.0 
2.946324581154e-05 5.318825966419e-04 0.0 
0.0 0.0 -8.365175887955e-05 
-1.508856871714e-04 -3.154693635550e-05 0.0 
-3.154693635550e-05 1.010987541511e-03 0.0 
0.0 0.0 -1.509358467712e-04 
-1.992206068345e-05 -2.889614730951e-05 0.0 
-2.889614730951e-05 8.287217049266e-05 0.0 
0.0 0.0 -1.875953185269e-05 
-1.556622730397e-04 3.038739624462e-05 0.0 
3.038739624462e-05 1.034138176467e-03 0.0 
0.0 0.0 -1.560016362795e-04 
-1.437982534633e-05 1.029442077582e-05 0.0 
1.029442077582e-05 7.970629733058e-05 0.0 
0.0 0.0 -1.510781838351e-05 
-2.570586355009e-05 -7.991098502523e-07 0.0 
-7.991098502523e-07 1.127575880689e-04 0.0 
0.0 0.0 -2.729127776400e-05 
-4.194184282385e-05 3.474848126707e-05 0.0 
3.474848126707e-05 2.513992056333e-04 0.0 
0.0 0.0 -4.310499224862e-05 
-5.889908142508e-05 2.600142430583e-05 0.0 
2.600142430583e-05 3.528829077978e-04 0.0 
0.0 0.0 -5.903933595174e-05 
-1.610257286591e-04 -2.786541686928e-05 0.0 
-2.786541686928e-05 1.081190214243e-03 0.0 
0.0 0.0 -1.610696234640e-04 
-5.476704679841e-05 -2.893258819142e-05 0.0 
-2.893258819142e-05 3.440414388131e-04 0.0 
0.0 0.0 -5.456393079061e-05 
-5.163315478531e-05 2.647496963403e-05 0.0 
2.647496963403e-05 3.049271572106e-04 0.0 
0.0 0.0 -5.149248157812e-05 
-4.366093994894e-05 -2.713962390303e-05 0.0 
-2.713962390303e-05 2.644614859736e-04 0.0 
0.0 0.0 -4.384065419509e-05 
-3.933534437072e-05 2.838910031743e-05 0.0 
2.838910031743e-05 2.172478170370e-04 0.0 
0.0 0.0 -3.921473890832e-05 
-1.680595828810e-04 2.995288676004e-05 0.0 
2.995288676004e-05 1.117099767863e-03 0.0 
0.0 0.0 -1.676286260939e-04 
-1.157691997288e-04 -2.821559363196e-05 0.0 
-2.821559363196e-05 7.614917365493e-04 0.0 
0.0 0.0 -1.153195849472e-04 
-1.884304056946e-04 3.717790371758e-05 0.0 
3.717790371758e-05 1.273139237753e-03 0.0 
0.0 0.0 -1.885115422441e-04 
0.0 0.0 0.0 
0.0 0.0 0.0 
0.0 0.0 0.0 
-6.073075435371e-05 2.779578447063e-05 0.0 
2.779578447063e-05 3.692130858621e-04 0.0 
0.0 0.0 -6.066067809259e-05 
-9.359168136837e-05 3.069541767913e-05 0.0 
3.069541767913e-05 5.989493619825e-04 0.0 
0.0 0.0 -9.346360670616e-05 
-8.611303417377e-05 2.775473971904e-05 0.0 
2.775473971904e-05 5.420210967722e-04 0.0 
0.0 0.0 -8.564096664159e-05 
-1.570602199792e-04 3.345705989991e-05 0.0 
3.345705989991e-05 1.042425010846e-03 0.0 
0.0 0.0 -1.567852636697e-04 
-1.928100163882e-04 2.936217438128e-05 0.0 
2.936217438128e-05 1.304792838197e-03 0.0 
0.0 0.0 -1.913896484052e-04 
-1.544569729700e-04 -3.084214855682e-05 0.0 
-3.084214855682e-05 1.037077783695e-03 0.0 
0.0 0.0 -1.544248659763e-04 
-6.869349223690e-05 -2.826326061375e-05 0.0 
-2.826326061375e-05 4.368318291179e-04 0.0 
0.0 0.0 -6.847262230322e-05 
-1.681247358756e-04 -2.868522419727e-05 0.0 
-2.868522419727e-05 1.120151786447e-03 0.0 
0.0 0.0 -1.674250338637e-04 
-1.435900585209e-04 3.856895931237e-05 0.0 
3.856895931237e-05 9.474561629382e-04 0.0 
0.0 0.0 -1.426866023873e-04 
-1.135532837026e-04 -2.681444128085e-05 0.0 
-2.681444128085e-05 7.480946909015e-04 0.0 
0.0 0.0 -1.130562566545e-04 
-1.499249798733e-04 3.067572505939e-05 0.0 
3.067572505939e-05 9.944265321611e-04 0.0 
0.0 0.0 -1.504800801517e-04 
-1.863757598195e-04 -2.386849214221e-05 0.0 
-2.386849214221e-05 1.244147855382e-03 0.0 
0.0 0.0 -1.859596318053e-04 
-9.333492539951e-05 -3.087526947971e-05 0.0 
-3.087526947971e-05 6.086612624671e-04 0.0 
0.0 0.0 -9.309312152870e-05 
-5.642363476155e-05 -2.566826805163e-05 0.0 
-2.566826805163e-05 3.519070743608e-04 0.0 
0.0 0.0 -5.629031366394e-05 
-1.307741012141e-04 -2.854605187792e-05 0.0 
-2.854605187792e-05 8.651184174892e-04 0.0 
0.0 0.0 -1.299393276493e-04 
-1.994711361555e-04 1.488956192184e-05 0.0 
1.488956192184e-05 1.364194760264e-03 0.0 
0.0 0.0 -1.985353088532e-04 
-1.121064498204e-04 -2.817436375982e-05 0.0 
-2.817436375982e-05 7.383690860162e-04 0.0 
0.0 0.0 -1.117990549081e-04 
-1.167106519063e-04 -2.872381374577e-05 0.0 
-2.872381374577e-05 7.713662195201e-04 0.0 
0.0 0.0 -1.165266455158e-04 
-1.260578035270e-04 -7.836042946560e-06 0.0 
-7.836042946560e-06 8.498512038137e-04 0.0 
0.0 0.0 -1.244042047770e-04 
-3.179935585513e-05 -1.763042363236e-05 0.0 
-1.763042363236e-05 1.961286519246e-04 0.0 
0.0 0.0 -3.241712222852e-05 
-1.231319864475e-04 2.764700743790e-05 0.0 
2.764700743790e-05 7.907293750341e-04 0.0 
0.0 0.0 -1.209084558732e-04 
-6.905505917890e-05 2.816961621887e-05 0.0 
2.816961621887e-05 4.271679056782e-04 0.0 
0.0 0.0 -6.885887611378e-05 
-4.897721551762e-05 2.632054484457e-05 0.0 
2.632054484457e-05 2.838529677145e-04 0.0 
0.0 0.0 -4.844095568774e-05 
-3.558784672985e-05 -2.880146762892e-05 0.0 
-2.880146762892e-05 1.946353418351e-04 0.0 
0.0 0.0 -3.639896506568e-05 
-1.614850212427e-04 2.922041349465e-05 0.0 
2.922041349465e-05 1.072918812013e-03 0.0 
0.0 0.0 -1.613978969627e-04 
-1.255033903270e-04 -2.731668296794e-05 0.0 
-2.731668296794e-05 8.288788500150e-04 0.0 
0.0 0.0 -1.246873609535e-04 
-8.112707161296e-05 2.681454897224e-05 0.0 
2.681454897224e-05 5.130150958306e-04 0.0 
0.0 0.0 -8.144240747594e-05 
-1.665837591113e-04 -2.880422836215e-05 0.0 
-2.880422836215e-05 1.119259672453e-03 0.0 
0.0 0.0 -1.664644697516e-04 
-1.582047777180e-04 -3.130538043856e-05 0.0 
-3.130538043856e-05 1.066325272985e-03 0.0 
0.0 0.0 -1.586660261033e-04 
-1.188629648026e-04 -2.678969091403e-05 0.0 
-2.678969091403e-05 7.847225641269e-04 0.0 
0.0 0.0 -1.183057550348e-04 
-1.886854844882e-04 1.135105285806e-05 0.0 
1.135105285806e-05 1.274732412044e-03 0.0 
0.0 0.0 -1.932618152055e-04 
-1.213677155165e-04 2.897964547722e-05 0.0 
2.897964547722e-05 7.927140784185e-04 0.0 
0.0 0.0 -1.211843839911e-04 
-1.239491645660e-04 -2.748126235811e-05 0.0 
-2.748126235811e-05 8.207516205795e-04 0.0 
0.0 0.0 -1.235739794681e-04 
-9.975160353529e-05 -2.686515225488e-05 0.0 
-2.686515225488e-05 6.567392202688e-04 0.0 
0.0 0.0 -9.984714661518e-05 
-1.263578697939e-04 -2.980227527077e-05 0.0 
-2.980227527077e-05 8.380978382458e-04 0.0 
0.0 0.0 -1.261954767068e-04 
-5.849212426998e-05 2.872957228896e-05 0.0 
2.872957228896e-05 3.506208493125e-04 0.0 
0.0 0.0 -5.798711518065e-05 
-1.213481477356e-04 6.735435036876e-06 0.0 
6.735435036876e-06 7.521902963625e-04 0.0 
0.0 0.0 -1.184708735178e-04 
-9.753040931020e-05 -2.877750014671e-05 0.0 
-2.877750014671e-05 6.382612359797e-04 0.0 
0.0 0.0 -9.729539411790e-05 
-7.014498760133e-05 -2.861953507146e-05 0.0 
-2.861953507146e-05 4.491200428710e-04 0.0 
0.0 0.0 -7.021579980210e-05 
-1.548439846447e-04 2.920495201174e-05 0.0 
2.920495201174e-05 1.025468902843e-03 0.0 
0.0 0.0 -1.548477372900e-04 
-7.400239448952e-06 -4.471996282504e-06 0.0 
-4.471996282504e-06 3.348355740734e-05 0.0 
0.0 0.0 -6.737411723468e-06 
-1.269059540153e-04 -2.992426859267e-05 0.0 
-2.992426859267e-05 8.357764802867e-04 0.0 
0.0 0.0 -1.257958619361e-04 
-7.326865481566e-05 2.857374826703e-05 0.0 
2.857374826703e-05 4.565907868803e-04 0.0 
0.0 0.0 -7.305360031667e-05 
-6.016605764575e-05 -2.684908062252e-05 0.0 
-2.684908062252e-05 3.790547108985e-04 0.0 
0.0 0.0 -6.022881660267e-05 
-5.821846839884e-05 -2.774592413861e-05 0.0 
-2.774592413861e-05 3.619705275702e-04 0.0 
0.0 0.0 -5.751879909679e-05 
-1.351640918224e-04 2.730946876611e-05 0.0 
2.730946876611e-05 8.850173502736e-04 0.0 
0.0 0.0 -1.344766581215e-04 
-2.303458757806e-05 -1.756706348761e-05 0.0 
-1.756706348761e-05 1.393624808345e-04 0.0 
0.0 0.0 -2.414890389727e-05 
-8.463000670150e-05 2.743515429835e-05 0.0 
2.743515429835e-05 5.331920973471e-04 0.0 
0.0 0.0 -8.420255649138e-05 
-1.310820143303e-04 2.863495648326e-05 0.0 
2.863495648326e-05 8.604743158959e-04 0.0 
0.0 0.0 -1.309020407989e-04 
-1.263625231525e-04 2.714069752448e-05 0.0 
2.714069752448e-05 8.190547291893e-04 0.0 
0.0 0.0 -1.250525794797e-04 
-1.272471088817e-04 -3.855000510512e-06 0.0 
-3.855000510512e-06 8.469629814487e-04 0.0 
0.0 0.0 -1.245153595172e-04 
-3.451533027297e-05 2.844805665229e-05 0.0 
2.844805665229e-05 1.808943530398e-04 0.0 
0.0 0.0 -3.280631478328e-05 
-7.063190463533e-05 2.939202413112e-05 0.0 
2.939202413112e-05 4.392145115516e-04 0.0 
0.0 0.0 -7.060413318996e-05 
-6.508843028441e-05 -3.043099012630e-05 0.0 
-3.043099012630e-05 4.105469834446e-04 0.0 
0.0 0.0 -6.467058191239e-05 
-7.469256331376e-05 -2.527987226695e-05 0.0 
-2.527987226695e-05 4.809368026629e-04 0.0 
0.0 0.0 -7.435558976913e-05 
-1.502309888333e-04 -3.186153307622e-05 0.0 
-3.186153307622e-05 1.005619770116e-03 0.0 
0.0 0.0 -1.500995507885e-04 
-8.411103689448e-05 -2.561923504937e-05 0.0 
-2.561923504937e-05 5.446630925718e-04 0.0 
0.0 0.0 -8.366679311450e-05 
-9.244608085661e-05 2.841629283501e-05 0.0 
2.841629283501e-05 5.900259211260e-04 0.0 
0.0 0.0 -9.227309926833e-05 
-8.825859911860e-05 2.898361773724e-05 0.0 
2.898361773724e-05 5.610179827723e-04 0.0 
0.0 0.0 -8.802462077767e-05 
-4.037281909572e-05 -3.055033143304e-05 0.0 
-3.055033143304e-05 2.285588841850e-04 0.0 
0.0 0.0 -3.795074749666e-05 
-1.043807176337e-04 2.969702721876e-05 0.0 
2.969702721876e-05 6.736275783202e-04 0.0 
0.0 0.0 -1.043907376787e-04 
-4.291565100880e-05 -2.841622711530e-05 0.0 
-2.841622711530e-05 2.495146198089e-04 0.0 
0.0 0.0 -4.182373257491e-05 
-1.960133420005e-04 -3.915898958091e-07 0.0 
-3.915898958091e-07 1.365024672998e-03 0.0 
0.0 0.0 -1.982169479593e-04 
-2.008761767446e-04 -4.440775900706e-06 0.0 
-4.440775900706e-06 1.363686351067e-03 0.0 
0.0 0.0 -1.977044065024e-04 
-1.166270540496e-04 2.805525215369e-05 0.0 
2.805525215369e-05 7.581594275037e-04 0.0 
0.0 0.0 -1.163296810217e-04 
-6.377729921261e-05 2.843186062466e-05 0.0 
2.843186062466e-05 3.894200307401e-04 0.0 
0.0 0.0 -6.349477618752e-05 
-5.472494021236e-05 -2.756038478394e-05 0.0 
-2.756038478394e-05 3.420299138774e-04 0.0 
0.0 0.0 -5.489564032307e-05 
-1.286062633098e-04 2.787342346443e-05 0.0 
2.787342346443e-05 8.404326398301e-04 0.0 
0.0 0.0 -1.280878756227e-04 
-5.924292318693e-05 -2.830092874267e-05 0.0 
-2.830092874267e-05 3.712937095837e-04 0.0 
0.0 0.0 -5.895795660960e-05 
-6.498740843255e-05 2.970448360848e-05 0.0 
2.970448360848e-05 3.998906408149e-04 0.0 
0.0 0.0 -6.509812613533e-05 
-1.139448242020e-04 2.662931945144e-05 0.0 
2.662931945144e-05 7.377302601230e-04 0.0 
0.0 0.0 -1.134571731864e-04 
-1.931977199045e-04 -5.790102799525e-06 0.0 
-5.790102799525e-06 1.309642249160e-03 0.0 
0.0 0.0 -1.899960389348e-04 
-7.860743769092e-05 2.917445532478e-05 0.0 
2.917445532478e-05 4.940483609679e-04 0.0 
0.0 0.0 -7.839370437043e-05 
-1.417199735287e-04 2.941394498762e-05 0.0 
2.941394498762e-05 9.349322217144e-04 0.0 
0.0 0.0 -1.414217305113e-04 
-4.661344112576e-05 2.736880969088e-05 0.0 
2.736880969088e-05 2.670838018736e-04 0.0 
0.0 0.0 -4.614936513201e-05 
-1.967992094278e-04 1.123981941095e-06 0.0 
1.123981941095e-06 1.365295639638e-03 0.0 
0.0 0.0 -1.984294758987e-04 
-5.951651457585e-05 2.802626650619e-05 0.0 
2.802626650619e-05 3.606106616578e-04 0.0 
0.0 0.0 -5.939605362352e-05 
-1.179287062834e-04 2.787660048455e-05 0.0 
2.787660048455e-05 7.663966719587e-04 0.0 
0.0 0.0 -1.175278261142e-04 
-4.409418717161e-05 3.104234347111e-05 0.0 
3.104234347111e-05 2.441849578649e-04 0.0 
0.0 0.0 -4.282931220362e-05 
-1.381450842626e-04 2.836088824292e-05 0.0 
2.836088824292e-05 9.092073412549e-04 0.0 
0.0 0.0 -1.381743871232e-04 
-9.791138306631e-05 2.879750584179e-05 0.0 
2.879750584179e-05 6.273190453691e-04 0.0 
0.0 0.0 -9.774928945211e-05 
-6.965606683394e-05 2.867246728631e-05 0.0 
2.867246728631e-05 4.309923865951e-04 0.0 
0.0 0.0 -6.938051102899e-05 
-1.200769966056e-04 -2.774059059615e-05 0.0 
-2.774059059615e-05 7.919085176899e-04 0.0 
0.0 0.0 -1.194585575575e-04 
-1.988427120039e-04 -2.959789654558e-06 0.0 
-2.959789654558e-06 1.363764641001e-03 0.0 
0.0 0.0 -1.987298001823e-04 
-8.291571741031e-05 2.832079044508e-05 0.0 
2.832079044508e-05 5.233038309385e-04 0.0 
0.0 0.0 -8.265507580179e-05 
-1.306758629051e-04 -2.955788166782e-05 0.0 
-2.955788166782e-05 8.695191991227e-04 0.0 
0.0 0.0 -1.305485175686e-04 
-4.578173906005e-05 -2.535078056645e-05 0.0 
-2.535078056645e-05 2.780519891852e-04 0.0 
0.0 0.0 -4.562300070248e-05 
-1.437792750518e-04 3.149363009429e-05 0.0 
3.149363009429e-05 9.490378851935e-04 0.0 
0.0 0.0 -1.436534165706e-04 
-1.511792253345e-04 3.107336096836e-05 0.0 
3.107336096836e-05 1.002609936336e-03 0.0 
0.0 0.0 -1.512517770320e-04 
-6.196699647241e-05 -2.679098173262e-05 0.0 
-2.679098173262e-05 3.903858421673e-04 0.0 
0.0 0.0 -6.164273853391e-05 
-1.399199792627e-04 -2.811467117751e-05 0.0 
-2.811467117751e-05 9.272505815491e-04 0.0 
0.0 0.0 -1.388569334018e-04 
-1.985355386787e-04 1.984726108435e-06 0.0 
1.984726108435e-06 1.364959960964e-03 0.0 
0.0 0.0 -1.983871205594e-04 
-1.614928444495e-04 2.847027297627e-05 0.0 
2.847027297627e-05 1.071649121551e-03 0.0 
0.0 0.0 -1.613792517474e-04 
-1.982422487002e-04 -2.569909507912e-06 0.0 
-2.569909507912e-06 1.365758727609e-03 0.0 
0.0 0.0 -1.983136761333e-04 
-1.361916076227e-04 -3.146771190181e-05 0.0 
-3.146771190181e-05 9.179571631392e-04 0.0 
0.0 0.0 -1.379474753881e-04 
-1.576486168105e-04 -2.829471551287e-05 0.0 
-2.829471551287e-05 1.056700414691e-03 0.0 
0.0 0.0 -1.572395483614e-04 
-5.266868770523e-05 -2.930837486761e-05 0.0 
-2.930837486761e-05 3.216672696281e-04 0.0 
0.0 0.0 -5.237865887416e-05 
-1.106230900853e-04 -2.705461405413e-05 0.0 
-2.705461405413e-05 7.266788580309e-04 0.0 
0.0 0.0 -1.101557085785e-04 
-1.243986606814e-04 2.756325965713e-05 0.0 
2.756325965713e-05 8.114376097232e-04 0.0 
0.0 0.0 -1.239588741081e-04 
-1.293044827764e-04 -2.800858501220e-05 0.0 
-2.800858501220e-05 8.573256290427e-04 0.0 
0.0 0.0 -1.288458533782e-04 
-1.066562308207e-04 -2.783120558929e-05 0.0 
-2.783120558929e-05 7.017640661734e-04 0.0 
0.0 0.0 -1.065261787303e-04 
-1.990029541207e-04 -1.757598364359e-06 0.0 
-1.757598364359e-06 1.366381337533e-03 0.0 
0.0 0.0 -1.983502480037e-04 
-1.298318789187e-04 2.158067938686e-05 0.0 
2.158067938686e-05 8.815706967553e-04 0.0 
0.0 0.0 -1.321612292015e-04 
-1.176326388033e-04 -2.595061727756e-05 0.0 
-2.595061727756e-05 7.723158987367e-04 0.0 
0.0 0.0 -1.164556264782e-04 
-8.783787209566e-05 -2.903458928538e-05 0.0 
-2.903458928538e-05 5.705379246605e-04 0.0 
0.0 0.0 -8.765849385151e-05 
-4.943082231834e-05 2.834348926926e-05 0.0 
2.834348926926e-05 2.859345548030e-04 0.0 
0.0 0.0 -4.921152720794e-05 
-1.062878110515e-04 -2.718085700709e-05 0.0 
-2.718085700709e-05 6.972114022315e-04 0.0 
0.0 0.0 -1.060368635384e-04 
-6.633274732441e-05 2.805962634071e-05 0.0 
2.805962634071e-05 4.063292376683e-04 0.0 
0.0 0.0 -6.607158303000e-05 
-1.158557996194e-04 -6.210093226299e-06 0.0 
-6.210093226299e-06 7.885063370646e-04 0.0 
0.0 0.0 -1.154421321462e-04 
-6.910380331659e-05 -2.778533839803e-05 0.0 
-2.778533839803e-05 4.414244386129e-04 0.0 
0.0 0.0 -6.893461416734e-05 
-7.822135333654e-05 -2.896553184294e-05 0.0 
-2.896553184294e-05 5.031498839476e-04 0.0 
0.0 0.0 -7.803987337015e-05 
-1.602384540181e-04 3.100072325668e-05 0.0 
3.100072325668e-05 1.064154990020e-03 0.0 
0.0 0.0 -1.603578675858e-04 
-6.566815985925e-05 -2.750449767600e-05 0.0 
-2.750449767600e-05 4.167092244980e-04 0.0 
0.0 0.0 -6.558851423748e-05 
-1.152845892592e-04 2.749147668780e-05 0.0 
2.749147668780e-05 7.465056274970e-04 0.0 
0.0 0.0 -1.146103474413e-04 
-1.353451354842e-04 2.819645546977e-05 0.0 
2.819645546977e-05 8.892812196543e-04 0.0 
0.0 0.0 -1.352137036071e-04 
-1.205044148237e-04 2.968350999990e-05 0.0 
2.968350999990e-05 7.873013113578e-04 0.0 
0.0 0.0 -1.205299346428e-04 
-1.958940259279e-04 -3.143838988161e-07 0.0 
-3.143838988161e-07 1.365374549896e-03 0.0 
0.0 0.0 -1.987143998872e-04 
-9.668730117964e-05 -2.517304160907e-05 0.0 
-2.517304160907e-05 6.291397970161e-04 0.0 
0.0 0.0 -9.585336115805e-05 
-6.653143432307e-05 2.946077866981e-05 0.0 
2.946077866981e-05 4.089865087981e-04 0.0 
0.0 0.0 -6.633958094145e-05 
-8.520951336944e-05 -2.684964973046e-05 0.0 
-2.684964973046e-05 5.564426473023e-04 0.0 
0.0 0.0 -8.536885536015e-05 
-6.423500688610e-05 -2.223670417576e-05 0.0 
-2.223670417576e-05 3.967373019254e-04 0.0 
0.0 0.0 -6.277058716750e-05 
-6.233409830209e-05 2.930783879135e-05 0.0 
2.930783879135e-05 3.806227503841e-04 0.0 
0.0 0.0 -6.211964112063e-05 
-1.686029388230e-04 -3.010997351014e-05 0.0 
-3.010997351014e-05 1.134847194407e-03 0.0 
0.0 0.0 -1.685829472084e-04 
-1.228035280568e-04 -2.801028863811e-05 0.0 
-2.801028863811e-05 8.126298515026e-04 0.0 
0.0 0.0 -1.224221955183e-04 
-8.576695021724e-05 -2.818444781109e-05 0.0 
-2.818444781109e-05 5.521166414815e-04 0.0 
0.0 0.0 -8.508581023982e-05 
-1.058888784043e-04 2.774100767274e-05 0.0 
2.774100767274e-05 6.820542708577e-04 0.0 
0.0 0.0 -1.053569120690e-04 
-1.984005188917e-04 3.469833888432e-06 0.0 
3.469833888432e-06 1.365869131785e-03 0.0 
0.0 0.0 -1.981012852499e-04 
-1.891870000816e-04 -2.170110567076e-05 0.0 
-2.170110567076e-05 1.288510292263e-03 0.0 
0.0 0.0 -1.887097005658e-04 
-1.683150849776e-04 2.979696904543e-05 0.0 
2.979696904543e-05 1.122642711197e-03 0.0 
0.0 0.0 -1.689885654173e-04 
-1.554302986174e-04 -2.927663835836e-05 0.0 
-2.927663835836e-05 1.044556448181e-03 0.0 
0.0 0.0 -1.556283301217e-04 
-1.157857925219e-04 -2.832751956135e-05 0.0 
-2.832751956135e-05 7.671670755825e-04 0.0 
0.0 0.0 -1.158214347813e-04 
-8.793389765940e-05 -2.692004426865e-05 0.0 
-2.692004426865e-05 5.710151647237e-04 0.0 
0.0 0.0 -8.764218308180e-05 
-6.353474277312e-05 -2.825822332319e-05 0.0 
-2.825822332319e-05 4.001707208949e-04 0.0 
0.0 0.0 -6.304749027677e-05 
-7.291093511829e-05 -2.827879267007e-05 0.0 
-2.827879267007e-05 4.665581668852e-04 0.0 
0.0 0.0 -7.265234708097e-05 
-1.174853072823e-04 -2.733567074543e-05 0.0 
-2.733567074543e-05 7.760237591612e-04 0.0 
0.0 0.0 -1.171309192368e-04 
-1.335212434515e-04 -2.914279474533e-05 0.0 
-2.914279474533e-05 8.905694576090e-04 0.0 
0.0 0.0 -1.335144612876e-04 
-1.018718395078e-04 -2.979006226054e-05 0.0 
-2.979006226054e-05 6.715941915170e-04 0.0 
0.0 0.0 -1.021513650962e-04 
-1.706976735812e-04 3.040145888498e-05 0.0 
3.040145888498e-05 1.134074140794e-03 0.0 
0.0 0.0 -1.701355210695e-04 
-6.585088392687e-05 -2.809564114852e-05 0.0 
-2.809564114852e-05 4.191270390209e-04 0.0 
0.0 0.0 -6.593483134188e-05 
-1.012822856145e-04 -2.790893614149e-05 0.0 
-2.790893614149e-05 6.647252503200e-04 0.0 
0.0 0.0 -1.012556795624e-04 
-1.190728906021e-04 2.726084077196e-05 0.0 
2.726084077196e-05 7.740175104497e-04 0.0 
0.0 0.0 -1.186992623097e-04 
-9.180435571147e-05 -2.942480991547e-05 0.0 
-2.942480991547e-05 5.980965186942e-04 0.0 
0.0 0.0 -9.183388734860e-05 
-1.951933135343e-04 -3.067913145712e-06 0.0 
-3.067913145712e-06 1.365527233008e-03 0.0 
0.0 0.0 -1.980132279339e-04 
-2.004839790609e-04 7.957002336377e-06 0.0 
7.957002336377e-06 1.363848061926e-03 0.0 
0.0 0.0 -1.977693979613e-04 
-1.862548850903e-04 -3.381380897180e-05 0.0 
-3.381380897180e-05 1.277935188165e-03 0.0 
0.0 0.0 -1.884741816281e-04 
-1.255545849599e-04 -2.913100698812e-05 0.0 
-2.913100698812e-05 8.346700099746e-04 0.0 
0.0 0.0 -1.256288396591e-04 
-1.668512740992e-04 2.892208901038e-05 0.0 
2.892208901038e-05 1.110735165857e-03 0.0 
0.0 0.0 -1.668097552869e-04 
-5.710219261571e-05 2.668419955422e-05 0.0 
2.668419955422e-05 3.418831237588e-04 0.0 
0.0 0.0 -5.678930531275e-05 
-8.241925476564e-05 -2.832624156936e-05 0.0 
-2.832624156936e-05 5.333885698677e-04 0.0 
0.0 0.0 -8.224527255367e-05 
-4.853944390359e-05 -2.604022421239e-05 0.0 
-2.604022421239e-05 2.959627034739e-04 0.0 
0.0 0.0 -4.789427177487e-05 
-8.945478626281e-05 -2.660897635143e-05 0.0 
-2.660897635143e-05 5.805998989638e-04 0.0 
0.0 0.0 -8.904339260345e-05 
-1.163162734636e-04 -2.681975846469e-06 0.0 
-2.681975846469e-06 7.498217446733e-04 0.0 
0.0 0.0 -1.187247005501e-04 
-1.378749770551e-04 3.210368012353e-05 0.0 
3.210368012353e-05 9.111791288023e-04 0.0 
0.0 0.0 -1.382175405433e-04 
-1.908460110853e-04 -3.275689360252e-07 0.0 
-3.275689360252e-07 1.305230985070e-03 0.0 
0.0 0.0 -1.898105380384e-04 
-1.673198694714e-04 3.217203314275e-05 0.0 
3.217203314275e-05 1.110802916425e-03 0.0 
0.0 0.0 -1.675837462092e-04 
-1.307963472837e-04 2.695120133125e-05 0.0 
2.695120133125e-05 8.556346688023e-04 0.0 
0.0 0.0 -1.303141423325e-04 
-1.340100066794e-04 2.763944078925e-05 0.0 
2.763944078925e-05 8.772925572874e-04 0.0 
0.0 0.0 -1.333792161710e-04 
-5.307775534031e-05 2.953233977858e-05 0.0 
2.953233977858e-05 3.124408790926e-04 0.0 
0.0 0.0 -5.245278118421e-05 
-2.595268965567e-05 5.699272949294e-06 0.0 
5.699272949294e-06 1.472249447242e-04 0.0 
0.0 0.0 -2.415366321274e-05 
-9.908936880668e-05 3.012137168314e-05 0.0 
3.012137168314e-05 6.362497375305e-04 0.0 
0.0 0.0 -9.891160473977e-05 
-1.107375038864e-04 -2.791592154402e-05 0.0 
-2.791592154402e-05 7.305458695935e-04 0.0 
0.0 0.0 -1.106421438825e-04 
-1.040373993302e-04 -2.962445174837e-05 0.0 
-2.962445174837e-05 6.836342105130e-04 0.0 
0.0 0.0 -1.039785834622e-04 
-2.890800069675e-05 2.861111799326e-05 0.0 
2.861111799326e-05 1.404310217184e-04 0.0 
0.0 0.0 -2.759983235877e-05 
-1.283084597460e-04 1.192869093826e-05 0.0 
1.192869093826e-05 8.062000095070e-04 0.0 
0.0 0.0 -1.269342783548e-04 
-4.518956868723e-05 -2.955121691656e-05 0.0 
-2.955121691656e-05 2.739636501554e-04 0.0 
0.0 0.0 -4.458156379712e-05 
-6.480437248805e-05 2.886959438942e-05 0.0 
2.886959438942e-05 3.978928491972e-04 0.0 
0.0 0.0 -6.471073859852e-05 
-2.011730791700e-04 -1.698872758044e-08 0.0 
-1.698872758044e-08 1.328124099864e-03 0.0 
0.0 0.0 -2.011730791700e-04 
-1.460374838192e-04 -3.048163660064e-05 0.0 
-3.048163660064e-05 9.751989198997e-04 0.0 
0.0 0.0 -1.457653143910e-04 
-1.205798788541e-04 2.761727978419e-05 0.0 
2.761727978419e-05 7.635288783755e-04 0.0 
0.0 0.0 -1.168501105142e-04 
-3.395354607204e-05 2.118102367287e-05 0.0 
2.118102367287e-05 2.067871695949e-04 0.0 
0.0 0.0 -3.264725407480e-05 
-1.072259052960e-04 2.828066854900e-05 0.0 
2.828066854900e-05 6.926707853574e-04 0.0 
0.0 0.0 -1.069007943593e-04 
-9.875212805042e-05 -3.066987077576e-05 0.0 
-3.066987077576e-05 6.455932732231e-04 0.0 
0.0 0.0 -9.854973989574e-05 
-1.347121276017e-04 -2.904780221579e-05 0.0 
-2.904780221579e-05 8.937363280174e-04 0.0 
0.0 0.0 -1.341094516545e-04 
-1.991811038418e-04 6.018664084073e-06 0.0 
6.018664084073e-06 1.364715316697e-03 0.0 
0.0 0.0 -1.985748880999e-04 
-1.110533222846e-04 2.766180117225e-05 0.0 
2.766180117225e-05 7.188072929314e-04 0.0 
0.0 0.0 -1.104975085169e-04 
-1.281880349500e-04 -2.831423111803e-05 0.0 
-2.831423111803e-05 8.493800491293e-04 0.0 
0.0 0.0 -1.277066113365e-04 
-1.022800064688e-04 2.938149773544e-05 0.0 
2.938149773544e-05 6.613696873366e-04 0.0 
0.0 0.0 -1.025654288072e-04 
-1.657781793003e-04 2.991009795984e-05 0.0 
2.991009795984e-05 1.103461715683e-03 0.0 
0.0 0.0 -1.657887872837e-04 
-1.303012997508e-04 2.941535065773e-05 0.0 
2.941535065773e-05 8.562179753406e-04 0.0 
0.0 0.0 -1.303748051659e-04 
-1.970164637737e-04 -1.302278598282e-06 0.0 
-1.302278598282e-06 1.366138488450e-03 0.0 
0.0 0.0 -1.983262259508e-04 
-2.010155577921e-04 3.662749840252e-07 0.0 
3.662749840252e-07 1.326332536677e-03 0.0 
0.0 0.0 -2.010155577921e-04 
-2.011542863586e-04 -1.004817252028e-06 0.0 
-1.004817252028e-06 1.325128672458e-03 0.0 
0.0 0.0 -2.011542863586e-04 
-2.007067363607e-04 -1.498454949364e-07 0.0 
-1.498454949364e-07 1.318361508107e-03 0.0 
0.0 0.0 -2.007067363607e-04 
-1.391843029499e-04 2.745739822782e-05 0.0 
2.745739822782e-05 9.142042162451e-04 0.0 
0.0 0.0 -1.386702020626e-04 
-1.656573127809e-04 -2.766529280961e-05 0.0 
-2.766529280961e-05 1.111954587801e-03 0.0 
0.0 0.0 -1.654503375633e-04 
-1.726299045536e-04 3.125882372740e-05 0.0 
3.125882372740e-05 1.154413842026e-03 0.0 
0.0 0.0 -1.733872194588e-04 
-9.246943249656e-05 3.046774901958e-05 0.0 
3.046774901958e-05 5.891823098647e-04 0.0 
0.0 0.0 -9.220995221430e-05 
-8.867527655773e-05 2.995644697179e-05 0.0 
2.995644697179e-05 5.611104943418e-04 0.0 
0.0 0.0 -8.809376301141e-05 
-9.622211545223e-05 -3.009570676563e-05 0.0 
-3.009570676563e-05 6.328174754954e-04 0.0 
0.0 0.0 -9.655401109520e-05 
-1.701961923366e-04 -3.010043453970e-05 0.0 
-3.010043453970e-05 1.143557443824e-03 0.0 
0.0 0.0 -1.697778367964e-04 
-1.986751491008e-04 -7.450281032112e-07 0.0 
-7.450281032112e-07 1.364365235868e-03 0.0 
0.0 0.0 -1.983660426036e-04 
-1.710340879663e-04 2.926837147099e-05 0.0 
2.926837147099e-05 1.140451459410e-03 0.0 
0.0 0.0 -1.711771202328e-04 
-1.362026136940e-04 -3.056560885154e-05 0.0 
-3.056560885154e-05 9.064457611163e-04 0.0 
0.0 0.0 -1.359501865459e-04 
-1.710918547977e-04 -2.738871930552e-05 0.0 
-2.738871930552e-05 1.149183258739e-03 0.0 
0.0 0.0 -1.708297112636e-04 
-1.484338095600e-04 -2.864995064493e-05 0.0 
-2.864995064493e-05 9.946985301084e-04 0.0 
0.0 0.0 -1.485531891111e-04 
-1.058391682515e-04 2.762475757998e-05 0.0 
2.762475757998e-05 6.839177814814e-04 0.0 
0.0 0.0 -1.057460988714e-04 
-9.007502322936e-05 2.632387229137e-05 0.0 
2.632387229137e-05 5.712847458693e-04 0.0 
0.0 0.0 -8.951081423028e-05 
-5.003262353380e-05 2.839389572085e-05 0.0 
2.839389572085e-05 2.942091527215e-04 0.0 
0.0 0.0 -5.000330529763e-05 
-1.931223455613e-04 1.410072971069e-05 0.0 
1.410072971069e-05 1.274197783005e-03 0.0 
0.0 0.0 -1.923320103442e-04 
-8.673133120512e-05 2.974761857028e-05 0.0 
2.974761857028e-05 5.527785355338e-04 0.0 
0.0 0.0 -8.688718888654e-05 
-1.811235048976e-04 -1.426754042441e-06 0.0 
-1.426754042441e-06 1.216021958167e-03 0.0 
0.0 0.0 -1.846150589539e-04 
-9.663648622258e-05 2.916309241112e-05 0.0 
2.916309241112e-05 6.223980992345e-04 0.0 
0.0 0.0 -9.698095267749e-05 
-6.297861531256e-05 -2.737443956180e-05 0.0 
-2.737443956180e-05 4.020391048555e-04 0.0 
0.0 0.0 -6.334372566563e-05 
-1.910403343780e-04 6.504513827890e-06 0.0 
6.504513827890e-06 1.269011526396e-03 0.0 
0.0 0.0 -1.926469350330e-04 
-7.031800198741e-05 2.800312657303e-05 0.0 
2.800312657303e-05 4.340280219417e-04 0.0 
0.0 0.0 -7.004737339288e-05 
-2.012981183411e-04 2.829868493084e-07 0.0 
2.829868493084e-07 1.325754434692e-03 0.0 
0.0 0.0 -2.012981183411e-04 
-1.944617061092e-04 -2.128424273080e-06 0.0 
-2.128424273080e-06 1.270536569317e-03 0.0 
0.0 0.0 -1.923981163876e-04 
-1.274261734323e-04 2.764661482526e-05 0.0 
2.764661482526e-05 8.320608034777e-04 0.0 
0.0 0.0 -1.269381307268e-04 
-1.388257339176e-05 -3.296929808695e-07 0.0 
-3.296929808695e-07 4.627629862134e-05 0.0 
0.0 0.0 -1.388302509839e-05 
-2.011432062587e-04 1.175370744359e-06 0.0 
1.175370744359e-06 1.325704875416e-03 0.0 
0.0 0.0 -2.011432062587e-04 
-1.921224080021e-04 -3.345083285998e-06 0.0 
-3.345083285998e-06 1.269046594870e-03 0.0 
0.0 0.0 -1.926992175726e-04 
-6.391416598869e-05 2.999598810142e-05 0.0 
2.999598810142e-05 3.912627427439e-04 0.0 
0.0 0.0 -6.380490422505e-05 
-1.404753262357e-04 -2.965513079560e-05 0.0 
-2.965513079560e-05 9.376027128924e-04 0.0 
0.0 0.0 -1.402969630079e-04 
-1.999507595383e-04 6.517171705071e-07 0.0 
6.517171705071e-07 1.367200749641e-03 0.0 
0.0 0.0 -1.984522389651e-04 
0.0 0.0 0.0 
0.0 0.0 0.0 
0.0 0.0 0.0 
-9.642422921866e-05 2.765043306328e-05 0.0 
2.765043306328e-05 6.184893464754e-04 0.0 
0.0 0.0 -9.638260397252e-05 
-1.327711764227e-04 2.777803969438e-05 0.0 
2.777803969438e-05 8.691844784454e-04 0.0 
0.0 0.0 -1.322405047887e-04 
-1.220159274826e-04 2.812429560457e-05 0.0 
2.812429560457e-05 7.950189731712e-04 0.0 
0.0 0.0 -1.216370884873e-04 
-1.233780413330e-04 2.822278476293e-05 0.0 
2.822278476293e-05 8.034120475729e-04 0.0 
0.0 0.0 -1.227992079070e-04 
-5.537653594295e-05 2.875222597985e-05 0.0 
2.875222597985e-05 3.316168811288e-04 0.0 
0.0 0.0 -5.533679171570e-05 
-2.012041008673e-04 -1.784165579867e-07 0.0 
-1.784165579867e-07 1.324183447082e-03 0.0 
0.0 0.0 -2.012041008673e-04 
-9.201494534921e-05 -2.853538992438e-05 0.0 
-2.853538992438e-05 6.003334109930e-04 0.0 
0.0 0.0 -9.185667556238e-05 
-3.303106360170e-05 -2.633064609002e-05 0.0 
-2.633064609002e-05 1.883634797952e-04 0.0 
0.0 0.0 -3.259945417627e-05 
-1.918713440306e-04 8.946523950926e-06 0.0 
8.946523950926e-06 1.309054848055e-03 0.0 
0.0 0.0 -1.908532239790e-04 
-1.533408055875e-05 7.384230356388e-07 0.0 
7.384230356388e-07 8.948803933365e-05 0.0 
0.0 0.0 -1.529156673429e-05 
-1.006599210971e-04 2.782645766406e-05 0.0 
2.782645766406e-05 6.455369390174e-04 0.0 
0.0 0.0 -1.001834968599e-04 
-3.451081164849e-05 1.818301860879e-06 0.0 
1.818301860879e-06 1.688175235099e-04 0.0 
0.0 0.0 -3.548102280213e-05 
-1.062965573196e-04 2.780179286973e-05 0.0 
2.780179286973e-05 6.883223029444e-04 0.0 
0.0 0.0 -1.064232429825e-04 
-1.976952572840e-04 -1.168281398262e-06 0.0 
-1.168281398262e-06 1.362992457342e-03 0.0 
0.0 0.0 -1.982734646138e-04 
-2.011883062674e-04 9.888613031936e-07 0.0 
9.888613031936e-07 1.328146716782e-03 0.0 
0.0 0.0 -2.011883062674e-04 
-1.301088029822e-04 2.770607832302e-05 0.0 
2.770607832302e-05 8.484055931934e-04 0.0 
0.0 0.0 -1.292069026561e-04 
-2.954464874618e-05 -3.965393558445e-06 0.0 
-3.965393558445e-06 1.122999320296e-04 0.0 
0.0 0.0 -2.690965210263e-05 
-2.739399671943e-05 2.933508036766e-05 0.0 
2.933508036766e-05 1.380090285650e-04 0.0 
0.0 0.0 -2.757055009735e-05 
-3.542847344044e-05 6.606947798617e-06 0.0 
6.606947798617e-06 2.063449622469e-04 0.0 
0.0 0.0 -3.269047038571e-05 
-1.687743102681e-04 -2.969350572077e-05 0.0 
-2.969350572077e-05 1.134034339831e-03 0.0 
0.0 0.0 -1.682749826031e-04 
-1.155575491131e-04 4.356017504332e-06 0.0 
4.356017504332e-06 7.906999410851e-04 0.0 
0.0 0.0 -1.155645034189e-04 
-1.225223585343e-04 -3.170975582543e-05 0.0 
-3.170975582543e-05 8.033648067797e-04 0.0 
0.0 0.0 -1.216399908441e-04 
-2.013754095761e-04 8.574101042674e-07 0.0 
8.574101042674e-07 1.328505872694e-03 0.0 
0.0 0.0 -2.013754095761e-04 
-1.185922722511e-04 -6.408792185017e-06 0.0 
-6.408792185017e-06 7.903114053093e-04 0.0 
0.0 0.0 -1.158066699702e-04 
-1.999465830534e-04 2.523603907240e-06 0.0 
2.523603907240e-06 1.365706190659e-03 0.0 
0.0 0.0 -1.984278847636e-04 
-1.529420189163e-04 2.878980384314e-05 0.0 
2.878980384314e-05 1.013778882456e-03 0.0 
0.0 0.0 -1.531497964885e-04 
-1.341342697016e-04 3.021998989808e-05 0.0 
3.021998989808e-05 8.804430663277e-04 0.0 
0.0 0.0 -1.336117322397e-04 
-7.066337245358e-05 2.724020164699e-05 0.0 
2.724020164699e-05 4.173118245595e-04 0.0 
0.0 0.0 -6.716413209789e-05 
-1.409646218039e-04 2.858302443344e-05 0.0 
2.858302443344e-05 9.281763591865e-04 0.0 
0.0 0.0 -1.406799227165e-04 
-4.298549671642e-05 -2.547451572923e-05 0.0 
-2.547451572923e-05 2.695670933754e-04 0.0 
0.0 0.0 -4.407237973489e-05 
-2.011132486541e-04 -7.128017343335e-07 0.0 
-7.128017343335e-07 1.328659301781e-03 0.0 
0.0 0.0 -2.011132486541e-04 
-2.009976701417e-04 3.439303975141e-06 0.0 
3.439303975141e-06 1.321105461220e-03 0.0 
0.0 0.0 -2.009976701417e-04 
-2.010626616006e-04 -3.322276770676e-06 0.0 
-3.322276770676e-06 1.324330050416e-03 0.0 
0.0 0.0 -2.010626616006e-04 
-1.299093591511e-04 -2.914930425429e-05 0.0 
-2.914930425429e-05 8.658441252439e-04 0.0 
0.0 0.0 -1.299975089739e-04 
-9.052284020770e-05 -3.049516894790e-05 0.0 
-3.049516894790e-05 5.936904225557e-04 0.0 
0.0 0.0 -9.093357025479e-05 
-1.054046505950e-04 -2.722690421760e-05 0.0 
-2.722690421760e-05 6.941162488956e-04 0.0 
0.0 0.0 -1.053178853420e-04 
-1.346471619318e-04 2.927563182277e-05 0.0 
2.927563182277e-05 8.856709839770e-04 0.0 
0.0 0.0 -1.347235989126e-04 
-2.009441844947e-04 5.418162692689e-07 0.0 
5.418162692689e-07 1.327955075341e-03 0.0 
0.0 0.0 -2.009441844947e-04 
-6.443925901357e-05 -2.813929069584e-05 0.0 
-2.813929069584e-05 4.076252186495e-04 0.0 
0.0 0.0 -6.431912701200e-05 
-7.485675959243e-05 2.901728883495e-05 0.0 
2.901728883495e-05 4.688085198426e-04 0.0 
0.0 0.0 -7.487790608676e-05 
-7.928698614329e-05 2.778576412939e-05 0.0 
2.778576412939e-05 4.984401812577e-04 0.0 
0.0 0.0 -7.908687439778e-05 
-1.394721343079e-04 2.885489704653e-05 0.0 
2.885489704653e-05 9.192978405546e-04 0.0 
0.0 0.0 -1.391937591313e-04 
-2.008612103287e-04 -3.693527197654e-06 0.0 
-3.693527197654e-06 1.364519917838e-03 0.0 
0.0 0.0 -1.985305734468e-04 
-2.250927834624e-05 2.909087829438e-06 0.0 
2.909087829438e-06 1.468758923848e-04 0.0 
0.0 0.0 -2.397382233655e-05 
-2.011163638586e-04 2.302003841698e-07 0.0 
2.302003841698e-07 1.324189736521e-03 0.0 
0.0 0.0 -2.011163638586e-04 
-7.377337448231e-05 2.934269690708e-05 0.0 
2.934269690708e-05 4.594549865471e-04 0.0 
0.0 0.0 -7.358133128319e-05 
-2.014316818412e-04 4.263406091414e-07 0.0 
4.263406091414e-07 1.328090472923e-03 0.0 
0.0 0.0 -2.014316818412e-04 
-1.734276927947e-04 -2.828578725819e-05 0.0 
-2.828578725819e-05 1.166116999412e-03 0.0 
0.0 0.0 -1.729148776319e-04 
-6.741246855669e-06 1.500702879826e-07 0.0 
1.500702879826e-07 3.827256342879e-05 0.0 
0.0 0.0 -6.864263063556e-06 
-1.004959508363e-04 2.808542309375e-05 0.0 
2.808542309375e-05 6.454212743012e-04 0.0 
0.0 0.0 -1.003583859079e-04 
-1.718759866272e-04 -2.980354167843e-05 0.0 
-2.980354167843e-05 1.157131136303e-03 0.0 
0.0 0.0 -1.719029392456e-04 
-2.011830196921e-04 -3.548902454827e-07 0.0 
-3.548902454827e-07 1.327155566075e-03 0.0 
0.0 0.0 -2.011830196921e-04 
-1.388407500422e-04 -2.884720622620e-05 0.0 
-2.884720622620e-05 9.230769586163e-04 0.0 
0.0 0.0 -1.383010158571e-04 
-1.575526722260e-04 2.955644203139e-05 0.0 
2.955644203139e-05 1.043750468826e-03 0.0 
0.0 0.0 -1.573501057445e-04 
-4.123088931291e-05 2.897558544234e-05 0.0 
2.897558544234e-05 2.287469859808e-04 0.0 
0.0 0.0 -4.076119643165e-05 
-1.813025862255e-04 9.345575993617e-07 0.0 
9.345575993617e-07 1.215376006819e-03 0.0 
0.0 0.0 -1.843023520775e-04 
-7.788490820688e-05 2.864422483209e-05 0.0 
2.864422483209e-05 4.890843703452e-04 0.0 
0.0 0.0 -7.776038389268e-05 
-7.872164132443e-05 -2.705112463858e-05 0.0 
-2.705112463858e-05 5.083022021505e-04 0.0 
0.0 0.0 -7.864394100603e-05 
-1.651857613722e-05 2.436579541672e-06 0.0 
2.436579541672e-06 9.382250948335e-05 0.0 
0.0 0.0 -1.564271892946e-05 
-2.011619417363e-04 1.902236696594e-07 0.0 
1.902236696594e-07 1.325669705516e-03 0.0 
0.0 0.0 -2.011619417363e-04 
-5.404101206327e-05 -2.775487024526e-05 0.0 
-2.775487024526e-05 3.346238881161e-04 0.0 
0.0 0.0 -5.346778118095e-05 
-1.664978969876e-04 -3.078518139598e-05 0.0 
-3.078518139598e-05 1.121532468591e-03 0.0 
0.0 0.0 -1.665752238587e-04 
-1.278730840806e-04 -3.472948115295e-05 0.0 
-3.472948115295e-05 8.520267496029e-04 0.0 
0.0 0.0 -1.283298317887e-04 
-6.603291402412e-05 -2.806322866842e-05 0.0 
-2.806322866842e-05 4.217037645698e-04 0.0 
0.0 0.0 -6.617380498945e-05 
-7.463675443451e-05 -2.871843216267e-05 0.0 
-2.871843216267e-05 4.786814676414e-04 0.0 
0.0 0.0 -7.447016153659e-05 
-1.335206736850e-04 -2.810341513530e-05 0.0 
-2.810341513530e-05 8.862841769034e-04 0.0 
0.0 0.0 -1.330061330556e-04 
-2.013389903111e-04 -2.577060081338e-06 0.0 
-2.577060081338e-06 1.328272800082e-03 0.0 
0.0 0.0 -2.013389903111e-04 
-9.595163826972e-05 2.829118562233e-05 0.0 
2.829118562233e-05 6.147361544056e-04 0.0 
0.0 0.0 -9.568302398834e-05 
-1.453761414593e-04 -3.029613600092e-05 0.0 
-3.029613600092e-05 9.724967985982e-04 0.0 
0.0 0.0 -1.454001008742e-04 
-1.206262125757e-04 2.794500349809e-05 0.0 
2.794500349809e-05 7.866369625336e-04 0.0 
0.0 0.0 -1.204619904346e-04 
-1.322723275388e-04 -2.829979880917e-05 0.0 
-2.829979880917e-05 8.816831760065e-04 0.0 
0.0 0.0 -1.321674040750e-04 
-7.980000717296e-05 -2.795628281200e-05 0.0 
-2.795628281200e-05 5.159636454028e-04 0.0 
0.0 0.0 -7.989676937832e-05 
-1.354049195082e-04 -2.966836663350e-05 0.0 
-2.966836663350e-05 9.031731980439e-04 0.0 
0.0 0.0 -1.354758998029e-04 
-1.160382141721e-04 -2.802728243222e-05 0.0 
-2.802728243222e-05 7.673309827378e-04 0.0 
0.0 0.0 -1.159419204142e-04 
-1.497221933922e-04 -2.945707781298e-05 0.0 
-2.945707781298e-05 1.002549953165e-03 0.0 
0.0 0.0 -1.497374551683e-04 
-1.506619844600e-04 2.868191767905e-05 0.0 
2.868191767905e-05 9.959081628399e-04 0.0 
0.0 0.0 -1.504701801305e-04 
-1.152928167139e-04 2.794966723813e-05 0.0 
2.794966723813e-05 7.495122634304e-04 0.0 
0.0 0.0 -1.151504190239e-04 
-9.797200402357e-05 2.936337437301e-05 0.0 
2.936337437301e-05 6.310607353231e-04 0.0 
0.0 0.0 -9.826785141749e-05 
-6.968070852175e-05 -2.743361977117e-05 0.0 
-2.743361977117e-05 4.442581749229e-04 0.0 
0.0 0.0 -6.960145924383e-05 
-9.096858632181e-05 2.865428116578e-05 0.0 
2.865428116578e-05 5.831558172230e-04 0.0 
0.0 0.0 -9.136904409387e-05 
-1.529042345816e-04 -2.854559586381e-05 0.0 
-2.854559586381e-05 1.024686749938e-03 0.0 
0.0 0.0 -1.527306194461e-04 
-1.256058487050e-04 2.811261290406e-05 0.0 
2.811261290406e-05 8.215081039068e-04 0.0 
0.0 0.0 -1.254775488864e-04 
-1.980780648734e-04 -3.935700772682e-06 0.0 
-3.935700772682e-06 1.366110574938e-03 0.0 
0.0 0.0 -1.982894430286e-04 
-1.754272809192e-04 -2.841101742405e-05 0.0 
-2.841101742405e-05 1.186882516095e-03 0.0 
0.0 0.0 -1.761487873678e-04 
-6.082182731614e-05 2.853376333875e-05 0.0 
2.853376333875e-05 3.715508262051e-04 0.0 
0.0 0.0 -6.104993218691e-05 
-2.011571007552e-04 9.171145657884e-07 0.0 
9.171145657884e-07 1.321562182738e-03 0.0 
0.0 0.0 -2.011571007552e-04 
-1.869664199368e-04 -1.057224803579e-06 0.0 
-1.057224803579e-06 1.305229682683e-03 0.0 
0.0 0.0 -1.899621165515e-04 
-1.086484700099e-04 2.782826117920e-05 0.0 
2.782826117920e-05 7.032557878447e-04 0.0 
0.0 0.0 -1.085668144712e-04 
-1.464969908307e-05 -1.429149761968e-06 0.0 
-1.429149761968e-06 4.885109050726e-05 0.0 
0.0 0.0 -1.465773918180e-05 
-1.958263237412e-04 5.780106440852e-07 0.0 
5.780106440852e-07 1.365777430136e-03 0.0 
0.0 0.0 -1.985204576056e-04 
-1.757264082716e-04 -2.517232276593e-05 0.0 
-2.517232276593e-05 1.179270301901e-03 0.0 
0.0 0.0 -1.750736792729e-04 
-6.782541782712e-05 3.019373787777e-05 0.0 
3.019373787777e-05 4.206013080560e-04 0.0 
0.0 0.0 -6.802858053956e-05 
-2.012563967287e-04 -1.966469980067e-06 0.0 
-1.966469980067e-06 1.324444202799e-03 0.0 
0.0 0.0 -2.012563967287e-04 
-1.398061958654e-04 -2.943243974614e-05 0.0 
-2.943243974614e-05 9.347188127772e-04 0.0 
0.0 0.0 -1.398839994836e-04 
-9.402070193648e-05 2.712518201061e-05 0.0 
2.712518201061e-05 5.984767473335e-04 0.0 
0.0 0.0 -9.344238907910e-05 
-1.259751156612e-04 2.590313598485e-05 0.0 
2.590313598485e-05 8.271536243356e-04 0.0 
0.0 0.0 -1.261329128710e-04 
-1.209053773198e-04 -2.958653903370e-05 0.0 
-2.958653903370e-05 8.015101038896e-04 0.0 
0.0 0.0 -1.208199794009e-04 
-1.200662961737e-04 -2.928695907517e-05 0.0 
-2.928695907517e-05 7.971639168788e-04 0.0 
0.0 0.0 -1.201302469568e-04 
-1.377407696400e-04 -2.844739825321e-05 0.0 
-2.844739825321e-05 9.201029016574e-04 0.0 
0.0 0.0 -1.377263211214e-04 
-1.455051528160e-04 -2.968427682686e-05 0.0 
-2.968427682686e-05 9.765284886093e-04 0.0 
0.0 0.0 -1.458154293005e-04 
-1.046610403714e-04 2.733139804099e-05 0.0 
2.733139804099e-05 6.730778598484e-04 0.0 
0.0 0.0 -1.041882757323e-04 
-1.560008307498e-04 2.985032891431e-05 0.0 
2.985032891431e-05 1.035131189223e-03 0.0 
0.0 0.0 -1.559113556481e-04 
-1.346325198006e-04 -3.759875847639e-06 0.0 
-3.759875847639e-06 9.030385431769e-04 0.0 
0.0 0.0 -1.325924704931e-04 
-9.742891063834e-05 -2.917049163419e-05 0.0 
-2.917049163419e-05 6.415916256564e-04 0.0 
0.0 0.0 -9.782951018876e-05 
-1.452307842680e-04 2.798410104444e-05 0.0 
2.798410104444e-05 9.572278053497e-04 0.0 
0.0 0.0 -1.449704969611e-04 
-7.715625378280e-05 -2.667442626255e-05 0.0 
-2.667442626255e-05 4.986036227452e-04 0.0 
0.0 0.0 -7.733157599954e-05 
-1.363333543933e-04 2.878191277654e-05 0.0 
2.878191277654e-05 8.968468110316e-04 0.0 
0.0 0.0 -1.364058089354e-04 
-7.777375980435e-06 -7.535368744986e-07 0.0 
-7.535368744986e-07 3.923141655039e-05 0.0 
0.0 0.0 -6.878196728934e-06 
-7.528604578945e-05 -2.595586335955e-05 0.0 
-2.595586335955e-05 4.832975377931e-04 0.0 
0.0 0.0 -7.495963205652e-05 
-7.310000528410e-05 -2.717420889967e-05 0.0 
-2.717420889967e-05 4.696905978795e-04 0.0 
0.0 0.0 -7.313647621482e-05 
-1.067255440210e-04 2.893271527878e-05 0.0 
2.893271527878e-05 6.917423590188e-04 0.0 
0.0 0.0 -1.068984364518e-04 
-1.139491260445e-04 2.826874769749e-05 0.0 
2.826874769749e-05 7.405843148328e-04 0.0 
0.0 0.0 -1.139284295517e-04 
-1.402043620025e-04 2.960631400939e-05 0.0 
2.960631400939e-05 9.251192422938e-04 0.0 
0.0 0.0 -1.402590041820e-04 
-1.335394728763e-04 -2.801522720058e-05 0.0 
-2.801522720058e-05 8.959684456723e-04 0.0 
0.0 0.0 -1.344445438287e-04 
-6.737158343628e-05 -2.804640221892e-05 0.0 
-2.804640221892e-05 4.313606597416e-04 0.0 
0.0 0.0 -6.758331304146e-05 
-2.012741767181e-04 8.821979198627e-07 0.0 
8.821979198627e-07 1.328039817999e-03 0.0 
0.0 0.0 -2.012741767181e-04 
-1.322856537807e-04 -2.842003897691e-05 0.0 
-2.842003897691e-05 8.785134865185e-04 0.0 
0.0 0.0 -1.318490365677e-04 
-1.109362290093e-04 2.909596826543e-05 0.0 
2.909596826543e-05 7.212635507904e-04 0.0 
0.0 0.0 -1.112084472091e-04 
-1.268451666326e-04 -2.799239167254e-05 0.0 
-2.799239167254e-05 8.413818391972e-04 0.0 
0.0 0.0 -1.265499305732e-04 
-1.064793262471e-04 -2.934158827982e-05 0.0 
-2.934158827982e-05 7.019469370670e-04 0.0 
0.0 0.0 -1.064793858277e-04 
0.0 0.0 0.0 
0.0 0.0 0.0 
0.0 0.0 0.0 
-1.318178097822e-04 -2.805518743843e-05 0.0 
-2.805518743843e-05 8.722935110683e-04 0.0 
0.0 0.0 -1.310031782818e-04 
-9.021933528390e-05 3.132040384158e-05 0.0 
3.132040384158e-05 5.739755637610e-04 0.0 
0.0 0.0 -8.934454493796e-05 
0.0 0.0 0.0 
0.0 0.0 0.0 
0.0 0.0 0.0 
-1.052154278640e-04 3.047955035353e-05 0.0 
3.047955035353e-05 6.816420493296e-04 0.0 
0.0 0.0 -1.056191267961e-04 
-1.502367494217e-04 2.924022123396e-05 0.0 
2.924022123396e-05 9.937951500591e-04 0.0 
0.0 0.0 -1.501881972789e-04 
-1.718775265069e-04 2.928709797380e-05 0.0 
2.928709797380e-05 1.146088071217e-03 0.0 
0.0 0.0 -1.720420237578e-04 
-1.280234877616e-04 -2.851125988754e-05 0.0 
-2.851125988754e-05 8.523441205577e-04 0.0 
0.0 0.0 -1.279840527869e-04 
-1.326450779531e-04 2.837607785170e-05 0.0 
2.837607785170e-05 8.704271803974e-04 0.0 
0.0 0.0 -1.326233994657e-04 
-1.124800331858e-04 -2.250634799779e-05 0.0 
-2.250634799779e-05 7.434000254204e-04 0.0 
0.0 0.0 -1.124284764899e-04 
-1.124934330556e-04 -1.147359770401e-06 0.0 
-1.147359770401e-06 6.878881025193e-04 0.0 
0.0 0.0 -1.096893794977e-04 
-1.889722149430e-04 -3.377914207804e-06 0.0 
-3.377914207804e-06 1.272437990102e-03 0.0 
0.0 0.0 -1.929167378009e-04 
-1.214486582279e-04 -2.834437307674e-05 0.0 
-2.834437307674e-05 8.042147269737e-04 0.0 
0.0 0.0 -1.212428182282e-04 
-3.901684544272e-06 -1.266514493921e-06 0.0 
-1.266514493921e-06 3.364292570627e-05 0.0 
0.0 0.0 -6.803381613341e-06 
-4.019702923064e-05 -2.968878104168e-05 0.0 
-2.968878104168e-05 2.317309542851e-04 0.0 
0.0 0.0 -3.854459625752e-05 
-1.433007491539e-05 -2.523139495984e-06 0.0 
-2.523139495984e-06 4.782663812836e-05 0.0 
0.0 0.0 -1.435566994842e-05 
-6.398639061022e-05 -2.382092625923e-05 0.0 
-2.382092625923e-05 4.115367021604e-04 0.0 
0.0 0.0 -6.426199848985e-05 
-1.705216486236e-04 -3.075798588999e-05 0.0 
-3.075798588999e-05 1.144180239023e-03 0.0 
0.0 0.0 -1.701784606649e-04 
-1.720848907896e-04 -2.982707765609e-05 0.0 
-2.982707765609e-05 1.154451966353e-03 0.0 
0.0 0.0 -1.716974477008e-04 
-1.636081653310e-04 2.890679068895e-05 0.0 
2.890679068895e-05 1.083797119579e-03 0.0 
0.0 0.0 -1.631141653006e-04 
-7.191278251010e-05 -2.923981126011e-05 0.0 
-2.923981126011e-05 4.644308216806e-04 0.0 
0.0 0.0 -7.241705069886e-05 
-1.359669915306e-04 -2.927541453388e-05 0.0 
-2.927541453388e-05 9.079369783679e-04 0.0 
0.0 0.0 -1.359475215862e-04 
-1.703257054035e-04 2.861689226726e-05 0.0 
2.861689226726e-05 1.140054647222e-03 0.0 
0.0 0.0 -1.713159247262e-04 
-4.183047912370e-05 -2.572604659906e-05 0.0 
-2.572604659906e-05 2.560153946945e-04 0.0 
0.0 0.0 -4.231798256975e-05 
-8.943823586418e-05 -3.364415979658e-05 0.0 
-3.364415979658e-05 5.775390913927e-04 0.0 
0.0 0.0 -8.913173311911e-05 
-7.231586338472e-05 2.908218695887e-05 0.0 
2.908218695887e-05 4.640276074048e-04 0.0 
0.0 0.0 -7.470029742937e-05 
-2.002434364986e-04 2.390306987834e-06 0.0 
2.390306987834e-06 1.365017058433e-03 0.0 
0.0 0.0 -1.983595295415e-04 
-2.012462808875e-04 -2.397130779802e-06 0.0 
-2.397130779802e-06 1.326802955155e-03 0.0 
0.0 0.0 -2.012462808875e-04 
-1.001924190894e-04 -2.543634002640e-05 0.0 
-2.543634002640e-05 6.415530807948e-04 0.0 
0.0 0.0 -9.870432074603e-05 
-1.098744198639e-04 -2.927420239507e-05 0.0 
-2.927420239507e-05 7.316606535654e-04 0.0 
0.0 0.0 -1.107837014452e-04 
-1.248013625041e-04 2.918553395126e-05 0.0 
2.918553395126e-05 8.167887655362e-04 0.0 
0.0 0.0 -1.248518557812e-04 
-1.744561955947e-04 2.668158714920e-05 0.0 
2.668158714920e-05 1.182258303691e-03 0.0 
0.0 0.0 -1.765917450224e-04 
-4.348855545644e-05 2.994300755885e-05 0.0 
2.994300755885e-05 2.445057852649e-04 0.0 
0.0 0.0 -4.320551243875e-05 
-1.652296485327e-04 2.906332229875e-05 0.0 
2.906332229875e-05 1.101447253650e-03 0.0 
0.0 0.0 -1.657061016896e-04 
-2.403565913090e-05 4.949963233040e-06 0.0 
4.949963233040e-06 1.531777656687e-04 0.0 
0.0 0.0 -2.418834757213e-05 
-1.015799043054e-04 -2.942946605237e-05 0.0 
-2.942946605237e-05 6.633561862995e-04 0.0 
0.0 0.0 -1.008698596220e-04 
-1.119529650465e-04 -2.962126233882e-05 0.0 
-2.962126233882e-05 7.407931298335e-04 0.0 
0.0 0.0 -1.120576983545e-04 
-1.459957790494e-05 2.147032025287e-06 0.0 
2.147032025287e-06 4.870772312705e-05 0.0 
0.0 0.0 -1.461777652376e-05 
-9.161840063277e-05 2.942933483065e-05 0.0 
2.942933483065e-05 6.062252670522e-04 0.0 
0.0 0.0 -9.401387724495e-05 
-1.768726332775e-04 2.584150165173e-05 0.0 
2.584150165173e-05 1.176843255176e-03 0.0 
0.0 0.0 -1.765293208453e-04 
-8.070653634049e-06 -7.127200303669e-07 0.0 
-7.127200303669e-07 3.799287171116e-05 0.0 
0.0 0.0 -6.885492893058e-06 
-1.096879873477e-04 2.043579917607e-06 0.0 
2.043579917607e-06 6.860751141181e-04 0.0 
0.0 0.0 -1.098413067258e-04 
-1.057188370874e-04 1.685883039910e-07 0.0 
1.685883039910e-07 7.271365247556e-04 0.0 
0.0 0.0 -1.069570933414e-04 
-1.432107105009e-04 -2.918049026374e-05 0.0 
-2.918049026374e-05 9.585008998201e-04 0.0 
0.0 0.0 -1.432800021710e-04 
-7.316489204152e-05 -2.863859130745e-05 0.0 
-2.863859130745e-05 4.706303893412e-04 0.0 
0.0 0.0 -7.415269660255e-05 
-7.204753212898e-05 2.972500420552e-05 0.0 
2.972500420552e-05 4.499764828814e-04 0.0 
0.0 0.0 -7.226240082359e-05 
-5.120365076624e-05 -2.544377550683e-05 0.0 
-2.544377550683e-05 3.155956943602e-04 0.0 
0.0 0.0 -5.097082111979e-05 
-1.766764062378e-04 2.618275323120e-05 0.0 
2.618275323120e-05 1.179907026535e-03 0.0 
0.0 0.0 -1.771343179597e-04 
-1.932169887683e-04 -1.186514980036e-06 0.0 
-1.186514980036e-06 1.270206526665e-03 0.0 
0.0 0.0 -1.929291577857e-04 
-1.651550878866e-04 -2.941422592351e-05 0.0 
-2.941422592351e-05 1.109208798495e-03 0.0 
0.0 0.0 -1.651633390879e-04 
-6.755242304519e-05 -2.455549728632e-05 0.0 
-2.455549728632e-05 4.248768375292e-04 0.0 
0.0 0.0 -6.685523357515e-05 
-3.212136007057e-05 3.580530001302e-05 0.0 
3.580530001302e-05 1.447902451166e-04 0.0 
0.0 0.0 -2.858747568434e-05 
-1.054343223867e-04 -2.695876520577e-05 0.0 
-2.695876520577e-05 6.907711584095e-04 0.0 
0.0 0.0 -1.049869670044e-04 
-1.082088607967e-04 -8.344784113160e-08 0.0 
-8.344784113160e-08 6.889651327617e-04 0.0 
0.0 0.0 -1.101766670879e-04 
-1.083270449213e-04 -5.188674785914e-06 0.0 
-5.188674785914e-06 7.291063979252e-04 0.0 
0.0 0.0 -1.071720332863e-04 
0.0 0.0 0.0 
0.0 0.0 0.0 
0.0 0.0 0.0 
-1.419401195472e-05 1.408697338343e-06 0.0 
1.408697338343e-06 4.733218519253e-05 0.0 
0.0 0.0 -1.420207424477e-05 
-2.834770026484e-05 -7.681243720571e-06 0.0 
-7.681243720571e-06 1.096902963104e-04 0.0 
0.0 0.0 -2.693124394472e-05 
-5.719939767419e-05 2.990659681515e-05 0.0 
2.990659681515e-05 3.452165164042e-04 0.0 
0.0 0.0 -5.731412244432e-05 
-1.720930858718e-05 3.350218996686e-07 0.0 
3.350218996686e-07 9.401005302813e-05 0.0 
0.0 0.0 -1.553541414024e-05 
-1.076654832369e-04 2.813964265791e-05 0.0 
2.813964265791e-05 6.806882370998e-04 0.0 
0.0 0.0 -1.037722331524e-04 
0.0 0.0 0.0 
0.0 0.0 0.0 
0.0 0.0 0.0 
-6.700184681606e-05 3.038711416349e-05 0.0 
3.038711416349e-05 4.144588213805e-04 0.0 
0.0 0.0 -6.723558339016e-05 
-1.422690385554e-04 8.906612131176e-06 0.0 
8.906612131176e-06 9.279461319084e-04 0.0 
0.0 0.0 -1.437384108528e-04 
-1.067106135208e-04 1.512146510798e-06 0.0 
1.512146510798e-06 7.288241095318e-04 0.0 
0.0 0.0 -1.068051661132e-04 
-1.732229403376e-04 -3.027991344990e-05 0.0 
-3.027991344990e-05 1.178111385867e-03 0.0 
0.0 0.0 -1.754224665252e-04 
-1.445452663558e-04 2.930268727359e-05 0.0 
2.930268727359e-05 9.544571665351e-04 0.0 
0.0 0.0 -1.446217387457e-04 
-1.353694455665e-04 1.174583702380e-05 0.0 
1.174583702380e-05 8.660998565929e-04 0.0 
0.0 0.0 -1.348267065705e-04 
-7.873004197628e-05 3.045040631702e-05 0.0 
3.045040631702e-05 5.029221835495e-04 0.0 
0.0 0.0 -7.904067945980e-05 
-2.336863266121e-05 -2.139897506835e-06 0.0 
-2.139897506835e-06 1.525920777976e-04 0.0 
0.0 0.0 -2.404492882983e-05 
-2.011462452073e-04 -3.115145181966e-06 0.0 
-3.115145181966e-06 1.323800969612e-03 0.0 
0.0 0.0 -2.011462452073e-04 
-1.997611016349e-04 -1.600977658655e-07 0.0 
-1.600977658655e-07 1.366080671060e-03 0.0 
0.0 0.0 -1.980443072317e-04 
-1.272448923164e-04 3.465279404623e-05 0.0 
3.465279404623e-05 8.424875497443e-04 0.0 
0.0 0.0 -1.288258176484e-04 
-1.119386170519e-04 -1.126021442298e-06 0.0 
-1.126021442298e-06 6.885955176049e-04 0.0 
0.0 0.0 -1.098911005281e-04 
-7.877315288786e-05 -1.808968119029e-05 0.0 
-1.808968119029e-05 5.143209401366e-04 0.0 
0.0 0.0 -7.971767696681e-05 
-1.985236644042e-04 -3.425616005704e-06 0.0 
-3.425616005704e-06 1.362863135910e-03 0.0 
0.0 0.0 -1.983864604134e-04 
-6.236203446175e-05 -2.877830346934e-05 0.0 
-2.877830346934e-05 3.955051293210e-04 0.0 
0.0 0.0 -6.249901059374e-05 
-1.058650871008e-04 -6.246155104236e-07 0.0 
-6.246155104236e-07 7.256170483752e-04 0.0 
0.0 0.0 -1.068842133844e-04 
-1.069697525894e-04 1.084045783815e-06 0.0 
1.084045783815e-06 6.877400680898e-04 0.0 
0.0 0.0 -1.096916328397e-04 
-1.015389602943e-04 2.700360211827e-05 0.0 
2.700360211827e-05 6.538816838809e-04 0.0 
0.0 0.0 -1.013366985113e-04 
-2.012735984050e-04 -2.798087263703e-06 0.0 
-2.798087263703e-06 1.328613650514e-03 0.0 
0.0 0.0 -2.012735984050e-04 
-1.940648784859e-04 2.411070838905e-06 0.0 
2.411070838905e-06 1.364173949612e-03 0.0 
0.0 0.0 -1.983874027871e-04 
-1.690083312634e-05 1.049773310524e-06 0.0 
1.049773310524e-06 9.202054593460e-05 0.0 
0.0 0.0 -1.553532439781e-05 
0.0 0.0 0.0 
0.0 0.0 0.0 
0.0 0.0 0.0 
-3.585533076935e-05 2.904737459937e-05 0.0 
2.904737459937e-05 1.788685704198e-04 0.0 
0.0 0.0 -3.331695100386e-05 
-1.122713198486e-04 2.937932182379e-05 0.0 
2.937932182379e-05 7.306935959273e-04 0.0 
0.0 0.0 -1.124655765398e-04 
-1.835773402027e-04 3.521607307094e-05 0.0 
3.521607307094e-05 1.234731404255e-03 0.0 
0.0 0.0 -1.837003526785e-04 
-5.776823163620e-06 -1.013741336344e-05 0.0 
-1.013741336344e-05 3.224761562078e-05 0.0 
0.0 0.0 -6.760418344035e-06 
-1.642553307267e-04 -3.202846031696e-05 0.0 
-3.202846031696e-05 1.094624480443e-03 0.0 
0.0 0.0 -1.638777942950e-04 
0.0 0.0 0.0 
0.0 0.0 0.0 
0.0 0.0 0.0 
-1.424654463444e-04 2.913249922816e-05 0.0 
2.913249922816e-05 9.390706018894e-04 0.0 
0.0 0.0 -1.423962487430e-04 
-9.432165051581e-06 1.005162211791e-06 0.0 
1.005162211791e-06 4.138276126950e-05 0.0 
0.0 0.0 -6.886565099861e-06 
-9.362857787326e-06 -3.767431995236e-06 0.0 
-3.767431995236e-06 3.953910185584e-05 0.0 
0.0 0.0 -6.922935307491e-06 
-1.370365661157e-04 2.914478147057e-05 0.0 
2.914478147057e-05 9.005660180564e-04 0.0 
0.0 0.0 -1.368385334393e-04 
-1.786566956368e-04 2.931910129804e-05 0.0 
2.931910129804e-05 1.196344419870e-03 0.0 
0.0 0.0 -1.789445754221e-04 
-1.403014539755e-04 -1.415648790463e-05 0.0 
-1.415648790463e-05 9.602064443499e-04 0.0 
0.0 0.0 -1.404190723625e-04 
-1.093898583646e-04 -2.651797813815e-05 0.0 
-2.651797813815e-05 7.193684517441e-04 0.0 
0.0 0.0 -1.090260965338e-04 
-1.456607726240e-05 -2.038157053184e-06 0.0 
-2.038157053184e-06 4.859194839432e-05 0.0 
0.0 0.0 -1.458251619940e-05 
-1.403045830740e-04 -2.944113871056e-05 0.0 
-2.944113871056e-05 9.375602710699e-04 0.0 
0.0 0.0 -1.402353347023e-04 
-2.006696725991e-04 -3.796241326952e-06 0.0 
-3.796241326952e-06 1.322105168317e-03 0.0 
0.0 0.0 -2.006696725991e-04 
-1.989054431028e-04 -2.182972558240e-05 0.0 
-2.182972558240e-05 1.362302379513e-03 0.0 
0.0 0.0 -1.983532132695e-04 
-1.068515601043e-04 1.760793152409e-06 0.0 
1.760793152409e-06 7.282983415426e-04 0.0 
0.0 0.0 -1.068864667265e-04 
-1.479030554931e-04 2.849872559925e-05 0.0 
2.849872559925e-05 9.774939211832e-04 0.0 
0.0 0.0 -1.479563560404e-04 
-2.012411575798e-04 2.034835726214e-06 0.0 
2.034835726214e-06 1.326088054461e-03 0.0 
0.0 0.0 -2.012411575798e-04 
-1.572471139556e-04 -3.123527971848e-05 0.0 
-3.123527971848e-05 1.052974899250e-03 0.0 
0.0 0.0 -1.570065405944e-04 
-2.512952758235e-05 6.164143337161e-06 0.0 
6.164143337161e-06 1.447280408939e-04 0.0 
0.0 0.0 -2.384861487001e-05 
-1.601508775722e-05 -1.437488736464e-06 0.0 
-1.437488736464e-06 9.300170481307e-05 0.0 
0.0 0.0 -1.544587960073e-05 
-1.543264015197e-05 -6.472491513265e-06 0.0 
-6.472491513265e-06 5.180474928483e-05 0.0 
0.0 0.0 -1.558804677123e-05 
-8.807433739710e-05 2.930499283462e-05 0.0 
2.930499283462e-05 5.721318599331e-04 0.0 
0.0 0.0 -8.900037232384e-05 
-2.000509150237e-04 -1.803318756068e-05 0.0 
-1.803318756068e-05 1.362940764782e-03 0.0 
0.0 0.0 -1.984242861770e-04 
-1.873647884484e-04 -3.488074856058e-05 0.0 
-3.488074856058e-05 1.273069634555e-03 0.0 
0.0 0.0 -1.887494668184e-04 
0.0 0.0 0.0 
0.0 0.0 0.0 
0.0 0.0 0.0 
-1.048455043466e-04 -2.786233972015e-05 0.0 
-2.786233972015e-05 6.764000404035e-04 0.0 
0.0 0.0 -1.040814173273e-04 
-2.017197471554e-04 8.241581226717e-07 0.0 
8.241581226717e-07 1.329062272743e-03 0.0 
0.0 0.0 -2.017197471554e-04 
-2.005984413255e-04 5.516146765968e-06 0.0 
5.516146765968e-06 1.367793765917e-03 0.0 
0.0 0.0 -1.978177876756e-04 
-1.955632613542e-04 2.146035678257e-07 0.0 
2.146035678257e-07 1.364429749039e-03 0.0 
0.0 0.0 -1.981726781329e-04 
-1.551674337257e-04 3.213659539949e-05 0.0 
3.213659539949e-05 1.026132370703e-03 0.0 
0.0 0.0 -1.540722572613e-04 
-1.676819576491e-04 -3.244106652331e-05 0.0 
-3.244106652331e-05 1.132368160945e-03 0.0 
0.0 0.0 -1.688564288694e-04 
-2.007045390215e-04 -1.045242026293e-06 0.0 
-1.045242026293e-06 1.322895647985e-03 0.0 
0.0 0.0 -2.007045390215e-04 
-2.011132486540e-04 -4.189740075221e-06 0.0 
-4.189740075221e-06 1.326334124050e-03 0.0 
0.0 0.0 -2.011132486540e-04 
-1.626580735659e-04 2.634343120663e-05 0.0 
2.634343120663e-05 1.095653417165e-03 0.0 
0.0 0.0 -1.638777942950e-04 
-3.467643311259e-06 1.128712139723e-05 0.0 
1.128712139723e-05 2.762392691705e-05 0.0 
0.0 0.0 -6.812318873104e-06 
-1.069489536729e-04 -2.288587191676e-07 0.0 
-2.288587191676e-07 7.222038744284e-04 0.0 
0.0 0.0 -1.070930873830e-04 
-1.082084560241e-04 4.524390449744e-06 0.0 
4.524390449744e-06 7.317697196541e-04 0.0 
0.0 0.0 -1.070046338016e-04 
0.0 0.0 0.0 
0.0 0.0 0.0 
0.0 0.0 0.0 
-2.013470386860e-04 1.582993778474e-06 0.0 
1.582993778474e-06 1.331092746641e-03 0.0 
0.0 0.0 -2.013470386860e-04 
-2.004992679381e-04 3.810616673030e-06 0.0 
3.810616673030e-06 1.366146148260e-03 0.0 
0.0 0.0 -1.977533921434e-04 
-2.006939626645e-04 9.733569450281e-08 0.0 
9.733569450281e-08 1.322104658797e-03 0.0 
0.0 0.0 -2.006939626645e-04 
-1.033192631121e-05 1.099005081210e-06 0.0 
1.099005081210e-06 3.989146001766e-05 0.0 
0.0 0.0 -6.874462243606e-06 
-1.053268595906e-05 1.440397429326e-06 0.0 
1.440397429326e-06 4.104748301093e-05 0.0 
0.0 0.0 -6.887055179908e-06 
-2.011132486540e-04 -1.745116755587e-07 0.0 
-1.745116755587e-07 1.324356223126e-03 0.0 
0.0 0.0 -2.011132486540e-04 
-2.010594294788e-04 -3.067167593136e-06 0.0 
-3.067167593136e-06 1.323008264150e-03 0.0 
0.0 0.0 -2.010594294788e-04 
-1.525144534316e-04 -3.469908965430e-05 0.0 
-3.469908965430e-05 9.919929974676e-04 0.0 
0.0 0.0 -1.490508918356e-04 
-1.073514247561e-04 4.761945652643e-06 0.0 
4.761945652643e-06 7.219659484264e-04 0.0 
0.0 0.0 -1.068727795842e-04 
-1.577537368329e-04 -3.403094625324e-05 0.0 
-3.403094625324e-05 1.060418053842e-03 0.0 
0.0 0.0 -1.590213654257e-04 
-1.328454241957e-04 -3.370191828823e-05 0.0 
-3.370191828823e-05 8.485398635158e-04 0.0 
0.0 0.0 -1.293991128285e-04 
-1.046169236010e-04 1.973664755836e-06 0.0 
1.973664755836e-06 7.223528969599e-04 0.0 
0.0 0.0 -1.068286901835e-04 
-4.614602936406e-06 5.445308269796e-06 0.0 
5.445308269796e-06 3.738876181996e-05 0.0 
0.0 0.0 -6.743366273123e-06 
-7.288647016025e-06 -5.605815272385e-06 0.0 
-5.605815272385e-06 4.290456148284e-05 0.0 
0.0 0.0 -6.886751345948e-06 
-4.777740867475e-06 -1.713355770572e-06 0.0 
-1.713355770572e-06 3.704418379984e-05 0.0 
0.0 0.0 -6.883523363406e-06 
-7.097131879007e-06 -1.839146356973e-06 0.0 
-1.839146356973e-06 3.989175121334e-05 0.0 
0.0 0.0 -6.834868364323e-06 
-1.111644977681e-04 3.476120600100e-05 0.0 
3.476120600100e-05 7.142233904721e-04 0.0 
0.0 0.0 -1.090698765213e-04 
-9.850854995735e-05 3.047113839014e-05 0.0 
3.047113839014e-05 6.418056074726e-04 0.0 
0.0 0.0 -9.901154080588e-05 
0.0 0.0 0.0 
0.0 0.0 0.0 
0.0 0.0 0.0 
-1.379803939868e-04 3.311278655235e-05 0.0 
3.311278655235e-05 9.246797732210e-04 0.0 
0.0 0.0 -1.383256398532e-04 
0.0 0.0 0.0 
0.0 0.0 0.0 
0.0 0.0 0.0 
-2.012207460908e-04 8.138655548154e-07 0.0 
8.138655548154e-07 1.323125614848e-03 0.0 
0.0 0.0 -2.012207460908e-04 
-2.011453028336e-04 1.874611865644e-06 0.0 
1.874611865644e-06 1.321148462492e-03 0.0 
0.0 0.0 -2.011453028336e-04 
-2.008980620244e-04 -1.010417860952e-06 0.0 
-1.010417860952e-06 1.324898106472e-03 0.0 
0.0 0.0 -2.008980620244e-04 
-3.774320917617e-05 3.566462655254e-05 0.0 
3.566462655254e-05 2.216925288799e-04 0.0 
0.0 0.0 -3.898704224316e-05 
-6.749434365589e-05 3.096998135248e-05 0.0 
3.096998135248e-05 4.319785382730e-04 0.0 
0.0 0.0 -6.911201714261e-05 
-2.005699367862e-04 -7.190292655296e-07 0.0 
-7.190292655296e-07 1.323013138076e-03 0.0 
0.0 0.0 -2.005699367862e-04 
-1.680240814146e-04 2.828255466262e-05 0.0 
2.828255466262e-05 1.134108335992e-03 0.0 
0.0 0.0 -1.687435400630e-04 
-2.016835406704e-04 -3.156370070795e-06 0.0 
-3.156370070795e-06 1.329078538970e-03 0.0 
0.0 0.0 -2.016835406704e-04 
-1.793487015674e-04 3.012936828637e-05 0.0 
3.012936828637e-05 1.204201687729e-03 0.0 
0.0 0.0 -1.788807376869e-04 
-1.896811634642e-04 3.473757623144e-05 0.0 
3.473757623144e-05 1.274809396155e-03 0.0 
0.0 0.0 -1.889858754357e-04 
-9.329662399263e-05 -3.052995434082e-05 0.0 
-3.052995434082e-05 6.062639241622e-04 0.0 
0.0 0.0 -9.401191312989e-05 
-2.000004866553e-04 -4.935042552872e-06 0.0 
-4.935042552872e-06 1.365934607507e-03 0.0 
0.0 0.0 -1.977152396198e-04 
-2.004002946706e-04 1.743259095834e-05 0.0 
1.743259095834e-05 1.363643771933e-03 0.0 
0.0 0.0 -1.982534774566e-04 
-1.735523764126e-04 -3.096544822671e-05 0.0 
-3.096544822671e-05 1.160586461079e-03 0.0 
0.0 0.0 -1.736242777500e-04 
-1.844507237627e-04 -3.076693800438e-05 0.0 
-3.076693800438e-05 1.234271765678e-03 0.0 
0.0 0.0 -1.838666131227e-04 
-1.480705946354e-04 -2.799822277007e-05 0.0 
-2.799822277007e-05 9.966603041907e-04 0.0 
0.0 0.0 -1.488773473547e-04 
0.0 0.0 0.0 
0.0 0.0 0.0 
0.0 0.0 0.0 
-9.787607230901e-05 -3.033430602603e-05 0.0 
-3.033430602603e-05 6.248974769917e-04 0.0 
0.0 0.0 -9.525361646419e-05 
-1.594166567358e-05 -3.750042762657e-06 0.0 
-3.750042762657e-06 8.963110813763e-05 0.0 
0.0 0.0 -1.545597323287e-05 
-1.766298993527e-04 -2.600424007003e-05 0.0 
-2.600424007003e-05 1.189008728009e-03 0.0 
0.0 0.0 -1.766728545426e-04 
-1.011715525641e-04 2.892404910577e-05 0.0 
2.892404910577e-05 6.528362141215e-04 0.0 
0.0 0.0 -1.013053728898e-04 
-1.643672164407e-04 2.795643146507e-05 0.0 
2.795643146507e-05 1.094563530101e-03 0.0 
0.0 0.0 -1.648525347569e-04 
-5.293095072300e-05 -2.919541751065e-05 0.0 
-2.919541751065e-05 3.265136357570e-04 0.0 
0.0 0.0 -5.257162719418e-05 
-2.326140168062e-05 1.809898427410e-05 0.0 
1.809898427410e-05 1.126266936620e-04 0.0 
0.0 0.0 -2.603928234478e-05 
-1.740902369364e-04 -2.842066329623e-05 0.0 
-2.842066329623e-05 1.173125089393e-03 0.0 
0.0 0.0 -1.742502449863e-04 
-1.033465261807e-04 -2.962592743150e-05 0.0 
-2.962592743150e-05 6.925891601377e-04 0.0 
0.0 0.0 -1.051812066754e-04 
-8.643013593859e-05 3.008982733389e-05 0.0 
3.008982733389e-05 5.377346504154e-04 0.0 
0.0 0.0 -8.417044846400e-05 
-1.640235310558e-04 -2.864236577619e-05 0.0 
-2.864236577619e-05 1.105176284391e-03 0.0 
0.0 0.0 -1.644154061664e-04 
-1.767953130454e-04 2.924397373916e-05 0.0 
2.924397373916e-05 1.186936749162e-03 0.0 
0.0 0.0 -1.783361800308e-04 
-8.342488227328e-05 -3.047437538585e-05 0.0 
-3.047437538585e-05 5.389729855638e-04 0.0 
0.0 0.0 -8.404105178381e-05 
-1.553105581953e-04 -3.047408891050e-05 0.0 
-3.047408891050e-05 1.042435393668e-03 0.0 
0.0 0.0 -1.553470185564e-04 
-1.377037381347e-04 2.897215065226e-05 0.0 
2.897215065226e-05 9.063511737441e-04 0.0 
0.0 0.0 -1.377261412248e-04 
-1.487663362168e-04 3.034863814033e-05 0.0 
3.034863814033e-05 9.863621124124e-04 0.0 
0.0 0.0 -1.492918029589e-04 
-1.536565537427e-04 2.792959174996e-05 0.0 
2.792959174996e-05 1.019186869417e-03 0.0 
0.0 0.0 -1.536336870150e-04 
-8.703976113534e-05 2.837055784379e-05 0.0 
2.837055784379e-05 5.518675504069e-04 0.0 
0.0 0.0 -8.683226689744e-05 
-1.002022259484e-04 -2.590961570230e-05 0.0 
-2.590961570230e-05 6.551468687222e-04 0.0 
0.0 0.0 -9.977007195992e-05 
-1.093881919947e-04 -2.770239582758e-05 0.0 
-2.770239582758e-05 7.220131976624e-04 0.0 
0.0 0.0 -1.093958643288e-04 
-1.406127741505e-04 2.917136878775e-05 0.0 
2.917136878775e-05 9.268398262503e-04 0.0 
0.0 0.0 -1.406784318969e-04 
-1.687115161712e-04 -3.067342872161e-05 0.0 
-3.067342872161e-05 1.136830953558e-03 0.0 
0.0 0.0 -1.687651353947e-04 
-1.585913072065e-04 2.928358840365e-05 0.0 
2.928358840365e-05 1.052859338839e-03 0.0 
0.0 0.0 -1.580633810106e-04 
-5.479081598616e-05 2.994038105978e-05 0.0 
2.994038105978e-05 3.289222848753e-04 0.0 
0.0 0.0 -5.528240989263e-05 
-1.746871843674e-04 3.283276217726e-05 0.0 
3.283276217726e-05 1.185116148222e-03 0.0 
0.0 0.0 -1.775271150753e-04 
-1.679442359996e-04 3.131022344942e-05 0.0 
3.131022344942e-05 1.115031446851e-03 0.0 
0.0 0.0 -1.675626104125e-04 
-1.221593488371e-04 3.511867114280e-05 0.0 
3.511867114280e-05 8.006612417280e-04 0.0 
0.0 0.0 -1.216572242888e-04 
-1.462466688388e-04 2.908933395677e-05 0.0 
2.908933395677e-05 9.660970915257e-04 0.0 
0.0 0.0 -1.463062179487e-04 
-1.447835164611e-04 2.956128772271e-05 0.0 
2.956128772271e-05 9.567010152770e-04 0.0 
0.0 0.0 -1.449838819924e-04 
-1.792333390310e-04 -3.168391798873e-05 0.0 
-3.168391798873e-05 1.203028324022e-03 0.0 
0.0 0.0 -1.778043281469e-04 
-1.726861877255e-04 2.779707870147e-05 0.0 
2.779707870147e-05 1.157249200719e-03 0.0 
0.0 0.0 -1.726459165900e-04 
-1.329452909279e-04 -2.927403005553e-05 0.0 
-2.927403005553e-05 8.870966851266e-04 0.0 
0.0 0.0 -1.330039573441e-04 
-1.775653267684e-04 -2.916250387629e-05 0.0 
-2.916250387629e-05 1.203364525945e-03 0.0 
0.0 0.0 -1.786308073928e-04 
-1.654805505207e-04 2.898950024976e-05 0.0 
2.898950024976e-05 1.100881704438e-03 0.0 
0.0 0.0 -1.655124361118e-04 
-1.580020696379e-04 -2.712101494930e-05 0.0 
-2.712101494930e-05 1.052848737751e-03 0.0 
0.0 0.0 -1.580622427210e-04 
-1.810952274087e-04 -3.284061138223e-05 0.0 
-3.284061138223e-05 1.222270948259e-03 0.0 
0.0 0.0 -1.815025845867e-04 
-1.775177136140e-04 -3.096279402686e-05 0.0 
-3.096279402686e-05 1.194150968252e-03 0.0 
0.0 0.0 -1.772606145979e-04 
-1.518616300347e-04 -3.096354740043e-05 0.0 
-3.096354740043e-05 1.015068895178e-03 0.0 
0.0 0.0 -1.517726872707e-04 
-1.496823891535e-04 -2.920446452269e-05 0.0 
-2.920446452269e-05 1.003862088151e-03 0.0 
0.0 0.0 -1.497848398488e-04 
-5.427687096238e-05 2.854055310501e-05 0.0 
2.854055310501e-05 3.273443379495e-04 0.0 
0.0 0.0 -5.466547164957e-05 
-5.095033440368e-05 2.883575061878e-05 0.0 
2.883575061878e-05 3.031424762161e-04 0.0 
0.0 0.0 -5.122137633346e-05 
-3.072034194903e-05 -3.506956867742e-05 0.0 
-3.506956867742e-05 1.557986335542e-04 0.0 
0.0 0.0 -2.814555096794e-05 
-1.579898709992e-05 2.384950188939e-07 0.0 
2.384950188939e-07 9.239980657952e-05 0.0 
0.0 0.0 -1.548055260559e-05 
-1.719981887166e-04 -3.054801319503e-05 0.0 
-3.054801319503e-05 1.160032239923e-03 0.0 
0.0 0.0 -1.726497055680e-04 
-1.730057153277e-04 2.894349992059e-05 0.0 
2.894349992059e-05 1.155971227885e-03 0.0 
0.0 0.0 -1.735259579760e-04 
-1.534650184937e-05 9.500651036844e-07 0.0 
9.500651036844e-07 8.883806811954e-05 0.0 
0.0 0.0 -1.543927480913e-05 
-1.729354271187e-04 -2.918916139558e-05 0.0 
-2.918916139558e-05 1.170988397774e-03 0.0 
0.0 0.0 -1.740447999656e-04 
-1.236089081148e-04 3.200079916068e-05 0.0 
3.200079916068e-05 8.273931967603e-04 0.0 
0.0 0.0 -1.265519798902e-04 
-1.594739007149e-04 -3.000529878065e-05 0.0 
-3.000529878065e-05 1.075639781327e-03 0.0 
0.0 0.0 -1.601216174199e-04 
-1.636627678593e-04 2.889886741851e-05 0.0 
2.889886741851e-05 1.086851557310e-03 0.0 
0.0 0.0 -1.635645035532e-04 
-7.625528765098e-05 2.781792169367e-05 0.0 
2.781792169367e-05 4.777485640918e-04 0.0 
0.0 0.0 -7.635943377870e-05 
-1.632628531148e-04 -2.978415075944e-05 0.0 
-2.978415075944e-05 1.096266397172e-03 0.0 
0.0 0.0 -1.631933750172e-04 
-1.207910536096e-04 -4.061404171323e-05 0.0 
-4.061404171323e-05 8.019844783726e-04 0.0 
0.0 0.0 -1.215026445147e-04 
-1.504315644849e-04 -2.965320847345e-05 0.0 
-2.965320847345e-05 1.005966507733e-03 0.0 
0.0 0.0 -1.500583224091e-04 
-1.846754410923e-04 3.352091310646e-05 0.0 
3.352091310646e-05 1.245792346023e-03 0.0 
0.0 0.0 -1.864447358774e-04 
-5.279032525833e-05 2.208619701697e-05 0.0 
2.208619701697e-05 3.133772429488e-04 0.0 
0.0 0.0 -5.313656330857e-05 
-1.831953493923e-04 -2.511536867923e-05 0.0 
-2.511536867923e-05 1.231406037521e-03 0.0 
0.0 0.0 -1.822568313532e-04 
-1.571776203955e-04 -2.822373229928e-05 0.0 
-2.822373229928e-05 1.054015413805e-03 0.0 
0.0 0.0 -1.572433088830e-04 
-5.834406746481e-05 3.055754480025e-05 0.0 
3.055754480025e-05 3.570231696703e-04 0.0 
0.0 0.0 -5.895916886618e-05 
-6.008933693805e-05 -2.693292101219e-05 0.0 
-2.693292101219e-05 3.827519316289e-04 0.0 
0.0 0.0 -6.052350288525e-05 
-1.184340009129e-04 2.989577006112e-05 0.0 
2.989577006112e-05 7.732438321287e-04 0.0 
0.0 0.0 -1.186440953039e-04 
-1.421755537841e-04 3.042033410873e-05 0.0 
3.042033410873e-05 9.320324598368e-04 0.0 
0.0 0.0 -1.411471141782e-04 
-8.083756678408e-05 2.897464216654e-05 0.0 
2.897464216654e-05 5.134881601291e-04 0.0 
0.0 0.0 -8.144657762318e-05 
-1.627359267385e-04 -3.016848544890e-05 0.0 
-3.016848544890e-05 1.091242501789e-03 0.0 
0.0 0.0 -1.627679727590e-04 
-1.463730196707e-04 -3.358422439378e-05 0.0 
-3.358422439378e-05 9.789488013624e-04 0.0 
0.0 0.0 -1.472519143444e-04 
-1.152261228612e-04 2.820263711739e-05 0.0 
2.820263711739e-05 7.517075314357e-04 0.0 
0.0 0.0 -1.155139551463e-04 
-1.539721025279e-04 -2.767350944115e-05 0.0 
-2.767350944115e-05 1.026348259349e-03 0.0 
0.0 0.0 -1.532636563680e-04 
-1.586940631686e-04 -2.997071389939e-05 0.0 
-2.997071389939e-05 1.067020467702e-03 0.0 
0.0 0.0 -1.588045401937e-04 
-1.586913358411e-04 3.263624713145e-05 0.0 
3.263624713145e-05 1.044672031080e-03 0.0 
0.0 0.0 -1.576021588438e-04 
-4.550621427776e-05 -2.757364409112e-05 0.0 
-2.757364409112e-05 2.786110438531e-04 0.0 
0.0 0.0 -4.588123838153e-05 
-1.095812830794e-04 2.804439789498e-05 0.0 
2.804439789498e-05 7.132223363853e-04 0.0 
0.0 0.0 -1.099287363951e-04 
-1.704275424327e-04 3.124314915643e-05 0.0 
3.124314915643e-05 1.141631777300e-03 0.0 
0.0 0.0 -1.711692687607e-04 
-1.617652388930e-04 -2.976223953276e-05 0.0 
-2.976223953276e-05 1.085248624266e-03 0.0 
0.0 0.0 -1.617298285672e-04 
-9.932779323652e-05 3.247070041484e-05 0.0 
3.247070041484e-05 6.407303244551e-04 0.0 
0.0 0.0 -1.000025319772e-04 
-1.372362599773e-04 -2.929140934786e-05 0.0 
-2.929140934786e-05 9.170515288159e-04 0.0 
0.0 0.0 -1.372955424611e-04 
-1.781532306591e-04 -3.038825115168e-05 0.0 
-3.038825115168e-05 1.202531523701e-03 0.0 
0.0 0.0 -1.781379491294e-04 
-1.507990336472e-04 2.853112124702e-05 0.0 
2.853112124702e-05 1.007077831849e-03 0.0 
0.0 0.0 -1.520953659658e-04 
-2.863924773083e-05 -3.201515123380e-05 0.0 
-3.201515123380e-05 1.478580457183e-04 0.0 
0.0 0.0 -2.710093308172e-05 
-2.955220796048e-05 -3.089794713249e-05 0.0 
-3.089794713249e-05 1.503888673604e-04 0.0 
0.0 0.0 -2.753304043464e-05 
-5.273989345688e-05 -2.717936029267e-05 0.0 
-2.717936029267e-05 3.233117972350e-04 0.0 
0.0 0.0 -5.201063495363e-05 
-1.693284171481e-04 3.002349955065e-05 0.0 
3.002349955065e-05 1.126502264070e-03 0.0 
0.0 0.0 -1.691756543757e-04 
-1.472485094623e-04 2.900717882423e-05 0.0 
2.900717882423e-05 9.697797839987e-04 0.0 
0.0 0.0 -1.466250473148e-04 
-1.255735830660e-04 -3.222245594843e-05 0.0 
-3.222245594843e-05 8.565507458900e-04 0.0 
0.0 0.0 -1.276957716749e-04 
-1.309605655324e-04 2.844392373699e-05 0.0 
2.844392373699e-05 8.631762486065e-04 0.0 
0.0 0.0 -1.311842221922e-04 
-1.705994579248e-04 -2.912195010466e-05 0.0 
-2.912195010466e-05 1.150350461823e-03 0.0 
0.0 0.0 -1.708795005752e-04 
-1.197229653638e-04 2.838848019244e-05 0.0 
2.838848019244e-05 7.818358523863e-04 0.0 
0.0 0.0 -1.198307167265e-04 
-1.587419479579e-04 2.931310418594e-05 0.0 
2.931310418594e-05 1.056312831607e-03 0.0 
0.0 0.0 -1.592449238259e-04 
-5.334541196780e-05 -2.737759313696e-05 0.0 
-2.737759313696e-05 3.380073693947e-04 0.0 
0.0 0.0 -5.422683465997e-05 
-1.820085836177e-04 3.596926237720e-05 0.0 
3.596926237720e-05 1.220521251632e-03 0.0 
0.0 0.0 -1.817296696507e-04 
-1.149006963939e-04 -2.979806393901e-05 0.0 
-2.979806393901e-05 7.621150101384e-04 0.0 
0.0 0.0 -1.150969102169e-04 
-5.891651114318e-05 -2.911512363173e-05 0.0 
-2.911512363173e-05 3.703729731158e-04 0.0 
0.0 0.0 -5.833749487792e-05 
-1.097144826368e-04 -3.210843000057e-05 0.0 
-3.210843000057e-05 7.218042111898e-04 0.0 
0.0 0.0 -1.096669806773e-04 
-8.504854609334e-05 2.789969650457e-05 0.0 
2.789969650457e-05 5.434275787344e-04 0.0 
0.0 0.0 -8.575010502696e-05 
-6.662869610533e-05 -2.920394233023e-05 0.0 
-2.920394233023e-05 4.253303798385e-04 0.0 
0.0 0.0 -6.679150530213e-05 
-1.281203035701e-04 2.817302591064e-05 0.0 
2.817302591064e-05 8.398276961004e-04 0.0 
0.0 0.0 -1.284742647491e-04 
0.0 0.0 0.0 
0.0 0.0 0.0 
0.0 0.0 0.0 
0.0 0.0 0.0 
0.0 0.0 0.0 
0.0 0.0 0.0 
-1.445088964832e-04 -2.893688476098e-05 0.0 
-2.893688476098e-05 9.674073108634e-04 0.0 
0.0 0.0 -1.445400849015e-04 
-4.892423638284e-05 -2.632452238192e-05 0.0 
-2.632452238192e-05 3.096365629157e-04 0.0 
0.0 0.0 -5.004674077938e-05 
-1.457493822096e-04 -2.962474104525e-05 0.0 
-2.962474104525e-05 9.767716228798e-04 0.0 
0.0 0.0 -1.458658349781e-04 
-1.415183033580e-04 -2.921664079038e-05 0.0 
-2.921664079038e-05 9.471227879207e-04 0.0 
0.0 0.0 -1.415771022166e-04 
-9.224355795817e-05 2.937565561905e-05 0.0 
2.937565561905e-05 5.919004124542e-04 0.0 
0.0 0.0 -9.266636470267e-05 
-6.202111907479e-05 2.972814442546e-05 0.0 
2.972814442546e-05 3.814986374049e-04 0.0 
0.0 0.0 -6.243334508123e-05 
-1.705073254263e-04 -3.058386286971e-05 0.0 
-3.058386286971e-05 1.147565254188e-03 0.0 
0.0 0.0 -1.706579733040e-04 
-3.233825504350e-05 -1.324403429526e-05 0.0 
-1.324403429526e-05 1.436007537479e-04 0.0 
0.0 0.0 -3.071301381923e-05 
-9.032577727252e-05 2.603440625466e-05 0.0 
2.603440625466e-05 5.755517471348e-04 0.0 
0.0 0.0 -9.007223908940e-05 
-1.758201471036e-04 -2.496828995894e-05 0.0 
-2.496828995894e-05 1.183557369344e-03 0.0 
0.0 0.0 -1.763300484694e-04 
-4.234236352950e-05 2.833023666619e-05 0.0 
2.833023666619e-05 2.526301394403e-04 0.0 
0.0 0.0 -4.466356309917e-05 
-1.370406890181e-04 -2.882178052615e-05 0.0 
-2.882178052615e-05 9.084977336144e-04 0.0 
0.0 0.0 -1.363328868096e-04 
-1.251017907088e-04 -3.342170659080e-05 0.0 
-3.342170659080e-05 8.360831923250e-04 0.0 
0.0 0.0 -1.262442940543e-04 
-4.243995648314e-05 -2.885964126201e-05 0.0 
-2.885964126201e-05 2.574366796815e-04 0.0 
0.0 0.0 -4.263591946142e-05 
-1.739889600423e-04 -2.690839563986e-05 0.0 
-2.690839563986e-05 1.171323703451e-03 0.0 
0.0 0.0 -1.738083055154e-04 
-1.553384911707e-04 -2.978982874275e-05 0.0 
-2.978982874275e-05 1.040098894659e-03 0.0 
0.0 0.0 -1.552347842588e-04 
-5.039241409165e-05 2.679614467153e-05 0.0 
2.679614467153e-05 2.983848210045e-04 0.0 
0.0 0.0 -5.046983505462e-05 
-1.747728255798e-04 -2.774380167709e-05 0.0 
-2.774380167709e-05 1.177437247902e-03 0.0 
0.0 0.0 -1.749780669508e-04 
-1.757727651253e-04 2.551606084145e-05 0.0 
2.551606084145e-05 1.168074540028e-03 0.0 
0.0 0.0 -1.753502448874e-04 
-5.505726652839e-05 -3.093038002705e-05 0.0 
-3.093038002705e-05 3.465532391474e-04 0.0 
0.0 0.0 -5.552857102027e-05 
-7.317029843834e-05 -3.194987778490e-05 0.0 
-3.194987778490e-05 4.614269377597e-04 0.0 
0.0 0.0 -7.202002872087e-05 
-5.677279645057e-05 -2.927873741732e-05 0.0 
-2.927873741732e-05 3.560995133108e-04 0.0 
0.0 0.0 -5.686660089389e-05 
-1.535151853389e-04 -2.933036748660e-05 0.0 
-2.933036748660e-05 1.036192859014e-03 0.0 
0.0 0.0 -1.544885262514e-04 
-1.242530601195e-04 2.861329611066e-05 0.0 
2.861329611066e-05 8.120316343009e-04 0.0 
0.0 0.0 -1.241455235793e-04 
-1.762597939278e-04 2.757012001528e-05 0.0 
2.757012001528e-05 1.169740478878e-03 0.0 
0.0 0.0 -1.754294197466e-04 
-1.711850229745e-04 2.864038460658e-05 0.0 
2.864038460658e-05 1.139237277346e-03 0.0 
0.0 0.0 -1.710046063662e-04 
-1.497953027623e-04 -2.952090845357e-05 0.0 
-2.952090845357e-05 1.006551656477e-03 0.0 
0.0 0.0 -1.501751650533e-04 
-1.503962620125e-04 2.908649725408e-05 0.0 
2.908649725408e-05 9.959224082837e-04 0.0 
0.0 0.0 -1.506140208444e-04 
-4.755962799573e-05 2.961725835591e-05 0.0 
2.961725835591e-05 2.764290125414e-04 0.0 
0.0 0.0 -4.738039998630e-05 
-1.544053010064e-04 2.921080048960e-05 0.0 
2.921080048960e-05 1.025561320549e-03 0.0 
0.0 0.0 -1.549280912548e-04 
-1.557486119605e-04 2.953656624643e-05 0.0 
2.953656624643e-05 1.031918401575e-03 0.0 
0.0 0.0 -1.555717122721e-04 
-1.233043498576e-04 -2.852184502998e-05 0.0 
-2.852184502998e-05 8.222615261922e-04 0.0 
0.0 0.0 -1.237306916726e-04 
-1.467661945651e-04 -2.993950527874e-05 0.0 
-2.993950527874e-05 9.778837446955e-04 0.0 
0.0 0.0 -1.462911275235e-04 
-1.606564974618e-04 -3.021309399430e-05 0.0 
-3.021309399430e-05 1.078198516753e-03 0.0 
0.0 0.0 -1.607123627396e-04 
-1.117498861518e-04 2.850262572474e-05 0.0 
2.850262572474e-05 7.245894762642e-04 0.0 
0.0 0.0 -1.115305788895e-04 
-1.668451985095e-04 2.929977478704e-05 0.0 
2.929977478704e-05 1.108305524184e-03 0.0 
0.0 0.0 -1.665387401245e-04 
-1.057225299962e-04 3.155313044250e-05 0.0 
3.155313044250e-05 6.826770249726e-04 0.0 
0.0 0.0 -1.044775758143e-04 
-1.196746585436e-04 -2.994940432812e-05 0.0 
-2.994940432812e-05 7.923200024953e-04 0.0 
0.0 0.0 -1.194095964715e-04 
-8.002674295402e-05 3.358846946639e-05 0.0 
3.358846946639e-05 5.079680145232e-04 0.0 
0.0 0.0 -8.013437995356e-05 
-8.330364669840e-05 -2.724402051282e-05 0.0 
-2.724402051282e-05 5.442521817240e-04 0.0 
0.0 0.0 -8.372375584921e-05 
-1.515465133375e-04 2.950843049766e-05 0.0 
2.950843049766e-05 1.000906494757e-03 0.0 
0.0 0.0 -1.511009726023e-04 
-1.144286686682e-04 -2.867408820424e-05 0.0 
-2.867408820424e-05 7.585750249113e-04 0.0 
0.0 0.0 -1.145674989690e-04 
-6.084802831260e-05 -2.991902315111e-05 0.0 
-2.991902315111e-05 3.860715331104e-04 0.0 
0.0 0.0 -6.116241410045e-05 
-3.353257843682e-05 -2.498074177198e-05 0.0 
-2.498074177198e-05 1.896944408225e-04 0.0 
0.0 0.0 -3.278510925449e-05 
-1.508054349256e-04 -2.953924267332e-05 0.0 
-2.953924267332e-05 1.009022901988e-03 0.0 
0.0 0.0 -1.507672500721e-04 
-6.144560576959e-05 2.946678310881e-05 0.0 
2.946678310881e-05 3.752423857179e-04 0.0 
0.0 0.0 -6.160741095528e-05 
-1.795193782850e-04 3.015966066455e-05 0.0 
3.015966066455e-05 1.220916437867e-03 0.0 
0.0 0.0 -1.828075300492e-04 
-1.564210717973e-04 2.928181705796e-05 0.0 
2.928181705796e-05 1.038697099430e-03 0.0 
0.0 0.0 -1.565825172896e-04 
-1.601803915316e-04 2.879046078541e-05 0.0 
2.879046078541e-05 1.065098279090e-03 0.0 
0.0 0.0 -1.605560195386e-04 
-1.924510169718e-04 -3.681008615861e-06 0.0 
-3.681008615861e-06 1.266195614385e-03 0.0 
0.0 0.0 -1.927094427628e-04 
-9.917312679716e-05 -3.248065919378e-05 0.0 
-3.248065919378e-05 6.537270345769e-04 0.0 
0.0 0.0 -9.956065683388e-05 
-5.578848237072e-05 2.919143814272e-05 0.0 
2.919143814272e-05 3.356753976095e-04 0.0 
0.0 0.0 -5.597427817213e-05 
-3.764707681470e-05 3.152158318827e-05 0.0 
3.152158318827e-05 2.055269805242e-04 0.0 
0.0 0.0 -3.744316153082e-05 
-1.513908916278e-04 -2.965358922743e-05 0.0 
-2.965358922743e-05 1.015985434205e-03 0.0 
0.0 0.0 -1.514863114221e-04 
-1.425433722621e-04 3.012022841548e-05 0.0 
3.012022841548e-05 9.394937491690e-04 0.0 
0.0 0.0 -1.421023406183e-04 
-2.681800511095e-05 2.581926760662e-05 0.0 
2.581926760662e-05 1.385235032261e-04 0.0 
0.0 0.0 -2.788272662613e-05 
-7.959731755198e-05 -2.970357934053e-05 0.0 
-2.970357934053e-05 5.241419312225e-04 0.0 
0.0 0.0 -8.100711145360e-05 
-4.597324572621e-05 -2.624539862290e-05 0.0 
-2.624539862290e-05 3.001894932538e-04 0.0 
0.0 0.0 -4.869105516194e-05 
-1.408940546525e-04 -2.794056746742e-05 0.0 
-2.794056746742e-05 9.400214273018e-04 0.0 
0.0 0.0 -1.408175133641e-04 
-8.220239972126e-05 -3.150539897154e-05 0.0 
-3.150539897154e-05 5.540054204137e-04 0.0 
0.0 0.0 -8.531818138572e-05 
-1.420072539078e-04 2.886098902268e-05 0.0 
2.886098902268e-05 9.363360353424e-04 0.0 
0.0 0.0 -1.420190347897e-04 
-8.142682941929e-05 -3.127687653374e-05 0.0 
-3.127687653374e-05 5.123505803199e-04 0.0 
0.0 0.0 -8.006333120906e-05 
-1.676020446456e-04 -3.106665135098e-05 0.0 
-3.106665135098e-05 1.123875757488e-03 0.0 
0.0 0.0 -1.672214290798e-04 
-7.117572739314e-05 2.988293947474e-05 0.0 
2.988293947474e-05 4.447820599446e-04 0.0 
0.0 0.0 -7.152995986871e-05 
-1.528626195223e-04 -2.956851905674e-05 0.0 
-2.956851905674e-05 1.025224946446e-03 0.0 
0.0 0.0 -1.527886262531e-04 
-5.059375724921e-05 -2.868524116335e-05 0.0 
-2.868524116335e-05 3.156970290875e-04 0.0 
0.0 0.0 -5.064650353833e-05 
-1.471629417592e-04 -2.959313709753e-05 0.0 
-2.959313709753e-05 9.860061145689e-04 0.0 
0.0 0.0 -1.471833001180e-04 
-1.144539418112e-04 -2.473861065929e-05 0.0 
-2.473861065929e-05 7.560825404925e-04 0.0 
0.0 0.0 -1.140633649831e-04 
-1.560905633689e-04 2.900023350889e-05 0.0 
2.900023350889e-05 1.035339225371e-03 0.0 
0.0 0.0 -1.562332567718e-04 
-8.041016399686e-05 2.814724334195e-05 0.0 
2.814724334195e-05 5.070504478833e-04 0.0 
0.0 0.0 -8.025424390503e-05 
-4.885024697967e-05 3.157288993858e-05 0.0 
3.157288993858e-05 2.863708627365e-04 0.0 
0.0 0.0 -4.915965252508e-05 
-1.306396509784e-04 -2.896286188210e-05 0.0 
-2.896286188210e-05 8.760759259617e-04 0.0 
0.0 0.0 -1.318090263425e-04 
-1.421840376928e-04 -2.883026291404e-05 0.0 
-2.883026291404e-05 9.494244979280e-04 0.0 
0.0 0.0 -1.419644564515e-04 
-1.018318441446e-04 2.874180221663e-05 0.0 
2.874180221663e-05 6.553763140814e-04 0.0 
0.0 0.0 -1.016412246321e-04 
-1.420263861118e-04 -3.127951009604e-05 0.0 
-3.127951009604e-05 9.447561927313e-04 0.0 
0.0 0.0 -1.417981522837e-04 
-5.634120637729e-05 -2.901059335072e-05 0.0 
-2.901059335072e-05 3.528621573190e-04 0.0 
0.0 0.0 -5.638371198943e-05 
-1.449671090102e-04 2.903465807275e-05 0.0 
2.903465807275e-05 9.569114950414e-04 0.0 
0.0 0.0 -1.446420687869e-04 
-4.539864356175e-05 -2.892446416447e-05 0.0 
-2.892446416447e-05 2.698402511523e-04 0.0 
0.0 0.0 -4.421511183446e-05 
-1.729769140722e-04 -3.077324556460e-05 0.0 
-3.077324556460e-05 1.164178924141e-03 0.0 
0.0 0.0 -1.725604168134e-04 
-1.475790650913e-04 -2.860800824990e-05 0.0 
-2.860800824990e-05 9.878754875081e-04 0.0 
0.0 0.0 -1.475206686141e-04 
-1.559172333653e-04 -2.909982133967e-05 0.0 
-2.909982133967e-05 1.044176401684e-03 0.0 
0.0 0.0 -1.555576518016e-04 
-1.814415509393e-04 -3.096082582331e-05 0.0 
-3.096082582331e-05 1.219536896500e-03 0.0 
0.0 0.0 -1.806695418618e-04 
-1.243391768637e-04 -2.906810919430e-05 0.0 
-2.906810919430e-05 8.271957787415e-04 0.0 
0.0 0.0 -1.244215412621e-04 
-4.664731672080e-05 2.860386537301e-05 0.0 
2.860386537301e-05 2.677194554706e-04 0.0 
0.0 0.0 -4.622233884158e-05 
-1.385662832492e-04 -2.918174486768e-05 0.0 
-2.918174486768e-05 9.260656173097e-04 0.0 
0.0 0.0 -1.385923280275e-04 
-1.786563386237e-04 3.101548389749e-05 0.0 
3.101548389749e-05 1.192786428697e-03 0.0 
0.0 0.0 -1.784944650888e-04 
-7.162593897649e-05 -2.768839620490e-05 0.0 
-2.768839620490e-05 4.607586366936e-04 0.0 
0.0 0.0 -7.179147874927e-05 
-1.555062997913e-04 -2.993363634807e-05 0.0 
-2.993363634807e-05 1.045876444410e-03 0.0 
0.0 0.0 -1.558013491646e-04 
-1.563360137049e-04 -3.042238300922e-05 0.0 
-3.042238300922e-05 1.046916559821e-03 0.0 
0.0 0.0 -1.562447224125e-04 
-5.757013598642e-05 2.991181572022e-05 0.0 
2.991181572022e-05 3.517212459558e-04 0.0 
0.0 0.0 -5.821047451129e-05 
-1.428729262720e-04 -2.942561466243e-05 0.0 
-2.942561466243e-05 9.560791547854e-04 0.0 
0.0 0.0 -1.428864875989e-04 
-1.287965022508e-04 -2.896617927485e-05 0.0 
-2.896617927485e-05 8.622522049021e-04 0.0 
0.0 0.0 -1.299469088572e-04 
-6.374853467835e-05 -2.810218119480e-05 0.0 
-2.810218119480e-05 4.066202706617e-04 0.0 
0.0 0.0 -6.420979177598e-05 
-7.595105816060e-05 -2.936393149418e-05 0.0 
-2.936393149418e-05 4.942830544211e-04 0.0 
0.0 0.0 -7.670872189436e-05 
-1.201712666697e-04 -2.803941660002e-05 0.0 
-2.803941660002e-05 7.961944137223e-04 0.0 
0.0 0.0 -1.200650238334e-04 
-1.519360189963e-04 2.891732000513e-05 0.0 
2.891732000513e-05 1.005387589283e-03 0.0 
0.0 0.0 -1.519214610183e-04 
-9.356553445047e-05 -2.682931258762e-05 0.0 
-2.682931258762e-05 6.080636784229e-04 0.0 
0.0 0.0 -9.302852286394e-05 
-1.148225546297e-04 -2.766542218562e-05 0.0 
-2.766542218562e-05 7.592972424786e-04 0.0 
0.0 0.0 -1.147482613702e-04 
-1.503198881368e-04 2.949228603565e-05 0.0 
2.949228603565e-05 9.943051761167e-04 0.0 
0.0 0.0 -1.501005480629e-04 
-1.374005660342e-04 3.157606201505e-05 0.0 
3.157606201505e-05 9.005540063851e-04 0.0 
0.0 0.0 -1.366500051239e-04 
-1.347749466574e-04 2.885807283713e-05 0.0 
2.885807283713e-05 8.878066807984e-04 0.0 
0.0 0.0 -1.347600488312e-04 
-1.145362197550e-04 2.550352213040e-05 0.0 
2.550352213040e-05 7.456789542705e-04 0.0 
0.0 0.0 -1.144140342440e-04 
-1.695537970541e-04 -2.847502421030e-05 0.0 
-2.847502421030e-05 1.141434530816e-03 0.0 
0.0 0.0 -1.695946584253e-04 
-1.342454359541e-04 -2.916302751234e-05 0.0 
-2.916302751234e-05 8.959753783056e-04 0.0 
0.0 0.0 -1.342994322642e-04 
-1.322842234433e-04 -2.713149803653e-05 0.0 
-2.713149803653e-05 8.716283599231e-04 0.0 
0.0 0.0 -1.308078780678e-04 
-1.770483125758e-04 -3.816029544209e-05 0.0 
-3.816029544209e-05 1.206702644282e-03 0.0 
0.0 0.0 -1.790376217081e-04 
-1.611476114444e-04 -3.043480837471e-05 0.0 
-3.043480837471e-05 1.081441463167e-03 0.0 
0.0 0.0 -1.610150566254e-04 
-1.476770815163e-04 2.899987339716e-05 0.0 
2.899987339716e-05 9.753794939162e-04 0.0 
0.0 0.0 -1.476201541636e-04 
-1.611330782201e-04 2.905567155013e-05 0.0 
2.905567155013e-05 1.069983027336e-03 0.0 
0.0 0.0 -1.610516503497e-04 
-8.740593351110e-05 -2.912313751195e-05 0.0 
-2.912313751195e-05 5.726625862703e-04 0.0 
0.0 0.0 -8.793939796372e-05 
-8.171492670432e-05 -2.932902119484e-05 0.0 
-2.932902119484e-05 5.334328304052e-04 0.0 
0.0 0.0 -8.232547559154e-05 
-4.800447364230e-05 -3.012015532788e-05 0.0 
-3.012015532788e-05 2.869100395093e-04 0.0 
0.0 0.0 -4.696026287600e-05 
-1.441554214945e-04 -2.906909676708e-05 0.0 
-2.906909676708e-05 9.649388349351e-04 0.0 
0.0 0.0 -1.441889713514e-04 
-8.596373130116e-05 -2.989926546104e-05 0.0 
-2.989926546104e-05 5.634483412629e-04 0.0 
0.0 0.0 -8.662504503560e-05 
-1.451435112077e-04 -2.967645824646e-05 0.0 
-2.967645824646e-05 9.706064754812e-04 0.0 
0.0 0.0 -1.452980301833e-04 
-1.396166376490e-04 -3.014351176356e-05 0.0 
-3.014351176356e-05 9.327092269117e-04 0.0 
0.0 0.0 -1.398369520768e-04 
-1.154194635136e-04 -2.909513876125e-05 0.0 
-2.909513876125e-05 7.637657077962e-04 0.0 
0.0 0.0 -1.153554527486e-04 
-7.239252784308e-05 2.950013499781e-05 0.0 
2.950013499781e-05 4.534037638191e-04 0.0 
0.0 0.0 -7.290299529228e-05 
-7.749228313482e-05 2.843063642712e-05 0.0 
2.843063642712e-05 4.849158394470e-04 0.0 
0.0 0.0 -7.722881688633e-05 
-7.663260260600e-05 2.940565300322e-05 0.0 
2.940565300322e-05 4.835296870814e-04 0.0 
0.0 0.0 -7.715173463647e-05 
-8.222724475915e-05 2.943935483783e-05 0.0 
2.943935483783e-05 5.226854242882e-04 0.0 
0.0 0.0 -8.276944949314e-05 
-5.179916544049e-05 2.954513306229e-05 0.0 
2.954513306229e-05 3.061348363473e-04 0.0 
0.0 0.0 -5.170396853346e-05 
-1.651578227306e-04 -2.992587384468e-05 0.0 
-2.992587384468e-05 1.111733425696e-03 0.0 
0.0 0.0 -1.652773843454e-04 
-9.948855107052e-05 2.885367954846e-05 0.0 
2.885367954846e-05 6.405116978971e-04 0.0 
0.0 0.0 -9.964436741213e-05 
-1.662477458002e-04 -3.047676524263e-05 0.0 
-3.047676524263e-05 1.116582984939e-03 0.0 
0.0 0.0 -1.661983567841e-04 
-1.051663505476e-04 2.891924803496e-05 0.0 
2.891924803496e-05 6.798882607135e-04 0.0 
0.0 0.0 -1.051955911267e-04 
-1.389859752123e-04 2.935926346480e-05 0.0 
2.935926346480e-05 9.155140148814e-04 0.0 
0.0 0.0 -1.390270654409e-04 
-1.191970428493e-04 2.933621105808e-05 0.0 
2.933621105808e-05 7.778286910325e-04 0.0 
0.0 0.0 -1.192747742027e-04 
-1.135913502195e-04 -2.809027510556e-05 0.0 
-2.809027510556e-05 7.506742469309e-04 0.0 
0.0 0.0 -1.135115339107e-04 
-5.106044890974e-05 -2.876916180737e-05 0.0 
-2.876916180737e-05 3.172111510085e-04 0.0 
0.0 0.0 -5.125664266653e-05 
-1.752549930891e-04 2.732480278546e-05 0.0 
2.732480278546e-05 1.160084193771e-03 0.0 
0.0 0.0 -1.742537888328e-04 
-1.812425183446e-04 -3.207933204969e-05 0.0 
-3.207933204969e-05 1.217777268391e-03 0.0 
0.0 0.0 -1.798074479024e-04 
-1.447184212035e-04 2.760935291747e-05 0.0 
2.760935291747e-05 9.561038377489e-04 0.0 
0.0 0.0 -1.447555322295e-04 
-8.799170026550e-05 2.995591967052e-05 0.0 
2.995591967052e-05 5.618551981543e-04 0.0 
0.0 0.0 -8.838578500301e-05 
-1.291031073422e-04 2.928905617391e-05 0.0 
2.928905617391e-05 8.466471064723e-04 0.0 
0.0 0.0 -1.291430278065e-04 
-1.459743152275e-04 3.063361272201e-05 0.0 
3.063361272201e-05 9.624952180302e-04 0.0 
0.0 0.0 -1.456278041792e-04 
-9.171757827105e-05 -2.955677248983e-05 0.0 
-2.955677248983e-05 6.024985060915e-04 0.0 
0.0 0.0 -9.223187090242e-05 
-9.603230277326e-05 -2.698956011667e-05 0.0 
-2.698956011667e-05 6.292701278524e-04 0.0 
0.0 0.0 -9.591352384746e-05 
-7.135185944171e-05 -2.955414223554e-05 0.0 
-2.955414223554e-05 4.555824851191e-04 0.0 
0.0 0.0 -7.108646760088e-05 
-6.173474433371e-05 -2.821557394065e-05 0.0 
-2.821557394065e-05 3.922513376835e-04 0.0 
0.0 0.0 -6.198456146935e-05 
-9.316424430426e-05 -2.882780269440e-05 0.0 
-2.882780269440e-05 6.119471839096e-04 0.0 
0.0 0.0 -9.355109297069e-05 
-6.583505479960e-05 2.848905537375e-05 0.0 
2.848905537375e-05 4.054485477537e-04 0.0 
0.0 0.0 -6.590301617946e-05 
-5.935575914896e-05 -3.007558356553e-05 0.0 
-3.007558356553e-05 3.768942854085e-04 0.0 
0.0 0.0 -5.983332410254e-05 
-1.186940583282e-04 -2.896555378225e-05 0.0 
-2.896555378225e-05 7.883535485114e-04 0.0 
0.0 0.0 -1.188421469351e-04 
-1.433278607698e-04 2.930912982368e-05 0.0 
2.930912982368e-05 9.454702771552e-04 0.0 
0.0 0.0 -1.433226991522e-04 
-1.697903046334e-04 2.624054691426e-05 0.0 
2.624054691426e-05 1.127471310275e-03 0.0 
0.0 0.0 -1.692916167909e-04 
-1.151638097456e-05 7.698944133971e-06 0.0 
7.698944133971e-06 4.425408472007e-05 0.0 
0.0 0.0 -7.213325994108e-06 
-1.023191081859e-04 2.827729942445e-05 0.0 
2.827729942445e-05 6.591938883861e-04 0.0 
0.0 0.0 -1.022830222654e-04 
-1.009919753862e-04 2.844629819877e-05 0.0 
2.844629819877e-05 6.501505763727e-04 0.0 
0.0 0.0 -1.009864671718e-04 
-9.380039017869e-05 2.950262979894e-05 0.0 
2.950262979894e-05 6.011532312502e-04 0.0 
0.0 0.0 -9.402143779290e-05 
-1.401352914634e-04 2.989136649985e-05 0.0 
2.989136649985e-05 9.247108301771e-04 0.0 
0.0 0.0 -1.401624631175e-04 
-1.092974960508e-04 2.941276833440e-05 0.0 
2.941276833440e-05 7.090642486070e-04 0.0 
0.0 0.0 -1.094316366672e-04 
-7.543451708232e-05 3.049036373989e-05 0.0 
3.049036373989e-05 4.754198894243e-04 0.0 
0.0 0.0 -7.582576345695e-05 
-9.891173193058e-05 -2.816068551534e-05 0.0 
-2.816068551534e-05 6.514539666403e-04 0.0 
0.0 0.0 -9.917482013514e-05 
-1.630278650561e-04 2.958590404027e-05 0.0 
2.958590404027e-05 1.077076320853e-03 0.0 
0.0 0.0 -1.620679414655e-04 
-7.702359286568e-05 -2.963111287796e-05 0.0 
-2.963111287796e-05 4.862675717220e-04 0.0 
0.0 0.0 -7.538495559814e-05 
-3.103148260616e-05 2.671216949097e-05 0.0 
2.671216949097e-05 1.654737900210e-04 0.0 
0.0 0.0 -3.198827131509e-05 
-4.232169889993e-05 2.776421737267e-05 0.0 
2.776421737267e-05 2.393069009664e-04 0.0 
0.0 0.0 -4.176863060321e-05 
-6.634744212772e-05 2.949925572575e-05 0.0 
2.949925572575e-05 4.106962890164e-04 0.0 
0.0 0.0 -6.666360735527e-05 
-7.816150117384e-05 2.918629348564e-05 0.0 
2.918629348564e-05 4.928270898341e-04 0.0 
0.0 0.0 -7.858957244827e-05 
-1.065476951188e-04 2.906412835157e-05 0.0 
2.906412835157e-05 6.891124057052e-04 0.0 
0.0 0.0 -1.064874080537e-04 
-1.046128651473e-04 -2.789283442515e-05 0.0 
-2.789283442515e-05 6.906263249349e-04 0.0 
0.0 0.0 -1.047611508630e-04 
-4.666634849019e-05 -3.250127183419e-05 0.0 
-3.250127183419e-05 2.826590938430e-04 0.0 
0.0 0.0 -4.639139346366e-05 
-4.422650169735e-05 -3.160442122719e-05 0.0 
-3.160442122719e-05 2.477476152980e-04 0.0 
0.0 0.0 -4.147803243573e-05 
-1.354421094691e-04 -3.477058406277e-05 0.0 
-3.477058406277e-05 8.849155839961e-04 0.0 
0.0 0.0 -1.332761831430e-04 
-6.529992034190e-05 -3.112094005781e-05 0.0 
-3.112094005781e-05 4.161966199991e-04 0.0 
0.0 0.0 -6.545963842888e-05 
-1.599173792757e-04 2.884984773938e-05 0.0 
2.884984773938e-05 1.062308732050e-03 0.0 
0.0 0.0 -1.601101668940e-04 
-1.640145792258e-04 2.789294437519e-05 0.0 
2.789294437519e-05 1.089847340667e-03 0.0 
0.0 0.0 -1.640071129216e-04 
-1.358364218526e-04 -2.864773194701e-05 0.0 
-2.864773194701e-05 9.015663085663e-04 0.0 
0.0 0.0 -1.352075507658e-04 
-1.691090522456e-04 2.845331053896e-05 0.0 
2.845331053896e-05 1.125515006597e-03 0.0 
0.0 0.0 -1.689126476464e-04 
-1.733194685301e-04 2.616049938131e-05 0.0 
2.616049938131e-05 1.162751062090e-03 0.0 
0.0 0.0 -1.746466296582e-04 
-1.113103175969e-04 -2.904492495481e-05 0.0 
-2.904492495481e-05 7.344679781971e-04 0.0 
0.0 0.0 -1.111327575513e-04 
-1.543419338426e-04 2.788856242459e-05 0.0 
2.788856242459e-05 1.022661884889e-03 0.0 
0.0 0.0 -1.543563508806e-04 
-5.167148472389e-05 -2.833543670219e-05 0.0 
-2.833543670219e-05 3.235982211277e-04 0.0 
0.0 0.0 -5.212100276158e-05 
-1.031213424207e-04 -2.889239140152e-05 0.0 
-2.889239140152e-05 6.806580574394e-04 0.0 
0.0 0.0 -1.034186014727e-04 
-1.034709279330e-04 2.786266615920e-05 0.0 
2.786266615920e-05 6.660582760632e-04 0.0 
0.0 0.0 -1.031952205665e-04 
-6.028919658758e-05 2.668092513971e-05 0.0 
2.668092513971e-05 3.649654199911e-04 0.0 
0.0 0.0 -5.961607156176e-05 
-4.213494566204e-05 -2.931849266110e-05 0.0 
-2.931849266110e-05 2.567319807664e-04 0.0 
0.0 0.0 -4.220635737303e-05 
-8.654776667845e-05 2.918952194239e-05 0.0 
2.918952194239e-05 5.528325958387e-04 0.0 
0.0 0.0 -8.706093026186e-05 
-1.004769780148e-04 -2.772227019028e-05 0.0 
-2.772227019028e-05 6.610823099679e-04 0.0 
0.0 0.0 -1.005514351764e-04 
-1.060430099672e-04 -2.796832696173e-05 0.0 
-2.796832696173e-05 6.996637265558e-04 0.0 
0.0 0.0 -1.060597130133e-04 
-7.058429708504e-05 2.696376381882e-05 0.0 
2.696376381882e-05 4.358412197202e-04 0.0 
0.0 0.0 -7.020228199149e-05 
-1.149702114763e-04 2.916861666016e-05 0.0 
2.916861666016e-05 7.482016199016e-04 0.0 
0.0 0.0 -1.149926572041e-04 
-1.018961975089e-04 -2.764432959957e-05 0.0 
-2.764432959957e-05 6.700658488310e-04 0.0 
0.0 0.0 -1.018518768314e-04 
-1.078880338181e-04 2.829261719461e-05 0.0 
2.829261719461e-05 6.977513239732e-04 0.0 
0.0 0.0 -1.077528216683e-04 
-7.751274952550e-05 -2.834816828620e-05 0.0 
-2.834816828620e-05 5.042136075216e-04 0.0 
0.0 0.0 -7.808165313150e-05 
-1.487528116968e-04 -2.959551626362e-05 0.0 
-2.959551626362e-05 9.968448808877e-04 0.0 
0.0 0.0 -1.488167264463e-04 
-1.501088830239e-04 -3.002822277470e-05 0.0 
-3.002822277470e-05 1.002368649967e-03 0.0 
0.0 0.0 -1.497700977071e-04 
-1.036611104552e-04 2.803937657742e-05 0.0 
2.803937657742e-05 6.681495958179e-04 0.0 
0.0 0.0 -1.035656927818e-04 
-1.696613133079e-04 2.895531178363e-05 0.0 
2.895531178363e-05 1.131067865055e-03 0.0 
0.0 0.0 -1.700243568296e-04 
-5.727268235776e-05 -2.821956991103e-05 0.0 
-2.821956991103e-05 3.625919856272e-04 0.0 
0.0 0.0 -5.774536142498e-05 
-1.807378797875e-04 3.083863400090e-05 0.0 
3.083863400090e-05 1.216171179677e-03 0.0 
0.0 0.0 -1.812757540428e-04 
-1.107278423169e-04 2.926924818457e-05 0.0 
2.926924818457e-05 7.182977638167e-04 0.0 
0.0 0.0 -1.107203250571e-04 
-1.769840871489e-04 3.489293866335e-05 0.0 
3.489293866335e-05 1.208578847919e-03 0.0 
0.0 0.0 -1.805188677947e-04 
-1.376232392385e-04 -2.850354822354e-05 0.0 
-2.850354822354e-05 9.154990550666e-04 0.0 
0.0 0.0 -1.371610485043e-04 
-5.639757509564e-05 2.971463148157e-05 0.0 
2.971463148157e-05 3.421275802933e-04 0.0 
0.0 0.0 -5.682853890605e-05 
-1.399417025807e-04 -2.902435300106e-05 0.0 
-2.902435300106e-05 9.305736500539e-04 0.0 
0.0 0.0 -1.393929574840e-04 
-1.722474544452e-04 2.867109208845e-05 0.0 
2.867109208845e-05 1.148502992599e-03 0.0 
0.0 0.0 -1.722554387731e-04 
-1.162793321609e-04 2.903309505420e-05 0.0 
2.903309505420e-05 7.572372561352e-04 0.0 
0.0 0.0 -1.162159973290e-04 
-8.454182586218e-05 -2.784090404248e-05 0.0 
-2.784090404248e-05 5.479081559787e-04 0.0 
0.0 0.0 -8.432093988479e-05 
-1.438863246759e-04 -2.930384340139e-05 0.0 
-2.930384340139e-05 9.596245582464e-04 0.0 
0.0 0.0 -1.435863591065e-04 
-1.111530589725e-04 2.833421624542e-05 0.0 
2.833421624542e-05 7.207793346527e-04 0.0 
0.0 0.0 -1.110366786716e-04 
-4.573862906079e-05 3.039490600873e-05 0.0 
3.039490600873e-05 2.711520722753e-04 0.0 
0.0 0.0 -4.684619297515e-05 
-1.870955320648e-04 3.081437672742e-05 0.0 
3.081437672742e-05 1.264311478356e-03 0.0 
0.0 0.0 -1.888615860838e-04 
-4.248482680505e-05 3.050161066116e-05 0.0 
3.050161066116e-05 2.352616891617e-04 0.0 
0.0 0.0 -4.121632266810e-05 
-1.771088727211e-04 -2.938926809476e-05 0.0 
-2.938926809476e-05 1.212909459550e-03 0.0 
0.0 0.0 -1.791639973893e-04 
-1.771566623871e-04 2.828554015672e-05 0.0 
2.828554015672e-05 1.177203819354e-03 0.0 
0.0 0.0 -1.763972732427e-04 
-1.529661344135e-04 -2.952014478129e-05 0.0 
-2.952014478129e-05 1.026629378024e-03 0.0 
0.0 0.0 -1.530775205951e-04 
-1.359594450574e-04 3.325053532527e-05 0.0 
3.325053532527e-05 8.922454278314e-04 0.0 
0.0 0.0 -1.356269418710e-04 
-1.644239763161e-04 -3.062030831265e-05 0.0 
-3.062030831265e-05 1.103176739090e-03 0.0 
0.0 0.0 -1.641343017522e-04 
-1.073732254289e-04 -2.774733318227e-05 0.0 
-2.774733318227e-05 7.082936325730e-04 0.0 
0.0 0.0 -1.073249441206e-04 
-1.251403265974e-04 -2.940532100017e-05 0.0 
-2.940532100017e-05 8.313761795825e-04 0.0 
0.0 0.0 -1.250629185325e-04 
-1.768873143391e-04 2.872670345058e-05 0.0 
2.872670345058e-05 1.193015524360e-03 0.0 
0.0 0.0 -1.787673453274e-04 
-1.533533607312e-04 2.921855117467e-05 0.0 
2.921855117467e-05 1.014614364332e-03 0.0 
0.0 0.0 -1.532196148344e-04 
-1.544705070620e-04 -2.993018470978e-05 0.0 
-2.993018470978e-05 1.033859279725e-03 0.0 
0.0 0.0 -1.542337544108e-04 
-1.470105554746e-04 3.050415116692e-05 0.0 
3.050415116692e-05 9.703822682050e-04 0.0 
0.0 0.0 -1.467116565689e-04 
-5.190467070807e-05 2.923657524478e-05 0.0 
2.923657524478e-05 3.125147726987e-04 0.0 
0.0 0.0 -5.258904166863e-05 
-1.585497388479e-04 -3.036107211364e-05 0.0 
-3.036107211364e-05 1.064785683487e-03 0.0 
0.0 0.0 -1.586792192556e-04 
-1.867823602022e-04 -4.423334107093e-07 0.0 
-4.423334107093e-07 1.306209639085e-03 0.0 
0.0 0.0 -1.902127661242e-04 
-1.799952498831e-04 3.276671323295e-05 0.0 
3.276671323295e-05 1.203252067028e-03 0.0 
0.0 0.0 -1.803293472919e-04 
-1.036283366723e-04 2.928971230122e-05 0.0 
2.928971230122e-05 6.701110471026e-04 0.0 
0.0 0.0 -1.038552253682e-04 
-1.348425674588e-04 -3.045731572340e-05 0.0 
-3.045731572340e-05 8.997616749557e-04 0.0 
0.0 0.0 -1.353016656203e-04 
-1.306027592527e-04 3.244558953540e-05 0.0 
3.244558953540e-05 8.557133569559e-04 0.0 
0.0 0.0 -1.301630146057e-04 
-1.102559799513e-04 -2.882778976320e-05 0.0 
-2.882778976320e-05 7.287644293276e-04 0.0 
0.0 0.0 -1.102912351658e-04 
-1.488807296024e-04 2.952972860655e-05 0.0 
2.952972860655e-05 9.845338823176e-04 0.0 
0.0 0.0 -1.489188890839e-04 
-1.543542798127e-04 2.941367575548e-05 0.0 
2.941367575548e-05 1.023344437634e-03 0.0 
0.0 0.0 -1.545169747944e-04 
-3.601998227787e-05 -3.147937655175e-05 0.0 
-3.147937655175e-05 2.167298522228e-04 0.0 
0.0 0.0 -3.699600978290e-05 
-6.801309851159e-05 2.873975774867e-05 0.0 
2.873975774867e-05 4.179957074076e-04 0.0 
0.0 0.0 -6.762408315677e-05 
-1.091497725492e-04 2.831094670187e-05 0.0 
2.831094670187e-05 7.067995318092e-04 0.0 
0.0 0.0 -1.090469065526e-04 
-1.032766425254e-04 -2.822190353465e-05 0.0 
-2.822190353465e-05 6.789187616226e-04 0.0 
0.0 0.0 -1.031335432607e-04 
-1.099107092343e-04 2.839546535684e-05 0.0 
2.839546535684e-05 7.120464211608e-04 0.0 
0.0 0.0 -1.098117726994e-04 
-1.811121707674e-04 -2.882441196002e-05 0.0 
-2.882441196002e-05 1.237667273714e-03 0.0 
0.0 0.0 -1.838140267123e-04 
-1.748866853698e-04 2.592400427167e-05 0.0 
2.592400427167e-05 1.162787881872e-03 0.0 
0.0 0.0 -1.744029230557e-04 
-1.761187774956e-04 -2.949711616705e-05 0.0 
-2.949711616705e-05 1.184397801600e-03 0.0 
0.0 0.0 -1.760448152485e-04 
-9.882657544989e-05 -2.718055687570e-05 0.0 
-2.718055687570e-05 6.452046498512e-04 0.0 
0.0 0.0 -9.834296651366e-05 
-1.624121206718e-04 2.836552699441e-05 0.0 
2.836552699441e-05 1.080211199209e-03 0.0 
0.0 0.0 -1.624070342850e-04 
-1.485275509050e-04 -2.918103576740e-05 0.0 
-2.918103576740e-05 9.950382173190e-04 0.0 
0.0 0.0 -1.484873542982e-04 
-1.805851059427e-04 3.002465538148e-05 0.0 
3.002465538148e-05 1.203046068310e-03 0.0 
0.0 0.0 -1.797622605636e-04 
-1.528376056470e-04 -3.044040189818e-05 0.0 
-3.044040189818e-05 1.026184810031e-03 0.0 
0.0 0.0 -1.532447004422e-04 
-1.087929439093e-04 -2.876357224537e-05 0.0 
-2.876357224537e-05 7.196828290104e-04 0.0 
0.0 0.0 -1.089952584493e-04 
-1.049428023921e-04 2.811224010391e-05 0.0 
2.811224010391e-05 6.773445023375e-04 0.0 
0.0 0.0 -1.048418778190e-04 
-1.594051931958e-04 2.879840167248e-05 0.0 
2.879840167248e-05 1.056615529052e-03 0.0 
0.0 0.0 -1.590166690394e-04 
-1.738854057278e-04 -3.150615969996e-05 0.0 
-3.150615969996e-05 1.172347359832e-03 0.0 
0.0 0.0 -1.740425842566e-04 
-1.602067260143e-04 2.962540646325e-05 0.0 
2.962540646325e-05 1.063407039079e-03 0.0 
0.0 0.0 -1.600263377024e-04 
-1.549984104106e-04 2.928819239640e-05 0.0 
2.928819239640e-05 1.025787824362e-03 0.0 
0.0 0.0 -1.545642443906e-04 
-1.691936656852e-04 3.051239000977e-05 0.0 
3.051239000977e-05 1.122993866756e-03 0.0 
0.0 0.0 -1.687134228720e-04 
-1.733516422302e-04 -2.975799224699e-05 0.0 
-2.975799224699e-05 1.180345126224e-03 0.0 
0.0 0.0 -1.751295320469e-04 
-1.641761333923e-04 2.964778985093e-05 0.0 
2.964778985093e-05 1.092162958901e-03 0.0 
0.0 0.0 -1.644209996092e-04 
-1.334029697755e-04 2.921704941968e-05 0.0 
2.921704941968e-05 8.764535109902e-04 0.0 
0.0 0.0 -1.334339325936e-04 
-9.629059373289e-05 2.489782199496e-05 0.0 
2.489782199496e-05 6.169410298163e-04 0.0 
0.0 0.0 -9.629846621400e-05 
-1.586938225999e-04 -2.873074405230e-05 0.0 
-2.873074405230e-05 1.064075480535e-03 0.0 
0.0 0.0 -1.585741496670e-04 
-1.515595690388e-04 2.887166217167e-05 0.0 
2.887166217167e-05 1.004996075128e-03 0.0 
0.0 0.0 -1.516193629955e-04 
-6.015828007311e-05 2.762481471313e-05 0.0 
2.762481471313e-05 3.663761052862e-04 0.0 
0.0 0.0 -6.027332919800e-05 
-1.086909470084e-04 -2.820919446967e-05 0.0 
-2.820919446967e-05 7.173514364266e-04 0.0 
0.0 0.0 -1.086183444390e-04 
-1.229754690729e-04 2.795896853918e-05 0.0 
2.795896853918e-05 8.030480005080e-04 0.0 
0.0 0.0 -1.229099206091e-04 
-1.348799327205e-04 -2.950552833220e-05 0.0 
-2.950552833220e-05 8.992538641476e-04 0.0 
0.0 0.0 -1.347984704188e-04 
-6.075364579538e-05 2.991920213964e-05 0.0 
2.991920213964e-05 3.704456528343e-04 0.0 
0.0 0.0 -6.085885447137e-05 
-1.045153483669e-04 -2.832422319633e-05 0.0 
-2.832422319633e-05 6.878595611022e-04 0.0 
0.0 0.0 -1.044304007945e-04 
-1.446479183094e-04 -2.971056222020e-05 0.0 
-2.971056222020e-05 9.673313026673e-04 0.0 
0.0 0.0 -1.445542801823e-04 
-1.100060346855e-04 2.737837681636e-05 0.0 
2.737837681636e-05 7.101421002689e-04 0.0 
0.0 0.0 -1.094113629060e-04 
-1.135560558010e-04 2.921951781404e-05 0.0 
2.921951781404e-05 7.388528165105e-04 0.0 
0.0 0.0 -1.136984934835e-04 
-1.423148992764e-04 -3.064755775960e-05 0.0 
-3.064755775960e-05 9.560334399626e-04 0.0 
0.0 0.0 -1.433495728088e-04 
-1.141564569451e-04 2.617777317916e-05 0.0 
2.617777317916e-05 7.567005103659e-04 0.0 
0.0 0.0 -1.145704449725e-04 
-2.757145428849e-05 3.124043686616e-05 0.0 
3.124043686616e-05 1.158691705071e-04 0.0 
0.0 0.0 -2.367971326705e-05 
-1.286436208275e-04 -2.914932669868e-05 0.0 
-2.914932669868e-05 8.571420336644e-04 0.0 
0.0 0.0 -1.287122655492e-04 
-1.576792209224e-04 2.858094066912e-05 0.0 
2.858094066912e-05 1.045870248437e-03 0.0 
0.0 0.0 -1.577753644542e-04 
-1.791334658592e-04 3.034271459186e-05 0.0 
3.034271459186e-05 1.201260178593e-03 0.0 
0.0 0.0 -1.795306929420e-04 
-1.201199461226e-04 2.829067472047e-05 0.0 
2.829067472047e-05 7.831094393938e-04 0.0 
0.0 0.0 -1.199963822083e-04 
-1.234760846803e-04 2.932006013550e-05 0.0 
2.932006013550e-05 8.076650151061e-04 0.0 
0.0 0.0 -1.235581517372e-04 
-1.448894787138e-04 -2.961840001921e-05 0.0 
-2.961840001921e-05 9.648117356658e-04 0.0 
0.0 0.0 -1.443143808439e-04 
-3.842228905377e-05 3.298025909580e-05 0.0 
3.298025909580e-05 1.877070748678e-04 0.0 
0.0 0.0 -3.370741825810e-05 
-1.534698621194e-04 2.830991160432e-05 0.0 
2.830991160432e-05 1.016299861510e-03 0.0 
0.0 0.0 -1.535042456599e-04 
-1.293327155133e-04 -2.926708160322e-05 0.0 
-2.926708160322e-05 8.610400331546e-04 0.0 
0.0 0.0 -1.292921254718e-04 
-1.147182049359e-04 -2.793616799804e-05 0.0 
-2.793616799804e-05 7.557812794768e-04 0.0 
0.0 0.0 -1.142359468334e-04 
-1.540623557645e-04 -2.883021402370e-05 0.0 
-2.883021402370e-05 1.033805831342e-03 0.0 
0.0 0.0 -1.540837914240e-04 
-5.903277897526e-05 -2.572226208233e-05 0.0 
-2.572226208233e-05 3.742033353159e-04 0.0 
0.0 0.0 -5.919629073606e-05 
-1.595117392718e-04 -2.911342610863e-05 0.0 
-2.911342610863e-05 1.072689065088e-03 0.0 
0.0 0.0 -1.596834805621e-04 
-1.756154530572e-04 2.998485745368e-05 0.0 
2.998485745368e-05 1.171075078384e-03 0.0 
0.0 0.0 -1.756318130281e-04 
-1.493681148336e-04 2.791229911131e-05 0.0 
2.791229911131e-05 9.866947003208e-04 0.0 
0.0 0.0 -1.492337925182e-04 
-1.600204318750e-04 -2.992073590521e-05 0.0 
-2.992073590521e-05 1.071726323190e-03 0.0 
0.0 0.0 -1.596862481900e-04 
-1.621340043399e-04 -3.014172433171e-05 0.0 
-3.014172433171e-05 1.091751763439e-03 0.0 
0.0 0.0 -1.624029330596e-04 
-1.746509001542e-04 -3.044303714749e-05 0.0 
-3.044303714749e-05 1.180873641495e-03 0.0 
0.0 0.0 -1.752053866267e-04 
-4.948712705896e-05 3.475475083029e-05 0.0 
3.475475083029e-05 2.597308075809e-04 0.0 
0.0 0.0 -4.376112143753e-05 
-1.485603472495e-04 -2.938683707073e-05 0.0 
-2.938683707073e-05 9.955677447018e-04 0.0 
0.0 0.0 -1.487877812405e-04 
-1.753095903577e-04 -2.864829451917e-05 0.0 
-2.864829451917e-05 1.185024325076e-03 0.0 
0.0 0.0 -1.760859927092e-04 
-1.649582730615e-04 2.923348981816e-05 0.0 
2.923348981816e-05 1.094893116976e-03 0.0 
0.0 0.0 -1.644733909230e-04 
-1.395633018813e-04 2.809652890280e-05 0.0 
2.809652890280e-05 9.186543678537e-04 0.0 
0.0 0.0 -1.394655130409e-04 
-1.099611654985e-04 -2.884597329549e-05 0.0 
-2.884597329549e-05 7.257598080870e-04 0.0 
0.0 0.0 -1.098787062330e-04 
-1.209104407542e-04 2.806295656769e-05 0.0 
2.806295656769e-05 7.902223779801e-04 0.0 
0.0 0.0 -1.210417811416e-04 
-3.627372368124e-05 3.163530406853e-05 0.0 
3.163530406853e-05 2.039563500799e-04 0.0 
0.0 0.0 -3.723255725578e-05 
-1.701409886376e-04 2.983058263759e-05 0.0 
2.983058263759e-05 1.132501183017e-03 0.0 
0.0 0.0 -1.699366983435e-04 
-6.411787123099e-05 2.946502422422e-05 0.0 
2.946502422422e-05 3.968096580559e-04 0.0 
0.0 0.0 -6.464531002275e-05 
-5.822127891541e-05 2.749733519323e-05 0.0 
2.749733519323e-05 3.240066522493e-04 0.0 
0.0 0.0 -5.373429374777e-05 
-1.578004283830e-04 -2.825196317906e-05 0.0 
-2.825196317906e-05 1.061236006077e-03 0.0 
0.0 0.0 -1.581724742171e-04 
-1.810622318850e-04 2.872864159815e-05 0.0 
2.872864159815e-05 1.210843086462e-03 0.0 
0.0 0.0 -1.810174791607e-04 
-5.321706588155e-05 -2.711802848501e-05 0.0 
-2.711802848501e-05 3.340376413156e-04 0.0 
0.0 0.0 -5.359773372147e-05 
-1.254962992742e-04 -2.828232383433e-05 0.0 
-2.828232383433e-05 8.331892923083e-04 0.0 
0.0 0.0 -1.253787237607e-04 
-1.535703452329e-04 2.911412195335e-05 0.0 
2.911412195335e-05 1.018186094186e-03 0.0 
0.0 0.0 -1.535721660833e-04 
-1.174362539490e-04 -2.931439951264e-05 0.0 
-2.931439951264e-05 7.791228558505e-04 0.0 
0.0 0.0 -1.176010908151e-04 
-6.016009984886e-05 -2.873248464068e-05 0.0 
-2.873248464068e-05 3.813492115723e-04 0.0 
0.0 0.0 -6.041048265268e-05 
-7.982616898902e-05 2.825432291390e-05 0.0 
2.825432291390e-05 5.000258330386e-04 0.0 
0.0 0.0 -7.939046230173e-05 
-3.959656613655e-05 2.469153921964e-05 0.0 
2.469153921964e-05 2.420385823143e-04 0.0 
0.0 0.0 -4.293244787628e-05 
-5.330489538924e-05 2.915892379323e-05 0.0 
2.915892379323e-05 3.232040539711e-04 0.0 
0.0 0.0 -5.412237138681e-05 
-4.874214390061e-05 2.903207581372e-05 0.0 
2.903207581372e-05 2.849835911649e-04 0.0 
0.0 0.0 -4.858390135199e-05 
-1.298006905679e-04 2.813403754230e-05 0.0 
2.813403754230e-05 8.507929242894e-04 0.0 
0.0 0.0 -1.297186540265e-04 
-1.946741073417e-04 7.177668550598e-07 0.0 
7.177668550598e-07 1.366433303394e-03 0.0 
0.0 0.0 -1.986219281740e-04 
-6.700715880952e-05 2.589861000239e-05 0.0 
2.589861000239e-05 3.925714316040e-04 0.0 
0.0 0.0 -6.366506350946e-05 
-1.734025229933e-04 2.872134779497e-05 0.0 
2.872134779497e-05 1.153015807625e-03 0.0 
0.0 0.0 -1.730133492871e-04 
-9.662877635408e-05 2.832769241253e-05 0.0 
2.832769241253e-05 6.190294534954e-04 0.0 
0.0 0.0 -9.645761187127e-05 
-1.474086229932e-04 -3.111113571506e-05 0.0 
-3.111113571506e-05 9.884847841183e-04 0.0 
0.0 0.0 -1.478461150791e-04 
-4.750635885556e-05 2.975238453019e-05 0.0 
2.975238453019e-05 2.739120908498e-04 0.0 
0.0 0.0 -4.694079591042e-05 
-1.816621119292e-04 -2.878308347844e-05 0.0 
-2.878308347844e-05 1.218135406772e-03 0.0 
0.0 0.0 -1.810139427525e-04 
-4.655502041116e-05 -2.610306417390e-05 0.0 
-2.610306417390e-05 2.951982444198e-04 0.0 
0.0 0.0 -4.804032238546e-05 
-7.357331614798e-05 2.958595086467e-05 0.0 
2.958595086467e-05 4.672675042292e-04 0.0 
0.0 0.0 -7.493958354298e-05 
-1.550973332285e-04 2.796756386232e-05 0.0 
2.796756386232e-05 1.025417246301e-03 0.0 
0.0 0.0 -1.547320639971e-04 
-1.115692087861e-04 -2.839126116568e-05 0.0 
-2.839126116568e-05 7.371116053840e-04 0.0 
0.0 0.0 -1.115425826451e-04 
-1.699290889586e-04 -2.900940190171e-05 0.0 
-2.900940190171e-05 1.149889600330e-03 0.0 
0.0 0.0 -1.708594300032e-04 
-8.624183478928e-05 -2.912886792339e-05 0.0 
-2.912886792339e-05 5.626870180004e-04 0.0 
0.0 0.0 -8.644348757353e-05 
-1.569167022033e-04 -2.881123911490e-05 0.0 
-2.881123911490e-05 1.051025089677e-03 0.0 
0.0 0.0 -1.566669492989e-04 
-1.769191692021e-04 2.934973965132e-05 0.0 
2.934973965132e-05 1.199034094636e-03 0.0 
0.0 0.0 -1.798338780755e-04 
-1.495364599630e-04 2.975197277300e-05 0.0 
2.975197277300e-05 9.877659320422e-04 0.0 
0.0 0.0 -1.491119197843e-04 
-1.807112013151e-04 -2.761933473531e-05 0.0 
-2.761933473531e-05 1.210002262212e-03 0.0 
0.0 0.0 -1.792176209978e-04 
-1.628975544781e-04 -3.036779777295e-05 0.0 
-3.036779777295e-05 1.095193631651e-03 0.0 
0.0 0.0 -1.630977145684e-04 
-1.675201900776e-04 -3.024382898117e-05 0.0 
-3.024382898117e-05 1.126388508701e-03 0.0 
0.0 0.0 -1.675015638186e-04 
-5.424555064715e-05 2.680812076581e-05 0.0 
2.680812076581e-05 3.226336525028e-04 0.0 
0.0 0.0 -5.399133669915e-05 
-1.676277495680e-04 2.740316368874e-05 0.0 
2.740316368874e-05 1.112871955034e-03 0.0 
0.0 0.0 -1.673862058733e-04 
-1.578559859789e-04 2.827037287320e-05 0.0 
2.827037287320e-05 1.049443790061e-03 0.0 
0.0 0.0 -1.580046825171e-04 
-1.171678476607e-04 2.852988375933e-05 0.0 
2.852988375933e-05 7.623350065851e-04 0.0 
0.0 0.0 -1.168873383469e-04 
-7.813173762117e-05 2.766421590413e-05 0.0 
2.766421590413e-05 4.622030552975e-04 0.0 
0.0 0.0 -7.363010077577e-05 
-1.810895077962e-04 -2.908189886640e-05 0.0 
-2.908189886640e-05 1.245299465341e-03 0.0 
0.0 0.0 -1.848439230673e-04 
-6.258589564450e-05 2.973424717467e-05 0.0 
2.973424717467e-05 3.796477966190e-04 0.0 
0.0 0.0 -6.214069219561e-05 
-6.877743183419e-05 -3.283467012249e-05 0.0 
-3.283467012249e-05 4.454002116560e-04 0.0 
0.0 0.0 -6.982795868082e-05 
-1.656560229546e-04 3.018340289880e-05 0.0 
3.018340289880e-05 1.102559420523e-03 0.0 
0.0 0.0 -1.657595890666e-04 
-4.452637910278e-05 -2.463086619694e-05 0.0 
-2.463086619694e-05 2.688625379708e-04 0.0 
0.0 0.0 -4.409698994278e-05 
-1.188635475057e-04 -2.772391840776e-05 0.0 
-2.772391840776e-05 7.879380998938e-04 0.0 
0.0 0.0 -1.188635276708e-04 
-1.592882983328e-04 2.718156988550e-05 0.0 
2.718156988550e-05 1.054709056437e-03 0.0 
0.0 0.0 -1.589765888202e-04 
-1.772222272296e-04 -2.714101551062e-05 0.0 
-2.714101551062e-05 1.191839625875e-03 0.0 
0.0 0.0 -1.771732720199e-04 
-1.824779395496e-04 -2.648051372033e-05 0.0 
-2.648051372033e-05 1.225568720394e-03 0.0 
0.0 0.0 -1.816415620416e-04 
-1.546092874475e-04 -2.982910766663e-05 0.0 
-2.982910766663e-05 1.035340165495e-03 0.0 
0.0 0.0 -1.543237508850e-04 
-1.687071199467e-04 -3.097215296435e-05 0.0 
-3.097215296435e-05 1.133984998622e-03 0.0 
0.0 0.0 -1.685605813437e-04 
-1.021935529673e-04 2.852069401152e-05 0.0 
2.852069401152e-05 6.571110725585e-04 0.0 
0.0 0.0 -1.019073722143e-04 
-1.593527883530e-04 -2.978604002386e-05 0.0 
-2.978604002386e-05 1.069539853505e-03 0.0 
0.0 0.0 -1.593679286731e-04 
-8.787271678042e-05 2.812609072738e-05 0.0 
2.812609072738e-05 5.317977245242e-04 0.0 
0.0 0.0 -8.364764346898e-05 
-1.787194194283e-04 2.687014845945e-05 0.0 
2.687014845945e-05 1.178995119648e-03 0.0 
0.0 0.0 -1.772627823762e-04 
-9.805451043270e-05 2.760029222410e-05 0.0 
2.760029222410e-05 6.018798204524e-04 0.0 
0.0 0.0 -9.365644977482e-05 
-9.596485627522e-05 2.204290663138e-05 0.0 
2.204290663138e-05 6.347192065111e-04 0.0 
0.0 0.0 -9.866254784712e-05 
-1.159093866371e-04 2.840626684317e-05 0.0 
2.840626684317e-05 7.538245928729e-04 0.0 
0.0 0.0 -1.157644195874e-04 
-1.068023676316e-04 3.049840519302e-05 0.0 
3.049840519302e-05 6.737297633016e-04 0.0 
0.0 0.0 -1.036755264196e-04 
-1.327131526045e-04 -2.791089545435e-05 0.0 
-2.791089545435e-05 8.830463531689e-04 0.0 
0.0 0.0 -1.324954999561e-04 
-1.083462229029e-04 -2.835211655561e-05 0.0 
-2.835211655561e-05 7.134008523618e-04 0.0 
0.0 0.0 -1.081453164196e-04 
-1.141683981921e-04 -2.887541052425e-05 0.0 
-2.887541052425e-05 7.550230559135e-04 0.0 
0.0 0.0 -1.140931655197e-04 
-5.515908320108e-05 2.948502897213e-05 0.0 
2.948502897213e-05 3.310071093917e-04 0.0 
0.0 0.0 -5.528709606717e-05 
-1.104134789677e-04 2.840605379835e-05 0.0 
2.840605379835e-05 7.154837500031e-04 0.0 
0.0 0.0 -1.103023603459e-04 
-1.746713077398e-04 2.880636906730e-05 0.0 
2.880636906730e-05 1.164068735679e-03 0.0 
0.0 0.0 -1.743776871305e-04 
-1.783703106015e-04 3.636462111026e-05 0.0 
3.636462111026e-05 1.201299505939e-03 0.0 
0.0 0.0 -1.792895840060e-04 
-1.577150641991e-04 2.851269442524e-05 0.0 
2.851269442524e-05 1.044375076497e-03 0.0 
0.0 0.0 -1.575150703147e-04 
-1.745723709241e-04 2.909038873658e-05 0.0 
2.909038873658e-05 1.170222223010e-03 0.0 
0.0 0.0 -1.755400497234e-04 
-1.120725847370e-04 2.871981251597e-05 0.0 
2.871981251597e-05 7.269648264993e-04 0.0 
0.0 0.0 -1.119489732781e-04 
-1.675311839949e-04 2.887729147629e-05 0.0 
2.887729147629e-05 1.117903748534e-03 0.0 
0.0 0.0 -1.678529426297e-04 
-1.146259152953e-04 2.842710779289e-05 0.0 
2.842710779289e-05 7.448564873363e-04 0.0 
0.0 0.0 -1.145134881756e-04 
-1.710224470009e-04 2.842065442071e-05 0.0 
2.842065442071e-05 1.142895506605e-03 0.0 
0.0 0.0 -1.716593064874e-04 
-1.634807050442e-04 2.799270818855e-05 0.0 
2.799270818855e-05 1.086902354100e-03 0.0 
0.0 0.0 -1.634447856658e-04 
-1.622367908960e-04 -2.967988136421e-05 0.0 
-2.967988136421e-05 1.088570664713e-03 0.0 
0.0 0.0 -1.620677252808e-04 
-1.436975778517e-04 2.830432817314e-05 0.0 
2.830432817314e-05 9.480503595790e-04 0.0 
0.0 0.0 -1.437136475121e-04 
-1.063431585595e-04 2.840592411012e-05 0.0 
2.840592411012e-05 6.863040493332e-04 0.0 
0.0 0.0 -1.060995107696e-04 
-1.691497108962e-04 -2.743833599267e-05 0.0 
-2.743833599267e-05 1.134677276168e-03 0.0 
0.0 0.0 -1.689057885308e-04 
-1.381914899866e-04 2.790064750608e-05 0.0 
2.790064750608e-05 9.063015758904e-04 0.0 
0.0 0.0 -1.375454124849e-04 
-5.561996790627e-05 -3.071748806018e-05 0.0 
-3.071748806018e-05 3.409512690699e-04 0.0 
0.0 0.0 -5.492022919918e-05 
-6.179236649455e-05 -2.756467409787e-05 0.0 
-2.756467409787e-05 3.903060721867e-04 0.0 
0.0 0.0 -6.170691397715e-05 
-9.087582305261e-05 2.700291781954e-05 0.0 
2.700291781954e-05 5.782509110046e-04 0.0 
0.0 0.0 -9.092110591052e-05 
-1.259880962207e-04 2.776883270027e-05 0.0 
2.776883270027e-05 8.237716666486e-04 0.0 
0.0 0.0 -1.257717909469e-04 
-1.753841120844e-04 2.980647546350e-05 0.0 
2.980647546350e-05 1.173927080456e-03 0.0 
0.0 0.0 -1.760317983730e-04 
-1.577119756164e-04 -3.055430689054e-05 0.0 
-3.055430689054e-05 1.057688489879e-03 0.0 
0.0 0.0 -1.576653810449e-04 
-1.057975756223e-04 -2.876126628924e-05 0.0 
-2.876126628924e-05 6.965772625478e-04 0.0 
0.0 0.0 -1.056780804030e-04 
-1.401532218735e-04 -2.893519210654e-05 0.0 
-2.893519210654e-05 9.357130400283e-04 0.0 
0.0 0.0 -1.401741111350e-04 
-1.632303776345e-04 2.945240880963e-05 0.0 
2.945240880963e-05 1.086067743780e-03 0.0 
0.0 0.0 -1.632898652955e-04 
-1.698320922867e-04 -3.029692352669e-05 0.0 
-3.029692352669e-05 1.141081462631e-03 0.0 
0.0 0.0 -1.695868396911e-04 
-1.762766478419e-04 -2.148172006753e-05 0.0 
-2.148172006753e-05 1.172735995291e-03 0.0 
0.0 0.0 -1.741172379421e-04 
-1.423952570170e-04 2.784554782803e-05 0.0 
2.784554782803e-05 9.441048027351e-04 0.0 
0.0 0.0 -1.427691508950e-04 
-1.672340961037e-04 2.890076212539e-05 0.0 
2.890076212539e-05 1.110820323191e-03 0.0 
0.0 0.0 -1.670153566545e-04 
-1.196206745500e-04 -2.916305908743e-05 0.0 
-2.916305908743e-05 7.932912096618e-04 0.0 
0.0 0.0 -1.195780717481e-04 
-1.631267095900e-04 -2.877648753756e-05 0.0 
-2.877648753756e-05 1.093964271595e-03 0.0 
0.0 0.0 -1.629178051474e-04 
-1.193648583036e-04 2.813253978265e-05 0.0 
2.813253978265e-05 7.781106719393e-04 0.0 
0.0 0.0 -1.192674511187e-04 
-1.785040923208e-04 -2.833642482200e-05 0.0 
-2.833642482200e-05 1.202406861450e-03 0.0 
0.0 0.0 -1.783056964125e-04 
-1.774180478980e-04 -3.143728213467e-05 0.0 
-3.143728213467e-05 1.216846253912e-03 0.0 
0.0 0.0 -1.800733985141e-04 
-1.339733609669e-04 2.830305737665e-05 0.0 
2.830305737665e-05 8.799971748813e-04 0.0 
0.0 0.0 -1.339483752660e-04 
-5.685501053660e-05 3.033786968296e-05 0.0 
3.033786968296e-05 3.408752435242e-04 0.0 
0.0 0.0 -5.664287464774e-05 
-1.674932513127e-04 2.750263582860e-05 0.0 
2.750263582860e-05 1.111155514655e-03 0.0 
0.0 0.0 -1.670528461364e-04 
-1.284040368042e-04 -2.775968276020e-05 0.0 
-2.775968276020e-05 8.537309068525e-04 0.0 
0.0 0.0 -1.283340813903e-04 
-1.016895440755e-04 -2.862604297841e-05 0.0 
-2.862604297841e-05 6.674652453701e-04 0.0 
0.0 0.0 -1.014860136736e-04 
-1.390418925560e-04 -2.935625760733e-05 0.0 
-2.935625760733e-05 9.288785969762e-04 0.0 
0.0 0.0 -1.390419464427e-04 
-1.608753793423e-04 -3.062151254544e-05 0.0 
-3.062151254544e-05 1.081540098949e-03 0.0 
0.0 0.0 -1.609465537294e-04 
-5.579409708541e-05 -2.753923831601e-05 0.0 
-2.753923831601e-05 3.517647136068e-04 0.0 
0.0 0.0 -5.619956474153e-05 
-1.242874580104e-04 2.815581454240e-05 0.0 
2.815581454240e-05 8.122824974036e-04 0.0 
0.0 0.0 -1.242180795178e-04 
-1.444954382542e-04 2.691161261798e-05 0.0 
2.691161261798e-05 9.508761997336e-04 0.0 
0.0 0.0 -1.439419080609e-04 
-1.748732396412e-04 -3.101518328253e-05 0.0 
-3.101518328253e-05 1.183866334775e-03 0.0 
0.0 0.0 -1.756258132784e-04 
-1.484265095921e-04 2.639187046033e-05 0.0 
2.639187046033e-05 9.793613921147e-04 0.0 
0.0 0.0 -1.481473755224e-04 
-1.628394148518e-04 2.905846373136e-05 0.0 
2.905846373136e-05 1.081802942582e-03 0.0 
0.0 0.0 -1.628061244897e-04 
-1.405884391169e-04 2.689260908494e-05 0.0 
2.689260908494e-05 9.219062369141e-04 0.0 
0.0 0.0 -1.397490354451e-04 
-1.346362126131e-04 2.980546389634e-05 0.0 
2.980546389634e-05 8.629731244664e-04 0.0 
0.0 0.0 -1.313455861883e-04 
-1.422308942789e-04 2.777968126491e-05 0.0 
2.777968126491e-05 9.352014107076e-04 0.0 
0.0 0.0 -1.417070353249e-04 
-1.696348231764e-04 3.073847441857e-05 0.0 
3.073847441857e-05 1.132512673150e-03 0.0 
0.0 0.0 -1.700257545721e-04 
-1.628061011134e-04 -3.012920063587e-05 0.0 
-3.012920063587e-05 1.094588289745e-03 0.0 
0.0 0.0 -1.626783210446e-04 
-1.525480366069e-04 2.753411223908e-05 0.0 
2.753411223908e-05 1.012270815341e-03 0.0 
0.0 0.0 -1.525950422115e-04 
-1.817674885626e-04 2.636756222739e-05 0.0 
2.636756222739e-05 1.218171265063e-03 0.0 
0.0 0.0 -1.819330136886e-04 
-1.367783378107e-04 2.734398055764e-05 0.0 
2.734398055764e-05 8.928204252328e-04 0.0 
0.0 0.0 -1.355595357802e-04 
-8.657515392004e-05 -2.858127066433e-05 0.0 
-2.858127066433e-05 5.623682383036e-04 0.0 
0.0 0.0 -8.640878351826e-05 
-1.720286776127e-04 -3.018037219569e-05 0.0 
-3.018037219569e-05 1.158953410419e-03 0.0 
0.0 0.0 -1.720100346656e-04 
-1.785542716781e-04 -3.347376878072e-05 0.0 
-3.347376878072e-05 1.210212792631e-03 0.0 
0.0 0.0 -1.795117393957e-04 
-1.181566759780e-04 2.804595512909e-05 0.0 
2.804595512909e-05 7.695120543693e-04 0.0 
0.0 0.0 -1.180384278745e-04 
-1.234361083838e-04 2.834735001336e-05 0.0 
2.834735001336e-05 8.068300268397e-04 0.0 
0.0 0.0 -1.233979183903e-04 
-9.615008310342e-05 -2.877711061827e-05 0.0 
-2.877711061827e-05 6.293964481875e-04 0.0 
0.0 0.0 -9.603629528614e-05 
-1.570985069047e-04 2.869057650911e-05 0.0 
2.869057650911e-05 1.042670134457e-03 0.0 
0.0 0.0 -1.569914920818e-04 
-9.804713378094e-05 2.892049478508e-05 0.0 
2.892049478508e-05 6.274327291699e-04 0.0 
0.0 0.0 -9.751120462800e-05 
-1.373039782519e-04 2.945820523949e-05 0.0 
2.945820523949e-05 9.031137517948e-04 0.0 
0.0 0.0 -1.370644644624e-04 
-9.733425656402e-05 -2.696735292952e-05 0.0 
-2.696735292952e-05 6.363689780604e-04 0.0 
0.0 0.0 -9.714421390796e-05 
-1.604810832406e-04 2.925883402761e-05 0.0 
2.925883402761e-05 1.064262862584e-03 0.0 
0.0 0.0 -1.602381950242e-04 
-1.814386097987e-04 -2.325128847214e-05 0.0 
-2.325128847214e-05 1.217845530327e-03 0.0 
0.0 0.0 -1.816843005860e-04 
-1.003684445551e-04 -2.872637610904e-05 0.0 
-2.872637610904e-05 6.585462596242e-04 0.0 
0.0 0.0 -1.002307182508e-04 
-3.526749537505e-05 -3.047241068612e-05 0.0 
-3.047241068612e-05 2.153990238607e-04 0.0 
0.0 0.0 -3.677367655039e-05 
-1.806631145188e-04 2.941902588667e-05 0.0 
2.941902588667e-05 1.208966272057e-03 0.0 
0.0 0.0 -1.810776462098e-04 
-1.033178748637e-04 2.699632970684e-05 0.0 
2.699632970684e-05 6.637091035959e-04 0.0 
0.0 0.0 -1.028007266516e-04 
-1.175293277585e-04 2.819191420696e-05 0.0 
2.819191420696e-05 7.649488685247e-04 0.0 
0.0 0.0 -1.174222657364e-04 
-1.740611927883e-04 3.008308873920e-05 0.0 
3.008308873920e-05 1.179667388234e-03 0.0 
0.0 0.0 -1.766888058523e-04 
-1.524480229041e-04 -2.995968298439e-05 0.0 
-2.995968298439e-05 1.020372756015e-03 0.0 
0.0 0.0 -1.522604622525e-04 
-1.585768344365e-04 -2.913298650394e-05 0.0 
-2.913298650394e-05 1.064240986158e-03 0.0 
0.0 0.0 -1.583819031520e-04 
-1.028812223476e-04 -2.791530224567e-05 0.0 
-2.791530224567e-05 6.762699737186e-04 0.0 
0.0 0.0 -1.027652553003e-04 
-3.047731217096e-05 2.978609752000e-05 0.0 
2.978609752000e-05 1.644412884572e-04 0.0 
0.0 0.0 -3.167095645526e-05 
-1.827018091400e-04 -3.487243475378e-05 0.0 
-3.487243475378e-05 1.223693620193e-03 0.0 
0.0 0.0 -1.803196740198e-04 
-1.299869374800e-04 2.787662672047e-05 0.0 
2.787662672047e-05 8.523815142426e-04 0.0 
0.0 0.0 -1.299076046001e-04 
-1.512839301296e-04 -3.211131163956e-05 0.0 
-3.211131163956e-05 1.010330699503e-03 0.0 
0.0 0.0 -1.510713963618e-04 
-1.740688791628e-04 2.785384488376e-05 0.0 
2.785384488376e-05 1.160296302710e-03 0.0 
0.0 0.0 -1.736733770178e-04 
-2.424829434384e-05 2.135414066938e-05 0.0 
2.135414066938e-05 1.009887765283e-04 0.0 
0.0 0.0 -2.253474224696e-05 
-1.588289344536e-04 2.988448063203e-05 0.0 
2.988448063203e-05 1.053618048293e-03 0.0 
0.0 0.0 -1.588145449557e-04 
-7.398149687921e-05 -2.842214034926e-05 0.0 
-2.842214034926e-05 4.736710158424e-04 0.0 
0.0 0.0 -7.379368512750e-05 
-1.417757164372e-04 -3.019050727827e-05 0.0 
-3.019050727827e-05 9.514786018212e-04 0.0 
0.0 0.0 -1.424765658182e-04 
-1.273110853056e-04 -2.925695132898e-05 0.0 
-2.925695132898e-05 8.481813906053e-04 0.0 
0.0 0.0 -1.274401864931e-04 
-1.007593383753e-04 2.822071280729e-05 0.0 
2.822071280729e-05 6.480510024074e-04 0.0 
0.0 0.0 -1.006432667219e-04 
-1.707598802574e-04 -2.954897052777e-05 0.0 
-2.954897052777e-05 1.153161559221e-03 0.0 
0.0 0.0 -1.712453353817e-04 
-1.329505705343e-04 2.860130427155e-05 0.0 
2.860130427155e-05 8.732611453068e-04 0.0 
0.0 0.0 -1.328871777156e-04 
-9.118212509623e-05 2.844150706971e-05 0.0 
2.844150706971e-05 5.810800157713e-04 0.0 
0.0 0.0 -9.101187559806e-05 
-1.348270760039e-04 -2.858426038110e-05 0.0 
-2.858426038110e-05 8.990222661828e-04 0.0 
0.0 0.0 -1.348432318503e-04 
-2.929431270807e-05 -2.857654389252e-05 0.0 
-2.857654389252e-05 1.760253783659e-04 0.0 
0.0 0.0 -3.121713414881e-05 
-1.537482864892e-04 -2.902787486223e-05 0.0 
-2.902787486223e-05 1.032059817805e-03 0.0 
0.0 0.0 -1.539626484545e-04 
-1.604406715089e-04 -2.964829512843e-05 0.0 
-2.964829512843e-05 1.074466508454e-03 0.0 
0.0 0.0 -1.598244649411e-04 
-1.844616251081e-04 -2.196458036396e-05 0.0 
-2.196458036396e-05 1.231467805983e-03 0.0 
0.0 0.0 -1.850401362575e-04 
-1.635274807000e-04 -2.956880985849e-05 0.0 
-2.956880985849e-05 1.099342516608e-03 0.0 
0.0 0.0 -1.636124299818e-04 
-7.150477036681e-05 -2.776392562661e-05 0.0 
-2.776392562661e-05 4.572663187996e-04 0.0 
0.0 0.0 -7.137223705482e-05 
-1.570462429545e-04 -2.966204224228e-05 0.0 
-2.966204224228e-05 1.054975147839e-03 0.0 
0.0 0.0 -1.570847591254e-04 
-1.810625471898e-04 2.712640566716e-05 0.0 
2.712640566716e-05 1.230837214805e-03 0.0 
0.0 0.0 -1.842233179068e-04 
-1.891002400454e-04 -2.748789620214e-05 0.0 
-2.748789620214e-05 1.278407905451e-03 0.0 
0.0 0.0 -1.900717871215e-04 
-1.657110930776e-04 -2.854937255919e-05 0.0 
-2.854937255919e-05 1.112870521473e-03 0.0 
0.0 0.0 -1.653364313119e-04 
-1.071209963560e-04 -2.863275326497e-05 0.0 
-2.863275326497e-05 7.049432181714e-04 0.0 
0.0 0.0 -1.069186906485e-04 
-1.442583782278e-04 -2.898467953421e-05 0.0 
-2.898467953421e-05 9.652668360639e-04 0.0 
0.0 0.0 -1.443707514742e-04 
-1.759295624301e-04 2.574555557981e-05 0.0 
2.574555557981e-05 1.162894992702e-03 0.0 
0.0 0.0 -1.746475140816e-04 
-1.188179409512e-04 -2.882565480678e-05 0.0 
-2.882565480678e-05 7.850400880713e-04 0.0 
0.0 0.0 -1.181845718321e-04 
-1.584483271371e-04 2.773639164420e-05 0.0 
2.773639164420e-05 1.051528373706e-03 0.0 
0.0 0.0 -1.585795433073e-04 
-1.477641435519e-04 2.859461966958e-05 0.0 
2.859461966958e-05 9.807497853317e-04 0.0 
0.0 0.0 -1.481564718376e-04 
-1.666109147089e-04 -2.970949097526e-05 0.0 
-2.970949097526e-05 1.123406416293e-03 0.0 
0.0 0.0 -1.669465589644e-04 
-1.640742339727e-04 -2.814643695304e-05 0.0 
-2.814643695304e-05 1.102737689409e-03 0.0 
0.0 0.0 -1.639852473733e-04 
-1.101476556860e-04 -1.419773556877e-06 0.0 
-1.419773556877e-06 6.855531227093e-04 0.0 
0.0 0.0 -1.097027053386e-04 
-1.095838507761e-04 5.104018495319e-06 0.0 
5.104018495319e-06 6.852974449944e-04 0.0 
0.0 0.0 -1.096586159380e-04 
-1.492847548809e-04 -3.091516381313e-05 0.0 
-3.091516381313e-05 9.984061546489e-04 0.0 
0.0 0.0 -1.489183339744e-04 
-1.487773235054e-04 2.785619991096e-05 0.0 
2.785619991096e-05 9.847103116342e-04 0.0 
0.0 0.0 -1.489589719869e-04 
-1.316033445496e-04 -2.890310988479e-05 0.0 
-2.890310988479e-05 8.785172676280e-04 0.0 
0.0 0.0 -1.317064244343e-04 
-1.470787480711e-04 -2.886845641437e-05 0.0 
-2.886845641437e-05 9.813735906609e-04 0.0 
0.0 0.0 -1.466314440693e-04 
-1.276790192920e-04 2.827971774625e-05 0.0 
2.827971774625e-05 8.356151426700e-04 0.0 
0.0 0.0 -1.275341994755e-04 
-1.790311321725e-04 1.969961980520e-05 0.0 
1.969961980520e-05 1.177311147527e-03 0.0 
0.0 0.0 -1.770432225081e-04 
-1.075373971259e-04 2.845855733448e-05 0.0 
2.845855733448e-05 6.950205170450e-04 0.0 
0.0 0.0 -1.073226784003e-04 
-1.995879498343e-04 -5.013008806984e-06 0.0 
-5.013008806984e-06 1.363897218258e-03 0.0 
0.0 0.0 -1.985690758598e-04 
-1.206431140158e-04 2.307417823056e-05 0.0 
2.307417823056e-05 7.999499804229e-04 0.0 
0.0 0.0 -1.217990918242e-04 
-1.230873173652e-04 -2.834404514853e-05 0.0 
-2.834404514853e-05 8.168726937961e-04 0.0 
0.0 0.0 -1.229897142350e-04 
-1.277789710916e-04 2.899586617417e-05 0.0 
2.899586617417e-05 8.376167932335e-04 0.0 
0.0 0.0 -1.278593196867e-04 
-6.749379846372e-05 -2.782885043647e-05 0.0 
-2.782885043647e-05 4.285534232864e-04 0.0 
0.0 0.0 -6.718560115948e-05 
-1.130846881410e-04 -2.901620947727e-05 0.0 
-2.901620947727e-05 7.492911164906e-04 0.0 
0.0 0.0 -1.132750687146e-04 
-1.393795706141e-04 2.790993313462e-05 0.0 
2.790993313462e-05 9.183577294076e-04 0.0 
0.0 0.0 -1.393992299975e-04 
-1.313953089638e-04 2.793110906409e-05 0.0 
2.793110906409e-05 8.609063871163e-04 0.0 
0.0 0.0 -1.310746415357e-04 
-1.472158165240e-04 2.758529410816e-05 0.0 
2.758529410816e-05 9.752002146418e-04 0.0 
0.0 0.0 -1.472189500432e-04 
-1.516300742627e-04 2.806244334544e-05 0.0 
2.806244334544e-05 1.001799986608e-03 0.0 
0.0 0.0 -1.512033144533e-04 
-1.566655293626e-04 -2.889951032878e-05 0.0 
-2.889951032878e-05 1.046948901408e-03 0.0 
0.0 0.0 -1.561275327105e-04 
-3.388460750578e-05 -1.545160936620e-05 0.0 
-1.545160936620e-05 2.099343336454e-04 0.0 
0.0 0.0 -3.245576353708e-05 
-1.079103303358e-04 2.933502518126e-05 0.0 
2.933502518126e-05 7.001507540581e-04 0.0 
0.0 0.0 -1.081352097849e-04 
-1.027907419891e-04 -2.789055961483e-05 0.0 
-2.789055961483e-05 6.727593674768e-04 0.0 
0.0 0.0 -1.023828309811e-04 
-1.434897197293e-04 2.686269947909e-05 0.0 
2.686269947909e-05 9.426378339422e-04 0.0 
0.0 0.0 -1.428293200757e-04 
-1.483261696105e-04 -2.883963041716e-05 0.0 
-2.883963041716e-05 9.902814330651e-04 0.0 
0.0 0.0 -1.477595226970e-04 
-1.733622378423e-04 2.696425670561e-05 0.0 
2.696425670561e-05 1.158199599596e-03 0.0 
0.0 0.0 -1.740163136221e-04 
-5.146390240149e-05 3.149198966797e-05 0.0 
3.149198966797e-05 2.950977217837e-04 0.0 
0.0 0.0 -4.910994769955e-05 
-4.998322073950e-05 -2.650173050573e-05 0.0 
-2.650173050573e-05 3.137392583323e-04 0.0 
0.0 0.0 -5.065930366581e-05 
-1.246841514279e-04 2.807070818710e-05 0.0 
2.807070818710e-05 8.153369030926e-04 0.0 
0.0 0.0 -1.245896567492e-04 
-1.074667000404e-04 -2.931017500739e-05 0.0 
-2.931017500739e-05 7.103792899815e-04 0.0 
0.0 0.0 -1.077203783481e-04 
-9.918600810801e-05 -3.218977296722e-05 0.0 
-3.218977296722e-05 6.451476881974e-04 0.0 
0.0 0.0 -9.831899762194e-05 
-1.033843323464e-04 -2.568146961447e-05 0.0 
-2.568146961447e-05 6.823399375890e-04 0.0 
0.0 0.0 -1.033380742667e-04 
-1.467772705035e-04 -2.855532502296e-05 0.0 
-2.855532502296e-05 9.829234791858e-04 0.0 
0.0 0.0 -1.469023935692e-04 
-4.918821938130e-05 -2.784621442943e-05 0.0 
-2.784621442943e-05 3.054917735983e-04 0.0 
0.0 0.0 -4.953709868763e-05 
-1.222003796169e-04 2.866150149173e-05 0.0 
2.866150149173e-05 7.992287747919e-04 0.0 
0.0 0.0 -1.223213871927e-04 
-1.574838851652e-04 -2.884771519407e-05 0.0 
-2.884771519407e-05 1.055743233401e-03 0.0 
0.0 0.0 -1.573814874934e-04 
-5.103366446644e-05 3.083233425307e-05 0.0 
3.083233425307e-05 3.010972732110e-04 0.0 
0.0 0.0 -5.112340052147e-05 
-1.934610965695e-04 -4.298535282019e-06 0.0 
-4.298535282019e-06 1.268654757538e-03 0.0 
0.0 0.0 -1.928379572095e-04 
-1.729742724807e-04 -2.716366689485e-05 0.0 
-2.716366689485e-05 1.161879060048e-03 0.0 
0.0 0.0 -1.728683014225e-04 
-1.159629787201e-04 -2.904469987433e-05 0.0 
-2.904469987433e-05 7.705849919696e-04 0.0 
0.0 0.0 -1.163417091451e-04 
-1.616915685660e-04 2.859224485179e-05 0.0 
2.859224485179e-05 1.074324548804e-03 0.0 
0.0 0.0 -1.618083629464e-04 
-2.727429490673e-05 -7.981424094550e-07 0.0 
-7.981424094550e-07 1.116265976979e-04 0.0 
0.0 0.0 -2.696321564760e-05 
-1.521690046607e-04 -3.000871026997e-05 0.0 
-3.000871026997e-05 1.017696781759e-03 0.0 
0.0 0.0 -1.518707364543e-04 
-1.295839926014e-04 -2.815794342717e-05 0.0 
-2.815794342717e-05 8.619661847659e-04 0.0 
0.0 0.0 -1.295155041898e-04 
-2.359634361323e-05 9.091220455368e-07 0.0 
9.091220455368e-07 1.106951619002e-04 0.0 
0.0 0.0 -2.682779714776e-05 
-1.728538985111e-04 2.680741270793e-05 0.0 
2.680741270793e-05 1.154427413958e-03 0.0 
0.0 0.0 -1.732288690391e-04 
-4.759083390138e-05 -2.831698267297e-05 0.0 
-2.831698267297e-05 2.848913946214e-04 0.0 
0.0 0.0 -4.649687138448e-05 
-1.430104513494e-04 -2.827840335732e-05 0.0 
-2.827840335732e-05 9.522047249633e-04 0.0 
0.0 0.0 -1.424467998190e-04 
-1.308115066644e-04 -2.845406566805e-05 0.0 
-2.845406566805e-05 8.700772173504e-04 0.0 
0.0 0.0 -1.306907721685e-04 
-1.129064275361e-04 -2.856218169756e-05 0.0 
-2.856218169756e-05 7.462380760800e-04 0.0 
0.0 0.0 -1.127972299543e-04 
-1.359129833258e-04 2.979368899475e-05 0.0 
2.979368899475e-05 8.944895224544e-04 0.0 
0.0 0.0 -1.357882224401e-04 
-1.779538886446e-04 2.685602915856e-05 0.0 
2.685602915856e-05 1.186518068831e-03 0.0 
0.0 0.0 -1.774347558581e-04 
-1.457575943922e-04 3.026596853263e-05 0.0 
3.026596853263e-05 9.632506474158e-04 0.0 
0.0 0.0 -1.457400808753e-04 
-1.288002410826e-04 2.805878315534e-05 0.0 
2.805878315534e-05 8.440094574945e-04 0.0 
0.0 0.0 -1.287264812403e-04 
-1.242825439840e-04 -2.804688037007e-05 0.0 
-2.804688037007e-05 8.250067063846e-04 0.0 
0.0 0.0 -1.241942416882e-04 
-1.736395521226e-05 2.354389388036e-05 0.0 
2.354389388036e-05 7.964528863018e-05 0.0 
0.0 0.0 -1.861799679395e-05 
-4.157545693324e-05 2.817385926199e-05 0.0 
2.817385926199e-05 2.365575590948e-04 0.0 
0.0 0.0 -4.141517733842e-05 
-1.678318203631e-04 -2.663064313971e-05 0.0 
-2.663064313971e-05 1.127397061509e-03 0.0 
0.0 0.0 -1.677496568182e-04 
-1.370203440637e-04 -3.226606344672e-05 0.0 
-3.226606344672e-05 9.081664366392e-04 0.0 
0.0 0.0 -1.362805121017e-04 
-1.736141937904e-04 2.716336991301e-05 0.0 
2.716336991301e-05 1.149649766564e-03 0.0 
0.0 0.0 -1.723036539172e-04 
-7.429185192102e-05 2.889322857484e-05 0.0 
2.889322857484e-05 4.644168819778e-04 0.0 
0.0 0.0 -7.414465667103e-05 
-1.649902886651e-04 2.947284893012e-05 0.0 
2.947284893012e-05 1.093935083842e-03 0.0 
0.0 0.0 -1.646925898217e-04 
-1.739966132604e-04 -2.849382622555e-05 0.0 
-2.849382622555e-05 1.167419998479e-03 0.0 
0.0 0.0 -1.733111646468e-04 
-1.056965695515e-04 2.657671323282e-05 0.0 
2.657671323282e-05 6.973803664085e-04 0.0 
0.0 0.0 -1.076913066561e-04 
-1.684634156381e-04 2.502571500154e-05 0.0 
2.502571500154e-05 1.117308510720e-03 0.0 
0.0 0.0 -1.681488932201e-04 
-1.612200699048e-04 -2.968921846860e-05 0.0 
-2.968921846860e-05 1.084762543557e-03 0.0 
0.0 0.0 -1.613920101890e-04 
-1.435042771724e-04 2.827958174112e-05 0.0 
2.827958174112e-05 9.471256299073e-04 0.0 
0.0 0.0 -1.435674306479e-04 
-1.178719447516e-04 2.925779353124e-05 0.0 
2.925779353124e-05 7.691196797978e-04 0.0 
0.0 0.0 -1.179957515531e-04 
-1.230064472571e-04 -2.933976043839e-05 0.0 
-2.933976043839e-05 8.180684852634e-04 0.0 
0.0 0.0 -1.231351811242e-04 
-1.812260547849e-04 -3.047200266982e-05 0.0 
-3.047200266982e-05 1.223288115478e-03 0.0 
0.0 0.0 -1.807056875578e-04 
-1.260212927046e-04 2.933157348944e-05 0.0 
2.933157348944e-05 8.259598448106e-04 0.0 
0.0 0.0 -1.259489979917e-04 
-1.353161328246e-04 2.778264495549e-05 0.0 
2.778264495549e-05 8.897119970146e-04 0.0 
0.0 0.0 -1.352333322325e-04 
-1.267391738953e-04 2.944240283988e-05 0.0 
2.944240283988e-05 8.300608908324e-04 0.0 
0.0 0.0 -1.265040046469e-04 
-1.558042942572e-04 2.960325539106e-05 0.0 
2.960325539106e-05 1.032329659142e-03 0.0 
0.0 0.0 -1.557546880476e-04 
-1.178031641948e-04 -2.833363001983e-05 0.0 
-2.833363001983e-05 7.792538415973e-04 0.0 
0.0 0.0 -1.176363242409e-04 
-7.616423057155e-05 2.888075361391e-05 0.0 
2.888075361391e-05 4.767557616214e-04 0.0 
0.0 0.0 -7.598706826662e-05 
-1.284551892997e-04 2.830356900228e-05 0.0 
2.830356900228e-05 8.414205268390e-04 0.0 
0.0 0.0 -1.284270486071e-04 
-8.163145150663e-05 2.849893936950e-05 0.0 
2.849893936950e-05 5.141388462768e-04 0.0 
0.0 0.0 -8.139240314519e-05 
-1.476035922618e-04 2.790275079514e-05 0.0 
2.790275079514e-05 9.723513416990e-04 0.0 
0.0 0.0 -1.469868445827e-04 
-8.102880366192e-05 -2.822816260586e-05 0.0 
-2.822816260586e-05 5.241451611897e-04 0.0 
0.0 0.0 -8.099228255434e-05 
-1.416684014624e-04 -2.911139421202e-05 0.0 
-2.911139421202e-05 9.446400297649e-04 0.0 
0.0 0.0 -1.413087031611e-04 
-1.704134817182e-04 -2.893451028680e-05 0.0 
-2.893451028680e-05 1.143317166872e-03 0.0 
0.0 0.0 -1.695824168335e-04 
-1.648116269840e-04 2.803138241354e-05 0.0 
2.803138241354e-05 1.093290237044e-03 0.0 
0.0 0.0 -1.644793634901e-04 
-1.128875860972e-04 2.826705620268e-05 0.0 
2.826705620268e-05 7.324835187191e-04 0.0 
0.0 0.0 -1.126879322255e-04 
-1.413103611302e-04 2.856634998349e-05 0.0 
2.856634998349e-05 9.375047760794e-04 0.0 
0.0 0.0 -1.419038077447e-04 
-1.657595976086e-04 2.853389717882e-05 0.0 
2.853389717882e-05 1.104349844714e-03 0.0 
0.0 0.0 -1.661162351013e-04 
-1.653889785276e-04 -2.976188635714e-05 0.0 
-2.976188635714e-05 1.114688989457e-03 0.0 
0.0 0.0 -1.657121520580e-04 
-4.122208403583e-05 -2.733977607716e-05 0.0 
-2.733977607716e-05 2.407308049745e-04 0.0 
0.0 0.0 -4.024936955575e-05 
-1.462865341652e-04 2.791988865304e-05 0.0 
2.791988865304e-05 9.640304959560e-04 0.0 
0.0 0.0 -1.458719015759e-04 
-1.798320892613e-04 3.664169466135e-05 0.0 
3.664169466135e-05 1.207776909166e-03 0.0 
0.0 0.0 -1.808727580342e-04 
-8.155951077410e-05 2.658877336874e-05 0.0 
2.658877336874e-05 5.082367721589e-04 0.0 
0.0 0.0 -8.036834358255e-05 
-1.261065842356e-04 -2.891277945860e-05 0.0 
-2.891277945860e-05 8.392634847212e-04 0.0 
0.0 0.0 -1.261429800108e-04 
-2.464432722711e-05 -2.598410949159e-05 0.0 
-2.598410949159e-05 1.199804601247e-04 0.0 
0.0 0.0 -2.329771006100e-05 
-1.698720281199e-04 2.819353997162e-05 0.0 
2.819353997162e-05 1.134065551803e-03 0.0 
0.0 0.0 -1.704352672439e-04 
-7.209795018933e-05 2.889480946534e-05 0.0 
2.889480946534e-05 4.471234739761e-04 0.0 
0.0 0.0 -7.178447905439e-05 
-1.214879839983e-04 2.129426116121e-05 0.0 
2.129426116121e-05 7.908873499093e-04 0.0 
0.0 0.0 -1.224926751266e-04 
-1.512350690369e-04 3.260960324541e-05 0.0 
3.260960324541e-05 1.003149541653e-03 0.0 
0.0 0.0 -1.513082552986e-04 
-1.410567308220e-04 -2.849265471453e-05 0.0 
-2.849265471453e-05 9.457036391268e-04 0.0 
0.0 0.0 -1.415828201621e-04 
-1.344535840298e-04 2.612046934124e-05 0.0 
2.612046934124e-05 8.995841949147e-04 0.0 
0.0 0.0 -1.366211047096e-04 
-1.341134389053e-04 2.811410486968e-05 0.0 
2.811410486968e-05 8.812581479058e-04 0.0 
0.0 0.0 -1.340535934895e-04 
-8.946040519151e-05 -2.953905219233e-05 0.0 
-2.953905219233e-05 5.742848433877e-04 0.0 
0.0 0.0 -8.827358089900e-05 
-9.333279709743e-05 -2.369397324284e-05 0.0 
-2.369397324284e-05 6.111413459436e-04 0.0 
0.0 0.0 -9.328238720484e-05 
-1.698818200285e-04 -2.882683013526e-05 0.0 
-2.882683013526e-05 1.144701307571e-03 0.0 
0.0 0.0 -1.700100520615e-04 
-1.409975246060e-04 -3.114270166762e-05 0.0 
-3.114270166762e-05 9.412074701777e-04 0.0 
0.0 0.0 -1.409113068204e-04 
-1.224899796510e-04 -2.844927577316e-05 0.0 
-2.844927577316e-05 8.138192071892e-04 0.0 
0.0 0.0 -1.224729735915e-04 
-1.523712328566e-04 3.064679971689e-05 0.0 
3.064679971689e-05 1.008635964013e-03 0.0 
0.0 0.0 -1.522479562080e-04 
-1.188292947714e-04 2.814854163685e-05 0.0 
2.814854163685e-05 7.741609344605e-04 0.0 
0.0 0.0 -1.187265862058e-04 
-7.698231420718e-05 -2.807470773001e-05 0.0 
-2.807470773001e-05 4.953557652573e-04 0.0 
0.0 0.0 -7.679943085705e-05 
-8.618619312566e-05 2.228028664320e-05 0.0 
2.228028664320e-05 5.633842965339e-04 0.0 
0.0 0.0 -8.862593743002e-05 
-1.284395253225e-04 -2.631768161175e-05 0.0 
-2.631768161175e-05 8.441014789476e-04 0.0 
0.0 0.0 -1.266344217576e-04 
-1.074097245906e-04 1.137855673603e-06 0.0 
1.137855673603e-06 7.273751056144e-04 0.0 
0.0 0.0 -1.068299257544e-04 
-1.648361548193e-04 -2.903405778283e-05 0.0 
-2.903405778283e-05 1.103487992394e-03 0.0 
0.0 0.0 -1.640398004813e-04 
-1.125117604938e-04 -2.832657592519e-05 0.0 
-2.832657592519e-05 7.420818515929e-04 0.0 
0.0 0.0 -1.122952594724e-04 
-1.815273626527e-04 2.648876521301e-05 0.0 
2.648876521301e-05 1.237129381465e-03 0.0 
0.0 0.0 -1.850357933615e-04 
-1.677426973633e-04 3.358700303554e-05 0.0 
3.358700303554e-05 1.121534172788e-03 0.0 
0.0 0.0 -1.681766660669e-04 
-1.238211064038e-04 -2.893923336642e-05 0.0 
-2.893923336642e-05 8.228165218213e-04 0.0 
0.0 0.0 -1.237869166313e-04 
-1.864446355504e-04 -3.208766695310e-05 0.0 
-3.208766695310e-05 1.252430825566e-03 0.0 
0.0 0.0 -1.862208944195e-04 
-8.530940149586e-05 -2.872680214247e-05 0.0 
-2.872680214247e-05 5.536185287289e-04 0.0 
0.0 0.0 -8.523934116932e-05 
-1.812060938045e-04 2.774101611193e-05 0.0 
2.774101611193e-05 1.207038039800e-03 0.0 
0.0 0.0 -1.806723702746e-04 
-1.337032776849e-04 -2.817141114612e-05 0.0 
-2.817141114612e-05 8.910030578001e-04 0.0 
0.0 0.0 -1.336599856011e-04 
-1.477881411962e-04 2.807358610009e-05 0.0 
2.807358610009e-05 9.757986870607e-04 0.0 
0.0 0.0 -1.477205131922e-04 
-1.717661370758e-04 -2.763745373205e-05 0.0 
-2.763745373205e-05 1.155465207730e-03 0.0 
0.0 0.0 -1.720177540750e-04 
-8.915482971043e-05 -2.748298977886e-05 0.0 
-2.748298977886e-05 5.839530331415e-04 0.0 
0.0 0.0 -8.937342098373e-05 
-1.408472522219e-04 2.814178914188e-05 0.0 
2.814178914188e-05 9.273096045331e-04 0.0 
0.0 0.0 -1.405419627762e-04 
-1.183094889317e-04 -2.831962265042e-05 0.0 
-2.831962265042e-05 7.845371880710e-04 0.0 
0.0 0.0 -1.182925860037e-04 
-1.362566173497e-04 -2.854051389334e-05 0.0 
-2.854051389334e-05 9.069235503698e-04 0.0 
0.0 0.0 -1.359850532410e-04 
-7.919830953849e-05 -2.789069310031e-05 0.0 
-2.789069310031e-05 5.092955845790e-04 0.0 
0.0 0.0 -7.902140106529e-05 
-1.521909368861e-04 3.155873557746e-05 0.0 
3.155873557746e-05 1.007096083567e-03 0.0 
0.0 0.0 -1.519844081269e-04 
-1.132987595353e-04 2.834154396761e-05 0.0 
2.834154396761e-05 7.356229622935e-04 0.0 
0.0 0.0 -1.132306032040e-04 
-1.320680958621e-04 2.867292103990e-05 0.0 
2.867292103990e-05 8.674712725503e-04 0.0 
0.0 0.0 -1.321542253869e-04 
-1.368300496681e-04 2.752968636588e-05 0.0 
2.752968636588e-05 8.977721242010e-04 0.0 
0.0 0.0 -1.363712481195e-04 
-2.669160915437e-05 -1.546272424362e-05 0.0 
-1.546272424362e-05 1.161110005952e-04 0.0 
0.0 0.0 -2.089024115593e-05 
-1.363872734664e-04 3.073615465078e-05 0.0 
3.073615465078e-05 8.982822443154e-04 0.0 
0.0 0.0 -1.362374425583e-04 
-3.196098953400e-05 -3.152710847565e-05 0.0 
-3.152710847565e-05 1.832351866553e-04 0.0 
0.0 0.0 -3.246432735143e-05 
-3.780823483309e-05 3.089859502925e-05 0.0 
3.089859502925e-05 2.040662805879e-04 0.0 
0.0 0.0 -3.615541251042e-05 
-1.264532196870e-04 2.805256790047e-05 0.0 
2.805256790047e-05 8.282811887478e-04 0.0 
0.0 0.0 -1.265710825771e-04 
-1.650927065987e-04 -2.992799550430e-05 0.0 
-2.992799550430e-05 1.105940052269e-03 0.0 
0.0 0.0 -1.647532235908e-04 
-1.400518033137e-04 2.658927901254e-05 0.0 
2.658927901254e-05 9.276103799496e-04 0.0 
0.0 0.0 -1.408132903889e-04 
-7.975221115210e-05 -2.926681587233e-05 0.0 
-2.926681587233e-05 5.061325512957e-04 0.0 
0.0 0.0 -7.822954250360e-05 
-2.013483297690e-04 2.032612637039e-06 0.0 
2.032612637039e-06 1.329003344546e-03 0.0 
0.0 0.0 -2.013483297690e-04 
-1.035627632493e-05 2.012317785662e-05 0.0 
2.012317785662e-05 3.911320943316e-05 0.0 
0.0 0.0 -1.232439990353e-05 
-8.383816084979e-05 -1.994127170537e-05 0.0 
-1.994127170537e-05 5.413626143026e-04 0.0 
0.0 0.0 -8.324708519681e-05 
-1.271654449798e-04 2.783994873367e-05 0.0 
2.783994873367e-05 8.320575259278e-04 0.0 
0.0 0.0 -1.270911103786e-04 
-1.205324376648e-04 -2.929888805432e-05 0.0 
-2.929888805432e-05 8.005519843790e-04 0.0 
0.0 0.0 -1.206387729067e-04 
-1.013602283131e-04 -2.480997680423e-05 0.0 
-2.480997680423e-05 6.640206223424e-04 0.0 
0.0 0.0 -1.009985469804e-04 
-8.871913647433e-05 2.734607712163e-05 0.0 
2.734607712163e-05 5.647906116567e-04 0.0 
0.0 0.0 -8.863076730824e-05 
-1.311043943365e-04 -2.976717297625e-05 0.0 
-2.976717297625e-05 8.719910144079e-04 0.0 
0.0 0.0 -1.310072861357e-04 
-1.389619207248e-04 -2.862329341105e-05 0.0 
-2.862329341105e-05 9.281576540868e-04 0.0 
0.0 0.0 -1.390016920470e-04 
-1.460738362541e-04 3.043025274219e-05 0.0 
3.043025274219e-05 9.676325484449e-04 0.0 
0.0 0.0 -1.460128267758e-04 
-1.732762100729e-04 3.047090098963e-05 0.0 
3.047090098963e-05 1.141214836478e-03 0.0 
0.0 0.0 -1.716453415534e-04 
-4.497460723320e-05 2.726656903271e-05 0.0 
2.726656903271e-05 2.561921516371e-04 0.0 
0.0 0.0 -4.464496721659e-05 
-1.166209944052e-04 2.853466779788e-05 0.0 
2.853466779788e-05 7.601119053809e-04 0.0 
0.0 0.0 -1.167719096664e-04 
-1.253239379370e-04 2.802640912089e-05 0.0 
2.802640912089e-05 8.204946388047e-04 0.0 
0.0 0.0 -1.253423245625e-04 
-6.775366326737e-05 -3.048229866519e-05 0.0 
-3.048229866519e-05 4.346213084644e-04 0.0 
0.0 0.0 -6.816034660215e-05 
-1.127220931764e-04 3.280867731043e-05 0.0 
3.280867731043e-05 7.331832316127e-04 0.0 
0.0 0.0 -1.127715562385e-04 
-1.406419564968e-04 -3.010518963226e-05 0.0 
-3.010518963226e-05 9.368893413982e-04 0.0 
0.0 0.0 -1.404347219739e-04 
-1.530603703096e-04 -2.920298263434e-05 0.0 
-2.920298263434e-05 1.018521684544e-03 0.0 
0.0 0.0 -1.535177820318e-04 
-2.288599488340e-05 1.289972043286e-06 0.0 
1.289972043286e-06 1.500050201402e-04 0.0 
0.0 0.0 -2.407863984352e-05 
-1.904718743730e-05 -3.796502735245e-05 0.0 
-3.796502735245e-05 7.353718879473e-05 0.0 
0.0 0.0 -1.778391308807e-05 
-4.862036817725e-05 -2.764492479964e-05 0.0 
-2.764492479964e-05 3.006710189870e-04 0.0 
0.0 0.0 -4.850561850037e-05 
-1.250248464412e-04 -2.908499407456e-05 0.0 
-2.908499407456e-05 8.306354519711e-04 0.0 
0.0 0.0 -1.249513133117e-04 
-9.487833492244e-05 -2.821982749961e-05 0.0 
-2.821982749961e-05 6.208435078207e-04 0.0 
0.0 0.0 -9.483030114460e-05 
-8.410233070287e-05 -2.754579270561e-05 0.0 
-2.754579270561e-05 5.457436342908e-04 0.0 
0.0 0.0 -8.407979340540e-05 
-7.564452835468e-05 -2.812380315554e-05 0.0 
-2.812380315554e-05 4.861034660231e-04 0.0 
0.0 0.0 -7.562371400132e-05 
-1.308199925164e-04 2.795456765413e-05 0.0 
2.795456765413e-05 8.583699019635e-04 0.0 
0.0 0.0 -1.308200345188e-04 
-1.492653203134e-04 2.795966396730e-05 0.0 
2.795966396730e-05 9.867209101107e-04 0.0 
0.0 0.0 -1.493429779604e-04 
-1.297619321001e-04 2.813153916154e-05 0.0 
2.813153916154e-05 8.505758307982e-04 0.0 
0.0 0.0 -1.296493136919e-04 
-9.537410332307e-05 2.792962789421e-05 0.0 
2.792962789421e-05 6.106733548119e-04 0.0 
0.0 0.0 -9.522910944095e-05 
-1.456775150903e-04 -3.018176577816e-05 0.0 
-3.018176577816e-05 9.731377158713e-04 0.0 
0.0 0.0 -1.454913560695e-04 
-1.215295702296e-04 2.461975315803e-05 0.0 
2.461975315803e-05 8.148115380054e-04 0.0 
0.0 0.0 -1.235433054540e-04 
-1.607975492377e-04 3.196445582729e-05 0.0 
3.196445582729e-05 1.071803692603e-03 0.0 
0.0 0.0 -1.614296353785e-04 
-1.294007234012e-04 -2.913608251421e-05 0.0 
-2.913608251421e-05 8.607493369835e-04 0.0 
0.0 0.0 -1.292646442145e-04 
-1.305405341983e-04 -2.882629630394e-05 0.0 
-2.882629630394e-05 8.689129694931e-04 0.0 
0.0 0.0 -1.304223873054e-04 
-6.968339329854e-05 -2.972888482406e-05 0.0 
-2.972888482406e-05 4.334906827197e-04 0.0 
0.0 0.0 -6.822727741190e-05 
-9.912831729497e-05 -2.796137707004e-05 0.0 
-2.796137707004e-05 6.504811582310e-04 0.0 
0.0 0.0 -9.898428703081e-05 
-1.338904054535e-04 2.764565306312e-05 0.0 
2.764565306312e-05 8.796508899650e-04 0.0 
0.0 0.0 -1.339603927656e-04 
-1.451942325546e-04 2.545422836756e-05 0.0 
2.545422836756e-05 9.593435678016e-04 0.0 
0.0 0.0 -1.442355194375e-04 
-1.361868027580e-04 2.709053506538e-05 0.0 
2.709053506538e-05 9.012697796478e-04 0.0 
0.0 0.0 -1.345837404303e-04 
-7.449260603113e-05 -2.324565781608e-05 0.0 
-2.324565781608e-05 4.730958793735e-04 0.0 
0.0 0.0 -7.319231467821e-05 
-1.351502038915e-04 2.830190167801e-05 0.0 
2.830190167801e-05 8.885438377553e-04 0.0 
0.0 0.0 -1.351067771782e-04 
-8.277379542059e-05 -2.675056815443e-05 0.0 
-2.675056815443e-05 5.366126160003e-04 0.0 
0.0 0.0 -8.276526902223e-05 
-4.268302624522e-05 2.966411434536e-05 0.0 
2.966411434536e-05 2.450626322876e-04 0.0 
0.0 0.0 -4.217020858377e-05 
-1.783377964352e-04 -2.878462420289e-05 0.0 
-2.878462420289e-05 1.216695363592e-03 0.0 
0.0 0.0 -1.804362660462e-04 
-4.529678387534e-05 2.926161683405e-05 0.0 
2.926161683405e-05 2.590325448345e-04 0.0 
0.0 0.0 -4.529806102550e-05 
-8.742939480876e-05 2.790769408488e-05 0.0 
2.790769408488e-05 5.558475884308e-04 0.0 
0.0 0.0 -8.733313829944e-05 
-1.317265343520e-04 -2.980209858436e-05 0.0 
-2.980209858436e-05 8.750838916963e-04 0.0 
0.0 0.0 -1.314978247514e-04 
-7.591084973546e-05 2.107875529606e-05 0.0 
2.107875529606e-05 4.931826175602e-04 0.0 
0.0 0.0 -7.859944172783e-05 
-1.334719851974e-04 -2.966915358544e-05 0.0 
-2.966915358544e-05 8.920345164479e-04 0.0 
0.0 0.0 -1.335848452069e-04 
-6.387562636780e-05 -3.268343600872e-05 0.0 
-3.268343600872e-05 4.032800898130e-04 0.0 
0.0 0.0 -6.423763444998e-05 
-1.136812058642e-04 -2.481450603128e-05 0.0 
-2.481450603128e-05 7.554211615018e-04 0.0 
0.0 0.0 -1.173522912428e-04 
-1.350637719422e-04 -2.838472714175e-05 0.0 
-2.838472714175e-05 8.988460543843e-04 0.0 
0.0 0.0 -1.347247148155e-04 
-1.171592619295e-04 -2.801384878721e-05 0.0 
-2.801384878721e-05 7.755561146277e-04 0.0 
0.0 0.0 -1.170018866078e-04 
-1.217089587309e-04 -2.902247236899e-05 0.0 
-2.902247236899e-05 8.097798257773e-04 0.0 
0.0 0.0 -1.219000842292e-04 
-2.184335631700e-05 -1.729926300555e-05 0.0 
-1.729926300555e-05 1.250103729472e-04 0.0 
0.0 0.0 -2.233965624082e-05 
-1.775429286585e-04 -2.993860203194e-05 0.0 
-2.993860203194e-05 1.168952343716e-03 0.0 
0.0 0.0 -1.728850973588e-04 
-9.777928932074e-05 -2.702797086344e-05 0.0 
-2.702797086344e-05 6.417468029030e-04 0.0 
0.0 0.0 -9.771858906392e-05 
-1.742936274983e-04 3.098695444566e-05 0.0 
3.098695444566e-05 1.160612036868e-03 0.0 
0.0 0.0 -1.731059224200e-04 
-1.475958375390e-04 -2.938015971493e-05 0.0 
-2.938015971493e-05 9.867581376832e-04 0.0 
0.0 0.0 -1.473178670231e-04 
-1.394115090974e-04 2.895092753690e-05 0.0 
2.895092753690e-05 9.183306099949e-04 0.0 
0.0 0.0 -1.394094752486e-04 
-1.392759160733e-04 -2.661746757661e-05 0.0 
-2.661746757661e-05 9.284264619517e-04 0.0 
0.0 0.0 -1.390298226761e-04 
-8.994283602845e-05 2.778083834669e-05 0.0 
2.778083834669e-05 5.730895634602e-04 0.0 
0.0 0.0 -8.984374554363e-05 
-2.917258118515e-05 2.376164554401e-05 0.0 
2.376164554401e-05 1.745437757761e-04 0.0 
0.0 0.0 -3.155138587282e-05 
-2.317643182854e-05 1.790083138541e-05 0.0 
1.790083138541e-05 9.845334346925e-05 0.0 
0.0 0.0 -2.398754234351e-05 
-1.432208171698e-04 2.892878557249e-05 0.0 
2.892878557249e-05 9.478265663156e-04 0.0 
0.0 0.0 -1.437459767248e-04 
-1.740260011077e-04 2.826019241499e-05 0.0 
2.826019241499e-05 1.153801197259e-03 0.0 
0.0 0.0 -1.722084272143e-04 
-8.118601345419e-05 -2.611344377703e-05 0.0 
-2.611344377703e-05 5.279662901466e-04 0.0 
0.0 0.0 -8.139371786675e-05 
-1.500944745800e-04 2.850222383989e-05 0.0 
2.850222383989e-05 9.934228736818e-04 0.0 
0.0 0.0 -1.501054273671e-04 
-7.521111464244e-05 2.846605665054e-05 0.0 
2.846605665054e-05 4.657051250380e-04 0.0 
0.0 0.0 -7.503141475880e-05 
-1.512386812048e-04 -2.992568848289e-05 0.0 
-2.992568848289e-05 1.010913185445e-03 0.0 
0.0 0.0 -1.508421041237e-04 
-1.913679647201e-04 1.633067843082e-05 0.0 
1.633067843082e-05 1.304046368860e-03 0.0 
0.0 0.0 -1.899801870201e-04 
-8.107065812765e-06 2.346749919756e-06 0.0 
2.346749919756e-06 3.465691143960e-05 0.0 
0.0 0.0 -6.768710104395e-06 
-2.012431250737e-04 -5.135354168430e-06 0.0 
-5.135354168430e-06 1.328125823973e-03 0.0 
0.0 0.0 -2.012431250738e-04 
-2.010076978229e-04 5.129027623315e-07 0.0 
5.129027623315e-07 1.332224423205e-03 0.0 
0.0 0.0 -2.010076978229e-04 
-1.200525084162e-04 -2.960169498126e-05 0.0 
-2.960169498126e-05 7.774099100136e-04 0.0 
0.0 0.0 -1.193279669386e-04 
-9.640785059628e-05 -2.657435829226e-05 0.0 
-2.657435829226e-05 6.329376874412e-04 0.0 
0.0 0.0 -9.642369099328e-05 
-1.430993903661e-04 -2.855154632445e-05 0.0 
-2.855154632445e-05 9.576101063938e-04 0.0 
0.0 0.0 -1.431539317715e-04 
-9.069725416876e-05 -2.857026822921e-05 0.0 
-2.857026822921e-05 5.911546440220e-04 0.0 
0.0 0.0 -9.061723822400e-05 
-3.022990634783e-05 -2.681786409130e-05 0.0 
-2.681786409130e-05 1.822763229384e-04 0.0 
0.0 0.0 -3.143827221009e-05 
-2.037753453247e-05 -2.478655429001e-05 0.0 
-2.478655429001e-05 8.790842240506e-05 0.0 
0.0 0.0 -1.801817686168e-05 
-1.836175097671e-04 -2.402430245032e-05 0.0 
-2.402430245032e-05 1.223987652140e-03 0.0 
0.0 0.0 -1.814249121503e-04 
-1.450545934085e-04 -3.153145532631e-05 0.0 
-3.153145532631e-05 9.685145142433e-04 0.0 
0.0 0.0 -1.447226300079e-04 
-1.125869054840e-04 -2.748101964700e-05 0.0 
-2.748101964700e-05 7.294325003239e-04 0.0 
0.0 0.0 -1.083718385576e-04 
-1.962159152819e-04 -1.434651956338e-06 0.0 
-1.434651956338e-06 1.365722808943e-03 0.0 
0.0 0.0 -1.985491694924e-04 
-5.585822177885e-05 -3.143630658045e-05 0.0 
-3.143630658045e-05 3.376755851757e-04 0.0 
0.0 0.0 -5.423556500690e-05 
-2.007881053171e-04 -1.726199718446e-06 0.0 
-1.726199718446e-06 1.364640639189e-03 0.0 
0.0 0.0 -1.987362728011e-04 
-1.448517594688e-04 2.793135192776e-05 0.0 
2.793135192776e-05 9.587643079544e-04 0.0 
0.0 0.0 -1.450563315224e-04 
-9.484276981656e-05 -2.674005154729e-05 0.0 
-2.674005154729e-05 6.234132904817e-04 0.0 
0.0 0.0 -9.504591620249e-05 
-1.382279383007e-04 2.787393037445e-05 0.0 
2.787393037445e-05 9.097739666025e-04 0.0 
0.0 0.0 -1.381945852821e-04 
-9.142868377808e-05 2.725850192794e-05 0.0 
2.725850192794e-05 5.832477346610e-04 0.0 
0.0 0.0 -9.142251929394e-05 
-4.742959093977e-05 3.178494059526e-05 0.0 
3.178494059526e-05 2.793740196453e-04 0.0 
0.0 0.0 -4.740468724644e-05 
-8.571259270612e-05 2.828259101351e-05 0.0 
2.828259101351e-05 5.446684396391e-04 0.0 
0.0 0.0 -8.592027974235e-05 
-1.533744480417e-04 2.894142802439e-05 0.0 
2.894142802439e-05 1.015636410024e-03 0.0 
0.0 0.0 -1.535624635791e-04 
-1.726464644829e-04 -3.048637260420e-05 0.0 
-3.048637260420e-05 1.163840887987e-03 0.0 
0.0 0.0 -1.733086171842e-04 
-9.280503597506e-05 2.727322910805e-05 0.0 
2.727322910805e-05 5.925489514016e-04 0.0 
0.0 0.0 -9.272779504641e-05 
-1.556220947506e-04 2.834035430819e-05 0.0 
2.834035430819e-05 1.030951438499e-03 0.0 
0.0 0.0 -1.554407367389e-04 
0.0 0.0 0.0 
0.0 0.0 0.0 
0.0 0.0 0.0 
-9.414991845574e-05 2.689042394907e-05 0.0 
2.689042394907e-05 6.016400273679e-04 0.0 
0.0 0.0 -9.399423243866e-05 
-1.601427960654e-04 -3.089969489527e-05 0.0 
-3.089969489527e-05 1.075322883485e-03 0.0 
0.0 0.0 -1.599578041173e-04 
-8.403714033751e-05 2.869873894183e-05 0.0 
2.869873894183e-05 5.323289088036e-04 0.0 
0.0 0.0 -8.424104700772e-05 
-7.551475753824e-05 -2.649474593413e-05 0.0 
-2.649474593413e-05 4.894460977115e-04 0.0 
0.0 0.0 -7.579321247091e-05 
-1.378493770478e-04 -2.790966319756e-05 0.0 
-2.790966319756e-05 9.196714216363e-04 0.0 
0.0 0.0 -1.378141772466e-04 
-4.197657932346e-05 3.036843921012e-05 0.0 
3.036843921012e-05 2.488746108878e-04 0.0 
0.0 0.0 -4.469345153978e-05 
-6.356553012414e-05 -1.790556961603e-05 0.0 
-1.790556961603e-05 3.571998655218e-04 0.0 
0.0 0.0 -5.800805537475e-05 
-5.963646489739e-05 -2.697912930355e-05 0.0 
-2.697912930355e-05 4.061213774054e-04 0.0 
0.0 0.0 -6.293882513644e-05 
-7.444587698182e-05 2.773637856154e-05 0.0 
2.773637856154e-05 4.649609944167e-04 0.0 
0.0 0.0 -7.460064588462e-05 
-1.268907598115e-04 -2.860718727315e-05 0.0 
-2.860718727315e-05 8.433503837867e-04 0.0 
0.0 0.0 -1.266626700847e-04 
-1.224386685492e-04 2.875829832121e-05 0.0 
2.875829832121e-05 7.993143987396e-04 0.0 
0.0 0.0 -1.222099179032e-04 
-1.550707846259e-04 -3.021300247570e-05 0.0 
-3.021300247570e-05 1.039277942014e-03 0.0 
0.0 0.0 -1.550846054886e-04 
-1.832450820655e-04 1.991288128733e-05 0.0 
1.991288128733e-05 1.215795306098e-03 0.0 
0.0 0.0 -1.836391296960e-04 
-6.655985465225e-05 1.933551370614e-05 0.0 
1.933551370614e-05 4.236408710896e-04 0.0 
0.0 0.0 -6.856221390244e-05 
-1.539423275274e-04 -3.704467856056e-05 0.0 
-3.704467856056e-05 1.025688764769e-03 0.0 
0.0 0.0 -1.542931291103e-04 
-1.848510975897e-04 1.848398553320e-05 0.0 
1.848398553320e-05 1.219703446086e-03 0.0 
0.0 0.0 -1.842621829813e-04 
-8.571771551762e-05 2.855827741082e-05 0.0 
2.855827741082e-05 5.438756567258e-04 0.0 
0.0 0.0 -8.561402555334e-05 
-3.203347885951e-05 3.153292785458e-05 0.0 
3.153292785458e-05 1.785175093333e-04 0.0 
0.0 0.0 -3.288300492123e-05 
-7.987216545887e-05 -2.346764247849e-05 0.0 
-2.346764247849e-05 5.184929031400e-04 0.0 
0.0 0.0 -7.995251146095e-05 
-1.212808198145e-04 -2.827766812275e-05 0.0 
-2.827766812275e-05 8.042920459384e-04 0.0 
0.0 0.0 -1.212446555230e-04 
-1.571887129407e-04 2.934596798488e-05 0.0 
2.934596798488e-05 1.038696799089e-03 0.0 
0.0 0.0 -1.564536520703e-04 
-1.218972312950e-04 2.856394456649e-05 0.0 
2.856394456649e-05 7.946681320418e-04 0.0 
0.0 0.0 -1.216241541690e-04 
-3.687132775950e-05 -1.707295352198e-05 0.0 
-1.707295352198e-05 2.178919936982e-04 0.0 
0.0 0.0 -3.514573890614e-05 
-1.365304663594e-04 -3.020632721963e-05 0.0 
-3.020632721963e-05 9.106175701847e-04 0.0 
0.0 0.0 -1.364410292409e-04 
-5.340251844815e-05 3.227075763275e-05 0.0 
3.227075763275e-05 3.197704478175e-04 0.0 
0.0 0.0 -5.262769246444e-05 
-1.221027789088e-04 -2.890393133813e-05 0.0 
-2.890393133813e-05 8.084198513028e-04 0.0 
0.0 0.0 -1.218536047623e-04 
-1.315166503229e-04 3.036725150384e-05 0.0 
3.036725150384e-05 8.626782461118e-04 0.0 
0.0 0.0 -1.313414595827e-04 
-1.426434875643e-04 2.845461346825e-05 0.0 
2.845461346825e-05 9.398077750181e-04 0.0 
0.0 0.0 -1.423708775668e-04 
-1.391130870296e-04 -2.561595399108e-05 0.0 
-2.561595399108e-05 9.319163416573e-04 0.0 
0.0 0.0 -1.424111980137e-04 
-7.359597002428e-05 -2.624347751830e-05 0.0 
-2.624347751830e-05 4.769960883137e-04 0.0 
0.0 0.0 -7.400431453448e-05 
-3.726862459375e-05 2.779553031089e-05 0.0 
2.779553031089e-05 2.059200017464e-04 0.0 
0.0 0.0 -3.689331396917e-05 
-1.412883241773e-04 3.117267937368e-05 0.0 
3.117267937368e-05 9.320815795036e-04 0.0 
0.0 0.0 -1.412299401741e-04 
-5.695030605691e-05 2.980577594809e-05 0.0 
2.980577594809e-05 3.524536248651e-04 0.0 
0.0 0.0 -5.785728901387e-05 
-1.619887946569e-05 3.142044942513e-05 0.0 
3.142044942513e-05 6.578946746101e-05 0.0 
0.0 0.0 -1.807788326025e-05 
-1.825504858472e-04 2.573963131551e-05 0.0 
2.573963131551e-05 1.217305172889e-03 0.0 
0.0 0.0 -1.835083836816e-04 
-1.729233565602e-04 2.872122229116e-05 0.0 
2.872122229116e-05 1.159887577617e-03 0.0 
0.0 0.0 -1.736153457326e-04 
-1.409164917213e-05 -2.430425574027e-06 0.0 
-2.430425574027e-06 4.702851798331e-05 0.0 
0.0 0.0 -1.411580091908e-05 
-1.463665932977e-04 -3.126704961804e-05 0.0 
-3.126704961804e-05 9.787427797795e-04 0.0 
0.0 0.0 -1.463746444899e-04 
-5.845062236023e-05 -2.645214861765e-05 0.0 
-2.645214861765e-05 3.686249821293e-04 0.0 
0.0 0.0 -5.830856659963e-05 
-6.281564360845e-05 3.169608016734e-05 0.0 
3.169608016734e-05 3.841253318981e-04 0.0 
0.0 0.0 -6.293782921230e-05 
-1.650668794472e-04 2.900743383490e-05 0.0 
2.900743383490e-05 1.099051719168e-03 0.0 
0.0 0.0 -1.651106757487e-04 
-1.420507125182e-04 -2.816985865578e-05 0.0 
-2.816985865578e-05 9.486624777595e-04 0.0 
0.0 0.0 -1.420128425420e-04 
-1.597126278327e-04 2.832051794153e-05 0.0 
2.832051794153e-05 1.060784632571e-03 0.0 
0.0 0.0 -1.597282110823e-04 
-9.370204679761e-05 -2.720544142818e-05 0.0 
-2.720544142818e-05 6.123683048539e-04 0.0 
0.0 0.0 -9.358332744048e-05 
-1.060009958935e-04 3.119096932655e-06 0.0 
3.119096932655e-06 7.289348751363e-04 0.0 
0.0 0.0 -1.065887642422e-04 
-1.941219239478e-04 -5.797046838501e-06 0.0 
-5.797046838501e-06 1.266619729961e-03 0.0 
0.0 0.0 -1.922307546206e-04 
-5.313245642963e-05 3.042191767076e-05 0.0 
3.042191767076e-05 3.144966903172e-04 0.0 
0.0 0.0 -5.312725273094e-05 
-1.687809558173e-04 -2.631258109430e-05 0.0 
-2.631258109430e-05 1.128223470622e-03 0.0 
0.0 0.0 -1.681832374459e-04 
-1.273764443761e-04 -2.878158037897e-05 0.0 
-2.878158037897e-05 8.455758404914e-04 0.0 
0.0 0.0 -1.271565067773e-04 
-3.822255344261e-05 2.500156110728e-05 0.0 
2.500156110728e-05 2.364164359659e-04 0.0 
0.0 0.0 -4.338531818388e-05 
-1.526166386163e-04 2.805935182056e-05 0.0 
2.805935182056e-05 1.007602313688e-03 0.0 
0.0 0.0 -1.522749921841e-04 
-9.947746693308e-05 2.785738393031e-05 0.0 
2.785738393031e-05 6.395594624911e-04 0.0 
0.0 0.0 -9.942043292989e-05 
-2.527098467302e-05 3.065658406321e-06 0.0 
3.065658406321e-06 1.096951272292e-04 0.0 
0.0 0.0 -2.686452779226e-05 
-8.455323570062e-05 2.729291629105e-05 0.0 
2.729291629105e-05 5.361235094493e-04 0.0 
0.0 0.0 -8.448194383576e-05 
-1.482631539770e-04 2.903868462658e-05 0.0 
2.903868462658e-05 9.945552025979e-04 0.0 
0.0 0.0 -1.487312575846e-04 
-1.536438978435e-04 -2.997531100621e-05 0.0 
-2.997531100621e-05 1.028351940357e-03 0.0 
0.0 0.0 -1.531470540813e-04 
-4.003077281978e-05 -2.830715996030e-05 0.0 
-2.830715996030e-05 2.471369193857e-04 0.0 
0.0 0.0 -4.069786302508e-05 
-1.167976821101e-04 -1.770134624163e-05 0.0 
-1.770134624163e-05 8.139301953201e-04 0.0 
0.0 0.0 -1.211443205810e-04 
-1.611165232338e-04 2.978772478272e-05 0.0 
2.978772478272e-05 1.070172218379e-03 0.0 
0.0 0.0 -1.607673801326e-04 
-1.654344347163e-04 -2.702413096073e-05 0.0 
-2.702413096073e-05 1.117079121565e-03 0.0 
0.0 0.0 -1.664840065771e-04 
-8.012874751740e-05 2.708679385402e-05 0.0 
2.708679385402e-05 5.044541792441e-04 0.0 
0.0 0.0 -8.027607217676e-05 
-6.457567760665e-05 2.897485867730e-05 0.0 
2.897485867730e-05 3.931630492274e-04 0.0 
0.0 0.0 -6.500901228656e-05 
-1.319964825975e-04 2.994843719676e-05 0.0 
2.994843719676e-05 8.668112520758e-04 0.0 
0.0 0.0 -1.317940137408e-04 
-1.379973298544e-04 -3.231272729127e-05 0.0 
-3.231272729127e-05 9.176099760799e-04 0.0 
0.0 0.0 -1.391846276019e-04 
-2.511391392826e-05 -2.252014201736e-06 0.0 
-2.252014201736e-06 1.091572524748e-04 0.0 
0.0 0.0 -2.644390370036e-05 
-1.911173997413e-04 2.513512913460e-07 0.0 
2.513512913460e-07 1.307038771946e-03 0.0 
0.0 0.0 -1.903768894597e-04 
-1.947762233824e-04 2.804254327122e-06 0.0 
2.804254327122e-06 1.266513292292e-03 0.0 
0.0 0.0 -1.921796786394e-04 
-1.243941132727e-04 -2.875762744524e-05 0.0 
-2.875762744524e-05 8.122420463557e-04 0.0 
0.0 0.0 -1.258162180156e-04 
-1.867429468804e-04 -3.423015533406e-05 0.0 
-3.423015533406e-05 1.277419804644e-03 0.0 
0.0 0.0 -1.882556412575e-04 
-1.928393192665e-04 1.313739391776e-05 0.0 
1.313739391776e-05 1.270533835261e-03 0.0 
0.0 0.0 -1.928249870753e-04 
-9.825942552837e-05 2.769137061349e-05 0.0 
2.769137061349e-05 6.308847079493e-04 0.0 
0.0 0.0 -9.814123251156e-05 
-9.240950567659e-05 -2.688842748606e-05 0.0 
-2.688842748606e-05 6.034653479681e-04 0.0 
0.0 0.0 -9.230175702903e-05 
-1.924550016248e-04 -5.517505549700e-06 0.0 
-5.517505549700e-06 1.309202189480e-03 0.0 
0.0 0.0 -1.898303498781e-04 
0.0 0.0 0.0 
0.0 0.0 0.0 
0.0 0.0 0.0 
-5.986600181462e-05 3.134474346182e-05 0.0 
3.134474346182e-05 3.637594613067e-04 0.0 
0.0 0.0 -5.912561730725e-05 
-1.277191406744e-04 3.185114804781e-05 0.0 
3.185114804781e-05 8.113680378929e-04 0.0 
0.0 0.0 -1.249421346972e-04 
-7.954199844612e-05 -2.599168722282e-05 0.0 
-2.599168722282e-05 5.172406604270e-04 0.0 
0.0 0.0 -7.970319495692e-05 
-8.344577563047e-05 2.767374510833e-05 0.0 
2.767374510833e-05 5.269368746357e-04 0.0 
0.0 0.0 -8.320397106721e-05 
-5.123352415357e-05 -1.962082412885e-05 0.0 
-1.962082412885e-05 2.833973025222e-04 0.0 
0.0 0.0 -4.794777681703e-05 
-5.363517740645e-05 -2.722736862369e-05 0.0 
-2.722736862369e-05 3.397176592673e-04 0.0 
0.0 0.0 -5.292094912726e-05 
-1.229699465830e-04 -2.474218581881e-05 0.0 
-2.474218581881e-05 8.338820409090e-04 0.0 
0.0 0.0 -1.243503989146e-04 
-8.954054874187e-05 -2.810899154469e-05 0.0 
-2.810899154469e-05 5.833404363378e-04 0.0 
0.0 0.0 -8.944382273678e-05 
-6.985122537492e-05 2.547846832151e-05 0.0 
2.547846832151e-05 4.232868362094e-04 0.0 
0.0 0.0 -6.875210277632e-05 
-1.622986423916e-04 3.030474729067e-05 0.0 
3.030474729067e-05 1.075790270672e-03 0.0 
0.0 0.0 -1.616748170441e-04 
-1.970457297167e-04 -4.615350947610e-07 0.0 
-4.615350947610e-07 1.365353191212e-03 0.0 
0.0 0.0 -1.987468137814e-04 
-2.011643228250e-04 -1.059779547839e-05 0.0 
-1.059779547839e-05 1.364052595584e-03 0.0 
0.0 0.0 -1.980937377599e-04 
-9.693254618166e-05 2.783443467965e-05 0.0 
2.783443467965e-05 6.218009159431e-04 0.0 
0.0 0.0 -9.686140561256e-05 
-1.156312054849e-04 1.562675777246e-05 0.0 
1.562675777246e-05 7.473137010807e-04 0.0 
0.0 0.0 -1.181631233816e-04 
-1.315446083417e-05 9.267234980748e-06 0.0 
9.267234980748e-06 7.174483292748e-05 0.0 
0.0 0.0 -1.382283957119e-05 
-3.950432290439e-05 -3.304652588177e-05 0.0 
-3.304652588177e-05 2.232498512061e-04 0.0 
0.0 0.0 -3.848526569788e-05 
-4.026754611448e-05 -1.523950676683e-05 0.0 
-1.523950676683e-05 2.585395099571e-04 0.0 
0.0 0.0 -4.089435477168e-05 
-4.405717477573e-05 -2.840252196370e-05 0.0 
-2.840252196370e-05 2.593828358352e-04 0.0 
0.0 0.0 -4.353896887732e-05 
-1.369891124347e-04 -2.938640967182e-05 0.0 
-2.938640967182e-05 9.110848461242e-04 0.0 
0.0 0.0 -1.367406709454e-04 
-8.197230901988e-05 2.741985235272e-05 0.0 
2.741985235272e-05 5.176025942286e-04 0.0 
0.0 0.0 -8.189493801327e-05 
-8.833783776842e-05 -2.742859021068e-05 0.0 
-2.742859021068e-05 5.752104247670e-04 0.0 
0.0 0.0 -8.819787836180e-05 
-2.759805077317e-05 -2.177954618106e-05 0.0 
-2.177954618106e-05 1.516326812049e-04 0.0 
0.0 0.0 -2.410601229523e-05 
-1.783949706295e-04 4.652042299768e-06 0.0 
4.652042299768e-06 1.155328432911e-03 0.0 
0.0 0.0 -1.764490618968e-04 
-8.697929300319e-05 -2.712992243026e-05 0.0 
-2.712992243026e-05 5.660070619168e-04 0.0 
0.0 0.0 -8.689161518363e-05 
-1.811862770176e-04 2.958422209347e-05 0.0 
2.958422209347e-05 1.212546250600e-03 0.0 
0.0 0.0 -1.819436774484e-04 
-1.654326848783e-04 -2.150075195991e-05 0.0 
-2.150075195991e-05 1.111682717818e-03 0.0 
0.0 0.0 -1.676190675002e-04 
-1.990579489887e-04 7.558524711792e-06 0.0 
7.558524711792e-06 1.367618541641e-03 0.0 
0.0 0.0 -1.979127976728e-04 
-1.984740657803e-04 6.169813976071e-06 0.0 
6.169813976071e-06 1.366684838106e-03 0.0 
0.0 0.0 -1.987274449783e-04 
-1.264382104229e-04 2.327908082404e-05 0.0 
2.327908082404e-05 8.335131054815e-04 0.0 
0.0 0.0 -1.247270797671e-04 
-9.081273998971e-05 -2.642393334738e-05 0.0 
-2.642393334738e-05 5.943836386239e-04 0.0 
0.0 0.0 -9.095240399918e-05 
-5.659837629473e-05 2.310276724227e-05 0.0 
2.310276724227e-05 3.554825826269e-04 0.0 
0.0 0.0 -5.827376162698e-05 
-9.543789626242e-05 2.821234483008e-05 0.0 
2.821234483008e-05 6.121934733358e-04 0.0 
0.0 0.0 -9.551854370315e-05 
-2.014992525440e-04 -3.363348043908e-06 0.0 
-3.363348043908e-06 1.330768717372e-03 0.0 
0.0 0.0 -2.014992525440e-04 
-2.911856940717e-05 -3.120254985375e-05 0.0 
-3.120254985375e-05 1.523266154115e-04 0.0 
0.0 0.0 -2.840051313461e-05 
-3.367815072839e-05 -2.539476975202e-05 0.0 
-2.539476975202e-05 1.888854888445e-04 0.0 
0.0 0.0 -3.342821812567e-05 
-1.750673059660e-04 -2.242675268741e-05 0.0 
-2.242675268741e-05 1.168754862597e-03 0.0 
0.0 0.0 -1.734041932760e-04 
-1.140629508000e-04 1.641024004697e-06 0.0 
1.641024004697e-06 7.886218254393e-04 0.0 
0.0 0.0 -1.157284414847e-04 
-1.828276393895e-04 3.087967014604e-05 0.0 
3.087967014604e-05 1.221678860241e-03 0.0 
0.0 0.0 -1.828919613360e-04 
-1.607219730026e-04 -3.054484747269e-05 0.0 
-3.054484747269e-05 1.076626864861e-03 0.0 
0.0 0.0 -1.604417944905e-04 
-1.759974315114e-04 2.950983775753e-05 0.0 
2.950983775753e-05 1.175337678647e-03 0.0 
0.0 0.0 -1.762554578086e-04 
-1.677687622884e-04 -3.310916950601e-05 0.0 
-3.310916950601e-05 1.126220187005e-03 0.0 
0.0 0.0 -1.670365378361e-04 
-1.261810872000e-04 2.733892666963e-05 0.0 
2.733892666963e-05 8.227216474371e-04 0.0 
0.0 0.0 -1.281412631256e-04 
-6.984160407426e-05 -2.569852845702e-05 0.0 
-2.569852845702e-05 4.502664572317e-04 0.0 
0.0 0.0 -7.011576570921e-05 
-7.045526019658e-05 2.772076042237e-05 0.0 
2.772076042237e-05 4.380896674180e-04 0.0 
0.0 0.0 -7.073545507566e-05 
-1.466548664850e-04 2.792940741624e-05 0.0 
2.792940741624e-05 9.823660011168e-04 0.0 
0.0 0.0 -1.494458990106e-04 
-1.706023771645e-04 -3.477697252798e-05 0.0 
-3.477697252798e-05 1.150206027511e-03 0.0 
0.0 0.0 -1.713759566437e-04 
-1.085001106667e-04 5.928666841059e-06 0.0 
5.928666841059e-06 6.853690661460e-04 0.0 
0.0 0.0 -1.101783339608e-04 
-1.150649004483e-04 1.412858253897e-06 0.0 
1.412858253897e-06 7.864362268725e-04 0.0 
0.0 0.0 -1.151410349708e-04 
-1.223216217609e-04 -9.643435354381e-06 0.0 
-9.643435354381e-06 8.365929199838e-04 0.0 
0.0 0.0 -1.236345454383e-04 
-1.294729616351e-04 -3.600365409418e-05 0.0 
-3.600365409418e-05 8.499666954327e-04 0.0 
0.0 0.0 -1.270110218628e-04 
-3.781341392471e-05 2.507622857635e-05 0.0 
2.507622857635e-05 2.052845259731e-04 0.0 
0.0 0.0 -3.595854163006e-05 
-6.458682171984e-05 2.659164458955e-05 0.0 
2.659164458955e-05 3.972184272214e-04 0.0 
0.0 0.0 -6.502768632134e-05 
-1.923886982600e-04 1.320998767323e-05 0.0 
1.320998767323e-05 1.306937799646e-03 0.0 
0.0 0.0 -1.903965550180e-04 
-1.361980047059e-04 -3.247265742576e-05 0.0 
-3.247265742576e-05 9.100748945017e-04 0.0 
0.0 0.0 -1.372586556570e-04 
-1.944603101426e-04 2.205610195430e-05 0.0 
2.205610195430e-05 1.300606094326e-03 0.0 
0.0 0.0 -1.942983085767e-04 
-1.827075834453e-04 -2.487186144062e-05 0.0 
-2.487186144062e-05 1.245028194062e-03 0.0 
0.0 0.0 -1.823366321910e-04 
-1.526241956249e-04 -2.882515710348e-05 0.0 
-2.882515710348e-05 1.018355065020e-03 0.0 
0.0 0.0 -1.518848343264e-04 
-1.838055376607e-04 -2.220867482896e-05 0.0 
-2.220867482896e-05 1.227930453973e-03 0.0 
0.0 0.0 -1.822360600334e-04 
-9.189141723329e-05 2.249896247985e-05 0.0 
2.249896247985e-05 5.929179490977e-04 0.0 
0.0 0.0 -9.456744988920e-05 
-8.923687427635e-05 2.330452976089e-05 0.0 
2.330452976089e-05 5.640846174988e-04 0.0 
0.0 0.0 -8.500284120953e-05 
-1.860377161479e-04 2.101899850403e-05 0.0 
2.101899850403e-05 1.219211786622e-03 0.0 
0.0 0.0 -1.840276857211e-04 
-1.302266885565e-05 9.542950408396e-06 0.0 
9.542950408396e-06 4.432884133333e-05 0.0 
0.0 0.0 -1.341693106186e-05 
-5.991703112053e-05 -9.650650547908e-06 0.0 
-9.650650547908e-06 3.995700475142e-04 0.0 
0.0 0.0 -6.107461134110e-05 
-2.013608632250e-04 -1.747935064147e-06 0.0 
-1.747935064147e-06 1.327091793787e-03 0.0 
0.0 0.0 -2.013608632250e-04 
-3.423275746667e-05 -2.897869870394e-05 0.0 
-2.897869870394e-05 1.741934079208e-04 0.0 
0.0 0.0 -3.398704224317e-05 
-1.166987184465e-04 3.376260708005e-06 0.0 
3.376260708005e-06 7.464150060637e-04 0.0 
0.0 0.0 -1.180517715949e-04 
-1.852951862543e-04 -6.895901531864e-06 0.0 
-6.895901531864e-06 1.252882415007e-03 0.0 
0.0 0.0 -1.820192905179e-04 
-2.189567273794e-05 2.107266617838e-05 0.0 
2.107266617838e-05 1.234442803628e-04 0.0 
0.0 0.0 -2.343543478003e-05 
-1.465373239062e-05 -6.700273643796e-06 0.0 
-6.700273643796e-06 8.151640789741e-05 0.0 
0.0 0.0 -1.499806864391e-05 
-1.979646109231e-04 -1.647947049056e-05 0.0 
-1.647947049056e-05 1.362929175419e-03 0.0 
0.0 0.0 -1.986584787576e-04 
-1.077110760694e-04 1.347870292468e-05 0.0 
1.347870292468e-05 6.884288505410e-04 0.0 
0.0 0.0 -1.094181415373e-04 
-1.878064882795e-04 3.303246132633e-05 0.0 
3.303246132633e-05 1.280874072015e-03 0.0 
0.0 0.0 -1.892127523904e-04 
-1.872574646803e-04 1.669387870556e-06 0.0 
1.669387870556e-06 1.214710811889e-03 0.0 
0.0 0.0 -1.847787516803e-04 
-1.081384153803e-04 -8.265982315710e-06 0.0 
-8.265982315710e-06 6.863175329085e-04 0.0 
0.0 0.0 -1.093391956339e-04 
-1.183108474329e-05 -1.526745450730e-06 0.0 
-1.526745450730e-06 8.288041116295e-05 0.0 
0.0 0.0 -1.461037633882e-05 
-1.928461778371e-04 -1.450363078147e-05 0.0 
-1.450363078147e-05 1.269631515360e-03 0.0 
0.0 0.0 -1.926211076318e-04 
-3.664328028393e-05 -3.474192895717e-05 0.0 
-3.474192895717e-05 2.008554549357e-04 0.0 
0.0 0.0 -3.650318340572e-05 
-1.865092181227e-04 1.872239000524e-05 0.0 
1.872239000524e-05 1.228864859043e-03 0.0 
0.0 0.0 -1.848276476440e-04 
-2.014642658289e-04 -8.318866801386e-08 0.0 
-8.318866801386e-08 1.329164711416e-03 0.0 
0.0 0.0 -2.014642658289e-04 
-1.863725232052e-04 -2.215017484820e-05 0.0 
-2.215017484820e-05 1.224672282405e-03 0.0 
0.0 0.0 -1.838550531888e-04 
-4.579760219593e-05 2.993393437161e-05 0.0 
2.993393437161e-05 2.630911927245e-04 0.0 
0.0 0.0 -4.567146191493e-05 
-1.231376912533e-04 3.302421736628e-06 0.0 
3.302421736628e-06 8.455036824614e-04 0.0 
0.0 0.0 -1.241871602230e-04 
-9.897320674459e-05 -1.982042870943e-05 0.0 
-1.982042870943e-05 6.300759750379e-04 0.0 
0.0 0.0 -9.407984802336e-05 
-1.609514246157e-04 -3.024200816091e-05 0.0 
-3.024200816091e-05 1.078541844928e-03 0.0 
0.0 0.0 -1.616399041023e-04 
-1.984206323310e-04 -1.383870975889e-05 0.0 
-1.383870975889e-05 1.364918109129e-03 0.0 
0.0 0.0 -1.990496603105e-04 
-1.603101285724e-04 1.893623053607e-05 0.0 
1.893623053607e-05 1.069942872822e-03 0.0 
0.0 0.0 -1.592422372747e-04 
-2.006038303863e-04 1.656223959945e-05 0.0 
1.656223959945e-05 1.363483438763e-03 0.0 
0.0 0.0 -1.988805961512e-04 
-2.157799468526e-05 2.675018284335e-05 0.0 
2.675018284335e-05 1.121671203490e-04 0.0 
0.0 0.0 -2.573693149021e-05 
-1.906849838871e-04 -1.873571465641e-05 0.0 
-1.873571465641e-05 1.306053010621e-03 0.0 
0.0 0.0 -1.916484765783e-04 
-5.146266627946e-05 1.897216913104e-05 0.0 
1.897216913104e-05 3.060778228498e-04 0.0 
0.0 0.0 -5.033941334868e-05 
-3.400990015803e-05 1.312678026193e-05 0.0 
1.312678026193e-05 1.676110055634e-04 0.0 
0.0 0.0 -3.447177322316e-05 
-1.921352674404e-04 -1.514543928923e-05 0.0 
-1.514543928923e-05 1.307880338866e-03 0.0 
0.0 0.0 -1.905503066306e-04 
-1.903818942750e-04 -8.555148187784e-06 0.0 
-8.555148187784e-06 1.309224873111e-03 0.0 
0.0 0.0 -1.905905039252e-04 
-1.935313273260e-04 -2.488564283104e-05 0.0 
-2.488564283104e-05 1.299799287321e-03 0.0 
0.0 0.0 -1.934776258129e-04 
-1.157635836836e-04 3.075917002700e-05 0.0 
3.075917002700e-05 7.564878727472e-04 0.0 
0.0 0.0 -1.164394980702e-04 
-1.278320406392e-04 3.003959765809e-05 0.0 
3.003959765809e-05 8.242995150328e-04 0.0 
0.0 0.0 -1.273429404365e-04 
-4.747607610046e-05 -3.167630139555e-05 0.0 
-3.167630139555e-05 2.832612339686e-04 0.0 
0.0 0.0 -4.701750159920e-05 
-1.893682873149e-04 -1.213845527048e-05 0.0 
-1.213845527048e-05 1.308095530746e-03 0.0 
0.0 0.0 -1.909562210215e-04 
-7.758444785249e-05 2.579970670889e-05 0.0 
2.579970670889e-05 5.061981746731e-04 0.0 
0.0 0.0 -8.036225567980e-05 
-2.672886924063e-05 -2.537961056617e-05 0.0 
-2.537961056617e-05 1.614624818245e-04 0.0 
0.0 0.0 -3.171414542872e-05 
-1.655918154031e-04 2.787053237580e-05 0.0 
2.787053237580e-05 1.112934476303e-03 0.0 
0.0 0.0 -1.665212293607e-04 
-1.050972551552e-04 -3.025884205917e-06 0.0 
-3.025884205917e-06 7.225874036591e-04 0.0 
0.0 0.0 -1.064449299410e-04 
-1.855125743211e-04 2.284061724598e-05 0.0 
2.284061724598e-05 1.238197266214e-03 0.0 
0.0 0.0 -1.856594579394e-04 
-1.969980593816e-04 -2.792765841710e-05 0.0 
-2.792765841710e-05 1.348466243731e-03 0.0 
0.0 0.0 -1.982264973081e-04 
-2.015598306414e-04 -1.228437926459e-06 0.0 
-1.228437926459e-06 1.329727235481e-03 0.0 
0.0 0.0 -2.015598306414e-04 
-3.170965654814e-06 -9.174846607934e-06 0.0 
-9.174846607934e-06 3.186703010945e-05 0.0 
0.0 0.0 -6.440169358563e-06 
-2.054361880700e-06 8.524325078712e-06 0.0 
8.524325078712e-06 1.000738199139e-05 0.0 
0.0 0.0 -3.408437190294e-06 
-1.090415563488e-04 -2.544674541070e-05 0.0 
-2.544674541070e-05 7.025551525996e-04 0.0 
0.0 0.0 -1.097735026919e-04 
-1.102790978540e-04 4.096896239264e-06 0.0 
4.096896239264e-06 7.242490524547e-04 0.0 
0.0 0.0 -1.064401693586e-04 
-2.015598306414e-04 1.769844580753e-06 0.0 
1.769844580753e-06 1.328559462674e-03 0.0 
0.0 0.0 -2.015598306414e-04 
-1.964566527274e-04 2.745948387429e-05 0.0 
2.745948387429e-05 1.347766645467e-03 0.0 
0.0 0.0 -1.982264973081e-04 
-1.175853557175e-05 2.296138750723e-05 0.0 
2.296138750723e-05 7.476526502358e-05 0.0 
0.0 0.0 -1.468179278604e-05 
0.0 0.0 0.0 
0.0 0.0 0.0 
0.0 0.0 0.0 
-1.860643112087e-04 1.892522092608e-05 0.0 
1.892522092608e-05 1.220604956089e-03 0.0 
0.0 0.0 -1.845272605536e-04 
-1.810613338557e-04 3.690531828789e-05 0.0 
3.690531828789e-05 1.227609320804e-03 0.0 
0.0 0.0 -1.814046177210e-04 
-3.775454928550e-05 -2.192142162525e-05 0.0 
-2.192142162525e-05 2.530653962175e-04 0.0 
0.0 0.0 -4.069012186385e-05 
-1.867893258397e-04 -1.967907292950e-05 0.0 
-1.967907292950e-05 1.242445273872e-03 0.0 
0.0 0.0 -1.860287822001e-04 
-1.322273957044e-04 -7.821980177849e-06 0.0 
-7.821980177849e-06 8.613081851453e-04 0.0 
0.0 0.0 -1.333256398531e-04 
-1.174513720599e-04 -2.922099993004e-05 0.0 
-2.922099993004e-05 7.623791286875e-04 0.0 
0.0 0.0 -1.141619444601e-04 
-1.434157263431e-04 1.469820453960e-05 0.0 
1.469820453960e-05 9.640681819544e-04 0.0 
0.0 0.0 -1.410117391569e-04 
-3.721642999109e-05 2.244542666226e-05 0.0 
2.244542666226e-05 2.273693429633e-04 0.0 
0.0 0.0 -3.939304728150e-05 
-1.516361842959e-04 -3.045658684071e-05 0.0 
-3.045658684071e-05 1.014390478774e-03 0.0 
0.0 0.0 -1.517486197524e-04 
-3.145165589743e-05 4.872235620209e-06 0.0 
4.872235620209e-06 2.090450929269e-04 0.0 
0.0 0.0 -3.272226055558e-05 
-1.018895751593e-04 -2.838951770175e-05 0.0 
-2.838951770175e-05 6.787429923759e-04 0.0 
0.0 0.0 -1.049612269729e-04 
-1.842198203986e-04 1.688848171670e-05 0.0 
1.688848171670e-05 1.232258602772e-03 0.0 
0.0 0.0 -1.860778644041e-04 
-1.784559347742e-04 -3.196727202869e-05 0.0 
-3.196727202869e-05 1.203750059331e-03 0.0 
0.0 0.0 -1.787589168632e-04 
-1.106507503052e-04 1.655731803460e-05 0.0 
1.655731803460e-05 7.326885674445e-04 0.0 
0.0 0.0 -1.153641303439e-04 
-1.319245288081e-04 -2.759428203750e-05 0.0 
-2.759428203750e-05 8.842042796758e-04 0.0 
0.0 0.0 -1.311848925397e-04 
-1.849952147230e-04 1.224005731978e-05 0.0 
1.224005731978e-05 1.253709795229e-03 0.0 
0.0 0.0 -1.825679017964e-04 
-1.712361580956e-04 -3.249029055204e-05 0.0 
-3.249029055204e-05 1.152848638026e-03 0.0 
0.0 0.0 -1.711417214974e-04 
-1.621790656513e-04 -3.130066982025e-05 0.0 
-3.130066982025e-05 1.085309995837e-03 0.0 
0.0 0.0 -1.614640498619e-04 
-1.095991344629e-04 1.548110486480e-06 0.0 
1.548110486480e-06 6.849847840864e-04 0.0 
0.0 0.0 -1.096818516252e-04 
-1.466797614329e-04 -3.177988380746e-05 0.0 
-3.177988380746e-05 9.793946946612e-04 0.0 
0.0 0.0 -1.464567251102e-04 
-1.856217654582e-04 1.836261976242e-05 0.0 
1.836261976242e-05 1.223913084915e-03 0.0 
0.0 0.0 -1.847107394661e-04 
-6.401317792094e-05 1.777757210555e-05 0.0 
1.777757210555e-05 3.770292953028e-04 0.0 
0.0 0.0 -6.251951766002e-05 
-1.488249501970e-05 -6.661613433420e-06 0.0 
-6.661613433420e-06 9.049355169821e-05 0.0 
0.0 0.0 -1.522736731176e-05 
-1.794781203063e-04 -2.177148621612e-05 0.0 
-2.177148621612e-05 1.190948333360e-03 0.0 
0.0 0.0 -1.778962838413e-04 
-1.689754393540e-04 2.666341982877e-05 0.0 
2.666341982877e-05 1.121590302909e-03 0.0 
0.0 0.0 -1.685307334786e-04 
-3.117516894872e-05 -1.620379493923e-05 0.0 
-1.620379493923e-05 1.675088401558e-04 0.0 
0.0 0.0 -3.460570515138e-05 
-1.490209525484e-04 -2.398959439852e-05 0.0 
-2.398959439852e-05 1.009624786866e-03 0.0 
0.0 0.0 -1.484000725648e-04 
-1.941728230886e-04 -6.317229650202e-06 0.0 
-6.317229650202e-06 1.268109449836e-03 0.0 
0.0 0.0 -1.924109378829e-04 
-1.782640686020e-04 1.811418483105e-05 0.0 
1.811418483105e-05 1.176788769021e-03 0.0 
0.0 0.0 -1.773110165667e-04 
-1.844275111855e-04 -4.383617168841e-06 0.0 
-4.383617168841e-06 1.252791151838e-03 0.0 
0.0 0.0 -1.822694409164e-04 
-1.426350801095e-04 -3.166405234979e-05 0.0 
-3.166405234979e-05 9.429700556337e-04 0.0 
0.0 0.0 -1.430568974379e-04 
-1.367048638434e-05 7.547793984128e-06 0.0 
7.547793984128e-06 4.809613176051e-05 0.0 
0.0 0.0 -1.475384801836e-05 
-4.817205637438e-05 1.518979907033e-05 0.0 
1.518979907033e-05 2.815959802160e-04 0.0 
0.0 0.0 -4.818665537949e-05 
-5.802518359896e-05 -3.237118775929e-05 0.0 
-3.237118775929e-05 3.560287674836e-04 0.0 
0.0 0.0 -5.751524148975e-05 
-1.222811217371e-04 4.923148903369e-06 0.0 
4.923148903369e-06 8.049151145100e-04 0.0 
0.0 0.0 -1.270714490912e-04 
-1.466466955193e-04 3.242901086422e-05 0.0 
3.242901086422e-05 9.717833108994e-04 0.0 
0.0 0.0 -1.467240436239e-04 
-1.865030099579e-04 -2.458316919408e-05 0.0 
-2.458316919408e-05 1.244081238438e-03 0.0 
0.0 0.0 -1.854811886535e-04 
-1.924470582108e-04 1.025180310993e-05 0.0 
1.025180310993e-05 1.267008412016e-03 0.0 
0.0 0.0 -1.923487814140e-04 
-2.301609062590e-05 -4.635179033559e-06 0.0 
-4.635179033559e-06 1.491120452597e-04 0.0 
0.0 0.0 -2.371590567936e-05 
-2.273962015617e-05 8.021387614827e-06 0.0 
8.021387614827e-06 1.424948937247e-04 0.0 
0.0 0.0 -2.307420961409e-05 
-3.644996023323e-05 3.054667220110e-05 0.0 
3.054667220110e-05 2.219148594571e-04 0.0 
0.0 0.0 -3.877784743978e-05 
-1.505507532998e-04 4.198429125548e-05 0.0 
4.198429125548e-05 1.006744199268e-03 0.0 
0.0 0.0 -1.528863196834e-04 
-7.623962459717e-05 -2.731195048099e-05 0.0 
-2.731195048099e-05 4.837899918121e-04 0.0 
0.0 0.0 -7.429924588525e-05 
-1.863524508622e-04 -2.262089027383e-05 0.0 
-2.262089027383e-05 1.249803366509e-03 0.0 
0.0 0.0 -1.861947641336e-04 
-3.704741075814e-05 -2.601020683146e-05 0.0 
-2.601020683146e-05 2.394628484622e-04 0.0 
0.0 0.0 -3.935861431135e-05 
-1.838103394031e-04 1.452656825211e-05 0.0 
1.452656825211e-05 1.213648829434e-03 0.0 
0.0 0.0 -1.831728902790e-04 
-1.220456595190e-04 2.683931147050e-05 0.0 
2.683931147050e-05 8.169008266022e-04 0.0 
0.0 0.0 -1.251559851210e-04 
-1.901741937142e-04 2.069168076257e-07 0.0 
2.069168076257e-07 1.274360012601e-03 0.0 
0.0 0.0 -1.930223408588e-04 
-1.664726505804e-04 -3.515055495158e-05 0.0 
-3.515055495158e-05 1.122391429995e-03 0.0 
0.0 0.0 -1.666682952710e-04 
-1.230362842828e-04 -1.324599728564e-05 0.0 
-1.324599728564e-05 8.068584181325e-04 0.0 
0.0 0.0 -1.269771275557e-04 
-1.906319308292e-04 -7.278184392237e-06 0.0 
-7.278184392237e-06 1.308928167031e-03 0.0 
0.0 0.0 -1.903713883127e-04 
-1.924018578301e-04 1.168444968946e-05 0.0 
1.168444968946e-05 1.309753043894e-03 0.0 
0.0 0.0 -1.909090898364e-04 
-1.885954729481e-04 9.336154218136e-06 0.0 
9.336154218136e-06 1.306961112302e-03 0.0 
0.0 0.0 -1.907009018511e-04 
-2.601124528020e-05 2.982465109597e-05 0.0 
2.982465109597e-05 1.494137909599e-04 0.0 
0.0 0.0 -2.872079986757e-05 
-1.827342744304e-04 2.617845691474e-05 0.0 
2.617845691474e-05 1.218950538624e-03 0.0 
0.0 0.0 -1.827464329712e-04 
-1.931535913243e-04 4.402691257463e-06 0.0 
4.402691257463e-06 1.267632643707e-03 0.0 
0.0 0.0 -1.929967939697e-04 
-1.822938180470e-04 -1.572479834584e-05 0.0 
-1.572479834584e-05 1.239626265032e-03 0.0 
0.0 0.0 -1.817603729293e-04 
-1.697190279031e-04 3.374893720717e-05 0.0 
3.374893720717e-05 1.140711286613e-03 0.0 
0.0 0.0 -1.714881096122e-04 
-2.013997750954e-04 3.693939357452e-06 0.0 
3.693939357452e-06 1.326398449399e-03 0.0 
0.0 0.0 -2.013997750954e-04 
-1.623768653750e-04 3.145458215279e-05 0.0 
3.145458215279e-05 1.075477552169e-03 0.0 
0.0 0.0 -1.618597882954e-04 
0.0 0.0 0.0 
0.0 0.0 0.0 
0.0 0.0 0.0 
-3.901664739789e-05 -3.107536671977e-05 0.0 
-3.107536671977e-05 2.123759730741e-04 0.0 
0.0 0.0 -3.635714225545e-05 
-1.788762468223e-04 -2.668815126998e-05 0.0 
-2.668815126998e-05 1.194169313249e-03 0.0 
0.0 0.0 -1.765404546707e-04 
-1.302843948315e-04 2.373413498694e-05 0.0 
2.373413498694e-05 8.753673031711e-04 0.0 
0.0 0.0 -1.332692038199e-04 
-1.814833852286e-04 -2.932987962222e-05 0.0 
-2.932987962222e-05 1.228315456518e-03 0.0 
0.0 0.0 -1.832991189648e-04 
-1.755755594055e-04 -3.314975176265e-05 0.0 
-3.314975176265e-05 1.186338389567e-03 0.0 
0.0 0.0 -1.765514316642e-04 
-1.922058959132e-04 -7.323986232709e-06 0.0 
-7.323986232709e-06 1.275540875639e-03 0.0 
0.0 0.0 -1.938374750990e-04 
-1.590886801341e-04 3.535348640505e-05 0.0 
3.535348640505e-05 1.086454937064e-03 0.0 
0.0 0.0 -1.628282188246e-04 
-1.943136192193e-04 -2.017280466188e-06 0.0 
-2.017280466188e-06 1.274660348820e-03 0.0 
0.0 0.0 -1.933460184500e-04 
-1.860409899402e-04 -2.465939863213e-05 0.0 
-2.465939863213e-05 1.243243537266e-03 0.0 
0.0 0.0 -1.849983659001e-04 
-1.854493454621e-04 2.521523578023e-05 0.0 
2.521523578023e-05 1.237363143253e-03 0.0 
0.0 0.0 -1.852565349593e-04 
-7.800610219477e-05 -1.750136496523e-05 0.0 
-1.750136496523e-05 5.077823231346e-04 0.0 
0.0 0.0 -7.657446018549e-05 
-1.940082963474e-04 -3.011324743449e-06 0.0 
-3.011324743449e-06 1.367135927910e-03 0.0 
0.0 0.0 -1.988462912301e-04 
-1.122847898646e-04 2.150658952302e-06 0.0 
2.150658952302e-06 7.831127334676e-04 0.0 
0.0 0.0 -1.149322996356e-04 
-1.805030425337e-04 -2.769681372488e-05 0.0 
-2.769681372488e-05 1.229209747324e-03 0.0 
0.0 0.0 -1.826109592864e-04 
-2.210772205688e-05 -1.141237861015e-05 0.0 
-1.141237861015e-05 1.058730840806e-04 0.0 
0.0 0.0 -2.642964691976e-05 
-1.709643782764e-04 -1.864471641412e-05 0.0 
-1.864471641412e-05 1.187155150464e-03 0.0 
0.0 0.0 -1.744803730939e-04 
-1.477070854664e-04 -4.391729024467e-06 0.0 
-4.391729024467e-06 1.020449993757e-03 0.0 
0.0 0.0 -1.488920056885e-04 
-2.536340853786e-05 -1.617904342885e-05 0.0 
-1.617904342885e-05 1.410312003150e-04 0.0 
0.0 0.0 -2.442930455436e-05 
-4.478297823031e-05 -3.360325145203e-05 0.0 
-3.360325145203e-05 2.463363294936e-04 0.0 
0.0 0.0 -4.105386472454e-05 
-1.667572652522e-04 3.269260421942e-05 0.0 
3.269260421942e-05 1.106671823298e-03 0.0 
0.0 0.0 -1.661371793467e-04 
-1.939345119211e-04 -2.917973958076e-06 0.0 
-2.917973958076e-06 1.271284650607e-03 0.0 
0.0 0.0 -1.928053293992e-04 
-1.848839491830e-04 -2.511864242369e-05 0.0 
-2.511864242369e-05 1.245193806993e-03 0.0 
0.0 0.0 -1.835875952628e-04 
-1.881692614413e-04 3.512850772842e-05 0.0 
3.512850772842e-05 1.283926120996e-03 0.0 
0.0 0.0 -1.897169183402e-04 
-1.319951739136e-04 3.692265338647e-05 0.0 
3.692265338647e-05 8.669086104393e-04 0.0 
0.0 0.0 -1.321134885410e-04 
-1.418897775030e-05 -1.383603751222e-06 0.0 
-1.383603751222e-06 8.390464903167e-05 0.0 
0.0 0.0 -1.533750852324e-05 
-1.776342507387e-05 2.898590661281e-05 0.0 
2.898590661281e-05 1.254111435077e-04 0.0 
0.0 0.0 -2.291448659297e-05 
-2.228661035164e-05 3.086208171882e-05 0.0 
3.086208171882e-05 7.414588274207e-05 0.0 
0.0 0.0 -1.893168834827e-05 
-2.834935998913e-05 -2.581094466031e-05 0.0 
-2.581094466031e-05 1.798484559935e-04 0.0 
0.0 0.0 -3.120083896163e-05 
-3.619195444299e-06 1.726688320319e-05 0.0 
1.726688320319e-05 1.889854846973e-05 0.0 
0.0 0.0 -6.548294153755e-06 
-9.846508312271e-05 1.947611327116e-05 0.0 
1.947611327116e-05 6.774458586389e-04 0.0 
0.0 0.0 -1.012995679080e-04 
-1.809123785598e-04 2.900682068589e-05 0.0 
2.900682068589e-05 1.227040363573e-03 0.0 
0.0 0.0 -1.833458990909e-04 
-1.833994977543e-04 2.630052083884e-05 0.0 
2.630052083884e-05 1.234115337032e-03 0.0 
0.0 0.0 -1.834249670905e-04 
-1.300388728735e-04 -2.726917383980e-05 0.0 
-2.726917383980e-05 8.766264197221e-04 0.0 
0.0 0.0 -1.323946974752e-04 
-9.060072859628e-05 -4.107401100024e-05 0.0 
-4.107401100024e-05 5.837911416729e-04 0.0 
0.0 0.0 -8.982794765771e-05 
-1.833530943830e-04 -2.415896483629e-05 0.0 
-2.415896483629e-05 1.239029730488e-03 0.0 
0.0 0.0 -1.831601862249e-04 
-1.805620370494e-04 3.417310065365e-05 0.0 
3.417310065365e-05 1.228469068547e-03 0.0 
0.0 0.0 -1.813053981465e-04 
-1.918538788466e-04 1.314902849118e-05 0.0 
1.314902849118e-05 1.311238991232e-03 0.0 
0.0 0.0 -1.908378613718e-04 
-1.864057830892e-04 -5.544571809970e-06 0.0 
-5.544571809970e-06 1.222330684115e-03 0.0 
0.0 0.0 -1.856133406407e-04 
-1.761014518088e-04 2.982850443616e-05 0.0 
2.982850443616e-05 1.172453916966e-03 0.0 
0.0 0.0 -1.756848094018e-04 
-2.508081297429e-05 1.384675978348e-05 0.0 
1.384675978348e-05 1.057075733602e-04 0.0 
0.0 0.0 -2.599564028619e-05 
-1.693383348172e-05 -2.312304690448e-05 0.0 
-2.312304690448e-05 1.227259030012e-04 0.0 
0.0 0.0 -2.162456296189e-05 
-1.849301832798e-04 -2.375114059264e-05 0.0 
-2.375114059264e-05 1.241181941517e-03 0.0 
0.0 0.0 -1.835494310512e-04 
-2.714207379428e-05 4.098769542459e-06 0.0 
4.098769542459e-06 1.072549946886e-04 0.0 
0.0 0.0 -2.642284971932e-05 
-3.135918366895e-05 4.019659049340e-05 0.0 
4.019659049340e-05 1.551282952784e-04 0.0 
0.0 0.0 -2.899999999997e-05 
-2.063383903873e-05 2.842818060864e-05 0.0 
2.842818060864e-05 9.408870534127e-05 0.0 
0.0 0.0 -2.215380543414e-05 
-2.425090272541e-05 -2.758476542693e-05 0.0 
-2.758476542693e-05 1.189291029536e-04 0.0 
0.0 0.0 -2.370445218759e-05 
-1.950651601912e-04 -1.537310237433e-06 0.0 
-1.537310237433e-06 1.272610956963e-03 0.0 
0.0 0.0 -1.932856728082e-04 
-1.944294159836e-04 -1.137183943863e-05 0.0 
-1.137183943863e-05 1.275116374494e-03 0.0 
0.0 0.0 -1.935170455059e-04 
-1.886696034913e-04 2.831262697735e-05 0.0 
2.831262697735e-05 1.244837435708e-03 0.0 
0.0 0.0 -1.855361636489e-04 
-1.959472726026e-04 1.351216090026e-08 0.0 
1.351216090026e-08 1.278564115673e-03 0.0 
0.0 0.0 -1.938907836251e-04 
-1.787271859105e-04 -2.284872940721e-05 0.0 
-2.284872940721e-05 1.187153147202e-03 0.0 
0.0 0.0 -1.765318707366e-04 
-1.351456084785e-04 3.971362658995e-05 0.0 
3.971362658995e-05 9.093020497765e-04 0.0 
0.0 0.0 -1.375519566527e-04 
-2.017604167332e-04 -1.836539241269e-06 0.0 
-1.836539241269e-06 1.330878883476e-03 0.0 
0.0 0.0 -2.017604167332e-04 
-4.752774343128e-05 -1.713587701896e-05 0.0 
-1.713587701896e-05 3.107525644044e-04 0.0 
0.0 0.0 -4.996133636201e-05 
-1.024919488492e-04 4.191622503833e-07 0.0 
4.191622503833e-07 7.218789940397e-04 0.0 
0.0 0.0 -1.062461082510e-04 
-2.975599916326e-05 9.106261967341e-06 0.0 
9.106261967341e-06 1.955746439529e-04 0.0 
0.0 0.0 -3.129496823211e-05 
-1.232098886184e-05 7.093050022653e-06 0.0 
7.093050022653e-06 4.161179421085e-05 0.0 
0.0 0.0 -1.255320229243e-05 
-1.944497355390e-04 5.978296495926e-06 0.0 
5.978296495926e-06 1.366328994781e-03 0.0 
0.0 0.0 -1.985775144829e-04 
-1.145512522937e-04 -8.915219508627e-06 0.0 
-8.915219508627e-06 7.945910020626e-04 0.0 
0.0 0.0 -1.159689174441e-04 
-2.848344092071e-05 4.003321639578e-06 0.0 
4.003321639578e-06 1.986241883576e-04 0.0 
0.0 0.0 -3.173012194873e-05 
-1.014959600204e-04 3.503938933843e-05 0.0 
3.503938933843e-05 6.393289370777e-04 0.0 
0.0 0.0 -9.855747970559e-05 
-1.905583345653e-04 2.687091843220e-06 0.0 
2.687091843220e-06 1.311634272187e-03 0.0 
0.0 0.0 -1.915206309854e-04 
-1.857526928997e-04 -2.471303146073e-05 0.0 
-2.471303146073e-05 1.243107974826e-03 0.0 
0.0 0.0 -1.842925442824e-04 
-1.948868254755e-04 -1.041522172143e-06 0.0 
-1.041522172143e-06 1.275180970734e-03 0.0 
0.0 0.0 -1.934499806569e-04 
-7.012133808743e-05 -2.162576108704e-05 0.0 
-2.162576108704e-05 4.594521408120e-04 0.0 
0.0 0.0 -7.043099580601e-05 
-2.186534210929e-05 -2.363395921601e-05 0.0 
-2.363395921601e-05 1.124805107313e-04 0.0 
0.0 0.0 -2.329832943476e-05 
-1.928869723946e-04 -1.747685447208e-05 0.0 
-1.747685447208e-05 1.309527415302e-03 0.0 
0.0 0.0 -1.909716586738e-04 
-1.948223937585e-04 3.463630469138e-06 0.0 
3.463630469138e-06 1.366072774039e-03 0.0 
0.0 0.0 -1.988029557152e-04 
-1.997972325631e-04 -2.657071604694e-06 0.0 
-2.657071604694e-06 1.368996078479e-03 0.0 
0.0 0.0 -1.985675284643e-04 
-1.149075065171e-04 1.970313765657e-05 0.0 
1.970313765657e-05 7.553309514488e-04 0.0 
0.0 0.0 -1.151014696305e-04 
-1.853670490970e-04 -6.789881419617e-07 0.0 
-6.789881419617e-07 1.217253462195e-03 0.0 
0.0 0.0 -1.847801502676e-04 
-2.929766823262e-05 -1.423662774746e-05 0.0 
-1.423662774746e-05 1.684447109910e-04 0.0 
0.0 0.0 -3.486300268346e-05 
-1.886376341972e-04 2.491029484498e-05 0.0 
2.491029484498e-05 1.251144203043e-03 0.0 
0.0 0.0 -1.862363266401e-04 
-1.225588461862e-05 -1.620442536661e-06 0.0 
-1.620442536661e-06 4.088176785210e-05 0.0 
0.0 0.0 -1.226823567149e-05 
-1.959443734270e-04 -1.593633800897e-06 0.0 
-1.593633800897e-06 1.275907277954e-03 0.0 
0.0 0.0 -1.936070242144e-04 
-1.921705025686e-04 1.672528369413e-05 0.0 
1.672528369413e-05 1.305355282221e-03 0.0 
0.0 0.0 -1.902878095246e-04 
-1.213509693042e-05 -9.695671298578e-06 0.0 
-9.695671298578e-06 4.146515921011e-05 0.0 
0.0 0.0 -1.257002669129e-05 
-1.793207099600e-04 -2.104295957024e-05 0.0 
-2.104295957024e-05 1.192465817629e-03 0.0 
0.0 0.0 -1.767027422389e-04 
-1.542349507493e-04 -2.789525500736e-05 0.0 
-2.789525500736e-05 1.046690456158e-03 0.0 
0.0 0.0 -1.580789522666e-04 
-1.934231585208e-04 -4.589161303043e-06 0.0 
-4.589161303043e-06 1.276393454338e-03 0.0 
0.0 0.0 -1.934530862915e-04 
-2.019364116565e-04 -1.570828685488e-06 0.0 
-1.570828685488e-06 1.334544060367e-03 0.0 
0.0 0.0 -2.019364116565e-04 
-1.443736664853e-04 -4.496434299745e-05 0.0 
-4.496434299745e-05 9.564830102373e-04 0.0 
0.0 0.0 -1.444096547634e-04 
-1.939456756852e-04 2.017652496132e-06 0.0 
2.017652496132e-06 1.279640861987e-03 0.0 
0.0 0.0 -1.938765919206e-04 
-1.869172796684e-04 -2.300922739472e-05 0.0 
-2.300922739472e-05 1.248797853845e-03 0.0 
0.0 0.0 -1.854760755851e-04 
-1.511310601618e-04 1.323861223544e-06 0.0 
1.323861223544e-06 9.820371097651e-04 0.0 
0.0 0.0 -1.514438176870e-04 
-1.859523187257e-04 -2.150500838709e-06 0.0 
-2.150500838709e-06 1.237126209909e-03 0.0 
0.0 0.0 -1.871408849840e-04 
-8.159488617983e-05 -1.939805324608e-05 0.0 
-1.939805324608e-05 5.359838852638e-04 0.0 
0.0 0.0 -8.502783899585e-05 
-1.113338579071e-04 -3.576614126909e-06 0.0 
-3.576614126909e-06 6.830287758959e-04 0.0 
0.0 0.0 -1.093177095251e-04 
-1.875695645106e-04 2.166688210212e-05 0.0 
2.166688210212e-05 1.248595569192e-03 0.0 
0.0 0.0 -1.858828511717e-04 
-1.916898687047e-04 1.740402246749e-05 0.0 
1.740402246749e-05 1.297694891500e-03 0.0 
0.0 0.0 -1.929759641265e-04 
0.0 0.0 0.0 
0.0 0.0 0.0 
0.0 0.0 0.0 
-1.108754537982e-04 8.190067800634e-06 0.0 
8.190067800634e-06 6.858465185805e-04 0.0 
0.0 0.0 -1.092688595421e-04 
-1.923809518426e-04 -1.819844630735e-05 0.0 
-1.819844630735e-05 1.300229094043e-03 0.0 
0.0 0.0 -1.932123727438e-04 
-4.002001247467e-05 2.006963566931e-05 0.0 
2.006963566931e-05 2.328825741027e-04 0.0 
0.0 0.0 -4.148470287098e-05 
-1.866472002231e-04 4.880453877379e-06 0.0 
4.880453877379e-06 1.252749307024e-03 0.0 
0.0 0.0 -1.819878549007e-04 
-1.819209478198e-04 -2.068448510872e-05 0.0 
-2.068448510872e-05 1.244408370608e-03 0.0 
0.0 0.0 -1.838914853240e-04 
-1.915111223810e-04 -2.323214646959e-05 0.0 
-2.323214646959e-05 1.305780620660e-03 0.0 
0.0 0.0 -1.903556752671e-04 
-3.701661376552e-05 2.035950265076e-05 0.0 
2.035950265076e-05 2.272671486071e-04 0.0 
0.0 0.0 -3.971981059879e-05 
-2.769286414478e-05 7.747329809448e-06 0.0 
7.747329809448e-06 1.806614107884e-04 0.0 
0.0 0.0 -2.859863994447e-05 
-1.242949117924e-04 5.074427327232e-05 0.0 
5.074427327232e-05 7.859669856420e-04 0.0 
0.0 0.0 -1.190920679387e-04 
-1.709477821043e-04 1.206352581251e-05 0.0 
1.206352581251e-05 1.132186117532e-03 0.0 
0.0 0.0 -1.681261804956e-04 
1.014327330368e-06 7.383782533250e-07 0.0 
7.383782533250e-07 2.927583678911e-05 0.0 
0.0 0.0 -6.243845128022e-06 
-1.946447373769e-04 -4.455018500166e-06 0.0 
-4.455018500166e-06 1.280717844331e-03 0.0 
0.0 0.0 -1.938350263003e-04 
-1.424463118062e-04 5.764408395156e-06 0.0 
5.764408395156e-06 9.202154133526e-04 0.0 
0.0 0.0 -1.425289220759e-04 
-3.478878306297e-05 -2.499498638801e-05 0.0 
-2.499498638801e-05 2.296892403380e-04 0.0 
0.0 0.0 -3.902841992921e-05 
-1.377312918912e-04 9.864863143696e-06 0.0 
9.864863143696e-06 8.735402280856e-04 0.0 
0.0 0.0 -1.354581645892e-04 
-1.922007867126e-04 -1.822737660514e-05 0.0 
-1.822737660514e-05 1.307890918218e-03 0.0 
0.0 0.0 -1.907465343871e-04 
-1.254239889598e-04 -4.359753515645e-05 0.0 
-4.359753515645e-05 8.286556014884e-04 0.0 
0.0 0.0 -1.240920679387e-04 
-1.353144492439e-05 -2.813094036452e-05 0.0 
-2.813094036452e-05 4.877548767693e-05 0.0 
0.0 0.0 -1.316471896826e-05 
-8.142748840057e-05 2.105549334848e-05 0.0 
2.105549334848e-05 4.801057020835e-04 0.0 
0.0 0.0 -7.814452609390e-05 
-1.089615496817e-04 1.599271894156e-05 0.0 
1.599271894156e-05 7.175407804816e-04 0.0 
0.0 0.0 -1.097999625750e-04 
-1.256926158202e-04 5.260336234632e-05 0.0 
5.260336234632e-05 8.559229925287e-04 0.0 
0.0 0.0 -1.289999999999e-04 
-1.861165675973e-04 -2.159470551462e-05 0.0 
-2.159470551462e-05 1.249429060897e-03 0.0 
0.0 0.0 -1.849170288086e-04 
-1.106499789189e-04 -2.590861534469e-05 0.0 
-2.590861534469e-05 6.926866843830e-04 0.0 
0.0 0.0 -1.076326444904e-04 
-1.112884178496e-04 1.305986126263e-05 0.0 
1.305986126263e-05 7.358491413001e-04 0.0 
0.0 0.0 -1.139494348250e-04 
-2.588411427290e-05 1.911750771148e-05 0.0 
1.911750771148e-05 1.061373083438e-04 0.0 
0.0 0.0 -2.326846092920e-05 
-1.893744793615e-04 2.103198860830e-05 0.0 
2.103198860830e-05 1.246033425132e-03 0.0 
0.0 0.0 -1.860944804855e-04 
-1.813760335911e-04 2.431983118237e-05 0.0 
2.431983118237e-05 1.192575940689e-03 0.0 
0.0 0.0 -1.779543165055e-04 
-3.341687545780e-05 1.295689628708e-05 0.0 
1.295689628708e-05 1.947474497127e-04 0.0 
0.0 0.0 -3.617538986514e-05 
-1.891790155312e-04 -1.249004293212e-05 0.0 
-1.249004293212e-05 1.282842787366e-03 0.0 
0.0 0.0 -1.935524225335e-04 
-1.940711954716e-04 2.260939094991e-05 0.0 
2.260939094991e-05 1.289421750568e-03 0.0 
0.0 0.0 -1.935534039001e-04 
-1.151984927981e-04 -2.298534457927e-05 0.0 
-2.298534457927e-05 7.735611340850e-04 0.0 
0.0 0.0 -1.145968264807e-04 
-1.409477362984e-04 4.636851076838e-06 0.0 
4.636851076838e-06 9.500238057427e-04 0.0 
0.0 0.0 -1.403751509546e-04 
-1.057221588411e-04 2.457938922791e-05 0.0 
2.457938922791e-05 7.039272758311e-04 0.0 
0.0 0.0 -1.066277415830e-04 
-1.061891266013e-04 -1.653485252010e-05 0.0 
-1.653485252010e-05 7.204456328921e-04 0.0 
0.0 0.0 -1.101455558886e-04 
-1.167125773018e-04 -5.214442621127e-06 0.0 
-5.214442621127e-06 7.635304123669e-04 0.0 
0.0 0.0 -1.124773478824e-04 
-1.793168656901e-04 2.299952134744e-05 0.0 
2.299952134744e-05 1.185887205723e-03 0.0 
0.0 0.0 -1.771393596935e-04 
-3.152584898735e-05 1.897210253453e-05 0.0 
1.897210253453e-05 1.627411535502e-04 0.0 
0.0 0.0 -3.411956464738e-05 
-1.845315344105e-04 -2.087044310257e-05 0.0 
-2.087044310257e-05 1.251382198176e-03 0.0 
0.0 0.0 -1.826724926888e-04 
-1.258093955466e-04 1.092296903434e-05 0.0 
1.092296903434e-05 7.989141246955e-04 0.0 
0.0 0.0 -1.256509235457e-04 
-1.915790341267e-04 -2.191468720141e-05 0.0 
-2.191468720141e-05 1.308072793879e-03 0.0 
0.0 0.0 -1.908230686647e-04 
-1.803448451633e-04 -1.980075170867e-05 0.0 
-1.980075170867e-05 1.182538242344e-03 0.0 
0.0 0.0 -1.771885848702e-04 
-1.319350983937e-04 -8.918433226288e-06 0.0 
-8.918433226288e-06 9.046918759966e-04 0.0 
0.0 0.0 -1.335370307995e-04 
-1.816836816126e-04 1.791474397062e-05 0.0 
1.791474397062e-05 1.201235583197e-03 0.0 
0.0 0.0 -1.801549293832e-04 
-1.875547155475e-04 1.892715754060e-05 0.0 
1.892715754060e-05 1.233891763137e-03 0.0 
0.0 0.0 -1.855150795789e-04 
-1.939054531168e-04 -3.416516152566e-06 0.0 
-3.416516152566e-06 1.313797531553e-03 0.0 
0.0 0.0 -1.905407107676e-04 
-1.393318625630e-05 6.729466406601e-06 0.0 
6.729466406601e-06 4.687704386898e-05 0.0 
0.0 0.0 -1.411879611972e-05 
-1.819939651451e-04 -2.047705946231e-05 0.0 
-2.047705946231e-05 1.208295386483e-03 0.0 
0.0 0.0 -1.798029041703e-04 
-1.850233720890e-04 2.766047329041e-05 0.0 
2.766047329041e-05 1.254110806432e-03 0.0 
0.0 0.0 -1.840618297566e-04 
-1.944390477997e-05 -2.127751864275e-05 0.0 
-2.127751864275e-05 1.299757536440e-04 0.0 
0.0 0.0 -2.232470194434e-05 
-1.017184515676e-04 -1.757095589334e-05 0.0 
-1.757095589334e-05 6.550290312805e-04 0.0 
0.0 0.0 -1.026204892046e-04 
-1.144511734995e-05 -9.153149013219e-06 0.0 
-9.153149013219e-06 7.932793000554e-05 0.0 
0.0 0.0 -1.453852818766e-05 
-1.859119756783e-04 -1.557168329531e-05 0.0 
-1.557168329531e-05 1.264074963678e-03 0.0 
0.0 0.0 -1.846184893018e-04 
-7.781230655286e-05 -1.181963691656e-05 0.0 
-1.181963691656e-05 5.088176645313e-04 0.0 
0.0 0.0 -7.733333333333e-05 
-8.119458623839e-05 6.972004007010e-06 0.0 
6.972004007010e-06 4.800472308251e-04 0.0 
0.0 0.0 -8.066666666667e-05 
-7.753617196034e-05 -1.686526781122e-06 0.0 
-1.686526781122e-06 5.271460113287e-04 0.0 
0.0 0.0 -7.733333333333e-05 
-8.055598266159e-05 -8.309609844759e-07 0.0 
-8.309609844759e-07 4.810024852218e-04 0.0 
0.0 0.0 -8.066666666667e-05 
-7.731437449528e-05 -4.694243935430e-07 0.0 
-4.694243935430e-07 5.276425525984e-04 0.0 
0.0 0.0 -7.733333333333e-05 
-8.071639800283e-05 -2.964994736049e-07 0.0 
-2.964994736049e-07 4.811871574007e-04 0.0 
0.0 0.0 -8.066666666667e-05 
-7.735101054680e-05 -3.609553578528e-07 0.0 
-3.609553578528e-07 5.278599491145e-04 0.0 
0.0 0.0 -7.733333333333e-05 
-8.049136654625e-05 -1.810628668294e-07 0.0 
-1.810628668294e-07 4.812029401063e-04 0.0 
0.0 0.0 -8.066666666667e-05 
-7.738220980221e-05 -1.577265426917e-07 0.0 
-1.577265426917e-07 5.278701924915e-04 0.0 
0.0 0.0 -7.733333333333e-05 
-8.058899491475e-05 1.039952126183e-07 0.0 
1.039952126183e-07 4.813345582273e-04 0.0 
0.0 0.0 -8.066666666667e-05 
-7.749230465888e-05 -5.589101690136e-08 0.0 
-5.589101690136e-08 5.280305322976e-04 0.0 
0.0 0.0 -7.733333333333e-05 
-8.063738768920e-05 2.943263093068e-07 0.0 
2.943263093068e-07 4.815246670627e-04 0.0 
0.0 0.0 -8.066666666667e-05 
-7.766334824340e-05 -1.624950510170e-07 0.0 
-1.624950510170e-07 5.282822808427e-04 0.0 
0.0 0.0 -7.733333333333e-05 
-8.108582164939e-05 -1.817042453861e-07 0.0 
-1.817042453861e-07 4.816572964670e-04 0.0 
0.0 0.0 -8.066666666667e-05 
-7.771301959687e-05 -4.432509054863e-07 0.0 
-4.432509054863e-07 5.283746937170e-04 0.0 
0.0 0.0 -7.733333333333e-05 
-8.689319893331e-05 -2.398901531109e-05 0.0 
-2.398901531109e-05 5.261728810593e-04 0.0 
0.0 0.0 -7.871598639454e-05 
-8.063163037591e-05 -5.731608516611e-07 0.0 
-5.731608516611e-07 4.813582541077e-04 0.0 
0.0 0.0 -8.066666666667e-05 
-7.282722797358e-05 2.956686511685e-06 0.0 
2.956686511685e-06 4.834944195558e-04 0.0 
0.0 0.0 -8.066666666667e-05 
-7.761542592040e-05 1.556054086577e-08 0.0 
1.556054086577e-08 5.279085131106e-04 0.0 
0.0 0.0 -7.733333333333e-05 
-8.085458222001e-05 2.978087830832e-07 0.0 
2.978087830832e-07 4.814005580441e-04 0.0 
0.0 0.0 -8.066666666667e-05 
-7.779362984557e-05 2.880682919728e-07 0.0 
2.880682919728e-07 5.280866836434e-04 0.0 
0.0 0.0 -7.733333333333e-05 
-8.137173526484e-05 3.903881692923e-07 0.0 
3.903881692923e-07 4.816228572156e-04 0.0 
0.0 0.0 -8.066666666667e-05 
-7.797659907223e-05 1.259601545473e-07 0.0 
1.259601545473e-07 5.283575677450e-04 0.0 
0.0 0.0 -7.733333333333e-05 
-8.138094734250e-05 -4.007379149126e-08 0.0 
-4.007379149126e-08 4.816094746352e-04 0.0 
0.0 0.0 -8.066666666667e-05 
-6.958892147872e-05 2.693700344811e-06 0.0 
2.693700344811e-06 4.979075358180e-04 0.0 
0.0 0.0 -7.538265306121e-05 
-7.799720130815e-05 7.326478423520e-09 0.0 
7.326478423520e-09 5.282573840779e-04 0.0 
0.0 0.0 -7.733333333333e-05 
-8.143970684332e-05 -2.393759007723e-07 0.0 
-2.393759007723e-07 4.814739348898e-04 0.0 
0.0 0.0 -8.066666666667e-05 
-7.794669720480e-05 -1.073637191230e-07 0.0 
-1.073637191230e-07 5.280808317875e-04 0.0 
0.0 0.0 -7.733333333333e-05 
-8.174229233143e-05 -1.069148929710e-06 0.0 
-1.069148929710e-06 4.809843103418e-04 0.0 
0.0 0.0 -8.066666666667e-05 
-7.747028842183e-05 1.035597227599e-06 0.0 
1.035597227599e-06 5.267993287079e-04 0.0 
0.0 0.0 -7.733333333333e-05 
-8.011487521303e-05 3.227514386744e-06 0.0 
3.227514386744e-06 4.812335686475e-04 0.0 
0.0 0.0 -8.066666666667e-05 
-7.838914561904e-05 1.172078597877e-06 0.0 
1.172078597877e-06 5.288970930108e-04 0.0 
0.0 0.0 -7.733333333333e-05 
-8.384419164103e-05 -8.759494395606e-07 0.0 
-8.759494395606e-07 4.817654260896e-04 0.0 
0.0 0.0 -8.066666666667e-05 
-7.599610420366e-05 7.462175851506e-06 0.0 
7.462175851506e-06 4.817404732796e-04 0.0 
0.0 0.0 -8.066666666667e-05 
-7.768361330392e-05 1.900460429623e-06 0.0 
1.900460429623e-06 5.268691696083e-04 0.0 
0.0 0.0 -7.733333333333e-05 
-7.085007670582e-05 3.811906941392e-06 0.0 
3.811906941392e-06 5.100816028034e-04 0.0 
0.0 0.0 -8.038265306121e-05 
-8.018411443096e-05 1.198366395229e-06 0.0 
1.198366395229e-06 5.324278016454e-04 0.0 
0.0 0.0 -7.733333333333e-05 
-6.417731922861e-05 -3.943230338450e-06 0.0 
-3.943230338450e-06 4.647268317312e-04 0.0 
0.0 0.0 -7.704931972788e-05 
-8.746095442730e-05 -5.552433142474e-05 0.0 
-5.552433142474e-05 5.117494040768e-04 0.0 
0.0 0.0 -7.900000000000e-05 
-7.187846570217e-05 5.325151437038e-05 0.0 
5.325151437038e-05 4.838528020986e-04 0.0 
0.0 0.0 -7.900000000000e-05 
-8.300562030776e-05 -5.928768708113e-06 0.0 
-5.928768708113e-06 5.060343090617e-04 0.0 
0.0 0.0 -8.233333333333e-05 
-7.613395825065e-05 5.573077951687e-06 0.0 
5.573077951687e-06 4.912471208609e-04 0.0 
0.0 0.0 -7.566666666667e-05 
-6.717161144140e-05 -3.263046586986e-06 0.0 
-3.263046586986e-06 4.846642233179e-04 0.0 
0.0 0.0 -7.566666666667e-05 
-9.283937133862e-05 -1.305520020021e-05 0.0 
-1.305520020021e-05 5.701490487258e-04 0.0 
0.0 0.0 -9.066666666667e-05 
-8.786125290506e-05 6.228376696680e-06 0.0 
6.228376696680e-06 5.972094942788e-04 0.0 
0.0 0.0 -8.733333333333e-05 
-9.022014186398e-05 -3.549288141163e-06 0.0 
-3.549288141163e-06 5.499642990775e-04 0.0 
0.0 0.0 -9.066666666667e-05 
-8.722264932826e-05 -1.484814638766e-06 0.0 
-1.484814638766e-06 5.950278411204e-04 0.0 
0.0 0.0 -8.733333333333e-05 
-9.018085993915e-05 -1.417099940171e-07 0.0 
-1.417099940171e-07 5.484767631814e-04 0.0 
0.0 0.0 -9.066666666667e-05 
-8.738306466949e-05 -3.897787092036e-07 0.0 
-3.897787092036e-07 5.957792554076e-04 0.0 
0.0 0.0 -8.733333333333e-05 
-9.080630643208e-05 -1.004642962581e-06 0.0 
-1.004642962581e-06 5.490414961774e-04 0.0 
0.0 0.0 -9.066666666667e-05 
-8.715803321291e-05 -7.191945164273e-07 0.0 
-7.191945164273e-07 5.952355706191e-04 0.0 
0.0 0.0 -8.733333333333e-05 
-8.983972774977e-05 2.250980017127e-08 0.0 
2.250980017127e-08 5.486638855821e-04 0.0 
0.0 0.0 -9.066666666667e-05 
-8.725566158141e-05 1.431482839066e-07 0.0 
1.431482839066e-07 5.957393564191e-04 0.0 
0.0 0.0 -8.733333333333e-05 
-9.054185498745e-05 8.009925208000e-08 0.0 
8.009925208000e-08 5.490600954273e-04 0.0 
0.0 0.0 -9.066666666667e-05 
-8.730405435587e-05 2.268594339034e-07 0.0 
2.268594339034e-07 5.956704623471e-04 0.0 
0.0 0.0 -8.733333333333e-05 
-9.010725221013e-05 1.077984881025e-06 0.0 
1.077984881025e-06 5.491565562495e-04 0.0 
0.0 0.0 -9.066666666667e-05 
-9.710486836519e-05 -2.255663521806e-05 0.0 
-2.255663521806e-05 5.958483065018e-04 0.0 
0.0 0.0 -8.873639455782e-05 
-8.775248831606e-05 6.167278534911e-07 0.0 
6.167278534911e-07 5.967481919071e-04 0.0 
0.0 0.0 -8.733333333333e-05 
-9.103086627003e-05 -1.513341137134e-06 0.0 
-1.513341137134e-06 5.495772900249e-04 0.0 
0.0 0.0 -9.066666666667e-05 
-8.073249876149e-05 1.956568500793e-06 0.0 
1.956568500793e-06 5.676914892222e-04 0.0 
0.0 0.0 -8.540306122449e-05 
-8.729829704258e-05 -3.688701156799e-07 0.0 
-3.688701156799e-07 5.951865840250e-04 0.0 
0.0 0.0 -8.733333333333e-05 
-9.037940068144e-05 6.271206724163e-07 0.0 
6.271206724163e-07 5.487658884447e-04 0.0 
0.0 0.0 -9.066666666667e-05 
-8.327880964785e-05 3.397797209923e-06 0.0 
3.397797209923e-06 5.519081980575e-04 0.0 
0.0 0.0 -9.066666666667e-05 
-8.752124888667e-05 7.623016925716e-07 0.0 
7.623016925716e-07 5.955739018708e-04 0.0 
0.0 0.0 -8.733333333333e-05 
-9.119391855359e-05 1.735421697781e-06 0.0 
1.735421697781e-06 5.492228013243e-04 0.0 
0.0 0.0 -9.066666666667e-05 
-8.803840193151e-05 9.847285726832e-07 0.0 
9.847285726832e-07 5.964786609531e-04 0.0 
0.0 0.0 -8.733333333333e-05 
-9.156330581238e-05 2.666222241028e-07 0.0 
2.666222241028e-07 5.495997176964e-04 0.0 
0.0 0.0 -9.066666666667e-05 
-8.804761400916e-05 4.409974905670e-07 0.0 
4.409974905670e-07 5.960772025302e-04 0.0 
0.0 0.0 -8.733333333333e-05 
-8.073638837697e-05 3.015269661060e-06 0.0 
3.015269661060e-06 5.789040759249e-04 0.0 
0.0 0.0 -9.040306122449e-05 
-9.112505899787e-05 2.746880104957e-07 0.0 
2.746880104957e-07 5.493199630352e-04 0.0 
0.0 0.0 -9.066666666667e-05 
-8.810637350998e-05 6.151652775298e-07 0.0 
6.151652775298e-07 5.958963692618e-04 0.0 
0.0 0.0 -8.733333333333e-05 
-8.840895899809e-05 1.155447038660e-07 0.0 
1.155447038660e-07 5.965143081286e-04 0.0 
0.0 0.0 -8.733333333333e-05 
-9.164597760345e-05 8.836231120007e-07 0.0 
8.836231120007e-07 5.493625037381e-04 0.0 
0.0 0.0 -9.066666666667e-05 
-8.678154187969e-05 1.516005662498e-06 0.0 
1.516005662498e-06 5.914512376221e-04 0.0 
0.0 0.0 -8.733333333333e-05 
-9.368423993004e-05 -3.485429264516e-06 0.0 
-3.485429264516e-06 5.486941450264e-04 0.0 
0.0 0.0 -9.066666666667e-05 
-9.051085830770e-05 3.821512302252e-06 0.0 
3.821512302252e-06 6.011139986344e-04 0.0 
0.0 0.0 -8.733333333333e-05 
-8.623635069903e-05 1.130998903511e-05 0.0 
1.130998903511e-05 5.483505428446e-04 0.0 
0.0 0.0 -9.066666666667e-05 
-7.442069267613e-05 -5.394763382116e-06 0.0 
-5.394763382116e-06 5.345026645236e-04 0.0 
0.0 0.0 -8.706972789116e-05 
-8.056486673946e-05 -5.396645541003e-05 0.0 
-5.396645541003e-05 5.644717008348e-04 0.0 
0.0 0.0 -8.900000000000e-05 
-9.791450863527e-05 5.509961114953e-05 0.0 
5.509961114953e-05 5.954927673430e-04 0.0 
0.0 0.0 -8.900000000000e-05 
-8.633895364109e-05 -4.683164540594e-06 0.0 
-4.683164540594e-06 5.718841532106e-04 0.0 
0.0 0.0 -8.566666666667e-05 
-9.239018602622e-05 8.127448127221e-06 0.0 
8.127448127221e-06 5.860724498030e-04 0.0 
0.0 0.0 -9.233333333333e-05 
-7.782722797358e-05 -3.296902887833e-06 0.0 
-3.296902887833e-06 5.542989905497e-04 0.0 
0.0 0.0 -8.566666666667e-05 
-9.950603800529e-05 -1.732824840327e-05 0.0 
-1.732824840327e-05 6.532123038277e-04 0.0 
0.0 0.0 -9.733333333333e-05 
-9.845490008412e-05 -7.423843482372e-07 0.0 
-7.423843482372e-07 6.182720398665e-04 0.0 
0.0 0.0 -1.006666666667e-04 
-9.688680853064e-05 -2.101224633275e-06 0.0 
-2.101224633275e-06 6.650247464175e-04 0.0 
0.0 0.0 -9.733333333333e-05 
-1.012464655028e-04 -1.533092774878e-06 0.0 
-1.533092774878e-06 6.197292804394e-04 0.0 
0.0 0.0 -1.006666666667e-04 
-9.684752660582e-05 -6.274302712925e-08 0.0 
-6.274302712925e-08 6.662579141266e-04 0.0 
0.0 0.0 -9.733333333333e-05 
-1.011453118386e-04 1.046563005614e-06 0.0 
1.046563005614e-06 6.213209177569e-04 0.0 
0.0 0.0 -1.006666666667e-04 
-9.747297309875e-05 -2.278502078315e-06 0.0 
-2.278502078315e-06 6.683740764344e-04 0.0 
0.0 0.0 -9.733333333333e-05 
-9.931899188090e-05 -3.288065646636e-06 0.0 
-3.288065646636e-06 6.197642772278e-04 0.0 
0.0 0.0 -1.006666666667e-04 
-9.650639441643e-05 2.666172739854e-07 0.0 
2.666172739854e-07 6.659194579952e-04 0.0 
0.0 0.0 -9.733333333333e-05 
-1.000788983180e-04 1.910523566858e-06 0.0 
1.910523566858e-06 6.207688021561e-04 0.0 
0.0 0.0 -1.006666666667e-04 
-9.720852165412e-05 -4.164213939214e-07 0.0 
-4.164213939214e-07 6.678605235040e-04 0.0 
0.0 0.0 -9.733333333333e-05 
-1.005225329566e-04 -1.059277058645e-06 0.0 
-1.059277058645e-06 6.206711688955e-04 0.0 
0.0 0.0 -1.006666666667e-04 
-1.076654382393e-04 -2.454755873475e-05 0.0 
-2.454755873475e-05 6.666235465443e-04 0.0 
0.0 0.0 -9.871211211756e-05 
-9.677391887680e-05 3.262994796209e-07 0.0 
3.262994796209e-07 6.670349670739e-04 0.0 
0.0 0.0 -9.733333333333e-05 
-1.004112575968e-04 6.266382551746e-06 0.0 
6.266382551746e-06 6.238730393685e-04 0.0 
0.0 0.0 -1.006666666667e-04 
-9.691250726487e-05 3.272004711609e-06 0.0 
3.272004711609e-06 6.207526912737e-04 0.0 
0.0 0.0 -1.006666666667e-04 
-9.769753293670e-05 3.857908775590e-07 0.0 
3.857908775590e-07 6.683264731120e-04 0.0 
0.0 0.0 -9.733333333333e-05 
-1.018216783017e-04 -1.733271697638e-06 0.0 
-1.733271697638e-06 6.205292306068e-04 0.0 
0.0 0.0 -1.006666666667e-04 
-9.704606734811e-05 1.789783002985e-06 0.0 
1.789783002985e-06 6.661622647259e-04 0.0 
0.0 0.0 -9.733333333333e-05 
-1.018704888891e-04 2.872470909369e-06 0.0 
2.872470909369e-06 6.210028127133e-04 0.0 
0.0 0.0 -1.006666666667e-04 
-9.786058522026e-05 1.410942441991e-06 0.0 
1.410942441991e-06 6.680408138480e-04 0.0 
0.0 0.0 -9.733333333333e-05 
-1.006317600444e-04 1.941140312877e-06 0.0 
1.941140312877e-06 6.214755597104e-04 0.0 
0.0 0.0 -1.006666666667e-04 
-9.094846281658e-05 3.460693907673e-06 0.0 
3.460693907673e-06 6.387381401671e-04 0.0 
0.0 0.0 -9.537877878422e-05 
-9.822997247904e-05 5.655000512226e-07 0.0 
5.655000512226e-07 6.686847925497e-04 0.0 
0.0 0.0 -9.733333333333e-05 
-1.005721140742e-04 -4.771801101198e-07 0.0 
-4.771801101198e-07 6.209284532513e-04 0.0 
0.0 0.0 -1.006666666667e-04 
-9.779172566454e-05 1.437765353010e-06 0.0 
1.437765353010e-06 6.669881357659e-04 0.0 
0.0 0.0 -9.733333333333e-05 
-9.964754038308e-05 2.397319642453e-06 0.0 
2.397319642453e-06 6.203504795262e-04 0.0 
0.0 0.0 -1.006666666667e-04 
-9.942841041269e-05 6.330945354939e-06 0.0 
6.330945354939e-06 6.210142166029e-04 0.0 
0.0 0.0 -1.006666666667e-04 
-9.831264427012e-05 3.607920745624e-06 0.0 
3.607920745624e-06 6.668464283750e-04 0.0 
0.0 0.0 -9.733333333333e-05 
-1.003509065967e-04 3.038689806417e-06 0.0 
3.038689806417e-06 6.697580945376e-04 0.0 
0.0 0.0 -9.733333333333e-05 
-9.096542632604e-05 2.974368147524e-06 0.0 
2.974368147524e-06 6.503827388711e-04 0.0 
0.0 0.0 -1.003787787842e-04 
-8.451759272524e-05 -2.785279264379e-06 0.0 
-2.785279264379e-06 6.050107377767e-04 0.0 
0.0 0.0 -9.704544545089e-05 
-1.061297274301e-04 -4.871673269526e-05 0.0 
-4.871673269526e-05 6.458409108431e-04 0.0 
0.0 0.0 -9.900000000000e-05 
-9.597407948562e-05 5.882537232744e-05 0.0 
5.882537232744e-05 6.276346610407e-04 0.0 
0.0 0.0 -9.900000000000e-05 
-1.061722618288e-04 2.720032131649e-06 0.0 
2.720032131649e-06 6.459980937412e-04 0.0 
0.0 0.0 -1.023333333333e-04 
-9.572351935955e-05 9.504820778219e-06 0.0 
9.504820778219e-06 6.293354809804e-04 0.0 
0.0 0.0 -9.566666666667e-05 
-8.827880964785e-05 -4.615262033286e-06 0.0 
-4.615262033286e-06 6.261214177850e-04 0.0 
0.0 0.0 -9.566666666667e-05 

SCALARS element_materi_plasti_kappa_shear float
LOOKUP_TABLE default
2.847132974464e-04
2.567335577462e-04
8.383458615128e-04
8.438320912051e-04
5.252340220499e-04
1.092332508777e-04
5.211056369626e-04
2.682011350187e-04
5.284032086376e-04
8.364231581825e-04
5.721664887116e-04
2.192159031084e-04
8.427469438431e-04
5.626516430071e-04
8.591411753051e-04
8.596118674820e-04
5.228709310720e-04
9.890289689114e-05
1.829897689724e-04
1.694158919351e-04
8.423436282845e-04
2.963793359042e-04
3.324051967767e-04
8.081759085961e-04
6.000118969987e-04
6.135444959901e-04
4.831662702076e-04
8.640260917564e-04
6.044060870881e-04
8.284633969501e-04
1.393644665420e-04
6.157167640348e-05
8.645031697050e-04
7.227162512377e-04
8.409567717064e-04
8.889842858592e-04
8.867272022491e-04
8.401574712595e-04
4.762820424766e-04
4.829160232604e-04
3.784313710213e-04
8.419842235364e-04
1.971583877801e-04
4.640967896192e-04
8.239259452907e-04
1.959288160543e-04
8.321288766212e-05
8.084255947212e-04
3.689720172040e-05
5.421120849717e-04
3.571518168043e-04
2.245192715023e-04
1.849539392691e-04
3.438430703420e-04
8.437751075118e-04
2.946472074171e-04
2.169482347232e-04
7.261086015541e-04
1.365401986572e-04
8.602343425103e-04
5.633449810247e-05
8.068338246298e-04
3.495820234045e-04
1.625404768038e-04
8.423121318073e-04
3.196875078224e-04
2.407380933191e-05
8.605021510781e-04
1.455927549119e-04
8.423461725362e-04
6.362218458081e-04
8.811950242161e-04
8.101315001547e-04
6.837837458653e-05
2.980351712693e-04
8.450728483081e-04
8.650274645366e-04
1.497776459891e-04
1.164171881254e-04
1.495511738586e-04
1.394737434445e-04
4.994656174592e-04
3.126596433046e-04
2.656451840487e-04
5.512146343309e-04
5.478404078236e-04
6.543703068282e-04
7.066969326251e-04
7.292257809066e-04
5.182254199727e-04
3.772961361313e-05
5.068209088843e-04
7.023712359703e-04
7.053137767572e-04
9.034935541177e-04
8.681099508839e-04
4.998503861448e-04
8.654654996241e-04
5.895620793702e-04
3.387865222816e-04
5.023282053966e-04
8.610484090904e-04
6.969273947015e-04
8.114912522944e-04
3.066747276919e-04
1.031286558348e-04
7.940042257422e-04
7.514569823258e-04
6.199677439276e-05
8.454993593349e-04
6.946613572604e-04
4.904031993171e-05
4.043465054525e-04
4.701260917007e-04
3.591769958220e-04
3.010429561774e-04
3.537650535641e-04
8.520744351586e-04
5.793631570773e-04
3.261491376649e-04
1.418039967851e-04
5.194733326263e-04
7.366211917707e-04
3.289742658715e-04
1.029625399055e-04
4.250840810499e-04
3.733497519716e-04
3.937484836423e-04
8.617156175713e-04
1.214391796965e-04
6.025351137927e-04
8.438264723838e-04
4.251430981113e-04
4.028071146061e-04
8.421798094545e-04
8.449973380302e-04
6.540085342924e-04
4.550812470554e-04
8.653037555385e-04
4.073208974335e-04
8.427923186268e-04
8.640045548534e-04
5.578310155526e-04
6.509573146725e-04
4.117138516470e-04
3.711211770560e-04
4.681101004950e-04
3.518672901193e-04
5.147824992523e-04
4.107193794640e-04
3.646113790963e-05
5.532223658631e-04
1.258155624666e-04
4.487912821367e-04
8.442761777728e-04
3.036097253508e-04
6.795876328870e-04
2.190343751187e-04
6.939470314270e-04
5.021535652402e-04
3.806977165922e-04
7.481063603695e-04
1.298522692207e-04
7.928147477738e-04
5.039709184499e-04
8.650019251011e-04
5.013582088109e-04
3.160516627979e-04
4.393239970158e-04
5.920825198174e-04
2.289923969885e-04
3.854224720753e-04
6.780718451192e-04
5.198603884199e-04
3.586956886529e-04
4.169796386473e-04
7.560276412873e-04
4.159140997811e-04
8.428055575623e-04
8.639767009483e-04
2.975132247583e-04
3.989799041527e-04
7.712498508064e-04
3.945945745463e-04
2.576819868644e-04
4.854060291149e-04
3.951341740237e-04
8.456558194475e-04
7.010154264104e-04
7.714816593418e-04
1.746707301352e-04
3.610997931363e-04
7.204647992586e-04
1.945331205908e-05
3.903836025195e-04
7.222445599691e-04
1.036327141325e-04
8.424473339204e-04
6.428453457772e-04
3.831449392291e-04
7.193613777923e-04
5.586004203897e-04
5.898087867421e-04
8.246624455494e-04
2.857235697232e-04
4.866694704310e-04
5.222557039026e-04
6.732665719341e-04
5.326319802480e-04
4.881655111683e-04
6.257681940146e-04
7.388362075692e-04
5.690614774354e-05
2.917017983456e-04
3.317775165376e-04
4.735931798939e-04
7.340526410142e-04
1.447054251006e-04
6.965604954019e-04
5.013674676710e-04
3.566918662294e-04
6.715636749960e-04
6.571013662795e-05
6.877012871154e-04
5.549518836130e-05
8.040745949318e-05
1.732184497000e-04
2.392003364027e-04
7.177475001527e-04
2.320046903568e-04
2.075153724814e-04
1.800041788403e-04
1.507998795129e-04
7.424671531813e-04
5.071426105021e-04
8.446796247734e-04
0.0
2.497594834345e-04
4.009784043096e-04
3.635781274630e-04
6.932515688423e-04
8.647303225506e-04
6.886146806345e-04
2.931670056878e-04
7.441379809633e-04
6.308353337863e-04
4.980516236996e-04
6.615635321969e-04
8.261379668094e-04
4.064024309512e-04
2.371048478647e-04
5.754464620744e-04
9.026357122934e-04
4.917413561400e-04
5.134823346619e-04
5.630191156583e-04
1.329471826665e-04
5.277021269871e-04
2.878196777098e-04
1.938006262720e-04
1.362334838042e-04
7.132570322814e-04
5.514544182274e-04
3.441653812797e-04
7.429062318585e-04
7.078085783757e-04
5.222121837301e-04
8.463050092743e-04
5.284876028695e-04
5.460070011469e-04
4.376131710040e-04
5.575789166973e-04
2.377977007102e-04
5.035541614816e-04
4.257154416742e-04
3.011811086088e-04
6.820805742593e-04
2.384378149136e-05
5.562902183290e-04
3.071842567668e-04
2.550196540710e-04
2.439773196071e-04
5.894366693464e-04
9.570931057482e-05
3.576303071845e-04
5.731391386351e-04
5.461339597621e-04
5.616867596350e-04
1.271009961872e-04
2.958157551279e-04
2.761694005421e-04
3.216903735558e-04
6.680530276719e-04
3.637979337747e-04
3.949989305544e-04
3.759115002993e-04
1.575634516332e-04
4.501668004302e-04
1.708993772794e-04
9.019026024371e-04
9.023973057295e-04
5.057511345693e-04
2.631127598013e-04
2.307674832005e-04
5.600193776098e-04
2.500946570906e-04
2.700679866253e-04
4.922948739685e-04
8.667616329614e-04
3.318462296128e-04
6.222149882880e-04
1.830371105394e-04
9.023475672024e-04
2.441397582287e-04
5.112104398270e-04
1.689503966276e-04
6.053623747982e-04
4.196544349859e-04
2.903890059932e-04
5.270871447235e-04
9.021440381368e-04
3.510699855254e-04
5.781821550489e-04
1.886309360797e-04
6.316875196563e-04
6.668857487106e-04
2.624435093985e-04
6.164660003841e-04
9.026438880277e-04
7.124911027791e-04
9.030006616607e-04
6.099328680256e-04
7.015574955173e-04
2.180182464546e-04
4.840383207087e-04
5.408811792003e-04
5.701871426172e-04
4.675332375955e-04
9.035883904622e-04
5.850053230518e-04
5.141279373987e-04
3.811690988531e-04
1.956242149518e-04
4.646237938930e-04
2.742553589397e-04
5.220512861019e-04
2.960117191843e-04
3.368501384635e-04
7.076177555195e-04
2.798327001462e-04
4.981195041245e-04
5.922020028833e-04
5.249691217824e-04
9.022141612185e-04
4.195717744466e-04
2.760615473356e-04
3.714756492195e-04
2.666495641069e-04
2.573536274963e-04
7.531436391681e-04
5.406886875803e-04
3.691632618911e-04
4.556110258937e-04
9.030518011549e-04
8.532871781874e-04
7.461245423291e-04
6.934880992847e-04
5.105698072066e-04
3.813116805693e-04
2.690679185398e-04
3.126694468458e-04
5.164893174634e-04
5.919748660066e-04
4.476339003619e-04
7.537614717665e-04
2.814322894241e-04
4.431267281225e-04
5.162384399113e-04
3.994083330778e-04
9.019027868779e-04
9.024199943997e-04
8.466674059490e-04
5.551721733312e-04
7.381697029613e-04
2.318050061718e-04
3.566133739436e-04
2.004113789535e-04
3.876518657496e-04
5.007689008681e-04
6.066206779727e-04
8.634617584911e-04
7.387016338322e-04
5.700145676085e-04
5.843478329972e-04
2.129102317008e-04
9.963202888370e-05
4.255642556790e-04
4.864892581303e-04
4.557093610505e-04
1.015080950596e-04
5.392744089157e-04
1.864447400827e-04
2.686669338435e-04
8.829401381496e-04
6.479849204365e-04
5.101152900271e-04
1.402250907171e-04
4.625920286436e-04
4.307827734044e-04
5.943113921106e-04
9.027611341500e-04
4.797580040648e-04
5.649702214781e-04
4.419535104601e-04
7.334092120784e-04
5.703474346401e-04
9.028672049198e-04
8.818149095568e-04
8.812004500203e-04
8.770344726619e-04
6.086454399872e-04
7.380884957385e-04
7.670249911297e-04
3.946547610248e-04
3.761808931614e-04
4.220813725199e-04
7.589723938571e-04
9.023328764655e-04
7.577932565223e-04
6.026760527823e-04
7.626774697069e-04
6.606437481449e-04
4.567756297563e-04
3.825801685651e-04
2.007576887360e-04
8.470469883245e-04
3.704624717408e-04
8.076533810370e-04
4.162571300339e-04
2.699749840163e-04
8.434505841465e-04
2.924500070844e-04
8.816442479766e-04
8.452247512919e-04
5.545088614739e-04
3.473443607641e-05
8.815269345483e-04
8.437795076668e-04
2.644715325930e-04
6.230832692165e-04
9.043633052623e-04
0.0
4.136686690805e-04
5.789929662664e-04
5.300876254499e-04
5.356595073985e-04
2.252617715596e-04
8.806829294995e-04
4.006991802615e-04
1.303841541133e-04
8.663125818618e-04
6.051131586377e-05
4.315774978662e-04
1.176867923368e-04
4.596515473754e-04
9.012311898413e-04
8.829625409697e-04
5.653646595553e-04
8.124087917367e-05
9.994837872237e-05
1.389614691644e-04
7.526188084607e-04
5.232481456078e-04
5.352467886841e-04
8.832777862969e-04
5.239926934470e-04
9.034954834455e-04
6.742815143354e-04
5.863949273689e-04
2.820464387522e-04
6.178481751699e-04
1.825530642902e-04
8.832148814275e-04
8.787933827960e-04
8.806921593160e-04
5.756624678762e-04
3.963242992692e-04
4.623808742286e-04
5.898300044950e-04
8.827105655163e-04
2.739608454354e-04
3.152297798322e-04
3.346486994201e-04
6.118815291473e-04
9.031087235632e-04
9.826315240639e-05
8.806359177385e-04
3.091995583178e-04
8.830701307018e-04
7.737556814763e-04
2.602550826630e-05
4.315307198807e-04
7.678889909001e-04
8.823867652728e-04
6.136211757286e-04
6.941437612341e-04
1.584089862020e-04
8.072406538752e-04
3.285549430036e-04
3.399738602395e-04
6.350089245098e-05
8.815166830728e-04
2.259416864064e-04
7.443039276558e-04
5.669420517884e-04
2.830302926058e-04
3.206987936709e-04
5.893066187854e-04
8.831255390235e-04
4.112126309151e-04
6.461218310913e-04
5.245062035981e-04
5.860608677982e-04
3.451263767299e-04
6.003773440688e-04
5.107552153637e-04
6.659208771778e-04
6.625383459481e-04
5.000360828217e-04
4.220154532181e-04
2.979654696955e-04
3.903746207876e-04
6.804313980790e-04
5.475016889342e-04
9.031543334572e-04
7.872511197512e-04
2.513213857487e-04
8.791428665884e-04
8.623865534780e-04
4.695549206328e-04
3.669236207070e-05
9.023712677026e-04
7.825243345501e-04
2.836634880462e-04
8.808658468444e-04
6.210975252764e-04
4.005662234096e-04
5.509439591359e-04
5.333534302821e-04
5.303907689406e-04
6.114043158285e-04
6.485756697789e-04
4.497226363466e-04
6.883221258394e-04
5.985234349653e-04
4.277851164571e-04
6.370445780655e-04
3.335340985590e-04
5.972217102501e-04
2.690095818511e-05
3.234473257320e-04
3.145667651333e-04
4.619525145775e-04
4.941683527065e-04
6.157927676169e-04
5.953076823754e-04
2.893667186736e-04
8.829502872488e-04
5.841509097848e-04
4.814294041828e-04
5.596214459887e-04
4.676664971932e-04
0.0
5.801676505400e-04
3.844985916664e-04
0.0
4.554300220234e-04
6.611400294946e-04
7.615386503395e-04
5.667217612568e-04
5.798125605848e-04
4.946399896661e-04
4.612945919967e-04
8.448933154629e-04
5.351237915902e-04
2.265059230248e-05
1.593136185292e-04
3.598215869650e-05
2.756541644965e-04
7.595674519950e-04
7.663452637067e-04
7.206272217663e-04
3.111805889127e-04
6.034032161237e-04
7.573752906356e-04
1.740144548794e-04
3.864583664951e-04
3.117083041406e-04
9.031633853049e-04
8.822228944503e-04
4.285735382123e-04
4.870038452020e-04
5.444247428616e-04
7.843706278062e-04
1.688678543700e-04
7.320309974875e-04
1.024779424926e-04
4.424111468176e-04
4.932536473152e-04
3.661873855527e-05
4.046650665538e-04
7.818962903618e-04
2.628493764547e-05
4.594828512294e-04
4.812071489687e-04
6.367624673799e-04
3.155481759348e-04
3.029147364413e-04
2.132280228371e-04
7.837934729915e-04
8.448257163848e-04
7.363444438744e-04
2.851623301377e-04
1.072863423376e-04
4.603504121984e-04
4.608177344525e-04
4.831872055831e-04
0.0
3.555241354687e-05
7.966173186171e-05
2.342846998403e-04
6.373569268983e-05
4.549076851565e-04
0.0
2.796945326255e-04
6.183777696222e-04
4.824258644607e-04
7.814158546744e-04
6.352076666034e-04
5.781612852690e-04
3.372841396968e-04
1.018092465349e-04
8.804341959841e-04
9.035439950554e-04
5.614027168615e-04
4.616000397093e-04
3.431731325220e-04
9.014339937115e-04
2.659509024599e-04
4.803513075401e-04
4.596149613707e-04
4.369192074101e-04
8.832852469207e-04
9.009032309479e-04
6.250414495270e-05
0.0
1.266214781953e-04
4.876279566065e-04
8.196533199701e-04
2.444433938167e-05
7.274110977346e-04
0.0
6.250843933025e-04
2.867078562402e-05
2.783203544243e-05
5.997115799954e-04
7.944815531002e-04
6.355701656843e-04
4.791132808813e-04
3.652595870710e-05
6.229816343343e-04
8.791826602914e-04
9.014687340808e-04
4.821873124554e-04
6.503883133201e-04
8.818062794857e-04
6.993504510242e-04
9.789390783998e-05
6.279365927203e-05
3.939974307887e-05
3.825618914400e-04
9.021047273405e-04
8.443030366409e-04
0.0
4.516920689161e-04
8.837977955305e-04
9.047268419961e-04
9.014166279866e-04
6.824648899155e-04
7.516239818066e-04
8.796515991076e-04
8.818821043928e-04
7.273160736883e-04
2.211575098140e-05
4.787532764467e-04
4.846356056311e-04
0.0
8.847559387122e-04
9.037195635447e-04
8.791881994104e-04
2.812709352533e-05
2.886337119670e-05
8.807302274622e-04
8.799262388240e-04
6.606959234620e-04
4.786921816039e-04
7.045004432885e-04
5.666139951839e-04
4.780950833957e-04
2.553609013369e-05
2.943212211666e-05
2.487007266475e-05
2.712132983020e-05
4.772021594015e-04
4.286502641088e-04
0.0
6.145195953194e-04
0.0
8.800821581416e-04
8.788987143881e-04
8.809194080868e-04
1.543232978874e-04
2.904945093705e-04
8.796413922759e-04
7.525259440061e-04
8.837915350881e-04
7.992262474011e-04
8.460368269156e-04
4.052497561465e-04
9.034475555497e-04
9.025505378386e-04
7.709083270601e-04
8.195089923752e-04
6.617362762152e-04
0.0
4.176416125064e-04
6.092826118018e-05
7.888929342565e-04
4.363249681698e-04
7.275214838645e-04
2.209065391860e-04
8.130906403886e-05
7.783803544764e-04
4.610171208733e-04
3.609674789086e-04
7.334454872421e-04
7.883388593484e-04
3.608088371091e-04
6.922006084626e-04
6.034876983327e-04
6.562206089320e-04
6.777106223571e-04
3.699030016403e-04
4.367455166762e-04
4.808107450878e-04
6.170029851944e-04
7.543946188843e-04
6.998918906109e-04
2.236916744938e-04
7.865894495829e-04
7.412777532416e-04
5.338023001125e-04
6.428876137913e-04
6.366868729429e-04
7.982659732683e-04
7.683299234494e-04
5.896655507063e-04
7.981209395123e-04
7.317182777283e-04
6.996282799597e-04
8.110166413216e-04
7.924641880626e-04
6.744131504159e-04
6.666687721535e-04
2.222812676772e-04
2.065367340502e-04
1.125541859685e-04
6.237733767345e-05
7.698425966603e-04
7.679810230491e-04
6.018528781591e-05
7.767838420586e-04
5.508431979073e-04
7.139111020130e-04
7.225345758280e-04
3.210916204918e-04
7.277792051553e-04
5.345154592761e-04
6.681973168260e-04
8.270717611794e-04
2.126569924616e-04
8.168359037540e-04
6.998709092975e-04
2.419277465397e-04
2.572139128868e-04
5.157383088969e-04
6.206435762795e-04
3.445305893728e-04
7.246223149107e-04
6.508258121004e-04
5.014012835763e-04
6.818156971164e-04
7.083328473163e-04
6.952144219197e-04
1.892569743241e-04
4.759731321316e-04
7.583758524429e-04
7.205684773619e-04
4.286991399852e-04
6.094148028769e-04
7.977133214395e-04
6.694832793452e-04
1.063908867657e-04
1.078325644387e-04
2.185995729447e-04
7.487063186169e-04
6.453888805748e-04
5.685571839540e-04
5.747340170202e-04
7.632873978513e-04
5.213198554590e-04
7.022694847875e-04
2.278532579141e-04
8.104690401052e-04
5.072778477496e-04
2.493887876613e-04
4.811363962896e-04
3.641239825016e-04
2.855768811343e-04
5.596568083914e-04
0.0
0.0
6.426259570283e-04
2.090044132862e-04
6.487981239576e-04
6.292228741945e-04
3.962033144448e-04
2.579044153745e-04
7.616473441749e-04
1.019762165520e-04
3.852520764996e-04
7.853811998397e-04
1.733076863571e-04
6.041255787992e-04
5.562754309982e-04
1.755785073398e-04
7.771304788849e-04
6.907987842018e-04
2.031638653013e-04
7.812508794649e-04
7.761681869909e-04
2.340588006309e-04
3.099693431780e-04
2.401902132467e-04
6.877850878179e-04
5.412899770906e-04
7.773630800326e-04
7.570625316910e-04
6.683791686238e-04
6.625290522613e-04
1.893340517518e-04
6.820308372633e-04
6.862847063831e-04
5.467902184326e-04
6.498698714300e-04
7.159072219897e-04
4.836380743717e-04
7.367030404168e-04
4.559169101876e-04
5.273150536082e-04
3.411674526490e-04
3.634633618335e-04
6.658946142908e-04
5.048839066709e-04
2.598481237302e-04
1.310675626010e-04
6.702674056581e-04
2.538844621688e-04
8.100545142142e-04
6.906694072021e-04
7.081089564605e-04
8.422326803080e-04
4.360105328501e-04
2.279423584865e-04
1.438342882826e-04
6.746645813760e-04
6.253129879063e-04
9.918819555369e-05
3.502385490956e-04
2.023555415197e-04
6.246699331793e-04
3.695628740598e-04
6.232537801749e-04
3.438500574503e-04
7.461722125166e-04
2.994852823397e-04
6.807902368991e-04
2.134297640903e-04
6.549102842848e-04
5.031003560477e-04
6.885245121902e-04
3.402916395449e-04
1.961866029563e-04
5.822861240524e-04
6.308362435894e-04
4.380632245669e-04
6.281676019648e-04
2.380403549025e-04
6.367384190698e-04
1.839508450066e-04
7.725002622059e-04
6.561620715167e-04
6.933815038025e-04
8.092250112126e-04
5.501611933615e-04
1.836188012187e-04
6.153653481655e-04
7.923633784811e-04
3.086645625323e-04
6.943493645374e-04
6.953376833628e-04
2.383737125918e-04
6.351661673105e-04
5.732469191631e-04
2.731502544442e-04
3.307497968412e-04
5.297758459477e-04
6.688023425968e-04
4.058187172305e-04
5.054096064123e-04
6.614441040854e-04
5.998784189862e-04
5.910883509517e-04
4.972646323121e-04
7.574466861930e-04
5.955283378909e-04
5.798186174699e-04
8.003940697799e-04
7.180161900282e-04
6.490287924266e-04
7.113553544645e-04
3.823555630989e-04
3.565404549641e-04
1.953976897051e-04
6.410050228313e-04
3.763189430417e-04
6.449063337002e-04
6.199045494020e-04
5.084125206731e-04
3.051454170769e-04
3.258730291925e-04
3.248932828681e-04
3.506411482378e-04
2.087274372249e-04
7.378551383479e-04
4.282574386795e-04
7.412552030348e-04
4.541815597642e-04
6.095351943613e-04
5.187506594856e-04
4.997510169959e-04
2.146153585684e-04
7.711538397404e-04
8.079476018067e-04
6.361701368165e-04
3.764967077337e-04
5.641220258623e-04
6.406080403220e-04
4.020423173836e-04
4.195882062222e-04
3.055816158326e-04
2.636950223364e-04
4.082271319947e-04
2.736025990170e-04
2.537953830401e-04
5.245273162057e-04
6.292993035881e-04
7.492900454241e-04
3.203758316606e-05
4.405577458711e-04
4.346027194587e-04
4.023785191973e-04
6.155232675037e-04
4.734346387430e-04
3.196066524516e-04
4.342139395113e-04
7.163087986927e-04
3.260933403649e-04
1.168244718053e-04
1.647945889040e-04
2.770873895178e-04
3.310730520104e-04
4.602757153186e-04
4.600207765890e-04
1.928157764076e-04
1.707341749778e-04
5.895058594021e-04
2.797745439378e-04
7.062976887918e-04
7.244525292788e-04
5.994482200641e-04
7.479362706433e-04
7.722073383501e-04
4.891222082220e-04
6.801196645123e-04
2.186358735565e-04
4.535223376976e-04
4.450813002302e-04
2.467733830818e-04
1.750442891068e-04
3.704464435431e-04
4.405809917950e-04
4.660198440887e-04
2.935158266565e-04
4.992118488517e-04
4.465362306875e-04
4.659568211177e-04
3.372178723478e-04
6.620913788087e-04
6.659627664384e-04
4.464589383721e-04
7.516390930913e-04
2.441816649308e-04
8.072504021232e-04
4.795300791222e-04
8.017371460895e-04
6.085549533664e-04
2.321228935279e-04
6.185852731565e-04
7.630767509020e-04
5.051417859832e-04
3.661414466216e-04
6.376993777508e-04
4.811178594329e-04
1.857807587189e-04
8.390465361483e-04
1.628736303485e-04
8.036589317589e-04
7.822328340233e-04
6.817113985780e-04
5.944690303378e-04
7.324063707552e-04
4.717283072585e-04
5.530050660420e-04
7.919782093495e-04
6.749206336022e-04
6.866667910661e-04
6.457616521014e-04
2.126152465348e-04
7.069826387246e-04
8.629714234730e-04
7.993865070988e-04
4.477431927428e-04
5.982374328927e-04
5.702467583064e-04
4.852758503030e-04
6.550541832802e-04
6.806275031619e-04
1.495582113029e-04
2.819536409307e-04
4.719088448474e-04
4.524404810498e-04
4.753774359264e-04
8.204202764358e-04
7.726022105671e-04
7.860269249390e-04
4.302864262974e-04
7.179879766962e-04
6.608709654568e-04
7.991666135651e-04
6.815066276248e-04
4.792430800077e-04
4.524987585418e-04
7.025482517895e-04
7.779314873333e-04
7.070226180185e-04
6.822309135255e-04
7.465300404061e-04
7.826368761700e-04
7.260240088116e-04
5.837814341675e-04
4.125387530949e-04
7.065160572798e-04
6.683788434956e-04
2.478373517059e-04
4.777284192442e-04
5.353515613939e-04
5.977625510039e-04
2.507745920709e-04
4.583293862520e-04
6.426616075672e-04
4.741323037944e-04
4.930461985426e-04
6.351704220665e-04
5.035899061353e-04
8.748336872995e-05
5.699093729231e-04
6.954848808431e-04
7.976626568000e-04
5.222109466484e-04
5.384171766190e-04
6.412047717611e-04
1.333587154635e-04
6.759698665895e-04
5.725287969111e-04
5.032199876639e-04
6.864279124225e-04
2.514950635447e-04
7.120564692623e-04
7.780948302509e-04
6.564610749456e-04
7.116821158201e-04
7.246360851013e-04
7.833643354194e-04
1.802790547338e-04
6.612816129093e-04
7.861355491829e-04
7.278229343817e-04
6.115797601383e-04
4.833414631772e-04
5.268286526492e-04
1.425296761520e-04
7.526132568008e-04
2.678943445110e-04
2.211120256558e-04
7.044851606333e-04
8.041173484503e-04
2.253293374700e-04
5.541855973425e-04
6.771406016496e-04
5.185055617143e-04
2.565916003583e-04
3.358426263350e-04
1.654267237843e-04
2.195587793392e-04
1.948064560472e-04
5.668209511317e-04
9.024478657275e-04
2.656438147348e-04
7.662341416689e-04
4.141061097714e-04
6.566720836641e-04
1.877799869201e-04
8.084989395093e-04
1.994569434083e-04
3.140464818660e-04
6.820386484981e-04
4.908002713549e-04
7.628181862507e-04
3.758479425673e-04
6.979283655874e-04
7.957911377227e-04
6.571731431381e-04
8.029731230695e-04
7.270515574910e-04
7.476451225947e-04
2.191637260577e-04
7.397348748796e-04
6.976508043859e-04
5.085012302089e-04
3.119003519742e-04
8.251246623771e-04
2.569217320374e-04
2.989728286296e-04
7.328562567959e-04
1.824812964156e-04
5.242757088580e-04
7.013386659934e-04
7.908799406318e-04
8.131260850100e-04
6.875825611049e-04
7.527048348785e-04
4.392290927810e-04
7.101308226447e-04
3.576610988848e-04
7.839173444398e-04
4.037880571282e-04
4.232159837033e-04
5.029022043263e-04
4.507734252293e-04
5.870500808989e-04
4.752244134070e-04
5.026363052125e-04
2.249310114461e-04
4.776453301647e-04
7.733738486002e-04
7.976476035845e-04
6.945548351068e-04
7.772416007150e-04
4.852334699188e-04
7.428006378953e-04
4.970035832582e-04
7.593068717160e-04
7.224411528600e-04
7.227149131649e-04
6.309607774765e-04
4.584456414079e-04
7.531944029664e-04
6.034972236900e-04
2.308119231500e-04
2.624460620044e-04
3.872761120802e-04
5.489843774695e-04
7.797820896700e-04
7.023632392719e-04
4.641088760791e-04
6.218312804433e-04
7.219008359154e-04
7.573917115974e-04
7.785266204010e-04
6.280166874005e-04
7.383877363914e-04
5.278638301658e-04
7.262918204668e-04
5.188928070716e-04
7.977154867570e-04
8.063595481928e-04
5.860927408408e-04
2.315643799225e-04
7.386133228481e-04
5.676947967437e-04
4.449348027813e-04
6.172626666964e-04
7.179827493323e-04
2.370266014843e-04
5.414414582278e-04
6.328258620691e-04
7.852987061870e-04
6.515827953541e-04
7.191722898294e-04
6.137788463094e-04
5.757943947390e-04
6.225247935544e-04
7.525361268811e-04
7.265450907645e-04
6.730854564585e-04
8.087327558910e-04
5.947165434318e-04
3.757083337357e-04
7.690299236002e-04
8.027797653313e-04
5.132285230033e-04
5.378259550272e-04
4.198490164914e-04
6.932498007595e-04
4.196989786401e-04
6.013383056530e-04
4.244065472614e-04
7.076412824923e-04
8.082825049946e-04
4.390606027736e-04
1.483230989868e-04
8.029617023961e-04
4.435164002791e-04
5.102475381477e-04
7.829133683486e-04
6.777367698023e-04
7.065388141310e-04
4.506750626245e-04
1.167461404750e-04
8.120451166423e-04
5.678324770761e-04
6.713655535843e-04
7.707853918245e-04
7.492364537136e-05
7.006400612350e-04
3.174082064534e-04
6.321144681100e-04
5.639974680990e-04
4.332125152761e-04
7.650774128591e-04
5.816219672421e-04
3.891223975006e-04
5.975818898240e-04
1.224806412890e-04
6.853035704159e-04
7.134125102004e-04
8.179492543021e-04
7.297421601193e-04
3.065079168190e-04
7.004003726196e-04
8.165253916176e-04
8.479924542833e-04
7.386332535642e-04
4.696607101220e-04
6.412724926972e-04
7.730297312436e-04
5.224557452220e-04
6.991686312028e-04
6.522881639181e-04
7.454810025326e-04
7.319099201394e-04
4.592718609033e-04
4.589748948831e-04
6.632348156822e-04
6.550643866417e-04
5.839389106664e-04
6.520225668259e-04
5.568349206801e-04
7.827592798598e-04
4.641682869918e-04
9.023985271437e-04
5.323389960366e-04
5.433977192185e-04
5.581483784777e-04
2.876533767836e-04
4.987925639303e-04
6.113280308229e-04
5.734936793023e-04
6.486149626944e-04
6.664011184541e-04
6.953526663878e-04
1.412062264109e-04
4.675204502198e-04
4.485143747990e-04
6.274607649306e-04
6.578443530004e-04
7.694390836844e-04
2.018827599834e-04
2.118548485698e-04
5.434196226545e-04
4.731655300954e-04
4.306957946138e-04
4.543511483622e-04
6.528939094235e-04
2.067591147696e-04
5.327937831684e-04
7.010212531473e-04
2.056531891882e-04
8.439841012356e-04
7.711259233898e-04
5.127813030370e-04
7.142204993727e-04
8.010879403205e-05
6.760026335023e-04
5.731440943210e-04
7.848797575394e-05
7.668831780950e-04
1.937244266693e-04
6.327922999710e-04
5.785286832994e-04
4.968174943866e-04
5.956127873224e-04
7.880861604784e-04
6.409960854337e-04
5.623311144195e-04
5.487641104452e-04
6.109272857416e-05
1.629874435700e-04
7.482510755206e-04
6.040877386252e-04
7.640917445135e-04
3.123204989809e-04
7.273523556962e-04
7.747935678475e-04
4.649937047846e-04
7.426717535746e-04
7.200303897050e-04
6.303284010484e-04
5.129756421741e-04
5.441585730997e-04
8.113189037915e-04
5.503878304791e-04
5.924281748206e-04
5.531250535128e-04
6.865936238777e-04
5.186424646122e-04
3.204813496190e-04
5.606647508770e-04
3.450779890533e-04
6.470302402466e-04
3.505252796099e-04
6.277520247305e-04
7.587948185470e-04
7.268103064184e-04
4.888355696636e-04
6.236801479114e-04
7.339558663339e-04
7.397456106695e-04
1.647892676569e-04
6.415300113062e-04
8.022742046258e-04
3.412132358055e-04
5.581165807734e-04
8.708025055710e-05
7.535189856760e-04
3.010719485934e-04
5.274804108231e-04
6.673026496075e-04
6.282397646401e-04
5.981992314315e-04
5.868815627898e-04
3.840091498006e-04
4.074033715262e-04
7.595591585227e-04
6.255621355900e-04
5.413215478798e-04
6.709724982699e-04
5.163063894937e-04
3.315774455480e-04
3.763959762493e-04
5.615934434708e-04
4.817973037771e-04
7.326130562771e-04
4.941499276580e-04
8.205042127968e-04
7.452468947420e-04
5.472972600878e-04
8.312900741524e-04
3.699819044739e-04
8.018291199323e-04
5.922723470957e-04
6.492908331354e-04
7.668482132430e-04
3.896525471501e-04
6.172543904820e-04
5.220226255599e-04
6.028779115149e-04
3.408590409728e-04
6.699987248021e-04
4.909242862165e-04
5.778210378881e-04
5.978296419796e-04
8.229029561000e-05
5.981137410256e-04
1.283223021349e-04
1.425604046919e-04
5.519635169088e-04
7.343432326655e-04
6.172079870032e-04
3.390874049380e-04
8.835512891396e-04
3.541794485888e-05
3.613399971481e-04
5.544855267789e-04
5.326254913468e-04
4.424845602747e-04
3.782682788717e-04
5.798739096979e-04
6.167777849603e-04
6.437007506706e-04
7.590632464972e-04
1.759096795290e-04
5.070291229362e-04
5.467926510370e-04
2.917605163706e-04
4.894986857120e-04
6.227812367473e-04
6.771752748072e-04
1.001730422140e-04
6.527003657202e-05
2.035166912421e-04
5.524955955533e-04
4.141708406182e-04
3.646770521929e-04
3.255364608925e-04
5.717928128404e-04
6.564800500114e-04
5.666644769925e-04
4.085506308660e-04
6.465993337185e-04
5.417387641994e-04
7.125425157821e-04
5.723661868930e-04
5.777202621077e-04
2.916076193924e-04
4.336480661839e-04
5.858412025591e-04
6.379366452071e-04
5.991263956497e-04
3.166301193058e-04
5.916947495787e-04
3.585996022864e-04
1.686121238923e-04
8.065430386563e-04
1.781249146415e-04
3.724154870578e-04
5.819798147523e-04
3.300189918571e-04
5.928518961627e-04
2.717893358977e-04
5.034514971512e-04
5.975048584584e-04
5.161248570229e-04
5.386329409282e-04
8.667360441849e-05
7.766355700003e-04
4.278027150325e-04
7.709884658025e-04
6.554981013868e-04
6.113729652278e-04
6.169416889889e-04
3.837801442347e-04
1.206709874370e-04
7.269670928316e-05
6.307319205139e-04
7.666183021714e-04
3.527221907689e-04
6.608281624571e-04
3.135411494528e-04
6.715213762121e-04
8.631320342243e-04
2.443176703526e-05
8.829965077119e-04
8.852121263970e-04
5.187863560737e-04
4.219301114264e-04
6.361517130024e-04
3.946797178833e-04
1.259295258068e-04
6.663094765465e-05
8.124043100395e-04
6.435964837156e-04
4.857059802391e-04
9.024611897643e-04
2.289087475018e-04
9.032106261994e-04
6.378439507150e-04
4.156051056860e-04
6.056962681492e-04
3.904754317435e-04
1.913315701783e-04
3.651077128311e-04
6.756031953244e-04
7.724144175276e-04
3.966058680347e-04
6.856021964007e-04
0.0
4.025686827041e-04
7.139120631654e-04
3.570731400853e-04
3.273347299656e-04
6.111873319657e-04
1.714241601602e-04
2.420040212522e-04
2.712090176002e-04
3.127039070016e-04
5.608332313648e-04
5.328849272093e-04
6.902231196026e-04
8.080955017943e-04
2.842556977963e-04
6.821682045895e-04
8.109606697113e-04
3.645861892778e-04
1.258230046435e-04
3.462855414954e-04
5.351169772372e-04
6.908562819823e-04
5.298709099370e-04
1.475829349837e-04
6.052995487488e-04
2.176340386909e-04
5.379426478049e-04
5.747509196573e-04
6.255223732288e-04
6.198429424376e-04
3.190834650638e-04
1.430237184057e-04
6.204770996910e-04
2.385014860191e-04
5.727538746632e-05
8.088933360730e-04
7.702342677557e-04
3.537830069708e-05
6.503365910815e-04
2.479462791813e-04
2.600158871832e-04
7.304280687047e-04
6.303423890785e-04
7.052277971026e-04
4.085225165101e-04
4.822303009211e-04
8.428341203802e-04
2.144184038726e-04
7.491156234450e-04
5.624077246742e-04
1.620147722767e-04
6.703416370318e-04
4.275751542475e-04
7.844671194514e-05
3.593652216937e-04
6.605802268349e-04
6.829403826903e-04
1.683856497506e-04
5.389059366488e-04
7.114080209456e-04
7.412554945830e-04
3.386366915787e-04
2.659836531276e-04
5.773807037095e-04
6.106537074396e-04
7.794080869892e-05
8.647472179011e-04
8.429320017221e-04
5.419416684599e-04
8.464641737961e-04
8.449768812639e-04
4.218473016108e-04
4.026312649594e-04
8.662430778611e-04
0.0
2.463689065015e-04
5.423185032493e-04
3.455780040321e-04
3.534199359639e-04
1.932563100895e-04
2.285242578868e-04
5.533910755366e-04
3.894757547290e-04
2.855356333337e-04
7.152732176559e-04
9.025430170280e-04
9.028555141478e-04
4.158729496666e-04
4.991986293731e-04
5.007569812017e-05
1.549723110472e-04
1.733686555641e-04
1.773311158401e-04
6.057473022357e-04
3.472267394595e-04
3.840401147294e-04
1.047743844350e-04
7.694785082956e-04
3.779515105815e-04
8.054340909103e-04
7.382880291593e-04
9.042222901304e-04
9.037391284983e-04
5.542239624201e-04
3.965200569982e-04
2.395169663989e-04
4.095473271816e-04
8.846617183911e-04
1.091075619098e-04
1.309117937249e-04
7.757007018757e-04
5.216493301951e-04
8.114985139276e-04
7.149555952708e-04
7.808260194802e-04
7.476070933347e-04
5.490969887376e-04
3.014610573917e-04
2.949948221418e-04
6.532450277148e-04
7.635848575454e-04
4.588641132707e-04
5.205058156001e-04
5.540928897098e-04
5.659168286544e-04
1.420511469143e-04
2.680728897049e-04
8.651629045309e-04
6.052440982456e-04
8.634119896890e-04
8.245717668539e-04
6.764662760295e-04
8.149161431282e-04
3.967880254959e-04
3.767005960415e-04
8.110139756078e-04
3.456957431072e-05
2.657950424331e-04
8.824542840959e-04
1.237061144379e-04
4.987214213507e-04
8.294168402688e-04
8.695215841111e-05
5.602562008274e-05
9.015334466947e-04
4.603425485765e-04
8.489922161072e-04
8.087138917440e-04
4.591008030381e-04
5.552241480747e-05
8.444214902365e-04
1.414135789209e-04
8.168961864667e-04
8.837090559571e-04
8.142426765288e-04
1.807958899793e-04
5.595583047635e-04
4.199792468794e-04
7.164591502921e-04
9.028817437699e-04
7.102313129860e-04
9.026811156521e-04
8.288145526137e-05
8.646233726606e-04
2.069739792553e-04
1.172764018555e-04
8.657097316282e-04
8.659008612292e-04
8.625184092857e-04
5.047279818662e-04
5.503926425959e-04
1.934303277458e-04
8.651050625011e-04
3.388354453695e-04
1.130064855855e-04
7.389517174799e-04
4.782630476822e-04
8.223389270151e-04
8.930658412704e-04
8.840898532866e-04
2.334843234610e-05
1.127894866393e-05
4.694771593736e-04
4.807281389759e-04
8.834165587509e-04
8.924916119185e-04
5.576594174246e-05
0.0
8.119181321880e-04
8.142322994912e-04
1.701766019211e-04
8.251842060796e-04
5.739886326733e-04
5.078648088346e-04
6.388823889726e-04
1.550243662730e-04
6.739268272391e-04
1.393043346543e-04
4.524792319836e-04
8.185153464905e-04
7.987444324357e-04
4.885491561285e-04
5.870976835179e-04
8.300271616539e-04
7.651236002798e-04
7.207118451452e-04
4.587797315069e-04
6.508513547530e-04
8.137396714987e-04
2.548267730587e-04
6.130172025363e-05
7.910594940571e-04
7.454571359396e-04
1.168423234533e-04
6.691954016891e-04
8.437645600948e-04
7.822748954745e-04
8.291678905268e-04
6.276953752614e-04
3.676099362061e-05
1.910008398258e-04
2.410902129174e-04
5.367277688070e-04
6.465619629803e-04
8.260192756098e-04
8.426510046720e-04
9.968867775761e-05
9.583122356830e-05
1.529254075451e-04
6.701562114990e-04
3.239280242567e-04
8.294279570789e-04
1.624109286017e-04
8.067702666274e-04
5.436640056567e-04
8.463726308532e-04
7.450121923899e-04
5.381792224530e-04
8.657268182902e-04
8.669176791877e-04
8.641188598614e-04
1.063408641689e-04
8.096899185402e-04
8.433515583067e-04
8.209426083778e-04
7.578403458605e-04
8.820824508574e-04
7.152183658321e-04
0.0
1.476863544574e-04
7.925042984467e-04
5.819610102914e-04
8.150003304523e-04
7.872814678585e-04
8.479070143319e-04
7.210640868520e-04
8.478357315245e-04
8.252654922693e-04
8.217924527872e-04
3.382456616413e-04
9.027319105777e-04
5.177284306761e-04
8.149780141980e-04
7.602985457212e-05
7.853489742656e-04
6.747924126657e-04
9.715604780866e-05
1.703587158512e-04
7.357623737217e-04
8.456239339759e-04
8.256639794594e-04
8.510870588008e-04
5.779321806582e-04
5.698562791087e-05
8.903845588755e-05
6.283407249005e-05
1.237561416650e-04
2.218122983909e-05
4.492152745151e-04
8.141022284179e-04
8.188324132241e-04
5.825183578263e-04
3.912991429551e-04
8.215127337613e-04
8.144364166830e-04
8.676175675571e-04
8.131246206762e-04
7.790398171078e-04
7.703091579876e-05
8.521732389425e-05
8.233105816384e-04
7.749586532649e-05
1.142956473345e-04
7.248547269918e-05
8.699680012183e-05
8.468513703275e-04
8.482556314247e-04
8.272172742286e-04
8.507165112290e-04
7.882896166762e-04
6.050128159723e-04
8.848716184046e-04
2.082654753157e-04
4.770383954530e-04
1.308584681555e-04
3.200133854228e-05
9.023297721724e-04
5.253788953819e-04
1.321285258096e-04
4.283053972209e-04
8.675733916602e-04
8.249021745336e-04
8.483302000566e-04
3.066024421433e-04
8.148429218192e-05
8.670431337253e-04
9.023411771345e-04
9.053923630978e-04
5.028745524170e-04
8.096342445588e-04
1.166784308444e-04
8.309395715063e-04
3.072536449823e-05
8.491015123024e-04
8.642157995563e-04
3.254999792424e-05
7.915264275696e-04
6.950269549080e-04
8.486200653357e-04
8.870888049155e-04
6.371787866159e-04
8.507580346647e-04
8.288142407060e-04
6.543265911992e-04
8.219609091343e-04
3.580802034436e-04
4.580585415293e-04
8.289670477400e-04
8.604442280761e-04
0.0
4.595975431844e-04
8.621910031762e-04
1.592545715764e-04
8.297085483634e-04
8.243206064822e-04
8.644406776067e-04
1.547160338610e-04
1.208044010377e-04
5.264955792143e-04
7.516483182700e-04
1.891156848520e-05
8.515789897366e-04
6.135789601255e-04
1.559509946477e-04
5.832862224491e-04
8.658507257749e-04
5.521778443811e-04
4.558321396471e-05
3.239427989419e-04
4.776913424967e-04
5.701251507253e-04
8.287479897685e-04
4.636624967177e-04
4.900391319366e-04
7.786229875005e-05
8.280550521141e-04
7.926388045417e-04
1.331660701839e-04
8.512291248288e-04
8.566440339275e-04
5.134667395409e-04
6.297245589001e-04
4.683583638002e-04
4.786896715519e-04
5.070171589005e-04
7.879088551411e-04
1.144990407912e-04
8.287518740281e-04
5.339553679767e-04
8.658836050112e-04
7.862007520820e-04
5.990262297868e-04
7.981889298720e-04
8.203027348467e-04
8.695097463781e-04
3.580066420134e-05
8.023135303917e-04
8.310675113497e-04
8.967195667714e-05
4.375219600786e-04
5.410315473196e-05
8.369220774202e-04
3.387590509463e-04
3.239558570236e-04
3.490589559299e-04
3.242489538052e-04
3.492778332294e-04
3.244009492226e-04
3.494137940559e-04
3.243450263155e-04
3.494285644229e-04
3.244491555650e-04
3.495528953540e-04
3.245729995313e-04
3.497476816412e-04
3.247790095566e-04
3.498156307860e-04
3.524344535621e-04
3.244756318896e-04
3.234927653718e-04
3.495180048905e-04
3.245640602665e-04
3.496724803304e-04
3.248419696225e-04
3.498816701128e-04
3.248366754099e-04
3.293404958308e-04
3.498297634467e-04
3.247755033259e-04
3.497132450553e-04
3.245820555673e-04
3.488372345038e-04
3.242701434091e-04
3.503144451308e-04
3.256426464242e-04
3.234521601643e-04
3.489428141026e-04
3.382079507074e-04
3.528736187585e-04
3.091709295256e-04
3.479959789487e-04
3.272882465017e-04
3.399401601187e-04
3.274902301269e-04
3.210995550700e-04
3.823738146998e-04
3.954225263856e-04
3.697566624949e-04
3.939322582241e-04
3.688694981486e-04
3.944097865815e-04
3.693773633783e-04
3.940314017453e-04
3.688791821506e-04
3.943498072948e-04
3.693104022334e-04
3.943240387101e-04
3.692423004483e-04
3.983221388088e-04
3.950761893213e-04
3.697532978986e-04
3.757283910689e-04
3.940431169502e-04
3.690941919872e-04
3.688922250286e-04
3.943316706399e-04
3.695967294386e-04
3.950039595106e-04
3.699171745464e-04
3.947738597822e-04
3.836764221872e-04
3.696289525296e-04
3.946866788540e-04
3.951305091693e-04
3.698050963930e-04
3.917401968718e-04
3.700257270424e-04
3.984140208452e-04
3.678384251997e-04
3.553107824800e-04
3.787353646524e-04
4.015883610286e-04
3.798602337846e-04
3.917784855672e-04
3.672570110000e-04
4.343021193814e-04
4.144431140943e-04
4.400238155636e-04
4.160910928413e-04
4.407194433539e-04
4.169792812266e-04
4.421275663542e-04
4.155655137509e-04
4.404257626118e-04
4.163557751547e-04
4.417490498800e-04
4.164243392235e-04
4.451512402664e-04
4.411469643058e-04
4.182864247912e-04
4.154450539294e-04
4.421592365310e-04
4.167200733669e-04
4.407251200889e-04
4.170139093125e-04
4.420435047998e-04
4.169234513539e-04
4.225836555007e-04
4.425201970351e-04
4.165861177248e-04
4.414159334299e-04
4.159924669279e-04
4.163537947849e-04
4.414971076271e-04
4.437645096039e-04
4.307709466435e-04
4.017743348262e-04
4.348445271150e-04
4.227645607119e-04
4.331703470473e-04
4.187044942453e-04
4.146339968586e-04

SCALARS element_materi_plasti_phimob float
LOOKUP_TABLE default
8.987950342603e+00
6.318722051123e+00
1.902135344166e+01
1.807803997840e+01
7.852004668287e+00
-7.130161709944e+00
8.006798826782e+00
8.873069331617e+00
8.070400343258e+00
1.802966794627e+01
2.145964333541e+01
4.009545210033e+00
2.092849968552e+01
1.011415204262e+01
2.074268306933e+01
1.838510028368e+01
7.001659910730e+00
-7.372566690905e+00
1.052818239640e+01
1.150477886711e+01
1.799889796186e+01
5.485698869503e+00
9.123657882941e+00
2.161506398508e+01
1.213135508210e+01
2.153531041242e+01
3.383526044935e+00
2.115558845988e+01
1.221142051756e+01
2.160060890140e+01
2.223928109571e+00
-2.085308622270e+01
1.889846966367e+01
2.133295460413e+01
2.111090543005e+01
2.087647741545e+01
2.077479213421e+01
2.154993685824e+01
4.082122136163e+00
4.307204586731e+00
5.352095186447e+00
2.091593821878e+01
4.661169142201e+00
3.153630417597e+00
1.768685944421e+01
3.839348441991e+00
-4.610223300792e+00
1.781555281816e+01
-2.207530763463e+01
8.892439287633e+00
7.538030528033e+00
1.383384122632e+01
1.112660609681e+01
1.055944462968e+00
1.864479501363e+01
1.744084862608e+01
1.475001910344e+01
2.139671688828e+01
4.780132211406e+00
1.836300380110e+01
-2.762892815746e+01
2.155250745769e+01
1.662625275290e+01
8.979503774181e+00
2.093376788081e+01
3.683746049538e+00
-3.007106668465e+01
1.898969971372e+01
5.551619109014e+00
2.019516311620e+01
2.154217710465e+01
1.914492943073e+01
2.074774343891e+01
-1.423099611825e+01
1.809453950721e+01
1.810017788890e+01
1.857790348933e+01
-8.605136346092e-01
5.344672323062e+00
1.764127626865e+00
6.007865809006e+00
6.840297677356e+00
9.857034699331e+00
4.580546755037e+00
9.568188029092e+00
9.604725891196e+00
2.150324659788e+01
2.142863329549e+01
1.729867972334e+01
7.663752885552e+00
-2.128613777934e+01
7.111881083852e+00
1.572728862120e+01
1.545647750656e+01
1.880667346426e+01
2.113838860101e+01
6.646622210564e+00
2.137013575760e+01
1.216373381190e+01
1.464350393497e+01
6.094168848877e+00
2.081381769628e+01
2.187432033558e+01
2.134869136420e+01
1.617194064981e+01
-6.021604735691e+00
2.110659640592e+01
1.642740099338e+01
-2.281732911439e+01
2.069770420667e+01
1.703112903580e+01
-2.559534268887e+01
2.101493192347e+01
4.974075860603e+00
1.982700723426e+01
1.390987958865e+01
1.656324812462e+01
2.097018536379e+01
1.143711141917e+01
1.695355457429e+01
4.675666347211e+00
7.344443896889e+00
1.654788437011e+01
1.646401750587e+01
-9.892062054416e+00
3.499464357805e+00
1.953032133850e+01
-1.433376042471e+00
1.846761536991e+01
-3.488659486898e+00
2.154386818333e+01
1.810631089642e+01
1.363641450008e+01
3.526879696001e+00
2.127434139735e+01
2.090403960118e+01
2.156079981997e+01
1.383650515815e+01
2.148038528467e+01
1.044981190677e+01
1.829016379964e+01
2.009629830147e+01
1.001292380950e+01
1.411953129300e+01
1.269302790225e+01
-1.004828477400e+00
1.477660653567e+01
1.852045713069e+01
6.813113776308e+00
2.072956398746e+01
-2.221448849292e+01
9.525042142390e+00
6.494571509893e+00
4.078893953779e+00
2.097115456645e+01
1.686335454516e+01
2.149898762320e+01
5.206963812050e+00
2.206471854533e+01
7.277502641259e+00
2.127820710305e+01
2.129975326792e+01
4.807188378318e+00
2.113154807138e+01
9.624542834397e+00
2.107854896754e+01
7.127752346388e+00
1.856606436368e+01
1.327309662794e+00
2.156963787788e+01
6.653850478534e+00
2.074613503961e+01
1.484172254800e+01
7.009316764579e+00
2.008421393652e+01
-5.778359963833e-01
1.884411795354e+01
2.021742826900e+01
2.093974923663e+01
2.028875091781e+01
1.172897637222e+01
2.036075837435e+01
2.198247622485e+01
9.623607182643e+00
9.593708607932e+00
6.950262725748e+00
1.986024923280e+01
1.829908592729e+01
1.651603521867e+01
2.122001768024e+01
2.132848405095e+00
2.057637721508e+01
1.720665397892e+01
-3.224588783735e+01
6.632727662376e+00
2.223696066282e+01
-3.901100805007e+00
1.859095856798e+01
1.410907396712e+01
2.137082974199e+01
2.256001882465e+01
9.751383287293e+00
1.133965849657e+01
2.133488763555e+01
1.843125682683e+01
1.678142342824e+01
1.182389332942e+01
1.473949728909e+01
1.078639742519e+01
7.901581592465e+00
2.232763404658e+01
1.829503549189e+01
-2.569605594201e+01
1.145296073118e+01
1.412996035326e+01
1.594997627972e+01
1.685671383591e+01
4.986759566469e+00
2.234619524996e+01
6.687339838542e+00
2.123647578319e+01
2.241118976285e+01
-1.716483774178e+01
1.543949772733e+01
-2.326022410720e+01
-2.846020768089e+00
3.326240627443e+00
1.636240041909e+01
1.591516033164e+01
1.483927378724e+01
1.052769846794e+01
1.034440975289e+01
8.055003659794e+00
2.239131432845e+01
1.043068652046e+01
2.100011890351e+01
-3.716724602322e+01
1.512453132777e+01
2.206023355810e+01
8.047655638558e+00
2.267398863367e+01
2.103958530756e+01
1.586776243151e+01
1.821298967964e+01
2.210804554464e+01
2.155357820509e+01
1.482674862909e+01
1.494132504351e+01
2.104293680324e+01
2.153469081700e+01
1.113311475034e+01
1.282544034297e+01
1.881584563539e+01
1.757234710715e+01
2.265115080092e+01
1.000335250484e+01
2.336439901985e+00
1.013568025831e+01
1.914119093209e+01
1.222493611575e+01
4.783963411300e+00
1.592432933078e+01
1.257652827650e+01
1.879345580246e+01
1.635986604190e+01
1.660409127374e+01
1.423072288867e+01
2.076266160903e+01
2.317379556817e+01
1.409550735761e+01
2.057322958828e+01
2.266955432206e+01
1.670258380321e+01
6.731790774283e+00
2.209073711767e+01
1.934441662151e+01
1.577137160227e+01
-2.501593927206e+01
1.130418478719e+01
2.039981621201e+01
1.413549773003e+01
1.555666636785e+01
1.382563806715e+01
-5.803947360520e+00
1.344313838024e+01
2.309037427029e+01
1.203157223454e+01
9.712587858137e+00
1.042954230688e-01
2.030469417577e+01
1.813917844825e+01
1.222070873342e+01
1.505050812413e+01
1.457412465309e+01
2.255198730787e+01
2.201877362993e+01
3.531220519319e+00
2.147550906052e+01
2.791435719177e+00
1.908203655282e+01
1.937754233679e+01
1.833004799040e+01
1.814985486954e+01
1.255272345292e+01
1.500993361828e+01
1.515682644069e+01
1.907725422394e+01
1.390206932691e+01
1.822079039904e+01
2.095520446641e+01
2.250624472315e+01
8.271810524550e+00
2.120114150187e+01
1.624961132760e+01
1.570033317046e+01
9.186436496167e+00
2.319376533808e+01
2.258775948934e+01
1.987925365300e+01
1.248869780033e+01
2.019104617124e+01
2.176993571753e+01
2.280888976445e+01
6.806844218159e+00
1.325394006150e+01
2.273640910998e+01
1.252703625526e+01
1.248802421092e+01
2.085414488488e+01
2.242654242641e+01
1.986937403869e+01
1.228865127340e+01
1.714832076533e+01
7.463178365948e+00
1.041355566244e+01
1.360114545886e+01
1.406523990075e+01
1.842244467903e+01
2.113520035304e+01
1.144007791293e+01
8.721383833323e+00
2.137350784307e+01
1.318481050980e+01
7.566879681717e+00
1.612214167279e+01
7.193770527106e+00
1.897451316465e+01
2.016257373701e+01
1.614488755040e+01
1.530845779941e+01
1.182460893163e+01
2.315418535670e+01
2.283787812766e+01
2.131265627912e+01
7.961017386731e+00
1.946305671445e+01
2.062722945597e+01
1.012306138093e+01
1.319348684918e+01
1.747211886678e+01
1.566209387978e+01
1.104510423332e+01
9.382509526167e+00
2.135290573757e+01
2.157557356200e+01
1.741915991590e+01
1.547880040515e+01
2.246307566060e+01
1.651134844412e+01
1.708557052319e+01
1.948597604130e+01
1.665121878572e+01
2.292516108031e+01
2.116789552133e+01
1.712995195873e+01
1.843219926411e+01
1.909664238610e+01
1.369053097573e+01
1.821528557285e+01
1.951348946436e+01
1.920413521906e+01
1.857942953556e+01
2.255754845098e+01
1.639490886324e+01
1.207261406926e+01
2.099800401934e+01
1.097661587290e+01
1.381555146159e+01
6.663763572160e+00
1.229903016225e+01
2.159422217048e+01
1.781739601115e+01
1.242487803311e+01
1.496752445214e+01
1.474636552730e+01
-5.624997452909e+00
2.187329851767e+01
1.959952104146e+01
2.134058564813e+01
-4.757490141033e+00
9.940084673015e+00
1.101010747472e+01
1.740942194083e+01
2.066698510629e+01
2.246955201444e+01
8.019274778968e+00
5.136821924893e+00
1.783042186457e+01
2.151666606077e+01
1.415570899852e+01
2.047359873898e+01
9.343676616904e+00
1.537172414965e+01
2.154440886174e+01
1.653791843506e+01
2.283605508403e+01
2.060167459783e+01
2.032303991026e+01
1.965414441534e+01
1.995721462628e+01
1.502629389093e+01
1.653451722530e+01
1.801453821913e+01
1.801453508605e+01
1.605682591559e+01
2.074529190828e+01
1.713576895555e+01
2.101947851197e+01
1.692541018469e+01
2.260184601289e+01
1.690259851235e+01
2.045122644667e+01
1.998440282388e+01
1.224772391951e+01
1.174041108657e+01
1.843114290150e+01
1.861018729800e+01
2.047716779877e+01
2.109818670076e+01
1.763226583272e+01
2.106411968427e+01
1.817302854846e+01
2.048481298912e+01
1.874504422477e+01
1.650092725074e+01
-2.282118422428e+01
2.072170148901e+01
2.110589647449e+01
1.852160163893e+01
2.269599237656e+01
2.136783762760e+01
-5.192964579506e+01
1.947850520285e+01
1.612795569637e+01
1.740985718764e+01
1.514619565697e+01
1.371188923264e+01
2.087388534185e+01
2.192675209732e+01
-3.028066594657e-01
2.115042877617e+01
-2.231097305928e+01
9.746530316386e+00
4.143912878449e+00
5.924035468031e+00
2.128962785698e+01
2.092675899008e+01
1.364654111250e+01
-5.341748314611e+00
-5.369061554785e+00
2.389045547820e+00
2.171518953005e+01
6.903174451371e+00
9.560362448172e+00
2.091380512478e+01
6.947829759408e+00
1.903638153929e+01
2.088688799012e+01
1.140616648515e+01
1.405771019103e+01
2.293889396493e+01
7.578846919019e+00
2.085196250819e+01
2.013567095235e+01
1.981008237947e+01
2.244510039640e+01
2.025793987117e+01
2.018100357992e+01
2.266374125968e+01
2.077513451967e+01
1.647185686986e+01
2.091067036030e+01
2.133633852687e+01
1.251961268968e+01
2.114559994603e+01
-6.434716516983e+00
2.069605733519e+01
2.041831286579e+01
2.062617466726e+01
1.803634802376e+01
-4.675043137149e+01
2.059024032072e+01
1.680600852798e+01
2.081813192279e+01
1.530407799948e+01
2.136936680239e+01
5.189893870599e+00
2.146478562941e+01
2.079704141739e+01
2.052270436231e+01
-2.190448203899e+01
2.090900702428e+01
1.334540737222e+01
2.208786209057e+01
1.027047010622e+01
1.791323790587e+01
2.004175182604e+01
1.529711562267e+01
2.089082523748e+01
2.075660766153e+01
2.242656430378e+01
1.953815127441e+01
2.285176859746e+01
2.087387165391e+01
2.253799821531e+01
1.888011249246e+01
1.922606160055e+01
2.272292683619e+01
2.028957390996e+01
2.151197156765e+01
1.739085526681e+01
2.058297729620e+01
2.099266173126e+01
2.328250110340e+01
2.124437812911e+01
1.726430997960e+01
1.714163591354e+01
2.073150477722e+01
2.162528149114e+01
2.212868749109e+01
-2.225542196807e+01
2.111155073642e+01
1.741834351653e+01
1.924196027885e+01
2.063708925571e+01
2.239614397781e+01
1.503199513561e+01
1.085790504385e+01
2.283536451925e+01
2.238862027216e+01
2.284818806050e+01
1.418901209590e+01
1.231730868965e+01
2.246602679398e+01
1.187926219023e+01
2.107193088747e+01
2.296318005576e+01
2.005029075763e+01
2.199384922157e+01
-4.229019101755e+01
1.804502361632e+01
1.958764818993e+01
2.156224911293e+01
2.168208613056e+01
2.273543431363e+01
1.166684694160e+01
1.844728232350e+01
2.061186471211e+01
1.643457221456e+01
2.155785418246e+01
1.724757480392e+01
2.124651987479e+01
-4.858478707905e+01
1.191632540714e+01
1.997496334294e+01
-5.859167147789e+01
2.123372792005e+01
2.254683805563e+01
1.680899898670e+01
2.293745749419e+01
2.323771040642e+01
6.344694666479e+00
2.542560134563e+00
1.851680373565e+01
1.807626212313e+01
-6.298692446919e+01
7.829017768863e+00
-2.249185735104e+01
1.727940892150e+01
1.891245399238e+01
1.677165273163e+01
2.193483248222e+01
1.849476337839e+01
2.179135144830e+01
2.208449364604e+01
7.902063494166e+00
1.986780601036e+01
1.833185590196e+01
2.108087297634e+01
2.058837773985e+01
2.053626289420e+01
2.127824768347e+01
2.269803337603e+01
2.196950837360e+01
1.045636125376e+01
2.220632680204e+01
-3.597775157814e+00
2.090824718699e+01
2.155146829211e+01
-2.031499500499e+01
2.017115214513e+01
1.732491393639e+01
-6.141593845476e+01
2.524537254366e+00
3.030828458303e+00
2.278214206534e+01
1.827474761484e+01
1.979350590310e+01
9.285215483069e+00
2.146699629638e+01
2.063913772519e+01
1.607631912022e+01
1.342637626981e+01
-1.077675455625e+00
1.058214344210e+01
2.998766536003e+00
3.138070090407e+00
-5.792638920543e+01
-2.081589766324e+01
-2.744625643828e+00
1.569104777448e+01
-1.983259179503e+01
2.087385969081e+01
-3.979566404718e+01
1.787443457481e+01
1.345366335897e+01
2.876080555733e+00
1.877554757129e+01
2.253495129764e+01
1.187163486547e+01
1.890159500379e+01
-3.326028135433e+00
1.895567348035e+01
1.874038426528e+01
1.026599863705e+01
2.798347444297e+00
1.894306912211e+01
1.871705449580e+01
1.673456493417e+01
2.856982542463e+00
2.598659667779e+00
5.533713688832e+00
1.952646398144e+01
1.869295229439e+01
-2.050465291049e+01
-5.760432647374e+01
3.884113546555e+00
2.188586165239e+01
2.102969939476e+01
-2.976204823711e+01
1.613306963445e+01
-4.232012424707e+01
2.306570216535e+01
-3.781967764584e+01
-3.387140976811e+01
2.310208515263e+01
2.117751236726e+01
1.331993434626e+01
1.275354374015e+01
-2.009825977083e+01
2.171515265522e+01
1.880883428046e+01
1.870688070860e+01
2.927067679821e+00
2.297378455537e+01
1.891300706787e+01
2.135289136530e+01
-3.823522761263e+00
-1.992683802129e+01
-2.046736092174e+01
1.981861438162e+01
2.080912218322e+01
1.810414929999e+01
-5.750123543332e+01
2.077510680690e+01
2.049954673441e+01
2.086796280196e+01
2.105106614864e+01
1.508494688227e+01
1.660213047396e+01
2.048696381279e+01
2.049697694284e+01
1.613446076011e+01
-6.474556689826e+01
2.985628342547e+00
3.068096643206e+00
-5.760837355207e+01
2.051920169291e+01
2.104765980219e+01
2.052751743612e+01
-6.095256025720e+01
-6.062215420216e+01
2.056495836823e+01
2.054795932842e+01
1.447211198958e+01
3.005381289850e+00
1.563062203858e+01
1.093115186562e+01
3.053899433039e+00
-6.168400998920e+01
-5.890519993439e+01
-5.577316213654e+01
-5.138738456607e+01
2.102947878259e+01
2.050303086239e+01
-5.711835509774e+01
2.152794145190e+01
-5.452578243785e+01
1.925440561940e+01
1.886994718443e+01
1.900626672175e+01
8.512683971134e+00
1.753776444357e+01
1.883621549716e+01
2.129762731986e+01
1.886199192519e+01
2.112648745535e+01
2.090935930103e+01
2.017855876074e+01
1.869320592488e+01
1.872132294134e+01
2.119032155980e+01
2.100965540498e+01
2.156006800288e+01
-4.530787163535e+01
2.055283472671e+01
-2.115802807917e+01
2.137204548329e+01
2.118325842217e+01
2.149791013012e+01
1.416860650388e+01
-4.467048094968e+00
2.127005388423e+01
2.095613757433e+01
1.952913074455e+01
2.144068698143e+01
1.734576316874e+01
1.939229446665e+01
2.224256433415e+01
2.223493374099e+01
2.164595212573e+01
2.155761882537e+01
2.232912145749e+01
1.108138928799e+01
2.100346365288e+01
2.187392075794e+01
2.134321246669e+01
2.147781657714e+01
1.538917357489e+01
1.726106465647e+01
1.642770649841e+01
8.755616262315e+00
2.193274612211e+01
2.175761948138e+01
1.735244643997e+01
1.690911793605e+01
2.208713870848e+01
2.114300827660e+01
1.613532041462e+01
2.141765975134e+01
2.120690755030e+01
1.725764569128e+01
1.467791649411e+01
2.226423146541e+01
1.469891620713e+01
1.408273753880e+01
-1.237948782600e+00
-2.200072414000e+01
1.688747454895e+01
2.124145606524e+01
-2.230081810297e+01
1.765651673238e+01
9.976420174987e+00
2.154392476801e+01
2.142758367719e+01
2.019242110932e+01
2.139882052958e+01
8.717068121945e+00
2.252414057627e+01
2.107461983182e+01
1.419196446697e+01
2.130917952136e+01
1.537164030676e+01
1.574342320881e+01
1.652790312617e+01
2.136114847796e+01
1.304059560195e+01
1.970401773114e+01
1.598007617913e+01
1.407933668668e+01
2.154963652433e+01
2.151287904970e+01
2.148421151074e+01
1.540764625706e+01
1.171729841505e+01
2.128187458893e+01
2.198373797141e+01
1.582376124728e+01
2.085585087721e+01
2.197813859942e+01
2.144548532001e+01
1.470316278564e+01
-5.405237506251e+00
-1.557287225125e+00
1.358968986716e+01
2.137989235066e+01
1.393677835731e+01
2.141884007408e+01
1.110551571750e+01
2.189417092965e+01
2.154303847899e+01
2.153321398485e+01
1.451154290308e+01
2.131721079237e+01
2.133767344544e+01
1.560580092764e+01
2.110208364144e+01
1.998395132438e+01
1.749396815891e+01
2.151279692238e+01
-5.700592693471e+01
-5.596886129606e+01
2.164140362808e+01
1.324266301499e+01
2.176319094774e+01
2.186986542020e+01
2.099040927671e+01
1.781807297647e+01
1.662981579555e+01
-4.769294617634e+00
2.026049382819e+01
2.175178511689e+01
1.111447633350e+01
1.226007727356e+01
9.999570997748e+00
1.015681502760e+01
2.163340191771e+01
1.498698288899e+01
1.346269757927e+01
1.698310964424e+01
1.704973242569e+01
1.490385783130e+01
1.420968282914e+01
1.534422900584e+01
2.155899017293e+01
2.153625118256e+01
1.745279317674e+01
1.668260920955e+01
2.166012522403e+01
2.178981335027e+01
1.239662780747e+01
2.165399760013e+01
1.504192805660e+01
2.141163497088e+01
1.389964871809e+01
1.564735011965e+01
2.314864568673e+01
1.628848558810e+01
2.103000760167e+01
2.139277047869e+01
1.934503877328e+01
2.013971069276e+01
1.451599450645e+01
2.215412091756e+01
1.630731345876e+01
3.722443656461e+00
1.446686807474e+01
1.663533336817e+01
2.133536920870e+01
1.522756030909e+01
2.164147125417e+01
2.109397950298e+01
2.064853493943e+01
1.516306405388e+01
7.083840527401e+00
2.178984790372e+01
1.328668208969e+01
-1.857619712191e+00
1.933765000427e+01
1.272880404192e+01
1.299892132234e+01
1.962157490450e+01
2.208195950595e+01
1.918034877055e+01
1.639769940352e+01
1.845351699152e+01
2.194183461880e+01
1.353027039135e+01
2.192052869445e+01
2.121444522680e+01
2.179891125195e+01
2.171746433485e+01
1.295532811708e+01
1.137584425048e+01
2.272785587919e+01
1.876329715523e+01
1.324403625023e+01
1.549925342146e+01
1.347245872057e+01
1.123205267516e+01
2.154926953757e+01
2.267369479601e+01
2.228839766962e+01
1.748295628171e+01
2.229676835356e+01
1.189325150479e+01
2.218655966481e+01
2.155987972213e+01
1.907284293674e+01
2.166368335661e+01
1.518516114114e+01
1.681699061603e+01
2.205302655603e+01
1.074524771082e+01
1.678036713944e+01
1.896196070405e+01
1.991557039601e+01
2.196410139397e+01
1.598076048582e+01
2.052054920066e+01
1.430413295444e+01
1.228200760873e+01
1.170215137076e+01
2.133725277073e+01
2.181262225885e+01
2.231874970051e+01
1.109532619278e+01
1.821769498352e+01
2.201409869240e+01
2.213430867288e+01
1.570024758415e+01
2.037724889663e+01
1.971975283912e+01
1.219536424873e+01
2.224594439392e+01
2.000817330196e+01
1.364911965147e+01
1.272229576038e+01
2.290002886764e+01
1.894556360623e+01
2.127804165524e+01
1.936454399512e+01
2.015742178636e+01
1.395191978158e+01
2.199972981694e+01
2.195761987726e+01
1.624031901655e+01
2.237630755017e+01
2.248568404499e+01
2.250091458305e+01
2.165387844776e+01
1.367454420398e+01
2.177742653822e+01
2.154319637711e+01
1.946023547064e+01
2.085219183610e+01
2.254769445856e+01
1.369674580154e+01
2.057711173389e+01
1.959985556345e+01
1.813389294289e+01
1.709418421432e+01
2.095224885463e+01
1.740573091705e+01
1.592593608264e+01
2.209417233316e+01
2.230868916916e+01
1.980509154032e+01
-5.687987316227e+01
2.281236564289e+01
2.240734472968e+01
2.145638862645e+01
1.276245842507e+01
2.231689424622e+01
1.893140772316e+01
2.144688436083e+01
1.586995449586e+01
1.870316110754e+01
2.780726548752e+00
9.848842983512e+00
1.857747517511e+01
1.987412798559e+01
2.277843721701e+01
2.186183955201e+01
1.175217505007e+01
9.869113690910e+00
1.135363236107e+01
1.711543117106e+01
2.229247053685e+01
2.010690107861e+01
1.319803283876e+01
1.644554853662e+01
1.956354794454e+01
2.274396173026e+01
1.979447168571e+01
1.410970849901e+01
2.149840169247e+01
2.244454842597e+01
1.755884947222e+01
9.465318814870e+00
2.039152810608e+01
2.184298938870e+01
2.222085811949e+01
1.805371694976e+01
2.261541335038e+01
2.221192423804e+01
2.311699302776e+01
1.937279569978e+01
2.266387206062e+01
1.425226134138e+01
2.312895802768e+01
2.198849707204e+01
1.604076959563e+01
2.174992444554e+01
2.270600488159e+01
1.951743141803e+01
1.630721459355e+01
1.611157538307e+01
1.436127332535e+01
1.685600301386e+01
2.295561984897e+01
1.972931279112e+01
1.539353338097e+01
1.920962236723e+01
1.221680533626e+01
1.811613378846e+01
9.283546781932e+00
2.176415419424e+01
1.716881289784e+01
2.256869691732e+01
1.196918160493e+01
1.593942425460e+01
2.254027561624e+01
2.293294142715e+01
1.732303061572e+01
2.215160116545e+01
1.480557392897e+01
2.291295868598e+01
1.479762491826e+01
1.532361101562e+01
2.084874518093e+01
2.163686605509e+01
2.195063107264e+01
1.193496933540e+01
1.076381628147e+01
2.219964119328e+01
2.234224061026e+01
2.233495245802e+01
6.939466415563e+00
1.953540629937e+01
2.333243169198e+01
2.251851461555e+01
2.094425331274e+01
1.767704192944e+01
1.767896395960e+01
1.711675084255e+01
1.506722467837e+01
1.584590970833e+01
2.209313835825e+01
1.741483328471e+01
1.465102069906e+01
2.185851596996e+01
2.328989471165e+01
1.538784343531e+01
1.689195708369e+01
1.553455698796e+01
1.486512304600e+01
2.187210253143e+01
2.178506726445e+01
2.207692479783e+01
2.239094325855e+01
5.616928024031e+00
2.242749814021e+01
1.471372280159e+01
1.617205975342e+01
2.277168904355e+01
2.332780565571e+01
2.286098599453e+01
1.803880310299e+01
2.270541895681e+01
2.271029250583e+01
1.201969424386e+01
2.224254936251e+01
1.320884804707e+01
6.140298184935e+00
2.138138159420e+00
2.219424650302e+01
2.269829120644e+01
1.791829758090e+01
2.339971000543e+01
2.237809906034e+01
1.342537885982e+01
5.162763658902e+00
2.283735214255e+01
2.295867102221e+01
1.257306502386e+01
2.209756001859e+01
1.663132966037e+01
2.206447255515e+01
2.188161765912e+01
2.293150662837e+01
1.547705384581e+01
2.099877301106e+01
2.169339279273e+01
5.061162278764e+00
1.405420119240e+01
2.155884574706e+01
1.600231587554e+01
2.315176507254e+01
2.285860905896e+01
2.177960439542e+01
4.902953617789e+00
1.655265131674e+01
1.698094965878e+01
3.792274959822e+00
2.057087510067e+01
1.751832078792e+01
1.473666734637e+01
1.922623676880e+01
1.470509664293e+01
2.180900161912e+01
1.696396169637e+01
2.008369360877e+01
9.994929387090e+00
1.554359990653e+01
1.321774151901e+01
2.331616291978e+01
1.892266665443e+01
1.712522461584e+00
2.166189964195e+01
2.292530479725e+01
1.392815017644e+01
1.217892952681e+01
2.156811951339e+01
1.242014357447e+01
1.855726559629e+01
2.272715563215e+01
2.251620440685e+01
2.180495744350e+01
1.851009859790e+01
1.527795360393e+01
2.189092306653e+01
1.411118453571e+01
1.792838150400e+01
1.582195875886e+01
1.631720948110e+01
1.457918547909e+01
2.173900242023e+01
1.528365937922e+01
2.295098607194e+01
-6.664360554929e-01
2.148594306295e+01
1.830695392287e+01
1.775990655115e+01
2.223200710146e+01
1.125320793702e+01
2.123761402266e+01
2.266434412722e+01
1.722109107971e+01
1.766963340084e+01
2.250475604071e+01
1.638323741057e+01
2.297816917728e+01
1.955512580443e+01
-1.509618962150e+01
1.848910461837e+01
-8.055175427409e+00
-3.757004751938e+00
2.332409856667e+01
1.771918719281e-01
2.181270922610e+01
2.194892610575e+01
2.292114950846e+01
1.617220753384e+01
2.336731320043e+01
1.695535529580e+01
1.823247706346e+01
2.196465860428e+01
2.196070937955e+01
2.305183004035e+01
1.637091035354e+01
2.341993368162e+01
2.154619777865e+01
1.588516570597e+01
1.580631196512e+01
2.308844119899e+01
2.322735692835e+01
1.986411555934e+01
1.605263822052e+01
1.523916366650e+01
1.722350689347e+01
1.993899150809e+01
1.874318732443e+01
2.137628833609e+01
1.523884264338e+01
2.271370809600e+01
1.887350531388e+01
2.254465344726e+01
1.649486866059e+01
1.964652401046e+01
1.315415888017e+01
2.230840019565e+01
2.297235777842e+01
2.230746709967e+01
2.113066811073e+01
1.727266080994e+01
1.944737050450e+01
2.328189246699e+01
1.664498672838e+01
2.137964082351e+01
2.134777253060e+01
2.246795226583e+01
2.284719345998e+01
2.218018026172e+01
1.554996061206e+01
2.340155949895e+01
1.518332223089e+01
2.130211453481e+01
1.611721936632e+01
2.100297417228e+01
1.412568738032e+01
1.165441562648e+01
1.694224176245e+01
2.220976166264e+01
2.176814724270e+01
1.464328018632e+01
1.770727424657e+01
1.294409098400e+01
2.158301666518e+01
2.103385954307e+01
1.735750888755e+01
2.223869626746e+01
2.177254322847e+01
2.230519780168e+01
1.529077081377e+01
1.717654324758e+01
2.220741687668e+01
1.772097234293e+01
2.248814970784e+01
2.099364844761e+01
2.255782440741e+01
3.886559230860e+00
1.779350947860e+01
1.601112097331e+01
2.323405011625e+01
2.135957968253e+01
1.461928802676e+01
2.193159124196e+01
2.209759339753e+01
-1.794537847926e-01
2.122807225527e+01
1.980480764591e+01
2.217890250272e+01
2.041389747236e+01
-1.244221094020e+01
2.213302450261e+01
1.899456989565e+01
1.313806396187e+01
2.194749634307e+01
2.316146514419e+01
2.144865424215e+01
2.179717586802e+01
2.271280598565e+01
1.950735585289e+01
-2.590856369517e-01
1.998220041524e+01
2.230284056514e+01
1.933754207092e+01
2.019808427986e+01
1.955700066702e+01
2.179240275919e+01
1.774590881867e+01
2.128574921865e+01
2.206757519409e+01
2.248341551604e+01
1.975392469708e+01
2.131903030711e+01
2.129245034938e+01
2.047511959642e+01
1.396067104809e+01
2.160499753632e+01
2.188956990418e+01
3.119418092174e+00
3.134099709585e+00
1.559428889294e+01
2.025847249333e+01
2.186921383215e+01
1.708328815547e+01
2.224848906709e+01
2.198004660291e+01
2.286278986365e+01
1.889182855783e+01
9.167028397477e+00
2.177731832171e+01
2.225029264767e+01
1.851755999752e+01
2.183950263994e+01
2.004130442184e+01
1.795935906202e+01
1.395363053808e+01
1.763084153144e+01
1.774005809627e+01
5.084675043124e+00
2.192422078340e+01
1.692618534912e+01
1.604422384270e+01
1.631545769976e+01
2.211430714144e+01
1.314129293490e+01
1.343644318653e+01
2.049108400592e+01
2.153058385761e+01
-6.034848138472e-01
1.636664158940e+00
1.396214233598e+01
1.046596439103e+01
2.206484580803e+01
2.242819841023e+01
1.451195019188e+01
2.081072307897e+01
1.679657214932e+01
2.154879087782e+01
2.178166962155e+01
-2.848676080700e+00
2.252315998220e+01
2.013605723656e+01
-3.116735051793e+00
1.686267938923e+01
1.107560484622e+01
1.627241392791e+01
1.850077104393e+01
2.277747815768e+01
2.292384401981e+01
1.728473769100e+01
2.275965905499e+01
2.123038490981e+01
2.072461746708e+01
-1.292936804169e+00
8.858876949302e+00
2.069431114387e+01
1.260326426277e+01
2.112905623830e+01
1.977712442144e+01
1.681428895196e+01
2.042214790783e+01
3.564428502590e+00
2.066325144082e+01
2.164621737286e+01
2.077258377574e+01
2.215775455646e+01
2.202324122565e+01
1.777661434214e+01
2.299484681404e+01
1.911539610702e+01
2.292790566082e+01
2.250747100001e+01
2.212150297485e+01
2.122472020523e+01
2.334435579157e+01
2.189338428333e+01
1.690752000731e+01
2.104891021595e+01
1.713917937228e+01
2.204872753544e+01
2.245117592915e+01
2.261220247171e+01
1.322228410342e+01
2.160576560156e+01
2.150850802843e+01
3.628353837002e+00
1.788641261839e+01
2.120780558478e+01
1.005485516300e+01
2.172802892438e+01
-5.532341418558e+00
2.144406953256e+01
2.052392587451e+01
2.135625146043e+01
2.237312111132e+01
1.327876099847e+01
1.242123046838e+01
2.064348141801e+01
-3.572871127559e+00
-2.672857283062e+00
2.138923359060e+01
2.258185428693e+01
2.287364104902e+01
2.282939638081e+01
2.340180197675e+01
2.039666049622e+01
-1.345859966641e+01
1.052671389191e+01
3.170234932489e+00
2.225929475270e+01
2.236245382618e+01
2.169968081084e+01
2.132116094155e+01
2.298105349087e+01
2.102666408209e+01
2.151893110299e+01
2.176998967117e+01
2.084721231316e+01
2.133432551367e+01
2.195277235401e+01
2.080777998945e+01
1.846898385030e+01
2.292204724131e+01
1.778927480357e+01
1.947899530070e+01
2.177905513060e+01
2.330565946446e+01
2.212105148374e+01
1.721691842031e+01
-1.626214029509e+01
2.282872529620e+01
-4.238872220842e+00
6.670711179927e+00
2.196738479867e+01
1.919519951553e+01
1.347855039110e+01
3.627961954751e+00
1.937792077024e+01
-8.044412114242e+00
-3.253170836054e+00
2.321389795683e+01
2.155088115208e+01
7.615418839437e+00
2.224629310829e+01
2.266997330190e+01
2.030508262632e+01
2.267930102883e+01
1.835065419076e+01
9.150909064908e+00
2.183517498373e+01
2.172703509318e+01
1.792233095487e+01
5.494585922398e+00
1.364887479305e+01
2.144436686118e+01
-3.730057819647e+00
-2.317802975323e+01
1.272138596341e+01
2.155034861126e+01
2.226653900850e+01
2.126490240562e+01
2.032150413647e+01
2.187642935436e+01
1.542723629549e+01
2.167627924253e+01
2.295157206748e+01
1.828225446292e+01
8.935324158018e+00
2.216746233826e+01
2.154419038123e+01
2.168544459942e+01
7.465906481582e+00
2.243634177179e+01
2.161904700636e+01
1.377050079287e+01
1.218868266647e+01
8.338643329276e+00
2.178851520861e+01
2.086321254023e+01
4.414119980819e+00
2.156655771042e+01
1.147507094949e+01
2.178556123470e+01
2.242610417062e+01
-1.611507837559e+01
2.153405901358e+01
1.675960997473e+01
7.163470248988e+00
2.164478229984e+01
2.273686545094e+01
2.177058565863e+01
-1.451521043596e+01
1.700082105133e+01
2.215848167446e+01
2.224137670546e+01
2.139269473516e+01
2.170314512806e+01
2.160019982261e+01
2.258281035693e+01
1.353730416901e+00
-1.316137083328e+01
2.161391157064e+01
2.221663135557e+01
2.038360556360e+01
1.893967137825e+01
1.057312705039e+01
1.778067056726e+01
2.140137368934e+01
-2.393981030585e+01
1.882916905783e+01
2.049224630468e+01
8.019969927697e+00
2.179221221167e+01
2.092941931740e+01
2.199117664959e+01
2.890965966242e+00
-1.199992443689e+01
1.757299596369e+01
1.467723400813e+01
4.208461593672e+00
2.119045062651e+01
1.465633414237e+01
2.131413936374e+01
1.450272851956e+01
2.137540818330e+01
2.128950925967e+01
2.189141648547e+01
6.607930860437e+00
2.124366609722e+01
1.627059926767e+01
2.122100493982e+01
2.236250786413e+01
1.850711273020e+01
-3.463429463953e+01
2.273667589700e+01
1.619448544561e+01
2.068276877478e+01
1.952912105650e+01
2.138866353643e+01
1.114497342502e+01
4.995768327607e+00
9.669730638695e+00
1.954841939564e+01
2.278889052964e+01
2.264654616690e+01
1.874827287711e+01
1.870142103322e+01
1.650835052280e-01
1.508719198205e+01
2.012147376233e+01
2.231248839348e+01
-9.817496671660e-01
1.201259586269e+01
2.265929390342e+01
1.763213783673e+01
2.312677875843e+01
8.875462380377e-02
2.271968747328e+01
8.422160842293e+00
2.245294600782e+01
2.308488615694e+01
2.178993068274e+01
1.327262441296e+01
1.897073225655e+01
1.111018311965e+00
2.294695263282e+01
9.463052420117e+00
-2.346953174580e+01
1.771642762191e+01
1.699735530983e+01
-2.297209248965e+01
2.256840552286e+01
1.584003462711e+01
1.716544243522e+01
1.907828671612e+01
2.176767698873e+01
1.939587267224e+01
2.204237192295e+01
3.018376236372e+00
2.089565978037e+01
1.453635328327e+01
2.212401032705e+01
2.216446243879e+01
1.029749713243e+01
1.692534746017e+01
2.308062556045e+01
-5.196852474070e+00
2.204141997603e+01
2.150876338369e+01
1.642985055994e+01
8.808409449687e+00
2.123925951293e+01
1.822629271022e+01
2.173378626831e+01
2.047372643509e+01
1.690321935622e+01
2.260542154355e+01
1.289315079817e+01
-5.770521092624e+00
2.063863267079e+01
1.901607261415e+01
9.847598475175e+00
1.805863079152e+01
1.953392419095e+01
2.280759804784e+01
2.169152538358e+01
2.164266060334e+01
-3.550706085471e+01
1.578392415005e+01
2.143148434696e+01
1.986762771225e+01
2.161121495335e+01
4.158614766644e+00
9.003645110677e+00
9.417348426335e+00
2.184153403065e+01
1.770709784242e+01
2.172845600726e+01
2.088969937429e+01
2.097364035260e+01
2.240935465317e+01
6.548579158332e+00
-2.930247664141e+01
3.978269079559e+00
7.994564593447e+00
4.868941552511e+00
2.211996995750e+01
2.106662909247e+01
2.152527995780e+01
-7.093359667112e+00
1.718027812660e+01
2.111085940138e+01
1.759901603872e+01
1.641280006378e+01
1.870310393393e+01
2.079607210737e+01
9.932894798443e+00
2.126578556308e+01
3.235923871918e+00
2.194341604318e+01
2.051562446050e+01
-1.111995619341e+00
1.530661076457e+00
2.200089773037e+01
6.964820389641e+00
1.769179785665e+01
1.836801031598e+01
2.176247106574e+01
1.787942532290e+01
1.029315254728e+01
1.851502297507e+01
1.913683139490e+01
1.439929831574e+01
2.144700043096e+01
2.746613404459e+00
7.104048940380e+00
9.701549282399e+00
1.042438801135e+01
4.558894639705e+00
1.787262071917e+01
1.824388721649e+01
1.246810021935e+01
2.135647738140e+01
1.869527938569e+01
1.708519353186e+01
1.762301982515e+01
2.038377421557e+01
1.986953922025e+01
2.134921676945e+01
-2.441017755860e+01
1.612640489247e+01
2.093441646725e+01
5.030910139010e+00
7.117156112881e+00
2.189804564010e+01
-7.146192506310e+00
-2.332434041525e+01
1.876360650482e+01
2.809622958280e+00
1.812386901331e+01
2.153147556282e+01
2.769217340069e+00
-2.803874427160e+01
1.831186454948e+01
6.714011730103e+00
1.781591976727e+01
2.050468812912e+01
1.837495943152e+01
1.191188383925e+01
9.570278991133e+00
2.038673403914e+01
2.154247619256e+01
2.126356855227e+01
1.569808816457e+01
2.135948703859e+01
-7.226979081978e+00
2.095581317024e+01
1.394684035925e+01
5.080636506514e+00
2.145637080488e+01
1.841893392284e+01
1.842687816806e+01
6.756096474715e+00
1.009430834441e+01
5.397703535562e+00
1.924322854032e+01
1.902621859352e+01
-4.847643717175e+00
2.191598025167e+01
2.837993719238e+00
1.809235883447e+01
1.867278509468e+01
1.883450792982e+01
-6.528158597308e+01
-5.326763967964e+01
3.689139653889e+00
3.002978878349e+00
2.049515102359e+01
2.074050193091e+01
-2.417272403145e+01
-3.635742410479e+01
2.100706770322e+01
2.119273084130e+01
9.314606495329e+00
2.104861946569e+01
2.142720046436e+01
2.121304195377e+01
1.340049316579e+01
7.401671832012e+00
2.166657358283e+01
4.647727155888e+00
2.080817050910e+01
1.903840857615e+01
1.741763929154e+01
2.106977539691e+01
1.151901385922e+01
2.063001973000e+01
1.836185218609e+01
1.777428966521e+01
2.948252303028e+00
2.202401095978e+01
1.821195634502e+01
1.656067583567e+01
-2.236662025510e+01
2.009229371412e+01
2.235114340083e+01
3.292967915560e+00
1.445485094249e+01
2.074642262599e+01
2.082039601714e+01
2.088163368716e+01
2.148145821807e+01
-2.457711948625e+01
5.612424694954e+00
8.902656963304e+00
9.395488200427e+00
2.214812771631e+01
1.785288975838e+01
2.121308053982e+01
-6.270151598973e+00
-6.593248997257e+00
5.290105484443e+00
1.482070337256e+01
1.844071547482e+01
1.797303889450e+01
8.729037047746e+00
2.168024444711e+01
9.362429938686e+00
2.103318015905e+01
2.128577591588e+01
9.484111771417e+00
2.138574986981e+01
1.841868975502e+01
1.823949232857e+01
3.986966009495e+00
1.769152090285e+01
2.047848389689e+01
2.184065856586e+01
2.164143165694e+01
2.052589255550e+01
1.769437041366e+01
-3.274265193155e+01
-8.382689176561e-01
1.850384148907e+01
1.128764651935e+01
2.099603908622e+01
2.118467737898e+01
2.078013560882e+01
1.597192472505e+01
2.105395635220e+01
2.130691690791e+01
2.144628229563e+01
1.871177970463e+01
2.085985843082e+01
6.570711537186e+00
1.765288798875e+01
-5.791821185098e+00
1.707554235986e+01
1.453419537186e+01
-3.437946839148e+00
8.075291918707e+00
1.825375460413e+01
1.834375883512e+01
1.778100480857e+01
2.158867618388e+01
1.137772674454e+01
-2.261912244755e+01
-1.211067015206e+01
-1.735964310333e+01
1.278728324047e+00
-2.471814488040e+01
2.064076657226e+01
2.103343218491e+01
1.839134502062e+01
1.146022996734e+01
2.006178798945e+01
2.132506379288e+01
2.190078526275e+01
2.145888162459e+01
2.030304167370e+01
1.880881065688e+01
-6.034105383280e+00
-1.229049526511e+01
2.107654931211e+01
-3.245685434385e+00
1.249953202027e+00
-1.143346890269e+01
-7.505720321371e+00
2.094491728815e+01
1.999742064031e+01
1.789743197710e+01
2.105298581565e+01
2.182691587921e+01
1.252269521192e+01
1.910675734932e+01
1.321332862511e+01
2.613786053647e+00
1.484296978532e+00
-2.272528907847e+01
2.082198264696e+01
7.260585811556e+00
3.998738521359e+00
2.064347889780e+01
1.974423244179e+01
1.775873153633e+01
1.865670910125e+01
1.779937266129e+01
-1.192141319445e+01
2.113025739136e+01
1.870372564322e+01
2.081265942349e+01
6.552016453797e+00
2.141240535187e+01
4.944800551972e+00
1.803676851969e+01
-2.471719886547e+01
2.101950983929e+01
1.854007773232e+01
-2.684737259267e+01
2.083478718550e+01
1.542817536908e+01
1.837722181184e+01
2.083469454038e+01
1.376152230467e+01
1.986203395457e+01
1.806503175903e+01
1.459874939895e+01
1.930309797614e+01
1.939094157773e+01
2.865172918504e+00
2.134951756338e+01
1.836901515225e+01
-5.916351372393e+01
3.046725206947e+00
2.077644173470e+01
9.495682767402e+00
2.199956576444e+01
1.812576594659e+01
1.823159782779e+01
8.701295793726e+00
-5.198813208051e+00
2.138179457702e+01
1.658065303502e+01
-2.395842991246e+01
1.856303841732e+01
1.330425292932e+01
7.018982454280e+00
1.200371661962e+01
2.121585032401e+01
2.140090403022e+01
-2.100392401459e+01
1.907991972346e+01
2.110431736580e+01
2.138843048737e+01
2.139968329660e+01
2.099814965891e+01
2.112371134129e+01
-8.359058831242e+00
2.118654069612e+01
2.021743170238e+01
1.811755199876e+00
1.836173146448e+01
2.073108403063e+01
6.756348726156e+00
1.327064757373e+01
2.092014908256e+01
2.095228160825e+01
2.121204273468e+01
2.199957254654e+01
2.998369659163e+00
2.016287390104e+01
9.631679403786e+00
1.833258997938e+01
2.174969737455e+01
1.196820644054e+01
1.884826875455e+01
2.152733184198e+01
2.153036182049e+01
-2.057192561627e+01
1.884175303148e+01
1.941605889958e+01
-7.843354735928e+00
2.069413438056e+01
-2.419593654423e+01
1.903186255341e+01
-4.172672612225e+01
-4.038770070784e+01
-4.176749767196e+01
-4.064167959171e+01
-4.160829978432e+01
-4.092319803160e+01
-4.183687009163e+01
-4.107294852785e+01
-4.234707166048e+01
-4.128115383107e+01
-4.312263260672e+01
-4.153140831873e+01
-4.413614359387e+01
-4.189759511645e+01
-4.533502651299e+01
-3.297959421843e+01
-4.213930362326e+01
-2.842971347890e+01
-4.677703688694e+01
-4.250590342697e+01
-4.855829181118e+01
-4.288339887792e+01
-5.057991794576e+01
-4.305343527559e+01
-5.707562748524e+01
-5.274587269526e+01
-4.301071660577e+01
-5.496346734159e+01
-4.264567654477e+01
-5.682058126516e+01
-4.122251906971e+01
-5.676638288081e+01
-3.988302300428e+01
-3.583620045344e+01
-5.617474581612e+01
-1.554666200421e+01
-5.057132795025e+01
-2.695416563703e+01
-3.914678640435e+01
-3.853523274641e+01
-3.643236900900e+01
-4.259515484238e+01
-1.293431394305e+01
-1.681040751321e+01
-1.886529711519e+01
-1.895623211681e+01
-1.913769582101e+01
-1.908438542321e+01
-1.904295153810e+01
-1.898770646456e+01
-1.908323986832e+01
-1.896360903886e+01
-1.903953426843e+01
-1.892278456878e+01
-1.902689033002e+01
-1.887388247036e+01
-1.313011417972e+01
-1.893015055835e+01
-1.884649010692e+01
-2.098656642919e+01
-1.905728508719e+01
-1.886342460661e+01
-1.599896737393e+01
-1.896281615946e+01
-1.880576903120e+01
-1.884661448279e+01
-1.878365289014e+01
-1.885540296767e+01
-1.090414466249e+01
-1.881003788774e+01
-1.881300260898e+01
-1.866367688021e+01
-1.883530261995e+01
-1.875911140445e+01
-1.889218516379e+01
-1.703674772241e+01
-1.858079268124e+01
-1.843082859656e+01
-1.887949636497e+01
-1.635939525652e+01
-2.448211612945e+01
-1.315552654733e+01
-1.441045974390e+01
-4.442790696867e+00
-3.894300595777e+00
-3.897808843977e+00
-3.866384160450e+00
-3.871271102341e+00
-3.798566261734e+00
-3.782527827585e+00
-3.885066204689e+00
-3.913072768598e+00
-3.869462457249e+00
-3.851400566520e+00
-3.909316881978e+00
-2.335521372716e+00
-3.900943984175e+00
-4.140431025071e+00
-3.939661664652e+00
-3.885312329224e+00
-4.029788999964e+00
-4.002546881260e+00
-4.060108809040e+00
-3.919562064847e+00
-4.106840375388e+00
-5.865670066931e+00
-3.896325333813e+00
-4.221531460574e+00
-3.966273562425e+00
-4.318862649328e+00
-4.332143513490e+00
-3.895522719874e+00
-3.615548886801e+00
-2.347733705429e+00
-7.356627074956e+00
-3.572694985465e+00
-4.404635387284e+00
-1.567405015341e+00
-6.988867319934e+00
-5.061403754379e+00


