# vtk DataFile Version 2.0
Calculation  at time 9.000000000000e+00 
ASCII
DATASET UNSTRUCTURED_GRID
Field FieldData 1
Time 1 1 double
9.000000000000e+00

POINTS 1067 float
0.0 0.0 0.0 
5.000000000000e+01 -1.000000000000e+01 0.0 
0.0 -2.000000000000e+01 0.0 
5.000000000000e+01 -2.000000000000e+01 0.0 
0.0 -9.999999999991e-01 0.0 
0.0 -1.999999999998e+00 0.0 
0.0 -2.999999999997e+00 0.0 
0.0 -3.999999999994e+00 0.0 
0.0 -4.999999999991e+00 0.0 
0.0 -5.999999999988e+00 0.0 
0.0 -6.999999999985e+00 0.0 
0.0 -7.999999999982e+00 0.0 
0.0 -8.999999999983e+00 0.0 
0.0 -9.999999999985e+00 0.0 
0.0 -1.099999999999e+01 0.0 
0.0 -1.199999999999e+01 0.0 
0.0 -1.299999999999e+01 0.0 
0.0 -1.399999999999e+01 0.0 
0.0 -1.499999999999e+01 0.0 
0.0 -1.599999999999e+01 0.0 
0.0 -1.700000000000e+01 0.0 
0.0 -1.800000000000e+01 0.0 
0.0 -1.900000000000e+01 0.0 
4.900000000001e+01 -2.000000000000e+01 0.0 
4.800000000001e+01 -2.000000000000e+01 0.0 
4.700000000002e+01 -2.000000000000e+01 0.0 
4.600000000003e+01 -2.000000000000e+01 0.0 
4.500000000004e+01 -2.000000000000e+01 0.0 
4.400000000004e+01 -2.000000000000e+01 0.0 
4.300000000005e+01 -2.000000000000e+01 0.0 
4.200000000006e+01 -2.000000000000e+01 0.0 
4.100000000006e+01 -2.000000000000e+01 0.0 
4.000000000007e+01 -2.000000000000e+01 0.0 
3.900000000008e+01 -2.000000000000e+01 0.0 
3.800000000009e+01 -2.000000000000e+01 0.0 
3.700000000009e+01 -2.000000000000e+01 0.0 
3.600000000010e+01 -2.000000000000e+01 0.0 
3.500000000011e+01 -2.000000000000e+01 0.0 
3.400000000011e+01 -2.000000000000e+01 0.0 
3.300000000012e+01 -2.000000000000e+01 0.0 
3.200000000013e+01 -2.000000000000e+01 0.0 
3.100000000013e+01 -2.000000000000e+01 0.0 
3.000000000013e+01 -2.000000000000e+01 0.0 
2.900000000013e+01 -2.000000000000e+01 0.0 
2.800000000013e+01 -2.000000000000e+01 0.0 
2.700000000013e+01 -2.000000000000e+01 0.0 
2.600000000013e+01 -2.000000000000e+01 0.0 
2.500000000013e+01 -2.000000000000e+01 0.0 
2.400000000013e+01 -2.000000000000e+01 0.0 
2.300000000013e+01 -2.000000000000e+01 0.0 
2.200000000013e+01 -2.000000000000e+01 0.0 
2.100000000013e+01 -2.000000000000e+01 0.0 
2.000000000013e+01 -2.000000000000e+01 0.0 
1.900000000013e+01 -2.000000000000e+01 0.0 
1.800000000013e+01 -2.000000000000e+01 0.0 
1.700000000012e+01 -2.000000000000e+01 0.0 
1.600000000011e+01 -2.000000000000e+01 0.0 
1.500000000011e+01 -2.000000000000e+01 0.0 
1.400000000010e+01 -2.000000000000e+01 0.0 
1.300000000009e+01 -2.000000000000e+01 0.0 
1.200000000009e+01 -2.000000000000e+01 0.0 
1.100000000008e+01 -2.000000000000e+01 0.0 
1.000000000007e+01 -2.000000000000e+01 0.0 
9.000000000064e+00 -2.000000000000e+01 0.0 
8.000000000057e+00 -2.000000000000e+01 0.0 
7.000000000050e+00 -2.000000000000e+01 0.0 
6.000000000043e+00 -2.000000000000e+01 0.0 
5.000000000036e+00 -2.000000000000e+01 0.0 
4.000000000028e+00 -2.000000000000e+01 0.0 
3.000000000021e+00 -2.000000000000e+01 0.0 
2.000000000014e+00 -2.000000000000e+01 0.0 
1.000000000007e+00 -2.000000000000e+01 0.0 
5.000000000000e+01 -1.100000000000e+01 0.0 
5.000000000000e+01 -1.200000000000e+01 0.0 
5.000000000000e+01 -1.300000000000e+01 0.0 
5.000000000000e+01 -1.400000000000e+01 0.0 
5.000000000000e+01 -1.500000000000e+01 0.0 
5.000000000000e+01 -1.600000000000e+01 0.0 
5.000000000000e+01 -1.700000000000e+01 0.0 
5.000000000000e+01 -1.800000000000e+01 0.0 
5.000000000000e+01 -1.900000000000e+01 0.0 
2.000000000000e+01 0.0 0.0 
3.500000000000e+01 -1.000000000000e+01 0.0 
2.150000000000e+01 -1.000000000000e+00 0.0 
2.300000000000e+01 -2.000000000000e+00 0.0 
2.450000000000e+01 -3.000000000000e+00 0.0 
2.600000000000e+01 -4.000000000000e+00 0.0 
2.750000000000e+01 -5.000000000000e+00 0.0 
2.900000000000e+01 -6.000000000000e+00 0.0 
3.050000000000e+01 -7.000000000000e+00 0.0 
3.200000000000e+01 -8.000000000000e+00 0.0 
3.350000000000e+01 -9.000000000000e+00 0.0 
5.000000000000e+01 -8.000000000000e+00 0.0 
5.000000000000e+01 -9.000000000000e+00 0.0 
4.900000000000e+01 -1.000000000000e+01 0.0 
4.800000000000e+01 -1.000000000000e+01 0.0 
4.700000000000e+01 -1.000000000000e+01 0.0 
4.600000000000e+01 -1.000000000000e+01 0.0 
4.500000000000e+01 -1.000000000000e+01 0.0 
4.400000000000e+01 -1.000000000000e+01 0.0 
4.300000000000e+01 -1.000000000000e+01 0.0 
4.200000000000e+01 -1.000000000000e+01 0.0 
4.100000000000e+01 -1.000000000000e+01 0.0 
4.000000000000e+01 -1.000000000000e+01 0.0 
3.900000000000e+01 -1.000000000000e+01 0.0 
3.800000000000e+01 -1.000000000000e+01 0.0 
3.700000000000e+01 -1.000000000000e+01 0.0 
3.600000000000e+01 -1.000000000000e+01 0.0 
1.900000000000e+01 0.0 0.0 
1.800000000000e+01 0.0 0.0 
1.700000000000e+01 0.0 0.0 
1.600000000000e+01 0.0 0.0 
1.500000000000e+01 0.0 0.0 
1.400000000000e+01 0.0 0.0 
1.300000000000e+01 0.0 0.0 
1.200000000000e+01 0.0 0.0 
1.100000000000e+01 0.0 0.0 
1.000000000000e+01 0.0 0.0 
9.000000000000e+00 0.0 0.0 
8.000000000000e+00 0.0 0.0 
7.000000000000e+00 0.0 0.0 
6.000000000000e+00 0.0 0.0 
5.000000000000e+00 0.0 0.0 
4.000000000000e+00 0.0 0.0 
3.000000000000e+00 0.0 0.0 
2.000000000000e+00 0.0 0.0 
1.000000000000e+00 0.0 0.0 
4.900000000000e+01 -8.000000000000e+00 0.0 
4.800000000000e+01 -8.000000000000e+00 0.0 
4.700000000000e+01 -8.000000000000e+00 0.0 
4.600000000000e+01 -8.000000000000e+00 0.0 
4.500000000000e+01 -8.000000000000e+00 0.0 
4.400000000000e+01 -8.000000000000e+00 0.0 
4.300000000000e+01 -8.000000000000e+00 0.0 
4.200000000000e+01 -8.000000000000e+00 0.0 
4.100000000000e+01 -8.000000000000e+00 0.0 
4.000000000000e+01 -8.000000000000e+00 0.0 
3.900000000000e+01 -8.000000000000e+00 0.0 
3.800000000000e+01 -8.000000000000e+00 0.0 
3.700000000000e+01 -8.000000000000e+00 0.0 
3.600000000000e+01 -8.000000000000e+00 0.0 
3.500000000000e+01 -8.000000000000e+00 0.0 
3.400000000000e+01 -8.000000000000e+00 0.0 
3.300000000000e+01 -8.000000000000e+00 0.0 
3.447058823527e+01 -9.000000000000e+00 0.0 
3.544117647055e+01 -9.000000000000e+00 0.0 
3.641176470582e+01 -9.000000000000e+00 0.0 
3.738235294109e+01 -9.000000000000e+00 0.0 
3.835294117637e+01 -9.000000000000e+00 0.0 
3.932352941164e+01 -9.000000000000e+00 0.0 
4.029411764691e+01 -9.000000000000e+00 0.0 
4.126470588219e+01 -9.000000000000e+00 0.0 
4.223529411748e+01 -9.000000000000e+00 0.0 
4.320588235279e+01 -9.000000000000e+00 0.0 
4.417647058811e+01 -9.000000000000e+00 0.0 
4.514705882342e+01 -9.000000000000e+00 0.0 
4.611764705874e+01 -9.000000000000e+00 0.0 
4.708823529405e+01 -9.000000000000e+00 0.0 
4.805882352937e+01 -9.000000000000e+00 0.0 
4.902941176468e+01 -9.000000000000e+00 0.0 
2.075000000000e+01 -5.000000000006e-01 0.0 
2.225000000000e+01 -1.500000000000e+00 0.0 
2.375000000000e+01 -2.500000000000e+00 0.0 
2.525000000000e+01 -3.500000000000e+00 0.0 
2.675000000000e+01 -4.500000000000e+00 0.0 
2.825000000000e+01 -5.500000000000e+00 0.0 
2.975000000000e+01 -6.500000000000e+00 0.0 
3.125000000000e+01 -7.500000000000e+00 0.0 
3.275000000000e+01 -8.500000000000e+00 0.0 
3.425000000000e+01 -9.500000000000e+00 0.0 
2.226951693683e+01 -2.403913980114e+00 0.0 
1.650149491944e+01 -1.913490915758e+01 0.0 
1.050042386896e+01 -8.504605092970e-01 0.0 
1.553146524712e+01 -8.281255032105e-01 0.0 
1.150000000008e+01 -1.913397459621e+01 0.0 
2.530060260647e+01 -4.428336431260e+00 0.0 
8.651114563942e-01 -1.052096295641e+01 0.0 
2.050000000013e+01 -1.913397459622e+01 0.0 
2.819198729811e+01 -6.399519052838e+00 0.0 
2.445670302931e+01 -1.915649188023e+01 0.0 
3.117591465718e+01 -8.394293040695e+00 0.0 
7.465053044742e+00 -1.920411160581e+01 0.0 
6.398295709691e+00 -8.230098819370e-01 0.0 
2.849659607461e+01 -1.914296187762e+01 0.0 
3.418732642882e+01 -1.040265792588e+01 0.0 
8.386450935063e-01 -6.533605142809e+00 0.0 
9.178661865596e-01 -1.329769195597e+01 0.0 
3.149448624493e+01 -1.910466733764e+01 0.0 
3.552916747426e+01 -1.914628590759e+01 0.0 
4.449210346537e+01 -1.914359085008e+01 0.0 
4.140975975145e+01 -1.906941860733e+01 0.0 
3.847475958753e+01 -1.916622382724e+01 0.0 
3.653774794640e+01 -1.088712800241e+01 0.0 
4.047886341787e+01 -1.090139014048e+01 0.0 
4.348006339825e+01 -1.092792621489e+01 0.0 
4.919519968029e+01 -1.451526755068e+01 0.0 
4.500000000032e+00 -1.913397459621e+01 0.0 
1.856136921614e+01 -8.212235170404e-01 0.0 
3.499895312306e+00 -8.661165539723e-01 0.0 
9.076088696565e-01 -1.642306201891e+01 0.0 
4.655174095477e+01 -1.086183387525e+01 0.0 
9.430688970604e-01 -3.496112672958e+00 0.0 
3.353992337063e+01 -1.901202090820e+01 0.0 
2.249746016977e+01 -1.921262287282e+01 0.0 
2.650122741777e+01 -1.916123026018e+01 0.0 
1.863571384842e+01 -1.908325534840e+01 0.0 
1.450089971693e+01 -1.917691901860e+01 0.0 
1.350044695317e+01 -8.659695299584e-01 0.0 
3.849987469880e+01 -1.084154983397e+01 0.0 
9.454419857884e+00 -1.900818879936e+01 0.0 
4.917398660523e+01 -1.645692866081e+01 0.0 
8.500000000000e+00 -8.660254037844e-01 0.0 
8.660319230785e-01 -8.500111697188e+00 0.0 
4.649022621545e+01 -1.930506220113e+01 0.0 
2.667688107845e+01 -5.420288124331e+00 0.0 
2.379251615665e+01 -3.412225477429e+00 0.0 
2.966631491830e+01 -7.389030232731e+00 0.0 
3.267915035995e+01 -9.396934932445e+00 0.0 
2.074836922338e+01 -1.320054020319e+00 0.0 
4.915985743621e+01 -1.261973384855e+01 0.0 
2.527129768623e+00 -1.931592414663e+01 0.0 
1.538676247410e+00 -8.436956619311e-01 0.0 
4.908096641539e+01 -1.842484004551e+01 0.0 
3.478612492673e+01 -1.090889364140e+01 0.0 
3.409757055860e+01 -1.131991530427e+01 0.0 
3.501895309466e+01 -1.177687842717e+01 0.0 
3.407758073088e+01 -1.224293381580e+01 0.0 
3.484541875390e+01 -1.277051428430e+01 0.0 
3.400322025842e+01 -1.319022775640e+01 0.0 
3.321672625034e+01 -1.266779191233e+01 0.0 
3.315244139236e+01 -1.360984106532e+01 0.0 
3.236335186892e+01 -1.308463225210e+01 0.0 
3.478337442841e+01 -1.372341158982e+01 0.0 
3.230105923633e+01 -1.403023731610e+01 0.0 
3.150954055289e+01 -1.350301767700e+01 0.0 
3.144604792090e+01 -1.444931742516e+01 0.0 
3.065653897123e+01 -1.392357262981e+01 0.0 
3.071897610812e+01 -1.297447031198e+01 0.0 
2.986790411740e+01 -1.339226181535e+01 0.0 
2.993181466745e+01 -1.244703272398e+01 0.0 
2.908023061869e+01 -1.286254537734e+01 0.0 
2.901619051372e+01 -1.380881655279e+01 0.0 
2.822986160390e+01 -1.327695262116e+01 0.0 
2.829453476870e+01 -1.233265343811e+01 0.0 
2.744542905518e+01 -1.274510491105e+01 0.0 
2.751120089246e+01 -1.180368086886e+01 0.0 
2.666218649885e+01 -1.221619339205e+01 0.0 
2.672371209234e+01 -1.127125228527e+01 0.0 
2.587763216302e+01 -1.168539979114e+01 0.0 
2.581165585299e+01 -1.262994410089e+01 0.0 
2.502890882577e+01 -1.209827323619e+01 0.0 
2.509631327757e+01 -1.115492410304e+01 0.0 
2.424662989877e+01 -1.156630981079e+01 0.0 
2.431704046904e+01 -1.062389179334e+01 0.0 
2.346445438728e+01 -1.103427680694e+01 0.0 
2.339382552877e+01 -1.197964871788e+01 0.0 
2.260936050780e+01 -1.144513277642e+01 0.0 
2.268075012022e+01 -1.049911928216e+01 0.0 
2.182525737661e+01 -1.090920811464e+01 0.0 
2.189682319817e+01 -9.961716944568e+00 0.0 
2.104174127792e+01 -1.037266986667e+01 0.0 
2.111304367575e+01 -9.424179358711e+00 0.0 
2.025306185381e+01 -9.832727364719e+00 0.0 
2.018141124247e+01 -1.079140628871e+01 0.0 
1.938594498257e+01 -1.025147354112e+01 0.0 
1.946106490453e+01 -9.288010758448e+00 0.0 
1.858929958352e+01 -9.706319802516e+00 0.0 
1.851540991219e+01 -1.067205988724e+01 0.0 
1.771485303178e+01 -1.012504443115e+01 0.0 
1.764134552256e+01 -1.109360378538e+01 0.0 
1.683745148095e+01 -1.054496365337e+01 0.0 
1.691852964353e+01 -9.582555261178e+00 0.0 
1.603603813062e+01 -1.000160132379e+01 0.0 
1.595824239350e+01 -1.096750698862e+01 0.0 
1.515080624291e+01 -1.041639501931e+01 0.0 
1.523171602559e+01 -9.451711491453e+00 0.0 
1.434621060709e+01 -9.871956467464e+00 0.0 
1.426777178765e+01 -1.083749501371e+01 0.0 
1.345775282374e+01 -1.028803175500e+01 0.0 
1.354103873368e+01 -9.324918457162e+00 0.0 
1.265072018622e+01 -9.742612837270e+00 0.0 
1.257285762070e+01 -1.071557782384e+01 0.0 
1.175874815690e+01 -1.015972324288e+01 0.0 
1.184203019714e+01 -9.193604071377e+00 0.0 
1.094927709905e+01 -9.612103238656e+00 0.0 
1.086938022910e+01 -1.058685085646e+01 0.0 
1.005424098961e+01 -1.002939116380e+01 0.0 
9.977974613295e+00 -1.101324897989e+01 0.0 
1.012915646404e+01 -9.051815821181e+00 0.0 
9.237127782494e+00 -9.471239055559e+00 0.0 
9.308426593771e+00 -8.483376461131e+00 0.0 
8.418806073345e+00 -8.910712374517e+00 0.0 
2.253688464062e+01 -1.239459402279e+01 0.0 
8.495126726666e+00 -7.921646665254e+00 0.0 
9.389727383206e+00 -7.512103628377e+00 0.0 
7.601560812974e+00 -8.349460349344e+00 0.0 
7.525680547759e+00 -9.339736686940e+00 0.0 
7.677888324502e+00 -7.359727833346e+00 0.0 
6.782001206724e+00 -7.788454494773e+00 0.0 
6.858778622885e+00 -6.797338062822e+00 0.0 
2.196596590865e+01 -8.979025665442e+00 0.0 
2.816540108272e+01 -1.422634142353e+01 0.0 
5.961601194403e+00 -7.226824010712e+00 0.0 
6.038171749656e+00 -6.234825887079e+00 0.0 
6.936257279557e+00 -5.805287640737e+00 0.0 
6.115068918323e+00 -5.242109758768e+00 0.0 
3.564391741903e+01 -1.329240553876e+01 0.0 
3.558115605778e+01 -1.425902892003e+01 0.0 
3.645445282201e+01 -1.381970786460e+01 0.0 
3.639744204358e+01 -1.479198128612e+01 0.0 
3.727266909778e+01 -1.435399586226e+01 0.0 
5.216667013081e+00 -5.671788584287e+00 0.0 
3.220697293295e+01 -1.499594545107e+01 0.0 
3.551112158269e+01 -1.523479869250e+01 0.0 
2.836056961467e+01 -1.139032434851e+01 0.0 
2.516730388602e+01 -1.021382726837e+01 0.0 
1.844436907403e+01 -1.164097215196e+01 0.0 
5.885434318740e+00 -8.218694781467e+00 0.0 
5.064071066867e+00 -7.656614643901e+00 0.0 
4.988089103470e+00 -8.649722082718e+00 0.0 
1.079421050408e+01 -1.157014985435e+01 0.0 
9.902420005256e+00 -1.199903342656e+01 0.0 
1.071994252214e+01 -1.255727909771e+01 0.0 
9.826974788171e+00 -1.298659581767e+01 0.0 
1.064607883789e+01 -1.354595476388e+01 0.0 
9.751541265343e+00 -1.397556905071e+01 0.0 
8.932296185869e+00 -1.341553353988e+01 0.0 
8.856399248106e+00 -1.440570715508e+01 0.0 
8.036186803543e+00 -1.384470558472e+01 0.0 
1.057112875118e+01 -1.453516759081e+01 0.0 
1.146582585687e+01 -1.410539926903e+01 0.0 
7.959894480382e+00 -1.483563350928e+01 0.0 
7.138792279156e+00 -1.427465094140e+01 0.0 
7.062506792418e+00 -1.526615385482e+01 0.0 
6.240693558277e+00 -1.470508863040e+01 0.0 
6.316957575451e+00 -1.371212581281e+01 0.0 
5.418183007107e+00 -1.414253605022e+01 0.0 
5.494748364428e+00 -1.314886770603e+01 0.0 
1.756825565873e+01 -1.206433872514e+01 0.0 
1.837565773345e+01 -1.261356468266e+01 0.0 
1.749574831391e+01 -1.303769280014e+01 0.0 
1.830539187332e+01 -1.358828364284e+01 0.0 
1.742278925170e+01 -1.401367746928e+01 0.0 
1.823303007798e+01 -1.456432294258e+01 0.0 
1.734941694138e+01 -1.499213734361e+01 0.0 
1.653760041637e+01 -1.443920312098e+01 0.0 
3.056237977307e+01 -1.487132260174e+01 0.0 
1.866469084762e+01 -8.742953000418e+00 0.0 
1.953669694916e+01 -8.326038909849e+00 0.0 
1.874194303780e+01 -7.780688158966e+00 0.0 
1.961032016741e+01 -7.366854697285e+00 0.0 
1.881715755159e+01 -6.821102209649e+00 0.0 
1.968369797150e+01 -6.407747217358e+00 0.0 
1.889237123259e+01 -5.858375520026e+00 0.0 
1.802038875366e+01 -6.276202618170e+00 0.0 
1.809793837984e+01 -5.307629520489e+00 0.0 
1.721985207997e+01 -5.728242054488e+00 0.0 
1.729850893523e+01 -4.756990819347e+00 0.0 
1.641745664240e+01 -5.174636548624e+00 0.0 
2.495978509456e+01 -1.304406404294e+01 0.0 
1.911567814831e+01 -1.413854250293e+01 0.0 
1.904387332608e+01 -1.511463127723e+01 0.0 
1.992115934240e+01 -1.468788025898e+01 0.0 
7.013706899628e+00 -4.812582868662e+00 0.0 
5.342091874585e+00 -1.513658157269e+01 0.0 
1.139098043784e+01 -1.509488509480e+01 0.0 
1.228151810610e+01 -1.465617481983e+01 0.0 
1.646373110164e+01 -1.541993323337e+01 0.0 
5.293328636712e+00 -4.678385108584e+00 0.0 
1.975965862987e+01 -5.448124345648e+00 0.0 
2.054318374236e+01 -5.992561293251e+00 0.0 
3.721453439063e+01 -1.533216152738e+01 0.0 
3.809302733893e+01 -1.489235527381e+01 0.0 
1.220852788900e+01 -1.565304565230e+01 0.0 
4.394120899730e+00 -5.108397613210e+00 0.0 
8.779354620288e+00 -1.539524721159e+01 0.0 
1.817791047702e+01 -4.338570146253e+00 0.0 
4.518860013839e+00 -1.457343189307e+01 0.0 
4.442712140414e+00 -1.556841391069e+01 0.0 
8.115343466391e+00 -1.285760324283e+01 0.0 
1.985334703171e+01 -1.566478400426e+01 0.0 
2.071953850276e+01 -1.522074243119e+01 0.0 
1.634012953883e+01 -6.154777738301e+00 0.0 
1.553479994708e+01 -5.593730508879e+00 0.0 
1.561265946942e+01 -4.617761762647e+00 0.0 
1.470674212978e+01 -5.064576488228e+00 0.0 
1.464498299883e+01 -6.026514471420e+00 0.0 
1.383271561817e+01 -5.467796261169e+00 0.0 
1.389241253067e+01 -4.504338666645e+00 0.0 
1.301868735463e+01 -4.907185188626e+00 0.0 
1.294514184846e+01 -5.888160903592e+00 0.0 
1.212955968622e+01 -5.328262335277e+00 0.0 
1.220721122383e+01 -4.341264976687e+00 0.0 
1.131324345897e+01 -4.766773516508e+00 0.0 
5.266597955397e+00 -1.613148974258e+01 0.0 
1.737805990867e+01 -3.786677807525e+00 0.0 
3.078438094513e+01 -1.203225297748e+01 0.0 
1.131569882285e+01 -1.608511932110e+01 0.0 
1.728478341782e+01 -1.596017432313e+01 0.0 
3.803465906019e+01 -1.587509751228e+01 0.0 
3.891681276677e+01 -1.543395196905e+01 0.0 
3.897340985302e+01 -1.444710288980e+01 0.0 
3.980095968193e+01 -1.499059496613e+01 0.0 
3.974334598189e+01 -1.597921884150e+01 0.0 
4.062964983717e+01 -1.553518690417e+01 0.0 
4.068729602479e+01 -1.454434445295e+01 0.0 
4.151772679790e+01 -1.508974196007e+01 0.0 
4.157505195739e+01 -1.409694289912e+01 0.0 
4.240699932656e+01 -1.464347955968e+01 0.0 
4.234898051011e+01 -1.563721375790e+01 0.0 
4.323934606035e+01 -1.519082036405e+01 0.0 
4.329740528208e+01 -1.419587509788e+01 0.0 
4.413056841369e+01 -1.474359631875e+01 0.0 
4.418850110108e+01 -1.374786684042e+01 0.0 
4.502219770667e+01 -1.429605103525e+01 0.0 
4.496411937907e+01 -1.529215882720e+01 0.0 
4.490027319897e+00 -4.154167794594e+00 0.0 
1.565080385988e+01 -1.486411982419e+01 0.0 
1.557610691279e+01 -1.584855627870e+01 0.0 
4.195350646612e+00 -8.089117689096e+00 0.0 
4.124027797830e+00 -9.082831955007e+00 0.0 
4.917944318925e+00 -9.643530901533e+00 0.0 
4.020105689502e+00 -1.007439673661e+01 0.0 
4.587185899277e+01 -1.484039992728e+01 0.0 
4.580078661551e+01 -1.584043391042e+01 0.0 
2.061956522375e+01 -5.046701343981e+00 0.0 
2.139572955529e+01 -5.579553449826e+00 0.0 
3.715344357292e+01 -1.631485124583e+01 0.0 
3.618886196443e+00 -1.500471207167e+01 0.0 
3.695606940204e+00 -1.400939692294e+01 0.0 
2.438890661143e+01 -9.686110599723e+00 0.0 
2.523267572778e+01 -9.276766000622e+00 0.0 
2.446094171539e+01 -8.751904591412e+00 0.0 
2.529089822738e+01 -8.321495612547e+00 0.0 
2.606882688827e+01 -8.864724051119e+00 0.0 
2.452116646430e+01 -7.792756462004e+00 0.0 
1.235543269617e+01 -1.365845617339e+01 0.0 
4.318116874181e+01 -1.618567469992e+01 0.0 
7.835066111909e+00 -5.376366223896e+00 0.0 
7.905687335704e+00 -4.382539065697e+00 0.0 
3.542640009567e+00 -1.600035116542e+01 0.0 
1.572431503071e+01 -1.388358386695e+01 0.0 
2.574684696680e+01 -1.357896141127e+01 0.0 
2.488842657651e+01 -1.399674354505e+01 0.0 
2.568301775611e+01 -1.453552048595e+01 0.0 
2.481535572009e+01 -1.495542756508e+01 0.0 
2.561729699688e+01 -1.549784648532e+01 0.0 
2.474623061296e+01 -1.592058894178e+01 0.0 
2.394234041695e+01 -1.537572575827e+01 0.0 
2.065825452567e+01 -1.621899055217e+01 0.0 
2.387180528935e+01 -1.634552264687e+01 0.0 
4.585364400844e+01 -1.383912334080e+01 0.0 
1.998744432052e+01 -1.370317155541e+01 0.0 
1.205356951443e+01 -6.313580285498e+00 0.0 
5.396543905849e+00 -3.731818611283e+00 0.0 
1.139652573295e+01 -3.745819399350e+00 0.0 
3.574124306703e+00 -4.551456826011e+00 0.0 
3.494140761930e+00 -5.539787055649e+00 0.0 
1.213651452413e+01 -1.664505033022e+01 0.0 
2.555045568519e+01 -1.646529356744e+01 0.0 
2.641671114986e+01 -1.603899382371e+01 0.0 
2.612920721894e+01 -7.906435260873e+00 0.0 
2.690339829698e+01 -8.456969591431e+00 0.0 
1.978024383368e+01 -1.664410216353e+01 0.0 
3.732829979082e+01 -1.336926601859e+01 0.0 
4.074336584605e+01 -1.355133328401e+01 0.0 
4.163204691081e+01 -1.310280943992e+01 0.0 
3.773826114429e+00 -3.493444309145e+00 0.0 
1.228783001032e+01 -3.374822835872e+00 0.0 
4.057110462520e+01 -1.652588478000e+01 0.0 
2.132535497898e+01 -6.523623360525e+00 0.0 
2.216932532211e+01 -6.110044769206e+00 0.0 
1.825781152128e+01 -3.370146817147e+00 0.0 
1.745679445888e+01 -2.812942552063e+00 0.0 
4.666517057280e+01 -1.539981381543e+01 0.0 
4.660575894464e+01 -1.639014410186e+01 0.0 
4.838230979954e+00 -1.063643436446e+01 0.0 
3.938942630206e+00 -1.106778981745e+01 0.0 
1.302967218620e+01 -1.621373452436e+01 0.0 
1.049548003190e+01 -4.204825123240e+00 0.0 
4.573571907195e+01 -1.683820511148e+01 0.0 
1.483686335807e+01 -1.430849689310e+01 0.0 
1.490982658890e+01 -1.332679386284e+01 0.0 
3.190805600162e+00 -9.510968358545e+00 0.0 
2.146625721848e+01 -4.642437303115e+00 0.0 
2.069866208266e+01 -4.111852942193e+00 0.0 
1.286859345584e+01 -6.873252723348e+00 0.0 
1.041794493184e+01 -5.194814260291e+00 0.0 
2.671081808965e+00 -4.976806516331e+00 0.0 
1.295786792925e+01 -1.720506531799e+01 0.0 
3.968438206511e+01 -1.696869067241e+01 0.0 
2.308550456051e+01 -1.579963151273e+01 0.0 
2.315593682844e+01 -1.482967445235e+01 0.0 
2.299471449450e+01 -1.677069968132e+01 0.0 
1.057344714696e+01 -3.214252277840e+00 0.0 
1.124057603753e+01 -1.707713739755e+01 0.0 
2.718402535754e+00 -1.543629882103e+01 0.0 
2.638549692805e+01 -1.696744916809e+01 0.0 
2.723416349007e+01 -1.658104204545e+01 0.0 
2.210193351704e+01 -7.046769643417e+00 0.0 
2.295180925161e+01 -6.657397605239e+00 0.0 
2.301355235833e+01 -5.709111896800e+00 0.0 
2.379052718281e+01 -6.254965406962e+00 0.0 
3.243528601237e+01 -1.214181853533e+01 0.0 
2.287977995457e+01 -7.583722368300e+00 0.0 
2.999876029544e+01 -1.150837653096e+01 0.0 
3.084435366963e+01 -1.109693775882e+01 0.0 
3.006650579669e+01 -1.057778994262e+01 0.0 
2.683802665066e+01 -9.386863216633e+00 0.0 
2.768641973621e+01 -8.988883915666e+00 0.0 
2.040296980397e+01 -7.903629133404e+00 0.0 
1.925235024054e+01 -1.218872783130e+01 0.0 
5.735667000424e+00 -1.020577277283e+01 0.0 
6.396559909872e+00 -1.272326295703e+01 0.0 
1.161199420714e+01 -1.212812778229e+01 0.0 
4.229046132615e+01 -1.663084237572e+01 0.0 
4.312275399692e+01 -1.718087491556e+01 0.0 
4.335502068163e+01 -1.320039231514e+01 0.0 
4.424630298089e+01 -1.275160688731e+01 0.0 
7.090116643816e+00 -3.818998061530e+00 0.0 
7.989472176569e+00 -3.389238711200e+00 0.0 
9.085824861778e+00 -1.144036167408e+01 0.0 
1.041972423731e+01 -1.651614080893e+01 0.0 
3.797525112640e+01 -1.686052038746e+01 0.0 
3.709114253394e+01 -1.730125999865e+01 0.0 
3.626966748340e+01 -1.675477052919e+01 0.0 
1.385164591440e+01 -1.677597757552e+01 0.0 
1.787152588784e+01 -8.198993896093e+00 0.0 
1.668849729812e+01 -1.248560611628e+01 0.0 
1.659546177905e+01 -3.232482605530e+00 0.0 
2.332214717345e+01 -1.292598167641e+01 0.0 
7.168238450786e+00 -2.824711686516e+00 0.0 
2.894878403906e+01 -1.475427524446e+01 0.0 
2.646763248247e+00 -1.643270107952e+01 0.0 
3.467431944285e+00 -1.699648837348e+01 0.0 
2.059475877282e+01 -1.719473628526e+01 0.0 
3.333868355437e+01 -1.080596971682e+01 0.0 
2.246451062637e+01 -1.334557761546e+01 0.0 
2.167821896388e+01 -1.280847834858e+01 0.0 
3.089653185767e+01 -1.017198487212e+01 0.0 
3.012604365669e+01 -9.657298805968e+00 0.0 
2.929627299435e+01 -1.006100135274e+01 0.0 
2.936201435219e+01 -9.136748899251e+00 0.0 
1.198219052702e+01 -7.291887238230e+00 0.0 
1.116702076035e+01 -6.731976101053e+00 0.0 
2.551388807505e+01 -1.746927036981e+01 0.0 
2.378639090370e+01 -1.728678807149e+01 0.0 
2.718543627188e+01 -1.748668016909e+01 0.0 
2.804681050301e+01 -1.712626668293e+01 0.0 
1.970737034667e+01 -1.762317646822e+01 0.0 
1.889535776135e+01 -1.707158098231e+01 0.0 
2.593777711283e+00 -5.971157087874e+00 0.0 
2.773468281110e+01 -8.067164273938e+00 0.0 
4.051205884347e+01 -1.751819982458e+01 0.0 
3.166903145421e+01 -1.068032992414e+01 0.0 
1.033042452886e+01 -1.748285844336e+01 0.0 
9.519274604626e+00 -1.694349240233e+01 0.0 
1.668308673328e+01 -2.255861778986e+00 0.0 
1.570531902832e+01 -2.676795860126e+00 0.0 
4.655826903379e+01 -1.736656245706e+01 0.0 
2.384148070773e+01 -5.328744256413e+00 0.0 
2.460255123641e+01 -5.852182672816e+00 0.0 
2.306638135119e+01 -4.798935440613e+00 0.0 
8.467720450578e-01 -1.849576263072e+01 0.0 
4.849657322345e+01 -1.084860705506e+01 0.0 
2.565860899507e+00 -1.742859793981e+01 0.0 
2.764418872564e+01 -9.927142821799e+00 0.0 
4.565165880064e+01 -1.785336695404e+01 0.0 
2.162231831329e+01 -1.376528337468e+01 0.0 
2.360646352969e+01 -9.136041963102e+00 0.0 
1.392738739903e+01 -1.578285505772e+01 0.0 
4.756405947478e+01 -1.683706841809e+01 0.0 
4.740895034054e+01 -1.793766756892e+01 0.0 
4.080779328826e+01 -1.257387192544e+01 0.0 
4.168907939671e+01 -1.210739129181e+01 0.0 
3.991197722154e+01 -1.300815793917e+01 0.0 
1.905536506762e+01 -3.940076697685e+00 0.0 
1.923879596617e+01 -2.875000734166e+00 0.0 
4.401386745746e+01 -1.673483229438e+01 0.0 
4.247233362525e+00 -7.094581653070e+00 0.0 
3.286051630211e+00 -7.635300020553e+00 0.0 
9.609533347623e+00 -4.594311677967e+00 0.0 
9.523554636369e+00 -5.595597029530e+00 0.0 
5.660336628893e+00 -1.119290329628e+01 0.0 
6.558070063295e+00 -1.076385809362e+01 0.0 
2.809866407414e+01 -1.518037766799e+01 0.0 
2.888868674504e+01 -1.570360690070e+01 0.0 
2.654431550819e+01 -1.411217777162e+01 0.0 
1.402158265969e+01 -1.375404617952e+01 0.0 
1.409592494026e+01 -1.277071998942e+01 0.0 
1.499355196178e+01 -1.235270737023e+01 0.0 
4.221535326155e+01 -1.759335617494e+01 0.0 
4.305583287033e+01 -1.822663146802e+01 0.0 
1.280748808359e+01 -7.834332838285e+00 0.0 
1.368988389326e+01 -7.420529606172e+00 0.0 
1.110091796060e+01 -7.683966794328e+00 0.0 
3.963446145980e+01 -1.794331310122e+01 0.0 
3.423932362213e+00 -1.796415590455e+01 0.0 
4.280814572302e+00 -1.752272834860e+01 0.0 
8.050136380041e+00 -2.421582378631e+00 0.0 
8.888674091650e+00 -2.984264211327e+00 0.0 
2.152839430898e+01 -3.732609965436e+00 0.0 
2.077799585292e+01 -3.183896021866e+00 0.0 
3.618719395821e+01 -1.770276572576e+01 0.0 
3.538165138340e+01 -1.718709995539e+01 0.0 
3.702925326420e+01 -1.828844288807e+01 0.0 
1.756739438711e+00 -5.353284859169e+00 0.0 
2.233710191104e+01 -1.527265621324e+01 0.0 
1.389483555057e+01 -1.771797164730e+01 0.0 
1.475634224300e+01 -1.728357428390e+01 0.0 
1.298797563052e+01 -1.825968924755e+01 0.0 
2.145331271866e+01 -1.673705379077e+01 0.0 
2.133282821169e+01 -1.769400773673e+01 0.0 
2.292139194136e+01 -1.774915400288e+01 0.0 
1.750750053243e+01 -1.861475593469e+00 0.0 
4.830478841772e+01 -1.752611802221e+01 0.0 
4.341203507805e+01 -1.220326745522e+01 0.0 
1.685254151866e+01 -1.443085301632e+00 0.0 
4.431538535165e+01 -1.171841387375e+01 0.0 
4.511308610496e+01 -1.229557320599e+01 0.0 
4.510133242889e+01 -1.123680627466e+01 0.0 
1.846818030617e+00 -4.410877617069e+00 0.0 
3.995468694584e+01 -1.186571542989e+01 0.0 
3.901387459804e+01 -1.242507616755e+01 0.0 
8.966735877533e+00 -1.837818700423e+00 0.0 
4.049310011091e+01 -1.848269508791e+01 0.0 
7.278862053803e+00 -1.918523922691e+00 0.0 
6.429715522129e+00 -2.316676521184e+00 0.0 
9.443505505022e+00 -1.792198868094e+01 0.0 
8.620386951051e+00 -1.737590365556e+01 0.0 
8.571868171503e+00 -1.834436667826e+01 0.0 
7.758629848526e+00 -1.775677907213e+01 0.0 
7.806648388584e+00 -1.680761266021e+01 0.0 
6.908555145436e+00 -1.723746463044e+01 0.0 
4.251709122090e+01 -1.156937480156e+01 0.0 
6.931136405615e+00 -1.832465719263e+01 0.0 
6.015545461353e+00 -1.768865355295e+01 0.0 
5.960535926343e+00 -1.872011001764e+01 0.0 
3.023253444786e+01 -8.761960642196e+00 0.0 
2.454622702599e+01 -6.749421992767e+00 0.0 
2.537499741604e+01 -6.347634963783e+00 0.0 
2.544077378460e+01 -5.431358513649e+00 0.0 
2.801367161747e+01 -1.820907270221e+01 0.0 
2.884507806914e+01 -1.762032095326e+01 0.0 
1.821474531936e+00 -1.588901260460e+01 0.0 
1.821006262604e+00 -1.489370287756e+01 0.0 
4.599962488908e+01 -1.176478780598e+01 0.0 
4.705457470007e+01 -1.172182804229e+01 0.0 
4.667668314802e+01 -1.263464558483e+01 0.0 
4.759648056504e+01 -1.252380987933e+01 0.0 
4.728041618103e+01 -1.341928568376e+01 0.0 
4.825209352360e+01 -1.330491640804e+01 0.0 
4.778118233428e+01 -1.420151961695e+01 0.0 
2.388192727579e+01 -1.826934810142e+01 0.0 
2.381714684947e+01 -4.385917965223e+00 0.0 
3.172733219247e+01 -9.758744265248e+00 0.0 
1.882012070658e+01 -1.805540597212e+01 0.0 
1.805667505243e+01 -1.742221226236e+01 0.0 
2.852599958080e+01 -8.597196079481e+00 0.0 
2.856486123437e+01 -7.661382718527e+00 0.0 
1.111792842875e+01 -1.818223852980e+01 0.0 
2.203322722466e+01 -7.986646678802e+00 0.0 
3.955703676900e+01 -1.903246763601e+01 0.0 
1.944842206513e+01 -8.038750575182e-01 0.0 
1.909882767783e+01 -1.746322740933e+00 0.0 
2.281147422941e+01 -8.525912918334e+00 0.0 
2.850633001468e+01 -9.533271335986e+00 0.0 
2.532883344309e+01 -7.308951659710e+00 0.0 
2.620475466461e+01 -6.979208585400e+00 0.0 
1.396278270396e+01 -1.475095389807e+01 0.0 
9.791001166724e+00 -2.554159793552e+00 0.0 
2.229293380421e+01 -4.269762271052e+00 0.0 
4.677238984118e+01 -1.430071795514e+01 0.0 
2.228658385918e+01 -3.344747535984e+00 0.0 
8.940223674553e-01 -1.543595733415e+01 0.0 
2.118566862474e+01 -8.435876987696e+00 0.0 
2.678325936437e+01 -1.032621195706e+01 0.0 
2.223400220487e+01 -5.179046761770e+00 0.0 
2.375370625384e+01 -7.251580562134e+00 0.0 
3.156971327386e+01 -1.255534750737e+01 0.0 
3.328226391312e+01 -1.172914813316e+01 0.0 
3.250948774219e+01 -1.120157009348e+01 0.0 
2.032993445717e+01 -8.867880112202e+00 0.0 
2.697226974856e+01 -7.536633082045e+00 0.0 
2.707377810386e+01 -6.590835263295e+00 0.0 
2.914099246827e+01 -1.191678458549e+01 0.0 
3.544824072239e+01 -1.621126558525e+01 0.0 
3.456511855436e+01 -1.665054783843e+01 0.0 
3.448395810225e+01 -1.759117813016e+01 0.0 
3.368378673938e+01 -1.708037781328e+01 0.0 
3.375560452567e+01 -1.610973066913e+01 0.0 
3.288001547988e+01 -1.654324255651e+01 0.0 
3.282475929147e+01 -1.749725654692e+01 0.0 
3.199880906313e+01 -1.697294088625e+01 0.0 
3.197001272932e+01 -1.811667776864e+01 0.0 
3.111884713021e+01 -1.742166785755e+01 0.0 
3.120418962865e+01 -1.642155709385e+01 0.0 
3.034666704371e+01 -1.683123833816e+01 0.0 
3.026224379976e+01 -1.772592851714e+01 0.0 
3.046632362943e+01 -1.582232843075e+01 0.0 
1.961344017324e+01 -1.857459447985e+01 0.0 
2.274975894774e+01 -9.532738811922e+00 0.0 
1.833923246887e+01 -2.396746883672e+00 0.0 
1.988859500848e+01 -2.249244376594e+00 0.0 
2.758045562861e+01 -1.086434261689e+01 0.0 
3.247300178163e+01 -1.909930104252e+01 0.0 
3.461947482503e+01 -1.911879848019e+01 0.0 
2.047161538662e+01 -6.941478180358e+00 0.0 
2.750230940214e+01 -1.915490590764e+01 0.0 
3.165081350803e+01 -1.161860780120e+01 0.0 
1.897456727641e+01 -4.889634688522e+00 0.0 
2.549338539756e+01 -1.914858252089e+01 0.0 
3.462873135081e+01 -1.567482276144e+01 0.0 
3.384432415243e+01 -1.512280684518e+01 0.0 
3.471433767690e+01 -1.469086942990e+01 0.0 
3.651470373046e+01 -1.918207952149e+01 0.0 
3.901742690249e+01 -1.345028556517e+01 0.0 
2.153224102692e+01 -1.920169709333e+01 0.0 
1.918382939341e+01 -1.316226275662e+01 0.0 
2.005389162382e+01 -1.271962165174e+01 0.0 
2.011472087878e+01 -1.175029352900e+01 0.0 
3.210679478412e+01 -1.598038618242e+01 0.0 
1.752175226543e+01 -1.914713022656e+01 0.0 
1.696897240059e+01 -1.832772588765e+01 0.0 
1.599682523337e+01 -1.832599992024e+01 0.0 
1.644507199462e+01 -1.743697981535e+01 0.0 
1.549987712903e+01 -1.915192375101e+01 0.0 
3.050250861901e+01 -1.918943550234e+01 0.0 
2.949944061527e+01 -1.922950455235e+01 0.0 
1.375892575273e+01 -6.447160534926e+00 0.0 
1.457223670180e+01 -7.006709243857e+00 0.0 
1.450818793236e+01 -7.965943451779e+00 0.0 
1.538804712402e+01 -7.553409623699e+00 0.0 
1.545817644768e+01 -6.580929593419e+00 0.0 
1.626506893751e+01 -7.129032608911e+00 0.0 
1.619833811522e+01 -8.086588580887e+00 0.0 
1.714448609609e+01 -6.697429609777e+00 0.0 
2.887616543568e+01 -1.668015232137e+01 0.0 
1.349814589130e+01 -1.918225301544e+01 0.0 
1.153887772210e+01 -1.311384581217e+01 0.0 
1.242708159886e+01 -1.267046795531e+01 0.0 
1.249799674267e+01 -1.169005616014e+01 0.0 
6.631723893693e+00 -9.774184881867e+00 0.0 
7.451471631867e+00 -1.033148796006e+01 0.0 
7.377795355458e+00 -1.132196345268e+01 0.0 
5.810931797536e+00 -9.211654212252e+00 0.0 
2.402683899133e+01 -1.441378562320e+01 0.0 
1.249768692036e+01 -1.917388426624e+01 0.0 
1.580373499437e+01 -1.290751860664e+01 0.0 
8.344650507834e+00 -9.898403995170e+00 0.0 
3.750622115305e+01 -1.086526401533e+01 0.0 
3.699391251667e+01 -1.171695900794e+01 0.0 
3.606517829518e+01 -1.173717504500e+01 0.0 
3.650257641795e+01 -1.270047380221e+01 0.0 
3.808951488918e+01 -1.183518714175e+01 0.0 
4.760380962420e+00 -1.162484888315e+01 0.0 
3.861210370848e+00 -1.205657631736e+01 0.0 
3.038284309476e+00 -1.149851280664e+01 0.0 
2.961598794889e+00 -1.248856794980e+01 0.0 
2.138953225512e+00 -1.193212674534e+01 0.0 
2.227383593457e+00 -1.096258903918e+01 0.0 
2.043265419276e+00 -1.292158472959e+01 0.0 
1.252449446028e+00 -1.225502002753e+01 0.0 
3.949985210740e+01 -1.086594001795e+01 0.0 
1.453499444792e+01 -8.768805922472e-01 0.0 
1.403518950933e+01 -1.749965556633e+00 0.0 
1.300715031023e+01 -1.714737233040e+00 0.0 
1.350929389899e+01 -2.527443911291e+00 0.0 
1.449600910711e+01 -2.595486162864e+00 0.0 
1.395693872901e+01 -3.484211041558e+00 0.0 
1.495105865208e+01 -3.364609636216e+00 0.0 
1.508822528740e+01 -1.766586020494e+00 0.0 
1.250223858430e+01 -8.634590186802e-01 0.0 
1.200279523409e+01 -1.709044504992e+00 0.0 
1.150086239419e+01 -8.592789190668e-01 0.0 
1.101482754194e+01 -1.677730591922e+00 0.0 
1.148018564526e+01 -2.659323866909e+00 0.0 
8.800552119754e+00 -3.989875954728e+00 0.0 
3.452790439430e+00 -1.901136170646e+01 0.0 
8.658451825200e-01 -9.503462241795e+00 0.0 
1.694787786797e+00 -9.000589234502e+00 0.0 
1.703436717094e+00 -8.038819004041e+00 0.0 
2.594197971110e+00 -8.563955242845e+00 0.0 
1.630513735412e+00 -9.907244747511e+00 0.0 
8.566859292791e-01 -7.512203837972e+00 0.0 
1.685461277022e+00 -7.164280248030e+00 0.0 
2.506394468801e+00 -8.623386730818e-01 0.0 
2.007475081581e+00 -1.727729545205e+00 0.0 
9.211534699767e-01 -1.628791366312e+00 0.0 
1.500000000020e+00 -2.598063549486e+00 0.0 
2.482078929963e+00 -2.553580088725e+00 0.0 
2.999795253092e+00 -1.732169015019e+00 0.0 
3.999712607169e+00 -1.728832897453e+00 0.0 
4.499752199340e+00 -8.656478679175e-01 0.0 
4.964377774841e+00 -1.730129617941e+00 0.0 
4.425017908337e+00 -2.597541756243e+00 0.0 
5.446573195014e+00 -8.410144840023e-01 0.0 
4.915722346614e+01 -1.550640962770e+01 0.0 
4.826794919243e+01 -1.600000000000e+01 0.0 
1.053139533193e+01 -1.911782884365e+01 0.0 
4.156049861949e+01 -1.095160998589e+01 0.0 
9.494526624416e+00 -8.650570090219e-01 0.0 
4.555762166964e+01 -1.897098103585e+01 0.0 
4.250656411371e+01 -1.914387356218e+01 0.0 
4.350906466345e+01 -1.917234727395e+01 0.0 
8.759665722424e-01 -1.746422130609e+01 0.0 
1.698936011838e+00 -1.795012186674e+01 0.0 
4.742476811029e+01 -1.900090177972e+01 0.0 
7.749196752349e+00 -6.368049313489e+00 0.0 
3.361572113416e+01 -1.798765193915e+01 0.0 
4.484660149212e+01 -1.728661231383e+01 0.0 
1.984038172228e+01 -4.502575320116e+00 0.0 
1.035080352627e+01 -6.166639575753e+00 0.0 
2.753558010652e+00 -1.444909521181e+01 0.0 
7.217069543032e+00 -1.328635391078e+01 0.0 
4.364336727739e+00 -1.655585677381e+01 0.0 
4.595208426108e+00 -1.357919665443e+01 0.0 
6.164967006980e+00 -1.569873454630e+01 0.0 
1.487855768353e+01 -1.826523774028e+01 0.0 
2.791876456372e+00 -4.019632415181e+00 0.0 
4.246464893515e+01 -1.364898659620e+01 0.0 
4.503855590351e+01 -1.329552780944e+01 0.0 
4.407239109604e+01 -1.573900004093e+01 0.0 
5.141054449252e+00 -6.664290382472e+00 0.0 
3.141083947149e+00 -1.055790764912e+01 0.0 
6.196463198741e+00 -4.256497932609e+00 0.0 
2.599618716181e+01 -1.836893455464e+01 0.0 
2.923057372337e+01 -1.098461757645e+01 0.0 
1.168343877486e+01 -1.114079645041e+01 0.0 
6.706222096238e+00 -8.780364234441e+00 0.0 
8.567858614669e+00 -6.943121440850e+00 0.0 
1.123755132901e+01 -5.753525820030e+00 0.0 
2.353456234423e+01 -1.008536320953e+01 0.0 
9.162073319168e+00 -1.045593739109e+01 0.0 
9.676343469685e+00 -1.496493008366e+01 0.0 
4.490637882905e+01 -1.628778970202e+01 0.0 
7.398129387772e+00 -9.639977982323e-01 0.0 
1.049641705805e+01 -1.552503975272e+01 0.0 
9.010356286268e+00 -1.242805042052e+01 0.0 
3.985573925497e+01 -1.399863651620e+01 0.0 
1.816196318262e+01 -1.554066497931e+01 0.0 
1.306332244168e+01 -3.963646550326e+00 0.0 
4.145850903932e+01 -1.608094559275e+01 0.0 
3.794664933633e+01 -1.779020121986e+01 0.0 
3.819614412903e+01 -1.290749321016e+01 0.0 
6.270014188119e+00 -3.255093186826e+00 0.0 
4.251165370388e+01 -1.263870364997e+01 0.0 
1.207347709171e+01 -1.763942826023e+01 0.0 
3.633240829927e+01 -1.577330481104e+01 0.0 
4.319052668832e+00 -6.101812561904e+00 0.0 
1.676492415806e+01 -1.151547901392e+01 0.0 
2.594059220037e+01 -1.074225223009e+01 0.0 
3.340750911501e+01 -9.898764354137e+00 0.0 
4.397619591281e+01 -1.769773736461e+01 0.0 
2.175611595028e+01 -1.185718747128e+01 0.0 
1.641818733106e+01 -1.640685203215e+01 0.0 
1.661211421753e+01 -1.346121366338e+01 0.0 
3.428853504935e+00 -6.551993389271e+00 0.0 
8.700728832502e+00 -1.638460872825e+01 0.0 
1.931369795309e+01 -1.121629383702e+01 0.0 
4.139798872363e+01 -1.706922153459e+01 0.0 
2.647837478700e+01 -1.507353829290e+01 0.0 
1.779469616424e+01 -9.161615782908e+00 0.0 
3.885879219319e+01 -1.642026488918e+01 0.0 
1.338194936770e+01 -1.125916521471e+01 0.0 
1.897071181111e+01 -1.609204322578e+01 0.0 
2.844308548793e+01 -1.046221003096e+01 0.0 
2.659854702194e+01 -1.316109415760e+01 0.0 
2.979604503271e+01 -1.433296157755e+01 0.0 
2.417694041347e+01 -1.251231397779e+01 0.0 
1.807401327411e+00 -1.388891148480e+01 0.0 
9.599810618782e+00 -1.595439365034e+01 0.0 
1.652144692160e+01 -4.205392788472e+00 0.0 
2.367839450246e+01 -8.188385218643e+00 0.0 
3.814894930468e+01 -1.390748338767e+01 0.0 
2.466448215774e+01 -1.685878545680e+01 0.0 
4.134044524611e+01 -1.806610045954e+01 0.0 
2.600511411958e+01 -9.801774120648e+00 0.0 
7.882158050716e+00 -1.582364037353e+01 0.0 
3.881607873422e+01 -1.737970515013e+01 0.0 
8.270182347708e+00 -1.088622154920e+01 0.0 
8.672520392520e-01 -4.532984309881e+00 0.0 
1.993447205337e+01 -3.579061902667e+00 0.0 
1.794616079549e+01 -7.238038888498e+00 0.0 
2.097277068165e+01 -1.132450168636e+01 0.0 
8.194803300681e+00 -1.187214224265e+01 0.0 
3.522279404911e+01 -1.823342818178e+01 0.0 
6.984481050295e+00 -1.625271465557e+01 0.0 
1.309433007797e+01 -1.521718594215e+01 0.0 
2.150246167611e+01 -1.885399038185e+00 0.0 
3.250689370209e+01 -1.028789870535e+01 0.0 
6.085886272238e+00 -1.668342132851e+01 0.0 
1.588455661727e+01 -1.193498985921e+01 0.0 
1.809323400821e+01 -1.651110084195e+01 0.0 
1.348885082381e+00 -1.136065576512e+01 0.0 
2.497670221995e+01 -1.834631276173e+01 0.0 
2.937062818424e+01 -8.233711194470e+00 0.0 
5.185823744469e+00 -1.711566910207e+01 0.0 
1.477497877209e+01 -1.530177014512e+01 0.0 
2.125346158933e+01 -7.473003997367e+00 0.0 
4.751561118290e+01 -1.084897772632e+01 0.0 
5.056026576843e+00 -1.825750475525e+01 0.0 
1.473948554523e+01 -1.634577436309e+01 0.0 
2.410566630936e+01 -1.345970002612e+01 0.0 
1.507337507513e+01 -1.138527895328e+01 0.0 
3.189857338687e+01 -8.887781229006e+00 0.0 
7.298712468334e+00 -1.230231046246e+01 0.0 
2.738235495295e+01 -1.368931690364e+01 0.0 
3.750141041969e+01 -1.920449893070e+01 0.0 
1.557271965640e+01 -1.683317951731e+01 0.0 
3.393731848929e+01 -1.413034777044e+01 0.0 
6.482156824153e+00 -1.174575135362e+01 0.0 
2.077971718439e+01 -1.421279621836e+01 0.0 
3.455084320178e+00 -2.562590040585e+00 0.0 
3.099056096250e+01 -9.270280416035e+00 0.0 
5.580176125418e+00 -1.217387969259e+01 0.0 
1.707247630389e+01 -7.660651981710e+00 0.0 
1.418658814174e+01 -1.180390575393e+01 0.0 
2.049103025389e+01 -1.811296706038e+01 0.0 
4.680386172316e+00 -1.260396879301e+01 0.0 
1.699679896554e+01 -8.624561788199e+00 0.0 
3.779470168555e+00 -1.303424899720e+01 0.0 
3.036589870126e+01 -7.879832518349e+00 0.0 
3.306993001774e+01 -1.457671062095e+01 0.0 
2.840150110165e+00 -1.346530088269e+01 0.0 
2.732011135052e+01 -1.464591214560e+01 0.0 
5.423639259568e+00 -2.659711955016e+00 0.0 
2.324455961696e+01 -1.387269388211e+01 0.0 
1.752768355571e+00 -1.693128613594e+01 0.0 
1.020244783051e+01 -8.076834012808e+00 0.0 
1.330873875224e+01 -1.222417528206e+01 0.0 
3.297727364880e+01 -1.555480372087e+01 0.0 
2.890929955439e+01 -6.868664170731e+00 0.0 
1.323294664622e+01 -1.320754260334e+01 0.0 
2.726532861246e+01 -1.560593120806e+01 0.0 
2.240020643398e+01 -1.429299177247e+01 0.0 
2.090445823633e+01 -1.228128621332e+01 0.0 
1.315809881502e+01 -1.420739326938e+01 0.0 
2.781328038068e+01 -7.181956082300e+00 0.0 
8.614200829057e+00 -5.936933226306e+00 0.0 
8.714765730069e+00 -4.979270529687e+00 0.0 
1.611881701099e+01 -9.041973294003e+00 0.0 
2.806830314340e+01 -1.614622947108e+01 0.0 
2.084435391396e+00 -3.385085422913e+00 0.0 
3.133211811152e+01 -1.542347619750e+01 0.0 
9.693114650768e+00 -3.590281506442e+00 0.0 
1.531883592202e+01 -8.504584946143e+00 0.0 
2.151589117094e+01 -1.578915763018e+01 0.0 
4.918943882696e+01 -1.355538828056e+01 0.0 
1.443236615188e+01 -8.918701794549e+00 0.0 
8.276250966452e-01 -5.537685192197e+00 0.0 
1.362790867918e+01 -8.374718262212e+00 0.0 
2.083767477370e+01 -1.324843956035e+01 0.0 
1.273834678703e+01 -8.790890389337e+00 0.0 
1.192275845670e+01 -8.242261327467e+00 0.0 
4.477236023583e+01 -1.824312396664e+01 0.0 
1.102989384254e+01 -8.649855800911e+00 0.0 
4.849096516045e+01 -1.917293752213e+01 0.0 
1.588996752238e+00 -1.910230934687e+01 0.0 
4.904245197583e+01 -1.159839008158e+01 0.0 
2.753852929608e+01 -5.782128488093e+00 0.0 
1.756133602833e+01 -8.306130313187e-01 0.0 
2.615423700951e+01 -6.153865090092e+00 0.0 
1.028818761294e+01 -7.122020845892e+00 0.0 
2.970818901196e+01 -1.527821347593e+01 0.0 
4.801461623449e+01 -1.164472570985e+01 0.0 
9.455722100419e+00 -6.546069291118e+00 0.0 
3.089099236677e+01 -1.835339328261e+01 0.0 
2.350000000013e+01 -1.920825896750e+01 0.0 
4.830620531887e+01 -1.506626155470e+01 0.0 
1.725381944701e+01 -1.688794487850e+01 0.0 
2.156246225273e+01 -1.475893794002e+01 0.0 
4.919319648787e+01 -1.742767505896e+01 0.0 
4.437935623576e+01 -1.077662927266e+01 0.0 
1.001520521978e+01 -1.652692675208e+00 0.0 
9.067160240050e-01 -1.441937727541e+01 0.0 
2.603365149390e+01 -4.755996613848e+00 0.0 
2.458344439002e+01 -4.873645517696e+00 0.0 
2.304312390142e+01 -3.836552768096e+00 0.0 
2.546923202198e+00 -6.902480355749e+00 0.0 
1.251534969393e+01 -2.490989965776e+00 0.0 
2.454061833377e+01 -3.933354231935e+00 0.0 
1.788186558740e+01 -1.827424884923e+01 0.0 
4.090785243552e+01 -1.166553231904e+01 0.0 
2.230128851568e+01 -1.623015738726e+01 0.0 
2.302362347568e+01 -2.916239960270e+00 0.0 
3.878119254461e+01 -1.830091164002e+01 0.0 
2.210081359958e+01 -1.829238229150e+01 0.0 
8.443704882233e+00 -1.921993252862e+01 0.0 
2.218405824691e+01 -1.724557581508e+01 0.0 
2.151157503963e+01 -2.790636689331e+00 0.0 
3.741658958955e+01 -1.250400191722e+01 0.0 
2.697247663737e+01 -1.838290202309e+01 0.0 
4.743362342862e+01 -1.585850773010e+01 0.0 
6.671345075358e+00 -1.924977576322e+01 0.0 
3.900825404537e+01 -1.157220003875e+01 0.0 
4.649692961375e+01 -1.836335837481e+01 0.0 
1.578831424832e+01 -3.678284023361e+00 0.0 
4.814208768888e+01 -1.841249298770e+01 0.0 
2.964123298315e+01 -1.625739458193e+01 0.0 
4.580760351902e+01 -1.284294554687e+01 0.0 
3.561520879615e+01 -1.245548941949e+01 0.0 
2.555418095658e+00 -1.841101588290e+01 0.0 
3.288468366144e+01 -1.834258164109e+01 0.0 
2.065894391445e+01 -2.240688571739e+00 0.0 
4.739171429915e+01 -1.496536413446e+01 0.0 
3.478086729185e+00 -8.576434653209e+00 0.0 
1.606010630246e+01 -1.588421807951e+00 0.0 
1.018329200594e+01 -1.834320874317e+01 0.0 
2.957213339430e+01 -1.720496954591e+01 0.0 
4.142712790164e+00 -1.837794506222e+01 0.0 
6.698721532573e-01 -2.499999999997e+00 0.0 
8.037039123140e+00 -1.571229354954e+00 0.0 
1.203541361428e+01 -1.847784298001e+01 0.0 
2.899968332038e+01 -1.848264722179e+01 0.0 
1.469229460948e+01 -4.219485753730e+00 0.0 
4.049590781957e+01 -1.932812501995e+01 0.0 
1.996211678340e+01 -1.506329754720e+00 0.0 
4.250588298353e+01 -1.067383247529e+01 0.0 
5.831497011152e+00 -1.635396227234e+00 0.0 
5.317606125670e+00 -1.923927974868e+01 0.0 
4.208546426993e+01 -1.842830665025e+01 0.0 
2.327553405011e+00 -9.459409929662e+00 0.0 
3.568351902251e+01 -1.096637218582e+01 0.0 
1.682104374890e+00 -6.231413350963e+00 0.0 
2.451812238018e+01 -1.766524914339e+01 0.0 
1.058003429638e+01 -2.391839617098e+00 0.0 
4.399988753123e+01 -1.851998776342e+01 0.0 
1.400000000010e+01 -1.852293523028e+01 0.0 
3.604719565984e+01 -1.850662876800e+01 0.0 
1.951297136734e+01 -1.938092349694e+01 0.0 
1.821365318472e+01 -1.531276353287e+00 0.0 
2.298031859732e+01 -1.854635324722e+01 0.0 
1.552168066204e+01 -1.764280741977e+01 0.0 
4.572957713638e+01 -1.073347898229e+01 0.0 
3.429637429624e+01 -1.838861552790e+01 0.0 
2.427434426052e+00 -7.705577451869e+00 0.0 
4.662792031485e+00 -3.359424455416e+00 0.0 
4.926794919243e+01 -1.926794919243e+01 0.0 
7.320508075690e-01 -7.320508075688e-01 0.0 
4.926794919243e+01 -1.073205080757e+01 0.0 
7.320508075705e-01 -1.926794919243e+01 0.0 
2.917460242467e+00 -3.202866455310e+00 0.0 
4.838200575963e+01 -1.232674147454e+01 0.0 
2.998445708009e+01 -1.854403752148e+01 0.0 
5.949940090766e-01 -1.152762038165e+01 0.0 
4.844763495759e+01 -1.678092548787e+01 0.0 
1.301685480160e+01 -3.170056592566e+00 0.0 
1.650046335855e+01 -6.731535384067e-01 0.0 
4.854881540991e+01 -1.405224059779e+01 0.0 
2.119545114693e+01 -1.846813384545e+01 0.0 
3.797852849897e+01 -1.857978513215e+01 0.0 
4.649823708745e+01 -1.338351810816e+01 0.0 
2.012685900976e+01 -2.889659035009e+00 0.0 
2.953271913273e+01 -1.791558075192e+01 0.0 
2.408509097292e+00 -1.021949208421e+01 0.0 
2.642589566221e+01 -1.773216561448e+01 0.0 
1.730010270775e+01 -1.763165076721e+01 0.0 
2.017406551304e+01 -8.513536440582e-01 0.0 
5.254761581934e-01 -1.249999999999e+01 0.0 
6.640448215642e+00 -1.545337834885e+00 0.0 
7.843361506349e+00 -1.852719839527e+01 0.0 
1.588442191088e+00 -1.066158564320e+01 0.0 
3.331250000000e+01 -8.420918367347e+00 0.0 
4.951470588234e+01 -8.500000000000e+00 0.0 
3.480610198624e+01 -9.413633635267e+00 0.0 
4.951470588234e+01 -9.500000000000e+00 0.0 

CELLS 1996 7984 
3 214 684 960 
3 684 214 962 
3 694 187 705 
3 807 572 996 
3 574 634 800 
3 664 577 703 
3 194 616 618 
3 214 641 962 
3 616 194 634 
3 567 802 996 
3 186 761 762 
3 641 214 976 
3 806 958 1002 
3 623 754 844 
3 958 220 1002 
3 213 807 996 
3 622 193 763 
3 577 664 702 
3 201 621 943 
3 621 201 881 
3 802 567 955 
3 932 178 938 
3 659 932 938 
3 609 608 818 
3 308 464 753 
3 761 186 870 
3 107 82 1023 
3 653 179 895 
3 306 308 753 
3 818 608 1028 
3 558 768 770 
3 211 624 801 
3 694 705 1003 
3 19 199 674 
3 209 628 630 
3 637 66 994 
3 66 637 1020 
3 656 205 700 
3 620 98 973 
3 98 620 1034 
3 896 638 922 
3 174 660 799 
3 977 175 981 
3 82 223 1023 
3 615 222 972 
3 654 977 981 
3 768 558 771 
3 222 615 998 
3 764 765 771 
3 754 623 995 
3 216 659 896 
3 606 621 881 
3 384 997 1015 
3 216 896 922 
3 706 188 886 
3 979 551 1024 
3 606 881 950 
3 199 644 674 
3 467 795 913 
3 802 213 996 
3 173 1007 1048 
3 987 613 989 
3 433 461 667 
3 997 770 1015 
3 778 597 1002 
3 659 216 932 
3 1007 617 1048 
3 187 694 967 
3 494 455 776 
3 183 642 708 
3 870 813 924 
3 33 32 662 
3 653 895 1025 
3 4 5 788 
3 785 979 1024 
3 625 190 876 
3 706 886 1035 
3 673 978 985 
3 795 467 1037 
3 978 215 985 
3 455 468 776 
3 193 622 983 
3 178 684 938 
3 684 178 960 
3 634 574 846 
3 616 634 846 
3 645 870 975 
3 18 19 674 
3 699 696 944 
3 574 800 983 
3 801 624 974 
3 225 752 1023 
3 798 969 993 
3 993 969 1005 
3 191 33 662 
3 700 205 1030 
3 622 763 995 
3 799 660 1008 
3 219 651 948 
3 667 461 668 
3 800 634 1018 
3 220 778 1002 
3 381 947 971 
3 612 987 989 
3 502 500 678 
3 765 768 771 
3 805 806 928 
3 571 798 993 
3 173 764 771 
3 901 196 1020 
3 346 699 944 
3 4 788 1039 
3 569 665 701 
3 536 852 890 
3 580 782 1006 
3 640 667 668 
3 435 433 667 
3 209 630 988 
3 651 219 1043 
3 639 435 667 
3 670 600 945 
3 223 225 1023 
3 798 571 1046 
3 435 639 678 
3 990 889 1004 
3 655 905 914 
3 782 580 1036 
3 905 180 914 
3 190 625 1016 
3 602 990 1004 
3 761 870 924 
3 572 807 998 
3 509 566 666 
3 180 638 914 
3 628 209 1008 
3 806 563 958 
3 645 813 870 
3 666 566 866 
3 610 738 1028 
3 542 658 666 
3 592 803 804 
3 642 183 1014 
3 844 754 991 
3 451 423 672 
3 658 509 666 
3 638 180 922 
3 566 704 866 
3 678 504 873 
3 194 618 973 
3 665 300 701 
3 624 211 1012 
3 959 965 1043 
3 789 201 943 
3 217 655 890 
3 738 610 747 
3 639 502 678 
3 674 645 975 
3 641 175 977 
3 947 607 971 
3 200 646 647 
3 661 300 665 
3 644 199 928 
3 494 670 945 
3 806 565 928 
3 681 554 709 
3 196 901 1010 
3 959 564 965 
3 500 504 678 
3 852 217 890 
3 186 762 1059 
3 175 641 976 
3 300 661 675 
3 423 474 672 
3 646 200 1034 
3 504 665 873 
3 655 217 905 
3 548 737 942 
3 782 483 1006 
3 179 653 968 
3 708 642 992 
3 640 668 962 
3 483 782 1022 
3 725 855 909 
3 658 542 896 
3 641 640 962 
3 681 536 890 
3 665 569 873 
3 189 802 955 
3 312 721 931 
3 199 805 928 
3 654 215 978 
3 510 675 899 
3 696 721 944 
3 81 108 663 
3 542 638 896 
3 898 570 902 
3 794 926 1019 
3 809 202 1035 
3 307 232 714 
3 929 288 956 
3 418 898 902 
3 752 225 1001 
3 753 464 991 
3 608 610 1028 
3 939 830 966 
3 676 247 704 
3 506 396 709 
3 313 307 714 
3 503 681 709 
3 554 681 890 
3 452 912 952 
3 737 586 942 
3 663 197 664 
3 668 684 962 
3 668 461 683 
3 566 676 704 
3 721 691 931 
3 577 576 882 
3 570 669 888 
3 620 646 1034 
3 675 661 899 
3 366 888 937 
3 626 836 1060 
3 712 313 714 
3 836 182 1060 
3 794 795 926 
3 215 654 981 
3 939 582 940 
3 686 313 712 
3 582 581 940 
3 562 671 677 
3 388 769 841 
3 600 777 945 
3 855 418 909 
3 554 506 709 
3 597 778 1010 
3 108 197 663 
3 471 501 677 
3 261 300 675 
3 659 658 896 
3 669 570 898 
3 637 901 1020 
3 923 312 931 
3 370 352 707 
3 418 902 909 
3 870 186 975 
3 704 314 866 
3 713 714 910 
3 613 987 1032 
3 261 675 682 
3 501 562 677 
3 231 503 679 
3 662 32 1016 
3 247 676 851 
3 720 263 859 
3 647 646 648 
3 776 468 980 
3 503 680 681 
3 470 370 707 
3 576 710 811 
3 558 770 997 
3 313 686 848 
3 396 679 709 
3 435 678 873 
3 686 525 848 
3 721 312 944 
3 314 685 827 
3 181 635 994 
3 511 720 859 
3 239 505 685 
3 569 701 832 
3 511 719 720 
3 353 369 710 
3 751 192 752 
3 265 262 682 
3 382 733 734 
3 713 923 931 
3 108 109 197 
3 503 229 680 
3 352 350 707 
3 426 471 677 
3 355 353 710 
3 234 231 679 
3 624 670 974 
3 462 552 683 
3 511 718 719 
3 679 503 709 
3 751 752 753 
3 472 577 702 
3 382 734 736 
3 383 386 733 
3 668 683 684 
3 713 910 923 
3 461 462 683 
3 348 265 682 
3 675 510 682 
3 472 576 577 
3 701 257 832 
3 601 671 673 
3 37 188 706 
3 39 202 705 
3 248 247 851 
3 369 352 370 
3 425 426 484 
3 240 239 685 
3 369 370 425 
3 382 383 733 
3 314 827 866 
3 803 592 1021 
3 707 510 899 
3 912 568 952 
3 601 484 671 
3 206 57 726 
3 425 370 426 
3 245 314 704 
3 472 376 576 
3 748 441 856 
3 262 261 682 
3 386 730 733 
3 505 396 506 
3 42 727 728 
3 350 348 510 
3 511 339 718 
3 485 484 601 
3 716 401 839 
3 888 669 937 
3 501 502 560 
3 575 716 839 
3 204 45 708 
3 478 570 888 
3 41 187 727 
3 844 464 874 
3 699 346 964 
3 562 560 654 
3 507 506 539 
3 239 396 505 
3 239 237 396 
3 315 851 877 
3 179 47 711 
3 306 753 1001 
3 680 536 681 
3 510 348 682 
3 581 777 940 
3 539 554 655 
3 501 500 502 
3 200 647 900 
3 386 729 730 
3 350 510 707 
3 690 712 713 
3 471 500 501 
3 505 506 507 
3 339 341 718 
3 514 741 828 
3 50 203 717 
3 542 540 638 
3 354 356 736 
3 595 929 956 
3 561 640 641 
3 560 502 561 
3 696 693 721 
3 245 243 314 
3 552 658 659 
3 507 539 540 
3 54 205 722 
3 205 656 982 
3 693 691 721 
3 713 712 714 
3 741 281 828 
3 433 434 461 
3 353 352 369 
3 351 350 352 
3 247 245 704 
3 528 748 856 
3 296 742 743 
3 689 687 690 
3 356 382 736 
3 430 315 431 
3 685 505 827 
3 432 431 433 
3 187 40 705 
3 202 38 706 
3 202 809 1003 
3 514 740 741 
3 525 427 848 
3 501 560 562 
3 349 348 350 
3 576 376 710 
3 462 509 552 
3 750 751 754 
3 716 844 874 
3 726 724 818 
3 697 696 699 
3 231 229 503 
3 238 237 239 
3 376 355 710 
3 773 775 776 
3 300 259 701 
3 253 251 315 
3 259 257 701 
3 170 889 990 
3 647 648 649 
3 777 581 945 
3 426 470 471 
3 57 56 726 
3 360 362 452 
3 224 536 680 
3 201 789 1011 
3 851 676 877 
3 261 259 300 
3 237 234 679 
3 183 43 728 
3 539 506 554 
3 243 240 685 
3 296 743 749 
3 687 686 712 
3 514 739 740 
3 44 183 708 
3 41 40 187 
3 37 36 188 
3 39 38 202 
3 236 234 237 
3 690 687 712 
3 695 693 696 
3 433 431 434 
3 461 434 462 
3 745 742 829 
3 689 690 691 
3 46 204 711 
3 604 525 686 
3 718 452 719 
3 604 686 687 
3 445 443 746 
3 253 315 430 
3 552 509 658 
3 425 484 485 
3 191 662 986 
3 432 433 435 
3 826 545 895 
3 742 296 829 
3 387 390 729 
3 206 726 818 
3 471 499 500 
3 42 41 727 
3 202 706 1035 
3 244 243 245 
3 773 774 775 
3 44 43 183 
3 171 722 723 
3 386 387 729 
3 341 360 718 
3 177 51 717 
3 116 172 774 
3 430 431 432 
3 242 240 243 
3 246 245 247 
3 314 243 685 
3 484 426 677 
3 46 45 204 
3 347 265 348 
3 473 472 702 
3 635 181 1061 
3 774 172 775 
3 541 540 542 
3 768 769 770 
3 655 554 890 
3 171 55 722 
3 48 47 179 
3 396 237 679 
3 765 767 768 
3 614 473 702 
3 768 767 769 
3 858 556 871 
3 750 192 751 
3 226 224 680 
3 50 49 203 
3 208 750 754 
3 188 36 715 
3 448 445 746 
3 575 623 716 
3 561 639 640 
3 360 452 718 
3 576 811 882 
3 52 51 177 
3 40 39 705 
3 38 37 706 
3 514 322 739 
3 317 319 745 
3 253 430 832 
3 322 324 739 
3 54 53 205 
3 426 370 470 
3 733 732 734 
3 730 731 732 
3 465 575 839 
3 58 206 738 
3 765 766 767 
3 56 55 171 
3 729 594 730 
3 43 42 728 
3 695 696 697 
3 115 116 774 
3 430 569 832 
3 524 427 525 
3 45 44 708 
3 236 237 238 
3 491 448 492 
3 485 601 602 
3 724 723 725 
3 486 593 594 
3 730 594 731 
3 764 207 765 
3 47 46 711 
3 710 369 811 
3 478 526 570 
3 575 622 623 
3 812 544 831 
3 730 732 733 
3 238 239 240 
3 51 50 717 
3 319 421 745 
3 330 366 436 
3 250 248 251 
3 589 482 590 
3 734 732 735 
3 739 436 740 
3 251 248 851 
3 587 444 861 
3 360 361 362 
3 252 251 253 
3 289 291 749 
3 471 470 499 
3 317 745 829 
3 492 448 746 
3 316 339 511 
3 56 171 726 
3 603 525 604 
3 487 812 831 
3 55 54 722 
3 171 723 724 
3 258 257 259 
3 765 207 766 
3 59 738 747 
3 688 687 689 
3 390 486 729 
3 58 57 206 
3 324 330 739 
3 462 508 509 
3 229 226 680 
3 316 511 859 
3 320 514 828 
3 482 441 748 
3 714 232 910 
3 541 666 866 
3 362 380 381 
3 649 648 650 
3 291 296 749 
3 341 343 360 
3 486 543 593 
3 513 335 814 
3 114 115 772 
3 500 499 504 
3 486 594 729 
3 742 584 743 
3 256 254 257 
3 330 436 739 
3 465 573 575 
3 390 453 486 
3 59 58 738 
3 242 243 244 
3 512 583 584 
3 244 245 246 
3 512 584 742 
3 772 115 774 
3 228 226 229 
3 781 780 782 
3 182 121 796 
3 421 476 512 
3 330 365 366 
3 810 480 835 
3 590 748 892 
3 590 482 748 
3 224 184 536 
3 208 105 750 
3 605 715 908 
3 246 247 248 
3 121 122 796 
3 600 520 777 
3 766 772 773 
3 582 939 966 
3 498 548 942 
3 578 810 835 
3 375 858 871 
3 299 297 808 
3 337 335 513 
3 478 489 526 
3 395 376 472 
3 212 780 781 
3 185 784 785 
3 174 60 747 
3 60 59 747 
3 780 779 783 
3 512 476 583 
3 320 322 514 
3 526 608 609 
3 520 439 777 
3 373 458 478 
3 794 792 795 
3 421 512 745 
3 743 584 744 
3 198 791 792 
3 212 779 780 
3 524 525 603 
3 122 123 793 
3 106 192 750 
3 106 107 192 
3 441 345 856 
3 185 10 784 
3 486 453 543 
3 671 484 677 
3 631 629 632 
3 711 204 826 
3 515 409 842 
3 561 502 639 
3 624 600 670 
3 507 540 541 
3 102 193 800 
3 101 102 800 
3 122 793 796 
3 793 792 794 
3 787 789 790 
3 363 304 438 
3 198 786 791 
3 779 176 783 
3 173 112 764 
3 304 299 808 
3 652 650 672 
3 104 105 208 
3 548 643 737 
3 324 329 330 
3 649 650 651 
3 10 11 784 
3 787 790 791 
3 30 29 803 
3 190 30 803 
3 575 573 622 
3 193 103 763 
3 784 781 785 
3 28 189 804 
3 438 304 808 
3 105 106 750 
3 104 208 763 
3 539 655 914 
3 36 35 715 
3 803 29 804 
3 198 792 793 
3 123 198 793 
3 599 520 600 
3 743 744 880 
3 805 563 806 
3 111 112 173 
3 210 797 798 
3 113 207 764 
3 481 441 482 
3 113 114 207 
3 112 113 764 
3 588 482 589 
3 534 597 598 
3 651 650 652 
3 827 541 866 
3 786 787 791 
3 336 337 816 
3 25 24 807 
3 213 25 807 
3 103 104 763 
3 417 345 441 
3 29 28 804 
3 491 492 607 
3 787 788 789 
3 786 221 787 
3 787 221 788 
3 11 12 212 
3 220 69 778 
3 80 79 222 
3 125 221 786 
3 13 176 779 
3 70 69 220 
3 68 196 778 
3 61 174 799 
3 76 195 797 
3 78 77 210 
3 69 68 778 
3 68 67 196 
3 210 77 797 
3 125 126 221 
3 99 100 194 
3 102 103 193 
3 198 124 786 
3 65 64 181 
3 209 62 799 
3 63 62 209 
3 124 125 786 
3 123 124 198 
3 61 60 174 
3 62 61 799 
3 76 75 195 
3 96 97 200 
3 77 76 797 
3 74 73 219 
3 94 95 564 
3 120 121 182 
3 118 119 211 
3 117 118 801 
3 116 117 172 
3 13 14 176 
3 12 13 779 
3 118 211 801 
3 16 17 186 
3 172 117 801 
3 34 33 191 
3 28 27 189 
3 31 30 190 
3 6 7 201 
3 9 10 185 
3 27 26 802 
3 19 20 199 
3 26 25 213 
3 20 21 805 
3 21 22 563 
3 212 12 779 
3 189 27 802 
3 26 213 802 
3 199 20 805 
3 21 563 805 
3 428 429 813 
3 207 114 772 
3 319 420 421 
3 793 794 796 
3 631 632 633 
3 512 742 745 
3 394 378 815 
3 363 438 439 
3 926 627 1019 
3 534 598 815 
3 421 422 476 
3 212 781 784 
3 378 440 815 
3 571 572 615 
3 11 212 784 
3 366 365 373 
3 328 326 379 
3 428 377 429 
3 496 428 813 
3 347 348 349 
3 541 542 666 
3 257 254 832 
3 336 335 337 
3 440 533 534 
3 644 496 645 
3 487 581 582 
3 559 480 567 
3 475 424 480 
3 620 619 646 
3 334 332 335 
3 377 336 816 
3 571 559 572 
3 475 559 571 
3 379 326 838 
3 534 565 597 
3 437 409 515 
3 644 645 674 
3 635 633 636 
3 567 480 810 
3 414 412 415 
3 330 329 365 
3 374 456 457 
3 393 479 487 
3 599 600 624 
3 766 207 772 
3 475 480 559 
3 534 533 565 
3 773 772 774 
3 692 691 693 
3 618 518 619 
3 364 378 394 
3 440 496 533 
3 543 544 595 
3 533 496 644 
3 618 619 620 
3 360 343 361 
3 635 636 637 
3 606 488 621 
3 630 629 631 
3 423 415 424 
3 457 488 551 
3 487 582 812 
3 759 757 760 
3 411 413 517 
3 298 302 317 
3 474 424 475 
3 414 423 451 
3 583 476 755 
3 645 496 813 
3 440 428 496 
3 423 424 474 
3 416 368 454 
3 476 422 477 
3 449 535 611 
3 415 822 835 
3 421 420 422 
3 328 379 814 
3 628 556 629 
3 414 415 423 
3 557 473 614 
3 531 626 627 
3 357 355 376 
3 440 534 815 
3 413 412 414 
3 761 759 762 
3 517 518 616 
3 478 458 489 
3 755 477 756 
3 378 428 440 
3 457 456 488 
3 631 633 635 
3 476 477 755 
3 551 488 606 
3 477 422 824 
3 317 318 319 
3 303 299 304 
3 758 759 761 
3 120 182 836 
3 211 119 836 
3 429 377 816 
3 374 416 456 
3 334 335 336 
3 335 332 814 
3 291 295 296 
3 390 391 453 
3 437 515 516 
3 703 577 1053 
3 319 419 420 
3 526 489 608 
3 456 416 467 
3 517 413 518 
3 616 518 618 
3 519 439 520 
3 555 522 556 
3 408 406 409 
3 374 368 416 
3 591 515 860 
3 516 515 591 
3 311 368 374 
3 640 639 667 
3 305 304 363 
3 378 377 428 
3 756 757 758 
3 604 687 688 
3 437 516 578 
3 364 336 377 
3 334 336 364 
3 363 439 519 
3 364 377 378 
3 408 409 410 
3 758 757 759 
3 411 412 413 
3 410 409 437 
3 263 264 859 
3 822 578 835 
3 422 483 824 
3 756 477 757 
3 419 318 579 
3 293 290 294 
3 411 410 412 
3 285 287 320 
3 303 305 311 
3 531 520 599 
3 408 410 411 
3 303 304 305 
3 628 629 630 
3 415 412 822 
3 364 394 817 
3 171 724 726 
3 422 420 483 
3 311 305 368 
3 519 520 531 
3 333 332 334 
3 414 451 821 
3 531 599 626 
3 317 302 318 
3 621 488 819 
3 411 517 820 
3 319 318 419 
3 332 328 814 
3 419 579 580 
3 480 424 835 
3 302 299 303 
3 327 331 375 
3 487 479 581 
3 331 328 332 
3 760 757 824 
3 333 334 817 
3 734 735 916 
3 488 456 819 
3 619 518 821 
3 481 482 588 
3 431 315 877 
3 413 414 821 
3 393 487 831 
3 405 407 465 
3 456 467 819 
3 632 629 858 
3 417 441 481 
3 362 361 380 
3 516 591 592 
3 320 321 322 
3 454 368 825 
3 325 323 326 
3 555 556 628 
3 543 453 544 
3 334 364 817 
3 412 410 822 
3 387 389 390 
3 327 326 328 
3 573 466 574 
3 457 551 857 
3 298 299 302 
3 250 251 252 
3 331 332 333 
3 462 434 508 
3 252 253 254 
3 407 406 408 
3 518 413 821 
3 465 466 573 
3 757 477 824 
3 495 397 522 
3 322 323 324 
3 517 616 846 
3 694 693 695 
3 381 380 449 
3 327 328 331 
3 410 437 822 
3 291 293 295 
3 295 297 298 
3 363 519 825 
3 324 325 329 
3 298 317 829 
3 407 408 820 
3 465 407 466 
3 267 269 316 
3 808 297 830 
3 349 350 351 
3 298 297 299 
3 295 293 297 
3 305 363 825 
3 373 397 458 
3 286 284 288 
3 437 578 822 
3 282 284 285 
3 324 323 325 
3 320 287 321 
3 256 257 258 
3 368 305 825 
3 495 522 555 
3 495 555 660 
3 442 444 587 
3 291 290 293 
3 322 321 323 
3 408 411 820 
3 296 295 829 
3 430 432 569 
3 302 303 823 
3 453 391 831 
3 289 290 291 
3 303 311 823 
3 374 457 849 
3 321 287 521 
3 325 326 327 
3 460 497 498 
3 119 120 836 
3 278 276 279 
3 282 280 283 
3 289 288 290 
3 466 407 820 
3 285 286 287 
3 318 302 823 
3 286 288 289 
3 424 415 835 
3 579 318 823 
3 531 627 845 
3 825 519 845 
3 544 453 831 
3 293 294 830 
3 278 280 281 
3 285 284 286 
3 393 455 479 
3 454 825 845 
3 716 623 844 
3 823 311 849 
3 373 365 397 
3 446 459 460 
3 230 229 231 
3 469 403 490 
3 498 547 548 
3 264 267 859 
3 444 446 861 
3 391 392 393 
3 289 749 833 
3 260 259 261 
3 383 385 386 
3 455 392 468 
3 295 298 829 
3 282 283 284 
3 281 280 282 
3 579 823 849 
3 285 320 828 
3 278 279 280 
3 274 276 277 
3 297 293 830 
3 344 342 345 
3 405 406 407 
3 274 272 275 
3 458 397 495 
3 390 389 391 
3 608 489 610 
3 281 282 828 
3 548 642 643 
3 241 240 242 
3 391 393 831 
3 233 231 234 
3 523 427 524 
3 281 741 864 
3 504 661 665 
3 235 234 236 
3 315 251 851 
3 393 392 455 
3 625 596 662 
3 479 455 494 
3 656 550 657 
3 810 578 853 
3 367 345 417 
3 820 517 846 
3 404 403 469 
3 277 276 278 
3 316 338 339 
3 553 490 596 
3 327 375 834 
3 402 404 405 
3 481 588 669 
3 391 389 392 
3 402 400 403 
3 711 826 895 
3 495 660 847 
3 286 289 833 
3 466 820 846 
3 574 466 846 
3 282 285 828 
3 329 325 834 
3 365 329 837 
3 519 531 845 
3 351 352 353 
3 270 272 273 
3 274 275 276 
3 254 253 832 
3 553 596 625 
3 689 691 692 
3 578 516 853 
3 509 508 566 
3 399 371 427 
3 325 327 834 
3 591 860 876 
3 372 400 401 
3 287 286 833 
3 270 268 271 
3 402 403 404 
3 469 490 553 
3 409 406 842 
3 405 404 406 
3 556 522 871 
3 549 463 550 
3 522 397 837 
3 326 323 838 
3 638 540 914 
3 344 367 398 
3 309 307 313 
3 311 374 849 
3 273 272 274 
3 590 892 904 
3 339 340 341 
3 356 358 382 
3 270 271 272 
3 341 342 343 
3 507 541 827 
3 521 287 833 
3 401 716 874 
3 634 194 1018 
3 84 161 170 
3 323 321 838 
3 367 417 418 
3 688 689 809 
3 316 269 338 
3 321 521 838 
3 405 465 839 
3 85 162 215 
3 344 345 367 
3 340 338 528 
3 505 507 827 
3 329 834 837 
3 386 385 387 
3 397 365 837 
3 489 458 847 
3 343 342 344 
3 406 404 842 
3 450 448 491 
3 458 495 847 
3 86 163 175 
3 401 402 839 
3 611 535 612 
3 404 469 842 
3 341 340 342 
3 269 268 270 
3 911 583 915 
3 395 472 473 
3 515 842 860 
3 849 457 857 
3 87 164 214 
3 447 445 448 
3 516 592 853 
3 387 388 389 
3 249 248 250 
3 401 400 402 
3 880 744 885 
3 382 358 383 
3 504 499 661 
3 468 392 841 
3 387 385 388 
3 389 388 841 
3 339 338 340 
3 715 35 908 
3 88 165 178 
3 629 556 858 
3 266 265 347 
3 310 372 874 
3 357 376 395 
3 610 489 847 
3 392 389 841 
3 580 579 857 
3 361 343 840 
3 278 281 864 
3 449 463 535 
3 432 435 873 
3 309 313 848 
3 549 550 656 
3 402 405 839 
3 689 692 809 
3 400 399 863 
3 399 427 523 
3 369 425 811 
3 632 858 878 
3 372 399 400 
3 263 720 884 
3 89 166 216 
3 549 656 700 
3 354 353 355 
3 579 849 857 
3 449 380 463 
3 201 7 881 
3 255 254 256 
3 344 398 840 
3 523 524 843 
3 524 603 605 
3 343 344 840 
3 490 403 863 
3 264 262 265 
3 446 460 861 
3 90 167 180 
3 695 697 698 
3 91 168 217 
3 169 91 852 
3 267 316 859 
3 82 169 184 
3 537 292 538 
3 258 259 260 
3 270 273 850 
3 383 358 384 
3 267 268 269 
3 469 553 860 
3 692 693 694 
3 375 331 878 
3 535 463 549 
3 277 278 864 
3 399 523 863 
3 269 270 850 
3 633 632 887 
3 403 400 863 
3 427 371 848 
3 345 342 856 
3 264 266 267 
3 460 459 497 
3 238 240 241 
3 383 384 385 
3 354 355 356 
3 569 432 873 
3 246 248 249 
3 636 633 891 
3 372 371 399 
3 267 266 268 
3 442 587 867 
3 398 367 855 
3 842 469 860 
3 498 497 547 
3 464 310 874 
3 570 526 902 
3 338 269 850 
3 367 418 855 
3 252 254 255 
3 596 490 879 
3 548 547 642 
3 340 528 856 
3 356 355 357 
3 450 491 493 
3 255 292 530 
3 264 265 266 
3 342 340 856 
3 373 478 888 
3 356 357 358 
3 528 338 850 
3 233 234 235 
3 636 891 897 
3 235 236 346 
3 447 448 450 
3 230 231 233 
3 227 226 228 
3 241 242 301 
3 550 463 865 
3 858 375 878 
3 310 371 372 
3 524 605 843 
3 228 229 230 
3 347 349 527 
3 450 493 546 
3 860 553 876 
3 256 258 854 
3 255 256 292 
3 266 347 862 
3 371 309 848 
3 508 434 877 
3 537 538 568 
3 434 431 877 
3 380 361 865 
3 546 613 653 
3 271 268 862 
3 395 473 529 
3 603 604 886 
3 566 508 676 
3 904 277 917 
3 546 493 613 
3 310 309 371 
3 834 375 871 
3 260 261 262 
3 529 473 557 
3 897 598 901 
3 249 250 359 
3 362 381 912 
3 497 459 545 
3 557 614 617 
3 837 834 871 
3 470 707 899 
3 308 310 464 
3 379 885 906 
3 268 266 862 
3 633 887 891 
3 530 292 537 
3 347 527 862 
3 249 359 442 
3 529 557 558 
3 444 445 446 
3 361 840 865 
3 643 642 1014 
3 446 447 459 
3 354 736 883 
3 331 333 878 
3 553 625 876 
3 700 177 918 
3 463 380 865 
3 263 262 264 
3 442 443 444 
3 815 598 897 
3 759 760 894 
3 446 445 447 
3 372 401 874 
3 632 878 887 
3 522 837 871 
3 96 200 900 
3 564 95 900 
3 233 235 312 
3 444 443 445 
3 513 814 906 
3 241 301 532 
3 538 292 854 
3 725 909 1033 
3 260 262 263 
3 34 191 908 
3 225 224 226 
3 292 256 854 
3 379 838 885 
3 351 353 354 
3 521 833 880 
3 442 359 443 
3 244 246 867 
3 308 309 310 
3 532 301 585 
3 532 585 586 
3 790 789 943 
3 833 749 880 
3 676 508 877 
3 236 238 868 
3 346 236 868 
3 657 550 893 
3 7 8 881 
3 384 358 872 
3 250 252 869 
3 749 743 880 
3 91 217 852 
3 184 169 852 
3 308 307 309 
3 425 485 811 
3 885 744 906 
3 418 417 898 
3 358 357 872 
3 179 711 895 
3 863 523 879 
3 584 583 911 
3 878 333 887 
3 795 792 913 
3 481 669 898 
3 359 250 869 
3 791 790 913 
3 490 863 879 
3 357 395 872 
3 238 241 868 
3 246 249 867 
3 274 277 904 
3 740 436 933 
3 523 843 879 
3 436 366 937 
3 255 530 869 
3 252 255 869 
3 161 83 889 
3 395 529 872 
3 447 450 875 
3 227 228 232 
3 450 546 875 
3 499 470 899 
3 691 690 931 
3 545 459 875 
3 536 184 852 
3 459 447 875 
3 333 817 887 
3 746 443 903 
3 521 880 885 
3 838 521 885 
3 604 688 886 
3 741 740 930 
3 249 442 867 
3 720 719 936 
3 366 373 888 
3 854 258 884 
3 883 736 916 
3 748 528 892 
3 527 349 883 
3 241 532 868 
3 527 883 916 
3 301 242 907 
3 550 865 893 
3 865 840 893 
3 258 260 884 
3 306 307 308 
3 887 817 891 
3 817 394 891 
3 485 602 882 
3 301 907 925 
3 636 897 901 
3 552 659 938 
3 513 911 915 
3 170 161 889 
3 891 394 897 
3 351 354 883 
3 762 759 894 
3 912 381 971 
3 306 232 307 
3 227 232 306 
3 359 869 903 
3 90 180 905 
3 217 168 905 
3 394 815 897 
3 933 436 937 
3 590 904 917 
3 417 481 898 
3 850 273 892 
3 349 351 883 
3 168 90 905 
3 225 226 227 
3 95 96 900 
3 840 398 893 
3 260 263 884 
3 549 700 918 
3 533 644 928 
3 528 850 892 
3 637 636 901 
3 916 735 920 
3 612 535 918 
3 869 530 903 
3 492 746 927 
3 526 609 902 
3 290 288 929 
3 867 587 907 
3 892 273 904 
3 244 867 907 
3 661 499 899 
3 607 492 935 
3 273 274 904 
3 814 379 906 
3 242 244 907 
3 1004 218 1017 
3 719 452 952 
3 673 170 990 
3 454 845 926 
3 513 906 911 
3 460 498 934 
3 232 228 910 
3 89 216 922 
3 35 34 908 
3 83 160 218 
3 180 167 922 
3 589 590 917 
3 583 755 915 
3 540 539 914 
3 946 731 949 
3 930 740 933 
3 443 359 903 
3 452 362 912 
3 697 999 1009 
3 811 485 882 
3 744 584 911 
3 915 755 919 
3 808 830 939 
3 223 184 224 
3 228 230 910 
3 18 674 975 
3 792 791 913 
3 617 614 961 
3 777 439 940 
3 755 756 919 
3 271 920 941 
3 732 731 946 
3 736 734 916 
3 337 513 915 
3 233 312 923 
3 919 756 921 
3 271 862 920 
3 907 587 925 
3 623 622 995 
3 381 449 947 
3 756 758 921 
3 337 915 919 
3 88 178 932 
3 275 272 941 
3 921 758 924 
3 195 75 948 
3 74 219 948 
3 216 166 932 
3 816 337 919 
3 594 593 951 
3 673 671 978 
3 535 549 918 
3 581 479 945 
3 951 593 953 
3 936 719 952 
3 167 89 922 
3 758 761 924 
3 9 185 950 
3 223 224 225 
3 816 919 921 
3 277 864 917 
3 906 744 911 
3 664 703 1017 
3 972 210 1046 
3 279 276 949 
3 855 725 970 
3 492 927 935 
3 429 816 921 
3 429 921 924 
3 920 735 941 
3 494 776 1026 
3 703 1004 1017 
3 813 429 924 
3 902 609 909 
3 543 595 954 
3 587 861 925 
3 684 683 938 
3 585 301 925 
3 660 174 1013 
3 109 110 961 
3 24 23 957 
3 71 70 958 
3 73 72 959 
3 283 280 953 
3 746 903 927 
3 862 527 920 
3 845 627 926 
3 83 218 889 
3 810 853 955 
3 230 233 923 
3 82 184 223 
3 48 179 968 
3 881 8 950 
3 203 49 968 
3 910 230 923 
3 288 284 956 
3 903 530 927 
3 283 953 954 
3 562 654 978 
3 954 595 956 
3 312 235 944 
3 565 533 928 
3 279 949 951 
3 585 925 934 
3 961 110 1048 
3 275 941 946 
3 690 713 931 
3 294 290 929 
3 595 544 963 
3 530 537 927 
3 769 388 1015 
3 87 214 960 
3 178 165 960 
3 294 963 966 
3 589 917 930 
3 854 884 936 
3 925 861 934 
3 694 695 967 
3 166 88 932 
3 797 195 969 
3 642 547 992 
3 527 916 920 
3 170 673 985 
3 683 552 938 
3 864 741 930 
3 532 586 964 
3 917 864 930 
3 577 882 1053 
3 588 589 933 
3 654 560 977 
3 884 720 936 
3 589 930 933 
3 927 537 935 
3 451 672 1052 
3 830 294 966 
3 601 673 990 
3 588 933 937 
3 561 641 977 
3 961 614 1031 
3 222 79 972 
3 78 210 972 
3 775 172 974 
3 669 588 937 
3 438 939 940 
3 438 808 939 
3 934 498 942 
3 537 568 935 
3 861 460 934 
3 275 946 949 
3 98 99 973 
3 209 799 1008 
3 439 438 940 
3 398 855 970 
3 538 854 936 
3 621 819 943 
3 346 868 964 
3 272 271 941 
3 773 776 980 
3 735 732 946 
3 17 18 975 
3 235 346 944 
3 479 494 945 
3 762 894 1045 
3 586 585 942 
3 449 611 947 
3 929 595 963 
3 950 185 1024 
3 538 936 952 
3 75 74 948 
3 767 766 980 
3 826 204 992 
3 705 202 1003 
3 219 959 1043 
3 662 596 986 
3 727 187 967 
3 276 275 949 
3 279 951 953 
3 723 722 982 
3 197 109 961 
3 8 9 950 
3 762 1045 1059 
3 294 929 963 
3 731 594 951 
3 86 175 976 
3 214 164 976 
3 622 573 983 
3 941 735 946 
3 857 551 979 
3 491 607 984 
3 181 64 988 
3 63 209 988 
3 280 279 953 
3 208 754 995 
3 617 961 1048 
3 85 215 981 
3 770 769 1015 
3 175 163 981 
3 568 538 952 
3 593 543 954 
3 949 731 951 
3 771 558 1007 
3 615 972 1046 
3 953 593 954 
3 567 810 955 
3 475 571 993 
3 807 24 957 
3 70 220 958 
3 219 73 959 
3 283 954 956 
3 165 87 960 
3 284 283 956 
3 66 65 994 
3 84 170 985 
3 215 162 985 
3 657 893 970 
3 800 193 983 
3 572 559 996 
3 585 934 942 
3 611 612 989 
3 697 699 999 
3 648 646 1000 
3 963 812 966 
3 544 812 963 
3 969 195 1049 
3 984 611 989 
3 192 107 1023 
3 564 900 965 
3 647 649 965 
3 646 619 1000 
3 529 558 997 
3 812 582 966 
3 592 804 1027 
3 821 451 1000 
3 177 700 1030 
3 695 698 967 
3 868 532 964 
3 879 843 986 
3 483 420 1006 
3 419 580 1006 
3 660 555 1008 
3 173 771 1007 
3 606 950 1024 
3 49 48 968 
3 6 201 1011 
3 900 647 965 
3 724 725 1033 
3 599 624 1012 
3 182 796 1019 
3 31 190 1016 
3 101 800 1018 
3 876 190 1021 
3 723 982 1057 
3 194 100 1018 
3 197 961 1031 
3 807 957 998 
3 454 926 1037 
3 592 591 1021 
3 67 66 1020 
3 692 694 1003 
3 384 872 997 
3 754 751 991 
3 782 780 1022 
3 607 947 984 
3 52 177 1030 
3 798 797 969 
3 205 53 1030 
3 558 557 1007 
3 635 637 994 
3 385 384 1015 
3 790 943 1042 
3 206 818 1028 
3 715 605 1029 
3 625 662 1016 
3 618 620 973 
3 225 227 1001 
3 671 562 978 
3 727 967 1044 
3 785 781 1036 
3 602 1004 1053 
3 947 611 984 
3 97 98 1034 
3 605 603 1029 
3 3 80 1038 
3 23 3 1038 
3 126 0 1039 
3 0 4 1039 
3 72 1 1040 
3 1 94 1040 
3 2 71 1041 
3 22 2 1041 
3 788 221 1039 
3 111 173 1048 
3 901 598 1010 
3 546 653 1025 
3 467 416 1037 
3 631 635 1061 
3 16 186 1059 
3 176 14 1045 
3 672 650 1052 
3 841 769 1047 
3 607 935 971 
3 926 795 1037 
3 824 483 1055 
3 967 698 1044 
3 79 78 972 
3 894 176 1045 
3 649 651 1043 
3 545 826 1056 
3 999 737 1009 
3 964 586 999 
3 99 194 973 
3 568 912 971 
3 886 688 1035 
3 551 606 1024 
3 172 801 974 
3 497 545 1056 
3 893 398 970 
3 769 767 1047 
3 652 969 1049 
3 778 196 1010 
3 545 875 1025 
3 895 545 1025 
3 186 17 975 
3 663 664 1017 
3 164 86 976 
3 560 561 977 
3 751 753 991 
3 935 568 971 
3 853 592 1027 
3 722 205 982 
3 766 773 980 
3 775 974 1026 
3 163 85 981 
3 672 474 1005 
3 580 857 979 
3 843 605 1051 
3 943 819 1042 
3 656 657 982 
3 573 574 983 
3 717 203 987 
3 493 491 984 
3 753 752 1001 
3 747 610 1013 
3 605 908 1051 
3 957 222 998 
3 162 84 985 
3 596 879 986 
3 204 708 992 
3 982 657 1057 
3 493 984 989 
3 64 63 988 
3 699 964 999 
3 81 663 1058 
3 602 601 990 
3 698 697 1009 
3 464 844 991 
3 565 806 1002 
3 613 493 989 
3 181 988 1061 
3 474 475 993 
3 177 717 1050 
3 847 660 1013 
3 610 847 1013 
3 979 785 1036 
3 65 181 994 
3 763 208 995 
3 559 567 996 
3 776 775 1026 
3 571 615 1046 
3 652 672 1005 
3 788 5 1011 
3 872 529 997 
3 586 737 999 
3 190 803 1021 
3 615 572 998 
3 918 177 1050 
3 619 821 1000 
3 211 836 1012 
3 702 664 1031 
3 836 626 1012 
3 670 494 1026 
3 160 81 1058 
3 483 1022 1055 
3 597 565 1002 
3 809 692 1003 
3 227 306 1001 
3 420 419 1006 
3 555 628 1008 
3 609 818 1033 
3 987 203 1032 
3 826 992 1056 
3 737 643 1009 
3 974 670 1026 
3 557 617 1007 
3 598 597 1010 
3 789 788 1011 
3 5 6 1011 
3 889 218 1004 
3 626 599 1012 
3 174 747 1013 
3 183 728 1014 
3 955 853 1027 
3 203 968 1032 
3 909 609 1033 
3 1000 451 1052 
3 32 31 1016 
3 388 385 1015 
3 100 101 1018 
3 767 980 1047 
3 796 794 1019 
3 196 67 1020 
3 752 192 1023 
3 913 790 1042 
3 780 783 1022 
3 1014 728 1044 
3 591 876 1021 
3 188 715 1029 
3 185 785 1024 
3 614 702 1031 
3 988 630 1061 
3 957 23 1038 
3 71 958 1041 
3 959 72 1040 
3 818 724 1033 
3 467 913 1042 
3 986 843 1051 
3 182 1019 1060 
3 738 206 1028 
3 886 188 1029 
3 664 197 1031 
3 875 546 1025 
3 474 993 1005 
3 804 189 1027 
3 53 52 1030 
3 195 948 1049 
3 728 727 1044 
3 603 886 1029 
3 969 652 1005 
3 1014 1044 1054 
3 781 782 1036 
3 200 97 1034 
3 653 613 1032 
3 80 222 1038 
3 221 126 1039 
3 94 564 1040 
3 563 22 1041 
3 416 454 1037 
3 725 723 1057 
3 688 809 1035 
3 189 955 1027 
3 819 467 1042 
3 1004 703 1053 
3 14 15 1045 
3 210 798 1046 
3 110 111 1048 
3 908 191 1051 
3 651 652 1049 
3 468 841 1047 
3 650 648 1052 
3 968 653 1032 
3 1045 15 1059 
3 218 160 1058 
3 580 979 1036 
3 760 824 1055 
3 15 16 1059 
3 612 918 1050 
3 783 176 1062 
3 894 760 1062 
3 627 626 1060 
3 630 631 1061 
3 547 497 1056 
3 882 602 1053 
3 222 957 1038 
3 958 563 1041 
3 564 959 1040 
3 948 651 1049 
3 1055 783 1062 
3 760 1055 1062 
3 176 894 1062 
3 657 970 1057 
3 980 468 1047 
3 992 547 1056 
3 965 649 1043 
3 191 986 1051 
3 970 725 1057 
3 648 1000 1052 
3 698 1009 1054 
3 987 612 1050 
3 717 987 1050 
3 1017 218 1058 
3 1009 643 1054 
3 643 1014 1054 
3 1019 627 1060 
3 1022 783 1055 
3 663 1017 1058 
3 1044 698 1054 
3 158 159 127 
3 128 158 127 
3 157 158 128 
3 129 157 128 
3 156 157 129 
3 130 156 129 
3 155 156 130 
3 131 155 130 
3 154 155 131 
3 132 154 131 
3 153 154 132 
3 133 153 132 
3 152 153 133 
3 91 142 1063 
3 152 133 134 
3 151 152 134 
3 142 143 1063 
3 135 151 134 
3 151 135 150 
3 142 91 144 
3 135 136 150 
3 136 149 150 
3 136 137 149 
3 137 148 149 
3 137 138 148 
3 168 91 1063 
3 138 147 148 
3 138 139 147 
3 139 140 146 
3 139 146 147 
3 140 141 145 
3 140 145 146 
3 141 142 144 
3 141 144 145 
3 143 168 1063 
3 93 92 1064 
3 127 159 1064 
3 92 127 1064 
3 159 93 1064 
3 90 168 143 
3 158 159 94 
3 158 94 95 
3 157 158 95 
3 157 95 96 
3 156 157 96 
3 156 96 97 
3 155 156 97 
3 155 97 98 
3 154 155 98 
3 154 98 99 
3 153 154 99 
3 153 99 100 
3 145 82 1065 
3 152 153 100 
3 107 82 145 
3 152 100 101 
3 151 152 101 
3 102 151 101 
3 150 151 102 
3 103 150 102 
3 149 150 103 
3 149 103 104 
3 144 145 1065 
3 149 104 148 
3 104 105 148 
3 105 147 148 
3 105 106 147 
3 106 107 146 
3 147 106 146 
3 146 107 145 
3 82 169 1065 
3 169 144 1065 
3 93 1 1066 
3 94 159 1066 
3 1 94 1066 
3 159 93 1066 
3 169 91 144 

CELL_TYPES 1996
5
5
5
5
5
5
5
5
5
5
5
5
5
5
5
5
5
5
5
5
5
5
5
5
5
5
5
5
5
5
5
5
5
5
5
5
5
5
5
5
5
5
5
5
5
5
5
5
5
5
5
5
5
5
5
5
5
5
5
5
5
5
5
5
5
5
5
5
5
5
5
5
5
5
5
5
5
5
5
5
5
5
5
5
5
5
5
5
5
5
5
5
5
5
5
5
5
5
5
5
5
5
5
5
5
5
5
5
5
5
5
5
5
5
5
5
5
5
5
5
5
5
5
5
5
5
5
5
5
5
5
5
5
5
5
5
5
5
5
5
5
5
5
5
5
5
5
5
5
5
5
5
5
5
5
5
5
5
5
5
5
5
5
5
5
5
5
5
5
5
5
5
5
5
5
5
5
5
5
5
5
5
5
5
5
5
5
5
5
5
5
5
5
5
5
5
5
5
5
5
5
5
5
5
5
5
5
5
5
5
5
5
5
5
5
5
5
5
5
5
5
5
5
5
5
5
5
5
5
5
5
5
5
5
5
5
5
5
5
5
5
5
5
5
5
5
5
5
5
5
5
5
5
5
5
5
5
5
5
5
5
5
5
5
5
5
5
5
5
5
5
5
5
5
5
5
5
5
5
5
5
5
5
5
5
5
5
5
5
5
5
5
5
5
5
5
5
5
5
5
5
5
5
5
5
5
5
5
5
5
5
5
5
5
5
5
5
5
5
5
5
5
5
5
5
5
5
5
5
5
5
5
5
5
5
5
5
5
5
5
5
5
5
5
5
5
5
5
5
5
5
5
5
5
5
5
5
5
5
5
5
5
5
5
5
5
5
5
5
5
5
5
5
5
5
5
5
5
5
5
5
5
5
5
5
5
5
5
5
5
5
5
5
5
5
5
5
5
5
5
5
5
5
5
5
5
5
5
5
5
5
5
5
5
5
5
5
5
5
5
5
5
5
5
5
5
5
5
5
5
5
5
5
5
5
5
5
5
5
5
5
5
5
5
5
5
5
5
5
5
5
5
5
5
5
5
5
5
5
5
5
5
5
5
5
5
5
5
5
5
5
5
5
5
5
5
5
5
5
5
5
5
5
5
5
5
5
5
5
5
5
5
5
5
5
5
5
5
5
5
5
5
5
5
5
5
5
5
5
5
5
5
5
5
5
5
5
5
5
5
5
5
5
5
5
5
5
5
5
5
5
5
5
5
5
5
5
5
5
5
5
5
5
5
5
5
5
5
5
5
5
5
5
5
5
5
5
5
5
5
5
5
5
5
5
5
5
5
5
5
5
5
5
5
5
5
5
5
5
5
5
5
5
5
5
5
5
5
5
5
5
5
5
5
5
5
5
5
5
5
5
5
5
5
5
5
5
5
5
5
5
5
5
5
5
5
5
5
5
5
5
5
5
5
5
5
5
5
5
5
5
5
5
5
5
5
5
5
5
5
5
5
5
5
5
5
5
5
5
5
5
5
5
5
5
5
5
5
5
5
5
5
5
5
5
5
5
5
5
5
5
5
5
5
5
5
5
5
5
5
5
5
5
5
5
5
5
5
5
5
5
5
5
5
5
5
5
5
5
5
5
5
5
5
5
5
5
5
5
5
5
5
5
5
5
5
5
5
5
5
5
5
5
5
5
5
5
5
5
5
5
5
5
5
5
5
5
5
5
5
5
5
5
5
5
5
5
5
5
5
5
5
5
5
5
5
5
5
5
5
5
5
5
5
5
5
5
5
5
5
5
5
5
5
5
5
5
5
5
5
5
5
5
5
5
5
5
5
5
5
5
5
5
5
5
5
5
5
5
5
5
5
5
5
5
5
5
5
5
5
5
5
5
5
5
5
5
5
5
5
5
5
5
5
5
5
5
5
5
5
5
5
5
5
5
5
5
5
5
5
5
5
5
5
5
5
5
5
5
5
5
5
5
5
5
5
5
5
5
5
5
5
5
5
5
5
5
5
5
5
5
5
5
5
5
5
5
5
5
5
5
5
5
5
5
5
5
5
5
5
5
5
5
5
5
5
5
5
5
5
5
5
5
5
5
5
5
5
5
5
5
5
5
5
5
5
5
5
5
5
5
5
5
5
5
5
5
5
5
5
5
5
5
5
5
5
5
5
5
5
5
5
5
5
5
5
5
5
5
5
5
5
5
5
5
5
5
5
5
5
5
5
5
5
5
5
5
5
5
5
5
5
5
5
5
5
5
5
5
5
5
5
5
5
5
5
5
5
5
5
5
5
5
5
5
5
5
5
5
5
5
5
5
5
5
5
5
5
5
5
5
5
5
5
5
5
5
5
5
5
5
5
5
5
5
5
5
5
5
5
5
5
5
5
5
5
5
5
5
5
5
5
5
5
5
5
5
5
5
5
5
5
5
5
5
5
5
5
5
5
5
5
5
5
5
5
5
5
5
5
5
5
5
5
5
5
5
5
5
5
5
5
5
5
5
5
5
5
5
5
5
5
5
5
5
5
5
5
5
5
5
5
5
5
5
5
5
5
5
5
5
5
5
5
5
5
5
5
5
5
5
5
5
5
5
5
5
5
5
5
5
5
5
5
5
5
5
5
5
5
5
5
5
5
5
5
5
5
5
5
5
5
5
5
5
5
5
5
5
5
5
5
5
5
5
5
5
5
5
5
5
5
5
5
5
5
5
5
5
5
5
5
5
5
5
5
5
5
5
5
5
5
5
5
5
5
5
5
5
5
5
5
5
5
5
5
5
5
5
5
5
5
5
5
5
5
5
5
5
5
5
5
5
5
5
5
5
5
5
5
5
5
5
5
5
5
5
5
5
5
5
5
5
5
5
5
5
5
5
5
5
5
5
5
5
5
5
5
5
5
5
5
5
5
5
5
5
5
5
5
5
5
5
5
5
5
5
5
5
5
5
5
5
5
5
5
5
5
5
5
5
5
5
5
5
5
5
5
5
5
5
5
5
5
5
5
5
5
5
5
5
5
5
5
5
5
5
5
5
5
5
5
5
5
5
5
5
5
5
5
5
5
5
5
5
5
5
5
5
5
5
5
5
5
5
5
5
5
5
5
5
5
5
5
5
5
5
5
5
5
5
5
5
5
5
5
5
5
5
5
5
5
5
5
5
5
5
5
5
5
5
5
5
5
5
5
5
5
5
5
5
5
5
5
5
5
5
5
5
5
5
5
5
5
5
5
5
5
5
5
5
5
5
5
5
5
5
5
5
5
5
5
5
5
5
5
5
5
5
5
5
5
5
5
5
5
5
5
5
5
5
5
5
5
5
5
5
5
5
5
5
5
5
5
5
5
5
5
5
5
5
5
5
5
5
5
5
5
5
5
5
5
5
5
5
5
5
5
5
5
5
5
5
5
5
5
5
5
5
5
5
5
5
5
5
5
5
5
5
5
5
5
5
5
5
5
5
5
5
5
5
5
5
5
5
5
5
5
5
5
5
5
5
5
5
5
5
5
5
5
5
5
5
5
5
5
5
5
5
5
5
5
5
5
5
5
5
5
5
5
5
5
5
5
5
5
5
5
5
5
5
5
5
5
5
5
5
5
5
5
5
5
5
5
5
5
5
5
5
5
5
5
5
5
5
5
5
5
5
5
5
5
5
5
5
5
5
5
5
5
5
5
5
5
5
5
5
5
5
5
5
5
5
5
5
5
5
5
5
5
5
5
5
5
5
5
5
5
5
5
5
5
5
5
5
5
5
5
5
5
5
5
5
5
5
5
5
5
5
5
5
5
5
5
5
5
5
5
5
5
5
5
5
5
5
5
5
5
5
5
5
5
5
5
5
5
5
5
5
5
5
5
5
5
5
5
5
5
5
5
5
5
5
5
5
5
5
5
5
5
5
5
5
5
5
5
5
5
5
5
5
5
5
5
5
5
5
5
5
5
5
5
5
5
5
5
5
5
5
5
5
5
5
5
5
5
5
5
5
5
5
5
5
5
5
5
5
5
5
5
5
5
5
5
5
5
5
5
5
5
5
5
5
5
5
5
5
5
5
5
5
5
5
5
5
5
5
5
5
5
5
5
5
5
5
5
5
5
5
5
5
5
5
5
5
5
5
5
5
5
5
5
5
5
5
5
5
5
5
5
5
5
5
5
5
5
5
5
5
5
5
5
5
5
5
5
5
5
5
5
5
5
5
5
5
5
5
5
5
5
5
5
5
5
5
5
5
5
5
5
5
5
5
5
5
5
5
5
5
5
5
5
5
5
5
5
5
5
5
5
5
5
5
5
5
5
5
5
5
5
5
5
5
5
5
5
5
5
5
5
5
5
5
5
5
5
5
5
5
5
5
5
5
5
5
5
5
5
5
5
5
5
5
5
5
5
5
5
5
5
5
5
5
5
5
5
5
5
5
5
5
5
5
5
5
5
5
5
5
5
5
5
5
5
5
5
5
5
5
5
5
5
5
5
5
5
5
5
5
5
5
5
5
5
5
5
5
5
5
5
5
5
5
5
5
5
5
5
5
5
5
5
5
5
5
5
5
5
5
5
5
5
5
5
5
5

POINT_DATA 1067

VECTORS coord float
0.0 0.0 0.0 
5.000000000000e+01 -1.000000000000e+01 0.0 
0.0 -2.000000000000e+01 0.0 
5.000000000000e+01 -2.000000000000e+01 0.0 
0.0 -9.999999999991e-01 0.0 
0.0 -1.999999999998e+00 0.0 
0.0 -2.999999999997e+00 0.0 
0.0 -3.999999999994e+00 0.0 
0.0 -4.999999999991e+00 0.0 
0.0 -5.999999999988e+00 0.0 
0.0 -6.999999999985e+00 0.0 
0.0 -7.999999999982e+00 0.0 
0.0 -8.999999999983e+00 0.0 
0.0 -9.999999999985e+00 0.0 
0.0 -1.099999999999e+01 0.0 
0.0 -1.199999999999e+01 0.0 
0.0 -1.299999999999e+01 0.0 
0.0 -1.399999999999e+01 0.0 
0.0 -1.499999999999e+01 0.0 
0.0 -1.599999999999e+01 0.0 
0.0 -1.700000000000e+01 0.0 
0.0 -1.800000000000e+01 0.0 
0.0 -1.900000000000e+01 0.0 
4.900000000001e+01 -2.000000000000e+01 0.0 
4.800000000001e+01 -2.000000000000e+01 0.0 
4.700000000002e+01 -2.000000000000e+01 0.0 
4.600000000003e+01 -2.000000000000e+01 0.0 
4.500000000004e+01 -2.000000000000e+01 0.0 
4.400000000004e+01 -2.000000000000e+01 0.0 
4.300000000005e+01 -2.000000000000e+01 0.0 
4.200000000006e+01 -2.000000000000e+01 0.0 
4.100000000006e+01 -2.000000000000e+01 0.0 
4.000000000007e+01 -2.000000000000e+01 0.0 
3.900000000008e+01 -2.000000000000e+01 0.0 
3.800000000009e+01 -2.000000000000e+01 0.0 
3.700000000009e+01 -2.000000000000e+01 0.0 
3.600000000010e+01 -2.000000000000e+01 0.0 
3.500000000011e+01 -2.000000000000e+01 0.0 
3.400000000011e+01 -2.000000000000e+01 0.0 
3.300000000012e+01 -2.000000000000e+01 0.0 
3.200000000013e+01 -2.000000000000e+01 0.0 
3.100000000013e+01 -2.000000000000e+01 0.0 
3.000000000013e+01 -2.000000000000e+01 0.0 
2.900000000013e+01 -2.000000000000e+01 0.0 
2.800000000013e+01 -2.000000000000e+01 0.0 
2.700000000013e+01 -2.000000000000e+01 0.0 
2.600000000013e+01 -2.000000000000e+01 0.0 
2.500000000013e+01 -2.000000000000e+01 0.0 
2.400000000013e+01 -2.000000000000e+01 0.0 
2.300000000013e+01 -2.000000000000e+01 0.0 
2.200000000013e+01 -2.000000000000e+01 0.0 
2.100000000013e+01 -2.000000000000e+01 0.0 
2.000000000013e+01 -2.000000000000e+01 0.0 
1.900000000013e+01 -2.000000000000e+01 0.0 
1.800000000013e+01 -2.000000000000e+01 0.0 
1.700000000012e+01 -2.000000000000e+01 0.0 
1.600000000011e+01 -2.000000000000e+01 0.0 
1.500000000011e+01 -2.000000000000e+01 0.0 
1.400000000010e+01 -2.000000000000e+01 0.0 
1.300000000009e+01 -2.000000000000e+01 0.0 
1.200000000009e+01 -2.000000000000e+01 0.0 
1.100000000008e+01 -2.000000000000e+01 0.0 
1.000000000007e+01 -2.000000000000e+01 0.0 
9.000000000064e+00 -2.000000000000e+01 0.0 
8.000000000057e+00 -2.000000000000e+01 0.0 
7.000000000050e+00 -2.000000000000e+01 0.0 
6.000000000043e+00 -2.000000000000e+01 0.0 
5.000000000036e+00 -2.000000000000e+01 0.0 
4.000000000028e+00 -2.000000000000e+01 0.0 
3.000000000021e+00 -2.000000000000e+01 0.0 
2.000000000014e+00 -2.000000000000e+01 0.0 
1.000000000007e+00 -2.000000000000e+01 0.0 
5.000000000000e+01 -1.100000000000e+01 0.0 
5.000000000000e+01 -1.200000000000e+01 0.0 
5.000000000000e+01 -1.300000000000e+01 0.0 
5.000000000000e+01 -1.400000000000e+01 0.0 
5.000000000000e+01 -1.500000000000e+01 0.0 
5.000000000000e+01 -1.600000000000e+01 0.0 
5.000000000000e+01 -1.700000000000e+01 0.0 
5.000000000000e+01 -1.800000000000e+01 0.0 
5.000000000000e+01 -1.900000000000e+01 0.0 
2.000000000000e+01 0.0 0.0 
3.500000000000e+01 -1.000000000000e+01 0.0 
2.150000000000e+01 -1.000000000000e+00 0.0 
2.300000000000e+01 -2.000000000000e+00 0.0 
2.450000000000e+01 -3.000000000000e+00 0.0 
2.600000000000e+01 -4.000000000000e+00 0.0 
2.750000000000e+01 -5.000000000000e+00 0.0 
2.900000000000e+01 -6.000000000000e+00 0.0 
3.050000000000e+01 -7.000000000000e+00 0.0 
3.200000000000e+01 -8.000000000000e+00 0.0 
3.350000000000e+01 -9.000000000000e+00 0.0 
5.000000000000e+01 -8.000000000000e+00 0.0 
5.000000000000e+01 -9.000000000000e+00 0.0 
4.900000000000e+01 -1.000000000000e+01 0.0 
4.800000000000e+01 -1.000000000000e+01 0.0 
4.700000000000e+01 -1.000000000000e+01 0.0 
4.600000000000e+01 -1.000000000000e+01 0.0 
4.500000000000e+01 -1.000000000000e+01 0.0 
4.400000000000e+01 -1.000000000000e+01 0.0 
4.300000000000e+01 -1.000000000000e+01 0.0 
4.200000000000e+01 -1.000000000000e+01 0.0 
4.100000000000e+01 -1.000000000000e+01 0.0 
4.000000000000e+01 -1.000000000000e+01 0.0 
3.900000000000e+01 -1.000000000000e+01 0.0 
3.800000000000e+01 -1.000000000000e+01 0.0 
3.700000000000e+01 -1.000000000000e+01 0.0 
3.600000000000e+01 -1.000000000000e+01 0.0 
1.900000000000e+01 0.0 0.0 
1.800000000000e+01 0.0 0.0 
1.700000000000e+01 0.0 0.0 
1.600000000000e+01 0.0 0.0 
1.500000000000e+01 0.0 0.0 
1.400000000000e+01 0.0 0.0 
1.300000000000e+01 0.0 0.0 
1.200000000000e+01 0.0 0.0 
1.100000000000e+01 0.0 0.0 
1.000000000000e+01 0.0 0.0 
9.000000000000e+00 0.0 0.0 
8.000000000000e+00 0.0 0.0 
7.000000000000e+00 0.0 0.0 
6.000000000000e+00 0.0 0.0 
5.000000000000e+00 0.0 0.0 
4.000000000000e+00 0.0 0.0 
3.000000000000e+00 0.0 0.0 
2.000000000000e+00 0.0 0.0 
1.000000000000e+00 0.0 0.0 
4.900000000000e+01 -8.000000000000e+00 0.0 
4.800000000000e+01 -8.000000000000e+00 0.0 
4.700000000000e+01 -8.000000000000e+00 0.0 
4.600000000000e+01 -8.000000000000e+00 0.0 
4.500000000000e+01 -8.000000000000e+00 0.0 
4.400000000000e+01 -8.000000000000e+00 0.0 
4.300000000000e+01 -8.000000000000e+00 0.0 
4.200000000000e+01 -8.000000000000e+00 0.0 
4.100000000000e+01 -8.000000000000e+00 0.0 
4.000000000000e+01 -8.000000000000e+00 0.0 
3.900000000000e+01 -8.000000000000e+00 0.0 
3.800000000000e+01 -8.000000000000e+00 0.0 
3.700000000000e+01 -8.000000000000e+00 0.0 
3.600000000000e+01 -8.000000000000e+00 0.0 
3.500000000000e+01 -8.000000000000e+00 0.0 
3.400000000000e+01 -8.000000000000e+00 0.0 
3.300000000000e+01 -8.000000000000e+00 0.0 
3.447058823527e+01 -9.000000000000e+00 0.0 
3.544117647055e+01 -9.000000000000e+00 0.0 
3.641176470582e+01 -9.000000000000e+00 0.0 
3.738235294109e+01 -9.000000000000e+00 0.0 
3.835294117637e+01 -9.000000000000e+00 0.0 
3.932352941164e+01 -9.000000000000e+00 0.0 
4.029411764691e+01 -9.000000000000e+00 0.0 
4.126470588219e+01 -9.000000000000e+00 0.0 
4.223529411748e+01 -9.000000000000e+00 0.0 
4.320588235279e+01 -9.000000000000e+00 0.0 
4.417647058811e+01 -9.000000000000e+00 0.0 
4.514705882342e+01 -9.000000000000e+00 0.0 
4.611764705874e+01 -9.000000000000e+00 0.0 
4.708823529405e+01 -9.000000000000e+00 0.0 
4.805882352937e+01 -9.000000000000e+00 0.0 
4.902941176468e+01 -9.000000000000e+00 0.0 
2.075000000000e+01 -5.000000000006e-01 0.0 
2.225000000000e+01 -1.500000000000e+00 0.0 
2.375000000000e+01 -2.500000000000e+00 0.0 
2.525000000000e+01 -3.500000000000e+00 0.0 
2.675000000000e+01 -4.500000000000e+00 0.0 
2.825000000000e+01 -5.500000000000e+00 0.0 
2.975000000000e+01 -6.500000000000e+00 0.0 
3.125000000000e+01 -7.500000000000e+00 0.0 
3.275000000000e+01 -8.500000000000e+00 0.0 
3.425000000000e+01 -9.500000000000e+00 0.0 
2.226951693683e+01 -2.403913980114e+00 0.0 
1.650149491944e+01 -1.913490915758e+01 0.0 
1.050042386896e+01 -8.504605092970e-01 0.0 
1.553146524712e+01 -8.281255032105e-01 0.0 
1.150000000008e+01 -1.913397459621e+01 0.0 
2.530060260647e+01 -4.428336431260e+00 0.0 
8.651114563942e-01 -1.052096295641e+01 0.0 
2.050000000013e+01 -1.913397459622e+01 0.0 
2.819198729811e+01 -6.399519052838e+00 0.0 
2.445670302931e+01 -1.915649188023e+01 0.0 
3.117591465718e+01 -8.394293040695e+00 0.0 
7.465053044742e+00 -1.920411160581e+01 0.0 
6.398295709691e+00 -8.230098819370e-01 0.0 
2.849659607461e+01 -1.914296187762e+01 0.0 
3.418732642882e+01 -1.040265792588e+01 0.0 
8.386450935063e-01 -6.533605142809e+00 0.0 
9.178661865596e-01 -1.329769195597e+01 0.0 
3.149448624493e+01 -1.910466733764e+01 0.0 
3.552916747426e+01 -1.914628590759e+01 0.0 
4.449210346537e+01 -1.914359085008e+01 0.0 
4.140975975145e+01 -1.906941860733e+01 0.0 
3.847475958753e+01 -1.916622382724e+01 0.0 
3.653774794640e+01 -1.088712800241e+01 0.0 
4.047886341787e+01 -1.090139014048e+01 0.0 
4.348006339825e+01 -1.092792621489e+01 0.0 
4.919519968029e+01 -1.451526755068e+01 0.0 
4.500000000032e+00 -1.913397459621e+01 0.0 
1.856136921614e+01 -8.212235170404e-01 0.0 
3.499895312306e+00 -8.661165539723e-01 0.0 
9.076088696565e-01 -1.642306201891e+01 0.0 
4.655174095477e+01 -1.086183387525e+01 0.0 
9.430688970604e-01 -3.496112672958e+00 0.0 
3.353992337063e+01 -1.901202090820e+01 0.0 
2.249746016977e+01 -1.921262287282e+01 0.0 
2.650122741777e+01 -1.916123026018e+01 0.0 
1.863571384842e+01 -1.908325534840e+01 0.0 
1.450089971693e+01 -1.917691901860e+01 0.0 
1.350044695317e+01 -8.659695299584e-01 0.0 
3.849987469880e+01 -1.084154983397e+01 0.0 
9.454419857884e+00 -1.900818879936e+01 0.0 
4.917398660523e+01 -1.645692866081e+01 0.0 
8.500000000000e+00 -8.660254037844e-01 0.0 
8.660319230785e-01 -8.500111697188e+00 0.0 
4.649022621545e+01 -1.930506220113e+01 0.0 
2.667688107845e+01 -5.420288124331e+00 0.0 
2.379251615665e+01 -3.412225477429e+00 0.0 
2.966631491830e+01 -7.389030232731e+00 0.0 
3.267915035995e+01 -9.396934932445e+00 0.0 
2.074836922338e+01 -1.320054020319e+00 0.0 
4.915985743621e+01 -1.261973384855e+01 0.0 
2.527129768623e+00 -1.931592414663e+01 0.0 
1.538676247410e+00 -8.436956619311e-01 0.0 
4.908096641539e+01 -1.842484004551e+01 0.0 
3.478612492673e+01 -1.090889364140e+01 0.0 
3.409757055860e+01 -1.131991530427e+01 0.0 
3.501895309466e+01 -1.177687842717e+01 0.0 
3.407758073088e+01 -1.224293381580e+01 0.0 
3.484541875390e+01 -1.277051428430e+01 0.0 
3.400322025842e+01 -1.319022775640e+01 0.0 
3.321672625034e+01 -1.266779191233e+01 0.0 
3.315244139236e+01 -1.360984106532e+01 0.0 
3.236335186892e+01 -1.308463225210e+01 0.0 
3.478337442841e+01 -1.372341158982e+01 0.0 
3.230105923633e+01 -1.403023731610e+01 0.0 
3.150954055289e+01 -1.350301767700e+01 0.0 
3.144604792090e+01 -1.444931742516e+01 0.0 
3.065653897123e+01 -1.392357262981e+01 0.0 
3.071897610812e+01 -1.297447031198e+01 0.0 
2.986790411740e+01 -1.339226181535e+01 0.0 
2.993181466745e+01 -1.244703272398e+01 0.0 
2.908023061869e+01 -1.286254537734e+01 0.0 
2.901619051372e+01 -1.380881655279e+01 0.0 
2.822986160390e+01 -1.327695262116e+01 0.0 
2.829453476870e+01 -1.233265343811e+01 0.0 
2.744542905518e+01 -1.274510491105e+01 0.0 
2.751120089246e+01 -1.180368086886e+01 0.0 
2.666218649885e+01 -1.221619339205e+01 0.0 
2.672371209234e+01 -1.127125228527e+01 0.0 
2.587763216302e+01 -1.168539979114e+01 0.0 
2.581165585299e+01 -1.262994410089e+01 0.0 
2.502890882577e+01 -1.209827323619e+01 0.0 
2.509631327757e+01 -1.115492410304e+01 0.0 
2.424662989877e+01 -1.156630981079e+01 0.0 
2.431704046904e+01 -1.062389179334e+01 0.0 
2.346445438728e+01 -1.103427680694e+01 0.0 
2.339382552877e+01 -1.197964871788e+01 0.0 
2.260936050780e+01 -1.144513277642e+01 0.0 
2.268075012022e+01 -1.049911928216e+01 0.0 
2.182525737661e+01 -1.090920811464e+01 0.0 
2.189682319817e+01 -9.961716944568e+00 0.0 
2.104174127792e+01 -1.037266986667e+01 0.0 
2.111304367575e+01 -9.424179358711e+00 0.0 
2.025306185381e+01 -9.832727364719e+00 0.0 
2.018141124247e+01 -1.079140628871e+01 0.0 
1.938594498257e+01 -1.025147354112e+01 0.0 
1.946106490453e+01 -9.288010758448e+00 0.0 
1.858929958352e+01 -9.706319802516e+00 0.0 
1.851540991219e+01 -1.067205988724e+01 0.0 
1.771485303178e+01 -1.012504443115e+01 0.0 
1.764134552256e+01 -1.109360378538e+01 0.0 
1.683745148095e+01 -1.054496365337e+01 0.0 
1.691852964353e+01 -9.582555261178e+00 0.0 
1.603603813062e+01 -1.000160132379e+01 0.0 
1.595824239350e+01 -1.096750698862e+01 0.0 
1.515080624291e+01 -1.041639501931e+01 0.0 
1.523171602559e+01 -9.451711491453e+00 0.0 
1.434621060709e+01 -9.871956467464e+00 0.0 
1.426777178765e+01 -1.083749501371e+01 0.0 
1.345775282374e+01 -1.028803175500e+01 0.0 
1.354103873368e+01 -9.324918457162e+00 0.0 
1.265072018622e+01 -9.742612837270e+00 0.0 
1.257285762070e+01 -1.071557782384e+01 0.0 
1.175874815690e+01 -1.015972324288e+01 0.0 
1.184203019714e+01 -9.193604071377e+00 0.0 
1.094927709905e+01 -9.612103238656e+00 0.0 
1.086938022910e+01 -1.058685085646e+01 0.0 
1.005424098961e+01 -1.002939116380e+01 0.0 
9.977974613295e+00 -1.101324897989e+01 0.0 
1.012915646404e+01 -9.051815821181e+00 0.0 
9.237127782494e+00 -9.471239055559e+00 0.0 
9.308426593771e+00 -8.483376461131e+00 0.0 
8.418806073345e+00 -8.910712374517e+00 0.0 
2.253688464062e+01 -1.239459402279e+01 0.0 
8.495126726666e+00 -7.921646665254e+00 0.0 
9.389727383206e+00 -7.512103628377e+00 0.0 
7.601560812974e+00 -8.349460349344e+00 0.0 
7.525680547759e+00 -9.339736686940e+00 0.0 
7.677888324502e+00 -7.359727833346e+00 0.0 
6.782001206724e+00 -7.788454494773e+00 0.0 
6.858778622885e+00 -6.797338062822e+00 0.0 
2.196596590865e+01 -8.979025665442e+00 0.0 
2.816540108272e+01 -1.422634142353e+01 0.0 
5.961601194403e+00 -7.226824010712e+00 0.0 
6.038171749656e+00 -6.234825887079e+00 0.0 
6.936257279557e+00 -5.805287640737e+00 0.0 
6.115068918323e+00 -5.242109758768e+00 0.0 
3.564391741903e+01 -1.329240553876e+01 0.0 
3.558115605778e+01 -1.425902892003e+01 0.0 
3.645445282201e+01 -1.381970786460e+01 0.0 
3.639744204358e+01 -1.479198128612e+01 0.0 
3.727266909778e+01 -1.435399586226e+01 0.0 
5.216667013081e+00 -5.671788584287e+00 0.0 
3.220697293295e+01 -1.499594545107e+01 0.0 
3.551112158269e+01 -1.523479869250e+01 0.0 
2.836056961467e+01 -1.139032434851e+01 0.0 
2.516730388602e+01 -1.021382726837e+01 0.0 
1.844436907403e+01 -1.164097215196e+01 0.0 
5.885434318740e+00 -8.218694781467e+00 0.0 
5.064071066867e+00 -7.656614643901e+00 0.0 
4.988089103470e+00 -8.649722082718e+00 0.0 
1.079421050408e+01 -1.157014985435e+01 0.0 
9.902420005256e+00 -1.199903342656e+01 0.0 
1.071994252214e+01 -1.255727909771e+01 0.0 
9.826974788171e+00 -1.298659581767e+01 0.0 
1.064607883789e+01 -1.354595476388e+01 0.0 
9.751541265343e+00 -1.397556905071e+01 0.0 
8.932296185869e+00 -1.341553353988e+01 0.0 
8.856399248106e+00 -1.440570715508e+01 0.0 
8.036186803543e+00 -1.384470558472e+01 0.0 
1.057112875118e+01 -1.453516759081e+01 0.0 
1.146582585687e+01 -1.410539926903e+01 0.0 
7.959894480382e+00 -1.483563350928e+01 0.0 
7.138792279156e+00 -1.427465094140e+01 0.0 
7.062506792418e+00 -1.526615385482e+01 0.0 
6.240693558277e+00 -1.470508863040e+01 0.0 
6.316957575451e+00 -1.371212581281e+01 0.0 
5.418183007107e+00 -1.414253605022e+01 0.0 
5.494748364428e+00 -1.314886770603e+01 0.0 
1.756825565873e+01 -1.206433872514e+01 0.0 
1.837565773345e+01 -1.261356468266e+01 0.0 
1.749574831391e+01 -1.303769280014e+01 0.0 
1.830539187332e+01 -1.358828364284e+01 0.0 
1.742278925170e+01 -1.401367746928e+01 0.0 
1.823303007798e+01 -1.456432294258e+01 0.0 
1.734941694138e+01 -1.499213734361e+01 0.0 
1.653760041637e+01 -1.443920312098e+01 0.0 
3.056237977307e+01 -1.487132260174e+01 0.0 
1.866469084762e+01 -8.742953000418e+00 0.0 
1.953669694916e+01 -8.326038909849e+00 0.0 
1.874194303780e+01 -7.780688158966e+00 0.0 
1.961032016741e+01 -7.366854697285e+00 0.0 
1.881715755159e+01 -6.821102209649e+00 0.0 
1.968369797150e+01 -6.407747217358e+00 0.0 
1.889237123259e+01 -5.858375520026e+00 0.0 
1.802038875366e+01 -6.276202618170e+00 0.0 
1.809793837984e+01 -5.307629520489e+00 0.0 
1.721985207997e+01 -5.728242054488e+00 0.0 
1.729850893523e+01 -4.756990819347e+00 0.0 
1.641745664240e+01 -5.174636548624e+00 0.0 
2.495978509456e+01 -1.304406404294e+01 0.0 
1.911567814831e+01 -1.413854250293e+01 0.0 
1.904387332608e+01 -1.511463127723e+01 0.0 
1.992115934240e+01 -1.468788025898e+01 0.0 
7.013706899628e+00 -4.812582868662e+00 0.0 
5.342091874585e+00 -1.513658157269e+01 0.0 
1.139098043784e+01 -1.509488509480e+01 0.0 
1.228151810610e+01 -1.465617481983e+01 0.0 
1.646373110164e+01 -1.541993323337e+01 0.0 
5.293328636712e+00 -4.678385108584e+00 0.0 
1.975965862987e+01 -5.448124345648e+00 0.0 
2.054318374236e+01 -5.992561293251e+00 0.0 
3.721453439063e+01 -1.533216152738e+01 0.0 
3.809302733893e+01 -1.489235527381e+01 0.0 
1.220852788900e+01 -1.565304565230e+01 0.0 
4.394120899730e+00 -5.108397613210e+00 0.0 
8.779354620288e+00 -1.539524721159e+01 0.0 
1.817791047702e+01 -4.338570146253e+00 0.0 
4.518860013839e+00 -1.457343189307e+01 0.0 
4.442712140414e+00 -1.556841391069e+01 0.0 
8.115343466391e+00 -1.285760324283e+01 0.0 
1.985334703171e+01 -1.566478400426e+01 0.0 
2.071953850276e+01 -1.522074243119e+01 0.0 
1.634012953883e+01 -6.154777738301e+00 0.0 
1.553479994708e+01 -5.593730508879e+00 0.0 
1.561265946942e+01 -4.617761762647e+00 0.0 
1.470674212978e+01 -5.064576488228e+00 0.0 
1.464498299883e+01 -6.026514471420e+00 0.0 
1.383271561817e+01 -5.467796261169e+00 0.0 
1.389241253067e+01 -4.504338666645e+00 0.0 
1.301868735463e+01 -4.907185188626e+00 0.0 
1.294514184846e+01 -5.888160903592e+00 0.0 
1.212955968622e+01 -5.328262335277e+00 0.0 
1.220721122383e+01 -4.341264976687e+00 0.0 
1.131324345897e+01 -4.766773516508e+00 0.0 
5.266597955397e+00 -1.613148974258e+01 0.0 
1.737805990867e+01 -3.786677807525e+00 0.0 
3.078438094513e+01 -1.203225297748e+01 0.0 
1.131569882285e+01 -1.608511932110e+01 0.0 
1.728478341782e+01 -1.596017432313e+01 0.0 
3.803465906019e+01 -1.587509751228e+01 0.0 
3.891681276677e+01 -1.543395196905e+01 0.0 
3.897340985302e+01 -1.444710288980e+01 0.0 
3.980095968193e+01 -1.499059496613e+01 0.0 
3.974334598189e+01 -1.597921884150e+01 0.0 
4.062964983717e+01 -1.553518690417e+01 0.0 
4.068729602479e+01 -1.454434445295e+01 0.0 
4.151772679790e+01 -1.508974196007e+01 0.0 
4.157505195739e+01 -1.409694289912e+01 0.0 
4.240699932656e+01 -1.464347955968e+01 0.0 
4.234898051011e+01 -1.563721375790e+01 0.0 
4.323934606035e+01 -1.519082036405e+01 0.0 
4.329740528208e+01 -1.419587509788e+01 0.0 
4.413056841369e+01 -1.474359631875e+01 0.0 
4.418850110108e+01 -1.374786684042e+01 0.0 
4.502219770667e+01 -1.429605103525e+01 0.0 
4.496411937907e+01 -1.529215882720e+01 0.0 
4.490027319897e+00 -4.154167794594e+00 0.0 
1.565080385988e+01 -1.486411982419e+01 0.0 
1.557610691279e+01 -1.584855627870e+01 0.0 
4.195350646612e+00 -8.089117689096e+00 0.0 
4.124027797830e+00 -9.082831955007e+00 0.0 
4.917944318925e+00 -9.643530901533e+00 0.0 
4.020105689502e+00 -1.007439673661e+01 0.0 
4.587185899277e+01 -1.484039992728e+01 0.0 
4.580078661551e+01 -1.584043391042e+01 0.0 
2.061956522375e+01 -5.046701343981e+00 0.0 
2.139572955529e+01 -5.579553449826e+00 0.0 
3.715344357292e+01 -1.631485124583e+01 0.0 
3.618886196443e+00 -1.500471207167e+01 0.0 
3.695606940204e+00 -1.400939692294e+01 0.0 
2.438890661143e+01 -9.686110599723e+00 0.0 
2.523267572778e+01 -9.276766000622e+00 0.0 
2.446094171539e+01 -8.751904591412e+00 0.0 
2.529089822738e+01 -8.321495612547e+00 0.0 
2.606882688827e+01 -8.864724051119e+00 0.0 
2.452116646430e+01 -7.792756462004e+00 0.0 
1.235543269617e+01 -1.365845617339e+01 0.0 
4.318116874181e+01 -1.618567469992e+01 0.0 
7.835066111909e+00 -5.376366223896e+00 0.0 
7.905687335704e+00 -4.382539065697e+00 0.0 
3.542640009567e+00 -1.600035116542e+01 0.0 
1.572431503071e+01 -1.388358386695e+01 0.0 
2.574684696680e+01 -1.357896141127e+01 0.0 
2.488842657651e+01 -1.399674354505e+01 0.0 
2.568301775611e+01 -1.453552048595e+01 0.0 
2.481535572009e+01 -1.495542756508e+01 0.0 
2.561729699688e+01 -1.549784648532e+01 0.0 
2.474623061296e+01 -1.592058894178e+01 0.0 
2.394234041695e+01 -1.537572575827e+01 0.0 
2.065825452567e+01 -1.621899055217e+01 0.0 
2.387180528935e+01 -1.634552264687e+01 0.0 
4.585364400844e+01 -1.383912334080e+01 0.0 
1.998744432052e+01 -1.370317155541e+01 0.0 
1.205356951443e+01 -6.313580285498e+00 0.0 
5.396543905849e+00 -3.731818611283e+00 0.0 
1.139652573295e+01 -3.745819399350e+00 0.0 
3.574124306703e+00 -4.551456826011e+00 0.0 
3.494140761930e+00 -5.539787055649e+00 0.0 
1.213651452413e+01 -1.664505033022e+01 0.0 
2.555045568519e+01 -1.646529356744e+01 0.0 
2.641671114986e+01 -1.603899382371e+01 0.0 
2.612920721894e+01 -7.906435260873e+00 0.0 
2.690339829698e+01 -8.456969591431e+00 0.0 
1.978024383368e+01 -1.664410216353e+01 0.0 
3.732829979082e+01 -1.336926601859e+01 0.0 
4.074336584605e+01 -1.355133328401e+01 0.0 
4.163204691081e+01 -1.310280943992e+01 0.0 
3.773826114429e+00 -3.493444309145e+00 0.0 
1.228783001032e+01 -3.374822835872e+00 0.0 
4.057110462520e+01 -1.652588478000e+01 0.0 
2.132535497898e+01 -6.523623360525e+00 0.0 
2.216932532211e+01 -6.110044769206e+00 0.0 
1.825781152128e+01 -3.370146817147e+00 0.0 
1.745679445888e+01 -2.812942552063e+00 0.0 
4.666517057280e+01 -1.539981381543e+01 0.0 
4.660575894464e+01 -1.639014410186e+01 0.0 
4.838230979954e+00 -1.063643436446e+01 0.0 
3.938942630206e+00 -1.106778981745e+01 0.0 
1.302967218620e+01 -1.621373452436e+01 0.0 
1.049548003190e+01 -4.204825123240e+00 0.0 
4.573571907195e+01 -1.683820511148e+01 0.0 
1.483686335807e+01 -1.430849689310e+01 0.0 
1.490982658890e+01 -1.332679386284e+01 0.0 
3.190805600162e+00 -9.510968358545e+00 0.0 
2.146625721848e+01 -4.642437303115e+00 0.0 
2.069866208266e+01 -4.111852942193e+00 0.0 
1.286859345584e+01 -6.873252723348e+00 0.0 
1.041794493184e+01 -5.194814260291e+00 0.0 
2.671081808965e+00 -4.976806516331e+00 0.0 
1.295786792925e+01 -1.720506531799e+01 0.0 
3.968438206511e+01 -1.696869067241e+01 0.0 
2.308550456051e+01 -1.579963151273e+01 0.0 
2.315593682844e+01 -1.482967445235e+01 0.0 
2.299471449450e+01 -1.677069968132e+01 0.0 
1.057344714696e+01 -3.214252277840e+00 0.0 
1.124057603753e+01 -1.707713739755e+01 0.0 
2.718402535754e+00 -1.543629882103e+01 0.0 
2.638549692805e+01 -1.696744916809e+01 0.0 
2.723416349007e+01 -1.658104204545e+01 0.0 
2.210193351704e+01 -7.046769643417e+00 0.0 
2.295180925161e+01 -6.657397605239e+00 0.0 
2.301355235833e+01 -5.709111896800e+00 0.0 
2.379052718281e+01 -6.254965406962e+00 0.0 
3.243528601237e+01 -1.214181853533e+01 0.0 
2.287977995457e+01 -7.583722368300e+00 0.0 
2.999876029544e+01 -1.150837653096e+01 0.0 
3.084435366963e+01 -1.109693775882e+01 0.0 
3.006650579669e+01 -1.057778994262e+01 0.0 
2.683802665066e+01 -9.386863216633e+00 0.0 
2.768641973621e+01 -8.988883915666e+00 0.0 
2.040296980397e+01 -7.903629133404e+00 0.0 
1.925235024054e+01 -1.218872783130e+01 0.0 
5.735667000424e+00 -1.020577277283e+01 0.0 
6.396559909872e+00 -1.272326295703e+01 0.0 
1.161199420714e+01 -1.212812778229e+01 0.0 
4.229046132615e+01 -1.663084237572e+01 0.0 
4.312275399692e+01 -1.718087491556e+01 0.0 
4.335502068163e+01 -1.320039231514e+01 0.0 
4.424630298089e+01 -1.275160688731e+01 0.0 
7.090116643816e+00 -3.818998061530e+00 0.0 
7.989472176569e+00 -3.389238711200e+00 0.0 
9.085824861778e+00 -1.144036167408e+01 0.0 
1.041972423731e+01 -1.651614080893e+01 0.0 
3.797525112640e+01 -1.686052038746e+01 0.0 
3.709114253394e+01 -1.730125999865e+01 0.0 
3.626966748340e+01 -1.675477052919e+01 0.0 
1.385164591440e+01 -1.677597757552e+01 0.0 
1.787152588784e+01 -8.198993896093e+00 0.0 
1.668849729812e+01 -1.248560611628e+01 0.0 
1.659546177905e+01 -3.232482605530e+00 0.0 
2.332214717345e+01 -1.292598167641e+01 0.0 
7.168238450786e+00 -2.824711686516e+00 0.0 
2.894878403906e+01 -1.475427524446e+01 0.0 
2.646763248247e+00 -1.643270107952e+01 0.0 
3.467431944285e+00 -1.699648837348e+01 0.0 
2.059475877282e+01 -1.719473628526e+01 0.0 
3.333868355437e+01 -1.080596971682e+01 0.0 
2.246451062637e+01 -1.334557761546e+01 0.0 
2.167821896388e+01 -1.280847834858e+01 0.0 
3.089653185767e+01 -1.017198487212e+01 0.0 
3.012604365669e+01 -9.657298805968e+00 0.0 
2.929627299435e+01 -1.006100135274e+01 0.0 
2.936201435219e+01 -9.136748899251e+00 0.0 
1.198219052702e+01 -7.291887238230e+00 0.0 
1.116702076035e+01 -6.731976101053e+00 0.0 
2.551388807505e+01 -1.746927036981e+01 0.0 
2.378639090370e+01 -1.728678807149e+01 0.0 
2.718543627188e+01 -1.748668016909e+01 0.0 
2.804681050301e+01 -1.712626668293e+01 0.0 
1.970737034667e+01 -1.762317646822e+01 0.0 
1.889535776135e+01 -1.707158098231e+01 0.0 
2.593777711283e+00 -5.971157087874e+00 0.0 
2.773468281110e+01 -8.067164273938e+00 0.0 
4.051205884347e+01 -1.751819982458e+01 0.0 
3.166903145421e+01 -1.068032992414e+01 0.0 
1.033042452886e+01 -1.748285844336e+01 0.0 
9.519274604626e+00 -1.694349240233e+01 0.0 
1.668308673328e+01 -2.255861778986e+00 0.0 
1.570531902832e+01 -2.676795860126e+00 0.0 
4.655826903379e+01 -1.736656245706e+01 0.0 
2.384148070773e+01 -5.328744256413e+00 0.0 
2.460255123641e+01 -5.852182672816e+00 0.0 
2.306638135119e+01 -4.798935440613e+00 0.0 
8.467720450578e-01 -1.849576263072e+01 0.0 
4.849657322345e+01 -1.084860705506e+01 0.0 
2.565860899507e+00 -1.742859793981e+01 0.0 
2.764418872564e+01 -9.927142821799e+00 0.0 
4.565165880064e+01 -1.785336695404e+01 0.0 
2.162231831329e+01 -1.376528337468e+01 0.0 
2.360646352969e+01 -9.136041963102e+00 0.0 
1.392738739903e+01 -1.578285505772e+01 0.0 
4.756405947478e+01 -1.683706841809e+01 0.0 
4.740895034054e+01 -1.793766756892e+01 0.0 
4.080779328826e+01 -1.257387192544e+01 0.0 
4.168907939671e+01 -1.210739129181e+01 0.0 
3.991197722154e+01 -1.300815793917e+01 0.0 
1.905536506762e+01 -3.940076697685e+00 0.0 
1.923879596617e+01 -2.875000734166e+00 0.0 
4.401386745746e+01 -1.673483229438e+01 0.0 
4.247233362525e+00 -7.094581653070e+00 0.0 
3.286051630211e+00 -7.635300020553e+00 0.0 
9.609533347623e+00 -4.594311677967e+00 0.0 
9.523554636369e+00 -5.595597029530e+00 0.0 
5.660336628893e+00 -1.119290329628e+01 0.0 
6.558070063295e+00 -1.076385809362e+01 0.0 
2.809866407414e+01 -1.518037766799e+01 0.0 
2.888868674504e+01 -1.570360690070e+01 0.0 
2.654431550819e+01 -1.411217777162e+01 0.0 
1.402158265969e+01 -1.375404617952e+01 0.0 
1.409592494026e+01 -1.277071998942e+01 0.0 
1.499355196178e+01 -1.235270737023e+01 0.0 
4.221535326155e+01 -1.759335617494e+01 0.0 
4.305583287033e+01 -1.822663146802e+01 0.0 
1.280748808359e+01 -7.834332838285e+00 0.0 
1.368988389326e+01 -7.420529606172e+00 0.0 
1.110091796060e+01 -7.683966794328e+00 0.0 
3.963446145980e+01 -1.794331310122e+01 0.0 
3.423932362213e+00 -1.796415590455e+01 0.0 
4.280814572302e+00 -1.752272834860e+01 0.0 
8.050136380041e+00 -2.421582378631e+00 0.0 
8.888674091650e+00 -2.984264211327e+00 0.0 
2.152839430898e+01 -3.732609965436e+00 0.0 
2.077799585292e+01 -3.183896021866e+00 0.0 
3.618719395821e+01 -1.770276572576e+01 0.0 
3.538165138340e+01 -1.718709995539e+01 0.0 
3.702925326420e+01 -1.828844288807e+01 0.0 
1.756739438711e+00 -5.353284859169e+00 0.0 
2.233710191104e+01 -1.527265621324e+01 0.0 
1.389483555057e+01 -1.771797164730e+01 0.0 
1.475634224300e+01 -1.728357428390e+01 0.0 
1.298797563052e+01 -1.825968924755e+01 0.0 
2.145331271866e+01 -1.673705379077e+01 0.0 
2.133282821169e+01 -1.769400773673e+01 0.0 
2.292139194136e+01 -1.774915400288e+01 0.0 
1.750750053243e+01 -1.861475593469e+00 0.0 
4.830478841772e+01 -1.752611802221e+01 0.0 
4.341203507805e+01 -1.220326745522e+01 0.0 
1.685254151866e+01 -1.443085301632e+00 0.0 
4.431538535165e+01 -1.171841387375e+01 0.0 
4.511308610496e+01 -1.229557320599e+01 0.0 
4.510133242889e+01 -1.123680627466e+01 0.0 
1.846818030617e+00 -4.410877617069e+00 0.0 
3.995468694584e+01 -1.186571542989e+01 0.0 
3.901387459804e+01 -1.242507616755e+01 0.0 
8.966735877533e+00 -1.837818700423e+00 0.0 
4.049310011091e+01 -1.848269508791e+01 0.0 
7.278862053803e+00 -1.918523922691e+00 0.0 
6.429715522129e+00 -2.316676521184e+00 0.0 
9.443505505022e+00 -1.792198868094e+01 0.0 
8.620386951051e+00 -1.737590365556e+01 0.0 
8.571868171503e+00 -1.834436667826e+01 0.0 
7.758629848526e+00 -1.775677907213e+01 0.0 
7.806648388584e+00 -1.680761266021e+01 0.0 
6.908555145436e+00 -1.723746463044e+01 0.0 
4.251709122090e+01 -1.156937480156e+01 0.0 
6.931136405615e+00 -1.832465719263e+01 0.0 
6.015545461353e+00 -1.768865355295e+01 0.0 
5.960535926343e+00 -1.872011001764e+01 0.0 
3.023253444786e+01 -8.761960642196e+00 0.0 
2.454622702599e+01 -6.749421992767e+00 0.0 
2.537499741604e+01 -6.347634963783e+00 0.0 
2.544077378460e+01 -5.431358513649e+00 0.0 
2.801367161747e+01 -1.820907270221e+01 0.0 
2.884507806914e+01 -1.762032095326e+01 0.0 
1.821474531936e+00 -1.588901260460e+01 0.0 
1.821006262604e+00 -1.489370287756e+01 0.0 
4.599962488908e+01 -1.176478780598e+01 0.0 
4.705457470007e+01 -1.172182804229e+01 0.0 
4.667668314802e+01 -1.263464558483e+01 0.0 
4.759648056504e+01 -1.252380987933e+01 0.0 
4.728041618103e+01 -1.341928568376e+01 0.0 
4.825209352360e+01 -1.330491640804e+01 0.0 
4.778118233428e+01 -1.420151961695e+01 0.0 
2.388192727579e+01 -1.826934810142e+01 0.0 
2.381714684947e+01 -4.385917965223e+00 0.0 
3.172733219247e+01 -9.758744265248e+00 0.0 
1.882012070658e+01 -1.805540597212e+01 0.0 
1.805667505243e+01 -1.742221226236e+01 0.0 
2.852599958080e+01 -8.597196079481e+00 0.0 
2.856486123437e+01 -7.661382718527e+00 0.0 
1.111792842875e+01 -1.818223852980e+01 0.0 
2.203322722466e+01 -7.986646678802e+00 0.0 
3.955703676900e+01 -1.903246763601e+01 0.0 
1.944842206513e+01 -8.038750575182e-01 0.0 
1.909882767783e+01 -1.746322740933e+00 0.0 
2.281147422941e+01 -8.525912918334e+00 0.0 
2.850633001468e+01 -9.533271335986e+00 0.0 
2.532883344309e+01 -7.308951659710e+00 0.0 
2.620475466461e+01 -6.979208585400e+00 0.0 
1.396278270396e+01 -1.475095389807e+01 0.0 
9.791001166724e+00 -2.554159793552e+00 0.0 
2.229293380421e+01 -4.269762271052e+00 0.0 
4.677238984118e+01 -1.430071795514e+01 0.0 
2.228658385918e+01 -3.344747535984e+00 0.0 
8.940223674553e-01 -1.543595733415e+01 0.0 
2.118566862474e+01 -8.435876987696e+00 0.0 
2.678325936437e+01 -1.032621195706e+01 0.0 
2.223400220487e+01 -5.179046761770e+00 0.0 
2.375370625384e+01 -7.251580562134e+00 0.0 
3.156971327386e+01 -1.255534750737e+01 0.0 
3.328226391312e+01 -1.172914813316e+01 0.0 
3.250948774219e+01 -1.120157009348e+01 0.0 
2.032993445717e+01 -8.867880112202e+00 0.0 
2.697226974856e+01 -7.536633082045e+00 0.0 
2.707377810386e+01 -6.590835263295e+00 0.0 
2.914099246827e+01 -1.191678458549e+01 0.0 
3.544824072239e+01 -1.621126558525e+01 0.0 
3.456511855436e+01 -1.665054783843e+01 0.0 
3.448395810225e+01 -1.759117813016e+01 0.0 
3.368378673938e+01 -1.708037781328e+01 0.0 
3.375560452567e+01 -1.610973066913e+01 0.0 
3.288001547988e+01 -1.654324255651e+01 0.0 
3.282475929147e+01 -1.749725654692e+01 0.0 
3.199880906313e+01 -1.697294088625e+01 0.0 
3.197001272932e+01 -1.811667776864e+01 0.0 
3.111884713021e+01 -1.742166785755e+01 0.0 
3.120418962865e+01 -1.642155709385e+01 0.0 
3.034666704371e+01 -1.683123833816e+01 0.0 
3.026224379976e+01 -1.772592851714e+01 0.0 
3.046632362943e+01 -1.582232843075e+01 0.0 
1.961344017324e+01 -1.857459447985e+01 0.0 
2.274975894774e+01 -9.532738811922e+00 0.0 
1.833923246887e+01 -2.396746883672e+00 0.0 
1.988859500848e+01 -2.249244376594e+00 0.0 
2.758045562861e+01 -1.086434261689e+01 0.0 
3.247300178163e+01 -1.909930104252e+01 0.0 
3.461947482503e+01 -1.911879848019e+01 0.0 
2.047161538662e+01 -6.941478180358e+00 0.0 
2.750230940214e+01 -1.915490590764e+01 0.0 
3.165081350803e+01 -1.161860780120e+01 0.0 
1.897456727641e+01 -4.889634688522e+00 0.0 
2.549338539756e+01 -1.914858252089e+01 0.0 
3.462873135081e+01 -1.567482276144e+01 0.0 
3.384432415243e+01 -1.512280684518e+01 0.0 
3.471433767690e+01 -1.469086942990e+01 0.0 
3.651470373046e+01 -1.918207952149e+01 0.0 
3.901742690249e+01 -1.345028556517e+01 0.0 
2.153224102692e+01 -1.920169709333e+01 0.0 
1.918382939341e+01 -1.316226275662e+01 0.0 
2.005389162382e+01 -1.271962165174e+01 0.0 
2.011472087878e+01 -1.175029352900e+01 0.0 
3.210679478412e+01 -1.598038618242e+01 0.0 
1.752175226543e+01 -1.914713022656e+01 0.0 
1.696897240059e+01 -1.832772588765e+01 0.0 
1.599682523337e+01 -1.832599992024e+01 0.0 
1.644507199462e+01 -1.743697981535e+01 0.0 
1.549987712903e+01 -1.915192375101e+01 0.0 
3.050250861901e+01 -1.918943550234e+01 0.0 
2.949944061527e+01 -1.922950455235e+01 0.0 
1.375892575273e+01 -6.447160534926e+00 0.0 
1.457223670180e+01 -7.006709243857e+00 0.0 
1.450818793236e+01 -7.965943451779e+00 0.0 
1.538804712402e+01 -7.553409623699e+00 0.0 
1.545817644768e+01 -6.580929593419e+00 0.0 
1.626506893751e+01 -7.129032608911e+00 0.0 
1.619833811522e+01 -8.086588580887e+00 0.0 
1.714448609609e+01 -6.697429609777e+00 0.0 
2.887616543568e+01 -1.668015232137e+01 0.0 
1.349814589130e+01 -1.918225301544e+01 0.0 
1.153887772210e+01 -1.311384581217e+01 0.0 
1.242708159886e+01 -1.267046795531e+01 0.0 
1.249799674267e+01 -1.169005616014e+01 0.0 
6.631723893693e+00 -9.774184881867e+00 0.0 
7.451471631867e+00 -1.033148796006e+01 0.0 
7.377795355458e+00 -1.132196345268e+01 0.0 
5.810931797536e+00 -9.211654212252e+00 0.0 
2.402683899133e+01 -1.441378562320e+01 0.0 
1.249768692036e+01 -1.917388426624e+01 0.0 
1.580373499437e+01 -1.290751860664e+01 0.0 
8.344650507834e+00 -9.898403995170e+00 0.0 
3.750622115305e+01 -1.086526401533e+01 0.0 
3.699391251667e+01 -1.171695900794e+01 0.0 
3.606517829518e+01 -1.173717504500e+01 0.0 
3.650257641795e+01 -1.270047380221e+01 0.0 
3.808951488918e+01 -1.183518714175e+01 0.0 
4.760380962420e+00 -1.162484888315e+01 0.0 
3.861210370848e+00 -1.205657631736e+01 0.0 
3.038284309476e+00 -1.149851280664e+01 0.0 
2.961598794889e+00 -1.248856794980e+01 0.0 
2.138953225512e+00 -1.193212674534e+01 0.0 
2.227383593457e+00 -1.096258903918e+01 0.0 
2.043265419276e+00 -1.292158472959e+01 0.0 
1.252449446028e+00 -1.225502002753e+01 0.0 
3.949985210740e+01 -1.086594001795e+01 0.0 
1.453499444792e+01 -8.768805922472e-01 0.0 
1.403518950933e+01 -1.749965556633e+00 0.0 
1.300715031023e+01 -1.714737233040e+00 0.0 
1.350929389899e+01 -2.527443911291e+00 0.0 
1.449600910711e+01 -2.595486162864e+00 0.0 
1.395693872901e+01 -3.484211041558e+00 0.0 
1.495105865208e+01 -3.364609636216e+00 0.0 
1.508822528740e+01 -1.766586020494e+00 0.0 
1.250223858430e+01 -8.634590186802e-01 0.0 
1.200279523409e+01 -1.709044504992e+00 0.0 
1.150086239419e+01 -8.592789190668e-01 0.0 
1.101482754194e+01 -1.677730591922e+00 0.0 
1.148018564526e+01 -2.659323866909e+00 0.0 
8.800552119754e+00 -3.989875954728e+00 0.0 
3.452790439430e+00 -1.901136170646e+01 0.0 
8.658451825200e-01 -9.503462241795e+00 0.0 
1.694787786797e+00 -9.000589234502e+00 0.0 
1.703436717094e+00 -8.038819004041e+00 0.0 
2.594197971110e+00 -8.563955242845e+00 0.0 
1.630513735412e+00 -9.907244747511e+00 0.0 
8.566859292791e-01 -7.512203837972e+00 0.0 
1.685461277022e+00 -7.164280248030e+00 0.0 
2.506394468801e+00 -8.623386730818e-01 0.0 
2.007475081581e+00 -1.727729545205e+00 0.0 
9.211534699767e-01 -1.628791366312e+00 0.0 
1.500000000020e+00 -2.598063549486e+00 0.0 
2.482078929963e+00 -2.553580088725e+00 0.0 
2.999795253092e+00 -1.732169015019e+00 0.0 
3.999712607169e+00 -1.728832897453e+00 0.0 
4.499752199340e+00 -8.656478679175e-01 0.0 
4.964377774841e+00 -1.730129617941e+00 0.0 
4.425017908337e+00 -2.597541756243e+00 0.0 
5.446573195014e+00 -8.410144840023e-01 0.0 
4.915722346614e+01 -1.550640962770e+01 0.0 
4.826794919243e+01 -1.600000000000e+01 0.0 
1.053139533193e+01 -1.911782884365e+01 0.0 
4.156049861949e+01 -1.095160998589e+01 0.0 
9.494526624416e+00 -8.650570090219e-01 0.0 
4.555762166964e+01 -1.897098103585e+01 0.0 
4.250656411371e+01 -1.914387356218e+01 0.0 
4.350906466345e+01 -1.917234727395e+01 0.0 
8.759665722424e-01 -1.746422130609e+01 0.0 
1.698936011838e+00 -1.795012186674e+01 0.0 
4.742476811029e+01 -1.900090177972e+01 0.0 
7.749196752349e+00 -6.368049313489e+00 0.0 
3.361572113416e+01 -1.798765193915e+01 0.0 
4.484660149212e+01 -1.728661231383e+01 0.0 
1.984038172228e+01 -4.502575320116e+00 0.0 
1.035080352627e+01 -6.166639575753e+00 0.0 
2.753558010652e+00 -1.444909521181e+01 0.0 
7.217069543032e+00 -1.328635391078e+01 0.0 
4.364336727739e+00 -1.655585677381e+01 0.0 
4.595208426108e+00 -1.357919665443e+01 0.0 
6.164967006980e+00 -1.569873454630e+01 0.0 
1.487855768353e+01 -1.826523774028e+01 0.0 
2.791876456372e+00 -4.019632415181e+00 0.0 
4.246464893515e+01 -1.364898659620e+01 0.0 
4.503855590351e+01 -1.329552780944e+01 0.0 
4.407239109604e+01 -1.573900004093e+01 0.0 
5.141054449252e+00 -6.664290382472e+00 0.0 
3.141083947149e+00 -1.055790764912e+01 0.0 
6.196463198741e+00 -4.256497932609e+00 0.0 
2.599618716181e+01 -1.836893455464e+01 0.0 
2.923057372337e+01 -1.098461757645e+01 0.0 
1.168343877486e+01 -1.114079645041e+01 0.0 
6.706222096238e+00 -8.780364234441e+00 0.0 
8.567858614669e+00 -6.943121440850e+00 0.0 
1.123755132901e+01 -5.753525820030e+00 0.0 
2.353456234423e+01 -1.008536320953e+01 0.0 
9.162073319168e+00 -1.045593739109e+01 0.0 
9.676343469685e+00 -1.496493008366e+01 0.0 
4.490637882905e+01 -1.628778970202e+01 0.0 
7.398129387772e+00 -9.639977982323e-01 0.0 
1.049641705805e+01 -1.552503975272e+01 0.0 
9.010356286268e+00 -1.242805042052e+01 0.0 
3.985573925497e+01 -1.399863651620e+01 0.0 
1.816196318262e+01 -1.554066497931e+01 0.0 
1.306332244168e+01 -3.963646550326e+00 0.0 
4.145850903932e+01 -1.608094559275e+01 0.0 
3.794664933633e+01 -1.779020121986e+01 0.0 
3.819614412903e+01 -1.290749321016e+01 0.0 
6.270014188119e+00 -3.255093186826e+00 0.0 
4.251165370388e+01 -1.263870364997e+01 0.0 
1.207347709171e+01 -1.763942826023e+01 0.0 
3.633240829927e+01 -1.577330481104e+01 0.0 
4.319052668832e+00 -6.101812561904e+00 0.0 
1.676492415806e+01 -1.151547901392e+01 0.0 
2.594059220037e+01 -1.074225223009e+01 0.0 
3.340750911501e+01 -9.898764354137e+00 0.0 
4.397619591281e+01 -1.769773736461e+01 0.0 
2.175611595028e+01 -1.185718747128e+01 0.0 
1.641818733106e+01 -1.640685203215e+01 0.0 
1.661211421753e+01 -1.346121366338e+01 0.0 
3.428853504935e+00 -6.551993389271e+00 0.0 
8.700728832502e+00 -1.638460872825e+01 0.0 
1.931369795309e+01 -1.121629383702e+01 0.0 
4.139798872363e+01 -1.706922153459e+01 0.0 
2.647837478700e+01 -1.507353829290e+01 0.0 
1.779469616424e+01 -9.161615782908e+00 0.0 
3.885879219319e+01 -1.642026488918e+01 0.0 
1.338194936770e+01 -1.125916521471e+01 0.0 
1.897071181111e+01 -1.609204322578e+01 0.0 
2.844308548793e+01 -1.046221003096e+01 0.0 
2.659854702194e+01 -1.316109415760e+01 0.0 
2.979604503271e+01 -1.433296157755e+01 0.0 
2.417694041347e+01 -1.251231397779e+01 0.0 
1.807401327411e+00 -1.388891148480e+01 0.0 
9.599810618782e+00 -1.595439365034e+01 0.0 
1.652144692160e+01 -4.205392788472e+00 0.0 
2.367839450246e+01 -8.188385218643e+00 0.0 
3.814894930468e+01 -1.390748338767e+01 0.0 
2.466448215774e+01 -1.685878545680e+01 0.0 
4.134044524611e+01 -1.806610045954e+01 0.0 
2.600511411958e+01 -9.801774120648e+00 0.0 
7.882158050716e+00 -1.582364037353e+01 0.0 
3.881607873422e+01 -1.737970515013e+01 0.0 
8.270182347708e+00 -1.088622154920e+01 0.0 
8.672520392520e-01 -4.532984309881e+00 0.0 
1.993447205337e+01 -3.579061902667e+00 0.0 
1.794616079549e+01 -7.238038888498e+00 0.0 
2.097277068165e+01 -1.132450168636e+01 0.0 
8.194803300681e+00 -1.187214224265e+01 0.0 
3.522279404911e+01 -1.823342818178e+01 0.0 
6.984481050295e+00 -1.625271465557e+01 0.0 
1.309433007797e+01 -1.521718594215e+01 0.0 
2.150246167611e+01 -1.885399038185e+00 0.0 
3.250689370209e+01 -1.028789870535e+01 0.0 
6.085886272238e+00 -1.668342132851e+01 0.0 
1.588455661727e+01 -1.193498985921e+01 0.0 
1.809323400821e+01 -1.651110084195e+01 0.0 
1.348885082381e+00 -1.136065576512e+01 0.0 
2.497670221995e+01 -1.834631276173e+01 0.0 
2.937062818424e+01 -8.233711194470e+00 0.0 
5.185823744469e+00 -1.711566910207e+01 0.0 
1.477497877209e+01 -1.530177014512e+01 0.0 
2.125346158933e+01 -7.473003997367e+00 0.0 
4.751561118290e+01 -1.084897772632e+01 0.0 
5.056026576843e+00 -1.825750475525e+01 0.0 
1.473948554523e+01 -1.634577436309e+01 0.0 
2.410566630936e+01 -1.345970002612e+01 0.0 
1.507337507513e+01 -1.138527895328e+01 0.0 
3.189857338687e+01 -8.887781229006e+00 0.0 
7.298712468334e+00 -1.230231046246e+01 0.0 
2.738235495295e+01 -1.368931690364e+01 0.0 
3.750141041969e+01 -1.920449893070e+01 0.0 
1.557271965640e+01 -1.683317951731e+01 0.0 
3.393731848929e+01 -1.413034777044e+01 0.0 
6.482156824153e+00 -1.174575135362e+01 0.0 
2.077971718439e+01 -1.421279621836e+01 0.0 
3.455084320178e+00 -2.562590040585e+00 0.0 
3.099056096250e+01 -9.270280416035e+00 0.0 
5.580176125418e+00 -1.217387969259e+01 0.0 
1.707247630389e+01 -7.660651981710e+00 0.0 
1.418658814174e+01 -1.180390575393e+01 0.0 
2.049103025389e+01 -1.811296706038e+01 0.0 
4.680386172316e+00 -1.260396879301e+01 0.0 
1.699679896554e+01 -8.624561788199e+00 0.0 
3.779470168555e+00 -1.303424899720e+01 0.0 
3.036589870126e+01 -7.879832518349e+00 0.0 
3.306993001774e+01 -1.457671062095e+01 0.0 
2.840150110165e+00 -1.346530088269e+01 0.0 
2.732011135052e+01 -1.464591214560e+01 0.0 
5.423639259568e+00 -2.659711955016e+00 0.0 
2.324455961696e+01 -1.387269388211e+01 0.0 
1.752768355571e+00 -1.693128613594e+01 0.0 
1.020244783051e+01 -8.076834012808e+00 0.0 
1.330873875224e+01 -1.222417528206e+01 0.0 
3.297727364880e+01 -1.555480372087e+01 0.0 
2.890929955439e+01 -6.868664170731e+00 0.0 
1.323294664622e+01 -1.320754260334e+01 0.0 
2.726532861246e+01 -1.560593120806e+01 0.0 
2.240020643398e+01 -1.429299177247e+01 0.0 
2.090445823633e+01 -1.228128621332e+01 0.0 
1.315809881502e+01 -1.420739326938e+01 0.0 
2.781328038068e+01 -7.181956082300e+00 0.0 
8.614200829057e+00 -5.936933226306e+00 0.0 
8.714765730069e+00 -4.979270529687e+00 0.0 
1.611881701099e+01 -9.041973294003e+00 0.0 
2.806830314340e+01 -1.614622947108e+01 0.0 
2.084435391396e+00 -3.385085422913e+00 0.0 
3.133211811152e+01 -1.542347619750e+01 0.0 
9.693114650768e+00 -3.590281506442e+00 0.0 
1.531883592202e+01 -8.504584946143e+00 0.0 
2.151589117094e+01 -1.578915763018e+01 0.0 
4.918943882696e+01 -1.355538828056e+01 0.0 
1.443236615188e+01 -8.918701794549e+00 0.0 
8.276250966452e-01 -5.537685192197e+00 0.0 
1.362790867918e+01 -8.374718262212e+00 0.0 
2.083767477370e+01 -1.324843956035e+01 0.0 
1.273834678703e+01 -8.790890389337e+00 0.0 
1.192275845670e+01 -8.242261327467e+00 0.0 
4.477236023583e+01 -1.824312396664e+01 0.0 
1.102989384254e+01 -8.649855800911e+00 0.0 
4.849096516045e+01 -1.917293752213e+01 0.0 
1.588996752238e+00 -1.910230934687e+01 0.0 
4.904245197583e+01 -1.159839008158e+01 0.0 
2.753852929608e+01 -5.782128488093e+00 0.0 
1.756133602833e+01 -8.306130313187e-01 0.0 
2.615423700951e+01 -6.153865090092e+00 0.0 
1.028818761294e+01 -7.122020845892e+00 0.0 
2.970818901196e+01 -1.527821347593e+01 0.0 
4.801461623449e+01 -1.164472570985e+01 0.0 
9.455722100419e+00 -6.546069291118e+00 0.0 
3.089099236677e+01 -1.835339328261e+01 0.0 
2.350000000013e+01 -1.920825896750e+01 0.0 
4.830620531887e+01 -1.506626155470e+01 0.0 
1.725381944701e+01 -1.688794487850e+01 0.0 
2.156246225273e+01 -1.475893794002e+01 0.0 
4.919319648787e+01 -1.742767505896e+01 0.0 
4.437935623576e+01 -1.077662927266e+01 0.0 
1.001520521978e+01 -1.652692675208e+00 0.0 
9.067160240050e-01 -1.441937727541e+01 0.0 
2.603365149390e+01 -4.755996613848e+00 0.0 
2.458344439002e+01 -4.873645517696e+00 0.0 
2.304312390142e+01 -3.836552768096e+00 0.0 
2.546923202198e+00 -6.902480355749e+00 0.0 
1.251534969393e+01 -2.490989965776e+00 0.0 
2.454061833377e+01 -3.933354231935e+00 0.0 
1.788186558740e+01 -1.827424884923e+01 0.0 
4.090785243552e+01 -1.166553231904e+01 0.0 
2.230128851568e+01 -1.623015738726e+01 0.0 
2.302362347568e+01 -2.916239960270e+00 0.0 
3.878119254461e+01 -1.830091164002e+01 0.0 
2.210081359958e+01 -1.829238229150e+01 0.0 
8.443704882233e+00 -1.921993252862e+01 0.0 
2.218405824691e+01 -1.724557581508e+01 0.0 
2.151157503963e+01 -2.790636689331e+00 0.0 
3.741658958955e+01 -1.250400191722e+01 0.0 
2.697247663737e+01 -1.838290202309e+01 0.0 
4.743362342862e+01 -1.585850773010e+01 0.0 
6.671345075358e+00 -1.924977576322e+01 0.0 
3.900825404537e+01 -1.157220003875e+01 0.0 
4.649692961375e+01 -1.836335837481e+01 0.0 
1.578831424832e+01 -3.678284023361e+00 0.0 
4.814208768888e+01 -1.841249298770e+01 0.0 
2.964123298315e+01 -1.625739458193e+01 0.0 
4.580760351902e+01 -1.284294554687e+01 0.0 
3.561520879615e+01 -1.245548941949e+01 0.0 
2.555418095658e+00 -1.841101588290e+01 0.0 
3.288468366144e+01 -1.834258164109e+01 0.0 
2.065894391445e+01 -2.240688571739e+00 0.0 
4.739171429915e+01 -1.496536413446e+01 0.0 
3.478086729185e+00 -8.576434653209e+00 0.0 
1.606010630246e+01 -1.588421807951e+00 0.0 
1.018329200594e+01 -1.834320874317e+01 0.0 
2.957213339430e+01 -1.720496954591e+01 0.0 
4.142712790164e+00 -1.837794506222e+01 0.0 
6.698721532573e-01 -2.499999999997e+00 0.0 
8.037039123140e+00 -1.571229354954e+00 0.0 
1.203541361428e+01 -1.847784298001e+01 0.0 
2.899968332038e+01 -1.848264722179e+01 0.0 
1.469229460948e+01 -4.219485753730e+00 0.0 
4.049590781957e+01 -1.932812501995e+01 0.0 
1.996211678340e+01 -1.506329754720e+00 0.0 
4.250588298353e+01 -1.067383247529e+01 0.0 
5.831497011152e+00 -1.635396227234e+00 0.0 
5.317606125670e+00 -1.923927974868e+01 0.0 
4.208546426993e+01 -1.842830665025e+01 0.0 
2.327553405011e+00 -9.459409929662e+00 0.0 
3.568351902251e+01 -1.096637218582e+01 0.0 
1.682104374890e+00 -6.231413350963e+00 0.0 
2.451812238018e+01 -1.766524914339e+01 0.0 
1.058003429638e+01 -2.391839617098e+00 0.0 
4.399988753123e+01 -1.851998776342e+01 0.0 
1.400000000010e+01 -1.852293523028e+01 0.0 
3.604719565984e+01 -1.850662876800e+01 0.0 
1.951297136734e+01 -1.938092349694e+01 0.0 
1.821365318472e+01 -1.531276353287e+00 0.0 
2.298031859732e+01 -1.854635324722e+01 0.0 
1.552168066204e+01 -1.764280741977e+01 0.0 
4.572957713638e+01 -1.073347898229e+01 0.0 
3.429637429624e+01 -1.838861552790e+01 0.0 
2.427434426052e+00 -7.705577451869e+00 0.0 
4.662792031485e+00 -3.359424455416e+00 0.0 
4.926794919243e+01 -1.926794919243e+01 0.0 
7.320508075690e-01 -7.320508075688e-01 0.0 
4.926794919243e+01 -1.073205080757e+01 0.0 
7.320508075705e-01 -1.926794919243e+01 0.0 
2.917460242467e+00 -3.202866455310e+00 0.0 
4.838200575963e+01 -1.232674147454e+01 0.0 
2.998445708009e+01 -1.854403752148e+01 0.0 
5.949940090766e-01 -1.152762038165e+01 0.0 
4.844763495759e+01 -1.678092548787e+01 0.0 
1.301685480160e+01 -3.170056592566e+00 0.0 
1.650046335855e+01 -6.731535384067e-01 0.0 
4.854881540991e+01 -1.405224059779e+01 0.0 
2.119545114693e+01 -1.846813384545e+01 0.0 
3.797852849897e+01 -1.857978513215e+01 0.0 
4.649823708745e+01 -1.338351810816e+01 0.0 
2.012685900976e+01 -2.889659035009e+00 0.0 
2.953271913273e+01 -1.791558075192e+01 0.0 
2.408509097292e+00 -1.021949208421e+01 0.0 
2.642589566221e+01 -1.773216561448e+01 0.0 
1.730010270775e+01 -1.763165076721e+01 0.0 
2.017406551304e+01 -8.513536440582e-01 0.0 
5.254761581934e-01 -1.249999999999e+01 0.0 
6.640448215642e+00 -1.545337834885e+00 0.0 
7.843361506349e+00 -1.852719839527e+01 0.0 
1.588442191088e+00 -1.066158564320e+01 0.0 
3.331250000000e+01 -8.420918367347e+00 0.0 
4.951470588234e+01 -8.500000000000e+00 0.0 
3.480610198624e+01 -9.413633635267e+00 0.0 
4.951470588234e+01 -9.500000000000e+00 0.0 

SCALARS node_number int
LOOKUP_TABLE default
1
2
3
4
5
6
7
8
9
10
11
12
13
14
15
16
17
18
19
20
21
22
23
24
25
26
27
28
29
30
31
32
33
34
35
36
37
38
39
40
41
42
43
44
45
46
47
48
49
50
51
52
53
54
55
56
57
58
59
60
61
62
63
64
65
66
67
68
69
70
71
72
73
74
75
76
77
78
79
80
81
82
84
85
86
87
88
89
90
91
92
93
101
102
104
105
106
107
108
109
110
111
112
113
114
115
116
117
118
119
120
121
122
123
124
125
126
127
128
129
130
131
132
133
134
135
136
329
330
331
332
333
334
335
336
337
338
339
340
341
342
343
344
345
346
347
348
349
350
351
352
353
354
355
356
357
358
359
360
361
362
363
364
365
366
367
368
369
370
371
372
373
374
375
376
377
378
379
380
381
382
383
384
385
386
387
388
389
390
391
392
393
394
395
396
397
398
399
400
401
402
403
404
405
406
407
408
409
410
411
412
413
414
415
416
417
418
419
420
421
422
423
424
425
426
427
428
429
430
431
432
433
434
435
436
437
438
439
440
441
442
443
444
445
446
447
448
449
450
451
452
453
454
455
456
457
458
459
460
461
462
463
464
465
466
467
468
469
470
471
472
473
474
475
476
477
478
479
480
481
482
483
484
485
486
487
488
489
490
491
492
493
494
495
496
497
498
499
500
501
502
503
504
505
506
507
508
509
510
511
512
513
514
515
516
517
518
519
520
521
522
523
524
525
526
527
528
529
530
531
532
533
534
535
536
537
538
539
540
541
542
543
544
545
546
547
548
549
550
551
552
553
554
555
556
557
558
559
560
561
562
563
564
565
566
567
568
569
570
571
572
573
574
575
576
577
578
579
580
581
582
583
584
585
586
587
588
589
590
591
592
593
594
595
596
597
598
599
600
601
602
603
604
605
606
607
608
609
610
611
612
613
614
615
616
617
618
619
620
621
622
623
624
625
626
627
628
629
630
631
632
633
634
635
636
637
638
639
640
641
642
643
644
645
646
647
648
649
650
651
652
653
654
655
656
657
658
659
660
661
662
663
664
665
666
667
668
669
670
671
672
673
674
675
676
677
678
679
680
681
682
683
684
685
686
687
688
689
690
691
692
693
694
695
696
697
698
699
700
701
702
703
704
705
706
707
708
709
710
711
712
713
714
715
716
717
718
719
720
721
722
723
724
725
726
727
728
729
730
731
732
733
734
735
736
737
738
739
740
741
742
743
744
745
746
747
748
749
750
751
752
753
754
755
756
757
758
759
760
761
762
763
764
765
766
767
768
769
770
771
772
773
774
775
776
777
778
779
780
781
782
783
784
785
786
787
788
789
790
791
792
793
794
795
796
797
798
799
800
801
802
803
804
805
806
807
808
809
810
811
812
813
814
815
816
817
818
819
820
821
822
823
824
825
826
827
828
829
830
831
832
833
834
835
836
837
838
839
840
841
842
843
844
845
846
847
848
849
850
851
852
853
854
855
856
857
858
859
860
861
862
863
864
865
866
867
868
869
870
871
872
873
874
875
876
877
878
879
880
881
882
883
884
885
886
887
888
889
890
891
892
893
894
895
896
897
898
899
900
901
902
903
904
905
906
907
908
909
910
911
912
913
914
915
916
917
918
919
920
921
922
923
924
925
926
927
928
929
930
931
932
933
934
935
936
937
938
939
940
941
942
943
944
945
946
947
948
949
950
951
952
953
954
955
956
957
958
959
960
961
962
963
964
965
966
967
968
969
970
971
972
973
974
975
976
977
978
979
980
981
982
983
984
985
986
987
988
989
990
991
992
993
994
995
996
997
998
999
1000
1001
1002
1003
1004
1005
1006
1007
1008
1009
1010
1011
1012
1013
1014
1015
1016
1017
1018
1019
1020
1021
1022
1023
1024
1025
1026
1027
1028
1029
1030
1031
1032
1033
1034
1035
1036
1037
1038
1039
1040
1041
1042
1043
1044
1045
1046
1047
1048
1049
1050
1051
1052
1053
1054
1055
1056
1057
1058
1059
1060
1061
1062
1063
1064
1065
1066
1067
1068
1069
1070
1071
1072
1073
1074
1075
1076
1077
1078
1079
1080
1081
1082
1083
1084
1085
1086
1087
1088
1089
1090
1091
1092
1093
1094
1095
1096
1097
1098
1099
1100
1101
1102
1103
1104
1105
1106
1107
1108
1109
1110
1111
1112
1113
1114
1115
1116
1117
1118
1119
1120
1121
1122
1123
1124
1125
1126
1127
1128
1129
1130
1131
1132
1133
1134
1135
1136
1137
1138
1139
1140
1141
1142
1143
1144
1145
1146
1147
1148
1149
1150
1151
1152
1153
1154
1155
1156
1157
1158
1159
1160
1161
1162
1163
1164
1165
1166
1167
1168
1169
1170
1171
1172
1173
1174
1175
1176
1177
1178
1179
1180
1181
1182
1183
1184
1185
1186
1187
1188
1189
1190
1191
1192
1193
1194
1195
1196
1197
1198
1199
1200
1201
1202
1203
1204
1205
1206
1207
1208
1209
1210
1211
1212
1213
1214
1215
1216
1217
1218
1219
1220
1221
1222
1223
1224
1225
1226
1227
1228
1229
1230
1231
1232
1233
1234
1235
1236
1237
1238
1239
1240
1241
1242
1243
1244
1245
1246
1247
1248
1249
1250
1251
1252
1253
1254
1255
1256
1257
1258
1259
1260
1261
1262
1263
1264
1281
1282
1283
1284

VECTORS node_mesh_deformation float
0.0 1.161906955903e-02 0.0 
0.000000000000e+00 2.128251055713e-02 0.0 
0.0 0.000000000000e+00 0.0 
0.000000000000e+00 0.000000000000e+00 0.0 
0.0 1.160673955807e-02 0.0 
0.0 1.153835909899e-02 0.0 
0.0 1.141455139905e-02 0.0 
0.0 1.123519909434e-02 0.0 
0.0 1.099873585921e-02 0.0 
0.0 1.070624435650e-02 0.0 
0.0 1.035755207057e-02 0.0 
0.0 9.951617250137e-03 0.0 
0.0 9.487618330185e-03 0.0 
0.0 8.963879328061e-03 0.0 
0.0 8.377658569254e-03 0.0 
0.0 7.727024094047e-03 0.0 
0.0 7.011106605187e-03 0.0 
0.0 6.231603331797e-03 0.0 
0.0 5.380334431573e-03 0.0 
0.0 4.456744837221e-03 0.0 
0.0 3.459390892946e-03 0.0 
0.0 2.384640345376e-03 0.0 
0.0 1.229988114677e-03 0.0 
0.000000000000e+00 0.000000000000e+00 0.0 
0.000000000000e+00 0.000000000000e+00 0.0 
0.000000000000e+00 0.000000000000e+00 0.0 
0.000000000000e+00 0.000000000000e+00 0.0 
0.000000000000e+00 0.000000000000e+00 0.0 
0.000000000000e+00 0.000000000000e+00 0.0 
0.000000000000e+00 0.000000000000e+00 0.0 
0.000000000000e+00 0.000000000000e+00 0.0 
0.000000000000e+00 0.000000000000e+00 0.0 
0.000000000000e+00 0.000000000000e+00 0.0 
0.000000000000e+00 0.000000000000e+00 0.0 
0.000000000000e+00 0.000000000000e+00 0.0 
0.000000000000e+00 0.000000000000e+00 0.0 
0.000000000000e+00 0.000000000000e+00 0.0 
0.000000000000e+00 0.000000000000e+00 0.0 
0.000000000000e+00 0.000000000000e+00 0.0 
0.000000000000e+00 0.000000000000e+00 0.0 
0.000000000000e+00 0.000000000000e+00 0.0 
0.000000000000e+00 0.000000000000e+00 0.0 
0.000000000000e+00 0.000000000000e+00 0.0 
0.000000000000e+00 0.000000000000e+00 0.0 
0.000000000000e+00 0.000000000000e+00 0.0 
0.000000000000e+00 0.000000000000e+00 0.0 
0.000000000000e+00 0.000000000000e+00 0.0 
0.000000000000e+00 0.000000000000e+00 0.0 
0.000000000000e+00 0.000000000000e+00 0.0 
0.000000000000e+00 0.000000000000e+00 0.0 
0.000000000000e+00 0.000000000000e+00 0.0 
0.000000000000e+00 0.000000000000e+00 0.0 
0.000000000000e+00 0.000000000000e+00 0.0 
0.000000000000e+00 0.000000000000e+00 0.0 
0.000000000000e+00 0.000000000000e+00 0.0 
0.000000000000e+00 0.000000000000e+00 0.0 
0.000000000000e+00 0.000000000000e+00 0.0 
0.000000000000e+00 0.000000000000e+00 0.0 
0.000000000000e+00 0.000000000000e+00 0.0 
0.000000000000e+00 0.000000000000e+00 0.0 
0.000000000000e+00 0.000000000000e+00 0.0 
0.000000000000e+00 0.000000000000e+00 0.0 
0.000000000000e+00 0.000000000000e+00 0.0 
0.000000000000e+00 0.000000000000e+00 0.0 
0.000000000000e+00 0.000000000000e+00 0.0 
0.000000000000e+00 0.000000000000e+00 0.0 
0.000000000000e+00 0.000000000000e+00 0.0 
0.000000000000e+00 0.000000000000e+00 0.0 
0.000000000000e+00 0.000000000000e+00 0.0 
0.000000000000e+00 0.000000000000e+00 0.0 
0.000000000000e+00 0.000000000000e+00 0.0 
0.000000000000e+00 0.000000000000e+00 0.0 
0.000000000000e+00 1.941561919963e-02 0.0 
0.000000000000e+00 1.748609627816e-02 0.0 
0.000000000000e+00 1.549456277365e-02 0.0 
0.000000000000e+00 1.344409786114e-02 0.0 
0.000000000000e+00 1.133525536463e-02 0.0 
0.000000000000e+00 9.171077977959e-03 0.0 
0.000000000000e+00 6.953393642856e-03 0.0 
0.000000000000e+00 4.684302775598e-03 0.0 
0.000000000000e+00 2.366317333266e-03 0.0 
-1.570528714062e-03 1.531781491881e-02 0.0 
2.076276630703e-03 2.056777358181e-02 0.0 
-1.133347306929e-03 1.657729324852e-02 0.0 
-6.913277333567e-04 1.796034058858e-02 0.0 
-1.940737624970e-04 1.932367979067e-02 0.0 
3.374326323815e-04 2.055734014139e-02 0.0 
8.744379443790e-04 2.158153510635e-02 0.0 
1.384559076907e-03 2.232609160901e-02 0.0 
1.813410570183e-03 2.270375946286e-02 0.0 
2.031419256099e-03 2.261119067969e-02 0.0 
2.130596354661e-03 2.181940147254e-02 0.0 
0.000000000000e+00 2.482577243421e-02 0.0 
0.000000000000e+00 2.308644731069e-02 0.0 
1.234107684454e-04 2.128429036338e-02 0.0 
2.459223884586e-04 2.128900125234e-02 0.0 
3.695136588959e-04 2.129435994287e-02 0.0 
4.937346471294e-04 2.129945593551e-02 0.0 
6.184614593323e-04 2.130562520734e-02 0.0 
7.444276429069e-04 2.130806672378e-02 0.0 
8.727174484093e-04 2.130780797186e-02 0.0 
1.001648868282e-03 2.129935867805e-02 0.0 
1.135404265526e-03 2.128265144405e-02 0.0 
1.273182592207e-03 2.124920239509e-02 0.0 
1.415337990593e-03 2.119420699980e-02 0.0 
1.564327096389e-03 2.111068894139e-02 0.0 
1.721848495492e-03 2.098752833363e-02 0.0 
1.890713419556e-03 2.081120292712e-02 0.0 
-1.427661116868e-03 1.462255364326e-02 0.0 
-1.245349336298e-03 1.404284742904e-02 0.0 
-1.057002590020e-03 1.356279257813e-02 0.0 
-8.775677042276e-04 1.316995108073e-02 0.0 
-7.172079568516e-04 1.285072151586e-02 0.0 
-5.736694427974e-04 1.258894237510e-02 0.0 
-4.474446506499e-04 1.237536540487e-02 0.0 
-3.397559535792e-04 1.220226268669e-02 0.0 
-2.490419832508e-04 1.206336722970e-02 0.0 
-1.742319771854e-04 1.195402400436e-02 0.0 
-1.157431702641e-04 1.186582181108e-02 0.0 
-6.798625505322e-05 1.180003413328e-02 0.0 
-3.063474397269e-05 1.174603441895e-02 0.0 
-7.196886176786e-06 1.170404849187e-02 0.0 
6.094835923953e-06 1.167390860041e-02 0.0 
1.364510797286e-05 1.165220363291e-02 0.0 
1.625887672274e-05 1.163648079514e-02 0.0 
1.482316831702e-05 1.162620044794e-02 0.0 
7.194689006340e-06 1.161939557200e-02 0.0 
1.328642064351e-04 2.483194736087e-02 0.0 
2.547754074129e-04 2.483306265568e-02 0.0 
3.769254372656e-04 2.483793027995e-02 0.0 
4.987158188783e-04 2.484363783333e-02 0.0 
6.191493892658e-04 2.484871866377e-02 0.0 
7.374700323766e-04 2.485175489570e-02 0.0 
8.527896645916e-04 2.485075701776e-02 0.0 
9.643846524199e-04 2.484250603781e-02 0.0 
1.071777523663e-03 2.482385234582e-02 0.0 
1.173946949841e-03 2.479033626542e-02 0.0 
1.270177473764e-03 2.473550977390e-02 0.0 
1.360553137744e-03 2.465171070043e-02 0.0 
1.445658518442e-03 2.452937591164e-02 0.0 
1.527219369827e-03 2.435617490629e-02 0.0 
1.608858975821e-03 2.411488024785e-02 0.0 
1.698838903437e-03 2.378313610416e-02 0.0 
1.796431865493e-03 2.331994977384e-02 0.0 
1.956682912329e-03 2.221500473883e-02 0.0 
1.811353229797e-03 2.249965631249e-02 0.0 
1.673701532496e-03 2.270230996469e-02 0.0 
1.546606014770e-03 2.284951931830e-02 0.0 
1.425138141720e-03 2.295255759958e-02 0.0 
1.306408381950e-03 2.302233010253e-02 0.0 
1.189013392064e-03 2.306757700403e-02 0.0 
1.072015330479e-03 2.309435647529e-02 0.0 
9.545005170182e-04 2.310789632794e-02 0.0 
8.369379058522e-04 2.311363959987e-02 0.0 
7.186910426924e-04 2.311289611448e-02 0.0 
6.002639698792e-04 2.310925817789e-02 0.0 
4.811597315992e-04 2.310366848259e-02 0.0 
3.619432777668e-04 2.309824669791e-02 0.0 
2.423160008433e-04 2.309280833946e-02 0.0 
1.209820167176e-04 2.308428656396e-02 0.0 
-1.341792928866e-03 1.591979810216e-02 0.0 
-9.166624471355e-04 1.726307498047e-02 0.0 
-4.446955521864e-04 1.865298394616e-02 0.0 
7.335197580005e-05 1.996261270322e-02 0.0 
6.135239846081e-04 2.110655545499e-02 0.0 
1.141700126336e-03 2.200131979911e-02 0.0 
1.617863154628e-03 2.256585375520e-02 0.0 
1.968363534736e-03 2.272551126130e-02 0.0 
2.106173695942e-03 2.228148032740e-02 0.0 
2.124924139238e-03 2.123479859789e-02 0.0 
-2.882264967674e-04 1.699528604154e-02 0.0 
4.402189796728e-04 1.213864731074e-03 0.0 
-1.025866368156e-04 1.196760732007e-02 0.0 
-5.186026537594e-04 1.295118712845e-02 0.0 
2.765186236626e-04 1.128530193981e-03 0.0 
7.947254239191e-04 1.934817377466e-02 0.0 
8.885598028185e-05 8.668393705973e-03 0.0 
5.736272526349e-04 1.332335133085e-03 0.0 
1.801122152493e-03 2.090508603755e-02 0.0 
6.472810263887e-04 1.448996711797e-03 0.0 
2.401644197537e-03 2.124615948885e-02 0.0 
1.523675035218e-04 1.007783392541e-03 0.0 
2.562202969525e-05 1.169903411338e-02 0.0 
6.640768443447e-04 1.655011797929e-03 0.0 
2.312723400252e-03 1.955410045303e-02 0.0 
6.124407975794e-05 1.052803995677e-02 0.0 
9.317151565735e-05 6.790421816847e-03 0.0 
6.259807577749e-04 1.865193767109e-03 0.0 
4.445943458649e-04 1.912809543754e-03 0.0 
1.234256891038e-04 2.022031178498e-03 0.0 
2.316325968437e-04 2.180407559486e-03 0.0 
3.141863990592e-04 1.924605351945e-03 0.0 
1.890103173402e-03 1.925048110217e-02 0.0 
1.230593656935e-03 1.957892911217e-02 0.0 
8.118666339101e-04 1.957680624496e-02 0.0 
8.037725841348e-05 1.236506231862e-02 0.0 
9.084126960879e-05 1.079680512461e-03 0.0 
-8.870692493552e-04 1.428562847302e-02 0.0 
3.385506441722e-05 1.162895074837e-02 0.0 
6.459830954209e-05 4.044999118769e-03 0.0 
4.197471609118e-04 1.969132067572e-02 0.0 
3.511617983432e-05 1.133526618782e-02 0.0 
6.051139569436e-04 2.144208413647e-03 0.0 
5.714856159216e-04 1.278541066970e-03 0.0 
6.591259162434e-04 1.528447064874e-03 0.0 
5.429607602281e-04 1.345346383914e-03 0.0 
3.533264191731e-04 1.115446097440e-03 0.0 
-3.071520375375e-04 1.242152290711e-02 0.0 
1.538862427935e-03 1.957949935918e-02 0.0 
2.478089729046e-04 1.265273911098e-03 0.0 
6.068223155609e-05 8.164012534237e-03 0.0 
-2.068917923204e-05 1.179968961736e-02 0.0 
7.967107663909e-05 9.727657341731e-03 0.0 
6.087971374313e-05 1.646415339057e-03 0.0 
1.337179150692e-03 2.015426828832e-02 0.0 
2.409434290449e-04 1.822769918929e-02 0.0 
2.187632629692e-03 2.127561127337e-02 0.0 
2.431707672159e-03 2.066636543954e-02 0.0 
-8.241313583994e-04 1.580703675060e-02 0.0 
9.656834900085e-05 1.626060628846e-02 0.0 
4.163909830668e-05 8.514409403944e-04 0.0 
1.537104441884e-05 1.161363402342e-02 0.0 
3.326646884005e-05 3.705472717073e-03 0.0 
2.243669103528e-03 1.879976508199e-02 0.0 
2.430876407594e-03 1.780539653463e-02 0.0 
2.253187107520e-03 1.721155347083e-02 0.0 
2.457625599185e-03 1.604191818293e-02 0.0 
2.279810643252e-03 1.522871173645e-02 0.0 
2.423560802626e-03 1.418547224735e-02 0.0 
2.620314131974e-03 1.494655494382e-02 0.0 
2.539891216593e-03 1.312415196108e-02 0.0 
2.747344940474e-03 1.385582601659e-02 0.0 
2.211402649017e-03 1.332214718505e-02 0.0 
2.619422587699e-03 1.205764258585e-02 0.0 
2.833464029877e-03 1.276436646290e-02 0.0 
2.658635921943e-03 1.100106898574e-02 0.0 
2.875223624311e-03 1.168584122252e-02 0.0 
3.018556586955e-03 1.337938610496e-02 0.0 
3.060548197148e-03 1.228872510688e-02 0.0 
3.167177838250e-03 1.389465320013e-02 0.0 
3.207341678721e-03 1.279483894620e-02 0.0 
3.057893788895e-03 1.123420862673e-02 0.0 
3.202710561172e-03 1.174061970390e-02 0.0 
3.311185196203e-03 1.320858823563e-02 0.0 
3.303694104936e-03 1.215990358365e-02 0.0 
3.368627213948e-03 1.353131637066e-02 0.0 
3.358602124603e-03 1.249133911945e-02 0.0 
3.379012580076e-03 1.377021442003e-02 0.0 
3.367652244147e-03 1.274675915274e-02 0.0 
3.308385734734e-03 1.150827503787e-02 0.0 
3.317258763335e-03 1.178605162258e-02 0.0 
3.331747111417e-03 1.293128680567e-02 0.0 
3.282371090709e-03 1.199772536673e-02 0.0 
3.253068784048e-03 1.305245553232e-02 0.0 
3.206058465853e-03 1.214980307425e-02 0.0 
3.198976320771e-03 1.112348412578e-02 0.0 
3.126263472847e-03 1.131028072693e-02 0.0 
3.091191237868e-03 1.225177100054e-02 0.0 
3.016764849590e-03 1.145072545857e-02 0.0 
2.941645550546e-03 1.231093189651e-02 0.0 
2.874495448058e-03 1.155102522026e-02 0.0 
2.762194375059e-03 1.233284569048e-02 0.0 
2.702823414275e-03 1.161787226834e-02 0.0 
2.781483819401e-03 1.084182883065e-02 0.0 
2.618828369766e-03 1.095079913981e-02 0.0 
2.506424911900e-03 1.165944236292e-02 0.0 
2.433178336645e-03 1.103804796776e-02 0.0 
2.513205854981e-03 1.033319298633e-02 0.0 
2.339105988764e-03 1.046532711576e-02 0.0 
2.389426004193e-03 9.759022588886e-03 0.0 
2.227799995566e-03 9.933585034325e-03 0.0 
2.150061001615e-03 1.057729915599e-02 0.0 
2.051688141130e-03 1.008721900996e-02 0.0 
2.102846424645e-03 9.435440917191e-03 0.0 
1.939423417612e-03 9.632386958048e-03 0.0 
1.864206841695e-03 1.023059999652e-02 0.0 
1.766947658449e-03 9.811548856209e-03 0.0 
1.817669098577e-03 9.200907550914e-03 0.0 
1.658491177364e-03 9.418286885117e-03 0.0 
1.588925120178e-03 9.981353617867e-03 0.0 
1.494663859246e-03 9.621870601290e-03 0.0 
1.543261272719e-03 9.036871947190e-03 0.0 
1.391783504946e-03 9.278242079768e-03 0.0 
1.328850825747e-03 9.817543120521e-03 0.0 
1.239443656024e-03 9.503984710541e-03 0.0 
1.283361130973e-03 8.940123274273e-03 0.0 
1.142644378261e-03 9.199623575704e-03 0.0 
1.169769504722e-03 8.609122127968e-03 0.0 
1.086114724732e-03 9.725356771636e-03 0.0 
1.002089825686e-03 9.447411729969e-03 0.0 
9.363483976212e-04 9.940665816934e-03 0.0 
8.645073645948e-04 9.684965741656e-03 0.0 
3.085484956220e-03 1.030483658494e-02 0.0 
7.950960015854e-04 1.014343016019e-02 0.0 
8.497617919314e-04 1.036935193831e-02 0.0 
7.328311662889e-04 9.911657886311e-03 0.0 
7.850593354615e-04 9.428845390893e-03 0.0 
6.624166892921e-04 1.033617425113e-02 0.0 
6.086771295788e-04 1.012671962723e-02 0.0 
5.402266394325e-04 1.051869890949e-02 0.0 
2.784191225832e-03 1.313733270899e-02 0.0 
3.011740399579e-03 1.022014900050e-02 0.0 
4.937347996465e-04 1.033022802123e-02 0.0 
4.301042027661e-04 1.069036633486e-02 0.0 
4.597413539917e-04 1.085550901110e-02 0.0 
3.574922072582e-04 1.099561405594e-02 0.0 
2.080778827647e-03 1.436308562918e-02 0.0 
1.986375148761e-03 1.239005428510e-02 0.0 
1.874208050488e-03 1.342791442385e-02 0.0 
1.752544025216e-03 1.140656748525e-02 0.0 
1.659455564159e-03 1.242456256289e-02 0.0 
3.325356024169e-04 1.085040596422e-02 0.0 
2.415161892635e-03 1.018241866318e-02 0.0 
1.822549621508e-03 1.036126064502e-02 0.0 
3.335126495621e-03 1.463012551692e-02 0.0 
3.263133902792e-03 1.402201414846e-02 0.0 
2.530439288645e-03 9.561982931228e-03 0.0 
5.462339264231e-04 9.914014411784e-03 0.0 
4.377888673028e-04 1.013763971035e-02 0.0 
4.763789921940e-04 9.696410598925e-03 0.0 
1.294931571481e-03 8.309025281269e-03 0.0 
1.166086334107e-03 7.953744276305e-03 0.0 
1.271902182804e-03 7.610030249301e-03 0.0 
1.130604183771e-03 7.231045428377e-03 0.0 
1.213403002575e-03 6.842057135426e-03 0.0 
1.062929475722e-03 6.438790765589e-03 0.0 
9.913376843738e-04 6.853035493510e-03 0.0 
9.172891585330e-04 6.034526762335e-03 0.0 
8.556577910532e-04 6.473076617427e-03 0.0 
1.119286062654e-03 6.003359614656e-03 0.0 
1.281272516993e-03 6.431873397565e-03 0.0 
7.779708781133e-04 5.627521649494e-03 0.0 
7.249859806047e-04 6.088433515819e-03 0.0 
6.462978265738e-04 5.214819680925e-03 0.0 
6.007006038375e-04 5.697469484552e-03 0.0 
6.591379401408e-04 6.529369580212e-03 0.0 
5.417071397504e-04 6.159671859532e-03 0.0 
5.833329948128e-04 6.950746322477e-03 0.0 
2.379552160612e-03 8.985400364505e-03 0.0 
2.483993554570e-03 8.721513024030e-03 0.0 
2.308567126434e-03 8.142397108692e-03 0.0 
2.372339917518e-03 7.810369208656e-03 0.0 
2.175588220720e-03 7.227897185359e-03 0.0 
2.195068433068e-03 6.827660623726e-03 0.0 
1.979925826792e-03 6.240240382420e-03 0.0 
1.972705559361e-03 6.671961975055e-03 0.0 
2.656693333634e-03 9.949876851399e-03 0.0 
2.291089939284e-03 1.167873346380e-02 0.0 
2.328547833741e-03 1.230505741218e-02 0.0 
2.087969951123e-03 1.225798994690e-02 0.0 
2.086296483125e-03 1.288734814002e-02 0.0 
1.825367406184e-03 1.277508937958e-02 0.0 
1.780794786928e-03 1.341041044189e-02 0.0 
1.503960378930e-03 1.323539848947e-02 0.0 
1.561922459690e-03 1.265709947606e-02 0.0 
1.229790869044e-03 1.306072556601e-02 0.0 
1.300989125543e-03 1.254132315568e-02 0.0 
9.653461275114e-04 1.289183744397e-02 0.0 
1.048040745378e-03 1.243411713495e-02 0.0 
3.221556437587e-03 1.058208561130e-02 0.0 
2.403332922302e-03 7.441842079233e-03 0.0 
2.178200436965e-03 6.387283311902e-03 0.0 
2.396834128469e-03 7.031068750313e-03 0.0 
3.701193706034e-04 1.113802637873e-02 0.0 
4.838701115109e-04 5.298290816677e-03 0.0 
1.156628402651e-03 5.543956191408e-03 0.0 
1.330775336493e-03 6.005685491273e-03 0.0 
1.761924464642e-03 5.675276439064e-03 0.0 
2.696491663228e-04 1.112438814793e-02 0.0 
1.413978989618e-03 1.387788927433e-02 0.0 
1.699411807721e-03 1.411640115624e-02 0.0 
1.516706067171e-03 1.035606600874e-02 0.0 
1.443550781659e-03 1.136709828102e-02 0.0 
1.170963755369e-03 5.059404586927e-03 0.0 
2.478733179716e-04 1.099771751965e-02 0.0 
8.147999901489e-04 5.144991257055e-03 0.0 
8.484359301946e-04 1.340983630210e-02 0.0 
4.303164844126e-04 5.781673984988e-03 0.0 
3.754830934444e-04 4.890345405441e-03 0.0 
9.081025086566e-04 7.245923133191e-03 0.0 
2.120966160632e-03 5.901664493798e-03 0.0 
2.354030266261e-03 6.590938129595e-03 0.0 
1.344998233424e-03 1.207433169018e-02 0.0 
1.103832470985e-03 1.202437928768e-02 0.0 
8.098344698730e-04 1.233770515254e-02 0.0 
8.855164585917e-04 1.196542730820e-02 0.0 
1.136961954872e-03 1.164818849346e-02 0.0 
9.244993090523e-04 1.165093959061e-02 0.0 
6.798665745986e-04 1.193063254349e-02 0.0 
7.299966396719e-04 1.165858759068e-02 0.0 
9.450283381529e-04 1.135591709867e-02 0.0 
7.617371239448e-04 1.140306490740e-02 0.0 
5.559622092317e-04 1.167311668004e-02 0.0 
5.976962110346e-04 1.145198213424e-02 0.0 
4.105793426206e-04 4.363799848196e-03 0.0 
5.873822067777e-04 1.318867583555e-02 0.0 
3.080291344578e-03 1.502904544117e-02 0.0 
9.936241572532e-04 4.581215138007e-03 0.0 
1.725614578390e-03 5.192863745307e-03 0.0 
1.283297011881e-03 9.255765649325e-03 0.0 
1.229966495494e-03 1.026384478878e-02 0.0 
1.353626170676e-03 1.237134392236e-02 0.0 
1.159110021689e-03 1.126088387517e-02 0.0 
1.022564436759e-03 9.119857451491e-03 0.0 
9.704829684978e-04 1.011866125179e-02 0.0 
1.075707742878e-03 1.224566914832e-02 0.0 
9.042926527982e-04 1.110451011060e-02 0.0 
9.836432091745e-04 1.321326375623e-02 0.0 
8.276824633597e-04 1.207493932919e-02 0.0 
7.408665139153e-04 9.935736128224e-03 0.0 
6.787303286160e-04 1.091399840294e-02 0.0 
7.436364584663e-04 1.303103114491e-02 0.0 
6.071427638048e-04 1.187855113014e-02 0.0 
6.541587634814e-04 1.397092215431e-02 0.0 
5.281056110107e-04 1.282857180313e-02 0.0 
4.793697631555e-04 1.070648918435e-02 0.0 
1.990322257557e-04 1.123194635509e-02 0.0 
1.767519148768e-03 6.138233048313e-03 0.0 
1.544390251357e-03 5.127678165499e-03 0.0 
3.763098180860e-04 9.938582834129e-03 0.0 
4.043273149650e-04 9.471697505116e-03 0.0 
5.035912133771e-04 9.195876864585e-03 0.0 
4.159982897827e-04 8.946795333282e-03 0.0 
4.086475070935e-04 1.167757374497e-02 0.0 
3.620566909461e-04 9.518338268908e-03 0.0 
1.288301871845e-03 1.459290170436e-02 0.0 
1.577095160560e-03 1.490049697509e-02 0.0 
1.313687120231e-03 8.238593680236e-03 0.0 
3.258658065231e-04 5.394194238153e-03 0.0 
3.657106250046e-04 6.244313392761e-03 0.0 
3.142050035294e-03 1.404840230504e-02 0.0 
3.108006810159e-03 1.505207227087e-02 0.0 
2.947092450025e-03 1.498807073931e-02 0.0 
2.856181569033e-03 1.604344913607e-02 0.0 
3.027013064102e-03 1.613160784039e-02 0.0 
2.655098358616e-03 1.588930905029e-02 0.0 
1.448324457991e-03 6.877961544644e-03 0.0 
5.883884601161e-04 8.744626271973e-03 0.0 
4.771116780731e-04 1.101922747075e-02 0.0 
3.684447729748e-04 1.127974094949e-02 0.0 
2.767630180718e-04 4.471878345772e-03 0.0 
1.933871562652e-03 7.071497844963e-03 0.0 
3.167005456810e-03 1.021111407162e-02 0.0 
3.044747986838e-03 9.312689974632e-03 0.0 
2.942933990266e-03 8.849363582756e-03 0.0 
2.785885962638e-03 7.978283940670e-03 0.0 
2.634755364486e-03 7.423513005888e-03 0.0 
2.442832716000e-03 6.578769849536e-03 0.0 
2.599779543520e-03 7.152446815297e-03 0.0 
2.018549872059e-03 5.359843720015e-03 0.0 
2.223880693634e-03 5.771200077589e-03 0.0 
4.505174474474e-04 1.378310172381e-02 0.0 
2.601832369468e-03 8.097598545856e-03 0.0 
9.466801177140e-04 1.108078364357e-02 0.0 
2.082092037066e-04 1.133580527904e-02 0.0 
4.003206775902e-04 1.169667679443e-02 0.0 
1.766466027529e-04 1.112991668540e-02 0.0 
2.152783868565e-04 1.086505003812e-02 0.0 
9.701691037645e-04 4.041670787668e-03 0.0 
2.239887725683e-03 5.933424296174e-03 0.0 
2.438698265962e-03 6.796292918704e-03 0.0 
2.716039832318e-03 1.717790358503e-02 0.0 
2.895619724985e-03 1.728457408757e-02 0.0 
1.770523566197e-03 4.696829866162e-03 0.0 
1.743025870148e-03 1.446454681926e-02 0.0 
1.143557976391e-03 1.432580562178e-02 0.0 
1.031556565536e-03 1.527019948561e-02 0.0 
1.372129695514e-04 1.135538800108e-02 0.0 
3.402306632427e-04 1.188893962958e-02 0.0 
8.257268494560e-04 7.944489271861e-03 0.0 
1.975399073590e-03 1.435479463619e-02 0.0 
1.859807906147e-03 1.519885650130e-02 0.0 
4.234674602976e-04 1.370386321442e-02 0.0 
1.718438308345e-04 1.343262438864e-02 0.0 
3.034021882016e-04 1.047753760501e-02 0.0 
2.601968875382e-04 8.310901477078e-03 0.0 
5.161133786231e-04 8.635776856201e-03 0.0 
4.203768619684e-04 8.359606575574e-03 0.0 
1.158120208240e-03 4.543032849810e-03 0.0 
4.548265008975e-04 1.150032655910e-02 0.0 
2.998113638455e-04 7.311310834684e-03 0.0 
1.741447341688e-03 6.566344542154e-03 0.0 
1.867461088830e-03 7.441249250492e-03 0.0 
3.185791049085e-04 9.243295664609e-03 0.0 
1.115944381333e-03 1.539076457981e-02 0.0 
8.236122390883e-04 1.501469905110e-02 0.0 
1.134020883567e-03 1.099702180375e-02 0.0 
6.193599584865e-04 1.124391828127e-02 0.0 
1.458542063606e-04 1.101452540954e-02 0.0 
9.149915588331e-04 3.469386414192e-03 0.0 
8.408323128393e-04 6.933154455840e-03 0.0 
2.389846283137e-03 6.369885901121e-03 0.0 
2.712085717125e-03 7.666008348631e-03 0.0 
1.983878116167e-03 5.003939369022e-03 0.0 
2.827119888096e-04 1.170554483862e-02 0.0 
7.928754239792e-04 3.540124137860e-03 0.0 
2.300050052590e-04 4.996314178596e-03 0.0 
2.012616833433e-03 5.290612388745e-03 0.0 
2.199090908569e-03 6.095987815183e-03 0.0 
2.237912686923e-03 1.458059565983e-02 0.0 
2.139273773995e-03 1.547500457033e-02 0.0 
1.700401173547e-03 1.613008558688e-02 0.0 
1.985138032374e-03 1.646075258397e-02 0.0 
2.796114381169e-03 1.562491782185e-02 0.0 
2.489399804904e-03 1.477575594304e-02 0.0 
3.190701172127e-03 1.545524601115e-02 0.0 
3.059659390285e-03 1.663391710225e-02 0.0 
3.126098141401e-03 1.696974185137e-02 0.0 
3.152415316194e-03 1.616576308963e-02 0.0 
3.027014948287e-03 1.733965786497e-02 0.0 
2.336087832010e-03 1.299453907446e-02 0.0 
2.646886489252e-03 9.337405449674e-03 0.0 
6.098497201350e-04 8.904343582662e-03 0.0 
6.984515458743e-04 7.289070830243e-03 0.0 
1.413534931048e-03 7.992598853267e-03 0.0 
6.236441322045e-04 7.746628903359e-03 0.0 
4.715542820861e-04 6.525354203365e-03 0.0 
7.855546131523e-04 1.509331501660e-02 0.0 
6.830014545756e-04 1.600672373872e-02 0.0 
2.751949185829e-04 1.136718463272e-02 0.0 
2.565265300980e-04 1.148766179638e-02 0.0 
1.053031192097e-03 8.281097200529e-03 0.0 
8.260363628754e-04 4.104146592763e-03 0.0 
1.066927058218e-03 7.098494697395e-03 0.0 
1.048560543708e-03 6.076531999323e-03 0.0 
1.315318256246e-03 7.212974041501e-03 0.0 
1.113332452594e-03 3.992279696586e-03 0.0 
2.063844431888e-03 1.168428500002e-02 0.0 
2.216819925181e-03 8.444383746445e-03 0.0 
3.480487762246e-04 1.299334728940e-02 0.0 
3.114542991501e-03 1.003713400175e-02 0.0 
1.805609938259e-04 1.154313132307e-02 0.0 
2.828473351045e-03 9.632470105977e-03 0.0 
1.892106612389e-04 4.042557810166e-03 0.0 
2.189369711059e-04 3.474976085680e-03 0.0 
1.612521176547e-03 4.084074440087e-03 0.0 
2.552933780592e-03 1.846978533947e-02 0.0 
2.969482332894e-03 9.237067405390e-03 0.0 
2.946533133979e-03 9.541565278525e-03 0.0 
2.949904525988e-03 1.818603935643e-02 0.0 
2.967647038453e-03 1.843016014980e-02 0.0 
3.143655516762e-03 1.719663169296e-02 0.0 
2.932825345770e-03 1.857243443889e-02 0.0 
1.105653193374e-03 1.070700918074e-02 0.0 
9.304696574812e-04 1.082529234091e-02 0.0 
1.738729601680e-03 4.332581532498e-03 0.0 
1.776928367732e-03 4.368342506407e-03 0.0 
1.736148249101e-03 4.545740454070e-03 0.0 
1.917622442416e-03 5.309808988780e-03 0.0 
1.346922493838e-03 3.419343805952e-03 0.0 
1.516895599334e-03 4.055467624024e-03 0.0 
1.725546825511e-04 1.072470144433e-02 0.0 
2.715652892459e-03 1.849171821696e-02 0.0 
6.402210698084e-04 5.722835358803e-03 0.0 
2.883306550263e-03 1.783185106782e-02 0.0 
6.337081158474e-04 3.066070524209e-03 0.0 
6.708422370743e-04 3.626574234040e-03 0.0 
-5.001155894391e-05 1.319672930237e-02 0.0 
1.396071176494e-04 1.278259745789e-02 0.0 
2.053308715944e-04 6.124802316009e-03 0.0 
1.493795710914e-03 1.713586450769e-02 0.0 
1.770606938194e-03 1.752192138332e-02 0.0 
1.203705565693e-03 1.670794483533e-02 0.0 
2.851710035767e-05 1.824908876682e-03 0.0 
1.815730666905e-04 1.970680736005e-02 0.0 
1.418871425796e-04 3.014525106479e-03 0.0 
3.235873360065e-03 1.612759115385e-02 0.0 
2.213955719697e-04 5.014869112237e-03 0.0 
2.803476103718e-03 8.491242050626e-03 0.0 
2.979257191488e-03 1.403783247815e-02 0.0 
1.355048979752e-03 5.049098612400e-03 0.0 
1.664495382130e-04 7.319123075316e-03 0.0 
1.233895044805e-04 4.826288204526e-03 0.0 
1.174772703351e-03 1.631947551925e-02 0.0 
1.052840564881e-03 1.727080880652e-02 0.0 
1.304274949128e-03 1.540620655246e-02 0.0 
7.032457265765e-04 1.399366463101e-02 0.0 
1.753978463377e-04 1.437878449722e-02 0.0 
4.495100358994e-04 7.533209169264e-03 0.0 
3.399925980210e-04 1.034820094890e-02 0.0 
2.792998383754e-04 1.012318634480e-02 0.0 
4.776422410853e-04 1.133321084179e-02 0.0 
6.192746786109e-04 1.105451484411e-02 0.0 
6.178642660757e-04 8.312171447500e-03 0.0 
7.190525225225e-04 8.600074466420e-03 0.0 
2.738060360368e-03 8.646157211812e-03 0.0 
2.516759637626e-03 7.985430311770e-03 0.0 
3.067850097171e-03 9.773322847035e-03 0.0 
1.687987643130e-03 6.963978180400e-03 0.0 
1.778083693239e-03 7.784398859670e-03 0.0 
1.942805034378e-03 8.241436032804e-03 0.0 
4.813522736313e-04 5.581285632367e-03 0.0 
3.209862311238e-04 4.144253987789e-03 0.0 
1.290004993693e-03 1.059431487570e-02 0.0 
1.331844736464e-03 1.091863469913e-02 0.0 
1.060230084200e-03 1.044399556084e-02 0.0 
6.168616935440e-04 4.740306750129e-03 0.0 
1.569724086030e-04 2.433803882070e-03 0.0 
2.334783908413e-04 2.924955817530e-03 0.0 
1.484858250720e-04 1.163922069478e-02 0.0 
2.232610848552e-04 1.160827942523e-02 0.0 
6.096533732247e-04 1.581396030846e-02 0.0 
3.093584282041e-04 1.538454237383e-02 0.0 
1.010629340762e-03 5.136812018371e-03 0.0 
1.285731719214e-03 6.202370702880e-03 0.0 
7.216680027895e-04 3.879216260369e-03 0.0 
1.038156877120e-04 1.090654520549e-02 0.0 
2.506685131763e-03 6.888740838786e-03 0.0 
8.464209601318e-04 2.922591595418e-03 0.0 
1.056970621024e-03 3.472369753354e-03 0.0 
6.151986937049e-04 2.243436489021e-03 0.0 
1.884126001016e-03 4.810907508737e-03 0.0 
1.426952227483e-03 3.480645853191e-03 0.0 
1.487925209567e-03 3.567784006258e-03 0.0 
-2.645818480715e-04 1.361129019893e-02 0.0 
9.280690271396e-05 5.764993221412e-03 0.0 
8.068628680604e-04 1.710001677252e-02 0.0 
-4.050990402362e-04 1.337393739563e-02 0.0 
6.945367039179e-04 1.805384722629e-02 0.0 
5.831033333834e-04 1.691760097536e-02 0.0 
5.993432424845e-04 1.898237520012e-02 0.0 
8.798118114650e-05 1.114986430489e-02 0.0 
1.322397856590e-03 1.769498137065e-02 0.0 
1.473099615730e-03 1.653038699382e-02 0.0 
7.512251605490e-05 1.176252614386e-02 0.0 
4.177626294108e-04 3.525193527512e-03 0.0 
9.696330711328e-05 1.165956955758e-02 0.0 
1.272431770198e-04 1.158385816438e-02 0.0 
4.843620548876e-04 2.548594033506e-03 0.0 
5.284081168391e-04 3.140473381237e-03 0.0 
3.510036707493e-04 2.049092160014e-03 0.0 
4.092364724988e-04 2.707544139792e-03 0.0 
5.505578744005e-04 3.728072716630e-03 0.0 
4.274748877755e-04 3.259141811306e-03 0.0 
9.387458852359e-04 1.833764905419e-02 0.0 
2.799636144566e-04 2.053228091491e-03 0.0 
3.160206473147e-04 2.758962404354e-03 0.0 
1.839134927604e-04 1.580138152171e-03 0.0 
2.702497526737e-03 1.986354987732e-02 0.0 
2.228146307022e-03 1.677521570202e-02 0.0 
2.016089581193e-03 1.790310378681e-02 0.0 
1.475407407202e-03 1.872839218964e-02 0.0 
1.303576291910e-03 3.363866385264e-03 0.0 
1.628892737866e-03 4.541114266562e-03 0.0 
1.432651086672e-04 4.567021295435e-03 0.0 
1.640565082159e-04 5.479287786271e-03 0.0 
4.803117258589e-04 1.795956001851e-02 0.0 
3.509810684150e-04 1.803792743925e-02 0.0 
3.845603279515e-04 1.623827720950e-02 0.0 
2.773720264457e-04 1.645707119690e-02 0.0 
2.991636711371e-04 1.464807294504e-02 0.0 
1.923908156272e-04 1.487947455781e-02 0.0 
2.290078484037e-04 1.302725425746e-02 0.0 
1.225255521181e-03 2.862590072226e-03 0.0 
9.148584671586e-04 1.770021244150e-02 0.0 
2.721309946764e-03 1.943903843497e-02 0.0 
1.077707616826e-03 2.771524078604e-03 0.0 
1.297892596536e-03 3.538519178335e-03 0.0 
2.850540663676e-03 1.857014525172e-02 0.0 
2.468479461076e-03 1.979500079843e-02 0.0 
5.256168265753e-04 2.287024951411e-03 0.0 
2.542845435784e-03 1.390630490008e-02 0.0 
3.160318228623e-04 2.246890361892e-03 0.0 
-9.981020086052e-04 1.486006263154e-02 0.0 
-4.237922577417e-04 1.450701756295e-02 0.0 
2.766218364716e-03 1.401632978627e-02 0.0 
3.111125743892e-03 1.731911680005e-02 0.0 
2.480199587424e-03 1.701822456061e-02 0.0 
2.311257714737e-03 1.816286564375e-02 0.0 
1.549176219230e-03 6.061122416755e-03 0.0 
1.676894465739e-04 1.173871582562e-02 0.0 
9.085751271840e-04 1.625994284904e-02 0.0 
3.336670601328e-04 1.282001419780e-02 0.0 
3.384869587890e-04 1.665807929443e-02 0.0 
7.513589621488e-05 4.987851637100e-03 0.0 
2.569083330059e-03 1.308282357651e-02 0.0 
3.311747589002e-03 1.499762117426e-02 0.0 
1.412413113243e-03 1.576091751597e-02 0.0 
2.420363433988e-03 1.569870870901e-02 0.0 
2.931070486785e-03 1.449777976501e-02 0.0 
2.625030547364e-03 1.673684076267e-02 0.0 
2.763195290186e-03 1.736592096018e-02 0.0 
2.554465199555e-03 1.233818604996e-02 0.0 
2.537395784255e-03 1.835453103920e-02 0.0 
2.051881649361e-03 1.945097048666e-02 0.0 
3.274868242254e-03 1.431203565254e-02 0.0 
1.588592930801e-03 8.297734884689e-03 0.0 
1.574211265108e-03 7.263241145971e-03 0.0 
1.227717905103e-03 5.254830226711e-03 0.0 
1.522648439810e-03 6.256037191562e-03 0.0 
1.863951443603e-03 8.278518393169e-03 0.0 
1.826269692231e-03 7.253120798854e-03 0.0 
1.431715473650e-03 5.289497095152e-03 0.0 
1.747496015252e-03 6.251403006246e-03 0.0 
1.193164837172e-03 3.930478534670e-03 0.0 
1.611673274393e-03 5.234123978227e-03 0.0 
2.056310097686e-03 7.200908491537e-03 0.0 
1.950563020586e-03 6.256375414967e-03 0.0 
1.506342872961e-03 4.526504400680e-03 0.0 
2.357582025745e-03 8.176390386373e-03 0.0 
8.613743406976e-04 2.106815797354e-03 0.0 
2.975355699213e-03 1.315057840980e-02 0.0 
-4.504669465177e-05 1.394876812409e-02 0.0 
-1.943138383211e-04 1.495183108429e-02 0.0 
3.347739891019e-03 1.485521526483e-02 0.0 
5.935973157420e-04 1.917278646278e-03 0.0 
4.990027461105e-04 1.947103979187e-03 0.0 
2.048720219499e-03 1.358695590904e-02 0.0 
6.635706692784e-04 1.586110319852e-03 0.0 
2.943757140329e-03 1.619303682289e-02 0.0 
1.125248959543e-03 1.364509146487e-02 0.0 
6.636266352764e-04 1.506342137642e-03 0.0 
1.861586772087e-03 9.313823183144e-03 0.0 
2.129106016227e-03 1.030668358816e-02 0.0 
2.073194528862e-03 1.135266036518e-02 0.0 
3.879013477857e-04 1.853944276689e-03 0.0 
1.432512257225e-03 1.445054330384e-02 0.0 
5.546821382723e-04 1.261404933885e-03 0.0 
2.559371038863e-03 8.425389887961e-03 0.0 
2.733647318319e-03 9.092592908312e-03 0.0 
2.791972223392e-03 1.000378467108e-02 0.0 
2.124943767313e-03 8.240506151536e-03 0.0 
4.684742392236e-04 1.219655032813e-03 0.0 
8.356589896401e-04 2.306810849113e-03 0.0 
7.732237161715e-04 2.264563335288e-03 0.0 
1.156464753954e-03 3.400445064354e-03 0.0 
3.988027456590e-04 1.170487000469e-03 0.0 
5.947447649106e-04 1.650268279857e-03 0.0 
5.859409826705e-04 1.529734183311e-03 0.0 
1.144779363923e-03 1.131093988289e-02 0.0 
1.357901180281e-03 1.126724628064e-02 0.0 
1.537386760383e-03 1.083981977994e-02 0.0 
1.577589465754e-03 1.123036095480e-02 0.0 
1.362982993383e-03 1.165244506762e-02 0.0 
1.596255343273e-03 1.166015239988e-02 0.0 
1.798234456658e-03 1.119766674044e-02 0.0 
1.590874053488e-03 1.213600592903e-02 0.0 
2.107392224978e-03 6.256421921861e-03 0.0 
3.224026359003e-04 1.094456431311e-03 0.0 
1.367081513269e-03 7.249318284545e-03 0.0 
1.521791960130e-03 7.670207041466e-03 0.0 
1.552734187829e-03 8.388145733724e-03 0.0 
6.998931201103e-04 9.167923473068e-03 0.0 
8.174139109629e-04 8.885294436116e-03 0.0 
8.282681658285e-04 8.280458224007e-03 0.0 
5.855491128921e-04 9.439385523647e-03 0.0 
2.891780831607e-03 8.465663562211e-03 0.0 
2.918422875506e-04 1.089921912119e-03 0.0 
2.045226919796e-03 7.930742449570e-03 0.0 
9.121298587154e-04 9.168172916603e-03 0.0 
1.711062816128e-03 1.943395971843e-02 0.0 
1.843371603073e-03 1.772118202833e-02 0.0 
2.029653414553e-03 1.752702701725e-02 0.0 
1.940891741874e-03 1.570349776018e-02 0.0 
1.641531133629e-03 1.762372285138e-02 0.0 
5.155924830120e-04 8.016215051223e-03 0.0 
4.135062011881e-04 7.712904694236e-03 0.0 
3.232490337708e-04 8.075860735520e-03 0.0 
3.125656949723e-04 7.400881295121e-03 0.0 
2.260112807444e-04 7.780962854675e-03 0.0 
2.338741794343e-04 8.407049621059e-03 0.0 
2.117002657731e-04 7.078950422100e-03 0.0 
1.307543586901e-04 7.556234543195e-03 0.0 
1.380137155699e-03 1.960356571567e-02 0.0 
-4.001358812431e-04 1.266142644894e-02 0.0 
-1.070526735170e-04 1.245676773226e-02 0.0 
-6.481305280914e-05 1.224995033451e-02 0.0 
1.291411785509e-04 1.224274103935e-02 0.0 
1.322241222876e-04 1.245401551418e-02 0.0 
3.985577821499e-04 1.217187066369e-02 0.0 
3.772000403579e-04 1.244033255395e-02 0.0 
-1.596614207457e-04 1.272645700592e-02 0.0 
-2.266513077505e-04 1.223566442987e-02 0.0 
-2.217543667271e-05 1.208695862688e-02 0.0 
-1.583155414995e-04 1.208561060807e-02 0.0 
5.430696196740e-06 1.196149570283e-02 0.0 
1.824934683885e-04 1.189794799600e-02 0.0 
3.563515215550e-04 1.141579286420e-02 0.0 
8.060228601803e-05 1.225866905717e-03 0.0 
8.561688812703e-05 9.232567699664e-03 0.0 
1.629499185223e-04 9.490190226218e-03 0.0 
1.496216962682e-04 9.938148799799e-03 0.0 
2.408537657681e-04 9.707378229100e-03 0.0 
1.638124779357e-04 9.016935295218e-03 0.0 
7.113837961437e-05 1.015771083685e-02 0.0 
1.347056600978e-04 1.029813177833e-02 0.0 
2.641614821641e-05 1.161798854399e-02 0.0 
3.483953177374e-05 1.156862965610e-02 0.0 
1.419863145413e-05 1.157127956894e-02 0.0 
3.972503969241e-05 1.147678637326e-02 0.0 
6.384213683974e-05 1.148568017954e-02 0.0 
5.175488831632e-05 1.157518807829e-02 0.0 
6.555392354590e-05 1.158819186372e-02 0.0 
3.681670856359e-05 1.164608038981e-02 0.0 
7.603138630241e-05 1.160655684131e-02 0.0 
1.117740674896e-04 1.150286371417e-02 0.0 
3.467123304457e-05 1.166901988966e-02 0.0 
7.361424479768e-05 1.024647033702e-02 0.0 
1.406333447846e-04 9.171484562540e-03 0.0 
2.494666167383e-04 1.137158713270e-03 0.0 
1.075332592706e-03 1.951345214001e-02 0.0 
-5.391742653593e-05 1.187386112423e-02 0.0 
1.157541256873e-04 2.430147815716e-03 0.0 
1.797171950599e-04 2.013241797453e-03 0.0 
1.444145915315e-04 1.951885041393e-03 0.0 
4.710827599264e-05 2.971015747441e-03 0.0 
7.648210868427e-05 2.443277706071e-03 0.0 
6.198034232341e-05 2.363201687189e-03 0.0 
5.754261285347e-04 1.070485292692e-02 0.0 
1.132067220119e-03 4.338868774003e-03 0.0 
3.262503819670e-04 6.299008853166e-03 0.0 
9.957493910235e-04 1.428796643127e-02 0.0 
7.678551280978e-04 1.094163340129e-02 0.0 
2.604121129055e-04 5.869471545141e-03 0.0 
7.816776188729e-04 6.888941347986e-03 0.0 
3.089813861443e-04 3.933569296400e-03 0.0 
4.721499834091e-04 6.601729459337e-03 0.0 
5.234428120779e-04 4.793438830520e-03 0.0 
7.301609443005e-04 2.299150315334e-03 0.0 
1.203676868164e-04 1.124131184118e-02 0.0 
8.861300692828e-04 1.416207182372e-02 0.0 
5.660605140392e-04 1.490340919461e-02 0.0 
5.395078291386e-04 9.732192838863e-03 0.0 
3.896536561383e-04 1.052192118243e-02 0.0 
3.286099015112e-04 8.658919590600e-03 0.0 
2.800551002871e-04 1.124525068098e-02 0.0 
1.203515401155e-03 2.885490937786e-03 0.0 
3.253552803461e-03 1.578626125279e-02 0.0 
1.421157320866e-03 8.669658304635e-03 0.0 
6.625253103056e-04 9.677279500405e-03 0.0 
7.066112925695e-04 1.054046311307e-02 0.0 
7.743166700482e-04 1.116359701418e-02 0.0 
3.133621632401e-03 1.312153135259e-02 0.0 
1.041239155532e-03 8.895279171727e-03 0.0 
9.633098309454e-04 5.575407684363e-03 0.0 
4.123277876076e-04 8.531675147594e-03 0.0 
1.696481500346e-05 1.173636573025e-02 0.0 
9.900411533064e-04 5.091698021394e-03 0.0 
1.036738975891e-03 7.600423719859e-03 0.0 
1.252500031121e-03 1.336099198843e-02 0.0 
1.952283260920e-03 5.773686432955e-03 0.0 
5.022802450263e-04 1.189583697787e-02 0.0 
7.912816579179e-04 8.948520642754e-03 0.0 
8.083388730142e-04 5.030569024424e-03 0.0 
1.606908867053e-03 1.549395828110e-02 0.0 
1.987457832744e-04 1.144470041728e-02 0.0 
9.214130686317e-04 1.622344829306e-02 0.0 
7.282173606118e-04 2.943349241285e-03 0.0 
1.566951409721e-03 9.327719537021e-03 0.0 
2.966509324231e-04 1.070050967243e-02 0.0 
2.251281406870e-03 9.222400354307e-03 0.0 
3.343042082893e-03 1.392898027577e-02 0.0 
2.393787328195e-03 2.015646566558e-02 0.0 
3.396102158177e-04 5.360728300609e-03 0.0 
3.018701376295e-03 1.053041685175e-02 0.0 
1.493504113785e-03 4.600515822951e-03 0.0 
2.124093747675e-03 7.594024083648e-03 0.0 
2.521237179738e-04 1.053776592948e-02 0.0 
6.848710550553e-04 4.181789057725e-03 0.0 
2.665462807890e-03 1.017835360331e-02 0.0 
6.435163661962e-04 6.752251882755e-03 0.0 
2.796203635896e-03 8.313950753728e-03 0.0 
2.230778250787e-03 1.110648331708e-02 0.0 
1.056344610319e-03 8.113543147825e-03 0.0 
1.687767504388e-03 8.789551421170e-03 0.0 
1.883240360382e-03 5.259421673593e-03 0.0 
3.270027316997e-03 1.600082853537e-02 0.0 
3.254536410253e-03 1.116046912305e-02 0.0 
2.875627873301e-03 1.065022116918e-02 0.0 
3.231529712050e-03 1.088299963285e-02 0.0 
1.775504470629e-04 6.328116744330e-03 0.0 
8.322015129494e-04 4.638726646203e-03 0.0 
7.180929388184e-04 1.274412465705e-02 0.0 
2.741001389076e-03 1.489737841813e-02 0.0 
1.549702219400e-03 1.343960121154e-02 0.0 
2.027661320891e-03 5.159500075766e-03 0.0 
4.582961082065e-04 4.493255348127e-03 0.0 
3.231142321692e-03 1.505745132149e-02 0.0 
6.756679692677e-04 4.712557375411e-03 0.0 
8.376016648342e-04 5.983735434569e-03 0.0 
9.360240191665e-04 8.590239535824e-03 0.0 
4.245724209606e-05 1.111743335856e-02 0.0 
5.371636781035e-04 1.464781592319e-02 0.0 
1.840294767788e-03 1.220000456775e-02 0.0 
2.916209347589e-03 1.070606178908e-02 0.0 
9.350031331543e-04 7.950456444668e-03 0.0 
8.894465277223e-04 3.916039663409e-03 0.0 
5.466341587610e-04 4.273153079737e-03 0.0 
1.355782650521e-03 5.543930150289e-03 0.0 
-5.459790872635e-04 1.638036109576e-02 0.0 
2.662513550185e-03 1.899645410235e-02 0.0 
4.288817388201e-04 3.824599485171e-03 0.0 
2.101724803062e-03 8.718895760680e-03 0.0 
1.645189682780e-03 4.654220915597e-03 0.0 
1.417700042756e-04 8.153201817414e-03 0.0 
1.202187529657e-03 2.832721609202e-03 0.0 
2.627204176463e-03 1.983600458592e-02 0.0 
3.232373739968e-04 3.365909169005e-03 0.0 
1.562467077733e-03 5.608555507543e-03 0.0 
2.306095008109e-03 1.375056525266e-02 0.0 
3.011886717630e-04 1.970935184549e-02 0.0 
2.042030491021e-04 2.114837038953e-03 0.0 
1.320126573141e-03 4.521580358261e-03 0.0 
3.101760734296e-03 9.708716744084e-03 0.0 
1.966358860194e-03 8.969092089275e-03 0.0 
2.444335152752e-03 2.102983450828e-02 0.0 
8.162896445683e-04 7.618554474249e-03 0.0 
3.156028450068e-03 1.073827873156e-02 0.0 
3.365981216845e-04 1.822454518859e-03 0.0 
1.273555291153e-03 4.046502094855e-03 0.0 
2.315415997842e-03 1.231617255651e-02 0.0 
7.188836299585e-04 7.974885846330e-03 0.0 
2.612616778592e-03 7.758716203895e-03 0.0 
8.805207632845e-05 1.149357202196e-02 0.0 
2.737284855431e-03 1.970472211867e-02 0.0 
6.090813273252e-04 7.661260920738e-03 0.0 
1.830234389413e-03 1.167642473430e-02 0.0 
1.822023359940e-03 8.525961383260e-03 0.0 
1.158530171171e-03 2.812831587658e-03 0.0 
5.009469069366e-04 7.339715493423e-03 0.0 
2.017614423131e-03 1.115586671812e-02 0.0 
3.952006677190e-04 7.010047433061e-03 0.0 
2.327729468238e-03 2.128679893861e-02 0.0 
2.382727959017e-03 1.121992998278e-02 0.0 
2.888727837478e-04 6.670550279525e-03 0.0 
2.924114547124e-03 9.249476998610e-03 0.0 
1.356741595488e-04 1.151506765675e-02 0.0 
2.953205406499e-03 8.889269044651e-03 0.0 
1.111010764723e-04 3.533267486048e-03 0.0 
1.002002545741e-03 1.019103223521e-02 0.0 
1.674202309989e-03 8.101270006039e-03 0.0 
2.146614894471e-03 9.262242680377e-03 0.0 
1.998908959479e-03 2.114502797263e-02 0.0 
1.615345772555e-03 7.332533401508e-03 0.0 
2.607797832738e-03 7.708228734579e-03 0.0 
2.780474403391e-03 8.114245528661e-03 0.0 
2.886975740669e-03 9.793716406625e-03 0.0 
1.509260766801e-03 6.479608293599e-03 0.0 
2.306376808523e-03 1.959515585366e-02 0.0 
5.963809544998e-04 1.089038146234e-02 0.0 
4.832045899992e-04 1.117478532058e-02 0.0 
1.950035986713e-03 1.067403072494e-02 0.0 
2.375234844219e-03 7.015794253036e-03 0.0 
7.338810107127e-05 1.135840556073e-02 0.0 
2.404233699661e-03 9.140423751269e-03 0.0 
3.265937338881e-04 1.155930874243e-02 0.0 
1.744845971531e-03 1.076035519721e-02 0.0 
2.257648544685e-03 6.056141539762e-03 0.0 
8.724079350486e-05 1.436345682340e-02 0.0 
1.674177876483e-03 1.035582621277e-02 0.0 
5.067684255677e-05 1.084931023214e-02 0.0 
1.481106129523e-03 1.047945429677e-02 0.0 
2.785346021764e-03 8.806885859359e-03 0.0 
1.411613013042e-03 1.013660396522e-02 0.0 
1.233631753335e-03 1.029128828525e-02 0.0 
2.269086722180e-04 4.115869087471e-03 0.0 
1.165195018197e-03 1.000195728384e-02 0.0 
3.029924017284e-05 1.959324674555e-03 0.0 
3.350547609515e-05 1.114584437744e-03 0.0 
1.136631184266e-04 1.827040427626e-02 0.0 
1.469235842098e-03 2.082362289208e-02 0.0 
-7.586036203620e-04 1.374956613619e-02 0.0 
1.862394279463e-03 1.888752955056e-02 0.0 
8.967160439290e-04 1.059349599931e-02 0.0 
2.611975572645e-03 8.962658259861e-03 0.0 
2.362112613810e-04 1.818301335321e-02 0.0 
7.415631596146e-04 1.074046126608e-02 0.0 
1.116515920177e-03 3.355418969097e-03 0.0 
5.930896128454e-04 1.321630824126e-03 0.0 
1.584818879721e-04 1.119614439637e-02 0.0 
1.426101630862e-03 4.122818051442e-03 0.0 
2.576382352721e-03 7.330869226742e-03 0.0 
4.582687553523e-05 5.988655306318e-03 0.0 
6.946227144766e-04 1.985890487298e-02 0.0 
3.084884703064e-05 1.186098700327e-02 0.0 
8.545011084915e-05 5.884652922715e-03 0.0 
9.378468815626e-04 1.997754620695e-02 0.0 
1.178635979151e-03 1.820984704355e-02 0.0 
6.075374504348e-04 1.719178136388e-02 0.0 
1.962760615051e-04 1.040291668803e-02 0.0 
1.367144715800e-04 1.206790893554e-02 0.0 
5.290893683352e-04 1.879106537263e-02 0.0 
9.144307775202e-04 2.423740146973e-03 0.0 
1.172951185801e-03 1.811939931575e-02 0.0 
2.163949849823e-03 5.630325920325e-03 0.0 
-1.953507137742e-05 1.760477908496e-02 0.0 
5.823095910813e-04 3.906146258036e-03 0.0 
1.144384167091e-03 2.679786870555e-03 0.0 
1.730031232015e-04 9.917634173071e-04 0.0 
1.706688908179e-03 4.211989330440e-03 0.0 
3.542059235784e-05 1.612959170950e-02 0.0 
1.763503853745e-03 1.622170010207e-02 0.0 
1.196989763727e-03 2.947743203862e-03 0.0 
2.155162776418e-04 9.481955239025e-03 0.0 
1.234973528703e-04 9.460172888538e-04 0.0 
1.475796500934e-03 1.821130952044e-02 0.0 
1.371044536711e-04 3.844185176391e-03 0.0 
5.019319339254e-04 1.261924435649e-02 0.0 
6.879279303007e-05 3.732011616041e-03 0.0 
2.251363942115e-03 7.183003657538e-03 0.0 
4.848927810599e-04 1.582101955083e-02 0.0 
2.126411775279e-03 1.602311843074e-02 0.0 
9.248501948056e-05 1.926171046833e-03 0.0 
1.005243602400e-03 3.532824741097e-03 0.0 
-2.460532102759e-04 1.554328349130e-02 0.0 
2.487190274678e-04 1.141083165213e-02 0.0 
3.249820432965e-04 9.707931244357e-03 0.0 
-2.840005298275e-04 1.305486913277e-02 0.0 
4.341613052024e-04 2.074352283362e-03 0.0 
1.817826339483e-03 5.420135994772e-03 0.0 
1.551346337276e-04 1.968997598901e-03 0.0 
1.680232789658e-05 1.148389690140e-02 0.0 
5.781205133459e-05 1.172828709006e-02 0.0 
4.931420597138e-04 1.949767015169e-03 0.0 
1.103684049450e-03 2.944297674876e-03 0.0 
6.383124814953e-04 1.218449881189e-02 0.0 
1.941621887767e-04 1.570703947056e-03 0.0 
-6.308030653024e-04 1.514165474812e-02 0.0 
9.422295240853e-04 2.004892258212e-02 0.0 
7.720361336094e-05 1.163549399740e-02 0.0 
9.822569159379e-05 9.537193052154e-04 0.0 
3.381975933507e-04 3.669590843110e-03 0.0 
2.297637526287e-04 9.259742705417e-03 0.0 
2.063743340877e-03 1.893001671822e-02 0.0 
1.168492846764e-04 1.063467527496e-02 0.0 
1.598178151170e-03 3.883776815940e-03 0.0 
1.385462662604e-04 1.183242914637e-02 0.0 
2.276203806986e-04 3.471912450422e-03 0.0 
5.827128969926e-04 1.944592884627e-03 0.0 
7.060429076304e-04 3.352547271344e-03 0.0 
3.907366362874e-04 9.329248744976e-04 0.0 
-4.761732406742e-04 1.401260364147e-02 0.0 
1.019065120303e-03 2.351910248557e-03 0.0 
1.002028863075e-03 3.091215240570e-03 0.0 
5.235616145498e-04 1.993607571866e-02 0.0 
8.839841832184e-04 3.524814990143e-03 0.0 
2.073411636476e-04 1.008392557003e-02 0.0 
1.600590086426e-04 1.138979986992e-02 0.0 
1.304544244363e-05 1.736267714275e-03 0.0 
6.202748200845e-06 1.161091451243e-02 0.0 
8.832366039258e-05 1.992233721984e-02 0.0 
1.334526686747e-05 9.089043704371e-04 0.0 
9.602572220757e-05 1.139431499258e-02 0.0 
1.876832595400e-04 1.684450606619e-02 0.0 
1.035132189678e-03 2.903454729935e-03 0.0 
6.148801592565e-05 8.044200989382e-03 0.0 
1.066904865894e-04 7.442513281575e-03 0.0 
3.004793918500e-04 1.204486111944e-02 0.0 
-6.927587222130e-04 1.330253471706e-02 0.0 
1.511220756498e-04 1.333673780492e-02 0.0 
9.965093450610e-04 2.351702737588e-03 0.0 
5.457975653869e-04 3.252065523142e-03 0.0 
3.895397850684e-04 1.472118871693e-02 0.0 
1.577356296210e-04 1.497471821598e-02 0.0 
1.431825446588e-03 4.073895272114e-03 0.0 
2.467030051485e-04 8.847637993950e-03 0.0 
1.593984007982e-03 4.017867433667e-03 0.0 
1.148360529157e-03 3.214993623590e-03 0.0 
-1.049387030580e-03 1.539775581555e-02 0.0 
5.534636378846e-05 7.378532589689e-03 0.0 
7.086199764927e-05 1.166664380060e-02 0.0 
2.852877643926e-04 1.823439423855e-03 0.0 
1.637930814109e-04 8.584300699184e-03 0.0 
1.951661555509e-03 2.274662544801e-02 0.0 
6.130447041386e-05 2.396415880007e-02 0.0 
1.998847220747e-03 2.157627735904e-02 0.0 
6.079681267579e-05 2.219242773893e-02 0.0 

VECTORS node_bounda_dof_materi_velocity_x float
1.000000000000e+00 0.0 0.0 
1.000000000000e+00 0.0 0.0 
1.000000000000e+00 0.0 0.0 
1.000000000000e+00 0.0 0.0 
1.000000000000e+00 0.0 0.0 
1.000000000000e+00 0.0 0.0 
1.000000000000e+00 0.0 0.0 
1.000000000000e+00 0.0 0.0 
1.000000000000e+00 0.0 0.0 
1.000000000000e+00 0.0 0.0 
1.000000000000e+00 0.0 0.0 
1.000000000000e+00 0.0 0.0 
1.000000000000e+00 0.0 0.0 
1.000000000000e+00 0.0 0.0 
1.000000000000e+00 0.0 0.0 
1.000000000000e+00 0.0 0.0 
1.000000000000e+00 0.0 0.0 
1.000000000000e+00 0.0 0.0 
1.000000000000e+00 0.0 0.0 
1.000000000000e+00 0.0 0.0 
1.000000000000e+00 0.0 0.0 
1.000000000000e+00 0.0 0.0 
1.000000000000e+00 0.0 0.0 
1.000000000000e+00 0.0 0.0 
1.000000000000e+00 0.0 0.0 
1.000000000000e+00 0.0 0.0 
1.000000000000e+00 0.0 0.0 
1.000000000000e+00 0.0 0.0 
1.000000000000e+00 0.0 0.0 
1.000000000000e+00 0.0 0.0 
1.000000000000e+00 0.0 0.0 
1.000000000000e+00 0.0 0.0 
1.000000000000e+00 0.0 0.0 
1.000000000000e+00 0.0 0.0 
1.000000000000e+00 0.0 0.0 
1.000000000000e+00 0.0 0.0 
1.000000000000e+00 0.0 0.0 
1.000000000000e+00 0.0 0.0 
1.000000000000e+00 0.0 0.0 
1.000000000000e+00 0.0 0.0 
1.000000000000e+00 0.0 0.0 
1.000000000000e+00 0.0 0.0 
1.000000000000e+00 0.0 0.0 
1.000000000000e+00 0.0 0.0 
1.000000000000e+00 0.0 0.0 
1.000000000000e+00 0.0 0.0 
1.000000000000e+00 0.0 0.0 
1.000000000000e+00 0.0 0.0 
1.000000000000e+00 0.0 0.0 
1.000000000000e+00 0.0 0.0 
1.000000000000e+00 0.0 0.0 
1.000000000000e+00 0.0 0.0 
1.000000000000e+00 0.0 0.0 
1.000000000000e+00 0.0 0.0 
1.000000000000e+00 0.0 0.0 
1.000000000000e+00 0.0 0.0 
1.000000000000e+00 0.0 0.0 
1.000000000000e+00 0.0 0.0 
1.000000000000e+00 0.0 0.0 
1.000000000000e+00 0.0 0.0 
1.000000000000e+00 0.0 0.0 
1.000000000000e+00 0.0 0.0 
1.000000000000e+00 0.0 0.0 
1.000000000000e+00 0.0 0.0 
1.000000000000e+00 0.0 0.0 
1.000000000000e+00 0.0 0.0 
1.000000000000e+00 0.0 0.0 
1.000000000000e+00 0.0 0.0 
1.000000000000e+00 0.0 0.0 
1.000000000000e+00 0.0 0.0 
1.000000000000e+00 0.0 0.0 
1.000000000000e+00 0.0 0.0 
1.000000000000e+00 0.0 0.0 
1.000000000000e+00 0.0 0.0 
1.000000000000e+00 0.0 0.0 
1.000000000000e+00 0.0 0.0 
1.000000000000e+00 0.0 0.0 
1.000000000000e+00 0.0 0.0 
1.000000000000e+00 0.0 0.0 
1.000000000000e+00 0.0 0.0 
1.000000000000e+00 0.0 0.0 
0.0 0.0 0.0 
0.0 0.0 0.0 
0.0 0.0 0.0 
0.0 0.0 0.0 
0.0 0.0 0.0 
0.0 0.0 0.0 
0.0 0.0 0.0 
0.0 0.0 0.0 
0.0 0.0 0.0 
0.0 0.0 0.0 
0.0 0.0 0.0 
1.000000000000e+00 0.0 0.0 
1.000000000000e+00 0.0 0.0 
0.0 0.0 0.0 
0.0 0.0 0.0 
0.0 0.0 0.0 
0.0 0.0 0.0 
0.0 0.0 0.0 
0.0 0.0 0.0 
0.0 0.0 0.0 
0.0 0.0 0.0 
0.0 0.0 0.0 
0.0 0.0 0.0 
0.0 0.0 0.0 
0.0 0.0 0.0 
0.0 0.0 0.0 
0.0 0.0 0.0 
0.0 0.0 0.0 
0.0 0.0 0.0 
0.0 0.0 0.0 
0.0 0.0 0.0 
0.0 0.0 0.0 
0.0 0.0 0.0 
0.0 0.0 0.0 
0.0 0.0 0.0 
0.0 0.0 0.0 
0.0 0.0 0.0 
0.0 0.0 0.0 
0.0 0.0 0.0 
0.0 0.0 0.0 
0.0 0.0 0.0 
0.0 0.0 0.0 
0.0 0.0 0.0 
0.0 0.0 0.0 
0.0 0.0 0.0 
0.0 0.0 0.0 
0.0 0.0 0.0 
0.0 0.0 0.0 
0.0 0.0 0.0 
0.0 0.0 0.0 
0.0 0.0 0.0 
0.0 0.0 0.0 
0.0 0.0 0.0 
0.0 0.0 0.0 
0.0 0.0 0.0 
0.0 0.0 0.0 
0.0 0.0 0.0 
0.0 0.0 0.0 
0.0 0.0 0.0 
0.0 0.0 0.0 
0.0 0.0 0.0 
0.0 0.0 0.0 
0.0 0.0 0.0 
0.0 0.0 0.0 
0.0 0.0 0.0 
0.0 0.0 0.0 
0.0 0.0 0.0 
0.0 0.0 0.0 
0.0 0.0 0.0 
0.0 0.0 0.0 
0.0 0.0 0.0 
0.0 0.0 0.0 
0.0 0.0 0.0 
0.0 0.0 0.0 
0.0 0.0 0.0 
0.0 0.0 0.0 
0.0 0.0 0.0 
0.0 0.0 0.0 
0.0 0.0 0.0 
0.0 0.0 0.0 
0.0 0.0 0.0 
0.0 0.0 0.0 
0.0 0.0 0.0 
0.0 0.0 0.0 
0.0 0.0 0.0 
0.0 0.0 0.0 
0.0 0.0 0.0 
0.0 0.0 0.0 
0.0 0.0 0.0 
0.0 0.0 0.0 
0.0 0.0 0.0 
0.0 0.0 0.0 
0.0 0.0 0.0 
0.0 0.0 0.0 
0.0 0.0 0.0 
0.0 0.0 0.0 
0.0 0.0 0.0 
0.0 0.0 0.0 
0.0 0.0 0.0 
0.0 0.0 0.0 
0.0 0.0 0.0 
0.0 0.0 0.0 
0.0 0.0 0.0 
0.0 0.0 0.0 
0.0 0.0 0.0 
0.0 0.0 0.0 
0.0 0.0 0.0 
0.0 0.0 0.0 
0.0 0.0 0.0 
0.0 0.0 0.0 
0.0 0.0 0.0 
0.0 0.0 0.0 
0.0 0.0 0.0 
0.0 0.0 0.0 
0.0 0.0 0.0 
0.0 0.0 0.0 
0.0 0.0 0.0 
0.0 0.0 0.0 
0.0 0.0 0.0 
0.0 0.0 0.0 
0.0 0.0 0.0 
0.0 0.0 0.0 
0.0 0.0 0.0 
0.0 0.0 0.0 
0.0 0.0 0.0 
0.0 0.0 0.0 
0.0 0.0 0.0 
0.0 0.0 0.0 
0.0 0.0 0.0 
0.0 0.0 0.0 
0.0 0.0 0.0 
0.0 0.0 0.0 
0.0 0.0 0.0 
0.0 0.0 0.0 
0.0 0.0 0.0 
0.0 0.0 0.0 
0.0 0.0 0.0 
0.0 0.0 0.0 
0.0 0.0 0.0 
0.0 0.0 0.0 
0.0 0.0 0.0 
0.0 0.0 0.0 
0.0 0.0 0.0 
0.0 0.0 0.0 
0.0 0.0 0.0 
0.0 0.0 0.0 
0.0 0.0 0.0 
0.0 0.0 0.0 
0.0 0.0 0.0 
0.0 0.0 0.0 
0.0 0.0 0.0 
0.0 0.0 0.0 
0.0 0.0 0.0 
0.0 0.0 0.0 
0.0 0.0 0.0 
0.0 0.0 0.0 
0.0 0.0 0.0 
0.0 0.0 0.0 
0.0 0.0 0.0 
0.0 0.0 0.0 
0.0 0.0 0.0 
0.0 0.0 0.0 
0.0 0.0 0.0 
0.0 0.0 0.0 
0.0 0.0 0.0 
0.0 0.0 0.0 
0.0 0.0 0.0 
0.0 0.0 0.0 
0.0 0.0 0.0 
0.0 0.0 0.0 
0.0 0.0 0.0 
0.0 0.0 0.0 
0.0 0.0 0.0 
0.0 0.0 0.0 
0.0 0.0 0.0 
0.0 0.0 0.0 
0.0 0.0 0.0 
0.0 0.0 0.0 
0.0 0.0 0.0 
0.0 0.0 0.0 
0.0 0.0 0.0 
0.0 0.0 0.0 
0.0 0.0 0.0 
0.0 0.0 0.0 
0.0 0.0 0.0 
0.0 0.0 0.0 
0.0 0.0 0.0 
0.0 0.0 0.0 
0.0 0.0 0.0 
0.0 0.0 0.0 
0.0 0.0 0.0 
0.0 0.0 0.0 
0.0 0.0 0.0 
0.0 0.0 0.0 
0.0 0.0 0.0 
0.0 0.0 0.0 
0.0 0.0 0.0 
0.0 0.0 0.0 
0.0 0.0 0.0 
0.0 0.0 0.0 
0.0 0.0 0.0 
0.0 0.0 0.0 
0.0 0.0 0.0 
0.0 0.0 0.0 
0.0 0.0 0.0 
0.0 0.0 0.0 
0.0 0.0 0.0 
0.0 0.0 0.0 
0.0 0.0 0.0 
0.0 0.0 0.0 
0.0 0.0 0.0 
0.0 0.0 0.0 
0.0 0.0 0.0 
0.0 0.0 0.0 
0.0 0.0 0.0 
0.0 0.0 0.0 
0.0 0.0 0.0 
0.0 0.0 0.0 
0.0 0.0 0.0 
0.0 0.0 0.0 
0.0 0.0 0.0 
0.0 0.0 0.0 
0.0 0.0 0.0 
0.0 0.0 0.0 
0.0 0.0 0.0 
0.0 0.0 0.0 
0.0 0.0 0.0 
0.0 0.0 0.0 
0.0 0.0 0.0 
0.0 0.0 0.0 
0.0 0.0 0.0 
0.0 0.0 0.0 
0.0 0.0 0.0 
0.0 0.0 0.0 
0.0 0.0 0.0 
0.0 0.0 0.0 
0.0 0.0 0.0 
0.0 0.0 0.0 
0.0 0.0 0.0 
0.0 0.0 0.0 
0.0 0.0 0.0 
0.0 0.0 0.0 
0.0 0.0 0.0 
0.0 0.0 0.0 
0.0 0.0 0.0 
0.0 0.0 0.0 
0.0 0.0 0.0 
0.0 0.0 0.0 
0.0 0.0 0.0 
0.0 0.0 0.0 
0.0 0.0 0.0 
0.0 0.0 0.0 
0.0 0.0 0.0 
0.0 0.0 0.0 
0.0 0.0 0.0 
0.0 0.0 0.0 
0.0 0.0 0.0 
0.0 0.0 0.0 
0.0 0.0 0.0 
0.0 0.0 0.0 
0.0 0.0 0.0 
0.0 0.0 0.0 
0.0 0.0 0.0 
0.0 0.0 0.0 
0.0 0.0 0.0 
0.0 0.0 0.0 
0.0 0.0 0.0 
0.0 0.0 0.0 
0.0 0.0 0.0 
0.0 0.0 0.0 
0.0 0.0 0.0 
0.0 0.0 0.0 
0.0 0.0 0.0 
0.0 0.0 0.0 
0.0 0.0 0.0 
0.0 0.0 0.0 
0.0 0.0 0.0 
0.0 0.0 0.0 
0.0 0.0 0.0 
0.0 0.0 0.0 
0.0 0.0 0.0 
0.0 0.0 0.0 
0.0 0.0 0.0 
0.0 0.0 0.0 
0.0 0.0 0.0 
0.0 0.0 0.0 
0.0 0.0 0.0 
0.0 0.0 0.0 
0.0 0.0 0.0 
0.0 0.0 0.0 
0.0 0.0 0.0 
0.0 0.0 0.0 
0.0 0.0 0.0 
0.0 0.0 0.0 
0.0 0.0 0.0 
0.0 0.0 0.0 
0.0 0.0 0.0 
0.0 0.0 0.0 
0.0 0.0 0.0 
0.0 0.0 0.0 
0.0 0.0 0.0 
0.0 0.0 0.0 
0.0 0.0 0.0 
0.0 0.0 0.0 
0.0 0.0 0.0 
0.0 0.0 0.0 
0.0 0.0 0.0 
0.0 0.0 0.0 
0.0 0.0 0.0 
0.0 0.0 0.0 
0.0 0.0 0.0 
0.0 0.0 0.0 
0.0 0.0 0.0 
0.0 0.0 0.0 
0.0 0.0 0.0 
0.0 0.0 0.0 
0.0 0.0 0.0 
0.0 0.0 0.0 
0.0 0.0 0.0 
0.0 0.0 0.0 
0.0 0.0 0.0 
0.0 0.0 0.0 
0.0 0.0 0.0 
0.0 0.0 0.0 
0.0 0.0 0.0 
0.0 0.0 0.0 
0.0 0.0 0.0 
0.0 0.0 0.0 
0.0 0.0 0.0 
0.0 0.0 0.0 
0.0 0.0 0.0 
0.0 0.0 0.0 
0.0 0.0 0.0 
0.0 0.0 0.0 
0.0 0.0 0.0 
0.0 0.0 0.0 
0.0 0.0 0.0 
0.0 0.0 0.0 
0.0 0.0 0.0 
0.0 0.0 0.0 
0.0 0.0 0.0 
0.0 0.0 0.0 
0.0 0.0 0.0 
0.0 0.0 0.0 
0.0 0.0 0.0 
0.0 0.0 0.0 
0.0 0.0 0.0 
0.0 0.0 0.0 
0.0 0.0 0.0 
0.0 0.0 0.0 
0.0 0.0 0.0 
0.0 0.0 0.0 
0.0 0.0 0.0 
0.0 0.0 0.0 
0.0 0.0 0.0 
0.0 0.0 0.0 
0.0 0.0 0.0 
0.0 0.0 0.0 
0.0 0.0 0.0 
0.0 0.0 0.0 
0.0 0.0 0.0 
0.0 0.0 0.0 
0.0 0.0 0.0 
0.0 0.0 0.0 
0.0 0.0 0.0 
0.0 0.0 0.0 
0.0 0.0 0.0 
0.0 0.0 0.0 
0.0 0.0 0.0 
0.0 0.0 0.0 
0.0 0.0 0.0 
0.0 0.0 0.0 
0.0 0.0 0.0 
0.0 0.0 0.0 
0.0 0.0 0.0 
0.0 0.0 0.0 
0.0 0.0 0.0 
0.0 0.0 0.0 
0.0 0.0 0.0 
0.0 0.0 0.0 
0.0 0.0 0.0 
0.0 0.0 0.0 
0.0 0.0 0.0 
0.0 0.0 0.0 
0.0 0.0 0.0 
0.0 0.0 0.0 
0.0 0.0 0.0 
0.0 0.0 0.0 
0.0 0.0 0.0 
0.0 0.0 0.0 
0.0 0.0 0.0 
0.0 0.0 0.0 
0.0 0.0 0.0 
0.0 0.0 0.0 
0.0 0.0 0.0 
0.0 0.0 0.0 
0.0 0.0 0.0 
0.0 0.0 0.0 
0.0 0.0 0.0 
0.0 0.0 0.0 
0.0 0.0 0.0 
0.0 0.0 0.0 
0.0 0.0 0.0 
0.0 0.0 0.0 
0.0 0.0 0.0 
0.0 0.0 0.0 
0.0 0.0 0.0 
0.0 0.0 0.0 
0.0 0.0 0.0 
0.0 0.0 0.0 
0.0 0.0 0.0 
0.0 0.0 0.0 
0.0 0.0 0.0 
0.0 0.0 0.0 
0.0 0.0 0.0 
0.0 0.0 0.0 
0.0 0.0 0.0 
0.0 0.0 0.0 
0.0 0.0 0.0 
0.0 0.0 0.0 
0.0 0.0 0.0 
0.0 0.0 0.0 
0.0 0.0 0.0 
0.0 0.0 0.0 
0.0 0.0 0.0 
0.0 0.0 0.0 
0.0 0.0 0.0 
0.0 0.0 0.0 
0.0 0.0 0.0 
0.0 0.0 0.0 
0.0 0.0 0.0 
0.0 0.0 0.0 
0.0 0.0 0.0 
0.0 0.0 0.0 
0.0 0.0 0.0 
0.0 0.0 0.0 
0.0 0.0 0.0 
0.0 0.0 0.0 
0.0 0.0 0.0 
0.0 0.0 0.0 
0.0 0.0 0.0 
0.0 0.0 0.0 
0.0 0.0 0.0 
0.0 0.0 0.0 
0.0 0.0 0.0 
0.0 0.0 0.0 
0.0 0.0 0.0 
0.0 0.0 0.0 
0.0 0.0 0.0 
0.0 0.0 0.0 
0.0 0.0 0.0 
0.0 0.0 0.0 
0.0 0.0 0.0 
0.0 0.0 0.0 
0.0 0.0 0.0 
0.0 0.0 0.0 
0.0 0.0 0.0 
0.0 0.0 0.0 
0.0 0.0 0.0 
0.0 0.0 0.0 
0.0 0.0 0.0 
0.0 0.0 0.0 
0.0 0.0 0.0 
0.0 0.0 0.0 
0.0 0.0 0.0 
0.0 0.0 0.0 
0.0 0.0 0.0 
0.0 0.0 0.0 
0.0 0.0 0.0 
0.0 0.0 0.0 
0.0 0.0 0.0 
0.0 0.0 0.0 
0.0 0.0 0.0 
0.0 0.0 0.0 
0.0 0.0 0.0 
0.0 0.0 0.0 
0.0 0.0 0.0 
0.0 0.0 0.0 
0.0 0.0 0.0 
0.0 0.0 0.0 
0.0 0.0 0.0 
0.0 0.0 0.0 
0.0 0.0 0.0 
0.0 0.0 0.0 
0.0 0.0 0.0 
0.0 0.0 0.0 
0.0 0.0 0.0 
0.0 0.0 0.0 
0.0 0.0 0.0 
0.0 0.0 0.0 
0.0 0.0 0.0 
0.0 0.0 0.0 
0.0 0.0 0.0 
0.0 0.0 0.0 
0.0 0.0 0.0 
0.0 0.0 0.0 
0.0 0.0 0.0 
0.0 0.0 0.0 
0.0 0.0 0.0 
0.0 0.0 0.0 
0.0 0.0 0.0 
0.0 0.0 0.0 
0.0 0.0 0.0 
0.0 0.0 0.0 
0.0 0.0 0.0 
0.0 0.0 0.0 
0.0 0.0 0.0 
0.0 0.0 0.0 
0.0 0.0 0.0 
0.0 0.0 0.0 
0.0 0.0 0.0 
0.0 0.0 0.0 
0.0 0.0 0.0 
0.0 0.0 0.0 
0.0 0.0 0.0 
0.0 0.0 0.0 
0.0 0.0 0.0 
0.0 0.0 0.0 
0.0 0.0 0.0 
0.0 0.0 0.0 
0.0 0.0 0.0 
0.0 0.0 0.0 
0.0 0.0 0.0 
0.0 0.0 0.0 
0.0 0.0 0.0 
0.0 0.0 0.0 
0.0 0.0 0.0 
0.0 0.0 0.0 
0.0 0.0 0.0 
0.0 0.0 0.0 
0.0 0.0 0.0 
0.0 0.0 0.0 
0.0 0.0 0.0 
0.0 0.0 0.0 
0.0 0.0 0.0 
0.0 0.0 0.0 
0.0 0.0 0.0 
0.0 0.0 0.0 
0.0 0.0 0.0 
0.0 0.0 0.0 
0.0 0.0 0.0 
0.0 0.0 0.0 
0.0 0.0 0.0 
0.0 0.0 0.0 
0.0 0.0 0.0 
0.0 0.0 0.0 
0.0 0.0 0.0 
0.0 0.0 0.0 
0.0 0.0 0.0 
0.0 0.0 0.0 
0.0 0.0 0.0 
0.0 0.0 0.0 
0.0 0.0 0.0 
0.0 0.0 0.0 
0.0 0.0 0.0 
0.0 0.0 0.0 
0.0 0.0 0.0 
0.0 0.0 0.0 
0.0 0.0 0.0 
0.0 0.0 0.0 
0.0 0.0 0.0 
0.0 0.0 0.0 
0.0 0.0 0.0 
0.0 0.0 0.0 
0.0 0.0 0.0 
0.0 0.0 0.0 
0.0 0.0 0.0 
0.0 0.0 0.0 
0.0 0.0 0.0 
0.0 0.0 0.0 
0.0 0.0 0.0 
0.0 0.0 0.0 
0.0 0.0 0.0 
0.0 0.0 0.0 
0.0 0.0 0.0 
0.0 0.0 0.0 
0.0 0.0 0.0 
0.0 0.0 0.0 
0.0 0.0 0.0 
0.0 0.0 0.0 
0.0 0.0 0.0 
0.0 0.0 0.0 
0.0 0.0 0.0 
0.0 0.0 0.0 
0.0 0.0 0.0 
0.0 0.0 0.0 
0.0 0.0 0.0 
0.0 0.0 0.0 
0.0 0.0 0.0 
0.0 0.0 0.0 
0.0 0.0 0.0 
0.0 0.0 0.0 
0.0 0.0 0.0 
0.0 0.0 0.0 
0.0 0.0 0.0 
0.0 0.0 0.0 
0.0 0.0 0.0 
0.0 0.0 0.0 
0.0 0.0 0.0 
0.0 0.0 0.0 
0.0 0.0 0.0 
0.0 0.0 0.0 
0.0 0.0 0.0 
0.0 0.0 0.0 
0.0 0.0 0.0 
0.0 0.0 0.0 
0.0 0.0 0.0 
0.0 0.0 0.0 
0.0 0.0 0.0 
0.0 0.0 0.0 
0.0 0.0 0.0 
0.0 0.0 0.0 
0.0 0.0 0.0 
0.0 0.0 0.0 
0.0 0.0 0.0 
0.0 0.0 0.0 
0.0 0.0 0.0 
0.0 0.0 0.0 
0.0 0.0 0.0 
0.0 0.0 0.0 
0.0 0.0 0.0 
0.0 0.0 0.0 
0.0 0.0 0.0 
0.0 0.0 0.0 
0.0 0.0 0.0 
0.0 0.0 0.0 
0.0 0.0 0.0 
0.0 0.0 0.0 
0.0 0.0 0.0 
0.0 0.0 0.0 
0.0 0.0 0.0 
0.0 0.0 0.0 
0.0 0.0 0.0 
0.0 0.0 0.0 
0.0 0.0 0.0 
0.0 0.0 0.0 
0.0 0.0 0.0 
0.0 0.0 0.0 
0.0 0.0 0.0 
0.0 0.0 0.0 
0.0 0.0 0.0 
0.0 0.0 0.0 
0.0 0.0 0.0 
0.0 0.0 0.0 
0.0 0.0 0.0 
0.0 0.0 0.0 
0.0 0.0 0.0 
0.0 0.0 0.0 
0.0 0.0 0.0 
0.0 0.0 0.0 
0.0 0.0 0.0 
0.0 0.0 0.0 
0.0 0.0 0.0 
0.0 0.0 0.0 
0.0 0.0 0.0 
0.0 0.0 0.0 
0.0 0.0 0.0 
0.0 0.0 0.0 
0.0 0.0 0.0 
0.0 0.0 0.0 
0.0 0.0 0.0 
0.0 0.0 0.0 
0.0 0.0 0.0 
0.0 0.0 0.0 
0.0 0.0 0.0 
0.0 0.0 0.0 
0.0 0.0 0.0 
0.0 0.0 0.0 
0.0 0.0 0.0 
0.0 0.0 0.0 
0.0 0.0 0.0 
0.0 0.0 0.0 
0.0 0.0 0.0 
0.0 0.0 0.0 
0.0 0.0 0.0 
0.0 0.0 0.0 
0.0 0.0 0.0 
0.0 0.0 0.0 
0.0 0.0 0.0 
0.0 0.0 0.0 
0.0 0.0 0.0 
0.0 0.0 0.0 
0.0 0.0 0.0 
0.0 0.0 0.0 
0.0 0.0 0.0 
0.0 0.0 0.0 
0.0 0.0 0.0 
0.0 0.0 0.0 
0.0 0.0 0.0 
0.0 0.0 0.0 
0.0 0.0 0.0 
0.0 0.0 0.0 
0.0 0.0 0.0 
0.0 0.0 0.0 
0.0 0.0 0.0 
0.0 0.0 0.0 
0.0 0.0 0.0 
0.0 0.0 0.0 
0.0 0.0 0.0 
0.0 0.0 0.0 
0.0 0.0 0.0 
0.0 0.0 0.0 
0.0 0.0 0.0 
0.0 0.0 0.0 
0.0 0.0 0.0 
0.0 0.0 0.0 
0.0 0.0 0.0 
0.0 0.0 0.0 
0.0 0.0 0.0 
0.0 0.0 0.0 
0.0 0.0 0.0 
0.0 0.0 0.0 
0.0 0.0 0.0 
0.0 0.0 0.0 
0.0 0.0 0.0 
0.0 0.0 0.0 
0.0 0.0 0.0 
0.0 0.0 0.0 
0.0 0.0 0.0 
0.0 0.0 0.0 
0.0 0.0 0.0 
0.0 0.0 0.0 
0.0 0.0 0.0 
0.0 0.0 0.0 
0.0 0.0 0.0 
0.0 0.0 0.0 
0.0 0.0 0.0 
0.0 0.0 0.0 
0.0 0.0 0.0 
0.0 0.0 0.0 
0.0 0.0 0.0 
0.0 0.0 0.0 
0.0 0.0 0.0 
0.0 0.0 0.0 
0.0 0.0 0.0 
0.0 0.0 0.0 
0.0 0.0 0.0 
0.0 0.0 0.0 
0.0 0.0 0.0 
0.0 0.0 0.0 
0.0 0.0 0.0 
0.0 0.0 0.0 
0.0 0.0 0.0 
0.0 0.0 0.0 
0.0 0.0 0.0 
0.0 0.0 0.0 
0.0 0.0 0.0 
0.0 0.0 0.0 
0.0 0.0 0.0 
0.0 0.0 0.0 
0.0 0.0 0.0 
0.0 0.0 0.0 
0.0 0.0 0.0 
0.0 0.0 0.0 
0.0 0.0 0.0 
0.0 0.0 0.0 
0.0 0.0 0.0 
0.0 0.0 0.0 
0.0 0.0 0.0 
0.0 0.0 0.0 
0.0 0.0 0.0 
0.0 0.0 0.0 
0.0 0.0 0.0 
0.0 0.0 0.0 
0.0 0.0 0.0 
0.0 0.0 0.0 
0.0 0.0 0.0 
0.0 0.0 0.0 
0.0 0.0 0.0 
0.0 0.0 0.0 
0.0 0.0 0.0 
0.0 0.0 0.0 
0.0 0.0 0.0 
0.0 0.0 0.0 
0.0 0.0 0.0 
0.0 0.0 0.0 
0.0 0.0 0.0 
0.0 0.0 0.0 
0.0 0.0 0.0 
0.0 0.0 0.0 
0.0 0.0 0.0 
0.0 0.0 0.0 
0.0 0.0 0.0 
0.0 0.0 0.0 
0.0 0.0 0.0 
0.0 0.0 0.0 
0.0 0.0 0.0 
0.0 0.0 0.0 
0.0 0.0 0.0 
0.0 0.0 0.0 
0.0 0.0 0.0 
0.0 0.0 0.0 
0.0 0.0 0.0 
0.0 0.0 0.0 
0.0 0.0 0.0 
0.0 0.0 0.0 
0.0 0.0 0.0 
0.0 0.0 0.0 
0.0 0.0 0.0 
0.0 0.0 0.0 
0.0 0.0 0.0 
0.0 0.0 0.0 
0.0 0.0 0.0 
0.0 0.0 0.0 
0.0 0.0 0.0 
0.0 0.0 0.0 
0.0 0.0 0.0 
0.0 0.0 0.0 
0.0 0.0 0.0 
0.0 0.0 0.0 
0.0 0.0 0.0 
0.0 0.0 0.0 
0.0 0.0 0.0 
0.0 0.0 0.0 
0.0 0.0 0.0 
0.0 0.0 0.0 
0.0 0.0 0.0 
0.0 0.0 0.0 
0.0 0.0 0.0 
0.0 0.0 0.0 
0.0 0.0 0.0 
0.0 0.0 0.0 
0.0 0.0 0.0 
0.0 0.0 0.0 
0.0 0.0 0.0 
0.0 0.0 0.0 
0.0 0.0 0.0 
0.0 0.0 0.0 
0.0 0.0 0.0 
0.0 0.0 0.0 
0.0 0.0 0.0 
0.0 0.0 0.0 
0.0 0.0 0.0 
0.0 0.0 0.0 
0.0 0.0 0.0 
0.0 0.0 0.0 
0.0 0.0 0.0 
0.0 0.0 0.0 
0.0 0.0 0.0 
0.0 0.0 0.0 
0.0 0.0 0.0 
0.0 0.0 0.0 
0.0 0.0 0.0 
0.0 0.0 0.0 
0.0 0.0 0.0 
0.0 0.0 0.0 
0.0 0.0 0.0 
0.0 0.0 0.0 
0.0 0.0 0.0 
0.0 0.0 0.0 
0.0 0.0 0.0 
0.0 0.0 0.0 
0.0 0.0 0.0 
0.0 0.0 0.0 
0.0 0.0 0.0 
0.0 0.0 0.0 
0.0 0.0 0.0 
0.0 0.0 0.0 
0.0 0.0 0.0 
0.0 0.0 0.0 
0.0 0.0 0.0 
0.0 0.0 0.0 
0.0 0.0 0.0 
0.0 0.0 0.0 
0.0 0.0 0.0 
0.0 0.0 0.0 
0.0 0.0 0.0 
0.0 0.0 0.0 
0.0 0.0 0.0 
0.0 0.0 0.0 
0.0 0.0 0.0 
0.0 0.0 0.0 
0.0 0.0 0.0 
0.0 0.0 0.0 
0.0 0.0 0.0 
0.0 0.0 0.0 
0.0 0.0 0.0 
0.0 0.0 0.0 
0.0 0.0 0.0 
0.0 0.0 0.0 
0.0 0.0 0.0 
0.0 0.0 0.0 
0.0 0.0 0.0 
0.0 0.0 0.0 
0.0 0.0 0.0 
0.0 0.0 0.0 
0.0 0.0 0.0 
0.0 0.0 0.0 
0.0 0.0 0.0 
0.0 0.0 0.0 
0.0 0.0 0.0 
0.0 0.0 0.0 
0.0 0.0 0.0 
0.0 0.0 0.0 
0.0 0.0 0.0 
0.0 0.0 0.0 
0.0 0.0 0.0 
0.0 0.0 0.0 
0.0 0.0 0.0 
0.0 0.0 0.0 
0.0 0.0 0.0 
0.0 0.0 0.0 
0.0 0.0 0.0 
0.0 0.0 0.0 
0.0 0.0 0.0 
0.0 0.0 0.0 
0.0 0.0 0.0 
0.0 0.0 0.0 
0.0 0.0 0.0 
0.0 0.0 0.0 
0.0 0.0 0.0 
0.0 0.0 0.0 
0.0 0.0 0.0 
0.0 0.0 0.0 
0.0 0.0 0.0 
0.0 0.0 0.0 
0.0 0.0 0.0 
0.0 0.0 0.0 
0.0 0.0 0.0 
0.0 0.0 0.0 
0.0 0.0 0.0 
0.0 0.0 0.0 
0.0 0.0 0.0 
0.0 0.0 0.0 
0.0 0.0 0.0 
0.0 0.0 0.0 
0.0 0.0 0.0 
0.0 0.0 0.0 
0.0 0.0 0.0 
0.0 0.0 0.0 
0.0 0.0 0.0 
0.0 0.0 0.0 
0.0 0.0 0.0 
0.0 0.0 0.0 
0.0 0.0 0.0 
0.0 0.0 0.0 
0.0 0.0 0.0 
0.0 0.0 0.0 
0.0 0.0 0.0 
0.0 0.0 0.0 
0.0 0.0 0.0 
0.0 0.0 0.0 
0.0 0.0 0.0 
0.0 0.0 0.0 
0.0 0.0 0.0 
0.0 0.0 0.0 
0.0 0.0 0.0 
0.0 0.0 0.0 
0.0 0.0 0.0 
0.0 0.0 0.0 
0.0 0.0 0.0 
0.0 0.0 0.0 
0.0 0.0 0.0 
0.0 0.0 0.0 
0.0 0.0 0.0 
0.0 0.0 0.0 
0.0 0.0 0.0 
0.0 0.0 0.0 
0.0 0.0 0.0 
0.0 0.0 0.0 
0.0 0.0 0.0 
0.0 0.0 0.0 
0.0 0.0 0.0 
0.0 0.0 0.0 
0.0 0.0 0.0 
0.0 0.0 0.0 
0.0 0.0 0.0 
0.0 0.0 0.0 
0.0 0.0 0.0 
0.0 0.0 0.0 
0.0 0.0 0.0 
0.0 0.0 0.0 
0.0 0.0 0.0 
0.0 0.0 0.0 
0.0 0.0 0.0 
0.0 0.0 0.0 
0.0 0.0 0.0 
0.0 0.0 0.0 
0.0 0.0 0.0 
0.0 0.0 0.0 
0.0 0.0 0.0 
0.0 0.0 0.0 
0.0 0.0 0.0 
0.0 0.0 0.0 
0.0 0.0 0.0 
0.0 0.0 0.0 

VECTORS node_bounda_dof_materi_velocity_y float
0.0 0.0 0.0 
0.0 0.0 0.0 
0.0 1.000000000000e+00 0.0 
0.0 1.000000000000e+00 0.0 
0.0 0.0 0.0 
0.0 0.0 0.0 
0.0 0.0 0.0 
0.0 0.0 0.0 
0.0 0.0 0.0 
0.0 0.0 0.0 
0.0 0.0 0.0 
0.0 0.0 0.0 
0.0 0.0 0.0 
0.0 0.0 0.0 
0.0 0.0 0.0 
0.0 0.0 0.0 
0.0 0.0 0.0 
0.0 0.0 0.0 
0.0 0.0 0.0 
0.0 0.0 0.0 
0.0 0.0 0.0 
0.0 0.0 0.0 
0.0 0.0 0.0 
0.0 1.000000000000e+00 0.0 
0.0 1.000000000000e+00 0.0 
0.0 1.000000000000e+00 0.0 
0.0 1.000000000000e+00 0.0 
0.0 1.000000000000e+00 0.0 
0.0 1.000000000000e+00 0.0 
0.0 1.000000000000e+00 0.0 
0.0 1.000000000000e+00 0.0 
0.0 1.000000000000e+00 0.0 
0.0 1.000000000000e+00 0.0 
0.0 1.000000000000e+00 0.0 
0.0 1.000000000000e+00 0.0 
0.0 1.000000000000e+00 0.0 
0.0 1.000000000000e+00 0.0 
0.0 1.000000000000e+00 0.0 
0.0 1.000000000000e+00 0.0 
0.0 1.000000000000e+00 0.0 
0.0 1.000000000000e+00 0.0 
0.0 1.000000000000e+00 0.0 
0.0 1.000000000000e+00 0.0 
0.0 1.000000000000e+00 0.0 
0.0 1.000000000000e+00 0.0 
0.0 1.000000000000e+00 0.0 
0.0 1.000000000000e+00 0.0 
0.0 1.000000000000e+00 0.0 
0.0 1.000000000000e+00 0.0 
0.0 1.000000000000e+00 0.0 
0.0 1.000000000000e+00 0.0 
0.0 1.000000000000e+00 0.0 
0.0 1.000000000000e+00 0.0 
0.0 1.000000000000e+00 0.0 
0.0 1.000000000000e+00 0.0 
0.0 1.000000000000e+00 0.0 
0.0 1.000000000000e+00 0.0 
0.0 1.000000000000e+00 0.0 
0.0 1.000000000000e+00 0.0 
0.0 1.000000000000e+00 0.0 
0.0 1.000000000000e+00 0.0 
0.0 1.000000000000e+00 0.0 
0.0 1.000000000000e+00 0.0 
0.0 1.000000000000e+00 0.0 
0.0 1.000000000000e+00 0.0 
0.0 1.000000000000e+00 0.0 
0.0 1.000000000000e+00 0.0 
0.0 1.000000000000e+00 0.0 
0.0 1.000000000000e+00 0.0 
0.0 1.000000000000e+00 0.0 
0.0 1.000000000000e+00 0.0 
0.0 1.000000000000e+00 0.0 
0.0 0.0 0.0 
0.0 0.0 0.0 
0.0 0.0 0.0 
0.0 0.0 0.0 
0.0 0.0 0.0 
0.0 0.0 0.0 
0.0 0.0 0.0 
0.0 0.0 0.0 
0.0 0.0 0.0 
0.0 0.0 0.0 
0.0 0.0 0.0 
0.0 0.0 0.0 
0.0 0.0 0.0 
0.0 0.0 0.0 
0.0 0.0 0.0 
0.0 0.0 0.0 
0.0 0.0 0.0 
0.0 0.0 0.0 
0.0 0.0 0.0 
0.0 0.0 0.0 
0.0 0.0 0.0 
0.0 0.0 0.0 
0.0 0.0 0.0 
0.0 0.0 0.0 
0.0 0.0 0.0 
0.0 0.0 0.0 
0.0 0.0 0.0 
0.0 0.0 0.0 
0.0 0.0 0.0 
0.0 0.0 0.0 
0.0 0.0 0.0 
0.0 0.0 0.0 
0.0 0.0 0.0 
0.0 0.0 0.0 
0.0 0.0 0.0 
0.0 0.0 0.0 
0.0 0.0 0.0 
0.0 0.0 0.0 
0.0 0.0 0.0 
0.0 0.0 0.0 
0.0 0.0 0.0 
0.0 0.0 0.0 
0.0 0.0 0.0 
0.0 0.0 0.0 
0.0 0.0 0.0 
0.0 0.0 0.0 
0.0 0.0 0.0 
0.0 0.0 0.0 
0.0 0.0 0.0 
0.0 0.0 0.0 
0.0 0.0 0.0 
0.0 0.0 0.0 
0.0 0.0 0.0 
0.0 0.0 0.0 
0.0 0.0 0.0 
0.0 0.0 0.0 
0.0 0.0 0.0 
0.0 0.0 0.0 
0.0 0.0 0.0 
0.0 0.0 0.0 
0.0 0.0 0.0 
0.0 0.0 0.0 
0.0 0.0 0.0 
0.0 0.0 0.0 
0.0 0.0 0.0 
0.0 0.0 0.0 
0.0 0.0 0.0 
0.0 0.0 0.0 
0.0 0.0 0.0 
0.0 0.0 0.0 
0.0 0.0 0.0 
0.0 0.0 0.0 
0.0 0.0 0.0 
0.0 0.0 0.0 
0.0 0.0 0.0 
0.0 0.0 0.0 
0.0 0.0 0.0 
0.0 0.0 0.0 
0.0 0.0 0.0 
0.0 0.0 0.0 
0.0 0.0 0.0 
0.0 0.0 0.0 
0.0 0.0 0.0 
0.0 0.0 0.0 
0.0 0.0 0.0 
0.0 0.0 0.0 
0.0 0.0 0.0 
0.0 0.0 0.0 
0.0 0.0 0.0 
0.0 0.0 0.0 
0.0 0.0 0.0 
0.0 0.0 0.0 
0.0 0.0 0.0 
0.0 0.0 0.0 
0.0 0.0 0.0 
0.0 0.0 0.0 
0.0 0.0 0.0 
0.0 0.0 0.0 
0.0 0.0 0.0 
0.0 0.0 0.0 
0.0 0.0 0.0 
0.0 0.0 0.0 
0.0 0.0 0.0 
0.0 0.0 0.0 
0.0 0.0 0.0 
0.0 0.0 0.0 
0.0 0.0 0.0 
0.0 0.0 0.0 
0.0 0.0 0.0 
0.0 0.0 0.0 
0.0 0.0 0.0 
0.0 0.0 0.0 
0.0 0.0 0.0 
0.0 0.0 0.0 
0.0 0.0 0.0 
0.0 0.0 0.0 
0.0 0.0 0.0 
0.0 0.0 0.0 
0.0 0.0 0.0 
0.0 0.0 0.0 
0.0 0.0 0.0 
0.0 0.0 0.0 
0.0 0.0 0.0 
0.0 0.0 0.0 
0.0 0.0 0.0 
0.0 0.0 0.0 
0.0 0.0 0.0 
0.0 0.0 0.0 
0.0 0.0 0.0 
0.0 0.0 0.0 
0.0 0.0 0.0 
0.0 0.0 0.0 
0.0 0.0 0.0 
0.0 0.0 0.0 
0.0 0.0 0.0 
0.0 0.0 0.0 
0.0 0.0 0.0 
0.0 0.0 0.0 
0.0 0.0 0.0 
0.0 0.0 0.0 
0.0 0.0 0.0 
0.0 0.0 0.0 
0.0 0.0 0.0 
0.0 0.0 0.0 
0.0 0.0 0.0 
0.0 0.0 0.0 
0.0 0.0 0.0 
0.0 0.0 0.0 
0.0 0.0 0.0 
0.0 0.0 0.0 
0.0 0.0 0.0 
0.0 0.0 0.0 
0.0 0.0 0.0 
0.0 0.0 0.0 
0.0 0.0 0.0 
0.0 0.0 0.0 
0.0 0.0 0.0 
0.0 0.0 0.0 
0.0 0.0 0.0 
0.0 0.0 0.0 
0.0 0.0 0.0 
0.0 0.0 0.0 
0.0 0.0 0.0 
0.0 0.0 0.0 
0.0 0.0 0.0 
0.0 0.0 0.0 
0.0 0.0 0.0 
0.0 0.0 0.0 
0.0 0.0 0.0 
0.0 0.0 0.0 
0.0 0.0 0.0 
0.0 0.0 0.0 
0.0 0.0 0.0 
0.0 0.0 0.0 
0.0 0.0 0.0 
0.0 0.0 0.0 
0.0 0.0 0.0 
0.0 0.0 0.0 
0.0 0.0 0.0 
0.0 0.0 0.0 
0.0 0.0 0.0 
0.0 0.0 0.0 
0.0 0.0 0.0 
0.0 0.0 0.0 
0.0 0.0 0.0 
0.0 0.0 0.0 
0.0 0.0 0.0 
0.0 0.0 0.0 
0.0 0.0 0.0 
0.0 0.0 0.0 
0.0 0.0 0.0 
0.0 0.0 0.0 
0.0 0.0 0.0 
0.0 0.0 0.0 
0.0 0.0 0.0 
0.0 0.0 0.0 
0.0 0.0 0.0 
0.0 0.0 0.0 
0.0 0.0 0.0 
0.0 0.0 0.0 
0.0 0.0 0.0 
0.0 0.0 0.0 
0.0 0.0 0.0 
0.0 0.0 0.0 
0.0 0.0 0.0 
0.0 0.0 0.0 
0.0 0.0 0.0 
0.0 0.0 0.0 
0.0 0.0 0.0 
0.0 0.0 0.0 
0.0 0.0 0.0 
0.0 0.0 0.0 
0.0 0.0 0.0 
0.0 0.0 0.0 
0.0 0.0 0.0 
0.0 0.0 0.0 
0.0 0.0 0.0 
0.0 0.0 0.0 
0.0 0.0 0.0 
0.0 0.0 0.0 
0.0 0.0 0.0 
0.0 0.0 0.0 
0.0 0.0 0.0 
0.0 0.0 0.0 
0.0 0.0 0.0 
0.0 0.0 0.0 
0.0 0.0 0.0 
0.0 0.0 0.0 
0.0 0.0 0.0 
0.0 0.0 0.0 
0.0 0.0 0.0 
0.0 0.0 0.0 
0.0 0.0 0.0 
0.0 0.0 0.0 
0.0 0.0 0.0 
0.0 0.0 0.0 
0.0 0.0 0.0 
0.0 0.0 0.0 
0.0 0.0 0.0 
0.0 0.0 0.0 
0.0 0.0 0.0 
0.0 0.0 0.0 
0.0 0.0 0.0 
0.0 0.0 0.0 
0.0 0.0 0.0 
0.0 0.0 0.0 
0.0 0.0 0.0 
0.0 0.0 0.0 
0.0 0.0 0.0 
0.0 0.0 0.0 
0.0 0.0 0.0 
0.0 0.0 0.0 
0.0 0.0 0.0 
0.0 0.0 0.0 
0.0 0.0 0.0 
0.0 0.0 0.0 
0.0 0.0 0.0 
0.0 0.0 0.0 
0.0 0.0 0.0 
0.0 0.0 0.0 
0.0 0.0 0.0 
0.0 0.0 0.0 
0.0 0.0 0.0 
0.0 0.0 0.0 
0.0 0.0 0.0 
0.0 0.0 0.0 
0.0 0.0 0.0 
0.0 0.0 0.0 
0.0 0.0 0.0 
0.0 0.0 0.0 
0.0 0.0 0.0 
0.0 0.0 0.0 
0.0 0.0 0.0 
0.0 0.0 0.0 
0.0 0.0 0.0 
0.0 0.0 0.0 
0.0 0.0 0.0 
0.0 0.0 0.0 
0.0 0.0 0.0 
0.0 0.0 0.0 
0.0 0.0 0.0 
0.0 0.0 0.0 
0.0 0.0 0.0 
0.0 0.0 0.0 
0.0 0.0 0.0 
0.0 0.0 0.0 
0.0 0.0 0.0 
0.0 0.0 0.0 
0.0 0.0 0.0 
0.0 0.0 0.0 
0.0 0.0 0.0 
0.0 0.0 0.0 
0.0 0.0 0.0 
0.0 0.0 0.0 
0.0 0.0 0.0 
0.0 0.0 0.0 
0.0 0.0 0.0 
0.0 0.0 0.0 
0.0 0.0 0.0 
0.0 0.0 0.0 
0.0 0.0 0.0 
0.0 0.0 0.0 
0.0 0.0 0.0 
0.0 0.0 0.0 
0.0 0.0 0.0 
0.0 0.0 0.0 
0.0 0.0 0.0 
0.0 0.0 0.0 
0.0 0.0 0.0 
0.0 0.0 0.0 
0.0 0.0 0.0 
0.0 0.0 0.0 
0.0 0.0 0.0 
0.0 0.0 0.0 
0.0 0.0 0.0 
0.0 0.0 0.0 
0.0 0.0 0.0 
0.0 0.0 0.0 
0.0 0.0 0.0 
0.0 0.0 0.0 
0.0 0.0 0.0 
0.0 0.0 0.0 
0.0 0.0 0.0 
0.0 0.0 0.0 
0.0 0.0 0.0 
0.0 0.0 0.0 
0.0 0.0 0.0 
0.0 0.0 0.0 
0.0 0.0 0.0 
0.0 0.0 0.0 
0.0 0.0 0.0 
0.0 0.0 0.0 
0.0 0.0 0.0 
0.0 0.0 0.0 
0.0 0.0 0.0 
0.0 0.0 0.0 
0.0 0.0 0.0 
0.0 0.0 0.0 
0.0 0.0 0.0 
0.0 0.0 0.0 
0.0 0.0 0.0 
0.0 0.0 0.0 
0.0 0.0 0.0 
0.0 0.0 0.0 
0.0 0.0 0.0 
0.0 0.0 0.0 
0.0 0.0 0.0 
0.0 0.0 0.0 
0.0 0.0 0.0 
0.0 0.0 0.0 
0.0 0.0 0.0 
0.0 0.0 0.0 
0.0 0.0 0.0 
0.0 0.0 0.0 
0.0 0.0 0.0 
0.0 0.0 0.0 
0.0 0.0 0.0 
0.0 0.0 0.0 
0.0 0.0 0.0 
0.0 0.0 0.0 
0.0 0.0 0.0 
0.0 0.0 0.0 
0.0 0.0 0.0 
0.0 0.0 0.0 
0.0 0.0 0.0 
0.0 0.0 0.0 
0.0 0.0 0.0 
0.0 0.0 0.0 
0.0 0.0 0.0 
0.0 0.0 0.0 
0.0 0.0 0.0 
0.0 0.0 0.0 
0.0 0.0 0.0 
0.0 0.0 0.0 
0.0 0.0 0.0 
0.0 0.0 0.0 
0.0 0.0 0.0 
0.0 0.0 0.0 
0.0 0.0 0.0 
0.0 0.0 0.0 
0.0 0.0 0.0 
0.0 0.0 0.0 
0.0 0.0 0.0 
0.0 0.0 0.0 
0.0 0.0 0.0 
0.0 0.0 0.0 
0.0 0.0 0.0 
0.0 0.0 0.0 
0.0 0.0 0.0 
0.0 0.0 0.0 
0.0 0.0 0.0 
0.0 0.0 0.0 
0.0 0.0 0.0 
0.0 0.0 0.0 
0.0 0.0 0.0 
0.0 0.0 0.0 
0.0 0.0 0.0 
0.0 0.0 0.0 
0.0 0.0 0.0 
0.0 0.0 0.0 
0.0 0.0 0.0 
0.0 0.0 0.0 
0.0 0.0 0.0 
0.0 0.0 0.0 
0.0 0.0 0.0 
0.0 0.0 0.0 
0.0 0.0 0.0 
0.0 0.0 0.0 
0.0 0.0 0.0 
0.0 0.0 0.0 
0.0 0.0 0.0 
0.0 0.0 0.0 
0.0 0.0 0.0 
0.0 0.0 0.0 
0.0 0.0 0.0 
0.0 0.0 0.0 
0.0 0.0 0.0 
0.0 0.0 0.0 
0.0 0.0 0.0 
0.0 0.0 0.0 
0.0 0.0 0.0 
0.0 0.0 0.0 
0.0 0.0 0.0 
0.0 0.0 0.0 
0.0 0.0 0.0 
0.0 0.0 0.0 
0.0 0.0 0.0 
0.0 0.0 0.0 
0.0 0.0 0.0 
0.0 0.0 0.0 
0.0 0.0 0.0 
0.0 0.0 0.0 
0.0 0.0 0.0 
0.0 0.0 0.0 
0.0 0.0 0.0 
0.0 0.0 0.0 
0.0 0.0 0.0 
0.0 0.0 0.0 
0.0 0.0 0.0 
0.0 0.0 0.0 
0.0 0.0 0.0 
0.0 0.0 0.0 
0.0 0.0 0.0 
0.0 0.0 0.0 
0.0 0.0 0.0 
0.0 0.0 0.0 
0.0 0.0 0.0 
0.0 0.0 0.0 
0.0 0.0 0.0 
0.0 0.0 0.0 
0.0 0.0 0.0 
0.0 0.0 0.0 
0.0 0.0 0.0 
0.0 0.0 0.0 
0.0 0.0 0.0 
0.0 0.0 0.0 
0.0 0.0 0.0 
0.0 0.0 0.0 
0.0 0.0 0.0 
0.0 0.0 0.0 
0.0 0.0 0.0 
0.0 0.0 0.0 
0.0 0.0 0.0 
0.0 0.0 0.0 
0.0 0.0 0.0 
0.0 0.0 0.0 
0.0 0.0 0.0 
0.0 0.0 0.0 
0.0 0.0 0.0 
0.0 0.0 0.0 
0.0 0.0 0.0 
0.0 0.0 0.0 
0.0 0.0 0.0 
0.0 0.0 0.0 
0.0 0.0 0.0 
0.0 0.0 0.0 
0.0 0.0 0.0 
0.0 0.0 0.0 
0.0 0.0 0.0 
0.0 0.0 0.0 
0.0 0.0 0.0 
0.0 0.0 0.0 
0.0 0.0 0.0 
0.0 0.0 0.0 
0.0 0.0 0.0 
0.0 0.0 0.0 
0.0 0.0 0.0 
0.0 0.0 0.0 
0.0 0.0 0.0 
0.0 0.0 0.0 
0.0 0.0 0.0 
0.0 0.0 0.0 
0.0 0.0 0.0 
0.0 0.0 0.0 
0.0 0.0 0.0 
0.0 0.0 0.0 
0.0 0.0 0.0 
0.0 0.0 0.0 
0.0 0.0 0.0 
0.0 0.0 0.0 
0.0 0.0 0.0 
0.0 0.0 0.0 
0.0 0.0 0.0 
0.0 0.0 0.0 
0.0 0.0 0.0 
0.0 0.0 0.0 
0.0 0.0 0.0 
0.0 0.0 0.0 
0.0 0.0 0.0 
0.0 0.0 0.0 
0.0 0.0 0.0 
0.0 0.0 0.0 
0.0 0.0 0.0 
0.0 0.0 0.0 
0.0 0.0 0.0 
0.0 0.0 0.0 
0.0 0.0 0.0 
0.0 0.0 0.0 
0.0 0.0 0.0 
0.0 0.0 0.0 
0.0 0.0 0.0 
0.0 0.0 0.0 
0.0 0.0 0.0 
0.0 0.0 0.0 
0.0 0.0 0.0 
0.0 0.0 0.0 
0.0 0.0 0.0 
0.0 0.0 0.0 
0.0 0.0 0.0 
0.0 0.0 0.0 
0.0 0.0 0.0 
0.0 0.0 0.0 
0.0 0.0 0.0 
0.0 0.0 0.0 
0.0 0.0 0.0 
0.0 0.0 0.0 
0.0 0.0 0.0 
0.0 0.0 0.0 
0.0 0.0 0.0 
0.0 0.0 0.0 
0.0 0.0 0.0 
0.0 0.0 0.0 
0.0 0.0 0.0 
0.0 0.0 0.0 
0.0 0.0 0.0 
0.0 0.0 0.0 
0.0 0.0 0.0 
0.0 0.0 0.0 
0.0 0.0 0.0 
0.0 0.0 0.0 
0.0 0.0 0.0 
0.0 0.0 0.0 
0.0 0.0 0.0 
0.0 0.0 0.0 
0.0 0.0 0.0 
0.0 0.0 0.0 
0.0 0.0 0.0 
0.0 0.0 0.0 
0.0 0.0 0.0 
0.0 0.0 0.0 
0.0 0.0 0.0 
0.0 0.0 0.0 
0.0 0.0 0.0 
0.0 0.0 0.0 
0.0 0.0 0.0 
0.0 0.0 0.0 
0.0 0.0 0.0 
0.0 0.0 0.0 
0.0 0.0 0.0 
0.0 0.0 0.0 
0.0 0.0 0.0 
0.0 0.0 0.0 
0.0 0.0 0.0 
0.0 0.0 0.0 
0.0 0.0 0.0 
0.0 0.0 0.0 
0.0 0.0 0.0 
0.0 0.0 0.0 
0.0 0.0 0.0 
0.0 0.0 0.0 
0.0 0.0 0.0 
0.0 0.0 0.0 
0.0 0.0 0.0 
0.0 0.0 0.0 
0.0 0.0 0.0 
0.0 0.0 0.0 
0.0 0.0 0.0 
0.0 0.0 0.0 
0.0 0.0 0.0 
0.0 0.0 0.0 
0.0 0.0 0.0 
0.0 0.0 0.0 
0.0 0.0 0.0 
0.0 0.0 0.0 
0.0 0.0 0.0 
0.0 0.0 0.0 
0.0 0.0 0.0 
0.0 0.0 0.0 
0.0 0.0 0.0 
0.0 0.0 0.0 
0.0 0.0 0.0 
0.0 0.0 0.0 
0.0 0.0 0.0 
0.0 0.0 0.0 
0.0 0.0 0.0 
0.0 0.0 0.0 
0.0 0.0 0.0 
0.0 0.0 0.0 
0.0 0.0 0.0 
0.0 0.0 0.0 
0.0 0.0 0.0 
0.0 0.0 0.0 
0.0 0.0 0.0 
0.0 0.0 0.0 
0.0 0.0 0.0 
0.0 0.0 0.0 
0.0 0.0 0.0 
0.0 0.0 0.0 
0.0 0.0 0.0 
0.0 0.0 0.0 
0.0 0.0 0.0 
0.0 0.0 0.0 
0.0 0.0 0.0 
0.0 0.0 0.0 
0.0 0.0 0.0 
0.0 0.0 0.0 
0.0 0.0 0.0 
0.0 0.0 0.0 
0.0 0.0 0.0 
0.0 0.0 0.0 
0.0 0.0 0.0 
0.0 0.0 0.0 
0.0 0.0 0.0 
0.0 0.0 0.0 
0.0 0.0 0.0 
0.0 0.0 0.0 
0.0 0.0 0.0 
0.0 0.0 0.0 
0.0 0.0 0.0 
0.0 0.0 0.0 
0.0 0.0 0.0 
0.0 0.0 0.0 
0.0 0.0 0.0 
0.0 0.0 0.0 
0.0 0.0 0.0 
0.0 0.0 0.0 
0.0 0.0 0.0 
0.0 0.0 0.0 
0.0 0.0 0.0 
0.0 0.0 0.0 
0.0 0.0 0.0 
0.0 0.0 0.0 
0.0 0.0 0.0 
0.0 0.0 0.0 
0.0 0.0 0.0 
0.0 0.0 0.0 
0.0 0.0 0.0 
0.0 0.0 0.0 
0.0 0.0 0.0 
0.0 0.0 0.0 
0.0 0.0 0.0 
0.0 0.0 0.0 
0.0 0.0 0.0 
0.0 0.0 0.0 
0.0 0.0 0.0 
0.0 0.0 0.0 
0.0 0.0 0.0 
0.0 0.0 0.0 
0.0 0.0 0.0 
0.0 0.0 0.0 
0.0 0.0 0.0 
0.0 0.0 0.0 
0.0 0.0 0.0 
0.0 0.0 0.0 
0.0 0.0 0.0 
0.0 0.0 0.0 
0.0 0.0 0.0 
0.0 0.0 0.0 
0.0 0.0 0.0 
0.0 0.0 0.0 
0.0 0.0 0.0 
0.0 0.0 0.0 
0.0 0.0 0.0 
0.0 0.0 0.0 
0.0 0.0 0.0 
0.0 0.0 0.0 
0.0 0.0 0.0 
0.0 0.0 0.0 
0.0 0.0 0.0 
0.0 0.0 0.0 
0.0 0.0 0.0 
0.0 0.0 0.0 
0.0 0.0 0.0 
0.0 0.0 0.0 
0.0 0.0 0.0 
0.0 0.0 0.0 
0.0 0.0 0.0 
0.0 0.0 0.0 
0.0 0.0 0.0 
0.0 0.0 0.0 
0.0 0.0 0.0 
0.0 0.0 0.0 
0.0 0.0 0.0 
0.0 0.0 0.0 
0.0 0.0 0.0 
0.0 0.0 0.0 
0.0 0.0 0.0 
0.0 0.0 0.0 
0.0 0.0 0.0 
0.0 0.0 0.0 
0.0 0.0 0.0 
0.0 0.0 0.0 
0.0 0.0 0.0 
0.0 0.0 0.0 
0.0 0.0 0.0 
0.0 0.0 0.0 
0.0 0.0 0.0 
0.0 0.0 0.0 
0.0 0.0 0.0 
0.0 0.0 0.0 
0.0 0.0 0.0 
0.0 0.0 0.0 
0.0 0.0 0.0 
0.0 0.0 0.0 
0.0 0.0 0.0 
0.0 0.0 0.0 
0.0 0.0 0.0 
0.0 0.0 0.0 
0.0 0.0 0.0 
0.0 0.0 0.0 
0.0 0.0 0.0 
0.0 0.0 0.0 
0.0 0.0 0.0 
0.0 0.0 0.0 
0.0 0.0 0.0 
0.0 0.0 0.0 
0.0 0.0 0.0 
0.0 0.0 0.0 
0.0 0.0 0.0 
0.0 0.0 0.0 
0.0 0.0 0.0 
0.0 0.0 0.0 
0.0 0.0 0.0 
0.0 0.0 0.0 
0.0 0.0 0.0 
0.0 0.0 0.0 
0.0 0.0 0.0 
0.0 0.0 0.0 
0.0 0.0 0.0 
0.0 0.0 0.0 
0.0 0.0 0.0 
0.0 0.0 0.0 
0.0 0.0 0.0 
0.0 0.0 0.0 
0.0 0.0 0.0 
0.0 0.0 0.0 
0.0 0.0 0.0 
0.0 0.0 0.0 
0.0 0.0 0.0 
0.0 0.0 0.0 
0.0 0.0 0.0 
0.0 0.0 0.0 
0.0 0.0 0.0 
0.0 0.0 0.0 
0.0 0.0 0.0 
0.0 0.0 0.0 
0.0 0.0 0.0 
0.0 0.0 0.0 
0.0 0.0 0.0 
0.0 0.0 0.0 
0.0 0.0 0.0 
0.0 0.0 0.0 
0.0 0.0 0.0 
0.0 0.0 0.0 
0.0 0.0 0.0 
0.0 0.0 0.0 
0.0 0.0 0.0 
0.0 0.0 0.0 
0.0 0.0 0.0 
0.0 0.0 0.0 
0.0 0.0 0.0 
0.0 0.0 0.0 
0.0 0.0 0.0 
0.0 0.0 0.0 
0.0 0.0 0.0 
0.0 0.0 0.0 
0.0 0.0 0.0 
0.0 0.0 0.0 
0.0 0.0 0.0 
0.0 0.0 0.0 
0.0 0.0 0.0 
0.0 0.0 0.0 
0.0 0.0 0.0 
0.0 0.0 0.0 
0.0 0.0 0.0 
0.0 0.0 0.0 
0.0 0.0 0.0 
0.0 0.0 0.0 
0.0 0.0 0.0 
0.0 0.0 0.0 
0.0 0.0 0.0 
0.0 0.0 0.0 
0.0 0.0 0.0 
0.0 0.0 0.0 
0.0 0.0 0.0 
0.0 0.0 0.0 
0.0 0.0 0.0 
0.0 0.0 0.0 
0.0 0.0 0.0 
0.0 0.0 0.0 
0.0 0.0 0.0 
0.0 0.0 0.0 
0.0 0.0 0.0 
0.0 0.0 0.0 
0.0 0.0 0.0 
0.0 0.0 0.0 
0.0 0.0 0.0 
0.0 0.0 0.0 
0.0 0.0 0.0 
0.0 0.0 0.0 
0.0 0.0 0.0 
0.0 0.0 0.0 
0.0 0.0 0.0 
0.0 0.0 0.0 
0.0 0.0 0.0 
0.0 0.0 0.0 
0.0 0.0 0.0 
0.0 0.0 0.0 
0.0 0.0 0.0 
0.0 0.0 0.0 
0.0 0.0 0.0 
0.0 0.0 0.0 
0.0 0.0 0.0 
0.0 0.0 0.0 
0.0 0.0 0.0 
0.0 0.0 0.0 
0.0 0.0 0.0 
0.0 0.0 0.0 
0.0 0.0 0.0 
0.0 0.0 0.0 
0.0 0.0 0.0 
0.0 0.0 0.0 
0.0 0.0 0.0 
0.0 0.0 0.0 
0.0 0.0 0.0 
0.0 0.0 0.0 
0.0 0.0 0.0 
0.0 0.0 0.0 
0.0 0.0 0.0 
0.0 0.0 0.0 
0.0 0.0 0.0 
0.0 0.0 0.0 
0.0 0.0 0.0 
0.0 0.0 0.0 
0.0 0.0 0.0 
0.0 0.0 0.0 
0.0 0.0 0.0 
0.0 0.0 0.0 
0.0 0.0 0.0 
0.0 0.0 0.0 
0.0 0.0 0.0 
0.0 0.0 0.0 
0.0 0.0 0.0 
0.0 0.0 0.0 
0.0 0.0 0.0 
0.0 0.0 0.0 
0.0 0.0 0.0 
0.0 0.0 0.0 
0.0 0.0 0.0 
0.0 0.0 0.0 
0.0 0.0 0.0 
0.0 0.0 0.0 
0.0 0.0 0.0 
0.0 0.0 0.0 
0.0 0.0 0.0 
0.0 0.0 0.0 
0.0 0.0 0.0 
0.0 0.0 0.0 
0.0 0.0 0.0 
0.0 0.0 0.0 
0.0 0.0 0.0 
0.0 0.0 0.0 
0.0 0.0 0.0 
0.0 0.0 0.0 
0.0 0.0 0.0 
0.0 0.0 0.0 
0.0 0.0 0.0 
0.0 0.0 0.0 
0.0 0.0 0.0 
0.0 0.0 0.0 
0.0 0.0 0.0 
0.0 0.0 0.0 
0.0 0.0 0.0 
0.0 0.0 0.0 
0.0 0.0 0.0 
0.0 0.0 0.0 
0.0 0.0 0.0 
0.0 0.0 0.0 
0.0 0.0 0.0 
0.0 0.0 0.0 
0.0 0.0 0.0 
0.0 0.0 0.0 
0.0 0.0 0.0 
0.0 0.0 0.0 
0.0 0.0 0.0 
0.0 0.0 0.0 
0.0 0.0 0.0 
0.0 0.0 0.0 
0.0 0.0 0.0 
0.0 0.0 0.0 
0.0 0.0 0.0 
0.0 0.0 0.0 
0.0 0.0 0.0 
0.0 0.0 0.0 
0.0 0.0 0.0 
0.0 0.0 0.0 
0.0 0.0 0.0 
0.0 0.0 0.0 
0.0 0.0 0.0 
0.0 0.0 0.0 
0.0 0.0 0.0 
0.0 0.0 0.0 
0.0 0.0 0.0 
0.0 0.0 0.0 
0.0 0.0 0.0 
0.0 0.0 0.0 
0.0 0.0 0.0 
0.0 0.0 0.0 
0.0 0.0 0.0 
0.0 0.0 0.0 
0.0 0.0 0.0 
0.0 0.0 0.0 
0.0 0.0 0.0 
0.0 0.0 0.0 
0.0 0.0 0.0 
0.0 0.0 0.0 
0.0 0.0 0.0 
0.0 0.0 0.0 
0.0 0.0 0.0 
0.0 0.0 0.0 
0.0 0.0 0.0 
0.0 0.0 0.0 
0.0 0.0 0.0 
0.0 0.0 0.0 
0.0 0.0 0.0 
0.0 0.0 0.0 
0.0 0.0 0.0 
0.0 0.0 0.0 
0.0 0.0 0.0 
0.0 0.0 0.0 
0.0 0.0 0.0 
0.0 0.0 0.0 
0.0 0.0 0.0 
0.0 0.0 0.0 
0.0 0.0 0.0 
0.0 0.0 0.0 
0.0 0.0 0.0 
0.0 0.0 0.0 
0.0 0.0 0.0 
0.0 0.0 0.0 
0.0 0.0 0.0 
0.0 0.0 0.0 
0.0 0.0 0.0 
0.0 0.0 0.0 
0.0 0.0 0.0 
0.0 0.0 0.0 
0.0 0.0 0.0 
0.0 0.0 0.0 
0.0 0.0 0.0 
0.0 0.0 0.0 
0.0 0.0 0.0 
0.0 0.0 0.0 
0.0 0.0 0.0 
0.0 0.0 0.0 
0.0 0.0 0.0 
0.0 0.0 0.0 
0.0 0.0 0.0 
0.0 0.0 0.0 
0.0 0.0 0.0 
0.0 0.0 0.0 
0.0 0.0 0.0 
0.0 0.0 0.0 
0.0 0.0 0.0 
0.0 0.0 0.0 
0.0 0.0 0.0 
0.0 0.0 0.0 
0.0 0.0 0.0 
0.0 0.0 0.0 
0.0 0.0 0.0 
0.0 0.0 0.0 
0.0 0.0 0.0 
0.0 0.0 0.0 
0.0 0.0 0.0 
0.0 0.0 0.0 
0.0 0.0 0.0 

SCALARS node_boundary float
LOOKUP_TABLE default
1.000000000000e+00 
1.000000000000e+00 
1.000000000000e+00 
1.000000000000e+00 
1.000000000000e+00 
1.000000000000e+00 
1.000000000000e+00 
1.000000000000e+00 
1.000000000000e+00 
1.000000000000e+00 
1.000000000000e+00 
1.000000000000e+00 
1.000000000000e+00 
1.000000000000e+00 
1.000000000000e+00 
1.000000000000e+00 
1.000000000000e+00 
1.000000000000e+00 
1.000000000000e+00 
1.000000000000e+00 
1.000000000000e+00 
1.000000000000e+00 
1.000000000000e+00 
1.000000000000e+00 
1.000000000000e+00 
1.000000000000e+00 
1.000000000000e+00 
1.000000000000e+00 
1.000000000000e+00 
1.000000000000e+00 
1.000000000000e+00 
1.000000000000e+00 
1.000000000000e+00 
1.000000000000e+00 
1.000000000000e+00 
1.000000000000e+00 
1.000000000000e+00 
1.000000000000e+00 
1.000000000000e+00 
1.000000000000e+00 
1.000000000000e+00 
1.000000000000e+00 
1.000000000000e+00 
1.000000000000e+00 
1.000000000000e+00 
1.000000000000e+00 
1.000000000000e+00 
1.000000000000e+00 
1.000000000000e+00 
1.000000000000e+00 
1.000000000000e+00 
1.000000000000e+00 
1.000000000000e+00 
1.000000000000e+00 
1.000000000000e+00 
1.000000000000e+00 
1.000000000000e+00 
1.000000000000e+00 
1.000000000000e+00 
1.000000000000e+00 
1.000000000000e+00 
1.000000000000e+00 
1.000000000000e+00 
1.000000000000e+00 
1.000000000000e+00 
1.000000000000e+00 
1.000000000000e+00 
1.000000000000e+00 
1.000000000000e+00 
1.000000000000e+00 
1.000000000000e+00 
1.000000000000e+00 
1.000000000000e+00 
1.000000000000e+00 
1.000000000000e+00 
1.000000000000e+00 
1.000000000000e+00 
1.000000000000e+00 
1.000000000000e+00 
1.000000000000e+00 
1.000000000000e+00 
1.000000000000e+00 
0.0
1.000000000000e+00 
1.000000000000e+00 
1.000000000000e+00 
1.000000000000e+00 
1.000000000000e+00 
1.000000000000e+00 
1.000000000000e+00 
1.000000000000e+00 
0.0
1.000000000000e+00 
1.000000000000e+00 
0.0
0.0
0.0
0.0
0.0
0.0
0.0
0.0
0.0
0.0
0.0
0.0
0.0
0.0
1.000000000000e+00 
1.000000000000e+00 
1.000000000000e+00 
1.000000000000e+00 
1.000000000000e+00 
1.000000000000e+00 
1.000000000000e+00 
1.000000000000e+00 
1.000000000000e+00 
1.000000000000e+00 
1.000000000000e+00 
1.000000000000e+00 
1.000000000000e+00 
1.000000000000e+00 
1.000000000000e+00 
1.000000000000e+00 
1.000000000000e+00 
1.000000000000e+00 
1.000000000000e+00 
1.000000000000e+00 
1.000000000000e+00 
1.000000000000e+00 
1.000000000000e+00 
1.000000000000e+00 
1.000000000000e+00 
1.000000000000e+00 
1.000000000000e+00 
1.000000000000e+00 
1.000000000000e+00 
1.000000000000e+00 
1.000000000000e+00 
1.000000000000e+00 
1.000000000000e+00 
1.000000000000e+00 
1.000000000000e+00 
1.000000000000e+00 
0.0
0.0
0.0
0.0
0.0
0.0
0.0
0.0
0.0
0.0
0.0
0.0
0.0
0.0
0.0
0.0
1.000000000000e+00 
1.000000000000e+00 
1.000000000000e+00 
1.000000000000e+00 
1.000000000000e+00 
1.000000000000e+00 
1.000000000000e+00 
1.000000000000e+00 
0.0
0.0
0.0
0.0
0.0
0.0
0.0
0.0
0.0
0.0
0.0
0.0
0.0
0.0
0.0
0.0
0.0
0.0
0.0
0.0
0.0
0.0
0.0
0.0
0.0
0.0
0.0
0.0
0.0
0.0
0.0
0.0
0.0
0.0
0.0
0.0
0.0
0.0
0.0
0.0
0.0
0.0
0.0
0.0
0.0
0.0
0.0
0.0
0.0
0.0
0.0
0.0
0.0
0.0
0.0
0.0
0.0
0.0
0.0
0.0
0.0
0.0
0.0
0.0
0.0
0.0
0.0
0.0
0.0
0.0
0.0
0.0
0.0
0.0
0.0
0.0
0.0
0.0
0.0
0.0
0.0
0.0
0.0
0.0
0.0
0.0
0.0
0.0
0.0
0.0
0.0
0.0
0.0
0.0
0.0
0.0
0.0
0.0
0.0
0.0
0.0
0.0
0.0
0.0
0.0
0.0
0.0
0.0
0.0
0.0
0.0
0.0
0.0
0.0
0.0
0.0
0.0
0.0
0.0
0.0
0.0
0.0
0.0
0.0
0.0
0.0
0.0
0.0
0.0
0.0
0.0
0.0
0.0
0.0
0.0
0.0
0.0
0.0
0.0
0.0
0.0
0.0
0.0
0.0
0.0
0.0
0.0
0.0
0.0
0.0
0.0
0.0
0.0
0.0
0.0
0.0
0.0
0.0
0.0
0.0
0.0
0.0
0.0
0.0
0.0
0.0
0.0
0.0
0.0
0.0
0.0
0.0
0.0
0.0
0.0
0.0
0.0
0.0
0.0
0.0
0.0
0.0
0.0
0.0
0.0
0.0
0.0
0.0
0.0
0.0
0.0
0.0
0.0
0.0
0.0
0.0
0.0
0.0
0.0
0.0
0.0
0.0
0.0
0.0
0.0
0.0
0.0
0.0
0.0
0.0
0.0
0.0
0.0
0.0
0.0
0.0
0.0
0.0
0.0
0.0
0.0
0.0
0.0
0.0
0.0
0.0
0.0
0.0
0.0
0.0
0.0
0.0
0.0
0.0
0.0
0.0
0.0
0.0
0.0
0.0
0.0
0.0
0.0
0.0
0.0
0.0
0.0
0.0
0.0
0.0
0.0
0.0
0.0
0.0
0.0
0.0
0.0
0.0
0.0
0.0
0.0
0.0
0.0
0.0
0.0
0.0
0.0
0.0
0.0
0.0
0.0
0.0
0.0
0.0
0.0
0.0
0.0
0.0
0.0
0.0
0.0
0.0
0.0
0.0
0.0
0.0
0.0
0.0
0.0
0.0
0.0
0.0
0.0
0.0
0.0
0.0
0.0
0.0
0.0
0.0
0.0
0.0
0.0
0.0
0.0
0.0
0.0
0.0
0.0
0.0
0.0
0.0
0.0
0.0
0.0
0.0
0.0
0.0
0.0
0.0
0.0
0.0
0.0
0.0
0.0
0.0
0.0
0.0
0.0
0.0
0.0
0.0
0.0
0.0
0.0
0.0
0.0
0.0
0.0
0.0
0.0
0.0
0.0
0.0
0.0
0.0
0.0
0.0
0.0
0.0
0.0
0.0
0.0
0.0
0.0
0.0
0.0
0.0
0.0
0.0
0.0
0.0
0.0
0.0
0.0
0.0
0.0
0.0
0.0
0.0
0.0
0.0
0.0
0.0
0.0
0.0
0.0
0.0
0.0
0.0
0.0
0.0
0.0
0.0
0.0
0.0
0.0
0.0
0.0
0.0
0.0
0.0
0.0
0.0
0.0
0.0
0.0
0.0
0.0
0.0
0.0
0.0
0.0
0.0
0.0
0.0
0.0
0.0
0.0
0.0
0.0
0.0
0.0
0.0
0.0
0.0
0.0
0.0
0.0
0.0
0.0
0.0
0.0
0.0
0.0
0.0
0.0
0.0
0.0
0.0
0.0
0.0
0.0
0.0
0.0
0.0
0.0
0.0
0.0
0.0
0.0
0.0
0.0
0.0
0.0
0.0
0.0
0.0
0.0
0.0
0.0
0.0
0.0
0.0
0.0
0.0
0.0
0.0
0.0
0.0
0.0
0.0
0.0
0.0
0.0
0.0
0.0
0.0
0.0
0.0
0.0
0.0
0.0
0.0
0.0
0.0
0.0
0.0
0.0
0.0
0.0
0.0
0.0
0.0
0.0
0.0
0.0
0.0
0.0
0.0
0.0
0.0
0.0
0.0
0.0
0.0
0.0
0.0
0.0
0.0
0.0
0.0
0.0
0.0
0.0
0.0
0.0
0.0
0.0
0.0
0.0
0.0
0.0
0.0
0.0
0.0
0.0
0.0
0.0
0.0
0.0
0.0
0.0
0.0
0.0
0.0
0.0
0.0
0.0
0.0
0.0
0.0
0.0
0.0
0.0
0.0
0.0
0.0
0.0
0.0
0.0
0.0
0.0
0.0
0.0
0.0
0.0
0.0
0.0
0.0
0.0
0.0
0.0
0.0
0.0
0.0
0.0
0.0
0.0
0.0
0.0
0.0
0.0
0.0
0.0
0.0
0.0
0.0
0.0
0.0
0.0
0.0
0.0
0.0
0.0
0.0
0.0
0.0
0.0
0.0
0.0
0.0
0.0
0.0
0.0
0.0
0.0
0.0
0.0
0.0
0.0
0.0
0.0
0.0
0.0
0.0
0.0
0.0
0.0
0.0
0.0
0.0
0.0
0.0
0.0
0.0
0.0
0.0
0.0
0.0
0.0
0.0
0.0
0.0
0.0
0.0
0.0
0.0
0.0
0.0
0.0
0.0
0.0
0.0
0.0
0.0
0.0
0.0
0.0
0.0
0.0
0.0
0.0
0.0
0.0
0.0
0.0
0.0
0.0
0.0
0.0
0.0
0.0
0.0
0.0
0.0
0.0
0.0
0.0
0.0
0.0
0.0
0.0
0.0
0.0
0.0
0.0
0.0
0.0
0.0
0.0
0.0
0.0
0.0
0.0
0.0
0.0
0.0
0.0
0.0
0.0
0.0
0.0
0.0
0.0
0.0
0.0
0.0
0.0
0.0
0.0
0.0
0.0
0.0
0.0
0.0
0.0
0.0
0.0
0.0
0.0
0.0
0.0
0.0
0.0
0.0
0.0
0.0
0.0
0.0
0.0
0.0
0.0
0.0
0.0
0.0
0.0
0.0
0.0
0.0
0.0
0.0
0.0
0.0
0.0
0.0
0.0
0.0
0.0
0.0
0.0
0.0
0.0
0.0
0.0
0.0
0.0
0.0
0.0
0.0
0.0
0.0
0.0
0.0
0.0
0.0
0.0
0.0
0.0
0.0
0.0
0.0
0.0
0.0
0.0
0.0
0.0
0.0
0.0
0.0
0.0
0.0
0.0
0.0
0.0
0.0
0.0
0.0
0.0
0.0
0.0
0.0
0.0
0.0
0.0
0.0
0.0
0.0
0.0
0.0
0.0
0.0
0.0
0.0
0.0
0.0
0.0
0.0
0.0
0.0
0.0
0.0
0.0
0.0
0.0
0.0
0.0
0.0
0.0
0.0
0.0
0.0
0.0
0.0
0.0
0.0
0.0
0.0
0.0
0.0
0.0
0.0
0.0
0.0
0.0
0.0
0.0
0.0
0.0
0.0
0.0
0.0
0.0
0.0
0.0
0.0
0.0
0.0
0.0
0.0
0.0
0.0
0.0
0.0
0.0
0.0
0.0
0.0
0.0
0.0
0.0
0.0
0.0
0.0
0.0
0.0
0.0
0.0
0.0
0.0
0.0
0.0
0.0
0.0
0.0
0.0
0.0
0.0
0.0
0.0
0.0
0.0
0.0
0.0
0.0
0.0
0.0
0.0
0.0
0.0
0.0
0.0
0.0
0.0
0.0
0.0
0.0
0.0
0.0
0.0
0.0
0.0
0.0
0.0
0.0
0.0
0.0
0.0
0.0
0.0
0.0
0.0
0.0
0.0
0.0
0.0
0.0
0.0
0.0
0.0
0.0
0.0
0.0
0.0
0.0
0.0
0.0
0.0
0.0

VECTORS node_force_gravity float
0.0 -1.962000000000e+01 0.0 
0.0 -1.962000000000e+01 0.0 
0.0 -1.962000000000e+01 0.0 
0.0 -1.962000000000e+01 0.0 
0.0 -1.962000000000e+01 0.0 
0.0 -1.962000000000e+01 0.0 
0.0 -1.962000000000e+01 0.0 
0.0 -1.962000000000e+01 0.0 
0.0 -1.962000000000e+01 0.0 
0.0 -1.962000000000e+01 0.0 
0.0 -1.962000000000e+01 0.0 
0.0 -1.962000000000e+01 0.0 
0.0 -1.962000000000e+01 0.0 
0.0 -1.962000000000e+01 0.0 
0.0 -1.962000000000e+01 0.0 
0.0 -1.962000000000e+01 0.0 
0.0 -1.962000000000e+01 0.0 
0.0 -1.962000000000e+01 0.0 
0.0 -1.962000000000e+01 0.0 
0.0 -1.962000000000e+01 0.0 
0.0 -1.962000000000e+01 0.0 
0.0 -1.962000000000e+01 0.0 
0.0 -1.962000000000e+01 0.0 
0.0 -1.962000000000e+01 0.0 
0.0 -1.962000000000e+01 0.0 
0.0 -1.962000000000e+01 0.0 
0.0 -1.962000000000e+01 0.0 
0.0 -1.962000000000e+01 0.0 
0.0 -1.962000000000e+01 0.0 
0.0 -1.962000000000e+01 0.0 
0.0 -1.962000000000e+01 0.0 
0.0 -1.962000000000e+01 0.0 
0.0 -1.962000000000e+01 0.0 
0.0 -1.962000000000e+01 0.0 
0.0 -1.962000000000e+01 0.0 
0.0 -1.962000000000e+01 0.0 
0.0 -1.962000000000e+01 0.0 
0.0 -1.962000000000e+01 0.0 
0.0 -1.962000000000e+01 0.0 
0.0 -1.962000000000e+01 0.0 
0.0 -1.962000000000e+01 0.0 
0.0 -1.962000000000e+01 0.0 
0.0 -1.962000000000e+01 0.0 
0.0 -1.962000000000e+01 0.0 
0.0 -1.962000000000e+01 0.0 
0.0 -1.962000000000e+01 0.0 
0.0 -1.962000000000e+01 0.0 
0.0 -1.962000000000e+01 0.0 
0.0 -1.962000000000e+01 0.0 
0.0 -1.962000000000e+01 0.0 
0.0 -1.962000000000e+01 0.0 
0.0 -1.962000000000e+01 0.0 
0.0 -1.962000000000e+01 0.0 
0.0 -1.962000000000e+01 0.0 
0.0 -1.962000000000e+01 0.0 
0.0 -1.962000000000e+01 0.0 
0.0 -1.962000000000e+01 0.0 
0.0 -1.962000000000e+01 0.0 
0.0 -1.962000000000e+01 0.0 
0.0 -1.962000000000e+01 0.0 
0.0 -1.962000000000e+01 0.0 
0.0 -1.962000000000e+01 0.0 
0.0 -1.962000000000e+01 0.0 
0.0 -1.962000000000e+01 0.0 
0.0 -1.962000000000e+01 0.0 
0.0 -1.962000000000e+01 0.0 
0.0 -1.962000000000e+01 0.0 
0.0 -1.962000000000e+01 0.0 
0.0 -1.962000000000e+01 0.0 
0.0 -1.962000000000e+01 0.0 
0.0 -1.962000000000e+01 0.0 
0.0 -1.962000000000e+01 0.0 
0.0 -1.962000000000e+01 0.0 
0.0 -1.962000000000e+01 0.0 
0.0 -1.962000000000e+01 0.0 
0.0 -1.962000000000e+01 0.0 
0.0 -1.962000000000e+01 0.0 
0.0 -1.962000000000e+01 0.0 
0.0 -1.962000000000e+01 0.0 
0.0 -1.962000000000e+01 0.0 
0.0 -1.962000000000e+01 0.0 
0.0 -1.962000000000e+01 0.0 
0.0 -1.962000000000e+01 0.0 
0.0 -1.962000000000e+01 0.0 
0.0 -1.962000000000e+01 0.0 
0.0 -1.962000000000e+01 0.0 
0.0 -1.962000000000e+01 0.0 
0.0 -1.962000000000e+01 0.0 
0.0 -1.962000000000e+01 0.0 
0.0 -1.962000000000e+01 0.0 
0.0 -1.962000000000e+01 0.0 
0.0 -1.962000000000e+01 0.0 
0.0 -1.962000000000e+01 0.0 
0.0 -1.962000000000e+01 0.0 
0.0 -1.962000000000e+01 0.0 
0.0 -1.962000000000e+01 0.0 
0.0 -1.962000000000e+01 0.0 
0.0 -1.962000000000e+01 0.0 
0.0 -1.962000000000e+01 0.0 
0.0 -1.962000000000e+01 0.0 
0.0 -1.962000000000e+01 0.0 
0.0 -1.962000000000e+01 0.0 
0.0 -1.962000000000e+01 0.0 
0.0 -1.962000000000e+01 0.0 
0.0 -1.962000000000e+01 0.0 
0.0 -1.962000000000e+01 0.0 
0.0 -1.962000000000e+01 0.0 
0.0 -1.962000000000e+01 0.0 
0.0 -1.962000000000e+01 0.0 
0.0 -1.962000000000e+01 0.0 
0.0 -1.962000000000e+01 0.0 
0.0 -1.962000000000e+01 0.0 
0.0 -1.962000000000e+01 0.0 
0.0 -1.962000000000e+01 0.0 
0.0 -1.962000000000e+01 0.0 
0.0 -1.962000000000e+01 0.0 
0.0 -1.962000000000e+01 0.0 
0.0 -1.962000000000e+01 0.0 
0.0 -1.962000000000e+01 0.0 
0.0 -1.962000000000e+01 0.0 
0.0 -1.962000000000e+01 0.0 
0.0 -1.962000000000e+01 0.0 
0.0 -1.962000000000e+01 0.0 
0.0 -1.962000000000e+01 0.0 
0.0 -1.962000000000e+01 0.0 
0.0 -1.962000000000e+01 0.0 
0.0 -1.962000000000e+01 0.0 
0.0 -1.962000000000e+01 0.0 
0.0 -1.962000000000e+01 0.0 
0.0 -1.962000000000e+01 0.0 
0.0 -1.962000000000e+01 0.0 
0.0 -1.962000000000e+01 0.0 
0.0 -1.962000000000e+01 0.0 
0.0 -1.962000000000e+01 0.0 
0.0 -1.962000000000e+01 0.0 
0.0 -1.962000000000e+01 0.0 
0.0 -1.962000000000e+01 0.0 
0.0 -1.962000000000e+01 0.0 
0.0 -1.962000000000e+01 0.0 
0.0 -1.962000000000e+01 0.0 
0.0 -1.962000000000e+01 0.0 
0.0 -1.962000000000e+01 0.0 
0.0 -1.962000000000e+01 0.0 
0.0 -1.962000000000e+01 0.0 
0.0 -1.962000000000e+01 0.0 
0.0 -1.962000000000e+01 0.0 
0.0 -1.962000000000e+01 0.0 
0.0 -1.962000000000e+01 0.0 
0.0 -1.962000000000e+01 0.0 
0.0 -1.962000000000e+01 0.0 
0.0 -1.962000000000e+01 0.0 
0.0 -1.962000000000e+01 0.0 
0.0 -1.962000000000e+01 0.0 
0.0 -1.962000000000e+01 0.0 
0.0 -1.962000000000e+01 0.0 
0.0 -1.962000000000e+01 0.0 
0.0 -1.962000000000e+01 0.0 
0.0 -1.962000000000e+01 0.0 
0.0 -1.962000000000e+01 0.0 
0.0 -1.962000000000e+01 0.0 
0.0 -1.962000000000e+01 0.0 
0.0 -1.962000000000e+01 0.0 
0.0 -1.962000000000e+01 0.0 
0.0 -1.962000000000e+01 0.0 
0.0 -1.962000000000e+01 0.0 
0.0 -1.962000000000e+01 0.0 
0.0 -1.962000000000e+01 0.0 
0.0 -1.962000000000e+01 0.0 
0.0 -1.962000000000e+01 0.0 
0.0 -1.962000000000e+01 0.0 
0.0 -1.962000000000e+01 0.0 
0.0 -1.962000000000e+01 0.0 
0.0 -1.962000000000e+01 0.0 
0.0 -1.962000000000e+01 0.0 
0.0 -1.962000000000e+01 0.0 
0.0 -1.962000000000e+01 0.0 
0.0 -1.962000000000e+01 0.0 
0.0 -1.962000000000e+01 0.0 
0.0 -1.962000000000e+01 0.0 
0.0 -1.962000000000e+01 0.0 
0.0 -1.962000000000e+01 0.0 
0.0 -1.962000000000e+01 0.0 
0.0 -1.962000000000e+01 0.0 
0.0 -1.962000000000e+01 0.0 
0.0 -1.962000000000e+01 0.0 
0.0 -1.962000000000e+01 0.0 
0.0 -1.962000000000e+01 0.0 
0.0 -1.962000000000e+01 0.0 
0.0 -1.962000000000e+01 0.0 
0.0 -1.962000000000e+01 0.0 
0.0 -1.962000000000e+01 0.0 
0.0 -1.962000000000e+01 0.0 
0.0 -1.962000000000e+01 0.0 
0.0 -1.962000000000e+01 0.0 
0.0 -1.962000000000e+01 0.0 
0.0 -1.962000000000e+01 0.0 
0.0 -1.962000000000e+01 0.0 
0.0 -1.962000000000e+01 0.0 
0.0 -1.962000000000e+01 0.0 
0.0 -1.962000000000e+01 0.0 
0.0 -1.962000000000e+01 0.0 
0.0 -1.962000000000e+01 0.0 
0.0 -1.962000000000e+01 0.0 
0.0 -1.962000000000e+01 0.0 
0.0 -1.962000000000e+01 0.0 
0.0 -1.962000000000e+01 0.0 
0.0 -1.962000000000e+01 0.0 
0.0 -1.962000000000e+01 0.0 
0.0 -1.962000000000e+01 0.0 
0.0 -1.962000000000e+01 0.0 
0.0 -1.962000000000e+01 0.0 
0.0 -1.962000000000e+01 0.0 
0.0 -1.962000000000e+01 0.0 
0.0 -1.962000000000e+01 0.0 
0.0 -1.962000000000e+01 0.0 
0.0 -1.962000000000e+01 0.0 
0.0 -1.962000000000e+01 0.0 
0.0 -1.962000000000e+01 0.0 
0.0 -1.962000000000e+01 0.0 
0.0 -1.962000000000e+01 0.0 
0.0 -1.962000000000e+01 0.0 
0.0 -1.962000000000e+01 0.0 
0.0 -1.962000000000e+01 0.0 
0.0 -1.962000000000e+01 0.0 
0.0 -1.962000000000e+01 0.0 
0.0 -1.962000000000e+01 0.0 
0.0 -1.962000000000e+01 0.0 
0.0 -1.962000000000e+01 0.0 
0.0 -1.962000000000e+01 0.0 
0.0 -1.962000000000e+01 0.0 
0.0 -1.962000000000e+01 0.0 
0.0 -1.962000000000e+01 0.0 
0.0 -1.962000000000e+01 0.0 
0.0 -1.962000000000e+01 0.0 
0.0 -1.962000000000e+01 0.0 
0.0 -1.962000000000e+01 0.0 
0.0 -1.962000000000e+01 0.0 
0.0 -1.962000000000e+01 0.0 
0.0 -1.962000000000e+01 0.0 
0.0 -1.962000000000e+01 0.0 
0.0 -1.962000000000e+01 0.0 
0.0 -1.962000000000e+01 0.0 
0.0 -1.962000000000e+01 0.0 
0.0 -1.962000000000e+01 0.0 
0.0 -1.962000000000e+01 0.0 
0.0 -1.962000000000e+01 0.0 
0.0 -1.962000000000e+01 0.0 
0.0 -1.962000000000e+01 0.0 
0.0 -1.962000000000e+01 0.0 
0.0 -1.962000000000e+01 0.0 
0.0 -1.962000000000e+01 0.0 
0.0 -1.962000000000e+01 0.0 
0.0 -1.962000000000e+01 0.0 
0.0 -1.962000000000e+01 0.0 
0.0 -1.962000000000e+01 0.0 
0.0 -1.962000000000e+01 0.0 
0.0 -1.962000000000e+01 0.0 
0.0 -1.962000000000e+01 0.0 
0.0 -1.962000000000e+01 0.0 
0.0 -1.962000000000e+01 0.0 
0.0 -1.962000000000e+01 0.0 
0.0 -1.962000000000e+01 0.0 
0.0 -1.962000000000e+01 0.0 
0.0 -1.962000000000e+01 0.0 
0.0 -1.962000000000e+01 0.0 
0.0 -1.962000000000e+01 0.0 
0.0 -1.962000000000e+01 0.0 
0.0 -1.962000000000e+01 0.0 
0.0 -1.962000000000e+01 0.0 
0.0 -1.962000000000e+01 0.0 
0.0 -1.962000000000e+01 0.0 
0.0 -1.962000000000e+01 0.0 
0.0 -1.962000000000e+01 0.0 
0.0 -1.962000000000e+01 0.0 
0.0 -1.962000000000e+01 0.0 
0.0 -1.962000000000e+01 0.0 
0.0 -1.962000000000e+01 0.0 
0.0 -1.962000000000e+01 0.0 
0.0 -1.962000000000e+01 0.0 
0.0 -1.962000000000e+01 0.0 
0.0 -1.962000000000e+01 0.0 
0.0 -1.962000000000e+01 0.0 
0.0 -1.962000000000e+01 0.0 
0.0 -1.962000000000e+01 0.0 
0.0 -1.962000000000e+01 0.0 
0.0 -1.962000000000e+01 0.0 
0.0 -1.962000000000e+01 0.0 
0.0 -1.962000000000e+01 0.0 
0.0 -1.962000000000e+01 0.0 
0.0 -1.962000000000e+01 0.0 
0.0 -1.962000000000e+01 0.0 
0.0 -1.962000000000e+01 0.0 
0.0 -1.962000000000e+01 0.0 
0.0 -1.962000000000e+01 0.0 
0.0 -1.962000000000e+01 0.0 
0.0 -1.962000000000e+01 0.0 
0.0 -1.962000000000e+01 0.0 
0.0 -1.962000000000e+01 0.0 
0.0 -1.962000000000e+01 0.0 
0.0 -1.962000000000e+01 0.0 
0.0 -1.962000000000e+01 0.0 
0.0 -1.962000000000e+01 0.0 
0.0 -1.962000000000e+01 0.0 
0.0 -1.962000000000e+01 0.0 
0.0 -1.962000000000e+01 0.0 
0.0 -1.962000000000e+01 0.0 
0.0 -1.962000000000e+01 0.0 
0.0 -1.962000000000e+01 0.0 
0.0 -1.962000000000e+01 0.0 
0.0 -1.962000000000e+01 0.0 
0.0 -1.962000000000e+01 0.0 
0.0 -1.962000000000e+01 0.0 
0.0 -1.962000000000e+01 0.0 
0.0 -1.962000000000e+01 0.0 
0.0 -1.962000000000e+01 0.0 
0.0 -1.962000000000e+01 0.0 
0.0 -1.962000000000e+01 0.0 
0.0 -1.962000000000e+01 0.0 
0.0 -1.962000000000e+01 0.0 
0.0 -1.962000000000e+01 0.0 
0.0 -1.962000000000e+01 0.0 
0.0 -1.962000000000e+01 0.0 
0.0 -1.962000000000e+01 0.0 
0.0 -1.962000000000e+01 0.0 
0.0 -1.962000000000e+01 0.0 
0.0 -1.962000000000e+01 0.0 
0.0 -1.962000000000e+01 0.0 
0.0 -1.962000000000e+01 0.0 
0.0 -1.962000000000e+01 0.0 
0.0 -1.962000000000e+01 0.0 
0.0 -1.962000000000e+01 0.0 
0.0 -1.962000000000e+01 0.0 
0.0 -1.962000000000e+01 0.0 
0.0 -1.962000000000e+01 0.0 
0.0 -1.962000000000e+01 0.0 
0.0 -1.962000000000e+01 0.0 
0.0 -1.962000000000e+01 0.0 
0.0 -1.962000000000e+01 0.0 
0.0 -1.962000000000e+01 0.0 
0.0 -1.962000000000e+01 0.0 
0.0 -1.962000000000e+01 0.0 
0.0 -1.962000000000e+01 0.0 
0.0 -1.962000000000e+01 0.0 
0.0 -1.962000000000e+01 0.0 
0.0 -1.962000000000e+01 0.0 
0.0 -1.962000000000e+01 0.0 
0.0 -1.962000000000e+01 0.0 
0.0 -1.962000000000e+01 0.0 
0.0 -1.962000000000e+01 0.0 
0.0 -1.962000000000e+01 0.0 
0.0 -1.962000000000e+01 0.0 
0.0 -1.962000000000e+01 0.0 
0.0 -1.962000000000e+01 0.0 
0.0 -1.962000000000e+01 0.0 
0.0 -1.962000000000e+01 0.0 
0.0 -1.962000000000e+01 0.0 
0.0 -1.962000000000e+01 0.0 
0.0 -1.962000000000e+01 0.0 
0.0 -1.962000000000e+01 0.0 
0.0 -1.962000000000e+01 0.0 
0.0 -1.962000000000e+01 0.0 
0.0 -1.962000000000e+01 0.0 
0.0 -1.962000000000e+01 0.0 
0.0 -1.962000000000e+01 0.0 
0.0 -1.962000000000e+01 0.0 
0.0 -1.962000000000e+01 0.0 
0.0 -1.962000000000e+01 0.0 
0.0 -1.962000000000e+01 0.0 
0.0 -1.962000000000e+01 0.0 
0.0 -1.962000000000e+01 0.0 
0.0 -1.962000000000e+01 0.0 
0.0 -1.962000000000e+01 0.0 
0.0 -1.962000000000e+01 0.0 
0.0 -1.962000000000e+01 0.0 
0.0 -1.962000000000e+01 0.0 
0.0 -1.962000000000e+01 0.0 
0.0 -1.962000000000e+01 0.0 
0.0 -1.962000000000e+01 0.0 
0.0 -1.962000000000e+01 0.0 
0.0 -1.962000000000e+01 0.0 
0.0 -1.962000000000e+01 0.0 
0.0 -1.962000000000e+01 0.0 
0.0 -1.962000000000e+01 0.0 
0.0 -1.962000000000e+01 0.0 
0.0 -1.962000000000e+01 0.0 
0.0 -1.962000000000e+01 0.0 
0.0 -1.962000000000e+01 0.0 
0.0 -1.962000000000e+01 0.0 
0.0 -1.962000000000e+01 0.0 
0.0 -1.962000000000e+01 0.0 
0.0 -1.962000000000e+01 0.0 
0.0 -1.962000000000e+01 0.0 
0.0 -1.962000000000e+01 0.0 
0.0 -1.962000000000e+01 0.0 
0.0 -1.962000000000e+01 0.0 
0.0 -1.962000000000e+01 0.0 
0.0 -1.962000000000e+01 0.0 
0.0 -1.962000000000e+01 0.0 
0.0 -1.962000000000e+01 0.0 
0.0 -1.962000000000e+01 0.0 
0.0 -1.962000000000e+01 0.0 
0.0 -1.962000000000e+01 0.0 
0.0 -1.962000000000e+01 0.0 
0.0 -1.962000000000e+01 0.0 
0.0 -1.962000000000e+01 0.0 
0.0 -1.962000000000e+01 0.0 
0.0 -1.962000000000e+01 0.0 
0.0 -1.962000000000e+01 0.0 
0.0 -1.962000000000e+01 0.0 
0.0 -1.962000000000e+01 0.0 
0.0 -1.962000000000e+01 0.0 
0.0 -1.962000000000e+01 0.0 
0.0 -1.962000000000e+01 0.0 
0.0 -1.962000000000e+01 0.0 
0.0 -1.962000000000e+01 0.0 
0.0 -1.962000000000e+01 0.0 
0.0 -1.962000000000e+01 0.0 
0.0 -1.962000000000e+01 0.0 
0.0 -1.962000000000e+01 0.0 
0.0 -1.962000000000e+01 0.0 
0.0 -1.962000000000e+01 0.0 
0.0 -1.962000000000e+01 0.0 
0.0 -1.962000000000e+01 0.0 
0.0 -1.962000000000e+01 0.0 
0.0 -1.962000000000e+01 0.0 
0.0 -1.962000000000e+01 0.0 
0.0 -1.962000000000e+01 0.0 
0.0 -1.962000000000e+01 0.0 
0.0 -1.962000000000e+01 0.0 
0.0 -1.962000000000e+01 0.0 
0.0 -1.962000000000e+01 0.0 
0.0 -1.962000000000e+01 0.0 
0.0 -1.962000000000e+01 0.0 
0.0 -1.962000000000e+01 0.0 
0.0 -1.962000000000e+01 0.0 
0.0 -1.962000000000e+01 0.0 
0.0 -1.962000000000e+01 0.0 
0.0 -1.962000000000e+01 0.0 
0.0 -1.962000000000e+01 0.0 
0.0 -1.962000000000e+01 0.0 
0.0 -1.962000000000e+01 0.0 
0.0 -1.962000000000e+01 0.0 
0.0 -1.962000000000e+01 0.0 
0.0 -1.962000000000e+01 0.0 
0.0 -1.962000000000e+01 0.0 
0.0 -1.962000000000e+01 0.0 
0.0 -1.962000000000e+01 0.0 
0.0 -1.962000000000e+01 0.0 
0.0 -1.962000000000e+01 0.0 
0.0 -1.962000000000e+01 0.0 
0.0 -1.962000000000e+01 0.0 
0.0 -1.962000000000e+01 0.0 
0.0 -1.962000000000e+01 0.0 
0.0 -1.962000000000e+01 0.0 
0.0 -1.962000000000e+01 0.0 
0.0 -1.962000000000e+01 0.0 
0.0 -1.962000000000e+01 0.0 
0.0 -1.962000000000e+01 0.0 
0.0 -1.962000000000e+01 0.0 
0.0 -1.962000000000e+01 0.0 
0.0 -1.962000000000e+01 0.0 
0.0 -1.962000000000e+01 0.0 
0.0 -1.962000000000e+01 0.0 
0.0 -1.962000000000e+01 0.0 
0.0 -1.962000000000e+01 0.0 
0.0 -1.962000000000e+01 0.0 
0.0 -1.962000000000e+01 0.0 
0.0 -1.962000000000e+01 0.0 
0.0 -1.962000000000e+01 0.0 
0.0 -1.962000000000e+01 0.0 
0.0 -1.962000000000e+01 0.0 
0.0 -1.962000000000e+01 0.0 
0.0 -1.962000000000e+01 0.0 
0.0 -1.962000000000e+01 0.0 
0.0 -1.962000000000e+01 0.0 
0.0 -1.962000000000e+01 0.0 
0.0 -1.962000000000e+01 0.0 
0.0 -1.962000000000e+01 0.0 
0.0 -1.962000000000e+01 0.0 
0.0 -1.962000000000e+01 0.0 
0.0 -1.962000000000e+01 0.0 
0.0 -1.962000000000e+01 0.0 
0.0 -1.962000000000e+01 0.0 
0.0 -1.962000000000e+01 0.0 
0.0 -1.962000000000e+01 0.0 
0.0 -1.962000000000e+01 0.0 
0.0 -1.962000000000e+01 0.0 
0.0 -1.962000000000e+01 0.0 
0.0 -1.962000000000e+01 0.0 
0.0 -1.962000000000e+01 0.0 
0.0 -1.962000000000e+01 0.0 
0.0 -1.962000000000e+01 0.0 
0.0 -1.962000000000e+01 0.0 
0.0 -1.962000000000e+01 0.0 
0.0 -1.962000000000e+01 0.0 
0.0 -1.962000000000e+01 0.0 
0.0 -1.962000000000e+01 0.0 
0.0 -1.962000000000e+01 0.0 
0.0 -1.962000000000e+01 0.0 
0.0 -1.962000000000e+01 0.0 
0.0 -1.962000000000e+01 0.0 
0.0 -1.962000000000e+01 0.0 
0.0 -1.962000000000e+01 0.0 
0.0 -1.962000000000e+01 0.0 
0.0 -1.962000000000e+01 0.0 
0.0 -1.962000000000e+01 0.0 
0.0 -1.962000000000e+01 0.0 
0.0 -1.962000000000e+01 0.0 
0.0 -1.962000000000e+01 0.0 
0.0 -1.962000000000e+01 0.0 
0.0 -1.962000000000e+01 0.0 
0.0 -1.962000000000e+01 0.0 
0.0 -1.962000000000e+01 0.0 
0.0 -1.962000000000e+01 0.0 
0.0 -1.962000000000e+01 0.0 
0.0 -1.962000000000e+01 0.0 
0.0 -1.962000000000e+01 0.0 
0.0 -1.962000000000e+01 0.0 
0.0 -1.962000000000e+01 0.0 
0.0 -1.962000000000e+01 0.0 
0.0 -1.962000000000e+01 0.0 
0.0 -1.962000000000e+01 0.0 
0.0 -1.962000000000e+01 0.0 
0.0 -1.962000000000e+01 0.0 
0.0 -1.962000000000e+01 0.0 
0.0 -1.962000000000e+01 0.0 
0.0 -1.962000000000e+01 0.0 
0.0 -1.962000000000e+01 0.0 
0.0 -1.962000000000e+01 0.0 
0.0 -1.962000000000e+01 0.0 
0.0 -1.962000000000e+01 0.0 
0.0 -1.962000000000e+01 0.0 
0.0 -1.962000000000e+01 0.0 
0.0 -1.962000000000e+01 0.0 
0.0 -1.962000000000e+01 0.0 
0.0 -1.962000000000e+01 0.0 
0.0 -1.962000000000e+01 0.0 
0.0 -1.962000000000e+01 0.0 
0.0 -1.962000000000e+01 0.0 
0.0 -1.962000000000e+01 0.0 
0.0 -1.962000000000e+01 0.0 
0.0 -1.962000000000e+01 0.0 
0.0 -1.962000000000e+01 0.0 
0.0 -1.962000000000e+01 0.0 
0.0 -1.962000000000e+01 0.0 
0.0 -1.962000000000e+01 0.0 
0.0 -1.962000000000e+01 0.0 
0.0 -1.962000000000e+01 0.0 
0.0 -1.962000000000e+01 0.0 
0.0 -1.962000000000e+01 0.0 
0.0 -1.962000000000e+01 0.0 
0.0 -1.962000000000e+01 0.0 
0.0 -1.962000000000e+01 0.0 
0.0 -1.962000000000e+01 0.0 
0.0 -1.962000000000e+01 0.0 
0.0 -1.962000000000e+01 0.0 
0.0 -1.962000000000e+01 0.0 
0.0 -1.962000000000e+01 0.0 
0.0 -1.962000000000e+01 0.0 
0.0 -1.962000000000e+01 0.0 
0.0 -1.962000000000e+01 0.0 
0.0 -1.962000000000e+01 0.0 
0.0 -1.962000000000e+01 0.0 
0.0 -1.962000000000e+01 0.0 
0.0 -1.962000000000e+01 0.0 
0.0 -1.962000000000e+01 0.0 
0.0 -1.962000000000e+01 0.0 
0.0 -1.962000000000e+01 0.0 
0.0 -1.962000000000e+01 0.0 
0.0 -1.962000000000e+01 0.0 
0.0 -1.962000000000e+01 0.0 
0.0 -1.962000000000e+01 0.0 
0.0 -1.962000000000e+01 0.0 
0.0 -1.962000000000e+01 0.0 
0.0 -1.962000000000e+01 0.0 
0.0 -1.962000000000e+01 0.0 
0.0 -1.962000000000e+01 0.0 
0.0 -1.962000000000e+01 0.0 
0.0 -1.962000000000e+01 0.0 
0.0 -1.962000000000e+01 0.0 
0.0 -1.962000000000e+01 0.0 
0.0 -1.962000000000e+01 0.0 
0.0 -1.962000000000e+01 0.0 
0.0 -1.962000000000e+01 0.0 
0.0 -1.962000000000e+01 0.0 
0.0 -1.962000000000e+01 0.0 
0.0 -1.962000000000e+01 0.0 
0.0 -1.962000000000e+01 0.0 
0.0 -1.962000000000e+01 0.0 
0.0 -1.962000000000e+01 0.0 
0.0 -1.962000000000e+01 0.0 
0.0 -1.962000000000e+01 0.0 
0.0 -1.962000000000e+01 0.0 
0.0 -1.962000000000e+01 0.0 
0.0 -1.962000000000e+01 0.0 
0.0 -1.962000000000e+01 0.0 
0.0 -1.962000000000e+01 0.0 
0.0 -1.962000000000e+01 0.0 
0.0 -1.962000000000e+01 0.0 
0.0 -1.962000000000e+01 0.0 
0.0 -1.962000000000e+01 0.0 
0.0 -1.962000000000e+01 0.0 
0.0 -1.962000000000e+01 0.0 
0.0 -1.962000000000e+01 0.0 
0.0 -1.962000000000e+01 0.0 
0.0 -1.962000000000e+01 0.0 
0.0 -1.962000000000e+01 0.0 
0.0 -1.962000000000e+01 0.0 
0.0 -1.962000000000e+01 0.0 
0.0 -1.962000000000e+01 0.0 
0.0 -1.962000000000e+01 0.0 
0.0 -1.962000000000e+01 0.0 
0.0 -1.962000000000e+01 0.0 
0.0 -1.962000000000e+01 0.0 
0.0 -1.962000000000e+01 0.0 
0.0 -1.962000000000e+01 0.0 
0.0 -1.962000000000e+01 0.0 
0.0 -1.962000000000e+01 0.0 
0.0 -1.962000000000e+01 0.0 
0.0 -1.962000000000e+01 0.0 
0.0 -1.962000000000e+01 0.0 
0.0 -1.962000000000e+01 0.0 
0.0 -1.962000000000e+01 0.0 
0.0 -1.962000000000e+01 0.0 
0.0 -1.962000000000e+01 0.0 
0.0 -1.962000000000e+01 0.0 
0.0 -1.962000000000e+01 0.0 
0.0 -1.962000000000e+01 0.0 
0.0 -1.962000000000e+01 0.0 
0.0 -1.962000000000e+01 0.0 
0.0 -1.962000000000e+01 0.0 
0.0 -1.962000000000e+01 0.0 
0.0 -1.962000000000e+01 0.0 
0.0 -1.962000000000e+01 0.0 
0.0 -1.962000000000e+01 0.0 
0.0 -1.962000000000e+01 0.0 
0.0 -1.962000000000e+01 0.0 
0.0 -1.962000000000e+01 0.0 
0.0 -1.962000000000e+01 0.0 
0.0 -1.962000000000e+01 0.0 
0.0 -1.962000000000e+01 0.0 
0.0 -1.962000000000e+01 0.0 
0.0 -1.962000000000e+01 0.0 
0.0 -1.962000000000e+01 0.0 
0.0 -1.962000000000e+01 0.0 
0.0 -1.962000000000e+01 0.0 
0.0 -1.962000000000e+01 0.0 
0.0 -1.962000000000e+01 0.0 
0.0 -1.962000000000e+01 0.0 
0.0 -1.962000000000e+01 0.0 
0.0 -1.962000000000e+01 0.0 
0.0 -1.962000000000e+01 0.0 
0.0 -1.962000000000e+01 0.0 
0.0 -1.962000000000e+01 0.0 
0.0 -1.962000000000e+01 0.0 
0.0 -1.962000000000e+01 0.0 
0.0 -1.962000000000e+01 0.0 
0.0 -1.962000000000e+01 0.0 
0.0 -1.962000000000e+01 0.0 
0.0 -1.962000000000e+01 0.0 
0.0 -1.962000000000e+01 0.0 
0.0 -1.962000000000e+01 0.0 
0.0 -1.962000000000e+01 0.0 
0.0 -1.962000000000e+01 0.0 
0.0 -1.962000000000e+01 0.0 
0.0 -1.962000000000e+01 0.0 
0.0 -1.962000000000e+01 0.0 
0.0 -1.962000000000e+01 0.0 
0.0 -1.962000000000e+01 0.0 
0.0 -1.962000000000e+01 0.0 
0.0 -1.962000000000e+01 0.0 
0.0 -1.962000000000e+01 0.0 
0.0 -1.962000000000e+01 0.0 
0.0 -1.962000000000e+01 0.0 
0.0 -1.962000000000e+01 0.0 
0.0 -1.962000000000e+01 0.0 
0.0 -1.962000000000e+01 0.0 
0.0 -1.962000000000e+01 0.0 
0.0 -1.962000000000e+01 0.0 
0.0 -1.962000000000e+01 0.0 
0.0 -1.962000000000e+01 0.0 
0.0 -1.962000000000e+01 0.0 
0.0 -1.962000000000e+01 0.0 
0.0 -1.962000000000e+01 0.0 
0.0 -1.962000000000e+01 0.0 
0.0 -1.962000000000e+01 0.0 
0.0 -1.962000000000e+01 0.0 
0.0 -1.962000000000e+01 0.0 
0.0 -1.962000000000e+01 0.0 
0.0 -1.962000000000e+01 0.0 
0.0 -1.962000000000e+01 0.0 
0.0 -1.962000000000e+01 0.0 
0.0 -1.962000000000e+01 0.0 
0.0 -1.962000000000e+01 0.0 
0.0 -1.962000000000e+01 0.0 
0.0 -1.962000000000e+01 0.0 
0.0 -1.962000000000e+01 0.0 
0.0 -1.962000000000e+01 0.0 
0.0 -1.962000000000e+01 0.0 
0.0 -1.962000000000e+01 0.0 
0.0 -1.962000000000e+01 0.0 
0.0 -1.962000000000e+01 0.0 
0.0 -1.962000000000e+01 0.0 
0.0 -1.962000000000e+01 0.0 
0.0 -1.962000000000e+01 0.0 
0.0 -1.962000000000e+01 0.0 
0.0 -1.962000000000e+01 0.0 
0.0 -1.962000000000e+01 0.0 
0.0 -1.962000000000e+01 0.0 
0.0 -1.962000000000e+01 0.0 
0.0 -1.962000000000e+01 0.0 
0.0 -1.962000000000e+01 0.0 
0.0 -1.962000000000e+01 0.0 
0.0 -1.962000000000e+01 0.0 
0.0 -1.962000000000e+01 0.0 
0.0 -1.962000000000e+01 0.0 
0.0 -1.962000000000e+01 0.0 
0.0 -1.962000000000e+01 0.0 
0.0 -1.962000000000e+01 0.0 
0.0 -1.962000000000e+01 0.0 
0.0 -1.962000000000e+01 0.0 
0.0 -1.962000000000e+01 0.0 
0.0 -1.962000000000e+01 0.0 
0.0 -1.962000000000e+01 0.0 
0.0 -1.962000000000e+01 0.0 
0.0 -1.962000000000e+01 0.0 
0.0 -1.962000000000e+01 0.0 
0.0 -1.962000000000e+01 0.0 
0.0 -1.962000000000e+01 0.0 
0.0 -1.962000000000e+01 0.0 
0.0 -1.962000000000e+01 0.0 
0.0 -1.962000000000e+01 0.0 
0.0 -1.962000000000e+01 0.0 
0.0 -1.962000000000e+01 0.0 
0.0 -1.962000000000e+01 0.0 
0.0 -1.962000000000e+01 0.0 
0.0 -1.962000000000e+01 0.0 
0.0 -1.962000000000e+01 0.0 
0.0 -1.962000000000e+01 0.0 
0.0 -1.962000000000e+01 0.0 
0.0 -1.962000000000e+01 0.0 
0.0 -1.962000000000e+01 0.0 
0.0 -1.962000000000e+01 0.0 
0.0 -1.962000000000e+01 0.0 
0.0 -1.962000000000e+01 0.0 
0.0 -1.962000000000e+01 0.0 
0.0 -1.962000000000e+01 0.0 
0.0 -1.962000000000e+01 0.0 
0.0 -1.962000000000e+01 0.0 
0.0 -1.962000000000e+01 0.0 
0.0 -1.962000000000e+01 0.0 
0.0 -1.962000000000e+01 0.0 
0.0 -1.962000000000e+01 0.0 
0.0 -1.962000000000e+01 0.0 
0.0 -1.962000000000e+01 0.0 
0.0 -1.962000000000e+01 0.0 
0.0 -1.962000000000e+01 0.0 
0.0 -1.962000000000e+01 0.0 
0.0 -1.962000000000e+01 0.0 
0.0 -1.962000000000e+01 0.0 
0.0 -1.962000000000e+01 0.0 
0.0 -1.962000000000e+01 0.0 
0.0 -1.962000000000e+01 0.0 
0.0 -1.962000000000e+01 0.0 
0.0 -1.962000000000e+01 0.0 
0.0 -1.962000000000e+01 0.0 
0.0 -1.962000000000e+01 0.0 
0.0 -1.962000000000e+01 0.0 
0.0 -1.962000000000e+01 0.0 
0.0 -1.962000000000e+01 0.0 
0.0 -1.962000000000e+01 0.0 
0.0 -1.962000000000e+01 0.0 
0.0 -1.962000000000e+01 0.0 
0.0 -1.962000000000e+01 0.0 
0.0 -1.962000000000e+01 0.0 
0.0 -1.962000000000e+01 0.0 
0.0 -1.962000000000e+01 0.0 
0.0 -1.962000000000e+01 0.0 
0.0 -1.962000000000e+01 0.0 
0.0 -1.962000000000e+01 0.0 
0.0 -1.962000000000e+01 0.0 
0.0 -1.962000000000e+01 0.0 
0.0 -1.962000000000e+01 0.0 
0.0 -1.962000000000e+01 0.0 
0.0 -1.962000000000e+01 0.0 
0.0 -1.962000000000e+01 0.0 
0.0 -1.962000000000e+01 0.0 
0.0 -1.962000000000e+01 0.0 
0.0 -1.962000000000e+01 0.0 
0.0 -1.962000000000e+01 0.0 
0.0 -1.962000000000e+01 0.0 
0.0 -1.962000000000e+01 0.0 
0.0 -1.962000000000e+01 0.0 
0.0 -1.962000000000e+01 0.0 
0.0 -1.962000000000e+01 0.0 
0.0 -1.962000000000e+01 0.0 
0.0 -1.962000000000e+01 0.0 
0.0 -1.962000000000e+01 0.0 
0.0 -1.962000000000e+01 0.0 
0.0 -1.962000000000e+01 0.0 
0.0 -1.962000000000e+01 0.0 
0.0 -1.962000000000e+01 0.0 
0.0 -1.962000000000e+01 0.0 
0.0 -1.962000000000e+01 0.0 
0.0 -1.962000000000e+01 0.0 
0.0 -1.962000000000e+01 0.0 
0.0 -1.962000000000e+01 0.0 
0.0 -1.962000000000e+01 0.0 
0.0 -1.962000000000e+01 0.0 
0.0 -1.962000000000e+01 0.0 
0.0 -1.962000000000e+01 0.0 
0.0 -1.962000000000e+01 0.0 
0.0 -1.962000000000e+01 0.0 
0.0 -1.962000000000e+01 0.0 
0.0 -1.962000000000e+01 0.0 
0.0 -1.962000000000e+01 0.0 
0.0 -1.962000000000e+01 0.0 
0.0 -1.962000000000e+01 0.0 
0.0 -1.962000000000e+01 0.0 
0.0 -1.962000000000e+01 0.0 
0.0 -1.962000000000e+01 0.0 
0.0 -1.962000000000e+01 0.0 
0.0 -1.962000000000e+01 0.0 
0.0 -1.962000000000e+01 0.0 
0.0 -1.962000000000e+01 0.0 
0.0 -1.962000000000e+01 0.0 
0.0 -1.962000000000e+01 0.0 
0.0 -1.962000000000e+01 0.0 
0.0 -1.962000000000e+01 0.0 
0.0 -1.962000000000e+01 0.0 
0.0 -1.962000000000e+01 0.0 
0.0 -1.962000000000e+01 0.0 
0.0 -1.962000000000e+01 0.0 
0.0 -1.962000000000e+01 0.0 
0.0 -1.962000000000e+01 0.0 
0.0 -1.962000000000e+01 0.0 
0.0 -1.962000000000e+01 0.0 
0.0 -1.962000000000e+01 0.0 
0.0 -1.962000000000e+01 0.0 
0.0 -1.962000000000e+01 0.0 
0.0 -1.962000000000e+01 0.0 
0.0 -1.962000000000e+01 0.0 
0.0 -1.962000000000e+01 0.0 
0.0 -1.962000000000e+01 0.0 
0.0 -1.962000000000e+01 0.0 
0.0 -1.962000000000e+01 0.0 
0.0 -1.962000000000e+01 0.0 
0.0 -1.962000000000e+01 0.0 
0.0 -1.962000000000e+01 0.0 
0.0 -1.962000000000e+01 0.0 
0.0 -1.962000000000e+01 0.0 
0.0 -1.962000000000e+01 0.0 
0.0 -1.962000000000e+01 0.0 
0.0 -1.962000000000e+01 0.0 
0.0 -1.962000000000e+01 0.0 
0.0 -1.962000000000e+01 0.0 
0.0 -1.962000000000e+01 0.0 
0.0 -1.962000000000e+01 0.0 
0.0 -1.962000000000e+01 0.0 
0.0 -1.962000000000e+01 0.0 
0.0 -1.962000000000e+01 0.0 
0.0 -1.962000000000e+01 0.0 
0.0 -1.962000000000e+01 0.0 
0.0 -1.962000000000e+01 0.0 
0.0 -1.962000000000e+01 0.0 
0.0 -1.962000000000e+01 0.0 
0.0 -1.962000000000e+01 0.0 
0.0 -1.962000000000e+01 0.0 
0.0 -1.962000000000e+01 0.0 
0.0 -1.962000000000e+01 0.0 
0.0 -1.962000000000e+01 0.0 
0.0 -1.962000000000e+01 0.0 
0.0 -1.962000000000e+01 0.0 
0.0 -1.962000000000e+01 0.0 
0.0 -1.962000000000e+01 0.0 
0.0 -1.962000000000e+01 0.0 
0.0 -1.962000000000e+01 0.0 
0.0 -1.962000000000e+01 0.0 
0.0 -1.962000000000e+01 0.0 
0.0 -1.962000000000e+01 0.0 
0.0 -1.962000000000e+01 0.0 
0.0 -1.962000000000e+01 0.0 
0.0 -1.962000000000e+01 0.0 
0.0 -1.962000000000e+01 0.0 
0.0 -1.962000000000e+01 0.0 
0.0 -1.962000000000e+01 0.0 
0.0 -1.962000000000e+01 0.0 
0.0 -1.962000000000e+01 0.0 
0.0 -1.962000000000e+01 0.0 
0.0 -1.962000000000e+01 0.0 
0.0 -1.962000000000e+01 0.0 
0.0 -1.962000000000e+01 0.0 
0.0 -1.962000000000e+01 0.0 
0.0 -1.962000000000e+01 0.0 
0.0 -1.962000000000e+01 0.0 
0.0 -1.962000000000e+01 0.0 
0.0 -1.962000000000e+01 0.0 
0.0 -1.962000000000e+01 0.0 
0.0 -1.962000000000e+01 0.0 
0.0 -1.962000000000e+01 0.0 
0.0 -1.962000000000e+01 0.0 
0.0 -1.962000000000e+01 0.0 
0.0 -1.962000000000e+01 0.0 
0.0 -1.962000000000e+01 0.0 
0.0 -1.962000000000e+01 0.0 
0.0 -1.962000000000e+01 0.0 
0.0 -1.962000000000e+01 0.0 
0.0 -1.962000000000e+01 0.0 
0.0 -1.962000000000e+01 0.0 
0.0 -1.962000000000e+01 0.0 
0.0 -1.962000000000e+01 0.0 
0.0 -1.962000000000e+01 0.0 
0.0 -1.962000000000e+01 0.0 
0.0 -1.962000000000e+01 0.0 
0.0 -1.962000000000e+01 0.0 
0.0 -1.962000000000e+01 0.0 
0.0 -1.962000000000e+01 0.0 
0.0 -1.962000000000e+01 0.0 
0.0 -1.962000000000e+01 0.0 
0.0 -1.962000000000e+01 0.0 
0.0 -1.962000000000e+01 0.0 
0.0 -1.962000000000e+01 0.0 
0.0 -1.962000000000e+01 0.0 
0.0 -1.962000000000e+01 0.0 
0.0 -1.962000000000e+01 0.0 
0.0 -1.962000000000e+01 0.0 
0.0 -1.962000000000e+01 0.0 
0.0 -1.962000000000e+01 0.0 
0.0 -1.962000000000e+01 0.0 
0.0 -1.962000000000e+01 0.0 
0.0 -1.962000000000e+01 0.0 
0.0 -1.962000000000e+01 0.0 
0.0 -1.962000000000e+01 0.0 
0.0 -1.962000000000e+01 0.0 
0.0 -1.962000000000e+01 0.0 
0.0 -1.962000000000e+01 0.0 
0.0 -1.962000000000e+01 0.0 
0.0 -1.962000000000e+01 0.0 
0.0 -1.962000000000e+01 0.0 
0.0 -1.962000000000e+01 0.0 
0.0 -1.962000000000e+01 0.0 
0.0 -1.962000000000e+01 0.0 
0.0 -1.962000000000e+01 0.0 
0.0 -1.962000000000e+01 0.0 
0.0 -1.962000000000e+01 0.0 
0.0 -1.962000000000e+01 0.0 
0.0 -1.962000000000e+01 0.0 
0.0 -1.962000000000e+01 0.0 
0.0 -1.962000000000e+01 0.0 
0.0 -1.962000000000e+01 0.0 
0.0 -1.962000000000e+01 0.0 
0.0 -1.962000000000e+01 0.0 
0.0 -1.962000000000e+01 0.0 
0.0 -1.962000000000e+01 0.0 
0.0 -1.962000000000e+01 0.0 
0.0 -1.962000000000e+01 0.0 
0.0 -1.962000000000e+01 0.0 
0.0 -1.962000000000e+01 0.0 
0.0 -1.962000000000e+01 0.0 
0.0 -1.962000000000e+01 0.0 
0.0 -1.962000000000e+01 0.0 
0.0 -1.962000000000e+01 0.0 
0.0 -1.962000000000e+01 0.0 
0.0 -1.962000000000e+01 0.0 
0.0 -1.962000000000e+01 0.0 
0.0 -1.962000000000e+01 0.0 
0.0 -1.962000000000e+01 0.0 
0.0 -1.962000000000e+01 0.0 
0.0 -1.962000000000e+01 0.0 
0.0 -1.962000000000e+01 0.0 
0.0 -1.962000000000e+01 0.0 
0.0 -1.962000000000e+01 0.0 
0.0 -1.962000000000e+01 0.0 
0.0 -1.962000000000e+01 0.0 
0.0 -1.962000000000e+01 0.0 
0.0 -1.962000000000e+01 0.0 
0.0 -1.962000000000e+01 0.0 
0.0 -1.962000000000e+01 0.0 
0.0 -1.962000000000e+01 0.0 
0.0 -1.962000000000e+01 0.0 
0.0 -1.962000000000e+01 0.0 
0.0 -1.962000000000e+01 0.0 
0.0 -1.962000000000e+01 0.0 
0.0 -1.962000000000e+01 0.0 
0.0 -1.962000000000e+01 0.0 
0.0 -1.962000000000e+01 0.0 
0.0 -1.962000000000e+01 0.0 
0.0 -1.962000000000e+01 0.0 
0.0 -1.962000000000e+01 0.0 
0.0 -1.962000000000e+01 0.0 
0.0 -1.962000000000e+01 0.0 
0.0 -1.962000000000e+01 0.0 
0.0 -1.962000000000e+01 0.0 
0.0 -1.962000000000e+01 0.0 
0.0 -1.962000000000e+01 0.0 
0.0 -1.962000000000e+01 0.0 
0.0 -1.962000000000e+01 0.0 
0.0 -1.962000000000e+01 0.0 
0.0 -1.962000000000e+01 0.0 
0.0 -1.962000000000e+01 0.0 
0.0 -1.962000000000e+01 0.0 
0.0 -1.962000000000e+01 0.0 
0.0 -1.962000000000e+01 0.0 
0.0 -1.962000000000e+01 0.0 
0.0 -1.962000000000e+01 0.0 
0.0 -1.962000000000e+01 0.0 
0.0 -1.962000000000e+01 0.0 
0.0 -1.962000000000e+01 0.0 
0.0 -1.962000000000e+01 0.0 
0.0 -1.962000000000e+01 0.0 
0.0 -1.962000000000e+01 0.0 
0.0 -1.962000000000e+01 0.0 
0.0 -1.962000000000e+01 0.0 
0.0 -1.962000000000e+01 0.0 
0.0 -1.962000000000e+01 0.0 
0.0 -1.962000000000e+01 0.0 
0.0 -1.962000000000e+01 0.0 
0.0 -1.962000000000e+01 0.0 
0.0 -1.962000000000e+01 0.0 
0.0 -1.962000000000e+01 0.0 
0.0 -1.962000000000e+01 0.0 
0.0 -1.962000000000e+01 0.0 
0.0 -1.962000000000e+01 0.0 
0.0 -1.962000000000e+01 0.0 
0.0 -1.962000000000e+01 0.0 
0.0 -1.962000000000e+01 0.0 
0.0 -1.962000000000e+01 0.0 
0.0 -1.962000000000e+01 0.0 
0.0 -1.962000000000e+01 0.0 
0.0 -1.962000000000e+01 0.0 
0.0 -1.962000000000e+01 0.0 
0.0 -1.962000000000e+01 0.0 
0.0 -1.962000000000e+01 0.0 
0.0 -1.962000000000e+01 0.0 
0.0 -1.962000000000e+01 0.0 
0.0 -1.962000000000e+01 0.0 
0.0 -1.962000000000e+01 0.0 
0.0 -1.962000000000e+01 0.0 
0.0 -1.962000000000e+01 0.0 
0.0 -1.962000000000e+01 0.0 
0.0 -1.962000000000e+01 0.0 
0.0 -1.962000000000e+01 0.0 
0.0 -1.962000000000e+01 0.0 
0.0 -1.962000000000e+01 0.0 
0.0 -1.962000000000e+01 0.0 
0.0 -1.962000000000e+01 0.0 
0.0 -1.962000000000e+01 0.0 
0.0 -1.962000000000e+01 0.0 
0.0 -1.962000000000e+01 0.0 
0.0 -1.962000000000e+01 0.0 
0.0 -1.962000000000e+01 0.0 
0.0 -1.962000000000e+01 0.0 
0.0 -1.962000000000e+01 0.0 
0.0 -1.962000000000e+01 0.0 
0.0 -1.962000000000e+01 0.0 
0.0 -1.962000000000e+01 0.0 
0.0 -1.962000000000e+01 0.0 
0.0 -1.962000000000e+01 0.0 
0.0 -1.962000000000e+01 0.0 
0.0 -1.962000000000e+01 0.0 
0.0 -1.962000000000e+01 0.0 
0.0 -1.962000000000e+01 0.0 
0.0 -1.962000000000e+01 0.0 
0.0 -1.962000000000e+01 0.0 
0.0 -1.962000000000e+01 0.0 
0.0 -1.962000000000e+01 0.0 
0.0 -1.962000000000e+01 0.0 

VECTORS node_rhside_materi_fixed float
-1.155689250780e+00 0.0 0.0 
2.955102880524e+01 0.0 0.0 
-8.162701896827e+01 -1.952938431720e+02 0.0 
4.992406774959e+01 -1.202599584712e+02 0.0 
-6.501478337560e+00 0.0 0.0 
-1.444541707763e+01 0.0 0.0 
-2.082403896214e+01 0.0 0.0 
-2.896035458511e+01 0.0 0.0 
-3.597471582485e+01 0.0 0.0 
-4.330073546800e+01 0.0 0.0 
-5.067622649308e+01 0.0 0.0 
-5.811280364784e+01 0.0 0.0 
-6.568119346301e+01 0.0 0.0 
-7.335077390331e+01 0.0 0.0 
-8.168700653812e+01 0.0 0.0 
-9.013819944046e+01 0.0 0.0 
-9.831836829270e+01 0.0 0.0 
-1.074117316387e+02 0.0 0.0 
-1.165779683167e+02 0.0 0.0 
-1.260430482763e+02 0.0 0.0 
-1.358082961941e+02 0.0 0.0 
-1.458353817298e+02 0.0 0.0 
-1.564193718051e+02 0.0 0.0 
8.014391362440e-01 -2.393263491325e+02 0.0 
1.360842701790e+00 -2.406872807045e+02 0.0 
4.044514189347e+00 -2.399475818751e+02 0.0 
2.979556643151e+00 -2.402637559925e+02 0.0 
5.514918938144e+00 -2.414061915317e+02 0.0 
6.462016799554e+00 -2.411355658461e+02 0.0 
7.494223119537e+00 -2.424294509927e+02 0.0 
8.972850250325e+00 -2.437332743598e+02 0.0 
1.172703607545e+01 -2.441453048483e+02 0.0 
1.123730935773e+01 -2.457130453556e+02 0.0 
1.465233281083e+01 -2.486006255080e+02 0.0 
1.637396272729e+01 -2.499295440385e+02 0.0 
1.811397015675e+01 -2.535857175598e+02 0.0 
2.000356360849e+01 -2.564786240622e+02 0.0 
2.224854763859e+01 -2.603469780575e+02 0.0 
2.388626918367e+01 -2.653246659957e+02 0.0 
2.679896513129e+01 -2.702833243175e+02 0.0 
2.822916193591e+01 -2.760197505291e+02 0.0 
2.976686259053e+01 -2.820957155080e+02 0.0 
3.085240735133e+01 -2.882188620749e+02 0.0 
3.130479911825e+01 -2.948920256999e+02 0.0 
3.229368107984e+01 -3.021831398898e+02 0.0 
3.232405268705e+01 -3.089419546479e+02 0.0 
3.229702657751e+01 -3.157954411062e+02 0.0 
3.194035121323e+01 -3.227629240236e+02 0.0 
3.110582958900e+01 -3.292115217235e+02 0.0 
3.016419990208e+01 -3.353547557973e+02 0.0 
2.898871283593e+01 -3.413813936229e+02 0.0 
2.780501247625e+01 -3.471471540094e+02 0.0 
2.629104337345e+01 -3.522055225028e+02 0.0 
2.468923969273e+01 -3.567282211594e+02 0.0 
2.311580452605e+01 -3.616970596908e+02 0.0 
2.152959649141e+01 -3.653370610280e+02 0.0 
1.993179155358e+01 -3.690901557580e+02 0.0 
1.818816163635e+01 -3.722647054740e+02 0.0 
1.666410238202e+01 -3.751013403251e+02 0.0 
1.511164128489e+01 -3.776749872624e+02 0.0 
1.354346144655e+01 -3.799005976347e+02 0.0 
1.215336641225e+01 -3.817854812541e+02 0.0 
1.084752273628e+01 -3.837818792027e+02 0.0 
9.477706936833e+00 -3.850283547019e+02 0.0 
8.261264816218e+00 -3.861271519047e+02 0.0 
7.026793534416e+00 -3.869685636347e+02 0.0 
6.071972056172e+00 -3.885720446526e+02 0.0 
4.757034628935e+00 -3.884674035905e+02 0.0 
3.778413230611e+00 -3.896356182211e+02 0.0 
2.992886790372e+00 -3.895801979510e+02 0.0 
1.917172690521e+00 -3.900267454445e+02 0.0 
8.569724127716e-01 -3.900911881534e+02 0.0 
3.739066423510e+01 0.0 0.0 
4.586136110890e+01 0.0 0.0 
5.375413805876e+01 0.0 0.0 
6.129709346124e+01 0.0 0.0 
6.872805525355e+01 0.0 0.0 
7.628199834025e+01 0.0 0.0 
8.311847190579e+01 0.0 0.0 
8.933249748724e+01 0.0 0.0 
9.676602061151e+01 0.0 0.0 
0.0 0.0 0.0 
0.0 0.0 0.0 
0.0 0.0 0.0 
0.0 0.0 0.0 
0.0 0.0 0.0 
0.0 0.0 0.0 
0.0 0.0 0.0 
0.0 0.0 0.0 
0.0 0.0 0.0 
0.0 0.0 0.0 
0.0 0.0 0.0 
8.218896949312e+00 0.0 0.0 
2.167515978959e+01 0.0 0.0 
0.0 0.0 0.0 
0.0 0.0 0.0 
0.0 0.0 0.0 
0.0 0.0 0.0 
0.0 0.0 0.0 
0.0 0.0 0.0 
0.0 0.0 0.0 
0.0 0.0 0.0 
0.0 0.0 0.0 
0.0 0.0 0.0 
0.0 0.0 0.0 
0.0 0.0 0.0 
0.0 0.0 0.0 
0.0 0.0 0.0 
0.0 0.0 0.0 
0.0 0.0 0.0 
0.0 0.0 0.0 
0.0 0.0 0.0 
0.0 0.0 0.0 
0.0 0.0 0.0 
0.0 0.0 0.0 
0.0 0.0 0.0 
0.0 0.0 0.0 
0.0 0.0 0.0 
0.0 0.0 0.0 
0.0 0.0 0.0 
0.0 0.0 0.0 
0.0 0.0 0.0 
0.0 0.0 0.0 
0.0 0.0 0.0 
0.0 0.0 0.0 
0.0 0.0 0.0 
0.0 0.0 0.0 
0.0 0.0 0.0 
0.0 0.0 0.0 
0.0 0.0 0.0 
0.0 0.0 0.0 
0.0 0.0 0.0 
0.0 0.0 0.0 
0.0 0.0 0.0 
0.0 0.0 0.0 
0.0 0.0 0.0 
0.0 0.0 0.0 
0.0 0.0 0.0 
0.0 0.0 0.0 
0.0 0.0 0.0 
0.0 0.0 0.0 
0.0 0.0 0.0 
0.0 0.0 0.0 
0.0 0.0 0.0 
0.0 0.0 0.0 
0.0 0.0 0.0 
0.0 0.0 0.0 
0.0 0.0 0.0 
0.0 0.0 0.0 
0.0 0.0 0.0 
0.0 0.0 0.0 
0.0 0.0 0.0 
0.0 0.0 0.0 
0.0 0.0 0.0 
0.0 0.0 0.0 
0.0 0.0 0.0 
0.0 0.0 0.0 
0.0 0.0 0.0 
0.0 0.0 0.0 
0.0 0.0 0.0 
0.0 0.0 0.0 
0.0 0.0 0.0 
0.0 0.0 0.0 
0.0 0.0 0.0 
0.0 0.0 0.0 
0.0 0.0 0.0 
0.0 0.0 0.0 
0.0 0.0 0.0 
0.0 0.0 0.0 
0.0 0.0 0.0 
0.0 0.0 0.0 
0.0 0.0 0.0 
0.0 0.0 0.0 
0.0 0.0 0.0 
0.0 0.0 0.0 
0.0 0.0 0.0 
0.0 0.0 0.0 
0.0 0.0 0.0 
0.0 0.0 0.0 
0.0 0.0 0.0 
0.0 0.0 0.0 
0.0 0.0 0.0 
0.0 0.0 0.0 
0.0 0.0 0.0 
0.0 0.0 0.0 
0.0 0.0 0.0 
0.0 0.0 0.0 
0.0 0.0 0.0 
0.0 0.0 0.0 
0.0 0.0 0.0 
0.0 0.0 0.0 
0.0 0.0 0.0 
0.0 0.0 0.0 
0.0 0.0 0.0 
0.0 0.0 0.0 
0.0 0.0 0.0 
0.0 0.0 0.0 
0.0 0.0 0.0 
0.0 0.0 0.0 
0.0 0.0 0.0 
0.0 0.0 0.0 
0.0 0.0 0.0 
0.0 0.0 0.0 
0.0 0.0 0.0 
0.0 0.0 0.0 
0.0 0.0 0.0 
0.0 0.0 0.0 
0.0 0.0 0.0 
0.0 0.0 0.0 
0.0 0.0 0.0 
0.0 0.0 0.0 
0.0 0.0 0.0 
0.0 0.0 0.0 
0.0 0.0 0.0 
0.0 0.0 0.0 
0.0 0.0 0.0 
0.0 0.0 0.0 
0.0 0.0 0.0 
0.0 0.0 0.0 
0.0 0.0 0.0 
0.0 0.0 0.0 
0.0 0.0 0.0 
0.0 0.0 0.0 
0.0 0.0 0.0 
0.0 0.0 0.0 
0.0 0.0 0.0 
0.0 0.0 0.0 
0.0 0.0 0.0 
0.0 0.0 0.0 
0.0 0.0 0.0 
0.0 0.0 0.0 
0.0 0.0 0.0 
0.0 0.0 0.0 
0.0 0.0 0.0 
0.0 0.0 0.0 
0.0 0.0 0.0 
0.0 0.0 0.0 
0.0 0.0 0.0 
0.0 0.0 0.0 
0.0 0.0 0.0 
0.0 0.0 0.0 
0.0 0.0 0.0 
0.0 0.0 0.0 
0.0 0.0 0.0 
0.0 0.0 0.0 
0.0 0.0 0.0 
0.0 0.0 0.0 
0.0 0.0 0.0 
0.0 0.0 0.0 
0.0 0.0 0.0 
0.0 0.0 0.0 
0.0 0.0 0.0 
0.0 0.0 0.0 
0.0 0.0 0.0 
0.0 0.0 0.0 
0.0 0.0 0.0 
0.0 0.0 0.0 
0.0 0.0 0.0 
0.0 0.0 0.0 
0.0 0.0 0.0 
0.0 0.0 0.0 
0.0 0.0 0.0 
0.0 0.0 0.0 
0.0 0.0 0.0 
0.0 0.0 0.0 
0.0 0.0 0.0 
0.0 0.0 0.0 
0.0 0.0 0.0 
0.0 0.0 0.0 
0.0 0.0 0.0 
0.0 0.0 0.0 
0.0 0.0 0.0 
0.0 0.0 0.0 
0.0 0.0 0.0 
0.0 0.0 0.0 
0.0 0.0 0.0 
0.0 0.0 0.0 
0.0 0.0 0.0 
0.0 0.0 0.0 
0.0 0.0 0.0 
0.0 0.0 0.0 
0.0 0.0 0.0 
0.0 0.0 0.0 
0.0 0.0 0.0 
0.0 0.0 0.0 
0.0 0.0 0.0 
0.0 0.0 0.0 
0.0 0.0 0.0 
0.0 0.0 0.0 
0.0 0.0 0.0 
0.0 0.0 0.0 
0.0 0.0 0.0 
0.0 0.0 0.0 
0.0 0.0 0.0 
0.0 0.0 0.0 
0.0 0.0 0.0 
0.0 0.0 0.0 
0.0 0.0 0.0 
0.0 0.0 0.0 
0.0 0.0 0.0 
0.0 0.0 0.0 
0.0 0.0 0.0 
0.0 0.0 0.0 
0.0 0.0 0.0 
0.0 0.0 0.0 
0.0 0.0 0.0 
0.0 0.0 0.0 
0.0 0.0 0.0 
0.0 0.0 0.0 
0.0 0.0 0.0 
0.0 0.0 0.0 
0.0 0.0 0.0 
0.0 0.0 0.0 
0.0 0.0 0.0 
0.0 0.0 0.0 
0.0 0.0 0.0 
0.0 0.0 0.0 
0.0 0.0 0.0 
0.0 0.0 0.0 
0.0 0.0 0.0 
0.0 0.0 0.0 
0.0 0.0 0.0 
0.0 0.0 0.0 
0.0 0.0 0.0 
0.0 0.0 0.0 
0.0 0.0 0.0 
0.0 0.0 0.0 
0.0 0.0 0.0 
0.0 0.0 0.0 
0.0 0.0 0.0 
0.0 0.0 0.0 
0.0 0.0 0.0 
0.0 0.0 0.0 
0.0 0.0 0.0 
0.0 0.0 0.0 
0.0 0.0 0.0 
0.0 0.0 0.0 
0.0 0.0 0.0 
0.0 0.0 0.0 
0.0 0.0 0.0 
0.0 0.0 0.0 
0.0 0.0 0.0 
0.0 0.0 0.0 
0.0 0.0 0.0 
0.0 0.0 0.0 
0.0 0.0 0.0 
0.0 0.0 0.0 
0.0 0.0 0.0 
0.0 0.0 0.0 
0.0 0.0 0.0 
0.0 0.0 0.0 
0.0 0.0 0.0 
0.0 0.0 0.0 
0.0 0.0 0.0 
0.0 0.0 0.0 
0.0 0.0 0.0 
0.0 0.0 0.0 
0.0 0.0 0.0 
0.0 0.0 0.0 
0.0 0.0 0.0 
0.0 0.0 0.0 
0.0 0.0 0.0 
0.0 0.0 0.0 
0.0 0.0 0.0 
0.0 0.0 0.0 
0.0 0.0 0.0 
0.0 0.0 0.0 
0.0 0.0 0.0 
0.0 0.0 0.0 
0.0 0.0 0.0 
0.0 0.0 0.0 
0.0 0.0 0.0 
0.0 0.0 0.0 
0.0 0.0 0.0 
0.0 0.0 0.0 
0.0 0.0 0.0 
0.0 0.0 0.0 
0.0 0.0 0.0 
0.0 0.0 0.0 
0.0 0.0 0.0 
0.0 0.0 0.0 
0.0 0.0 0.0 
0.0 0.0 0.0 
0.0 0.0 0.0 
0.0 0.0 0.0 
0.0 0.0 0.0 
0.0 0.0 0.0 
0.0 0.0 0.0 
0.0 0.0 0.0 
0.0 0.0 0.0 
0.0 0.0 0.0 
0.0 0.0 0.0 
0.0 0.0 0.0 
0.0 0.0 0.0 
0.0 0.0 0.0 
0.0 0.0 0.0 
0.0 0.0 0.0 
0.0 0.0 0.0 
0.0 0.0 0.0 
0.0 0.0 0.0 
0.0 0.0 0.0 
0.0 0.0 0.0 
0.0 0.0 0.0 
0.0 0.0 0.0 
0.0 0.0 0.0 
0.0 0.0 0.0 
0.0 0.0 0.0 
0.0 0.0 0.0 
0.0 0.0 0.0 
0.0 0.0 0.0 
0.0 0.0 0.0 
0.0 0.0 0.0 
0.0 0.0 0.0 
0.0 0.0 0.0 
0.0 0.0 0.0 
0.0 0.0 0.0 
0.0 0.0 0.0 
0.0 0.0 0.0 
0.0 0.0 0.0 
0.0 0.0 0.0 
0.0 0.0 0.0 
0.0 0.0 0.0 
0.0 0.0 0.0 
0.0 0.0 0.0 
0.0 0.0 0.0 
0.0 0.0 0.0 
0.0 0.0 0.0 
0.0 0.0 0.0 
0.0 0.0 0.0 
0.0 0.0 0.0 
0.0 0.0 0.0 
0.0 0.0 0.0 
0.0 0.0 0.0 
0.0 0.0 0.0 
0.0 0.0 0.0 
0.0 0.0 0.0 
0.0 0.0 0.0 
0.0 0.0 0.0 
0.0 0.0 0.0 
0.0 0.0 0.0 
0.0 0.0 0.0 
0.0 0.0 0.0 
0.0 0.0 0.0 
0.0 0.0 0.0 
0.0 0.0 0.0 
0.0 0.0 0.0 
0.0 0.0 0.0 
0.0 0.0 0.0 
0.0 0.0 0.0 
0.0 0.0 0.0 
0.0 0.0 0.0 
0.0 0.0 0.0 
0.0 0.0 0.0 
0.0 0.0 0.0 
0.0 0.0 0.0 
0.0 0.0 0.0 
0.0 0.0 0.0 
0.0 0.0 0.0 
0.0 0.0 0.0 
0.0 0.0 0.0 
0.0 0.0 0.0 
0.0 0.0 0.0 
0.0 0.0 0.0 
0.0 0.0 0.0 
0.0 0.0 0.0 
0.0 0.0 0.0 
0.0 0.0 0.0 
0.0 0.0 0.0 
0.0 0.0 0.0 
0.0 0.0 0.0 
0.0 0.0 0.0 
0.0 0.0 0.0 
0.0 0.0 0.0 
0.0 0.0 0.0 
0.0 0.0 0.0 
0.0 0.0 0.0 
0.0 0.0 0.0 
0.0 0.0 0.0 
0.0 0.0 0.0 
0.0 0.0 0.0 
0.0 0.0 0.0 
0.0 0.0 0.0 
0.0 0.0 0.0 
0.0 0.0 0.0 
0.0 0.0 0.0 
0.0 0.0 0.0 
0.0 0.0 0.0 
0.0 0.0 0.0 
0.0 0.0 0.0 
0.0 0.0 0.0 
0.0 0.0 0.0 
0.0 0.0 0.0 
0.0 0.0 0.0 
0.0 0.0 0.0 
0.0 0.0 0.0 
0.0 0.0 0.0 
0.0 0.0 0.0 
0.0 0.0 0.0 
0.0 0.0 0.0 
0.0 0.0 0.0 
0.0 0.0 0.0 
0.0 0.0 0.0 
0.0 0.0 0.0 
0.0 0.0 0.0 
0.0 0.0 0.0 
0.0 0.0 0.0 
0.0 0.0 0.0 
0.0 0.0 0.0 
0.0 0.0 0.0 
0.0 0.0 0.0 
0.0 0.0 0.0 
0.0 0.0 0.0 
0.0 0.0 0.0 
0.0 0.0 0.0 
0.0 0.0 0.0 
0.0 0.0 0.0 
0.0 0.0 0.0 
0.0 0.0 0.0 
0.0 0.0 0.0 
0.0 0.0 0.0 
0.0 0.0 0.0 
0.0 0.0 0.0 
0.0 0.0 0.0 
0.0 0.0 0.0 
0.0 0.0 0.0 
0.0 0.0 0.0 
0.0 0.0 0.0 
0.0 0.0 0.0 
0.0 0.0 0.0 
0.0 0.0 0.0 
0.0 0.0 0.0 
0.0 0.0 0.0 
0.0 0.0 0.0 
0.0 0.0 0.0 
0.0 0.0 0.0 
0.0 0.0 0.0 
0.0 0.0 0.0 
0.0 0.0 0.0 
0.0 0.0 0.0 
0.0 0.0 0.0 
0.0 0.0 0.0 
0.0 0.0 0.0 
0.0 0.0 0.0 
0.0 0.0 0.0 
0.0 0.0 0.0 
0.0 0.0 0.0 
0.0 0.0 0.0 
0.0 0.0 0.0 
0.0 0.0 0.0 
0.0 0.0 0.0 
0.0 0.0 0.0 
0.0 0.0 0.0 
0.0 0.0 0.0 
0.0 0.0 0.0 
0.0 0.0 0.0 
0.0 0.0 0.0 
0.0 0.0 0.0 
0.0 0.0 0.0 
0.0 0.0 0.0 
0.0 0.0 0.0 
0.0 0.0 0.0 
0.0 0.0 0.0 
0.0 0.0 0.0 
0.0 0.0 0.0 
0.0 0.0 0.0 
0.0 0.0 0.0 
0.0 0.0 0.0 
0.0 0.0 0.0 
0.0 0.0 0.0 
0.0 0.0 0.0 
0.0 0.0 0.0 
0.0 0.0 0.0 
0.0 0.0 0.0 
0.0 0.0 0.0 
0.0 0.0 0.0 
0.0 0.0 0.0 
0.0 0.0 0.0 
0.0 0.0 0.0 
0.0 0.0 0.0 
0.0 0.0 0.0 
0.0 0.0 0.0 
0.0 0.0 0.0 
0.0 0.0 0.0 
0.0 0.0 0.0 
0.0 0.0 0.0 
0.0 0.0 0.0 
0.0 0.0 0.0 
0.0 0.0 0.0 
0.0 0.0 0.0 
0.0 0.0 0.0 
0.0 0.0 0.0 
0.0 0.0 0.0 
0.0 0.0 0.0 
0.0 0.0 0.0 
0.0 0.0 0.0 
0.0 0.0 0.0 
0.0 0.0 0.0 
0.0 0.0 0.0 
0.0 0.0 0.0 
0.0 0.0 0.0 
0.0 0.0 0.0 
0.0 0.0 0.0 
0.0 0.0 0.0 
0.0 0.0 0.0 
0.0 0.0 0.0 
0.0 0.0 0.0 
0.0 0.0 0.0 
0.0 0.0 0.0 
0.0 0.0 0.0 
0.0 0.0 0.0 
0.0 0.0 0.0 
0.0 0.0 0.0 
0.0 0.0 0.0 
0.0 0.0 0.0 
0.0 0.0 0.0 
0.0 0.0 0.0 
0.0 0.0 0.0 
0.0 0.0 0.0 
0.0 0.0 0.0 
0.0 0.0 0.0 
0.0 0.0 0.0 
0.0 0.0 0.0 
0.0 0.0 0.0 
0.0 0.0 0.0 
0.0 0.0 0.0 
0.0 0.0 0.0 
0.0 0.0 0.0 
0.0 0.0 0.0 
0.0 0.0 0.0 
0.0 0.0 0.0 
0.0 0.0 0.0 
0.0 0.0 0.0 
0.0 0.0 0.0 
0.0 0.0 0.0 
0.0 0.0 0.0 
0.0 0.0 0.0 
0.0 0.0 0.0 
0.0 0.0 0.0 
0.0 0.0 0.0 
0.0 0.0 0.0 
0.0 0.0 0.0 
0.0 0.0 0.0 
0.0 0.0 0.0 
0.0 0.0 0.0 
0.0 0.0 0.0 
0.0 0.0 0.0 
0.0 0.0 0.0 
0.0 0.0 0.0 
0.0 0.0 0.0 
0.0 0.0 0.0 
0.0 0.0 0.0 
0.0 0.0 0.0 
0.0 0.0 0.0 
0.0 0.0 0.0 
0.0 0.0 0.0 
0.0 0.0 0.0 
0.0 0.0 0.0 
0.0 0.0 0.0 
0.0 0.0 0.0 
0.0 0.0 0.0 
0.0 0.0 0.0 
0.0 0.0 0.0 
0.0 0.0 0.0 
0.0 0.0 0.0 
0.0 0.0 0.0 
0.0 0.0 0.0 
0.0 0.0 0.0 
0.0 0.0 0.0 
0.0 0.0 0.0 
0.0 0.0 0.0 
0.0 0.0 0.0 
0.0 0.0 0.0 
0.0 0.0 0.0 
0.0 0.0 0.0 
0.0 0.0 0.0 
0.0 0.0 0.0 
0.0 0.0 0.0 
0.0 0.0 0.0 
0.0 0.0 0.0 
0.0 0.0 0.0 
0.0 0.0 0.0 
0.0 0.0 0.0 
0.0 0.0 0.0 
0.0 0.0 0.0 
0.0 0.0 0.0 
0.0 0.0 0.0 
0.0 0.0 0.0 
0.0 0.0 0.0 
0.0 0.0 0.0 
0.0 0.0 0.0 
0.0 0.0 0.0 
0.0 0.0 0.0 
0.0 0.0 0.0 
0.0 0.0 0.0 
0.0 0.0 0.0 
0.0 0.0 0.0 
0.0 0.0 0.0 
0.0 0.0 0.0 
0.0 0.0 0.0 
0.0 0.0 0.0 
0.0 0.0 0.0 
0.0 0.0 0.0 
0.0 0.0 0.0 
0.0 0.0 0.0 
0.0 0.0 0.0 
0.0 0.0 0.0 
0.0 0.0 0.0 
0.0 0.0 0.0 
0.0 0.0 0.0 
0.0 0.0 0.0 
0.0 0.0 0.0 
0.0 0.0 0.0 
0.0 0.0 0.0 
0.0 0.0 0.0 
0.0 0.0 0.0 
0.0 0.0 0.0 
0.0 0.0 0.0 
0.0 0.0 0.0 
0.0 0.0 0.0 
0.0 0.0 0.0 
0.0 0.0 0.0 
0.0 0.0 0.0 
0.0 0.0 0.0 
0.0 0.0 0.0 
0.0 0.0 0.0 
0.0 0.0 0.0 
0.0 0.0 0.0 
0.0 0.0 0.0 
0.0 0.0 0.0 
0.0 0.0 0.0 
0.0 0.0 0.0 
0.0 0.0 0.0 
0.0 0.0 0.0 
0.0 0.0 0.0 
0.0 0.0 0.0 
0.0 0.0 0.0 
0.0 0.0 0.0 
0.0 0.0 0.0 
0.0 0.0 0.0 
0.0 0.0 0.0 
0.0 0.0 0.0 
0.0 0.0 0.0 
0.0 0.0 0.0 
0.0 0.0 0.0 
0.0 0.0 0.0 
0.0 0.0 0.0 
0.0 0.0 0.0 
0.0 0.0 0.0 
0.0 0.0 0.0 
0.0 0.0 0.0 
0.0 0.0 0.0 
0.0 0.0 0.0 
0.0 0.0 0.0 
0.0 0.0 0.0 
0.0 0.0 0.0 
0.0 0.0 0.0 
0.0 0.0 0.0 
0.0 0.0 0.0 
0.0 0.0 0.0 
0.0 0.0 0.0 
0.0 0.0 0.0 
0.0 0.0 0.0 
0.0 0.0 0.0 
0.0 0.0 0.0 
0.0 0.0 0.0 
0.0 0.0 0.0 
0.0 0.0 0.0 
0.0 0.0 0.0 
0.0 0.0 0.0 
0.0 0.0 0.0 
0.0 0.0 0.0 
0.0 0.0 0.0 
0.0 0.0 0.0 
0.0 0.0 0.0 
0.0 0.0 0.0 
0.0 0.0 0.0 
0.0 0.0 0.0 
0.0 0.0 0.0 
0.0 0.0 0.0 
0.0 0.0 0.0 
0.0 0.0 0.0 
0.0 0.0 0.0 
0.0 0.0 0.0 
0.0 0.0 0.0 
0.0 0.0 0.0 
0.0 0.0 0.0 
0.0 0.0 0.0 
0.0 0.0 0.0 
0.0 0.0 0.0 
0.0 0.0 0.0 
0.0 0.0 0.0 
0.0 0.0 0.0 
0.0 0.0 0.0 
0.0 0.0 0.0 
0.0 0.0 0.0 
0.0 0.0 0.0 
0.0 0.0 0.0 
0.0 0.0 0.0 
0.0 0.0 0.0 
0.0 0.0 0.0 
0.0 0.0 0.0 
0.0 0.0 0.0 
0.0 0.0 0.0 
0.0 0.0 0.0 
0.0 0.0 0.0 
0.0 0.0 0.0 
0.0 0.0 0.0 
0.0 0.0 0.0 
0.0 0.0 0.0 
0.0 0.0 0.0 
0.0 0.0 0.0 
0.0 0.0 0.0 
0.0 0.0 0.0 
0.0 0.0 0.0 
0.0 0.0 0.0 
0.0 0.0 0.0 
0.0 0.0 0.0 
0.0 0.0 0.0 
0.0 0.0 0.0 
0.0 0.0 0.0 
0.0 0.0 0.0 
0.0 0.0 0.0 
0.0 0.0 0.0 
0.0 0.0 0.0 
0.0 0.0 0.0 
0.0 0.0 0.0 
0.0 0.0 0.0 
0.0 0.0 0.0 
0.0 0.0 0.0 
0.0 0.0 0.0 
0.0 0.0 0.0 
0.0 0.0 0.0 
0.0 0.0 0.0 
0.0 0.0 0.0 
0.0 0.0 0.0 
0.0 0.0 0.0 
0.0 0.0 0.0 
0.0 0.0 0.0 
0.0 0.0 0.0 
0.0 0.0 0.0 
0.0 0.0 0.0 
0.0 0.0 0.0 
0.0 0.0 0.0 
0.0 0.0 0.0 
0.0 0.0 0.0 
0.0 0.0 0.0 
0.0 0.0 0.0 
0.0 0.0 0.0 
0.0 0.0 0.0 
0.0 0.0 0.0 
0.0 0.0 0.0 
0.0 0.0 0.0 
0.0 0.0 0.0 
0.0 0.0 0.0 
0.0 0.0 0.0 
0.0 0.0 0.0 
0.0 0.0 0.0 
0.0 0.0 0.0 
0.0 0.0 0.0 
0.0 0.0 0.0 
0.0 0.0 0.0 
0.0 0.0 0.0 
0.0 0.0 0.0 
0.0 0.0 0.0 
0.0 0.0 0.0 
0.0 0.0 0.0 
0.0 0.0 0.0 
0.0 0.0 0.0 
0.0 0.0 0.0 
0.0 0.0 0.0 
0.0 0.0 0.0 
0.0 0.0 0.0 
0.0 0.0 0.0 
0.0 0.0 0.0 
0.0 0.0 0.0 
0.0 0.0 0.0 
0.0 0.0 0.0 
0.0 0.0 0.0 
0.0 0.0 0.0 
0.0 0.0 0.0 
0.0 0.0 0.0 
0.0 0.0 0.0 
0.0 0.0 0.0 
0.0 0.0 0.0 
0.0 0.0 0.0 
0.0 0.0 0.0 
0.0 0.0 0.0 
0.0 0.0 0.0 
0.0 0.0 0.0 
0.0 0.0 0.0 
0.0 0.0 0.0 
0.0 0.0 0.0 
0.0 0.0 0.0 
0.0 0.0 0.0 
0.0 0.0 0.0 
0.0 0.0 0.0 
0.0 0.0 0.0 
0.0 0.0 0.0 
0.0 0.0 0.0 
0.0 0.0 0.0 
0.0 0.0 0.0 
0.0 0.0 0.0 
0.0 0.0 0.0 
0.0 0.0 0.0 
0.0 0.0 0.0 
0.0 0.0 0.0 
0.0 0.0 0.0 
0.0 0.0 0.0 
0.0 0.0 0.0 
0.0 0.0 0.0 
0.0 0.0 0.0 
0.0 0.0 0.0 
0.0 0.0 0.0 
0.0 0.0 0.0 
0.0 0.0 0.0 
0.0 0.0 0.0 
0.0 0.0 0.0 
0.0 0.0 0.0 
0.0 0.0 0.0 
0.0 0.0 0.0 
0.0 0.0 0.0 
0.0 0.0 0.0 
0.0 0.0 0.0 
0.0 0.0 0.0 
0.0 0.0 0.0 
0.0 0.0 0.0 
0.0 0.0 0.0 
0.0 0.0 0.0 
0.0 0.0 0.0 
0.0 0.0 0.0 
0.0 0.0 0.0 
0.0 0.0 0.0 
0.0 0.0 0.0 
0.0 0.0 0.0 
0.0 0.0 0.0 
0.0 0.0 0.0 
0.0 0.0 0.0 
0.0 0.0 0.0 
0.0 0.0 0.0 
0.0 0.0 0.0 
0.0 0.0 0.0 
0.0 0.0 0.0 
0.0 0.0 0.0 
0.0 0.0 0.0 
0.0 0.0 0.0 
0.0 0.0 0.0 
0.0 0.0 0.0 
0.0 0.0 0.0 
0.0 0.0 0.0 
0.0 0.0 0.0 
0.0 0.0 0.0 
0.0 0.0 0.0 
0.0 0.0 0.0 
0.0 0.0 0.0 
0.0 0.0 0.0 
0.0 0.0 0.0 
0.0 0.0 0.0 
0.0 0.0 0.0 
0.0 0.0 0.0 
0.0 0.0 0.0 
0.0 0.0 0.0 
0.0 0.0 0.0 
0.0 0.0 0.0 
0.0 0.0 0.0 
0.0 0.0 0.0 
0.0 0.0 0.0 
0.0 0.0 0.0 
0.0 0.0 0.0 
0.0 0.0 0.0 
0.0 0.0 0.0 
0.0 0.0 0.0 
0.0 0.0 0.0 
0.0 0.0 0.0 
0.0 0.0 0.0 
0.0 0.0 0.0 
0.0 0.0 0.0 
0.0 0.0 0.0 
0.0 0.0 0.0 
0.0 0.0 0.0 
0.0 0.0 0.0 
0.0 0.0 0.0 
0.0 0.0 0.0 
0.0 0.0 0.0 
0.0 0.0 0.0 
0.0 0.0 0.0 
0.0 0.0 0.0 
0.0 0.0 0.0 
0.0 0.0 0.0 
0.0 0.0 0.0 
0.0 0.0 0.0 
0.0 0.0 0.0 
0.0 0.0 0.0 
0.0 0.0 0.0 
0.0 0.0 0.0 
0.0 0.0 0.0 
0.0 0.0 0.0 
0.0 0.0 0.0 
0.0 0.0 0.0 
0.0 0.0 0.0 
0.0 0.0 0.0 
0.0 0.0 0.0 
0.0 0.0 0.0 
0.0 0.0 0.0 
0.0 0.0 0.0 
0.0 0.0 0.0 
0.0 0.0 0.0 
0.0 0.0 0.0 
0.0 0.0 0.0 
0.0 0.0 0.0 
0.0 0.0 0.0 
0.0 0.0 0.0 
0.0 0.0 0.0 
0.0 0.0 0.0 
0.0 0.0 0.0 
0.0 0.0 0.0 
0.0 0.0 0.0 
0.0 0.0 0.0 
0.0 0.0 0.0 
0.0 0.0 0.0 
0.0 0.0 0.0 
0.0 0.0 0.0 
0.0 0.0 0.0 
0.0 0.0 0.0 
0.0 0.0 0.0 
0.0 0.0 0.0 
0.0 0.0 0.0 
0.0 0.0 0.0 
0.0 0.0 0.0 
0.0 0.0 0.0 
0.0 0.0 0.0 
0.0 0.0 0.0 
0.0 0.0 0.0 
0.0 0.0 0.0 
0.0 0.0 0.0 
0.0 0.0 0.0 
0.0 0.0 0.0 
0.0 0.0 0.0 
0.0 0.0 0.0 
0.0 0.0 0.0 
0.0 0.0 0.0 
0.0 0.0 0.0 
0.0 0.0 0.0 
0.0 0.0 0.0 
0.0 0.0 0.0 
0.0 0.0 0.0 
0.0 0.0 0.0 
0.0 0.0 0.0 
0.0 0.0 0.0 
0.0 0.0 0.0 
0.0 0.0 0.0 
0.0 0.0 0.0 
0.0 0.0 0.0 
0.0 0.0 0.0 
0.0 0.0 0.0 
0.0 0.0 0.0 
0.0 0.0 0.0 
0.0 0.0 0.0 
0.0 0.0 0.0 
0.0 0.0 0.0 
0.0 0.0 0.0 
0.0 0.0 0.0 
0.0 0.0 0.0 
0.0 0.0 0.0 
0.0 0.0 0.0 
0.0 0.0 0.0 
0.0 0.0 0.0 
0.0 0.0 0.0 

VECTORS node_materi_velocity float
0.0 -4.272132780663e-05 0.0 
0.0 1.497236492442e-03 0.0 
0.0 0.0 0.0 
0.0 0.0 0.0 
0.0 -4.131889204380e-05 0.0 
0.0 -3.987475538645e-05 0.0 
0.0 -3.831863987292e-05 0.0 
0.0 -3.660438295998e-05 0.0 
0.0 -3.466238452409e-05 0.0 
0.0 -3.248551969419e-05 0.0 
0.0 -3.007025911726e-05 0.0 
0.0 -2.742089759830e-05 0.0 
0.0 -2.457106335948e-05 0.0 
0.0 -2.156446472346e-05 0.0 
0.0 -1.846645162519e-05 0.0 
0.0 -1.536409537818e-05 0.0 
0.0 -1.232964611997e-05 0.0 
0.0 -9.403987453829e-06 0.0 
0.0 -6.734645236461e-06 0.0 
0.0 -4.401193850424e-06 0.0 
0.0 -2.478341945340e-06 0.0 
0.0 -1.072965194494e-06 0.0 
0.0 -2.726303739578e-07 0.0 
0.0 0.0 0.0 
0.0 0.0 0.0 
0.0 0.0 0.0 
0.0 0.0 0.0 
0.0 0.0 0.0 
0.0 0.0 0.0 
0.0 0.0 0.0 
0.0 0.0 0.0 
0.0 0.0 0.0 
0.0 0.0 0.0 
0.0 0.0 0.0 
0.0 0.0 0.0 
0.0 0.0 0.0 
0.0 0.0 0.0 
0.0 0.0 0.0 
0.0 0.0 0.0 
0.0 0.0 0.0 
0.0 0.0 0.0 
0.0 0.0 0.0 
0.0 0.0 0.0 
0.0 0.0 0.0 
0.0 0.0 0.0 
0.0 0.0 0.0 
0.0 0.0 0.0 
0.0 0.0 0.0 
0.0 0.0 0.0 
0.0 0.0 0.0 
0.0 0.0 0.0 
0.0 0.0 0.0 
0.0 0.0 0.0 
0.0 0.0 0.0 
0.0 0.0 0.0 
0.0 0.0 0.0 
0.0 0.0 0.0 
0.0 0.0 0.0 
0.0 0.0 0.0 
0.0 0.0 0.0 
0.0 0.0 0.0 
0.0 0.0 0.0 
0.0 0.0 0.0 
0.0 0.0 0.0 
0.0 0.0 0.0 
0.0 0.0 0.0 
0.0 0.0 0.0 
0.0 0.0 0.0 
0.0 0.0 0.0 
0.0 0.0 0.0 
0.0 0.0 0.0 
0.0 0.0 0.0 
0.0 1.344217056884e-03 0.0 
0.0 1.191209194911e-03 0.0 
0.0 1.038376660148e-03 0.0 
0.0 8.858990063643e-04 0.0 
0.0 7.341660764364e-04 0.0 
0.0 5.834962393136e-04 0.0 
0.0 4.343205382200e-04 0.0 
0.0 2.870991562854e-04 0.0 
0.0 1.422900283471e-04 0.0 
-6.969309894735e-06 1.035358602943e-06 0.0 
2.581515071912e-04 1.266970470334e-03 0.0 
-4.062455284645e-06 1.912183422997e-05 0.0 
-4.556186116899e-06 4.523449550589e-05 0.0 
-5.878305854598e-06 8.367003169048e-05 0.0 
-5.703575245198e-06 1.413082248812e-04 0.0 
-4.982756865236e-07 2.278780498145e-04 0.0 
2.281054176746e-05 3.620780778061e-04 0.0 
1.284907857184e-04 5.874637626774e-04 0.0 
1.462766468393e-04 1.032562321009e-03 0.0 
2.167709811717e-04 1.236993580574e-03 0.0 
0.0 1.806147410776e-03 0.0 
0.0 1.650372770579e-03 0.0 
1.799281418648e-05 1.497585114959e-03 0.0 
3.602549538144e-05 1.498215254363e-03 0.0 
5.354137875552e-05 1.498316934294e-03 0.0 
7.072588690193e-05 1.498590074557e-03 0.0 
8.760551647585e-05 1.498865476782e-03 0.0 
1.041633241537e-04 1.498703089329e-03 0.0 
1.204221189136e-04 1.497449477086e-03 0.0 
1.360417440220e-04 1.494216446298e-03 0.0 
1.513869845995e-04 1.488072837844e-03 0.0 
1.664434148350e-04 1.477766010567e-03 0.0 
1.814716265146e-04 1.461139820260e-03 0.0 
1.970462637508e-04 1.435750212582e-03 0.0 
2.140536719530e-04 1.398213698255e-03 0.0 
2.336404322636e-04 1.344019547912e-03 0.0 
-3.710228749272e-06 -1.003922569530e-05 0.0 
7.805143706133e-07 -2.013903514660e-05 0.0 
5.556038330126e-06 -2.846161471888e-05 0.0 
1.022067719693e-05 -3.499668870929e-05 0.0 
1.420674054138e-05 -3.999131461213e-05 0.0 
1.748752068340e-05 -4.357515436608e-05 0.0 
2.000659346788e-05 -4.594788874093e-05 0.0 
2.173240608978e-05 -4.738748958046e-05 0.0 
2.270078144608e-05 -4.807012084687e-05 0.0 
2.294281783153e-05 -4.816351852149e-05 0.0 
2.250508164269e-05 -4.788601168076e-05 0.0 
2.149390740783e-05 -4.728205315854e-05 0.0 
1.992241004699e-05 -4.654126010591e-05 0.0 
1.791415169641e-05 -4.572668949844e-05 0.0 
1.551579634843e-05 -4.494764733338e-05 0.0 
1.279503274491e-05 -4.422018054318e-05 0.0 
9.811900147361e-06 -4.359978214428e-05 0.0 
6.641140050345e-06 -4.313976209300e-05 0.0 
3.355264100673e-06 -4.284847167999e-05 0.0 
2.467828138130e-05 1.805699078974e-03 0.0 
3.919471842644e-05 1.803658375262e-03 0.0 
5.569074613468e-05 1.803042966855e-03 0.0 
7.281131323987e-05 1.803305083174e-03 0.0 
8.949878541359e-05 1.803184784356e-03 0.0 
1.049276216538e-04 1.802349906232e-03 0.0 
1.184585393397e-04 1.800260953214e-03 0.0 
1.293667415137e-04 1.795747663858e-03 0.0 
1.376698771470e-04 1.788027878974e-03 0.0 
1.422443751736e-04 1.776380477424e-03 0.0 
1.421075880647e-04 1.758554074405e-03 0.0 
1.370671441439e-04 1.732106393342e-03 0.0 
1.268573666823e-04 1.694252465614e-03 0.0 
1.116319200079e-04 1.640684845389e-03 0.0 
9.323303091553e-05 1.567433885741e-03 0.0 
7.399220636530e-05 1.463674802880e-03 0.0 
5.452241655802e-05 1.313463985193e-03 0.0 
1.927896448613e-04 1.369729875556e-03 0.0 
1.820559502923e-04 1.457918969490e-03 0.0 
1.747128619930e-04 1.520400669955e-03 0.0 
1.693213727514e-04 1.565198367453e-03 0.0 
1.639119106793e-04 1.596496000701e-03 0.0 
1.573769263471e-04 1.617899176429e-03 0.0 
1.492549873505e-04 1.631985872593e-03 0.0 
1.393847994942e-04 1.640993899243e-03 0.0 
1.277927905104e-04 1.646596714724e-03 0.0 
1.147208611723e-04 1.649574390753e-03 0.0 
1.004132895220e-04 1.650749961247e-03 0.0 
8.512703862754e-05 1.651018696422e-03 0.0 
6.916310816209e-05 1.650940088905e-03 0.0 
5.286729597769e-05 1.650952750682e-03 0.0 
3.618185920602e-05 1.651497497340e-03 0.0 
1.831435055984e-05 1.651123634634e-03 0.0 
-4.760204022065e-06 9.345104757478e-06 0.0 
-4.081274885075e-06 3.093642736764e-05 0.0 
-5.180224537588e-06 6.260930707348e-05 0.0 
-6.198454397782e-06 1.093497376355e-04 0.0 
-4.722411212902e-06 1.797623634189e-04 0.0 
7.212119504469e-06 2.880738144133e-04 0.0 
5.491159788552e-05 4.573035324451e-04 0.0 
1.548669515743e-04 8.100992486921e-04 0.0 
1.830600256479e-04 1.159725451421e-03 0.0 
2.442960304276e-04 1.264138065946e-03 0.0 
3.563927625055e-06 3.039768304323e-05 0.0 
2.477944326349e-05 3.255948613995e-06 0.0 
2.361516540507e-05 -4.817210608913e-05 0.0 
1.678193135177e-05 -3.879081572124e-05 0.0 
1.263479606486e-05 7.980569566081e-07 0.0 
1.141220145037e-05 1.099930101693e-04 0.0 
4.052593230517e-06 -2.002582057917e-05 0.0 
4.096381821603e-05 8.450104529130e-06 0.0 
5.981267885611e-05 2.815447032724e-04 0.0 
6.141803775041e-05 1.897244603016e-05 0.0 
2.275398269429e-04 7.477543830485e-04 0.0 
6.244086309816e-06 1.640831098709e-07 0.0 
1.847244145473e-05 -4.529794606252e-05 0.0 
8.468526282200e-05 4.083426582517e-05 0.0 
3.082666586921e-04 1.119341789918e-03 0.0 
3.429463337460e-06 -3.131623168154e-05 0.0 
3.953622745759e-06 -1.144976450136e-05 0.0 
9.517937648311e-05 6.667347592618e-05 0.0 
7.758969526176e-05 9.375791106036e-05 0.0 
2.137369820905e-05 1.201815465408e-04 0.0 
4.132557269242e-05 1.266285614441e-04 0.0 
5.642397550437e-05 1.059135092699e-04 0.0 
2.580922483417e-04 1.238804410409e-03 0.0 
1.700786833314e-04 1.345535603905e-03 0.0 
1.152346067854e-04 1.356659556535e-03 0.0 
1.246288223646e-05 8.076182610775e-04 0.0 
3.601607830913e-06 -6.200724047389e-08 0.0 
5.881358826798e-06 -1.626099784447e-05 0.0 
1.099991886817e-05 -4.278378371441e-05 0.0 
2.592917837350e-06 -3.534615045680e-06 0.0 
6.105360372670e-05 1.366770681734e-03 0.0 
3.221731494318e-06 -3.761497857864e-05 0.0 
1.000633417600e-04 9.259630107127e-05 0.0 
4.698424567309e-05 1.182011015889e-05 0.0 
7.279376541877e-05 2.783904451468e-05 0.0 
3.436801991271e-05 5.811150787798e-06 0.0 
1.807627427431e-05 1.799417457380e-06 0.0 
2.161719657078e-05 -4.566491880040e-05 0.0 
2.092605702621e-04 1.320558574307e-03 0.0 
1.066616492429e-05 3.889755866555e-07 0.0 
9.932692289170e-06 5.150429461736e-04 0.0 
2.206567553982e-05 -4.719089650220e-05 0.0 
3.898582349063e-06 -2.610280901429e-05 0.0 
1.055969073152e-05 9.809097202250e-05 0.0 
2.637101597132e-05 1.732359189780e-04 0.0 
5.733755658813e-06 6.268848708609e-05 0.0 
1.429537964112e-04 4.568794711897e-04 0.0 
2.891443137578e-04 1.021299161863e-03 0.0 
1.385694527343e-06 8.491669751569e-06 0.0 
1.441925705992e-05 1.096557105251e-03 0.0 
1.593935387186e-06 -9.323645621783e-08 0.0 
4.964050650224e-06 -4.180717192465e-05 0.0 
5.645740954902e-06 2.249397422518e-04 0.0 
3.113780386949e-04 1.107207238608e-03 0.0 
3.486620187301e-04 9.796497112763e-04 0.0 
3.312891774562e-04 1.001766340982e-03 0.0 
3.663585537335e-04 8.554489600408e-04 0.0 
3.487347404359e-04 8.499059545868e-04 0.0 
3.702762690458e-04 7.314109569542e-04 0.0 
3.883297592882e-04 7.220582863028e-04 0.0 
3.825603912506e-04 6.153312002814e-04 0.0 
3.983453230308e-04 5.968791658627e-04 0.0 
3.462189969715e-04 7.202242791625e-04 0.0 
3.846361283849e-04 5.067497529564e-04 0.0 
3.971641480939e-04 4.834779093269e-04 0.0 
3.771236123195e-04 4.092591198601e-04 0.0 
3.864984107854e-04 3.852903448993e-04 0.0 
3.993518443656e-04 4.452071182212e-04 0.0 
3.858246168448e-04 3.502034748498e-04 0.0 
3.901679388226e-04 3.952177223942e-04 0.0 
3.748991964996e-04 3.071011333944e-04 0.0 
3.664141260479e-04 2.725147768101e-04 0.0 
3.552169452772e-04 2.367933652071e-04 0.0 
3.548645920334e-04 2.602218280949e-04 0.0 
3.363684315888e-04 1.987438548878e-04 0.0 
3.278178331664e-04 2.132801094103e-04 0.0 
3.118561521012e-04 1.610658818401e-04 0.0 
2.962559709838e-04 1.689168365370e-04 0.0 
2.837945671527e-04 1.258275169987e-04 0.0 
2.937448468395e-04 1.204588818741e-04 0.0 
2.691192674234e-04 9.241841564313e-05 0.0 
2.544047849278e-04 9.447799383539e-05 0.0 
2.432504734201e-04 6.732876232097e-05 0.0 
2.253615132100e-04 6.751276470737e-05 0.0 
2.175255368477e-04 4.563790638804e-05 0.0 
2.301702608879e-04 4.665052471710e-05 0.0 
2.075610023220e-04 2.913855921191e-05 0.0 
1.928652143456e-04 2.735283518024e-05 0.0 
1.857174033097e-04 1.428083116144e-05 0.0 
1.699417970999e-04 1.222330416898e-05 0.0 
1.652017962978e-04 1.914092064611e-06 0.0 
1.491247974898e-04 -1.088815716476e-07 0.0 
1.462218344608e-04 -8.285464060424e-06 0.0 
1.585802001711e-04 -5.384245682148e-06 0.0 
1.414181239463e-04 -1.390894806444e-05 0.0 
1.289433280740e-04 -1.660713624658e-05 0.0 
1.256119496478e-04 -2.090309201535e-05 0.0 
1.349641872772e-04 -1.744719789239e-05 0.0 
1.206323480776e-04 -2.339283639370e-05 0.0 
1.271946329252e-04 -1.933624956133e-05 0.0 
1.143398111198e-04 -2.445429194251e-05 0.0 
1.075434854425e-04 -2.823878287592e-05 0.0 
1.024289467351e-04 -2.865660477080e-05 0.0 
1.070676695446e-04 -2.440758290183e-05 0.0 
9.629268487620e-05 -2.813097335096e-05 0.0 
9.135979277937e-05 -3.213221997628e-05 0.0 
8.626931400290e-05 -3.117394092912e-05 0.0 
8.950664069374e-05 -2.687067500726e-05 0.0 
8.042921938025e-05 -2.961023043857e-05 0.0 
7.694993193137e-05 -3.365682098666e-05 0.0 
7.193713379521e-05 -3.184216016549e-05 0.0 
7.416337607535e-05 -2.757806405552e-05 0.0 
6.641748900429e-05 -2.966682974542e-05 0.0 
6.398233158363e-05 -3.365618005727e-05 0.0 
5.915287167236e-05 -3.134396411721e-05 0.0 
6.061105504586e-05 -2.723930636285e-05 0.0 
5.396827056120e-05 -2.886088389776e-05 0.0 
5.459883181485e-05 -2.471816005962e-05 0.0 
5.223549093324e-05 -3.272420185667e-05 0.0 
4.764677996228e-05 -3.019519243593e-05 0.0 
4.575829755083e-05 -3.383985469897e-05 0.0 
4.167209713118e-05 -3.128992315404e-05 0.0 
2.155379665310e-04 3.113711053830e-05 0.0 
3.981433528764e-05 -3.468902567449e-05 0.0 
4.325713031165e-05 -3.708810578802e-05 0.0 
3.607931974311e-05 -3.218272212147e-05 0.0 
3.731248912772e-05 -2.872812512292e-05 0.0 
3.430792428718e-05 -3.533863992286e-05 0.0 
3.085235617461e-05 -3.291193711317e-05 0.0 
2.923642321568e-05 -3.583640583801e-05 0.0 
1.487614445562e-04 1.108184227573e-05 0.0 
3.427839781622e-04 2.101666278081e-04 0.0 
2.599273422989e-05 -3.352578836353e-05 0.0 
2.458588861295e-05 -3.622709795106e-05 0.0 
2.736704575718e-05 -3.842256970244e-05 0.0 
2.304047117585e-05 -3.860089360898e-05 0.0 
3.248211724091e-04 8.295652553588e-04 0.0 
3.177119317590e-04 6.942838026072e-04 0.0 
2.980624109795e-04 7.955024820602e-04 0.0 
2.856698603622e-04 6.566731540238e-04 0.0 
2.683897423516e-04 7.489708484586e-04 0.0 
2.033222387209e-05 -3.655999048428e-05 0.0 
3.580171324696e-04 4.162722916958e-04 0.0 
2.971045321430e-04 5.632292754568e-04 0.0 
3.410907260561e-04 2.801361374548e-04 0.0 
2.306560089785e-04 9.606191548255e-05 0.0 
1.408096325771e-04 -1.321449274693e-05 0.0 
2.712954727962e-05 -3.052640593050e-05 0.0 
2.248361156400e-05 -3.128406760905e-05 0.0 
2.320607262373e-05 -2.823739997185e-05 0.0 
6.077177468424e-05 -2.287593382859e-05 0.0 
5.397484422272e-05 -2.043237539575e-05 0.0 
5.942709858558e-05 -1.841122011005e-05 0.0 
5.197658333590e-05 -1.614477591971e-05 0.0 
5.645699965999e-05 -1.401985212763e-05 0.0 
4.853719894887e-05 -1.201744425075e-05 0.0 
4.481837768321e-05 -1.398492211480e-05 0.0 
4.109922760153e-05 -1.014703669722e-05 0.0 
3.803306851718e-05 -1.196859055892e-05 0.0 
5.181441493967e-05 -9.888006983743e-06 0.0 
6.058365478969e-05 -1.167616864484e-05 0.0 
3.420113847743e-05 -8.436509341722e-06 0.0 
3.168177803413e-05 -1.012252005362e-05 0.0 
2.788442785686e-05 -6.907514399868e-06 0.0 
2.581504421465e-05 -8.460239871396e-06 0.0 
2.871847667420e-05 -1.174388217219e-05 0.0 
2.324950244065e-05 -9.989301677283e-06 0.0 
2.541552582575e-05 -1.330089310725e-05 0.0 
1.303147313754e-04 -1.469415495423e-05 0.0 
1.425300003813e-04 -8.518131182057e-06 0.0 
1.295075804079e-04 -9.769653476795e-06 0.0 
1.395733277575e-04 -3.751809092927e-06 0.0 
1.244068083578e-04 -4.919571178433e-06 0.0 
1.316369211890e-04 6.732249202082e-07 0.0 
1.147925428738e-04 -5.145398244932e-07 0.0 
1.095453850749e-04 -5.262559059355e-06 0.0 
3.610944839278e-04 3.230480710275e-04 0.0 
1.134629473055e-04 -2.334932082412e-05 0.0 
1.137706603194e-04 -1.813376570788e-05 0.0 
9.930447302356e-05 -2.463175847113e-05 0.0 
9.686509517694e-05 -1.839022022697e-05 0.0 
8.397969298554e-05 -2.471989179046e-05 0.0 
7.918360969557e-05 -1.736187261291e-05 0.0 
6.824764040483e-05 -2.365239369873e-05 0.0 
7.294174881351e-05 -2.993478566709e-05 0.0 
5.899954027994e-05 -2.894126158871e-05 0.0 
6.341435280726e-05 -3.427386633338e-05 0.0 
5.115130870126e-05 -3.344504399194e-05 0.0 
5.514095852500e-05 -3.788423859769e-05 0.0 
2.739595509899e-04 8.914406865576e-05 0.0 
1.490008459971e-04 2.947289890842e-06 0.0 
1.375397671774e-04 6.613729929742e-06 0.0 
1.571764095343e-04 1.018161582138e-05 0.0 
2.539932326782e-05 -4.064764425559e-05 0.0 
2.046132613208e-05 -6.978522157943e-06 0.0 
5.447464911792e-05 -7.620348278532e-06 0.0 
6.419791151996e-05 -9.162192367210e-06 0.0 
9.871582380994e-05 -1.040185678183e-06 0.0 
1.912786505656e-05 -3.873901704521e-05 0.0 
6.168122601072e-05 -1.515588936719e-05 0.0 
7.210343996571e-05 -7.529903573425e-06 0.0 
2.514405278172e-04 6.073788228503e-04 0.0 
2.370283312615e-04 6.928226554922e-04 0.0 
5.630466833993e-05 -5.255200060146e-06 0.0 
1.644056985675e-05 -3.688015332379e-05 0.0 
3.614163524470e-05 -6.702442129742e-06 0.0 
4.558306794539e-05 -2.708073476947e-05 0.0 
1.820592515000e-05 -8.416365497477e-06 0.0 
1.563997742125e-05 -5.667537580832e-06 0.0 
4.080021426326e-05 -1.578006448390e-05 0.0 
1.414974656020e-04 1.273282450145e-05 0.0 
1.637239377120e-04 1.768099425615e-05 0.0 
6.623002608407e-05 -3.777360102374e-05 0.0 
5.770887938876e-05 -4.069099735171e-05 0.0 
4.797329985707e-05 -4.087560913062e-05 0.0 
5.054340882642e-05 -4.312790410664e-05 0.0 
5.899672698834e-05 -4.210953096807e-05 0.0 
5.151857752060e-05 -4.392585960237e-05 0.0 
4.409818649846e-05 -4.490245018077e-05 0.0 
4.497825369105e-05 -4.529839511756e-05 0.0 
5.153529306084e-05 -4.374964502148e-05 0.0 
4.499288431294e-05 -4.476436523274e-05 0.0 
3.930092867090e-05 -4.621346470916e-05 0.0 
3.926989188561e-05 -4.541199216988e-05 0.0 
1.709425058294e-05 -4.379825760214e-06 0.0 
3.948736383438e-05 -3.189598481406e-05 0.0 
3.990167906591e-04 5.042425168813e-04 0.0 
4.649887042941e-05 -4.149517768314e-06 0.0 
1.009019895021e-04 3.037815807726e-06 0.0 
2.159358263410e-04 5.493728525154e-04 0.0 
2.046848487887e-04 6.292748117854e-04 0.0 
2.189353924936e-04 7.774714694364e-04 0.0 
1.899977987776e-04 7.084315956174e-04 0.0 
1.721778935485e-04 5.601645722840e-04 0.0 
1.609450815770e-04 6.353609221914e-04 0.0 
1.732200881496e-04 7.861434009738e-04 0.0 
1.474260038608e-04 7.095508010821e-04 0.0 
1.554309827928e-04 8.618254599174e-04 0.0 
1.325502772671e-04 7.823807345163e-04 0.0 
1.220574248214e-04 6.307703651557e-04 0.0 
1.099472467987e-04 7.016505085026e-04 0.0 
1.170254191170e-04 8.539596015232e-04 0.0 
9.676340592259e-05 7.717160807396e-04 0.0 
1.013160247938e-04 9.243013714463e-04 0.0 
8.292400223041e-05 8.410256407627e-04 0.0 
7.721267028519e-05 6.891395823337e-04 0.0 
1.568573905519e-05 -3.883764908118e-05 0.0 
9.525514793160e-05 -5.062829355292e-06 0.0 
8.359201452517e-05 -1.116200351467e-06 0.0 
1.890957637095e-05 -2.917684326621e-05 0.0 
1.929573034336e-05 -2.609368744052e-05 0.0 
2.359076139500e-05 -2.497772328764e-05 0.0 
1.921868701929e-05 -2.284453746956e-05 0.0 
6.484782512874e-05 7.583702367939e-04 0.0 
5.890710579698e-05 6.067721980591e-04 0.0 
5.327503589888e-05 -4.238294521375e-06 0.0 
6.275534264973e-05 5.108611418864e-06 0.0 
2.223809687081e-04 4.697955713608e-04 0.0 
1.361091778717e-05 -7.025641424349e-06 0.0 
1.551031515586e-05 -9.876812281405e-06 0.0 
2.001270324992e-04 6.793064509867e-05 0.0 
1.990351173521e-04 9.750080197222e-05 0.0 
1.690510097502e-04 6.914201841067e-05 0.0 
1.605648867699e-04 9.938723053664e-05 0.0 
1.939128515830e-04 1.348692720400e-04 0.0 
1.330783685428e-04 7.131330944758e-05 0.0 
6.991461705977e-05 -1.360881337579e-05 0.0 
9.777529606071e-05 5.508652850197e-04 0.0 
2.976948137106e-05 -4.058636905549e-05 0.0 
2.733067441955e-05 -4.262268960142e-05 0.0 
1.136273960038e-05 -4.537718040061e-06 0.0 
1.032903398858e-04 -9.696262582465e-06 0.0 
2.927408096629e-04 1.131999214662e-04 0.0 
2.685280275568e-04 8.422408963713e-05 0.0 
2.806052682428e-04 1.037468881298e-04 0.0 
2.526002139449e-04 7.738662779138e-05 0.0 
2.571546313299e-04 9.186911110482e-05 0.0 
2.261532338837e-04 6.850825081664e-05 0.0 
2.241601246450e-04 5.732934110212e-05 0.0 
1.426823664668e-04 1.866478068563e-05 0.0 
1.952243436558e-04 5.062153111853e-05 0.0 
6.979975262214e-05 9.111584913125e-04 0.0 
1.665541571564e-04 6.583259665478e-06 0.0 
5.061981181796e-05 -4.275290099326e-05 0.0 
1.814303130056e-05 -4.055699289751e-05 0.0 
3.431701298760e-05 -4.679827158616e-05 0.0 
1.289252838092e-05 -3.720291055811e-05 0.0 
1.348267661323e-05 -3.509405282823e-05 0.0 
4.636087996613e-05 -2.111407486540e-06 0.0 
2.224307316023e-04 7.742346082177e-05 0.0 
2.555957375382e-04 1.040865837972e-04 0.0 
1.481939349763e-04 1.378412989680e-04 0.0 
1.846082450927e-04 1.822466509656e-04 0.0 
1.193673883093e-04 1.380147821137e-05 0.0 
2.729933617740e-04 8.959944876592e-04 0.0 
1.779119377155e-04 9.391285956351e-04 0.0 
1.572745990259e-04 1.015450170608e-03 0.0 
1.271410872037e-05 -3.927913715911e-05 0.0 
3.394715109993e-05 -4.710736045569e-05 0.0 
1.404355379327e-04 4.872925504348e-04 0.0 
8.443414646973e-05 1.802283341241e-06 0.0 
7.446369324825e-05 1.647567180922e-05 0.0 
3.322597720477e-05 -2.463456354359e-05 0.0 
2.874543886655e-05 -2.988120979108e-05 0.0 
4.875211346415e-05 6.736607454649e-04 0.0 
4.269451183220e-05 5.244749759332e-04 0.0 
2.350909526307e-05 -2.157710103950e-05 0.0 
1.888830108399e-05 -1.950567357547e-05 0.0 
5.705316536450e-05 -2.852382249783e-06 0.0 
3.431043219756e-05 -4.575629807550e-05 0.0 
4.978179709278e-05 4.571138916198e-04 0.0 
9.063706564255e-05 -8.894727564990e-06 0.0 
9.638632018163e-05 -1.373325684807e-05 0.0 
1.496347558880e-05 -2.409664912782e-05 0.0 
4.296258900848e-05 9.254401830420e-06 0.0 
3.634971859444e-05 -2.621611130788e-07 0.0 
5.787715383366e-05 -4.158489048335e-05 0.0 
3.846335087579e-05 -4.402984577154e-05 0.0 
9.934285757420e-06 -3.565189368081e-05 0.0 
4.478444266112e-05 -2.377991178828e-07 0.0 
1.449036403617e-04 4.152542285395e-04 0.0 
1.962379432429e-04 4.256182433892e-05 0.0 
2.179698741193e-04 4.550035412802e-05 0.0 
1.650839429231e-04 3.727845668848e-05 0.0 
3.041913499819e-05 -4.700884677718e-05 0.0 
3.676155575766e-05 -1.468022472654e-06 0.0 
9.484544060719e-06 -5.796539744776e-06 0.0 
2.142594697175e-04 8.465381654366e-05 0.0 
2.471424224307e-04 1.129306211316e-04 0.0 
9.915610651291e-05 1.325112971443e-05 0.0 
8.949250314928e-05 3.069290143079e-05 0.0 
6.211352883860e-05 3.501109454257e-05 0.0 
7.627695972761e-05 5.263142079670e-05 0.0 
3.986800648699e-04 6.920894058632e-04 0.0 
1.173998890506e-04 2.757601983377e-05 0.0 
3.808641830511e-04 4.373642391342e-04 0.0 
3.842438042645e-04 5.613182043712e-04 0.0 
3.558701073859e-04 4.754645152074e-04 0.0 
2.307838667225e-04 1.784000772507e-04 0.0 
2.259378870689e-04 2.385166215645e-04 0.0 
1.117185945027e-04 -1.056614710334e-05 0.0 
1.550934376018e-04 -5.926675440595e-06 0.0 
2.815926909685e-05 -2.381767802546e-05 0.0 
3.086413182232e-05 -1.527525408058e-05 0.0 
6.706564630394e-05 -2.071765388316e-05 0.0 
1.053070606966e-04 4.812078117191e-04 0.0 
8.012060307393e-05 4.022740182596e-04 0.0 
1.197423829614e-04 1.007145841967e-03 0.0 
1.026060489497e-04 1.077432960782e-03 0.0 
2.351466395239e-05 -4.251320228834e-05 0.0 
2.510938608210e-05 -4.428667188349e-05 0.0 
4.852198663652e-05 -2.219894996529e-05 0.0 
3.762913236569e-05 -3.132997744310e-06 0.0 
1.833751025242e-04 4.098701611360e-04 0.0 
1.808696742436e-04 3.366141140258e-04 0.0 
2.227151214812e-04 3.916924014472e-04 0.0 
5.638140311424e-05 -4.944895213756e-07 0.0 
9.975869320016e-05 -2.878086528574e-05 0.0 
1.192292162600e-04 -1.507645331755e-05 0.0 
3.429297686777e-05 -3.595489244949e-05 0.0 
2.348563770829e-04 4.733081383964e-05 0.0 
2.190927672827e-05 -4.402729573479e-05 0.0 
3.453390225941e-04 2.352294793982e-04 0.0 
7.657163640435e-06 -3.555488714962e-06 0.0 
8.816545470332e-06 -2.510541020076e-06 0.0 
1.149398683108e-04 1.771284885240e-05 0.0 
3.533971105668e-04 9.552943679668e-04 0.0 
2.160725099959e-04 3.286301410980e-05 0.0 
1.997621293255e-04 1.975460506178e-05 0.0 
3.521214425895e-04 6.140530576491e-04 0.0 
3.132653243940e-04 5.067831766233e-04 0.0 
3.168570788170e-04 3.902471598132e-04 0.0 
2.662986162447e-04 4.083762275064e-04 0.0 
5.587587238151e-05 -4.018652685467e-05 0.0 
4.886981357598e-05 -4.118159062634e-05 0.0 
1.752713597305e-04 6.019339164079e-05 0.0 
1.576479344935e-04 4.153898016125e-05 0.0 
1.974241713933e-04 8.659082338467e-05 0.0 
2.302672017122e-04 1.159015471149e-04 0.0 
9.121714957521e-05 1.291372036885e-05 0.0 
9.755693986793e-05 1.021476250198e-05 0.0 
1.028937217199e-05 -3.343474530634e-05 0.0 
1.715598232576e-04 2.422651121291e-04 0.0 
1.112829788104e-04 3.423876037941e-04 0.0 
3.757110391696e-04 7.117854513445e-04 0.0 
2.850240957470e-05 -9.219190626617e-07 0.0 
2.975082878885e-05 -2.317765106078e-06 0.0 
2.489525376571e-05 -3.433094146350e-05 0.0 
3.003650989328e-05 -3.993107595401e-05 0.0 
3.418496128684e-05 3.791745702723e-04 0.0 
4.785518609028e-05 5.746621882870e-05 0.0 
5.989504991846e-05 7.887287040765e-05 0.0 
3.863644107350e-05 3.967942870742e-05 0.0 
1.110612190515e-06 -5.443257457151e-07 0.0 
2.665495964298e-05 1.367837932630e-03 0.0 
5.629775659658e-06 -1.798517502102e-06 0.0 
2.723339879722e-04 2.337063642060e-04 0.0 
3.751437300879e-05 3.070611359967e-04 0.0 
1.970537647767e-04 2.250145008946e-05 0.0 
1.717826361869e-04 4.482528910468e-05 0.0 
6.884755939885e-05 -3.562342887886e-06 0.0 
2.741400798436e-05 4.579861688818e-04 0.0 
2.067646302914e-05 2.956176074700e-04 0.0 
1.756886228346e-04 1.090838545899e-03 0.0 
1.542709809387e-04 1.169496383986e-03 0.0 
1.993007378965e-04 1.013046870146e-03 0.0 
3.874487085902e-05 -1.863758026025e-05 0.0 
2.429473752786e-05 -1.401441596523e-05 0.0 
7.522315119258e-05 4.704167279489e-04 0.0 
1.815007616531e-05 -3.200636359204e-05 0.0 
1.439318593015e-05 -2.972279086776e-05 0.0 
3.334005800759e-05 -4.430208185224e-05 0.0 
3.687408153147e-05 -4.226191186117e-05 0.0 
2.787684123055e-05 -2.027995841078e-05 0.0 
3.287813803789e-05 -2.258480908840e-05 0.0 
3.178553802392e-04 1.806707999408e-04 0.0 
3.120555701021e-04 1.962802607782e-04 0.0 
3.076148846871e-04 1.380746603837e-04 0.0 
8.521128207943e-05 -1.241925833595e-05 0.0 
8.913888516372e-05 -1.732124392468e-05 0.0 
9.916782915602e-05 -1.871328432865e-05 0.0 
8.292491772432e-05 3.389200624935e-04 0.0 
5.565398765695e-05 2.492810091135e-04 0.0 
6.360229244413e-05 -3.887151499624e-05 0.0 
6.595122812994e-05 -4.001686496843e-05 0.0 
5.304818490694e-05 -3.838037205107e-05 0.0 
1.086005920656e-04 2.765823989517e-04 0.0 
6.186091641591e-06 -1.071873024269e-06 0.0 
9.372671227991e-06 -1.607975564335e-06 0.0 
2.327694515388e-05 -4.552484518225e-05 0.0 
2.627041427777e-05 -4.580165186595e-05 0.0 
2.625831811771e-05 1.349350226591e-05 0.0 
2.177094668411e-05 3.953713514116e-06 0.0 
1.738856082505e-04 2.706966341726e-04 0.0 
2.163794592501e-04 3.177913861600e-04 0.0 
1.267662767935e-04 2.084093971514e-04 0.0 
6.695403995817e-06 -3.434349534213e-05 0.0 
1.931665374453e-04 3.381227021606e-05 0.0 
4.275353478830e-05 1.480874938979e-06 0.0 
5.540007777262e-05 1.605395918755e-06 0.0 
2.989992693792e-05 1.343801652286e-06 0.0 
1.411502588222e-04 2.397643721743e-05 0.0 
1.071918844738e-04 2.028850808016e-05 0.0 
1.247594296145e-04 2.986005468120e-05 0.0 
1.912777881807e-05 -2.781717504241e-05 0.0 
1.533930301081e-05 3.561755155262e-04 0.0 
1.190404353836e-04 1.160749748719e-03 0.0 
1.740024822298e-05 -3.196278494090e-05 0.0 
1.012649324163e-04 1.236193454906e-03 0.0 
8.648330643033e-05 1.147775558564e-03 0.0 
8.671283550101e-05 1.309955968863e-03 0.0 
6.642192143375e-06 -3.628697159636e-05 0.0 
1.916587305273e-04 1.190535360671e-03 0.0 
2.199486402553e-04 1.087651372550e-03 0.0 
2.385460572422e-05 -4.695676594181e-05 0.0 
7.398735865594e-05 2.055090644487e-04 0.0 
2.090761539783e-05 -4.516678381574e-05 0.0 
1.937970363666e-05 -4.380203435954e-05 0.0 
2.117965902230e-05 -5.690872903946e-07 0.0 
2.283496536608e-05 -1.603513867157e-06 0.0 
1.498221210993e-05 -1.994182485313e-07 0.0 
1.727622143783e-05 -1.028878940597e-06 0.0 
2.357887593236e-05 -2.825526870280e-06 0.0 
1.790564664290e-05 -2.033084174089e-06 0.0 
1.351604113294e-04 1.256176331145e-03 0.0 
1.152187003282e-05 -4.390362235196e-07 0.0 
1.295367715588e-05 -1.345885719410e-06 0.0 
7.421706262967e-06 -2.641003887701e-07 0.0 
2.542415891948e-04 5.393046482513e-04 0.0 
9.272974940705e-05 7.406114350279e-05 0.0 
7.520696407318e-05 1.063021689778e-04 0.0 
3.967039876592e-05 1.117873136362e-04 0.0 
1.587415805109e-04 7.537832440356e-05 0.0 
2.078837008937e-04 1.144354299660e-04 0.0 
5.832628297977e-06 -4.681450416811e-06 0.0 
6.793161134347e-06 -7.078160519014e-06 0.0 
7.060884356844e-05 1.228890628947e-03 0.0 
5.184859166120e-05 1.234898184456e-03 0.0 
5.770251833996e-05 1.095376111122e-03 0.0 
4.160972012322e-05 1.111788184908e-03 0.0 
4.581827634777e-05 9.750091094990e-04 0.0 
2.942113570194e-05 9.920883567788e-04 0.0 
3.561026936170e-05 8.555147640842e-04 0.0 
1.107537254344e-04 3.085153436863e-05 0.0 
2.402850400905e-05 6.044521541157e-05 0.0 
3.328614697686e-04 7.924945767093e-04 0.0 
6.928481986168e-05 9.337261246653e-06 0.0 
7.979864493819e-05 7.908270791727e-06 0.0 
2.166493305215e-04 3.150009084099e-04 0.0 
1.524426627473e-04 3.185959569860e-04 0.0 
2.398259681698e-05 3.546236470548e-07 0.0 
1.240641256608e-04 1.138934682934e-05 0.0 
5.681025817040e-05 1.266999523286e-04 0.0 
2.180671923931e-06 -6.416359044523e-06 0.0 
1.252684871121e-05 -1.254315434669e-05 0.0 
1.450451465299e-04 2.602298499845e-05 0.0 
2.721087348595e-04 3.100648131084e-04 0.0 
1.163879585828e-04 1.018827733798e-04 0.0 
1.019002027819e-04 1.430270684322e-04 0.0 
7.856692436517e-05 -7.765073775039e-06 0.0 
2.684329004332e-05 -4.704233973805e-05 0.0 
3.174614856403e-05 2.522419307365e-05 0.0 
5.213570469673e-05 8.406681565466e-04 0.0 
1.564984949693e-05 2.833350394904e-05 0.0 
3.072872004715e-06 -5.682585020600e-06 0.0 
1.288095440206e-04 -9.366238150565e-07 0.0 
2.688845666288e-04 1.745491852817e-04 0.0 
5.146244181654e-05 2.070211694329e-05 0.0 
1.099505212480e-04 4.903456160375e-05 0.0 
4.046067484530e-04 5.590755019810e-04 0.0 
3.796657343786e-04 8.357715426041e-04 0.0 
3.832186873717e-04 7.934420079854e-04 0.0 
1.302342790217e-04 -1.007379662485e-05 0.0 
1.333149869351e-04 1.865487397254e-04 0.0 
7.914664848492e-05 1.939174640085e-04 0.0 
3.699766590034e-04 3.381262552164e-04 0.0 
2.632708486639e-04 4.379493053593e-04 0.0 
2.581355209901e-04 3.580605159043e-04 0.0 
2.038993319579e-04 2.515110736149e-04 0.0 
2.452826273835e-04 2.853194940400e-04 0.0 
2.966946515067e-04 3.882992754561e-04 0.0 
2.839780928909e-04 3.107696678572e-04 0.0 
2.251822875341e-04 2.213620827938e-04 0.0 
2.635672184747e-04 2.421984949655e-04 0.0 
1.828174940811e-04 1.493635647082e-04 0.0 
2.345805927894e-04 1.819699226606e-04 0.0 
2.963253682962e-04 2.548370709890e-04 0.0 
2.698906975509e-04 1.965469740258e-04 0.0 
2.100623518350e-04 1.404604036956e-04 0.0 
3.234925513228e-04 2.614742089344e-04 0.0 
5.807186775328e-05 9.915970729577e-06 0.0 
1.718614560263e-04 2.619103515859e-05 0.0 
2.202885403933e-05 -2.171267591597e-05 0.0 
1.452658787018e-05 -4.719648181156e-06 0.0 
3.065489810932e-04 2.250204344670e-04 0.0 
9.446175515294e-05 7.560782386301e-05 0.0 
8.531204194699e-05 9.035406571138e-05 0.0 
9.185428851486e-05 -9.708611279110e-06 0.0 
7.877779167263e-05 3.380132832438e-05 0.0 
3.981109712745e-04 6.382898789372e-04 0.0 
5.283739097333e-05 -2.150723663008e-05 0.0 
6.802292666930e-05 2.341104004885e-05 0.0 
3.010382566460e-04 4.727993692290e-04 0.0 
3.349383937690e-04 4.986256448159e-04 0.0 
3.303930976410e-04 5.948786089178e-04 0.0 
6.884975454099e-05 9.502357531751e-05 0.0 
2.236246284130e-04 9.298619721089e-04 0.0 
4.241230378558e-05 9.648399112896e-06 0.0 
1.547604586561e-04 -1.402166499649e-06 0.0 
1.695434057050e-04 2.470103198616e-06 0.0 
1.665713786157e-04 -1.688839408037e-06 0.0 
3.177677744872e-04 3.278777290994e-04 0.0 
2.784609531440e-05 4.000682256022e-06 0.0 
4.848011387771e-05 5.295490018168e-06 0.0 
4.271592099951e-05 3.879322839789e-06 0.0 
6.539060320203e-05 4.430971376050e-06 0.0 
2.135269855886e-05 2.524425758189e-06 0.0 
8.583471503613e-05 5.273358985024e-05 0.0 
7.974772817390e-05 4.319739566028e-05 0.0 
5.895335319759e-05 -4.230508547995e-05 0.0 
6.734293776452e-05 -4.038436729731e-05 0.0 
7.492212022063e-05 -3.796848479806e-05 0.0 
7.668034903750e-05 -3.793202543305e-05 0.0 
6.748741754210e-05 -3.971999052618e-05 0.0 
7.703383004948e-05 -3.679155529356e-05 0.0 
8.698445095186e-05 -3.491236997198e-05 0.0 
7.579221682155e-05 -3.422425219567e-05 0.0 
2.656021623883e-04 1.559803446704e-04 0.0 
1.582624682592e-05 1.462342058612e-06 0.0 
6.477921670665e-05 -1.612473330476e-05 0.0 
7.336991035577e-05 -1.829700593048e-05 0.0 
7.471195989866e-05 -2.301556563237e-05 0.0 
3.278750926853e-05 -2.621190398293e-05 0.0 
3.788356907609e-05 -2.504262456441e-05 0.0 
3.767484201226e-05 -2.122513420633e-05 0.0 
2.788767053935e-05 -2.727153942922e-05 0.0 
2.434843573965e-04 6.216520580195e-05 0.0 
1.379538494810e-05 1.037678976521e-06 0.0 
1.078443858455e-04 -1.466414170407e-05 0.0 
4.283317733842e-05 -2.760653127401e-05 0.0 
2.326362229292e-04 1.285811913515e-03 0.0 
2.672786072240e-04 1.133227193134e-03 0.0 
2.960173972008e-04 1.082082337480e-03 0.0 
2.969038843423e-04 9.610750390298e-04 0.0 
2.386148324257e-04 1.155748794828e-03 0.0 
2.295338377404e-05 -1.813284650993e-05 0.0 
1.816985563349e-05 -1.616640778226e-05 0.0 
1.433287941307e-05 -1.761348887033e-05 0.0 
1.356162362261e-05 -1.438175593801e-05 0.0 
9.901715182706e-06 -1.588922108845e-05 0.0 
1.049269670820e-05 -1.901585731044e-05 0.0 
9.075320620731e-06 -1.275902820321e-05 0.0 
5.700027053859e-06 -1.466775908057e-05 0.0 
1.890002850888e-04 1.337882940752e-03 0.0 
1.964608221159e-05 -4.289488337557e-05 0.0 
2.514461206792e-05 -4.498493908570e-05 0.0 
2.576762865779e-05 -4.689905742976e-05 0.0 
2.991757811115e-05 -4.624960139079e-05 0.0 
3.023399240736e-05 -4.408748978906e-05 0.0 
3.650610008954e-05 -4.539675945377e-05 0.0 
3.608648611291e-05 -4.288173316272e-05 0.0 
2.387879481033e-05 -4.172268609591e-05 0.0 
2.291655272216e-05 -4.726351631975e-05 0.0 
2.599328510788e-05 -4.783659694947e-05 0.0 
2.357025171703e-05 -4.805147068360e-05 0.0 
2.558366007248e-05 -4.806815851427e-05 0.0 
2.944763092177e-05 -4.772524299852e-05 0.0 
2.890529036551e-05 -4.437493773482e-05 0.0 
3.139955725821e-06 -1.371396300032e-07 0.0 
4.012914190099e-06 -2.315169010634e-05 0.0 
7.771299841731e-06 -2.488402441805e-05 0.0 
7.550476487088e-06 -2.765973204256e-05 0.0 
1.177683384492e-05 -2.660691861542e-05 0.0 
7.629043610686e-06 -2.212005531864e-05 0.0 
3.697361146125e-06 -2.883048739995e-05 0.0 
7.147768360980e-06 -3.000526693735e-05 0.0 
8.005525347527e-06 -4.218370686874e-05 0.0 
6.430666973061e-06 -4.074291735956e-05 0.0 
2.966522809505e-06 -4.051819476974e-05 0.0 
4.930116646260e-06 -3.926607653816e-05 0.0 
8.091163390890e-06 -3.977061836943e-05 0.0 
9.505218478467e-06 -4.128700110035e-05 0.0 
1.246925666955e-05 -4.205602361565e-05 0.0 
1.382603036968e-05 -4.355932132429e-05 0.0 
1.517120147041e-05 -4.293930247610e-05 0.0 
1.410488078966e-05 -4.124653836755e-05 0.0 
1.628169699360e-05 -4.441054928580e-05 0.0 
1.181266090357e-05 6.576543440830e-04 0.0 
2.275920312731e-05 5.832647867997e-04 0.0 
1.107196369475e-05 5.378275806186e-07 0.0 
1.503682661477e-04 1.346773727734e-03 0.0 
2.312397605220e-05 -4.782042743799e-05 0.0 
1.997056246769e-05 1.450064153567e-04 0.0 
3.192749421611e-05 1.181015289695e-04 0.0 
2.523814826927e-05 1.152981827547e-04 0.0 
1.865978521563e-06 -1.753802162486e-06 0.0 
3.005222565327e-06 -1.115105023746e-06 0.0 
1.073945513135e-05 1.415402208910e-04 0.0 
3.211719158126e-05 -3.814564009678e-05 0.0 
1.843061244443e-04 1.929198490446e-04 0.0 
5.492632490872e-05 3.896041717240e-04 0.0 
4.540917058534e-05 -1.201748729857e-05 0.0 
4.255957862245e-05 -4.186569217430e-05 0.0 
1.092097468623e-05 -8.396465379684e-06 0.0 
3.458351976139e-05 -1.366837075716e-05 0.0 
1.265488961446e-05 -3.365606061836e-06 0.0 
2.028857445529e-05 -1.149648014147e-05 0.0 
2.217562222514e-05 -5.556437697783e-06 0.0 
3.835018007411e-05 2.771991371924e-06 0.0 
9.766558128356e-06 -3.757437868502e-05 0.0 
1.374180397446e-04 9.354062361410e-04 0.0 
8.644052769174e-05 9.943054377012e-04 0.0 
8.823942017510e-05 6.202350224285e-04 0.0 
2.149100831493e-05 -3.407126630963e-05 0.0 
1.493718298507e-05 -2.072171282623e-05 0.0 
2.152453042649e-05 -4.062707338238e-05 0.0 
1.272304381818e-04 4.637295417382e-05 0.0 
3.514313880272e-04 3.676090660610e-04 0.0 
6.754279474774e-05 -2.529874445133e-05 0.0 
3.207623513895e-05 -2.968624482681e-05 0.0 
3.742313488595e-05 -3.769943042605e-05 0.0 
4.416746587276e-05 -4.355058895149e-05 0.0 
1.976315812417e-04 4.482474220544e-05 0.0 
4.860636166584e-05 -2.628379468976e-05 0.0 
4.365204301393e-05 -8.221337006201e-06 0.0 
6.799657778322e-05 5.386500144005e-04 0.0 
2.041442330893e-05 -4.613513056159e-05 0.0 
4.552039239503e-05 -6.199288251666e-06 0.0 
4.729119914553e-05 -1.804915573835e-05 0.0 
1.988153691348e-04 8.599051241301e-04 0.0 
1.186378804298e-04 4.352888262476e-06 0.0 
3.870641024159e-05 -4.626696667635e-05 0.0 
1.325394823097e-04 5.594670679208e-04 0.0 
1.415049383240e-04 2.829545937045e-04 0.0 
2.460784546597e-04 9.935338926136e-04 0.0 
2.014239129947e-05 -4.235613743503e-05 0.0 
1.378485785662e-04 1.091356481551e-03 0.0 
3.444745309391e-05 8.275359854115e-08 0.0 
2.606331119462e-04 5.215694720897e-04 0.0 
1.733137131377e-05 -3.458342648618e-05 0.0 
1.184588333492e-04 -1.995914443679e-05 0.0 
2.631126151167e-04 1.295094070326e-04 0.0 
3.043309818665e-04 1.086068465648e-03 0.0 
5.790090964102e-05 3.278780313875e-04 0.0 
1.959889443655e-04 1.699116621672e-05 0.0 
8.411780193466e-05 2.288131026043e-06 0.0 
1.163384297898e-04 -1.006237794110e-05 0.0 
1.413429599623e-05 -3.266957364144e-05 0.0 
3.001646806068e-05 -3.806681996061e-06 0.0 
1.503322320695e-04 -1.026888426437e-05 0.0 
1.103159017966e-04 4.125561484009e-04 0.0 
2.874983725452e-04 1.223077574837e-04 0.0 
1.113083975943e-04 -2.658022386206e-05 0.0 
1.800440760472e-04 4.847542493655e-04 0.0 
8.222909548961e-05 -2.511539394465e-05 0.0 
1.203524212117e-04 9.187782121857e-06 0.0 
3.138760527052e-04 2.976954319266e-04 0.0 
3.155262632689e-04 1.506766959880e-04 0.0 
3.686891880425e-04 3.027460954939e-04 0.0 
2.526738925210e-04 6.675841049155e-05 0.0 
7.489812905233e-06 -9.827404832181e-06 0.0 
3.735536471779e-05 -4.929001449395e-06 0.0 
4.446388645747e-05 -3.715953387957e-05 0.0 
1.417616744623e-04 4.611406897570e-05 0.0 
2.469037034726e-04 8.405248826095e-04 0.0 
1.902071056857e-04 5.740651636473e-05 0.0 
8.004014554253e-05 2.678491619102e-04 0.0 
2.326251371480e-04 1.323003642894e-04 0.0 
2.934443394073e-05 -5.345878792030e-06 0.0 
1.457716267500e-04 3.483186593135e-04 0.0 
4.314604565082e-05 -2.371920413782e-05 0.0 
3.151108447039e-06 -3.569673376799e-05 0.0 
3.109549650896e-05 -8.245867092795e-06 0.0 
8.673466675752e-05 -2.990030812391e-05 0.0 
1.768771772674e-04 4.866786692500e-06 0.0 
4.250012134716e-05 -1.973931051497e-05 0.0 
1.518698148938e-04 1.930327356772e-04 0.0 
2.325870146058e-05 -4.175372527328e-06 0.0 
6.697534741632e-05 -6.436869561877e-06 0.0 
2.756316771690e-06 1.829668278107e-05 0.0 
3.510351181187e-04 8.877707692647e-04 0.0 
1.789273264224e-05 -3.172281462420e-06 0.0 
1.090429115946e-04 -1.965995955206e-05 0.0 
1.007233707859e-04 6.866899382888e-06 0.0 
6.281350111128e-06 -1.749061701090e-05 0.0 
1.176466984373e-04 3.777598864761e-05 0.0 
2.036795677288e-04 4.153274220627e-04 0.0 
1.323806577794e-05 -2.320154628916e-06 0.0 
8.173267541750e-05 -4.491864203800e-06 0.0 
1.068224636303e-04 -3.109582307845e-07 0.0 
4.411139130345e-05 1.368306481003e-03 0.0 
8.179190673121e-06 -6.546015783443e-07 0.0 
6.918259856684e-05 -7.202949424238e-07 0.0 
2.529243116551e-04 6.521854209585e-05 0.0 
9.903784625211e-05 -2.358076388560e-05 0.0 
2.651413801108e-04 9.041645006712e-04 0.0 
3.658512846016e-05 -1.741097592895e-05 0.0 
3.324736417193e-04 1.813344805097e-04 0.0 
6.020701465440e-05 9.712282052554e-05 0.0 
6.912473240993e-05 1.888066369612e-06 0.0 
3.595189575782e-04 6.157328094980e-04 0.0 
3.226460277817e-05 -1.891057968936e-05 0.0 
1.774557312698e-04 1.520215425663e-05 0.0 
1.113501251600e-05 -4.044162770828e-05 0.0 
3.009389490162e-04 6.702927143295e-04 0.0 
2.696848189588e-05 -1.674115702226e-05 0.0 
8.767179414968e-05 -3.319391170812e-05 0.0 
9.057802912783e-05 -2.218493815115e-05 0.0 
8.264700157891e-05 1.440398173016e-05 0.0 
2.188518963372e-05 -1.474646216506e-05 0.0 
9.848925817394e-05 -3.117970702467e-05 0.0 
1.703960342459e-05 -1.293422608222e-05 0.0 
1.879397672113e-04 5.720491652931e-04 0.0 
3.631940138496e-04 5.101978460504e-04 0.0 
1.229779528415e-05 -1.129093546145e-05 0.0 
3.162439525842e-04 1.609038888780e-04 0.0 
1.702629947373e-05 -4.220900925108e-05 0.0 
2.309617635754e-04 4.710562036050e-05 0.0 
4.436441973521e-06 -2.610697134024e-06 0.0 
4.958220962553e-05 -3.623264620007e-05 0.0 
8.201837302931e-05 -2.040308670273e-05 0.0 
3.305395636602e-04 4.086978726617e-04 0.0 
9.024981398133e-05 3.539356416094e-04 0.0 
7.952014903132e-05 -1.555453862193e-05 0.0 
2.879056675533e-04 1.380811179999e-04 0.0 
2.089311851554e-04 3.393462467041e-05 0.0 
1.832469753230e-04 8.342874516668e-06 0.0 
7.452318241549e-05 -1.080416589893e-05 0.0 
1.141426137004e-04 2.479699090431e-04 0.0 
3.448130356786e-05 -4.035394009817e-05 0.0 
3.175443686436e-05 -4.255374239067e-05 0.0 
9.559668425300e-05 -3.219147320580e-05 0.0 
2.807700160175e-04 1.498380222365e-04 0.0 
7.078209531749e-06 -3.823122658780e-05 0.0 
3.438603167468e-04 3.318624185398e-04 0.0 
2.992212827868e-05 -4.587222362233e-05 0.0 
8.477698778661e-05 -3.539003630841e-05 0.0 
1.670573616285e-04 2.519522313740e-05 0.0 
1.343711112958e-05 9.536936859717e-04 0.0 
8.135248821941e-05 -3.488577896187e-05 0.0 
3.194001708485e-06 -3.361068808975e-05 0.0 
7.209635500620e-05 -3.712889684759e-05 0.0 
1.835756396469e-04 1.193434817297e-05 0.0 
6.841944829667e-05 -3.560321942596e-05 0.0 
6.042512707812e-05 -3.717246083645e-05 0.0 
3.899309545929e-05 2.493140992435e-04 0.0 
5.659387994332e-05 -3.506761182180e-05 0.0 
5.358906224744e-06 1.171109427811e-04 0.0 
1.275678109973e-06 -1.144181768516e-07 0.0 
1.679670707835e-05 1.252811193549e-03 0.0 
3.243401305612e-05 2.300686008603e-04 0.0 
9.845401662820e-06 -2.562569607245e-05 0.0 
6.336331863728e-05 1.432802936244e-04 0.0 
4.636616032410e-05 -3.928124112227e-05 0.0 
3.391210871855e-04 2.530926402712e-04 0.0 
3.488927020542e-05 1.246154572118e-03 0.0 
4.017858906743e-05 -3.990779875454e-05 0.0 
1.626114329114e-04 1.125886186608e-04 0.0 
5.230009612282e-05 1.447136282522e-05 0.0 
2.510761239233e-05 7.240234345073e-04 0.0 
8.377026021828e-05 5.350338756435e-06 0.0 
1.863647681919e-04 2.446787084064e-05 0.0 
7.597591834955e-06 3.710040724145e-04 0.0 
9.903061757312e-05 1.380313712580e-03 0.0 
2.479921092881e-05 -4.777020753167e-05 0.0 
3.557494658728e-06 -8.273155388461e-06 0.0 
1.215071652000e-05 1.421082548301e-04 0.0 
2.992892465364e-05 8.210325601740e-05 0.0 
1.874422015371e-05 4.270743038031e-05 0.0 
1.067474492536e-05 -3.113850440736e-05 0.0 
2.949121646438e-05 -4.739754191273e-05 0.0 
8.269167590931e-06 8.376194255787e-05 0.0 
5.569403309798e-05 6.956257050067e-06 0.0 
1.685185323202e-04 1.232007509113e-03 0.0 
1.700793092451e-04 3.224532318643e-05 0.0 
4.620774673518e-06 4.480278797756e-05 0.0 
1.033021122837e-04 2.215094321720e-04 0.0 
9.101235489385e-05 2.034768678534e-05 0.0 
7.221985029623e-06 2.133600366340e-07 0.0 
1.352223071945e-04 2.765282018158e-05 0.0 
1.260758362874e-05 1.628233736535e-05 0.0 
2.659625180061e-04 1.029847739208e-03 0.0 
1.357215433255e-04 5.580224678057e-05 0.0 
3.476108452362e-05 6.045024764867e-04 0.0 
5.028263283803e-06 7.681176506076e-08 0.0 
2.106285578745e-04 1.219374600974e-03 0.0 
2.326346004569e-05 2.331325672713e-04 0.0 
3.898484053033e-05 -4.015770343962e-05 0.0 
1.172732406351e-05 2.266484220181e-04 0.0 
2.959821726950e-04 2.022315439216e-04 0.0 
7.309303574538e-05 1.063755359533e-03 0.0 
3.223130021697e-04 9.465614425448e-04 0.0 
3.600823600446e-06 -5.927738598965e-07 0.0 
1.603151787419e-04 1.464780335081e-04 0.0 
1.069327925815e-05 5.163442259408e-06 0.0 
3.940236068884e-05 7.395653088547e-04 0.0 
1.589537315661e-05 -2.714238243782e-05 0.0 
2.067743866149e-05 -3.703000650345e-05 0.0 
1.924767711449e-05 1.419466578220e-07 0.0 
2.415098243471e-04 1.521032613862e-04 0.0 
6.128993410957e-06 -5.962957267483e-07 0.0 
2.199074988004e-06 -3.917507406855e-05 0.0 
2.200536662356e-05 -4.625121540430e-05 0.0 
2.316023531431e-05 8.705999382289e-07 0.0 
1.439802189357e-04 7.705612862282e-05 0.0 
4.311762419056e-05 -4.363456281334e-05 0.0 
3.492628875954e-05 8.969338066747e-05 0.0 
6.633843263198e-06 -1.909352590101e-06 0.0 
1.315980480853e-04 1.393327032997e-03 0.0 
1.738539612526e-05 -4.392009088625e-05 0.0 
3.895495943074e-06 1.509875013034e-08 0.0 
5.911393641154e-05 2.183006501711e-04 0.0 
1.084488700633e-05 -2.377645539936e-05 0.0 
2.855603583363e-04 1.173309956971e-03 0.0 
6.766169380943e-06 -3.232653833983e-05 0.0 
1.501991133182e-04 4.488073385180e-05 0.0 
2.746667315136e-05 -4.759788516742e-05 0.0 
3.939214632199e-05 2.087131965289e-04 0.0 
2.944440218172e-05 2.009490427758e-06 0.0 
1.228104443425e-04 1.718296207019e-04 0.0 
2.616546239944e-05 4.947539603401e-06 0.0 
1.374127133491e-05 -2.105068886864e-05 0.0 
8.645919552571e-05 2.184531206422e-05 0.0 
5.426632018625e-05 3.151630276929e-06 0.0 
7.545033524347e-05 1.386756056039e-03 0.0 
1.477335767593e-04 1.632917973223e-04 0.0 
1.061458804954e-05 -2.892234415223e-05 0.0 
1.543906704348e-05 -4.034846124896e-05 0.0 
2.258550367131e-06 1.037822194800e-04 0.0 
2.374866728555e-06 -4.175853328980e-05 0.0 
1.298639291138e-05 1.385363199016e-03 0.0 
4.936811214554e-07 -1.151203551348e-07 0.0 
9.757330477957e-06 -3.904651412487e-05 0.0 
2.805439879010e-05 1.141612926208e-03 0.0 
1.435570596149e-04 8.685878839816e-05 0.0 
2.756425222487e-06 -1.685367563769e-05 0.0 
1.737126258864e-05 4.666656951416e-04 0.0 
3.361500232103e-05 -4.671983218146e-05 0.0 
1.257073781675e-05 -3.315688963239e-05 0.0 
2.340862996366e-05 8.780899515362e-04 0.0 
7.458847856952e-05 1.511883539882e-05 0.0 
9.689149353119e-05 1.792996405260e-04 0.0 
5.952561625057e-05 9.808373252179e-04 0.0 
2.096292408803e-05 -3.639027599209e-06 0.0 
1.916042742935e-04 1.142705235424e-04 0.0 
1.134495060089e-05 -2.145799161572e-05 0.0 
1.722900136917e-04 6.731665479462e-05 0.0 
6.786453337313e-05 6.101804321749e-06 0.0 
-9.825826080839e-08 2.064706544269e-06 0.0 
2.365309648772e-06 -1.383879783298e-05 0.0 
1.922558368356e-05 -4.486738572301e-05 0.0 
1.194072015478e-05 -1.875443036100e-07 0.0 
7.458606427458e-06 -1.976022606760e-05 0.0 
1.387879119899e-04 1.299355927845e-03 0.0 
1.075066452719e-05 1.727539239172e-03 0.0 
2.216396922999e-04 1.338415374378e-03 0.0 
8.884102692469e-06 1.573956486227e-03 0.0 

VECTORS node_materi_displacement float
0.0 1.161906955903e-02 0.0 
0.0 2.128251055713e-02 0.0 
0.0 0.0 0.0 
0.0 0.0 0.0 
0.0 1.160673955807e-02 0.0 
0.0 1.153835909899e-02 0.0 
0.0 1.141455139905e-02 0.0 
0.0 1.123519909434e-02 0.0 
0.0 1.099873585921e-02 0.0 
0.0 1.070624435651e-02 0.0 
0.0 1.035755207057e-02 0.0 
0.0 9.951617250137e-03 0.0 
0.0 9.487618330185e-03 0.0 
0.0 8.963879328060e-03 0.0 
0.0 8.377658569253e-03 0.0 
0.0 7.727024094047e-03 0.0 
0.0 7.011106605187e-03 0.0 
0.0 6.231603331797e-03 0.0 
0.0 5.380334431573e-03 0.0 
0.0 4.456744837221e-03 0.0 
0.0 3.459390892945e-03 0.0 
0.0 2.384640345378e-03 0.0 
0.0 1.229988114675e-03 0.0 
0.0 0.0 0.0 
0.0 0.0 0.0 
0.0 0.0 0.0 
0.0 0.0 0.0 
0.0 0.0 0.0 
0.0 0.0 0.0 
0.0 0.0 0.0 
0.0 0.0 0.0 
0.0 0.0 0.0 
0.0 0.0 0.0 
0.0 0.0 0.0 
0.0 0.0 0.0 
0.0 0.0 0.0 
0.0 0.0 0.0 
0.0 0.0 0.0 
0.0 0.0 0.0 
0.0 0.0 0.0 
0.0 0.0 0.0 
0.0 0.0 0.0 
0.0 0.0 0.0 
0.0 0.0 0.0 
0.0 0.0 0.0 
0.0 0.0 0.0 
0.0 0.0 0.0 
0.0 0.0 0.0 
0.0 0.0 0.0 
0.0 0.0 0.0 
0.0 0.0 0.0 
0.0 0.0 0.0 
0.0 0.0 0.0 
0.0 0.0 0.0 
0.0 0.0 0.0 
0.0 0.0 0.0 
0.0 0.0 0.0 
0.0 0.0 0.0 
0.0 0.0 0.0 
0.0 0.0 0.0 
0.0 0.0 0.0 
0.0 0.0 0.0 
0.0 0.0 0.0 
0.0 0.0 0.0 
0.0 0.0 0.0 
0.0 0.0 0.0 
0.0 0.0 0.0 
0.0 0.0 0.0 
0.0 0.0 0.0 
0.0 0.0 0.0 
0.0 0.0 0.0 
0.0 0.0 0.0 
0.0 1.941561919963e-02 0.0 
0.0 1.748609627816e-02 0.0 
0.0 1.549456277365e-02 0.0 
0.0 1.344409786114e-02 0.0 
0.0 1.133525536463e-02 0.0 
0.0 9.171077977958e-03 0.0 
0.0 6.953393642855e-03 0.0 
0.0 4.684302775599e-03 0.0 
0.0 2.366317333267e-03 0.0 
-1.570528714062e-03 1.531781491881e-02 0.0 
2.076276630703e-03 2.056777358181e-02 0.0 
-1.133347306931e-03 1.657729324852e-02 0.0 
-6.913277333573e-04 1.796034058858e-02 0.0 
-1.940737624959e-04 1.932367979067e-02 0.0 
3.374326323825e-04 2.055734014139e-02 0.0 
8.744379443801e-04 2.158153510635e-02 0.0 
1.384559076908e-03 2.232609160901e-02 0.0 
1.813410570184e-03 2.270375946286e-02 0.0 
2.031419256095e-03 2.261119067969e-02 0.0 
2.130596354658e-03 2.181940147254e-02 0.0 
0.0 2.482577243421e-02 0.0 
0.0 2.308644731069e-02 0.0 
1.234107684466e-04 2.128429036338e-02 0.0 
2.459223884552e-04 2.128900125234e-02 0.0 
3.695136588946e-04 2.129435994287e-02 0.0 
4.937346471286e-04 2.129945593551e-02 0.0 
6.184614593299e-04 2.130562520734e-02 0.0 
7.444276429077e-04 2.130806672378e-02 0.0 
8.727174484122e-04 2.130780797186e-02 0.0 
1.001648868285e-03 2.129935867805e-02 0.0 
1.135404265529e-03 2.128265144405e-02 0.0 
1.273182592206e-03 2.124920239509e-02 0.0 
1.415337990590e-03 2.119420699980e-02 0.0 
1.564327096386e-03 2.111068894139e-02 0.0 
1.721848495493e-03 2.098752833363e-02 0.0 
1.890713419556e-03 2.081120292712e-02 0.0 
-1.427661116869e-03 1.462255364326e-02 0.0 
-1.245349336297e-03 1.404284742904e-02 0.0 
-1.057002590021e-03 1.356279257813e-02 0.0 
-8.775677042278e-04 1.316995108073e-02 0.0 
-7.172079568509e-04 1.285072151586e-02 0.0 
-5.736694427967e-04 1.258894237510e-02 0.0 
-4.474446506493e-04 1.237536540487e-02 0.0 
-3.397559535798e-04 1.220226268669e-02 0.0 
-2.490419832515e-04 1.206336722970e-02 0.0 
-1.742319771854e-04 1.195402400436e-02 0.0 
-1.157431702642e-04 1.186582181108e-02 0.0 
-6.798625505366e-05 1.180003413328e-02 0.0 
-3.063474397251e-05 1.174603441895e-02 0.0 
-7.196886177003e-06 1.170404849187e-02 0.0 
6.094835924027e-06 1.167390860041e-02 0.0 
1.364510797277e-05 1.165220363291e-02 0.0 
1.625887672252e-05 1.163648079514e-02 0.0 
1.482316831698e-05 1.162620044794e-02 0.0 
7.194689006353e-06 1.161939557200e-02 0.0 
1.328642064360e-04 2.483194736087e-02 0.0 
2.547754074161e-04 2.483306265568e-02 0.0 
3.769254372660e-04 2.483793027995e-02 0.0 
4.987158188776e-04 2.484363783333e-02 0.0 
6.191493892683e-04 2.484871866377e-02 0.0 
7.374700323752e-04 2.485175489570e-02 0.0 
8.527896645883e-04 2.485075701776e-02 0.0 
9.643846524186e-04 2.484250603781e-02 0.0 
1.071777523665e-03 2.482385234582e-02 0.0 
1.173946949841e-03 2.479033626542e-02 0.0 
1.270177473760e-03 2.473550977390e-02 0.0 
1.360553137744e-03 2.465171070043e-02 0.0 
1.445658518439e-03 2.452937591164e-02 0.0 
1.527219369830e-03 2.435617490629e-02 0.0 
1.608858975821e-03 2.411488024784e-02 0.0 
1.698838903433e-03 2.378313610416e-02 0.0 
1.796431865493e-03 2.331994977384e-02 0.0 
1.956682912331e-03 2.221500473883e-02 0.0 
1.811353229800e-03 2.249965631249e-02 0.0 
1.673701532496e-03 2.270230996469e-02 0.0 
1.546606014770e-03 2.284951931830e-02 0.0 
1.425138141720e-03 2.295255759958e-02 0.0 
1.306408381948e-03 2.302233010253e-02 0.0 
1.189013392066e-03 2.306757700403e-02 0.0 
1.072015330482e-03 2.309435647529e-02 0.0 
9.545005170162e-04 2.310789632794e-02 0.0 
8.369379058553e-04 2.311363959987e-02 0.0 
7.186910426939e-04 2.311289611448e-02 0.0 
6.002639698763e-04 2.310925817789e-02 0.0 
4.811597315990e-04 2.310366848259e-02 0.0 
3.619432777669e-04 2.309824669791e-02 0.0 
2.423160008441e-04 2.309280833946e-02 0.0 
1.209820167149e-04 2.308428656396e-02 0.0 
-1.341792928866e-03 1.591979810216e-02 0.0 
-9.166624471361e-04 1.726307498047e-02 0.0 
-4.446955521856e-04 1.865298394616e-02 0.0 
7.335197580012e-05 1.996261270322e-02 0.0 
6.135239846097e-04 2.110655545499e-02 0.0 
1.141700126335e-03 2.200131979911e-02 0.0 
1.617863154629e-03 2.256585375520e-02 0.0 
1.968363534736e-03 2.272551126130e-02 0.0 
2.106173695943e-03 2.228148032740e-02 0.0 
2.124924139239e-03 2.123479859789e-02 0.0 
-2.882264967681e-04 1.699528604154e-02 0.0 
4.402189796722e-04 1.213864731073e-03 0.0 
-1.025866368153e-04 1.196760732007e-02 0.0 
-5.186026537598e-04 1.295118712845e-02 0.0 
2.765186236635e-04 1.128530193980e-03 0.0 
7.947254239179e-04 1.934817377466e-02 0.0 
8.885598028189e-05 8.668393705972e-03 0.0 
5.736272526343e-04 1.332335133086e-03 0.0 
1.801122152491e-03 2.090508603755e-02 0.0 
6.472810263888e-04 1.448996711799e-03 0.0 
2.401644197537e-03 2.124615948885e-02 0.0 
1.523675035220e-04 1.007783392540e-03 0.0 
2.562202969546e-05 1.169903411338e-02 0.0 
6.640768443443e-04 1.655011797931e-03 0.0 
2.312723400253e-03 1.955410045303e-02 0.0 
6.124407975796e-05 1.052803995677e-02 0.0 
9.317151565732e-05 6.790421816846e-03 0.0 
6.259807577766e-04 1.865193767110e-03 0.0 
4.445943458671e-04 1.912809543755e-03 0.0 
1.234256891027e-04 2.022031178498e-03 0.0 
2.316325968405e-04 2.180407559485e-03 0.0 
3.141863990599e-04 1.924605351944e-03 0.0 
1.890103173400e-03 1.925048110217e-02 0.0 
1.230593656938e-03 1.957892911217e-02 0.0 
8.118666339067e-04 1.957680624496e-02 0.0 
8.037725841102e-05 1.236506231862e-02 0.0 
9.084126960870e-05 1.079680512462e-03 0.0 
-8.870692493553e-04 1.428562847302e-02 0.0 
3.385506441726e-05 1.162895074837e-02 0.0 
6.459830954209e-05 4.044999118767e-03 0.0 
4.197471609149e-04 1.969132067572e-02 0.0 
3.511617983435e-05 1.133526618782e-02 0.0 
6.051139569442e-04 2.144208413645e-03 0.0 
5.714856159216e-04 1.278541066970e-03 0.0 
6.591259162449e-04 1.528447064874e-03 0.0 
5.429607602272e-04 1.345346383914e-03 0.0 
3.533264191731e-04 1.115446097441e-03 0.0 
-3.071520375377e-04 1.242152290711e-02 0.0 
1.538862427933e-03 1.957949935918e-02 0.0 
2.478089729051e-04 1.265273911099e-03 0.0 
6.068223155919e-05 8.164012534237e-03 0.0 
-2.068917923141e-05 1.179968961736e-02 0.0 
7.967107663911e-05 9.727657341732e-03 0.0 
6.087971374310e-05 1.646415339055e-03 0.0 
1.337179150692e-03 2.015426828832e-02 0.0 
2.409434290458e-04 1.822769918929e-02 0.0 
2.187632629691e-03 2.127561127337e-02 0.0 
2.431707672161e-03 2.066636543954e-02 0.0 
-8.241313584000e-04 1.580703675060e-02 0.0 
9.656834899738e-05 1.626060628846e-02 0.0 
4.163909830653e-05 8.514409403961e-04 0.0 
1.537104441890e-05 1.161363402342e-02 0.0 
3.326646884040e-05 3.705472717071e-03 0.0 
2.243669103526e-03 1.879976508199e-02 0.0 
2.430876407597e-03 1.780539653463e-02 0.0 
2.253187107523e-03 1.721155347083e-02 0.0 
2.457625599184e-03 1.604191818293e-02 0.0 
2.279810643254e-03 1.522871173645e-02 0.0 
2.423560802629e-03 1.418547224735e-02 0.0 
2.620314131972e-03 1.494655494382e-02 0.0 
2.539891216595e-03 1.312415196108e-02 0.0 
2.747344940475e-03 1.385582601659e-02 0.0 
2.211402649019e-03 1.332214718505e-02 0.0 
2.619422587698e-03 1.205764258585e-02 0.0 
2.833464029878e-03 1.276436646290e-02 0.0 
2.658635921944e-03 1.100106898574e-02 0.0 
2.875223624310e-03 1.168584122252e-02 0.0 
3.018556586955e-03 1.337938610496e-02 0.0 
3.060548197147e-03 1.228872510688e-02 0.0 
3.167177838252e-03 1.389465320013e-02 0.0 
3.207341678720e-03 1.279483894620e-02 0.0 
3.057893788895e-03 1.123420862673e-02 0.0 
3.202710561174e-03 1.174061970390e-02 0.0 
3.311185196205e-03 1.320858823563e-02 0.0 
3.303694104936e-03 1.215990358366e-02 0.0 
3.368627213949e-03 1.353131637066e-02 0.0 
3.358602124602e-03 1.249133911945e-02 0.0 
3.379012580076e-03 1.377021442003e-02 0.0 
3.367652244149e-03 1.274675915274e-02 0.0 
3.308385734732e-03 1.150827503787e-02 0.0 
3.317258763336e-03 1.178605162258e-02 0.0 
3.331747111416e-03 1.293128680567e-02 0.0 
3.282371090710e-03 1.199772536673e-02 0.0 
3.253068784047e-03 1.305245553232e-02 0.0 
3.206058465852e-03 1.214980307425e-02 0.0 
3.198976320771e-03 1.112348412578e-02 0.0 
3.126263472847e-03 1.131028072693e-02 0.0 
3.091191237868e-03 1.225177100054e-02 0.0 
3.016764849591e-03 1.145072545857e-02 0.0 
2.941645550545e-03 1.231093189651e-02 0.0 
2.874495448057e-03 1.155102522026e-02 0.0 
2.762194375058e-03 1.233284569048e-02 0.0 
2.702823414274e-03 1.161787226834e-02 0.0 
2.781483819399e-03 1.084182883065e-02 0.0 
2.618828369765e-03 1.095079913981e-02 0.0 
2.506424911899e-03 1.165944236293e-02 0.0 
2.433178336645e-03 1.103804796776e-02 0.0 
2.513205854982e-03 1.033319298633e-02 0.0 
2.339105988763e-03 1.046532711576e-02 0.0 
2.389426004194e-03 9.759022588886e-03 0.0 
2.227799995567e-03 9.933585034324e-03 0.0 
2.150061001614e-03 1.057729915599e-02 0.0 
2.051688141128e-03 1.008721900995e-02 0.0 
2.102846424645e-03 9.435440917191e-03 0.0 
1.939423417612e-03 9.632386958048e-03 0.0 
1.864206841695e-03 1.023059999652e-02 0.0 
1.766947658449e-03 9.811548856209e-03 0.0 
1.817669098577e-03 9.200907550915e-03 0.0 
1.658491177364e-03 9.418286885116e-03 0.0 
1.588925120178e-03 9.981353617867e-03 0.0 
1.494663859247e-03 9.621870601290e-03 0.0 
1.543261272718e-03 9.036871947190e-03 0.0 
1.391783504945e-03 9.278242079769e-03 0.0 
1.328850825747e-03 9.817543120521e-03 0.0 
1.239443656023e-03 9.503984710541e-03 0.0 
1.283361130974e-03 8.940123274274e-03 0.0 
1.142644378261e-03 9.199623575704e-03 0.0 
1.169769504722e-03 8.609122127969e-03 0.0 
1.086114724731e-03 9.725356771636e-03 0.0 
1.002089825687e-03 9.447411729969e-03 0.0 
9.363483976211e-04 9.940665816934e-03 0.0 
8.645073645955e-04 9.684965741655e-03 0.0 
3.085484956218e-03 1.030483658494e-02 0.0 
7.950960015861e-04 1.014343016019e-02 0.0 
8.497617919315e-04 1.036935193831e-02 0.0 
7.328311662887e-04 9.911657886311e-03 0.0 
7.850593354615e-04 9.428845390892e-03 0.0 
6.624166892923e-04 1.033617425113e-02 0.0 
6.086771295790e-04 1.012671962723e-02 0.0 
5.402266394326e-04 1.051869890949e-02 0.0 
2.784191225830e-03 1.313733270899e-02 0.0 
3.011740399580e-03 1.022014900050e-02 0.0 
4.937347996463e-04 1.033022802123e-02 0.0 
4.301042027660e-04 1.069036633486e-02 0.0 
4.597413539917e-04 1.085550901110e-02 0.0 
3.574922072584e-04 1.099561405594e-02 0.0 
2.080778827649e-03 1.436308562919e-02 0.0 
1.986375148762e-03 1.239005428510e-02 0.0 
1.874208050485e-03 1.342791442384e-02 0.0 
1.752544025218e-03 1.140656748525e-02 0.0 
1.659455564161e-03 1.242456256289e-02 0.0 
3.325356024169e-04 1.085040596422e-02 0.0 
2.415161892635e-03 1.018241866318e-02 0.0 
1.822549621506e-03 1.036126064502e-02 0.0 
3.335126495621e-03 1.463012551692e-02 0.0 
3.263133902793e-03 1.402201414846e-02 0.0 
2.530439288646e-03 9.561982931228e-03 0.0 
5.462339264233e-04 9.914014411783e-03 0.0 
4.377888673027e-04 1.013763971035e-02 0.0 
4.763789921938e-04 9.696410598925e-03 0.0 
1.294931571482e-03 8.309025281270e-03 0.0 
1.166086334107e-03 7.953744276305e-03 0.0 
1.271902182803e-03 7.610030249302e-03 0.0 
1.130604183772e-03 7.231045428377e-03 0.0 
1.213403002575e-03 6.842057135426e-03 0.0 
1.062929475722e-03 6.438790765589e-03 0.0 
9.913376843730e-04 6.853035493510e-03 0.0 
9.172891585323e-04 6.034526762334e-03 0.0 
8.556577910526e-04 6.473076617428e-03 0.0 
1.119286062654e-03 6.003359614655e-03 0.0 
1.281272516992e-03 6.431873397565e-03 0.0 
7.779708781134e-04 5.627521649493e-03 0.0 
7.249859806051e-04 6.088433515819e-03 0.0 
6.462978265736e-04 5.214819680924e-03 0.0 
6.007006038379e-04 5.697469484551e-03 0.0 
6.591379401405e-04 6.529369580213e-03 0.0 
5.417071397505e-04 6.159671859531e-03 0.0 
5.833329948131e-04 6.950746322477e-03 0.0 
2.379552160613e-03 8.985400364505e-03 0.0 
2.483993554569e-03 8.721513024030e-03 0.0 
2.308567126433e-03 8.142397108692e-03 0.0 
2.372339917518e-03 7.810369208655e-03 0.0 
2.175588220718e-03 7.227897185359e-03 0.0 
2.195068433069e-03 6.827660623726e-03 0.0 
1.979925826790e-03 6.240240382420e-03 0.0 
1.972705559361e-03 6.671961975055e-03 0.0 
2.656693333634e-03 9.949876851398e-03 0.0 
2.291089939286e-03 1.167873346380e-02 0.0 
2.328547833742e-03 1.230505741218e-02 0.0 
2.087969951125e-03 1.225798994690e-02 0.0 
2.086296483125e-03 1.288734814002e-02 0.0 
1.825367406185e-03 1.277508937958e-02 0.0 
1.780794786927e-03 1.341041044189e-02 0.0 
1.503960378929e-03 1.323539848947e-02 0.0 
1.561922459689e-03 1.265709947606e-02 0.0 
1.229790869044e-03 1.306072556601e-02 0.0 
1.300989125543e-03 1.254132315568e-02 0.0 
9.653461275113e-04 1.289183744397e-02 0.0 
1.048040745379e-03 1.243411713495e-02 0.0 
3.221556437588e-03 1.058208561130e-02 0.0 
2.403332922302e-03 7.441842079233e-03 0.0 
2.178200436964e-03 6.387283311902e-03 0.0 
2.396834128469e-03 7.031068750314e-03 0.0 
3.701193706032e-04 1.113802637873e-02 0.0 
4.838701115106e-04 5.298290816678e-03 0.0 
1.156628402651e-03 5.543956191408e-03 0.0 
1.330775336494e-03 6.005685491272e-03 0.0 
1.761924464642e-03 5.675276439064e-03 0.0 
2.696491663226e-04 1.112438814793e-02 0.0 
1.413978989617e-03 1.387788927433e-02 0.0 
1.699411807722e-03 1.411640115624e-02 0.0 
1.516706067172e-03 1.035606600874e-02 0.0 
1.443550781660e-03 1.136709828102e-02 0.0 
1.170963755369e-03 5.059404586927e-03 0.0 
2.478733179713e-04 1.099771751965e-02 0.0 
8.147999901494e-04 5.144991257054e-03 0.0 
8.484359301958e-04 1.340983630210e-02 0.0 
4.303164844126e-04 5.781673984988e-03 0.0 
3.754830934443e-04 4.890345405441e-03 0.0 
9.081025086567e-04 7.245923133190e-03 0.0 
2.120966160631e-03 5.901664493799e-03 0.0 
2.354030266260e-03 6.590938129595e-03 0.0 
1.344998233424e-03 1.207433169018e-02 0.0 
1.103832470985e-03 1.202437928768e-02 0.0 
8.098344698726e-04 1.233770515254e-02 0.0 
8.855164585914e-04 1.196542730820e-02 0.0 
1.136961954872e-03 1.164818849346e-02 0.0 
9.244993090527e-04 1.165093959061e-02 0.0 
6.798665745982e-04 1.193063254349e-02 0.0 
7.299966396715e-04 1.165858759068e-02 0.0 
9.450283381525e-04 1.135591709867e-02 0.0 
7.617371239456e-04 1.140306490740e-02 0.0 
5.559622092308e-04 1.167311668004e-02 0.0 
5.976962110340e-04 1.145198213424e-02 0.0 
4.105793426202e-04 4.363799848198e-03 0.0 
5.873822067774e-04 1.318867583555e-02 0.0 
3.080291344577e-03 1.502904544117e-02 0.0 
9.936241572532e-04 4.581215138007e-03 0.0 
1.725614578391e-03 5.192863745308e-03 0.0 
1.283297011883e-03 9.255765649325e-03 0.0 
1.229966495493e-03 1.026384478878e-02 0.0 
1.353626170676e-03 1.237134392236e-02 0.0 
1.159110021687e-03 1.126088387517e-02 0.0 
1.022564436757e-03 9.119857451491e-03 0.0 
9.704829684975e-04 1.011866125179e-02 0.0 
1.075707742881e-03 1.224566914832e-02 0.0 
9.042926528005e-04 1.110451011060e-02 0.0 
9.836432091759e-04 1.321326375623e-02 0.0 
8.276824633605e-04 1.207493932919e-02 0.0 
7.408665139147e-04 9.935736128224e-03 0.0 
6.787303286188e-04 1.091399840294e-02 0.0 
7.436364584655e-04 1.303103114491e-02 0.0 
6.071427638039e-04 1.187855113014e-02 0.0 
6.541587634823e-04 1.397092215431e-02 0.0 
5.281056110094e-04 1.282857180313e-02 0.0 
4.793697631561e-04 1.070648918435e-02 0.0 
1.990322257556e-04 1.123194635509e-02 0.0 
1.767519148767e-03 6.138233048313e-03 0.0 
1.544390251358e-03 5.127678165499e-03 0.0 
3.763098180860e-04 9.938582834129e-03 0.0 
4.043273149649e-04 9.471697505116e-03 0.0 
5.035912133772e-04 9.195876864584e-03 0.0 
4.159982897828e-04 8.946795333282e-03 0.0 
4.086475070943e-04 1.167757374497e-02 0.0 
3.620566909465e-04 9.518338268907e-03 0.0 
1.288301871846e-03 1.459290170436e-02 0.0 
1.577095160559e-03 1.490049697509e-02 0.0 
1.313687120234e-03 8.238593680236e-03 0.0 
3.258658065232e-04 5.394194238154e-03 0.0 
3.657106250047e-04 6.244313392761e-03 0.0 
3.142050035292e-03 1.404840230504e-02 0.0 
3.108006810159e-03 1.505207227087e-02 0.0 
2.947092450024e-03 1.498807073931e-02 0.0 
2.856181569034e-03 1.604344913607e-02 0.0 
3.027013064101e-03 1.613160784039e-02 0.0 
2.655098358617e-03 1.588930905029e-02 0.0 
1.448324457991e-03 6.877961544643e-03 0.0 
5.883884601170e-04 8.744626271971e-03 0.0 
4.771116780731e-04 1.101922747075e-02 0.0 
3.684447729753e-04 1.127974094949e-02 0.0 
2.767630180717e-04 4.471878345772e-03 0.0 
1.933871562652e-03 7.071497844964e-03 0.0 
3.167005456811e-03 1.021111407162e-02 0.0 
3.044747986838e-03 9.312689974631e-03 0.0 
2.942933990266e-03 8.849363582756e-03 0.0 
2.785885962638e-03 7.978283940670e-03 0.0 
2.634755364486e-03 7.423513005888e-03 0.0 
2.442832716001e-03 6.578769849536e-03 0.0 
2.599779543520e-03 7.152446815298e-03 0.0 
2.018549872057e-03 5.359843720017e-03 0.0 
2.223880693633e-03 5.771200077590e-03 0.0 
4.505174474481e-04 1.378310172381e-02 0.0 
2.601832369466e-03 8.097598545856e-03 0.0 
9.466801177142e-04 1.108078364357e-02 0.0 
2.082092037069e-04 1.133580527904e-02 0.0 
4.003206775897e-04 1.169667679443e-02 0.0 
1.766466027530e-04 1.112991668540e-02 0.0 
2.152783868568e-04 1.086505003812e-02 0.0 
9.701691037652e-04 4.041670787669e-03 0.0 
2.239887725684e-03 5.933424296174e-03 0.0 
2.438698265963e-03 6.796292918705e-03 0.0 
2.716039832318e-03 1.717790358503e-02 0.0 
2.895619724984e-03 1.728457408757e-02 0.0 
1.770523566196e-03 4.696829866163e-03 0.0 
1.743025870152e-03 1.446454681926e-02 0.0 
1.143557976392e-03 1.432580562178e-02 0.0 
1.031556565539e-03 1.527019948561e-02 0.0 
1.372129695516e-04 1.135538800108e-02 0.0 
3.402306632424e-04 1.188893962958e-02 0.0 
8.257268494593e-04 7.944489271860e-03 0.0 
1.975399073590e-03 1.435479463619e-02 0.0 
1.859807906147e-03 1.519885650130e-02 0.0 
4.234674602973e-04 1.370386321442e-02 0.0 
1.718438308332e-04 1.343262438864e-02 0.0 
3.034021882000e-04 1.047753760501e-02 0.0 
2.601968875393e-04 8.310901477077e-03 0.0 
5.161133786227e-04 8.635776856201e-03 0.0 
4.203768619682e-04 8.359606575574e-03 0.0 
1.158120208241e-03 4.543032849809e-03 0.0 
4.548265008978e-04 1.150032655910e-02 0.0 
2.998113638447e-04 7.311310834682e-03 0.0 
1.741447341689e-03 6.566344542154e-03 0.0 
1.867461088830e-03 7.441249250492e-03 0.0 
3.185791049085e-04 9.243295664608e-03 0.0 
1.115944381334e-03 1.539076457981e-02 0.0 
8.236122390887e-04 1.501469905110e-02 0.0 
1.134020883567e-03 1.099702180375e-02 0.0 
6.193599584861e-04 1.124391828127e-02 0.0 
1.458542063605e-04 1.101452540954e-02 0.0 
9.149915588325e-04 3.469386414194e-03 0.0 
8.408323128416e-04 6.933154455840e-03 0.0 
2.389846283138e-03 6.369885901120e-03 0.0 
2.712085717124e-03 7.666008348631e-03 0.0 
1.983878116166e-03 5.003939369023e-03 0.0 
2.827119888097e-04 1.170554483862e-02 0.0 
7.928754239801e-04 3.540124137861e-03 0.0 
2.300050052589e-04 4.996314178595e-03 0.0 
2.012616833435e-03 5.290612388745e-03 0.0 
2.199090908569e-03 6.095987815183e-03 0.0 
2.237912686921e-03 1.458059565983e-02 0.0 
2.139273773994e-03 1.547500457033e-02 0.0 
1.700401173547e-03 1.613008558688e-02 0.0 
1.985138032375e-03 1.646075258397e-02 0.0 
2.796114381170e-03 1.562491782185e-02 0.0 
2.489399804905e-03 1.477575594304e-02 0.0 
3.190701172126e-03 1.545524601115e-02 0.0 
3.059659390286e-03 1.663391710225e-02 0.0 
3.126098141399e-03 1.696974185137e-02 0.0 
3.152415316193e-03 1.616576308963e-02 0.0 
3.027014948287e-03 1.733965786497e-02 0.0 
2.336087832010e-03 1.299453907446e-02 0.0 
2.646886489251e-03 9.337405449674e-03 0.0 
6.098497201352e-04 8.904343582662e-03 0.0 
6.984515458741e-04 7.289070830243e-03 0.0 
1.413534931048e-03 7.992598853268e-03 0.0 
6.236441322075e-04 7.746628903359e-03 0.0 
4.715542820852e-04 6.525354203363e-03 0.0 
7.855546131494e-04 1.509331501660e-02 0.0 
6.830014545738e-04 1.600672373872e-02 0.0 
2.751949185831e-04 1.136718463272e-02 0.0 
2.565265300978e-04 1.148766179638e-02 0.0 
1.053031192097e-03 8.281097200528e-03 0.0 
8.260363628760e-04 4.104146592764e-03 0.0 
1.066927058222e-03 7.098494697394e-03 0.0 
1.048560543707e-03 6.076531999323e-03 0.0 
1.315318256248e-03 7.212974041501e-03 0.0 
1.113332452594e-03 3.992279696586e-03 0.0 
2.063844431887e-03 1.168428500002e-02 0.0 
2.216819925181e-03 8.444383746446e-03 0.0 
3.480487762243e-04 1.299334728940e-02 0.0 
3.114542991501e-03 1.003713400175e-02 0.0 
1.805609938259e-04 1.154313132307e-02 0.0 
2.828473351043e-03 9.632470105976e-03 0.0 
1.892106612390e-04 4.042557810167e-03 0.0 
2.189369711057e-04 3.474976085682e-03 0.0 
1.612521176547e-03 4.084074440087e-03 0.0 
2.552933780594e-03 1.846978533947e-02 0.0 
2.969482332895e-03 9.237067405390e-03 0.0 
2.946533133979e-03 9.541565278524e-03 0.0 
2.949904525989e-03 1.818603935643e-02 0.0 
2.967647038452e-03 1.843016014980e-02 0.0 
3.143655516764e-03 1.719663169296e-02 0.0 
2.932825345771e-03 1.857243443889e-02 0.0 
1.105653193373e-03 1.070700918074e-02 0.0 
9.304696574814e-04 1.082529234091e-02 0.0 
1.738729601679e-03 4.332581532498e-03 0.0 
1.776928367731e-03 4.368342506408e-03 0.0 
1.736148249101e-03 4.545740454072e-03 0.0 
1.917622442416e-03 5.309808988780e-03 0.0 
1.346922493836e-03 3.419343805951e-03 0.0 
1.516895599333e-03 4.055467624025e-03 0.0 
1.725546825511e-04 1.072470144433e-02 0.0 
2.715652892457e-03 1.849171821696e-02 0.0 
6.402210698063e-04 5.722835358804e-03 0.0 
2.883306550265e-03 1.783185106782e-02 0.0 
6.337081158477e-04 3.066070524209e-03 0.0 
6.708422370741e-04 3.626574234041e-03 0.0 
-5.001155894276e-05 1.319672930237e-02 0.0 
1.396071176502e-04 1.278259745789e-02 0.0 
2.053308715937e-04 6.124802316009e-03 0.0 
1.493795710915e-03 1.713586450769e-02 0.0 
1.770606938193e-03 1.752192138332e-02 0.0 
1.203705565695e-03 1.670794483533e-02 0.0 
2.851710035763e-05 1.824908876680e-03 0.0 
1.815730666922e-04 1.970680736005e-02 0.0 
1.418871425796e-04 3.014525106481e-03 0.0 
3.235873360065e-03 1.612759115385e-02 0.0 
2.213955719663e-04 5.014869112236e-03 0.0 
2.803476103719e-03 8.491242050626e-03 0.0 
2.979257191486e-03 1.403783247815e-02 0.0 
1.355048979752e-03 5.049098612400e-03 0.0 
1.664495382153e-04 7.319123075315e-03 0.0 
1.233895044822e-04 4.826288204528e-03 0.0 
1.174772703352e-03 1.631947551925e-02 0.0 
1.052840564882e-03 1.727080880652e-02 0.0 
1.304274949130e-03 1.540620655246e-02 0.0 
7.032457265753e-04 1.399366463101e-02 0.0 
1.753978463367e-04 1.437878449722e-02 0.0 
4.495100359018e-04 7.533209169265e-03 0.0 
3.399925980208e-04 1.034820094890e-02 0.0 
2.792998383754e-04 1.012318634480e-02 0.0 
4.776422410852e-04 1.133321084179e-02 0.0 
6.192746786105e-04 1.105451484411e-02 0.0 
6.178642660759e-04 8.312171447501e-03 0.0 
7.190525225225e-04 8.600074466420e-03 0.0 
2.738060360368e-03 8.646157211812e-03 0.0 
2.516759637626e-03 7.985430311770e-03 0.0 
3.067850097171e-03 9.773322847035e-03 0.0 
1.687987643130e-03 6.963978180399e-03 0.0 
1.778083693239e-03 7.784398859670e-03 0.0 
1.942805034378e-03 8.241436032805e-03 0.0 
4.813522736340e-04 5.581285632368e-03 0.0 
3.209862311222e-04 4.144253987788e-03 0.0 
1.290004993693e-03 1.059431487570e-02 0.0 
1.331844736465e-03 1.091863469913e-02 0.0 
1.060230084200e-03 1.044399556084e-02 0.0 
6.168616935473e-04 4.740306750128e-03 0.0 
1.569724086031e-04 2.433803882070e-03 0.0 
2.334783908409e-04 2.924955817529e-03 0.0 
1.484858250719e-04 1.163922069478e-02 0.0 
2.232610848552e-04 1.160827942522e-02 0.0 
6.096533732262e-04 1.581396030846e-02 0.0 
3.093584282031e-04 1.538454237383e-02 0.0 
1.010629340760e-03 5.136812018371e-03 0.0 
1.285731719217e-03 6.202370702879e-03 0.0 
7.216680027861e-04 3.879216260368e-03 0.0 
1.038156877121e-04 1.090654520549e-02 0.0 
2.506685131762e-03 6.888740838785e-03 0.0 
8.464209601310e-04 2.922591595416e-03 0.0 
1.056970621023e-03 3.472369753354e-03 0.0 
6.151986937055e-04 2.243436489021e-03 0.0 
1.884126001016e-03 4.810907508736e-03 0.0 
1.426952227482e-03 3.480645853189e-03 0.0 
1.487925209566e-03 3.567784006259e-03 0.0 
-2.645818480728e-04 1.361129019893e-02 0.0 
9.280690271708e-05 5.764993221411e-03 0.0 
8.068628680621e-04 1.710001677252e-02 0.0 
-4.050990402363e-04 1.337393739563e-02 0.0 
6.945367039177e-04 1.805384722629e-02 0.0 
5.831033333809e-04 1.691760097537e-02 0.0 
5.993432424851e-04 1.898237520012e-02 0.0 
8.798118114650e-05 1.114986430490e-02 0.0 
1.322397856588e-03 1.769498137065e-02 0.0 
1.473099615731e-03 1.653038699382e-02 0.0 
7.512251605424e-05 1.176252614386e-02 0.0 
4.177626294087e-04 3.525193527514e-03 0.0 
9.696330711288e-05 1.165956955758e-02 0.0 
1.272431770202e-04 1.158385816438e-02 0.0 
4.843620548874e-04 2.548594033506e-03 0.0 
5.284081168382e-04 3.140473381238e-03 0.0 
3.510036707491e-04 2.049092160015e-03 0.0 
4.092364724988e-04 2.707544139792e-03 0.0 
5.505578744004e-04 3.728072716631e-03 0.0 
4.274748877755e-04 3.259141811304e-03 0.0 
9.387458852352e-04 1.833764905419e-02 0.0 
2.799636144567e-04 2.053228091492e-03 0.0 
3.160206473146e-04 2.758962404352e-03 0.0 
1.839134927603e-04 1.580138152172e-03 0.0 
2.702497526737e-03 1.986354987732e-02 0.0 
2.228146307023e-03 1.677521570202e-02 0.0 
2.016089581194e-03 1.790310378681e-02 0.0 
1.475407407204e-03 1.872839218964e-02 0.0 
1.303576291912e-03 3.363866385265e-03 0.0 
1.628892737865e-03 4.541114266561e-03 0.0 
1.432651086672e-04 4.567021295434e-03 0.0 
1.640565082159e-04 5.479287786271e-03 0.0 
4.803117258571e-04 1.795956001851e-02 0.0 
3.509810684132e-04 1.803792743925e-02 0.0 
3.845603279507e-04 1.623827720950e-02 0.0 
2.773720264427e-04 1.645707119690e-02 0.0 
2.991636711378e-04 1.464807294504e-02 0.0 
1.923908156261e-04 1.487947455780e-02 0.0 
2.290078484036e-04 1.302725425745e-02 0.0 
1.225255521180e-03 2.862590072227e-03 0.0 
9.148584671569e-04 1.770021244150e-02 0.0 
2.721309946763e-03 1.943903843497e-02 0.0 
1.077707616828e-03 2.771524078605e-03 0.0 
1.297892596536e-03 3.538519178336e-03 0.0 
2.850540663674e-03 1.857014525172e-02 0.0 
2.468479461077e-03 1.979500079843e-02 0.0 
5.256168265756e-04 2.287024951410e-03 0.0 
2.542845435785e-03 1.390630490008e-02 0.0 
3.160318228599e-04 2.246890361892e-03 0.0 
-9.981020086066e-04 1.486006263154e-02 0.0 
-4.237922577417e-04 1.450701756295e-02 0.0 
2.766218364716e-03 1.401632978627e-02 0.0 
3.111125743894e-03 1.731911680005e-02 0.0 
2.480199587426e-03 1.701822456061e-02 0.0 
2.311257714736e-03 1.816286564375e-02 0.0 
1.549176219230e-03 6.061122416755e-03 0.0 
1.676894465736e-04 1.173871582562e-02 0.0 
9.085751271831e-04 1.625994284904e-02 0.0 
3.336670601325e-04 1.282001419780e-02 0.0 
3.384869587880e-04 1.665807929443e-02 0.0 
7.513589621493e-05 4.987851637101e-03 0.0 
2.569083330060e-03 1.308282357651e-02 0.0 
3.311747589002e-03 1.499762117426e-02 0.0 
1.412413113245e-03 1.576091751597e-02 0.0 
2.420363433986e-03 1.569870870901e-02 0.0 
2.931070486785e-03 1.449777976501e-02 0.0 
2.625030547361e-03 1.673684076267e-02 0.0 
2.763195290187e-03 1.736592096018e-02 0.0 
2.554465199556e-03 1.233818604996e-02 0.0 
2.537395784254e-03 1.835453103920e-02 0.0 
2.051881649361e-03 1.945097048666e-02 0.0 
3.274868242254e-03 1.431203565254e-02 0.0 
1.588592930800e-03 8.297734884687e-03 0.0 
1.574211265110e-03 7.263241145970e-03 0.0 
1.227717905099e-03 5.254830226710e-03 0.0 
1.522648439810e-03 6.256037191561e-03 0.0 
1.863951443603e-03 8.278518393170e-03 0.0 
1.826269692230e-03 7.253120798853e-03 0.0 
1.431715473653e-03 5.289497095153e-03 0.0 
1.747496015252e-03 6.251403006246e-03 0.0 
1.193164837174e-03 3.930478534669e-03 0.0 
1.611673274394e-03 5.234123978227e-03 0.0 
2.056310097685e-03 7.200908491537e-03 0.0 
1.950563020586e-03 6.256375414968e-03 0.0 
1.506342872960e-03 4.526504400680e-03 0.0 
2.357582025746e-03 8.176390386373e-03 0.0 
8.613743406972e-04 2.106815797353e-03 0.0 
2.975355699214e-03 1.315057840980e-02 0.0 
-4.504669465129e-05 1.394876812409e-02 0.0 
-1.943138383197e-04 1.495183108429e-02 0.0 
3.347739891020e-03 1.485521526483e-02 0.0 
5.935973157443e-04 1.917278646279e-03 0.0 
4.990027461136e-04 1.947103979188e-03 0.0 
2.048720219497e-03 1.358695590904e-02 0.0 
6.635706692796e-04 1.586110319854e-03 0.0 
2.943757140331e-03 1.619303682289e-02 0.0 
1.125248959543e-03 1.364509146487e-02 0.0 
6.636266352776e-04 1.506342137642e-03 0.0 
1.861586772089e-03 9.313823183144e-03 0.0 
2.129106016229e-03 1.030668358816e-02 0.0 
2.073194528862e-03 1.135266036518e-02 0.0 
3.879013477831e-04 1.853944276689e-03 0.0 
1.432512257224e-03 1.445054330384e-02 0.0 
5.546821382719e-04 1.261404933884e-03 0.0 
2.559371038862e-03 8.425389887961e-03 0.0 
2.733647318318e-03 9.092592908312e-03 0.0 
2.791972223393e-03 1.000378467108e-02 0.0 
2.124943767315e-03 8.240506151536e-03 0.0 
4.684742392244e-04 1.219655032814e-03 0.0 
8.356589896413e-04 2.306810849113e-03 0.0 
7.732237161718e-04 2.264563335288e-03 0.0 
1.156464753956e-03 3.400445064355e-03 0.0 
3.988027456597e-04 1.170487000469e-03 0.0 
5.947447649091e-04 1.650268279857e-03 0.0 
5.859409826721e-04 1.529734183311e-03 0.0 
1.144779363922e-03 1.131093988289e-02 0.0 
1.357901180282e-03 1.126724628065e-02 0.0 
1.537386760383e-03 1.083981977994e-02 0.0 
1.577589465753e-03 1.123036095480e-02 0.0 
1.362982993383e-03 1.165244506762e-02 0.0 
1.596255343274e-03 1.166015239988e-02 0.0 
1.798234456659e-03 1.119766674044e-02 0.0 
1.590874053487e-03 1.213600592904e-02 0.0 
2.107392224980e-03 6.256421921861e-03 0.0 
3.224026359001e-04 1.094456431312e-03 0.0 
1.367081513270e-03 7.249318284546e-03 0.0 
1.521791960130e-03 7.670207041466e-03 0.0 
1.552734187830e-03 8.388145733724e-03 0.0 
6.998931201106e-04 9.167923473068e-03 0.0 
8.174139109631e-04 8.885294436115e-03 0.0 
8.282681658285e-04 8.280458224006e-03 0.0 
5.855491128919e-04 9.439385523647e-03 0.0 
2.891780831608e-03 8.465663562210e-03 0.0 
2.918422875509e-04 1.089921912119e-03 0.0 
2.045226919796e-03 7.930742449570e-03 0.0 
9.121298587158e-04 9.168172916602e-03 0.0 
1.711062816126e-03 1.943395971843e-02 0.0 
1.843371603071e-03 1.772118202833e-02 0.0 
2.029653414553e-03 1.752702701725e-02 0.0 
1.940891741872e-03 1.570349776018e-02 0.0 
1.641531133631e-03 1.762372285138e-02 0.0 
5.155924830122e-04 8.016215051223e-03 0.0 
4.135062011881e-04 7.712904694235e-03 0.0 
3.232490337707e-04 8.075860735519e-03 0.0 
3.125656949721e-04 7.400881295122e-03 0.0 
2.260112807445e-04 7.780962854674e-03 0.0 
2.338741794343e-04 8.407049621060e-03 0.0 
2.117002657731e-04 7.078950422099e-03 0.0 
1.307543586901e-04 7.556234543195e-03 0.0 
1.380137155700e-03 1.960356571567e-02 0.0 
-4.001358812437e-04 1.266142644894e-02 0.0 
-1.070526735162e-04 1.245676773226e-02 0.0 
-6.481305280910e-05 1.224995033451e-02 0.0 
1.291411785503e-04 1.224274103935e-02 0.0 
1.322241222881e-04 1.245401551418e-02 0.0 
3.985577821507e-04 1.217187066369e-02 0.0 
3.772000403572e-04 1.244033255395e-02 0.0 
-1.596614207449e-04 1.272645700592e-02 0.0 
-2.266513077505e-04 1.223566442987e-02 0.0 
-2.217543667275e-05 1.208695862688e-02 0.0 
-1.583155415002e-04 1.208561060807e-02 0.0 
5.430696195984e-06 1.196149570283e-02 0.0 
1.824934683877e-04 1.189794799600e-02 0.0 
3.563515215550e-04 1.141579286420e-02 0.0 
8.060228601793e-05 1.225866905716e-03 0.0 
8.561688812699e-05 9.232567699665e-03 0.0 
1.629499185222e-04 9.490190226218e-03 0.0 
1.496216962682e-04 9.938148799799e-03 0.0 
2.408537657682e-04 9.707378229100e-03 0.0 
1.638124779357e-04 9.016935295219e-03 0.0 
7.113837961436e-05 1.015771083685e-02 0.0 
1.347056600977e-04 1.029813177833e-02 0.0 
2.641614821634e-05 1.161798854399e-02 0.0 
3.483953177363e-05 1.156862965610e-02 0.0 
1.419863145413e-05 1.157127956894e-02 0.0 
3.972503969244e-05 1.147678637326e-02 0.0 
6.384213683965e-05 1.148568017954e-02 0.0 
5.175488831624e-05 1.157518807829e-02 0.0 
6.555392354609e-05 1.158819186372e-02 0.0 
3.681670856384e-05 1.164608038981e-02 0.0 
7.603138630230e-05 1.160655684131e-02 0.0 
1.117740674896e-04 1.150286371417e-02 0.0 
3.467123304483e-05 1.166901988966e-02 0.0 
7.361424479508e-05 1.024647033702e-02 0.0 
1.406333447848e-04 9.171484562540e-03 0.0 
2.494666167379e-04 1.137158713270e-03 0.0 
1.075332592708e-03 1.951345214001e-02 0.0 
-5.391742653639e-05 1.187386112423e-02 0.0 
1.157541256858e-04 2.430147815717e-03 0.0 
1.797171950583e-04 2.013241797453e-03 0.0 
1.444145915346e-04 1.951885041391e-03 0.0 
4.710827599267e-05 2.971015747443e-03 0.0 
7.648210868425e-05 2.443277706070e-03 0.0 
6.198034232644e-05 2.363201687190e-03 0.0 
5.754261285343e-04 1.070485292692e-02 0.0 
1.132067220121e-03 4.338868774004e-03 0.0 
3.262503819651e-04 6.299008853164e-03 0.0 
9.957493910252e-04 1.428796643128e-02 0.0 
7.678551280986e-04 1.094163340129e-02 0.0 
2.604121129057e-04 5.869471545141e-03 0.0 
7.816776188729e-04 6.888941347987e-03 0.0 
3.089813861447e-04 3.933569296401e-03 0.0 
4.721499834089e-04 6.601729459336e-03 0.0 
5.234428120782e-04 4.793438830520e-03 0.0 
7.301609443009e-04 2.299150315335e-03 0.0 
1.203676868163e-04 1.124131184118e-02 0.0 
8.861300692857e-04 1.416207182372e-02 0.0 
5.660605140357e-04 1.490340919461e-02 0.0 
5.395078291389e-04 9.732192838863e-03 0.0 
3.896536561383e-04 1.052192118243e-02 0.0 
3.286099015110e-04 8.658919590600e-03 0.0 
2.800551002875e-04 1.124525068098e-02 0.0 
1.203515401154e-03 2.885490937786e-03 0.0 
3.253552803461e-03 1.578626125279e-02 0.0 
1.421157320866e-03 8.669658304635e-03 0.0 
6.625253103056e-04 9.677279500405e-03 0.0 
7.066112925700e-04 1.054046311307e-02 0.0 
7.743166700475e-04 1.116359701418e-02 0.0 
3.133621632402e-03 1.312153135259e-02 0.0 
1.041239155532e-03 8.895279171726e-03 0.0 
9.633098309452e-04 5.575407684362e-03 0.0 
4.123277876097e-04 8.531675147594e-03 0.0 
1.696481500303e-05 1.173636573025e-02 0.0 
9.900411533055e-04 5.091698021393e-03 0.0 
1.036738975891e-03 7.600423719858e-03 0.0 
1.252500031123e-03 1.336099198843e-02 0.0 
1.952283260919e-03 5.773686432954e-03 0.0 
5.022802450255e-04 1.189583697787e-02 0.0 
7.912816579156e-04 8.948520642754e-03 0.0 
8.083388730137e-04 5.030569024422e-03 0.0 
1.606908867056e-03 1.549395828110e-02 0.0 
1.987457832744e-04 1.144470041728e-02 0.0 
9.214130686320e-04 1.622344829306e-02 0.0 
7.282173606113e-04 2.943349241284e-03 0.0 
1.566951409723e-03 9.327719537021e-03 0.0 
2.966509324230e-04 1.070050967243e-02 0.0 
2.251281406872e-03 9.222400354308e-03 0.0 
3.343042082894e-03 1.392898027577e-02 0.0 
2.393787328192e-03 2.015646566558e-02 0.0 
3.396102158151e-04 5.360728300607e-03 0.0 
3.018701376294e-03 1.053041685175e-02 0.0 
1.493504113785e-03 4.600515822951e-03 0.0 
2.124093747674e-03 7.594024083648e-03 0.0 
2.521237179737e-04 1.053776592948e-02 0.0 
6.848710550550e-04 4.181789057723e-03 0.0 
2.665462807889e-03 1.017835360331e-02 0.0 
6.435163661982e-04 6.752251882754e-03 0.0 
2.796203635894e-03 8.313950753728e-03 0.0 
2.230778250788e-03 1.110648331708e-02 0.0 
1.056344610319e-03 8.113543147825e-03 0.0 
1.687767504388e-03 8.789551421170e-03 0.0 
1.883240360381e-03 5.259421673593e-03 0.0 
3.270027316996e-03 1.600082853537e-02 0.0 
3.254536410253e-03 1.116046912305e-02 0.0 
2.875627873301e-03 1.065022116918e-02 0.0 
3.231529712050e-03 1.088299963285e-02 0.0 
1.775504470629e-04 6.328116744330e-03 0.0 
8.322015129485e-04 4.638726646203e-03 0.0 
7.180929388173e-04 1.274412465705e-02 0.0 
2.741001389076e-03 1.489737841813e-02 0.0 
1.549702219402e-03 1.343960121154e-02 0.0 
2.027661320892e-03 5.159500075767e-03 0.0 
4.582961082030e-04 4.493255348125e-03 0.0 
3.231142321691e-03 1.505745132149e-02 0.0 
6.756679692674e-04 4.712557375411e-03 0.0 
8.376016648352e-04 5.983735434567e-03 0.0 
9.360240191670e-04 8.590239535824e-03 0.0 
4.245724209601e-05 1.111743335856e-02 0.0 
5.371636781035e-04 1.464781592319e-02 0.0 
1.840294767789e-03 1.220000456775e-02 0.0 
2.916209347590e-03 1.070606178908e-02 0.0 
9.350031331547e-04 7.950456444668e-03 0.0 
8.894465277235e-04 3.916039663410e-03 0.0 
5.466341587613e-04 4.273153079738e-03 0.0 
1.355782650520e-03 5.543930150288e-03 0.0 
-5.459790872652e-04 1.638036109576e-02 0.0 
2.662513550184e-03 1.899645410235e-02 0.0 
4.288817388204e-04 3.824599485169e-03 0.0 
2.101724803062e-03 8.718895760680e-03 0.0 
1.645189682780e-03 4.654220915597e-03 0.0 
1.417700042757e-04 8.153201817414e-03 0.0 
1.202187529657e-03 2.832721609201e-03 0.0 
2.627204176464e-03 1.983600458592e-02 0.0 
3.232373739969e-04 3.365909169005e-03 0.0 
1.562467077732e-03 5.608555507542e-03 0.0 
2.306095008110e-03 1.375056525266e-02 0.0 
3.011886717610e-04 1.970935184549e-02 0.0 
2.042030491021e-04 2.114837038954e-03 0.0 
1.320126573140e-03 4.521580358261e-03 0.0 
3.101760734296e-03 9.708716744084e-03 0.0 
1.966358860195e-03 8.969092089275e-03 0.0 
2.444335152752e-03 2.102983450828e-02 0.0 
8.162896445681e-04 7.618554474248e-03 0.0 
3.156028450068e-03 1.073827873156e-02 0.0 
3.365981216844e-04 1.822454518859e-03 0.0 
1.273555291152e-03 4.046502094857e-03 0.0 
2.315415997838e-03 1.231617255651e-02 0.0 
7.188836299589e-04 7.974885846331e-03 0.0 
2.612616778592e-03 7.758716203895e-03 0.0 
8.805207632840e-05 1.149357202196e-02 0.0 
2.737284855433e-03 1.970472211867e-02 0.0 
6.090813273250e-04 7.661260920737e-03 0.0 
1.830234389414e-03 1.167642473430e-02 0.0 
1.822023359940e-03 8.525961383261e-03 0.0 
1.158530171173e-03 2.812831587657e-03 0.0 
5.009469069363e-04 7.339715493422e-03 0.0 
2.017614423130e-03 1.115586671812e-02 0.0 
3.952006677192e-04 7.010047433060e-03 0.0 
2.327729468238e-03 2.128679893861e-02 0.0 
2.382727959017e-03 1.121992998278e-02 0.0 
2.888727837476e-04 6.670550279525e-03 0.0 
2.924114547125e-03 9.249476998609e-03 0.0 
1.356741595488e-04 1.151506765675e-02 0.0 
2.953205406498e-03 8.889269044651e-03 0.0 
1.111010764723e-04 3.533267486047e-03 0.0 
1.002002545741e-03 1.019103223521e-02 0.0 
1.674202309990e-03 8.101270006038e-03 0.0 
2.146614894471e-03 9.262242680377e-03 0.0 
1.998908959479e-03 2.114502797263e-02 0.0 
1.615345772554e-03 7.332533401507e-03 0.0 
2.607797832736e-03 7.708228734579e-03 0.0 
2.780474403390e-03 8.114245528662e-03 0.0 
2.886975740669e-03 9.793716406626e-03 0.0 
1.509260766801e-03 6.479608293600e-03 0.0 
2.306376808522e-03 1.959515585366e-02 0.0 
5.963809545004e-04 1.089038146234e-02 0.0 
4.832045899983e-04 1.117478532058e-02 0.0 
1.950035986715e-03 1.067403072494e-02 0.0 
2.375234844218e-03 7.015794253035e-03 0.0 
7.338810107149e-05 1.135840556073e-02 0.0 
2.404233699660e-03 9.140423751270e-03 0.0 
3.265937338882e-04 1.155930874243e-02 0.0 
1.744845971531e-03 1.076035519721e-02 0.0 
2.257648544686e-03 6.056141539762e-03 0.0 
8.724079350337e-05 1.436345682340e-02 0.0 
1.674177876483e-03 1.035582621277e-02 0.0 
5.067684255678e-05 1.084931023214e-02 0.0 
1.481106129523e-03 1.047945429677e-02 0.0 
2.785346021763e-03 8.806885859359e-03 0.0 
1.411613013043e-03 1.013660396522e-02 0.0 
1.233631753335e-03 1.029128828525e-02 0.0 
2.269086722177e-04 4.115869087470e-03 0.0 
1.165195018198e-03 1.000195728384e-02 0.0 
3.029924017490e-05 1.959324674556e-03 0.0 
3.350547609524e-05 1.114584437744e-03 0.0 
1.136631184271e-04 1.827040427626e-02 0.0 
1.469235842097e-03 2.082362289208e-02 0.0 
-7.586036203632e-04 1.374956613619e-02 0.0 
1.862394279465e-03 1.888752955056e-02 0.0 
8.967160439294e-04 1.059349599931e-02 0.0 
2.611975572646e-03 8.962658259861e-03 0.0 
2.362112613816e-04 1.818301335321e-02 0.0 
7.415631596138e-04 1.074046126608e-02 0.0 
1.116515920177e-03 3.355418969096e-03 0.0 
5.930896128470e-04 1.321630824125e-03 0.0 
1.584818879694e-04 1.119614439637e-02 0.0 
1.426101630862e-03 4.122818051442e-03 0.0 
2.576382352721e-03 7.330869226743e-03 0.0 
4.582687553212e-05 5.988655306317e-03 0.0 
6.946227144764e-04 1.985890487298e-02 0.0 
3.084884703044e-05 1.186098700327e-02 0.0 
8.545011084918e-05 5.884652922715e-03 0.0 
9.378468815637e-04 1.997754620695e-02 0.0 
1.178635979150e-03 1.820984704355e-02 0.0 
6.075374504348e-04 1.719178136388e-02 0.0 
1.962760615049e-04 1.040291668803e-02 0.0 
1.367144715803e-04 1.206790893554e-02 0.0 
5.290893683355e-04 1.879106537263e-02 0.0 
9.144307775216e-04 2.423740146972e-03 0.0 
1.172951185799e-03 1.811939931575e-02 0.0 
2.163949849822e-03 5.630325920326e-03 0.0 
-1.953507137844e-05 1.760477908496e-02 0.0 
5.823095910796e-04 3.906146258036e-03 0.0 
1.144384167091e-03 2.679786870556e-03 0.0 
1.730031232007e-04 9.917634173063e-04 0.0 
1.706688908177e-03 4.211989330440e-03 0.0 
3.542059235728e-05 1.612959170950e-02 0.0 
1.763503853747e-03 1.622170010207e-02 0.0 
1.196989763727e-03 2.947743203862e-03 0.0 
2.155162776393e-04 9.481955239025e-03 0.0 
1.234973528705e-04 9.460172888549e-04 0.0 
1.475796500931e-03 1.821130952043e-02 0.0 
1.371044536743e-04 3.844185176391e-03 0.0 
5.019319339261e-04 1.261924435649e-02 0.0 
6.879279303355e-05 3.732011616040e-03 0.0 
2.251363942115e-03 7.183003657536e-03 0.0 
4.848927810586e-04 1.582101955083e-02 0.0 
2.126411775282e-03 1.602311843074e-02 0.0 
9.248501948045e-05 1.926171046834e-03 0.0 
1.005243602403e-03 3.532824741097e-03 0.0 
-2.460532102752e-04 1.554328349130e-02 0.0 
2.487190274692e-04 1.141083165213e-02 0.0 
3.249820432963e-04 9.707931244356e-03 0.0 
-2.840005298284e-04 1.305486913277e-02 0.0 
4.341613052020e-04 2.074352283361e-03 0.0 
1.817826339484e-03 5.420135994771e-03 0.0 
1.551346337279e-04 1.968997598900e-03 0.0 
1.680232789657e-05 1.148389690140e-02 0.0 
5.781205133380e-05 1.172828709006e-02 0.0 
4.931420597134e-04 1.949767015168e-03 0.0 
1.103684049449e-03 2.944297674875e-03 0.0 
6.383124814946e-04 1.218449881189e-02 0.0 
1.941621887758e-04 1.570703947058e-03 0.0 
-6.308030653025e-04 1.514165474812e-02 0.0 
9.422295240828e-04 2.004892258212e-02 0.0 
7.720361336137e-05 1.163549399740e-02 0.0 
9.822569159381e-05 9.537193052169e-04 0.0 
3.381975933514e-04 3.669590843108e-03 0.0 
2.297637526289e-04 9.259742705416e-03 0.0 
2.063743340876e-03 1.893001671822e-02 0.0 
1.168492846765e-04 1.063467527496e-02 0.0 
1.598178151169e-03 3.883776815940e-03 0.0 
1.385462662598e-04 1.183242914637e-02 0.0 
2.276203807013e-04 3.471912450421e-03 0.0 
5.827128969928e-04 1.944592884625e-03 0.0 
7.060429076328e-04 3.352547271345e-03 0.0 
3.907366362889e-04 9.329248744991e-04 0.0 
-4.761732406753e-04 1.401260364147e-02 0.0 
1.019065120304e-03 2.351910248557e-03 0.0 
1.002028863075e-03 3.091215240570e-03 0.0 
5.235616145494e-04 1.993607571866e-02 0.0 
8.839841832207e-04 3.524814990144e-03 0.0 
2.073411636475e-04 1.008392557003e-02 0.0 
1.600590086426e-04 1.138979986992e-02 0.0 
1.304544244234e-05 1.736267714276e-03 0.0 
6.202748200823e-06 1.161091451243e-02 0.0 
8.832366039537e-05 1.992233721984e-02 0.0 
1.334526686748e-05 9.089043704373e-04 0.0 
9.602572220758e-05 1.139431499258e-02 0.0 
1.876832595379e-04 1.684450606619e-02 0.0 
1.035132189679e-03 2.903454729937e-03 0.0 
6.148801592564e-05 8.044200989381e-03 0.0 
1.066904865891e-04 7.442513281575e-03 0.0 
3.004793918499e-04 1.204486111944e-02 0.0 
-6.927587222114e-04 1.330253471706e-02 0.0 
1.511220756530e-04 1.333673780492e-02 0.0 
9.965093450628e-04 2.351702737588e-03 0.0 
5.457975653835e-04 3.252065523143e-03 0.0 
3.895397850706e-04 1.472118871693e-02 0.0 
1.577356296225e-04 1.497471821598e-02 0.0 
1.431825446589e-03 4.073895272113e-03 0.0 
2.467030051483e-04 8.847637993950e-03 0.0 
1.593984007982e-03 4.017867433666e-03 0.0 
1.148360529157e-03 3.214993623589e-03 0.0 
-1.049387030581e-03 1.539775581555e-02 0.0 
5.534636378845e-05 7.378532589689e-03 0.0 
7.086199764886e-05 1.166664380060e-02 0.0 
2.852877643926e-04 1.823439423856e-03 0.0 
1.637930814109e-04 8.584300699184e-03 0.0 
1.951661555506e-03 2.274662544801e-02 0.0 
6.130447041303e-05 2.396415880007e-02 0.0 
1.998847220748e-03 2.157627735904e-02 0.0 
6.079681267370e-05 2.219242773893e-02 0.0 

TENSORS node_materi_stress float
-2.937965595317e+00 1.707907747033e-02 0.0 
1.707907747033e-02 -8.543706447610e+00 0.0 
0.0 0.0 -3.362754887958e+00 
-2.964135190269e+01 4.146014056477e-01 0.0 
4.146014056477e-01 -3.981209396981e+01 0.0 
0.0 0.0 -2.043603376175e+01 
-1.622505718513e+02 1.151903962789e-02 0.0 
1.151903962789e-02 -3.820282739326e+02 0.0 
0.0 0.0 -1.628836537352e+02 
-9.931383366593e+01 7.982313446685e-01 0.0 
7.982313446685e-01 -2.306234524376e+02 0.0 
0.0 0.0 -9.858118583107e+01 
-7.407631264591e+00 -2.957668835466e-01 0.0 
-2.957668835466e-01 -2.078362846597e+01 0.0 
0.0 0.0 -8.269546769222e+00 
-1.446000823160e+01 -6.597441017605e-01 0.0 
-6.597441017605e-01 -4.043735186851e+01 0.0 
0.0 0.0 -1.606920803003e+01 
-2.108309241264e+01 -5.328607494777e-01 0.0 
-5.328607494777e-01 -5.872309272709e+01 0.0 
0.0 0.0 -2.354185554192e+01 
-2.880172198090e+01 -5.039718705592e-01 0.0 
-5.039718705592e-01 -7.968421648597e+01 0.0 
0.0 0.0 -3.214578154006e+01 
-3.599435046910e+01 -3.809777264649e-01 0.0 
-3.809777264649e-01 -9.980085715225e+01 0.0 
0.0 0.0 -4.033856228641e+01 
-4.338195779316e+01 -3.582721170810e-01 0.0 
-3.582721170810e-01 -1.196319117785e+02 0.0 
0.0 0.0 -4.850416087150e+01 
-5.072839704794e+01 -3.813588680764e-01 0.0 
-3.813588680764e-01 -1.394433895080e+02 0.0 
0.0 0.0 -5.665153596679e+01 
-5.811095826292e+01 -3.278854614648e-01 0.0 
-3.278854614648e-01 -1.592048429679e+02 0.0 
0.0 0.0 -6.479474036924e+01 
-6.569844586528e+01 -3.016249685384e-01 0.0 
-3.016249685384e-01 -1.789168889564e+02 0.0 
0.0 0.0 -7.298460044651e+01 
-7.344827685223e+01 -3.442824501522e-01 0.0 
-3.442824501522e-01 -1.987552349498e+02 0.0 
0.0 0.0 -8.126105354060e+01 
-8.158024335242e+01 -4.781192191034e-01 0.0 
-4.781192191034e-01 -2.190028658227e+02 0.0 
0.0 0.0 -8.977493275254e+01 
-9.006815001873e+01 -4.795034635058e-01 0.0 
-4.795034635058e-01 -2.385128937960e+02 0.0 
0.0 0.0 -9.817431314442e+01 
-9.808585488665e+01 -5.905873054612e-01 0.0 
-5.905873054612e-01 -2.562313771442e+02 0.0 
0.0 0.0 -1.058951696093e+02 
-1.068706714035e+02 -1.308865287500e-01 0.0 
-1.308865287500e-01 -2.756122757955e+02 0.0 
0.0 0.0 -1.143448841597e+02 
-1.163017220825e+02 -8.014680656956e-02 0.0 
-8.014680656956e-02 -2.953844073699e+02 0.0 
0.0 0.0 -1.231058388357e+02 
-1.257722585140e+02 -5.028964319846e-02 0.0 
-5.028964319846e-02 -3.144673411764e+02 0.0 
0.0 0.0 -1.316718799071e+02 
-1.355707828883e+02 7.494683533459e-04 0.0 
7.494683533459e-04 -3.335896865653e+02 0.0 
0.0 0.0 -1.403481408361e+02 
-1.457524841735e+02 -7.904638247951e-03 0.0 
-7.904638247951e-03 -3.527653453335e+02 0.0 
0.0 0.0 -1.491553488521e+02 
-1.556983487663e+02 -7.074600517616e-02 0.0 
-7.074600517616e-02 -3.709638316450e+02 0.0 
0.0 0.0 -1.575986541234e+02 
-9.963209364388e+01 1.089917557534e+00 0.0 
1.089917557534e+00 -2.318296224073e+02 0.0 
0.0 0.0 -9.903851481534e+01 
-9.911389379281e+01 1.957978427155e+00 0.0 
1.957978427155e+00 -2.308403566013e+02 0.0 
0.0 0.0 -9.858627511823e+01 
-9.931441040737e+01 3.160819736070e+00 0.0 
3.160819736070e+00 -2.312281524923e+02 0.0 
0.0 0.0 -9.876276886990e+01 
-9.934088386005e+01 3.798001285711e+00 0.0 
3.798001285711e+00 -2.314387994316e+02 0.0 
0.0 0.0 -9.883390498749e+01 
-9.941915341832e+01 4.980430695354e+00 0.0 
4.980430695354e+00 -2.311246903865e+02 0.0 
0.0 0.0 -9.876315314146e+01 
-9.988771964275e+01 6.147614012261e+00 0.0 
6.147614012261e+00 -2.321938399303e+02 0.0 
0.0 0.0 -9.922446787191e+01 
-1.006083479780e+02 7.455563578213e+00 0.0 
7.455563578213e+00 -2.331748938562e+02 0.0 
0.0 0.0 -9.973497255027e+01 
-1.006949032662e+02 8.958936066166e+00 0.0 
8.958936066166e+00 -2.337164003814e+02 0.0 
0.0 0.0 -9.992339109430e+01 
-1.016795418018e+02 1.058179955316e+01 0.0 
1.058179955316e+01 -2.356495000201e+02 0.0 
0.0 0.0 -1.007987125466e+02 
-1.021256249884e+02 1.190349595673e+01 0.0 
1.190349595673e+01 -2.370155809416e+02 0.0 
0.0 0.0 -1.013423617790e+02 
-1.029754113350e+02 1.370209543043e+01 0.0 
1.370209543043e+01 -2.381601540546e+02 0.0 
0.0 0.0 -1.019406696169e+02 
-1.040887141326e+02 1.558314617261e+01 0.0 
1.558314617261e+01 -2.409855372180e+02 0.0 
0.0 0.0 -1.031222754052e+02 
-1.058485160550e+02 1.752238553915e+01 0.0 
1.752238553915e+01 -2.444046759179e+02 0.0 
0.0 0.0 -1.046759575919e+02 
-1.067660306081e+02 1.945441740204e+01 0.0 
1.945441740204e+01 -2.472163382549e+02 0.0 
0.0 0.0 -1.057947106589e+02 
-1.085798783688e+02 2.139506267847e+01 0.0 
2.139506267847e+01 -2.508003067598e+02 0.0 
0.0 0.0 -1.074140555386e+02 
-1.098487641259e+02 2.310211979812e+01 0.0 
2.310211979812e+01 -2.545002201177e+02 0.0 
0.0 0.0 -1.089046952731e+02 
-1.120451924217e+02 2.492860727715e+01 0.0 
2.492860727715e+01 -2.595261688034e+02 0.0 
0.0 0.0 -1.110714083675e+02 
-1.149836146153e+02 2.663476584591e+01 0.0 
2.663476584591e+01 -2.662408566243e+02 0.0 
0.0 0.0 -1.139673413719e+02 
-1.174608188884e+02 2.808869760818e+01 0.0 
2.808869760818e+01 -2.728676967766e+02 0.0 
0.0 0.0 -1.166985546995e+02 
-1.201213015112e+02 2.927028126205e+01 0.0 
2.927028126205e+01 -2.798264511071e+02 0.0 
0.0 0.0 -1.195843257855e+02 
-1.226725370068e+02 2.999579815057e+01 0.0 
2.999579815057e+01 -2.866264844391e+02 0.0 
0.0 0.0 -1.223897064338e+02 
-1.256106237463e+02 3.060185002118e+01 0.0 
3.060185002118e+01 -2.935555257924e+02 0.0 
0.0 0.0 -1.253498448616e+02 
-1.282954851560e+02 3.078213779450e+01 0.0 
3.078213779450e+01 -3.006574884204e+02 0.0 
0.0 0.0 -1.282858920729e+02 
-1.310790013658e+02 3.068060131218e+01 0.0 
3.068060131218e+01 -3.076685087092e+02 0.0 
0.0 0.0 -1.312242530225e+02 
-1.339528943229e+02 3.029626719330e+01 0.0 
3.029626719330e+01 -3.147889616058e+02 0.0 
0.0 0.0 -1.342225567786e+02 
-1.368255519195e+02 2.973053749455e+01 0.0 
2.973053749455e+01 -3.217249951602e+02 0.0 
0.0 0.0 -1.371651641239e+02 
-1.393375228333e+02 2.885703127415e+01 0.0 
2.885703127415e+01 -3.281970242285e+02 0.0 
0.0 0.0 -1.398603641186e+02 
-1.418525902287e+02 2.779848967745e+01 0.0 
2.779848967745e+01 -3.342562516093e+02 0.0 
0.0 0.0 -1.424326525514e+02 
-1.440015739060e+02 2.654808816550e+01 0.0 
2.654808816550e+01 -3.396950868029e+02 0.0 
0.0 0.0 -1.447089982127e+02 
-1.466743343695e+02 2.540887281418e+01 0.0 
2.540887281418e+01 -3.454750941690e+02 0.0 
0.0 0.0 -1.472448285615e+02 
-1.482654826431e+02 2.365308641110e+01 0.0 
2.365308641110e+01 -3.501446672509e+02 0.0 
0.0 0.0 -1.491230449682e+02 
-1.497147846323e+02 2.224375577640e+01 0.0 
2.224375577640e+01 -3.536222907951e+02 0.0 
0.0 0.0 -1.506011226282e+02 
-1.515562510528e+02 2.063203701790e+01 0.0 
2.063203701790e+01 -3.578232486701e+02 0.0 
0.0 0.0 -1.524138499169e+02 
-1.532087549349e+02 1.913108682281e+01 0.0 
1.913108682281e+01 -3.616254701518e+02 0.0 
0.0 0.0 -1.540502675260e+02 
-1.546636136756e+02 1.758073681761e+01 0.0 
1.758073681761e+01 -3.650041586096e+02 0.0 
0.0 0.0 -1.555003316855e+02 
-1.559838095933e+02 1.607582566093e+01 0.0 
1.607582566093e+01 -3.679433148655e+02 0.0 
0.0 0.0 -1.567781373377e+02 
-1.570836226232e+02 1.458791766433e+01 0.0 
1.458791766433e+01 -3.705095243018e+02 0.0 
0.0 0.0 -1.578779440775e+02 
-1.579453031228e+02 1.310791275603e+01 0.0 
1.310791275603e+01 -3.724946575731e+02 0.0 
0.0 0.0 -1.587319882088e+02 
-1.586523910902e+02 1.177029947708e+01 0.0 
1.177029947708e+01 -3.741141129376e+02 0.0 
0.0 0.0 -1.594299512083e+02 
-1.591619998979e+02 1.037099287023e+01 0.0 
1.037099287023e+01 -3.753883795293e+02 0.0 
0.0 0.0 -1.599651138282e+02 
-1.600569654541e+02 9.243827525654e+00 0.0 
9.243827525654e+00 -3.771106755914e+02 0.0 
0.0 0.0 -1.607502923136e+02 
-1.610777093851e+02 7.954202842964e+00 0.0 
7.954202842964e+00 -3.791253549038e+02 0.0 
0.0 0.0 -1.616609192867e+02 
-1.616212100926e+02 6.950015456039e+00 0.0 
6.950015456039e+00 -3.802788667252e+02 0.0 
0.0 0.0 -1.621700230453e+02 
-1.605885056025e+02 5.725020679584e+00 0.0 
5.725020679584e+00 -3.787970777369e+02 0.0 
0.0 0.0 -1.614156750018e+02 
-1.621466240793e+02 4.593586806684e+00 0.0 
4.593586806684e+00 -3.814040849808e+02 0.0 
0.0 0.0 -1.626652127180e+02 
-1.619095929876e+02 3.654851357801e+00 0.0 
3.654851357801e+00 -3.811260504865e+02 0.0 
0.0 0.0 -1.625106930422e+02 
-1.624345200082e+02 2.946853112676e+00 0.0 
2.946853112676e+00 -3.820226949348e+02 0.0 
0.0 0.0 -1.629371644829e+02 
-1.628305450320e+02 1.785451389459e+00 0.0 
1.785451389459e+00 -3.828878187371e+02 0.0 
0.0 0.0 -1.633155091307e+02 
-1.628157402326e+02 1.038741677228e+00 0.0 
1.038741677228e+00 -3.829384402544e+02 0.0 
0.0 0.0 -1.633262541461e+02 
-3.813648377330e+01 3.062931587331e-01 0.0 
3.062931587331e-01 -5.959298769561e+01 0.0 
0.0 0.0 -2.891884144067e+01 
-4.606638925494e+01 3.799141475591e-01 0.0 
3.799141475591e-01 -7.932562381401e+01 0.0 
0.0 0.0 -3.721760392069e+01 
-5.395567876339e+01 4.036980720646e-01 0.0 
4.036980720646e-01 -9.896114140403e+01 0.0 
0.0 0.0 -4.547504605023e+01 
-6.141678244176e+01 4.736926530618e-01 0.0 
4.736926530618e-01 -1.182871996772e+02 0.0 
0.0 0.0 -5.351119463568e+01 
-6.880551819348e+01 4.710914617787e-01 0.0 
4.710914617787e-01 -1.381589539341e+02 0.0 
0.0 0.0 -6.168934163827e+01 
-7.621321087558e+01 5.566561437804e-01 0.0 
5.566561437804e-01 -1.582512839492e+02 0.0 
0.0 0.0 -6.993934844743e+01 
-8.300570553587e+01 5.497449781496e-01 0.0 
5.497449781496e-01 -1.782036913649e+02 0.0 
0.0 0.0 -7.796281907022e+01 
-8.944213722817e+01 6.686179046607e-01 0.0 
6.686179046607e-01 -1.980684449206e+02 0.0 
0.0 0.0 -8.585317464464e+01 
-9.619175642010e+01 7.349045114779e-01 0.0 
7.349045114779e-01 -2.187278708896e+02 0.0 
0.0 0.0 -9.407588819291e+01 
-1.686453788641e+01 5.085208713093e+00 0.0 
5.085208713093e+00 -6.945958542050e+00 0.0 
0.0 0.0 -7.125603828482e+00 
-3.918664405715e+01 4.799650987891e+00 0.0 
4.799650987891e+00 -4.278277377821e+01 0.0 
0.0 0.0 -2.419082535061e+01 
-2.136029024079e+01 1.260546571904e+01 0.0 
1.260546571904e+01 -1.464636123265e+01 0.0 
0.0 0.0 -1.043785478084e+01 
-2.466831358988e+01 1.582754227921e+01 0.0 
1.582754227921e+01 -1.866737937283e+01 0.0 
0.0 0.0 -1.260070788881e+01 
-2.608548482774e+01 1.725111711383e+01 0.0 
1.725111711383e+01 -2.006329491946e+01 0.0 
0.0 0.0 -1.344463392416e+01 
-2.590792114427e+01 1.754218090674e+01 0.0 
1.754218090674e+01 -1.969369564383e+01 0.0 
0.0 0.0 -1.328048503643e+01 
-2.587225149500e+01 1.755544026818e+01 0.0 
1.755544026818e+01 -2.029493078932e+01 0.0 
0.0 0.0 -1.345015468529e+01 
-2.590057338922e+01 1.752603951407e+01 0.0 
1.752603951407e+01 -2.072757786829e+01 0.0 
0.0 0.0 -1.358844537725e+01 
-2.707746221907e+01 1.742326340465e+01 0.0 
1.742326340465e+01 -2.099643631059e+01 0.0 
0.0 0.0 -1.402216955890e+01 
-3.186221337917e+01 1.239646143680e+01 0.0 
1.239646143680e+01 -1.788296117828e+01 0.0 
0.0 0.0 -1.452355236723e+01 
-3.046183247743e+01 6.178197966687e+00 0.0 
6.178197966687e+00 -2.230919092403e+01 0.0 
0.0 0.0 -1.543130702044e+01 
-1.723163812687e+01 8.122407517942e-01 0.0 
8.122407517942e-01 -7.315948450556e+00 0.0 
0.0 0.0 -6.964275973229e+00 
-2.159434604783e+01 5.534005543448e-01 0.0 
5.534005543448e-01 -1.953484454511e+01 0.0 
0.0 0.0 -1.193875717788e+01 
-2.880403540112e+01 -2.560808225724e-01 0.0 
-2.560808225724e-01 -3.714856148430e+01 0.0 
0.0 0.0 -1.938577906562e+01 
-2.941087091070e+01 -5.299013967814e-02 0.0 
-5.299013967814e-02 -3.828425089450e+01 0.0 
0.0 0.0 -1.990853654156e+01 
-2.939846353250e+01 -6.704187761763e-02 0.0 
-6.704187761763e-02 -3.832904222541e+01 0.0 
0.0 0.0 -1.991825172737e+01 
-2.941919899321e+01 -4.979926410695e-02 0.0 
-4.979926410695e-02 -3.811523289916e+01 0.0 
0.0 0.0 -1.986032956771e+01 
-3.078085892093e+01 -9.250295623068e-02 0.0 
-9.250295623068e-02 -4.074831036422e+01 0.0 
0.0 0.0 -2.105875078554e+01 
-2.985287559107e+01 -1.610209866841e-01 0.0 
-1.610209866841e-01 -3.840643947250e+01 0.0 
0.0 0.0 -2.007779451907e+01 
-3.010198573202e+01 -1.253048898568e-01 0.0 
-1.253048898568e-01 -3.823608678269e+01 0.0 
0.0 0.0 -2.010142175441e+01 
-3.036080171086e+01 -1.994841313076e-01 0.0 
-1.994841313076e-01 -3.843307365327e+01 0.0 
0.0 0.0 -2.023816260924e+01 
-3.085618405654e+01 -9.296391643669e-02 0.0 
-9.296391643669e-02 -3.889888566432e+01 0.0 
0.0 0.0 -2.052652091626e+01 
-3.130068226389e+01 -1.422864416734e-02 0.0 
-1.422864416734e-02 -3.890208858465e+01 0.0 
0.0 0.0 -2.066083125456e+01 
-3.200370900508e+01 2.701123032220e-01 0.0 
2.701123032220e-01 -3.897059039474e+01 0.0 
0.0 0.0 -2.089228981995e+01 
-3.284057711301e+01 7.166204808411e-01 0.0 
7.166204808411e-01 -3.912696356168e+01 0.0 
0.0 0.0 -2.119026220241e+01 
-3.418275129468e+01 1.411649932064e+00 0.0 
1.411649932064e+00 -3.963390525385e+01 0.0 
0.0 0.0 -2.174499696456e+01 
-3.595222458752e+01 2.595315131882e+00 0.0 
2.595315131882e+00 -4.057070362578e+01 0.0 
0.0 0.0 -2.255687846399e+01 
-1.872857883286e+01 1.997525418464e+00 0.0 
1.997525418464e+00 -6.344963215207e+00 0.0 
0.0 0.0 -7.435962456039e+00 
-2.099976439586e+01 3.728909166703e-01 0.0 
3.728909166703e-01 -7.205666545924e+00 0.0 
0.0 0.0 -8.378500010129e+00 
-2.123647304149e+01 -5.042735717047e-01 0.0 
-5.042735717047e-01 -6.981611263070e+00 0.0 
0.0 0.0 -8.365843799115e+00 
-2.006587736729e+01 -5.358055415005e-01 0.0 
-5.358055415005e-01 -7.031559030964e+00 0.0 
0.0 0.0 -8.029373035210e+00 
-1.821895372076e+01 -6.680515747329e-01 0.0 
-6.680515747329e-01 -8.039067089883e+00 0.0 
0.0 0.0 -7.800184698244e+00 
-1.660961343957e+01 -8.225883204161e-01 0.0 
-8.225883204161e-01 -8.457331143950e+00 0.0 
0.0 0.0 -7.447066721968e+00 
-1.490823388445e+01 -8.299841105306e-01 0.0 
-8.299841105306e-01 -8.398396838210e+00 0.0 
0.0 0.0 -6.917481277758e+00 
-1.321388271643e+01 -7.760977160930e-01 0.0 
-7.760977160930e-01 -8.298394467548e+00 0.0 
0.0 0.0 -6.378431814944e+00 
-1.158211284677e+01 -7.337225291771e-01 0.0 
-7.337225291771e-01 -8.279524622736e+00 0.0 
0.0 0.0 -5.881795621782e+00 
-1.011260066690e+01 -6.563076564714e-01 0.0 
-6.563076564714e-01 -8.302187894731e+00 0.0 
0.0 0.0 -5.448382959414e+00 
-8.670915509968e+00 -5.353382855948e-01 0.0 
-5.353382855948e-01 -8.405303404156e+00 0.0 
0.0 0.0 -5.048541497882e+00 
-7.724065781548e+00 -5.817873825704e-01 0.0 
-5.817873825704e-01 -8.978469818225e+00 0.0 
0.0 0.0 -4.947429924600e+00 
-6.371620095326e+00 -6.187271228726e-01 0.0 
-6.187271228726e-01 -8.666584130966e+00 0.0 
0.0 0.0 -4.443351010129e+00 
-5.124107318846e+00 -4.775257228807e-01 0.0 
-4.775257228807e-01 -7.918194976179e+00 0.0 
0.0 0.0 -3.830915618056e+00 
-4.215256542474e+00 -3.755477591293e-01 0.0 
-3.755477591293e-01 -8.047803918525e+00 0.0 
0.0 0.0 -3.601880621846e+00 
-3.546530834032e+00 -3.099798004222e-01 0.0 
-3.099798004222e-01 -8.321071866234e+00 0.0 
0.0 0.0 -3.486032412512e+00 
-2.985034547388e+00 -2.038461864266e-01 0.0 
-2.038461864266e-01 -8.354968325844e+00 0.0 
0.0 0.0 -3.327384776087e+00 
-2.543433408762e+00 -1.897889823790e-01 0.0 
-1.897889823790e-01 -7.940349680761e+00 0.0 
0.0 0.0 -3.068027630747e+00 
-2.309547700409e+00 1.262438226859e-02 0.0 
1.262438226859e-02 -7.335759260451e+00 0.0 
0.0 0.0 -2.802008362647e+00 
-1.721574292816e+01 -1.895466739862e-01 0.0 
-1.895466739862e-01 -9.533141100850e+00 0.0 
0.0 0.0 -7.624665208704e+00 
-1.705065653743e+01 2.463196865801e-02 0.0 
2.463196865801e-02 -9.721372434879e+00 0.0 
0.0 0.0 -7.631608691694e+00 
-1.702459829531e+01 -3.293118774401e-02 0.0 
-3.293118774401e-02 -9.662845210391e+00 0.0 
0.0 0.0 -7.606233051709e+00 
-1.694053439034e+01 -8.861833818720e-02 0.0 
-8.861833818720e-02 -9.671217967430e+00 0.0 
0.0 0.0 -7.583525707332e+00 
-1.682069884688e+01 -1.448243983077e-01 0.0 
-1.448243983077e-01 -9.654289080493e+00 0.0 
0.0 0.0 -7.542496378212e+00 
-1.659113072901e+01 -2.046994673649e-01 0.0 
-2.046994673649e-01 -9.644079464695e+00 0.0 
0.0 0.0 -7.470563058113e+00 
-1.631770217168e+01 -2.577589215068e-01 0.0 
-2.577589215068e-01 -9.646495407294e+00 0.0 
0.0 0.0 -7.389259273692e+00 
-1.598149729995e+01 -2.759338200829e-01 0.0 
-2.759338200829e-01 -9.622176674163e+00 0.0 
0.0 0.0 -7.281102192234e+00 
-1.563275892230e+01 -3.485613268470e-01 0.0 
-3.485613268470e-01 -9.584117695857e+00 0.0 
0.0 0.0 -7.165062985448e+00 
-1.518805063188e+01 -4.056811319129e-01 0.0 
-4.056811319129e-01 -9.598431997810e+00 0.0 
0.0 0.0 -7.035944788908e+00 
-1.477268812102e+01 -3.953085506178e-01 0.0 
-3.953085506178e-01 -9.596286746817e+00 0.0 
0.0 0.0 -6.910692460352e+00 
-1.447898420760e+01 -3.559174459164e-01 0.0 
-3.559174459164e-01 -9.589078605162e+00 0.0 
0.0 0.0 -6.820418843827e+00 
-1.435786636249e+01 -2.433019867123e-01 0.0 
-2.433019867123e-01 -9.639709344831e+00 0.0 
0.0 0.0 -6.799272712195e+00 
-1.461701347184e+01 2.162297936021e-02 0.0 
2.162297936021e-02 -9.672004872855e+00 0.0 
0.0 0.0 -6.886705503408e+00 
-1.559773871882e+01 5.437979746442e-01 0.0 
5.437979746442e-01 -1.010773834747e+01 0.0 
0.0 0.0 -7.311643119887e+00 
-1.788482394726e+01 2.068683377636e+00 0.0 
2.068683377636e+00 -9.969231873612e+00 0.0 
0.0 0.0 -7.956216746262e+00 
-2.211957497671e+01 3.746507939469e+00 0.0 
3.746507939469e+00 -5.123560993074e+00 0.0 
0.0 0.0 -7.772940790935e+00 
-2.503350166862e+01 2.600479881830e+00 0.0 
2.600479881830e+00 -1.837342332179e+01 0.0 
0.0 0.0 -1.262207749713e+01 
-2.470505004028e+01 1.648026533625e+00 0.0 
1.648026533625e+00 -2.172041562698e+01 0.0 
0.0 0.0 -1.352763970018e+01 
-2.250639265647e+01 5.944590185113e-01 0.0 
5.944590185113e-01 -2.016729425516e+01 0.0 
0.0 0.0 -1.240210607349e+01 
-2.172566980403e+01 1.504825154184e-01 0.0 
1.504825154184e-01 -1.988174711273e+01 0.0 
0.0 0.0 -1.208222507503e+01 
-2.128644906859e+01 -7.126697968533e-02 0.0 
-7.126697968533e-02 -1.976292489121e+01 0.0 
0.0 0.0 -1.191481218794e+01 
-2.108797819848e+01 -2.228936858633e-01 0.0 
-2.228936858633e-01 -1.970835646020e+01 0.0 
0.0 0.0 -1.183890039760e+01 
-2.103626562807e+01 -2.912804575938e-01 0.0 
-2.912804575938e-01 -1.960309049551e+01 0.0 
0.0 0.0 -1.179180683707e+01 
-2.105526131083e+01 -2.454065788171e-01 0.0 
-2.454065788171e-01 -1.956000812125e+01 0.0 
0.0 0.0 -1.178458082962e+01 
-2.117876234910e+01 -2.442777218193e-01 0.0 
-2.442777218193e-01 -1.961139386927e+01 0.0 
0.0 0.0 -1.183704686551e+01 
-2.120698125811e+01 -2.103793121108e-01 0.0 
-2.103793121108e-01 -1.957433513204e+01 0.0 
0.0 0.0 -1.183439491705e+01 
-2.126530261429e+01 -1.819915894629e-01 0.0 
-1.819915894629e-01 -1.956145332936e+01 0.0 
0.0 0.0 -1.184802678310e+01 
-2.132059157199e+01 -1.043265872140e-01 0.0 
-1.043265872140e-01 -1.956358482111e+01 0.0 
0.0 0.0 -1.186525291793e+01 
-2.132367770667e+01 -8.335242984728e-02 0.0 
-8.335242984728e-02 -1.958172705148e+01 0.0 
0.0 0.0 -1.187162142744e+01 
-2.132950040358e+01 4.604208012625e-04 0.0 
4.604208012625e-04 -1.950816386307e+01 0.0 
0.0 0.0 -1.185129927999e+01 
-2.137110791510e+01 1.483989956731e-01 0.0 
1.483989956731e-01 -1.961033970165e+01 0.0 
0.0 0.0 -1.189443428503e+01 
-2.150890331358e+01 -4.246483396465e-01 0.0 
-4.246483396465e-01 -1.976835733857e+01 0.0 
0.0 0.0 -1.198317819565e+01 
-1.829198509420e+01 9.482634846227e+00 0.0 
9.482634846227e+00 -1.042599997593e+01 0.0 
0.0 0.0 -8.307794567827e+00 
-2.333897943499e+01 1.455706126615e+01 0.0 
1.455706126615e+01 -1.724388815713e+01 0.0 
0.0 0.0 -1.177486027764e+01 
-2.548084860683e+01 1.665200228283e+01 0.0 
1.665200228283e+01 -1.947562901729e+01 0.0 
0.0 0.0 -1.308694328724e+01 
-2.632175866228e+01 1.750872437892e+01 0.0 
1.750872437892e+01 -2.041246785087e+01 0.0 
0.0 0.0 -1.362026795394e+01 
-2.671437220822e+01 1.817096591829e+01 0.0 
1.817096591829e+01 -2.047729915236e+01 0.0 
0.0 0.0 -1.375750140817e+01 
-2.622445780225e+01 1.806030498626e+01 0.0 
1.806030498626e+01 -2.067564572020e+01 0.0 
0.0 0.0 -1.367003105673e+01 
-2.605866914724e+01 1.747780344261e+01 0.0 
1.747780344261e+01 -2.089806417358e+01 0.0 
0.0 0.0 -1.368701999625e+01 
-3.025525168393e+01 1.705582650645e+01 0.0 
1.705582650645e+01 -2.097591770738e+01 0.0 
0.0 0.0 -1.496935081739e+01 
-3.025837638199e+01 7.874111531900e+00 0.0 
7.874111531900e+00 -1.548128918475e+01 0.0 
0.0 0.0 -1.332189967002e+01 
-3.602294328969e+01 5.465999989167e+00 0.0 
5.465999989167e+00 -3.393638964859e+01 0.0 
0.0 0.0 -2.058779988149e+01 
-2.327566728309e+01 1.376310387325e+01 0.0 
1.376310387325e+01 -2.477255036615e+01 0.0 
0.0 0.0 -1.401446529477e+01 
-1.466718659864e+02 1.940147092341e+01 0.0 
1.940147092341e+01 -3.518919877179e+02 0.0 
0.0 0.0 -1.491691561113e+02 
-1.289567692446e+01 -1.207119674245e+00 0.0 
-1.207119674245e+00 -1.683043606991e+01 0.0 
0.0 0.0 -8.905133923167e+00 
-1.911404445882e+01 -9.742326042270e-01 0.0 
-9.742326042270e-01 -1.600890656108e+01 0.0 
0.0 0.0 -1.052379303653e+01 
-1.527533172856e+02 1.205483608107e+01 0.0 
1.205483608107e+01 -3.653587568138e+02 0.0 
0.0 0.0 -1.550336222298e+02 
-2.655237696179e+01 1.744366712494e+01 0.0 
1.744366712494e+01 -2.867608306843e+01 0.0 
0.0 0.0 -1.616853800907e+01 
-7.777703040138e+01 1.832443475779e-02 0.0 
1.832443475779e-02 -2.096159080936e+02 0.0 
0.0 0.0 -8.581788154848e+01 
-1.391350388046e+02 2.504982516878e+01 0.0 
2.504982516878e+01 -3.335634977576e+02 0.0 
0.0 0.0 -1.414095609686e+02 
-2.790826326254e+01 1.868660118929e+01 0.0 
1.868660118929e+01 -3.016663407351e+01 0.0 
0.0 0.0 -1.702246920081e+01 
-1.309335955092e+02 2.928073957473e+01 0.0 
2.928073957473e+01 -3.102877050833e+02 0.0 
0.0 0.0 -1.319663901778e+02 
-3.504699366822e+01 1.772563392881e+01 0.0 
1.772563392881e+01 -3.225234792352e+01 0.0 
0.0 0.0 -1.978980247752e+01 
-1.565134962373e+02 7.153671858639e+00 0.0 
7.153671858639e+00 -3.722605714572e+02 0.0 
0.0 0.0 -1.582322203084e+02 
-8.416636600539e+00 -8.037932641484e-01 0.0 
-8.037932641484e-01 -1.620803251526e+01 0.0 
0.0 0.0 -7.397084361892e+00 
-1.213713813230e+02 2.967913466289e+01 0.0 
2.967913466289e+01 -2.818825612073e+02 0.0 
0.0 0.0 -1.205761827591e+02 
-4.631930963796e+01 8.250174835302e+00 0.0 
8.250174835302e+00 -5.427221179138e+01 0.0 
0.0 0.0 -2.977745642880e+01 
-4.739711398937e+01 -3.110186530812e-01 0.0 
-3.110186530812e-01 -1.304733771366e+02 0.0 
0.0 0.0 -5.296114733780e+01 
-1.009464688220e+02 2.255830729684e-01 0.0 
2.255830729684e-01 -2.629093905745e+02 0.0 
0.0 0.0 -1.087567578190e+02 
-1.146985036359e+02 2.681394428857e+01 0.0 
2.681394428857e+01 -2.607512856448e+02 0.0 
0.0 0.0 -1.122349367842e+02 
-1.068832190511e+02 1.975278914759e+01 0.0 
1.975278914759e+01 -2.405572753350e+02 0.0 
0.0 0.0 -1.038321483158e+02 
-9.806243225851e+01 5.509694558465e+00 0.0 
5.509694558465e+00 -2.237738127212e+02 0.0 
0.0 0.0 -9.615087349390e+01 
-9.951446754338e+01 9.305005009665e+00 0.0 
9.305005009665e+00 -2.244627690899e+02 0.0 
0.0 0.0 -9.679317099000e+01 
-1.028673274470e+02 1.440156561371e+01 0.0 
1.440156561371e+01 -2.318632123212e+02 0.0 
0.0 0.0 -1.000191619305e+02 
-4.542138938895e+01 3.588041605270e+00 0.0 
3.588041605270e+00 -5.914267050302e+01 0.0 
0.0 0.0 -3.096921796759e+01 
-4.008838406911e+01 6.045434400757e-01 0.0 
6.045434400757e-01 -5.691030359732e+01 0.0 
0.0 0.0 -2.869960629993e+01 
-3.889968919821e+01 3.076895247433e-01 0.0 
3.076895247433e-01 -5.796640831252e+01 0.0 
0.0 0.0 -2.865982925322e+01 
-6.526762075208e+01 4.664375943145e-01 0.0 
4.664375943145e-01 -1.283184835897e+02 0.0 
0.0 0.0 -5.767583130254e+01 
-1.570715759731e+02 4.188783912752e+00 0.0 
4.188783912752e+00 -3.732874552189e+02 0.0 
0.0 0.0 -1.587077093576e+02 
-1.972218860573e+01 1.491915971216e+00 0.0 
1.491915971216e+00 -1.463170035159e+01 0.0 
0.0 0.0 -1.030643056091e+01 
-6.661723651987e+00 -4.577801677925e-01 0.0 
-4.577801677925e-01 -1.723541587928e+01 0.0 
0.0 0.0 -7.158142145950e+00 
-1.302832030686e+02 5.854138555909e-01 0.0 
5.854138555909e-01 -3.233471869263e+02 0.0 
0.0 0.0 -1.356891169985e+02 
-3.674824712749e+01 -1.456764148694e-02 0.0 
-1.456764148694e-02 -5.561764194134e+01 0.0 
0.0 0.0 -2.730976672065e+01 
-2.486817999951e+01 -3.493157091892e-01 0.0 
-3.493157091892e-01 -6.916034228411e+01 0.0 
0.0 0.0 -2.780855668509e+01 
-1.094368851841e+02 2.315910200668e+01 0.0 
2.315910200668e+01 -2.458173419415e+02 0.0 
0.0 0.0 -1.061762681377e+02 
-1.358427181115e+02 2.764425882075e+01 0.0 
2.764425882075e+01 -3.238159854226e+02 0.0 
0.0 0.0 -1.374976110602e+02 
-1.261180773727e+02 3.005667981579e+01 0.0 
3.005667981579e+01 -2.962035423000e+02 0.0 
0.0 0.0 -1.262964859018e+02 
-1.421009161530e+02 2.241470641733e+01 0.0 
2.241470641733e+01 -3.418810731292e+02 0.0 
0.0 0.0 -1.447945967847e+02 
-1.498881362757e+02 1.645039723072e+01 0.0 
1.645039723072e+01 -3.589083965322e+02 0.0 
0.0 0.0 -1.522389598424e+02 
-1.686811123224e+01 -1.423082799065e+00 0.0 
-1.423082799065e+00 -1.716387947331e+01 0.0 
0.0 0.0 -1.019879883588e+01 
-4.185838949396e+01 1.468087616737e+00 0.0 
1.468087616737e+00 -5.687156420290e+01 0.0 
0.0 0.0 -2.921898610906e+01 
-1.528087027764e+02 9.338451620568e+00 0.0 
9.338451620568e+00 -3.659239302518e+02 0.0 
0.0 0.0 -1.552197899085e+02 
-7.937329035157e+01 6.734885751654e-01 0.0 
6.734885751654e-01 -1.677413713719e+02 0.0 
0.0 0.0 -7.373439851705e+01 
-1.062027429715e+01 -1.068309331672e+00 0.0 
-1.068309331672e+00 -1.709233035643e+01 0.0 
0.0 0.0 -8.314650195581e+00 
-6.187771819071e+01 -1.552169525895e-01 0.0 
-1.552169525895e-01 -1.691835218130e+02 0.0 
0.0 0.0 -6.891837200113e+01 
-9.834202769469e+01 3.374209762864e+00 0.0 
3.374209762864e+00 -2.260255979178e+02 0.0 
0.0 0.0 -9.691028768376e+01 
-2.750922867497e+01 1.830300649560e+01 0.0 
1.830300649560e+01 -3.141750620865e+01 0.0 
0.0 0.0 -1.727802046509e+01 
-2.538871515875e+01 1.616763273691e+01 0.0 
1.616763273691e+01 -2.756735326646e+01 0.0 
0.0 0.0 -1.548682052756e+01 
-2.960957796459e+01 1.891160496273e+01 0.0 
1.891160496273e+01 -3.154171377656e+01 0.0 
0.0 0.0 -1.794538752234e+01 
-3.963081228107e+01 1.208747351031e+01 0.0 
1.208747351031e+01 -3.839940008199e+01 0.0 
0.0 0.0 -2.300906370892e+01 
-1.968956857522e+01 9.524565772977e+00 0.0 
9.524565772977e+00 -1.779152740653e+01 0.0 
0.0 0.0 -1.089359682821e+01 
-5.080310462539e+01 1.695200540319e-01 0.0 
1.695200540319e-01 -9.069079465912e+01 0.0 
0.0 0.0 -4.204816978535e+01 
-1.591716093294e+02 2.330924283010e+00 0.0 
2.330924283010e+00 -3.771110528040e+02 0.0 
0.0 0.0 -1.604847986400e+02 
-5.798762926970e+00 -2.702150854844e-01 0.0 
-2.702150854844e-01 -1.638910552620e+01 0.0 
0.0 0.0 -6.612226277427e+00 
-9.238621944377e+01 8.169591291664e-01 0.0 
8.169591291664e-01 -2.071904045274e+02 0.0 
0.0 0.0 -8.947298719136e+01 
-5.003443146090e+01 7.394528508445e+00 0.0 
7.394528508445e+00 -6.275360287354e+01 0.0 
0.0 0.0 -3.343641030033e+01 
-5.531399814880e+01 1.056446506855e+01 0.0 
1.056446506855e+01 -7.463117642931e+01 0.0 
0.0 0.0 -3.858355237343e+01 
-5.803087406430e+01 8.847223379432e+00 0.0 
8.847223379432e+00 -8.197399154415e+01 0.0 
0.0 0.0 -4.160145968254e+01 
-6.384290384363e+01 1.257083591259e+01 0.0 
1.257083591259e+01 -9.652060262423e+01 0.0 
0.0 0.0 -4.770905194036e+01 
-6.706013761485e+01 1.124285789396e+01 0.0 
1.124285789396e+01 -1.045389343776e+02 0.0 
0.0 0.0 -5.107972159774e+01 
-7.176594850172e+01 1.418118951450e+01 0.0 
1.418118951450e+01 -1.179676537944e+02 0.0 
0.0 0.0 -5.652008068884e+01 
-6.863200265397e+01 1.565128909427e+01 0.0 
1.565128909427e+01 -1.108777860335e+02 0.0 
0.0 0.0 -5.345293660625e+01 
-7.619572942486e+01 1.691264974562e+01 0.0 
1.691264974562e+01 -1.323221245633e+02 0.0 
0.0 0.0 -6.215535619645e+01 
-7.278313044402e+01 1.832801871966e+01 0.0 
1.832801871966e+01 -1.260342372808e+02 0.0 
0.0 0.0 -5.924521031746e+01 
-7.507882629909e+01 1.304838180539e+01 0.0 
1.304838180539e+01 -1.261291415106e+02 0.0 
0.0 0.0 -5.996239034292e+01 
-8.019105994442e+01 1.926716769848e+01 0.0 
1.926716769848e+01 -1.473137426220e+02 0.0 
0.0 0.0 -6.785144076993e+01 
-7.661927616974e+01 2.047475312660e+01 0.0 
2.047475312660e+01 -1.417485901891e+02 0.0 
0.0 0.0 -6.511035990765e+01 
-8.394420795849e+01 2.117824732807e+01 0.0 
2.117824732807e+01 -1.627466808983e+02 0.0 
0.0 0.0 -7.360726665702e+01 
-8.028208611356e+01 2.211362766038e+01 0.0 
2.211362766038e+01 -1.577357416749e+02 0.0 
0.0 0.0 -7.100534833653e+01 
-7.281460617839e+01 2.163700436806e+01 0.0 
2.163700436806e+01 -1.371866144950e+02 0.0 
0.0 0.0 -6.260036620202e+01 
-7.638698117734e+01 2.288560225969e+01 0.0 
2.288560225969e+01 -1.535489990991e+02 0.0 
0.0 0.0 -6.858079408294e+01 
-6.881056321706e+01 2.257536603997e+01 0.0 
2.257536603997e+01 -1.334162353480e+02 0.0 
0.0 0.0 -6.026803956953e+01 
-7.234976899436e+01 2.340345691635e+01 0.0 
2.340345691635e+01 -1.500374643065e+02 0.0 
0.0 0.0 -6.631616999026e+01 
-7.995453141194e+01 2.368679277211e+01 0.0 
2.368679277211e+01 -1.697494331608e+02 0.0 
0.0 0.0 -7.451118937181e+01 
-7.592341879946e+01 2.382905511323e+01 0.0 
2.382905511323e+01 -1.663499602788e+02 0.0 
0.0 0.0 -7.228201372349e+01 
-6.821581306054e+01 2.358276356109e+01 0.0 
2.358276356109e+01 -1.470400075976e+02 0.0 
0.0 0.0 -6.417674619746e+01 
-7.180934756129e+01 2.365508157388e+01 0.0 
2.365508157388e+01 -1.632737925170e+02 0.0 
0.0 0.0 -7.012494202348e+01 
-6.414631206013e+01 2.337752009129e+01 0.0 
2.337752009129e+01 -1.444027861249e+02 0.0 
0.0 0.0 -6.216472945551e+01 
-6.777900334796e+01 2.313388169897e+01 0.0 
2.313388169897e+01 -1.604513797840e+02 0.0 
0.0 0.0 -6.806911493959e+01 
-6.022492453696e+01 2.278988282042e+01 0.0 
2.278988282042e+01 -1.419277192668e+02 0.0 
0.0 0.0 -6.024579314114e+01 
-6.387556020351e+01 2.229170022640e+01 0.0 
2.229170022640e+01 -1.576970407171e+02 0.0 
0.0 0.0 -6.607178027619e+01 
-7.153123237467e+01 2.269627544917e+01 0.0 
2.269627544917e+01 -1.759979917355e+02 0.0 
0.0 0.0 -7.385876723306e+01 
-6.762851016400e+01 2.164822360731e+01 0.0 
2.164822360731e+01 -1.728963807043e+02 0.0 
0.0 0.0 -7.175746726050e+01 
-6.013632545568e+01 2.117320691793e+01 0.0 
2.117320691793e+01 -1.548811288402e+02 0.0 
0.0 0.0 -6.410523628875e+01 
-6.388762914242e+01 2.035100526309e+01 0.0 
2.035100526309e+01 -1.696818275886e+02 0.0 
0.0 0.0 -6.967083701929e+01 
-5.661399453609e+01 1.979453734487e+01 0.0 
1.979453734487e+01 -1.519135846478e+02 0.0 
0.0 0.0 -6.215827375516e+01 
-6.033990246652e+01 1.881951183546e+01 0.0 
1.881951183546e+01 -1.662395228482e+02 0.0 
0.0 0.0 -6.757382759441e+01 
-6.779482751628e+01 1.946598045242e+01 0.0 
1.946598045242e+01 -1.839367886447e+02 0.0 
0.0 0.0 -7.511948484830e+01 
-6.423017769013e+01 1.782933054724e+01 0.0 
1.782933054724e+01 -1.800239205988e+02 0.0 
0.0 0.0 -7.287622948668e+01 
-5.697468674050e+01 1.709309007960e+01 0.0 
1.709309007960e+01 -1.624372641789e+02 0.0 
0.0 0.0 -6.542358527583e+01 
-6.084238355411e+01 1.603049651199e+01 0.0 
1.603049651199e+01 -1.757646183775e+02 0.0 
0.0 0.0 -7.058210057947e+01 
-5.380665904219e+01 1.521656574448e+01 0.0 
1.521656574448e+01 -1.582437509876e+02 0.0 
0.0 0.0 -6.321512300894e+01 
-5.766410227142e+01 1.410234433240e+01 0.0 
1.410234433240e+01 -1.711349505399e+02 0.0 
0.0 0.0 -6.823971584340e+01 
-5.087297731653e+01 1.322275944049e+01 0.0 
1.322275944049e+01 -1.536212552387e+02 0.0 
0.0 0.0 -6.094826976658e+01 
-5.467071613938e+01 1.207772403266e+01 0.0 
1.207772403266e+01 -1.659962221318e+02 0.0 
0.0 0.0 -6.580008148134e+01 
-6.170879772449e+01 1.305620196151e+01 0.0 
1.305620196151e+01 -1.835107446604e+02 0.0 
0.0 0.0 -7.316586271546e+01 
-5.867269160646e+01 1.105198981143e+01 0.0 
1.105198981143e+01 -1.779208957736e+02 0.0 
0.0 0.0 -7.057807621402e+01 
-5.187919605710e+01 1.002866814280e+01 0.0 
1.002866814280e+01 -1.603528817618e+02 0.0 
0.0 0.0 -6.326962334567e+01 
-5.579729764194e+01 9.033567696894e+00 0.0 
9.033567696894e+00 -1.717640637043e+02 0.0 
0.0 0.0 -6.786840840386e+01 
-6.285229581745e+01 1.013845733088e+01 0.0 
1.013845733088e+01 -1.894500351824e+02 0.0 
0.0 0.0 -7.529069929997e+01 
-5.988253642298e+01 8.180005056914e+00 0.0 
8.180005056914e+00 -1.828002675328e+02 0.0 
0.0 0.0 -7.240484118674e+01 
-6.719316455866e+01 9.347349567991e+00 0.0 
9.347349567991e+00 -2.006114282488e+02 0.0 
0.0 0.0 -7.994137784224e+01 
-6.412507695798e+01 7.459026502189e+00 0.0 
7.459026502189e+00 -1.935195107671e+02 0.0 
0.0 0.0 -7.689337631753e+01 
-5.708764119885e+01 6.290343295782e+00 0.0 
6.290343295782e+00 -1.757127319928e+02 0.0 
0.0 0.0 -6.944011195748e+01 
-6.121027892298e+01 5.654609534995e+00 0.0 
5.654609534995e+00 -1.859938881834e+02 0.0 
0.0 0.0 -7.376125013191e+01 
-6.849701381751e+01 6.857329852756e+00 0.0 
6.857329852756e+00 -2.039328397150e+02 0.0 
0.0 0.0 -8.132895605976e+01 
-6.544161307733e+01 5.143124202163e+00 0.0 
5.143124202163e+00 -1.959847440481e+02 0.0 
0.0 0.0 -7.802790713764e+01 
-5.841475780864e+01 3.967621200296e+00 0.0 
3.967621200296e+00 -1.780243560062e+02 0.0 
0.0 0.0 -7.053173414446e+01 
-6.251779187873e+01 3.558558758378e+00 0.0 
3.558558758378e+00 -1.876759781816e+02 0.0 
0.0 0.0 -7.465813101810e+01 
-6.979169296507e+01 4.743352118173e+00 0.0 
4.743352118173e+00 -2.057907460281e+02 0.0 
0.0 0.0 -8.227473169796e+01 
-6.671966823599e+01 3.257953782668e+00 0.0 
3.257953782668e+00 -1.971489045473e+02 0.0 
0.0 0.0 -7.876057183498e+01 
-5.966869049512e+01 2.126239149259e+00 0.0 
2.126239149259e+00 -1.789721522876e+02 0.0 
0.0 0.0 -7.119225283481e+01 
-6.371874372313e+01 1.933085122481e+00 0.0 
1.933085122481e+00 -1.881751555471e+02 0.0 
0.0 0.0 -7.516816978107e+01 
-7.104702569788e+01 3.054716617993e+00 0.0 
3.054716617993e+00 -2.065780488927e+02 0.0 
0.0 0.0 -8.288752237718e+01 
-6.785127191283e+01 1.825262204766e+00 0.0 
1.825262204766e+00 -1.972755877624e+02 0.0 
0.0 0.0 -7.913805790257e+01 
-6.073169670018e+01 7.782279895489e-01 0.0 
7.782279895489e-01 -1.788074042668e+02 0.0 
0.0 0.0 -7.146173029010e+01 
-6.468554131227e+01 7.599080311710e-01 0.0 
7.599080311710e-01 -1.876594087374e+02 0.0 
0.0 0.0 -7.530348501490e+01 
-7.208151535286e+01 1.780162986015e+00 0.0 
1.780162986015e+00 -2.063674275257e+02 0.0 
0.0 0.0 -8.313468286356e+01 
-6.871373051815e+01 7.979897470721e-01 0.0 
7.979897470721e-01 -1.964791661536e+02 0.0 
0.0 0.0 -7.915786900154e+01 
-7.636812171991e+01 1.778249445039e+00 0.0 
1.778249445039e+00 -2.153798340605e+02 0.0 
0.0 0.0 -8.712438673412e+01 
-6.145674547232e+01 -1.321780870444e-01 0.0 
-1.321780870444e-01 -1.775948763367e+02 0.0 
0.0 0.0 -7.131548654272e+01 
-6.531523457557e+01 -9.660589977332e-03 0.0 
-9.660589977332e-03 -1.862757233168e+02 0.0 
0.0 0.0 -7.507728736770e+01 
-5.816579184739e+01 -8.389010638598e-01 0.0 
-8.389010638598e-01 -1.671736243090e+02 0.0 
0.0 0.0 -6.720182484691e+01 
-6.189103324639e+01 -6.376095256752e-01 0.0 
-6.376095256752e-01 -1.758274894121e+02 0.0 
0.0 0.0 -7.091555679755e+01 
-7.188644427592e+01 1.857289176148e+01 0.0 
1.857289176148e+01 -1.976833094755e+02 0.0 
0.0 0.0 -8.047092612541e+01 
-5.482822031097e+01 -1.346444828989e+00 0.0 
-1.346444828989e+00 -1.565455673171e+02 0.0 
0.0 0.0 -6.301213628842e+01 
-5.140746447261e+01 -1.570062684278e+00 0.0 
-1.570062684278e+00 -1.481749282169e+02 0.0 
0.0 0.0 -5.947471780686e+01 
-5.841892852971e+01 -1.085072821215e+00 0.0 
-1.085072821215e+00 -1.651933517201e+02 0.0 
0.0 0.0 -6.668368407494e+01 
-6.571971350374e+01 -4.211092483109e-01 0.0 
-4.211092483109e-01 -1.846027753598e+02 0.0 
0.0 0.0 -7.469674665906e+01 
-5.139930879502e+01 -1.670166242326e+00 0.0 
-1.670166242326e+00 -1.457378970215e+02 0.0 
0.0 0.0 -5.874116174495e+01 
-5.487722647561e+01 -1.374709711715e+00 0.0 
-1.374709711715e+00 -1.543973059160e+02 0.0 
0.0 0.0 -6.238235971749e+01 
-4.788282610002e+01 -1.842960629340e+00 0.0 
-1.842960629340e+00 -1.348121922015e+02 0.0 
0.0 0.0 -5.440850549044e+01 
-4.715703275246e+01 1.441488578234e+01 0.0 
1.441488578234e+01 -1.404306991202e+02 0.0 
0.0 0.0 -5.587631956180e+01 
-8.362628844132e+01 2.415763563265e+01 0.0 
2.415763563265e+01 -1.857344648579e+02 0.0 
0.0 0.0 -8.040822598977e+01 
-5.125375033810e+01 -1.525902210309e+00 0.0 
-1.525902210309e+00 -1.434836626440e+02 0.0 
0.0 0.0 -5.802122389462e+01 
-4.424785923368e+01 -1.851846403451e+00 0.0 
-1.851846403451e+00 -1.237815911900e+02 0.0 
0.0 0.0 -5.000883512711e+01 
-4.108522198233e+01 -2.177056978830e+00 0.0 
-2.177056978830e+00 -1.151372492386e+02 0.0 
0.0 0.0 -4.646674136629e+01 
-3.745074381222e+01 -2.070568897434e+00 0.0 
-2.070568897434e+00 -1.040390467370e+02 0.0 
0.0 0.0 -4.204693716476e+01 
-7.040355100205e+01 1.046161621469e+01 0.0 
1.046161621469e+01 -1.135521480146e+02 0.0 
0.0 0.0 -5.478670970501e+01 
-7.780809580467e+01 1.207348458387e+01 0.0 
1.207348458387e+01 -1.347053086539e+02 0.0 
0.0 0.0 -6.335402133757e+01 
-7.281463342012e+01 9.549231342367e+00 0.0 
9.549231342367e+00 -1.219417428959e+02 0.0 
0.0 0.0 -5.802691289481e+01 
-8.038181858772e+01 1.137258349816e+01 0.0 
1.137258349816e+01 -1.435533669701e+02 0.0 
0.0 0.0 -6.678055566733e+01 
-7.567459733052e+01 9.046097683871e+00 0.0 
9.046097683871e+00 -1.317456204705e+02 0.0 
0.0 0.0 -6.182606534032e+01 
-4.052449296666e+01 -1.720279167488e+00 0.0 
-1.720279167488e+00 -1.126469701928e+02 0.0 
0.0 0.0 -4.555143894785e+01 
-8.736235213342e+01 2.020486948818e+01 0.0 
2.020486948818e+01 -1.687224634782e+02 0.0 
0.0 0.0 -7.642544468347e+01 
-8.488584577938e+01 1.375881459677e+01 0.0 
1.375881459677e+01 -1.560415618829e+02 0.0 
0.0 0.0 -7.187822229867e+01 
-6.057814624683e+01 2.333364141909e+01 0.0 
2.333364141909e+01 -1.277958593262e+02 0.0 
0.0 0.0 -5.611220167190e+01 
-5.302449382135e+01 2.067925271608e+01 0.0 
2.067925271608e+01 -1.369834095369e+02 0.0 
0.0 0.0 -5.660237100747e+01 
-7.042017298431e+01 1.128305718618e+01 0.0 
1.128305718618e+01 -2.072506631153e+02 0.0 
0.0 0.0 -8.290125082989e+01 
-5.843190202798e+01 -1.069447996195e+00 0.0 
-1.069447996195e+00 -1.630816167379e+02 0.0 
0.0 0.0 -6.605405562977e+01 
-5.471056592363e+01 -1.213605362302e+00 0.0 
-1.213605362302e+00 -1.521953512461e+02 0.0 
0.0 0.0 -6.167177515091e+01 
-6.200213354091e+01 -7.643114117715e-01 0.0 
-7.643114117715e-01 -1.718104069658e+02 0.0 
0.0 0.0 -6.974376215202e+01 
-7.992318662513e+01 2.848984979374e+00 0.0 
2.848984979374e+00 -2.251576615570e+02 0.0 
0.0 0.0 -9.112425445463e+01 
-8.442448973045e+01 2.791081599386e+00 0.0 
2.791081599386e+00 -2.342683928730e+02 0.0 
0.0 0.0 -9.520786478103e+01 
-8.819102658760e+01 3.938715530695e+00 0.0 
3.938715530695e+00 -2.439470698953e+02 0.0 
0.0 0.0 -9.924142894487e+01 
-9.288388885330e+01 3.815409187843e+00 0.0 
3.815409187843e+00 -2.531129137742e+02 0.0 
0.0 0.0 -1.033990407883e+02 
-9.688232395676e+01 5.030728759702e+00 0.0 
5.030728759702e+00 -2.627043517229e+02 0.0 
0.0 0.0 -1.074760027039e+02 
-1.017456159797e+02 4.829505923395e+00 0.0 
4.829505923395e+00 -2.719045893921e+02 0.0 
0.0 0.0 -1.116950616116e+02 
-9.757921869873e+01 3.690112960247e+00 0.0 
3.690112960247e+00 -2.621513945466e+02 0.0 
0.0 0.0 -1.075191839736e+02 
-1.066011961522e+02 4.620143805910e+00 0.0 
4.620143805910e+00 -2.809706180815e+02 0.0 
0.0 0.0 -1.158715442701e+02 
-1.022692786003e+02 3.548850643163e+00 0.0 
3.548850643163e+00 -2.710812925353e+02 0.0 
0.0 0.0 -1.116051713407e+02 
-1.059875106205e+02 6.102201554321e+00 0.0 
6.102201554321e+00 -2.814101450806e+02 0.0 
0.0 0.0 -1.158192967103e+02 
-1.009331145092e+02 6.379822102039e+00 0.0 
6.379822102039e+00 -2.719891796373e+02 0.0 
0.0 0.0 -1.114766882439e+02 
-1.114408811263e+02 4.387178310230e+00 0.0 
4.387178310230e+00 -2.899120141731e+02 0.0 
0.0 0.0 -1.200058685898e+02 
-1.069450309374e+02 3.374293163345e+00 0.0 
3.374293163345e+00 -2.799058875923e+02 0.0 
0.0 0.0 -1.156552755589e+02 
-1.162624399524e+02 4.114719217981e+00 0.0 
4.114719217981e+00 -2.987410408265e+02 0.0 
0.0 0.0 -1.241010442337e+02 
-1.116021278283e+02 3.157859717828e+00 0.0 
3.157859717828e+00 -2.886361577436e+02 0.0 
0.0 0.0 -1.196714856716e+02 
-1.024848953134e+02 2.488620564762e+00 0.0 
2.488620564762e+00 -2.696815126627e+02 0.0 
0.0 0.0 -1.112499223928e+02 
-1.069682288051e+02 2.322439247818e+00 0.0 
2.322439247818e+00 -2.783233236420e+02 0.0 
0.0 0.0 -1.151874657341e+02 
-9.807924236559e+01 1.745333216094e+00 0.0 
1.745333216094e+00 -2.593469208953e+02 0.0 
0.0 0.0 -1.068278489783e+02 
-7.499605498781e+01 1.054932733127e+01 0.0 
1.054932733127e+01 -2.185221577754e+02 0.0 
0.0 0.0 -8.765546382895e+01 
-7.846806741963e+01 1.245948606769e+01 0.0 
1.245948606769e+01 -2.251723387903e+02 0.0 
0.0 0.0 -9.069212186297e+01 
-8.326961476574e+01 1.177552224572e+01 0.0 
1.177552224572e+01 -2.365310181430e+02 0.0 
0.0 0.0 -9.554018987264e+01 
-8.697813626723e+01 1.366451454144e+01 0.0 
1.366451454144e+01 -2.432039148710e+02 0.0 
0.0 0.0 -9.865461534148e+01 
-9.200947737783e+01 1.303159840861e+01 0.0 
1.303159840861e+01 -2.546319811971e+02 0.0 
0.0 0.0 -1.035924375725e+02 
-9.592935697445e+01 1.490442359812e+01 0.0 
1.490442359812e+01 -2.613139289629e+02 0.0 
0.0 0.0 -1.067729857812e+02 
-1.011886478886e+02 1.431722108103e+01 0.0 
1.431722108103e+01 -2.727664344922e+02 0.0 
0.0 0.0 -1.117865247143e+02 
-9.717131311146e+01 1.245901412780e+01 0.0 
1.245901412780e+01 -2.657099628320e+02 0.0 
0.0 0.0 -1.084643827830e+02 
-8.756112714327e+01 2.270070848313e+01 0.0 
2.270070848313e+01 -1.783682250752e+02 0.0 
0.0 0.0 -7.937880566555e+01 
-4.925903282589e+01 7.973677866097e+00 0.0 
7.973677866097e+00 -1.541748351862e+02 0.0 
0.0 0.0 -6.063016040364e+01 
-4.561607355032e+01 9.056129003587e+00 0.0 
9.056129003587e+00 -1.428693090368e+02 0.0 
0.0 0.0 -5.614561477613e+01 
-4.327021667484e+01 6.967227937218e+00 0.0 
6.967227937218e+00 -1.366915081655e+02 0.0 
0.0 0.0 -5.358851745212e+01 
-3.994495143122e+01 8.140863198135e+00 0.0 
8.140863198135e+00 -1.255159540190e+02 0.0 
0.0 0.0 -4.923827163508e+01 
-3.786628095989e+01 6.034551076686e+00 0.0 
6.034551076686e+00 -1.193028137996e+02 0.0 
0.0 0.0 -4.675072842784e+01 
-3.491653957736e+01 7.318712304673e+00 0.0 
7.318712304673e+00 -1.082832247415e+02 0.0 
0.0 0.0 -4.255992929565e+01 
-3.308040981179e+01 5.216361777920e+00 0.0 
5.216361777920e+00 -1.019530183984e+02 0.0 
0.0 0.0 -4.011002846304e+01 
-3.592498892364e+01 4.020005923157e+00 0.0 
4.020005923157e+00 -1.124324494120e+02 0.0 
0.0 0.0 -4.410723150069e+01 
-3.137862084245e+01 3.232476822345e+00 0.0 
3.232476822345e+00 -9.491681777991e+01 0.0 
0.0 0.0 -3.748863158671e+01 
-3.409013136343e+01 2.154438966018e+00 0.0 
2.154438966018e+00 -1.048737239166e+02 0.0 
0.0 0.0 -4.128915658401e+01 
-2.973804175587e+01 1.419772301843e+00 0.0 
1.419772301843e+00 -8.714402273920e+01 0.0 
0.0 0.0 -3.466461934852e+01 
-3.228383967894e+01 4.990876495801e-01 0.0 
4.990876495801e-01 -9.657469505478e+01 0.0 
0.0 0.0 -3.825756042012e+01 
-7.542973523842e+01 2.214496475264e+01 0.0 
2.214496475264e+01 -1.910528781673e+02 0.0 
0.0 0.0 -7.954478402171e+01 
-9.080916115640e+01 1.554865467380e+01 0.0 
1.554865467380e+01 -2.494685717251e+02 0.0 
0.0 0.0 -1.016833198644e+02 
-9.997927585503e+01 1.676982912241e+01 0.0 
1.676982912241e+01 -2.676398891300e+02 0.0 
0.0 0.0 -1.098857494955e+02 
-9.472996894570e+01 1.738924532527e+01 0.0 
1.738924532527e+01 -2.552964473752e+02 0.0 
0.0 0.0 -1.046079248963e+02 
-3.444864651095e+01 -2.350666333818e+00 0.0 
-2.350666333818e+00 -9.542774748360e+01 0.0 
0.0 0.0 -3.856291819837e+01 
-1.162365945283e+02 2.888087823872e+00 0.0 
2.888087823872e+00 -2.972928965977e+02 0.0 
0.0 0.0 -1.236588473378e+02 
-1.103076775277e+02 7.506379298183e+00 0.0 
7.506379298183e+00 -2.906323361607e+02 0.0 
0.0 0.0 -1.198820041065e+02 
-1.050505447580e+02 7.845601127983e+00 0.0 
7.845601127983e+00 -2.809269762506e+02 0.0 
0.0 0.0 -1.153932563026e+02 
-1.065940282306e+02 1.376567969153e+01 0.0 
1.376567969153e+01 -2.839003543258e+02 0.0 
0.0 0.0 -1.167483147669e+02 
-3.373240883302e+01 -1.846868777322e+00 0.0 
-1.846868777322e+00 -9.302951275532e+01 0.0 
0.0 0.0 -3.762857647650e+01 
-3.058947406684e+01 6.657322060571e+00 0.0 
6.657322060571e+00 -9.118893561817e+01 0.0 
0.0 0.0 -3.613352290550e+01 
-3.226218228929e+01 8.801107000589e+00 0.0 
8.801107000589e+00 -9.673682893957e+01 0.0 
0.0 0.0 -3.829970336866e+01 
-8.285055117375e+01 1.080940078695e+01 0.0 
1.080940078695e+01 -1.527857058251e+02 0.0 
0.0 0.0 -7.029087709966e+01 
-7.826956616442e+01 8.662386314363e+00 0.0 
8.662386314363e+00 -1.413934095292e+02 0.0 
0.0 0.0 -6.549889270810e+01 
-1.147424368508e+02 9.018559364218e+00 0.0 
9.018559364218e+00 -2.995803385708e+02 0.0 
0.0 0.0 -1.238968326265e+02 
-3.677175498514e+01 -1.536678786861e+00 0.0 
-1.536678786861e+00 -1.016170863718e+02 0.0 
0.0 0.0 -4.111665240710e+01 
-1.160053153633e+02 5.522291274956e+00 0.0 
5.522291274956e+00 -2.997111286607e+02 0.0 
0.0 0.0 -1.243149332072e+02 
-2.749497040709e+01 2.594793213230e+00 0.0 
2.594793213230e+00 -7.749089343464e+01 0.0 
0.0 0.0 -3.109575915252e+01 
-1.114399155965e+02 2.097910372624e+00 0.0 
2.097910372624e+00 -2.869111468430e+02 0.0 
0.0 0.0 -1.191053187318e+02 
-1.208214124369e+02 2.561337797499e+00 0.0 
2.561337797499e+00 -3.058707482179e+02 0.0 
0.0 0.0 -1.276076481964e+02 
-9.348132908798e+01 2.691307782501e+00 0.0 
2.691307782501e+00 -2.521966749041e+02 0.0 
0.0 0.0 -1.033034011976e+02 
-1.041238529143e+02 1.861091020085e+01 0.0 
1.861091020085e+01 -2.736310652317e+02 0.0 
0.0 0.0 -1.129264754438e+02 
-9.874365378990e+01 1.914600184900e+01 0.0 
1.914600184900e+01 -2.607676139615e+02 0.0 
0.0 0.0 -1.074533803254e+02 
-3.708511705559e+01 1.347248443890e+00 0.0 
1.347248443890e+00 -1.146459337642e+02 0.0 
0.0 0.0 -4.511931524595e+01 
-3.507190455264e+01 -8.023690166332e-02 0.0 
-8.023690166332e-02 -1.059516871710e+02 0.0 
0.0 0.0 -4.190707751710e+01 
-3.050881196793e+01 -8.026933904631e-01 0.0 
-8.026933904631e-01 -8.799402629667e+01 0.0 
0.0 0.0 -3.515085147938e+01 
-3.342208514311e+01 -1.272891431375e+00 0.0 
-1.272891431375e+00 -9.746738113150e+01 0.0 
0.0 0.0 -3.886683988238e+01 
-3.811539571381e+01 -5.555801231239e-01 0.0 
-5.555801231239e-01 -1.154073383707e+02 0.0 
0.0 0.0 -4.565682022536e+01 
-3.590282597677e+01 -1.670644860211e+00 0.0 
-1.670644860211e+00 -1.057861901415e+02 0.0 
0.0 0.0 -4.210670483548e+01 
-3.107495965492e+01 -2.306977054793e+00 0.0 
-2.306977054793e+00 -8.739175260535e+01 0.0 
0.0 0.0 -3.514001367808e+01 
-3.355236883329e+01 -2.416821425484e+00 0.0 
-2.416821425484e+00 -9.575392357035e+01 0.0 
0.0 0.0 -3.839188772109e+01 
-3.879532449456e+01 -1.823546135561e+00 0.0 
-1.823546135561e+00 -1.145297498397e+02 0.0 
0.0 0.0 -4.559752230027e+01 
-3.622053442360e+01 -2.478690587051e+00 0.0 
-2.478690587051e+00 -1.042772767669e+02 0.0 
0.0 0.0 -4.174934335714e+01 
-3.102000248368e+01 -2.869631052744e+00 0.0 
-2.869631052744e+00 -8.517995330723e+01 0.0 
0.0 0.0 -3.445998673727e+01 
-3.341686638913e+01 -2.830111713177e+00 0.0 
-2.830111713177e+00 -9.359803104464e+01 0.0 
0.0 0.0 -3.770446923013e+01 
-1.257923140561e+02 3.408419691041e+00 0.0 
3.408419691041e+00 -3.161123044383e+02 0.0 
0.0 0.0 -1.321713855483e+02 
-2.609049501592e+01 8.591049286887e-01 0.0 
8.591049286887e-01 -6.945440031884e+01 0.0 
0.0 0.0 -2.826346860043e+01 
-6.519945317783e+01 2.122216322597e+01 0.0 
2.122216322597e+01 -1.165235628526e+02 0.0 
0.0 0.0 -5.411690480914e+01 
-1.200976655745e+02 8.589987145374e+00 0.0 
8.589987145374e+00 -3.091943795748e+02 0.0 
0.0 0.0 -1.283876135448e+02 
-1.107485658883e+02 1.562443641432e+01 0.0 
1.562443641432e+01 -2.907386887225e+02 0.0 
0.0 0.0 -1.200461763833e+02 
-8.522059098537e+01 1.034542027953e+01 0.0 
1.034542027953e+01 -1.623369101355e+02 0.0 
0.0 0.0 -7.386725033627e+01 
-8.079996055324e+01 8.350975381037e+00 0.0 
8.350975381037e+00 -1.513401276514e+02 0.0 
0.0 0.0 -6.924202646138e+01 
-7.345634756336e+01 6.670150805634e+00 0.0 
6.670150805634e+00 -1.305415694667e+02 0.0 
0.0 0.0 -6.079937510902e+01 
-7.623818002228e+01 6.528120259703e+00 0.0 
6.528120259703e+00 -1.408914677859e+02 0.0 
0.0 0.0 -6.473889434245e+01 
-8.326792275700e+01 8.082739073666e+00 0.0 
8.082739073666e+00 -1.615925918957e+02 0.0 
0.0 0.0 -7.305815439580e+01 
-7.895551082990e+01 6.383500628512e+00 0.0 
6.383500628512e+00 -1.513501781809e+02 0.0 
0.0 0.0 -6.869170670325e+01 
-7.160567574556e+01 4.964282162103e+00 0.0 
4.964282162103e+00 -1.308437399205e+02 0.0 
0.0 0.0 -6.033482469981e+01 
-7.459906382645e+01 4.913196800563e+00 0.0 
4.913196800563e+00 -1.414247028596e+02 0.0 
0.0 0.0 -6.440713000580e+01 
-6.700628460834e+01 3.652590930536e+00 0.0 
3.652590930536e+00 -1.210947160108e+02 0.0 
0.0 0.0 -5.603030018575e+01 
-7.023949860115e+01 3.675610175100e+00 0.0 
3.675610175100e+00 -1.317938269016e+02 0.0 
0.0 0.0 -6.020999765083e+01 
-7.755666088223e+01 4.819607381114e+00 0.0 
4.819607381114e+00 -1.520981243905e+02 0.0 
0.0 0.0 -6.849643558183e+01 
-7.343521771674e+01 3.663085243510e+00 0.0 
3.663085243510e+00 -1.426051420308e+02 0.0 
0.0 0.0 -6.441210792425e+01 
-6.590266846811e+01 2.658295334625e+00 0.0 
2.658295334625e+00 -1.224536817140e+02 0.0 
0.0 0.0 -5.610690505464e+01 
-6.932778286647e+01 2.703973706944e+00 0.0 
2.703973706944e+00 -1.332875161359e+02 0.0 
0.0 0.0 -6.038458970072e+01 
-6.162803260894e+01 1.870177100777e+00 0.0 
1.870177100777e+00 -1.132380630543e+02 0.0 
0.0 0.0 -5.205982869897e+01 
-6.528383620716e+01 1.946979733052e+00 0.0 
1.946979733052e+00 -1.240167822093e+02 0.0 
0.0 0.0 -5.639018552495e+01 
-7.273955697419e+01 2.620468500918e+00 0.0 
2.620468500918e+00 -1.441998437117e+02 0.0 
0.0 0.0 -6.468182020576e+01 
-3.022726786616e+01 -1.572602432323e+00 0.0 
-1.572602432323e+00 -8.251656983429e+01 0.0 
0.0 0.0 -3.342315131013e+01 
-1.024559290528e+02 1.193318567362e+01 0.0 
1.193318567362e+01 -2.764944587237e+02 0.0 
0.0 0.0 -1.132851163329e+02 
-1.121714524600e+02 1.323456133492e+01 0.0 
1.323456133492e+01 -2.948472127561e+02 0.0 
0.0 0.0 -1.217055995648e+02 
-5.831981137577e+01 -8.021552507433e-01 0.0 
-8.021552507433e-01 -1.614710147425e+02 0.0 
0.0 0.0 -6.553724783549e+01 
-6.549336440192e+01 -4.539158233432e-01 0.0 
-4.539158233432e-01 -1.802748113171e+02 0.0 
0.0 0.0 -7.333045271570e+01 
-6.952157542530e+01 -3.720548212380e-01 0.0 
-3.720548212380e-01 -1.912854629980e+02 0.0 
0.0 0.0 -7.784211152699e+01 
-7.339735606281e+01 -1.576469143327e-01 0.0 
-1.576469143327e-01 -2.001070954176e+02 0.0 
0.0 0.0 -8.165133544412e+01 
-6.885352906196e+01 1.872191226569e+00 0.0 
1.872191226569e+00 -1.348350364616e+02 0.0 
0.0 0.0 -6.070656965706e+01 
-7.606026579674e+01 2.420242556701e+00 0.0 
2.420242556701e+00 -1.551593497359e+02 0.0 
0.0 0.0 -6.896588465981e+01 
-2.843966115135e+01 8.333765275941e+00 0.0 
8.333765275941e+00 -7.992765025861e+01 0.0 
0.0 0.0 -3.211019342299e+01 
-2.997647443150e+01 1.043626898987e+01 0.0 
1.043626898987e+01 -8.463435001191e+01 0.0 
0.0 0.0 -3.398324733302e+01 
-8.945767723626e+01 1.248356269578e+01 0.0 
1.248356269578e+01 -1.738972397017e+02 0.0 
0.0 0.0 -7.860647508139e+01 
-1.158851026708e+02 1.826993307039e+00 0.0 
1.826993307039e+00 -2.954872844101e+02 0.0 
0.0 0.0 -1.230117161243e+02 
-1.067123446797e+02 1.431572986910e+00 0.0 
1.431572986910e+00 -2.764677249944e+02 0.0 
0.0 0.0 -1.145540209023e+02 
-4.979475711882e+01 1.921885532500e+01 0.0 
1.921885532500e+01 -1.342525977387e+02 0.0 
0.0 0.0 -5.481420645726e+01 
-4.640513934840e+01 2.011321642370e+01 0.0 
2.011321642370e+01 -1.191440330089e+02 0.0 
0.0 0.0 -4.926475170720e+01 
-4.354452421669e+01 1.862158343360e+01 0.0 
1.862158343360e+01 -1.165902451001e+02 0.0 
0.0 0.0 -4.764043079504e+01 
-4.036016994525e+01 1.944540919240e+01 0.0 
1.944540919240e+01 -1.010113147342e+02 0.0 
0.0 0.0 -4.201144540384e+01 
-4.308873116849e+01 2.078363111344e+01 0.0 
2.078363111344e+01 -1.032803021526e+02 0.0 
0.0 0.0 -4.351070999633e+01 
-3.792635193093e+01 1.798319654933e+01 0.0 
1.798319654933e+01 -9.854641076588e+01 0.0 
0.0 0.0 -4.054182880905e+01 
-9.580054931816e+01 6.636868921247e+00 0.0 
6.636868921247e+00 -2.622144236565e+02 0.0 
0.0 0.0 -1.070044918924e+02 
-8.050500068623e+01 4.675478020994e+00 0.0 
4.675478020994e+00 -1.629354838985e+02 0.0 
0.0 0.0 -7.263214537540e+01 
-3.804655996410e+01 -2.480232971541e+00 0.0 
-2.480232971541e+00 -1.065822370803e+02 0.0 
0.0 0.0 -4.298863911331e+01 
-3.168476271902e+01 -2.595948755656e+00 0.0 
-2.595948755656e+00 -8.695832651637e+01 0.0 
0.0 0.0 -3.519292677062e+01 
-1.253430934405e+02 2.183616468608e+00 0.0 
2.183616468608e+00 -3.144266043816e+02 0.0 
0.0 0.0 -1.315309093466e+02 
-9.323119903703e+01 1.063058277710e+01 0.0 
1.063058277710e+01 -2.582263739260e+02 0.0 
0.0 0.0 -1.050372718889e+02 
-7.942346787787e+01 2.314544538379e+01 0.0 
2.314544538379e+01 -1.944371145672e+02 0.0 
0.0 0.0 -8.175817473352e+01 
-8.350045333294e+01 2.270824304683e+01 0.0 
2.270824304683e+01 -2.093981960644e+02 0.0 
0.0 0.0 -8.746959481920e+01 
-8.753380781041e+01 2.369776593731e+01 0.0 
2.369776593731e+01 -2.130982065606e+02 0.0 
0.0 0.0 -8.978960431129e+01 
-9.182808482136e+01 2.338845803694e+01 0.0 
2.338845803694e+01 -2.279783729072e+02 0.0 
0.0 0.0 -9.554193731857e+01 
-9.581782830658e+01 2.440543132923e+01 0.0 
2.440543132923e+01 -2.319423397797e+02 0.0 
0.0 0.0 -9.792805042590e+01 
-1.003386916663e+02 2.425004644777e+01 0.0 
2.425004644777e+01 -2.466504268895e+02 0.0 
0.0 0.0 -1.036967355668e+02 
-9.636852476835e+01 2.303808013734e+01 0.0 
2.303808013734e+01 -2.424485781504e+02 0.0 
0.0 0.0 -1.012451308756e+02 
-1.083214053520e+02 2.041275371578e+01 0.0 
2.041275371578e+01 -2.792726551207e+02 0.0 
0.0 0.0 -1.158782181418e+02 
-1.051574474096e+02 2.408758687201e+01 0.0 
2.408758687201e+01 -2.609940615323e+02 0.0 
0.0 0.0 -1.094454526826e+02 
-6.129014798428e+01 1.261863971012e+00 0.0 
1.261863971012e+00 -1.145290818581e+02 0.0 
0.0 0.0 -5.234576895271e+01 
-8.573959542981e+01 1.621715466985e+01 0.0 
1.621715466985e+01 -2.370411191588e+02 0.0 
0.0 0.0 -9.643421437659e+01 
-4.186280762652e+01 -1.867274262341e+00 0.0 
-1.867274262341e+00 -1.233202144476e+02 0.0 
0.0 0.0 -4.915490662224e+01 
-2.699253609885e+01 -1.757351486289e+00 0.0 
-1.757351486289e+00 -7.365995081862e+01 0.0 
0.0 0.0 -2.979574607524e+01 
-2.786701959897e+01 -3.004976934319e+00 0.0 
-3.004976934319e+00 -7.381646523697e+01 0.0 
0.0 0.0 -3.010504545078e+01 
-3.277634462406e+01 -1.321575535626e+00 0.0 
-1.321575535626e+00 -9.028213512371e+01 0.0 
0.0 0.0 -3.651754392433e+01 
-3.985147665355e+01 -1.244357150612e+00 0.0 
-1.244357150612e+00 -1.101643493515e+02 0.0 
0.0 0.0 -4.460474780153e+01 
-1.248436664237e+02 1.015816436076e+01 0.0 
1.015816436076e+01 -3.181242705266e+02 0.0 
0.0 0.0 -1.324903810851e+02 
-1.042031064569e+02 2.533464262376e+01 0.0 
2.533464262376e+01 -2.508089625382e+02 0.0 
0.0 0.0 -1.061036206985e+02 
-9.962990141761e+01 2.521332329556e+01 0.0 
2.521332329556e+01 -2.357837593017e+02 0.0 
0.0 0.0 -1.002240982158e+02 
-3.731712290442e+01 2.005350183333e+01 0.0 
2.005350183333e+01 -8.497999741874e+01 0.0 
0.0 0.0 -3.628913609695e+01 
-3.985274459664e+01 2.116002745315e+01 0.0 
2.116002745315e+01 -8.682728680062e+01 0.0 
0.0 0.0 -3.760400941918e+01 
-1.139777502096e+02 1.994754613383e+01 0.0 
1.994754613383e+01 -2.919488795687e+02 0.0 
0.0 0.0 -1.213779889335e+02 
-6.783351447207e+01 7.192307038547e+00 0.0 
7.192307038547e+00 -1.107109142817e+02 0.0 
0.0 0.0 -5.316332862614e+01 
-6.373729010606e+01 3.574927515202e+00 0.0 
3.574927515202e+00 -1.105426068926e+02 0.0 
0.0 0.0 -5.188396909960e+01 
-5.885114881085e+01 2.441592567388e+00 0.0 
2.441592567388e+00 -1.008955960451e+02 0.0 
0.0 0.0 -4.752402345678e+01 
-2.532282246829e+01 -1.215233455715e+00 0.0 
-1.215233455715e+00 -6.888342678261e+01 0.0 
0.0 0.0 -2.786187477527e+01 
-2.613343944680e+01 -3.011021170681e+00 0.0 
-3.011021170681e+00 -6.622358269151e+01 0.0 
0.0 0.0 -2.730710664150e+01 
-8.573849776787e+01 7.780659414085e+00 0.0 
7.780659414085e+00 -1.720208270922e+02 0.0 
0.0 0.0 -7.692779745803e+01 
-3.405879696042e+01 1.092433544684e+01 0.0 
1.092433544684e+01 -1.014724736932e+02 0.0 
0.0 0.0 -4.025938119608e+01 
-3.166176257353e+01 1.249923406547e+01 0.0 
1.249923406547e+01 -8.863938881830e+01 0.0 
0.0 0.0 -3.569034541755e+01 
-2.428294227575e+01 2.204941246470e+00 0.0 
2.204941246470e+00 -5.992894640396e+01 0.0 
0.0 0.0 -2.486356660391e+01 
-2.302154314701e+01 4.985942992082e-01 0.0 
4.985942992082e-01 -5.162847152629e+01 0.0 
0.0 0.0 -2.199500440199e+01 
-7.240102860033e+01 1.605293294287e+00 0.0 
1.605293294287e+00 -1.454980967065e+02 0.0 
0.0 0.0 -6.496973759205e+01 
-7.943770601399e+01 2.097118214185e+00 0.0 
2.097118214185e+00 -1.657244209955e+02 0.0 
0.0 0.0 -7.314863810286e+01 
-7.743820511993e+01 1.309973828037e-01 0.0 
1.309973828037e-01 -2.107573557102e+02 0.0 
0.0 0.0 -8.605866824904e+01 
-8.133572326397e+01 2.871990736026e-01 0.0 
2.871990736026e-01 -2.194852665893e+02 0.0 
0.0 0.0 -8.984629695598e+01 
-1.193192842764e+02 1.063816219847e+01 0.0 
1.063816219847e+01 -3.082733950210e+02 0.0 
0.0 0.0 -1.278778037892e+02 
-3.044063428325e+01 -2.958226249754e+00 0.0 
-2.958226249754e+00 -8.274302308753e+01 0.0 
0.0 0.0 -3.355509721123e+01 
-8.305571157494e+01 3.032041346776e+00 0.0 
3.032041346776e+00 -1.755211460687e+02 0.0 
0.0 0.0 -7.717305729310e+01 
-9.839353144217e+01 1.015572987984e+01 0.0 
1.015572987984e+01 -2.686992156672e+02 0.0 
0.0 0.0 -1.097278241328e+02 
-8.941098315931e+01 8.867947906729e+00 0.0 
8.867947906729e+00 -2.503588762724e+02 0.0 
0.0 0.0 -1.015309578295e+02 
-6.932493712746e+01 -3.790337185116e-01 0.0 
-3.790337185116e-01 -1.889952788002e+02 0.0 
0.0 0.0 -7.709606477831e+01 
-2.672993766944e+01 1.019364286312e+01 0.0 
1.019364286312e+01 -6.814356801338e+01 0.0 
0.0 0.0 -2.806205170484e+01 
-2.533160502627e+01 8.099173758847e+00 0.0 
8.099173758847e+00 -6.347558063749e+01 0.0 
0.0 0.0 -2.624215569913e+01 
-4.446790350440e+01 -1.054021332620e+00 0.0 
-1.054021332620e+00 -1.332981006750e+02 0.0 
0.0 0.0 -5.292980125382e+01 
-3.616077018494e+01 -2.756079592892e+00 0.0 
-2.756079592892e+00 -1.022240624623e+02 0.0 
0.0 0.0 -4.111544979416e+01 
-3.585804624404e+01 -9.690821676657e-01 0.0 
-9.690821676657e-01 -9.886143504861e+01 0.0 
0.0 0.0 -4.001584438780e+01 
-1.296388452859e+02 1.182039657894e+01 0.0 
1.182039657894e+01 -3.266681390970e+02 0.0 
0.0 0.0 -1.364920953149e+02 
-8.970311085138e+01 9.525737550350e+00 0.0 
9.525737550350e+00 -1.823314211507e+02 0.0 
0.0 0.0 -8.121035960061e+01 
-1.012393716238e+02 2.272805172319e+01 0.0 
2.272805172319e+01 -2.565104647787e+02 0.0 
0.0 0.0 -1.069249509207e+02 
-9.229497478632e+01 2.170705818079e+01 0.0 
2.170705818079e+01 -2.380186215028e+02 0.0 
0.0 0.0 -9.869407888675e+01 
-1.105105198915e+02 2.389827493009e+01 0.0 
2.389827493009e+01 -2.751349538830e+02 0.0 
0.0 0.0 -1.152936421323e+02 
-2.521792588072e+01 -2.891086927749e+00 0.0 
-2.891086927749e+00 -6.329045811011e+01 0.0 
0.0 0.0 -2.615251519725e+01 
-1.304283406624e+02 9.650797873136e+00 0.0 
9.650797873136e+00 -3.279537403360e+02 0.0 
0.0 0.0 -1.371146242995e+02 
-1.202842814492e+02 1.489469748599e+00 0.0 
1.489469748599e+00 -3.040721732212e+02 0.0 
0.0 0.0 -1.269069364011e+02 
-1.074710912300e+02 2.615605469407e+01 0.0 
2.615605469407e+01 -2.540729333041e+02 0.0 
0.0 0.0 -1.080632073602e+02 
-1.032608526628e+02 2.582591646179e+01 0.0 
2.582591646179e+01 -2.397699581285e+02 0.0 
0.0 0.0 -1.025092432374e+02 
-3.598195502808e+01 1.297879814216e+01 0.0 
1.297879814216e+01 -1.055327237693e+02 0.0 
0.0 0.0 -4.205440363923e+01 
-3.351844996452e+01 1.446061507896e+01 0.0 
1.446061507896e+01 -9.222275413738e+01 0.0 
0.0 0.0 -3.732236123057e+01 
-2.969176887253e+01 1.409781522130e+01 0.0 
1.409781522130e+01 -7.518897434761e+01 0.0 
0.0 0.0 -3.106422296604e+01 
-3.133129721607e+01 1.580557815849e+01 0.0 
1.580557815849e+01 -7.807310021930e+01 0.0 
0.0 0.0 -3.242131923061e+01 
-6.502666156011e+01 1.735303754417e+01 0.0 
1.735303754417e+01 -1.045339174844e+02 0.0 
0.0 0.0 -5.046817371335e+01 
-3.819551580223e+01 1.497720169504e+01 0.0 
1.497720169504e+01 -1.093632460961e+02 0.0 
0.0 0.0 -4.386762856950e+01 
-6.108218968400e+01 2.228324013446e+01 0.0 
2.228324013446e+01 -1.131681575613e+02 0.0 
0.0 0.0 -5.187510417360e+01 
-5.734059989217e+01 2.076742877375e+01 0.0 
2.076742877375e+01 -9.568339885166e+01 0.0 
0.0 0.0 -4.550719962315e+01 
-5.334773797212e+01 2.186271523780e+01 0.0 
2.186271523780e+01 -9.303719484961e+01 0.0 
0.0 0.0 -4.351547984652e+01 
-4.609978141579e+01 2.186388152662e+01 0.0 
2.186388152662e+01 -1.050929398710e+02 0.0 
0.0 0.0 -4.495781638605e+01 
-4.269719076765e+01 2.199942565417e+01 0.0 
2.199942565417e+01 -8.818156955171e+01 0.0 
0.0 0.0 -3.886362809581e+01 
-4.214307644661e+01 1.027470840467e+01 0.0 
1.027470840467e+01 -1.310070445353e+02 0.0 
0.0 0.0 -5.154503629458e+01 
-7.378542722996e+01 1.322634461060e+01 0.0 
1.322634461060e+01 -2.133910909281e+02 0.0 
0.0 0.0 -8.575295544742e+01 
-7.348365485858e+01 -3.626680887089e-02 0.0 
-3.626680887089e-02 -2.020831470340e+02 0.0 
0.0 0.0 -8.227004056779e+01 
-9.376156511918e+01 1.811701749239e+00 0.0 
1.811701749239e+00 -2.507298658522e+02 0.0 
0.0 0.0 -1.029474292914e+02 
-8.350342152123e+01 4.070998259891e+00 0.0 
4.070998259891e+00 -2.346046262138e+02 0.0 
0.0 0.0 -9.503241432051e+01 
-8.431771296922e+01 5.956996488719e+00 0.0 
5.956996488719e+00 -1.724494738189e+02 0.0 
0.0 0.0 -7.663015603643e+01 
-8.708092978604e+01 5.663232647980e+00 0.0 
5.663232647980e+00 -1.834237640158e+02 0.0 
0.0 0.0 -8.075140814056e+01 
-5.795404372923e+01 1.726701774660e+00 0.0 
1.726701774660e+00 -1.024446025531e+02 0.0 
0.0 0.0 -4.771959388470e+01 
-5.367812377742e+01 1.130253398092e+00 0.0 
1.130253398092e+00 -9.325028310494e+01 0.0 
0.0 0.0 -4.367852206471e+01 
-2.798900423545e+01 -2.329318837982e+00 0.0 
-2.329318837982e+00 -7.568999872988e+01 0.0 
0.0 0.0 -3.070370088960e+01 
-2.542316607219e+01 -2.513464376434e+00 0.0 
-2.513464376434e+00 -6.727859553254e+01 0.0 
0.0 0.0 -2.741052848142e+01 
-8.070087400536e+01 1.800493335045e+00 0.0 
1.800493335045e+00 -2.243425494839e+02 0.0 
0.0 0.0 -9.111302704677e+01 
-1.253943722048e+02 8.129449752747e+00 0.0 
8.129449752747e+00 -3.185703006683e+02 0.0 
0.0 0.0 -1.327894018619e+02 
-9.141042009651e+01 1.189615408326e+01 0.0 
1.189615408326e+01 -1.831086231956e+02 0.0 
0.0 0.0 -8.195571298763e+01 
-9.533120663049e+01 1.408824994741e+01 0.0 
1.408824994741e+01 -1.948419130635e+02 0.0 
0.0 0.0 -8.665193590820e+01 
-9.348783908445e+01 1.472717961091e+01 0.0 
1.472717961091e+01 -1.858880348163e+02 0.0 
0.0 0.0 -8.341276217021e+01 
-1.238669499421e+02 1.234848220682e+01 0.0 
1.234848220682e+01 -3.163985308800e+02 0.0 
0.0 0.0 -1.316796442466e+02 
-4.681523863971e+01 5.972657120574e+00 0.0 
5.972657120574e+00 -1.474865883756e+02 0.0 
0.0 0.0 -5.789054810460e+01 
-7.969451264059e+01 9.910657024394e+00 0.0 
9.910657024394e+00 -2.294381384269e+02 0.0 
0.0 0.0 -9.233979532024e+01 
-2.469703990356e+01 -4.850347301078e-01 0.0 
-4.850347301078e-01 -6.078360963509e+01 0.0 
0.0 0.0 -2.524419486159e+01 
-7.562334522420e+01 2.013497116068e+01 0.0 
2.013497116068e+01 -2.017609956808e+02 0.0 
0.0 0.0 -8.281530227149e+01 
-2.167423717273e+01 -2.101390099088e+00 0.0 
-2.101390099088e+00 -5.613811793339e+01 0.0 
0.0 0.0 -2.294370653183e+01 
-8.747066823226e+01 2.409189430201e+01 0.0 
2.409189430201e+01 -1.894840645038e+02 0.0 
0.0 0.0 -8.268641982083e+01 
-1.299524376511e+02 1.730238995779e+00 0.0 
1.730238995779e+00 -3.230321675933e+02 0.0 
0.0 0.0 -1.354953815733e+02 
-1.350919418476e+02 2.492358238408e+00 0.0 
2.492358238408e+00 -3.331578105181e+02 0.0 
0.0 0.0 -1.400749257097e+02 
-1.181888595854e+02 2.179665396915e+01 0.0 
2.179665396915e+01 -2.975220867639e+02 0.0 
0.0 0.0 -1.243132839048e+02 
-5.215387693769e+01 1.239119892388e+01 0.0 
1.239119892388e+01 -6.765290856284e+01 0.0 
0.0 0.0 -3.554203565016e+01 
-7.991616668205e+01 1.936657331693e+01 0.0 
1.936657331693e+01 -2.154622161601e+02 0.0 
0.0 0.0 -8.821351485264e+01 
-7.618792509278e+01 1.769624384804e+01 0.0 
1.769624384804e+01 -2.109744799778e+02 0.0 
0.0 0.0 -8.574872152116e+01 
-4.945603753722e+01 2.010166313208e+01 0.0 
2.010166313208e+01 -7.501797739329e+01 0.0 
0.0 0.0 -3.694220447915e+01 
-4.573807358998e+01 2.118313932133e+01 0.0 
2.118313932133e+01 -7.294254501274e+01 0.0 
0.0 0.0 -3.520418558081e+01 
-4.950624249896e+01 2.239017783700e+01 0.0 
2.239017783700e+01 -9.104002586199e+01 0.0 
0.0 0.0 -4.176388050829e+01 
-4.241213313982e+01 2.173829533972e+01 0.0 
2.173829533972e+01 -7.162347617517e+01 0.0 
0.0 0.0 -3.381068279450e+01 
-4.781692129684e+01 -1.092035999637e+00 0.0 
-1.092035999637e+00 -1.420585300098e+02 0.0 
0.0 0.0 -5.656263539201e+01 
-4.500350974026e+01 -1.811539663473e+00 0.0 
-1.811539663473e+00 -1.318743909507e+02 0.0 
0.0 0.0 -5.266337020729e+01 
-1.133611954712e+02 2.672354599009e+01 0.0 
2.672354599009e+01 -2.709855012431e+02 0.0 
0.0 0.0 -1.149040090143e+02 
-1.140588265833e+02 2.532415966153e+01 0.0 
2.532415966153e+01 -2.793481232270e+02 0.0 
0.0 0.0 -1.176220849431e+02 
-1.109042507518e+02 2.707158368908e+01 0.0 
2.707158368908e+01 -2.586008467698e+02 0.0 
0.0 0.0 -1.104515292565e+02 
-1.069812870043e+02 2.640153375794e+01 0.0 
2.640153375794e+01 -2.444703690706e+02 0.0 
0.0 0.0 -1.050354968225e+02 
-1.242054913895e+02 2.140095249233e+01 0.0 
2.140095249233e+01 -3.101297674319e+02 0.0 
0.0 0.0 -1.299005776464e+02 
-1.196370697176e+02 1.945525033129e+01 0.0 
1.945525033129e+01 -3.039709436095e+02 0.0 
0.0 0.0 -1.266824039981e+02 
-4.269895923829e+01 -8.647055321372e-01 0.0 
-8.647055321372e-01 -1.181941246323e+02 0.0 
0.0 0.0 -4.786792516119e+01 
-3.672858747288e+01 2.114883028772e+01 0.0 
2.114883028772e+01 -6.978976610481e+01 0.0 
0.0 0.0 -3.155550607331e+01 
-9.205070329348e+01 9.098011078203e+00 0.0 
9.098011078203e+00 -1.926851734523e+02 0.0 
0.0 0.0 -8.502076302373e+01 
-5.323587907910e+01 1.829511592648e+01 0.0 
1.829511592648e+01 -7.802028411715e+01 0.0 
0.0 0.0 -3.897684895887e+01 
-1.356942017948e+02 9.059789139551e+00 0.0 
9.059789139551e+00 -3.368460246810e+02 0.0 
0.0 0.0 -1.413620679427e+02 
-1.306938190131e+02 7.660221570467e+00 0.0 
7.660221570467e+00 -3.278016188239e+02 0.0 
0.0 0.0 -1.371486313511e+02 
-2.209008542664e+01 -6.621333110742e-01 0.0 
-6.621333110742e-01 -4.264785547814e+01 0.0 
0.0 0.0 -1.902138227143e+01 
-2.314145644679e+01 -1.598706749307e+00 0.0 
-1.598706749307e+00 -5.083342180972e+01 0.0 
0.0 0.0 -2.179246347695e+01 
-8.630349480842e+01 2.603223915287e+00 0.0 
2.603223915287e+00 -1.864145507379e+02 0.0 
0.0 0.0 -8.141541366390e+01 
-2.827714032416e+01 1.555500767828e+01 0.0 
1.555500767828e+01 -6.089580037285e+01 0.0 
0.0 0.0 -2.635188220910e+01 
-2.949068621286e+01 1.687280369457e+01 0.0 
1.687280369457e+01 -6.265695310691e+01 0.0 
0.0 0.0 -2.724429179593e+01 
-2.689575908379e+01 1.398630581532e+01 0.0 
1.398630581532e+01 -5.856649663443e+01 0.0 
0.0 0.0 -2.523867671546e+01 
-1.506916248706e+02 6.949173453893e-01 0.0 
6.949173453893e-01 -3.615703137661e+02 0.0 
0.0 0.0 -1.532785815910e+02 
-3.640507429392e+01 1.668806194434e-02 0.0 
1.668806194434e-02 -5.517051769662e+01 0.0 
0.0 0.0 -2.707267759716e+01 
-1.399443244358e+02 1.940573134039e+00 0.0 
1.940573134039e+00 -3.418800661658e+02 0.0 
0.0 0.0 -1.441473171805e+02 
-4.948040304174e+01 2.262294526854e+01 0.0 
2.262294526854e+01 -1.068153686312e+02 0.0 
0.0 0.0 -4.648873150189e+01 
-8.986687020601e+01 3.591756817445e+00 0.0 
3.591756817445e+00 -1.963674826518e+02 0.0 
0.0 0.0 -8.547030585734e+01 
-8.450905549258e+01 1.863583850635e+01 0.0 
1.863583850635e+01 -2.288763139012e+02 0.0 
0.0 0.0 -9.361561081815e+01 
-4.669117894464e+01 1.751686462035e+01 0.0 
1.751686462035e+01 -1.309046437951e+02 0.0 
0.0 0.0 -5.287874682191e+01 
-1.137248361901e+02 1.110239563770e+01 0.0 
1.110239563770e+01 -2.980709383825e+02 0.0 
0.0 0.0 -1.231387323718e+02 
-8.247194885973e+01 1.735399709124e+00 0.0 
1.735399709124e+00 -1.754804720810e+02 0.0 
0.0 0.0 -7.698572628220e+01 
-8.958319378770e+01 2.016212895355e+00 0.0 
2.016212895355e+00 -1.978045991837e+02 0.0 
0.0 0.0 -8.581633789141e+01 
-5.528751550941e+01 2.250532231386e+00 0.0 
2.250532231386e+00 -9.034739276859e+01 0.0 
0.0 0.0 -4.329047248340e+01 
-5.004765930020e+01 1.457879773193e+00 0.0 
1.457879773193e+00 -8.035606838120e+01 0.0 
0.0 0.0 -3.872111830442e+01 
-6.011404767613e+01 3.443593542617e+00 0.0 
3.443593542617e+00 -9.950010439166e+01 0.0 
0.0 0.0 -4.748424562034e+01 
-2.549589630367e+01 4.101404753597e+00 0.0 
4.101404753597e+00 -6.739261485349e+01 0.0 
0.0 0.0 -2.746655334715e+01 
-2.238377980548e+01 4.115806006201e+00 0.0 
4.115806006201e+00 -4.846025352830e+01 0.0 
0.0 0.0 -2.085321000013e+01 
-8.339103404719e+01 4.402951790428e+00 0.0 
4.402951790428e+00 -1.737531272545e+02 0.0 
0.0 0.0 -7.674324839051e+01 
-5.084770700725e+01 -1.182718453009e+00 0.0 
-1.182718453009e+00 -1.412596837559e+02 0.0 
0.0 0.0 -5.723221722893e+01 
-5.484018724187e+01 -8.962501344114e-01 0.0 
-8.962501344114e-01 -1.519671246251e+02 0.0 
0.0 0.0 -6.164219356008e+01 
-3.282434398313e+01 -2.858581413636e+00 0.0 
-2.858581413636e+00 -9.075812747631e+01 0.0 
0.0 0.0 -3.667474143783e+01 
-3.883413048535e+01 -2.607117037108e+00 0.0 
-2.607117037108e+00 -1.101662961191e+02 0.0 
0.0 0.0 -4.430012798134e+01 
-8.143615979879e+01 5.597472988730e-01 0.0 
5.597472988730e-01 -2.213603114862e+02 0.0 
0.0 0.0 -9.043894138549e+01 
-7.737086885588e+01 4.438165428288e-01 0.0 
4.438165428288e-01 -2.126817545661e+02 0.0 
0.0 0.0 -8.661578702660e+01 
-9.133539434869e+01 2.463779163050e+01 0.0 
2.463779163050e+01 -2.052203274282e+02 0.0 
0.0 0.0 -8.856671653307e+01 
-9.497441077195e+01 2.469261947360e+01 0.0 
2.469261947360e+01 -2.092968779128e+02 0.0 
0.0 0.0 -9.088138660542e+01 
-8.344941022744e+01 2.390498353778e+01 0.0 
2.390498353778e+01 -1.978312829459e+02 0.0 
0.0 0.0 -8.398420795201e+01 
-9.447420175635e+01 8.464880105987e+00 0.0 
8.464880105987e+00 -2.605714726185e+02 0.0 
0.0 0.0 -1.061137023124e+02 
-8.573574527016e+01 7.203410771319e+00 0.0 
7.203410771319e+00 -2.421653003069e+02 0.0 
0.0 0.0 -9.797031367313e+01 
-8.094745070881e+01 7.610375848794e+00 0.0 
7.610375848794e+00 -2.321528440249e+02 0.0 
0.0 0.0 -9.353008842012e+01 
-9.032943978033e+01 7.018116287507e+00 0.0 
7.018116287507e+00 -1.925694714482e+02 0.0 
0.0 0.0 -8.446967336856e+01 
-9.374559516737e+01 6.558959229025e+00 0.0 
6.558959229025e+00 -2.059159429652e+02 0.0 
0.0 0.0 -8.949846143978e+01 
-5.049363989965e+01 -1.273640567926e-01 0.0 
-1.273640567926e-01 -1.517432073905e+02 0.0 
0.0 0.0 -6.027105418705e+01 
-4.696028177371e+01 2.525763761270e-02 0.0 
2.525763761270e-02 -1.427832382351e+02 0.0 
0.0 0.0 -5.652305600265e+01 
-5.118476735688e+01 -1.060940623205e+00 0.0 
-1.060940623205e+00 -1.504947728992e+02 0.0 
0.0 0.0 -6.010386207683e+01 
-9.563908126410e+01 1.088895977188e+01 0.0 
1.088895977188e+01 -2.031902782760e+02 0.0 
0.0 0.0 -8.924880786202e+01 
-1.449647639022e+02 2.720485457962e+00 0.0 
2.720485457962e+00 -3.516096031319e+02 0.0 
0.0 0.0 -1.485723101102e+02 
-1.402735550830e+02 3.377435681267e+00 0.0 
3.377435681267e+00 -3.431153139482e+02 0.0 
0.0 0.0 -1.446166607094e+02 
-1.948767706819e+01 -2.125706135779e+00 0.0 
-2.125706135779e+00 -4.792827667593e+01 0.0 
0.0 0.0 -1.982478612324e+01 
-2.292355086169e+01 -2.536366737871e+00 0.0 
-2.536366737871e+00 -5.869441540723e+01 0.0 
0.0 0.0 -2.408538988068e+01 
-2.429337955003e+01 1.028528634087e+01 0.0 
1.028528634087e+01 -5.216553394821e+01 0.0 
0.0 0.0 -2.253767404947e+01 
-2.302780992896e+01 8.222821599352e+00 0.0 
8.222821599352e+00 -4.794116985718e+01 0.0 
0.0 0.0 -2.089069393584e+01 
-9.881970782994e+01 1.627986212510e+01 0.0 
1.627986212510e+01 -2.065636669316e+02 0.0 
0.0 0.0 -9.121501242846e+01 
-9.747450179549e+01 1.705001965348e+01 0.0 
1.705001965348e+01 -1.987640289406e+02 0.0 
0.0 0.0 -8.847155922083e+01 
-1.010708773711e+02 1.573502433450e+01 0.0 
1.573502433450e+01 -2.173687405227e+02 0.0 
0.0 0.0 -9.513188536814e+01 
-3.831319910771e+01 -6.896036107420e-01 0.0 
-6.896036107420e-01 -1.056476405622e+02 0.0 
0.0 0.0 -4.278825190097e+01 
-9.719825540712e+01 2.120615575386e+01 0.0 
2.120615575386e+01 -2.518077813963e+02 0.0 
0.0 0.0 -1.043018110410e+02 
-1.340467627212e+02 1.359754792781e+01 0.0 
1.359754792781e+01 -3.337990054139e+02 0.0 
0.0 0.0 -1.399537304405e+02 
-1.279850265077e+02 1.416951827716e+01 0.0 
1.416951827716e+01 -3.234759733282e+02 0.0 
0.0 0.0 -1.350382999507e+02 
-1.412821091216e+02 1.314299088783e+01 0.0 
1.314299088783e+01 -3.462891459141e+02 0.0 
0.0 0.0 -1.458713765107e+02 
-1.123369276950e+02 2.217595047728e+01 0.0 
2.217595047728e+01 -2.843769810449e+02 0.0 
0.0 0.0 -1.186141726220e+02 
-1.220452473103e+02 2.348356182230e+01 0.0 
2.348356182230e+01 -3.023506302008e+02 0.0 
0.0 0.0 -1.269187632533e+02 
-1.199530265780e+02 2.520821499434e+01 0.0 
2.520821499434e+01 -2.933739995608e+02 0.0 
0.0 0.0 -1.235981078416e+02 
-2.064817204151e+01 2.782545666865e-01 0.0 
2.782545666865e-01 -3.427355527089e+01 0.0 
0.0 0.0 -1.607651819372e+01 
-8.708658266529e+01 1.364982545482e+00 0.0 
1.364982545482e+00 -1.905663628384e+02 0.0 
0.0 0.0 -8.289588365111e+01 
-4.925485608956e+01 9.456540678982e-01 0.0 
9.456540678982e-01 -8.160131914221e+01 0.0 
0.0 0.0 -3.885685256953e+01 
-2.072212580995e+01 -4.588859626098e-01 0.0 
-4.588859626098e-01 -2.728412813792e+01 0.0 
0.0 0.0 -1.414226697531e+01 
-4.498631403058e+01 5.277258592946e-01 0.0 
5.277258592946e-01 -7.267642227562e+01 0.0 
0.0 0.0 -3.489882089186e+01 
-4.933036292624e+01 6.930523449094e-01 0.0 
6.930523449094e-01 -8.402025925546e+01 0.0 
0.0 0.0 -3.960518665451e+01 
-4.029188913165e+01 2.617575594792e-01 0.0 
2.617575594792e-01 -6.260600242109e+01 0.0 
0.0 0.0 -3.046936746582e+01 
-3.131498854602e+01 -7.021893039936e-01 0.0 
-7.021893039936e-01 -8.617897934324e+01 0.0 
0.0 0.0 -3.484819036678e+01 
-4.990855482048e+01 1.988681984742e+00 0.0 
1.988681984742e+00 -7.625570646162e+01 0.0 
0.0 0.0 -3.744927838463e+01 
-5.664910986665e+01 3.517521168349e+00 0.0 
3.517521168349e+00 -8.901601463441e+01 0.0 
0.0 0.0 -4.329953735032e+01 
-1.648329960138e+01 -2.036359377881e+00 0.0 
-2.036359377881e+00 -3.621731315278e+01 0.0 
0.0 0.0 -1.552079708502e+01 
-9.729479474517e+01 1.013756555798e+01 0.0 
1.013756555798e+01 -2.130439524262e+02 0.0 
0.0 0.0 -9.270162415140e+01 
-1.562554382969e+01 -1.651294262841e+00 0.0 
-1.651294262841e+00 -3.766358397044e+01 0.0 
0.0 0.0 -1.558530748289e+01 
-1.801400586117e+01 -1.593485127804e+00 0.0 
-1.593485127804e+00 -4.562249960472e+01 0.0 
0.0 0.0 -1.869095163977e+01 
-1.410961435516e+02 8.459760183059e+00 0.0 
8.459760183059e+00 -3.461846283219e+02 0.0 
0.0 0.0 -1.457842315620e+02 
-1.358706780343e+02 7.134060093235e+00 0.0 
7.134060093235e+00 -3.367585104370e+02 0.0 
0.0 0.0 -1.413887565414e+02 
-1.459923900073e+02 7.855160631887e+00 0.0 
7.855160631887e+00 -3.545504701564e+02 0.0 
0.0 0.0 -1.497628580491e+02 
-1.407055481305e+02 6.540939472848e+00 0.0 
6.540939472848e+00 -3.449562832530e+02 0.0 
0.0 0.0 -1.452985494150e+02 
-1.308065473163e+02 5.933646631018e+00 0.0 
5.933646631018e+00 -3.271067796104e+02 0.0 
0.0 0.0 -1.369739980780e+02 
-1.359576253190e+02 5.441038358543e+00 0.0 
5.441038358543e+00 -3.361728295720e+02 0.0 
0.0 0.0 -1.412391364673e+02 
-4.492673768535e+01 8.029223102708e-01 0.0 
8.029223102708e-01 -7.047053065177e+01 0.0 
0.0 0.0 -3.421918050114e+01 
-1.473737722011e+02 6.132415375601e+00 0.0 
6.132415375601e+00 -3.564742967980e+02 0.0 
0.0 0.0 -1.507544206997e+02 
-1.412931157121e+02 4.881461988910e+00 0.0 
4.881461988910e+00 -3.453740240709e+02 0.0 
0.0 0.0 -1.456001419349e+02 
-1.524458149456e+02 5.427213384339e+00 0.0 
5.427213384339e+00 -3.657388925929e+02 0.0 
0.0 0.0 -1.550554122615e+02 
-3.871172403272e+01 2.019362837823e+01 0.0 
2.019362837823e+01 -5.283227678269e+01 0.0 
0.0 0.0 -2.706320024463e+01 
-3.303802607469e+01 1.741033992798e+01 0.0 
1.741033992798e+01 -8.030668911709e+01 0.0 
0.0 0.0 -3.360341455754e+01 
-3.084274735727e+01 1.806339652675e+01 0.0 
1.806339652675e+01 -6.444465474991e+01 0.0 
0.0 0.0 -2.818622063215e+01 
-2.798424837503e+01 1.766587208390e+01 0.0 
1.766587208390e+01 -4.529445741534e+01 0.0 
0.0 0.0 -2.158361173711e+01 
-1.152511745238e+02 2.798938266068e+01 0.0 
2.798938266068e+01 -2.662192595001e+02 0.0 
0.0 0.0 -1.140411302072e+02 
-1.094521697208e+02 2.660005730979e+01 0.0 
2.660005730979e+01 -2.479488606821e+02 0.0 
0.0 0.0 -1.068203091209e+02 
-1.250054752424e+02 1.069550637708e+00 0.0 
1.069550637708e+00 -3.131764939745e+02 0.0 
0.0 0.0 -1.310545907651e+02 
-1.155033409601e+02 8.659594456089e-01 0.0 
8.659594456089e-01 -2.940278646555e+02 0.0 
0.0 0.0 -1.224593616847e+02 
-4.460633355237e+01 3.184175044129e-01 0.0 
3.184175044129e-01 -7.379152804317e+01 0.0 
0.0 0.0 -3.511935847866e+01 
-4.388672937362e+01 2.589076453409e-01 0.0 
2.589076453409e-01 -7.274634390305e+01 0.0 
0.0 0.0 -3.458992198300e+01 
-5.129081107835e+01 3.958058302174e-01 0.0 
3.958058302174e-01 -9.063114026188e+01 0.0 
0.0 0.0 -4.217658540207e+01 
-5.002343655220e+01 3.745773033782e-01 0.0 
3.745773033782e-01 -8.821232383679e+01 0.0 
0.0 0.0 -4.107072811670e+01 
-5.726120169379e+01 5.379771367903e-01 0.0 
5.379771367903e-01 -1.062480452391e+02 0.0 
0.0 0.0 -4.865277407986e+01 
-5.603742583067e+01 4.664256337296e-01 0.0 
4.664256337296e-01 -1.035132182437e+02 0.0 
0.0 0.0 -4.746519322230e+01 
-6.328526256788e+01 8.716763773656e-01 0.0 
8.716763773656e-01 -1.219815676198e+02 0.0 
0.0 0.0 -5.518004905631e+01 
-1.235064754876e+02 2.698480322592e+01 0.0 
2.698480322592e+01 -2.976599245627e+02 0.0 
0.0 0.0 -1.259499200151e+02 
-2.618554338419e+01 1.558198923070e+01 0.0 
1.558198923070e+01 -4.408071617106e+01 0.0 
0.0 0.0 -2.067987786658e+01 
-4.508257351705e+01 1.702186099200e+01 0.0 
1.702186099200e+01 -5.644429908698e+01 0.0 
0.0 0.0 -3.005806178121e+01 
-1.300650568521e+02 2.091369476132e+01 0.0 
2.091369476132e+01 -3.220113775898e+02 0.0 
0.0 0.0 -1.352229303326e+02 
-1.246404588499e+02 1.882809748523e+01 0.0 
1.882809748523e+01 -3.142519875655e+02 0.0 
0.0 0.0 -1.312677339246e+02 
-3.920889619927e+01 2.163281041813e+01 0.0 
2.163281041813e+01 -7.049901496012e+01 0.0 
0.0 0.0 -3.251237334781e+01 
-3.335177258953e+01 2.042604431859e+01 0.0 
2.042604431859e+01 -5.149860915517e+01 0.0 
0.0 0.0 -2.505511452341e+01 
-1.423052734547e+02 1.063954973428e+01 0.0 
1.063954973428e+01 -3.484545010816e+02 0.0 
0.0 0.0 -1.468279323609e+02 
-4.113191919035e+01 1.365185740513e+01 0.0 
1.365185740513e+01 -1.227094984928e+02 0.0 
0.0 0.0 -4.875242530495e+01 
-1.011413975572e+02 1.225731174947e+01 0.0 
1.225731174947e+01 -2.266480619920e+02 0.0 
0.0 0.0 -9.793683786476e+01 
-1.817636188329e+01 3.801407806415e+00 0.0 
3.801407806415e+00 -1.348079042697e+01 0.0 
0.0 0.0 -9.458851272178e+00 
-2.021263619530e+01 3.380561570640e+00 0.0 
3.380561570640e+00 -2.958870274564e+01 0.0 
0.0 0.0 -1.465269633712e+01 
-4.371058066717e+01 1.562582396484e+01 0.0 
1.562582396484e+01 -1.267845758423e+02 0.0 
0.0 0.0 -5.074854695285e+01 
-4.599977098501e+01 2.244496835459e+01 0.0 
2.244496835459e+01 -8.953367477683e+01 0.0 
0.0 0.0 -4.026003372855e+01 
-3.500832801242e+01 1.875295865673e+01 0.0 
1.875295865673e+01 -8.244849937632e+01 0.0 
0.0 0.0 -3.483704821662e+01 
-3.276827274489e+01 1.939981438204e+01 0.0 
1.939981438204e+01 -6.691149625232e+01 0.0 
0.0 0.0 -2.950393069916e+01 
-1.037740552748e+02 9.769585445981e+00 0.0 
9.769585445981e+00 -2.792237727042e+02 0.0 
0.0 0.0 -1.144993483937e+02 
-2.121621481271e+01 -2.625038760445e+00 0.0 
-2.625038760445e+00 -5.097149802989e+01 0.0 
0.0 0.0 -2.125631385278e+01 
-2.566286917053e+01 1.226152795075e+01 0.0 
1.226152795075e+01 -5.582071050438e+01 0.0 
0.0 0.0 -2.404507390248e+01 
-6.457911541156e+01 1.048746890728e+00 0.0 
1.048746890728e+00 -1.242629440227e+02 0.0 
0.0 0.0 -5.625261783027e+01 
-2.397103073956e+01 1.267053843767e+01 0.0 
1.267053843767e+01 -3.997294631111e+01 0.0 
0.0 0.0 -1.878319311520e+01 
-1.206029650007e+02 4.774673250476e-01 0.0 
4.774673250476e-01 -3.041557921740e+02 0.0 
0.0 0.0 -1.270276271524e+02 
-4.455318806128e+01 1.239569382088e+01 0.0 
1.239569382088e+01 -1.359577481687e+02 0.0 
0.0 0.0 -5.375328086898e+01 
-5.295964563738e+01 2.238908248429e+01 0.0 
2.238908248429e+01 -1.234542947997e+02 0.0 
0.0 0.0 -5.252418213112e+01 
-2.816766980735e+01 1.221662266865e+01 0.0 
1.221662266865e+01 -7.198916728650e+01 0.0 
0.0 0.0 -2.964705112816e+01 
-3.567203243143e+01 1.634199405397e+01 0.0 
1.634199405397e+01 -9.570932386512e+01 0.0 
0.0 0.0 -3.901440688896e+01 
-6.907836148478e+01 1.982951789388e+01 0.0 
1.982951789388e+01 -1.207447078608e+02 0.0 
0.0 0.0 -5.654692080367e+01 
-6.047131774041e+01 1.424662685782e+01 0.0 
1.424662685782e+01 -8.912560568863e+01 0.0 
0.0 0.0 -4.447907702871e+01 
-5.702803609657e+01 1.619518529614e+01 0.0 
1.619518529614e+01 -8.299446089475e+01 0.0 
0.0 0.0 -4.160674909739e+01 
-4.813926150657e+01 1.116120708504e+01 0.0 
1.116120708504e+01 -1.484737690954e+02 0.0 
0.0 0.0 -5.858390918058e+01 
-3.448625746657e+01 2.030688124681e+01 0.0 
2.030688124681e+01 -6.841849088840e+01 0.0 
0.0 0.0 -3.047142450649e+01 
-2.994978970878e+01 1.924464835200e+01 0.0 
1.924464835200e+01 -4.775709022317e+01 0.0 
0.0 0.0 -2.291206397958e+01 
-6.465245301350e+01 2.316373145524e+01 0.0 
2.316373145524e+01 -1.303087836815e+02 0.0 
0.0 0.0 -5.808837100851e+01 
-9.143049941388e+01 1.536720603202e+01 0.0 
1.536720603202e+01 -1.773831742332e+02 0.0 
0.0 0.0 -8.024410209413e+01 
-9.532614540343e+01 1.765194710372e+01 0.0 
1.765194710372e+01 -1.904956948929e+02 0.0 
0.0 0.0 -8.534655208891e+01 
-1.009410609134e+02 1.922512185240e+01 0.0 
1.922512185240e+01 -2.112031170531e+02 0.0 
0.0 0.0 -9.324325338995e+01 
-9.921518260923e+01 1.987907680055e+01 0.0 
1.987907680055e+01 -2.041799334770e+02 0.0 
0.0 0.0 -9.061853482587e+01 
-9.312695399202e+01 1.844268490485e+01 0.0 
1.844268490485e+01 -1.829980201219e+02 0.0 
0.0 0.0 -8.243749223418e+01 
-9.700937760428e+01 2.060660501300e+01 0.0 
2.060660501300e+01 -1.971380617781e+02 0.0 
0.0 0.0 -8.784423181473e+01 
-1.028084477506e+02 2.189479900445e+01 0.0 
2.189479900445e+01 -2.180359224964e+02 0.0 
0.0 0.0 -9.585331107408e+01 
-1.010858355444e+02 2.257135410088e+01 0.0 
2.257135410088e+01 -2.123485429812e+02 0.0 
0.0 0.0 -9.363031355770e+01 
-1.079791224728e+02 2.432749939118e+01 0.0 
2.432749939118e+01 -2.365468107807e+02 0.0 
0.0 0.0 -1.029577799760e+02 
-1.048456473850e+02 2.442248396283e+01 0.0 
2.442248396283e+01 -2.272221955168e+02 0.0 
0.0 0.0 -9.922035287053e+01 
-9.803064196760e+01 2.303061130343e+01 0.0 
2.303061130343e+01 -2.055869887741e+02 0.0 
0.0 0.0 -9.068528922251e+01 
-1.016021904678e+02 2.446483185306e+01 0.0 
2.446483185306e+01 -2.201343134666e+02 0.0 
0.0 0.0 -9.612095118033e+01 
-1.081763102546e+02 2.587432784992e+01 0.0 
2.587432784992e+01 -2.401022761439e+02 0.0 
0.0 0.0 -1.040835759196e+02 
-9.474068921486e+01 2.349536140521e+01 0.0 
2.349536140521e+01 -1.993081874339e+02 0.0 
0.0 0.0 -8.781466299464e+01 
-1.347566910754e+02 2.286428036946e+01 0.0 
2.286428036946e+01 -3.279111355633e+02 0.0 
0.0 0.0 -1.384003479916e+02 
-5.007800791547e+01 1.633506485088e+01 0.0 
1.633506485088e+01 -1.446577546327e+02 0.0 
0.0 0.0 -5.802072876444e+01 
-2.186644400374e+01 1.791247856296e+00 0.0 
1.791247856296e+00 -4.242303579311e+01 0.0 
0.0 0.0 -1.888684393905e+01 
-2.105066927327e+01 5.528160497702e+00 0.0 
5.528160497702e+00 -3.622367142308e+01 0.0 
0.0 0.0 -1.678230220890e+01 
-5.665067143360e+01 2.306017213606e+01 0.0 
2.306017213606e+01 -1.255727826717e+02 0.0 
0.0 0.0 -5.426703623160e+01 
-1.122190195999e+02 2.528531576985e+01 0.0 
2.528531576985e+01 -2.543039777858e+02 0.0 
0.0 0.0 -1.095568992157e+02 
-1.085640796718e+02 2.153691012091e+01 0.0 
2.153691012091e+01 -2.439205206497e+02 0.0 
0.0 0.0 -1.053453800964e+02 
-3.684235551463e+01 9.466825385511e+00 0.0 
9.466825385511e+00 -1.137682470592e+02 0.0 
0.0 0.0 -4.478318077215e+01 
-1.237194555697e+02 3.004154595984e+01 0.0 
3.004154595984e+01 -2.887408459354e+02 0.0 
0.0 0.0 -1.233380904515e+02 
-6.133460710008e+01 1.914494490368e+01 0.0 
1.914494490368e+01 -9.950003877375e+01 0.0 
0.0 0.0 -4.785039376215e+01 
-2.898358849090e+01 4.570332463260e+00 0.0 
4.570332463260e+00 -8.469988577630e+01 0.0 
0.0 0.0 -3.370504228016e+01 
-1.285825589239e+02 2.984787003216e+01 0.0 
2.984787003216e+01 -3.032772218843e+02 0.0 
0.0 0.0 -1.291579342425e+02 
-8.913462765251e+01 1.612910247594e+01 0.0 
1.612910247594e+01 -1.691983341846e+02 0.0 
0.0 0.0 -7.709988855113e+01 
-8.648125082167e+01 1.703539496408e+01 0.0 
1.703539496408e+01 -1.612795056771e+02 0.0 
0.0 0.0 -7.392822694963e+01 
-8.230678721325e+01 1.459365133847e+01 0.0 
1.459365133847e+01 -1.476096299925e+02 0.0 
0.0 0.0 -6.857492516173e+01 
-1.057899201513e+02 1.803746116711e+01 0.0 
1.803746116711e+01 -2.375934840922e+02 0.0 
0.0 0.0 -1.026150212730e+02 
-6.530540640361e+01 4.990320244121e+00 0.0 
4.990320244121e+00 -1.097264269619e+02 0.0 
0.0 0.0 -5.210955000965e+01 
-1.378934404239e+02 2.665910435038e+01 0.0 
2.665910435038e+01 -3.290977208606e+02 0.0 
0.0 0.0 -1.396973483853e+02 
-8.206659577700e+01 1.436878200631e+01 0.0 
1.436878200631e+01 -2.313680729290e+02 0.0 
0.0 0.0 -9.363040061180e+01 
-7.724975439093e+01 1.511559319514e+01 0.0 
1.511559319514e+01 -2.189804818361e+02 0.0 
0.0 0.0 -8.846907086812e+01 
-6.922843798524e+01 1.406478965381e+01 0.0 
1.406478965381e+01 -2.011335932803e+02 0.0 
0.0 0.0 -8.070860937965e+01 
-9.427885589844e+01 2.127708181465e+01 0.0 
2.127708181465e+01 -1.903795268553e+02 0.0 
0.0 0.0 -8.499751482612e+01 
-1.448870006024e+02 2.084374215482e+01 0.0 
2.084374215482e+01 -3.479383734282e+02 0.0 
0.0 0.0 -1.474476122092e+02 
-1.363928253117e+02 1.876372345098e+01 0.0 
1.876372345098e+01 -3.353806889434e+02 0.0 
0.0 0.0 -1.411320542765e+02 
-1.379848424359e+02 1.745611170618e+01 0.0 
1.745611170618e+01 -3.388040443260e+02 0.0 
0.0 0.0 -1.426366660286e+02 
-1.273798085320e+02 1.671420534965e+01 0.0 
1.671420534965e+01 -3.210640182224e+02 0.0 
0.0 0.0 -1.341331480263e+02 
-1.481691428407e+02 1.783682762554e+01 0.0 
1.783682762554e+01 -3.554078541682e+02 0.0 
0.0 0.0 -1.506730991027e+02 
-1.171129457746e+02 2.813702632515e+01 0.0 
2.813702632515e+01 -2.686655940896e+02 0.0 
0.0 0.0 -1.153335619593e+02 
-1.194440592613e+02 2.915059436806e+01 0.0 
2.915059436806e+01 -2.759077521555e+02 0.0 
0.0 0.0 -1.182055434250e+02 
-4.120268160037e+01 -8.995813720543e-01 0.0 
-8.995813720543e-01 -1.243583086255e+02 0.0 
0.0 0.0 -4.926829706776e+01 
-4.355217206182e+01 3.315681063462e-01 0.0 
3.315681063462e-01 -1.337045125793e+02 0.0 
0.0 0.0 -5.277700539235e+01 
-4.944432252254e+01 1.347880538767e+00 0.0 
1.347880538767e+00 -1.517950851311e+02 0.0 
0.0 0.0 -5.997182229610e+01 
-4.586061311407e+01 1.771005602405e+00 0.0 
1.771005602405e+00 -1.423731928697e+02 0.0 
0.0 0.0 -5.607014179512e+01 
-4.022414926000e+01 7.802311943537e-01 0.0 
7.802311943537e-01 -1.242619152956e+02 0.0 
0.0 0.0 -4.894581936669e+01 
-4.238711015300e+01 2.322037709179e+00 0.0 
2.322037709179e+00 -1.326444215861e+02 0.0 
0.0 0.0 -5.210945952173e+01 
-4.817677062558e+01 3.390897705563e+00 0.0 
3.390897705563e+00 -1.504533220025e+02 0.0 
0.0 0.0 -5.918902778844e+01 
-3.904325341696e+01 3.056025569694e+00 0.0 
3.056025569694e+00 -1.226303711387e+02 0.0 
0.0 0.0 -4.810208736669e+01 
-1.024647555625e+02 2.553878267939e+01 0.0 
2.553878267939e+01 -2.290285665040e+02 0.0 
0.0 0.0 -9.904799661995e+01 
-1.510829928918e+02 1.488949180259e+01 0.0 
1.488949180259e+01 -3.616801548168e+02 0.0 
0.0 0.0 -1.534289443126e+02 
-9.199259635403e+01 5.227616929126e+00 0.0 
5.227616929126e+00 -2.532967501526e+02 0.0 
0.0 0.0 -1.031868039520e+02 
-8.706628272649e+01 5.426258490098e+00 0.0 
5.426258490098e+00 -2.435785452560e+02 0.0 
0.0 0.0 -9.879344839476e+01 
-7.882746410141e+01 4.223241805483e+00 0.0 
4.223241805483e+00 -2.250549922387e+02 0.0 
0.0 0.0 -9.076473690202e+01 
-6.959514558495e+01 -2.090468291870e-01 0.0 
-2.090468291870e-01 -1.933894258182e+02 0.0 
0.0 0.0 -7.849537142095e+01 
-7.332205291805e+01 3.033698951986e-01 0.0 
3.033698951986e-01 -2.039229043651e+02 0.0 
0.0 0.0 -8.277348718496e+01 
-8.122972066842e+01 1.062415056096e+00 0.0 
1.062415056096e+00 -2.230876717146e+02 0.0 
0.0 0.0 -9.089521771492e+01 
-6.581280371793e+01 -5.667883381657e-01 0.0 
-5.667883381657e-01 -1.826724339734e+02 0.0 
0.0 0.0 -7.414557130741e+01 
-8.777173213289e+01 2.220622139749e+01 0.0 
2.220622139749e+01 -2.239193041679e+02 0.0 
0.0 0.0 -9.310731089023e+01 
-1.521298109874e+02 1.356598886977e+01 0.0 
1.356598886977e+01 -3.638131548124e+02 0.0 
0.0 0.0 -1.543828897400e+02 
-8.450301006458e+01 9.354057739885e+00 0.0 
9.354057739885e+00 -2.400360340330e+02 0.0 
0.0 0.0 -9.696171322927e+01 
-6.928692308258e+01 1.430464103543e-01 0.0 
1.430464103543e-01 -1.950811226559e+02 0.0 
0.0 0.0 -7.891041372156e+01 
-4.355441460031e+01 2.426493616710e+00 0.0 
2.426493616710e+00 -5.787570388352e+01 0.0 
0.0 0.0 -3.002903554515e+01 
-5.332292193583e+01 4.570554669510e+00 0.0 
4.570554669510e+00 -7.649097831850e+01 0.0 
0.0 0.0 -3.854417007630e+01 
-5.565142640114e+01 6.530517039829e+00 0.0 
6.530517039829e+00 -7.844142184746e+01 0.0 
0.0 0.0 -3.982785447458e+01 
-6.348053406298e+01 7.499910860622e+00 0.0 
7.499910860622e+00 -9.769775934439e+01 0.0 
0.0 0.0 -4.795348802221e+01 
-5.246877979384e+01 3.583729485259e+00 0.0 
3.583729485259e+00 -7.721752335179e+01 0.0 
0.0 0.0 -3.850589094369e+01 
-8.547483922676e+01 6.431092304307e-01 0.0 
6.431092304307e-01 -2.300146974352e+02 0.0 
0.0 0.0 -9.424686099859e+01 
-8.949273897281e+01 6.685143470544e-01 0.0 
6.685143470544e-01 -2.386127203600e+02 0.0 
0.0 0.0 -9.803163779983e+01 
-8.524802273037e+01 3.074805364464e-01 0.0 
3.074805364464e-01 -2.281574541927e+02 0.0 
0.0 0.0 -9.362164307693e+01 
-9.352376739873e+01 6.315665290748e-01 0.0 
6.315665290748e-01 -2.471445623980e+02 0.0 
0.0 0.0 -1.018004989390e+02 
-8.897757007339e+01 3.431983174410e-01 0.0 
3.431983174410e-01 -2.362549798861e+02 0.0 
0.0 0.0 -9.716976498785e+01 
-8.147548861884e+01 1.376798300503e-01 0.0 
1.376798300503e-01 -2.185690799043e+02 0.0 
0.0 0.0 -8.961337055694e+01 
-9.741612448623e+01 5.364171888352e-01 0.0 
5.364171888352e-01 -2.552756764950e+02 0.0 
0.0 0.0 -1.054075402944e+02 
-9.208652421884e+01 1.850785020207e-01 0.0 
1.850785020207e-01 -2.430826100813e+02 0.0 
0.0 0.0 -1.001507402900e+02 
-4.094239220437e+01 1.067390082924e+00 0.0 
1.067390082924e+00 -5.668169858359e+01 0.0 
0.0 0.0 -2.888722723639e+01 
-1.807388346158e+01 -1.293961418172e+00 0.0 
-1.293961418172e+00 -1.714212806755e+01 0.0 
0.0 0.0 -1.055466326494e+01 
-1.992228514889e+01 -2.219395318056e+00 0.0 
-2.219395318056e+00 -3.379892914573e+01 0.0 
0.0 0.0 -1.584430711389e+01 
-1.925059354199e+01 -2.252658368690e+00 0.0 
-2.252658368690e+00 -3.347846033455e+01 0.0 
0.0 0.0 -1.554726562614e+01 
-2.254602471341e+01 -2.687948488461e+00 0.0 
-2.687948488461e+00 -4.931935496237e+01 0.0 
0.0 0.0 -2.115961390273e+01 
-2.286315507467e+01 -2.353726399690e+00 0.0 
-2.353726399690e+00 -5.028802024382e+01 0.0 
0.0 0.0 -2.154535259555e+01 
-2.637528032781e+01 -2.524402541064e+00 0.0 
-2.524402541064e+00 -6.725421393657e+01 0.0 
0.0 0.0 -2.768884827931e+01 
-2.582230145878e+01 -1.926248431063e+00 0.0 
-1.926248431063e+00 -6.444175167940e+01 0.0 
0.0 0.0 -2.667921594146e+01 
-2.047122699228e+01 -1.852879396395e+00 0.0 
-1.852879396395e+00 -3.366999306645e+01 0.0 
0.0 0.0 -1.598279236801e+01 
-1.552701520084e+01 -1.397611023167e+00 0.0 
-1.397611023167e+00 -1.699919520472e+01 0.0 
0.0 0.0 -9.748569024924e+00 
-1.829238211237e+01 -2.285206646412e+00 0.0 
-2.285206646412e+00 -3.351416267124e+01 0.0 
0.0 0.0 -1.527872378279e+01 
-1.411136255621e+01 -1.355988192484e+00 0.0 
-1.355988192484e+00 -1.684544374395e+01 0.0 
0.0 0.0 -9.282243215189e+00 
-1.731960802117e+01 -2.251127236650e+00 0.0 
-2.251127236650e+00 -3.308292083447e+01 0.0 
0.0 0.0 -1.485560810042e+01 
-2.226563482308e+01 -2.833750752014e+00 0.0 
-2.833750752014e+00 -5.198632101495e+01 0.0 
0.0 0.0 -2.187558675141e+01 
-2.918106507371e+01 -2.743270073517e+00 0.0 
-2.743270073517e+00 -7.888494001877e+01 0.0 
0.0 0.0 -3.201980152774e+01 
-1.559820449320e+02 3.020488830481e+00 0.0 
3.020488830481e+00 -3.714108782399e+02 0.0 
0.0 0.0 -1.578178769516e+02 
-6.943626397518e+01 -1.266220012694e-01 0.0 
-1.266220012694e-01 -1.886980918673e+02 0.0 
0.0 0.0 -7.704030675274e+01 
-6.556395780742e+01 -3.597442995172e-01 0.0 
-3.597442995172e-01 -1.792073712397e+02 0.0 
0.0 0.0 -7.303139871413e+01 
-5.841320398750e+01 -4.864768465100e-01 0.0 
-4.864768465100e-01 -1.602403297701e+02 0.0 
0.0 0.0 -6.519606012729e+01 
-6.213435478089e+01 -4.949524852403e-01 0.0 
-4.949524852403e-01 -1.704648680355e+02 0.0 
0.0 0.0 -6.937976684492e+01 
-7.233249325427e+01 -2.249170943417e-01 0.0 
-2.249170943417e-01 -1.964596592973e+02 0.0 
0.0 0.0 -8.023764576549e+01 
-5.452014741272e+01 -3.010369449961e-01 0.0 
-3.010369449961e-01 -1.497731578916e+02 0.0 
0.0 0.0 -6.088799159128e+01 
-5.188371678174e+01 -6.023148161005e-01 0.0 
-6.023148161005e-01 -1.427224136917e+02 0.0 
0.0 0.0 -5.798183914202e+01 
-6.236175432438e+00 -2.836682442479e-01 0.0 
-2.836682442479e-01 -1.721038808204e+01 0.0 
0.0 0.0 -7.021856384097e+00 
-1.209501761419e+01 -4.059778596792e-01 0.0 
-4.059778596792e-01 -3.383722207183e+01 0.0 
0.0 0.0 -1.348363217889e+01 
-1.142757385253e+01 -3.497828462446e-01 0.0 
-3.497828462446e-01 -3.218200268914e+01 0.0 
0.0 0.0 -1.271733975022e+01 
-1.807251886460e+01 -4.878529655281e-01 0.0 
-4.878529655281e-01 -5.066779818010e+01 0.0 
0.0 0.0 -2.022209511341e+01 
-1.832793031786e+01 -7.056562306080e-01 0.0 
-7.056562306080e-01 -5.032116620675e+01 0.0 
0.0 0.0 -2.019472895738e+01 
-1.259227826368e+01 -6.770365422915e-01 0.0 
-6.770365422915e-01 -3.414785171000e+01 0.0 
0.0 0.0 -1.374922054115e+01 
-1.286664435633e+01 -9.297931495849e-01 0.0 
-9.297931495849e-01 -3.414288263920e+01 0.0 
0.0 0.0 -1.383651218861e+01 
-7.129816620501e+00 -5.632530131295e-01 0.0 
-5.632530131295e-01 -1.707330339085e+01 0.0 
0.0 0.0 -7.255514608054e+00 
-1.319104313894e+01 -1.062378187558e+00 0.0 
-1.062378187558e+00 -3.400077684151e+01 0.0 
0.0 0.0 -1.391891086921e+01 
-1.903950605701e+01 -1.310152767298e+00 0.0 
-1.310152767298e+00 -5.111802214476e+01 0.0 
0.0 0.0 -2.064725846053e+01 
-7.613685618019e+00 -6.631768646120e-01 0.0 
-6.631768646120e-01 -1.648804088796e+01 0.0 
0.0 0.0 -7.242254971757e+00 
-7.265094043236e+01 5.644759433210e-01 0.0 
5.644759433210e-01 -1.483792407650e+02 0.0 
0.0 0.0 -6.590905435920e+01 
-7.648051808239e+01 1.099702831242e+00 0.0 
1.099702831242e+00 -1.592839958638e+02 0.0 
0.0 0.0 -7.032935418385e+01 
-1.532789950497e+02 1.088212471222e+01 0.0 
1.088212471222e+01 -3.665212340862e+02 0.0 
0.0 0.0 -1.555400687408e+02 
-4.015639887483e+01 6.050632578445e-01 0.0 
6.050632578445e-01 -5.844405547138e+01 0.0 
0.0 0.0 -2.918013630386e+01 
-1.173311750592e+01 -1.152324632767e+00 0.0 
-1.152324632767e+00 -1.713208919913e+01 0.0 
0.0 0.0 -8.643725655354e+00 
-9.677101333726e+01 4.186707122901e+00 0.0 
4.186707122901e+00 -2.200531062248e+02 0.0 
0.0 0.0 -9.464723586861e+01 
-9.931791283748e+01 7.907292679597e+00 0.0 
7.907292679597e+00 -2.251705237722e+02 0.0 
0.0 0.0 -9.694653098290e+01 
-9.879837774482e+01 6.578059620411e+00 0.0 
6.578059620411e+00 -2.247545457585e+02 0.0 
0.0 0.0 -9.666587705100e+01 
-1.403943455746e+02 6.229332322604e-01 0.0 
6.229332322604e-01 -3.426928228827e+02 0.0 
0.0 0.0 -1.445261505372e+02 
-1.453796982258e+02 1.338368672751e+00 0.0 
1.338368672751e+00 -3.519785810726e+02 0.0 
0.0 0.0 -1.488074837895e+02 
-9.634527636648e+01 2.307682977879e+00 0.0 
2.307682977879e+00 -2.201300781665e+02 0.0 
0.0 0.0 -9.454260635990e+01 
-4.460251835435e+01 -2.142665213441e+00 0.0 
-2.142665213441e+00 -1.261578100243e+02 0.0 
0.0 0.0 -5.082809851359e+01 
-1.050460009365e+02 2.144716096512e+01 0.0 
2.144716096512e+01 -2.247924335098e+02 0.0 
0.0 0.0 -9.855153033390e+01 
-8.634085237825e+01 4.030262455023e+00 0.0 
4.030262455023e+00 -1.846959997317e+02 0.0 
0.0 0.0 -8.091105563299e+01 
-2.702769882074e+01 6.193629016924e+00 0.0 
6.193629016924e+00 -7.437079999198e+01 0.0 
0.0 0.0 -3.001954964382e+01 
-4.205277593974e+01 -2.309884565141e+00 0.0 
-2.309884565141e+00 -1.213061659271e+02 0.0 
0.0 0.0 -4.860768256006e+01 
-1.110369576114e+02 1.191323847726e+00 0.0 
1.191323847726e+00 -2.850859230604e+02 0.0 
0.0 0.0 -1.184368642015e+02 
-9.799842805169e+01 2.608745909696e+00 0.0 
2.608745909696e+00 -2.609992228318e+02 0.0 
0.0 0.0 -1.072992952651e+02 
-1.304084855314e+02 2.971011430738e+00 0.0 
2.971011430738e+00 -3.246171486976e+02 0.0 
0.0 0.0 -1.361076902687e+02 
-1.023965284560e+02 1.623229445226e+00 0.0 
1.623229445226e+00 -2.679369849810e+02 0.0 
0.0 0.0 -1.107000540311e+02 
-1.210594833998e+02 3.792031947160e+00 0.0 
3.792031947160e+00 -3.074791238741e+02 0.0 
0.0 0.0 -1.281615821822e+02 
-1.387132171688e+02 1.566592742171e+01 0.0 
1.566592742171e+01 -3.411725477565e+02 0.0 
0.0 0.0 -1.435657294776e+02 
-2.909500618161e+01 -9.618003669353e-01 0.0 
-9.618003669353e-01 -7.956554085516e+01 0.0 
0.0 0.0 -3.219816411103e+01 
-6.241354325977e+01 2.559942933979e+00 0.0 
2.559942933979e+00 -1.115823391071e+02 0.0 
0.0 0.0 -5.179876471007e+01 
-5.750475423015e+01 1.229239498230e+00 0.0 
1.229239498230e+00 -1.040342590070e+02 0.0 
0.0 0.0 -4.806170397114e+01 
-7.660868487588e+01 3.557974291313e+00 0.0 
3.557974291313e+00 -1.534898830337e+02 0.0 
0.0 0.0 -6.862957037289e+01 
-4.746684263612e+01 -1.507352321885e+00 0.0 
-1.507352321885e+00 -1.324330734525e+02 0.0 
0.0 0.0 -5.356997482659e+01 
-7.748939973932e+01 4.903295848721e-02 0.0 
4.903295848721e-02 -2.095767036758e+02 0.0 
0.0 0.0 -8.571983102453e+01 
-3.071912406130e+01 -2.112979852491e+00 0.0 
-2.112979852491e+00 -8.438151062889e+01 0.0 
0.0 0.0 -3.413019040706e+01 
-1.204293940392e+02 2.829600814655e+01 0.0 
2.829600814655e+01 -2.845994633410e+02 0.0 
0.0 0.0 -1.211086572141e+02 
-5.700874826117e+01 2.286733207968e+01 0.0 
2.286733207968e+01 -1.106100177506e+02 0.0 
0.0 0.0 -4.988562980354e+01 
-7.545211198543e+01 2.927798805603e+00 0.0 
2.927798805603e+00 -2.159158189296e+02 0.0 
0.0 0.0 -8.701037927450e+01 
-6.210359835312e+01 -8.205227943442e-01 0.0 
-8.205227943442e-01 -1.739308436873e+02 0.0 
0.0 0.0 -7.041033261212e+01 
-4.805867411844e+01 -1.946354857013e+00 0.0 
-1.946354857013e+00 -1.372195426921e+02 0.0 
0.0 0.0 -5.518346504317e+01 
-3.909126659686e+01 -2.421141657161e+00 0.0 
-2.421141657161e+00 -1.129290627274e+02 0.0 
0.0 0.0 -4.520609879729e+01 
-5.328461654657e+01 1.816736019197e+01 0.0 
1.816736019197e+01 -1.485870775271e+02 0.0 
0.0 0.0 -6.016150822210e+01 
-7.282790429663e+01 8.773660723254e-01 0.0 
8.773660723254e-01 -2.053428679725e+02 0.0 
0.0 0.0 -8.305123168074e+01 
-1.110043692878e+02 5.820175847715e+00 0.0 
5.820175847715e+00 -2.906310118820e+02 0.0 
0.0 0.0 -1.200906143509e+02 
-7.975129000634e+01 3.358004893567e+00 0.0 
3.358004893567e+00 -1.644402355757e+02 0.0 
0.0 0.0 -7.285745767460e+01 
-1.022128533552e+01 -1.103255566176e+00 0.0 
-1.103255566176e+00 -1.908087920311e+01 0.0 
0.0 0.0 -8.675948192712e+00 
-1.155015617809e+02 7.141444607795e+00 0.0 
7.141444607795e+00 -3.000490339567e+02 0.0 
0.0 0.0 -1.242651787213e+02 
-8.894805321791e+01 2.745342229783e+00 0.0 
2.745342229783e+00 -2.432767798730e+02 0.0 
0.0 0.0 -9.926744992726e+01 
-6.854737767859e+01 4.965629980873e+00 0.0 
4.965629980873e+00 -1.203299546738e+02 0.0 
0.0 0.0 -5.626319970573e+01 
-1.053055395777e+02 1.618603126683e+01 0.0 
1.618603126683e+01 -2.794457278896e+02 0.0 
0.0 0.0 -1.150253802402e+02 
-2.905207227163e+01 -2.738240258606e+00 0.0 
-2.738240258606e+00 -7.745503446548e+01 0.0 
0.0 0.0 -3.155213202113e+01 
-8.166838210633e+01 6.176793992648e+00 0.0 
6.176793992648e+00 -1.619049975083e+02 0.0 
0.0 0.0 -7.267201388438e+01 
-9.664502524895e+01 1.327272458679e+01 0.0 
1.327272458679e+01 -2.031221245429e+02 0.0 
0.0 0.0 -8.953014493754e+01 
-6.209075337180e+01 5.228666677177e+00 0.0 
5.228666677177e+00 -9.932452774941e+01 0.0 
0.0 0.0 -4.802458433636e+01 
-2.421824872654e+01 -1.985039729264e+00 0.0 
-1.985039729264e+00 -6.474351450448e+01 0.0 
0.0 0.0 -2.628852896931e+01 
-5.395798735184e+01 1.553321567408e+00 0.0 
1.553321567408e+00 -9.127815304989e+01 0.0 
0.0 0.0 -4.317084212052e+01 
-1.354208841028e+02 1.120735642936e+01 0.0 
1.120735642936e+01 -3.364472165198e+02 0.0 
0.0 0.0 -1.411604301868e+02 
-8.723519403748e+01 1.306510185222e+01 0.0 
1.306510185222e+01 -1.647618133591e+02 0.0 
0.0 0.0 -7.519910221896e+01 
-4.371545253229e+01 -1.377828067894e+00 0.0 
-1.377828067894e+00 -1.213255399653e+02 0.0 
0.0 0.0 -4.911229774928e+01 
-7.167161571940e+01 8.672588977199e+00 0.0 
8.672588977199e+00 -2.114363552260e+02 0.0 
0.0 0.0 -8.453239128363e+01 
-5.650761693326e+01 2.187710792382e+01 0.0 
2.187710792382e+01 -1.394924939905e+02 0.0 
0.0 0.0 -5.840003327712e+01 
-4.270397519969e+01 9.886720309846e+00 0.0 
9.886720309846e+00 -4.531078680846e+01 0.0 
0.0 0.0 -2.600442860245e+01 
-8.947356153336e+01 5.085916993074e+00 0.0 
5.085916993074e+00 -1.936562348919e+02 0.0 
0.0 0.0 -8.453893892758e+01 
-6.830695891194e+01 1.685179530130e+01 0.0 
1.685179530130e+01 -1.932892498614e+02 0.0 
0.0 0.0 -7.807886263199e+01 
-1.164533158141e+02 1.511813640209e+01 0.0 
1.511813640209e+01 -3.020469019030e+02 0.0 
0.0 0.0 -1.251500653151e+02 
-8.819550290161e+01 1.117027876251e+01 0.0 
1.117027876251e+01 -2.475362874922e+02 0.0 
0.0 0.0 -1.003195371182e+02 
-4.700237420308e+01 -1.064879679262e+00 0.0 
-1.064879679262e+00 -1.301465559431e+02 0.0 
0.0 0.0 -5.274467904387e+01 
-1.257869746501e+02 6.376817786820e+00 0.0 
6.376817786820e+00 -3.183570746012e+02 0.0 
0.0 0.0 -1.328432147754e+02 
-6.598002027067e+01 1.211807800389e+01 0.0 
1.211807800389e+01 -1.955839268471e+02 0.0 
0.0 0.0 -7.806918413532e+01 
-8.823247603188e+01 7.416610344512e+00 0.0 
7.416610344512e+00 -1.825181471725e+02 0.0 
0.0 0.0 -8.082518696130e+01 
-9.151219181904e+01 2.446294541859e+01 0.0 
2.446294541859e+01 -2.168129704445e+02 0.0 
0.0 0.0 -9.209754867906e+01 
-5.308889126633e+01 7.055431722453e+00 0.0 
7.055431722453e+00 -1.651013217564e+02 0.0 
0.0 0.0 -6.505706390683e+01 
-8.741462324770e+01 9.928522019800e+00 0.0 
9.928522019800e+00 -1.720906462365e+02 0.0 
0.0 0.0 -7.745158084526e+01 
-7.424049940111e+01 4.440253031278e+00 0.0 
4.440253031278e+00 -2.154255453988e+02 0.0 
0.0 0.0 -8.649981343996e+01 
-1.095781791593e+02 1.805790223384e+01 0.0 
1.805790223384e+01 -2.858516556998e+02 0.0 
0.0 0.0 -1.182289504578e+02 
-5.311910481586e+01 2.296999782221e+01 0.0 
2.296999782221e+01 -1.085979799542e+02 0.0 
0.0 0.0 -4.811512543102e+01 
-7.552380851923e+01 2.348097409693e+01 0.0 
2.348097409693e+01 -1.790566331100e+02 0.0 
0.0 0.0 -7.597413248876e+01 
-8.384102135594e+01 2.328999798427e+01 0.0 
2.328999798427e+01 -1.736705345284e+02 0.0 
0.0 0.0 -7.685346676530e+01 
-7.153401841637e+01 2.091246673349e+01 0.0 
2.091246673349e+01 -1.875761314153e+02 0.0 
0.0 0.0 -7.733304494949e+01 
-1.062928730776e+02 6.191112899044e-01 0.0 
6.191112899044e-01 -2.747050283788e+02 0.0 
0.0 0.0 -1.138993704369e+02 
-1.206576382856e+02 6.773553891566e+00 0.0 
6.773553891566e+00 -3.092863346839e+02 0.0 
0.0 0.0 -1.285831918908e+02 
-2.808016347063e+01 -9.598037759347e-02 0.0 
-9.598037759347e-02 -7.874242063173e+01 0.0 
0.0 0.0 -3.164677523071e+01 
-4.081012444454e+01 1.691577829873e+01 0.0 
1.691577829873e+01 -1.133375861014e+02 0.0 
0.0 0.0 -4.584431316378e+01 
-7.057526534846e+01 6.884356440072e+00 0.0 
6.884356440072e+00 -1.204185532141e+02 0.0 
0.0 0.0 -5.689814556875e+01 
-1.088007456879e+02 2.531679379252e+01 0.0 
2.531679379252e+01 -2.649669593198e+02 0.0 
0.0 0.0 -1.117303115023e+02 
-9.426280971272e+01 8.472254811414e+00 0.0 
8.472254811414e+00 -2.030323009061e+02 0.0 
0.0 0.0 -8.878853318565e+01 
-4.952908896106e+01 2.140044521581e+01 0.0 
2.140044521581e+01 -1.213870007894e+02 0.0 
0.0 0.0 -5.087482692513e+01 
-1.209739686286e+02 5.191815756438e+00 0.0 
5.191815756438e+00 -3.086274240299e+02 0.0 
0.0 0.0 -1.284804177975e+02 
-9.319619689365e+01 1.134548553553e+01 0.0 
1.134548553553e+01 -1.924891157575e+02 0.0 
0.0 0.0 -8.530559379535e+01 
-7.701204626885e+01 9.699640233802e-01 0.0 
9.699640233802e-01 -2.142320314913e+02 0.0 
0.0 0.0 -8.697322332804e+01 
-3.297506285896e+01 -3.423058148642e-01 0.0 
-3.423058148642e-01 -9.128888824779e+01 0.0 
0.0 0.0 -3.687918533202e+01 
-2.432224963352e+01 6.136320212575e+00 0.0 
6.136320212575e+00 -5.812913404268e+01 0.0 
0.0 0.0 -2.433541510286e+01 
-4.108740083027e+01 4.951340751695e+00 0.0 
4.951340751695e+00 -1.299445428776e+02 0.0 
0.0 0.0 -5.090958311236e+01 
-6.491014729646e+01 1.500475721391e+01 0.0 
1.500475721391e+01 -1.885947687322e+02 0.0 
0.0 0.0 -7.565147480859e+01 
-8.507202986356e+01 1.828139808802e+00 0.0 
1.828139808802e+00 -2.332635701295e+02 0.0 
0.0 0.0 -9.510067999791e+01 
-1.033190076593e+02 1.891450819321e+01 0.0 
1.891450819321e+01 -2.222131827390e+02 0.0 
0.0 0.0 -9.725965711951e+01 
-1.259178042761e+02 4.811854154406e+00 0.0 
4.811854154406e+00 -3.174210262278e+02 0.0 
0.0 0.0 -1.326016491512e+02 
-1.093174335022e+02 9.423301356446e+00 0.0 
9.423301356446e+00 -2.896282211187e+02 0.0 
0.0 0.0 -1.192836963863e+02 
-2.165875568301e+01 1.185481064685e+01 0.0 
1.185481064685e+01 -2.212374502236e+01 0.0 
0.0 0.0 -1.273475021161e+01 
-4.862280240193e+01 1.462403106645e+01 0.0 
1.462403106645e+01 -6.107265898178e+01 0.0 
0.0 0.0 -3.250863841511e+01 
-1.308414720430e+02 4.379344818655e+00 0.0 
4.379344818655e+00 -3.261924393512e+02 0.0 
0.0 0.0 -1.367101734183e+02 
-7.626202362716e+01 8.097822923008e+00 0.0 
8.097822923008e+00 -2.219428430979e+02 0.0 
0.0 0.0 -8.906146001753e+01 
-1.149757796925e+02 1.748536686285e+01 0.0 
1.748536686285e+01 -2.972887103216e+02 0.0 
0.0 0.0 -1.232793470042e+02 
-8.427385506110e+01 1.060638325836e-01 0.0 
1.060638325836e-01 -2.248121792527e+02 0.0 
0.0 0.0 -9.232581029414e+01 
-1.222322754683e+02 2.792729137024e+01 0.0 
2.792729137024e+01 -2.912379487346e+02 0.0 
0.0 0.0 -1.236410672609e+02 
-3.557630642836e+01 2.063328491494e+01 0.0 
2.063328491494e+01 -5.200900497761e+01 0.0 
0.0 0.0 -2.587559342179e+01 
-1.357721219555e+02 3.878532558240e+00 0.0 
3.878532558240e+00 -3.351782733993e+02 0.0 
0.0 0.0 -1.408851186064e+02 
-1.079645888144e+02 1.148462387121e+01 0.0 
1.148462387121e+01 -2.873145569995e+02 0.0 
0.0 0.0 -1.181837437442e+02 
-3.889767122663e+01 1.158902430272e+01 0.0 
1.158902430272e+01 -1.185285657980e+02 0.0 
0.0 0.0 -4.682787110739e+01 
-3.675855276489e+01 2.548620945955e-02 0.0 
2.548620945955e-02 -5.574514217355e+01 0.0 
0.0 0.0 -2.735110848153e+01 
-1.474323188919e+02 4.270908993399e+00 0.0 
4.270908993399e+00 -3.564059552702e+02 0.0 
0.0 0.0 -1.507514822486e+02 
-1.180480501862e+02 1.282357720339e+01 0.0 
1.282357720339e+01 -3.058609419034e+02 0.0 
0.0 0.0 -1.267726976269e+02 
-7.950531610023e+01 2.151993485663e+01 0.0 
2.151993485663e+01 -2.056337136420e+02 0.0 
0.0 0.0 -8.514170892265e+01 
-7.296510668524e+01 6.363731241912e+00 0.0 
6.363731241912e+00 -2.140484805663e+02 0.0 
0.0 0.0 -8.570407617546e+01 
-3.668020573156e+01 1.465058640501e+01 0.0 
1.465058640501e+01 -3.315915157441e+01 0.0 
0.0 0.0 -2.055180719179e+01 
-8.944111210222e+01 1.836998152975e+00 0.0 
1.836998152975e+00 -2.420805060446e+02 0.0 
0.0 0.0 -9.905648544404e+01 
-7.958816283700e+01 2.397264477751e+01 0.0 
2.397264477751e+01 -1.822550491952e+02 0.0 
0.0 0.0 -7.815296360966e+01 
-1.043348021218e+02 1.615539828724e+01 0.0 
1.615539828724e+01 -2.348602069484e+02 0.0 
0.0 0.0 -1.013585027211e+02 
-1.221658248082e+02 1.459646988204e+01 0.0 
1.459646988204e+01 -3.126531181735e+02 0.0 
0.0 0.0 -1.300456828945e+02 
-7.938539820031e+01 1.565116889111e+01 0.0 
1.565116889111e+01 -1.394855599577e+02 0.0 
0.0 0.0 -6.526128744740e+01 
-8.542096558694e+01 1.126330604327e+00 0.0 
1.126330604327e+00 -2.317813851906e+02 0.0 
0.0 0.0 -9.476070523327e+01 
-8.947820803550e+01 1.798811626567e+01 0.0 
1.798811626567e+01 -2.422127575492e+02 0.0 
0.0 0.0 -9.910728967540e+01 
-1.865715873823e+01 -1.004401040222e+00 0.0 
-1.004401040222e+00 -5.044303208280e+01 0.0 
0.0 0.0 -2.033005724631e+01 
-4.170591495746e+01 1.901155385074e+01 0.0 
1.901155385074e+01 -5.402417923152e+01 0.0 
0.0 0.0 -2.831902825669e+01 
-8.959770786906e+01 1.157229182816e+00 0.0 
1.157229182816e+00 -2.404183781080e+02 0.0 
0.0 0.0 -9.860482579313e+01 
-4.454291277131e+01 4.077481177527e+00 0.0 
4.077481177527e+00 -1.403301627785e+02 0.0 
0.0 0.0 -5.506192266493e+01 
-7.753002147836e+01 5.967224013808e+00 0.0 
5.967224013808e+00 -2.239451026555e+02 0.0 
0.0 0.0 -9.004253724015e+01 
-1.281207967487e+02 2.327071710587e+01 0.0 
2.327071710587e+01 -3.152916385557e+02 0.0 
0.0 0.0 -1.326237305913e+02 
-9.377257540346e+01 1.137067283628e+00 0.0 
1.137067283628e+00 -2.490334308412e+02 0.0 
0.0 0.0 -1.024418018734e+02 
-5.056188646905e+01 5.160972535065e+00 0.0 
5.160972535065e+00 -1.580046617235e+02 0.0 
0.0 0.0 -6.216996445775e+01 
-9.793345783540e+01 1.056245855392e+00 0.0 
1.056245855392e+00 -2.575781185621e+02 0.0 
0.0 0.0 -1.062534729192e+02 
-3.156294294078e+01 1.878253916035e+01 0.0 
1.878253916035e+01 -3.157282658482e+01 0.0 
0.0 0.0 -1.854073085768e+01 
-8.351230585546e+01 1.810824611508e+01 0.0 
1.810824611508e+01 -1.538931726129e+02 0.0 
0.0 0.0 -7.082164354049e+01 
-1.021039972329e+02 9.136502929652e-01 0.0 
9.136502929652e-01 -2.660412992652e+02 0.0 
0.0 0.0 -1.100435889494e+02 
-8.745347063435e+01 2.439181620533e+01 0.0 
2.439181620533e+01 -2.014015224239e+02 0.0 
0.0 0.0 -8.625649791747e+01 
-1.993193363282e+01 -1.482608214792e+00 0.0 
-1.482608214792e+00 -5.278917121456e+01 0.0 
0.0 0.0 -2.141633145421e+01 
-8.378751292881e+01 2.088171052202e+01 0.0 
2.088171052202e+01 -2.197485238158e+02 0.0 
0.0 0.0 -9.066081102340e+01 
-1.349693280107e+02 1.196702598338e+00 0.0 
1.196702598338e+00 -3.324377310937e+02 0.0 
0.0 0.0 -1.398221177313e+02 
-5.460319368405e+01 -9.758566188559e-01 0.0 
-9.758566188559e-01 -1.587676042979e+02 0.0 
0.0 0.0 -6.361123939458e+01 
-8.220411822964e+01 5.652471537237e+00 0.0 
5.652471537237e+00 -2.337238043877e+02 0.0 
0.0 0.0 -9.437837678520e+01 
-9.044682275398e+01 1.931316579905e+01 0.0 
1.931316579905e+01 -1.756351589984e+02 0.0 
0.0 0.0 -7.942459452571e+01 
-2.850672895465e+01 1.868987907011e+01 0.0 
1.868987907011e+01 -3.101943936184e+01 0.0 
0.0 0.0 -1.745785049495e+01 
-9.068633484941e+01 6.888512141857e+00 0.0 
6.888512141857e+00 -2.521775931535e+02 0.0 
0.0 0.0 -1.024591784009e+02 
-9.537943105678e+01 2.499687280741e+01 0.0 
2.499687280741e+01 -2.206703975056e+02 0.0 
0.0 0.0 -9.441494856871e+01 
-8.833486746694e+01 2.024513412739e+01 0.0 
2.024513412739e+01 -2.334692575232e+02 0.0 
0.0 0.0 -9.614123749705e+01 
-7.262929287890e+01 1.593813719733e+01 0.0 
1.593813719733e+01 -2.062339320671e+02 0.0 
0.0 0.0 -8.325896748381e+01 
-9.971996234467e+01 8.148612440519e+00 0.0 
8.148612440519e+00 -2.708464072622e+02 0.0 
0.0 0.0 -1.107699108821e+02 
-3.178631040992e+01 2.003776550908e+01 0.0 
2.003776550908e+01 -5.085936078543e+01 0.0 
0.0 0.0 -2.439370135861e+01 
-4.155189956411e+01 -2.421672656808e+00 0.0 
-2.421672656808e+00 -1.178514769194e+02 0.0 
0.0 0.0 -4.742101294505e+01 
-3.530468151040e+01 -2.680304599184e+00 0.0 
-2.680304599184e+00 -9.851292154319e+01 0.0 
0.0 0.0 -3.974528091608e+01 
-5.443796536211e+01 4.499852358599e+00 0.0 
4.499852358599e+00 -1.681813575370e+02 0.0 
0.0 0.0 -6.638579686973e+01 
-9.909604626116e+01 2.533470808187e+01 0.0 
2.533470808187e+01 -2.247382150187e+02 0.0 
0.0 0.0 -9.675027838395e+01 
-2.428013261941e+01 -6.050924723896e-01 0.0 
-6.050924723896e-01 -6.706348637279e+01 0.0 
0.0 0.0 -2.700308569766e+01 
-9.112271816454e+01 2.203186125543e+01 0.0 
2.203186125543e+01 -1.840467486022e+02 0.0 
0.0 0.0 -8.215084003001e+01 
-2.694269815121e+01 -2.843688049288e+00 0.0 
-2.843688049288e+00 -7.090856178666e+01 0.0 
0.0 0.0 -2.895537798136e+01 
-5.190963993957e+01 2.845761962748e+00 0.0 
2.845761962748e+00 -1.602163610459e+02 0.0 
0.0 0.0 -6.323780029563e+01 
-1.027501386803e+02 2.084043533410e+01 0.0 
2.084043533410e+01 -2.659127768989e+02 0.0 
0.0 0.0 -1.101988746738e+02 
-5.834533388950e+01 4.232433622465e-01 0.0 
4.232433622465e-01 -1.098063444038e+02 0.0 
0.0 0.0 -5.004550348798e+01 
-5.574428264114e+01 2.426145939083e+00 0.0 
2.426145939083e+00 -1.697061271655e+02 0.0 
0.0 0.0 -6.723512294198e+01 
-4.019141550372e+01 -3.458479441134e-01 0.0 
-3.458479441134e-01 -1.109925862203e+02 0.0 
0.0 0.0 -4.495520051720e+01 
-5.310385625213e+01 1.050510676237e+00 0.0 
1.050510676237e+00 -1.609230436560e+02 0.0 
0.0 0.0 -6.380806997245e+01 
-8.080043152425e+01 1.690808665012e+01 0.0 
1.690808665012e+01 -2.240672230091e+02 0.0 
0.0 0.0 -9.106029636001e+01 
-5.688202369140e+01 8.733518628290e-01 0.0 
8.733518628290e-01 -1.699468463357e+02 0.0 
0.0 0.0 -6.764866100814e+01 
-5.408043993897e+01 -1.950237658789e-01 0.0 
-1.950237658789e-01 -1.604703935146e+02 0.0 
0.0 0.0 -6.396525003607e+01 
-9.258568936016e+01 4.704930506917e+00 0.0 
4.704930506917e+00 -2.049860057444e+02 0.0 
0.0 0.0 -8.887150853138e+01 
-5.772880341479e+01 -1.969504615191e-01 0.0 
-1.969504615191e-01 -1.690477919703e+02 0.0 
0.0 0.0 -6.763297861551e+01 
-9.762570781031e+01 1.408669511985e+00 0.0 
1.408669511985e+00 -2.235514821383e+02 0.0 
0.0 0.0 -9.595315698459e+01 
-1.569274884241e+02 1.432518274546e+00 0.0 
1.432518274546e+00 -3.730026485382e+02 0.0 
0.0 0.0 -1.585790410887e+02 
-4.276733587561e+01 2.006069196715e-01 0.0 
2.006069196715e-01 -7.075064465242e+01 0.0 
0.0 0.0 -3.365539415841e+01 
-2.696520987430e+01 1.842690023830e+01 0.0 
1.842690023830e+01 -2.724000359833e+01 0.0 
0.0 0.0 -1.586156404179e+01 
-2.042145295986e+01 8.120010902198e-02 0.0 
8.120010902198e-02 -1.664930981367e+01 0.0 
0.0 0.0 -1.098578136149e+01 
-2.979890907847e+01 1.855019395373e+01 0.0 
1.855019395373e+01 -5.145377865875e+01 0.0 
0.0 0.0 -2.397580632116e+01 
-4.816158160685e+01 -1.716949171216e+00 0.0 
-1.716949171216e+00 -1.400694184950e+02 0.0 
0.0 0.0 -5.606930003055e+01 
-9.116671719259e+01 2.384894638567e+01 0.0 
2.384894638567e+01 -1.938849899495e+02 0.0 
0.0 0.0 -8.511551214264e+01 
-4.322404002348e+01 1.052410479154e-01 0.0 
1.052410479154e-01 -7.147039543691e+01 0.0 
0.0 0.0 -3.400833063812e+01 
-4.500231552685e+01 -2.183469302299e+00 0.0 
-2.183469302299e+00 -1.292252573760e+02 0.0 
0.0 0.0 -5.186827187086e+01 
-1.112520172089e+02 2.609323217973e+01 0.0 
2.609323217973e+01 -2.486557345155e+02 0.0 
0.0 0.0 -1.075723255173e+02 
-1.336381106572e+02 2.869584875195e+01 0.0 
2.869584875195e+01 -3.173908122180e+02 0.0 
0.0 0.0 -1.349086768626e+02 
-6.922269528369e+01 8.314531160859e-01 0.0 
8.314531160859e-01 -1.385890902741e+02 0.0 
0.0 0.0 -6.194353566735e+01 
-1.203563977361e+02 1.688652534662e+01 0.0 
1.688652534662e+01 -3.078253562736e+02 0.0 
0.0 0.0 -1.280545262029e+02 
-9.339768887794e+01 1.967981276237e+01 0.0 
1.967981276237e+01 -2.472960428529e+02 0.0 
0.0 0.0 -1.018081195192e+02 
-8.543391715602e+01 7.251838611630e-01 0.0 
7.251838611630e-01 -1.861689289243e+02 0.0 
0.0 0.0 -8.108085382410e+01 
-3.695260965201e+01 3.489478722432e-01 0.0 
3.489478722432e-01 -5.436555885351e+01 0.0 
0.0 0.0 -2.699545055166e+01 
-1.652766439704e+01 -2.097525429875e+00 0.0 
-2.097525429875e+00 -3.303602065427e+01 0.0 
0.0 0.0 -1.459213269087e+01 
-1.111018995479e+02 3.463191498989e-01 0.0 
3.463191498989e-01 -2.846165075353e+02 0.0 
0.0 0.0 -1.183155221250e+02 
-2.647695626642e+01 1.789521845771e+01 0.0 
1.789521845771e+01 -2.621197649377e+01 0.0 
0.0 0.0 -1.540667982806e+01 
-2.719902725926e+01 1.666529252150e+01 0.0 
1.666529252150e+01 -4.535290159384e+01 0.0 
0.0 0.0 -2.136557865593e+01 
-2.514344440866e+01 1.428561562124e+01 0.0 
1.428561562124e+01 -4.224755953269e+01 0.0 
0.0 0.0 -1.981730118241e+01 
-4.950744101654e+01 -7.948119508707e-01 0.0 
-7.948119508707e-01 -1.371242659279e+02 0.0 
0.0 0.0 -5.558951208333e+01 
-2.215242893948e+01 -2.795432595375e+00 0.0 
-2.795432595375e+00 -4.908841315861e+01 0.0 
0.0 0.0 -2.097225262943e+01 
-2.605869487817e+01 1.686446976047e+01 0.0 
1.686446976047e+01 -2.844075880994e+01 0.0 
0.0 0.0 -1.594983610643e+01 
-1.343386727574e+02 2.001030962198e+01 0.0 
2.001030962198e+01 -3.305906435631e+02 0.0 
0.0 0.0 -1.390787948961e+02 
-4.728396698972e+01 1.490900969558e+00 0.0 
1.490900969558e+00 -7.239801866745e+01 0.0 
0.0 0.0 -3.550459569715e+01 
-1.065070353550e+02 2.242767269752e+01 0.0 
2.242767269752e+01 -2.703146685627e+02 0.0 
0.0 0.0 -1.126465111753e+02 
-2.441633454381e+01 1.510383386010e+01 0.0 
1.510383386010e+01 -2.637413730826e+01 0.0 
0.0 0.0 -1.483714155562e+01 
-9.845943758900e+01 1.280070708484e+01 0.0 
1.280070708484e+01 -2.127974704755e+02 0.0 
0.0 0.0 -9.297707241936e+01 
-1.271576652157e+02 2.545190025358e+01 0.0 
2.545190025358e+01 -3.095078316184e+02 0.0 
0.0 0.0 -1.305996490502e+02 
-1.556624138856e+02 8.326741519690e+00 0.0 
8.326741519690e+00 -3.709125163965e+02 0.0 
0.0 0.0 -1.575724790846e+02 
-1.162407272534e+02 2.373787327931e+01 0.0 
2.373787327931e+01 -2.891848957744e+02 0.0 
0.0 0.0 -1.212276869083e+02 
-2.271156356136e+01 1.075943114206e+01 0.0 
1.075943114206e+01 -3.676295039816e+01 0.0 
0.0 0.0 -1.744235418785e+01 
-6.009138039497e+01 5.706756998264e+00 0.0 
5.706756998264e+00 -9.198220881153e+01 0.0 
0.0 0.0 -4.522207676195e+01 
-1.183831067139e+02 2.846643833233e+01 0.0 
2.846643833233e+01 -2.772684207905e+02 0.0 
0.0 0.0 -1.182954582513e+02 
-7.534206836569e+01 1.404187561944e+00 0.0 
1.404187561944e+00 -1.544754499094e+02 0.0 
0.0 0.0 -6.854525548253e+01 
-1.573275888432e+02 6.188204879204e+00 0.0 
6.188204879204e+00 -3.736788289068e+02 0.0 
0.0 0.0 -1.589019253250e+02 
-4.847855281415e+01 2.168929739226e+00 0.0 
2.168929739226e+00 -7.067704623051e+01 0.0 
0.0 0.0 -3.534667971340e+01 
-9.261247700814e+01 2.972795532173e+00 0.0 
2.972795532173e+00 -2.071392951211e+02 0.0 
0.0 0.0 -8.952553163877e+01 
-2.644598117838e+01 -1.260582940484e+00 0.0 
-1.260582940484e+00 -7.033037308071e+01 0.0 
0.0 0.0 -2.863290627773e+01 
-9.230365094655e+01 1.463676782509e+00 0.0 
1.463676782509e+00 -2.071294678297e+02 0.0 
0.0 0.0 -8.942993563287e+01 
-9.847128922768e+01 2.466021899430e+01 0.0 
2.466021899430e+01 -2.142947701734e+02 0.0 
0.0 0.0 -9.342981782034e+01 
-5.374925632194e+01 6.873123493931e-01 0.0 
6.873123493931e-01 -9.552933956668e+01 0.0 
0.0 0.0 -4.438357876659e+01 
-6.311346385853e+01 8.779595504284e+00 0.0 
8.779595504284e+00 -9.477685809683e+01 0.0 
0.0 0.0 -4.696709658661e+01 
-1.501756828980e+02 2.106033056471e+00 0.0 
2.106033056471e+00 -3.606380779087e+02 0.0 
0.0 0.0 -1.528441282420e+02 
-1.075572082714e+02 2.334532342259e+01 0.0 
2.334532342259e+01 -2.358346680048e+02 0.0 
0.0 0.0 -1.026175628828e+02 
-2.119664175696e+01 8.151386447017e+00 0.0 
8.151386447017e+00 -3.278121827106e+01 0.0 
0.0 0.0 -1.579335800841e+01 
-6.931166873642e+01 9.996444866628e-01 0.0 
9.996444866628e-01 -1.375354459858e+02 0.0 
0.0 0.0 -6.165413441666e+01 
-6.192048669259e+01 -5.485513896298e-01 0.0 
-5.485513896298e-01 -1.706391900349e+02 0.0 
0.0 0.0 -6.936790301825e+01 
-2.071045237714e+01 -1.224291939445e+00 0.0 
-1.224291939445e+00 -3.059409060564e+01 0.0 
0.0 0.0 -1.518380266580e+01 
-1.449298474503e+02 9.568914427173e+00 0.0 
9.568914427173e+00 -3.528230990278e+02 0.0 
0.0 0.0 -1.489258839434e+02 
-1.050967377089e+02 2.559992689959e+01 0.0 
2.559992689959e+01 -2.335237115620e+02 0.0 
0.0 0.0 -1.011861347812e+02 
-1.489480667394e+02 3.411374461895e+00 0.0 
3.411374461895e+00 -3.589374206984e+02 0.0 
0.0 0.0 -1.519656462313e+02 
-1.789506217455e+01 -3.708790655087e-01 0.0 
-3.708790655087e-01 -4.997662026729e+01 0.0 
0.0 0.0 -1.996150473255e+01 
-1.434127035754e+01 -1.787836272699e+00 0.0 
-1.787836272699e+00 -3.118491419263e+01 0.0 
0.0 0.0 -1.333977385490e+01 
-1.446461760590e+02 1.212809347842e+01 0.0 
1.212809347842e+01 -3.522256428032e+02 0.0 
0.0 0.0 -1.486615456586e+02 
-1.153065146700e+02 2.791249150344e+01 0.0 
2.791249150344e+01 -2.637371449996e+02 0.0 
0.0 0.0 -1.133130979009e+02 
-2.930314343385e+01 -1.814435147972e+00 0.0 
-1.814435147972e+00 -8.001565510479e+01 0.0 
0.0 0.0 -3.239563956159e+01 
-1.017871468640e+02 1.103842821789e+01 0.0 
1.103842821789e+01 -2.313954767060e+02 0.0 
0.0 0.0 -9.955478707100e+01 
-1.925040029774e+01 6.130496123561e+00 0.0 
6.130496123561e+00 -2.334728776005e+01 0.0 
0.0 0.0 -1.246111040238e+01 
-3.688550012556e+01 1.482794107917e-01 0.0 
1.482794107917e-01 -5.233573509863e+01 0.0 
0.0 0.0 -2.636637056726e+01 
-1.328946120192e+01 -1.140825735069e+00 0.0 
-1.140825735069e+00 -3.238827606041e+01 0.0 
0.0 0.0 -1.347909078337e+01 
-1.577237337078e+02 5.096565040590e+00 0.0 
5.096565040590e+00 -3.742948592595e+02 0.0 
0.0 0.0 -1.592055778902e+02 
-9.533843468658e+01 7.730407627868e+00 0.0 
7.730407627868e+00 -2.101960602049e+02 0.0 
0.0 0.0 -9.126034846744e+01 
-6.889735759400e+01 -4.319159195059e-01 0.0 
-4.319159195059e-01 -1.877957535974e+02 0.0 
0.0 0.0 -7.660793335741e+01 
-4.780756131087e+01 5.305961738007e+00 0.0 
5.305961738007e+00 -6.120818203699e+01 0.0 
0.0 0.0 -3.230472300436e+01 
-4.507505553359e+01 -6.585389546848e-01 0.0 
-6.585389546848e-01 -1.244144780116e+02 0.0 
0.0 0.0 -5.044686006357e+01 
-1.163476414698e+02 2.632015569718e+01 0.0 
2.632015569718e+01 -2.812816467618e+02 0.0 
0.0 0.0 -1.188887864695e+02 
-2.049673554004e+01 -2.682655179283e+00 0.0 
-2.682655179283e+00 -4.627904958253e+01 0.0 
0.0 0.0 -1.963273553677e+01 
-9.470645537022e+01 5.733779192620e+00 0.0 
5.733779192620e+00 -2.110267578342e+02 0.0 
0.0 0.0 -9.131996396133e+01 
-1.428542680298e+02 1.485099308702e+01 0.0 
1.485099308702e+01 -3.485205769541e+02 0.0 
0.0 0.0 -1.470124534952e+02 
-1.033856939046e+02 1.773693122780e+01 0.0 
1.773693122780e+01 -2.248638861270e+02 0.0 
0.0 0.0 -9.807487400947e+01 
-1.438096847141e+02 2.433509923205e+01 0.0 
2.433509923205e+01 -3.430866604683e+02 0.0 
0.0 0.0 -1.456689035547e+02 
-2.049314506148e+01 1.204763768201e+00 0.0 
1.204763768201e+00 -2.768081299449e+01 0.0 
0.0 0.0 -1.415404172372e+01 
-1.280713354071e+02 2.692038317021e+01 0.0 
2.692038317021e+01 -3.087674628280e+02 0.0 
0.0 0.0 -1.306516394705e+02 
-1.308043909741e+02 1.564110727259e+01 0.0 
1.564110727259e+01 -3.277282481876e+02 0.0 
0.0 0.0 -1.371597917485e+02 
-3.640441897022e+01 -1.133490574745e-01 0.0 
-1.133490574745e-01 -5.416157905145e+01 0.0 
0.0 0.0 -2.676979940650e+01 
-1.053748234313e+02 2.057299190743e+01 0.0 
2.057299190743e+01 -2.292701800905e+02 0.0 
0.0 0.0 -9.999350105654e+01 
-5.552848239450e+01 -7.456451894261e-01 0.0 
-7.456451894261e-01 -1.529153428972e+02 0.0 
0.0 0.0 -6.213314758750e+01 
-2.452720155081e+01 -1.354530612210e+00 0.0 
-1.354530612210e+00 -6.609273241678e+01 0.0 
0.0 0.0 -2.678598019027e+01 
-9.812408574271e+01 7.901518806490e-01 0.0 
7.901518806490e-01 -2.255577132566e+02 0.0 
0.0 0.0 -9.670453969980e+01 
-5.052055750234e+00 -6.032640515176e-02 0.0 
-6.032640515176e-02 -1.415576193561e+01 0.0 
0.0 0.0 -5.674696380420e+00 
-3.542080857283e+01 8.372451938198e-02 0.0 
8.372451938198e-02 -5.313450405297e+01 0.0 
0.0 0.0 -2.616659378774e+01 
-1.593179035601e+02 4.883997691217e-01 0.0 
4.883997691217e-01 -3.772021950108e+02 0.0 
0.0 0.0 -1.605560295713e+02 
-2.322825901919e+01 -9.546840871311e-01 0.0 
-9.546840871311e-01 -6.315056909219e+01 0.0 
0.0 0.0 -2.551364843341e+01 
-4.875658482431e+01 3.176120271325e-01 0.0 
3.176120271325e-01 -8.511931403933e+01 0.0 
0.0 0.0 -3.976276965909e+01 
-1.139373895107e+02 2.733979728872e+01 0.0 
2.733979728872e+01 -2.580721506456e+02 0.0 
0.0 0.0 -1.112028620469e+02 
-8.635896003586e+01 2.208162668354e-02 0.0 
2.208162668354e-02 -2.298165294242e+02 0.0 
0.0 0.0 -9.445264683802e+01 
-8.168619563269e+01 1.319668829121e+00 0.0 
1.319668829121e+00 -1.746180371070e+02 0.0 
0.0 0.0 -7.649126982190e+01 
-2.516672117810e+01 -2.902343956902e+00 0.0 
-2.902343956902e+00 -6.151847317409e+01 0.0 
0.0 0.0 -2.560555830566e+01 
-2.006853695775e+01 -6.435949601137e-01 0.0 
-6.435949601137e-01 -1.434756959740e+01 0.0 
0.0 0.0 -1.034210460408e+01 
-6.241875589659e+01 6.751826224454e-01 0.0 
6.751826224454e-01 -1.201852575150e+02 0.0 
0.0 0.0 -5.438120402349e+01 
-1.306673549104e+02 2.465169407473e+01 0.0 
2.465169407473e+01 -3.181793026100e+02 0.0 
0.0 0.0 -1.342539972561e+02 
-1.009493049461e+02 1.453464742398e+01 0.0 
1.453464742398e+01 -2.203307958615e+02 0.0 
0.0 0.0 -9.598403024227e+01 
-5.780208606105e+01 7.050726071314e-01 0.0 
7.050726071314e-01 -1.064013107675e+02 0.0 
0.0 0.0 -4.886101904856e+01 
-2.251839631113e+01 6.405394211394e+00 0.0 
6.405394211394e+00 -4.498388813052e+01 0.0 
0.0 0.0 -1.985068533249e+01 
-1.106406262015e+02 2.668723289544e+01 0.0 
2.668723289544e+01 -2.493412734265e+02 0.0 
0.0 0.0 -1.075945698884e+02 
-7.501457931453e+01 -1.020130402535e-01 0.0 
-1.020130402535e-01 -2.026190727749e+02 0.0 
0.0 0.0 -8.289009562682e+01 
-1.141459388290e+02 2.748957899293e+01 0.0 
2.748957899293e+01 -2.691374310109e+02 0.0 
0.0 0.0 -1.145850109520e+02 
-1.284091277796e+02 1.824460623428e+01 0.0 
1.824460623428e+01 -3.217334697585e+02 0.0 
0.0 0.0 -1.346427792614e+02 
-1.778783838012e+01 6.871705813042e+00 0.0 
6.871705813042e+00 -1.257966045733e+01 0.0 
0.0 0.0 -8.977328628339e+00 
-9.365294198145e+01 4.268266755878e-02 0.0 
4.268266755878e-02 -2.466683759403e+02 0.0 
0.0 0.0 -1.016963953765e+02 
-1.318858396528e+01 -1.188054902100e+00 0.0 
-1.188054902100e+00 -3.033878909827e+01 0.0 
0.0 0.0 -1.275976346857e+01 
-1.490942813117e+02 7.279992535340e+00 0.0 
7.279992535340e+00 -3.597395509294e+02 0.0 
0.0 0.0 -1.522501496723e+02 
-7.840954996151e+01 3.879794065803e-02 0.0 
3.879794065803e-02 -2.110690868503e+02 0.0 
0.0 0.0 -8.644359104355e+01 
-2.165591471910e+01 3.649406048290e+00 0.0 
3.649406048290e+00 -7.749254467316e+00 0.0 
0.0 0.0 -8.421550755925e+00 
-1.802108009018e+01 2.854377701282e-02 0.0 
2.854377701282e-02 -1.044242563206e+01 0.0 
0.0 0.0 -8.139051716671e+00 
-3.195238947442e+01 3.730984995000e+00 0.0 
3.730984995000e+00 -2.956035027014e+01 0.0 
0.0 0.0 -1.805382192337e+01 
-2.519743428210e+01 -1.884991842050e-01 0.0 
-1.884991842050e-01 -2.883652875786e+01 0.0 
0.0 0.0 -1.581018891199e+01 

TENSORS node_materi_strain_total float
7.833900311005e-06 5.939762480861e-08 0.0 
5.939762480861e-08 1.189800737733e-05 0.0 
0.0 0.0 0.0 
-1.231880453517e-04 -3.028500443460e-06 0.0 
-3.028500443460e-06 1.837186538548e-03 0.0 
0.0 0.0 0.0 
9.114986780578e-06 7.457079628925e-06 0.0 
7.457079628925e-06 1.235787287151e-03 0.0 
0.0 0.0 0.0 
-8.910202889956e-06 3.087983394802e-06 0.0 
3.087983394802e-06 2.369051569367e-03 0.0 
0.0 0.0 0.0 
1.159429564002e-05 -1.161829479018e-06 0.0 
-1.161829479018e-06 4.095290997637e-05 0.0 
0.0 0.0 0.0 
1.976693052685e-05 9.303993051692e-07 0.0 
9.303993051692e-07 9.800545834371e-05 0.0 
0.0 0.0 0.0 
3.151023207219e-05 8.865633137883e-07 0.0 
8.865633137883e-07 1.501943882218e-04 0.0 
0.0 0.0 0.0 
4.295960400413e-05 5.359906866583e-07 0.0 
5.359906866583e-07 2.087898480469e-04 0.0 
0.0 0.0 0.0 
5.490242163127e-05 2.806939808458e-07 0.0 
2.806939808458e-07 2.653663628966e-04 0.0 
0.0 0.0 0.0 
6.700173903888e-05 2.810106122095e-07 0.0 
2.810106122095e-07 3.212298562059e-04 0.0 
0.0 0.0 0.0 
7.797284445547e-05 5.059674420142e-07 0.0 
5.059674420142e-07 3.776414426416e-04 0.0 
0.0 0.0 0.0 
8.750678135572e-05 6.176596285888e-07 0.0 
6.176596285888e-07 4.350608258813e-04 0.0 
0.0 0.0 0.0 
9.543478119352e-05 9.532382229916e-07 0.0 
9.532382229916e-07 4.937252357720e-04 0.0 
0.0 0.0 0.0 
1.007808578096e-04 1.752662259852e-06 0.0 
1.752662259852e-06 5.548118828508e-04 0.0 
0.0 0.0 0.0 
1.030019979682e-04 3.165196708869e-06 0.0 
3.165196708869e-06 6.197381866488e-04 0.0 
0.0 0.0 0.0 
1.043043270691e-04 3.724805051456e-06 0.0 
3.724805051456e-06 6.839729455100e-04 0.0 
0.0 0.0 0.0 
1.031047161254e-04 5.304726482475e-06 0.0 
5.304726482475e-06 7.439722576397e-04 0.0 
0.0 0.0 0.0 
9.757648809801e-05 3.379711597774e-06 0.0 
3.379711597774e-06 8.127899619724e-04 0.0 
0.0 0.0 0.0 
8.891177950073e-05 3.786896655653e-06 0.0 
3.786896655653e-06 8.857142775483e-04 0.0 
0.0 0.0 0.0 
7.728620614356e-05 4.308293004741e-06 0.0 
4.308293004741e-06 9.586655047877e-04 0.0 
0.0 0.0 0.0 
6.221345202325e-05 4.584155542307e-06 0.0 
4.584155542307e-06 1.034651992786e-03 0.0 
0.0 0.0 0.0 
4.365478663885e-05 5.580574121682e-06 0.0 
5.580574121682e-06 1.113586051407e-03 0.0 
0.0 0.0 0.0 
2.533929546019e-05 6.413404232441e-06 0.0 
6.413404232441e-06 1.190503216383e-03 0.0 
0.0 0.0 0.0 
-6.389670785441e-06 1.368556797698e-05 0.0 
1.368556797698e-05 2.370518465811e-03 0.0 
0.0 0.0 0.0 
-7.240759874831e-06 2.522487442242e-05 0.0 
2.522487442242e-05 2.367166230310e-03 0.0 
0.0 0.0 0.0 
-7.355416598243e-06 3.629360040555e-05 0.0 
3.629360040555e-05 2.367075365691e-03 0.0 
0.0 0.0 0.0 
-7.306331081295e-06 5.163354865125e-05 0.0 
5.163354865125e-05 2.365080644814e-03 0.0 
0.0 0.0 0.0 
-9.289752611052e-06 6.411568904747e-05 0.0 
6.411568904747e-05 2.361340988290e-03 0.0 
0.0 0.0 0.0 
-8.668007684472e-06 7.999962075709e-05 0.0 
7.999962075709e-05 2.359705011388e-03 0.0 
0.0 0.0 0.0 
-9.913039127304e-06 9.714412008062e-05 0.0 
9.714412008062e-05 2.354917773598e-03 0.0 
0.0 0.0 0.0 
-1.060192303637e-05 1.157518920587e-04 0.0 
1.157518920587e-04 2.347364329145e-03 0.0 
0.0 0.0 0.0 
-1.121949103955e-05 1.343423229256e-04 0.0 
1.343423229256e-04 2.340654286371e-03 0.0 
0.0 0.0 0.0 
-1.049436415627e-05 1.568013909410e-04 0.0 
1.568013909410e-04 2.329435299912e-03 0.0 
0.0 0.0 0.0 
-1.387497835389e-05 1.776108804318e-04 0.0 
1.776108804318e-04 2.315399558583e-03 0.0 
0.0 0.0 0.0 
-1.290332811440e-05 2.022198118081e-04 0.0 
2.022198118081e-04 2.299764363675e-03 0.0 
0.0 0.0 0.0 
-1.392731974344e-05 2.277830607136e-04 0.0 
2.277830607136e-04 2.278681424203e-03 0.0 
0.0 0.0 0.0 
-1.313339210322e-05 2.526942094584e-04 0.0 
2.526942094584e-04 2.253328603590e-03 0.0 
0.0 0.0 0.0 
-1.442116147343e-05 2.773493675004e-04 0.0 
2.773493675004e-04 2.224164713701e-03 0.0 
0.0 0.0 0.0 
-1.317775545355e-05 3.010750373874e-04 0.0 
3.010750373874e-04 2.188619098143e-03 0.0 
0.0 0.0 0.0 
-1.371644945195e-05 3.238800083662e-04 0.0 
3.238800083662e-04 2.149713681821e-03 0.0 
0.0 0.0 0.0 
-1.227158069820e-05 3.463749002991e-04 0.0 
3.463749002991e-04 2.106222839403e-03 0.0 
0.0 0.0 0.0 
-9.885625311049e-06 3.648329609606e-04 0.0 
3.648329609606e-04 2.060010696568e-03 0.0 
0.0 0.0 0.0 
-7.018321708278e-06 3.801385793739e-04 0.0 
3.801385793739e-04 2.010867022060e-03 0.0 
0.0 0.0 0.0 
-3.878869363742e-06 3.912154385303e-04 0.0 
3.912154385303e-04 1.957791063209e-03 0.0 
0.0 0.0 0.0 
-2.953538108160e-06 3.977437505921e-04 0.0 
3.977437505921e-04 1.904037233421e-03 0.0 
0.0 0.0 0.0 
-1.741827863055e-07 4.004096945460e-04 0.0 
4.004096945460e-04 1.849548697410e-03 0.0 
0.0 0.0 0.0 
1.785236038110e-06 3.987256135598e-04 0.0 
3.987256135598e-04 1.795713869862e-03 0.0 
0.0 0.0 0.0 
3.288043218289e-06 3.937550546143e-04 0.0 
3.937550546143e-04 1.743971638559e-03 0.0 
0.0 0.0 0.0 
5.192710060535e-06 3.861313664762e-04 0.0 
3.861313664762e-04 1.694168218295e-03 0.0 
0.0 0.0 0.0 
6.112992535871e-06 3.747052857843e-04 0.0 
3.747052857843e-04 1.646574733270e-03 0.0 
0.0 0.0 0.0 
8.480934848472e-06 3.610413601609e-04 0.0 
3.610413601609e-04 1.601678685418e-03 0.0 
0.0 0.0 0.0 
8.697009128866e-06 3.446854553772e-04 0.0 
3.446854553772e-04 1.558779362503e-03 0.0 
0.0 0.0 0.0 
7.626100490210e-06 3.276282898879e-04 0.0 
3.276282898879e-04 1.523510533761e-03 0.0 
0.0 0.0 0.0 
1.057389881431e-05 3.100789945415e-04 0.0 
3.100789945415e-04 1.484931999227e-03 0.0 
0.0 0.0 0.0 
1.142264939976e-05 2.899902858804e-04 0.0 
2.899902858804e-04 1.448132272784e-03 0.0 
0.0 0.0 0.0 
1.134152100909e-05 2.682129868246e-04 0.0 
2.682129868246e-04 1.416478278137e-03 0.0 
0.0 0.0 0.0 
1.101012307007e-05 2.480837138439e-04 0.0 
2.480837138439e-04 1.391698637906e-03 0.0 
0.0 0.0 0.0 
1.142075628676e-05 2.284063325012e-04 0.0 
2.284063325012e-04 1.367746672475e-03 0.0 
0.0 0.0 0.0 
9.549381715749e-06 2.081894337157e-04 0.0 
2.081894337157e-04 1.346806023853e-03 0.0 
0.0 0.0 0.0 
1.122422352728e-05 1.894867759337e-04 0.0 
1.894867759337e-04 1.328853795833e-03 0.0 
0.0 0.0 0.0 
9.598937132112e-06 1.703726432505e-04 0.0 
1.703726432505e-04 1.311166319556e-03 0.0 
0.0 0.0 0.0 
1.097808712839e-05 1.525093805852e-04 0.0 
1.525093805852e-04 1.295982305532e-03 0.0 
0.0 0.0 0.0 
9.525189161789e-06 1.349630381087e-04 0.0 
1.349630381087e-04 1.282282229626e-03 0.0 
0.0 0.0 0.0 
7.989720819094e-06 1.190353377624e-04 0.0 
1.190353377624e-04 1.273708471076e-03 0.0 
0.0 0.0 0.0 
8.148756742266e-06 1.042072032987e-04 0.0 
1.042072032987e-04 1.268880728021e-03 0.0 
0.0 0.0 0.0 
8.747233346762e-06 8.955158776036e-05 0.0 
8.955158776036e-05 1.263482880950e-03 0.0 
0.0 0.0 0.0 
9.855537371983e-06 7.359752482752e-05 0.0 
7.359752482752e-05 1.246015425122e-03 0.0 
0.0 0.0 0.0 
8.117578618183e-06 6.000085644567e-05 0.0 
6.000085644567e-05 1.250394072507e-03 0.0 
0.0 0.0 0.0 
6.887416160432e-06 4.755992842883e-05 0.0 
4.755992842883e-05 1.243307550847e-03 0.0 
0.0 0.0 0.0 
5.992168555495e-06 3.526671188740e-05 0.0 
3.526671188740e-05 1.242147670280e-03 0.0 
0.0 0.0 0.0 
6.388993016119e-06 2.446201387314e-05 0.0 
2.446201387314e-05 1.243006639600e-03 0.0 
0.0 0.0 0.0 
6.226779509714e-06 1.344125442703e-05 0.0 
1.344125442703e-05 1.241598501045e-03 0.0 
0.0 0.0 0.0 
-1.197622276646e-04 -1.909072725703e-06 0.0 
-1.909072725703e-06 1.900615153258e-03 0.0 
0.0 0.0 0.0 
-1.169948705122e-04 -1.731871489308e-06 0.0 
-1.731871489308e-06 1.963202778883e-03 0.0 
0.0 0.0 0.0 
-1.115355839203e-04 -1.239276815513e-06 0.0 
-1.239276815513e-06 2.023268877498e-03 0.0 
0.0 0.0 0.0 
-1.038509671344e-04 -7.682602731969e-07 0.0 
-7.682602731969e-07 2.080425629660e-03 0.0 
0.0 0.0 0.0 
-9.360733170686e-05 2.528225178200e-08 0.0 
2.528225178200e-08 2.136750581930e-03 0.0 
0.0 0.0 0.0 
-8.033960471857e-05 5.484329408238e-07 0.0 
5.484329408238e-07 2.190950795882e-03 0.0 
0.0 0.0 0.0 
-6.483437655950e-05 1.198832005804e-06 0.0 
1.198832005804e-06 2.242613819638e-03 0.0 
0.0 0.0 0.0 
-4.577466082145e-05 1.840634548295e-06 0.0 
1.840634548295e-06 2.291988023032e-03 0.0 
0.0 0.0 0.0 
-2.620654971419e-05 1.986361230848e-06 0.0 
1.986361230848e-06 2.340376813385e-03 0.0 
0.0 0.0 0.0 
-1.248251625881e-04 6.853830252549e-05 0.0 
6.853830252549e-05 7.735006949942e-05 0.0 
0.0 0.0 0.0 
-1.955948083520e-04 6.191439754991e-05 0.0 
6.191439754991e-05 1.846026588837e-03 0.0 
0.0 0.0 0.0 
-1.417040584829e-04 1.670178072553e-04 0.0 
1.670178072553e-04 1.953227802702e-04 0.0 
0.0 0.0 0.0 
-1.575122883494e-04 2.107351393144e-04 0.0 
2.107351393144e-04 3.854079189237e-04 0.0 
0.0 0.0 0.0 
-1.654664086784e-04 2.293445900490e-04 0.0 
2.293445900490e-04 5.907771487516e-04 0.0 
0.0 0.0 0.0 
-1.671557207195e-04 2.331023060829e-04 0.0 
2.331023060829e-04 7.923822091690e-04 0.0 
0.0 0.0 0.0 
-1.642769500544e-04 2.336698122896e-04 0.0 
2.336698122896e-04 9.979894609446e-04 0.0 
0.0 0.0 0.0 
-1.609896148011e-04 2.304227201636e-04 0.0 
2.304227201636e-04 1.207213528599e-03 0.0 
0.0 0.0 0.0 
-1.708307090827e-04 2.297484501485e-04 0.0 
2.297484501485e-04 1.419983003646e-03 0.0 
0.0 0.0 0.0 
-2.241857718067e-04 1.633503014647e-04 0.0 
1.633503014647e-04 1.672017548832e-03 0.0 
0.0 0.0 0.0 
-1.934673261543e-04 8.008047324607e-05 0.0 
8.008047324607e-05 1.775741751319e-03 0.0 
0.0 0.0 0.0 
-1.295942848543e-04 -4.103275214332e-06 0.0 
-4.103275214332e-06 1.734272851484e-03 0.0 
0.0 0.0 0.0 
-1.252247301981e-04 -3.437157693499e-06 0.0 
-3.437157693499e-06 1.771680999841e-03 0.0 
0.0 0.0 0.0 
-1.230098612528e-04 7.949064853677e-07 0.0 
7.949064853677e-07 1.829049585745e-03 0.0 
0.0 0.0 0.0 
-1.228994758893e-04 -3.689687184518e-07 0.0 
-3.689687184518e-07 1.833420062393e-03 0.0 
0.0 0.0 0.0 
-1.235887587394e-04 -5.439814946145e-07 0.0 
-5.439814946145e-07 1.833861618840e-03 0.0 
0.0 0.0 0.0 
-1.243349240181e-04 -1.177436883350e-06 0.0 
-1.177436883350e-06 1.833231356598e-03 0.0 
0.0 0.0 0.0 
-1.252948316755e-04 -8.531470863633e-07 0.0 
-8.531470863633e-07 1.842317997570e-03 0.0 
0.0 0.0 0.0 
-1.267974984428e-04 -1.687175009039e-06 0.0 
-1.687175009039e-06 1.835369150113e-03 0.0 
0.0 0.0 0.0 
-1.284145348865e-04 -2.090351205797e-06 0.0 
-2.090351205797e-06 1.835197694583e-03 0.0 
0.0 0.0 0.0 
-1.305041147547e-04 -1.707150850276e-06 0.0 
-1.707150850276e-06 1.836476812073e-03 0.0 
0.0 0.0 0.0 
-1.346960533967e-04 -1.026760077226e-06 0.0 
-1.026760077226e-06 1.839128519972e-03 0.0 
0.0 0.0 0.0 
-1.391368297231e-04 7.636706111655e-07 0.0 
7.636706111655e-07 1.839774806908e-03 0.0 
0.0 0.0 0.0 
-1.441010894844e-04 4.043663750303e-06 0.0 
4.043663750303e-06 1.840423822115e-03 0.0 
0.0 0.0 0.0 
-1.516266085274e-04 9.574239260544e-06 0.0 
9.574239260544e-06 1.841361597036e-03 0.0 
0.0 0.0 0.0 
-1.610760107055e-04 1.951176065468e-05 0.0 
1.951176065468e-05 1.842099147807e-03 0.0 
0.0 0.0 0.0 
-1.738648361595e-04 3.532147463079e-05 0.0 
3.532147463079e-05 1.843693453822e-03 0.0 
0.0 0.0 0.0 
-1.462203415454e-04 2.477527311437e-05 0.0 
2.477527311437e-05 8.602973162852e-05 0.0 
0.0 0.0 0.0 
-1.647434981591e-04 4.493374189589e-06 0.0 
4.493374189589e-06 9.018208776775e-05 0.0 
0.0 0.0 0.0 
-1.653449079008e-04 -6.041368403314e-06 0.0 
-6.041368403314e-06 8.708560280324e-05 0.0 
0.0 0.0 0.0 
-1.537273004374e-04 -8.531977891193e-06 0.0 
-8.531977891193e-06 8.118443744036e-05 0.0 
0.0 0.0 0.0 
-1.359294397258e-04 -1.100214469797e-05 0.0 
-1.100214469797e-05 7.464028426463e-05 0.0 
0.0 0.0 0.0 
-1.207749481394e-04 -1.115402646265e-05 0.0 
-1.115402646265e-05 6.879268722219e-05 0.0 
0.0 0.0 0.0 
-1.050280436214e-04 -1.074785588068e-05 0.0 
-1.074785588068e-05 6.216901344658e-05 0.0 
0.0 0.0 0.0 
-8.911958273391e-05 -1.018984807363e-05 0.0 
-1.018984807363e-05 5.522395030829e-05 0.0 
0.0 0.0 0.0 
-7.415053969380e-05 -9.819905557467e-06 0.0 
-9.819905557467e-06 4.884314405255e-05 0.0 
0.0 0.0 0.0 
-6.002032387024e-05 -9.124083222053e-06 0.0 
-9.124083222053e-06 4.267803972816e-05 0.0 
0.0 0.0 0.0 
-4.652289988183e-05 -8.179259553225e-06 0.0 
-8.179259553225e-06 3.761081603019e-05 0.0 
0.0 0.0 0.0 
-3.766458302383e-05 -7.214381163151e-06 0.0 
-7.214381163151e-06 3.421672617769e-05 0.0 
0.0 0.0 0.0 
-2.579226198881e-05 -5.852743863382e-06 0.0 
-5.852743863382e-06 2.858914868087e-05 0.0 
0.0 0.0 0.0 
-1.513467197500e-05 -5.511368768136e-06 0.0 
-5.511368768136e-06 2.312999516467e-05 0.0 
0.0 0.0 0.0 
-7.401708192134e-06 -5.211993289395e-06 0.0 
-5.211993289395e-06 1.994813350659e-05 0.0 
0.0 0.0 0.0 
-2.396743319810e-06 -3.908457838995e-06 0.0 
-3.908457838995e-06 1.811087133234e-05 0.0 
0.0 0.0 0.0 
2.082854690832e-06 -2.226766671789e-06 0.0 
-2.226766671789e-06 1.614138500764e-05 0.0 
0.0 0.0 0.0 
6.782128717224e-06 -4.029023578526e-07 0.0 
-4.029023578526e-07 1.301263904511e-05 0.0 
0.0 0.0 0.0 
8.606615030956e-06 5.161627677083e-07 0.0 
5.161627677083e-07 1.083061808904e-05 0.0 
0.0 0.0 0.0 
-1.277558653163e-04 2.984596126355e-06 0.0 
2.984596126355e-06 1.741207012625e-03 0.0 
0.0 0.0 0.0 
-1.224378589159e-04 5.192612453461e-07 0.0 
5.192612453461e-07 1.739789171720e-03 0.0 
0.0 0.0 0.0 
-1.222564950346e-04 -7.641559976699e-07 0.0 
-7.641559976699e-07 1.739247550729e-03 0.0 
0.0 0.0 0.0 
-1.216458032062e-04 -1.504307761136e-06 0.0 
-1.504307761136e-06 1.739100996909e-03 0.0 
0.0 0.0 0.0 
-1.202566618296e-04 -1.974973250058e-06 0.0 
-1.974973250058e-06 1.738648521299e-03 0.0 
0.0 0.0 0.0 
-1.184901255855e-04 -2.586075247428e-06 0.0 
-2.586075247428e-06 1.738123147001e-03 0.0 
0.0 0.0 0.0 
-1.160132448567e-04 -3.030603951518e-06 0.0 
-3.030603951518e-06 1.737403222653e-03 0.0 
0.0 0.0 0.0 
-1.133545758321e-04 -3.798053560965e-06 0.0 
-3.798053560965e-06 1.736292275943e-03 0.0 
0.0 0.0 0.0 
-1.100352516049e-04 -4.361205207459e-06 0.0 
-4.361205207459e-06 1.734616635767e-03 0.0 
0.0 0.0 0.0 
-1.064507879715e-04 -4.693446054362e-06 0.0 
-4.693446054362e-06 1.733335009889e-03 0.0 
0.0 0.0 0.0 
-1.029779397286e-04 -4.856953110139e-06 0.0 
-4.856953110139e-06 1.732028023558e-03 0.0 
0.0 0.0 0.0 
-1.002099207902e-04 -4.405118333815e-06 0.0 
-4.405118333815e-06 1.730660823601e-03 0.0 
0.0 0.0 0.0 
-9.920437637985e-05 -2.893870311694e-06 0.0 
-2.893870311694e-06 1.729887606374e-03 0.0 
0.0 0.0 0.0 
-1.016744727477e-04 -2.788108467597e-08 0.0 
-2.788108467597e-08 1.728899894012e-03 0.0 
0.0 0.0 0.0 
-1.071177153038e-04 9.843958170352e-06 0.0 
9.843958170352e-06 1.730178243964e-03 0.0 
0.0 0.0 0.0 
-1.289437884380e-04 2.522028925863e-05 0.0 
2.522028925863e-05 1.733459396687e-03 0.0 
0.0 0.0 0.0 
-1.781198989580e-04 4.758208691824e-05 0.0 
4.758208691824e-05 1.739257112455e-03 0.0 
0.0 0.0 0.0 
-1.558507352754e-04 3.502202606023e-05 0.0 
3.502202606023e-05 1.767540644483e-03 0.0 
0.0 0.0 0.0 
-1.460664258770e-04 2.124997157742e-05 0.0 
2.124997157742e-05 1.775507420390e-03 0.0 
0.0 0.0 0.0 
-1.326609152139e-04 8.602241778841e-06 0.0 
8.602241778841e-06 1.771750836373e-03 0.0 
0.0 0.0 0.0 
-1.258030015485e-04 2.724312878866e-06 0.0 
2.724312878866e-06 1.770733526794e-03 0.0 
0.0 0.0 0.0 
-1.223862446213e-04 -7.174379843028e-07 0.0 
-7.174379843028e-07 1.770574245662e-03 0.0 
0.0 0.0 0.0 
-1.208243354183e-04 -2.322254974502e-06 0.0 
-2.322254974502e-06 1.770614128867e-03 0.0 
0.0 0.0 0.0 
-1.204899158795e-04 -3.020142580627e-06 0.0 
-3.020142580627e-06 1.770581392928e-03 0.0 
0.0 0.0 0.0 
-1.207311533524e-04 -3.258017891080e-06 0.0 
-3.258017891080e-06 1.771010733699e-03 0.0 
0.0 0.0 0.0 
-1.208213955991e-04 -2.828488161470e-06 0.0 
-2.828488161470e-06 1.771532850558e-03 0.0 
0.0 0.0 0.0 
-1.215866449407e-04 -2.715302341269e-06 0.0 
-2.715302341269e-06 1.771623072788e-03 0.0 
0.0 0.0 0.0 
-1.219964289234e-04 -2.198684264427e-06 0.0 
-2.198684264427e-06 1.771727475079e-03 0.0 
0.0 0.0 0.0 
-1.224364736345e-04 -1.939685477932e-06 0.0 
-1.939685477932e-06 1.771754812598e-03 0.0 
0.0 0.0 0.0 
-1.228494053939e-04 -1.319482735151e-06 0.0 
-1.319482735151e-06 1.771977030735e-03 0.0 
0.0 0.0 0.0 
-1.229840232350e-04 -7.334206303526e-07 0.0 
-7.334206303526e-07 1.771874234480e-03 0.0 
0.0 0.0 0.0 
-1.234915093122e-04 -6.164771420395e-07 0.0 
-6.164771420395e-07 1.772665218283e-03 0.0 
0.0 0.0 0.0 
-1.255590436749e-04 2.910721899507e-06 0.0 
2.910721899507e-06 1.773108789762e-03 0.0 
0.0 0.0 0.0 
-1.282843113989e-04 1.248174397835e-04 0.0 
1.248174397835e-04 1.175788817563e-04 0.0 
0.0 0.0 0.0 
-1.516616545808e-04 1.940418333358e-04 0.0 
1.940418333358e-04 2.881795712231e-04 0.0 
0.0 0.0 0.0 
-1.618725187584e-04 2.227110530834e-04 0.0 
2.227110530834e-04 4.876125729062e-04 0.0 
0.0 0.0 0.0 
-1.664248206461e-04 2.337632337705e-04 0.0 
2.337632337705e-04 6.950746118193e-04 0.0 
0.0 0.0 0.0 
-1.701681918812e-04 2.387991845445e-04 0.0 
2.387991845445e-04 8.983449184243e-04 0.0 
0.0 0.0 0.0 
-1.626623309346e-04 2.384543394782e-04 0.0 
2.384543394782e-04 1.104414507860e-03 0.0 
0.0 0.0 0.0 
-1.620979619457e-04 2.311704567197e-04 0.0 
2.311704567197e-04 1.312364631278e-03 0.0 
0.0 0.0 0.0 
-1.994258969223e-04 2.266030069702e-04 0.0 
2.266030069702e-04 1.537668411063e-03 0.0 
0.0 0.0 0.0 
-2.154831271707e-04 1.040726339993e-04 0.0 
1.040726339993e-04 1.750923005745e-03 0.0 
0.0 0.0 0.0 
-1.958479218929e-04 7.292747228083e-05 0.0 
7.292747228083e-05 1.816975392016e-03 0.0 
0.0 0.0 0.0 
-1.213809123346e-04 1.791429099266e-04 0.0 
1.791429099266e-04 3.492967905833e-04 0.0 
0.0 0.0 0.0 
3.323485786703e-05 2.511393637966e-04 0.0 
2.511393637966e-04 1.365347412143e-03 0.0 
0.0 0.0 0.0 
-5.186635123354e-05 -1.654195262592e-05 0.0 
-1.654195262592e-05 5.989945979690e-05 0.0 
0.0 0.0 0.0 
-1.114687493479e-04 -1.484897367841e-05 0.0 
-1.484897367841e-05 8.465042096351e-05 0.0 
0.0 0.0 0.0 
2.968397434377e-05 1.582756442511e-04 0.0 
1.582756442511e-04 1.267171590600e-03 0.0 
0.0 0.0 0.0 
-1.368531532030e-04 2.286979168332e-04 0.0 
2.286979168332e-04 7.520019129144e-04 0.0 
0.0 0.0 0.0 
1.027338406610e-04 -3.866559854708e-07 0.0 
-3.866559854708e-07 5.892586233919e-04 0.0 
0.0 0.0 0.0 
2.964308942532e-05 3.266319871006e-04 0.0 
3.266319871006e-04 1.496149272601e-03 0.0 
0.0 0.0 0.0 
-1.424170434423e-04 2.405401059118e-04 0.0 
2.405401059118e-04 1.144029662892e-03 0.0 
0.0 0.0 0.0 
1.376890564275e-05 3.809426290588e-04 0.0 
3.809426290588e-04 1.685414356796e-03 0.0 
0.0 0.0 0.0 
-1.994407639305e-04 2.306920847948e-04 0.0 
2.306920847948e-04 1.581800869524e-03 0.0 
0.0 0.0 0.0 
2.429822439013e-05 9.392137787202e-05 0.0 
9.392137787202e-05 1.232199303937e-03 0.0 
0.0 0.0 0.0 
-1.271860515574e-05 -9.831061361833e-06 0.0 
-9.831061361833e-06 4.123955895389e-05 0.0 
0.0 0.0 0.0 
-1.037224752152e-05 3.862789151287e-04 0.0 
3.862789151287e-04 1.907854591752e-03 0.0 
0.0 0.0 0.0 
-2.159433455102e-04 1.084368527320e-04 0.0 
1.084368527320e-04 1.852124967862e-03 0.0 
0.0 0.0 0.0 
7.334825229177e-05 -3.536639274602e-06 0.0 
-3.536639274602e-06 3.519291737670e-04 0.0 
0.0 0.0 0.0 
1.012476710122e-04 3.927400651437e-06 0.0 
3.927400651437e-06 7.677221255210e-04 0.0 
0.0 0.0 0.0 
-3.115732673592e-05 3.478585966123e-04 0.0 
3.478585966123e-04 2.065085696900e-03 0.0 
0.0 0.0 0.0 
-3.971278852481e-05 2.580885066692e-04 0.0 
2.580885066692e-04 2.227375118058e-03 0.0 
0.0 0.0 0.0 
-2.568418955273e-05 7.030687482019e-05 0.0 
7.030687482019e-05 2.343019895092e-03 0.0 
0.0 0.0 0.0 
-3.532244252058e-05 1.217750270601e-04 0.0 
1.217750270601e-04 2.324746597488e-03 0.0 
0.0 0.0 0.0 
-3.780030067898e-05 1.855817876349e-04 0.0 
1.855817876349e-04 2.294548194841e-03 0.0 
0.0 0.0 0.0 
-1.876087044502e-04 4.750429654311e-05 0.0 
4.750429654311e-05 1.900711174081e-03 0.0 
0.0 0.0 0.0 
-1.479566772777e-04 8.730668048139e-06 0.0 
8.730668048139e-06 1.901506224415e-03 0.0 
0.0 0.0 0.0 
-1.326121817536e-04 3.068951449786e-06 0.0 
3.068951449786e-06 1.901442083749e-03 0.0 
0.0 0.0 0.0 
-9.908320097577e-05 3.464698723671e-06 0.0 
3.464698723671e-06 2.109497125592e-03 0.0 
0.0 0.0 0.0 
2.161205639399e-05 5.362289353451e-05 0.0 
5.362289353451e-05 1.212770396066e-03 0.0 
0.0 0.0 0.0 
-1.216328313829e-04 1.802293553605e-05 0.0 
1.802293553605e-05 9.886457780539e-05 0.0 
0.0 0.0 0.0 
5.342301198881e-06 -5.536790125902e-06 0.0 
-5.536790125902e-06 3.620611013496e-05 0.0 
0.0 0.0 0.0 
7.057310823022e-05 7.523487269958e-06 0.0 
7.523487269958e-06 9.938485525134e-04 0.0 
0.0 0.0 0.0 
-1.239264007085e-04 1.281581677259e-06 0.0 
1.281581677259e-06 1.890508783207e-03 0.0 
0.0 0.0 0.0 
3.672760416643e-05 -4.370226274604e-06 0.0 
-4.370226274604e-06 1.794553737217e-04 0.0 
0.0 0.0 0.0 
-4.317215657810e-05 3.014644803134e-04 0.0 
3.014644803134e-04 2.152893354219e-03 0.0 
0.0 0.0 0.0 
2.160430535562e-05 3.603908883320e-04 0.0 
3.603908883320e-04 1.591654989117e-03 0.0 
0.0 0.0 0.0 
2.045533672723e-06 3.911142383566e-04 0.0 
3.911142383566e-04 1.795546276767e-03 0.0 
0.0 0.0 0.0 
3.480668398976e-05 2.923280378308e-04 0.0 
2.923280378308e-04 1.423973456575e-03 0.0 
0.0 0.0 0.0 
3.005802640351e-05 2.126242827911e-04 0.0 
2.126242827911e-04 1.320855468169e-03 0.0 
0.0 0.0 0.0 
-8.732303641177e-05 -1.831248580364e-05 0.0 
-1.831248580364e-05 7.701720107415e-05 0.0 
0.0 0.0 0.0 
-1.639112098918e-04 2.015326043957e-05 0.0 
2.015326043957e-05 1.901254138135e-03 0.0 
0.0 0.0 0.0 
3.081586090189e-05 1.221630826845e-04 0.0 
1.221630826845e-04 1.230270783233e-03 0.0 
0.0 0.0 0.0 
-7.410072521848e-05 6.482022346991e-06 0.0 
6.482022346991e-06 2.216078198231e-03 0.0 
0.0 0.0 0.0 
-2.987301070845e-05 -1.499967525871e-05 0.0 
-1.499967525871e-05 5.166534221686e-05 0.0 
0.0 0.0 0.0 
9.187629619656e-05 -2.503181594004e-06 0.0 
-2.503181594004e-06 4.645596063514e-04 0.0 
0.0 0.0 0.0 
-1.979567593291e-05 4.308154160682e-05 0.0 
4.308154160682e-05 2.353597130593e-03 0.0 
0.0 0.0 0.0 
-1.351347284131e-04 2.368039099133e-04 0.0 
2.368039099133e-04 9.465191872550e-04 0.0 
0.0 0.0 0.0 
-1.298364979137e-04 2.107374879607e-04 0.0 
2.107374879607e-04 5.463050249500e-04 0.0 
0.0 0.0 0.0 
-1.530117905165e-04 2.452882448570e-04 0.0 
2.452882448570e-04 1.352996794596e-03 0.0 
0.0 0.0 0.0 
-2.167021058669e-04 1.566075678458e-04 0.0 
1.566075678458e-04 1.754433488736e-03 0.0 
0.0 0.0 0.0 
-1.151565913424e-04 1.227277388798e-04 0.0 
1.227277388798e-04 1.717743814487e-04 0.0 
0.0 0.0 0.0 
-1.139824100354e-04 1.590449001113e-06 0.0 
1.590449001113e-06 1.998334956484e-03 0.0 
0.0 0.0 0.0 
1.646126932777e-05 2.934954419769e-05 0.0 
2.934954419769e-05 1.220889995857e-03 0.0 
0.0 0.0 0.0 
1.155071209576e-05 -1.317918723403e-06 0.0 
-1.317918723403e-06 3.092781257038e-05 0.0 
0.0 0.0 0.0 
-3.638427874120e-05 1.061043833259e-05 0.0 
1.061043833259e-05 2.313482164545e-03 0.0 
0.0 0.0 0.0 
-2.151436629066e-04 9.693466445453e-05 0.0 
9.693466445453e-05 1.887909624245e-03 0.0 
0.0 0.0 0.0 
-2.174603228259e-04 1.377105063470e-04 0.0 
1.377105063470e-04 1.885819107984e-03 0.0 
0.0 0.0 0.0 
-2.127787301906e-04 1.166437796859e-04 0.0 
1.166437796859e-04 1.928970059937e-03 0.0 
0.0 0.0 0.0 
-2.106532337696e-04 1.628125463000e-04 0.0 
1.628125463000e-04 1.918384686236e-03 0.0 
0.0 0.0 0.0 
-2.080456277014e-04 1.461665369545e-04 0.0 
1.461665369545e-04 1.967100375043e-03 0.0 
0.0 0.0 0.0 
-1.991145547950e-04 1.837981539343e-04 0.0 
1.837981539343e-04 1.951993010421e-03 0.0 
0.0 0.0 0.0 
-1.980106593601e-04 2.029310190501e-04 0.0 
2.029310190501e-04 1.895048551751e-03 0.0 
0.0 0.0 0.0 
-1.830284690792e-04 2.191880770818e-04 0.0 
2.191880770818e-04 1.927611746438e-03 0.0 
0.0 0.0 0.0 
-1.766632003240e-04 2.378421718853e-04 0.0 
2.378421718853e-04 1.860897989022e-03 0.0 
0.0 0.0 0.0 
-1.959183686790e-04 1.689174309561e-04 0.0 
1.689174309561e-04 2.002318747831e-03 0.0 
0.0 0.0 0.0 
-1.608421168720e-04 2.496642562077e-04 0.0 
2.496642562077e-04 1.895314653716e-03 0.0 
0.0 0.0 0.0 
-1.501503199729e-04 2.656969973953e-04 0.0 
2.656969973953e-04 1.820455975246e-03 0.0 
0.0 0.0 0.0 
-1.346815500797e-04 2.746547646718e-04 0.0 
2.746547646718e-04 1.857605210809e-03 0.0 
0.0 0.0 0.0 
-1.210742546479e-04 2.869539335952e-04 0.0 
2.869539335952e-04 1.777054807723e-03 0.0 
0.0 0.0 0.0 
-1.333930915683e-04 2.810226671086e-04 0.0 
2.810226671086e-04 1.736581816744e-03 0.0 
0.0 0.0 0.0 
-1.020729645620e-04 2.972773096306e-04 0.0 
2.972773096306e-04 1.688898066805e-03 0.0 
0.0 0.0 0.0 
-1.115423607336e-04 2.934366636368e-04 0.0 
2.934366636368e-04 1.644648667982e-03 0.0 
0.0 0.0 0.0 
-7.896233568661e-05 3.041308495949e-04 0.0 
3.041308495949e-04 1.594214536616e-03 0.0 
0.0 0.0 0.0 
-7.130675158856e-05 3.077560286684e-04 0.0 
3.077560286684e-04 1.642841478407e-03 0.0 
0.0 0.0 0.0 
-4.780023905177e-05 3.095320852980e-04 0.0 
3.095320852980e-04 1.546739470652e-03 0.0 
0.0 0.0 0.0 
-5.299068940851e-05 3.064844996734e-04 0.0 
3.064844996734e-04 1.494204323877e-03 0.0 
0.0 0.0 0.0 
-2.227576016887e-05 3.073622659365e-04 0.0 
3.073622659365e-04 1.447116737180e-03 0.0 
0.0 0.0 0.0 
-2.614369361235e-05 3.039335245082e-04 0.0 
3.039335245082e-04 1.391304791241e-03 0.0 
0.0 0.0 0.0 
3.515180315679e-06 3.006599126659e-04 0.0 
3.006599126659e-04 1.345848789959e-03 0.0 
0.0 0.0 0.0 
-5.549846317695e-08 2.962795962955e-04 0.0 
2.962795962955e-04 1.287096401150e-03 0.0 
0.0 0.0 0.0 
2.836792599255e-05 2.897183620273e-04 0.0 
2.897183620273e-04 1.244384948600e-03 0.0 
0.0 0.0 0.0 
3.015785434087e-05 2.948938687135e-04 0.0 
2.948938687135e-04 1.305808470064e-03 0.0 
0.0 0.0 0.0 
5.357138284438e-05 2.813779614403e-04 0.0 
2.813779614403e-04 1.207288178666e-03 0.0 
0.0 0.0 0.0 
5.147569137494e-05 2.752722121335e-04 0.0 
2.752722121335e-04 1.144109112551e-03 0.0 
0.0 0.0 0.0 
7.508117940850e-05 2.645965014246e-04 0.0 
2.645965014246e-04 1.110468614936e-03 0.0 
0.0 0.0 0.0 
7.197715949425e-05 2.574257890023e-04 0.0 
2.574257890023e-04 1.046058952345e-03 0.0 
0.0 0.0 0.0 
9.399374650043e-05 2.447957385624e-04 0.0 
2.447957385624e-04 1.016046668755e-03 0.0 
0.0 0.0 0.0 
9.515927288872e-05 2.531417618325e-04 0.0 
2.531417618325e-04 1.082474665711e-03 0.0 
0.0 0.0 0.0 
1.123395777111e-04 2.318232816289e-04 0.0 
2.318232816289e-04 9.921842087966e-04 0.0 
0.0 0.0 0.0 
1.097984656545e-04 2.222415804860e-04 0.0 
2.222415804860e-04 9.245883115514e-04 0.0 
0.0 0.0 0.0 
1.264751346198e-04 2.083435588916e-04 0.0 
2.083435588916e-04 9.054254669290e-04 0.0 
0.0 0.0 0.0 
1.221438253214e-04 1.975791763401e-04 0.0 
1.975791763401e-04 8.371368448283e-04 0.0 
0.0 0.0 0.0 
1.372790673498e-04 1.833300000687e-04 0.0 
1.833300000687e-04 8.228749927598e-04 0.0 
0.0 0.0 0.0 
1.307911293981e-04 1.717204683246e-04 0.0 
1.717204683246e-04 7.542975990481e-04 0.0 
0.0 0.0 0.0 
1.444790359388e-04 1.570480125522e-04 0.0 
1.570480125522e-04 7.445079356631e-04 0.0 
0.0 0.0 0.0 
1.487222868124e-04 1.697146191566e-04 0.0 
1.697146191566e-04 8.136953625508e-04 0.0 
0.0 0.0 0.0 
1.545479112383e-04 1.436029944360e-04 0.0 
1.436029944360e-04 7.395316744503e-04 0.0 
0.0 0.0 0.0 
1.478710310506e-04 1.303164980405e-04 0.0 
1.303164980405e-04 6.709330861623e-04 0.0 
0.0 0.0 0.0 
1.567631570109e-04 1.173355391800e-04 0.0 
1.173355391800e-04 6.700955416780e-04 0.0 
0.0 0.0 0.0 
1.615557786908e-04 1.316596881970e-04 0.0 
1.316596881970e-04 7.391085469329e-04 0.0 
0.0 0.0 0.0 
1.626786626560e-04 1.062071816579e-04 0.0 
1.062071816579e-04 6.734949111404e-04 0.0 
0.0 0.0 0.0 
1.656374089384e-04 1.213505164812e-04 0.0 
1.213505164812e-04 7.427908218331e-04 0.0 
0.0 0.0 0.0 
1.658947488076e-04 9.686773516034e-05 0.0 
9.686773516034e-05 6.806780151396e-04 0.0 
0.0 0.0 0.0 
1.604865098434e-04 8.166019827212e-05 0.0 
8.166019827212e-05 6.132203417919e-04 0.0 
0.0 0.0 0.0 
1.630698093695e-04 7.348599999439e-05 0.0 
7.348599999439e-05 6.234966468773e-04 0.0 
0.0 0.0 0.0 
1.667421709720e-04 8.909502180766e-05 0.0 
8.909502180766e-05 6.910844784688e-04 0.0 
0.0 0.0 0.0 
1.635178751889e-04 6.683396946460e-05 0.0 
6.683396946460e-05 6.364623619185e-04 0.0 
0.0 0.0 0.0 
1.573915014334e-04 5.151511302944e-05 0.0 
5.151511302944e-05 5.709417445204e-04 0.0 
0.0 0.0 0.0 
1.577341468256e-04 4.636660382993e-05 0.0 
4.636660382993e-05 5.863925298536e-04 0.0 
0.0 0.0 0.0 
1.621660468872e-04 6.173699255713e-05 0.0 
6.173699255713e-05 6.521629039401e-04 0.0 
0.0 0.0 0.0 
1.564752113584e-04 4.254325887006e-05 0.0 
4.254325887006e-05 6.040992594232e-04 0.0 
0.0 0.0 0.0 
1.497401042492e-04 2.779312854562e-05 0.0 
2.779312854562e-05 5.404019733334e-04 0.0 
0.0 0.0 0.0 
1.488177532394e-04 2.539326045695e-05 0.0 
2.539326045695e-05 5.597623557605e-04 0.0 
0.0 0.0 0.0 
1.539088868322e-04 3.993459635903e-05 0.0 
3.993459635903e-05 6.240988695467e-04 0.0 
0.0 0.0 0.0 
1.467519896211e-04 2.390477595389e-05 0.0 
2.390477595389e-05 5.807310786069e-04 0.0 
0.0 0.0 0.0 
1.395402593873e-04 1.038334579137e-05 0.0 
1.038334579137e-05 5.185006158245e-04 0.0 
0.0 0.0 0.0 
1.381485337382e-04 1.018131409279e-05 0.0 
1.018131409279e-05 5.403318949585e-04 0.0 
0.0 0.0 0.0 
1.437758773316e-04 2.331761220461e-05 0.0 
2.331761220461e-05 6.033871007818e-04 0.0 
0.0 0.0 0.0 
1.359622226364e-04 1.060212237846e-05 0.0 
1.060212237846e-05 5.634105601428e-04 0.0 
0.0 0.0 0.0 
1.399720357014e-04 2.324768303340e-05 0.0 
2.324768303340e-05 6.272949315034e-04 0.0 
0.0 0.0 0.0 
1.283737068247e-04 -1.371760611611e-06 0.0 
-1.371760611611e-06 5.018880955436e-04 0.0 
0.0 0.0 0.0 
1.271885162356e-04 6.398206878780e-08 0.0 
6.398206878780e-08 5.254921043062e-04 0.0 
0.0 0.0 0.0 
1.177758603458e-04 -1.052217421141e-05 0.0 
-1.052217421141e-05 4.653068222407e-04 0.0 
0.0 0.0 0.0 
1.177244147559e-04 -8.157797348607e-06 0.0 
-8.157797348607e-06 4.894745048803e-04 0.0 
0.0 0.0 0.0 
1.114929950732e-04 2.415487386216e-04 0.0 
2.415487386216e-04 1.060288440602e-03 0.0 
0.0 0.0 0.0 
1.068720473660e-04 -1.718159596994e-05 0.0 
-1.718159596994e-05 4.306238436667e-04 0.0 
0.0 0.0 0.0 
1.051703595151e-04 -1.989896275103e-05 0.0 
-1.989896275103e-05 4.076774901787e-04 0.0 
0.0 0.0 0.0 
1.079645689269e-04 -1.410631324224e-05 0.0 
-1.410631324224e-05 4.550278539734e-04 0.0 
0.0 0.0 0.0 
1.170759499038e-04 -5.524176946288e-06 0.0 
-5.524176946288e-06 5.147731961467e-04 0.0 
0.0 0.0 0.0 
9.598667583177e-05 -2.159314930877e-05 0.0 
-2.159314930877e-05 3.971713011732e-04 0.0 
0.0 0.0 0.0 
9.817853761248e-05 -1.795642633879e-05 0.0 
-1.795642633879e-05 4.217179427091e-04 0.0 
0.0 0.0 0.0 
8.525580577542e-05 -2.380281971834e-05 0.0 
-2.380281971834e-05 3.648351736595e-04 0.0 
0.0 0.0 0.0 
1.131447678277e-04 1.871610230850e-04 0.0 
1.871610230850e-04 7.684628040329e-04 0.0 
0.0 0.0 0.0 
-4.226295032630e-05 3.137039694039e-04 0.0 
3.137039694039e-04 1.599402517557e-03 0.0 
0.0 0.0 0.0 
8.851991548216e-05 -1.977620437478e-05 0.0 
-1.977620437478e-05 3.893486307297e-04 0.0 
0.0 0.0 0.0 
7.502532031212e-05 -2.414386405816e-05 0.0 
-2.414386405816e-05 3.332188757789e-04 0.0 
0.0 0.0 0.0 
7.011039470843e-05 -2.809344815225e-05 0.0 
-2.809344815225e-05 3.093254003406e-04 0.0 
0.0 0.0 0.0 
5.989331159436e-05 -2.689769300514e-05 0.0 
-2.689769300514e-05 2.781747808293e-04 0.0 
0.0 0.0 0.0 
-2.016174074016e-04 1.345440340076e-04 0.0 
1.345440340076e-04 2.008799900711e-03 0.0 
0.0 0.0 0.0 
-1.875690550627e-04 1.570177869696e-04 0.0 
1.570177869696e-04 2.047899196806e-03 0.0 
0.0 0.0 0.0 
-1.916152124743e-04 1.235042641305e-04 0.0 
1.235042641305e-04 2.048361096705e-03 0.0 
0.0 0.0 0.0 
-1.768757976046e-04 1.476620259483e-04 0.0 
1.476620259483e-04 2.090023835144e-03 0.0 
0.0 0.0 0.0 
-1.798017802365e-04 1.169079055735e-04 0.0 
1.169079055735e-04 2.086419113785e-03 0.0 
0.0 0.0 0.0 
6.556933353422e-05 -2.291904876121e-05 0.0 
-2.291904876121e-05 3.018479108644e-04 0.0 
0.0 0.0 0.0 
-1.421213839219e-04 2.620727647367e-04 0.0 
2.620727647367e-04 1.930552364481e-03 0.0 
0.0 0.0 0.0 
-1.690559470812e-04 1.791119043909e-04 0.0 
1.791119043909e-04 2.085652156635e-03 0.0 
0.0 0.0 0.0 
-5.854110180153e-05 3.034301954370e-04 0.0 
3.034301954370e-04 1.442603098494e-03 0.0 
0.0 0.0 0.0 
4.640372219626e-05 2.689173447063e-04 0.0 
2.689173447063e-04 1.081876611986e-03 0.0 
0.0 0.0 0.0 
1.621500707373e-04 1.464066230597e-04 0.0 
1.464066230597e-04 8.097522980461e-04 0.0 
0.0 0.0 0.0 
9.978680769455e-05 -1.428360677659e-05 0.0 
-1.428360677659e-05 4.468404722541e-04 0.0 
0.0 0.0 0.0 
9.117695005560e-05 -1.568199983319e-05 0.0 
-1.568199983319e-05 4.143797378112e-04 0.0 
0.0 0.0 0.0 
1.008217490005e-04 -1.077851381669e-05 0.0 
-1.077851381669e-05 4.725434686150e-04 0.0 
0.0 0.0 0.0 
1.456865177569e-04 3.709190516485e-05 0.0 
3.709190516485e-05 6.690813473800e-04 0.0 
0.0 0.0 0.0 
1.402670117578e-04 3.634758893304e-05 0.0 
3.634758893304e-05 6.935729478757e-04 0.0 
0.0 0.0 0.0 
1.437204575201e-04 5.123411698129e-05 0.0 
5.123411698129e-05 7.371999423581e-04 0.0 
0.0 0.0 0.0 
1.367404183746e-04 4.963125860693e-05 0.0 
4.963125860693e-05 7.621713820441e-04 0.0 
0.0 0.0 0.0 
1.377777152770e-04 6.542222542076e-05 0.0 
6.542222542076e-05 8.076485424507e-04 0.0 
0.0 0.0 0.0 
1.293583742337e-04 6.284743071188e-05 0.0 
6.284743071188e-05 8.331233299986e-04 0.0 
0.0 0.0 0.0 
1.292439613753e-04 4.793954684237e-05 0.0 
4.793954684237e-05 7.882869395991e-04 0.0 
0.0 0.0 0.0 
1.204651149632e-04 6.000790155258e-05 0.0 
6.000790155258e-05 8.597713008119e-04 0.0 
0.0 0.0 0.0 
1.213783487565e-04 4.601196269148e-05 0.0 
4.601196269148e-05 8.153825488293e-04 0.0 
0.0 0.0 0.0 
1.278856796783e-04 7.942381323302e-05 0.0 
7.942381323302e-05 8.804114902518e-04 0.0 
0.0 0.0 0.0 
1.371142545777e-04 8.287236918044e-05 0.0 
8.287236918044e-05 8.557342092530e-04 0.0 
0.0 0.0 0.0 
1.112970707003e-04 5.683383381891e-05 0.0 
5.683383381891e-05 8.873760344927e-04 0.0 
0.0 0.0 0.0 
1.132717382510e-04 4.373283411259e-05 0.0 
4.373283411259e-05 8.433825499045e-04 0.0 
0.0 0.0 0.0 
1.019936566660e-04 5.328342886938e-05 0.0 
5.328342886938e-05 9.159701692393e-04 0.0 
0.0 0.0 0.0 
1.050561391756e-04 4.088251784001e-05 0.0 
4.088251784001e-05 8.721742801458e-04 0.0 
0.0 0.0 0.0 
1.140042592124e-04 3.226255227120e-05 0.0 
3.226255227120e-05 8.011473204659e-04 0.0 
0.0 0.0 0.0 
1.070018882101e-04 3.012774068456e-05 0.0 
3.012774068456e-05 8.299145426611e-04 0.0 
0.0 0.0 0.0 
1.137011206024e-04 2.251308085685e-05 0.0 
2.251308085685e-05 7.607704993339e-04 0.0 
0.0 0.0 0.0 
1.644997182921e-04 1.368700107327e-04 0.0 
1.368700107327e-04 8.137362327893e-04 0.0 
0.0 0.0 0.0 
1.588080437734e-04 1.616378501230e-04 0.0 
1.616378501230e-04 8.819586588219e-04 0.0 
0.0 0.0 0.0 
1.594630081331e-04 1.527821855509e-04 0.0 
1.527821855509e-04 8.861739235906e-04 0.0 
0.0 0.0 0.0 
1.516537326850e-04 1.772558443778e-04 0.0 
1.772558443778e-04 9.554496483856e-04 0.0 
0.0 0.0 0.0 
1.505375306996e-04 1.690483476533e-04 0.0 
1.690483476533e-04 9.601554152595e-04 0.0 
0.0 0.0 0.0 
1.407151252178e-04 1.933134305804e-04 0.0 
1.933134305804e-04 1.030333676173e-03 0.0 
0.0 0.0 0.0 
1.376469082274e-04 1.857279084383e-04 0.0 
1.857279084383e-04 1.035590123076e-03 0.0 
0.0 0.0 0.0 
1.468679634553e-04 1.617019181670e-04 0.0 
1.617019181670e-04 9.685905058558e-04 0.0 
0.0 0.0 0.0 
-1.067970416233e-04 2.946760232871e-04 0.0 
2.946760232871e-04 1.816917476419e-03 0.0 
0.0 0.0 0.0 
1.476601024732e-04 1.035949777692e-04 0.0 
1.035949777692e-04 6.026732677309e-04 0.0 
0.0 0.0 0.0 
1.366919113225e-04 1.176639620754e-04 0.0 
1.176639620754e-04 6.037169051257e-04 0.0 
0.0 0.0 0.0 
1.339323693026e-04 9.060045599022e-05 0.0 
9.060045599022e-05 5.367831946538e-04 0.0 
0.0 0.0 0.0 
1.205876272215e-04 1.058107723305e-04 0.0 
1.058107723305e-04 5.380829426920e-04 0.0 
0.0 0.0 0.0 
1.152118801784e-04 7.860606839730e-05 0.0 
7.860606839730e-05 4.725477219990e-04 0.0 
0.0 0.0 0.0 
9.905518244672e-05 9.522201746353e-05 0.0 
9.522201746353e-05 4.743298446098e-04 0.0 
0.0 0.0 0.0 
9.091265130035e-05 6.809358472246e-05 0.0 
6.809358472246e-05 4.100431241769e-04 0.0 
0.0 0.0 0.0 
1.061230349851e-04 5.267110909679e-05 0.0 
5.267110909679e-05 4.129882763242e-04 0.0 
0.0 0.0 0.0 
7.896402403925e-05 4.261507353274e-05 0.0 
4.261507353274e-05 3.519619229883e-04 0.0 
0.0 0.0 0.0 
9.360485819417e-05 2.855089796906e-05 0.0 
2.855089796906e-05 3.595776099539e-04 0.0 
0.0 0.0 0.0 
6.369455601392e-05 1.911429052267e-05 0.0 
1.911429052267e-05 3.003761731342e-04 0.0 
0.0 0.0 0.0 
7.793418479918e-05 7.110065436409e-06 0.0 
7.110065436409e-06 3.120347578541e-04 0.0 
0.0 0.0 0.0 
5.347362082353e-05 2.877624724098e-04 0.0 
2.877624724098e-04 1.270934023280e-03 0.0 
0.0 0.0 0.0 
1.411039689619e-04 2.017540997000e-04 0.0 
2.017540997000e-04 1.028701269567e-03 0.0 
0.0 0.0 0.0 
1.284259919953e-04 2.178000278103e-04 0.0 
2.178000278103e-04 1.104284515726e-03 0.0 
0.0 0.0 0.0 
1.282156650793e-04 2.258326667082e-04 0.0 
2.258326667082e-04 1.104952553293e-03 0.0 
0.0 0.0 0.0 
5.324062693668e-05 -3.051910584151e-05 0.0 
-3.051910584151e-05 2.548341027693e-04 0.0 
0.0 0.0 0.0 
9.689575409984e-05 3.734746795590e-05 0.0 
3.734746795590e-05 9.016569556206e-04 0.0 
0.0 0.0 0.0 
1.245691759917e-04 9.747557797529e-05 0.0 
9.747557797529e-05 9.304564095847e-04 0.0 
0.0 0.0 0.0 
1.344544013308e-04 1.017255049880e-04 0.0 
1.017255049880e-04 9.064646813495e-04 0.0 
0.0 0.0 0.0 
1.320011955619e-04 1.788968263826e-04 0.0 
1.788968263826e-04 1.045165534959e-03 0.0 
0.0 0.0 0.0 
5.079697290485e-05 -2.423277225005e-05 0.0 
-2.423277225005e-05 2.475904560432e-04 0.0 
0.0 0.0 0.0 
7.167476889954e-05 8.651648106812e-05 0.0 
8.651648106812e-05 4.126151742412e-04 0.0 
0.0 0.0 0.0 
7.828358477265e-05 1.144080796158e-04 0.0 
1.144080796158e-04 4.819742211318e-04 0.0 
0.0 0.0 0.0 
-1.633538157038e-04 1.400552389390e-04 0.0 
1.400552389390e-04 2.128501223203e-03 0.0 
0.0 0.0 0.0 
-1.657877511425e-04 1.119687937766e-04 0.0 
1.119687937766e-04 2.121370611094e-03 0.0 
0.0 0.0 0.0 
1.191482835719e-04 1.169491842456e-04 0.0 
1.169491842456e-04 9.834113141951e-04 0.0 
0.0 0.0 0.0 
5.692574058828e-05 -2.034090535293e-05 0.0 
-2.034090535293e-05 2.709328846204e-04 0.0 
0.0 0.0 0.0 
1.078209578986e-04 7.160706408212e-05 0.0 
7.160706408212e-05 9.336175583290e-04 0.0 
0.0 0.0 0.0 
4.625319714809e-05 3.468076482831e-05 0.0 
3.468076482831e-05 2.928747082593e-04 0.0 
0.0 0.0 0.0 
1.000890764505e-04 2.738388198174e-05 0.0 
2.738388198174e-05 8.592712359492e-04 0.0 
0.0 0.0 0.0 
8.880840106743e-05 3.317258337558e-05 0.0 
3.317258337558e-05 9.316067001284e-04 0.0 
0.0 0.0 0.0 
1.277595926414e-04 3.488854676701e-05 0.0 
3.488854676701e-05 7.458007852211e-04 0.0 
0.0 0.0 0.0 
1.142514936575e-04 2.420425462417e-04 0.0 
2.420425462417e-04 1.181156627981e-03 0.0 
0.0 0.0 0.0 
1.133118887295e-04 2.487810444081e-04 0.0 
2.487810444081e-04 1.183803306585e-03 0.0 
0.0 0.0 0.0 
1.045434593668e-04 1.781156718878e-05 0.0 
1.781156718878e-05 3.712970067576e-04 0.0 
0.0 0.0 0.0 
8.864031541593e-05 -1.377290147193e-06 0.0 
-1.377290147193e-06 3.268778844462e-04 0.0 
0.0 0.0 0.0 
6.009002030290e-05 -1.050543310409e-05 0.0 
-1.050543310409e-05 2.715997310167e-04 0.0 
0.0 0.0 0.0 
7.093488894812e-05 -1.644455603267e-05 0.0 
-1.644455603267e-05 2.885820374157e-04 0.0 
0.0 0.0 0.0 
9.779160725768e-05 -7.104975773879e-06 0.0 
-7.104975773879e-06 3.432160870346e-04 0.0 
0.0 0.0 0.0 
8.102673228205e-05 -2.098071672560e-05 0.0 
-2.098071672560e-05 3.048875456227e-04 0.0 
0.0 0.0 0.0 
5.390738241480e-05 -2.856020926147e-05 0.0 
-2.856020926147e-05 2.509784318650e-04 0.0 
0.0 0.0 0.0 
6.349793151113e-05 -3.085702818056e-05 0.0 
-3.085702818056e-05 2.695907293056e-04 0.0 
0.0 0.0 0.0 
8.881277918575e-05 -2.318999256799e-05 0.0 
-2.318999256799e-05 3.239877328776e-04 0.0 
0.0 0.0 0.0 
7.232444530569e-05 -3.189724674850e-05 0.0 
-3.189724674850e-05 2.895382745403e-04 0.0 
0.0 0.0 0.0 
4.590880335298e-05 -3.725803477434e-05 0.0 
-3.725803477434e-05 2.365619319512e-04 0.0 
0.0 0.0 0.0 
5.607660997934e-05 -3.686662008614e-05 0.0 
-3.686662008614e-05 2.568224682589e-04 0.0 
0.0 0.0 0.0 
8.334848068470e-05 4.400499072929e-05 0.0 
4.400499072929e-05 9.754987948387e-04 0.0 
0.0 0.0 0.0 
2.843744212178e-05 1.158887306483e-05 0.0 
1.158887306483e-05 2.437196655491e-04 0.0 
0.0 0.0 0.0 
-1.447110271751e-04 2.757778394847e-04 0.0 
2.757778394847e-04 1.697549094790e-03 0.0 
0.0 0.0 0.0 
1.079581338858e-04 1.116647183241e-04 0.0 
1.116647183241e-04 1.007337246764e-03 0.0 
0.0 0.0 0.0 
1.205004908725e-04 2.030526746856e-04 0.0 
2.030526746856e-04 1.112409889475e-03 0.0 
0.0 0.0 0.0 
-1.474933770973e-04 1.340194017755e-04 0.0 
1.340194017755e-04 2.164267727964e-03 0.0 
0.0 0.0 0.0 
-1.501112543102e-04 1.080800075560e-04 0.0 
1.080800075560e-04 2.154275038358e-03 0.0 
0.0 0.0 0.0 
-1.642177264108e-04 8.660592505564e-05 0.0 
8.660592505564e-05 2.107427687545e-03 0.0 
0.0 0.0 0.0 
-1.496058941274e-04 8.469776358487e-05 0.0 
8.469776358487e-05 2.138750112000e-03 0.0 
0.0 0.0 0.0 
-1.328815855111e-04 1.045165152084e-04 0.0 
1.045165152084e-04 2.185294841966e-03 0.0 
0.0 0.0 0.0 
-1.337908175156e-04 8.272291275060e-05 0.0 
8.272291275060e-05 2.168703093170e-03 0.0 
0.0 0.0 0.0 
-1.469101273048e-04 6.441050275221e-05 0.0 
6.441050275221e-05 2.118786675420e-03 0.0 
0.0 0.0 0.0 
-1.327635680550e-04 6.376048319671e-05 0.0 
6.376048319671e-05 2.148279144858e-03 0.0 
0.0 0.0 0.0 
-1.427679909197e-04 4.736452524893e-05 0.0 
4.736452524893e-05 2.095321609737e-03 0.0 
0.0 0.0 0.0 
-1.305051996209e-04 4.783767688809e-05 0.0 
4.783767688809e-05 2.124885032114e-03 0.0 
0.0 0.0 0.0 
-1.178437610455e-04 6.254942297939e-05 0.0 
6.254942297939e-05 2.176979206389e-03 0.0 
0.0 0.0 0.0 
-1.174300071627e-04 4.744727055041e-05 0.0 
4.744727055041e-05 2.153695104700e-03 0.0 
0.0 0.0 0.0 
-1.277466384707e-04 3.481976117587e-05 0.0 
3.481976117587e-05 2.099306435675e-03 0.0 
0.0 0.0 0.0 
-1.165219875694e-04 3.485765741456e-05 0.0 
3.485765741456e-05 2.128577226287e-03 0.0 
0.0 0.0 0.0 
-1.250222451200e-04 2.439253389736e-05 0.0 
2.439253389736e-05 2.072237051136e-03 0.0 
0.0 0.0 0.0 
-1.154851994339e-04 2.463000707939e-05 0.0 
2.463000707939e-05 2.101881303679e-03 0.0 
0.0 0.0 0.0 
-1.046773797200e-04 3.393686743799e-05 0.0 
3.393686743799e-05 2.157276907351e-03 0.0 
0.0 0.0 0.0 
4.292922010633e-05 -2.049579587780e-05 0.0 
-2.049579587780e-05 2.182051202238e-04 0.0 
0.0 0.0 0.0 
1.407755612189e-04 1.551939635704e-04 0.0 
1.551939635704e-04 9.805584122938e-04 0.0 
0.0 0.0 0.0 
1.236642951633e-04 1.727249326530e-04 0.0 
1.727249326530e-04 1.058999612481e-03 0.0 
0.0 0.0 0.0 
9.325993535395e-05 -1.217209167829e-05 0.0 
-1.217209167829e-05 4.414637649806e-04 0.0 
0.0 0.0 0.0 
1.018970691569e-04 -7.807981292686e-06 0.0 
-7.807981292686e-06 4.979896482974e-04 0.0 
0.0 0.0 0.0 
1.080523032149e-04 -4.682401269360e-06 0.0 
-4.682401269360e-06 5.323168423675e-04 0.0 
0.0 0.0 0.0 
1.076270563647e-04 -2.228308875784e-06 0.0 
-2.228308875784e-06 5.594414085015e-04 0.0 
0.0 0.0 0.0 
-1.055714867435e-04 2.381862732916e-05 0.0 
2.381862732916e-05 2.130946800254e-03 0.0 
0.0 0.0 0.0 
-9.267922265233e-05 3.180261203062e-05 0.0 
3.180261203062e-05 2.185556516023e-03 0.0 
0.0 0.0 0.0 
4.768868948187e-05 1.082990115070e-04 0.0 
1.082990115070e-04 4.215744513552e-04 0.0 
0.0 0.0 0.0 
5.206462905261e-05 1.359297744327e-04 0.0 
1.359297744327e-04 4.967440961188e-04 0.0 
0.0 0.0 0.0 
-1.410988547012e-04 1.619722697176e-04 0.0 
1.619722697176e-04 2.168013736776e-03 0.0 
0.0 0.0 0.0 
9.312866598473e-05 2.377524881819e-05 0.0 
2.377524881819e-05 8.895687840741e-04 0.0 
0.0 0.0 0.0 
1.022151975907e-04 1.900009684167e-05 0.0 
1.900009684167e-05 8.187112641072e-04 0.0 
0.0 0.0 0.0 
6.516877310207e-05 2.499480536635e-04 0.0 
2.499480536635e-04 9.828973324040e-04 0.0 
0.0 0.0 0.0 
3.706182031230e-05 2.616850539508e-04 0.0 
2.616850539508e-04 1.021033439815e-03 0.0 
0.0 0.0 0.0 
5.329210565005e-05 2.419853955949e-04 0.0 
2.419853955949e-04 9.211386845523e-04 0.0 
0.0 0.0 0.0 
2.139750413651e-05 2.531384613586e-04 0.0 
2.531384613586e-04 9.614353805720e-04 0.0 
0.0 0.0 0.0 
5.086442794955e-06 2.709062028907e-04 0.0 
2.709062028907e-04 1.066327153716e-03 0.0 
0.0 0.0 0.0 
3.421052328845e-05 2.330762650667e-04 0.0 
2.330762650667e-04 8.598519907409e-04 0.0 
0.0 0.0 0.0 
1.456381017484e-04 8.615919324577e-05 0.0 
8.615919324577e-05 8.319011352191e-04 0.0 
0.0 0.0 0.0 
-1.023592581654e-04 6.039886713124e-05 0.0 
6.039886713124e-05 2.204785293229e-03 0.0 
0.0 0.0 0.0 
6.422491285933e-05 -3.160980154206e-05 0.0 
-3.160980154206e-05 2.861332278760e-04 0.0 
0.0 0.0 0.0 
4.548186851187e-05 -3.339048382243e-05 0.0 
-3.339048382243e-05 2.323867111247e-04 0.0 
0.0 0.0 0.0 
8.057626013813e-05 2.829942765506e-05 0.0 
2.829942765506e-05 9.627354058405e-04 0.0 
0.0 0.0 0.0 
1.534805891544e-04 1.381772607942e-04 0.0 
1.381772607942e-04 9.050428279678e-04 0.0 
0.0 0.0 0.0 
3.037175381881e-05 3.006239399048e-04 0.0 
3.006239399048e-04 1.367680840714e-03 0.0 
0.0 0.0 0.0 
5.168817023156e-05 2.950228088752e-04 0.0 
2.950228088752e-04 1.334967251298e-03 0.0 
0.0 0.0 0.0 
2.942121676708e-05 3.077279974386e-04 0.0 
3.077279974386e-04 1.429877601430e-03 0.0 
0.0 0.0 0.0 
4.848448739288e-05 3.039210050395e-04 0.0 
3.039210050395e-04 1.399207112632e-03 0.0 
0.0 0.0 0.0 
2.750832396296e-05 3.168652050883e-04 0.0 
3.168652050883e-04 1.492378236107e-03 0.0 
0.0 0.0 0.0 
4.368094319888e-05 3.150313666710e-04 0.0 
3.150313666710e-04 1.463865866085e-03 0.0 
0.0 0.0 0.0 
6.346909275238e-05 2.995338273047e-04 0.0 
2.995338273047e-04 1.373951112354e-03 0.0 
0.0 0.0 0.0 
9.879268904519e-05 2.659426871922e-04 0.0 
2.659426871922e-04 1.260279466816e-03 0.0 
0.0 0.0 0.0 
5.547471635129e-05 3.128696068199e-04 0.0 
3.128696068199e-04 1.441412076018e-03 0.0 
0.0 0.0 0.0 
-1.148149208809e-04 1.701724477950e-05 0.0 
1.701724477950e-05 2.073519964133e-03 0.0 
0.0 0.0 0.0 
1.388456815798e-04 2.107396263602e-04 0.0 
2.107396263602e-04 1.029970924240e-03 0.0 
0.0 0.0 0.0 
9.505901135135e-05 -2.385772941108e-05 0.0 
-2.385772941108e-05 3.446183207208e-04 0.0 
0.0 0.0 0.0 
3.592062105281e-05 -2.404122750541e-05 0.0 
-2.404122750541e-05 1.944371954179e-04 0.0 
0.0 0.0 0.0 
2.862403280812e-05 -3.905428884386e-05 0.0 
-3.905428884386e-05 2.036714144896e-04 0.0 
0.0 0.0 0.0 
4.927552443083e-05 -1.669572362760e-05 0.0 
-1.669572362760e-05 2.393124422840e-04 0.0 
0.0 0.0 0.0 
6.235108919432e-05 -1.592599593860e-05 0.0 
-1.592599593860e-05 2.947681308862e-04 0.0 
0.0 0.0 0.0 
9.970894849631e-05 1.319321892265e-04 0.0 
1.319321892265e-04 1.062207992165e-03 0.0 
0.0 0.0 0.0 
2.444636638040e-05 3.289563151241e-04 0.0 
3.289563151241e-04 1.555516335054e-03 0.0 
0.0 0.0 0.0 
7.548085718049e-06 3.273816726515e-04 0.0 
3.273816726515e-04 1.584560207167e-03 0.0 
0.0 0.0 0.0 
-1.362305198369e-05 2.622409045745e-04 0.0 
2.622409045745e-04 1.011452406890e-03 0.0 
0.0 0.0 0.0 
-2.973021158030e-05 2.755352951654e-04 0.0 
2.755352951654e-04 1.119229035587e-03 0.0 
0.0 0.0 0.0 
9.683572764452e-05 2.595427246854e-04 0.0 
2.595427246854e-04 1.258163518216e-03 0.0 
0.0 0.0 0.0 
-1.888337469052e-04 9.338773202545e-05 0.0 
9.338773202545e-05 2.040643815404e-03 0.0 
0.0 0.0 0.0 
-1.541045107033e-04 4.638826511205e-05 0.0 
4.638826511205e-05 2.065136037629e-03 0.0 
0.0 0.0 0.0 
-1.470189048734e-04 3.187637188525e-05 0.0 
3.187637188525e-05 2.038394342723e-03 0.0 
0.0 0.0 0.0 
3.521368741130e-05 -1.686429021502e-05 0.0 
-1.686429021502e-05 1.800693269147e-04 0.0 
0.0 0.0 0.0 
1.676451040863e-05 -3.878339966204e-05 0.0 
-3.878339966204e-05 1.865780541952e-04 0.0 
0.0 0.0 0.0 
-1.147645466908e-04 1.006543872069e-04 0.0 
1.006543872069e-04 2.214868404823e-03 0.0 
0.0 0.0 0.0 
8.047022752433e-05 1.421778098395e-04 0.0 
1.421778098395e-04 5.574017383712e-04 0.0 
0.0 0.0 0.0 
5.228316452425e-05 1.627301517980e-04 0.0 
1.627301517980e-04 5.784761340689e-04 0.0 
0.0 0.0 0.0 
6.817910522539e-06 2.937412620992e-05 0.0 
2.937412620992e-05 2.358638256752e-04 0.0 
0.0 0.0 0.0 
-1.303412229566e-05 6.643248718561e-06 0.0 
6.643248718561e-06 1.893150945692e-04 0.0 
0.0 0.0 0.0 
-9.524426907165e-05 2.229526537358e-05 0.0 
2.229526537358e-05 2.159259008072e-03 0.0 
0.0 0.0 0.0 
-8.072661826773e-05 2.828283161375e-05 0.0 
2.828283161375e-05 2.212301810283e-03 0.0 
0.0 0.0 0.0 
1.127292140838e-04 1.538665276476e-06 0.0 
1.538665276476e-06 5.940283387447e-04 0.0 
0.0 0.0 0.0 
1.106735694892e-04 2.906963119345e-06 0.0 
2.906963119345e-06 6.216657302840e-04 0.0 
0.0 0.0 0.0 
1.115576909476e-04 1.379312622048e-04 0.0 
1.379312622048e-04 1.039825620714e-03 0.0 
0.0 0.0 0.0 
4.039613413228e-05 -3.853149915046e-05 0.0 
-3.853149915046e-05 2.251454691559e-04 0.0 
0.0 0.0 0.0 
-7.603507155710e-05 3.948758959372e-05 0.0 
3.948758959372e-05 2.236805447722e-03 0.0 
0.0 0.0 0.0 
1.471678684648e-04 1.322608608278e-04 0.0 
1.322608608278e-04 9.198801973633e-04 0.0 
0.0 0.0 0.0 
1.574550270478e-04 1.153729810020e-04 0.0 
1.153729810020e-04 8.454543039219e-04 0.0 
0.0 0.0 0.0 
1.024228008741e-04 -3.859036131330e-06 0.0 
-3.859036131330e-06 5.244173261867e-04 0.0 
0.0 0.0 0.0 
1.719181473521e-05 1.330306897651e-04 0.0 
1.330306897651e-04 4.386556835251e-04 0.0 
0.0 0.0 0.0 
1.156862130295e-05 1.056308654586e-04 0.0 
1.056308654586e-04 3.631134738983e-04 0.0 
0.0 0.0 0.0 
1.101241757167e-04 -1.314661652954e-05 0.0 
-1.314661652954e-05 3.806713189933e-04 0.0 
0.0 0.0 0.0 
6.466419467914e-05 -3.560560641667e-05 0.0 
-3.560560641667e-05 2.779931721306e-04 0.0 
0.0 0.0 0.0 
5.476653601207e-05 -1.247485848264e-05 0.0 
-1.247485848264e-05 2.630893018619e-04 0.0 
0.0 0.0 0.0 
8.937328844183e-05 1.542124105412e-04 0.0 
1.542124105412e-04 1.120645083089e-03 0.0 
0.0 0.0 0.0 
-1.100939594375e-04 1.232656455888e-04 0.0 
1.232656455888e-04 2.227950416712e-03 0.0 
0.0 0.0 0.0 
7.373873136818e-05 2.947010279139e-04 0.0 
2.947010279139e-04 1.354720299303e-03 0.0 
0.0 0.0 0.0 
8.299353959599e-05 2.821940670513e-04 0.0 
2.821940670513e-04 1.284881910008e-03 0.0 
0.0 0.0 0.0 
6.303211639776e-05 3.100820726633e-04 0.0 
3.100820726633e-04 1.424338071293e-03 0.0 
0.0 0.0 0.0 
1.322813736774e-05 -3.800560918645e-05 0.0 
-3.800560918645e-05 1.745114530308e-04 0.0 
0.0 0.0 0.0 
8.673105629535e-05 1.252978252170e-04 0.0 
1.252978252170e-04 1.087674719739e-03 0.0 
0.0 0.0 0.0 
8.587509696471e-05 1.925341285446e-05 0.0 
1.925341285446e-05 9.208280703387e-04 0.0 
0.0 0.0 0.0 
6.313997058749e-06 3.406722677482e-04 0.0 
3.406722677482e-04 1.643947870612e-03 0.0 
0.0 0.0 0.0 
-1.009922441059e-05 3.356736455590e-04 0.0 
3.356736455590e-04 1.674527406358e-03 0.0 
0.0 0.0 0.0 
7.870248160891e-05 1.690469176674e-04 0.0 
1.690469176674e-04 6.387204750570e-04 0.0 
0.0 0.0 0.0 
4.912777442834e-05 1.876832610614e-04 0.0 
1.876832610614e-04 6.670668694972e-04 0.0 
0.0 0.0 0.0 
1.764501112957e-05 1.834862531191e-04 0.0 
1.834862531191e-04 6.102168067904e-04 0.0 
0.0 0.0 0.0 
1.367477684494e-05 2.062772296386e-04 0.0 
2.062772296386e-04 7.048071357501e-04 0.0 
0.0 0.0 0.0 
-1.904447594648e-04 2.252525020419e-04 0.0 
2.252525020419e-04 1.828851514346e-03 0.0 
0.0 0.0 0.0 
7.338981107063e-05 1.946339257125e-04 0.0 
1.946339257125e-04 7.271192840590e-04 0.0 
0.0 0.0 0.0 
-1.201860347905e-04 2.896119180950e-04 0.0 
2.896119180950e-04 1.601843591538e-03 0.0 
0.0 0.0 0.0 
-1.543938862465e-04 2.698612082871e-04 0.0 
2.698612082871e-04 1.660180734463e-03 0.0 
0.0 0.0 0.0 
-1.283523347868e-04 2.842704075846e-04 0.0 
2.842704075846e-04 1.559973491993e-03 0.0 
0.0 0.0 0.0 
-1.535553234553e-05 2.843255912981e-04 0.0 
2.843255912981e-04 1.173037935678e-03 0.0 
0.0 0.0 0.0 
-5.028244687618e-05 2.858845597393e-04 0.0 
2.858845597393e-04 1.229941053326e-03 0.0 
0.0 0.0 0.0 
1.220238408120e-04 1.334861172572e-04 0.0 
1.334861172572e-04 6.093306352718e-04 0.0 
0.0 0.0 0.0 
1.554334099573e-04 1.716741898455e-04 0.0 
1.716741898455e-04 8.813067224872e-04 0.0 
0.0 0.0 0.0 
1.143911865424e-04 -4.336092655321e-07 0.0 
-4.336092655321e-07 5.671676333107e-04 0.0 
0.0 0.0 0.0 
1.194679617641e-04 2.336026811127e-05 0.0 
2.336026811127e-05 7.327499182659e-04 0.0 
0.0 0.0 0.0 
1.499395520267e-04 5.298273773620e-05 0.0 
5.298273773620e-05 7.134230421953e-04 0.0 
0.0 0.0 0.0 
-9.997670420810e-05 7.715714212488e-05 0.0 
7.715714212488e-05 2.225357427105e-03 0.0 
0.0 0.0 0.0 
-8.250761689412e-05 7.294229793925e-05 0.0 
7.294229793925e-05 2.252606058242e-03 0.0 
0.0 0.0 0.0 
-1.336141771463e-04 2.313220199898e-05 0.0 
2.313220199898e-05 2.041647128623e-03 0.0 
0.0 0.0 0.0 
-1.293247815942e-04 1.476116383467e-05 0.0 
1.476116383467e-05 2.012666124049e-03 0.0 
0.0 0.0 0.0 
3.515631785844e-05 -3.041082107916e-05 0.0 
-3.041082107916e-05 2.009982688789e-04 0.0 
0.0 0.0 0.0 
2.496416511262e-05 -3.209313678774e-05 0.0 
-3.209313678774e-05 1.795152800444e-04 0.0 
0.0 0.0 0.0 
1.354939086365e-04 2.344606733749e-05 0.0 
2.344606733749e-05 6.524191702089e-04 0.0 
0.0 0.0 0.0 
9.589115877462e-05 1.060124406060e-04 0.0 
1.060124406060e-04 1.032449458833e-03 0.0 
0.0 0.0 0.0 
-1.229716828072e-04 1.546379948604e-04 0.0 
1.546379948604e-04 2.203718808613e-03 0.0 
0.0 0.0 0.0 
-1.130018832360e-04 1.829351730711e-04 0.0 
1.829351730711e-04 2.204556071649e-03 0.0 
0.0 0.0 0.0 
-1.309114380968e-04 1.912044328309e-04 0.0 
1.912044328309e-04 2.165447572854e-03 0.0 
0.0 0.0 0.0 
1.021893383814e-04 1.605976283932e-04 0.0 
1.605976283932e-04 1.098576650276e-03 0.0 
0.0 0.0 0.0 
1.438463738306e-04 7.765446109668e-05 0.0 
7.765446109668e-05 5.401306569090e-04 0.0 
0.0 0.0 0.0 
1.643546636914e-04 1.286229855843e-04 0.0 
1.286229855843e-04 8.211789240558e-04 0.0 
0.0 0.0 0.0 
6.926078038594e-06 -7.106786547428e-06 0.0 
-7.106786547428e-06 2.022034441296e-04 0.0 
0.0 0.0 0.0 
9.344228278507e-05 2.618123968136e-04 0.0 
2.618123968136e-04 1.149386118072e-03 0.0 
0.0 0.0 0.0 
1.650759929125e-05 -2.759349171901e-05 0.0 
-2.759349171901e-05 1.483283016788e-04 0.0 
0.0 0.0 0.0 
-6.277910106711e-05 3.130877957827e-04 0.0 
3.130877957827e-04 1.691222685031e-03 0.0 
0.0 0.0 0.0 
7.230864446783e-05 2.253355846924e-05 0.0 
2.253355846924e-05 9.948175766391e-04 0.0 
0.0 0.0 0.0 
6.510120146763e-05 3.240311583890e-05 0.0 
3.240311583890e-05 1.037627787222e-03 0.0 
0.0 0.0 0.0 
8.044766525310e-05 2.834925210474e-04 0.0 
2.834925210474e-04 1.335816998557e-03 0.0 
0.0 0.0 0.0 
-2.164508532290e-04 1.619420987653e-04 0.0 
1.619420987653e-04 1.834546422323e-03 0.0 
0.0 0.0 0.0 
1.077211530457e-04 2.519757619261e-04 0.0 
2.519757619261e-04 1.129199129260e-03 0.0 
0.0 0.0 0.0 
1.240782145358e-04 2.301851262477e-04 0.0 
2.301851262477e-04 1.044105500286e-03 0.0 
0.0 0.0 0.0 
-1.630748384613e-04 2.616017009752e-04 0.0 
2.616017009752e-04 1.623682529616e-03 0.0 
0.0 0.0 0.0 
-1.373811265905e-04 2.756744364867e-04 0.0 
2.756744364867e-04 1.520726714295e-03 0.0 
0.0 0.0 0.0 
-1.011152278550e-04 2.913348013373e-04 0.0 
2.913348013373e-04 1.454071972395e-03 0.0 
0.0 0.0 0.0 
-1.123659757709e-04 2.828829286406e-04 0.0 
2.828829286406e-04 1.410893639095e-03 0.0 
0.0 0.0 0.0 
1.138259849401e-04 -1.382259199466e-05 0.0 
-1.382259199466e-05 4.010743406386e-04 0.0 
0.0 0.0 0.0 
9.979241805565e-05 -2.331738503895e-05 0.0 
-2.331738503895e-05 3.655368825640e-04 0.0 
0.0 0.0 0.0 
1.938376628861e-05 3.475584123984e-04 0.0 
3.475584123984e-04 1.624797132619e-03 0.0 
0.0 0.0 0.0 
4.620059820663e-05 3.308538386584e-04 0.0 
3.308538386584e-04 1.508446402928e-03 0.0 
0.0 0.0 0.0 
-6.559808034397e-06 3.515284938574e-04 0.0 
3.515284938574e-04 1.730085957711e-03 0.0 
0.0 0.0 0.0 
-2.362163711043e-05 3.431880301378e-04 0.0 
3.431880301378e-04 1.763271374743e-03 0.0 
0.0 0.0 0.0 
7.653972018695e-05 2.779877472574e-04 0.0 
2.779877472574e-04 1.335053507249e-03 0.0 
0.0 0.0 0.0 
9.274962325478e-05 2.528324793190e-04 0.0 
2.528324793190e-04 1.259056420982e-03 0.0 
0.0 0.0 0.0 
6.663487560295e-05 -1.167338260490e-05 0.0 
-1.167338260490e-05 3.173294108814e-04 0.0 
0.0 0.0 0.0 
-6.778256053371e-05 2.751086881835e-04 0.0 
2.751086881835e-04 1.180656462837e-03 0.0 
0.0 0.0 0.0 
-8.996194295885e-05 1.175120721620e-04 0.0 
1.175120721620e-04 2.257439782967e-03 0.0 
0.0 0.0 0.0 
-1.857272892498e-04 2.380759673552e-04 0.0 
2.380759673552e-04 1.718277382123e-03 0.0 
0.0 0.0 0.0 
7.285196969927e-05 1.174616415359e-04 0.0 
1.174616415359e-04 1.111698465972e-03 0.0 
0.0 0.0 0.0 
8.362480143157e-05 9.985446951523e-05 0.0 
9.985446951523e-05 1.059991215020e-03 0.0 
0.0 0.0 0.0 
-3.844076347370e-05 -9.093093127137e-06 0.0 
-9.093093127137e-06 1.512892079475e-04 0.0 
0.0 0.0 0.0 
-1.716279355727e-05 -2.242283664869e-05 0.0 
-2.242283664869e-05 1.642907386742e-04 0.0 
0.0 0.0 0.0 
-6.284598750556e-05 3.397364140841e-05 0.0 
3.397364140841e-05 2.263366938786e-03 0.0 
0.0 0.0 0.0 
-2.543275538686e-05 2.021977874526e-04 0.0 
2.021977874526e-04 6.511597456010e-04 0.0 
0.0 0.0 0.0 
-3.011617173308e-05 2.199456502932e-04 0.0 
2.199456502932e-04 7.489655444995e-04 0.0 
0.0 0.0 0.0 
-2.176880222710e-05 1.816795727215e-04 0.0 
1.816795727215e-04 5.551118667896e-04 0.0 
0.0 0.0 0.0 
3.361513714758e-05 9.388167758424e-06 0.0 
9.388167758424e-06 1.150437241969e-03 0.0 
0.0 0.0 0.0 
-1.214055290731e-04 -5.119999253866e-09 0.0 
-5.119999253866e-09 1.887351926644e-03 0.0 
0.0 0.0 0.0 
5.598325230512e-05 2.539271865064e-05 0.0 
2.539271865064e-05 1.070746480355e-03 0.0 
0.0 0.0 0.0 
-3.935339332576e-05 2.941180864166e-04 0.0 
2.941180864166e-04 1.282835946043e-03 0.0 
0.0 0.0 0.0 
-5.580029300578e-05 4.696689358295e-05 0.0 
4.696689358295e-05 2.286373756324e-03 0.0 
0.0 0.0 0.0 
1.182235931507e-04 2.424296513289e-04 0.0 
2.424296513289e-04 1.115420523868e-03 0.0 
0.0 0.0 0.0 
8.042803768963e-05 2.283188054436e-04 0.0 
2.283188054436e-04 8.856810460585e-04 0.0 
0.0 0.0 0.0 
1.223047274970e-04 1.436745740488e-04 0.0 
1.436745740488e-04 1.018468105765e-03 0.0 
0.0 0.0 0.0 
-7.018651786068e-05 2.130168487534e-05 0.0 
2.130168487534e-05 2.236261655150e-03 0.0 
0.0 0.0 0.0 
-4.968378709695e-05 2.717211894186e-05 0.0 
2.717211894186e-05 2.290833174795e-03 0.0 
0.0 0.0 0.0 
-1.546095121718e-04 2.997580117966e-05 0.0 
2.997580117966e-05 2.006938301867e-03 0.0 
0.0 0.0 0.0 
-1.470577884671e-04 1.760492984428e-05 0.0 
1.760492984428e-05 1.976226731320e-03 0.0 
0.0 0.0 0.0 
-1.640076291432e-04 4.500574117568e-05 0.0 
4.500574117568e-05 2.032318983638e-03 0.0 
0.0 0.0 0.0 
2.539887624155e-05 5.354008571495e-05 0.0 
5.354008571495e-05 2.903785625031e-04 0.0 
0.0 0.0 0.0 
-2.100149818896e-05 5.338334232499e-05 0.0 
5.338334232499e-05 2.293115828407e-04 0.0 
0.0 0.0 0.0 
-8.671405661846e-05 5.694043498261e-05 0.0 
5.694043498261e-05 2.231957695820e-03 0.0 
0.0 0.0 0.0 
8.285534632687e-05 -1.567571283780e-05 0.0 
-1.567571283780e-05 3.827812644558e-04 0.0 
0.0 0.0 0.0 
8.645841838328e-05 -1.054630584365e-05 0.0 
-1.054630584365e-05 4.139815964216e-04 0.0 
0.0 0.0 0.0 
4.997436713402e-05 -3.713018830295e-05 0.0 
-3.713018830295e-05 2.452105565162e-04 0.0 
0.0 0.0 0.0 
7.132119592353e-05 -3.365527027471e-05 0.0 
-3.365527027471e-05 2.982627797316e-04 0.0 
0.0 0.0 0.0 
1.173837836473e-04 7.088695854249e-06 0.0 
7.088695854249e-06 6.299202266970e-04 0.0 
0.0 0.0 0.0 
1.203638610869e-04 5.649265127535e-06 0.0 
5.649265127535e-06 6.029839365238e-04 0.0 
0.0 0.0 0.0 
-3.635481379773e-05 3.200263308759e-04 0.0 
3.200263308759e-04 1.652325170412e-03 0.0 
0.0 0.0 0.0 
-5.374356783322e-05 3.210484225501e-04 0.0 
3.210484225501e-04 1.741016446237e-03 0.0 
0.0 0.0 0.0 
6.884498150173e-06 3.104047301746e-04 0.0 
3.104047301746e-04 1.464574500323e-03 0.0 
0.0 0.0 0.0 
1.511707934370e-04 1.100866057328e-04 0.0 
1.100866057328e-04 8.626587124823e-04 0.0 
0.0 0.0 0.0 
1.589043878508e-04 9.366422906099e-05 0.0 
9.366422906099e-05 7.898891429757e-04 0.0 
0.0 0.0 0.0 
1.635204692387e-04 9.884444108888e-05 0.0 
9.884444108888e-05 7.737147210175e-04 0.0 
0.0 0.0 0.0 
-7.700260542296e-05 9.047263234318e-05 0.0 
9.047263234318e-05 2.269101270510e-03 0.0 
0.0 0.0 0.0 
-5.583428262027e-05 8.513277613403e-05 0.0 
8.513277613403e-05 2.299925461190e-03 0.0 
0.0 0.0 0.0 
1.270698800977e-04 -1.370994869766e-06 0.0 
-1.370994869766e-06 4.387677982579e-04 0.0 
0.0 0.0 0.0 
1.242147103324e-04 7.187463851998e-07 0.0 
7.187463851998e-07 4.195111080387e-04 0.0 
0.0 0.0 0.0 
1.161323412192e-04 -1.348143917504e-05 0.0 
-1.348143917504e-05 4.216328622545e-04 0.0 
0.0 0.0 0.0 
-8.179448790006e-05 1.410838557826e-04 0.0 
1.410838557826e-04 2.267474498594e-03 0.0 
0.0 0.0 0.0 
4.740653625956e-05 3.663464112659e-05 0.0 
3.663464112659e-05 1.114072483692e-03 0.0 
0.0 0.0 0.0 
5.543802338992e-05 4.281880045324e-05 0.0 
4.281880045324e-05 1.081715311456e-03 0.0 
0.0 0.0 0.0 
3.748649897402e-06 -2.860882705613e-05 0.0 
-2.860882705613e-05 1.284949026182e-04 0.0 
0.0 0.0 0.0 
1.310148576931e-05 -3.350812705430e-05 0.0 
-3.350812705430e-05 1.585153545559e-04 0.0 
0.0 0.0 0.0 
-2.369404507950e-05 1.336501850182e-04 0.0 
1.336501850182e-04 3.808714690811e-04 0.0 
0.0 0.0 0.0 
-2.753809190479e-05 1.056235389020e-04 0.0 
1.056235389020e-04 3.036435860823e-04 0.0 
0.0 0.0 0.0 
-9.908403559683e-05 2.116549064801e-04 0.0 
2.116549064801e-04 2.197920122064e-03 0.0 
0.0 0.0 0.0 
-1.170938892266e-04 2.216490703263e-04 0.0 
2.216490703263e-04 2.156476112635e-03 0.0 
0.0 0.0 0.0 
-7.692422332082e-05 2.045451851180e-04 0.0 
2.045451851180e-04 2.239062073906e-03 0.0 
0.0 0.0 0.0 
5.842508955374e-05 -7.948487765571e-06 0.0 
-7.948487765571e-06 2.819253613278e-04 0.0 
0.0 0.0 0.0 
9.234180257004e-05 2.761343587475e-04 0.0 
2.761343587475e-04 1.271025220609e-03 0.0 
0.0 0.0 0.0 
7.718068252075e-05 1.776765660364e-04 0.0 
1.776765660364e-04 1.179630836740e-03 0.0 
0.0 0.0 0.0 
9.160695858805e-05 1.855215042254e-04 0.0 
1.855215042254e-04 1.159639433011e-03 0.0 
0.0 0.0 0.0 
5.998778828498e-05 1.715896366633e-04 0.0 
1.715896366633e-04 1.213697166670e-03 0.0 
0.0 0.0 0.0 
8.235897076244e-05 2.881351996447e-04 0.0 
2.881351996447e-04 1.338533519243e-03 0.0 
0.0 0.0 0.0 
6.281480985496e-05 3.047603313040e-04 0.0 
3.047603313040e-04 1.411029526636e-03 0.0 
0.0 0.0 0.0 
4.777002591102e-05 3.281823240342e-04 0.0 
3.281823240342e-04 1.495736597168e-03 0.0 
0.0 0.0 0.0 
-5.960259945416e-05 2.658603755250e-06 0.0 
2.658603755250e-06 1.360705071178e-04 0.0 
0.0 0.0 0.0 
-5.412554128422e-05 1.648504107799e-05 0.0 
1.648504107799e-05 2.274038048588e-03 0.0 
0.0 0.0 0.0 
-1.351842947661e-04 1.217489745187e-05 0.0 
1.217489745187e-05 1.977826625880e-03 0.0 
0.0 0.0 0.0 
-8.500396659614e-05 -8.331354567809e-06 0.0 
-8.331354567809e-06 1.136348429250e-04 0.0 
0.0 0.0 0.0 
-1.298128823656e-04 6.829228069987e-06 0.0 
6.829228069987e-06 1.947894962184e-03 0.0 
0.0 0.0 0.0 
-1.260975768073e-04 8.881477650525e-06 0.0 
8.881477650525e-06 1.982608313663e-03 0.0 
0.0 0.0 0.0 
-1.269200977988e-04 3.069939960514e-06 0.0 
3.069939960514e-06 1.914261893558e-03 0.0 
0.0 0.0 0.0 
4.665595554298e-05 -8.381466409734e-06 0.0 
-8.381466409734e-06 2.275084196147e-04 0.0 
0.0 0.0 0.0 
-1.607850262248e-04 2.505455329476e-05 0.0 
2.505455329476e-05 1.963992390566e-03 0.0 
0.0 0.0 0.0 
-1.729447497965e-04 4.456627777659e-05 0.0 
4.456627777659e-05 1.999556711886e-03 0.0 
0.0 0.0 0.0 
-1.300984745791e-05 -2.622625160462e-05 0.0 
-2.622625160462e-05 9.889725652453e-05 0.0 
0.0 0.0 0.0 
-5.826093224217e-05 1.320471600400e-04 0.0 
1.320471600400e-04 2.295602226112e-03 0.0 
0.0 0.0 0.0 
-1.962072629350e-06 -2.243182565293e-05 0.0 
-2.243182565293e-05 9.948230096938e-05 0.0 
0.0 0.0 0.0 
9.331797043470e-06 -2.197069569395e-05 0.0 
-2.197069569395e-05 1.184177338662e-04 0.0 
0.0 0.0 0.0 
6.239606581197e-05 1.110778535900e-04 0.0 
1.110778535900e-04 1.139756154187e-03 0.0 
0.0 0.0 0.0 
7.206611941775e-05 9.264168923665e-05 0.0 
9.264168923665e-05 1.087310079637e-03 0.0 
0.0 0.0 0.0 
4.887958495473e-05 1.016137807488e-04 0.0 
1.016137807488e-04 1.165853655144e-03 0.0 
0.0 0.0 0.0 
5.891616543093e-05 8.606432335851e-05 0.0 
8.606432335851e-05 1.113809268338e-03 0.0 
0.0 0.0 0.0 
8.031274818528e-05 7.676403909746e-05 0.0 
7.676403909746e-05 1.037157807677e-03 0.0 
0.0 0.0 0.0 
6.898321147760e-05 7.121704618450e-05 0.0 
7.121704618450e-05 1.068123116388e-03 0.0 
0.0 0.0 0.0 
-1.397476043654e-04 9.338819029500e-06 0.0 
9.338819029500e-06 1.943636532026e-03 0.0 
0.0 0.0 0.0 
4.475684444115e-05 8.104513940599e-05 0.0 
8.104513940599e-05 1.156704485522e-03 0.0 
0.0 0.0 0.0 
5.672364748458e-05 6.379447432362e-05 0.0 
6.379447432362e-05 1.100913636934e-03 0.0 
0.0 0.0 0.0 
3.350776828811e-05 7.129413154087e-05 0.0 
7.129413154087e-05 1.189680347532e-03 0.0 
0.0 0.0 0.0 
-1.518964541962e-04 2.628218410725e-04 0.0 
2.628218410725e-04 1.488169182466e-03 0.0 
0.0 0.0 0.0 
6.353973886764e-06 2.265637388173e-04 0.0 
2.265637388173e-04 8.013615922470e-04 0.0 
0.0 0.0 0.0 
-3.551609789134e-05 2.350223945995e-04 0.0 
2.350223945995e-04 8.520349125827e-04 0.0 
0.0 0.0 0.0 
-8.416829133846e-05 2.326682592732e-04 0.0 
2.326682592732e-04 8.128652619295e-04 0.0 
0.0 0.0 0.0 
-1.502116500163e-05 3.642680896268e-04 0.0 
3.642680896268e-04 1.824845266560e-03 0.0 
0.0 0.0 0.0 
-3.375692575447e-05 3.474391086201e-04 0.0 
3.474391086201e-04 1.843404220426e-03 0.0 
0.0 0.0 0.0 
7.859176331182e-05 1.398553430959e-05 0.0 
1.398553430959e-05 9.548524792826e-04 0.0 
0.0 0.0 0.0 
9.009138245945e-05 1.159579254431e-05 0.0 
1.159579254431e-05 8.815717925792e-04 0.0 
0.0 0.0 0.0 
-1.241678872861e-04 4.678433137018e-06 0.0 
4.678433137018e-06 1.948978812435e-03 0.0 
0.0 0.0 0.0 
-1.212726785055e-04 2.746953867033e-06 0.0 
2.746953867033e-06 1.944538712022e-03 0.0 
0.0 0.0 0.0 
-1.191147418615e-04 7.530319853750e-06 0.0 
7.530319853750e-06 2.000588666483e-03 0.0 
0.0 0.0 0.0 
-1.169755687093e-04 4.336163590323e-06 0.0 
4.336163590323e-06 1.992256450776e-03 0.0 
0.0 0.0 0.0 
-1.128550443323e-04 9.268632202108e-06 0.0 
9.268632202108e-06 2.047186688666e-03 0.0 
0.0 0.0 0.0 
-1.110570060563e-04 5.001141522919e-06 0.0 
5.001141522919e-06 2.037752787898e-03 0.0 
0.0 0.0 0.0 
-1.049433758641e-04 9.119882107607e-06 0.0 
9.119882107607e-06 2.092312274881e-03 0.0 
0.0 0.0 0.0 
3.144459193935e-05 3.527569843247e-04 0.0 
3.527569843247e-04 1.586726934360e-03 0.0 
0.0 0.0 0.0 
-7.165683371742e-05 2.032599448480e-04 0.0 
2.032599448480e-04 5.974502373277e-04 0.0 
0.0 0.0 0.0 
-1.955074404621e-04 2.215804734456e-04 0.0 
2.215804734456e-04 1.691935692081e-03 0.0 
0.0 0.0 0.0 
6.866298214285e-05 2.710472487942e-04 0.0 
2.710472487942e-04 1.336632109486e-03 0.0 
0.0 0.0 0.0 
8.577085722487e-05 2.445110612394e-04 0.0 
2.445110612394e-04 1.259242369766e-03 0.0 
0.0 0.0 0.0 
-8.749941725272e-05 2.813795425047e-04 0.0 
2.813795425047e-04 1.294844047532e-03 0.0 
0.0 0.0 0.0 
-1.087283079809e-04 2.663592426464e-04 0.0 
2.663592426464e-04 1.257239224222e-03 0.0 
0.0 0.0 0.0 
5.792297577829e-05 1.393610292757e-04 0.0 
1.393610292757e-04 1.180186056326e-03 0.0 
0.0 0.0 0.0 
9.880001262138e-05 1.775996054371e-04 0.0 
1.775996054371e-04 7.015783057047e-04 0.0 
0.0 0.0 0.0 
-4.162657938589e-05 1.591148272901e-04 0.0 
1.591148272901e-04 2.305459234233e-03 0.0 
0.0 0.0 0.0 
-1.118824113069e-04 4.899680525459e-05 0.0 
4.899680525459e-05 1.021537576135e-04 0.0 
0.0 0.0 0.0 
-7.134547858913e-05 4.481264371757e-05 0.0 
4.481264371757e-05 1.544093110443e-04 0.0 
0.0 0.0 0.0 
9.135113835523e-05 2.033491434820e-04 0.0 
2.033491434820e-04 7.900510599208e-04 0.0 
0.0 0.0 0.0 
-7.498917247793e-05 2.918754055642e-04 0.0 
2.918754055642e-04 1.343196373977e-03 0.0 
0.0 0.0 0.0 
-1.849578037375e-06 2.444732181356e-04 0.0 
2.444732181356e-04 9.038313682250e-04 0.0 
0.0 0.0 0.0 
-4.157981685334e-05 2.524218390922e-04 0.0 
2.524218390922e-04 9.629697854988e-04 0.0 
0.0 0.0 0.0 
1.393141028329e-04 1.270532679579e-04 0.0 
1.270532679579e-04 9.388287634607e-04 0.0 
0.0 0.0 0.0 
8.936601340603e-07 -3.431600422270e-05 0.0 
-3.431600422270e-05 1.404700041993e-04 0.0 
0.0 0.0 0.0 
-2.151482005874e-05 1.592308291641e-04 0.0 
1.592308291641e-04 4.649471721316e-04 0.0 
0.0 0.0 0.0 
-1.072778746511e-04 1.577540313878e-05 0.0 
1.577540313878e-05 2.099947036319e-03 0.0 
0.0 0.0 0.0 
-6.752070348779e-05 1.647576645074e-04 0.0 
1.647576645074e-04 4.081721218637e-04 0.0 
0.0 0.0 0.0 
8.377925647662e-05 6.476414395446e-06 0.0 
6.476414395446e-06 9.191391073698e-04 0.0 
0.0 0.0 0.0 
1.193900291346e-04 1.608996742171e-04 0.0 
1.608996742171e-04 6.861548092995e-04 0.0 
0.0 0.0 0.0 
-6.073501885325e-06 2.910669124282e-04 0.0 
2.910669124282e-04 1.229416843676e-03 0.0 
0.0 0.0 0.0 
1.913964292333e-05 1.592379160177e-04 0.0 
1.592379160177e-04 5.212246970483e-04 0.0 
0.0 0.0 0.0 
4.309854199924e-05 2.117656701719e-04 0.0 
2.117656701719e-04 7.622502025173e-04 0.0 
0.0 0.0 0.0 
-1.637675216187e-04 2.575542082498e-04 0.0 
2.575542082498e-04 1.784232634155e-03 0.0 
0.0 0.0 0.0 
-2.093932915519e-04 1.846713809443e-04 0.0 
1.846713809443e-04 1.864566874552e-03 0.0 
0.0 0.0 0.0 
-2.015277744986e-04 2.108530349573e-04 0.0 
2.108530349573e-04 1.798267746192e-03 0.0 
0.0 0.0 0.0 
1.355762112871e-04 1.448881968974e-04 0.0 
1.448881968974e-04 6.762884274947e-04 0.0 
0.0 0.0 0.0 
-5.254021848955e-05 2.647697738391e-04 0.0 
2.647697738391e-04 1.071319463295e-03 0.0 
0.0 0.0 0.0 
-9.199596274938e-05 2.504147244985e-04 0.0 
2.504147244985e-04 1.029466058605e-03 0.0 
0.0 0.0 0.0 
-8.581384404560e-05 3.011928309689e-04 0.0 
3.011928309689e-04 1.545990321116e-03 0.0 
0.0 0.0 0.0 
-1.454683355099e-04 2.001353882820e-04 0.0 
2.001353882820e-04 2.121967338518e-03 0.0 
0.0 0.0 0.0 
-1.301520074988e-04 2.301132575132e-04 0.0 
2.301132575132e-04 2.108659288646e-03 0.0 
0.0 0.0 0.0 
-1.001626197738e-04 2.499221377333e-04 0.0 
2.499221377333e-04 2.139965837497e-03 0.0 
0.0 0.0 0.0 
-1.122919799502e-04 2.587426722161e-04 0.0 
2.587426722161e-04 2.089183158715e-03 0.0 
0.0 0.0 0.0 
-1.392214629342e-04 2.399390378319e-04 0.0 
2.399390378319e-04 2.055414225313e-03 0.0 
0.0 0.0 0.0 
-1.190555597919e-04 2.674203956667e-04 0.0 
2.674203956667e-04 2.031552343523e-03 0.0 
0.0 0.0 0.0 
-9.082355963754e-05 2.854349266613e-04 0.0 
2.854349266613e-04 2.066818542093e-03 0.0 
0.0 0.0 0.0 
-9.601699264172e-05 2.934243519394e-04 0.0 
2.934243519394e-04 2.004250454881e-03 0.0 
0.0 0.0 0.0 
-6.547391877995e-05 3.153841748434e-04 0.0 
3.153841748434e-04 2.048605361074e-03 0.0 
0.0 0.0 0.0 
-7.299545065452e-05 3.163859506279e-04 0.0 
3.163859506279e-04 1.971834010331e-03 0.0 
0.0 0.0 0.0 
-9.536074116567e-05 2.996184595489e-04 0.0 
2.996184595489e-04 1.932885698795e-03 0.0 
0.0 0.0 0.0 
-7.232352083691e-05 3.181619786363e-04 0.0 
3.181619786363e-04 1.899041579628e-03 0.0 
0.0 0.0 0.0 
-5.406014219903e-05 3.359114018940e-04 0.0 
3.359114018940e-04 1.935363215281e-03 0.0 
0.0 0.0 0.0 
-9.038909956007e-05 3.052884293309e-04 0.0 
3.052884293309e-04 1.857424312841e-03 0.0 
0.0 0.0 0.0 
4.889958759894e-05 2.968995153512e-04 0.0 
2.968995153512e-04 1.412528718120e-03 0.0 
0.0 0.0 0.0 
1.032062335472e-04 2.125414388510e-04 0.0 
2.125414388510e-04 8.569575420995e-04 0.0 
0.0 0.0 0.0 
-3.775179046130e-05 2.387252423004e-05 0.0 
2.387252423004e-05 1.776826790491e-04 0.0 
0.0 0.0 0.0 
-5.616884411497e-05 7.468798336857e-05 0.0 
7.468798336857e-05 2.061945199379e-04 0.0 
0.0 0.0 0.0 
-3.144348138689e-05 2.999288896876e-04 0.0 
2.999288896876e-04 1.336553367946e-03 0.0 
0.0 0.0 0.0 
-3.537619686189e-05 3.289127409164e-04 0.0 
3.289127409164e-04 2.109946529159e-03 0.0 
0.0 0.0 0.0 
-4.222231435077e-05 2.799891037576e-04 0.0 
2.799891037576e-04 2.197120239208e-03 0.0 
0.0 0.0 0.0 
1.030282062583e-04 1.230909705954e-04 0.0 
1.230909705954e-04 5.445329457449e-04 0.0 
0.0 0.0 0.0 
-4.771557261233e-06 3.904559923221e-04 0.0 
3.904559923221e-04 1.851462410915e-03 0.0 
0.0 0.0 0.0 
-1.761621323688e-04 2.486971822544e-04 0.0 
2.486971822544e-04 1.750518491244e-03 0.0 
0.0 0.0 0.0 
6.078151336234e-05 5.966777521537e-05 0.0 
5.966777521537e-05 3.497563133423e-04 0.0 
0.0 0.0 0.0 
7.739482968542e-06 3.873356615455e-04 0.0 
3.873356615455e-04 1.740366059104e-03 0.0 
0.0 0.0 0.0 
-1.563675523376e-04 2.102192379726e-04 0.0 
2.102192379726e-04 2.073988254193e-03 0.0 
0.0 0.0 0.0 
-1.630959990027e-04 2.213637623662e-04 0.0 
2.213637623662e-04 2.020558161139e-03 0.0 
0.0 0.0 0.0 
-1.781639072385e-04 1.899226359212e-04 0.0 
1.899226359212e-04 2.038241594993e-03 0.0 
0.0 0.0 0.0 
-4.041611704521e-05 2.334427200833e-04 0.0 
2.334427200833e-04 2.255200958463e-03 0.0 
0.0 0.0 0.0 
-1.719628216398e-04 6.489787043324e-05 0.0 
6.489787043324e-05 2.056043097576e-03 0.0 
0.0 0.0 0.0 
2.342374640085e-05 3.459461393365e-04 0.0 
3.459461393365e-04 1.549040454814e-03 0.0 
0.0 0.0 0.0 
1.501370894843e-04 1.864304840046e-04 0.0 
1.864304840046e-04 9.543733010924e-04 0.0 
0.0 0.0 0.0 
1.456496969495e-04 1.963896724757e-04 0.0 
1.963896724757e-04 9.564287584519e-04 0.0 
0.0 0.0 0.0 
1.490264641754e-04 1.828024248096e-04 0.0 
1.828024248096e-04 8.843275827055e-04 0.0 
0.0 0.0 0.0 
-1.203859833241e-04 2.761917382289e-04 0.0 
2.761917382289e-04 1.966340286754e-03 0.0 
0.0 0.0 0.0 
3.297676000698e-05 2.713526381235e-04 0.0 
2.713526381235e-04 1.393190730987e-03 0.0 
0.0 0.0 0.0 
6.107823687026e-05 2.437254536717e-04 0.0 
2.437254536717e-04 1.305461681000e-03 0.0 
0.0 0.0 0.0 
6.069964347892e-05 2.259539409779e-04 0.0 
2.259539409779e-04 1.279881186997e-03 0.0 
0.0 0.0 0.0 
8.608009615330e-05 2.173223711666e-04 0.0 
2.173223711666e-04 1.215477570251e-03 0.0 
0.0 0.0 0.0 
3.299663107685e-05 2.318510281918e-04 0.0 
2.318510281918e-04 1.340247056704e-03 0.0 
0.0 0.0 0.0 
-2.288815070571e-05 3.655954987961e-04 0.0 
3.655954987961e-04 2.017606841761e-03 0.0 
0.0 0.0 0.0 
-1.622375343539e-05 3.786925701130e-04 0.0 
3.786925701130e-04 1.966216432967e-03 0.0 
0.0 0.0 0.0 
1.048753760567e-04 -1.109468816781e-05 0.0 
-1.109468816781e-05 3.611778544217e-04 0.0 
0.0 0.0 0.0 
1.197426344443e-04 4.497554809460e-06 0.0 
4.497554809460e-06 4.017190283498e-04 0.0 
0.0 0.0 0.0 
1.367290833067e-04 1.758745357102e-05 0.0 
1.758745357102e-05 4.618357642128e-04 0.0 
0.0 0.0 0.0 
1.326667686694e-04 2.301269462920e-05 0.0 
2.301269462920e-05 4.461052091730e-04 0.0 
0.0 0.0 0.0 
1.132721579408e-04 1.011177905737e-05 0.0 
1.011177905737e-05 3.855612949638e-04 0.0 
0.0 0.0 0.0 
1.263879109618e-04 3.034123482508e-05 0.0 
3.034123482508e-05 4.321915869404e-04 0.0 
0.0 0.0 0.0 
1.430932886892e-04 4.395074696237e-05 0.0 
4.395074696237e-05 4.944682190876e-04 0.0 
0.0 0.0 0.0 
1.176871434494e-04 4.004084794637e-05 0.0 
4.004084794637e-05 4.207182297908e-04 0.0 
0.0 0.0 0.0 
-4.416981250521e-05 3.319788464472e-04 0.0 
3.319788464472e-04 1.792623483745e-03 0.0 
0.0 0.0 0.0 
3.057718179633e-05 1.942098354374e-04 0.0 
1.942098354374e-04 1.301730285739e-03 0.0 
0.0 0.0 0.0 
1.455982851586e-04 6.796295223330e-05 0.0 
6.796295223330e-05 7.833626608870e-04 0.0 
0.0 0.0 0.0 
1.524405831225e-04 7.053919924995e-05 0.0 
7.053919924995e-05 7.600667877649e-04 0.0 
0.0 0.0 0.0 
1.551784835649e-04 5.509480879389e-05 0.0 
5.509480879389e-05 6.909076110864e-04 0.0 
0.0 0.0 0.0 
1.159133792052e-04 -2.901567155291e-06 0.0 
-2.901567155291e-06 5.407953950005e-04 0.0 
0.0 0.0 0.0 
1.230837302472e-04 3.858144906853e-06 0.0 
3.858144906853e-06 5.764903473214e-04 0.0 
0.0 0.0 0.0 
1.258059408045e-04 1.369617547033e-05 0.0 
1.369617547033e-05 6.400611884586e-04 0.0 
0.0 0.0 0.0 
1.083756861338e-04 -7.714150552156e-06 0.0 
-7.714150552156e-06 5.062508882278e-04 0.0 
0.0 0.0 0.0 
6.939645865619e-05 2.886305347383e-04 0.0 
2.886305347383e-04 1.307103306569e-03 0.0 
0.0 0.0 0.0 
2.953620430498e-05 1.757233315141e-04 0.0 
1.757233315141e-04 1.284262562601e-03 0.0 
0.0 0.0 0.0 
1.619496108115e-04 1.215143408027e-04 0.0 
1.215143408027e-04 8.317616485190e-04 0.0 
0.0 0.0 0.0 
1.253983259886e-04 1.918506605157e-06 0.0 
1.918506605157e-06 5.505020955302e-04 0.0 
0.0 0.0 0.0 
-1.761635658479e-04 3.117248819303e-05 0.0 
3.117248819303e-05 1.902920675891e-03 0.0 
0.0 0.0 0.0 
-1.916827484850e-04 6.048221460565e-05 0.0 
6.048221460565e-05 1.952953227684e-03 0.0 
0.0 0.0 0.0 
-2.055361765566e-04 8.342258397375e-05 0.0 
8.342258397375e-05 1.947101256743e-03 0.0 
0.0 0.0 0.0 
-1.998198397694e-04 9.608061701622e-05 0.0 
9.608061701622e-05 1.998163804451e-03 0.0 
0.0 0.0 0.0 
-1.805606045210e-04 4.445500055524e-05 0.0 
4.445500055524e-05 1.961774526379e-03 0.0 
0.0 0.0 0.0 
1.141434474018e-04 8.063385025836e-06 0.0 
8.063385025836e-06 6.574475212081e-04 0.0 
0.0 0.0 0.0 
1.109078384223e-04 8.437589390686e-06 0.0 
8.437589390686e-06 6.853898635305e-04 0.0 
0.0 0.0 0.0 
1.088155770477e-04 4.064140997536e-06 0.0 
4.064140997536e-06 6.495879184018e-04 0.0 
0.0 0.0 0.0 
1.077174324554e-04 7.969106040871e-06 0.0 
7.969106040871e-06 7.136606201369e-04 0.0 
0.0 0.0 0.0 
1.070791852218e-04 3.611003239047e-06 0.0 
3.611003239047e-06 6.760455768762e-04 0.0 
0.0 0.0 0.0 
1.068994664620e-04 8.606071472486e-07 0.0 
8.606071472486e-07 6.174457469970e-04 0.0 
0.0 0.0 0.0 
1.047266047497e-04 6.305823684278e-06 0.0 
6.305823684278e-06 7.410018823656e-04 0.0 
0.0 0.0 0.0 
1.051109693501e-04 2.965650035164e-06 0.0 
2.965650035164e-06 6.989703168545e-04 0.0 
0.0 0.0 0.0 
-1.560846550289e-04 1.288376518806e-05 0.0 
1.288376518806e-05 1.901079829444e-03 0.0 
0.0 0.0 0.0 
-9.835889448070e-05 -1.743025768337e-05 0.0 
-1.743025768337e-05 8.202837937717e-05 0.0 
0.0 0.0 0.0 
-5.329314116975e-05 -2.807708549423e-05 0.0 
-2.807708549423e-05 1.127305099545e-04 0.0 
0.0 0.0 0.0 
-4.760833799711e-05 -2.992555043004e-05 0.0 
-2.992555043004e-05 1.074407379483e-04 0.0 
0.0 0.0 0.0 
-1.762483398286e-05 -3.525990577533e-05 0.0 
-3.525990577533e-05 1.486935045526e-04 0.0 
0.0 0.0 0.0 
-1.762644711058e-05 -2.914028944212e-05 0.0 
-2.914028944212e-05 1.548115077077e-04 0.0 
0.0 0.0 0.0 
1.812820575694e-05 -3.262750518221e-05 0.0 
-3.262750518221e-05 1.971214123809e-04 0.0 
0.0 0.0 0.0 
1.210097993731e-05 -2.694275626772e-05 0.0 
-2.694275626772e-05 1.949509447192e-04 0.0 
0.0 0.0 0.0 
-5.874224605492e-05 -2.493790185771e-05 0.0 
-2.493790185771e-05 1.167272275078e-04 0.0 
0.0 0.0 0.0 
-7.530300791244e-05 -1.834295298849e-05 0.0 
-1.834295298849e-05 7.094156819676e-05 0.0 
0.0 0.0 0.0 
-3.907536637974e-05 -2.952210432428e-05 0.0 
-2.952210432428e-05 1.031751485925e-04 0.0 
0.0 0.0 0.0 
-6.274959692493e-05 -1.750210771509e-05 0.0 
-1.750210771509e-05 6.498269629115e-05 0.0 
0.0 0.0 0.0 
-3.155873605182e-05 -2.924077187355e-05 0.0 
-2.924077187355e-05 9.785145438324e-05 0.0 
0.0 0.0 0.0 
-4.405528282308e-06 -3.651504848261e-05 0.0 
-3.651504848261e-05 1.476697533732e-04 0.0 
0.0 0.0 0.0 
3.640388538073e-05 -3.567995475674e-05 0.0 
-3.567995475674e-05 2.120437962954e-04 0.0 
0.0 0.0 0.0 
2.280798653695e-05 4.061888344765e-05 0.0 
4.061888344765e-05 1.199265229531e-03 0.0 
0.0 0.0 0.0 
9.843060963351e-05 -1.295129200558e-06 0.0 
-1.295129200558e-06 5.236605252898e-04 0.0 
0.0 0.0 0.0 
9.572577281088e-05 -3.269325937201e-06 0.0 
-3.269325937201e-06 4.947695518335e-04 0.0 
0.0 0.0 0.0 
8.879618050998e-05 -4.984362033679e-06 0.0 
-4.984362033679e-06 4.381437079651e-04 0.0 
0.0 0.0 0.0 
9.353435785491e-05 -6.826266650189e-06 0.0 
-6.826266650189e-06 4.684683990934e-04 0.0 
0.0 0.0 0.0 
1.011787255137e-04 -1.353713063124e-06 0.0 
-1.353713063124e-06 5.477841525549e-04 0.0 
0.0 0.0 0.0 
8.327928802195e-05 -2.878499224434e-06 0.0 
-2.878499224434e-06 4.075142824799e-04 0.0 
0.0 0.0 0.0 
7.989255733413e-05 -6.125779935011e-06 0.0 
-6.125779935011e-06 3.867769826910e-04 0.0 
0.0 0.0 0.0 
9.266497749238e-06 -3.857822075954e-06 0.0 
-3.857822075954e-06 3.424627026605e-05 0.0 
0.0 0.0 0.0 
1.764891676378e-05 -6.411473441926e-06 0.0 
-6.411473441926e-06 7.801584031260e-05 0.0 
0.0 0.0 0.0 
1.676103238322e-05 -3.250942686284e-06 0.0 
-3.250942686284e-06 7.309854047526e-05 0.0 
0.0 0.0 0.0 
2.608047079541e-05 -5.610305433417e-06 0.0 
-5.610305433417e-06 1.270059682261e-04 0.0 
0.0 0.0 0.0 
2.506354956511e-05 -9.776324885118e-06 0.0 
-9.776324885118e-06 1.262912931603e-04 0.0 
0.0 0.0 0.0 
1.561710590248e-05 -8.759550595310e-06 0.0 
-8.759550595310e-06 7.938822984247e-05 0.0 
0.0 0.0 0.0 
1.255744954013e-05 -1.125003631618e-05 0.0 
-1.125003631618e-05 8.090307133246e-05 0.0 
0.0 0.0 0.0 
1.129357234823e-06 -7.489313516030e-06 0.0 
-7.489313516030e-06 3.767743405062e-05 0.0 
0.0 0.0 0.0 
9.313004582327e-06 -1.409623397113e-05 0.0 
-1.409623397113e-05 8.229535150484e-05 0.0 
0.0 0.0 0.0 
2.186709929471e-05 -1.622447374624e-05 0.0 
-1.622447374624e-05 1.303792053481e-04 0.0 
0.0 0.0 0.0 
-4.329839349374e-06 -9.006614313099e-06 0.0 
-9.006614313099e-06 3.862242850228e-05 0.0 
0.0 0.0 0.0 
-8.759492783258e-05 5.197534930791e-06 0.0 
5.197534930791e-06 2.164861584560e-03 0.0 
0.0 0.0 0.0 
-8.058961044743e-05 1.259697079899e-05 0.0 
1.259697079899e-05 2.194487642387e-03 0.0 
0.0 0.0 0.0 
2.896273245745e-05 1.411709299710e-04 0.0 
1.411709299710e-04 1.253081200288e-03 0.0 
0.0 0.0 0.0 
-1.418172361507e-04 5.950581388340e-06 0.0 
5.950581388340e-06 1.904947512746e-03 0.0 
0.0 0.0 0.0 
-3.984130399861e-05 -1.482832829515e-05 0.0 
-1.482832829515e-05 5.574304585806e-05 0.0 
0.0 0.0 0.0 
-2.820086392915e-05 5.434964028546e-05 0.0 
5.434964028546e-05 2.338475340793e-03 0.0 
0.0 0.0 0.0 
-3.038829159765e-05 1.018972311571e-04 0.0 
1.018972311571e-04 2.335157697068e-03 0.0 
0.0 0.0 0.0 
-2.662479676885e-05 8.621831520398e-05 0.0 
8.621831520398e-05 2.340628350686e-03 0.0 
0.0 0.0 0.0 
5.376158933486e-05 8.762246511135e-06 0.0 
8.762246511135e-06 1.071670804385e-03 0.0 
0.0 0.0 0.0 
4.555150443812e-05 1.769185867310e-05 0.0 
1.769185867310e-05 1.110675063783e-03 0.0 
0.0 0.0 0.0 
-2.448752543877e-05 3.044550345670e-05 0.0 
3.044550345670e-05 2.342290747456e-03 0.0 
0.0 0.0 0.0 
8.125159495057e-05 -2.759773811356e-05 0.0 
-2.759773811356e-05 3.408278499638e-04 0.0 
0.0 0.0 0.0 
-8.343525206939e-05 2.796333728603e-04 0.0 
2.796333728603e-04 2.120655190123e-03 0.0 
0.0 0.0 0.0 
-7.103312955244e-05 5.258863575620e-05 0.0 
5.258863575620e-05 2.258654395464e-03 0.0 
0.0 0.0 0.0 
3.885113030796e-05 8.046048007327e-05 0.0 
8.046048007327e-05 3.531878781142e-04 0.0 
0.0 0.0 0.0 
8.551351654740e-05 -2.984920849574e-05 0.0 
-2.984920849574e-05 3.316442386653e-04 0.0 
0.0 0.0 0.0 
9.638719824312e-05 1.568575023950e-05 0.0 
1.568575023950e-05 8.491209441513e-04 0.0 
0.0 0.0 0.0 
1.209765281363e-04 3.382241872739e-05 0.0 
3.382241872739e-05 7.731608813695e-04 0.0 
0.0 0.0 0.0 
7.404476531610e-05 3.844278421525e-05 0.0 
3.844278421525e-05 1.005690900129e-03 0.0 
0.0 0.0 0.0 
1.079087971242e-04 2.110626331496e-05 0.0 
2.110626331496e-05 7.894853748318e-04 0.0 
0.0 0.0 0.0 
9.260480451915e-05 4.904140283802e-05 0.0 
4.904140283802e-05 9.454502323587e-04 0.0 
0.0 0.0 0.0 
6.278234797010e-05 2.053871485759e-04 0.0 
2.053871485759e-04 1.248017614117e-03 0.0 
0.0 0.0 0.0 
4.234452781275e-05 -1.285724776368e-05 0.0 
-1.285724776368e-05 2.093842551254e-04 0.0 
0.0 0.0 0.0 
-1.380112489347e-04 3.375435590088e-05 0.0 
3.375435590088e-05 2.069067351250e-03 0.0 
0.0 0.0 0.0 
-1.226049009404e-04 1.647210634475e-05 0.0 
1.647210634475e-05 2.044041241054e-03 0.0 
0.0 0.0 0.0 
-1.037955771052e-04 4.600165542127e-05 0.0 
4.600165542127e-05 2.181911808302e-03 0.0 
0.0 0.0 0.0 
7.906286541604e-05 -1.995916453775e-05 0.0 
-1.995916453775e-05 3.575840610830e-04 0.0 
0.0 0.0 0.0 
1.073464144122e-04 -3.781704435961e-07 0.0 
-3.781704435961e-07 5.888424117861e-04 0.0 
0.0 0.0 0.0 
4.356557426914e-05 -2.785044829526e-05 0.0 
-2.785044829526e-05 2.241475474481e-04 0.0 
0.0 0.0 0.0 
9.276065162804e-06 3.681723754358e-04 0.0 
3.681723754358e-04 1.713274350659e-03 0.0 
0.0 0.0 0.0 
-9.307707008066e-05 2.972773753683e-04 0.0 
2.972773753683e-04 1.499526376929e-03 0.0 
0.0 0.0 0.0 
1.502866908487e-04 3.820131000992e-05 0.0 
3.820131000992e-05 6.458455828466e-04 0.0 
0.0 0.0 0.0 
1.084484770035e-04 -1.087886709291e-05 0.0 
-1.087886709291e-05 4.803428213690e-04 0.0 
0.0 0.0 0.0 
9.307779537474e-05 -2.495604681392e-05 0.0 
-2.495604681392e-05 3.736079158239e-04 0.0 
0.0 0.0 0.0 
7.972755987584e-05 -3.126998699424e-05 0.0 
-3.126998699424e-05 3.106631608478e-04 0.0 
0.0 0.0 0.0 
8.936458657231e-05 2.365409711098e-04 0.0 
2.365409711098e-04 9.504124384710e-04 0.0 
0.0 0.0 0.0 
1.331172826589e-04 1.150343245459e-05 0.0 
1.150343245459e-05 5.878814986130e-04 0.0 
0.0 0.0 0.0 
1.180672411296e-04 7.578632969681e-05 0.0 
7.578632969681e-05 9.063976151357e-04 0.0 
0.0 0.0 0.0 
-8.993737926342e-05 4.344713097147e-05 0.0 
4.344713097147e-05 2.209625556302e-03 0.0 
0.0 0.0 0.0 
-2.108138028569e-05 -1.301548696259e-05 0.0 
-1.301548696259e-05 5.265064601688e-05 0.0 
0.0 0.0 0.0 
1.140099139003e-04 9.307676899743e-05 0.0 
9.307676899743e-05 9.553813107278e-04 0.0 
0.0 0.0 0.0 
1.342270611342e-04 3.567027053191e-05 0.0 
3.567027053191e-05 7.191923500180e-04 0.0 
0.0 0.0 0.0 
-1.600675609098e-04 6.480157238855e-05 0.0 
6.480157238855e-05 2.088229917634e-03 0.0 
0.0 0.0 0.0 
1.259067053275e-04 2.099741611007e-04 0.0 
2.099741611007e-04 1.106531424347e-03 0.0 
0.0 0.0 0.0 
3.437726167158e-05 -3.576950942599e-05 0.0 
-3.576950942599e-05 2.194628664647e-04 0.0 
0.0 0.0 0.0 
-1.171929111893e-04 8.021978803472e-05 0.0 
8.021978803472e-05 2.197477525976e-03 0.0 
0.0 0.0 0.0 
-9.324861651215e-05 1.730590284298e-04 0.0 
1.730590284298e-04 2.238357877885e-03 0.0 
0.0 0.0 0.0 
-1.823100431104e-04 6.606202556249e-05 0.0 
6.606202556249e-05 2.023296562552e-03 0.0 
0.0 0.0 0.0 
2.661144685519e-05 -2.618273981188e-05 0.0 
-2.618273981188e-05 1.702761157158e-04 0.0 
0.0 0.0 0.0 
-1.412315507938e-04 2.057080097552e-05 0.0 
2.057080097552e-05 2.009109963436e-03 0.0 
0.0 0.0 0.0 
7.445098911392e-05 1.460357408491e-04 0.0 
1.460357408491e-04 1.143944834674e-03 0.0 
0.0 0.0 0.0 
-1.565981546065e-04 1.698078015932e-04 0.0 
1.698078015932e-04 2.128810685253e-03 0.0 
0.0 0.0 0.0 
7.048370160586e-05 -1.874323079843e-05 0.0 
-1.874323079843e-05 3.260451668698e-04 0.0 
0.0 0.0 0.0 
1.671173257643e-04 1.125564701198e-04 0.0 
1.125564701198e-04 7.501249713776e-04 0.0 
0.0 0.0 0.0 
2.438931163259e-05 2.844555101069e-04 0.0 
2.844555101069e-04 1.183557010045e-03 0.0 
0.0 0.0 0.0 
-2.159438584242e-04 1.278476600421e-04 0.0 
1.278476600421e-04 1.809605355689e-03 0.0 
0.0 0.0 0.0 
-6.535442102172e-05 6.671877265336e-05 0.0 
6.671877265336e-05 2.277471266325e-03 0.0 
0.0 0.0 0.0 
1.268720484858e-04 2.190420652210e-04 0.0 
2.190420652210e-04 9.742741724769e-04 0.0 
0.0 0.0 0.0 
1.125424655653e-04 1.970379458599e-04 0.0 
1.970379458599e-04 1.125048711401e-03 0.0 
0.0 0.0 0.0 
1.576262698506e-04 1.449876848440e-04 0.0 
1.449876848440e-04 8.939527963634e-04 0.0 
0.0 0.0 0.0 
7.471096106696e-05 -1.415338236272e-05 0.0 
-1.415338236272e-05 3.512106620096e-04 0.0 
0.0 0.0 0.0 
9.136973455829e-05 8.243491041628e-05 0.0 
8.243491041628e-05 1.009798257075e-03 0.0 
0.0 0.0 0.0 
1.569933685417e-04 1.574127857431e-04 0.0 
1.574127857431e-04 8.096242044583e-04 0.0 
0.0 0.0 0.0 
-9.636197454910e-05 9.617819390382e-05 0.0 
9.617819390382e-05 2.243073780459e-03 0.0 
0.0 0.0 0.0 
7.623835185822e-06 3.176228890995e-04 0.0 
3.176228890995e-04 1.524292323893e-03 0.0 
0.0 0.0 0.0 
1.554591034765e-04 9.159712012645e-05 0.0 
9.159712012645e-05 6.060347769768e-04 0.0 
0.0 0.0 0.0 
-1.294181411962e-04 1.286686024858e-04 0.0 
1.286686024858e-04 2.197198138627e-03 0.0 
0.0 0.0 0.0 
1.592577176432e-04 5.785946224503e-05 0.0 
5.785946224503e-05 6.702863969281e-04 0.0 
0.0 0.0 0.0 
1.121256679574e-04 2.348274384470e-04 0.0 
2.348274384470e-04 1.181160287852e-03 0.0 
0.0 0.0 0.0 
-6.551542965668e-05 2.987361902757e-04 0.0 
2.987361902757e-04 1.392604803802e-03 0.0 
0.0 0.0 0.0 
5.674183802281e-06 3.050798108845e-04 0.0 
3.050798108845e-04 1.405000828534e-03 0.0 
0.0 0.0 0.0 
-9.141961859619e-05 3.025101080636e-04 0.0 
3.025101080636e-04 1.733042303074e-03 0.0 
0.0 0.0 0.0 
7.531598114259e-05 2.718510143078e-04 0.0 
2.718510143078e-04 1.175662032421e-03 0.0 
0.0 0.0 0.0 
9.895011281006e-05 9.344819917578e-06 0.0 
9.344819917578e-06 8.101925021950e-04 0.0 
0.0 0.0 0.0 
1.027368838865e-04 8.825042826977e-05 0.0 
8.825042826977e-05 9.820927732935e-04 0.0 
0.0 0.0 0.0 
4.564200672811e-05 -1.204564637386e-06 0.0 
-1.204564637386e-06 2.550222966489e-04 0.0 
0.0 0.0 0.0 
6.544829259699e-05 2.198743125999e-04 0.0 
2.198743125999e-04 8.229711399081e-04 0.0 
0.0 0.0 0.0 
-1.770797539635e-04 8.910642057466e-05 0.0 
8.910642057466e-05 2.074654313247e-03 0.0 
0.0 0.0 0.0 
3.709040655290e-05 3.286296393703e-04 0.0 
3.286296393703e-04 1.527325196311e-03 0.0 
0.0 0.0 0.0 
-7.041301783728e-05 1.106411256788e-04 0.0 
1.106411256788e-04 2.284812922824e-03 0.0 
0.0 0.0 0.0 
1.719798264010e-05 2.784769417570e-04 0.0 
2.784769417570e-04 1.123985490042e-03 0.0 
0.0 0.0 0.0 
9.757077872334e-05 6.707755225972e-05 0.0 
6.707755225972e-05 9.614908073080e-04 0.0 
0.0 0.0 0.0 
-1.029121483299e-04 1.476690729816e-04 0.0 
1.476690729816e-04 2.235879884025e-03 0.0 
0.0 0.0 0.0 
1.296872748844e-04 1.263714534886e-05 0.0 
1.263714534886e-05 6.135455526582e-04 0.0 
0.0 0.0 0.0 
5.039808404250e-05 -4.196494757281e-06 0.0 
-4.196494757281e-06 2.413937443328e-04 0.0 
0.0 0.0 0.0 
7.179773749422e-07 7.958052026920e-05 0.0 
7.958052026920e-05 2.974999132203e-04 0.0 
0.0 0.0 0.0 
1.275080997387e-04 6.455140531256e-05 0.0 
6.455140531256e-05 4.757748464143e-04 0.0 
0.0 0.0 0.0 
1.394136861654e-04 1.950611021976e-04 0.0 
1.950611021976e-04 8.920494699693e-04 0.0 
0.0 0.0 0.0 
1.304970908954e-04 2.368282167419e-05 0.0 
2.368282167419e-05 6.785955642314e-04 0.0 
0.0 0.0 0.0 
-7.934891602065e-05 2.465330532340e-04 0.0 
2.465330532340e-04 2.187820643281e-03 0.0 
0.0 0.0 0.0 
8.724053854681e-05 6.227069704725e-05 0.0 
6.227069704725e-05 9.905563890329e-04 0.0 
0.0 0.0 0.0 
1.295837443310e-04 1.219865438179e-04 0.0 
1.219865438179e-04 9.606168126662e-04 0.0 
0.0 0.0 0.0 
-1.161296717808e-04 1.546785130932e-04 0.0 
1.546785130932e-04 2.566076987880e-04 0.0 
0.0 0.0 0.0 
-2.091270538116e-04 1.907982944830e-04 0.0 
1.907982944830e-04 1.771190882563e-03 0.0 
0.0 0.0 0.0 
7.681457874442e-05 5.661547201305e-05 0.0 
5.661547201305e-05 1.020795839627e-03 0.0 
0.0 0.0 0.0 
1.663448521752e-04 1.051584449386e-04 0.0 
1.051584449386e-04 7.605598273001e-04 0.0 
0.0 0.0 0.0 
1.073774708020e-04 2.274150807330e-04 0.0 
2.274150807330e-04 1.183441553200e-03 0.0 
0.0 0.0 0.0 
1.059849393754e-04 1.309662889329e-06 0.0 
1.309662889329e-06 6.377606173198e-04 0.0 
0.0 0.0 0.0 
1.866570189650e-05 3.623615423057e-04 0.0 
3.623615423057e-04 1.654980868418e-03 0.0 
0.0 0.0 0.0 
-1.263209726440e-04 2.690223202264e-04 0.0 
2.690223202264e-04 1.372904570386e-03 0.0 
0.0 0.0 0.0 
6.627237814538e-05 5.007645176056e-05 0.0 
5.007645176056e-05 1.052814624073e-03 0.0 
0.0 0.0 0.0 
1.326557416689e-04 1.498320969061e-04 0.0 
1.498320969061e-04 9.979216930270e-04 0.0 
0.0 0.0 0.0 
1.028939693782e-04 1.508005034221e-04 0.0 
1.508005034221e-04 6.203151427425e-04 0.0 
0.0 0.0 0.0 
-1.222858529876e-04 6.147479186115e-07 0.0 
6.147479186115e-07 1.890069202624e-03 0.0 
0.0 0.0 0.0 
4.285570480422e-05 5.602224168205e-05 0.0 
5.602224168205e-05 1.142252682508e-03 0.0 
0.0 0.0 0.0 
1.129462277243e-04 1.668710604293e-04 0.0 
1.668710604293e-04 1.078653975811e-03 0.0 
0.0 0.0 0.0 
7.327660263908e-05 2.796692669781e-04 0.0 
2.796692669781e-04 1.241231543057e-03 0.0 
0.0 0.0 0.0 
1.655426244751e-04 8.265861836090e-05 0.0 
8.265861836090e-05 7.041848112610e-04 0.0 
0.0 0.0 0.0 
-2.094590338483e-04 1.897437892992e-04 0.0 
1.897437892992e-04 1.684131605466e-03 0.0 
0.0 0.0 0.0 
1.251245712038e-04 2.373134739279e-05 0.0 
2.373134739279e-05 7.054822629407e-04 0.0 
0.0 0.0 0.0 
-1.899028079116e-05 3.112908562974e-04 0.0 
3.112908562974e-04 1.503305665705e-03 0.0 
0.0 0.0 0.0 
-3.793006043534e-05 2.101525850396e-04 0.0 
2.101525850396e-04 2.277318740526e-03 0.0 
0.0 0.0 0.0 
1.011286004219e-04 1.895125780986e-04 0.0 
1.895125780986e-04 1.139063243710e-03 0.0 
0.0 0.0 0.0 
-1.833646459005e-04 2.029273086231e-04 0.0 
2.029273086231e-04 1.986022870358e-03 0.0 
0.0 0.0 0.0 
1.215843437751e-04 1.444815123660e-05 0.0 
1.444815123660e-05 6.669007321146e-04 0.0 
0.0 0.0 0.0 
1.250434465446e-04 2.337504953687e-04 0.0 
2.337504953687e-04 1.107899145382e-03 0.0 
0.0 0.0 0.0 
2.383675552590e-05 -1.352078295845e-05 0.0 
-1.352078295845e-05 1.273803395433e-04 0.0 
0.0 0.0 0.0 
-1.740376774798e-04 2.475135308180e-04 0.0 
2.475135308180e-04 1.595493083190e-03 0.0 
0.0 0.0 0.0 
1.171215918695e-04 1.479447683710e-05 0.0 
1.479447683710e-05 6.943457005038e-04 0.0 
0.0 0.0 0.0 
1.366531005923e-04 5.304954751308e-05 0.0 
5.304954751308e-05 4.834292916027e-04 0.0 
0.0 0.0 0.0 
1.625198807603e-04 7.753437015231e-05 0.0 
7.753437015231e-05 7.199751629425e-04 0.0 
0.0 0.0 0.0 
5.960361361694e-05 3.034769109708e-04 0.0 
3.034769109708e-04 1.410738557719e-03 0.0 
0.0 0.0 0.0 
1.125885448349e-04 1.462886072385e-05 0.0 
1.462886072385e-05 7.224362259725e-04 0.0 
0.0 0.0 0.0 
1.508140331230e-04 6.698863010422e-05 0.0 
6.698863010422e-05 5.475635873177e-04 0.0 
0.0 0.0 0.0 
1.080325469807e-04 1.378034966418e-05 0.0 
1.378034966418e-05 7.509656519515e-04 0.0 
0.0 0.0 0.0 
-1.691768048174e-04 2.437673134019e-04 0.0 
2.437673134019e-04 1.466848122172e-03 0.0 
0.0 0.0 0.0 
-1.650135311100e-04 2.346456020750e-04 0.0 
2.346456020750e-04 1.961584038492e-03 0.0 
0.0 0.0 0.0 
1.036417304308e-04 1.188800725441e-05 0.0 
1.188800725441e-05 7.797023651559e-04 0.0 
0.0 0.0 0.0 
-1.575297082838e-05 3.166304448413e-04 0.0 
3.166304448413e-04 1.559687929843e-03 0.0 
0.0 0.0 0.0 
1.967731522035e-05 -2.076072510307e-05 0.0 
-2.076072510307e-05 1.364150025060e-04 0.0 
0.0 0.0 0.0 
8.924750524105e-05 2.713423001784e-04 0.0 
2.713423001784e-04 1.216764304289e-03 0.0 
0.0 0.0 0.0 
6.370066336573e-05 1.622991059820e-05 0.0 
1.622991059820e-05 1.031048679217e-03 0.0 
0.0 0.0 0.0 
1.172861123604e-04 -1.238219622868e-05 0.0 
-1.238219622868e-05 4.427825859450e-04 0.0 
0.0 0.0 0.0 
1.581183737559e-04 7.361635841639e-05 0.0 
7.361635841639e-05 7.386009071533e-04 0.0 
0.0 0.0 0.0 
-1.433762978008e-04 2.506145916086e-04 0.0 
2.506145916086e-04 1.996239938325e-03 0.0 
0.0 0.0 0.0 
-1.440636666009e-04 2.413767157340e-04 0.0 
2.413767157340e-04 1.245516466873e-03 0.0 
0.0 0.0 0.0 
1.529417830469e-04 8.956877601153e-05 0.0 
8.956877601153e-05 8.095164122749e-04 0.0 
0.0 0.0 0.0 
-1.265957553135e-05 3.245412182156e-04 0.0 
3.245412182156e-04 1.616756182043e-03 0.0 
0.0 0.0 0.0 
1.013819444435e-04 2.635563898810e-04 0.0 
2.635563898810e-04 1.199188987092e-03 0.0 
0.0 0.0 0.0 
1.379584015144e-04 2.072509109033e-04 0.0 
2.072509109033e-04 9.625735172975e-04 0.0 
0.0 0.0 0.0 
1.436441055167e-04 1.058115718295e-04 0.0 
1.058115718295e-04 8.835205972258e-04 0.0 
0.0 0.0 0.0 
-9.685756373488e-05 2.617854829196e-04 0.0 
2.617854829196e-04 1.149241558186e-03 0.0 
0.0 0.0 0.0 
7.650068820693e-05 -3.085770763481e-05 0.0 
-3.085770763481e-05 3.183639106532e-04 0.0 
0.0 0.0 0.0 
5.763709798582e-05 -3.469919565296e-05 0.0 
-3.469919565296e-05 2.648938114783e-04 0.0 
0.0 0.0 0.0 
1.552217095070e-04 5.835128483777e-05 0.0 
5.835128483777e-05 5.580226548673e-04 0.0 
0.0 0.0 0.0 
-3.057977441329e-05 3.291376617294e-04 0.0 
3.291376617294e-04 1.707446908818e-03 0.0 
0.0 0.0 0.0 
3.482436288327e-05 -9.590861051053e-06 0.0 
-9.590861051053e-06 1.740856158871e-04 0.0 
0.0 0.0 0.0 
-1.166395378211e-04 2.858085281925e-04 0.0 
2.858085281925e-04 1.894836047425e-03 0.0 
0.0 0.0 0.0 
2.630271353613e-05 -3.769858759214e-05 0.0 
-3.769858759214e-05 1.923265635461e-04 0.0 
0.0 0.0 0.0 
1.471738630109e-04 3.688400482267e-05 0.0 
3.688400482267e-05 5.077788676254e-04 0.0 
0.0 0.0 0.0 
9.746440022092e-05 2.713264280751e-04 0.0 
2.713264280751e-04 1.264493113966e-03 0.0 
0.0 0.0 0.0 
-1.079871518088e-04 1.894714982362e-06 0.0 
1.894714982362e-06 2.055712607009e-03 0.0 
0.0 0.0 0.0 
1.492803935555e-04 3.159395340315e-05 0.0 
3.159395340315e-05 5.231342883923e-04 0.0 
0.0 0.0 0.0 
6.206668651654e-05 -3.811703182557e-06 0.0 
-3.811703182557e-06 2.968268433258e-04 0.0 
0.0 0.0 0.0 
1.390428556218e-04 1.380556232859e-05 0.0 
1.380556232859e-05 4.791785299083e-04 0.0 
0.0 0.0 0.0 
1.331759518329e-04 2.199057289541e-04 0.0 
2.199057289541e-04 1.034287719343e-03 0.0 
0.0 0.0 0.0 
1.399074271788e-04 1.155423442377e-05 0.0 
1.155423442377e-05 4.982209417625e-04 0.0 
0.0 0.0 0.0 
1.285665049536e-04 -2.260838478134e-06 0.0 
-2.260838478134e-06 4.588552008798e-04 0.0 
0.0 0.0 0.0 
-4.914570988190e-05 6.074891060509e-05 0.0 
6.074891060509e-05 2.303787102908e-03 0.0 
0.0 0.0 0.0 
1.289191500261e-04 -2.171408253738e-06 0.0 
-2.171408253738e-06 4.798377193718e-04 0.0 
0.0 0.0 0.0 
-2.022829801079e-05 1.733181044889e-05 0.0 
1.733181044889e-05 2.350708256564e-03 0.0 
0.0 0.0 0.0 
2.154946499165e-05 1.817140630919e-05 0.0 
1.817140630919e-05 1.200671157479e-03 0.0 
0.0 0.0 0.0 
-1.188551060893e-04 -1.824493579384e-08 0.0 
-1.824493579384e-08 1.936414301576e-03 0.0 
0.0 0.0 0.0 
-1.463492350347e-04 2.412087016346e-04 0.0 
2.412087016346e-04 1.052297909634e-03 0.0 
0.0 0.0 0.0 
-1.222744387689e-04 1.308648668890e-06 0.0 
1.308648668890e-06 9.783751964279e-05 0.0 
0.0 0.0 0.0 
-7.455069622171e-05 2.398470833606e-04 0.0 
2.398470833606e-04 9.166734725832e-04 0.0 
0.0 0.0 0.0 
1.030163564281e-04 -2.195709162382e-05 0.0 
-2.195709162382e-05 3.862649440099e-04 0.0 
0.0 0.0 0.0 
-7.924187063585e-05 3.100729163072e-04 0.0 
3.100729163072e-04 1.777099830491e-03 0.0 
0.0 0.0 0.0 
-1.196032447461e-04 2.006901346708e-06 0.0 
2.006901346708e-06 1.939591664659e-03 0.0 
0.0 0.0 0.0 
8.958482538438e-05 -2.762581736075e-05 0.0 
-2.762581736075e-05 3.522224830971e-04 0.0 
0.0 0.0 0.0 
-4.734304063886e-05 3.392975354258e-04 0.0 
3.392975354258e-04 2.001195699893e-03 0.0 
0.0 0.0 0.0 
1.636963763048e-05 3.717889598686e-04 0.0 
3.717889598686e-04 1.638550745873e-03 0.0 
0.0 0.0 0.0 
-9.460000285844e-05 9.915460942236e-06 0.0 
9.915460942236e-06 2.139022711129e-03 0.0 
0.0 0.0 0.0 
9.853783535067e-05 2.205339803504e-04 0.0 
2.205339803504e-04 1.189868302022e-03 0.0 
0.0 0.0 0.0 
1.094231609855e-04 2.562577758410e-04 0.0 
2.562577758410e-04 1.189204014176e-03 0.0 
0.0 0.0 0.0 
-5.766990307476e-05 7.967570187823e-06 0.0 
7.967570187823e-06 2.263400184182e-03 0.0 
0.0 0.0 0.0 
-1.287179359464e-04 3.651439369125e-07 0.0 
3.651439369125e-07 1.888196366915e-03 0.0 
0.0 0.0 0.0 
-2.468655045538e-05 -2.720382862782e-05 0.0 
-2.720382862782e-05 9.423903434177e-05 0.0 
0.0 0.0 0.0 
9.378395930182e-05 5.309762120162e-06 0.0 
5.309762120162e-06 8.458665761327e-04 0.0 
0.0 0.0 0.0 
-1.453713579953e-04 2.331805438257e-04 0.0 
2.331805438257e-04 8.424510755735e-04 0.0 
0.0 0.0 0.0 
-7.583788800652e-05 2.166921501707e-04 0.0 
2.166921501707e-04 6.974253271183e-04 0.0 
0.0 0.0 0.0 
-6.968861099323e-05 1.855982695994e-04 0.0 
1.855982695994e-04 5.002396946291e-04 0.0 
0.0 0.0 0.0 
7.734830134709e-05 -1.010551342433e-05 0.0 
-1.010551342433e-05 3.709798463564e-04 0.0 
0.0 0.0 0.0 
-1.394665885612e-05 -3.578842323650e-05 0.0 
-3.578842323650e-05 1.442220408391e-04 0.0 
0.0 0.0 0.0 
-1.311554651107e-04 2.199026137698e-04 0.0 
2.199026137698e-04 6.476456917320e-04 0.0 
0.0 0.0 0.0 
6.047994858719e-05 2.587593875579e-04 0.0 
2.587593875579e-04 1.328532409757e-03 0.0 
0.0 0.0 0.0 
-1.512812150982e-04 1.583196532766e-05 0.0 
1.583196532766e-05 1.951276478211e-03 0.0 
0.0 0.0 0.0 
8.043524799310e-05 2.908726351705e-04 0.0 
2.908726351705e-04 1.343602571380e-03 0.0 
0.0 0.0 0.0 
-1.243052598142e-04 1.968676198014e-04 0.0 
1.968676198014e-04 4.458589509691e-04 0.0 
0.0 0.0 0.0 
-7.193611936292e-05 1.653121891118e-04 0.0 
1.653121891118e-04 2.269423014590e-03 0.0 
0.0 0.0 0.0 
4.418324566156e-05 3.313730836798e-04 0.0 
3.313730836798e-04 1.499365042356e-03 0.0 
0.0 0.0 0.0 
2.425902265890e-05 1.069494643159e-04 0.0 
1.069494643159e-04 1.238197233074e-03 0.0 
0.0 0.0 0.0 
6.546833003059e-05 3.083682927557e-04 0.0 
3.083682927557e-04 1.416638247653e-03 0.0 
0.0 0.0 0.0 
-6.924647136595e-05 1.396532639782e-04 0.0 
1.396532639782e-04 3.213004039615e-04 0.0 
0.0 0.0 0.0 
-1.908873321817e-04 7.091853548971e-05 0.0 
7.091853548971e-05 1.997060641181e-03 0.0 
0.0 0.0 0.0 
-2.031493899324e-06 3.693596570420e-04 0.0 
3.693596570420e-04 1.770435941557e-03 0.0 
0.0 0.0 0.0 
-8.726496923191e-05 1.802378695609e-05 0.0 
1.802378695609e-05 2.182512441492e-03 0.0 
0.0 0.0 0.0 
2.197068451562e-05 8.487716892162e-05 0.0 
8.487716892162e-05 1.230169866041e-03 0.0 
0.0 0.0 0.0 
-1.681206582810e-04 2.806975299127e-05 0.0 
2.806975299127e-05 1.946181573198e-03 0.0 
0.0 0.0 0.0 
-4.033918291442e-05 3.950610818870e-05 0.0 
3.950610818870e-05 2.311939698734e-03 0.0 
0.0 0.0 0.0 
2.788874324363e-05 -1.732398352615e-05 0.0 
-1.732398352615e-05 2.175225475808e-04 0.0 
0.0 0.0 0.0 
-3.727180571715e-05 2.039011443439e-05 0.0 
2.039011443439e-05 2.313347901230e-03 0.0 
0.0 0.0 0.0 
-6.625741301960e-05 3.203926767162e-04 0.0 
3.203926767162e-04 1.823043567790e-03 0.0 
0.0 0.0 0.0 
-1.209728945009e-04 1.115009903376e-05 0.0 
1.115009903376e-05 2.016814044020e-03 0.0 
0.0 0.0 0.0 
-2.081527086391e-04 1.150918237858e-04 0.0 
1.150918237858e-04 1.972898377683e-03 0.0 
0.0 0.0 0.0 
3.539488960136e-05 2.802068189535e-05 0.0 
2.802068189535e-05 1.149285215280e-03 0.0 
0.0 0.0 0.0 
-6.568877358455e-05 3.016377358705e-04 0.0 
3.016377358705e-04 2.101955194274e-03 0.0 
0.0 0.0 0.0 
-6.998841585623e-05 1.071678626299e-04 0.0 
1.071678626299e-04 2.374492886147e-04 0.0 
0.0 0.0 0.0 
-9.799565680513e-05 1.578421747941e-05 0.0 
1.578421747941e-05 2.136751261016e-03 0.0 
0.0 0.0 0.0 
9.602407841123e-05 -8.577180801549e-06 0.0 
-8.577180801549e-06 4.686991048639e-04 0.0 
0.0 0.0 0.0 
-7.080809314715e-05 -1.764514653904e-05 0.0 
-1.764514653904e-05 1.157709937467e-04 0.0 
0.0 0.0 0.0 
5.087795395808e-05 1.272581994105e-04 0.0 
1.272581994105e-04 1.181883267015e-03 0.0 
0.0 0.0 0.0 
-5.220409687229e-05 3.326789370373e-04 0.0 
3.326789370373e-04 1.867578155830e-03 0.0 
0.0 0.0 0.0 
3.788651679293e-05 4.714508962970e-05 0.0 
4.714508962970e-05 1.148340070004e-03 0.0 
0.0 0.0 0.0 
2.575084946441e-05 -2.789563694019e-06 0.0 
-2.789563694019e-06 1.248445732645e-04 0.0 
0.0 0.0 0.0 
-1.316220883458e-05 -2.204414588223e-05 0.0 
-2.204414588223e-05 8.336362774739e-05 0.0 
0.0 0.0 0.0 
5.126715636719e-05 1.584723173144e-04 0.0 
1.584723173144e-04 1.217803188996e-03 0.0 
0.0 0.0 0.0 
-2.599291431956e-05 3.633882815212e-04 0.0 
3.633882815212e-04 1.901585794756e-03 0.0 
0.0 0.0 0.0 
4.125333804924e-05 -2.249408049946e-05 0.0 
-2.249408049946e-05 2.388922865730e-04 0.0 
0.0 0.0 0.0 
-2.910925347410e-05 1.431533508085e-04 0.0 
1.431533508085e-04 2.326170825216e-03 0.0 
0.0 0.0 0.0 
-8.828269784367e-05 7.888502923244e-05 0.0 
7.888502923244e-05 1.608936110015e-04 0.0 
0.0 0.0 0.0 
-1.350160141284e-04 2.391416544568e-06 0.0 
2.391416544568e-06 1.883874102731e-03 0.0 
0.0 0.0 0.0 
3.108390752682e-06 -1.622511529773e-05 0.0 
-1.622511529773e-05 8.024591490045e-05 0.0 
0.0 0.0 0.0 
2.057462326546e-05 6.236704292740e-05 0.0 
6.236704292740e-05 1.221496118636e-03 0.0 
0.0 0.0 0.0 
-5.422838454421e-05 1.023286734736e-04 0.0 
1.023286734736e-04 2.303766583966e-03 0.0 
0.0 0.0 0.0 
9.999441019137e-05 -2.823927077548e-06 0.0 
-2.823927077548e-06 5.207731415103e-04 0.0 
0.0 0.0 0.0 
-2.002606427396e-04 7.105574523104e-05 0.0 
7.105574523104e-05 1.897150590982e-03 0.0 
0.0 0.0 0.0 
6.947500603264e-05 -7.187683396899e-06 0.0 
-7.187683396899e-06 3.346764313033e-04 0.0 
0.0 0.0 0.0 
3.182025208490e-05 3.451465125783e-04 0.0 
3.451465125783e-04 1.577753279440e-03 0.0 
0.0 0.0 0.0 
-9.071674983918e-06 -3.403387036349e-05 0.0 
-3.403387036349e-05 1.303962946248e-04 0.0 
0.0 0.0 0.0 
-4.547897306202e-05 7.345094327244e-05 0.0 
7.345094327244e-05 2.314041262272e-03 0.0 
0.0 0.0 0.0 
5.297881894908e-05 1.926009144558e-04 0.0 
1.926009144558e-04 1.253783655266e-03 0.0 
0.0 0.0 0.0 
-6.992170837170e-05 2.312761062800e-04 0.0 
2.312761062800e-04 2.222392809064e-03 0.0 
0.0 0.0 0.0 
2.373173004964e-05 3.164436510262e-04 0.0 
3.164436510262e-04 1.483206549881e-03 0.0 
0.0 0.0 0.0 
-8.007288859184e-05 1.821692699387e-05 0.0 
1.821692699387e-05 1.271174582854e-04 0.0 
0.0 0.0 0.0 
3.221803279851e-05 3.492383366134e-04 0.0 
3.492383366134e-04 1.563071240904e-03 0.0 
0.0 0.0 0.0 
8.115967840574e-05 2.056793046814e-04 0.0 
2.056793046814e-04 1.207927724482e-03 0.0 
0.0 0.0 0.0 
-1.254495876505e-04 2.015172925178e-06 0.0 
2.015172925178e-06 1.886313218324e-03 0.0 
0.0 0.0 0.0 
-6.999879177614e-05 2.704536955604e-04 0.0 
2.704536955604e-04 2.161203771228e-03 0.0 
0.0 0.0 0.0 
8.545870841870e-05 -7.616246760367e-06 0.0 
-7.616246760367e-06 4.166519782119e-04 0.0 
0.0 0.0 0.0 
3.116844954967e-05 -2.096147799320e-05 0.0 
-2.096147799320e-05 1.730740410256e-04 0.0 
0.0 0.0 0.0 
-1.628039809645e-05 8.194125814533e-06 0.0 
8.194125814533e-06 2.356199007094e-03 0.0 
0.0 0.0 0.0 
9.599399405102e-06 -1.098194043169e-06 0.0 
-1.098194043169e-06 2.441130836122e-05 0.0 
0.0 0.0 0.0 
-1.213290481286e-04 -5.557800773845e-07 0.0 
-5.557800773845e-07 1.880232045956e-03 0.0 
0.0 0.0 0.0 
1.626639210772e-05 9.447517147874e-06 0.0 
9.447517147874e-06 1.216929428094e-03 0.0 
0.0 0.0 0.0 
3.256772017100e-05 -1.268661613537e-05 0.0 
-1.268661613537e-05 1.634033155756e-04 0.0 
0.0 0.0 0.0 
-1.163674411113e-04 2.174134387504e-06 0.0 
2.174134387504e-06 1.981774428796e-03 0.0 
0.0 0.0 0.0 
-3.484314532161e-05 3.547284136410e-04 0.0 
3.547284136410e-04 1.957282581203e-03 0.0 
0.0 0.0 0.0 
1.046277317711e-04 1.006465982437e-06 0.0 
1.006465982437e-06 6.546264996980e-04 0.0 
0.0 0.0 0.0 
-6.795336786793e-05 1.259204280430e-05 0.0 
1.259204280430e-05 2.234441943441e-03 0.0 
0.0 0.0 0.0 
8.500777675846e-06 -3.679797045603e-05 0.0 
-3.679797045603e-05 1.773455255789e-04 0.0 
0.0 0.0 0.0 
-1.250428239671e-04 -8.544829718739e-06 0.0 
-8.544829718739e-06 8.704822808688e-05 0.0 
0.0 0.0 0.0 
-1.041449412011e-04 5.715047041016e-06 0.0 
5.715047041016e-06 2.086737066307e-03 0.0 
0.0 0.0 0.0 
4.542157829950e-05 3.231747392851e-04 0.0 
3.231747392851e-04 1.471412112126e-03 0.0 
0.0 0.0 0.0 
-6.567205891312e-05 1.877108313677e-04 0.0 
1.877108313677e-04 2.265785468892e-03 0.0 
0.0 0.0 0.0 
-1.157080157472e-04 1.214017459830e-05 0.0 
1.214017459830e-05 2.048596192942e-03 0.0 
0.0 0.0 0.0 
-3.362049545870e-05 7.977088751944e-05 0.0 
7.977088751944e-05 2.555125798783e-04 0.0 
0.0 0.0 0.0 
-4.055598720134e-05 3.476716250071e-04 0.0 
3.476716250071e-04 1.902442749212e-03 0.0 
0.0 0.0 0.0 
1.044664785862e-04 -1.530094912842e-06 0.0 
-1.530094912842e-06 5.664391619671e-04 0.0 
0.0 0.0 0.0 
3.691467469147e-06 3.562018656454e-04 0.0 
3.562018656454e-04 1.699780068871e-03 0.0 
0.0 0.0 0.0 
7.843641531826e-05 2.365822623497e-04 0.0 
2.365822623497e-04 1.258917177347e-03 0.0 
0.0 0.0 0.0 
-1.133683480822e-04 8.800340159275e-05 0.0 
8.800340159275e-05 1.101027000535e-04 0.0 
0.0 0.0 0.0 
1.037689063820e-04 1.987114222891e-06 0.0 
1.987114222891e-06 7.113848844355e-04 0.0 
0.0 0.0 0.0 
-5.606074641196e-06 -1.768293172747e-05 0.0 
-1.768293172747e-05 7.742952437000e-05 0.0 
0.0 0.0 0.0 
3.995780926793e-05 9.318976285192e-05 0.0 
9.318976285192e-05 1.180957888483e-03 0.0 
0.0 0.0 0.0 
1.044966270978e-04 -4.974927709830e-07 0.0 
-4.974927709830e-07 5.934880129411e-04 0.0 
0.0 0.0 0.0 
-1.673922823417e-04 4.456983357298e-05 0.0 
4.456983357298e-05 1.756619342938e-03 0.0 
0.0 0.0 0.0 
-1.287684976161e-04 9.432490169320e-07 0.0 
9.432490169320e-07 1.743536406898e-03 0.0 
0.0 0.0 0.0 
-1.763268294062e-04 4.589058294200e-05 0.0 
4.589058294200e-05 1.808906825311e-03 0.0 
0.0 0.0 0.0 
-1.240340868374e-04 3.411971730921e-07 0.0 
3.411971730921e-07 1.801859868655e-03 0.0 
0.0 0.0 0.0 

TENSORS node_materi_strain_plasti float
-2.612663767757e-06 -3.252607646113e-07 0.0 
-3.252607646113e-07 2.093720605042e-05 0.0 
0.0 0.0 -4.924303274428e-06 
-1.079056608654e-04 -1.683663743376e-05 0.0 
-1.683663743376e-05 6.796608024097e-04 0.0 
0.0 0.0 -1.043867513459e-04 
-1.990082416844e-04 1.461466422752e-05 0.0 
1.461466422752e-05 1.338163054070e-03 0.0 
0.0 0.0 -1.998931639748e-04 
-1.992789450115e-04 -1.457804817178e-05 0.0 
-1.457804817178e-05 1.339096739606e-03 0.0 
0.0 0.0 -1.998931639748e-04 
-1.229078891716e-05 5.366280014175e-06 0.0 
5.366280014175e-06 5.053145956954e-05 0.0 
0.0 0.0 -1.268018299698e-05 
-2.543886988905e-05 1.901414525611e-05 0.0 
1.901414525611e-05 1.267844857367e-04 0.0 
0.0 0.0 -2.428620303623e-05 
-3.444505010393e-05 1.562750611400e-05 0.0 
1.562750611400e-05 1.836714106930e-04 0.0 
0.0 0.0 -3.399136149544e-05 
-4.457783022682e-05 1.417525000785e-05 0.0 
1.417525000785e-05 2.618842628781e-04 0.0 
0.0 0.0 -4.406465996183e-05 
-5.572937533165e-05 1.046680884978e-05 0.0 
1.046680884978e-05 3.321775894220e-04 0.0 
0.0 0.0 -5.415704333790e-05 
-6.374532394610e-05 9.877096268524e-06 0.0 
9.877096268524e-06 3.996726964643e-04 0.0 
0.0 0.0 -6.415842296661e-05 
-7.312975922456e-05 1.092726545402e-05 0.0 
1.092726545402e-05 4.685103703879e-04 0.0 
0.0 0.0 -7.410179773499e-05 
-8.340975388222e-05 9.760341255261e-06 0.0 
9.760341255261e-06 5.380090096821e-04 0.0 
0.0 0.0 -8.402736785582e-05 
-9.329317044903e-05 9.748725627981e-06 0.0 
9.748725627981e-06 6.067337971893e-04 0.0 
0.0 0.0 -9.400794208654e-05 
-1.048395173574e-04 1.245666822366e-05 0.0 
1.245666822366e-05 6.774763461161e-04 0.0 
0.0 0.0 -1.040542782181e-04 
-1.176369272068e-04 1.876149311443e-05 0.0 
1.876149311443e-05 7.541898349339e-04 0.0 
0.0 0.0 -1.141079629734e-04 
-1.251371721908e-04 1.991670015406e-05 0.0 
1.991670015406e-05 8.235151932197e-04 0.0 
0.0 0.0 -1.240613786258e-04 
-1.319668018372e-04 2.596472290694e-05 0.0 
2.596472290694e-05 8.806369836317e-04 0.0 
0.0 0.0 -1.335504265687e-04 
-1.429595426911e-04 1.016247294305e-05 0.0 
1.016247294305e-05 9.540683438175e-04 0.0 
0.0 0.0 -1.433712649586e-04 
-1.532202596459e-04 9.657610282115e-06 0.0 
9.657610282115e-06 1.025836369529e-03 0.0 
0.0 0.0 -1.536785213545e-04 
-1.630955816410e-04 9.924116732642e-06 0.0 
9.924116732642e-06 1.095392565861e-03 0.0 
0.0 0.0 -1.636867096734e-04 
-1.736417197982e-04 9.148824907428e-06 0.0 
9.148824907428e-06 1.166298828267e-03 0.0 
0.0 0.0 -1.737495185000e-04 
-1.844935295981e-04 1.136666883781e-05 0.0 
1.136666883781e-05 1.237760949854e-03 0.0 
0.0 0.0 -1.839110754151e-04 
-1.928395893447e-04 1.466620459946e-05 0.0 
1.466620459946e-05 1.307601711888e-03 0.0 
0.0 0.0 -1.934749151625e-04 
-1.992084498245e-04 -9.667205419172e-07 0.0 
-9.667205419172e-07 1.341308611164e-03 0.0 
0.0 0.0 -2.005353038101e-04 
-2.003235822205e-04 -4.576902611969e-07 0.0 
-4.576902611969e-07 1.339283177977e-03 0.0 
0.0 0.0 -1.999418651152e-04 
-2.004195521241e-04 -9.594112326717e-06 0.0 
-9.594112326717e-06 1.337828695600e-03 0.0 
0.0 0.0 -2.002354755130e-04 
-2.008845907091e-04 4.519063874005e-06 0.0 
4.519063874005e-06 1.338578482993e-03 0.0 
0.0 0.0 -2.001689849711e-04 
-2.005719087583e-04 -1.259819984252e-06 0.0 
-1.259819984252e-06 1.336698736025e-03 0.0 
0.0 0.0 -1.998101597465e-04 
-2.003033749392e-04 1.612771953849e-07 0.0 
1.612771953849e-07 1.336699884288e-03 0.0 
0.0 0.0 -2.002576402756e-04 
-1.988174270910e-04 4.435871277180e-07 0.0 
4.435871277180e-07 1.338020991228e-03 0.0 
0.0 0.0 -2.002582685247e-04 
-2.006018029555e-04 -1.428553602928e-06 0.0 
-1.428553602928e-06 1.338259915715e-03 0.0 
0.0 0.0 -2.000295381545e-04 
-2.002076965602e-04 -6.442142530928e-06 0.0 
-6.442142530928e-06 1.339568721789e-03 0.0 
0.0 0.0 -2.004389858384e-04 
-2.006688150029e-04 4.111887006866e-06 0.0 
4.111887006866e-06 1.340190933063e-03 0.0 
0.0 0.0 -2.003568725688e-04 
-2.004204281591e-04 -1.032720327526e-06 0.0 
-1.032720327526e-06 1.338293566306e-03 0.0 
0.0 0.0 -1.999970921405e-04 
-2.007190085647e-04 -7.221768717100e-07 0.0 
-7.221768717100e-07 1.338675392550e-03 0.0 
0.0 0.0 -2.003793839065e-04 
-1.990986785052e-04 -1.590259053482e-08 0.0 
-1.590259053482e-08 1.341350099485e-03 0.0 
0.0 0.0 -2.004146187826e-04 
-2.007914892723e-04 -4.264335361635e-07 0.0 
-4.264335361635e-07 1.339816171211e-03 0.0 
0.0 0.0 -2.002852565091e-04 
-1.994100966532e-04 -1.572894639504e-06 0.0 
-1.572894639504e-06 1.338161131957e-03 0.0 
0.0 0.0 -2.001446319728e-04 
-2.007511256741e-04 1.494960023588e-06 0.0 
1.494960023588e-06 1.335513206817e-03 0.0 
0.0 0.0 -1.998462653075e-04 
-2.008601944157e-04 -3.837724735005e-07 0.0 
-3.837724735005e-07 1.334384440132e-03 0.0 
0.0 0.0 -1.998029376683e-04 
-1.990688471561e-04 2.458886044844e-07 0.0 
2.458886044844e-07 1.337655076969e-03 0.0 
0.0 0.0 -2.000088186226e-04 
-2.001853082778e-04 -6.402158915267e-07 0.0 
-6.402158915267e-07 1.339281899659e-03 0.0 
0.0 0.0 -2.002091174222e-04 
-2.005241707287e-04 -7.501540653692e-07 0.0 
-7.501540653692e-07 1.339203182872e-03 0.0 
0.0 0.0 -2.004865334549e-04 
-2.005853306472e-04 2.540125145857e-06 0.0 
2.540125145857e-06 1.339503555012e-03 0.0 
0.0 0.0 -2.003832587333e-04 
-1.997808965748e-04 -1.605993664687e-07 0.0 
-1.605993664687e-07 1.339666309980e-03 0.0 
0.0 0.0 -2.002174839672e-04 
-2.003075530794e-04 4.838064349880e-07 0.0 
4.838064349880e-07 1.338766324707e-03 0.0 
0.0 0.0 -2.002580803729e-04 
-2.003470639015e-04 -2.444069971792e-07 0.0 
-2.444069971792e-07 1.338072796155e-03 0.0 
0.0 0.0 -2.002440284024e-04 
-2.004510673748e-04 -1.928377971685e-07 0.0 
-1.928377971685e-07 1.340065919944e-03 0.0 
0.0 0.0 -2.002334986692e-04 
-1.995883615915e-04 -7.312419057638e-07 0.0 
-7.312419057638e-07 1.340320439837e-03 0.0 
0.0 0.0 -2.003661129950e-04 
-2.011747927060e-04 -8.722415594420e-07 0.0 
-8.722415594420e-07 1.340079435223e-03 0.0 
0.0 0.0 -2.004908485340e-04 
-1.995361419384e-04 -6.780112919623e-07 0.0 
-6.780112919623e-07 1.340717740891e-03 0.0 
0.0 0.0 -2.004762665914e-04 
-2.008009995012e-04 -8.793815483884e-07 0.0 
-8.793815483884e-07 1.341377617168e-03 0.0 
0.0 0.0 -2.003014926434e-04 
-2.004900975472e-04 -5.374113392905e-06 0.0 
-5.374113392905e-06 1.342707157093e-03 0.0 
0.0 0.0 -2.006997735404e-04 
-2.011614755125e-04 5.177742394410e-06 0.0 
5.177742394410e-06 1.341994191491e-03 0.0 
0.0 0.0 -2.005870641008e-04 
-2.001672680472e-04 1.642921574496e-06 0.0 
1.642921574496e-06 1.338462129955e-03 0.0 
0.0 0.0 -2.000675234999e-04 
-1.999895739659e-04 -6.988816100685e-09 0.0 
-6.988816100685e-09 1.336248125534e-03 0.0 
0.0 0.0 -2.001823097425e-04 
-2.001225026340e-04 -1.240829705364e-06 0.0 
-1.240829705364e-06 1.339474803775e-03 0.0 
0.0 0.0 -2.001929620191e-04 
-1.997428951088e-04 -2.864922555171e-07 0.0 
-2.864922555171e-07 1.339287980767e-03 0.0 
0.0 0.0 -2.002863172658e-04 
-2.011305945918e-04 -1.592599752619e-06 0.0 
-1.592599752619e-06 1.339001312879e-03 0.0 
0.0 0.0 -2.003537156312e-04 
-1.994489271156e-04 -3.123074052847e-07 0.0 
-3.123074052847e-07 1.340206734430e-03 0.0 
0.0 0.0 -2.003469717371e-04 
-2.008676553467e-04 -6.044515584231e-08 0.0 
-6.044515584231e-08 1.338725412238e-03 0.0 
0.0 0.0 -2.002396863610e-04 
-1.992453131624e-04 -1.009025233623e-06 0.0 
-1.009025233623e-06 1.337264745438e-03 0.0 
0.0 0.0 -2.001151187552e-04 
-2.007508866938e-04 2.802615914652e-07 0.0 
2.802615914652e-07 1.337086357069e-03 0.0 
0.0 0.0 -1.998355947622e-04 
-2.010860201950e-04 -2.268840142145e-06 0.0 
-2.268840142145e-06 1.337518567927e-03 0.0 
0.0 0.0 -2.000624918399e-04 
-1.999308478327e-04 1.605132680389e-06 0.0 
1.605132680389e-06 1.340948129084e-03 0.0 
0.0 0.0 -2.004978758543e-04 
-1.989515291925e-04 -1.597226336294e-06 0.0 
-1.597226336294e-06 1.342999130641e-03 0.0 
0.0 0.0 -2.005641941534e-04 
-2.002462740351e-04 -1.655488014151e-06 0.0 
-1.655488014151e-06 1.333093131656e-03 0.0 
0.0 0.0 -1.993486092159e-04 
-1.990090833406e-04 5.684559175637e-07 0.0 
5.684559175637e-07 1.340609276749e-03 0.0 
0.0 0.0 -2.003850096553e-04 
-2.008054096670e-04 9.372155481795e-08 0.0 
9.372155481795e-08 1.339007845984e-03 0.0 
0.0 0.0 -1.998785251170e-04 
-2.008250670669e-04 -6.084757154766e-06 0.0 
-6.084757154766e-06 1.338299561836e-03 0.0 
0.0 0.0 -2.002828574513e-04 
-2.004005035862e-04 2.502291620358e-06 0.0 
2.502291620358e-06 1.342657178018e-03 0.0 
0.0 0.0 -2.004849633189e-04 
-2.007882536758e-04 -1.247747538696e-07 0.0 
-1.247747538696e-07 1.343259988120e-03 0.0 
0.0 0.0 -2.003783523096e-04 
-1.146671904274e-04 -1.178176757847e-05 0.0 
-1.178176757847e-05 7.450986713540e-04 0.0 
0.0 0.0 -1.147343130870e-04 
-1.264453810116e-04 -1.334151081515e-05 0.0 
-1.334151081515e-05 8.198209596703e-04 0.0 
0.0 0.0 -1.244847198447e-04 
-1.356765189360e-04 -1.297470350471e-05 0.0 
-1.297470350471e-05 8.891398730811e-04 0.0 
0.0 0.0 -1.343891602869e-04 
-1.452353386135e-04 -1.385252952600e-05 0.0 
-1.385252952600e-05 9.563155137830e-04 0.0 
0.0 0.0 -1.441570129583e-04 
-1.551452079967e-04 -1.219781350268e-05 0.0 
-1.219781350268e-05 1.026181140671e-03 0.0 
0.0 0.0 -1.540481715075e-04 
-1.626979226826e-04 -1.337619385664e-05 0.0 
-1.337619385664e-05 1.096146543984e-03 0.0 
0.0 0.0 -1.639185295300e-04 
-1.730204163278e-04 -1.189570542028e-05 0.0 
-1.189570542028e-05 1.165335265964e-03 0.0 
0.0 0.0 -1.737435638217e-04 
-1.827904030233e-04 -1.370279642459e-05 0.0 
-1.370279642459e-05 1.231374955592e-03 0.0 
0.0 0.0 -1.836722557877e-04 
-1.920175721782e-04 -1.513479483673e-05 0.0 
-1.513479483673e-05 1.306410256595e-03 0.0 
0.0 0.0 -1.933173094176e-04 
-2.628312394672e-06 4.861178510582e-06 0.0 
4.861178510582e-06 1.556544794842e-05 0.0 
0.0 0.0 -4.409292559605e-06 
-1.048316007749e-04 -9.621305853345e-07 0.0 
-9.621305853345e-07 6.811678198845e-04 0.0 
0.0 0.0 -1.041824356080e-04 
-1.603258868989e-05 6.293505815657e-06 0.0 
6.293505815657e-06 6.888897348946e-05 0.0 
0.0 0.0 -1.632019118638e-05 
-2.756708965862e-05 9.954179369459e-06 0.0 
9.954179369459e-06 1.392031922928e-04 0.0 
0.0 0.0 -2.693367542308e-05 
-3.812552406380e-05 1.016013513838e-05 0.0 
1.016013513838e-05 2.109572618436e-04 0.0 
0.0 0.0 -3.699017713192e-05 
-4.963090252897e-05 1.010790859059e-05 0.0 
1.010790859059e-05 2.749080301063e-04 0.0 
0.0 0.0 -4.663185121135e-05 
-5.946172844476e-05 1.089817760649e-05 0.0 
1.089817760649e-05 3.455630334660e-04 0.0 
0.0 0.0 -5.667203691650e-05 
-6.775013558677e-05 5.168412961490e-06 0.0 
5.168412961490e-06 4.165676618044e-04 0.0 
0.0 0.0 -6.681818494127e-05 
-7.793159950291e-05 6.492051775956e-06 0.0 
6.492051775956e-06 4.871727413844e-04 0.0 
0.0 0.0 -7.681969500240e-05 
-8.533663576779e-05 4.392605572604e-06 0.0 
4.392605572604e-06 5.559414637489e-04 0.0 
0.0 0.0 -8.655345711617e-05 
-9.180060726483e-05 -4.722006417284e-07 0.0 
-4.722006417284e-07 6.049326733472e-04 0.0 
0.0 0.0 -9.373011205136e-05 
-8.345191019027e-05 -2.932480997531e-05 0.0 
-2.932480997531e-05 5.681779270227e-04 0.0 
0.0 0.0 -8.733333333333e-05 
-9.370207488883e-05 -2.126272979996e-05 0.0 
-2.126272979996e-05 6.064301356153e-04 0.0 
0.0 0.0 -9.400000000000e-05 
-1.036969649510e-04 8.247914357618e-06 0.0 
8.247914357618e-06 6.682236523530e-04 0.0 
0.0 0.0 -1.031244360596e-04 
-1.030331121809e-04 6.398061947281e-07 0.0 
6.398061947281e-07 6.730085857154e-04 0.0 
0.0 0.0 -1.036639830904e-04 
-1.040246848300e-04 6.551258288294e-07 0.0 
6.551258288294e-07 6.737003815122e-04 0.0 
0.0 0.0 -1.036786795573e-04 
-1.036199691061e-04 -1.060092899920e-06 0.0 
-1.060092899920e-06 6.728402332334e-04 0.0 
0.0 0.0 -1.035503476195e-04 
-1.036187730866e-04 6.987826892712e-07 0.0 
6.987826892712e-07 6.843234116976e-04 0.0 
0.0 0.0 -1.047113471711e-04 
-1.033931728263e-04 8.121956357098e-07 0.0 
8.121956357098e-07 6.742373380345e-04 0.0 
0.0 0.0 -1.036717283195e-04 
-1.019647128334e-04 -9.227752753182e-07 0.0 
-9.227752753182e-07 6.731432047700e-04 0.0 
0.0 0.0 -1.035575096558e-04 
-1.024936313905e-04 1.772285713447e-06 0.0 
1.772285713447e-06 6.748371062497e-04 0.0 
0.0 0.0 -1.035838249569e-04 
-1.042470993802e-04 3.635416729023e-07 0.0 
3.635416729023e-07 6.762559263978e-04 0.0 
0.0 0.0 -1.038366668071e-04 
-1.045602445557e-04 1.897285970682e-06 0.0 
1.897285970682e-06 6.765304608455e-04 0.0 
0.0 0.0 -1.037414779538e-04 
-1.033276288020e-04 1.064407616834e-06 0.0 
1.064407616834e-06 6.759918874459e-04 0.0 
0.0 0.0 -1.036749887244e-04 
-1.038467522998e-04 5.163460192194e-07 0.0 
5.163460192194e-07 6.750993881616e-04 0.0 
0.0 0.0 -1.036742376103e-04 
-1.031100844336e-04 2.320623075698e-06 0.0 
2.320623075698e-06 6.745066352922e-04 0.0 
0.0 0.0 -1.037248800197e-04 
-1.035625589850e-04 3.164755832638e-06 0.0 
3.164755832638e-06 6.761520668862e-04 0.0 
0.0 0.0 -1.038372224314e-04 
-3.888660396223e-06 -2.385114651317e-06 0.0 
-2.385114651317e-06 2.042711759429e-05 0.0 
0.0 0.0 -4.472331749510e-06 
-5.169101753905e-06 -7.084154542495e-07 0.0 
-7.084154542495e-07 2.271348961565e-05 0.0 
0.0 0.0 -4.502040609288e-06 
-2.364246160799e-06 1.028376057694e-06 0.0 
1.028376057694e-06 2.131091607623e-05 0.0 
0.0 0.0 -4.337518410806e-06 
-1.587498611084e-06 -3.133011703373e-06 0.0 
-3.133011703373e-06 2.050781746996e-05 0.0 
0.0 0.0 -4.334754490686e-06 
-5.046560316982e-06 -4.634948452893e-06 0.0 
-4.634948452893e-06 2.392890582554e-05 0.0 
0.0 0.0 -4.561117883842e-06 
-6.265007612969e-06 -9.207565944816e-07 0.0 
-9.207565944816e-07 2.697395437511e-05 0.0 
0.0 0.0 -4.603166802451e-06 
-5.736513677339e-06 8.387511243075e-08 0.0 
8.387511243075e-08 2.687139260663e-05 0.0 
0.0 0.0 -4.588253942932e-06 
-4.839540945368e-06 -2.011555288387e-07 0.0 
-2.011555288387e-07 2.583465999306e-05 0.0 
0.0 0.0 -4.580819930830e-06 
-4.612792911559e-06 -5.630253563300e-07 0.0 
-5.630253563300e-07 2.605477154738e-05 0.0 
0.0 0.0 -4.566377142626e-06 
-3.958290915494e-06 -1.184167375848e-06 0.0 
-1.184167375848e-06 2.564531167106e-05 0.0 
0.0 0.0 -4.572797242576e-06 
-4.022129294500e-06 -2.439723680986e-06 0.0 
-2.439723680986e-06 2.664958176089e-05 0.0 
0.0 0.0 -4.590091569785e-06 
-6.268342663527e-06 6.977096205287e-07 0.0 
6.977096205287e-07 2.905288206764e-05 0.0 
0.0 0.0 -4.700025780019e-06 
-5.376994636987e-06 4.381417467922e-06 0.0 
4.381417467922e-06 2.721428218001e-05 0.0 
0.0 0.0 -4.652230755744e-06 
-2.838762493559e-06 1.392931258625e-06 0.0 
1.392931258625e-06 2.367722917541e-05 0.0 
0.0 0.0 -4.515582628821e-06 
-3.990779392774e-06 -6.597448414294e-07 0.0 
-6.597448414294e-07 2.387859913914e-05 0.0 
0.0 0.0 -4.562958168800e-06 
-6.201113197701e-06 2.425591329864e-07 0.0 
2.425591329864e-07 2.634678490736e-05 0.0 
0.0 0.0 -4.590849357655e-06 
-6.954870756755e-06 8.464675035122e-07 0.0 
8.464675035122e-07 2.697964767619e-05 0.0 
0.0 0.0 -4.587172474505e-06 
-4.599856540822e-06 4.128708826148e-06 0.0 
4.128708826148e-06 2.250512897823e-05 0.0 
0.0 0.0 -4.562260372237e-06 
-2.212869655358e-06 7.040915964333e-07 0.0 
7.040915964333e-07 1.983031900883e-05 0.0 
0.0 0.0 -4.417496077222e-06 
-9.123852163001e-05 1.089740577635e-05 0.0 
1.089740577635e-05 5.836838658895e-04 0.0 
0.0 0.0 -8.816666666667e-05 
-8.843468136577e-05 3.980913055839e-07 0.0 
3.980913055839e-07 5.807338781589e-04 0.0 
0.0 0.0 -8.844444444444e-05 
-8.826219131230e-05 -6.721011139956e-07 0.0 
-6.721011139956e-07 5.797612865698e-04 0.0 
0.0 0.0 -8.844444444444e-05 
-8.844913477150e-05 -7.045387294039e-07 0.0 
-7.045387294039e-07 5.800187740680e-04 0.0 
0.0 0.0 -8.844444444444e-05 
-8.808447418137e-05 -1.845121441165e-07 0.0 
-1.845121441165e-07 5.798796042068e-04 0.0 
0.0 0.0 -8.844444444444e-05 
-8.836719030825e-05 1.500356566300e-07 0.0 
1.500356566300e-07 5.801566380645e-04 0.0 
0.0 0.0 -8.844444444444e-05 
-8.838793162735e-05 6.405240561396e-07 0.0 
6.405240561396e-07 5.805250701679e-04 0.0 
0.0 0.0 -8.844444444444e-05 
-8.869388387622e-05 -4.218277997743e-07 0.0 
-4.218277997743e-07 5.805040219857e-04 0.0 
0.0 0.0 -8.844444444444e-05 
-8.839964887023e-05 3.401840831026e-07 0.0 
3.401840831026e-07 5.798421247802e-04 0.0 
0.0 0.0 -8.844444444444e-05 
-8.891785645726e-05 1.160817321012e-06 0.0 
1.160817321012e-06 5.804251213827e-04 0.0 
0.0 0.0 -8.844444444444e-05 
-8.921644058435e-05 5.641160957843e-07 0.0 
5.641160957843e-07 5.807185270599e-04 0.0 
0.0 0.0 -8.844444444444e-05 
-8.909301550567e-05 4.436169261975e-07 0.0 
4.436169261975e-07 5.804311782757e-04 0.0 
0.0 0.0 -8.844444444444e-05 
-8.938710337051e-05 5.381110311322e-07 0.0 
5.381110311322e-07 5.805910603762e-04 0.0 
0.0 0.0 -8.844444444444e-05 
-8.962491360261e-05 -6.179596327173e-07 0.0 
-6.179596327173e-07 5.788865635924e-04 0.0 
0.0 0.0 -8.844444444444e-05 
-8.784291696214e-05 5.549168999954e-06 0.0 
5.549168999954e-06 5.803052597004e-04 0.0 
0.0 0.0 -8.844444444444e-05 
-8.790675877055e-05 -3.345189301272e-06 0.0 
-3.345189301272e-06 5.791404981040e-04 0.0 
0.0 0.0 -8.803486394558e-05 
-7.766013980373e-05 -2.245032589718e-06 0.0 
-2.245032589718e-06 5.521643814318e-04 0.0 
0.0 0.0 -8.604648526077e-05 
-8.729514730737e-05 2.431575192883e-06 0.0 
2.431575192883e-06 5.952071725442e-04 0.0 
0.0 0.0 -9.279292626141e-05 
-9.515402825116e-05 -3.487467194031e-07 0.0 
-3.487467194031e-07 6.124983923015e-04 0.0 
0.0 0.0 -9.439393679549e-05 
-9.530518963518e-05 1.748549076388e-06 0.0 
1.748549076388e-06 6.086982827348e-04 0.0 
0.0 0.0 -9.400000000000e-05 
-9.443822007151e-05 1.536080356852e-06 0.0 
1.536080356852e-06 6.081273132837e-04 0.0 
0.0 0.0 -9.400000000000e-05 
-9.455496517287e-05 4.180655032130e-07 0.0 
4.180655032130e-07 6.085997108048e-04 0.0 
0.0 0.0 -9.400000000000e-05 
-9.458632400686e-05 1.150725883443e-06 0.0 
1.150725883443e-06 6.089170576803e-04 0.0 
0.0 0.0 -9.400000000000e-05 
-9.431195159654e-05 1.533006736186e-06 0.0 
1.533006736186e-06 6.081280804878e-04 0.0 
0.0 0.0 -9.400000000000e-05 
-9.421230709675e-05 -1.354647329153e-07 0.0 
-1.354647329153e-07 6.080912884899e-04 0.0 
0.0 0.0 -9.400000000000e-05 
-9.337909431243e-05 6.942444443618e-07 0.0 
6.942444443618e-07 6.085993616068e-04 0.0 
0.0 0.0 -9.400000000000e-05 
-9.374302250683e-05 3.925743234367e-08 0.0 
3.925743234367e-08 6.082422955829e-04 0.0 
0.0 0.0 -9.400000000000e-05 
-9.357184311787e-05 3.344127971799e-07 0.0 
3.344127971799e-07 6.080020201806e-04 0.0 
0.0 0.0 -9.400000000000e-05 
-9.351707113181e-05 -1.166879688300e-06 0.0 
-1.166879688300e-06 6.078331273393e-04 0.0 
0.0 0.0 -9.400000000000e-05 
-9.397267376399e-05 -4.718022942719e-07 0.0 
-4.718022942719e-07 6.082084038474e-04 0.0 
0.0 0.0 -9.400000000000e-05 
-9.376740862845e-05 -1.478812201538e-06 0.0 
-1.478812201538e-06 6.074134740605e-04 0.0 
0.0 0.0 -9.400000000000e-05 
-9.429475212128e-05 -5.091328171579e-06 0.0 
-5.091328171579e-06 6.089719886990e-04 0.0 
0.0 0.0 -9.400000000000e-05 
-9.572461714176e-05 1.686230062982e-05 0.0 
1.686230062982e-05 6.103161186201e-04 0.0 
0.0 0.0 -9.400000000000e-05 
-9.168972231207e-06 3.086373565098e-06 0.0 
3.086373565098e-06 3.559574852661e-05 0.0 
0.0 0.0 -1.067913767518e-05 
-2.319324557595e-05 9.600073751645e-06 0.0 
9.600073751645e-06 1.051649730873e-04 0.0 
0.0 0.0 -2.186514004066e-05 
-3.270389502079e-05 1.247004681325e-05 0.0 
1.247004681325e-05 1.753354515574e-04 0.0 
0.0 0.0 -3.195214541711e-05 
-4.333142068931e-05 1.229963368923e-05 0.0 
1.229963368923e-05 2.470095009577e-04 0.0 
0.0 0.0 -4.202597925154e-05 
-5.334283756541e-05 5.153255213289e-06 0.0 
5.153255213289e-06 3.151067639109e-04 0.0 
0.0 0.0 -5.161396608484e-05 
-6.108066666722e-05 7.340749313707e-06 0.0 
7.340749313707e-06 3.847251305454e-04 0.0 
0.0 0.0 -6.162588342429e-05 
-7.306139943485e-05 7.918023931397e-06 0.0 
7.918023931397e-06 4.529799352535e-04 0.0 
0.0 0.0 -7.179487645214e-05 
-8.254057578856e-05 9.754524772692e-06 0.0 
9.754524772692e-06 5.221143187957e-04 0.0 
0.0 0.0 -8.183139013121e-05 
-8.509296828041e-05 3.418368169262e-06 0.0 
3.418368169262e-06 5.740185323213e-04 0.0 
0.0 0.0 -8.978403836533e-05 
-9.498556415872e-05 3.738944843297e-06 0.0 
3.738944843297e-06 6.453839669724e-04 0.0 
0.0 0.0 -9.979450657254e-05 
-2.903947000217e-05 4.451191488363e-07 0.0 
4.451191488363e-07 1.483933272917e-04 0.0 
0.0 0.0 -2.805418351568e-05 
-1.947382551544e-04 -2.159516415369e-06 0.0 
-2.159516415369e-06 1.315627443457e-03 0.0 
0.0 0.0 -1.955083413980e-04 
-8.567559438263e-06 -1.698793721464e-06 0.0 
-1.698793721464e-06 4.448364337142e-05 0.0 
0.0 0.0 -8.578267221574e-06 
-8.136868517871e-06 -4.367899646924e-06 0.0 
-4.367899646924e-06 4.087946457471e-05 0.0 
0.0 0.0 -8.341387659605e-06 
-1.954641214955e-04 3.125550394228e-06 0.0 
3.125550394228e-06 1.316340498285e-03 0.0 
0.0 0.0 -1.955041315648e-04 
-5.006254034077e-05 3.860488417876e-06 0.0 
3.860488417876e-06 2.918098893608e-04 0.0 
0.0 0.0 -4.819929352323e-05 
-1.113057377054e-04 -1.249747274644e-06 0.0 
-1.249747274644e-06 7.175137801225e-04 0.0 
0.0 0.0 -1.095085134540e-04 
-1.950754387674e-04 1.968519813096e-06 0.0 
1.968519813096e-06 1.314054090021e-03 0.0 
0.0 0.0 -1.951497400597e-04 
-6.837076637649e-05 -4.771419097857e-06 0.0 
-4.771419097857e-06 4.223371659246e-04 0.0 
0.0 0.0 -6.746904573659e-05 
-1.952596228174e-04 5.860291744707e-07 0.0 
5.860291744707e-07 1.317160681800e-03 0.0 
0.0 0.0 -1.956021977692e-04 
-8.896698281549e-05 5.176874405715e-07 0.0 
5.176874405715e-07 5.656380992247e-04 0.0 
0.0 0.0 -8.786970436408e-05 
-1.941939648637e-04 1.847287419424e-06 0.0 
1.847287419424e-06 1.320485000250e-03 0.0 
0.0 0.0 -1.961487763302e-04 
-7.650674215329e-06 1.236502144193e-06 0.0 
1.236502144193e-06 3.991553915001e-05 0.0 
0.0 0.0 -8.186248162006e-06 
-1.957069062092e-04 9.003290222838e-07 0.0 
9.003290222838e-07 1.317426151316e-03 0.0 
0.0 0.0 -1.956722400187e-04 
-1.089453835626e-04 2.369159746168e-06 0.0 
2.369159746168e-06 7.099109707760e-04 0.0 
0.0 0.0 -1.080461297714e-04 
-6.859129019067e-05 1.013206430907e-06 0.0 
1.013206430907e-06 4.370886358119e-04 0.0 
0.0 0.0 -6.960710895285e-05 
-1.371687672462e-04 1.989641405698e-06 0.0 
1.989641405698e-06 9.073488131676e-04 0.0 
0.0 0.0 -1.368826812983e-04 
-1.943229683407e-04 -1.445358278172e-06 0.0 
-1.445358278172e-06 1.315110082613e-03 0.0 
0.0 0.0 -1.951920106767e-04 
-1.956930830492e-04 2.604495501023e-06 0.0 
2.604495501023e-06 1.317782772153e-03 0.0 
0.0 0.0 -1.956442140825e-04 
-1.963197173795e-04 -2.638308879700e-06 0.0 
-2.638308879700e-06 1.317317020312e-03 0.0 
0.0 0.0 -1.954857917668e-04 
-1.946046977129e-04 1.619923868870e-06 0.0 
1.619923868870e-06 1.311223827380e-03 0.0 
0.0 0.0 -1.946591103862e-04 
-1.965700765428e-04 -3.277130686746e-06 0.0 
-3.277130686746e-06 1.319377863823e-03 0.0 
0.0 0.0 -1.957959275784e-04 
-1.125606473740e-04 1.719511349206e-06 0.0 
1.719511349206e-06 7.393436574216e-04 0.0 
0.0 0.0 -1.128301714015e-04 
-1.128503086942e-04 1.743206654311e-06 0.0 
1.743206654311e-06 7.389768954601e-04 0.0 
0.0 0.0 -1.129477424158e-04 
-1.131980592598e-04 -1.862024743753e-06 0.0 
-1.862024743753e-06 7.425708164452e-04 0.0 
0.0 0.0 -1.137040567910e-04 
-1.496411633683e-04 -5.197980004835e-06 0.0 
-5.197980004835e-06 9.903344520159e-04 0.0 
0.0 0.0 -1.492512252364e-04 
-1.950888054502e-04 -1.662594662544e-06 0.0 
-1.662594662544e-06 1.318271302421e-03 0.0 
0.0 0.0 -1.954311278458e-04 
-7.420624434335e-06 -2.743944179506e-06 0.0 
-2.743944179506e-06 4.036171462300e-05 0.0 
0.0 0.0 -8.192647634203e-06 
-9.873734262922e-06 8.287041108010e-07 0.0 
8.287041108010e-07 4.596430085012e-05 0.0 
0.0 0.0 -8.762595040287e-06 
-1.681367322331e-04 -1.737857054475e-07 0.0 
-1.737857054475e-07 1.127342030325e-03 0.0 
0.0 0.0 -1.684329593750e-04 
-1.137312378447e-04 2.941922033179e-06 0.0 
2.941922033179e-06 7.354400071240e-04 0.0 
0.0 0.0 -1.125050824252e-04 
-4.041482156002e-05 3.417558897106e-07 0.0 
3.417558897106e-07 2.241831831132e-04 0.0 
0.0 0.0 -3.891752881399e-05 
-1.947641557456e-04 7.923084531912e-07 0.0 
7.923084531912e-07 1.304507022875e-03 0.0 
0.0 0.0 -1.939800207710e-04 
-1.960054809974e-04 2.031047324451e-06 0.0 
2.031047324451e-06 1.320447363547e-03 0.0 
0.0 0.0 -1.960961780200e-04 
-1.959837947468e-04 7.548015026683e-07 0.0 
7.548015026683e-07 1.316397764372e-03 0.0 
0.0 0.0 -1.957100175409e-04 
-1.949003992159e-04 1.873708810936e-06 0.0 
1.873708810936e-06 1.312448359133e-03 0.0 
0.0 0.0 -1.946892349944e-04 
-1.963394652884e-04 -2.461762416476e-06 0.0 
-2.461762416476e-06 1.317843150582e-03 0.0 
0.0 0.0 -1.958367853254e-04 
-9.399904561966e-06 3.751811683982e-07 0.0 
3.751811683982e-07 4.607602797327e-05 0.0 
0.0 0.0 -8.777929302786e-06 
-1.121136777944e-04 2.136242843992e-06 0.0 
2.136242843992e-06 7.375316866664e-04 0.0 
0.0 0.0 -1.125147119063e-04 
-1.945054015985e-04 1.526423234172e-06 0.0 
1.526423234172e-06 1.305744790732e-03 0.0 
0.0 0.0 -1.939771297832e-04 
-1.693349048774e-04 -4.546658260319e-06 0.0 
-4.546658260319e-06 1.130612016236e-03 0.0 
0.0 0.0 -1.685397735077e-04 
-8.598075030748e-06 -2.223307893963e-06 0.0 
-2.223307893963e-06 4.388775337437e-05 0.0 
0.0 0.0 -8.698177642707e-06 
-8.871376934976e-05 -9.707224206822e-07 0.0 
-9.707224206822e-07 5.731446297532e-04 0.0 
0.0 0.0 -8.906156601093e-05 
-1.979802513817e-04 -1.566370620822e-06 0.0 
-1.566370620822e-06 1.328935425363e-03 0.0 
0.0 0.0 -1.967971955909e-04 
-6.059110968862e-05 -2.270349058910e-06 0.0 
-2.270349058910e-06 3.638632698663e-04 0.0 
0.0 0.0 -5.846208800394e-05 
-3.934380255029e-05 1.116524761702e-06 0.0 
1.116524761702e-06 2.201048627676e-04 0.0 
0.0 0.0 -3.823193484201e-05 
-7.905584954535e-05 -1.125239316859e-06 0.0 
-1.125239316859e-06 4.942495490073e-04 0.0 
0.0 0.0 -7.767853477808e-05 
-9.853492259670e-05 -1.059175576559e-06 0.0 
-1.059175576559e-06 6.356901872357e-04 0.0 
0.0 0.0 -9.791554816786e-05 
-1.758731503853e-05 -2.183232337715e-06 0.0 
-2.183232337715e-06 7.214564488676e-05 0.0 
0.0 0.0 -1.677835640721e-05 
-1.304400768820e-04 -1.226623402604e-06 0.0 
-1.226623402604e-06 8.588836031036e-04 0.0 
0.0 0.0 -1.302718197671e-04 
-1.976961881145e-04 -1.904942962871e-06 0.0 
-1.904942962871e-06 1.329827350337e-03 0.0 
0.0 0.0 -1.970859964037e-04 
-7.778984465367e-06 4.389754775789e-06 0.0 
4.389754775789e-06 4.119927433976e-05 0.0 
0.0 0.0 -8.754673005183e-06 
-1.866018908338e-04 -2.006069315689e-08 0.0 
-2.006069315689e-08 1.262553750678e-03 0.0 
0.0 0.0 -1.880896313740e-04 
-1.123534650814e-04 1.611587689509e-06 0.0 
1.611587689509e-06 7.392560460262e-04 0.0 
0.0 0.0 -1.129840772622e-04 
-1.171047806051e-04 7.449209117803e-07 0.0 
7.449209117803e-07 7.664746806855e-04 0.0 
0.0 0.0 -1.171402528589e-04 
-1.209300272193e-04 3.259751506580e-06 0.0 
3.259751506580e-06 8.015413982557e-04 0.0 
0.0 0.0 -1.217336839916e-04 
-1.273390226549e-04 -1.216641127310e-06 0.0 
-1.216641127310e-06 8.349727543367e-04 0.0 
0.0 0.0 -1.264258636278e-04 
-1.320700965903e-04 1.876866623270e-08 0.0 
1.876866623270e-08 8.692918616205e-04 0.0 
0.0 0.0 -1.317698771115e-04 
-1.368244106801e-04 -1.114619508482e-06 0.0 
-1.114619508482e-06 9.001255364591e-04 0.0 
0.0 0.0 -1.359061374524e-04 
-1.313516644010e-04 -1.071478350727e-06 0.0 
-1.071478350727e-06 8.642075030487e-04 0.0 
0.0 0.0 -1.306688636612e-04 
-1.406252513591e-04 -1.352739222539e-06 0.0 
-1.352739222539e-06 9.300768557182e-04 0.0 
0.0 0.0 -1.401216342492e-04 
-1.355168506451e-04 -8.441429406153e-07 0.0 
-8.441429406153e-07 8.933027720166e-04 0.0 
0.0 0.0 -1.348466119664e-04 
-1.406309551036e-04 -1.423065028085e-06 0.0 
-1.423065028085e-06 9.373189590449e-04 0.0 
0.0 0.0 -1.412262538548e-04 
-1.447717080924e-04 -1.617847745048e-06 0.0 
-1.617847745048e-06 9.594996109507e-04 0.0 
0.0 0.0 -1.443446404888e-04 
-1.395639979808e-04 -9.495865010561e-07 0.0 
-9.495865010561e-07 9.223387170950e-04 0.0 
0.0 0.0 -1.390295894150e-04 
-1.488518955481e-04 -1.324901186338e-06 0.0 
-1.324901186338e-06 9.887094425207e-04 0.0 
0.0 0.0 -1.485505823874e-04 
-1.436922961000e-04 -1.046451979584e-06 0.0 
-1.046451979584e-06 9.515310653716e-04 0.0 
0.0 0.0 -1.432156325536e-04 
-1.343600788387e-04 -5.167793523513e-07 0.0 
-5.167793523513e-07 8.856735470671e-04 0.0 
0.0 0.0 -1.337521069633e-04 
-1.385105152453e-04 -4.710394907330e-07 0.0 
-4.710394907330e-07 9.146329712672e-04 0.0 
0.0 0.0 -1.379179829106e-04 
-1.289648752830e-04 -8.618976580077e-08 0.0 
-8.618976580077e-08 8.489207055611e-04 0.0 
0.0 0.0 -1.284753219673e-04 
-1.331501462654e-04 -2.281806353289e-07 0.0 
-2.281806353289e-07 8.778469958775e-04 0.0 
0.0 0.0 -1.326245976321e-04 
-1.426230691977e-04 -3.445547381831e-07 0.0 
-3.445547381831e-07 9.438219498313e-04 0.0 
0.0 0.0 -1.420797641308e-04 
-1.372349024752e-04 -4.912623478827e-07 0.0 
-4.912623478827e-07 9.068017641173e-04 0.0 
0.0 0.0 -1.367729294110e-04 
-1.278087679959e-04 -1.828532417459e-07 0.0 
-1.828532417459e-07 8.408634527744e-04 0.0 
0.0 0.0 -1.273259478075e-04 
-1.318398283045e-04 -3.075890479268e-07 0.0 
-3.075890479268e-07 8.695930318134e-04 0.0 
0.0 0.0 -1.314613401273e-04 
-1.224174681950e-04 5.152664304935e-08 0.0 
5.152664304935e-08 8.039186497448e-04 0.0 
0.0 0.0 -1.220343484428e-04 
-1.264174440320e-04 -1.610988413994e-07 0.0 
-1.610988413994e-07 8.325618017429e-04 0.0 
0.0 0.0 -1.261611736566e-04 
-1.170510544419e-04 2.223926002160e-08 0.0 
2.223926002160e-08 7.668217430428e-04 0.0 
0.0 0.0 -1.167242641243e-04 
-1.210374224200e-04 -1.474818318748e-07 0.0 
-1.474818318748e-07 7.955505097843e-04 0.0 
0.0 0.0 -1.208544874677e-04 
-1.304043414113e-04 -3.154242512108e-07 0.0 
-3.154242512108e-07 8.613589922912e-04 0.0 
0.0 0.0 -1.303042425932e-04 
-1.250914766715e-04 -9.789090931162e-08 0.0 
-9.789090931162e-08 8.242842117775e-04 0.0 
0.0 0.0 -1.249864172613e-04 
-1.156698454984e-04 4.104440089522e-08 0.0 
4.104440089522e-08 7.584999711117e-04 0.0 
0.0 0.0 -1.155496960434e-04 
-1.197696986214e-04 6.686600869340e-08 0.0 
6.686600869340e-08 7.872430335080e-04 0.0 
0.0 0.0 -1.196691756306e-04 
-1.103345672185e-04 1.936070379505e-07 0.0 
1.936070379505e-07 7.215726378401e-04 0.0 
0.0 0.0 -1.102360968649e-04 
-1.143831646187e-04 2.841694026703e-07 0.0 
2.841694026703e-07 7.499983246613e-04 0.0 
0.0 0.0 -1.143358844566e-04 
-1.238585560106e-04 1.680319022196e-07 0.0 
1.680319022196e-07 8.159376449007e-04 0.0 
0.0 0.0 -1.237972835831e-04 
-1.185140209161e-04 8.396902968233e-08 0.0 
8.396902968233e-08 7.787352394438e-04 0.0 
0.0 0.0 -1.184549252722e-04 
-1.089992092054e-04 6.281890232443e-08 0.0 
6.281890232443e-08 7.122982226840e-04 0.0 
0.0 0.0 -1.089619939006e-04 
-1.132389115670e-04 -1.057915283390e-07 0.0 
-1.057915283390e-07 7.414300503039e-04 0.0 
0.0 0.0 -1.130977248571e-04 
-1.037240861722e-04 -4.723566763671e-07 0.0 
-4.723566763671e-07 6.746986895894e-04 0.0 
0.0 0.0 -1.035578799258e-04 
-1.079391861501e-04 -9.525050173918e-10 0.0 
-9.525050173918e-10 7.042191649168e-04 0.0 
0.0 0.0 -1.077352770641e-04 
-9.832371136087e-05 -3.508088035027e-07 0.0 
-3.508088035027e-07 6.371418654706e-04 0.0 
0.0 0.0 -9.813603890825e-05 
-1.025291601956e-04 7.520025507379e-08 0.0 
7.520025507379e-08 6.664875104737e-04 0.0 
0.0 0.0 -1.023264466889e-04 
-1.121330899491e-04 -3.201268622926e-08 0.0 
-3.201268622926e-08 7.333893815298e-04 0.0 
0.0 0.0 -1.119135318789e-04 
-1.067345759512e-04 -1.457462253014e-07 0.0 
-1.457462253014e-07 6.958135066491e-04 0.0 
0.0 0.0 -1.065124872911e-04 
-9.708388481881e-05 -1.123756317371e-07 0.0 
-1.123756317371e-07 6.287043899204e-04 0.0 
0.0 0.0 -9.687936111797e-05 
-1.012280793484e-04 -2.016817593290e-07 0.0 
-2.016817593290e-07 6.578039102236e-04 0.0 
0.0 0.0 -1.010667964543e-04 
-1.108655634829e-04 -2.805142089434e-07 0.0 
-2.805142089434e-07 7.250705567917e-04 0.0 
0.0 0.0 -1.107220969010e-04 
-1.053738009019e-04 -2.657681640373e-07 0.0 
-2.657681640373e-07 6.869604308345e-04 0.0 
0.0 0.0 -1.052625016289e-04 
-1.150267739913e-04 -3.300558054112e-07 0.0 
-3.300558054112e-07 7.543777337130e-04 0.0 
0.0 0.0 -1.149374102432e-04 
-1.095605670490e-04 -1.992187362342e-07 0.0 
-1.992187362342e-07 7.162738244309e-04 0.0 
0.0 0.0 -1.094674241824e-04 
-9.992608341546e-05 -2.285291460901e-07 0.0 
-2.285291460901e-07 6.491377746979e-04 0.0 
0.0 0.0 -9.983047339662e-05 
-1.041038271013e-04 -4.784792107374e-08 0.0 
-4.784792107374e-08 6.783667909797e-04 0.0 
0.0 0.0 -1.040110107548e-04 
-1.137411101647e-04 -1.005325563354e-07 0.0 
-1.005325563354e-07 7.455825181624e-04 0.0 
0.0 0.0 -1.136680319875e-04 
-1.082869868131e-04 -5.329032704076e-08 0.0 
-5.329032704076e-08 7.073386927023e-04 0.0 
0.0 0.0 -1.081830392180e-04 
-9.869624350956e-05 -1.279251488152e-07 0.0 
-1.279251488152e-07 6.404070926404e-04 0.0 
0.0 0.0 -9.856705257735e-05 
-1.028159541346e-04 2.106799420310e-07 0.0 
2.106799420310e-07 6.694648529012e-04 0.0 
0.0 0.0 -1.027256921484e-04 
-1.124881435347e-04 1.468300417498e-07 0.0 
1.468300417498e-07 7.366254737130e-04 0.0 
0.0 0.0 -1.123746868942e-04 
-1.069630032943e-04 3.797193907441e-07 0.0 
3.797193907441e-07 6.984570345631e-04 0.0 
0.0 0.0 -1.069064678657e-04 
-9.735694714147e-05 3.040392105123e-07 0.0 
3.040392105123e-07 6.314702925721e-04 0.0 
0.0 0.0 -9.729074097479e-05 
-1.014698791265e-04 5.263077294053e-07 0.0 
5.263077294053e-07 6.606218601415e-04 0.0 
0.0 0.0 -1.014450936127e-04 
-1.111588134786e-04 4.465606502622e-07 0.0 
4.465606502622e-07 7.280983055299e-04 0.0 
0.0 0.0 -1.111412434799e-04 
-1.056103560307e-04 3.527345838497e-07 0.0 
3.527345838497e-07 6.896411777924e-04 0.0 
0.0 0.0 -1.056341277852e-04 
-9.592602067126e-05 5.327638544791e-07 0.0 
5.327638544791e-07 6.223325700671e-04 0.0 
0.0 0.0 -9.597584338962e-05 
-1.000042351432e-04 6.050193751295e-07 0.0 
6.050193751295e-07 6.512858928885e-04 0.0 
0.0 0.0 -1.001195007473e-04 
-1.097885953069e-04 3.509867728239e-07 0.0 
3.509867728239e-07 7.191866513993e-04 0.0 
0.0 0.0 -1.098732949993e-04 
-1.041219874635e-04 4.565113330363e-07 0.0 
4.565113330363e-07 6.802416856987e-04 0.0 
0.0 0.0 -1.043104098158e-04 
-1.139943776011e-04 2.608804957770e-07 0.0 
2.608804957770e-07 7.487261930972e-04 0.0 
0.0 0.0 -1.141349681178e-04 
-9.432131286435e-05 6.931090399304e-07 0.0 
6.931090399304e-07 6.120807620329e-04 0.0 
0.0 0.0 -9.453138577379e-05 
-9.843300825502e-05 3.791394769862e-07 0.0 
3.791394769862e-07 6.410640369442e-04 0.0 
0.0 0.0 -9.871483819285e-05 
-8.857532524913e-05 7.670792375352e-07 0.0 
7.670792375352e-07 5.725816228305e-04 0.0 
0.0 0.0 -8.888275660121e-05 
-9.270105845016e-05 2.622529703410e-07 0.0 
2.622529703410e-07 6.018362902946e-04 0.0 
0.0 0.0 -9.310666704106e-05 
-1.280450341640e-04 2.022914446803e-07 0.0 
2.022914446803e-07 8.448927114390e-04 0.0 
0.0 0.0 -1.279397651938e-04 
-8.276712932225e-05 6.443736138370e-07 0.0 
6.443736138370e-07 5.330826812988e-04 0.0 
0.0 0.0 -8.324826898147e-05 
-7.884768894366e-05 1.023704289178e-06 0.0 
1.023704289178e-06 5.047676539199e-04 0.0 
0.0 0.0 -7.914375511354e-05 
-8.697616798037e-05 -7.331328903735e-10 0.0 
-7.331328903735e-10 5.626687258914e-04 0.0 
0.0 0.0 -8.749891481923e-05 
-9.702972984445e-05 -9.951343649239e-08 0.0 
-9.951343649239e-08 6.318920870484e-04 0.0 
0.0 0.0 -9.740424872913e-05 
-7.706547232469e-05 2.380236829533e-07 0.0 
2.380236829533e-07 4.936160224660e-04 0.0 
0.0 0.0 -7.760805980730e-05 
-8.127460870577e-05 -1.704001729844e-07 0.0 
-1.704001729844e-07 5.235024448564e-04 0.0 
0.0 0.0 -8.188641417383e-05 
-7.155045226521e-05 3.113369261567e-07 0.0 
3.113369261567e-07 4.544691373911e-04 0.0 
0.0 0.0 -7.197242596511e-05 
-9.398834813403e-05 -4.649841708636e-07 0.0 
-4.649841708636e-07 6.067163141264e-04 0.0 
0.0 0.0 -9.378238744040e-05 
-1.466888889075e-04 -6.905876409820e-07 0.0 
-6.905876409820e-07 9.729931165237e-04 0.0 
0.0 0.0 -1.462607504514e-04 
-7.572467440231e-05 1.210487184868e-07 0.0 
1.210487184868e-07 4.846162633768e-04 0.0 
0.0 0.0 -7.626743364961e-05 
-6.621416197033e-05 -1.397216265960e-07 0.0 
-1.397216265960e-07 4.154095652474e-04 0.0 
0.0 0.0 -6.634679566782e-05 
-6.190172954625e-05 4.165851450949e-07 0.0 
4.165851450949e-07 3.853087909955e-04 0.0 
0.0 0.0 -6.205237226325e-05 
-5.628575454228e-05 3.940532300386e-08 0.0 
3.940532300386e-08 3.460724695174e-04 0.0 
0.0 0.0 -5.642855255362e-05 
-1.354938510920e-04 -2.913953566673e-06 0.0 
-2.913953566673e-06 9.082152710087e-04 0.0 
0.0 0.0 -1.368953805519e-04 
-1.462552660591e-04 1.249747586103e-07 0.0 
1.249747586103e-07 9.752174249571e-04 0.0 
0.0 0.0 -1.465891790687e-04 
-1.414040401139e-04 -1.271486640511e-06 0.0 
-1.271486640511e-06 9.428451641582e-04 0.0 
0.0 0.0 -1.420291944686e-04 
-1.520026480131e-04 -3.631190555520e-07 0.0 
-3.631190555520e-07 1.012864624851e-03 0.0 
0.0 0.0 -1.519432683735e-04 
-1.472985787471e-04 -1.382728633740e-06 0.0 
-1.382728633740e-06 9.819853291120e-04 0.0 
0.0 0.0 -1.475277143832e-04 
-6.049783873772e-05 -1.110839167728e-06 0.0 
-1.110839167728e-06 3.760535738177e-04 0.0 
0.0 0.0 -6.071687451653e-05 
-1.539446624240e-04 -1.181077219234e-06 0.0 
-1.181077219234e-06 1.026370553893e-03 0.0 
0.0 0.0 -1.540030753513e-04 
-1.562964739112e-04 4.946292658217e-07 0.0 
4.946292658217e-07 1.043020722120e-03 0.0 
0.0 0.0 -1.563396320792e-04 
-1.184118913967e-04 1.857139776562e-07 0.0 
1.857139776562e-07 7.754976810309e-04 0.0 
0.0 0.0 -1.179280690692e-04 
-1.062500152817e-04 1.741187945376e-07 0.0 
1.741187945376e-07 6.928514360504e-04 0.0 
0.0 0.0 -1.061413340584e-04 
-1.205167248159e-04 -5.462407212351e-07 0.0 
-5.462407212351e-07 7.925156879070e-04 0.0 
0.0 0.0 -1.204127835607e-04 
-8.548976471001e-05 -7.615656520967e-07 0.0 
-7.615656520967e-07 5.535587085213e-04 0.0 
0.0 0.0 -8.618857558133e-05 
-7.988885271144e-05 1.897397534693e-07 0.0 
1.897397534693e-07 5.152050676733e-04 0.0 
0.0 0.0 -8.057008281249e-05 
-9.032121231226e-05 -1.684930927318e-06 0.0 
-1.684930927318e-06 5.843848000393e-04 0.0 
0.0 0.0 -9.050178936823e-05 
-1.196337930892e-04 1.102008659663e-07 0.0 
1.102008659663e-07 7.876256328336e-04 0.0 
0.0 0.0 -1.197064290626e-04 
-1.239088484819e-04 1.270562820447e-07 0.0 
1.270562820447e-07 8.174720289214e-04 0.0 
0.0 0.0 -1.239919845821e-04 
-1.295076006245e-04 6.163016450208e-08 0.0 
6.163016450208e-08 8.563536897128e-04 0.0 
0.0 0.0 -1.295728275001e-04 
-1.338245653935e-04 6.187832994802e-08 0.0 
6.187832994802e-08 8.862996102706e-04 0.0 
0.0 0.0 -1.338680086136e-04 
-1.393975761356e-04 4.550308926587e-08 0.0 
4.550308926587e-08 9.252125319019e-04 0.0 
0.0 0.0 -1.394574676997e-04 
-1.437406368722e-04 1.277074154763e-07 0.0 
1.277074154763e-07 9.552601406530e-04 0.0 
0.0 0.0 -1.437562178924e-04 
-1.381365115215e-04 -6.384328167060e-08 0.0 
-6.384328167060e-08 9.162527365186e-04 0.0 
0.0 0.0 -1.381609243235e-04 
-1.481035666194e-04 -1.079358485102e-07 0.0 
-1.079358485102e-07 9.853010756590e-04 0.0 
0.0 0.0 -1.480541560501e-04 
-1.424433669279e-04 -2.461913392847e-07 0.0 
-2.461913392847e-07 9.462005835288e-04 0.0 
0.0 0.0 -1.424551100593e-04 
-1.492800736972e-04 1.903860536895e-07 0.0 
1.903860536895e-07 9.941570401524e-04 0.0 
0.0 0.0 -1.493525342080e-04 
-1.449751840430e-04 -1.306362921351e-07 0.0 
-1.306362921351e-07 9.640748764024e-04 0.0 
0.0 0.0 -1.450229800689e-04 
-1.523999948246e-04 -3.989684281702e-07 0.0 
-3.989684281702e-07 1.015224728092e-03 0.0 
0.0 0.0 -1.523522284989e-04 
-1.467103464147e-04 -2.659540217928e-07 0.0 
-2.659540217928e-07 9.761558421408e-04 0.0 
0.0 0.0 -1.467489045856e-04 
-1.565625592364e-04 -4.158419287493e-07 0.0 
-4.158419287493e-07 1.045129081510e-03 0.0 
0.0 0.0 -1.566543602455e-04 
-1.508966779748e-04 -3.393169835015e-07 0.0 
-3.393169835015e-07 1.005998704446e-03 0.0 
0.0 0.0 -1.510511651883e-04 
-1.410712457468e-04 -1.790301414097e-07 0.0 
-1.790301414097e-07 9.369358529960e-04 0.0 
0.0 0.0 -1.411301529270e-04 
-1.452736367783e-04 -1.279390741405e-07 0.0 
-1.279390741405e-07 9.667244667063e-04 0.0 
0.0 0.0 -1.454254449112e-04 
-1.355658465602e-04 -3.525019047489e-07 0.0 
-3.525019047489e-07 8.980272974833e-04 0.0 
0.0 0.0 -1.355350811980e-04 
-1.247169685603e-04 -5.424891476077e-07 0.0 
-5.424891476077e-07 8.219820472476e-04 0.0 
0.0 0.0 -1.246443719175e-04 
-1.302412994967e-04 -6.709375140069e-07 0.0 
-6.709375140069e-07 8.602885817839e-04 0.0 
0.0 0.0 -1.301366355066e-04 
-1.344319823677e-04 -5.992072868325e-07 0.0 
-5.992072868325e-07 8.897694935505e-04 0.0 
0.0 0.0 -1.343775141111e-04 
-1.400237331498e-04 -7.656893218293e-07 0.0 
-7.656893218293e-07 9.282252120942e-04 0.0 
0.0 0.0 -1.398832378697e-04 
-1.441786028548e-04 -7.248633173168e-07 0.0 
-7.248633173168e-07 9.577423680475e-04 0.0 
0.0 0.0 -1.441376510238e-04 
-1.498975004286e-04 -8.881523903682e-07 0.0 
-8.881523903682e-07 9.963296213112e-04 0.0 
0.0 0.0 -1.496454511588e-04 
-1.540303661717e-04 -7.919312302376e-07 0.0 
-7.919312302376e-07 1.025660690864e-03 0.0 
0.0 0.0 -1.539048756661e-04 
-1.483333586792e-04 -5.305309886562e-07 0.0 
-5.305309886562e-07 9.873032168340e-04 0.0 
0.0 0.0 -1.483914164041e-04 
-1.531422374596e-04 -8.663739869802e-07 0.0 
-8.663739869802e-07 1.017764678093e-03 0.0 
0.0 0.0 -1.527153750466e-04 
-9.159847415972e-05 -1.256689801576e-07 0.0 
-1.256689801576e-07 5.906791861929e-04 0.0 
0.0 0.0 -9.143391812226e-05 
-8.744560526880e-05 -1.314299425381e-07 0.0 
-1.314299425381e-07 5.615762013321e-04 0.0 
0.0 0.0 -8.725348065585e-05 
-8.202336977827e-05 5.298561278520e-08 0.0 
5.298561278520e-08 5.236724682599e-04 0.0 
0.0 0.0 -8.181782897632e-05 
-7.787136643021e-05 -4.089849052194e-08 0.0 
-4.089849052194e-08 4.946511796611e-04 0.0 
0.0 0.0 -7.764583100160e-05 
-7.249839660415e-05 3.138088007648e-07 0.0 
3.138088007648e-07 4.567503960433e-04 0.0 
0.0 0.0 -7.221245969917e-05 
-6.836637044469e-05 1.575150055603e-07 0.0 
1.575150055603e-07 4.279278736544e-04 0.0 
0.0 0.0 -6.805748655366e-05 
-6.305635467696e-05 5.617632190065e-07 0.0 
5.617632190065e-07 3.898265041818e-04 0.0 
0.0 0.0 -6.258396351101e-05 
-6.700103591366e-05 8.220641914788e-07 0.0 
8.220641914788e-07 4.186472656110e-04 0.0 
0.0 0.0 -6.675491739715e-05 
-5.754489831194e-05 1.185749684510e-06 0.0 
1.185749684510e-06 3.514253860379e-04 0.0 
0.0 0.0 -5.707878267586e-05 
-6.126290636031e-05 1.086382821669e-06 0.0 
1.086382821669e-06 3.802508716618e-04 0.0 
0.0 0.0 -6.128043668686e-05 
-5.191997638371e-05 1.314501197429e-06 0.0 
1.314501197429e-06 3.126420855080e-04 0.0 
0.0 0.0 -5.156902369321e-05 
-5.548063518944e-05 1.243851983737e-06 0.0 
1.243851983737e-06 3.415672031581e-04 0.0 
0.0 0.0 -5.575645035334e-05 
-1.344754893882e-04 -2.441387490925e-07 0.0 
-2.441387490925e-07 8.901905827652e-04 0.0 
0.0 0.0 -1.344534760290e-04 
-1.456336275119e-04 -7.568221187933e-07 0.0 
-7.568221187933e-07 9.666800779835e-04 0.0 
0.0 0.0 -1.453735332694e-04 
-1.555049783814e-04 -4.155015620937e-07 0.0 
-4.155015620937e-07 1.035032948266e-03 0.0 
0.0 0.0 -1.551468130506e-04 
-1.509958831296e-04 -4.550450407200e-07 0.0 
-4.550450407200e-07 1.004729653599e-03 0.0 
0.0 0.0 -1.507981208515e-04 
-5.237773532105e-05 7.911299625012e-08 0.0 
7.911299625012e-08 3.162172589784e-04 0.0 
0.0 0.0 -5.213283032136e-05 
-1.549595763032e-04 -3.953475088672e-07 0.0 
-3.953475088672e-07 1.035774981690e-03 0.0 
0.0 0.0 -1.553660438793e-04 
-1.548355158551e-04 -2.147058021659e-07 0.0 
-2.147058021659e-07 1.033072477775e-03 0.0 
0.0 0.0 -1.549384463224e-04 
-1.505618374828e-04 -5.346193515463e-07 0.0 
-5.346193515463e-07 1.002549198399e-03 0.0 
0.0 0.0 -1.505609887339e-04 
-1.581943545466e-04 -1.140192146813e-07 0.0 
-1.140192146813e-07 1.055484497313e-03 0.0 
0.0 0.0 -1.581898251365e-04 
-5.074202381651e-05 -4.469562897144e-07 0.0 
-4.469562897144e-07 3.073591846823e-04 0.0 
0.0 0.0 -5.088881735611e-05 
-5.888894202551e-05 -5.741143861356e-08 0.0 
-5.741143861356e-08 3.614604751917e-04 0.0 
0.0 0.0 -5.849107602244e-05 
-6.412075790079e-05 -1.262278375683e-08 0.0 
-1.262278375683e-08 3.988248925712e-04 0.0 
0.0 0.0 -6.391656864161e-05 
-1.574092422667e-04 -9.339425827556e-07 0.0 
-9.339425827556e-07 1.050297343269e-03 0.0 
0.0 0.0 -1.573311895261e-04 
-1.526877283991e-04 -1.284456620320e-06 0.0 
-1.284456620320e-06 1.019137079127e-03 0.0 
0.0 0.0 -1.529187321887e-04 
-1.603825137223e-04 -5.841749785691e-07 0.0 
-5.841749785691e-07 1.071965760526e-03 0.0 
0.0 0.0 -1.605236522104e-04 
-5.469413786455e-05 -7.281622474744e-07 0.0 
-7.281622474744e-07 3.375315586186e-04 0.0 
0.0 0.0 -5.513621196740e-05 
-1.581536908889e-04 -3.654449846175e-07 0.0 
-3.654449846175e-07 1.054473463793e-03 0.0 
0.0 0.0 -1.579496168166e-04 
-4.796468630861e-05 1.896906112626e-06 0.0 
1.896906112626e-06 2.843046372018e-04 0.0 
0.0 0.0 -4.740762976608e-05 
-1.492957563781e-04 2.220942752480e-07 0.0 
2.220942752480e-07 9.964627124321e-04 0.0 
0.0 0.0 -1.497345920687e-04 
-1.590878470858e-04 -2.496159838047e-07 0.0 
-2.496159838047e-07 1.065574434498e-03 0.0 
0.0 0.0 -1.596751832792e-04 
-1.325072402165e-04 -1.969088110071e-07 0.0 
-1.969088110071e-07 8.772948073459e-04 0.0 
0.0 0.0 -1.325798954328e-04 
-1.608189791387e-04 2.014272611916e-07 0.0 
2.014272611916e-07 1.073406976442e-03 0.0 
0.0 0.0 -1.606363799130e-04 
-1.561309716741e-04 -2.339592577673e-07 0.0 
-2.339592577673e-07 1.041858527671e-03 0.0 
0.0 0.0 -1.562164154417e-04 
-6.542148837339e-05 5.946748364299e-07 0.0 
5.946748364299e-07 4.098578497775e-04 0.0 
0.0 0.0 -6.552037126556e-05 
-6.021736437679e-05 -6.684208511404e-07 0.0 
-6.684208511404e-07 3.714517723808e-04 0.0 
0.0 0.0 -6.000043125475e-05 
-5.068915045621e-05 -1.408380561498e-07 0.0 
-1.408380561498e-07 3.045038040978e-04 0.0 
0.0 0.0 -5.043265711026e-05 
-5.453954142818e-05 2.060651504187e-07 0.0 
2.060651504187e-07 3.366924109337e-04 0.0 
0.0 0.0 -5.469261876575e-05 
-6.451407366441e-05 2.351316534634e-07 0.0 
2.351316534634e-07 4.022325511173e-04 0.0 
0.0 0.0 -6.426716227193e-05 
-5.833627625562e-05 1.475332914289e-06 0.0 
1.475332914289e-06 3.627446873596e-04 0.0 
0.0 0.0 -5.871258337438e-05 
-4.807156131251e-05 2.860984901678e-06 0.0 
2.860984901678e-06 2.943856579529e-04 0.0 
0.0 0.0 -4.913324142619e-05 
-5.254361987426e-05 1.123300701462e-06 0.0 
1.123300701462e-06 3.235079135303e-04 0.0 
0.0 0.0 -5.312780584397e-05 
-6.250659233249e-05 1.032214388617e-06 0.0 
1.032214388617e-06 3.916354902735e-04 0.0 
0.0 0.0 -6.289080004402e-05 
-5.683371271564e-05 6.514617663209e-07 0.0 
6.514617663209e-07 3.524304224725e-04 0.0 
0.0 0.0 -5.728364188530e-05 
-4.626688611708e-05 9.433782266078e-08 0.0 
9.433782266078e-08 2.835389789337e-04 0.0 
0.0 0.0 -4.745589417336e-05 
-5.129426302525e-05 -1.503356296708e-07 0.0 
-1.503356296708e-07 3.125902668457e-04 0.0 
0.0 0.0 -5.163203607156e-05 
-1.648607225605e-04 -6.089305084909e-07 0.0 
-6.089305084909e-07 1.104792906558e-03 0.0 
0.0 0.0 -1.652812738464e-04 
-4.167405797836e-05 8.410179837610e-07 0.0 
8.410179837610e-07 2.451219688669e-04 0.0 
0.0 0.0 -4.186284350154e-05 
-1.249684890118e-04 -2.205649056544e-07 0.0 
-2.205649056544e-07 8.202073805391e-04 0.0 
0.0 0.0 -1.243305906297e-04 
-1.646630308387e-04 -1.022913161012e-08 0.0 
-1.022913161012e-08 1.101899429601e-03 0.0 
0.0 0.0 -1.648518411109e-04 
-1.639675080930e-04 -1.299974009232e-07 0.0 
-1.299974009232e-07 1.093025674446e-03 0.0 
0.0 0.0 -1.635990625314e-04 
-1.626548351363e-04 -9.421237167934e-07 0.0 
-9.421237167934e-07 1.087804894673e-03 0.0 
0.0 0.0 -1.627548864773e-04 
-1.581986558715e-04 -9.653447949461e-07 0.0 
-9.653447949461e-07 1.056782727253e-03 0.0 
0.0 0.0 -1.583405447554e-04 
-1.481377693349e-04 -2.120708352150e-07 0.0 
-2.120708352150e-07 9.876266265678e-04 0.0 
0.0 0.0 -1.484606848305e-04 
-1.540154319252e-04 -3.355995825506e-07 0.0 
-3.355995825506e-07 1.026130043866e-03 0.0 
0.0 0.0 -1.539002516356e-04 
-1.639459642661e-04 -1.118185498440e-06 0.0 
-1.118185498440e-06 1.095163385158e-03 0.0 
0.0 0.0 -1.637913674505e-04 
-1.597127986535e-04 -5.251908400988e-07 0.0 
-5.251908400988e-07 1.064343135399e-03 0.0 
0.0 0.0 -1.593514347843e-04 
-1.498284746973e-04 -2.503307102559e-07 0.0 
-2.503307102559e-07 9.952508194671e-04 0.0 
0.0 0.0 -1.494394109873e-04 
-1.551654717719e-04 -2.221504212274e-07 0.0 
-2.221504212274e-07 1.032948984562e-03 0.0 
0.0 0.0 -1.548970433853e-04 
-1.450485534152e-04 -2.383136960808e-07 0.0 
-2.383136960808e-07 9.636019756158e-04 0.0 
0.0 0.0 -1.449683599891e-04 
-1.505550421048e-04 1.094892235923e-07 0.0 
1.094892235923e-07 1.001407844642e-03 0.0 
0.0 0.0 -1.504333548381e-04 
-1.604309941691e-04 -2.109459501863e-07 0.0 
-2.109459501863e-07 1.070618892500e-03 0.0 
0.0 0.0 -1.603701620288e-04 
-1.560376916017e-04 -3.456752304365e-07 0.0 
-3.456752304365e-07 1.039490983705e-03 0.0 
0.0 0.0 -1.559081117414e-04 
-1.463603444154e-04 5.238436514868e-07 0.0 
5.238436514868e-07 9.703937077682e-04 0.0 
0.0 0.0 -1.459586303199e-04 
-1.516966554836e-04 -5.880015514228e-07 0.0 
-5.880015514228e-07 1.008208762980e-03 0.0 
0.0 0.0 -1.514361790689e-04 
-1.421096498293e-04 1.604631745138e-07 0.0 
1.604631745138e-07 9.389173202103e-04 0.0 
0.0 0.0 -1.414740555389e-04 
-1.468086585315e-04 -1.361458900587e-06 0.0 
-1.361458900587e-06 9.758542090481e-04 0.0 
0.0 0.0 -1.469409179663e-04 
-1.568420766373e-04 -2.584461478695e-07 0.0 
-2.584461478695e-07 1.046197364230e-03 0.0 
0.0 0.0 -1.569152749070e-04 
-4.415663167365e-05 -1.039285152091e-07 0.0 
-1.039285152091e-07 2.708684229223e-04 0.0 
0.0 0.0 -4.553936700826e-05 
-1.526637656570e-04 1.250996266671e-07 0.0 
1.250996266671e-07 1.017041372094e-03 0.0 
0.0 0.0 -1.526598922342e-04 
-1.628543927015e-04 1.351270598111e-06 0.0 
1.351270598111e-06 1.085793726948e-03 0.0 
0.0 0.0 -1.625747755015e-04 
-8.563655870662e-05 -3.488146837263e-06 0.0 
-3.488146837263e-06 5.496252535939e-04 0.0 
0.0 0.0 -8.506982008416e-05 
-9.486581924080e-05 -3.814151178450e-06 0.0 
-3.814151178450e-06 6.119359456549e-04 0.0 
0.0 0.0 -9.488074031859e-05 
-1.005495603609e-04 3.086228134672e-07 0.0 
3.086228134672e-07 6.529918919365e-04 0.0 
0.0 0.0 -1.004348942539e-04 
-1.044776236545e-04 -3.577979789199e-07 0.0 
-3.577979789199e-07 6.841250152862e-04 0.0 
0.0 0.0 -1.048029480622e-04 
-1.519826796643e-04 -1.039717232479e-06 0.0 
-1.039717232479e-06 1.014113556129e-03 0.0 
0.0 0.0 -1.523216651845e-04 
-1.628631714461e-04 6.789175869978e-07 0.0 
6.789175869978e-07 1.084318911977e-03 0.0 
0.0 0.0 -1.624109035739e-04 
-5.449179525623e-05 -7.987416053231e-08 0.0 
-7.987416053231e-08 3.327114773236e-04 0.0 
0.0 0.0 -5.446356520677e-05 
-5.983794664642e-05 5.165551288588e-07 0.0 
5.165551288588e-07 3.698050392348e-04 0.0 
0.0 0.0 -5.981452797925e-05 
-1.671906361362e-04 -6.280906550938e-07 0.0 
-6.280906550938e-07 1.118589944564e-03 0.0 
0.0 0.0 -1.671574094483e-04 
-1.535741135101e-04 4.867165336144e-08 0.0 
4.867165336144e-08 1.026955907390e-03 0.0 
0.0 0.0 -1.540568046000e-04 
-1.438756782793e-04 7.792960236787e-07 0.0 
7.792960236787e-07 9.575022276215e-04 0.0 
0.0 0.0 -1.441490849774e-04 
-1.009130978815e-04 2.058688768752e-07 0.0 
2.058688768752e-07 6.559900048877e-04 0.0 
0.0 0.0 -1.008290295839e-04 
-9.685773395831e-05 4.264808855013e-07 0.0 
4.264808855013e-07 6.270397862493e-04 0.0 
0.0 0.0 -9.674459360631e-05 
-9.135164612507e-05 -1.903780837401e-07 0.0 
-1.903780837401e-07 5.899287429268e-04 0.0 
0.0 0.0 -9.139696625653e-05 
-8.725354889556e-05 6.962837147412e-07 0.0 
6.962837147412e-07 5.598510728809e-04 0.0 
0.0 0.0 -8.718447207042e-05 
-9.300425525152e-05 1.437996831778e-06 0.0 
1.437996831778e-06 5.988622257639e-04 0.0 
0.0 0.0 -9.260497328457e-05 
-8.151290837503e-05 -1.410580149274e-06 0.0 
-1.410580149274e-06 5.218003047074e-04 0.0 
0.0 0.0 -8.172223224803e-05 
-1.406089208823e-04 -2.402054608790e-07 0.0 
-2.402054608790e-07 9.332894798307e-04 0.0 
0.0 0.0 -1.405957691658e-04 
-1.658683700673e-04 -7.646942833602e-07 0.0 
-7.646942833602e-07 1.108741460833e-03 0.0 
0.0 0.0 -1.658562309426e-04 
-5.781518420954e-05 1.266454175936e-06 0.0 
1.266454175936e-06 3.557470476378e-04 0.0 
0.0 0.0 -5.779306812919e-05 
-4.802865254420e-05 7.137000022052e-07 0.0 
7.137000022052e-07 2.866754704248e-04 0.0 
0.0 0.0 -4.790438838533e-05 
-1.638603738935e-04 -1.751728736807e-07 0.0 
-1.751728736807e-07 1.096449059773e-03 0.0 
0.0 0.0 -1.639950272516e-04 
-1.428406885554e-04 -4.063061608454e-08 0.0 
-4.063061608454e-08 9.487085255522e-04 0.0 
0.0 0.0 -1.428423306355e-04 
-1.397754667912e-04 -5.337001690440e-07 0.0 
-5.337001690440e-07 9.273626177410e-04 0.0 
0.0 0.0 -1.397960314865e-04 
-1.438858799674e-04 -3.687014672478e-07 0.0 
-3.687014672478e-07 9.563861152014e-04 0.0 
0.0 0.0 -1.439752108775e-04 
-1.492610894434e-04 -6.859194927329e-07 0.0 
-6.859194927329e-07 9.938921068845e-04 0.0 
0.0 0.0 -1.493569516990e-04 
-1.533583656652e-04 -2.578988813192e-07 0.0 
-2.578988813192e-07 1.023001986965e-03 0.0 
0.0 0.0 -1.535627705943e-04 
-1.589055659580e-04 -8.108043834341e-07 0.0 
-8.108043834341e-07 1.060829964530e-03 0.0 
0.0 0.0 -1.589810023698e-04 
-1.631518145122e-04 -4.384743000290e-07 0.0 
-4.384743000290e-07 1.089769235200e-03 0.0 
0.0 0.0 -1.631781870057e-04 
-1.576954622164e-04 7.757103855101e-08 0.0 
7.757103855101e-08 1.052834468886e-03 0.0 
0.0 0.0 -1.577686755743e-04 
-1.655653749574e-04 1.153777774229e-06 0.0 
1.153777774229e-06 1.110734179248e-03 0.0 
0.0 0.0 -1.661194977352e-04 
-1.676568937117e-04 -5.380450323561e-07 0.0 
-5.380450323561e-07 1.120118409862e-03 0.0 
0.0 0.0 -1.673875415144e-04 
-1.408452494755e-04 1.226026312677e-06 0.0 
1.226026312677e-06 9.416014478326e-04 0.0 
0.0 0.0 -1.423072560050e-04 
-1.411610954119e-04 -1.667686956675e-07 0.0 
-1.667686956675e-07 9.361864568386e-04 0.0 
0.0 0.0 -1.409767306836e-04 
-6.685806001299e-05 8.336719987082e-07 0.0 
8.336719987082e-07 4.210903405702e-04 0.0 
0.0 0.0 -6.711978442003e-05 
-4.180859338127e-05 -2.391316367319e-06 0.0 
-2.391316367319e-06 2.386470707080e-04 0.0 
0.0 0.0 -4.128748474099e-05 
-4.202443748219e-05 2.082260459361e-08 0.0 
2.082260459361e-08 2.421619926750e-04 0.0 
0.0 0.0 -4.155413421678e-05 
-4.885629556399e-05 9.695166710736e-07 0.0 
9.695166710736e-07 2.973049205982e-04 0.0 
0.0 0.0 -4.949622909127e-05 
-5.886475257555e-05 5.012940386976e-07 0.0 
5.012940386976e-07 3.671165151901e-04 0.0 
0.0 0.0 -5.942331684616e-05 
-1.701524326179e-04 -2.478949267953e-07 0.0 
-2.478949267953e-07 1.141091287684e-03 0.0 
0.0 0.0 -1.704540905158e-04 
-1.688701131472e-04 -7.880779693721e-07 0.0 
-7.880779693721e-07 1.128148657559e-03 0.0 
0.0 0.0 -1.686097943865e-04 
-1.645187862567e-04 -7.830603816416e-07 0.0 
-7.830603816416e-07 1.098043410909e-03 0.0 
0.0 0.0 -1.643423135982e-04 
-8.335621055865e-05 3.090761482562e-06 0.0 
3.090761482562e-06 5.330757850641e-04 0.0 
0.0 0.0 -8.309698707208e-05 
-8.907622380058e-05 9.098765487224e-07 0.0 
9.098765487224e-07 5.710176681635e-04 0.0 
0.0 0.0 -8.857956952730e-05 
-1.698091735536e-04 4.492498910091e-07 0.0 
4.492498910091e-07 1.141399927452e-03 0.0 
0.0 0.0 -1.704417977873e-04 
-1.357890576857e-04 -2.245189513230e-07 0.0 
-2.245189513230e-07 9.134142540395e-04 0.0 
0.0 0.0 -1.376677267776e-04 
-1.395432965358e-04 -1.715851711574e-07 0.0 
-1.715851711574e-07 9.262509041073e-04 0.0 
0.0 0.0 -1.395319589165e-04 
-1.347947841220e-04 2.713370184277e-07 0.0 
2.713370184277e-07 8.938256624501e-04 0.0 
0.0 0.0 -1.350285088515e-04 
-3.672231146069e-05 -2.132510581459e-06 0.0 
-2.132510581459e-06 2.203530386721e-04 0.0 
0.0 0.0 -3.892831888128e-05 
-3.637712963261e-05 7.197511136289e-07 0.0 
7.197511136289e-07 2.141167117019e-04 0.0 
0.0 0.0 -3.788396651026e-05 
-1.694800178962e-04 -9.883703524795e-07 0.0 
-9.883703524795e-07 1.133513736801e-03 0.0 
0.0 0.0 -1.692545752333e-04 
-6.937545800042e-05 3.228980611412e-07 0.0 
3.228980611412e-07 4.358386743780e-04 0.0 
0.0 0.0 -6.923809046111e-05 
-6.522800914265e-05 4.802178938972e-07 0.0 
4.802178938972e-07 4.068593445534e-04 0.0 
0.0 0.0 -6.513959669466e-05 
-3.835293382449e-05 1.419780011636e-06 0.0 
1.419780011636e-06 2.169955699432e-04 0.0 
0.0 0.0 -3.762272808090e-05 
-3.184713987987e-05 3.230456577081e-07 0.0 
3.230456577081e-07 1.763378694127e-04 0.0 
0.0 0.0 -3.215802126946e-05 
-1.564097184147e-04 2.852905095697e-06 0.0 
2.852905095697e-06 1.049316422252e-03 0.0 
0.0 0.0 -1.577722324506e-04 
-1.666476506988e-04 2.040589658683e-06 0.0 
2.040589658683e-06 1.120282174027e-03 0.0 
0.0 0.0 -1.676789152757e-04 
-1.096907460405e-04 -3.286013999443e-07 0.0 
-3.286013999443e-07 7.221561234987e-04 0.0 
0.0 0.0 -1.103539394458e-04 
-1.146883842954e-04 -1.653249674978e-06 0.0 
-1.653249674978e-06 7.528293944776e-04 0.0 
0.0 0.0 -1.147244957885e-04 
-1.658368221067e-04 -7.296927506318e-07 0.0 
-7.296927506318e-07 1.111095675298e-03 0.0 
0.0 0.0 -1.661337593878e-04 
-4.600380394054e-05 -1.491158073069e-07 0.0 
-1.491158073069e-07 2.738216254214e-04 0.0 
0.0 0.0 -4.591192000902e-05 
-1.719378156417e-04 1.421041712674e-07 0.0 
1.421041712674e-07 1.154049105325e-03 0.0 
0.0 0.0 -1.723772497485e-04 
-1.472965570201e-04 4.727447796768e-07 0.0 
4.727447796768e-07 9.788476002172e-04 0.0 
0.0 0.0 -1.471186205066e-04 
-1.373907042142e-04 1.793164290012e-07 0.0 
1.793164290012e-07 9.102123959892e-04 0.0 
0.0 0.0 -1.372860605493e-04 
-9.767120859221e-05 2.136804418641e-06 0.0 
2.136804418641e-06 6.441362083975e-04 0.0 
0.0 0.0 -9.906935000530e-05 
-5.062215510686e-05 1.026665089058e-06 0.0 
1.026665089058e-06 3.047645721911e-04 0.0 
0.0 0.0 -5.049648738178e-05 
-4.540502709285e-05 6.832131871420e-07 0.0 
6.832131871420e-07 2.672371430162e-04 0.0 
0.0 0.0 -4.513648964862e-05 
-7.256428344436e-05 1.111321589037e-06 0.0 
1.111321589037e-06 4.598861736081e-04 0.0 
0.0 0.0 -7.268378841861e-05 
-5.559787971176e-05 4.468565818417e-07 0.0 
4.468565818417e-07 3.424877842220e-04 0.0 
0.0 0.0 -5.585123947100e-05 
-5.303663475667e-05 2.464193940360e-07 0.0 
2.464193940360e-07 3.275568518533e-04 0.0 
0.0 0.0 -5.375179489994e-05 
-1.757934592010e-04 1.094510029965e-06 0.0 
1.094510029965e-06 1.179890690537e-03 0.0 
0.0 0.0 -1.760744972657e-04 
-1.733244805152e-04 -1.137885131472e-06 0.0 
-1.137885131472e-06 1.163616194136e-03 0.0 
0.0 0.0 -1.736362873376e-04 
-1.621997224677e-04 -1.527288975186e-06 0.0 
-1.527288975186e-06 1.082969057806e-03 0.0 
0.0 0.0 -1.620259229750e-04 
-1.525464893974e-04 4.621401952153e-09 0.0 
4.621401952153e-09 1.015177504387e-03 0.0 
0.0 0.0 -1.523516756879e-04 
-1.708917266004e-04 -1.191002855825e-06 0.0 
-1.191002855825e-06 1.149869569914e-03 0.0 
0.0 0.0 -1.717432538670e-04 
-3.490930834727e-05 -8.429582514125e-07 0.0 
-8.429582514125e-07 2.054757264963e-04 0.0 
0.0 0.0 -3.598778460012e-05 
-1.750597953055e-04 -3.250942675729e-07 0.0 
-3.250942675729e-07 1.172414927759e-03 0.0 
0.0 0.0 -1.748691643181e-04 
-1.586399412700e-04 -2.193877546445e-07 0.0 
-2.193877546445e-07 1.058088814965e-03 0.0 
0.0 0.0 -1.584205238596e-04 
-1.750232827386e-04 1.287113450679e-06 0.0 
1.287113450679e-06 1.163117526416e-03 0.0 
0.0 0.0 -1.736397701047e-04 
-1.700112759458e-04 -1.265368885601e-07 0.0 
-1.265368885601e-07 1.135355063019e-03 0.0 
0.0 0.0 -1.696829740659e-04 
-7.476684779119e-05 6.450836384552e-07 0.0 
6.450836384552e-07 4.725536723755e-04 0.0 
0.0 0.0 -7.452749745521e-05 
-7.091016921093e-05 -6.094699303139e-07 0.0 
-6.094699303139e-07 4.445526167574e-04 0.0 
0.0 0.0 -7.058709718060e-05 
-6.137074756451e-05 4.293104842187e-07 0.0 
4.293104842187e-07 3.794045980526e-04 0.0 
0.0 0.0 -6.117385547845e-05 
-6.706588179639e-05 1.609427156406e-06 0.0 
1.609427156406e-06 4.182950742711e-04 0.0 
0.0 0.0 -6.657037245228e-05 
-1.266094766854e-04 -6.739720647021e-07 0.0 
-6.739720647021e-07 8.277553541706e-04 0.0 
0.0 0.0 -1.254250592285e-04 
-8.035638793885e-05 -1.393926461579e-07 0.0 
-1.393926461579e-07 5.104400494154e-04 0.0 
0.0 0.0 -8.000873303496e-05 
-1.195834177750e-04 -1.404073059008e-07 0.0 
-1.404073059008e-07 7.834003609027e-04 0.0 
0.0 0.0 -1.190894946197e-04 
-1.155376331103e-04 -2.307315433278e-07 0.0 
-2.307315433278e-07 7.547800193782e-04 0.0 
0.0 0.0 -1.149779503611e-04 
-1.103258532928e-04 1.102189864938e-07 0.0 
1.102189864938e-07 7.186555490901e-04 0.0 
0.0 0.0 -1.097928741388e-04 
-9.842809374509e-05 1.902629040634e-07 0.0 
1.902629040634e-07 6.359410459750e-04 0.0 
0.0 0.0 -9.791810678625e-05 
-9.437419777145e-05 -2.159475299137e-07 0.0 
-2.159475299137e-07 6.080813734442e-04 0.0 
0.0 0.0 -9.392806562918e-05 
-8.322610419495e-05 -1.701840068509e-07 0.0 
-1.701840068509e-07 5.319942046353e-04 0.0 
0.0 0.0 -8.302446698330e-05 
-1.259991147617e-04 -5.365801846220e-07 0.0 
-5.365801846220e-07 8.306372732465e-04 0.0 
0.0 0.0 -1.258546578921e-04 
-1.058761433090e-04 7.571849957901e-08 0.0 
7.571849957901e-08 6.921175985289e-04 0.0 
0.0 0.0 -1.060443156317e-04 
-1.312139144854e-04 -3.837092576883e-07 0.0 
-3.837092576883e-07 8.682026054100e-04 0.0 
0.0 0.0 -1.312656420104e-04 
-1.251895528939e-04 1.195207152195e-07 0.0 
1.195207152195e-07 8.263310173887e-04 0.0 
0.0 0.0 -1.252521985300e-04 
-1.703049238627e-04 -5.676244569172e-07 0.0 
-5.676244569172e-07 1.139278121345e-03 0.0 
0.0 0.0 -1.702664597809e-04 
-1.760146123077e-04 -1.359452968979e-06 0.0 
-1.359452968979e-06 1.178275809354e-03 0.0 
0.0 0.0 -1.757907768048e-04 
-1.365524219146e-04 1.370157856815e-06 0.0 
1.370157856815e-06 9.012669428523e-04 0.0 
0.0 0.0 -1.359860927471e-04 
-1.307920283978e-04 1.357393189447e-07 0.0 
1.357393189447e-07 8.686300506088e-04 0.0 
0.0 0.0 -1.314620690688e-04 
-4.233213601894e-05 -2.593523707964e-07 0.0 
-2.593523707964e-07 2.470565775743e-04 0.0 
0.0 0.0 -4.219739737344e-05 
-3.886008786518e-05 1.163800211807e-06 0.0 
1.163800211807e-06 2.179605684997e-04 0.0 
0.0 0.0 -3.798854165781e-05 
-1.182815464932e-04 7.930796381185e-08 0.0 
7.930796381185e-08 7.785584436133e-04 0.0 
0.0 0.0 -1.184174655913e-04 
-1.693736305393e-04 6.591876404939e-07 0.0 
6.591876404939e-07 1.131789490517e-03 0.0 
0.0 0.0 -1.691294037713e-04 
-1.725748694788e-04 -2.401644388829e-08 0.0 
-2.401644388829e-08 1.155505334098e-03 0.0 
0.0 0.0 -1.725143790870e-04 
-1.770772882819e-04 -4.241524903004e-07 0.0 
-4.241524903004e-07 1.186342832568e-03 0.0 
0.0 0.0 -1.769059244357e-04 
-1.714408370001e-04 -4.978042219237e-07 0.0 
-4.978042219237e-07 1.148550534216e-03 0.0 
0.0 0.0 -1.715053987883e-04 
-1.710166963781e-04 1.347194091456e-07 0.0 
1.347194091456e-07 1.148948053295e-03 0.0 
0.0 0.0 -1.716410088010e-04 
-8.613875064520e-05 1.983705843858e-08 0.0 
1.983705843858e-08 5.527937603815e-04 0.0 
0.0 0.0 -8.600610143220e-05 
-1.288985122743e-04 -4.311114656055e-07 0.0 
-4.311114656055e-07 8.513543686181e-04 0.0 
0.0 0.0 -1.288645011303e-04 
-3.653516155706e-05 -1.602670112053e-06 0.0 
-1.602670112053e-06 2.073406842075e-04 0.0 
0.0 0.0 -3.634822514125e-05 
-1.333225735758e-04 1.155434495763e-07 0.0 
1.155434495763e-07 8.819083259488e-04 0.0 
0.0 0.0 -1.332694147460e-04 
-3.243355553450e-05 -5.508408617257e-07 0.0 
-5.508408617257e-07 1.777229056962e-04 0.0 
0.0 0.0 -3.243805315734e-05 
-1.521318087540e-04 -2.136602868640e-07 0.0 
-2.136602868640e-07 1.009920947414e-03 0.0 
0.0 0.0 -1.515479370354e-04 
-1.681720023865e-04 8.090304823285e-08 0.0 
8.090304823285e-08 1.126882532784e-03 0.0 
0.0 0.0 -1.684223758654e-04 
-1.735596513314e-04 4.917479192762e-09 0.0 
4.917479192762e-09 1.165356413454e-03 0.0 
0.0 0.0 -1.738820625913e-04 
-1.749637471521e-04 2.720388968620e-07 0.0 
2.720388968620e-07 1.178416888185e-03 0.0 
0.0 0.0 -1.757938962529e-04 
-1.125612094541e-04 1.713025509613e-06 0.0 
1.713025509613e-06 7.350876687057e-04 0.0 
0.0 0.0 -1.120642929630e-04 
-1.375852130868e-04 4.206176119326e-07 0.0 
4.206176119326e-07 9.112604874474e-04 0.0 
0.0 0.0 -1.374408399149e-04 
-1.323430315928e-04 2.679124462261e-07 0.0 
2.679124462261e-07 8.742078643875e-04 0.0 
0.0 0.0 -1.321308925596e-04 
-1.061253817389e-04 5.601605163015e-07 0.0 
5.601605163015e-07 6.904423550458e-04 0.0 
0.0 0.0 -1.057303730324e-04 
-1.010535408523e-04 5.872506187828e-07 0.0 
5.872506187828e-07 6.547439695766e-04 0.0 
0.0 0.0 -1.006129583810e-04 
-1.050589004756e-04 5.249789125328e-07 0.0 
5.249789125328e-07 6.823405630018e-04 0.0 
0.0 0.0 -1.045943784994e-04 
-9.594121695788e-05 5.701784485001e-07 0.0 
5.701784485001e-07 6.189426135763e-04 0.0 
0.0 0.0 -9.539409567622e-05 
-7.670722250222e-05 7.477520012380e-07 0.0 
7.477520012380e-07 4.887760317978e-04 0.0 
0.0 0.0 -7.683892420519e-05 
-7.103860008569e-05 4.652611723913e-07 0.0 
4.652611723913e-07 4.497405032502e-04 0.0 
0.0 0.0 -7.125283206988e-05 
-1.794791303054e-04 3.046290545188e-07 0.0 
3.046290545188e-07 1.202568044115e-03 0.0 
0.0 0.0 -1.788063205342e-04 
-1.769207863009e-04 3.279526117004e-06 0.0 
3.279526117004e-06 1.187698538996e-03 0.0 
0.0 0.0 -1.767990258301e-04 
-1.796288049769e-04 -8.041882013154e-07 0.0 
-8.041882013154e-07 1.202665816041e-03 0.0 
0.0 0.0 -1.789543763817e-04 
-1.735511399808e-04 -6.381743090062e-08 0.0 
-6.381743090062e-08 1.174777860682e-03 0.0 
0.0 0.0 -1.752247752347e-04 
-1.776329748734e-04 -4.492702858954e-07 0.0 
-4.492702858954e-07 1.208120942378e-03 0.0 
0.0 0.0 -1.801365737201e-04 
-1.734650378150e-04 -1.715499755080e-07 0.0 
-1.715499755080e-07 1.171053020005e-03 0.0 
0.0 0.0 -1.746253154232e-04 
-6.397194449559e-05 -8.644213742386e-07 0.0 
-8.644213742386e-07 3.958263205946e-04 0.0 
0.0 0.0 -6.341026310084e-05 
-8.522640710731e-05 3.477888862430e-07 0.0 
3.477888862430e-07 5.439871764934e-04 0.0 
0.0 0.0 -8.469390476807e-05 
-1.776955029070e-04 -1.524143709276e-06 0.0 
-1.524143709276e-06 1.201358150170e-03 0.0 
0.0 0.0 -1.791227834549e-04 
-1.112229346520e-04 4.789206220836e-07 0.0 
4.789206220836e-07 7.257595216689e-04 0.0 
0.0 0.0 -1.108630369651e-04 
-1.797556034384e-04 -6.312345564761e-07 0.0 
-6.312345564761e-07 1.200035518570e-03 0.0 
0.0 0.0 -1.789253132142e-04 
-1.736948380453e-04 5.431781983201e-07 0.0 
5.431781983201e-07 1.162780945010e-03 0.0 
0.0 0.0 -1.734070790826e-04 
-2.519516585345e-05 -9.707201663460e-07 0.0 
-9.707201663460e-07 1.373677520700e-04 0.0 
0.0 0.0 -2.664754339747e-05 
-3.015018737399e-05 -3.279297815400e-06 0.0 
-3.279297815400e-06 1.664829630556e-04 0.0 
0.0 0.0 -3.052430242461e-05 
-1.769892636273e-04 2.634610193557e-07 0.0 
2.634610193557e-07 1.192719086742e-03 0.0 
0.0 0.0 -1.776883310004e-04 
-5.758327952376e-05 -3.462473019844e-08 0.0 
-3.462473019844e-08 3.517263668732e-04 0.0 
0.0 0.0 -5.717887963261e-05 
-6.329339839047e-05 1.198404527509e-06 0.0 
1.198404527509e-06 3.880051844578e-04 0.0 
0.0 0.0 -6.238035407746e-05 
-5.212222281800e-05 -2.848057552127e-07 0.0 
-2.848057552127e-07 3.138366464287e-04 0.0 
0.0 0.0 -5.189549137910e-05 
-1.887618442224e-04 7.084845367266e-07 0.0 
7.084845367266e-07 1.267778144178e-03 0.0 
0.0 0.0 -1.887465440047e-04 
-1.122732225603e-04 -4.441296090606e-07 0.0 
-4.441296090606e-07 7.339799403067e-04 0.0 
0.0 0.0 -1.121888505450e-04 
-1.770685012225e-04 3.305358162577e-07 0.0 
3.305358162577e-07 1.195492347302e-03 0.0 
0.0 0.0 -1.784128478473e-04 
-1.037318983505e-04 3.959585097158e-08 0.0 
3.959585097158e-08 6.732989381237e-04 0.0 
0.0 0.0 -1.032702350429e-04 
-1.811215610528e-04 5.481099123404e-07 0.0 
5.481099123404e-07 1.225364590535e-03 0.0 
0.0 0.0 -1.824766045798e-04 
-1.418983722809e-04 3.275014927136e-07 0.0 
3.275014927136e-07 9.414952171589e-04 0.0 
0.0 0.0 -1.417367461992e-04 
-9.531983498029e-05 1.199130758146e-06 0.0 
1.199130758146e-06 6.176848429937e-04 0.0 
0.0 0.0 -9.530949026541e-05 
-1.618025468886e-04 -1.313138482705e-06 0.0 
-1.313138482705e-06 1.080414047570e-03 0.0 
0.0 0.0 -1.617266240239e-04 
-1.712367337160e-04 -2.517022686550e-06 0.0 
-2.517022686550e-06 1.155497819449e-03 0.0 
0.0 0.0 -1.723711093632e-04 
-1.839585546077e-04 1.922702604488e-06 0.0 
1.922702604488e-06 1.233266053318e-03 0.0 
0.0 0.0 -1.832438941626e-04 
-1.282285700338e-04 1.437764343269e-06 0.0 
1.437764343269e-06 8.565496247714e-04 0.0 
0.0 0.0 -1.295806172002e-04 
-1.247283955189e-04 -2.695014414448e-06 0.0 
-2.695014414448e-06 8.206621223611e-04 0.0 
0.0 0.0 -1.249156399969e-04 
-1.336973054243e-04 4.780502432985e-07 0.0 
4.780502432985e-07 8.862457055751e-04 0.0 
0.0 0.0 -1.338771030064e-04 
-4.352546499244e-05 4.436478363747e-07 0.0 
4.436478363747e-07 2.551361667223e-04 0.0 
0.0 0.0 -4.330579966881e-05 
-3.389814883689e-05 -2.442715112613e-07 0.0 
-2.442715112613e-07 1.810863350630e-04 0.0 
0.0 0.0 -3.279405811742e-05 
-1.716063829927e-04 -5.958765859028e-07 0.0 
-5.958765859028e-07 1.146696562296e-03 0.0 
0.0 0.0 -1.713135399111e-04 
-7.523536838437e-05 -6.007458973842e-07 0.0 
-6.007458973842e-07 4.758491836951e-04 0.0 
0.0 0.0 -7.509208182934e-05 
-8.235594042686e-05 2.209891807401e-06 0.0 
2.209891807401e-06 5.147698268391e-04 0.0 
0.0 0.0 -8.038827667338e-05 
-5.001146581911e-05 6.274014862642e-08 0.0 
6.274014862642e-08 3.012652504281e-04 0.0 
0.0 0.0 -4.993066604202e-05 
-5.951991557963e-05 4.745024153846e-07 0.0 
4.745024153846e-07 3.695589487495e-04 0.0 
0.0 0.0 -5.978314405524e-05 
-1.155737714789e-04 -3.760380621998e-07 0.0 
-3.760380621998e-07 7.609985150200e-04 0.0 
0.0 0.0 -1.159213944990e-04 
-1.114463395749e-04 -2.406998584791e-07 0.0 
-2.406998584791e-07 7.310738123434e-04 0.0 
0.0 0.0 -1.116262644424e-04 
-1.561658126362e-04 -5.299206413354e-07 0.0 
-5.299206413354e-07 1.039568765867e-03 0.0 
0.0 0.0 -1.558038104416e-04 
-1.616536575182e-04 8.873878670223e-08 0.0 
8.873878670223e-08 1.076746179334e-03 0.0 
0.0 0.0 -1.611194038498e-04 
-1.452021797269e-04 -7.201116330741e-07 0.0 
-7.201116330741e-07 9.647061708381e-04 0.0 
0.0 0.0 -1.451343074576e-04 
-1.417360905196e-04 8.632870990912e-08 0.0 
8.632870990912e-08 9.403024522762e-04 0.0 
0.0 0.0 -1.415933767274e-04 
-1.319020358547e-04 3.977806768531e-08 0.0 
3.977806768531e-08 8.718254866790e-04 0.0 
0.0 0.0 -1.317570344669e-04 
-1.275952978262e-04 -1.808898908879e-07 0.0 
-1.808898908879e-07 8.422298684311e-04 0.0 
0.0 0.0 -1.275414768178e-04 
-1.808056931016e-04 -1.525758788825e-06 0.0 
-1.525758788825e-06 1.206677931101e-03 0.0 
0.0 0.0 -1.799800510317e-04 
-1.870307763930e-04 -2.673876865902e-07 0.0 
-2.673876865902e-07 1.255623469781e-03 0.0 
0.0 0.0 -1.864092322314e-04 
-8.236599237368e-05 5.694757370752e-07 0.0 
5.694757370752e-07 5.272929756111e-04 0.0 
0.0 0.0 -8.232948673513e-05 
-7.828325005813e-05 7.807941924694e-07 0.0 
7.807941924694e-07 4.983469412597e-04 0.0 
0.0 0.0 -7.818189541436e-05 
-8.066781870606e-05 6.215778532638e-07 0.0 
6.215778532638e-07 5.167877030226e-04 0.0 
0.0 0.0 -8.085192856594e-05 
-1.821793884671e-04 -9.452425038888e-07 0.0 
-9.452425038888e-07 1.232295246858e-03 0.0 
0.0 0.0 -1.834584547941e-04 
-1.830922366977e-04 2.536660346183e-06 0.0 
2.536660346183e-06 1.235147881441e-03 0.0 
0.0 0.0 -1.836006722523e-04 
-1.803954664386e-04 -2.175726806454e-06 0.0 
-2.175726806454e-06 1.202974169961e-03 0.0 
0.0 0.0 -1.793731166858e-04 
-2.884547195492e-05 -1.949294581992e-06 0.0 
-1.949294581992e-06 1.508764218898e-04 0.0 
0.0 0.0 -2.821170413667e-05 
-3.570881000968e-05 -1.070718923965e-06 0.0 
-1.070718923965e-06 1.885432469507e-04 0.0 
0.0 0.0 -3.370638853217e-05 
-4.213783208319e-05 -1.170748262368e-07 0.0 
-1.170748262368e-07 2.402822286115e-04 0.0 
0.0 0.0 -4.126795851095e-05 
-3.586246974089e-05 -2.546283779184e-06 0.0 
-2.546283779184e-06 2.018033726068e-04 0.0 
0.0 0.0 -3.610688574664e-05 
-1.813118037091e-04 3.339770754454e-08 0.0 
3.339770754454e-08 1.214209313964e-03 0.0 
0.0 0.0 -1.810888083315e-04 
-1.759503644858e-04 -2.370337744045e-09 0.0 
-2.370337744045e-09 1.179752016776e-03 0.0 
0.0 0.0 -1.758947287297e-04 
-1.868380600491e-04 -2.026246098826e-08 0.0 
-2.026246098826e-08 1.260450932184e-03 0.0 
0.0 0.0 -1.871207327665e-04 
-5.677368414960e-05 2.032718348151e-06 0.0 
2.032718348151e-06 3.527741904510e-04 0.0 
0.0 0.0 -5.702308739092e-05 
-1.568027754872e-04 9.086678946456e-07 0.0 
9.086678946456e-07 1.045425867798e-03 0.0 
0.0 0.0 -1.567983548164e-04 
-1.807947804281e-04 1.816885949765e-06 0.0 
1.816885949765e-06 1.215031055035e-03 0.0 
0.0 0.0 -1.811848825972e-04 
-1.767874529665e-04 2.635533244675e-06 0.0 
2.635533244675e-06 1.187503191795e-03 0.0 
0.0 0.0 -1.767018567944e-04 
-1.863663002342e-04 1.461510242915e-06 0.0 
1.461510242915e-06 1.257417594462e-03 0.0 
0.0 0.0 -1.866936124609e-04 
-1.705605319310e-04 -3.043131196872e-07 0.0 
-3.043131196872e-07 1.147035567734e-03 0.0 
0.0 0.0 -1.713153186433e-04 
-1.813551999588e-04 -1.051944771726e-06 0.0 
-1.051944771726e-06 1.212243561196e-03 0.0 
0.0 0.0 -1.808143025540e-04 
-1.810144852020e-04 9.510582154737e-07 0.0 
9.510582154737e-07 1.215244823925e-03 0.0 
0.0 0.0 -1.813984546852e-04 
-2.289882463440e-05 -1.917411223350e-06 0.0 
-1.917411223350e-06 1.064438362998e-04 0.0 
0.0 0.0 -2.272772520152e-05 
-1.796453692485e-04 -2.519464026569e-06 0.0 
-2.519464026569e-06 1.205769465943e-03 0.0 
0.0 0.0 -1.799989151485e-04 
-1.255838269039e-04 -2.372108616113e-07 0.0 
-2.372108616113e-07 8.274746007515e-04 0.0 
0.0 0.0 -1.255735778981e-04 
-1.648487917531e-05 -4.731674107763e-06 0.0 
-4.731674107763e-06 7.996115120316e-05 0.0 
0.0 0.0 -1.701907742944e-05 
-1.197277503755e-04 -6.241620168613e-08 0.0 
-6.241620168613e-08 7.962718767862e-04 0.0 
0.0 0.0 -1.210522788133e-04 
-1.264445161814e-04 -2.564056665928e-07 0.0 
-2.564056665928e-07 8.371650247824e-04 0.0 
0.0 0.0 -1.267742309066e-04 
-1.154487627705e-04 -6.658166254296e-07 0.0 
-6.658166254296e-07 7.569378951924e-04 0.0 
0.0 0.0 -1.162214466274e-04 
-4.660515595758e-05 1.493989084367e-06 0.0 
1.493989084367e-06 2.841958466787e-04 0.0 
0.0 0.0 -4.732948783071e-05 
-1.214260254664e-04 -1.596625013767e-06 0.0 
-1.596625013767e-06 8.039136548600e-04 0.0 
0.0 0.0 -1.226115929076e-04 
-1.277494935593e-04 -2.322994823893e-06 0.0 
-2.322994823893e-06 8.489823059285e-04 0.0 
0.0 0.0 -1.283491864751e-04 
-2.181725480317e-05 4.928406156629e-07 0.0 
4.928406156629e-07 1.070930809537e-04 0.0 
0.0 0.0 -2.131994005793e-05 
-1.874449477591e-04 5.176155724588e-07 0.0 
5.176155724588e-07 1.267519228381e-03 0.0 
0.0 0.0 -1.888952332360e-04 
-2.478565018414e-05 -1.930000472000e-06 0.0 
-1.930000472000e-06 1.118328058531e-04 0.0 
0.0 0.0 -2.334665006309e-05 
-2.656716960799e-05 -2.510778064998e-06 0.0 
-2.510778064998e-06 1.411464559949e-04 0.0 
0.0 0.0 -2.709867152969e-05 
-1.817312836183e-04 2.201942420486e-06 0.0 
2.201942420486e-06 1.232410437945e-03 0.0 
0.0 0.0 -1.831822052943e-04 
-1.773206336066e-04 -2.021839507971e-07 0.0 
-2.021839507971e-07 1.191992626232e-03 0.0 
0.0 0.0 -1.776517324320e-04 
-1.872954897737e-04 -1.006614931482e-06 0.0 
-1.006614931482e-06 1.259866749947e-03 0.0 
0.0 0.0 -1.871589901852e-04 
-1.824456739670e-04 2.064220422989e-06 0.0 
2.064220422989e-06 1.218220290450e-03 0.0 
0.0 0.0 -1.816528226986e-04 
-1.719240551568e-04 -7.467342115413e-07 0.0 
-7.467342115413e-07 1.152044759436e-03 0.0 
0.0 0.0 -1.720599434401e-04 
-1.761500249536e-04 9.670950468970e-07 0.0 
9.670950468970e-07 1.183630845697e-03 0.0 
0.0 0.0 -1.764735915037e-04 
-1.203392003903e-04 -2.198342008040e-06 0.0 
-2.198342008040e-06 7.898463321084e-04 0.0 
0.0 0.0 -1.197898394197e-04 
-1.865443414806e-04 2.647479046358e-06 0.0 
2.647479046358e-06 1.260124298644e-03 0.0 
0.0 0.0 -1.873527554397e-04 
-1.803841241731e-04 6.709369355739e-07 0.0 
6.709369355739e-07 1.214344074041e-03 0.0 
0.0 0.0 -1.811164307615e-04 
-1.921061091143e-04 1.480715088924e-06 0.0 
1.480715088924e-06 1.296918019707e-03 0.0 
0.0 0.0 -1.916891122952e-04 
-9.208569695246e-05 6.093443112197e-07 0.0 
6.093443112197e-07 5.924864494399e-04 0.0 
0.0 0.0 -9.162005200151e-05 
-7.283645161877e-05 4.586395072897e-07 0.0 
4.586395072897e-07 4.547389083214e-04 0.0 
0.0 0.0 -7.184037522857e-05 
-6.889002091575e-05 3.964795035729e-07 0.0 
3.964795035729e-07 4.246717698014e-04 0.0 
0.0 0.0 -6.790877045087e-05 
-5.909497143754e-05 6.023844365174e-06 0.0 
6.023844365174e-06 3.592168662585e-04 0.0 
0.0 0.0 -5.813495639200e-05 
-1.853176739262e-04 8.122300759658e-07 0.0 
8.122300759658e-07 1.250781756793e-03 0.0 
0.0 0.0 -1.860270850411e-04 
-1.796312402729e-04 3.276727185624e-06 0.0 
3.276727185624e-06 1.208836358275e-03 0.0 
0.0 0.0 -1.800885023177e-04 
-1.631801230170e-04 1.627520387689e-07 0.0 
1.627520387689e-07 1.090569837524e-03 0.0 
0.0 0.0 -1.631333845344e-04 
-1.534477329204e-04 6.766395027793e-07 0.0 
6.766395027793e-07 1.020410487752e-03 0.0 
0.0 0.0 -1.531108459605e-04 
-1.224599435499e-04 1.078011159301e-06 0.0 
1.078011159301e-06 8.009987656653e-04 0.0 
0.0 0.0 -1.216227322220e-04 
-1.215744765480e-04 -1.237691044798e-06 0.0 
-1.237691044798e-06 7.963280792961e-04 0.0 
0.0 0.0 -1.211602941205e-04 
-1.308077100931e-04 4.769688121849e-06 0.0 
4.769688121849e-06 8.600072513362e-04 0.0 
0.0 0.0 -1.301779020232e-04 
-1.297276618714e-04 -1.066682707188e-06 0.0 
-1.066682707188e-06 8.491749556053e-04 0.0 
0.0 0.0 -1.291373028237e-04 
-1.389532460221e-04 4.549858847667e-06 0.0 
4.549858847667e-06 9.158165643447e-04 0.0 
0.0 0.0 -1.380077606708e-04 
-1.362521981567e-04 -2.124783431130e-06 0.0 
-2.124783431130e-06 9.054980890478e-04 0.0 
0.0 0.0 -1.366342160092e-04 
-1.454793170856e-04 -4.423821596291e-06 0.0 
-4.423821596291e-06 9.700799799999e-04 0.0 
0.0 0.0 -1.459037168719e-04 
-1.870833549466e-04 3.909084775636e-06 0.0 
3.909084775636e-06 1.256272641087e-03 0.0 
0.0 0.0 -1.867631680280e-04 
-4.779563930822e-05 1.388169697748e-06 0.0 
1.388169697748e-06 2.856867328083e-04 0.0 
0.0 0.0 -4.771245731983e-05 
-1.019348355349e-04 5.925610993023e-07 0.0 
5.925610993023e-07 6.625121101145e-04 0.0 
0.0 0.0 -1.017460476387e-04 
-1.826285801103e-04 -1.661566205844e-06 0.0 
-1.661566205844e-06 1.237533025725e-03 0.0 
0.0 0.0 -1.842392070075e-04 
-1.784932399449e-04 -5.084121371407e-07 0.0 
-5.084121371407e-07 1.196504370322e-03 0.0 
0.0 0.0 -1.781095211982e-04 
-9.045878749083e-05 3.060141382144e-07 0.0 
3.060141382144e-07 5.804720461946e-04 0.0 
0.0 0.0 -9.001416730698e-05 
-8.189605333165e-05 1.641333009624e-06 0.0 
1.641333009624e-06 5.186644514913e-04 0.0 
0.0 0.0 -8.102430021026e-05 
-1.866907463054e-04 2.093765460227e-06 0.0 
2.093765460227e-06 1.251863261449e-03 0.0 
0.0 0.0 -1.858191563033e-04 
-8.427129088721e-05 2.509183407976e-07 0.0 
2.509183407976e-07 5.389541208829e-04 0.0 
0.0 0.0 -8.400472401885e-05 
-1.942862609106e-04 -4.604509060763e-07 0.0 
-4.604509060763e-07 1.310239742523e-03 0.0 
0.0 0.0 -1.943189575261e-04 
-7.089778492893e-06 -8.429924576269e-07 0.0 
-8.429924576269e-07 3.992716951653e-05 0.0 
0.0 0.0 -8.535005130452e-06 
-1.936791033226e-05 1.730686598500e-06 0.0 
1.730686598500e-06 1.017559906333e-04 0.0 
0.0 0.0 -2.030164989952e-05 
-8.968053387105e-05 4.268638781565e-07 0.0 
4.268638781565e-07 5.769858883096e-04 0.0 
0.0 0.0 -8.953811051246e-05 
-9.967591826382e-05 1.816339090069e-07 0.0 
1.816339090069e-07 6.455070859268e-04 0.0 
0.0 0.0 -9.930333011984e-05 
-7.698272719919e-05 1.369511196201e-06 0.0 
1.369511196201e-06 4.917432221998e-04 0.0 
0.0 0.0 -7.735978650723e-05 
-7.290112700995e-05 4.485042513469e-07 0.0 
4.485042513469e-07 4.686595431743e-04 0.0 
0.0 0.0 -7.375775675111e-05 
-1.516976068027e-04 9.731432031662e-08 0.0 
9.731432031662e-08 1.010085692234e-03 0.0 
0.0 0.0 -1.515828990902e-04 
-2.955388113014e-05 -3.810006738129e-07 0.0 
-3.810006738129e-07 1.597998460951e-04 0.0 
0.0 0.0 -2.992625374333e-05 
-4.708750000530e-05 -3.380683912340e-07 0.0 
-3.380683912340e-07 2.775741899182e-04 0.0 
0.0 0.0 -4.660401843130e-05 
-1.459872513037e-04 4.283387118632e-06 0.0 
4.283387118632e-06 9.787274438894e-04 0.0 
0.0 0.0 -1.469538452094e-04 
-3.739432352920e-05 8.132963554323e-08 0.0 
8.132963554323e-08 2.132217851977e-04 0.0 
0.0 0.0 -3.731550915806e-05 
-1.581113812495e-04 5.386783396549e-07 0.0 
5.386783396549e-07 1.056624836089e-03 0.0 
0.0 0.0 -1.583700297543e-04 
-8.859117282002e-05 -4.886909086430e-07 0.0 
-4.886909086430e-07 5.694929478328e-04 0.0 
0.0 0.0 -8.837999545446e-05 
-1.077149909289e-04 1.768026495207e-08 0.0 
1.768026495207e-08 7.012731036170e-04 0.0 
0.0 0.0 -1.073025146250e-04 
-5.592229804259e-05 8.436426505878e-07 0.0 
8.436426505878e-07 3.420524339702e-04 0.0 
0.0 0.0 -5.582998379547e-05 
-7.655387121575e-05 -1.360505059231e-06 0.0 
-1.360505059231e-06 4.844624894690e-04 0.0 
0.0 0.0 -7.620154526702e-05 
-1.304375061833e-04 -4.590487413422e-07 0.0 
-4.590487413422e-07 8.567018780296e-04 0.0 
0.0 0.0 -1.295787134191e-04 
-1.227913220526e-04 -1.069536414788e-06 0.0 
-1.069536414788e-06 7.988115105914e-04 0.0 
0.0 0.0 -1.212971597528e-04 
-1.171271358387e-04 6.312522150105e-07 0.0 
6.312522150105e-07 7.632427069466e-04 0.0 
0.0 0.0 -1.160760923294e-04 
-9.288654497448e-05 -4.149904162910e-07 0.0 
-4.149904162910e-07 5.993038953958e-04 0.0 
0.0 0.0 -9.268233649937e-05 
-7.967235479004e-05 1.560635261010e-06 0.0 
1.560635261010e-06 5.060818193185e-04 0.0 
0.0 0.0 -7.932496478153e-05 
-6.976412058096e-05 4.685918450986e-07 0.0 
4.685918450986e-07 4.348311074162e-04 0.0 
0.0 0.0 -6.925859231108e-05 
-1.236762265939e-04 1.286441015263e-07 0.0 
1.286441015263e-07 8.121194052814e-04 0.0 
0.0 0.0 -1.231954486131e-04 
-1.661664385129e-04 7.234197314208e-07 0.0 
7.234197314208e-07 1.111077522090e-03 0.0 
0.0 0.0 -1.661212681597e-04 
-1.708685371099e-04 1.275890329840e-06 0.0 
1.275890329840e-06 1.141280747299e-03 0.0 
0.0 0.0 -1.704512426999e-04 
-1.799814060202e-04 -8.892695818882e-09 0.0 
-8.892695818882e-09 1.206980088396e-03 0.0 
0.0 0.0 -1.798902840516e-04 
-1.752252711223e-04 6.293476179297e-07 0.0 
6.293476179297e-07 1.171825368199e-03 0.0 
0.0 0.0 -1.746897123557e-04 
-1.653204529079e-04 3.682681378694e-07 0.0 
3.682681378694e-07 1.103833188294e-03 0.0 
0.0 0.0 -1.650619928257e-04 
-1.692700239592e-04 -9.309390044843e-07 0.0 
-9.309390044843e-07 1.133313101005e-03 0.0 
0.0 0.0 -1.693613594316e-04 
-1.794459408941e-04 1.605079206946e-06 0.0 
1.605079206946e-06 1.200644277872e-03 0.0 
0.0 0.0 -1.790391580507e-04 
-1.729836631084e-04 -6.502744119712e-09 0.0 
-6.502744119712e-09 1.165149049271e-03 0.0 
0.0 0.0 -1.738884562940e-04 
-1.853394956414e-04 -1.746634483940e-06 0.0 
-1.746634483940e-06 1.245260351070e-03 0.0 
0.0 0.0 -1.851430293189e-04 
-1.779629991439e-04 -2.212681777785e-06 0.0 
-2.212681777785e-06 1.194508684255e-03 0.0 
0.0 0.0 -1.780963771770e-04 
-1.680008323397e-04 4.410252086396e-07 0.0 
4.410252086396e-07 1.124792316923e-03 0.0 
0.0 0.0 -1.681296768602e-04 
-1.732313668130e-04 2.383290929425e-07 0.0 
2.383290929425e-07 1.152919895369e-03 0.0 
0.0 0.0 -1.721639567129e-04 
-1.820197878976e-04 -9.097203098576e-07 0.0 
-9.097203098576e-07 1.219293629434e-03 0.0 
0.0 0.0 -1.811651920545e-04 
-1.627398560099e-04 -3.025378736545e-07 0.0 
-3.025378736545e-07 1.085392768176e-03 0.0 
0.0 0.0 -1.623890973126e-04 
-1.881496038472e-04 -6.722589035005e-07 0.0 
-6.722589035005e-07 1.272625835057e-03 0.0 
0.0 0.0 -1.896816515354e-04 
-9.936624462153e-05 3.711915790747e-07 0.0 
3.711915790747e-07 6.447993785367e-04 0.0 
0.0 0.0 -9.931710713211e-05 
-2.678077344496e-05 1.172604196378e-06 0.0 
1.172604196378e-06 1.469601996083e-04 0.0 
0.0 0.0 -2.776378382453e-05 
-2.718822131563e-05 5.643793796886e-06 0.0 
5.643793796886e-06 1.398182331985e-04 0.0 
0.0 0.0 -2.650814903740e-05 
-1.130938350532e-04 2.933038375315e-07 0.0 
2.933038375315e-07 7.386015135744e-04 0.0 
0.0 0.0 -1.126376112924e-04 
-1.957395771822e-04 4.072718166247e-07 0.0 
4.072718166247e-07 1.314065316165e-03 0.0 
0.0 0.0 -1.949709453146e-04 
-1.956422709446e-04 1.854437157903e-08 0.0 
1.854437157903e-08 1.316914351373e-03 0.0 
0.0 0.0 -1.952630510734e-04 
-7.363791568969e-05 4.448116745507e-08 0.0 
4.448116745507e-08 4.652432970724e-04 0.0 
0.0 0.0 -7.343539360029e-05 
-1.953259047097e-04 -1.682103116948e-07 0.0 
-1.682103116948e-07 1.316528916423e-03 0.0 
0.0 0.0 -1.955120939844e-04 
-1.210496703093e-04 -3.742029869830e-07 0.0 
-3.742029869830e-07 7.914115177246e-04 0.0 
0.0 0.0 -1.201823113336e-04 
-5.355766991560e-05 5.069063859747e-07 0.0 
5.069063859747e-07 3.232453025466e-04 0.0 
0.0 0.0 -5.296028401754e-05 
-1.953834150830e-04 -1.373297745112e-06 0.0 
-1.373297745112e-06 1.316914533701e-03 0.0 
0.0 0.0 -1.956430189105e-04 
-1.606320410693e-04 1.081811570651e-06 0.0 
1.081811570651e-06 1.073242688732e-03 0.0 
0.0 0.0 -1.607160970497e-04 
-1.551352503420e-04 -1.927443336719e-07 0.0 
-1.927443336719e-07 1.034924921134e-03 0.0 
0.0 0.0 -1.552285616758e-04 
-1.505583948677e-04 4.103370421324e-07 0.0 
4.103370421324e-07 1.004971037607e-03 0.0 
0.0 0.0 -1.509086942990e-04 
-1.950225372489e-04 -2.088550178189e-06 0.0 
-2.088550178189e-06 1.319599496419e-03 0.0 
0.0 0.0 -1.958801056209e-04 
-1.389109183028e-04 4.741451933542e-08 0.0 
4.741451933542e-08 9.181432809719e-04 0.0 
0.0 0.0 -1.384942297845e-04 
-1.959295069713e-04 -1.244434436796e-06 0.0 
-1.244434436796e-06 1.320610998766e-03 0.0 
0.0 0.0 -1.959024498733e-04 
-1.357909290755e-04 -7.273641547469e-07 0.0 
-7.273641547469e-07 8.985832613114e-04 0.0 
0.0 0.0 -1.355985557075e-04 
-1.314159132553e-04 -2.260781221253e-07 0.0 
-2.260781221253e-07 8.680741570170e-04 0.0 
0.0 0.0 -1.312144960014e-04 
-1.217410062802e-04 -7.968137970633e-08 0.0 
-7.968137970633e-08 8.004989808175e-04 0.0 
0.0 0.0 -1.215252423283e-04 
-1.635653543320e-04 -8.206507231057e-07 0.0 
-8.206507231057e-07 1.094591173860e-03 0.0 
0.0 0.0 -1.638368049481e-04 
-1.957128907948e-04 7.679802216984e-07 0.0 
7.679802216984e-07 1.315946828038e-03 0.0 
0.0 0.0 -1.954016999139e-04 
-1.877918467821e-04 -4.059023819968e-07 0.0 
-4.059023819968e-07 1.261052432127e-03 0.0 
0.0 0.0 -1.872601071101e-04 
-1.870380449284e-04 -1.951022404988e-06 0.0 
-1.951022404988e-06 1.260361361027e-03 0.0 
0.0 0.0 -1.872639817026e-04 
-1.800805456319e-04 7.540324232596e-08 0.0 
7.540324232596e-08 1.200437685780e-03 0.0 
0.0 0.0 -1.783672283586e-04 
-1.950646193177e-04 -5.546188052737e-08 0.0 
-5.546188052737e-08 1.316661406715e-03 0.0 
0.0 0.0 -1.955098189886e-04 
-1.957560602186e-04 -3.716868616249e-07 0.0 
-3.716868616249e-07 1.318924671883e-03 0.0 
0.0 0.0 -1.959998991124e-04 
-1.963981539868e-04 -5.303133434367e-07 0.0 
-5.303133434367e-07 1.320493656548e-03 0.0 
0.0 0.0 -1.962751064225e-04 
-6.844923036856e-05 1.199739337794e-06 0.0 
1.199739337794e-06 4.307455297825e-04 0.0 
0.0 0.0 -6.847160534926e-05 
-7.419643775584e-05 3.743388539179e-07 0.0 
3.743388539179e-07 4.695492771341e-04 0.0 
0.0 0.0 -7.401623890332e-05 
-8.376895134064e-05 1.300131340796e-07 0.0 
1.300131340796e-07 5.365706547931e-04 0.0 
0.0 0.0 -8.364053759108e-05 
-7.953934562445e-05 -2.075640414837e-08 0.0 
-2.075640414837e-08 5.072934929808e-04 0.0 
0.0 0.0 -7.948224144010e-05 
-6.989506786319e-05 -6.245293844846e-08 0.0 
-6.245293844846e-08 4.396733402016e-04 0.0 
0.0 0.0 -6.978551441703e-05 
-7.524805855893e-05 3.094892115024e-07 0.0 
3.094892115024e-07 4.777101055957e-04 0.0 
0.0 0.0 -7.524542772725e-05 
-8.492603218944e-05 -2.618464199118e-07 0.0 
-2.618464199118e-07 5.448643552104e-04 0.0 
0.0 0.0 -8.485997776147e-05 
-7.105462536305e-05 6.250310806944e-07 0.0 
6.250310806944e-07 4.479089343025e-04 0.0 
0.0 0.0 -7.097692746601e-05 
-1.705288852515e-04 -5.065676993743e-08 0.0 
-5.065676993743e-08 1.143493746239e-03 0.0 
0.0 0.0 -1.707769389999e-04 
-1.957870609060e-04 1.292884007357e-06 0.0 
1.292884007357e-06 1.318859783043e-03 0.0 
0.0 0.0 -1.958668742322e-04 
-1.350455497016e-04 7.864309328450e-09 0.0 
7.864309328450e-09 8.951240562794e-04 0.0 
0.0 0.0 -1.351191360868e-04 
-1.307165790976e-04 -4.322242656636e-09 0.0 
-4.322242656636e-09 8.644169275053e-04 0.0 
0.0 0.0 -1.307040085326e-04 
-1.209043728309e-04 3.853306452192e-07 0.0 
3.853306452192e-07 7.961045906332e-04 0.0 
0.0 0.0 -1.208983099878e-04 
-1.015178106691e-04 -3.679167517203e-07 0.0 
-3.679167517203e-07 6.622225460757e-04 0.0 
0.0 0.0 -1.017282540064e-04 
-1.070947291555e-04 -1.713274614578e-07 0.0 
-1.713274614578e-07 7.010953756025e-04 0.0 
0.0 0.0 -1.073098139330e-04 
-1.170318119329e-04 -2.304405178400e-07 0.0 
-2.304405178400e-07 7.699550145936e-04 0.0 
0.0 0.0 -1.171862911330e-04 
-9.606943952016e-05 -6.918043120030e-07 0.0 
-6.918043120030e-07 6.234320450168e-04 0.0 
0.0 0.0 -9.611914699067e-05 
-1.481119786321e-04 -1.006868581402e-07 0.0 
-1.006868581402e-07 9.856164309774e-04 0.0 
0.0 0.0 -1.481459134429e-04 
-1.955042779643e-04 -1.269047585912e-06 0.0 
-1.269047585912e-06 1.318349589731e-03 0.0 
0.0 0.0 -1.957504584866e-04 
-1.330884753948e-04 -1.768196315292e-07 0.0 
-1.768196315292e-07 8.806785880526e-04 0.0 
0.0 0.0 -1.330749450653e-04 
-1.026965489879e-04 1.178065411022e-07 0.0 
1.178065411022e-07 6.708683582992e-04 0.0 
0.0 0.0 -1.029894966699e-04 
-1.130854337220e-04 -7.438576483953e-07 0.0 
-7.438576483953e-07 7.384022260134e-04 0.0 
0.0 0.0 -1.127517955912e-04 
-1.209813153641e-04 2.130007804037e-06 0.0 
2.130007804037e-06 7.983489600902e-04 0.0 
0.0 0.0 -1.214223410530e-04 
-1.212906592670e-04 -2.948275088070e-06 0.0 
-2.948275088070e-06 8.006247840124e-04 0.0 
0.0 0.0 -1.214609177556e-04 
-1.289650632578e-04 -2.836448343722e-06 0.0 
-2.836448343722e-06 8.628838233816e-04 0.0 
0.0 0.0 -1.309968220184e-04 
-1.213818105996e-04 -4.266965506249e-06 0.0 
-4.266965506249e-06 8.042830918570e-04 0.0 
0.0 0.0 -1.223387611305e-04 
-1.201218344436e-04 -5.940699395266e-07 0.0 
-5.940699395266e-07 7.912234115192e-04 0.0 
0.0 0.0 -1.202289988118e-04 
-1.246396976616e-04 -5.061942420403e-07 0.0 
-5.061942420403e-07 8.213580181559e-04 0.0 
0.0 0.0 -1.245418513326e-04 
-1.191093718333e-04 1.337880474637e-07 0.0 
1.337880474637e-07 7.836030816467e-04 0.0 
0.0 0.0 -1.190678843757e-04 
-1.287401379332e-04 -4.825176742022e-07 0.0 
-4.825176742022e-07 8.510925999983e-04 0.0 
0.0 0.0 -1.288600603647e-04 
-1.226230270594e-04 -1.701149775371e-06 0.0 
-1.701149775371e-06 8.113018730487e-04 0.0 
0.0 0.0 -1.232036783932e-04 
-1.130241629680e-04 -1.858461286811e-06 0.0 
-1.858461286811e-06 7.480336692277e-04 0.0 
0.0 0.0 -1.141311642346e-04 
-1.321533265726e-04 -1.335199541160e-06 0.0 
-1.335199541160e-06 8.794062915419e-04 0.0 
0.0 0.0 -1.329915258165e-04 
-1.262846614202e-04 1.119259017791e-06 0.0 
1.119259017791e-06 8.372331183149e-04 0.0 
0.0 0.0 -1.265608218447e-04 
-1.120104832196e-04 -1.984611779904e-06 0.0 
-1.984611779904e-06 7.374063381166e-04 0.0 
0.0 0.0 -1.126429727744e-04 
-9.422976514582e-06 -1.217518494265e-06 0.0 
-1.217518494265e-06 4.558842274141e-05 0.0 
0.0 0.0 -8.813944590281e-06 
-2.032999859278e-05 1.550107281015e-06 0.0 
1.550107281015e-06 1.008000227599e-04 0.0 
0.0 0.0 -2.005057187811e-05 
-1.923634066646e-05 -1.281983274152e-06 0.0 
-1.281983274152e-06 9.903712088906e-05 0.0 
0.0 0.0 -1.977126557535e-05 
-2.892124709552e-05 -6.331508506686e-07 0.0 
-6.331508506686e-07 1.562935872075e-04 0.0 
0.0 0.0 -2.931975365146e-05 
-3.044620434302e-05 2.916307507694e-06 0.0 
2.916307507694e-06 1.611495346811e-04 0.0 
0.0 0.0 -2.995118946101e-05 
-3.774799277366e-05 3.794557032569e-07 0.0 
3.794557032569e-07 2.202737536706e-04 0.0 
0.0 0.0 -3.879981516104e-05 
-3.645995758034e-05 -3.803053327811e-06 0.0 
-3.803053327811e-06 2.139692199118e-04 0.0 
0.0 0.0 -3.742104924291e-05 
-2.033881415161e-05 -1.700939409159e-06 0.0 
-1.700939409159e-06 1.011583560657e-04 0.0 
0.0 0.0 -1.994621821224e-05 
-8.875489974186e-06 -3.480193746507e-07 0.0 
-3.480193746507e-07 4.471598822964e-05 0.0 
0.0 0.0 -8.692282348679e-06 
-1.963315251852e-05 3.711641581478e-07 0.0 
3.711641581478e-07 9.816218701372e-05 0.0 
0.0 0.0 -1.973534442338e-05 
-8.550733775924e-06 2.514775744060e-07 0.0 
2.514775744060e-07 4.381249491722e-05 0.0 
0.0 0.0 -8.579688284227e-06 
-1.901805583189e-05 4.776440578628e-08 0.0 
4.776440578628e-08 9.639762974465e-05 0.0 
0.0 0.0 -1.949131874972e-05 
-2.991788690013e-05 6.474225871532e-07 0.0 
6.474225871532e-07 1.629475291055e-04 0.0 
0.0 0.0 -3.058298354955e-05 
-4.437694804010e-05 -3.488760205639e-08 0.0 
-3.488760205639e-08 2.590089634221e-04 0.0 
0.0 0.0 -4.387725951834e-05 
-1.952890502554e-04 2.705057302809e-06 0.0 
2.705057302809e-06 1.308737158744e-03 0.0 
0.0 0.0 -1.942312205382e-04 
-9.935449687594e-05 7.019136318893e-07 0.0 
7.019136318893e-07 6.421560261642e-04 0.0 
0.0 0.0 -9.893255040107e-05 
-9.532292627254e-05 2.814699913044e-06 0.0 
2.814699913044e-06 6.114496525194e-04 0.0 
0.0 0.0 -9.397196729617e-05 
-8.400669900114e-05 2.679673941902e-06 0.0 
2.679673941902e-06 5.409587176071e-04 0.0 
0.0 0.0 -8.462574969392e-05 
-9.027594374168e-05 -7.837686841303e-07 0.0 
-7.837686841303e-07 5.798954878733e-04 0.0 
0.0 0.0 -8.961994476413e-05 
-1.045740752791e-04 3.140418326638e-06 0.0 
3.140418326638e-06 6.688688744112e-04 0.0 
0.0 0.0 -1.029858181470e-04 
-7.880649475037e-05 2.069962121031e-06 0.0 
2.069962121031e-06 5.047681260686e-04 0.0 
0.0 0.0 -7.930380845106e-05 
-7.495741100239e-05 3.408625348592e-06 0.0 
3.408625348592e-06 4.823631646977e-04 0.0 
0.0 0.0 -7.557437765277e-05 
-9.687066653002e-06 -3.402698014617e-07 0.0 
-3.402698014617e-07 4.591586104220e-05 0.0 
0.0 0.0 -8.739712030662e-06 
-2.047661094667e-05 -2.267522532193e-06 0.0 
-2.267522532193e-06 1.000681362490e-04 0.0 
0.0 0.0 -2.007353836932e-05 
-1.994917007271e-05 2.592468629793e-06 0.0 
2.592468629793e-06 9.445303527474e-05 0.0 
0.0 0.0 -1.994324578594e-05 
-3.151456459980e-05 1.463566236896e-06 0.0 
1.463566236896e-06 1.596924898443e-04 0.0 
0.0 0.0 -2.965054416063e-05 
-2.861510418730e-05 -1.205587774427e-06 0.0 
-1.205587774427e-06 1.581911772624e-04 0.0 
0.0 0.0 -2.941027143855e-05 
-1.937098915206e-05 8.384890895993e-08 0.0 
8.384890895993e-08 1.007669973979e-04 0.0 
0.0 0.0 -1.994784544742e-05 
-1.998172865117e-05 1.674549256837e-06 0.0 
1.674549256837e-06 1.004783062935e-04 0.0 
0.0 0.0 -1.993089637160e-05 
-9.184527398116e-06 -3.340486906928e-07 0.0 
-3.340486906928e-07 4.449611849599e-05 0.0 
0.0 0.0 -8.679810794752e-06 
-1.977844276233e-05 -5.706350657546e-07 0.0 
-5.706350657546e-07 9.957383946922e-05 0.0 
0.0 0.0 -1.962916685114e-05 
-2.895230255585e-05 1.615024457259e-06 0.0 
1.615024457259e-06 1.596384447765e-04 0.0 
0.0 0.0 -2.991862060476e-05 
-7.803011911719e-06 -7.706301462869e-07 0.0 
-7.706301462869e-07 4.106703932536e-05 0.0 
0.0 0.0 -8.301770963759e-06 
-1.590145051585e-04 -4.281304664763e-06 0.0 
-4.281304664763e-06 1.062076659957e-03 0.0 
0.0 0.0 -1.590640962770e-04 
-1.651868147433e-04 -3.398332014324e-06 0.0 
-3.398332014324e-06 1.099025294548e-03 0.0 
0.0 0.0 -1.645623349770e-04 
-1.955657779701e-04 -5.933825758627e-07 0.0 
-5.933825758627e-07 1.315952615564e-03 0.0 
0.0 0.0 -1.951345524439e-04 
-1.128859712793e-04 -3.830481927276e-06 0.0 
-3.830481927276e-06 7.447363822067e-04 0.0 
0.0 0.0 -1.137601485512e-04 
-8.506649409316e-06 3.037838616352e-07 0.0 
3.037838616352e-07 4.456634567568e-05 0.0 
0.0 0.0 -8.827439468020e-06 
-1.944078863341e-04 -1.551046245181e-07 0.0 
-1.551046245181e-07 1.307325842461e-03 0.0 
0.0 0.0 -1.938161294973e-04 
-1.950362438059e-04 -1.795147355396e-06 0.0 
-1.795147355396e-06 1.317406774879e-03 0.0 
0.0 0.0 -1.954759163179e-04 
-1.946257604888e-04 1.407080277293e-06 0.0 
1.407080277293e-06 1.317652425531e-03 0.0 
0.0 0.0 -1.957234727395e-04 
-1.786106491459e-04 1.328228983500e-06 0.0 
1.328228983500e-06 1.198614709334e-03 0.0 
0.0 0.0 -1.786587739673e-04 
-1.826581066041e-04 5.861318546716e-07 0.0 
5.861318546716e-07 1.232821746468e-03 0.0 
0.0 0.0 -1.836483987139e-04 
-1.952382200043e-04 8.912494885484e-07 0.0 
8.912494885484e-07 1.308332215826e-03 0.0 
0.0 0.0 -1.941854046512e-04 
-6.737308308447e-05 5.138193223354e-07 0.0 
5.138193223354e-07 4.244241960940e-04 0.0 
0.0 0.0 -6.769213596492e-05 
-1.828682302183e-04 1.640560627373e-06 0.0 
1.640560627373e-06 1.239731587643e-03 0.0 
0.0 0.0 -1.838610959833e-04 
-1.772400966804e-04 3.904476817881e-07 0.0 
3.904476817881e-07 1.184738121319e-03 0.0 
0.0 0.0 -1.767943248163e-04 
-4.906868359316e-05 -1.133942934727e-07 0.0 
-1.133942934727e-07 2.953935878240e-04 0.0 
0.0 0.0 -4.902575320116e-05 
-6.530462737817e-05 3.585817021726e-07 0.0 
3.585817021726e-07 4.102635123792e-04 0.0 
0.0 0.0 -6.560435786130e-05 
-1.483067082024e-04 3.970804381230e-07 0.0 
3.970804381230e-07 9.886270184883e-04 0.0 
0.0 0.0 -1.484951207735e-04 
-1.367944353413e-04 -1.825561973167e-07 0.0 
-1.825561973167e-07 9.072242838815e-04 0.0 
0.0 0.0 -1.368596897040e-04 
-1.696034640066e-04 -3.607287686916e-07 0.0 
-3.607287686916e-07 1.134493911371e-03 0.0 
0.0 0.0 -1.695585677381e-04 
-1.398704134916e-04 8.561054054623e-09 0.0 
8.561054054623e-09 9.278981832241e-04 0.0 
0.0 0.0 -1.398333781397e-04 
-1.606909834555e-04 -5.100249501151e-07 0.0 
-5.100249501151e-07 1.075019221100e-03 0.0 
0.0 0.0 -1.609685038039e-04 
-1.869198009603e-04 3.460184187222e-06 0.0 
3.460184187222e-06 1.256233406915e-03 0.0 
0.0 0.0 -1.866194889163e-04 
-4.208478570565e-05 -7.076859870355e-07 0.0 
-7.076859870355e-07 2.599245066963e-04 0.0 
0.0 0.0 -4.408826043591e-05 
-1.404915308446e-04 9.501955183076e-07 0.0 
9.501955183076e-07 9.316401756296e-04 0.0 
0.0 0.0 -1.404724030559e-04 
-1.368005256677e-04 9.839857355172e-07 0.0 
9.839857355172e-07 9.063105631980e-04 0.0 
0.0 0.0 -1.369552780944e-04 
-1.614580578208e-04 -5.040207315794e-07 0.0 
-5.040207315794e-07 1.077622303329e-03 0.0 
0.0 0.0 -1.613909692546e-04 
-7.092154026938e-05 -7.271687064730e-07 0.0 
-7.271687064730e-07 4.457927222897e-04 0.0 
0.0 0.0 -7.064368720930e-05 
-1.092130498400e-04 -2.031197807860e-06 0.0 
-2.031197807860e-06 7.170877506305e-04 0.0 
0.0 0.0 -1.095638575444e-04 
-4.734326755177e-05 -7.634204257468e-07 0.0 
-7.634204257468e-07 2.775049997667e-04 0.0 
0.0 0.0 -4.656497932609e-05 
-1.872735419036e-04 6.485390613281e-07 0.0 
6.485390613281e-07 1.262586229201e-03 0.0 
0.0 0.0 -1.877191857934e-04 
-1.143324629321e-04 4.116664925209e-09 0.0 
4.116664925209e-09 7.469603610316e-04 0.0 
0.0 0.0 -1.138559328007e-04 
-1.153850895440e-04 2.798510741523e-07 0.0 
2.798510741523e-07 7.578160194775e-04 0.0 
0.0 0.0 -1.154143056347e-04 
-9.134271070788e-05 -4.241415328680e-07 0.0 
-4.241415328680e-07 5.928584725244e-04 0.0 
0.0 0.0 -9.180364234441e-05 
-7.295992473616e-05 6.931326544943e-07 0.0 
6.931326544943e-07 4.642607920090e-04 0.0 
0.0 0.0 -7.341543808938e-05 
-6.127928487910e-05 4.097090977135e-07 0.0 
4.097090977135e-07 3.818653258479e-04 0.0 
0.0 0.0 -6.151402614941e-05 
-1.048886373049e-04 7.305772282165e-07 0.0 
7.305772282165e-07 6.839939901015e-04 0.0 
0.0 0.0 -1.048536320953e-04 
-1.083489495467e-04 1.953470287276e-07 0.0 
1.953470287276e-07 7.097911034353e-04 0.0 
0.0 0.0 -1.085629762122e-04 
-1.537049609822e-04 2.480873530320e-07 0.0 
2.480873530320e-07 1.024308554960e-03 0.0 
0.0 0.0 -1.536510162914e-04 
-1.672004607334e-04 -4.138652897847e-07 0.0 
-4.138652897847e-07 1.115841044060e-03 0.0 
0.0 0.0 -1.668829017826e-04 
-1.175626501518e-05 2.653670795412e-06 0.0 
2.653670795412e-06 5.212615490244e-05 0.0 
0.0 0.0 -1.076426758597e-05 
-1.591679461113e-04 4.759781921774e-07 0.0 
4.759781921774e-07 1.063059671778e-03 0.0 
0.0 0.0 -1.592508397865e-04 
-1.282088974266e-04 -3.835691054215e-08 0.0 
-3.835691054215e-08 8.473404205640e-04 0.0 
0.0 0.0 -1.282838013392e-04 
-1.443596124248e-04 4.967652743944e-07 0.0 
4.967652743944e-07 9.572886199512e-04 0.0 
0.0 0.0 -1.439863651620e-04 
-1.598472287202e-04 -8.884907360879e-07 0.0 
-8.884907360879e-07 1.064451867688e-03 0.0 
0.0 0.0 -1.593960054358e-04 
-4.175998057522e-05 -3.447721282185e-07 0.0 
-3.447721282185e-07 2.572900811957e-04 0.0 
0.0 0.0 -4.363646550326e-05 
-1.650522666270e-04 -1.570677394040e-07 0.0 
-1.570677394040e-07 1.102136320565e-03 0.0 
0.0 0.0 -1.648121423230e-04 
-1.826232045261e-04 1.027217602921e-06 0.0 
1.027217602921e-06 1.220901163882e-03 0.0 
0.0 0.0 -1.818680320623e-04 
-1.325762676814e-04 -3.821282481616e-06 0.0 
-3.821282481616e-06 8.784259184788e-04 0.0 
0.0 0.0 -1.331264220316e-04 
-3.693963444370e-05 -7.544466628916e-07 0.0 
-7.544466628916e-07 2.092667936724e-04 0.0 
0.0 0.0 -3.663743814291e-05 
-1.313856992864e-04 7.552411984503e-07 0.0 
7.552411984503e-07 8.610864945210e-04 0.0 
0.0 0.0 -1.303870364997e-04 
-1.805690084043e-04 6.802145348003e-07 0.0 
6.802145348003e-07 1.208990479033e-03 0.0 
0.0 0.0 -1.804058984264e-04 
-1.618620090762e-04 -7.704497118788e-08 0.0 
-7.704497118788e-08 1.080863256528e-03 0.0 
0.0 0.0 -1.617330481104e-04 
-6.471559328570e-05 -1.662931831611e-06 0.0 
-1.662931831611e-06 4.062530166876e-04 0.0 
0.0 0.0 -6.504030707074e-05 
-1.192254745372e-04 -3.743731676597e-07 0.0 
-3.743731676597e-07 7.837384510995e-04 0.0 
0.0 0.0 -1.191527179664e-04 
-1.116344855219e-04 1.062141944630e-07 0.0 
1.062141944630e-07 7.298456137402e-04 0.0 
0.0 0.0 -1.114223846842e-04 
-1.018383685965e-04 -1.359407971871e-06 0.0 
-1.359407971871e-06 6.707473892556e-04 0.0 
0.0 0.0 -1.029886159366e-04 
-1.821879658306e-04 1.203703486797e-06 0.0 
1.203703486797e-06 1.214225172284e-03 0.0 
0.0 0.0 -1.809836386841e-04 
-1.227568816259e-04 -6.254739179720e-08 0.0 
-6.254739179720e-08 8.076906619440e-04 0.0 
0.0 0.0 -1.225941817511e-04 
-1.685234158846e-04 1.004345265447e-06 0.0 
1.004345265447e-06 1.124593655933e-03 0.0 
0.0 0.0 -1.680081379364e-04 
-1.385983115983e-04 -4.518781372797e-07 0.0 
-4.518781372797e-07 9.192006383534e-04 0.0 
0.0 0.0 -1.386121366338e-04 
-6.938466731060e-05 -6.198930646465e-07 0.0 
-6.198930646465e-07 4.371957454374e-04 0.0 
0.0 0.0 -6.944566544735e-05 
-1.681992938910e-04 -9.274416247641e-07 0.0 
-9.274416247641e-07 1.123747739326e-03 0.0 
0.0 0.0 -1.678379068203e-04 
-1.163255558547e-04 -2.444566148571e-07 0.0 
-2.444566148571e-07 7.630787415271e-04 0.0 
0.0 0.0 -1.161597941560e-04 
-1.747594319775e-04 -4.754811496893e-07 0.0 
-4.754811496893e-07 1.171391248362e-03 0.0 
0.0 0.0 -1.746922153459e-04 
-1.547158004377e-04 -7.908026844222e-07 0.0 
-7.908026844222e-07 1.031372856638e-03 0.0 
0.0 0.0 -1.547299964433e-04 
-9.575522477032e-05 -2.469845308842e-07 0.0 
-2.469845308842e-07 6.198169541374e-04 0.0 
0.0 0.0 -9.562808392031e-05 
-1.680741224093e-04 -8.043675432309e-07 0.0 
-8.043675432309e-07 1.125048534485e-03 0.0 
0.0 0.0 -1.681755324449e-04 
-1.167097397872e-04 2.723456768358e-07 0.0 
2.723456768358e-07 7.659716634377e-04 0.0 
0.0 0.0 -1.165963749253e-04 
-1.652487966176e-04 1.494188142170e-07 0.0 
1.494188142170e-07 1.103453328263e-03 0.0 
0.0 0.0 -1.649144376955e-04 
-1.090718422596e-04 2.524371737848e-07 0.0 
2.524371737848e-07 7.103678881211e-04 0.0 
0.0 0.0 -1.086081446058e-04 
-1.357966733163e-04 -3.457047510779e-07 0.0 
-3.457047510779e-07 8.984402994021e-04 0.0 
0.0 0.0 -1.356166455148e-04 
-1.479451278654e-04 -5.197314638622e-07 0.0 
-5.197314638622e-07 9.805721187296e-04 0.0 
0.0 0.0 -1.473637189475e-04 
-1.291946076143e-04 -2.210645520755e-08 0.0 
-2.210645520755e-08 8.530967429073e-04 0.0 
0.0 0.0 -1.291232438263e-04 
-1.429493388473e-04 2.592746297642e-06 0.0 
2.592746297642e-06 9.504562516353e-04 0.0 
0.0 0.0 -1.430149859860e-04 
-1.638426906912e-04 3.884553588315e-07 0.0 
3.884553588315e-07 1.093570341671e-03 0.0 
0.0 0.0 -1.635473777094e-04 
-4.679395941113e-05 8.636054265736e-08 0.0 
8.636054265736e-08 2.742855012463e-04 0.0 
0.0 0.0 -4.607001325828e-05 
-8.578179911004e-05 -6.161056704661e-08 0.0 
-6.161056704661e-08 5.513847511004e-04 0.0 
0.0 0.0 -8.578563835690e-05 
-1.423249179194e-04 -7.804262925554e-07 0.0 
-7.804262925554e-07 9.497515173482e-04 0.0 
0.0 0.0 -1.430477210920e-04 
-1.735818036023e-04 -9.773598649861e-07 0.0 
-9.773598649861e-07 1.155171653987e-03 0.0 
0.0 0.0 -1.725878545680e-04 
-1.836468666056e-04 1.003626260766e-06 0.0 
1.003626260766e-06 1.240389692506e-03 0.0 
0.0 0.0 -1.843994436203e-04 
-1.023143520992e-04 5.423079028455e-07 0.0 
5.423079028455e-07 6.643953733865e-04 0.0 
0.0 0.0 -1.020177412065e-04 
-1.622496068517e-04 -8.321051479418e-07 0.0 
-8.321051479418e-07 1.084090239035e-03 0.0 
0.0 0.0 -1.622365463781e-04 
-1.781376606747e-04 3.555220392374e-07 0.0 
3.555220392374e-07 1.192018732814e-03 0.0 
0.0 0.0 -1.778033526228e-04 
-1.126735395111e-04 5.522608983234e-08 0.0 
5.522608983234e-08 7.397928820176e-04 0.0 
0.0 0.0 -1.128655126259e-04 
-5.035207840853e-05 5.069616719063e-07 0.0 
5.069616719063e-07 3.007678980219e-04 0.0 
0.0 0.0 -4.999657030114e-05 
-3.927566979207e-05 -3.832849885569e-07 0.0 
-3.832849885569e-07 2.313033145196e-04 0.0 
0.0 0.0 -3.982249606560e-05 
-7.656825341724e-05 3.679510810453e-07 0.0 
3.679510810453e-07 4.857975545201e-04 0.0 
0.0 0.0 -7.638798348873e-05 
-1.174853009841e-04 -1.483166653373e-09 0.0 
-1.483166653373e-09 7.706480780895e-04 0.0 
0.0 0.0 -1.172617294919e-04 
-1.226008469953e-04 -1.659916804789e-07 0.0 
-1.659916804789e-07 8.085563299237e-04 0.0 
0.0 0.0 -1.227254861441e-04 
-1.869186648422e-04 1.288893444476e-06 0.0 
1.288893444476e-06 1.255438194585e-03 0.0 
0.0 0.0 -1.863413058393e-04 
-1.661774130078e-04 -5.668139200529e-07 0.0 
-5.668139200529e-07 1.113816736532e-03 0.0 
0.0 0.0 -1.665279681784e-04 
-1.561062454374e-04 -1.032747631753e-06 0.0 
-1.032747631753e-06 1.041295622328e-03 0.0 
0.0 0.0 -1.561285722757e-04 
-2.290814551487e-05 1.131949368257e-06 0.0 
1.131949368257e-06 1.115970032557e-04 0.0 
0.0 0.0 -2.279054486229e-05 
-1.065384879856e-04 1.371781238190e-06 0.0 
1.371781238190e-06 6.979852258937e-04 0.0 
0.0 0.0 -1.068955660026e-04 
-1.703396393732e-04 -6.320212589166e-07 0.0 
-6.320212589166e-07 1.144009893404e-03 0.0 
0.0 0.0 -1.708611002394e-04 
-1.234023393735e-04 -2.265061210126e-07 0.0 
-2.265061210126e-07 8.130545487096e-04 0.0 
0.0 0.0 -1.233545184740e-04 
-1.695777077806e-04 2.106230318134e-07 0.0 
2.106230318134e-07 1.131440026902e-03 0.0 
0.0 0.0 -1.690088035303e-04 
-1.159592254194e-04 -1.383338685156e-07 0.0 
-1.383338685156e-07 7.703209590687e-04 0.0 
0.0 0.0 -1.172687467652e-04 
-1.871117190239e-04 -1.386491014739e-06 0.0 
-1.386491014739e-06 1.261256540934e-03 0.0 
0.0 0.0 -1.874631276173e-04 
-8.657535319631e-05 1.579232664336e-06 0.0 
1.579232664336e-06 5.555478256840e-04 0.0 
0.0 0.0 -8.636364963772e-05 
-1.755150914368e-04 -6.889429931339e-07 0.0 
-6.889429931339e-07 1.176166452702e-03 0.0 
0.0 0.0 -1.753185131199e-04 
-1.573111243631e-04 1.063973160771e-06 0.0 
1.063973160771e-06 1.048972338121e-03 0.0 
0.0 0.0 -1.571178519447e-04 
-7.892866904534e-05 2.863749736168e-07 0.0 
2.863749736168e-07 5.022036140890e-04 0.0 
0.0 0.0 -7.873003997367e-05 
-1.124601082612e-04 5.668543912746e-07 0.0 
5.668543912746e-07 7.365972072198e-04 0.0 
0.0 0.0 -1.124710309571e-04 
-1.868644922347e-04 1.000849535727e-06 0.0 
1.000849535727e-06 1.255765804165e-03 0.0 
0.0 0.0 -1.865710734017e-04 
-1.676555622800e-04 3.291135704864e-07 0.0 
3.291135704864e-07 1.118261925556e-03 0.0 
0.0 0.0 -1.671813732751e-04 
-1.386017071923e-04 -1.797723160639e-07 0.0 
-1.797723160639e-07 9.191547604494e-04 0.0 
0.0 0.0 -1.386052031399e-04 
-1.179182420809e-04 -1.397755678998e-07 0.0 
-1.397755678998e-07 7.747023837777e-04 0.0 
0.0 0.0 -1.178542631832e-04 
-9.266051543288e-05 -1.427667931752e-06 0.0 
-1.427667931752e-06 5.998378060181e-04 0.0 
0.0 0.0 -9.287066260160e-05 
-1.268908472920e-04 -2.992571917759e-07 0.0 
-2.992571917759e-07 8.385766200168e-04 0.0 
0.0 0.0 -1.270155650522e-04 
-1.412610616596e-04 -7.070516204546e-07 0.0 
-7.070516204546e-07 9.356355867827e-04 0.0 
0.0 0.0 -1.409283708239e-04 
-1.952715328492e-04 2.648146111006e-07 0.0 
2.648146111006e-07 1.320373790754e-03 0.0 
0.0 0.0 -1.960333646234e-04 
-1.736029799723e-04 -4.830607358397e-07 0.0 
-4.830607358397e-07 1.152851948528e-03 0.0 
0.0 0.0 -1.722934252721e-04 
-1.452011068003e-04 -1.075773922608e-06 0.0 
-1.075773922608e-06 9.666398033647e-04 0.0 
0.0 0.0 -1.454499006876e-04 
-1.212938627555e-04 -3.882932393123e-07 0.0 
-3.882932393123e-07 7.997072957628e-04 0.0 
0.0 0.0 -1.214615911284e-04 
-1.463822189693e-04 -1.900321700035e-07 0.0 
-1.900321700035e-07 9.728037690076e-04 0.0 
0.0 0.0 -1.462476041952e-04 
-2.746226357204e-05 -9.271388711199e-07 0.0 
-9.271388711199e-07 1.571302735165e-04 0.0 
0.0 0.0 -2.955133849294e-05 
-9.672248826247e-05 7.266615167991e-07 0.0 
7.266615167991e-07 6.276593153662e-04 0.0 
0.0 0.0 -9.671433789260e-05 
-1.257056545510e-04 -4.990050790240e-07 0.0 
-4.990050790240e-07 8.296358928903e-04 0.0 
0.0 0.0 -1.257347134077e-04 
-8.071247393308e-05 8.458441046784e-08 0.0 
8.458441046784e-08 5.152581703620e-04 0.0 
0.0 0.0 -8.061844590833e-05 
-1.221886675709e-04 -7.908405440194e-08 0.0 
-7.908405440194e-08 8.040667053497e-04 0.0 
0.0 0.0 -1.220458434280e-04 
-1.840762203294e-04 1.915177188951e-06 0.0 
1.915177188951e-06 1.245437645367e-03 0.0 
0.0 0.0 -1.851416939921e-04 
-1.301442044184e-04 -3.060279266349e-07 0.0 
-3.060279266349e-07 8.596681305344e-04 0.0 
0.0 0.0 -1.300328051442e-04 
-9.031994090937e-05 -2.080257032607e-07 0.0 
-2.080257032607e-07 5.822092092616e-04 0.0 
0.0 0.0 -9.022896017931e-05 
-1.344673763446e-04 9.830708816544e-08 0.0 
9.830708816544e-08 8.894298640129e-04 0.0 
0.0 0.0 -1.343397272354e-04 
-8.268637292058e-05 -8.113913653827e-07 0.0 
-8.113913653827e-07 5.290888140562e-04 0.0 
0.0 0.0 -8.279832518349e-05 
-1.497839366065e-04 -1.523194842093e-06 0.0 
-1.523194842093e-06 9.970276981604e-04 0.0 
0.0 0.0 -1.497490155909e-04 
-1.382259707113e-04 2.110689173293e-08 0.0 
2.110689173293e-08 9.185304756848e-04 0.0 
0.0 0.0 -1.386530088269e-04 
-1.506650140695e-04 -9.263316559379e-07 0.0 
-9.263316559379e-07 1.001955608578e-03 0.0 
0.0 0.0 -1.504726885606e-04 
-3.022468714226e-05 -2.973636621545e-06 0.0 
-2.973636621545e-06 1.677942898081e-04 0.0 
0.0 0.0 -3.060483068446e-05 
-1.428673620023e-04 -2.398732156923e-07 0.0 
-2.398732156923e-07 9.482366823991e-04 0.0 
0.0 0.0 -1.427619920137e-04 
-1.726984643621e-04 1.345553639607e-06 0.0 
1.345553639607e-06 1.160671593896e-03 0.0 
0.0 0.0 -1.733128613594e-04 
-8.463363897670e-05 6.078796328986e-07 0.0 
6.078796328986e-07 5.444031302841e-04 0.0 
0.0 0.0 -8.481515710027e-05 
-1.264518580475e-04 2.684568646023e-07 0.0 
2.684568646023e-07 8.338232778496e-04 0.0 
0.0 0.0 -1.263048705811e-04 
-1.596353680421e-04 -9.131275579432e-07 0.0 
-9.131275579432e-07 1.065304755547e-03 0.0 
0.0 0.0 -1.595480372087e-04 
-7.302589173434e-05 -3.183424354861e-06 0.0 
-3.183424354861e-06 4.574500906094e-04 0.0 
0.0 0.0 -7.259764510955e-05 
-1.362250571880e-04 3.623633479397e-08 0.0 
3.623633479397e-08 9.021775671400e-04 0.0 
0.0 0.0 -1.361198740657e-04 
-1.602145110429e-04 -8.362565613448e-07 0.0 
-8.362565613448e-07 1.068772108230e-03 0.0 
0.0 0.0 -1.600932078566e-04 
-1.471273090538e-04 7.392924497513e-07 0.0 
7.392924497513e-07 9.780830439502e-04 0.0 
0.0 0.0 -1.470264431059e-04 
-1.270633471131e-04 1.102546760645e-07 0.0 
1.102546760645e-07 8.375443541897e-04 0.0 
0.0 0.0 -1.268359787636e-04 
-1.460791581632e-04 -2.407797944151e-07 0.0 
-2.407797944151e-07 9.714799924540e-04 0.0 
0.0 0.0 -1.460739326938e-04 
-7.660927585480e-05 2.589062603144e-06 0.0 
2.589062603144e-06 4.833163137169e-04 0.0 
0.0 0.0 -7.585562978697e-05 
-6.337475630904e-05 1.248073807384e-06 0.0 
1.248073807384e-06 3.958823544252e-04 0.0 
0.0 0.0 -6.357697056388e-05 
-5.388339958482e-05 2.895282728562e-07 0.0 
2.895282728562e-07 3.277752654746e-04 0.0 
0.0 0.0 -5.379270529687e-05 
-9.451957039609e-05 -2.935916480428e-07 0.0 
-2.935916480428e-07 6.114923592848e-04 0.0 
0.0 0.0 -9.441947030406e-05 
-1.655470867204e-04 -4.270866697217e-07 0.0 
-4.270866697217e-07 1.106817959118e-03 0.0 
0.0 0.0 -1.654622947108e-04 
-3.839223720892e-05 -3.449317819975e-06 0.0 
-3.449317819975e-06 2.174158836143e-04 0.0 
0.0 0.0 -3.781821007497e-05 
-1.582398840472e-04 -1.211336256148e-06 0.0 
-1.211336256148e-06 1.056196191213e-03 0.0 
0.0 0.0 -1.582347619750e-04 
-3.976493932031e-05 -1.461285902805e-06 0.0 
-1.461285902805e-06 2.310785421131e-04 0.0 
0.0 0.0 -3.990281506442e-05 
-8.912786947884e-05 -2.218013861212e-07 0.0 
-2.218013861212e-07 5.740010873261e-04 0.0 
0.0 0.0 -8.903564786089e-05 
-1.609314023663e-04 8.015374636599e-07 0.0 
8.015374636599e-07 1.078902557479e-03 0.0 
0.0 0.0 -1.615622346724e-04 
-1.398208268631e-04 -7.214897453684e-06 0.0 
-7.214897453684e-06 9.283629550766e-04 0.0 
0.0 0.0 -1.397314702741e-04 
-9.326712864409e-05 1.081123901449e-07 0.0 
1.081123901449e-07 6.029249672552e-04 0.0 
0.0 0.0 -9.316659828873e-05 
-5.971178892461e-05 1.368640181835e-06 0.0 
1.368640181835e-06 3.694230737418e-04 0.0 
0.0 0.0 -5.984927026599e-05 
-8.786689087998e-05 2.978470750166e-07 0.0 
2.978470750166e-07 5.651036338672e-04 0.0 
0.0 0.0 -8.775496813769e-05 
-1.366866866355e-04 2.012050051267e-07 0.0 
2.012050051267e-07 9.045962273325e-04 0.0 
0.0 0.0 -1.364843956035e-04 
-9.193121234076e-05 4.013204139827e-07 0.0 
4.013204139827e-07 5.938843893935e-04 0.0 
0.0 0.0 -9.187235440198e-05 
-8.634860532519e-05 5.489409565849e-07 0.0 
5.489409565849e-07 5.556459598693e-04 0.0 
0.0 0.0 -8.641257901652e-05 
-1.873076348652e-04 -8.303719696611e-07 0.0 
-8.303719696611e-07 1.255027706073e-03 0.0 
0.0 0.0 -1.864462757575e-04 
-9.029085277060e-05 7.778954920217e-07 0.0 
7.778954920217e-07 5.838501403615e-04 0.0 
0.0 0.0 -9.045572518728e-05 
-1.942906890229e-04 -1.961786413827e-06 0.0 
-1.961786413827e-06 1.320208759113e-03 0.0 
0.0 0.0 -1.958055517464e-04 
-1.946815352992e-04 -9.026625198254e-07 0.0 
-9.026625198254e-07 1.313526635210e-03 0.0 
0.0 0.0 -1.947608156509e-04 
-1.203676963192e-04 -5.252269783046e-06 0.0 
-5.252269783046e-06 7.911029022502e-04 0.0 
0.0 0.0 -1.199678325534e-04 
-6.382312409295e-05 3.317997073278e-06 0.0 
3.317997073278e-06 3.867196355365e-04 0.0 
0.0 0.0 -6.182128488093e-05 
-9.762668327602e-06 5.060945032083e-07 0.0 
5.060945032083e-07 4.694411596940e-05 0.0 
0.0 0.0 -1.015196033753e-05 
-6.438901127768e-05 -2.610876075629e-06 0.0 
-2.610876075629e-06 4.083460003589e-04 0.0 
0.0 0.0 -6.553865090092e-05 
-7.498804079240e-05 7.264952039937e-07 0.0 
7.264952039937e-07 4.774096760748e-04 0.0 
0.0 0.0 -7.520405771235e-05 
-1.574390158364e-04 7.322658693674e-08 0.0 
7.322658693674e-08 1.047023690082e-03 0.0 
0.0 0.0 -1.568628108499e-04 
-1.202462798349e-04 1.277535447616e-06 0.0 
1.277535447616e-06 7.923369076637e-04 0.0 
0.0 0.0 -1.204472570985e-04 
-6.913329999888e-05 1.518567138290e-06 0.0 
1.518567138290e-06 4.374135939075e-04 0.0 
0.0 0.0 -6.946069291118e-05 
-1.870210423738e-04 1.710341786506e-07 0.0 
1.710341786506e-07 1.262084104717e-03 0.0 
0.0 0.0 -1.875139937252e-04 
-1.961583819331e-04 -2.514147813671e-06 0.0 
-2.514147813671e-06 1.318669280984e-03 0.0 
0.0 0.0 -1.960106588935e-04 
-1.542863799404e-04 -1.786859133762e-06 0.0 
-1.786859133762e-06 1.026998591695e-03 0.0 
0.0 0.0 -1.543154520944e-04 
-1.744631732482e-04 2.018301688582e-06 0.0 
2.018301688582e-06 1.157934353510e-03 0.0 
0.0 0.0 -1.729253385307e-04 
-1.515018167516e-04 8.404198603292e-07 0.0 
8.404198603292e-07 1.010295705910e-03 0.0 
0.0 0.0 -1.515893794002e-04 
-1.789376768634e-04 -2.919640014592e-06 0.0 
-2.919640014592e-06 1.191538801034e-03 0.0 
0.0 0.0 -1.778575971036e-04 
-1.110411603683e-04 -8.342356804498e-06 0.0 
-8.342356804498e-06 7.312796766666e-04 0.0 
0.0 0.0 -1.117662927266e-04 
-1.911119346146e-05 1.280039211139e-07 0.0 
1.280039211139e-07 9.580427244612e-05 0.0 
0.0 0.0 -1.958655518621e-05 
-1.481869069540e-04 1.615226342953e-06 0.0 
1.615226342953e-06 9.850665679094e-04 0.0 
0.0 0.0 -1.481937727541e-04 
-5.301773043500e-05 1.085407750924e-06 0.0 
1.085407750924e-06 3.130804062890e-04 0.0 
0.0 0.0 -5.155996613848e-05 
-5.287064574584e-05 8.669478230734e-08 0.0 
8.669478230734e-08 3.211142711540e-04 0.0 
0.0 0.0 -5.286758958265e-05 
-4.293484566845e-05 -2.294669534037e-07 0.0 
-2.294669534037e-07 2.490277005517e-04 0.0 
0.0 0.0 -4.248609661651e-05 
-7.457102542764e-05 4.540838739860e-07 0.0 
4.540838739860e-07 4.629980056454e-04 0.0 
0.0 0.0 -7.285240290645e-05 
-2.774703220549e-05 1.104401006757e-06 0.0 
1.104401006757e-06 1.537348123985e-04 0.0 
0.0 0.0 -2.914266538000e-05 
-4.307384339748e-05 1.329013767484e-06 0.0 
1.329013767484e-06 2.553580944067e-04 0.0 
0.0 0.0 -4.333354231935e-05 
-1.879084470079e-04 -2.749275055618e-06 0.0 
-2.749275055618e-06 1.255451133352e-03 0.0 
0.0 0.0 -1.867668077911e-04 
-1.189011343897e-04 -7.099494553202e-06 0.0 
-7.099494553202e-06 7.923665314969e-04 0.0 
0.0 0.0 -1.207517460948e-04 
-1.659393230097e-04 -1.374219794473e-06 0.0 
-1.374219794473e-06 1.113429222670e-03 0.0 
0.0 0.0 -1.665613853390e-04 
-3.293815057038e-05 1.035559240217e-06 0.0 
1.035559240217e-06 1.835663013155e-04 0.0 
0.0 0.0 -3.316239960270e-05 
-1.877702954761e-04 -2.194005982338e-06 0.0 
-2.194005982338e-06 1.259619262861e-03 0.0 
0.0 0.0 -1.871049233185e-04 
-1.875538609812e-04 9.967607666471e-07 0.0 
9.967607666471e-07 1.259292980625e-03 0.0 
0.0 0.0 -1.869913167940e-04 
-1.965092283334e-04 -2.596350880128e-06 0.0 
-2.596350880128e-06 1.320494070457e-03 0.0 
0.0 0.0 -1.959374034051e-04 
-1.758179036347e-04 -4.481197506715e-07 0.0 
-4.481197506715e-07 1.181701348802e-03 0.0 
0.0 0.0 -1.764557581508e-04 
-3.270582193410e-05 -4.386817373036e-07 0.0 
-4.386817373036e-07 1.770411407639e-04 0.0 
0.0 0.0 -3.195907242369e-05 
-1.266388969174e-04 -6.538610975457e-06 0.0 
-6.538610975457e-06 8.502071903162e-04 0.0 
0.0 0.0 -1.290525119649e-04 
-1.885161697494e-04 -1.408082556477e-06 0.0 
-1.408082556477e-06 1.262346972473e-03 0.0 
0.0 0.0 -1.876241058639e-04 
-1.609443742117e-04 -4.613026983514e-07 0.0 
-4.613026983514e-07 1.083073354588e-03 0.0 
0.0 0.0 -1.620379724609e-04 
-1.949934473796e-04 8.861010983955e-06 0.0 
8.861010983955e-06 1.323301005755e-03 0.0 
0.0 0.0 -1.964977576321e-04 
-1.170915995552e-04 -2.526672373362e-07 0.0 
-2.526672373362e-07 7.818822557443e-04 0.0 
0.0 0.0 -1.196852915840e-04 
-1.881251343584e-04 1.719532540905e-06 0.0 
1.719532540905e-06 1.262091246564e-03 0.0 
0.0 0.0 -1.879162412457e-04 
-4.159837246659e-05 -1.872810599717e-06 0.0 
-1.872810599717e-06 2.367903641582e-04 0.0 
0.0 0.0 -4.105708941867e-05 
-1.880384365163e-04 2.724632523543e-06 0.0 
2.724632523543e-06 1.261692801511e-03 0.0 
0.0 0.0 -1.881249298770e-04 
-1.672657211226e-04 -3.803404194109e-07 0.0 
-3.803404194109e-07 1.114623838802e-03 0.0 
0.0 0.0 -1.665474363985e-04 
-1.318213223878e-04 4.430076983304e-06 0.0 
4.430076983304e-06 8.772776289306e-04 0.0 
0.0 0.0 -1.326022361065e-04 
-1.268048282990e-04 1.914164460218e-06 0.0 
1.914164460218e-06 8.466567585872e-04 0.0 
0.0 0.0 -1.285548941949e-04 
-1.877454760479e-04 1.284504322459e-06 0.0 
1.284504322459e-06 1.264298494462e-03 0.0 
0.0 0.0 -1.884505761775e-04 
-1.888991999446e-04 -3.702937246346e-06 0.0 
-3.702937246346e-06 1.261816131107e-03 0.0 
0.0 0.0 -1.874258164109e-04 
-2.628632611275e-05 2.399677637308e-06 0.0 
2.399677637308e-06 1.387230862011e-04 0.0 
0.0 0.0 -2.654059898772e-05 
-1.521013519928e-04 5.577678305588e-06 0.0 
5.577678305588e-06 1.024057332589e-03 0.0 
0.0 0.0 -1.536536413446e-04 
-9.055668035440e-05 -2.892025472723e-06 0.0 
-2.892025472723e-06 5.805249846311e-04 0.0 
0.0 0.0 -8.976434653209e-05 
-1.704710855302e-05 -3.458702652501e-06 0.0 
-3.458702652501e-06 8.989110359220e-05 0.0 
0.0 0.0 -1.808546165336e-05 
-1.884986873262e-04 5.724623714394e-06 0.0 
5.724623714394e-06 1.260552726885e-03 0.0 
0.0 0.0 -1.874281668734e-04 
-1.771946189262e-04 -2.402253146537e-07 0.0 
-2.402253146537e-07 1.178369612400e-03 0.0 
0.0 0.0 -1.758283601128e-04 
-1.891214672248e-04 5.594443250151e-06 0.0 
5.594443250151e-06 1.262060829366e-03 0.0 
0.0 0.0 -1.877794506222e-04 
-3.041019390796e-05 4.063728315188e-06 0.0 
4.063728315188e-06 1.568790135595e-04 0.0 
0.0 0.0 -2.929729011833e-05 
-1.923826485663e-05 2.395451325704e-06 0.0 
2.395451325704e-06 8.936390066832e-05 0.0 
0.0 0.0 -1.909551055642e-05 
-1.897110782286e-04 1.614204189851e-06 0.0 
1.614204189851e-06 1.273238434675e-03 0.0 
0.0 0.0 -1.887784298001e-04 
-1.886445185701e-04 1.051783953079e-06 0.0 
1.051783953079e-06 1.269174095551e-03 0.0 
0.0 0.0 -1.885660222491e-04 
-4.447382147791e-05 2.187152848341e-06 0.0 
2.187152848341e-06 2.726065505036e-04 0.0 
0.0 0.0 -4.552470986649e-05 
-1.972951013402e-04 -6.924320481765e-07 0.0 
-6.924320481765e-07 1.331208438024e-03 0.0 
0.0 0.0 -1.972065251748e-04 
-1.846003121508e-05 -1.622840747709e-06 0.0 
-1.622840747709e-06 8.564597044111e-05 0.0 
0.0 0.0 -1.843810201100e-05 
-1.091119861245e-04 9.275684085525e-07 0.0 
9.275684085525e-07 7.216506540820e-04 0.0 
0.0 0.0 -1.108446562541e-04 
-1.806806328908e-05 -2.788761483685e-06 0.0 
-2.788761483685e-06 9.325750213385e-05 0.0 
0.0 0.0 -1.871126948293e-05 
-1.949690694268e-04 -7.776605200528e-06 0.0 
-7.776605200528e-06 1.321740719942e-03 0.0 
0.0 0.0 -1.962797183211e-04 
-1.894401262255e-04 3.666748622647e-06 0.0 
3.666748622647e-06 1.266754761130e-03 0.0 
0.0 0.0 -1.882268625302e-04 
-9.871077405525e-05 5.581959752057e-06 0.0 
5.581959752057e-06 6.396670141167e-04 0.0 
0.0 0.0 -9.846769932235e-05 
-1.118450688366e-04 4.156485273902e-06 0.0 
4.156485273902e-06 7.411970212637e-04 0.0 
0.0 0.0 -1.131213240816e-04 
-6.675482278899e-05 2.746646028006e-06 0.0 
2.746646028006e-06 4.187062855815e-04 0.0 
0.0 0.0 -6.639636993191e-05 
-1.817394697373e-04 5.968977030046e-06 0.0 
5.968977030046e-06 1.213512747672e-03 0.0 
0.0 0.0 -1.805248368263e-04 
-2.549001927232e-05 1.681293934371e-06 0.0 
1.681293934371e-06 1.416935565870e-04 0.0 
0.0 0.0 -2.765034433090e-05 
-1.904991185222e-04 -2.176372463226e-06 0.0 
-2.176372463226e-06 1.275606109758e-03 0.0 
0.0 0.0 -1.890445337758e-04 
-1.902901370943e-04 -9.239913511014e-07 0.0 
-9.239913511014e-07 1.276413630327e-03 0.0 
0.0 0.0 -1.892125449932e-04 
-1.899738152617e-04 1.392000637092e-06 0.0 
1.392000637092e-06 1.275351249225e-03 0.0 
0.0 0.0 -1.890927655262e-04 
-1.980969591010e-04 1.747220192360e-07 0.0 
1.747220192360e-07 1.334413570643e-03 0.0 
0.0 0.0 -1.976588442224e-04 
-1.595876566451e-05 5.109996014523e-06 0.0 
5.109996014523e-06 8.560533841461e-05 0.0 
0.0 0.0 -1.829422046362e-05 
-1.907894524984e-04 -1.453289198630e-06 0.0 
-1.453289198630e-06 1.278087489939e-03 0.0 
0.0 0.0 -1.894635324722e-04 
-1.817965180967e-04 4.689820275562e-06 0.0 
4.689820275562e-06 1.212613848096e-03 0.0 
0.0 0.0 -1.803359864353e-04 
-1.117957005377e-04 6.977421344692e-06 0.0 
6.977421344692e-06 7.320600126907e-04 0.0 
0.0 0.0 -1.115961672155e-04 
-1.879277561833e-04 6.009601527580e-06 0.0 
6.009601527580e-06 1.263394424764e-03 0.0 
0.0 0.0 -1.878861552790e-04 
-8.116031042482e-05 4.154281404345e-06 0.0 
4.154281404345e-06 5.182033185543e-04 0.0 
0.0 0.0 -8.075837133452e-05 
-3.557600018319e-05 -6.705160068937e-06 0.0 
-6.705160068937e-06 2.127372360934e-04 0.0 
0.0 0.0 -3.738032741976e-05 
-1.948498336035e-04 -4.155697267809e-06 0.0 
-4.155697267809e-06 1.324960786423e-03 0.0 
0.0 0.0 -1.970235340649e-04 
-6.441570103541e-06 -6.279015523928e-07 0.0 
-6.279015523928e-07 3.480654244499e-05 0.0 
0.0 0.0 -7.946641316233e-06 
-1.120604214633e-04 -3.288397658700e-06 0.0 
-3.288397658700e-06 7.283085618337e-04 0.0 
0.0 0.0 -1.110361655408e-04 
-1.968531726492e-04 6.196640298584e-06 0.0 
6.196640298584e-06 1.326994606246e-03 0.0 
0.0 0.0 -1.970239266115e-04 
-3.317100676700e-05 -5.514460053326e-07 0.0 
-5.514460053326e-07 2.002819803963e-04 0.0 
0.0 0.0 -3.602866455310e-05 
-1.267924167818e-04 -3.909643930437e-06 0.0 
-3.909643930437e-06 8.405854862832e-04 0.0 
0.0 0.0 -1.273445728183e-04 
-1.883260687280e-04 -1.377902224743e-06 0.0 
-1.377902224743e-06 1.272138406880e-03 0.0 
0.0 0.0 -1.890317804362e-04 
-1.203896409836e-04 1.438809671102e-06 0.0 
1.438809671102e-06 7.891647527459e-04 0.0 
0.0 0.0 -1.197994443266e-04 
-1.726861375007e-04 -9.127303948545e-06 0.0 
-9.127303948545e-06 1.150354645725e-03 0.0 
0.0 0.0 -1.722668051730e-04 
-3.289244603068e-05 1.865001967380e-06 0.0 
1.865001967380e-06 1.965766441920e-04 0.0 
0.0 0.0 -3.568834104832e-05 
-5.881706171023e-06 -3.561904745218e-07 0.0 
-3.561904745218e-07 3.491879089690e-05 0.0 
0.0 0.0 -7.282502801701e-06 
-1.446887067247e-04 -6.124654101547e-06 0.0 
-6.124654101547e-06 9.637426034631e-04 0.0 
0.0 0.0 -1.450319398739e-04 
-1.900119233844e-04 5.405432627128e-06 0.0 
5.405432627128e-06 1.271140965081e-03 0.0 
0.0 0.0 -1.888071511890e-04 
-1.907231428786e-04 -2.479170288195e-06 0.0 
-2.479170288195e-06 1.279898250331e-03 0.0 
0.0 0.0 -1.895996551150e-04 
-1.374681624272e-04 5.948461411176e-06 0.0 
5.948461411176e-06 9.167037354941e-04 0.0 
0.0 0.0 -1.379940178424e-04 
-3.140963832924e-05 -6.998474457374e-06 0.0 
-6.998474457374e-06 1.796728179544e-04 0.0 
0.0 0.0 -3.246938559274e-05 
-1.841130626501e-04 1.475194732939e-06 0.0 
1.475194732939e-06 1.232968589940e-03 0.0 
0.0 0.0 -1.831558075192e-04 
-1.038243241623e-04 -4.078507790945e-07 0.0 
-4.078507790945e-07 6.921885952500e-04 0.0 
0.0 0.0 -1.059090906887e-04 
-1.833573372240e-04 -2.325322525301e-06 0.0 
-2.325322525301e-06 1.222189390314e-03 0.0 
0.0 0.0 -1.813408670945e-04 
-1.831720387608e-04 -1.195237391827e-06 0.0 
-1.195237391827e-06 1.215102366402e-03 0.0 
0.0 0.0 -1.805709848148e-04 
-8.505788794989e-06 -2.657547953589e-06 0.0 
-2.657547953589e-06 3.877580200424e-05 0.0 
0.0 0.0 -9.674067485877e-06 
-1.292364309074e-04 2.864479089253e-06 0.0 
2.864479089253e-06 8.498544276161e-04 0.0 
0.0 0.0 -1.284404431535e-04 
-1.837715794025e-05 -4.476436000323e-06 0.0 
-4.476436000323e-06 8.791465953263e-05 0.0 
0.0 0.0 -1.834574975625e-05 
-1.906256035079e-04 -2.900280215013e-06 0.0 
-2.900280215013e-06 1.276520367600e-03 0.0 
0.0 0.0 -1.895571240875e-04 
-1.101124519025e-04 -2.003731999075e-06 0.0 
-2.003731999075e-06 7.232878293546e-04 0.0 
0.0 0.0 -1.101665449339e-04 
-8.324861204494e-05 -5.744890109580e-06 0.0 
-5.744890109580e-06 5.692366340431e-04 0.0 
0.0 0.0 -8.790306122449e-05 
-8.930212876051e-05 1.144359831531e-06 0.0 
1.144359831531e-06 5.794802677978e-04 0.0 
0.0 0.0 -8.900000000000e-05 
-9.352423002678e-05 -5.224443985984e-06 0.0 
-5.224443985984e-06 6.401887908398e-04 0.0 
0.0 0.0 -9.787877878422e-05 
-1.009998970260e-04 5.583373135514e-06 0.0 
5.583373135514e-06 6.372022866514e-04 0.0 
0.0 0.0 -9.900000000000e-05 

SCALARS node_materi_plasti_kappa_shear float
LOOKUP_TABLE default
1.731369050501e-05
4.545550431279e-04
8.879540853347e-04
8.885778472785e-04
4.289921439406e-05
9.327668990988e-05
1.307750198866e-04
1.795624514288e-04
2.257201379956e-04
2.695509172566e-04
3.144422750007e-04
3.602182894153e-04
4.054873038985e-04
4.525148308088e-04
5.038541824835e-04
5.495995247736e-04
5.862111262393e-04
6.342650658053e-04
6.814841447557e-04
7.273130426229e-04
7.742201728224e-04
8.215906888973e-04
8.669064806701e-04
8.898091793777e-04
8.888004860446e-04
8.881476431534e-04
8.886611550675e-04
8.873292207379e-04
8.873796625285e-04
8.877145688059e-04
8.882991997087e-04
8.891081577287e-04
8.895674516381e-04
8.882569121584e-04
8.886773248083e-04
8.897614672626e-04
8.893270601288e-04
8.879317372578e-04
8.867155421259e-04
8.860750537291e-04
8.875036930769e-04
8.888199397314e-04
8.889528056051e-04
8.891193998000e-04
8.889269682470e-04
8.885711942667e-04
8.881774963459e-04
8.893558715016e-04
8.892926716100e-04
8.896475655307e-04
8.895391621796e-04
8.902345752378e-04
8.910618100376e-04
8.908268286946e-04
8.883017444199e-04
8.870033247228e-04
8.889101297818e-04
8.887178507321e-04
8.889749525521e-04
8.891814831339e-04
8.887055024058e-04
8.873576980910e-04
8.876113339264e-04
8.880420548052e-04
8.897938021992e-04
8.907165225604e-04
8.860205656141e-04
8.893069775074e-04
8.887535151655e-04
8.885180406596e-04
8.909163501420e-04
8.913403494152e-04
4.970460226215e-04
5.465414378926e-04
5.921313660911e-04
6.364287587029e-04
6.825537522220e-04
7.278134995944e-04
7.735342273327e-04
8.173136017165e-04
8.659377019958e-04
1.387818063272e-05
4.539930109995e-04
5.438054036256e-05
1.009772649362e-04
1.470854780186e-04
1.881787348830e-04
2.342110044356e-04
2.805023773078e-04
3.270022495898e-04
3.713308089837e-04
4.033178026184e-04
3.792977992185e-04
4.060157178949e-04
4.461572723987e-04
4.482375507592e-04
4.489251939510e-04
4.482810220245e-04
4.560054951225e-04
4.490487455221e-04
4.479848053994e-04
4.491487522400e-04
4.505166080725e-04
4.507339705437e-04
4.500429840668e-04
4.496777136800e-04
4.491474461797e-04
4.502737102712e-04
1.443236451681e-05
1.609184950887e-05
1.444777850682e-05
1.445196928896e-05
1.742545827470e-05
1.883427368882e-05
1.852391460304e-05
1.764215548380e-05
1.771561269883e-05
1.733046749832e-05
1.810073159381e-05
2.048990176091e-05
1.919122443325e-05
1.606222747872e-05
1.631184331598e-05
1.838276961406e-05
1.899682157401e-05
1.674761483558e-05
1.515472777583e-05
3.898112339746e-04
3.863704823682e-04
3.857371809847e-04
3.859395172350e-04
3.857534637303e-04
3.859947494128e-04
3.862141761599e-04
3.862908680567e-04
3.858229931925e-04
3.863107865297e-04
3.865649979464e-04
3.863631637219e-04
3.865407614721e-04
3.856321443612e-04
3.859975476389e-04
3.853391939379e-04
3.660987281830e-04
3.956894430432e-04
4.084843113251e-04
4.060961241034e-04
4.055043726269e-04
4.058070391746e-04
4.060008361141e-04
4.054675210445e-04
4.054158394705e-04
4.054705070724e-04
4.053661824669e-04
4.051783298876e-04
4.050677983318e-04
4.054138231738e-04
4.048987951044e-04
4.060536754366e-04
4.085853059390e-04
3.439412955423e-05
7.855211595374e-05
1.235371244525e-04
1.701785260397e-04
2.135457077895e-04
2.587899329113e-04
3.042620563587e-04
3.496733626300e-04
3.823052700951e-04
4.292533059372e-04
1.065540971725e-04
8.722366970816e-04
3.071877777411e-05
2.955753103127e-05
8.728796448070e-04
1.993419400918e-04
4.786993620079e-04
8.715410235368e-04
2.838574358308e-04
8.733046452918e-04
3.784478368563e-04
8.750925786310e-04
2.796371051266e-05
8.736269387388e-04
4.733271556655e-04
2.936877367691e-04
6.035474916514e-04
8.717572086584e-04
8.738199405046e-04
8.737494710065e-04
8.696287808285e-04
8.750806370792e-04
4.919558859900e-04
4.918398764199e-04
4.949307231399e-04
6.589482462508e-04
8.738674271820e-04
2.813705699443e-05
3.195365789908e-05
7.486411905949e-04
4.900146372998e-04
1.541367175474e-04
8.655890379535e-04
8.755682138923e-04
8.730973644309e-04
8.703784410466e-04
8.740973276145e-04
3.187356296986e-05
4.907091952207e-04
8.662583448289e-04
7.508115515426e-04
3.074176072344e-05
3.834518994422e-04
8.815314034000e-04
2.457863140164e-04
1.527805289882e-04
3.313833785311e-04
4.244970235113e-04
5.636808983146e-05
5.718052096935e-04
8.819662471530e-04
3.001251584579e-05
8.373343036417e-04
4.924452570696e-04
5.108818745462e-04
5.332387487364e-04
5.560142054344e-04
5.787643014481e-04
5.991259251811e-04
5.752635265182e-04
6.186942134972e-04
5.944516730932e-04
6.231926228760e-04
6.380835551574e-04
6.135840024034e-04
6.573144048118e-04
6.328089844586e-04
5.894129404994e-04
6.085043193505e-04
5.651248587261e-04
5.842235601993e-04
6.277370129424e-04
6.033008816137e-04
5.598285256637e-04
5.787470750074e-04
5.354343962972e-04
5.543066005167e-04
5.109771159406e-04
5.298843866556e-04
5.732568666387e-04
5.488106401567e-04
5.054467442157e-04
5.243830125588e-04
4.810781478793e-04
4.998224426771e-04
5.432974154275e-04
5.187745459682e-04
4.750268661506e-04
4.942061513858e-04
4.503195040673e-04
4.696890934292e-04
4.255957344176e-04
4.448505048632e-04
4.889334273357e-04
4.641717549476e-04
4.199472596373e-04
4.391094936345e-04
4.834394634788e-04
4.583112576687e-04
5.027462790146e-04
4.776197235482e-04
4.333642288832e-04
4.526081348578e-04
4.969211450957e-04
4.717210733978e-04
4.275809977385e-04
4.467222286567e-04
4.910180813087e-04
4.658552900682e-04
4.216677957086e-04
4.408729284411e-04
4.853895838457e-04
4.600318407553e-04
4.156094397672e-04
4.346988666159e-04
4.795014301536e-04
4.538188443789e-04
4.989809666093e-04
4.088754149089e-04
4.280167623937e-04
3.828819013324e-04
4.021805478246e-04
5.624042399684e-04
3.568746175437e-04
3.381624883378e-04
3.763715402787e-04
4.219792148569e-04
3.309364607346e-04
3.505799184385e-04
3.052633941202e-04
4.056941669208e-04
6.469586485139e-04
3.250320809889e-04
2.796631607038e-04
2.599302819126e-04
2.342013255709e-04
6.036748186582e-04
6.482174305303e-04
6.269535787043e-04
6.731337752938e-04
6.527067380216e-04
2.538439629180e-04
6.821261244064e-04
6.930466000945e-04
5.166862193674e-04
4.621843229341e-04
5.278976428177e-04
3.703184973448e-04
3.451321418538e-04
3.906862459586e-04
5.246371866953e-04
5.443146240762e-04
5.699547953913e-04
5.897069522285e-04
6.153672919097e-04
6.351883362805e-04
6.094609170451e-04
6.550126832139e-04
6.292102542344e-04
6.608318434088e-04
6.410047653727e-04
6.747478106556e-04
6.489569127364e-04
6.944404496434e-04
6.686255413523e-04
6.230894205853e-04
6.427296395524e-04
5.974326100299e-04
5.473118415211e-04
5.725790691740e-04
5.920079111204e-04
6.173889614791e-04
6.368362109388e-04
6.623309645012e-04
6.816599341203e-04
6.563140336921e-04
6.764880034757e-04
3.948980065668e-04
3.757422617964e-04
3.507921955189e-04
3.317100384563e-04
3.067998146490e-04
2.878591714287e-04
2.628952814348e-04
2.817770972622e-04
2.377365497028e-04
2.565509120403e-04
2.123913595215e-04
2.311386405196e-04
5.922576399657e-04
6.427827676104e-04
6.878682679612e-04
6.678822000469e-04
2.148067718258e-04
6.882180801932e-04
6.864985118878e-04
6.664359755593e-04
7.013124766121e-04
2.087760264216e-04
2.441964081010e-04
2.687157839923e-04
6.978563593589e-04
6.772610625539e-04
7.121601343833e-04
2.283568469402e-04
7.006628053783e-04
1.937776703377e-04
6.622880887680e-04
7.078272471647e-04
5.837558227301e-04
7.131417687538e-04
6.924127382572e-04
2.759772220359e-04
2.508908842006e-04
2.067202652783e-04
2.273131006144e-04
2.708850174899e-04
2.448672349258e-04
1.998980645288e-04
2.191272268305e-04
2.639108306055e-04
2.381925193768e-04
1.928266391849e-04
2.123220651939e-04
7.337275495344e-04
1.682265145296e-04
5.462050413710e-04
7.318865140830e-04
7.261568958084e-04
7.225832230558e-04
7.021288971226e-04
6.565124913041e-04
6.819655065462e-04
7.275032532752e-04
7.072262295564e-04
6.616628008332e-04
6.865235503483e-04
6.407465733666e-04
6.657182290584e-04
7.113460086993e-04
6.908411643582e-04
6.453255735266e-04
6.702622678794e-04
6.246789880058e-04
6.489319520512e-04
6.952190037192e-04
1.840273521277e-04
6.759567359458e-04
7.214607443990e-04
3.679720332759e-04
4.092817550487e-04
4.360686121869e-04
4.564588720529e-04
6.740705970757e-04
7.205777350965e-04
2.252804046805e-04
2.496360743898e-04
7.429139095365e-04
6.823424879044e-04
6.366049028177e-04
4.378451378818e-04
4.188880438556e-04
3.943752891281e-04
3.748640538969e-04
4.003452629813e-04
3.498940421147e-04
6.207438251872e-04
7.364909888472e-04
2.405871186206e-04
1.954370079604e-04
7.282805554458e-04
6.308606560243e-04
6.167686675708e-04
6.359024740526e-04
6.606418547102e-04
6.798245018957e-04
7.048195630290e-04
7.239151784800e-04
6.995250348688e-04
7.376440826471e-04
7.439657402355e-04
6.261993285558e-04
6.226819723499e-04
2.832721408126e-04
1.644730842850e-04
1.669301588230e-04
2.020973455329e-04
2.478170423544e-04
7.577119654081e-04
7.492733009352e-04
7.294398050137e-04
3.569060949549e-04
3.819409900850e-04
7.577870500628e-04
6.069742862614e-04
6.160208837846e-04
5.947078797033e-04
1.502552835390e-04
1.472236624068e-04
7.528104372185e-04
2.930236053531e-04
2.739490413792e-04
1.500905215988e-04
1.240537225359e-04
6.973593058681e-04
7.439041173789e-04
4.813505419260e-04
5.017144862584e-04
7.379119109570e-04
1.870277448814e-04
7.663141417339e-04
6.508032487137e-04
6.054849935165e-04
4.293291398523e-04
2.069471688254e-04
1.825426121622e-04
3.087667916428e-04
2.317056376954e-04
2.217281548421e-04
7.833146767017e-04
7.725249111761e-04
7.195048383756e-04
6.747855449436e-04
7.634484368176e-04
1.418552388890e-04
7.784896772250e-04
7.030108063973e-04
7.725824598691e-04
7.540604595901e-04
3.171474948001e-04
2.987852970653e-04
2.558668176592e-04
2.815832131691e-04
5.513698858348e-04
3.420076733765e-04
5.219255427951e-04
5.030668813377e-04
4.792452590639e-04
4.247335201093e-04
4.063236056300e-04
3.563244576484e-04
5.530404887445e-04
4.617109805981e-04
5.777394579271e-04
5.501611182387e-04
7.566237315057e-04
7.823745579098e-04
5.997434588477e-04
5.780237946273e-04
1.697495562144e-04
1.508805515530e-04
5.186529117619e-04
7.516991623626e-04
7.672690893153e-04
7.876001356161e-04
7.626509320592e-04
7.627778325953e-04
3.699499845101e-04
5.666666454918e-04
1.438245311811e-04
5.868006376027e-04
1.247175489974e-04
6.713548583210e-04
7.483917891977e-04
7.736774679398e-04
7.821572245300e-04
4.899015071153e-04
6.061770746779e-04
5.817931729753e-04
4.605724853742e-04
4.370223372958e-04
4.552736079605e-04
4.133656439147e-04
3.276923247088e-04
3.020339028758e-04
7.979659689173e-04
7.883460447530e-04
7.982408092042e-04
7.795524967648e-04
8.013069214063e-04
7.771428291274e-04
2.665794004092e-04
3.640873967819e-04
7.971681631113e-04
4.838853975756e-04
7.968536680471e-04
7.720983615569e-04
9.810668217613e-05
1.158569237012e-04
7.915840785144e-04
2.380574401883e-04
2.618006099049e-04
2.132008951495e-04
8.415052523991e-04
4.886663809025e-04
7.934056144555e-04
4.492884086887e-04
8.130387548701e-04
6.261760504981e-04
4.125814814439e-04
7.178732318399e-04
7.666642762268e-04
8.185709815988e-04
5.696834584242e-04
5.469719599133e-04
5.897324846543e-04
1.746640571462e-04
1.267235960322e-04
7.616042996353e-04
3.196076646027e-04
3.449992437643e-04
2.048866664362e-04
2.493062780569e-04
5.070116633323e-04
4.873520815403e-04
6.908734956118e-04
7.154878992920e-04
6.414340301825e-04
6.254037858679e-04
5.801902790572e-04
5.606256376154e-04
8.012681753723e-04
8.329963825512e-04
3.530470634913e-04
3.340524441574e-04
3.460614324759e-04
8.175524335045e-04
8.195011765416e-04
7.988609115481e-04
1.072300634752e-04
1.330632502214e-04
1.652810804939e-04
1.397493906304e-04
8.060647275400e-04
7.832275887001e-04
8.359053686964e-04
2.373558503067e-04
6.948259004067e-04
8.063839968108e-04
7.881231808626e-04
8.339301416530e-04
7.615215817857e-04
8.048887775842e-04
8.067360300635e-04
8.088210451328e-05
8.001969768968e-04
5.513628864854e-04
5.991210265794e-05
5.303750343771e-04
5.575493484435e-04
5.056018791105e-04
1.923253731113e-04
5.350945061517e-04
5.648908884563e-04
7.689491788832e-05
8.408831798945e-04
8.340401133038e-05
9.990498025281e-05
8.174634215095e-04
7.911886027123e-04
8.358366351121e-04
8.088717682168e-04
7.649515697637e-04
7.857574983214e-04
5.264350640623e-04
8.358546589261e-04
8.061222461894e-04
8.605711697752e-04
3.958089654574e-04
3.059852068258e-04
2.858172523062e-04
2.426109781750e-04
8.296191495191e-04
8.022538523192e-04
7.244602053986e-04
6.782170569491e-04
5.336023792134e-04
5.298854478295e-04
5.720377334188e-04
5.651841783924e-04
6.088002111604e-04
6.018654128492e-04
6.443068834977e-04
8.334708182106e-04
1.951336418689e-04
4.420082584188e-04
8.207982746555e-04
7.940700745776e-04
3.881584802577e-04
3.471998577605e-04
8.305993334525e-04
3.609425281377e-04
8.689143425974e-04
2.787060135920e-05
7.286647819476e-05
3.859558184678e-04
4.309545412117e-04
3.298825060451e-04
3.137520652761e-04
6.714664482733e-04
1.125731627303e-04
1.894537224626e-04
6.501544121412e-04
1.477430287242e-04
7.019854955118e-04
3.810844111669e-04
4.677711350311e-04
2.313148587081e-04
3.252238421852e-04
5.703579268460e-04
5.324043867603e-04
5.086674172278e-04
4.006419728863e-04
3.391204703335e-04
2.923835719857e-04
5.408511218791e-04
7.379651171000e-04
7.579706773122e-04
8.011548755258e-04
7.780826984350e-04
7.332840892905e-04
7.526479975871e-04
7.971803115054e-04
7.735197813417e-04
8.262472905690e-04
7.929598925790e-04
7.470527542953e-04
7.659248830045e-04
8.091032939205e-04
7.211619544472e-04
8.442167902149e-04
4.306865788467e-04
1.044765289972e-04
9.827683643382e-05
4.923540219683e-04
8.714790847239e-04
8.731736799155e-04
3.123792524490e-04
8.729287150019e-04
5.272649318487e-04
2.191398239417e-04
8.732031985157e-04
7.130087249815e-04
6.877858420163e-04
6.679067510146e-04
8.747254954737e-04
6.109742344751e-04
8.755701857100e-04
5.978551322893e-04
5.777687862342e-04
5.331862976259e-04
7.271016044260e-04
8.726832412974e-04
8.363453721647e-04
8.357287884966e-04
7.967949130083e-04
8.729311769592e-04
8.746048210340e-04
8.757603934564e-04
2.896480078818e-04
3.151536061377e-04
3.591713235696e-04
3.399576539233e-04
2.956226792121e-04
3.205301867894e-04
3.646701735677e-04
3.009725532030e-04
7.593675824400e-04
8.745186206881e-04
5.955179239956e-04
5.752952465899e-04
5.302262826699e-04
4.419860638094e-04
4.675978432361e-04
5.129738354448e-04
4.164548397465e-04
6.551879346242e-04
8.741019856414e-04
5.859901048920e-04
4.476603996913e-04
4.915230817815e-04
5.309240068605e-04
5.323700613709e-04
5.736894063965e-04
5.351590388547e-04
5.269854541203e-04
5.469085242661e-04
5.219164243980e-04
5.664660482549e-04
5.401131126200e-04
4.979524260253e-04
5.848853311671e-04
5.569185072007e-04
4.906420102381e-04
3.170448400110e-05
6.995385727615e-05
6.849074955060e-05
1.073511835087e-04
1.105991917856e-04
1.504731351132e-04
1.458387750102e-04
7.076324639262e-05
3.090762372850e-05
6.811155019588e-05
3.024275800373e-05
6.701952661023e-05
1.132561805515e-04
1.774278331148e-04
8.683268420300e-04
4.289563965157e-04
4.087467011713e-04
3.620022030676e-04
3.871398276738e-04
4.468882401977e-04
3.382483447187e-04
3.227666928477e-04
3.186373403238e-05
6.968070788243e-05
6.930431433067e-05
1.103830641038e-04
1.084283513711e-04
6.955844240917e-05
6.957251263225e-05
3.087829288754e-05
6.916668823128e-05
1.092093195758e-04
2.860096868461e-05
7.056820037004e-04
7.299566898429e-04
8.725577123160e-04
4.959692094609e-04
3.091218048916e-05
8.671852048698e-04
8.733432179252e-04
8.734531321064e-04
7.957971286484e-04
8.182028176353e-04
8.680808008300e-04
2.856246407715e-04
8.221505899075e-04
7.867365561803e-04
2.006879828875e-04
2.760157267466e-04
6.570374827172e-04
6.034788526751e-04
7.534404223277e-04
6.171445062617e-04
7.141191166494e-04
8.333331487220e-04
1.769391207037e-04
6.197356729893e-04
6.031369019689e-04
7.159815276405e-04
2.996957630434e-04
4.779314782196e-04
1.896480084331e-04
8.372249201877e-04
4.978685116583e-04
5.049912460344e-04
3.962534712183e-04
3.116673154321e-04
2.575495564398e-04
4.563132910929e-04
4.733113038568e-04
6.807420950213e-04
7.412727405057e-04
3.900894407946e-05
7.062809791721e-04
5.640134143322e-04
6.366157628327e-04
7.072992914154e-04
1.751116105001e-04
7.321461800821e-04
8.104970881191e-04
5.847505123753e-04
1.450668962481e-04
5.736378135269e-04
8.027337595558e-04
7.180376744355e-04
2.736317130801e-04
5.220914710743e-04
4.865818052908e-04
4.471177866968e-04
8.063363278817e-04
5.378993798996e-04
7.470022916029e-04
6.114026488664e-04
2.939212611736e-04
7.463767332910e-04
5.084976424556e-04
7.777626792266e-04
6.854084072495e-04
4.140791467985e-04
7.471678807683e-04
5.103813785756e-04
7.329713830172e-04
4.737289604077e-04
5.977356866437e-04
6.519892618683e-04
5.678021419543e-04
6.319192717496e-04
7.264774776897e-04
1.875624189713e-04
3.688310981205e-04
6.314501505079e-04
7.672682440834e-04
8.229065015772e-04
4.434680652511e-04
7.201561125460e-04
7.914028017314e-04
4.930979507901e-04
2.040260336769e-04
1.581177402907e-04
3.258736548738e-04
5.134927945261e-04
5.384299011222e-04
8.328361271424e-04
7.396786737532e-04
6.920128991829e-04
8.196000574170e-05
4.652440764187e-04
7.595631118993e-04
5.413940581115e-04
7.514691837904e-04
5.124079232766e-04
8.363223980306e-04
3.713304271161e-04
7.809543171496e-04
6.971423152539e-04
3.367042725643e-04
4.902204304360e-04
8.332513049422e-04
7.429330284218e-04
6.113513461743e-04
5.161141755974e-04
4.006034501526e-04
5.581912762765e-04
6.223072189553e-04
8.752979443997e-04
7.659203639431e-04
6.426709006855e-04
5.325586862055e-04
6.468672484863e-04
1.073528278852e-04
4.189303666797e-04
5.523127417924e-04
3.452338039030e-04
5.354806018552e-04
8.261173123730e-04
5.721454322879e-04
3.892915712256e-04
5.917818965200e-04
3.539736687271e-04
6.627781278346e-04
6.108539446376e-04
6.660506999495e-04
1.163652973912e-04
6.305577701447e-04
7.706780509162e-04
3.642601618824e-04
5.551389630622e-04
7.078379568633e-04
3.068275794996e-04
6.002627334512e-04
7.101300016245e-04
6.503083964526e-04
5.576201452771e-04
6.459702225838e-04
3.237473504565e-04
2.667167922262e-04
2.221184360012e-04
4.085364404529e-04
7.352038309621e-04
1.486189434307e-04
7.017840156360e-04
1.592352416656e-04
3.838129177836e-04
7.166805507109e-04
6.173636955304e-04
4.028477991316e-04
2.492989866975e-04
3.779520455053e-04
6.018674573376e-04
3.968794592392e-04
3.716672737304e-04
8.329159667528e-04
3.902334651909e-04
8.748882416506e-04
8.711247298713e-04
5.265534076551e-04
2.606176973493e-04
3.608218628589e-05
2.743663405466e-04
3.201182020186e-04
6.958586502564e-04
5.269760115519e-04
2.937831755636e-04
8.369611183303e-04
8.745831491043e-04
6.824073644152e-04
7.692285890477e-04
6.715862034514e-04
7.913186766419e-04
4.873605112046e-04
6.716351408429e-05
6.550406917342e-04
2.121979415798e-04
2.182245527634e-04
1.712289286332e-04
3.107224161433e-04
1.057301483358e-04
1.752557479945e-04
8.331013379116e-04
5.272790897640e-04
7.395202468706e-04
1.285853407158e-04
8.358234000511e-04
8.354665319098e-04
8.757509275415e-04
7.846429612782e-04
1.241570316100e-04
5.651773772313e-04
8.374854402620e-04
7.189201776621e-04
8.774612593526e-04
5.201256590730e-04
8.377629979176e-04
1.628222754370e-04
8.372912793325e-04
7.405810874684e-04
5.837048570091e-04
5.629391932634e-04
8.390585364860e-04
8.374355334258e-04
9.795501197395e-05
6.799231894058e-04
3.879757720191e-04
6.464184088928e-05
8.366012277656e-04
7.827055704325e-04
8.377349647591e-04
1.105757531249e-04
6.604595936870e-05
8.445536335797e-04
8.418018754541e-04
1.845877810614e-04
8.826549608500e-04
6.138757031093e-05
4.804799717199e-04
6.556100966196e-05
8.765991424528e-04
8.406352288090e-04
4.268003565694e-04
4.929667183317e-04
2.809817149082e-04
8.054666026434e-04
9.866382460825e-05
8.462920394623e-04
8.466481683937e-04
8.459200057126e-04
8.848347209821e-04
6.317410965350e-05
8.478579638221e-04
8.049072796093e-04
4.880930937126e-04
8.381519655460e-04
3.464907722736e-04
1.453132550396e-04
8.782340449193e-04
2.788672853684e-05
4.852288266984e-04
8.800271141742e-04
1.366420641944e-04
5.591160485790e-04
8.434724703118e-04
5.260519714094e-04
7.639465125205e-04
1.346350386641e-04
2.489926233996e-05
6.405845470091e-04
8.434966522637e-04
8.489495605041e-04
6.092101199237e-04
1.233072216686e-04
8.180905916336e-04
4.606593074043e-04
8.111203909914e-04
8.066949311417e-04
3.153365254742e-05
5.661385301693e-04
6.389298898293e-05
8.469003976225e-04
4.815533645814e-04
3.782594336362e-04
3.879906112582e-04
4.250700443092e-04
4.273709822799e-04

SCALARS node_materi_plasti_phimob float
LOOKUP_TABLE default
1.842994287157e+01
-1.063991132074e+01
2.062372042250e+01
1.833708524262e+01
-3.077832448113e+01
-5.138921271748e+00
5.240295671381e+00
1.124007124944e+01
1.477229096589e+01
1.691779265907e+01
1.844555748745e+01
1.956414596866e+01
2.034623560727e+01
2.093470411337e+01
2.135852681961e+01
2.152524443194e+01
2.156776432297e+01
2.160975393985e+01
2.154658671767e+01
2.142151140418e+01
2.125554855091e+01
2.104809415037e+01
2.082617596884e+01
1.838222317313e+01
1.837288720501e+01
1.839110456823e+01
1.841282969530e+01
1.841142428862e+01
1.846265848465e+01
1.850261298369e+01
1.857767652483e+01
1.867072225826e+01
1.877491621324e+01
1.886266789152e+01
1.902835430498e+01
1.919210370852e+01
1.938942037188e+01
1.956056737431e+01
1.984078666610e+01
2.007337521783e+01
2.029959420614e+01
2.057586993337e+01
2.080577405259e+01
2.098498011475e+01
2.108031290015e+01
2.119167167606e+01
2.124661917020e+01
2.126800077876e+01
2.126123759638e+01
2.126152359532e+01
2.121984145428e+01
2.118737987259e+01
2.110657105644e+01
2.109426185174e+01
2.104284041887e+01
2.097845885867e+01
2.092869473290e+01
2.088421933563e+01
2.083685980487e+01
2.080384795742e+01
2.077100085164e+01
2.074430641333e+01
2.072604839789e+01
2.069017046273e+01
2.065658795471e+01
2.064172389748e+01
2.067815551583e+01
2.061504130361e+01
2.062337735161e+01
2.060346664872e+01
2.060048982762e+01
2.060433844368e+01
7.885151367303e-02
5.873352900530e+00
9.436806587288e+00
1.184272136997e+01
1.366335293905e+01
1.504954727818e+01
1.617340316636e+01
1.709895993590e+01
1.788253418814e+01
-2.896032406870e+01
-6.969938992399e+00
-6.093127954187e+00
2.945617873973e+00
6.485360155722e+00
7.406381353654e+00
7.202370368233e+00
6.888733380558e+00
6.508386922245e+00
-1.539229726721e+00
-1.332820127669e+01
-3.522297638622e+01
-2.754008454546e+01
-1.290930236383e+01
-1.227000346966e+01
-1.220107797839e+01
-1.231076655423e+01
-1.064621960955e+01
-1.220376077789e+01
-1.234727767235e+01
-1.226730897256e+01
-1.208823791711e+01
-1.212760587322e+01
-1.220963505080e+01
-1.220416326778e+01
-1.163456327395e+01
-1.013316876556e+01
-3.047543308218e+01
-2.713751005710e+01
-2.647241958137e+01
-2.905921950256e+01
-3.366564215930e+01
-3.734874274493e+01
-4.129078673247e+01
-4.552678599568e+01
-4.985211838067e+01
-5.389361276189e+01
-5.731886096293e+01
-5.726195300275e+01
-5.850362003591e+01
-6.106718494705e+01
-6.075106465798e+01
-5.982408047729e+01
-5.964824254742e+01
-6.098212198596e+01
-1.125001720202e+01
-3.584673906060e+01
-3.652145288389e+01
-3.656979054325e+01
-3.675881935875e+01
-3.702335434154e+01
-3.753902743811e+01
-3.816636179324e+01
-3.894967660428e+01
-3.977071875805e+01
-4.085230166735e+01
-4.192287489586e+01
-4.276182119792e+01
-4.325605887189e+01
-4.283303968709e+01
-4.040067911782e+01
-3.459763000554e+01
-2.164750674155e+01
-2.331960972364e+01
-2.443267392652e+01
-2.798815414014e+01
-2.898611804051e+01
-2.918137698540e+01
-2.907313100187e+01
-2.887916233654e+01
-2.866989946969e+01
-2.841456967745e+01
-2.821824397455e+01
-2.805601390608e+01
-2.794369343127e+01
-2.785236915740e+01
-2.787365073725e+01
-2.792095943040e+01
-2.803859680701e+01
-1.698724424579e+01
-4.319820126310e-01
5.026694284734e+00
7.053397885846e+00
8.778132730608e+00
8.333595147060e+00
6.652885867817e+00
6.293074687318e+00
-8.589558794931e+00
-9.295415659752e+00
-1.703557958668e+00
2.128085450216e+01
-3.752385369005e+01
-2.966003069388e+01
2.103909671961e+01
6.337391548373e+00
2.118254572551e+01
2.145583801483e+01
8.539276247094e+00
2.136572326918e+01
6.011240415474e+00
2.085086403945e+01
-4.138103797684e+01
2.077675358871e+01
-5.340705579353e-01
1.781610256163e+01
2.162295482976e+01
1.981856495615e+01
1.876907372831e+01
1.807682252352e+01
1.807640257436e+01
1.839752575441e+01
-1.103243215857e+00
-1.643268412163e+00
-1.027251130826e+00
1.281958242839e+01
2.080230679825e+01
-2.909013777487e+01
-3.922838194308e+01
2.134989712218e+01
-1.666957440526e+00
8.641237082595e+00
1.910595590495e+01
2.144255523515e+01
2.115287644066e+01
2.143730450754e+01
2.115916922368e+01
-3.163895336094e+01
-1.932456607426e+00
2.100876434959e+01
1.562605713761e+01
-3.958986364006e+01
2.001313221524e+01
1.816169752690e+01
7.898055165778e+00
3.869053091490e+00
8.425228143796e+00
-1.768619743459e+00
-1.419077338283e+01
8.092641193164e+00
2.074414774831e+01
-4.079698300005e+01
1.746532159824e+01
1.358204598938e+00
5.113538403199e+00
5.934353947648e+00
9.014060930006e+00
9.713616929795e+00
1.160897936995e+01
1.123300766414e+01
1.321859194964e+01
1.305843922304e+01
1.215404786721e+01
1.458483424211e+01
1.454013477522e+01
1.572949040009e+01
1.574321661403e+01
1.461481640744e+01
1.583419122242e+01
1.476552685255e+01
1.622265371634e+01
1.701041285922e+01
1.769360223863e+01
1.707078104497e+01
1.848397422772e+01
1.797609493215e+01
1.925669242454e+01
1.880822426845e+01
1.997542604904e+01
2.027431643063e+01
2.090165863480e+01
2.061614197551e+01
2.145799285915e+01
2.114455164045e+01
2.191441549819e+01
2.210102090547e+01
2.249543561036e+01
2.225592691066e+01
2.279262540781e+01
2.247227896739e+01
2.297459629205e+01
2.253581507523e+01
2.302217931564e+01
2.330759008044e+01
2.334034909433e+01
2.292438008562e+01
2.324066831673e+01
2.352673300906e+01
2.342427318361e+01
2.360708736073e+01
2.350282961164e+01
2.319984288292e+01
2.328944360706e+01
2.349922794517e+01
2.329808488964e+01
2.296201564764e+01
2.299535106899e+01
2.324742689482e+01
2.296898486681e+01
2.258914077127e+01
2.260243081695e+01
2.290138241904e+01
2.257228516316e+01
2.214084849906e+01
2.216032382782e+01
2.251329058759e+01
2.214803805095e+01
2.243221853435e+01
2.165922263781e+01
2.171044003999e+01
2.106312557835e+01
2.119358330443e+01
2.257420959796e+01
2.037004463221e+01
2.009828852310e+01
2.059811260270e+01
2.129449824505e+01
1.957899907181e+01
1.991767356458e+01
1.867463095461e+01
2.182951266062e+01
1.827466516507e+01
1.914521106208e+01
1.763916381088e+01
1.686954306798e+01
1.542234254300e+01
1.064193403739e+01
1.279882716680e+01
1.146389220130e+01
1.347164598776e+01
1.240917708127e+01
1.641494153839e+01
1.581337684236e+01
1.446632744447e+01
1.636295576241e+01
2.014301595932e+01
2.360972428469e+01
2.019357621765e+01
1.953493419499e+01
2.044168933288e+01
2.268856301350e+01
2.255739491304e+01
2.272367113168e+01
2.255673659075e+01
2.264775470413e+01
2.245725628499e+01
2.238882909044e+01
2.226961574967e+01
2.222357085597e+01
2.248494126634e+01
2.269509454408e+01
2.208681922736e+01
2.206274082153e+01
2.190966103668e+01
2.190773967552e+01
2.200937380256e+01
2.188192019457e+01
2.192949612317e+01
2.362012106076e+01
2.355236815257e+01
2.351178334267e+01
2.339347505102e+01
2.331258090624e+01
2.316014949068e+01
2.304479001581e+01
2.317874517041e+01
1.668806340784e+01
2.267221638008e+01
2.216371431109e+01
2.169676025658e+01
2.089504746121e+01
2.012305728210e+01
1.887106976711e+01
1.764510156857e+01
1.906709090170e+01
1.602121183748e+01
1.767359084828e+01
1.392844375279e+01
1.588164884871e+01
2.107771488944e+01
2.321707711806e+01
2.295898810775e+01
2.298978261680e+01
1.420405371427e+01
2.176066871718e+01
2.247344242695e+01
2.269720081750e+01
2.288141422243e+01
1.371802082516e+01
1.572586094817e+01
1.714946986729e+01
1.414896164860e+01
1.326438072610e+01
2.242045931125e+01
1.497723011584e+01
2.207983080884e+01
1.130581122126e+01
2.176011135561e+01
2.162564755373e+01
2.228026912545e+01
2.272255343454e+01
2.272005952802e+01
1.888267828305e+01
1.736528148124e+01
1.373637689961e+01
1.551882267970e+01
1.850698210112e+01
1.685838872448e+01
1.319613688899e+01
1.487365938129e+01
1.790575442007e+01
1.622502315520e+01
1.236262592274e+01
1.418473461058e+01
2.158534334413e+01
8.019746850832e+00
1.321220364392e+01
2.219021681886e+01
2.271835747498e+01
1.481149383387e+01
1.407037447966e+01
1.234238897598e+01
1.330963519018e+01
1.482752321307e+01
1.417545805343e+01
1.250936912051e+01
1.348620157261e+01
1.163557453648e+01
1.274616548832e+01
1.434847370118e+01
1.371497666860e+01
1.194205057459e+01
1.302126574704e+01
1.102799633503e+01
1.223006129896e+01
1.395242759744e+01
1.164794777832e+01
2.300427366125e+01
2.268146244758e+01
1.992699863274e+01
2.065251186513e+01
2.106741425378e+01
2.115658627246e+01
1.325752024464e+01
1.477126123490e+01
1.319003352028e+01
1.484457219960e+01
1.553335717805e+01
2.165053296375e+01
2.173981897646e+01
2.058266609455e+01
1.933156656143e+01
1.959621084271e+01
1.790769162844e+01
1.772895815718e+01
1.787104489950e+01
2.290420313579e+01
1.511983737673e+01
1.593347376234e+01
1.264997245263e+01
2.150969649539e+01
2.326740712652e+01
2.049556393988e+01
2.119200611130e+01
2.067672678535e+01
2.127088320908e+01
2.083545565373e+01
2.132908651168e+01
2.170832780626e+01
2.245969745608e+01
2.167803140436e+01
1.127545621170e+01
2.320749908688e+01
1.872190281417e+01
9.656604091282e+00
9.236858183346e+00
1.321275186155e+01
1.600883638605e+01
2.209105746658e+01
2.097944063164e+01
2.042950607136e+01
1.587223001508e+01
1.575055800046e+01
2.240197251612e+01
1.012421565835e+01
1.035325222500e+01
9.175539533349e+00
8.194973189724e+00
6.443164511054e+00
1.551921589335e+01
1.816553612705e+01
1.605992735295e+01
4.024032940094e+00
-5.453994661016e-01
1.412139981640e+01
1.544426458603e+01
2.144859558959e+01
2.149513640566e+01
2.232730015144e+01
1.170629453459e+01
1.596370463165e+01
2.308780002829e+01
2.330085790606e+01
2.076423389917e+01
9.991827363154e+00
7.426386905992e+00
1.992037196330e+01
1.560015759340e+01
1.453422320864e+01
2.196337644838e+01
1.606157520158e+01
2.199723231396e+01
2.210180895254e+01
2.186349159062e+01
5.331588121772e+00
2.185901050147e+01
2.155851662965e+01
2.066352915930e+01
2.007888932814e+01
1.886889890006e+01
1.695280776564e+01
1.336491787456e+01
1.444164827729e+01
1.106966683897e+01
1.933305025890e+01
1.348760501326e+01
1.142004546418e+01
1.198360832278e+01
1.723676335441e+01
1.523923507047e+01
2.141805490883e+01
2.352007975987e+01
2.142451410171e+01
2.202870509141e+01
2.288303221457e+01
1.563745537190e+01
1.627499288322e+01
9.582831775514e+00
8.256038722331e+00
1.001941279226e+01
7.427711331683e+00
2.233879051936e+01
2.196693107025e+01
1.606345641737e+01
1.667484660997e+01
1.622429499595e+01
2.220399107196e+01
2.225104886525e+01
2.356272466353e+01
4.084724105051e+00
2.216366539452e+01
3.099482575880e+00
1.773422830166e+01
2.138897147907e+01
2.131506873161e+01
2.216167906076e+01
4.565908631766e+00
2.255276862220e+01
2.290003016962e+01
9.168570802784e+00
1.024738021979e+01
1.313776911012e+01
1.173293075503e+01
2.036469611506e+01
1.933021573861e+01
2.111323441076e+01
2.162890886981e+01
2.046458348821e+01
1.979632183794e+01
2.204609035810e+01
2.229215255825e+01
1.686760692599e+01
1.336168081491e+01
1.662002397953e+01
8.589251813626e+00
2.162187356959e+01
2.174681358426e+01
-6.385794541907e+00
-1.122516390146e+00
1.653336243913e+01
1.005284894858e+01
1.120957081153e+01
8.466172501944e+00
2.091781530972e+01
-1.765624286869e+00
2.117280239988e+01
1.646758870637e+01
1.696046461262e+01
2.280585211004e+01
2.083243922046e+01
2.256539926511e+01
1.599820191954e+01
1.707237974282e+01
7.388919116940e+00
5.535461062204e+00
8.753226746112e+00
7.811826768522e+00
-1.727929658364e+00
1.580335264987e+01
1.881662468539e+01
1.941848164563e+01
1.347271812472e+01
1.662369936950e+01
2.171916167844e+01
2.174114970715e+01
1.882162974296e+01
1.841138073957e+01
1.990551119587e+01
2.311783502149e+01
2.327306375488e+01
2.342342176817e+01
1.670679546431e+01
1.732389878788e+01
2.123156130109e+01
2.091674929116e+01
2.067634738927e+01
1.709511557047e+01
2.109850472784e+01
2.122719027708e+01
-1.511518932320e+00
3.907215108839e+00
3.490612977176e+00
-1.073677832294e-01
1.725502322630e+01
1.689833342176e+01
1.770512999264e+01
1.541560773584e+01
2.232975444539e+01
2.180601731500e+01
2.209011036655e+01
2.151673420027e+01
2.220507479530e+01
2.193503760521e+01
2.168906127119e+01
-1.376184537635e+01
1.676847027293e+01
5.980013319915e+00
-2.138413210385e+01
3.988214355037e+00
6.657826447414e+00
9.542899823200e-01
1.244054941717e+01
4.289226263979e+00
6.951775465230e+00
-1.126362370811e+01
1.756998232166e+01
-8.808359738254e+00
-2.530828348874e+00
2.141245344013e+01
2.153978331334e+01
2.122568292660e+01
2.134347958273e+01
2.163159633102e+01
2.144570459568e+01
3.241332145962e+00
2.111586797020e+01
2.125075390511e+01
2.098751060854e+01
8.461185857890e+00
1.519692790132e+01
1.211513613153e+01
7.865835415592e+00
2.037931848883e+01
1.963082763496e+01
2.145634306946e+01
2.158406181956e+01
4.341634913301e+00
4.179906447271e+00
8.001548295709e+00
7.608651088108e+00
1.037178770649e+01
1.002873302433e+01
1.216519875966e+01
2.150970999666e+01
5.251597341732e+00
5.075744222374e+00
2.190611578976e+01
2.216379011500e+01
1.278394761130e+01
1.049725061875e+01
2.143792941983e+01
2.069727499372e+01
1.815774446078e+01
-2.877142623613e+01
-1.689788797469e+01
2.085255105286e+01
1.433173491855e+01
1.558365914433e+01
1.308260398846e+01
2.288382712235e+01
-2.232782310861e-01
6.375667148972e+00
1.232862003745e+01
3.124899940743e-01
2.149793269022e+01
2.171883641815e+01
1.817576874604e+01
1.193012340885e+01
1.758728038345e+01
1.306555664619e+01
8.513039624376e+00
8.385359282721e+00
2.243522841429e+01
1.337891519802e+01
9.696738127710e+00
1.532424824559e+01
1.579526589433e+01
1.655219371419e+01
1.750431935482e+01
1.724757924359e+01
1.625544958235e+01
1.702205695364e+01
1.787823749662e+01
1.772209899337e+01
1.863846035163e+01
1.836398730197e+01
1.759207202085e+01
1.824215440711e+01
1.899597362827e+01
1.750280368804e+01
2.164579667709e+01
2.175818020034e+01
-6.317033167538e+00
-9.052286162273e+00
1.734297639915e+01
1.952214765819e+01
1.893277637519e+01
1.975236705710e+01
2.096416049327e+01
1.115328736774e+01
1.380063493714e+01
2.126778003671e+01
1.539397352492e+01
1.503603766258e+01
1.396506984326e+01
1.862517457789e+01
1.008803269884e+01
2.142693565457e+01
2.341209264021e+01
2.334778132202e+01
2.339555133793e+01
1.684462925969e+01
2.134665640373e+01
2.173084889305e+01
2.166056040404e+01
2.211192412951e+01
2.123247654623e+01
2.024137025253e+01
2.055957632938e+01
1.931547061632e+01
2.046480393588e+01
2.172053357457e+01
2.136836363532e+01
1.980488043615e+01
2.084002484944e+01
2.207919666292e+01
2.009523387444e+01
1.903192610289e+01
2.111847299471e+01
2.283820364287e+01
2.301974355140e+01
2.302838136969e+01
2.137176429240e+01
2.174775108500e+01
2.201221711545e+01
2.094205302696e+01
2.172171737105e+01
2.106632965789e+01
2.345201883464e+01
2.173786164390e+01
-1.654727168945e+00
4.167339766695e+00
4.796197933708e+00
8.296174159027e+00
4.333690825101e+00
2.170342802313e+01
2.168747109382e+01
2.152650112657e+01
2.166118327196e+01
2.153278554774e+01
2.132961496026e+01
2.162492481780e+01
2.154497678602e+01
-1.883750439395e+00
-3.010606511759e+01
-1.397617661910e+01
-1.416073940390e+01
-1.691149791825e+00
-1.189017788284e+00
6.764062281901e+00
5.658061638748e+00
-1.449933807488e+01
-3.360882363776e+01
-1.406414142827e+01
-3.564535422759e+01
-1.429159327072e+01
-1.071553797142e-01
1.077716018030e+01
2.082590255925e+01
2.067953575472e+01
2.044489360665e+01
1.964976552750e+01
2.014524014808e+01
2.094707779255e+01
1.909598764144e+01
1.869095532619e+01
-3.911775617054e+01
-1.140958622263e+01
-1.324429689363e+01
1.471798264427e+00
1.142327590455e+00
-1.142753305926e+01
-1.167434989932e+01
-3.977387670100e+01
-1.226164861040e+01
1.205800627776e+00
-4.103940089640e+01
1.440780178963e+01
1.512811384417e+01
2.101174921593e+01
-9.799409983702e-01
-3.864156230021e+01
1.793447446769e+01
1.810514270615e+01
1.809436371002e+01
2.115608821439e+01
2.105069200585e+01
1.795741465586e+01
1.809767948910e+01
1.805901122091e+01
1.641392186415e+01
1.094998116728e+01
1.810223819319e+01
2.165807728188e+01
2.214261913107e+01
2.145052386475e+01
2.183438980675e+01
2.174065832154e+01
2.164857352917e+01
1.103894625842e+01
1.066393661111e+01
9.940216634874e+00
1.456190878776e+01
1.828324610870e+01
2.126500962536e+01
1.215810389876e+01
2.107536993712e+01
1.431105089682e+01
2.280584311537e+01
2.078341306747e+01
1.916451161575e+01
1.730131655993e+01
2.153011292502e+01
2.211599251509e+01
2.227987442841e+01
1.531011470851e+01
-3.569916177455e+01
2.225299558356e+01
2.241954169872e+01
1.139129381621e+01
2.286888031723e+01
1.021895523915e+01
1.494715914266e+01
1.709116767379e+01
8.591912783748e+00
6.759874305551e+00
7.768738070366e+00
2.169694003328e+01
1.499232394068e+01
1.723049195499e+01
2.360496159782e+01
1.953927696638e+01
-1.865062621697e+00
1.682339301643e+01
2.290849575465e+01
2.253313867331e+01
2.341231877963e+01
1.792480887713e+01
2.183284326738e+01
2.351340357175e+01
1.614239149290e+01
2.017841083308e+01
2.300431711155e+01
1.545025260903e+01
2.315247090182e+01
2.265204044099e+01
1.547964726627e+01
1.960795853493e+01
1.672067019526e+01
2.162144348160e+01
2.164657020844e+01
2.204036619644e+01
1.131611660260e+01
1.961038541021e+01
1.128142601136e+01
2.137798869572e+01
1.713425278884e+01
1.886265810166e+01
2.188502716456e+01
1.658122720316e+01
2.206910414671e+01
1.344557560440e+01
4.185982773502e+00
2.101589537881e+01
2.315987561546e+01
2.223757918339e+01
1.793175008876e+01
2.169674913930e+01
2.265218452066e+01
-6.811496070784e+00
4.456760517161e+00
2.152220410118e+01
2.353901534190e+01
2.253064934258e+01
2.136294404021e+01
2.127595409022e+01
9.986553963747e+00
2.137524485850e+01
2.280422059835e+01
2.034647610230e+01
-1.571608730365e+00
2.107711090588e+01
2.244906079898e+01
2.169618375468e+01
2.343449996365e+01
3.738725672652e-01
2.213261197027e+01
1.892704109906e+01
1.851261715629e+01
2.230075263660e+01
1.352224696725e+01
2.194671608806e+01
2.294699453710e+01
9.745366407328e-01
6.462374307135e+00
2.188330782269e+01
2.164725087071e+01
2.332541162563e+01
2.185562341171e+01
2.182247653143e+01
2.262041952590e+01
2.176140122094e+01
8.002559744396e+00
1.475573050957e+01
2.169335215665e+01
1.933539217236e+01
1.661909160367e+00
2.215463017088e+01
2.126941017538e+01
2.089797038237e+01
2.318537621600e+01
1.600301999617e+01
8.278546786486e+00
2.309856027493e+01
1.972089672807e+01
2.246744106840e+01
2.318699524984e+01
2.291792183814e+01
1.058725895746e+01
1.741257849761e+01
1.482340462324e+01
2.284675199630e+01
1.932149242438e+01
7.991295587287e+00
1.673054506659e+01
8.355355524225e+00
2.235553843579e+01
2.243683518548e+01
1.087069475307e+01
2.251523099269e+01
1.606274421227e+01
2.194358989128e+01
2.310495422422e+01
2.207653036033e+01
2.144115810507e+01
1.733422718551e+01
2.157482186895e+01
1.805847892744e+01
2.078770409782e+01
3.701806832292e+00
8.406252046357e+00
-2.775041728105e+01
9.620897165602e+00
1.976969116044e+01
1.750183699292e+01
3.902883047261e+00
1.868633823236e+01
1.925200879698e+01
2.140279575312e+01
1.366074483157e+01
2.234444223367e+01
2.264920851544e+01
1.658260945676e+01
-2.167929707331e+00
-1.411009375005e+01
2.159412927697e+01
7.560695609851e+00
6.732113330470e+00
3.188454472829e+00
1.845949682638e+01
-1.680390738250e+00
5.327245678388e+00
2.177584467331e+01
3.589075132071e+00
2.215155125896e+01
1.512198956974e+00
1.753811959258e+01
2.170357852086e+01
2.090551737602e+01
2.195107269951e+01
-3.725011831810e+00
7.402448652606e+00
2.083568388943e+01
1.476678332732e+01
2.081429355573e+01
2.858833188723e+00
1.745489557380e+01
8.253793791773e+00
1.747568690547e+01
1.822832302510e+01
8.740658322209e+00
8.057699709650e+00
2.093459106184e+01
1.858982725807e+01
-9.134510761315e+00
1.354319442224e+01
2.026664574622e+01
-1.810615119364e+01
2.130519772922e+01
1.893061161878e+01
2.101240791498e+01
1.271420184052e+00
-1.529140327134e+01
2.137322343697e+01
2.011654248302e+01
1.116314877460e+01
1.835352712706e+01
-1.862264696162e+01
-3.216611260859e+00
-1.432235490164e+01
2.078510480982e+01
1.749923991592e+01
2.072246351455e+01
-1.073486897354e-02
1.737501725433e+01
2.142021492044e+01
-3.093993145213e+00
1.756962293349e+01
2.147778682144e+01
1.803384933197e+01
2.134515539071e+01
-2.047739868219e+01
2.157952839106e+01
2.197822083467e+01
-2.191842299055e+00
1.823499570571e+01
1.934907403030e+01
7.374563544173e+00
1.813623592517e+01
-1.427587574892e+01
-2.510014252639e+00
2.072213947185e+01
6.579107984310e+00
7.067321818188e+00
1.978039060609e+01
2.143118813416e+01
1.601005964277e+01
4.544644474145e+00
-2.968441830888e+01
1.202110320657e+01
2.171194764769e+01
1.785132780909e+01
1.035405195015e+01
-2.796899192718e+00
1.952628073733e+01
2.101974011007e+01
2.084908137764e+01
2.204476740672e+01
-2.386499431310e+01
2.157170483673e+01
-1.615641508148e+01
2.109973762352e+01
2.119978660459e+01
-2.378047674046e+01
-3.422148950039e+01
-1.362124877697e+01
-1.978918537596e+01

SCALARS node_materi_stress_average_a_sig float
LOOKUP_TABLE default
-4.948142310295e+00
-2.996315987808e+01
-2.357208331730e+02
-1.428394906449e+02
-1.215360216660e+01
-2.365552271005e+01
-3.444934689388e+01
-4.687724000231e+01
-5.871125663592e+01
-7.050601014772e+01
-8.227444084092e+01
-9.403684720001e+01
-1.058666450894e+02
-1.178215217809e+02
-1.301193473092e+02
-1.422517856531e+02
-1.534041338800e+02
-1.656092771195e+02
-1.782639894294e+02
-1.906371598658e+02
-2.031695367632e+02
-2.158910594531e+02
-2.280869448449e+02
-1.435000769555e+02
-1.428468418374e+02
-1.431017772565e+02
-1.432045294264e+02
-1.431023323154e+02
-1.437686758150e+02
-1.445060714615e+02
-1.447782315807e+02
-1.460425847895e+02
-1.468278559030e+02
-1.476920783355e+02
-1.493988422519e+02
-1.516430498549e+02
-1.532590265073e+02
-1.555980802224e+02
-1.577512265056e+02
-1.608809231976e+02
-1.650639375372e+02
-1.690090234548e+02
-1.731773594679e+02
-1.772295759599e+02
-1.815053314668e+02
-1.857462885498e+02
-1.899905876991e+02
-1.943214709024e+02
-1.985719037346e+02
-2.024649703935e+02
-2.061804981298e+02
-2.094685529739e+02
-2.131314190333e+02
-2.158443982874e+02
-2.179793993519e+02
-2.205977832133e+02
-2.229614975376e+02
-2.250560346569e+02
-2.269017539322e+02
-2.284903636675e+02
-2.297239829682e+02
-2.307321517454e+02
-2.315051644184e+02
-2.326393111197e+02
-2.339546611919e+02
-2.346900332877e+02
-2.336004194471e+02
-2.354053072594e+02
-2.351821121721e+02
-2.357981264753e+02
-2.363446242999e+02
-2.363601448777e+02
-4.221610430320e+01
-5.420320566321e+01
-6.613062207255e+01
-7.773839225153e+01
-8.955127125528e+01
-1.014679477574e+02
-1.130574053237e+02
-1.244545855978e+02
-1.363318385009e+02
-1.031203341898e+01
-3.538674772866e+01
-1.548150208476e+01
-1.864546695051e+01
-1.986447122379e+01
-1.962736727484e+01
-1.987244565654e+01
-2.007219887826e+01
-2.069868936285e+01
-2.142290897489e+01
-2.273411014063e+01
-1.050395418355e+01
-1.768931592360e+01
-2.844612531701e+01
-2.920121944892e+01
-2.921525249509e+01
-2.913158715336e+01
-3.086264002356e+01
-2.944570319421e+01
-2.947983142304e+01
-2.967734599112e+01
-3.009386354570e+01
-3.028786736770e+01
-3.062219640659e+01
-3.105260095903e+01
-3.185388450436e+01
-3.302660222576e+01
-1.083650150137e+01
-1.219464365064e+01
-1.219464270122e+01
-1.170893647782e+01
-1.135273516963e+01
-1.083800376850e+01
-1.007470400014e+01
-9.296902999642e+00
-8.581144363763e+00
-7.954390507015e+00
-7.374920137335e+00
-7.216655174791e+00
-6.493851745474e+00
-5.624405971027e+00
-5.288313694282e+00
-5.117878370926e+00
-4.889129216439e+00
-4.517270240090e+00
-4.149105107836e+00
-1.145784974591e+01
-1.146787922134e+01
-1.143122551914e+01
-1.139842602170e+01
-1.133916143520e+01
-1.123525775061e+01
-1.111781895089e+01
-1.096159205545e+01
-1.079397986787e+01
-1.060747580620e+01
-1.042655577606e+01
-1.029616055220e+01
-1.026561613984e+01
-1.039190794937e+01
-1.100570672873e+01
-1.193675752238e+01
-1.167202558691e+01
-1.867633416251e+01
-1.998436845581e+01
-1.835859766170e+01
-1.789654733060e+01
-1.765472871591e+01
-1.754507835210e+01
-1.747705432022e+01
-1.746661675390e+01
-1.754240102796e+01
-1.753857043573e+01
-1.755826090892e+01
-1.758314310368e+01
-1.759234206186e+01
-1.756298784888e+01
-1.762529396726e+01
-1.775347961593e+01
-1.234192654599e+01
-1.745257595658e+01
-1.934780697045e+01
-2.011816482236e+01
-2.031639092292e+01
-2.019004485973e+01
-2.021458443903e+01
-2.206684006957e+01
-1.968718841225e+01
-3.018237760659e+01
-2.068756098134e+01
-2.159110032719e+02
-1.287708230585e+01
-1.521558135214e+01
-2.243818987764e+02
-2.379899934643e+01
-1.244036066811e+02
-2.047026991769e+02
-2.503245551229e+01
-1.910625635901e+02
-2.902971468975e+01
-2.290020960010e+02
-1.067391782590e+01
-1.746100417631e+02
-4.345632595271e+01
-7.694387948793e+01
-1.575375390718e+02
-1.625615753549e+02
-1.504242142340e+02
-1.393290394912e+02
-1.402568025411e+02
-1.449165672329e+02
-4.517775928652e+01
-4.189943132212e+01
-4.184197558798e+01
-8.375397854812e+01
-2.296889135165e+02
-1.488677317274e+01
-1.035176055907e+01
-1.964398356645e+02
-3.989188526316e+01
-4.061235965624e+01
-1.538101650877e+02
-1.990521048648e+02
-1.828727018582e+02
-2.095921953556e+02
-2.203451642168e+02
-1.474359651381e+01
-4.264964660197e+01
-2.246508076456e+02
-1.069496867469e+02
-1.200908494972e+01
-9.999320400163e+01
-1.404259710988e+02
-2.540158511623e+01
-2.281429631759e+01
-2.636555975450e+01
-3.367975869066e+01
-1.612489760332e+01
-6.118068968995e+01
-2.322558202578e+02
-9.600031576864e+00
-1.296832037208e+02
-4.874148154492e+01
-5.617624231718e+01
-6.053544176367e+01
-6.935751946940e+01
-7.422626453006e+01
-8.208456099500e+01
-7.765424176459e+01
-9.022440339488e+01
-8.602085934744e+01
-8.705678605089e+01
-9.845208111212e+01
-9.449274208883e+01
-1.067660518379e+02
-1.030077253750e+02
-9.086719562514e+01
-9.950559145314e+01
-8.749827937822e+01
-9.623446776370e+01
-1.080717179815e+02
-1.048517976006e+02
-9.314418895188e+01
-1.017360273672e+02
-9.023794254684e+01
-9.876649935718e+01
-8.746614564831e+01
-9.588146039894e+01
-1.071293304477e+02
-1.040941193763e+02
-9.304089686153e+01
-1.010800979168e+02
-9.022861764634e+01
-9.805108430304e+01
-1.089503670031e+02
-1.057101092585e+02
-9.494517873175e+01
-1.023963675037e+02
-9.175517767958e+01
-9.901292288491e+01
-8.848083410728e+01
-9.548900658416e+01
-1.061284683668e+02
-1.023905545314e+02
-9.183390038819e+01
-9.847658991668e+01
-1.091976767666e+02
-1.050292150475e+02
-1.159153235499e+02
-1.115126546809e+02
-1.007468283830e+02
-1.069884724128e+02
-1.179196031974e+02
-1.131514214210e+02
-1.023236159864e+02
-1.082839670261e+02
-1.192857235637e+02
-1.142097148728e+02
-1.032776985392e+02
-1.090206896838e+02
-1.201708656559e+02
-1.147549725259e+02
-1.036669437524e+02
-1.092161450215e+02
-1.205278752474e+02
-1.147835885578e+02
-1.262907808382e+02
-1.034557027839e+02
-1.088894150867e+02
-9.751374700109e+01
-1.028780264853e+02
-1.166802266256e+02
-9.146197463882e+01
-8.635237016546e+01
-9.676532144158e+01
-1.083397451742e+02
-8.529278918715e+01
-9.055229736971e+01
-7.903450793064e+01
-8.115468381148e+01
-1.165896597630e+02
-8.425287895890e+01
-7.267942851694e+01
-6.756307086242e+01
-6.117890923799e+01
-7.958080290723e+01
-9.195580859871e+01
-8.426109640361e+01
-9.690524707504e+01
-8.974876104712e+01
-6.624096736911e+01
-1.108367534317e+02
-1.042685433203e+02
-8.149540241497e+01
-8.220342478857e+01
-1.201906956432e+02
-9.585585813188e+01
-8.952589744020e+01
-1.011854342196e+02
-1.320683675456e+02
-1.379669157948e+02
-1.437931751426e+02
-1.497986144719e+02
-1.556875594612e+02
-1.617817556611e+02
-1.557499324063e+02
-1.678144528346e+02
-1.616519141588e+02
-1.677389841371e+02
-1.614663274635e+02
-1.737862546297e+02
-1.675020646962e+02
-1.797015083375e+02
-1.733032570812e+02
-1.611387767896e+02
-1.668263393937e+02
-1.547513374130e+02
-1.270578921974e+02
-1.314441760243e+02
-1.384469409271e+02
-1.429455554932e+02
-1.500779653825e+02
-1.546720905728e+02
-1.619138690317e+02
-1.571152195755e+02
-1.151027192947e+02
-8.802134280525e+01
-8.154366578774e+01
-7.785008076417e+01
-7.156639236178e+01
-6.797327439577e+01
-6.191989787150e+01
-5.838115222440e+01
-6.415488994544e+01
-5.459469006969e+01
-6.008433728802e+01
-5.051556128120e+01
-5.570536505128e+01
-1.153424658091e+02
-1.473203509153e+02
-1.591683048268e+02
-1.515447804057e+02
-5.614643739764e+01
-1.790627794879e+02
-1.736073392650e+02
-1.671235924371e+02
-1.690808991078e+02
-5.479683268828e+01
-5.263731086350e+01
-5.576623819917e+01
-1.019757113662e+02
-9.505395613392e+01
-1.794065360160e+02
-5.983516458803e+01
-1.800104590771e+02
-4.536054099808e+01
-1.724854603904e+02
-1.847666029504e+02
-1.496604683965e+02
-1.635604645300e+02
-1.556548826923e+02
-6.561678868859e+01
-6.097688974692e+01
-5.121789658133e+01
-5.658543538566e+01
-6.639318476996e+01
-6.126524031792e+01
-5.120224197945e+01
-5.589939337491e+01
-6.630753221150e+01
-6.074905151587e+01
-5.021998084273e+01
-5.490645555463e+01
-1.913586680142e+02
-4.126945464506e+01
-7.861330694653e+01
-1.858932195647e+02
-1.738444769981e+02
-1.071415838191e+02
-1.004607048887e+02
-8.826576404636e+01
-9.395618071687e+01
-1.059728896828e+02
-9.966579857137e+01
-8.759474678861e+01
-9.347696556394e+01
-8.137710026831e+01
-8.741444105121e+01
-9.938374028487e+01
-9.348415589059e+01
-8.148775174558e+01
-8.766662956771e+01
-7.564197478740e+01
-8.189693464715e+01
-9.387374029721e+01
-4.872232967019e+01
-1.640785013698e+02
-1.762414215936e+02
-9.510935798460e+01
-1.063662094782e+02
-1.128830499834e+02
-1.183852623082e+02
-8.813171172687e+01
-1.000618333975e+02
-4.682583494432e+01
-4.953135725881e+01
-1.139871306731e+02
-1.781280344017e+02
-1.659113635255e+02
-7.962052043826e+01
-7.160464135484e+01
-6.925840003728e+01
-6.112764336110e+01
-6.329324777247e+01
-5.900486383529e+01
-1.550064882890e+02
-1.053575433200e+02
-6.253914538589e+01
-5.127867200200e+01
-1.904335357229e+02
-1.521649482840e+02
-1.185395857262e+02
-1.267894147388e+02
-1.301405395608e+02
-1.384494650157e+02
-1.418960728374e+02
-1.502286180409e+02
-1.466874112648e+02
-1.678240928715e+02
-1.585323205415e+02
-7.605499959836e+01
-1.397383096551e+02
-7.144597623212e+01
-4.348274433091e+01
-4.392951009558e+01
-5.319200789070e+01
-6.487352460221e+01
-1.918194393451e+02
-1.537052298979e+02
-1.452125863117e+02
-5.286208547337e+01
-5.476134693881e+01
-1.757682062373e+02
-7.723591912664e+01
-7.538795536609e+01
-6.909025610424e+01
-4.068937467539e+01
-3.988804292660e+01
-1.115623741060e+02
-5.859688394989e+01
-5.199716560313e+01
-3.635848509454e+01
-3.221500635843e+01
-9.428962096630e+01
-1.061035883708e+02
-1.247514096931e+02
-1.302224289364e+02
-1.851568276955e+02
-4.891291819400e+01
-1.119166383123e+02
-1.589401904140e+02
-1.471002724204e+02
-1.118054269020e+02
-4.097851912922e+01
-3.834978045429e+01
-7.689860181108e+01
-5.983342748046e+01
-5.824510856015e+01
-1.975996932326e+02
-1.177482972009e+02
-1.548915957744e+02
-1.430025583920e+02
-1.669797053023e+02
-3.822029972936e+01
-1.984989017660e+02
-1.837544636905e+02
-1.565357439648e+02
-1.485133513429e+02
-6.118969414555e+01
-5.435452177749e+01
-4.531498872873e+01
-4.727523888866e+01
-7.334291758594e+01
-6.380879682261e+01
-7.537515047297e+01
-6.617706612233e+01
-6.330013755608e+01
-6.538351255762e+01
-5.658079613839e+01
-7.489838575884e+01
-1.243098245352e+02
-1.192789474868e+02
-1.491462867543e+02
-1.377134873518e+02
-1.111324476082e+02
-1.170853673141e+02
-6.937274672235e+01
-6.353564298235e+01
-4.479423461831e+01
-4.003743002872e+01
-1.320521501787e+02
-1.922513582450e+02
-1.188249187599e+02
-1.256083518674e+02
-1.209295453570e+02
-1.906483750229e+02
-8.406412503998e+01
-1.338241487959e+02
-3.690828146675e+01
-1.200665477255e+02
-3.358535387932e+01
-1.198803841856e+02
-1.961599956059e+02
-2.027748926918e+02
-1.800080767513e+02
-5.178294038356e+01
-1.278639658983e+02
-1.243037088639e+02
-5.380540646989e+01
-5.129493472784e+01
-6.077004962308e+01
-4.928209736983e+01
-8.214602889956e+01
-7.651375696609e+01
-1.664169019096e+02
-1.703430115844e+02
-1.599855422593e+02
-1.521623842991e+02
-1.880786121559e+02
-1.834301391084e+02
-6.958700301060e+01
-4.602461988366e+01
-1.232522132565e+02
-5.674433738504e+01
-2.046340981395e+02
-1.985480230627e+02
-2.791977439207e+01
-3.192244724449e+01
-1.180444864034e+02
-3.850827430203e+01
-3.979731037190e+01
-3.690031081123e+01
-2.218468400759e+02
-3.954942319590e+01
-2.086572359274e+02
-6.759483439161e+01
-1.239015529050e+02
-1.356669934040e+02
-7.682485652053e+01
-1.783115023148e+02
-1.116460490743e+02
-1.244013769543e+02
-6.297512692047e+01
-5.637494866194e+01
-6.903279922938e+01
-4.011835483477e+01
-3.056574777797e+01
-1.112958032307e+02
-8.311320266401e+01
-8.948316847567e+01
-5.341907096576e+01
-6.443351819527e+01
-1.310784708902e+02
-1.255561368162e+02
-1.283741461033e+02
-1.317175584301e+02
-1.217549670418e+02
-1.537197922291e+02
-1.419571197501e+02
-1.355434610513e+02
-1.224561948657e+02
-1.297199998575e+02
-8.750263382574e+01
-8.208885867049e+01
-8.726113411098e+01
-1.293593891340e+02
-2.150488923814e+02
-2.093351765802e+02
-2.908024662245e+01
-3.523445204986e+01
-3.299886251590e+01
-3.061989124066e+01
-1.321994623967e+02
-1.282366966523e+02
-1.378571677540e+02
-6.224969719030e+01
-1.511026159482e+02
-2.025998328586e+02
-1.954997665955e+02
-2.111475438488e+02
-1.717760271206e+02
-1.837715469215e+02
-1.789750446601e+02
-2.366608183538e+01
-1.201829430516e+02
-5.657100926710e+01
-2.071617364106e+01
-5.085385239935e+01
-5.765193627874e+01
-4.445575300619e+01
-5.078071941868e+01
-5.453784655558e+01
-6.298822061712e+01
-2.274046994639e+01
-1.343467904409e+02
-2.295814509434e+01
-2.744248570189e+01
-2.110216678118e+02
-2.046726483376e+02
-2.167685727376e+02
-2.103201269328e+02
-1.982957750016e+02
-2.044565304528e+02
-4.987214961275e+01
-2.182008298996e+02
-2.107557605727e+02
-2.244133732667e+02
-3.953573368668e+01
-4.898270991644e+01
-4.115787424644e+01
-3.162077250916e+01
-1.651705214103e+02
-1.547404465079e+02
-1.897455199940e+02
-1.773301891001e+02
-5.117240669140e+01
-5.040766508656e+01
-6.136617891410e+01
-5.976882950190e+01
-7.072067367090e+01
-6.900527909888e+01
-8.014895974801e+01
-1.823721066885e+02
-3.031537914061e+01
-4.386164479508e+01
-1.957664549248e+02
-1.900533934466e+02
-4.740676150240e+01
-3.663516542270e+01
-2.125292356324e+02
-7.086461432937e+01
-1.419087658047e+02
-1.370533452748e+01
-2.148467842602e+01
-7.374790115411e+01
-5.859782649679e+01
-5.076462520179e+01
-4.306123323213e+01
-1.658323921242e+02
-3.114800889846e+01
-3.517621785913e+01
-8.169822575483e+01
-2.757572338862e+01
-1.839287947757e+02
-7.808807236631e+01
-7.631270752273e+01
-4.326796274067e+01
-5.679858772850e+01
-8.212333004974e+01
-6.469200015258e+01
-6.054308202957e+01
-8.506564659417e+01
-4.445872428715e+01
-3.353964797051e+01
-8.434986923451e+01
-1.163525919137e+02
-1.237227974618e+02
-1.351291437855e+02
-1.313378836374e+02
-1.195208221160e+02
-1.273305570657e+02
-1.388992271070e+02
-1.356882306945e+02
-1.491612377432e+02
-1.437627319241e+02
-1.314343066547e+02
-1.392858183716e+02
-1.507873874394e+02
-1.272878465478e+02
-2.003560582101e+02
-8.425216377085e+01
-2.772544124530e+01
-2.468554763508e+01
-7.883016344564e+01
-1.586932988671e+02
-1.526099934726e+02
-6.513126111532e+01
-1.785994639856e+02
-6.956167987866e+01
-4.912950551578e+01
-1.870059050169e+02
-1.118109501294e+02
-1.072296611495e+02
-9.949711412250e+01
-1.486661418388e+02
-7.571379445838e+01
-2.022295032233e+02
-1.356883564393e+02
-1.282331023651e+02
-1.170235468817e+02
-1.232186325266e+02
-2.134243287466e+02
-2.043018561772e+02
-2.064751842635e+02
-1.941923249269e+02
-2.180833653705e+02
-1.670373672745e+02
-1.711857849473e+02
-7.160976243120e+01
-7.667789667783e+01
-8.707040998326e+01
-8.143464925962e+01
-7.114396130743e+01
-7.571366375361e+01
-8.593970680552e+01
-6.992523730744e+01
-1.435137728955e+02
-2.220640306737e+02
-1.494920501529e+02
-1.431460921258e+02
-1.315490644140e+02
-1.138266476080e+02
-1.200061481560e+02
-1.317375366993e+02
-1.075436029996e+02
-1.349327823970e+02
-2.234419518466e+02
-1.405002524423e+02
-1.144261531534e+02
-4.381971800966e+01
-5.611935677688e+01
-5.797356757439e+01
-6.971059380986e+01
-5.606406469644e+01
-1.365787992202e+02
-1.420456990442e+02
-1.356757066667e+02
-1.474896095786e+02
-1.408007716491e+02
-1.298859796934e+02
-1.526997804252e+02
-1.451066248634e+02
-4.217043934145e+01
-1.525689159802e+01
-2.318850713617e+01
-2.275877316756e+01
-3.100833119284e+01
-3.156550930468e+01
-4.043944751456e+01
-3.898108969321e+01
-2.337467080891e+01
-1.409159314350e+01
-2.236175618880e+01
-1.341301650511e+01
-2.175271231869e+01
-3.204251419648e+01
-4.669526887341e+01
-2.284036000411e+02
-1.117248875317e+02
-1.059342425871e+02
-9.461653129497e+01
-1.006596632204e+02
-1.163432661057e+02
-8.839376563185e+01
-8.419598987181e+01
-1.015613996619e+01
-1.980529062164e+01
-1.877563876396e+01
-2.965413738604e+01
-2.961460849400e+01
-2.016311683828e+01
-2.028201306138e+01
-1.048621153980e+01
-2.037024361655e+01
-3.026826222077e+01
-1.044799382591e+01
-9.564641185218e+01
-1.020312893767e+02
-2.251134326256e+02
-4.259353021669e+01
-1.250297745347e+01
-1.371571184769e+02
-1.404783225309e+02
-1.400729335181e+02
-2.092044396648e+02
-2.153885876960e+02
-1.370059869643e+02
-7.386280896407e+01
-1.427966549268e+02
-1.173159692477e+02
-4.380601615218e+01
-7.065554147565e+01
-1.715199149578e+02
-1.554323153829e+02
-1.970444414992e+02
-1.603445224894e+02
-1.855667298187e+02
-2.078171648009e+02
-4.695290371593e+01
-7.526488235899e+01
-6.986690573609e+01
-9.957604609417e+01
-7.782329697174e+01
-1.242619781465e+02
-4.974360836575e+01
-1.753791715314e+02
-7.250146527178e+01
-1.261261033965e+02
-1.021482582175e+02
-8.015389395124e+01
-6.574214270719e+01
-8.734440076525e+01
-1.204073346500e+02
-1.739086651736e+02
-1.056829944189e+02
-1.265937091045e+01
-1.799385914863e+02
-1.438307610060e+02
-8.171351068605e+01
-1.665922159025e+02
-4.601974625275e+01
-1.054151311663e+02
-1.297657649098e+02
-6.981328848586e+01
-3.841676406677e+01
-6.280232750741e+01
-2.043428436031e+02
-1.090653698718e+02
-7.138443008229e+01
-1.225467874097e+02
-8.480004806696e+01
-3.800639687020e+01
-1.225562451176e+02
-1.132250238018e+02
-1.812167610107e+02
-1.453504425040e+02
-7.663120306337e+01
-1.923290880089e+02
-1.132110437510e+02
-1.171919367219e+02
-1.334742369809e+02
-9.441575897653e+01
-1.123189501098e+02
-1.253886194133e+02
-1.712195951056e+02
-6.994407006703e+01
-1.101848580393e+02
-1.114550075499e+02
-1.121477315937e+02
-1.649657572978e+02
-1.861757216201e+02
-4.615645311102e+01
-6.666400790323e+01
-8.263065471042e+01
-1.618326721700e+02
-1.286945479348e+02
-7.393030555852e+01
-1.860272701520e+02
-1.236636354822e+02
-1.260724336961e+02
-5.371437881292e+01
-3.559559959302e+01
-7.398050894008e+01
-1.097187969457e+02
-1.378120933303e+02
-1.409306158393e+02
-1.919801598850e+02
-1.727431170024e+02
-1.883908363900e+01
-4.740136659961e+01
-1.979146949375e+02
-1.290887755809e+02
-1.785146123394e+02
-1.338039482027e+02
-1.790370971546e+02
-3.782030160925e+01
-2.039451713204e+02
-1.711542965194e+02
-6.808470271067e+01
-3.995160113999e+01
-2.181965854702e+02
-1.835605632388e+02
-1.234269128883e+02
-1.242392211423e+02
-3.013038816592e+01
-1.435260345303e+02
-1.133320585473e+02
-1.468511705971e+02
-1.882882086254e+02
-9.471074853513e+01
-1.373210186703e+02
-1.435994184200e+02
-2.981008268912e+01
-4.134970748189e+01
-1.428736372567e+02
-7.997833273823e+01
-1.305058871247e+02
-1.920120552986e+02
-1.484159360393e+02
-9.024550421675e+01
-1.539216831056e+02
-2.722550012776e+01
-1.027423740029e+02
-1.593962951492e+02
-1.250371636586e+02
-3.137914543386e+01
-1.313989492560e+02
-2.024097256119e+02
-9.232734579217e+01
-1.367687664675e+02
-1.151688587594e+02
-2.566133960381e+01
-1.484410354679e+02
-1.368215923770e+02
-1.393151208291e+02
-1.207073974766e+02
-1.604454268296e+02
-3.567979085132e+01
-6.894146314284e+01
-5.785429465656e+01
-9.633503992294e+01
-1.401948465546e+02
-3.944890156329e+01
-1.191067689322e+02
-4.226887930641e+01
-9.178793376036e+01
-1.596205967510e+02
-7.273239392709e+01
-9.756184424952e+01
-6.537973408040e+01
-9.261165662687e+01
-1.319759836311e+02
-9.815917701176e+01
-9.283869449654e+01
-1.288144012120e+02
-9.813652466685e+01
-1.390434489777e+02
-2.295030593503e+02
-4.905779156214e+01
-2.335559250481e+01
-1.601884804501e+01
-3.507616468613e+01
-8.143343337747e+01
-1.233890730949e+02
-4.956758869950e+01
-7.536528159124e+01
-1.558266924139e+02
-1.953125332459e+02
-8.991844040839e+01
-1.854120934042e+02
-1.475006170834e+02
-1.175612333015e+02
-3.943787301906e+01
-2.138527258073e+01
-1.713446430694e+02
-2.269853752942e+01
-3.130583583634e+01
-2.906943504125e+01
-8.074040634258e+01
-3.073769824250e+01
-2.348309659818e+01
-2.013360370722e+02
-5.172886045144e+01
-1.631560716977e+02
-2.187587113590e+01
-1.347446601613e+02
-1.890883819615e+02
-2.280491364556e+02
-1.755511033120e+02
-2.563895604912e+01
-6.576522198948e+01
-1.713156619186e+02
-9.945425791921e+01
-2.299694476917e+02
-5.150075958602e+01
-1.297591012560e+02
-4.180308684560e+01
-1.296210181364e+02
-1.353986257405e+02
-6.455405821840e+01
-6.828580618066e+01
-2.212192963496e+02
-1.486698130530e+02
-2.325707267881e+01
-8.950041637961e+01
-1.006425265819e+02
-2.216278188286e+01
-2.155596101405e+02
-1.466021946840e+02
-2.199503778897e+02
-2.927772905813e+01
-1.962198613502e+01
-2.151777881736e+02
-1.641189191902e+02
-4.723814603341e+01
-1.442458035470e+02
-1.835293282006e+01
-3.852920193048e+01
-1.971894268190e+01
-2.304080569525e+02
-1.322649477863e+02
-1.111003481829e+02
-4.710682211741e+01
-7.331213120294e+01
-1.721726915670e+02
-2.880284021978e+01
-1.323510590553e+02
-2.127957661597e+02
-1.421081513470e+02
-2.108550829124e+02
-2.077599992656e+01
-1.891634792352e+02
-1.985641436368e+02
-3.911193247605e+01
-1.448795015261e+02
-9.019232429306e+01
-3.913530471929e+01
-1.401287795664e+02
-8.294171355423e+00
-3.824063547118e+01
-2.323587093807e+02
-3.729749218160e+01
-5.787955617424e+01
-1.610708007344e+02
-1.368760454327e+02
-1.109318341872e+02
-3.743025088595e+01
-1.491940371975e+01
-7.899507247837e+01
-1.943668849255e+02
-1.390880436833e+02
-7.102147195903e+01
-2.911765659138e+01
-1.558588231722e+02
-1.201745825721e+02
-1.659561269306e+02
-1.949284589332e+02
-1.311494248859e+01
-1.473392377661e+02
-1.876237884404e+01
-2.203613273044e+02
-1.253074092851e+02
-1.260890664745e+01
-1.220085247964e+01
-2.652218722264e+01
-2.328138398398e+01

SCALARS node_materi_stress_size_dev_sd_sig float
LOOKUP_TABLE default
4.413947049939e+00
1.371914661354e+01
1.791898476313e+02
1.075201313942e+02
1.059539693260e+01
2.060606637404e+01
2.978947371779e+01
4.025600453919e+01
5.042082191021e+01
6.027774478664e+01
7.014460559482e+01
7.995531875976e+01
8.961714776247e+01
9.927817328880e+01
1.090158404002e+02
1.180365036708e+02
1.260609107571e+02
1.348293579576e+02
1.435233406010e+02
1.517177594401e+02
1.597671267414e+02
1.676533479293e+02
1.749929220362e+02
1.081929522106e+02
1.078058185374e+02
1.080255559361e+02
1.081984646210e+02
1.080357710603e+02
1.086476909132e+02
1.091090846179e+02
1.096622974903e+02
1.107629711563e+02
1.117337540946e+02
1.124843956736e+02
1.143167526367e+02
1.162834224703e+02
1.183189971660e+02
1.204631598954e+02
1.229162851650e+02
1.258557577952e+02
1.295163748062e+02
1.332598079926e+02
1.370207503372e+02
1.405384687093e+02
1.438952727677e+02
1.473158370440e+02
1.505149453796e+02
1.536371974658e+02
1.565819059764e+02
1.593060489492e+02
1.617120225489e+02
1.638544395638e+02
1.660230613192e+02
1.678515655739e+02
1.690812027939e+02
1.705812773891e+02
1.719706282757e+02
1.731956430151e+02
1.742304872444e+02
1.751573382355e+02
1.758383987673e+02
1.763943377561e+02
1.768304466662e+02
1.774235040071e+02
1.781530359602e+02
1.785802863142e+02
1.780140393227e+02
1.789295984202e+02
1.788193116909e+02
1.791366261936e+02
1.794961142259e+02
1.795273887018e+02
2.226216994668e+01
3.140291405395e+01
4.065773000595e+01
4.998006206678e+01
5.974800466810e+01
6.969089833409e+01
7.987100643213e+01
9.019886281221e+01
1.009305595376e+02
1.077672509250e+01
1.551007384055e+01
1.945485853303e+01
2.395488390934e+01
2.598378216170e+01
2.636643495881e+01
2.634025343700e+01
2.628236390851e+01
2.631527177182e+01
2.182787073344e+01
1.376842193204e+01
8.323094599079e+00
7.234408503740e+00
1.257304751619e+01
1.299634508250e+01
1.302067363981e+01
1.291316338506e+01
1.392359594423e+01
1.297189856852e+01
1.284698620109e+01
1.289603231109e+01
1.302539353107e+01
1.295804114906e+01
1.290043653287e+01
1.291065473722e+01
1.311973558207e+01
1.373168485848e+01
1.009963772499e+01
1.082871605712e+01
1.113995858970e+01
1.028735549571e+01
8.463956167146e+00
7.199363686036e+00
6.125260762600e+00
5.105083620881e+00
4.178512586396e+00
3.452591407284e+00
2.954065912701e+00
3.031137198282e+00
3.115430366109e+00
3.030583445437e+00
3.448531092410e+00
3.947743385203e+00
4.261428102573e+00
4.217327180840e+00
3.918382897900e+00
7.184914532974e+00
6.995418040448e+00
7.003265254985e+00
6.947473185326e+00
6.880600338267e+00
6.743437815384e+00
6.575607581771e+00
6.379009861002e+00
6.187857217937e+00
5.923244323003e+00
5.679088445866e+00
5.507278229026e+00
5.410378884389e+00
5.536890500020e+00
6.010877093437e+00
7.978361866795e+00
1.397530616896e+01
9.522833017552e+00
8.509995507482e+00
7.527425972776e+00
7.242570700935e+00
7.112712812033e+00
7.063408634168e+00
7.048385808619e+00
7.047456150661e+00
7.083379445223e+00
7.087151269615e+00
7.101264234462e+00
7.113839097090e+00
7.114847725938e+00
7.112925789208e+00
7.131502360705e+00
7.198608913654e+00
1.533587035091e+01
2.215278351025e+01
2.512781948963e+01
2.634207116514e+01
2.728272516556e+01
2.704643710622e+01
2.623312399498e+01
2.646539222622e+01
1.714525499982e+01
1.414266761953e+01
2.113673804060e+01
1.687963108997e+02
5.858327535590e+00
6.303849253748e+00
1.735077802127e+02
2.642260433184e+01
1.045180978738e+02
1.617567071987e+02
2.823416491486e+01
1.517801314356e+02
2.757472004046e+01
1.757507133226e+02
6.910249539576e+00
1.379242849570e+02
2.117598411256e+01
6.567939841791e+01
1.291721437316e+02
1.261064574383e+02
1.138900914465e+02
1.037252143189e+02
1.039847881546e+02
1.084363631160e+02
2.055988405720e+01
2.008911408632e+01
2.103836275868e+01
5.484747419880e+01
1.759751177187e+02
6.991242344951e+00
8.462824993803e+00
1.554783299303e+02
2.038362125039e+01
3.502924376343e+01
1.173711408829e+02
1.577302072039e+02
1.451641932805e+02
1.651029583596e+02
1.712998784249e+02
5.922571032258e+00
1.968710826494e+01
1.735351917748e+02
7.456707788036e+01
6.610567048479e+00
8.488688771484e+01
1.049511300088e+02
2.786800789719e+01
2.461088744466e+01
2.869691846800e+01
2.153526913732e+01
1.497617268083e+01
3.666948812106e+01
1.774437551540e+02
8.343511330990e+00
9.495592435872e+01
2.327261423088e+01
2.956427983082e+01
3.131974898608e+01
3.940751260121e+01
4.193778111937e+01
4.949570726896e+01
4.754822356673e+01
5.769721548217e+01
5.625900640355e+01
5.239033589555e+01
6.633078886301e+01
6.522523574100e+01
7.517452189738e+01
7.425488294164e+01
6.485921763217e+01
7.388507782387e+01
6.494974733964e+01
7.386331569337e+01
8.272335894136e+01
8.255491305696e+01
7.401073845169e+01
8.246750383620e+01
7.413316157968e+01
8.232819539620e+01
7.408003939791e+01
8.202438932648e+01
9.026233604966e+01
8.970196240796e+01
8.149114642545e+01
8.890638643008e+01
8.066331052203e+01
8.780095452025e+01
9.601624465884e+01
9.464122249439e+01
8.632966927530e+01
9.292865561885e+01
8.448930650695e+01
9.086283256730e+01
8.225174886405e+01
8.837745973091e+01
9.689471613556e+01
9.419347493944e+01
8.548856940586e+01
9.106397349901e+01
9.971757679391e+01
9.635732421965e+01
1.049578467081e+02
1.013926799859e+02
9.265667089052e+01
9.749613448114e+01
1.061781079160e+02
1.020987260370e+02
9.327806630206e+01
9.774281431924e+01
1.065250687584e+02
1.020396196643e+02
9.311237040663e+01
9.731989783119e+01
1.062452974979e+02
1.014141846180e+02
9.234669077727e+01
9.637190315784e+01
1.054517298082e+02
1.003347631067e+02
1.094050367523e+02
9.106897337997e+01
9.502952212990e+01
8.556272679150e+01
8.957661701822e+01
1.028056439494e+02
7.994326188981e+01
7.596389608151e+01
8.402440627498e+01
9.362009873829e+01
7.424922157558e+01
7.839783696309e+01
6.851868611874e+01
7.565751669058e+01
9.134476881087e+01
7.273228106009e+01
6.277419562707e+01
5.847147340264e+01
5.267470063925e+01
4.551826145961e+01
5.601140800583e+01
4.920833931096e+01
6.012685857393e+01
5.389952678733e+01
5.699850402326e+01
7.682717368048e+01
6.696175975243e+01
6.568476565767e+01
7.323205365077e+01
1.081742128023e+02
8.252448110125e+01
7.693091415933e+01
8.667736102211e+01
1.143564181863e+02
1.182568500886e+02
1.230377446453e+02
1.268667236321e+02
1.314747892845e+02
1.352283319151e+02
1.306083536399e+02
1.388961401003e+02
1.342793781868e+02
1.396585299286e+02
1.358673581572e+02
1.424884634504e+02
1.378863118365e+02
1.460143798735e+02
1.414390978012e+02
1.331280871217e+02
1.367184392123e+02
1.282759352368e+02
1.133634630160e+02
1.164587655906e+02
1.215867536370e+02
1.245761451273e+02
1.296304012647e+02
1.325209355960e+02
1.374720336626e+02
1.344003280196e+02
8.407083832197e+01
8.219633312940e+01
7.655530252134e+01
7.310122135553e+01
6.739111968162e+01
6.375249595044e+01
5.797132843457e+01
5.410073855697e+01
5.968148426529e+01
4.978327935241e+01
5.517544678958e+01
4.504035272216e+01
5.023737701267e+01
9.791509357701e+01
1.272557798689e+02
1.351319738235e+02
1.296154748140e+02
4.831197432613e+01
1.449543649175e+02
1.438777264649e+02
1.400121709220e+02
1.421471195175e+02
4.697891705199e+01
4.830475928556e+01
5.187512657999e+01
6.469190291331e+01
5.875913831098e+01
1.478755711324e+02
5.131038210845e+01
1.469281856023e+02
3.960414201797e+01
1.402784311243e+02
1.484434855491e+02
1.258301764000e+02
1.374946571579e+02
1.316969925780e+02
6.034641602691e+01
5.529440546436e+01
4.517508687353e+01
5.025000909677e+01
6.027134277728e+01
5.475398272944e+01
4.453568947913e+01
4.905066654783e+01
5.931154186142e+01
5.356893939978e+01
4.307767197364e+01
4.765257447953e+01
1.529339256923e+02
3.457490091970e+01
5.583863463096e+01
1.516136585758e+02
1.450098407317e+02
6.962966813249e+01
6.394797878639e+01
5.338489379312e+01
5.878546803589e+01
6.944859925319e+01
6.435125205902e+01
5.402330373826e+01
5.957092437389e+01
4.952930908503e+01
5.506006263769e+01
6.523580695695e+01
6.071944961248e+01
5.078801714839e+01
5.636054680823e+01
4.661511736836e+01
5.204087152790e+01
6.201025962346e+01
4.151058894688e+01
1.389224916667e+02
1.466177266018e+02
8.144407180455e+01
9.069092674808e+01
9.620447006169e+01
1.002586694658e+02
5.754995643495e+01
6.775311601633e+01
4.229934936356e+01
4.554326169409e+01
7.585766088529e+01
1.438466560700e+02
1.355319458183e+02
7.230713686131e+01
6.483179990941e+01
6.373672646188e+01
5.606845901162e+01
5.711789959885e+01
5.473127055359e+01
1.318755941461e+02
7.104604124581e+01
5.416831244688e+01
4.392252413953e+01
1.519542776881e+02
1.310314819892e+02
9.856369026339e+01
1.061862598209e+02
1.069984780305e+02
1.145603522657e+02
1.155680403953e+02
1.229939655728e+02
1.217731437606e+02
1.396176449429e+02
1.300662513012e+02
4.757696993384e+01
1.215933170629e+02
6.379628253965e+01
3.709583869765e+01
3.688372654768e+01
4.554127487386e+01
5.559929722984e+01
1.554508870949e+02
1.242143170088e+02
1.165174061817e+02
4.849901701677e+01
4.939998661353e+01
1.451554829958e+02
4.349630660641e+01
4.415410636447e+01
3.991796720843e+01
3.461984747727e+01
3.254477264303e+01
7.511809600912e+01
5.491247696193e+01
4.831723530520e+01
2.903863053958e+01
2.379806774055e+01
6.297799582078e+01
7.321569177099e+01
1.055117274921e+02
1.094904615830e+02
1.516558566065e+02
4.170211194190e+01
7.812803255280e+01
1.354292296033e+02
1.273743961609e+02
9.469895669810e+01
3.627144599904e+01
3.284153672843e+01
6.934968627798e+01
5.218156068672e+01
4.985028434546e+01
1.590312002261e+02
8.046124913479e+01
1.286035900852e+02
1.204364786516e+02
1.367480563364e+02
3.098262025228e+01
1.592057217483e+02
1.474479354200e+02
1.250548225835e+02
1.175835481841e+02
5.748732149633e+01
5.075882367114e+01
4.167878511045e+01
4.385189927080e+01
4.655693632755e+01
5.981246814642e+01
5.637320170745e+01
4.731302551529e+01
4.827765683813e+01
5.763652140113e+01
4.973138727289e+01
7.055217980076e+01
1.110166261539e+02
1.016041638491e+02
1.246097503820e+02
1.190858684987e+02
7.576402467608e+01
8.176399051910e+01
4.121839943501e+01
3.710782557785e+01
3.803102156814e+01
3.358171314907e+01
1.133003385867e+02
1.552231682475e+02
8.078567132335e+01
8.731867748163e+01
8.254660050691e+01
1.550972007126e+02
7.852572692674e+01
1.182769899518e+02
2.925178882345e+01
1.041521506761e+02
2.779529108755e+01
9.186561777568e+01
1.554547252573e+02
1.597635648532e+02
1.472523560388e+02
2.868525914194e+01
1.108816102463e+02
1.092691738554e+02
3.951469951834e+01
4.069226864994e+01
4.906138404080e+01
4.160294764750e+01
7.365385615635e+01
6.806687723013e+01
1.335341675649e+02
1.382466855895e+02
1.267016621468e+02
1.190677164394e+02
1.525678383382e+02
1.502563150856e+02
5.965595480918e+01
4.189390997543e+01
8.614906606331e+01
3.807993392237e+01
1.624814210658e+02
1.587385533384e+02
1.819230247350e+01
2.329075044019e+01
8.388801323074e+01
3.517913902449e+01
3.682052487307e+01
3.311709337933e+01
1.711382062628e+02
2.023796583494e+01
1.632141169362e+02
5.775331863718e+01
8.895185655283e+01
1.173372053952e+02
7.085025884116e+01
1.476628622550e+02
7.831553411856e+01
8.998485639839e+01
3.472687313628e+01
3.051290295621e+01
3.867631896568e+01
3.393247229204e+01
2.270178504432e+01
7.689112095894e+01
7.137715689428e+01
7.668837811365e+01
4.598981917038e+01
5.626511483817e+01
1.107581499680e+02
1.069085501945e+02
1.003786716270e+02
1.012702007180e+02
9.911835472054e+01
1.316699273945e+02
1.234550110820e+02
1.191430079561e+02
8.654180303964e+01
9.382852223024e+01
7.898169595658e+01
7.464205361239e+01
7.771593097253e+01
9.183712198310e+01
1.673157220888e+02
1.639449089119e+02
2.328017245972e+01
2.896715499500e+01
2.764339743629e+01
2.423949797047e+01
9.409588668942e+01
8.990600495755e+01
9.997976345669e+01
5.325444947043e+01
1.270312082008e+02
1.618859693486e+02
1.580926597412e+02
1.665859718575e+02
1.414980907929e+02
1.490178828785e+02
1.445967940124e+02
1.339337894960e+01
8.627424879501e+01
3.155348444308e+01
9.315334841243e+00
2.767259622955e+01
3.303305700008e+01
2.329217316423e+01
4.343711668286e+01
2.816069344092e+01
3.361577822442e+01
1.676886039041e+01
9.749848222274e+01
1.816120188134e+01
2.238474649755e+01
1.660050089909e+02
1.621327439843e+02
1.691339474979e+02
1.651861298408e+02
1.580438148478e+02
1.615454492003e+02
2.636389976923e+01
1.695884869352e+02
1.650455933391e+02
1.732676193308e+02
3.389109609961e+01
4.558713869424e+01
3.833421936874e+01
3.041553280850e+01
1.299377327467e+02
1.202094095825e+02
1.512395179280e+02
1.430147338694e+02
2.850686063964e+01
2.814026007461e+01
3.642121391964e+01
3.541051631149e+01
4.394226379700e+01
4.270097759678e+01
5.156857089821e+01
1.462746247515e+02
2.801748933274e+01
3.049328226440e+01
1.574634492020e+02
1.544956021022e+02
4.193157446312e+01
3.464457792967e+01
1.671829654601e+02
6.658543758827e+01
1.052460947568e+02
8.183796693978e+00
1.169725070000e+01
6.879267785785e+01
4.959400733931e+01
4.700173836367e+01
4.014082871354e+01
1.397669966071e+02
2.456091494570e+01
3.068047230746e+01
5.248331051770e+01
2.377138242707e+01
1.473190091165e+02
7.330058915617e+01
6.584930310713e+01
3.920392084024e+01
5.301674596641e+01
5.569878184138e+01
3.780621978430e+01
3.741086365388e+01
7.959004597560e+01
4.115706400088e+01
3.269069085253e+01
6.529160146503e+01
7.824300449459e+01
8.579573626642e+01
9.720963354469e+01
9.373501428335e+01
8.234943563467e+01
9.055879780705e+01
1.018669536489e+02
9.930724885829e+01
1.124749703540e+02
1.079674048488e+02
9.662155875236e+01
1.049609295213e+02
1.153822383948e+02
9.438454951292e+01
1.595544903453e+02
7.770756208795e+01
1.829986541688e+01
1.642933493771e+01
6.590669627928e+01
1.224513810235e+02
1.159278895202e+02
6.131153660773e+01
1.414275352035e+02
4.656638095663e+01
4.416786012937e+01
1.485277243763e+02
7.438199472334e+01
7.100195143461e+01
6.318585768582e+01
1.118831904377e+02
4.326847189340e+01
1.598948395077e+02
1.192128214797e+02
1.134571688686e+02
1.052296709174e+02
8.783153566736e+01
1.673715742437e+02
1.627509612263e+02
1.639714676745e+02
1.572455816791e+02
1.700778132894e+02
1.306805736619e+02
1.347231119322e+02
6.486724333698e+01
7.014856400221e+01
7.964278403679e+01
7.502432475940e+01
6.535691883799e+01
7.014066251428e+01
7.954018542281e+01
6.501120302749e+01
1.108127513023e+02
1.722937574534e+02
1.275948067612e+02
1.235219342156e+02
1.149867757230e+02
9.764756999487e+01
1.029945718493e+02
1.120992378166e+02
9.220559566066e+01
1.134828988137e+02
1.729934167044e+02
1.229376433806e+02
9.901607378998e+01
1.998999225027e+01
2.781169069995e+01
2.896355654418e+01
3.752284713607e+01
2.818458064604e+01
1.146067274413e+02
1.184277612224e+02
1.134220361553e+02
1.221953940508e+02
1.170514861254e+02
1.087666716748e+02
1.257586121579e+02
1.201312815950e+02
1.976884193800e+01
6.078583988504e+00
1.367618245030e+01
1.376131526110e+01
2.276733600696e+01
2.318937216519e+01
3.304777593364e+01
3.130744289165e+01
1.326385454471e+01
5.769148799245e+00
1.419681875005e+01
5.745427737430e+00
1.434333409611e+01
2.475418148550e+01
3.966538372927e+01
1.752043214988e+02
9.442591846559e+01
8.989753746673e+01
8.051832883022e+01
8.564979791469e+01
9.828174591738e+01
7.531003025813e+01
7.181457054212e+01
8.666787602363e+00
1.722313593931e+01
1.645212249699e+01
2.579044881364e+01
2.541418242792e+01
1.717396951274e+01
1.704068398240e+01
8.107223722509e+00
1.676929767576e+01
2.562799578147e+01
7.461356460972e+00
6.476488746082e+01
7.027194106779e+01
1.738782533111e+02
2.092439005992e+01
6.290539599469e+00
1.017100261797e+02
1.043408630770e+02
1.041406678190e+02
1.635176891927e+02
1.673161580789e+02
1.018660758954e+02
6.427061269681e+01
1.050048192194e+02
8.280899793689e+01
3.850333340417e+01
6.229272164386e+01
1.391979709204e+02
1.295122469051e+02
1.563524471124e+02
1.319240349355e+02
1.494922294055e+02
1.648578273745e+02
4.002550519633e+01
4.525350676423e+01
4.241131574111e+01
6.646205095061e+01
6.705602034293e+01
1.046507448432e+02
4.259604986742e+01
1.396250946920e+02
5.700519116023e+01
1.103504884734e+02
8.811899226288e+01
7.012624556217e+01
5.805452240577e+01
7.943393454740e+01
1.042826207238e+02
1.433359276321e+02
7.228371143195e+01
8.092096901311e+00
1.475810913998e+02
1.220761433895e+02
4.859640002965e+01
1.402679065906e+02
3.873483040275e+01
7.002449848191e+01
9.192047891934e+01
3.820963661715e+01
3.239861846606e+01
3.576752475909e+01
1.626192758761e+02
7.118264010023e+01
6.131501834003e+01
1.099325260014e+02
7.379635345786e+01
2.037064244943e+01
8.744553260349e+01
1.011490558666e+02
1.496489800986e+02
1.264356228760e+02
6.568557269809e+01
1.546958402133e+02
1.026874255925e+02
8.086233264903e+01
1.077731852615e+02
8.755483990063e+01
7.487166147977e+01
1.107905643351e+02
1.428298202838e+02
5.752346155349e+01
9.065205892307e+01
8.315899631198e+01
9.708574629463e+01
1.345130381217e+02
1.511869830310e+02
3.998933236602e+01
6.206925963520e+01
4.827223259705e+01
1.313057236096e+02
9.191133950800e+01
6.553678737591e+01
1.504269918851e+02
8.598831894739e+01
1.082112111093e+02
4.610445826155e+01
2.893007432342e+01
6.924759075022e+01
9.919728788801e+01
1.171471200533e+02
1.031705317791e+02
1.538563004729e+02
1.439460029360e+02
1.835961623720e+01
2.894674528959e+01
1.572842894818e+02
1.146554797637e+02
1.476715282338e+02
1.116072877052e+02
1.429839368483e+02
3.464817115077e+01
1.608612694804e+02
1.433730027128e+02
6.416330718107e+01
2.045495564977e+01
1.693952024135e+02
1.510066949950e+02
1.052570035186e+02
1.107279975431e+02
2.393955086101e+01
1.209233336039e+02
9.097237632076e+01
1.102034876305e+02
1.538086669799e+02
5.997365283592e+01
1.158891447648e+02
1.236138756026e+02
2.533761706696e+01
3.245683408169e+01
1.196482642876e+02
7.451235853121e+01
1.150905189350e+02
1.545638192719e+02
1.233936140086e+02
8.371140992325e+01
1.270977086868e+02
2.861302901434e+01
6.827114989052e+01
1.307399075508e+02
9.968907012248e+01
2.632644637201e+01
1.122683560464e+02
1.592970881486e+02
8.163295266926e+01
1.193248767936e+02
7.931583512021e+01
2.833241723617e+01
1.276953923303e+02
1.086097859116e+02
1.189441163031e+02
1.074091504684e+02
1.359279778833e+02
3.429254208372e+01
6.014346526666e+01
5.003911907188e+01
8.862681712333e+01
1.095801893936e+02
3.388639036303e+01
8.565544091698e+01
3.533476591612e+01
8.428543659481e+01
1.335793047769e+02
4.578775565756e+01
8.879745722612e+01
5.596770913597e+01
8.401884096926e+01
1.155231308302e+02
8.825922006771e+01
8.312641500731e+01
9.356463176507e+01
8.713056678361e+01
1.035267062923e+02
1.757659414561e+02
2.733978858725e+01
2.762932779651e+01
6.717541159842e+00
3.327931810385e+01
7.207239388492e+01
9.279204959721e+01
2.760590906959e+01
6.621518890671e+01
1.195588983844e+02
1.549269825938e+02
5.984249283293e+01
1.519126408729e+02
1.254936183210e+02
8.408953687269e+01
1.959769742771e+01
1.463838322221e+01
1.388237406520e+02
2.683783854083e+01
2.946962157123e+01
2.613113039761e+01
6.919876211977e+01
2.283524472718e+01
2.562777429559e+01
1.608483425776e+02
2.673281723769e+01
1.350899511809e+02
2.307560750090e+01
9.737097187866e+01
1.518314455668e+02
1.753722082184e+02
1.432074241198e+02
2.076121085410e+01
3.473726879277e+01
1.358663340664e+02
6.758727076999e+01
1.762282792312e+02
2.544064685110e+01
9.488931049549e+01
3.501826022669e+01
9.497238272305e+01
1.027903858746e+02
3.852278334278e+01
3.656745725253e+01
1.707888346113e+02
1.117979257761e+02
1.683900126327e+01
5.909622321286e+01
8.589314969218e+01
1.117587402354e+01
1.686802017805e+02
1.124783715507e+02
1.703053873120e+02
2.539835311429e+01
1.440299179325e+01
1.687465987426e+02
1.282415205353e+02
4.028540389954e+01
1.078831952055e+02
1.164596779935e+01
1.847432147832e+01
1.560092813868e+01
1.763750710807e+02
9.611306478303e+01
9.409238762807e+01
2.178871233189e+01
6.270941128013e+01
1.387295067977e+02
2.174611151817e+01
9.672789141310e+01
1.675756117169e+02
1.044799852661e+02
1.655714577185e+02
9.721609552553e+00
1.513618590712e+02
1.597952843158e+02
1.965137237327e+01
1.074414037982e+02
7.696874930042e+01
3.311004241809e+01
1.046394299614e+02
7.192946921963e+00
1.937976385904e+01
1.773998211411e+02
3.173336925725e+01
3.396546368350e+01
1.249502328077e+02
1.139721685548e+02
7.810810036250e+01
2.978770164690e+01
6.972851891864e+00
5.077558348494e+01
1.556152826765e+02
1.016632485225e+02
4.380142789444e+01
2.152260313763e+01
1.205715919572e+02
1.011270173550e+02
1.322158181389e+02
1.574942115581e+02
1.156213703796e+01
1.217857493737e+02
1.428057435719e+01
1.710275128932e+02
1.051897044715e+02
1.223253255599e+01
7.312111141744e+00
1.175887920281e+01
9.508980065830e+00

SCALARS node_materi_strain_total_average_a_ept float
LOOKUP_TABLE default
6.577302562779e-06
5.713328310655e-04
4.149674246437e-04
7.867137888258e-04
1.751573520546e-05
3.925746295685e-05
6.056820676467e-05
8.391648401700e-05
1.067562615093e-04
1.294105317482e-04
1.518714290324e-04
1.741892024123e-04
1.963866723218e-04
2.185309135535e-04
2.409133948723e-04
2.627590908597e-04
2.823589912550e-04
3.034554833568e-04
3.248753523497e-04
3.453172369771e-04
3.656218149365e-04
3.857469460153e-04
4.052808372809e-04
7.880429316751e-04
7.866418234784e-04
7.865733163642e-04
7.859247712443e-04
7.840170785597e-04
7.836790012344e-04
7.816682448234e-04
7.789208020362e-04
7.764782651104e-04
7.729803119187e-04
7.671748600765e-04
7.622870118536e-04
7.549180348200e-04
7.467317371621e-04
7.365811840759e-04
7.251471142297e-04
7.119990774564e-04
6.979837529017e-04
6.833750237523e-04
6.679495667838e-04
6.513040646150e-04
6.336945651041e-04
6.164581715414e-04
5.991663686332e-04
5.824198939257e-04
5.664536427852e-04
5.508959086020e-04
5.367198734221e-04
5.224921238773e-04
5.103788780836e-04
4.985019660136e-04
4.865183073946e-04
4.759399330488e-04
4.675695869920e-04
4.597224762540e-04
4.521184685230e-04
4.466926731202e-04
4.402550855626e-04
4.356534642201e-04
4.306024729291e-04
4.272327306316e-04
4.256764949210e-04
4.240767047655e-04
4.186236541646e-04
4.195038837084e-04
4.167316556691e-04
4.160466129452e-04
4.164652108720e-04
4.159417601849e-04
5.936176418644e-04
6.154026361237e-04
6.372444311927e-04
6.588582208419e-04
6.810477500745e-04
7.035370637210e-04
7.259264810261e-04
7.487377874035e-04
7.713900878904e-04
-1.582503102956e-05
5.501439268284e-04
1.787290726243e-05
7.596521019142e-05
1.417702466911e-04
2.084088294832e-04
2.779041702968e-04
3.487413045992e-04
4.163840981878e-04
4.826105923416e-04
5.274248083884e-04
5.348928555433e-04
5.488187565477e-04
5.686799081642e-04
5.701735288346e-04
5.700909533669e-04
5.696321441931e-04
5.723410552981e-04
5.695238838900e-04
5.689277198988e-04
5.686575657729e-04
5.681441555251e-04
5.668793257282e-04
5.654409108767e-04
5.632449961694e-04
5.603410457006e-04
5.566095392209e-04
-2.006353663897e-05
-2.485380346377e-05
-2.608643503253e-05
-2.418095433234e-05
-2.042971848707e-05
-1.732742030573e-05
-1.428634339161e-05
-1.129854414187e-05
-8.435798547084e-06
-5.780761380692e-06
-2.970694617213e-06
-1.149285615380e-06
9.322955640206e-07
2.665107729887e-06
4.182141771484e-06
5.238042670842e-06
6.074746566159e-06
6.598255920778e-06
6.479077706666e-06
5.378170491029e-04
5.391171042679e-04
5.389970185649e-04
5.391517312343e-04
5.394639531566e-04
5.398776738052e-04
5.404633259322e-04
5.409792333702e-04
5.415271280541e-04
5.422947406392e-04
5.430166946098e-04
5.434836342701e-04
5.435610766648e-04
5.424084737547e-04
5.410201762201e-04
5.348385360828e-04
5.203790711656e-04
5.372299697359e-04
5.431469981710e-04
5.463633070530e-04
5.483101750817e-04
5.493960003470e-04
5.499299311494e-04
5.500304923496e-04
5.500931934488e-04
5.502371516530e-04
5.500121426158e-04
5.499103487186e-04
5.497727796545e-04
5.497092084470e-04
5.496300704151e-04
5.497245696569e-04
5.491832486957e-04
-3.568476547539e-06
4.550597221410e-05
1.085800180493e-04
1.762165970577e-04
2.427255755144e-04
3.139173923086e-04
3.834222231108e-04
4.460808380468e-04
5.118132928580e-04
5.403758233742e-04
7.597195941622e-05
4.661940900033e-04
2.677702854454e-06
-8.939442794805e-06
4.322851883147e-04
2.050495865705e-04
2.306641546843e-04
5.085974540086e-04
3.338708731499e-04
5.663944208130e-04
4.607867018644e-04
4.188325094424e-04
9.506984599382e-06
6.324941147434e-04
5.453938741173e-04
1.417591420196e-04
2.896565988444e-04
6.779761233881e-04
7.292207765111e-04
7.724452351799e-04
7.631413849890e-04
7.522492980542e-04
5.710341565437e-04
5.845165157126e-04
5.896099673318e-04
6.701379748722e-04
4.114608174866e-04
-7.589417859166e-06
1.384947044461e-05
3.548072202479e-04
5.888607941662e-04
7.206099262939e-05
7.032403992137e-04
5.377530981575e-04
5.991972701467e-04
4.862600468549e-04
4.503044981908e-04
-3.435278445874e-06
5.791143094144e-04
4.203622147118e-04
7.139924910042e-04
7.264110502805e-06
1.854786341826e-04
7.779338182199e-04
2.704614862806e-04
1.388228423455e-04
3.999950013597e-04
5.125771276230e-04
1.887259670209e-05
6.281175154827e-04
4.124504217281e-04
1.415950822205e-05
7.590326286012e-04
5.575886537795e-04
5.561195950528e-04
5.720637765822e-04
5.692438174888e-04
5.863515824472e-04
5.842928185419e-04
5.656792974636e-04
5.815277591195e-04
5.614115962326e-04
6.021334597175e-04
5.781575122815e-04
5.567685517577e-04
5.743078869097e-04
5.519935176917e-04
5.343962417252e-04
5.289417007475e-04
5.110354357496e-04
5.050840669764e-04
5.238449089394e-04
4.996464105335e-04
4.804045448228e-04
4.749469923372e-04
4.550536992097e-04
4.497879900914e-04
4.290136342288e-04
4.242509581976e-04
4.453221081349e-04
4.202865205033e-04
3.985282679752e-04
3.951832647815e-04
3.726787039464e-04
3.700134717516e-04
3.925446461997e-04
3.681745955026e-04
3.447955924020e-04
3.439668671829e-04
3.197602233832e-04
3.200513533699e-04
2.950295761487e-04
2.963289905340e-04
3.208058831210e-04
2.980265285628e-04
2.729347057376e-04
2.756195662296e-04
3.002214418746e-04
2.787245245988e-04
3.028094102572e-04
2.821909213157e-04
2.579022838785e-04
2.621888187489e-04
2.859422164803e-04
2.666600790358e-04
2.427777486513e-04
2.480422255597e-04
2.714429836091e-04
2.535248235939e-04
2.300473591942e-04
2.361933696666e-04
2.593359187929e-04
2.424943560760e-04
2.193469584039e-04
2.261601428989e-04
2.490543260378e-04
2.331242609264e-04
2.557556557349e-04
2.100872674561e-04
2.175602068472e-04
1.943608941955e-04
2.023996398787e-04
3.905938118916e-04
1.791652970109e-04
1.709492832313e-04
1.876641409668e-04
2.106163820168e-04
1.643859923350e-04
1.732988267739e-04
1.500303264783e-04
2.938691906202e-04
5.190465224102e-04
1.592895154040e-04
1.360813986970e-04
1.264785983497e-04
1.126893641412e-04
6.023941644363e-04
6.201100472479e-04
6.189152947435e-04
6.377160125133e-04
6.355391111827e-04
1.224724147995e-04
5.961436601864e-04
6.388654031845e-04
4.613539988976e-04
3.760934447273e-04
3.239674562611e-04
1.822090933162e-04
1.685188959556e-04
1.911217392052e-04
2.715892883790e-04
2.779466532112e-04
2.936401332927e-04
2.996372668062e-04
3.151420859092e-04
3.208272347441e-04
3.058436336581e-04
3.267454719250e-04
3.122536325286e-04
3.360990566433e-04
3.309494879436e-04
3.328910350643e-04
3.188847627185e-04
3.393212753018e-04
3.257434731071e-04
3.050505265594e-04
3.123054769571e-04
2.914905399788e-04
3.260786503605e-04
3.469222341984e-04
3.485456439079e-04
3.690344603569e-04
3.702309819863e-04
3.903496004636e-04
3.910790104345e-04
3.718194897704e-04
5.700401449320e-04
2.501111234014e-04
2.468029388161e-04
2.235718546521e-04
2.195568566378e-04
1.959198673924e-04
1.911283423522e-04
1.669852584924e-04
1.730371037698e-04
1.436419823425e-04
1.510608227160e-04
1.213569097160e-04
1.299896475511e-04
4.414692147010e-04
3.899350795095e-04
4.109035025738e-04
4.110560727909e-04
1.026915765687e-04
3.328509032401e-04
3.516751951922e-04
3.469730275601e-04
3.923889101738e-04
9.946247631601e-05
1.614299810469e-04
1.867526019681e-04
6.550491358331e-04
6.518609533172e-04
3.675198659223e-04
1.092862084029e-04
3.471461720759e-04
1.130426351358e-04
3.197867707999e-04
3.401383670653e-04
2.911867926208e-04
4.318027072128e-04
4.323717317715e-04
1.586134887081e-04
1.385060666207e-04
1.105632504399e-04
1.198389754546e-04
1.470025647641e-04
1.286380926349e-04
1.016286047599e-04
1.110295536056e-04
1.376001706878e-04
1.206209066153e-04
9.415691176807e-05
1.042996927461e-04
3.529490918411e-04
9.071903589028e-05
5.176126892050e-04
3.717651268834e-04
4.109701267826e-04
6.722581169555e-04
6.680545946827e-04
6.477366537113e-04
6.630480726242e-04
6.841377521518e-04
6.783040918848e-04
6.572921827052e-04
6.718385256009e-04
6.508512062725e-04
6.647932774978e-04
6.863784817813e-04
6.787550325123e-04
6.571865990680e-04
6.706850795725e-04
6.490716020054e-04
6.621320347484e-04
6.841998425436e-04
8.704478011005e-05
3.737779911709e-04
3.942213025482e-04
1.782412334448e-04
1.999622391514e-04
2.134563818608e-04
2.223561549554e-04
6.751251045036e-04
6.976257644568e-04
1.564210469457e-04
1.829362417238e-04
6.756382940250e-04
3.275658166863e-04
3.069754872326e-04
3.493553685020e-04
3.526984200426e-04
3.248102634008e-04
3.276109615695e-04
3.571378655038e-04
2.980208380098e-04
3.258464123225e-04
7.008086783547e-04
1.167860469118e-04
9.262285987884e-05
3.477705553262e-04
3.528411390407e-04
4.660175315111e-04
4.622184738433e-04
4.864329393990e-04
4.825638666749e-04
5.066288533568e-04
5.025156030945e-04
4.791400683689e-04
4.530240519537e-04
4.989622641230e-04
6.529016810841e-04
3.896055352731e-04
1.465591106907e-04
7.678593882358e-05
7.743181576590e-05
9.619598890494e-05
1.190397400268e-04
3.873056468870e-04
5.266542338115e-04
5.307027642952e-04
3.326097849687e-04
3.631662746689e-04
4.516664152869e-04
6.172700228329e-04
6.370105089753e-04
6.304584792831e-04
7.176100477532e-05
6.778085486794e-05
7.000346193773e-04
2.126239886318e-04
2.102530995310e-04
8.089391206590e-05
5.876032409120e-05
6.880049130002e-04
7.105250640049e-04
2.355858509428e-04
2.441130999244e-04
3.837944372204e-04
8.851386776274e-05
7.202567920549e-04
3.556826886094e-04
3.343031103232e-04
2.089467090203e-04
1.519491660868e-04
1.248940317337e-04
1.635984982367e-04
1.142191222699e-04
1.059519459580e-04
4.033394571770e-04
7.059521524248e-04
4.761530102236e-04
4.559584832015e-04
4.957900625636e-04
6.257986346619e-05
3.914685920113e-04
3.355677224345e-04
5.500872892235e-04
5.548093939826e-04
2.391409855553e-04
2.387315479752e-04
2.092872726400e-04
2.394939708650e-04
5.461355849603e-04
2.668363650432e-04
4.938858522492e-04
5.019289494054e-04
4.772070524021e-04
3.858941344441e-04
3.932195354833e-04
2.437848253613e-04
3.455800441482e-04
2.271862732844e-04
2.840726266767e-04
2.877875314073e-04
7.084602409657e-04
7.233661471159e-04
6.360109838256e-04
6.277804474848e-04
7.871819557910e-05
6.815981505235e-05
2.626376929485e-04
3.761135392026e-04
6.935823752685e-04
6.971847294710e-04
6.781787115856e-04
4.002553295524e-04
2.279923435799e-04
3.285111959157e-04
6.970984072274e-05
4.142761336190e-04
5.494530032335e-05
5.428145279879e-04
3.557087403690e-04
3.675763295633e-04
4.720882212699e-04
5.393651896982e-04
4.123067607685e-04
3.893945716073e-04
4.868692303849e-04
4.611151959015e-04
4.509855815134e-04
4.328425544412e-04
1.716334418596e-04
1.551097668732e-04
5.480602996360e-04
5.182156670448e-04
5.745087165590e-04
5.798832458774e-04
4.705310758119e-04
4.506020147457e-04
1.279880954948e-04
3.709579674344e-04
7.224926133362e-04
5.108500309579e-04
3.948501452236e-04
3.812053388173e-04
3.761614815793e-05
4.904264837231e-05
7.335069837600e-04
2.085756634047e-04
2.396164575888e-04
1.777810215208e-04
3.946841263721e-04
5.886487991903e-04
3.755765775534e-04
4.144941842390e-04
7.435244877728e-04
4.112147056728e-04
3.220363612494e-04
3.802576110873e-04
7.220250457632e-04
7.470497958994e-04
6.174429298983e-04
6.097229809510e-04
6.227704514983e-04
1.052591462482e-04
6.943669488393e-05
7.150812130671e-04
1.552122035942e-04
1.668133382683e-04
9.839497455007e-05
1.231946585517e-04
2.491013367814e-04
2.411159325369e-04
5.386567855380e-04
5.624242928011e-04
4.904863328245e-04
3.379431686398e-04
3.162645102755e-04
3.124117300854e-04
7.306995550289e-04
7.480303928567e-04
1.886125594519e-04
1.812419394570e-04
1.792550678246e-04
7.285600035647e-04
3.871596733170e-04
3.790511116154e-04
4.408118417187e-05
5.720561344174e-05
1.190591413339e-04
9.203516472585e-05
6.996120288224e-04
6.797940744695e-04
7.207126168617e-04
1.134501502938e-04
4.544556743929e-04
4.189371730871e-04
4.170821305329e-04
4.245616516516e-04
4.736308300017e-04
4.912814454968e-04
5.145022076931e-04
2.548930255453e-05
7.399708357679e-04
6.142141103713e-04
9.543625442957e-06
6.060273599394e-04
6.188369122853e-04
5.957805985863e-04
9.138812505256e-05
6.010691214471e-04
6.088706540299e-04
2.862913635554e-05
7.457804312900e-04
3.250674278001e-05
4.258317696989e-05
4.007174066662e-04
3.864587330181e-04
4.049110800331e-04
3.909084779228e-04
3.724901852873e-04
3.790354426218e-04
6.012963092203e-04
4.004871099876e-04
3.858790948063e-04
4.077293719400e-04
4.454242427566e-04
2.692385220446e-04
2.721729382305e-04
2.428989901970e-04
6.032747005195e-04
6.032157648906e-04
3.444814141981e-04
3.238877250129e-04
6.082703083830e-04
6.077553445056e-04
6.271579748740e-04
6.250936273554e-04
6.447772147780e-04
6.422319272807e-04
6.624562996724e-04
5.393905087665e-04
1.752644678701e-04
4.988094172064e-04
4.684316972097e-04
4.483377423302e-04
4.024482100932e-04
3.828369720804e-04
4.127030107015e-04
2.667927727754e-04
7.546108849491e-04
-3.242884564442e-06
2.768794415174e-05
2.938007327587e-04
4.227357338330e-04
3.006605967292e-04
3.071299895485e-04
3.593809554312e-04
4.712122144445e-05
1.478107840243e-04
6.642230538894e-04
1.135504727920e-04
3.343061212822e-04
2.685149461447e-04
4.077811139302e-04
1.801214466572e-04
2.684495815055e-04
5.401550375120e-04
5.517245276666e-04
5.322466572313e-04
2.706215462606e-04
3.395930816018e-04
3.124900319518e-04
4.867254923568e-04
6.588330010027e-04
6.595024270491e-04
6.799344059077e-04
6.589637262548e-04
6.387309207929e-04
6.374989279102e-04
6.586649941518e-04
6.360778207465e-04
6.610438140980e-04
6.329461865589e-04
6.125083192098e-04
6.089060195970e-04
6.271010243606e-04
5.890117377605e-04
4.871427685731e-04
3.200545918822e-04
4.664362952925e-05
5.000855860763e-05
4.350366288531e-04
6.915234440989e-04
7.182993082857e-04
2.158537173344e-04
6.155636178846e-04
5.247854529583e-04
1.368459422349e-04
5.827018473575e-04
6.392069006184e-04
6.191540540454e-04
6.200258959181e-04
7.382616138059e-04
6.280267586455e-04
5.241547337382e-04
3.681701301922e-04
3.673594851338e-04
3.444513489603e-04
6.153181011433e-04
4.753891636645e-04
4.555133059568e-04
4.468602768254e-04
4.338525554681e-04
4.577478959268e-04
6.649062303519e-04
6.499975598440e-04
1.553510768261e-04
1.738205542647e-04
1.995216158398e-04
1.929239926141e-04
1.662778176349e-04
1.861931659674e-04
2.125205025923e-04
1.794684577467e-04
5.828178904133e-04
4.441024891786e-04
3.096536486819e-04
3.041691236291e-04
2.820286982171e-04
2.189029247352e-04
2.331913591895e-04
2.552890430877e-04
2.048755247872e-04
4.588332550749e-04
4.379329223021e-04
3.312370864435e-04
2.253001405063e-04
5.755857033477e-04
5.870901597330e-04
5.805216933956e-04
5.994479882272e-04
5.937379739527e-04
2.571969895367e-04
2.654325673176e-04
2.528011651498e-04
2.737926841974e-04
2.610415873660e-04
2.414484044863e-04
2.819094957051e-04
2.680270954015e-04
5.816650581385e-04
-5.443505034508e-06
1.981245626157e-05
1.994413331706e-05
4.368955685658e-05
4.572835353237e-05
7.174987271260e-05
6.901730821884e-05
1.932832715098e-05
-1.453813238560e-06
2.136659407093e-05
7.443664554062e-07
2.209757277714e-05
4.775474169697e-05
8.281589389204e-05
4.073577386893e-04
2.073637116411e-04
1.968317748815e-04
1.756466294917e-04
1.873342523161e-04
2.163209593562e-04
1.635978568339e-04
1.555565133417e-04
1.450425600510e-05
3.188825235879e-05
2.995319095283e-05
5.102881300716e-05
5.045161424179e-05
3.166844524832e-05
3.115350695753e-05
1.293559709515e-05
3.053611869572e-05
5.074876821428e-05
1.143086305097e-05
6.924222189091e-04
7.046326773131e-04
4.273479775817e-04
5.877100921985e-04
5.300580619816e-06
7.700914922879e-04
7.682564684902e-04
7.713345179725e-04
3.751441312400e-04
3.854088560737e-04
7.726010740058e-04
1.406931483048e-04
6.790733126846e-04
7.292070886371e-04
1.306796694740e-04
1.390525850709e-04
3.151693807981e-04
2.980458031686e-04
3.599118884818e-04
2.991313906520e-04
3.460183456260e-04
4.369333206958e-04
8.390959431273e-05
6.436853674386e-04
6.404787800377e-04
6.927054103991e-04
1.455489754997e-04
2.320629420661e-04
8.923770723908e-05
5.741834719406e-04
4.688164356162e-04
2.653774245651e-04
1.962637661242e-04
1.555619037329e-04
1.301302402412e-04
3.465923416811e-04
2.403329270906e-04
3.414882854218e-04
7.065627256796e-04
1.052308857706e-05
3.564637415427e-04
2.844731370507e-04
6.427207855748e-04
4.108127098914e-04
8.461337604543e-05
6.934282049289e-04
7.150364204577e-04
6.136621731471e-04
6.562918752367e-05
6.226261375472e-04
4.061319412625e-04
6.574041768823e-04
1.321762894919e-04
3.057474323806e-04
4.026487738926e-04
5.312204990884e-04
7.373722817677e-04
3.670487403209e-04
4.125303923221e-04
3.505263554047e-04
1.419738743589e-04
3.670559972111e-04
3.222058576667e-04
7.155706019699e-04
5.106387196931e-04
2.538312934844e-04
6.892599991437e-04
2.765147048571e-04
4.310953186032e-04
4.423631247149e-04
4.702250041119e-04
5.472075614926e-04
4.169926711879e-04
3.030475383350e-04
3.616098857267e-04
1.002214344590e-04
2.961398108350e-04
6.325248530945e-04
5.214718676215e-04
7.381333016622e-04
3.803944908941e-04
3.530205286771e-04
7.109892452318e-04
2.477442758476e-04
9.726394279176e-05
9.940596353175e-05
2.010943153843e-04
3.438210520449e-04
2.696975517090e-04
7.028239090867e-04
3.592656425266e-04
3.634001856657e-04
4.682600900240e-05
5.206879429172e-04
3.658701394573e-04
3.089682264918e-04
4.302730080008e-04
2.479151855651e-04
5.578821901048e-04
4.155278659141e-04
3.730290007395e-04
3.768591448986e-04
2.410697040402e-04
5.892611165453e-04
3.950361291041e-04
3.972000678453e-04
4.381693818985e-04
2.899091452454e-04
4.915575238727e-04
2.768689447148e-04
4.947717949712e-04
7.464628933635e-04
4.133972813774e-04
6.008860748192e-04
2.628283586299e-04
4.109808639755e-04
5.040569835641e-05
4.738184685700e-04
2.704890974578e-04
2.066941307317e-04
2.941650145676e-04
4.901140571120e-04
2.783415902691e-04
2.327925401469e-04
2.863327329774e-04
4.325571057849e-04
5.988568357941e-04
2.944480318622e-04
5.146449863383e-04
5.203077257546e-05
4.353372698435e-04
3.649164475276e-04
1.866895661018e-04
2.989064269697e-04
6.176212135080e-04
3.671509334242e-04
3.208193984406e-04
5.346988688373e-04
4.335236438451e-04
3.668439729373e-04
3.423882342475e-04
3.507946648170e-04
1.316215329534e-04
1.075103031547e-04
2.377481214581e-04
5.589557114683e-04
6.963665959013e-05
5.927321698679e-04
7.287642569408e-05
2.183175768787e-04
4.539858380623e-04
6.492418184002e-04
2.241382273160e-04
1.196311766141e-04
2.060737951767e-04
3.891545570587e-04
2.127094563138e-04
1.958072352778e-04
7.515471310087e-04
2.029189564660e-04
7.768266528511e-04
4.074068741569e-04
6.058530651622e-04
3.019828915333e-04
-8.145639708698e-06
2.807075921205e-04
1.630937668127e-04
5.659526532852e-04
6.066628066376e-04
1.472691028272e-04
6.512842197513e-04
5.516401278345e-04
6.814742360901e-04
4.294687124575e-04
4.328757250538e-04
7.352434270359e-04
5.864928103229e-04
2.318416129546e-05
3.132168451448e-04
2.323599058594e-04
2.071958130373e-04
1.435170278786e-04
1.494427159012e-04
4.342512732765e-05
1.721634088738e-04
4.630041194481e-04
5.999984210374e-04
4.746792731245e-04
1.071845637183e-04
7.324956317425e-04
5.145160960058e-04
4.208187519109e-04
4.940355258946e-04
8.401797753186e-05
6.020577696663e-04
5.894681492194e-04
6.984158240866e-04
4.173801835190e-04
5.926869716389e-04
7.572001719399e-04
8.180376360814e-05
7.586920318378e-04
5.855953849236e-04
6.319470498396e-04
5.882485563479e-04
3.948933682939e-04
6.787554735632e-04
5.582029091950e-05
6.795852014035e-04
1.882410610917e-04
1.498763353320e-05
4.109204069910e-04
6.051246863191e-04
3.954088622657e-04
5.019847424297e-05
2.340047297094e-05
4.230234484546e-04
6.251976268120e-04
9.338187487408e-05
7.656871905806e-04
2.420363771929e-05
5.829526962010e-04
2.778476855104e-05
4.140235806337e-04
7.498460664740e-04
2.069225172339e-04
5.656299827475e-04
1.347171457786e-04
5.365245105082e-04
4.044153988028e-05
7.561874297365e-04
4.355874914050e-04
7.174903668976e-04
5.023127599767e-04
1.568152323120e-05
5.317630912341e-04
4.296958009626e-04
5.869545435577e-04
6.970683264840e-04
1.673702288769e-04
6.808083019174e-05
7.799728696658e-04
1.133690258877e-05
5.863009992759e-04
4.110652734005e-04
6.532367858219e-05
6.218023292282e-04
6.408131452939e-04
2.530847438231e-04
7.221628585244e-04
6.194876775157e-05
-1.266486529340e-05
6.608640417020e-04
5.056112301419e-04
7.333711366595e-04
6.442960590648e-04
7.396402813988e-05
6.206289206704e-04
2.236352135178e-04
5.678238454468e-04
4.457845308884e-04
-1.088549342917e-06
2.717179302725e-04
2.394114990960e-05
4.069718992504e-04
2.326615466796e-04
5.297423535321e-04
5.382559697606e-04
5.441933319682e-04
5.592752606059e-04

SCALARS node_materi_strain_total_size_dev_sd_ept float
LOOKUP_TABLE default
8.553180857579e-06
1.552798893614e-03
1.005370890564e-03
1.937975243581e-03
2.989757988590e-05
7.330816803005e-05
1.120147220482e-04
1.559274636693e-04
1.980985661782e-04
2.396596634899e-04
2.819548595255e-04
3.254389148449e-04
3.703660999995e-04
4.179854899010e-04
4.696669852458e-04
5.211517165779e-04
5.700892763798e-04
6.276271561012e-04
6.897766185270e-04
7.532050504655e-04
8.205969498365e-04
8.919864353338e-04
9.619067420587e-04
1.938230695169e-03
1.936074612138e-03
1.936399130816e-03
1.935447919081e-03
1.933957307498e-03
1.933552280866e-03
1.931733473849e-03
1.927920083409e-03
1.925130799758e-03
1.919129128724e-03
1.912769479788e-03
1.904632212150e-03
1.893845170771e-03
1.879506889286e-03
1.863680891320e-03
1.842282430693e-03
1.819457478354e-03
1.792967491643e-03
1.763219698479e-03
1.730368817623e-03
1.693064965601e-03
1.654406324450e-03
1.612893124055e-03
1.570208491696e-03
1.527709126396e-03
1.485199849245e-03
1.442773342202e-03
1.400693969964e-03
1.359592147186e-03
1.324523800834e-03
1.285270471541e-03
1.247119119378e-03
1.212789881028e-03
1.184978237635e-03
1.158087230599e-03
1.134649729415e-03
1.113187242895e-03
1.093539807769e-03
1.075558949719e-03
1.060430582299e-03
1.050310673007e-03
1.043188166935e-03
1.035848118071e-03
1.018698910916e-03
1.021176239369e-03
1.014588181268e-03
1.013000429601e-03
1.012903396167e-03
1.011407089961e-03
1.602979265895e-03
1.652784842578e-03
1.699358353464e-03
1.742605675090e-03
1.784092842193e-03
1.822588061941e-03
1.858121456538e-03
1.890366729052e-03
1.921699846504e-03
1.738046531932e-04
1.595544816142e-03
3.362478284267e-04
4.948291052026e-04
6.490749150267e-04
7.963549773559e-04
9.489366992701e-04
1.106620950028e-03
1.277096868225e-03
1.483418226374e-03
1.539150204674e-03
1.471801472707e-03
1.500317414330e-03
1.546080386974e-03
1.549593533700e-03
1.550261953620e-03
1.550082840936e-03
1.557919447210e-03
1.552929764334e-03
1.553516449447e-03
1.555496690015e-03
1.559543363897e-03
1.562073959225e-03
1.564860185560e-03
1.569092640489e-03
1.574195002754e-03
1.581925158977e-03
1.697100315660e-04
1.829220471217e-04
1.815332773091e-04
1.691580013434e-04
1.517826037555e-04
1.366276986655e-04
1.204765959405e-04
1.040032664038e-04
8.867540953813e-05
7.409521263477e-05
6.071473618508e-05
5.186074800400e-05
3.935075472212e-05
2.834602169387e-05
2.132069729782e-05
1.679252367130e-05
1.280983745877e-05
9.221700596257e-06
8.122414339360e-06
1.476617656216e-03
1.473063533678e-03
1.472540832405e-03
1.472148340655e-03
1.471157393382e-03
1.469939336011e-03
1.468245749238e-03
1.466155989303e-03
1.463313287933e-03
1.460676325017e-03
1.458071095171e-03
1.455728114226e-03
1.454645474250e-03
1.454926694468e-03
1.458449956156e-03
1.471265892856e-03
1.499628946940e-03
1.511652852032e-03
1.513155358298e-03
1.503765058731e-03
1.499802092803e-03
1.498133734390e-03
1.497469502723e-03
1.497295529878e-03
1.497754551050e-03
1.498218836403e-03
1.498634811728e-03
1.498901887437e-03
1.499120743320e-03
1.499485716628e-03
1.499461505236e-03
1.500333823393e-03
1.501629140780e-03
2.477947587415e-04
4.184982776401e-04
5.725384694129e-04
7.259198086653e-04
8.793655622315e-04
1.031638985076e-03
1.189293248653e-03
1.382001568039e-03
1.532308074833e-03
1.573014534155e-03
4.284982173735e-04
1.157328511295e-03
8.248530650890e-05
1.406848214153e-04
1.046945980161e-03
7.501367462256e-04
4.451543659178e-04
1.294876116845e-03
1.053753429000e-03
1.472629549595e-03
1.418215474204e-03
1.005129825384e-03
4.224470861896e-05
1.654778870961e-03
1.614977428119e-03
2.626255167704e-04
5.898952161946e-04
1.768786603684e-03
1.871017785586e-03
1.926206919214e-03
1.920468279212e-03
1.907255741036e-03
1.635289969952e-03
1.616412966277e-03
1.609399603826e-03
1.764246268460e-03
9.844439704713e-04
1.582580330827e-04
2.872822981341e-05
7.843240555023e-04
1.596594310513e-03
1.342124653100e-04
1.826180198739e-03
1.387825764079e-03
1.566147887480e-03
1.220850840268e-03
1.107997473253e-03
1.191312419480e-04
1.623676796721e-03
1.007099935573e-03
1.840440626521e-03
6.207562296679e-05
3.479402855053e-04
1.930797836073e-03
8.982560344814e-04
5.884827350650e-04
1.222439191541e-03
1.544617297071e-03
2.679984136408e-04
1.680102618113e-03
9.910701769848e-04
2.217988594560e-05
1.904037055933e-03
1.642122675954e-03
1.647338476196e-03
1.676794838196e-03
1.674955184027e-03
1.709991709639e-03
1.700968120819e-03
1.659156420885e-03
1.682483190967e-03
1.631484007949e-03
1.736961848208e-03
1.655280634148e-03
1.596189589168e-03
1.621794707036e-03
1.556655823900e-03
1.527978917548e-03
1.483308868518e-03
1.451223428935e-03
1.402646228536e-03
1.438818910250e-03
1.355495654699e-03
1.315657437055e-03
1.267620703906e-03
1.224721226236e-03
1.176939412205e-03
1.131380684046e-03
1.084991000665e-03
1.133593712181e-03
1.043474712594e-03
9.933331005476e-04
9.540916659846e-04
9.029329254331e-04
8.662018568854e-04
9.201599287672e-04
8.353898218171e-04
7.804164833548e-04
7.534359267682e-04
6.978914467919e-04
6.751962437029e-04
6.196125188654e-04
6.008841840917e-04
6.580845854501e-04
5.878574310355e-04
5.315089523856e-04
5.227232001894e-04
5.802167855950e-04
5.191893601072e-04
5.775337523634e-04
5.203029847958e-04
4.643179075845e-04
4.689469967432e-04
5.253453152792e-04
4.768995694481e-04
4.233569042543e-04
4.341211202677e-04
4.880505224736e-04
4.474547532668e-04
3.965298792969e-04
4.115924323109e-04
4.632618396323e-04
4.283889244114e-04
3.797245526124e-04
3.972476075304e-04
4.469348346412e-04
4.160543620311e-04
4.668395281891e-04
3.687346643118e-04
3.877132287239e-04
3.424537236282e-04
3.614976976462e-04
8.919883821100e-04
3.180382567611e-04
3.006371661060e-04
3.368251516253e-04
3.816824248734e-04
2.946570025964e-04
3.131013651530e-04
2.719910076107e-04
6.436753942835e-04
1.395875013638e-03
2.899842738049e-04
2.495496523592e-04
2.327781065279e-04
2.105200961179e-04
1.738819894697e-03
1.767702754836e-03
1.764606968268e-03
1.795284849047e-03
1.789155786896e-03
2.268558732435e-04
1.678819048338e-03
1.793945364316e-03
1.276764657443e-03
9.449362666668e-04
6.403096829142e-04
3.323121972150e-04
3.087390462594e-04
3.522955434461e-04
5.003636727810e-04
5.211502057575e-04
5.574007631568e-04
5.789492260196e-04
6.179768597399e-04
6.402634827990e-04
6.017272773024e-04
6.638016419457e-04
6.255466511954e-04
6.820613578128e-04
6.604803737668e-04
6.883560925806e-04
6.502978225758e-04
7.139086222363e-04
6.758262328739e-04
6.146122952755e-04
6.398584069201e-04
5.812169736088e-04
6.385231044258e-04
7.030359521953e-04
7.021148542772e-04
7.682205771632e-04
7.684410954798e-04
8.360681574252e-04
8.375887469969e-04
7.728412440353e-04
1.584747721600e-03
4.677773938430e-04
4.776121064979e-04
4.153767449957e-04
4.264397123243e-04
3.657583513212e-04
3.786093846247e-04
3.194083855358e-04
3.123209704128e-04
2.680401910845e-04
2.668897115448e-04
2.254574360039e-04
2.298882509374e-04
1.095016893989e-03
8.386882417562e-04
9.079020685285e-04
9.123918585627e-04
1.949388012662e-04
7.019932678763e-04
7.274910704658e-04
7.065985534508e-04
8.437394678420e-04
1.880889903664e-04
3.349325919664e-04
3.999703536733e-04
1.819110979331e-03
1.810526100951e-03
7.768112989740e-04
2.040643200811e-04
7.293770308109e-04
2.280012101003e-04
6.656379630124e-04
7.286264407434e-04
5.662212478783e-04
9.828493466140e-04
9.885231032290e-04
2.719385768413e-04
2.390779354962e-04
2.022999150625e-04
2.139347038731e-04
2.502642205135e-04
2.252972506236e-04
1.911607447412e-04
2.040411127406e-04
2.390186005158e-04
2.178299730861e-04
1.850646267745e-04
1.979529843719e-04
7.672669431742e-04
1.891738275476e-04
1.500317418426e-03
7.979306845382e-04
9.098063379499e-04
1.840091999673e-03
1.829728417334e-03
1.795698130178e-03
1.814409862081e-03
1.846858162999e-03
1.831548505107e-03
1.795282135721e-03
1.812942148615e-03
1.773251326194e-03
1.791896924511e-03
1.829645926660e-03
1.809577219980e-03
1.769222673396e-03
1.788125573480e-03
1.745595919939e-03
1.765559012387e-03
1.806299022074e-03
1.660306191488e-04
7.812508759437e-04
8.545229872305e-04
3.295059621082e-04
3.722149115746e-04
3.979817706757e-04
4.198111773037e-04
1.784890063323e-03
1.824068094563e-03
3.606299337880e-04
4.313029378220e-04
1.844776726031e-03
6.922701800279e-04
6.314714868221e-04
8.538938303977e-04
8.986948715593e-04
8.074312766015e-04
8.549778821791e-04
9.493247322453e-04
7.633581314792e-04
6.399914963114e-04
1.845387016943e-03
2.169757598760e-04
1.804578903070e-04
7.563865632812e-04
7.122879433948e-04
1.183514179445e-03
1.148019334248e-03
1.234891732212e-03
1.202606996448e-03
1.287920121252e-03
1.259259714514e-03
1.175791391755e-03
1.060105174350e-03
1.236782509470e-03
1.741954323588e-03
8.447266948325e-04
2.539639075567e-04
1.502126293482e-04
1.654230848769e-04
1.802637286604e-04
2.208433944816e-04
8.503075360159e-04
1.343338811318e-03
1.371243694907e-03
9.104253598412e-04
1.004852072782e-03
1.055968653180e-03
1.753357082581e-03
1.753707966219e-03
1.728081184060e-03
1.370578324155e-04
1.559422663530e-04
1.862506418300e-03
4.711415212581e-04
5.076527100303e-04
1.943513100528e-04
1.604370026551e-04
1.803444707084e-03
1.840613572716e-03
4.461840409831e-04
4.689991507434e-04
8.305648655974e-04
1.782906851994e-04
1.859002136369e-03
7.233901469431e-04
6.564535066080e-04
3.931380989324e-04
3.985511871744e-04
3.278802066491e-04
2.776513071423e-04
2.117998030335e-04
1.971018869834e-04
9.073851271214e-04
1.873810890527e-03
1.155091690784e-03
1.092420257057e-03
1.219668157408e-03
1.475444529017e-04
8.730490745078e-04
7.198771882731e-04
1.423703472840e-03
1.451226112868e-03
5.474910170013e-04
5.889511894635e-04
5.555239152434e-04
6.402879061943e-04
1.608618107509e-03
6.294825736806e-04
1.419974646168e-03
1.473054539355e-03
1.388679673012e-03
1.044601850301e-03
1.102215257043e-03
4.934750293366e-04
7.081867255251e-04
4.241745343150e-04
5.569512269295e-04
5.372184450413e-04
1.862355962170e-03
1.876674444263e-03
1.724446586313e-03
1.698723267401e-03
1.577854363032e-04
1.448157553688e-04
4.880298513503e-04
8.205120909457e-04
1.864444932752e-03
1.865895981219e-03
1.843811316574e-03
8.878533253843e-04
4.105506183901e-04
6.408402360228e-04
1.626555579258e-04
9.757239498036e-04
1.214068754268e-04
1.475222181993e-03
7.850604750240e-04
8.232086253890e-04
1.132701652454e-03
1.610005469138e-03
9.506247917054e-04
8.698492320797e-04
1.445228119481e-03
1.358526566433e-03
1.297743248471e-03
1.265398927286e-03
2.929590322409e-04
2.692322803226e-04
1.407417804531e-03
1.300319629237e-03
1.500068071766e-03
1.528543828040e-03
1.130744043239e-03
1.054773701772e-03
2.372084307412e-04
1.066341548740e-03
1.888321733746e-03
1.522310368474e-03
8.950170119322e-04
8.453187460780e-04
1.424309011989e-04
1.451758637840e-04
1.874830778678e-03
6.131168793509e-04
6.973954463365e-04
5.289798907810e-04
9.260050873033e-04
1.592894965522e-03
8.530817271704e-04
1.142283399703e-03
1.891175405069e-03
9.318752235385e-04
7.642226668531e-04
8.122394615600e-04
1.855462034377e-03
1.891457525000e-03
1.705812191017e-03
1.677030594039e-03
1.731398533375e-03
2.397069678289e-04
2.103807587149e-04
1.860541718417e-03
2.856667225029e-04
3.091895857663e-04
1.906259245594e-04
2.253485777827e-04
4.738401797276e-04
4.513648594929e-04
1.437317100835e-03
1.513673531841e-03
1.271218914380e-03
6.698164142828e-04
6.055177263309e-04
5.933890740170e-04
1.889273683805e-03
1.904894056734e-03
3.192860813143e-04
3.047523180701e-04
3.085892927372e-04
1.896191238343e-03
8.924187551429e-04
8.636023698266e-04
1.110516544316e-04
1.331424390981e-04
3.725909153986e-04
2.997649465443e-04
1.860616869573e-03
1.837388601511e-03
1.882741018870e-03
2.107343056069e-04
1.075612666402e-03
9.664877795387e-04
9.487462230152e-04
9.973903778293e-04
1.136450737764e-03
1.206911499812e-03
1.288712401561e-03
1.418896595340e-04
1.879375327188e-03
1.672899426657e-03
1.414359658706e-04
1.646035224974e-03
1.672697436344e-03
1.617301020979e-03
1.703584131755e-04
1.673475763156e-03
1.708782846574e-03
9.416301651934e-05
1.907745126221e-03
8.795957344664e-05
9.815948342402e-05
9.197231209096e-04
8.697991969636e-04
9.436078272856e-04
8.946664305528e-04
8.232162999702e-04
8.513435324660e-04
1.647044332794e-03
9.337747562416e-04
8.812830706731e-04
9.632746669543e-04
1.334414635944e-03
7.262333541971e-04
7.845136152297e-04
7.740177741815e-04
1.582354976503e-03
1.596589722277e-03
7.498725082363e-04
6.861810491642e-04
1.644384853630e-03
1.639467377013e-03
1.684243263095e-03
1.676478608596e-03
1.719496567103e-03
1.710974739953e-03
1.752827734071e-03
1.376495457211e-03
5.937657763523e-04
1.500877361332e-03
1.131348071343e-03
1.053375104275e-03
1.164788591938e-03
1.137837581815e-03
9.612834475352e-04
5.928926128877e-04
1.912902858563e-03
1.665019192196e-04
1.750682494691e-04
6.754782338180e-04
1.201692921599e-03
8.156337956588e-04
8.794809646686e-04
7.386669877332e-04
1.242037377399e-04
4.492255454071e-04
1.760172442822e-03
4.321719251412e-04
7.187752097973e-04
5.661616225060e-04
1.087237898220e-03
4.747880915755e-04
6.755566003344e-04
1.570882503768e-03
1.635684063264e-03
1.585382863283e-03
5.459158007689e-04
9.719678750122e-04
9.490672427520e-04
1.366813526762e-03
1.817094383908e-03
1.806780952237e-03
1.824137082815e-03
1.791226318116e-03
1.770683531742e-03
1.750768927519e-03
1.772403812927e-03
1.727613923090e-03
1.757574562422e-03
1.700527922260e-03
1.673076183222e-03
1.643698293489e-03
1.671663581472e-03
1.613627229493e-03
1.209133145148e-03
7.266847024035e-04
1.661602913344e-04
2.220926406230e-04
1.183007891054e-03
1.798576935322e-03
1.854196908896e-03
4.445843367792e-04
1.611239239741e-03
1.546883753577e-03
2.774237231552e-04
1.519989282839e-03
1.785638810226e-03
1.748486256763e-03
1.762105575113e-03
1.887184464071e-03
1.755578272128e-03
1.347300230271e-03
7.721621979299e-04
7.799029665107e-04
7.177307421235e-04
1.702263658791e-03
1.188001606586e-03
1.097400487244e-03
1.069971189061e-03
1.007258364620e-03
1.129717371972e-03
1.735592258384e-03
1.698704186536e-03
2.632348761575e-04
2.917467685953e-04
3.364210558394e-04
3.255925315638e-04
2.806201207645e-04
3.171765561353e-04
3.651615439863e-04
3.121439566004e-04
1.554618845772e-03
1.085905409571e-03
5.970240350602e-04
5.773514035661e-04
5.185402635057e-04
4.026871459874e-04
4.294017533367e-04
4.799616063769e-04
3.771370115003e-04
1.117303103815e-03
1.066116486240e-03
6.468636364210e-04
4.080492601913e-04
1.631008106360e-03
1.680494039022e-03
1.684146896625e-03
1.724249360141e-03
1.681528939169e-03
4.969357421272e-04
5.204218059467e-04
4.920498356087e-04
5.442005489992e-04
5.139080867303e-04
4.666650100628e-04
5.671966915721e-04
5.330195477406e-04
1.619813631468e-03
1.300840484892e-04
1.262829044672e-04
1.200326530303e-04
1.384939812579e-04
1.403650973129e-04
1.608429623857e-04
1.591036212399e-04
1.311447380569e-04
1.066294341575e-04
1.120067444652e-04
9.365494133354e-05
1.039999916236e-04
1.328567507073e-04
1.681026945580e-04
9.717181178649e-04
3.935900896392e-04
3.711515420647e-04
3.276417904923e-04
3.507451305559e-04
4.122183947796e-04
3.045112895643e-04
2.888958616656e-04
2.563825780406e-05
5.856268155161e-05
5.434965628313e-05
9.519369047005e-05
9.556531359549e-05
6.075502624654e-05
6.359638462169e-05
3.211004674026e-05
6.677799729698e-05
1.013758447050e-04
3.578664282529e-05
1.804440908622e-03
1.825668763888e-03
1.031033906083e-03
1.616415329118e-03
7.106396302753e-05
1.922510664610e-03
1.924577097896e-03
1.925940376996e-03
8.540039916627e-04
8.892019352050e-04
1.923029428588e-03
2.547646548311e-04
1.810278384978e-03
1.875331324995e-03
2.965928813014e-04
2.471346774598e-04
6.578706100174e-04
5.900907375123e-04
7.945079022755e-04
6.061218092530e-04
7.403214325836e-04
1.035917549693e-03
1.576165692973e-04
1.749106333293e-03
1.721348312923e-03
1.826532947650e-03
2.671339011048e-04
4.435079451260e-04
1.726304493681e-04
1.489106061948e-03
1.332150074497e-03
4.809841516051e-04
3.566070667048e-04
2.772966671712e-04
2.324264812994e-04
8.141218217348e-04
4.362450890710e-04
7.050821926901e-04
1.842991177861e-03
5.677248226816e-05
7.495859404402e-04
5.431614672953e-04
1.776359838517e-03
9.067201003332e-04
1.744316234766e-04
1.847426333637e-03
1.882819402086e-03
1.733767725516e-03
1.347279690712e-04
1.701271756760e-03
9.284267061143e-04
1.821396864852e-03
2.440579970442e-04
5.792314856466e-04
1.037715666094e-03
1.583479613298e-03
1.889152114779e-03
8.106116204458e-04
9.195130994335e-04
7.052902403167e-04
2.624148438560e-04
7.983994376437e-04
6.467194107938e-04
1.876976889968e-03
1.320241684221e-03
4.636105822067e-04
1.858037108061e-03
5.019573321227e-04
9.800357756452e-04
1.238980077133e-03
1.223467303643e-03
1.515423886510e-03
1.006981129902e-03
6.251913589326e-04
7.735323073278e-04
1.923264379723e-04
7.177451080459e-04
1.775151992863e-03
1.316926006703e-03
1.901391251084e-03
9.922893028271e-04
7.543957478872e-04
1.880650141783e-03
4.576512325921e-04
1.801813089986e-04
2.674475565661e-04
3.600514085454e-04
7.325621833373e-04
5.103262431212e-04
1.852708333430e-03
7.806104951518e-04
7.570726229970e-04
3.472844240869e-04
1.562149622721e-03
8.079309204451e-04
5.846831303256e-04
9.798441124610e-04
4.833104852070e-04
1.438132206660e-03
1.235952969584e-03
8.368835382723e-04
7.951579217092e-04
5.162517044007e-04
1.595503113742e-03
9.190724429362e-04
8.709991215953e-04
1.061356575359e-03
5.336699034204e-04
1.492411258574e-03
5.334027537410e-04
1.311371481479e-03
1.898506518273e-03
9.310371446724e-04
1.725420585071e-03
5.027132373374e-04
9.195864050593e-04
9.765941674719e-05
1.422990289528e-03
5.260970601033e-04
3.603318856650e-04
5.451613858479e-04
1.207185558661e-03
5.500874162685e-04
4.110579127391e-04
5.744918935624e-04
1.318253489159e-03
1.705658228759e-03
5.990501694740e-04
1.356025768892e-03
1.083358720471e-04
1.033043155716e-03
8.174068340771e-04
3.249001475251e-04
5.597645043842e-04
1.728229762232e-03
1.133221789122e-03
6.212711829540e-04
1.402499975281e-03
1.011646290656e-03
7.923147578142e-04
6.869827824513e-04
1.047869330717e-03
2.390390079726e-04
2.030355607484e-04
4.155963180314e-04
1.481782307771e-03
1.309760056797e-04
1.647236225436e-03
1.568144971993e-04
3.731389699044e-04
1.066474932775e-03
1.724261555328e-03
3.837142694012e-04
2.214783316760e-04
3.491803819681e-04
8.543302475891e-04
3.637708856421e-04
3.347629671727e-04
1.903355433497e-03
3.512057879980e-04
1.927812316873e-03
9.720056195964e-04
1.631763792514e-03
9.856628553255e-04
1.559730406512e-04
8.511821494932e-04
2.845671697305e-04
1.547819851006e-03
1.634689430504e-03
2.618165849700e-04
1.721847212492e-03
1.431310616633e-03
1.786432911876e-03
9.845997304441e-04
9.976830813577e-04
1.872080255980e-03
1.596850852160e-03
9.673676625852e-05
6.557649781293e-04
8.231826048606e-04
6.762204767929e-04
5.120530031823e-04
2.771527970620e-04
1.337867847819e-04
6.666635576270e-04
1.122252460624e-03
1.658575559620e-03
1.142361694788e-03
5.072377441899e-04
1.897488422256e-03
1.294404686125e-03
1.012586785479e-03
1.212072082166e-03
3.547647530637e-04
1.716778198092e-03
1.537817468295e-03
1.818865430951e-03
1.002791217113e-03
1.662416781259e-03
1.905192269634e-03
1.691700750570e-04
1.904457512164e-03
1.582534348726e-03
1.698337645279e-03
1.709982082493e-03
9.251255614953e-04
1.795097301663e-03
2.736836311218e-04
1.786140880599e-03
3.503462849142e-04
1.355194597253e-04
9.619039344126e-04
1.616600237591e-03
9.249438460846e-04
9.330153591433e-05
8.032359866300e-05
9.995265705997e-04
1.645657933773e-03
1.833652260771e-04
1.921997190154e-03
2.106391137399e-04
1.596158155928e-03
6.826124518221e-05
9.929797596573e-04
1.909035394041e-03
3.908563824489e-04
1.639991065709e-03
2.499845747604e-04
1.365648021412e-03
1.203974383409e-04
1.911069620905e-03
1.039115511366e-03
1.872570115639e-03
1.282101285649e-03
1.499883263259e-04
1.356410181952e-03
9.981827436022e-04
1.593855818416e-03
1.834197159289e-03
3.114156317191e-04
1.337903760544e-04
1.930543982287e-03
1.746128357928e-05
1.587056179563e-03
9.871354327780e-04
1.236189768831e-04
1.667652935056e-03
1.688759657501e-03
4.973220080009e-04
1.852864807589e-03
1.507280015309e-04
1.512545325928e-04
1.747901379186e-03
1.268492175606e-03
1.896066362375e-03
1.721939963861e-03
2.504631166584e-04
1.645339949154e-03
4.263016837448e-04
1.475043622836e-03
1.052043497412e-03
2.011482773248e-04
5.434633714301e-04
7.023243900806e-05
9.574698138086e-04
4.480556613499e-04
1.508583358295e-03
1.478967153335e-03
1.555315979778e-03
1.524374370823e-03


CELL_DATA 1996

SCALARS element_number int
LOOKUP_TABLE default
407
408
409
410
411
412
413
414
415
416
417
418
419
420
421
422
423
424
425
426
427
428
429
430
431
432
433
434
435
436
437
438
439
440
441
442
443
444
445
446
447
448
449
450
451
452
453
454
455
456
457
458
459
460
461
462
463
464
465
466
467
468
469
470
471
472
473
474
475
476
477
478
479
480
481
482
483
484
485
486
487
488
489
490
491
492
493
494
495
496
497
498
499
500
501
502
503
504
505
506
507
508
509
510
511
512
513
514
515
516
517
518
519
520
521
522
523
524
525
526
527
528
529
530
531
532
533
534
535
536
537
538
539
540
541
542
543
544
545
546
547
548
549
550
551
552
553
554
555
556
557
558
559
560
561
562
563
564
565
566
567
568
569
570
571
572
573
574
575
576
577
578
579
580
581
582
583
584
585
586
587
588
589
590
591
592
593
594
595
596
597
598
599
600
601
602
603
604
605
606
607
608
609
610
611
612
613
614
615
616
617
618
619
620
621
622
623
624
625
626
627
628
629
630
631
632
633
634
635
636
637
638
639
640
641
642
643
644
645
646
647
648
649
650
651
652
653
654
655
656
657
658
659
660
661
662
663
664
665
666
667
668
669
670
671
672
673
674
675
676
677
678
679
680
681
682
683
684
685
686
687
688
689
690
691
692
693
694
695
696
697
698
699
700
701
702
703
704
705
706
707
708
709
710
711
712
713
714
715
716
717
718
719
720
721
722
723
724
725
726
727
728
729
730
731
732
733
734
735
736
737
738
739
740
741
742
743
744
745
746
747
748
749
750
751
752
753
754
755
756
757
758
759
760
761
762
763
764
765
766
767
768
769
770
771
772
773
774
775
776
777
778
779
780
781
782
783
784
785
786
787
788
789
790
791
792
793
794
795
796
797
798
799
800
801
802
803
804
805
806
807
808
809
810
811
812
813
814
815
816
817
818
819
820
821
822
823
824
825
826
827
828
829
830
831
832
833
834
835
836
837
838
839
840
841
842
843
844
845
846
847
848
849
850
851
852
853
854
855
856
857
858
859
860
861
862
863
864
865
866
867
868
869
870
871
872
873
874
875
876
877
878
879
880
881
882
883
884
885
886
887
888
889
890
891
892
893
894
895
896
897
898
899
900
901
902
903
904
905
906
907
908
909
910
911
912
913
914
915
916
917
918
919
920
921
922
923
924
925
926
927
928
929
930
931
932
933
934
935
936
937
938
939
940
941
942
943
944
945
946
947
948
949
950
951
952
953
954
955
956
957
958
959
960
961
962
963
964
965
966
967
968
969
970
971
972
973
974
975
976
977
978
979
980
981
982
983
984
985
986
987
988
989
990
991
992
993
994
995
996
997
998
999
1000
1001
1002
1003
1004
1005
1006
1007
1008
1009
1010
1011
1012
1013
1014
1015
1016
1017
1018
1019
1020
1021
1022
1023
1024
1025
1026
1027
1028
1029
1030
1031
1032
1033
1034
1035
1036
1037
1038
1039
1040
1041
1042
1043
1044
1045
1046
1047
1048
1049
1050
1051
1052
1053
1054
1055
1056
1057
1058
1059
1060
1061
1062
1063
1064
1065
1066
1067
1068
1069
1070
1071
1072
1073
1074
1075
1076
1077
1078
1079
1080
1081
1082
1083
1084
1085
1086
1087
1088
1089
1090
1091
1092
1093
1094
1095
1096
1097
1098
1099
1100
1101
1102
1103
1104
1105
1106
1107
1108
1109
1110
1111
1112
1113
1114
1115
1116
1117
1118
1119
1120
1121
1122
1123
1124
1125
1126
1127
1128
1129
1130
1131
1132
1133
1134
1135
1136
1137
1138
1139
1140
1141
1142
1143
1144
1145
1146
1147
1148
1149
1150
1151
1152
1153
1154
1155
1156
1157
1158
1159
1160
1161
1162
1163
1164
1165
1166
1167
1168
1169
1170
1171
1172
1173
1174
1175
1176
1177
1178
1179
1180
1181
1182
1183
1184
1185
1186
1187
1188
1189
1190
1191
1192
1193
1194
1195
1196
1197
1198
1199
1200
1201
1202
1203
1204
1205
1206
1207
1208
1209
1210
1211
1212
1213
1214
1215
1216
1217
1218
1219
1220
1221
1222
1223
1224
1225
1226
1227
1228
1229
1230
1231
1232
1233
1234
1235
1236
1237
1238
1239
1240
1241
1242
1243
1244
1245
1246
1247
1248
1249
1250
1251
1252
1253
1254
1255
1256
1257
1258
1259
1260
1261
1262
1263
1264
1265
1266
1267
1268
1269
1270
1271
1272
1273
1274
1275
1276
1277
1278
1279
1280
1281
1282
1283
1284
1285
1286
1287
1288
1289
1290
1291
1292
1293
1294
1295
1296
1297
1298
1299
1300
1301
1302
1303
1304
1305
1306
1307
1308
1309
1310
1311
1312
1313
1314
1315
1316
1317
1318
1319
1320
1321
1322
1323
1324
1325
1326
1327
1328
1329
1330
1331
1332
1333
1334
1335
1336
1337
1338
1339
1340
1341
1342
1343
1344
1345
1346
1347
1348
1349
1350
1351
1352
1353
1354
1355
1356
1357
1358
1359
1360
1361
1362
1363
1364
1365
1366
1367
1368
1369
1370
1371
1372
1373
1374
1375
1376
1377
1378
1379
1380
1381
1382
1383
1384
1385
1386
1387
1388
1389
1390
1391
1392
1393
1394
1395
1396
1397
1398
1399
1400
1401
1402
1403
1404
1405
1406
1407
1408
1409
1410
1411
1412
1413
1414
1415
1416
1417
1418
1419
1420
1421
1422
1423
1424
1425
1426
1427
1428
1429
1430
1431
1432
1433
1434
1435
1436
1437
1438
1439
1440
1441
1442
1443
1444
1445
1446
1447
1448
1449
1450
1451
1452
1453
1454
1455
1456
1457
1458
1459
1460
1461
1462
1463
1464
1465
1466
1467
1468
1469
1470
1471
1472
1473
1474
1475
1476
1477
1478
1479
1480
1481
1482
1483
1484
1485
1486
1487
1488
1489
1490
1491
1492
1493
1494
1495
1496
1497
1498
1499
1500
1501
1502
1503
1504
1505
1506
1507
1508
1509
1510
1511
1512
1513
1514
1515
1516
1517
1518
1519
1520
1521
1522
1523
1524
1525
1526
1527
1528
1529
1530
1531
1532
1533
1534
1535
1536
1537
1538
1539
1540
1541
1542
1543
1544
1545
1546
1547
1548
1549
1550
1551
1552
1553
1554
1555
1556
1557
1558
1559
1560
1561
1562
1563
1564
1565
1566
1567
1568
1569
1570
1571
1572
1573
1574
1575
1576
1577
1578
1579
1580
1581
1582
1583
1584
1585
1586
1587
1588
1589
1590
1591
1592
1593
1594
1595
1596
1597
1598
1599
1600
1601
1602
1603
1604
1605
1606
1607
1608
1609
1610
1611
1612
1613
1614
1615
1616
1617
1618
1619
1620
1621
1622
1623
1624
1625
1626
1627
1628
1629
1630
1631
1632
1633
1634
1635
1636
1637
1638
1639
1640
1641
1642
1643
1644
1645
1646
1647
1648
1649
1650
1651
1652
1653
1654
1655
1656
1657
1658
1659
1660
1661
1662
1663
1664
1665
1666
1667
1668
1669
1670
1671
1672
1673
1674
1675
1676
1677
1678
1679
1680
1681
1682
1683
1684
1685
1686
1687
1688
1689
1690
1691
1692
1693
1694
1695
1696
1697
1698
1699
1700
1701
1702
1703
1704
1705
1706
1707
1708
1709
1710
1711
1712
1713
1714
1715
1716
1717
1718
1719
1720
1721
1722
1723
1724
1725
1726
1727
1728
1729
1730
1731
1732
1733
1734
1735
1736
1737
1738
1739
1740
1741
1742
1743
1744
1745
1746
1747
1748
1749
1750
1751
1752
1753
1754
1755
1756
1757
1758
1759
1760
1761
1762
1763
1764
1765
1766
1767
1768
1769
1770
1771
1772
1773
1774
1775
1776
1777
1778
1779
1780
1781
1782
1783
1784
1785
1786
1787
1788
1789
1790
1791
1792
1793
1794
1795
1796
1797
1798
1799
1800
1801
1802
1803
1804
1805
1806
1807
1808
1809
1810
1811
1812
1813
1814
1815
1816
1817
1818
1819
1820
1821
1822
1823
1824
1825
1826
1827
1828
1829
1830
1831
1832
1833
1834
1835
1836
1837
1838
1839
1840
1841
1842
1843
1844
1845
1846
1847
1848
1849
1850
1851
1852
1853
1854
1855
1856
1857
1858
1859
1860
1861
1862
1863
1864
1865
1866
1867
1868
1869
1870
1871
1872
1873
1874
1875
1876
1877
1878
1879
1880
1881
1882
1883
1884
1885
1886
1887
1888
1889
1890
1891
1892
1893
1894
1895
1896
1897
1898
1899
1900
1901
1902
1903
1904
1905
1906
1907
1908
1909
1910
1911
1912
1913
1914
1915
1916
1917
1918
1919
1920
1921
1922
1923
1924
1925
1926
1927
1928
1929
1930
1931
1932
1933
1934
1935
1936
1937
1938
1939
1940
1941
1942
1943
1944
1945
1946
1947
1948
1949
1950
1951
1952
1953
1954
1955
1956
1957
1958
1959
1960
1961
1962
1963
1964
1965
1966
1967
1968
1969
1970
1971
1972
1973
1974
1975
1976
1977
1978
1979
1980
1981
1982
1983
1984
1985
1986
1987
1988
1989
1990
1991
1992
1993
1994
1995
1996
1997
1998
1999
2000
2001
2002
2003
2004
2005
2006
2007
2008
2009
2010
2011
2012
2013
2014
2015
2016
2017
2018
2019
2020
2021
2022
2023
2024
2025
2026
2027
2028
2029
2030
2031
2032
2033
2034
2035
2036
2037
2038
2039
2040
2041
2042
2043
2044
2045
2046
2047
2048
2049
2050
2051
2052
2053
2054
2055
2056
2057
2058
2059
2060
2061
2062
2063
2064
2065
2066
2067
2068
2069
2070
2071
2072
2073
2074
2075
2076
2077
2078
2079
2080
2081
2082
2083
2084
2085
2086
2087
2088
2089
2090
2091
2092
2093
2094
2095
2096
2097
2098
2099
2100
2101
2102
2103
2104
2105
2106
2107
2108
2109
2110
2111
2112
2113
2114
2115
2116
2117
2118
2119
2120
2121
2122
2123
2124
2125
2126
2127
2128
2129
2130
2131
2132
2133
2134
2135
2136
2137
2138
2139
2140
2141
2142
2143
2144
2145
2146
2147
2148
2149
2150
2151
2152
2153
2154
2155
2156
2157
2158
2159
2160
2161
2162
2163
2164
2165
2166
2167
2168
2169
2170
2171
2172
2173
2174
2175
2176
2177
2178
2179
2180
2181
2182
2183
2184
2185
2186
2187
2188
2189
2190
2191
2192
2193
2194
2195
2196
2197
2198
2199
2200
2201
2202
2203
2204
2205
2206
2207
2208
2209
2210
2211
2212
2213
2214
2215
2216
2217
2218
2219
2220
2221
2222
2223
2224
2225
2226
2227
2228
2229
2230
2231
2232
2233
2234
2235
2236
2237
2238
2239
2240
2241
2242
2243
2244
2245
2246
2247
2248
2249
2250
2251
2252
2253
2254
2255
2256
2257
2258
2259
2260
2261
2262
2263
2264
2265
2266
2267
2268
2269
2270
2271
2272
2273
2274
2275
2276
2277
2278
2279
2280
2281
2282
2283
2284
2285
2286
2287
2288
2289
2290
2291
2292
2293
2294
2295
2296
2297
2298
2299
2300
2301
2302
2303
2304
2305
2306
2307
2308
2309
2310
2311
2312
2313
2314
2315
2316
2317
2318
2319
2320
2321
2322
2323
2324
2325
2754
2755
2756
2757
2758
2759
2760
2761
2762
2763
2764
2765
2766
2767
2768
2769
2770
2771
2772
2773
2774
2775
2776
2777
2778
2779
2780
2781
2782
2783
2784
2785
2786
2787
2788
2789
2790
2791
2792
2793
2794
2795
2796
2797
2798
2799
2800
2801
2802
2803
2804
2805
2806
2807
2808
2809
2810
2811
2812
2813
2814
2815
2816
2817
2818
2819
2820
2821
2822
2823
2824
2825
2826
2827
2828
2829
2830

SCALARS element_group int
LOOKUP_TABLE default
0
0
0
0
0
0
0
0
0
0
0
0
0
0
0
0
0
0
0
0
0
0
0
0
0
0
0
0
0
0
0
0
0
0
0
0
0
0
0
0
0
0
0
0
0
0
0
0
0
0
0
0
0
0
0
0
0
0
0
0
0
0
0
0
0
0
0
0
0
0
0
0
0
0
0
0
0
0
0
0
0
0
0
0
0
0
0
0
0
0
0
0
0
0
0
0
0
0
0
0
0
0
0
0
0
0
0
0
0
0
0
0
0
0
0
0
0
0
0
0
0
0
0
0
0
0
0
0
0
0
0
0
0
0
0
0
0
0
0
0
0
0
0
0
0
0
0
0
0
0
0
0
0
0
0
0
0
0
0
0
0
0
0
0
0
0
0
0
0
0
0
0
0
0
0
0
0
0
0
0
0
0
0
0
0
0
0
0
0
0
0
0
0
0
0
0
0
0
0
0
0
0
0
0
0
0
0
0
0
0
0
0
0
0
0
0
0
0
0
0
0
0
0
0
0
0
0
0
0
0
0
0
0
0
0
0
0
0
0
0
0
0
0
0
0
0
0
0
0
0
0
0
0
0
0
0
0
0
0
0
0
0
0
0
0
0
0
0
0
0
0
0
0
0
0
0
0
0
0
0
0
0
0
0
0
0
0
0
0
0
0
0
0
0
0
0
0
0
0
0
0
0
0
0
0
0
0
0
0
0
0
0
0
0
0
0
0
0
0
0
0
0
0
0
0
0
0
0
0
0
0
0
0
0
0
0
0
0
0
0
0
0
0
0
0
0
0
0
0
0
0
0
0
0
0
0
0
0
0
0
0
0
0
0
0
0
0
0
0
0
0
0
0
0
0
0
0
0
0
0
0
0
0
0
0
0
0
0
0
0
0
0
0
0
0
0
0
0
0
0
0
0
0
0
0
0
0
0
0
0
0
0
0
0
0
0
0
0
0
0
0
0
0
0
0
0
0
0
0
0
0
0
0
0
0
0
0
0
0
0
0
0
0
0
0
0
0
0
0
0
0
0
0
0
0
0
0
0
0
0
0
0
0
0
0
0
0
0
0
0
0
0
0
0
0
0
0
0
0
0
0
0
0
0
0
0
0
0
0
0
0
0
0
0
0
0
0
0
0
0
0
0
0
0
0
0
0
0
0
0
0
0
0
0
0
0
0
0
0
0
0
0
0
0
0
0
0
0
0
0
0
0
0
0
0
0
0
0
0
0
0
0
0
0
0
0
0
0
0
0
0
0
0
0
0
0
0
0
0
0
0
0
0
0
0
0
0
0
0
0
0
0
0
0
0
0
0
0
0
0
0
0
0
0
0
0
0
0
0
0
0
0
0
0
0
0
0
0
0
0
0
0
0
0
0
0
0
0
0
0
0
0
0
0
0
0
0
0
0
0
0
0
0
0
0
0
0
0
0
0
0
0
0
0
0
0
0
0
0
0
0
0
0
0
0
0
0
0
0
0
0
0
0
0
0
0
0
0
0
0
0
0
0
0
0
0
0
0
0
0
0
0
0
0
0
0
0
0
0
0
0
0
0
0
0
0
0
0
0
0
0
0
0
0
0
0
0
0
0
0
0
0
0
0
0
0
0
0
0
0
0
0
0
0
0
0
0
0
0
0
0
0
0
0
0
0
0
0
0
0
0
0
0
0
0
0
0
0
0
0
0
0
0
0
0
0
0
0
0
0
0
0
0
0
0
0
0
0
0
0
0
0
0
0
0
0
0
0
0
0
0
0
0
0
0
0
0
0
0
0
0
0
0
0
0
0
0
0
0
0
0
0
0
0
0
0
0
0
0
0
0
0
0
0
0
0
0
0
0
0
0
0
0
0
0
0
0
0
0
0
0
0
0
0
0
0
0
0
0
0
0
0
0
0
0
0
0
0
0
0
0
0
0
0
0
0
0
0
0
0
0
0
0
0
0
0
0
0
0
0
0
0
0
0
0
0
0
0
0
0
0
0
0
0
0
0
0
0
0
0
0
0
0
0
0
0
0
0
0
0
0
0
0
0
0
0
0
0
0
0
0
0
0
0
0
0
0
0
0
0
0
0
0
0
0
0
0
0
0
0
0
0
0
0
0
0
0
0
0
0
0
0
0
0
0
0
0
0
0
0
0
0
0
0
0
0
0
0
0
0
0
0
0
0
0
0
0
0
0
0
0
0
0
0
0
0
0
0
0
0
0
0
0
0
0
0
0
0
0
0
0
0
0
0
0
0
0
0
0
0
0
0
0
0
0
0
0
0
0
0
0
0
0
0
0
0
0
0
0
0
0
0
0
0
0
0
0
0
0
0
0
0
0
0
0
0
0
0
0
0
0
0
0
0
0
0
0
0
0
0
0
0
0
0
0
0
0
0
0
0
0
0
0
0
0
0
0
0
0
0
0
0
0
0
0
0
0
0
0
0
0
0
0
0
0
0
0
0
0
0
0
0
0
0
0
0
0
0
0
0
0
0
0
0
0
0
0
0
0
0
0
0
0
0
0
0
0
0
0
0
0
0
0
0
0
0
0
0
0
0
0
0
0
0
0
0
0
0
0
0
0
0
0
0
0
0
0
0
0
0
0
0
0
0
0
0
0
0
0
0
0
0
0
0
0
0
0
0
0
0
0
0
0
0
0
0
0
0
0
0
0
0
0
0
0
0
0
0
0
0
0
0
0
0
0
0
0
0
0
0
0
0
0
0
0
0
0
0
0
0
0
0
0
0
0
0
0
0
0
0
0
0
0
0
0
0
0
0
0
0
0
0
0
0
0
0
0
0
0
0
0
0
0
0
0
0
0
0
0
0
0
0
0
0
0
0
0
0
0
0
0
0
0
0
0
0
0
0
0
0
0
0
0
0
0
0
0
0
0
0
0
0
0
0
0
0
0
0
0
0
0
0
0
0
0
0
0
0
0
0
0
0
0
0
0
0
0
0
0
0
0
0
0
0
0
0
0
0
0
0
0
0
0
0
0
0
0
0
0
0
0
0
0
0
0
0
0
0
0
0
0
0
0
0
0
0
0
0
0
0
0
0
0
0
0
0
0
0
0
0
0
0
0
0
0
0
0
0
0
0
0
0
0
0
0
0
0
0
0
0
0
0
0
0
0
0
0
0
0
0
0
0
0
0
0
0
0
0
0
0
0
0
0
0
0
0
0
0
0
0
0
0
0
0
0
0
0
0
0
0
0
0
0
0
0
0
0
0
0
0
0
0
0
0
0
0
0
0
0
0
0
0
0
0
0
0
0
0
0
0
0
0
0
0
0
0
0
0
0
0
0
0
0
0
0
0
0
0
0
0
0
0
0
0
0
0
0
0
0
0
0
0
0
0
0
0
0
0
0
0
0
0
0
0
0
0
0
0
0
0
0
0
0
0
0
0
0
0
0
0
0
0
0
0
0
0
0
0
0
0
0
0
0
0
0
0
0
0
0
0
0
0
0
0
0
0
0
0
0
0
0
0
0
0
0
0
0
0
0
0
0
0
0
0
0
0
0
0
0
0
0
0
0
0
0
0
0
0
0
0
0
0
0
0
0
0
0
0
0
0
0
0
0
0
0
0
0
0
0
0
0
0
0
0
0
0
0
0
0
0
0
0
0
0
0
0
0
0
0
0
0
0
0
0
0
0
0
0
0
0
0
0
0
0
0
0
0
0
0
0
0
0
0
0
0
0
0
0
0
0
0
0
0
0
0
0
0
0
0
0
0
0
0
0
0
0
0
0
0
0
0
0
0
0
0
0
0
0
0
0
0
0
0
0
0
0
0
0
0
0
0
0
0
0
0
0
0
0
0
0
0
0
0
0
0
0
0
0
0
0
0
0
0
0
0
0
0
0
0
0
0
0
0
0
0
0
0
0
0
0
0
0
0
0
0
0
0
0
0
0
0
0
0
0
0
0
0
0
0
0
0
0
0
0
0
0
0
0
0
0
0
0
0
0
0
0
0
0
0
0
0
0
0
0
0
0
0
0
0
0
0
0
0
0
0
0
0
0
0
0
0
0
0
0
0
0
0
0
0
0
0
0
0
0
0
0
0
0
0
0
0
0
0
0
0
0
0
0
0
0
0
0
0
0
0
0
0
0
0
0
0
0
0
0
0
0
0
0
0
0
0
0
0
0
0
0
0
0
0
0
0
0
0
0
0
0
0
0
0
0
0
0
0
0
0
0
0
0
0
0
0
0
0
0
0
0
0
0
0
0
0
0
0
0
0
0
0
0
0
0
0
0
0
0
0
0
0
0
0
0
0
0
0
0
0
0
0
0
0
0
0
0
0
0
0
0
0
0
0
0
0
0
0
0
0
0
0
0
0
0
0
0
0
0
0
0
0
0
0
0
0
0
0
0
0
0
0
0
0
0
0
0
0
0
0
0
0
0
0
0
0
0
0
0
0
0
0
0
0
0
0
0
0
0
0
0
0
0
0
0
0
0
0
0
0
0
0
0
0
0
0
0
0
0
0
0
0
0
0
0
0
0
0
0
0
0
0
0
0
0
0
0
0
0
0
0


VECTORS element_materi_velocity float
4.598389250412e-05 1.990739946156e-04 0.0 
5.629366103117e-05 1.701445588703e-04 0.0 
1.241528752391e-04 9.721495483246e-05 0.0 
1.822645940206e-05 2.234301318774e-04 0.0 
1.465998861386e-04 1.257482147622e-03 0.0 
1.711605803642e-05 -1.042573949769e-05 0.0 
1.118466581951e-04 1.251200920053e-03 0.0 
4.313491112484e-05 1.427678420796e-04 0.0 
1.231451511661e-04 1.257861878800e-03 0.0 
2.691613184072e-05 2.284000395416e-04 0.0 
6.242990140116e-06 -1.295885059505e-05 0.0 
2.606404375242e-05 1.423771624815e-04 0.0 
2.627241425249e-06 -6.074323534979e-07 0.0 
2.348806424469e-04 1.078978019997e-03 0.0 
2.156812365868e-06 -2.668094976553e-07 0.0 
1.485420196952e-05 1.575879200616e-04 0.0 
1.835792329825e-04 1.291317968443e-03 0.0 
1.961681342614e-05 -1.609008207596e-05 0.0 
5.647377723147e-06 -3.737772558760e-05 0.0 
4.338344028244e-06 -3.653289464766e-05 0.0 
3.215934364526e-05 2.337938835323e-04 0.0 
8.806836884596e-05 2.944834179750e-04 0.0 
1.189450301430e-04 3.068338358795e-04 0.0 
4.550126421168e-05 1.952754076553e-06 0.0 
2.893198856986e-04 8.841906695831e-04 0.0 
6.839585423908e-06 -1.134539917892e-05 0.0 
2.591174325971e-04 1.261433325072e-03 0.0 
9.660615387405e-05 2.919998968214e-05 0.0 
3.065958225770e-04 8.620475921496e-04 0.0 
3.684937234804e-05 2.087452246220e-06 0.0 
3.211899613785e-05 -4.230009963526e-05 0.0 
2.301475243874e-05 -4.732269662733e-05 0.0 
1.458648093253e-04 1.238164740264e-04 0.0 
1.888596614022e-06 -4.539464638901e-06 0.0 
1.560934535218e-05 -1.265099840901e-07 0.0 
4.149989848923e-06 -6.242954123644e-08 0.0 
3.772400735347e-06 -8.300054621324e-08 0.0 
5.390823584256e-05 8.354794254676e-06 0.0 
9.111632318333e-05 1.396378386075e-03 0.0 
8.325622907344e-05 1.398525833894e-03 0.0 
2.152869747116e-04 5.088937452023e-04 0.0 
1.589645219219e-05 5.635027280938e-07 0.0 
1.653676456498e-05 9.195273624820e-05 0.0 
2.850299680741e-04 1.182495888638e-03 0.0 
9.527545266888e-06 3.173731100642e-04 0.0 
2.074219875121e-05 7.543680466228e-05 0.0 
2.804976570366e-05 -4.191375061299e-05 0.0 
1.090412267641e-05 2.692545599320e-04 0.0 
2.288982969661e-05 -4.320083618573e-05 0.0 
2.230640101852e-04 1.154258256117e-03 0.0 
1.663586756291e-04 3.969342834128e-04 0.0 
5.496234862077e-06 -3.544240023550e-05 0.0 
4.335858819266e-05 -4.155595846119e-05 0.0 
1.781910437837e-04 4.814186861818e-04 0.0 
1.049238507009e-04 1.257149041496e-04 0.0 
9.243428826098e-06 -3.229992935117e-05 0.0 
4.346838050447e-06 -3.455030573329e-05 0.0 
3.832806046681e-06 -4.632883494364e-06 0.0 
1.265133400868e-05 -4.032243441165e-05 0.0 
1.793123774830e-05 1.587433182168e-04 0.0 
1.667670261000e-05 -3.632590395236e-05 0.0 
1.169980305676e-04 2.595352054937e-05 0.0 
1.417155934430e-04 1.130371009615e-04 0.0 
3.939631694460e-05 -4.222466647189e-05 0.0 
4.308956989286e-06 -6.005955047231e-07 0.0 
1.285487577133e-04 3.764703565950e-04 0.0 
1.688280823374e-05 -3.404989369225e-05 0.0 
1.468694344919e-04 1.095418864317e-04 0.0 
3.139459296918e-05 -4.717745378728e-05 0.0 
1.074015450018e-04 5.000463951770e-05 0.0 
1.023619429187e-05 -9.838268557771e-06 0.0 
1.893675272347e-05 4.223331744286e-05 0.0 
1.261998457300e-04 3.783608562268e-05 0.0 
9.888409365017e-07 -4.057061406666e-05 0.0 
8.196227555760e-06 -3.115676989485e-05 0.0 
6.511769229697e-05 1.999955959343e-04 0.0 
1.283051445334e-04 1.488928662370e-04 0.0 
1.300494810805e-05 3.861457410230e-05 0.0 
1.408601885117e-05 -4.029137892521e-05 0.0 
9.699583495347e-06 5.006623514798e-05 0.0 
3.257059833643e-05 -4.721029168012e-05 0.0 
1.767519820596e-04 1.256026157897e-03 0.0 
8.436731368049e-05 2.411440254413e-04 0.0 
5.713111346572e-05 2.351769227137e-04 0.0 
1.424266569447e-04 1.172343065561e-03 0.0 
1.306831417597e-04 1.169427520472e-03 0.0 
5.946822899436e-06 -8.392906913219e-06 0.0 
1.024290668238e-06 -5.606141369162e-06 0.0 
3.212260787886e-04 2.827245661544e-04 0.0 
1.577192598022e-04 1.249425873611e-03 0.0 
2.392593090174e-05 -4.751580030382e-05 0.0 
3.042889776644e-04 1.085719545144e-03 0.0 
2.754263334776e-05 6.372635659313e-04 0.0 
3.309035253493e-05 6.893637399496e-04 0.0 
3.774474455826e-05 7.753782053283e-05 0.0 
3.953511668848e-05 6.891553706925e-06 0.0 
1.970958578302e-04 1.249264300799e-03 0.0 
1.810074587541e-05 3.447992951651e-07 0.0 
1.909250129714e-05 1.014113049334e-03 0.0 
1.221606987803e-04 1.275837135933e-04 0.0 
1.390422418542e-04 1.332092363959e-03 0.0 
2.778238237818e-06 -2.743833153725e-07 0.0 
1.723820225108e-04 2.244802941139e-05 0.0 
1.111421821874e-04 2.276300501569e-05 0.0 
9.190666137497e-05 4.411962794375e-05 0.0 
2.641913309521e-05 -4.359837165689e-05 0.0 
3.102547686804e-06 -1.826534773419e-06 0.0 
2.831143187843e-05 5.485844773894e-04 0.0 
2.010226945790e-05 -4.113612839757e-05 0.0 
5.225431482369e-06 -2.338366895626e-07 0.0 
3.428157839992e-04 3.054615661673e-04 0.0 
1.780463179353e-06 -4.119854003444e-05 0.0 
1.628964129143e-04 3.234643642058e-05 0.0 
3.362544035173e-04 9.763778676266e-04 0.0 
1.402179764390e-05 -2.782403064033e-05 0.0 
9.783170847927e-05 1.170706702633e-04 0.0 
1.366770712985e-04 9.086110445469e-05 0.0 
1.095678735462e-05 1.343057915860e-07 0.0 
2.396493051732e-05 1.076752796079e-03 0.0 
1.140653588442e-04 8.241907544341e-05 0.0 
2.767861086659e-05 -4.623873840878e-05 0.0 
3.094091914958e-04 1.094094512187e-03 0.0 
2.251482456677e-05 5.026388836077e-04 0.0 
1.119195463993e-04 6.480300485138e-05 0.0 
8.685726552860e-06 1.324748746861e-05 0.0 
2.996472662985e-04 7.889839305700e-04 0.0 
1.226153594154e-05 -2.841735121181e-05 0.0 
2.645400520233e-04 7.740705326830e-04 0.0 
5.007974003597e-05 1.406103355201e-04 0.0 
1.502393652367e-05 8.466497712959e-06 0.0 
9.620976270040e-06 -1.129245616561e-05 0.0 
1.438108074133e-05 2.212687501264e-04 0.0 
2.567935366335e-04 2.607625996263e-04 0.0 
2.609067883846e-04 6.524505818764e-04 0.0 
1.703116702036e-05 -1.272168197234e-08 0.0 
1.797170955272e-06 -5.912829821041e-07 0.0 
8.401316241937e-06 -8.434010243626e-06 0.0 
2.861062585123e-04 2.804888697470e-04 0.0 
2.505685864852e-05 1.605211379552e-06 0.0 
2.516855605419e-04 3.444806496749e-04 0.0 
3.760654338078e-05 1.608935736125e-04 0.0 
1.291356874229e-04 6.442290628385e-05 0.0 
2.502186016971e-04 1.059710142216e-03 0.0 
6.226109414920e-05 8.367322948844e-04 0.0 
2.382319841500e-04 2.878607810276e-04 0.0 
2.232403944497e-04 6.197027321976e-04 0.0 
2.975863405902e-04 2.521407435332e-04 0.0 
1.230373615870e-04 4.090821680440e-05 0.0 
1.051767189249e-04 1.324388908007e-03 0.0 
1.552226823708e-04 2.109862081092e-05 0.0 
2.264188262920e-05 -4.679962594943e-05 0.0 
2.658012535796e-05 1.213526230625e-03 0.0 
5.076685890776e-06 -3.837076056820e-05 0.0 
3.243469672150e-04 9.005215026124e-04 0.0 
1.984051957065e-05 1.281274229140e-06 0.0 
9.298574346090e-05 5.857570863441e-05 0.0 
4.474509265930e-06 -7.011300309358e-06 0.0 
2.700384162331e-05 1.012945266076e-04 0.0 
1.821962224219e-04 2.782512139803e-05 0.0 
6.117034631878e-05 1.276853165045e-03 0.0 
1.392902389156e-04 1.616472470117e-05 0.0 
4.287329369616e-06 -3.608920865505e-06 0.0 
2.906151777340e-05 -4.664113671252e-05 0.0 
4.357146732835e-06 -1.841439886624e-06 0.0 
3.856802326052e-04 7.145057794224e-04 0.0 
5.969930638331e-06 -4.376348485222e-07 0.0 
2.611364564225e-05 1.288934566099e-03 0.0 
1.056143044826e-04 3.576782762277e-05 0.0 
3.148368045810e-04 9.983794655920e-04 0.0 
4.006319816130e-06 -1.331877380497e-05 0.0 
2.107777224543e-05 1.212961928785e-04 0.0 
1.338783714125e-04 7.178188430002e-06 0.0 
5.524521442987e-05 7.575663796018e-04 0.0 
6.903759417954e-05 1.327472455573e-03 0.0 
1.347355700143e-04 3.323769126931e-05 0.0 
2.957157212124e-04 9.059860797479e-04 0.0 
2.588797933727e-04 1.405733046739e-04 0.0 
1.421189419678e-05 -2.594865006036e-05 0.0 
7.482395310256e-05 2.143178107467e-05 0.0 
1.244136385030e-04 5.499396650283e-05 0.0 
8.015682849745e-05 1.308698436781e-04 0.0 
1.252839881335e-05 -2.482667438087e-05 0.0 
7.287771251554e-05 2.869056257235e-06 0.0 
2.288758381650e-04 3.795681859930e-04 0.0 
5.941356049213e-05 1.204565920795e-04 0.0 
3.625503053524e-04 8.788357150723e-04 0.0 
1.528631523930e-04 3.898744769294e-05 0.0 
2.677911871201e-05 1.715006870470e-04 0.0 
3.354414902056e-04 3.842826311523e-04 0.0 
2.965112777478e-06 -2.633038114063e-06 0.0 
1.616882660719e-05 5.528037762599e-05 0.0 
1.157835340512e-04 -3.937909716393e-06 0.0 
3.193178198434e-04 3.048590728761e-04 0.0 
-2.832955573358e-06 -5.140075378960e-06 0.0 
2.414065910561e-04 4.543360992734e-04 0.0 
7.325427779440e-05 -2.924834011370e-06 0.0 
1.652763235647e-05 -4.302280087114e-05 0.0 
1.440343476545e-04 1.496026491461e-04 0.0 
3.314413421238e-04 6.697955635625e-04 0.0 
5.280386016736e-05 -3.467481995952e-05 0.0 
7.816909616984e-05 -2.109453165897e-06 0.0 
3.165398589422e-04 1.010136707002e-03 0.0 
2.786199213741e-04 9.623057552990e-04 0.0 
3.403262130265e-05 1.611389006341e-06 0.0 
3.736100917374e-05 -3.932038975959e-05 0.0 
2.905631729019e-04 1.894954854286e-04 0.0 
3.937905220660e-04 5.679502000632e-04 0.0 
3.150698538476e-04 6.174638956606e-04 0.0 
3.933365745053e-04 7.079404309286e-04 0.0 
3.699882815533e-04 7.976660761982e-04 0.0 
1.758618426910e-04 1.123992069836e-05 0.0 
2.861425828360e-04 1.673662092283e-04 0.0 
6.862959820648e-06 -1.174017041189e-05 0.0 
8.147005663470e-05 1.600749420217e-04 0.0 
1.278030415644e-04 1.558057023752e-04 0.0 
2.825891785647e-04 2.110919946516e-04 0.0 
3.107618103461e-04 3.491150898728e-04 0.0 
3.137836829861e-05 -1.363262110609e-05 0.0 
7.146327706011e-05 -5.921428741601e-06 0.0 
7.759067143764e-05 1.308534217950e-03 0.0 
1.198987111039e-04 3.380588261165e-06 0.0 
6.856548045059e-05 -8.801075942673e-06 0.0 
2.018254079677e-05 -4.538976670011e-05 0.0 
3.095119621433e-04 5.436357512012e-04 0.0 
1.937081614908e-05 -4.543348744904e-05 0.0 
1.543412724460e-05 -4.213161669824e-05 0.0 
1.267714241960e-05 6.896521501851e-05 0.0 
3.436994065456e-05 -4.172319811667e-05 0.0 
2.871378791509e-04 4.913259833483e-04 0.0 
3.398952546781e-05 -4.303924536803e-05 0.0 
4.061501048469e-05 2.853524624145e-05 0.0 
3.977023227653e-05 -4.552205877030e-05 0.0 
2.836594430732e-05 -4.534960440770e-05 0.0 
7.894484962326e-05 1.019999014729e-06 0.0 
3.860219382362e-04 6.371311782176e-04 0.0 
5.151680259456e-06 -6.017694603403e-07 0.0 
1.450600667152e-06 -1.090552752810e-05 0.0 
6.267988796780e-05 2.406296109836e-05 0.0 
1.422319286889e-04 3.345445629674e-06 0.0 
1.909238536659e-04 3.496414291528e-04 0.0 
7.638238639384e-05 -5.273093622242e-06 0.0 
6.498797626387e-06 -3.012010723280e-07 0.0 
3.505835699931e-04 4.450560034693e-04 0.0 
8.104711272538e-05 -1.153346248848e-05 0.0 
7.396644850065e-05 1.719035857354e-08 0.0 
5.000310103240e-06 -9.850108240667e-06 0.0 
3.205052532848e-04 2.676173346162e-04 0.0 
3.416168163294e-04 5.697456877439e-04 0.0 
1.007436600114e-04 2.401768451025e-05 0.0 
1.360562068440e-04 -3.706434003851e-06 0.0 
5.073747057621e-05 3.179754673109e-05 0.0 
4.005440454512e-04 6.160146912356e-04 0.0 
3.057884897665e-05 7.213111099868e-05 0.0 
2.760843842431e-04 1.576584762838e-04 0.0 
1.584946036188e-04 -5.780656451520e-06 0.0 
6.005331785653e-05 1.186388308175e-03 0.0 
3.096199949536e-05 -4.741004845565e-05 0.0 
3.871881622067e-04 7.737676521509e-04 0.0 
8.279729165010e-05 -5.145410503765e-06 0.0 
4.566381080589e-05 -1.738743472963e-05 0.0 
3.503594551217e-05 -4.099017085212e-05 0.0 
2.736694975843e-04 5.075826843019e-04 0.0 
4.005781701289e-04 5.672026325998e-04 0.0 
1.282635214177e-04 5.548731334234e-05 0.0 
2.488730273638e-04 4.504037262987e-04 0.0 
3.398817412345e-04 3.586708131117e-04 0.0 
3.541662576956e-04 3.286238195774e-04 0.0 
7.598073208815e-06 -6.604711619599e-08 0.0 
1.573323494290e-04 -5.961466371002e-06 0.0 
3.803362602923e-04 3.902360722483e-04 0.0 
1.804252244850e-04 3.861368882290e-05 0.0 
1.637360739742e-04 -1.715137216672e-06 0.0 
6.092208579629e-05 -2.010517323200e-05 0.0 
2.737960842555e-04 1.151371313674e-03 0.0 
1.351331471855e-04 -1.165546564395e-05 0.0 
7.025042455855e-05 -3.809504894782e-05 0.0 
3.428906570929e-04 4.725071211760e-04 0.0 
9.838814827130e-07 -1.547975289546e-05 0.0 
3.888918528456e-04 7.499730782567e-04 0.0 
8.930099779579e-05 -1.515356803966e-05 0.0 
6.289382590484e-05 1.409546672379e-05 0.0 
6.002819055270e-05 -2.470029730584e-05 0.0 
4.000387398592e-04 5.464775257236e-04 0.0 
2.516570223212e-05 -4.725643773717e-05 0.0 
1.631610184284e-04 2.036868342734e-04 0.0 
1.597991006543e-04 -1.619579580543e-06 0.0 
4.004659281991e-04 6.298182622605e-04 0.0 
2.867332962557e-04 1.058794856548e-03 0.0 
2.651652292399e-05 -2.012055180826e-05 0.0 
7.301869098503e-05 -3.626313617099e-05 0.0 
6.139767463973e-05 -4.084017294865e-05 0.0 
1.047872794006e-04 1.744977573887e-04 0.0 
3.525504550656e-04 5.415187667881e-04 0.0 
1.553723890013e-04 1.688788965530e-04 0.0 
1.243160891384e-04 -1.493823285977e-05 0.0 
1.235874725150e-04 -7.192189181081e-06 0.0 
3.208852853055e-05 -1.909551992302e-05 0.0 
1.874527505379e-04 3.278953751476e-05 0.0 
2.455143872622e-05 2.235039976287e-05 0.0 
5.430057906958e-05 6.137065892391e-05 0.0 
6.484169897099e-05 5.606804164476e-05 0.0 
2.810543844177e-04 1.414179201894e-04 0.0 
7.098942522400e-05 -1.334922185117e-05 0.0 
5.299765585236e-05 3.374906242636e-06 0.0 
3.783479314419e-04 3.468150370017e-04 0.0 
6.235323395844e-05 -8.974695820664e-06 0.0 
6.380877433831e-05 -3.939486296721e-05 0.0 
3.354660555962e-04 3.151468784808e-04 0.0 
4.889847276153e-05 1.952277294180e-04 0.0 
1.034651155493e-04 -6.861905537744e-06 0.0 
1.860283785644e-04 1.654598417302e-05 0.0 
3.365568523007e-05 1.599069905666e-05 0.0 
1.314299094439e-05 1.441281071856e-06 0.0 
6.271127283811e-05 -2.219862225312e-06 0.0 
3.251525134386e-04 2.394788937774e-04 0.0 
3.918463866973e-05 -2.345095952444e-05 0.0 
1.091577185071e-04 -1.147426074254e-05 0.0 
1.418603036574e-04 -6.156047418973e-06 0.0 
6.460902743165e-05 -4.073796293052e-05 0.0 
3.880415926582e-04 5.009749867956e-04 0.0 
5.519414773668e-05 3.197699517017e-05 0.0 
1.074514499997e-04 -1.569671101273e-05 0.0 
1.507946322131e-04 -5.282324374100e-06 0.0 
3.519020857354e-05 7.495247661085e-06 0.0 
2.137917966805e-04 8.557461885584e-04 0.0 
7.335515139899e-05 -8.335369745283e-06 0.0 
6.208189155216e-05 4.836957805599e-05 0.0 
2.072469118147e-04 9.342713221282e-04 0.0 
5.052385236380e-05 2.054679094635e-05 0.0 
6.429202405989e-05 -4.283864899849e-06 0.0 
6.033803050641e-05 3.980235525881e-05 0.0 
2.553251733021e-04 9.100177542941e-04 0.0 
3.412360408121e-04 2.792049734111e-04 0.0 
3.684004372428e-05 5.253028764923e-05 0.0 
3.640784514133e-04 5.502785924092e-04 0.0 
3.900163041776e-04 4.456081594699e-04 0.0 
3.961788579491e-04 4.482224524989e-04 0.0 
2.421312537477e-04 1.192905622682e-04 0.0 
4.314698813990e-05 1.412782869300e-05 0.0 
3.146793529737e-04 9.124005789778e-04 0.0 
3.720938441057e-04 8.615026395187e-04 0.0 
1.185745112813e-04 -1.292456981202e-05 0.0 
3.133326174582e-05 -4.374358732591e-05 0.0 
3.535646505092e-04 7.061110285676e-04 0.0 
7.596099723850e-05 3.944513892336e-05 0.0 
5.233786223045e-05 1.323325115731e-03 0.0 
6.176433931682e-05 -4.159966124845e-05 0.0 
1.001459927315e-04 -1.288832620314e-05 0.0 
3.108904339739e-04 4.532414298337e-04 0.0 
7.535657507871e-05 2.739322259419e-05 0.0 
3.736593649005e-04 4.913823195709e-04 0.0 
1.456212622650e-04 -4.557368924877e-06 0.0 
6.977346698345e-05 -2.301065465562e-05 0.0 
2.979884981956e-05 7.156169757262e-06 0.0 
2.779351766111e-04 4.848213507936e-04 0.0 
7.071610614744e-05 -3.281096806538e-05 0.0 
5.307475815860e-05 -3.656021002431e-05 0.0 
5.825747091919e-05 9.898745100721e-05 0.0 
6.134239857878e-05 6.299017001102e-05 0.0 
2.925534537527e-04 2.749710983513e-04 0.0 
3.412577170853e-04 2.512126916533e-04 0.0 
1.802172721755e-04 2.919539925083e-04 0.0 
3.404189581232e-04 5.321002498266e-04 0.0 
2.073803840904e-05 3.270611014607e-06 0.0 
5.311562429079e-05 7.368223028173e-06 0.0 
2.884376952843e-04 2.936152973074e-04 0.0 
3.221232493520e-04 5.221012076542e-04 0.0 
7.213937690725e-05 -2.529745804641e-05 0.0 
1.675572244431e-04 1.240326005149e-04 0.0 
6.970415870371e-05 -1.872338522628e-05 0.0 
8.667613261935e-05 -2.015732821011e-05 0.0 
3.102075950811e-04 2.024057934714e-04 0.0 
1.144706772985e-04 -1.326765765424e-05 0.0 
3.599452249078e-05 -2.666088455675e-05 0.0 
2.667042666267e-04 3.438930951335e-04 0.0 
6.847886523763e-05 -3.542390651759e-05 0.0 
2.099393862766e-04 8.716445418448e-05 0.0 
3.674240766939e-04 3.810331868039e-04 0.0 
1.762170046241e-04 8.867668363984e-05 0.0 
6.321371054535e-05 4.742709992973e-05 0.0 
6.179179456900e-05 6.098345559422e-05 0.0 
1.482282149821e-04 1.439980612080e-04 0.0 
7.171583885279e-05 -2.067674181533e-05 0.0 
2.352430673785e-04 4.610191482992e-04 0.0 
4.953505200079e-05 4.405224735956e-05 0.0 
1.033134095066e-04 -2.038524813533e-05 0.0 
4.572177659258e-05 -2.240851721993e-05 0.0 
1.940353184731e-04 2.210094615531e-04 0.0 
2.461765541929e-04 1.191595967159e-03 0.0 
2.388689288484e-04 9.213069157773e-04 0.0 
3.413959987749e-05 3.058579989967e-06 0.0 
2.965695390566e-04 2.376194179831e-04 0.0 
3.951183823963e-04 6.703422860096e-04 0.0 
3.917814666777e-04 3.968761051551e-04 0.0 
5.247333306622e-05 -2.584307766275e-05 0.0 
2.700819203404e-05 -4.787666615408e-05 0.0 
1.635215658941e-04 1.649872720110e-05 0.0 
2.368074357055e-04 8.601755800844e-05 0.0 
1.782228224906e-04 2.192239150260e-05 0.0 
6.309276008495e-06 2.165890106322e-05 0.0 
5.038694337479e-05 1.147354160162e-03 0.0 
3.072249221726e-05 -4.484974773647e-05 0.0 
7.388439412257e-05 7.795522189774e-06 0.0 
7.117566186287e-06 8.414752527297e-07 0.0 
1.575771375626e-04 6.570721792565e-06 0.0 
3.605749545585e-04 9.235718739491e-04 0.0 
3.450307709527e-06 -3.868537639512e-05 0.0 
2.548741062978e-04 1.454529855346e-04 0.0 
1.559426797153e-04 7.732088291020e-06 0.0 
4.003742469708e-04 4.959201765097e-04 0.0 
5.481099699863e-05 2.801055382848e-05 0.0 
3.706920953412e-04 6.290522377883e-04 0.0 
3.665801491788e-04 3.018164055686e-04 0.0 
3.934307851408e-05 -2.712576032045e-05 0.0 
2.741482087667e-04 4.229363968308e-04 0.0 
6.840492445545e-05 -1.837979770613e-05 0.0 
5.448768483154e-05 2.487853138318e-05 0.0 
3.172645882770e-05 2.222449197539e-05 0.0 
2.586323175392e-05 3.125263702012e-05 0.0 
3.335444725334e-05 3.086543369042e-05 0.0 
3.943381344150e-04 4.379917908158e-04 0.0 
2.852894763809e-04 4.063863868631e-04 0.0 
2.648243931868e-04 2.263351628717e-04 0.0 
1.845042852350e-04 1.105857681829e-04 0.0 
1.755716772173e-04 1.516524073245e-04 0.0 
3.091713831561e-05 -2.772322941299e-05 0.0 
2.753184572604e-04 3.281294791178e-04 0.0 
4.693889736269e-05 1.708336152118e-05 0.0 
2.341218097984e-04 3.824776976555e-04 0.0 
1.636193405058e-04 2.550398788148e-06 0.0 
2.459286096347e-04 3.712670691412e-04 0.0 
2.548708662994e-04 7.459197441015e-05 0.0 
2.187148515626e-04 7.716844176286e-05 0.0 
2.047156802827e-04 2.652608807011e-04 0.0 
4.419578116727e-05 1.584648731989e-06 0.0 
7.217878198615e-05 1.513742979235e-04 0.0 
1.542314216876e-04 7.994751946497e-05 0.0 
1.400494987832e-04 4.811411148741e-05 0.0 
3.405874451174e-05 -2.820875797756e-05 0.0 
5.400240792634e-05 -4.332686336793e-05 0.0 
2.592638430243e-05 2.365278195831e-06 0.0 
8.770410097015e-05 2.013990098481e-05 0.0 
2.861157167871e-05 1.757786328341e-05 0.0 
1.110363201555e-04 1.154140547017e-04 0.0 
3.396836189295e-04 2.240819307977e-04 0.0 
2.504906563246e-05 -4.798540871578e-05 0.0 
2.822842094067e-05 1.361142194172e-05 0.0 
3.370188415187e-05 4.184040296062e-06 0.0 
5.648955256884e-05 -4.278015868346e-05 0.0 
1.477782108036e-04 -7.355619005780e-07 0.0 
2.779204066721e-05 6.032834547342e-06 0.0 
2.329539952273e-05 -4.809789920653e-05 0.0 
1.894043865338e-04 7.819115516052e-05 0.0 
3.616602446034e-04 2.680387755655e-04 0.0 
3.119766520838e-04 1.810876092625e-04 0.0 
3.553106590310e-04 2.928280735887e-04 0.0 
5.239345782491e-05 1.168837673086e-05 0.0 
2.426458847292e-05 9.279681504892e-06 0.0 
1.187256452330e-04 -1.936340759286e-05 0.0 
2.800009003688e-05 -2.540948308355e-05 0.0 
9.902225499140e-06 -1.541658057529e-07 0.0 
2.425635906486e-05 -4.809724509566e-05 0.0 
2.988070064852e-04 4.351355213143e-04 0.0 
3.427552620327e-05 -4.412199413519e-05 0.0 
3.532025423523e-04 7.973502657728e-04 0.0 
1.754184619263e-05 2.418876956672e-06 0.0 
2.047267925014e-05 6.324148676720e-06 0.0 
4.009917944926e-04 5.028417123612e-04 0.0 
2.843206086214e-05 -4.510734342185e-05 0.0 
2.330069057465e-05 -2.647035358315e-05 0.0 
3.221922353602e-05 -4.524461687787e-05 0.0 
3.237422052244e-05 -3.684482850511e-06 0.0 
2.526690261650e-04 1.219281172352e-03 0.0 
3.648954356141e-04 8.902900713071e-04 0.0 
1.566141522436e-05 3.940036719630e-06 0.0 
2.268372085390e-04 1.254039760883e-03 0.0 
4.881314993425e-05 6.292716212596e-05 0.0 
2.400815653288e-04 6.562705823182e-05 0.0 
2.142913355216e-04 1.010186738268e-03 0.0 
7.594392113290e-05 8.641206096274e-05 0.0 
1.567718206032e-04 2.709461018890e-06 0.0 
3.841651265111e-05 -1.296697821720e-05 0.0 
1.365460607201e-05 2.816701509710e-06 0.0 
3.148725171765e-05 2.520260795434e-05 0.0 
2.843734731566e-05 3.011802190379e-05 0.0 
6.375732053205e-05 -1.841786909932e-05 0.0 
2.607443014757e-05 -2.867844844386e-05 0.0 
2.077067089837e-04 6.008938400383e-05 0.0 
6.022110498407e-05 -1.618526851414e-05 0.0 
1.145600663757e-05 1.937050262599e-06 0.0 
7.309764302839e-05 -2.063362711068e-07 0.0 
7.373386554303e-05 -3.814785708426e-05 0.0 
7.298180234088e-05 -3.876162584281e-05 0.0 
1.920093482489e-04 9.373601966369e-04 0.0 
1.130084036674e-05 1.087253171997e-06 0.0 
2.694327294562e-05 -4.604453263542e-05 0.0 
8.259814421162e-06 1.085316204665e-06 0.0 
6.408250636402e-05 -4.090210591523e-05 0.0 
2.658257605797e-05 1.439913188676e-05 0.0 
2.669322195455e-04 2.111179892252e-04 0.0 
2.266781308430e-05 -4.783636037031e-05 0.0 
1.898470833093e-04 5.252689213626e-05 0.0 
2.086552548110e-04 3.993673622779e-04 0.0 
2.625926389088e-05 1.126710944146e-05 0.0 
3.905582906653e-04 3.935669793234e-04 0.0 
2.127893140024e-04 4.846383985635e-05 0.0 
2.812632779875e-05 5.728351555651e-06 0.0 
5.219554602642e-05 4.535261411336e-06 0.0 
6.247689146924e-05 -4.015775681601e-05 0.0 
6.940542870503e-05 -3.945657235460e-05 0.0 
2.213596361676e-05 -4.451491375389e-05 0.0 
2.267430888977e-05 7.803680016283e-06 0.0 
5.330926252313e-05 -1.622687109861e-05 0.0 
6.076070929253e-05 -2.303071553015e-06 0.0 
2.036360362264e-04 1.097077867789e-03 0.0 
4.519895269040e-05 -4.219929058404e-05 0.0 
7.050356811471e-05 -3.934546108551e-05 0.0 
3.836305840557e-04 3.508407768795e-04 0.0 
1.413743459519e-05 3.216133037632e-06 0.0 
2.489483485269e-05 -2.682888756290e-05 0.0 
6.489872778981e-05 -1.148239146261e-05 0.0 
2.691062065013e-04 1.042413088257e-04 0.0 
9.489767816712e-05 -1.658926170047e-05 0.0 
8.023287667961e-05 -3.654531689953e-05 0.0 
6.935458137406e-05 -1.601018420368e-05 0.0 
2.671039890657e-04 1.166049726222e-04 0.0 
2.919061751584e-04 1.213764353324e-04 0.0 
1.479056742363e-04 6.580878547320e-06 0.0 
2.410055905193e-04 7.643984028791e-05 0.0 
4.405068481063e-05 -2.969721562133e-05 0.0 
8.601798207696e-05 1.050969495496e-05 0.0 
2.903115098597e-05 -2.916139672884e-05 0.0 
2.285381187202e-04 5.499830034403e-05 0.0 
1.461443568534e-04 -9.219766456528e-06 0.0 
1.537738060745e-05 1.926791457395e-06 0.0 
2.043267296606e-04 3.267268072599e-04 0.0 
4.173013179033e-05 -4.314870896578e-05 0.0 
9.282031771468e-06 1.333560752007e-06 0.0 
3.865849271357e-05 4.143587157317e-06 0.0 
1.828414715851e-04 1.795232350355e-05 0.0 
2.417647909883e-05 -4.584963843862e-05 0.0 
9.873877258008e-06 8.333403450444e-07 0.0 
2.357724934438e-04 2.982970278531e-04 0.0 
5.612193336403e-05 -4.254654032826e-05 0.0 
6.025424758103e-06 5.998058191267e-07 0.0 
6.060662371877e-05 -1.394025135907e-05 0.0 
2.137766662947e-04 1.997211165936e-04 0.0 
3.781180158001e-04 8.044262629826e-04 0.0 
1.487451007494e-04 -9.803350817301e-06 0.0 
6.512673857864e-05 -2.296411072103e-05 0.0 
1.025070153043e-04 -1.269788704487e-05 0.0 
3.453770173969e-04 6.436118991927e-04 0.0 
3.009472887939e-04 3.326691349494e-04 0.0 
1.541326042828e-04 1.353181152632e-05 0.0 
4.837683827032e-05 1.060724468510e-03 0.0 
4.060592119911e-05 -2.920819318366e-05 0.0 
1.400703649812e-04 -4.376476062562e-08 0.0 
5.911843955310e-05 -4.021431077809e-05 0.0 
3.138870941930e-05 -1.356250233664e-05 0.0 
2.155185075994e-05 -4.686629821371e-05 0.0 
1.020161662376e-04 2.384001699299e-05 0.0 
6.092724505373e-05 -4.130228031058e-05 0.0 
3.451640546084e-05 -2.461311254525e-05 0.0 
2.059839178384e-04 3.404310026006e-05 0.0 
6.509249618537e-05 -1.380323844179e-05 0.0 
1.843004328155e-04 1.014338003893e-03 0.0 
5.334408623749e-05 -4.269581216603e-05 0.0 
5.275415608639e-06 4.874473528706e-07 0.0 
3.488166562998e-04 2.319196827299e-04 0.0 
2.963808278843e-05 -2.222748184155e-05 0.0 
3.253474722855e-04 1.910299487127e-04 0.0 
3.127497213442e-05 -2.420479703227e-05 0.0 
2.273973684299e-05 -4.756749219460e-05 0.0 
3.749881940225e-04 7.696394010993e-04 0.0 
9.032870057913e-06 -2.638355835868e-05 0.0 
1.755609671492e-05 -4.514506161558e-05 0.0 
2.508637525164e-05 -2.345750078420e-05 0.0 
5.975207180919e-05 -9.486236430193e-06 0.0 
5.756823326157e-05 4.617893592481e-04 0.0 
1.053517088654e-04 -1.767912852826e-05 0.0 
1.011328450611e-04 -1.570356096026e-05 0.0 
3.367752626630e-04 1.018095289720e-03 0.0 
2.129810189807e-04 1.347373566801e-03 0.0 
8.527434866295e-05 1.335185976648e-04 0.0 
2.973022300793e-04 1.519367451253e-04 0.0 
1.657054834615e-05 -4.502829537254e-05 0.0 
2.676169690846e-05 -4.482108716142e-05 0.0 
2.489248882928e-05 -4.733305689966e-05 0.0 
3.717799138892e-05 -4.084121690463e-05 0.0 
2.527265467201e-04 1.262233968277e-04 0.0 
6.604868462817e-05 4.662236380245e-04 0.0 
3.450448934106e-05 -5.146041858399e-06 0.0 
3.188717969471e-05 -3.644022861922e-05 0.0 
2.833271144076e-05 -1.344000978667e-05 0.0 
5.273967037996e-05 -1.194890296347e-06 0.0 
3.943213632818e-05 -2.787042770904e-05 0.0 
6.406786225961e-06 -2.621552182497e-05 0.0 
4.758197614855e-06 -3.005066200628e-05 0.0 
8.810060337654e-06 6.119119777098e-07 0.0 
4.598461649368e-06 3.458929921737e-07 0.0 
6.471085880839e-06 -2.338525661434e-05 0.0 
2.651506853016e-05 -2.189157915858e-05 0.0 
6.242150652459e-05 -2.066826927393e-05 0.0 
5.151167189172e-05 8.639271121196e-07 0.0 
2.711511695572e-05 -4.376143307324e-05 0.0 
5.323957122352e-05 -3.406329932156e-06 0.0 
1.391511297654e-05 -4.208062148643e-05 0.0 
2.654590034373e-05 -2.535564691411e-05 0.0 
3.614551637541e-05 -2.295085595305e-05 0.0 
1.099146467207e-05 -4.204226947680e-05 0.0 
5.227598793631e-06 -2.471284117956e-05 0.0 
1.924901346584e-04 3.330010498819e-04 0.0 
1.404561982101e-05 -4.424238306695e-05 0.0 
2.349273810747e-04 1.307610007393e-03 0.0 
2.352621175195e-04 1.327012552192e-03 0.0 
1.097247182502e-04 -8.340399860973e-06 0.0 
2.375608161195e-06 -3.007232606625e-05 0.0 
5.479094601104e-05 -4.150810611043e-05 0.0 
4.205705979635e-05 1.839357061579e-05 0.0 
2.123002091209e-05 -1.819306559345e-06 0.0 
8.934904342330e-05 3.254101291245e-05 0.0 
1.199679892759e-04 5.571484149318e-04 0.0 
7.630058635104e-05 6.852181156905e-05 0.0 
2.565610334844e-05 -4.660025251527e-05 0.0 
3.286641701990e-04 4.574982838813e-04 0.0 
1.572779780262e-04 1.393460723161e-03 0.0 
1.459323315897e-04 1.443021003959e-03 0.0 
1.520784123724e-05 -4.430583931449e-05 0.0 
1.382216283655e-05 -4.285154913868e-05 0.0 
6.483982336737e-06 -3.992653742238e-05 0.0 
2.751195013202e-05 -3.988552767117e-05 0.0 
9.503554231389e-06 -4.208483056117e-05 0.0 
5.231517010434e-06 -2.176585533472e-05 0.0 
1.687825136825e-05 -4.055900456965e-05 0.0 
2.957355351804e-05 -3.746820521241e-05 0.0 
4.452141680206e-05 8.903973433766e-04 0.0 
1.959261535091e-04 1.405816202383e-03 0.0 
2.345843549981e-04 1.287724405838e-04 0.0 
5.628502312978e-05 -1.186134258540e-05 0.0 
3.894971072431e-05 1.026295217062e-03 0.0 
1.232453715375e-06 -2.877388137184e-05 0.0 
8.009016280806e-06 -4.060017894311e-05 0.0 
1.064249807204e-05 3.936717632315e-05 0.0 
2.441768896951e-05 8.157669680453e-05 0.0 
1.888826970861e-04 1.098140258905e-03 0.0 
1.751741277518e-04 1.387061518408e-03 0.0 
6.131868664731e-06 -2.883182879329e-05 0.0 
1.553728215944e-05 7.849324309850e-05 0.0 
2.975123956983e-05 -3.905152628490e-05 0.0 
2.145787195443e-04 1.373258608117e-03 0.0 
1.932441606218e-04 1.373193778440e-03 0.0 
3.286406204581e-04 6.922801162293e-04 0.0 
2.294991818033e-05 3.167452510584e-05 0.0 
1.905521416179e-05 7.779990390805e-05 0.0 
1.243173530247e-05 -4.279970955145e-05 0.0 
1.254032732759e-05 -4.352109519396e-05 0.0 
2.488558183791e-05 -4.520438964389e-05 0.0 
3.956815224639e-05 -2.332898763619e-05 0.0 
1.993937759135e-06 -1.137744310649e-06 0.0 
1.373644969669e-05 -3.792627301422e-05 0.0 
1.483485210668e-05 5.853206923521e-04 0.0 
1.958359982192e-05 -4.404498551402e-05 0.0 
9.677124190334e-05 -1.077474899851e-05 0.0 
1.970377024069e-05 -4.506265396914e-05 0.0 
1.711344781212e-05 -4.215378411793e-05 0.0 
9.024549580826e-05 -1.449125303624e-05 0.0 
8.125102779971e-06 -1.730129869560e-06 0.0 
3.694989380380e-05 9.408707434540e-04 0.0 
3.273881731831e-04 3.518505526003e-04 0.0 
7.980470266352e-06 -4.140454177622e-05 0.0 
2.298453424056e-05 -1.159555830867e-05 0.0 
3.579818377117e-06 4.718007363034e-05 0.0 
7.099715287625e-06 7.987706430450e-05 0.0 
1.789717754795e-04 1.425596257193e-03 0.0 
1.026969576308e-04 -6.673883665704e-06 0.0 
8.412716089757e-06 3.843272758490e-05 0.0 
2.024581182691e-04 4.062481622767e-05 0.0 
4.775768809609e-06 -4.017572955582e-05 0.0 
6.466747656937e-06 -4.157793205098e-05 0.0 
4.787080144263e-06 -4.102276135131e-05 0.0 
1.299527449688e-06 -2.603158999069e-05 0.0 
1.577963704336e-06 -7.679202874034e-08 0.0 
1.881913651634e-06 2.181096422948e-04 0.0 
6.536905349365e-06 -4.237688029546e-05 0.0 
2.688502473538e-06 -2.158065846966e-05 0.0 
5.313117957287e-07 -3.107881873928e-08 0.0 
2.247187852245e-06 -6.638229015903e-08 0.0 
7.902253253202e-06 4.452948457422e-07 0.0 
8.091847713346e-06 7.331462271989e-04 0.0 
3.310897429723e-06 5.109532412357e-04 0.0 
1.046651908607e-06 -4.571321000106e-08 0.0 
1.200535943638e-06 -2.066908015796e-08 0.0 
7.248451064247e-06 5.853978431901e-04 0.0 
4.986818267081e-06 -4.259846856588e-05 0.0 
1.132733499509e-04 1.450937374317e-03 0.0 
1.626363609220e-04 1.437124817438e-03 0.0 
9.605781454354e-06 -4.285575757581e-05 0.0 
2.081362103272e-06 5.469436995696e-08 0.0 
7.246042873013e-06 3.089343890914e-07 0.0 
3.555388308097e-06 1.296585288852e-07 0.0 
8.152855181745e-06 -4.297441703534e-05 0.0 
1.120228392015e-05 -4.353458213395e-05 0.0 
4.211598688286e-06 2.660189855360e-07 0.0 
3.690654564916e-06 1.792758602062e-07 0.0 
4.154294078822e-06 8.092277812927e-04 0.0 
6.177362312805e-05 1.454559230195e-03 0.0 
3.937553634524e-06 6.584388866110e-04 0.0 
4.806419019973e-06 1.108714320103e-03 0.0 
2.689108973697e-05 1.454546100651e-03 0.0 
1.876966773271e-05 -4.585529855562e-05 0.0 
2.202155486345e-05 -4.745298711383e-05 0.0 
2.285729184214e-05 -4.795665254675e-05 0.0 
2.308625489423e-05 -4.813524848583e-05 0.0 
1.350864410172e-06 -2.001891230928e-05 0.0 
1.337638063366e-06 -2.309573939643e-05 0.0 
2.256491107823e-05 -4.763244520698e-05 0.0 
1.317874248586e-06 -1.106113269172e-05 0.0 
2.322731976293e-05 -4.805201734954e-05 0.0 
1.880799183479e-05 3.530450308997e-05 0.0 
7.124566069682e-06 4.006051551360e-05 0.0 
1.377519089747e-05 4.220952048138e-05 0.0 
1.073910498106e-06 -3.751266713718e-05 0.0 
1.143154445820e-06 -3.129067016433e-05 0.0 
6.656854155896e-06 4.833547178555e-05 0.0 
8.643059457833e-07 -3.471383613815e-06 0.0 
3.519896910508e-06 3.269699067417e-05 0.0 
6.219928405210e-07 -1.768369767440e-06 0.0 
3.702040635051e-07 -6.299737713889e-07 0.0 
2.637165513054e-06 -2.460852082670e-05 0.0 
1.378142022558e-05 8.839598729916e-05 0.0 
1.017675106640e-05 8.103246245972e-05 0.0 
1.486298786304e-06 -2.588919717836e-06 0.0 
9.921969040261e-07 -1.123697700898e-06 0.0 
1.334740254309e-05 -8.432973028479e-06 0.0 
2.151344758694e-05 -4.629210795369e-05 0.0 
2.203085478736e-05 -2.643627023334e-05 0.0 
1.509297627790e-05 -4.363639102873e-05 0.0 
1.958691467103e-05 -1.962496661655e-06 0.0 
2.961148296824e-05 -2.576704047920e-05 0.0 
1.512970587288e-05 -4.470989800961e-06 0.0 
2.749982635281e-05 -4.128556763750e-05 0.0 
1.793046641188e-05 -4.331037816562e-05 0.0 
1.028136877093e-05 -2.494707548749e-06 0.0 
2.210618122579e-05 -2.313312059890e-05 0.0 
5.048806660759e-06 -2.753100948560e-05 0.0 
1.321920221203e-05 -4.523620560910e-06 0.0 
2.114325800810e-05 3.699264306260e-04 0.0 
2.531981165063e-06 -2.745139800418e-05 0.0 
5.832574299260e-05 -7.345913568629e-06 0.0 
4.121722015455e-05 -1.391119238587e-05 0.0 
1.577571936434e-05 -8.439606401077e-06 0.0 
1.133881217804e-05 -7.072882182936e-06 0.0 
1.088460268828e-04 -2.203828166771e-05 0.0 
2.850881433070e-04 3.695627334760e-04 0.0 
2.026741108117e-04 3.927182792457e-05 0.0 
2.579450164687e-05 -1.167802565224e-05 0.0 
9.278816237048e-06 -3.534582591700e-06 0.0 
7.370111164347e-06 -5.852050226867e-06 0.0 
3.622583013828e-05 -4.353127982832e-05 0.0 
4.049371046280e-05 3.811165326296e-04 0.0 
5.046113824066e-05 5.294536885374e-04 0.0 
8.126832849993e-05 1.228874052125e-03 0.0 
2.873843297433e-05 -1.010888069907e-05 0.0 
2.058133401531e-05 -9.967382438745e-06 0.0 
2.742514410011e-05 3.775927822080e-04 0.0 
3.476449370113e-05 4.538785716958e-04 0.0 
4.430326369733e-05 -1.593804744568e-05 0.0 
6.877470923860e-06 -1.793643848816e-06 0.0 
1.083799271929e-04 5.542811539648e-04 0.0 
5.232887145680e-06 -5.814065318808e-06 0.0 
1.412706461054e-05 -1.272668705673e-06 0.0 
4.740749833676e-05 3.845930664468e-04 0.0 
8.563335947940e-05 7.672937679454e-04 0.0 
5.562423961576e-05 -9.728174635703e-06 0.0 
1.427192495030e-05 -3.639237223671e-05 0.0 
3.734789165299e-05 -4.506604533897e-05 0.0 
2.446732171862e-05 -4.609442099667e-05 0.0 
2.343379265025e-05 -4.660916418331e-05 0.0 
4.222042340394e-05 4.535878126084e-04 0.0 
7.367828256808e-06 -2.621515745713e-06 0.0 
2.416002984902e-05 -4.771719465094e-05 0.0 
2.575758662999e-04 2.581100818721e-04 0.0 
9.678476259876e-05 1.153800658084e-03 0.0 
1.773185137876e-05 -5.675295166330e-06 0.0 
9.501482433843e-06 -4.629915499933e-06 0.0 
5.259795695481e-05 -3.991616317736e-05 0.0 
7.658111999710e-06 -4.677826292183e-06 0.0 
9.148702478253e-05 1.231308327444e-03 0.0 
1.393925114545e-04 3.411414913597e-06 0.0 
1.063241781722e-05 -6.830074439000e-07 0.0 
7.757293965537e-06 -3.542745353977e-05 0.0 
1.836446630461e-05 -9.439370187618e-07 0.0 
6.698920040364e-05 6.847606723956e-04 0.0 
1.123544484755e-05 -3.472689727179e-05 0.0 
3.929900367657e-05 -4.271914993567e-05 0.0 
1.157576376799e-05 -1.750618908974e-05 0.0 
1.126946089574e-04 9.284689383123e-04 0.0 
2.799154589471e-05 -3.232137713573e-05 0.0 
5.011791036444e-05 6.016359731524e-04 0.0 
7.252385999376e-05 8.368514562897e-04 0.0 
2.477977342255e-05 -1.999663532007e-05 0.0 
9.066226627099e-06 -7.090388547824e-06 0.0 
1.148606714942e-05 -5.786633069729e-06 0.0 
5.750234812996e-05 6.796010601060e-04 0.0 
1.765221180410e-05 -3.937788634130e-05 0.0 
2.053869445545e-05 -2.130910402818e-05 0.0 
1.329241645333e-04 2.011802225182e-05 0.0 
7.781622274784e-05 6.160082063876e-04 0.0 
2.070172625255e-05 -2.463864939924e-05 0.0 
3.780560084728e-05 -1.380567526666e-05 0.0 
2.458848439241e-05 -1.496788754543e-06 0.0 
7.499483254812e-05 7.628451532968e-04 0.0 
2.425615715011e-05 -3.067644209900e-05 0.0 
2.073219858759e-05 -4.433203797002e-05 0.0 
5.191130564220e-05 -2.982234678338e-05 0.0 
1.094472489506e-05 -3.471288373991e-06 0.0 
9.366781098227e-05 8.456810309829e-04 0.0 
8.225687619099e-06 -1.443866945741e-05 0.0 
1.137962890982e-04 1.081776183823e-03 0.0 
4.939949599725e-05 -1.733862951402e-06 0.0 
2.000384683050e-05 -1.793497595589e-05 0.0 
1.353787826960e-05 -5.743632348414e-06 0.0 
1.210316358386e-05 -3.598295235571e-05 0.0 
1.556791270452e-05 -1.166999779402e-06 0.0 
2.178359337370e-05 -1.973854037497e-05 0.0 
8.973020641744e-06 -3.447671144309e-05 0.0 
1.768139036278e-05 -2.102397462375e-05 0.0 
2.427307715578e-05 -3.001595783713e-05 0.0 
2.706311919527e-05 -3.682869116384e-05 0.0 
1.084621980868e-05 -1.434333507656e-05 0.0 
1.960309160355e-05 -4.599144557667e-05 0.0 
2.132466875219e-05 -4.686936007411e-05 0.0 
1.800160492038e-05 -9.929885973452e-06 0.0 
1.500627909762e-05 -3.764023765436e-05 0.0 
2.592767444317e-05 -1.006447457362e-05 0.0 
3.166125815657e-05 -1.184492432765e-05 0.0 
3.835463533400e-05 -3.073359013281e-05 0.0 
4.904932973058e-05 -4.375563708249e-05 0.0 
9.440098661040e-05 4.781157049995e-04 0.0 
1.992808316202e-05 -7.457697248531e-06 0.0 
2.047045977935e-05 -2.783597689286e-05 0.0 
4.797312685456e-05 2.495287665736e-07 0.0 
1.376412538549e-05 -3.843989893280e-05 0.0 
1.078881522350e-04 1.002960058065e-03 0.0 
1.076371389165e-04 1.158125388136e-03 0.0 
2.531824148468e-05 -4.314085459108e-05 0.0 
3.196079024308e-05 -2.124227304350e-06 0.0 
1.340112353165e-04 7.075673002513e-04 0.0 
1.708472465617e-05 -3.815227315006e-05 0.0 
9.951596007249e-05 4.108946742045e-04 0.0 
8.945086049828e-05 4.074672974907e-04 0.0 
1.863355292846e-05 -3.739305361776e-05 0.0 
9.477489068766e-05 9.408202862014e-05 0.0 
2.526894673362e-05 -3.922370252234e-05 0.0 
1.581894011947e-05 -7.036514834219e-06 0.0 
1.535478622305e-05 -1.605388419687e-05 0.0 
2.261381040660e-04 3.091209918931e-04 0.0 
8.437301677574e-05 4.745186770761e-04 0.0 
2.063891790758e-05 -8.461396444234e-06 0.0 
2.317529092913e-05 -8.476021235541e-06 0.0 
2.541488721325e-05 -4.192784538178e-05 0.0 
1.810240956778e-05 -7.020808412084e-06 0.0 
1.215183162958e-04 7.049338693915e-04 0.0 
1.259873940613e-05 -1.596148863226e-05 0.0 
1.050349499445e-04 8.499923512364e-04 0.0 
1.099266558936e-04 6.277620528927e-04 0.0 
1.501101853956e-04 -9.854026003654e-06 0.0 
7.715304971697e-05 5.431005882593e-04 0.0 
1.637311519772e-05 -2.255429980787e-05 0.0 
1.713034537685e-05 -1.776185674269e-05 0.0 
1.984775470009e-05 -3.082242482243e-05 0.0 
4.294325438337e-05 -3.520566205383e-05 0.0 
1.079120239461e-04 7.757753969218e-04 0.0 
5.866055384832e-05 -2.494446675035e-05 0.0 
2.265286122029e-05 -3.712932734810e-05 0.0 
2.343186932142e-05 -4.461293760018e-05 0.0 
1.198409810609e-04 7.793302815140e-04 0.0 
2.499780184866e-05 -3.775018708749e-05 0.0 
1.966561216610e-05 -7.906731353610e-07 0.0 
8.740516546096e-05 6.936968951673e-04 0.0 
1.991039964672e-05 -5.638261871980e-06 0.0 
2.961602094062e-05 3.219899070658e-06 0.0 
1.782596431715e-05 -2.434495801263e-05 0.0 
2.083352003483e-05 -3.796663371282e-05 0.0 
2.351110892092e-05 -4.360905663554e-05 0.0 
2.846041670188e-05 -8.496758108293e-06 0.0 
7.972142751476e-05 9.154965232588e-04 0.0 
2.203127909333e-05 -4.490630824426e-05 0.0 
2.520196435784e-05 -3.177875396769e-05 0.0 
8.781012009717e-06 -3.650441465406e-05 0.0 
1.247286139410e-04 9.321705598772e-04 0.0 
2.153308685289e-05 -2.956610361570e-05 0.0 
3.476612210423e-05 -1.191982712323e-05 0.0 
1.715094615547e-05 -3.030199924200e-05 0.0 
5.889516022433e-05 5.341787013598e-04 0.0 
2.660501535284e-05 -3.519643071753e-05 0.0 
3.714733377455e-05 -8.428662722895e-06 0.0 
3.537128036031e-05 -4.469607523310e-05 0.0 
3.463866167625e-05 -1.017587331808e-05 0.0 
1.325425303544e-05 -1.911701966900e-05 0.0 
2.529169809888e-05 -6.974730656349e-06 0.0 
8.389669171701e-05 -3.496594565789e-05 0.0 
1.086445742223e-05 -3.680972764131e-05 0.0 
9.184329435725e-05 1.073171319016e-03 0.0 
9.074488930120e-05 -1.168241424967e-05 0.0 
2.207720878262e-04 1.086210272481e-04 0.0 
9.022685157199e-05 9.198774833034e-04 0.0 
4.063356954472e-05 -4.433080896430e-05 0.0 
1.688543362193e-04 8.623658188421e-04 0.0 
1.179106507655e-05 -3.801880880075e-05 0.0 
2.547676978637e-05 -2.745240911166e-06 0.0 
9.639418448666e-05 -7.884606500916e-06 0.0 
1.454045474379e-04 9.842723417522e-06 0.0 
7.289983615173e-05 3.301583632889e-04 0.0 
5.805790583085e-05 -2.057317644480e-05 0.0 
1.959847559453e-05 -3.997436110837e-05 0.0 
4.844405332266e-05 -1.404904742842e-05 0.0 
2.647763246195e-05 -1.269590486378e-06 0.0 
5.178849925848e-05 -4.137367282476e-05 0.0 
2.281733085729e-05 -6.998399909041e-06 0.0 
9.831669096548e-05 6.978672038902e-04 0.0 
4.934404142416e-05 -4.432463324714e-05 0.0 
4.131689126731e-05 -1.203351645698e-05 0.0 
1.624114009331e-04 1.091928366831e-03 0.0 
1.263544826048e-05 -3.373279059200e-05 0.0 
2.869383787340e-05 -3.409137710490e-05 0.0 
2.555915085904e-04 8.474172393316e-05 0.0 
3.125578145614e-05 -8.488847931735e-06 0.0 
2.031016544661e-04 1.651720000854e-04 0.0 
2.287125078259e-04 6.015981113879e-05 0.0 
1.451357546403e-04 7.845856651719e-04 0.0 
9.678753381175e-05 9.986799233097e-04 0.0 
1.702917198587e-04 1.015139104047e-03 0.0 
1.605278782737e-05 -1.928029175734e-05 0.0 
4.029651951759e-05 -2.916845995093e-06 0.0 
5.595356052716e-05 -1.619194938580e-05 0.0 
1.255437989704e-04 1.086417357412e-03 0.0 
2.269884351151e-04 1.911773274448e-04 0.0 
1.493012565936e-04 1.635953314774e-05 0.0 
3.777781153205e-05 -1.018404553262e-05 0.0 
9.865398767818e-05 6.242502719836e-04 0.0 
3.918858405397e-05 -3.272055698334e-05 0.0 
3.374653340164e-05 -3.347776638584e-05 0.0 
2.347950588223e-05 -4.126263997544e-05 0.0 
5.226953784951e-05 -1.197510112071e-05 0.0 
3.001937953106e-05 -3.104152929016e-05 0.0 
1.417997666015e-04 8.598708101916e-04 0.0 
1.635391731781e-04 9.388014087201e-04 0.0 
1.343228175932e-04 -1.666598006689e-05 0.0 
3.461608358480e-05 -3.706123681523e-05 0.0 
9.338308706201e-05 -2.258062349619e-05 0.0 
3.146556789249e-05 -3.469566095801e-05 0.0 
3.673385977264e-05 -3.407012923961e-05 0.0 
2.332144162339e-05 -3.995853708232e-05 0.0 
4.972147291182e-05 -3.838708438333e-06 0.0 
5.511887772226e-05 -3.097634995721e-05 0.0 
8.707928914280e-05 5.471723451324e-04 0.0 
6.206047190750e-05 -2.941670007516e-05 0.0 
5.232359398159e-05 -1.406069076603e-05 0.0 
5.644848357394e-05 -2.267548976132e-05 0.0 
1.953812066591e-04 2.359074185120e-05 0.0 
2.123095555297e-05 -3.932232801219e-05 0.0 
3.429769923268e-05 -1.840979759875e-06 0.0 
2.974885404978e-05 -6.784392960870e-07 0.0 
2.936536541976e-04 1.183404899932e-04 0.0 
4.241490998988e-05 -3.327293450917e-05 0.0 
5.512617538140e-05 -1.832945714184e-05 0.0 
1.289979120429e-04 8.572488573935e-04 0.0 
3.515601466993e-05 -3.019903069040e-05 0.0 
1.803202261454e-04 6.063265087134e-05 0.0 
2.402321038592e-05 -3.460805087474e-05 0.0 
4.659338733455e-05 -4.368928505916e-05 0.0 
4.502572488143e-05 -3.177499009631e-05 0.0 
2.213637359999e-05 -3.561945158166e-05 0.0 
1.575153926125e-05 -3.551921087940e-05 0.0 
5.236522089136e-05 -2.244982847355e-05 0.0 
4.481826807787e-05 -1.204980102092e-05 0.0 
2.389992098954e-04 1.005570071575e-04 0.0 
2.061024692125e-05 -4.665281460868e-05 0.0 
8.121615510484e-05 -3.148033078478e-05 0.0 
6.744565146104e-05 -3.172172332272e-05 0.0 
4.854685614878e-05 -3.225308299719e-05 0.0 
1.500412071878e-04 9.375606222220e-04 0.0 
5.639271914064e-05 -2.693945010674e-05 0.0 
2.332245136961e-05 -3.296037409407e-05 0.0 
5.128351381890e-05 -3.059342606346e-05 0.0 
6.803878462180e-05 6.115205982644e-04 0.0 
2.070823201475e-05 -3.245389917024e-05 0.0 
2.047712388813e-05 -4.339515584312e-05 0.0 
2.172719522612e-05 -4.183213770192e-05 0.0 
4.788569708890e-05 -4.249502685703e-05 0.0 
4.016486682841e-05 -3.649218729619e-05 0.0 
7.550990975027e-05 -2.967681821986e-05 0.0 
5.791073242647e-05 -2.914805145927e-05 0.0 
3.596577902359e-05 -4.598885394384e-05 0.0 
1.993665100884e-05 -4.118006790497e-05 0.0 
2.298839077760e-04 1.003682412424e-03 0.0 
1.971820116693e-05 -3.507156109337e-05 0.0 
5.242606262909e-05 -5.675022035664e-06 0.0 
2.450603668235e-04 9.112638524126e-05 0.0 
3.897451578565e-04 6.447562174823e-04 0.0 
1.525056906143e-04 4.875704504194e-04 0.0 
2.249445985120e-04 1.051409972104e-04 0.0 
1.422381810977e-04 -1.387501007373e-05 0.0 
2.750860907059e-04 1.059745855728e-04 0.0 
4.118790162315e-05 -4.546327403726e-05 0.0 
4.636210632218e-05 -2.802850613324e-05 0.0 
1.614227969625e-04 4.676171553982e-06 0.0 
5.574967173451e-05 -4.197614414214e-05 0.0 
3.585503091947e-05 -4.670636558367e-05 0.0 
3.300263701889e-05 -3.159363468715e-05 0.0 
6.318423075342e-05 -3.155565797330e-05 0.0 
7.083933295828e-05 -2.969568465547e-05 0.0 
1.899081859800e-05 -3.355368546262e-05 0.0 
6.297520815928e-05 -2.513799488093e-05 0.0 
7.643876170227e-05 -3.170307053024e-05 0.0 
9.068954652428e-05 -2.872519642911e-05 0.0 
3.718179815359e-05 -3.590903200780e-05 0.0 
1.162482454355e-04 -3.565556687427e-06 0.0 
1.586923582678e-04 7.858398873245e-04 0.0 
9.669380813021e-05 -2.963993269935e-05 0.0 
4.320710205107e-05 -2.576315909169e-06 0.0 
4.716881035494e-05 -4.460413512393e-05 0.0 
3.914596812911e-05 8.622924911274e-07 0.0 
6.937455327579e-05 -2.751454608409e-05 0.0 
1.989641610389e-04 1.019051004948e-04 0.0 
3.655100892749e-04 2.721364251372e-04 0.0 
4.281008069044e-05 -4.457564878470e-05 0.0 
3.933818665032e-04 5.290356093820e-04 0.0 
1.955419151586e-04 4.054266155075e-04 0.0 
7.703481048787e-05 -2.523634121084e-05 0.0 
1.288363870804e-04 2.166278388719e-05 0.0 
3.869287237329e-04 4.260091246954e-04 0.0 
2.493911363410e-04 1.066831054502e-04 0.0 
3.762927784804e-05 -4.614124282173e-05 0.0 
7.979940296397e-05 2.029304719096e-04 0.0 
3.301552672778e-05 -4.652113881294e-05 0.0 
8.221346822260e-05 9.153431513452e-06 0.0 
6.268346191411e-05 3.959663103535e-04 0.0 
1.011721189388e-04 -3.788524697610e-06 0.0 
1.316696670907e-04 1.011302853220e-03 0.0 
1.578528376861e-04 5.609393483034e-04 0.0 
8.540172469230e-05 -2.921828212498e-05 0.0 
1.378847881113e-04 -1.214225962774e-05 0.0 
1.215957370792e-04 3.447414104284e-04 0.0 
4.029763528672e-05 -8.356938611055e-06 0.0 
1.747209895014e-04 7.099786395942e-04 0.0 
8.480509069572e-05 -9.693019891992e-06 0.0 
4.309068889163e-05 -4.542540835315e-05 0.0 
1.889535137050e-04 6.326236598956e-04 0.0 
1.043000210961e-04 3.585332762343e-05 0.0 
3.173053522285e-05 -3.435484090193e-07 0.0 
5.007380406311e-05 -2.844662367449e-05 0.0 
1.441804057789e-04 1.014070962766e-03 0.0 
1.497980528436e-04 1.092101012048e-03 0.0 
6.485711293263e-05 -2.740162685320e-05 0.0 
4.800121896749e-05 -1.004226274690e-05 0.0 
5.060315215087e-05 -7.902547837980e-06 0.0 
2.185544399338e-05 -4.296554515272e-05 0.0 
7.713698102865e-05 -2.191138603403e-05 0.0 
1.079454757998e-04 -2.583949320504e-05 0.0 
9.130726388616e-05 -3.047904475212e-05 0.0 
2.135062104332e-04 5.265847110028e-05 0.0 
9.795697651064e-05 2.748263557315e-04 0.0 
2.514810026028e-04 2.724837482303e-04 0.0 
7.108155463584e-05 4.001895925320e-04 0.0 
2.430185805879e-04 2.168743543404e-04 0.0 
2.299191076221e-04 5.421824155755e-04 0.0 
4.442948985478e-05 -1.012860598472e-05 0.0 
9.109365502114e-05 3.397751242682e-04 0.0 
2.202161908479e-04 6.998563122380e-04 0.0 
5.239115468063e-05 -2.662094621571e-05 0.0 
1.141718815466e-04 -2.536197040404e-05 0.0 
1.743735913010e-04 6.346523633642e-04 0.0 
1.322073857016e-04 4.149781275895e-04 0.0 
1.340076369973e-04 6.332627447195e-04 0.0 
1.605303911958e-04 7.103517080824e-04 0.0 
3.491177529078e-05 -3.459921433261e-06 0.0 
1.027138259175e-04 1.230998702740e-05 0.0 
4.321613173005e-05 -4.493934588097e-06 0.0 
4.802872005488e-05 -1.605961792429e-05 0.0 
2.894819542017e-04 5.721268464013e-04 0.0 
1.048034520620e-04 4.943634350166e-07 0.0 
3.001621080880e-04 6.380620773626e-04 0.0 
1.803472168087e-05 -3.600785676475e-05 0.0 
1.019297670519e-04 -2.706505367453e-05 0.0 
1.024161956676e-04 -2.065133592210e-05 0.0 
1.372036361823e-04 -7.346531250593e-06 0.0 
6.159511247211e-05 -3.664390198493e-05 0.0 
1.081040810991e-04 -2.711655986308e-05 0.0 
1.318723524348e-04 -2.666051783717e-06 0.0 
3.413861914100e-04 4.111069136939e-04 0.0 
5.057572670574e-05 -2.440030157156e-05 0.0 
2.298212414597e-04 8.492861080516e-04 0.0 
1.273310220667e-04 1.335387640226e-03 0.0 
-1.691177792306e-06 3.552286863892e-05 0.0 
5.108087556805e-05 -1.820876901794e-05 0.0 
9.252099542223e-05 -2.406405128314e-06 0.0 
2.111626945952e-04 2.432501388999e-04 0.0 
1.327729989592e-04 -1.574829908750e-05 0.0 
4.992934333492e-05 -2.022682703313e-05 0.0 
1.833157983333e-04 8.617257069130e-04 0.0 
-1.774924911124e-06 6.965594195001e-05 0.0 
1.076845839195e-04 -2.272428187343e-06 0.0 
1.263505093478e-04 -1.318008724953e-05 0.0 
3.627218928214e-04 4.268126068009e-04 0.0 
4.699561678288e-05 -8.102877413870e-06 0.0 
5.368623777845e-05 -4.305443155903e-05 0.0 
4.883130398079e-05 -5.989718099504e-06 0.0 
4.186425857372e-05 -7.554843352939e-07 0.0 
1.236120908068e-04 -1.586962027573e-06 0.0 
1.469701892492e-04 6.347929303981e-04 0.0 
2.052074705145e-04 5.017089885319e-05 0.0 
3.918996293923e-05 -1.165558786884e-06 0.0 
-1.632760642030e-07 1.202169908953e-04 0.0 
2.025828534687e-04 7.819360630613e-04 0.0 
1.210940038689e-04 2.065926471666e-05 0.0 
1.446400339398e-04 5.607068468490e-04 0.0 
1.311625721744e-04 -6.147011249385e-06 0.0 
1.207222640409e-04 -2.239445929918e-05 0.0 
2.903664196820e-05 -1.864389837414e-05 0.0 
3.381959330190e-05 -2.880391938291e-05 0.0 
1.160541482676e-04 4.844103426803e-04 0.0 
1.498278130774e-05 -3.411568431861e-05 0.0 
7.050109690632e-06 1.936254440705e-04 0.0 
2.343045241579e-04 6.774140657005e-05 0.0 
6.455850012397e-05 3.264776862535e-04 0.0 
4.686500590337e-05 -4.470890163357e-05 0.0 
2.822195604719e-04 1.129016048386e-04 0.0 
2.045393466866e-04 7.050592922797e-04 0.0 
4.110700300341e-05 -2.156121628638e-05 0.0 
5.969328799928e-05 -3.878294565771e-05 0.0 
1.135400404081e-04 1.740549879251e-05 0.0 
3.731816333747e-05 -4.652926394707e-05 0.0 
4.872005761516e-05 -4.398540462993e-05 0.0 
4.259428347703e-05 -4.548927065823e-05 0.0 
1.341174373882e-04 -1.099397987103e-05 0.0 
4.301892306513e-05 6.404879861435e-05 0.0 
2.994511337602e-05 3.105655318306e-04 0.0 
2.753408740520e-05 -2.575986989765e-06 0.0 
1.226727416758e-04 -2.028651636202e-05 0.0 
2.507739256952e-04 7.607727955201e-04 0.0 
4.540724682701e-05 -3.080725452516e-05 0.0 
3.637727423098e-05 3.962520443148e-07 0.0 
4.099519753451e-05 -4.592627550102e-05 0.0 
1.555918603057e-05 -3.146624270041e-05 0.0 
1.292715229321e-04 3.879947704142e-06 0.0 
7.894056364840e-05 -2.743456281291e-05 0.0 
1.256632076956e-04 1.672636924980e-05 0.0 
1.479636842518e-04 6.218979894465e-05 0.0 
2.811358348171e-04 5.804906338567e-04 0.0 
8.601963643494e-05 1.082191470583e-05 0.0 
1.873444186873e-04 7.848267069071e-04 0.0 
2.182570131206e-04 2.332004752928e-04 0.0 
2.002215837257e-04 5.544673045554e-04 0.0 
2.072306325244e-04 4.763461950040e-04 0.0 
5.345514416498e-05 -1.047055706238e-05 0.0 
2.764659264459e-05 -3.992695886124e-06 0.0 
2.192163354637e-04 6.238234399310e-04 0.0 
1.673429186847e-04 -7.354327992284e-07 0.0 
1.087853933384e-04 5.005489221041e-04 0.0 
7.285794573006e-05 1.072231744836e-05 0.0 
6.672964316609e-05 -2.750948031818e-05 0.0 
1.653858115844e-05 -3.308645457322e-05 0.0 
1.345157401260e-04 1.506636113282e-05 0.0 
2.124279980452e-06 -3.663869843554e-05 0.0 
2.184189333525e-04 4.047566343902e-05 0.0 
1.114441376019e-04 2.292054748569e-06 0.0 
1.685832383639e-04 3.431462896221e-04 0.0 
1.605071864292e-04 2.719067151166e-04 0.0 
1.216891148309e-04 1.503857786064e-06 0.0 
1.657085366525e-04 4.867243500630e-04 0.0 
1.388610954937e-04 -1.293384945715e-05 0.0 
2.667495804711e-04 1.060878174619e-04 0.0 
1.762278084522e-04 8.634719842499e-04 0.0 
2.381778807251e-04 1.729924334607e-04 0.0 
2.296584401925e-04 1.139339397953e-03 0.0 
2.551326644886e-04 1.195733370723e-03 0.0 
1.420353506413e-04 -1.364352496790e-05 0.0 
2.702380654370e-04 1.216816775399e-03 0.0 
2.104575352841e-04 2.791824323663e-05 0.0 
1.736203322358e-04 9.472742465011e-06 0.0 
1.132887713378e-04 -2.294033976038e-05 0.0 
5.360771259028e-05 -3.981694836001e-05 0.0 
1.275970560933e-04 -2.005876128248e-05 0.0 
1.206781395132e-04 4.140787675433e-04 0.0 
2.238556666966e-04 2.043080474892e-04 0.0 
3.322906922095e-05 -6.828276754498e-06 0.0 
1.085081353984e-04 1.480934914421e-05 0.0 
8.405498518786e-05 -2.719876646349e-05 0.0 
1.931183349708e-04 4.813324210056e-04 0.0 
1.199977591314e-04 -2.124989531355e-05 0.0 
2.158107467861e-05 -3.011327857232e-06 0.0 
1.856356061282e-04 5.580645444783e-04 0.0 
2.448182028238e-04 5.329146221003e-04 0.0 
1.167635410741e-04 -6.748169392962e-06 0.0 
1.339980869571e-04 -1.741974599073e-05 0.0 
2.307619796193e-04 8.872128705420e-05 0.0 
3.757126464641e-04 3.099397950181e-04 0.0 
5.207519602408e-05 -4.156483686299e-05 0.0 
6.511854730023e-05 -3.104997119639e-05 0.0 
1.608651067998e-04 5.336045883035e-05 0.0 
2.964651886978e-04 1.357840935710e-04 0.0 
1.625068548034e-05 -2.183750451973e-06 0.0 
2.348015618066e-04 6.165247769526e-04 0.0 
1.270694950009e-04 -2.058104210048e-05 0.0 
3.052939858729e-04 1.339837592793e-04 0.0 
9.457853841558e-05 1.428587051862e-06 0.0 
1.277636406797e-04 4.864385889188e-04 0.0 
2.196086878471e-04 9.472508701999e-05 0.0 
2.627622691994e-04 8.284967395758e-04 0.0 
6.480385369331e-05 -1.592375783895e-06 0.0 
1.253227325499e-04 -1.799651631745e-05 0.0 
8.880854675659e-05 4.391499879760e-08 0.0 
2.303154237185e-04 5.320573114204e-05 0.0 
1.330919530591e-04 3.467184289349e-04 0.0 
1.954776512055e-04 9.262356496771e-05 0.0 
1.216917421526e-04 -1.163616157848e-05 0.0 
5.785506726282e-05 -3.222005730468e-05 0.0 
1.855154099406e-04 4.348727071531e-05 0.0 
2.268548681673e-04 4.170614969834e-05 0.0 
1.319911338894e-04 -1.713972544212e-05 0.0 
1.234176061852e-04 -8.250534198776e-06 0.0 
6.011106037358e-05 -4.848150623935e-06 0.0 
5.656887334451e-05 -3.520104964100e-05 0.0 
1.226675936615e-04 -1.657658423619e-05 0.0 
3.863079629327e-04 4.664955940478e-04 0.0 
1.469482519202e-05 -2.279440603582e-06 0.0 
3.749055023442e-04 3.725325119290e-04 0.0 
2.151792340615e-04 5.881970767910e-05 0.0 
3.885139475554e-04 5.729867063668e-04 0.0 
3.617898544051e-04 8.122552905273e-04 0.0 
3.548050164958e-04 2.398249232751e-04 0.0 
1.124255831296e-04 1.106800761173e-05 0.0 
3.183417908204e-05 -5.285000972611e-06 0.0 
2.522862004767e-04 6.830574422670e-04 0.0 
1.497136297870e-04 2.759927016272e-04 0.0 
3.803888065282e-04 6.896001478461e-04 0.0 
1.041753711764e-04 -2.558731486033e-05 0.0 
1.726520736908e-04 4.314632265609e-05 0.0 
1.005463420498e-04 3.409309713684e-04 0.0 
1.964224499991e-04 2.013685219669e-05 0.0 
2.177564099136e-04 3.564206482244e-05 0.0 
1.167944315159e-04 -2.361087890051e-05 0.0 
2.659145000419e-04 5.952071496546e-04 0.0 
2.191072851512e-04 1.485232378600e-04 0.0 
2.042961346993e-04 2.503968975368e-05 0.0 
2.085243686944e-04 1.215568127672e-04 0.0 
1.331298846637e-04 9.511445517682e-06 0.0 
1.310536965142e-04 3.408352307036e-05 0.0 
1.131614103715e-04 -2.607061437723e-05 0.0 
3.417525985624e-05 -3.257736235154e-05 0.0 
1.807116274648e-04 2.605069186699e-04 0.0 
2.573341404412e-04 1.955518755795e-04 0.0 
9.304083869123e-05 -2.421212568134e-05 0.0 
1.491637690104e-04 3.622583051031e-05 0.0 
2.685000435103e-04 6.710076084442e-04 0.0 
3.904968099214e-05 -6.617593528446e-06 0.0 
1.535161427495e-04 -2.160084522487e-06 0.0 
2.931122316668e-05 -3.338901456802e-05 0.0 
1.026330922635e-05 -1.527577257199e-06 0.0 
2.789412217509e-04 1.006737887243e-04 0.0 
1.661186928387e-04 1.435492144472e-05 0.0 
2.039871870168e-04 7.409022300207e-05 0.0 
2.047442693559e-05 -3.137030048227e-05 0.0 
4.217593337559e-05 -6.449875569087e-06 0.0 
9.437029953829e-05 -2.739095389551e-06 0.0 
2.798151717017e-04 8.134892727260e-04 0.0 
3.996182135686e-05 -1.764345030927e-05 0.0 
1.191842317732e-04 -2.362538409037e-05 0.0 
1.968569358191e-05 -3.126912721279e-06 0.0 
2.221556178699e-04 3.711031282925e-05 0.0 
1.081766793667e-04 -2.623680332397e-05 0.0 
2.868150691641e-04 1.076009573320e-04 0.0 
2.974158017559e-05 -3.673896995566e-05 0.0 
2.634533711725e-04 9.100087567534e-05 0.0 
1.255100229396e-04 6.718133438025e-06 0.0 
1.702018334468e-04 8.895662766413e-05 0.0 
2.352461989386e-04 7.926694091441e-05 0.0 
7.848954413086e-05 -3.135311532889e-05 0.0 
3.047666675834e-05 -6.896634177873e-06 0.0 
8.843682766962e-05 2.719152767177e-04 0.0 
6.056089584941e-05 1.092335232962e-05 0.0 
1.270724250410e-04 1.190736161156e-05 0.0 
1.487400528594e-04 -9.192885935671e-06 0.0 
2.806247018208e-04 1.003902997444e-04 0.0 
1.175520887346e-05 -2.431245418363e-06 0.0 
8.891920667345e-06 -1.746523180327e-05 0.0 
2.453026930528e-04 7.925466323761e-05 0.0 
2.342891424092e-04 7.702730025127e-04 0.0 
2.539400377789e-05 -4.115592729879e-06 0.0 
4.016829649284e-05 -4.753762481790e-06 0.0 
5.290212459523e-05 1.411131365677e-03 0.0 
3.559728210929e-05 1.411453222665e-03 0.0 
3.732589577247e-04 4.440937215041e-04 0.0 
2.672445032482e-04 8.845253518611e-05 0.0 
3.401092668129e-05 -1.545153358890e-05 0.0 
3.515123756014e-04 2.393036280055e-04 0.0 
2.037630134073e-04 2.262762727226e-05 0.0 
6.292721859941e-05 3.156889340863e-06 0.0 
1.566679436432e-04 -3.918539225987e-06 0.0 
3.887699671959e-05 6.767877659848e-05 0.0 
3.487699166399e-04 9.456216707663e-04 0.0 
2.063626377395e-04 2.575561198898e-05 0.0 
4.353051158532e-05 -1.785617691241e-05 0.0 
7.505636073463e-05 -2.610235705209e-05 0.0 
4.675813131773e-05 -2.406731626429e-05 0.0 
2.784094627365e-04 9.552269325303e-05 0.0 
3.212502823196e-04 1.701621442387e-04 0.0 
2.840406712311e-04 7.337154948475e-04 0.0 
3.353261269985e-04 2.086889690491e-04 0.0 
3.250833243118e-04 2.040601800391e-04 0.0 
6.699829856300e-06 -3.908930716513e-05 0.0 
4.486186155170e-05 -2.586984336720e-05 0.0 
2.440978568331e-04 1.617498756073e-04 0.0 
3.803374052242e-04 3.460799717476e-04 0.0 
3.720940275853e-04 3.370281704736e-04 0.0 
9.269298519735e-05 8.329977558864e-06 0.0 
1.050369482346e-06 -3.565450041735e-05 0.0 
4.919271494651e-05 -3.863979386929e-05 0.0 
2.550145444548e-04 7.550186281855e-05 0.0 
4.128759735511e-05 -2.545611999208e-05 0.0 
2.700820922653e-04 1.114787069362e-03 0.0 
2.856312236621e-04 1.156516107171e-03 0.0 
3.004814010336e-04 7.154864795637e-04 0.0 
4.501130835955e-05 -5.505980977674e-06 0.0 
3.892003060653e-05 -1.945847355009e-05 0.0 
8.685994595809e-05 -3.556964636853e-06 0.0 
5.025205122791e-05 -3.616293882307e-05 0.0 
8.236255428567e-05 2.671982490887e-05 0.0 
1.697302684405e-04 4.143143566050e-04 0.0 
3.100652734887e-05 -2.059178239618e-05 0.0 
2.682918775272e-05 -5.476255239742e-06 0.0 
1.256971665841e-05 -4.124806323049e-05 0.0 
8.364555514174e-05 -7.050555181276e-06 0.0 
2.652509036448e-04 8.277363159681e-05 0.0 
9.577131461786e-06 -4.049974905935e-05 0.0 
1.569064477196e-04 4.161090457395e-04 0.0 
4.503418633104e-05 -3.416685422852e-05 0.0 
3.736426436451e-04 3.084881157179e-04 0.0 
3.070424207365e-04 1.440671532341e-04 0.0 
9.494572394068e-05 -2.619413741461e-05 0.0 
7.426822548229e-05 -1.582011930940e-05 0.0 
1.568838891994e-04 3.470478047180e-04 0.0 
6.954523699841e-05 -1.119172388064e-05 0.0 
2.392335101639e-04 5.357991634943e-05 0.0 
2.420315422763e-04 6.024589917654e-05 0.0 
-1.795804466010e-06 2.278498145956e-05 0.0 
3.941474238654e-05 -3.500347038104e-05 0.0 
2.038615610751e-04 5.884543276663e-05 0.0 
3.550766688177e-04 7.671803969012e-04 0.0 
1.810264612783e-04 4.985567588151e-05 0.0 
9.680423887098e-05 4.914151608294e-06 0.0 
3.037374360193e-04 3.692556053250e-04 0.0 
1.959697323395e-04 6.500778960910e-05 0.0 
3.219982503751e-04 1.053568207844e-03 0.0 
2.129303570572e-04 6.777940933438e-05 0.0 
2.443958384753e-05 -5.546441541660e-06 0.0 
2.549788988695e-04 7.053594584498e-05 0.0 
4.472271787817e-05 -2.188582153936e-05 0.0 
4.610443570974e-05 -1.999580540621e-05 0.0 
1.907162020339e-04 2.541117318174e-04 0.0 
7.670008109458e-05 -2.057188608853e-05 0.0 
3.006706399237e-04 1.281118331094e-04 0.0 
1.731205865479e-04 3.041379435749e-06 0.0 
6.249264242540e-05 -6.951420663078e-06 0.0 
1.861945083142e-04 1.204626135688e-05 0.0 
8.339955924292e-05 -3.243949067590e-05 0.0 
1.120388379000e-04 -1.646685152456e-05 0.0 
9.526594432708e-05 -2.777097729359e-05 0.0 
3.601474455615e-04 2.701634505674e-04 0.0 
9.138838470245e-05 -3.062502837259e-05 0.0 
3.434915217196e-04 2.094314911750e-04 0.0 
1.062109106218e-04 8.756481335574e-06 0.0 
1.132378908091e-04 6.802523255740e-06 0.0 
1.759321256250e-04 7.020569972850e-06 0.0 
3.135318383825e-04 7.731171800087e-04 0.0 
2.110901877599e-05 -4.301363895844e-06 0.0 
1.905420181677e-05 -4.369514973472e-06 0.0 
2.973872059584e-05 -1.518104897253e-06 0.0 
3.305005241552e-04 1.841349990653e-04 0.0 
1.145697786898e-05 -1.440213975557e-06 0.0 
1.460483665684e-04 2.696103260527e-04 0.0 
3.003240549879e-05 -1.697566359740e-05 0.0 
7.463231705565e-07 2.654359773065e-05 0.0 
1.607501633437e-05 -3.290753950517e-06 0.0 
8.121870285219e-05 -2.818499519382e-05 0.0 
7.294364115898e-06 -1.601586572664e-05 0.0 
1.758481457246e-04 1.911700645114e-05 0.0 
3.295840337132e-04 7.480244457095e-04 0.0 
3.399249699388e-04 7.998984963694e-04 0.0 
2.598525850554e-04 7.370700708105e-05 0.0 
2.129859512977e-04 8.948270682429e-04 0.0 
2.457819065055e-04 1.028396371318e-03 0.0 
1.432906865845e-05 -3.355195483655e-06 0.0 
7.465264950219e-05 -1.332250596555e-05 0.0 
9.626123484532e-05 -2.149299545513e-05 0.0 
8.920829633055e-05 -6.149807041360e-06 0.0 
1.115231381628e-04 -2.134222896356e-05 0.0 
9.000627758887e-05 -2.641731946183e-05 0.0 
1.981593508660e-04 1.032150757700e-03 0.0 
3.487941572085e-04 9.023737518698e-04 0.0 
4.455942181347e-05 1.454946223220e-03 0.0 
1.067544135726e-04 4.752534484363e-06 0.0 
1.668863912454e-04 4.655443583210e-07 0.0 
7.731200630247e-05 1.241122427619e-05 0.0 
5.975411303978e-06 -3.615878755266e-06 0.0 
1.155769870679e-04 -1.823185243547e-05 0.0 
9.518191363990e-06 -7.548625621749e-07 0.0 
9.104850109183e-05 -3.309532956826e-05 0.0 
1.015929181212e-04 1.746844622090e-05 0.0 
2.468181937530e-04 5.976925547568e-05 0.0 
2.308053316971e-04 5.159039343015e-05 0.0 
6.032135981790e-05 1.302038183187e-07 0.0 
4.919199936986e-05 -3.426556758524e-05 0.0 
3.185382632251e-04 1.566952789605e-04 0.0 
1.050494757971e-04 -2.254943544650e-05 0.0 
3.281227788590e-04 1.769183437952e-04 0.0 
1.100142319347e-04 8.109839437659e-06 0.0 
2.066891989067e-04 3.774908300483e-05 0.0 
1.007994002243e-04 -2.537310671280e-05 0.0 
3.732295416160e-05 -1.561980372333e-05 0.0 
3.413530061951e-04 2.056239002015e-04 0.0 
6.237605682897e-06 3.915253140292e-06 0.0 
1.732244008361e-04 6.995903679023e-06 0.0 
1.060712025024e-05 2.500450811921e-05 0.0 
1.843724069125e-05 -4.170737986121e-05 0.0 
3.323795435355e-05 -1.719893656630e-05 0.0 
2.635479425074e-04 1.183661076429e-04 0.0 
3.586714078651e-04 6.891226818716e-04 0.0 
1.531281164470e-04 5.387974663867e-04 0.0 
2.006900488480e-05 3.237427350851e-05 0.0 
-2.478988259789e-06 1.231953624634e-05 0.0 
1.901155152429e-04 7.099675990112e-04 0.0 
9.296158114919e-05 -1.940648880150e-05 0.0 
2.593290230016e-05 -1.838465398099e-05 0.0 
3.221085719999e-04 5.970429828673e-04 0.0 
8.035053207555e-05 -3.608143335611e-05 0.0 
7.830281080547e-05 -1.808487708505e-05 0.0 
2.651372967339e-04 7.952890012958e-05 0.0 
1.670620993202e-04 1.065567658116e-05 0.0 
2.691275648643e-04 1.836272597779e-04 0.0 
3.761812856291e-05 -6.841838501480e-06 0.0 
3.427252760944e-05 -2.090684099470e-05 0.0 
2.393568510121e-05 -1.654015523242e-05 0.0 
3.467387667836e-05 -3.873300354034e-05 0.0 
3.227689053724e-04 1.068732913267e-03 0.0 
3.707852059582e-04 6.541583222445e-04 0.0 
2.210122221148e-06 -6.896795215174e-06 0.0 
1.103649588801e-05 -4.126155080809e-05 0.0 
1.545780956796e-05 -2.846855201859e-05 0.0 
2.933013388314e-05 -4.318378990897e-05 0.0 
2.100280968042e-05 -1.634857215242e-05 0.0 
1.005431426231e-04 -3.053665436880e-05 0.0 
7.879315234824e-05 -3.709684884651e-05 0.0 
8.016594700691e-05 -3.473657306578e-05 0.0 
2.774937984798e-05 -1.510576807003e-05 0.0 
3.686157582347e-04 4.777399635675e-04 0.0 
1.903154956393e-05 -1.461569867651e-05 0.0 
1.057803804036e-04 -2.866623792088e-05 0.0 
3.187774929969e-04 1.601043432571e-04 0.0 
2.074119762190e-04 1.165853778065e-03 0.0 
1.578212219358e-04 2.051366602639e-05 0.0 
1.625702756023e-05 -1.449412993416e-05 0.0 
2.475639911845e-05 -1.492950409819e-05 0.0 
5.762434486830e-05 3.325194742293e-04 0.0 
9.646180792248e-05 -3.099343265096e-05 0.0 
1.429967411045e-05 -1.286897249389e-05 0.0 
8.633331122014e-06 8.824036511378e-04 0.0 
9.285456063165e-06 1.029542483790e-03 0.0 
9.603840275934e-05 4.227062150814e-04 0.0 
2.252976330492e-05 -1.318127847126e-05 0.0 
6.721662519342e-05 -3.867242560408e-05 0.0 
2.204673940489e-05 3.208837580100e-05 0.0 
9.626800648832e-05 1.501018365047e-05 0.0 
3.252420616128e-05 -4.531020118336e-05 0.0 
6.803936524900e-05 -3.720121042326e-05 0.0 
1.787886735583e-04 7.582441962753e-06 0.0 
1.570991681680e-04 6.565373922209e-04 0.0 
1.164491317583e-05 -1.281057320089e-05 0.0 
2.207821681981e-06 -3.247081315516e-05 0.0 
3.304430782937e-04 1.029541096955e-03 0.0 
1.973778917120e-05 -1.305905612958e-05 0.0 
8.743792177039e-05 -2.472366903435e-05 0.0 
3.550819108353e-05 -1.918222994155e-05 0.0 
1.122909328153e-05 -6.390718372650e-06 0.0 
1.163384890425e-05 4.509042379099e-04 0.0 
8.152391138456e-05 -3.323884695921e-05 0.0 
7.775955511833e-05 4.023147052843e-06 0.0 
2.192876076167e-04 4.218019971964e-05 0.0 
1.761283101191e-05 -1.143583950170e-05 0.0 
1.494923795487e-05 -1.136732460836e-05 0.0 
9.369013112627e-05 -3.276118340082e-05 0.0 
2.911114635711e-05 -4.744399164771e-05 0.0 
1.061790346384e-05 -4.885195039498e-07 0.0 
1.290969504208e-05 -9.854737707512e-06 0.0 
6.456913624980e-05 9.243891153144e-07 0.0 
5.644972812219e-05 -3.857978658073e-05 0.0 
3.037857366055e-04 1.404287689151e-04 0.0 
1.088680830402e-04 2.094787042590e-04 0.0 
3.256277703285e-04 1.839137722090e-04 0.0 
1.992587606538e-05 6.744268472972e-07 0.0 
5.393984787853e-06 -2.474211531264e-05 0.0 
1.786302074915e-06 3.903698092704e-05 0.0 
4.252260366577e-07 -3.813939228386e-08 0.0 
5.598902359450e-06 1.262745815115e-03 0.0 
6.811297122517e-05 -3.370051988290e-05 0.0 
2.424568108757e-04 5.816312275277e-05 0.0 
1.031854496561e-04 -2.884693205749e-05 0.0 
1.884946480328e-05 -4.278906034855e-05 0.0 
2.651867146251e-08 1.530339558754e-05 0.0 
5.060677666968e-05 3.222654341183e-04 0.0 
3.767968444950e-04 5.440929330960e-04 0.0 
2.925987348594e-04 1.164506499620e-03 0.0 
3.790604462441e-05 1.114793628513e-05 0.0 
2.115036718508e-06 -3.465660212728e-05 0.0 
3.309478059864e-05 8.763824328036e-06 0.0 
3.684244542261e-04 5.804206186099e-04 0.0 
5.599408084964e-05 -3.304525926523e-05 0.0 
2.395808174378e-04 5.321832543200e-05 0.0 
6.427563565281e-05 -3.547728677322e-05 0.0 
2.713638841209e-05 4.761069149977e-05 0.0 
5.668906397613e-05 -3.687348156977e-05 0.0 
3.596670205120e-04 3.857979433652e-04 0.0 
5.907793757871e-06 -2.654901117029e-06 0.0 
7.679959171899e-05 -3.522383226537e-05 0.0 
3.073350001255e-04 1.598852689395e-04 0.0 
9.324059269899e-06 -2.908140014124e-05 0.0 
9.057782160633e-05 -3.323790983016e-05 0.0 
3.207242029786e-04 4.318742643112e-04 0.0 
4.619921249600e-05 -3.572020222902e-05 0.0 
4.942805293567e-05 -3.961440126656e-05 0.0 
2.272968835514e-04 4.243314943665e-05 0.0 
4.124063692619e-05 -4.464459081596e-05 0.0 
1.943558444697e-05 2.103941898843e-04 0.0 
3.315293713890e-05 2.665623728487e-04 0.0 
4.326729323439e-05 -3.875904855494e-05 0.0 
8.724509577362e-05 -1.996975625952e-05 0.0 
1.853710323186e-04 1.006694247529e-05 0.0 
2.972159975609e-04 1.404309214538e-04 0.0 
1.933365065940e-04 1.479740353432e-04 0.0 
5.599065121144e-05 3.911057506202e-04 0.0 
1.646105184412e-05 7.297653465559e-04 0.0 
1.639624317432e-04 7.259046485626e-05 0.0 
9.530658184126e-05 -3.105149467284e-05 0.0 
7.944850598501e-06 3.451132498994e-05 0.0 
1.396724746310e-04 2.255945869659e-04 0.0 
7.965314280586e-05 -2.284468209325e-05 0.0 
3.321718932939e-04 2.282007934825e-04 0.0 
8.494183254892e-05 -2.256780626618e-05 0.0 
2.545105270829e-05 -8.633103552411e-06 0.0 
8.462343875816e-05 -1.509834696085e-05 0.0 
3.393753825099e-05 6.667156341923e-05 0.0 
1.755651770687e-04 3.840273933710e-06 0.0 
8.355913574145e-05 -1.775962308312e-05 0.0 
2.186551529089e-04 3.796775304690e-05 0.0 
6.048702452315e-05 9.108879910257e-04 0.0 
4.028628475501e-05 -3.823177832287e-05 0.0 
1.817191708113e-05 1.936978119344e-05 0.0 
7.975153784208e-05 -1.292598761894e-05 0.0 
4.316479111267e-05 9.092114668708e-05 0.0 
1.423815060527e-05 -2.483118666117e-05 0.0 
4.414444263286e-06 2.943476569839e-04 0.0 
5.843428041375e-06 4.401225189361e-04 0.0 
2.466601213546e-05 -4.800349071169e-05 0.0 
7.943379628669e-05 -1.032949933664e-05 0.0 
3.200174060109e-05 -4.116468384811e-05 0.0 
3.212265884006e-05 -3.969531641682e-05 0.0 
2.719393686671e-04 1.336165871227e-04 0.0 
2.073524866427e-04 2.976636295656e-05 0.0 
2.769999258789e-04 1.214918197602e-04 0.0 
8.582975626179e-05 -3.413601174885e-05 0.0 
9.693315273423e-05 1.459294092897e-03 0.0 
1.366193524451e-05 3.562499416987e-07 0.0 
2.961819755166e-05 -4.192093368253e-05 0.0 
8.959668388503e-05 3.558761863401e-06 0.0 
1.929993496713e-04 1.502954859839e-05 0.0 
7.828986601160e-06 -3.736419228973e-05 0.0 
3.563015863853e-04 2.929622689309e-04 0.0 
1.018563721435e-04 -2.969562028417e-05 0.0 
2.831071083134e-05 -4.765312728690e-05 0.0 
8.281392925865e-05 -3.607814390448e-05 0.0 
1.185831552909e-06 -8.137262692917e-06 0.0 
3.606928043314e-04 3.547232031425e-04 0.0 
3.155056515815e-05 -4.621245615834e-05 0.0 
4.912600795825e-06 -1.633735057639e-05 0.0 
3.035603221196e-04 1.755963609852e-04 0.0 
1.502966623058e-04 2.261214701349e-05 0.0 
4.966551828552e-05 -3.796475312447e-05 0.0 
4.463211475629e-06 -3.241781937037e-05 0.0 
1.888615814318e-04 1.334394258381e-05 0.0 
4.479037043193e-06 9.593231174948e-04 0.0 
2.839214107778e-05 -4.684873357776e-05 0.0 
1.119152489754e-04 4.333808182302e-05 0.0 
1.182800918849e-04 1.048940528141e-04 0.0 
1.975678764279e-05 1.163660408336e-03 0.0 
8.957098750655e-05 2.082639278174e-04 0.0 
1.145418414769e-04 7.733189481240e-05 0.0 
8.632719833389e-05 -3.273064662242e-05 0.0 
7.248857841141e-05 -3.546297908673e-05 0.0 
4.400674743003e-05 5.417476441419e-06 0.0 
5.502424953410e-06 -2.067524302117e-05 0.0 
1.064667236162e-06 -3.358619743601e-05 0.0 
3.607253975039e-06 -1.512007751708e-05 0.0 
4.640183342042e-05 -3.753399770345e-05 0.0 
7.098990111892e-05 -3.837141553803e-05 0.0 
5.953114241725e-06 1.311364966269e-04 0.0 
1.126644042614e-05 1.650355124090e-04 0.0 
1.786219618940e-04 1.171127138561e-03 0.0 
8.911937433049e-05 -3.416462649539e-05 0.0 
1.169947103119e-05 -3.241427445171e-05 0.0 
1.864945966444e-04 3.620647258047e-05 0.0 
4.488690446480e-06 1.258143821683e-07 0.0 
5.962716651305e-06 2.007785410965e-07 0.0 
7.243550467441e-05 -3.370073352603e-05 0.0 
2.195013201874e-04 1.231893990036e-03 0.0 
1.327212923418e-05 -3.024845688191e-05 0.0 
2.708205798382e-06 7.670682044481e-05 0.0 
3.857007013101e-05 -4.397101847661e-05 0.0 
4.494304881173e-06 1.010348967876e-04 0.0 
1.934638445830e-04 1.806346777474e-05 0.0 
5.996776396792e-05 -3.874350089579e-05 0.0 
7.612365448208e-05 -3.666105353584e-05 0.0 
2.486424778837e-05 -3.956125618446e-05 0.0 
1.343605247813e-05 3.979484276941e-04 0.0 
6.414895593964e-05 -3.721573175288e-05 0.0 
4.381126445893e-05 3.153264689881e-04 0.0 
3.495653478006e-05 5.289878737672e-04 0.0 
5.366120452032e-06 8.621705455738e-05 0.0 
9.565378323864e-07 -6.921821102314e-08 0.0 
1.040532137942e-05 1.180192497903e-03 0.0 
6.033377953502e-05 -3.529875090517e-05 0.0 
1.304928562469e-05 2.486734883627e-04 0.0 
5.990969439977e-05 -3.335591866543e-05 0.0 
1.676087761268e-06 2.560392168692e-08 0.0 
1.209505393891e-06 4.014498884223e-05 0.0 
1.724768598248e-06 5.670019404571e-05 0.0 
8.809742531414e-05 6.708502977017e-06 0.0 
1.629884939331e-04 1.308105613584e-03 0.0 
2.604162812055e-05 3.026415816712e-04 0.0 
2.955103546033e-04 1.561966467257e-04 0.0 
1.278548168301e-04 2.397258849305e-05 0.0 
2.964551405229e-04 2.200842422939e-04 0.0 
6.713479921793e-05 1.129340699867e-03 0.0 
4.303477600466e-05 -4.035157735037e-05 0.0 
4.593185084085e-05 -4.077617464097e-05 0.0 
2.032637486415e-05 8.032438823737e-04 0.0 
1.488172917539e-04 2.795819352848e-05 0.0 
2.590976796472e-04 1.252044638431e-03 0.0 
3.521854038395e-05 1.327432995250e-03 0.0 
4.278252732995e-05 1.197613647161e-03 0.0 
7.672839524805e-05 1.146807182348e-03 0.0 
3.443810909713e-05 -3.868122394771e-05 0.0 
3.987074974045e-05 -4.134513426333e-05 0.0 
4.009476074940e-05 1.910974627990e-04 0.0 
7.644443868642e-05 9.897397628489e-04 0.0 
4.173371612292e-05 7.771204954036e-06 0.0 
2.024181258453e-04 1.450063150057e-04 0.0 
3.510497659407e-04 2.636894050544e-04 0.0 
1.301928924525e-04 2.842608950634e-04 0.0 
1.671819302959e-05 -2.577757300205e-05 0.0 
1.639937848591e-05 -2.868067219060e-05 0.0 
2.391089450206e-05 -1.417829192617e-07 0.0 
2.044605494120e-05 -3.918116944020e-05 0.0 
5.551858361748e-06 -3.342690725724e-05 0.0 
1.743336537427e-05 4.823787608406e-06 0.0 
1.806935494107e-06 -3.836956417337e-05 0.0 
4.361641772336e-05 1.283119745859e-03 0.0 
5.412428146260e-05 3.820641497589e-06 0.0 
2.304563916722e-05 -4.624427550945e-05 0.0 
1.737984485786e-05 -4.454286207819e-05 0.0 
2.541728715065e-05 7.210731403720e-05 0.0 
1.393360194183e-04 1.411439069010e-03 0.0 
6.015988488216e-05 2.042594578418e-04 0.0 
5.734622678294e-05 6.117850463328e-06 0.0 
1.224182579281e-04 1.415812022206e-03 0.0 
9.822677274844e-06 -2.097912759519e-05 0.0 
9.275228473201e-06 1.617665285634e-04 0.0 
1.686946593926e-05 -4.103815446585e-05 0.0 
6.589761393094e-05 2.688339072594e-04 0.0 
1.298498647691e-06 5.032916710114e-09 0.0 
1.894383201190e-04 1.724012270034e-04 0.0 
4.380734228162e-05 -3.939761548327e-05 0.0 
2.572853192186e-04 1.106274575723e-03 0.0 
1.013100689766e-05 -2.508913281095e-05 0.0 
1.767677361063e-04 3.041760551330e-05 0.0 
2.237642687183e-05 4.465881377510e-06 0.0 
1.989315880774e-05 6.549808551300e-04 0.0 
2.017782743739e-05 3.586230130400e-06 0.0 
2.520306744016e-05 -3.709734130698e-05 0.0 
7.990613193198e-06 -2.087749490763e-07 0.0 
4.721144429135e-05 -4.254602535020e-05 0.0 
8.308901133532e-06 -3.901611969404e-05 0.0 
2.862361884338e-05 2.193633085688e-06 0.0 
1.061421585590e-04 1.584208643903e-04 0.0 
5.524130186196e-05 1.406341324816e-04 0.0 
9.566946183013e-05 1.308821045450e-03 0.0 
3.341123066873e-04 9.327445793711e-04 0.0 
2.970893659708e-05 3.587035072046e-05 0.0 
1.306677358542e-04 8.406033230306e-05 0.0 
8.437610965870e-06 -2.886244771072e-05 0.0 
1.780905001010e-05 1.826042724771e-06 0.0 
1.594289765653e-04 2.713899451375e-05 0.0 
7.792724620708e-05 1.461403869126e-03 0.0 
1.411541097955e-04 2.169785506753e-04 0.0 
7.528501223771e-07 8.202408260904e-05 0.0 
7.528501223771e-07 3.459407316000e-05 0.0 
1.910043609742e-06 -4.244277759214e-05 0.0 
7.916222428516e-07 -4.193291771341e-05 0.0 
4.328797637126e-06 1.408938916114e-03 0.0 
1.032640236595e-05 1.460061602139e-03 0.0 
1.645603738185e-07 -3.837345171161e-08 0.0 
1.645603738185e-07 -1.292502430309e-07 0.0 
3.435146729428e-06 -4.136129999473e-05 0.0 
1.319111545515e-05 -3.564813135431e-05 0.0 
7.893618437357e-06 -9.529576231427e-07 0.0 
1.395335910820e-04 3.909041612723e-05 0.0 
1.461297160635e-05 -3.948841582975e-05 0.0 
1.357960387514e-05 -5.518198225756e-07 0.0 
2.106310798177e-06 -1.253940281811e-05 0.0 
2.269672817668e-06 -1.844864928068e-05 0.0 
5.249319909836e-05 9.321715304212e-04 0.0 
3.627583755072e-05 -4.612785277053e-05 0.0 
1.961541635975e-04 3.073825524237e-05 0.0 
1.552341576896e-05 -4.126800295586e-05 0.0 
1.374853639158e-05 -2.209211785659e-05 0.0 
1.720769481205e-04 1.133026035849e-04 0.0 
2.532530611652e-06 3.641412556400e-04 0.0 
4.363456188044e-06 -1.812337107592e-05 0.0 
3.302841820509e-05 1.081829822632e-03 0.0 
1.582639372014e-04 5.796100020308e-05 0.0 
2.676980531435e-04 1.701050499927e-04 0.0 
3.157196099942e-04 2.172014816570e-04 0.0 
1.061428495041e-04 1.411892119481e-03 0.0 
1.869580880795e-04 2.072382506224e-05 0.0 
1.678342412037e-04 2.026118688715e-04 0.0 
7.916981849585e-06 -3.336825966277e-05 0.0 
2.384611746203e-05 -4.792091368626e-05 0.0 
1.872736143799e-04 7.072128765969e-05 0.0 
9.513187350212e-05 5.085017982349e-06 0.0 
3.334622684057e-05 -4.612206434201e-05 0.0 
2.804217057257e-05 8.192093833759e-04 0.0 
4.290185655897e-06 -2.651475324085e-07 0.0 
1.718925262448e-04 5.416021395244e-05 0.0 
1.477057238287e-04 4.761670471340e-05 0.0 
2.503705801496e-06 -9.708969114550e-06 0.0 
7.113787966114e-06 -6.956288660439e-06 0.0 
5.749100206339e-07 1.543929477101e-04 0.0 
4.589305355412e-05 7.281411508458e-05 0.0 
2.767150031908e-04 1.041383323790e-03 0.0 
1.974499060414e-04 2.696798186683e-05 0.0 
5.098234787332e-05 2.619574123433e-04 0.0 
3.930271610837e-05 5.589363364629e-06 0.0 
2.708404341002e-05 -4.737773209732e-05 0.0 
2.594984805089e-05 -4.781208373779e-05 0.0 
-1.269197553816e-06 9.226057062794e-05 0.0 
4.676339294990e-05 7.512980702887e-04 0.0 
1.306740895058e-05 -3.117695630552e-05 0.0 
1.217209028829e-04 2.235545437940e-04 0.0 
8.867366046020e-06 -3.828403979923e-05 0.0 
6.825916596595e-05 8.067263029482e-06 0.0 
1.661593786978e-04 1.164114146333e-03 0.0 
6.013630145084e-05 1.393873201904e-05 0.0 
1.771337318037e-04 3.736186807127e-05 0.0 
3.050780945709e-04 9.965729396849e-04 0.0 
2.228518240011e-05 1.084026855679e-06 0.0 
9.462159499302e-05 1.616106194010e-04 0.0 
7.577323747718e-06 1.895663690170e-04 0.0 
-1.705211993656e-06 5.088219685231e-05 0.0 
1.192247770331e-04 2.821368301457e-04 0.0 
9.576436680563e-05 3.914753987321e-05 0.0 
6.778573713643e-05 6.988777387848e-06 0.0 
1.567951864542e-04 3.239220001883e-05 0.0 
2.407328343208e-06 7.112001221132e-08 0.0 
3.195319370678e-04 2.389327977091e-04 0.0 
-1.628965410537e-06 -1.105431299103e-06 0.0 
2.021228281019e-05 1.124318438179e-05 0.0 
2.404876245777e-04 1.630368797025e-04 0.0 
2.616781114799e-04 9.731253731603e-04 0.0 
4.078607275144e-06 -1.168798795248e-06 0.0 
1.416885599107e-04 3.159711051709e-05 0.0 
8.468930498073e-06 6.329961429828e-08 0.0 
4.206923660666e-05 6.008793992949e-04 0.0 
5.265486685705e-05 1.107244634695e-05 0.0 
2.719676174173e-05 4.359923946083e-07 0.0 
2.916920511538e-05 7.657183963520e-07 0.0 
9.479033778626e-06 -3.002203849898e-05 0.0 
3.757449864540e-06 8.029829164388e-08 0.0 
2.029631377418e-04 1.292605372011e-03 0.0 
3.165426478044e-05 3.064560911801e-04 0.0 
2.749932138187e-05 -4.779709556007e-05 0.0 
2.004152452793e-05 4.269424598499e-04 0.0 
4.238277824909e-05 8.119160764952e-04 0.0 
1.721865932503e-06 -3.985600807491e-05 0.0 
3.924723461853e-05 -3.775737658956e-05 0.0 
2.912133017285e-04 1.848307164567e-04 0.0 
4.412233444002e-05 1.543435801949e-04 0.0 
1.591436336782e-05 2.928138483381e-04 0.0 
6.606643278815e-05 1.265764055270e-05 0.0 
8.200562328915e-05 1.068612118599e-03 0.0 
2.149515515744e-05 -4.652574748936e-05 0.0 
1.609899136182e-05 -1.843550637710e-05 0.0 
2.110913511011e-05 -4.585104326054e-05 0.0 
2.824303273096e-05 -4.721635722755e-05 0.0 
-3.942590725869e-06 4.148389968230e-06 0.0 
1.238443773200e-05 -2.311036538097e-05 0.0 
5.138896967231e-06 -1.154388128756e-06 0.0 
1.899345302401e-04 1.869199884488e-04 0.0 
3.319563050049e-04 8.753442174968e-04 0.0 
1.803355995697e-05 -2.747097104818e-05 0.0 
2.297658190383e-05 -4.496865650781e-07 0.0 
4.933885934433e-05 2.509672522536e-06 0.0 
7.481859869755e-05 1.800436966948e-05 0.0 
1.450806650664e-04 5.649728524967e-05 0.0 
2.383318958764e-04 1.408396786742e-04 0.0 
2.636972470783e-05 -4.747014414571e-05 0.0 
2.099098021673e-05 -3.444124430262e-05 0.0 
7.229252093513e-06 -1.092048105118e-06 0.0 
3.365238147923e-06 -3.965311512548e-05 0.0 
7.330249960013e-07 -3.912282310931e-05 0.0 
4.945096852394e-06 1.065059826402e-05 0.0 
2.206330905842e-05 -4.564761480076e-05 0.0 
1.653013877576e-05 9.021119571194e-07 0.0 
1.028044033105e-04 5.369593003609e-05 0.0 
4.542871714077e-05 2.619684423866e-04 0.0 
6.191451244054e-05 1.604559501611e-05 0.0 
5.959704345627e-05 2.215030855099e-06 0.0 
6.747280153936e-05 9.852503920211e-04 0.0 
1.164209625318e-05 2.989779355582e-05 0.0 
4.591973983848e-05 -4.388830570025e-05 0.0 
1.293539703403e-04 1.461664318794e-03 0.0 
3.100793229885e-05 -4.678899182832e-05 0.0 
1.627943152976e-05 -4.375664754938e-05 0.0 
2.499034591329e-06 -1.563616344785e-08 0.0 
2.798900012930e-04 1.164732234953e-03 0.0 
9.661168794949e-06 -3.975292006753e-05 0.0 
8.748410152914e-06 -2.359351171202e-05 0.0 
1.224283355748e-04 6.903743756042e-05 0.0 
7.402633322613e-05 2.750232915250e-04 0.0 
8.974996471509e-05 1.202037023599e-04 0.0 
5.781133693127e-06 -3.121601231957e-05 0.0 
1.829930139744e-05 -2.352684660901e-05 0.0 
1.138163909811e-05 -5.786750516913e-08 0.0 
2.539152197292e-06 7.363105408704e-05 0.0 
5.897864104762e-07 -7.651284399547e-08 0.0 
9.927699996576e-06 1.327463816483e-03 0.0 
4.511080708662e-05 3.267648162881e-06 0.0 
1.120215057144e-05 -3.958909299742e-05 0.0 
1.138995147130e-04 2.279212221342e-04 0.0 
1.836114042119e-05 -4.469514089059e-05 0.0 
2.111564109398e-05 1.757083314584e-06 0.0 
1.174233181660e-04 1.528734224798e-04 0.0 
1.071649295764e-05 -1.661828035327e-05 0.0 
1.660180511658e-04 4.794207679260e-05 0.0 
4.097185289220e-05 6.725761769354e-04 0.0 
2.866799760010e-05 1.480643086081e-04 0.0 
8.721820799815e-06 1.649179867800e-06 0.0 
1.643620777657e-05 8.798006328618e-04 0.0 
1.030465009416e-04 6.092992463623e-05 0.0 
1.495219558290e-04 2.118529968505e-04 0.0 
3.337341414762e-05 7.730345024821e-04 0.0 
1.597138509480e-04 9.272848018780e-05 0.0 
9.980632793850e-06 -2.772966493674e-05 0.0 
6.907660862403e-05 1.417372270776e-03 0.0 
1.073241168582e-04 2.751896703802e-05 0.0 
2.634763774011e-06 1.570039966930e-04 0.0 
3.564727159817e-06 -4.213805896481e-05 0.0 
1.921138891361e-05 1.416928748869e-03 0.0 
5.347644373235e-07 -3.106921582692e-07 0.0 
1.642261246641e-05 -3.991436774255e-05 0.0 
6.057841681762e-05 5.276088571989e-06 0.0 
1.786463443872e-04 2.025742399940e-04 0.0 
3.325297999678e-05 1.927362807711e-04 0.0 
1.074599910889e-05 -3.863334332300e-05 0.0 
1.539426373879e-05 -1.065077840319e-06 0.0 
9.188084074958e-07 -1.689474088035e-05 0.0 
1.668771933504e-05 5.216578093717e-04 0.0 
9.449151114602e-06 -3.220506435352e-05 0.0 
7.117416122999e-05 1.274453234405e-04 0.0 
2.948001167577e-05 9.085643574664e-04 0.0 
3.542285455418e-05 -4.669805310450e-05 0.0 
5.434880364610e-05 1.017074181946e-03 0.0 
8.317100569433e-05 2.238940308602e-05 0.0 
1.707244957086e-06 -1.535218961628e-05 0.0 
-1.157589251844e-06 6.633827017772e-06 0.0 
1.189417296835e-05 -2.992787980912e-05 0.0 
1.225827676472e-05 -2.039852058413e-05 0.0 
7.884365495906e-07 -1.384417977704e-05 0.0 
8.814245487407e-05 1.660377506971e-05 0.0 
6.380081089554e-06 -2.063536732180e-05 0.0 
8.077551082262e-06 -1.875556679632e-05 0.0 
1.983763423935e-05 -4.461206796609e-05 0.0 
1.473305123418e-05 -4.719471642462e-07 0.0 
1.946578849342e-04 7.952043157431e-05 0.0 
2.460978909370e-05 -2.643727059296e-06 0.0 
4.421065848926e-06 1.486109681710e-04 0.0 
9.599904739812e-07 -2.579547592338e-07 0.0 
1.881268654424e-05 1.335337441732e-03 0.0 
2.208895893173e-05 9.412906647622e-04 0.0 
8.810866879678e-06 -2.111275766732e-05 0.0 
9.765417912183e-06 -2.007802499792e-05 0.0 
5.930849923034e-06 -1.909222121923e-05 0.0 
7.714447950986e-05 6.453471289970e-06 0.0 
3.235112329511e-05 -4.707491151662e-05 0.0 
1.684785761368e-04 6.990324165328e-05 0.0 
3.485112970625e-05 1.166518561078e-03 0.0 
8.553919377308e-05 1.689075273226e-04 0.0 
7.234179893115e-05 5.294371484744e-06 0.0 
6.344039011197e-05 1.046656265291e-03 0.0 
2.143921501585e-04 1.356113962081e-04 0.0 
9.093090597905e-05 1.858501008810e-05 0.0 
6.933771241632e-05 1.503830709902e-05 0.0 
2.640426509911e-06 2.882341235246e-06 0.0 
2.136659331781e-04 1.269364049649e-04 0.0 
1.811560647076e-04 1.019206940438e-04 0.0 
1.866356114849e-05 -4.419650365627e-05 0.0 
9.939627072634e-06 -2.245150077790e-05 0.0 
2.905418975440e-06 -2.087001696785e-06 0.0 
1.817412285812e-04 1.138632385454e-04 0.0 
2.639149704905e-05 1.702773403650e-03 0.0 
3.335161967125e-05 1.753618317192e-03 0.0 
4.274795787005e-05 1.702036207761e-03 0.0 
4.925092017960e-05 1.752551364266e-03 0.0 
5.924038342482e-05 1.701645268814e-03 0.0 
6.588838917888e-05 1.752429379644e-03 0.0 
7.570048667650e-05 1.701754622833e-03 0.0 
8.247904576033e-05 1.752502854651e-03 0.0 
9.167970452105e-05 1.701651147342e-03 0.0 
9.827989886313e-05 1.752094883945e-03 0.0 
1.066872574494e-04 1.700891419411e-03 0.0 
1.127023407219e-04 1.750728416733e-03 0.0 
1.203240636741e-04 1.698810686231e-03 0.0 
1.431836998423e-04 1.333341437100e-03 0.0 
1.252060237879e-04 1.747535110599e-03 0.0 
1.321814438394e-04 1.694446092609e-03 0.0 
8.910084497106e-05 1.358831571973e-03 0.0 
1.354738060516e-04 1.741589814025e-03 0.0 
1.421032213306e-04 1.687002550270e-03 0.0 
1.611842774661e-04 1.356799419670e-03 0.0 
1.430564132237e-04 1.732131409663e-03 0.0 
1.496254296237e-04 1.675421842148e-03 0.0 
1.472429631951e-04 1.717611242753e-03 0.0 
1.544654750304e-04 1.657649750512e-03 0.0 
1.476955476293e-04 1.695718822816e-03 0.0 
1.795396396032e-04 1.232024986613e-03 0.0 
1.567668091915e-04 1.631266920499e-03 0.0 
1.444152945258e-04 1.663852408803e-03 0.0 
1.377340495610e-04 1.618445993653e-03 0.0 
1.569638671422e-04 1.593283834341e-03 0.0 
1.289736337386e-04 1.555345900207e-03 0.0 
1.561335774310e-04 1.539668161612e-03 0.0 
1.200049607141e-04 1.466946188059e-03 0.0 
1.560262086897e-04 1.465027576929e-03 0.0 
1.254567847319e-04 1.257515121486e-03 0.0 
3.583554842397e-06 1.728019806842e-03 0.0 
1.791443215611e-05 1.728120650927e-03 0.0 
1.180964863616e-05 1.779795242974e-03 0.0 
9.688338362345e-06 1.676345214795e-03 0.0 
1.279530296817e-04 1.168583919208e-03 0.0 
2.416300798411e-05 1.600068748978e-03 0.0 
3.006672292465e-05 1.549099288887e-03 0.0 
4.169155018839e-05 1.600221834128e-03 0.0 
4.747805670489e-05 1.549161646446e-03 0.0 
5.852392763177e-05 1.600069924627e-03 0.0 
6.447679127318e-05 1.549282365919e-03 0.0 
7.500534456385e-05 1.600182953294e-03 0.0 
8.115281400177e-05 1.549491415920e-03 0.0 
9.104861487514e-05 1.600211378150e-03 0.0 
9.739404338386e-05 1.549439509119e-03 0.0 
1.064324916160e-04 1.599675813776e-03 0.0 
1.131021014132e-04 1.548575652389e-03 0.0 
2.206157165945e-04 1.354434938068e-03 0.0 
1.209785901987e-04 1.597873527521e-03 0.0 
2.246159632491e-04 1.356302995912e-03 0.0 
1.280855511486e-04 1.546087546036e-03 0.0 
1.344064446755e-04 1.593935686755e-03 0.0 
1.422711760385e-04 1.541094394462e-03 0.0 
1.466755904814e-04 1.587017536560e-03 0.0 
1.556951289283e-04 1.532608240334e-03 0.0 
1.576917761775e-04 1.575883686529e-03 0.0 
1.684306558989e-04 1.518935002419e-03 0.0 
1.988284291512e-04 1.388688073142e-03 0.0 
1.675868211803e-04 1.558511665797e-03 0.0 
1.808099336482e-04 1.497795344515e-03 0.0 
1.767598490605e-04 1.532481526912e-03 0.0 
1.934737694851e-04 1.466387426097e-03 0.0 
2.074689887365e-04 1.420877972041e-03 0.0 
1.860293022325e-04 1.494604245221e-03 0.0 
1.968030815163e-04 1.440779729119e-03 0.0 
2.413624099729e-04 1.289841303553e-03 0.0 
2.195751225296e-04 1.324094438627e-03 0.0 
2.961367564156e-06 1.573855249749e-03 0.0 
1.506375581293e-05 1.574221745273e-03 0.0 
8.958972292982e-06 1.522926031209e-03 0.0 
9.066151084104e-06 1.625150963813e-03 0.0 
2.179522188202e-04 1.290287174025e-03 0.0 

VECTORS element_materi_displacement float
0.0 0.0 0.0 
0.0 0.0 0.0 
0.0 0.0 0.0 
0.0 0.0 0.0 
0.0 0.0 0.0 
0.0 0.0 0.0 
0.0 0.0 0.0 
0.0 0.0 0.0 
0.0 0.0 0.0 
0.0 0.0 0.0 
0.0 0.0 0.0 
0.0 0.0 0.0 
0.0 0.0 0.0 
0.0 0.0 0.0 
0.0 0.0 0.0 
0.0 0.0 0.0 
0.0 0.0 0.0 
0.0 0.0 0.0 
0.0 0.0 0.0 
0.0 0.0 0.0 
0.0 0.0 0.0 
0.0 0.0 0.0 
0.0 0.0 0.0 
0.0 0.0 0.0 
0.0 0.0 0.0 
0.0 0.0 0.0 
0.0 0.0 0.0 
0.0 0.0 0.0 
0.0 0.0 0.0 
0.0 0.0 0.0 
0.0 0.0 0.0 
0.0 0.0 0.0 
0.0 0.0 0.0 
0.0 0.0 0.0 
0.0 0.0 0.0 
0.0 0.0 0.0 
0.0 0.0 0.0 
0.0 0.0 0.0 
0.0 0.0 0.0 
0.0 0.0 0.0 
0.0 0.0 0.0 
0.0 0.0 0.0 
0.0 0.0 0.0 
0.0 0.0 0.0 
0.0 0.0 0.0 
0.0 0.0 0.0 
0.0 0.0 0.0 
0.0 0.0 0.0 
0.0 0.0 0.0 
0.0 0.0 0.0 
0.0 0.0 0.0 
0.0 0.0 0.0 
0.0 0.0 0.0 
0.0 0.0 0.0 
0.0 0.0 0.0 
0.0 0.0 0.0 
0.0 0.0 0.0 
0.0 0.0 0.0 
0.0 0.0 0.0 
0.0 0.0 0.0 
0.0 0.0 0.0 
0.0 0.0 0.0 
0.0 0.0 0.0 
0.0 0.0 0.0 
0.0 0.0 0.0 
0.0 0.0 0.0 
0.0 0.0 0.0 
0.0 0.0 0.0 
0.0 0.0 0.0 
0.0 0.0 0.0 
0.0 0.0 0.0 
0.0 0.0 0.0 
0.0 0.0 0.0 
0.0 0.0 0.0 
0.0 0.0 0.0 
0.0 0.0 0.0 
0.0 0.0 0.0 
0.0 0.0 0.0 
0.0 0.0 0.0 
0.0 0.0 0.0 
0.0 0.0 0.0 
0.0 0.0 0.0 
0.0 0.0 0.0 
0.0 0.0 0.0 
0.0 0.0 0.0 
0.0 0.0 0.0 
0.0 0.0 0.0 
0.0 0.0 0.0 
0.0 0.0 0.0 
0.0 0.0 0.0 
0.0 0.0 0.0 
0.0 0.0 0.0 
0.0 0.0 0.0 
0.0 0.0 0.0 
0.0 0.0 0.0 
0.0 0.0 0.0 
0.0 0.0 0.0 
0.0 0.0 0.0 
0.0 0.0 0.0 
0.0 0.0 0.0 
0.0 0.0 0.0 
0.0 0.0 0.0 
0.0 0.0 0.0 
0.0 0.0 0.0 
0.0 0.0 0.0 
0.0 0.0 0.0 
0.0 0.0 0.0 
0.0 0.0 0.0 
0.0 0.0 0.0 
0.0 0.0 0.0 
0.0 0.0 0.0 
0.0 0.0 0.0 
0.0 0.0 0.0 
0.0 0.0 0.0 
0.0 0.0 0.0 
0.0 0.0 0.0 
0.0 0.0 0.0 
0.0 0.0 0.0 
0.0 0.0 0.0 
0.0 0.0 0.0 
0.0 0.0 0.0 
0.0 0.0 0.0 
0.0 0.0 0.0 
0.0 0.0 0.0 
0.0 0.0 0.0 
0.0 0.0 0.0 
0.0 0.0 0.0 
0.0 0.0 0.0 
0.0 0.0 0.0 
0.0 0.0 0.0 
0.0 0.0 0.0 
0.0 0.0 0.0 
0.0 0.0 0.0 
0.0 0.0 0.0 
0.0 0.0 0.0 
0.0 0.0 0.0 
0.0 0.0 0.0 
0.0 0.0 0.0 
0.0 0.0 0.0 
0.0 0.0 0.0 
0.0 0.0 0.0 
0.0 0.0 0.0 
0.0 0.0 0.0 
0.0 0.0 0.0 
0.0 0.0 0.0 
0.0 0.0 0.0 
0.0 0.0 0.0 
0.0 0.0 0.0 
0.0 0.0 0.0 
0.0 0.0 0.0 
0.0 0.0 0.0 
0.0 0.0 0.0 
0.0 0.0 0.0 
0.0 0.0 0.0 
0.0 0.0 0.0 
0.0 0.0 0.0 
0.0 0.0 0.0 
0.0 0.0 0.0 
0.0 0.0 0.0 
0.0 0.0 0.0 
0.0 0.0 0.0 
0.0 0.0 0.0 
0.0 0.0 0.0 
0.0 0.0 0.0 
0.0 0.0 0.0 
0.0 0.0 0.0 
0.0 0.0 0.0 
0.0 0.0 0.0 
0.0 0.0 0.0 
0.0 0.0 0.0 
0.0 0.0 0.0 
0.0 0.0 0.0 
0.0 0.0 0.0 
0.0 0.0 0.0 
0.0 0.0 0.0 
0.0 0.0 0.0 
0.0 0.0 0.0 
0.0 0.0 0.0 
0.0 0.0 0.0 
0.0 0.0 0.0 
0.0 0.0 0.0 
0.0 0.0 0.0 
0.0 0.0 0.0 
0.0 0.0 0.0 
0.0 0.0 0.0 
0.0 0.0 0.0 
0.0 0.0 0.0 
0.0 0.0 0.0 
0.0 0.0 0.0 
0.0 0.0 0.0 
0.0 0.0 0.0 
0.0 0.0 0.0 
0.0 0.0 0.0 
0.0 0.0 0.0 
0.0 0.0 0.0 
0.0 0.0 0.0 
0.0 0.0 0.0 
0.0 0.0 0.0 
0.0 0.0 0.0 
0.0 0.0 0.0 
0.0 0.0 0.0 
0.0 0.0 0.0 
0.0 0.0 0.0 
0.0 0.0 0.0 
0.0 0.0 0.0 
0.0 0.0 0.0 
0.0 0.0 0.0 
0.0 0.0 0.0 
0.0 0.0 0.0 
0.0 0.0 0.0 
0.0 0.0 0.0 
0.0 0.0 0.0 
0.0 0.0 0.0 
0.0 0.0 0.0 
0.0 0.0 0.0 
0.0 0.0 0.0 
0.0 0.0 0.0 
0.0 0.0 0.0 
0.0 0.0 0.0 
0.0 0.0 0.0 
0.0 0.0 0.0 
0.0 0.0 0.0 
0.0 0.0 0.0 
0.0 0.0 0.0 
0.0 0.0 0.0 
0.0 0.0 0.0 
0.0 0.0 0.0 
0.0 0.0 0.0 
0.0 0.0 0.0 
0.0 0.0 0.0 
0.0 0.0 0.0 
0.0 0.0 0.0 
0.0 0.0 0.0 
0.0 0.0 0.0 
0.0 0.0 0.0 
0.0 0.0 0.0 
0.0 0.0 0.0 
0.0 0.0 0.0 
0.0 0.0 0.0 
0.0 0.0 0.0 
0.0 0.0 0.0 
0.0 0.0 0.0 
0.0 0.0 0.0 
0.0 0.0 0.0 
0.0 0.0 0.0 
0.0 0.0 0.0 
0.0 0.0 0.0 
0.0 0.0 0.0 
0.0 0.0 0.0 
0.0 0.0 0.0 
0.0 0.0 0.0 
0.0 0.0 0.0 
0.0 0.0 0.0 
0.0 0.0 0.0 
0.0 0.0 0.0 
0.0 0.0 0.0 
0.0 0.0 0.0 
0.0 0.0 0.0 
0.0 0.0 0.0 
0.0 0.0 0.0 
0.0 0.0 0.0 
0.0 0.0 0.0 
0.0 0.0 0.0 
0.0 0.0 0.0 
0.0 0.0 0.0 
0.0 0.0 0.0 
0.0 0.0 0.0 
0.0 0.0 0.0 
0.0 0.0 0.0 
0.0 0.0 0.0 
0.0 0.0 0.0 
0.0 0.0 0.0 
0.0 0.0 0.0 
0.0 0.0 0.0 
0.0 0.0 0.0 
0.0 0.0 0.0 
0.0 0.0 0.0 
0.0 0.0 0.0 
0.0 0.0 0.0 
0.0 0.0 0.0 
0.0 0.0 0.0 
0.0 0.0 0.0 
0.0 0.0 0.0 
0.0 0.0 0.0 
0.0 0.0 0.0 
0.0 0.0 0.0 
0.0 0.0 0.0 
0.0 0.0 0.0 
0.0 0.0 0.0 
0.0 0.0 0.0 
0.0 0.0 0.0 
0.0 0.0 0.0 
0.0 0.0 0.0 
0.0 0.0 0.0 
0.0 0.0 0.0 
0.0 0.0 0.0 
0.0 0.0 0.0 
0.0 0.0 0.0 
0.0 0.0 0.0 
0.0 0.0 0.0 
0.0 0.0 0.0 
0.0 0.0 0.0 
0.0 0.0 0.0 
0.0 0.0 0.0 
0.0 0.0 0.0 
0.0 0.0 0.0 
0.0 0.0 0.0 
0.0 0.0 0.0 
0.0 0.0 0.0 
0.0 0.0 0.0 
0.0 0.0 0.0 
0.0 0.0 0.0 
0.0 0.0 0.0 
0.0 0.0 0.0 
0.0 0.0 0.0 
0.0 0.0 0.0 
0.0 0.0 0.0 
0.0 0.0 0.0 
0.0 0.0 0.0 
0.0 0.0 0.0 
0.0 0.0 0.0 
0.0 0.0 0.0 
0.0 0.0 0.0 
0.0 0.0 0.0 
0.0 0.0 0.0 
0.0 0.0 0.0 
0.0 0.0 0.0 
0.0 0.0 0.0 
0.0 0.0 0.0 
0.0 0.0 0.0 
0.0 0.0 0.0 
0.0 0.0 0.0 
0.0 0.0 0.0 
0.0 0.0 0.0 
0.0 0.0 0.0 
0.0 0.0 0.0 
0.0 0.0 0.0 
0.0 0.0 0.0 
0.0 0.0 0.0 
0.0 0.0 0.0 
0.0 0.0 0.0 
0.0 0.0 0.0 
0.0 0.0 0.0 
0.0 0.0 0.0 
0.0 0.0 0.0 
0.0 0.0 0.0 
0.0 0.0 0.0 
0.0 0.0 0.0 
0.0 0.0 0.0 
0.0 0.0 0.0 
0.0 0.0 0.0 
0.0 0.0 0.0 
0.0 0.0 0.0 
0.0 0.0 0.0 
0.0 0.0 0.0 
0.0 0.0 0.0 
0.0 0.0 0.0 
0.0 0.0 0.0 
0.0 0.0 0.0 
0.0 0.0 0.0 
0.0 0.0 0.0 
0.0 0.0 0.0 
0.0 0.0 0.0 
0.0 0.0 0.0 
0.0 0.0 0.0 
0.0 0.0 0.0 
0.0 0.0 0.0 
0.0 0.0 0.0 
0.0 0.0 0.0 
0.0 0.0 0.0 
0.0 0.0 0.0 
0.0 0.0 0.0 
0.0 0.0 0.0 
0.0 0.0 0.0 
0.0 0.0 0.0 
0.0 0.0 0.0 
0.0 0.0 0.0 
0.0 0.0 0.0 
0.0 0.0 0.0 
0.0 0.0 0.0 
0.0 0.0 0.0 
0.0 0.0 0.0 
0.0 0.0 0.0 
0.0 0.0 0.0 
0.0 0.0 0.0 
0.0 0.0 0.0 
0.0 0.0 0.0 
0.0 0.0 0.0 
0.0 0.0 0.0 
0.0 0.0 0.0 
0.0 0.0 0.0 
0.0 0.0 0.0 
0.0 0.0 0.0 
0.0 0.0 0.0 
0.0 0.0 0.0 
0.0 0.0 0.0 
0.0 0.0 0.0 
0.0 0.0 0.0 
0.0 0.0 0.0 
0.0 0.0 0.0 
0.0 0.0 0.0 
0.0 0.0 0.0 
0.0 0.0 0.0 
0.0 0.0 0.0 
0.0 0.0 0.0 
0.0 0.0 0.0 
0.0 0.0 0.0 
0.0 0.0 0.0 
0.0 0.0 0.0 
0.0 0.0 0.0 
0.0 0.0 0.0 
0.0 0.0 0.0 
0.0 0.0 0.0 
0.0 0.0 0.0 
0.0 0.0 0.0 
0.0 0.0 0.0 
0.0 0.0 0.0 
0.0 0.0 0.0 
0.0 0.0 0.0 
0.0 0.0 0.0 
0.0 0.0 0.0 
0.0 0.0 0.0 
0.0 0.0 0.0 
0.0 0.0 0.0 
0.0 0.0 0.0 
0.0 0.0 0.0 
0.0 0.0 0.0 
0.0 0.0 0.0 
0.0 0.0 0.0 
0.0 0.0 0.0 
0.0 0.0 0.0 
0.0 0.0 0.0 
0.0 0.0 0.0 
0.0 0.0 0.0 
0.0 0.0 0.0 
0.0 0.0 0.0 
0.0 0.0 0.0 
0.0 0.0 0.0 
0.0 0.0 0.0 
0.0 0.0 0.0 
0.0 0.0 0.0 
0.0 0.0 0.0 
0.0 0.0 0.0 
0.0 0.0 0.0 
0.0 0.0 0.0 
0.0 0.0 0.0 
0.0 0.0 0.0 
0.0 0.0 0.0 
0.0 0.0 0.0 
0.0 0.0 0.0 
0.0 0.0 0.0 
0.0 0.0 0.0 
0.0 0.0 0.0 
0.0 0.0 0.0 
0.0 0.0 0.0 
0.0 0.0 0.0 
0.0 0.0 0.0 
0.0 0.0 0.0 
0.0 0.0 0.0 
0.0 0.0 0.0 
0.0 0.0 0.0 
0.0 0.0 0.0 
0.0 0.0 0.0 
0.0 0.0 0.0 
0.0 0.0 0.0 
0.0 0.0 0.0 
0.0 0.0 0.0 
0.0 0.0 0.0 
0.0 0.0 0.0 
0.0 0.0 0.0 
0.0 0.0 0.0 
0.0 0.0 0.0 
0.0 0.0 0.0 
0.0 0.0 0.0 
0.0 0.0 0.0 
0.0 0.0 0.0 
0.0 0.0 0.0 
0.0 0.0 0.0 
0.0 0.0 0.0 
0.0 0.0 0.0 
0.0 0.0 0.0 
0.0 0.0 0.0 
0.0 0.0 0.0 
0.0 0.0 0.0 
0.0 0.0 0.0 
0.0 0.0 0.0 
0.0 0.0 0.0 
0.0 0.0 0.0 
0.0 0.0 0.0 
0.0 0.0 0.0 
0.0 0.0 0.0 
0.0 0.0 0.0 
0.0 0.0 0.0 
0.0 0.0 0.0 
0.0 0.0 0.0 
0.0 0.0 0.0 
0.0 0.0 0.0 
0.0 0.0 0.0 
0.0 0.0 0.0 
0.0 0.0 0.0 
0.0 0.0 0.0 
0.0 0.0 0.0 
0.0 0.0 0.0 
0.0 0.0 0.0 
0.0 0.0 0.0 
0.0 0.0 0.0 
0.0 0.0 0.0 
0.0 0.0 0.0 
0.0 0.0 0.0 
0.0 0.0 0.0 
0.0 0.0 0.0 
0.0 0.0 0.0 
0.0 0.0 0.0 
0.0 0.0 0.0 
0.0 0.0 0.0 
0.0 0.0 0.0 
0.0 0.0 0.0 
0.0 0.0 0.0 
0.0 0.0 0.0 
0.0 0.0 0.0 
0.0 0.0 0.0 
0.0 0.0 0.0 
0.0 0.0 0.0 
0.0 0.0 0.0 
0.0 0.0 0.0 
0.0 0.0 0.0 
0.0 0.0 0.0 
0.0 0.0 0.0 
0.0 0.0 0.0 
0.0 0.0 0.0 
0.0 0.0 0.0 
0.0 0.0 0.0 
0.0 0.0 0.0 
0.0 0.0 0.0 
0.0 0.0 0.0 
0.0 0.0 0.0 
0.0 0.0 0.0 
0.0 0.0 0.0 
0.0 0.0 0.0 
0.0 0.0 0.0 
0.0 0.0 0.0 
0.0 0.0 0.0 
0.0 0.0 0.0 
0.0 0.0 0.0 
0.0 0.0 0.0 
0.0 0.0 0.0 
0.0 0.0 0.0 
0.0 0.0 0.0 
0.0 0.0 0.0 
0.0 0.0 0.0 
0.0 0.0 0.0 
0.0 0.0 0.0 
0.0 0.0 0.0 
0.0 0.0 0.0 
0.0 0.0 0.0 
0.0 0.0 0.0 
0.0 0.0 0.0 
0.0 0.0 0.0 
0.0 0.0 0.0 
0.0 0.0 0.0 
0.0 0.0 0.0 
0.0 0.0 0.0 
0.0 0.0 0.0 
0.0 0.0 0.0 
0.0 0.0 0.0 
0.0 0.0 0.0 
0.0 0.0 0.0 
0.0 0.0 0.0 
0.0 0.0 0.0 
0.0 0.0 0.0 
0.0 0.0 0.0 
0.0 0.0 0.0 
0.0 0.0 0.0 
0.0 0.0 0.0 
0.0 0.0 0.0 
0.0 0.0 0.0 
0.0 0.0 0.0 
0.0 0.0 0.0 
0.0 0.0 0.0 
0.0 0.0 0.0 
0.0 0.0 0.0 
0.0 0.0 0.0 
0.0 0.0 0.0 
0.0 0.0 0.0 
0.0 0.0 0.0 
0.0 0.0 0.0 
0.0 0.0 0.0 
0.0 0.0 0.0 
0.0 0.0 0.0 
0.0 0.0 0.0 
0.0 0.0 0.0 
0.0 0.0 0.0 
0.0 0.0 0.0 
0.0 0.0 0.0 
0.0 0.0 0.0 
0.0 0.0 0.0 
0.0 0.0 0.0 
0.0 0.0 0.0 
0.0 0.0 0.0 
0.0 0.0 0.0 
0.0 0.0 0.0 
0.0 0.0 0.0 
0.0 0.0 0.0 
0.0 0.0 0.0 
0.0 0.0 0.0 
0.0 0.0 0.0 
0.0 0.0 0.0 
0.0 0.0 0.0 
0.0 0.0 0.0 
0.0 0.0 0.0 
0.0 0.0 0.0 
0.0 0.0 0.0 
0.0 0.0 0.0 
0.0 0.0 0.0 
0.0 0.0 0.0 
0.0 0.0 0.0 
0.0 0.0 0.0 
0.0 0.0 0.0 
0.0 0.0 0.0 
0.0 0.0 0.0 
0.0 0.0 0.0 
0.0 0.0 0.0 
0.0 0.0 0.0 
0.0 0.0 0.0 
0.0 0.0 0.0 
0.0 0.0 0.0 
0.0 0.0 0.0 
0.0 0.0 0.0 
0.0 0.0 0.0 
0.0 0.0 0.0 
0.0 0.0 0.0 
0.0 0.0 0.0 
0.0 0.0 0.0 
0.0 0.0 0.0 
0.0 0.0 0.0 
0.0 0.0 0.0 
0.0 0.0 0.0 
0.0 0.0 0.0 
0.0 0.0 0.0 
0.0 0.0 0.0 
0.0 0.0 0.0 
0.0 0.0 0.0 
0.0 0.0 0.0 
0.0 0.0 0.0 
0.0 0.0 0.0 
0.0 0.0 0.0 
0.0 0.0 0.0 
0.0 0.0 0.0 
0.0 0.0 0.0 
0.0 0.0 0.0 
0.0 0.0 0.0 
0.0 0.0 0.0 
0.0 0.0 0.0 
0.0 0.0 0.0 
0.0 0.0 0.0 
0.0 0.0 0.0 
0.0 0.0 0.0 
0.0 0.0 0.0 
0.0 0.0 0.0 
0.0 0.0 0.0 
0.0 0.0 0.0 
0.0 0.0 0.0 
0.0 0.0 0.0 
0.0 0.0 0.0 
0.0 0.0 0.0 
0.0 0.0 0.0 
0.0 0.0 0.0 
0.0 0.0 0.0 
0.0 0.0 0.0 
0.0 0.0 0.0 
0.0 0.0 0.0 
0.0 0.0 0.0 
0.0 0.0 0.0 
0.0 0.0 0.0 
0.0 0.0 0.0 
0.0 0.0 0.0 
0.0 0.0 0.0 
0.0 0.0 0.0 
0.0 0.0 0.0 
0.0 0.0 0.0 
0.0 0.0 0.0 
0.0 0.0 0.0 
0.0 0.0 0.0 
0.0 0.0 0.0 
0.0 0.0 0.0 
0.0 0.0 0.0 
0.0 0.0 0.0 
0.0 0.0 0.0 
0.0 0.0 0.0 
0.0 0.0 0.0 
0.0 0.0 0.0 
0.0 0.0 0.0 
0.0 0.0 0.0 
0.0 0.0 0.0 
0.0 0.0 0.0 
0.0 0.0 0.0 
0.0 0.0 0.0 
0.0 0.0 0.0 
0.0 0.0 0.0 
0.0 0.0 0.0 
0.0 0.0 0.0 
0.0 0.0 0.0 
0.0 0.0 0.0 
0.0 0.0 0.0 
0.0 0.0 0.0 
0.0 0.0 0.0 
0.0 0.0 0.0 
0.0 0.0 0.0 
0.0 0.0 0.0 
0.0 0.0 0.0 
0.0 0.0 0.0 
0.0 0.0 0.0 
0.0 0.0 0.0 
0.0 0.0 0.0 
0.0 0.0 0.0 
0.0 0.0 0.0 
0.0 0.0 0.0 
0.0 0.0 0.0 
0.0 0.0 0.0 
0.0 0.0 0.0 
0.0 0.0 0.0 
0.0 0.0 0.0 
0.0 0.0 0.0 
0.0 0.0 0.0 
0.0 0.0 0.0 
0.0 0.0 0.0 
0.0 0.0 0.0 
0.0 0.0 0.0 
0.0 0.0 0.0 
0.0 0.0 0.0 
0.0 0.0 0.0 
0.0 0.0 0.0 
0.0 0.0 0.0 
0.0 0.0 0.0 
0.0 0.0 0.0 
0.0 0.0 0.0 
0.0 0.0 0.0 
0.0 0.0 0.0 
0.0 0.0 0.0 
0.0 0.0 0.0 
0.0 0.0 0.0 
0.0 0.0 0.0 
0.0 0.0 0.0 
0.0 0.0 0.0 
0.0 0.0 0.0 
0.0 0.0 0.0 
0.0 0.0 0.0 
0.0 0.0 0.0 
0.0 0.0 0.0 
0.0 0.0 0.0 
0.0 0.0 0.0 
0.0 0.0 0.0 
0.0 0.0 0.0 
0.0 0.0 0.0 
0.0 0.0 0.0 
0.0 0.0 0.0 
0.0 0.0 0.0 
0.0 0.0 0.0 
0.0 0.0 0.0 
0.0 0.0 0.0 
0.0 0.0 0.0 
0.0 0.0 0.0 
0.0 0.0 0.0 
0.0 0.0 0.0 
0.0 0.0 0.0 
0.0 0.0 0.0 
0.0 0.0 0.0 
0.0 0.0 0.0 
0.0 0.0 0.0 
0.0 0.0 0.0 
0.0 0.0 0.0 
0.0 0.0 0.0 
0.0 0.0 0.0 
0.0 0.0 0.0 
0.0 0.0 0.0 
0.0 0.0 0.0 
0.0 0.0 0.0 
0.0 0.0 0.0 
0.0 0.0 0.0 
0.0 0.0 0.0 
0.0 0.0 0.0 
0.0 0.0 0.0 
0.0 0.0 0.0 
0.0 0.0 0.0 
0.0 0.0 0.0 
0.0 0.0 0.0 
0.0 0.0 0.0 
0.0 0.0 0.0 
0.0 0.0 0.0 
0.0 0.0 0.0 
0.0 0.0 0.0 
0.0 0.0 0.0 
0.0 0.0 0.0 
0.0 0.0 0.0 
0.0 0.0 0.0 
0.0 0.0 0.0 
0.0 0.0 0.0 
0.0 0.0 0.0 
0.0 0.0 0.0 
0.0 0.0 0.0 
0.0 0.0 0.0 
0.0 0.0 0.0 
0.0 0.0 0.0 
0.0 0.0 0.0 
0.0 0.0 0.0 
0.0 0.0 0.0 
0.0 0.0 0.0 
0.0 0.0 0.0 
0.0 0.0 0.0 
0.0 0.0 0.0 
0.0 0.0 0.0 
0.0 0.0 0.0 
0.0 0.0 0.0 
0.0 0.0 0.0 
0.0 0.0 0.0 
0.0 0.0 0.0 
0.0 0.0 0.0 
0.0 0.0 0.0 
0.0 0.0 0.0 
0.0 0.0 0.0 
0.0 0.0 0.0 
0.0 0.0 0.0 
0.0 0.0 0.0 
0.0 0.0 0.0 
0.0 0.0 0.0 
0.0 0.0 0.0 
0.0 0.0 0.0 
0.0 0.0 0.0 
0.0 0.0 0.0 
0.0 0.0 0.0 
0.0 0.0 0.0 
0.0 0.0 0.0 
0.0 0.0 0.0 
0.0 0.0 0.0 
0.0 0.0 0.0 
0.0 0.0 0.0 
0.0 0.0 0.0 
0.0 0.0 0.0 
0.0 0.0 0.0 
0.0 0.0 0.0 
0.0 0.0 0.0 
0.0 0.0 0.0 
0.0 0.0 0.0 
0.0 0.0 0.0 
0.0 0.0 0.0 
0.0 0.0 0.0 
0.0 0.0 0.0 
0.0 0.0 0.0 
0.0 0.0 0.0 
0.0 0.0 0.0 
0.0 0.0 0.0 
0.0 0.0 0.0 
0.0 0.0 0.0 
0.0 0.0 0.0 
0.0 0.0 0.0 
0.0 0.0 0.0 
0.0 0.0 0.0 
0.0 0.0 0.0 
0.0 0.0 0.0 
0.0 0.0 0.0 
0.0 0.0 0.0 
0.0 0.0 0.0 
0.0 0.0 0.0 
0.0 0.0 0.0 
0.0 0.0 0.0 
0.0 0.0 0.0 
0.0 0.0 0.0 
0.0 0.0 0.0 
0.0 0.0 0.0 
0.0 0.0 0.0 
0.0 0.0 0.0 
0.0 0.0 0.0 
0.0 0.0 0.0 
0.0 0.0 0.0 
0.0 0.0 0.0 
0.0 0.0 0.0 
0.0 0.0 0.0 
0.0 0.0 0.0 
0.0 0.0 0.0 
0.0 0.0 0.0 
0.0 0.0 0.0 
0.0 0.0 0.0 
0.0 0.0 0.0 
0.0 0.0 0.0 
0.0 0.0 0.0 
0.0 0.0 0.0 
0.0 0.0 0.0 
0.0 0.0 0.0 
0.0 0.0 0.0 
0.0 0.0 0.0 
0.0 0.0 0.0 
0.0 0.0 0.0 
0.0 0.0 0.0 
0.0 0.0 0.0 
0.0 0.0 0.0 
0.0 0.0 0.0 
0.0 0.0 0.0 
0.0 0.0 0.0 
0.0 0.0 0.0 
0.0 0.0 0.0 
0.0 0.0 0.0 
0.0 0.0 0.0 
0.0 0.0 0.0 
0.0 0.0 0.0 
0.0 0.0 0.0 
0.0 0.0 0.0 
0.0 0.0 0.0 
0.0 0.0 0.0 
0.0 0.0 0.0 
0.0 0.0 0.0 
0.0 0.0 0.0 
0.0 0.0 0.0 
0.0 0.0 0.0 
0.0 0.0 0.0 
0.0 0.0 0.0 
0.0 0.0 0.0 
0.0 0.0 0.0 
0.0 0.0 0.0 
0.0 0.0 0.0 
0.0 0.0 0.0 
0.0 0.0 0.0 
0.0 0.0 0.0 
0.0 0.0 0.0 
0.0 0.0 0.0 
0.0 0.0 0.0 
0.0 0.0 0.0 
0.0 0.0 0.0 
0.0 0.0 0.0 
0.0 0.0 0.0 
0.0 0.0 0.0 
0.0 0.0 0.0 
0.0 0.0 0.0 
0.0 0.0 0.0 
0.0 0.0 0.0 
0.0 0.0 0.0 
0.0 0.0 0.0 
0.0 0.0 0.0 
0.0 0.0 0.0 
0.0 0.0 0.0 
0.0 0.0 0.0 
0.0 0.0 0.0 
0.0 0.0 0.0 
0.0 0.0 0.0 
0.0 0.0 0.0 
0.0 0.0 0.0 
0.0 0.0 0.0 
0.0 0.0 0.0 
0.0 0.0 0.0 
0.0 0.0 0.0 
0.0 0.0 0.0 
0.0 0.0 0.0 
0.0 0.0 0.0 
0.0 0.0 0.0 
0.0 0.0 0.0 
0.0 0.0 0.0 
0.0 0.0 0.0 
0.0 0.0 0.0 
0.0 0.0 0.0 
0.0 0.0 0.0 
0.0 0.0 0.0 
0.0 0.0 0.0 
0.0 0.0 0.0 
0.0 0.0 0.0 
0.0 0.0 0.0 
0.0 0.0 0.0 
0.0 0.0 0.0 
0.0 0.0 0.0 
0.0 0.0 0.0 
0.0 0.0 0.0 
0.0 0.0 0.0 
0.0 0.0 0.0 
0.0 0.0 0.0 
0.0 0.0 0.0 
0.0 0.0 0.0 
0.0 0.0 0.0 
0.0 0.0 0.0 
0.0 0.0 0.0 
0.0 0.0 0.0 
0.0 0.0 0.0 
0.0 0.0 0.0 
0.0 0.0 0.0 
0.0 0.0 0.0 
0.0 0.0 0.0 
0.0 0.0 0.0 
0.0 0.0 0.0 
0.0 0.0 0.0 
0.0 0.0 0.0 
0.0 0.0 0.0 
0.0 0.0 0.0 
0.0 0.0 0.0 
0.0 0.0 0.0 
0.0 0.0 0.0 
0.0 0.0 0.0 
0.0 0.0 0.0 
0.0 0.0 0.0 
0.0 0.0 0.0 
0.0 0.0 0.0 
0.0 0.0 0.0 
0.0 0.0 0.0 
0.0 0.0 0.0 
0.0 0.0 0.0 
0.0 0.0 0.0 
0.0 0.0 0.0 
0.0 0.0 0.0 
0.0 0.0 0.0 
0.0 0.0 0.0 
0.0 0.0 0.0 
0.0 0.0 0.0 
0.0 0.0 0.0 
0.0 0.0 0.0 
0.0 0.0 0.0 
0.0 0.0 0.0 
0.0 0.0 0.0 
0.0 0.0 0.0 
0.0 0.0 0.0 
0.0 0.0 0.0 
0.0 0.0 0.0 
0.0 0.0 0.0 
0.0 0.0 0.0 
0.0 0.0 0.0 
0.0 0.0 0.0 
0.0 0.0 0.0 
0.0 0.0 0.0 
0.0 0.0 0.0 
0.0 0.0 0.0 
0.0 0.0 0.0 
0.0 0.0 0.0 
0.0 0.0 0.0 
0.0 0.0 0.0 
0.0 0.0 0.0 
0.0 0.0 0.0 
0.0 0.0 0.0 
0.0 0.0 0.0 
0.0 0.0 0.0 
0.0 0.0 0.0 
0.0 0.0 0.0 
0.0 0.0 0.0 
0.0 0.0 0.0 
0.0 0.0 0.0 
0.0 0.0 0.0 
0.0 0.0 0.0 
0.0 0.0 0.0 
0.0 0.0 0.0 
0.0 0.0 0.0 
0.0 0.0 0.0 
0.0 0.0 0.0 
0.0 0.0 0.0 
0.0 0.0 0.0 
0.0 0.0 0.0 
0.0 0.0 0.0 
0.0 0.0 0.0 
0.0 0.0 0.0 
0.0 0.0 0.0 
0.0 0.0 0.0 
0.0 0.0 0.0 
0.0 0.0 0.0 
0.0 0.0 0.0 
0.0 0.0 0.0 
0.0 0.0 0.0 
0.0 0.0 0.0 
0.0 0.0 0.0 
0.0 0.0 0.0 
0.0 0.0 0.0 
0.0 0.0 0.0 
0.0 0.0 0.0 
0.0 0.0 0.0 
0.0 0.0 0.0 
0.0 0.0 0.0 
0.0 0.0 0.0 
0.0 0.0 0.0 
0.0 0.0 0.0 
0.0 0.0 0.0 
0.0 0.0 0.0 
0.0 0.0 0.0 
0.0 0.0 0.0 
0.0 0.0 0.0 
0.0 0.0 0.0 
0.0 0.0 0.0 
0.0 0.0 0.0 
0.0 0.0 0.0 
0.0 0.0 0.0 
0.0 0.0 0.0 
0.0 0.0 0.0 
0.0 0.0 0.0 
0.0 0.0 0.0 
0.0 0.0 0.0 
0.0 0.0 0.0 
0.0 0.0 0.0 
0.0 0.0 0.0 
0.0 0.0 0.0 
0.0 0.0 0.0 
0.0 0.0 0.0 
0.0 0.0 0.0 
0.0 0.0 0.0 
0.0 0.0 0.0 
0.0 0.0 0.0 
0.0 0.0 0.0 
0.0 0.0 0.0 
0.0 0.0 0.0 
0.0 0.0 0.0 
0.0 0.0 0.0 
0.0 0.0 0.0 
0.0 0.0 0.0 
0.0 0.0 0.0 
0.0 0.0 0.0 
0.0 0.0 0.0 
0.0 0.0 0.0 
0.0 0.0 0.0 
0.0 0.0 0.0 
0.0 0.0 0.0 
0.0 0.0 0.0 
0.0 0.0 0.0 
0.0 0.0 0.0 
0.0 0.0 0.0 
0.0 0.0 0.0 
0.0 0.0 0.0 
0.0 0.0 0.0 
0.0 0.0 0.0 
0.0 0.0 0.0 
0.0 0.0 0.0 
0.0 0.0 0.0 
0.0 0.0 0.0 
0.0 0.0 0.0 
0.0 0.0 0.0 
0.0 0.0 0.0 
0.0 0.0 0.0 
0.0 0.0 0.0 
0.0 0.0 0.0 
0.0 0.0 0.0 
0.0 0.0 0.0 
0.0 0.0 0.0 
0.0 0.0 0.0 
0.0 0.0 0.0 
0.0 0.0 0.0 
0.0 0.0 0.0 
0.0 0.0 0.0 
0.0 0.0 0.0 
0.0 0.0 0.0 
0.0 0.0 0.0 
0.0 0.0 0.0 
0.0 0.0 0.0 
0.0 0.0 0.0 
0.0 0.0 0.0 
0.0 0.0 0.0 
0.0 0.0 0.0 
0.0 0.0 0.0 
0.0 0.0 0.0 
0.0 0.0 0.0 
0.0 0.0 0.0 
0.0 0.0 0.0 
0.0 0.0 0.0 
0.0 0.0 0.0 
0.0 0.0 0.0 
0.0 0.0 0.0 
0.0 0.0 0.0 
0.0 0.0 0.0 
0.0 0.0 0.0 
0.0 0.0 0.0 
0.0 0.0 0.0 
0.0 0.0 0.0 
0.0 0.0 0.0 
0.0 0.0 0.0 
0.0 0.0 0.0 
0.0 0.0 0.0 
0.0 0.0 0.0 
0.0 0.0 0.0 
0.0 0.0 0.0 
0.0 0.0 0.0 
0.0 0.0 0.0 
0.0 0.0 0.0 
0.0 0.0 0.0 
0.0 0.0 0.0 
0.0 0.0 0.0 
0.0 0.0 0.0 
0.0 0.0 0.0 
0.0 0.0 0.0 
0.0 0.0 0.0 
0.0 0.0 0.0 
0.0 0.0 0.0 
0.0 0.0 0.0 
0.0 0.0 0.0 
0.0 0.0 0.0 
0.0 0.0 0.0 
0.0 0.0 0.0 
0.0 0.0 0.0 
0.0 0.0 0.0 
0.0 0.0 0.0 
0.0 0.0 0.0 
0.0 0.0 0.0 
0.0 0.0 0.0 
0.0 0.0 0.0 
0.0 0.0 0.0 
0.0 0.0 0.0 
0.0 0.0 0.0 
0.0 0.0 0.0 
0.0 0.0 0.0 
0.0 0.0 0.0 
0.0 0.0 0.0 
0.0 0.0 0.0 
0.0 0.0 0.0 
0.0 0.0 0.0 
0.0 0.0 0.0 
0.0 0.0 0.0 
0.0 0.0 0.0 
0.0 0.0 0.0 
0.0 0.0 0.0 
0.0 0.0 0.0 
0.0 0.0 0.0 
0.0 0.0 0.0 
0.0 0.0 0.0 
0.0 0.0 0.0 
0.0 0.0 0.0 
0.0 0.0 0.0 
0.0 0.0 0.0 
0.0 0.0 0.0 
0.0 0.0 0.0 
0.0 0.0 0.0 
0.0 0.0 0.0 
0.0 0.0 0.0 
0.0 0.0 0.0 
0.0 0.0 0.0 
0.0 0.0 0.0 
0.0 0.0 0.0 
0.0 0.0 0.0 
0.0 0.0 0.0 
0.0 0.0 0.0 
0.0 0.0 0.0 
0.0 0.0 0.0 
0.0 0.0 0.0 
0.0 0.0 0.0 
0.0 0.0 0.0 
0.0 0.0 0.0 
0.0 0.0 0.0 
0.0 0.0 0.0 
0.0 0.0 0.0 
0.0 0.0 0.0 
0.0 0.0 0.0 
0.0 0.0 0.0 
0.0 0.0 0.0 
0.0 0.0 0.0 
0.0 0.0 0.0 
0.0 0.0 0.0 
0.0 0.0 0.0 
0.0 0.0 0.0 
0.0 0.0 0.0 
0.0 0.0 0.0 
0.0 0.0 0.0 
0.0 0.0 0.0 
0.0 0.0 0.0 
0.0 0.0 0.0 
0.0 0.0 0.0 
0.0 0.0 0.0 
0.0 0.0 0.0 
0.0 0.0 0.0 
0.0 0.0 0.0 
0.0 0.0 0.0 
0.0 0.0 0.0 
0.0 0.0 0.0 
0.0 0.0 0.0 
0.0 0.0 0.0 
0.0 0.0 0.0 
0.0 0.0 0.0 
0.0 0.0 0.0 
0.0 0.0 0.0 
0.0 0.0 0.0 
0.0 0.0 0.0 
0.0 0.0 0.0 
0.0 0.0 0.0 
0.0 0.0 0.0 
0.0 0.0 0.0 
0.0 0.0 0.0 
0.0 0.0 0.0 
0.0 0.0 0.0 
0.0 0.0 0.0 
0.0 0.0 0.0 
0.0 0.0 0.0 
0.0 0.0 0.0 
0.0 0.0 0.0 
0.0 0.0 0.0 
0.0 0.0 0.0 
0.0 0.0 0.0 
0.0 0.0 0.0 
0.0 0.0 0.0 
0.0 0.0 0.0 
0.0 0.0 0.0 
0.0 0.0 0.0 
0.0 0.0 0.0 
0.0 0.0 0.0 
0.0 0.0 0.0 
0.0 0.0 0.0 
0.0 0.0 0.0 
0.0 0.0 0.0 
0.0 0.0 0.0 
0.0 0.0 0.0 
0.0 0.0 0.0 
0.0 0.0 0.0 
0.0 0.0 0.0 
0.0 0.0 0.0 
0.0 0.0 0.0 
0.0 0.0 0.0 
0.0 0.0 0.0 
0.0 0.0 0.0 
0.0 0.0 0.0 
0.0 0.0 0.0 
0.0 0.0 0.0 
0.0 0.0 0.0 
0.0 0.0 0.0 
0.0 0.0 0.0 
0.0 0.0 0.0 
0.0 0.0 0.0 
0.0 0.0 0.0 
0.0 0.0 0.0 
0.0 0.0 0.0 
0.0 0.0 0.0 
0.0 0.0 0.0 
0.0 0.0 0.0 
0.0 0.0 0.0 
0.0 0.0 0.0 
0.0 0.0 0.0 
0.0 0.0 0.0 
0.0 0.0 0.0 
0.0 0.0 0.0 
0.0 0.0 0.0 
0.0 0.0 0.0 
0.0 0.0 0.0 
0.0 0.0 0.0 
0.0 0.0 0.0 
0.0 0.0 0.0 
0.0 0.0 0.0 
0.0 0.0 0.0 
0.0 0.0 0.0 
0.0 0.0 0.0 
0.0 0.0 0.0 
0.0 0.0 0.0 
0.0 0.0 0.0 
0.0 0.0 0.0 
0.0 0.0 0.0 
0.0 0.0 0.0 
0.0 0.0 0.0 
0.0 0.0 0.0 
0.0 0.0 0.0 
0.0 0.0 0.0 
0.0 0.0 0.0 
0.0 0.0 0.0 
0.0 0.0 0.0 
0.0 0.0 0.0 
0.0 0.0 0.0 
0.0 0.0 0.0 
0.0 0.0 0.0 
0.0 0.0 0.0 
0.0 0.0 0.0 
0.0 0.0 0.0 
0.0 0.0 0.0 
0.0 0.0 0.0 
0.0 0.0 0.0 
0.0 0.0 0.0 
0.0 0.0 0.0 
0.0 0.0 0.0 
0.0 0.0 0.0 
0.0 0.0 0.0 
0.0 0.0 0.0 
0.0 0.0 0.0 
0.0 0.0 0.0 
0.0 0.0 0.0 
0.0 0.0 0.0 
0.0 0.0 0.0 
0.0 0.0 0.0 
0.0 0.0 0.0 
0.0 0.0 0.0 
0.0 0.0 0.0 
0.0 0.0 0.0 
0.0 0.0 0.0 
0.0 0.0 0.0 
0.0 0.0 0.0 
0.0 0.0 0.0 
0.0 0.0 0.0 
0.0 0.0 0.0 
0.0 0.0 0.0 
0.0 0.0 0.0 
0.0 0.0 0.0 
0.0 0.0 0.0 
0.0 0.0 0.0 
0.0 0.0 0.0 
0.0 0.0 0.0 
0.0 0.0 0.0 
0.0 0.0 0.0 
0.0 0.0 0.0 
0.0 0.0 0.0 
0.0 0.0 0.0 
0.0 0.0 0.0 
0.0 0.0 0.0 
0.0 0.0 0.0 
0.0 0.0 0.0 
0.0 0.0 0.0 
0.0 0.0 0.0 
0.0 0.0 0.0 
0.0 0.0 0.0 
0.0 0.0 0.0 
0.0 0.0 0.0 
0.0 0.0 0.0 
0.0 0.0 0.0 
0.0 0.0 0.0 
0.0 0.0 0.0 
0.0 0.0 0.0 
0.0 0.0 0.0 
0.0 0.0 0.0 
0.0 0.0 0.0 
0.0 0.0 0.0 
0.0 0.0 0.0 
0.0 0.0 0.0 
0.0 0.0 0.0 
0.0 0.0 0.0 
0.0 0.0 0.0 
0.0 0.0 0.0 
0.0 0.0 0.0 
0.0 0.0 0.0 
0.0 0.0 0.0 
0.0 0.0 0.0 
0.0 0.0 0.0 
0.0 0.0 0.0 
0.0 0.0 0.0 
0.0 0.0 0.0 
0.0 0.0 0.0 
0.0 0.0 0.0 
0.0 0.0 0.0 
0.0 0.0 0.0 
0.0 0.0 0.0 
0.0 0.0 0.0 
0.0 0.0 0.0 
0.0 0.0 0.0 
0.0 0.0 0.0 
0.0 0.0 0.0 
0.0 0.0 0.0 
0.0 0.0 0.0 
0.0 0.0 0.0 
0.0 0.0 0.0 
0.0 0.0 0.0 
0.0 0.0 0.0 
0.0 0.0 0.0 
0.0 0.0 0.0 
0.0 0.0 0.0 
0.0 0.0 0.0 
0.0 0.0 0.0 
0.0 0.0 0.0 
0.0 0.0 0.0 
0.0 0.0 0.0 
0.0 0.0 0.0 
0.0 0.0 0.0 
0.0 0.0 0.0 
0.0 0.0 0.0 
0.0 0.0 0.0 
0.0 0.0 0.0 
0.0 0.0 0.0 
0.0 0.0 0.0 
0.0 0.0 0.0 
0.0 0.0 0.0 
0.0 0.0 0.0 
0.0 0.0 0.0 
0.0 0.0 0.0 
0.0 0.0 0.0 
0.0 0.0 0.0 
0.0 0.0 0.0 
0.0 0.0 0.0 
0.0 0.0 0.0 
0.0 0.0 0.0 
0.0 0.0 0.0 
0.0 0.0 0.0 
0.0 0.0 0.0 
0.0 0.0 0.0 
0.0 0.0 0.0 
0.0 0.0 0.0 
0.0 0.0 0.0 
0.0 0.0 0.0 
0.0 0.0 0.0 
0.0 0.0 0.0 
0.0 0.0 0.0 
0.0 0.0 0.0 
0.0 0.0 0.0 
0.0 0.0 0.0 
0.0 0.0 0.0 
0.0 0.0 0.0 
0.0 0.0 0.0 
0.0 0.0 0.0 
0.0 0.0 0.0 
0.0 0.0 0.0 
0.0 0.0 0.0 
0.0 0.0 0.0 
0.0 0.0 0.0 
0.0 0.0 0.0 
0.0 0.0 0.0 
0.0 0.0 0.0 
0.0 0.0 0.0 
0.0 0.0 0.0 
0.0 0.0 0.0 
0.0 0.0 0.0 
0.0 0.0 0.0 
0.0 0.0 0.0 
0.0 0.0 0.0 
0.0 0.0 0.0 
0.0 0.0 0.0 
0.0 0.0 0.0 
0.0 0.0 0.0 
0.0 0.0 0.0 
0.0 0.0 0.0 
0.0 0.0 0.0 
0.0 0.0 0.0 
0.0 0.0 0.0 
0.0 0.0 0.0 
0.0 0.0 0.0 
0.0 0.0 0.0 
0.0 0.0 0.0 
0.0 0.0 0.0 
0.0 0.0 0.0 
0.0 0.0 0.0 
0.0 0.0 0.0 
0.0 0.0 0.0 
0.0 0.0 0.0 
0.0 0.0 0.0 
0.0 0.0 0.0 
0.0 0.0 0.0 
0.0 0.0 0.0 
0.0 0.0 0.0 
0.0 0.0 0.0 
0.0 0.0 0.0 
0.0 0.0 0.0 
0.0 0.0 0.0 
0.0 0.0 0.0 
0.0 0.0 0.0 
0.0 0.0 0.0 
0.0 0.0 0.0 
0.0 0.0 0.0 
0.0 0.0 0.0 
0.0 0.0 0.0 
0.0 0.0 0.0 
0.0 0.0 0.0 
0.0 0.0 0.0 
0.0 0.0 0.0 
0.0 0.0 0.0 
0.0 0.0 0.0 
0.0 0.0 0.0 
0.0 0.0 0.0 
0.0 0.0 0.0 
0.0 0.0 0.0 
0.0 0.0 0.0 
0.0 0.0 0.0 
0.0 0.0 0.0 
0.0 0.0 0.0 
0.0 0.0 0.0 
0.0 0.0 0.0 
0.0 0.0 0.0 
0.0 0.0 0.0 
0.0 0.0 0.0 
0.0 0.0 0.0 
0.0 0.0 0.0 
0.0 0.0 0.0 
0.0 0.0 0.0 
0.0 0.0 0.0 
0.0 0.0 0.0 
0.0 0.0 0.0 
0.0 0.0 0.0 
0.0 0.0 0.0 
0.0 0.0 0.0 
0.0 0.0 0.0 
0.0 0.0 0.0 
0.0 0.0 0.0 
0.0 0.0 0.0 
0.0 0.0 0.0 
0.0 0.0 0.0 
0.0 0.0 0.0 
0.0 0.0 0.0 
0.0 0.0 0.0 
0.0 0.0 0.0 
0.0 0.0 0.0 
0.0 0.0 0.0 
0.0 0.0 0.0 
0.0 0.0 0.0 
0.0 0.0 0.0 
0.0 0.0 0.0 
0.0 0.0 0.0 
0.0 0.0 0.0 
0.0 0.0 0.0 
0.0 0.0 0.0 
0.0 0.0 0.0 
0.0 0.0 0.0 
0.0 0.0 0.0 
0.0 0.0 0.0 
0.0 0.0 0.0 
0.0 0.0 0.0 
0.0 0.0 0.0 
0.0 0.0 0.0 
0.0 0.0 0.0 
0.0 0.0 0.0 
0.0 0.0 0.0 
0.0 0.0 0.0 
0.0 0.0 0.0 
0.0 0.0 0.0 
0.0 0.0 0.0 
0.0 0.0 0.0 
0.0 0.0 0.0 
0.0 0.0 0.0 
0.0 0.0 0.0 
0.0 0.0 0.0 
0.0 0.0 0.0 
0.0 0.0 0.0 
0.0 0.0 0.0 
0.0 0.0 0.0 
0.0 0.0 0.0 
0.0 0.0 0.0 
0.0 0.0 0.0 
0.0 0.0 0.0 
0.0 0.0 0.0 
0.0 0.0 0.0 
0.0 0.0 0.0 
0.0 0.0 0.0 
0.0 0.0 0.0 
0.0 0.0 0.0 
0.0 0.0 0.0 
0.0 0.0 0.0 
0.0 0.0 0.0 
0.0 0.0 0.0 
0.0 0.0 0.0 
0.0 0.0 0.0 
0.0 0.0 0.0 
0.0 0.0 0.0 
0.0 0.0 0.0 
0.0 0.0 0.0 
0.0 0.0 0.0 
0.0 0.0 0.0 
0.0 0.0 0.0 
0.0 0.0 0.0 
0.0 0.0 0.0 
0.0 0.0 0.0 
0.0 0.0 0.0 
0.0 0.0 0.0 
0.0 0.0 0.0 
0.0 0.0 0.0 
0.0 0.0 0.0 
0.0 0.0 0.0 
0.0 0.0 0.0 
0.0 0.0 0.0 
0.0 0.0 0.0 
0.0 0.0 0.0 
0.0 0.0 0.0 
0.0 0.0 0.0 
0.0 0.0 0.0 
0.0 0.0 0.0 
0.0 0.0 0.0 
0.0 0.0 0.0 
0.0 0.0 0.0 
0.0 0.0 0.0 
0.0 0.0 0.0 
0.0 0.0 0.0 
0.0 0.0 0.0 
0.0 0.0 0.0 
0.0 0.0 0.0 
0.0 0.0 0.0 
0.0 0.0 0.0 
0.0 0.0 0.0 
0.0 0.0 0.0 
0.0 0.0 0.0 
0.0 0.0 0.0 
0.0 0.0 0.0 
0.0 0.0 0.0 
0.0 0.0 0.0 
0.0 0.0 0.0 
0.0 0.0 0.0 
0.0 0.0 0.0 
0.0 0.0 0.0 
0.0 0.0 0.0 
0.0 0.0 0.0 
0.0 0.0 0.0 
0.0 0.0 0.0 
0.0 0.0 0.0 
0.0 0.0 0.0 
0.0 0.0 0.0 
0.0 0.0 0.0 
0.0 0.0 0.0 
0.0 0.0 0.0 
0.0 0.0 0.0 
0.0 0.0 0.0 
0.0 0.0 0.0 
0.0 0.0 0.0 
0.0 0.0 0.0 
0.0 0.0 0.0 
0.0 0.0 0.0 
0.0 0.0 0.0 
0.0 0.0 0.0 
0.0 0.0 0.0 
0.0 0.0 0.0 
0.0 0.0 0.0 
0.0 0.0 0.0 
0.0 0.0 0.0 
0.0 0.0 0.0 
0.0 0.0 0.0 
0.0 0.0 0.0 
0.0 0.0 0.0 
0.0 0.0 0.0 
0.0 0.0 0.0 
0.0 0.0 0.0 
0.0 0.0 0.0 
0.0 0.0 0.0 
0.0 0.0 0.0 
0.0 0.0 0.0 
0.0 0.0 0.0 
0.0 0.0 0.0 
0.0 0.0 0.0 
0.0 0.0 0.0 
0.0 0.0 0.0 
0.0 0.0 0.0 
0.0 0.0 0.0 
0.0 0.0 0.0 
0.0 0.0 0.0 
0.0 0.0 0.0 
0.0 0.0 0.0 
0.0 0.0 0.0 
0.0 0.0 0.0 
0.0 0.0 0.0 
0.0 0.0 0.0 
0.0 0.0 0.0 
0.0 0.0 0.0 
0.0 0.0 0.0 
0.0 0.0 0.0 
0.0 0.0 0.0 
0.0 0.0 0.0 
0.0 0.0 0.0 
0.0 0.0 0.0 
0.0 0.0 0.0 
0.0 0.0 0.0 
0.0 0.0 0.0 
0.0 0.0 0.0 
0.0 0.0 0.0 
0.0 0.0 0.0 
0.0 0.0 0.0 
0.0 0.0 0.0 
0.0 0.0 0.0 
0.0 0.0 0.0 
0.0 0.0 0.0 
0.0 0.0 0.0 
0.0 0.0 0.0 
0.0 0.0 0.0 
0.0 0.0 0.0 
0.0 0.0 0.0 
0.0 0.0 0.0 
0.0 0.0 0.0 
0.0 0.0 0.0 
0.0 0.0 0.0 
0.0 0.0 0.0 
0.0 0.0 0.0 
0.0 0.0 0.0 
0.0 0.0 0.0 
0.0 0.0 0.0 
0.0 0.0 0.0 
0.0 0.0 0.0 
0.0 0.0 0.0 
0.0 0.0 0.0 
0.0 0.0 0.0 
0.0 0.0 0.0 
0.0 0.0 0.0 
0.0 0.0 0.0 
0.0 0.0 0.0 
0.0 0.0 0.0 
0.0 0.0 0.0 
0.0 0.0 0.0 
0.0 0.0 0.0 
0.0 0.0 0.0 
0.0 0.0 0.0 
0.0 0.0 0.0 
0.0 0.0 0.0 
0.0 0.0 0.0 
0.0 0.0 0.0 
0.0 0.0 0.0 
0.0 0.0 0.0 
0.0 0.0 0.0 
0.0 0.0 0.0 
0.0 0.0 0.0 
0.0 0.0 0.0 
0.0 0.0 0.0 
0.0 0.0 0.0 
0.0 0.0 0.0 
0.0 0.0 0.0 
0.0 0.0 0.0 
0.0 0.0 0.0 
0.0 0.0 0.0 
0.0 0.0 0.0 
0.0 0.0 0.0 
0.0 0.0 0.0 
0.0 0.0 0.0 
0.0 0.0 0.0 
0.0 0.0 0.0 
0.0 0.0 0.0 
0.0 0.0 0.0 
0.0 0.0 0.0 
0.0 0.0 0.0 
0.0 0.0 0.0 
0.0 0.0 0.0 
0.0 0.0 0.0 
0.0 0.0 0.0 
0.0 0.0 0.0 
0.0 0.0 0.0 
0.0 0.0 0.0 
0.0 0.0 0.0 
0.0 0.0 0.0 
0.0 0.0 0.0 
0.0 0.0 0.0 
0.0 0.0 0.0 
0.0 0.0 0.0 
0.0 0.0 0.0 
0.0 0.0 0.0 
0.0 0.0 0.0 
0.0 0.0 0.0 
0.0 0.0 0.0 
0.0 0.0 0.0 
0.0 0.0 0.0 
0.0 0.0 0.0 
0.0 0.0 0.0 
0.0 0.0 0.0 
0.0 0.0 0.0 
0.0 0.0 0.0 
0.0 0.0 0.0 
0.0 0.0 0.0 
0.0 0.0 0.0 
0.0 0.0 0.0 
0.0 0.0 0.0 
0.0 0.0 0.0 
0.0 0.0 0.0 
0.0 0.0 0.0 
0.0 0.0 0.0 
0.0 0.0 0.0 
0.0 0.0 0.0 
0.0 0.0 0.0 
0.0 0.0 0.0 
0.0 0.0 0.0 
0.0 0.0 0.0 
0.0 0.0 0.0 
0.0 0.0 0.0 
0.0 0.0 0.0 
0.0 0.0 0.0 
0.0 0.0 0.0 
0.0 0.0 0.0 
0.0 0.0 0.0 
0.0 0.0 0.0 
0.0 0.0 0.0 
0.0 0.0 0.0 
0.0 0.0 0.0 
0.0 0.0 0.0 
0.0 0.0 0.0 
0.0 0.0 0.0 
0.0 0.0 0.0 
0.0 0.0 0.0 
0.0 0.0 0.0 
0.0 0.0 0.0 
0.0 0.0 0.0 
0.0 0.0 0.0 
0.0 0.0 0.0 
0.0 0.0 0.0 
0.0 0.0 0.0 
0.0 0.0 0.0 
0.0 0.0 0.0 
0.0 0.0 0.0 
0.0 0.0 0.0 
0.0 0.0 0.0 
0.0 0.0 0.0 
0.0 0.0 0.0 
0.0 0.0 0.0 
0.0 0.0 0.0 
0.0 0.0 0.0 
0.0 0.0 0.0 
0.0 0.0 0.0 
0.0 0.0 0.0 
0.0 0.0 0.0 
0.0 0.0 0.0 
0.0 0.0 0.0 
0.0 0.0 0.0 
0.0 0.0 0.0 
0.0 0.0 0.0 
0.0 0.0 0.0 
0.0 0.0 0.0 
0.0 0.0 0.0 
0.0 0.0 0.0 
0.0 0.0 0.0 
0.0 0.0 0.0 
0.0 0.0 0.0 
0.0 0.0 0.0 
0.0 0.0 0.0 
0.0 0.0 0.0 
0.0 0.0 0.0 
0.0 0.0 0.0 
0.0 0.0 0.0 
0.0 0.0 0.0 
0.0 0.0 0.0 
0.0 0.0 0.0 
0.0 0.0 0.0 
0.0 0.0 0.0 
0.0 0.0 0.0 
0.0 0.0 0.0 
0.0 0.0 0.0 
0.0 0.0 0.0 
0.0 0.0 0.0 
0.0 0.0 0.0 
0.0 0.0 0.0 
0.0 0.0 0.0 
0.0 0.0 0.0 
0.0 0.0 0.0 
0.0 0.0 0.0 
0.0 0.0 0.0 
0.0 0.0 0.0 
0.0 0.0 0.0 
0.0 0.0 0.0 
0.0 0.0 0.0 
0.0 0.0 0.0 
0.0 0.0 0.0 
0.0 0.0 0.0 
0.0 0.0 0.0 
0.0 0.0 0.0 
0.0 0.0 0.0 
0.0 0.0 0.0 
0.0 0.0 0.0 
0.0 0.0 0.0 
0.0 0.0 0.0 
0.0 0.0 0.0 
0.0 0.0 0.0 
0.0 0.0 0.0 
0.0 0.0 0.0 
0.0 0.0 0.0 
0.0 0.0 0.0 
0.0 0.0 0.0 
0.0 0.0 0.0 
0.0 0.0 0.0 
0.0 0.0 0.0 
0.0 0.0 0.0 
0.0 0.0 0.0 
0.0 0.0 0.0 
0.0 0.0 0.0 
0.0 0.0 0.0 
0.0 0.0 0.0 
0.0 0.0 0.0 
0.0 0.0 0.0 
0.0 0.0 0.0 
0.0 0.0 0.0 
0.0 0.0 0.0 
0.0 0.0 0.0 
0.0 0.0 0.0 
0.0 0.0 0.0 
0.0 0.0 0.0 
0.0 0.0 0.0 
0.0 0.0 0.0 
0.0 0.0 0.0 
0.0 0.0 0.0 
0.0 0.0 0.0 
0.0 0.0 0.0 
0.0 0.0 0.0 
0.0 0.0 0.0 
0.0 0.0 0.0 
0.0 0.0 0.0 
0.0 0.0 0.0 
0.0 0.0 0.0 
0.0 0.0 0.0 
0.0 0.0 0.0 
0.0 0.0 0.0 
0.0 0.0 0.0 
0.0 0.0 0.0 
0.0 0.0 0.0 
0.0 0.0 0.0 
0.0 0.0 0.0 
0.0 0.0 0.0 
0.0 0.0 0.0 
0.0 0.0 0.0 
0.0 0.0 0.0 
0.0 0.0 0.0 
0.0 0.0 0.0 
0.0 0.0 0.0 
0.0 0.0 0.0 
0.0 0.0 0.0 
0.0 0.0 0.0 
0.0 0.0 0.0 
0.0 0.0 0.0 
0.0 0.0 0.0 
0.0 0.0 0.0 
0.0 0.0 0.0 
0.0 0.0 0.0 
0.0 0.0 0.0 
0.0 0.0 0.0 
0.0 0.0 0.0 
0.0 0.0 0.0 
0.0 0.0 0.0 
0.0 0.0 0.0 
0.0 0.0 0.0 
0.0 0.0 0.0 
0.0 0.0 0.0 
0.0 0.0 0.0 
0.0 0.0 0.0 
0.0 0.0 0.0 
0.0 0.0 0.0 
0.0 0.0 0.0 
0.0 0.0 0.0 
0.0 0.0 0.0 

TENSORS element_materi_stress float
-2.848768244340e+01 1.975065573505e+01 0.0 
1.975065573505e+01 -3.897129875760e+01 0.0 
0.0 0.0 -1.983769436030e+01 
-2.863589127329e+01 1.791499873599e+01 0.0 
1.791499873599e+01 -4.089067974735e+01 0.0 
0.0 0.0 -2.045797130619e+01 
-1.094910913179e+02 2.454153434851e+01 0.0 
2.454153434851e+01 -2.467681946516e+02 0.0 
0.0 0.0 -1.064777857909e+02 
-9.335928551684e+01 3.036286551173e+00 0.0 
3.036286551173e+00 -2.087032596086e+02 0.0 
0.0 0.0 -9.021876353763e+01 
-4.466551960454e+01 -1.889962045929e-01 0.0 
-1.889962045929e-01 -6.966174437249e+01 0.0 
0.0 0.0 -3.389817919311e+01 
-2.137453641689e+01 4.602955094046e+00 0.0 
4.602955094046e+00 -3.900698630284e+01 0.0 
0.0 0.0 -1.771445681592e+01 
-4.388747194757e+01 -6.015519599173e-01 0.0 
-6.015519599173e-01 -6.985087316536e+01 0.0 
0.0 0.0 -3.372150353388e+01 
-2.984140225815e+01 1.918706470253e+01 0.0 
1.918706470253e+01 -4.407826215453e+01 0.0 
0.0 0.0 -2.177589932380e+01 
-4.494080074641e+01 1.824717587600e+00 0.0 
1.824717587600e+00 -7.067007398468e+01 0.0 
0.0 0.0 -3.428326241933e+01 
-9.268300650800e+01 2.853717413308e+00 0.0 
2.853717413308e+00 -2.070044159651e+02 0.0 
0.0 0.0 -8.950622674193e+01 
-9.630763200850e+01 -2.868234980609e-01 0.0 
-2.868234980609e-01 -2.525236698097e+02 0.0 
0.0 0.0 -1.042493905455e+02 
-2.526892089682e+01 1.702355241147e+01 0.0 
1.702355241147e+01 -3.353670678831e+01 0.0 
0.0 0.0 -1.724168830554e+01 
-1.505772060828e+02 6.107836974704e-01 0.0 
6.107836974704e-01 -3.618514279123e+02 0.0 
0.0 0.0 -1.533285901985e+02 
-5.631374524015e+01 2.986284604177e+00 0.0 
2.986284604177e+00 -8.830509907807e+01 0.0 
0.0 0.0 -4.298565329547e+01 
-1.555064818781e+02 2.808612759991e+00 0.0 
2.808612759991e+00 -3.695946739959e+02 0.0 
0.0 0.0 -1.571303467622e+02 
-9.489888246309e+01 2.229259241659e+00 0.0 
2.229259241659e+00 -2.168806017938e+02 0.0 
0.0 0.0 -9.313384527706e+01 
-4.427904365026e+01 1.232998995936e+00 0.0 
1.232998995936e+00 -6.594459007215e+01 0.0 
0.0 0.0 -3.266709011672e+01 
-2.085875551956e+01 2.707286142121e+00 0.0 
2.707286142121e+00 -3.946857872719e+01 0.0 
0.0 0.0 -1.769820027402e+01 
-2.809246887609e+01 -1.599562680246e-01 0.0 
-1.599562680246e-01 -7.730273235145e+01 0.0 
0.0 0.0 -3.121856036826e+01 
-2.845784369298e+01 -7.734696860188e-01 0.0 
-7.734696860188e-01 -7.993601185781e+01 0.0 
0.0 0.0 -3.211815666524e+01 
-9.439636644533e+01 5.000128207399e+00 0.0 
5.000128207399e+00 -2.082463543329e+02 0.0 
0.0 0.0 -9.039281623346e+01 
-2.848537622551e+01 1.846360941151e+01 0.0 
1.846360941151e+01 -3.916098774844e+01 0.0 
0.0 0.0 -1.989390919218e+01 
-3.169295097254e+01 2.063898160242e+01 0.0 
2.063898160242e+01 -4.296255148017e+01 0.0 
0.0 0.0 -2.199665073581e+01 
-1.340688175019e+02 1.531278971545e+01 0.0 
1.531278971545e+01 -3.325304245277e+02 0.0 
0.0 0.0 -1.395797726089e+02 
-6.684647568520e+01 6.767792858267e+00 0.0 
6.767792858267e+00 -1.094053550369e+02 0.0 
0.0 0.0 -5.247554921663e+01 
-1.020198668291e+02 1.113297176654e+00 0.0 
1.113297176654e+00 -2.654682095552e+02 0.0 
0.0 0.0 -1.098464229153e+02 
-4.201016424179e+01 4.918995528211e+00 0.0 
4.918995528211e+00 -5.171124984185e+01 0.0 
0.0 0.0 -2.771642422509e+01 
-1.258143160547e+02 2.904188438254e+01 0.0 
2.904188438254e+01 -3.018887368974e+02 0.0 
0.0 0.0 -1.279109158856e+02 
-7.028763134525e+01 1.042061242859e+01 0.0 
1.042061242859e+01 -1.113240370842e+02 0.0 
0.0 0.0 -5.408350052883e+01 
-1.380189784371e+02 1.382971781287e+01 0.0 
1.382971781287e+01 -3.415067766650e+02 0.0 
0.0 0.0 -1.434577265306e+02 
-2.598571844085e+01 -1.875658830354e+00 0.0 
-1.875658830354e+00 -5.778797510452e+01 0.0 
0.0 0.0 -2.473210806361e+01 
-1.416365574206e+01 -1.719882418219e+00 0.0 
-1.719882418219e+00 -2.600898745047e+01 0.0 
0.0 0.0 -1.165179295776e+01 
-1.113715574168e+02 2.505052377979e+01 0.0 
2.505052377979e+01 -2.462824182947e+02 0.0 
0.0 0.0 -1.068961927134e+02 
-1.254952756302e+02 1.188256319953e+00 0.0 
1.188256319953e+00 -3.136523782975e+02 0.0 
0.0 0.0 -1.313442961783e+02 
-1.472624550254e+02 9.616202992269e+00 0.0 
9.616202992269e+00 -3.560819211466e+02 0.0 
0.0 0.0 -1.506033128516e+02 
-1.577815809725e+02 4.416765216891e+00 0.0 
4.416765216891e+00 -3.760171846661e+02 0.0 
0.0 0.0 -1.597396296916e+02 
-1.587221938647e+02 7.053224444278e+00 0.0 
7.053224444278e+00 -3.761872152783e+02 0.0 
0.0 0.0 -1.600728227429e+02 
-1.349646532609e+02 2.099473978147e+01 0.0 
2.099473978147e+01 -3.312795873746e+02 0.0 
0.0 0.0 -1.394732721907e+02 
-3.573768591046e+01 1.338402569494e+00 0.0 
1.338402569494e+00 -5.122577698162e+01 0.0 
0.0 0.0 -2.568903886763e+01 
-3.544775632062e+01 -1.384030266231e+00 0.0 
-1.384030266231e+00 -5.174224166408e+01 0.0 
0.0 0.0 -2.575699939541e+01 
-3.535781825862e+01 2.130080556459e+01 0.0 
2.130080556459e+01 -4.319031796953e+01 0.0 
0.0 0.0 -2.316444086845e+01 
-1.497921276507e+02 1.095039778043e+01 0.0 
1.095039778043e+01 -3.584963427237e+02 0.0 
0.0 0.0 -1.520865411123e+02 
-2.666279965196e+01 1.700622983060e+01 0.0 
1.700622983060e+01 -3.708898592742e+01 0.0 
0.0 0.0 -1.872553567381e+01 
-4.489101198382e+01 4.710589233892e+00 0.0 
4.710589233892e+00 -5.198439691949e+01 0.0 
0.0 0.0 -2.866262267099e+01 
-8.975527298269e+01 1.212439611517e+00 0.0 
1.212439611517e+00 -1.971385247671e+02 0.0 
0.0 0.0 -8.566813932494e+01 
-2.603844272632e+01 1.628366343152e+01 0.0 
1.628366343152e+01 -3.691657387988e+01 0.0 
0.0 0.0 -1.848650498186e+01 
-1.987990582821e+01 -2.275319007841e+00 0.0 
-2.275319007841e+00 -4.323603740083e+01 0.0 
0.0 0.0 -1.853478296871e+01 
-8.876603849414e+01 1.014318533460e+00 0.0 
1.014318533460e+00 -1.983184925915e+02 0.0 
0.0 0.0 -8.572535932568e+01 
-1.699687096799e+01 -1.828668648552e+00 0.0 
-1.828668648552e+00 -2.565095364766e+01 0.0 
0.0 0.0 -1.278422081600e+01 
-5.381841369994e+01 4.015502529324e+00 0.0 
4.015502529324e+00 -7.971266196254e+01 0.0 
0.0 0.0 -3.965932269874e+01 
-3.342807348808e+01 2.135599259609e+01 0.0 
2.135599259609e+01 -4.406725108391e+01 0.0 
0.0 0.0 -2.284859737160e+01 
-3.578180538830e+01 -3.846848896398e-01 0.0 
-3.846848896398e-01 -9.721483476780e+01 0.0 
0.0 0.0 -3.949899204683e+01 
-2.869422316388e+01 -1.517256487994e+00 0.0 
-1.517256487994e+00 -7.895286282265e+01 0.0 
0.0 0.0 -3.189412579596e+01 
-3.136104429824e+01 1.843463787623e+01 0.0 
1.843463787623e+01 -4.031582827119e+01 0.0 
0.0 0.0 -2.110306177083e+01 
-1.039120961274e+02 1.931223743386e+01 0.0 
1.931223743386e+01 -2.315158975839e+02 0.0 
0.0 0.0 -1.002283981134e+02 
-4.664517917936e+01 -2.716117315040e-01 0.0 
-2.716117315040e-01 -1.282860384503e+02 0.0 
0.0 0.0 -5.207936528888e+01 
-3.597554107477e+01 -9.029707752388e-01 0.0 
-9.029707752388e-01 -1.001597882423e+02 0.0 
0.0 0.0 -4.044059879512e+01 
-1.250883815768e+02 -1.041406824870e-01 0.0 
-1.041406824870e-01 -3.135288866005e+02 0.0 
0.0 0.0 -1.311851804532e+02 
-2.227305847087e+01 -1.274888906941e+00 0.0 
-1.274888906941e+00 -5.925933735017e+01 0.0 
0.0 0.0 -2.405971874631e+01 
-9.571163004454e+01 4.142336717108e+00 0.0 
4.142336717108e+00 -2.172677979755e+02 0.0 
0.0 0.0 -9.349382840600e+01 
-2.184192112865e+01 -9.718002233036e-01 0.0 
-9.718002233036e-01 -2.216422002712e+01 0.0 
0.0 0.0 -1.280184234673e+01 
-1.200048840132e+02 2.373536081584e+01 0.0 
2.373536081584e+01 -2.982674717500e+02 0.0 
0.0 0.0 -1.250817067290e+02 
-3.668730602491e+01 1.874113086775e+01 0.0 
1.874113086775e+01 -9.133303662148e+01 0.0 
0.0 0.0 -3.800610279392e+01 
-2.729820986638e+01 -1.553184010752e+00 0.0 
-1.553184010752e+00 -7.246040228364e+01 0.0 
0.0 0.0 -2.952758364501e+01 
-1.502746396006e+02 3.554798790584e+00 0.0 
3.554798790584e+00 -3.611155487080e+02 0.0 
0.0 0.0 -1.530170564926e+02 
-2.954378130952e+01 1.842406298256e+01 0.0 
1.842406298256e+01 -3.941011431347e+01 0.0 
0.0 0.0 -2.028616868690e+01 
-1.797625794076e+01 -1.108082306658e+00 0.0 
-1.108082306658e+00 -2.092243519499e+01 0.0 
0.0 0.0 -1.197156189548e+01 
-1.138065872316e+02 2.687159712786e+01 0.0 
2.687159712786e+01 -2.512690478265e+02 0.0 
0.0 0.0 -1.091226905174e+02 
-2.520036248785e+01 -2.546620747963e+00 0.0 
-2.546620747963e+00 -6.357366346412e+01 0.0 
0.0 0.0 -2.623220778559e+01 
-1.187191773622e+02 2.801525210542e+01 0.0 
2.801525210542e+01 -2.760379638696e+02 0.0 
0.0 0.0 -1.180271423695e+02 
-1.068045839005e+02 1.656959466750e+00 0.0 
1.656959466750e+00 -2.758124076848e+02 0.0 
0.0 0.0 -1.143850974756e+02 
-1.006571939974e+02 1.259055054621e+01 0.0 
1.259055054621e+01 -2.362001193272e+02 0.0 
0.0 0.0 -1.006571939974e+02 
-1.203992078167e+02 2.617005702273e+01 0.0 
2.617005702273e+01 -2.877714811295e+02 0.0 
0.0 0.0 -1.220512066839e+02 
-1.050808696821e+01 -9.554883924897e-01 0.0 
-9.554883924897e-01 -2.984673686579e+01 0.0 
0.0 0.0 -1.170644715020e+01 
-4.802128777462e+01 -1.140909107898e+00 0.0 
-1.140909107898e+00 -1.335080438039e+02 0.0 
0.0 0.0 -5.405879947355e+01 
-9.786385926650e+01 9.864804505427e+00 0.0 
9.864804505427e+00 -2.136744547677e+02 0.0 
0.0 0.0 -9.306149421025e+01 
-1.086962127746e+02 2.116502314862e+01 0.0 
2.116502314862e+01 -2.358057114761e+02 0.0 
0.0 0.0 -1.029505772752e+02 
-2.375206490543e+01 1.370845731609e+01 0.0 
1.370845731609e+01 -3.401650531995e+01 0.0 
0.0 0.0 -1.693057106761e+01 
-2.145205610458e+01 -1.363863099322e+00 0.0 
-1.363863099322e+00 -5.912634182746e+01 0.0 
0.0 0.0 -2.377351937961e+01 
-2.532207464732e+01 1.543540984086e+01 0.0 
1.543540984086e+01 -3.458422172392e+01 0.0 
0.0 0.0 -1.757188891137e+01 
-2.442262561789e+01 -3.506499338922e+00 0.0 
-3.506499338922e+00 -6.303241084801e+01 0.0 
0.0 0.0 -2.583651093977e+01 
-4.470153001215e+01 9.006171600166e-01 0.0 
9.006171600166e-01 -6.541792870126e+01 0.0 
0.0 0.0 -3.263583761402e+01 
-3.118784841306e+01 2.056546182237e+01 0.0 
2.056546182237e+01 -4.297570897281e+01 0.0 
0.0 0.0 -2.184906721576e+01 
-2.650123780519e+01 1.772303827532e+01 0.0 
1.772303827532e+01 -3.486563584750e+01 0.0 
0.0 0.0 -1.801006209581e+01 
-5.021642890308e+01 2.220645567077e+00 0.0 
2.220645567077e+00 -8.112722262958e+01 0.0 
0.0 0.0 -3.900309545980e+01 
-4.864687730394e+01 3.476134374889e-02 0.0 
3.476134374889e-02 -8.042283277946e+01 0.0 
0.0 0.0 -3.832091302502e+01 
-1.109303654022e+02 1.433425641510e+00 0.0 
1.433425641510e+00 -2.842825438464e+02 0.0 
0.0 0.0 -1.181638727746e+02 
-1.211232524826e+02 -6.834445244253e-01 0.0 
-6.834445244253e-01 -3.053884235205e+02 0.0 
0.0 0.0 -1.275535028009e+02 
-9.580000999601e+01 2.409920776220e+01 0.0 
2.409920776220e+01 -1.958514115326e+02 0.0 
0.0 0.0 -8.709542645857e+01 
-4.600115391959e+01 2.251632148196e+00 0.0 
2.251632148196e+00 -6.944068413093e+01 0.0 
0.0 0.0 -3.423255141516e+01 
-1.327572392986e+01 -1.746893354409e+00 0.0 
-1.746893354409e+00 -2.575978290348e+01 0.0 
0.0 0.0 -1.166676726933e+01 
-5.287756082789e+01 6.331497884941e+00 0.0 
6.331497884941e+00 -7.034950115057e+01 0.0 
0.0 0.0 -3.656811859354e+01 
-7.266709028678e+01 1.338457127259e+00 0.0 
1.338457127259e+00 -1.492828379048e+02 0.0 
0.0 0.0 -6.618497845747e+01 
-7.239069290441e+01 7.454568362853e-01 0.0 
7.454568362853e-01 -1.458476480410e+02 0.0 
0.0 0.0 -6.507150228363e+01 
-1.065815620167e+02 1.405382933783e+01 0.0 
1.405382933783e+01 -2.396762275246e+02 0.0 
0.0 0.0 -1.034773368624e+02 
-1.411676217631e+02 2.407619700293e+01 0.0 
2.407619700293e+01 -3.369985098006e+02 0.0 
0.0 0.0 -1.430498394691e+02 
-4.615550203435e+01 1.999747926962e+00 0.0 
1.999747926962e+00 -6.530725253613e+01 0.0 
0.0 0.0 -3.303882637114e+01 
-1.467036215070e+02 1.077554258983e+01 0.0 
1.077554258983e+01 -3.579876616531e+02 0.0 
0.0 0.0 -1.510073849480e+02 
-5.469781396905e+01 8.036606725114e-01 0.0 
8.036606725114e-01 -1.002890817177e+02 0.0 
0.0 0.0 -4.609606870604e+01 
-3.546563120267e+01 2.008049183345e+01 0.0 
2.008049183345e+01 -7.636182251623e+01 0.0 
0.0 0.0 -3.314823611567e+01 
-4.115870905786e+01 1.315950624800e+00 0.0 
1.315950624800e+00 -6.070292817583e+01 0.0 
0.0 0.0 -3.015849117011e+01 
-1.548258014034e+02 1.550247985158e+00 0.0 
1.550247985158e+00 -3.691910564376e+02 0.0 
0.0 0.0 -1.568050573523e+02 
-9.915840239062e+01 2.089618364711e+01 0.0 
2.089618364711e+01 -2.574310902601e+02 0.0 
0.0 0.0 -1.065768477952e+02 
-1.225866130287e+02 2.529047552131e+01 0.0 
2.529047552131e+01 -2.997148564389e+02 0.0 
0.0 0.0 -1.262904408403e+02 
-3.395158989927e+01 1.599869708636e+01 0.0 
1.599869708636e+01 -8.737291209265e+01 0.0 
0.0 0.0 -3.599735059757e+01 
-2.368577124722e+01 -2.430577069445e+00 0.0 
-2.430577069445e+00 -4.243146131337e+01 0.0 
0.0 0.0 -1.943516976818e+01 
-1.402172097807e+02 1.989611920905e+00 0.0 
1.989611920905e+00 -3.422197359281e+02 0.0 
0.0 0.0 -1.443310837127e+02 
-7.920846760387e+01 1.188166980971e+00 0.0 
1.188166980971e+00 -1.652602032268e+02 0.0 
0.0 0.0 -7.294060124921e+01 
-2.155501515943e+01 -1.604377770290e+00 0.0 
-1.604377770290e+00 -2.542275751968e+01 0.0 
0.0 0.0 -1.369333180374e+01 
-1.544023123518e+02 4.822104671040e+00 0.0 
4.822104671040e+00 -3.665206437360e+02 0.0 
0.0 0.0 -1.558768868263e+02 
-9.039291996919e+01 2.167253019701e+01 0.0 
2.167253019701e+01 -1.878954517915e+02 0.0 
0.0 0.0 -8.308651152820e+01 
-7.689101882827e+00 3.502771626282e-01 0.0 
3.502771626282e-01 -2.207379824163e+01 0.0 
0.0 0.0 -8.528870037337e+00 
-4.604454221976e+01 1.579555691409e+01 0.0 
1.579555691409e+01 -1.353239354353e+02 0.0 
0.0 0.0 -5.401054329652e+01 
-4.943431436012e+01 1.404691978019e+01 0.0 
1.404691978019e+01 -5.749047784817e+01 0.0 
0.0 0.0 -3.167743766249e+01 
-5.838790554111e+01 -4.470755802343e-01 0.0 
-4.470755802343e-01 -1.620796252177e+02 0.0 
0.0 0.0 -6.574025922766e+01 
-3.206954664368e+01 1.809916408545e+01 0.0 
1.809916408545e+01 -7.267094665962e+01 0.0 
0.0 0.0 -3.102214799099e+01 
-3.823036698076e+01 1.930868351780e+01 0.0 
1.930868351780e+01 -9.205336874223e+01 0.0 
0.0 0.0 -3.868512071690e+01 
-1.513897107896e+02 7.697812178050e+00 0.0 
7.697812178050e+00 -3.633436667189e+02 0.0 
0.0 0.0 -1.540200132525e+02 
-5.233415260306e+01 -4.598105147141e-01 0.0 
-4.598105147141e-01 -9.364218682024e+01 0.0 
0.0 0.0 -4.339290182699e+01 
-3.446505160709e+01 1.756886273302e+01 0.0 
1.756886273302e+01 -8.906232596619e+01 0.0 
0.0 0.0 -3.665821327199e+01 
-2.403585036244e+01 -2.101959517119e+00 0.0 
-2.101959517119e+00 -6.091784996887e+01 0.0 
0.0 0.0 -2.508611009939e+01 
-5.316488840874e+01 6.992437283738e+00 0.0 
6.992437283738e+00 -7.242619964891e+01 0.0 
0.0 0.0 -3.727732641729e+01 
-7.888496760396e+01 1.548236255688e+00 0.0 
1.548236255688e+00 -1.666307385766e+02 0.0 
0.0 0.0 -7.325471185417e+01 
-3.601779722746e+01 1.773110288618e+01 0.0 
1.773110288618e+01 -8.973819380484e+01 0.0 
0.0 0.0 -3.732679730969e+01 
-2.148213814637e+01 9.688189367047e+00 0.0 
9.688189367047e+00 -2.935052914815e+01 0.0 
0.0 0.0 -1.484980018836e+01 
-4.205812701079e+01 1.913600786204e+01 0.0 
1.913600786204e+01 -4.672340932555e+01 0.0 
0.0 0.0 -2.623446090090e+01 
-5.853523018183e+01 -9.058673392347e-01 0.0 
-9.058673392347e-01 -1.607737954933e+02 0.0 
0.0 0.0 -6.539270770253e+01 
-3.669196151997e+01 1.612674296401e+01 0.0 
1.612674296401e+01 -4.140241757102e+01 0.0 
0.0 0.0 -2.302831372730e+01 
-9.842653416891e+01 9.700805451951e+00 0.0 
9.700805451951e+00 -2.223564121477e+02 0.0 
0.0 0.0 -9.583488389499e+01 
-2.228281951943e+01 9.403772079793e+00 0.0 
9.403772079793e+00 -4.001472650476e+01 0.0 
0.0 0.0 -1.828926380726e+01 
-1.014985738094e+02 -2.218005676595e-02 0.0 
-2.218005676595e-02 -2.644590361029e+02 0.0 
0.0 0.0 -1.093872829737e+02 
-9.263472929871e+01 1.177735265954e+00 0.0 
1.177735265954e+00 -2.084718731520e+02 0.0 
0.0 0.0 -8.993198073523e+01 
-4.595437156315e+01 2.159343707245e+01 0.0 
2.159343707245e+01 -9.738234609899e+01 0.0 
0.0 0.0 -4.260101529864e+01 
-3.896556698064e+01 2.034942614052e+01 0.0 
2.034942614052e+01 -4.489488092424e+01 0.0 
0.0 0.0 -2.475813437146e+01 
-1.457967960288e+02 8.168332467749e+00 0.0 
8.168332467749e+00 -3.554954712920e+02 0.0 
0.0 0.0 -1.499876801963e+02 
-1.510880629446e+02 2.299264477806e+00 0.0 
2.299264477806e+00 -3.625286757912e+02 0.0 
0.0 0.0 -1.536850216208e+02 
-1.105922333272e+02 1.406053711443e-01 0.0 
1.406053711443e-01 -2.841876985339e+02 0.0 
0.0 0.0 -1.180339795583e+02 
-4.948820262828e+01 2.373634156958e+01 0.0 
2.373634156958e+01 -9.929547459821e+01 0.0 
0.0 0.0 -4.423510316795e+01 
-1.444776965343e+02 1.432638577335e+01 0.0 
1.432638577335e+01 -3.536237271868e+02 0.0 
0.0 0.0 -1.490304271163e+02 
-4.245351499322e+01 2.115857063747e+01 0.0 
2.115857063747e+01 -7.991638842260e+01 0.0 
0.0 0.0 -3.631097102475e+01 
-9.549596332830e+01 6.849091991423e+00 0.0 
6.849091991423e+00 -2.152630140466e+02 0.0 
0.0 0.0 -9.282769321247e+01 
-1.182711760361e+02 2.929120081021e+01 0.0 
2.929120081021e+01 -2.738272450000e+02 0.0 
0.0 0.0 -1.172295263109e+02 
-5.863888867745e+01 5.885344265243e+00 0.0 
5.885344265243e+00 -8.845557794766e+01 0.0 
0.0 0.0 -4.372833998753e+01 
-6.478718765025e+01 7.304486712129e-01 0.0 
7.304486712129e-01 -1.246255612949e+02 0.0 
0.0 0.0 -5.642382468355e+01 
-4.264081661287e+01 2.312183457156e+01 0.0 
2.312183457156e+01 -8.011448298929e+01 0.0 
0.0 0.0 -3.642658988065e+01 
-3.502450306758e+01 1.786990111672e+01 0.0 
1.786990111672e+01 -4.155708787640e+01 0.0 
0.0 0.0 -2.257447728319e+01 
-5.301916819171e+01 2.207052853591e+01 0.0 
2.207052853591e+01 -1.160691813436e+02 0.0 
0.0 0.0 -5.032650486060e+01 
-3.863185623956e+01 1.664927768301e+01 0.0 
1.664927768301e+01 -1.050662076877e+02 0.0 
0.0 0.0 -4.270941917817e+01 
-4.113889640814e+01 1.142744951777e+00 0.0 
1.142744951777e+00 -6.337810654203e+01 0.0 
0.0 0.0 -3.095510088505e+01 
-4.743281980696e+01 1.605691723462e+01 0.0 
1.605691723462e+01 -1.359604934524e+02 0.0 
0.0 0.0 -5.461799397780e+01 
-1.205335634913e+01 -1.444305641263e+00 0.0 
-1.444305641263e+00 -2.506577351303e+01 0.0 
0.0 0.0 -1.115391655074e+01 
-4.605865753943e+01 2.091494447446e-01 0.0 
2.091494447446e-01 -7.833762529322e+01 0.0 
0.0 0.0 -3.691888484980e+01 
-2.080978178103e+01 -4.568143264614e-01 0.0 
-4.568143264614e-01 -6.019346150200e+01 0.0 
0.0 0.0 -2.390097298491e+01 
-4.607186133435e+01 1.652850800268e+01 0.0 
1.652850800268e+01 -5.194278057771e+01 0.0 
0.0 0.0 -2.900439257362e+01 
-1.485265252239e+02 1.346950613894e+01 0.0 
1.346950613894e+01 -3.557538216597e+02 0.0 
0.0 0.0 -1.508841040651e+02 
-3.268759716029e+01 1.625116809056e+01 0.0 
1.625116809056e+01 -8.685927662691e+01 0.0 
0.0 0.0 -3.546406213616e+01 
-1.156297306510e+02 -2.861313123656e-01 0.0 
-2.861313123656e-01 -2.943716239054e+02 0.0 
0.0 0.0 -1.226004063669e+02 
-2.712426610273e+01 1.721223207438e+01 0.0 
1.721223207438e+01 -3.754805135754e+01 0.0 
0.0 0.0 -1.900169523808e+01 
-9.703547301056e+01 1.966715181836e+01 0.0 
1.966715181836e+01 -2.563659304824e+02 0.0 
0.0 0.0 -1.056204210479e+02 
-4.053195292477e+01 1.237598012626e-01 0.0 
1.237598012626e-01 -6.482740629902e+01 0.0 
0.0 0.0 -3.120780776714e+01 
-4.319496860416e+01 1.406882935967e+01 0.0 
1.406882935967e+01 -1.312060790923e+02 0.0 
0.0 0.0 -5.192031430895e+01 
-1.299920543449e+02 1.918057771684e+00 0.0 
1.918057771684e+00 -3.228272327107e+02 0.0 
0.0 0.0 -1.354457861167e+02 
-2.384435518350e+01 -3.277901962970e+00 0.0 
-3.277901962970e+00 -6.051854541466e+01 0.0 
0.0 0.0 -2.490887017945e+01 
-1.398649499714e+02 5.312325269404e-01 0.0 
5.312325269404e-01 -3.418491458523e+02 0.0 
0.0 0.0 -1.441142287471e+02 
-5.703624361620e+01 1.671754843642e+01 0.0 
1.671754843642e+01 -8.831456788104e+01 0.0 
0.0 0.0 -4.320524344917e+01 
-1.511468854334e+02 4.088779315812e+00 0.0 
4.088779315812e+00 -3.648116671890e+02 0.0 
0.0 0.0 -1.543875657867e+02 
-3.982091195926e+01 -4.956738451302e-02 0.0 
-4.956738451302e-02 -6.380440056736e+01 0.0 
0.0 0.0 -3.068759375799e+01 
-3.515318696897e+01 1.481182934811e+01 0.0 
1.481182934811e+01 -1.006031447875e+02 0.0 
0.0 0.0 -4.032689952693e+01 
-4.226731434630e+01 1.072729535665e+01 0.0 
1.072729535665e+01 -4.717352228651e+01 0.0 
0.0 0.0 -2.643225098984e+01 
-9.630708799882e+01 7.064892637534e-01 0.0 
7.064892637534e-01 -2.534762275178e+02 0.0 
0.0 0.0 -1.045349946550e+02 
-2.788475606362e+01 1.840673262934e+01 0.0 
1.840673262934e+01 -3.738078034818e+01 0.0 
0.0 0.0 -1.917966092354e+01 
-4.474907978441e+01 1.397689549493e+01 0.0 
1.397689549493e+01 -1.318484490117e+02 0.0 
0.0 0.0 -5.257925863883e+01 
-6.916174792058e+01 2.442334077060e+00 0.0 
2.442334077060e+00 -1.357178037650e+02 0.0 
0.0 0.0 -6.106386550566e+01 
-4.013295988428e+01 -4.736698147332e-01 0.0 
-4.736698147332e-01 -6.355855246984e+01 0.0 
0.0 0.0 -3.070745370624e+01 
-4.017626831479e+01 1.527071230193e+01 0.0 
1.527071230193e+01 -1.176256393003e+02 0.0 
0.0 0.0 -4.694057228454e+01 
-3.922658847631e+01 1.316672879143e+01 0.0 
1.316672879143e+01 -4.219103921165e+01 0.0 
0.0 0.0 -2.402528830639e+01 
-1.023540071461e+02 2.476432376261e+01 0.0 
2.476432376261e+01 -2.341888535175e+02 0.0 
0.0 0.0 -1.005628581991e+02 
-6.572773459136e+01 -2.389292918364e-01 0.0 
-2.389292918364e-01 -1.792319996625e+02 0.0 
0.0 0.0 -7.308792027617e+01 
-1.287782807048e+02 2.700668666811e+01 0.0 
2.700668666811e+01 -3.065144008926e+02 0.0 
0.0 0.0 -1.301878044792e+02 
-1.205766569417e+02 3.009655070497e+01 0.0 
3.009655070497e+01 -2.800027564875e+02 0.0 
0.0 0.0 -1.197738240288e+02 
-3.134401331361e+01 1.931664486923e+01 0.0 
1.931664486923e+01 -5.872856435311e+01 0.0 
0.0 0.0 -2.662177330001e+01 
-6.579669388313e+01 -6.962663034696e-01 0.0 
-6.962663034696e-01 -1.802265422978e+02 0.0 
0.0 0.0 -7.340697085428e+01 
-1.226306895213e+02 1.637947557757e+01 0.0 
1.637947557757e+01 -3.117430091446e+02 0.0 
0.0 0.0 -1.299121095998e+02 
-3.905129815517e+01 2.255691636737e+01 0.0 
2.255691636737e+01 -6.195490103729e+01 0.0 
0.0 0.0 -2.990185975774e+01 
-2.841558055359e+01 1.719749151953e+01 0.0 
1.719749151953e+01 -5.506046422816e+01 0.0 
0.0 0.0 -2.464281343452e+01 
-5.203629233452e+01 1.314712371103e+01 0.0 
1.314712371103e+01 -7.146977102320e+01 0.0 
0.0 0.0 -3.665181900732e+01 
-4.413785017121e+01 1.738259844973e+01 0.0 
1.738259844973e+01 -1.225174083565e+02 0.0 
0.0 0.0 -4.959657755832e+01 
-9.376796968550e+01 4.291438105955e+00 0.0 
4.291438105955e+00 -2.135273518803e+02 0.0 
0.0 0.0 -9.178859646973e+01 
-8.970153404960e+01 1.918479391562e+01 0.0 
1.918479391562e+01 -1.784570987358e+02 0.0 
0.0 0.0 -8.004758983563e+01 
-1.350576638801e+02 -1.876695696075e-01 0.0 
-1.876695696075e-01 -3.327234587536e+02 0.0 
0.0 0.0 -1.399343367901e+02 
-2.527038356257e+01 1.532541280939e+01 0.0 
1.532541280939e+01 -3.581957249832e+01 0.0 
0.0 0.0 -1.792698681827e+01 
-4.234556681767e+01 1.178951143288e+01 0.0 
1.178951143288e+01 -1.275693418873e+02 0.0 
0.0 0.0 -5.057447261148e+01 
-9.361603392642e+01 2.107106044993e+01 0.0 
2.107106044993e+01 -1.938281097002e+02 0.0 
0.0 0.0 -8.583324308799e+01 
-1.722630226306e+01 3.226495607999e+00 0.0 
3.226495607999e+00 -4.276387593708e+00 0.0 
0.0 0.0 -6.050806957031e+00 
-3.895002960460e+01 2.014367917909e+01 0.0 
2.014367917909e+01 -6.184573599909e+01 0.0 
0.0 0.0 -2.983872968111e+01 
-1.142243696465e+02 1.282380690108e+01 0.0 
1.282380690108e+01 -2.973988416711e+02 0.0 
0.0 0.0 -1.230869633953e+02 
-1.659639409712e+01 -1.017468849671e+00 0.0 
-1.017468849671e+00 -4.270482181074e+01 0.0 
0.0 0.0 -1.739036477236e+01 
-1.066358889085e+02 2.103058024225e+01 0.0 
2.103058024225e+01 -2.343264450193e+02 0.0 
0.0 0.0 -1.018887001784e+02 
-7.719011611793e+01 1.214115221630e+01 0.0 
1.214115221630e+01 -1.357538107544e+02 0.0 
0.0 0.0 -6.348317806169e+01 
-5.693621066225e+01 -1.041543332919e+00 0.0 
-1.041543332919e+00 -1.676405973275e+02 0.0 
0.0 0.0 -6.697304239694e+01 
-1.117491213175e+02 1.152261538033e+01 0.0 
1.152261538033e+01 -2.962139038438e+02 0.0 
0.0 0.0 -1.219889075484e+02 
-6.103285671718e+01 8.774678558660e+00 0.0 
8.774678558660e+00 -8.881070453513e+01 0.0 
0.0 0.0 -4.455306837569e+01 
-6.594117845285e+01 7.770032599545e+00 0.0 
7.770032599545e+00 -1.020692529596e+02 0.0 
0.0 0.0 -5.000312942375e+01 
-1.400374449457e+02 1.452316047533e+01 0.0 
1.452316047533e+01 -3.420827532554e+02 0.0 
0.0 0.0 -1.442360594603e+02 
-4.400127375812e+01 -2.809631507504e+00 0.0 
-2.809631507504e+00 -1.270300489995e+02 0.0 
0.0 0.0 -5.090939682730e+01 
-5.651612068160e+01 2.195366100731e+01 0.0 
2.195366100731e+01 -1.325984613201e+02 0.0 
0.0 0.0 -5.633437460051e+01 
-6.132144836228e+01 1.930796504256e+01 0.0 
1.930796504256e+01 -1.056726291525e+02 0.0 
0.0 0.0 -4.969822325445e+01 
-8.310083724082e+01 1.451302889923e+01 0.0 
1.451302889923e+01 -1.463198209852e+02 0.0 
0.0 0.0 -6.842619746780e+01 
-6.180996574898e+01 1.897637863489e+01 0.0 
1.897637863489e+01 -9.431736537796e+01 0.0 
0.0 0.0 -4.643819933808e+01 
-5.356229471714e+01 1.795243228066e+01 0.0 
1.795243228066e+01 -7.208478204213e+01 0.0 
0.0 0.0 -3.729412302778e+01 
-8.586019768307e+01 1.779516660826e+01 0.0 
1.779516660826e+01 -2.334986119861e+02 0.0 
0.0 0.0 -9.540764290075e+01 
-9.934438379051e+01 2.612445968595e+01 0.0 
2.612445968595e+01 -2.193455290127e+02 0.0 
0.0 0.0 -9.520697384095e+01 
-2.100058187918e+01 3.024381224599e+00 0.0 
3.024381224599e+00 -2.054985951851e+01 0.0 
0.0 0.0 -1.206513241931e+01 
-3.075765799369e+01 1.913476994136e+01 0.0 
1.913476994136e+01 -5.851092281059e+01 0.0 
0.0 0.0 -2.638057424128e+01 
-3.406189237460e+01 1.928870788758e+01 0.0 
1.928870788758e+01 -7.558300302546e+01 0.0 
0.0 0.0 -3.249346862002e+01 
-5.296209565299e+01 2.366472515403e+01 0.0 
2.366472515403e+01 -1.163552993755e+02 0.0 
0.0 0.0 -5.039521850854e+01 
-9.516776637698e+01 2.148026416603e+01 0.0 
2.148026416603e+01 -1.874249228042e+02 0.0 
0.0 0.0 -8.437780675437e+01 
-2.297891492531e+01 4.433972345628e+00 0.0 
4.433972345628e+00 -5.834784374489e+01 0.0 
0.0 0.0 -2.399802760106e+01 
-1.097891838214e+02 1.105245316352e+01 0.0 
1.105245316352e+01 -2.892699303764e+02 0.0 
0.0 0.0 -1.193177342594e+02 
-4.025476579226e+01 1.128482825943e+00 0.0 
1.128482825943e+00 -6.236880554797e+01 0.0 
0.0 0.0 -3.038707140207e+01 
-4.083190649892e+01 1.217393157099e+01 0.0 
1.217393157099e+01 -1.270042642626e+02 0.0 
0.0 0.0 -4.995085122845e+01 
-1.055335621069e+02 9.376843270650e+00 0.0 
9.376843270650e+00 -2.809000054357e+02 0.0 
0.0 0.0 -1.155300702628e+02 
-1.239338076702e+01 -7.872109718973e-01 0.0 
-7.872109718973e-01 -2.861220836801e+01 0.0 
0.0 0.0 -1.190167674051e+01 
-8.428901940910e+01 1.381437134927e+01 0.0 
1.381437134927e+01 -1.573169728738e+02 0.0 
0.0 0.0 -7.208179768488e+01 
-1.189684939940e+01 -1.278930823627e+00 0.0 
-1.278930823627e+00 -2.419876746785e+01 0.0 
0.0 0.0 -1.042868506017e+01 
-1.577476606548e+01 -1.318004663809e+00 0.0 
-1.318004663809e+00 -4.300932694792e+01 0.0 
0.0 0.0 -1.723522790402e+01 
-2.582949619731e+01 1.620557062584e+01 0.0 
1.620557062584e+01 -3.599526939766e+01 0.0 
0.0 0.0 -1.814742967849e+01 
-3.762043067833e+01 -3.074222758368e+00 0.0 
-3.074222758368e+00 -1.076397330161e+02 0.0 
0.0 0.0 -4.317804910834e+01 
-8.984006216586e+01 1.599980264741e+01 0.0 
1.599980264741e+01 -1.675766511216e+02 0.0 
0.0 0.0 -7.682501398625e+01 
-3.649130621939e+01 -2.226315378328e+00 0.0 
-2.226315378328e+00 -1.010795586160e+02 0.0 
0.0 0.0 -4.087125945060e+01 
-2.660019423450e+01 1.282466603961e+01 0.0 
1.282466603961e+01 -6.404396952311e+01 0.0 
0.0 0.0 -2.679324912728e+01 
-2.929403976713e+01 -2.395776228280e+00 0.0 
-2.395776228280e+00 -7.810075858045e+01 0.0 
0.0 0.0 -3.181843950427e+01 
-2.591235643988e+01 -3.266806774546e+00 0.0 
-3.266806774546e+00 -6.874169304085e+01 0.0 
0.0 0.0 -2.799621484422e+01 
-1.160756227183e+02 1.332488086645e+01 0.0 
1.332488086645e+01 -3.034818486396e+02 0.0 
0.0 0.0 -1.254672414074e+02 
-5.754023215813e+01 2.089422331629e+01 0.0 
2.089422331629e+01 -8.876214770144e+01 0.0 
0.0 0.0 -4.349071395787e+01 
-1.497523114623e+02 2.096749532418e+00 0.0 
2.096749532418e+00 -3.610068544420e+02 0.0 
0.0 0.0 -1.528277497713e+02 
-1.693936227464e+01 1.870766619282e+00 0.0 
1.870766619282e+00 -8.621655385940e+00 0.0 
0.0 0.0 -8.210004823027e+00 
-2.935510758862e+01 1.280823227866e+01 0.0 
1.280823227866e+01 -8.029398626642e+01 0.0 
0.0 0.0 -3.249472815651e+01 
-4.677359148664e+01 1.281231964903e+01 0.0 
1.281231964903e+01 -1.445728707600e+02 0.0 
0.0 0.0 -5.700393867400e+01 
-3.530957476544e+01 2.000767790626e+01 0.0 
2.000767790626e+01 -6.067999550461e+01 0.0 
0.0 0.0 -2.839687108102e+01 
-1.074277991904e+02 9.819008417253e+00 0.0 
9.819008417253e+00 -2.881392352407e+02 0.0 
0.0 0.0 -1.182701103293e+02 
-1.520857479421e+02 4.022281936759e+00 0.0 
4.022281936759e+00 -3.662942506751e+02 0.0 
0.0 0.0 -1.551139995852e+02 
-8.825108339128e+01 2.033144798716e+01 0.0 
2.033144798716e+01 -1.656374037726e+02 0.0 
0.0 0.0 -7.576654614915e+01 
-3.516562582084e+01 8.707600759530e+00 0.0 
8.707600759530e+00 -1.055654202037e+02 0.0 
0.0 0.0 -4.181931380737e+01 
-1.183151386684e+02 1.443844459810e+01 0.0 
1.443844459810e+01 -3.044525648425e+02 0.0 
0.0 0.0 -1.264303110533e+02 
-1.059116151972e+02 -6.074398598654e-01 0.0 
-6.074398598654e-01 -2.740202745497e+02 0.0 
0.0 0.0 -1.135795669241e+02 
-5.668512280740e+01 2.420094763266e+01 0.0 
2.420094763266e+01 -1.183743763070e+02 0.0 
0.0 0.0 -5.211784973431e+01 
-8.152266234444e+01 1.458287554455e+01 0.0 
1.458287554455e+01 -1.490648327835e+02 0.0 
0.0 0.0 -6.877624853840e+01 
-1.258726614916e+02 2.627563091451e+01 0.0 
2.627563091451e+01 -3.023073352046e+02 0.0 
0.0 0.0 -1.280539990089e+02 
-4.845897023416e+01 1.278812209507e+01 0.0 
1.278812209507e+01 -1.452826371068e+02 0.0 
0.0 0.0 -5.772248220227e+01 
-2.824974305108e+01 1.349768624525e+01 0.0 
1.349768624525e+01 -6.687992659683e+01 0.0 
0.0 0.0 -2.813890089438e+01 
-6.958441072624e+01 1.983313104684e+01 0.0 
1.983313104684e+01 -1.158439497520e+02 0.0 
0.0 0.0 -5.522850814346e+01 
-1.048504851725e+02 1.193447074258e+01 0.0 
1.193447074258e+01 -2.381518333086e+02 0.0 
0.0 0.0 -1.025006955443e+02 
-5.655554402694e+01 2.323793922169e+01 0.0 
2.323793922169e+01 -1.328468309952e+02 0.0 
0.0 0.0 -5.642071250665e+01 
-6.619135001132e+01 1.370436920118e+01 0.0 
1.370436920118e+01 -1.927418388713e+02 0.0 
0.0 0.0 -7.727995666479e+01 
-4.798046619850e+01 6.130272024391e-01 0.0 
6.130272024391e-01 -8.212903810833e+01 0.0 
0.0 0.0 -3.863285129205e+01 
-2.488608204759e+01 -2.839228682252e+00 0.0 
-2.839228682252e+00 -5.742827419347e+01 0.0 
0.0 0.0 -2.429430687232e+01 
-5.998601191793e+01 1.459936795958e+01 0.0 
1.459936795958e+01 -9.255540969287e+01 0.0 
0.0 0.0 -4.536242648324e+01 
-3.369608623543e+01 9.486165138643e+00 0.0 
9.486165138643e+00 -1.051106400267e+02 0.0 
0.0 0.0 -4.124201787863e+01 
-2.633076927775e+01 4.853447186890e+00 0.0 
4.853447186890e+00 -7.599877189130e+01 0.0 
0.0 0.0 -3.029886235072e+01 
-2.410463278490e+01 -1.855141209612e+00 0.0 
-1.855141209612e+00 -6.092482451908e+01 0.0 
0.0 0.0 -2.510883719119e+01 
-8.668807703086e+01 1.315138463994e+01 0.0 
1.315138463994e+01 -1.657114775670e+02 0.0 
0.0 0.0 -7.531986637937e+01 
-6.554436602262e+01 2.137630199009e+01 0.0 
2.137630199009e+01 -1.106023119669e+02 0.0 
0.0 0.0 -5.244400339686e+01 
-3.759016709302e+01 1.660988922957e+01 0.0 
1.660988922957e+01 -1.046162081912e+02 0.0 
0.0 0.0 -4.226191258525e+01 
-9.212946254852e+01 1.523110510233e+01 0.0 
1.523110510233e+01 -1.762232043215e+02 0.0 
0.0 0.0 -8.010580006099e+01 
-9.197195772158e+01 2.227478688541e+01 0.0 
2.227478688541e+01 -1.803132705295e+02 0.0 
0.0 0.0 -8.128556847532e+01 
-6.065535920488e+01 2.428524283868e+01 0.0 
2.428524283868e+01 -1.206982374454e+02 0.0 
0.0 0.0 -5.400607899508e+01 
-1.537085330829e+02 6.126351080686e+00 0.0 
6.126351080686e+00 -3.657569359383e+02 0.0 
0.0 0.0 -1.554396407064e+02 
-6.890184914012e+01 1.245747045961e+01 0.0 
1.245747045961e+01 -2.041466113397e+02 0.0 
0.0 0.0 -8.151453814395e+01 
-6.483305241710e+01 2.387924492916e+01 0.0 
2.387924492916e+01 -1.234953525405e+02 0.0 
0.0 0.0 -5.609852148729e+01 
-5.038829104086e+01 1.800406706414e+01 0.0 
1.800406706414e+01 -1.400995813026e+02 0.0 
0.0 0.0 -5.674636170304e+01 
-7.398701456781e+01 1.483006316262e+01 0.0 
1.483006316262e+01 -2.104692742166e+02 0.0 
0.0 0.0 -8.493688663531e+01 
-2.997101448447e+01 5.251153049526e+00 0.0 
5.251153049526e+00 -9.307859743714e+01 0.0 
0.0 0.0 -3.651488357648e+01 
-4.992495982661e+01 4.111520090539e+00 0.0 
4.111520090539e+00 -6.743043960428e+01 0.0 
0.0 0.0 -3.480661982927e+01 
-5.216315102857e+01 1.158845656950e+01 0.0 
1.158845656950e+01 -1.576807963407e+02 0.0 
0.0 0.0 -6.255318421077e+01 
-4.079446472180e+01 1.764424578720e+00 0.0 
1.764424578720e+00 -1.242589999656e+02 0.0 
0.0 0.0 -4.911603940623e+01 
-8.579368108714e+01 1.706867189395e+01 0.0 
1.706867189395e+01 -1.637157846799e+02 0.0 
0.0 0.0 -7.445283973012e+01 
-2.202007196089e+01 8.953140281098e-01 0.0 
8.953140281098e-01 -6.136846665974e+00 0.0 
0.0 0.0 -8.047075588059e+00 
-6.572505885228e+01 1.718274784108e+01 0.0 
1.718274784108e+01 -1.007094521218e+02 0.0 
0.0 0.0 -4.953035329222e+01 
-3.643995157731e+01 8.004227870759e+00 0.0 
8.004227870759e+00 -1.167101224739e+02 0.0 
0.0 0.0 -4.554502221535e+01 
-3.013795082519e+01 1.181643870388e+01 0.0 
1.181643870388e+01 -8.042913369584e+01 0.0 
0.0 0.0 -3.277012535631e+01 
-3.179881732055e+01 4.439714998319e+00 0.0 
4.439714998319e+00 -9.365384568287e+01 0.0 
0.0 0.0 -3.723579890103e+01 
-7.252565617808e+01 1.845761120961e+01 0.0 
1.845761120961e+01 -1.306862655215e+02 0.0 
0.0 0.0 -6.056357650988e+01 
-1.909156062503e+01 -2.194023587690e+00 0.0 
-2.194023587690e+00 -4.145796461632e+01 0.0 
0.0 0.0 -1.776485757240e+01 
-3.643979683222e+01 2.022859759896e+01 0.0 
2.022859759896e+01 -7.744095875688e+01 0.0 
0.0 0.0 -3.376422667673e+01 
-7.694261460054e+01 1.350009965026e+01 0.0 
1.350009965026e+01 -2.220173754474e+02 0.0 
0.0 0.0 -8.928799701439e+01 
-6.475538669225e+01 1.759725200183e+01 0.0 
1.759725200183e+01 -1.093312105626e+02 0.0 
0.0 0.0 -5.182597917645e+01 
-5.850361607235e+01 6.581496580903e+00 0.0 
6.581496580903e+00 -8.710656131985e+01 0.0 
0.0 0.0 -4.328305321766e+01 
-2.241148360400e+01 2.955543277834e+00 0.0 
2.955543277834e+00 -5.140494901309e+01 0.0 
0.0 0.0 -2.174492978513e+01 
-3.851945882678e+01 1.868793777563e+00 0.0 
1.868793777563e+00 -1.233180821738e+02 0.0 
0.0 0.0 -4.815126230018e+01 
-3.858857739107e+01 3.673069361122e-01 0.0 
3.673069361122e-01 -1.155818017466e+02 0.0 
0.0 0.0 -4.585111374131e+01 
-3.291089494113e+01 2.047910767518e+01 0.0 
2.047910767518e+01 -5.961371814891e+01 0.0 
0.0 0.0 -2.735738392701e+01 
-8.431952692373e+01 1.807193699331e+01 0.0 
1.807193699331e+01 -1.511809764141e+02 0.0 
0.0 0.0 -7.025015100135e+01 
-3.755191953438e+01 2.135920276197e+01 0.0 
2.135920276197e+01 -7.815480089311e+01 0.0 
0.0 0.0 -3.431201612825e+01 
-4.772995960632e+01 9.598303560396e+00 0.0 
9.598303560396e+00 -1.513166351545e+02 0.0 
0.0 0.0 -5.931397842825e+01 
-4.416001354588e+01 1.083338268236e+01 0.0 
1.083338268236e+01 -1.394689259837e+02 0.0 
0.0 0.0 -5.468868185886e+01 
-2.455471873898e+01 3.426465735478e+00 0.0 
3.426465735478e+00 -5.848239863929e+01 0.0 
0.0 0.0 -2.451113521348e+01 
-5.291643266767e+01 1.656881944266e+01 0.0 
1.656881944266e+01 -1.534294341165e+02 0.0 
0.0 0.0 -6.150376003526e+01 
-2.452889138604e+01 1.160967107737e+01 0.0 
1.160967107737e+01 -4.802075454962e+01 0.0 
0.0 0.0 -2.136489378070e+01 
-1.127595884085e+02 2.220906784700e+01 0.0 
2.220906784700e+01 -2.527808113175e+02 0.0 
0.0 0.0 -1.092621199178e+02 
-1.154216435908e+02 2.600783063081e+01 0.0 
2.600783063081e+01 -2.609126611700e+02 0.0 
0.0 0.0 -1.125002914282e+02 
-6.006927911069e+01 2.154823277976e+01 0.0 
2.154823277976e+01 -1.485160076509e+02 0.0 
0.0 0.0 -6.217558602848e+01 
-3.179907525055e+01 7.357793277755e+00 0.0 
7.357793277755e+00 -9.958813763842e+01 0.0 
0.0 0.0 -3.901616386669e+01 
-2.864730950953e+01 9.667859500890e+00 0.0 
9.667859500890e+00 -7.648245448506e+01 0.0 
0.0 0.0 -3.113892919838e+01 
-6.866448838862e+01 2.208390920195e+01 0.0 
2.208390920195e+01 -1.399769360160e+02 0.0 
0.0 0.0 -6.219242732139e+01 
-3.088700558001e+01 8.022503649167e+00 0.0 
8.022503649167e+00 -8.859685870969e+01 0.0 
0.0 0.0 -3.544515928691e+01 
-3.641903128369e+01 2.713582889426e-01 0.0 
2.713582889426e-01 -1.146413605254e+02 0.0 
0.0 0.0 -4.491811754274e+01 
-5.693015201433e+01 2.218319148992e+01 0.0 
2.218319148992e+01 -1.179635096393e+02 0.0 
0.0 0.0 -5.206809849609e+01 
-9.844530902323e+01 7.731781491127e+00 0.0 
7.731781491127e+00 -2.172913463298e+02 0.0 
0.0 0.0 -9.432099660592e+01 
-3.853936696962e+01 1.009133684963e+01 0.0 
1.009133684963e+01 -1.221609608442e+02 0.0 
0.0 0.0 -4.781009834415e+01 
-8.419390345905e+01 1.704879451950e+01 0.0 
1.704879451950e+01 -2.326610457588e+02 0.0 
0.0 0.0 -9.465648476536e+01 
-2.520544924029e+01 1.094701329183e+01 0.0 
1.094701329183e+01 -6.026919305048e+01 0.0 
0.0 0.0 -2.524239268723e+01 
-1.517289801849e+02 1.806911795619e+01 0.0 
1.806911795619e+01 -3.637348005313e+02 0.0 
0.0 0.0 -1.542391342149e+02 
-2.957556503412e+01 9.033251256370e+00 0.0 
9.033251256370e+00 -8.827567114231e+01 0.0 
0.0 0.0 -3.495537085293e+01 
-6.045378568484e+01 2.240273726609e+01 0.0 
2.240273726609e+01 -1.348832947204e+02 0.0 
0.0 0.0 -5.820112412159e+01 
-2.487213766437e+01 2.894145647066e+00 0.0 
2.894145647066e+00 -6.870299948629e+01 0.0 
0.0 0.0 -2.767254114520e+01 
-8.769830130401e+01 9.568198973224e+00 0.0 
9.568198973224e+00 -2.486292426724e+02 0.0 
0.0 0.0 -1.004982631929e+02 
-5.044856444949e+01 1.158250393046e+01 0.0 
1.158250393046e+01 -1.569535238495e+02 0.0 
0.0 0.0 -6.182062648970e+01 
-3.962292510920e+01 -2.180239427364e-01 0.0 
-2.180239427364e-01 -1.241864820508e+02 0.0 
0.0 0.0 -4.874282214800e+01 
-6.127385270446e+01 2.277865382809e+01 0.0 
2.277865382809e+01 -1.062893468784e+02 0.0 
0.0 0.0 -4.986895987486e+01 
-1.219760712067e+02 3.036833940067e+01 0.0 
3.036833940067e+01 -2.805744088916e+02 0.0 
0.0 0.0 -1.203651440295e+02 
-4.175185927312e+01 8.767030819035e+00 0.0 
8.767030819035e+00 -1.339451375320e+02 0.0 
0.0 0.0 -5.230909904155e+01 
-7.876463055949e+01 1.409284139320e+01 0.0 
1.409284139320e+01 -2.229103071222e+02 0.0 
0.0 0.0 -9.010248130449e+01 
-2.557689007080e+01 9.384398670061e+00 0.0 
9.384398670061e+00 -6.012144124380e+01 0.0 
0.0 0.0 -2.530949939438e+01 
-6.790828062183e+01 4.519240453909e+00 0.0 
4.519240453909e+00 -1.192050448178e+02 0.0 
0.0 0.0 -5.573399763189e+01 
-1.032699264117e+02 8.200684480666e+00 0.0 
8.200684480666e+00 -2.797246806217e+02 0.0 
0.0 0.0 -1.144983821100e+02 
-2.988621826279e+01 1.536165745795e+01 0.0 
1.536165745795e+01 -6.961703586714e+01 0.0 
0.0 0.0 -2.945097623898e+01 
-6.597245490397e+01 5.361974466560e+00 0.0 
5.361974466560e+00 -1.109071679718e+02 0.0 
0.0 0.0 -5.266388686274e+01 
-1.283288384306e+02 3.190175066138e+01 0.0 
3.190175066138e+01 -3.006713588407e+02 0.0 
0.0 0.0 -1.283000591814e+02 
-1.132750097920e+02 9.455572693285e+00 0.0 
9.455572693285e+00 -2.985314120818e+02 0.0 
0.0 0.0 -1.231419265622e+02 
-1.200773795947e+02 2.917947157191e+01 0.0 
2.917947157191e+01 -2.738912438323e+02 0.0 
0.0 0.0 -1.177905870281e+02 
-6.821346539445e+01 7.430460394831e+00 0.0 
7.430460394831e+00 -1.107892192435e+02 0.0 
0.0 0.0 -5.330080539138e+01 
-9.174312496768e+01 2.438822731511e+01 0.0 
2.438822731511e+01 -1.892499684037e+02 0.0 
0.0 0.0 -8.389792801140e+01 
-2.706414857752e+01 1.509847264830e+01 0.0 
1.509847264830e+01 -5.269163840597e+01 0.0 
0.0 0.0 -2.352673609505e+01 
-5.353535992392e+01 2.233064414053e+01 0.0 
2.233064414053e+01 -8.569301778455e+01 0.0 
0.0 0.0 -4.136851331254e+01 
-6.509300639437e+01 2.101478129463e+01 0.0 
2.101478129463e+01 -1.230207026886e+02 0.0 
0.0 0.0 -5.603411272490e+01 
-6.908170998352e+01 2.302487222625e+01 0.0 
2.302487222625e+01 -1.271379599400e+02 0.0 
0.0 0.0 -5.846590097706e+01 
-5.309721019697e+01 2.214262588061e+01 0.0 
2.214262588061e+01 -1.306558312460e+02 0.0 
0.0 0.0 -5.472591243289e+01 
-1.329540000708e+02 3.144164033660e+01 0.0 
3.144164033660e+01 -3.142559580553e+02 0.0 
0.0 0.0 -1.337629874378e+02 
-6.547826265026e+01 8.285979012736e+00 0.0 
8.285979012736e+00 -1.032957277544e+02 0.0 
0.0 0.0 -5.023219712141e+01 
-5.773740824463e+01 1.577826075424e+01 0.0 
1.577826075424e+01 -7.922486935127e+01 0.0 
0.0 0.0 -4.068868327877e+01 
-4.587491017501e+01 1.057647367248e+01 0.0 
1.057647367248e+01 -1.401400961371e+02 0.0 
0.0 0.0 -5.540450189364e+01 
-3.169256123658e+01 -3.304149139148e+00 0.0 
-3.304149139148e+00 -8.837514908439e+01 0.0 
0.0 0.0 -3.562031309629e+01 
-4.972838125302e+01 2.020101164736e+01 0.0 
2.020101164736e+01 -6.773435222062e+01 0.0 
0.0 0.0 -3.483882004209e+01 
-3.086995549477e+01 1.452368145458e+01 0.0 
1.452368145458e+01 -8.356409720756e+01 0.0 
0.0 0.0 -3.393021581070e+01 
-4.056419842515e+01 2.810600689565e-01 0.0 
2.810600689565e-01 -6.452279300003e+01 0.0 
0.0 0.0 -3.112609742755e+01 
-4.187092813116e+01 -7.284932512093e-02 0.0 
-7.284932512093e-02 -1.251706367366e+02 0.0 
0.0 0.0 -4.971246946033e+01 
-4.018674189835e+01 9.590514971610e+00 0.0 
9.590514971610e+00 -1.227578048277e+02 0.0 
0.0 0.0 -4.848336401781e+01 
-8.849078716603e+01 1.616297481304e+01 0.0 
1.616297481304e+01 -1.711317698277e+02 0.0 
0.0 0.0 -7.748676709813e+01 
-3.185301171629e+01 1.393575416012e+01 0.0 
1.393575416012e+01 -8.387242802678e+01 0.0 
0.0 0.0 -3.431763192292e+01 
-5.718932079328e+01 2.062951370440e+01 0.0 
2.062951370440e+01 -1.027320168483e+02 0.0 
0.0 0.0 -4.757640129248e+01 
-8.168179549440e+01 1.270482552420e+01 0.0 
1.270482552420e+01 -2.337682515497e+02 0.0 
0.0 0.0 -9.423501411323e+01 
-7.827718407406e+01 2.996115489725e+00 0.0 
2.996115489725e+00 -2.247377003754e+02 0.0 
0.0 0.0 -9.050446533484e+01 
-1.398534700950e+02 2.868948547797e+01 0.0 
2.868948547797e+01 -3.334587201155e+02 0.0 
0.0 0.0 -1.415936570631e+02 
-4.243340494375e+01 2.242125538394e+01 0.0 
2.242125538394e+01 -6.351102659374e+01 0.0 
0.0 0.0 -3.138332946125e+01 
-3.536688611945e+01 2.753573187768e+00 0.0 
2.753573187768e+00 -1.134155150621e+02 0.0 
0.0 0.0 -4.423472035446e+01 
-5.540671930616e+01 -2.390215473269e-01 0.0 
-2.390215473269e-01 -1.603330565621e+02 0.0 
0.0 0.0 -6.432193276049e+01 
-2.947834015766e+01 1.770585490837e+01 0.0 
1.770585490837e+01 -5.561595037200e+01 0.0 
0.0 0.0 -2.512828715890e+01 
-2.928371550102e+01 1.584858278132e+01 0.0 
1.584858278132e+01 -6.943694410353e+01 0.0 
0.0 0.0 -2.921619788136e+01 
-9.877295860931e+01 2.326698339685e+01 0.0 
2.326698339685e+01 -2.020651377036e+02 0.0 
0.0 0.0 -8.985142889386e+01 
-6.424182907770e+01 2.447921053934e+01 0.0 
2.447921053934e+01 -1.375760254782e+02 0.0 
0.0 0.0 -6.014535636676e+01 
-3.673760927029e+01 2.205668216319e+01 0.0 
2.205668216319e+01 -6.153329054369e+01 0.0 
0.0 0.0 -2.908126994420e+01 
-4.930828574326e+01 2.003430714063e+01 0.0 
2.003430714063e+01 -8.259950337474e+01 0.0 
0.0 0.0 -3.917233673540e+01 
-1.466818884706e+02 2.288114600104e+01 0.0 
2.288114600104e+01 -3.524544530574e+02 0.0 
0.0 0.0 -1.493409024584e+02 
-1.357497530421e+02 2.235331235102e+01 0.0 
2.235331235102e+01 -3.323012879157e+02 0.0 
0.0 0.0 -1.400153122873e+02 
-9.644288470675e+01 2.038460207408e+01 0.0 
2.038460207408e+01 -2.001886216584e+02 0.0 
0.0 0.0 -8.858945190954e+01 
-8.741956235400e+01 1.697081163086e+01 0.0 
1.697081163086e+01 -1.594264035497e+02 0.0 
0.0 0.0 -7.365378977110e+01 
-7.600626925680e+01 4.057450858909e+00 0.0 
4.057450858909e+00 -2.164527001878e+02 0.0 
0.0 0.0 -8.733769083339e+01 
-4.065399934889e+01 2.083392266173e+01 0.0 
2.083392266173e+01 -9.454651164457e+01 0.0 
0.0 0.0 -4.016015329804e+01 
-3.348320130791e+01 6.534393586816e+00 0.0 
6.534393586816e+00 -1.001145452286e+02 0.0 
0.0 0.0 -3.967932396095e+01 
-3.822432332290e+01 7.411901673450e+00 0.0 
7.411901673450e+00 -1.173365038786e+02 0.0 
0.0 0.0 -4.626824816045e+01 
-6.026773558308e+01 2.406843322039e+01 0.0 
2.406843322039e+01 -1.351560829637e+02 0.0 
0.0 0.0 -5.822714556404e+01 
-8.492227571208e+01 1.089966648945e+01 0.0 
1.089966648945e+01 -2.390724204520e+02 0.0 
0.0 0.0 -9.679840884924e+01 
-7.026169153685e+01 5.776890497499e-01 0.0 
5.776890497499e-01 -1.947740235315e+02 0.0 
0.0 0.0 -7.911071452050e+01 
-9.489809739860e+01 1.774049778938e+01 0.0 
1.774049778938e+01 -1.928517660386e+02 0.0 
0.0 0.0 -8.592495903116e+01 
-3.756051049866e+01 2.394039447738e+00 0.0 
2.394039447738e+00 -1.142646955841e+02 0.0 
0.0 0.0 -4.514756182484e+01 
-4.987664229730e+01 2.071874399808e+01 0.0 
2.071874399808e+01 -1.283257237151e+02 0.0 
0.0 0.0 -5.306070980373e+01 
-6.091136502068e+01 2.177815945562e+01 0.0 
2.177815945562e+01 -1.201149076585e+02 0.0 
0.0 0.0 -5.390788180376e+01 
-4.369596375061e+01 2.005574102299e+01 0.0 
2.005574102299e+01 -1.104777650849e+02 0.0 
0.0 0.0 -4.585211865067e+01 
-1.185051318203e+02 2.781217674091e+01 0.0 
2.781217674091e+01 -2.676825751464e+02 0.0 
0.0 0.0 -1.154563120900e+02 
-1.132637238265e+02 2.383620531099e+01 0.0 
2.383620531099e+01 -2.561746670668e+02 0.0 
0.0 0.0 -1.104315172680e+02 
-1.095784663863e+02 2.380083404402e+01 0.0 
2.380083404402e+01 -2.361614122265e+02 0.0 
0.0 0.0 -1.033219635838e+02 
-8.399631793653e+01 5.291490451354e+00 0.0 
5.291490451354e+00 -2.349347055003e+02 0.0 
0.0 0.0 -9.527930703106e+01 
-8.883382775446e+01 1.257148634417e+01 0.0 
1.257148634417e+01 -1.743351852238e+02 0.0 
0.0 0.0 -7.855070389347e+01 
-2.793657712164e+01 1.445987973127e+01 0.0 
1.445987973127e+01 -6.690637212093e+01 0.0 
0.0 0.0 -2.805288477277e+01 
-4.360798040604e+01 8.396598115055e+00 0.0 
8.396598115055e+00 -1.346502259518e+02 0.0 
0.0 0.0 -5.307746190737e+01 
-2.794774637406e+01 3.734541674382e+00 0.0 
3.734541674382e+00 -7.640930699067e+01 0.0 
0.0 0.0 -3.090711600942e+01 
-3.994918357945e+01 2.229848716181e+01 0.0 
2.229848716181e+01 -7.938406683132e+01 0.0 
0.0 0.0 -3.539997512323e+01 
-4.903611611804e+01 3.119878503796e+00 0.0 
3.119878503796e+00 -6.673841740153e+01 0.0 
0.0 0.0 -3.433236005587e+01 
-6.474488069232e+01 4.528310155596e+00 0.0 
4.528310155596e+00 -1.089172852897e+02 0.0 
0.0 0.0 -5.169864979459e+01 
-1.411967839938e+02 1.756245415937e+01 0.0 
1.756245415937e+01 -3.467354369266e+02 0.0 
0.0 0.0 -1.459796662761e+02 
-9.698538197783e+01 2.245425526123e+01 0.0 
2.245425526123e+01 -2.086960149127e+02 0.0 
0.0 0.0 -9.130441906717e+01 
-6.829913542297e+01 1.592934778081e+01 0.0 
1.592934778081e+01 -1.144461173991e+02 0.0 
0.0 0.0 -5.442357584662e+01 
-7.262521352322e+01 2.135915274080e+01 0.0 
2.135915274080e+01 -1.431815113867e+02 0.0 
0.0 0.0 -6.434201747296e+01 
-2.839200038982e+01 3.313776723004e+00 0.0 
3.313776723004e+00 -8.599559264002e+01 0.0 
0.0 0.0 -3.391627790895e+01 
-2.104226688249e+01 -2.741222899586e+00 0.0 
-2.741222899586e+00 -4.213090433230e+01 0.0 
0.0 0.0 -1.855195136444e+01 
-4.965743036963e+01 1.472899419940e+01 0.0 
1.472899419940e+01 -1.491729470958e+02 0.0 
0.0 0.0 -5.924911323962e+01 
-5.669347989375e+01 2.133157262226e+01 0.0 
2.133157262226e+01 -1.461487087083e+02 0.0 
0.0 0.0 -6.045265658061e+01 
-5.402853138793e+01 1.685603425040e+01 0.0 
1.685603425040e+01 -1.539601363934e+02 0.0 
0.0 0.0 -6.199660033439e+01 
-2.295768280707e+01 1.245533683717e+01 0.0 
1.245533683717e+01 -2.990318588483e+01 0.0 
0.0 0.0 -1.545826060757e+01 
-4.699863998597e+01 1.721867853139e-02 0.0 
1.721867853139e-02 -8.109591195464e+01 0.0 
0.0 0.0 -3.802836558218e+01 
-3.028355279689e+01 -2.366757239923e+00 0.0 
-2.366757239923e+00 -8.120955587399e+01 0.0 
0.0 0.0 -3.304793260127e+01 
-3.131035003387e+01 1.107151094531e+01 0.0 
1.107151094531e+01 -9.298732150375e+01 0.0 
0.0 0.0 -3.688930146129e+01 
-1.554834634757e+02 1.808696010851e+01 0.0 
1.808696010851e+01 -3.641280814434e+02 0.0 
0.0 0.0 -1.554834634757e+02 
-9.108615334519e+01 1.725776652570e+01 0.0 
1.725776652570e+01 -2.467666377705e+02 0.0 
0.0 0.0 -1.009558373347e+02 
-5.459697590339e+01 1.103440154151e+01 0.0 
1.103440154151e+01 -7.705889255477e+01 0.0 
0.0 0.0 -3.909676053745e+01 
-2.182713091918e+01 -8.842634401577e-01 0.0 
-8.842634401577e-01 -5.934017014702e+01 0.0 
0.0 0.0 -2.395019031986e+01 
-5.279443245626e+01 2.117890597115e+01 0.0 
2.117890597115e+01 -1.303379491291e+02 0.0 
0.0 0.0 -5.453971447562e+01 
-5.113430646296e+01 1.484535875638e+01 0.0 
1.484535875638e+01 -1.498233553090e+02 0.0 
0.0 0.0 -5.988729853158e+01 
-7.317801368979e+01 2.188240614073e+01 0.0 
2.188240614073e+01 -1.315860828725e+02 0.0 
0.0 0.0 -6.102922896868e+01 
-1.237077785166e+02 3.099807583352e+01 0.0 
3.099807583352e+01 -2.871565108082e+02 0.0 
0.0 0.0 -1.228592867974e+02 
-5.318338541096e+01 1.866357261062e+01 0.0 
1.866357261062e+01 -8.495123474470e+01 0.0 
0.0 0.0 -4.104038604670e+01 
-6.834782435787e+01 2.450531355818e+01 0.0 
2.450531355818e+01 -1.402875560619e+02 0.0 
0.0 0.0 -6.219061412593e+01 
-6.862230256032e+01 -7.148966689879e-01 0.0 
-7.148966689879e-01 -1.938019339786e+02 0.0 
0.0 0.0 -7.832727096168e+01 
-9.092967711335e+01 1.552469585429e+01 0.0 
1.552469585429e+01 -1.789916707886e+02 0.0 
0.0 0.0 -8.057640437057e+01 
-8.657921452246e+01 4.127240268469e+00 0.0 
4.127240268469e+00 -2.434484667721e+02 0.0 
0.0 0.0 -9.860830438838e+01 
-1.265145690629e+02 3.183501866496e+01 0.0 
3.183501866496e+01 -2.939262056336e+02 0.0 
0.0 0.0 -1.257322324090e+02 
-1.146909201696e+02 2.687668059573e+01 0.0 
2.687668059573e+01 -2.689454803958e+02 0.0 
0.0 0.0 -1.146909201696e+02 
-1.056566199651e+02 2.006851710458e+01 0.0 
2.006851710458e+01 -2.478654465853e+02 0.0 
0.0 0.0 -1.056566199651e+02 
-1.089591418184e+02 2.356255099954e+01 0.0 
2.356255099954e+01 -2.555713309095e+02 0.0 
0.0 0.0 -1.089591418184e+02 
-7.641105841383e+01 2.036502358309e+01 0.0 
2.036502358309e+01 -1.470524664936e+02 0.0 
0.0 0.0 -6.663905747224e+01 
-9.383865770672e+01 1.830195856079e+01 0.0 
1.830195856079e+01 -1.807465369461e+02 0.0 
0.0 0.0 -8.197555839584e+01 
-1.002633075011e+02 2.230672595869e+01 0.0 
2.230672595869e+01 -2.156884235456e+02 0.0 
0.0 0.0 -9.438551931399e+01 
-4.280155346219e+01 1.952494595934e+01 0.0 
1.952494595934e+01 -1.100045833599e+02 0.0 
0.0 0.0 -4.544184104661e+01 
-3.948198894107e+01 2.001755498748e+01 0.0 
2.001755498748e+01 -9.390080981161e+01 0.0 
0.0 0.0 -3.961483962580e+01 
-6.651772387181e+01 1.509118588349e-01 0.0 
1.509118588349e-01 -1.841465018046e+02 0.0 
0.0 0.0 -7.479926770294e+01 
-9.776731006186e+01 2.063686143434e+01 0.0 
2.063686143434e+01 -1.946823039211e+02 0.0 
0.0 0.0 -8.733488419490e+01 
-1.305728376868e+02 3.183987207133e+01 0.0 
3.183987207133e+01 -3.074558045029e+02 0.0 
0.0 0.0 -1.310085926569e+02 
-9.297028208498e+01 1.481726605956e+01 0.0 
1.481726605956e+01 -1.869891714124e+02 0.0 
0.0 0.0 -8.358783604921e+01 
-8.230255700313e+01 1.601909548485e+01 0.0 
1.601909548485e+01 -2.285204120221e+02 0.0 
0.0 0.0 -9.284689070756e+01 
-9.602543553974e+01 1.747898188861e+01 0.0 
1.747898188861e+01 -1.888068701883e+02 0.0 
0.0 0.0 -8.504969171841e+01 
-8.795033180977e+01 2.369885182958e+01 0.0 
2.369885182958e+01 -2.189909539612e+02 0.0 
0.0 0.0 -9.168238573128e+01 
-5.283207487664e+01 1.925853859859e+01 0.0 
1.925853859859e+01 -1.429852407728e+02 0.0 
0.0 0.0 -5.834519469482e+01 
-3.906056339860e+01 2.089518086290e+01 0.0 
2.089518086290e+01 -7.879503126321e+01 0.0 
0.0 0.0 -3.495667839854e+01 
-2.628695405128e+01 8.809872971473e+00 0.0 
8.809872971473e+00 -7.170033166413e+01 0.0 
0.0 0.0 -2.899618571462e+01 
-9.810286183888e+01 1.249056410403e+01 0.0 
1.249056410403e+01 -2.206313562452e+02 0.0 
0.0 0.0 -9.522026542522e+01 
-4.009183010415e+01 1.820803112479e+01 0.0 
1.820803112479e+01 -1.076526229522e+02 0.0 
0.0 0.0 -4.392333591691e+01 
-1.182273184185e+02 2.664248122086e+01 0.0 
2.664248122086e+01 -2.800653143771e+02 0.0 
0.0 0.0 -1.190877898387e+02 
-6.504580524739e+01 -1.199344957175e+00 0.0 
-1.199344957175e+00 -1.832325576785e+02 0.0 
0.0 0.0 -7.408350887775e+01 
-3.949264123176e+01 -1.149065812878e+00 0.0 
-1.149065812878e+00 -1.155640618530e+02 0.0 
0.0 0.0 -4.611701092542e+01 
-1.458822280980e+02 1.595989481865e+01 0.0 
1.595989481865e+01 -3.504284322293e+02 0.0 
0.0 0.0 -1.484931980982e+02 
-3.313447313166e+01 1.303077843071e+01 0.0 
1.303077843071e+01 -9.697687853185e+01 0.0 
0.0 0.0 -3.863340549905e+01 
-1.176141569007e+02 2.820994065689e+01 0.0 
2.820994065689e+01 -2.757663661016e+02 0.0 
0.0 0.0 -1.176141569007e+02 
-1.054294301608e+02 2.079132390114e+01 0.0 
2.079132390114e+01 -2.354913740771e+02 0.0 
0.0 0.0 -1.018762412714e+02 
-6.806167752579e+01 2.265675427762e+01 0.0 
2.265675427762e+01 -1.537181998137e+02 0.0 
0.0 0.0 -6.613396320183e+01 
-1.436658526532e+01 -1.938194259804e+00 0.0 
-1.938194259804e+00 -2.480349829608e+01 0.0 
0.0 0.0 -1.177807389724e+01 
-1.235361560776e+02 2.975675488960e+01 0.0 
2.975675488960e+01 -2.895843641810e+02 0.0 
0.0 0.0 -1.235361560776e+02 
-1.430563400986e+02 1.906485041817e+01 0.0 
1.906485041817e+01 -3.435300374393e+02 0.0 
0.0 0.0 -1.455759132614e+02 
-3.736146635815e+01 -1.490817489559e+00 0.0 
-1.490817489559e+00 -1.145868529738e+02 0.0 
0.0 0.0 -4.518449579957e+01 
-8.727961359924e+01 1.533300420467e+01 0.0 
1.533300420467e+01 -2.409660186879e+02 0.0 
0.0 0.0 -9.807368968614e+01 
-1.415793065766e+02 2.731794856569e+01 0.0 
2.731794856569e+01 -3.387592917453e+02 0.0 
0.0 0.0 -1.437015794966e+02 
-1.087663919938e+01 -7.859771102023e-01 0.0 
-7.859771102023e-01 -8.882282864395e+00 0.0 
0.0 0.0 -6.497589761919e+00 
-4.622031505484e+01 1.875305579038e+01 0.0 
1.875305579038e+01 -1.254125458769e+02 0.0 
0.0 0.0 -5.108985827953e+01 
-7.220585220505e+01 2.267175134969e+01 0.0 
2.267175134969e+01 -1.565446999363e+02 0.0 
0.0 0.0 -6.822516564240e+01 
-6.399878070303e+01 2.227959020749e+01 0.0 
2.227959020749e+01 -1.511086817571e+02 0.0 
0.0 0.0 -6.413223873803e+01 
-6.450262869182e+01 2.245051874788e+01 0.0 
2.245051874788e+01 -1.372797123669e+02 0.0 
0.0 0.0 -6.013470231760e+01 
-2.773793537152e+01 1.082922561071e+01 0.0 
1.082922561071e+01 -7.634727332782e+01 0.0 
0.0 0.0 -3.082556260980e+01 
-1.297764709390e+02 3.023088621314e+01 0.0 
3.023088621314e+01 -3.041450988577e+02 0.0 
0.0 0.0 -1.297764709390e+02 
-4.958455308811e+01 9.453678496616e+00 0.0 
9.453678496616e+00 -1.520695037214e+02 0.0 
0.0 0.0 -6.009621704287e+01 
-2.359778657556e+01 1.232307045161e+00 0.0 
1.232307045161e+00 -5.149349650403e+01 0.0 
0.0 0.0 -2.212738492388e+01 
-1.505473704307e+02 6.798092125644e+00 0.0 
6.798092125644e+00 -3.641479221702e+02 0.0 
0.0 0.0 -1.540085877803e+02 
-1.652049524196e+01 -1.853467918096e+00 0.0 
-1.853467918096e+00 -2.523340559495e+01 0.0 
0.0 0.0 -1.212617025107e+01 
-4.556074184515e+01 2.081603518447e+01 0.0 
2.081603518447e+01 -8.090178744039e+01 0.0 
0.0 0.0 -3.753875878566e+01 
-2.284868148507e+01 -2.343294416507e+00 0.0 
-2.343294416507e+00 -5.842818243663e+01 0.0 
0.0 0.0 -2.398305917651e+01 
-4.836473731915e+01 1.534190726752e+01 0.0 
1.534190726752e+01 -6.627462011294e+01 0.0 
0.0 0.0 -3.399180722963e+01 
-1.485712998496e+02 2.124170480482e+01 0.0 
2.124170480482e+01 -3.565756882895e+02 0.0 
0.0 0.0 -1.511440964417e+02 
-1.360169874265e+02 2.947611559121e+01 0.0 
2.947611559121e+01 -3.187063039952e+02 0.0 
0.0 0.0 -1.360169874265e+02 
-6.888233559971e+01 1.983040497417e+01 0.0 
1.983040497417e+01 -1.264184264892e+02 0.0 
0.0 0.0 -5.819022862668e+01 
-1.896080791722e+01 -2.522925767983e+00 0.0 
-2.522925767983e+00 -4.188409832564e+01 0.0 
0.0 0.0 -1.785347187286e+01 
-2.105280806105e+01 8.740993122803e-01 0.0 
8.740993122803e-01 -4.266556796404e+01 0.0 
0.0 0.0 -1.871551280753e+01 
-2.581804552942e+01 -2.674583306012e+00 0.0 
-2.674583306012e+00 -5.796036688191e+01 0.0 
0.0 0.0 -2.473352372340e+01 
-1.263070081545e+02 7.880126561338e+00 0.0 
7.880126561338e+00 -3.190710931230e+02 0.0 
0.0 0.0 -1.332134303833e+02 
-4.875624568178e+01 3.727861828270e+00 0.0 
3.727861828270e+00 -6.795296334063e+01 0.0 
0.0 0.0 -3.461276270672e+01 
-6.112613792234e+01 1.396648639153e+01 0.0 
1.396648639153e+01 -8.622637170827e+01 0.0 
0.0 0.0 -4.380575288918e+01 
-1.416133097262e+02 2.788276374590e+01 0.0 
2.788276374590e+01 -3.317643893612e+02 0.0 
0.0 0.0 -1.416133097262e+02 
-4.682029414539e+01 2.877778233197e+00 0.0 
2.877778233197e+00 -6.705524451889e+01 0.0 
0.0 0.0 -3.376266159928e+01 
-1.101921566544e+02 1.994661132501e+01 0.0 
1.994661132501e+01 -2.487351660348e+02 0.0 
0.0 0.0 -1.072781968068e+02 
-9.155832095584e+01 2.192633493675e+01 0.0 
2.192633493675e+01 -2.328637254112e+02 0.0 
0.0 0.0 -9.692661391011e+01 
-5.948220795339e+01 2.858986077886e+00 0.0 
2.858986077886e+00 -9.855599194483e+01 0.0 
0.0 0.0 -4.701145996946e+01 
-3.061693785964e+01 1.734180487500e+01 0.0 
1.734180487500e+01 -7.138250713445e+01 0.0 
0.0 0.0 -3.019983349823e+01 
-8.542836340522e+01 1.456282578065e+01 0.0 
1.456282578065e+01 -2.400260727447e+02 0.0 
0.0 0.0 -9.723633084497e+01 
-2.629109084157e+01 5.265855932140e+00 0.0 
5.265855932140e+00 -6.641436836851e+01 0.0 
0.0 0.0 -2.741163776302e+01 
-1.463344242767e+02 2.550309612231e+01 0.0 
2.550309612231e+01 -3.427803233122e+02 0.0 
0.0 0.0 -1.463344242767e+02 
-1.117547918560e+02 2.521544020109e+01 0.0 
2.521544020109e+01 -2.620945143307e+02 0.0 
0.0 0.0 -1.117547918560e+02 
-1.073234267329e+02 2.190760308383e+01 0.0 
2.190760308383e+01 -2.517546623767e+02 0.0 
0.0 0.0 -1.073234267329e+02 
-8.875371544550e+01 5.167530619605e+00 0.0 
5.167530619605e+00 -2.445915968487e+02 0.0 
0.0 0.0 -9.960359368825e+01 
-6.270735991522e+01 -1.252547775001e-01 0.0 
-1.252547775001e-01 -1.733108692704e+02 0.0 
0.0 0.0 -7.040546875568e+01 
-5.342482652368e+01 1.977341059232e+01 0.0 
1.977341059232e+01 -1.433494465255e+02 0.0 
0.0 0.0 -5.863228191475e+01 
-9.142585594812e+01 3.922729868069e+00 0.0 
3.922729868069e+00 -2.528142893815e+02 0.0 
0.0 0.0 -1.028720435989e+02 
-1.502489176891e+02 2.275879330673e+01 0.0 
2.275879330673e+01 -3.519141412745e+02 0.0 
0.0 0.0 -1.502489176891e+02 
-3.244973581477e+01 1.019932792207e+01 0.0 
1.019932792207e+01 -9.328424591665e+01 0.0 
0.0 0.0 -3.732019451943e+01 
-4.183182831056e+01 1.188358965143e+00 0.0 
1.188358965143e+00 -1.329603944391e+02 0.0 
0.0 0.0 -5.203766682489e+01 
-4.529296495376e+01 7.093649618033e-01 0.0 
7.093649618033e-01 -1.423848491173e+02 0.0 
0.0 0.0 -5.590334422130e+01 
-6.311275873195e+01 3.073112899500e+00 0.0 
3.073112899500e+00 -1.093172969384e+02 0.0 
0.0 0.0 -5.132901670112e+01 
-1.532019917737e+02 1.651153684777e+01 0.0 
1.651153684777e+01 -3.667479249153e+02 0.0 
0.0 0.0 -1.555849750067e+02 
-2.296046821625e+01 -2.570019507927e+00 0.0 
-2.570019507927e+00 -4.162679444797e+01 0.0 
0.0 0.0 -1.897617879927e+01 
-1.538839055717e+02 1.956307822744e+01 0.0 
1.956307822744e+01 -3.603957796673e+02 0.0 
0.0 0.0 -1.538839055717e+02 
-4.286938387762e+01 -6.594386781771e-01 0.0 
-6.594386781771e-01 -1.331500445568e+02 0.0 
0.0 0.0 -5.240582853031e+01 
-1.207736764263e+02 2.923256372858e+01 0.0 
2.923256372858e+01 -2.831385783280e+02 0.0 
0.0 0.0 -1.207736764263e+02 
-1.027461597950e+02 2.498543499167e+01 0.0 
2.498543499167e+01 -2.173928352499e+02 0.0 
0.0 0.0 -9.564169851345e+01 
-1.280294090338e+01 -7.582687080504e-01 0.0 
-7.582687080504e-01 -7.915327098607e+00 0.0 
0.0 0.0 -5.815480400597e+00 
-4.948025241860e+01 1.767890243536e+01 0.0 
1.767890243536e+01 -1.396441459279e+02 0.0 
0.0 0.0 -5.633731950396e+01 
-9.426564523339e+01 1.458217174069e+01 0.0 
1.458217174069e+01 -1.853720540700e+02 0.0 
0.0 0.0 -8.349130979101e+01 
-1.267811460983e+02 3.021377650898e+01 0.0 
3.021377650898e+01 -2.971560075627e+02 0.0 
0.0 0.0 -1.267811460983e+02 
-7.670930586030e+01 2.336016654333e+01 0.0 
2.336016654333e+01 -1.477432397880e+02 0.0 
0.0 0.0 -6.693576369449e+01 
-9.602199521488e+01 2.146944844289e+01 0.0 
2.146944844289e+01 -2.468864636660e+02 0.0 
0.0 0.0 -1.024725376643e+02 
-2.371187670702e+01 8.850974476974e+00 0.0 
8.850974476974e+00 -5.556246133808e+01 0.0 
0.0 0.0 -2.338230141353e+01 
-1.342572144589e+02 1.704210969079e+01 0.0 
1.704210969079e+01 -3.304800536323e+02 0.0 
0.0 0.0 -1.390211804274e+02 
-4.633908392275e+01 -8.745339310706e-01 0.0 
-8.745339310706e-01 -1.421369802993e+02 0.0 
0.0 0.0 -5.614281926662e+01 
-4.756876155554e+01 9.223932823673e-01 0.0 
9.223932823673e-01 -1.433926099684e+02 0.0 
0.0 0.0 -5.688841145719e+01 
-2.059981802468e+01 -2.000302707985e+00 0.0 
-2.000302707985e+00 -2.581427995473e+01 0.0 
0.0 0.0 -1.352422939382e+01 
-1.328876954715e+02 2.997104565208e+01 0.0 
2.997104565208e+01 -3.114046227669e+02 0.0 
0.0 0.0 -1.328876954715e+02 
-2.946118309871e+01 5.829361147438e+00 0.0 
5.829361147438e+00 -8.306320001578e+01 0.0 
0.0 0.0 -3.335731493435e+01 
-1.197763590810e+02 1.234765331895e+01 0.0 
1.234765331895e+01 -3.080845167708e+02 0.0 
0.0 0.0 -1.279582627555e+02 
-5.674164449499e+01 4.033644153769e+00 0.0 
4.033644153769e+00 -8.913394107833e+01 0.0 
0.0 0.0 -4.336267567200e+01 
-4.286120440123e+01 -1.741703731153e+00 0.0 
-1.741703731153e+00 -1.229665834340e+02 0.0 
0.0 0.0 -4.934833635055e+01 
-4.408806874365e+01 1.307962339941e+00 0.0 
1.307962339941e+00 -1.339424530462e+02 0.0 
0.0 0.0 -5.300915653694e+01 
-7.256590859554e+01 2.409023584705e+01 0.0 
2.409023584705e+01 -1.436849495165e+02 0.0 
0.0 0.0 -6.447525743360e+01 
-1.440909908648e+02 2.682321980848e+01 0.0 
2.682321980848e+01 -3.375456453512e+02 0.0 
0.0 0.0 -1.440909908648e+02 
-6.514046221543e+01 -1.277337127882e+00 0.0 
-1.277337127882e+00 -1.812770841986e+02 0.0 
0.0 0.0 -7.352526392421e+01 
-1.014055104955e+02 7.801164884975e+00 0.0 
7.801164884975e+00 -2.721863445797e+02 0.0 
0.0 0.0 -1.116775565226e+02 
-6.369128933791e+01 2.093993782802e+01 0.0 
2.093993782802e+01 -1.637765060186e+02 0.0 
0.0 0.0 -6.784033860696e+01 
-8.618217684421e+01 8.628236086273e+00 0.0 
8.628236086273e+00 -2.418461212047e+02 0.0 
0.0 0.0 -9.800848941467e+01 
-4.632996863686e+01 2.823968299529e+00 0.0 
2.823968299529e+00 -1.421437184283e+02 0.0 
0.0 0.0 -5.614210611955e+01 
-9.245187526373e+01 6.540752777254e+00 0.0 
6.540752777254e+00 -2.535007780437e+02 0.0 
0.0 0.0 -1.033857959922e+02 
-6.021399444838e+01 2.262876854396e+01 0.0 
2.262876854396e+01 -1.487839851801e+02 0.0 
0.0 0.0 -6.229939388856e+01 
-8.768594413573e+01 2.498447938402e+01 0.0 
2.498447938402e+01 -2.075611146050e+02 0.0 
0.0 0.0 -8.817411762222e+01 
-9.442112549941e+01 1.567417862968e+01 0.0 
1.567417862968e+01 -2.581353647111e+02 0.0 
0.0 0.0 -1.053669470631e+02 
-5.993180395636e+01 1.973225583293e+01 0.0 
1.973225583293e+01 -1.606750715835e+02 0.0 
0.0 0.0 -6.578206266195e+01 
-6.461428125318e+01 -8.635547547239e-01 0.0 
-8.635547547239e-01 -1.849710545878e+02 0.0 
0.0 0.0 -7.447560075230e+01 
-3.417968214557e+01 1.233268987414e+01 0.0 
1.233268987414e+01 -9.727658488518e+01 0.0 
0.0 0.0 -3.903688010922e+01 
-6.140618460883e+01 -1.524789334063e+00 0.0 
-1.524789334063e+00 -1.724584679037e+02 0.0 
0.0 0.0 -6.975939575375e+01 
-9.247736000277e+01 2.324616292217e+01 0.0 
2.324616292217e+01 -2.335841361518e+02 0.0 
0.0 0.0 -9.741844884638e+01 
-7.339407335145e+01 1.159842263141e+01 0.0 
1.159842263141e+01 -2.158059225904e+02 0.0 
0.0 0.0 -8.635999878254e+01 
-1.502588957571e+02 1.974322213249e+01 0.0 
1.974322213249e+01 -3.603525493448e+02 0.0 
0.0 0.0 -1.527834335306e+02 
-9.818431720434e+01 1.676922811438e+01 0.0 
1.676922811438e+01 -1.972696201746e+02 0.0 
0.0 0.0 -8.823618121369e+01 
-3.834993413823e+01 -3.001088928216e+00 0.0 
-3.001088928216e+00 -1.115483781646e+02 0.0 
0.0 0.0 -4.456949369086e+01 
-1.522135477372e+02 2.109132802143e+01 0.0 
2.109132802143e+01 -3.564982780534e+02 0.0 
0.0 0.0 -1.522135477372e+02 
-1.397962491070e+02 1.919665337949e+01 0.0 
1.919665337949e+01 -3.434300470327e+02 0.0 
0.0 0.0 -1.445678888419e+02 
-5.667885374558e+01 1.550290329672e+01 0.0 
1.550290329672e+01 -1.668610923240e+02 0.0 
0.0 0.0 -6.666198382088e+01 
-1.632997451999e+01 -1.963878206446e+00 0.0 
-1.963878206446e+00 -2.538598718498e+01 0.0 
0.0 0.0 -1.249257203319e+01 
-1.543038076194e+02 1.495442241803e+01 0.0 
1.495442241803e+01 -3.693187656548e+02 0.0 
0.0 0.0 -1.566867719823e+02 
-9.972142294244e+01 1.963038274579e+01 0.0 
1.963038274579e+01 -2.017561243716e+02 0.0 
0.0 0.0 -9.004326419421e+01 
-4.052323459623e+01 -1.743113555478e+00 0.0 
-1.743113555478e+00 -1.235054624608e+02 0.0 
0.0 0.0 -4.880860911712e+01 
-1.567783973660e+02 1.658613238813e+01 0.0 
1.658613238813e+01 -3.671495938540e+02 0.0 
0.0 0.0 -1.567783973660e+02 
-9.742820621803e+01 6.357270886147e+00 0.0 
6.357270886147e+00 -2.632772513772e+02 0.0 
0.0 0.0 -1.078116372786e+02 
-4.248797319391e+01 2.097132310909e+01 0.0 
2.097132310909e+01 -9.577713207800e+01 0.0 
0.0 0.0 -4.107953158157e+01 
-6.365631360187e+01 1.291849665898e+01 0.0 
1.291849665898e+01 -9.897863870281e+01 0.0 
0.0 0.0 -4.839048569141e+01 
-7.072238116037e+01 1.287917036650e+01 0.0 
1.287917036650e+01 -2.049970548523e+02 0.0 
0.0 0.0 -8.231583080381e+01 
-8.050638927020e+01 3.991962736570e+00 0.0 
3.991962736570e+00 -2.258898750939e+02 0.0 
0.0 0.0 -9.151887930922e+01 
-8.984821736781e+01 1.039498617175e+01 0.0 
1.039498617175e+01 -2.497317398952e+02 0.0 
0.0 0.0 -1.014739871789e+02 
-8.031852581321e+01 1.553966839061e+01 0.0 
1.553966839061e+01 -1.377759390085e+02 0.0 
0.0 0.0 -6.502833944652e+01 
-4.943791081549e+01 2.172631099051e+01 0.0 
2.172631099051e+01 -9.888233899394e+01 0.0 
0.0 0.0 -4.409607494283e+01 
-9.842970809185e+01 1.746830846484e+01 0.0 
1.746830846484e+01 -2.640744842789e+02 0.0 
0.0 0.0 -1.083512577112e+02 
-5.422412165450e+01 5.961086671440e-01 0.0 
5.961086671440e-01 -9.795666437689e+01 0.0 
0.0 0.0 -4.525423580942e+01 
-6.640039451375e+01 3.451674521281e-01 0.0 
3.451674521281e-01 -1.859882077903e+02 0.0 
0.0 0.0 -7.531658069123e+01 
-9.041726616194e+01 1.385314403318e+01 0.0 
1.385314403318e+01 -2.518205908819e+02 0.0 
0.0 0.0 -1.022713571131e+02 
-4.848479562465e+01 -3.638983955479e-01 0.0 
-3.638983955479e-01 -1.431423994827e+02 0.0 
0.0 0.0 -5.708815853219e+01 
-9.735643518487e+01 1.486765979142e+00 0.0 
1.486765979142e+00 -2.597559929024e+02 0.0 
0.0 0.0 -1.067337284262e+02 
-1.461722863339e+01 -7.604616049633e-01 0.0 
-7.604616049633e-01 -8.058272498953e+00 0.0 
0.0 0.0 -6.402650339703e+00 
-3.614848257615e+01 1.446294999391e+01 0.0 
1.446294999391e+01 -1.009470641780e+02 0.0 
0.0 0.0 -4.072866402624e+01 
-4.509843540729e+01 -2.822033711132e-01 0.0 
-2.822033711132e-01 -1.341727931720e+02 0.0 
0.0 0.0 -5.338136857379e+01 
-7.267237824115e+01 -5.536109654359e-01 0.0 
-5.536109654359e-01 -2.026349105130e+02 0.0 
0.0 0.0 -8.219218662625e+01 
-6.007821422039e+01 1.725036041988e+01 0.0 
1.725036041988e+01 -1.710881877919e+02 0.0 
0.0 0.0 -6.894992060368e+01 
-9.531671072632e+01 5.250177155209e+00 0.0 
5.250177155209e+00 -2.621481184923e+02 0.0 
0.0 0.0 -1.068394487656e+02 
-6.110677333764e+01 3.943742938784e+00 0.0 
3.943742938784e+00 -1.012919401103e+02 0.0 
0.0 0.0 -4.831961403438e+01 
-4.257102182416e+01 -1.196261018636e+00 0.0 
-1.196261018636e+00 -1.244946922673e+02 0.0 
0.0 0.0 -4.971971422743e+01 
-1.579710396403e+02 1.512980774688e+01 0.0 
1.512980774688e+01 -3.699324258273e+02 0.0 
0.0 0.0 -1.579710396403e+02 
-7.193506650501e+01 2.473303289386e+01 0.0 
2.473303289386e+01 -1.568338519290e+02 0.0 
0.0 0.0 -6.823067553021e+01 
-7.672672872821e+01 -4.293675044084e-01 0.0 
-4.293675044084e-01 -2.113204806272e+02 0.0 
0.0 0.0 -8.601416280662e+01 
-6.785406378635e+01 2.437839503679e+01 0.0 
2.437839503679e+01 -1.539744320163e+02 0.0 
0.0 0.0 -6.614854874080e+01 
-7.414431242473e+01 7.678114280660e-01 0.0 
7.678114280660e-01 -2.035407181201e+02 0.0 
0.0 0.0 -8.290550916344e+01 
-1.222147861253e+01 -8.095628352654e-01 0.0 
-8.095628352654e-01 -8.921583805084e+00 0.0 
0.0 0.0 -6.917164704532e+00 
-6.935246665885e+01 1.532395324262e+01 0.0 
1.532395324262e+01 -1.082199754191e+02 0.0 
0.0 0.0 -5.287173262339e+01 
-6.167542198392e+01 -1.176510248233e+00 0.0 
-1.176510248233e+00 -1.695063151366e+02 0.0 
0.0 0.0 -6.895452113614e+01 
-5.493621880210e+00 -4.976261135469e-01 0.0 
-4.976261135469e-01 -8.745320725392e+00 0.0 
0.0 0.0 -4.826357570327e+00 
-7.280956186740e+01 -8.698285809277e-01 0.0 
-8.698285809277e-01 -2.005877513783e+02 0.0 
0.0 0.0 -8.161919397371e+01 
-1.045435361947e+02 6.369766964012e+00 0.0 
6.369766964012e+00 -2.808353295966e+02 0.0 
0.0 0.0 -1.152136597374e+02 
-8.234041649674e+01 2.806952581271e+00 0.0 
2.806952581271e+00 -1.740657660731e+02 0.0 
0.0 0.0 -7.652185477094e+01 
-8.139476989616e+01 9.068785807157e+00 0.0 
9.068785807157e+00 -2.315854791694e+02 0.0 
0.0 0.0 -9.349407471966e+01 
-8.397297514879e+01 7.827489941349e+00 0.0 
7.827489941349e+00 -2.407154151218e+02 0.0 
0.0 0.0 -9.700651708117e+01 
-5.322125833203e+01 1.177948193035e+01 0.0 
1.177948193035e+01 -6.587434725284e+01 0.0 
0.0 0.0 -3.532868167546e+01 
-3.854994563362e+01 1.195730491183e+00 0.0 
1.195730491183e+00 -4.800477824513e+01 0.0 
0.0 0.0 -2.556641716362e+01 
-1.014319208185e+02 1.618946160490e+01 0.0 
1.618946160490e+01 -2.259845400088e+02 0.0 
0.0 0.0 -9.782493824819e+01 
-6.394208711639e+01 2.365144048590e+01 0.0 
2.365144048590e+01 -1.513402509140e+02 0.0 
0.0 0.0 -6.418470140912e+01 
-4.357189665222e+00 -3.703805978721e-01 0.0 
-3.703805978721e-01 -7.347950457277e+00 0.0 
0.0 0.0 -3.111542036750e+00 
-2.631920661490e+01 -2.108478571628e+00 0.0 
-2.108478571628e+00 -6.920446917789e+01 0.0 
0.0 0.0 -2.825710273784e+01 
-1.557193605715e+01 -1.952225429122e+00 0.0 
-1.952225429122e+00 -2.515031296252e+01 0.0 
0.0 0.0 -1.221018796330e+01 
-4.269738072319e+01 -2.007882429419e+00 0.0 
-2.007882429419e+00 -1.202469139235e+02 0.0 
0.0 0.0 -4.848328839399e+01 
-1.036278547986e+02 2.676814153719e+01 0.0 
2.676814153719e+01 -2.348598698610e+02 0.0 
0.0 0.0 -1.011463173979e+02 
-8.403854037119e+01 4.627183560165e+00 0.0 
4.627183560165e+00 -1.751002872692e+02 0.0 
0.0 0.0 -7.734164829212e+01 
-1.201039138479e+02 5.312389220377e+00 0.0 
5.312389220377e+00 -3.086309817885e+02 0.0 
0.0 0.0 -1.282204686909e+02 
-4.862218822513e+01 -1.295385739079e+00 0.0 
-1.295385739079e+00 -1.363895933364e+02 0.0 
0.0 0.0 -5.510353446847e+01 
-9.868323219893e+01 2.807827017228e+00 0.0 
2.807827017228e+00 -2.606222679983e+02 0.0 
0.0 0.0 -1.073916500592e+02 
-1.235471072835e+02 1.062522248650e+01 0.0 
1.062522248650e+01 -3.170286022187e+02 0.0 
0.0 0.0 -1.317727128507e+02 
-2.668348333080e+01 1.726024855008e+00 0.0 
1.726024855008e+00 -6.919302588634e+01 0.0 
0.0 0.0 -2.836295276514e+01 
-6.206206162916e+01 5.279578950928e-01 0.0 
5.279578950928e-01 -1.697157875619e+02 0.0 
0.0 0.0 -6.913335475730e+01 
-5.077039789943e+01 -1.047197220355e+00 0.0 
-1.047197220355e+00 -1.397818743775e+02 0.0 
0.0 0.0 -5.676568168309e+01 
-1.551967763511e+02 1.335688023656e+01 0.0 
1.335688023656e+01 -3.713259956792e+02 0.0 
0.0 0.0 -1.575568316091e+02 
-1.589760206099e+02 1.367952282809e+01 0.0 
1.367952282809e+01 -3.722773814232e+02 0.0 
0.0 0.0 -1.589760206099e+02 
-6.919186106204e+01 4.383429993471e-01 0.0 
4.383429993471e-01 -1.883129857236e+02 0.0 
0.0 0.0 -7.685145403570e+01 
-7.811623443484e+01 9.380444524289e-01 0.0 
9.380444524289e-01 -2.122082514153e+02 0.0 
0.0 0.0 -8.669734575505e+01 
-8.290770787863e+01 2.851649993625e+00 0.0 
2.851649993625e+00 -2.340254126924e+02 0.0 
0.0 0.0 -9.467993617131e+01 
-1.280860387248e+02 1.251195029067e+01 0.0 
1.251195029067e+01 -3.250969692816e+02 0.0 
0.0 0.0 -1.355549024019e+02 
-2.817042802489e+01 -3.202448469555e+00 0.0 
-3.202448469555e+00 -7.670287977159e+01 0.0 
0.0 0.0 -3.106199233894e+01 
-1.188256018450e+02 8.967948935288e+00 0.0 
8.967948935288e+00 -3.084147023634e+02 0.0 
0.0 0.0 -1.277720912625e+02 
-1.673247232155e+01 -1.295663491890e+00 0.0 
-1.295663491890e+00 -4.310503544061e+01 0.0 
0.0 0.0 -1.755125232865e+01 
-7.017612950850e+01 3.734767407780e-01 0.0 
3.734767407780e-01 -1.928338374017e+02 0.0 
0.0 0.0 -7.850299007306e+01 
-7.802106304105e+01 1.321711993162e+00 0.0 
1.321711993162e+00 -2.140506624114e+02 0.0 
0.0 0.0 -8.722151763575e+01 
-9.400282198039e+00 -6.929628519556e-01 0.0 
-6.929628519556e-01 -2.555706082873e+01 0.0 
0.0 0.0 -1.046779807780e+01 
-6.572009336730e+01 -9.202959546494e-01 0.0 
-9.202959546494e-01 -1.789113935509e+02 0.0 
0.0 0.0 -7.298944607546e+01 
-9.454349968099e+01 1.439182030436e+01 0.0 
1.439182030436e+01 -1.951389736953e+02 0.0 
0.0 0.0 -8.650474201289e+01 
-3.479085497047e+00 -3.349666462175e-01 0.0 
-3.349666462175e-01 -7.819119670596e+00 0.0 
0.0 0.0 -2.989461550293e+00 
-4.037250293376e+01 1.941835666007e+00 0.0 
1.941835666007e+00 -4.864100935340e+01 0.0 
0.0 0.0 -2.630405368615e+01 
-3.957288548853e+01 2.864781549543e+00 0.0 
2.864781549543e+00 -5.005386605868e+01 0.0 
0.0 0.0 -2.648802546416e+01 
-9.363771289719e+01 1.223636067133e+01 0.0 
1.223636067133e+01 -2.572157738323e+02 0.0 
0.0 0.0 -1.048560460188e+02 
-5.087236220707e+01 4.950291866215e-01 0.0 
4.950291866215e-01 -1.397443003110e+02 0.0 
0.0 0.0 -5.678499875542e+01 
-4.379084965131e+01 -1.864117723876e+00 0.0 
-1.864117723876e+00 -1.323362763680e+02 0.0 
0.0 0.0 -5.243813780578e+01 
-2.692508777320e+01 1.152348713377e+01 0.0 
1.152348713377e+01 -6.394071430897e+01 0.0 
0.0 0.0 -2.685974062465e+01 
-1.352739628936e+02 5.644336676161e+00 0.0 
5.644336676161e+00 -3.358657269640e+02 0.0 
0.0 0.0 -1.409419069573e+02 
-1.240803828811e+02 2.825920160475e+01 0.0 
2.825920160475e+01 -2.920025204927e+02 0.0 
0.0 0.0 -1.244248710122e+02 
-8.233324617231e+01 6.365731053272e+00 0.0 
6.365731053272e+00 -1.629566735883e+02 0.0 
0.0 0.0 -7.318697592819e+01 
-3.130870697826e+01 1.684968208018e+01 0.0 
1.684968208018e+01 -7.158833541803e+01 0.0 
0.0 0.0 -3.046911271889e+01 
-1.953115774761e+01 -3.149979866719e+00 0.0 
-3.149979866719e+00 -4.781349048433e+01 0.0 
0.0 0.0 -1.980339446958e+01 
-4.965192048303e+01 2.312709446209e+01 0.0 
2.312709446209e+01 -8.331817817266e+01 0.0 
0.0 0.0 -3.949102959671e+01 
-3.630215268499e+01 1.757961944104e-01 0.0 
1.757961944104e-01 -4.846573538379e+01 0.0 
0.0 0.0 -2.503036642064e+01 
-3.464870615331e+01 2.400111735093e-01 0.0 
2.400111735093e-01 -4.818021548358e+01 0.0 
0.0 0.0 -2.444867649107e+01 
-4.809494465152e+00 -4.212960332982e-01 0.0 
-4.212960332982e-01 -8.976341627701e+00 0.0 
0.0 0.0 -4.704638278496e+00 
-9.730757605727e+00 -8.403424605403e-01 0.0 
-8.403424605403e-01 -2.540323718287e+01 0.0 
0.0 0.0 -1.056152780654e+01 
-1.451884706670e+01 -3.230537332956e-01 0.0 
-3.230537332956e-01 -4.210832744817e+01 0.0 
0.0 0.0 -1.658815235446e+01 
-3.729566924337e+01 -2.965893434192e+00 0.0 
-2.965893434192e+00 -1.049482357740e+02 0.0 
0.0 0.0 -4.227317150521e+01 
-9.544195624174e+00 -5.394985058108e-01 0.0 
-5.394985058108e-01 -2.592790452371e+01 0.0 
0.0 0.0 -1.024163004436e+01 
-7.303975979781e+01 -7.925647248696e-01 0.0 
-7.925647248696e-01 -1.985375800318e+02 0.0 
0.0 0.0 -8.107320194888e+01 
-1.601587601778e+01 -7.234378199489e-01 0.0 
-7.234378199489e-01 -8.837449812425e+00 0.0 
0.0 0.0 -8.024333114214e+00 
-4.387243308258e+01 -2.720961190868e+00 0.0 
-2.720961190868e+00 -1.245970546133e+02 0.0 
0.0 0.0 -5.014084630878e+01 
-6.048616647446e+01 5.603244848974e-01 0.0 
5.603244848974e-01 -1.149371757840e+02 0.0 
0.0 0.0 -5.222700267752e+01 
-3.654969912280e+01 9.141030771630e-01 0.0 
9.141030771630e-01 -4.838938554598e+01 0.0 
0.0 0.0 -2.508172540064e+01 
-1.071650828735e+02 2.706287454662e+01 0.0 
2.706287454662e+01 -2.390865681456e+02 0.0 
0.0 0.0 -1.034754953057e+02 
-1.003878433296e+02 4.984310386004e+00 0.0 
4.984310386004e+00 -2.715678436675e+02 0.0 
0.0 0.0 -1.111867060991e+02 
-5.328436078739e+01 1.428647976045e-01 0.0 
1.428647976045e-01 -9.717201784542e+01 0.0 
0.0 0.0 -4.473691358984e+01 
-5.429945747899e+01 -8.084057383461e-01 0.0 
-8.084057383461e-01 -1.492444790906e+02 0.0 
0.0 0.0 -6.066318097086e+01 
-1.600661560312e+01 -6.219568126739e-01 0.0 
-6.219568126739e-01 -4.285040908956e+01 0.0 
0.0 0.0 -1.725710740781e+01 
-9.916987076948e+01 8.193620490429e+00 0.0 
8.193620490429e+00 -2.327296984621e+02 0.0 
0.0 0.0 -9.916987076948e+01 
-1.033910992838e+02 9.070798542903e+00 0.0 
9.070798542903e+00 -2.348641099428e+02 0.0 
0.0 0.0 -1.010765627680e+02 
-5.426844663486e+01 1.390100719205e+00 0.0 
1.390100719205e+00 -8.779428830627e+01 0.0 
0.0 0.0 -4.221882048234e+01 
-3.672607888985e+01 3.583055092283e-01 0.0 
3.583055092283e-01 -4.806505641692e+01 0.0 
0.0 0.0 -2.503734059203e+01 
-5.525084351250e+01 -2.304072707482e-02 0.0 
-2.304072707482e-02 -1.513284938330e+02 0.0 
0.0 0.0 -6.157380120363e+01 
-1.022063508136e+02 6.339092221009e+00 0.0 
6.339092221009e+00 -2.331823008567e+02 0.0 
0.0 0.0 -1.002165955011e+02 
-4.183087625554e+01 -1.699211993912e+00 0.0 
-1.699211993912e+00 -1.167262382919e+02 0.0 
0.0 0.0 -4.716713436423e+01 
-3.779138308927e+01 1.695876977809e+00 0.0 
1.695876977809e+00 -4.886181044154e+01 0.0 
0.0 0.0 -2.559595805924e+01 
-3.787689823884e+01 6.564617737346e-01 0.0 
6.564617737346e-01 -4.799179396425e+01 0.0 
0.0 0.0 -2.536060766093e+01 
-4.504574570868e+01 1.775700238097e+01 0.0 
1.775700238097e+01 -6.379959307340e+01 0.0 
0.0 0.0 -3.225360163462e+01 
-1.044493152049e+02 1.834812377651e+01 0.0 
1.834812377651e+01 -2.450484021447e+02 0.0 
0.0 0.0 -1.044493152049e+02 
-1.036671312929e+02 7.540297003674e+00 0.0 
7.540297003674e+00 -2.344895520723e+02 0.0 
0.0 0.0 -1.010470050095e+02 
-9.974477268666e+00 -7.293062614850e-01 0.0 
-7.293062614850e-01 -2.572095756135e+01 0.0 
0.0 0.0 -1.030863044901e+01 
-4.393786932883e+00 -3.048829814319e-01 0.0 
-3.048829814319e-01 -9.090502418849e+00 0.0 
0.0 0.0 -4.622541612816e+00 
-2.224707860660e+01 -2.927290188453e+00 0.0 
-2.927290188453e+00 -5.740085516519e+01 0.0 
0.0 0.0 -2.349438013154e+01 
-7.639228466896e+01 2.836782842961e-02 0.0 
2.836782842961e-02 -2.130844638663e+02 0.0 
0.0 0.0 -8.644302456058e+01 
-1.454136380112e+02 -1.534094363315e-01 0.0 
-1.534094363315e-01 -3.522854134708e+02 0.0 
0.0 0.0 -1.489097154446e+02 
-2.021960788722e+01 -5.143098767975e-01 0.0 
-5.143098767975e-01 -7.142330568292e+00 0.0 
0.0 0.0 -7.808581536653e+00 
-7.612817174574e+01 1.425173782684e+00 0.0 
1.425173782684e+00 -1.580082820733e+02 0.0 
0.0 0.0 -6.984093614571e+01 
-1.485434334234e+01 -8.405745348016e-01 0.0 
-8.405745348016e-01 -8.989906581869e+00 0.0 
0.0 0.0 -7.734225017998e+00 
-9.271111968508e+01 9.039208402108e+00 0.0 
9.039208402108e+00 -2.589848888232e+02 0.0 
0.0 0.0 -1.051088025525e+02 
-1.655311971910e+01 -8.607833989947e-01 0.0 
-8.607833989947e-01 -8.244665961049e+00 0.0 
0.0 0.0 -7.039335704044e+00 
-1.842137725728e+01 -7.664070274522e-01 0.0 
-7.664070274522e-01 -8.137420888931e+00 0.0 
0.0 0.0 -7.567639443863e+00 
-8.886409088943e+01 7.354466962120e+00 0.0 
7.354466962120e+00 -2.507706852697e+02 0.0 
0.0 0.0 -1.014904328477e+02 
-1.398083113242e+02 1.979656500586e+00 0.0 
1.979656500586e+00 -3.422560304503e+02 0.0 
0.0 0.0 -1.442193025324e+02 
-6.056137878251e+01 1.030992050327e+00 0.0 
1.030992050327e+00 -1.138945824842e+02 0.0 
0.0 0.0 -5.193678838002e+01 
-5.315407243794e+01 2.390266671471e+01 0.0 
2.390266671471e+01 -1.010029988432e+02 0.0 
0.0 0.0 -4.584712138433e+01 
-9.062941715832e+00 -4.086939684189e-01 0.0 
-4.086939684189e-01 -2.554945837123e+01 0.0 
0.0 0.0 -1.036621415061e+01 
-1.029766754687e+02 2.710140386336e+00 0.0 
2.710140386336e+00 -2.692000285759e+02 0.0 
0.0 0.0 -1.112530112134e+02 
-9.789303192162e+01 2.532020258375e+00 0.0 
2.532020258375e+00 -2.297504078171e+02 0.0 
0.0 0.0 -9.789303192162e+01 
-1.011563643138e+02 3.459634298799e+00 0.0 
3.459634298799e+00 -2.318484346907e+02 0.0 
0.0 0.0 -9.950143970135e+01 
-3.568339154963e+01 4.549138930561e-01 0.0 
4.549138930561e-01 -4.813552771656e+01 0.0 
0.0 0.0 -2.474567577986e+01 
-9.669044281688e+01 1.079691695114e+01 0.0 
1.079691695114e+01 -2.668487168624e+02 0.0 
0.0 0.0 -1.086617479038e+02 
-9.898804187178e+01 6.632773240534e+00 0.0 
6.632773240534e+00 -2.323054310342e+02 0.0 
0.0 0.0 -9.898804187178e+01 
-9.745878983367e+01 2.283318334257e+01 0.0 
2.283318334257e+01 -2.477796065464e+02 0.0 
0.0 0.0 -1.031715189140e+02 
-1.521716588768e+01 -5.847982680367e-01 0.0 
-5.847982680367e-01 -4.167031691385e+01 0.0 
0.0 0.0 -1.666624484046e+01 
-9.163380382914e+00 -3.523091309308e-01 0.0 
-3.523091309308e-01 -2.570735673692e+01 0.0 
0.0 0.0 -1.006122113595e+01 
-8.601155028911e+00 -1.450552447192e-01 0.0 
-1.450552447192e-01 -2.513746387125e+01 0.0 
0.0 0.0 -9.962853184075e+00 
-6.186399815588e+01 -7.677670590017e-01 0.0 
-7.677670590017e-01 -1.690338181675e+02 0.0 
0.0 0.0 -6.886934489700e+01 
-1.606140783000e+02 3.355220939651e+00 0.0 
3.355220939651e+00 -3.811259607803e+02 0.0 
0.0 0.0 -1.621220117241e+02 
-9.322699100948e+01 1.092853554261e+00 0.0 
1.092853554261e+00 -2.092265925953e+02 0.0 
0.0 0.0 -9.033607508142e+01 
-3.458151301709e+00 -8.005907466446e-02 0.0 
-8.005907466446e-02 -9.066297392134e+00 0.0 
0.0 0.0 -4.326012719824e+00 
-7.343453018395e+01 6.518935191690e-01 0.0 
6.518935191690e-01 -1.987097431957e+02 0.0 
0.0 0.0 -8.124328201390e+01 
-1.637969268285e+02 2.309421784875e+00 0.0 
2.309421784875e+00 -3.835261625998e+02 0.0 
0.0 0.0 -1.637969268285e+02 
-1.598047662090e+02 3.593091190723e+00 0.0 
3.593091190723e+00 -3.802221217009e+02 0.0 
0.0 0.0 -1.616080663730e+02 
-1.559405130333e+02 1.202916859371e+01 0.0 
1.202916859371e+01 -3.729701315922e+02 0.0 
0.0 0.0 -1.582731933876e+02 
-6.879397975535e+01 -5.403623679621e-01 0.0 
-5.403623679621e-01 -1.381328165709e+02 0.0 
0.0 0.0 -6.167803889787e+01 
-7.981712786486e+01 9.563388347377e-01 0.0 
9.563388347377e-01 -1.684352339215e+02 0.0 
0.0 0.0 -7.407570853591e+01 
-1.628925548961e+02 3.175916613501e+00 0.0 
3.175916613501e+00 -3.814159614243e+02 0.0 
0.0 0.0 -1.628925548961e+02 
-1.630314578575e+02 4.195546269181e+00 0.0 
4.195546269181e+00 -3.817400683343e+02 0.0 
0.0 0.0 -1.630314578575e+02 
-7.613166308955e+01 -2.677988230185e-01 0.0 
-2.677988230185e-01 -1.580950942283e+02 0.0 
0.0 0.0 -6.986802719537e+01 
-1.874645170574e+00 -3.577997192644e-01 0.0 
-3.577997192644e-01 -6.805916615657e+00 0.0 
0.0 0.0 -2.204168535869e+00 
-3.382310675099e+01 -1.176978494540e-02 0.0 
-1.176978494540e-02 -4.732213646652e+01 0.0 
0.0 0.0 -2.394357296525e+01 
-3.510047518429e+01 1.145383336886e-01 0.0 
1.145383336886e-01 -4.821533839039e+01 0.0 
0.0 0.0 -2.459474407240e+01 
-3.890879815993e+00 -1.899406324544e-01 0.0 
-1.899406324544e-01 -9.062476433781e+00 0.0 
0.0 0.0 -4.462158617284e+00 
-1.623681276690e+02 7.302319610498e+00 0.0 
7.302319610498e+00 -3.801922978942e+02 0.0 
0.0 0.0 -1.623681276690e+02 
-1.563574746209e+02 1.051252053224e+01 0.0 
1.051252053224e+01 -3.741985800847e+02 0.0 
0.0 0.0 -1.587668164117e+02 
-1.607749772427e+02 9.606063444363e+00 0.0 
9.606063444363e+00 -3.764749468996e+02 0.0 
0.0 0.0 -1.607749772427e+02 
-2.297503754003e+00 -1.315081532081e-01 0.0 
-1.315081532081e-01 -7.948835034492e+00 0.0 
0.0 0.0 -2.673901636549e+00 
-2.766720072168e+00 -2.900897736172e-01 0.0 
-2.900897736172e-01 -8.053593509257e+00 0.0 
0.0 0.0 -2.846094074427e+00 
-1.596631124073e+02 1.228733520344e+01 0.0 
1.228733520344e+01 -3.738805956169e+02 0.0 
0.0 0.0 -1.596631124073e+02 
-1.603535478301e+02 1.099439463409e+01 0.0 
1.099439463409e+01 -3.754916116036e+02 0.0 
0.0 0.0 -1.603535478301e+02 
-6.493173315277e+01 9.722083336762e-01 0.0 
9.722083336762e-01 -1.281205215337e+02 0.0 
0.0 0.0 -5.751567640595e+01 
-3.316732695622e+01 -1.359455998956e-01 0.0 
-1.359455998956e-01 -4.699495698449e+01 0.0 
0.0 0.0 -2.364868518222e+01 
-7.269084167231e+01 9.814284196221e-01 0.0 
9.814284196221e-01 -1.482235236977e+02 0.0 
0.0 0.0 -6.587430961100e+01 
-4.958187158079e+01 8.965365988968e-01 0.0 
8.965365988968e-01 -8.843552063409e+01 0.0 
0.0 0.0 -4.100521766446e+01 
-3.334264147851e+01 -9.786298631787e-02 0.0 
-9.786298631787e-02 -4.715247458032e+01 0.0 
0.0 0.0 -2.374853481765e+01 
-5.521510411105e+00 -5.645704572230e-01 0.0 
-5.645704572230e-01 -7.661313745866e+00 0.0 
0.0 0.0 -3.554847247091e+00 
-8.198102675758e+00 -4.151128341044e-01 0.0 
-4.151128341044e-01 -8.319926874059e+00 0.0 
0.0 0.0 -4.555408864945e+00 
-9.481064352156e+00 -5.765711623766e-01 0.0 
-5.765711623766e-01 -7.918742612186e+00 0.0 
0.0 0.0 -4.819942089303e+00 
-1.106675843755e+01 -6.569217692786e-01 0.0 
-6.569217692786e-01 -8.040963905206e+00 0.0 
0.0 0.0 -5.332316702828e+00 
-7.737129354638e+01 -8.962224491687e-01 0.0 
-8.962224491687e-01 -2.087394448126e+02 0.0 
0.0 0.0 -8.543322150770e+01 
-6.953900682635e+01 -7.885184204570e-01 0.0 
-7.885184204570e-01 -1.888165168410e+02 0.0 
0.0 0.0 -7.710665710020e+01 
-8.333579501990e+00 -6.143308603033e-01 0.0 
-6.143308603033e-01 -8.977240726222e+00 0.0 
0.0 0.0 -5.770273539399e+00 
-1.024819488088e+02 -7.972521817745e-01 0.0 
-7.972521817745e-01 -2.663972591353e+02 0.0 
0.0 0.0 -1.102637623832e+02 
-9.789979210989e+00 -7.354300377591e-01 0.0 
-7.354300377591e-01 -8.946857166801e+00 0.0 
0.0 0.0 -6.192890086110e+00 
-1.016874779908e+02 1.446190640724e+01 0.0 
1.446190640724e+01 -2.386041153119e+02 0.0 
0.0 0.0 -1.016874779908e+02 
-9.846876624286e+01 5.470976575241e+00 0.0 
5.470976575241e+00 -2.310937879000e+02 0.0 
0.0 0.0 -9.846876624286e+01 
-9.952373974545e+01 9.612389165166e+00 0.0 
9.612389165166e+00 -2.335553927394e+02 0.0 
0.0 0.0 -9.952373974545e+01 
-2.508713048946e+01 -9.763729084635e-01 0.0 
-9.763729084635e-01 -6.909874994307e+01 0.0 
0.0 0.0 -2.785576412976e+01 
-4.701337145777e+01 -8.307000525047e-01 0.0 
-8.307000525047e-01 -1.293413891225e+02 0.0 
0.0 0.0 -5.250642817409e+01 
-9.807938992811e+01 4.354185300378e+00 0.0 
4.354185300378e+00 -2.301852431656e+02 0.0 
0.0 0.0 -9.807938992811e+01 
-1.306982474291e+02 -6.556807251230e-01 0.0 
-6.556807251230e-01 -3.243612217114e+02 0.0 
0.0 0.0 -1.361178407421e+02 
-9.889383498672e+01 3.490804651036e+00 0.0 
3.490804651036e+00 -2.320856149690e+02 0.0 
0.0 0.0 -9.889383498672e+01 
-1.406465056852e+02 -6.957308889431e-01 0.0 
-6.957308889431e-01 -3.434178945003e+02 0.0 
0.0 0.0 -1.448193200557e+02 
-1.509474862955e+02 -7.591203742137e-01 0.0 
-7.591203742137e-01 -3.623576503414e+02 0.0 
0.0 0.0 -1.535915409911e+02 
-6.569233261360e+01 6.514105738435e-01 0.0 
6.514105738435e-01 -1.789003318608e+02 0.0 
0.0 0.0 -7.297779934232e+01 
-1.017093040840e+02 5.116130210442e+00 0.0 
5.116130210442e+00 -2.320950400940e+02 0.0 
0.0 0.0 -9.974130325341e+01 
-1.010494266653e+02 3.549013905720e+00 0.0 
3.549013905720e+00 -2.320455401602e+02 0.0 
0.0 0.0 -9.952849004764e+01 
-1.353675955505e+02 1.353660019126e+00 0.0 
1.353660019126e+00 -3.329899434842e+02 0.0 
0.0 0.0 -1.401072617104e+02 
-1.456634605398e+02 1.431137348413e+00 0.0 
1.431137348413e+00 -3.525204911589e+02 0.0 
0.0 0.0 -1.490551855096e+02 
-1.115764695178e+02 2.300057150061e+00 0.0 
2.300057150061e+00 -2.862318961398e+02 0.0 
0.0 0.0 -1.189425096973e+02 
-1.355435330086e+01 -8.687073276337e-01 0.0 
-8.687073276337e-01 -8.892252054628e+00 0.0 
0.0 0.0 -7.310457789527e+00 
-6.605737851807e+01 1.437334696193e-01 0.0 
1.437334696193e-01 -1.819535008508e+02 0.0 
0.0 0.0 -7.400326381067e+01 
-1.039129795353e+01 -7.487236958041e-01 0.0 
-7.487236958041e-01 -2.542966188371e+01 0.0 
0.0 0.0 -1.034628795117e+01 
-1.362167970984e+02 6.892246866230e+00 0.0 
6.892246866230e+00 -3.364484021226e+02 0.0 
0.0 0.0 -1.413995597663e+02 
-6.892896218778e+01 -9.977373891622e-01 0.0 
-9.977373891622e-01 -1.920078432617e+02 0.0 
0.0 0.0 -7.788104163483e+01 
-1.252465911225e+02 2.101645125248e+00 0.0 
2.101645125248e+00 -3.150063338432e+02 0.0 
0.0 0.0 -1.316758774897e+02 
-3.517916854531e+01 -1.932214141749e+00 0.0 
-1.932214141749e+00 -9.700821274379e+01 0.0 
0.0 0.0 -3.925621438673e+01 
-1.614623178484e+01 -1.829041766168e+00 0.0 
-1.829041766168e+00 -4.158381401721e+01 0.0 
0.0 0.0 -1.691901374061e+01 
-1.355329026785e+02 3.833803393837e+00 0.0 
3.833803393837e+00 -3.341459290073e+02 0.0 
0.0 0.0 -1.405036495057e+02 
-7.413935549403e+01 5.902477958605e-01 0.0 
5.902477958605e-01 -2.014864871127e+02 0.0 
0.0 0.0 -8.228775278202e+01 
-5.775840422445e+01 -1.015123583775e+00 0.0 
-1.015123583775e+00 -1.592035680916e+02 0.0 
0.0 0.0 -6.468859169483e+01 
-1.258827971272e+02 3.443926121729e+00 0.0 
3.443926121729e+00 -3.155809359435e+02 0.0 
0.0 0.0 -1.320391199212e+02 
-8.561773076440e+01 9.828812278029e-01 0.0 
9.828812278029e-01 -1.864258205798e+02 0.0 
0.0 0.0 -8.121306540327e+01 
-5.816941915390e+01 5.925164129535e-01 0.0 
5.925164129535e-01 -1.593362316456e+02 0.0 
0.0 0.0 -6.485169523985e+01 
-1.107960989712e+02 9.026311621458e+00 0.0 
9.026311621458e+00 -2.908582004808e+02 0.0 
0.0 0.0 -1.200962898356e+02 
-9.696487386289e+01 2.486416310115e+00 0.0 
2.486416310115e+00 -2.611675516210e+02 0.0 
0.0 0.0 -1.070397276452e+02 
-1.108388287178e+02 9.224425598993e-01 0.0 
9.224425598993e-01 -2.856151793161e+02 0.0 
0.0 0.0 -1.185362024102e+02 
-1.153374532309e+02 6.845529085842e-01 0.0 
6.845529085842e-01 -2.943790057125e+02 0.0 
0.0 0.0 -1.225149376830e+02 
-4.514717875335e+01 7.544689357942e+00 0.0 
7.544689357942e+00 -1.450942557237e+02 0.0 
0.0 0.0 -5.667243034311e+01 
-4.602380929704e+01 2.333331528596e+01 0.0 
2.333331528596e+01 -8.161101755792e+01 0.0 
0.0 0.0 -3.789044805649e+01 
-5.714111389510e+01 1.871352365788e+01 0.0 
1.871352365788e+01 -1.577136526617e+02 0.0 
0.0 0.0 -6.405642996705e+01 
-1.018561409774e+02 1.350438857164e+00 0.0 
1.350438857164e+00 -2.684251394948e+02 0.0 
0.0 0.0 -1.106843841417e+02 
-1.304110278983e+02 3.052591269691e+00 0.0 
3.052591269691e+00 -3.241630597399e+02 0.0 
0.0 0.0 -1.359722262915e+02 
-1.198619269597e+02 2.939528622173e-01 0.0 
2.939528622173e-01 -3.032346405801e+02 0.0 
0.0 0.0 -1.265289702620e+02 
-3.519671504555e+01 -3.328229873109e+00 0.0 
-3.328229873109e+00 -1.002613521583e+02 0.0 
0.0 0.0 -4.023742016116e+01 
-8.602091997801e+01 2.292220956548e+00 0.0 
2.292220956548e+00 -1.854358879293e+02 0.0 
0.0 0.0 -8.103704237220e+01 
-7.885888972904e+01 1.785469412169e+00 0.0 
1.785469412169e+00 -1.648307002132e+02 0.0 
0.0 0.0 -7.270687698269e+01 
-4.460463608883e+01 -5.191526639457e-01 0.0 
-5.191526639457e-01 -7.366666083511e+01 0.0 
0.0 0.0 -3.508138907718e+01 
-1.063369473609e+02 2.155993483229e+00 0.0 
2.155993483229e+00 -2.787688662596e+02 0.0 
0.0 0.0 -1.151317440862e+02 
-1.063610288355e+02 1.166397503003e+00 0.0 
1.166397503003e+00 -2.770632641507e+02 0.0 
0.0 0.0 -1.146272878959e+02 
-8.672472982934e+01 2.864922204174e+00 0.0 
2.864922204174e+00 -1.876464778220e+02 0.0 
0.0 0.0 -8.191136229541e+01 
-8.248937471279e+01 1.569956311205e+00 0.0 
1.569956311205e+00 -1.758618927580e+02 0.0 
0.0 0.0 -7.710538024124e+01 
-9.408026629347e+01 3.822504165710e+00 0.0 
3.822504165710e+00 -2.532638866407e+02 0.0 
0.0 0.0 -1.038032458802e+02 
-1.402238710547e+02 3.292325118312e+00 0.0 
3.292325118312e+00 -3.426021830073e+02 0.0 
0.0 0.0 -1.444478162186e+02 
-7.983091115476e+01 4.418985642897e+00 0.0 
4.418985642897e+00 -1.615632740357e+02 0.0 
0.0 0.0 -7.201825555714e+01 
-1.202715290284e+02 1.616796315021e+00 0.0 
1.616796315021e+00 -3.034084060609e+02 0.0 
0.0 0.0 -1.267039805268e+02 
-1.416826040981e+02 6.514168449329e+00 0.0 
6.514168449329e+00 -3.460962597941e+02 0.0 
0.0 0.0 -1.459336591677e+02 
-8.716104391867e+01 4.297161199872e+00 0.0 
4.297161199872e+00 -1.863938491488e+02 0.0 
0.0 0.0 -8.166646792025e+01 
-6.991391770646e+01 3.182293203933e+00 0.0 
3.182293203933e+00 -1.345874773048e+02 0.0 
0.0 0.0 -6.095041850337e+01 
-1.065168800909e+02 7.516242335886e+00 0.0 
7.516242335886e+00 -2.819201901104e+02 0.0 
0.0 0.0 -1.161311210604e+02 
-3.602518022021e+01 -2.020652166593e+00 0.0 
-2.020652166593e+00 -9.995173927083e+01 0.0 
0.0 0.0 -4.039307584731e+01 
-3.273543600636e+01 -3.336073768917e+00 0.0 
-3.336073768917e+00 -9.236731572156e+01 0.0 
0.0 0.0 -3.713082551838e+01 
-1.949565539871e+01 -1.663685508760e+00 0.0 
-1.663685508760e+00 -4.808813460624e+01 0.0 
0.0 0.0 -1.987513700148e+01 
-1.931705848645e+01 -2.004250618528e+00 0.0 
-2.004250618528e+00 -2.565618510261e+01 0.0 
0.0 0.0 -1.309197307672e+01 
-8.356388681400e+01 3.317070750009e+00 0.0 
3.317070750009e+00 -1.765633505345e+02 0.0 
0.0 0.0 -7.763817120456e+01 
-1.346597221059e+02 1.149736769333e+00 0.0 
1.149736769333e+00 -3.321306806807e+02 0.0 
0.0 0.0 -1.396371208360e+02 
-1.788003611467e+01 -1.990458323488e+00 0.0 
-1.990458323488e+00 -2.531656480456e+01 0.0 
0.0 0.0 -1.255898027577e+01 
-1.015452663171e+02 2.255432877967e+01 0.0 
2.255432877967e+01 -2.083625442710e+02 0.0 
0.0 0.0 -9.257234317645e+01 
-4.897004395031e+01 -1.422552023189e-01 0.0 
-1.422552023189e-01 -8.265191157978e+01 0.0 
0.0 0.0 -3.908658665903e+01 
-1.214003704319e+02 3.833176113677e+00 0.0 
3.833176113677e+00 -3.070917451265e+02 0.0 
0.0 0.0 -1.281476346675e+02 
-1.247774812979e+02 9.280790918072e-01 0.0 
9.280790918072e-01 -3.132168401886e+02 0.0 
0.0 0.0 -1.309982964459e+02 
-4.705801405028e+01 -1.848996925800e+00 0.0 
-1.848996925800e+00 -1.407909070788e+02 0.0 
0.0 0.0 -5.595467633873e+01 
-1.251823045176e+02 2.322043903736e+00 0.0 
2.322043903736e+00 -3.136756116332e+02 0.0 
0.0 0.0 -1.312573748452e+02 
-4.545087157759e+01 1.577163560006e+00 0.0 
1.577163560006e+00 -7.396275365419e+01 0.0 
0.0 0.0 -3.542408756953e+01 
-9.622244492740e+01 1.661100886892e+01 0.0 
1.661100886892e+01 -2.590967455543e+02 0.0 
0.0 0.0 -1.061957571445e+02 
-1.463975858313e+02 4.394947111340e+00 0.0 
4.394947111340e+00 -3.547343935325e+02 0.0 
0.0 0.0 -1.499395938091e+02 
-3.480400469464e+01 -1.226198325218e+00 0.0 
-1.226198325218e+00 -9.657238144392e+01 0.0 
0.0 0.0 -3.901291584157e+01 
-1.412299222008e+02 8.067910430502e+00 0.0 
8.067910430502e+00 -3.461426598644e+02 0.0 
0.0 0.0 -1.458117746196e+02 
-7.334244113554e+01 2.973436214760e+00 0.0 
2.973436214760e+00 -1.455761779366e+02 0.0 
0.0 0.0 -6.527558572163e+01 
-3.912749131639e+01 -1.746838949758e+00 0.0 
-1.746838949758e+00 -1.085372628966e+02 0.0 
0.0 0.0 -4.389942626390e+01 
-3.985232401801e+01 -2.156082434326e+00 0.0 
-2.156082434326e+00 -1.123535347744e+02 0.0 
0.0 0.0 -4.526175763772e+01 
-8.462841947454e+01 -5.543022691615e-01 0.0 
-5.543022691615e-01 -2.266959735409e+02 0.0 
0.0 0.0 -9.299731790463e+01 
-6.102129256900e+01 1.251912891842e+00 0.0 
1.251912891842e+00 -1.118704508161e+02 0.0 
0.0 0.0 -5.146752301552e+01 
-5.416172071377e+01 -2.008956126647e+00 0.0 
-2.008956126647e+00 -1.528578601167e+02 0.0 
0.0 0.0 -6.170587424914e+01 
-7.669944471490e+01 2.833083118193e+00 0.0 
2.833083118193e+00 -1.564602084871e+02 0.0 
0.0 0.0 -6.954789596060e+01 
-6.572086402343e+01 2.530117135840e+00 0.0 
2.530117135840e+00 -1.249319023740e+02 0.0 
0.0 0.0 -5.679582991923e+01 
-8.081210419234e+01 -3.020279614042e-01 0.0 
-3.020279614042e-01 -2.200372080014e+02 0.0 
0.0 0.0 -8.985479365813e+01 
-1.157342603924e+02 1.997107796127e+00 0.0 
1.997107796127e+00 -2.946822750064e+02 0.0 
0.0 0.0 -1.227249606197e+02 
-1.208122622965e+02 2.711081929121e+00 0.0 
2.711081929121e+00 -3.052446662061e+02 0.0 
0.0 0.0 -1.274170785508e+02 
-7.168356194301e+01 1.157925720586e+00 0.0 
1.157925720586e+00 -1.445026325414e+02 0.0 
0.0 0.0 -6.445585834532e+01 
-3.064162411096e+01 -1.188466167497e+00 0.0 
-1.188466167497e+00 -8.363806324774e+01 0.0 
0.0 0.0 -3.388390620761e+01 
-7.678523069028e+01 -6.596313228845e-01 0.0 
-6.596313228845e-01 -2.093843394098e+02 0.0 
0.0 0.0 -8.545087103003e+01 
-1.121838939954e+02 2.051772070704e+01 0.0 
2.051772070704e+01 -2.880132934011e+02 0.0 
0.0 0.0 -1.196591562189e+02 
-7.723450115132e+01 3.888605363929e+00 0.0 
3.888605363929e+00 -1.548356927758e+02 0.0 
0.0 0.0 -6.922105817813e+01 
-6.880656494835e+01 -1.192621224876e+00 0.0 
-1.192621224876e+00 -1.895741170458e+02 0.0 
0.0 0.0 -7.711420459825e+01 
-9.860103157790e+01 3.748041751430e+00 0.0 
3.748041751430e+00 -2.621500080261e+02 0.0 
0.0 0.0 -1.078253118812e+02 
-1.364105727317e+02 8.724407021393e+00 0.0 
8.724407021393e+00 -3.374136391979e+02 0.0 
0.0 0.0 -1.417472635789e+02 
-6.842537169897e+01 1.398885539954e+00 0.0 
1.398885539954e+00 -1.336561408577e+02 0.0 
0.0 0.0 -6.022445376699e+01 
-2.232382374723e+01 -2.340355942000e-02 0.0 
-2.340355942000e-02 -4.307051437421e+01 0.0 
0.0 0.0 -1.921830143643e+01 
-1.836097807655e+01 -1.218029376664e+00 0.0 
-1.218029376664e+00 -4.675942828701e+01 0.0 
0.0 0.0 -1.913612190907e+01 
-3.024022447059e+01 2.449125157195e+00 0.0 
2.449125157195e+00 -8.657291279752e+01 0.0 
0.0 0.0 -3.464394118043e+01 
-1.299158160238e+02 1.646036378688e+00 0.0 
1.646036378688e+00 -3.236489802230e+02 0.0 
0.0 0.0 -1.356694388740e+02 
-6.467668514073e+01 1.384757344751e+00 0.0 
1.384757344751e+00 -1.227327644435e+02 0.0 
0.0 0.0 -5.582283487527e+01 
-9.362248890621e+01 1.205509820404e+00 0.0 
1.205509820404e+00 -2.463993569059e+02 0.0 
0.0 0.0 -1.016065537436e+02 
-5.315893466682e+01 4.675206782290e-01 0.0 
4.675206782290e-01 -9.209486123203e+01 0.0 
0.0 0.0 -4.317613876965e+01 
-1.252720280048e+02 1.181490172287e+01 0.0 
1.181490172287e+01 -3.180072077091e+02 0.0 
0.0 0.0 -1.325837707142e+02 
-8.486754022747e+01 -2.398164415716e-01 0.0 
-2.398164415716e-01 -2.286941128462e+02 0.0 
0.0 0.0 -9.366849592209e+01 
-1.202591759992e+02 1.319984020610e+00 0.0 
1.319984020610e+00 -3.047051439886e+02 0.0 
0.0 0.0 -1.270892959964e+02 
-3.661527603135e+01 -5.583229780722e-01 0.0 
-5.583229780722e-01 -1.005405491934e+02 0.0 
0.0 0.0 -4.074674756743e+01 
-1.407555224294e+02 5.004114748568e+00 0.0 
5.004114748568e+00 -3.457888941722e+02 0.0 
0.0 0.0 -1.455633249805e+02 
-8.196674404067e+01 1.089179913749e+00 0.0 
1.089179913749e+00 -2.208400969438e+02 0.0 
0.0 0.0 -9.044205229533e+01 
-3.965255896438e+01 -1.652809886073e-01 0.0 
-1.652809886073e-01 -1.091119084118e+02 0.0 
0.0 0.0 -4.422934021284e+01 
-7.776907656077e+01 8.254081562438e-01 0.0 
8.254081562438e-01 -2.101482684104e+02 0.0 
0.0 0.0 -8.597520349136e+01 
-5.771927947711e+01 -1.700979665995e+00 0.0 
-1.700979665995e+00 -1.615223342770e+02 0.0 
0.0 0.0 -6.537248412624e+01 
-4.497985198329e+01 -1.362133343658e+00 0.0 
-1.362133343658e+00 -1.253701397299e+02 0.0 
0.0 0.0 -5.070499751395e+01 
-9.289830201865e+01 -2.832910067619e-01 0.0 
-2.832910067619e-01 -2.456815212976e+02 0.0 
0.0 0.0 -1.011739469949e+02 
-6.630533916413e+00 -5.799729672204e-01 0.0 
-5.799729672204e-01 -9.232497846717e+00 0.0 
0.0 0.0 -5.354578755662e+00 
-8.011278710427e+00 -6.186113694324e-01 0.0 
-6.186113694324e-01 -9.509541780300e+00 0.0 
0.0 0.0 -5.866253881224e+00 
-1.072652965659e+02 2.544804256906e+00 0.0 
2.544804256906e+00 -2.777496364866e+02 0.0 
0.0 0.0 -1.151044799158e+02 
-3.374053553500e+01 -9.466445030718e-01 0.0 
-9.466445030718e-01 -9.227831718050e+01 0.0 
0.0 0.0 -3.740565581465e+01 
-1.075735655953e+02 3.493034445795e+00 0.0 
3.493034445795e+00 -2.795870213613e+02 0.0 
0.0 0.0 -1.157481760870e+02 
-1.031030505632e+02 3.637663606015e+00 0.0 
3.637663606015e+00 -2.709297879597e+02 0.0 
0.0 0.0 -1.118098515569e+02 
-6.119099790021e+01 -1.408997210552e+00 0.0 
-1.408997210552e+00 -1.744288935540e+02 0.0 
0.0 0.0 -7.028596743627e+01 
-3.806824729238e+01 -2.542266382606e+00 0.0 
-2.542266382606e+00 -1.134022548656e+02 0.0 
0.0 0.0 -4.504115064739e+01 
-8.505987764958e+01 6.155199603198e+00 0.0 
6.155199603198e+00 -1.738124935276e+02 0.0 
0.0 0.0 -7.726171135316e+01 
-2.037738788315e+01 4.895491566799e+00 0.0 
4.895491566799e+00 -4.182522814222e+01 0.0 
0.0 0.0 -1.826078480761e+01 
-6.130327209171e+01 -1.385121361058e+00 0.0 
-1.385121361058e+00 -1.703775605918e+02 0.0 
0.0 0.0 -6.910424980507e+01 
-1.298429720281e+02 1.350711157031e+01 0.0 
1.350711157031e+01 -3.257164417259e+02 0.0 
0.0 0.0 -1.362678241262e+02 
-2.893788363017e+01 -2.050039316702e+00 0.0 
-2.050039316702e+00 -7.960076345275e+01 0.0 
0.0 0.0 -3.216159412488e+01 
-5.850463531047e+01 2.357366540521e+00 0.0 
2.357366540521e+00 -1.037842522285e+02 0.0 
0.0 0.0 -4.828666626169e+01 
-5.021498119971e+01 1.760574474612e+00 0.0 
1.760574474612e+00 -8.354511286880e+01 0.0 
0.0 0.0 -3.972802822055e+01 
-2.877031587479e+01 -1.975472104378e+00 0.0 
-1.975472104378e+00 -7.725308527567e+01 0.0 
0.0 0.0 -3.140702034514e+01 
-1.311287349821e+02 9.231566576137e+00 0.0 
9.231566576137e+00 -3.282451203324e+02 0.0 
0.0 0.0 -1.374121565943e+02 
-7.524496484750e+01 5.241646073758e+00 0.0 
5.241646073758e+00 -1.425945155136e+02 0.0 
0.0 0.0 -6.495184410832e+01 
-3.308486831705e+01 -2.248076337027e+00 0.0 
-2.248076337027e+00 -9.162740074505e+01 0.0 
0.0 0.0 -3.701368071863e+01 
-8.882065811674e+01 7.415053539615e+00 0.0 
7.415053539615e+00 -1.832305708999e+02 0.0 
0.0 0.0 -8.121536870499e+01 
-8.614110141775e+01 5.655615367869e+00 0.0 
5.655615367869e+00 -1.817022469529e+02 0.0 
0.0 0.0 -7.995300451120e+01 
-3.742058359248e+01 -1.054553329456e+00 0.0 
-1.054553329456e+00 -1.030342122130e+02 0.0 
0.0 0.0 -4.173643874166e+01 
-3.313206561542e+01 1.871941890291e+01 0.0 
1.871941890291e+01 -7.320949575215e+01 0.0 
0.0 0.0 -3.150246841027e+01 
-3.817490455009e+01 -1.627736839188e+00 0.0 
-1.627736839188e+00 -1.056197403806e+02 0.0 
0.0 0.0 -4.273839347920e+01 
-1.164864262627e+02 3.023841273960e+00 0.0 
3.023841273960e+00 -2.967478150974e+02 0.0 
0.0 0.0 -1.235702724080e+02 
-8.889946181093e+01 -2.391415745414e-01 0.0 
-2.391415745414e-01 -2.372948542958e+02 0.0 
0.0 0.0 -9.745829483202e+01 
-9.654358171974e+01 1.723516578344e+01 0.0 
1.723516578344e+01 -1.998212010245e+02 0.0 
0.0 0.0 -8.850943482326e+01 
-8.279998372459e+01 4.194522154735e+00 0.0 
4.194522154735e+00 -1.725210327434e+02 0.0 
0.0 0.0 -7.619630494039e+01 
-1.120347995190e+02 3.284522512209e+00 0.0 
3.284522512209e+00 -2.881984706992e+02 0.0 
0.0 0.0 -1.196699810655e+02 
-1.110071624347e+02 1.930101782401e+00 0.0 
1.930101782401e+00 -2.874660175701e+02 0.0 
0.0 0.0 -1.191419540015e+02 
-3.092938016870e+01 -3.044873679820e+00 0.0 
-3.044873679820e+00 -8.531311324802e+01 0.0 
0.0 0.0 -3.447274802501e+01 
-1.156531136778e+02 1.645454129767e+00 0.0 
1.645454129767e+00 -2.960925153081e+02 0.0 
0.0 0.0 -1.231236886957e+02 
-7.278948993700e+01 3.257385213304e+00 0.0 
3.257385213304e+00 -1.412175265866e+02 0.0 
0.0 0.0 -6.380210495707e+01 
-8.970384467246e+01 1.161421585387e+00 0.0 
1.161421585387e+00 -2.379463870294e+02 0.0 
0.0 0.0 -9.789506951056e+01 
-6.648967971736e+01 3.185797903164e+00 0.0 
3.185797903164e+00 -1.238045702771e+02 0.0 
0.0 0.0 -5.668827499835e+01 
-7.822504700300e+01 5.138182699830e+00 0.0 
5.138182699830e+00 -1.533830105563e+02 0.0 
0.0 0.0 -6.908241726780e+01 
-6.134623784884e+01 1.145024090637e+01 0.0 
1.145024090637e+01 -1.864197239531e+02 0.0 
0.0 0.0 -7.392978854058e+01 
-7.911702476080e+01 3.053746981536e+00 0.0 
3.053746981536e+00 -1.630532880986e+02 0.0 
0.0 0.0 -7.225109385782e+01 
-7.298818802737e+01 -9.700935672764e-01 0.0 
-9.700935672764e-01 -1.995208197880e+02 0.0 
0.0 0.0 -8.135270234462e+01 
-8.577978078250e+01 1.181196534548e+00 0.0 
1.181196534548e+00 -2.294004811487e+02 0.0 
0.0 0.0 -9.415407857936e+01 
-5.406370984948e+01 -1.928570082681e+00 0.0 
-1.928570082681e+00 -1.508702391162e+02 0.0 
0.0 0.0 -6.108018468972e+01 
-5.560251990477e+01 -7.030047138766e-01 0.0 
-7.030047138766e-01 -1.581388492940e+02 0.0 
0.0 0.0 -6.372241075963e+01 
-6.870001587652e+01 2.211478412709e+00 0.0 
2.211478412709e+00 -1.318830599899e+02 0.0 
0.0 0.0 -5.977492275991e+01 
-7.699287852411e+01 2.811780567584e+00 0.0 
2.811780567584e+00 -2.163602857322e+02 0.0 
0.0 0.0 -8.760594927690e+01 
-4.127028007211e+01 -1.274873139570e+00 0.0 
-1.274873139570e+00 -1.142619578072e+02 0.0 
0.0 0.0 -4.625967136381e+01 
-2.239396071977e+01 -1.890526308609e+00 0.0 
-1.890526308609e+00 -5.764935073970e+01 0.0 
0.0 0.0 -2.361299343784e+01 
-7.087702052378e+01 4.103232504346e+00 0.0 
4.103232504346e+00 -1.331258676058e+02 0.0 
0.0 0.0 -6.080086643889e+01 
-4.035759677913e+01 -2.686405071165e+00 0.0 
-2.686405071165e+00 -1.135620866421e+02 0.0 
0.0 0.0 -4.577590502637e+01 
-1.407359246056e+02 6.822050792313e+00 0.0 
6.822050792313e+00 -3.457534363802e+02 0.0 
0.0 0.0 -1.455468082958e+02 
-7.213296540810e+01 2.201422989215e+00 0.0 
2.201422989215e+00 -1.427945166713e+02 0.0 
0.0 0.0 -6.407824462381e+01 
-1.205112981900e+02 2.482219889029e+00 0.0 
2.482219889029e+00 -3.064212904197e+02 0.0 
0.0 0.0 -1.276797765829e+02 
-1.444645055343e+02 1.759931657805e+01 0.0 
1.759931657805e+01 -3.470678245336e+02 0.0 
0.0 0.0 -1.470596990204e+02 
-6.989572065602e+01 4.608086769367e-01 0.0 
4.608086769367e-01 -1.905285407387e+02 0.0 
0.0 0.0 -7.772727841841e+01 
-3.671202728526e+01 -2.549485146979e+00 0.0 
-2.549485146979e+00 -1.024035412301e+02 0.0 
0.0 0.0 -4.133467055461e+01 
-2.463800659220e+01 -2.976570615982e+00 0.0 
-2.976570615982e+00 -6.546093306523e+01 0.0 
0.0 0.0 -2.662968189723e+01 
-1.121831096301e+02 4.405069295097e+00 0.0 
4.405069295097e+00 -2.897855447564e+02 0.0 
0.0 0.0 -1.201905963160e+02 
-6.079323609253e+01 6.985924581647e-01 0.0 
6.985924581647e-01 -1.137589219012e+02 0.0 
0.0 0.0 -5.196564739813e+01 
-1.879051084237e+01 -2.524283973507e+00 0.0 
-2.524283973507e+00 -4.647972025292e+01 0.0 
0.0 0.0 -1.918106932859e+01 
-5.545762101675e+01 -6.177186527704e-01 0.0 
-6.177186527704e-01 -1.537130073389e+02 0.0 
0.0 0.0 -6.235118850670e+01 
-3.289929114719e+01 -3.003714995819e-01 0.0 
-3.003714995819e-01 -8.965514906140e+01 0.0 
0.0 0.0 -3.636633206258e+01 
-6.305295688024e+01 3.087109873501e+00 0.0 
3.087109873501e+00 -1.130395094531e+02 0.0 
0.0 0.0 -5.242773989999e+01 
-5.908504902793e+01 -2.409090078128e-01 0.0 
-2.409090078128e-01 -1.624210926063e+02 0.0 
0.0 0.0 -6.605184249028e+01 
-1.016619474240e+02 2.343466673267e+00 0.0 
2.343466673267e+00 -2.700259089105e+02 0.0 
0.0 0.0 -1.111063569003e+02 
-5.468136787604e+01 -2.793061837011e-01 0.0 
-2.793061837011e-01 -1.513796869539e+02 0.0 
0.0 0.0 -6.141831644897e+01 
-8.038911251320e+01 3.693373180786e+00 0.0 
3.693373180786e+00 -1.658373225134e+02 0.0 
0.0 0.0 -7.346793050797e+01 
-4.716977995249e+01 -2.421927143057e+00 0.0 
-2.421927143057e+00 -1.332778096878e+02 0.0 
0.0 0.0 -5.373427689207e+01 
-1.120035675558e+02 5.706740454546e+00 0.0 
5.706740454546e+00 -2.908563968915e+02 0.0 
0.0 0.0 -1.204579893342e+02 
-3.393865535452e+01 -2.458383191004e+00 0.0 
-2.458383191004e+00 -9.307385803213e+01 0.0 
0.0 0.0 -3.770375401599e+01 
-1.075267572858e+02 4.612177969567e+00 0.0 
4.612177969567e+00 -2.809905154991e+02 0.0 
0.0 0.0 -1.161551818355e+02 
-8.163066235965e+01 7.688513409160e-01 0.0 
7.688513409160e-01 -2.191627283646e+02 0.0 
0.0 0.0 -8.983801721728e+01 
-1.156991590328e+02 2.809906784296e+00 0.0 
2.809906784296e+00 -2.977221560516e+02 0.0 
0.0 0.0 -1.236263945253e+02 
-4.406485917426e+01 2.853638909276e+00 0.0 
2.853638909276e+00 -1.411878760414e+02 0.0 
0.0 0.0 -5.517582056470e+01 
-3.204965531030e+01 -1.817480264756e+00 0.0 
-1.817480264756e+00 -8.875135928457e+01 0.0 
0.0 0.0 -3.584030437846e+01 
-5.431718720194e+01 1.784318688798e+00 0.0 
1.784318688798e+00 -9.462270653473e+01 0.0 
0.0 0.0 -4.428196812100e+01 
-9.488731902055e+01 9.963299876769e+00 0.0 
9.963299876769e+00 -2.601044073199e+02 0.0 
0.0 0.0 -1.060975179021e+02 
-4.933231430317e+01 2.009786005116e+01 0.0 
2.009786005116e+01 -1.279705930376e+02 0.0 
0.0 0.0 -5.279087220224e+01 
-6.217294258084e+01 2.487232715671e+00 0.0 
2.487232715671e+00 -1.144334863748e+02 0.0 
0.0 0.0 -5.258192868668e+01 
-3.689155654699e+01 -2.256619361777e+00 0.0 
-2.256619361777e+00 -1.037399359226e+02 0.0 
0.0 0.0 -4.178944774087e+01 
-6.639166304801e+01 3.175179836453e+00 0.0 
3.175179836453e+00 -1.198726208459e+02 0.0 
0.0 0.0 -5.547928516818e+01 
-2.928953701731e+01 -5.363139845603e-01 0.0 
-5.363139845603e-01 -8.057008236020e+01 0.0 
0.0 0.0 -3.255788581325e+01 
-1.313556250909e+02 7.428387115548e+00 0.0 
7.428387115548e+00 -3.280807378809e+02 0.0 
0.0 0.0 -1.374309088915e+02 
-9.880140015124e+01 1.174782549304e+01 0.0 
1.174782549304e+01 -2.679478814704e+02 0.0 
0.0 0.0 -1.096247844865e+02 
-1.002647176479e+02 1.849625059926e+01 0.0 
1.849625059926e+01 -2.650579778205e+02 0.0 
0.0 0.0 -1.091968086405e+02 
-9.141088903824e+01 7.134967381879e+00 0.0 
7.134967381879e+00 -1.946869536891e+02 0.0 
0.0 0.0 -8.542935281821e+01 
-8.502408503211e+01 3.923498212999e+00 0.0 
3.923498212999e+00 -2.351535941034e+02 0.0 
0.0 0.0 -9.565330374066e+01 
-3.009634718359e+01 -2.586420988056e+00 0.0 
-2.586420988056e+00 -8.297193225616e+01 0.0 
0.0 0.0 -3.352048383192e+01 
-9.816356080015e+01 4.914831228483e+00 0.0 
4.914831228483e+00 -2.630715875861e+02 0.0 
0.0 0.0 -1.079705445159e+02 
-1.352173498300e+02 7.427432970199e+00 0.0 
7.427432970199e+00 -3.366204308828e+02 0.0 
0.0 0.0 -1.411513342138e+02 
-4.577727043942e+01 -1.163947808851e+00 0.0 
-1.163947808851e+00 -1.333252402236e+02 0.0 
0.0 0.0 -5.333075319891e+01 
-1.168128229161e+02 4.153052516147e+00 0.0 
4.153052516147e+00 -2.984873404624e+02 0.0 
0.0 0.0 -1.241900490135e+02 
-7.405343334962e+01 4.058092387891e+00 0.0 
4.058092387891e+00 -1.439227081291e+02 0.0 
0.0 0.0 -6.499284244361e+01 
-3.516728562629e+01 -2.394782040365e+00 0.0 
-2.394782040365e+00 -1.046767804887e+02 0.0 
0.0 0.0 -4.155321983451e+01 
-1.028535813959e+02 4.776719283910e+00 0.0 
4.776719283910e+00 -2.720905879191e+02 0.0 
0.0 0.0 -1.120832507945e+02 
-5.573831647873e+01 2.897362504338e+00 0.0 
2.897362504338e+00 -9.151594102598e+01 0.0 
0.0 0.0 -4.377627725141e+01 
-4.371838221767e+01 -4.469260090021e-01 0.0 
-4.469260090021e-01 -1.203940718810e+02 0.0 
0.0 0.0 -4.883373622961e+01 
-5.198835051528e+01 -9.609362703181e-01 0.0 
-9.609362703181e-01 -1.450479129633e+02 0.0 
0.0 0.0 -5.871087904359e+01 
-6.397214373735e+01 2.188053153464e+01 0.0 
2.188053153464e+01 -1.640881418089e+02 0.0 
0.0 0.0 -6.801808566386e+01 
-1.108583733601e+02 3.091387952895e+00 0.0 
3.091387952895e+00 -2.889347021685e+02 0.0 
0.0 0.0 -1.195379226586e+02 
-4.320560549881e+01 2.208499909961e+01 0.0 
2.208499909961e+01 -9.630595243280e+01 0.0 
0.0 0.0 -4.145346737948e+01 
-6.044499923264e+01 2.040600846363e+01 0.0 
2.040600846363e+01 -1.610368356683e+02 0.0 
0.0 0.0 -6.604455047029e+01 
-6.961851057943e+01 3.232755281617e+00 0.0 
3.232755281617e+00 -1.304927323559e+02 0.0 
0.0 0.0 -5.963337288059e+01 
-5.690296033525e+01 5.539952087125e-01 0.0 
5.539952087125e-01 -1.028028541858e+02 0.0 
0.0 0.0 -4.751174435631e+01 
-5.831542958147e+01 1.814736133586e+00 0.0 
1.814736133586e+00 -9.970387928335e+01 0.0 
0.0 0.0 -4.700579265945e+01 
-8.084596728213e+01 -4.731423984692e-01 0.0 
-4.731423984692e-01 -2.184443007769e+02 0.0 
0.0 0.0 -8.938708041771e+01 
-1.258858577550e+02 9.708817312688e+00 0.0 
9.708817312688e+00 -3.189247917689e+02 0.0 
0.0 0.0 -1.330431948572e+02 
-9.346271271212e+01 5.043544154536e+00 0.0 
5.043544154536e+00 -2.539177436788e+02 0.0 
0.0 0.0 -1.038141369173e+02 
-5.468007067288e+01 2.187902283117e+00 0.0 
2.187902283117e+00 -9.302416082290e+01 0.0 
0.0 0.0 -4.391126944873e+01 
-1.062538014788e+02 2.492413618897e+01 0.0 
2.492413618897e+01 -2.246445003906e+02 0.0 
0.0 0.0 -9.886949056080e+01 
-1.044200776077e+02 2.035474591138e+01 0.0 
2.035474591138e+01 -2.706375674026e+02 0.0 
0.0 0.0 -1.121172935031e+02 
-1.060074800553e+02 3.326281870691e+00 0.0 
3.326281870691e+00 -2.800631832362e+02 0.0 
0.0 0.0 -1.154211989875e+02 
-7.596629961051e+01 3.210140242977e+00 0.0 
3.210140242977e+00 -1.520986793169e+02 0.0 
0.0 0.0 -6.801949367823e+01 
-5.913232745795e+01 -4.015891652932e-01 0.0 
-4.015891652932e-01 -1.666701434343e+02 0.0 
0.0 0.0 -6.734074126768e+01 
-5.559414765651e+01 -7.583046056299e-01 0.0 
-7.583046056299e-01 -1.559309204271e+02 0.0 
0.0 0.0 -6.305752042508e+01 
-3.136210488032e+01 -1.702577415172e+00 0.0 
-1.702577415172e+00 -8.579215523317e+01 0.0 
0.0 0.0 -3.474627803405e+01 
-1.023023477323e+02 6.147968791529e+00 0.0 
6.147968791529e+00 -2.726318795936e+02 0.0 
0.0 0.0 -1.120802681978e+02 
-5.913924643619e+01 -4.389894201959e-01 0.0 
-4.389894201959e-01 -1.646271615208e+02 0.0 
0.0 0.0 -6.672992238708e+01 
-6.763196047745e+01 4.108401555387e+00 0.0 
4.108401555387e+00 -1.223336872058e+02 0.0 
0.0 0.0 -5.658969430499e+01 
-6.432144384679e+01 4.083847040018e+00 0.0 
4.083847040018e+00 -1.116586098165e+02 0.0 
0.0 0.0 -5.239401609899e+01 
-6.754397068131e+01 1.088174431964e+01 0.0 
1.088174431964e+01 -1.988748400180e+02 0.0 
0.0 0.0 -7.952564320978e+01 
-4.726180756546e+01 -2.558589292056e+00 0.0 
-2.558589292056e+00 -1.355522288104e+02 0.0 
0.0 0.0 -5.444421091276e+01 
-3.945885210960e+01 6.674905738904e+00 0.0 
6.674905738904e+00 -1.276959294502e+02 0.0 
0.0 0.0 -4.974643446794e+01 
-5.066435284136e+01 -2.296420089062e+00 0.0 
-2.296420089062e+00 -1.441906428780e+02 0.0 
0.0 0.0 -5.805649871581e+01 
-5.408346820907e+01 -2.030621032346e+00 0.0 
-2.030621032346e+00 -1.550097796891e+02 0.0 
0.0 0.0 -6.232797436944e+01 
-3.375065167794e+01 -2.830702492785e+00 0.0 
-2.830702492785e+00 -9.388502752206e+01 0.0 
0.0 0.0 -3.789070376000e+01 
-1.205835744771e+02 1.020338280639e+01 0.0 
1.020338280639e+01 -3.094173617704e+02 0.0 
0.0 0.0 -1.286002808742e+02 
-6.397660620941e+01 -1.840775670625e-01 0.0 
-1.840775670625e-01 -1.864997065000e+02 0.0 
0.0 0.0 -7.474289381282e+01 
-8.114788497493e+01 4.935837782328e+00 0.0 
4.935837782328e+00 -1.642344132108e+02 0.0 
0.0 0.0 -7.321468945571e+01 
-6.720902181368e+01 7.821247456875e-01 0.0 
7.821247456875e-01 -1.964622826402e+02 0.0 
0.0 0.0 -7.870139133615e+01 
-9.628697780041e+01 3.728548471927e+00 0.0 
3.728548471927e+00 -2.620171026391e+02 0.0 
0.0 0.0 -1.070912241319e+02 
-7.928580925565e+01 1.719790775475e+00 0.0 
1.719790775475e+00 -2.242989955358e+02 0.0 
0.0 0.0 -9.067544143743e+01 
-6.100497452630e+01 1.766689941005e+01 0.0 
1.766689941005e+01 -1.715710817861e+02 0.0 
0.0 0.0 -6.937281689372e+01 
-3.443900250880e+01 -1.454210694919e+00 0.0 
-1.454210694919e+00 -9.450192683985e+01 0.0 
0.0 0.0 -3.828227880459e+01 
-1.297188469618e+02 7.973291313325e+00 0.0 
7.973291313325e+00 -3.273174289029e+02 0.0 
0.0 0.0 -1.367108827594e+02 
-1.364781449356e+02 1.085647104240e+01 0.0 
1.085647104240e+01 -3.382438826343e+02 0.0 
0.0 0.0 -1.420166082710e+02 
-8.327626709232e+01 2.270219728608e+01 0.0 
2.270219728608e+01 -2.035606370011e+02 0.0 
0.0 0.0 -8.565107122804e+01 
-5.741146651409e+01 -1.617298922512e+00 0.0 
-1.617298922512e+00 -1.656723046996e+02 0.0 
0.0 0.0 -6.652513136410e+01 
-8.757208250911e+01 2.723340335339e+00 0.0 
2.723340335339e+00 -2.431797826670e+02 0.0 
0.0 0.0 -9.882555955284e+01 
-6.527504524177e+01 2.110240422186e+00 0.0 
2.110240422186e+00 -1.209986321421e+02 0.0 
0.0 0.0 -5.548210321516e+01 
-6.279708926393e+01 -1.262731550287e-01 0.0 
-1.262731550287e-01 -1.753910356259e+02 0.0 
0.0 0.0 -7.105643746694e+01 
-4.693443154188e+01 1.913048053530e+01 0.0 
1.913048053530e+01 -1.257984836140e+02 0.0 
0.0 0.0 -5.141987454676e+01 
-4.818882920680e+01 -1.006186448162e+00 0.0 
-1.006186448162e+00 -1.340225995815e+02 0.0 
0.0 0.0 -5.426342863649e+01 
-3.984252364265e+01 -1.873113109256e+00 0.0 
-1.873113109256e+00 -1.143018468786e+02 0.0 
0.0 0.0 -4.584331115637e+01 
-6.259673183917e+01 1.206154469012e-01 0.0 
1.206154469012e-01 -1.772343324065e+02 0.0 
0.0 0.0 -7.154931927370e+01 
-4.352081740824e+01 -2.359553275092e+00 0.0 
-2.359553275092e+00 -1.221949536917e+02 0.0 
0.0 0.0 -4.931473132997e+01 
-4.054697734796e+01 -7.520710707129e-01 0.0 
-7.520710707129e-01 -1.117176015983e+02 0.0 
0.0 0.0 -4.527937368389e+01 
-8.132550062042e+01 2.835006019365e+00 0.0 
2.835006019365e+00 -2.254081730860e+02 0.0 
0.0 0.0 -9.162010211193e+01 
-1.011486523845e+02 3.533436499746e+00 0.0 
3.533436499746e+00 -2.710951350203e+02 0.0 
0.0 0.0 -1.112731362214e+02 
-1.030964365966e+02 2.485342836660e+01 0.0 
2.485342836660e+01 -2.448259185323e+02 0.0 
0.0 0.0 -1.039767065387e+02 
-6.962815958459e+00 -7.116379441743e-01 0.0 
-7.116379441743e-01 -9.105940800315e+00 0.0 
0.0 0.0 -4.420627027632e+00 
-6.191573464282e+01 2.362021922602e+00 0.0 
2.362021922602e+00 -1.874739437500e+02 0.0 
0.0 0.0 -7.441690351784e+01 
-6.306143841458e+01 8.748010884049e-01 0.0 
8.748010884049e-01 -1.874333964520e+02 0.0 
0.0 0.0 -7.474845045998e+01 
-6.069079998901e+01 -9.966842004027e-01 0.0 
-9.966842004027e-01 -1.761947092910e+02 0.0 
0.0 0.0 -7.066565278400e+01 
-6.183352800291e+01 1.985387896628e+00 0.0 
1.985387896628e+00 -1.102548248435e+02 0.0 
0.0 0.0 -5.122650585392e+01 
-7.141930467710e+01 7.372468488007e-01 0.0 
7.372468488007e-01 -2.053882652338e+02 0.0 
0.0 0.0 -8.264227097326e+01 
-5.055620062348e+01 -2.139688620902e+00 0.0 
-2.139688620902e+00 -1.419827861757e+02 0.0 
0.0 0.0 -5.736169603975e+01 
-6.601380863980e+01 8.308425561434e-01 0.0 
8.308425561434e-01 -1.875857838013e+02 0.0 
0.0 0.0 -7.567987773232e+01 
-7.538814474477e+01 2.078167693714e+00 0.0 
2.078167693714e+00 -1.537490567240e+02 0.0 
0.0 0.0 -6.834116044063e+01 
-5.138153554706e+01 -6.537661436506e-01 0.0 
-6.537661436506e-01 -1.426626479622e+02 0.0 
0.0 0.0 -5.781325505277e+01 
-2.098508678656e+01 -2.460326769073e+00 0.0 
-2.460326769073e+00 -5.459351246754e+01 0.0 
0.0 0.0 -2.227357977623e+01 
-2.735733787776e+01 -2.737815661848e+00 0.0 
-2.737815661848e+00 -7.443494276924e+01 0.0 
0.0 0.0 -3.013768419410e+01 
-4.112693290921e+01 -2.563939530822e+00 0.0 
-2.563939530822e+00 -1.220609760827e+02 0.0 
0.0 0.0 -4.855637269756e+01 
-5.056965150737e+01 -2.244478444119e+00 0.0 
-2.244478444119e+00 -1.464281097977e+02 0.0 
0.0 0.0 -5.869932839151e+01 
-6.613082810315e+01 2.089148563922e+00 0.0 
2.089148563922e+00 -1.968231761202e+02 0.0 
0.0 0.0 -7.848620126700e+01 
-6.937391588146e+01 1.730150967874e+00 0.0 
1.730150967874e+00 -1.976008466718e+02 0.0 
0.0 0.0 -7.969242876599e+01 
-3.104760260405e+01 -2.464660657251e+00 0.0 
-2.464660657251e+00 -8.401176033213e+01 0.0 
0.0 0.0 -3.411780888085e+01 
-2.730930023940e+01 -1.366151862167e+00 0.0 
-1.366151862167e+00 -7.470307915284e+01 0.0 
0.0 0.0 -3.020371381767e+01 
-6.247329929807e+01 5.545763530236e+00 0.0 
5.545763530236e+00 -9.981126003196e+01 0.0 
0.0 0.0 -4.828536779901e+01 
-4.441086454375e+01 -8.851347995261e-01 0.0 
-8.851347995261e-01 -1.228939089916e+02 0.0 
0.0 0.0 -4.979143206061e+01 
-1.142124269301e+02 7.459458291619e+00 0.0 
7.459458291619e+00 -2.994484686138e+02 0.0 
0.0 0.0 -1.236982686632e+02 
-9.947346083899e+01 2.402732276032e+01 0.0 
2.402732276032e+01 -2.410435654228e+02 0.0 
0.0 0.0 -1.017551078785e+02 
-7.342202502799e+01 1.816010534132e+01 0.0 
1.816010534132e+01 -1.222670448784e+02 0.0 
0.0 0.0 -5.830672097193e+01 
-8.505800813795e+01 7.690583862026e+00 0.0 
7.690583862026e+00 -1.711117151825e+02 0.0 
0.0 0.0 -7.645091699614e+01 
-1.065489013568e+02 2.538182910109e+01 0.0 
2.538182910109e+01 -2.487662049699e+02 0.0 
0.0 0.0 -1.061945318980e+02 
-6.315983936750e+01 1.170125904837e+01 0.0 
1.170125904837e+01 -1.872424941816e+02 0.0 
0.0 0.0 -7.472070006473e+01 
-9.129641842041e+01 2.326250616510e+01 0.0 
2.326250616510e+01 -2.222328366263e+02 0.0 
0.0 0.0 -9.365877651402e+01 
-3.424522385436e+01 -2.413754596570e+00 0.0 
-2.413754596570e+00 -9.512230284387e+01 0.0 
0.0 0.0 -3.841025800947e+01 
-6.995216035657e+01 9.941724337951e-01 0.0 
9.941724337951e-01 -1.963670738179e+02 0.0 
0.0 0.0 -7.949577025235e+01 
-5.348619089537e+01 1.362241095414e+01 0.0 
1.362241095414e+01 -1.622333716869e+02 0.0 
0.0 0.0 -6.431586877469e+01 
-3.460071559245e+01 -8.925176875164e-01 0.0 
-8.925176875164e-01 -1.060362434267e+02 0.0 
0.0 0.0 -4.179108770575e+01 
-2.908355789388e+01 -2.651367168792e+00 0.0 
-2.651367168792e+00 -7.594926319432e+01 0.0 
0.0 0.0 -3.110984632646e+01 
-5.771554069056e+01 -1.784651758438e+00 0.0 
-1.784651758438e+00 -1.637293375903e+02 0.0 
0.0 0.0 -6.603346348425e+01 
-6.529065009192e+01 1.698632184702e+00 0.0 
1.698632184702e+00 -1.885787595300e+02 0.0 
0.0 0.0 -7.576082288658e+01 
-6.844594163540e+01 2.869979051379e+00 0.0 
2.869979051379e+00 -1.979822562160e+02 0.0 
0.0 0.0 -7.952845935543e+01 
-4.674280848738e+01 -1.999784643979e+00 0.0 
-1.999784643979e+00 -1.308415443124e+02 0.0 
0.0 0.0 -5.287530583994e+01 
-7.482224979010e+01 1.795227589992e+00 0.0 
1.795227589992e+00 -2.152178061841e+02 0.0 
0.0 0.0 -8.661201679227e+01 
-6.425173082124e+01 2.991556433684e+00 0.0 
2.991556433684e+00 -1.886168203304e+02 0.0 
0.0 0.0 -7.546056534549e+01 
-6.487581396023e+01 3.845436393120e+00 0.0 
3.845436393120e+00 -1.962063237893e+02 0.0 
0.0 0.0 -7.792464132486e+01 
-5.216988827256e+01 -1.081676695785e+00 0.0 
-1.081676695785e+00 -1.473542169879e+02 0.0 
0.0 0.0 -5.945723157815e+01 
-9.754045397324e+01 1.412921397991e+01 0.0 
1.412921397991e+01 -2.643073105460e+02 0.0 
0.0 0.0 -1.081543293558e+02 
-7.224060169544e+01 5.329973973112e+00 0.0 
5.329973973112e+00 -1.319558209973e+02 0.0 
0.0 0.0 -6.085892680782e+01 
-6.064252097771e+01 4.311310367555e+00 0.0 
4.311310367555e+00 -1.864561263935e+02 0.0 
0.0 0.0 -7.372959421138e+01 
-1.243147978519e+02 8.508869591557e+00 0.0 
8.508869591557e+00 -3.179985885614e+02 0.0 
0.0 0.0 -1.322940159240e+02 
-3.694951639656e+01 -1.915788003404e+00 0.0 
-1.915788003404e+00 -1.055352471027e+02 0.0 
0.0 0.0 -4.234542904976e+01 
-1.342263246895e+02 1.190055770221e+01 0.0 
1.190055770221e+01 -3.358606670281e+02 0.0 
0.0 0.0 -1.406260975153e+02 
-7.042885809071e+01 1.901588962273e+00 0.0 
1.901588962273e+00 -2.060217530443e+02 0.0 
0.0 0.0 -8.253518334049e+01 
-1.099996793183e+02 2.611714313287e+01 0.0 
2.611714313287e+01 -2.543952462898e+02 0.0 
0.0 0.0 -1.089184776824e+02 
-7.610667795462e+01 2.470433364478e+01 0.0 
2.470433364478e+01 -1.600704226167e+02 0.0 
0.0 0.0 -7.045313017140e+01 
-3.547544794286e+01 -3.090385281742e+00 0.0 
-3.090385281742e+00 -1.029566558822e+02 0.0 
0.0 0.0 -4.112963114751e+01 
-7.710375862617e+01 2.052869433947e+01 0.0 
2.052869433947e+01 -1.370928950648e+02 0.0 
0.0 0.0 -6.385899610731e+01 
-9.091135803993e+01 1.203100104521e+01 0.0 
1.203100104521e+01 -1.834842826841e+02 0.0 
0.0 0.0 -8.191869221722e+01 
-7.370831105710e+01 3.204272111017e+00 0.0 
3.204272111017e+00 -2.152912206238e+02 0.0 
0.0 0.0 -8.629985950428e+01 
-4.127703488614e+01 1.518032952899e+01 0.0 
1.518032952899e+01 -1.180738994171e+02 0.0 
0.0 0.0 -4.740528029096e+01 
-8.067543449513e+01 2.235747529942e+01 0.0 
2.235747529942e+01 -1.525160078624e+02 0.0 
0.0 0.0 -6.955743270725e+01 
-5.631524136031e+01 2.052617514575e+01 0.0 
2.052617514575e+01 -1.458143597415e+02 0.0 
0.0 0.0 -6.023888033056e+01 
-3.010593138014e+01 -3.419176612805e+00 0.0 
-3.419176612805e+00 -8.339021556550e+01 0.0 
0.0 0.0 -3.364884408369e+01 
-9.725679417801e+01 1.043563910264e+01 0.0 
1.043563910264e+01 -2.134860271297e+02 0.0 
0.0 0.0 -9.282284639232e+01 
-2.734203761004e+01 -3.441537080184e+00 0.0 
-3.441537080184e+00 -7.294147801774e+01 0.0 
0.0 0.0 -2.968505468833e+01 
-1.256331697473e+02 2.088551084363e+01 0.0 
2.088551084363e+01 -3.136827529390e+02 0.0 
0.0 0.0 -1.313947768059e+02 
-8.565133887038e+01 3.890240047041e+00 0.0 
3.890240047041e+00 -1.832882315174e+02 0.0 
0.0 0.0 -8.028187111632e+01 
-1.028388712503e+02 1.360073931985e+01 0.0 
1.360073931985e+01 -2.754171746303e+02 0.0 
0.0 0.0 -1.130768137642e+02 
-5.730637227596e+01 1.008398380748e+00 0.0 
1.008398380748e+00 -1.008543807661e+02 0.0 
0.0 0.0 -4.704822591263e+01 
-8.396809841139e+01 8.194969702708e+00 0.0 
8.194969702708e+00 -1.624635685652e+02 0.0 
0.0 0.0 -7.352950009299e+01 
-6.724353856013e+01 4.426085406877e+00 0.0 
4.426085406877e+00 -1.973434272002e+02 0.0 
0.0 0.0 -7.897608972811e+01 
-7.533879479544e+01 1.212610813862e+01 0.0 
1.212610813862e+01 -2.167381759812e+02 0.0 
0.0 0.0 -8.722309123299e+01 
-9.144732610042e+01 9.075355786115e+00 0.0 
9.075355786115e+00 -1.919577961495e+02 0.0 
0.0 0.0 -8.462153667497e+01 
-1.104325172620e+02 4.440800669493e+00 0.0 
4.440800669493e+00 -2.899085369876e+02 0.0 
0.0 0.0 -1.197023162749e+02 
-7.690988578896e+01 6.775423523490e+00 0.0 
6.775423523490e+00 -1.418713031703e+02 0.0 
0.0 0.0 -6.523435668778e+01 
-9.786883709610e+01 8.572793191408e+00 0.0 
8.572793191408e+00 -2.692798666358e+02 0.0 
0.0 0.0 -1.097446111196e+02 
-3.274224741279e+01 -3.036836148725e+00 0.0 
-3.036836148725e+00 -9.434535302838e+01 0.0 
0.0 0.0 -3.772628013235e+01 
-8.153064440089e+01 8.477358529349e+00 0.0 
8.477358529349e+00 -1.520774541597e+02 0.0 
0.0 0.0 -6.968242956817e+01 
-1.245256396285e+02 2.969425483746e+01 0.0 
2.969425483746e+01 -2.952271625247e+02 0.0 
0.0 0.0 -1.255258406460e+02 
-1.352628211426e+02 9.454811935588e+00 0.0 
9.454811935588e+00 -3.372884970168e+02 0.0 
0.0 0.0 -1.413653954478e+02 
-6.802362537568e+01 -1.433550215771e-01 0.0 
-1.433550215771e-01 -1.953013859961e+02 0.0 
0.0 0.0 -7.859750341154e+01 
-5.938139668030e+01 3.060119475421e+00 0.0 
3.060119475421e+00 -1.020130002322e+02 0.0 
0.0 0.0 -4.801831907375e+01 
-5.351677827488e+01 8.081023543345e-01 0.0 
8.081023543345e-01 -9.022732106904e+01 0.0 
0.0 0.0 -4.272322980318e+01 
-7.267172143068e+01 2.824447196151e+00 0.0 
2.824447196151e+00 -2.071750786920e+02 0.0 
0.0 0.0 -8.355404003680e+01 
-1.054107789011e+02 4.715366491611e+00 0.0 
4.715366491611e+00 -2.808019630791e+02 0.0 
0.0 0.0 -1.154638225941e+02 
-1.097700543459e+02 6.021108663796e+00 0.0 
6.021108663796e+00 -2.902644784061e+02 0.0 
0.0 0.0 -1.196103598256e+02 
-2.487688001892e+01 -1.538603550692e+00 0.0 
-1.538603550692e+00 -6.588576278793e+01 0.0 
0.0 0.0 -2.682879284206e+01 
-3.438706018467e+01 5.896356659730e+00 0.0 
5.896356659730e+00 -1.103846190257e+02 0.0 
0.0 0.0 -4.303150376311e+01 
-6.361419696589e+01 6.027881223979e+00 0.0 
6.027881223979e+00 -1.944908712324e+02 0.0 
0.0 0.0 -7.703152045947e+01 
-6.298921724397e+01 4.760869219514e+00 0.0 
4.760869219514e+00 -1.875563921315e+02 0.0 
0.0 0.0 -7.476368281263e+01 
-5.635678273349e+01 1.826543795948e+01 0.0 
1.826543795948e+01 -1.572862046282e+02 0.0 
0.0 0.0 -6.369289620852e+01 
-9.636381142867e+01 1.065927656533e+01 0.0 
1.065927656533e+01 -2.034566819989e+02 0.0 
0.0 0.0 -8.954614802826e+01 
-9.870745159874e+01 2.012485570110e+01 0.0 
2.012485570110e+01 -2.067515008239e+02 0.0 
0.0 0.0 -9.123768572678e+01 
-8.759143158125e+01 5.716180216761e+00 0.0 
5.716180216761e+00 -1.843215106877e+02 0.0 
0.0 0.0 -8.117388268070e+01 
-4.609023625790e+01 2.311629114721e+01 0.0 
2.311629114721e+01 -9.763635804946e+01 0.0 
0.0 0.0 -4.271797829221e+01 
-8.458657764762e+01 1.032963894240e+01 0.0 
1.032963894240e+01 -1.622959084038e+02 0.0 
0.0 0.0 -7.366474581542e+01 
-1.071613782600e+02 5.936884057076e+00 0.0 
5.936884057076e+00 -2.818098684346e+02 0.0 
0.0 0.0 -1.162913740084e+02 
-9.010747617400e+01 6.921499276768e+00 0.0 
6.921499276768e+00 -1.921987993530e+02 0.0 
0.0 0.0 -8.429188265809e+01 
-7.897883089790e+01 8.767633091754e+00 0.0 
8.767633091754e+00 -1.418049138420e+02 0.0 
0.0 0.0 -6.583512342196e+01 
-7.347512232545e+01 1.817130698254e+00 0.0 
1.817130698254e+00 -2.064990087189e+02 0.0 
0.0 0.0 -8.359223931330e+01 
-5.938683417225e+01 6.712532999441e+00 0.0 
6.712532999441e+00 -1.841518854125e+02 0.0 
0.0 0.0 -7.266161587541e+01 
-7.828915625380e+01 6.161957978545e+00 0.0 
6.161957978545e+00 -1.503111575593e+02 0.0 
0.0 0.0 -6.818009414392e+01 
-9.045926543261e+01 9.554278430768e+00 0.0 
9.554278430768e+00 -1.831928880201e+02 0.0 
0.0 0.0 -8.169564603581e+01 
-7.691630617881e+01 4.495713603625e+00 0.0 
4.495713603625e+00 -1.508737460628e+02 0.0 
0.0 0.0 -6.793701567247e+01 
-7.395202945009e+01 4.574299152952e+00 0.0 
4.574299152952e+00 -1.402454203890e+02 0.0 
0.0 0.0 -6.385923495174e+01 
-1.248811876971e+02 6.580527770243e+00 0.0 
6.580527770243e+00 -3.181645670727e+02 0.0 
0.0 0.0 -1.325137264310e+02 
-1.200940247475e+02 2.132348629922e+01 0.0 
2.132348629922e+01 -3.017394597849e+02 0.0 
0.0 0.0 -1.261500453597e+02 
-1.195822677994e+02 7.014006957659e+00 0.0 
7.014006957659e+00 -3.089097169775e+02 0.0 
0.0 0.0 -1.281475954331e+02 
-9.226437745549e+01 2.606770273516e+00 0.0 
2.606770273516e+00 -2.522196184925e+02 0.0 
0.0 0.0 -1.029451987844e+02 
-4.153902134116e+01 1.907670288449e+01 0.0 
1.907670288449e+01 -6.199461133316e+01 0.0 
0.0 0.0 -3.066008980230e+01 
-1.069026296866e+02 1.547455388320e+01 0.0 
1.547455388320e+01 -2.823987153629e+02 0.0 
0.0 0.0 -1.163904035148e+02 
-7.984170516026e+01 1.142197483638e+01 0.0 
1.142197483638e+01 -1.443015091816e+02 0.0 
0.0 0.0 -6.684296430257e+01 
-3.981238489814e+01 -2.198075314305e+00 0.0 
-2.198075314305e+00 -1.110932472233e+02 0.0 
0.0 0.0 -4.487168963643e+01 
-6.591723335676e+01 6.458429321469e+00 0.0 
6.458429321469e+00 -1.955650107666e+02 0.0 
0.0 0.0 -7.804467323701e+01 
-7.573028749273e+01 6.641404447739e+00 0.0 
6.641404447739e+00 -2.225833037467e+02 0.0 
0.0 0.0 -8.909407737182e+01 
-8.360581032556e+01 1.339773846718e+01 0.0 
1.339773846718e+01 -2.347276845324e+02 0.0 
0.0 0.0 -9.510004845738e+01 
-3.347472204335e+01 1.002182192983e+00 0.0 
1.002182192983e+00 -1.052408571649e+02 0.0 
0.0 0.0 -4.121467376249e+01 
-6.162653121236e+01 7.001566441127e+00 0.0 
7.001566441127e+00 -1.851685226064e+02 0.0 
0.0 0.0 -7.363851614562e+01 
-9.233852788768e+01 1.469523460234e+01 0.0 
1.469523460234e+01 -2.528141435536e+02 0.0 
0.0 0.0 -1.031458014324e+02 
-5.320900011512e+01 2.143564438427e+01 0.0 
2.143564438427e+01 -1.005238341638e+02 0.0 
0.0 0.0 -4.571985028369e+01 
-7.571011491674e+01 7.485417607571e-01 0.0 
7.485417607571e-01 -2.143242760563e+02 0.0 
0.0 0.0 -8.661031729193e+01 
-7.125131495210e+01 7.127646780540e+00 0.0 
7.127646780540e+00 -1.209618117152e+02 0.0 
0.0 0.0 -5.726393800018e+01 
-3.993209049629e+01 -3.895450570078e-01 0.0 
-3.895450570078e-01 -6.023838196858e+01 0.0 
0.0 0.0 -2.965114173946e+01 
-2.503962428226e+01 1.590776858221e+01 0.0 
1.590776858221e+01 -1.833972719939e+01 0.0 
0.0 0.0 -1.261380544450e+01 
-8.955362184249e+01 3.875420663255e+00 0.0 
3.875420663255e+00 -2.442716475818e+02 0.0 
0.0 0.0 -9.974758082730e+01 
-1.061618488608e+02 1.204731115340e+01 0.0 
1.204731115340e+01 -2.851179612839e+02 0.0 
0.0 0.0 -1.169839430434e+02 
-1.009017556763e+02 1.923447216495e+01 0.0 
1.923447216495e+01 -2.137244525232e+02 0.0 
0.0 0.0 -9.398786245986e+01 
-6.996335382141e+01 9.696939619578e+00 0.0 
9.696939619578e+00 -2.091321473657e+02 0.0 
0.0 0.0 -8.332865035614e+01 
-8.378583912294e+01 1.669433589884e+00 0.0 
1.669433589884e+00 -2.332981642639e+02 0.0 
0.0 0.0 -9.472520101604e+01 
-6.917567209049e+01 5.358946242871e+00 0.0 
5.358946242871e+00 -1.214112943611e+02 0.0 
0.0 0.0 -5.677608993548e+01 
-2.636855300731e+01 1.734955393183e+01 0.0 
1.734955393183e+01 -1.989856322679e+01 0.0 
0.0 0.0 -1.348013487023e+01 
-1.007706058798e+02 1.261739096132e+01 0.0 
1.261739096132e+01 -2.743282426552e+02 0.0 
0.0 0.0 -1.121296545605e+02 
-8.007783849781e+01 1.147129078068e+01 0.0 
1.147129078068e+01 -2.280902038083e+02 0.0 
0.0 0.0 -9.205041269182e+01 
-5.719254077410e+01 2.361908759486e+01 0.0 
2.361908759486e+01 -1.033566187535e+02 0.0 
0.0 0.0 -4.776474785829e+01 
-1.115371593233e+02 7.228212657102e+00 0.0 
7.228212657102e+00 -2.912745156268e+02 0.0 
0.0 0.0 -1.204435024850e+02 
-3.664776170081e+01 -1.026579229923e+00 0.0 
-1.026579229923e+00 -1.068820132898e+02 0.0 
0.0 0.0 -4.265893249718e+01 
-1.160070686335e+02 8.645387912326e+00 0.0 
8.645387912326e+00 -3.004673497566e+02 0.0 
0.0 0.0 -1.245423255170e+02 
-1.291564210358e+02 1.005135706520e+01 0.0 
1.005135706520e+01 -3.269585096236e+02 0.0 
0.0 0.0 -1.364344791978e+02 
-9.551067435411e+01 1.320602538734e+01 0.0 
1.320602538734e+01 -2.632484737176e+02 0.0 
0.0 0.0 -1.072277444215e+02 
-7.962197020743e+01 6.604792718317e+00 0.0 
6.604792718317e+00 -1.523859818388e+02 0.0 
0.0 0.0 -6.920238561387e+01 
-1.014971618916e+02 2.423856045348e+01 0.0 
2.423856045348e+01 -2.522540949223e+02 0.0 
0.0 0.0 -1.057253770442e+02 
-1.309095753273e+02 1.140252604326e+01 0.0 
1.140252604326e+01 -3.279492531319e+02 0.0 
0.0 0.0 -1.372576485378e+02 
-2.652607643007e+01 1.767531060355e+01 0.0 
1.767531060355e+01 -2.054444628029e+01 0.0 
0.0 0.0 -1.372115681311e+01 
-7.415089732287e+01 6.908635578662e+00 0.0 
6.908635578662e+00 -1.314329441948e+02 0.0 
0.0 0.0 -6.127515245530e+01 
-1.184183755109e+02 2.350739165786e+01 0.0 
2.350739165786e+01 -2.943959745433e+02 0.0 
0.0 0.0 -1.234443050163e+02 
-8.099192486774e+01 5.989560695058e+00 0.0 
5.989560695058e+00 -1.608236375630e+02 0.0 
0.0 0.0 -7.214466872923e+01 
-8.654580413457e+01 1.200314041705e+01 0.0 
1.200314041705e+01 -2.451268000207e+02 0.0 
0.0 0.0 -9.910178124659e+01 
-6.451050092584e+01 8.910283599181e+00 0.0 
8.910283599181e+00 -1.922487068778e+02 0.0 
0.0 0.0 -7.662776234108e+01 
-8.479839519127e+01 1.916521141970e-01 0.0 
1.916521141970e-01 -2.305024843283e+02 0.0 
0.0 0.0 -9.419026385586e+01 
-2.357804374077e+01 9.951609182720e-01 0.0 
9.951609182720e-01 -6.029680889470e+01 0.0 
0.0 0.0 -2.476245579064e+01 
-8.372048330420e+01 5.731393725462e+00 0.0 
5.731393725462e+00 -1.714315839088e+02 0.0 
0.0 0.0 -7.614562016390e+01 
-4.307555278775e+01 -1.941331729532e+00 0.0 
-1.941331729532e+00 -1.198448712690e+02 0.0 
0.0 0.0 -4.847612721703e+01 
-2.609484655783e+01 1.754103085376e+01 0.0 
1.754103085376e+01 -2.043133449877e+01 0.0 
0.0 0.0 -1.355785431698e+01 
-9.657119259021e+01 2.451104001451e+01 0.0 
2.451104001451e+01 -2.377399312543e+02 0.0 
0.0 0.0 -9.989333715334e+01 
-8.948229530484e+01 5.122911163440e+00 0.0 
5.122911163440e+00 -1.934983464942e+02 0.0 
0.0 0.0 -8.449419253972e+01 
-3.424597334771e+01 -1.841030679343e+00 0.0 
-1.841030679343e+00 -9.689959926960e+01 0.0 
0.0 0.0 -3.894367178520e+01 
-6.771482145134e+01 2.309290893036e+01 0.0 
2.309290893036e+01 -1.670228689062e+02 0.0 
0.0 0.0 -7.002130710727e+01 
-7.558429396678e+01 6.273475704435e+00 0.0 
6.273475704435e+00 -1.399499678721e+02 0.0 
0.0 0.0 -6.426027855166e+01 
-8.184366802264e+01 2.009709372452e+00 0.0 
2.009709372452e+00 -2.242872218088e+02 0.0 
0.0 0.0 -9.143926694943e+01 
-3.574251495922e+01 7.826923773928e-01 0.0 
7.826923773928e-01 -1.061516071714e+02 0.0 
0.0 0.0 -4.216823663920e+01 
-3.778626582777e+01 1.348811131431e+01 0.0 
1.348811131431e+01 -1.138635212061e+02 0.0 
0.0 0.0 -4.509493611016e+01 
-2.801589355086e+01 -3.199382216367e+00 0.0 
-3.199382216367e+00 -7.536677253103e+01 0.0 
0.0 0.0 -3.061479982457e+01 
-3.250182759587e+01 -2.121593909200e+00 0.0 
-2.121593909200e+00 -9.610783297413e+01 0.0 
0.0 0.0 -3.818289817100e+01 
-3.028202940633e+01 -2.815222107862e+00 0.0 
-2.815222107862e+00 -8.616074885245e+01 0.0 
0.0 0.0 -3.453283347763e+01 
-7.802329999143e+01 1.083698025155e+01 0.0 
1.083698025155e+01 -2.270836909659e+02 0.0 
0.0 0.0 -9.113209728720e+01 
-1.099657557517e+02 1.802308806098e+01 0.0 
1.802308806098e+01 -2.461945121226e+02 0.0 
0.0 0.0 -1.064480803623e+02 
-2.503868421016e+01 1.712927567695e+01 0.0 
1.712927567695e+01 -2.007236060689e+01 0.0 
0.0 0.0 -1.313331344511e+01 
-1.302180606831e+02 6.117268523493e+00 0.0 
6.117268523493e+00 -3.272948623348e+02 0.0 
0.0 0.0 -1.368538769054e+02 
-5.142627923868e+01 8.486033989217e+00 0.0 
8.486033989217e+00 -1.626111056183e+02 0.0 
0.0 0.0 -6.381121545711e+01 
-7.636358944088e+01 9.156444961440e+00 0.0 
9.156444961440e+00 -1.318289929842e+02 0.0 
0.0 0.0 -6.205777472751e+01 
-2.683423021287e+01 1.451145222728e+00 0.0 
1.451145222728e+00 -7.807152280700e+01 0.0 
0.0 0.0 -3.107172590596e+01 
-1.357882186734e+02 1.302322892655e+01 0.0 
1.302322892655e+01 -3.364374062768e+02 0.0 
0.0 0.0 -1.412676874850e+02 
-3.192716081005e+01 -2.497269573203e+00 0.0 
-2.497269573203e+00 -8.690581268026e+01 0.0 
0.0 0.0 -3.524989204709e+01 
-5.051269315474e+01 -1.744312814729e+00 0.0 
-1.744312814729e+00 -1.402419177934e+02 0.0 
0.0 0.0 -5.682638328444e+01 
-9.958362149591e+01 1.504059521907e+01 0.0 
1.504059521907e+01 -2.699424160750e+02 0.0 
0.0 0.0 -1.104578112713e+02 
-7.156194604413e+01 4.205860160456e+00 0.0 
4.205860160456e+00 -2.068971871642e+02 0.0 
0.0 0.0 -8.313773996250e+01 
-1.142484329502e+02 2.175923637956e+01 0.0 
2.175923637956e+01 -2.891221956857e+02 0.0 
0.0 0.0 -1.206111885908e+02 
-4.116289857313e+01 1.847260980463e+01 0.0 
1.847260980463e+01 -1.081557449387e+02 0.0 
0.0 0.0 -4.439559305355e+01 
-8.555537366939e+01 1.365232520839e+01 0.0 
1.365232520839e+01 -1.550229395678e+02 0.0 
0.0 0.0 -7.177349397116e+01 
-1.239401782268e+02 1.954853611348e+01 0.0 
1.954853611348e+01 -3.126724286998e+02 0.0 
0.0 0.0 -1.305837820780e+02 
-7.096420240039e+01 4.571870243739e+00 0.0 
4.571870243739e+00 -1.297059797591e+02 0.0 
0.0 0.0 -5.980105464785e+01 
-1.032950579774e+02 2.190739096775e+01 0.0 
2.190739096775e+01 -2.153134531835e+02 0.0 
0.0 0.0 -9.518255334829e+01 
-8.594425970485e+01 1.036527589816e+01 0.0 
1.036527589816e+01 -1.625917838925e+02 0.0 
0.0 0.0 -7.416081307919e+01 
-9.018790794468e+01 1.240381092914e+01 0.0 
1.240381092914e+01 -1.736925706883e+02 0.0 
0.0 0.0 -7.876414358989e+01 
-2.793536467939e+01 6.948727652725e+00 0.0 
6.948727652725e+00 -8.269227467939e+01 0.0 
0.0 0.0 -3.278829180763e+01 
-1.252210274114e+02 4.921611272070e+00 0.0 
4.921611272070e+00 -3.175424056320e+02 0.0 
0.0 0.0 -1.324290299130e+02 
-8.017952069908e+01 8.229171209364e+00 0.0 
8.229171209364e+00 -1.508555470589e+02 0.0 
0.0 0.0 -6.891052032739e+01 
-6.458497445711e+01 1.339335985657e+01 0.0 
1.339335985657e+01 -1.919978183306e+02 0.0 
0.0 0.0 -7.657483783631e+01 
-2.477895394695e+01 1.652349462290e+01 0.0 
1.652349462290e+01 -2.012669563983e+01 0.0 
0.0 0.0 -1.307169487603e+01 
-1.306537381554e+02 2.287541975811e+01 0.0 
2.287541975811e+01 -3.199933194915e+02 0.0 
0.0 0.0 -1.347941172941e+02 
-3.252207232180e+01 3.893219236652e+00 0.0 
3.893219236652e+00 -1.034202089117e+02 0.0 
0.0 0.0 -4.038268437005e+01 
-4.770412712878e+01 -4.905708493097e-01 0.0 
-4.905708493097e-01 -1.315620663971e+02 0.0 
0.0 0.0 -5.337985805775e+01 
-1.079856697545e+02 1.864002249490e+01 0.0 
1.864002249490e+01 -2.823305829871e+02 0.0 
0.0 0.0 -1.166948758225e+02 
-2.917666686357e+01 3.091249716588e-01 0.0 
3.091249716588e-01 -8.046762567462e+01 0.0 
0.0 0.0 -3.249328776146e+01 
-6.436112961695e+01 1.944479666216e+01 0.0 
1.944479666216e+01 -1.753703989041e+02 0.0 
0.0 0.0 -7.151945855631e+01 
-1.049039164185e+02 1.445560879653e+01 0.0 
1.445560879653e+01 -2.813546606768e+02 0.0 
0.0 0.0 -1.154775731286e+02 
-9.572888016024e+01 1.372180540379e+01 0.0 
1.372180540379e+01 -1.940152894866e+02 0.0 
0.0 0.0 -8.652325089406e+01 
-9.963508337824e+01 1.602986721231e+01 0.0 
1.602986721231e+01 -2.063040271473e+02 0.0 
0.0 0.0 -9.138173315767e+01 
-1.015036070197e+02 1.602053347789e+01 0.0 
1.602053347789e+01 -2.709612039947e+02 0.0 
0.0 0.0 -1.113394433043e+02 
-8.817941568801e+01 9.978626516218e+00 0.0 
9.978626516218e+00 -1.728305568243e+02 0.0 
0.0 0.0 -7.790299175370e+01 
-5.425249528113e+01 1.048878917142e+01 0.0 
1.048878917142e+01 -1.688167692602e+02 0.0 
0.0 0.0 -6.652077936240e+01 
-9.602510707975e+01 2.567981292543e+01 0.0 
2.567981292543e+01 -2.267187551248e+02 0.0 
0.0 0.0 -9.642315866136e+01 
-3.302184851347e+01 1.564525325444e+01 0.0 
1.564525325444e+01 -2.141181145033e+01 0.0 
0.0 0.0 -1.593009798914e+01 
-1.036709440078e+02 2.380746296846e+01 0.0 
2.380746296846e+01 -2.294402349104e+02 0.0 
0.0 0.0 -9.953335367547e+01 
-3.119828783892e+01 6.934743152073e+00 0.0 
6.934743152073e+00 -2.425154694450e+01 0.0 
0.0 0.0 -1.623495043502e+01 
-3.399376655635e+01 4.981831034539e+00 0.0 
4.981831034539e+00 -3.130193353371e+01 0.0 
0.0 0.0 -1.918871002702e+01 
-6.555846409587e+01 1.051595804131e+01 0.0 
1.051595804131e+01 -1.979558378843e+02 0.0 
0.0 0.0 -7.865429059405e+01 
-3.830413561324e+01 4.281476488126e+00 0.0 
4.281476488126e+00 -4.162460086525e+01 0.0 
0.0 0.0 -2.357862094355e+01 
-7.634172380466e+01 1.933445597129e+01 0.0 
1.933445597129e+01 -2.069428942040e+02 0.0 
0.0 0.0 -8.458538540259e+01 
-5.785464139167e+01 1.574369300987e+01 0.0 
1.574369300987e+01 -1.674116031166e+02 0.0 
0.0 0.0 -6.717987335249e+01 
-6.891559129320e+01 8.275263065306e+00 0.0 
8.275263065306e+00 -2.030469331894e+02 0.0 
0.0 0.0 -8.118875734477e+01 
-3.157038239062e+01 -5.111405121036e-01 0.0 
-5.111405121036e-01 -9.623755788448e+01 0.0 
0.0 0.0 -3.794238208253e+01 
-6.238053976266e+01 8.588813444901e+00 0.0 
8.588813444901e+00 -1.912760262905e+02 0.0 
0.0 0.0 -7.569696981595e+01 
-8.752732785008e+01 7.380991633798e+00 0.0 
7.380991633798e+00 -1.815747911348e+02 0.0 
0.0 0.0 -8.033063569545e+01 
-1.032367946535e+02 2.199134820701e+01 0.0 
2.199134820701e+01 -2.231420303183e+02 0.0 
0.0 0.0 -9.751364749154e+01 
-1.154347813703e+02 4.144364935677e+00 0.0 
4.144364935677e+00 -2.988752663022e+02 0.0 
0.0 0.0 -1.238930143018e+02 
-1.180549337524e+02 2.000556972331e+01 0.0 
2.000556972331e+01 -3.005938720492e+02 0.0 
0.0 0.0 -1.251946417405e+02 
-6.921423124445e+01 3.473050208467e+00 0.0 
3.473050208467e+00 -2.057388727187e+02 0.0 
0.0 0.0 -8.208593118895e+01 
-8.686677568259e+01 9.924540271272e+00 0.0 
9.924540271272e+00 -1.718513820133e+02 0.0 
0.0 0.0 -7.721544730878e+01 
-6.669680717832e+01 7.826631684101e+00 0.0 
7.826631684101e+00 -2.020101452845e+02 0.0 
0.0 0.0 -8.021208573883e+01 
-1.303378846828e+02 4.487011066301e+00 0.0 
4.487011066301e+00 -3.263597841327e+02 0.0 
0.0 0.0 -1.366093006446e+02 
-8.258221364993e+01 7.992937853153e+00 0.0 
7.992937853153e+00 -1.607610990831e+02 0.0 
0.0 0.0 -7.260299381991e+01 
-8.796074679748e+01 1.298326717310e+01 0.0 
1.298326717310e+01 -1.642034371402e+02 0.0 
0.0 0.0 -7.524925518131e+01 
-9.154979185131e+01 1.137346288322e+01 0.0 
1.137346288322e+01 -2.561425584657e+02 0.0 
0.0 0.0 -1.039077050951e+02 
-5.822949901158e+01 9.478412206643e+00 0.0 
9.478412206643e+00 -1.802287937866e+02 0.0 
0.0 0.0 -7.113748783947e+01 
-1.041820947850e+02 2.644534795088e+01 0.0 
2.644534795088e+01 -2.454431855873e+02 0.0 
0.0 0.0 -1.044875841117e+02 
-7.620786246444e+01 2.236519789645e+01 0.0 
2.236519789645e+01 -1.596602216916e+02 0.0 
0.0 0.0 -7.036042524681e+01 
-3.351020569880e+01 -4.991208128076e-01 0.0 
-4.991208128076e-01 -9.706155227146e+01 0.0 
0.0 0.0 -3.877152739108e+01 
-3.454422377706e+01 3.279362054512e+00 0.0 
3.279362054512e+00 -1.041354214214e+02 0.0 
0.0 0.0 -4.120389355955e+01 
-4.316170627552e+01 1.710958232348e+01 0.0 
1.710958232348e+01 -1.220443081339e+02 0.0 
0.0 0.0 -4.916180432283e+01 
-6.762188975633e+01 2.188891279042e+01 0.0 
2.188891279042e+01 -1.667426256328e+02 0.0 
0.0 0.0 -6.990935461675e+01 
-1.354360093136e+02 3.958694025599e+00 0.0 
3.958694025599e+00 -3.352812553945e+02 0.0 
0.0 0.0 -1.408151794124e+02 
-8.355850423343e+01 1.082008442686e+01 0.0 
1.082008442686e+01 -1.527342687565e+02 0.0 
0.0 0.0 -7.048783189697e+01 
-6.024146198580e+01 9.664556924446e+00 0.0 
9.664556924446e+00 -1.811222189337e+02 0.0 
0.0 0.0 -7.200910427584e+01 
-7.951504552538e+01 2.443898727386e+01 0.0 
2.443898727386e+01 -1.885692228801e+02 0.0 
0.0 0.0 -8.002528052164e+01 
-1.104569605432e+02 1.391102703302e+01 0.0 
1.391102703302e+01 -2.925801455833e+02 0.0 
0.0 0.0 -1.205111318379e+02 
-8.642636190747e+01 7.873572160153e+00 0.0 
7.873572160153e+00 -1.729583620878e+02 0.0 
0.0 0.0 -7.741541719859e+01 
-1.075804086564e+02 2.720144123371e+01 0.0 
2.720144123371e+01 -2.494859090250e+02 0.0 
0.0 0.0 -1.067198953044e+02 
-7.001387399234e+01 6.639003123521e+00 0.0 
6.639003123521e+00 -1.201192756935e+02 0.0 
0.0 0.0 -5.663994490574e+01 
-1.178562956094e+02 1.111587933213e+01 0.0 
1.111587933213e+01 -3.070016941543e+02 0.0 
0.0 0.0 -1.270573969291e+02 
-7.206381498244e+01 1.017968474055e+01 0.0 
1.017968474055e+01 -2.101267036563e+02 0.0 
0.0 0.0 -8.425715559163e+01 
-1.124332531630e+02 1.494305579840e+01 0.0 
1.494305579840e+01 -2.935598864390e+02 0.0 
0.0 0.0 -1.213979418806e+02 
-6.365717510057e+01 1.883694384975e+01 0.0 
1.883694384975e+01 -1.749418574349e+02 0.0 
0.0 0.0 -7.117970976064e+01 
-9.413420995722e+01 1.125992361004e+01 0.0 
1.125992361004e+01 -1.934236155385e+02 0.0 
0.0 0.0 -8.586734764871e+01 
-1.121921965329e+02 2.831489046726e+01 0.0 
2.831489046726e+01 -2.555254716396e+02 0.0 
0.0 0.0 -1.099153004517e+02 
-8.279332357899e+01 1.016147037602e+01 0.0 
1.016147037602e+01 -2.380051286517e+02 0.0 
0.0 0.0 -9.583953566921e+01 
-3.077438677490e+01 2.019662764388e+00 0.0 
2.019662764388e+00 -9.572292522592e+01 0.0 
0.0 0.0 -3.754919360025e+01 
-1.049025942243e+02 2.252556793925e+01 0.0 
2.252556793925e+01 -2.652816809761e+02 0.0 
0.0 0.0 -1.106552825601e+02 
-7.201263202242e+01 2.017794374372e+01 0.0 
2.017794374372e+01 -1.931326947481e+02 0.0 
0.0 0.0 -7.914359803114e+01 
-5.611873809979e+01 1.055674706964e+01 0.0 
1.055674706964e+01 -1.696224804756e+02 0.0 
0.0 0.0 -6.732236557262e+01 
-8.857161206607e+01 1.278251318183e+01 0.0 
1.278251318183e+01 -2.461526008793e+02 0.0 
0.0 0.0 -1.000172638836e+02 
-1.152195996521e+02 1.061767403393e+01 0.0 
1.061767403393e+01 -2.995739289821e+02 0.0 
0.0 0.0 -1.240380585903e+02 
-3.282005896714e+01 1.477814148716e+00 0.0 
1.477814148716e+00 -9.646292904123e+01 0.0 
0.0 0.0 -3.838489640251e+01 
-7.450922783833e+01 8.984960456631e+00 0.0 
8.984960456631e+00 -2.199620248748e+02 0.0 
0.0 0.0 -8.794137581394e+01 
-7.982173561543e+01 1.925730818729e+01 0.0 
1.925730818729e+01 -1.515578233198e+02 0.0 
0.0 0.0 -6.901386768057e+01 
-1.362568306013e+02 5.355108833915e+00 0.0 
5.355108833915e+00 -3.359095171975e+02 0.0 
0.0 0.0 -1.412499043397e+02 
-8.359364605044e+01 2.099879069513e+01 0.0 
2.099879069513e+01 -1.674075450826e+02 0.0 
0.0 0.0 -7.490035733990e+01 
-1.000851179548e+02 2.283693405424e+01 0.0 
2.283693405424e+01 -2.513631174967e+02 0.0 
0.0 0.0 -1.050344706354e+02 
-7.576379668270e+01 1.705922259992e+01 0.0 
1.705922259992e+01 -1.358691510692e+02 0.0 
0.0 0.0 -6.308988432557e+01 
-6.602704839182e+01 1.131916356159e+01 0.0 
1.131916356159e+01 -1.059109977534e+02 0.0 
0.0 0.0 -5.118141384357e+01 
-7.978062304124e+01 2.294010216482e+01 0.0 
2.294010216482e+01 -1.758276565053e+02 0.0 
0.0 0.0 -7.628248386395e+01 
-1.135997832248e+02 1.811081092537e+01 0.0 
1.811081092537e+01 -2.945139594213e+02 0.0 
0.0 0.0 -1.220341227938e+02 
-1.215162127126e+02 6.601124028096e+00 0.0 
6.601124028096e+00 -3.095223668482e+02 0.0 
0.0 0.0 -1.289115738682e+02 
-7.767248409659e+01 8.576710972255e+00 0.0 
8.576710972255e+00 -1.412420001756e+02 0.0 
0.0 0.0 -6.527434528166e+01 
-9.690277329016e+01 1.377283397808e+01 0.0 
1.377283397808e+01 -2.047368512978e+02 0.0 
0.0 0.0 -9.009188737637e+01 
-7.133701635989e+01 1.439308370081e+01 0.0 
1.439308370081e+01 -1.206454876800e+02 0.0 
0.0 0.0 -5.719475121196e+01 
-4.718131845786e+01 7.360393697564e+00 0.0 
7.360393697564e+00 -1.459129078332e+02 0.0 
0.0 0.0 -5.752826788732e+01 
-1.105226817807e+02 2.539243384497e+01 0.0 
2.539243384497e+01 -2.708783607406e+02 0.0 
0.0 0.0 -1.140203127564e+02 
-9.279254883878e+01 9.177151731277e+00 0.0 
9.177151731277e+00 -1.937147756504e+02 0.0 
0.0 0.0 -8.555219734676e+01 
-6.392385447759e+01 1.622024673793e+01 0.0 
1.622024673793e+01 -1.842852959622e+02 0.0 
0.0 0.0 -7.406274513193e+01 
-6.753458196290e+01 1.789554194006e+01 0.0 
1.789554194006e+01 -1.886484254594e+02 0.0 
0.0 0.0 -7.645490222669e+01 
-5.345434679155e+01 8.492995461439e+00 0.0 
8.492995461439e+00 -1.634716721567e+02 0.0 
0.0 0.0 -6.467780568449e+01 
-8.224367642417e+01 1.080104264539e+01 0.0 
1.080104264539e+01 -1.530746363341e+02 0.0 
0.0 0.0 -7.019549382747e+01 
-4.588519253763e+01 2.071141225228e+01 0.0 
2.071141225228e+01 -1.122509686877e+02 0.0 
0.0 0.0 -4.704084836761e+01 
-7.962152555760e+01 1.774421247265e+01 0.0 
1.774421247265e+01 -2.195572442254e+02 0.0 
0.0 0.0 -8.935363093489e+01 
-4.650404722232e+01 2.152895172022e+01 0.0 
2.152895172022e+01 -1.126729869790e+02 0.0 
0.0 0.0 -4.735311026040e+01 
-1.037592875561e+02 1.685998275410e+01 0.0 
1.685998275410e+01 -2.762925714172e+02 0.0 
0.0 0.0 -1.136155576920e+02 
-1.197095972289e+02 2.649820162763e+01 0.0 
2.649820162763e+01 -2.888774300957e+02 0.0 
0.0 0.0 -1.221761081974e+02 
-5.746242096711e+01 7.681182843544e+00 0.0 
7.681182843544e+00 -1.744746564281e+02 0.0 
0.0 0.0 -6.918112321855e+01 
-2.530108144618e+01 2.817019465028e-01 0.0 
2.817019465028e-01 -6.086074257344e+01 0.0 
0.0 0.0 -2.544854720589e+01 
-9.875637439448e+01 1.662679789978e+01 0.0 
1.662679789978e+01 -2.085077563246e+02 0.0 
0.0 0.0 -9.177923921573e+01 
-4.936834395644e+01 2.155634813209e+01 0.0 
2.155634813209e+01 -1.141535523215e+02 0.0 
0.0 0.0 -4.865656888337e+01 
-7.241044241426e+01 4.996376045888e+00 0.0 
4.996376045888e+00 -2.143436742175e+02 0.0 
0.0 0.0 -8.562623498952e+01 
-1.142182796005e+02 2.379513721687e+01 0.0 
2.379513721687e+01 -2.840422105994e+02 0.0 
0.0 0.0 -1.190781470600e+02 
-8.108131784319e+01 1.134566056169e+01 0.0 
1.134566056169e+01 -1.431639841405e+02 0.0 
0.0 0.0 -6.687359059509e+01 
-1.165408994310e+02 6.928328341549e+00 0.0 
6.928328341549e+00 -3.004732231464e+02 0.0 
0.0 0.0 -1.247042367732e+02 
-5.493624037053e+01 1.368584125787e+01 0.0 
1.368584125787e+01 -1.628617727202e+02 0.0 
0.0 0.0 -6.493940392723e+01 
-2.227571531128e+01 -3.682998675468e-01 0.0 
-3.682998675468e-01 -5.138369884734e+01 0.0 
0.0 0.0 -2.169782424759e+01 
-1.412512520511e+02 4.883753366959e+00 0.0 
4.883753366959e+00 -3.456607983756e+02 0.0 
0.0 0.0 -1.456736151280e+02 
-7.133681961845e+01 2.134543811819e+01 0.0 
2.134543811819e+01 -1.818268131019e+02 0.0 
0.0 0.0 -7.554908981610e+01 
-9.494757756080e+01 1.905326242914e+01 0.0 
1.905326242914e+01 -2.519340180691e+02 0.0 
0.0 0.0 -1.036644786890e+02 
-1.078697675764e+02 2.520508620692e+01 0.0 
2.520508620692e+01 -2.601596219092e+02 0.0 
0.0 0.0 -1.100088168457e+02 
-2.020997110776e+01 -1.405036549172e-01 0.0 
-1.405036549172e-01 -3.432591718885e+01 0.0 
0.0 0.0 -1.596076648898e+01 
-1.149434825496e+02 5.671462869455e+00 0.0 
5.671462869455e+00 -2.995179640174e+02 0.0 
0.0 0.0 -1.239384339701e+02 
-3.702636058622e+01 1.092110672289e+01 0.0 
1.092110672289e+01 -1.103045339790e+02 0.0 
0.0 0.0 -4.379926836957e+01 
-7.382585237926e+01 9.550716142138e+00 0.0 
9.550716142138e+00 -1.222136578512e+02 0.0 
0.0 0.0 -5.841185306914e+01 
-9.005232509820e+01 2.877847641333e+00 0.0 
2.877847641333e+00 -2.432638367890e+02 0.0 
0.0 0.0 -9.959484856618e+01 
-5.531346072424e+01 7.522660529975e+00 0.0 
7.522660529975e+00 -1.735281112545e+02 0.0 
0.0 0.0 -6.825247159363e+01 
-1.313169342920e+02 5.789994995229e+00 0.0 
5.789994995229e+00 -3.270623818158e+02 0.0 
0.0 0.0 -1.371137948323e+02 
-7.537081108787e+01 1.858099553764e+01 0.0 
1.858099553764e+01 -2.063671497794e+02 0.0 
0.0 0.0 -8.412138826019e+01 
-4.876052062578e+01 6.504276193805e+00 0.0 
6.504276193805e+00 -1.558895660640e+02 0.0 
0.0 0.0 -6.099502600692e+01 
-7.553862574328e+01 2.356805583048e+01 0.0 
2.356805583048e+01 -1.854115063057e+02 0.0 
0.0 0.0 -7.788503961469e+01 
-2.399626595096e+01 -1.153057560088e+00 0.0 
-1.153057560088e+00 -5.190786256382e+01 0.0 
0.0 0.0 -2.237123855444e+01 
-9.199089445803e+01 2.477385108270e+01 0.0 
2.477385108270e+01 -2.228233112060e+02 0.0 
0.0 0.0 -9.404426169921e+01 
-1.056244580035e+02 1.793695866342e+01 0.0 
1.793695866342e+01 -2.773142592018e+02 0.0 
0.0 0.0 -1.144816151616e+02 
-1.135667033638e+02 2.759760842912e+01 0.0 
2.759760842912e+01 -2.570695788638e+02 0.0 
0.0 0.0 -1.107908846683e+02 
-1.005423412840e+02 2.562030507918e+01 0.0 
2.562030507918e+01 -2.418125845589e+02 0.0 
0.0 0.0 -1.023064777529e+02 
-3.944933140454e+01 4.243919708014e+00 0.0 
4.243919708014e+00 -1.216772558436e+02 0.0 
0.0 0.0 -4.793797617445e+01 
-1.168143271302e+02 5.442116678007e+00 0.0 
5.442116678007e+00 -2.997520209412e+02 0.0 
0.0 0.0 -1.245699044214e+02 
-9.371394011030e+01 8.741012321925e+00 0.0 
8.741012321925e+00 -2.022141077601e+02 0.0 
0.0 0.0 -8.837841436112e+01 
-1.347342180363e+02 2.470156763681e+01 0.0 
2.470156763681e+01 -3.249754371971e+02 0.0 
0.0 0.0 -1.375128965700e+02 
-1.098836568280e+02 1.984615098065e+01 0.0 
1.984615098065e+01 -2.833932074841e+02 0.0 
0.0 0.0 -1.175830592936e+02 
-5.892934002993e+01 1.263649046616e+01 0.0 
1.263649046616e+01 -1.751951129845e+02 0.0 
0.0 0.0 -6.983733590433e+01 
-8.363430139998e+01 2.411168131051e+01 0.0 
2.411168131051e+01 -2.039820100539e+02 0.0 
0.0 0.0 -8.588489343617e+01 
-1.349178902958e+02 2.513454126305e+00 0.0 
2.513454126305e+00 -3.335591881811e+02 0.0 
0.0 0.0 -1.401431235431e+02 
-8.518110424885e+01 9.039420975187e-01 0.0 
9.039420975187e-01 -2.273104448828e+02 0.0 
0.0 0.0 -9.334746473948e+01 
-9.557874775834e+01 2.306878996267e+01 0.0 
2.306878996267e+01 -2.370229857397e+02 0.0 
0.0 0.0 -9.938052004941e+01 
-7.286446761866e+01 6.424273224506e+00 0.0 
6.424273224506e+00 -1.298947343584e+02 0.0 
0.0 0.0 -6.042776059311e+01 
-1.264339867210e+02 6.228286789796e+00 0.0 
6.228286789796e+00 -3.183436209305e+02 0.0 
0.0 0.0 -1.330332822955e+02 
-1.211693380334e+02 8.268488586432e+00 0.0 
8.268488586432e+00 -3.098601789554e+02 0.0 
0.0 0.0 -1.289088550967e+02 
-3.317162649854e+01 3.862866550869e-02 0.0 
3.862866550869e-02 -4.728917693265e+01 0.0 
0.0 0.0 -2.373824102936e+01 
-3.307803292998e+01 -1.510123137639e-01 0.0 
-1.510123137639e-01 -4.722989896907e+01 0.0 
0.0 0.0 -2.369237956971e+01 
-8.461904421592e+01 2.138232754857e+01 0.0 
2.138232754857e+01 -1.586064610656e+02 0.0 
0.0 0.0 -7.256765158446e+01 
-8.731902135596e+01 2.235188039542e+01 0.0 
2.235188039542e+01 -2.184293298710e+02 0.0 
0.0 0.0 -9.132450536809e+01 
-9.440297619563e+01 2.855763607456e+00 0.0 
2.855763607456e+00 -2.520435891183e+02 0.0 
0.0 0.0 -1.035339695942e+02 
-8.383264193460e+01 2.499577034370e+01 0.0 
2.499577034370e+01 -1.798303467258e+02 0.0 
0.0 0.0 -7.869889659812e+01 
-7.158060544102e+01 1.695027526286e+01 0.0 
1.695027526286e+01 -2.018285589727e+02 0.0 
0.0 0.0 -8.162274932412e+01 
-1.262157264053e+02 1.471774728540e+01 0.0 
1.471774728540e+01 -3.204005378569e+02 0.0 
0.0 0.0 -1.335848792787e+02 
-5.729450567665e+01 1.248426280056e+01 0.0 
1.248426280056e+01 -1.744693576355e+02 0.0 
0.0 0.0 -6.912915899363e+01 
-1.074481871984e+02 1.609158733064e+01 0.0 
1.609158733064e+01 -2.423813828556e+02 0.0 
0.0 0.0 -1.045488710162e+02 
-5.843202930320e+01 9.699993853948e+00 0.0 
9.699993853948e+00 -8.480873379833e+01 0.0 
0.0 0.0 -4.257222893046e+01 
-6.847831133666e+01 1.849813811334e+01 0.0 
1.849813811334e+01 -1.891801336891e+02 0.0 
0.0 0.0 -7.689753350774e+01 
-8.832435033082e+01 1.632262985554e+00 0.0 
1.632262985554e+00 -2.422447162736e+02 0.0 
0.0 0.0 -9.877071998134e+01 
-3.632029325134e+01 5.283333136476e+00 0.0 
5.283333136476e+00 -1.110662941041e+02 0.0 
0.0 0.0 -4.381597620664e+01 
-7.763660045365e+01 1.911274697083e+00 0.0 
1.911274697083e+00 -2.153984293747e+02 0.0 
0.0 0.0 -8.751050894851e+01 
-7.921163893258e+01 2.180036404527e+01 0.0 
2.180036404527e+01 -2.000190013480e+02 0.0 
0.0 0.0 -8.336919208418e+01 
-7.164688962073e+01 2.257400120422e+01 0.0 
2.257400120422e+01 -1.696384617317e+02 0.0 
0.0 0.0 -7.198560540572e+01 
-7.509046623087e+01 9.008050342181e+00 0.0 
9.008050342181e+00 -1.319058119783e+02 0.0 
0.0 0.0 -6.169888346274e+01 
-8.729807585165e+01 2.334213706093e+01 0.0 
2.334213706093e+01 -1.951917629173e+02 0.0 
0.0 0.0 -8.434695163069e+01 
-9.152932688468e+01 2.543013574465e+01 0.0 
2.543013574465e+01 -1.996210478420e+02 0.0 
0.0 0.0 -8.694511241799e+01 
-2.191218268030e+01 -2.352583574797e-01 0.0 
-2.352583574797e-01 -5.940054513270e+01 0.0 
0.0 0.0 -2.399381834390e+01 
-7.216980235169e+01 -6.356813435920e-02 0.0 
-6.356813435920e-02 -2.041670338710e+02 0.0 
0.0 0.0 -8.250105086681e+01 
-4.956133705004e+01 2.274291541946e+01 0.0 
2.274291541946e+01 -1.144336756567e+02 0.0 
0.0 0.0 -4.879850381202e+01 
-8.001257190049e+01 2.177478085413e+01 0.0 
2.177478085413e+01 -1.631888322507e+02 0.0 
0.0 0.0 -7.256042124536e+01 
-8.429049996116e+01 2.382552898721e+01 0.0 
2.382552898721e+01 -1.685063585719e+02 0.0 
0.0 0.0 -7.543905755991e+01 
-1.191246120224e+02 1.754896149210e+01 0.0 
1.754896149210e+01 -3.056621410519e+02 0.0 
0.0 0.0 -1.270360259223e+02 
-3.214136858966e+01 -8.446676748728e-01 0.0 
-8.446676748728e-01 -8.948627384022e+01 0.0 
0.0 0.0 -3.608829272896e+01 
-3.104841706935e+01 -9.284873706122e-02 0.0 
-9.284873706122e-02 -8.803101701169e+01 0.0 
0.0 0.0 -3.532383022431e+01 
-6.742004881543e+01 2.020677787703e+01 0.0 
2.020677787703e+01 -1.784845699572e+02 0.0 
0.0 0.0 -7.337138563179e+01 
-7.396259745997e+01 1.160958134273e+00 0.0 
1.160958134273e+00 -2.051914318900e+02 0.0 
0.0 0.0 -8.334620880498e+01 
-4.086237047922e+01 1.155465669167e+01 0.0 
1.155465669167e+01 -3.612736035036e+01 0.0 
0.0 0.0 -2.269691924887e+01 
-4.376907300474e+01 9.448613170040e+00 0.0 
9.448613170040e+00 -4.497233348523e+01 0.0 
0.0 0.0 -2.622242194699e+01 
-7.847837219846e+01 1.200644739491e+01 0.0 
1.200644739491e+01 -1.338513206181e+02 0.0 
0.0 0.0 -6.329890784496e+01 
-2.730576805376e+01 7.520376625023e+00 0.0 
7.520376625023e+00 -7.181831087111e+01 0.0 
0.0 0.0 -2.933722367746e+01 
-8.446464681129e+01 8.103149102923e-01 0.0 
8.103149102923e-01 -2.321593917830e+02 0.0 
0.0 0.0 -9.458721157829e+01 
-1.082937300318e+02 1.313106021285e+01 0.0 
1.313106021285e+01 -2.862571114879e+02 0.0 
0.0 0.0 -1.179652524559e+02 
-2.904694264396e+01 3.358264275532e-01 0.0 
3.358264275532e-01 -8.732420205492e+01 0.0 
0.0 0.0 -3.451134340966e+01 
-1.264747978049e+02 2.788120569074e+01 0.0 
2.788120569074e+01 -2.993172629634e+02 0.0 
0.0 0.0 -1.273376182305e+02 
-9.197463496881e+01 1.171409448306e+01 0.0 
1.171409448306e+01 -1.830371004165e+02 0.0 
0.0 0.0 -8.210352061561e+01 
-8.207449539419e+01 1.430898204953e+00 0.0 
1.430898204953e+00 -2.227317033632e+02 0.0 
0.0 0.0 -9.104185962722e+01 
-1.204234764258e+02 3.813390834982e+00 0.0 
3.813390834982e+00 -3.077288635256e+02 0.0 
0.0 0.0 -1.280457019854e+02 
-1.504338484504e+01 -1.069967293247e+00 0.0 
-1.069967293247e+00 -4.239762661326e+01 0.0 
0.0 0.0 -1.683230343749e+01 
-1.041432314942e+02 1.133599140429e+01 0.0 
1.133599140429e+01 -2.785003431466e+02 0.0 
0.0 0.0 -1.143930723922e+02 
-7.163593802350e+01 2.242374735560e+01 0.0 
2.242374735560e+01 -1.821793844333e+02 0.0 
0.0 0.0 -7.574459673703e+01 
-1.522114254197e+01 -8.485905764984e-01 0.0 
-8.485905764984e-01 -4.232889923843e+01 0.0 
0.0 0.0 -1.686501253412e+01 
-8.894043979203e+01 9.595657096929e+00 0.0 
9.595657096929e+00 -1.814719551892e+02 0.0 
0.0 0.0 -8.072371849437e+01 
-2.871240746579e+01 7.850600904767e-01 0.0 
7.850600904767e-01 -7.870964450860e+01 0.0 
0.0 0.0 -3.182661559232e+01 
-8.020102472007e+01 2.436407967636e+01 0.0 
2.436407967636e+01 -1.638352399613e+02 0.0 
0.0 0.0 -7.281087940442e+01 
-7.161030910497e+01 2.403095046898e+01 0.0 
2.403095046898e+01 -1.699038266520e+02 0.0 
0.0 0.0 -7.205424072710e+01 
-7.027250579383e+01 6.030487645105e+00 0.0 
6.030487645105e+00 -2.056196110031e+02 0.0 
0.0 0.0 -8.236763503909e+01 
-9.019095172709e+01 5.507107569927e+00 0.0 
5.507107569927e+00 -2.523268842069e+02 0.0 
0.0 0.0 -1.023553507802e+02 
-9.279296378280e+01 1.158167236708e+01 0.0 
1.158167236708e+01 -1.925711138847e+02 0.0 
0.0 0.0 -8.520922330023e+01 
-9.920724155031e+01 6.662939530174e+00 0.0 
6.662939530174e+00 -2.710126081965e+02 0.0 
0.0 0.0 -1.106659549240e+02 
-7.130384238264e+01 1.939714249824e+01 0.0 
1.939714249824e+01 -1.926628662433e+02 0.0 
0.0 0.0 -7.879001258778e+01 
-6.789960401218e+01 2.104351402058e+01 0.0 
2.104351402058e+01 -1.788644890786e+02 0.0 
0.0 0.0 -7.362922792724e+01 
-2.348006330968e+01 1.451020852255e+01 0.0 
1.451020852255e+01 -1.640522848383e+01 0.0 
0.0 0.0 -1.156558753805e+01 
-2.543372389911e+01 -8.446346085486e-02 0.0 
-8.446346085486e-02 -6.959465724293e+01 0.0 
0.0 0.0 -2.810851434261e+01 
-1.052664020731e+02 2.548729589365e+01 0.0 
2.548729589365e+01 -2.564406121892e+02 0.0 
0.0 0.0 -1.081121042787e+02 
-7.259900468361e+01 1.414037046428e+01 0.0 
1.414037046428e+01 -1.162065959721e+02 0.0 
0.0 0.0 -5.624168019670e+01 
-1.086707265330e+02 2.404472904646e+01 0.0 
2.404472904646e+01 -2.697465028687e+02 0.0 
0.0 0.0 -1.131251688205e+02 
-3.569056694664e+01 1.153521207801e+01 0.0 
1.153521207801e+01 -1.098715158479e+02 0.0 
0.0 0.0 -4.326862483835e+01 
-9.242558656423e+01 1.845871792278e+01 0.0 
1.845871792278e+01 -1.854184771902e+02 0.0 
0.0 0.0 -8.295321912633e+01 
-1.091626259194e+02 2.673388006289e+01 0.0 
2.673388006289e+01 -2.608714876528e+02 0.0 
0.0 0.0 -1.106102340717e+02 
-4.589701245144e+01 8.561005825984e+00 0.0 
8.561005825984e+00 -5.479909334681e+01 0.0 
0.0 0.0 -2.980883173947e+01 
-1.039883483376e+02 2.397591368234e+01 0.0 
2.397591368234e+01 -2.555233300982e+02 0.0 
0.0 0.0 -1.074535035308e+02 
-1.215961941352e+02 5.126443762612e+00 0.0 
5.126443762612e+00 -3.085229575160e+02 0.0 
0.0 0.0 -1.286357454954e+02 
-8.323545092947e+01 2.126285585742e+01 0.0 
2.126285585742e+01 -2.144997236337e+02 0.0 
0.0 0.0 -8.892055236896e+01 
-8.006732465616e+01 7.730422424031e-01 0.0 
7.730422424031e-01 -2.232636081370e+02 0.0 
0.0 0.0 -9.059927983796e+01 
-8.567986426223e+01 2.865661700780e+00 0.0 
2.865661700780e+00 -2.343626459853e+02 0.0 
0.0 0.0 -9.561275307427e+01 
-1.023670198297e+02 1.937267817509e+01 0.0 
1.937267817509e+01 -2.111895545193e+02 0.0 
0.0 0.0 -9.366697230470e+01 
-8.171213945555e+01 4.353346897897e+00 0.0 
4.353346897897e+00 -2.337712342847e+02 0.0 
0.0 0.0 -9.424501212207e+01 
-7.536492857366e+01 2.225138655656e+01 0.0 
2.225138655656e+01 -1.850803098144e+02 0.0 
0.0 0.0 -7.773357151642e+01 
-7.230832129438e+01 1.431814726650e+01 0.0 
1.431814726650e+01 -2.096632996593e+02 0.0 
0.0 0.0 -8.419148628611e+01 
-1.088173192294e+02 7.836580496626e+00 0.0 
7.836580496626e+00 -2.897693692146e+02 0.0 
0.0 0.0 -1.191760065332e+02 
-6.508532021233e+01 1.663986718364e+01 0.0 
1.663986718364e+01 -1.848656551829e+02 0.0 
0.0 0.0 -7.458529261857e+01 
-4.058125240462e+01 3.642785572237e+00 0.0 
3.642785572237e+00 -1.311092197000e+02 0.0 
0.0 0.0 -5.110714163139e+01 
-7.918152095864e+01 8.365219056380e+00 0.0 
8.365219056380e+00 -2.304819068870e+02 0.0 
0.0 0.0 -9.249902835370e+01 
-4.276594009901e+01 5.552599677807e+00 0.0 
5.552599677807e+00 -1.383421948244e+02 0.0 
0.0 0.0 -5.393244047702e+01 
-8.359835835665e+01 2.275127290655e+01 0.0 
2.275127290655e+01 -1.792727114638e+02 0.0 
0.0 0.0 -7.846132094614e+01 
-4.492072418262e+01 5.327930300556e+00 0.0 
5.327930300556e+00 -1.392050505587e+02 0.0 
0.0 0.0 -5.483773242239e+01 
-7.977969771448e+01 2.501935568041e+01 0.0 
2.501935568041e+01 -1.762314184622e+02 0.0 
0.0 0.0 -7.640333485299e+01 
-1.154306503368e+02 1.931419631396e+01 0.0 
1.931419631396e+01 -2.955549197600e+02 0.0 
0.0 0.0 -1.228956710291e+02 
-1.091712390067e+02 1.627931376555e+01 0.0 
1.627931376555e+01 -2.880410169147e+02 0.0 
0.0 0.0 -1.187636767764e+02 
-6.050665697118e+01 1.440936943370e+01 0.0 
1.440936943370e+01 -1.795929818929e+02 0.0 
0.0 0.0 -7.162989165924e+01 
-7.235900268168e+01 9.541768888118e+00 0.0 
9.541768888118e+00 -1.229502748068e+02 0.0 
0.0 0.0 -5.819278324653e+01 
-1.253983493996e+02 3.425997477514e+00 0.0 
3.425997477514e+00 -3.165085494462e+02 0.0 
0.0 0.0 -1.321720696537e+02 
-1.263390767251e+02 4.754571253361e+00 0.0 
4.754571253361e+00 -3.172124493487e+02 0.0 
0.0 0.0 -1.326654578222e+02 
-2.426612430144e+01 7.285414252227e+00 0.0 
7.285414252227e+00 -5.541306458199e+01 0.0 
0.0 0.0 -2.350375666503e+01 
-8.336844268290e+01 2.323054054589e+01 0.0 
2.323054054589e+01 -1.915481975026e+02 0.0 
0.0 0.0 -8.207499205565e+01 
-1.409502109176e+02 3.239973257332e+00 0.0 
3.239973257332e+00 -3.449981287499e+02 0.0 
0.0 0.0 -1.453845019002e+02 
-3.339864573130e+01 2.007286866099e+01 0.0 
2.007286866099e+01 -6.033845200518e+01 0.0 
0.0 0.0 -2.772112932094e+01 
-9.020507048663e+01 2.112688288273e+00 0.0 
2.112688288273e+00 -2.417159025873e+02 0.0 
0.0 0.0 -9.917629192219e+01 
-2.149725071301e+01 1.325320669369e+01 0.0 
1.325320669369e+01 -1.698670878818e+01 0.0 
0.0 0.0 -1.114518785036e+01 
-1.303016319264e+02 2.991702326311e+00 0.0 
2.991702326311e+00 -3.251804829044e+02 0.0 
0.0 0.0 -1.362446344492e+02 
-3.734712666763e+01 4.666628215523e+00 0.0 
4.666628215523e+00 -1.208800011290e+02 0.0 
0.0 0.0 -4.706813833897e+01 
-8.783126111965e+01 -3.740903227402e-01 0.0 
-3.740903227402e-01 -2.334961956600e+02 0.0 
0.0 0.0 -9.599823703390e+01 
-9.296908459292e+01 1.798581713373e+01 0.0 
1.798581713373e+01 -2.509094912323e+02 0.0 
0.0 0.0 -1.027635727476e+02 
-7.587854142889e+01 1.281653526826e+01 0.0 
1.281653526826e+01 -1.250551155774e+02 0.0 
0.0 0.0 -5.988009710188e+01 
-7.003906553960e+01 1.049304168629e+01 0.0 
1.049304168629e+01 -1.144385993994e+02 0.0 
0.0 0.0 -5.494329948169e+01 
-7.520341354287e+01 2.070835832351e+01 0.0 
2.070835832351e+01 -1.964124062962e+02 0.0 
0.0 0.0 -8.108474595171e+01 
-3.539722261767e+01 1.701888528363e+01 0.0 
1.701888528363e+01 -2.273677761930e+01 0.0 
0.0 0.0 -1.704020007109e+01 
-3.815845121135e+01 1.361290906736e+01 0.0 
1.361290906736e+01 -2.871015112120e+01 0.0 
0.0 0.0 -1.966058069977e+01 
-1.309549159406e+02 4.287203438619e+00 0.0 
4.287203438619e+00 -3.257615249873e+02 0.0 
0.0 0.0 -1.366149322784e+02 
-9.623100614607e+01 8.059071609939e+00 0.0 
8.059071609939e+00 -2.621118084197e+02 0.0 
0.0 0.0 -1.071028443697e+02 
-7.800370688783e+01 7.319372736358e+00 0.0 
7.319372736358e+00 -2.237052497927e+02 0.0 
0.0 0.0 -9.011268700416e+01 
-1.019492812058e+02 1.027526091144e+01 0.0 
1.027526091144e+01 -2.773779066071e+02 0.0 
0.0 0.0 -1.133981563439e+02 
-7.116136376637e+01 7.187658929400e+00 0.0 
7.187658929400e+00 -2.124551784639e+02 0.0 
0.0 0.0 -8.468496266908e+01 
-4.146003022321e+01 6.274181036036e+00 0.0 
6.274181036036e+00 -1.284535352100e+02 0.0 
0.0 0.0 -5.057406962995e+01 
-2.854888355327e+01 8.842244461554e+00 0.0 
8.842244461554e+00 -1.719111459776e+01 0.0 
0.0 0.0 -1.332199944531e+01 
-6.446342718368e+01 1.219692176688e+01 0.0 
1.219692176688e+01 -9.497889836340e+01 0.0 
0.0 0.0 -4.743269766413e+01 
-3.328737967032e+01 -4.147418015479e-02 0.0 
-4.147418015479e-02 -4.746248292224e+01 0.0 
0.0 0.0 -2.382495877777e+01 
-1.110463955222e+02 1.738317767850e+01 0.0 
1.738317767850e+01 -2.890608104742e+02 0.0 
0.0 0.0 -1.196321617989e+02 
-6.190637832309e+01 1.466848853825e+01 0.0 
1.466848853825e+01 -1.802406161872e+02 0.0 
0.0 0.0 -7.224409835310e+01 
-1.282199351740e+02 2.152662672568e+01 0.0 
2.152662672568e+01 -3.185876495510e+02 0.0 
0.0 0.0 -1.336422754175e+02 
-1.296366550270e+02 3.705936560780e-01 0.0 
3.705936560780e-01 -3.223841862613e+02 0.0 
0.0 0.0 -1.352062523865e+02 
-7.668288925772e+01 9.581334987209e+00 0.0 
9.581334987209e+00 -2.210171458874e+02 0.0 
0.0 0.0 -8.891001054354e+01 
-1.470354535110e+02 5.825880255944e+00 0.0 
5.825880255944e+00 -3.552245897571e+02 0.0 
0.0 0.0 -1.502780129804e+02 
-4.857851409512e+01 4.595130504958e+00 0.0 
4.595130504958e+00 -1.497148911916e+02 0.0 
0.0 0.0 -5.908802158602e+01 
-1.219573830228e+02 2.186392901295e+01 0.0 
2.186392901295e+01 -3.058153098892e+02 0.0 
0.0 0.0 -1.279318078736e+02 
-7.574126372157e+01 2.169526032601e+01 0.0 
2.169526032601e+01 -1.968530724830e+02 0.0 
0.0 0.0 -8.137830086138e+01 
-8.746063237146e+01 2.067580271649e+01 0.0 
2.067580271649e+01 -2.285003514832e+02 0.0 
0.0 0.0 -9.438829515639e+01 
-1.240929269261e+02 1.398307624235e+01 0.0 
1.398307624235e+01 -3.154629611287e+02 0.0 
0.0 0.0 -1.314667664164e+02 
-5.892868085680e+01 -9.536186361235e-02 0.0 
-9.536186361235e-02 -1.686890112867e+02 0.0 
0.0 0.0 -6.788530764304e+01 
-7.937988573713e+01 2.290796799295e+01 0.0 
2.290796799295e+01 -1.882618801940e+02 0.0 
0.0 0.0 -7.989252977935e+01 
-7.342131039133e+01 7.742534310163e+00 0.0 
7.742534310163e+00 -2.135340444331e+02 0.0 
0.0 0.0 -8.568660644734e+01 
-7.562579255354e+01 2.468255108500e+01 0.0 
2.468255108500e+01 -1.728860973875e+02 0.0 
0.0 0.0 -7.415356698232e+01 
-3.895225954071e+01 1.302304716190e+01 0.0 
1.302304716190e+01 -1.142607779671e+02 0.0 
0.0 0.0 -4.556391125233e+01 
-9.181072921250e+01 2.013803759294e+01 0.0 
2.013803759294e+01 -2.420859550754e+02 0.0 
0.0 0.0 -9.976900528636e+01 
-6.795238713149e+01 5.452212266217e+00 0.0 
5.452212266217e+00 -2.045050002047e+02 0.0 
0.0 0.0 -8.133721620086e+01 
-9.286512736461e+01 1.580773840864e+00 0.0 
1.580773840864e+00 -2.510900500739e+02 0.0 
0.0 0.0 -1.027865532316e+02 
-7.573259537635e+01 2.290575494579e+01 0.0 
2.290575494579e+01 -1.725917122236e+02 0.0 
0.0 0.0 -7.409729227998e+01 
-2.010938654151e+01 7.459120157798e+00 0.0 
7.459120157798e+00 -2.425277567501e+01 0.0 
0.0 0.0 -1.290864866496e+01 
-8.052976961323e+01 1.528236831660e+01 0.0 
1.528236831660e+01 -2.276247788283e+02 0.0 
0.0 0.0 -9.204636453247e+01 
-2.280957099925e+01 1.208962803939e+01 0.0 
1.208962803939e+01 -3.228990734392e+01 0.0 
0.0 0.0 -1.612984350295e+01 
-2.359447353515e+01 -2.513269952110e+00 0.0 
-2.513269952110e+00 -6.359461419299e+01 0.0 
0.0 0.0 -2.575672631844e+01 
-8.879117098297e+01 8.183587862980e-01 0.0 
8.183587862980e-01 -2.407939304466e+02 0.0 
0.0 0.0 -9.847553042888e+01 
-9.987500339917e+01 2.631660738747e+01 0.0 
2.631660738747e+01 -2.306490154559e+02 0.0 
0.0 0.0 -9.875720565653e+01 
-7.444770421129e+01 1.315952280661e+01 0.0 
1.315952280661e+01 -1.275447883522e+02 0.0 
0.0 0.0 -6.019774776905e+01 
-2.989038548192e+01 1.956766413967e+01 0.0 
1.956766413967e+01 -2.285778371997e+01 0.0 
0.0 0.0 -1.542445076057e+01 
-1.031304772085e+02 1.619594477995e+01 0.0 
1.619594477995e+01 -2.419711134864e+02 0.0 
0.0 0.0 -1.031304772085e+02 
-2.094167761613e+01 1.215213898616e+01 0.0 
1.215213898616e+01 -1.273948508517e+01 0.0 
0.0 0.0 -9.811926826811e+00 
-3.118085930997e+01 1.934359481351e+01 0.0 
1.934359481351e+01 -2.151111209983e+01 0.0 
0.0 0.0 -1.540759142294e+01 
-8.040078798313e+01 6.176966073887e+00 0.0 
6.176966073887e+00 -2.324814951144e+02 0.0 
0.0 0.0 -9.346468492926e+01 
-8.608900085188e+01 1.529284487471e+00 0.0 
1.529284487471e+00 -2.313617411817e+02 0.0 
0.0 0.0 -9.483522261008e+01 
-4.593506718350e+01 2.162344087238e+01 0.0 
2.162344087238e+01 -6.533016316173e+01 0.0 
0.0 0.0 -3.297956910357e+01 
-5.137267269476e+01 1.708909731914e+00 0.0 
1.708909731914e+00 -1.603171791482e+02 0.0 
0.0 0.0 -6.310695555287e+01 
-8.746719745358e+01 6.737612975689e+00 0.0 
6.737612975689e+00 -2.434892027284e+02 0.0 
0.0 0.0 -9.888692005459e+01 
-7.965197556985e+01 2.302382484279e+01 0.0 
2.302382484279e+01 -2.004681575186e+02 0.0 
0.0 0.0 -8.363603992654e+01 
-8.923053152905e+01 1.638570530301e+01 0.0 
1.638570530301e+01 -2.458102016012e+02 0.0 
0.0 0.0 -1.001122199391e+02 
-1.006103070746e+02 2.382319046166e+01 0.0 
2.382319046166e+01 -2.233829821494e+02 0.0 
0.0 0.0 -9.679798676721e+01 
-2.484201697329e+01 6.744005557325e+00 0.0 
6.744005557325e+00 -6.623787412581e+01 0.0 
0.0 0.0 -2.692396732973e+01 
-8.058623530595e+01 1.254561006354e-01 0.0 
1.254561006354e-01 -2.218120523618e+02 0.0 
0.0 0.0 -9.031948630031e+01 
-8.901494402294e+01 2.124845886313e-01 0.0 
2.124845886313e-01 -2.391893953265e+02 0.0 
0.0 0.0 -9.806130180484e+01 
-4.536966485601e+01 -1.563924878300e+00 0.0 
-1.563924878300e+00 -1.277782048005e+02 0.0 
0.0 0.0 -5.154436089694e+01 
-4.911570894620e+01 7.067282266681e+00 0.0 
7.067282266681e+00 -6.282419126047e+01 0.0 
0.0 0.0 -3.318197006200e+01 
-7.683245070488e+01 1.675104331111e+01 0.0 
1.675104331111e+01 -1.292780775897e+02 0.0 
0.0 0.0 -6.143315848839e+01 
-1.160096206355e+02 1.133467834590e+00 0.0 
1.133467834590e+00 -2.945850346591e+02 0.0 
0.0 0.0 -1.227783965884e+02 
-1.631849189894e+01 -9.505165383916e-01 0.0 
-9.505165383916e-01 -4.267337820837e+01 0.0 
0.0 0.0 -1.729756103219e+01 
-1.993578285172e+01 -1.162788263353e-01 0.0 
-1.162788263353e-01 -2.544728965128e+01 0.0 
0.0 0.0 -1.321492175090e+01 
-3.270828532910e+01 -2.210980246300e+00 0.0 
-2.210980246300e+00 -8.907589316393e+01 0.0 
0.0 0.0 -3.613525354791e+01 
-9.009870202527e+01 1.569550795708e+00 0.0 
1.569550795708e+00 -2.399656303115e+02 0.0 
0.0 0.0 -9.861929970104e+01 
-5.486007602883e+01 5.772520776905e+00 0.0 
5.772520776905e+00 -1.674206954423e+02 0.0 
0.0 0.0 -6.628423144133e+01 
-4.994877045506e+01 2.374347489603e+00 0.0 
2.374347489603e+00 -1.519026716113e+02 0.0 
0.0 0.0 -6.015543261990e+01 
-4.278208124773e+01 3.433041724842e+00 0.0 
3.433041724842e+00 -1.319974584684e+02 0.0 
0.0 0.0 -5.203386191483e+01 
-9.313050566607e+01 7.888068170382e-01 0.0 
7.888068170382e-01 -2.494475120603e+02 0.0 
0.0 0.0 -1.023734053179e+02 
-8.289045595688e+01 1.806497629553e+01 0.0 
1.806497629553e+01 -1.569518846480e+02 0.0 
0.0 0.0 -7.155270218147e+01 
-9.320720542546e+01 1.792497556882e-01 0.0 
1.792497556882e-01 -2.478056562277e+02 0.0 
0.0 0.0 -1.019038584959e+02 
-5.260971553980e+01 5.653092505537e+00 0.0 
5.653092505537e+00 -1.664405943725e+02 0.0 
0.0 0.0 -6.531509297370e+01 
-8.364256295759e+01 2.508969841503e+01 0.0 
2.508969841503e+01 -1.920109894012e+02 0.0 
0.0 0.0 -8.229606570765e+01 
-5.106534851334e+01 1.664946114702e+00 0.0 
1.664946114702e+00 -7.857713371072e+01 0.0 
0.0 0.0 -3.849274466722e+01 
-1.025370724955e+02 1.911769350780e+01 0.0 
1.911769350780e+01 -2.696190325261e+02 0.0 
0.0 0.0 -1.112468315065e+02 
-9.410374356524e+01 1.560047012495e+00 0.0 
1.560047012495e+00 -2.485155873298e+02 0.0 
0.0 0.0 -1.023857992685e+02 
-9.434833099559e+01 2.108458801286e+00 0.0 
2.108458801286e+00 -2.502932331641e+02 0.0 
0.0 0.0 -1.029924692479e+02 
-2.792121172555e+01 1.870270471922e+01 0.0 
1.870270471922e+01 -2.201548574803e+01 0.0 
0.0 0.0 -1.458100924207e+01 
-5.888092175245e+01 5.207305647701e+00 0.0 
5.207305647701e+00 -1.776627604066e+02 0.0 
0.0 0.0 -7.056310464770e+01 
-9.738736897961e+01 9.837246032839e-02 0.0 
9.837246032839e-02 -2.563067591370e+02 0.0 
0.0 0.0 -1.057082384350e+02 
-6.160877859810e+01 -4.286425751068e-01 0.0 
-4.286425751068e-01 -1.186533622523e+02 0.0 
0.0 0.0 -5.367864225513e+01 
-5.457532913496e+01 -5.629545833191e-01 0.0 
-5.629545833191e-01 -1.003601883326e+02 0.0 
0.0 0.0 -4.608065524026e+01 
-2.865522926282e+01 1.916377755891e+01 0.0 
1.916377755891e+01 -2.247260963097e+01 0.0 
0.0 0.0 -1.493835166814e+01 
-9.748056888679e+01 7.063274175145e-01 0.0 
7.063274175145e-01 -2.580933440782e+02 0.0 
0.0 0.0 -1.062721738895e+02 
-5.106993462375e+01 7.191960932521e-01 0.0 
7.191960932521e-01 -1.524391164183e+02 0.0 
0.0 0.0 -6.065271531261e+01 
-2.499225181866e+01 1.320728353363e+01 0.0 
1.320728353363e+01 -4.818798449425e+01 0.0 
0.0 0.0 -2.155407089387e+01 
-1.242701382805e+02 2.312607633420e+01 0.0 
2.312607633420e+01 -3.071918750148e+02 0.0 
0.0 0.0 -1.290386039886e+02 
-2.934327324588e+01 -3.467653660303e+00 0.0 
-3.467653660303e+00 -8.054929109308e+01 0.0 
0.0 0.0 -3.256776930169e+01 
-5.251407187192e+01 7.217287118534e-02 0.0 
7.217287118534e-02 -1.604070833532e+02 0.0 
0.0 0.0 -6.347634656755e+01 
-7.742824926649e+01 1.674378528997e+01 0.0 
1.674378528997e+01 -2.155877508431e+02 0.0 
0.0 0.0 -8.750480003287e+01 
-2.656304722834e+01 1.617863145140e+01 0.0 
1.617863145140e+01 -2.000482957198e+01 0.0 
0.0 0.0 -1.357036304010e+01 
-9.814988334548e+01 1.491990697542e+00 0.0 
1.491990697542e+00 -2.571222652986e+02 0.0 
0.0 0.0 -1.061816445932e+02 
-4.360797064854e+01 5.969823707099e-01 0.0 
5.969823707099e-01 -1.201068437004e+02 0.0 
0.0 0.0 -4.871444430469e+01 
-5.539187848563e+01 9.839144427278e+00 0.0 
9.839144427278e+00 -7.099452200116e+01 0.0 
0.0 0.0 -3.751592014604e+01 
-9.848570106468e+01 2.046332342940e+00 0.0 
2.046332342940e+00 -2.588533259388e+02 0.0 
0.0 0.0 -1.068017081010e+02 
-7.473362581751e+01 5.688677009582e+00 0.0 
5.688677009582e+00 -2.154925672400e+02 0.0 
0.0 0.0 -8.666785791724e+01 
-8.607042616062e+01 2.078930131607e+00 0.0 
2.078930131607e+00 -2.331322380565e+02 0.0 
0.0 0.0 -9.536079926514e+01 
-2.106412974761e+01 4.632238050136e+00 0.0 
4.632238050136e+00 -3.019621034775e+01 0.0 
0.0 0.0 -1.497810202861e+01 
-8.253720801835e+01 1.448349076263e+00 0.0 
1.448349076263e+00 -1.772801863138e+02 0.0 
0.0 0.0 -7.754521829963e+01 
-6.021575930541e+01 3.203712245788e+00 0.0 
3.203712245788e+00 -1.792917726355e+02 0.0 
0.0 0.0 -7.145225958228e+01 
-1.205334203499e+02 1.536928141820e+01 0.0 
1.536928141820e+01 -3.109206948984e+02 0.0 
0.0 0.0 -1.290362345745e+02 
-8.854034208267e+01 2.187971406770e+01 0.0 
2.187971406770e+01 -2.292752160943e+02 0.0 
0.0 0.0 -9.494466745309e+01 
-1.018098999146e+02 5.653747646555e-01 0.0 
5.653747646555e-01 -2.666623106559e+02 0.0 
0.0 0.0 -1.101416631711e+02 
-1.026068280628e+02 1.888098796247e+00 0.0 
1.888098796247e+00 -2.673250720832e+02 0.0 
0.0 0.0 -1.105795700438e+02 
-5.006008467758e+01 3.854348569280e+00 0.0 
3.854348569280e+00 -1.588819783608e+02 0.0 
0.0 0.0 -6.228261891152e+01 
-2.346649916373e+01 -3.103111172430e+00 0.0 
-3.103111172430e+00 -5.464257598648e+01 0.0 
0.0 0.0 -2.303272254506e+01 
-1.896663585307e+01 6.397944410187e+00 0.0 
6.397944410187e+00 -2.981548979379e+01 0.0 
0.0 0.0 -1.423463769406e+01 
-1.061767452996e+02 3.686603936897e-01 0.0 
3.686603936897e-01 -2.752222552849e+02 0.0 
0.0 0.0 -1.140197001753e+02 
-1.220504489490e+02 1.305764076633e+01 0.0 
1.305764076633e+01 -3.146356857800e+02 0.0 
0.0 0.0 -1.306058404187e+02 
-5.194495492267e+01 -3.427183523218e-01 0.0 
-3.427183523218e-01 -1.518806766461e+02 0.0 
0.0 0.0 -6.074768947063e+01 
-8.719675591649e+01 2.330657087477e+01 0.0 
2.330657087477e+01 -2.070238535941e+02 0.0 
0.0 0.0 -8.786618285319e+01 
-3.116731509167e+01 1.914450627872e+01 0.0 
1.914450627872e+01 -5.847166727745e+01 0.0 
0.0 0.0 -2.649169471074e+01 
-8.769824942305e+01 2.541790800013e+01 0.0 
2.541790800013e+01 -1.957774070344e+02 0.0 
0.0 0.0 -8.464269693722e+01 
-1.460468757369e+02 1.139265118952e+01 0.0 
1.139265118952e+01 -3.568756164882e+02 0.0 
0.0 0.0 -1.504767476675e+02 
-2.289664557630e+01 -3.396106262225e-01 0.0 
-3.396106262225e-01 -6.807970301737e+00 0.0 
0.0 0.0 -8.511384763410e+00 
-9.849113769120e+01 1.606543075523e+00 0.0 
1.606543075523e+00 -2.311459879461e+02 0.0 
0.0 0.0 -9.849113769120e+01 
-1.635799500306e+02 1.415814438128e+00 0.0 
1.415814438128e+00 -3.830198834048e+02 0.0 
0.0 0.0 -1.635799500306e+02 
-4.179383913867e+01 7.612628635747e-01 0.0 
7.612628635747e-01 -6.860159322224e+01 0.0 
0.0 0.0 -3.271862970827e+01 
-6.134997070409e+01 1.712308630082e+00 0.0 
1.712308630082e+00 -1.796637683775e+02 0.0 
0.0 0.0 -7.190412172447e+01 
-8.394829672805e+01 2.242732012254e+01 0.0 
2.242732012254e+01 -2.150769343662e+02 0.0 
0.0 0.0 -8.930756932826e+01 
-5.093288294948e+01 6.478382800419e+00 0.0 
6.478382800419e+00 -1.568033302628e+02 0.0 
0.0 0.0 -6.192086396369e+01 
-2.118641390144e+01 -1.294070579695e+00 0.0 
-1.294070579695e+00 -5.524917565634e+01 0.0 
0.0 0.0 -2.253067686733e+01 
-1.965912979656e+01 1.115404964840e+01 0.0 
1.115404964840e+01 -1.479437012897e+01 0.0 
0.0 0.0 -9.936049977659e+00 
-9.017773932781e+01 5.114925013537e+00 0.0 
5.114925013537e+00 -1.951676535061e+02 0.0 
0.0 0.0 -8.520361785018e+01 
-8.094756856943e+01 1.931047722010e+01 0.0 
1.931047722010e+01 -1.438042405646e+02 0.0 
0.0 0.0 -6.702554274021e+01 
-4.760866948009e+01 8.363189330633e+00 0.0 
8.363189330633e+00 -5.553870453769e+01 0.0 
0.0 0.0 -3.054421220534e+01 
-1.355631909938e+02 3.083690477920e+01 0.0 
3.083690477920e+01 -3.210435676960e+02 0.0 
0.0 0.0 -1.365820276069e+02 
-3.631715154445e+01 5.428331649264e-01 0.0 
5.428331649264e-01 -1.004687951040e+02 0.0 
0.0 0.0 -4.063578399454e+01 
-1.375027814354e+02 2.980973796334e+01 0.0 
2.980973796334e+01 -3.274015695349e+02 0.0 
0.0 0.0 -1.390713052911e+02 
-7.887151920428e+01 1.580196630044e+01 0.0 
1.580196630044e+01 -1.420687455980e+02 0.0 
0.0 0.0 -6.588207944067e+01 
-6.219436647663e+01 6.937558855867e-01 0.0 
6.937558855867e-01 -1.789594498140e+02 0.0 
0.0 0.0 -7.194614488719e+01 
-7.925149610955e+01 2.000198966749e+01 0.0 
2.000198966749e+01 -2.104919875540e+02 0.0 
0.0 0.0 -8.652304509906e+01 
-5.621689471312e+01 -7.654751968267e-02 0.0 
-7.654751968267e-02 -1.691097788023e+02 0.0 
0.0 0.0 -6.719800205462e+01 
-2.579855094747e+01 1.458008359920e+01 0.0 
1.458008359920e+01 -5.041542605984e+01 0.0 
0.0 0.0 -2.246419310219e+01 
-5.336429776635e+01 -1.055067328243e+00 0.0 
-1.055067328243e+00 -1.592949256788e+02 0.0 
0.0 0.0 -6.339776703353e+01 
-8.674003746524e+01 1.999088429682e+01 0.0 
1.999088429682e+01 -1.723686621174e+02 0.0 
0.0 0.0 -7.733260987480e+01 
-1.350474350598e+02 2.558389284029e+00 0.0 
2.558389284029e+00 -3.326226270561e+02 0.0 
0.0 0.0 -1.399010186348e+02 
-5.512602360405e+01 1.319382910940e+00 0.0 
1.319382910940e+00 -1.694079140578e+02 0.0 
0.0 0.0 -6.696018129857e+01 
-9.107319327037e+01 2.371929661656e+01 0.0 
2.371929661656e+01 -2.107295399813e+02 0.0 
0.0 0.0 -9.014081997551e+01 
-1.843564965338e+01 -5.639099855615e-01 0.0 
-5.639099855615e-01 -8.460256002522e+00 0.0 
0.0 0.0 -8.570027220012e+00 
-5.389132085591e+01 3.247506557649e+00 0.0 
3.247506557649e+00 -1.686162759002e+02 0.0 
0.0 0.0 -6.635227902684e+01 
-9.134128505467e+01 1.935509890875e+01 0.0 
1.935509890875e+01 -1.731572668077e+02 0.0 
0.0 0.0 -7.894956555870e+01 
-5.376455198049e+01 -1.741672129657e+00 0.0 
-1.741672129657e+00 -1.571125388760e+02 0.0 
0.0 0.0 -6.286312725695e+01 
-4.900345964746e+01 -1.083389218545e+00 0.0 
-1.083389218545e+00 -1.417691998258e+02 0.0 
0.0 0.0 -5.683179784198e+01 
-8.006002602113e+01 2.095649519099e+01 0.0 
2.095649519099e+01 -2.110582032769e+02 0.0 
0.0 0.0 -8.693546878940e+01 
-2.768016258540e+01 -2.714669752192e+00 0.0 
-2.714669752192e+00 -7.735664664241e+01 0.0 
0.0 0.0 -3.111104276834e+01 
-2.620243992631e+01 1.760916789932e+01 0.0 
1.760916789932e+01 -2.040850683285e+01 0.0 
0.0 0.0 -1.358328402775e+01 
-2.831522119575e+01 1.953551723035e+01 0.0 
1.953551723035e+01 -2.190962551738e+01 0.0 
0.0 0.0 -1.466745401394e+01 
-4.727646384168e+01 -2.370302021080e+00 0.0 
-2.370302021080e+00 -1.382650744459e+02 0.0 
0.0 0.0 -5.526246148626e+01 
-8.267124635243e+01 6.989068542983e+00 0.0 
6.989068542983e+00 -2.336565973822e+02 0.0 
0.0 0.0 -9.449835312040e+01 
-6.798043537437e+01 1.523213029499e+01 0.0 
1.523213029499e+01 -1.970888235352e+02 0.0 
0.0 0.0 -7.912077767287e+01 
-9.174161955573e+01 2.558688277959e+01 0.0 
2.558688277959e+01 -2.113191470295e+02 0.0 
0.0 0.0 -9.051822997557e+01 
-1.060200974452e+02 2.380884105182e+01 0.0 
2.380884105182e+01 -2.362703842949e+02 0.0 
0.0 0.0 -1.022871445220e+02 
-2.474182423196e+01 1.674613814603e+01 0.0 
1.674613814603e+01 -2.009488724995e+01 0.0 
0.0 0.0 -1.305101344457e+01 
-6.919940276968e+01 1.434214373820e+00 0.0 
1.434214373820e+00 -1.385223823855e+02 0.0 
0.0 0.0 -6.191653554654e+01 
-1.134326321117e+02 2.649303297489e+01 0.0 
2.649303297489e+01 -2.666765543501e+02 0.0 
0.0 0.0 -1.136327559386e+02 
-4.633004552351e+01 4.612360053291e+00 0.0 
4.612360053291e+00 -1.487664807107e+02 0.0 
0.0 0.0 -5.812895787026e+01 
-2.429899882141e+01 1.405492067634e+01 0.0 
1.405492067634e+01 -3.282595951685e+01 0.0 
0.0 0.0 -1.673748750148e+01 
-3.478572602541e+01 2.134116527847e+01 0.0 
2.134116527847e+01 -6.124679722857e+01 0.0 
0.0 0.0 -2.840975697619e+01 
-7.926456282841e+01 5.436775023995e+00 0.0 
5.436775023995e+00 -2.251423924599e+02 0.0 
0.0 0.0 -9.092208658649e+01 
-9.075315517108e+01 2.324420003791e+01 0.0 
2.324420003791e+01 -1.988948938117e+02 0.0 
0.0 0.0 -8.649441469484e+01 
-7.696031941503e+01 4.632883674152e+00 0.0 
4.632883674152e+00 -2.239910321859e+02 0.0 
0.0 0.0 -8.988540548029e+01 
-2.413066155045e+01 5.788927881504e+00 0.0 
5.788927881504e+00 -5.068579012856e+01 0.0 
0.0 0.0 -2.204493550370e+01 
-9.114692567889e+01 8.306584853942e+00 0.0 
8.306584853942e+00 -2.519445355857e+02 0.0 
0.0 0.0 -1.025274383794e+02 
-2.711223829398e+01 1.599873226995e+01 0.0 
1.599873226995e+01 -5.264581678469e+01 0.0 
0.0 0.0 -2.352741652360e+01 
-6.939711844070e+01 1.568532797634e+01 0.0 
1.568532797634e+01 -1.977827172641e+02 0.0 
0.0 0.0 -7.975395071143e+01 
-8.514924387287e+01 5.765142108708e+00 0.0 
5.765142108708e+00 -2.422923672849e+02 0.0 
0.0 0.0 -9.783248334734e+01 
-8.346428425996e+01 1.934894136689e+01 0.0 
1.934894136689e+01 -2.240884501206e+02 0.0 
0.0 0.0 -9.186582031417e+01 
-6.108546305808e+01 1.711689216488e+00 0.0 
1.711689216488e+00 -1.138805035807e+02 0.0 
0.0 0.0 -5.208978999162e+01 
-4.897975875110e+01 -1.419828324311e+00 0.0 
-1.419828324311e+00 -1.391744467568e+02 0.0 
0.0 0.0 -5.604626165235e+01 
-2.344440650656e+01 1.135326998318e+01 0.0 
1.135326998318e+01 -4.449656664207e+01 0.0 
0.0 0.0 -1.998229194459e+01 
-9.393268421796e+01 6.955553732934e+00 0.0 
6.955553732934e+00 -2.609007606957e+02 0.0 
0.0 0.0 -1.060500334741e+02 
-2.787647259261e+01 1.692817634166e+01 0.0 
1.692817634166e+01 -5.384098665865e+01 0.0 
0.0 0.0 -2.411523777538e+01 
-1.889735517585e+01 4.475028734444e-01 0.0 
4.475028734444e-01 -2.508878455312e+01 0.0 
0.0 0.0 -1.279584191869e+01 
-8.849217563074e+01 -4.500992573550e-02 0.0 
-4.500992573550e-02 -1.962037659213e+02 0.0 
0.0 0.0 -8.500878246561e+01 
-8.259274369846e+01 -2.651139857452e-01 0.0 
-2.651139857452e-01 -1.774008639278e+02 0.0 
0.0 0.0 -7.759808228788e+01 
-1.376548715846e+01 -1.690081246604e+00 0.0 
-1.690081246604e+00 -2.469818255249e+01 0.0 
0.0 0.0 -1.152114874685e+01 
-1.001453536352e+02 9.636582018749e+00 0.0 
9.636582018749e+00 -2.704285802039e+02 0.0 
0.0 0.0 -1.107721801517e+02 
-3.896450722767e+01 -2.056456180825e+00 0.0 
-2.056456180825e+00 -1.085104204835e+02 0.0 
0.0 0.0 -4.384247831335e+01 
-4.065814014137e+01 -3.017918186430e+00 0.0 
-3.017918186430e+00 -1.159035402931e+02 0.0 
0.0 0.0 -4.656850413035e+01 
-9.883651116940e+01 2.443405114470e+01 0.0 
2.443405114470e+01 -2.300328309266e+02 0.0 
0.0 0.0 -9.826080262880e+01 
-8.463862936109e+01 2.023433936216e+01 0.0 
2.023433936216e+01 -2.247593553541e+02 0.0 
0.0 0.0 -9.241939541455e+01 
-9.512730580613e+01 2.395742038265e+01 0.0 
2.395742038265e+01 -2.260221156871e+02 0.0 
0.0 0.0 -9.594482644798e+01 
-5.621787846198e+01 3.525508046988e+00 0.0 
3.525508046988e+00 -1.696705716224e+02 0.0 
0.0 0.0 -6.736653502532e+01 
-3.359803403546e+01 -1.138878168699e-01 0.0 
-1.138878168699e-01 -4.727901481955e+01 0.0 
0.0 0.0 -2.386311465650e+01 
-1.505266856564e+02 1.003072414304e+01 0.0 
1.003072414304e+01 -3.599830768602e+02 0.0 
0.0 0.0 -1.527529287550e+02 
-3.435099837135e+01 -3.209703892136e+00 0.0 
-3.209703892136e+00 -9.639677489522e+01 0.0 
0.0 0.0 -3.882433197997e+01 
-1.165899485888e+02 1.678109771892e+01 0.0 
1.678109771892e+01 -2.999958267128e+02 0.0 
0.0 0.0 -1.245757325905e+02 
-7.279322662969e+01 1.757011421506e+01 0.0 
1.757011421506e+01 -2.024870318261e+02 0.0 
0.0 0.0 -8.218407753672e+01 
-2.785451747693e+01 -1.368455155478e+00 0.0 
-1.368455155478e+00 -7.639276657709e+01 0.0 
0.0 0.0 -3.087418521621e+01 
-8.713122200237e+01 2.223647576307e+01 0.0 
2.223647576307e+01 -1.831264406601e+02 0.0 
0.0 0.0 -8.067729879876e+01 
-5.658026927271e+01 4.921164208138e+00 0.0 
4.921164208138e+00 -1.766200376949e+02 0.0 
0.0 0.0 -6.956009209028e+01 
-1.872044135656e+01 -2.619023588060e+00 0.0 
-2.619023588060e+00 -4.201506632095e+01 0.0 
0.0 0.0 -1.782065230325e+01 
-4.767207758452e+01 2.222031558413e+00 0.0 
2.222031558413e+00 -1.509050705760e+02 0.0 
0.0 0.0 -5.917314444815e+01 
-1.117722931294e+02 -6.904637298734e-01 0.0 
-6.904637298734e-01 -2.861797639301e+02 0.0 
0.0 0.0 -1.189856171179e+02 
-8.821534990876e+01 2.308269794122e+01 0.0 
2.308269794122e+01 -1.740235859418e+02 0.0 
0.0 0.0 -7.827168075516e+01 
-2.823680087863e+01 -2.581049140865e+00 0.0 
-2.581049140865e+00 -7.351443532851e+01 0.0 
0.0 0.0 -3.012537086214e+01 
-8.855130877111e+01 5.859507762830e-01 0.0 
5.859507762830e-01 -2.340951641590e+02 0.0 
0.0 0.0 -9.639394187903e+01 
-9.479056752249e+01 2.395029382729e+01 0.0 
2.395029382729e+01 -2.147324708413e+02 0.0 
0.0 0.0 -9.245691150914e+01 
-1.085532853087e+02 2.208710329399e+01 0.0 
2.208710329399e+01 -2.759132587215e+02 0.0 
0.0 0.0 -1.149399632091e+02 
-5.033115844837e+01 -1.796450366996e+00 0.0 
-1.796450366996e+00 -1.488998716038e+02 0.0 
0.0 0.0 -5.936930901565e+01 
-4.328121965491e+01 -1.077261000359e+00 0.0 
-1.077261000359e+00 -1.200197736912e+02 0.0 
0.0 0.0 -4.859029800384e+01 
-7.586840626775e+01 1.607931814111e+01 0.0 
1.607931814111e+01 -2.147939692751e+02 0.0 
0.0 0.0 -8.679871266285e+01 
-5.770983557442e+01 8.775122006161e-01 0.0 
8.775122006161e-01 -1.080877152454e+02 0.0 
0.0 0.0 -4.933926524596e+01 
-1.915109697407e+01 -2.555461071705e+00 0.0 
-2.555461071705e+00 -4.138285299819e+01 0.0 
0.0 0.0 -1.776018499168e+01 
-1.225535887761e+02 2.992144123078e+01 0.0 
2.992144123078e+01 -2.882956878874e+02 0.0 
0.0 0.0 -1.228547829991e+02 
-1.067699015973e+02 2.308438891799e+01 0.0 
2.308438891799e+01 -2.420835031212e+02 0.0 
0.0 0.0 -1.042560214155e+02 
-4.680600341909e+01 8.577451706110e-01 0.0 
8.577451706110e-01 -8.047803286435e+01 0.0 
0.0 0.0 -3.778521088503e+01 
-1.003970563781e+02 1.287227301240e+01 0.0 
1.287227301240e+01 -2.153148396559e+02 0.0 
0.0 0.0 -9.431356881020e+01 
-1.116199116810e+02 2.560220534649e+01 0.0 
2.560220534649e+01 -2.559511720159e+02 0.0 
0.0 0.0 -1.098713251091e+02 
-5.786668755983e+01 2.753227362369e+00 0.0 
2.753227362369e+00 -1.781840095831e+02 0.0 
0.0 0.0 -7.041520914287e+01 
-5.743034193691e+01 1.820044415129e+00 0.0 
1.820044415129e+00 -1.705109471652e+02 0.0 
0.0 0.0 -6.798238673063e+01 
-1.382975915262e+02 2.080931273064e+01 0.0 
2.080931273064e+01 -3.395097746291e+02 0.0 
0.0 0.0 -1.429422098466e+02 
-1.808257565038e+01 5.629693481236e-01 0.0 
5.629693481236e-01 -8.672182670061e+00 0.0 
0.0 0.0 -8.577039678920e+00 
-3.952453127318e+01 -8.410986694482e-01 0.0 
-8.410986694482e-01 -1.094475025125e+02 0.0 
0.0 0.0 -4.429161013571e+01 
-8.989936650878e+01 -7.265650275154e-01 0.0 
-7.265650275154e-01 -2.385050464354e+02 0.0 
0.0 0.0 -9.812132388325e+01 
-5.225184085025e+01 -9.410904726247e-01 0.0 
-9.410904726247e-01 -1.499305501311e+02 0.0 
0.0 0.0 -6.025471729442e+01 
-4.881609125532e+01 3.261324304178e-01 0.0 
3.261324304178e-01 -1.514078849959e+02 0.0 
0.0 0.0 -5.966719287537e+01 
-2.518283430485e+01 1.707394034661e+01 0.0 
1.707394034661e+01 -1.914183237405e+01 0.0 
0.0 0.0 -1.289740000367e+01 
-2.803341736896e+01 1.909457513107e+01 0.0 
1.909457513107e+01 -2.160575468115e+01 0.0 
0.0 0.0 -1.449175161503e+01 
-5.214836840338e+01 2.698718822600e+00 0.0 
2.698718822600e+00 -8.161481082649e+01 0.0 
0.0 0.0 -3.972895376896e+01 
-5.235511958516e+01 3.996268391922e+00 0.0 
3.996268391922e+00 -1.598863974172e+02 0.0 
0.0 0.0 -6.327245510070e+01 
-4.582693805424e+01 -1.492661583474e+00 0.0 
-1.492661583474e+00 -1.277613497180e+02 0.0 
0.0 0.0 -5.167648633167e+01 
-1.006475053171e+02 2.116647508556e+01 0.0 
2.116647508556e+01 -2.603025263536e+02 0.0 
0.0 0.0 -1.078850095012e+02 
-1.590219014376e+02 8.172375372057e+00 0.0 
8.172375372057e+00 -3.782165357036e+02 0.0 
0.0 0.0 -1.607715311424e+02 
-1.575528200708e+02 9.737505586264e+00 0.0 
9.737505586264e+00 -3.758898487608e+02 0.0 
0.0 0.0 -1.596328006495e+02 
-5.907255266030e+01 1.060716967411e+00 0.0 
1.060716967411e+00 -1.785315157865e+02 0.0 
0.0 0.0 -7.088122053403e+01 
-4.642006095982e+01 1.462539726517e+00 0.0 
1.462539726517e+00 -6.514221214764e+01 0.0 
0.0 0.0 -3.306868193224e+01 
-2.217936880909e+01 -1.246704974555e-01 0.0 
-1.246704974555e-01 -2.058615983519e+01 0.0 
0.0 0.0 -1.242965859329e+01 
-2.538223113666e+01 1.684049214165e+01 0.0 
1.684049214165e+01 -1.995076638235e+01 0.0 
0.0 0.0 -1.319989925570e+01 
-2.887426471672e+01 -2.003963688089e+00 0.0 
-2.003963688089e+00 -7.260737405315e+01 0.0 
0.0 0.0 -3.004449163096e+01 
-2.593352921752e+01 1.728755726519e+01 0.0 
1.728755726519e+01 -2.035240212308e+01 0.0 
0.0 0.0 -1.348577940218e+01 
-8.092206285594e+01 1.849908702528e+01 0.0 
1.849908702528e+01 -2.202371813633e+02 0.0 
0.0 0.0 -8.994777326577e+01 
-4.984564309273e+01 -9.685367914238e-01 0.0 
-9.685367914238e-01 -1.508756802599e+02 0.0 
0.0 0.0 -5.981639700580e+01 
-5.366667422082e+01 2.046135336499e+00 0.0 
2.046135336499e+00 -1.613653159457e+02 0.0 
0.0 0.0 -6.410959704996e+01 
-2.325885251086e+01 -1.430670591591e+00 0.0 
-1.430670591591e+00 -4.106780611781e+01 0.0 
0.0 0.0 -1.889799758860e+01 
-8.261885756160e+01 1.042428305222e+00 0.0 
1.042428305222e+00 -1.802152563705e+02 0.0 
0.0 0.0 -7.845023417964e+01 
-5.470831026208e+01 6.514158128491e-01 0.0 
6.514158128491e-01 -1.614579845298e+02 0.0 
0.0 0.0 -6.444988843755e+01 
-8.867603528473e+01 3.445112328253e+00 0.0 
3.445112328253e+00 -1.941602108758e+02 0.0 
0.0 0.0 -8.445087384815e+01 
-7.902125421670e+01 2.178287041668e+00 0.0 
2.178287041668e+00 -1.648027350963e+02 0.0 
0.0 0.0 -7.274719679389e+01 
-1.009575117656e+02 1.735371947567e+00 0.0 
1.735371947567e+00 -2.316246740406e+02 0.0 
0.0 0.0 -9.937465574188e+01 
-1.611147582369e+02 1.631117945372e+00 0.0 
1.631117945372e+00 -3.821174102067e+02 0.0 
0.0 0.0 -1.625696505331e+02 
-4.682345704537e+01 -5.180570197943e-01 0.0 
-5.180570197943e-01 -8.093975758569e+01 0.0 
0.0 0.0 -3.792896438932e+01 
-5.840253887684e+01 6.213115835483e-01 0.0 
6.213115835483e-01 -1.702033151707e+02 0.0 
0.0 0.0 -6.818175621427e+01 
-2.531946800085e+01 1.751612205147e+01 0.0 
1.751612205147e+01 -2.004495103633e+01 0.0 
0.0 0.0 -1.320932571115e+01 
-6.006868740052e+01 -1.611380297612e-01 0.0 
-1.611380297612e-01 -1.778554072683e+02 0.0 
0.0 0.0 -7.097722840066e+01 
-1.627757045267e+02 6.460664174723e+00 0.0 
6.460664174723e+00 -3.811433105624e+02 0.0 
0.0 0.0 -1.627757045267e+02 
-2.305087607553e+01 1.481776241068e+01 0.0 
1.481776241068e+01 -1.828981346376e+01 0.0 
0.0 0.0 -1.200220686179e+01 
-2.415955240134e+01 1.584935707191e+01 0.0 
1.584935707191e+01 -1.915572636974e+01 0.0 
0.0 0.0 -1.259458363132e+01 
-1.204902366960e+02 1.864539855128e+01 0.0 
1.864539855128e+01 -3.063714002032e+02 0.0 
0.0 0.0 -1.276584910698e+02 
-4.342102399309e+01 8.450044471745e-01 0.0 
8.450044471745e-01 -6.535317261937e+01 0.0 
0.0 0.0 -3.223225898374e+01 
-8.875820841507e+01 1.912972470499e+00 0.0 
1.912972470499e+00 -1.960155177249e+02 0.0 
0.0 0.0 -8.503211784199e+01 
-9.562295313990e+01 2.596697853347e+01 0.0 
2.596697853347e+01 -2.152697359529e+02 0.0 
0.0 0.0 -9.286780672785e+01 
-1.158968900229e+02 2.206587875744e+01 0.0 
2.206587875744e+01 -2.928260928935e+02 0.0 
0.0 0.0 -1.222168948749e+02 
-9.952172471588e+01 2.542437631143e+01 0.0 
2.542437631143e+01 -2.107662685886e+02 0.0 
0.0 0.0 -9.268639799135e+01 
-4.893504356178e+01 -2.069641821328e-01 0.0 
-2.069641821328e-01 -8.436356171086e+01 0.0 
0.0 0.0 -3.958958158179e+01 
-4.591238985938e+01 -1.643202182386e+00 0.0 
-1.643202182386e+00 -1.312183759039e+02 0.0 
0.0 0.0 -5.273922972900e+01 
-4.419417699394e+01 -2.467260765666e+00 0.0 
-2.467260765666e+00 -1.303334390595e+02 0.0 
0.0 0.0 -5.195828481602e+01 
-6.524912292281e+01 -1.595216765052e-01 0.0 
-1.595216765052e-01 -1.277702065761e+02 0.0 
0.0 0.0 -5.750579884966e+01 
-1.124445959730e+02 2.379408907719e+01 0.0 
2.379408907719e+01 -2.802518987901e+02 0.0 
0.0 0.0 -1.174089484289e+02 
-4.215609747501e+01 3.028011438648e+00 0.0 
3.028011438648e+00 -4.990576360342e+01 0.0 
0.0 0.0 -2.721855832353e+01 
-4.025434668339e+01 1.763053732314e-02 0.0 
1.763053732314e-02 -6.397421078594e+01 0.0 
0.0 0.0 -3.086856724080e+01 
-4.704938632539e+01 5.102956419683e-01 0.0 
5.102956419683e-01 -7.991062362495e+01 0.0 
0.0 0.0 -3.768800298510e+01 
-4.980451041616e+01 1.563439362057e+00 0.0 
1.563439362057e+00 -8.562667133104e+01 0.0 
0.0 0.0 -4.022935452416e+01 
-2.433933150951e+01 -1.118459348872e+00 0.0 
-1.118459348872e+00 -6.084914588668e+01 0.0 
0.0 0.0 -2.515654321886e+01 
-4.114662622763e+01 -2.849969349096e+00 0.0 
-2.849969349096e+00 -1.194166842265e+02 0.0 
0.0 0.0 -4.776899313624e+01 
-9.737151001009e+01 6.157120207292e+00 0.0 
6.157120207292e+00 -2.167277264291e+02 0.0 
0.0 0.0 -9.382977093176e+01 
-5.800727084774e+01 1.956497593174e+00 0.0 
1.956497593174e+00 -1.049967334474e+02 0.0 
0.0 0.0 -4.850120128855e+01 
-1.387999800626e+02 2.301113131176e+01 0.0 
2.301113131176e+01 -3.356323099649e+02 0.0 
0.0 0.0 -1.419296870082e+02 
-1.101195740820e+02 2.670230261736e+01 0.0 
2.670230261736e+01 -2.398967947095e+02 0.0 
0.0 0.0 -1.046049106374e+02 
-8.781245119488e+01 2.478784971832e+01 0.0 
2.478784971832e+01 -1.840936242625e+02 0.0 
0.0 0.0 -8.117182263720e+01 
-9.709964331884e+01 1.289027510132e+01 0.0 
1.289027510132e+01 -2.029282003328e+02 0.0 
0.0 0.0 -8.960835309548e+01 
-6.470132392103e+01 -1.077727206872e+00 0.0 
-1.077727206872e+00 -1.781068161073e+02 0.0 
0.0 0.0 -7.244244200849e+01 
-5.858954313309e+01 -1.306457575398e+00 0.0 
-1.306457575398e+00 -1.626691766190e+02 0.0 
0.0 0.0 -6.597761592562e+01 
-1.404683709711e+02 8.869838080818e+00 0.0 
8.869838080818e+00 -3.449064143019e+02 0.0 
0.0 0.0 -1.452124355819e+02 
-1.745094623996e+01 -1.547663290647e+00 0.0 
-1.547663290647e+00 -2.421094239933e+01 0.0 
0.0 0.0 -1.255125126282e+01 
-4.244207882649e+01 -3.935727552705e-01 0.0 
-3.935727552705e-01 -1.157528140711e+02 0.0 
0.0 0.0 -4.705846786929e+01 
-1.388964773383e+02 2.887859211322e+01 0.0 
2.887859211322e+01 -3.254251137895e+02 0.0 
0.0 0.0 -1.388964773383e+02 
-2.062623737428e+01 4.965416931430e-01 0.0 
4.965416931430e-01 -5.778364451282e+01 0.0 
0.0 0.0 -2.312296456613e+01 
-4.019573238194e+01 8.084478887679e-03 0.0 
8.084478887679e-03 -6.399229043134e+01 0.0 
0.0 0.0 -3.085640684398e+01 
-1.319935174002e+02 1.746093291649e+01 0.0 
1.746093291649e+01 -3.307142403638e+02 0.0 
0.0 0.0 -1.384123273292e+02 
-1.777198741726e+01 -2.335745268105e+00 0.0 
-2.335745268105e+00 -3.932705849557e+01 0.0 
0.0 0.0 -1.672971377385e+01 
-1.070993895378e+01 -7.869687835176e-01 0.0 
-7.869687835176e-01 -2.407639285049e+01 0.0 
0.0 0.0 -1.003589954128e+01 
-1.046456898645e+02 1.094754291291e+01 0.0 
1.094754291291e+01 -2.366983171318e+02 0.0 
0.0 0.0 -1.020032020989e+02 
-3.489752671044e+01 -4.039555785858e-01 0.0 
-4.039555785858e-01 -4.730390813369e+01 0.0 
0.0 0.0 -2.426043045324e+01 
-9.701224714721e+01 7.880527931273e+00 0.0 
7.880527931273e+00 -2.137052751208e+02 0.0 
0.0 0.0 -9.281525668041e+01 
-1.328716613566e+02 1.812907630815e+01 0.0 
1.812907630815e+01 -3.278210150513e+02 0.0 
0.0 0.0 -1.378078029224e+02 
-3.454264523218e+01 2.414306104901e-01 0.0 
2.414306104901e-01 -4.703016597965e+01 0.0 
0.0 0.0 -2.407184336355e+01 
-2.252279300231e+01 7.023984771607e-01 0.0 
7.023984771607e-01 -2.148252568176e+01 0.0 
0.0 0.0 -1.280159560522e+01 
-9.351712928574e+01 1.983473281627e+00 0.0 
1.983473281627e+00 -2.136312960627e+02 0.0 
0.0 0.0 -9.174452760453e+01 
-2.326395751117e+01 -8.678725435141e-01 0.0 
-8.678725435141e-01 -6.357198118755e+01 0.0 
0.0 0.0 -2.565078160962e+01 
-9.140972719573e+01 6.733029057096e+00 0.0 
6.733029057096e+00 -2.009118650096e+02 0.0 
0.0 0.0 -8.729647766160e+01 
-1.630745430461e+02 4.969428882444e+00 0.0 
4.969428882444e+00 -3.818406004409e+02 0.0 
0.0 0.0 -1.630745430461e+02 
-1.056739277655e+02 2.310451503430e+01 0.0 
2.310451503430e+01 -2.274510996882e+02 0.0 
0.0 0.0 -9.953750823613e+01 
-2.740336844126e+01 -1.051826495887e+00 0.0 
-1.051826495887e+00 -7.868945227593e+01 0.0 
0.0 0.0 -3.142784621516e+01 
-5.623393971605e+01 4.738778534560e+00 0.0 
4.738778534560e+00 -8.511345040620e+01 0.0 
0.0 0.0 -4.200421703668e+01 
-6.613074386052e+01 1.053069774863e-01 0.0 
1.053069774863e-01 -1.810534796647e+02 0.0 
0.0 0.0 -7.375526705757e+01 
-1.026920735172e+02 2.219096036721e+01 0.0 
2.219096036721e+01 -2.612859814836e+02 0.0 
0.0 0.0 -1.087934165002e+02 
-1.445332915045e+02 2.638770191898e+01 0.0 
2.638770191898e+01 -3.442826220981e+02 0.0 
0.0 0.0 -1.462447740808e+02 
-7.296158356151e+01 3.542002747797e-01 0.0 
3.542002747797e-01 -1.492933456342e+02 0.0 
0.0 0.0 -6.627647875871e+01 
-1.453922429131e+02 2.386464552530e+01 0.0 
2.386464552530e+01 -3.491575233815e+02 0.0 
0.0 0.0 -1.479649298884e+02 
-2.042548810224e+01 -1.482640696789e+00 0.0 
-1.482640696789e+00 -4.006030107531e+01 0.0 
0.0 0.0 -1.774573675326e+01 
-1.526523275521e+02 6.850181340820e+00 0.0 
6.850181340820e+00 -3.659757216482e+02 0.0 
0.0 0.0 -1.551884147601e+02 
-3.082627504366e+01 -1.143967296925e+00 0.0 
-1.143967296925e+00 -8.899171551381e+01 0.0 
0.0 0.0 -3.554539716724e+01 
-2.057738428545e+01 -1.142796212167e+00 0.0 
-1.142796212167e+00 -5.773000652667e+01 0.0 
0.0 0.0 -2.309221724363e+01 
-1.437203236723e+02 1.663040948298e+01 0.0 
1.663040948298e+01 -3.506853640062e+02 0.0 
0.0 0.0 -1.479217063036e+02 
-1.063506440503e+02 1.784289574413e+01 0.0 
1.784289574413e+01 -2.297114758986e+02 0.0 
0.0 0.0 -1.004186359847e+02 
-1.001438293186e+02 1.142385540060e+01 0.0 
1.142385540060e+01 -2.230760307530e+02 0.0 
0.0 0.0 -9.656595802148e+01 
-4.025561910017e+01 -5.703206683917e-01 0.0 
-5.703206683917e-01 -6.266977584354e+01 0.0 
0.0 0.0 -3.047761848311e+01 
-6.085347752382e+01 8.095889880580e+00 0.0 
8.095889880580e+00 -9.144938131158e+01 0.0 
0.0 0.0 -4.529085765062e+01 
-2.572534057051e+01 1.345704662828e+01 0.0 
1.345704662828e+01 -5.046164709988e+01 0.0 
0.0 0.0 -2.245609630112e+01 
-1.165050666873e+02 2.826081667960e+01 0.0 
2.826081667960e+01 -2.609855251733e+02 0.0 
0.0 0.0 -1.128471775582e+02 
-5.504573915065e+01 -1.126818803910e+00 0.0 
-1.126818803910e+00 -1.513054952217e+02 0.0 
0.0 0.0 -6.150537031169e+01 
-2.118858644734e+01 6.930632934698e+00 0.0 
6.930632934698e+00 -4.045811654672e+01 0.0 
0.0 0.0 -1.809401089822e+01 
-1.065245253593e+02 2.108351937014e+01 0.0 
2.108351937014e+01 -2.748613679197e+02 0.0 
0.0 0.0 -1.140157679837e+02 
-3.326519477792e+01 8.371093766907e-02 0.0 
8.371093766907e-02 -4.662532961334e+01 0.0 
0.0 0.0 -2.356715731738e+01 
-9.936668338802e+01 1.589705241883e+01 0.0 
1.589705241883e+01 -2.149412255903e+02 0.0 
0.0 0.0 -9.389237269350e+01 
-9.994810623607e+01 8.638148544805e-01 0.0 
8.638148544805e-01 -2.296612623184e+02 0.0 
0.0 0.0 -9.848281056635e+01 
-9.867956109578e+01 7.326478348566e-01 0.0 
7.326478348566e-01 -2.315856425568e+02 0.0 
0.0 0.0 -9.867956109578e+01 
-1.850226247895e+00 3.162475757190e-01 0.0 
3.162475757190e-01 -6.657062604728e+00 0.0 
0.0 0.0 -2.152186655787e+00 
-4.025704942739e+00 -2.820894207784e-01 0.0 
-2.820894207784e-01 -1.043035029049e+01 0.0 
0.0 0.0 -4.573323120129e+00 
-3.383016672608e+01 6.379507768707e-01 0.0 
6.379507768707e-01 -4.914620692536e+01 0.0 
0.0 0.0 -2.449291209543e+01 
-3.255391797053e+01 -1.199345346523e-01 0.0 
-1.199345346523e-01 -4.663302912324e+01 0.0 
0.0 0.0 -2.335608412813e+01 
-1.638159980015e+02 6.330818838658e-01 0.0 
6.330818838658e-01 -3.835706620035e+02 0.0 
0.0 0.0 -1.638159980015e+02 
-1.606851457011e+02 -6.100438046100e-01 0.0 
-6.100438046100e-01 -3.804858858616e+02 0.0 
0.0 0.0 -1.619513094688e+02 
-8.491473994953e+00 -7.654926336788e-01 0.0 
-7.654926336788e-01 -2.307329998025e+01 0.0 
0.0 0.0 -9.069432192561e+00 
-1.760090031985e+01 -4.838066443740e-01 0.0 
-4.838066443740e-01 -8.275739039647e+00 0.0 
0.0 0.0 -8.263418155056e+00 
-1.451543700365e+02 3.013590149949e+00 0.0 
3.013590149949e+00 -3.513316084086e+02 0.0 
0.0 0.0 -1.485457935336e+02 
-1.176702551814e+02 2.563791232624e+01 0.0 
2.563791232624e+01 -2.882591950543e+02 0.0 
0.0 0.0 -1.213788350707e+02 
-2.790918159091e+01 -9.804608652492e-01 0.0 
-9.804608652492e-01 -7.447483950525e+01 0.0 
0.0 0.0 -3.031520632885e+01 
-1.458724619834e+02 7.239052772821e+00 0.0 
7.239052772821e+00 -3.528199503305e+02 0.0 
0.0 0.0 -1.492077236942e+02 
-9.723935863956e+01 3.557542846742e-01 0.0 
3.557542846742e-01 -2.542202891332e+02 0.0 
0.0 0.0 -1.050378943318e+02 
-8.198388321479e+01 7.781099992575e-01 0.0 
7.781099992575e-01 -2.198707878826e+02 0.0 
0.0 0.0 -9.015640132921e+01 
-6.097150594417e+01 5.143904526521e-01 0.0 
5.143904526521e-01 -1.149035162860e+02 0.0 
0.0 0.0 -5.236250666905e+01 
-2.705539867640e+01 -2.837368889613e+00 0.0 
-2.837368889613e+00 -6.896557336770e+01 0.0 
0.0 0.0 -2.840629161323e+01 
-9.354496155177e+01 2.124112631651e+01 0.0 
2.124112631651e+01 -2.430266884365e+02 0.0 
0.0 0.0 -1.005714949965e+02 
-2.296129853453e+01 -1.538529148576e+00 0.0 
-1.538529148576e+00 -5.981046468916e+01 0.0 
0.0 0.0 -2.443152896711e+01 
-7.400153136969e+01 5.405580252658e-01 0.0 
5.405580252658e-01 -2.001584246840e+02 0.0 
0.0 0.0 -8.184798681610e+01 
-1.094408661260e+02 2.531363025523e+01 0.0 
2.531363025523e+01 -2.475614830729e+02 0.0 
0.0 0.0 -1.067007047597e+02 
-8.660724504429e+01 9.580100854562e-01 0.0 
9.580100854562e-01 -1.887749762453e+02 0.0 
0.0 0.0 -8.221466638688e+01 
-8.205100887586e+01 -3.967596166898e-01 0.0 
-3.967596166898e-01 -2.189660798443e+02 0.0 
0.0 0.0 -8.990512661606e+01 
-5.261890530849e+01 1.045122465940e+00 0.0 
1.045122465940e+00 -9.433550330020e+01 0.0 
0.0 0.0 -4.368632258261e+01 
-1.162924374475e+02 2.811619258837e+01 0.0 
2.811619258837e+01 -2.771794474841e+02 0.0 
0.0 0.0 -1.176415654795e+02 
-1.032656986501e+02 2.637354806263e+01 0.0 
2.637354806263e+01 -2.250420349589e+02 0.0 
0.0 0.0 -9.809232008268e+01 
-9.555937615696e+01 2.550335389530e+01 0.0 
2.550335389530e+01 -2.045550031847e+02 0.0 
0.0 0.0 -8.963431380248e+01 
-3.403281280585e+01 -5.219967479369e-02 0.0 
-5.219967479369e-02 -4.727512008079e+01 0.0 
0.0 0.0 -2.399237986599e+01 
-8.966795338813e+01 1.965995160037e+01 0.0 
1.965995160037e+01 -2.384631766475e+02 0.0 
0.0 0.0 -9.803933901067e+01 
-1.006399368326e+02 1.885469921022e+01 0.0 
1.885469921022e+01 -2.186934384669e+02 0.0 
0.0 0.0 -9.540001258985e+01 
-4.122320569767e+01 -1.064913930478e+00 0.0 
-1.064913930478e+00 -1.150741164363e+02 0.0 
0.0 0.0 -4.648919664020e+01 
-1.535470229844e+01 -1.520839963532e+00 0.0 
-1.520839963532e+00 -2.518092433562e+01 0.0 
0.0 0.0 -1.176068799022e+01 
-1.118688937610e+02 2.715091662165e+01 0.0 
2.715091662165e+01 -2.625301196565e+02 0.0 
0.0 0.0 -1.119197040253e+02 
-1.145915445708e+02 1.574115337572e+01 0.0 
1.574115337572e+01 -2.990419735253e+02 0.0 
0.0 0.0 -1.236900554288e+02 
-2.305636953452e+01 -2.701161506760e+00 0.0 
-2.701161506760e+00 -5.736059559372e+01 0.0 
0.0 0.0 -2.372508953847e+01 
-6.625657988220e+01 1.312555346329e+00 0.0 
1.312555346329e+00 -1.291853132413e+02 0.0 
0.0 0.0 -5.823256793705e+01 
-1.537101626527e+02 3.817396761329e+00 0.0 
3.817396761329e+00 -3.657986441859e+02 0.0 
0.0 0.0 -1.554526420516e+02 
-1.121549520892e+02 2.508240016281e+01 0.0 
2.508240016281e+01 -2.729347831068e+02 0.0 
0.0 0.0 -1.151269205588e+02 
-1.179523730866e+02 2.813386506710e+01 0.0 
2.813386506710e+01 -2.831577345153e+02 0.0 
0.0 0.0 -1.199330322806e+02 
-1.063577722723e+02 1.095056325398e+00 0.0 
1.095056325398e+00 -2.742598043209e+02 0.0 
0.0 0.0 -1.137852729779e+02 
-1.761416398010e+01 4.451264248246e+00 0.0 
4.451264248246e+00 -2.110978747951e+01 0.0 
0.0 0.0 -1.149397648710e+01 
-2.601485269787e+01 1.787729177006e+01 0.0 
1.787729177006e+01 -1.939480827715e+01 0.0 
0.0 0.0 -1.322289829251e+01 
-2.837994418798e+01 1.656272118091e+01 0.0 
1.656272118091e+01 -5.407699495483e+01 0.0 
0.0 0.0 -2.433708174284e+01 
-5.748265420016e+01 5.143792478993e+00 0.0 
5.143792478993e+00 -8.460403783851e+01 0.0 
0.0 0.0 -4.222600761160e+01 
-8.801025833365e+01 1.862864605815e+01 0.0 
1.862864605815e+01 -2.375798800584e+02 0.0 
0.0 0.0 -9.727704151762e+01 
-9.260347227116e+01 6.183813310916e+00 0.0 
6.183813310916e+00 -2.030323487581e+02 0.0 
0.0 0.0 -8.829074630877e+01 
-1.405013359322e+02 1.997411095283e+01 0.0 
1.997411095283e+01 -3.390620091001e+02 0.0 
0.0 0.0 -1.434690035097e+02 
-2.217302699804e+01 -2.470115378411e+00 0.0 
-2.470115378411e+00 -4.166862931105e+01 0.0 
0.0 0.0 -1.875249689272e+01 
-2.010164737331e+01 -2.803248260921e+00 0.0 
-2.803248260921e+00 -4.055018227170e+01 0.0 
0.0 0.0 -1.779554889350e+01 
-2.650567033924e+01 1.756330526801e+01 0.0 
1.756330526801e+01 -2.034055514923e+01 0.0 
0.0 0.0 -1.365386764654e+01 
-6.809651184108e+01 2.236594644021e-01 0.0 
2.236594644021e-01 -1.346486602582e+02 0.0 
0.0 0.0 -6.042355162978e+01 
-5.117655187532e+01 -2.734750895229e-01 0.0 
-2.734750895229e-01 -1.410750586004e+02 0.0 
0.0 0.0 -5.727548314271e+01 
-9.979227852069e+01 1.472108943640e+01 0.0 
1.472108943640e+01 -2.126165686543e+02 0.0 
0.0 0.0 -9.332265415249e+01 
-2.643446061669e+01 -2.672745147265e-01 0.0 
-2.672745147265e-01 -7.136140614685e+01 0.0 
0.0 0.0 -2.893876002906e+01 
-1.294488486802e+02 1.882464972020e+01 0.0 
1.882464972020e+01 -3.221388891180e+02 0.0 
0.0 0.0 -1.350763213395e+02 
-5.014775862040e+01 7.585322698047e-01 0.0 
7.585322698047e-01 -8.016349705920e+01 0.0 
0.0 0.0 -3.869337670388e+01 
-1.337764032953e+02 2.569616135493e+01 0.0 
2.569616135493e+01 -3.190494824582e+02 0.0 
0.0 0.0 -1.354477657260e+02 
-1.069081832610e+02 2.413507507538e+01 0.0 
2.413507507538e+01 -2.665584162080e+02 0.0 
0.0 0.0 -1.116399798407e+02 
-5.982392003479e+01 7.529670065321e+00 0.0 
7.529670065321e+00 -8.607934341726e+01 0.0 
0.0 0.0 -4.337097903561e+01 
-1.458952375858e+02 1.362301811423e+01 0.0 
1.362301811423e+01 -3.555991056752e+02 0.0 
0.0 0.0 -1.500483029783e+02 
-1.040167581517e+02 1.569196994687e+01 0.0 
1.569196994687e+01 -2.272864950619e+02 0.0 
0.0 0.0 -9.899097596407e+01 
-9.619587875233e+01 1.020377178976e+00 0.0 
1.020377178976e+00 -2.156610311278e+02 0.0 
0.0 0.0 -9.315707296404e+01 
-2.591444041184e+01 1.675709584474e+01 0.0 
1.675709584474e+01 -1.937259745534e+01 0.0 
0.0 0.0 -1.318611136015e+01 
-9.423528954223e+01 1.103129055477e+01 0.0 
1.103129055477e+01 -2.015027091834e+02 0.0 
0.0 0.0 -8.832139961768e+01 
-1.213963455224e+02 2.818692711335e+01 0.0 
2.818692711335e+01 -2.846507832184e+02 0.0 
0.0 0.0 -1.214141386223e+02 
-1.291628460069e+02 1.997139566902e+01 0.0 
1.997139566902e+01 -3.227108855643e+02 0.0 
0.0 0.0 -1.351621194714e+02 
-1.098253287026e+02 2.219591720961e+01 0.0 
2.219591720961e+01 -2.786278206212e+02 0.0 
0.0 0.0 -1.161359447971e+02 
-1.618430990487e+02 8.387913546335e+00 0.0 
8.387913546335e+00 -3.789672311137e+02 0.0 
0.0 0.0 -1.618430990487e+02 
-9.400097366255e+01 2.293357158430e+01 0.0 
2.293357158430e+01 -2.033900093746e+02 0.0 
0.0 0.0 -8.881729491115e+01 
-1.725682857000e+01 4.220353637687e+00 0.0 
4.220353637687e+00 -9.650324179772e+00 0.0 
0.0 0.0 -8.623888725458e+00 
-2.329276338947e+01 9.566390545795e+00 0.0 
9.566390545795e+00 -4.452278686521e+01 0.0 
0.0 0.0 -1.994466507640e+01 
-1.060786252356e+02 2.629427112394e+01 0.0 
2.629427112394e+01 -2.311275449889e+02 0.0 
0.0 0.0 -1.007618510673e+02 
-6.216024092833e+01 4.995837112979e+00 0.0 
4.995837112979e+00 -9.966872490563e+01 0.0 
0.0 0.0 -4.814868975019e+01 
-1.451171225641e+02 2.752728849713e+00 0.0 
2.752728849713e+00 -3.511370874808e+02 0.0 
0.0 0.0 -1.484762630135e+02 
-1.166860517798e+02 2.534551829449e+01 0.0 
2.534551829449e+01 -2.854212341527e+02 0.0 
0.0 0.0 -1.202321857798e+02 
-1.537152467217e+02 7.435830380050e+00 0.0 
7.435830380050e+00 -3.657487453180e+02 0.0 
0.0 0.0 -1.554391976119e+02 
-7.599338589648e+01 8.988426518676e-01 0.0 
8.988426518676e-01 -1.558276388841e+02 0.0 
0.0 0.0 -6.914630743417e+01 
-1.360999706114e+02 2.477036713164e+01 0.0 
2.477036713164e+01 -3.247427198684e+02 0.0 
0.0 0.0 -1.378528071439e+02 
-1.413849522389e+02 1.217713552135e+01 0.0 
1.217713552135e+01 -3.453830927530e+02 0.0 
0.0 0.0 -1.456304134976e+02 
-1.400233161988e+02 1.113507908422e+01 0.0 
1.113507908422e+01 -3.446665403170e+02 0.0 
0.0 0.0 -1.450069569548e+02 
-5.337667028473e+01 -2.729578347665e-01 0.0 
-2.729578347665e-01 -1.465644932970e+02 0.0 
0.0 0.0 -5.958234907452e+01 
-1.597197980821e+02 7.087062582897e+00 0.0 
7.087062582897e+00 -3.795009917191e+02 0.0 
0.0 0.0 -1.613662369404e+02 
-4.493343886328e+01 1.701912398625e+00 0.0 
1.701912398625e+00 -6.464597079553e+01 0.0 
0.0 0.0 -3.247382289764e+01 
-9.026384910130e+01 3.662200799289e+00 0.0 
3.662200799289e+00 -1.969641776587e+02 0.0 
0.0 0.0 -8.576840802801e+01 
-1.812116620545e+01 -2.480548834889e+00 0.0 
-2.480548834889e+00 -4.108135195931e+01 0.0 
0.0 0.0 -1.736075544943e+01 
-8.535711728705e+01 1.815347942361e+00 0.0 
1.815347942361e+00 -1.817354365071e+02 0.0 
0.0 0.0 -7.972776613825e+01 
-6.746522499230e+01 1.158381868381e+00 0.0 
1.158381868381e+00 -1.311273871900e+02 0.0 
0.0 0.0 -5.917778365470e+01 
-1.533602835242e+01 9.500712032105e-02 0.0 
9.500712032105e-02 -4.217843501435e+01 0.0 
0.0 0.0 -1.685433901003e+01 
-2.683612130434e+01 -4.676300897873e-01 0.0 
-4.676300897873e-01 -7.010555069629e+01 0.0 
0.0 0.0 -2.868250160019e+01 
-9.786965510600e+01 2.390327365048e+01 0.0 
2.390327365048e+01 -2.186323227845e+02 0.0 
0.0 0.0 -9.455059336714e+01 
-9.573810332721e+01 8.058166558028e+00 0.0 
8.058166558028e+00 -2.163854217795e+02 0.0 
0.0 0.0 -9.323705753200e+01 
-9.040447890184e+01 2.122479652530e+00 0.0 
2.122479652530e+00 -1.995646462145e+02 0.0 
0.0 0.0 -8.659073753491e+01 
-1.318640805638e+02 2.365696349423e+01 0.0 
2.365696349423e+01 -3.237717801171e+02 0.0 
0.0 0.0 -1.362907582043e+02 
-5.283492832263e+01 -1.051996751402e-01 0.0 
-1.051996751402e-01 -9.359085159791e+01 0.0 
0.0 0.0 -4.352773397616e+01 
-1.296167280353e+01 -1.597612866708e+00 0.0 
-1.597612866708e+00 -2.467251179452e+01 0.0 
0.0 0.0 -1.089025537942e+01 
-2.180853895677e+01 2.350140105315e+00 0.0 
2.350140105315e+00 -3.446236465643e+01 0.0 
0.0 0.0 -1.648127108396e+01 
-1.269246579337e+01 -2.148812020176e+00 0.0 
-2.148812020176e+00 -2.823468636407e+01 0.0 
0.0 0.0 -1.186956050436e+01 
-2.321749996058e+01 -2.396301462082e+00 0.0 
-2.396301462082e+00 -5.455205044917e+01 0.0 
0.0 0.0 -2.293086512293e+01 
-1.611048282616e+01 7.808776893592e+00 0.0 
7.808776893592e+00 -6.911163852670e+00 0.0 
0.0 0.0 -6.702115802959e+00 
-7.216336744360e+01 -6.715863623290e-01 0.0 
-6.715863623290e-01 -1.951938083234e+02 0.0 
0.0 0.0 -7.980715273009e+01 
-1.447528458592e+02 1.359026255907e+00 0.0 
1.359026255907e+00 -3.509386729174e+02 0.0 
0.0 0.0 -1.483074556330e+02 
-1.043921881910e+02 2.168635533684e+01 0.0 
2.168635533684e+01 -2.271949066933e+02 0.0 
0.0 0.0 -9.907612846526e+01 
-6.837880236660e+01 1.121176000412e+01 0.0 
1.121176000412e+01 -1.042491334658e+02 0.0 
0.0 0.0 -5.138838074971e+01 
-6.219592627636e+01 3.274327061916e-01 0.0 
3.274327061916e-01 -1.711083325680e+02 0.0 
0.0 0.0 -6.959127765330e+01 
-1.411537630880e+02 1.000013485443e+01 0.0 
1.000013485443e+01 -3.457428710318e+02 0.0 
0.0 0.0 -1.456689902359e+02 
-1.319046043574e+02 1.449102244974e+01 0.0 
1.449102244974e+01 -3.319247364736e+02 0.0 
0.0 0.0 -1.387488022493e+02 
-1.301693967194e+02 2.708367285199e+01 0.0 
2.708367285199e+01 -3.162414419775e+02 0.0 
0.0 0.0 -1.335232516090e+02 
-1.168969970835e+02 2.714247739707e+01 0.0 
2.714247739707e+01 -2.748266472799e+02 0.0 
0.0 0.0 -1.171170933090e+02 
-1.047897058091e+02 2.500421636808e+01 0.0 
2.500421636808e+01 -2.378760906047e+02 0.0 
0.0 0.0 -1.023997389241e+02 
-1.757686499713e+01 -2.630066166092e+00 0.0 
-2.630066166092e+00 -4.056908724598e+01 0.0 
0.0 0.0 -1.704378567293e+01 
-2.330924834040e+01 -8.048945276835e-01 0.0 
-8.048945276835e-01 -3.513883881928e+01 0.0 
0.0 0.0 -1.713442614790e+01 
-1.449766041119e+02 4.040356549964e+00 0.0 
4.040356549964e+00 -3.517383292665e+02 0.0 
0.0 0.0 -1.486144800135e+02 
-1.415000485269e+01 -4.429296677374e-01 0.0 
-4.429296677374e-01 -4.129396793688e+01 0.0 
0.0 0.0 -1.623319183687e+01 
-1.753590937416e+01 -1.118751033113e+00 0.0 
-1.118751033113e+00 -4.928688372540e+01 0.0 
0.0 0.0 -1.964683792987e+01 
-2.087626932539e+01 1.006787281225e+01 0.0 
1.006787281225e+01 -2.530244770022e+01 0.0 
0.0 0.0 -1.345361510768e+01 
-1.622686942441e+01 -1.412705567242e+00 0.0 
-1.412705567242e+00 -3.862454079598e+01 0.0 
0.0 0.0 -1.605542306612e+01 
-1.498804985345e+02 1.231258348279e+01 0.0 
1.231258348279e+01 -3.586038587826e+02 0.0 
0.0 0.0 -1.521453071951e+02 
-1.174794308827e+02 2.817850567364e+01 0.0 
2.817850567364e+01 -2.707630777512e+02 0.0 
0.0 0.0 -1.160727525902e+02 
-9.133509184474e+01 4.487432206749e+00 0.0 
4.487432206749e+00 -2.026293183879e+02 0.0 
0.0 0.0 -8.778932306979e+01 
-1.321409473980e+02 2.670373153039e+01 0.0 
2.670373153039e+01 -3.149803090883e+02 0.0 
0.0 0.0 -1.337363769459e+02 
-1.277073225868e+02 1.566063019840e+01 0.0 
1.566063019840e+01 -3.212050627773e+02 0.0 
0.0 0.0 -1.342737156092e+02 
-5.734686623367e+01 -5.616124880534e-02 0.0 
-5.616124880534e-02 -1.049808685503e+02 0.0 
0.0 0.0 -4.829832043518e+01 
-1.008691957953e+02 1.118546658141e+01 0.0 
1.118546658141e+01 -2.366947901891e+02 0.0 
0.0 0.0 -1.008691957953e+02 
-3.244572522706e+01 -1.953569651878e+00 0.0 
-1.953569651878e+00 -8.972492931307e+01 0.0 
0.0 0.0 -3.625119636204e+01 
-3.389652913103e+01 -2.248354573834e-02 0.0 
-2.248354573834e-02 -4.640329123542e+01 0.0 
0.0 0.0 -2.368994610993e+01 
-2.532936010898e+01 -3.103539770383e+00 0.0 
-3.103539770383e+00 -5.570142152678e+01 0.0 
0.0 0.0 -2.390923449073e+01 
-9.920570790219e+00 -1.154065963633e+00 0.0 
-1.154065963633e+00 -2.435257778321e+01 0.0 
0.0 0.0 -1.042880445251e+01 
-1.603338713342e+02 4.615785268427e+00 0.0 
4.615785268427e+00 -3.806315861672e+02 0.0 
0.0 0.0 -1.618896372504e+02 
-5.174564492800e+01 5.854239058612e+00 0.0 
5.854239058612e+00 -7.087198105770e+01 0.0 
0.0 0.0 -3.638528779571e+01 
-2.173140972959e+01 -1.062281691533e+00 0.0 
-1.062281691533e+00 -5.750880980499e+01 0.0 
0.0 0.0 -2.337206586038e+01 
-6.860356494156e+01 -1.133267466147e+00 0.0 
-1.133267466147e+00 -1.877442658004e+02 0.0 
0.0 0.0 -7.650434922259e+01 
-1.178423099583e+02 2.892469727662e+01 0.0 
2.892469727662e+01 -2.689890886312e+02 0.0 
0.0 0.0 -1.156494195769e+02 
-9.408678673954e+01 8.248533101816e+00 0.0 
8.248533101816e+00 -2.026863927846e+02 0.0 
0.0 0.0 -8.863195385725e+01 
-1.023497284279e+02 1.787458649112e+01 0.0 
1.787458649112e+01 -2.298868083437e+02 0.0 
0.0 0.0 -9.927096103149e+01 
-4.883736206849e+01 -2.965202599503e-03 0.0 
-2.965202599503e-03 -1.338460816170e+02 0.0 
0.0 0.0 -5.440503310566e+01 
-2.146929130548e+01 6.281112550668e-01 0.0 
6.281112550668e-01 -3.504325789387e+01 0.0 
0.0 0.0 -1.655376475980e+01 
-1.504517052452e+02 8.529012055382e+00 0.0 
8.529012055382e+00 -3.633090707639e+02 0.0 
0.0 0.0 -1.537282328027e+02 
-1.017255821447e+02 9.305617622221e-01 0.0 
9.305617622221e-01 -2.327572367188e+02 0.0 
0.0 0.0 -9.994484565905e+01 
-1.610512726655e+02 1.067328709691e+00 0.0 
1.067328709691e+00 -3.822247753549e+02 0.0 
0.0 0.0 -1.625828144061e+02 
-3.878544545516e+01 -4.803341642463e-01 0.0 
-4.803341642463e-01 -6.103116293922e+01 0.0 
0.0 0.0 -2.954498251832e+01 
-1.362007841210e+02 1.587520351292e+01 0.0 
1.587520351292e+01 -3.343966634666e+02 0.0 
0.0 0.0 -1.407792342763e+02 
-2.135546494299e+01 -8.201612347202e-01 0.0 
-8.201612347202e-01 -5.849014128160e+01 0.0 
0.0 0.0 -2.355368186738e+01 
-9.755361242096e+01 1.294867123410e+01 0.0 
1.294867123410e+01 -2.118647236010e+02 0.0 
0.0 0.0 -9.242550080659e+01 
-1.024736504233e+01 -1.114690439756e+00 0.0 
-1.114690439756e+00 -2.333390245526e+01 0.0 
0.0 0.0 -1.018213799681e+01 
-1.480168965593e+02 1.494529189059e+01 0.0 
1.494529189059e+01 -3.547042636570e+02 0.0 
0.0 0.0 -1.504163480649e+02 
-1.064291247230e+02 1.910571468399e+01 0.0 
1.910571468399e+01 -2.325595221450e+02 0.0 
0.0 0.0 -1.012965940604e+02 
-1.776774686700e+01 1.895666130017e+00 0.0 
1.895666130017e+00 -2.232713218727e+01 0.0 
0.0 0.0 -1.213773525091e+01 
-1.135614191750e+02 2.657654390699e+01 0.0 
2.657654390699e+01 -2.742850400030e+02 0.0 
0.0 0.0 -1.159539377534e+02 
-7.277151928591e+01 2.075914733612e+00 0.0 
2.075914733612e+00 -1.458316363034e+02 0.0 
0.0 0.0 -6.518094667680e+01 
-9.506126915227e+01 5.949983058531e+00 0.0 
5.949983058531e+00 -2.165592501123e+02 0.0 
0.0 0.0 -9.308615577937e+01 
-1.491552873272e+02 2.433582040126e+01 0.0 
2.433582040126e+01 -3.493623370967e+02 0.0 
0.0 0.0 -1.491552873272e+02 
-6.182270731376e+01 1.520729477965e+00 0.0 
1.520729477965e+00 -1.187116122200e+02 0.0 
0.0 0.0 -5.376029586012e+01 
-1.148850885771e+02 2.720138429533e+01 0.0 
2.720138429533e+01 -2.648248485228e+02 0.0 
0.0 0.0 -1.135129811300e+02 
-1.024322889336e+02 1.796440680095e+01 0.0 
1.796440680095e+01 -2.172203986574e+02 0.0 
0.0 0.0 -9.549580627729e+01 
-6.583439465841e+01 7.948095306331e-01 0.0 
7.948095306331e-01 -1.302218981361e+02 0.0 
0.0 0.0 -5.841688783836e+01 
-1.122634319709e+02 2.648936296061e+01 0.0 
2.648936296061e+01 -2.548530877621e+02 0.0 
0.0 0.0 -1.097349559199e+02 
-5.868675342436e+01 -1.053256111603e-01 0.0 
-1.053256111603e-01 -1.603823187761e+02 0.0 
0.0 0.0 -6.532072166013e+01 
-3.292141807600e+01 7.876102997931e-02 0.0 
7.876102997931e-02 -4.651296596201e+01 0.0 
0.0 0.0 -2.343031521140e+01 
-1.232266853537e+02 2.559944109671e+01 0.0 
2.559944109671e+01 -3.013283155625e+02 0.0 
0.0 0.0 -1.269665002749e+02 
-9.540017201476e+01 2.480451256919e-01 0.0 
2.480451256919e-01 -2.172957577551e+02 0.0 
0.0 0.0 -9.340877893094e+01 
-3.203771682758e+00 7.942529035115e-02 0.0 
7.942529035115e-02 -8.544298560969e+00 0.0 
0.0 0.0 -4.049669896285e+00 
-3.265147614013e+01 -2.431090083859e-01 0.0 
-2.431090083859e-01 -4.680018118221e+01 0.0 
0.0 0.0 -2.343549719670e+01 
-1.554624143023e+02 1.156926163295e+00 0.0 
1.156926163295e+00 -3.700479587322e+02 0.0 
0.0 0.0 -1.572531119103e+02 
-2.704951401284e+01 -2.021927404389e+00 0.0 
-2.021927404389e+00 -7.348003487445e+01 0.0 
0.0 0.0 -2.975886466619e+01 
-1.300778953231e+02 1.834033817862e+01 0.0 
1.834033817862e+01 -3.275132058755e+02 0.0 
0.0 0.0 -1.368773303596e+02 
-1.054726484798e+02 2.102333303492e+01 0.0 
2.102333303492e+01 -2.220339314130e+02 0.0 
0.0 0.0 -9.785197396785e+01 
-9.716093357285e+01 5.890547179610e+00 0.0 
5.890547179610e+00 -2.161851454836e+02 0.0 
0.0 0.0 -9.360382371694e+01 
-2.604257552122e+01 -1.480906782509e+00 0.0 
-1.480906782509e+00 -7.066248170083e+01 0.0 
0.0 0.0 -2.861151716661e+01 
-2.347065646561e+01 7.112173367344e+00 0.0 
7.112173367344e+00 -4.027444252878e+01 0.0 
0.0 0.0 -1.872352969832e+01 
-8.538555329607e+01 -1.316245207399e+00 0.0 
-1.316245207399e+00 -2.283983647730e+02 0.0 
0.0 0.0 -9.373517542071e+01 
-7.903282769248e+01 7.439825660716e-01 0.0 
7.439825660716e-01 -1.672285677669e+02 0.0 
0.0 0.0 -7.347841863781e+01 
-2.237712389479e+01 -6.093001033300e-01 0.0 
-6.093001033300e-01 -5.676607484952e+00 0.0 
0.0 0.0 -8.016119413922e+00 
-1.000157136021e+02 1.474033800009e+01 0.0 
1.474033800009e+01 -2.253431981553e+02 0.0 
0.0 0.0 -9.720767352722e+01 
-5.910783061742e+01 3.729949836260e-01 0.0 
3.729949836260e-01 -1.125230488833e+02 0.0 
0.0 0.0 -5.108926385021e+01 
-2.773791141901e+01 -2.684422536313e+00 0.0 
-2.684422536313e+00 -6.923054078101e+01 0.0 
0.0 0.0 -2.869053566000e+01 
-5.403967651970e+01 3.831823681165e-01 0.0 
3.831823681165e-01 -9.862431465793e+01 0.0 
0.0 0.0 -4.539919735329e+01 
-1.289469860727e+02 2.893943945745e+01 0.0 
2.893943945745e+01 -3.089799123069e+02 0.0 
0.0 0.0 -1.309780695139e+02 
-9.028263954855e+01 1.207998836165e+00 0.0 
1.207998836165e+00 -2.390637334510e+02 0.0 
0.0 0.0 -9.840391189988e+01 
-1.782379484032e+01 8.486988658929e+00 0.0 
8.486988658929e+00 -1.162735098994e+01 0.0 
0.0 0.0 -8.409341073713e+00 
-5.199801893095e+01 -1.317256358059e+00 0.0 
-1.317256358059e+00 -1.455506116978e+02 0.0 
0.0 0.0 -5.886458918864e+01 
-7.770097283627e+01 -3.973838057568e-01 0.0 
-3.973838057568e-01 -2.100256800309e+02 0.0 
0.0 0.0 -8.591799586014e+01 
-9.453625721156e+01 -1.330264019283e+00 0.0 
-1.330264019283e+00 -2.480765831641e+02 0.0 
0.0 0.0 -1.023838521127e+02 
-1.276790254146e+02 2.474913943133e+01 0.0 
2.474913943133e+01 -3.114077795652e+02 0.0 
0.0 0.0 -1.313260414939e+02 
-7.559011606000e+01 5.965492977908e-01 0.0 
5.965492977908e-01 -2.047643915708e+02 0.0 
0.0 0.0 -8.370635228923e+01 
-8.105982622029e+01 -2.699249566855e-01 0.0 
-2.699249566855e-01 -2.172818616530e+02 0.0 
0.0 0.0 -8.910250636199e+01 
-1.528905807441e+01 -1.816723667557e+00 0.0 
-1.816723667557e+00 -3.727091975467e+01 0.0 
0.0 0.0 -1.536799334872e+01 
-1.448846221773e+02 6.397975342805e+00 0.0 
6.397975342805e+00 -3.526720660642e+02 0.0 
0.0 0.0 -1.488670064725e+02 
-1.102289460048e+02 2.608010778465e+01 0.0 
2.608010778465e+01 -2.619928451143e+02 0.0 
0.0 0.0 -1.112665373357e+02 
-2.342468920907e+01 7.299745306626e+00 0.0 
7.299745306626e+00 -5.167586330634e+01 0.0 
0.0 0.0 -2.213016575462e+01 
-9.486700722228e+01 1.175689825994e+00 0.0 
1.175689825994e+00 -2.164886669339e+02 0.0 
0.0 0.0 -9.300670224687e+01 
-1.555746871300e+02 1.947058933663e-01 0.0 
1.947058933663e-01 -3.696816931019e+02 0.0 
0.0 0.0 -1.571769140696e+02 
-3.928303657225e+01 6.240495273236e-01 0.0 
6.240495273236e-01 -6.206194009482e+01 0.0 
0.0 0.0 -3.000349300012e+01 
-5.965753874674e+01 3.291549808123e-01 0.0 
3.291549808123e-01 -1.127361066546e+02 0.0 
0.0 0.0 -5.131809362040e+01 
-7.577723982302e+01 -6.947962291017e-01 0.0 
-6.947962291017e-01 -2.046380607570e+02 0.0 
0.0 0.0 -8.372459017401e+01 
-7.865194657341e+01 3.748965734710e-01 0.0 
3.748965734710e-01 -2.109377909536e+02 0.0 
0.0 0.0 -8.647692125810e+01 
-8.096862113085e+01 1.872650178155e-01 0.0 
1.872650178155e-01 -2.177233293172e+02 0.0 
0.0 0.0 -8.920758513440e+01 
-1.239830399464e+02 1.709266863515e+01 0.0 
1.709266863515e+01 -3.149458565163e+02 0.0 
0.0 0.0 -1.312786689388e+02 
-2.265456615161e+01 -3.185227081441e+00 0.0 
-3.185227081441e+00 -5.633423460125e+01 0.0 
0.0 0.0 -2.329664022586e+01 
-1.154424198481e+02 2.895820057289e+01 0.0 
2.895820057289e+01 -2.691580955197e+02 0.0 
0.0 0.0 -1.149801546104e+02 
-4.596520525147e+01 -6.414643091845e-02 0.0 
-6.414643091845e-02 -7.880322191862e+01 0.0 
0.0 0.0 -3.703052815103e+01 
-1.033681620350e+02 1.457116850245e+01 0.0 
1.457116850245e+01 -2.245429938348e+02 0.0 
0.0 0.0 -9.797334676096e+01 
-1.259501962649e+02 1.768955238046e+01 0.0 
1.768955238046e+01 -3.156763857853e+02 0.0 
0.0 0.0 -1.320879746151e+02 
-5.556691854963e+01 9.722622472058e-01 0.0 
9.722622472058e-01 -9.961735076260e+01 0.0 
0.0 0.0 -4.615528079367e+01 
-1.070602783317e+02 2.527940786959e+01 0.0 
2.527940786959e+01 -2.413687284704e+02 0.0 
0.0 0.0 -1.041287020406e+02 
-1.257331968617e+02 2.342455655291e+01 0.0 
2.342455655291e+01 -3.099437678748e+02 0.0 
0.0 0.0 -1.303030894209e+02 
-1.319605011002e+02 2.665744376355e+01 0.0 
2.665744376355e+01 -3.210304656248e+02 0.0 
0.0 0.0 -1.354972900175e+02 
-1.872715333138e+01 7.827224374322e+00 0.0 
7.827224374322e+00 -1.803273485985e+01 0.0 
0.0 0.0 -1.084199931843e+01 
-1.087758111521e+02 2.682492751163e+01 0.0 
2.682492751163e+01 -2.423448881996e+02 0.0 
0.0 0.0 -1.049362098055e+02 
-1.124160358081e+02 2.699357387041e+01 0.0 
2.699357387041e+01 -2.569207919891e+02 0.0 
0.0 0.0 -1.104010483392e+02 
-1.611626654323e+01 -9.427186076657e-01 0.0 
-9.427186076657e-01 -3.827814744554e+01 0.0 
0.0 0.0 -1.591832419663e+01 
-7.179241784120e+01 2.362335569299e-01 0.0 
2.362335569299e-01 -1.947606719005e+02 0.0 
0.0 0.0 -7.956592692250e+01 
-1.902093233273e+01 6.015185500679e+00 0.0 
6.015185500679e+00 -1.667672840439e+01 0.0 
0.0 0.0 -1.030929822114e+01 
-1.126875737448e+02 2.784889226493e+01 0.0 
2.784889226493e+01 -2.512188707115e+02 0.0 
0.0 0.0 -1.087719333369e+02 
-1.784819096684e+01 4.800227462623e-01 0.0 
4.800227462623e-01 -1.148217203739e+01 0.0 
0.0 0.0 -8.399108901270e+00 
-1.693741001497e+01 -7.905815550260e-02 0.0 
-7.905815550260e-02 -9.730038391763e+00 0.0 
0.0 0.0 -7.600234522019e+00 
-1.723097761681e+01 1.213615206849e-01 0.0 
1.213615206849e-01 -9.821288613424e+00 0.0 
0.0 0.0 -7.715679869070e+00 
-1.698358198052e+01 3.159254079172e-02 0.0 
3.159254079172e-02 -9.612790299449e+00 0.0 
0.0 0.0 -7.578911683992e+00 
-1.713581489515e+01 -5.000273579978e-02 0.0 
-5.000273579978e-02 -9.697701327148e+00 0.0 
0.0 0.0 -7.650054866689e+00 
-1.695439801024e+01 -8.038336822397e-02 0.0 
-8.038336822397e-02 -9.678044004577e+00 0.0 
0.0 0.0 -7.589732604446e+00 
-1.706280341801e+01 -6.289335056601e-02 0.0 
-6.289335056601e-02 -9.717357244339e+00 0.0 
0.0 0.0 -7.634048198705e+00 
-1.680440174278e+01 -1.225782957716e-01 0.0 
-1.225782957716e-01 -9.618252653375e+00 0.0 
0.0 0.0 -7.526796318847e+00 
-1.709928428835e+01 -1.087985910850e-01 0.0 
-1.087985910850e-01 -9.733532337394e+00 0.0 
0.0 0.0 -7.649844987722e+00 
-1.655841050952e+01 -2.030963080664e-01 0.0 
-2.030963080664e-01 -9.611082250711e+00 0.0 
0.0 0.0 -7.450847828068e+00 
-1.701334369043e+01 -1.371751722416e-01 0.0 
-1.371751722416e-01 -9.760644735178e+00 0.0 
0.0 0.0 -7.632196527683e+00 
-1.620163798709e+01 -2.738269217866e-01 0.0 
-2.738269217866e-01 -9.560511408197e+00 0.0 
0.0 0.0 -7.328644818587e+00 
-1.700489054904e+01 -1.633245859517e-01 0.0 
-1.633245859517e-01 -9.810250003319e+00 0.0 
0.0 0.0 -7.644542165708e+00 
-2.038364128598e+01 4.053611781590e+00 0.0 
4.053611781590e+00 -1.283099796772e+01 0.0 
0.0 0.0 -9.564391776111e+00 
-1.574657797890e+01 -3.361252567820e-01 0.0 
-3.361252567820e-01 -9.568724810367e+00 0.0 
0.0 0.0 -7.194590836781e+00 
-1.692379339649e+01 -1.208004560018e-01 0.0 
-1.208004560018e-01 -9.870474639038e+00 0.0 
0.0 0.0 -7.638280410657e+00 
-1.307628073428e+01 7.687026487420e-01 0.0 
7.687026487420e-01 -5.623238502253e+00 0.0 
0.0 0.0 -5.209855770959e+00 
-1.527412052446e+01 -3.708757474650e-01 0.0 
-3.708757474650e-01 -9.427330573085e+00 0.0 
0.0 0.0 -7.010435329265e+00 
-1.695605078695e+01 -1.993276664130e-01 0.0 
-1.993276664130e-01 -9.915215072654e+00 0.0 
0.0 0.0 -7.661379757881e+00 
-2.465206521206e+01 2.385683421182e+00 0.0 
2.385683421182e+00 -1.101599737628e+01 0.0 
0.0 0.0 -1.030041877650e+01 
-1.466810545550e+01 -4.754805666629e-01 0.0 
-4.754805666629e-01 -9.409807441831e+00 0.0 
0.0 0.0 -6.823373869199e+00 
-1.694679243315e+01 -2.214647513388e-01 0.0 
-2.214647513388e-01 -9.997602361244e+00 0.0 
0.0 0.0 -7.683318438317e+00 
-1.394925400700e+01 -5.200980777371e-01 0.0 
-5.200980777371e-01 -9.387886190355e+00 0.0 
0.0 0.0 -6.601142059207e+00 
-1.710585732730e+01 -1.610498372438e-01 0.0 
-1.610498372438e-01 -1.011084860031e+01 0.0 
0.0 0.0 -7.765011778282e+00 
-1.326295302876e+01 -5.047777368726e-01 0.0 
-5.047777368726e-01 -9.290125449792e+00 0.0 
0.0 0.0 -6.365923543567e+00 
-3.036219149255e+01 7.383951340745e+00 0.0 
7.383951340745e+00 -1.298747796805e+01 0.0 
0.0 0.0 -1.260490083818e+01 
-1.751783589148e+01 -1.103528534224e-01 0.0 
-1.103528534224e-01 -1.023640544932e+01 0.0 
0.0 0.0 -7.926272402239e+00 
-1.265616370255e+01 -4.526217474543e-01 0.0 
-4.526217474543e-01 -9.240704916377e+00 0.0 
0.0 0.0 -6.169060585677e+00 
-1.225750955016e+01 -2.684839228982e-01 0.0 
-2.684839228982e-01 -9.296951584767e+00 0.0 
0.0 0.0 -6.066338340480e+00 
-1.815992583475e+01 -8.800289784355e-03 0.0 
-8.800289784355e-03 -1.038147153335e+01 0.0 
0.0 0.0 -8.162419210430e+00 
-1.239732906876e+01 4.872790673622e-02 0.0 
4.872790673622e-02 -9.185717200408e+00 0.0 
0.0 0.0 -6.074913880751e+00 
-1.919620179658e+01 2.846249542426e-01 0.0 
2.846249542426e-01 -1.053334583339e+01 0.0 
0.0 0.0 -8.518864288992e+00 
-1.342730855673e+01 1.066735659030e+00 0.0 
1.066735659030e+00 -1.040669364819e+01 0.0 
0.0 0.0 -6.750200661475e+00 
-2.096857853098e+01 5.159303581664e-01 0.0 
5.159303581664e-01 -1.073080419380e+01 0.0 
0.0 0.0 -9.109814817433e+00 
-2.280154536360e+01 2.391358422083e+00 0.0 
2.391358422083e+00 4.446965687665e-01 0.0 
0.0 0.0 -6.307054638451e+00 
-1.824531168596e+01 1.437722552810e+00 0.0 
1.437722552810e+00 -9.352010207444e+00 0.0 
0.0 0.0 -7.879196568021e+00 
-1.785940616306e+01 -1.345910237482e+00 0.0 
-1.345910237482e+00 -1.164046728057e+01 0.0 
0.0 0.0 -8.449962033091e+00 
-1.621796456779e+01 1.867589507782e-01 0.0 
1.867589507782e-01 -5.279886693667e+00 0.0 
0.0 0.0 -6.049355378436e+00 
-1.976163794390e+01 -1.643961580547e-01 0.0 
-1.643961580547e-01 -1.549733834655e+01 0.0 
0.0 0.0 -1.017769288714e+01 
-3.048089883225e+01 8.079462747581e+00 0.0 
8.079462747581e+00 -1.019214104574e+01 0.0 
0.0 0.0 -1.180191196340e+01 
-2.497577059344e+01 3.767797285887e-01 0.0 
3.767797285887e-01 -2.811319116612e+01 0.0 
0.0 0.0 -1.552668852787e+01 
-2.568513905830e+01 -1.416639779585e-02 0.0 
-1.416639779585e-02 -2.928496893317e+01 0.0 
0.0 0.0 -1.609103239744e+01 
-2.554915924022e+01 5.454531801010e-03 0.0 
5.454531801010e-03 -2.923037906805e+01 0.0 
0.0 0.0 -1.603386149248e+01 
-2.552287308686e+01 -1.887949183744e-02 0.0 
-1.887949183744e-02 -2.934530089415e+01 0.0 
0.0 0.0 -1.606045219430e+01 
-2.555459560189e+01 -8.676384083284e-02 0.0 
-8.676384083284e-02 -2.934152297622e+01 0.0 
0.0 0.0 -1.606883557343e+01 
-2.568697938117e+01 -1.578168184938e-01 0.0 
-1.578168184938e-01 -2.954081264270e+01 0.0 
0.0 0.0 -1.616833760716e+01 
-2.554747493354e+01 -6.225446516727e-02 0.0 
-6.225446516727e-02 -2.951492411390e+01 0.0 
0.0 0.0 -1.611871971423e+01 
-2.592679983442e+01 -1.052506687334e-01 0.0 
-1.052506687334e-01 -2.950240807849e+01 0.0 
0.0 0.0 -1.622876237387e+01 
-2.548278521483e+01 -1.641841519606e-01 0.0 
-1.641841519606e-01 -2.929503449918e+01 0.0 
0.0 0.0 -1.603334591420e+01 
-2.600775635278e+01 -3.022812969834e-01 0.0 
-3.022812969834e-01 -2.956836689331e+01 0.0 
0.0 0.0 -1.627283697383e+01 
-2.543023562982e+01 -1.764140164402e-01 0.0 
-1.764140164402e-01 -2.940005926041e+01 0.0 
0.0 0.0 -1.604908846707e+01 
-2.622530797151e+01 -3.095733300720e-01 0.0 
-3.095733300720e-01 -2.959393931440e+01 0.0 
0.0 0.0 -1.634577418577e+01 
-3.169155115955e+01 4.237931594988e+00 0.0 
4.237931594988e+00 -3.343523692647e+01 0.0 
0.0 0.0 -1.913803642581e+01 
-2.536647172079e+01 -2.019618461727e-01 0.0 
-2.019618461727e-01 -2.932060607074e+01 0.0 
0.0 0.0 -1.600612333746e+01 
-3.305552241851e+01 2.080987861958e+00 0.0 
2.080987861958e+00 -3.081708558754e+01 0.0 
0.0 0.0 -1.876178240182e+01 
-2.675785358561e+01 -4.474714427022e-01 0.0 
-4.474714427022e-01 -2.974638162943e+01 0.0 
0.0 0.0 -1.655127056451e+01 
-2.527298686379e+01 -1.959827433053e-01 0.0 
-1.959827433053e-01 -2.935192606274e+01 0.0 
0.0 0.0 -1.598747387796e+01 
-2.669120782096e+01 -3.670226510235e-01 0.0 
-3.670226510235e-01 -2.961271937478e+01 0.0 
0.0 0.0 -1.649117815872e+01 
-2.521340847232e+01 -2.184302086940e-01 0.0 
-2.184302086940e-01 -2.918238300519e+01 0.0 
0.0 0.0 -1.591873744325e+01 
-2.718115402334e+01 -5.026763405110e-01 0.0 
-5.026763405110e-01 -2.973692234819e+01 0.0 
0.0 0.0 -1.667542291146e+01 
-2.525208259717e+01 -1.303032119432e-01 0.0 
-1.303032119432e-01 -2.937661274397e+01 0.0 
0.0 0.0 -1.598860860234e+01 
-2.786091133906e+01 -3.801500485229e-01 0.0 
-3.801500485229e-01 -2.988307389189e+01 0.0 
0.0 0.0 -1.692319556929e+01 
-2.782782665120e+01 2.554837487728e+00 0.0 
2.554837487728e+00 -2.673571647433e+01 0.0 
0.0 0.0 -1.596906293766e+01 
-2.541297148721e+01 7.570381160576e-02 0.0 
7.570381160576e-02 -2.949411497344e+01 0.0 
0.0 0.0 -1.607212593820e+01 
-2.863838229295e+01 -1.003586877045e-01 0.0 
-1.003586877045e-01 -2.992964627633e+01 0.0 
0.0 0.0 -1.717040857079e+01 
-2.578069438381e+01 3.732334255255e-01 0.0 
3.732334255255e-01 -2.951640859810e+01 0.0 
0.0 0.0 -1.618913089457e+01 
-2.973335815560e+01 2.211376010710e-01 0.0 
2.211376010710e-01 -3.005975226298e+01 0.0 
0.0 0.0 -1.753793312557e+01 
-3.112033724491e+01 8.659688413762e-01 0.0 
8.659688413762e-01 -3.033125349025e+01 0.0 
0.0 0.0 -1.803547722055e+01 
-2.650604085600e+01 8.802989565753e-01 0.0 
8.802989565753e-01 -2.985573991627e+01 0.0 
0.0 0.0 -1.650853423168e+01 
-2.779834065639e+01 1.813145571556e+00 0.0 
1.813145571556e+00 -3.060500317293e+01 0.0 
0.0 0.0 -1.712100314879e+01 
-3.674545350306e+01 5.004386877425e+00 0.0 
5.004386877425e+00 -3.436814176920e+01 0.0 
0.0 0.0 -2.093407858168e+01 
-3.154472658387e+01 3.126784019858e+00 0.0 
3.126784019858e+00 -2.370230591059e+01 0.0 
0.0 0.0 -1.617410974834e+01 
-2.505292970080e+01 1.243745265090e+00 0.0 
1.243745265090e+00 -2.949566847413e+01 0.0 
0.0 0.0 -1.596457945248e+01 
-2.529090935358e+01 -1.590916674726e+00 0.0 
-1.590916674726e+00 -2.808261404850e+01 0.0 
0.0 0.0 -1.561205702062e+01 
-2.712839321336e+01 -1.033558847177e-01 0.0 
-1.033558847177e-01 -3.397347135652e+01 0.0 
0.0 0.0 -1.793055937096e+01 
-2.331750486065e+01 -3.034694424666e-01 0.0 
-3.034694424666e-01 -2.379436115230e+01 0.0 
0.0 0.0 -1.373355980388e+01 
-3.178050447691e+01 5.952908345017e+00 0.0 
5.952908345017e+00 -2.764902232758e+01 0.0 
0.0 0.0 -1.742885804135e+01 

TENSORS element_materi_strain_total float
-1.202673461027e-04 2.743299618576e-04 0.0 
2.743299618576e-04 1.007715330369e-03 0.0 
0.0 0.0 0.0 
-1.002285575707e-04 2.131180012228e-04 0.0 
2.131180012228e-04 9.639012682936e-04 0.0 
0.0 0.0 0.0 
-3.633869368835e-05 3.167220661414e-04 0.0 
3.167220661414e-04 2.070236508850e-03 0.0 
0.0 0.0 0.0 
-4.170675068138e-05 2.636236072635e-05 0.0 
2.636236072635e-05 2.316532621147e-03 0.0 
0.0 0.0 0.0 
-1.402967283751e-04 1.481622455113e-05 0.0 
1.481622455113e-05 1.943237995821e-03 0.0 
0.0 0.0 0.0 
-5.156934121797e-05 7.639546876779e-05 0.0 
7.639546876779e-05 1.991889014552e-04 0.0 
0.0 0.0 0.0 
-1.301767430113e-04 1.239419099795e-05 0.0 
1.239419099795e-05 1.941317636366e-03 0.0 
0.0 0.0 0.0 
-1.060903100272e-04 2.524925336837e-04 0.0 
2.524925336837e-04 9.107711475576e-04 0.0 
0.0 0.0 0.0 
-1.393217249011e-04 2.138079767165e-06 0.0 
2.138079767165e-06 1.942437804477e-03 0.0 
0.0 0.0 0.0 
-4.062753747569e-05 5.391403442866e-05 0.0 
5.391403442866e-05 2.311881829565e-03 0.0 
0.0 0.0 0.0 
1.044799513967e-04 7.374567875880e-06 0.0 
7.374567875880e-06 7.305466093606e-04 0.0 
0.0 0.0 0.0 
-1.055266163817e-04 2.213226136584e-04 0.0 
2.213226136584e-04 8.436013907185e-04 0.0 
0.0 0.0 0.0 
3.686370085321e-05 2.488308975661e-05 0.0 
2.488308975661e-05 1.151666778199e-03 0.0 
0.0 0.0 0.0 
-1.725598867900e-04 5.277285445530e-05 0.0 
5.277285445530e-05 1.995144628997e-03 0.0 
0.0 0.0 0.0 
2.131265952188e-05 2.276560168928e-05 0.0 
2.276560168928e-05 1.187979814629e-03 0.0 
0.0 0.0 0.0 
-2.522495273793e-05 4.427771376393e-05 0.0 
4.427771376393e-05 2.333769868343e-03 0.0 
0.0 0.0 0.0 
-1.531817061193e-04 1.638068842620e-05 0.0 
1.638068842620e-05 1.929347467572e-03 0.0 
0.0 0.0 0.0 
-3.980913322188e-05 2.031031327334e-05 0.0 
2.031031327334e-05 1.850977121955e-04 0.0 
0.0 0.0 0.0 
3.572042276523e-05 -1.099580450784e-05 0.0 
-1.099580450784e-05 2.031798716058e-04 0.0 
0.0 0.0 0.0 
4.779174292557e-05 -1.795786920826e-06 0.0 
-1.795786920826e-06 2.095759898693e-04 0.0 
0.0 0.0 0.0 
-5.003463995112e-05 4.795160011806e-05 0.0 
4.795160011806e-05 2.312951799045e-03 0.0 
0.0 0.0 0.0 
-1.113544284126e-04 2.469537507565e-04 0.0 
2.469537507565e-04 1.148650878484e-03 0.0 
0.0 0.0 0.0 
-1.269807513792e-04 2.608044313213e-04 0.0 
2.608044313213e-04 1.242987592603e-03 0.0 
0.0 0.0 0.0 
7.201120090161e-05 1.876585174956e-04 0.0 
1.876585174956e-04 1.199296989399e-03 0.0 
0.0 0.0 0.0 
-1.849306157836e-04 1.044586371194e-04 0.0 
1.044586371194e-04 2.027082096756e-03 0.0 
0.0 0.0 0.0 
1.018203259584e-04 3.591778004008e-06 0.0 
3.591778004008e-06 7.769973559892e-04 0.0 
0.0 0.0 0.0 
-1.855632111472e-04 6.257457293559e-05 0.0 
6.257457293559e-05 1.866926095561e-03 0.0 
0.0 0.0 0.0 
2.591085740877e-05 3.785346644956e-04 0.0 
3.785346644956e-04 1.650941848113e-03 0.0 
0.0 0.0 0.0 
-2.102167553730e-04 1.164732657930e-04 0.0 
1.164732657930e-04 2.026095660494e-03 0.0 
0.0 0.0 0.0 
6.909012733058e-05 1.910419159707e-04 0.0 
1.910419159707e-04 1.220898671408e-03 0.0 
0.0 0.0 0.0 
-1.594484814527e-05 -2.186717923691e-05 0.0 
-2.186717923691e-05 1.859437741176e-04 0.0 
0.0 0.0 0.0 
-3.329954385212e-05 -2.003912456167e-05 0.0 
-2.003912456167e-05 7.402691169234e-05 0.0 
0.0 0.0 0.0 
-6.267740992683e-05 3.298290703485e-04 0.0 
3.298290703485e-04 2.090556444190e-03 0.0 
0.0 0.0 0.0 
7.664192277779e-05 1.623665499989e-06 0.0 
1.623665499989e-06 9.550529757381e-04 0.0 
0.0 0.0 0.0 
4.723554711616e-05 1.093970177244e-04 0.0 
1.093970177244e-04 1.181482107816e-03 0.0 
0.0 0.0 0.0 
2.259836632001e-05 8.645014257232e-05 0.0 
8.645014257232e-05 1.235468082597e-03 0.0 
0.0 0.0 0.0 
1.682378316792e-05 6.107201535053e-05 0.0 
6.107201535053e-05 1.233908556476e-03 0.0 
0.0 0.0 0.0 
6.066630729684e-05 2.860949009058e-04 0.0 
2.860949009058e-04 1.376265853087e-03 0.0 
0.0 0.0 0.0 
-1.288463935103e-04 -6.406121807131e-06 0.0 
-6.406121807131e-06 1.876975483772e-03 0.0 
0.0 0.0 0.0 
-1.248156646687e-04 8.767557201531e-06 0.0 
8.767557201531e-06 1.879434807828e-03 0.0 
0.0 0.0 0.0 
-1.583519001638e-04 2.666666119976e-04 0.0 
2.666666119976e-04 1.472184190634e-03 0.0 
0.0 0.0 0.0 
3.250919067788e-05 1.431199387915e-04 0.0 
1.431199387915e-04 1.221843837589e-03 0.0 
0.0 0.0 0.0 
-1.034581297398e-04 2.374270438284e-04 0.0 
2.374270438284e-04 6.714304427251e-04 0.0 
0.0 0.0 0.0 
-2.091421535733e-04 6.538728316782e-05 0.0 
6.538728316782e-05 1.882701030915e-03 0.0 
0.0 0.0 0.0 
-5.496234517277e-05 8.399283983046e-06 0.0 
8.399283983046e-06 2.289897088237e-03 0.0 
0.0 0.0 0.0 
-9.829707264930e-05 1.974055570703e-04 0.0 
1.974055570703e-04 6.677741377470e-04 0.0 
0.0 0.0 0.0 
-1.676584438692e-05 -2.990750187212e-05 0.0 
-2.990750187212e-05 1.283847931866e-04 0.0 
0.0 0.0 0.0 
-3.739254531776e-05 1.792385122139e-05 0.0 
1.792385122139e-05 2.293243753187e-03 0.0 
0.0 0.0 0.0 
-5.476260220882e-05 -2.342889629854e-05 0.0 
-2.342889629854e-05 8.701218896201e-05 0.0 
0.0 0.0 0.0 
-1.809573531563e-04 3.861155488833e-05 0.0 
3.861155488833e-05 1.971382990190e-03 0.0 
0.0 0.0 0.0 
-1.382692587615e-04 2.691299571442e-04 0.0 
2.691299571442e-04 1.350672115377e-03 0.0 
0.0 0.0 0.0 
4.915369791925e-05 -1.028306203679e-05 0.0 
-1.028306203679e-05 2.580996023900e-04 0.0 
0.0 0.0 0.0 
4.120481026781e-05 -3.073280546681e-05 0.0 
-3.073280546681e-05 2.484507293929e-04 0.0 
0.0 0.0 0.0 
-1.323357688877e-04 2.493519074319e-04 0.0 
2.493519074319e-04 1.363791926103e-03 0.0 
0.0 0.0 0.0 
-4.554665778844e-05 2.504670940025e-04 0.0 
2.504670940025e-04 2.204160603977e-03 0.0 
0.0 0.0 0.0 
6.936977168115e-05 -1.442235683266e-05 0.0 
-1.442235683266e-05 3.455076645902e-04 0.0 
0.0 0.0 0.0 
5.928075670947e-05 -9.073040336229e-07 0.0 
-9.073040336229e-07 2.665252834588e-04 0.0 
0.0 0.0 0.0 
7.920581556831e-05 1.234935325988e-05 0.0 
1.234935325988e-05 9.553477466024e-04 0.0 
0.0 0.0 0.0 
2.283599839181e-05 -1.493879518934e-05 0.0 
-1.493879518934e-05 1.536244717741e-04 0.0 
0.0 0.0 0.0 
-2.976818388800e-05 3.841385949541e-05 0.0 
3.841385949541e-05 2.333853580748e-03 0.0 
0.0 0.0 0.0 
-1.173315050759e-04 -2.210894497754e-05 0.0 
-2.210894497754e-05 1.041581507022e-04 0.0 
0.0 0.0 0.0 
6.655617744733e-05 3.256726460202e-04 0.0 
3.256726460202e-04 1.454191164017e-03 0.0 
0.0 0.0 0.0 
1.699183442128e-05 2.606124019511e-04 0.0 
2.606124019511e-04 9.292359473982e-04 0.0 
0.0 0.0 0.0 
3.102709252945e-05 -1.110407474955e-05 0.0 
-1.110407474955e-05 2.106896863561e-04 0.0 
0.0 0.0 0.0 
3.621476766225e-05 3.252727469984e-05 0.0 
3.252727469984e-05 1.153241297568e-03 0.0 
0.0 0.0 0.0 
-1.215701905724e-04 2.473575612790e-04 0.0 
2.473575612790e-04 1.253651520639e-03 0.0 
0.0 0.0 0.0 
-7.777233908912e-05 -1.100090595256e-05 0.0 
-1.100090595256e-05 8.431232589579e-05 0.0 
0.0 0.0 0.0 
-6.138769107300e-05 3.433796450928e-04 0.0 
3.433796450928e-04 2.050378305827e-03 0.0 
0.0 0.0 0.0 
1.277404390088e-05 -4.888136180158e-05 0.0 
-4.888136180158e-05 1.772626602565e-04 0.0 
0.0 0.0 0.0 
-7.669189060699e-06 3.639142764284e-04 0.0 
3.639142764284e-04 1.854142625120e-03 0.0 
0.0 0.0 0.0 
9.951899327931e-05 8.828379876207e-06 0.0 
8.828379876207e-06 8.144958104719e-04 0.0 
0.0 0.0 0.0 
0.0 1.633184762708e-04 0.0 
1.633184762708e-04 2.322289615842e-03 0.0 
0.0 0.0 0.0 
2.078862687815e-05 3.403367206807e-04 0.0 
3.403367206807e-04 1.600654244911e-03 0.0 
0.0 0.0 0.0 
1.541396945992e-05 4.091095249526e-06 0.0 
4.091095249526e-06 6.838045907509e-05 0.0 
0.0 0.0 0.0 
7.720467032812e-05 -3.438485569494e-06 0.0 
-3.438485569494e-06 3.608057436191e-04 0.0 
0.0 0.0 0.0 
-6.115679219221e-05 1.152549762861e-04 0.0 
1.152549762861e-04 2.305808205761e-03 0.0 
0.0 0.0 0.0 
-7.673543225084e-05 2.747355709860e-04 0.0 
2.747355709860e-04 2.185568467315e-03 0.0 
0.0 0.0 0.0 
-8.852512327773e-05 1.639293155558e-04 0.0 
1.639293155558e-04 4.701821617441e-04 0.0 
0.0 0.0 0.0 
3.366988800368e-05 -1.863238081708e-05 0.0 
-1.863238081708e-05 1.532701280997e-04 0.0 
0.0 0.0 0.0 
-1.021523087611e-04 2.156675055327e-04 0.0 
2.156675055327e-04 4.723808316967e-04 0.0 
0.0 0.0 0.0 
1.656311809994e-05 -2.928510760145e-05 0.0 
-2.928510760145e-05 1.742223806100e-04 0.0 
0.0 0.0 0.0 
-1.544250468921e-04 1.410796897861e-05 0.0 
1.410796897861e-05 1.932185588469e-03 0.0 
0.0 0.0 0.0 
-1.240413056177e-04 2.599000988331e-04 0.0 
2.599000988331e-04 1.139090662002e-03 0.0 
0.0 0.0 0.0 
-1.119972500816e-04 2.320140187990e-04 0.0 
2.320140187990e-04 1.053620657553e-03 0.0 
0.0 0.0 0.0 
-1.488173880531e-04 1.036857016188e-05 0.0 
1.036857016188e-05 1.977109527630e-03 0.0 
0.0 0.0 0.0 
-1.353959640081e-04 1.716378772382e-05 0.0 
1.716378772382e-05 1.977040073486e-03 0.0 
0.0 0.0 0.0 
9.359996351743e-05 4.779953980150e-06 0.0 
4.779953980150e-06 8.447117234160e-04 0.0 
0.0 0.0 0.0 
8.404252393457e-05 5.683785609523e-06 0.0 
5.683785609523e-06 9.235895943509e-04 0.0 
0.0 0.0 0.0 
-1.134018100757e-04 2.975406267825e-04 0.0 
2.975406267825e-04 1.913514038521e-03 0.0 
0.0 0.0 0.0 
-1.523239969335e-04 7.253460816951e-06 0.0 
7.253460816951e-06 1.941704135980e-03 0.0 
0.0 0.0 0.0 
-2.079702336644e-05 -1.993012429560e-05 0.0 
-1.993012429560e-05 7.022811958901e-05 0.0 
0.0 0.0 0.0 
-2.113640944803e-04 8.387218018318e-05 0.0 
8.387218018318e-05 1.933145820240e-03 0.0 
0.0 0.0 0.0 
-8.591397016611e-05 9.134711037446e-06 0.0 
9.134711037446e-06 2.168516096340e-03 0.0 
0.0 0.0 0.0 
-9.506527695935e-05 1.812455041208e-05 0.0 
1.812455041208e-05 2.159814568717e-03 0.0 
0.0 0.0 0.0 
-4.162493506166e-05 1.811024489531e-04 0.0 
1.811024489531e-04 2.315609284963e-03 0.0 
0.0 0.0 0.0 
2.353446360681e-05 3.018229645314e-04 0.0 
3.018229645314e-04 1.452992858165e-03 0.0 
0.0 0.0 0.0 
-1.678523162292e-04 1.775644800865e-05 0.0 
1.775644800865e-05 1.933635577687e-03 0.0 
0.0 0.0 0.0 
5.270738424157e-05 1.399566353897e-04 0.0 
1.399566353897e-04 1.217871790298e-03 0.0 
0.0 0.0 0.0 
-1.104477531901e-04 -1.149375728934e-06 0.0 
-1.149375728934e-06 2.027340220198e-03 0.0 
0.0 0.0 0.0 
-2.943516293585e-05 2.507177185793e-04 0.0 
2.507177185793e-04 9.860379950577e-04 0.0 
0.0 0.0 0.0 
-1.414154750438e-04 3.521451124529e-06 0.0 
3.521451124529e-06 1.910941173741e-03 0.0 
0.0 0.0 0.0 
2.385020240214e-05 3.465683832144e-05 0.0 
3.465683832144e-05 1.187233871188e-03 0.0 
0.0 0.0 0.0 
9.668174415123e-05 2.550093756528e-04 0.0 
2.550093756528e-04 1.228068534562e-03 0.0 
0.0 0.0 0.0 
4.764284676040e-05 3.126528417737e-04 0.0 
3.126528417737e-04 1.456381502860e-03 0.0 
0.0 0.0 0.0 
2.622788943873e-05 1.926680612730e-04 0.0 
1.926680612730e-04 7.342251678517e-04 0.0 
0.0 0.0 0.0 
-5.489795952041e-05 -2.726653821773e-05 0.0 
-2.726653821773e-05 1.440757344173e-04 0.0 
0.0 0.0 0.0 
5.406775514882e-05 1.090490128514e-05 0.0 
1.090490128514e-05 1.070330626729e-03 0.0 
0.0 0.0 0.0 
-8.312828067059e-05 2.091514301523e-05 0.0 
2.091514301523e-05 2.210586804499e-03 0.0 
0.0 0.0 0.0 
-1.025421452494e-04 -2.418783640243e-05 0.0 
-2.418783640243e-05 1.045424073638e-04 0.0 
0.0 0.0 0.0 
2.374969392815e-05 5.623710904269e-05 0.0 
5.623710904269e-05 1.182192836487e-03 0.0 
0.0 0.0 0.0 
-9.545114458431e-05 2.954729879278e-04 0.0 
2.954729879278e-04 1.837906955289e-03 0.0 
0.0 0.0 0.0 
1.089580584446e-05 -8.171583755818e-06 0.0 
-8.171583755818e-06 4.214826989246e-05 0.0 
0.0 0.0 0.0 
1.036813569224e-04 2.210195982079e-04 0.0 
2.210195982079e-04 8.196641755107e-04 0.0 
0.0 0.0 0.0 
-2.301272332236e-04 1.715819392948e-04 0.0 
1.715819392948e-04 1.821186065443e-03 0.0 
0.0 0.0 0.0 
9.476740833025e-05 -1.116374728463e-05 0.0 
-1.116374728463e-05 4.426309892180e-04 0.0 
0.0 0.0 0.0 
-1.133213300542e-05 2.478515701203e-04 0.0 
2.478515701203e-04 8.735242160396e-04 0.0 
0.0 0.0 0.0 
6.015666736081e-06 2.341887795024e-04 0.0 
2.341887795024e-04 9.312312894616e-04 0.0 
0.0 0.0 0.0 
3.241621798389e-05 1.083656216345e-04 0.0 
1.083656216345e-04 1.204933840834e-03 0.0 
0.0 0.0 0.0 
-1.132823383995e-04 7.984522494513e-06 0.0 
7.984522494513e-06 2.008113475211e-03 0.0 
0.0 0.0 0.0 
2.899735994411e-05 2.460913318151e-04 0.0 
2.460913318151e-04 8.274427769852e-04 0.0 
0.0 0.0 0.0 
1.205894128375e-05 -4.477934309980e-05 0.0 
-4.477934309980e-05 1.670169001831e-04 0.0 
0.0 0.0 0.0 
-2.047176339927e-04 1.005244549691e-04 0.0 
1.005244549691e-04 1.901369692344e-03 0.0 
0.0 0.0 0.0 
-6.938063956230e-05 1.324268661947e-05 0.0 
1.324268661947e-05 2.213769218889e-03 0.0 
0.0 0.0 0.0 
1.700997151155e-05 2.116839372062e-04 0.0 
2.116839372062e-04 8.291026023719e-04 0.0 
0.0 0.0 0.0 
-8.468586217192e-05 1.144360455261e-04 0.0 
1.144360455261e-04 2.857991121361e-04 0.0 
0.0 0.0 0.0 
-2.057029375523e-04 2.373449215416e-04 0.0 
2.373449215416e-04 1.678577360967e-03 0.0 
0.0 0.0 0.0 
8.564135599021e-05 -6.368462822223e-06 0.0 
-6.368462822223e-06 4.405512263825e-04 0.0 
0.0 0.0 0.0 
-1.769996284544e-04 2.213335230928e-04 0.0 
2.213335230928e-04 1.592842268684e-03 0.0 
0.0 0.0 0.0 
-3.383867340701e-05 1.385354360754e-04 0.0 
1.385354360754e-04 2.311871356395e-03 0.0 
0.0 0.0 0.0 
-5.409160631542e-05 1.355413215166e-04 0.0 
1.355413215166e-04 2.777025182104e-04 0.0 
0.0 0.0 0.0 
1.036812175472e-04 1.234316439200e-05 0.0 
1.234316439200e-05 7.726190037878e-04 0.0 
0.0 0.0 0.0 
-3.742355317182e-05 3.252748897336e-05 0.0 
3.252748897336e-05 2.316715110789e-03 0.0 
0.0 0.0 0.0 
-4.390148691658e-05 2.939395649323e-04 0.0 
2.939395649323e-04 1.255434625050e-03 0.0 
0.0 0.0 0.0 
-1.848219702306e-04 2.529141168271e-04 0.0 
2.529141168271e-04 1.579827960930e-03 0.0 
0.0 0.0 0.0 
5.646454031583e-05 1.250938062302e-04 0.0 
1.250938062302e-04 1.181796624848e-03 0.0 
0.0 0.0 0.0 
3.451141834621e-05 1.021706385138e-05 0.0 
1.021706385138e-05 1.154486996223e-03 0.0 
0.0 0.0 0.0 
9.630026024210e-05 1.513788177517e-05 0.0 
1.513788177517e-05 8.449917222784e-04 0.0 
0.0 0.0 0.0 
-6.868351982570e-05 2.954459389600e-04 0.0 
2.954459389600e-04 1.367576686155e-03 0.0 
0.0 0.0 0.0 
5.893134362833e-05 1.917201321619e-04 0.0 
1.917201321619e-04 1.263934665766e-03 0.0 
0.0 0.0 0.0 
-8.015118658355e-05 2.884995334165e-04 0.0 
2.884995334165e-04 1.318522870917e-03 0.0 
0.0 0.0 0.0 
-3.032434284045e-05 8.843887825557e-05 0.0 
8.843887825557e-05 2.320465429237e-03 0.0 
0.0 0.0 0.0 
-1.486788537253e-05 3.865106401458e-04 0.0 
3.865106401458e-04 1.879437245419e-03 0.0 
0.0 0.0 0.0 
-1.941588292744e-04 5.629471382937e-05 0.0 
5.629471382937e-05 1.996058624247e-03 0.0 
0.0 0.0 0.0 
-1.071546525292e-04 2.409340206640e-05 0.0 
2.409340206640e-05 2.102994864998e-03 0.0 
0.0 0.0 0.0 
-8.111636044239e-05 2.868813633127e-04 0.0 
2.868813633127e-04 1.318591301661e-03 0.0 
0.0 0.0 0.0 
-1.629334791876e-04 2.444814518633e-04 0.0 
2.444814518633e-04 1.478997023329e-03 0.0 
0.0 0.0 0.0 
-3.557237785212e-05 3.004865348960e-04 0.0 
3.004865348960e-04 1.308814674474e-03 0.0 
0.0 0.0 0.0 
5.269562368349e-05 2.037690369971e-04 0.0 
2.037690369971e-04 7.947676785940e-04 0.0 
0.0 0.0 0.0 
-1.318960979528e-04 9.195884934625e-08 0.0 
9.195884934625e-08 1.917237594304e-03 0.0 
0.0 0.0 0.0 
9.312011316998e-05 1.925117430131e-04 0.0 
1.925117430131e-04 8.231987422593e-04 0.0 
0.0 0.0 0.0 
-1.119340915401e-05 -2.427053438168e-05 0.0 
-2.427053438168e-05 6.486309991494e-05 0.0 
0.0 0.0 0.0 
-1.195341829460e-04 1.697243993993e-06 0.0 
1.697243993993e-06 1.960760794666e-03 0.0 
0.0 0.0 0.0 
3.515309208879e-05 -5.703429266172e-06 0.0 
-5.703429266172e-06 1.543232966601e-04 0.0 
0.0 0.0 0.0 
-2.221138776762e-04 2.033285173022e-04 0.0 
2.033285173022e-04 1.753871246127e-03 0.0 
0.0 0.0 0.0 
3.335541106098e-05 1.754185909372e-04 0.0 
1.754185909372e-04 1.253726546637e-03 0.0 
0.0 0.0 0.0 
3.498505714528e-05 2.283979744397e-04 0.0 
2.283979744397e-04 7.315730605664e-04 0.0 
0.0 0.0 0.0 
9.065173490752e-05 1.161024685017e-05 0.0 
1.161024685017e-05 8.819973855538e-04 0.0 
0.0 0.0 0.0 
-1.048383930884e-04 2.071024399119e-04 0.0 
2.071024399119e-04 7.726842311511e-04 0.0 
0.0 0.0 0.0 
1.118478129853e-04 2.734341732486e-04 0.0 
2.734341732486e-04 1.226371756844e-03 0.0 
0.0 0.0 0.0 
-1.229235108257e-04 2.088114222506e-06 0.0 
2.088114222506e-06 1.920275872194e-03 0.0 
0.0 0.0 0.0 
1.131861896200e-04 1.985042062969e-04 0.0 
1.985042062969e-04 7.309656865211e-04 0.0 
0.0 0.0 0.0 
7.077391446919e-05 8.737112150763e-06 0.0 
8.737112150763e-06 9.924006398165e-04 0.0 
0.0 0.0 0.0 
1.632062770573e-05 -2.943888398708e-05 0.0 
-2.943888398708e-05 1.640803155492e-04 0.0 
0.0 0.0 0.0 
5.680957359200e-05 2.341184804711e-05 0.0 
2.341184804711e-05 1.069001310184e-03 0.0 
0.0 0.0 0.0 
-1.806930027254e-04 2.308209537748e-04 0.0 
2.308209537748e-04 1.736473066732e-03 0.0 
0.0 0.0 0.0 
4.001731311987e-05 5.412286203053e-05 0.0 
5.412286203053e-05 1.178328382712e-03 0.0 
0.0 0.0 0.0 
-1.193937744014e-04 1.175602810938e-06 0.0 
1.175602810938e-06 1.914813997996e-03 0.0 
0.0 0.0 0.0 
6.662468295437e-05 2.047391766451e-04 0.0 
2.047391766451e-04 6.932297481026e-04 0.0 
0.0 0.0 0.0 
-2.034456635502e-04 1.510304449273e-04 0.0 
1.510304449273e-04 1.773395791298e-03 0.0 
0.0 0.0 0.0 
1.026861464299e-04 -1.719393779873e-07 0.0 
-1.719393779873e-07 7.355745197051e-04 0.0 
0.0 0.0 0.0 
-1.152970889979e-04 2.578138080906e-04 0.0 
2.578138080906e-04 7.870621970856e-04 0.0 
0.0 0.0 0.0 
1.015952434227e-04 1.658499860440e-04 0.0 
1.658499860440e-04 7.354453992514e-04 0.0 
0.0 0.0 0.0 
-1.059593627932e-04 1.435391612101e-05 0.0 
1.435391612101e-05 2.132170023348e-03 0.0 
0.0 0.0 0.0 
-1.248254776810e-04 5.411089330634e-06 0.0 
5.411089330634e-06 1.916923273009e-03 0.0 
0.0 0.0 0.0 
8.777930339865e-05 2.113584819929e-04 0.0 
2.113584819929e-04 7.536151283036e-04 0.0 
0.0 0.0 0.0 
-1.981910440425e-04 1.820981559937e-04 0.0 
1.820981559937e-04 1.700011260396e-03 0.0 
0.0 0.0 0.0 
-2.261675540605e-05 3.374556283361e-04 0.0 
3.374556283361e-04 1.736185031657e-03 0.0 
0.0 0.0 0.0 
9.486471573528e-05 -7.349120354347e-06 0.0 
-7.349120354347e-06 4.948443504305e-04 0.0 
0.0 0.0 0.0 
2.066679043877e-05 3.551058088361e-04 0.0 
3.551058088361e-04 1.622784274349e-03 0.0 
0.0 0.0 0.0 
-1.165150476667e-05 3.886694049104e-04 0.0 
3.886694049104e-04 1.828539065046e-03 0.0 
0.0 0.0 0.0 
-6.107126269728e-05 2.408644872805e-04 0.0 
2.408644872805e-04 9.410174269731e-04 0.0 
0.0 0.0 0.0 
1.018135435742e-04 -3.658621568374e-06 0.0 
-3.658621568374e-06 4.967364045649e-04 0.0 
0.0 0.0 0.0 
9.393259034951e-05 1.982946276130e-04 0.0 
1.982946276130e-04 1.166720147811e-03 0.0 
0.0 0.0 0.0 
-1.192634758441e-04 2.814752440790e-04 0.0 
2.814752440790e-04 1.390656825471e-03 0.0 
0.0 0.0 0.0 
-5.142145250436e-05 2.359194774314e-04 0.0 
2.359194774314e-04 8.247310309173e-04 0.0 
0.0 0.0 0.0 
-2.007282157896e-04 1.842111887491e-04 0.0 
1.842111887491e-04 1.785955206188e-03 0.0 
0.0 0.0 0.0 
7.089356273515e-05 2.132769995253e-04 0.0 
2.132769995253e-04 8.551533612036e-04 0.0 
0.0 0.0 0.0 
-2.718743511221e-05 6.502744597110e-05 0.0 
6.502744597110e-05 2.323203827080e-03 0.0 
0.0 0.0 0.0 
-1.254791908869e-04 2.639398896538e-04 0.0 
2.639398896538e-04 1.950186159397e-03 0.0 
0.0 0.0 0.0 
6.395526343184e-05 1.469850866912e-05 0.0 
1.469850866912e-05 1.031084522130e-03 0.0 
0.0 0.0 0.0 
-9.591475855164e-05 1.829290408411e-04 0.0 
1.829290408411e-04 5.685627900587e-04 0.0 
0.0 0.0 0.0 
1.068351635301e-04 1.385137254175e-04 0.0 
1.385137254175e-04 6.542244161352e-04 0.0 
0.0 0.0 0.0 
-1.006493745530e-04 2.884783875501e-04 0.0 
2.884783875501e-04 1.915627627967e-03 0.0 
0.0 0.0 0.0 
-1.428675971931e-04 4.060276906826e-05 0.0 
4.060276906826e-05 9.237941644957e-05 0.0 
0.0 0.0 0.0 
-1.193682167772e-04 2.735330180647e-04 0.0 
2.735330180647e-04 1.390808352486e-03 0.0 
0.0 0.0 0.0 
1.151848688787e-04 1.493360805758e-04 0.0 
1.493360805758e-04 1.038764213588e-03 0.0 
0.0 0.0 0.0 
7.933277375916e-06 -1.939027923355e-05 0.0 
-1.939027923355e-05 1.090224180467e-04 0.0 
0.0 0.0 0.0 
-5.887520904635e-05 2.910564217239e-04 0.0 
2.910564217239e-04 2.137764297161e-03 0.0 
0.0 0.0 0.0 
-1.776439438418e-04 1.724324070448e-04 0.0 
1.724324070448e-04 2.022223520547e-03 0.0 
0.0 0.0 0.0 
1.306775601879e-04 5.529725388967e-07 0.0 
5.529725388967e-07 4.703180683172e-04 0.0 
0.0 0.0 0.0 
1.327853351831e-04 1.677356114885e-04 0.0 
1.677356114885e-04 1.037492805493e-03 0.0 
0.0 0.0 0.0 
-2.136238369147e-04 1.133036794534e-04 0.0 
1.133036794534e-04 1.951158141498e-03 0.0 
0.0 0.0 0.0 
-2.036294711475e-04 8.889880516077e-05 0.0 
8.889880516077e-05 2.017163981411e-03 0.0 
0.0 0.0 0.0 
5.498409003013e-05 1.781279428349e-04 0.0 
1.781279428349e-04 1.217765143337e-03 0.0 
0.0 0.0 0.0 
9.021620984395e-05 -2.125205364095e-05 0.0 
-2.125205364095e-05 3.444868672482e-04 0.0 
0.0 0.0 0.0 
-2.779605978498e-06 2.993017407869e-04 0.0 
2.993017407869e-04 1.256595678173e-03 0.0 
0.0 0.0 0.0 
-1.516945319753e-04 2.642401111344e-04 0.0 
2.642401111344e-04 1.681184738645e-03 0.0 
0.0 0.0 0.0 
-1.906175428580e-04 1.742518555241e-04 0.0 
1.742518555241e-04 2.067191388114e-03 0.0 
0.0 0.0 0.0 
-2.009789232408e-04 2.330367131480e-04 0.0 
2.330367131480e-04 1.813349129104e-03 0.0 
0.0 0.0 0.0 
-2.116259271292e-04 2.212919857120e-04 0.0 
2.212919857120e-04 1.786165849107e-03 0.0 
0.0 0.0 0.0 
1.240307355099e-04 2.164857666332e-04 0.0 
2.164857666332e-04 1.071205985552e-03 0.0 
0.0 0.0 0.0 
-5.403454903563e-05 3.240711338584e-04 0.0 
3.240711338584e-04 1.767608926444e-03 0.0 
0.0 0.0 0.0 
-1.140800974101e-04 3.893232989718e-05 0.0 
3.893232989718e-05 1.353727023909e-04 0.0 
0.0 0.0 0.0 
-5.394189830898e-05 2.568409171848e-04 0.0 
2.568409171848e-04 9.429464891744e-04 0.0 
0.0 0.0 0.0 
-2.116582744438e-05 2.646678777446e-04 0.0 
2.646678777446e-04 9.837098712018e-04 0.0 
0.0 0.0 0.0 
-3.386978870801e-05 2.941842826647e-04 0.0 
2.941842826647e-04 1.309663954356e-03 0.0 
0.0 0.0 0.0 
-1.403044988488e-04 2.634985039889e-04 0.0 
2.634985039889e-04 2.014014760332e-03 0.0 
0.0 0.0 0.0 
1.571196835015e-05 7.132367553178e-05 0.0 
7.132367553178e-05 2.512026194610e-04 0.0 
0.0 0.0 0.0 
1.239744299502e-04 1.270944280132e-04 0.0 
1.270944280132e-04 9.783252555278e-04 0.0 
0.0 0.0 0.0 
-1.274794980798e-04 -2.913668319291e-06 0.0 
-2.913668319291e-06 1.912745578305e-03 0.0 
0.0 0.0 0.0 
1.182207676387e-04 1.729927333287e-04 0.0 
1.729927333287e-04 6.493128515119e-04 0.0 
0.0 0.0 0.0 
1.300047656267e-04 1.061254943407e-04 0.0 
1.061254943407e-04 9.222802390603e-04 0.0 
0.0 0.0 0.0 
-7.554681175415e-06 -2.468181628942e-05 0.0 
-2.468181628942e-05 7.626870527289e-05 0.0 
0.0 0.0 0.0 
-1.583545191752e-04 1.947805256628e-04 0.0 
1.947805256628e-04 2.058103806923e-03 0.0 
0.0 0.0 0.0 
-1.835814337270e-05 -1.147889031924e-05 0.0 
-1.147889031924e-05 6.020468339996e-05 0.0 
0.0 0.0 0.0 
2.057141811496e-05 -1.753361555464e-05 0.0 
-1.753361555464e-05 1.077721891942e-04 0.0 
0.0 0.0 0.0 
-9.870371531984e-05 2.280466587695e-04 0.0 
2.280466587695e-04 5.708471807648e-04 0.0 
0.0 0.0 0.0 
7.238929411679e-05 -2.696418370587e-05 0.0 
-2.696418370587e-05 2.894317203208e-04 0.0 
0.0 0.0 0.0 
-1.691517315300e-04 1.940647259816e-04 0.0 
1.940647259816e-04 2.104393659979e-03 0.0 
0.0 0.0 0.0 
5.673627599800e-05 -4.340839401397e-05 0.0 
-4.340839401397e-05 2.732285807321e-04 0.0 
0.0 0.0 0.0 
2.369040398964e-06 1.799581433320e-04 0.0 
1.799581433320e-04 4.895625341585e-04 0.0 
0.0 0.0 0.0 
3.299691082903e-05 -4.471490291915e-05 0.0 
-4.471490291915e-05 2.245604967146e-04 0.0 
0.0 0.0 0.0 
2.696955379400e-05 -2.827393791038e-05 0.0 
-2.827393791038e-05 1.845629451973e-04 0.0 
0.0 0.0 0.0 
1.216600861711e-04 1.881998946438e-04 0.0 
1.881998946438e-04 1.097710639158e-03 0.0 
0.0 0.0 0.0 
-1.830933513850e-04 2.575171062958e-04 0.0 
2.575171062958e-04 1.735437287143e-03 0.0 
0.0 0.0 0.0 
4.006183456640e-05 4.584669578023e-05 0.0 
4.584669578023e-05 1.153972468451e-03 0.0 
0.0 0.0 0.0 
-1.134816468710e-04 2.431996605067e-05 0.0 
2.431996605067e-05 6.506948091300e-05 0.0 
0.0 0.0 0.0 
4.074499112150e-05 1.804049118579e-04 0.0 
1.804049118579e-04 5.450722237295e-04 0.0 
0.0 0.0 0.0 
1.328664387734e-04 1.819078642770e-04 0.0 
1.819078642770e-04 7.170437387505e-04 0.0 
0.0 0.0 0.0 
-9.033721542973e-05 2.739771826409e-04 0.0 
2.739771826409e-04 1.269314012248e-03 0.0 
0.0 0.0 0.0 
1.406750884962e-04 1.443756393742e-04 0.0 
1.443756393742e-04 9.771200783739e-04 0.0 
0.0 0.0 0.0 
3.794690337666e-05 6.697075236851e-05 0.0 
6.697075236851e-05 1.186904651701e-03 0.0 
0.0 0.0 0.0 
-1.623310911414e-04 2.488877495546e-04 0.0 
2.488877495546e-04 1.978704758259e-03 0.0 
0.0 0.0 0.0 
8.627707389119e-05 9.906717956702e-05 0.0 
9.906717956702e-05 5.147491582105e-04 0.0 
0.0 0.0 0.0 
1.047975389912e-04 1.733571676766e-04 0.0 
1.733571676766e-04 1.097812961278e-03 0.0 
0.0 0.0 0.0 
9.877991631591e-05 1.138776147794e-05 0.0 
1.138776147794e-05 8.073393972265e-04 0.0 
0.0 0.0 0.0 
-5.987157699827e-05 3.012050985841e-04 0.0 
3.012050985841e-04 1.417547438621e-03 0.0 
0.0 0.0 0.0 
-1.651482792002e-04 2.049152446089e-04 0.0 
2.049152446089e-04 2.005396059098e-03 0.0 
0.0 0.0 0.0 
2.794125971017e-05 3.296489558175e-04 0.0 
3.296489558175e-04 1.530289330111e-03 0.0 
0.0 0.0 0.0 
1.201838517146e-04 1.508079524961e-04 0.0 
1.508079524961e-04 7.216829501107e-04 0.0 
0.0 0.0 0.0 
-1.574269134830e-06 1.626357871624e-04 0.0 
1.626357871624e-04 5.843381315240e-04 0.0 
0.0 0.0 0.0 
-1.874615071410e-04 2.435576776699e-04 0.0 
2.435576776699e-04 1.844268263669e-03 0.0 
0.0 0.0 0.0 
-3.148309246881e-05 1.625929006145e-04 0.0 
1.625929006145e-04 2.328224293273e-03 0.0 
0.0 0.0 0.0 
-2.060204676191e-06 2.880060280021e-04 0.0 
2.880060280021e-04 1.258016314378e-03 0.0 
0.0 0.0 0.0 
1.439678801045e-04 1.637948927424e-04 0.0 
1.637948927424e-04 8.497347880563e-04 0.0 
0.0 0.0 0.0 
-1.231725925339e-04 4.051332158428e-06 0.0 
4.051332158428e-06 1.974059642080e-03 0.0 
0.0 0.0 0.0 
-7.075310905158e-06 -4.572518468546e-05 0.0 
-4.572518468546e-05 1.672267879489e-04 0.0 
0.0 0.0 0.0 
-1.923301412252e-04 2.036152871934e-04 0.0 
2.036152871934e-04 1.817938975534e-03 0.0 
0.0 0.0 0.0 
9.790092829642e-05 1.374049549118e-04 0.0 
1.374049549118e-04 5.089000833467e-04 0.0 
0.0 0.0 0.0 
5.104895011865e-05 7.625508585186e-05 0.0 
7.625508585186e-05 3.159275233153e-04 0.0 
0.0 0.0 0.0 
1.386577561768e-05 -3.851756953941e-05 0.0 
-3.851756953941e-05 1.866130174921e-04 0.0 
0.0 0.0 0.0 
-1.478738627494e-04 1.855782070665e-04 0.0 
1.855782070665e-04 2.105398424051e-03 0.0 
0.0 0.0 0.0 
-1.711207435083e-04 2.642335843872e-04 0.0 
2.642335843872e-04 1.766443891953e-03 0.0 
0.0 0.0 0.0 
6.104802726203e-05 2.293358344705e-04 0.0 
2.293358344705e-04 7.906029576170e-04 0.0 
0.0 0.0 0.0 
-1.564269016976e-04 1.836022521492e-04 0.0 
1.836022521492e-04 2.148235993590e-03 0.0 
0.0 0.0 0.0 
-1.384618118161e-04 2.739195392910e-04 0.0 
2.739195392910e-04 1.948289511727e-03 0.0 
0.0 0.0 0.0 
-8.699785249522e-05 3.023133114459e-04 0.0 
3.023133114459e-04 1.522005074761e-03 0.0 
0.0 0.0 0.0 
2.708072982238e-05 8.531809047795e-05 0.0 
8.531809047795e-05 1.194272986906e-03 0.0 
0.0 0.0 0.0 
1.637816255244e-04 1.764369387136e-04 0.0 
1.764369387136e-04 8.430785027482e-04 0.0 
0.0 0.0 0.0 
-1.139240871855e-04 2.966895529000e-04 0.0 
2.966895529000e-04 1.622628529441e-03 0.0 
0.0 0.0 0.0 
8.275046168826e-05 2.206202957064e-04 0.0 
2.206202957064e-04 9.190074180869e-04 0.0 
0.0 0.0 0.0 
1.421859437905e-04 1.778896834787e-04 0.0 
1.778896834787e-04 9.209134735848e-04 0.0 
0.0 0.0 0.0 
8.456528910683e-05 8.262977578832e-05 0.0 
8.262977578832e-05 3.751121816531e-04 0.0 
0.0 0.0 0.0 
-1.994156941832e-04 5.681747869545e-05 0.0 
5.681747869545e-05 1.934672868537e-03 0.0 
0.0 0.0 0.0 
1.348354161763e-04 1.362611853302e-04 0.0 
1.362611853302e-04 7.117377959416e-04 0.0 
0.0 0.0 0.0 
1.082512830983e-04 8.627751987630e-06 0.0 
8.627751987630e-06 4.032827528282e-04 0.0 
0.0 0.0 0.0 
-1.474271849959e-04 2.364952106273e-04 0.0 
2.364952106273e-04 1.980918940556e-03 0.0 
0.0 0.0 0.0 
-1.823117805723e-04 9.403084224176e-06 0.0 
9.403084224176e-06 1.006402975230e-04 0.0 
0.0 0.0 0.0 
-2.116412643600e-04 2.084135876377e-04 0.0 
2.084135876377e-04 1.879590262607e-03 0.0 
0.0 0.0 0.0 
1.181508637955e-04 1.183418364534e-04 0.0 
1.183418364534e-04 5.021948879531e-04 0.0 
0.0 0.0 0.0 
3.428102786152e-05 1.401891628391e-04 0.0 
1.401891628391e-04 5.506910349220e-04 0.0 
0.0 0.0 0.0 
6.998109124412e-05 4.384333290884e-05 0.0 
4.384333290884e-05 3.817991067612e-04 0.0 
0.0 0.0 0.0 
-1.561944693874e-04 2.536036801080e-04 0.0 
2.536036801080e-04 1.804095606824e-03 0.0 
0.0 0.0 0.0 
-1.613282336488e-05 -3.730583838377e-05 0.0 
-3.730583838377e-05 1.174367438255e-04 0.0 
0.0 0.0 0.0 
-3.520986223149e-05 2.766893459357e-04 0.0 
2.766893459357e-04 1.092230371184e-03 0.0 
0.0 0.0 0.0 
1.603099978487e-04 1.898187736950e-04 0.0 
1.898187736950e-04 9.156209674503e-04 0.0 
0.0 0.0 0.0 
-1.693922413782e-04 2.423346247860e-04 0.0 
2.423346247860e-04 1.770222833885e-03 0.0 
0.0 0.0 0.0 
-2.005990664755e-04 8.363195529648e-05 0.0 
8.363195529648e-05 1.968472409360e-03 0.0 
0.0 0.0 0.0 
-1.037421513506e-05 5.264609093799e-05 0.0 
5.264609093799e-05 2.026025100423e-04 0.0 
0.0 0.0 0.0 
1.251856737088e-04 3.899033117388e-05 0.0 
3.899033117388e-05 3.985037178538e-04 0.0 
0.0 0.0 0.0 
9.399512418118e-05 -1.044050489369e-05 0.0 
-1.044050489369e-05 3.574361861489e-04 0.0 
0.0 0.0 0.0 
-7.253261672813e-05 2.535884636438e-04 0.0 
2.535884636438e-04 1.050582714546e-03 0.0 
0.0 0.0 0.0 
-1.830333250357e-04 2.190044143749e-04 0.0 
2.190044143749e-04 2.002912750789e-03 0.0 
0.0 0.0 0.0 
-4.256298805971e-05 2.648600183809e-04 0.0 
2.648600183809e-04 1.094041994232e-03 0.0 
0.0 0.0 0.0 
1.504192630968e-04 1.389860927026e-04 0.0 
1.389860927026e-04 6.338147734413e-04 0.0 
0.0 0.0 0.0 
1.366387097279e-04 1.553257837393e-04 0.0 
1.553257837393e-04 6.392195000373e-04 0.0 
0.0 0.0 0.0 
-2.988657430536e-06 2.926888884470e-05 0.0 
2.926888884470e-05 2.662429246028e-04 0.0 
0.0 0.0 0.0 
1.116452758236e-04 2.302431663640e-04 0.0 
2.302431663640e-04 8.880641427658e-04 0.0 
0.0 0.0 0.0 
-4.222388730335e-05 1.367176104482e-04 0.0 
1.367176104482e-04 4.365206858616e-04 0.0 
0.0 0.0 0.0 
-4.326348442030e-05 2.885220870631e-04 0.0 
2.885220870631e-04 2.222318956231e-03 0.0 
0.0 0.0 0.0 
-4.114934835586e-05 3.358814102502e-04 0.0 
3.358814102502e-04 2.150187235458e-03 0.0 
0.0 0.0 0.0 
2.708461690326e-05 2.941546522137e-04 0.0 
2.941546522137e-04 1.212349480715e-03 0.0 
0.0 0.0 0.0 
9.353962898473e-05 1.098672429231e-04 0.0 
1.098672429231e-04 4.389112383330e-04 0.0 
0.0 0.0 0.0 
3.256175606570e-05 1.119019811196e-04 0.0 
1.119019811196e-04 4.691030496735e-04 0.0 
0.0 0.0 0.0 
-8.465518156109e-05 3.010275313576e-04 0.0 
3.010275313576e-04 1.570464285518e-03 0.0 
0.0 0.0 0.0 
5.897103161234e-05 9.014208306784e-05 0.0 
9.014208306784e-05 4.537330096219e-04 0.0 
0.0 0.0 0.0 
1.105988390704e-04 1.837989956049e-05 0.0 
1.837989956049e-05 3.528622479345e-04 0.0 
0.0 0.0 0.0 
-6.369434675269e-05 3.016961490946e-04 0.0 
3.016961490946e-04 1.417490339871e-03 0.0 
0.0 0.0 0.0 
-5.681774239474e-05 9.761810798489e-05 0.0 
9.761810798489e-05 2.318972247837e-03 0.0 
0.0 0.0 0.0 
1.203057745485e-04 1.457746067076e-04 0.0 
1.457746067076e-04 5.729990096530e-04 0.0 
0.0 0.0 0.0 
1.357153139647e-04 2.363413012474e-04 0.0 
2.363413012474e-04 1.068777155958e-03 0.0 
0.0 0.0 0.0 
1.618881650955e-08 1.559955776393e-04 0.0 
1.559955776393e-04 4.058265089995e-04 0.0 
0.0 0.0 0.0 
3.426226886027e-05 2.354605244010e-04 0.0 
2.354605244010e-04 1.367864640105e-03 0.0 
0.0 0.0 0.0 
6.981701469222e-05 1.314453995859e-04 0.0 
1.314453995859e-04 4.469915086251e-04 0.0 
0.0 0.0 0.0 
-2.968548049143e-05 3.051738847014e-04 0.0 
3.051738847014e-04 1.362918019773e-03 0.0 
0.0 0.0 0.0 
3.514037028274e-05 5.314506514741e-05 0.0 
5.314506514741e-05 2.583993702814e-04 0.0 
0.0 0.0 0.0 
1.664288074164e-04 1.385670307734e-04 0.0 
1.385670307734e-04 8.659460277471e-04 0.0 
0.0 0.0 0.0 
1.476747129086e-04 1.649713040169e-04 0.0 
1.649713040169e-04 7.070814320211e-04 0.0 
0.0 0.0 0.0 
1.182831056994e-04 1.150192238758e-05 0.0 
1.150192238758e-05 3.695519622646e-04 0.0 
0.0 0.0 0.0 
-1.488820458329e-04 2.822522044672e-04 0.0 
2.822522044672e-04 1.678863292449e-03 0.0 
0.0 0.0 0.0 
-2.105496512483e-05 3.933085173814e-04 0.0 
3.933085173814e-04 2.011261400346e-03 0.0 
0.0 0.0 0.0 
1.369834753810e-04 1.281317958700e-04 0.0 
1.281317958700e-04 5.672063917872e-04 0.0 
0.0 0.0 0.0 
1.472647143486e-04 1.684279972776e-04 0.0 
1.684279972776e-04 9.186967094532e-04 0.0 
0.0 0.0 0.0 
-3.634817151044e-06 1.093217924276e-04 0.0 
1.093217924276e-04 4.122187549775e-04 0.0 
0.0 0.0 0.0 
-1.583915373504e-04 7.449694094796e-05 0.0 
7.449694094796e-05 2.083062103765e-03 0.0 
0.0 0.0 0.0 
1.460424757762e-04 1.221455787328e-04 0.0 
1.221455787328e-04 9.201929341318e-04 0.0 
0.0 0.0 0.0 
-5.982404248095e-06 1.863060560870e-04 0.0 
1.863060560870e-04 6.792254064760e-04 0.0 
0.0 0.0 0.0 
-1.740744303970e-04 5.564833247653e-05 0.0 
5.564833247653e-05 2.062084994757e-03 0.0 
0.0 0.0 0.0 
-5.225483589166e-07 4.157151216521e-04 0.0 
4.157151216521e-04 1.849552753223e-03 0.0 
0.0 0.0 0.0 
1.281563253097e-04 1.371575815008e-04 0.0 
1.371575815008e-04 9.988953342601e-04 0.0 
0.0 0.0 0.0 
-2.965687593315e-05 3.780481756809e-04 0.0 
3.780481756809e-04 2.060841655021e-03 0.0 
0.0 0.0 0.0 
-1.921087122745e-04 8.086212918190e-05 0.0 
8.086212918190e-05 2.049872438495e-03 0.0 
0.0 0.0 0.0 
-1.023966288807e-04 3.028995973400e-04 0.0 
3.028995973400e-04 1.836477566652e-03 0.0 
0.0 0.0 0.0 
-4.627639110322e-05 1.816259569942e-04 0.0 
1.816259569942e-04 6.238247638244e-04 0.0 
0.0 0.0 0.0 
-1.586363874547e-04 2.767710667999e-04 0.0 
2.767710667999e-04 1.640640219994e-03 0.0 
0.0 0.0 0.0 
-1.182054042764e-04 2.869737866588e-04 0.0 
2.869737866588e-04 1.624036177708e-03 0.0 
0.0 0.0 0.0 
-1.384641464822e-04 2.853190464352e-04 0.0 
2.853190464352e-04 1.716430809819e-03 0.0 
0.0 0.0 0.0 
2.104307697670e-05 2.739385336533e-04 0.0 
2.739385336533e-04 1.154041623828e-03 0.0 
0.0 0.0 0.0 
9.864129654868e-06 4.078625251936e-04 0.0 
4.078625251936e-04 1.744876191558e-03 0.0 
0.0 0.0 0.0 
-1.958695015922e-04 1.185080668590e-04 0.0 
1.185080668590e-04 1.990002007348e-03 0.0 
0.0 0.0 0.0 
-2.228104368812e-04 1.921420811664e-04 0.0 
1.921420811664e-04 1.849724250489e-03 0.0 
0.0 0.0 0.0 
1.237053140981e-04 1.229768630996e-04 0.0 
1.229768630996e-04 6.441941134163e-04 0.0 
0.0 0.0 0.0 
5.084147906587e-05 -2.878219417429e-05 0.0 
-2.878219417429e-05 2.370830678688e-04 0.0 
0.0 0.0 0.0 
-1.938152432551e-04 2.490227229121e-04 0.0 
2.490227229121e-04 1.702085573448e-03 0.0 
0.0 0.0 0.0 
3.952221981263e-05 2.028376720799e-04 0.0 
2.028376720799e-04 6.340909419291e-04 0.0 
0.0 0.0 0.0 
-1.231089804419e-04 5.487342832855e-07 0.0 
5.487342832855e-07 1.918539144669e-03 0.0 
0.0 0.0 0.0 
1.017708481299e-04 -1.483971042559e-05 0.0 
-1.483971042559e-05 3.735528623643e-04 0.0 
0.0 0.0 0.0 
1.076746075865e-04 1.101939287095e-04 0.0 
1.101939287095e-04 5.781403806016e-04 0.0 
0.0 0.0 0.0 
-1.429328473150e-04 2.256190341978e-04 0.0 
2.256190341978e-04 2.039780100736e-03 0.0 
0.0 0.0 0.0 
3.196041706444e-05 1.674125552435e-04 0.0 
1.674125552435e-04 6.387360744726e-04 0.0 
0.0 0.0 0.0 
-1.256421953282e-04 2.819294165011e-04 0.0 
2.819294165011e-04 1.582027489450e-03 0.0 
0.0 0.0 0.0 
1.630604101677e-04 1.792609595495e-04 0.0 
1.792609595495e-04 9.163409834789e-04 0.0 
0.0 0.0 0.0 
1.589801762092e-04 5.379125636638e-05 0.0 
5.379125636638e-05 6.776883408299e-04 0.0 
0.0 0.0 0.0 
2.544280454542e-05 3.728061192642e-04 0.0 
3.728061192642e-04 1.601130328635e-03 0.0 
0.0 0.0 0.0 
-1.444849212942e-04 2.788897991867e-04 0.0 
2.788897991867e-04 1.501426790506e-03 0.0 
0.0 0.0 0.0 
1.150899916735e-04 5.052684077590e-05 0.0 
5.052684077590e-05 3.863903107792e-04 0.0 
0.0 0.0 0.0 
1.160571168970e-04 -1.653210498048e-05 0.0 
-1.653210498048e-05 4.514620129230e-04 0.0 
0.0 0.0 0.0 
-5.801510870251e-05 2.190577617209e-04 0.0 
2.190577617209e-04 8.271859005000e-04 0.0 
0.0 0.0 0.0 
-1.092186237006e-06 2.206854955529e-04 0.0 
2.206854955529e-04 6.754280251848e-04 0.0 
0.0 0.0 0.0 
-1.159998779154e-04 2.874157974039e-04 0.0 
2.874157974039e-04 1.984230240798e-03 0.0 
0.0 0.0 0.0 
-5.363547778081e-05 3.042245926924e-04 0.0 
3.042245926924e-04 1.467941890311e-03 0.0 
0.0 0.0 0.0 
-1.002135512167e-04 2.726446442159e-04 0.0 
2.726446442159e-04 1.269441717046e-03 0.0 
0.0 0.0 0.0 
-1.322993034375e-04 2.743164966645e-04 0.0 
2.743164966645e-04 1.540497873513e-03 0.0 
0.0 0.0 0.0 
3.426794819927e-05 2.991898149577e-04 0.0 
2.991898149577e-04 1.446810967496e-03 0.0 
0.0 0.0 0.0 
5.497497067197e-05 2.797425077279e-04 0.0 
2.797425077279e-04 1.378728417016e-03 0.0 
0.0 0.0 0.0 
-1.014211459240e-04 2.798983114857e-04 0.0 
2.798983114857e-04 1.985693420304e-03 0.0 
0.0 0.0 0.0 
-1.787570120734e-04 2.059822320220e-04 0.0 
2.059822320220e-04 2.056309090763e-03 0.0 
0.0 0.0 0.0 
1.473441227551e-04 3.858310138514e-05 0.0 
3.858310138514e-05 6.581720409129e-04 0.0 
0.0 0.0 0.0 
-6.711713238738e-06 2.573809724682e-04 0.0 
2.573809724682e-04 1.038983069364e-03 0.0 
0.0 0.0 0.0 
8.006234199320e-05 7.081800496702e-05 0.0 
7.081800496702e-05 4.451777082903e-04 0.0 
0.0 0.0 0.0 
1.043124348508e-04 8.221532541982e-05 0.0 
8.221532541982e-05 5.078037016830e-04 0.0 
0.0 0.0 0.0 
-2.688205829304e-05 2.992217964923e-04 0.0 
2.992217964923e-04 1.363780442280e-03 0.0 
0.0 0.0 0.0 
1.543829486192e-04 1.271242669902e-04 0.0 
1.271242669902e-04 8.582097647996e-04 0.0 
0.0 0.0 0.0 
1.153168243759e-04 -7.385073483523e-06 0.0 
-7.385073483523e-06 5.460902857213e-04 0.0 
0.0 0.0 0.0 
-1.172129512885e-04 2.458272007044e-04 0.0 
2.458272007044e-04 2.073922944670e-03 0.0 
0.0 0.0 0.0 
9.871561465524e-05 1.707469224633e-05 0.0 
1.707469224633e-05 3.916919389366e-04 0.0 
0.0 0.0 0.0 
4.136627153151e-05 2.553892039043e-04 0.0 
2.553892039043e-04 1.051859583345e-03 0.0 
0.0 0.0 0.0 
-9.141891011233e-05 2.967464933090e-04 0.0 
2.967464933090e-04 1.523115846673e-03 0.0 
0.0 0.0 0.0 
2.805954533791e-05 2.460122283411e-04 0.0 
2.460122283411e-04 9.916375379291e-04 0.0 
0.0 0.0 0.0 
-3.681474209460e-05 3.600243410590e-04 0.0 
3.600243410590e-04 2.106771004350e-03 0.0 
0.0 0.0 0.0 
-3.953326636064e-05 3.138491702111e-04 0.0 
3.138491702111e-04 2.185958686001e-03 0.0 
0.0 0.0 0.0 
-7.911523989379e-05 2.925039380864e-04 0.0 
2.925039380864e-04 2.137660898605e-03 0.0 
0.0 0.0 0.0 
1.467531129282e-04 5.422387237354e-05 0.0 
5.422387237354e-05 7.259535851019e-04 0.0 
0.0 0.0 0.0 
-1.337221290051e-04 1.778903669793e-04 0.0 
1.778903669793e-04 2.148873482579e-03 0.0 
0.0 0.0 0.0 
1.199112161787e-06 2.013205362836e-04 0.0 
2.013205362836e-04 5.798380626112e-04 0.0 
0.0 0.0 0.0 
1.229292773053e-04 9.499265471103e-05 0.0 
9.499265471103e-05 5.723764530408e-04 0.0 
0.0 0.0 0.0 
3.782663313090e-05 3.552892966077e-05 0.0 
3.552892966077e-05 3.229540255658e-04 0.0 
0.0 0.0 0.0 
-5.955110359024e-05 2.765758449279e-04 0.0 
2.765758449279e-04 1.203414203207e-03 0.0 
0.0 0.0 0.0 
-1.887404017218e-04 3.921743262611e-05 0.0 
3.921743262611e-05 1.938688806881e-03 0.0 
0.0 0.0 0.0 
-1.692584381822e-04 7.491987208451e-05 0.0 
7.491987208451e-05 2.050382434973e-03 0.0 
0.0 0.0 0.0 
6.114199662344e-05 2.281481196038e-04 0.0 
2.281481196038e-04 1.300753499152e-03 0.0 
0.0 0.0 0.0 
-7.358864110074e-05 3.079913349673e-04 0.0 
3.079913349673e-04 1.878884617362e-03 0.0 
0.0 0.0 0.0 
-1.808644794437e-04 2.205571218162e-04 0.0 
2.205571218162e-04 1.847739621275e-03 0.0 
0.0 0.0 0.0 
-1.083123391618e-04 2.914887060250e-04 0.0 
2.914887060250e-04 1.667688162804e-03 0.0 
0.0 0.0 0.0 
7.119063359262e-05 5.784526728834e-05 0.0 
5.784526728834e-05 3.177487241677e-04 0.0 
0.0 0.0 0.0 
-3.417312817766e-05 -3.278626121997e-05 0.0 
-3.278626121997e-05 1.268498411204e-04 0.0 
0.0 0.0 0.0 
1.245141132429e-04 2.065376104338e-04 0.0 
2.065376104338e-04 8.000023637575e-04 0.0 
0.0 0.0 0.0 
4.877393692526e-05 2.633524833174e-04 0.0 
2.633524833174e-04 1.113487206289e-03 0.0 
0.0 0.0 0.0 
1.035260804358e-04 2.043162193810e-04 0.0 
2.043162193810e-04 8.918084102167e-04 0.0 
0.0 0.0 0.0 
-9.880065693146e-05 1.762249378799e-04 0.0 
1.762249378799e-04 2.870446461367e-04 0.0 
0.0 0.0 0.0 
-1.179877486404e-04 6.188188290038e-06 0.0 
6.188188290038e-06 1.971401803633e-03 0.0 
0.0 0.0 0.0 
3.532893256675e-05 -4.554345257729e-05 0.0 
-4.554345257729e-05 2.200044407696e-04 0.0 
0.0 0.0 0.0 
7.243273466684e-05 1.583644394837e-04 0.0 
1.583644394837e-04 5.225689290245e-04 0.0 
0.0 0.0 0.0 
0.0 2.351219870469e-04 0.0 
2.351219870469e-04 1.380167174665e-03 0.0 
0.0 0.0 0.0 
1.280337224354e-04 2.091101465338e-04 0.0 
2.091101465338e-04 1.068372915709e-03 0.0 
0.0 0.0 0.0 
-2.052325680972e-04 1.572558599317e-04 0.0 
1.572558599317e-04 1.853922709349e-03 0.0 
0.0 0.0 0.0 
2.629348021155e-05 -9.049128856124e-07 0.0 
-9.049128856124e-07 1.517789888892e-04 0.0 
0.0 0.0 0.0 
2.236355531493e-05 2.894661118995e-04 0.0 
2.894661118995e-04 1.151904855892e-03 0.0 
0.0 0.0 0.0 
1.135865087374e-04 1.776547284450e-04 0.0 
1.776547284450e-04 8.041208936573e-04 0.0 
0.0 0.0 0.0 
-1.585368773217e-04 2.699473787216e-04 0.0 
2.699473787216e-04 1.802029550431e-03 0.0 
0.0 0.0 0.0 
-1.163660809123e-05 4.059843178778e-04 0.0 
4.059843178778e-04 1.956899837956e-03 0.0 
0.0 0.0 0.0 
-1.584148055030e-04 2.564573445242e-04 0.0 
2.564573445242e-04 1.642931379094e-03 0.0 
0.0 0.0 0.0 
-8.052515662871e-05 3.044119606973e-04 0.0 
3.044119606973e-04 1.570012362672e-03 0.0 
0.0 0.0 0.0 
1.264500115561e-04 5.397092170876e-06 0.0 
5.397092170876e-06 5.441150714178e-04 0.0 
0.0 0.0 0.0 
-1.345819376727e-04 2.167760950857e-04 0.0 
2.167760950857e-04 2.093106274221e-03 0.0 
0.0 0.0 0.0 
1.564516736721e-04 6.836179881897e-05 0.0 
6.836179881897e-05 7.465431366744e-04 0.0 
0.0 0.0 0.0 
-8.860614324480e-06 4.132041033453e-04 0.0 
4.132041033453e-04 1.904183999841e-03 0.0 
0.0 0.0 0.0 
0.0 3.495799852365e-04 0.0 
3.495799852365e-04 2.083241062826e-03 0.0 
0.0 0.0 0.0 
0.0 2.603883137336e-04 0.0 
2.603883137336e-04 2.240573935417e-03 0.0 
0.0 0.0 0.0 
0.0 3.062382402466e-04 0.0 
3.062382402466e-04 2.170297358972e-03 0.0 
0.0 0.0 0.0 
-1.275501131279e-04 2.784740056940e-04 0.0 
2.784740056940e-04 1.758212727843e-03 0.0 
0.0 0.0 0.0 
-1.544272662591e-04 2.240928148854e-04 0.0 
2.240928148854e-04 2.092236592534e-03 0.0 
0.0 0.0 0.0 
-7.565393152653e-05 3.056168493267e-04 0.0 
3.056168493267e-04 1.952897159438e-03 0.0 
0.0 0.0 0.0 
3.406425831520e-05 2.690581719813e-04 0.0 
2.690581719813e-04 9.888059907928e-04 0.0 
0.0 0.0 0.0 
1.145545355241e-06 2.752064383231e-04 0.0 
2.752064383231e-04 1.036705564086e-03 0.0 
0.0 0.0 0.0 
1.079919654476e-04 -1.308599921796e-05 0.0 
-1.308599921796e-05 5.110595875060e-04 0.0 
0.0 0.0 0.0 
-1.360398918107e-04 2.532289813766e-04 0.0 
2.532289813766e-04 2.072930702532e-03 0.0 
0.0 0.0 0.0 
5.355708114330e-06 4.135458228757e-04 0.0 
4.135458228757e-04 1.795676078320e-03 0.0 
0.0 0.0 0.0 
-1.218287661985e-04 2.072586445098e-04 0.0 
2.072586445098e-04 2.140713782948e-03 0.0 
0.0 0.0 0.0 
1.368239110096e-04 1.929654368773e-04 0.0 
1.929654368773e-04 9.939925956701e-04 0.0 
0.0 0.0 0.0 
-1.429468132115e-04 2.135324048992e-04 0.0 
2.135324048992e-04 2.139955896321e-03 0.0 
0.0 0.0 0.0 
4.863608053074e-05 2.937600984621e-04 0.0 
2.937600984621e-04 1.367431790676e-03 0.0 
0.0 0.0 0.0 
7.157748825626e-05 2.641733805717e-04 0.0 
2.641733805717e-04 1.012042566668e-03 0.0 
0.0 0.0 0.0 
-5.391471399985e-05 2.847992873634e-04 0.0 
2.847992873634e-04 1.202537557853e-03 0.0 
0.0 0.0 0.0 
3.519069338731e-05 1.287252964896e-04 0.0 
1.287252964896e-04 3.871015295447e-04 0.0 
0.0 0.0 0.0 
-3.826408859464e-05 1.694276982077e-04 0.0 
1.694276982077e-04 2.284501747165e-03 0.0 
0.0 0.0 0.0 
4.996543324731e-05 2.515782139074e-04 0.0 
2.515782139074e-04 8.887184484865e-04 0.0 
0.0 0.0 0.0 
1.467768251850e-05 3.456388788500e-04 0.0 
3.456388788500e-04 1.655924964522e-03 0.0 
0.0 0.0 0.0 
1.178346136497e-04 -1.009938237710e-06 0.0 
-1.009938237710e-06 5.091938023103e-04 0.0 
0.0 0.0 0.0 
8.648191637062e-05 -2.862507534832e-05 0.0 
-2.862507534832e-05 3.340396021161e-04 0.0 
0.0 0.0 0.0 
3.554921065718e-05 2.107308895564e-04 0.0 
2.107308895564e-04 1.288910573153e-03 0.0 
0.0 0.0 0.0 
7.121549218159e-05 1.834016828858e-04 0.0 
1.834016828858e-04 6.042261000156e-04 0.0 
0.0 0.0 0.0 
0.0 3.668707219643e-04 0.0 
3.668707219643e-04 2.035949371856e-03 0.0 
0.0 0.0 0.0 
-4.825504528438e-05 2.692229985783e-04 0.0 
2.692229985783e-04 2.175113472269e-03 0.0 
0.0 0.0 0.0 
-2.554832891699e-05 3.083611130217e-04 0.0 
3.083611130217e-04 1.418599557699e-03 0.0 
0.0 0.0 0.0 
-3.365019607837e-05 -2.536137186788e-05 0.0 
-2.536137186788e-05 7.482448056062e-05 0.0 
0.0 0.0 0.0 
0.0 3.874254989370e-04 0.0 
3.874254989370e-04 1.931083057694e-03 0.0 
0.0 0.0 0.0 
3.333126068616e-05 2.461705137932e-04 0.0 
2.461705137932e-04 1.341432026573e-03 0.0 
0.0 0.0 0.0 
1.015901209749e-04 -4.382633313553e-06 0.0 
-4.382633313553e-06 3.303007586302e-04 0.0 
0.0 0.0 0.0 
1.401446259020e-04 1.845014892629e-04 0.0 
1.845014892629e-04 9.921599179807e-04 0.0 
0.0 0.0 0.0 
2.609102738660e-05 3.554591899393e-04 0.0 
3.554591899393e-04 1.557781835919e-03 0.0 
0.0 0.0 0.0 
-5.692764268694e-05 -1.021770243263e-05 0.0 
-1.021770243263e-05 4.308769823025e-05 0.0 
0.0 0.0 0.0 
6.326243667476e-05 2.576149418065e-04 0.0 
2.576149418065e-04 9.496508633247e-04 0.0 
0.0 0.0 0.0 
-5.227959694842e-05 3.086217873932e-04 0.0 
3.086217873932e-04 1.520397599667e-03 0.0 
0.0 0.0 0.0 
1.356115459705e-06 3.036968204996e-04 0.0 
3.036968204996e-04 1.315244452746e-03 0.0 
0.0 0.0 0.0 
-5.736187629080e-05 3.059681361039e-04 0.0 
3.059681361039e-04 1.467715827631e-03 0.0 
0.0 0.0 0.0 
4.009940987038e-05 1.551560459291e-04 0.0 
1.551560459291e-04 4.625497258144e-04 0.0 
0.0 0.0 0.0 
0.0 3.929123124918e-04 0.0 
3.929123124918e-04 1.822248696280e-03 0.0 
0.0 0.0 0.0 
1.364933616250e-04 1.086301254938e-04 0.0 
1.086301254938e-04 6.386741420448e-04 0.0 
0.0 0.0 0.0 
-1.954683089733e-05 2.854668542087e-06 0.0 
2.854668542087e-06 2.109963877210e-04 0.0 
0.0 0.0 0.0 
4.397770549303e-05 9.284845960883e-05 0.0 
9.284845960883e-05 1.197188636692e-03 0.0 
0.0 0.0 0.0 
-5.716873870598e-05 -2.372587141743e-05 0.0 
-2.372587141743e-05 8.117591414325e-05 0.0 
0.0 0.0 0.0 
-1.047622040107e-04 2.845216862302e-04 0.0 
2.845216862302e-04 1.432386522544e-03 0.0 
0.0 0.0 0.0 
1.571712114234e-05 -2.955367648415e-05 0.0 
-2.955367648415e-05 1.657652403582e-04 0.0 
0.0 0.0 0.0 
-1.867214055009e-04 2.133456909126e-04 0.0 
2.133456909126e-04 1.706571137216e-03 0.0 
0.0 0.0 0.0 
3.402456302726e-05 2.755580217635e-04 0.0 
2.755580217635e-04 1.416210267914e-03 0.0 
0.0 0.0 0.0 
0.0 3.836839333373e-04 0.0 
3.836839333373e-04 1.717821889134e-03 0.0 
0.0 0.0 0.0 
-1.398992909755e-04 2.716483038257e-04 0.0 
2.716483038257e-04 1.718335658166e-03 0.0 
0.0 0.0 0.0 
-1.703036522027e-05 -3.478073176300e-05 0.0 
-3.478073176300e-05 1.246369175802e-04 0.0 
0.0 0.0 0.0 
-3.020828491784e-05 2.603083124347e-05 0.0 
2.603083124347e-05 1.606460128931e-04 0.0 
0.0 0.0 0.0 
-1.683678653297e-05 -3.146610907884e-05 0.0 
-3.146610907884e-05 1.800625865862e-04 0.0 
0.0 0.0 0.0 
8.928416130827e-05 8.759489243701e-05 0.0 
8.759489243701e-05 1.021734480658e-03 0.0 
0.0 0.0 0.0 
-1.838583243700e-04 5.064021251967e-05 0.0 
5.064021251967e-05 1.923180380709e-03 0.0 
0.0 0.0 0.0 
-2.260473731212e-04 1.657094451772e-04 0.0 
1.657094451772e-04 1.902856633949e-03 0.0 
0.0 0.0 0.0 
0.0 3.629046337488e-04 0.0 
3.629046337488e-04 1.623797571504e-03 0.0 
0.0 0.0 0.0 
-1.725348253804e-04 3.420672093905e-05 0.0 
3.420672093905e-05 1.926801206937e-03 0.0 
0.0 0.0 0.0 
-3.940017630966e-05 2.605677491788e-04 0.0 
2.605677491788e-04 2.252755977386e-03 0.0 
0.0 0.0 0.0 
6.999558597776e-05 2.994372560993e-04 0.0 
2.994372560993e-04 1.338693583782e-03 0.0 
0.0 0.0 0.0 
-1.626422612530e-04 5.227681396156e-05 0.0 
5.227681396156e-05 2.028928402003e-03 0.0 
0.0 0.0 0.0 
-8.921597054012e-06 2.390635641985e-04 0.0 
2.390635641985e-04 7.702349166590e-04 0.0 
0.0 0.0 0.0 
1.532188776294e-04 2.036082473652e-04 0.0 
2.036082473652e-04 9.894286325212e-04 0.0 
0.0 0.0 0.0 
1.565399299741e-05 5.571886925320e-05 0.0 
5.571886925320e-05 3.275449117925e-04 0.0 
0.0 0.0 0.0 
0.0 3.311838487229e-04 0.0 
3.311838487229e-04 1.538448095476e-03 0.0 
0.0 0.0 0.0 
0.0 3.295203746017e-04 0.0 
3.295203746017e-04 2.128656451033e-03 0.0 
0.0 0.0 0.0 
0.0 2.831377017045e-04 0.0 
2.831377017045e-04 2.209601249455e-03 0.0 
0.0 0.0 0.0 
1.411365669786e-04 5.260324592772e-05 0.0 
5.260324592772e-05 7.489652097932e-04 0.0 
0.0 0.0 0.0 
1.004861449732e-04 -1.687589658145e-05 0.0 
-1.687589658145e-05 4.769901994315e-04 0.0 
0.0 0.0 0.0 
6.761015483092e-05 2.434408855914e-04 0.0 
2.434408855914e-04 1.015243503744e-03 0.0 
0.0 0.0 0.0 
1.488768764406e-04 6.563330419628e-05 0.0 
6.563330419628e-05 7.705521735790e-04 0.0 
0.0 0.0 0.0 
0.0 2.961352211221e-04 0.0 
2.961352211221e-04 1.467525751657e-03 0.0 
0.0 0.0 0.0 
6.319583115899e-05 1.185216176390e-04 0.0 
1.185216176390e-04 5.285603286536e-04 0.0 
0.0 0.0 0.0 
1.326970471807e-04 2.995731096433e-05 0.0 
2.995731096433e-05 4.131037460728e-04 0.0 
0.0 0.0 0.0 
1.377348187326e-04 2.311462656814e-05 0.0 
2.311462656814e-05 4.293968591793e-04 0.0 
0.0 0.0 0.0 
-1.534670215774e-04 5.437791621676e-05 0.0 
5.437791621676e-05 2.062162825307e-03 0.0 
0.0 0.0 0.0 
2.864814514725e-05 2.128032154221e-04 0.0 
2.128032154221e-04 1.346829597282e-03 0.0 
0.0 0.0 0.0 
-5.033121843045e-05 -3.195570968833e-05 0.0 
-3.195570968833e-05 1.360514016633e-04 0.0 
0.0 0.0 0.0 
0.0 2.544351171489e-04 0.0 
2.544351171489e-04 1.403164467299e-03 0.0 
0.0 0.0 0.0 
1.237817372859e-04 6.098645637237e-06 0.0 
6.098645637237e-06 3.879188161680e-04 0.0 
0.0 0.0 0.0 
0.0 3.802364987761e-04 0.0 
3.802364987761e-04 1.985390293977e-03 0.0 
0.0 0.0 0.0 
-9.287081182263e-05 3.106677612626e-04 0.0 
3.106677612626e-04 1.952160508685e-03 0.0 
0.0 0.0 0.0 
-9.071397032834e-05 -9.782458060664e-06 0.0 
-9.782458060664e-06 5.507423924445e-05 0.0 
0.0 0.0 0.0 
8.900430718128e-05 2.438684432065e-04 0.0 
2.438684432065e-04 9.154499334993e-04 0.0 
0.0 0.0 0.0 
-1.400394081326e-04 1.746664617898e-04 0.0 
1.746664617898e-04 2.187322610114e-03 0.0 
0.0 0.0 0.0 
0.0 3.926016494940e-04 0.0 
3.926016494940e-04 1.876844642727e-03 0.0 
0.0 0.0 0.0 
-1.275957823406e-04 2.892585619502e-04 0.0 
2.892585619502e-04 1.756793991400e-03 0.0 
0.0 0.0 0.0 
8.365448536063e-05 2.938810507733e-04 0.0 
2.938810507733e-04 1.317270911227e-03 0.0 
0.0 0.0 0.0 
-4.754171696653e-06 1.295504609218e-04 0.0 
1.295504609218e-04 3.290616570049e-04 0.0 
0.0 0.0 0.0 
6.493132344154e-05 2.220147047799e-04 0.0 
2.220147047799e-04 1.254643584239e-03 0.0 
0.0 0.0 0.0 
1.273240351560e-04 2.953171312125e-06 0.0 
2.953171312125e-06 4.078056514178e-04 0.0 
0.0 0.0 0.0 
1.210777484031e-04 -1.534449648515e-06 0.0 
-1.534449648515e-06 4.327627955887e-04 0.0 
0.0 0.0 0.0 
-9.285850940888e-05 -2.478564543297e-05 0.0 
-2.478564543297e-05 1.010499172041e-04 0.0 
0.0 0.0 0.0 
0.0 3.897187053119e-04 0.0 
3.897187053119e-04 1.769216834985e-03 0.0 
0.0 0.0 0.0 
5.007648298094e-05 6.190425979406e-05 0.0 
6.190425979406e-05 3.849963185909e-04 0.0 
0.0 0.0 0.0 
1.064420746406e-04 1.451269024484e-04 0.0 
1.451269024484e-04 1.059944300414e-03 0.0 
0.0 0.0 0.0 
-1.734698469908e-04 3.507263342252e-05 0.0 
3.507263342252e-05 2.001617944363e-03 0.0 
0.0 0.0 0.0 
8.447360630659e-05 -3.667376283920e-05 0.0 
-3.667376283920e-05 3.390998223380e-04 0.0 
0.0 0.0 0.0 
1.158075484149e-04 2.644294337900e-06 0.0 
2.644294337900e-06 4.171308745338e-04 0.0 
0.0 0.0 0.0 
-1.056930057346e-04 2.991213584440e-04 0.0 
2.991213584440e-04 1.666644042604e-03 0.0 
0.0 0.0 0.0 
0.0 3.474133274696e-04 0.0 
3.474133274696e-04 1.580108156114e-03 0.0 
0.0 0.0 0.0 
1.087338079329e-04 -2.459789851300e-06 0.0 
-2.459789851300e-06 5.015248266751e-04 0.0 
0.0 0.0 0.0 
1.335605577670e-04 8.626707550421e-05 0.0 
8.626707550421e-05 8.694839660934e-04 0.0 
0.0 0.0 0.0 
5.377341835655e-05 2.861916935133e-04 0.0 
2.861916935133e-04 1.173934652266e-03 0.0 
0.0 0.0 0.0 
1.536371399522e-04 9.801716971697e-05 0.0 
9.801716971697e-05 8.101376197860e-04 0.0 
0.0 0.0 0.0 
1.276545494804e-04 2.273344648788e-05 0.0 
2.273344648788e-05 4.644974566854e-04 0.0 
0.0 0.0 0.0 
1.422119497654e-04 7.019560278756e-05 0.0 
7.019560278756e-05 7.963410286151e-04 0.0 
0.0 0.0 0.0 
2.701389896442e-05 2.801603498554e-04 0.0 
2.801603498554e-04 1.214218181746e-03 0.0 
0.0 0.0 0.0 
6.361517100428e-06 3.100696930857e-04 0.0 
3.100696930857e-04 1.494843364744e-03 0.0 
0.0 0.0 0.0 
1.421038759990e-04 2.181052810254e-04 0.0 
2.181052810254e-04 1.064501255243e-03 0.0 
0.0 0.0 0.0 
7.591096548265e-05 2.704941594472e-04 0.0 
2.704941594472e-04 1.076009013785e-03 0.0 
0.0 0.0 0.0 
1.284930008825e-04 3.455475375096e-06 0.0 
3.455475375096e-06 5.183697553062e-04 0.0 
0.0 0.0 0.0 
6.306432424963e-05 1.466081584782e-04 0.0 
1.466081584782e-04 6.095624422491e-04 0.0 
0.0 0.0 0.0 
1.089922026560e-04 -5.495120759927e-06 0.0 
-5.495120759927e-06 4.752344965882e-04 0.0 
0.0 0.0 0.0 
6.406053983143e-05 2.879273200563e-04 0.0 
2.879273200563e-04 1.340761487213e-03 0.0 
0.0 0.0 0.0 
1.684287307857e-04 1.648358006604e-04 0.0 
1.648358006604e-04 8.433967788148e-04 0.0 
0.0 0.0 0.0 
3.303036921021e-05 2.546940373360e-04 0.0 
2.546940373360e-04 1.391764271754e-03 0.0 
0.0 0.0 0.0 
-1.286042614299e-04 2.037944567750e-04 0.0 
2.037944567750e-04 2.183530832752e-03 0.0 
0.0 0.0 0.0 
8.108237905491e-05 -2.474727439744e-05 0.0 
-2.474727439744e-05 3.035243786629e-04 0.0 
0.0 0.0 0.0 
0.0 2.746458215615e-04 0.0 
2.746458215615e-04 1.430060099199e-03 0.0 
0.0 0.0 0.0 
6.502701316857e-05 2.490278815315e-04 0.0 
2.490278815315e-04 1.327491257924e-03 0.0 
0.0 0.0 0.0 
1.296990354402e-04 2.154518734470e-04 0.0 
2.154518734470e-04 8.686027799010e-04 0.0 
0.0 0.0 0.0 
-4.987819222968e-05 -2.624499156479e-05 0.0 
-2.624499156479e-05 8.355689989981e-05 0.0 
0.0 0.0 0.0 
3.367267058185e-05 1.946964967564e-04 0.0 
1.946964967564e-04 1.328847918871e-03 0.0 
0.0 0.0 0.0 
-1.264687927258e-04 2.426088143124e-04 0.0 
2.426088143124e-04 2.126034629416e-03 0.0 
0.0 0.0 0.0 
1.079130314841e-04 -7.563607282327e-06 0.0 
-7.563607282327e-06 3.499423421414e-04 0.0 
0.0 0.0 0.0 
0.0 2.146364860556e-04 0.0 
2.146364860556e-04 1.355208202656e-03 0.0 
0.0 0.0 0.0 
1.350624074050e-04 6.792830164684e-05 0.0 
6.792830164684e-05 8.200418222659e-04 0.0 
0.0 0.0 0.0 
-1.888805381778e-05 2.861897914235e-04 0.0 
2.861897914235e-04 1.143601387987e-03 0.0 
0.0 0.0 0.0 
-1.982979656263e-04 1.808920245591e-04 0.0 
1.808920245591e-04 1.883368415381e-03 0.0 
0.0 0.0 0.0 
1.506294474458e-04 1.526359452476e-04 0.0 
1.526359452476e-04 8.461339028720e-04 0.0 
0.0 0.0 0.0 
1.432263212904e-04 3.725203603782e-05 0.0 
3.725203603782e-05 6.801644290739e-04 0.0 
0.0 0.0 0.0 
1.511205590257e-04 1.209111211062e-04 0.0 
1.209111211062e-04 8.689206120456e-04 0.0 
0.0 0.0 0.0 
-1.984621462825e-04 1.871735506645e-04 0.0 
1.871735506645e-04 2.020225704511e-03 0.0 
0.0 0.0 0.0 
-6.991663098366e-05 2.961077418971e-04 0.0 
2.961077418971e-04 1.367492287436e-03 0.0 
0.0 0.0 0.0 
1.288906699504e-04 2.420131745001e-04 0.0 
2.420131745001e-04 1.141488222916e-03 0.0 
0.0 0.0 0.0 
-1.186485652935e-04 5.869474749053e-06 0.0 
5.869474749053e-06 2.022201558703e-03 0.0 
0.0 0.0 0.0 
1.163110198577e-04 -1.009806893943e-05 0.0 
-1.009806893943e-05 5.204736160105e-04 0.0 
0.0 0.0 0.0 
1.538428950589e-04 1.940829229536e-04 0.0 
1.940829229536e-04 9.906747238120e-04 0.0 
0.0 0.0 0.0 
1.120190400148e-04 -1.806789227340e-05 0.0 
-1.806789227340e-05 4.105405543828e-04 0.0 
0.0 0.0 0.0 
1.219772666792e-04 3.371891411711e-05 0.0 
3.371891411711e-05 7.652386979367e-04 0.0 
0.0 0.0 0.0 
-1.076886970695e-04 -1.026276930177e-05 0.0 
-1.026276930177e-05 6.200308268522e-05 0.0 
0.0 0.0 0.0 
5.921594511826e-05 1.750404182410e-04 0.0 
1.750404182410e-04 6.978931846118e-04 0.0 
0.0 0.0 0.0 
1.077146020951e-04 -1.725574827431e-05 0.0 
-1.725574827431e-05 3.913127451103e-04 0.0 
0.0 0.0 0.0 
1.239304014371e-04 7.269415088725e-06 0.0 
7.269415088725e-06 5.705650588164e-04 0.0 
0.0 0.0 0.0 
1.153114864900e-04 2.383890593072e-04 0.0 
2.383890593072e-04 9.557848551105e-04 0.0 
0.0 0.0 0.0 
1.498502366899e-04 8.305546002242e-05 0.0 
8.305546002242e-05 8.177325943941e-04 0.0 
0.0 0.0 0.0 
-1.653279999900e-04 3.726104460390e-05 0.0 
3.726104460390e-05 2.037551820288e-03 0.0 
0.0 0.0 0.0 
9.314473084765e-05 -2.957459435173e-05 0.0 
-2.957459435173e-05 3.534523278041e-04 0.0 
0.0 0.0 0.0 
0.0 1.971285996694e-04 0.0 
1.971285996694e-04 1.338380271622e-03 0.0 
0.0 0.0 0.0 
-4.859369988530e-05 3.073194081317e-04 0.0 
3.073194081317e-04 1.520558705282e-03 0.0 
0.0 0.0 0.0 
1.210088612191e-04 8.966206575406e-06 0.0 
8.966206575406e-06 5.971996800500e-04 0.0 
0.0 0.0 0.0 
-2.246693165153e-05 3.029229396420e-04 0.0 
3.029229396420e-04 1.419344384641e-03 0.0 
0.0 0.0 0.0 
1.138956171838e-04 -4.689245575052e-06 0.0 
-4.689245575052e-06 5.724006222187e-04 0.0 
0.0 0.0 0.0 
-6.895608080393e-05 -1.052431685845e-05 0.0 
-1.052431685845e-05 4.859452899519e-05 0.0 
0.0 0.0 0.0 
-2.150641739614e-04 1.851837984348e-04 0.0 
1.851837984348e-04 1.934810850668e-03 0.0 
0.0 0.0 0.0 
9.375349863294e-05 3.655686937632e-07 0.0 
3.655686937632e-07 4.656258708871e-04 0.0 
0.0 0.0 0.0 
-8.674436028477e-06 -6.469139476110e-06 0.0 
-6.469139476110e-06 2.116120150819e-05 0.0 
0.0 0.0 0.0 
1.149289163140e-04 3.932003624706e-06 0.0 
3.932003624706e-06 5.617185782150e-04 0.0 
0.0 0.0 0.0 
1.386630539117e-04 9.742708114914e-05 0.0 
9.742708114914e-05 8.913482037936e-04 0.0 
0.0 0.0 0.0 
-7.547680518449e-05 5.113393254342e-05 0.0 
5.113393254342e-05 2.234605556898e-03 0.0 
0.0 0.0 0.0 
1.572515277308e-04 1.036385855493e-04 0.0 
1.036385855493e-04 7.969326017281e-04 0.0 
0.0 0.0 0.0 
1.694143666335e-04 1.159454081634e-04 0.0 
1.159454081634e-04 8.069390983891e-04 0.0 
0.0 0.0 0.0 
-2.326550532313e-04 1.418800910956e-04 0.0 
1.418800910956e-04 1.868305043773e-03 0.0 
0.0 0.0 0.0 
-1.715899236678e-04 1.497081650017e-05 0.0 
1.497081650017e-05 1.879840721427e-03 0.0 
0.0 0.0 0.0 
-4.294625055667e-05 2.087740437597e-04 0.0 
2.087740437597e-04 2.255197496427e-03 0.0 
0.0 0.0 0.0 
2.948145805703e-06 2.932965397783e-04 0.0 
2.932965397783e-04 1.316592038605e-03 0.0 
0.0 0.0 0.0 
-1.329172210107e-05 -5.448205019298e-06 0.0 
-5.448205019298e-06 2.181695882619e-05 0.0 
0.0 0.0 0.0 
2.354021662510e-05 -4.225461195200e-05 0.0 
-4.225461195200e-05 1.870395381696e-04 0.0 
0.0 0.0 0.0 
-4.367713018705e-05 -2.664050032657e-05 0.0 
-2.664050032657e-05 7.974111587772e-05 0.0 
0.0 0.0 0.0 
7.549240760008e-05 -3.801293471207e-05 0.0 
-3.801293471207e-05 3.262775491353e-04 0.0 
0.0 0.0 0.0 
-3.260317416809e-05 3.326068470385e-04 0.0 
3.326068470385e-04 1.736402506311e-03 0.0 
0.0 0.0 0.0 
-8.744704011676e-05 4.523984745410e-05 0.0 
4.523984745410e-05 2.235353927462e-03 0.0 
0.0 0.0 0.0 
1.050212129285e-04 8.351445520937e-05 0.0 
8.351445520937e-05 9.700587635189e-04 0.0 
0.0 0.0 0.0 
8.476176935224e-05 -3.145992023808e-05 0.0 
-3.145992023808e-05 3.695507661809e-04 0.0 
0.0 0.0 0.0 
1.131899622386e-04 2.186404395702e-05 0.0 
2.186404395702e-05 7.672042473668e-04 0.0 
0.0 0.0 0.0 
1.079230916958e-04 1.524363384581e-04 0.0 
1.524363384581e-04 1.078151031605e-03 0.0 
0.0 0.0 0.0 
2.232060609253e-05 9.575299815570e-06 0.0 
9.575299815570e-06 2.656762000954e-04 0.0 
0.0 0.0 0.0 
9.162030792087e-05 -9.958627262083e-06 0.0 
-9.958627262083e-06 4.658117286009e-04 0.0 
0.0 0.0 0.0 
8.032312323225e-05 9.275296148172e-07 0.0 
9.275296148172e-07 3.786212663881e-04 0.0 
0.0 0.0 0.0 
2.879681139634e-05 1.748345965691e-04 0.0 
1.748345965691e-04 1.311051339103e-03 0.0 
0.0 0.0 0.0 
0.0 1.766352313753e-04 0.0 
1.766352313753e-04 1.319333197007e-03 0.0 
0.0 0.0 0.0 
9.808661031419e-05 -7.019711021687e-06 0.0 
-7.019711021687e-06 5.224136592963e-04 0.0 
0.0 0.0 0.0 
1.124637287442e-04 -2.442523315957e-06 0.0 
-2.442523315957e-06 5.989907002146e-04 0.0 
0.0 0.0 0.0 
1.530894610819e-04 5.166421689276e-05 0.0 
5.166421689276e-05 7.012235516983e-04 0.0 
0.0 0.0 0.0 
9.923077723073e-05 1.759961473533e-04 0.0 
1.759961473533e-04 1.138495864569e-03 0.0 
0.0 0.0 0.0 
3.730729306506e-05 -2.666032632478e-05 0.0 
-2.666032632478e-05 2.040514227830e-04 0.0 
0.0 0.0 0.0 
1.167808155846e-04 1.311149973081e-04 0.0 
1.311149973081e-04 1.020978732993e-03 0.0 
0.0 0.0 0.0 
1.079682853344e-05 -1.436864377804e-05 0.0 
-1.436864377804e-05 1.076154512230e-04 0.0 
0.0 0.0 0.0 
1.075391426559e-04 -9.859535396071e-06 0.0 
-9.859535396071e-06 5.372332057356e-04 0.0 
0.0 0.0 0.0 
1.197106430391e-04 2.371624741701e-06 0.0 
2.371624741701e-06 6.088220247129e-04 0.0 
0.0 0.0 0.0 
1.389590505574e-05 -7.935001062780e-06 0.0 
-7.935001062780e-06 5.467355076805e-05 0.0 
0.0 0.0 0.0 
9.689706181826e-05 2.750820004884e-06 0.0 
2.750820004884e-06 4.934342313008e-04 0.0 
0.0 0.0 0.0 
-1.048471621173e-04 2.000144147825e-04 0.0 
2.000144147825e-04 2.184008735139e-03 0.0 
0.0 0.0 0.0 
-7.550272048795e-06 -4.710926416011e-06 0.0 
-4.710926416011e-06 1.960421665004e-05 0.0 
0.0 0.0 0.0 
-1.827365208409e-04 2.626565361689e-05 0.0 
2.626565361689e-05 1.881472984605e-03 0.0 
0.0 0.0 0.0 
-1.688649240628e-04 3.732645429605e-05 0.0 
3.732645429605e-05 1.866179903806e-03 0.0 
0.0 0.0 0.0 
1.459076222516e-04 1.444824435954e-04 0.0 
1.444824435954e-04 9.317444686401e-04 0.0 
0.0 0.0 0.0 
7.785207968958e-05 -7.883916227644e-06 0.0 
-7.883916227644e-06 3.782972215545e-04 0.0 
0.0 0.0 0.0 
1.126296147027e-04 -9.371028307627e-06 0.0 
-9.371028307627e-06 3.709742931033e-04 0.0 
0.0 0.0 0.0 
-1.082342577563e-06 1.370834449856e-04 0.0 
1.370834449856e-04 4.951345321411e-04 0.0 
0.0 0.0 0.0 
7.414118454974e-05 8.646775340569e-05 0.0 
8.646775340569e-05 1.073777817883e-03 0.0 
0.0 0.0 0.0 
4.190514721003e-06 3.667763633718e-04 0.0 
3.667763633718e-04 1.740705292417e-03 0.0 
0.0 0.0 0.0 
-1.188932619722e-04 6.804739073078e-05 0.0 
6.804739073078e-05 2.202489476143e-03 0.0 
0.0 0.0 0.0 
-1.161191484189e-05 2.067681183992e-04 0.0 
2.067681183992e-04 7.743002124925e-04 0.0 
0.0 0.0 0.0 
5.192999363857e-09 -2.304708826084e-05 0.0 
-2.304708826084e-05 1.288836565057e-04 0.0 
0.0 0.0 0.0 
-1.325389369045e-04 2.871728454042e-04 0.0 
2.871728454042e-04 1.538835764984e-03 0.0 
0.0 0.0 0.0 
-1.445654151454e-04 2.243626606770e-06 0.0 
2.243626606770e-06 1.874778675471e-03 0.0 
0.0 0.0 0.0 
-1.337553972441e-04 5.258078626643e-07 0.0 
5.258078626643e-07 1.869004857031e-03 0.0 
0.0 0.0 0.0 
-1.363130426535e-06 -5.476848432877e-06 0.0 
-5.476848432877e-06 1.842322504353e-05 0.0 
0.0 0.0 0.0 
1.080807490061e-05 -1.022010331785e-05 0.0 
-1.022010331785e-05 5.599182082183e-05 0.0 
0.0 0.0 0.0 
2.548451242079e-05 -8.040320393129e-06 0.0 
-8.040320393129e-06 1.029654353182e-04 0.0 
0.0 0.0 0.0 
6.482225417415e-05 -2.360331623693e-05 0.0 
-2.360331623693e-05 2.808383951303e-04 0.0 
0.0 0.0 0.0 
7.392753015534e-06 -6.845969625706e-06 0.0 
-6.845969625706e-06 5.558428276009e-05 0.0 
0.0 0.0 0.0 
1.005414978794e-04 3.766479905650e-06 0.0 
3.766479905650e-06 5.544625861551e-04 0.0 
0.0 0.0 0.0 
-1.038900577464e-04 -9.404691659336e-06 0.0 
-9.404691659336e-06 6.331308039309e-05 0.0 
0.0 0.0 0.0 
8.172310851462e-05 -2.017893839953e-05 0.0 
-2.017893839953e-05 3.358262808835e-04 0.0 
0.0 0.0 0.0 
-1.058997570628e-04 1.173752436926e-05 0.0 
1.173752436926e-05 2.073051633465e-03 0.0 
0.0 0.0 0.0 
-1.489891057957e-04 1.263941325852e-05 0.0 
1.263941325852e-05 1.869096853227e-03 0.0 
0.0 0.0 0.0 
-4.576511219323e-05 3.366774123812e-04 0.0 
3.366774123812e-04 1.819081970301e-03 0.0 
0.0 0.0 0.0 
1.404616883940e-04 7.944737865485e-05 0.0 
7.944737865485e-05 8.422067205867e-04 0.0 
0.0 0.0 0.0 
-1.116595525642e-04 7.730160880760e-06 0.0 
7.730160880760e-06 2.020017393257e-03 0.0 
0.0 0.0 0.0 
8.303904287787e-05 4.715928560009e-06 0.0 
4.715928560009e-06 4.059348204306e-04 0.0 
0.0 0.0 0.0 
1.693268962955e-05 -9.155387318177e-06 0.0 
-9.155387318177e-06 1.045081595523e-04 0.0 
0.0 0.0 0.0 
0.0 1.049594937846e-04 0.0 
1.049594937846e-04 2.351570642510e-03 0.0 
0.0 0.0 0.0 
-3.180576910911e-05 1.178403321748e-04 0.0 
1.178403321748e-04 2.347462859032e-03 0.0 
0.0 0.0 0.0 
-1.550642146508e-04 3.539770637279e-05 0.0 
3.539770637279e-05 2.001567915110e-03 0.0 
0.0 0.0 0.0 
-1.540011143955e-04 4.094960898819e-06 0.0 
4.094960898819e-06 1.875710619275e-03 0.0 
0.0 0.0 0.0 
8.314297406375e-05 -9.344370047116e-06 0.0 
-9.344370047116e-06 4.115574134909e-04 0.0 
0.0 0.0 0.0 
-2.600402305342e-05 8.069539087026e-05 0.0 
8.069539087026e-05 2.359719412076e-03 0.0 
0.0 0.0 0.0 
6.950833154495e-05 -3.647890765552e-05 0.0 
-3.647890765552e-05 3.142229265738e-04 0.0 
0.0 0.0 0.0 
-1.575213991067e-04 2.173409295631e-05 0.0 
2.173409295631e-05 1.867539954787e-03 0.0 
0.0 0.0 0.0 
-1.599898972625e-04 9.076025950458e-06 0.0 
9.076025950458e-06 1.877217505903e-03 0.0 
0.0 0.0 0.0 
-1.665001347457e-04 2.443428320117e-04 0.0 
2.443428320117e-04 1.610497574336e-03 0.0 
0.0 0.0 0.0 
0.0 2.371265654628e-04 0.0 
2.371265654628e-04 2.266655897966e-03 0.0 
0.0 0.0 0.0 
-2.973911738191e-05 9.922939646722e-05 0.0 
9.922939646722e-05 2.354844476816e-03 0.0 
0.0 0.0 0.0 
2.978482615879e-06 -8.956094744042e-06 0.0 
-8.956094744042e-06 5.715483504343e-05 0.0 
0.0 0.0 0.0 
2.973810839135e-06 -3.963478758615e-06 0.0 
-3.963478758615e-06 1.695963447013e-05 0.0 
0.0 0.0 0.0 
1.367654005868e-05 -2.353108515020e-05 0.0 
-2.353108515020e-05 1.525217090363e-04 0.0 
0.0 0.0 0.0 
1.308538752822e-04 1.505844268148e-05 0.0 
1.505844268148e-05 6.068729565101e-04 0.0 
0.0 0.0 0.0 
4.557201910993e-05 1.561371386316e-05 0.0 
1.561371386316e-05 1.110652267412e-03 0.0 
0.0 0.0 0.0 
-1.603597473769e-04 -1.175473508009e-05 0.0 
-1.175473508009e-05 8.355473502597e-05 0.0 
0.0 0.0 0.0 
-8.211159923210e-05 2.513029016416e-06 0.0 
2.513029016416e-06 2.190738103514e-03 0.0 
0.0 0.0 0.0 
-9.256153821646e-05 -1.092746895242e-05 0.0 
-1.092746895242e-05 5.919964496526e-05 0.0 
0.0 0.0 0.0 
1.611006796747e-04 1.320759588415e-04 0.0 
1.320759588415e-04 8.802289627718e-04 0.0 
0.0 0.0 0.0 
-1.262247921474e-04 -1.068760308104e-05 0.0 
-1.068760308104e-05 7.012537932649e-05 0.0 
0.0 0.0 0.0 
-1.435385140542e-04 -1.184700735450e-05 0.0 
-1.184700735450e-05 7.705303737482e-05 0.0 
0.0 0.0 0.0 
1.639444127814e-04 1.101804612428e-04 0.0 
1.101804612428e-04 8.236622047209e-04 0.0 
0.0 0.0 0.0 
5.763076549137e-05 4.039508515664e-05 0.0 
4.039508515664e-05 1.075091012846e-03 0.0 
0.0 0.0 0.0 
-1.120020568454e-04 6.324652701939e-06 0.0 
6.324652701939e-06 2.068622134070e-03 0.0 
0.0 0.0 0.0 
-9.535412552764e-05 2.974756782221e-04 0.0 
2.974756782221e-04 1.476707396253e-03 0.0 
0.0 0.0 0.0 
1.695898058918e-05 -6.332100116038e-06 0.0 
-6.332100116038e-06 5.308923650227e-05 0.0 
0.0 0.0 0.0 
1.075231163088e-04 2.051125566709e-05 0.0 
2.051125566709e-05 7.955437311891e-04 0.0 
0.0 0.0 0.0 
0.0 3.101814269540e-05 0.0 
3.101814269540e-05 2.365334698063e-03 0.0 
0.0 0.0 0.0 
-2.206624979473e-05 3.406038309319e-05 0.0 
3.406038309319e-05 2.366736430424e-03 0.0 
0.0 0.0 0.0 
-1.421553983848e-04 6.794277185933e-06 0.0 
6.794277185933e-06 1.868640800537e-03 0.0 
0.0 0.0 0.0 
1.556802666769e-04 1.546092831645e-04 0.0 
1.546092831645e-04 9.404523092873e-04 0.0 
0.0 0.0 0.0 
0.0 8.724346999005e-05 0.0 
8.724346999005e-05 2.358338201467e-03 0.0 
0.0 0.0 0.0 
7.402490468333e-05 2.812137435942e-04 0.0 
2.812137435942e-04 1.319161328351e-03 0.0 
0.0 0.0 0.0 
1.755711367379e-05 -4.520305815896e-06 0.0 
-4.520305815896e-06 1.015557121200e-04 0.0 
0.0 0.0 0.0 
1.110272163296e-05 -5.298763070332e-06 0.0 
-5.298763070332e-06 5.384425641064e-05 0.0 
0.0 0.0 0.0 
1.785748263639e-05 -5.121963937983e-06 0.0 
-5.121963937983e-06 5.213224197220e-05 0.0 
0.0 0.0 0.0 
9.199554256134e-05 4.671524650288e-06 0.0 
4.671524650288e-06 4.639989199509e-04 0.0 
0.0 0.0 0.0 
1.797650566648e-05 3.460127843513e-05 0.0 
3.460127843513e-05 1.241829433529e-03 0.0 
0.0 0.0 0.0 
-3.619722869475e-05 -3.233278074894e-06 0.0 
-3.233278074894e-06 2.317985442332e-03 0.0 
0.0 0.0 0.0 
1.128219843549e-05 -1.040767970638e-06 0.0 
-1.040767970638e-06 1.230445377720e-05 0.0 
0.0 0.0 0.0 
1.007496867700e-04 -5.456554110880e-06 0.0 
-5.456554110880e-06 5.544758876219e-04 0.0 
0.0 0.0 0.0 
0.0 3.043456226472e-05 0.0 
3.043456226472e-05 1.244658667892e-03 0.0 
0.0 0.0 0.0 
2.066224848130e-05 4.946825886238e-05 0.0 
4.946825886238e-05 1.243260074112e-03 0.0 
0.0 0.0 0.0 
3.293426138518e-05 1.564864935022e-04 0.0 
1.564864935022e-04 1.295787046240e-03 0.0 
0.0 0.0 0.0 
-9.360240761169e-05 9.043586916239e-06 0.0 
9.043586916239e-06 2.137231862611e-03 0.0 
0.0 0.0 0.0 
-7.346398005614e-05 -3.788128410066e-06 0.0 
-3.788128410066e-06 2.217684335104e-03 0.0 
0.0 0.0 0.0 
0.0 4.076429496236e-05 0.0 
4.076429496236e-05 1.239954909420e-03 0.0 
0.0 0.0 0.0 
0.0 5.244723146174e-05 0.0 
5.244723146174e-05 1.246707669009e-03 0.0 
0.0 0.0 0.0 
-8.020754589533e-05 9.690330904072e-06 0.0 
9.690330904072e-06 2.190990665867e-03 0.0 
0.0 0.0 0.0 
7.628479310684e-06 9.921643481799e-07 0.0 
9.921643481799e-07 1.117366610326e-05 0.0 
0.0 0.0 0.0 
-1.282898055045e-04 -2.674365638741e-07 0.0 
-2.674365638741e-07 1.865585772274e-03 0.0 
0.0 0.0 0.0 
-1.377783266769e-04 3.751193562824e-06 0.0 
3.751193562824e-06 1.870766866743e-03 0.0 
0.0 0.0 0.0 
7.426624416773e-06 -2.469228221907e-06 0.0 
-2.469228221907e-06 1.509559489121e-05 0.0 
0.0 0.0 0.0 
0.0 9.572165182571e-05 0.0 
9.572165182571e-05 1.266237075316e-03 0.0 
0.0 0.0 0.0 
2.857556748537e-05 1.385680752556e-04 0.0 
1.385680752556e-04 1.282080710518e-03 0.0 
0.0 0.0 0.0 
0.0 1.249274926240e-04 0.0 
1.249274926240e-04 1.275720530560e-03 0.0 
0.0 0.0 0.0 
1.435708405495e-06 -1.160103451100e-06 0.0 
-1.160103451100e-06 1.555979725487e-05 0.0 
0.0 0.0 0.0 
-2.613768749771e-06 -3.050968342360e-06 0.0 
-3.050968342360e-06 1.776876287685e-05 0.0 
0.0 0.0 0.0 
0.0 1.596481018069e-04 0.0 
1.596481018069e-04 1.303114422557e-03 0.0 
0.0 0.0 0.0 
0.0 1.413935464466e-04 0.0 
1.413935464466e-04 1.289045447798e-03 0.0 
0.0 0.0 0.0 
-9.987229930464e-05 -4.710836489358e-06 0.0 
-4.710836489358e-06 2.108842496505e-03 0.0 
0.0 0.0 0.0 
-1.242209882341e-04 6.136800276786e-07 0.0 
6.136800276786e-07 1.862683329175e-03 0.0 
0.0 0.0 0.0 
-8.734728820425e-05 -4.256903671535e-06 0.0 
-4.256903671535e-06 2.164177386675e-03 0.0 
0.0 0.0 0.0 
-1.149428122794e-04 -5.195983358455e-06 0.0 
-5.195983358455e-06 1.991533504510e-03 0.0 
0.0 0.0 0.0 
-1.225116200086e-04 -2.853864442141e-07 0.0 
-2.853864442141e-07 1.861703342615e-03 0.0 
0.0 0.0 0.0 
-2.343785779546e-05 -4.616761809001e-06 0.0 
-4.616761809001e-06 2.641182515961e-05 0.0 
0.0 0.0 0.0 
-4.775691521064e-05 -8.199374479550e-06 0.0 
-8.199374479550e-06 3.838034620762e-05 0.0 
0.0 0.0 0.0 
-5.848880692116e-05 -8.352102996182e-06 0.0 
-8.352102996182e-06 4.112910409004e-05 0.0 
0.0 0.0 0.0 
-7.481000606613e-05 -9.459556179108e-06 0.0 
-9.459556179108e-06 4.836749468295e-05 0.0 
0.0 0.0 0.0 
1.027104422502e-04 5.729711161305e-06 0.0 
5.729711161305e-06 5.862207588059e-04 0.0 
0.0 0.0 0.0 
9.888244440859e-05 4.984829729131e-06 0.0 
4.984829729131e-06 5.237390021247e-04 0.0 
0.0 0.0 0.0 
-3.332297751368e-05 -7.986301183943e-06 0.0 
-7.986301183943e-06 3.332299779291e-05 0.0 
0.0 0.0 0.0 
1.015088223335e-04 6.192114913108e-06 0.0 
6.192114913108e-06 7.795032733884e-04 0.0 
0.0 0.0 0.0 
-4.676215862343e-05 -9.560590490868e-06 0.0 
-9.560590490868e-06 3.853752041150e-05 0.0 
0.0 0.0 0.0 
0.0 1.884117160716e-04 0.0 
1.884117160716e-04 2.308299774945e-03 0.0 
0.0 0.0 0.0 
0.0 7.206000141096e-05 0.0 
7.206000141096e-05 2.361057420620e-03 0.0 
0.0 0.0 0.0 
0.0 1.244558502167e-04 0.0 
1.244558502167e-04 2.343059485893e-03 0.0 
0.0 0.0 0.0 
3.723607039086e-05 5.139465466243e-06 0.0 
5.139465466243e-06 1.793523047111e-04 0.0 
0.0 0.0 0.0 
7.302741079895e-05 4.685889993678e-06 0.0 
4.685889993678e-06 3.486922859397e-04 0.0 
0.0 0.0 0.0 
0.0 5.624489427215e-05 0.0 
5.624489427215e-05 2.361616160995e-03 0.0 
0.0 0.0 0.0 
7.117417171831e-05 5.617427904711e-06 0.0 
5.617427904711e-06 9.973539442742e-04 0.0 
0.0 0.0 0.0 
0.0 4.380227542806e-05 0.0 
4.380227542806e-05 2.369154968586e-03 0.0 
0.0 0.0 0.0 
5.377862293554e-05 6.020182586926e-06 0.0 
6.020182586926e-06 1.074750547565e-03 0.0 
0.0 0.0 0.0 
3.367742301386e-05 7.500223250942e-06 0.0 
7.500223250942e-06 1.154652230701e-03 0.0 
0.0 0.0 0.0 
9.542635661064e-05 -6.796639710445e-06 0.0 
-6.796639710445e-06 4.934377852404e-04 0.0 
0.0 0.0 0.0 
-2.786925783316e-05 6.404217145930e-05 0.0 
6.404217145930e-05 2.361349383255e-03 0.0 
0.0 0.0 0.0 
-2.191899324389e-05 5.485347625352e-05 0.0 
5.485347625352e-05 2.364470804862e-03 0.0 
0.0 0.0 0.0 
6.168756141589e-05 2.114856135285e-06 0.0 
2.114856135285e-06 1.031851486519e-03 0.0 
0.0 0.0 0.0 
4.350831396716e-05 3.221316527177e-06 0.0 
3.221316527177e-06 1.111355375955e-03 0.0 
0.0 0.0 0.0 
9.656527505286e-05 1.590163156576e-05 0.0 
1.590163156576e-05 8.541811434037e-04 0.0 
0.0 0.0 0.0 
-8.117064164737e-05 -1.129319525924e-05 0.0 
-1.129319525924e-05 5.437857832802e-05 0.0 
0.0 0.0 0.0 
1.006740529590e-04 -1.329861790796e-05 0.0 
-1.329861790796e-05 5.030950259683e-04 0.0 
0.0 0.0 0.0 
-1.070822471361e-06 -1.160842942678e-05 0.0 
-1.160842942678e-05 5.793087227479e-05 0.0 
0.0 0.0 0.0 
6.741886987283e-05 7.659708922597e-05 0.0 
7.659708922597e-05 1.074793740973e-03 0.0 
0.0 0.0 0.0 
1.165108531374e-04 1.491438493775e-06 0.0 
1.491438493775e-06 5.354630134302e-04 0.0 
0.0 0.0 0.0 
8.406604108946e-05 4.129960236077e-05 0.0 
4.129960236077e-05 9.672030841028e-04 0.0 
0.0 0.0 0.0 
5.264227240964e-05 -3.971649259806e-05 0.0 
-3.971649259806e-05 2.597404378337e-04 0.0 
0.0 0.0 0.0 
1.282404608927e-05 -1.472805082314e-05 0.0 
-1.472805082314e-05 1.045342428931e-04 0.0 
0.0 0.0 0.0 
6.477971680430e-05 3.562911247177e-05 0.0 
3.562911247177e-05 1.043278885681e-03 0.0 
0.0 0.0 0.0 
1.077638452385e-04 -7.139742369564e-06 0.0 
-7.139742369564e-06 5.635425072938e-04 0.0 
0.0 0.0 0.0 
8.783274964030e-05 1.848307077862e-06 0.0 
1.848307077862e-06 4.354262357529e-04 0.0 
0.0 0.0 0.0 
8.042407143272e-05 3.044985669439e-05 0.0 
3.044985669439e-05 9.689483624311e-04 0.0 
0.0 0.0 0.0 
-5.571978270935e-05 2.739944283102e-05 0.0 
2.739944283102e-05 2.263877452298e-03 0.0 
0.0 0.0 0.0 
8.748575862794e-05 -7.534474324531e-06 0.0 
-7.534474324531e-06 4.352487372623e-04 0.0 
0.0 0.0 0.0 
1.209389415979e-04 1.021050066237e-04 0.0 
1.021050066237e-04 9.453888150703e-04 0.0 
0.0 0.0 0.0 
1.309955022595e-04 4.680948735762e-05 0.0 
4.680948735762e-05 7.788554392054e-04 0.0 
0.0 0.0 0.0 
1.005913247427e-04 2.716607234885e-05 0.0 
2.716607234885e-05 8.524206540603e-04 0.0 
0.0 0.0 0.0 
9.328443114986e-05 2.286398368657e-05 0.0 
2.286398368657e-05 8.838256032437e-04 0.0 
0.0 0.0 0.0 
1.496207764289e-04 1.122662405751e-04 0.0 
1.122662405751e-04 5.660355570238e-04 0.0 
0.0 0.0 0.0 
-1.061658501157e-04 2.903782908664e-04 0.0 
2.903782908664e-04 1.431560472642e-03 0.0 
0.0 0.0 0.0 
8.990678126941e-05 2.294246096387e-04 0.0 
2.294246096387e-04 9.840114032342e-04 0.0 
0.0 0.0 0.0 
1.148328188814e-04 3.214138953701e-05 0.0 
3.214138953701e-05 7.937080532157e-04 0.0 
0.0 0.0 0.0 
7.234919833521e-05 2.434697214517e-05 0.0 
2.434697214517e-05 1.001062014254e-03 0.0 
0.0 0.0 0.0 
8.614363673320e-05 1.846318141065e-05 0.0 
1.846318141065e-05 9.165729588516e-04 0.0 
0.0 0.0 0.0 
6.602076040951e-05 -2.829679782053e-05 0.0 
-2.829679782053e-05 2.705649074088e-04 0.0 
0.0 0.0 0.0 
-6.195047816759e-05 4.621525352376e-05 0.0 
4.621525352376e-05 2.261310767033e-03 0.0 
0.0 0.0 0.0 
-8.035779128968e-05 3.886621408290e-05 0.0 
3.886621408290e-05 2.211298290629e-03 0.0 
0.0 0.0 0.0 
-1.243043356997e-04 1.081035094011e-05 0.0 
1.081035094011e-05 1.950253848918e-03 0.0 
0.0 0.0 0.0 
1.143919065383e-04 4.257258226036e-05 0.0 
4.257258226036e-05 8.351015545522e-04 0.0 
0.0 0.0 0.0 
1.076617333160e-04 2.994381140039e-05 0.0 
2.994381140039e-05 8.228076718579e-04 0.0 
0.0 0.0 0.0 
-6.400278882523e-05 2.140202965989e-05 0.0 
2.140202965989e-05 2.265732416233e-03 0.0 
0.0 0.0 0.0 
-7.003219926560e-05 3.430797139640e-05 0.0 
3.430797139640e-05 2.238457370261e-03 0.0 
0.0 0.0 0.0 
1.264574010442e-04 3.505553912647e-05 0.0 
3.505553912647e-05 7.541637580586e-04 0.0 
0.0 0.0 0.0 
5.597676775504e-05 2.821897459991e-05 0.0 
2.821897459991e-05 1.076189061191e-03 0.0 
0.0 0.0 0.0 
-1.015326371780e-04 7.194156348254e-05 0.0 
7.194156348254e-05 2.201970569782e-03 0.0 
0.0 0.0 0.0 
8.368204256204e-05 7.457844620619e-06 0.0 
7.457844620619e-06 9.165626039029e-04 0.0 
0.0 0.0 0.0 
5.567107308280e-05 6.826388415017e-05 0.0 
6.826388415017e-05 1.109193324329e-03 0.0 
0.0 0.0 0.0 
-7.168658699563e-05 4.038169858491e-05 0.0 
4.038169858491e-05 2.262343616650e-03 0.0 
0.0 0.0 0.0 
-1.166144324042e-04 2.588803795092e-05 0.0 
2.588803795092e-05 2.130604752550e-03 0.0 
0.0 0.0 0.0 
1.250875832985e-04 8.310891810517e-05 0.0 
8.310891810517e-05 8.935919483843e-04 0.0 
0.0 0.0 0.0 
5.717124383953e-05 -1.199820161320e-05 0.0 
-1.199820161320e-05 2.663983165376e-04 0.0 
0.0 0.0 0.0 
5.741110558599e-05 -2.895108368653e-05 0.0 
-2.895108368653e-05 2.501673722433e-04 0.0 
0.0 0.0 0.0 
2.358469854968e-06 -3.916269595259e-05 0.0 
-3.916269595259e-05 1.310673782435e-04 0.0 
0.0 0.0 0.0 
-8.124454482084e-05 -2.593601053141e-05 0.0 
-2.593601053141e-05 9.379278672128e-05 0.0 
0.0 0.0 0.0 
-7.638278607136e-05 2.784791315259e-05 0.0 
2.784791315259e-05 2.239100786585e-03 0.0 
0.0 0.0 0.0 
6.522642613915e-05 2.941832796163e-05 0.0 
2.941832796163e-05 1.030918361568e-03 0.0 
0.0 0.0 0.0 
-6.908095294600e-05 -2.540092565350e-05 0.0 
-2.540092565350e-05 8.713931657311e-05 0.0 
0.0 0.0 0.0 
-1.155386279820e-04 2.786116934380e-04 0.0 
2.786116934380e-04 2.050342983062e-03 0.0 
0.0 0.0 0.0 
-1.255418730113e-04 1.415108195019e-05 0.0 
1.415108195019e-05 1.980771691253e-03 0.0 
0.0 0.0 0.0 
8.836215176800e-05 3.482864008748e-05 0.0 
3.482864008748e-05 9.390689892375e-04 0.0 
0.0 0.0 0.0 
8.077233261861e-05 2.651446190275e-05 0.0 
2.651446190275e-05 9.559135384007e-04 0.0 
0.0 0.0 0.0 
1.157607558775e-04 -1.012799918856e-05 0.0 
-1.012799918856e-05 3.919096373726e-04 0.0 
0.0 0.0 0.0 
7.890643616149e-05 1.529449536885e-05 0.0 
1.529449536885e-05 9.575365691699e-04 0.0 
0.0 0.0 0.0 
-1.296366011996e-04 1.961054234634e-07 0.0 
1.961054234634e-07 1.950018842477e-03 0.0 
0.0 0.0 0.0 
1.292798167467e-04 2.011165110593e-04 0.0 
2.011165110593e-04 1.067070172133e-03 0.0 
0.0 0.0 0.0 
4.781539849685e-05 7.389476900065e-05 0.0 
7.389476900065e-05 1.141686251903e-03 0.0 
0.0 0.0 0.0 
5.506208296024e-05 -4.897479719350e-06 0.0 
-4.897479719350e-06 2.570160764381e-04 0.0 
0.0 0.0 0.0 
5.862556340475e-05 9.232515125691e-05 0.0 
9.232515125691e-05 1.126700168282e-03 0.0 
0.0 0.0 0.0 
-1.048034318933e-04 2.454280464224e-05 0.0 
2.454280464224e-05 2.159514039373e-03 0.0 
0.0 0.0 0.0 
6.265025571905e-05 -7.430133946734e-06 0.0 
-7.430133946734e-06 2.901596575715e-04 0.0 
0.0 0.0 0.0 
7.075680300339e-05 -4.149553215233e-05 0.0 
-4.149553215233e-05 3.058878692457e-04 0.0 
0.0 0.0 0.0 
1.090057739821e-04 7.741955531460e-06 0.0 
7.741955531460e-06 6.441786431117e-04 0.0 
0.0 0.0 0.0 
-1.252274438012e-04 3.148503464831e-05 0.0 
3.148503464831e-05 2.070853996924e-03 0.0 
0.0 0.0 0.0 
9.868300679883e-05 -1.162910856314e-05 0.0 
-1.162910856314e-05 4.167644305755e-04 0.0 
0.0 0.0 0.0 
-9.293808778532e-05 2.174583781206e-05 0.0 
2.174583781206e-05 2.188134057570e-03 0.0 
0.0 0.0 0.0 
-1.151465486808e-04 1.609941056903e-05 0.0 
1.609941056903e-05 2.102706660272e-03 0.0 
0.0 0.0 0.0 
1.178427953403e-04 1.017495506044e-05 0.0 
1.017495506044e-05 6.245315170210e-04 0.0 
0.0 0.0 0.0 
9.017065679440e-05 1.212564662907e-05 0.0 
1.212564662907e-05 8.845943614721e-04 0.0 
0.0 0.0 0.0 
8.597308833069e-05 2.025870812887e-05 0.0 
2.025870812887e-05 9.265253908943e-04 0.0 
0.0 0.0 0.0 
-9.504932376736e-05 3.137115793335e-05 0.0 
3.137115793335e-05 2.158494190344e-03 0.0 
0.0 0.0 0.0 
4.252469136024e-05 -2.923688222302e-05 0.0 
-2.923688222302e-05 2.221443396728e-04 0.0 
0.0 0.0 0.0 
1.130007777324e-04 5.446991749994e-06 0.0 
5.446991749994e-06 5.890895569791e-04 0.0 
0.0 0.0 0.0 
9.792013523424e-05 2.823519437698e-04 0.0 
2.823519437698e-04 1.297397756582e-03 0.0 
0.0 0.0 0.0 
-1.042101689773e-04 3.567074996469e-05 0.0 
3.567074996469e-05 2.184475974437e-03 0.0 
0.0 0.0 0.0 
1.086740541894e-04 7.312742840310e-07 0.0 
7.312742840310e-07 5.267869103172e-04 0.0 
0.0 0.0 0.0 
1.199749264267e-04 3.407883809466e-05 0.0 
3.407883809466e-05 7.809680733875e-04 0.0 
0.0 0.0 0.0 
6.936169948379e-05 9.822316570227e-05 0.0 
9.822316570227e-05 1.100799928466e-03 0.0 
0.0 0.0 0.0 
-1.053156007971e-04 3.245107264291e-05 0.0 
3.245107264291e-05 2.129801023191e-03 0.0 
0.0 0.0 0.0 
-4.191010468946e-05 -1.631182188936e-05 0.0 
-1.631182188936e-05 1.651923406714e-04 0.0 
0.0 0.0 0.0 
8.057702296949e-06 -3.128335546288e-05 0.0 
-3.128335546288e-05 1.247484505320e-04 0.0 
0.0 0.0 0.0 
5.651905872472e-05 1.824894689719e-05 0.0 
1.824894689719e-05 3.243840555636e-04 0.0 
0.0 0.0 0.0 
7.464433428073e-05 3.641022269827e-05 0.0 
3.641022269827e-05 9.992273877930e-04 0.0 
0.0 0.0 0.0 
-1.157235155985e-04 3.250543489388e-05 0.0 
3.250543489388e-05 2.100701362018e-03 0.0 
0.0 0.0 0.0 
1.059150314953e-04 -4.396003089615e-07 0.0 
-4.396003089615e-07 7.099851082286e-04 0.0 
0.0 0.0 0.0 
-1.295526900033e-04 2.029973068547e-05 0.0 
2.029973068547e-05 2.011811967287e-03 0.0 
0.0 0.0 0.0 
9.533269787165e-05 1.390327473450e-04 0.0 
1.390327473450e-04 1.080158788943e-03 0.0 
0.0 0.0 0.0 
1.145201753927e-04 1.107662635579e-05 0.0 
1.107662635579e-05 6.521328665445e-04 0.0 
0.0 0.0 0.0 
8.929453583084e-05 3.181634436090e-05 0.0 
3.181634436090e-05 9.247357412698e-04 0.0 
0.0 0.0 0.0 
5.459055266122e-05 -2.094699528342e-05 0.0 
-2.094699528342e-05 2.678636334965e-04 0.0 
0.0 0.0 0.0 
6.222251919707e-05 8.303812291998e-05 0.0 
8.303812291998e-05 1.109804227249e-03 0.0 
0.0 0.0 0.0 
1.103752211336e-04 -7.396930907674e-07 0.0 
-7.396930907674e-07 6.262971727446e-04 0.0 
0.0 0.0 0.0 
5.891913996470e-05 -1.670621466776e-05 0.0 
-1.670621466776e-05 2.916245148208e-04 0.0 
0.0 0.0 0.0 
1.066321481380e-04 -5.323908969113e-06 0.0 
-5.323908969113e-06 5.908920967237e-04 0.0 
0.0 0.0 0.0 
1.001932193723e-04 -8.162887405653e-06 0.0 
-8.162887405653e-06 4.419809971516e-04 0.0 
0.0 0.0 0.0 
7.458970109542e-05 -3.230970463267e-05 0.0 
-3.230970463267e-05 3.377646052611e-04 0.0 
0.0 0.0 0.0 
1.079373458701e-04 1.040372986741e-05 0.0 
1.040372986741e-05 7.078689366520e-04 0.0 
0.0 0.0 0.0 
-1.658741708976e-05 -7.539648573866e-06 0.0 
-7.539648573866e-06 2.702405129029e-05 0.0 
0.0 0.0 0.0 
-2.788532277964e-05 -8.041947802621e-06 0.0 
-8.041947802621e-06 3.193826273273e-05 0.0 
0.0 0.0 0.0 
1.019405719662e-04 1.861401295929e-05 0.0 
1.861401295929e-05 8.245814640631e-04 0.0 
0.0 0.0 0.0 
4.876906803197e-05 -2.546863973089e-05 0.0 
-2.546863973089e-05 2.449463360710e-04 0.0 
0.0 0.0 0.0 
1.063863891606e-04 3.059707727271e-05 0.0 
3.059707727271e-05 8.369883240071e-04 0.0 
0.0 0.0 0.0 
1.132472117764e-04 3.268130648301e-05 0.0 
3.268130648301e-05 8.086430457170e-04 0.0 
0.0 0.0 0.0 
1.186574107133e-04 -3.629135927650e-06 0.0 
-3.629135927650e-06 4.833714787609e-04 0.0 
0.0 0.0 0.0 
9.105996962155e-05 -1.818539076115e-05 0.0 
-1.818539076115e-05 3.148711137055e-04 0.0 
0.0 0.0 0.0 
-1.012255139757e-04 6.472566340671e-05 0.0 
6.472566340671e-05 2.229616712176e-03 0.0 
0.0 0.0 0.0 
-2.914108120633e-05 5.701937322076e-05 0.0 
5.701937322076e-05 2.152451838673e-04 0.0 
0.0 0.0 0.0 
1.011591720905e-04 -4.989374566428e-06 0.0 
-4.989374566428e-06 4.680100541583e-04 0.0 
0.0 0.0 0.0 
8.403297864090e-05 1.631083054346e-04 0.0 
1.631083054346e-04 1.137346019119e-03 0.0 
0.0 0.0 0.0 
4.422943600080e-05 -1.248539278403e-05 0.0 
-1.248539278403e-05 2.092108215663e-04 0.0 
0.0 0.0 0.0 
-1.335413998427e-04 1.623487476369e-05 0.0 
1.623487476369e-05 2.043689531380e-03 0.0 
0.0 0.0 0.0 
-1.351878853836e-04 6.176614874559e-06 0.0 
6.176614874559e-06 1.981881208657e-03 0.0 
0.0 0.0 0.0 
3.447312109284e-05 -4.011095798792e-05 0.0 
-4.011095798792e-05 2.063407080446e-04 0.0 
0.0 0.0 0.0 
8.150382643235e-05 1.065561676698e-04 0.0 
1.065561676698e-04 1.071811452072e-03 0.0 
0.0 0.0 0.0 
-1.339142765212e-04 5.324648458748e-05 0.0 
5.324648458748e-05 2.152031146014e-03 0.0 
0.0 0.0 0.0 
5.115198218353e-05 -1.582692004558e-05 0.0 
-1.582692004558e-05 2.429841514258e-04 0.0 
0.0 0.0 0.0 
-9.866352098165e-05 8.252379517645e-05 0.0 
8.252379517645e-05 2.248932556680e-03 0.0 
0.0 0.0 0.0 
-8.086778002303e-05 8.628103020302e-05 0.0 
8.628103020302e-05 2.248237816709e-03 0.0 
0.0 0.0 0.0 
5.657742143117e-05 -2.917438329645e-05 0.0 
-2.917438329645e-05 2.750821783031e-04 0.0 
0.0 0.0 0.0 
-2.233503338445e-05 2.273775068454e-04 0.0 
2.273775068454e-04 8.755159844074e-04 0.0 
0.0 0.0 0.0 
5.941916052166e-05 -3.579994761810e-05 0.0 
-3.579994761810e-05 2.827744161076e-04 0.0 
0.0 0.0 0.0 
9.306334080139e-05 2.464475281818e-05 0.0 
2.464475281818e-05 8.957241715724e-04 0.0 
0.0 0.0 0.0 
1.111572927341e-04 1.119780758629e-05 0.0 
1.119780758629e-05 6.801936913823e-04 0.0 
0.0 0.0 0.0 
-1.052742838354e-04 2.378422151923e-04 0.0 
2.378422151923e-04 2.126699394715e-03 0.0 
0.0 0.0 0.0 
-8.602824080295e-05 6.884898031485e-05 0.0 
6.884898031485e-05 2.229080305034e-03 0.0 
0.0 0.0 0.0 
9.963722239470e-05 2.793833843194e-05 0.0 
2.793833843194e-05 8.661336019846e-04 0.0 
0.0 0.0 0.0 
1.059700491992e-04 3.963457179825e-05 0.0 
3.963457179825e-05 8.643058737123e-04 0.0 
0.0 0.0 0.0 
4.588455412269e-05 -2.477472865970e-05 0.0 
-2.477472865970e-05 2.268298644506e-04 0.0 
0.0 0.0 0.0 
9.764026548220e-05 3.599630393177e-05 0.0 
3.599630393177e-05 8.939598521569e-04 0.0 
0.0 0.0 0.0 
-1.170129044274e-04 5.711429089616e-05 0.0 
5.711429089616e-05 2.151521892201e-03 0.0 
0.0 0.0 0.0 
1.069122647104e-04 8.375580950351e-07 0.0 
8.375580950351e-07 6.818240818636e-04 0.0 
0.0 0.0 0.0 
-1.278933283888e-04 2.644562010177e-05 0.0 
2.644562010177e-05 2.101447691401e-03 0.0 
0.0 0.0 0.0 
-1.187983212798e-04 5.168982810065e-05 0.0 
5.168982810065e-05 2.180263882356e-03 0.0 
0.0 0.0 0.0 
1.633668517305e-04 1.631044446451e-04 0.0 
1.631044446451e-04 7.716484203546e-04 0.0 
0.0 0.0 0.0 
-8.956356012368e-05 5.434859815348e-05 0.0 
5.434859815348e-05 2.207419360796e-03 0.0 
0.0 0.0 0.0 
1.074937319423e-04 3.165348846656e-06 0.0 
3.165348846656e-06 5.571775596078e-04 0.0 
0.0 0.0 0.0 
1.086008092872e-04 3.808527850633e-07 0.0 
3.808527850633e-07 6.538511196945e-04 0.0 
0.0 0.0 0.0 
9.132180992255e-05 -8.277176341663e-06 0.0 
-8.277176341663e-06 4.105786263282e-04 0.0 
0.0 0.0 0.0 
1.059786902640e-04 -2.276107153681e-05 0.0 
-2.276107153681e-05 4.369710626662e-04 0.0 
0.0 0.0 0.0 
-1.164717512511e-04 4.350343461405e-05 0.0 
4.350343461405e-05 2.126914327200e-03 0.0 
0.0 0.0 0.0 
1.381087500871e-04 2.221610327647e-05 0.0 
2.221610327647e-05 6.367136365579e-04 0.0 
0.0 0.0 0.0 
6.517647257986e-05 -3.153286238996e-05 0.0 
-3.153286238996e-05 3.063156067520e-04 0.0 
0.0 0.0 0.0 
1.509995615256e-05 -3.706721289791e-05 0.0 
-3.706721289791e-05 1.542133254613e-04 0.0 
0.0 0.0 0.0 
-1.310281879571e-04 3.857240121984e-05 0.0 
3.857240121984e-05 2.127539387826e-03 0.0 
0.0 0.0 0.0 
7.059981239976e-05 -2.018987437074e-05 0.0 
-2.018987437074e-05 3.045257780874e-04 0.0 
0.0 0.0 0.0 
6.582963973578e-05 1.037664906323e-04 0.0 
1.037664906323e-04 1.125535693457e-03 0.0 
0.0 0.0 0.0 
-1.045499247034e-04 4.325940738878e-05 0.0 
4.325940738878e-05 2.155540804868e-03 0.0 
0.0 0.0 0.0 
9.356584711484e-05 4.666408895008e-05 0.0 
4.666408895008e-05 9.372428727517e-04 0.0 
0.0 0.0 0.0 
3.399594110998e-05 2.269506112067e-04 0.0 
2.269506112067e-04 1.312022181392e-03 0.0 
0.0 0.0 0.0 
1.021977809479e-04 -1.024981679671e-05 0.0 
-1.024981679671e-05 5.291598200876e-04 0.0 
0.0 0.0 0.0 
6.028015830295e-05 -1.854758783936e-05 0.0 
-1.854758783936e-05 2.734199732379e-04 0.0 
0.0 0.0 0.0 
2.568786368151e-05 -2.293462641362e-05 0.0 
-2.293462641362e-05 1.729249767717e-04 0.0 
0.0 0.0 0.0 
1.041927467100e-04 4.243910622255e-05 0.0 
4.243910622255e-05 8.800594643881e-04 0.0 
0.0 0.0 0.0 
-1.151996846709e-04 2.414181616388e-05 0.0 
2.414181616388e-05 2.073613949285e-03 0.0 
0.0 0.0 0.0 
6.141981836016e-06 -1.990605785229e-05 0.0 
-1.990605785229e-05 1.219992139756e-04 0.0 
0.0 0.0 0.0 
9.102617127099e-05 -2.288213215628e-05 0.0 
-2.288213215628e-05 4.185378467541e-04 0.0 
0.0 0.0 0.0 
4.778934133576e-05 -1.702752880602e-05 0.0 
-1.702752880602e-05 2.371096445362e-04 0.0 
0.0 0.0 0.0 
-1.382043620317e-04 2.616214462181e-05 0.0 
2.616214462181e-05 2.071513610209e-03 0.0 
0.0 0.0 0.0 
9.368409667498e-05 -1.888451658734e-05 0.0 
-1.888451658734e-05 4.436597083051e-04 0.0 
0.0 0.0 0.0 
1.227891040745e-04 4.489556126381e-05 0.0 
4.489556126381e-05 8.066483462661e-04 0.0 
0.0 0.0 0.0 
8.621683323784e-05 -1.926941865498e-05 0.0 
-1.926941865498e-05 4.117394006833e-04 0.0 
0.0 0.0 0.0 
-9.035598163387e-05 3.248052567472e-05 0.0 
3.248052567472e-05 2.212173668535e-03 0.0 
0.0 0.0 0.0 
8.569269269021e-05 -1.654358312237e-05 0.0 
-1.654358312237e-05 3.601355717626e-04 0.0 
0.0 0.0 0.0 
1.098334898495e-04 5.940336638072e-05 0.0 
5.940336638072e-05 8.970864157452e-04 0.0 
0.0 0.0 0.0 
4.899902888833e-05 -4.630160206473e-05 0.0 
-4.630160206473e-05 2.529367264144e-04 0.0 
0.0 0.0 0.0 
1.121898775047e-04 4.516174505560e-05 0.0 
4.516174505560e-05 8.517129785932e-04 0.0 
0.0 0.0 0.0 
1.063050363210e-04 -2.374237897739e-06 0.0 
-2.374237897739e-06 6.197484053412e-04 0.0 
0.0 0.0 0.0 
1.031967548053e-04 5.102890495030e-05 0.0 
5.102890495030e-05 9.073599203344e-04 0.0 
0.0 0.0 0.0 
1.442865779839e-04 5.117092749157e-05 0.0 
5.117092749157e-05 4.604531413563e-04 0.0 
0.0 0.0 0.0 
4.958784343145e-05 -7.840798472536e-06 0.0 
-7.840798472536e-06 2.347622843082e-04 0.0 
0.0 0.0 0.0 
-1.292884726881e-04 8.714712013320e-06 0.0 
8.714712013320e-06 2.014972695378e-03 0.0 
0.0 0.0 0.0 
1.455130042194e-04 1.151077669410e-04 0.0 
1.151077669410e-04 8.828373258181e-04 0.0 
0.0 0.0 0.0 
4.477063317543e-05 2.756430817733e-04 0.0 
2.756430817733e-04 1.049017088071e-03 0.0 
0.0 0.0 0.0 
-1.249114144520e-04 1.669427025570e-05 0.0 
1.669427025570e-05 2.073860074758e-03 0.0 
0.0 0.0 0.0 
6.371509113268e-05 -4.384134837847e-05 0.0 
-4.384134837847e-05 2.848777788087e-04 0.0 
0.0 0.0 0.0 
-1.421859526610e-04 5.579466691026e-05 0.0 
5.579466691026e-05 2.092787094248e-03 0.0 
0.0 0.0 0.0 
4.130500262001e-05 -2.143431388152e-05 0.0 
-2.143431388152e-05 2.126932617244e-04 0.0 
0.0 0.0 0.0 
7.856219214952e-05 8.118240971982e-05 0.0 
8.118240971982e-05 1.049576982667e-03 0.0 
0.0 0.0 0.0 
1.406455998811e-04 1.384177272845e-04 0.0 
1.384177272845e-04 9.429645873149e-04 0.0 
0.0 0.0 0.0 
1.157576013406e-04 2.259013471206e-04 0.0 
2.259013471206e-04 1.143788327566e-03 0.0 
0.0 0.0 0.0 
-7.853197993790e-05 7.727416305277e-05 0.0 
7.727416305277e-05 2.276561671243e-03 0.0 
0.0 0.0 0.0 
1.382622076096e-04 3.647142217183e-05 0.0 
3.647142217183e-05 7.035935816946e-04 0.0 
0.0 0.0 0.0 
4.408879854911e-05 -1.932154015822e-05 0.0 
-1.932154015822e-05 2.199633697377e-04 0.0 
0.0 0.0 0.0 
1.275168330825e-04 4.930193353644e-05 0.0 
4.930193353644e-05 7.980446497828e-04 0.0 
0.0 0.0 0.0 
7.697992345546e-05 1.120643705613e-04 0.0 
1.120643705613e-04 1.098610683243e-03 0.0 
0.0 0.0 0.0 
9.836081564618e-05 -2.897551961752e-05 0.0 
-2.897551961752e-05 3.739110078622e-04 0.0 
0.0 0.0 0.0 
9.619898864011e-05 3.902286453588e-05 0.0 
3.902286453588e-05 9.092305438805e-04 0.0 
0.0 0.0 0.0 
-1.178789730705e-04 3.754400953797e-05 0.0 
3.754400953797e-05 2.156254419685e-03 0.0 
0.0 0.0 0.0 
8.365748323169e-05 -1.617625866463e-05 0.0 
-1.617625866463e-05 2.940616006089e-04 0.0 
0.0 0.0 0.0 
1.199992635090e-04 4.738454335962e-05 0.0 
4.738454335962e-05 8.243945985509e-04 0.0 
0.0 0.0 0.0 
-1.543561033487e-04 2.318262291897e-05 0.0 
2.318262291897e-05 2.008893299834e-03 0.0 
0.0 0.0 0.0 
6.696085925295e-05 -1.986112871443e-05 0.0 
-1.986112871443e-05 3.232729920568e-04 0.0 
0.0 0.0 0.0 
8.815053460176e-05 -2.717413726122e-05 0.0 
-2.717413726122e-05 3.938237199852e-04 0.0 
0.0 0.0 0.0 
5.249100220839e-05 2.704272016503e-04 0.0 
2.704272016503e-04 1.176194017505e-03 0.0 
0.0 0.0 0.0 
1.128195829019e-04 5.464670339019e-05 0.0 
5.464670339019e-05 8.781299099105e-04 0.0 
0.0 0.0 0.0 
-2.331480713780e-05 2.736903320011e-04 0.0 
2.736903320011e-04 1.145380692825e-03 0.0 
0.0 0.0 0.0 
7.271987283008e-05 2.514453989344e-04 0.0 
2.514453989344e-04 1.078873194087e-03 0.0 
0.0 0.0 0.0 
-1.300261301588e-04 5.677196167884e-05 0.0 
5.677196167884e-05 2.122541175819e-03 0.0 
0.0 0.0 0.0 
-1.228363686365e-04 2.298996872079e-05 0.0 
2.298996872079e-05 2.042869650337e-03 0.0 
0.0 0.0 0.0 
-1.470401778125e-04 3.802060615519e-05 0.0 
3.802060615519e-05 2.037372238325e-03 0.0 
0.0 0.0 0.0 
1.109122852516e-04 6.600909885101e-06 0.0 
6.600909885101e-06 6.177315690172e-04 0.0 
0.0 0.0 0.0 
9.308624369919e-05 1.119771129598e-04 0.0 
1.119771129598e-04 1.047298988918e-03 0.0 
0.0 0.0 0.0 
1.346225109771e-04 5.098456025280e-05 0.0 
5.098456025280e-05 7.728205421047e-04 0.0 
0.0 0.0 0.0 
-1.414707612895e-04 1.487698066225e-05 0.0 
1.487698066225e-05 2.012471065008e-03 0.0 
0.0 0.0 0.0 
-9.400673280124e-05 3.049336227356e-04 0.0 
3.049336227356e-04 2.026154220409e-03 0.0 
0.0 0.0 0.0 
9.993125182151e-05 2.493942926605e-04 0.0 
2.493942926605e-04 1.222888695229e-03 0.0 
0.0 0.0 0.0 
1.223214187649e-04 5.774160101757e-05 0.0 
5.774160101757e-05 8.497158569727e-04 0.0 
0.0 0.0 0.0 
-1.033899049900e-04 5.625965893376e-05 0.0 
5.625965893376e-05 2.179676718929e-03 0.0 
0.0 0.0 0.0 
1.072428439790e-04 -1.978222790479e-05 0.0 
-1.978222790479e-05 4.605319295963e-04 0.0 
0.0 0.0 0.0 
9.763439487864e-05 -2.452247047061e-05 0.0 
-2.452247047061e-05 4.266352886606e-04 0.0 
0.0 0.0 0.0 
4.295004023214e-05 -3.719358406118e-05 0.0 
-3.719358406118e-05 2.287573161848e-04 0.0 
0.0 0.0 0.0 
1.271465159081e-04 6.538904590633e-05 0.0 
6.538904590633e-05 8.444134857084e-04 0.0 
0.0 0.0 0.0 
9.934010109602e-05 -2.065649519307e-05 0.0 
-2.065649519307e-05 4.515348630236e-04 0.0 
0.0 0.0 0.0 
-1.433949412664e-04 3.857099109680e-05 0.0 
3.857099109680e-05 2.098106990337e-03 0.0 
0.0 0.0 0.0 
-1.548362462936e-04 3.801825563845e-05 0.0 
3.801825563845e-05 2.067986837660e-03 0.0 
0.0 0.0 0.0 
1.556977321051e-04 1.269151067747e-04 0.0 
1.269151067747e-04 7.752024877701e-04 0.0 
0.0 0.0 0.0 
9.388171096414e-05 -1.851159329782e-05 0.0 
-1.851159329782e-05 3.676414652416e-04 0.0 
0.0 0.0 0.0 
1.334751044100e-04 1.009890928193e-04 0.0 
1.009890928193e-04 5.007758410862e-04 0.0 
0.0 0.0 0.0 
9.661702839825e-05 -1.515063465619e-05 0.0 
-1.515063465619e-05 3.919100978835e-04 0.0 
0.0 0.0 0.0 
1.077207848188e-04 -1.167839600159e-05 0.0 
-1.167839600159e-05 4.245942480372e-04 0.0 
0.0 0.0 0.0 
5.372548015981e-05 -2.202656587506e-05 0.0 
-2.202656587506e-05 2.500641869090e-04 0.0 
0.0 0.0 0.0 
1.043367447777e-04 1.176810395608e-04 0.0 
1.176810395608e-04 1.022994754882e-03 0.0 
0.0 0.0 0.0 
1.401175551858e-04 1.203383140242e-05 0.0 
1.203383140242e-05 5.306942767338e-04 0.0 
0.0 0.0 0.0 
-1.031809307660e-04 4.892750854895e-05 0.0 
4.892750854895e-05 2.208103571100e-03 0.0 
0.0 0.0 0.0 
1.494300443712e-04 2.462724571142e-05 0.0 
2.462724571142e-05 5.697349495346e-04 0.0 
0.0 0.0 0.0 
1.404962925373e-04 6.315076186745e-05 0.0 
6.315076186745e-05 7.958565104593e-04 0.0 
0.0 0.0 0.0 
1.481429497165e-04 3.702538561022e-05 0.0 
3.702538561022e-05 6.585693265913e-04 0.0 
0.0 0.0 0.0 
1.087021344677e-04 2.156245547779e-04 0.0 
2.156245547779e-04 9.592582780802e-04 0.0 
0.0 0.0 0.0 
5.015878560211e-05 -3.328931993763e-05 0.0 
-3.328931993763e-05 2.519487238817e-04 0.0 
0.0 0.0 0.0 
8.989526111214e-05 1.173151884660e-04 0.0 
1.173151884660e-04 1.069752137566e-03 0.0 
0.0 0.0 0.0 
7.056495291735e-05 1.250944575263e-04 0.0 
1.250944575263e-04 1.132126972301e-03 0.0 
0.0 0.0 0.0 
3.090956479035e-05 3.089332411778e-04 0.0 
3.089332411778e-04 1.397856933911e-03 0.0 
0.0 0.0 0.0 
1.188717277876e-04 -6.046926157391e-06 0.0 
-6.046926157391e-06 4.583429348353e-04 0.0 
0.0 0.0 0.0 
1.463351220328e-04 5.004795244636e-05 0.0 
5.004795244636e-05 7.260445952786e-04 0.0 
0.0 0.0 0.0 
-1.276547573943e-04 4.274993184942e-05 0.0 
4.274993184942e-05 2.097569600489e-03 0.0 
0.0 0.0 0.0 
1.078858192705e-04 -1.641993726029e-05 0.0 
-1.641993726029e-05 4.853949226593e-04 0.0 
0.0 0.0 0.0 
5.819198013768e-05 2.352014669006e-04 0.0 
2.352014669006e-04 9.531375438427e-04 0.0 
0.0 0.0 0.0 
7.870440074509e-05 -2.785749494388e-05 0.0 
-2.785749494388e-05 3.619238092463e-04 0.0 
0.0 0.0 0.0 
7.826005481393e-05 -3.845825739066e-05 0.0 
-3.845825739066e-05 3.180742338658e-04 0.0 
0.0 0.0 0.0 
1.167704853153e-04 -1.284590053748e-05 0.0 
-1.284590053748e-05 4.957573147728e-04 0.0 
0.0 0.0 0.0 
7.538884236236e-05 -1.642966488932e-05 0.0 
-1.642966488932e-05 3.286478835642e-04 0.0 
0.0 0.0 0.0 
6.199871732071e-05 -2.481471570203e-05 0.0 
-2.481471570203e-05 2.988638599561e-04 0.0 
0.0 0.0 0.0 
1.339779079965e-04 2.237230136062e-05 0.0 
2.237230136062e-05 6.608986829402e-04 0.0 
0.0 0.0 0.0 
1.316131282627e-04 6.058923940853e-05 0.0 
6.058923940853e-05 8.223020809015e-04 0.0 
0.0 0.0 0.0 
1.094482140451e-05 3.362148422229e-04 0.0 
3.362148422229e-04 1.614514189429e-03 0.0 
0.0 0.0 0.0 
-3.735151108120e-05 -5.401821207281e-06 0.0 
-5.401821207281e-06 3.233156959270e-05 0.0 
0.0 0.0 0.0 
1.624791094548e-04 4.484493470604e-05 0.0 
4.484493470604e-05 5.694146770840e-04 0.0 
0.0 0.0 0.0 
1.519256483757e-04 2.559556324865e-05 0.0 
2.559556324865e-05 5.470568188810e-04 0.0 
0.0 0.0 0.0 
1.298941339491e-04 1.794420294236e-06 0.0 
1.794420294236e-06 4.935756257598e-04 0.0 
0.0 0.0 0.0 
-1.378641162828e-04 4.075572590609e-05 0.0 
4.075572590609e-05 2.067617166957e-03 0.0 
0.0 0.0 0.0 
1.460327024665e-04 2.429059320161e-05 0.0 
2.429059320161e-05 5.934092365607e-04 0.0 
0.0 0.0 0.0 
8.886268678610e-05 -1.257077020177e-05 0.0 
-1.257077020177e-05 3.849064060546e-04 0.0 
0.0 0.0 0.0 
1.259219864074e-04 -3.279389527807e-06 0.0 
-3.279389527807e-06 5.331246696358e-04 0.0 
0.0 0.0 0.0 
-9.257071954438e-05 4.180913203842e-05 0.0 
4.180913203842e-05 2.183724849686e-03 0.0 
0.0 0.0 0.0 
8.197371630669e-05 -2.331451630644e-05 0.0 
-2.331451630644e-05 3.866148422738e-04 0.0 
0.0 0.0 0.0 
1.770719757466e-05 -1.862816325247e-05 0.0 
-1.862816325247e-05 1.411504634452e-04 0.0 
0.0 0.0 0.0 
3.559143381571e-05 -2.170949491769e-05 0.0 
-2.170949491769e-05 1.962033679346e-04 0.0 
0.0 0.0 0.0 
9.689888247610e-05 -1.858158603780e-05 0.0 
-1.858158603780e-05 3.364269479840e-04 0.0 
0.0 0.0 0.0 
1.061138707683e-04 -1.458507303073e-05 0.0 
-1.458507303073e-05 4.006069458298e-04 0.0 
0.0 0.0 0.0 
1.605595640650e-04 4.169099550677e-05 0.0 
4.169099550677e-05 5.895554453652e-04 0.0 
0.0 0.0 0.0 
1.342889532145e-04 8.545545369789e-06 0.0 
8.545545369789e-06 5.724730042416e-04 0.0 
0.0 0.0 0.0 
3.963772657190e-05 -4.829122446135e-05 0.0 
-4.829122446135e-05 2.315172334677e-04 0.0 
0.0 0.0 0.0 
3.487890725595e-05 -3.356218482177e-05 0.0 
-3.356218482177e-05 1.979483200409e-04 0.0 
0.0 0.0 0.0 
-1.866090358140e-04 5.470963386168e-05 0.0 
5.470963386168e-05 2.028945548969e-03 0.0 
0.0 0.0 0.0 
7.010709580624e-05 -2.706722242274e-05 0.0 
-2.706722242274e-05 3.302993579002e-04 0.0 
0.0 0.0 0.0 
1.235087301483e-04 1.113978816607e-04 0.0 
1.113978816607e-04 9.670984692078e-04 0.0 
0.0 0.0 0.0 
2.965394520982e-05 3.263016680718e-04 0.0 
3.263016680718e-04 1.523196973493e-03 0.0 
0.0 0.0 0.0 
-1.971278238155e-04 2.217575034636e-04 0.0 
2.217575034636e-04 1.910987808503e-03 0.0 
0.0 0.0 0.0 
-1.120885894429e-04 1.142042454758e-04 0.0 
1.142042454758e-04 2.207701697224e-03 0.0 
0.0 0.0 0.0 
-3.279641835885e-06 3.430440280048e-04 0.0 
3.430440280048e-04 1.702372127371e-03 0.0 
0.0 0.0 0.0 
1.501136290183e-04 1.375939051514e-04 0.0 
1.375939051514e-04 7.755432603955e-04 0.0 
0.0 0.0 0.0 
3.072507225488e-05 3.163568613586e-04 0.0 
3.163568613586e-04 1.460188015758e-03 0.0 
0.0 0.0 0.0 
5.459496205407e-05 -4.554652810651e-05 0.0 
-4.554652810651e-05 2.640356769426e-04 0.0 
0.0 0.0 0.0 
1.243641876971e-04 -1.521954061423e-06 0.0 
-1.521954061423e-06 5.571915317051e-04 0.0 
0.0 0.0 0.0 
1.405101050647e-04 1.910226754834e-04 0.0 
1.910226754834e-04 7.858638261349e-04 0.0 
0.0 0.0 0.0 
9.280171244708e-05 1.737732632142e-06 0.0 
1.737732632142e-06 3.124033974831e-04 0.0 
0.0 0.0 0.0 
2.641316133456e-05 -4.912701952484e-05 0.0 
-4.912701952484e-05 2.127085647066e-04 0.0 
0.0 0.0 0.0 
1.086461599014e-04 -8.605711888498e-06 0.0 
-8.605711888498e-06 4.496392561264e-04 0.0 
0.0 0.0 0.0 
1.361867034921e-04 8.221083305979e-06 0.0 
8.221083305979e-06 5.501692260728e-04 0.0 
0.0 0.0 0.0 
1.440894334064e-04 2.332556418706e-05 0.0 
2.332556418706e-05 5.926003495542e-04 0.0 
0.0 0.0 0.0 
7.934045048974e-05 -1.251531846232e-05 0.0 
-1.251531846232e-05 3.531120674587e-04 0.0 
0.0 0.0 0.0 
1.532894167560e-04 3.792226699997e-05 0.0 
3.792226699997e-05 6.342235586640e-04 0.0 
0.0 0.0 0.0 
1.456705281377e-04 2.506806883811e-05 0.0 
2.506806883811e-05 5.729608096674e-04 0.0 
0.0 0.0 0.0 
1.694995435904e-04 6.413698170786e-05 0.0 
6.413698170786e-05 6.166289552914e-04 0.0 
0.0 0.0 0.0 
9.530436657856e-05 -2.823588118831e-05 0.0 
-2.823588118831e-05 4.026959410355e-04 0.0 
0.0 0.0 0.0 
1.380442947223e-04 1.688820236070e-04 0.0 
1.688820236070e-04 9.982902956627e-04 0.0 
0.0 0.0 0.0 
-1.483005588558e-04 5.427555026310e-05 0.0 
5.427555026310e-05 2.122890393403e-03 0.0 
0.0 0.0 0.0 
1.700365343642e-04 7.006672306692e-05 0.0 
7.006672306692e-05 6.006243763952e-04 0.0 
0.0 0.0 0.0 
1.040928784588e-04 1.250929605821e-04 0.0 
1.250929605821e-04 1.045249416384e-03 0.0 
0.0 0.0 0.0 
7.061954355891e-05 -3.901502899977e-05 0.0 
-3.901502899977e-05 2.975594108894e-04 0.0 
0.0 0.0 0.0 
8.373492099056e-05 1.701265671292e-04 0.0 
1.701265671292e-04 1.163982332610e-03 0.0 
0.0 0.0 0.0 
1.573747109873e-04 3.935528060184e-05 0.0 
3.935528060184e-05 6.110569084672e-04 0.0 
0.0 0.0 0.0 
-1.052084062036e-05 3.569693300589e-04 0.0 
3.569693300589e-04 1.792645005148e-03 0.0 
0.0 0.0 0.0 
-7.395831191603e-05 3.069045632704e-04 0.0 
3.069045632704e-04 1.618728932337e-03 0.0 
0.0 0.0 0.0 
7.393534547084e-05 -2.531769292186e-05 0.0 
-2.531769292186e-05 2.819758034274e-04 0.0 
0.0 0.0 0.0 
-1.727306578420e-04 2.523608499125e-04 0.0 
2.523608499125e-04 1.878034368382e-03 0.0 
0.0 0.0 0.0 
-1.168966713674e-04 1.707385596319e-04 0.0 
1.707385596319e-04 2.187726459353e-03 0.0 
0.0 0.0 0.0 
1.636267949814e-04 5.617208497032e-05 0.0 
5.617208497032e-05 6.553735241865e-04 0.0 
0.0 0.0 0.0 
7.944630428525e-05 1.834238318556e-04 0.0 
1.834238318556e-04 7.577092657265e-04 0.0 
0.0 0.0 0.0 
-1.448339888118e-04 2.759952571917e-04 0.0 
2.759952571917e-04 1.839372108722e-03 0.0 
0.0 0.0 0.0 
5.089092631239e-05 2.810073850175e-04 0.0 
2.810073850175e-04 1.110811603713e-03 0.0 
0.0 0.0 0.0 
4.716542906058e-05 -2.925184296210e-05 0.0 
-2.925184296210e-05 2.283609446638e-04 0.0 
0.0 0.0 0.0 
-5.587526719497e-05 1.510704966981e-04 0.0 
1.510704966981e-04 2.287752333942e-03 0.0 
0.0 0.0 0.0 
2.919071788088e-05 -2.948917671181e-05 0.0 
-2.948917671181e-05 1.979567032329e-04 0.0 
0.0 0.0 0.0 
7.695601643021e-05 2.568170069198e-04 0.0 
2.568170069198e-04 1.299461733270e-03 0.0 
0.0 0.0 0.0 
-7.056246994708e-05 6.471589068990e-05 0.0 
6.471589068990e-05 2.255682959539e-03 0.0 
0.0 0.0 0.0 
1.332046388616e-04 1.620495387674e-04 0.0 
1.620495387674e-04 1.007289975097e-03 0.0 
0.0 0.0 0.0 
-1.336884059095e-04 2.973444661236e-05 0.0 
2.973444661236e-05 2.039542600930e-03 0.0 
0.0 0.0 0.0 
-1.359914527032e-04 9.122445197888e-05 0.0 
9.122445197888e-05 2.192914073482e-03 0.0 
0.0 0.0 0.0 
1.524748838755e-04 4.366544369827e-05 0.0 
4.366544369827e-05 6.200674631236e-04 0.0 
0.0 0.0 0.0 
1.544184456233e-04 1.429367453020e-04 0.0 
1.429367453020e-04 8.465609373116e-04 0.0 
0.0 0.0 0.0 
-8.685523154273e-05 1.323429769448e-04 0.0 
1.323429769448e-04 2.248386985774e-03 0.0 
0.0 0.0 0.0 
1.203736412709e-04 7.233968429075e-05 0.0 
7.233968429075e-05 8.950081027490e-04 0.0 
0.0 0.0 0.0 
-1.520186309666e-04 7.311541345049e-05 0.0 
7.311541345049e-05 2.144851537204e-03 0.0 
0.0 0.0 0.0 
1.540861633995e-04 1.266983870718e-04 0.0 
1.266983870718e-04 8.983871384589e-04 0.0 
0.0 0.0 0.0 
6.547679631486e-05 -2.486058231104e-05 0.0 
-2.486058231104e-05 2.607134084112e-04 0.0 
0.0 0.0 0.0 
-1.538973124176e-04 9.502512482472e-05 0.0 
9.502512482472e-05 2.163159433376e-03 0.0 
0.0 0.0 0.0 
1.643301914855e-05 3.858041461816e-04 0.0 
3.858041461816e-04 1.711071180400e-03 0.0 
0.0 0.0 0.0 
7.966756337652e-05 1.392959117791e-04 0.0 
1.392959117791e-04 1.128862608718e-03 0.0 
0.0 0.0 0.0 
1.376873031620e-04 1.278124087011e-05 0.0 
1.278124087011e-05 5.549337286572e-04 0.0 
0.0 0.0 0.0 
-1.472609107237e-04 2.455289531877e-05 0.0 
2.455289531877e-05 2.040054138580e-03 0.0 
0.0 0.0 0.0 
-1.407558747791e-04 2.672812537405e-05 0.0 
2.672812537405e-05 2.008442374979e-03 0.0 
0.0 0.0 0.0 
1.415053970941e-04 2.230391866837e-05 0.0 
2.230391866837e-05 6.137682191318e-04 0.0 
0.0 0.0 0.0 
1.307277274898e-04 7.606462869422e-05 0.0 
7.606462869422e-05 8.680025031873e-04 0.0 
0.0 0.0 0.0 
1.280866662174e-04 9.298125050709e-05 0.0 
9.298125050709e-05 9.160785432099e-04 0.0 
0.0 0.0 0.0 
2.635089420577e-05 -3.574153443487e-05 0.0 
-3.574153443487e-05 1.749333798871e-04 0.0 
0.0 0.0 0.0 
1.119887511649e-04 9.102251545082e-05 0.0 
9.102251545082e-05 4.371423731888e-04 0.0 
0.0 0.0 0.0 
1.743223394199e-04 9.251792926266e-05 0.0 
9.251792926266e-05 6.544846634982e-04 0.0 
0.0 0.0 0.0 
1.529249531280e-04 4.778034808636e-05 0.0 
4.778034808636e-05 6.044831461280e-04 0.0 
0.0 0.0 0.0 
9.527053864034e-05 2.516484261517e-04 0.0 
2.516484261517e-04 9.806982294958e-04 0.0 
0.0 0.0 0.0 
-8.592776826033e-05 1.241583893693e-04 0.0 
1.241583893693e-04 2.278226706069e-03 0.0 
0.0 0.0 0.0 
-9.759071864957e-05 2.745851262501e-04 0.0 
2.745851262501e-04 2.050749208389e-03 0.0 
0.0 0.0 0.0 
-8.350209795427e-05 5.956178473437e-05 0.0 
5.956178473437e-05 2.256106050987e-03 0.0 
0.0 0.0 0.0 
-4.432296249024e-05 2.869215064759e-04 0.0 
2.869215064759e-04 1.256067244198e-03 0.0 
0.0 0.0 0.0 
-1.419889002054e-04 1.484680697484e-04 0.0 
1.484680697484e-04 2.149704565550e-03 0.0 
0.0 0.0 0.0 
1.186497481220e-04 6.258897485829e-05 0.0 
6.258897485829e-05 8.701207499522e-04 0.0 
0.0 0.0 0.0 
-7.642556108600e-05 1.049918182887e-04 0.0 
1.049918182887e-04 2.264927799166e-03 0.0 
0.0 0.0 0.0 
-1.704611023919e-04 9.875902924371e-05 0.0 
9.875902924371e-05 2.132003340761e-03 0.0 
0.0 0.0 0.0 
1.317248353820e-04 9.240912954620e-06 0.0 
9.240912954620e-06 5.958284450276e-04 0.0 
0.0 0.0 0.0 
1.724712375679e-04 1.013190490447e-04 0.0 
1.013190490447e-04 6.437572878220e-04 0.0 
0.0 0.0 0.0 
-1.318063315849e-04 9.450465455732e-05 0.0 
9.450465455732e-05 2.163145071203e-03 0.0 
0.0 0.0 0.0 
-1.137698736295e-04 1.084525397500e-04 0.0 
1.084525397500e-04 2.237479393629e-03 0.0 
0.0 0.0 0.0 
-1.169111648944e-04 7.325698007874e-05 0.0 
7.325698007874e-05 2.173598271839e-03 0.0 
0.0 0.0 0.0 
-1.316404944985e-04 7.410998518658e-05 0.0 
7.410998518658e-05 2.144666835145e-03 0.0 
0.0 0.0 0.0 
9.874276072663e-05 1.008030560180e-04 0.0 
1.008030560180e-04 1.019520858621e-03 0.0 
0.0 0.0 0.0 
8.050615777555e-05 2.623263257663e-04 0.0 
2.623263257663e-04 1.297496187353e-03 0.0 
0.0 0.0 0.0 
1.115941254546e-04 1.060059853750e-04 0.0 
1.060059853750e-04 9.921493733513e-04 0.0 
0.0 0.0 0.0 
1.388816400938e-04 4.849653826554e-05 0.0 
4.849653826554e-05 7.519611110951e-04 0.0 
0.0 0.0 0.0 
-1.414182375241e-04 2.604460484958e-04 0.0 
2.604460484958e-04 1.505770776911e-03 0.0 
0.0 0.0 0.0 
1.232213868347e-04 1.868038284555e-04 0.0 
1.868038284555e-04 1.074005521848e-03 0.0 
0.0 0.0 0.0 
-1.689238371934e-04 1.629215039588e-04 0.0 
1.629215039588e-04 2.068706073637e-03 0.0 
0.0 0.0 0.0 
6.588601072277e-05 -1.476257172940e-05 0.0 
-1.476257172940e-05 2.973224654288e-04 0.0 
0.0 0.0 0.0 
1.575841158739e-04 6.985498394426e-05 0.0 
6.985498394426e-05 6.582438706884e-04 0.0 
0.0 0.0 0.0 
1.736637199643e-04 1.003177420902e-04 0.0 
1.003177420902e-04 7.364269461616e-04 0.0 
0.0 0.0 0.0 
1.493436334119e-04 1.594178359073e-04 0.0 
1.594178359073e-04 9.192731810359e-04 0.0 
0.0 0.0 0.0 
1.007245810247e-04 2.798796957860e-05 0.0 
2.798796957860e-05 3.381292312017e-04 0.0 
0.0 0.0 0.0 
1.560708565600e-04 7.685825213648e-05 0.0 
7.685825213648e-05 6.479950882348e-04 0.0 
0.0 0.0 0.0 
1.404009179540e-04 1.761827687203e-04 0.0 
1.761827687203e-04 9.934027776444e-04 0.0 
0.0 0.0 0.0 
-9.795361958809e-05 2.923525654037e-04 0.0 
2.923525654037e-04 1.477449390511e-03 0.0 
0.0 0.0 0.0 
1.418450685600e-04 2.434080179686e-05 0.0 
2.434080179686e-05 6.183502613426e-04 0.0 
0.0 0.0 0.0 
-1.808012268425e-04 7.733562926722e-05 0.0 
7.733562926722e-05 2.082855100991e-03 0.0 
0.0 0.0 0.0 
-1.332383458114e-04 8.024800848477e-06 0.0 
8.024800848477e-06 1.911052617002e-03 0.0 
0.0 0.0 0.0 
-1.654273859124e-04 2.224212100018e-04 0.0 
2.224212100018e-04 3.209481734321e-04 0.0 
0.0 0.0 0.0 
1.325901115241e-04 3.580580527298e-05 0.0 
3.580580527298e-05 7.283008835439e-04 0.0 
0.0 0.0 0.0 
1.407833679063e-04 1.709055153287e-04 0.0 
1.709055153287e-04 1.016983113669e-03 0.0 
0.0 0.0 0.0 
-8.948338473069e-05 2.652194954403e-04 0.0 
2.652194954403e-04 2.106114208956e-03 0.0 
0.0 0.0 0.0 
1.736252910371e-04 1.402055524147e-04 0.0 
1.402055524147e-04 7.756133291850e-04 0.0 
0.0 0.0 0.0 
1.422937716673e-04 3.636266673625e-05 0.0 
3.636266673625e-05 6.840306172056e-04 0.0 
0.0 0.0 0.0 
-1.617696658851e-04 5.485710114772e-05 0.0 
5.485710114772e-05 2.092955409946e-03 0.0 
0.0 0.0 0.0 
-1.722643065777e-04 2.420343306617e-04 0.0 
2.420343306617e-04 5.241713618458e-04 0.0 
0.0 0.0 0.0 
1.477020163896e-04 1.781810382993e-04 0.0 
1.781810382993e-04 1.004777655517e-03 0.0 
0.0 0.0 0.0 
1.556028744807e-04 1.344932393472e-04 0.0 
1.344932393472e-04 8.506125052468e-04 0.0 
0.0 0.0 0.0 
-1.230435660080e-04 2.930800547342e-04 0.0 
2.930800547342e-04 1.580390213507e-03 0.0 
0.0 0.0 0.0 
1.158038967619e-04 7.955165753048e-05 0.0 
7.955165753048e-05 9.181757404340e-04 0.0 
0.0 0.0 0.0 
7.830873211367e-05 -2.620666103016e-05 0.0 
-2.620666103016e-05 3.160513553166e-04 0.0 
0.0 0.0 0.0 
1.111300807763e-04 9.783332980592e-05 0.0 
9.783332980592e-05 9.692324778425e-04 0.0 
0.0 0.0 0.0 
9.463111607699e-05 1.456600705744e-04 0.0 
1.456600705744e-04 1.101108065243e-03 0.0 
0.0 0.0 0.0 
1.521875885608e-04 1.856344795910e-04 0.0 
1.856344795910e-04 9.956983147270e-04 0.0 
0.0 0.0 0.0 
-1.357887834013e-04 7.090193738552e-05 0.0 
7.090193738552e-05 2.173947046926e-03 0.0 
0.0 0.0 0.0 
5.523572570287e-05 3.000304237293e-04 0.0 
3.000304237293e-04 1.408519493858e-03 0.0 
0.0 0.0 0.0 
8.307943820807e-05 1.330113199886e-04 0.0 
1.330113199886e-04 1.102758194545e-03 0.0 
0.0 0.0 0.0 
-1.721899606419e-04 2.471564132613e-04 0.0 
2.471564132613e-04 7.316837446329e-04 0.0 
0.0 0.0 0.0 
-1.671572492874e-04 7.511884398724e-05 0.0 
7.511884398724e-05 2.114545389455e-03 0.0 
0.0 0.0 0.0 
6.611348592145e-05 2.912719442925e-04 0.0 
2.912719442925e-04 1.375856519153e-03 0.0 
0.0 0.0 0.0 
-1.154992119391e-04 9.248103394484e-05 0.0 
9.248103394484e-05 2.192693995060e-03 0.0 
0.0 0.0 0.0 
1.631299136158e-04 1.700890898731e-04 0.0 
1.700890898731e-04 9.208463063619e-04 0.0 
0.0 0.0 0.0 
1.574419391326e-04 1.014107001416e-04 0.0 
1.014107001416e-04 7.089894163721e-04 0.0 
0.0 0.0 0.0 
1.222256330271e-04 1.652295576840e-05 0.0 
1.652295576840e-05 6.607484478220e-04 0.0 
0.0 0.0 0.0 
1.635619022289e-05 2.875474397180e-05 0.0 
2.875474397180e-05 2.112655613080e-04 0.0 
0.0 0.0 0.0 
-9.867751111792e-05 8.942340974980e-05 0.0 
8.942340974980e-05 2.220897431142e-03 0.0 
0.0 0.0 0.0 
7.073490637244e-05 -1.050480037181e-05 0.0 
-1.050480037181e-05 3.220503256984e-04 0.0 
0.0 0.0 0.0 
-1.674678842987e-04 2.417820686954e-04 0.0 
2.417820686954e-04 9.349315223548e-04 0.0 
0.0 0.0 0.0 
4.355992515492e-05 3.045175385991e-04 0.0 
3.045175385991e-04 1.431644921805e-03 0.0 
0.0 0.0 0.0 
-6.489008867083e-05 8.096216592380e-05 0.0 
8.096216592380e-05 2.276033793303e-03 0.0 
0.0 0.0 0.0 
6.145074752717e-05 -3.749241307397e-05 0.0 
-3.749241307397e-05 2.789788561188e-04 0.0 
0.0 0.0 0.0 
2.986673801364e-05 2.860666541776e-04 0.0 
2.860666541776e-04 1.275471121572e-03 0.0 
0.0 0.0 0.0 
-1.472103795461e-04 9.611224513433e-05 0.0 
9.611224513433e-05 2.132230458186e-03 0.0 
0.0 0.0 0.0 
1.249076229144e-04 1.146902208556e-05 0.0 
1.146902208556e-05 6.465147140904e-04 0.0 
0.0 0.0 0.0 
8.378476464355e-05 -4.191241414232e-06 0.0 
-4.191241414232e-06 3.433121517906e-04 0.0 
0.0 0.0 0.0 
9.457700698379e-05 1.894726085430e-04 0.0 
1.894726085430e-04 6.655006990157e-04 0.0 
0.0 0.0 0.0 
3.712166329795e-05 -2.924619920295e-05 0.0 
-2.924619920295e-05 2.093172073983e-04 0.0 
0.0 0.0 0.0 
7.467139347428e-05 -1.300125892298e-05 0.0 
-1.300125892298e-05 2.758931009457e-04 0.0 
0.0 0.0 0.0 
5.510221037830e-05 -2.208184949535e-05 0.0 
-2.208184949535e-05 2.419953102202e-04 0.0 
0.0 0.0 0.0 
1.703323283035e-04 1.549477620412e-04 0.0 
1.549477620412e-04 8.474833628367e-04 0.0 
0.0 0.0 0.0 
-4.178195923032e-05 2.346590282202e-04 0.0 
2.346590282202e-04 2.278436684946e-03 0.0 
0.0 0.0 0.0 
-1.581119152456e-04 2.356298888015e-04 0.0 
2.356298888015e-04 1.141674707633e-03 0.0 
0.0 0.0 0.0 
8.587643718294e-05 9.388516470289e-05 0.0 
9.388516470289e-05 1.047469887063e-03 0.0 
0.0 0.0 0.0 
1.608330063567e-04 1.244822880661e-04 0.0 
1.244822880661e-04 6.330374475971e-04 0.0 
0.0 0.0 0.0 
-1.855380991879e-04 1.034782166412e-04 0.0 
1.034782166412e-04 2.099304557889e-03 0.0 
0.0 0.0 0.0 
5.452188106503e-05 3.374108016056e-05 0.0 
3.374108016056e-05 2.680858738822e-04 0.0 
0.0 0.0 0.0 
7.058492537504e-05 1.549104343059e-04 0.0 
1.549104343059e-04 1.163124261015e-03 0.0 
0.0 0.0 0.0 
4.468080805586e-05 -4.551603653858e-05 0.0 
-4.551603653858e-05 2.442357895851e-04 0.0 
0.0 0.0 0.0 
8.344423908113e-05 -7.883091159148e-06 0.0 
-7.883091159148e-06 3.800197252144e-04 0.0 
0.0 0.0 0.0 
1.409991978483e-04 2.095115197790e-04 0.0 
2.095115197790e-04 1.066366279811e-03 0.0 
0.0 0.0 0.0 
1.504586947978e-04 4.048055150308e-05 0.0 
4.048055150308e-05 6.378349487939e-04 0.0 
0.0 0.0 0.0 
8.364616437206e-05 2.683653719835e-04 0.0 
2.683653719835e-04 1.299278528141e-03 0.0 
0.0 0.0 0.0 
4.222668102960e-05 2.255794934985e-04 0.0 
2.255794934985e-04 8.920138695230e-04 0.0 
0.0 0.0 0.0 
-1.794141889814e-04 1.630746081516e-04 0.0 
1.630746081516e-04 2.110119587104e-03 0.0 
0.0 0.0 0.0 
8.928155893817e-05 2.688058393009e-04 0.0 
2.688058393009e-04 1.297555981610e-03 0.0 
0.0 0.0 0.0 
-1.455454609618e-04 7.431029955511e-05 0.0 
7.431029955511e-05 2.114568782576e-03 0.0 
0.0 0.0 0.0 
-1.069561404962e-04 2.709864152131e-04 0.0 
2.709864152131e-04 2.105347258324e-03 0.0 
0.0 0.0 0.0 
-1.529846460433e-04 1.195646877897e-04 0.0 
1.195646877897e-04 2.176959015036e-03 0.0 
0.0 0.0 0.0 
-1.485275628713e-04 1.461276275882e-04 0.0 
1.461276275882e-04 2.185340849882e-03 0.0 
0.0 0.0 0.0 
6.283383871919e-05 1.037375198683e-04 0.0 
1.037375198683e-04 3.777605889581e-04 0.0 
0.0 0.0 0.0 
9.346248882625e-05 7.768252838128e-05 0.0 
7.768252838128e-05 9.978049529134e-04 0.0 
0.0 0.0 0.0 
-1.463483082937e-04 1.211144121583e-04 0.0 
1.211144121583e-04 2.144223997791e-03 0.0 
0.0 0.0 0.0 
1.555877146158e-04 1.883786200151e-04 0.0 
1.883786200151e-04 8.462589970162e-04 0.0 
0.0 0.0 0.0 
-1.566960047673e-04 2.286375380497e-04 0.0 
2.286375380497e-04 1.349309456229e-03 0.0 
0.0 0.0 0.0 
5.757934407380e-05 2.828395074222e-04 0.0 
2.828395074222e-04 1.373524759716e-03 0.0 
0.0 0.0 0.0 
1.017427531784e-04 6.547897366381e-05 0.0 
6.547897366381e-05 3.781296683161e-04 0.0 
0.0 0.0 0.0 
7.483502892325e-05 -2.279475610227e-05 0.0 
-2.279475610227e-05 3.546229247764e-04 0.0 
0.0 0.0 0.0 
1.133232449950e-04 2.574119938830e-04 0.0 
2.574119938830e-04 1.217929474315e-03 0.0 
0.0 0.0 0.0 
4.268668251250e-05 -8.296808466906e-06 0.0 
-8.296808466906e-06 2.105540042985e-04 0.0 
0.0 0.0 0.0 
9.305825637673e-05 2.389203974042e-04 0.0 
2.389203974042e-04 1.049965262764e-03 0.0 
0.0 0.0 0.0 
1.371458277191e-04 2.015136992976e-04 0.0 
2.015136992976e-04 1.071979161792e-03 0.0 
0.0 0.0 0.0 
-1.197221356700e-04 1.648129624940e-04 0.0 
1.648129624940e-04 2.222868932450e-03 0.0 
0.0 0.0 0.0 
-1.081299303756e-04 1.951480168998e-04 0.0 
1.951480168998e-04 2.222560767111e-03 0.0 
0.0 0.0 0.0 
1.275803351382e-04 1.933523813792e-04 0.0 
1.933523813792e-04 1.068789788910e-03 0.0 
0.0 0.0 0.0 
-1.337400497491e-04 1.142360682287e-04 0.0 
1.142360682287e-04 2.207774791515e-03 0.0 
0.0 0.0 0.0 
1.592015123035e-04 1.506146062342e-04 0.0 
1.506146062342e-04 7.019664148873e-04 0.0 
0.0 0.0 0.0 
5.189810881046e-06 3.189445480187e-04 0.0 
3.189445480187e-04 1.554848100904e-03 0.0 
0.0 0.0 0.0 
-2.264178301278e-04 2.174513376714e-04 0.0 
2.174513376714e-04 1.579602458095e-03 0.0 
0.0 0.0 0.0 
-5.524531137224e-05 3.229320928198e-04 0.0 
3.229320928198e-04 1.919884616859e-03 0.0 
0.0 0.0 0.0 
-1.989214469085e-04 1.039518070890e-04 0.0 
1.039518070890e-04 1.756854362677e-03 0.0 
0.0 0.0 0.0 
-1.897680433094e-04 7.578525676469e-05 0.0 
7.578525676469e-05 1.806522970784e-03 0.0 
0.0 0.0 0.0 
1.701007774266e-04 1.509105879586e-04 0.0 
1.509105879586e-04 7.716063523233e-04 0.0 
0.0 0.0 0.0 
-1.945585319180e-04 7.090839694215e-05 0.0 
7.090839694215e-05 1.838589394194e-03 0.0 
0.0 0.0 0.0 
1.069499481248e-04 2.373924798996e-04 0.0 
2.373924798996e-04 1.095335738137e-03 0.0 
0.0 0.0 0.0 
1.210271090073e-04 1.904919508504e-04 0.0 
1.904919508504e-04 8.724227953021e-04 0.0 
0.0 0.0 0.0 
1.594759259980e-04 9.314071458685e-05 0.0 
9.314071458685e-05 7.161710872097e-04 0.0 
0.0 0.0 0.0 
8.296400886088e-05 8.097687828718e-06 0.0 
8.097687828718e-06 2.951891689067e-04 0.0 
0.0 0.0 0.0 
1.730024720710e-04 1.258576016829e-04 0.0 
1.258576016829e-04 7.051890606760e-04 0.0 
0.0 0.0 0.0 
-9.385061861944e-05 1.103560757730e-04 0.0 
1.103560757730e-04 2.237182334796e-03 0.0 
0.0 0.0 0.0 
-7.348163970111e-05 3.040698372463e-04 0.0 
3.040698372463e-04 2.026184705276e-03 0.0 
0.0 0.0 0.0 
1.097570342241e-04 6.813309137642e-05 0.0 
6.813309137642e-05 9.228167848969e-04 0.0 
0.0 0.0 0.0 
9.378388264447e-05 2.746176007714e-04 0.0 
2.746176007714e-04 1.295592925124e-03 0.0 
0.0 0.0 0.0 
1.672084878195e-04 5.950955896806e-05 0.0 
5.950955896806e-05 6.347622125054e-04 0.0 
0.0 0.0 0.0 
-1.251455102247e-04 1.434576692647e-04 0.0 
1.434576692647e-04 2.185577794191e-03 0.0 
0.0 0.0 0.0 
1.755861941670e-04 1.159597657898e-04 0.0 
1.159597657898e-04 7.126705477010e-04 0.0 
0.0 0.0 0.0 
8.216526699045e-05 7.254147107227e-05 0.0 
7.254147107227e-05 1.027369512084e-03 0.0 
0.0 0.0 0.0 
-1.297657771687e-04 1.179045461853e-04 0.0 
1.179045461853e-04 2.177073984999e-03 0.0 
0.0 0.0 0.0 
-1.654184566253e-04 1.539425325682e-04 0.0 
1.539425325682e-04 2.149114453179e-03 0.0 
0.0 0.0 0.0 
1.606689418299e-04 1.620071815685e-04 0.0 
1.620071815685e-04 9.289883309311e-04 0.0 
0.0 0.0 0.0 
1.675602069726e-04 1.374223207414e-04 0.0 
1.374223207414e-04 7.015102227941e-04 0.0 
0.0 0.0 0.0 
3.727438881551e-06 3.300703553651e-04 0.0 
3.300703553651e-04 1.614935496417e-03 0.0 
0.0 0.0 0.0 
-7.666276133078e-05 3.046978964069e-04 0.0 
3.046978964069e-04 1.619039996897e-03 0.0 
0.0 0.0 0.0 
6.769744329249e-05 -2.184731459659e-05 0.0 
-2.184731459659e-05 3.000641544135e-04 0.0 
0.0 0.0 0.0 
8.649025465490e-05 2.884936965972e-05 0.0 
2.884936965972e-05 3.840930056624e-04 0.0 
0.0 0.0 0.0 
7.804655747301e-05 2.359260291151e-04 0.0 
2.359260291151e-04 8.516738442077e-04 0.0 
0.0 0.0 0.0 
2.952073791174e-05 2.984402826256e-04 0.0 
2.984402826256e-04 1.273744216697e-03 0.0 
0.0 0.0 0.0 
7.057689757350e-05 6.636626006454e-05 0.0 
6.636626006454e-05 1.058313269911e-03 0.0 
0.0 0.0 0.0 
-1.699653349455e-04 1.253839441039e-04 0.0 
1.253839441039e-04 2.143800145333e-03 0.0 
0.0 0.0 0.0 
1.528598545513e-04 1.112586068732e-04 0.0 
1.112586068732e-04 7.055998976382e-04 0.0 
0.0 0.0 0.0 
6.653944212731e-06 3.032392385069e-04 0.0 
3.032392385069e-04 1.435079345258e-03 0.0 
0.0 0.0 0.0 
1.307637144925e-04 1.955695558341e-04 0.0 
1.955695558341e-04 1.083228679227e-03 0.0 
0.0 0.0 0.0 
-1.173875338110e-04 8.720797631865e-05 0.0 
8.720797631865e-05 2.221238934746e-03 0.0 
0.0 0.0 0.0 
-1.334608347547e-05 3.428778760044e-04 0.0 
3.428778760044e-04 1.702419148113e-03 0.0 
0.0 0.0 0.0 
-1.734871842477e-04 1.002298145198e-04 0.0 
1.002298145198e-04 2.065641615025e-03 0.0 
0.0 0.0 0.0 
1.193955777068e-04 1.589568123804e-04 0.0 
1.589568123804e-04 1.057759452426e-03 0.0 
0.0 0.0 0.0 
1.584708251177e-04 1.177543720834e-04 0.0 
1.177543720834e-04 7.790800892944e-04 0.0 
0.0 0.0 0.0 
1.163320488864e-04 1.798714816104e-04 0.0 
1.798714816104e-04 1.084708264399e-03 0.0 
0.0 0.0 0.0 
9.769554339600e-05 2.589465399381e-04 0.0 
2.589465399381e-04 1.046947067836e-03 0.0 
0.0 0.0 0.0 
-1.076676059190e-04 1.322107945196e-04 0.0 
1.322107945196e-04 2.248455128658e-03 0.0 
0.0 0.0 0.0 
-2.694429843897e-05 3.523749350070e-04 0.0 
3.523749350070e-04 1.792941607667e-03 0.0 
0.0 0.0 0.0 
1.695757714719e-04 1.462506435765e-04 0.0 
1.462506435765e-04 8.551217198325e-04 0.0 
0.0 0.0 0.0 
8.786035284070e-05 4.142455077853e-05 0.0 
4.142455077853e-05 3.256169774588e-04 0.0 
0.0 0.0 0.0 
7.434454318922e-05 3.065837011245e-04 0.0 
3.065837011245e-04 1.387752181158e-03 0.0 
0.0 0.0 0.0 
9.263260269954e-05 2.484334272882e-04 0.0 
2.484334272882e-04 1.116549788996e-03 0.0 
0.0 0.0 0.0 
1.454436267450e-04 1.229246904162e-04 0.0 
1.229246904162e-04 7.063679430619e-04 0.0 
0.0 0.0 0.0 
1.487935275146e-04 1.514945425601e-04 0.0 
1.514945425601e-04 9.237064662297e-04 0.0 
0.0 0.0 0.0 
1.147111405830e-04 1.227190061683e-04 0.0 
1.227190061683e-04 1.000825536067e-03 0.0 
0.0 0.0 0.0 
7.274835431592e-05 5.441964775302e-06 0.0 
5.441964775302e-06 3.315441956848e-04 0.0 
0.0 0.0 0.0 
1.745485451903e-04 1.308823932074e-04 0.0 
1.308823932074e-04 7.830671728615e-04 0.0 
0.0 0.0 0.0 
-1.410558133466e-04 2.638008127438e-04 0.0 
2.638008127438e-04 1.840991489276e-03 0.0 
0.0 0.0 0.0 
6.566253223528e-05 5.410882319963e-05 0.0 
5.410882319963e-05 1.060052753521e-03 0.0 
0.0 0.0 0.0 
-1.132918873068e-04 2.861802142669e-04 0.0 
2.861802142669e-04 1.798831208773e-03 0.0 
0.0 0.0 0.0 
6.430829448667e-05 3.114093745708e-04 0.0 
3.114093745708e-04 1.406816276242e-03 0.0 
0.0 0.0 0.0 
-1.656002643144e-04 2.352161983414e-04 0.0 
2.352161983414e-04 1.880262265478e-03 0.0 
0.0 0.0 0.0 
-1.962838755520e-04 1.620518582488e-04 0.0 
1.620518582488e-04 1.938326740275e-03 0.0 
0.0 0.0 0.0 
-4.599966825880e-05 3.121111687751e-04 0.0 
3.121111687751e-04 1.573012660920e-03 0.0 
0.0 0.0 0.0 
1.100373457925e-04 2.508097792391e-04 0.0 
2.508097792391e-04 1.218635361002e-03 0.0 
0.0 0.0 0.0 
9.601191495423e-05 7.075001204732e-05 0.0 
7.075001204732e-05 9.721444756299e-04 0.0 
0.0 0.0 0.0 
-1.611287989896e-04 1.252642987589e-04 0.0 
1.252642987589e-04 2.109021892680e-03 0.0 
0.0 0.0 0.0 
-8.837599175315e-05 1.922306228288e-04 0.0 
1.922306228288e-04 2.222848925725e-03 0.0 
0.0 0.0 0.0 
-1.850682489537e-04 2.007820783894e-04 0.0 
2.007820783894e-04 1.913794352071e-03 0.0 
0.0 0.0 0.0 
1.343439721813e-04 8.139448273616e-05 0.0 
8.139448273616e-05 5.710908882626e-04 0.0 
0.0 0.0 0.0 
4.545055973715e-05 3.150114538867e-04 0.0 
3.150114538867e-04 1.475939271942e-03 0.0 
0.0 0.0 0.0 
-9.316710167862e-05 1.025660881162e-04 0.0 
1.025660881162e-04 2.265263626223e-03 0.0 
0.0 0.0 0.0 
1.316873304029e-04 2.248861851577e-04 0.0 
2.248861851577e-04 9.371568838186e-04 0.0 
0.0 0.0 0.0 
1.159259734358e-04 2.468157202274e-04 0.0 
2.468157202274e-04 1.023885082279e-03 0.0 
0.0 0.0 0.0 
1.457911777909e-04 9.602038568957e-05 0.0 
9.602038568957e-05 6.375843180542e-04 0.0 
0.0 0.0 0.0 
-1.567333885800e-04 1.547588426446e-04 0.0 
1.547588426446e-04 2.111122171016e-03 0.0 
0.0 0.0 0.0 
1.448759663680e-05 2.837086066721e-04 0.0 
2.837086066721e-04 1.092858029800e-03 0.0 
0.0 0.0 0.0 
1.262778561153e-04 2.454038647642e-04 0.0 
2.454038647642e-04 1.077369281492e-03 0.0 
0.0 0.0 0.0 
1.084777683902e-05 2.663926958982e-04 0.0 
2.663926958982e-04 1.095229575430e-03 0.0 
0.0 0.0 0.0 
1.278886235501e-04 2.338091928171e-04 0.0 
2.338091928171e-04 1.140796414496e-03 0.0 
0.0 0.0 0.0 
3.231033337725e-05 3.328509769232e-04 0.0 
3.328509769232e-04 1.542308553852e-03 0.0 
0.0 0.0 0.0 
1.522054029643e-04 8.549218891156e-05 0.0 
8.549218891156e-05 6.409603834117e-04 0.0 
0.0 0.0 0.0 
3.423236051514e-06 -1.157408003852e-05 0.0 
-1.157408003852e-05 2.178719557879e-04 0.0 
0.0 0.0 0.0 
-9.028822563273e-05 2.308578856404e-04 0.0 
2.308578856404e-04 2.174582596578e-03 0.0 
0.0 0.0 0.0 
-9.770224161931e-06 2.937306905705e-04 0.0 
2.937306905705e-04 1.199458492024e-03 0.0 
0.0 0.0 0.0 
1.716982414564e-04 7.904884570003e-05 0.0 
7.904884570003e-05 6.835338788707e-04 0.0 
0.0 0.0 0.0 
6.580589003713e-05 3.243783281889e-04 0.0 
3.243783281889e-04 1.456777844153e-03 0.0 
0.0 0.0 0.0 
-1.848880148768e-04 1.325137458098e-04 0.0 
1.325137458098e-04 2.108244111460e-03 0.0 
0.0 0.0 0.0 
1.059284541645e-04 7.550177518816e-05 0.0 
7.550177518816e-05 9.445908074341e-04 0.0 
0.0 0.0 0.0 
1.299251591897e-04 1.639582852295e-04 0.0 
1.639582852295e-04 7.899927536141e-04 0.0 
0.0 0.0 0.0 
-6.318939543726e-06 1.010515048189e-05 0.0 
1.010515048189e-05 1.699183090340e-04 0.0 
0.0 0.0 0.0 
5.510858487967e-05 4.605257639358e-05 0.0 
4.605257639358e-05 1.096335674251e-03 0.0 
0.0 0.0 0.0 
5.468017968946e-05 2.914290088966e-04 0.0 
2.914290088966e-04 1.237477575928e-03 0.0 
0.0 0.0 0.0 
1.131071808984e-04 2.316367557590e-04 0.0 
2.316367557590e-04 1.145826236626e-03 0.0 
0.0 0.0 0.0 
2.741213835566e-05 3.415930431318e-04 0.0 
3.415930431318e-04 1.587763115134e-03 0.0 
0.0 0.0 0.0 
-5.695321214094e-05 8.850522820764e-06 0.0 
8.850522820764e-06 1.257282088873e-04 0.0 
0.0 0.0 0.0 
1.169199789686e-04 8.867125761893e-05 0.0 
8.867125761893e-05 9.424877870579e-04 0.0 
0.0 0.0 0.0 
8.785998943184e-05 1.277633172229e-04 0.0 
1.277633172229e-04 5.902141547047e-04 0.0 
0.0 0.0 0.0 
-1.996811416506e-04 1.090640562087e-04 0.0 
1.090640562087e-04 2.064727061108e-03 0.0 
0.0 0.0 0.0 
1.241819062712e-04 2.278354367283e-05 0.0 
2.278354367283e-05 7.126471546119e-04 0.0 
0.0 0.0 0.0 
1.680910696487e-04 1.119049432933e-04 0.0 
1.119049432933e-04 6.364734209225e-04 0.0 
0.0 0.0 0.0 
7.584464214894e-05 6.049544967409e-05 0.0 
6.049544967409e-05 1.029264623780e-03 0.0 
0.0 0.0 0.0 
1.136941104214e-04 2.558535941251e-04 0.0 
2.558535941251e-04 1.092486733574e-03 0.0 
0.0 0.0 0.0 
1.588783204567e-04 9.877634405432e-05 0.0 
9.877634405432e-05 5.696172534027e-04 0.0 
0.0 0.0 0.0 
3.051953617472e-05 2.920925956057e-04 0.0 
2.920925956057e-04 1.336983445105e-03 0.0 
0.0 0.0 0.0 
-1.920253471410e-05 -2.927802022741e-05 0.0 
-2.927802022741e-05 1.770891443271e-04 0.0 
0.0 0.0 0.0 
2.690813610062e-05 3.075461266440e-04 0.0 
3.075461266440e-04 1.461409252580e-03 0.0 
0.0 0.0 0.0 
1.145268364873e-04 2.183563150602e-04 0.0 
2.183563150602e-04 1.143184645106e-03 0.0 
0.0 0.0 0.0 
-3.550713189227e-05 3.477866193966e-04 0.0 
3.477866193966e-04 1.868406689047e-03 0.0 
0.0 0.0 0.0 
2.301872337740e-05 3.182795611001e-04 0.0 
3.182795611001e-04 1.524337147875e-03 0.0 
0.0 0.0 0.0 
1.102198486969e-04 4.128899339088e-05 0.0 
4.128899339088e-05 4.458670018677e-04 0.0 
0.0 0.0 0.0 
1.008610209570e-04 5.591649569295e-05 0.0 
5.591649569295e-05 9.247942608375e-04 0.0 
0.0 0.0 0.0 
-6.620106402244e-05 1.271963630186e-04 0.0 
1.271963630186e-04 2.278099651313e-03 0.0 
0.0 0.0 0.0 
3.709436801436e-05 3.073764311775e-04 0.0 
3.073764311775e-04 1.450399897000e-03 0.0 
0.0 0.0 0.0 
9.971757028748e-05 2.437252764688e-04 0.0 
2.437252764688e-04 1.220048633363e-03 0.0 
0.0 0.0 0.0 
1.416016406597e-04 1.499579994276e-04 0.0 
1.499579994276e-04 7.801537852083e-04 0.0 
0.0 0.0 0.0 
2.937006971693e-05 2.989595172696e-04 0.0 
2.989595172696e-04 1.399194840673e-03 0.0 
0.0 0.0 0.0 
6.664598386585e-05 4.554768143187e-05 0.0 
4.554768143187e-05 1.041551349550e-03 0.0 
0.0 0.0 0.0 
1.055293172592e-04 -2.661580135648e-06 0.0 
-2.661580135648e-06 6.461053518587e-04 0.0 
0.0 0.0 0.0 
4.955425595399e-05 3.137624653368e-04 0.0 
3.137624653368e-04 1.430289926034e-03 0.0 
0.0 0.0 0.0 
-1.612848630466e-04 9.781286175336e-05 0.0 
9.781286175336e-05 2.099869732110e-03 0.0 
0.0 0.0 0.0 
8.612648672290e-05 6.611298277971e-05 0.0 
6.611298277971e-05 9.996238395387e-04 0.0 
0.0 0.0 0.0 
1.005247352228e-04 9.341713314710e-05 0.0 
9.341713314710e-05 9.941639424713e-04 0.0 
0.0 0.0 0.0 
-1.230789614468e-04 -2.077141268258e-07 0.0 
-2.077141268258e-07 1.863228830707e-03 0.0 
0.0 0.0 0.0 
-1.219387285216e-04 5.888491687288e-07 0.0 
5.888491687288e-07 1.862530315934e-03 0.0 
0.0 0.0 0.0 
-1.570345251154e-04 2.625126762248e-04 0.0 
2.625126762248e-04 1.912758307036e-03 0.0 
0.0 0.0 0.0 
5.225294063926e-05 3.045025450959e-04 0.0 
3.045025450959e-04 1.365773200914e-03 0.0 
0.0 0.0 0.0 
1.188059940660e-04 2.267337195454e-05 0.0 
2.267337195454e-05 7.397821558937e-04 0.0 
0.0 0.0 0.0 
-6.718599337607e-05 3.105107862610e-04 0.0 
3.105107862610e-04 1.667504955971e-03 0.0 
0.0 0.0 0.0 
1.304030506639e-04 2.344934372902e-04 0.0 
2.344934372902e-04 1.006418409895e-03 0.0 
0.0 0.0 0.0 
9.381107768891e-05 2.011805246128e-04 0.0 
2.011805246128e-04 1.175312701123e-03 0.0 
0.0 0.0 0.0 
1.536357743952e-04 1.765246950746e-04 0.0 
1.765246950746e-04 7.761154323058e-04 0.0 
0.0 0.0 0.0 
-3.870998434319e-05 2.066841308948e-04 0.0 
2.066841308948e-04 2.300041626383e-03 0.0 
0.0 0.0 0.0 
-2.050214270373e-04 1.376370092166e-04 0.0 
1.376370092166e-04 1.904062702679e-03 0.0 
0.0 0.0 0.0 
1.093522850937e-04 2.263037728992e-04 0.0 
2.263037728992e-04 1.027054890728e-03 0.0 
0.0 0.0 0.0 
1.358831540519e-04 3.571735189929e-05 0.0 
3.571735189929e-05 7.104853170470e-04 0.0 
0.0 0.0 0.0 
9.713568111458e-05 5.476890555595e-05 0.0 
5.476890555595e-05 4.428977068520e-04 0.0 
0.0 0.0 0.0 
1.285511910067e-04 1.033846632344e-05 0.0 
1.033846632344e-05 6.205991129538e-04 0.0 
0.0 0.0 0.0 
5.406785035422e-05 2.973596991558e-04 0.0 
2.973596991558e-04 1.301499428943e-03 0.0 
0.0 0.0 0.0 
4.082637776737e-06 3.074275701869e-04 0.0 
3.074275701869e-04 1.374464236378e-03 0.0 
0.0 0.0 0.0 
-1.740874424664e-04 1.308973015024e-04 0.0 
1.308973015024e-04 2.071575444545e-03 0.0 
0.0 0.0 0.0 
-3.879137468199e-05 3.174790034648e-04 0.0 
3.174790034648e-04 1.625663842227e-03 0.0 
0.0 0.0 0.0 
-6.013278471906e-05 3.161420095161e-04 0.0 
3.161420095161e-04 1.715947198843e-03 0.0 
0.0 0.0 0.0 
2.563241965814e-05 -1.078416333034e-05 0.0 
-1.078416333034e-05 1.520275749101e-04 0.0 
0.0 0.0 0.0 
1.345311101455e-04 1.384112684396e-05 0.0 
1.384112684396e-05 5.803859119917e-04 0.0 
0.0 0.0 0.0 
-1.032474310225e-05 2.817126206456e-04 0.0 
2.817126206456e-04 1.200861767232e-03 0.0 
0.0 0.0 0.0 
-9.753835817039e-05 2.965035008433e-04 0.0 
2.965035008433e-04 1.712078971932e-03 0.0 
0.0 0.0 0.0 
-1.156353981296e-04 2.953120616252e-04 0.0 
2.953120616252e-04 1.797039837667e-03 0.0 
0.0 0.0 0.0 
1.035024564779e-04 2.416186277501e-04 0.0 
2.416186277501e-04 1.220288493621e-03 0.0 
0.0 0.0 0.0 
4.895605910904e-05 4.765315060638e-06 0.0 
4.765315060638e-06 2.364632351310e-04 0.0 
0.0 0.0 0.0 
5.625645394081e-05 -1.445789883466e-05 0.0 
-1.445789883466e-05 2.857760814177e-04 0.0 
0.0 0.0 0.0 
7.727288393400e-05 2.767234664949e-04 0.0 
2.767234664949e-04 1.141120701352e-03 0.0 
0.0 0.0 0.0 
1.222406257928e-04 4.373682418599e-07 0.0 
4.373682418599e-07 5.824766867502e-04 0.0 
0.0 0.0 0.0 
-2.370178764806e-04 1.341156505081e-04 0.0 
1.341156505081e-04 1.795017920585e-03 0.0 
0.0 0.0 0.0 
-2.281527218304e-04 1.099912364033e-04 0.0 
1.099912364033e-04 1.833324127326e-03 0.0 
0.0 0.0 0.0 
-1.972079135298e-04 1.418061536223e-04 0.0 
1.418061536223e-04 2.070375623104e-03 0.0 
0.0 0.0 0.0 
2.675780241446e-05 8.384178891058e-05 0.0 
8.384178891058e-05 3.947570217078e-04 0.0 
0.0 0.0 0.0 
1.317143495467e-04 2.486484457967e-05 0.0 
2.486484457967e-05 6.712898528276e-04 0.0 
0.0 0.0 0.0 
1.256273938417e-04 1.562799251700e-04 0.0 
1.562799251700e-04 1.019289890892e-03 0.0 
0.0 0.0 0.0 
7.112694600919e-05 1.978191068473e-05 0.0 
1.978191068473e-05 2.782577181233e-04 0.0 
0.0 0.0 0.0 
1.059352617250e-05 3.603064063386e-04 0.0 
3.603064063386e-04 1.680650776944e-03 0.0 
0.0 0.0 0.0 
-1.284304576498e-04 1.387013948324e-04 0.0 
1.387013948324e-04 2.217898742552e-03 0.0 
0.0 0.0 0.0 
1.169544654545e-04 4.079326727226e-06 0.0 
4.079326727226e-06 6.354009514327e-04 0.0 
0.0 0.0 0.0 
9.920572665556e-05 6.387020328065e-05 0.0 
6.387020328065e-05 9.517605300315e-04 0.0 
0.0 0.0 0.0 
2.294486244270e-05 -1.430864601694e-05 0.0 
-1.430864601694e-05 1.047624154793e-04 0.0 
0.0 0.0 0.0 
1.329496634679e-04 1.323635331207e-04 0.0 
1.323635331207e-04 9.584925723125e-04 0.0 
0.0 0.0 0.0 
5.334407486424e-05 2.774297439092e-04 0.0 
2.774297439092e-04 1.239531003371e-03 0.0 
0.0 0.0 0.0 
2.460176343244e-05 -1.057711647171e-05 0.0 
-1.057711647171e-05 1.032537948129e-04 0.0 
0.0 0.0 0.0 
-1.064424063416e-04 1.381472486140e-04 0.0 
1.381472486140e-04 2.217904503472e-03 0.0 
0.0 0.0 0.0 
3.939074312798e-05 -3.952710160286e-06 0.0 
-3.952710160286e-06 2.743682180923e-04 0.0 
0.0 0.0 0.0 
-9.663554063388e-05 3.025938341141e-04 0.0 
3.025938341141e-04 1.711143235189e-03 0.0 
0.0 0.0 0.0 
5.650376591726e-06 2.981753232627e-04 0.0 
2.981753232627e-04 1.375703410685e-03 0.0 
0.0 0.0 0.0 
1.571274826067e-04 6.411524853758e-05 0.0 
6.411524853758e-05 6.711236079080e-04 0.0 
0.0 0.0 0.0 
1.580124268048e-04 8.648924290643e-05 0.0 
8.648924290643e-05 7.938947020691e-04 0.0 
0.0 0.0 0.0 
-9.910775905975e-05 1.639897553513e-04 0.0 
1.639897553513e-04 2.222900073247e-03 0.0 
0.0 0.0 0.0 
1.489457603416e-04 1.017511981586e-04 0.0 
1.017511981586e-04 8.671052871287e-04 0.0 
0.0 0.0 0.0 
9.724645282438e-05 2.661922440548e-04 0.0 
2.661922440548e-04 1.113833097337e-03 0.0 
0.0 0.0 0.0 
7.439680859989e-05 2.595422420825e-04 0.0 
2.595422420825e-04 1.143667695052e-03 0.0 
0.0 0.0 0.0 
-1.536341434495e-04 2.004046577333e-04 0.0 
2.004046577333e-04 2.253819114504e-04 0.0 
0.0 0.0 0.0 
3.461199617072e-05 1.298890463988e-05 0.0 
1.298890463988e-05 2.250501841286e-04 0.0 
0.0 0.0 0.0 
3.691196512778e-05 3.180195250477e-04 0.0 
3.180195250477e-04 1.495621654127e-03 0.0 
0.0 0.0 0.0 
-2.133850502918e-04 1.676917843123e-04 0.0 
1.676917843123e-04 1.984549700984e-03 0.0 
0.0 0.0 0.0 
5.659720986406e-05 3.261631625605e-04 0.0 
3.261631625605e-04 1.473823578779e-03 0.0 
0.0 0.0 0.0 
9.836755734227e-05 1.644043713015e-04 0.0 
1.644043713015e-04 5.846044922486e-04 0.0 
0.0 0.0 0.0 
-1.234384755361e-04 2.546997574612e-04 0.0 
2.546997574612e-04 2.015582986515e-03 0.0 
0.0 0.0 0.0 
1.813345736545e-05 3.332935277048e-04 0.0 
3.332935277048e-04 1.588380006981e-03 0.0 
0.0 0.0 0.0 
-2.071516121509e-04 1.245814323542e-04 0.0 
1.245814323542e-04 1.828185258699e-03 0.0 
0.0 0.0 0.0 
4.473249509251e-05 3.241997353712e-04 0.0 
3.241997353712e-04 1.494485270424e-03 0.0 
0.0 0.0 0.0 
9.168610796650e-05 5.179915967965e-05 0.0 
5.179915967965e-05 9.537169299338e-04 0.0 
0.0 0.0 0.0 
7.396947218896e-05 2.905569170170e-04 0.0 
2.905569170170e-04 1.272540432536e-03 0.0 
0.0 0.0 0.0 
1.370392241649e-04 2.467844591686e-05 0.0 
2.467844591686e-05 6.444239336534e-04 0.0 
0.0 0.0 0.0 
1.292562884236e-04 2.258372189095e-05 0.0 
2.258372189095e-05 6.862124131581e-04 0.0 
0.0 0.0 0.0 
-1.136209850515e-04 2.366088149413e-04 0.0 
2.366088149413e-04 2.173374172497e-03 0.0 
0.0 0.0 0.0 
1.628550499519e-04 7.125929641738e-05 0.0 
7.125929641738e-05 7.234049285805e-04 0.0 
0.0 0.0 0.0 
3.070955766393e-05 3.031593477131e-04 0.0 
3.031593477131e-04 1.335471050396e-03 0.0 
0.0 0.0 0.0 
1.542459756441e-04 2.008571158845e-04 0.0 
2.008571158845e-04 9.179833820372e-04 0.0 
0.0 0.0 0.0 
1.346133287399e-04 1.166771741517e-04 0.0 
1.166771741517e-04 9.431815769507e-04 0.0 
0.0 0.0 0.0 
1.233328013273e-04 2.021514583774e-04 0.0 
2.021514583774e-04 9.405176676338e-04 0.0 
0.0 0.0 0.0 
1.366593976431e-04 6.179658924603e-05 0.0 
6.179658924603e-05 4.485477024621e-04 0.0 
0.0 0.0 0.0 
1.730994554432e-04 1.228996322341e-04 0.0 
1.228996322341e-04 7.936217864046e-04 0.0 
0.0 0.0 0.0 
1.449254565526e-04 8.643326549625e-05 0.0 
8.643326549625e-05 5.043056837937e-04 0.0 
0.0 0.0 0.0 
-6.739823401580e-05 3.097179231827e-04 0.0 
3.097179231827e-04 1.667619089126e-03 0.0 
0.0 0.0 0.0 
1.288845860095e-04 5.514901260429e-05 0.0 
5.514901260429e-05 5.092619811786e-04 0.0 
0.0 0.0 0.0 
-4.425241550055e-05 3.106959267393e-04 0.0 
3.106959267393e-04 1.573196787101e-03 0.0 
0.0 0.0 0.0 
9.621420411432e-05 2.366172969380e-04 0.0 
2.366172969380e-04 1.220900769038e-03 0.0 
0.0 0.0 0.0 
1.243694275128e-04 2.256467701590e-04 0.0 
2.256467701590e-04 1.143395904108e-03 0.0 
0.0 0.0 0.0 
1.444023970731e-04 2.014553307395e-04 0.0 
2.014553307395e-04 8.545943968383e-04 0.0 
0.0 0.0 0.0 
-1.835674060424e-04 1.383261705373e-04 0.0 
1.383261705373e-04 2.030310694222e-03 0.0 
0.0 0.0 0.0 
8.841500079648e-05 5.880491579709e-05 0.0 
5.880491579709e-05 9.816028988292e-04 0.0 
0.0 0.0 0.0 
8.256612779167e-05 4.692848311512e-05 0.0 
4.692848311512e-05 9.835482284228e-04 0.0 
0.0 0.0 0.0 
-1.088349375344e-05 8.104049724036e-05 0.0 
8.104049724036e-05 3.374009758346e-04 0.0 
0.0 0.0 0.0 
-1.722949074356e-05 3.159569714231e-04 0.0 
3.159569714231e-04 1.531085447209e-03 0.0 
0.0 0.0 0.0 
5.868645154727e-05 6.044049967599e-05 0.0 
6.044049967599e-05 1.093018372600e-03 0.0 
0.0 0.0 0.0 
-7.499888052620e-05 2.742416792772e-04 0.0 
2.742416792772e-04 1.157368387420e-03 0.0 
0.0 0.0 0.0 
1.166622744375e-04 1.300855801826e-05 0.0 
1.300855801826e-05 7.002502662261e-04 0.0 
0.0 0.0 0.0 
-1.359234343806e-04 1.592996322722e-04 0.0 
1.592996322722e-04 3.182086287870e-04 0.0 
0.0 0.0 0.0 
7.782227192066e-05 5.298890022785e-05 0.0 
5.298890022785e-05 1.011993263301e-03 0.0 
0.0 0.0 0.0 
1.260596805925e-04 7.511357153446e-05 0.0 
7.511357153446e-05 4.405519644679e-04 0.0 
0.0 0.0 0.0 
1.071753780135e-04 5.783956384983e-06 0.0 
5.783956384983e-06 6.663113395426e-04 0.0 
0.0 0.0 0.0 
1.274015322721e-04 2.501204243612e-04 0.0 
2.501204243612e-04 1.143568175531e-03 0.0 
0.0 0.0 0.0 
-2.074536869111e-04 1.523686311301e-04 0.0 
1.523686311301e-04 2.028587881215e-03 0.0 
0.0 0.0 0.0 
-1.940774380730e-04 1.494697765923e-04 0.0 
1.494697765923e-04 1.986840761919e-03 0.0 
0.0 0.0 0.0 
7.639747589927e-05 2.832657106405e-04 0.0 
2.832657106405e-04 1.206748872281e-03 0.0 
0.0 0.0 0.0 
-2.398281173981e-04 2.064759825911e-04 0.0 
2.064759825911e-04 1.684059467847e-03 0.0 
0.0 0.0 0.0 
-2.405227265432e-04 1.651208312543e-04 0.0 
1.651208312543e-04 1.747450351333e-03 0.0 
0.0 0.0 0.0 
7.370844442356e-05 4.132022963442e-05 0.0 
4.132022963442e-05 1.013936331217e-03 0.0 
0.0 0.0 0.0 
1.412476791218e-04 8.919658009540e-05 0.0 
8.919658009540e-05 8.468492330138e-04 0.0 
0.0 0.0 0.0 
1.573997354527e-04 8.092720768607e-05 0.0 
8.092720768607e-05 7.397375212186e-04 0.0 
0.0 0.0 0.0 
1.487121001460e-04 1.489017917071e-04 0.0 
1.489017917071e-04 9.563705975038e-04 0.0 
0.0 0.0 0.0 
1.757040771697e-04 1.075138369006e-04 0.0 
1.075138369006e-04 7.233203360093e-04 0.0 
0.0 0.0 0.0 
1.182996289375e-04 6.752699960346e-05 0.0 
6.752699960346e-05 5.061147447158e-04 0.0 
0.0 0.0 0.0 
-1.955097490991e-04 1.260893213218e-04 0.0 
1.260893213218e-04 1.701848923572e-03 0.0 
0.0 0.0 0.0 
-2.232045873192e-04 1.454011421635e-04 0.0 
1.454011421635e-04 1.946882774463e-03 0.0 
0.0 0.0 0.0 
-1.235912704394e-04 2.976349478933e-08 0.0 
2.976349478933e-08 1.863706252298e-03 0.0 
0.0 0.0 0.0 
1.108186072594e-04 2.114642809291e-04 0.0 
2.114642809291e-04 1.145472766354e-03 0.0 
0.0 0.0 0.0 
1.341738593688e-04 1.765270630346e-04 0.0 
1.765270630346e-04 8.582607523633e-04 0.0 
0.0 0.0 0.0 
7.399885387405e-05 2.930905300404e-04 0.0 
2.930905300404e-04 1.371340624791e-03 0.0 
0.0 0.0 0.0 
7.283873437669e-05 2.161121904678e-05 0.0 
2.161121904678e-05 9.906943573523e-04 0.0 
0.0 0.0 0.0 
1.589183869433e-04 1.100877381505e-04 0.0 
1.100877381505e-04 7.864405951896e-04 0.0 
0.0 0.0 0.0 
4.192953197180e-05 5.969260985072e-05 0.0 
5.969260985072e-05 1.143217849342e-03 0.0 
0.0 0.0 0.0 
1.365535370552e-04 4.537329549322e-05 0.0 
4.537329549322e-05 5.168200002266e-04 0.0 
0.0 0.0 0.0 
7.713379953067e-05 2.981015852243e-04 0.0 
2.981015852243e-04 1.371965697442e-03 0.0 
0.0 0.0 0.0 
7.323819073379e-05 2.679526786650e-04 0.0 
2.679526786650e-04 1.209070825134e-03 0.0 
0.0 0.0 0.0 
8.999198820003e-05 2.828222283644e-04 0.0 
2.828222283644e-04 1.248429139504e-03 0.0 
0.0 0.0 0.0 
9.611153037326e-05 1.679612642845e-04 0.0 
1.679612642845e-04 1.119763233522e-03 0.0 
0.0 0.0 0.0 
1.166547394944e-04 -1.498119911639e-05 0.0 
-1.498119911639e-05 4.727327795466e-04 0.0 
0.0 0.0 0.0 
6.359083103202e-06 3.118744784793e-04 0.0 
3.118744784793e-04 1.434095528009e-03 0.0 
0.0 0.0 0.0 
1.594319458000e-04 8.649313470691e-05 0.0 
8.649313470691e-05 7.266166983073e-04 0.0 
0.0 0.0 0.0 
-1.941049653464e-05 3.066029071583e-04 0.0 
3.066029071583e-04 1.475191400476e-03 0.0 
0.0 0.0 0.0 
8.577456377790e-05 1.553542665546e-04 0.0 
1.553542665546e-04 6.705359322015e-04 0.0 
0.0 0.0 0.0 
1.032510602010e-04 2.775738564969e-04 0.0 
2.775738564969e-04 1.232757450086e-03 0.0 
0.0 0.0 0.0 
1.739346215706e-04 8.504953144463e-05 0.0 
8.504953144463e-05 6.676702150998e-04 0.0 
0.0 0.0 0.0 
1.290646657952e-04 3.488652045118e-05 0.0 
3.488652045118e-05 7.376849690162e-04 0.0 
0.0 0.0 0.0 
-2.171774180149e-05 3.115396574782e-04 0.0 
3.115396574782e-04 1.474542138607e-03 0.0 
0.0 0.0 0.0 
-9.941096039368e-05 8.923719992956e-05 0.0 
8.923719992956e-05 2.091007256475e-04 0.0 
0.0 0.0 0.0 
1.495659030422e-04 2.140388654412e-04 0.0 
2.140388654412e-04 9.910870542857e-04 0.0 
0.0 0.0 0.0 
-8.633311963446e-05 1.414016102742e-04 0.0 
1.414016102742e-04 3.756549396428e-04 0.0 
0.0 0.0 0.0 
2.645646386013e-05 -1.722321186280e-05 0.0 
-1.722321186280e-05 1.663495133646e-04 0.0 
0.0 0.0 0.0 
1.260145356869e-04 2.466494817211e-05 0.0 
2.466494817211e-05 6.981371445960e-04 0.0 
0.0 0.0 0.0 
-1.487085366225e-05 3.271518982850e-04 0.0 
3.271518982850e-04 1.645891655148e-03 0.0 
0.0 0.0 0.0 
-1.844879466739e-04 1.843684359922e-04 0.0 
1.843684359922e-04 1.971484917813e-03 0.0 
0.0 0.0 0.0 
-1.895798200261e-04 2.397462258795e-04 0.0 
2.397462258795e-04 1.452712817874e-03 0.0 
0.0 0.0 0.0 
0.0 2.115635884579e-04 0.0 
2.115635884579e-04 2.290951689699e-03 0.0 
0.0 0.0 0.0 
-1.427186366826e-04 1.680393957484e-04 0.0 
1.680393957484e-04 1.355816928585e-04 0.0 
0.0 0.0 0.0 
-2.056435581844e-04 2.414960967229e-04 0.0 
2.414960967229e-04 1.575476038258e-03 0.0 
0.0 0.0 0.0 
1.697563256984e-04 9.422053332736e-05 0.0 
9.422053332736e-05 7.521145388214e-04 0.0 
0.0 0.0 0.0 
1.138072180986e-04 5.231254309969e-06 0.0 
5.231254309969e-06 6.626500636417e-04 0.0 
0.0 0.0 0.0 
-1.687831563718e-04 2.686997429389e-04 0.0 
2.686997429389e-04 1.605442557312e-03 0.0 
0.0 0.0 0.0 
1.524573079894e-04 3.588886507569e-05 0.0 
3.588886507569e-05 4.898884472333e-04 0.0 
0.0 0.0 0.0 
1.483592856124e-04 7.270538219583e-05 0.0 
7.270538219583e-05 7.742633455483e-04 0.0 
0.0 0.0 0.0 
5.183260795927e-05 2.849980762508e-04 0.0 
2.849980762508e-04 1.303363814048e-03 0.0 
0.0 0.0 0.0 
1.414009398522e-04 2.282292953103e-04 0.0 
2.282292953103e-04 1.065738361699e-03 0.0 
0.0 0.0 0.0 
-5.119103251605e-05 3.249369264964e-04 0.0 
3.249369264964e-04 1.846644678256e-03 0.0 
0.0 0.0 0.0 
2.673571461709e-05 1.013053567616e-04 0.0 
1.013053567616e-04 3.181409043203e-04 0.0 
0.0 0.0 0.0 
1.266831781879e-04 1.589826320720e-05 0.0 
1.589826320720e-05 6.335152819119e-04 0.0 
0.0 0.0 0.0 
1.176210377902e-04 1.677550421265e-05 0.0 
1.677550421265e-05 6.886219668980e-04 0.0 
0.0 0.0 0.0 
8.067773186693e-05 -3.557217275049e-05 0.0 
-3.557217275049e-05 3.458261901488e-04 0.0 
0.0 0.0 0.0 
-2.070891424325e-04 1.082790081221e-04 0.0 
1.082790081221e-04 1.874636143372e-03 0.0 
0.0 0.0 0.0 
-2.003980333374e-04 2.027109682284e-04 0.0 
2.027109682284e-04 1.968991500715e-03 0.0 
0.0 0.0 0.0 
8.845149910952e-05 1.335905324995e-07 0.0 
1.335905324995e-07 8.822843380709e-04 0.0 
0.0 0.0 0.0 
1.392054369243e-05 -1.171172897745e-05 0.0 
-1.171172897745e-05 1.052203546592e-04 0.0 
0.0 0.0 0.0 
-8.863446865992e-05 -2.049413841858e-05 0.0 
-2.049413841858e-05 1.114911893227e-04 0.0 
0.0 0.0 0.0 
4.443583716762e-05 -4.256520560172e-05 0.0 
-4.256520560172e-05 2.395213629840e-04 0.0 
0.0 0.0 0.0 
1.106942366556e-04 5.861663306930e-06 0.0 
5.861663306930e-06 6.904515403989e-04 0.0 
0.0 0.0 0.0 
1.484659865847e-04 6.093285634997e-05 0.0 
6.093285634997e-05 5.816936918328e-04 0.0 
0.0 0.0 0.0 
1.326640708454e-04 1.709362101203e-05 0.0 
1.709362101203e-05 4.781466350785e-04 0.0 
0.0 0.0 0.0 
1.202523343189e-04 3.056764084518e-05 0.0 
3.056764084518e-05 4.533087068457e-04 0.0 
0.0 0.0 0.0 
1.201577374763e-04 2.423177244856e-05 0.0 
2.423177244856e-05 7.258869975764e-04 0.0 
0.0 0.0 0.0 
-1.473131414333e-04 2.488245238255e-04 0.0 
2.488245238255e-04 1.915333229491e-03 0.0 
0.0 0.0 0.0 
1.129438715082e-04 1.639601640472e-05 0.0 
1.639601640472e-05 7.169428519722e-04 0.0 
0.0 0.0 0.0 
1.650249127585e-04 8.745501651909e-05 0.0 
8.745501651909e-05 5.772493688005e-04 0.0 
0.0 0.0 0.0 
-1.769062326995e-05 3.110751965063e-04 0.0 
3.110751965063e-04 1.531722692828e-03 0.0 
0.0 0.0 0.0 
-1.614301147752e-04 3.395417607015e-05 0.0 
3.395417607015e-05 1.971320756796e-03 0.0 
0.0 0.0 0.0 
1.138589532832e-04 2.645122435151e-04 0.0 
2.645122435151e-04 1.220979974646e-03 0.0 
0.0 0.0 0.0 
1.075306449558e-04 5.712569905324e-06 0.0 
5.712569905324e-06 7.187671111903e-04 0.0 
0.0 0.0 0.0 
1.122556503874e-04 1.299681626475e-05 0.0 
1.299681626475e-05 7.279164608585e-04 0.0 
0.0 0.0 0.0 
-1.748787481718e-04 2.282707189379e-04 0.0 
2.282707189379e-04 1.240024371909e-03 0.0 
0.0 0.0 0.0 
1.517243473741e-04 5.371428488509e-05 0.0 
5.371428488509e-05 5.919656517972e-04 0.0 
0.0 0.0 0.0 
1.082412902318e-04 1.510166851583e-05 0.0 
1.510166851583e-05 7.453156195583e-04 0.0 
0.0 0.0 0.0 
-1.040504855758e-04 7.154760707392e-06 0.0 
7.154760707392e-06 2.081969479963e-03 0.0 
0.0 0.0 0.0 
-1.120338229588e-04 6.226857949540e-06 0.0 
6.226857949540e-06 2.027808215473e-03 0.0 
0.0 0.0 0.0 
-1.796197000838e-04 2.375062793578e-04 0.0 
2.375062793578e-04 1.347842931352e-03 0.0 
0.0 0.0 0.0 
1.142474383220e-04 2.333320726669e-05 0.0 
2.333320726669e-05 7.543635057972e-04 0.0 
0.0 0.0 0.0 
1.245676225567e-04 -4.025734864937e-06 0.0 
-4.025734864937e-06 4.501031679378e-04 0.0 
0.0 0.0 0.0 
-4.520916968365e-05 1.865267431098e-04 0.0 
1.865267431098e-04 4.372046756556e-04 0.0 
0.0 0.0 0.0 
6.408852381568e-05 2.862466802432e-04 0.0 
2.862466802432e-04 1.374810564899e-03 0.0 
0.0 0.0 0.0 
4.191972587564e-05 -3.044868916691e-05 0.0 
-3.044868916691e-05 2.174456159034e-04 0.0 
0.0 0.0 0.0 
1.424133145338e-04 1.489209436785e-05 0.0 
1.489209436785e-05 4.664119464091e-04 0.0 
0.0 0.0 0.0 
1.307664503623e-04 2.027681594775e-04 0.0 
2.027681594775e-04 9.989750776831e-04 0.0 
0.0 0.0 0.0 
-1.662163024548e-04 2.208615865162e-04 0.0 
2.208615865162e-04 1.457926736835e-03 0.0 
0.0 0.0 0.0 
1.045257562302e-04 4.561302275330e-06 0.0 
4.561302275330e-06 7.479942801751e-04 0.0 
0.0 0.0 0.0 
6.674616561209e-05 -8.580947185131e-06 0.0 
-8.580947185131e-06 3.225057799683e-04 0.0 
0.0 0.0 0.0 
-2.287163730361e-04 1.155016245390e-04 0.0 
1.155016245390e-04 1.911131414785e-03 0.0 
0.0 0.0 0.0 
1.077690343461e-04 1.240995688735e-05 0.0 
1.240995688735e-05 7.563210299102e-04 0.0 
0.0 0.0 0.0 
1.549876419749e-04 5.994587673096e-05 0.0 
5.994587673096e-05 6.868613059419e-04 0.0 
0.0 0.0 0.0 
1.209659758570e-04 1.251485552640e-05 0.0 
1.251485552640e-05 6.733523006988e-04 0.0 
0.0 0.0 0.0 
-7.862206042319e-05 5.156946314900e-05 0.0 
5.156946314900e-05 1.879301521699e-04 0.0 
0.0 0.0 0.0 
-6.955369764294e-05 3.859236975445e-06 0.0 
3.859236975445e-06 2.240789122556e-03 0.0 
0.0 0.0 0.0 
1.460138033424e-04 2.813427376352e-05 0.0 
2.813427376352e-05 5.558933801058e-04 0.0 
0.0 0.0 0.0 
1.093488798418e-04 2.152941356595e-04 0.0 
2.152941356595e-04 1.167596966537e-03 0.0 
0.0 0.0 0.0 
8.297825929948e-05 2.697462030226e-04 0.0 
2.697462030226e-04 1.250911143671e-03 0.0 
0.0 0.0 0.0 
1.083108884863e-04 2.182533570897e-05 0.0 
2.182533570897e-05 7.832948461735e-04 0.0 
0.0 0.0 0.0 
1.033995523558e-04 1.123655056291e-05 0.0 
1.123655056291e-05 7.851524529046e-04 0.0 
0.0 0.0 0.0 
1.587938545564e-04 6.399695057399e-05 0.0 
6.399695057399e-05 5.231103282302e-04 0.0 
0.0 0.0 0.0 
-3.260291355001e-06 -2.845962246959e-05 0.0 
-2.845962246959e-05 1.533350832572e-04 0.0 
0.0 0.0 0.0 
-6.070486555221e-05 9.212369302513e-05 0.0 
9.212369302513e-05 1.797278589819e-04 0.0 
0.0 0.0 0.0 
1.024835729402e-04 1.925697790421e-05 0.0 
1.925697790421e-05 8.126370240380e-04 0.0 
0.0 0.0 0.0 
1.094025152129e-04 1.838794261698e-04 0.0 
1.838794261698e-04 1.120331188562e-03 0.0 
0.0 0.0 0.0 
1.146432535359e-04 -1.751206046870e-05 0.0 
-1.751206046870e-05 4.307495070002e-04 0.0 
0.0 0.0 0.0 
8.713502964275e-06 3.172365332919e-04 0.0 
3.172365332919e-04 1.493849137189e-03 0.0 
0.0 0.0 0.0 
-6.096276483580e-05 2.631116099486e-04 0.0 
2.631116099486e-04 1.048405288294e-03 0.0 
0.0 0.0 0.0 
-4.011875939680e-05 3.154699597602e-04 0.0 
3.154699597602e-04 1.625951411915e-03 0.0 
0.0 0.0 0.0 
5.620055739830e-05 1.562698046792e-04 0.0 
1.562698046792e-04 1.228583692472e-03 0.0 
0.0 0.0 0.0 
-1.883467462759e-04 -3.241563181015e-06 0.0 
-3.241563181015e-06 9.956324090288e-05 0.0 
0.0 0.0 0.0 
0.0 1.831738289758e-05 0.0 
1.831738289758e-05 2.369016521691e-03 0.0 
0.0 0.0 0.0 
0.0 1.866203907683e-05 0.0 
1.866203907683e-05 1.241613058862e-03 0.0 
0.0 0.0 0.0 
-1.187022640727e-04 -4.904430264161e-06 0.0 
-4.904430264161e-06 1.929522921472e-03 0.0 
0.0 0.0 0.0 
1.372198036620e-04 8.972833044939e-06 0.0 
8.972833044939e-06 5.299939548580e-04 0.0 
0.0 0.0 0.0 
6.972508520819e-05 2.772793884307e-04 0.0 
2.772793884307e-04 1.274763405702e-03 0.0 
0.0 0.0 0.0 
1.427637372400e-04 6.993384229084e-05 0.0 
6.993384229084e-05 5.743239172693e-04 0.0 
0.0 0.0 0.0 
1.868378441894e-05 -3.023184958168e-05 0.0 
-3.023184958168e-05 1.450716496225e-04 0.0 
0.0 0.0 0.0 
-1.287593953165e-04 1.326093682842e-04 0.0 
1.326093682842e-04 2.250047365016e-04 0.0 
0.0 0.0 0.0 
-6.685617682600e-05 5.448187395082e-05 0.0 
5.448187395082e-05 2.282403958716e-03 0.0 
0.0 0.0 0.0 
-1.813182991804e-04 2.352704761981e-04 0.0 
2.352704761981e-04 1.944508262637e-03 0.0 
0.0 0.0 0.0 
-2.260530114983e-04 9.498095147473e-05 0.0 
9.498095147473e-05 1.869709839809e-03 0.0 
0.0 0.0 0.0 
1.557813018160e-05 4.001624361515e-04 0.0 
4.001624361515e-04 1.695411160680e-03 0.0 
0.0 0.0 0.0 
5.451956507918e-05 -8.661322146182e-06 0.0 
-8.661322146182e-06 2.671443508491e-04 0.0 
0.0 0.0 0.0 
1.833897760761e-05 3.866634936642e-04 0.0 
3.866634936642e-04 1.646655023234e-03 0.0 
0.0 0.0 0.0 
-1.686581448734e-04 2.193912378696e-04 0.0 
2.193912378696e-04 1.947126289223e-03 0.0 
0.0 0.0 0.0 
1.269762657232e-04 -4.351199261020e-06 0.0 
-4.351199261020e-06 5.108831532681e-04 0.0 
0.0 0.0 0.0 
9.449678384499e-05 2.739628308646e-04 0.0 
2.739628308646e-04 1.180901908639e-03 0.0 
0.0 0.0 0.0 
1.427482309553e-04 1.263413320810e-05 0.0 
1.263413320810e-05 4.863099070567e-04 0.0 
0.0 0.0 0.0 
-4.337155568190e-05 2.054335570872e-04 0.0 
2.054335570872e-04 5.276736126461e-04 0.0 
0.0 0.0 0.0 
1.306427875096e-04 4.254202395950e-07 0.0 
4.254202395950e-07 4.488892936441e-04 0.0 
0.0 0.0 0.0 
-1.221085431384e-04 2.743522098708e-04 0.0 
2.743522098708e-04 1.878042220977e-03 0.0 
0.0 0.0 0.0 
6.375873917586e-05 1.801587439027e-05 0.0 
1.801587439027e-05 1.032780619090e-03 0.0 
0.0 0.0 0.0 
1.537668091001e-04 3.078859239625e-05 0.0 
3.078859239625e-05 5.069175561807e-04 0.0 
0.0 0.0 0.0 
-1.230221084492e-05 3.225210331694e-04 0.0 
3.225210331694e-04 1.587468392767e-03 0.0 
0.0 0.0 0.0 
-1.282530916338e-04 -7.330829812300e-06 0.0 
-7.330829812300e-06 6.659024384881e-05 0.0 
0.0 0.0 0.0 
1.618367702050e-04 5.566279722397e-05 0.0 
5.566279722397e-05 5.361273221551e-04 0.0 
0.0 0.0 0.0 
-1.612773453957e-04 2.361664383661e-04 0.0 
2.361664383661e-04 2.038032024890e-03 0.0 
0.0 0.0 0.0 
1.184853852643e-04 -8.292368214622e-06 0.0 
-8.292368214622e-06 4.344612158638e-04 0.0 
0.0 0.0 0.0 
1.020468514614e-04 -2.733143280815e-05 0.0 
-2.733143280815e-05 3.943648465146e-04 0.0 
0.0 0.0 0.0 
8.934555618634e-05 2.584796058840e-04 0.0 
2.584796058840e-04 1.183474354752e-03 0.0 
0.0 0.0 0.0 
4.731831459459e-05 -2.010648717344e-05 0.0 
-2.010648717344e-05 2.213900820818e-04 0.0 
0.0 0.0 0.0 
-1.696065014307e-04 2.199663978831e-04 0.0 
2.199663978831e-04 1.028584744302e-03 0.0 
0.0 0.0 0.0 
-1.741186131246e-04 2.404721593427e-04 0.0 
2.404721593427e-04 1.141116699771e-03 0.0 
0.0 0.0 0.0 
1.039727382823e-04 -1.694573699327e-05 0.0 
-1.694573699327e-05 3.783360683267e-04 0.0 
0.0 0.0 0.0 
1.535242982569e-04 7.655429742221e-05 0.0 
7.655429742221e-05 7.555705895685e-04 0.0 
0.0 0.0 0.0 
1.445956992345e-04 2.123968429954e-04 0.0 
2.123968429954e-04 9.246686531739e-04 0.0 
0.0 0.0 0.0 
-1.589024367932e-05 3.175229748969e-04 0.0 
3.175229748969e-04 1.588050497152e-03 0.0 
0.0 0.0 0.0 
-4.813434037043e-05 3.194713743173e-04 0.0 
3.194713743173e-04 1.992961004795e-03 0.0 
0.0 0.0 0.0 
-1.499781809858e-04 2.273675527514e-04 0.0 
2.273675527514e-04 1.239941506254e-03 0.0 
0.0 0.0 0.0 
-9.432647231788e-05 1.224475793816e-07 0.0 
1.224475793816e-07 2.137916563407e-03 0.0 
0.0 0.0 0.0 
2.012695140108e-06 3.536514214402e-04 0.0 
3.536514214402e-04 1.757804628474e-03 0.0 
0.0 0.0 0.0 
1.532821705434e-04 7.423981939819e-05 0.0 
7.423981939819e-05 5.121842175471e-04 0.0 
0.0 0.0 0.0 
-9.745012109741e-05 1.984804327197e-04 0.0 
1.984804327197e-04 3.777294420306e-04 0.0 
0.0 0.0 0.0 
-8.280725163778e-05 2.657013273808e-04 0.0 
2.657013273808e-04 1.158946540312e-03 0.0 
0.0 0.0 0.0 
1.515116445636e-04 5.653924125056e-05 0.0 
5.653924125056e-05 7.048532469067e-04 0.0 
0.0 0.0 0.0 
-5.609868706158e-05 3.168475844853e-04 0.0 
3.168475844853e-04 1.715841699554e-03 0.0 
0.0 0.0 0.0 
1.677530417223e-04 7.450946004722e-05 0.0 
7.450946004722e-05 7.020331432341e-04 0.0 
0.0 0.0 0.0 
-2.884002746106e-05 6.671958569857e-05 0.0 
6.671958569857e-05 2.856012282610e-04 0.0 
0.0 0.0 0.0 
1.478572279878e-04 9.288243949143e-05 0.0 
9.288243949143e-05 8.263697158757e-04 0.0 
0.0 0.0 0.0 
-4.737750899864e-05 2.241188983257e-04 0.0 
2.241188983257e-04 6.260189389256e-04 0.0 
0.0 0.0 0.0 
1.343896453729e-04 1.894572980234e-04 0.0 
1.894572980234e-04 9.279963527902e-04 0.0 
0.0 0.0 0.0 
1.647069224280e-04 9.013047316512e-05 0.0 
9.013047316512e-05 7.714801890817e-04 0.0 
0.0 0.0 0.0 
1.089473587073e-04 2.657635445037e-04 0.0 
2.657635445037e-04 1.162105873470e-03 0.0 
0.0 0.0 0.0 
-1.136456388798e-04 9.443982818807e-06 0.0 
9.443982818807e-06 2.070393837191e-03 0.0 
0.0 0.0 0.0 
9.227288222657e-05 -3.157950697519e-05 0.0 
-3.157950697519e-05 3.803900854393e-04 0.0 
0.0 0.0 0.0 
-4.538279993016e-05 1.614902749368e-04 0.0 
1.614902749368e-04 3.517408262474e-04 0.0 
0.0 0.0 0.0 
1.574671563265e-04 1.060085382150e-04 0.0 
1.060085382150e-04 8.442412880609e-04 0.0 
0.0 0.0 0.0 
-4.798906966708e-05 2.349691804157e-04 0.0 
2.349691804157e-04 7.240209355768e-04 0.0 
0.0 0.0 0.0 
-7.744066854853e-05 2.152776206734e-05 0.0 
2.152776206734e-05 1.070715788569e-04 0.0 
0.0 0.0 0.0 
-4.432621331230e-05 1.228468662319e-05 0.0 
1.228468662319e-05 2.288887759508e-03 0.0 
0.0 0.0 0.0 
-6.423860916505e-05 1.091412933089e-05 0.0 
1.091412933089e-05 2.241066256554e-03 0.0 
0.0 0.0 0.0 
-2.915224760391e-05 -2.318626899287e-05 0.0 
-2.318626899287e-05 7.101450974090e-05 0.0 
0.0 0.0 0.0 
1.381567959076e-04 1.096420414347e-04 0.0 
1.096420414347e-04 9.004546019591e-04 0.0 
0.0 0.0 0.0 
6.327156835328e-05 -3.996000465955e-05 0.0 
-3.996000465955e-05 2.922616663121e-04 0.0 
0.0 0.0 0.0 
7.695691746057e-05 -2.338489633992e-05 0.0 
-2.338489633992e-05 3.118994707543e-04 0.0 
0.0 0.0 0.0 
-7.440414726334e-06 3.321463817986e-04 0.0 
3.321463817986e-04 1.645564811778e-03 0.0 
0.0 0.0 0.0 
1.011120887189e-04 2.489614823801e-04 0.0 
2.489614823801e-04 1.164422794134e-03 0.0 
0.0 0.0 0.0 
1.064335159362e-05 3.256067239452e-04 0.0 
3.256067239452e-04 1.553974827614e-03 0.0 
0.0 0.0 0.0 
1.448138159663e-04 3.222888389676e-05 0.0 
3.222888389676e-05 5.405824132583e-04 0.0 
0.0 0.0 0.0 
-1.259661835777e-04 7.900684701893e-08 0.0 
7.900684701893e-08 1.864770872408e-03 0.0 
0.0 0.0 0.0 
2.704999095471e-05 1.275008904403e-04 0.0 
1.275008904403e-04 1.211858369281e-03 0.0 
0.0 0.0 0.0 
5.814813321336e-05 -2.651519176239e-05 0.0 
-2.651519176239e-05 2.578364706520e-04 0.0 
0.0 0.0 0.0 
1.032174736506e-04 2.049979797988e-04 0.0 
2.049979797988e-04 1.150327571275e-03 0.0 
0.0 0.0 0.0 
1.218611241927e-04 2.140206946063e-04 0.0 
2.140206946063e-04 1.009828529612e-03 0.0 
0.0 0.0 0.0 
4.441844535186e-05 -5.289136467580e-06 0.0 
-5.289136467580e-06 2.000693328488e-04 0.0 
0.0 0.0 0.0 
-8.424264807927e-05 3.031038608302e-04 0.0 
3.031038608302e-04 1.755613360066e-03 0.0 
0.0 0.0 0.0 
1.686806626251e-04 7.790382667095e-05 0.0 
7.790382667095e-05 5.876662306499e-04 0.0 
0.0 0.0 0.0 
-1.010371457377e-05 -3.251447744162e-05 0.0 
-3.251447744162e-05 1.192711340907e-04 0.0 
0.0 0.0 0.0 
1.494425773623e-04 4.253286840490e-05 0.0 
4.253286840490e-05 4.743556834883e-04 0.0 
0.0 0.0 0.0 
9.424131545810e-05 5.543313824937e-06 0.0 
5.543313824937e-06 8.512689002231e-04 0.0 
0.0 0.0 0.0 
-1.297645427590e-04 2.850874177328e-04 0.0 
2.850874177328e-04 1.875635930070e-03 0.0 
0.0 0.0 0.0 
2.521849999093e-05 -4.770721881140e-05 0.0 
-4.770721881140e-05 2.008491636740e-04 0.0 
0.0 0.0 0.0 
1.063008688740e-04 -1.233313029134e-06 0.0 
-1.233313029134e-06 6.678347938143e-04 0.0 
0.0 0.0 0.0 
-3.068667127470e-05 3.262476821462e-04 0.0 
3.262476821462e-04 1.679333268917e-03 0.0 
0.0 0.0 0.0 
8.407638456509e-05 2.736202773415e-04 0.0 
2.736202773415e-04 1.303202371982e-03 0.0 
0.0 0.0 0.0 
1.176432820340e-04 -9.810457843940e-06 0.0 
-9.810457843940e-06 4.124218760728e-04 0.0 
0.0 0.0 0.0 
6.945135321601e-05 4.830363339800e-07 0.0 
4.830363339800e-07 3.227060373032e-04 0.0 
0.0 0.0 0.0 
1.418915142797e-04 2.240053544328e-04 0.0 
2.240053544328e-04 9.959891084885e-04 0.0 
0.0 0.0 0.0 
-1.076301165226e-04 -4.748705037624e-06 0.0 
-4.748705037624e-06 2.050464912513e-03 0.0 
0.0 0.0 0.0 
-1.675186599903e-05 -3.434700103303e-05 0.0 
-3.434700103303e-05 1.202772201951e-04 0.0 
0.0 0.0 0.0 
3.175014616552e-06 3.891044116459e-04 0.0 
3.891044116459e-04 1.769583460832e-03 0.0 
0.0 0.0 0.0 
-3.527698710570e-05 3.014991830975e-04 0.0 
3.014991830975e-04 2.113271531070e-03 0.0 
0.0 0.0 0.0 
-1.158481981999e-04 -3.228126504677e-06 0.0 
-3.228126504677e-06 1.966662412842e-03 0.0 
0.0 0.0 0.0 
-7.757264400510e-05 1.502244714942e-04 0.0 
1.502244714942e-04 2.287982261255e-03 0.0 
0.0 0.0 0.0 
-2.274595762641e-05 3.393973664633e-04 0.0 
3.393973664633e-04 2.019045644527e-03 0.0 
0.0 0.0 0.0 
1.630125875627e-04 4.963764101754e-05 0.0 
4.963764101754e-05 5.518675573886e-04 0.0 
0.0 0.0 0.0 
1.370688336708e-04 1.021636365364e-05 0.0 
1.021636365364e-05 5.108186607252e-04 0.0 
0.0 0.0 0.0 
5.775538641872e-05 2.677623127234e-04 0.0 
2.677623127234e-04 1.359448745601e-03 0.0 
0.0 0.0 0.0 
-1.235719676290e-04 7.318601525607e-06 0.0 
7.318601525607e-06 7.034272487738e-05 0.0 
0.0 0.0 0.0 
6.123164070559e-05 4.738089028082e-06 0.0 
4.738089028082e-06 2.924915027096e-04 0.0 
0.0 0.0 0.0 
1.041084398909e-04 6.480228666206e-06 0.0 
6.480228666206e-06 6.835695304761e-04 0.0 
0.0 0.0 0.0 
1.041985902850e-04 -2.523001975553e-05 0.0 
-2.523001975553e-05 4.152995629465e-04 0.0 
0.0 0.0 0.0 
1.408225164974e-04 1.807659414960e-05 0.0 
1.807659414960e-05 4.471634720096e-04 0.0 
0.0 0.0 0.0 
-1.629963932519e-04 2.121508124415e-04 0.0 
2.121508124415e-04 8.214885571456e-04 0.0 
0.0 0.0 0.0 
-1.767558830802e-04 2.346157923921e-04 0.0 
2.346157923921e-04 9.361289071894e-04 0.0 
0.0 0.0 0.0 
-1.600719379159e-04 2.271225178439e-05 0.0 
2.271225178439e-05 1.978271483965e-03 0.0 
0.0 0.0 0.0 
1.418286356969e-04 3.789699332264e-05 0.0 
3.789699332264e-05 5.275727045386e-04 0.0 
0.0 0.0 0.0 
7.494500500793e-05 -6.665366424399e-06 0.0 
-6.665366424399e-06 3.447130510557e-04 0.0 
0.0 0.0 0.0 
9.346372904617e-05 2.903165497576e-04 0.0 
2.903165497576e-04 1.305809990208e-03 0.0 
0.0 0.0 0.0 
2.444627022680e-05 1.060101122894e-04 0.0 
1.060101122894e-04 1.269023524856e-03 0.0 
0.0 0.0 0.0 
2.396916245728e-05 1.212886748822e-04 0.0 
1.212886748822e-04 1.274023298776e-03 0.0 
0.0 0.0 0.0 
1.534415417894e-04 2.770653791617e-05 0.0 
2.770653791617e-05 5.264067562372e-04 0.0 
0.0 0.0 0.0 
-1.710360094619e-04 2.682639533095e-05 0.0 
2.682639533095e-05 1.932641535622e-03 0.0 
0.0 0.0 0.0 
-1.260778540685e-04 3.012901023453e-06 0.0 
3.012901023453e-06 1.072300707794e-04 0.0 
0.0 0.0 0.0 
-1.593893716589e-04 2.024031349006e-04 0.0 
2.024031349006e-04 6.222822983299e-04 0.0 
0.0 0.0 0.0 
1.583975854236e-05 -3.367128132857e-05 0.0 
-3.367128132857e-05 2.257430052721e-04 0.0 
0.0 0.0 0.0 
-1.623389534978e-04 2.105369834656e-04 0.0 
2.105369834656e-04 7.276623047459e-04 0.0 
0.0 0.0 0.0 
1.170857938386e-04 2.257949264927e-04 0.0 
2.257949264927e-04 1.079691934092e-03 0.0 
0.0 0.0 0.0 
1.295424298633e-04 1.118947887853e-06 0.0 
1.118947887853e-06 4.283610441107e-04 0.0 
0.0 0.0 0.0 
1.356180373722e-04 1.288546426915e-05 0.0 
1.288546426915e-05 4.936563761875e-04 0.0 
0.0 0.0 0.0 
-6.018315246736e-05 -2.948849078122e-05 0.0 
-2.948849078122e-05 1.489093424585e-04 0.0 
0.0 0.0 0.0 
-5.613801269821e-05 1.587758911777e-05 0.0 
1.587758911777e-05 2.250670010985e-03 0.0 
0.0 0.0 0.0 
1.265528384615e-04 -5.096555648090e-06 0.0 
-5.096555648090e-06 4.693844252890e-04 0.0 
0.0 0.0 0.0 
-5.416969824468e-05 5.957857131402e-05 0.0 
5.957857131402e-05 2.281536353518e-03 0.0 
0.0 0.0 0.0 
-7.937636387478e-05 1.756735556172e-05 0.0 
1.756735556172e-05 2.209627664889e-03 0.0 
0.0 0.0 0.0 
-2.172227962449e-05 2.633909767427e-05 0.0 
2.633909767427e-05 2.367147471177e-03 0.0 
0.0 0.0 0.0 
1.916697904836e-05 2.428944027787e-05 0.0 
2.428944027787e-05 1.242748192046e-03 0.0 
0.0 0.0 0.0 
-1.173395351846e-04 4.904799154692e-06 0.0 
4.904799154692e-06 1.968551910668e-03 0.0 
0.0 0.0 0.0 
1.272694893961e-04 -5.134916087562e-06 0.0 
-5.134916087562e-06 4.894370281785e-04 0.0 
0.0 0.0 0.0 
-1.557564644338e-04 2.392609702903e-04 0.0 
2.392609702903e-04 1.030452116177e-03 0.0 
0.0 0.0 0.0 
1.418916804425e-04 1.201137802814e-05 0.0 
1.201137802814e-05 5.080367599000e-04 0.0 
0.0 0.0 0.0 
0.0 8.230696024944e-05 0.0 
8.230696024944e-05 1.260979374525e-03 0.0 
0.0 0.0 0.0 
-1.443507560512e-04 1.770296364120e-04 0.0 
1.770296364120e-04 4.161949134704e-04 0.0 
0.0 0.0 0.0 
-1.505945266129e-04 1.933442570588e-04 0.0 
1.933442570588e-04 5.195856870044e-04 0.0 
0.0 0.0 0.0 
9.152419416902e-05 2.311768048229e-04 0.0 
2.311768048229e-04 1.221145749726e-03 0.0 
0.0 0.0 0.0 
-1.437884544369e-04 1.180556981562e-05 0.0 
1.180556981562e-05 1.926248128962e-03 0.0 
0.0 0.0 0.0 
-4.837485550357e-05 4.030847718951e-05 0.0 
4.030847718951e-05 2.287382120467e-03 0.0 
0.0 0.0 0.0 
-3.609708186891e-05 3.222982971987e-04 0.0 
3.222982971987e-04 1.679586907801e-03 0.0 
0.0 0.0 0.0 
8.241808937304e-05 3.016113427255e-04 0.0 
3.016113427255e-04 1.372994513726e-03 0.0 
0.0 0.0 0.0 
-8.959147187126e-05 3.139623072956e-04 0.0 
3.139623072956e-04 1.877693398947e-03 0.0 
0.0 0.0 0.0 
-1.195308298143e-04 1.097892896709e-05 0.0 
1.097892896709e-05 1.982637589518e-03 0.0 
0.0 0.0 0.0 
8.902307993996e-05 -3.421089259953e-05 0.0 
-3.421089259953e-05 3.596582768863e-04 0.0 
0.0 0.0 0.0 
1.012135965661e-04 -1.821400974247e-05 0.0 
-1.821400974247e-05 3.575090333126e-04 0.0 
0.0 0.0 0.0 
-9.787218042545e-05 1.189092191355e-05 0.0 
1.189092191355e-05 2.109171286822e-03 0.0 
0.0 0.0 0.0 
6.531016140654e-05 2.919346717395e-04 0.0 
2.919346717395e-04 1.380511065827e-03 0.0 
0.0 0.0 0.0 
-1.925097856751e-04 4.232848212295e-05 0.0 
4.232848212295e-05 1.880932072958e-03 0.0 
0.0 0.0 0.0 
-1.219389982312e-04 9.356261121491e-07 0.0 
9.356261121491e-07 1.916037350377e-03 0.0 
0.0 0.0 0.0 
-1.203850597464e-04 1.812125668398e-06 0.0 
1.812125668398e-06 1.966582487801e-03 0.0 
0.0 0.0 0.0 
-1.269389663683e-04 2.322884659653e-06 0.0 
2.322884659653e-06 1.985955883023e-03 0.0 
0.0 0.0 0.0 
8.768879926846e-06 -2.001857247162e-06 0.0 
-2.001857247162e-06 1.927002741122e-04 0.0 
0.0 0.0 0.0 
8.653163441341e-05 -2.375377924347e-05 0.0 
-2.375377924347e-05 3.241860515466e-04 0.0 
0.0 0.0 0.0 
-4.803475126036e-05 8.664755653141e-05 0.0 
8.664755653141e-05 2.322816148431e-03 0.0 
0.0 0.0 0.0 
-1.225182533183e-04 9.198139998383e-06 0.0 
9.198139998383e-06 2.045254155634e-03 0.0 
0.0 0.0 0.0 
4.052418872780e-05 3.101727580300e-04 0.0 
3.101727580300e-04 1.450648315963e-03 0.0 
0.0 0.0 0.0 
-7.206157603401e-05 3.346940033053e-04 0.0 
3.346940033053e-04 1.986946551801e-03 0.0 
0.0 0.0 0.0 
-8.706753254817e-05 3.078294677864e-04 0.0 
3.078294677864e-04 1.754759324462e-03 0.0 
0.0 0.0 0.0 
-9.895625053091e-05 1.564692389026e-04 0.0 
1.564692389026e-04 2.254077280356e-03 0.0 
0.0 0.0 0.0 
1.033105677928e-04 -2.760972449414e-06 0.0 
-2.760972449414e-06 4.912253842626e-04 0.0 
0.0 0.0 0.0 
9.181091323618e-05 -5.331683599728e-06 0.0 
-5.331683599728e-06 4.451341054184e-04 0.0 
0.0 0.0 0.0 
5.966280951353e-05 1.258173943027e-04 0.0 
1.258173943027e-04 1.147577663358e-03 0.0 
0.0 0.0 0.0 
-6.330177249658e-05 -1.534814757422e-05 0.0 
-1.534814757422e-05 8.743889865892e-05 0.0 
0.0 0.0 0.0 
6.117063777689e-05 -9.941771092471e-06 0.0 
-9.941771092471e-06 3.095881056656e-04 0.0 
0.0 0.0 0.0 
0.0 3.745477299398e-04 0.0 
3.745477299398e-04 1.669271605072e-03 0.0 
0.0 0.0 0.0 
3.221173827050e-05 -8.034307341111e-06 0.0 
-8.034307341111e-06 1.474231600183e-04 0.0 
0.0 0.0 0.0 
-1.200581788450e-04 1.793228579542e-06 0.0 
1.793228579542e-06 1.916373321756e-03 0.0 
0.0 0.0 0.0 
8.016863334093e-05 2.235441771485e-04 0.0 
2.235441771485e-04 1.249227612807e-03 0.0 
0.0 0.0 0.0 
-1.200979532223e-05 -1.982835539617e-05 0.0 
-1.982835539617e-05 1.057748859008e-04 0.0 
0.0 0.0 0.0 
-8.418176109193e-06 -1.358073100763e-05 0.0 
-1.358073100763e-05 5.696295589241e-05 0.0 
0.0 0.0 0.0 
-3.365847311865e-05 1.340783226225e-04 0.0 
1.340783226225e-04 2.341111382598e-03 0.0 
0.0 0.0 0.0 
-1.365751858757e-04 1.487928940726e-06 0.0 
1.487928940726e-06 1.868717622217e-03 0.0 
0.0 0.0 0.0 
-5.315461195743e-05 1.189630937697e-04 0.0 
1.189630937697e-04 2.306282365755e-03 0.0 
0.0 0.0 0.0 
6.169112735499e-05 2.365126859413e-04 0.0 
2.365126859413e-04 1.279441577737e-03 0.0 
0.0 0.0 0.0 
-1.349196440386e-04 -9.943932214836e-07 0.0 
-9.943932214836e-07 1.866608077774e-03 0.0 
0.0 0.0 0.0 
-1.235962745666e-04 8.367807477724e-06 0.0 
8.367807477724e-06 1.225735889114e-04 0.0 
0.0 0.0 0.0 
-2.326889206106e-05 1.853333727042e-05 0.0 
1.853333727042e-05 2.329799032250e-03 0.0 
0.0 0.0 0.0 
3.088861640155e-05 -2.865330754427e-05 0.0 
-2.865330754427e-05 1.669244281026e-04 0.0 
0.0 0.0 0.0 
-5.515381442223e-05 9.689057274487e-05 0.0 
9.689057274487e-05 2.287451890536e-03 0.0 
0.0 0.0 0.0 
0.0 6.456098113777e-05 0.0 
6.456098113777e-05 1.253705686888e-03 0.0 
0.0 0.0 0.0 
-8.229092389866e-05 2.892836080218e-04 0.0 
2.892836080218e-04 2.083766338171e-03 0.0 
0.0 0.0 0.0 
5.219207077967e-05 1.293222739269e-06 0.0 
1.293222739269e-06 2.360907807435e-04 0.0 
0.0 0.0 0.0 
-1.839369258622e-04 6.325533181760e-05 0.0 
6.325533181760e-05 1.971703891780e-03 0.0 
0.0 0.0 0.0 
9.422544284043e-05 -8.541223647392e-06 0.0 
-8.541223647392e-06 5.003170834721e-04 0.0 
0.0 0.0 0.0 
8.000593826640e-05 2.733614806933e-04 0.0 
2.733614806933e-04 1.307097157576e-03 0.0 
0.0 0.0 0.0 
2.287830147063e-05 3.361207700673e-04 0.0 
3.361207700673e-04 1.525121329252e-03 0.0 
0.0 0.0 0.0 
-8.797425373419e-05 1.407271884017e-05 0.0 
1.407271884017e-05 2.168114925286e-03 0.0 
0.0 0.0 0.0 
3.172169644294e-05 3.185215116287e-04 0.0 
3.185215116287e-04 1.480308069469e-03 0.0 
0.0 0.0 0.0 
-3.067783073174e-05 -5.899237636583e-06 0.0 
-5.899237636583e-06 1.303948250253e-04 0.0 
0.0 0.0 0.0 
3.393262639539e-05 7.968450010246e-05 0.0 
7.968450010246e-05 1.196896693172e-03 0.0 
0.0 0.0 0.0 
6.022533467576e-05 -5.385490294499e-06 0.0 
-5.385490294499e-06 2.640274712260e-04 0.0 
0.0 0.0 0.0 
3.315470152154e-05 -8.292960627211e-06 0.0 
-8.292960627211e-06 1.479245700082e-04 0.0 
0.0 0.0 0.0 
5.303301339676e-05 2.086226036342e-04 0.0 
2.086226036342e-04 1.287657081559e-03 0.0 
0.0 0.0 0.0 
-7.690749520262e-05 2.276800705797e-04 0.0 
2.276800705797e-04 2.244685009182e-03 0.0 
0.0 0.0 0.0 
-4.656602837605e-05 1.360672987923e-04 0.0 
1.360672987923e-04 2.311855103192e-03 0.0 
0.0 0.0 0.0 
-1.264380936350e-04 7.965416324406e-06 0.0 
7.965416324406e-06 1.916142800045e-03 0.0 
0.0 0.0 0.0 
-2.028031585543e-04 1.202663672766e-04 0.0 
1.202663672766e-04 1.955039873552e-03 0.0 
0.0 0.0 0.0 
-4.295875000337e-05 1.591034554698e-04 0.0 
1.591034554698e-04 5.254340959735e-04 0.0 
0.0 0.0 0.0 
-4.596462497253e-05 3.613213891995e-04 0.0 
3.613213891995e-04 2.003684106050e-03 0.0 
0.0 0.0 0.0 
8.675301292094e-05 -1.748791096380e-06 0.0 
-1.748791096380e-06 4.118681303606e-04 0.0 
0.0 0.0 0.0 
-3.524420595047e-05 7.740842286799e-05 0.0 
7.740842286799e-05 2.627271443960e-04 0.0 
0.0 0.0 0.0 
9.831556807427e-05 2.880210179997e-04 0.0 
2.880210179997e-04 1.301238888185e-03 0.0 
0.0 0.0 0.0 
-1.247268122013e-04 -4.246999132604e-07 0.0 
-4.246999132604e-07 1.861060182985e-03 0.0 
0.0 0.0 0.0 
-7.101915541041e-05 2.180819900677e-04 0.0 
2.180819900677e-04 2.211794589708e-03 0.0 
0.0 0.0 0.0 
-1.782040577991e-05 -2.734236100302e-06 0.0 
-2.734236100302e-06 2.366317333267e-03 0.0 
0.0 0.0 0.0 
0.0 8.910202889906e-06 0.0 
8.910202889906e-06 2.371785805467e-03 0.0 
0.0 0.0 0.0 
7.194689006340e-06 -4.762048196199e-07 0.0 
-4.762048196199e-07 1.146601379309e-05 0.0 
0.0 0.0 0.0 
8.473111615670e-06 5.950000692371e-07 0.0 
5.950000692371e-07 1.233000096157e-05 0.0 
0.0 0.0 0.0 
-1.206523638553e-04 -4.430012606032e-06 0.0 
-4.430012606032e-06 1.866891357497e-03 0.0 
0.0 0.0 0.0 
-1.234107684466e-04 4.892991691520e-07 0.0 
4.892991691520e-07 1.859811138538e-03 0.0 
0.0 0.0 0.0 
0.0 9.114986780632e-06 0.0 
9.114986780632e-06 1.241586459628e-03 0.0 
0.0 0.0 0.0 
1.822997356116e-05 5.799172477217e-06 0.0 
5.799172477217e-06 1.229988114673e-03 0.0 
0.0 0.0 0.0 
1.043671378320e-05 1.529289515789e-06 0.0 
1.529289515789e-06 4.626008278819e-05 0.0 
0.0 0.0 0.0 
-1.213872681424e-04 -6.289486376862e-06 0.0 
-6.289486376862e-06 6.489525363707e-05 0.0 
0.0 0.0 0.0 
4.255145480614e-05 4.863928241237e-05 0.0 
4.863928241237e-05 1.115771010463e-03 0.0 
0.0 0.0 0.0 
4.855482242627e-05 3.517455193851e-04 0.0 
3.517455193851e-04 1.545829289111e-03 0.0 
0.0 0.0 0.0 
3.421389417158e-05 -2.370670206087e-05 0.0 
-2.370670206087e-05 1.966518710181e-04 0.0 
0.0 0.0 0.0 
4.259785860050e-05 8.426814958192e-05 0.0 
8.426814958192e-05 1.147889278401e-03 0.0 
0.0 0.0 0.0 
1.024792081483e-04 7.138156118401e-07 0.0 
7.138156118401e-07 7.364960106713e-04 0.0 
0.0 0.0 0.0 
1.029533078878e-04 -4.495069974672e-06 0.0 
-4.495069974672e-06 6.223593259354e-04 0.0 
0.0 0.0 0.0 
-1.143209777628e-04 1.403617815428e-05 0.0 
1.403617815428e-05 2.073199405130e-03 0.0 
0.0 0.0 0.0 
1.973822546919e-05 -2.566308223383e-05 0.0 
-2.566308223383e-05 1.996013420962e-04 0.0 
0.0 0.0 0.0 
9.145737023797e-05 2.609063486943e-04 0.0 
2.609063486943e-04 1.234953640587e-03 0.0 
0.0 0.0 0.0 
2.038360028167e-05 -1.756476112138e-05 0.0 
-1.756476112138e-05 1.552305763184e-04 0.0 
0.0 0.0 0.0 
1.050755726169e-04 -7.167504522421e-06 0.0 
-7.167504522421e-06 5.581644777142e-04 0.0 
0.0 0.0 0.0 
-3.376405375677e-05 3.375214341763e-04 0.0 
3.375214341763e-04 1.954158586357e-03 0.0 
0.0 0.0 0.0 
-5.680054045731e-05 -3.529504903415e-06 0.0 
-3.529504903415e-06 2.269090867256e-03 0.0 
0.0 0.0 0.0 
1.068169106613e-04 3.120784000330e-06 0.0 
3.120784000330e-06 6.179940002917e-04 0.0 
0.0 0.0 0.0 
-1.168632117048e-04 -2.105489615369e-07 0.0 
-2.105489615369e-07 2.010353425903e-03 0.0 
0.0 0.0 0.0 
1.511135148879e-05 3.716305323087e-04 0.0 
3.716305323087e-04 1.683667954319e-03 0.0 
0.0 0.0 0.0 
-6.734835797417e-05 3.266109795382e-04 0.0 
3.266109795382e-04 1.846486445599e-03 0.0 
0.0 0.0 0.0 
-7.774082639767e-05 3.158932657288e-04 0.0 
3.158932657288e-04 1.799837731935e-03 0.0 
0.0 0.0 0.0 
-1.304429110559e-04 9.545947092185e-08 0.0 
9.545947092185e-08 1.865855084046e-03 0.0 
0.0 0.0 0.0 
1.086049767705e-04 2.396894289010e-04 0.0 
2.396894289010e-04 1.152278956926e-03 0.0 
0.0 0.0 0.0 
-6.903004114756e-05 2.542923996141e-04 0.0 
2.542923996141e-04 2.155048901038e-03 0.0 
0.0 0.0 0.0 
6.696422199193e-05 -4.955095043436e-06 0.0 
-4.955095043436e-06 3.086985851934e-04 0.0 
0.0 0.0 0.0 
-4.637731371482e-05 -2.310172624263e-05 0.0 
-2.310172624263e-05 7.721362157254e-05 0.0 
0.0 0.0 0.0 
-9.213030303101e-07 3.420761729734e-04 0.0 
3.420761729734e-04 1.671560903932e-03 0.0 
0.0 0.0 0.0 
1.178359352787e-04 2.179667037987e-04 0.0 
2.179667037987e-04 1.149445636356e-03 0.0 
0.0 0.0 0.0 
1.212389625405e-05 -4.321699705749e-05 0.0 
-4.321699705749e-05 1.627271335569e-04 0.0 
0.0 0.0 0.0 
-1.049330352707e-04 5.068422303014e-06 0.0 
5.068422303014e-06 2.112840113818e-03 0.0 
0.0 0.0 0.0 
2.089034698005e-05 4.646754307218e-05 0.0 
4.646754307218e-05 1.175364552450e-03 0.0 
0.0 0.0 0.0 
3.768253806968e-05 3.351282945320e-04 0.0 
3.351282945320e-04 1.555640787830e-03 0.0 
0.0 0.0 0.0 
2.359049925249e-05 3.635484372879e-04 0.0 
3.635484372879e-04 1.630642195616e-03 0.0 
0.0 0.0 0.0 
9.697932650243e-05 -1.596293944724e-06 0.0 
-1.596293944724e-06 8.075977123057e-04 0.0 
0.0 0.0 0.0 
-7.847907577496e-05 6.164033221926e-05 0.0 
6.164033221926e-05 1.136272975151e-04 0.0 
0.0 0.0 0.0 
-1.662808082646e-04 2.399996925459e-04 0.0 
2.399996925459e-04 8.239743257286e-04 0.0 
0.0 0.0 0.0 
-5.306715389597e-05 1.991297814721e-04 0.0 
1.991297814721e-04 7.226232765842e-04 0.0 
0.0 0.0 0.0 
-1.935460782971e-04 6.933087667860e-05 0.0 
6.933087667860e-05 1.981001008837e-03 0.0 
0.0 0.0 0.0 
1.205455294961e-04 2.583869041881e-04 0.0 
2.583869041881e-04 1.149983020604e-03 0.0 
0.0 0.0 0.0 
-5.708725881537e-05 6.809798844487e-05 0.0 
6.809798844487e-05 2.297177047746e-03 0.0 
0.0 0.0 0.0 
3.848140171048e-05 2.647893439418e-04 0.0 
2.647893439418e-04 1.365182279136e-03 0.0 
0.0 0.0 0.0 
-4.376707631559e-05 -3.442908943613e-05 0.0 
-3.442908943613e-05 1.312250033325e-04 0.0 
0.0 0.0 0.0 
-2.964469077960e-05 -3.243153358456e-05 0.0 
-3.243153358456e-05 1.177235944054e-04 0.0 
0.0 0.0 0.0 
-1.647455477986e-04 2.435963045847e-04 0.0 
2.435963045847e-04 6.258777860790e-04 0.0 
0.0 0.0 0.0 
-9.741291636334e-05 2.389971866497e-05 0.0 
2.389971866497e-05 2.130226262667e-03 0.0 
0.0 0.0 0.0 
7.734572776408e-05 -1.721115140429e-05 0.0 
-1.721115140429e-05 3.825849532559e-04 0.0 
0.0 0.0 0.0 
-8.426280351514e-05 1.800637175363e-04 0.0 
1.800637175363e-04 2.253709175856e-03 0.0 
0.0 0.0 0.0 
3.486709591405e-05 -1.647967210718e-05 0.0 
-1.647967210718e-05 1.869890492898e-04 0.0 
0.0 0.0 0.0 
7.251969544608e-05 2.519837304887e-04 0.0 
2.519837304887e-04 1.294255912220e-03 0.0 
0.0 0.0 0.0 
-1.457966393128e-04 2.328057524271e-05 0.0 
2.328057524271e-05 1.977973053677e-03 0.0 
0.0 0.0 0.0 
2.457585874449e-05 3.341535560180e-04 0.0 
3.341535560180e-04 1.537850467107e-03 0.0 
0.0 0.0 0.0 
6.170900022684e-05 2.961806985042e-04 0.0 
2.961806985042e-04 1.389807891015e-03 0.0 
0.0 0.0 0.0 
-2.099473897165e-04 9.126271220636e-05 0.0 
9.126271220636e-05 1.977329466950e-03 0.0 
0.0 0.0 0.0 
5.372930758574e-05 1.734601432888e-04 0.0 
1.734601432888e-04 1.249967168349e-03 0.0 
0.0 0.0 0.0 
-6.682793643220e-05 2.098378341541e-04 0.0 
2.098378341541e-04 2.262638553332e-03 0.0 
0.0 0.0 0.0 
-3.739904634481e-05 1.793298043575e-05 0.0 
1.793298043575e-05 2.332222282089e-03 0.0 
0.0 0.0 0.0 
-1.627587230846e-04 2.327545715296e-04 0.0 
2.327545715296e-04 4.190806698685e-04 0.0 
0.0 0.0 0.0 
-7.686841047827e-05 1.564960056694e-04 0.0 
1.564960056694e-04 2.254043575867e-03 0.0 
0.0 0.0 0.0 
7.451294337102e-08 3.686313981023e-04 0.0 
3.686313981023e-04 1.795511379532e-03 0.0 
0.0 0.0 0.0 
7.745710992091e-05 2.517657445243e-04 0.0 
2.517657445243e-04 1.294137526834e-03 0.0 
0.0 0.0 0.0 
8.380709093836e-05 3.054213923285e-04 0.0 
3.054213923285e-04 1.377150435471e-03 0.0 
0.0 0.0 0.0 
0.0 1.108898457811e-04 0.0 
1.108898457811e-04 1.271381583890e-03 0.0 
0.0 0.0 0.0 
-6.790490084774e-05 3.138637216722e-04 0.0 
3.138637216722e-04 1.800069300279e-03 0.0 
0.0 0.0 0.0 
-1.122282179791e-04 5.486459728993e-05 0.0 
5.486459728993e-05 5.838291616223e-05 0.0 
0.0 0.0 0.0 
-4.618478321228e-05 1.088253937354e-04 0.0 
1.088253937354e-04 3.498603813958e-04 0.0 
0.0 0.0 0.0 
-7.145385633855e-05 3.284814489762e-04 0.0 
3.284814489762e-04 1.918981657659e-03 0.0 
0.0 0.0 0.0 
-1.791653563274e-04 7.681294996219e-05 0.0 
7.681294996219e-05 2.019375699629e-03 0.0 
0.0 0.0 0.0 
4.548455957853e-05 2.112053523516e-05 0.0 
2.112053523516e-05 1.107912403949e-03 0.0 
0.0 0.0 0.0 
4.707561425787e-05 3.129168619470e-04 0.0 
3.129168619470e-04 1.458600804018e-03 0.0 
0.0 0.0 0.0 
2.404294075831e-05 9.300380182429e-05 0.0 
9.300380182429e-05 1.203241406846e-03 0.0 
0.0 0.0 0.0 
-8.527248131962e-05 2.936169767680e-05 0.0 
2.936169767680e-05 2.187192691760e-03 0.0 
0.0 0.0 0.0 
2.181927415323e-05 3.210061324782e-04 0.0 
3.210061324782e-04 1.499935741702e-03 0.0 
0.0 0.0 0.0 
5.414837232287e-05 1.459730624614e-04 0.0 
1.459730624614e-04 1.184435829547e-03 0.0 
0.0 0.0 0.0 
6.459451932406e-05 1.573636459850e-04 0.0 
1.573636459850e-04 1.183380048974e-03 0.0 
0.0 0.0 0.0 
7.924218225797e-05 -1.229913433458e-05 0.0 
-1.229913433458e-05 3.970568908394e-04 0.0 
0.0 0.0 0.0 
2.624170004029e-05 9.062615120594e-05 0.0 
9.062615120594e-05 1.263232193008e-03 0.0 
0.0 0.0 0.0 
-1.593274977824e-04 2.320019065828e-05 0.0 
2.320019065828e-05 1.921927005693e-03 0.0 
0.0 0.0 0.0 
-5.633281719997e-05 3.376020352831e-05 0.0 
3.376020352831e-05 2.288218172133e-03 0.0 
0.0 0.0 0.0 
-5.563414965382e-06 -3.795332415862e-05 0.0 
-3.795332415862e-05 1.155203863288e-04 0.0 
0.0 0.0 0.0 
-6.966557011689e-05 1.427716504364e-05 0.0 
1.427716504364e-05 2.251780658983e-03 0.0 
0.0 0.0 0.0 
-1.065518171666e-04 1.286309977672e-05 0.0 
1.286309977672e-05 2.117593227437e-03 0.0 
0.0 0.0 0.0 
1.880393456544e-05 -6.854429150251e-06 0.0 
-6.854429150251e-06 1.018282160199e-04 0.0 
0.0 0.0 0.0 
2.027383034031e-05 -2.288081689325e-05 0.0 
-2.288081689325e-05 2.305907973879e-04 0.0 
0.0 0.0 0.0 
-4.376788851068e-05 3.270888595659e-04 0.0 
3.270888595659e-04 1.767529851726e-03 0.0 
0.0 0.0 0.0 
-3.364277785967e-05 1.032971782753e-04 0.0 
1.032971782753e-04 2.317630526978e-03 0.0 
0.0 0.0 0.0 
-5.087499169032e-05 1.503291427104e-05 0.0 
1.503291427104e-05 2.294759327837e-03 0.0 
0.0 0.0 0.0 
5.909446622465e-05 3.251047792892e-04 0.0 
3.251047792892e-04 1.450709692891e-03 0.0 
0.0 0.0 0.0 
-1.208752118766e-04 1.709373091641e-05 0.0 
1.709373091641e-05 2.013676920930e-03 0.0 
0.0 0.0 0.0 
-2.577989574060e-05 -2.146076914282e-05 0.0 
-2.146076914282e-05 6.746043496064e-05 0.0 
0.0 0.0 0.0 
-6.410342082741e-05 4.504477467549e-05 0.0 
4.504477467549e-05 1.604597393672e-04 0.0 
0.0 0.0 0.0 
-1.405269076049e-05 -1.250351540288e-05 0.0 
-1.250351540288e-05 7.332681486893e-05 0.0 
0.0 0.0 0.0 
-8.747739169701e-07 -4.405739133722e-05 0.0 
-4.405739133722e-05 1.535847922152e-04 0.0 
0.0 0.0 0.0 
-1.193796725921e-04 1.101475412183e-04 0.0 
1.101475412183e-04 8.128787588646e-05 0.0 
0.0 0.0 0.0 
1.022036935097e-04 1.007433925302e-06 0.0 
1.007433925302e-06 5.436132866390e-04 0.0 
0.0 0.0 0.0 
4.864344759015e-05 3.217075166973e-05 0.0 
3.217075166973e-05 1.107677126148e-03 0.0 
0.0 0.0 0.0 
-6.908330709776e-05 2.950728797984e-04 0.0 
2.950728797984e-04 2.084520759335e-03 0.0 
0.0 0.0 0.0 
-2.185196564179e-04 1.321182931337e-04 0.0 
1.321182931337e-04 1.990962399066e-03 0.0 
0.0 0.0 0.0 
9.536678696165e-05 -1.628038031963e-05 0.0 
-1.628038031963e-05 4.696606949901e-04 0.0 
0.0 0.0 0.0 
5.850504476479e-05 1.179222706895e-04 0.0 
1.179222706895e-04 1.150311887290e-03 0.0 
0.0 0.0 0.0 
8.971793369206e-05 2.054698421734e-04 0.0 
2.054698421734e-04 1.203457497683e-03 0.0 
0.0 0.0 0.0 
4.258409609115e-05 3.586622613215e-04 0.0 
3.586622613215e-04 1.555632575648e-03 0.0 
0.0 0.0 0.0 
2.068808483413e-06 3.500799202569e-04 0.0 
3.500799202569e-04 1.718693251463e-03 0.0 
0.0 0.0 0.0 
-3.148621191151e-05 3.399690650031e-04 0.0 
3.399690650031e-04 1.818848676744e-03 0.0 
0.0 0.0 0.0 
-6.015203902643e-06 -2.726748026746e-05 0.0 
-2.726748026746e-05 1.118176169173e-04 0.0 
0.0 0.0 0.0 
-7.558195902224e-05 -2.202515231213e-05 0.0 
-2.202515231213e-05 1.394124197398e-04 0.0 
0.0 0.0 0.0 
4.591163449219e-05 4.064906485321e-05 0.0 
4.064906485321e-05 1.118263935945e-03 0.0 
0.0 0.0 0.0 
2.636220671937e-05 -3.708700909356e-06 0.0 
-3.708700909356e-06 9.938480145899e-05 0.0 
0.0 0.0 0.0 
2.508288755521e-05 5.554531816233e-06 0.0 
5.554531816233e-06 1.238076999361e-04 0.0 
0.0 0.0 0.0 
-9.497453843477e-05 1.450964368636e-04 0.0 
1.450964368636e-04 1.982071577162e-04 0.0 
0.0 0.0 0.0 
-2.775253195586e-06 -3.215755508761e-05 0.0 
-3.215755508761e-05 1.053929030916e-04 0.0 
0.0 0.0 0.0 
2.766302520496e-05 1.592949301575e-04 0.0 
1.592949301575e-04 1.242649205641e-03 0.0 
0.0 0.0 0.0 
-1.919918828019e-05 3.606346540380e-04 0.0 
3.606346540380e-04 1.921380784482e-03 0.0 
0.0 0.0 0.0 
-4.922843391675e-05 7.249293217641e-05 0.0 
7.249293217641e-05 2.297423787657e-03 0.0 
0.0 0.0 0.0 
1.868409514505e-05 3.471552659755e-04 0.0 
3.471552659755e-04 1.584863968574e-03 0.0 
0.0 0.0 0.0 
8.316779411777e-05 1.921638278756e-04 0.0 
1.921638278756e-04 1.176491824329e-03 0.0 
0.0 0.0 0.0 
-1.152247472062e-04 1.912671706050e-05 0.0 
1.912671706050e-05 2.046156317419e-03 0.0 
0.0 0.0 0.0 
0.0 1.444927959377e-04 0.0 
1.444927959377e-04 2.337791990621e-03 0.0 
0.0 0.0 0.0 
5.190471768546e-05 -3.396434398390e-05 0.0 
-3.396434398390e-05 2.630527451091e-04 0.0 
0.0 0.0 0.0 
-1.289314198725e-04 -8.270496940673e-08 0.0 
-8.270496940673e-08 1.862051022922e-03 0.0 
0.0 0.0 0.0 
-1.692266396847e-05 -3.579288603130e-05 0.0 
-3.579288603130e-05 1.684057677338e-04 0.0 
0.0 0.0 0.0 
6.839251040391e-06 -1.145633251590e-05 0.0 
-1.145633251590e-05 5.543935746855e-05 0.0 
0.0 0.0 0.0 
2.435273585455e-05 6.299435673751e-05 0.0 
6.299435673751e-05 1.250768861625e-03 0.0 
0.0 0.0 0.0 
-1.982669775694e-04 7.164749800764e-05 0.0 
7.164749800764e-05 1.917828833874e-03 0.0 
0.0 0.0 0.0 
2.457521072818e-05 -1.180800117014e-05 0.0 
-1.180800117014e-05 1.470682243598e-04 0.0 
0.0 0.0 0.0 
9.977171533859e-05 2.787217609306e-06 0.0 
2.787217609306e-06 5.210147374441e-04 0.0 
0.0 0.0 0.0 
-2.754527853877e-05 3.773646105176e-04 0.0 
3.773646105176e-04 1.947507408276e-03 0.0 
0.0 0.0 0.0 
-7.237297608698e-05 9.487441459324e-05 0.0 
9.487441459324e-05 2.288495888724e-03 0.0 
0.0 0.0 0.0 
-4.146082097201e-05 2.318488632985e-04 0.0 
2.318488632985e-04 2.233474684872e-03 0.0 
0.0 0.0 0.0 
7.268938120175e-05 -1.085142817731e-05 0.0 
-1.085142817731e-05 3.607524514482e-04 0.0 
0.0 0.0 0.0 
-6.246885776828e-05 -3.651533292138e-06 0.0 
-3.651533292138e-06 1.462937120751e-04 0.0 
0.0 0.0 0.0 
4.067954452713e-05 1.021387294839e-04 0.0 
1.021387294839e-04 1.206579743241e-03 0.0 
0.0 0.0 0.0 
-1.916901235632e-05 1.382911814346e-05 0.0 
1.382911814346e-05 2.370753070274e-03 0.0 
0.0 0.0 0.0 
1.868033852914e-05 1.254673742364e-05 0.0 
1.254673742364e-05 1.241595984646e-03 0.0 
0.0 0.0 0.0 
-1.199320550657e-04 3.607224693083e-06 0.0 
3.607224693083e-06 1.905431180804e-03 0.0 
0.0 0.0 0.0 
5.893295318904e-05 2.060381515970e-04 0.0 
2.060381515970e-04 1.235148986468e-03 0.0 
0.0 0.0 0.0 
3.414215446784e-05 -1.778040992509e-05 0.0 
-1.778040992509e-05 1.503527761746e-04 0.0 
0.0 0.0 0.0 
-6.906675854390e-05 1.807878734658e-04 0.0 
1.807878734658e-04 2.253742879677e-03 0.0 
0.0 0.0 0.0 
-8.356005388732e-07 -1.530119698516e-05 0.0 
-1.530119698516e-05 5.567263647288e-05 0.0 
0.0 0.0 0.0 
2.885552035958e-05 1.934919776772e-04 0.0 
1.934919776772e-04 1.278662714259e-03 0.0 
0.0 0.0 0.0 
-6.860559165844e-05 2.567369327389e-04 0.0 
2.567369327389e-04 2.210966550465e-03 0.0 
0.0 0.0 0.0 
-7.275522124839e-05 1.979582404094e-05 0.0 
1.979582404094e-05 9.918867221659e-05 0.0 
0.0 0.0 0.0 
2.848477379791e-05 3.349735910058e-04 0.0 
3.349735910058e-04 1.555999879729e-03 0.0 
0.0 0.0 0.0 
-9.483344240102e-05 1.303926403328e-05 0.0 
1.303926403328e-05 2.159336822745e-03 0.0 
0.0 0.0 0.0 
-2.564654607695e-05 7.505519910938e-05 0.0 
7.505519910938e-05 2.327586436091e-03 0.0 
0.0 0.0 0.0 
0.0 3.155802508736e-04 0.0 
3.155802508736e-04 1.506962176554e-03 0.0 
0.0 0.0 0.0 
-1.047753606191e-04 -2.712688285181e-06 0.0 
-2.712688285181e-06 2.081851064247e-03 0.0 
0.0 0.0 0.0 
-1.790648057731e-05 3.546268220873e-04 0.0 
3.546268220873e-04 1.974858872768e-03 0.0 
0.0 0.0 0.0 
-9.161547861503e-05 2.220326747150e-04 0.0 
2.220326747150e-04 2.211043211095e-03 0.0 
0.0 0.0 0.0 
-9.611483113536e-05 1.099445451000e-05 0.0 
1.099445451000e-05 2.116785423513e-03 0.0 
0.0 0.0 0.0 
-3.168162240463e-05 3.432864680686e-04 0.0 
3.432864680686e-04 1.918562885736e-03 0.0 
0.0 0.0 0.0 
8.967453988107e-05 -1.106825956812e-05 0.0 
-1.106825956812e-05 4.385728686984e-04 0.0 
0.0 0.0 0.0 
-1.254004856217e-04 -7.644136737236e-07 0.0 
-7.644136737236e-07 1.861402249490e-03 0.0 
0.0 0.0 0.0 
4.693088063634e-05 3.436261753082e-04 0.0 
3.436261753082e-04 1.532251886856e-03 0.0 
0.0 0.0 0.0 
-2.460201466792e-05 1.192659786774e-05 0.0 
1.192659786774e-05 2.336827664557e-03 0.0 
0.0 0.0 0.0 
1.099667677584e-05 1.032528774565e-06 0.0 
1.032528774565e-06 9.852174370772e-06 0.0 
0.0 0.0 0.0 
-1.214143205206e-04 9.346167913001e-07 0.0 
9.346167913001e-07 1.859869660358e-03 0.0 
0.0 0.0 0.0 
2.411048980555e-05 5.940816969164e-06 0.0 
5.940816969164e-06 1.186869303773e-03 0.0 
0.0 0.0 0.0 
3.668624888986e-05 -1.625023842241e-05 0.0 
-1.625023842241e-05 1.932932015889e-04 0.0 
0.0 0.0 0.0 
8.373331015155e-05 2.408646232607e-04 0.0 
2.408646232607e-04 1.270312893927e-03 0.0 
0.0 0.0 0.0 
-9.709823115156e-05 2.629610868996e-04 0.0 
2.629610868996e-04 2.152523718358e-03 0.0 
0.0 0.0 0.0 
-4.739787524066e-05 6.496104010014e-05 0.0 
6.496104010014e-05 2.325202891433e-03 0.0 
0.0 0.0 0.0 
3.609943822336e-05 -9.072036847232e-06 0.0 
-9.072036847232e-06 1.846819580453e-04 0.0 
0.0 0.0 0.0 
-6.080687217513e-05 9.633191868019e-05 0.0 
9.633191868019e-05 2.488805032150e-04 0.0 
0.0 0.0 0.0 
1.033422437666e-04 8.260948939974e-06 0.0 
8.260948939974e-06 6.506344752051e-04 0.0 
0.0 0.0 0.0 
-7.502891931932e-05 1.570353626519e-05 0.0 
1.570353626519e-05 2.215200705792e-03 0.0 
0.0 0.0 0.0 
-1.794348857929e-04 -7.551712216628e-06 0.0 
-7.551712216628e-06 9.510332365803e-05 0.0 
0.0 0.0 0.0 
-3.731423204967e-05 1.893968847511e-04 0.0 
1.893968847511e-04 2.276646392370e-03 0.0 
0.0 0.0 0.0 
-1.041587577040e-04 7.731138984716e-06 0.0 
7.731138984716e-06 2.064981116986e-03 0.0 
0.0 0.0 0.0 
1.662375199918e-05 -4.739498616607e-05 0.0 
-4.739498616607e-05 1.970670527740e-04 0.0 
0.0 0.0 0.0 
-1.145993564654e-04 9.913802357362e-06 0.0 
9.913802357362e-06 2.026028007374e-03 0.0 
0.0 0.0 0.0 
2.494983240986e-05 3.670990246443e-04 0.0 
3.670990246443e-04 1.612318443329e-03 0.0 
0.0 0.0 0.0 
1.042446195463e-04 -6.094782708082e-06 0.0 
-6.094782708082e-06 6.853668724656e-04 0.0 
0.0 0.0 0.0 
-1.227546249221e-04 9.626538238382e-05 0.0 
9.626538238382e-05 1.358670765239e-04 0.0 
0.0 0.0 0.0 
8.598245104330e-05 -6.596585980530e-06 0.0 
-6.596585980530e-06 3.952107747784e-04 0.0 
0.0 0.0 0.0 
1.076597122036e-04 2.830369995939e-06 0.0 
2.830369995939e-06 5.893403623125e-04 0.0 
0.0 0.0 0.0 
1.053261178943e-04 9.008248922476e-06 0.0 
9.008248922476e-06 7.159174888594e-04 0.0 
0.0 0.0 0.0 
4.621167024221e-05 3.109414598500e-04 0.0 
3.109414598500e-04 1.445204869291e-03 0.0 
0.0 0.0 0.0 
1.024937365515e-04 -5.199166801066e-06 0.0 
-5.199166801066e-06 5.737891965882e-04 0.0 
0.0 0.0 0.0 
1.072158588176e-04 3.020906194406e-06 0.0 
3.020906194406e-06 6.128096100668e-04 0.0 
0.0 0.0 0.0 
-1.589494777576e-06 -1.405865382249e-05 0.0 
-1.405865382249e-05 9.515771807522e-05 0.0 
0.0 0.0 0.0 
4.849099696069e-05 9.368967376061e-05 0.0 
9.368967376061e-05 1.149890377237e-03 0.0 
0.0 0.0 0.0 
1.006697021655e-05 3.512013167917e-04 0.0 
3.512013167917e-04 1.672494370645e-03 0.0 
0.0 0.0 0.0 
-1.407029050049e-05 1.013751371297e-04 0.0 
1.013751371297e-04 2.651088396524e-04 0.0 
0.0 0.0 0.0 
-1.981055767808e-05 9.038946271862e-06 0.0 
9.038946271862e-06 2.335311161903e-03 0.0 
0.0 0.0 0.0 
2.031115864276e-05 1.383587208872e-05 0.0 
1.383587208872e-05 1.184607277748e-03 0.0 
0.0 0.0 0.0 
-1.212357327551e-04 -3.380028434426e-06 0.0 
-3.380028434426e-06 1.909156892584e-03 0.0 
0.0 0.0 0.0 
-1.089853719861e-04 6.597440288978e-06 0.0 
6.597440288978e-06 2.064841749663e-03 0.0 
0.0 0.0 0.0 
1.042211373048e-04 3.257343635634e-06 0.0 
3.257343635634e-06 5.728405404146e-04 0.0 
0.0 0.0 0.0 
1.056811001883e-04 -3.393770804927e-06 0.0 
-3.393770804927e-06 5.924921092912e-04 0.0 
0.0 0.0 0.0 
1.028713026268e-04 -1.727760789621e-07 0.0 
-1.727760789621e-07 6.155086083448e-04 0.0 
0.0 0.0 0.0 
9.266567090505e-05 2.337044529307e-04 0.0 
2.337044529307e-04 1.226164802925e-03 0.0 
0.0 0.0 0.0 
1.094067862528e-05 -3.192190079147e-05 0.0 
-3.192190079147e-05 1.589263317334e-04 0.0 
0.0 0.0 0.0 
-7.868489812712e-06 3.660213858963e-04 0.0 
3.660213858963e-04 1.752483863998e-03 0.0 
0.0 0.0 0.0 
-1.163092743066e-04 4.627580915228e-06 0.0 
4.627580915228e-06 1.962982035357e-03 0.0 
0.0 0.0 0.0 
-7.088856402471e-05 1.784678469311e-04 0.0 
1.784678469311e-04 2.282190343224e-03 0.0 
0.0 0.0 0.0 
7.663485825882e-05 2.200638050917e-04 0.0 
2.200638050917e-04 1.224529085313e-03 0.0 
0.0 0.0 0.0 
-1.207493584217e-04 8.180192600532e-06 0.0 
8.180192600532e-06 2.027203397594e-03 0.0 
0.0 0.0 0.0 
-3.963924401296e-05 3.375896742900e-04 0.0 
3.375896742900e-04 1.887284250975e-03 0.0 
0.0 0.0 0.0 
5.736896730202e-05 3.139828139581e-04 0.0 
3.139828139581e-04 1.443774057342e-03 0.0 
0.0 0.0 0.0 
4.261351357537e-05 3.448385108499e-04 0.0 
3.448385108499e-04 1.517436199405e-03 0.0 
0.0 0.0 0.0 
-1.023213923049e-04 1.051186500695e-04 0.0 
1.051186500695e-04 1.268848994445e-04 0.0 
0.0 0.0 0.0 
-5.210587848048e-05 3.384855279200e-04 0.0 
3.384855279200e-04 1.887223225744e-03 0.0 
0.0 0.0 0.0 
-2.715637942896e-05 3.647466969606e-04 0.0 
3.647466969606e-04 1.874219755574e-03 0.0 
0.0 0.0 0.0 
3.075466585845e-07 -2.289410122103e-05 0.0 
-2.289410122103e-05 9.984387862905e-05 0.0 
0.0 0.0 0.0 
1.019576556940e-04 -5.714441706581e-06 0.0 
-5.714441706581e-06 5.421841954312e-04 0.0 
0.0 0.0 0.0 
-1.101578326130e-04 7.362083700222e-05 0.0 
7.362083700222e-05 1.480907322504e-04 0.0 
0.0 0.0 0.0 
-5.219681167967e-05 3.542497577964e-04 0.0 
3.542497577964e-04 1.944923628033e-03 0.0 
0.0 0.0 0.0 
-1.250107715244e-04 -2.873043986972e-07 0.0 
-2.873043986972e-07 1.747402561290e-03 0.0 
0.0 0.0 0.0 
-1.219112009800e-04 2.086432326806e-06 0.0 
2.086432326806e-06 1.740188710639e-03 0.0 
0.0 0.0 0.0 
-1.232523459179e-04 -1.969443016774e-07 0.0 
-1.969443016774e-07 1.739924718734e-03 0.0 
0.0 0.0 0.0 
-1.221500298498e-04 -3.317042890907e-07 0.0 
-3.317042890907e-07 1.739254085786e-03 0.0 
0.0 0.0 0.0 
-1.228290736425e-04 -7.208905624057e-07 0.0 
-7.208905624057e-07 1.739190692529e-03 0.0 
0.0 0.0 0.0 
-1.217903816115e-04 -1.239873141513e-06 0.0 
-1.239873141513e-06 1.739297873873e-03 0.0 
0.0 0.0 0.0 
-1.227134576164e-04 -1.319935038649e-06 0.0 
-1.319935038649e-06 1.739291811917e-03 0.0 
0.0 0.0 0.0 
-1.204335703907e-04 -1.953115103245e-06 0.0 
-1.953115103245e-06 1.738713304937e-03 0.0 
0.0 0.0 0.0 
-1.220157719912e-04 -1.403126784019e-06 0.0 
-1.403126784019e-06 1.738909283370e-03 0.0 
0.0 0.0 0.0 
-1.183206431069e-04 -2.568677862910e-06 0.0 
-2.568677862910e-06 1.738322975591e-03 0.0 
0.0 0.0 0.0 
-1.218301014365e-04 -1.743227613101e-06 0.0 
-1.743227613101e-06 1.738723602063e-03 0.0 
0.0 0.0 0.0 
-1.153196322131e-04 -3.446320266274e-06 0.0 
-3.446320266274e-06 1.737322863349e-03 0.0 
0.0 0.0 0.0 
-1.211251145268e-04 -1.584227176860e-06 0.0 
-1.584227176860e-06 1.738335687694e-03 0.0 
0.0 0.0 0.0 
-1.490187174357e-04 4.141863555165e-05 0.0 
4.141863555165e-05 1.743691949820e-03 0.0 
0.0 0.0 0.0 
-1.115949878303e-04 -4.061264411421e-06 0.0 
-4.061264411421e-06 1.736551116917e-03 0.0 
0.0 0.0 0.0 
-1.210758684191e-04 -2.327076496591e-06 0.0 
-2.327076496591e-06 1.737892098389e-03 0.0 
0.0 0.0 0.0 
-9.759296206013e-05 1.097141868404e-05 0.0 
1.097141868404e-05 1.705960370858e-03 0.0 
0.0 0.0 0.0 
-1.073928712468e-04 -5.005819774884e-06 0.0 
-5.005819774884e-06 1.734433612522e-03 0.0 
0.0 0.0 0.0 
-1.205434573927e-04 -2.277699327160e-06 0.0 
-2.277699327160e-06 1.736799362686e-03 0.0 
0.0 0.0 0.0 
-1.791835466435e-04 3.271278308033e-05 0.0 
3.271278308033e-05 1.759939009594e-03 0.0 
0.0 0.0 0.0 
-1.021694261752e-04 -5.800096520332e-06 0.0 
-5.800096520332e-06 1.732616932093e-03 0.0 
0.0 0.0 0.0 
-1.209524138197e-04 -2.011330918514e-06 0.0 
-2.011330918514e-06 1.736470443660e-03 0.0 
0.0 0.0 0.0 
-9.623052391949e-05 -6.268910724241e-06 0.0 
-6.268910724241e-06 1.730917653915e-03 0.0 
0.0 0.0 0.0 
-1.223276312829e-04 -1.960336772117e-06 0.0 
-1.960336772117e-06 1.736437172343e-03 0.0 
0.0 0.0 0.0 
-9.037566398340e-05 -6.341611834060e-06 0.0 
-6.341611834060e-06 1.728729244416e-03 0.0 
0.0 0.0 0.0 
-2.211781056592e-04 9.749900226022e-05 0.0 
9.749900226022e-05 1.787573430379e-03 0.0 
0.0 0.0 0.0 
-1.251487176913e-04 -1.297243089243e-06 0.0 
-1.297243089243e-06 1.736621566756e-03 0.0 
0.0 0.0 0.0 
-8.510538069595e-05 -5.576500078141e-06 0.0 
-5.576500078141e-06 1.726631659629e-03 0.0 
0.0 0.0 0.0 
-8.156085139066e-05 -3.432518645744e-06 0.0 
-3.432518645744e-06 1.725183002619e-03 0.0 
0.0 0.0 0.0 
-1.309468970530e-04 3.274077888038e-07 0.0 
3.274077888038e-07 1.737848156874e-03 0.0 
0.0 0.0 0.0 
-8.163960599050e-05 1.391465618820e-06 0.0 
1.391465618820e-06 1.721677461133e-03 0.0 
0.0 0.0 0.0 
-1.418229608621e-04 1.957409772896e-06 0.0 
1.957409772896e-06 1.739839218283e-03 0.0 
0.0 0.0 0.0 
-8.997992761262e-05 1.577831971852e-05 0.0 
1.577831971852e-05 1.724246256474e-03 0.0 
0.0 0.0 0.0 
-1.497336123084e-04 1.236208917372e-05 0.0 
1.236208917372e-05 1.744611014285e-03 0.0 
0.0 0.0 0.0 
-2.017793442119e-04 2.839027779602e-05 0.0 
2.839027779602e-05 1.789251620694e-03 0.0 
0.0 0.0 0.0 
-1.263243632726e-04 -8.292834518482e-06 0.0 
-8.292834518482e-06 1.739325123522e-03 0.0 
0.0 0.0 0.0 
-1.312372823249e-04 1.005297248749e-05 0.0 
1.005297248749e-05 1.748016199126e-03 0.0 
0.0 0.0 0.0 
-1.328642064360e-04 8.628408981889e-08 0.0 
8.628408981889e-08 1.729220579446e-03 0.0 
0.0 0.0 0.0 
-1.246481384308e-04 1.926574008899e-06 0.0 
1.926574008899e-06 1.757583725497e-03 0.0 
0.0 0.0 0.0 
-2.349873906020e-04 1.033845642746e-04 0.0 
1.033845642746e-04 1.722559345813e-03 0.0 
0.0 0.0 0.0 
-1.250107715244e-04 -3.765987729980e-06 0.0 
-3.765987729980e-06 1.800254436197e-03 0.0 
0.0 0.0 0.0 
-1.225116200086e-04 -5.553553454646e-07 0.0 
-5.553553454646e-07 1.804084198235e-03 0.0 
0.0 0.0 0.0 
-1.232523459179e-04 -9.797034032246e-07 0.0 
-9.797034032246e-07 1.804136684602e-03 0.0 
0.0 0.0 0.0 
-1.235912704394e-04 -1.011979781326e-06 0.0 
-1.011979781326e-06 1.804359580675e-03 0.0 
0.0 0.0 0.0 
-1.228290736425e-04 -1.159301444392e-06 0.0 
-1.159301444392e-06 1.804379644557e-03 0.0 
0.0 0.0 0.0 
-1.242209882341e-04 -1.528337137612e-06 0.0 
-1.528337137612e-06 1.804812075628e-03 0.0 
0.0 0.0 0.0 
-1.227134576164e-04 -1.948559086332e-06 0.0 
-1.948559086332e-06 1.804890085905e-03 0.0 
0.0 0.0 0.0 
-1.247268122013e-04 -3.012291516852e-06 0.0 
-3.012291516852e-06 1.804540216401e-03 0.0 
0.0 0.0 0.0 
-1.220157719912e-04 -2.001085338495e-06 0.0 
-2.001085338495e-06 1.804184173057e-03 0.0 
0.0 0.0 0.0 
-1.259661835777e-04 -2.974395077355e-06 0.0 
-2.974395077355e-06 1.805260246536e-03 0.0 
0.0 0.0 0.0 
-1.218301014365e-04 -2.501592910684e-06 0.0 
-2.501592910684e-06 1.804964569857e-03 0.0 
0.0 0.0 0.0 
-1.282898055045e-04 -4.554091820259e-06 0.0 
-4.554091820259e-06 1.805778355557e-03 0.0 
0.0 0.0 0.0 
-1.721490176604e-04 4.281933136746e-05 0.0 
4.281933136746e-05 1.810729509681e-03 0.0 
0.0 0.0 0.0 
-1.211251145268e-04 -2.462354260435e-06 0.0 
-2.462354260435e-06 1.804613358208e-03 0.0 
0.0 0.0 0.0 
-1.855632111472e-04 3.018603348133e-05 0.0 
3.018603348133e-05 1.824487431287e-03 0.0 
0.0 0.0 0.0 
-1.289314198725e-04 -4.181126399324e-06 0.0 
-4.181126399324e-06 1.806549580763e-03 0.0 
0.0 0.0 0.0 
-1.210758684191e-04 -2.354880224189e-06 0.0 
-2.354880224189e-06 1.805255261377e-03 0.0 
0.0 0.0 0.0 
-1.337553972441e-04 -5.637930312125e-06 0.0 
-5.637930312125e-06 1.807282528131e-03 0.0 
0.0 0.0 0.0 
-1.205434573927e-04 -1.944701211530e-06 0.0 
-1.944701211530e-06 1.804401539087e-03 0.0 
0.0 0.0 0.0 
-1.377783266769e-04 -5.098556971958e-06 0.0 
-5.098556971958e-06 1.808536653369e-03 0.0 
0.0 0.0 0.0 
-1.209524138197e-04 -9.884705342654e-07 0.0 
-9.884705342654e-07 1.804663426674e-03 0.0 
0.0 0.0 0.0 
-1.421553983848e-04 -3.971380474360e-06 0.0 
-3.971380474360e-06 1.810330474850e-03 0.0 
0.0 0.0 0.0 
-1.497336123084e-04 3.494323429430e-05 0.0 
3.494323429430e-05 1.782074547169e-03 0.0 
0.0 0.0 0.0 
-1.223276312829e-04 1.266899576486e-06 0.0 
1.266899576486e-06 1.804865601758e-03 0.0 
0.0 0.0 0.0 
-1.489891057957e-04 -1.543252995219e-06 0.0 
-1.543252995219e-06 1.812391696413e-03 0.0 
0.0 0.0 0.0 
-1.251487176913e-04 5.570917208336e-06 0.0 
5.570917208336e-06 1.804400192287e-03 0.0 
0.0 0.0 0.0 
-1.575213991067e-04 4.073448635149e-06 0.0 
4.073448635149e-06 1.814900164073e-03 0.0 
0.0 0.0 0.0 
-1.688649240628e-04 1.442306761536e-05 0.0 
1.442306761536e-05 1.818502458430e-03 0.0 
0.0 0.0 0.0 
-1.309468970530e-04 1.324784680829e-05 0.0 
1.324784680829e-05 1.803999421142e-03 0.0 
0.0 0.0 0.0 
-1.418229608621e-04 2.509023733344e-05 0.0 
2.509023733344e-05 1.805132760891e-03 0.0 
0.0 0.0 0.0 
-1.961345215198e-04 6.654421348029e-05 0.0 
6.654421348029e-05 1.829042820412e-03 0.0 
0.0 0.0 0.0 
-1.872901661363e-04 3.925555262597e-05 0.0 
3.925555262597e-05 1.813780423980e-03 0.0 
0.0 0.0 0.0 
-1.252782806582e-04 -8.189677901456e-06 0.0 
-8.189677901456e-06 1.803936753562e-03 0.0 
0.0 0.0 0.0 
-1.227991598141e-04 8.730769392286e-06 0.0 
8.730769392286e-06 1.799517419678e-03 0.0 
0.0 0.0 0.0 
-1.234107684466e-04 1.638956449499e-08 0.0 
1.638956449499e-08 1.818106904596e-03 0.0 
0.0 0.0 0.0 
-1.246481384308e-04 8.073076370436e-07 0.0 
8.073076370436e-07 1.785878396784e-03 0.0 
0.0 0.0 0.0 
-1.791835466435e-04 7.508017746857e-05 0.0 
7.508017746857e-05 1.780592615397e-03 0.0 
0.0 0.0 0.0 

TENSORS element_materi_strain_plasti float
-7.112834060814e-05 3.514287460403e-05 0.0 
3.514287460403e-05 4.221004333340e-04 0.0 
0.0 0.0 -6.331083958573e-05 
-5.846555959083e-05 -3.955396469031e-05 0.0 
-3.955396469031e-05 3.778270157352e-04 0.0 
0.0 0.0 -6.454996159239e-05 
-1.889012089990e-04 -4.635760778403e-06 0.0 
-4.635760778403e-06 1.261715003762e-03 0.0 
0.0 0.0 -1.917354871627e-04 
-1.892197240299e-04 -2.621872887778e-05 0.0 
-2.621872887778e-05 1.272074442975e-03 0.0 
0.0 0.0 -1.883397590782e-04 
-1.197492232907e-04 3.454635042166e-05 0.0 
3.454635042166e-05 7.881734594548e-04 0.0 
0.0 0.0 -1.194279202642e-04 
-3.089019924433e-05 3.311410509038e-05 0.0 
3.311410509038e-05 1.513652850395e-04 0.0 
0.0 0.0 -2.690189283898e-05 
-1.181845121128e-04 4.042873295375e-05 0.0 
4.042873295375e-05 7.806844228614e-04 0.0 
0.0 0.0 -1.201653584795e-04 
-6.192381097420e-05 6.121385101827e-06 0.0 
6.121385101827e-06 4.031113170469e-04 0.0 
0.0 0.0 -6.068503909357e-05 
-1.204422882212e-04 -4.316649774326e-05 0.0 
-4.316649774326e-05 7.921064928151e-04 0.0 
0.0 0.0 -1.196685615722e-04 
-1.872884217324e-04 3.363141611130e-05 0.0 
3.363141611130e-05 1.259931992447e-03 0.0 
0.0 0.0 -1.879590212157e-04 
-1.310105652939e-04 2.220654670134e-05 0.0 
2.220654670134e-05 8.586450598517e-04 0.0 
0.0 0.0 -1.322476557103e-04 
-5.719807020115e-05 3.286461856453e-08 0.0 
3.286461856453e-08 3.230799459092e-04 0.0 
0.0 0.0 -5.602547750609e-05 
-1.877824496395e-04 3.388580337900e-05 0.0 
3.388580337900e-05 1.270169470641e-03 0.0 
0.0 0.0 -1.888781569884e-04 
-1.271872132406e-04 2.790230920199e-05 0.0 
2.790230920199e-05 8.458021199286e-04 0.0 
0.0 0.0 -1.278925217316e-04 
-1.932284152260e-04 -2.749272838120e-05 0.0 
-2.749272838120e-05 1.293984431102e-03 0.0 
0.0 0.0 -1.934308312547e-04 
-1.951772105051e-04 3.059468724474e-05 0.0 
3.059468724474e-05 1.293909326463e-03 0.0 
0.0 0.0 -1.928977411855e-04 
-1.183364621444e-04 7.034029580760e-07 0.0 
7.034029580760e-07 7.884128395372e-04 0.0 
0.0 0.0 -1.161101519611e-04 
-2.611548289249e-05 -2.976881314846e-05 0.0 
-2.976881314846e-05 1.366026820107e-04 0.0 
0.0 0.0 -2.739356786257e-05 
-4.655901900947e-05 -1.783274604704e-05 0.0 
-1.783274604704e-05 2.713105741166e-04 0.0 
0.0 0.0 -4.164025237647e-05 
-4.525890771348e-05 1.651863799484e-05 0.0 
1.651863799484e-05 2.466759593770e-04 0.0 
0.0 0.0 -4.546658199970e-05 
-1.855467270519e-04 -3.410013315625e-05 0.0 
-3.410013315625e-05 1.271232436366e-03 0.0 
0.0 0.0 -1.875582398551e-04 
-7.183248799894e-05 1.385365681385e-05 0.0 
1.385365681385e-05 4.407830654411e-04 0.0 
0.0 0.0 -7.216713101957e-05 
-7.730219154025e-05 -1.500465902034e-05 0.0 
-1.500465902034e-05 4.983174969402e-04 0.0 
0.0 0.0 -7.637334323853e-05 
-1.811871610611e-04 -2.281549761052e-05 0.0 
-2.281549761052e-05 1.217872226341e-03 0.0 
0.0 0.0 -1.815559455716e-04 
-1.350733973102e-04 3.295465992380e-05 0.0 
3.295465992380e-05 9.016620137675e-04 0.0 
0.0 0.0 -1.369648256180e-04 
-1.376188637296e-04 -2.176217058498e-05 0.0 
-2.176217058498e-05 9.243651343577e-04 0.0 
0.0 0.0 -1.376939605679e-04 
-1.069658315495e-04 -2.744737862324e-06 0.0 
-2.744737862324e-06 7.297614599069e-04 0.0 
0.0 0.0 -1.072212406194e-04 
-1.912521162051e-04 1.980335045204e-06 0.0 
1.980335045204e-06 1.305953059909e-03 0.0 
0.0 0.0 -1.899071758113e-04 
-1.362716787782e-04 -3.798939155730e-05 0.0 
-3.798939155730e-05 9.083018994538e-04 0.0 
0.0 0.0 -1.367086240186e-04 
-1.873007466112e-04 2.251116880675e-05 0.0 
2.251116880675e-05 1.247916240988e-03 0.0 
0.0 0.0 -1.856871487262e-04 
-3.243755210516e-05 5.032771115372e-06 0.0 
5.032771115372e-06 2.086151015531e-04 0.0 
0.0 0.0 -3.278963886402e-05 
-1.654166470030e-05 4.638693750366e-06 0.0 
4.638693750366e-06 9.012172148024e-05 0.0 
0.0 0.0 -1.589633704410e-05 
-1.936928702910e-04 8.344522422306e-06 0.0 
8.344522422306e-06 1.305844555641e-03 0.0 
0.0 0.0 -1.891952015075e-04 
-1.629254088575e-04 -2.764733331880e-05 0.0 
-2.764733331880e-05 1.087637140145e-03 0.0 
0.0 0.0 -1.635300645102e-04 
-1.844440851533e-04 -3.122724235015e-05 0.0 
-3.122724235015e-05 1.269225288252e-03 0.0 
0.0 0.0 -1.882484805285e-04 
-2.000892196314e-04 5.806438950548e-05 0.0 
5.806438950548e-05 1.337814960827e-03 0.0 
0.0 0.0 -1.972329526028e-04 
-1.979323581362e-04 -6.123980485016e-05 0.0 
-6.123980485016e-05 1.334624137008e-03 0.0 
0.0 0.0 -1.971979658877e-04 
-1.876565914579e-04 2.632656749342e-05 0.0 
2.632656749342e-05 1.265796013128e-03 0.0 
0.0 0.0 -1.897108526679e-04 
-1.089254337778e-04 -4.761071042110e-05 0.0 
-4.761071042110e-05 7.109927537120e-04 0.0 
0.0 0.0 -1.107114518244e-04 
-1.094034421642e-04 5.351990132505e-05 0.0 
5.351990132505e-05 7.212963119965e-04 0.0 
0.0 0.0 -1.105676175232e-04 
-8.675634194158e-05 -2.048772068430e-05 0.0 
-2.048772068430e-05 5.676637230470e-04 0.0 
0.0 0.0 -8.691834785005e-05 
-1.894316575551e-04 1.529535291875e-06 0.0 
1.529535291875e-06 1.267582633286e-03 0.0 
0.0 0.0 -1.921134732322e-04 
-4.839148529355e-05 3.269211206116e-05 0.0 
3.269211206116e-05 2.885062742471e-04 0.0 
0.0 0.0 -4.811778726964e-05 
-1.084239785972e-04 8.299246254447e-06 0.0 
8.299246254447e-06 6.943716908755e-04 0.0 
0.0 0.0 -1.102508860907e-04 
-1.837583847109e-04 -1.472486193336e-05 0.0 
-1.472486193336e-05 1.244009219740e-03 0.0 
0.0 0.0 -1.819287770889e-04 
-4.809827435414e-05 -2.856413507896e-05 0.0 
-2.856413507896e-05 2.876955400614e-04 0.0 
0.0 0.0 -4.797639238285e-05 
-2.674214069171e-05 -6.567095403776e-07 0.0 
-6.567095403776e-07 1.170205921082e-04 0.0 
0.0 0.0 -2.746289347828e-05 
-1.830752196458e-04 9.475420572823e-06 0.0 
9.475420572823e-06 1.215993436390e-03 0.0 
0.0 0.0 -1.852115035180e-04 
-1.474418981779e-05 6.875922652760e-07 0.0 
6.875922652760e-07 4.915161551588e-05 0.0 
0.0 0.0 -1.474603958490e-05 
-1.203307146343e-04 -2.717995598574e-05 0.0 
-2.717995598574e-05 8.158947777103e-04 0.0 
0.0 0.0 -1.234415444935e-04 
-8.234981639965e-05 -1.699589320995e-05 0.0 
-1.699589320995e-05 5.359221535030e-04 0.0 
0.0 0.0 -8.161374715243e-05 
-5.082688459540e-05 -1.056431694294e-05 0.0 
-1.056431694294e-05 3.372053744103e-04 0.0 
0.0 0.0 -5.165715595373e-05 
-4.611236241503e-05 -2.201694224577e-05 0.0 
-2.201694224577e-05 2.721561722188e-04 0.0 
0.0 0.0 -4.571843846580e-05 
-8.132390918315e-05 1.940323008173e-05 0.0 
1.940323008173e-05 5.127711064819e-04 0.0 
0.0 0.0 -8.234191315183e-05 
-1.899869588384e-04 -1.183985275253e-06 0.0 
-1.183985275253e-06 1.270300843848e-03 0.0 
0.0 0.0 -1.923283752319e-04 
-6.895815039131e-05 -2.178280864622e-05 0.0 
-2.178280864622e-05 4.406253786073e-04 0.0 
0.0 0.0 -6.768350264862e-05 
-5.417817485919e-05 2.166263208896e-05 0.0 
2.166263208896e-05 3.190902094138e-04 0.0 
0.0 0.0 -5.541318120416e-05 
-1.632126763507e-04 2.740636426442e-05 0.0 
2.740636426442e-05 1.093574435161e-03 0.0 
0.0 0.0 -1.631601065255e-04 
-3.323583887555e-05 3.269521201795e-06 0.0 
3.269521201795e-06 2.033859620122e-04 0.0 
0.0 0.0 -3.284525368658e-05 
-1.937347679597e-04 -3.087303565399e-05 0.0 
-3.087303565399e-05 1.295743109935e-03 0.0 
0.0 0.0 -1.927980053726e-04 
-1.410948374280e-05 -1.895108414919e-05 0.0 
-1.895108414919e-05 7.768302090073e-05 0.0 
0.0 0.0 -1.429900283189e-05 
-1.810662248895e-04 3.422591082853e-05 0.0 
3.422591082853e-05 1.214874210850e-03 0.0 
0.0 0.0 -1.816237070315e-04 
-8.260879868620e-05 3.395540134069e-05 0.0 
3.395540134069e-05 5.200982356105e-04 0.0 
0.0 0.0 -8.245627511043e-05 
-3.949603130373e-05 1.817463478044e-05 0.0 
1.817463478044e-05 2.392386227040e-04 0.0 
0.0 0.0 -4.154126471103e-05 
-1.880584302466e-04 -2.737021915549e-05 0.0 
-2.737021915549e-05 1.269816799986e-03 0.0 
0.0 0.0 -1.886217783130e-04 
-7.828481688491e-05 1.568948501134e-05 0.0 
1.568948501134e-05 4.753725480920e-04 0.0 
0.0 0.0 -7.706359040663e-05 
-9.040619779534e-06 6.808328067989e-06 0.0 
6.808328067989e-06 3.080905476409e-05 0.0 
0.0 0.0 -9.329329279096e-06 
-1.897461617520e-04 -1.190223513879e-05 0.0 
-1.190223513879e-05 1.300793159363e-03 0.0 
0.0 0.0 -1.892491279630e-04 
-3.670459678346e-05 -3.155058415611e-05 0.0 
-3.155058415611e-05 2.097964586862e-04 0.0 
0.0 0.0 -3.606465181366e-05 
-1.910292024481e-04 -5.680018839662e-07 0.0 
-5.680018839662e-07 1.267292748539e-03 0.0 
0.0 0.0 -1.923564682915e-04 
-1.423720417950e-04 -2.542418638308e-05 0.0 
-2.542418638308e-05 9.582298228247e-04 0.0 
0.0 0.0 -1.433443585977e-04 
-2.007748921200e-04 -7.173616599768e-07 0.0 
-7.173616599768e-07 1.325499155450e-03 0.0 
0.0 0.0 -2.007748921200e-04 
-1.856237250837e-04 2.519587703742e-07 0.0 
2.519587703742e-07 1.217908679066e-03 0.0 
0.0 0.0 -1.849363666885e-04 
-1.959401746035e-05 3.302488870378e-05 0.0 
3.302488870378e-05 8.419396161668e-05 0.0 
0.0 0.0 -1.942930455437e-05 
-7.294356160709e-05 2.278666566635e-05 0.0 
2.278666566635e-05 4.423978020253e-04 0.0 
0.0 0.0 -7.166057984914e-05 
-1.881200936435e-04 -2.597496456892e-05 0.0 
-2.597496456892e-05 1.274260032451e-03 0.0 
0.0 0.0 -1.893940471826e-04 
-1.918449780582e-04 -8.194598920862e-07 0.0 
-8.194598920862e-07 1.307445909733e-03 0.0 
0.0 0.0 -1.898028072996e-04 
-3.750417093390e-05 -2.856125910662e-05 0.0 
-2.856125910662e-05 2.170807613547e-04 0.0 
0.0 0.0 -3.765846754783e-05 
-3.201050297440e-05 -1.804321051782e-06 0.0 
-1.804321051782e-06 1.678376622842e-04 0.0 
0.0 0.0 -3.550136840268e-05 
-3.928328821311e-05 3.001435520315e-05 0.0 
3.001435520315e-05 2.151736419894e-04 0.0 
0.0 0.0 -3.788339401932e-05 
-3.841727809162e-05 3.259876760906e-05 0.0 
3.259876760906e-05 1.973706613177e-04 0.0 
0.0 0.0 -3.659988700710e-05 
-1.163465053479e-04 4.799891796781e-06 0.0 
4.799891796781e-06 7.474963377636e-04 0.0 
0.0 0.0 -1.187754596314e-04 
-7.387818471422e-05 -1.490180971543e-05 0.0 
-1.490180971543e-05 4.683625195835e-04 0.0 
0.0 0.0 -7.124103466145e-05 
-6.818690854032e-05 3.229042439658e-06 0.0 
3.229042439658e-06 3.926939187943e-04 0.0 
0.0 0.0 -6.657494268075e-05 
-1.280956191016e-04 -3.699964442022e-05 0.0 
-3.699964442022e-05 8.260012594816e-04 0.0 
0.0 0.0 -1.250515658111e-04 
-1.265295814047e-04 3.342378051017e-05 0.0 
3.342378051017e-05 8.211688879782e-04 0.0 
0.0 0.0 -1.253711530225e-04 
-1.484422711167e-04 -2.770915871896e-05 0.0 
-2.770915871896e-05 9.841615042540e-04 0.0 
0.0 0.0 -1.480066387926e-04 
-1.583372546511e-04 2.913712885410e-05 0.0 
2.913712885410e-05 1.064432221446e-03 0.0 
0.0 0.0 -1.587865244471e-04 
-1.631334298294e-04 -3.149814825206e-05 0.0 
-3.149814825206e-05 1.098864964118e-03 0.0 
0.0 0.0 -1.628912057403e-04 
-1.190806096983e-04 -4.403551421918e-05 0.0 
-4.403551421918e-05 7.749316267703e-04 0.0 
0.0 0.0 -1.197484453225e-04 
-1.483799586843e-05 5.558978623438e-06 0.0 
5.558978623438e-06 4.973861707578e-05 0.0 
0.0 0.0 -1.495740908886e-05 
-1.182760976271e-04 3.125415357905e-06 0.0 
3.125415357905e-06 7.592172627745e-04 0.0 
0.0 0.0 -1.189347521933e-04 
-1.620624140011e-04 -1.653046323385e-05 0.0 
-1.653046323385e-05 1.054965702531e-03 0.0 
0.0 0.0 -1.604158976160e-04 
-1.568829102868e-04 1.686722308074e-05 0.0 
1.686722308074e-05 1.064364903998e-03 0.0 
0.0 0.0 -1.569671113975e-04 
-1.992656462665e-04 -3.194664877417e-06 0.0 
-3.194664877417e-06 1.366255928620e-03 0.0 
0.0 0.0 -1.979956382108e-04 
-1.950636109885e-04 -2.233519301319e-05 0.0 
-2.233519301319e-05 1.308516150632e-03 0.0 
0.0 0.0 -1.941292444173e-04 
-1.156817175628e-04 -1.648055008373e-05 0.0 
-1.648055008373e-05 7.482785284577e-04 0.0 
0.0 0.0 -1.183461849553e-04 
-1.927191275468e-04 -2.508365562689e-07 0.0 
-2.508365562689e-07 1.307929168688e-03 0.0 
0.0 0.0 -1.894775870554e-04 
-1.342251932282e-04 -2.319392894316e-05 0.0 
-2.319392894316e-05 8.854475909505e-04 0.0 
0.0 0.0 -1.356001284572e-04 
-7.729101182484e-05 -2.065735051107e-05 0.0 
-2.065735051107e-05 5.080668279858e-04 0.0 
0.0 0.0 -7.798198501994e-05 
-1.130620333788e-04 -2.717181399575e-05 0.0 
-2.717181399575e-05 7.549273825549e-04 0.0 
0.0 0.0 -1.146493908758e-04 
-1.950077973870e-04 2.900722902877e-05 0.0 
2.900722902877e-05 1.296464444951e-03 0.0 
0.0 0.0 -1.931276724533e-04 
-1.563208394466e-04 -3.328202351934e-05 0.0 
-3.328202351934e-05 1.049294579874e-03 0.0 
0.0 0.0 -1.565627933380e-04 
-1.819468009343e-04 -3.224668000663e-05 0.0 
-3.224668000663e-05 1.222740499621e-03 0.0 
0.0 0.0 -1.814398861444e-04 
-7.158014488702e-05 -3.063000169944e-05 0.0 
-3.063000169944e-05 4.571234338187e-04 0.0 
0.0 0.0 -7.121314524778e-05 
-2.401359942616e-05 8.661927370116e-06 0.0 
8.661927370116e-06 1.537990966386e-04 0.0 
0.0 0.0 -2.437345913330e-05 
-1.778980369956e-04 -2.992010737325e-05 0.0 
-2.992010737325e-05 1.196087071121e-03 0.0 
0.0 0.0 -1.784854310292e-04 
-1.679646052206e-04 1.093794452522e-05 0.0 
1.093794452522e-05 1.134281409959e-03 0.0 
0.0 0.0 -1.663185871606e-04 
-1.591223534516e-05 -6.661850777305e-06 0.0 
-6.661850777305e-06 9.101730959340e-05 0.0 
0.0 0.0 -1.557197371984e-05 
-1.881889712418e-04 -1.290050336167e-05 0.0 
-1.290050336167e-05 1.273792918307e-03 0.0 
0.0 0.0 -1.927691970005e-04 
-1.581915922847e-04 2.746019073347e-05 0.0 
2.746019073347e-05 1.044290574645e-03 0.0 
0.0 0.0 -1.577237574333e-04 
-1.522398741045e-05 -2.545037373997e-05 0.0 
-2.545037373997e-05 5.739303510054e-05 0.0 
0.0 0.0 -1.520280724627e-05 
-9.452563605332e-05 3.135471664961e-05 0.0 
3.135471664961e-05 6.036525676249e-04 0.0 
0.0 0.0 -9.464897897786e-05 
-1.065966120753e-04 -2.205603569538e-05 0.0 
-2.205603569538e-05 7.064327249630e-04 0.0 
0.0 0.0 -1.073087759210e-04 
-8.739882265024e-05 -1.070352948316e-05 0.0 
-1.070352948316e-05 5.348438843142e-04 0.0 
0.0 0.0 -8.658563305536e-05 
-7.050193455009e-05 2.512487401893e-05 0.0 
2.512487401893e-05 4.479548223167e-04 0.0 
0.0 0.0 -7.278598402964e-05 
-8.197347761458e-05 -3.364821245799e-05 0.0 
-3.364821245799e-05 5.279356728588e-04 0.0 
0.0 0.0 -8.207734578087e-05 
-1.943526740554e-04 1.658812663972e-05 0.0 
1.658812663972e-05 1.282091895606e-03 0.0 
0.0 0.0 -1.925749600208e-04 
-1.285507174143e-04 2.792411837159e-05 0.0 
2.792411837159e-05 8.722892326704e-04 0.0 
0.0 0.0 -1.315046391038e-04 
-7.635084208109e-05 3.539223257155e-05 0.0 
3.539223257155e-05 4.849768366675e-04 0.0 
0.0 0.0 -7.683710038160e-05 
-3.602345366775e-05 -3.490773875451e-05 0.0 
-3.490773875451e-05 2.028232612913e-04 0.0 
0.0 0.0 -3.442901837107e-05 
-1.143531422852e-04 1.924554056095e-05 0.0 
1.924554056095e-05 7.838716458168e-04 0.0 
0.0 0.0 -1.161738141813e-04 
-1.655806278350e-04 -1.376876940895e-05 0.0 
-1.376876940895e-05 1.108151184003e-03 0.0 
0.0 0.0 -1.693933130199e-04 
-7.665289294717e-05 -3.764080062833e-05 0.0 
-3.764080062833e-05 4.894086693533e-04 0.0 
0.0 0.0 -7.664586338968e-05 
-2.552121638192e-05 -2.302083249112e-05 0.0 
-2.302083249112e-05 1.475281213149e-04 0.0 
0.0 0.0 -2.705574766418e-05 
-9.705129782474e-05 -2.284636133005e-05 0.0 
-2.284636133005e-05 6.381494146743e-04 0.0 
0.0 0.0 -9.705601970096e-05 
-8.718862749644e-05 1.081562517566e-05 0.0 
1.081562517566e-05 5.609465076163e-04 0.0 
0.0 0.0 -8.368277571756e-05 
-9.188005610208e-05 2.337172912127e-05 0.0 
2.337172912127e-05 5.885957333175e-04 0.0 
0.0 0.0 -9.250784895245e-05 
-1.937480155634e-04 2.484993040014e-05 0.0 
2.484993040014e-05 1.298240083639e-03 0.0 
0.0 0.0 -1.936007957173e-04 
-3.355945300028e-05 2.658456895858e-05 0.0 
2.658456895858e-05 1.727565400742e-04 0.0 
0.0 0.0 -3.138407094312e-05 
-1.371246585787e-04 2.526301025991e-05 0.0 
2.526301025991e-05 9.050145966039e-04 0.0 
0.0 0.0 -1.382526569903e-04 
-1.907913629677e-04 3.443386103192e-05 0.0 
3.443386103192e-05 1.270684136511e-03 0.0 
0.0 0.0 -1.885035411211e-04 
-9.913884905617e-05 2.644976598076e-05 0.0 
2.644976598076e-05 6.359580153606e-04 0.0 
0.0 0.0 -9.883099357817e-05 
-9.221379330775e-05 -2.325684599943e-05 0.0 
-2.325684599943e-05 6.043674081660e-04 0.0 
0.0 0.0 -9.208844699642e-05 
-1.862615746056e-04 3.781096829900e-05 0.0 
3.781096829900e-05 1.269973218665e-03 0.0 
0.0 0.0 -1.882446207449e-04 
-1.884096905909e-04 -3.934674872020e-05 0.0 
-3.934674872020e-05 1.273205454370e-03 0.0 
0.0 0.0 -1.891606461478e-04 
-1.485481393432e-04 2.662002390059e-05 0.0 
2.662002390059e-05 9.835102888330e-04 0.0 
0.0 0.0 -1.481056985806e-04 
-1.041353074706e-04 -2.625300288912e-05 0.0 
-2.625300288912e-05 6.829723859406e-04 0.0 
0.0 0.0 -1.037420806291e-04 
-1.908037455824e-04 1.095423421666e-05 0.0 
1.095423421666e-05 1.307953283663e-03 0.0 
0.0 0.0 -1.905495916442e-04 
-9.518883604242e-05 2.687623025881e-05 0.0 
2.687623025881e-05 6.089232024020e-04 0.0 
0.0 0.0 -9.489072104906e-05 
-1.881130056819e-04 -1.198635265848e-06 0.0 
-1.198635265848e-06 1.269458159220e-03 0.0 
0.0 0.0 -1.924761743472e-04 
-1.914420449492e-04 1.145005922615e-05 0.0 
1.145005922615e-05 1.305589104302e-03 0.0 
0.0 0.0 -1.901156060054e-04 
-1.284773038693e-04 -4.042952323759e-05 0.0 
-4.042952323759e-05 8.353342118354e-04 0.0 
0.0 0.0 -1.281556075638e-04 
-1.456984047061e-04 2.919513868125e-05 0.0 
2.919513868125e-05 9.798728505287e-04 0.0 
0.0 0.0 -1.472674707441e-04 
-9.472925069399e-05 -2.740497223510e-05 0.0 
-2.740497223510e-05 6.169641832868e-04 0.0 
0.0 0.0 -9.439783777044e-05 
-8.853676466141e-05 2.434547469190e-05 0.0 
2.434547469190e-05 5.534202716498e-04 0.0 
0.0 0.0 -8.745362067080e-05 
-1.087467394465e-04 2.713932785840e-05 0.0 
2.713932785840e-05 7.009636801692e-04 0.0 
0.0 0.0 -1.081789848988e-04 
-8.105832168209e-05 -2.534314576398e-05 0.0 
-2.534314576398e-05 5.269671489274e-04 0.0 
0.0 0.0 -8.074562716359e-05 
-1.149166540237e-04 -2.952745104752e-05 0.0 
-2.952745104752e-05 7.749980976508e-04 0.0 
0.0 0.0 -1.154098978710e-04 
-9.441274236993e-05 -3.245636207382e-05 0.0 
-3.245636207382e-05 6.148929569629e-04 0.0 
0.0 0.0 -9.412559131899e-05 
-1.356916071786e-05 -1.098912209053e-05 0.0 
-1.098912209053e-05 4.639558825144e-05 0.0 
0.0 0.0 -1.406846894296e-05 
-1.232833288672e-04 -2.043397575373e-06 0.0 
-2.043397575373e-06 8.352777480186e-04 0.0 
0.0 0.0 -1.225661908866e-04 
-4.062993237950e-05 4.703139556520e-07 0.0 
4.703139556520e-07 1.797601039323e-04 0.0 
0.0 0.0 -3.559753881786e-05 
-1.023820434635e-04 -2.308417346528e-05 0.0 
-2.308417346528e-05 6.740366547045e-04 0.0 
0.0 0.0 -1.021452596768e-04 
-1.900125356384e-04 6.300222620786e-07 0.0 
6.300222620786e-07 1.270960970669e-03 0.0 
0.0 0.0 -1.927194217641e-04 
-7.262888074723e-05 3.426557852476e-05 0.0 
3.426557852476e-05 4.504323440592e-04 0.0 
0.0 0.0 -7.151989320621e-05 
-1.531305076902e-04 3.065990782185e-05 0.0 
3.065990782185e-05 1.022734797488e-03 0.0 
0.0 0.0 -1.531634582904e-04 
-5.235610672335e-05 -3.331315410991e-05 0.0 
-3.331315410991e-05 3.222309724492e-04 0.0 
0.0 0.0 -5.311113487535e-05 
-1.564923507781e-04 3.552239921985e-05 0.0 
3.552239921985e-05 1.043761629599e-03 0.0 
0.0 0.0 -1.567358392781e-04 
-1.202044561882e-04 9.584736121846e-07 0.0 
9.584736121846e-07 7.504029993438e-04 0.0 
0.0 0.0 -1.184948324117e-04 
-8.921525541755e-05 3.121884924230e-05 0.0 
3.121884924230e-05 5.680733164514e-04 0.0 
0.0 0.0 -8.897195087526e-05 
-1.682691344288e-04 -3.239527776225e-05 0.0 
-3.239527776225e-05 1.126335943431e-03 0.0 
0.0 0.0 -1.681445358649e-04 
-3.271371250102e-05 2.634768306306e-05 0.0 
2.634768306306e-05 1.862670599746e-04 0.0 
0.0 0.0 -3.519564525945e-05 
-1.767977369675e-04 3.301165039377e-05 0.0 
3.301165039377e-05 1.194421621902e-03 0.0 
0.0 0.0 -1.783666864750e-04 
-1.165583599501e-04 2.698564820255e-05 0.0 
2.698564820255e-05 7.555372528015e-04 0.0 
0.0 0.0 -1.156683593961e-04 
-1.920096128522e-04 1.937461849935e-06 0.0 
1.937461849935e-06 1.307268561636e-03 0.0 
0.0 0.0 -1.898980813789e-04 
-1.182997139398e-04 3.639957619216e-06 0.0 
3.639957619216e-06 7.503854203479e-04 0.0 
0.0 0.0 -1.176390761550e-04 
-7.627591541802e-05 2.437079023937e-05 0.0 
2.437079023937e-05 4.698282448248e-04 0.0 
0.0 0.0 -7.564233511891e-05 
-1.002018332227e-04 2.315121058164e-05 0.0 
2.315121058164e-05 6.584644118649e-04 0.0 
0.0 0.0 -1.026119933064e-04 
-1.351190133783e-04 -1.871259961356e-05 0.0 
-1.871259961356e-05 8.920173210254e-04 0.0 
0.0 0.0 -1.308423732783e-04 
-5.484982403945e-05 3.705256781827e-05 0.0 
3.705256781827e-05 3.376111435306e-04 0.0 
0.0 0.0 -5.271897186252e-05 
-8.886891279122e-05 -3.169931078017e-05 0.0 
-3.169931078017e-05 5.765392386080e-04 0.0 
0.0 0.0 -8.867183110647e-05 
-1.531566637255e-04 -3.479285376154e-05 0.0 
-3.479285376154e-05 1.020094408152e-03 0.0 
0.0 0.0 -1.524697723262e-04 
-1.174942329115e-04 2.313759384433e-05 0.0 
2.313759384433e-05 7.831828593042e-04 0.0 
0.0 0.0 -1.152003355451e-04 
-8.515004989233e-05 2.567844413580e-05 0.0 
2.567844413580e-05 5.346133759294e-04 0.0 
0.0 0.0 -8.499340168425e-05 
-9.805234325585e-05 2.186136341024e-05 0.0 
2.186136341024e-05 6.234712022513e-04 0.0 
0.0 0.0 -9.747820142233e-05 
-1.698406473465e-04 3.103883884451e-05 0.0 
3.103883884451e-05 1.138199375279e-03 0.0 
0.0 0.0 -1.705088282513e-04 
-9.365555901584e-05 -8.486079120948e-06 0.0 
-8.486079120948e-06 6.269873305719e-04 0.0 
0.0 0.0 -9.283786084866e-05 
-1.904373484596e-04 8.037764301144e-06 0.0 
8.037764301144e-06 1.268105410096e-03 0.0 
0.0 0.0 -1.927803298305e-04 
-1.910376123415e-04 -5.171508508335e-06 0.0 
-5.171508508335e-06 1.305994090806e-03 0.0 
0.0 0.0 -1.898229354431e-04 
-6.861783798480e-05 -2.050379203895e-05 0.0 
-2.050379203895e-05 4.453059741638e-04 0.0 
0.0 0.0 -6.893569546425e-05 
-9.290116882094e-05 1.078568075346e-05 0.0 
1.078568075346e-05 5.964552685483e-04 0.0 
0.0 0.0 -9.578111177017e-05 
-1.736492418864e-04 -2.927710979079e-05 0.0 
-2.927710979079e-05 1.161594644870e-03 0.0 
0.0 0.0 -1.729233712160e-04 
-9.087963058823e-05 -2.352933739376e-05 0.0 
-2.352933739376e-05 5.915224073559e-04 0.0 
0.0 0.0 -9.055885391067e-05 
-6.615167518160e-05 2.470417535513e-05 0.0 
2.470417535513e-05 3.792937580834e-04 0.0 
0.0 0.0 -6.377619522508e-05 
-1.123815242548e-04 2.659716101140e-05 0.0 
2.659716101140e-05 7.274681183303e-04 0.0 
0.0 0.0 -1.116514617188e-04 
-9.023769363097e-05 -2.539356064248e-05 0.0 
-2.539356064248e-05 5.927749569100e-04 0.0 
0.0 0.0 -9.016780033359e-05 
-1.933145694824e-04 1.847750118737e-05 0.0 
1.847750118737e-05 1.271781840963e-03 0.0 
0.0 0.0 -1.918589861752e-04 
-1.590817006198e-04 2.907513750142e-05 0.0 
2.907513750142e-05 1.054056791896e-03 0.0 
0.0 0.0 -1.591037845145e-04 
-1.728367159342e-04 3.427642614804e-05 0.0 
3.427642614804e-05 1.161809866144e-03 0.0 
0.0 0.0 -1.733952315365e-04 
-4.323292157822e-05 -3.260265136202e-05 0.0 
-3.260265136202e-05 2.542139140644e-04 0.0 
0.0 0.0 -4.278232070249e-05 
-8.351564551766e-05 -2.949984641989e-05 0.0 
-2.949984641989e-05 5.399072445252e-04 0.0 
0.0 0.0 -8.337503372822e-05 
-1.628911585660e-04 2.910920340207e-05 0.0 
2.910920340207e-05 1.083707985150e-03 0.0 
0.0 0.0 -1.634180649126e-04 
-4.265741739718e-06 -2.683347671446e-06 0.0 
-2.683347671446e-06 2.779779537552e-05 0.0 
0.0 0.0 -6.679583525061e-06 
-9.202938689146e-05 2.333037747325e-05 0.0 
2.333037747325e-05 5.833864669440e-04 0.0 
0.0 0.0 -9.110806911972e-05 
-1.621301817421e-04 -3.474681827654e-05 0.0 
-3.474681827654e-05 1.087399984763e-03 0.0 
0.0 0.0 -1.621013318865e-04 
-2.647246740284e-05 -1.232636837565e-05 0.0 
-1.232636837565e-05 1.529325955368e-04 0.0 
0.0 0.0 -2.408412600064e-05 
-1.857893834714e-04 3.531775714936e-05 0.0 
3.531775714936e-05 1.270668189248e-03 0.0 
0.0 0.0 -1.886276279175e-04 
-1.456981155765e-04 2.919485646582e-05 0.0 
2.919485646582e-05 9.663206150300e-04 0.0 
0.0 0.0 -1.462443664659e-04 
-8.972960447932e-05 2.818607173368e-05 0.0 
2.818607173368e-05 5.719993527864e-04 0.0 
0.0 0.0 -8.992835211633e-05 
-1.626522217749e-04 3.588322308841e-05 0.0 
3.588322308841e-05 1.081933053943e-03 0.0 
0.0 0.0 -1.623203359564e-04 
-1.232850647809e-04 -1.534283618420e-06 0.0 
-1.534283618420e-06 8.439287432935e-04 0.0 
0.0 0.0 -1.238984763055e-04 
-1.290139728958e-04 -2.422323726664e-05 0.0 
-2.422323726664e-05 8.899156396031e-04 0.0 
0.0 0.0 -1.325791391267e-04 
-1.852665524105e-04 -2.134628668879e-05 0.0 
-2.134628668879e-05 1.242411010167e-03 0.0 
0.0 0.0 -1.856686537505e-04 
-6.834313658287e-05 3.054631191321e-05 0.0 
3.054631191321e-05 4.235028941011e-04 0.0 
0.0 0.0 -6.875374652758e-05 
-1.126229297884e-04 2.780829538386e-05 0.0 
2.780829538386e-05 7.291444854309e-04 0.0 
0.0 0.0 -1.122060228641e-04 
-1.204186006984e-04 2.647313116222e-05 0.0 
2.647313116222e-05 7.832880835705e-04 0.0 
0.0 0.0 -1.198259951250e-04 
-1.511295492835e-04 -2.883504033183e-05 0.0 
-2.883504033183e-05 1.013855965193e-03 0.0 
0.0 0.0 -1.512823234748e-04 
-1.216859479991e-04 -2.731241821125e-05 0.0 
-2.731241821125e-05 8.002184542220e-04 0.0 
0.0 0.0 -1.205399881000e-04 
-1.113723575775e-04 -2.417926787298e-05 0.0 
-2.417926787298e-05 7.331871425551e-04 0.0 
0.0 0.0 -1.112326624099e-04 
-1.413007434337e-04 -2.970279854823e-05 0.0 
-2.970279854823e-05 9.413829080689e-04 0.0 
0.0 0.0 -1.412146911137e-04 
-1.660148486685e-04 -3.109368411777e-05 0.0 
-3.109368411777e-05 1.112677337996e-03 0.0 
0.0 0.0 -1.657666289772e-04 
-1.315732548335e-05 -7.692520452241e-07 0.0 
-7.692520452241e-07 8.434115995763e-05 0.0 
0.0 0.0 -1.523807105164e-05 
-6.678617265699e-05 1.617781589415e-05 0.0 
1.617781589415e-05 4.361919367653e-04 0.0 
0.0 0.0 -6.974636312929e-05 
-7.951724172922e-05 2.782935041198e-05 0.0 
2.782935041198e-05 4.935008951510e-04 0.0 
0.0 0.0 -7.874092309440e-05 
-1.082260438161e-04 -2.691428867534e-05 0.0 
-2.691428867534e-05 7.109857938248e-04 0.0 
0.0 0.0 -1.077256579858e-04 
-1.642964652876e-04 -3.148986033885e-05 0.0 
-3.148986033885e-05 1.105967087523e-03 0.0 
0.0 0.0 -1.642614415327e-04 
-3.618362754970e-05 2.736407007723e-05 0.0 
2.736407007723e-05 2.086903937200e-04 0.0 
0.0 0.0 -3.864713111506e-05 
-1.564000420693e-04 -3.317492622528e-05 0.0 
-3.317492622528e-05 1.048657376479e-03 0.0 
0.0 0.0 -1.565033163265e-04 
-1.156497145505e-04 -3.516789011310e-05 0.0 
-3.516789011310e-05 7.502047125979e-04 0.0 
0.0 0.0 -1.164502435431e-04 
-8.397727272477e-05 2.946324581154e-05 0.0 
2.946324581154e-05 5.318825966419e-04 0.0 
0.0 0.0 -8.365175887955e-05 
-1.508856871714e-04 -3.154693635550e-05 0.0 
-3.154693635550e-05 1.010987541511e-03 0.0 
0.0 0.0 -1.509358467712e-04 
-1.992206068345e-05 -2.889614730951e-05 0.0 
-2.889614730951e-05 8.287217049265e-05 0.0 
0.0 0.0 -1.875953185269e-05 
-1.556622730397e-04 3.038739624462e-05 0.0 
3.038739624462e-05 1.034138176467e-03 0.0 
0.0 0.0 -1.560016362795e-04 
-1.437982534633e-05 1.029442077582e-05 0.0 
1.029442077582e-05 7.970629733058e-05 0.0 
0.0 0.0 -1.510781838351e-05 
-2.570586355009e-05 -7.991098502523e-07 0.0 
-7.991098502523e-07 1.127575880689e-04 0.0 
0.0 0.0 -2.729127776400e-05 
-4.194184282385e-05 3.474848126707e-05 0.0 
3.474848126707e-05 2.513992056333e-04 0.0 
0.0 0.0 -4.310499224862e-05 
-5.889908142508e-05 2.600142430583e-05 0.0 
2.600142430583e-05 3.528829077978e-04 0.0 
0.0 0.0 -5.903933595174e-05 
-1.610257286591e-04 -2.786541686928e-05 0.0 
-2.786541686928e-05 1.081190214243e-03 0.0 
0.0 0.0 -1.610696234640e-04 
-5.476704679841e-05 -2.893258819142e-05 0.0 
-2.893258819142e-05 3.440414388131e-04 0.0 
0.0 0.0 -5.456393079061e-05 
-5.163315478531e-05 2.647496963403e-05 0.0 
2.647496963403e-05 3.049271572106e-04 0.0 
0.0 0.0 -5.149248157812e-05 
-4.366093994894e-05 -2.713962390303e-05 0.0 
-2.713962390303e-05 2.644614859736e-04 0.0 
0.0 0.0 -4.384065419509e-05 
-3.933534437072e-05 2.838910031743e-05 0.0 
2.838910031743e-05 2.172478170370e-04 0.0 
0.0 0.0 -3.921473890832e-05 
-1.680595828810e-04 2.995288676005e-05 0.0 
2.995288676005e-05 1.117099767863e-03 0.0 
0.0 0.0 -1.676286260939e-04 
-1.157691997288e-04 -2.821559363196e-05 0.0 
-2.821559363196e-05 7.614917365493e-04 0.0 
0.0 0.0 -1.153195849472e-04 
-1.884304056946e-04 3.717790371758e-05 0.0 
3.717790371758e-05 1.273139237753e-03 0.0 
0.0 0.0 -1.885115422441e-04 
0.0 0.0 0.0 
0.0 0.0 0.0 
0.0 0.0 0.0 
-6.073075435371e-05 2.779578447063e-05 0.0 
2.779578447063e-05 3.692130858621e-04 0.0 
0.0 0.0 -6.066067809259e-05 
-9.359168136837e-05 3.069541767913e-05 0.0 
3.069541767913e-05 5.989493619825e-04 0.0 
0.0 0.0 -9.346360670617e-05 
-8.611303417377e-05 2.775473971904e-05 0.0 
2.775473971904e-05 5.420210967722e-04 0.0 
0.0 0.0 -8.564096664159e-05 
-1.570602199792e-04 3.345705989991e-05 0.0 
3.345705989991e-05 1.042425010846e-03 0.0 
0.0 0.0 -1.567852636697e-04 
-1.928100163882e-04 2.936217438128e-05 0.0 
2.936217438128e-05 1.304792838197e-03 0.0 
0.0 0.0 -1.913896484052e-04 
-1.544569729700e-04 -3.084214855682e-05 0.0 
-3.084214855682e-05 1.037077783695e-03 0.0 
0.0 0.0 -1.544248659763e-04 
-6.869349223690e-05 -2.826326061375e-05 0.0 
-2.826326061375e-05 4.368318291179e-04 0.0 
0.0 0.0 -6.847262230322e-05 
-1.681247358756e-04 -2.868522419727e-05 0.0 
-2.868522419727e-05 1.120151786447e-03 0.0 
0.0 0.0 -1.674250338637e-04 
-1.435900585209e-04 3.856895931237e-05 0.0 
3.856895931237e-05 9.474561629382e-04 0.0 
0.0 0.0 -1.426866023873e-04 
-1.135532837026e-04 -2.681444128085e-05 0.0 
-2.681444128085e-05 7.480946909015e-04 0.0 
0.0 0.0 -1.130562566545e-04 
-1.499249798733e-04 3.067572505939e-05 0.0 
3.067572505939e-05 9.944265321611e-04 0.0 
0.0 0.0 -1.504800801517e-04 
-1.863757598195e-04 -2.386849214221e-05 0.0 
-2.386849214221e-05 1.244147855382e-03 0.0 
0.0 0.0 -1.859596318053e-04 
-9.333492539951e-05 -3.087526947971e-05 0.0 
-3.087526947971e-05 6.086612624671e-04 0.0 
0.0 0.0 -9.309312152870e-05 
-5.642363476155e-05 -2.566826805163e-05 0.0 
-2.566826805163e-05 3.519070743608e-04 0.0 
0.0 0.0 -5.629031366394e-05 
-1.307741012141e-04 -2.854605187792e-05 0.0 
-2.854605187792e-05 8.651184174892e-04 0.0 
0.0 0.0 -1.299393276493e-04 
-1.994711361555e-04 1.488956192184e-05 0.0 
1.488956192184e-05 1.364194760264e-03 0.0 
0.0 0.0 -1.985353088532e-04 
-1.121064498204e-04 -2.817436375982e-05 0.0 
-2.817436375982e-05 7.383690860162e-04 0.0 
0.0 0.0 -1.117990549081e-04 
-1.167106519063e-04 -2.872381374577e-05 0.0 
-2.872381374577e-05 7.713662195201e-04 0.0 
0.0 0.0 -1.165266455158e-04 
-1.260578035270e-04 -7.836042946561e-06 0.0 
-7.836042946561e-06 8.498512038137e-04 0.0 
0.0 0.0 -1.244042047770e-04 
-3.179935585513e-05 -1.763042363236e-05 0.0 
-1.763042363236e-05 1.961286519246e-04 0.0 
0.0 0.0 -3.241712222852e-05 
-1.231319864475e-04 2.764700743790e-05 0.0 
2.764700743790e-05 7.907293750341e-04 0.0 
0.0 0.0 -1.209084558732e-04 
-6.905505917890e-05 2.816961621887e-05 0.0 
2.816961621887e-05 4.271679056782e-04 0.0 
0.0 0.0 -6.885887611378e-05 
-4.897721551762e-05 2.632054484457e-05 0.0 
2.632054484457e-05 2.838529677145e-04 0.0 
0.0 0.0 -4.844095568774e-05 
-3.558784672985e-05 -2.880146762892e-05 0.0 
-2.880146762892e-05 1.946353418351e-04 0.0 
0.0 0.0 -3.639896506568e-05 
-1.614850212427e-04 2.922041349465e-05 0.0 
2.922041349465e-05 1.072918812013e-03 0.0 
0.0 0.0 -1.613978969627e-04 
-1.255033903270e-04 -2.731668296794e-05 0.0 
-2.731668296794e-05 8.288788500150e-04 0.0 
0.0 0.0 -1.246873609535e-04 
-8.112707161296e-05 2.681454897224e-05 0.0 
2.681454897224e-05 5.130150958306e-04 0.0 
0.0 0.0 -8.144240747594e-05 
-1.665837591113e-04 -2.880422836216e-05 0.0 
-2.880422836216e-05 1.119259672453e-03 0.0 
0.0 0.0 -1.664644697516e-04 
-1.582047777180e-04 -3.130538043856e-05 0.0 
-3.130538043856e-05 1.066325272985e-03 0.0 
0.0 0.0 -1.586660261033e-04 
-1.188629648026e-04 -2.678969091403e-05 0.0 
-2.678969091403e-05 7.847225641269e-04 0.0 
0.0 0.0 -1.183057550348e-04 
-1.886854844882e-04 1.135105285806e-05 0.0 
1.135105285806e-05 1.274732412044e-03 0.0 
0.0 0.0 -1.932618152055e-04 
-1.213677155165e-04 2.897964547722e-05 0.0 
2.897964547722e-05 7.927140784185e-04 0.0 
0.0 0.0 -1.211843839911e-04 
-1.239491645660e-04 -2.748126235811e-05 0.0 
-2.748126235811e-05 8.207516205795e-04 0.0 
0.0 0.0 -1.235739794681e-04 
-9.975160353529e-05 -2.686515225488e-05 0.0 
-2.686515225488e-05 6.567392202688e-04 0.0 
0.0 0.0 -9.984714661518e-05 
-1.263578697939e-04 -2.980227527077e-05 0.0 
-2.980227527077e-05 8.380978382458e-04 0.0 
0.0 0.0 -1.261954767068e-04 
-5.849212426998e-05 2.872957228896e-05 0.0 
2.872957228896e-05 3.506208493125e-04 0.0 
0.0 0.0 -5.798711518065e-05 
-1.213481477356e-04 6.735435036876e-06 0.0 
6.735435036876e-06 7.521902963625e-04 0.0 
0.0 0.0 -1.184708735178e-04 
-9.753040931020e-05 -2.877750014671e-05 0.0 
-2.877750014671e-05 6.382612359797e-04 0.0 
0.0 0.0 -9.729539411790e-05 
-7.014498760133e-05 -2.861953507146e-05 0.0 
-2.861953507146e-05 4.491200428710e-04 0.0 
0.0 0.0 -7.021579980210e-05 
-1.548439846447e-04 2.920495201174e-05 0.0 
2.920495201174e-05 1.025468902843e-03 0.0 
0.0 0.0 -1.548477372900e-04 
-7.400239448952e-06 -4.471996282504e-06 0.0 
-4.471996282504e-06 3.348355740734e-05 0.0 
0.0 0.0 -6.737411723468e-06 
-1.269059540153e-04 -2.992426859267e-05 0.0 
-2.992426859267e-05 8.357764802867e-04 0.0 
0.0 0.0 -1.257958619361e-04 
-7.326865481566e-05 2.857374826703e-05 0.0 
2.857374826703e-05 4.565907868803e-04 0.0 
0.0 0.0 -7.305360031667e-05 
-6.016605764575e-05 -2.684908062252e-05 0.0 
-2.684908062252e-05 3.790547108985e-04 0.0 
0.0 0.0 -6.022881660267e-05 
-5.821846839884e-05 -2.774592413861e-05 0.0 
-2.774592413861e-05 3.619705275702e-04 0.0 
0.0 0.0 -5.751879909679e-05 
-1.351640918224e-04 2.730946876610e-05 0.0 
2.730946876610e-05 8.850173502736e-04 0.0 
0.0 0.0 -1.344766581215e-04 
-2.303458757806e-05 -1.756706348761e-05 0.0 
-1.756706348761e-05 1.393624808345e-04 0.0 
0.0 0.0 -2.414890389727e-05 
-8.463000670150e-05 2.743515429835e-05 0.0 
2.743515429835e-05 5.331920973471e-04 0.0 
0.0 0.0 -8.420255649138e-05 
-1.310820143303e-04 2.863495648326e-05 0.0 
2.863495648326e-05 8.604743158959e-04 0.0 
0.0 0.0 -1.309020407989e-04 
-1.263625231525e-04 2.714069752448e-05 0.0 
2.714069752448e-05 8.190547291893e-04 0.0 
0.0 0.0 -1.250525794797e-04 
-1.272471088817e-04 -3.855000510512e-06 0.0 
-3.855000510512e-06 8.469629814487e-04 0.0 
0.0 0.0 -1.245153595172e-04 
-3.451533027297e-05 2.844805665229e-05 0.0 
2.844805665229e-05 1.808943530398e-04 0.0 
0.0 0.0 -3.280631478328e-05 
-7.063190463533e-05 2.939202413112e-05 0.0 
2.939202413112e-05 4.392145115516e-04 0.0 
0.0 0.0 -7.060413318996e-05 
-6.508843028441e-05 -3.043099012630e-05 0.0 
-3.043099012630e-05 4.105469834446e-04 0.0 
0.0 0.0 -6.467058191239e-05 
-7.469256331376e-05 -2.527987226695e-05 0.0 
-2.527987226695e-05 4.809368026629e-04 0.0 
0.0 0.0 -7.435558976913e-05 
-1.502309888333e-04 -3.186153307622e-05 0.0 
-3.186153307622e-05 1.005619770116e-03 0.0 
0.0 0.0 -1.500995507885e-04 
-8.411103689448e-05 -2.561923504937e-05 0.0 
-2.561923504937e-05 5.446630925718e-04 0.0 
0.0 0.0 -8.366679311450e-05 
-9.244608085661e-05 2.841629283501e-05 0.0 
2.841629283501e-05 5.900259211260e-04 0.0 
0.0 0.0 -9.227309926833e-05 
-8.825859911860e-05 2.898361773724e-05 0.0 
2.898361773724e-05 5.610179827723e-04 0.0 
0.0 0.0 -8.802462077767e-05 
-4.037281909572e-05 -3.055033143304e-05 0.0 
-3.055033143304e-05 2.285588841850e-04 0.0 
0.0 0.0 -3.795074749666e-05 
-1.043807176337e-04 2.969702721876e-05 0.0 
2.969702721876e-05 6.736275783202e-04 0.0 
0.0 0.0 -1.043907376787e-04 
-4.291565100880e-05 -2.841622711530e-05 0.0 
-2.841622711530e-05 2.495146198089e-04 0.0 
0.0 0.0 -4.182373257491e-05 
-1.960133420005e-04 -3.915898958086e-07 0.0 
-3.915898958086e-07 1.365024672998e-03 0.0 
0.0 0.0 -1.982169479593e-04 
-2.008761767446e-04 -4.440775900705e-06 0.0 
-4.440775900705e-06 1.363686351067e-03 0.0 
0.0 0.0 -1.977044065024e-04 
-1.166270540496e-04 2.805525215369e-05 0.0 
2.805525215369e-05 7.581594275037e-04 0.0 
0.0 0.0 -1.163296810217e-04 
-6.377729921261e-05 2.843186062466e-05 0.0 
2.843186062466e-05 3.894200307401e-04 0.0 
0.0 0.0 -6.349477618752e-05 
-5.472494021236e-05 -2.756038478394e-05 0.0 
-2.756038478394e-05 3.420299138774e-04 0.0 
0.0 0.0 -5.489564032307e-05 
-1.286062633098e-04 2.787342346443e-05 0.0 
2.787342346443e-05 8.404326398301e-04 0.0 
0.0 0.0 -1.280878756227e-04 
-5.924292318693e-05 -2.830092874267e-05 0.0 
-2.830092874267e-05 3.712937095837e-04 0.0 
0.0 0.0 -5.895795660960e-05 
-6.498740843255e-05 2.970448360848e-05 0.0 
2.970448360848e-05 3.998906408149e-04 0.0 
0.0 0.0 -6.509812613533e-05 
-1.139448242020e-04 2.662931945144e-05 0.0 
2.662931945144e-05 7.377302601230e-04 0.0 
0.0 0.0 -1.134571731864e-04 
-1.931977199045e-04 -5.790102799525e-06 0.0 
-5.790102799525e-06 1.309642249160e-03 0.0 
0.0 0.0 -1.899960389348e-04 
-7.860743769092e-05 2.917445532478e-05 0.0 
2.917445532478e-05 4.940483609679e-04 0.0 
0.0 0.0 -7.839370437043e-05 
-1.417199735287e-04 2.941394498762e-05 0.0 
2.941394498762e-05 9.349322217144e-04 0.0 
0.0 0.0 -1.414217305113e-04 
-4.661344112576e-05 2.736880969088e-05 0.0 
2.736880969088e-05 2.670838018736e-04 0.0 
0.0 0.0 -4.614936513201e-05 
-1.967992094278e-04 1.123981941096e-06 0.0 
1.123981941096e-06 1.365295639638e-03 0.0 
0.0 0.0 -1.984294758987e-04 
-5.951651457585e-05 2.802626650619e-05 0.0 
2.802626650619e-05 3.606106616578e-04 0.0 
0.0 0.0 -5.939605362352e-05 
-1.179287062834e-04 2.787660048455e-05 0.0 
2.787660048455e-05 7.663966719587e-04 0.0 
0.0 0.0 -1.175278261142e-04 
-4.409418717161e-05 3.104234347111e-05 0.0 
3.104234347111e-05 2.441849578649e-04 0.0 
0.0 0.0 -4.282931220362e-05 
-1.381450842626e-04 2.836088824292e-05 0.0 
2.836088824292e-05 9.092073412549e-04 0.0 
0.0 0.0 -1.381743871232e-04 
-9.791138306631e-05 2.879750584179e-05 0.0 
2.879750584179e-05 6.273190453691e-04 0.0 
0.0 0.0 -9.774928945211e-05 
-6.965606683394e-05 2.867246728631e-05 0.0 
2.867246728631e-05 4.309923865951e-04 0.0 
0.0 0.0 -6.938051102899e-05 
-1.200769966056e-04 -2.774059059615e-05 0.0 
-2.774059059615e-05 7.919085176899e-04 0.0 
0.0 0.0 -1.194585575575e-04 
-1.988427120039e-04 -2.959789654558e-06 0.0 
-2.959789654558e-06 1.363764641001e-03 0.0 
0.0 0.0 -1.987298001823e-04 
-8.291571741031e-05 2.832079044508e-05 0.0 
2.832079044508e-05 5.233038309385e-04 0.0 
0.0 0.0 -8.265507580179e-05 
-1.306758629051e-04 -2.955788166782e-05 0.0 
-2.955788166782e-05 8.695191991227e-04 0.0 
0.0 0.0 -1.305485175686e-04 
-4.578173906005e-05 -2.535078056645e-05 0.0 
-2.535078056645e-05 2.780519891852e-04 0.0 
0.0 0.0 -4.562300070248e-05 
-1.437792750518e-04 3.149363009429e-05 0.0 
3.149363009429e-05 9.490378851935e-04 0.0 
0.0 0.0 -1.436534165706e-04 
-1.511792253345e-04 3.107336096836e-05 0.0 
3.107336096836e-05 1.002609936336e-03 0.0 
0.0 0.0 -1.512517770320e-04 
-6.196699647241e-05 -2.679098173261e-05 0.0 
-2.679098173261e-05 3.903858421673e-04 0.0 
0.0 0.0 -6.164273853391e-05 
-1.399199792627e-04 -2.811467117751e-05 0.0 
-2.811467117751e-05 9.272505815491e-04 0.0 
0.0 0.0 -1.388569334018e-04 
-1.985355386787e-04 1.984726108434e-06 0.0 
1.984726108434e-06 1.364959960964e-03 0.0 
0.0 0.0 -1.983871205594e-04 
-1.614928444495e-04 2.847027297627e-05 0.0 
2.847027297627e-05 1.071649121551e-03 0.0 
0.0 0.0 -1.613792517474e-04 
-1.982422487002e-04 -2.569909507912e-06 0.0 
-2.569909507912e-06 1.365758727609e-03 0.0 
0.0 0.0 -1.983136761333e-04 
-1.361916076227e-04 -3.146771190181e-05 0.0 
-3.146771190181e-05 9.179571631392e-04 0.0 
0.0 0.0 -1.379474753881e-04 
-1.576486168105e-04 -2.829471551287e-05 0.0 
-2.829471551287e-05 1.056700414691e-03 0.0 
0.0 0.0 -1.572395483614e-04 
-5.266868770522e-05 -2.930837486761e-05 0.0 
-2.930837486761e-05 3.216672696281e-04 0.0 
0.0 0.0 -5.237865887416e-05 
-1.106230900853e-04 -2.705461405413e-05 0.0 
-2.705461405413e-05 7.266788580309e-04 0.0 
0.0 0.0 -1.101557085785e-04 
-1.243986606814e-04 2.756325965713e-05 0.0 
2.756325965713e-05 8.114376097232e-04 0.0 
0.0 0.0 -1.239588741081e-04 
-1.293044827764e-04 -2.800858501220e-05 0.0 
-2.800858501220e-05 8.573256290427e-04 0.0 
0.0 0.0 -1.288458533782e-04 
-1.066562308207e-04 -2.783120558929e-05 0.0 
-2.783120558929e-05 7.017640661734e-04 0.0 
0.0 0.0 -1.065261787303e-04 
-1.990029541207e-04 -1.757598364358e-06 0.0 
-1.757598364358e-06 1.366381337533e-03 0.0 
0.0 0.0 -1.983502480037e-04 
-1.298318789187e-04 2.158067938686e-05 0.0 
2.158067938686e-05 8.815706967553e-04 0.0 
0.0 0.0 -1.321612292015e-04 
-1.176326388033e-04 -2.595061727756e-05 0.0 
-2.595061727756e-05 7.723158987367e-04 0.0 
0.0 0.0 -1.164556264782e-04 
-8.783787209566e-05 -2.903458928538e-05 0.0 
-2.903458928538e-05 5.705379246605e-04 0.0 
0.0 0.0 -8.765849385151e-05 
-4.943082231834e-05 2.834348926926e-05 0.0 
2.834348926926e-05 2.859345548030e-04 0.0 
0.0 0.0 -4.921152720794e-05 
-1.062878110515e-04 -2.718085700709e-05 0.0 
-2.718085700709e-05 6.972114022315e-04 0.0 
0.0 0.0 -1.060368635384e-04 
-6.633274732441e-05 2.805962634071e-05 0.0 
2.805962634071e-05 4.063292376683e-04 0.0 
0.0 0.0 -6.607158303000e-05 
-1.158557996194e-04 -6.210093226299e-06 0.0 
-6.210093226299e-06 7.885063370646e-04 0.0 
0.0 0.0 -1.154421321462e-04 
-6.910380331659e-05 -2.778533839803e-05 0.0 
-2.778533839803e-05 4.414244386129e-04 0.0 
0.0 0.0 -6.893461416734e-05 
-7.822135333654e-05 -2.896553184294e-05 0.0 
-2.896553184294e-05 5.031498839476e-04 0.0 
0.0 0.0 -7.803987337015e-05 
-1.602384540181e-04 3.100072325668e-05 0.0 
3.100072325668e-05 1.064154990020e-03 0.0 
0.0 0.0 -1.603578675858e-04 
-6.566815985925e-05 -2.750449767600e-05 0.0 
-2.750449767600e-05 4.167092244980e-04 0.0 
0.0 0.0 -6.558851423748e-05 
-1.152845892592e-04 2.749147668780e-05 0.0 
2.749147668780e-05 7.465056274970e-04 0.0 
0.0 0.0 -1.146103474413e-04 
-1.353451354842e-04 2.819645546977e-05 0.0 
2.819645546977e-05 8.892812196543e-04 0.0 
0.0 0.0 -1.352137036071e-04 
-1.205044148237e-04 2.968350999990e-05 0.0 
2.968350999990e-05 7.873013113578e-04 0.0 
0.0 0.0 -1.205299346428e-04 
-1.958940259279e-04 -3.143838988153e-07 0.0 
-3.143838988153e-07 1.365374549896e-03 0.0 
0.0 0.0 -1.987143998872e-04 
-9.668730117965e-05 -2.517304160907e-05 0.0 
-2.517304160907e-05 6.291397970161e-04 0.0 
0.0 0.0 -9.585336115805e-05 
-6.653143432307e-05 2.946077866981e-05 0.0 
2.946077866981e-05 4.089865087981e-04 0.0 
0.0 0.0 -6.633958094145e-05 
-8.520951336944e-05 -2.684964973046e-05 0.0 
-2.684964973046e-05 5.564426473023e-04 0.0 
0.0 0.0 -8.536885536015e-05 
-6.423500688610e-05 -2.223670417576e-05 0.0 
-2.223670417576e-05 3.967373019254e-04 0.0 
0.0 0.0 -6.277058716750e-05 
-6.233409830209e-05 2.930783879135e-05 0.0 
2.930783879135e-05 3.806227503841e-04 0.0 
0.0 0.0 -6.211964112063e-05 
-1.686029388230e-04 -3.010997351014e-05 0.0 
-3.010997351014e-05 1.134847194407e-03 0.0 
0.0 0.0 -1.685829472084e-04 
-1.228035280568e-04 -2.801028863811e-05 0.0 
-2.801028863811e-05 8.126298515026e-04 0.0 
0.0 0.0 -1.224221955183e-04 
-8.576695021724e-05 -2.818444781109e-05 0.0 
-2.818444781109e-05 5.521166414815e-04 0.0 
0.0 0.0 -8.508581023982e-05 
-1.058888784043e-04 2.774100767274e-05 0.0 
2.774100767274e-05 6.820542708577e-04 0.0 
0.0 0.0 -1.053569120690e-04 
-1.984005188917e-04 3.469833888432e-06 0.0 
3.469833888432e-06 1.365869131785e-03 0.0 
0.0 0.0 -1.981012852499e-04 
-1.891870000816e-04 -2.170110567076e-05 0.0 
-2.170110567076e-05 1.288510292263e-03 0.0 
0.0 0.0 -1.887097005658e-04 
-1.683150849776e-04 2.979696904543e-05 0.0 
2.979696904543e-05 1.122642711197e-03 0.0 
0.0 0.0 -1.689885654173e-04 
-1.554302986174e-04 -2.927663835836e-05 0.0 
-2.927663835836e-05 1.044556448181e-03 0.0 
0.0 0.0 -1.556283301217e-04 
-1.157857925219e-04 -2.832751956135e-05 0.0 
-2.832751956135e-05 7.671670755825e-04 0.0 
0.0 0.0 -1.158214347813e-04 
-8.793389765940e-05 -2.692004426865e-05 0.0 
-2.692004426865e-05 5.710151647237e-04 0.0 
0.0 0.0 -8.764218308180e-05 
-6.353474277312e-05 -2.825822332319e-05 0.0 
-2.825822332319e-05 4.001707208949e-04 0.0 
0.0 0.0 -6.304749027677e-05 
-7.291093511829e-05 -2.827879267007e-05 0.0 
-2.827879267007e-05 4.665581668852e-04 0.0 
0.0 0.0 -7.265234708097e-05 
-1.174853072823e-04 -2.733567074543e-05 0.0 
-2.733567074543e-05 7.760237591612e-04 0.0 
0.0 0.0 -1.171309192368e-04 
-1.335212434515e-04 -2.914279474533e-05 0.0 
-2.914279474533e-05 8.905694576090e-04 0.0 
0.0 0.0 -1.335144612876e-04 
-1.018718395078e-04 -2.979006226054e-05 0.0 
-2.979006226054e-05 6.715941915170e-04 0.0 
0.0 0.0 -1.021513650962e-04 
-1.706976735812e-04 3.040145888498e-05 0.0 
3.040145888498e-05 1.134074140794e-03 0.0 
0.0 0.0 -1.701355210695e-04 
-6.585088392687e-05 -2.809564114852e-05 0.0 
-2.809564114852e-05 4.191270390209e-04 0.0 
0.0 0.0 -6.593483134188e-05 
-1.012822856145e-04 -2.790893614150e-05 0.0 
-2.790893614150e-05 6.647252503200e-04 0.0 
0.0 0.0 -1.012556795624e-04 
-1.190728906021e-04 2.726084077196e-05 0.0 
2.726084077196e-05 7.740175104497e-04 0.0 
0.0 0.0 -1.186992623097e-04 
-9.180435571147e-05 -2.942480991547e-05 0.0 
-2.942480991547e-05 5.980965186942e-04 0.0 
0.0 0.0 -9.183388734860e-05 
-1.951933135343e-04 -3.067913145711e-06 0.0 
-3.067913145711e-06 1.365527233008e-03 0.0 
0.0 0.0 -1.980132279339e-04 
-2.004839790609e-04 7.957002336377e-06 0.0 
7.957002336377e-06 1.363848061926e-03 0.0 
0.0 0.0 -1.977693979613e-04 
-1.862548850903e-04 -3.381380897180e-05 0.0 
-3.381380897180e-05 1.277935188165e-03 0.0 
0.0 0.0 -1.884741816281e-04 
-1.255545849599e-04 -2.913100698812e-05 0.0 
-2.913100698812e-05 8.346700099746e-04 0.0 
0.0 0.0 -1.256288396591e-04 
-1.668512740992e-04 2.892208901038e-05 0.0 
2.892208901038e-05 1.110735165857e-03 0.0 
0.0 0.0 -1.668097552869e-04 
-5.710219261571e-05 2.668419955422e-05 0.0 
2.668419955422e-05 3.418831237588e-04 0.0 
0.0 0.0 -5.678930531275e-05 
-8.241925476564e-05 -2.832624156936e-05 0.0 
-2.832624156936e-05 5.333885698677e-04 0.0 
0.0 0.0 -8.224527255367e-05 
-4.853944390359e-05 -2.604022421239e-05 0.0 
-2.604022421239e-05 2.959627034739e-04 0.0 
0.0 0.0 -4.789427177487e-05 
-8.945478626281e-05 -2.660897635143e-05 0.0 
-2.660897635143e-05 5.805998989638e-04 0.0 
0.0 0.0 -8.904339260345e-05 
-1.163162734636e-04 -2.681975846469e-06 0.0 
-2.681975846469e-06 7.498217446733e-04 0.0 
0.0 0.0 -1.187247005501e-04 
-1.378749770551e-04 3.210368012353e-05 0.0 
3.210368012353e-05 9.111791288023e-04 0.0 
0.0 0.0 -1.382175405433e-04 
-1.908460110853e-04 -3.275689360253e-07 0.0 
-3.275689360253e-07 1.305230985071e-03 0.0 
0.0 0.0 -1.898105380384e-04 
-1.673198694714e-04 3.217203314275e-05 0.0 
3.217203314275e-05 1.110802916425e-03 0.0 
0.0 0.0 -1.675837462092e-04 
-1.307963472837e-04 2.695120133125e-05 0.0 
2.695120133125e-05 8.556346688023e-04 0.0 
0.0 0.0 -1.303141423325e-04 
-1.340100066794e-04 2.763944078925e-05 0.0 
2.763944078925e-05 8.772925572874e-04 0.0 
0.0 0.0 -1.333792161710e-04 
-5.307775534031e-05 2.953233977858e-05 0.0 
2.953233977858e-05 3.124408790926e-04 0.0 
0.0 0.0 -5.245278118421e-05 
-2.595268965567e-05 5.699272949294e-06 0.0 
5.699272949294e-06 1.472249447242e-04 0.0 
0.0 0.0 -2.415366321274e-05 
-9.908936880668e-05 3.012137168314e-05 0.0 
3.012137168314e-05 6.362497375305e-04 0.0 
0.0 0.0 -9.891160473977e-05 
-1.107375038864e-04 -2.791592154402e-05 0.0 
-2.791592154402e-05 7.305458695935e-04 0.0 
0.0 0.0 -1.106421438825e-04 
-1.040373993302e-04 -2.962445174837e-05 0.0 
-2.962445174837e-05 6.836342105130e-04 0.0 
0.0 0.0 -1.039785834622e-04 
-2.890800069675e-05 2.861111799326e-05 0.0 
2.861111799326e-05 1.404310217184e-04 0.0 
0.0 0.0 -2.759983235876e-05 
-1.283084597460e-04 1.192869093826e-05 0.0 
1.192869093826e-05 8.062000095070e-04 0.0 
0.0 0.0 -1.269342783548e-04 
-4.518956868723e-05 -2.955121691656e-05 0.0 
-2.955121691656e-05 2.739636501554e-04 0.0 
0.0 0.0 -4.458156379712e-05 
-6.480437248805e-05 2.886959438942e-05 0.0 
2.886959438942e-05 3.978928491972e-04 0.0 
0.0 0.0 -6.471073859852e-05 
-2.011730791700e-04 -1.698872758072e-08 0.0 
-1.698872758072e-08 1.328124099864e-03 0.0 
0.0 0.0 -2.011730791700e-04 
-1.460374838192e-04 -3.048163660064e-05 0.0 
-3.048163660064e-05 9.751989198997e-04 0.0 
0.0 0.0 -1.457653143910e-04 
-1.205798788541e-04 2.761727978419e-05 0.0 
2.761727978419e-05 7.635288783755e-04 0.0 
0.0 0.0 -1.168501105142e-04 
-3.395354607204e-05 2.118102367287e-05 0.0 
2.118102367287e-05 2.067871695949e-04 0.0 
0.0 0.0 -3.264725407481e-05 
-1.072259052960e-04 2.828066854900e-05 0.0 
2.828066854900e-05 6.926707853574e-04 0.0 
0.0 0.0 -1.069007943593e-04 
-9.875212805042e-05 -3.066987077576e-05 0.0 
-3.066987077576e-05 6.455932732231e-04 0.0 
0.0 0.0 -9.854973989574e-05 
-1.347121276017e-04 -2.904780221579e-05 0.0 
-2.904780221579e-05 8.937363280174e-04 0.0 
0.0 0.0 -1.341094516545e-04 
-1.991811038418e-04 6.018664084072e-06 0.0 
6.018664084072e-06 1.364715316697e-03 0.0 
0.0 0.0 -1.985748880999e-04 
-1.110533222846e-04 2.766180117225e-05 0.0 
2.766180117225e-05 7.188072929314e-04 0.0 
0.0 0.0 -1.104975085169e-04 
-1.281880349500e-04 -2.831423111803e-05 0.0 
-2.831423111803e-05 8.493800491293e-04 0.0 
0.0 0.0 -1.277066113365e-04 
-1.022800064688e-04 2.938149773544e-05 0.0 
2.938149773544e-05 6.613696873366e-04 0.0 
0.0 0.0 -1.025654288072e-04 
-1.657781793003e-04 2.991009795984e-05 0.0 
2.991009795984e-05 1.103461715683e-03 0.0 
0.0 0.0 -1.657887872837e-04 
-1.303012997508e-04 2.941535065773e-05 0.0 
2.941535065773e-05 8.562179753406e-04 0.0 
0.0 0.0 -1.303748051659e-04 
-1.970164637737e-04 -1.302278598282e-06 0.0 
-1.302278598282e-06 1.366138488450e-03 0.0 
0.0 0.0 -1.983262259508e-04 
-2.010155577921e-04 3.662749840238e-07 0.0 
3.662749840238e-07 1.326332536677e-03 0.0 
0.0 0.0 -2.010155577921e-04 
-2.011542863586e-04 -1.004817252028e-06 0.0 
-1.004817252028e-06 1.325128672458e-03 0.0 
0.0 0.0 -2.011542863586e-04 
-2.007067363607e-04 -1.498454949367e-07 0.0 
-1.498454949367e-07 1.318361508107e-03 0.0 
0.0 0.0 -2.007067363607e-04 
-1.391843029499e-04 2.745739822782e-05 0.0 
2.745739822782e-05 9.142042162451e-04 0.0 
0.0 0.0 -1.386702020626e-04 
-1.656573127809e-04 -2.766529280961e-05 0.0 
-2.766529280961e-05 1.111954587801e-03 0.0 
0.0 0.0 -1.654503375633e-04 
-1.726299045536e-04 3.125882372741e-05 0.0 
3.125882372741e-05 1.154413842026e-03 0.0 
0.0 0.0 -1.733872194588e-04 
-9.246943249656e-05 3.046774901958e-05 0.0 
3.046774901958e-05 5.891823098647e-04 0.0 
0.0 0.0 -9.220995221430e-05 
-8.867527655773e-05 2.995644697179e-05 0.0 
2.995644697179e-05 5.611104943418e-04 0.0 
0.0 0.0 -8.809376301141e-05 
-9.622211545223e-05 -3.009570676563e-05 0.0 
-3.009570676563e-05 6.328174754954e-04 0.0 
0.0 0.0 -9.655401109520e-05 
-1.701961923366e-04 -3.010043453970e-05 0.0 
-3.010043453970e-05 1.143557443824e-03 0.0 
0.0 0.0 -1.697778367964e-04 
-1.986751491008e-04 -7.450281032101e-07 0.0 
-7.450281032101e-07 1.364365235868e-03 0.0 
0.0 0.0 -1.983660426036e-04 
-1.710340879663e-04 2.926837147099e-05 0.0 
2.926837147099e-05 1.140451459410e-03 0.0 
0.0 0.0 -1.711771202328e-04 
-1.362026136940e-04 -3.056560885154e-05 0.0 
-3.056560885154e-05 9.064457611163e-04 0.0 
0.0 0.0 -1.359501865459e-04 
-1.710918547977e-04 -2.738871930552e-05 0.0 
-2.738871930552e-05 1.149183258739e-03 0.0 
0.0 0.0 -1.708297112636e-04 
-1.484338095600e-04 -2.864995064493e-05 0.0 
-2.864995064493e-05 9.946985301084e-04 0.0 
0.0 0.0 -1.485531891111e-04 
-1.058391682515e-04 2.762475757998e-05 0.0 
2.762475757998e-05 6.839177814814e-04 0.0 
0.0 0.0 -1.057460988714e-04 
-9.007502322936e-05 2.632387229137e-05 0.0 
2.632387229137e-05 5.712847458693e-04 0.0 
0.0 0.0 -8.951081423028e-05 
-5.003262353380e-05 2.839389572085e-05 0.0 
2.839389572085e-05 2.942091527215e-04 0.0 
0.0 0.0 -5.000330529763e-05 
-1.931223455613e-04 1.410072971069e-05 0.0 
1.410072971069e-05 1.274197783005e-03 0.0 
0.0 0.0 -1.923320103442e-04 
-8.673133120512e-05 2.974761857028e-05 0.0 
2.974761857028e-05 5.527785355338e-04 0.0 
0.0 0.0 -8.688718888654e-05 
-1.811235048976e-04 -1.426754042441e-06 0.0 
-1.426754042441e-06 1.216021958167e-03 0.0 
0.0 0.0 -1.846150589539e-04 
-9.663648622258e-05 2.916309241112e-05 0.0 
2.916309241112e-05 6.223980992345e-04 0.0 
0.0 0.0 -9.698095267749e-05 
-6.297861531256e-05 -2.737443956180e-05 0.0 
-2.737443956180e-05 4.020391048555e-04 0.0 
0.0 0.0 -6.334372566563e-05 
-1.910403343780e-04 6.504513827889e-06 0.0 
6.504513827889e-06 1.269011526396e-03 0.0 
0.0 0.0 -1.926469350330e-04 
-7.031800198741e-05 2.800312657303e-05 0.0 
2.800312657303e-05 4.340280219417e-04 0.0 
0.0 0.0 -7.004737339288e-05 
-2.012981183411e-04 2.829868493087e-07 0.0 
2.829868493087e-07 1.325754434692e-03 0.0 
0.0 0.0 -2.012981183411e-04 
-1.944617061092e-04 -2.128424273080e-06 0.0 
-2.128424273080e-06 1.270536569317e-03 0.0 
0.0 0.0 -1.923981163876e-04 
-1.274261734323e-04 2.764661482526e-05 0.0 
2.764661482526e-05 8.320608034777e-04 0.0 
0.0 0.0 -1.269381307268e-04 
-1.388257339176e-05 -3.296929808695e-07 0.0 
-3.296929808695e-07 4.627629862134e-05 0.0 
0.0 0.0 -1.388302509839e-05 
-2.011432062587e-04 1.175370744359e-06 0.0 
1.175370744359e-06 1.325704875416e-03 0.0 
0.0 0.0 -2.011432062587e-04 
-1.921224080021e-04 -3.345083285998e-06 0.0 
-3.345083285998e-06 1.269046594870e-03 0.0 
0.0 0.0 -1.926992175726e-04 
-6.391416598869e-05 2.999598810142e-05 0.0 
2.999598810142e-05 3.912627427439e-04 0.0 
0.0 0.0 -6.380490422505e-05 
-1.404753262357e-04 -2.965513079560e-05 0.0 
-2.965513079560e-05 9.376027128924e-04 0.0 
0.0 0.0 -1.402969630079e-04 
-1.999507595383e-04 6.517171705072e-07 0.0 
6.517171705072e-07 1.367200749641e-03 0.0 
0.0 0.0 -1.984522389651e-04 
0.0 0.0 0.0 
0.0 0.0 0.0 
0.0 0.0 0.0 
-9.642422921866e-05 2.765043306328e-05 0.0 
2.765043306328e-05 6.184893464754e-04 0.0 
0.0 0.0 -9.638260397252e-05 
-1.327711764227e-04 2.777803969438e-05 0.0 
2.777803969438e-05 8.691844784454e-04 0.0 
0.0 0.0 -1.322405047887e-04 
-1.220159274826e-04 2.812429560457e-05 0.0 
2.812429560457e-05 7.950189731712e-04 0.0 
0.0 0.0 -1.216370884873e-04 
-1.233780413330e-04 2.822278476293e-05 0.0 
2.822278476293e-05 8.034120475729e-04 0.0 
0.0 0.0 -1.227992079070e-04 
-5.537653594295e-05 2.875222597985e-05 0.0 
2.875222597985e-05 3.316168811288e-04 0.0 
0.0 0.0 -5.533679171570e-05 
-2.012041008673e-04 -1.784165579872e-07 0.0 
-1.784165579872e-07 1.324183447082e-03 0.0 
0.0 0.0 -2.012041008673e-04 
-9.201494534921e-05 -2.853538992438e-05 0.0 
-2.853538992438e-05 6.003334109930e-04 0.0 
0.0 0.0 -9.185667556238e-05 
-3.303106360170e-05 -2.633064609002e-05 0.0 
-2.633064609002e-05 1.883634797952e-04 0.0 
0.0 0.0 -3.259945417627e-05 
-1.918713440306e-04 8.946523950926e-06 0.0 
8.946523950926e-06 1.309054848055e-03 0.0 
0.0 0.0 -1.908532239790e-04 
-1.533408055875e-05 7.384230356387e-07 0.0 
7.384230356387e-07 8.948803933365e-05 0.0 
0.0 0.0 -1.529156673429e-05 
-1.006599210971e-04 2.782645766406e-05 0.0 
2.782645766406e-05 6.455369390174e-04 0.0 
0.0 0.0 -1.001834968599e-04 
-3.451081164849e-05 1.818301860879e-06 0.0 
1.818301860879e-06 1.688175235099e-04 0.0 
0.0 0.0 -3.548102280213e-05 
-1.062965573196e-04 2.780179286973e-05 0.0 
2.780179286973e-05 6.883223029444e-04 0.0 
0.0 0.0 -1.064232429825e-04 
-1.976952572840e-04 -1.168281398261e-06 0.0 
-1.168281398261e-06 1.362992457342e-03 0.0 
0.0 0.0 -1.982734646138e-04 
-2.011883062674e-04 9.888613031934e-07 0.0 
9.888613031934e-07 1.328146716782e-03 0.0 
0.0 0.0 -2.011883062674e-04 
-1.301088029822e-04 2.770607832302e-05 0.0 
2.770607832302e-05 8.484055931934e-04 0.0 
0.0 0.0 -1.292069026561e-04 
-2.954464874618e-05 -3.965393558445e-06 0.0 
-3.965393558445e-06 1.122999320296e-04 0.0 
0.0 0.0 -2.690965210263e-05 
-2.739399671943e-05 2.933508036766e-05 0.0 
2.933508036766e-05 1.380090285650e-04 0.0 
0.0 0.0 -2.757055009735e-05 
-3.542847344044e-05 6.606947798617e-06 0.0 
6.606947798617e-06 2.063449622469e-04 0.0 
0.0 0.0 -3.269047038571e-05 
-1.687743102681e-04 -2.969350572077e-05 0.0 
-2.969350572077e-05 1.134034339831e-03 0.0 
0.0 0.0 -1.682749826031e-04 
-1.155575491131e-04 4.356017504332e-06 0.0 
4.356017504332e-06 7.906999410851e-04 0.0 
0.0 0.0 -1.155645034189e-04 
-1.225223585343e-04 -3.170975582543e-05 0.0 
-3.170975582543e-05 8.033648067797e-04 0.0 
0.0 0.0 -1.216399908441e-04 
-2.013754095761e-04 8.574101042668e-07 0.0 
8.574101042668e-07 1.328505872694e-03 0.0 
0.0 0.0 -2.013754095761e-04 
-1.185922722511e-04 -6.408792185017e-06 0.0 
-6.408792185017e-06 7.903114053093e-04 0.0 
0.0 0.0 -1.158066699702e-04 
-1.999465830534e-04 2.523603907241e-06 0.0 
2.523603907241e-06 1.365706190659e-03 0.0 
0.0 0.0 -1.984278847636e-04 
-1.529420189163e-04 2.878980384314e-05 0.0 
2.878980384314e-05 1.013778882456e-03 0.0 
0.0 0.0 -1.531497964885e-04 
-1.341342697016e-04 3.021998989808e-05 0.0 
3.021998989808e-05 8.804430663277e-04 0.0 
0.0 0.0 -1.336117322397e-04 
-7.066337245358e-05 2.724020164699e-05 0.0 
2.724020164699e-05 4.173118245595e-04 0.0 
0.0 0.0 -6.716413209789e-05 
-1.409646218039e-04 2.858302443344e-05 0.0 
2.858302443344e-05 9.281763591865e-04 0.0 
0.0 0.0 -1.406799227165e-04 
-4.298549671642e-05 -2.547451572923e-05 0.0 
-2.547451572923e-05 2.695670933754e-04 0.0 
0.0 0.0 -4.407237973489e-05 
-2.011132486541e-04 -7.128017343339e-07 0.0 
-7.128017343339e-07 1.328659301781e-03 0.0 
0.0 0.0 -2.011132486541e-04 
-2.009976701417e-04 3.439303975141e-06 0.0 
3.439303975141e-06 1.321105461220e-03 0.0 
0.0 0.0 -2.009976701417e-04 
-2.010626616006e-04 -3.322276770675e-06 0.0 
-3.322276770675e-06 1.324330050416e-03 0.0 
0.0 0.0 -2.010626616006e-04 
-1.299093591511e-04 -2.914930425429e-05 0.0 
-2.914930425429e-05 8.658441252439e-04 0.0 
0.0 0.0 -1.299975089739e-04 
-9.052284020770e-05 -3.049516894790e-05 0.0 
-3.049516894790e-05 5.936904225557e-04 0.0 
0.0 0.0 -9.093357025479e-05 
-1.054046505950e-04 -2.722690421760e-05 0.0 
-2.722690421760e-05 6.941162488956e-04 0.0 
0.0 0.0 -1.053178853420e-04 
-1.346471619318e-04 2.927563182277e-05 0.0 
2.927563182277e-05 8.856709839770e-04 0.0 
0.0 0.0 -1.347235989126e-04 
-2.009441844947e-04 5.418162692687e-07 0.0 
5.418162692687e-07 1.327955075341e-03 0.0 
0.0 0.0 -2.009441844947e-04 
-6.443925901357e-05 -2.813929069584e-05 0.0 
-2.813929069584e-05 4.076252186495e-04 0.0 
0.0 0.0 -6.431912701200e-05 
-7.485675959243e-05 2.901728883495e-05 0.0 
2.901728883495e-05 4.688085198426e-04 0.0 
0.0 0.0 -7.487790608677e-05 
-7.928698614329e-05 2.778576412939e-05 0.0 
2.778576412939e-05 4.984401812577e-04 0.0 
0.0 0.0 -7.908687439778e-05 
-1.394721343079e-04 2.885489704653e-05 0.0 
2.885489704653e-05 9.192978405546e-04 0.0 
0.0 0.0 -1.391937591313e-04 
-2.008612103287e-04 -3.693527197654e-06 0.0 
-3.693527197654e-06 1.364519917838e-03 0.0 
0.0 0.0 -1.985305734468e-04 
-2.250927834624e-05 2.909087829438e-06 0.0 
2.909087829438e-06 1.468758923848e-04 0.0 
0.0 0.0 -2.397382233655e-05 
-2.011163638586e-04 2.302003841700e-07 0.0 
2.302003841700e-07 1.324189736521e-03 0.0 
0.0 0.0 -2.011163638586e-04 
-7.377337448231e-05 2.934269690708e-05 0.0 
2.934269690708e-05 4.594549865471e-04 0.0 
0.0 0.0 -7.358133128319e-05 
-2.014316818412e-04 4.263406091412e-07 0.0 
4.263406091412e-07 1.328090472923e-03 0.0 
0.0 0.0 -2.014316818412e-04 
-1.734276927947e-04 -2.828578725819e-05 0.0 
-2.828578725819e-05 1.166116999412e-03 0.0 
0.0 0.0 -1.729148776319e-04 
-6.741246855669e-06 1.500702879826e-07 0.0 
1.500702879826e-07 3.827256342879e-05 0.0 
0.0 0.0 -6.864263063556e-06 
-1.004959508363e-04 2.808542309375e-05 0.0 
2.808542309375e-05 6.454212743012e-04 0.0 
0.0 0.0 -1.003583859079e-04 
-1.718759866272e-04 -2.980354167843e-05 0.0 
-2.980354167843e-05 1.157131136303e-03 0.0 
0.0 0.0 -1.719029392456e-04 
-2.011830196921e-04 -3.548902454830e-07 0.0 
-3.548902454830e-07 1.327155566075e-03 0.0 
0.0 0.0 -2.011830196921e-04 
-1.388407500422e-04 -2.884720622620e-05 0.0 
-2.884720622620e-05 9.230769586163e-04 0.0 
0.0 0.0 -1.383010158571e-04 
-1.575526722260e-04 2.955644203139e-05 0.0 
2.955644203139e-05 1.043750468826e-03 0.0 
0.0 0.0 -1.573501057445e-04 
-4.123088931291e-05 2.897558544234e-05 0.0 
2.897558544234e-05 2.287469859808e-04 0.0 
0.0 0.0 -4.076119643165e-05 
-1.813025862255e-04 9.345575993620e-07 0.0 
9.345575993620e-07 1.215376006819e-03 0.0 
0.0 0.0 -1.843023520775e-04 
-7.788490820688e-05 2.864422483209e-05 0.0 
2.864422483209e-05 4.890843703452e-04 0.0 
0.0 0.0 -7.776038389268e-05 
-7.872164132443e-05 -2.705112463858e-05 0.0 
-2.705112463858e-05 5.083022021505e-04 0.0 
0.0 0.0 -7.864394100603e-05 
-1.651857613722e-05 2.436579541672e-06 0.0 
2.436579541672e-06 9.382250948335e-05 0.0 
0.0 0.0 -1.564271892946e-05 
-2.011619417363e-04 1.902236696597e-07 0.0 
1.902236696597e-07 1.325669705516e-03 0.0 
0.0 0.0 -2.011619417363e-04 
-5.404101206327e-05 -2.775487024526e-05 0.0 
-2.775487024526e-05 3.346238881161e-04 0.0 
0.0 0.0 -5.346778118095e-05 
-1.664978969876e-04 -3.078518139598e-05 0.0 
-3.078518139598e-05 1.121532468591e-03 0.0 
0.0 0.0 -1.665752238587e-04 
-1.278730840806e-04 -3.472948115295e-05 0.0 
-3.472948115295e-05 8.520267496029e-04 0.0 
0.0 0.0 -1.283298317887e-04 
-6.603291402412e-05 -2.806322866842e-05 0.0 
-2.806322866842e-05 4.217037645698e-04 0.0 
0.0 0.0 -6.617380498945e-05 
-7.463675443451e-05 -2.871843216267e-05 0.0 
-2.871843216267e-05 4.786814676414e-04 0.0 
0.0 0.0 -7.447016153659e-05 
-1.335206736850e-04 -2.810341513530e-05 0.0 
-2.810341513530e-05 8.862841769034e-04 0.0 
0.0 0.0 -1.330061330556e-04 
-2.013389903111e-04 -2.577060081338e-06 0.0 
-2.577060081338e-06 1.328272800082e-03 0.0 
0.0 0.0 -2.013389903111e-04 
-9.595163826971e-05 2.829118562233e-05 0.0 
2.829118562233e-05 6.147361544056e-04 0.0 
0.0 0.0 -9.568302398834e-05 
-1.453761414593e-04 -3.029613600092e-05 0.0 
-3.029613600092e-05 9.724967985982e-04 0.0 
0.0 0.0 -1.454001008742e-04 
-1.206262125757e-04 2.794500349809e-05 0.0 
2.794500349809e-05 7.866369625336e-04 0.0 
0.0 0.0 -1.204619904346e-04 
-1.322723275388e-04 -2.829979880917e-05 0.0 
-2.829979880917e-05 8.816831760065e-04 0.0 
0.0 0.0 -1.321674040750e-04 
-7.980000717296e-05 -2.795628281200e-05 0.0 
-2.795628281200e-05 5.159636454028e-04 0.0 
0.0 0.0 -7.989676937832e-05 
-1.354049195082e-04 -2.966836663350e-05 0.0 
-2.966836663350e-05 9.031731980439e-04 0.0 
0.0 0.0 -1.354758998029e-04 
-1.160382141721e-04 -2.802728243222e-05 0.0 
-2.802728243222e-05 7.673309827378e-04 0.0 
0.0 0.0 -1.159419204142e-04 
-1.497221933922e-04 -2.945707781299e-05 0.0 
-2.945707781299e-05 1.002549953165e-03 0.0 
0.0 0.0 -1.497374551683e-04 
-1.506619844600e-04 2.868191767905e-05 0.0 
2.868191767905e-05 9.959081628399e-04 0.0 
0.0 0.0 -1.504701801305e-04 
-1.152928167139e-04 2.794966723813e-05 0.0 
2.794966723813e-05 7.495122634304e-04 0.0 
0.0 0.0 -1.151504190239e-04 
-9.797200402357e-05 2.936337437301e-05 0.0 
2.936337437301e-05 6.310607353231e-04 0.0 
0.0 0.0 -9.826785141749e-05 
-6.968070852175e-05 -2.743361977117e-05 0.0 
-2.743361977117e-05 4.442581749229e-04 0.0 
0.0 0.0 -6.960145924383e-05 
-9.096858632181e-05 2.865428116578e-05 0.0 
2.865428116578e-05 5.831558172230e-04 0.0 
0.0 0.0 -9.136904409386e-05 
-1.529042345816e-04 -2.854559586381e-05 0.0 
-2.854559586381e-05 1.024686749938e-03 0.0 
0.0 0.0 -1.527306194461e-04 
-1.256058487050e-04 2.811261290406e-05 0.0 
2.811261290406e-05 8.215081039068e-04 0.0 
0.0 0.0 -1.254775488864e-04 
-1.980780648734e-04 -3.935700772682e-06 0.0 
-3.935700772682e-06 1.366110574938e-03 0.0 
0.0 0.0 -1.982894430286e-04 
-1.754272809192e-04 -2.841101742405e-05 0.0 
-2.841101742405e-05 1.186882516095e-03 0.0 
0.0 0.0 -1.761487873678e-04 
-6.082182731614e-05 2.853376333875e-05 0.0 
2.853376333875e-05 3.715508262051e-04 0.0 
0.0 0.0 -6.104993218691e-05 
-2.011571007552e-04 9.171145657887e-07 0.0 
9.171145657887e-07 1.321562182738e-03 0.0 
0.0 0.0 -2.011571007552e-04 
-1.869664199368e-04 -1.057224803579e-06 0.0 
-1.057224803579e-06 1.305229682683e-03 0.0 
0.0 0.0 -1.899621165515e-04 
-1.086484700099e-04 2.782826117920e-05 0.0 
2.782826117920e-05 7.032557878447e-04 0.0 
0.0 0.0 -1.085668144712e-04 
-1.464969908307e-05 -1.429149761968e-06 0.0 
-1.429149761968e-06 4.885109050726e-05 0.0 
0.0 0.0 -1.465773918180e-05 
-1.958263237412e-04 5.780106440851e-07 0.0 
5.780106440851e-07 1.365777430136e-03 0.0 
0.0 0.0 -1.985204576056e-04 
-1.757264082716e-04 -2.517232276593e-05 0.0 
-2.517232276593e-05 1.179270301901e-03 0.0 
0.0 0.0 -1.750736792729e-04 
-6.782541782712e-05 3.019373787777e-05 0.0 
3.019373787777e-05 4.206013080560e-04 0.0 
0.0 0.0 -6.802858053956e-05 
-2.012563967287e-04 -1.966469980066e-06 0.0 
-1.966469980066e-06 1.324444202799e-03 0.0 
0.0 0.0 -2.012563967287e-04 
-1.398061958654e-04 -2.943243974614e-05 0.0 
-2.943243974614e-05 9.347188127772e-04 0.0 
0.0 0.0 -1.398839994836e-04 
-9.402070193648e-05 2.712518201061e-05 0.0 
2.712518201061e-05 5.984767473335e-04 0.0 
0.0 0.0 -9.344238907910e-05 
-1.259751156612e-04 2.590313598485e-05 0.0 
2.590313598485e-05 8.271536243356e-04 0.0 
0.0 0.0 -1.261329128710e-04 
-1.209053773198e-04 -2.958653903370e-05 0.0 
-2.958653903370e-05 8.015101038896e-04 0.0 
0.0 0.0 -1.208199794009e-04 
-1.200662961737e-04 -2.928695907517e-05 0.0 
-2.928695907517e-05 7.971639168788e-04 0.0 
0.0 0.0 -1.201302469568e-04 
-1.377407696400e-04 -2.844739825321e-05 0.0 
-2.844739825321e-05 9.201029016575e-04 0.0 
0.0 0.0 -1.377263211214e-04 
-1.455051528160e-04 -2.968427682686e-05 0.0 
-2.968427682686e-05 9.765284886093e-04 0.0 
0.0 0.0 -1.458154293005e-04 
-1.046610403714e-04 2.733139804099e-05 0.0 
2.733139804099e-05 6.730778598484e-04 0.0 
0.0 0.0 -1.041882757323e-04 
-1.560008307498e-04 2.985032891431e-05 0.0 
2.985032891431e-05 1.035131189223e-03 0.0 
0.0 0.0 -1.559113556481e-04 
-1.346325198006e-04 -3.759875847639e-06 0.0 
-3.759875847639e-06 9.030385431769e-04 0.0 
0.0 0.0 -1.325924704931e-04 
-9.742891063834e-05 -2.917049163419e-05 0.0 
-2.917049163419e-05 6.415916256564e-04 0.0 
0.0 0.0 -9.782951018876e-05 
-1.452307842680e-04 2.798410104444e-05 0.0 
2.798410104444e-05 9.572278053497e-04 0.0 
0.0 0.0 -1.449704969611e-04 
-7.715625378280e-05 -2.667442626255e-05 0.0 
-2.667442626255e-05 4.986036227452e-04 0.0 
0.0 0.0 -7.733157599954e-05 
-1.363333543933e-04 2.878191277654e-05 0.0 
2.878191277654e-05 8.968468110316e-04 0.0 
0.0 0.0 -1.364058089354e-04 
-7.777375980435e-06 -7.535368744986e-07 0.0 
-7.535368744986e-07 3.923141655039e-05 0.0 
0.0 0.0 -6.878196728934e-06 
-7.528604578945e-05 -2.595586335955e-05 0.0 
-2.595586335955e-05 4.832975377931e-04 0.0 
0.0 0.0 -7.495963205652e-05 
-7.310000528410e-05 -2.717420889967e-05 0.0 
-2.717420889967e-05 4.696905978795e-04 0.0 
0.0 0.0 -7.313647621482e-05 
-1.067255440210e-04 2.893271527878e-05 0.0 
2.893271527878e-05 6.917423590188e-04 0.0 
0.0 0.0 -1.068984364518e-04 
-1.139491260445e-04 2.826874769749e-05 0.0 
2.826874769749e-05 7.405843148328e-04 0.0 
0.0 0.0 -1.139284295517e-04 
-1.402043620025e-04 2.960631400939e-05 0.0 
2.960631400939e-05 9.251192422938e-04 0.0 
0.0 0.0 -1.402590041820e-04 
-1.335394728763e-04 -2.801522720058e-05 0.0 
-2.801522720058e-05 8.959684456723e-04 0.0 
0.0 0.0 -1.344445438287e-04 
-6.737158343628e-05 -2.804640221892e-05 0.0 
-2.804640221892e-05 4.313606597416e-04 0.0 
0.0 0.0 -6.758331304146e-05 
-2.012741767181e-04 8.821979198627e-07 0.0 
8.821979198627e-07 1.328039817999e-03 0.0 
0.0 0.0 -2.012741767181e-04 
-1.322856537807e-04 -2.842003897691e-05 0.0 
-2.842003897691e-05 8.785134865185e-04 0.0 
0.0 0.0 -1.318490365677e-04 
-1.109362290093e-04 2.909596826543e-05 0.0 
2.909596826543e-05 7.212635507904e-04 0.0 
0.0 0.0 -1.112084472091e-04 
-1.268451666326e-04 -2.799239167254e-05 0.0 
-2.799239167254e-05 8.413818391972e-04 0.0 
0.0 0.0 -1.265499305732e-04 
-1.064793262471e-04 -2.934158827982e-05 0.0 
-2.934158827982e-05 7.019469370670e-04 0.0 
0.0 0.0 -1.064793858277e-04 
0.0 0.0 0.0 
0.0 0.0 0.0 
0.0 0.0 0.0 
-1.318178097822e-04 -2.805518743843e-05 0.0 
-2.805518743843e-05 8.722935110683e-04 0.0 
0.0 0.0 -1.310031782818e-04 
-9.021933528390e-05 3.132040384158e-05 0.0 
3.132040384158e-05 5.739755637610e-04 0.0 
0.0 0.0 -8.934454493796e-05 
0.0 0.0 0.0 
0.0 0.0 0.0 
0.0 0.0 0.0 
-1.052154278640e-04 3.047955035353e-05 0.0 
3.047955035353e-05 6.816420493296e-04 0.0 
0.0 0.0 -1.056191267961e-04 
-1.502367494217e-04 2.924022123396e-05 0.0 
2.924022123396e-05 9.937951500591e-04 0.0 
0.0 0.0 -1.501881972789e-04 
-1.718775265069e-04 2.928709797380e-05 0.0 
2.928709797380e-05 1.146088071217e-03 0.0 
0.0 0.0 -1.720420237578e-04 
-1.280234877616e-04 -2.851125988754e-05 0.0 
-2.851125988754e-05 8.523441205577e-04 0.0 
0.0 0.0 -1.279840527869e-04 
-1.326450779531e-04 2.837607785170e-05 0.0 
2.837607785170e-05 8.704271803974e-04 0.0 
0.0 0.0 -1.326233994657e-04 
-1.124800331858e-04 -2.250634799779e-05 0.0 
-2.250634799779e-05 7.434000254204e-04 0.0 
0.0 0.0 -1.124284764899e-04 
-1.124934330556e-04 -1.147359770401e-06 0.0 
-1.147359770401e-06 6.878881025193e-04 0.0 
0.0 0.0 -1.096893794977e-04 
-1.889722149430e-04 -3.377914207805e-06 0.0 
-3.377914207805e-06 1.272437990102e-03 0.0 
0.0 0.0 -1.929167378009e-04 
-1.214486582279e-04 -2.834437307674e-05 0.0 
-2.834437307674e-05 8.042147269737e-04 0.0 
0.0 0.0 -1.212428182282e-04 
-3.901684544272e-06 -1.266514493921e-06 0.0 
-1.266514493921e-06 3.364292570627e-05 0.0 
0.0 0.0 -6.803381613341e-06 
-4.019702923064e-05 -2.968878104168e-05 0.0 
-2.968878104168e-05 2.317309542851e-04 0.0 
0.0 0.0 -3.854459625752e-05 
-1.433007491539e-05 -2.523139495984e-06 0.0 
-2.523139495984e-06 4.782663812836e-05 0.0 
0.0 0.0 -1.435566994842e-05 
-6.398639061022e-05 -2.382092625923e-05 0.0 
-2.382092625923e-05 4.115367021604e-04 0.0 
0.0 0.0 -6.426199848985e-05 
-1.705216486236e-04 -3.075798588999e-05 0.0 
-3.075798588999e-05 1.144180239023e-03 0.0 
0.0 0.0 -1.701784606649e-04 
-1.720848907896e-04 -2.982707765609e-05 0.0 
-2.982707765609e-05 1.154451966353e-03 0.0 
0.0 0.0 -1.716974477008e-04 
-1.636081653310e-04 2.890679068895e-05 0.0 
2.890679068895e-05 1.083797119579e-03 0.0 
0.0 0.0 -1.631141653006e-04 
-7.191278251009e-05 -2.923981126011e-05 0.0 
-2.923981126011e-05 4.644308216806e-04 0.0 
0.0 0.0 -7.241705069886e-05 
-1.359669915306e-04 -2.927541453388e-05 0.0 
-2.927541453388e-05 9.079369783679e-04 0.0 
0.0 0.0 -1.359475215862e-04 
-1.703257054035e-04 2.861689226726e-05 0.0 
2.861689226726e-05 1.140054647222e-03 0.0 
0.0 0.0 -1.713159247262e-04 
-4.183047912370e-05 -2.572604659906e-05 0.0 
-2.572604659906e-05 2.560153946945e-04 0.0 
0.0 0.0 -4.231798256975e-05 
-8.943823586418e-05 -3.364415979658e-05 0.0 
-3.364415979658e-05 5.775390913927e-04 0.0 
0.0 0.0 -8.913173311911e-05 
-7.231586338472e-05 2.908218695887e-05 0.0 
2.908218695887e-05 4.640276074048e-04 0.0 
0.0 0.0 -7.470029742937e-05 
-2.002434364986e-04 2.390306987834e-06 0.0 
2.390306987834e-06 1.365017058433e-03 0.0 
0.0 0.0 -1.983595295415e-04 
-2.012462808875e-04 -2.397130779802e-06 0.0 
-2.397130779802e-06 1.326802955155e-03 0.0 
0.0 0.0 -2.012462808875e-04 
-1.001924190894e-04 -2.543634002640e-05 0.0 
-2.543634002640e-05 6.415530807948e-04 0.0 
0.0 0.0 -9.870432074603e-05 
-1.098744198639e-04 -2.927420239507e-05 0.0 
-2.927420239507e-05 7.316606535654e-04 0.0 
0.0 0.0 -1.107837014452e-04 
-1.248013625041e-04 2.918553395126e-05 0.0 
2.918553395126e-05 8.167887655362e-04 0.0 
0.0 0.0 -1.248518557812e-04 
-1.744561955947e-04 2.668158714920e-05 0.0 
2.668158714920e-05 1.182258303691e-03 0.0 
0.0 0.0 -1.765917450224e-04 
-4.348855545644e-05 2.994300755885e-05 0.0 
2.994300755885e-05 2.445057852649e-04 0.0 
0.0 0.0 -4.320551243875e-05 
-1.652296485327e-04 2.906332229875e-05 0.0 
2.906332229875e-05 1.101447253650e-03 0.0 
0.0 0.0 -1.657061016896e-04 
-2.403565913090e-05 4.949963233040e-06 0.0 
4.949963233040e-06 1.531777656687e-04 0.0 
0.0 0.0 -2.418834757213e-05 
-1.015799043054e-04 -2.942946605237e-05 0.0 
-2.942946605237e-05 6.633561862995e-04 0.0 
0.0 0.0 -1.008698596220e-04 
-1.119529650465e-04 -2.962126233882e-05 0.0 
-2.962126233882e-05 7.407931298335e-04 0.0 
0.0 0.0 -1.120576983545e-04 
-1.459957790494e-05 2.147032025287e-06 0.0 
2.147032025287e-06 4.870772312705e-05 0.0 
0.0 0.0 -1.461777652376e-05 
-9.161840063277e-05 2.942933483065e-05 0.0 
2.942933483065e-05 6.062252670522e-04 0.0 
0.0 0.0 -9.401387724495e-05 
-1.768726332775e-04 2.584150165173e-05 0.0 
2.584150165173e-05 1.176843255176e-03 0.0 
0.0 0.0 -1.765293208453e-04 
-8.070653634049e-06 -7.127200303669e-07 0.0 
-7.127200303669e-07 3.799287171116e-05 0.0 
0.0 0.0 -6.885492893058e-06 
-1.096879873477e-04 2.043579917607e-06 0.0 
2.043579917607e-06 6.860751141181e-04 0.0 
0.0 0.0 -1.098413067258e-04 
-1.057188370874e-04 1.685883039911e-07 0.0 
1.685883039911e-07 7.271365247556e-04 0.0 
0.0 0.0 -1.069570933414e-04 
-1.432107105009e-04 -2.918049026374e-05 0.0 
-2.918049026374e-05 9.585008998201e-04 0.0 
0.0 0.0 -1.432800021710e-04 
-7.316489204152e-05 -2.863859130745e-05 0.0 
-2.863859130745e-05 4.706303893412e-04 0.0 
0.0 0.0 -7.415269660255e-05 
-7.204753212898e-05 2.972500420552e-05 0.0 
2.972500420552e-05 4.499764828814e-04 0.0 
0.0 0.0 -7.226240082359e-05 
-5.120365076624e-05 -2.544377550683e-05 0.0 
-2.544377550683e-05 3.155956943602e-04 0.0 
0.0 0.0 -5.097082111979e-05 
-1.766764062378e-04 2.618275323120e-05 0.0 
2.618275323120e-05 1.179907026535e-03 0.0 
0.0 0.0 -1.771343179597e-04 
-1.932169887683e-04 -1.186514980036e-06 0.0 
-1.186514980036e-06 1.270206526665e-03 0.0 
0.0 0.0 -1.929291577857e-04 
-1.651550878866e-04 -2.941422592351e-05 0.0 
-2.941422592351e-05 1.109208798495e-03 0.0 
0.0 0.0 -1.651633390879e-04 
-6.755242304519e-05 -2.455549728632e-05 0.0 
-2.455549728632e-05 4.248768375292e-04 0.0 
0.0 0.0 -6.685523357515e-05 
-3.212136007057e-05 3.580530001302e-05 0.0 
3.580530001302e-05 1.447902451166e-04 0.0 
0.0 0.0 -2.858747568434e-05 
-1.054343223867e-04 -2.695876520577e-05 0.0 
-2.695876520577e-05 6.907711584095e-04 0.0 
0.0 0.0 -1.049869670044e-04 
-1.082088607967e-04 -8.344784113160e-08 0.0 
-8.344784113160e-08 6.889651327617e-04 0.0 
0.0 0.0 -1.101766670879e-04 
-1.083270449213e-04 -5.188674785914e-06 0.0 
-5.188674785914e-06 7.291063979252e-04 0.0 
0.0 0.0 -1.071720332863e-04 
0.0 0.0 0.0 
0.0 0.0 0.0 
0.0 0.0 0.0 
-1.419401195472e-05 1.408697338343e-06 0.0 
1.408697338343e-06 4.733218519253e-05 0.0 
0.0 0.0 -1.420207424477e-05 
-2.834770026484e-05 -7.681243720571e-06 0.0 
-7.681243720571e-06 1.096902963104e-04 0.0 
0.0 0.0 -2.693124394472e-05 
-5.719939767419e-05 2.990659681515e-05 0.0 
2.990659681515e-05 3.452165164042e-04 0.0 
0.0 0.0 -5.731412244432e-05 
-1.720930858718e-05 3.350218996686e-07 0.0 
3.350218996686e-07 9.401005302813e-05 0.0 
0.0 0.0 -1.553541414024e-05 
-1.076654832369e-04 2.813964265791e-05 0.0 
2.813964265791e-05 6.806882370998e-04 0.0 
0.0 0.0 -1.037722331524e-04 
0.0 0.0 0.0 
0.0 0.0 0.0 
0.0 0.0 0.0 
-6.700184681606e-05 3.038711416349e-05 0.0 
3.038711416349e-05 4.144588213805e-04 0.0 
0.0 0.0 -6.723558339016e-05 
-1.422690385554e-04 8.906612131176e-06 0.0 
8.906612131176e-06 9.279461319084e-04 0.0 
0.0 0.0 -1.437384108528e-04 
-1.067106135208e-04 1.512146510798e-06 0.0 
1.512146510798e-06 7.288241095318e-04 0.0 
0.0 0.0 -1.068051661132e-04 
-1.732229403376e-04 -3.027991344990e-05 0.0 
-3.027991344990e-05 1.178111385867e-03 0.0 
0.0 0.0 -1.754224665252e-04 
-1.445452663558e-04 2.930268727359e-05 0.0 
2.930268727359e-05 9.544571665351e-04 0.0 
0.0 0.0 -1.446217387457e-04 
-1.353694455665e-04 1.174583702380e-05 0.0 
1.174583702380e-05 8.660998565929e-04 0.0 
0.0 0.0 -1.348267065705e-04 
-7.873004197628e-05 3.045040631702e-05 0.0 
3.045040631702e-05 5.029221835495e-04 0.0 
0.0 0.0 -7.904067945980e-05 
-2.336863266121e-05 -2.139897506835e-06 0.0 
-2.139897506835e-06 1.525920777976e-04 0.0 
0.0 0.0 -2.404492882983e-05 
-2.011462452073e-04 -3.115145181966e-06 0.0 
-3.115145181966e-06 1.323800969612e-03 0.0 
0.0 0.0 -2.011462452073e-04 
-1.997611016349e-04 -1.600977658656e-07 0.0 
-1.600977658656e-07 1.366080671060e-03 0.0 
0.0 0.0 -1.980443072317e-04 
-1.272448923164e-04 3.465279404623e-05 0.0 
3.465279404623e-05 8.424875497443e-04 0.0 
0.0 0.0 -1.288258176484e-04 
-1.119386170519e-04 -1.126021442298e-06 0.0 
-1.126021442298e-06 6.885955176049e-04 0.0 
0.0 0.0 -1.098911005281e-04 
-7.877315288786e-05 -1.808968119029e-05 0.0 
-1.808968119029e-05 5.143209401366e-04 0.0 
0.0 0.0 -7.971767696681e-05 
-1.985236644042e-04 -3.425616005704e-06 0.0 
-3.425616005704e-06 1.362863135910e-03 0.0 
0.0 0.0 -1.983864604134e-04 
-6.236203446175e-05 -2.877830346934e-05 0.0 
-2.877830346934e-05 3.955051293210e-04 0.0 
0.0 0.0 -6.249901059374e-05 
-1.058650871008e-04 -6.246155104236e-07 0.0 
-6.246155104236e-07 7.256170483752e-04 0.0 
0.0 0.0 -1.068842133844e-04 
-1.069697525894e-04 1.084045783815e-06 0.0 
1.084045783815e-06 6.877400680898e-04 0.0 
0.0 0.0 -1.096916328397e-04 
-1.015389602943e-04 2.700360211827e-05 0.0 
2.700360211827e-05 6.538816838809e-04 0.0 
0.0 0.0 -1.013366985113e-04 
-2.012735984050e-04 -2.798087263703e-06 0.0 
-2.798087263703e-06 1.328613650514e-03 0.0 
0.0 0.0 -2.012735984050e-04 
-1.940648784859e-04 2.411070838905e-06 0.0 
2.411070838905e-06 1.364173949612e-03 0.0 
0.0 0.0 -1.983874027871e-04 
-1.690083312634e-05 1.049773310524e-06 0.0 
1.049773310524e-06 9.202054593460e-05 0.0 
0.0 0.0 -1.553532439781e-05 
0.0 0.0 0.0 
0.0 0.0 0.0 
0.0 0.0 0.0 
-3.585533076935e-05 2.904737459937e-05 0.0 
2.904737459937e-05 1.788685704198e-04 0.0 
0.0 0.0 -3.331695100386e-05 
-1.122713198486e-04 2.937932182379e-05 0.0 
2.937932182379e-05 7.306935959273e-04 0.0 
0.0 0.0 -1.124655765398e-04 
-1.835773402027e-04 3.521607307094e-05 0.0 
3.521607307094e-05 1.234731404255e-03 0.0 
0.0 0.0 -1.837003526785e-04 
-5.776823163620e-06 -1.013741336344e-05 0.0 
-1.013741336344e-05 3.224761562078e-05 0.0 
0.0 0.0 -6.760418344035e-06 
-1.642553307267e-04 -3.202846031696e-05 0.0 
-3.202846031696e-05 1.094624480443e-03 0.0 
0.0 0.0 -1.638777942950e-04 
0.0 0.0 0.0 
0.0 0.0 0.0 
0.0 0.0 0.0 
-1.424654463444e-04 2.913249922816e-05 0.0 
2.913249922816e-05 9.390706018894e-04 0.0 
0.0 0.0 -1.423962487430e-04 
-9.432165051581e-06 1.005162211791e-06 0.0 
1.005162211791e-06 4.138276126950e-05 0.0 
0.0 0.0 -6.886565099861e-06 
-9.362857787326e-06 -3.767431995236e-06 0.0 
-3.767431995236e-06 3.953910185584e-05 0.0 
0.0 0.0 -6.922935307491e-06 
-1.370365661157e-04 2.914478147057e-05 0.0 
2.914478147057e-05 9.005660180564e-04 0.0 
0.0 0.0 -1.368385334393e-04 
-1.786566956368e-04 2.931910129804e-05 0.0 
2.931910129804e-05 1.196344419870e-03 0.0 
0.0 0.0 -1.789445754221e-04 
-1.403014539755e-04 -1.415648790463e-05 0.0 
-1.415648790463e-05 9.602064443499e-04 0.0 
0.0 0.0 -1.404190723625e-04 
-1.093898583646e-04 -2.651797813815e-05 0.0 
-2.651797813815e-05 7.193684517441e-04 0.0 
0.0 0.0 -1.090260965338e-04 
-1.456607726240e-05 -2.038157053184e-06 0.0 
-2.038157053184e-06 4.859194839432e-05 0.0 
0.0 0.0 -1.458251619940e-05 
-1.403045830740e-04 -2.944113871056e-05 0.0 
-2.944113871056e-05 9.375602710699e-04 0.0 
0.0 0.0 -1.402353347023e-04 
-2.006696725991e-04 -3.796241326952e-06 0.0 
-3.796241326952e-06 1.322105168317e-03 0.0 
0.0 0.0 -2.006696725991e-04 
-1.989054431028e-04 -2.182972558240e-05 0.0 
-2.182972558240e-05 1.362302379513e-03 0.0 
0.0 0.0 -1.983532132695e-04 
-1.068515601043e-04 1.760793152409e-06 0.0 
1.760793152409e-06 7.282983415426e-04 0.0 
0.0 0.0 -1.068864667265e-04 
-1.479030554931e-04 2.849872559925e-05 0.0 
2.849872559925e-05 9.774939211832e-04 0.0 
0.0 0.0 -1.479563560404e-04 
-2.012411575798e-04 2.034835726215e-06 0.0 
2.034835726215e-06 1.326088054461e-03 0.0 
0.0 0.0 -2.012411575798e-04 
-1.572471139556e-04 -3.123527971848e-05 0.0 
-3.123527971848e-05 1.052974899250e-03 0.0 
0.0 0.0 -1.570065405944e-04 
-2.512952758235e-05 6.164143337161e-06 0.0 
6.164143337161e-06 1.447280408939e-04 0.0 
0.0 0.0 -2.384861487001e-05 
-1.601508775722e-05 -1.437488736464e-06 0.0 
-1.437488736464e-06 9.300170481307e-05 0.0 
0.0 0.0 -1.544587960073e-05 
-1.543264015197e-05 -6.472491513265e-06 0.0 
-6.472491513265e-06 5.180474928483e-05 0.0 
0.0 0.0 -1.558804677123e-05 
-8.807433739710e-05 2.930499283462e-05 0.0 
2.930499283462e-05 5.721318599330e-04 0.0 
0.0 0.0 -8.900037232384e-05 
-2.000509150237e-04 -1.803318756068e-05 0.0 
-1.803318756068e-05 1.362940764782e-03 0.0 
0.0 0.0 -1.984242861770e-04 
-1.873647884484e-04 -3.488074856058e-05 0.0 
-3.488074856058e-05 1.273069634555e-03 0.0 
0.0 0.0 -1.887494668184e-04 
0.0 0.0 0.0 
0.0 0.0 0.0 
0.0 0.0 0.0 
-1.048455043466e-04 -2.786233972015e-05 0.0 
-2.786233972015e-05 6.764000404035e-04 0.0 
0.0 0.0 -1.040814173273e-04 
-2.017197471554e-04 8.241581226717e-07 0.0 
8.241581226717e-07 1.329062272743e-03 0.0 
0.0 0.0 -2.017197471554e-04 
-2.005984413255e-04 5.516146765968e-06 0.0 
5.516146765968e-06 1.367793765917e-03 0.0 
0.0 0.0 -1.978177876756e-04 
-1.955632613542e-04 2.146035678256e-07 0.0 
2.146035678256e-07 1.364429749039e-03 0.0 
0.0 0.0 -1.981726781329e-04 
-1.551674337257e-04 3.213659539949e-05 0.0 
3.213659539949e-05 1.026132370703e-03 0.0 
0.0 0.0 -1.540722572613e-04 
-1.676819576491e-04 -3.244106652331e-05 0.0 
-3.244106652331e-05 1.132368160945e-03 0.0 
0.0 0.0 -1.688564288694e-04 
-2.007045390215e-04 -1.045242026293e-06 0.0 
-1.045242026293e-06 1.322895647985e-03 0.0 
0.0 0.0 -2.007045390215e-04 
-2.011132486540e-04 -4.189740075221e-06 0.0 
-4.189740075221e-06 1.326334124050e-03 0.0 
0.0 0.0 -2.011132486540e-04 
-1.626580735659e-04 2.634343120663e-05 0.0 
2.634343120663e-05 1.095653417165e-03 0.0 
0.0 0.0 -1.638777942950e-04 
-3.467643311259e-06 1.128712139723e-05 0.0 
1.128712139723e-05 2.762392691705e-05 0.0 
0.0 0.0 -6.812318873104e-06 
-1.069489536729e-04 -2.288587191676e-07 0.0 
-2.288587191676e-07 7.222038744284e-04 0.0 
0.0 0.0 -1.070930873830e-04 
-1.082084560241e-04 4.524390449744e-06 0.0 
4.524390449744e-06 7.317697196541e-04 0.0 
0.0 0.0 -1.070046338016e-04 
0.0 0.0 0.0 
0.0 0.0 0.0 
0.0 0.0 0.0 
-2.013470386860e-04 1.582993778474e-06 0.0 
1.582993778474e-06 1.331092746641e-03 0.0 
0.0 0.0 -2.013470386860e-04 
-2.004992679381e-04 3.810616673029e-06 0.0 
3.810616673029e-06 1.366146148260e-03 0.0 
0.0 0.0 -1.977533921434e-04 
-2.006939626645e-04 9.733569450267e-08 0.0 
9.733569450267e-08 1.322104658797e-03 0.0 
0.0 0.0 -2.006939626645e-04 
-1.033192631121e-05 1.099005081210e-06 0.0 
1.099005081210e-06 3.989146001766e-05 0.0 
0.0 0.0 -6.874462243606e-06 
-1.053268595906e-05 1.440397429326e-06 0.0 
1.440397429326e-06 4.104748301093e-05 0.0 
0.0 0.0 -6.887055179908e-06 
-2.011132486540e-04 -1.745116755587e-07 0.0 
-1.745116755587e-07 1.324356223126e-03 0.0 
0.0 0.0 -2.011132486540e-04 
-2.010594294788e-04 -3.067167593136e-06 0.0 
-3.067167593136e-06 1.323008264150e-03 0.0 
0.0 0.0 -2.010594294788e-04 
-1.525144534316e-04 -3.469908965430e-05 0.0 
-3.469908965430e-05 9.919929974676e-04 0.0 
0.0 0.0 -1.490508918356e-04 
-1.073514247561e-04 4.761945652643e-06 0.0 
4.761945652643e-06 7.219659484264e-04 0.0 
0.0 0.0 -1.068727795842e-04 
-1.577537368329e-04 -3.403094625324e-05 0.0 
-3.403094625324e-05 1.060418053842e-03 0.0 
0.0 0.0 -1.590213654257e-04 
-1.328454241957e-04 -3.370191828823e-05 0.0 
-3.370191828823e-05 8.485398635158e-04 0.0 
0.0 0.0 -1.293991128285e-04 
-1.046169236010e-04 1.973664755836e-06 0.0 
1.973664755836e-06 7.223528969599e-04 0.0 
0.0 0.0 -1.068286901835e-04 
-4.614602936406e-06 5.445308269796e-06 0.0 
5.445308269796e-06 3.738876181996e-05 0.0 
0.0 0.0 -6.743366273123e-06 
-7.288647016025e-06 -5.605815272385e-06 0.0 
-5.605815272385e-06 4.290456148284e-05 0.0 
0.0 0.0 -6.886751345948e-06 
-4.777740867475e-06 -1.713355770572e-06 0.0 
-1.713355770572e-06 3.704418379984e-05 0.0 
0.0 0.0 -6.883523363406e-06 
-7.097131879007e-06 -1.839146356973e-06 0.0 
-1.839146356973e-06 3.989175121334e-05 0.0 
0.0 0.0 -6.834868364323e-06 
-1.111644977681e-04 3.476120600100e-05 0.0 
3.476120600100e-05 7.142233904721e-04 0.0 
0.0 0.0 -1.090698765213e-04 
-9.850854995735e-05 3.047113839014e-05 0.0 
3.047113839014e-05 6.418056074726e-04 0.0 
0.0 0.0 -9.901154080588e-05 
0.0 0.0 0.0 
0.0 0.0 0.0 
0.0 0.0 0.0 
-1.379803939868e-04 3.311278655235e-05 0.0 
3.311278655235e-05 9.246797732210e-04 0.0 
0.0 0.0 -1.383256398532e-04 
0.0 0.0 0.0 
0.0 0.0 0.0 
0.0 0.0 0.0 
-2.012207460908e-04 8.138655548155e-07 0.0 
8.138655548155e-07 1.323125614848e-03 0.0 
0.0 0.0 -2.012207460908e-04 
-2.011453028336e-04 1.874611865644e-06 0.0 
1.874611865644e-06 1.321148462492e-03 0.0 
0.0 0.0 -2.011453028336e-04 
-2.008980620244e-04 -1.010417860952e-06 0.0 
-1.010417860952e-06 1.324898106472e-03 0.0 
0.0 0.0 -2.008980620244e-04 
-3.774320917617e-05 3.566462655254e-05 0.0 
3.566462655254e-05 2.216925288799e-04 0.0 
0.0 0.0 -3.898704224316e-05 
-6.749434365589e-05 3.096998135248e-05 0.0 
3.096998135248e-05 4.319785382730e-04 0.0 
0.0 0.0 -6.911201714261e-05 
-2.005699367862e-04 -7.190292655297e-07 0.0 
-7.190292655297e-07 1.323013138076e-03 0.0 
0.0 0.0 -2.005699367862e-04 
-1.680240814146e-04 2.828255466262e-05 0.0 
2.828255466262e-05 1.134108335992e-03 0.0 
0.0 0.0 -1.687435400630e-04 
-2.016835406704e-04 -3.156370070795e-06 0.0 
-3.156370070795e-06 1.329078538970e-03 0.0 
0.0 0.0 -2.016835406704e-04 
-1.793487015674e-04 3.012936828637e-05 0.0 
3.012936828637e-05 1.204201687729e-03 0.0 
0.0 0.0 -1.788807376869e-04 
-1.896811634642e-04 3.473757623144e-05 0.0 
3.473757623144e-05 1.274809396155e-03 0.0 
0.0 0.0 -1.889858754357e-04 
-9.329662399263e-05 -3.052995434082e-05 0.0 
-3.052995434082e-05 6.062639241622e-04 0.0 
0.0 0.0 -9.401191312989e-05 
-2.000004866553e-04 -4.935042552872e-06 0.0 
-4.935042552872e-06 1.365934607507e-03 0.0 
0.0 0.0 -1.977152396198e-04 
-2.004002946706e-04 1.743259095834e-05 0.0 
1.743259095834e-05 1.363643771933e-03 0.0 
0.0 0.0 -1.982534774566e-04 
-1.735523764126e-04 -3.096544822671e-05 0.0 
-3.096544822671e-05 1.160586461079e-03 0.0 
0.0 0.0 -1.736242777500e-04 
-1.844507237627e-04 -3.076693800438e-05 0.0 
-3.076693800438e-05 1.234271765678e-03 0.0 
0.0 0.0 -1.838666131227e-04 
-1.480705946354e-04 -2.799822277007e-05 0.0 
-2.799822277007e-05 9.966603041907e-04 0.0 
0.0 0.0 -1.488773473547e-04 
0.0 0.0 0.0 
0.0 0.0 0.0 
0.0 0.0 0.0 
-9.787607230901e-05 -3.033430602603e-05 0.0 
-3.033430602603e-05 6.248974769917e-04 0.0 
0.0 0.0 -9.525361646419e-05 
-1.594166567358e-05 -3.750042762657e-06 0.0 
-3.750042762657e-06 8.963110813763e-05 0.0 
0.0 0.0 -1.545597323287e-05 
-1.766298993527e-04 -2.600424007003e-05 0.0 
-2.600424007003e-05 1.189008728009e-03 0.0 
0.0 0.0 -1.766728545426e-04 
-1.011715525641e-04 2.892404910577e-05 0.0 
2.892404910577e-05 6.528362141215e-04 0.0 
0.0 0.0 -1.013053728898e-04 
-1.643672164407e-04 2.795643146507e-05 0.0 
2.795643146507e-05 1.094563530101e-03 0.0 
0.0 0.0 -1.648525347569e-04 
-5.293095072300e-05 -2.919541751065e-05 0.0 
-2.919541751065e-05 3.265136357570e-04 0.0 
0.0 0.0 -5.257162719418e-05 
-2.326140168062e-05 1.809898427410e-05 0.0 
1.809898427410e-05 1.126266936620e-04 0.0 
0.0 0.0 -2.603928234478e-05 
-1.740902369364e-04 -2.842066329623e-05 0.0 
-2.842066329623e-05 1.173125089393e-03 0.0 
0.0 0.0 -1.742502449863e-04 
-1.033465261807e-04 -2.962592743150e-05 0.0 
-2.962592743150e-05 6.925891601377e-04 0.0 
0.0 0.0 -1.051812066754e-04 
-8.643013593859e-05 3.008982733389e-05 0.0 
3.008982733389e-05 5.377346504154e-04 0.0 
0.0 0.0 -8.417044846400e-05 
-1.640235310558e-04 -2.864236577619e-05 0.0 
-2.864236577619e-05 1.105176284391e-03 0.0 
0.0 0.0 -1.644154061664e-04 
-1.767953130454e-04 2.924397373916e-05 0.0 
2.924397373916e-05 1.186936749162e-03 0.0 
0.0 0.0 -1.783361800308e-04 
-8.342488227328e-05 -3.047437538585e-05 0.0 
-3.047437538585e-05 5.389729855638e-04 0.0 
0.0 0.0 -8.404105178381e-05 
-1.553105581953e-04 -3.047408891050e-05 0.0 
-3.047408891050e-05 1.042435393668e-03 0.0 
0.0 0.0 -1.553470185564e-04 
-1.377037381347e-04 2.897215065226e-05 0.0 
2.897215065226e-05 9.063511737441e-04 0.0 
0.0 0.0 -1.377261412248e-04 
-1.487663362168e-04 3.034863814033e-05 0.0 
3.034863814033e-05 9.863621124124e-04 0.0 
0.0 0.0 -1.492918029589e-04 
-1.536565537427e-04 2.792959174996e-05 0.0 
2.792959174996e-05 1.019186869417e-03 0.0 
0.0 0.0 -1.536336870150e-04 
-8.703976113534e-05 2.837055784379e-05 0.0 
2.837055784379e-05 5.518675504069e-04 0.0 
0.0 0.0 -8.683226689744e-05 
-1.002022259484e-04 -2.590961570230e-05 0.0 
-2.590961570230e-05 6.551468687222e-04 0.0 
0.0 0.0 -9.977007195992e-05 
-1.093881919947e-04 -2.770239582758e-05 0.0 
-2.770239582758e-05 7.220131976624e-04 0.0 
0.0 0.0 -1.093958643288e-04 
-1.406127741505e-04 2.917136878775e-05 0.0 
2.917136878775e-05 9.268398262503e-04 0.0 
0.0 0.0 -1.406784318969e-04 
-1.687115161712e-04 -3.067342872161e-05 0.0 
-3.067342872161e-05 1.136830953558e-03 0.0 
0.0 0.0 -1.687651353947e-04 
-1.585913072065e-04 2.928358840365e-05 0.0 
2.928358840365e-05 1.052859338839e-03 0.0 
0.0 0.0 -1.580633810106e-04 
-5.479081598616e-05 2.994038105978e-05 0.0 
2.994038105978e-05 3.289222848753e-04 0.0 
0.0 0.0 -5.528240989263e-05 
-1.746871843674e-04 3.283276217726e-05 0.0 
3.283276217726e-05 1.185116148222e-03 0.0 
0.0 0.0 -1.775271150753e-04 
-1.679442359996e-04 3.131022344942e-05 0.0 
3.131022344942e-05 1.115031446851e-03 0.0 
0.0 0.0 -1.675626104125e-04 
-1.221593488371e-04 3.511867114280e-05 0.0 
3.511867114280e-05 8.006612417280e-04 0.0 
0.0 0.0 -1.216572242888e-04 
-1.462466688388e-04 2.908933395677e-05 0.0 
2.908933395677e-05 9.660970915257e-04 0.0 
0.0 0.0 -1.463062179487e-04 
-1.447835164611e-04 2.956128772271e-05 0.0 
2.956128772271e-05 9.567010152770e-04 0.0 
0.0 0.0 -1.449838819924e-04 
-1.792333390310e-04 -3.168391798873e-05 0.0 
-3.168391798873e-05 1.203028324022e-03 0.0 
0.0 0.0 -1.778043281469e-04 
-1.726861877255e-04 2.779707870147e-05 0.0 
2.779707870147e-05 1.157249200719e-03 0.0 
0.0 0.0 -1.726459165900e-04 
-1.329452909279e-04 -2.927403005553e-05 0.0 
-2.927403005553e-05 8.870966851266e-04 0.0 
0.0 0.0 -1.330039573441e-04 
-1.775653267684e-04 -2.916250387629e-05 0.0 
-2.916250387629e-05 1.203364525945e-03 0.0 
0.0 0.0 -1.786308073928e-04 
-1.654805505207e-04 2.898950024976e-05 0.0 
2.898950024976e-05 1.100881704438e-03 0.0 
0.0 0.0 -1.655124361118e-04 
-1.580020696379e-04 -2.712101494930e-05 0.0 
-2.712101494930e-05 1.052848737751e-03 0.0 
0.0 0.0 -1.580622427210e-04 
-1.810952274087e-04 -3.284061138223e-05 0.0 
-3.284061138223e-05 1.222270948259e-03 0.0 
0.0 0.0 -1.815025845867e-04 
-1.775177136140e-04 -3.096279402686e-05 0.0 
-3.096279402686e-05 1.194150968252e-03 0.0 
0.0 0.0 -1.772606145979e-04 
-1.518616300347e-04 -3.096354740043e-05 0.0 
-3.096354740043e-05 1.015068895178e-03 0.0 
0.0 0.0 -1.517726872707e-04 
-1.496823891535e-04 -2.920446452269e-05 0.0 
-2.920446452269e-05 1.003862088151e-03 0.0 
0.0 0.0 -1.497848398488e-04 
-5.427687096238e-05 2.854055310501e-05 0.0 
2.854055310501e-05 3.273443379495e-04 0.0 
0.0 0.0 -5.466547164957e-05 
-5.095033440368e-05 2.883575061878e-05 0.0 
2.883575061878e-05 3.031424762161e-04 0.0 
0.0 0.0 -5.122137633347e-05 
-3.072034194903e-05 -3.506956867742e-05 0.0 
-3.506956867742e-05 1.557986335542e-04 0.0 
0.0 0.0 -2.814555096794e-05 
-1.579898709992e-05 2.384950188939e-07 0.0 
2.384950188939e-07 9.239980657952e-05 0.0 
0.0 0.0 -1.548055260559e-05 
-1.719981887166e-04 -3.054801319503e-05 0.0 
-3.054801319503e-05 1.160032239923e-03 0.0 
0.0 0.0 -1.726497055680e-04 
-1.730057153277e-04 2.894349992059e-05 0.0 
2.894349992059e-05 1.155971227885e-03 0.0 
0.0 0.0 -1.735259579760e-04 
-1.534650184937e-05 9.500651036843e-07 0.0 
9.500651036843e-07 8.883806811954e-05 0.0 
0.0 0.0 -1.543927480913e-05 
-1.729354271187e-04 -2.918916139558e-05 0.0 
-2.918916139558e-05 1.170988397774e-03 0.0 
0.0 0.0 -1.740447999656e-04 
-1.236089081148e-04 3.200079916068e-05 0.0 
3.200079916068e-05 8.273931967603e-04 0.0 
0.0 0.0 -1.265519798902e-04 
-1.594739007149e-04 -3.000529878065e-05 0.0 
-3.000529878065e-05 1.075639781327e-03 0.0 
0.0 0.0 -1.601216174199e-04 
-1.636627678593e-04 2.889886741851e-05 0.0 
2.889886741851e-05 1.086851557310e-03 0.0 
0.0 0.0 -1.635645035532e-04 
-7.625528765098e-05 2.781792169367e-05 0.0 
2.781792169367e-05 4.777485640918e-04 0.0 
0.0 0.0 -7.635943377870e-05 
-1.632628531148e-04 -2.978415075944e-05 0.0 
-2.978415075944e-05 1.096266397172e-03 0.0 
0.0 0.0 -1.631933750172e-04 
-1.207910536096e-04 -4.061404171323e-05 0.0 
-4.061404171323e-05 8.019844783726e-04 0.0 
0.0 0.0 -1.215026445147e-04 
-1.504315644849e-04 -2.965320847345e-05 0.0 
-2.965320847345e-05 1.005966507733e-03 0.0 
0.0 0.0 -1.500583224091e-04 
-1.846754410923e-04 3.352091310646e-05 0.0 
3.352091310646e-05 1.245792346023e-03 0.0 
0.0 0.0 -1.864447358774e-04 
-5.279032525833e-05 2.208619701697e-05 0.0 
2.208619701697e-05 3.133772429488e-04 0.0 
0.0 0.0 -5.313656330857e-05 
-1.831953493923e-04 -2.511536867923e-05 0.0 
-2.511536867923e-05 1.231406037521e-03 0.0 
0.0 0.0 -1.822568313532e-04 
-1.571776203955e-04 -2.822373229928e-05 0.0 
-2.822373229928e-05 1.054015413805e-03 0.0 
0.0 0.0 -1.572433088830e-04 
-5.834406746481e-05 3.055754480025e-05 0.0 
3.055754480025e-05 3.570231696703e-04 0.0 
0.0 0.0 -5.895916886618e-05 
-6.008933693805e-05 -2.693292101219e-05 0.0 
-2.693292101219e-05 3.827519316289e-04 0.0 
0.0 0.0 -6.052350288525e-05 
-1.184340009129e-04 2.989577006112e-05 0.0 
2.989577006112e-05 7.732438321287e-04 0.0 
0.0 0.0 -1.186440953039e-04 
-1.421755537841e-04 3.042033410873e-05 0.0 
3.042033410873e-05 9.320324598368e-04 0.0 
0.0 0.0 -1.411471141782e-04 
-8.083756678408e-05 2.897464216654e-05 0.0 
2.897464216654e-05 5.134881601291e-04 0.0 
0.0 0.0 -8.144657762318e-05 
-1.627359267385e-04 -3.016848544890e-05 0.0 
-3.016848544890e-05 1.091242501789e-03 0.0 
0.0 0.0 -1.627679727590e-04 
-1.463730196707e-04 -3.358422439378e-05 0.0 
-3.358422439378e-05 9.789488013624e-04 0.0 
0.0 0.0 -1.472519143444e-04 
-1.152261228612e-04 2.820263711739e-05 0.0 
2.820263711739e-05 7.517075314357e-04 0.0 
0.0 0.0 -1.155139551463e-04 
-1.539721025279e-04 -2.767350944115e-05 0.0 
-2.767350944115e-05 1.026348259349e-03 0.0 
0.0 0.0 -1.532636563680e-04 
-1.586940631686e-04 -2.997071389939e-05 0.0 
-2.997071389939e-05 1.067020467702e-03 0.0 
0.0 0.0 -1.588045401937e-04 
-1.586913358411e-04 3.263624713145e-05 0.0 
3.263624713145e-05 1.044672031080e-03 0.0 
0.0 0.0 -1.576021588438e-04 
-4.550621427776e-05 -2.757364409112e-05 0.0 
-2.757364409112e-05 2.786110438531e-04 0.0 
0.0 0.0 -4.588123838153e-05 
-1.095812830794e-04 2.804439789498e-05 0.0 
2.804439789498e-05 7.132223363853e-04 0.0 
0.0 0.0 -1.099287363951e-04 
-1.704275424327e-04 3.124314915643e-05 0.0 
3.124314915643e-05 1.141631777300e-03 0.0 
0.0 0.0 -1.711692687607e-04 
-1.617652388930e-04 -2.976223953276e-05 0.0 
-2.976223953276e-05 1.085248624266e-03 0.0 
0.0 0.0 -1.617298285672e-04 
-9.932779323652e-05 3.247070041484e-05 0.0 
3.247070041484e-05 6.407303244551e-04 0.0 
0.0 0.0 -1.000025319772e-04 
-1.372362599773e-04 -2.929140934786e-05 0.0 
-2.929140934786e-05 9.170515288159e-04 0.0 
0.0 0.0 -1.372955424611e-04 
-1.781532306591e-04 -3.038825115168e-05 0.0 
-3.038825115168e-05 1.202531523701e-03 0.0 
0.0 0.0 -1.781379491294e-04 
-1.507990336472e-04 2.853112124702e-05 0.0 
2.853112124702e-05 1.007077831849e-03 0.0 
0.0 0.0 -1.520953659658e-04 
-2.863924773083e-05 -3.201515123380e-05 0.0 
-3.201515123380e-05 1.478580457183e-04 0.0 
0.0 0.0 -2.710093308172e-05 
-2.955220796048e-05 -3.089794713249e-05 0.0 
-3.089794713249e-05 1.503888673604e-04 0.0 
0.0 0.0 -2.753304043464e-05 
-5.273989345688e-05 -2.717936029267e-05 0.0 
-2.717936029267e-05 3.233117972350e-04 0.0 
0.0 0.0 -5.201063495363e-05 
-1.693284171481e-04 3.002349955065e-05 0.0 
3.002349955065e-05 1.126502264070e-03 0.0 
0.0 0.0 -1.691756543757e-04 
-1.472485094623e-04 2.900717882423e-05 0.0 
2.900717882423e-05 9.697797839987e-04 0.0 
0.0 0.0 -1.466250473148e-04 
-1.255735830660e-04 -3.222245594843e-05 0.0 
-3.222245594843e-05 8.565507458900e-04 0.0 
0.0 0.0 -1.276957716749e-04 
-1.309605655324e-04 2.844392373699e-05 0.0 
2.844392373699e-05 8.631762486065e-04 0.0 
0.0 0.0 -1.311842221922e-04 
-1.705994579248e-04 -2.912195010466e-05 0.0 
-2.912195010466e-05 1.150350461823e-03 0.0 
0.0 0.0 -1.708795005752e-04 
-1.197229653638e-04 2.838848019244e-05 0.0 
2.838848019244e-05 7.818358523863e-04 0.0 
0.0 0.0 -1.198307167265e-04 
-1.587419479579e-04 2.931310418594e-05 0.0 
2.931310418594e-05 1.056312831607e-03 0.0 
0.0 0.0 -1.592449238259e-04 
-5.334541196780e-05 -2.737759313696e-05 0.0 
-2.737759313696e-05 3.380073693947e-04 0.0 
0.0 0.0 -5.422683465997e-05 
-1.820085836177e-04 3.596926237720e-05 0.0 
3.596926237720e-05 1.220521251632e-03 0.0 
0.0 0.0 -1.817296696507e-04 
-1.149006963939e-04 -2.979806393901e-05 0.0 
-2.979806393901e-05 7.621150101384e-04 0.0 
0.0 0.0 -1.150969102169e-04 
-5.891651114318e-05 -2.911512363173e-05 0.0 
-2.911512363173e-05 3.703729731158e-04 0.0 
0.0 0.0 -5.833749487792e-05 
-1.097144826368e-04 -3.210843000057e-05 0.0 
-3.210843000057e-05 7.218042111898e-04 0.0 
0.0 0.0 -1.096669806773e-04 
-8.504854609334e-05 2.789969650457e-05 0.0 
2.789969650457e-05 5.434275787344e-04 0.0 
0.0 0.0 -8.575010502696e-05 
-6.662869610533e-05 -2.920394233023e-05 0.0 
-2.920394233023e-05 4.253303798385e-04 0.0 
0.0 0.0 -6.679150530213e-05 
-1.281203035701e-04 2.817302591064e-05 0.0 
2.817302591064e-05 8.398276961004e-04 0.0 
0.0 0.0 -1.284742647491e-04 
0.0 0.0 0.0 
0.0 0.0 0.0 
0.0 0.0 0.0 
0.0 0.0 0.0 
0.0 0.0 0.0 
0.0 0.0 0.0 
-1.445088964832e-04 -2.893688476098e-05 0.0 
-2.893688476098e-05 9.674073108634e-04 0.0 
0.0 0.0 -1.445400849015e-04 
-4.892423638284e-05 -2.632452238192e-05 0.0 
-2.632452238192e-05 3.096365629157e-04 0.0 
0.0 0.0 -5.004674077938e-05 
-1.457493822096e-04 -2.962474104525e-05 0.0 
-2.962474104525e-05 9.767716228798e-04 0.0 
0.0 0.0 -1.458658349781e-04 
-1.415183033580e-04 -2.921664079038e-05 0.0 
-2.921664079038e-05 9.471227879207e-04 0.0 
0.0 0.0 -1.415771022166e-04 
-9.224355795817e-05 2.937565561905e-05 0.0 
2.937565561905e-05 5.919004124542e-04 0.0 
0.0 0.0 -9.266636470267e-05 
-6.202111907479e-05 2.972814442546e-05 0.0 
2.972814442546e-05 3.814986374049e-04 0.0 
0.0 0.0 -6.243334508123e-05 
-1.705073254263e-04 -3.058386286971e-05 0.0 
-3.058386286971e-05 1.147565254188e-03 0.0 
0.0 0.0 -1.706579733040e-04 
-3.233825504350e-05 -1.324403429526e-05 0.0 
-1.324403429526e-05 1.436007537479e-04 0.0 
0.0 0.0 -3.071301381923e-05 
-9.032577727252e-05 2.603440625466e-05 0.0 
2.603440625466e-05 5.755517471348e-04 0.0 
0.0 0.0 -9.007223908940e-05 
-1.758201471036e-04 -2.496828995894e-05 0.0 
-2.496828995894e-05 1.183557369344e-03 0.0 
0.0 0.0 -1.763300484694e-04 
-4.234236352950e-05 2.833023666619e-05 0.0 
2.833023666619e-05 2.526301394403e-04 0.0 
0.0 0.0 -4.466356309917e-05 
-1.370406890181e-04 -2.882178052615e-05 0.0 
-2.882178052615e-05 9.084977336144e-04 0.0 
0.0 0.0 -1.363328868096e-04 
-1.251017907088e-04 -3.342170659080e-05 0.0 
-3.342170659080e-05 8.360831923250e-04 0.0 
0.0 0.0 -1.262442940543e-04 
-4.243995648314e-05 -2.885964126201e-05 0.0 
-2.885964126201e-05 2.574366796815e-04 0.0 
0.0 0.0 -4.263591946142e-05 
-1.739889600423e-04 -2.690839563986e-05 0.0 
-2.690839563986e-05 1.171323703451e-03 0.0 
0.0 0.0 -1.738083055154e-04 
-1.553384911707e-04 -2.978982874275e-05 0.0 
-2.978982874275e-05 1.040098894659e-03 0.0 
0.0 0.0 -1.552347842588e-04 
-5.039241409165e-05 2.679614467153e-05 0.0 
2.679614467153e-05 2.983848210045e-04 0.0 
0.0 0.0 -5.046983505462e-05 
-1.747728255798e-04 -2.774380167709e-05 0.0 
-2.774380167709e-05 1.177437247902e-03 0.0 
0.0 0.0 -1.749780669508e-04 
-1.757727651253e-04 2.551606084145e-05 0.0 
2.551606084145e-05 1.168074540028e-03 0.0 
0.0 0.0 -1.753502448874e-04 
-5.505726652839e-05 -3.093038002705e-05 0.0 
-3.093038002705e-05 3.465532391474e-04 0.0 
0.0 0.0 -5.552857102027e-05 
-7.317029843834e-05 -3.194987778490e-05 0.0 
-3.194987778490e-05 4.614269377597e-04 0.0 
0.0 0.0 -7.202002872087e-05 
-5.677279645057e-05 -2.927873741732e-05 0.0 
-2.927873741732e-05 3.560995133108e-04 0.0 
0.0 0.0 -5.686660089389e-05 
-1.535151853389e-04 -2.933036748660e-05 0.0 
-2.933036748660e-05 1.036192859014e-03 0.0 
0.0 0.0 -1.544885262514e-04 
-1.242530601195e-04 2.861329611066e-05 0.0 
2.861329611066e-05 8.120316343009e-04 0.0 
0.0 0.0 -1.241455235793e-04 
-1.762597939278e-04 2.757012001528e-05 0.0 
2.757012001528e-05 1.169740478878e-03 0.0 
0.0 0.0 -1.754294197466e-04 
-1.711850229745e-04 2.864038460658e-05 0.0 
2.864038460658e-05 1.139237277346e-03 0.0 
0.0 0.0 -1.710046063662e-04 
-1.497953027623e-04 -2.952090845357e-05 0.0 
-2.952090845357e-05 1.006551656477e-03 0.0 
0.0 0.0 -1.501751650533e-04 
-1.503962620125e-04 2.908649725408e-05 0.0 
2.908649725408e-05 9.959224082837e-04 0.0 
0.0 0.0 -1.506140208444e-04 
-4.755962799573e-05 2.961725835591e-05 0.0 
2.961725835591e-05 2.764290125414e-04 0.0 
0.0 0.0 -4.738039998630e-05 
-1.544053010064e-04 2.921080048960e-05 0.0 
2.921080048960e-05 1.025561320549e-03 0.0 
0.0 0.0 -1.549280912548e-04 
-1.557486119605e-04 2.953656624643e-05 0.0 
2.953656624643e-05 1.031918401575e-03 0.0 
0.0 0.0 -1.555717122721e-04 
-1.233043498576e-04 -2.852184502998e-05 0.0 
-2.852184502998e-05 8.222615261922e-04 0.0 
0.0 0.0 -1.237306916726e-04 
-1.467661945651e-04 -2.993950527874e-05 0.0 
-2.993950527874e-05 9.778837446955e-04 0.0 
0.0 0.0 -1.462911275235e-04 
-1.606564974618e-04 -3.021309399430e-05 0.0 
-3.021309399430e-05 1.078198516753e-03 0.0 
0.0 0.0 -1.607123627396e-04 
-1.117498861518e-04 2.850262572474e-05 0.0 
2.850262572474e-05 7.245894762642e-04 0.0 
0.0 0.0 -1.115305788895e-04 
-1.668451985095e-04 2.929977478704e-05 0.0 
2.929977478704e-05 1.108305524184e-03 0.0 
0.0 0.0 -1.665387401245e-04 
-1.057225299962e-04 3.155313044250e-05 0.0 
3.155313044250e-05 6.826770249726e-04 0.0 
0.0 0.0 -1.044775758143e-04 
-1.196746585436e-04 -2.994940432812e-05 0.0 
-2.994940432812e-05 7.923200024953e-04 0.0 
0.0 0.0 -1.194095964715e-04 
-8.002674295402e-05 3.358846946639e-05 0.0 
3.358846946639e-05 5.079680145232e-04 0.0 
0.0 0.0 -8.013437995356e-05 
-8.330364669840e-05 -2.724402051282e-05 0.0 
-2.724402051282e-05 5.442521817240e-04 0.0 
0.0 0.0 -8.372375584921e-05 
-1.515465133375e-04 2.950843049766e-05 0.0 
2.950843049766e-05 1.000906494757e-03 0.0 
0.0 0.0 -1.511009726023e-04 
-1.144286686682e-04 -2.867408820424e-05 0.0 
-2.867408820424e-05 7.585750249113e-04 0.0 
0.0 0.0 -1.145674989690e-04 
-6.084802831260e-05 -2.991902315111e-05 0.0 
-2.991902315111e-05 3.860715331104e-04 0.0 
0.0 0.0 -6.116241410045e-05 
-3.353257843682e-05 -2.498074177198e-05 0.0 
-2.498074177198e-05 1.896944408225e-04 0.0 
0.0 0.0 -3.278510925449e-05 
-1.508054349256e-04 -2.953924267332e-05 0.0 
-2.953924267332e-05 1.009022901988e-03 0.0 
0.0 0.0 -1.507672500721e-04 
-6.144560576959e-05 2.946678310881e-05 0.0 
2.946678310881e-05 3.752423857179e-04 0.0 
0.0 0.0 -6.160741095528e-05 
-1.795193782850e-04 3.015966066455e-05 0.0 
3.015966066455e-05 1.220916437867e-03 0.0 
0.0 0.0 -1.828075300492e-04 
-1.564210717973e-04 2.928181705796e-05 0.0 
2.928181705796e-05 1.038697099430e-03 0.0 
0.0 0.0 -1.565825172896e-04 
-1.601803915316e-04 2.879046078541e-05 0.0 
2.879046078541e-05 1.065098279090e-03 0.0 
0.0 0.0 -1.605560195386e-04 
-1.924510169718e-04 -3.681008615861e-06 0.0 
-3.681008615861e-06 1.266195614385e-03 0.0 
0.0 0.0 -1.927094427628e-04 
-9.917312679716e-05 -3.248065919378e-05 0.0 
-3.248065919378e-05 6.537270345769e-04 0.0 
0.0 0.0 -9.956065683389e-05 
-5.578848237072e-05 2.919143814272e-05 0.0 
2.919143814272e-05 3.356753976095e-04 0.0 
0.0 0.0 -5.597427817213e-05 
-3.764707681470e-05 3.152158318827e-05 0.0 
3.152158318827e-05 2.055269805242e-04 0.0 
0.0 0.0 -3.744316153082e-05 
-1.513908916278e-04 -2.965358922743e-05 0.0 
-2.965358922743e-05 1.015985434205e-03 0.0 
0.0 0.0 -1.514863114221e-04 
-1.425433722621e-04 3.012022841548e-05 0.0 
3.012022841548e-05 9.394937491690e-04 0.0 
0.0 0.0 -1.421023406183e-04 
-2.681800511095e-05 2.581926760662e-05 0.0 
2.581926760662e-05 1.385235032261e-04 0.0 
0.0 0.0 -2.788272662613e-05 
-7.959731755198e-05 -2.970357934053e-05 0.0 
-2.970357934053e-05 5.241419312225e-04 0.0 
0.0 0.0 -8.100711145360e-05 
-4.597324572621e-05 -2.624539862290e-05 0.0 
-2.624539862290e-05 3.001894932538e-04 0.0 
0.0 0.0 -4.869105516194e-05 
-1.408940546525e-04 -2.794056746742e-05 0.0 
-2.794056746742e-05 9.400214273018e-04 0.0 
0.0 0.0 -1.408175133641e-04 
-8.220239972126e-05 -3.150539897154e-05 0.0 
-3.150539897154e-05 5.540054204137e-04 0.0 
0.0 0.0 -8.531818138572e-05 
-1.420072539078e-04 2.886098902268e-05 0.0 
2.886098902268e-05 9.363360353424e-04 0.0 
0.0 0.0 -1.420190347897e-04 
-8.142682941929e-05 -3.127687653374e-05 0.0 
-3.127687653374e-05 5.123505803199e-04 0.0 
0.0 0.0 -8.006333120906e-05 
-1.676020446456e-04 -3.106665135098e-05 0.0 
-3.106665135098e-05 1.123875757488e-03 0.0 
0.0 0.0 -1.672214290798e-04 
-7.117572739314e-05 2.988293947474e-05 0.0 
2.988293947474e-05 4.447820599446e-04 0.0 
0.0 0.0 -7.152995986871e-05 
-1.528626195223e-04 -2.956851905674e-05 0.0 
-2.956851905674e-05 1.025224946446e-03 0.0 
0.0 0.0 -1.527886262531e-04 
-5.059375724921e-05 -2.868524116335e-05 0.0 
-2.868524116335e-05 3.156970290875e-04 0.0 
0.0 0.0 -5.064650353833e-05 
-1.471629417592e-04 -2.959313709753e-05 0.0 
-2.959313709753e-05 9.860061145689e-04 0.0 
0.0 0.0 -1.471833001180e-04 
-1.144539418112e-04 -2.473861065929e-05 0.0 
-2.473861065929e-05 7.560825404925e-04 0.0 
0.0 0.0 -1.140633649831e-04 
-1.560905633689e-04 2.900023350889e-05 0.0 
2.900023350889e-05 1.035339225371e-03 0.0 
0.0 0.0 -1.562332567718e-04 
-8.041016399686e-05 2.814724334195e-05 0.0 
2.814724334195e-05 5.070504478833e-04 0.0 
0.0 0.0 -8.025424390503e-05 
-4.885024697967e-05 3.157288993858e-05 0.0 
3.157288993858e-05 2.863708627365e-04 0.0 
0.0 0.0 -4.915965252508e-05 
-1.306396509784e-04 -2.896286188210e-05 0.0 
-2.896286188210e-05 8.760759259617e-04 0.0 
0.0 0.0 -1.318090263425e-04 
-1.421840376928e-04 -2.883026291404e-05 0.0 
-2.883026291404e-05 9.494244979280e-04 0.0 
0.0 0.0 -1.419644564515e-04 
-1.018318441446e-04 2.874180221663e-05 0.0 
2.874180221663e-05 6.553763140814e-04 0.0 
0.0 0.0 -1.016412246321e-04 
-1.420263861118e-04 -3.127951009604e-05 0.0 
-3.127951009604e-05 9.447561927313e-04 0.0 
0.0 0.0 -1.417981522837e-04 
-5.634120637729e-05 -2.901059335072e-05 0.0 
-2.901059335072e-05 3.528621573190e-04 0.0 
0.0 0.0 -5.638371198943e-05 
-1.449671090102e-04 2.903465807275e-05 0.0 
2.903465807275e-05 9.569114950414e-04 0.0 
0.0 0.0 -1.446420687869e-04 
-4.539864356175e-05 -2.892446416447e-05 0.0 
-2.892446416447e-05 2.698402511523e-04 0.0 
0.0 0.0 -4.421511183446e-05 
-1.729769140722e-04 -3.077324556460e-05 0.0 
-3.077324556460e-05 1.164178924141e-03 0.0 
0.0 0.0 -1.725604168134e-04 
-1.475790650913e-04 -2.860800824990e-05 0.0 
-2.860800824990e-05 9.878754875081e-04 0.0 
0.0 0.0 -1.475206686141e-04 
-1.559172333653e-04 -2.909982133967e-05 0.0 
-2.909982133967e-05 1.044176401684e-03 0.0 
0.0 0.0 -1.555576518016e-04 
-1.814415509393e-04 -3.096082582331e-05 0.0 
-3.096082582331e-05 1.219536896500e-03 0.0 
0.0 0.0 -1.806695418618e-04 
-1.243391768637e-04 -2.906810919430e-05 0.0 
-2.906810919430e-05 8.271957787415e-04 0.0 
0.0 0.0 -1.244215412621e-04 
-4.664731672080e-05 2.860386537301e-05 0.0 
2.860386537301e-05 2.677194554706e-04 0.0 
0.0 0.0 -4.622233884158e-05 
-1.385662832492e-04 -2.918174486768e-05 0.0 
-2.918174486768e-05 9.260656173097e-04 0.0 
0.0 0.0 -1.385923280275e-04 
-1.786563386237e-04 3.101548389749e-05 0.0 
3.101548389749e-05 1.192786428697e-03 0.0 
0.0 0.0 -1.784944650888e-04 
-7.162593897649e-05 -2.768839620490e-05 0.0 
-2.768839620490e-05 4.607586366936e-04 0.0 
0.0 0.0 -7.179147874927e-05 
-1.555062997913e-04 -2.993363634807e-05 0.0 
-2.993363634807e-05 1.045876444410e-03 0.0 
0.0 0.0 -1.558013491646e-04 
-1.563360137049e-04 -3.042238300922e-05 0.0 
-3.042238300922e-05 1.046916559821e-03 0.0 
0.0 0.0 -1.562447224125e-04 
-5.757013598642e-05 2.991181572022e-05 0.0 
2.991181572022e-05 3.517212459558e-04 0.0 
0.0 0.0 -5.821047451129e-05 
-1.428729262720e-04 -2.942561466243e-05 0.0 
-2.942561466243e-05 9.560791547854e-04 0.0 
0.0 0.0 -1.428864875989e-04 
-1.287965022508e-04 -2.896617927485e-05 0.0 
-2.896617927485e-05 8.622522049021e-04 0.0 
0.0 0.0 -1.299469088572e-04 
-6.374853467835e-05 -2.810218119480e-05 0.0 
-2.810218119480e-05 4.066202706617e-04 0.0 
0.0 0.0 -6.420979177598e-05 
-7.595105816060e-05 -2.936393149418e-05 0.0 
-2.936393149418e-05 4.942830544211e-04 0.0 
0.0 0.0 -7.670872189436e-05 
-1.201712666697e-04 -2.803941660002e-05 0.0 
-2.803941660002e-05 7.961944137223e-04 0.0 
0.0 0.0 -1.200650238334e-04 
-1.519360189963e-04 2.891732000513e-05 0.0 
2.891732000513e-05 1.005387589283e-03 0.0 
0.0 0.0 -1.519214610183e-04 
-9.356553445047e-05 -2.682931258762e-05 0.0 
-2.682931258762e-05 6.080636784229e-04 0.0 
0.0 0.0 -9.302852286394e-05 
-1.148225546297e-04 -2.766542218562e-05 0.0 
-2.766542218562e-05 7.592972424786e-04 0.0 
0.0 0.0 -1.147482613702e-04 
-1.503198881368e-04 2.949228603565e-05 0.0 
2.949228603565e-05 9.943051761167e-04 0.0 
0.0 0.0 -1.501005480629e-04 
-1.374005660342e-04 3.157606201505e-05 0.0 
3.157606201505e-05 9.005540063851e-04 0.0 
0.0 0.0 -1.366500051239e-04 
-1.347749466574e-04 2.885807283713e-05 0.0 
2.885807283713e-05 8.878066807984e-04 0.0 
0.0 0.0 -1.347600488312e-04 
-1.145362197550e-04 2.550352213040e-05 0.0 
2.550352213040e-05 7.456789542705e-04 0.0 
0.0 0.0 -1.144140342440e-04 
-1.695537970541e-04 -2.847502421030e-05 0.0 
-2.847502421030e-05 1.141434530816e-03 0.0 
0.0 0.0 -1.695946584253e-04 
-1.342454359541e-04 -2.916302751234e-05 0.0 
-2.916302751234e-05 8.959753783056e-04 0.0 
0.0 0.0 -1.342994322642e-04 
-1.322842234433e-04 -2.713149803653e-05 0.0 
-2.713149803653e-05 8.716283599231e-04 0.0 
0.0 0.0 -1.308078780678e-04 
-1.770483125758e-04 -3.816029544209e-05 0.0 
-3.816029544209e-05 1.206702644282e-03 0.0 
0.0 0.0 -1.790376217081e-04 
-1.611476114444e-04 -3.043480837471e-05 0.0 
-3.043480837471e-05 1.081441463167e-03 0.0 
0.0 0.0 -1.610150566254e-04 
-1.476770815163e-04 2.899987339716e-05 0.0 
2.899987339716e-05 9.753794939162e-04 0.0 
0.0 0.0 -1.476201541636e-04 
-1.611330782201e-04 2.905567155013e-05 0.0 
2.905567155013e-05 1.069983027336e-03 0.0 
0.0 0.0 -1.610516503497e-04 
-8.740593351110e-05 -2.912313751195e-05 0.0 
-2.912313751195e-05 5.726625862703e-04 0.0 
0.0 0.0 -8.793939796372e-05 
-8.171492670432e-05 -2.932902119484e-05 0.0 
-2.932902119484e-05 5.334328304052e-04 0.0 
0.0 0.0 -8.232547559154e-05 
-4.800447364230e-05 -3.012015532788e-05 0.0 
-3.012015532788e-05 2.869100395093e-04 0.0 
0.0 0.0 -4.696026287600e-05 
-1.441554214945e-04 -2.906909676708e-05 0.0 
-2.906909676708e-05 9.649388349351e-04 0.0 
0.0 0.0 -1.441889713514e-04 
-8.596373130116e-05 -2.989926546104e-05 0.0 
-2.989926546104e-05 5.634483412629e-04 0.0 
0.0 0.0 -8.662504503560e-05 
-1.451435112077e-04 -2.967645824646e-05 0.0 
-2.967645824646e-05 9.706064754812e-04 0.0 
0.0 0.0 -1.452980301833e-04 
-1.396166376490e-04 -3.014351176356e-05 0.0 
-3.014351176356e-05 9.327092269117e-04 0.0 
0.0 0.0 -1.398369520768e-04 
-1.154194635136e-04 -2.909513876125e-05 0.0 
-2.909513876125e-05 7.637657077962e-04 0.0 
0.0 0.0 -1.153554527486e-04 
-7.239252784308e-05 2.950013499781e-05 0.0 
2.950013499781e-05 4.534037638191e-04 0.0 
0.0 0.0 -7.290299529228e-05 
-7.749228313482e-05 2.843063642712e-05 0.0 
2.843063642712e-05 4.849158394470e-04 0.0 
0.0 0.0 -7.722881688633e-05 
-7.663260260600e-05 2.940565300322e-05 0.0 
2.940565300322e-05 4.835296870814e-04 0.0 
0.0 0.0 -7.715173463647e-05 
-8.222724475915e-05 2.943935483783e-05 0.0 
2.943935483783e-05 5.226854242882e-04 0.0 
0.0 0.0 -8.276944949314e-05 
-5.179916544049e-05 2.954513306229e-05 0.0 
2.954513306229e-05 3.061348363473e-04 0.0 
0.0 0.0 -5.170396853346e-05 
-1.651578227306e-04 -2.992587384468e-05 0.0 
-2.992587384468e-05 1.111733425696e-03 0.0 
0.0 0.0 -1.652773843454e-04 
-9.948855107052e-05 2.885367954846e-05 0.0 
2.885367954846e-05 6.405116978971e-04 0.0 
0.0 0.0 -9.964436741213e-05 
-1.662477458002e-04 -3.047676524263e-05 0.0 
-3.047676524263e-05 1.116582984939e-03 0.0 
0.0 0.0 -1.661983567841e-04 
-1.051663505476e-04 2.891924803497e-05 0.0 
2.891924803497e-05 6.798882607135e-04 0.0 
0.0 0.0 -1.051955911267e-04 
-1.389859752123e-04 2.935926346480e-05 0.0 
2.935926346480e-05 9.155140148814e-04 0.0 
0.0 0.0 -1.390270654409e-04 
-1.191970428493e-04 2.933621105808e-05 0.0 
2.933621105808e-05 7.778286910325e-04 0.0 
0.0 0.0 -1.192747742027e-04 
-1.135913502195e-04 -2.809027510556e-05 0.0 
-2.809027510556e-05 7.506742469309e-04 0.0 
0.0 0.0 -1.135115339107e-04 
-5.106044890974e-05 -2.876916180737e-05 0.0 
-2.876916180737e-05 3.172111510085e-04 0.0 
0.0 0.0 -5.125664266653e-05 
-1.752549930891e-04 2.732480278546e-05 0.0 
2.732480278546e-05 1.160084193771e-03 0.0 
0.0 0.0 -1.742537888328e-04 
-1.812425183446e-04 -3.207933204969e-05 0.0 
-3.207933204969e-05 1.217777268391e-03 0.0 
0.0 0.0 -1.798074479024e-04 
-1.447184212035e-04 2.760935291747e-05 0.0 
2.760935291747e-05 9.561038377489e-04 0.0 
0.0 0.0 -1.447555322295e-04 
-8.799170026550e-05 2.995591967052e-05 0.0 
2.995591967052e-05 5.618551981543e-04 0.0 
0.0 0.0 -8.838578500301e-05 
-1.291031073422e-04 2.928905617391e-05 0.0 
2.928905617391e-05 8.466471064723e-04 0.0 
0.0 0.0 -1.291430278065e-04 
-1.459743152275e-04 3.063361272201e-05 0.0 
3.063361272201e-05 9.624952180302e-04 0.0 
0.0 0.0 -1.456278041792e-04 
-9.171757827104e-05 -2.955677248983e-05 0.0 
-2.955677248983e-05 6.024985060915e-04 0.0 
0.0 0.0 -9.223187090242e-05 
-9.603230277326e-05 -2.698956011667e-05 0.0 
-2.698956011667e-05 6.292701278524e-04 0.0 
0.0 0.0 -9.591352384746e-05 
-7.135185944171e-05 -2.955414223554e-05 0.0 
-2.955414223554e-05 4.555824851191e-04 0.0 
0.0 0.0 -7.108646760088e-05 
-6.173474433371e-05 -2.821557394065e-05 0.0 
-2.821557394065e-05 3.922513376835e-04 0.0 
0.0 0.0 -6.198456146935e-05 
-9.316424430426e-05 -2.882780269440e-05 0.0 
-2.882780269440e-05 6.119471839096e-04 0.0 
0.0 0.0 -9.355109297069e-05 
-6.583505479960e-05 2.848905537375e-05 0.0 
2.848905537375e-05 4.054485477537e-04 0.0 
0.0 0.0 -6.590301617946e-05 
-5.935575914896e-05 -3.007558356553e-05 0.0 
-3.007558356553e-05 3.768942854085e-04 0.0 
0.0 0.0 -5.983332410254e-05 
-1.186940583282e-04 -2.896555378225e-05 0.0 
-2.896555378225e-05 7.883535485114e-04 0.0 
0.0 0.0 -1.188421469351e-04 
-1.433278607698e-04 2.930912982368e-05 0.0 
2.930912982368e-05 9.454702771552e-04 0.0 
0.0 0.0 -1.433226991522e-04 
-1.697903046334e-04 2.624054691426e-05 0.0 
2.624054691426e-05 1.127471310275e-03 0.0 
0.0 0.0 -1.692916167909e-04 
-1.151638097456e-05 7.698944133971e-06 0.0 
7.698944133971e-06 4.425408472007e-05 0.0 
0.0 0.0 -7.213325994108e-06 
-1.023191081859e-04 2.827729942445e-05 0.0 
2.827729942445e-05 6.591938883861e-04 0.0 
0.0 0.0 -1.022830222654e-04 
-1.009919753862e-04 2.844629819877e-05 0.0 
2.844629819877e-05 6.501505763727e-04 0.0 
0.0 0.0 -1.009864671718e-04 
-9.380039017869e-05 2.950262979894e-05 0.0 
2.950262979894e-05 6.011532312502e-04 0.0 
0.0 0.0 -9.402143779290e-05 
-1.401352914634e-04 2.989136649985e-05 0.0 
2.989136649985e-05 9.247108301771e-04 0.0 
0.0 0.0 -1.401624631175e-04 
-1.092974960508e-04 2.941276833440e-05 0.0 
2.941276833440e-05 7.090642486070e-04 0.0 
0.0 0.0 -1.094316366672e-04 
-7.543451708232e-05 3.049036373989e-05 0.0 
3.049036373989e-05 4.754198894243e-04 0.0 
0.0 0.0 -7.582576345695e-05 
-9.891173193058e-05 -2.816068551534e-05 0.0 
-2.816068551534e-05 6.514539666403e-04 0.0 
0.0 0.0 -9.917482013514e-05 
-1.630278650561e-04 2.958590404027e-05 0.0 
2.958590404027e-05 1.077076320853e-03 0.0 
0.0 0.0 -1.620679414655e-04 
-7.702359286568e-05 -2.963111287796e-05 0.0 
-2.963111287796e-05 4.862675717220e-04 0.0 
0.0 0.0 -7.538495559814e-05 
-3.103148260616e-05 2.671216949097e-05 0.0 
2.671216949097e-05 1.654737900210e-04 0.0 
0.0 0.0 -3.198827131509e-05 
-4.232169889993e-05 2.776421737267e-05 0.0 
2.776421737267e-05 2.393069009664e-04 0.0 
0.0 0.0 -4.176863060321e-05 
-6.634744212772e-05 2.949925572575e-05 0.0 
2.949925572575e-05 4.106962890164e-04 0.0 
0.0 0.0 -6.666360735527e-05 
-7.816150117384e-05 2.918629348564e-05 0.0 
2.918629348564e-05 4.928270898341e-04 0.0 
0.0 0.0 -7.858957244827e-05 
-1.065476951188e-04 2.906412835157e-05 0.0 
2.906412835157e-05 6.891124057052e-04 0.0 
0.0 0.0 -1.064874080537e-04 
-1.046128651473e-04 -2.789283442515e-05 0.0 
-2.789283442515e-05 6.906263249349e-04 0.0 
0.0 0.0 -1.047611508630e-04 
-4.666634849019e-05 -3.250127183419e-05 0.0 
-3.250127183419e-05 2.826590938430e-04 0.0 
0.0 0.0 -4.639139346366e-05 
-4.422650169735e-05 -3.160442122719e-05 0.0 
-3.160442122719e-05 2.477476152980e-04 0.0 
0.0 0.0 -4.147803243573e-05 
-1.354421094691e-04 -3.477058406277e-05 0.0 
-3.477058406277e-05 8.849155839961e-04 0.0 
0.0 0.0 -1.332761831430e-04 
-6.529992034190e-05 -3.112094005781e-05 0.0 
-3.112094005781e-05 4.161966199991e-04 0.0 
0.0 0.0 -6.545963842888e-05 
-1.599173792757e-04 2.884984773938e-05 0.0 
2.884984773938e-05 1.062308732050e-03 0.0 
0.0 0.0 -1.601101668940e-04 
-1.640145792258e-04 2.789294437519e-05 0.0 
2.789294437519e-05 1.089847340667e-03 0.0 
0.0 0.0 -1.640071129216e-04 
-1.358364218526e-04 -2.864773194701e-05 0.0 
-2.864773194701e-05 9.015663085663e-04 0.0 
0.0 0.0 -1.352075507658e-04 
-1.691090522456e-04 2.845331053896e-05 0.0 
2.845331053896e-05 1.125515006597e-03 0.0 
0.0 0.0 -1.689126476464e-04 
-1.733194685301e-04 2.616049938131e-05 0.0 
2.616049938131e-05 1.162751062090e-03 0.0 
0.0 0.0 -1.746466296582e-04 
-1.113103175969e-04 -2.904492495481e-05 0.0 
-2.904492495481e-05 7.344679781971e-04 0.0 
0.0 0.0 -1.111327575513e-04 
-1.543419338426e-04 2.788856242459e-05 0.0 
2.788856242459e-05 1.022661884889e-03 0.0 
0.0 0.0 -1.543563508806e-04 
-5.167148472389e-05 -2.833543670219e-05 0.0 
-2.833543670219e-05 3.235982211277e-04 0.0 
0.0 0.0 -5.212100276158e-05 
-1.031213424207e-04 -2.889239140152e-05 0.0 
-2.889239140152e-05 6.806580574394e-04 0.0 
0.0 0.0 -1.034186014727e-04 
-1.034709279330e-04 2.786266615920e-05 0.0 
2.786266615920e-05 6.660582760632e-04 0.0 
0.0 0.0 -1.031952205665e-04 
-6.028919658758e-05 2.668092513971e-05 0.0 
2.668092513971e-05 3.649654199911e-04 0.0 
0.0 0.0 -5.961607156176e-05 
-4.213494566204e-05 -2.931849266110e-05 0.0 
-2.931849266110e-05 2.567319807664e-04 0.0 
0.0 0.0 -4.220635737303e-05 
-8.654776667845e-05 2.918952194239e-05 0.0 
2.918952194239e-05 5.528325958387e-04 0.0 
0.0 0.0 -8.706093026186e-05 
-1.004769780148e-04 -2.772227019028e-05 0.0 
-2.772227019028e-05 6.610823099679e-04 0.0 
0.0 0.0 -1.005514351764e-04 
-1.060430099672e-04 -2.796832696173e-05 0.0 
-2.796832696173e-05 6.996637265558e-04 0.0 
0.0 0.0 -1.060597130133e-04 
-7.058429708504e-05 2.696376381882e-05 0.0 
2.696376381882e-05 4.358412197202e-04 0.0 
0.0 0.0 -7.020228199149e-05 
-1.149702114763e-04 2.916861666016e-05 0.0 
2.916861666016e-05 7.482016199016e-04 0.0 
0.0 0.0 -1.149926572041e-04 
-1.018961975089e-04 -2.764432959957e-05 0.0 
-2.764432959957e-05 6.700658488310e-04 0.0 
0.0 0.0 -1.018518768314e-04 
-1.078880338181e-04 2.829261719461e-05 0.0 
2.829261719461e-05 6.977513239732e-04 0.0 
0.0 0.0 -1.077528216683e-04 
-7.751274952550e-05 -2.834816828620e-05 0.0 
-2.834816828620e-05 5.042136075216e-04 0.0 
0.0 0.0 -7.808165313150e-05 
-1.487528116968e-04 -2.959551626362e-05 0.0 
-2.959551626362e-05 9.968448808877e-04 0.0 
0.0 0.0 -1.488167264463e-04 
-1.501088830239e-04 -3.002822277470e-05 0.0 
-3.002822277470e-05 1.002368649967e-03 0.0 
0.0 0.0 -1.497700977071e-04 
-1.036611104552e-04 2.803937657742e-05 0.0 
2.803937657742e-05 6.681495958179e-04 0.0 
0.0 0.0 -1.035656927818e-04 
-1.696613133079e-04 2.895531178363e-05 0.0 
2.895531178363e-05 1.131067865055e-03 0.0 
0.0 0.0 -1.700243568296e-04 
-5.727268235776e-05 -2.821956991103e-05 0.0 
-2.821956991103e-05 3.625919856272e-04 0.0 
0.0 0.0 -5.774536142498e-05 
-1.807378797874e-04 3.083863400090e-05 0.0 
3.083863400090e-05 1.216171179677e-03 0.0 
0.0 0.0 -1.812757540428e-04 
-1.107278423169e-04 2.926924818457e-05 0.0 
2.926924818457e-05 7.182977638167e-04 0.0 
0.0 0.0 -1.107203250571e-04 
-1.769840871489e-04 3.489293866335e-05 0.0 
3.489293866335e-05 1.208578847919e-03 0.0 
0.0 0.0 -1.805188677947e-04 
-1.376232392385e-04 -2.850354822354e-05 0.0 
-2.850354822354e-05 9.154990550666e-04 0.0 
0.0 0.0 -1.371610485043e-04 
-5.639757509564e-05 2.971463148157e-05 0.0 
2.971463148157e-05 3.421275802933e-04 0.0 
0.0 0.0 -5.682853890605e-05 
-1.399417025807e-04 -2.902435300106e-05 0.0 
-2.902435300106e-05 9.305736500539e-04 0.0 
0.0 0.0 -1.393929574840e-04 
-1.722474544452e-04 2.867109208845e-05 0.0 
2.867109208845e-05 1.148502992599e-03 0.0 
0.0 0.0 -1.722554387731e-04 
-1.162793321609e-04 2.903309505420e-05 0.0 
2.903309505420e-05 7.572372561352e-04 0.0 
0.0 0.0 -1.162159973290e-04 
-8.454182586218e-05 -2.784090404248e-05 0.0 
-2.784090404248e-05 5.479081559787e-04 0.0 
0.0 0.0 -8.432093988479e-05 
-1.438863246759e-04 -2.930384340139e-05 0.0 
-2.930384340139e-05 9.596245582464e-04 0.0 
0.0 0.0 -1.435863591065e-04 
-1.111530589725e-04 2.833421624542e-05 0.0 
2.833421624542e-05 7.207793346527e-04 0.0 
0.0 0.0 -1.110366786716e-04 
-4.573862906079e-05 3.039490600873e-05 0.0 
3.039490600873e-05 2.711520722753e-04 0.0 
0.0 0.0 -4.684619297515e-05 
-1.870955320648e-04 3.081437672742e-05 0.0 
3.081437672742e-05 1.264311478356e-03 0.0 
0.0 0.0 -1.888615860838e-04 
-4.248482680505e-05 3.050161066116e-05 0.0 
3.050161066116e-05 2.352616891617e-04 0.0 
0.0 0.0 -4.121632266810e-05 
-1.771088727211e-04 -2.938926809476e-05 0.0 
-2.938926809476e-05 1.212909459550e-03 0.0 
0.0 0.0 -1.791639973893e-04 
-1.771566623871e-04 2.828554015672e-05 0.0 
2.828554015672e-05 1.177203819354e-03 0.0 
0.0 0.0 -1.763972732427e-04 
-1.529661344135e-04 -2.952014478129e-05 0.0 
-2.952014478129e-05 1.026629378024e-03 0.0 
0.0 0.0 -1.530775205951e-04 
-1.359594450574e-04 3.325053532527e-05 0.0 
3.325053532527e-05 8.922454278314e-04 0.0 
0.0 0.0 -1.356269418710e-04 
-1.644239763161e-04 -3.062030831265e-05 0.0 
-3.062030831265e-05 1.103176739090e-03 0.0 
0.0 0.0 -1.641343017522e-04 
-1.073732254289e-04 -2.774733318227e-05 0.0 
-2.774733318227e-05 7.082936325730e-04 0.0 
0.0 0.0 -1.073249441206e-04 
-1.251403265974e-04 -2.940532100017e-05 0.0 
-2.940532100017e-05 8.313761795825e-04 0.0 
0.0 0.0 -1.250629185325e-04 
-1.768873143391e-04 2.872670345058e-05 0.0 
2.872670345058e-05 1.193015524360e-03 0.0 
0.0 0.0 -1.787673453274e-04 
-1.533533607312e-04 2.921855117467e-05 0.0 
2.921855117467e-05 1.014614364332e-03 0.0 
0.0 0.0 -1.532196148344e-04 
-1.544705070620e-04 -2.993018470978e-05 0.0 
-2.993018470978e-05 1.033859279725e-03 0.0 
0.0 0.0 -1.542337544108e-04 
-1.470105554746e-04 3.050415116692e-05 0.0 
3.050415116692e-05 9.703822682050e-04 0.0 
0.0 0.0 -1.467116565689e-04 
-5.190467070807e-05 2.923657524478e-05 0.0 
2.923657524478e-05 3.125147726987e-04 0.0 
0.0 0.0 -5.258904166863e-05 
-1.585497388479e-04 -3.036107211364e-05 0.0 
-3.036107211364e-05 1.064785683487e-03 0.0 
0.0 0.0 -1.586792192556e-04 
-1.867823602022e-04 -4.423334107093e-07 0.0 
-4.423334107093e-07 1.306209639085e-03 0.0 
0.0 0.0 -1.902127661242e-04 
-1.799952498831e-04 3.276671323295e-05 0.0 
3.276671323295e-05 1.203252067028e-03 0.0 
0.0 0.0 -1.803293472919e-04 
-1.036283366723e-04 2.928971230122e-05 0.0 
2.928971230122e-05 6.701110471026e-04 0.0 
0.0 0.0 -1.038552253682e-04 
-1.348425674588e-04 -3.045731572340e-05 0.0 
-3.045731572340e-05 8.997616749557e-04 0.0 
0.0 0.0 -1.353016656203e-04 
-1.306027592527e-04 3.244558953540e-05 0.0 
3.244558953540e-05 8.557133569559e-04 0.0 
0.0 0.0 -1.301630146057e-04 
-1.102559799513e-04 -2.882778976320e-05 0.0 
-2.882778976320e-05 7.287644293276e-04 0.0 
0.0 0.0 -1.102912351658e-04 
-1.488807296024e-04 2.952972860655e-05 0.0 
2.952972860655e-05 9.845338823176e-04 0.0 
0.0 0.0 -1.489188890839e-04 
-1.543542798127e-04 2.941367575548e-05 0.0 
2.941367575548e-05 1.023344437634e-03 0.0 
0.0 0.0 -1.545169747944e-04 
-3.601998227787e-05 -3.147937655175e-05 0.0 
-3.147937655175e-05 2.167298522228e-04 0.0 
0.0 0.0 -3.699600978291e-05 
-6.801309851159e-05 2.873975774867e-05 0.0 
2.873975774867e-05 4.179957074076e-04 0.0 
0.0 0.0 -6.762408315677e-05 
-1.091497725492e-04 2.831094670187e-05 0.0 
2.831094670187e-05 7.067995318092e-04 0.0 
0.0 0.0 -1.090469065526e-04 
-1.032766425254e-04 -2.822190353465e-05 0.0 
-2.822190353465e-05 6.789187616226e-04 0.0 
0.0 0.0 -1.031335432607e-04 
-1.099107092343e-04 2.839546535684e-05 0.0 
2.839546535684e-05 7.120464211608e-04 0.0 
0.0 0.0 -1.098117726994e-04 
-1.811121707674e-04 -2.882441196002e-05 0.0 
-2.882441196002e-05 1.237667273714e-03 0.0 
0.0 0.0 -1.838140267123e-04 
-1.748866853698e-04 2.592400427167e-05 0.0 
2.592400427167e-05 1.162787881872e-03 0.0 
0.0 0.0 -1.744029230557e-04 
-1.761187774956e-04 -2.949711616705e-05 0.0 
-2.949711616705e-05 1.184397801600e-03 0.0 
0.0 0.0 -1.760448152485e-04 
-9.882657544989e-05 -2.718055687570e-05 0.0 
-2.718055687570e-05 6.452046498512e-04 0.0 
0.0 0.0 -9.834296651366e-05 
-1.624121206718e-04 2.836552699441e-05 0.0 
2.836552699441e-05 1.080211199209e-03 0.0 
0.0 0.0 -1.624070342850e-04 
-1.485275509050e-04 -2.918103576740e-05 0.0 
-2.918103576740e-05 9.950382173190e-04 0.0 
0.0 0.0 -1.484873542982e-04 
-1.805851059427e-04 3.002465538148e-05 0.0 
3.002465538148e-05 1.203046068310e-03 0.0 
0.0 0.0 -1.797622605636e-04 
-1.528376056470e-04 -3.044040189818e-05 0.0 
-3.044040189818e-05 1.026184810031e-03 0.0 
0.0 0.0 -1.532447004422e-04 
-1.087929439093e-04 -2.876357224537e-05 0.0 
-2.876357224537e-05 7.196828290104e-04 0.0 
0.0 0.0 -1.089952584493e-04 
-1.049428023921e-04 2.811224010391e-05 0.0 
2.811224010391e-05 6.773445023375e-04 0.0 
0.0 0.0 -1.048418778190e-04 
-1.594051931958e-04 2.879840167248e-05 0.0 
2.879840167248e-05 1.056615529052e-03 0.0 
0.0 0.0 -1.590166690394e-04 
-1.738854057278e-04 -3.150615969996e-05 0.0 
-3.150615969996e-05 1.172347359832e-03 0.0 
0.0 0.0 -1.740425842566e-04 
-1.602067260143e-04 2.962540646325e-05 0.0 
2.962540646325e-05 1.063407039079e-03 0.0 
0.0 0.0 -1.600263377024e-04 
-1.549984104106e-04 2.928819239640e-05 0.0 
2.928819239640e-05 1.025787824362e-03 0.0 
0.0 0.0 -1.545642443906e-04 
-1.691936656852e-04 3.051239000977e-05 0.0 
3.051239000977e-05 1.122993866756e-03 0.0 
0.0 0.0 -1.687134228720e-04 
-1.733516422302e-04 -2.975799224699e-05 0.0 
-2.975799224699e-05 1.180345126224e-03 0.0 
0.0 0.0 -1.751295320469e-04 
-1.641761333923e-04 2.964778985093e-05 0.0 
2.964778985093e-05 1.092162958901e-03 0.0 
0.0 0.0 -1.644209996092e-04 
-1.334029697755e-04 2.921704941968e-05 0.0 
2.921704941968e-05 8.764535109902e-04 0.0 
0.0 0.0 -1.334339325936e-04 
-9.629059373289e-05 2.489782199496e-05 0.0 
2.489782199496e-05 6.169410298163e-04 0.0 
0.0 0.0 -9.629846621400e-05 
-1.586938225999e-04 -2.873074405230e-05 0.0 
-2.873074405230e-05 1.064075480535e-03 0.0 
0.0 0.0 -1.585741496670e-04 
-1.515595690388e-04 2.887166217167e-05 0.0 
2.887166217167e-05 1.004996075128e-03 0.0 
0.0 0.0 -1.516193629955e-04 
-6.015828007311e-05 2.762481471313e-05 0.0 
2.762481471313e-05 3.663761052862e-04 0.0 
0.0 0.0 -6.027332919800e-05 
-1.086909470084e-04 -2.820919446967e-05 0.0 
-2.820919446967e-05 7.173514364266e-04 0.0 
0.0 0.0 -1.086183444390e-04 
-1.229754690729e-04 2.795896853918e-05 0.0 
2.795896853918e-05 8.030480005080e-04 0.0 
0.0 0.0 -1.229099206091e-04 
-1.348799327205e-04 -2.950552833220e-05 0.0 
-2.950552833220e-05 8.992538641476e-04 0.0 
0.0 0.0 -1.347984704188e-04 
-6.075364579538e-05 2.991920213964e-05 0.0 
2.991920213964e-05 3.704456528343e-04 0.0 
0.0 0.0 -6.085885447137e-05 
-1.045153483669e-04 -2.832422319633e-05 0.0 
-2.832422319633e-05 6.878595611022e-04 0.0 
0.0 0.0 -1.044304007945e-04 
-1.446479183094e-04 -2.971056222020e-05 0.0 
-2.971056222020e-05 9.673313026673e-04 0.0 
0.0 0.0 -1.445542801823e-04 
-1.100060346855e-04 2.737837681636e-05 0.0 
2.737837681636e-05 7.101421002689e-04 0.0 
0.0 0.0 -1.094113629060e-04 
-1.135560558010e-04 2.921951781404e-05 0.0 
2.921951781404e-05 7.388528165105e-04 0.0 
0.0 0.0 -1.136984934835e-04 
-1.423148992764e-04 -3.064755775960e-05 0.0 
-3.064755775960e-05 9.560334399626e-04 0.0 
0.0 0.0 -1.433495728088e-04 
-1.141564569451e-04 2.617777317916e-05 0.0 
2.617777317916e-05 7.567005103659e-04 0.0 
0.0 0.0 -1.145704449725e-04 
-2.757145428849e-05 3.124043686616e-05 0.0 
3.124043686616e-05 1.158691705071e-04 0.0 
0.0 0.0 -2.367971326705e-05 
-1.286436208275e-04 -2.914932669868e-05 0.0 
-2.914932669868e-05 8.571420336644e-04 0.0 
0.0 0.0 -1.287122655492e-04 
-1.576792209224e-04 2.858094066912e-05 0.0 
2.858094066912e-05 1.045870248437e-03 0.0 
0.0 0.0 -1.577753644542e-04 
-1.791334658592e-04 3.034271459186e-05 0.0 
3.034271459186e-05 1.201260178593e-03 0.0 
0.0 0.0 -1.795306929420e-04 
-1.201199461226e-04 2.829067472047e-05 0.0 
2.829067472047e-05 7.831094393938e-04 0.0 
0.0 0.0 -1.199963822083e-04 
-1.234760846803e-04 2.932006013550e-05 0.0 
2.932006013550e-05 8.076650151061e-04 0.0 
0.0 0.0 -1.235581517372e-04 
-1.448894787138e-04 -2.961840001921e-05 0.0 
-2.961840001921e-05 9.648117356658e-04 0.0 
0.0 0.0 -1.443143808439e-04 
-3.842228905377e-05 3.298025909580e-05 0.0 
3.298025909580e-05 1.877070748678e-04 0.0 
0.0 0.0 -3.370741825810e-05 
-1.534698621194e-04 2.830991160432e-05 0.0 
2.830991160432e-05 1.016299861510e-03 0.0 
0.0 0.0 -1.535042456599e-04 
-1.293327155133e-04 -2.926708160322e-05 0.0 
-2.926708160322e-05 8.610400331546e-04 0.0 
0.0 0.0 -1.292921254718e-04 
-1.147182049359e-04 -2.793616799804e-05 0.0 
-2.793616799804e-05 7.557812794768e-04 0.0 
0.0 0.0 -1.142359468334e-04 
-1.540623557645e-04 -2.883021402370e-05 0.0 
-2.883021402370e-05 1.033805831342e-03 0.0 
0.0 0.0 -1.540837914240e-04 
-5.903277897526e-05 -2.572226208233e-05 0.0 
-2.572226208233e-05 3.742033353159e-04 0.0 
0.0 0.0 -5.919629073606e-05 
-1.595117392718e-04 -2.911342610863e-05 0.0 
-2.911342610863e-05 1.072689065088e-03 0.0 
0.0 0.0 -1.596834805621e-04 
-1.756154530572e-04 2.998485745368e-05 0.0 
2.998485745368e-05 1.171075078384e-03 0.0 
0.0 0.0 -1.756318130281e-04 
-1.493681148336e-04 2.791229911131e-05 0.0 
2.791229911131e-05 9.866947003208e-04 0.0 
0.0 0.0 -1.492337925182e-04 
-1.600204318750e-04 -2.992073590521e-05 0.0 
-2.992073590521e-05 1.071726323190e-03 0.0 
0.0 0.0 -1.596862481900e-04 
-1.621340043399e-04 -3.014172433171e-05 0.0 
-3.014172433171e-05 1.091751763439e-03 0.0 
0.0 0.0 -1.624029330596e-04 
-1.746509001542e-04 -3.044303714749e-05 0.0 
-3.044303714749e-05 1.180873641495e-03 0.0 
0.0 0.0 -1.752053866267e-04 
-4.948712705896e-05 3.475475083029e-05 0.0 
3.475475083029e-05 2.597308075809e-04 0.0 
0.0 0.0 -4.376112143753e-05 
-1.485603472495e-04 -2.938683707073e-05 0.0 
-2.938683707073e-05 9.955677447018e-04 0.0 
0.0 0.0 -1.487877812405e-04 
-1.753095903577e-04 -2.864829451917e-05 0.0 
-2.864829451917e-05 1.185024325076e-03 0.0 
0.0 0.0 -1.760859927092e-04 
-1.649582730615e-04 2.923348981816e-05 0.0 
2.923348981816e-05 1.094893116976e-03 0.0 
0.0 0.0 -1.644733909230e-04 
-1.395633018813e-04 2.809652890280e-05 0.0 
2.809652890280e-05 9.186543678537e-04 0.0 
0.0 0.0 -1.394655130409e-04 
-1.099611654985e-04 -2.884597329549e-05 0.0 
-2.884597329549e-05 7.257598080870e-04 0.0 
0.0 0.0 -1.098787062330e-04 
-1.209104407542e-04 2.806295656769e-05 0.0 
2.806295656769e-05 7.902223779801e-04 0.0 
0.0 0.0 -1.210417811416e-04 
-3.627372368124e-05 3.163530406853e-05 0.0 
3.163530406853e-05 2.039563500799e-04 0.0 
0.0 0.0 -3.723255725578e-05 
-1.701409886376e-04 2.983058263759e-05 0.0 
2.983058263759e-05 1.132501183017e-03 0.0 
0.0 0.0 -1.699366983435e-04 
-6.411787123099e-05 2.946502422422e-05 0.0 
2.946502422422e-05 3.968096580559e-04 0.0 
0.0 0.0 -6.464531002275e-05 
-5.822127891541e-05 2.749733519323e-05 0.0 
2.749733519323e-05 3.240066522493e-04 0.0 
0.0 0.0 -5.373429374777e-05 
-1.578004283830e-04 -2.825196317906e-05 0.0 
-2.825196317906e-05 1.061236006077e-03 0.0 
0.0 0.0 -1.581724742171e-04 
-1.810622318850e-04 2.872864159815e-05 0.0 
2.872864159815e-05 1.210843086462e-03 0.0 
0.0 0.0 -1.810174791607e-04 
-5.321706588155e-05 -2.711802848501e-05 0.0 
-2.711802848501e-05 3.340376413156e-04 0.0 
0.0 0.0 -5.359773372147e-05 
-1.254962992742e-04 -2.828232383433e-05 0.0 
-2.828232383433e-05 8.331892923083e-04 0.0 
0.0 0.0 -1.253787237607e-04 
-1.535703452329e-04 2.911412195335e-05 0.0 
2.911412195335e-05 1.018186094186e-03 0.0 
0.0 0.0 -1.535721660833e-04 
-1.174362539490e-04 -2.931439951264e-05 0.0 
-2.931439951264e-05 7.791228558505e-04 0.0 
0.0 0.0 -1.176010908151e-04 
-6.016009984886e-05 -2.873248464068e-05 0.0 
-2.873248464068e-05 3.813492115723e-04 0.0 
0.0 0.0 -6.041048265268e-05 
-7.982616898902e-05 2.825432291390e-05 0.0 
2.825432291390e-05 5.000258330386e-04 0.0 
0.0 0.0 -7.939046230173e-05 
-3.959656613655e-05 2.469153921964e-05 0.0 
2.469153921964e-05 2.420385823143e-04 0.0 
0.0 0.0 -4.293244787628e-05 
-5.330489538924e-05 2.915892379323e-05 0.0 
2.915892379323e-05 3.232040539711e-04 0.0 
0.0 0.0 -5.412237138681e-05 
-4.874214390061e-05 2.903207581372e-05 0.0 
2.903207581372e-05 2.849835911649e-04 0.0 
0.0 0.0 -4.858390135199e-05 
-1.298006905679e-04 2.813403754230e-05 0.0 
2.813403754230e-05 8.507929242894e-04 0.0 
0.0 0.0 -1.297186540265e-04 
-1.946741073417e-04 7.177668550596e-07 0.0 
7.177668550596e-07 1.366433303394e-03 0.0 
0.0 0.0 -1.986219281740e-04 
-6.700715880952e-05 2.589861000240e-05 0.0 
2.589861000240e-05 3.925714316040e-04 0.0 
0.0 0.0 -6.366506350946e-05 
-1.734025229933e-04 2.872134779497e-05 0.0 
2.872134779497e-05 1.153015807625e-03 0.0 
0.0 0.0 -1.730133492871e-04 
-9.662877635408e-05 2.832769241253e-05 0.0 
2.832769241253e-05 6.190294534954e-04 0.0 
0.0 0.0 -9.645761187127e-05 
-1.474086229932e-04 -3.111113571506e-05 0.0 
-3.111113571506e-05 9.884847841183e-04 0.0 
0.0 0.0 -1.478461150791e-04 
-4.750635885556e-05 2.975238453019e-05 0.0 
2.975238453019e-05 2.739120908498e-04 0.0 
0.0 0.0 -4.694079591042e-05 
-1.816621119292e-04 -2.878308347844e-05 0.0 
-2.878308347844e-05 1.218135406772e-03 0.0 
0.0 0.0 -1.810139427525e-04 
-4.655502041116e-05 -2.610306417390e-05 0.0 
-2.610306417390e-05 2.951982444198e-04 0.0 
0.0 0.0 -4.804032238546e-05 
-7.357331614798e-05 2.958595086467e-05 0.0 
2.958595086467e-05 4.672675042292e-04 0.0 
0.0 0.0 -7.493958354298e-05 
-1.550973332285e-04 2.796756386232e-05 0.0 
2.796756386232e-05 1.025417246301e-03 0.0 
0.0 0.0 -1.547320639971e-04 
-1.115692087861e-04 -2.839126116568e-05 0.0 
-2.839126116568e-05 7.371116053840e-04 0.0 
0.0 0.0 -1.115425826451e-04 
-1.699290889586e-04 -2.900940190171e-05 0.0 
-2.900940190171e-05 1.149889600330e-03 0.0 
0.0 0.0 -1.708594300032e-04 
-8.624183478928e-05 -2.912886792339e-05 0.0 
-2.912886792339e-05 5.626870180004e-04 0.0 
0.0 0.0 -8.644348757353e-05 
-1.569167022033e-04 -2.881123911490e-05 0.0 
-2.881123911490e-05 1.051025089677e-03 0.0 
0.0 0.0 -1.566669492989e-04 
-1.769191692021e-04 2.934973965132e-05 0.0 
2.934973965132e-05 1.199034094636e-03 0.0 
0.0 0.0 -1.798338780755e-04 
-1.495364599630e-04 2.975197277300e-05 0.0 
2.975197277300e-05 9.877659320422e-04 0.0 
0.0 0.0 -1.491119197843e-04 
-1.807112013151e-04 -2.761933473531e-05 0.0 
-2.761933473531e-05 1.210002262212e-03 0.0 
0.0 0.0 -1.792176209978e-04 
-1.628975544781e-04 -3.036779777295e-05 0.0 
-3.036779777295e-05 1.095193631651e-03 0.0 
0.0 0.0 -1.630977145684e-04 
-1.675201900776e-04 -3.024382898117e-05 0.0 
-3.024382898117e-05 1.126388508701e-03 0.0 
0.0 0.0 -1.675015638186e-04 
-5.424555064715e-05 2.680812076581e-05 0.0 
2.680812076581e-05 3.226336525028e-04 0.0 
0.0 0.0 -5.399133669915e-05 
-1.676277495680e-04 2.740316368874e-05 0.0 
2.740316368874e-05 1.112871955034e-03 0.0 
0.0 0.0 -1.673862058733e-04 
-1.578559859789e-04 2.827037287320e-05 0.0 
2.827037287320e-05 1.049443790061e-03 0.0 
0.0 0.0 -1.580046825171e-04 
-1.171678476607e-04 2.852988375933e-05 0.0 
2.852988375933e-05 7.623350065851e-04 0.0 
0.0 0.0 -1.168873383469e-04 
-7.813173762117e-05 2.766421590413e-05 0.0 
2.766421590413e-05 4.622030552975e-04 0.0 
0.0 0.0 -7.363010077577e-05 
-1.810895077962e-04 -2.908189886640e-05 0.0 
-2.908189886640e-05 1.245299465341e-03 0.0 
0.0 0.0 -1.848439230673e-04 
-6.258589564450e-05 2.973424717467e-05 0.0 
2.973424717467e-05 3.796477966190e-04 0.0 
0.0 0.0 -6.214069219561e-05 
-6.877743183419e-05 -3.283467012249e-05 0.0 
-3.283467012249e-05 4.454002116560e-04 0.0 
0.0 0.0 -6.982795868082e-05 
-1.656560229546e-04 3.018340289880e-05 0.0 
3.018340289880e-05 1.102559420523e-03 0.0 
0.0 0.0 -1.657595890666e-04 
-4.452637910278e-05 -2.463086619694e-05 0.0 
-2.463086619694e-05 2.688625379708e-04 0.0 
0.0 0.0 -4.409698994278e-05 
-1.188635475057e-04 -2.772391840776e-05 0.0 
-2.772391840776e-05 7.879380998938e-04 0.0 
0.0 0.0 -1.188635276708e-04 
-1.592882983328e-04 2.718156988550e-05 0.0 
2.718156988550e-05 1.054709056437e-03 0.0 
0.0 0.0 -1.589765888202e-04 
-1.772222272296e-04 -2.714101551062e-05 0.0 
-2.714101551062e-05 1.191839625875e-03 0.0 
0.0 0.0 -1.771732720199e-04 
-1.824779395496e-04 -2.648051372033e-05 0.0 
-2.648051372033e-05 1.225568720394e-03 0.0 
0.0 0.0 -1.816415620416e-04 
-1.546092874475e-04 -2.982910766663e-05 0.0 
-2.982910766663e-05 1.035340165495e-03 0.0 
0.0 0.0 -1.543237508850e-04 
-1.687071199467e-04 -3.097215296435e-05 0.0 
-3.097215296435e-05 1.133984998622e-03 0.0 
0.0 0.0 -1.685605813437e-04 
-1.021935529673e-04 2.852069401152e-05 0.0 
2.852069401152e-05 6.571110725585e-04 0.0 
0.0 0.0 -1.019073722143e-04 
-1.593527883530e-04 -2.978604002386e-05 0.0 
-2.978604002386e-05 1.069539853505e-03 0.0 
0.0 0.0 -1.593679286731e-04 
-8.787271678042e-05 2.812609072738e-05 0.0 
2.812609072738e-05 5.317977245242e-04 0.0 
0.0 0.0 -8.364764346898e-05 
-1.787194194283e-04 2.687014845945e-05 0.0 
2.687014845945e-05 1.178995119648e-03 0.0 
0.0 0.0 -1.772627823762e-04 
-9.805451043270e-05 2.760029222410e-05 0.0 
2.760029222410e-05 6.018798204524e-04 0.0 
0.0 0.0 -9.365644977482e-05 
-9.596485627522e-05 2.204290663138e-05 0.0 
2.204290663138e-05 6.347192065111e-04 0.0 
0.0 0.0 -9.866254784712e-05 
-1.159093866371e-04 2.840626684317e-05 0.0 
2.840626684317e-05 7.538245928729e-04 0.0 
0.0 0.0 -1.157644195874e-04 
-1.068023676316e-04 3.049840519302e-05 0.0 
3.049840519302e-05 6.737297633016e-04 0.0 
0.0 0.0 -1.036755264196e-04 
-1.327131526045e-04 -2.791089545435e-05 0.0 
-2.791089545435e-05 8.830463531689e-04 0.0 
0.0 0.0 -1.324954999561e-04 
-1.083462229029e-04 -2.835211655561e-05 0.0 
-2.835211655561e-05 7.134008523618e-04 0.0 
0.0 0.0 -1.081453164196e-04 
-1.141683981921e-04 -2.887541052425e-05 0.0 
-2.887541052425e-05 7.550230559135e-04 0.0 
0.0 0.0 -1.140931655197e-04 
-5.515908320108e-05 2.948502897213e-05 0.0 
2.948502897213e-05 3.310071093917e-04 0.0 
0.0 0.0 -5.528709606717e-05 
-1.104134789677e-04 2.840605379835e-05 0.0 
2.840605379835e-05 7.154837500031e-04 0.0 
0.0 0.0 -1.103023603459e-04 
-1.746713077398e-04 2.880636906730e-05 0.0 
2.880636906730e-05 1.164068735679e-03 0.0 
0.0 0.0 -1.743776871305e-04 
-1.783703106015e-04 3.636462111026e-05 0.0 
3.636462111026e-05 1.201299505939e-03 0.0 
0.0 0.0 -1.792895840060e-04 
-1.577150641991e-04 2.851269442524e-05 0.0 
2.851269442524e-05 1.044375076497e-03 0.0 
0.0 0.0 -1.575150703147e-04 
-1.745723709241e-04 2.909038873658e-05 0.0 
2.909038873658e-05 1.170222223010e-03 0.0 
0.0 0.0 -1.755400497234e-04 
-1.120725847370e-04 2.871981251597e-05 0.0 
2.871981251597e-05 7.269648264993e-04 0.0 
0.0 0.0 -1.119489732781e-04 
-1.675311839949e-04 2.887729147629e-05 0.0 
2.887729147629e-05 1.117903748534e-03 0.0 
0.0 0.0 -1.678529426297e-04 
-1.146259152953e-04 2.842710779289e-05 0.0 
2.842710779289e-05 7.448564873363e-04 0.0 
0.0 0.0 -1.145134881756e-04 
-1.710224470009e-04 2.842065442071e-05 0.0 
2.842065442071e-05 1.142895506605e-03 0.0 
0.0 0.0 -1.716593064874e-04 
-1.634807050442e-04 2.799270818855e-05 0.0 
2.799270818855e-05 1.086902354100e-03 0.0 
0.0 0.0 -1.634447856658e-04 
-1.622367908960e-04 -2.967988136421e-05 0.0 
-2.967988136421e-05 1.088570664713e-03 0.0 
0.0 0.0 -1.620677252808e-04 
-1.436975778517e-04 2.830432817314e-05 0.0 
2.830432817314e-05 9.480503595790e-04 0.0 
0.0 0.0 -1.437136475121e-04 
-1.063431585595e-04 2.840592411012e-05 0.0 
2.840592411012e-05 6.863040493332e-04 0.0 
0.0 0.0 -1.060995107696e-04 
-1.691497108962e-04 -2.743833599267e-05 0.0 
-2.743833599267e-05 1.134677276168e-03 0.0 
0.0 0.0 -1.689057885308e-04 
-1.381914899866e-04 2.790064750608e-05 0.0 
2.790064750608e-05 9.063015758904e-04 0.0 
0.0 0.0 -1.375454124849e-04 
-5.561996790627e-05 -3.071748806018e-05 0.0 
-3.071748806018e-05 3.409512690699e-04 0.0 
0.0 0.0 -5.492022919918e-05 
-6.179236649455e-05 -2.756467409787e-05 0.0 
-2.756467409787e-05 3.903060721867e-04 0.0 
0.0 0.0 -6.170691397715e-05 
-9.087582305261e-05 2.700291781953e-05 0.0 
2.700291781953e-05 5.782509110046e-04 0.0 
0.0 0.0 -9.092110591052e-05 
-1.259880962207e-04 2.776883270027e-05 0.0 
2.776883270027e-05 8.237716666486e-04 0.0 
0.0 0.0 -1.257717909469e-04 
-1.753841120844e-04 2.980647546350e-05 0.0 
2.980647546350e-05 1.173927080456e-03 0.0 
0.0 0.0 -1.760317983730e-04 
-1.577119756164e-04 -3.055430689054e-05 0.0 
-3.055430689054e-05 1.057688489879e-03 0.0 
0.0 0.0 -1.576653810449e-04 
-1.057975756223e-04 -2.876126628924e-05 0.0 
-2.876126628924e-05 6.965772625478e-04 0.0 
0.0 0.0 -1.056780804030e-04 
-1.401532218735e-04 -2.893519210654e-05 0.0 
-2.893519210654e-05 9.357130400283e-04 0.0 
0.0 0.0 -1.401741111350e-04 
-1.632303776345e-04 2.945240880963e-05 0.0 
2.945240880963e-05 1.086067743780e-03 0.0 
0.0 0.0 -1.632898652955e-04 
-1.698320922867e-04 -3.029692352669e-05 0.0 
-3.029692352669e-05 1.141081462631e-03 0.0 
0.0 0.0 -1.695868396911e-04 
-1.762766478419e-04 -2.148172006753e-05 0.0 
-2.148172006753e-05 1.172735995291e-03 0.0 
0.0 0.0 -1.741172379421e-04 
-1.423952570170e-04 2.784554782803e-05 0.0 
2.784554782803e-05 9.441048027351e-04 0.0 
0.0 0.0 -1.427691508950e-04 
-1.672340961037e-04 2.890076212539e-05 0.0 
2.890076212539e-05 1.110820323191e-03 0.0 
0.0 0.0 -1.670153566545e-04 
-1.196206745500e-04 -2.916305908743e-05 0.0 
-2.916305908743e-05 7.932912096618e-04 0.0 
0.0 0.0 -1.195780717481e-04 
-1.631267095900e-04 -2.877648753756e-05 0.0 
-2.877648753756e-05 1.093964271595e-03 0.0 
0.0 0.0 -1.629178051474e-04 
-1.193648583036e-04 2.813253978265e-05 0.0 
2.813253978265e-05 7.781106719393e-04 0.0 
0.0 0.0 -1.192674511187e-04 
-1.785040923208e-04 -2.833642482200e-05 0.0 
-2.833642482200e-05 1.202406861450e-03 0.0 
0.0 0.0 -1.783056964125e-04 
-1.774180478980e-04 -3.143728213467e-05 0.0 
-3.143728213467e-05 1.216846253912e-03 0.0 
0.0 0.0 -1.800733985141e-04 
-1.339733609669e-04 2.830305737665e-05 0.0 
2.830305737665e-05 8.799971748813e-04 0.0 
0.0 0.0 -1.339483752660e-04 
-5.685501053660e-05 3.033786968296e-05 0.0 
3.033786968296e-05 3.408752435242e-04 0.0 
0.0 0.0 -5.664287464774e-05 
-1.674932513127e-04 2.750263582860e-05 0.0 
2.750263582860e-05 1.111155514655e-03 0.0 
0.0 0.0 -1.670528461364e-04 
-1.284040368042e-04 -2.775968276020e-05 0.0 
-2.775968276020e-05 8.537309068525e-04 0.0 
0.0 0.0 -1.283340813903e-04 
-1.016895440755e-04 -2.862604297841e-05 0.0 
-2.862604297841e-05 6.674652453701e-04 0.0 
0.0 0.0 -1.014860136736e-04 
-1.390418925560e-04 -2.935625760733e-05 0.0 
-2.935625760733e-05 9.288785969762e-04 0.0 
0.0 0.0 -1.390419464427e-04 
-1.608753793423e-04 -3.062151254544e-05 0.0 
-3.062151254544e-05 1.081540098949e-03 0.0 
0.0 0.0 -1.609465537294e-04 
-5.579409708541e-05 -2.753923831601e-05 0.0 
-2.753923831601e-05 3.517647136068e-04 0.0 
0.0 0.0 -5.619956474153e-05 
-1.242874580104e-04 2.815581454240e-05 0.0 
2.815581454240e-05 8.122824974036e-04 0.0 
0.0 0.0 -1.242180795178e-04 
-1.444954382542e-04 2.691161261798e-05 0.0 
2.691161261798e-05 9.508761997336e-04 0.0 
0.0 0.0 -1.439419080609e-04 
-1.748732396412e-04 -3.101518328253e-05 0.0 
-3.101518328253e-05 1.183866334775e-03 0.0 
0.0 0.0 -1.756258132784e-04 
-1.484265095921e-04 2.639187046033e-05 0.0 
2.639187046033e-05 9.793613921147e-04 0.0 
0.0 0.0 -1.481473755224e-04 
-1.628394148518e-04 2.905846373136e-05 0.0 
2.905846373136e-05 1.081802942582e-03 0.0 
0.0 0.0 -1.628061244897e-04 
-1.405884391169e-04 2.689260908494e-05 0.0 
2.689260908494e-05 9.219062369141e-04 0.0 
0.0 0.0 -1.397490354451e-04 
-1.346362126131e-04 2.980546389634e-05 0.0 
2.980546389634e-05 8.629731244664e-04 0.0 
0.0 0.0 -1.313455861883e-04 
-1.422308942789e-04 2.777968126491e-05 0.0 
2.777968126491e-05 9.352014107076e-04 0.0 
0.0 0.0 -1.417070353249e-04 
-1.696348231764e-04 3.073847441857e-05 0.0 
3.073847441857e-05 1.132512673150e-03 0.0 
0.0 0.0 -1.700257545721e-04 
-1.628061011134e-04 -3.012920063587e-05 0.0 
-3.012920063587e-05 1.094588289745e-03 0.0 
0.0 0.0 -1.626783210446e-04 
-1.525480366069e-04 2.753411223908e-05 0.0 
2.753411223908e-05 1.012270815341e-03 0.0 
0.0 0.0 -1.525950422115e-04 
-1.817674885626e-04 2.636756222739e-05 0.0 
2.636756222739e-05 1.218171265063e-03 0.0 
0.0 0.0 -1.819330136886e-04 
-1.367783378107e-04 2.734398055764e-05 0.0 
2.734398055764e-05 8.928204252328e-04 0.0 
0.0 0.0 -1.355595357802e-04 
-8.657515392004e-05 -2.858127066433e-05 0.0 
-2.858127066433e-05 5.623682383036e-04 0.0 
0.0 0.0 -8.640878351826e-05 
-1.720286776127e-04 -3.018037219569e-05 0.0 
-3.018037219569e-05 1.158953410419e-03 0.0 
0.0 0.0 -1.720100346656e-04 
-1.785542716781e-04 -3.347376878072e-05 0.0 
-3.347376878072e-05 1.210212792631e-03 0.0 
0.0 0.0 -1.795117393957e-04 
-1.181566759780e-04 2.804595512909e-05 0.0 
2.804595512909e-05 7.695120543693e-04 0.0 
0.0 0.0 -1.180384278745e-04 
-1.234361083838e-04 2.834735001336e-05 0.0 
2.834735001336e-05 8.068300268397e-04 0.0 
0.0 0.0 -1.233979183903e-04 
-9.615008310342e-05 -2.877711061827e-05 0.0 
-2.877711061827e-05 6.293964481875e-04 0.0 
0.0 0.0 -9.603629528614e-05 
-1.570985069047e-04 2.869057650911e-05 0.0 
2.869057650911e-05 1.042670134457e-03 0.0 
0.0 0.0 -1.569914920818e-04 
-9.804713378094e-05 2.892049478508e-05 0.0 
2.892049478508e-05 6.274327291699e-04 0.0 
0.0 0.0 -9.751120462800e-05 
-1.373039782519e-04 2.945820523949e-05 0.0 
2.945820523949e-05 9.031137517948e-04 0.0 
0.0 0.0 -1.370644644624e-04 
-9.733425656402e-05 -2.696735292952e-05 0.0 
-2.696735292952e-05 6.363689780604e-04 0.0 
0.0 0.0 -9.714421390796e-05 
-1.604810832406e-04 2.925883402761e-05 0.0 
2.925883402761e-05 1.064262862584e-03 0.0 
0.0 0.0 -1.602381950242e-04 
-1.814386097987e-04 -2.325128847214e-05 0.0 
-2.325128847214e-05 1.217845530327e-03 0.0 
0.0 0.0 -1.816843005859e-04 
-1.003684445551e-04 -2.872637610904e-05 0.0 
-2.872637610904e-05 6.585462596242e-04 0.0 
0.0 0.0 -1.002307182508e-04 
-3.526749537505e-05 -3.047241068612e-05 0.0 
-3.047241068612e-05 2.153990238607e-04 0.0 
0.0 0.0 -3.677367655039e-05 
-1.806631145188e-04 2.941902588667e-05 0.0 
2.941902588667e-05 1.208966272057e-03 0.0 
0.0 0.0 -1.810776462098e-04 
-1.033178748637e-04 2.699632970684e-05 0.0 
2.699632970684e-05 6.637091035959e-04 0.0 
0.0 0.0 -1.028007266516e-04 
-1.175293277585e-04 2.819191420696e-05 0.0 
2.819191420696e-05 7.649488685247e-04 0.0 
0.0 0.0 -1.174222657364e-04 
-1.740611927883e-04 3.008308873920e-05 0.0 
3.008308873920e-05 1.179667388234e-03 0.0 
0.0 0.0 -1.766888058523e-04 
-1.524480229041e-04 -2.995968298439e-05 0.0 
-2.995968298439e-05 1.020372756015e-03 0.0 
0.0 0.0 -1.522604622525e-04 
-1.585768344365e-04 -2.913298650394e-05 0.0 
-2.913298650394e-05 1.064240986158e-03 0.0 
0.0 0.0 -1.583819031520e-04 
-1.028812223476e-04 -2.791530224567e-05 0.0 
-2.791530224567e-05 6.762699737186e-04 0.0 
0.0 0.0 -1.027652553003e-04 
-3.047731217096e-05 2.978609752000e-05 0.0 
2.978609752000e-05 1.644412884572e-04 0.0 
0.0 0.0 -3.167095645526e-05 
-1.827018091400e-04 -3.487243475378e-05 0.0 
-3.487243475378e-05 1.223693620193e-03 0.0 
0.0 0.0 -1.803196740198e-04 
-1.299869374800e-04 2.787662672047e-05 0.0 
2.787662672047e-05 8.523815142426e-04 0.0 
0.0 0.0 -1.299076046001e-04 
-1.512839301296e-04 -3.211131163956e-05 0.0 
-3.211131163956e-05 1.010330699503e-03 0.0 
0.0 0.0 -1.510713963618e-04 
-1.740688791628e-04 2.785384488376e-05 0.0 
2.785384488376e-05 1.160296302710e-03 0.0 
0.0 0.0 -1.736733770178e-04 
-2.424829434384e-05 2.135414066938e-05 0.0 
2.135414066938e-05 1.009887765283e-04 0.0 
0.0 0.0 -2.253474224696e-05 
-1.588289344536e-04 2.988448063203e-05 0.0 
2.988448063203e-05 1.053618048293e-03 0.0 
0.0 0.0 -1.588145449557e-04 
-7.398149687921e-05 -2.842214034926e-05 0.0 
-2.842214034926e-05 4.736710158424e-04 0.0 
0.0 0.0 -7.379368512750e-05 
-1.417757164372e-04 -3.019050727827e-05 0.0 
-3.019050727827e-05 9.514786018212e-04 0.0 
0.0 0.0 -1.424765658182e-04 
-1.273110853056e-04 -2.925695132898e-05 0.0 
-2.925695132898e-05 8.481813906053e-04 0.0 
0.0 0.0 -1.274401864931e-04 
-1.007593383753e-04 2.822071280729e-05 0.0 
2.822071280729e-05 6.480510024074e-04 0.0 
0.0 0.0 -1.006432667219e-04 
-1.707598802574e-04 -2.954897052777e-05 0.0 
-2.954897052777e-05 1.153161559221e-03 0.0 
0.0 0.0 -1.712453353817e-04 
-1.329505705343e-04 2.860130427155e-05 0.0 
2.860130427155e-05 8.732611453068e-04 0.0 
0.0 0.0 -1.328871777156e-04 
-9.118212509623e-05 2.844150706971e-05 0.0 
2.844150706971e-05 5.810800157713e-04 0.0 
0.0 0.0 -9.101187559806e-05 
-1.348270760039e-04 -2.858426038111e-05 0.0 
-2.858426038111e-05 8.990222661828e-04 0.0 
0.0 0.0 -1.348432318503e-04 
-2.929431270807e-05 -2.857654389252e-05 0.0 
-2.857654389252e-05 1.760253783659e-04 0.0 
0.0 0.0 -3.121713414881e-05 
-1.537482864892e-04 -2.902787486223e-05 0.0 
-2.902787486223e-05 1.032059817805e-03 0.0 
0.0 0.0 -1.539626484545e-04 
-1.604406715089e-04 -2.964829512843e-05 0.0 
-2.964829512843e-05 1.074466508454e-03 0.0 
0.0 0.0 -1.598244649411e-04 
-1.844616251081e-04 -2.196458036396e-05 0.0 
-2.196458036396e-05 1.231467805983e-03 0.0 
0.0 0.0 -1.850401362575e-04 
-1.635274807000e-04 -2.956880985849e-05 0.0 
-2.956880985849e-05 1.099342516608e-03 0.0 
0.0 0.0 -1.636124299818e-04 
-7.150477036681e-05 -2.776392562661e-05 0.0 
-2.776392562661e-05 4.572663187996e-04 0.0 
0.0 0.0 -7.137223705482e-05 
-1.570462429545e-04 -2.966204224228e-05 0.0 
-2.966204224228e-05 1.054975147839e-03 0.0 
0.0 0.0 -1.570847591254e-04 
-1.810625471898e-04 2.712640566716e-05 0.0 
2.712640566716e-05 1.230837214805e-03 0.0 
0.0 0.0 -1.842233179068e-04 
-1.891002400454e-04 -2.748789620214e-05 0.0 
-2.748789620214e-05 1.278407905451e-03 0.0 
0.0 0.0 -1.900717871215e-04 
-1.657110930776e-04 -2.854937255919e-05 0.0 
-2.854937255919e-05 1.112870521473e-03 0.0 
0.0 0.0 -1.653364313119e-04 
-1.071209963560e-04 -2.863275326497e-05 0.0 
-2.863275326497e-05 7.049432181714e-04 0.0 
0.0 0.0 -1.069186906485e-04 
-1.442583782278e-04 -2.898467953421e-05 0.0 
-2.898467953421e-05 9.652668360639e-04 0.0 
0.0 0.0 -1.443707514742e-04 
-1.759295624301e-04 2.574555557981e-05 0.0 
2.574555557981e-05 1.162894992702e-03 0.0 
0.0 0.0 -1.746475140816e-04 
-1.188179409512e-04 -2.882565480678e-05 0.0 
-2.882565480678e-05 7.850400880713e-04 0.0 
0.0 0.0 -1.181845718321e-04 
-1.584483271371e-04 2.773639164420e-05 0.0 
2.773639164420e-05 1.051528373706e-03 0.0 
0.0 0.0 -1.585795433073e-04 
-1.477641435519e-04 2.859461966958e-05 0.0 
2.859461966958e-05 9.807497853317e-04 0.0 
0.0 0.0 -1.481564718376e-04 
-1.666109147089e-04 -2.970949097526e-05 0.0 
-2.970949097526e-05 1.123406416293e-03 0.0 
0.0 0.0 -1.669465589644e-04 
-1.640742339727e-04 -2.814643695304e-05 0.0 
-2.814643695304e-05 1.102737689409e-03 0.0 
0.0 0.0 -1.639852473733e-04 
-1.101476556860e-04 -1.419773556877e-06 0.0 
-1.419773556877e-06 6.855531227093e-04 0.0 
0.0 0.0 -1.097027053386e-04 
-1.095838507761e-04 5.104018495319e-06 0.0 
5.104018495319e-06 6.852974449944e-04 0.0 
0.0 0.0 -1.096586159380e-04 
-1.492847548809e-04 -3.091516381313e-05 0.0 
-3.091516381313e-05 9.984061546489e-04 0.0 
0.0 0.0 -1.489183339744e-04 
-1.487773235054e-04 2.785619991096e-05 0.0 
2.785619991096e-05 9.847103116342e-04 0.0 
0.0 0.0 -1.489589719869e-04 
-1.316033445496e-04 -2.890310988479e-05 0.0 
-2.890310988479e-05 8.785172676280e-04 0.0 
0.0 0.0 -1.317064244343e-04 
-1.470787480711e-04 -2.886845641437e-05 0.0 
-2.886845641437e-05 9.813735906609e-04 0.0 
0.0 0.0 -1.466314440693e-04 
-1.276790192920e-04 2.827971774625e-05 0.0 
2.827971774625e-05 8.356151426700e-04 0.0 
0.0 0.0 -1.275341994755e-04 
-1.790311321725e-04 1.969961980520e-05 0.0 
1.969961980520e-05 1.177311147527e-03 0.0 
0.0 0.0 -1.770432225081e-04 
-1.075373971259e-04 2.845855733448e-05 0.0 
2.845855733448e-05 6.950205170450e-04 0.0 
0.0 0.0 -1.073226784003e-04 
-1.995879498343e-04 -5.013008806984e-06 0.0 
-5.013008806984e-06 1.363897218258e-03 0.0 
0.0 0.0 -1.985690758598e-04 
-1.206431140158e-04 2.307417823056e-05 0.0 
2.307417823056e-05 7.999499804229e-04 0.0 
0.0 0.0 -1.217990918242e-04 
-1.230873173652e-04 -2.834404514853e-05 0.0 
-2.834404514853e-05 8.168726937961e-04 0.0 
0.0 0.0 -1.229897142350e-04 
-1.277789710916e-04 2.899586617417e-05 0.0 
2.899586617417e-05 8.376167932335e-04 0.0 
0.0 0.0 -1.278593196867e-04 
-6.749379846372e-05 -2.782885043647e-05 0.0 
-2.782885043647e-05 4.285534232864e-04 0.0 
0.0 0.0 -6.718560115948e-05 
-1.130846881410e-04 -2.901620947727e-05 0.0 
-2.901620947727e-05 7.492911164906e-04 0.0 
0.0 0.0 -1.132750687146e-04 
-1.393795706141e-04 2.790993313463e-05 0.0 
2.790993313463e-05 9.183577294076e-04 0.0 
0.0 0.0 -1.393992299975e-04 
-1.313953089638e-04 2.793110906410e-05 0.0 
2.793110906410e-05 8.609063871163e-04 0.0 
0.0 0.0 -1.310746415357e-04 
-1.472158165240e-04 2.758529410816e-05 0.0 
2.758529410816e-05 9.752002146418e-04 0.0 
0.0 0.0 -1.472189500432e-04 
-1.516300742627e-04 2.806244334544e-05 0.0 
2.806244334544e-05 1.001799986608e-03 0.0 
0.0 0.0 -1.512033144533e-04 
-1.566655293626e-04 -2.889951032878e-05 0.0 
-2.889951032878e-05 1.046948901408e-03 0.0 
0.0 0.0 -1.561275327105e-04 
-3.388460750578e-05 -1.545160936620e-05 0.0 
-1.545160936620e-05 2.099343336454e-04 0.0 
0.0 0.0 -3.245576353708e-05 
-1.079103303358e-04 2.933502518126e-05 0.0 
2.933502518126e-05 7.001507540581e-04 0.0 
0.0 0.0 -1.081352097849e-04 
-1.027907419891e-04 -2.789055961483e-05 0.0 
-2.789055961483e-05 6.727593674768e-04 0.0 
0.0 0.0 -1.023828309811e-04 
-1.434897197293e-04 2.686269947909e-05 0.0 
2.686269947909e-05 9.426378339422e-04 0.0 
0.0 0.0 -1.428293200757e-04 
-1.483261696105e-04 -2.883963041716e-05 0.0 
-2.883963041716e-05 9.902814330651e-04 0.0 
0.0 0.0 -1.477595226970e-04 
-1.733622378423e-04 2.696425670561e-05 0.0 
2.696425670561e-05 1.158199599596e-03 0.0 
0.0 0.0 -1.740163136221e-04 
-5.146390240149e-05 3.149198966797e-05 0.0 
3.149198966797e-05 2.950977217837e-04 0.0 
0.0 0.0 -4.910994769955e-05 
-4.998322073950e-05 -2.650173050573e-05 0.0 
-2.650173050573e-05 3.137392583323e-04 0.0 
0.0 0.0 -5.065930366581e-05 
-1.246841514279e-04 2.807070818710e-05 0.0 
2.807070818710e-05 8.153369030926e-04 0.0 
0.0 0.0 -1.245896567492e-04 
-1.074667000404e-04 -2.931017500739e-05 0.0 
-2.931017500739e-05 7.103792899815e-04 0.0 
0.0 0.0 -1.077203783481e-04 
-9.918600810801e-05 -3.218977296722e-05 0.0 
-3.218977296722e-05 6.451476881974e-04 0.0 
0.0 0.0 -9.831899762194e-05 
-1.033843323464e-04 -2.568146961447e-05 0.0 
-2.568146961447e-05 6.823399375890e-04 0.0 
0.0 0.0 -1.033380742667e-04 
-1.467772705035e-04 -2.855532502296e-05 0.0 
-2.855532502296e-05 9.829234791858e-04 0.0 
0.0 0.0 -1.469023935692e-04 
-4.918821938130e-05 -2.784621442943e-05 0.0 
-2.784621442943e-05 3.054917735983e-04 0.0 
0.0 0.0 -4.953709868763e-05 
-1.222003796169e-04 2.866150149173e-05 0.0 
2.866150149173e-05 7.992287747919e-04 0.0 
0.0 0.0 -1.223213871927e-04 
-1.574838851652e-04 -2.884771519407e-05 0.0 
-2.884771519407e-05 1.055743233401e-03 0.0 
0.0 0.0 -1.573814874934e-04 
-5.103366446644e-05 3.083233425307e-05 0.0 
3.083233425307e-05 3.010972732110e-04 0.0 
0.0 0.0 -5.112340052147e-05 
-1.934610965695e-04 -4.298535282020e-06 0.0 
-4.298535282020e-06 1.268654757538e-03 0.0 
0.0 0.0 -1.928379572095e-04 
-1.729742724807e-04 -2.716366689485e-05 0.0 
-2.716366689485e-05 1.161879060048e-03 0.0 
0.0 0.0 -1.728683014225e-04 
-1.159629787201e-04 -2.904469987433e-05 0.0 
-2.904469987433e-05 7.705849919696e-04 0.0 
0.0 0.0 -1.163417091451e-04 
-1.616915685660e-04 2.859224485179e-05 0.0 
2.859224485179e-05 1.074324548804e-03 0.0 
0.0 0.0 -1.618083629464e-04 
-2.727429490673e-05 -7.981424094550e-07 0.0 
-7.981424094550e-07 1.116265976979e-04 0.0 
0.0 0.0 -2.696321564760e-05 
-1.521690046607e-04 -3.000871026997e-05 0.0 
-3.000871026997e-05 1.017696781759e-03 0.0 
0.0 0.0 -1.518707364543e-04 
-1.295839926014e-04 -2.815794342717e-05 0.0 
-2.815794342717e-05 8.619661847659e-04 0.0 
0.0 0.0 -1.295155041898e-04 
-2.359634361323e-05 9.091220455368e-07 0.0 
9.091220455368e-07 1.106951619002e-04 0.0 
0.0 0.0 -2.682779714776e-05 
-1.728538985111e-04 2.680741270793e-05 0.0 
2.680741270793e-05 1.154427413958e-03 0.0 
0.0 0.0 -1.732288690391e-04 
-4.759083390138e-05 -2.831698267297e-05 0.0 
-2.831698267297e-05 2.848913946214e-04 0.0 
0.0 0.0 -4.649687138448e-05 
-1.430104513494e-04 -2.827840335732e-05 0.0 
-2.827840335732e-05 9.522047249633e-04 0.0 
0.0 0.0 -1.424467998190e-04 
-1.308115066644e-04 -2.845406566805e-05 0.0 
-2.845406566805e-05 8.700772173504e-04 0.0 
0.0 0.0 -1.306907721685e-04 
-1.129064275361e-04 -2.856218169756e-05 0.0 
-2.856218169756e-05 7.462380760800e-04 0.0 
0.0 0.0 -1.127972299543e-04 
-1.359129833258e-04 2.979368899475e-05 0.0 
2.979368899475e-05 8.944895224544e-04 0.0 
0.0 0.0 -1.357882224401e-04 
-1.779538886446e-04 2.685602915856e-05 0.0 
2.685602915856e-05 1.186518068831e-03 0.0 
0.0 0.0 -1.774347558581e-04 
-1.457575943922e-04 3.026596853263e-05 0.0 
3.026596853263e-05 9.632506474158e-04 0.0 
0.0 0.0 -1.457400808753e-04 
-1.288002410826e-04 2.805878315534e-05 0.0 
2.805878315534e-05 8.440094574945e-04 0.0 
0.0 0.0 -1.287264812403e-04 
-1.242825439840e-04 -2.804688037007e-05 0.0 
-2.804688037007e-05 8.250067063846e-04 0.0 
0.0 0.0 -1.241942416882e-04 
-1.736395521226e-05 2.354389388036e-05 0.0 
2.354389388036e-05 7.964528863018e-05 0.0 
0.0 0.0 -1.861799679395e-05 
-4.157545693324e-05 2.817385926199e-05 0.0 
2.817385926199e-05 2.365575590948e-04 0.0 
0.0 0.0 -4.141517733842e-05 
-1.678318203631e-04 -2.663064313971e-05 0.0 
-2.663064313971e-05 1.127397061509e-03 0.0 
0.0 0.0 -1.677496568182e-04 
-1.370203440637e-04 -3.226606344672e-05 0.0 
-3.226606344672e-05 9.081664366392e-04 0.0 
0.0 0.0 -1.362805121017e-04 
-1.736141937904e-04 2.716336991301e-05 0.0 
2.716336991301e-05 1.149649766564e-03 0.0 
0.0 0.0 -1.723036539172e-04 
-7.429185192102e-05 2.889322857484e-05 0.0 
2.889322857484e-05 4.644168819778e-04 0.0 
0.0 0.0 -7.414465667103e-05 
-1.649902886651e-04 2.947284893012e-05 0.0 
2.947284893012e-05 1.093935083842e-03 0.0 
0.0 0.0 -1.646925898217e-04 
-1.739966132604e-04 -2.849382622555e-05 0.0 
-2.849382622555e-05 1.167419998479e-03 0.0 
0.0 0.0 -1.733111646468e-04 
-1.056965695515e-04 2.657671323282e-05 0.0 
2.657671323282e-05 6.973803664085e-04 0.0 
0.0 0.0 -1.076913066561e-04 
-1.684634156381e-04 2.502571500154e-05 0.0 
2.502571500154e-05 1.117308510720e-03 0.0 
0.0 0.0 -1.681488932201e-04 
-1.612200699048e-04 -2.968921846860e-05 0.0 
-2.968921846860e-05 1.084762543557e-03 0.0 
0.0 0.0 -1.613920101890e-04 
-1.435042771724e-04 2.827958174112e-05 0.0 
2.827958174112e-05 9.471256299073e-04 0.0 
0.0 0.0 -1.435674306479e-04 
-1.178719447516e-04 2.925779353124e-05 0.0 
2.925779353124e-05 7.691196797978e-04 0.0 
0.0 0.0 -1.179957515531e-04 
-1.230064472571e-04 -2.933976043839e-05 0.0 
-2.933976043839e-05 8.180684852634e-04 0.0 
0.0 0.0 -1.231351811242e-04 
-1.812260547849e-04 -3.047200266982e-05 0.0 
-3.047200266982e-05 1.223288115478e-03 0.0 
0.0 0.0 -1.807056875578e-04 
-1.260212927046e-04 2.933157348944e-05 0.0 
2.933157348944e-05 8.259598448106e-04 0.0 
0.0 0.0 -1.259489979917e-04 
-1.353161328246e-04 2.778264495549e-05 0.0 
2.778264495549e-05 8.897119970146e-04 0.0 
0.0 0.0 -1.352333322325e-04 
-1.267391738953e-04 2.944240283988e-05 0.0 
2.944240283988e-05 8.300608908324e-04 0.0 
0.0 0.0 -1.265040046469e-04 
-1.558042942572e-04 2.960325539106e-05 0.0 
2.960325539106e-05 1.032329659142e-03 0.0 
0.0 0.0 -1.557546880476e-04 
-1.178031641948e-04 -2.833363001983e-05 0.0 
-2.833363001983e-05 7.792538415973e-04 0.0 
0.0 0.0 -1.176363242409e-04 
-7.616423057155e-05 2.888075361391e-05 0.0 
2.888075361391e-05 4.767557616214e-04 0.0 
0.0 0.0 -7.598706826662e-05 
-1.284551892997e-04 2.830356900228e-05 0.0 
2.830356900228e-05 8.414205268390e-04 0.0 
0.0 0.0 -1.284270486071e-04 
-8.163145150663e-05 2.849893936950e-05 0.0 
2.849893936950e-05 5.141388462768e-04 0.0 
0.0 0.0 -8.139240314519e-05 
-1.476035922618e-04 2.790275079514e-05 0.0 
2.790275079514e-05 9.723513416990e-04 0.0 
0.0 0.0 -1.469868445827e-04 
-8.102880366192e-05 -2.822816260586e-05 0.0 
-2.822816260586e-05 5.241451611897e-04 0.0 
0.0 0.0 -8.099228255434e-05 
-1.416684014624e-04 -2.911139421202e-05 0.0 
-2.911139421202e-05 9.446400297649e-04 0.0 
0.0 0.0 -1.413087031611e-04 
-1.704134817182e-04 -2.893451028680e-05 0.0 
-2.893451028680e-05 1.143317166872e-03 0.0 
0.0 0.0 -1.695824168335e-04 
-1.648116269840e-04 2.803138241354e-05 0.0 
2.803138241354e-05 1.093290237044e-03 0.0 
0.0 0.0 -1.644793634901e-04 
-1.128875860972e-04 2.826705620268e-05 0.0 
2.826705620268e-05 7.324835187191e-04 0.0 
0.0 0.0 -1.126879322255e-04 
-1.413103611302e-04 2.856634998349e-05 0.0 
2.856634998349e-05 9.375047760794e-04 0.0 
0.0 0.0 -1.419038077447e-04 
-1.657595976086e-04 2.853389717882e-05 0.0 
2.853389717882e-05 1.104349844714e-03 0.0 
0.0 0.0 -1.661162351013e-04 
-1.653889785276e-04 -2.976188635714e-05 0.0 
-2.976188635714e-05 1.114688989457e-03 0.0 
0.0 0.0 -1.657121520580e-04 
-4.122208403583e-05 -2.733977607716e-05 0.0 
-2.733977607716e-05 2.407308049745e-04 0.0 
0.0 0.0 -4.024936955575e-05 
-1.462865341652e-04 2.791988865304e-05 0.0 
2.791988865304e-05 9.640304959560e-04 0.0 
0.0 0.0 -1.458719015759e-04 
-1.798320892613e-04 3.664169466135e-05 0.0 
3.664169466135e-05 1.207776909166e-03 0.0 
0.0 0.0 -1.808727580343e-04 
-8.155951077410e-05 2.658877336874e-05 0.0 
2.658877336874e-05 5.082367721589e-04 0.0 
0.0 0.0 -8.036834358255e-05 
-1.261065842356e-04 -2.891277945860e-05 0.0 
-2.891277945860e-05 8.392634847212e-04 0.0 
0.0 0.0 -1.261429800108e-04 
-2.464432722711e-05 -2.598410949159e-05 0.0 
-2.598410949159e-05 1.199804601247e-04 0.0 
0.0 0.0 -2.329771006100e-05 
-1.698720281199e-04 2.819353997162e-05 0.0 
2.819353997162e-05 1.134065551803e-03 0.0 
0.0 0.0 -1.704352672439e-04 
-7.209795018933e-05 2.889480946534e-05 0.0 
2.889480946534e-05 4.471234739761e-04 0.0 
0.0 0.0 -7.178447905439e-05 
-1.214879839983e-04 2.129426116121e-05 0.0 
2.129426116121e-05 7.908873499093e-04 0.0 
0.0 0.0 -1.224926751266e-04 
-1.512350690369e-04 3.260960324541e-05 0.0 
3.260960324541e-05 1.003149541653e-03 0.0 
0.0 0.0 -1.513082552986e-04 
-1.410567308220e-04 -2.849265471453e-05 0.0 
-2.849265471453e-05 9.457036391268e-04 0.0 
0.0 0.0 -1.415828201621e-04 
-1.344535840298e-04 2.612046934124e-05 0.0 
2.612046934124e-05 8.995841949147e-04 0.0 
0.0 0.0 -1.366211047096e-04 
-1.341134389053e-04 2.811410486968e-05 0.0 
2.811410486968e-05 8.812581479058e-04 0.0 
0.0 0.0 -1.340535934895e-04 
-8.946040519151e-05 -2.953905219233e-05 0.0 
-2.953905219233e-05 5.742848433877e-04 0.0 
0.0 0.0 -8.827358089900e-05 
-9.333279709743e-05 -2.369397324284e-05 0.0 
-2.369397324284e-05 6.111413459436e-04 0.0 
0.0 0.0 -9.328238720484e-05 
-1.698818200285e-04 -2.882683013526e-05 0.0 
-2.882683013526e-05 1.144701307571e-03 0.0 
0.0 0.0 -1.700100520615e-04 
-1.409975246060e-04 -3.114270166762e-05 0.0 
-3.114270166762e-05 9.412074701777e-04 0.0 
0.0 0.0 -1.409113068204e-04 
-1.224899796510e-04 -2.844927577316e-05 0.0 
-2.844927577316e-05 8.138192071892e-04 0.0 
0.0 0.0 -1.224729735915e-04 
-1.523712328566e-04 3.064679971689e-05 0.0 
3.064679971689e-05 1.008635964013e-03 0.0 
0.0 0.0 -1.522479562080e-04 
-1.188292947714e-04 2.814854163685e-05 0.0 
2.814854163685e-05 7.741609344605e-04 0.0 
0.0 0.0 -1.187265862058e-04 
-7.698231420718e-05 -2.807470773001e-05 0.0 
-2.807470773001e-05 4.953557652573e-04 0.0 
0.0 0.0 -7.679943085705e-05 
-8.618619312566e-05 2.228028664320e-05 0.0 
2.228028664320e-05 5.633842965339e-04 0.0 
0.0 0.0 -8.862593743002e-05 
-1.284395253225e-04 -2.631768161175e-05 0.0 
-2.631768161175e-05 8.441014789476e-04 0.0 
0.0 0.0 -1.266344217576e-04 
-1.074097245906e-04 1.137855673603e-06 0.0 
1.137855673603e-06 7.273751056144e-04 0.0 
0.0 0.0 -1.068299257544e-04 
-1.648361548193e-04 -2.903405778283e-05 0.0 
-2.903405778283e-05 1.103487992394e-03 0.0 
0.0 0.0 -1.640398004813e-04 
-1.125117604938e-04 -2.832657592519e-05 0.0 
-2.832657592519e-05 7.420818515929e-04 0.0 
0.0 0.0 -1.122952594724e-04 
-1.815273626527e-04 2.648876521301e-05 0.0 
2.648876521301e-05 1.237129381465e-03 0.0 
0.0 0.0 -1.850357933615e-04 
-1.677426973633e-04 3.358700303554e-05 0.0 
3.358700303554e-05 1.121534172788e-03 0.0 
0.0 0.0 -1.681766660669e-04 
-1.238211064038e-04 -2.893923336642e-05 0.0 
-2.893923336642e-05 8.228165218213e-04 0.0 
0.0 0.0 -1.237869166313e-04 
-1.864446355504e-04 -3.208766695310e-05 0.0 
-3.208766695310e-05 1.252430825566e-03 0.0 
0.0 0.0 -1.862208944195e-04 
-8.530940149586e-05 -2.872680214247e-05 0.0 
-2.872680214247e-05 5.536185287289e-04 0.0 
0.0 0.0 -8.523934116932e-05 
-1.812060938045e-04 2.774101611193e-05 0.0 
2.774101611193e-05 1.207038039800e-03 0.0 
0.0 0.0 -1.806723702746e-04 
-1.337032776849e-04 -2.817141114612e-05 0.0 
-2.817141114612e-05 8.910030578001e-04 0.0 
0.0 0.0 -1.336599856011e-04 
-1.477881411962e-04 2.807358610009e-05 0.0 
2.807358610009e-05 9.757986870607e-04 0.0 
0.0 0.0 -1.477205131922e-04 
-1.717661370758e-04 -2.763745373205e-05 0.0 
-2.763745373205e-05 1.155465207730e-03 0.0 
0.0 0.0 -1.720177540750e-04 
-8.915482971043e-05 -2.748298977886e-05 0.0 
-2.748298977886e-05 5.839530331415e-04 0.0 
0.0 0.0 -8.937342098373e-05 
-1.408472522219e-04 2.814178914188e-05 0.0 
2.814178914188e-05 9.273096045331e-04 0.0 
0.0 0.0 -1.405419627762e-04 
-1.183094889317e-04 -2.831962265042e-05 0.0 
-2.831962265042e-05 7.845371880710e-04 0.0 
0.0 0.0 -1.182925860037e-04 
-1.362566173497e-04 -2.854051389334e-05 0.0 
-2.854051389334e-05 9.069235503698e-04 0.0 
0.0 0.0 -1.359850532410e-04 
-7.919830953849e-05 -2.789069310031e-05 0.0 
-2.789069310031e-05 5.092955845790e-04 0.0 
0.0 0.0 -7.902140106529e-05 
-1.521909368861e-04 3.155873557746e-05 0.0 
3.155873557746e-05 1.007096083567e-03 0.0 
0.0 0.0 -1.519844081269e-04 
-1.132987595353e-04 2.834154396761e-05 0.0 
2.834154396761e-05 7.356229622935e-04 0.0 
0.0 0.0 -1.132306032040e-04 
-1.320680958621e-04 2.867292103990e-05 0.0 
2.867292103990e-05 8.674712725503e-04 0.0 
0.0 0.0 -1.321542253869e-04 
-1.368300496681e-04 2.752968636588e-05 0.0 
2.752968636588e-05 8.977721242010e-04 0.0 
0.0 0.0 -1.363712481195e-04 
-2.669160915437e-05 -1.546272424362e-05 0.0 
-1.546272424362e-05 1.161110005952e-04 0.0 
0.0 0.0 -2.089024115593e-05 
-1.363872734664e-04 3.073615465078e-05 0.0 
3.073615465078e-05 8.982822443154e-04 0.0 
0.0 0.0 -1.362374425583e-04 
-3.196098953400e-05 -3.152710847565e-05 0.0 
-3.152710847565e-05 1.832351866553e-04 0.0 
0.0 0.0 -3.246432735143e-05 
-3.780823483309e-05 3.089859502925e-05 0.0 
3.089859502925e-05 2.040662805879e-04 0.0 
0.0 0.0 -3.615541251042e-05 
-1.264532196870e-04 2.805256790047e-05 0.0 
2.805256790047e-05 8.282811887478e-04 0.0 
0.0 0.0 -1.265710825771e-04 
-1.650927065987e-04 -2.992799550430e-05 0.0 
-2.992799550430e-05 1.105940052269e-03 0.0 
0.0 0.0 -1.647532235908e-04 
-1.400518033137e-04 2.658927901254e-05 0.0 
2.658927901254e-05 9.276103799496e-04 0.0 
0.0 0.0 -1.408132903889e-04 
-7.975221115210e-05 -2.926681587233e-05 0.0 
-2.926681587233e-05 5.061325512957e-04 0.0 
0.0 0.0 -7.822954250360e-05 
-2.013483297690e-04 2.032612637039e-06 0.0 
2.032612637039e-06 1.329003344546e-03 0.0 
0.0 0.0 -2.013483297690e-04 
-1.035627632493e-05 2.012317785662e-05 0.0 
2.012317785662e-05 3.911320943316e-05 0.0 
0.0 0.0 -1.232439990353e-05 
-8.383816084979e-05 -1.994127170537e-05 0.0 
-1.994127170537e-05 5.413626143026e-04 0.0 
0.0 0.0 -8.324708519681e-05 
-1.271654449798e-04 2.783994873367e-05 0.0 
2.783994873367e-05 8.320575259278e-04 0.0 
0.0 0.0 -1.270911103786e-04 
-1.205324376648e-04 -2.929888805432e-05 0.0 
-2.929888805432e-05 8.005519843789e-04 0.0 
0.0 0.0 -1.206387729067e-04 
-1.013602283131e-04 -2.480997680423e-05 0.0 
-2.480997680423e-05 6.640206223424e-04 0.0 
0.0 0.0 -1.009985469804e-04 
-8.871913647433e-05 2.734607712163e-05 0.0 
2.734607712163e-05 5.647906116567e-04 0.0 
0.0 0.0 -8.863076730824e-05 
-1.311043943365e-04 -2.976717297625e-05 0.0 
-2.976717297625e-05 8.719910144079e-04 0.0 
0.0 0.0 -1.310072861357e-04 
-1.389619207248e-04 -2.862329341105e-05 0.0 
-2.862329341105e-05 9.281576540868e-04 0.0 
0.0 0.0 -1.390016920470e-04 
-1.460738362541e-04 3.043025274219e-05 0.0 
3.043025274219e-05 9.676325484449e-04 0.0 
0.0 0.0 -1.460128267758e-04 
-1.732762100729e-04 3.047090098963e-05 0.0 
3.047090098963e-05 1.141214836478e-03 0.0 
0.0 0.0 -1.716453415534e-04 
-4.497460723320e-05 2.726656903271e-05 0.0 
2.726656903271e-05 2.561921516371e-04 0.0 
0.0 0.0 -4.464496721659e-05 
-1.166209944052e-04 2.853466779788e-05 0.0 
2.853466779788e-05 7.601119053809e-04 0.0 
0.0 0.0 -1.167719096664e-04 
-1.253239379370e-04 2.802640912089e-05 0.0 
2.802640912089e-05 8.204946388047e-04 0.0 
0.0 0.0 -1.253423245625e-04 
-6.775366326737e-05 -3.048229866519e-05 0.0 
-3.048229866519e-05 4.346213084644e-04 0.0 
0.0 0.0 -6.816034660215e-05 
-1.127220931764e-04 3.280867731043e-05 0.0 
3.280867731043e-05 7.331832316127e-04 0.0 
0.0 0.0 -1.127715562385e-04 
-1.406419564968e-04 -3.010518963226e-05 0.0 
-3.010518963226e-05 9.368893413982e-04 0.0 
0.0 0.0 -1.404347219739e-04 
-1.530603703096e-04 -2.920298263434e-05 0.0 
-2.920298263434e-05 1.018521684544e-03 0.0 
0.0 0.0 -1.535177820318e-04 
-2.288599488340e-05 1.289972043286e-06 0.0 
1.289972043286e-06 1.500050201402e-04 0.0 
0.0 0.0 -2.407863984352e-05 
-1.904718743730e-05 -3.796502735245e-05 0.0 
-3.796502735245e-05 7.353718879473e-05 0.0 
0.0 0.0 -1.778391308807e-05 
-4.862036817725e-05 -2.764492479964e-05 0.0 
-2.764492479964e-05 3.006710189870e-04 0.0 
0.0 0.0 -4.850561850037e-05 
-1.250248464412e-04 -2.908499407456e-05 0.0 
-2.908499407456e-05 8.306354519711e-04 0.0 
0.0 0.0 -1.249513133117e-04 
-9.487833492244e-05 -2.821982749961e-05 0.0 
-2.821982749961e-05 6.208435078207e-04 0.0 
0.0 0.0 -9.483030114460e-05 
-8.410233070287e-05 -2.754579270561e-05 0.0 
-2.754579270561e-05 5.457436342908e-04 0.0 
0.0 0.0 -8.407979340540e-05 
-7.564452835468e-05 -2.812380315554e-05 0.0 
-2.812380315554e-05 4.861034660231e-04 0.0 
0.0 0.0 -7.562371400132e-05 
-1.308199925164e-04 2.795456765413e-05 0.0 
2.795456765413e-05 8.583699019635e-04 0.0 
0.0 0.0 -1.308200345188e-04 
-1.492653203134e-04 2.795966396730e-05 0.0 
2.795966396730e-05 9.867209101107e-04 0.0 
0.0 0.0 -1.493429779604e-04 
-1.297619321001e-04 2.813153916154e-05 0.0 
2.813153916154e-05 8.505758307982e-04 0.0 
0.0 0.0 -1.296493136919e-04 
-9.537410332307e-05 2.792962789421e-05 0.0 
2.792962789421e-05 6.106733548119e-04 0.0 
0.0 0.0 -9.522910944095e-05 
-1.456775150903e-04 -3.018176577816e-05 0.0 
-3.018176577816e-05 9.731377158713e-04 0.0 
0.0 0.0 -1.454913560695e-04 
-1.215295702296e-04 2.461975315803e-05 0.0 
2.461975315803e-05 8.148115380054e-04 0.0 
0.0 0.0 -1.235433054540e-04 
-1.607975492377e-04 3.196445582729e-05 0.0 
3.196445582729e-05 1.071803692603e-03 0.0 
0.0 0.0 -1.614296353785e-04 
-1.294007234012e-04 -2.913608251421e-05 0.0 
-2.913608251421e-05 8.607493369835e-04 0.0 
0.0 0.0 -1.292646442145e-04 
-1.305405341983e-04 -2.882629630394e-05 0.0 
-2.882629630394e-05 8.689129694931e-04 0.0 
0.0 0.0 -1.304223873054e-04 
-6.968339329854e-05 -2.972888482406e-05 0.0 
-2.972888482406e-05 4.334906827197e-04 0.0 
0.0 0.0 -6.822727741190e-05 
-9.912831729497e-05 -2.796137707004e-05 0.0 
-2.796137707004e-05 6.504811582310e-04 0.0 
0.0 0.0 -9.898428703081e-05 
-1.338904054535e-04 2.764565306312e-05 0.0 
2.764565306312e-05 8.796508899650e-04 0.0 
0.0 0.0 -1.339603927656e-04 
-1.451942325546e-04 2.545422836756e-05 0.0 
2.545422836756e-05 9.593435678016e-04 0.0 
0.0 0.0 -1.442355194375e-04 
-1.361868027580e-04 2.709053506538e-05 0.0 
2.709053506538e-05 9.012697796478e-04 0.0 
0.0 0.0 -1.345837404303e-04 
-7.449260603113e-05 -2.324565781608e-05 0.0 
-2.324565781608e-05 4.730958793735e-04 0.0 
0.0 0.0 -7.319231467821e-05 
-1.351502038915e-04 2.830190167801e-05 0.0 
2.830190167801e-05 8.885438377553e-04 0.0 
0.0 0.0 -1.351067771782e-04 
-8.277379542059e-05 -2.675056815443e-05 0.0 
-2.675056815443e-05 5.366126160003e-04 0.0 
0.0 0.0 -8.276526902223e-05 
-4.268302624522e-05 2.966411434536e-05 0.0 
2.966411434536e-05 2.450626322876e-04 0.0 
0.0 0.0 -4.217020858377e-05 
-1.783377964352e-04 -2.878462420289e-05 0.0 
-2.878462420289e-05 1.216695363592e-03 0.0 
0.0 0.0 -1.804362660462e-04 
-4.529678387534e-05 2.926161683405e-05 0.0 
2.926161683405e-05 2.590325448345e-04 0.0 
0.0 0.0 -4.529806102550e-05 
-8.742939480876e-05 2.790769408488e-05 0.0 
2.790769408488e-05 5.558475884308e-04 0.0 
0.0 0.0 -8.733313829944e-05 
-1.317265343520e-04 -2.980209858436e-05 0.0 
-2.980209858436e-05 8.750838916963e-04 0.0 
0.0 0.0 -1.314978247514e-04 
-7.591084973546e-05 2.107875529606e-05 0.0 
2.107875529606e-05 4.931826175602e-04 0.0 
0.0 0.0 -7.859944172783e-05 
-1.334719851974e-04 -2.966915358544e-05 0.0 
-2.966915358544e-05 8.920345164479e-04 0.0 
0.0 0.0 -1.335848452069e-04 
-6.387562636780e-05 -3.268343600872e-05 0.0 
-3.268343600872e-05 4.032800898130e-04 0.0 
0.0 0.0 -6.423763444998e-05 
-1.136812058642e-04 -2.481450603128e-05 0.0 
-2.481450603128e-05 7.554211615018e-04 0.0 
0.0 0.0 -1.173522912428e-04 
-1.350637719422e-04 -2.838472714175e-05 0.0 
-2.838472714175e-05 8.988460543843e-04 0.0 
0.0 0.0 -1.347247148155e-04 
-1.171592619295e-04 -2.801384878721e-05 0.0 
-2.801384878721e-05 7.755561146277e-04 0.0 
0.0 0.0 -1.170018866078e-04 
-1.217089587309e-04 -2.902247236899e-05 0.0 
-2.902247236899e-05 8.097798257773e-04 0.0 
0.0 0.0 -1.219000842292e-04 
-2.184335631700e-05 -1.729926300555e-05 0.0 
-1.729926300555e-05 1.250103729472e-04 0.0 
0.0 0.0 -2.233965624082e-05 
-1.775429286585e-04 -2.993860203194e-05 0.0 
-2.993860203194e-05 1.168952343716e-03 0.0 
0.0 0.0 -1.728850973588e-04 
-9.777928932074e-05 -2.702797086344e-05 0.0 
-2.702797086344e-05 6.417468029030e-04 0.0 
0.0 0.0 -9.771858906392e-05 
-1.742936274983e-04 3.098695444566e-05 0.0 
3.098695444566e-05 1.160612036868e-03 0.0 
0.0 0.0 -1.731059224200e-04 
-1.475958375390e-04 -2.938015971493e-05 0.0 
-2.938015971493e-05 9.867581376832e-04 0.0 
0.0 0.0 -1.473178670231e-04 
-1.394115090974e-04 2.895092753690e-05 0.0 
2.895092753690e-05 9.183306099949e-04 0.0 
0.0 0.0 -1.394094752486e-04 
-1.392759160733e-04 -2.661746757661e-05 0.0 
-2.661746757661e-05 9.284264619517e-04 0.0 
0.0 0.0 -1.390298226761e-04 
-8.994283602845e-05 2.778083834669e-05 0.0 
2.778083834669e-05 5.730895634602e-04 0.0 
0.0 0.0 -8.984374554363e-05 
-2.917258118515e-05 2.376164554401e-05 0.0 
2.376164554401e-05 1.745437757761e-04 0.0 
0.0 0.0 -3.155138587282e-05 
-2.317643182854e-05 1.790083138541e-05 0.0 
1.790083138541e-05 9.845334346925e-05 0.0 
0.0 0.0 -2.398754234351e-05 
-1.432208171698e-04 2.892878557249e-05 0.0 
2.892878557249e-05 9.478265663156e-04 0.0 
0.0 0.0 -1.437459767248e-04 
-1.740260011077e-04 2.826019241499e-05 0.0 
2.826019241499e-05 1.153801197259e-03 0.0 
0.0 0.0 -1.722084272143e-04 
-8.118601345419e-05 -2.611344377703e-05 0.0 
-2.611344377703e-05 5.279662901466e-04 0.0 
0.0 0.0 -8.139371786675e-05 
-1.500944745800e-04 2.850222383988e-05 0.0 
2.850222383988e-05 9.934228736818e-04 0.0 
0.0 0.0 -1.501054273671e-04 
-7.521111464244e-05 2.846605665054e-05 0.0 
2.846605665054e-05 4.657051250380e-04 0.0 
0.0 0.0 -7.503141475880e-05 
-1.512386812048e-04 -2.992568848289e-05 0.0 
-2.992568848289e-05 1.010913185445e-03 0.0 
0.0 0.0 -1.508421041237e-04 
-1.913679647201e-04 1.633067843082e-05 0.0 
1.633067843082e-05 1.304046368860e-03 0.0 
0.0 0.0 -1.899801870201e-04 
-8.107065812765e-06 2.346749919756e-06 0.0 
2.346749919756e-06 3.465691143960e-05 0.0 
0.0 0.0 -6.768710104395e-06 
-2.012431250737e-04 -5.135354168430e-06 0.0 
-5.135354168430e-06 1.328125823973e-03 0.0 
0.0 0.0 -2.012431250738e-04 
-2.010076978229e-04 5.129027623315e-07 0.0 
5.129027623315e-07 1.332224423205e-03 0.0 
0.0 0.0 -2.010076978229e-04 
-1.200525084162e-04 -2.960169498126e-05 0.0 
-2.960169498126e-05 7.774099100136e-04 0.0 
0.0 0.0 -1.193279669386e-04 
-9.640785059628e-05 -2.657435829226e-05 0.0 
-2.657435829226e-05 6.329376874412e-04 0.0 
0.0 0.0 -9.642369099328e-05 
-1.430993903661e-04 -2.855154632445e-05 0.0 
-2.855154632445e-05 9.576101063938e-04 0.0 
0.0 0.0 -1.431539317715e-04 
-9.069725416876e-05 -2.857026822921e-05 0.0 
-2.857026822921e-05 5.911546440220e-04 0.0 
0.0 0.0 -9.061723822400e-05 
-3.022990634783e-05 -2.681786409130e-05 0.0 
-2.681786409130e-05 1.822763229384e-04 0.0 
0.0 0.0 -3.143827221009e-05 
-2.037753453247e-05 -2.478655429001e-05 0.0 
-2.478655429001e-05 8.790842240506e-05 0.0 
0.0 0.0 -1.801817686168e-05 
-1.836175097671e-04 -2.402430245032e-05 0.0 
-2.402430245032e-05 1.223987652140e-03 0.0 
0.0 0.0 -1.814249121503e-04 
-1.450545934085e-04 -3.153145532631e-05 0.0 
-3.153145532631e-05 9.685145142433e-04 0.0 
0.0 0.0 -1.447226300079e-04 
-1.125869054840e-04 -2.748101964700e-05 0.0 
-2.748101964700e-05 7.294325003239e-04 0.0 
0.0 0.0 -1.083718385576e-04 
-1.962159152819e-04 -1.434651956338e-06 0.0 
-1.434651956338e-06 1.365722808943e-03 0.0 
0.0 0.0 -1.985491694924e-04 
-5.585822177885e-05 -3.143630658045e-05 0.0 
-3.143630658045e-05 3.376755851757e-04 0.0 
0.0 0.0 -5.423556500690e-05 
-2.007881053171e-04 -1.726199718446e-06 0.0 
-1.726199718446e-06 1.364640639189e-03 0.0 
0.0 0.0 -1.987362728011e-04 
-1.448517594688e-04 2.793135192776e-05 0.0 
2.793135192776e-05 9.587643079544e-04 0.0 
0.0 0.0 -1.450563315224e-04 
-9.484276981656e-05 -2.674005154729e-05 0.0 
-2.674005154729e-05 6.234132904817e-04 0.0 
0.0 0.0 -9.504591620249e-05 
-1.382279383007e-04 2.787393037445e-05 0.0 
2.787393037445e-05 9.097739666025e-04 0.0 
0.0 0.0 -1.381945852821e-04 
-9.142868377808e-05 2.725850192794e-05 0.0 
2.725850192794e-05 5.832477346610e-04 0.0 
0.0 0.0 -9.142251929393e-05 
-4.742959093977e-05 3.178494059526e-05 0.0 
3.178494059526e-05 2.793740196453e-04 0.0 
0.0 0.0 -4.740468724644e-05 
-8.571259270612e-05 2.828259101351e-05 0.0 
2.828259101351e-05 5.446684396391e-04 0.0 
0.0 0.0 -8.592027974235e-05 
-1.533744480417e-04 2.894142802439e-05 0.0 
2.894142802439e-05 1.015636410024e-03 0.0 
0.0 0.0 -1.535624635791e-04 
-1.726464644829e-04 -3.048637260420e-05 0.0 
-3.048637260420e-05 1.163840887987e-03 0.0 
0.0 0.0 -1.733086171842e-04 
-9.280503597506e-05 2.727322910805e-05 0.0 
2.727322910805e-05 5.925489514016e-04 0.0 
0.0 0.0 -9.272779504641e-05 
-1.556220947506e-04 2.834035430819e-05 0.0 
2.834035430819e-05 1.030951438499e-03 0.0 
0.0 0.0 -1.554407367389e-04 
0.0 0.0 0.0 
0.0 0.0 0.0 
0.0 0.0 0.0 
-9.414991845574e-05 2.689042394907e-05 0.0 
2.689042394907e-05 6.016400273679e-04 0.0 
0.0 0.0 -9.399423243866e-05 
-1.601427960654e-04 -3.089969489527e-05 0.0 
-3.089969489527e-05 1.075322883485e-03 0.0 
0.0 0.0 -1.599578041173e-04 
-8.403714033751e-05 2.869873894183e-05 0.0 
2.869873894183e-05 5.323289088036e-04 0.0 
0.0 0.0 -8.424104700772e-05 
-7.551475753824e-05 -2.649474593413e-05 0.0 
-2.649474593413e-05 4.894460977115e-04 0.0 
0.0 0.0 -7.579321247091e-05 
-1.378493770478e-04 -2.790966319756e-05 0.0 
-2.790966319756e-05 9.196714216363e-04 0.0 
0.0 0.0 -1.378141772466e-04 
-4.197657932346e-05 3.036843921012e-05 0.0 
3.036843921012e-05 2.488746108878e-04 0.0 
0.0 0.0 -4.469345153978e-05 
-6.356553012414e-05 -1.790556961603e-05 0.0 
-1.790556961603e-05 3.571998655218e-04 0.0 
0.0 0.0 -5.800805537475e-05 
-5.963646489739e-05 -2.697912930355e-05 0.0 
-2.697912930355e-05 4.061213774054e-04 0.0 
0.0 0.0 -6.293882513644e-05 
-7.444587698182e-05 2.773637856154e-05 0.0 
2.773637856154e-05 4.649609944167e-04 0.0 
0.0 0.0 -7.460064588462e-05 
-1.268907598115e-04 -2.860718727315e-05 0.0 
-2.860718727315e-05 8.433503837867e-04 0.0 
0.0 0.0 -1.266626700847e-04 
-1.224386685492e-04 2.875829832121e-05 0.0 
2.875829832121e-05 7.993143987396e-04 0.0 
0.0 0.0 -1.222099179032e-04 
-1.550707846259e-04 -3.021300247570e-05 0.0 
-3.021300247570e-05 1.039277942014e-03 0.0 
0.0 0.0 -1.550846054886e-04 
-1.832450820655e-04 1.991288128733e-05 0.0 
1.991288128733e-05 1.215795306098e-03 0.0 
0.0 0.0 -1.836391296960e-04 
-6.655985465225e-05 1.933551370614e-05 0.0 
1.933551370614e-05 4.236408710896e-04 0.0 
0.0 0.0 -6.856221390244e-05 
-1.539423275274e-04 -3.704467856056e-05 0.0 
-3.704467856056e-05 1.025688764769e-03 0.0 
0.0 0.0 -1.542931291103e-04 
-1.848510975897e-04 1.848398553320e-05 0.0 
1.848398553320e-05 1.219703446086e-03 0.0 
0.0 0.0 -1.842621829813e-04 
-8.571771551762e-05 2.855827741082e-05 0.0 
2.855827741082e-05 5.438756567258e-04 0.0 
0.0 0.0 -8.561402555334e-05 
-3.203347885951e-05 3.153292785458e-05 0.0 
3.153292785458e-05 1.785175093333e-04 0.0 
0.0 0.0 -3.288300492123e-05 
-7.987216545887e-05 -2.346764247849e-05 0.0 
-2.346764247849e-05 5.184929031400e-04 0.0 
0.0 0.0 -7.995251146095e-05 
-1.212808198145e-04 -2.827766812275e-05 0.0 
-2.827766812275e-05 8.042920459384e-04 0.0 
0.0 0.0 -1.212446555230e-04 
-1.571887129407e-04 2.934596798488e-05 0.0 
2.934596798488e-05 1.038696799089e-03 0.0 
0.0 0.0 -1.564536520703e-04 
-1.218972312950e-04 2.856394456649e-05 0.0 
2.856394456649e-05 7.946681320418e-04 0.0 
0.0 0.0 -1.216241541690e-04 
-3.687132775950e-05 -1.707295352198e-05 0.0 
-1.707295352198e-05 2.178919936982e-04 0.0 
0.0 0.0 -3.514573890614e-05 
-1.365304663594e-04 -3.020632721963e-05 0.0 
-3.020632721963e-05 9.106175701847e-04 0.0 
0.0 0.0 -1.364410292409e-04 
-5.340251844815e-05 3.227075763275e-05 0.0 
3.227075763275e-05 3.197704478175e-04 0.0 
0.0 0.0 -5.262769246444e-05 
-1.221027789088e-04 -2.890393133813e-05 0.0 
-2.890393133813e-05 8.084198513028e-04 0.0 
0.0 0.0 -1.218536047623e-04 
-1.315166503229e-04 3.036725150384e-05 0.0 
3.036725150384e-05 8.626782461118e-04 0.0 
0.0 0.0 -1.313414595827e-04 
-1.426434875643e-04 2.845461346825e-05 0.0 
2.845461346825e-05 9.398077750181e-04 0.0 
0.0 0.0 -1.423708775668e-04 
-1.391130870296e-04 -2.561595399108e-05 0.0 
-2.561595399108e-05 9.319163416573e-04 0.0 
0.0 0.0 -1.424111980137e-04 
-7.359597002428e-05 -2.624347751830e-05 0.0 
-2.624347751830e-05 4.769960883137e-04 0.0 
0.0 0.0 -7.400431453448e-05 
-3.726862459375e-05 2.779553031089e-05 0.0 
2.779553031089e-05 2.059200017464e-04 0.0 
0.0 0.0 -3.689331396917e-05 
-1.412883241773e-04 3.117267937368e-05 0.0 
3.117267937368e-05 9.320815795036e-04 0.0 
0.0 0.0 -1.412299401741e-04 
-5.695030605691e-05 2.980577594809e-05 0.0 
2.980577594809e-05 3.524536248651e-04 0.0 
0.0 0.0 -5.785728901387e-05 
-1.619887946569e-05 3.142044942513e-05 0.0 
3.142044942513e-05 6.578946746101e-05 0.0 
0.0 0.0 -1.807788326025e-05 
-1.825504858472e-04 2.573963131551e-05 0.0 
2.573963131551e-05 1.217305172889e-03 0.0 
0.0 0.0 -1.835083836816e-04 
-1.729233565602e-04 2.872122229116e-05 0.0 
2.872122229116e-05 1.159887577617e-03 0.0 
0.0 0.0 -1.736153457326e-04 
-1.409164917213e-05 -2.430425574027e-06 0.0 
-2.430425574027e-06 4.702851798331e-05 0.0 
0.0 0.0 -1.411580091908e-05 
-1.463665932977e-04 -3.126704961804e-05 0.0 
-3.126704961804e-05 9.787427797795e-04 0.0 
0.0 0.0 -1.463746444899e-04 
-5.845062236023e-05 -2.645214861765e-05 0.0 
-2.645214861765e-05 3.686249821293e-04 0.0 
0.0 0.0 -5.830856659963e-05 
-6.281564360845e-05 3.169608016734e-05 0.0 
3.169608016734e-05 3.841253318981e-04 0.0 
0.0 0.0 -6.293782921230e-05 
-1.650668794472e-04 2.900743383490e-05 0.0 
2.900743383490e-05 1.099051719168e-03 0.0 
0.0 0.0 -1.651106757487e-04 
-1.420507125182e-04 -2.816985865578e-05 0.0 
-2.816985865578e-05 9.486624777595e-04 0.0 
0.0 0.0 -1.420128425420e-04 
-1.597126278327e-04 2.832051794153e-05 0.0 
2.832051794153e-05 1.060784632571e-03 0.0 
0.0 0.0 -1.597282110823e-04 
-9.370204679761e-05 -2.720544142818e-05 0.0 
-2.720544142818e-05 6.123683048539e-04 0.0 
0.0 0.0 -9.358332744048e-05 
-1.060009958935e-04 3.119096932655e-06 0.0 
3.119096932655e-06 7.289348751363e-04 0.0 
0.0 0.0 -1.065887642422e-04 
-1.941219239478e-04 -5.797046838501e-06 0.0 
-5.797046838501e-06 1.266619729961e-03 0.0 
0.0 0.0 -1.922307546206e-04 
-5.313245642963e-05 3.042191767076e-05 0.0 
3.042191767076e-05 3.144966903172e-04 0.0 
0.0 0.0 -5.312725273094e-05 
-1.687809558173e-04 -2.631258109430e-05 0.0 
-2.631258109430e-05 1.128223470622e-03 0.0 
0.0 0.0 -1.681832374459e-04 
-1.273764443761e-04 -2.878158037897e-05 0.0 
-2.878158037897e-05 8.455758404914e-04 0.0 
0.0 0.0 -1.271565067773e-04 
-3.822255344261e-05 2.500156110728e-05 0.0 
2.500156110728e-05 2.364164359659e-04 0.0 
0.0 0.0 -4.338531818388e-05 
-1.526166386163e-04 2.805935182056e-05 0.0 
2.805935182056e-05 1.007602313688e-03 0.0 
0.0 0.0 -1.522749921841e-04 
-9.947746693308e-05 2.785738393031e-05 0.0 
2.785738393031e-05 6.395594624911e-04 0.0 
0.0 0.0 -9.942043292989e-05 
-2.527098467302e-05 3.065658406321e-06 0.0 
3.065658406321e-06 1.096951272292e-04 0.0 
0.0 0.0 -2.686452779226e-05 
-8.455323570062e-05 2.729291629105e-05 0.0 
2.729291629105e-05 5.361235094493e-04 0.0 
0.0 0.0 -8.448194383576e-05 
-1.482631539770e-04 2.903868462658e-05 0.0 
2.903868462658e-05 9.945552025979e-04 0.0 
0.0 0.0 -1.487312575846e-04 
-1.536438978435e-04 -2.997531100621e-05 0.0 
-2.997531100621e-05 1.028351940357e-03 0.0 
0.0 0.0 -1.531470540813e-04 
-4.003077281978e-05 -2.830715996030e-05 0.0 
-2.830715996030e-05 2.471369193857e-04 0.0 
0.0 0.0 -4.069786302508e-05 
-1.167976821101e-04 -1.770134624163e-05 0.0 
-1.770134624163e-05 8.139301953201e-04 0.0 
0.0 0.0 -1.211443205810e-04 
-1.611165232338e-04 2.978772478272e-05 0.0 
2.978772478272e-05 1.070172218379e-03 0.0 
0.0 0.0 -1.607673801326e-04 
-1.654344347163e-04 -2.702413096073e-05 0.0 
-2.702413096073e-05 1.117079121565e-03 0.0 
0.0 0.0 -1.664840065771e-04 
-8.012874751740e-05 2.708679385402e-05 0.0 
2.708679385402e-05 5.044541792441e-04 0.0 
0.0 0.0 -8.027607217676e-05 
-6.457567760665e-05 2.897485867730e-05 0.0 
2.897485867730e-05 3.931630492274e-04 0.0 
0.0 0.0 -6.500901228656e-05 
-1.319964825975e-04 2.994843719676e-05 0.0 
2.994843719676e-05 8.668112520758e-04 0.0 
0.0 0.0 -1.317940137408e-04 
-1.379973298544e-04 -3.231272729127e-05 0.0 
-3.231272729127e-05 9.176099760799e-04 0.0 
0.0 0.0 -1.391846276019e-04 
-2.511391392826e-05 -2.252014201736e-06 0.0 
-2.252014201736e-06 1.091572524748e-04 0.0 
0.0 0.0 -2.644390370036e-05 
-1.911173997413e-04 2.513512913462e-07 0.0 
2.513512913462e-07 1.307038771946e-03 0.0 
0.0 0.0 -1.903768894597e-04 
-1.947762233824e-04 2.804254327122e-06 0.0 
2.804254327122e-06 1.266513292292e-03 0.0 
0.0 0.0 -1.921796786394e-04 
-1.243941132727e-04 -2.875762744524e-05 0.0 
-2.875762744524e-05 8.122420463557e-04 0.0 
0.0 0.0 -1.258162180156e-04 
-1.867429468804e-04 -3.423015533406e-05 0.0 
-3.423015533406e-05 1.277419804644e-03 0.0 
0.0 0.0 -1.882556412575e-04 
-1.928393192665e-04 1.313739391776e-05 0.0 
1.313739391776e-05 1.270533835261e-03 0.0 
0.0 0.0 -1.928249870753e-04 
-9.825942552837e-05 2.769137061349e-05 0.0 
2.769137061349e-05 6.308847079493e-04 0.0 
0.0 0.0 -9.814123251155e-05 
-9.240950567659e-05 -2.688842748606e-05 0.0 
-2.688842748606e-05 6.034653479681e-04 0.0 
0.0 0.0 -9.230175702903e-05 
-1.924550016248e-04 -5.517505549701e-06 0.0 
-5.517505549701e-06 1.309202189480e-03 0.0 
0.0 0.0 -1.898303498781e-04 
0.0 0.0 0.0 
0.0 0.0 0.0 
0.0 0.0 0.0 
-5.986600181462e-05 3.134474346182e-05 0.0 
3.134474346182e-05 3.637594613067e-04 0.0 
0.0 0.0 -5.912561730725e-05 
-1.277191406744e-04 3.185114804781e-05 0.0 
3.185114804781e-05 8.113680378929e-04 0.0 
0.0 0.0 -1.249421346972e-04 
-7.954199844612e-05 -2.599168722282e-05 0.0 
-2.599168722282e-05 5.172406604270e-04 0.0 
0.0 0.0 -7.970319495692e-05 
-8.344577563047e-05 2.767374510833e-05 0.0 
2.767374510833e-05 5.269368746357e-04 0.0 
0.0 0.0 -8.320397106721e-05 
-5.123352415357e-05 -1.962082412885e-05 0.0 
-1.962082412885e-05 2.833973025222e-04 0.0 
0.0 0.0 -4.794777681703e-05 
-5.363517740645e-05 -2.722736862369e-05 0.0 
-2.722736862369e-05 3.397176592673e-04 0.0 
0.0 0.0 -5.292094912726e-05 
-1.229699465830e-04 -2.474218581881e-05 0.0 
-2.474218581881e-05 8.338820409090e-04 0.0 
0.0 0.0 -1.243503989146e-04 
-8.954054874187e-05 -2.810899154469e-05 0.0 
-2.810899154469e-05 5.833404363378e-04 0.0 
0.0 0.0 -8.944382273678e-05 
-6.985122537492e-05 2.547846832151e-05 0.0 
2.547846832151e-05 4.232868362094e-04 0.0 
0.0 0.0 -6.875210277632e-05 
-1.622986423916e-04 3.030474729067e-05 0.0 
3.030474729067e-05 1.075790270672e-03 0.0 
0.0 0.0 -1.616748170441e-04 
-1.970457297167e-04 -4.615350947608e-07 0.0 
-4.615350947608e-07 1.365353191212e-03 0.0 
0.0 0.0 -1.987468137814e-04 
-2.011643228250e-04 -1.059779547839e-05 0.0 
-1.059779547839e-05 1.364052595584e-03 0.0 
0.0 0.0 -1.980937377599e-04 
-9.693254618166e-05 2.783443467965e-05 0.0 
2.783443467965e-05 6.218009159431e-04 0.0 
0.0 0.0 -9.686140561256e-05 
-1.156312054849e-04 1.562675777246e-05 0.0 
1.562675777246e-05 7.473137010807e-04 0.0 
0.0 0.0 -1.181631233816e-04 
-1.315446083417e-05 9.267234980748e-06 0.0 
9.267234980748e-06 7.174483292748e-05 0.0 
0.0 0.0 -1.382283957119e-05 
-3.950432290439e-05 -3.304652588177e-05 0.0 
-3.304652588177e-05 2.232498512061e-04 0.0 
0.0 0.0 -3.848526569788e-05 
-4.026754611448e-05 -1.523950676683e-05 0.0 
-1.523950676683e-05 2.585395099571e-04 0.0 
0.0 0.0 -4.089435477168e-05 
-4.405717477573e-05 -2.840252196370e-05 0.0 
-2.840252196370e-05 2.593828358352e-04 0.0 
0.0 0.0 -4.353896887732e-05 
-1.369891124347e-04 -2.938640967182e-05 0.0 
-2.938640967182e-05 9.110848461242e-04 0.0 
0.0 0.0 -1.367406709454e-04 
-8.197230901988e-05 2.741985235272e-05 0.0 
2.741985235272e-05 5.176025942286e-04 0.0 
0.0 0.0 -8.189493801327e-05 
-8.833783776842e-05 -2.742859021068e-05 0.0 
-2.742859021068e-05 5.752104247670e-04 0.0 
0.0 0.0 -8.819787836180e-05 
-2.759805077317e-05 -2.177954618106e-05 0.0 
-2.177954618106e-05 1.516326812049e-04 0.0 
0.0 0.0 -2.410601229523e-05 
-1.783949706295e-04 4.652042299768e-06 0.0 
4.652042299768e-06 1.155328432911e-03 0.0 
0.0 0.0 -1.764490618968e-04 
-8.697929300319e-05 -2.712992243026e-05 0.0 
-2.712992243026e-05 5.660070619168e-04 0.0 
0.0 0.0 -8.689161518363e-05 
-1.811862770176e-04 2.958422209347e-05 0.0 
2.958422209347e-05 1.212546250600e-03 0.0 
0.0 0.0 -1.819436774484e-04 
-1.654326848783e-04 -2.150075195991e-05 0.0 
-2.150075195991e-05 1.111682717818e-03 0.0 
0.0 0.0 -1.676190675002e-04 
-1.990579489887e-04 7.558524711792e-06 0.0 
7.558524711792e-06 1.367618541641e-03 0.0 
0.0 0.0 -1.979127976728e-04 
-1.984740657803e-04 6.169813976071e-06 0.0 
6.169813976071e-06 1.366684838106e-03 0.0 
0.0 0.0 -1.987274449783e-04 
-1.264382104229e-04 2.327908082404e-05 0.0 
2.327908082404e-05 8.335131054815e-04 0.0 
0.0 0.0 -1.247270797671e-04 
-9.081273998971e-05 -2.642393334738e-05 0.0 
-2.642393334738e-05 5.943836386239e-04 0.0 
0.0 0.0 -9.095240399918e-05 
-5.659837629473e-05 2.310276724227e-05 0.0 
2.310276724227e-05 3.554825826269e-04 0.0 
0.0 0.0 -5.827376162698e-05 
-9.543789626242e-05 2.821234483008e-05 0.0 
2.821234483008e-05 6.121934733358e-04 0.0 
0.0 0.0 -9.551854370315e-05 
-2.014992525440e-04 -3.363348043908e-06 0.0 
-3.363348043908e-06 1.330768717372e-03 0.0 
0.0 0.0 -2.014992525441e-04 
-2.911856940717e-05 -3.120254985375e-05 0.0 
-3.120254985375e-05 1.523266154115e-04 0.0 
0.0 0.0 -2.840051313461e-05 
-3.367815072839e-05 -2.539476975202e-05 0.0 
-2.539476975202e-05 1.888854888445e-04 0.0 
0.0 0.0 -3.342821812567e-05 
-1.750673059660e-04 -2.242675268741e-05 0.0 
-2.242675268741e-05 1.168754862597e-03 0.0 
0.0 0.0 -1.734041932760e-04 
-1.140629508000e-04 1.641024004697e-06 0.0 
1.641024004697e-06 7.886218254393e-04 0.0 
0.0 0.0 -1.157284414847e-04 
-1.828276393895e-04 3.087967014604e-05 0.0 
3.087967014604e-05 1.221678860241e-03 0.0 
0.0 0.0 -1.828919613360e-04 
-1.607219730026e-04 -3.054484747270e-05 0.0 
-3.054484747270e-05 1.076626864861e-03 0.0 
0.0 0.0 -1.604417944905e-04 
-1.759974315114e-04 2.950983775753e-05 0.0 
2.950983775753e-05 1.175337678647e-03 0.0 
0.0 0.0 -1.762554578086e-04 
-1.677687622884e-04 -3.310916950601e-05 0.0 
-3.310916950601e-05 1.126220187005e-03 0.0 
0.0 0.0 -1.670365378361e-04 
-1.261810872000e-04 2.733892666963e-05 0.0 
2.733892666963e-05 8.227216474371e-04 0.0 
0.0 0.0 -1.281412631256e-04 
-6.984160407426e-05 -2.569852845702e-05 0.0 
-2.569852845702e-05 4.502664572317e-04 0.0 
0.0 0.0 -7.011576570921e-05 
-7.045526019658e-05 2.772076042237e-05 0.0 
2.772076042237e-05 4.380896674180e-04 0.0 
0.0 0.0 -7.073545507566e-05 
-1.466548664850e-04 2.792940741624e-05 0.0 
2.792940741624e-05 9.823660011168e-04 0.0 
0.0 0.0 -1.494458990106e-04 
-1.706023771645e-04 -3.477697252798e-05 0.0 
-3.477697252798e-05 1.150206027511e-03 0.0 
0.0 0.0 -1.713759566437e-04 
-1.085001106667e-04 5.928666841059e-06 0.0 
5.928666841059e-06 6.853690661460e-04 0.0 
0.0 0.0 -1.101783339608e-04 
-1.150649004483e-04 1.412858253897e-06 0.0 
1.412858253897e-06 7.864362268725e-04 0.0 
0.0 0.0 -1.151410349708e-04 
-1.223216217609e-04 -9.643435354381e-06 0.0 
-9.643435354381e-06 8.365929199838e-04 0.0 
0.0 0.0 -1.236345454383e-04 
-1.294729616351e-04 -3.600365409418e-05 0.0 
-3.600365409418e-05 8.499666954327e-04 0.0 
0.0 0.0 -1.270110218628e-04 
-3.781341392471e-05 2.507622857635e-05 0.0 
2.507622857635e-05 2.052845259731e-04 0.0 
0.0 0.0 -3.595854163006e-05 
-6.458682171984e-05 2.659164458955e-05 0.0 
2.659164458955e-05 3.972184272214e-04 0.0 
0.0 0.0 -6.502768632134e-05 
-1.923886982600e-04 1.320998767323e-05 0.0 
1.320998767323e-05 1.306937799646e-03 0.0 
0.0 0.0 -1.903965550180e-04 
-1.361980047059e-04 -3.247265742576e-05 0.0 
-3.247265742576e-05 9.100748945017e-04 0.0 
0.0 0.0 -1.372586556570e-04 
-1.944603101426e-04 2.205610195430e-05 0.0 
2.205610195430e-05 1.300606094326e-03 0.0 
0.0 0.0 -1.942983085767e-04 
-1.827075834453e-04 -2.487186144062e-05 0.0 
-2.487186144062e-05 1.245028194062e-03 0.0 
0.0 0.0 -1.823366321910e-04 
-1.526241956249e-04 -2.882515710348e-05 0.0 
-2.882515710348e-05 1.018355065020e-03 0.0 
0.0 0.0 -1.518848343264e-04 
-1.838055376607e-04 -2.220867482896e-05 0.0 
-2.220867482896e-05 1.227930453973e-03 0.0 
0.0 0.0 -1.822360600334e-04 
-9.189141723329e-05 2.249896247985e-05 0.0 
2.249896247985e-05 5.929179490977e-04 0.0 
0.0 0.0 -9.456744988920e-05 
-8.923687427635e-05 2.330452976089e-05 0.0 
2.330452976089e-05 5.640846174988e-04 0.0 
0.0 0.0 -8.500284120953e-05 
-1.860377161479e-04 2.101899850403e-05 0.0 
2.101899850403e-05 1.219211786622e-03 0.0 
0.0 0.0 -1.840276857211e-04 
-1.302266885565e-05 9.542950408396e-06 0.0 
9.542950408396e-06 4.432884133333e-05 0.0 
0.0 0.0 -1.341693106186e-05 
-5.991703112053e-05 -9.650650547908e-06 0.0 
-9.650650547908e-06 3.995700475142e-04 0.0 
0.0 0.0 -6.107461134110e-05 
-2.013608632250e-04 -1.747935064147e-06 0.0 
-1.747935064147e-06 1.327091793787e-03 0.0 
0.0 0.0 -2.013608632250e-04 
-3.423275746667e-05 -2.897869870394e-05 0.0 
-2.897869870394e-05 1.741934079208e-04 0.0 
0.0 0.0 -3.398704224317e-05 
-1.166987184465e-04 3.376260708005e-06 0.0 
3.376260708005e-06 7.464150060637e-04 0.0 
0.0 0.0 -1.180517715949e-04 
-1.852951862543e-04 -6.895901531865e-06 0.0 
-6.895901531865e-06 1.252882415007e-03 0.0 
0.0 0.0 -1.820192905179e-04 
-2.189567273794e-05 2.107266617838e-05 0.0 
2.107266617838e-05 1.234442803628e-04 0.0 
0.0 0.0 -2.343543478003e-05 
-1.465373239062e-05 -6.700273643796e-06 0.0 
-6.700273643796e-06 8.151640789741e-05 0.0 
0.0 0.0 -1.499806864391e-05 
-1.979646109231e-04 -1.647947049056e-05 0.0 
-1.647947049056e-05 1.362929175419e-03 0.0 
0.0 0.0 -1.986584787576e-04 
-1.077110760694e-04 1.347870292468e-05 0.0 
1.347870292468e-05 6.884288505410e-04 0.0 
0.0 0.0 -1.094181415373e-04 
-1.878064882795e-04 3.303246132633e-05 0.0 
3.303246132633e-05 1.280874072015e-03 0.0 
0.0 0.0 -1.892127523904e-04 
-1.872574646803e-04 1.669387870556e-06 0.0 
1.669387870556e-06 1.214710811889e-03 0.0 
0.0 0.0 -1.847787516803e-04 
-1.081384153803e-04 -8.265982315710e-06 0.0 
-8.265982315710e-06 6.863175329085e-04 0.0 
0.0 0.0 -1.093391956339e-04 
-1.183108474329e-05 -1.526745450730e-06 0.0 
-1.526745450730e-06 8.288041116295e-05 0.0 
0.0 0.0 -1.461037633882e-05 
-1.928461778371e-04 -1.450363078147e-05 0.0 
-1.450363078147e-05 1.269631515360e-03 0.0 
0.0 0.0 -1.926211076318e-04 
-3.664328028393e-05 -3.474192895717e-05 0.0 
-3.474192895717e-05 2.008554549357e-04 0.0 
0.0 0.0 -3.650318340572e-05 
-1.865092181227e-04 1.872239000524e-05 0.0 
1.872239000524e-05 1.228864859043e-03 0.0 
0.0 0.0 -1.848276476440e-04 
-2.014642658289e-04 -8.318866801395e-08 0.0 
-8.318866801395e-08 1.329164711416e-03 0.0 
0.0 0.0 -2.014642658289e-04 
-1.863725232052e-04 -2.215017484820e-05 0.0 
-2.215017484820e-05 1.224672282405e-03 0.0 
0.0 0.0 -1.838550531888e-04 
-4.579760219593e-05 2.993393437161e-05 0.0 
2.993393437161e-05 2.630911927245e-04 0.0 
0.0 0.0 -4.567146191493e-05 
-1.231376912533e-04 3.302421736628e-06 0.0 
3.302421736628e-06 8.455036824614e-04 0.0 
0.0 0.0 -1.241871602230e-04 
-9.897320674459e-05 -1.982042870943e-05 0.0 
-1.982042870943e-05 6.300759750379e-04 0.0 
0.0 0.0 -9.407984802336e-05 
-1.609514246157e-04 -3.024200816091e-05 0.0 
-3.024200816091e-05 1.078541844928e-03 0.0 
0.0 0.0 -1.616399041023e-04 
-1.984206323310e-04 -1.383870975889e-05 0.0 
-1.383870975889e-05 1.364918109129e-03 0.0 
0.0 0.0 -1.990496603105e-04 
-1.603101285724e-04 1.893623053607e-05 0.0 
1.893623053607e-05 1.069942872822e-03 0.0 
0.0 0.0 -1.592422372747e-04 
-2.006038303863e-04 1.656223959945e-05 0.0 
1.656223959945e-05 1.363483438763e-03 0.0 
0.0 0.0 -1.988805961512e-04 
-2.157799468526e-05 2.675018284335e-05 0.0 
2.675018284335e-05 1.121671203490e-04 0.0 
0.0 0.0 -2.573693149021e-05 
-1.906849838871e-04 -1.873571465641e-05 0.0 
-1.873571465641e-05 1.306053010621e-03 0.0 
0.0 0.0 -1.916484765783e-04 
-5.146266627946e-05 1.897216913104e-05 0.0 
1.897216913104e-05 3.060778228498e-04 0.0 
0.0 0.0 -5.033941334868e-05 
-3.400990015803e-05 1.312678026193e-05 0.0 
1.312678026193e-05 1.676110055634e-04 0.0 
0.0 0.0 -3.447177322316e-05 
-1.921352674404e-04 -1.514543928923e-05 0.0 
-1.514543928923e-05 1.307880338866e-03 0.0 
0.0 0.0 -1.905503066306e-04 
-1.903818942750e-04 -8.555148187785e-06 0.0 
-8.555148187785e-06 1.309224873111e-03 0.0 
0.0 0.0 -1.905905039252e-04 
-1.935313273260e-04 -2.488564283104e-05 0.0 
-2.488564283104e-05 1.299799287321e-03 0.0 
0.0 0.0 -1.934776258129e-04 
-1.157635836836e-04 3.075917002700e-05 0.0 
3.075917002700e-05 7.564878727472e-04 0.0 
0.0 0.0 -1.164394980702e-04 
-1.278320406392e-04 3.003959765809e-05 0.0 
3.003959765809e-05 8.242995150328e-04 0.0 
0.0 0.0 -1.273429404365e-04 
-4.747607610046e-05 -3.167630139555e-05 0.0 
-3.167630139555e-05 2.832612339686e-04 0.0 
0.0 0.0 -4.701750159920e-05 
-1.893682873149e-04 -1.213845527048e-05 0.0 
-1.213845527048e-05 1.308095530746e-03 0.0 
0.0 0.0 -1.909562210215e-04 
-7.758444785249e-05 2.579970670889e-05 0.0 
2.579970670889e-05 5.061981746731e-04 0.0 
0.0 0.0 -8.036225567980e-05 
-2.672886924063e-05 -2.537961056617e-05 0.0 
-2.537961056617e-05 1.614624818245e-04 0.0 
0.0 0.0 -3.171414542872e-05 
-1.655918154031e-04 2.787053237580e-05 0.0 
2.787053237580e-05 1.112934476303e-03 0.0 
0.0 0.0 -1.665212293607e-04 
-1.050972551552e-04 -3.025884205917e-06 0.0 
-3.025884205917e-06 7.225874036591e-04 0.0 
0.0 0.0 -1.064449299410e-04 
-1.855125743211e-04 2.284061724598e-05 0.0 
2.284061724598e-05 1.238197266214e-03 0.0 
0.0 0.0 -1.856594579394e-04 
-1.969980593816e-04 -2.792765841710e-05 0.0 
-2.792765841710e-05 1.348466243731e-03 0.0 
0.0 0.0 -1.982264973081e-04 
-2.015598306414e-04 -1.228437926459e-06 0.0 
-1.228437926459e-06 1.329727235481e-03 0.0 
0.0 0.0 -2.015598306414e-04 
-3.170965654814e-06 -9.174846607934e-06 0.0 
-9.174846607934e-06 3.186703010945e-05 0.0 
0.0 0.0 -6.440169358563e-06 
-2.054361880700e-06 8.524325078712e-06 0.0 
8.524325078712e-06 1.000738199139e-05 0.0 
0.0 0.0 -3.408437190294e-06 
-1.090415563488e-04 -2.544674541070e-05 0.0 
-2.544674541070e-05 7.025551525996e-04 0.0 
0.0 0.0 -1.097735026919e-04 
-1.102790978540e-04 4.096896239264e-06 0.0 
4.096896239264e-06 7.242490524547e-04 0.0 
0.0 0.0 -1.064401693586e-04 
-2.015598306414e-04 1.769844580753e-06 0.0 
1.769844580753e-06 1.328559462674e-03 0.0 
0.0 0.0 -2.015598306414e-04 
-1.964566527274e-04 2.745948387429e-05 0.0 
2.745948387429e-05 1.347766645467e-03 0.0 
0.0 0.0 -1.982264973081e-04 
-1.175853557175e-05 2.296138750723e-05 0.0 
2.296138750723e-05 7.476526502358e-05 0.0 
0.0 0.0 -1.468179278604e-05 
0.0 0.0 0.0 
0.0 0.0 0.0 
0.0 0.0 0.0 
-1.860643112087e-04 1.892522092608e-05 0.0 
1.892522092608e-05 1.220604956089e-03 0.0 
0.0 0.0 -1.845272605536e-04 
-1.810613338557e-04 3.690531828789e-05 0.0 
3.690531828789e-05 1.227609320804e-03 0.0 
0.0 0.0 -1.814046177210e-04 
-3.775454928550e-05 -2.192142162525e-05 0.0 
-2.192142162525e-05 2.530653962175e-04 0.0 
0.0 0.0 -4.069012186385e-05 
-1.867893258397e-04 -1.967907292950e-05 0.0 
-1.967907292950e-05 1.242445273872e-03 0.0 
0.0 0.0 -1.860287822001e-04 
-1.322273957044e-04 -7.821980177849e-06 0.0 
-7.821980177849e-06 8.613081851453e-04 0.0 
0.0 0.0 -1.333256398531e-04 
-1.174513720599e-04 -2.922099993004e-05 0.0 
-2.922099993004e-05 7.623791286875e-04 0.0 
0.0 0.0 -1.141619444601e-04 
-1.434157263431e-04 1.469820453960e-05 0.0 
1.469820453960e-05 9.640681819544e-04 0.0 
0.0 0.0 -1.410117391569e-04 
-3.721642999109e-05 2.244542666226e-05 0.0 
2.244542666226e-05 2.273693429633e-04 0.0 
0.0 0.0 -3.939304728150e-05 
-1.516361842959e-04 -3.045658684071e-05 0.0 
-3.045658684071e-05 1.014390478774e-03 0.0 
0.0 0.0 -1.517486197524e-04 
-3.145165589743e-05 4.872235620209e-06 0.0 
4.872235620209e-06 2.090450929269e-04 0.0 
0.0 0.0 -3.272226055558e-05 
-1.018895751593e-04 -2.838951770175e-05 0.0 
-2.838951770175e-05 6.787429923759e-04 0.0 
0.0 0.0 -1.049612269729e-04 
-1.842198203986e-04 1.688848171670e-05 0.0 
1.688848171670e-05 1.232258602772e-03 0.0 
0.0 0.0 -1.860778644041e-04 
-1.784559347742e-04 -3.196727202869e-05 0.0 
-3.196727202869e-05 1.203750059331e-03 0.0 
0.0 0.0 -1.787589168632e-04 
-1.106507503052e-04 1.655731803460e-05 0.0 
1.655731803460e-05 7.326885674445e-04 0.0 
0.0 0.0 -1.153641303439e-04 
-1.319245288081e-04 -2.759428203750e-05 0.0 
-2.759428203750e-05 8.842042796758e-04 0.0 
0.0 0.0 -1.311848925397e-04 
-1.849952147230e-04 1.224005731978e-05 0.0 
1.224005731978e-05 1.253709795229e-03 0.0 
0.0 0.0 -1.825679017964e-04 
-1.712361580956e-04 -3.249029055204e-05 0.0 
-3.249029055204e-05 1.152848638026e-03 0.0 
0.0 0.0 -1.711417214974e-04 
-1.621790656513e-04 -3.130066982025e-05 0.0 
-3.130066982025e-05 1.085309995837e-03 0.0 
0.0 0.0 -1.614640498619e-04 
-1.095991344629e-04 1.548110486480e-06 0.0 
1.548110486480e-06 6.849847840864e-04 0.0 
0.0 0.0 -1.096818516252e-04 
-1.466797614329e-04 -3.177988380746e-05 0.0 
-3.177988380746e-05 9.793946946612e-04 0.0 
0.0 0.0 -1.464567251102e-04 
-1.856217654582e-04 1.836261976242e-05 0.0 
1.836261976242e-05 1.223913084915e-03 0.0 
0.0 0.0 -1.847107394661e-04 
-6.401317792094e-05 1.777757210555e-05 0.0 
1.777757210555e-05 3.770292953028e-04 0.0 
0.0 0.0 -6.251951766002e-05 
-1.488249501970e-05 -6.661613433420e-06 0.0 
-6.661613433420e-06 9.049355169821e-05 0.0 
0.0 0.0 -1.522736731176e-05 
-1.794781203063e-04 -2.177148621612e-05 0.0 
-2.177148621612e-05 1.190948333360e-03 0.0 
0.0 0.0 -1.778962838413e-04 
-1.689754393540e-04 2.666341982877e-05 0.0 
2.666341982877e-05 1.121590302909e-03 0.0 
0.0 0.0 -1.685307334786e-04 
-3.117516894872e-05 -1.620379493923e-05 0.0 
-1.620379493923e-05 1.675088401558e-04 0.0 
0.0 0.0 -3.460570515138e-05 
-1.490209525484e-04 -2.398959439852e-05 0.0 
-2.398959439852e-05 1.009624786866e-03 0.0 
0.0 0.0 -1.484000725648e-04 
-1.941728230886e-04 -6.317229650203e-06 0.0 
-6.317229650203e-06 1.268109449836e-03 0.0 
0.0 0.0 -1.924109378829e-04 
-1.782640686020e-04 1.811418483105e-05 0.0 
1.811418483105e-05 1.176788769021e-03 0.0 
0.0 0.0 -1.773110165667e-04 
-1.844275111855e-04 -4.383617168842e-06 0.0 
-4.383617168842e-06 1.252791151838e-03 0.0 
0.0 0.0 -1.822694409164e-04 
-1.426350801095e-04 -3.166405234979e-05 0.0 
-3.166405234979e-05 9.429700556337e-04 0.0 
0.0 0.0 -1.430568974379e-04 
-1.367048638434e-05 7.547793984128e-06 0.0 
7.547793984128e-06 4.809613176051e-05 0.0 
0.0 0.0 -1.475384801836e-05 
-4.817205637438e-05 1.518979907033e-05 0.0 
1.518979907033e-05 2.815959802160e-04 0.0 
0.0 0.0 -4.818665537949e-05 
-5.802518359896e-05 -3.237118775929e-05 0.0 
-3.237118775929e-05 3.560287674836e-04 0.0 
0.0 0.0 -5.751524148975e-05 
-1.222811217371e-04 4.923148903369e-06 0.0 
4.923148903369e-06 8.049151145100e-04 0.0 
0.0 0.0 -1.270714490912e-04 
-1.466466955193e-04 3.242901086422e-05 0.0 
3.242901086422e-05 9.717833108994e-04 0.0 
0.0 0.0 -1.467240436239e-04 
-1.865030099579e-04 -2.458316919408e-05 0.0 
-2.458316919408e-05 1.244081238438e-03 0.0 
0.0 0.0 -1.854811886535e-04 
-1.924470582108e-04 1.025180310993e-05 0.0 
1.025180310993e-05 1.267008412016e-03 0.0 
0.0 0.0 -1.923487814140e-04 
-2.301609062590e-05 -4.635179033559e-06 0.0 
-4.635179033559e-06 1.491120452597e-04 0.0 
0.0 0.0 -2.371590567936e-05 
-2.273962015617e-05 8.021387614827e-06 0.0 
8.021387614827e-06 1.424948937247e-04 0.0 
0.0 0.0 -2.307420961409e-05 
-3.644996023323e-05 3.054667220110e-05 0.0 
3.054667220110e-05 2.219148594571e-04 0.0 
0.0 0.0 -3.877784743978e-05 
-1.505507532998e-04 4.198429125548e-05 0.0 
4.198429125548e-05 1.006744199268e-03 0.0 
0.0 0.0 -1.528863196834e-04 
-7.623962459717e-05 -2.731195048099e-05 0.0 
-2.731195048099e-05 4.837899918121e-04 0.0 
0.0 0.0 -7.429924588525e-05 
-1.863524508622e-04 -2.262089027383e-05 0.0 
-2.262089027383e-05 1.249803366509e-03 0.0 
0.0 0.0 -1.861947641336e-04 
-3.704741075814e-05 -2.601020683146e-05 0.0 
-2.601020683146e-05 2.394628484622e-04 0.0 
0.0 0.0 -3.935861431135e-05 
-1.838103394031e-04 1.452656825211e-05 0.0 
1.452656825211e-05 1.213648829434e-03 0.0 
0.0 0.0 -1.831728902790e-04 
-1.220456595190e-04 2.683931147050e-05 0.0 
2.683931147050e-05 8.169008266022e-04 0.0 
0.0 0.0 -1.251559851210e-04 
-1.901741937142e-04 2.069168076259e-07 0.0 
2.069168076259e-07 1.274360012601e-03 0.0 
0.0 0.0 -1.930223408588e-04 
-1.664726505804e-04 -3.515055495158e-05 0.0 
-3.515055495158e-05 1.122391429995e-03 0.0 
0.0 0.0 -1.666682952710e-04 
-1.230362842828e-04 -1.324599728564e-05 0.0 
-1.324599728564e-05 8.068584181325e-04 0.0 
0.0 0.0 -1.269771275557e-04 
-1.906319308292e-04 -7.278184392236e-06 0.0 
-7.278184392236e-06 1.308928167031e-03 0.0 
0.0 0.0 -1.903713883127e-04 
-1.924018578301e-04 1.168444968946e-05 0.0 
1.168444968946e-05 1.309753043894e-03 0.0 
0.0 0.0 -1.909090898364e-04 
-1.885954729481e-04 9.336154218136e-06 0.0 
9.336154218136e-06 1.306961112302e-03 0.0 
0.0 0.0 -1.907009018511e-04 
-2.601124528020e-05 2.982465109597e-05 0.0 
2.982465109597e-05 1.494137909599e-04 0.0 
0.0 0.0 -2.872079986757e-05 
-1.827342744304e-04 2.617845691474e-05 0.0 
2.617845691474e-05 1.218950538624e-03 0.0 
0.0 0.0 -1.827464329712e-04 
-1.931535913243e-04 4.402691257463e-06 0.0 
4.402691257463e-06 1.267632643707e-03 0.0 
0.0 0.0 -1.929967939697e-04 
-1.822938180470e-04 -1.572479834584e-05 0.0 
-1.572479834584e-05 1.239626265032e-03 0.0 
0.0 0.0 -1.817603729293e-04 
-1.697190279031e-04 3.374893720717e-05 0.0 
3.374893720717e-05 1.140711286613e-03 0.0 
0.0 0.0 -1.714881096122e-04 
-2.013997750954e-04 3.693939357452e-06 0.0 
3.693939357452e-06 1.326398449399e-03 0.0 
0.0 0.0 -2.013997750954e-04 
-1.623768653750e-04 3.145458215279e-05 0.0 
3.145458215279e-05 1.075477552169e-03 0.0 
0.0 0.0 -1.618597882954e-04 
0.0 0.0 0.0 
0.0 0.0 0.0 
0.0 0.0 0.0 
-3.901664739789e-05 -3.107536671977e-05 0.0 
-3.107536671977e-05 2.123759730741e-04 0.0 
0.0 0.0 -3.635714225545e-05 
-1.788762468223e-04 -2.668815126998e-05 0.0 
-2.668815126998e-05 1.194169313249e-03 0.0 
0.0 0.0 -1.765404546707e-04 
-1.302843948315e-04 2.373413498694e-05 0.0 
2.373413498694e-05 8.753673031711e-04 0.0 
0.0 0.0 -1.332692038199e-04 
-1.814833852286e-04 -2.932987962222e-05 0.0 
-2.932987962222e-05 1.228315456518e-03 0.0 
0.0 0.0 -1.832991189648e-04 
-1.755755594055e-04 -3.314975176265e-05 0.0 
-3.314975176265e-05 1.186338389567e-03 0.0 
0.0 0.0 -1.765514316642e-04 
-1.922058959132e-04 -7.323986232709e-06 0.0 
-7.323986232709e-06 1.275540875639e-03 0.0 
0.0 0.0 -1.938374750990e-04 
-1.590886801341e-04 3.535348640505e-05 0.0 
3.535348640505e-05 1.086454937064e-03 0.0 
0.0 0.0 -1.628282188246e-04 
-1.943136192193e-04 -2.017280466188e-06 0.0 
-2.017280466188e-06 1.274660348820e-03 0.0 
0.0 0.0 -1.933460184500e-04 
-1.860409899402e-04 -2.465939863213e-05 0.0 
-2.465939863213e-05 1.243243537266e-03 0.0 
0.0 0.0 -1.849983659001e-04 
-1.854493454621e-04 2.521523578023e-05 0.0 
2.521523578023e-05 1.237363143253e-03 0.0 
0.0 0.0 -1.852565349593e-04 
-7.800610219477e-05 -1.750136496523e-05 0.0 
-1.750136496523e-05 5.077823231346e-04 0.0 
0.0 0.0 -7.657446018549e-05 
-1.940082963474e-04 -3.011324743448e-06 0.0 
-3.011324743448e-06 1.367135927910e-03 0.0 
0.0 0.0 -1.988462912301e-04 
-1.122847898646e-04 2.150658952302e-06 0.0 
2.150658952302e-06 7.831127334676e-04 0.0 
0.0 0.0 -1.149322996356e-04 
-1.805030425337e-04 -2.769681372488e-05 0.0 
-2.769681372488e-05 1.229209747324e-03 0.0 
0.0 0.0 -1.826109592864e-04 
-2.210772205688e-05 -1.141237861015e-05 0.0 
-1.141237861015e-05 1.058730840806e-04 0.0 
0.0 0.0 -2.642964691976e-05 
-1.709643782764e-04 -1.864471641412e-05 0.0 
-1.864471641412e-05 1.187155150464e-03 0.0 
0.0 0.0 -1.744803730939e-04 
-1.477070854664e-04 -4.391729024467e-06 0.0 
-4.391729024467e-06 1.020449993757e-03 0.0 
0.0 0.0 -1.488920056885e-04 
-2.536340853786e-05 -1.617904342885e-05 0.0 
-1.617904342885e-05 1.410312003150e-04 0.0 
0.0 0.0 -2.442930455436e-05 
-4.478297823031e-05 -3.360325145203e-05 0.0 
-3.360325145203e-05 2.463363294936e-04 0.0 
0.0 0.0 -4.105386472454e-05 
-1.667572652522e-04 3.269260421942e-05 0.0 
3.269260421942e-05 1.106671823298e-03 0.0 
0.0 0.0 -1.661371793467e-04 
-1.939345119211e-04 -2.917973958076e-06 0.0 
-2.917973958076e-06 1.271284650607e-03 0.0 
0.0 0.0 -1.928053293992e-04 
-1.848839491830e-04 -2.511864242369e-05 0.0 
-2.511864242369e-05 1.245193806993e-03 0.0 
0.0 0.0 -1.835875952628e-04 
-1.881692614413e-04 3.512850772842e-05 0.0 
3.512850772842e-05 1.283926120996e-03 0.0 
0.0 0.0 -1.897169183402e-04 
-1.319951739136e-04 3.692265338647e-05 0.0 
3.692265338647e-05 8.669086104393e-04 0.0 
0.0 0.0 -1.321134885410e-04 
-1.418897775030e-05 -1.383603751222e-06 0.0 
-1.383603751222e-06 8.390464903167e-05 0.0 
0.0 0.0 -1.533750852324e-05 
-1.776342507387e-05 2.898590661281e-05 0.0 
2.898590661281e-05 1.254111435077e-04 0.0 
0.0 0.0 -2.291448659297e-05 
-2.228661035164e-05 3.086208171882e-05 0.0 
3.086208171882e-05 7.414588274207e-05 0.0 
0.0 0.0 -1.893168834827e-05 
-2.834935998913e-05 -2.581094466031e-05 0.0 
-2.581094466031e-05 1.798484559935e-04 0.0 
0.0 0.0 -3.120083896163e-05 
-3.619195444299e-06 1.726688320319e-05 0.0 
1.726688320319e-05 1.889854846973e-05 0.0 
0.0 0.0 -6.548294153755e-06 
-9.846508312271e-05 1.947611327116e-05 0.0 
1.947611327116e-05 6.774458586389e-04 0.0 
0.0 0.0 -1.012995679080e-04 
-1.809123785598e-04 2.900682068589e-05 0.0 
2.900682068589e-05 1.227040363573e-03 0.0 
0.0 0.0 -1.833458990909e-04 
-1.833994977543e-04 2.630052083884e-05 0.0 
2.630052083884e-05 1.234115337032e-03 0.0 
0.0 0.0 -1.834249670905e-04 
-1.300388728735e-04 -2.726917383980e-05 0.0 
-2.726917383980e-05 8.766264197221e-04 0.0 
0.0 0.0 -1.323946974752e-04 
-9.060072859628e-05 -4.107401100024e-05 0.0 
-4.107401100024e-05 5.837911416729e-04 0.0 
0.0 0.0 -8.982794765771e-05 
-1.833530943830e-04 -2.415896483629e-05 0.0 
-2.415896483629e-05 1.239029730488e-03 0.0 
0.0 0.0 -1.831601862249e-04 
-1.805620370494e-04 3.417310065365e-05 0.0 
3.417310065365e-05 1.228469068547e-03 0.0 
0.0 0.0 -1.813053981465e-04 
-1.918538788466e-04 1.314902849118e-05 0.0 
1.314902849118e-05 1.311238991232e-03 0.0 
0.0 0.0 -1.908378613718e-04 
-1.864057830892e-04 -5.544571809971e-06 0.0 
-5.544571809971e-06 1.222330684115e-03 0.0 
0.0 0.0 -1.856133406407e-04 
-1.761014518088e-04 2.982850443616e-05 0.0 
2.982850443616e-05 1.172453916966e-03 0.0 
0.0 0.0 -1.756848094018e-04 
-2.508081297429e-05 1.384675978348e-05 0.0 
1.384675978348e-05 1.057075733602e-04 0.0 
0.0 0.0 -2.599564028619e-05 
-1.693383348172e-05 -2.312304690448e-05 0.0 
-2.312304690448e-05 1.227259030012e-04 0.0 
0.0 0.0 -2.162456296189e-05 
-1.849301832798e-04 -2.375114059264e-05 0.0 
-2.375114059264e-05 1.241181941517e-03 0.0 
0.0 0.0 -1.835494310512e-04 
-2.714207379428e-05 4.098769542459e-06 0.0 
4.098769542459e-06 1.072549946886e-04 0.0 
0.0 0.0 -2.642284971932e-05 
-3.135918366895e-05 4.019659049340e-05 0.0 
4.019659049340e-05 1.551282952784e-04 0.0 
0.0 0.0 -2.899999999997e-05 
-2.063383903873e-05 2.842818060864e-05 0.0 
2.842818060864e-05 9.408870534127e-05 0.0 
0.0 0.0 -2.215380543414e-05 
-2.425090272541e-05 -2.758476542693e-05 0.0 
-2.758476542693e-05 1.189291029536e-04 0.0 
0.0 0.0 -2.370445218759e-05 
-1.950651601912e-04 -1.537310237432e-06 0.0 
-1.537310237432e-06 1.272610956963e-03 0.0 
0.0 0.0 -1.932856728082e-04 
-1.944294159836e-04 -1.137183943863e-05 0.0 
-1.137183943863e-05 1.275116374494e-03 0.0 
0.0 0.0 -1.935170455059e-04 
-1.886696034913e-04 2.831262697735e-05 0.0 
2.831262697735e-05 1.244837435708e-03 0.0 
0.0 0.0 -1.855361636489e-04 
-1.959472726026e-04 1.351216089952e-08 0.0 
1.351216089952e-08 1.278564115673e-03 0.0 
0.0 0.0 -1.938907836251e-04 
-1.787271859105e-04 -2.284872940721e-05 0.0 
-2.284872940721e-05 1.187153147202e-03 0.0 
0.0 0.0 -1.765318707366e-04 
-1.351456084785e-04 3.971362658995e-05 0.0 
3.971362658995e-05 9.093020497765e-04 0.0 
0.0 0.0 -1.375519566527e-04 
-2.017604167332e-04 -1.836539241269e-06 0.0 
-1.836539241269e-06 1.330878883476e-03 0.0 
0.0 0.0 -2.017604167332e-04 
-4.752774343128e-05 -1.713587701896e-05 0.0 
-1.713587701896e-05 3.107525644044e-04 0.0 
0.0 0.0 -4.996133636201e-05 
-1.024919488492e-04 4.191622503833e-07 0.0 
4.191622503833e-07 7.218789940397e-04 0.0 
0.0 0.0 -1.062461082510e-04 
-2.975599916326e-05 9.106261967341e-06 0.0 
9.106261967341e-06 1.955746439529e-04 0.0 
0.0 0.0 -3.129496823211e-05 
-1.232098886184e-05 7.093050022653e-06 0.0 
7.093050022653e-06 4.161179421085e-05 0.0 
0.0 0.0 -1.255320229243e-05 
-1.944497355390e-04 5.978296495926e-06 0.0 
5.978296495926e-06 1.366328994781e-03 0.0 
0.0 0.0 -1.985775144829e-04 
-1.145512522937e-04 -8.915219508627e-06 0.0 
-8.915219508627e-06 7.945910020626e-04 0.0 
0.0 0.0 -1.159689174441e-04 
-2.848344092071e-05 4.003321639578e-06 0.0 
4.003321639578e-06 1.986241883576e-04 0.0 
0.0 0.0 -3.173012194873e-05 
-1.014959600204e-04 3.503938933843e-05 0.0 
3.503938933843e-05 6.393289370777e-04 0.0 
0.0 0.0 -9.855747970559e-05 
-1.905583345653e-04 2.687091843221e-06 0.0 
2.687091843221e-06 1.311634272187e-03 0.0 
0.0 0.0 -1.915206309854e-04 
-1.857526928997e-04 -2.471303146073e-05 0.0 
-2.471303146073e-05 1.243107974826e-03 0.0 
0.0 0.0 -1.842925442824e-04 
-1.948868254755e-04 -1.041522172143e-06 0.0 
-1.041522172143e-06 1.275180970734e-03 0.0 
0.0 0.0 -1.934499806569e-04 
-7.012133808743e-05 -2.162576108704e-05 0.0 
-2.162576108704e-05 4.594521408120e-04 0.0 
0.0 0.0 -7.043099580601e-05 
-2.186534210929e-05 -2.363395921601e-05 0.0 
-2.363395921601e-05 1.124805107313e-04 0.0 
0.0 0.0 -2.329832943476e-05 
-1.928869723946e-04 -1.747685447208e-05 0.0 
-1.747685447208e-05 1.309527415302e-03 0.0 
0.0 0.0 -1.909716586738e-04 
-1.948223937585e-04 3.463630469138e-06 0.0 
3.463630469138e-06 1.366072774039e-03 0.0 
0.0 0.0 -1.988029557152e-04 
-1.997972325631e-04 -2.657071604694e-06 0.0 
-2.657071604694e-06 1.368996078479e-03 0.0 
0.0 0.0 -1.985675284643e-04 
-1.149075065172e-04 1.970313765657e-05 0.0 
1.970313765657e-05 7.553309514488e-04 0.0 
0.0 0.0 -1.151014696305e-04 
-1.853670490970e-04 -6.789881419620e-07 0.0 
-6.789881419620e-07 1.217253462195e-03 0.0 
0.0 0.0 -1.847801502677e-04 
-2.929766823262e-05 -1.423662774746e-05 0.0 
-1.423662774746e-05 1.684447109910e-04 0.0 
0.0 0.0 -3.486300268346e-05 
-1.886376341972e-04 2.491029484498e-05 0.0 
2.491029484498e-05 1.251144203043e-03 0.0 
0.0 0.0 -1.862363266401e-04 
-1.225588461862e-05 -1.620442536661e-06 0.0 
-1.620442536661e-06 4.088176785210e-05 0.0 
0.0 0.0 -1.226823567149e-05 
-1.959443734270e-04 -1.593633800897e-06 0.0 
-1.593633800897e-06 1.275907277954e-03 0.0 
0.0 0.0 -1.936070242144e-04 
-1.921705025686e-04 1.672528369413e-05 0.0 
1.672528369413e-05 1.305355282221e-03 0.0 
0.0 0.0 -1.902878095246e-04 
-1.213509693042e-05 -9.695671298578e-06 0.0 
-9.695671298578e-06 4.146515921011e-05 0.0 
0.0 0.0 -1.257002669129e-05 
-1.793207099600e-04 -2.104295957024e-05 0.0 
-2.104295957024e-05 1.192465817629e-03 0.0 
0.0 0.0 -1.767027422389e-04 
-1.542349507493e-04 -2.789525500736e-05 0.0 
-2.789525500736e-05 1.046690456158e-03 0.0 
0.0 0.0 -1.580789522666e-04 
-1.934231585208e-04 -4.589161303043e-06 0.0 
-4.589161303043e-06 1.276393454338e-03 0.0 
0.0 0.0 -1.934530862915e-04 
-2.019364116565e-04 -1.570828685487e-06 0.0 
-1.570828685487e-06 1.334544060367e-03 0.0 
0.0 0.0 -2.019364116565e-04 
-1.443736664853e-04 -4.496434299745e-05 0.0 
-4.496434299745e-05 9.564830102373e-04 0.0 
0.0 0.0 -1.444096547634e-04 
-1.939456756852e-04 2.017652496132e-06 0.0 
2.017652496132e-06 1.279640861987e-03 0.0 
0.0 0.0 -1.938765919206e-04 
-1.869172796684e-04 -2.300922739472e-05 0.0 
-2.300922739472e-05 1.248797853845e-03 0.0 
0.0 0.0 -1.854760755851e-04 
-1.511310601618e-04 1.323861223544e-06 0.0 
1.323861223544e-06 9.820371097651e-04 0.0 
0.0 0.0 -1.514438176870e-04 
-1.859523187257e-04 -2.150500838709e-06 0.0 
-2.150500838709e-06 1.237126209909e-03 0.0 
0.0 0.0 -1.871408849840e-04 
-8.159488617983e-05 -1.939805324608e-05 0.0 
-1.939805324608e-05 5.359838852638e-04 0.0 
0.0 0.0 -8.502783899585e-05 
-1.113338579071e-04 -3.576614126909e-06 0.0 
-3.576614126909e-06 6.830287758959e-04 0.0 
0.0 0.0 -1.093177095251e-04 
-1.875695645106e-04 2.166688210212e-05 0.0 
2.166688210212e-05 1.248595569192e-03 0.0 
0.0 0.0 -1.858828511717e-04 
-1.916898687047e-04 1.740402246749e-05 0.0 
1.740402246749e-05 1.297694891500e-03 0.0 
0.0 0.0 -1.929759641265e-04 
0.0 0.0 0.0 
0.0 0.0 0.0 
0.0 0.0 0.0 
-1.108754537982e-04 8.190067800634e-06 0.0 
8.190067800634e-06 6.858465185805e-04 0.0 
0.0 0.0 -1.092688595421e-04 
-1.923809518426e-04 -1.819844630735e-05 0.0 
-1.819844630735e-05 1.300229094043e-03 0.0 
0.0 0.0 -1.932123727438e-04 
-4.002001247467e-05 2.006963566931e-05 0.0 
2.006963566931e-05 2.328825741027e-04 0.0 
0.0 0.0 -4.148470287098e-05 
-1.866472002231e-04 4.880453877379e-06 0.0 
4.880453877379e-06 1.252749307024e-03 0.0 
0.0 0.0 -1.819878549007e-04 
-1.819209478198e-04 -2.068448510872e-05 0.0 
-2.068448510872e-05 1.244408370608e-03 0.0 
0.0 0.0 -1.838914853240e-04 
-1.915111223810e-04 -2.323214646959e-05 0.0 
-2.323214646959e-05 1.305780620660e-03 0.0 
0.0 0.0 -1.903556752671e-04 
-3.701661376552e-05 2.035950265076e-05 0.0 
2.035950265076e-05 2.272671486071e-04 0.0 
0.0 0.0 -3.971981059879e-05 
-2.769286414478e-05 7.747329809448e-06 0.0 
7.747329809448e-06 1.806614107884e-04 0.0 
0.0 0.0 -2.859863994447e-05 
-1.242949117924e-04 5.074427327232e-05 0.0 
5.074427327232e-05 7.859669856420e-04 0.0 
0.0 0.0 -1.190920679387e-04 
-1.709477821043e-04 1.206352581251e-05 0.0 
1.206352581251e-05 1.132186117532e-03 0.0 
0.0 0.0 -1.681261804956e-04 
1.014327330368e-06 7.383782533250e-07 0.0 
7.383782533250e-07 2.927583678911e-05 0.0 
0.0 0.0 -6.243845128022e-06 
-1.946447373769e-04 -4.455018500166e-06 0.0 
-4.455018500166e-06 1.280717844331e-03 0.0 
0.0 0.0 -1.938350263003e-04 
-1.424463118062e-04 5.764408395156e-06 0.0 
5.764408395156e-06 9.202154133526e-04 0.0 
0.0 0.0 -1.425289220759e-04 
-3.478878306297e-05 -2.499498638801e-05 0.0 
-2.499498638801e-05 2.296892403380e-04 0.0 
0.0 0.0 -3.902841992921e-05 
-1.377312918912e-04 9.864863143696e-06 0.0 
9.864863143696e-06 8.735402280856e-04 0.0 
0.0 0.0 -1.354581645892e-04 
-1.922007867126e-04 -1.822737660514e-05 0.0 
-1.822737660514e-05 1.307890918218e-03 0.0 
0.0 0.0 -1.907465343871e-04 
-1.254239889598e-04 -4.359753515645e-05 0.0 
-4.359753515645e-05 8.286556014884e-04 0.0 
0.0 0.0 -1.240920679387e-04 
-1.353144492439e-05 -2.813094036452e-05 0.0 
-2.813094036452e-05 4.877548767693e-05 0.0 
0.0 0.0 -1.316471896826e-05 
-8.142748840057e-05 2.105549334848e-05 0.0 
2.105549334848e-05 4.801057020835e-04 0.0 
0.0 0.0 -7.814452609390e-05 
-1.089615496817e-04 1.599271894156e-05 0.0 
1.599271894156e-05 7.175407804816e-04 0.0 
0.0 0.0 -1.097999625750e-04 
-1.256926158202e-04 5.260336234632e-05 0.0 
5.260336234632e-05 8.559229925288e-04 0.0 
0.0 0.0 -1.289999999999e-04 
-1.861165675973e-04 -2.159470551462e-05 0.0 
-2.159470551462e-05 1.249429060897e-03 0.0 
0.0 0.0 -1.849170288086e-04 
-1.106499789189e-04 -2.590861534469e-05 0.0 
-2.590861534469e-05 6.926866843830e-04 0.0 
0.0 0.0 -1.076326444904e-04 
-1.112884178496e-04 1.305986126263e-05 0.0 
1.305986126263e-05 7.358491413001e-04 0.0 
0.0 0.0 -1.139494348250e-04 
-2.588411427290e-05 1.911750771148e-05 0.0 
1.911750771148e-05 1.061373083438e-04 0.0 
0.0 0.0 -2.326846092920e-05 
-1.893744793615e-04 2.103198860830e-05 0.0 
2.103198860830e-05 1.246033425132e-03 0.0 
0.0 0.0 -1.860944804855e-04 
-1.813760335911e-04 2.431983118237e-05 0.0 
2.431983118237e-05 1.192575940689e-03 0.0 
0.0 0.0 -1.779543165055e-04 
-3.341687545780e-05 1.295689628708e-05 0.0 
1.295689628708e-05 1.947474497127e-04 0.0 
0.0 0.0 -3.617538986514e-05 
-1.891790155312e-04 -1.249004293212e-05 0.0 
-1.249004293212e-05 1.282842787366e-03 0.0 
0.0 0.0 -1.935524225335e-04 
-1.940711954716e-04 2.260939094991e-05 0.0 
2.260939094991e-05 1.289421750568e-03 0.0 
0.0 0.0 -1.935534039001e-04 
-1.151984927981e-04 -2.298534457927e-05 0.0 
-2.298534457927e-05 7.735611340850e-04 0.0 
0.0 0.0 -1.145968264807e-04 
-1.409477362984e-04 4.636851076838e-06 0.0 
4.636851076838e-06 9.500238057427e-04 0.0 
0.0 0.0 -1.403751509546e-04 
-1.057221588411e-04 2.457938922791e-05 0.0 
2.457938922791e-05 7.039272758311e-04 0.0 
0.0 0.0 -1.066277415830e-04 
-1.061891266013e-04 -1.653485252010e-05 0.0 
-1.653485252010e-05 7.204456328921e-04 0.0 
0.0 0.0 -1.101455558886e-04 
-1.167125773018e-04 -5.214442621127e-06 0.0 
-5.214442621127e-06 7.635304123669e-04 0.0 
0.0 0.0 -1.124773478824e-04 
-1.793168656901e-04 2.299952134744e-05 0.0 
2.299952134744e-05 1.185887205723e-03 0.0 
0.0 0.0 -1.771393596935e-04 
-3.152584898735e-05 1.897210253453e-05 0.0 
1.897210253453e-05 1.627411535502e-04 0.0 
0.0 0.0 -3.411956464738e-05 
-1.845315344105e-04 -2.087044310257e-05 0.0 
-2.087044310257e-05 1.251382198176e-03 0.0 
0.0 0.0 -1.826724926888e-04 
-1.258093955466e-04 1.092296903434e-05 0.0 
1.092296903434e-05 7.989141246955e-04 0.0 
0.0 0.0 -1.256509235457e-04 
-1.915790341267e-04 -2.191468720141e-05 0.0 
-2.191468720141e-05 1.308072793879e-03 0.0 
0.0 0.0 -1.908230686647e-04 
-1.803448451633e-04 -1.980075170867e-05 0.0 
-1.980075170867e-05 1.182538242344e-03 0.0 
0.0 0.0 -1.771885848702e-04 
-1.319350983937e-04 -8.918433226288e-06 0.0 
-8.918433226288e-06 9.046918759966e-04 0.0 
0.0 0.0 -1.335370307995e-04 
-1.816836816126e-04 1.791474397062e-05 0.0 
1.791474397062e-05 1.201235583197e-03 0.0 
0.0 0.0 -1.801549293832e-04 
-1.875547155475e-04 1.892715754060e-05 0.0 
1.892715754060e-05 1.233891763137e-03 0.0 
0.0 0.0 -1.855150795789e-04 
-1.939054531168e-04 -3.416516152565e-06 0.0 
-3.416516152565e-06 1.313797531553e-03 0.0 
0.0 0.0 -1.905407107676e-04 
-1.393318625630e-05 6.729466406601e-06 0.0 
6.729466406601e-06 4.687704386898e-05 0.0 
0.0 0.0 -1.411879611972e-05 
-1.819939651451e-04 -2.047705946231e-05 0.0 
-2.047705946231e-05 1.208295386483e-03 0.0 
0.0 0.0 -1.798029041703e-04 
-1.850233720890e-04 2.766047329041e-05 0.0 
2.766047329041e-05 1.254110806432e-03 0.0 
0.0 0.0 -1.840618297566e-04 
-1.944390477997e-05 -2.127751864275e-05 0.0 
-2.127751864275e-05 1.299757536440e-04 0.0 
0.0 0.0 -2.232470194434e-05 
-1.017184515676e-04 -1.757095589334e-05 0.0 
-1.757095589334e-05 6.550290312805e-04 0.0 
0.0 0.0 -1.026204892046e-04 
-1.144511734995e-05 -9.153149013219e-06 0.0 
-9.153149013219e-06 7.932793000554e-05 0.0 
0.0 0.0 -1.453852818766e-05 
-1.859119756783e-04 -1.557168329531e-05 0.0 
-1.557168329531e-05 1.264074963678e-03 0.0 
0.0 0.0 -1.846184893018e-04 
-9.283937133862e-05 -1.305520020021e-05 0.0 
-1.305520020021e-05 5.701490487258e-04 0.0 
0.0 0.0 -9.066666666667e-05 
-8.786125290506e-05 6.228376696680e-06 0.0 
6.228376696680e-06 5.972094942788e-04 0.0 
0.0 0.0 -8.733333333333e-05 
-9.022014186398e-05 -3.549288141163e-06 0.0 
-3.549288141163e-06 5.499642990775e-04 0.0 
0.0 0.0 -9.066666666667e-05 
-8.722264932826e-05 -1.484814638766e-06 0.0 
-1.484814638766e-06 5.950278411204e-04 0.0 
0.0 0.0 -8.733333333333e-05 
-9.018085993915e-05 -1.417099940171e-07 0.0 
-1.417099940171e-07 5.484767631814e-04 0.0 
0.0 0.0 -9.066666666667e-05 
-8.738306466949e-05 -3.897787092036e-07 0.0 
-3.897787092036e-07 5.957792554076e-04 0.0 
0.0 0.0 -8.733333333333e-05 
-9.080630643208e-05 -1.004642962581e-06 0.0 
-1.004642962581e-06 5.490414961774e-04 0.0 
0.0 0.0 -9.066666666667e-05 
-8.715803321291e-05 -7.191945164274e-07 0.0 
-7.191945164274e-07 5.952355706191e-04 0.0 
0.0 0.0 -8.733333333333e-05 
-8.983972774977e-05 2.250980017126e-08 0.0 
2.250980017126e-08 5.486638855821e-04 0.0 
0.0 0.0 -9.066666666667e-05 
-8.725566158141e-05 1.431482839065e-07 0.0 
1.431482839065e-07 5.957393564191e-04 0.0 
0.0 0.0 -8.733333333333e-05 
-9.054185498745e-05 8.009925208001e-08 0.0 
8.009925208001e-08 5.490600954273e-04 0.0 
0.0 0.0 -9.066666666667e-05 
-8.730405435587e-05 2.268594339033e-07 0.0 
2.268594339033e-07 5.956704623471e-04 0.0 
0.0 0.0 -8.733333333333e-05 
-9.010725221013e-05 1.077984881024e-06 0.0 
1.077984881024e-06 5.491565562495e-04 0.0 
0.0 0.0 -9.066666666667e-05 
-9.710486836519e-05 -2.255663521806e-05 0.0 
-2.255663521806e-05 5.958483065018e-04 0.0 
0.0 0.0 -8.873639455782e-05 
-8.775248831606e-05 6.167278534911e-07 0.0 
6.167278534911e-07 5.967481919071e-04 0.0 
0.0 0.0 -8.733333333333e-05 
-9.103086627003e-05 -1.513341137134e-06 0.0 
-1.513341137134e-06 5.495772900249e-04 0.0 
0.0 0.0 -9.066666666667e-05 
-8.073249876149e-05 1.956568500793e-06 0.0 
1.956568500793e-06 5.676914892222e-04 0.0 
0.0 0.0 -8.540306122449e-05 
-8.729829704258e-05 -3.688701156799e-07 0.0 
-3.688701156799e-07 5.951865840250e-04 0.0 
0.0 0.0 -8.733333333333e-05 
-9.037940068144e-05 6.271206724163e-07 0.0 
6.271206724163e-07 5.487658884447e-04 0.0 
0.0 0.0 -9.066666666667e-05 
-8.327880964785e-05 3.397797209923e-06 0.0 
3.397797209923e-06 5.519081980575e-04 0.0 
0.0 0.0 -9.066666666667e-05 
-8.752124888667e-05 7.623016925715e-07 0.0 
7.623016925715e-07 5.955739018708e-04 0.0 
0.0 0.0 -8.733333333333e-05 
-9.119391855359e-05 1.735421697781e-06 0.0 
1.735421697781e-06 5.492228013243e-04 0.0 
0.0 0.0 -9.066666666667e-05 
-8.803840193150e-05 9.847285726831e-07 0.0 
9.847285726831e-07 5.964786609531e-04 0.0 
0.0 0.0 -8.733333333333e-05 
-9.156330581238e-05 2.666222241027e-07 0.0 
2.666222241027e-07 5.495997176964e-04 0.0 
0.0 0.0 -9.066666666667e-05 
-8.804761400916e-05 4.409974905671e-07 0.0 
4.409974905671e-07 5.960772025302e-04 0.0 
0.0 0.0 -8.733333333333e-05 
-8.073638837697e-05 3.015269661060e-06 0.0 
3.015269661060e-06 5.789040759249e-04 0.0 
0.0 0.0 -9.040306122449e-05 
-9.112505899787e-05 2.746880104957e-07 0.0 
2.746880104957e-07 5.493199630352e-04 0.0 
0.0 0.0 -9.066666666667e-05 
-8.810637350998e-05 6.151652775297e-07 0.0 
6.151652775297e-07 5.958963692618e-04 0.0 
0.0 0.0 -8.733333333333e-05 
-8.840895899809e-05 1.155447038660e-07 0.0 
1.155447038660e-07 5.965143081286e-04 0.0 
0.0 0.0 -8.733333333333e-05 
-9.164597760345e-05 8.836231120007e-07 0.0 
8.836231120007e-07 5.493625037381e-04 0.0 
0.0 0.0 -9.066666666667e-05 
-8.678154187969e-05 1.516005662498e-06 0.0 
1.516005662498e-06 5.914512376221e-04 0.0 
0.0 0.0 -8.733333333333e-05 
-9.368423993004e-05 -3.485429264516e-06 0.0 
-3.485429264516e-06 5.486941450264e-04 0.0 
0.0 0.0 -9.066666666667e-05 
-9.051085830770e-05 3.821512302252e-06 0.0 
3.821512302252e-06 6.011139986344e-04 0.0 
0.0 0.0 -8.733333333333e-05 
-8.623635069903e-05 1.130998903511e-05 0.0 
1.130998903511e-05 5.483505428446e-04 0.0 
0.0 0.0 -9.066666666667e-05 
-7.442069267613e-05 -5.394763382116e-06 0.0 
-5.394763382116e-06 5.345026645236e-04 0.0 
0.0 0.0 -8.706972789116e-05 
-8.056486673946e-05 -5.396645541003e-05 0.0 
-5.396645541003e-05 5.644717008348e-04 0.0 
0.0 0.0 -8.900000000000e-05 
-9.791450863527e-05 5.509961114953e-05 0.0 
5.509961114953e-05 5.954927673430e-04 0.0 
0.0 0.0 -8.900000000000e-05 
-8.633895364109e-05 -4.683164540594e-06 0.0 
-4.683164540594e-06 5.718841532106e-04 0.0 
0.0 0.0 -8.566666666667e-05 
-9.239018602622e-05 8.127448127221e-06 0.0 
8.127448127221e-06 5.860724498030e-04 0.0 
0.0 0.0 -9.233333333333e-05 
-7.782722797358e-05 -3.296902887833e-06 0.0 
-3.296902887833e-06 5.542989905497e-04 0.0 
0.0 0.0 -8.566666666667e-05 
-9.950603800529e-05 -1.732824840327e-05 0.0 
-1.732824840327e-05 6.532123038277e-04 0.0 
0.0 0.0 -9.733333333333e-05 
-9.845490008412e-05 -7.423843482372e-07 0.0 
-7.423843482372e-07 6.182720398665e-04 0.0 
0.0 0.0 -1.006666666667e-04 
-9.688680853064e-05 -2.101224633275e-06 0.0 
-2.101224633275e-06 6.650247464175e-04 0.0 
0.0 0.0 -9.733333333333e-05 
-1.012464655028e-04 -1.533092774878e-06 0.0 
-1.533092774878e-06 6.197292804394e-04 0.0 
0.0 0.0 -1.006666666667e-04 
-9.684752660582e-05 -6.274302712925e-08 0.0 
-6.274302712925e-08 6.662579141266e-04 0.0 
0.0 0.0 -9.733333333333e-05 
-1.011453118386e-04 1.046563005614e-06 0.0 
1.046563005614e-06 6.213209177569e-04 0.0 
0.0 0.0 -1.006666666667e-04 
-9.747297309875e-05 -2.278502078315e-06 0.0 
-2.278502078315e-06 6.683740764344e-04 0.0 
0.0 0.0 -9.733333333333e-05 
-9.931899188090e-05 -3.288065646636e-06 0.0 
-3.288065646636e-06 6.197642772278e-04 0.0 
0.0 0.0 -1.006666666667e-04 
-9.650639441643e-05 2.666172739854e-07 0.0 
2.666172739854e-07 6.659194579952e-04 0.0 
0.0 0.0 -9.733333333333e-05 
-1.000788983180e-04 1.910523566858e-06 0.0 
1.910523566858e-06 6.207688021561e-04 0.0 
0.0 0.0 -1.006666666667e-04 
-9.720852165412e-05 -4.164213939214e-07 0.0 
-4.164213939214e-07 6.678605235040e-04 0.0 
0.0 0.0 -9.733333333333e-05 
-1.005225329566e-04 -1.059277058645e-06 0.0 
-1.059277058645e-06 6.206711688955e-04 0.0 
0.0 0.0 -1.006666666667e-04 
-1.076654382393e-04 -2.454755873475e-05 0.0 
-2.454755873475e-05 6.666235465443e-04 0.0 
0.0 0.0 -9.871211211756e-05 
-9.677391887680e-05 3.262994796209e-07 0.0 
3.262994796209e-07 6.670349670739e-04 0.0 
0.0 0.0 -9.733333333333e-05 
-1.004112575968e-04 6.266382551746e-06 0.0 
6.266382551746e-06 6.238730393685e-04 0.0 
0.0 0.0 -1.006666666667e-04 
-9.691250726487e-05 3.272004711609e-06 0.0 
3.272004711609e-06 6.207526912737e-04 0.0 
0.0 0.0 -1.006666666667e-04 
-9.769753293670e-05 3.857908775590e-07 0.0 
3.857908775590e-07 6.683264731120e-04 0.0 
0.0 0.0 -9.733333333333e-05 
-1.018216783017e-04 -1.733271697638e-06 0.0 
-1.733271697638e-06 6.205292306068e-04 0.0 
0.0 0.0 -1.006666666667e-04 
-9.704606734811e-05 1.789783002985e-06 0.0 
1.789783002985e-06 6.661622647259e-04 0.0 
0.0 0.0 -9.733333333333e-05 
-1.018704888891e-04 2.872470909369e-06 0.0 
2.872470909369e-06 6.210028127133e-04 0.0 
0.0 0.0 -1.006666666667e-04 
-9.786058522026e-05 1.410942441991e-06 0.0 
1.410942441991e-06 6.680408138480e-04 0.0 
0.0 0.0 -9.733333333333e-05 
-1.006317600444e-04 1.941140312877e-06 0.0 
1.941140312877e-06 6.214755597104e-04 0.0 
0.0 0.0 -1.006666666667e-04 
-9.094846281658e-05 3.460693907674e-06 0.0 
3.460693907674e-06 6.387381401671e-04 0.0 
0.0 0.0 -9.537877878422e-05 
-9.822997247904e-05 5.655000512226e-07 0.0 
5.655000512226e-07 6.686847925497e-04 0.0 
0.0 0.0 -9.733333333333e-05 
-1.005721140742e-04 -4.771801101198e-07 0.0 
-4.771801101198e-07 6.209284532513e-04 0.0 
0.0 0.0 -1.006666666667e-04 
-9.779172566454e-05 1.437765353010e-06 0.0 
1.437765353010e-06 6.669881357659e-04 0.0 
0.0 0.0 -9.733333333333e-05 
-9.964754038308e-05 2.397319642453e-06 0.0 
2.397319642453e-06 6.203504795262e-04 0.0 
0.0 0.0 -1.006666666667e-04 
-9.942841041269e-05 6.330945354939e-06 0.0 
6.330945354939e-06 6.210142166029e-04 0.0 
0.0 0.0 -1.006666666667e-04 
-9.831264427012e-05 3.607920745624e-06 0.0 
3.607920745624e-06 6.668464283750e-04 0.0 
0.0 0.0 -9.733333333333e-05 
-1.003509065967e-04 3.038689806417e-06 0.0 
3.038689806417e-06 6.697580945376e-04 0.0 
0.0 0.0 -9.733333333333e-05 
-9.096542632604e-05 2.974368147524e-06 0.0 
2.974368147524e-06 6.503827388711e-04 0.0 
0.0 0.0 -1.003787787842e-04 
-8.451759272524e-05 -2.785279264379e-06 0.0 
-2.785279264379e-06 6.050107377767e-04 0.0 
0.0 0.0 -9.704544545089e-05 
-1.061297274301e-04 -4.871673269526e-05 0.0 
-4.871673269526e-05 6.458409108431e-04 0.0 
0.0 0.0 -9.900000000000e-05 
-9.597407948562e-05 5.882537232744e-05 0.0 
5.882537232744e-05 6.276346610407e-04 0.0 
0.0 0.0 -9.900000000000e-05 
-1.061722618288e-04 2.720032131649e-06 0.0 
2.720032131649e-06 6.459980937412e-04 0.0 
0.0 0.0 -1.023333333333e-04 
-9.572351935955e-05 9.504820778219e-06 0.0 
9.504820778219e-06 6.293354809804e-04 0.0 
0.0 0.0 -9.566666666667e-05 
-8.827880964785e-05 -4.615262033286e-06 0.0 
-4.615262033286e-06 6.261214177850e-04 0.0 
0.0 0.0 -9.566666666667e-05 

SCALARS element_materi_plasti_kappa_shear float
LOOKUP_TABLE default
2.847132974464e-04
2.567335577462e-04
8.383458615128e-04
8.438320912051e-04
5.252340220499e-04
1.092332508777e-04
5.211056369626e-04
2.682011350187e-04
5.284032086376e-04
8.364231581825e-04
5.721664887116e-04
2.192159031084e-04
8.427469438431e-04
5.626516430071e-04
8.591411753051e-04
8.596118674820e-04
5.228709310720e-04
9.890289689114e-05
1.829897689724e-04
1.694158919351e-04
8.423436282845e-04
2.963793359042e-04
3.324051967767e-04
8.081759085961e-04
6.000118969987e-04
6.135444959901e-04
4.831662702076e-04
8.640260917564e-04
6.044060870881e-04
8.284633969501e-04
1.393644665420e-04
6.157167640348e-05
8.645031697050e-04
7.227162512377e-04
8.409567717064e-04
8.889842858592e-04
8.867272022491e-04
8.401574712595e-04
4.762820424766e-04
4.829160232604e-04
3.784313710213e-04
8.419842235364e-04
1.971583877801e-04
4.640967896192e-04
8.239259452907e-04
1.959288160543e-04
8.321288766212e-05
8.084255947212e-04
3.689720172040e-05
5.421120849717e-04
3.571518168043e-04
2.245192715023e-04
1.849539392691e-04
3.438430703420e-04
8.437751075118e-04
2.946472074171e-04
2.169482347232e-04
7.261086015541e-04
1.365401986572e-04
8.602343425103e-04
5.633449810247e-05
8.068338246298e-04
3.495820234045e-04
1.625404768038e-04
8.423121318073e-04
3.196875078224e-04
2.407380933191e-05
8.605021510781e-04
1.455927549119e-04
8.423461725362e-04
6.362218458081e-04
8.811950242161e-04
8.101315001547e-04
6.837837458653e-05
2.980351712693e-04
8.450728483081e-04
8.650274645366e-04
1.497776459891e-04
1.164171881254e-04
1.495511738586e-04
1.394737434445e-04
4.994656174592e-04
3.126596433046e-04
2.656451840487e-04
5.512146343309e-04
5.478404078236e-04
6.543703068282e-04
7.066969326251e-04
7.292257809066e-04
5.182254199727e-04
3.772961361313e-05
5.068209088843e-04
7.023712359703e-04
7.053137767572e-04
9.034935541177e-04
8.681099508839e-04
4.998503861448e-04
8.654654996241e-04
5.895620793702e-04
3.387865222816e-04
5.023282053966e-04
8.610484090904e-04
6.969273947015e-04
8.114912522944e-04
3.066747276919e-04
1.031286558348e-04
7.940042257422e-04
7.514569823258e-04
6.199677439276e-05
8.454993593349e-04
6.946613572604e-04
4.904031993171e-05
4.043465054525e-04
4.701260917007e-04
3.591769958220e-04
3.010429561774e-04
3.537650535641e-04
8.520744351586e-04
5.793631570773e-04
3.261491376649e-04
1.418039967851e-04
5.194733326263e-04
7.366211917707e-04
3.289742658715e-04
1.029625399055e-04
4.250840810499e-04
3.733497519716e-04
3.937484836423e-04
8.617156175713e-04
1.214391796965e-04
6.025351137927e-04
8.438264723838e-04
4.251430981113e-04
4.028071146061e-04
8.421798094545e-04
8.449973380302e-04
6.540085342924e-04
4.550812470554e-04
8.653037555385e-04
4.073208974335e-04
8.427923186268e-04
8.640045548534e-04
5.578310155526e-04
6.509573146725e-04
4.117138516470e-04
3.711211770560e-04
4.681101004950e-04
3.518672901193e-04
5.147824992523e-04
4.107193794640e-04
3.646113790963e-05
5.532223658631e-04
1.258155624666e-04
4.487912821367e-04
8.442761777728e-04
3.036097253508e-04
6.795876328870e-04
2.190343751187e-04
6.939470314270e-04
5.021535652403e-04
3.806977165922e-04
7.481063603695e-04
1.298522692207e-04
7.928147477738e-04
5.039709184499e-04
8.650019251011e-04
5.013582088109e-04
3.160516627979e-04
4.393239970158e-04
5.920825198174e-04
2.289923969885e-04
3.854224720753e-04
6.780718451192e-04
5.198603884199e-04
3.586956886529e-04
4.169796386473e-04
7.560276412873e-04
4.159140997811e-04
8.428055575623e-04
8.639767009483e-04
2.975132247583e-04
3.989799041527e-04
7.712498508064e-04
3.945945745463e-04
2.576819868644e-04
4.854060291149e-04
3.951341740237e-04
8.456558194475e-04
7.010154264104e-04
7.714816593418e-04
1.746707301352e-04
3.610997931363e-04
7.204647992586e-04
1.945331205908e-05
3.903836025195e-04
7.222445599691e-04
1.036327141325e-04
8.424473339204e-04
6.428453457772e-04
3.831449392291e-04
7.193613777923e-04
5.586004203897e-04
5.898087867421e-04
8.246624455494e-04
2.857235697232e-04
4.866694704310e-04
5.222557039026e-04
6.732665719342e-04
5.326319802480e-04
4.881655111683e-04
6.257681940146e-04
7.388362075692e-04
5.690614774354e-05
2.917017983456e-04
3.317775165376e-04
4.735931798939e-04
7.340526410142e-04
1.447054251006e-04
6.965604954019e-04
5.013674676710e-04
3.566918662294e-04
6.715636749960e-04
6.571013662795e-05
6.877012871154e-04
5.549518836130e-05
8.040745949318e-05
1.732184497000e-04
2.392003364027e-04
7.177475001527e-04
2.320046903568e-04
2.075153724814e-04
1.800041788403e-04
1.507998795129e-04
7.424671531813e-04
5.071426105021e-04
8.446796247734e-04
0.0
2.497594834345e-04
4.009784043096e-04
3.635781274630e-04
6.932515688423e-04
8.647303225506e-04
6.886146806345e-04
2.931670056878e-04
7.441379809634e-04
6.308353337863e-04
4.980516236996e-04
6.615635321969e-04
8.261379668094e-04
4.064024309512e-04
2.371048478647e-04
5.754464620744e-04
9.026357122935e-04
4.917413561400e-04
5.134823346619e-04
5.630191156583e-04
1.329471826665e-04
5.277021269871e-04
2.878196777098e-04
1.938006262720e-04
1.362334838042e-04
7.132570322814e-04
5.514544182274e-04
3.441653812797e-04
7.429062318585e-04
7.078085783757e-04
5.222121837301e-04
8.463050092743e-04
5.284876028695e-04
5.460070011469e-04
4.376131710040e-04
5.575789166973e-04
2.377977007102e-04
5.035541614816e-04
4.257154416742e-04
3.011811086088e-04
6.820805742593e-04
2.384378149136e-05
5.562902183290e-04
3.071842567668e-04
2.550196540710e-04
2.439773196071e-04
5.894366693464e-04
9.570931057482e-05
3.576303071845e-04
5.731391386351e-04
5.461339597621e-04
5.616867596350e-04
1.271009961872e-04
2.958157551279e-04
2.761694005421e-04
3.216903735558e-04
6.680530276719e-04
3.637979337747e-04
3.949989305544e-04
3.759115002993e-04
1.575634516332e-04
4.501668004302e-04
1.708993772794e-04
9.019026024371e-04
9.023973057295e-04
5.057511345693e-04
2.631127598013e-04
2.307674832005e-04
5.600193776098e-04
2.500946570906e-04
2.700679866253e-04
4.922948739685e-04
8.667616329614e-04
3.318462296128e-04
6.222149882880e-04
1.830371105394e-04
9.023475672024e-04
2.441397582287e-04
5.112104398270e-04
1.689503966276e-04
6.053623747982e-04
4.196544349859e-04
2.903890059932e-04
5.270871447235e-04
9.021440381368e-04
3.510699855254e-04
5.781821550489e-04
1.886309360797e-04
6.316875196563e-04
6.668857487106e-04
2.624435093985e-04
6.164660003841e-04
9.026438880277e-04
7.124911027791e-04
9.030006616607e-04
6.099328680256e-04
7.015574955173e-04
2.180182464546e-04
4.840383207087e-04
5.408811792003e-04
5.701871426172e-04
4.675332375955e-04
9.035883904622e-04
5.850053230518e-04
5.141279373987e-04
3.811690988531e-04
1.956242149518e-04
4.646237938930e-04
2.742553589397e-04
5.220512861019e-04
2.960117191843e-04
3.368501384635e-04
7.076177555195e-04
2.798327001462e-04
4.981195041245e-04
5.922020028833e-04
5.249691217824e-04
9.022141612185e-04
4.195717744466e-04
2.760615473356e-04
3.714756492195e-04
2.666495641069e-04
2.573536274963e-04
7.531436391681e-04
5.406886875803e-04
3.691632618911e-04
4.556110258937e-04
9.030518011549e-04
8.532871781874e-04
7.461245423291e-04
6.934880992847e-04
5.105698072066e-04
3.813116805693e-04
2.690679185398e-04
3.126694468458e-04
5.164893174634e-04
5.919748660066e-04
4.476339003619e-04
7.537614717665e-04
2.814322894241e-04
4.431267281225e-04
5.162384399113e-04
3.994083330778e-04
9.019027868779e-04
9.024199943997e-04
8.466674059490e-04
5.551721733312e-04
7.381697029613e-04
2.318050061718e-04
3.566133739436e-04
2.004113789535e-04
3.876518657496e-04
5.007689008681e-04
6.066206779727e-04
8.634617584911e-04
7.387016338322e-04
5.700145676085e-04
5.843478329972e-04
2.129102317008e-04
9.963202888370e-05
4.255642556790e-04
4.864892581303e-04
4.557093610505e-04
1.015080950596e-04
5.392744089157e-04
1.864447400827e-04
2.686669338435e-04
8.829401381496e-04
6.479849204366e-04
5.101152900271e-04
1.402250907171e-04
4.625920286436e-04
4.307827734045e-04
5.943113921106e-04
9.027611341500e-04
4.797580040648e-04
5.649702214781e-04
4.419535104601e-04
7.334092120784e-04
5.703474346401e-04
9.028672049198e-04
8.818149095568e-04
8.812004500203e-04
8.770344726619e-04
6.086454399872e-04
7.380884957385e-04
7.670249911297e-04
3.946547610248e-04
3.761808931614e-04
4.220813725199e-04
7.589723938571e-04
9.023328764655e-04
7.577932565223e-04
6.026760527823e-04
7.626774697069e-04
6.606437481449e-04
4.567756297563e-04
3.825801685651e-04
2.007576887360e-04
8.470469883245e-04
3.704624717408e-04
8.076533810370e-04
4.162571300339e-04
2.699749840163e-04
8.434505841465e-04
2.924500070844e-04
8.816442479766e-04
8.452247512919e-04
5.545088614739e-04
3.473443607641e-05
8.815269345483e-04
8.437795076668e-04
2.644715325930e-04
6.230832692165e-04
9.043633052623e-04
0.0
4.136686690805e-04
5.789929662664e-04
5.300876254499e-04
5.356595073985e-04
2.252617715596e-04
8.806829294995e-04
4.006991802615e-04
1.303841541133e-04
8.663125818618e-04
6.051131586377e-05
4.315774978662e-04
1.176867923368e-04
4.596515473754e-04
9.012311898414e-04
8.829625409697e-04
5.653646595553e-04
8.124087917367e-05
9.994837872237e-05
1.389614691644e-04
7.526188084607e-04
5.232481456078e-04
5.352467886841e-04
8.832777862969e-04
5.239926934470e-04
9.034954834455e-04
6.742815143354e-04
5.863949273689e-04
2.820464387522e-04
6.178481751699e-04
1.825530642902e-04
8.832148814275e-04
8.787933827960e-04
8.806921593160e-04
5.756624678762e-04
3.963242992692e-04
4.623808742286e-04
5.898300044950e-04
8.827105655163e-04
2.739608454354e-04
3.152297798322e-04
3.346486994201e-04
6.118815291473e-04
9.031087235632e-04
9.826315240639e-05
8.806359177385e-04
3.091995583178e-04
8.830701307018e-04
7.737556814763e-04
2.602550826630e-05
4.315307198807e-04
7.678889909001e-04
8.823867652728e-04
6.136211757286e-04
6.941437612341e-04
1.584089862020e-04
8.072406538752e-04
3.285549430036e-04
3.399738602395e-04
6.350089245098e-05
8.815166830728e-04
2.259416864064e-04
7.443039276558e-04
5.669420517884e-04
2.830302926058e-04
3.206987936709e-04
5.893066187854e-04
8.831255390235e-04
4.112126309151e-04
6.461218310913e-04
5.245062035981e-04
5.860608677982e-04
3.451263767299e-04
6.003773440688e-04
5.107552153637e-04
6.659208771778e-04
6.625383459481e-04
5.000360828217e-04
4.220154532181e-04
2.979654696955e-04
3.903746207876e-04
6.804313980790e-04
5.475016889342e-04
9.031543334572e-04
7.872511197512e-04
2.513213857487e-04
8.791428665884e-04
8.623865534780e-04
4.695549206328e-04
3.669236207070e-05
9.023712677026e-04
7.825243345501e-04
2.836634880462e-04
8.808658468444e-04
6.210975252764e-04
4.005662234096e-04
5.509439591359e-04
5.333534302821e-04
5.303907689406e-04
6.114043158285e-04
6.485756697789e-04
4.497226363466e-04
6.883221258394e-04
5.985234349653e-04
4.277851164571e-04
6.370445780655e-04
3.335340985590e-04
5.972217102501e-04
2.690095818511e-05
3.234473257320e-04
3.145667651333e-04
4.619525145775e-04
4.941683527065e-04
6.157927676169e-04
5.953076823754e-04
2.893667186736e-04
8.829502872488e-04
5.841509097848e-04
4.814294041828e-04
5.596214459887e-04
4.676664971932e-04
0.0
5.801676505400e-04
3.844985916664e-04
0.0
4.554300220234e-04
6.611400294946e-04
7.615386503395e-04
5.667217612569e-04
5.798125605848e-04
4.946399896661e-04
4.612945919967e-04
8.448933154629e-04
5.351237915902e-04
2.265059230248e-05
1.593136185292e-04
3.598215869650e-05
2.756541644965e-04
7.595674519950e-04
7.663452637067e-04
7.206272217663e-04
3.111805889127e-04
6.034032161237e-04
7.573752906357e-04
1.740144548794e-04
3.864583664951e-04
3.117083041406e-04
9.031633853049e-04
8.822228944503e-04
4.285735382123e-04
4.870038452020e-04
5.444247428616e-04
7.843706278062e-04
1.688678543700e-04
7.320309974875e-04
1.024779424926e-04
4.424111468176e-04
4.932536473152e-04
3.661873855527e-05
4.046650665538e-04
7.818962903618e-04
2.628493764547e-05
4.594828512294e-04
4.812071489687e-04
6.367624673799e-04
3.155481759349e-04
3.029147364413e-04
2.132280228371e-04
7.837934729915e-04
8.448257163848e-04
7.363444438744e-04
2.851623301377e-04
1.072863423376e-04
4.603504121984e-04
4.608177344525e-04
4.831872055831e-04
0.0
3.555241354687e-05
7.966173186171e-05
2.342846998403e-04
6.373569268983e-05
4.549076851565e-04
0.0
2.796945326255e-04
6.183777696222e-04
4.824258644607e-04
7.814158546744e-04
6.352076666034e-04
5.781612852690e-04
3.372841396968e-04
1.018092465349e-04
8.804341959841e-04
9.035439950554e-04
5.614027168615e-04
4.616000397093e-04
3.431731325220e-04
9.014339937115e-04
2.659509024599e-04
4.803513075401e-04
4.596149613707e-04
4.369192074101e-04
8.832852469207e-04
9.009032309479e-04
6.250414495270e-05
0.0
1.266214781953e-04
4.876279566065e-04
8.196533199701e-04
2.444433938167e-05
7.274110977346e-04
0.0
6.250843933025e-04
2.867078562402e-05
2.783203544243e-05
5.997115799954e-04
7.944815531002e-04
6.355701656843e-04
4.791132808813e-04
3.652595870710e-05
6.229816343343e-04
8.791826602914e-04
9.014687340808e-04
4.821873124554e-04
6.503883133201e-04
8.818062794857e-04
6.993504510242e-04
9.789390783998e-05
6.279365927203e-05
3.939974307887e-05
3.825618914400e-04
9.021047273405e-04
8.443030366409e-04
0.0
4.516920689161e-04
8.837977955305e-04
9.047268419961e-04
9.014166279866e-04
6.824648899155e-04
7.516239818066e-04
8.796515991076e-04
8.818821043928e-04
7.273160736883e-04
2.211575098140e-05
4.787532764467e-04
4.846356056311e-04
0.0
8.847559387122e-04
9.037195635447e-04
8.791881994104e-04
2.812709352533e-05
2.886337119670e-05
8.807302274622e-04
8.799262388240e-04
6.606959234620e-04
4.786921816039e-04
7.045004432885e-04
5.666139951839e-04
4.780950833957e-04
2.553609013369e-05
2.943212211666e-05
2.487007266475e-05
2.712132983020e-05
4.772021594015e-04
4.286502641088e-04
0.0
6.145195953194e-04
0.0
8.800821581416e-04
8.788987143881e-04
8.809194080868e-04
1.543232978874e-04
2.904945093705e-04
8.796413922759e-04
7.525259440061e-04
8.837915350881e-04
7.992262474011e-04
8.460368269156e-04
4.052497561465e-04
9.034475555497e-04
9.025505378386e-04
7.709083270601e-04
8.195089923752e-04
6.617362762152e-04
0.0
4.176416125064e-04
6.092826118018e-05
7.888929342565e-04
4.363249681698e-04
7.275214838645e-04
2.209065391860e-04
8.130906403886e-05
7.783803544764e-04
4.610171208733e-04
3.609674789086e-04
7.334454872421e-04
7.883388593484e-04
3.608088371091e-04
6.922006084626e-04
6.034876983327e-04
6.562206089320e-04
6.777106223571e-04
3.699030016403e-04
4.367455166762e-04
4.808107450878e-04
6.170029851944e-04
7.543946188843e-04
6.998918906109e-04
2.236916744938e-04
7.865894495829e-04
7.412777532416e-04
5.338023001125e-04
6.428876137913e-04
6.366868729429e-04
7.982659732683e-04
7.683299234494e-04
5.896655507063e-04
7.981209395123e-04
7.317182777283e-04
6.996282799597e-04
8.110166413216e-04
7.924641880626e-04
6.744131504159e-04
6.666687721535e-04
2.222812676772e-04
2.065367340502e-04
1.125541859685e-04
6.237733767345e-05
7.698425966603e-04
7.679810230491e-04
6.018528781591e-05
7.767838420586e-04
5.508431979073e-04
7.139111020130e-04
7.225345758280e-04
3.210916204918e-04
7.277792051553e-04
5.345154592761e-04
6.681973168260e-04
8.270717611794e-04
2.126569924616e-04
8.168359037540e-04
6.998709092975e-04
2.419277465397e-04
2.572139128868e-04
5.157383088969e-04
6.206435762795e-04
3.445305893728e-04
7.246223149107e-04
6.508258121004e-04
5.014012835763e-04
6.818156971164e-04
7.083328473163e-04
6.952144219197e-04
1.892569743241e-04
4.759731321316e-04
7.583758524429e-04
7.205684773620e-04
4.286991399853e-04
6.094148028769e-04
7.977133214395e-04
6.694832793452e-04
1.063908867657e-04
1.078325644387e-04
2.185995729447e-04
7.487063186169e-04
6.453888805748e-04
5.685571839540e-04
5.747340170202e-04
7.632873978513e-04
5.213198554590e-04
7.022694847875e-04
2.278532579141e-04
8.104690401052e-04
5.072778477496e-04
2.493887876613e-04
4.811363962896e-04
3.641239825016e-04
2.855768811343e-04
5.596568083914e-04
0.0
0.0
6.426259570283e-04
2.090044132862e-04
6.487981239576e-04
6.292228741945e-04
3.962033144448e-04
2.579044153745e-04
7.616473441749e-04
1.019762165520e-04
3.852520764996e-04
7.853811998397e-04
1.733076863571e-04
6.041255787992e-04
5.562754309982e-04
1.755785073398e-04
7.771304788849e-04
6.907987842018e-04
2.031638653013e-04
7.812508794649e-04
7.761681869909e-04
2.340588006309e-04
3.099693431780e-04
2.401902132467e-04
6.877850878179e-04
5.412899770906e-04
7.773630800326e-04
7.570625316910e-04
6.683791686238e-04
6.625290522613e-04
1.893340517518e-04
6.820308372633e-04
6.862847063831e-04
5.467902184326e-04
6.498698714300e-04
7.159072219897e-04
4.836380743717e-04
7.367030404168e-04
4.559169101876e-04
5.273150536082e-04
3.411674526490e-04
3.634633618335e-04
6.658946142908e-04
5.048839066709e-04
2.598481237302e-04
1.310675626010e-04
6.702674056581e-04
2.538844621688e-04
8.100545142142e-04
6.906694072021e-04
7.081089564605e-04
8.422326803080e-04
4.360105328501e-04
2.279423584865e-04
1.438342882826e-04
6.746645813760e-04
6.253129879063e-04
9.918819555369e-05
3.502385490956e-04
2.023555415197e-04
6.246699331793e-04
3.695628740598e-04
6.232537801749e-04
3.438500574503e-04
7.461722125166e-04
2.994852823398e-04
6.807902368991e-04
2.134297640903e-04
6.549102842848e-04
5.031003560477e-04
6.885245121902e-04
3.402916395449e-04
1.961866029563e-04
5.822861240524e-04
6.308362435894e-04
4.380632245669e-04
6.281676019648e-04
2.380403549025e-04
6.367384190698e-04
1.839508450066e-04
7.725002622059e-04
6.561620715167e-04
6.933815038025e-04
8.092250112126e-04
5.501611933615e-04
1.836188012187e-04
6.153653481655e-04
7.923633784811e-04
3.086645625323e-04
6.943493645374e-04
6.953376833628e-04
2.383737125918e-04
6.351661673105e-04
5.732469191632e-04
2.731502544442e-04
3.307497968412e-04
5.297758459477e-04
6.688023425968e-04
4.058187172305e-04
5.054096064123e-04
6.614441040854e-04
5.998784189862e-04
5.910883509517e-04
4.972646323121e-04
7.574466861930e-04
5.955283378909e-04
5.798186174699e-04
8.003940697799e-04
7.180161900282e-04
6.490287924266e-04
7.113553544645e-04
3.823555630989e-04
3.565404549641e-04
1.953976897051e-04
6.410050228313e-04
3.763189430417e-04
6.449063337002e-04
6.199045494020e-04
5.084125206731e-04
3.051454170769e-04
3.258730291925e-04
3.248932828681e-04
3.506411482378e-04
2.087274372249e-04
7.378551383479e-04
4.282574386795e-04
7.412552030348e-04
4.541815597642e-04
6.095351943613e-04
5.187506594856e-04
4.997510169959e-04
2.146153585684e-04
7.711538397404e-04
8.079476018067e-04
6.361701368165e-04
3.764967077337e-04
5.641220258623e-04
6.406080403220e-04
4.020423173836e-04
4.195882062222e-04
3.055816158326e-04
2.636950223364e-04
4.082271319947e-04
2.736025990170e-04
2.537953830401e-04
5.245273162057e-04
6.292993035881e-04
7.492900454241e-04
3.203758316606e-05
4.405577458711e-04
4.346027194587e-04
4.023785191973e-04
6.155232675037e-04
4.734346387430e-04
3.196066524516e-04
4.342139395113e-04
7.163087986927e-04
3.260933403649e-04
1.168244718053e-04
1.647945889040e-04
2.770873895178e-04
3.310730520104e-04
4.602757153186e-04
4.600207765890e-04
1.928157764076e-04
1.707341749778e-04
5.895058594021e-04
2.797745439378e-04
7.062976887918e-04
7.244525292788e-04
5.994482200641e-04
7.479362706433e-04
7.722073383501e-04
4.891222082220e-04
6.801196645123e-04
2.186358735565e-04
4.535223376976e-04
4.450813002302e-04
2.467733830818e-04
1.750442891068e-04
3.704464435431e-04
4.405809917950e-04
4.660198440887e-04
2.935158266565e-04
4.992118488517e-04
4.465362306875e-04
4.659568211177e-04
3.372178723478e-04
6.620913788087e-04
6.659627664384e-04
4.464589383721e-04
7.516390930913e-04
2.441816649308e-04
8.072504021232e-04
4.795300791222e-04
8.017371460895e-04
6.085549533664e-04
2.321228935279e-04
6.185852731565e-04
7.630767509020e-04
5.051417859832e-04
3.661414466216e-04
6.376993777508e-04
4.811178594329e-04
1.857807587189e-04
8.390465361483e-04
1.628736303485e-04
8.036589317589e-04
7.822328340233e-04
6.817113985780e-04
5.944690303378e-04
7.324063707552e-04
4.717283072585e-04
5.530050660420e-04
7.919782093495e-04
6.749206336022e-04
6.866667910661e-04
6.457616521014e-04
2.126152465348e-04
7.069826387246e-04
8.629714234730e-04
7.993865070988e-04
4.477431927428e-04
5.982374328927e-04
5.702467583064e-04
4.852758503030e-04
6.550541832802e-04
6.806275031619e-04
1.495582113029e-04
2.819536409307e-04
4.719088448474e-04
4.524404810499e-04
4.753774359264e-04
8.204202764358e-04
7.726022105671e-04
7.860269249390e-04
4.302864262974e-04
7.179879766962e-04
6.608709654568e-04
7.991666135651e-04
6.815066276248e-04
4.792430800077e-04
4.524987585418e-04
7.025482517895e-04
7.779314873333e-04
7.070226180185e-04
6.822309135255e-04
7.465300404061e-04
7.826368761700e-04
7.260240088116e-04
5.837814341675e-04
4.125387530949e-04
7.065160572798e-04
6.683788434956e-04
2.478373517059e-04
4.777284192442e-04
5.353515613939e-04
5.977625510039e-04
2.507745920709e-04
4.583293862520e-04
6.426616075672e-04
4.741323037944e-04
4.930461985426e-04
6.351704220665e-04
5.035899061353e-04
8.748336872995e-05
5.699093729232e-04
6.954848808431e-04
7.976626568000e-04
5.222109466484e-04
5.384171766190e-04
6.412047717611e-04
1.333587154635e-04
6.759698665895e-04
5.725287969111e-04
5.032199876639e-04
6.864279124225e-04
2.514950635447e-04
7.120564692623e-04
7.780948302509e-04
6.564610749456e-04
7.116821158201e-04
7.246360851013e-04
7.833643354194e-04
1.802790547338e-04
6.612816129093e-04
7.861355491829e-04
7.278229343817e-04
6.115797601383e-04
4.833414631772e-04
5.268286526492e-04
1.425296761520e-04
7.526132568008e-04
2.678943445110e-04
2.211120256558e-04
7.044851606333e-04
8.041173484503e-04
2.253293374700e-04
5.541855973425e-04
6.771406016496e-04
5.185055617143e-04
2.565916003583e-04
3.358426263350e-04
1.654267237843e-04
2.195587793392e-04
1.948064560472e-04
5.668209511317e-04
9.024478657275e-04
2.656438147348e-04
7.662341416689e-04
4.141061097714e-04
6.566720836641e-04
1.877799869201e-04
8.084989395093e-04
1.994569434083e-04
3.140464818660e-04
6.820386484981e-04
4.908002713549e-04
7.628181862507e-04
3.758479425673e-04
6.979283655874e-04
7.957911377227e-04
6.571731431381e-04
8.029731230695e-04
7.270515574910e-04
7.476451225947e-04
2.191637260577e-04
7.397348748796e-04
6.976508043859e-04
5.085012302089e-04
3.119003519742e-04
8.251246623771e-04
2.569217320374e-04
2.989728286296e-04
7.328562567959e-04
1.824812964156e-04
5.242757088580e-04
7.013386659934e-04
7.908799406318e-04
8.131260850100e-04
6.875825611049e-04
7.527048348785e-04
4.392290927810e-04
7.101308226447e-04
3.576610988848e-04
7.839173444398e-04
4.037880571282e-04
4.232159837033e-04
5.029022043263e-04
4.507734252293e-04
5.870500808989e-04
4.752244134070e-04
5.026363052125e-04
2.249310114461e-04
4.776453301647e-04
7.733738486002e-04
7.976476035845e-04
6.945548351068e-04
7.772416007150e-04
4.852334699188e-04
7.428006378953e-04
4.970035832583e-04
7.593068717160e-04
7.224411528600e-04
7.227149131649e-04
6.309607774765e-04
4.584456414079e-04
7.531944029664e-04
6.034972236900e-04
2.308119231500e-04
2.624460620044e-04
3.872761120802e-04
5.489843774695e-04
7.797820896700e-04
7.023632392719e-04
4.641088760791e-04
6.218312804433e-04
7.219008359154e-04
7.573917115974e-04
7.785266204010e-04
6.280166874005e-04
7.383877363914e-04
5.278638301658e-04
7.262918204668e-04
5.188928070716e-04
7.977154867570e-04
8.063595481928e-04
5.860927408408e-04
2.315643799225e-04
7.386133228481e-04
5.676947967437e-04
4.449348027813e-04
6.172626666964e-04
7.179827493323e-04
2.370266014844e-04
5.414414582278e-04
6.328258620691e-04
7.852987061870e-04
6.515827953541e-04
7.191722898294e-04
6.137788463094e-04
5.757943947390e-04
6.225247935544e-04
7.525361268811e-04
7.265450907645e-04
6.730854564585e-04
8.087327558910e-04
5.947165434318e-04
3.757083337357e-04
7.690299236002e-04
8.027797653313e-04
5.132285230033e-04
5.378259550272e-04
4.198490164914e-04
6.932498007595e-04
4.196989786401e-04
6.013383056530e-04
4.244065472614e-04
7.076412824924e-04
8.082825049946e-04
4.390606027736e-04
1.483230989868e-04
8.029617023961e-04
4.435164002791e-04
5.102475381477e-04
7.829133683486e-04
6.777367698023e-04
7.065388141310e-04
4.506750626245e-04
1.167461404750e-04
8.120451166423e-04
5.678324770761e-04
6.713655535843e-04
7.707853918245e-04
7.492364537136e-05
7.006400612350e-04
3.174082064534e-04
6.321144681100e-04
5.639974680990e-04
4.332125152761e-04
7.650774128591e-04
5.816219672421e-04
3.891223975006e-04
5.975818898240e-04
1.224806412890e-04
6.853035704159e-04
7.134125102004e-04
8.179492543021e-04
7.297421601193e-04
3.065079168190e-04
7.004003726196e-04
8.165253916176e-04
8.479924542833e-04
7.386332535642e-04
4.696607101220e-04
6.412724926972e-04
7.730297312436e-04
5.224557452220e-04
6.991686312028e-04
6.522881639181e-04
7.454810025326e-04
7.319099201394e-04
4.592718609033e-04
4.589748948831e-04
6.632348156822e-04
6.550643866417e-04
5.839389106664e-04
6.520225668259e-04
5.568349206801e-04
7.827592798598e-04
4.641682869918e-04
9.023985271437e-04
5.323389960366e-04
5.433977192185e-04
5.581483784777e-04
2.876533767836e-04
4.987925639303e-04
6.113280308229e-04
5.734936793023e-04
6.486149626944e-04
6.664011184541e-04
6.953526663878e-04
1.412062264109e-04
4.675204502198e-04
4.485143747990e-04
6.274607649306e-04
6.578443530004e-04
7.694390836844e-04
2.018827599834e-04
2.118548485698e-04
5.434196226545e-04
4.731655300954e-04
4.306957946138e-04
4.543511483622e-04
6.528939094235e-04
2.067591147696e-04
5.327937831684e-04
7.010212531473e-04
2.056531891882e-04
8.439841012356e-04
7.711259233898e-04
5.127813030370e-04
7.142204993727e-04
8.010879403205e-05
6.760026335023e-04
5.731440943210e-04
7.848797575394e-05
7.668831780950e-04
1.937244266693e-04
6.327922999710e-04
5.785286832994e-04
4.968174943866e-04
5.956127873224e-04
7.880861604784e-04
6.409960854337e-04
5.623311144195e-04
5.487641104452e-04
6.109272857416e-05
1.629874435700e-04
7.482510755206e-04
6.040877386252e-04
7.640917445135e-04
3.123204989809e-04
7.273523556962e-04
7.747935678475e-04
4.649937047846e-04
7.426717535746e-04
7.200303897050e-04
6.303284010484e-04
5.129756421741e-04
5.441585730997e-04
8.113189037915e-04
5.503878304791e-04
5.924281748206e-04
5.531250535128e-04
6.865936238777e-04
5.186424646122e-04
3.204813496190e-04
5.606647508770e-04
3.450779890533e-04
6.470302402466e-04
3.505252796099e-04
6.277520247305e-04
7.587948185470e-04
7.268103064184e-04
4.888355696636e-04
6.236801479114e-04
7.339558663339e-04
7.397456106695e-04
1.647892676569e-04
6.415300113062e-04
8.022742046258e-04
3.412132358055e-04
5.581165807734e-04
8.708025055710e-05
7.535189856760e-04
3.010719485934e-04
5.274804108231e-04
6.673026496075e-04
6.282397646401e-04
5.981992314315e-04
5.868815627898e-04
3.840091498006e-04
4.074033715262e-04
7.595591585227e-04
6.255621355900e-04
5.413215478798e-04
6.709724982699e-04
5.163063894937e-04
3.315774455480e-04
3.763959762493e-04
5.615934434708e-04
4.817973037771e-04
7.326130562771e-04
4.941499276580e-04
8.205042127968e-04
7.452468947420e-04
5.472972600878e-04
8.312900741524e-04
3.699819044739e-04
8.018291199323e-04
5.922723470957e-04
6.492908331354e-04
7.668482132430e-04
3.896525471501e-04
6.172543904820e-04
5.220226255599e-04
6.028779115149e-04
3.408590409728e-04
6.699987248021e-04
4.909242862165e-04
5.778210378881e-04
5.978296419796e-04
8.229029561000e-05
5.981137410256e-04
1.283223021349e-04
1.425604046919e-04
5.519635169088e-04
7.343432326655e-04
6.172079870032e-04
3.390874049380e-04
8.835512891396e-04
3.541794485888e-05
3.613399971481e-04
5.544855267789e-04
5.326254913468e-04
4.424845602747e-04
3.782682788717e-04
5.798739096979e-04
6.167777849603e-04
6.437007506706e-04
7.590632464972e-04
1.759096795290e-04
5.070291229362e-04
5.467926510370e-04
2.917605163706e-04
4.894986857120e-04
6.227812367473e-04
6.771752748072e-04
1.001730422140e-04
6.527003657202e-05
2.035166912421e-04
5.524955955533e-04
4.141708406182e-04
3.646770521929e-04
3.255364608925e-04
5.717928128404e-04
6.564800500114e-04
5.666644769926e-04
4.085506308660e-04
6.465993337185e-04
5.417387641994e-04
7.125425157821e-04
5.723661868930e-04
5.777202621077e-04
2.916076193924e-04
4.336480661839e-04
5.858412025591e-04
6.379366452071e-04
5.991263956497e-04
3.166301193058e-04
5.916947495787e-04
3.585996022864e-04
1.686121238923e-04
8.065430386563e-04
1.781249146415e-04
3.724154870578e-04
5.819798147523e-04
3.300189918571e-04
5.928518961627e-04
2.717893358977e-04
5.034514971512e-04
5.975048584584e-04
5.161248570229e-04
5.386329409282e-04
8.667360441849e-05
7.766355700003e-04
4.278027150325e-04
7.709884658025e-04
6.554981013868e-04
6.113729652278e-04
6.169416889889e-04
3.837801442347e-04
1.206709874370e-04
7.269670928316e-05
6.307319205139e-04
7.666183021714e-04
3.527221907689e-04
6.608281624571e-04
3.135411494528e-04
6.715213762121e-04
8.631320342243e-04
2.443176703526e-05
8.829965077119e-04
8.852121263970e-04
5.187863560737e-04
4.219301114264e-04
6.361517130024e-04
3.946797178833e-04
1.259295258068e-04
6.663094765465e-05
8.124043100395e-04
6.435964837156e-04
4.857059802391e-04
9.024611897643e-04
2.289087475018e-04
9.032106261994e-04
6.378439507150e-04
4.156051056860e-04
6.056962681492e-04
3.904754317435e-04
1.913315701783e-04
3.651077128311e-04
6.756031953244e-04
7.724144175276e-04
3.966058680347e-04
6.856021964007e-04
0.0
4.025686827041e-04
7.139120631654e-04
3.570731400853e-04
3.273347299656e-04
6.111873319657e-04
1.714241601602e-04
2.420040212522e-04
2.712090176002e-04
3.127039070016e-04
5.608332313648e-04
5.328849272093e-04
6.902231196026e-04
8.080955017943e-04
2.842556977963e-04
6.821682045895e-04
8.109606697113e-04
3.645861892778e-04
1.258230046435e-04
3.462855414954e-04
5.351169772372e-04
6.908562819823e-04
5.298709099370e-04
1.475829349837e-04
6.052995487488e-04
2.176340386909e-04
5.379426478049e-04
5.747509196573e-04
6.255223732288e-04
6.198429424376e-04
3.190834650638e-04
1.430237184057e-04
6.204770996910e-04
2.385014860191e-04
5.727538746632e-05
8.088933360730e-04
7.702342677557e-04
3.537830069708e-05
6.503365910815e-04
2.479462791813e-04
2.600158871832e-04
7.304280687047e-04
6.303423890785e-04
7.052277971026e-04
4.085225165101e-04
4.822303009211e-04
8.428341203802e-04
2.144184038726e-04
7.491156234450e-04
5.624077246742e-04
1.620147722767e-04
6.703416370318e-04
4.275751542475e-04
7.844671194514e-05
3.593652216937e-04
6.605802268349e-04
6.829403826903e-04
1.683856497506e-04
5.389059366488e-04
7.114080209456e-04
7.412554945831e-04
3.386366915787e-04
2.659836531276e-04
5.773807037095e-04
6.106537074396e-04
7.794080869892e-05
8.647472179012e-04
8.429320017221e-04
5.419416684599e-04
8.464641737961e-04
8.449768812639e-04
4.218473016108e-04
4.026312649594e-04
8.662430778611e-04
0.0
2.463689065015e-04
5.423185032493e-04
3.455780040321e-04
3.534199359639e-04
1.932563100895e-04
2.285242578868e-04
5.533910755366e-04
3.894757547290e-04
2.855356333337e-04
7.152732176559e-04
9.025430170280e-04
9.028555141478e-04
4.158729496666e-04
4.991986293731e-04
5.007569812017e-05
1.549723110472e-04
1.733686555641e-04
1.773311158401e-04
6.057473022357e-04
3.472267394595e-04
3.840401147294e-04
1.047743844350e-04
7.694785082956e-04
3.779515105815e-04
8.054340909103e-04
7.382880291593e-04
9.042222901304e-04
9.037391284983e-04
5.542239624202e-04
3.965200569982e-04
2.395169663989e-04
4.095473271816e-04
8.846617183911e-04
1.091075619098e-04
1.309117937249e-04
7.757007018757e-04
5.216493301951e-04
8.114985139276e-04
7.149555952708e-04
7.808260194802e-04
7.476070933347e-04
5.490969887376e-04
3.014610573917e-04
2.949948221418e-04
6.532450277148e-04
7.635848575454e-04
4.588641132707e-04
5.205058156001e-04
5.540928897098e-04
5.659168286544e-04
1.420511469143e-04
2.680728897049e-04
8.651629045309e-04
6.052440982456e-04
8.634119896890e-04
8.245717668539e-04
6.764662760295e-04
8.149161431282e-04
3.967880254959e-04
3.767005960415e-04
8.110139756078e-04
3.456957431072e-05
2.657950424331e-04
8.824542840959e-04
1.237061144379e-04
4.987214213507e-04
8.294168402688e-04
8.695215841111e-05
5.602562008274e-05
9.015334466947e-04
4.603425485765e-04
8.489922161072e-04
8.087138917440e-04
4.591008030381e-04
5.552241480747e-05
8.444214902365e-04
1.414135789209e-04
8.168961864667e-04
8.837090559571e-04
8.142426765288e-04
1.807958899793e-04
5.595583047635e-04
4.199792468794e-04
7.164591502921e-04
9.028817437699e-04
7.102313129860e-04
9.026811156521e-04
8.288145526137e-05
8.646233726606e-04
2.069739792553e-04
1.172764018555e-04
8.657097316282e-04
8.659008612292e-04
8.625184092857e-04
5.047279818662e-04
5.503926425959e-04
1.934303277458e-04
8.651050625011e-04
3.388354453695e-04
1.130064855855e-04
7.389517174799e-04
4.782630476822e-04
8.223389270152e-04
8.930658412704e-04
8.840898532866e-04
2.334843234610e-05
1.127894866393e-05
4.694771593736e-04
4.807281389759e-04
8.834165587509e-04
8.924916119185e-04
5.576594174246e-05
0.0
8.119181321880e-04
8.142322994913e-04
1.701766019211e-04
8.251842060796e-04
5.739886326733e-04
5.078648088346e-04
6.388823889726e-04
1.550243662730e-04
6.739268272391e-04
1.393043346543e-04
4.524792319836e-04
8.185153464905e-04
7.987444324357e-04
4.885491561285e-04
5.870976835179e-04
8.300271616539e-04
7.651236002798e-04
7.207118451452e-04
4.587797315069e-04
6.508513547530e-04
8.137396714987e-04
2.548267730587e-04
6.130172025363e-05
7.910594940571e-04
7.454571359396e-04
1.168423234533e-04
6.691954016891e-04
8.437645600948e-04
7.822748954746e-04
8.291678905268e-04
6.276953752614e-04
3.676099362061e-05
1.910008398258e-04
2.410902129174e-04
5.367277688070e-04
6.465619629803e-04
8.260192756098e-04
8.426510046720e-04
9.968867775761e-05
9.583122356830e-05
1.529254075451e-04
6.701562114990e-04
3.239280242567e-04
8.294279570789e-04
1.624109286017e-04
8.067702666274e-04
5.436640056567e-04
8.463726308532e-04
7.450121923899e-04
5.381792224530e-04
8.657268182902e-04
8.669176791877e-04
8.641188598614e-04
1.063408641689e-04
8.096899185402e-04
8.433515583067e-04
8.209426083778e-04
7.578403458605e-04
8.820824508574e-04
7.152183658321e-04
0.0
1.476863544574e-04
7.925042984467e-04
5.819610102914e-04
8.150003304523e-04
7.872814678585e-04
8.479070143319e-04
7.210640868520e-04
8.478357315245e-04
8.252654922693e-04
8.217924527873e-04
3.382456616413e-04
9.027319105777e-04
5.177284306761e-04
8.149780141980e-04
7.602985457212e-05
7.853489742656e-04
6.747924126657e-04
9.715604780866e-05
1.703587158512e-04
7.357623737217e-04
8.456239339759e-04
8.256639794594e-04
8.510870588008e-04
5.779321806582e-04
5.698562791087e-05
8.903845588755e-05
6.283407249005e-05
1.237561416650e-04
2.218122983909e-05
4.492152745151e-04
8.141022284179e-04
8.188324132241e-04
5.825183578263e-04
3.912991429551e-04
8.215127337613e-04
8.144364166830e-04
8.676175675571e-04
8.131246206762e-04
7.790398171078e-04
7.703091579876e-05
8.521732389425e-05
8.233105816384e-04
7.749586532649e-05
1.142956473345e-04
7.248547269918e-05
8.699680012183e-05
8.468513703275e-04
8.482556314247e-04
8.272172742286e-04
8.507165112290e-04
7.882896166762e-04
6.050128159723e-04
8.848716184046e-04
2.082654753157e-04
4.770383954530e-04
1.308584681555e-04
3.200133854228e-05
9.023297721724e-04
5.253788953819e-04
1.321285258096e-04
4.283053972209e-04
8.675733916602e-04
8.249021745336e-04
8.483302000566e-04
3.066024421433e-04
8.148429218192e-05
8.670431337253e-04
9.023411771345e-04
9.053923630978e-04
5.028745524170e-04
8.096342445588e-04
1.166784308444e-04
8.309395715063e-04
3.072536449823e-05
8.491015123024e-04
8.642157995563e-04
3.254999792424e-05
7.915264275696e-04
6.950269549080e-04
8.486200653357e-04
8.870888049155e-04
6.371787866159e-04
8.507580346647e-04
8.288142407060e-04
6.543265911992e-04
8.219609091343e-04
3.580802034436e-04
4.580585415293e-04
8.289670477400e-04
8.604442280761e-04
0.0
4.595975431844e-04
8.621910031762e-04
1.592545715764e-04
8.297085483634e-04
8.243206064822e-04
8.644406776067e-04
1.547160338610e-04
1.208044010377e-04
5.264955792143e-04
7.516483182700e-04
1.891156848520e-05
8.515789897366e-04
6.135789601255e-04
1.559509946477e-04
5.832862224491e-04
8.658507257749e-04
5.521778443811e-04
4.558321396471e-05
3.239427989419e-04
4.776913424967e-04
5.701251507253e-04
8.287479897685e-04
4.636624967177e-04
4.900391319366e-04
7.786229875005e-05
8.280550521141e-04
7.926388045417e-04
1.331660701839e-04
8.512291248288e-04
8.566440339275e-04
5.134667395409e-04
6.297245589001e-04
4.683583638002e-04
4.786896715519e-04
5.070171589005e-04
7.879088551411e-04
1.144990407912e-04
8.287518740281e-04
5.339553679767e-04
8.658836050112e-04
7.862007520820e-04
5.990262297868e-04
7.981889298720e-04
8.203027348467e-04
8.695097463781e-04
3.580066420134e-05
8.023135303917e-04
8.310675113497e-04
8.967195667714e-05
4.375219600786e-04
5.410315473196e-05
8.369220774202e-04
3.823738146998e-04
3.954225263856e-04
3.697566624949e-04
3.939322582241e-04
3.688694981486e-04
3.944097865815e-04
3.693773633783e-04
3.940314017453e-04
3.688791821506e-04
3.943498072948e-04
3.693104022334e-04
3.943240387101e-04
3.692423004483e-04
3.983221388088e-04
3.950761893213e-04
3.697532978986e-04
3.757283910689e-04
3.940431169503e-04
3.690941919872e-04
3.688922250286e-04
3.943316706399e-04
3.695967294386e-04
3.950039595106e-04
3.699171745464e-04
3.947738597822e-04
3.836764221872e-04
3.696289525296e-04
3.946866788540e-04
3.951305091693e-04
3.698050963930e-04
3.917401968718e-04
3.700257270424e-04
3.984140208452e-04
3.678384251997e-04
3.553107824800e-04
3.787353646524e-04
4.015883610286e-04
3.798602337846e-04
3.917784855672e-04
3.672570110000e-04
4.343021193814e-04
4.144431140943e-04
4.400238155636e-04
4.160910928413e-04
4.407194433539e-04
4.169792812266e-04
4.421275663542e-04
4.155655137509e-04
4.404257626118e-04
4.163557751547e-04
4.417490498800e-04
4.164243392235e-04
4.451512402664e-04
4.411469643058e-04
4.182864247912e-04
4.154450539294e-04
4.421592365310e-04
4.167200733669e-04
4.407251200889e-04
4.170139093125e-04
4.420435047998e-04
4.169234513539e-04
4.225836555007e-04
4.425201970351e-04
4.165861177248e-04
4.414159334299e-04
4.159924669279e-04
4.163537947849e-04
4.414971076271e-04
4.437645096039e-04
4.307709466435e-04
4.017743348262e-04
4.348445271150e-04
4.227645607119e-04
4.331703470473e-04
4.187044942453e-04
4.146339968586e-04

SCALARS element_materi_plasti_phimob float
LOOKUP_TABLE default
9.636224445775e+00
6.665866611353e+00
1.925175672468e+01
1.750856014165e+01
3.217360346225e+00
-7.285249915136e+00
3.429758056216e+00
8.778620057060e+00
3.586990686918e+00
1.745271994248e+01
2.158362022139e+01
5.026095246157e+00
2.095496231270e+01
6.903175454715e+00
2.075825114175e+01
1.788840241917e+01
1.954076079763e+00
-7.570454407379e+00
1.079625149146e+01
1.178238814980e+01
1.741548958628e+01
7.378903955803e+00
1.023572833617e+01
2.175605039966e+01
1.005284864399e+01
2.165006167978e+01
-2.752334569200e+00
2.160980637246e+01
1.037072632877e+01
2.172399852717e+01
2.211417955249e+00
-2.077814811420e+01
1.884430272196e+01
2.140081381644e+01
2.116399111593e+01
2.089552304953e+01
2.079148209475e+01
2.176639004433e+01
-3.201289313363e+00
-2.851274692078e+00
1.010462914319e+01
2.096151784650e+01
5.124685894789e+00
-2.961725035969e+00
1.702326746200e+01
4.016622470646e+00
-4.609776054732e+00
1.718850602504e+01
-2.205018068070e+01
5.156372930050e+00
1.082220094497e+01
1.407255566882e+01
1.120732147202e+01
6.516857571993e+00
1.841169188009e+01
1.765561693994e+01
1.499882297021e+01
2.146744311579e+01
5.059933563723e+00
1.786185710222e+01
-2.737186583222e+01
2.199572252282e+01
1.707389355023e+01
9.019884097127e+00
2.096163585679e+01
6.970289522541e+00
-3.003601698727e+01
1.906362107583e+01
5.727628077935e+00
2.060400113295e+01
2.164926165465e+01
1.896782046962e+01
2.116760899087e+01
-1.389295286489e+01
1.831251946049e+01
1.757006359174e+01
1.836531391189e+01
-7.164149457886e-01
5.639314313492e+00
2.153929941149e+00
6.180775962402e+00
1.655381757169e+00
1.030813404172e+01
6.167762902423e+00
5.937824591503e+00
5.927346775143e+00
2.159919822223e+01
2.150603821649e+01
1.726513662143e+01
3.014875501775e+00
-2.121965960621e+01
3.092206365548e+00
1.453479509332e+01
1.418792897455e+01
1.847598802843e+01
2.130248894934e+01
1.444594713805e+00
2.143727072115e+01
9.687386044710e+00
1.465630496290e+01
3.990102198067e-01
2.083119424779e+01
2.241356595750e+01
2.172857449767e+01
1.599552224863e+01
-6.026552614446e+00
2.114922647377e+01
1.543957455739e+01
-2.275861974813e+01
2.071694614222e+01
1.703320001705e+01
-2.530190632649e+01
2.161611128846e+01
3.713654888041e+00
2.002923497304e+01
1.396776338894e+01
1.673479660967e+01
2.100500113396e+01
8.643457852158e+00
1.706393986335e+01
4.881832247750e+00
3.833740269547e+00
1.559772954358e+01
1.644295676169e+01
-9.701890749517e+00
5.623428594529e+00
1.972406578808e+01
1.917028803921e+00
1.803601796872e+01
-3.761460229407e+00
2.166078851231e+01
1.754262516013e+01
1.547451458277e+01
7.818053193801e+00
2.133621773766e+01
2.092905549116e+01
2.166024012856e+01
1.555821851900e+01
2.158009699627e+01
1.287729844179e+01
1.779206991030e+01
2.062944332547e+01
6.922024566953e+00
1.241038064009e+01
1.436685799993e+01
4.822475554462e+00
1.656624283491e+01
1.862054747337e+01
1.512835745040e+00
2.115821502123e+01
-2.215004855029e+01
5.762097603189e+00
6.810586663441e+00
4.155179537630e+00
2.103059666973e+01
1.674677450169e+01
2.158730057174e+01
5.413930069885e+00
2.271057792084e+01
2.173253338277e+00
2.171571039560e+01
2.136071811292e+01
5.011949528736e+00
2.117615959853e+01
9.443459629262e+00
2.111085843589e+01
1.900306848516e+00
1.865201897290e+01
-4.927265001507e-01
2.169457305583e+01
7.270586369925e+00
2.106727838838e+01
1.338003461725e+01
1.747316084653e+00
2.045418041782e+01
-4.890810732188e-02
1.953953336875e+01
2.040018176755e+01
2.125511971573e+01
2.081852747031e+01
1.149939650320e+01
2.054664175373e+01
2.220417261587e+01
1.215486057336e+01
9.605290277608e+00
5.803312322828e+00
2.021691090890e+01
1.778939342442e+01
1.628046367409e+01
2.127213879844e+01
2.288437415220e+00
2.081652023506e+01
1.711961153341e+01
-3.128999783947e+01
9.569248692048e+00
2.245705969573e+01
-3.627803172074e+00
1.842837109714e+01
1.302852851046e+01
2.164591695086e+01
2.282371038749e+01
7.200265365899e+00
8.998441258665e+00
2.143616184987e+01
1.868779493497e+01
1.829312524305e+01
1.201932985606e+01
1.378633988379e+01
1.044801725136e+01
7.640064643321e+00
2.289227207523e+01
1.875687727903e+01
-2.536198399898e+01
1.155531237879e+01
1.460410117024e+01
1.734459598417e+01
1.660980290515e+01
4.627695129795e+00
2.256532626992e+01
1.263432018233e+00
2.154791032647e+01
2.262745928520e+01
-1.710146324205e+01
1.467099314281e+01
-2.317302393876e+01
-2.543404245704e+00
3.739160329508e+00
1.661750894072e+01
1.521396668638e+01
1.507229207009e+01
1.006952475019e+01
1.048430116906e+01
8.284062178910e+00
2.265509716273e+01
1.060006726189e+01
2.103061733134e+01
-3.618152419871e+01
1.480186631494e+01
2.255514296884e+01
1.075152685693e+01
2.293495838554e+01
2.107040638778e+01
1.553131657425e+01
1.823110427944e+01
2.232805820763e+01
2.165987105312e+01
1.647374023238e+01
1.421160711072e+01
2.138965673721e+01
2.191576844296e+01
1.069161591651e+01
1.251714291092e+01
1.846985496288e+01
1.876472166897e+01
2.317616981121e+01
6.513834675539e+00
2.381285619680e+00
9.292731350643e+00
1.915819616943e+01
1.199250039289e+01
4.797763353700e+00
1.515396392944e+01
1.259308900457e+01
1.906586234244e+01
1.565822010798e+01
1.644414452652e+01
1.545016196988e+01
2.078691541853e+01
2.377212558952e+01
1.441827574748e+01
2.113583024838e+01
2.320794503320e+01
1.663772573371e+01
1.977333698281e+00
2.250404472356e+01
1.956452155873e+01
1.532835989443e+01
-2.395477720837e+01
1.051897563951e+01
2.055020249628e+01
1.383387489968e+01
1.552763308979e+01
1.362956840039e+01
-5.738916953573e+00
1.452406488056e+01
2.368461493424e+01
1.181576120330e+01
6.740134914520e+00
-3.257662048246e-02
2.054228002732e+01
1.834420026225e+01
1.221274552670e+01
1.446522538244e+01
1.500614665761e+01
2.298716028805e+01
2.241039814716e+01
3.217197675383e+00
2.222953216846e+01
2.414981203285e+00
1.893216384680e+01
1.960101476556e+01
1.964784879955e+01
1.811661886257e+01
1.223343802537e+01
1.533776441250e+01
1.499805835414e+01
1.929246327476e+01
1.543138526815e+01
1.769973324894e+01
2.117519944941e+01
2.318684096156e+01
7.810757617498e+00
2.128415771435e+01
1.605205088644e+01
1.734644902100e+01
8.962377129168e+00
2.358557380077e+01
2.310924501047e+01
2.013879614187e+01
1.279125247058e+01
2.061793284014e+01
2.208053287074e+01
2.329912094332e+01
6.363802729186e+00
1.133162927847e+01
2.299198206777e+01
1.212069753098e+01
1.029927279956e+01
2.129827174196e+01
2.264158920648e+01
2.025124867300e+01
1.017859728777e+01
1.719514539790e+01
7.083264116536e+00
1.095024476480e+01
1.391098017867e+01
1.423606480616e+01
1.939266464102e+01
2.151161563349e+01
9.339572876598e+00
7.684570498916e+00
2.168475387351e+01
1.343014367100e+01
8.104074498690e+00
1.588168197009e+01
2.048520411437e+00
1.921323013555e+01
2.034092487712e+01
1.562947011091e+01
1.504731288045e+01
1.233261179443e+01
2.368554523737e+01
2.312241337819e+01
2.157301473857e+01
1.093307137542e+01
1.963156791200e+01
2.088160264255e+01
9.776086711292e+00
1.281959703930e+01
1.735733386674e+01
1.714938468939e+01
1.252940359387e+01
1.023424085378e+01
2.149407913564e+01
2.178621493048e+01
1.725641905226e+01
1.481484085459e+01
2.273169967143e+01
1.695441607229e+01
1.707299344108e+01
1.961854524639e+01
1.803370507941e+01
2.329516062153e+01
2.137100291480e+01
1.676618745831e+01
1.859759728669e+01
1.984735920350e+01
1.420316983462e+01
1.872340099193e+01
1.982719782423e+01
1.933955531833e+01
1.843200451284e+01
2.281264262704e+01
1.564997677246e+01
1.164633263437e+01
2.125379905510e+01
1.080625987561e+01
1.482321178931e+01
1.665168667408e+00
1.006103420758e+01
2.173018982513e+01
1.782763973273e+01
1.182537267812e+01
1.516458504157e+01
1.466597806422e+01
-5.574407577491e+00
2.249284275739e+01
2.049072193791e+01
2.191654971811e+01
-4.395140323585e+00
6.387977548010e+00
1.123379886088e+01
1.726114455834e+01
2.070292956168e+01
2.296860989880e+01
6.013110237361e+00
5.436246994539e+00
1.913004819925e+01
2.198788643231e+01
1.411527281048e+01
2.093291418567e+01
9.826766637296e+00
1.620950411541e+01
2.176976928918e+01
1.598947215594e+01
2.310187015300e+01
2.106462314227e+01
2.064784524025e+01
1.976210493013e+01
2.019537133397e+01
1.504720289657e+01
1.604509819891e+01
1.796601833039e+01
1.883444024650e+01
1.693851767721e+01
2.094656471629e+01
1.682376479688e+01
2.143441691546e+01
1.636901212361e+01
2.313024015656e+01
1.638696036264e+01
2.127950993617e+01
2.095154500558e+01
1.402373820189e+01
1.135910723506e+01
1.802876460346e+01
1.912520230001e+01
2.094314640328e+01
2.131895994397e+01
1.785883310631e+01
2.114599013595e+01
1.810948155900e+01
2.082851588687e+01
1.856049994804e+01
1.795409136316e+01
-2.276393502738e+01
2.105115272783e+01
2.121763440469e+01
1.876401515414e+01
2.316685168139e+01
2.158575800053e+01
-5.185460248612e+01
2.027817596794e+01
1.705074887787e+01
1.883658300697e+01
1.632661339368e+01
1.334613417606e+01
2.115158045588e+01
2.228014753636e+01
-4.499948539348e-01
2.119226140251e+01
-2.223990825794e+01
1.149969910350e+01
4.210775566325e+00
5.921078211296e+00
2.140629214836e+01
2.113852656353e+01
1.372250554747e+01
-5.321429096489e+00
-5.491082526233e+00
2.401457514392e+00
2.182187440582e+01
2.254326039184e+00
7.989351679826e+00
2.106762647465e+01
2.102861514599e+00
1.884065977340e+01
2.172479752297e+01
8.719571703080e+00
1.383702341725e+01
2.350618288836e+01
7.264930408276e+00
2.095749846763e+01
2.042373955395e+01
1.998743334600e+01
2.267369263165e+01
2.045872996957e+01
2.090443331209e+01
2.289838046513e+01
2.084645427254e+01
1.634079065169e+01
2.119272236910e+01
2.164212295587e+01
1.026812247924e+01
2.121062002703e+01
-6.418797338655e+00
2.074109657922e+01
2.070317360066e+01
2.097087343076e+01
1.801669204041e+01
-4.643310816699e+01
2.136880860049e+01
1.613254208912e+01
2.112516283034e+01
1.540326734237e+01
2.210930463179e+01
4.733315355139e+00
2.162539283821e+01
2.109113890500e+01
2.079492177112e+01
-2.182894715884e+01
2.115386013925e+01
1.317371246663e+01
2.227166342701e+01
7.125961268717e+00
1.815674037857e+01
2.029657901018e+01
1.552549092893e+01
2.101888314962e+01
2.096059573918e+01
2.263887408757e+01
2.070755490544e+01
2.316428005096e+01
2.114914987824e+01
2.277415612688e+01
1.993559242996e+01
2.015055415366e+01
2.324179414092e+01
2.133263132370e+01
2.175497826024e+01
1.730588390532e+01
2.080066412403e+01
2.172641521112e+01
2.383054957135e+01
2.134205805779e+01
1.674784556157e+01
1.739623808530e+01
2.078798784843e+01
2.178851184038e+01
2.285323404213e+01
-2.221115282546e+01
2.117127579101e+01
1.706072909601e+01
1.950882732672e+01
2.066557073086e+01
2.260391641803e+01
1.639905277750e+01
9.579498339999e+00
2.332612248757e+01
2.263370354874e+01
2.317724076936e+01
1.327810955719e+01
1.435011362373e+01
2.300572380476e+01
9.283268080588e+00
2.128942251635e+01
2.345924929848e+01
2.031401989658e+01
2.214959241313e+01
-4.179078882405e+01
1.803082896279e+01
1.984474437454e+01
2.177010030270e+01
2.251919667678e+01
2.297720606250e+01
9.104149190683e+00
1.869184795964e+01
2.063438865673e+01
1.773434383031e+01
2.174869711131e+01
1.853635643300e+01
2.143541656675e+01
-4.835646099600e+01
1.080472312684e+01
2.016537761439e+01
-5.858110691062e+01
2.142399903674e+01
2.275920604911e+01
1.592539205808e+01
2.328557317866e+01
2.360857341934e+01
4.060697816059e+00
-5.656889210316e+00
1.818985563528e+01
1.927336181272e+01
-6.296067921313e+01
8.056869339120e+00
-2.243816651581e+01
1.751708081296e+01
1.958591722346e+01
1.587996069646e+01
2.205990791818e+01
1.872496053368e+01
2.193285524320e+01
2.225800569029e+01
7.746512253249e+00
2.005396657279e+01
1.854126944071e+01
2.112847812925e+01
2.060587942452e+01
2.070983952997e+01
2.145320828274e+01
2.295387094882e+01
2.214200616445e+01
1.070200026468e+01
2.238366114844e+01
-3.305778747528e+00
2.109722230282e+01
2.174155329280e+01
-2.002465384131e+01
2.035186227415e+01
1.678817332099e+01
-6.138742637509e+01
-5.402093201580e+00
-4.172729587259e+00
2.312784649223e+01
1.848132817647e+01
2.007165331731e+01
8.837724395750e+00
2.154335974968e+01
2.100912932776e+01
1.501133523420e+01
1.308561637306e+01
-8.687247284699e-01
1.210114733490e+01
-5.031808051624e+00
-4.862118151465e+00
-5.790508838573e+01
-2.054439263508e+01
-2.405290342645e+00
1.594048982662e+01
-1.952533322195e+01
2.104149571081e+01
-3.911608600188e+01
1.812008868657e+01
1.149632304239e+01
-5.074347826183e+00
1.927074907967e+01
2.274388778409e+01
9.256269302476e+00
1.910222887385e+01
-3.005647671279e+00
1.864995843673e+01
1.834605635473e+01
7.002283035389e+00
-5.360004743986e+00
1.914103069067e+01
1.830152511628e+01
1.697019209201e+01
-4.891736822966e+00
-5.615934016434e+00
6.699612599418e+00
1.956549641212e+01
1.828167627850e+01
-2.022002397100e+01
-5.751816960575e+01
4.114908144068e+00
2.209735863572e+01
2.106378899584e+01
-2.878481736300e+01
1.506375642881e+01
-4.178653400297e+01
2.340842712139e+01
-3.716367111882e+01
-3.309602311301e+01
2.342972136346e+01
2.122487656364e+01
1.132242753560e+01
1.449818311947e+01
-1.979346108729e+01
2.184158409292e+01
1.841292004596e+01
1.827853912352e+01
-5.095877635792e+00
2.333083974155e+01
1.857620423585e+01
2.199262027416e+01
-3.492327729636e+00
-1.960708334330e+01
-2.015370716166e+01
2.000508275299e+01
2.082236790773e+01
1.754266012444e+01
-5.740257717949e+01
2.094039294457e+01
2.050011687746e+01
2.088378240739e+01
2.109575780616e+01
1.369653366493e+01
1.566510421255e+01
2.048791516096e+01
2.049843448647e+01
1.506710581342e+01
-6.468117215458e+01
-5.230290900826e+00
-4.937730996291e+00
-5.751546556742e+01
2.052353247053e+01
2.108417755474e+01
2.053545120625e+01
-6.086261662382e+01
-6.056664545103e+01
2.057864500114e+01
2.055851643267e+01
1.287709334366e+01
-5.298914297043e+00
1.441643180856e+01
7.873194085434e+00
-5.235856211259e+00
-6.165976871741e+01
-5.897224502380e+01
-5.584628590513e+01
-5.126864448891e+01
2.118790835130e+01
2.067581104424e+01
-5.713805195986e+01
2.164079179848e+01
-5.456590789162e+01
1.914419517650e+01
1.851024610182e+01
1.873701478304e+01
8.799327630305e+00
1.775311541202e+01
1.845880009630e+01
2.135768217960e+01
1.848185453522e+01
2.116837676320e+01
2.093349414270e+01
2.035781302457e+01
1.826522666774e+01
1.829783445438e+01
2.124058670991e+01
2.104241154521e+01
2.166063982055e+01
-4.491790025454e+01
2.074336965476e+01
-2.106815923337e+01
2.144130242150e+01
2.138854130988e+01
2.157771689236e+01
1.440880739348e+01
-4.192451953567e+00
2.132670090744e+01
2.113246706743e+01
1.972494238778e+01
2.151628586710e+01
1.660198894236e+01
1.958512627914e+01
2.242704367608e+01
2.241217426581e+01
2.175205678822e+01
2.165063114167e+01
2.269589224279e+01
1.336340634409e+01
2.169848775801e+01
2.201131362760e+01
2.140736429284e+01
2.155926539887e+01
1.563839597155e+01
1.649760489565e+01
1.543852422062e+01
4.583221091376e+00
2.206747278050e+01
2.187846985502e+01
1.660778533442e+01
1.605136013814e+01
2.226468827508e+01
2.118877427328e+01
1.507580521359e+01
2.149606462722e+01
2.126014483655e+01
1.649136714748e+01
1.316849136263e+01
2.244747686315e+01
1.494575942250e+01
1.431674470314e+01
-1.025656528345e+00
-2.192551480503e+01
1.602559042927e+01
2.129613824705e+01
-2.222411043111e+01
1.747555673716e+01
6.489040736449e+00
2.163221987930e+01
2.150151970418e+01
2.047214936516e+01
2.147058856172e+01
4.569181695545e+00
2.295977480040e+01
2.111601213309e+01
1.444189243553e+01
2.137211341541e+01
1.407973287596e+01
1.598194301112e+01
1.676547777508e+01
2.151204518525e+01
1.093061504479e+01
1.993231548944e+01
1.486782009391e+01
1.236561798609e+01
2.172441614335e+01
2.160230196874e+01
2.156679300273e+01
1.411733653721e+01
1.197025805904e+01
2.145773040781e+01
2.245029853995e+01
1.466865062855e+01
2.104683172175e+01
2.213575714214e+01
2.152523665327e+01
1.319201881123e+01
-5.534902720715e+00
-1.310561708859e+00
1.355627771097e+01
2.144655810541e+01
1.215922180346e+01
2.154972136343e+01
8.172016325308e+00
2.204407652530e+01
2.170306485843e+01
2.161965800006e+01
1.475160740042e+01
2.137629015897e+01
2.149975259945e+01
1.583734880467e+01
2.126714785618e+01
2.020007663336e+01
1.772415345736e+01
2.164743494881e+01
-5.700098501239e+01
-5.596350760651e+01
2.175427657232e+01
1.348947524191e+01
2.188584372629e+01
2.200916502462e+01
2.122669920299e+01
1.807090477046e+01
1.570957879096e+01
-4.934343065474e+00
2.046475707261e+01
2.189643106159e+01
1.138113658463e+01
9.860524991500e+00
6.566000802766e+00
1.039831343893e+01
2.173490290673e+01
1.359738697390e+01
1.371599445951e+01
1.616407975208e+01
1.624274915337e+01
1.514225739173e+01
1.400525649090e+01
1.558210139234e+01
2.165341902929e+01
2.168290892686e+01
1.706471501335e+01
1.577022422484e+01
2.176786023455e+01
2.190644963103e+01
1.264750381241e+01
2.175458565427e+01
1.364950307526e+01
2.155148622991e+01
1.212948986223e+01
1.444975175520e+01
2.372503390855e+01
1.526253118630e+01
2.120750068632e+01
2.154337764794e+01
1.956124594210e+01
2.037684098230e+01
1.294378481800e+01
2.239034840069e+01
1.653996717668e+01
3.961028508174e+00
1.289911605068e+01
1.688023295299e+01
2.140397648901e+01
1.388526726336e+01
2.173646281425e+01
2.118953398250e+01
2.082783989528e+01
1.541056241430e+01
7.333148295125e+00
2.190892225060e+01
1.126677387599e+01
-1.617472155619e+00
1.954939615317e+01
1.297924523789e+01
1.090654158031e+01
1.982260692782e+01
2.223688966833e+01
1.938688205986e+01
1.540374903881e+01
1.869076991418e+01
2.207706373335e+01
1.375488326564e+01
2.205783768959e+01
2.136944370533e+01
2.191131557497e+01
2.202789802443e+01
1.321330236222e+01
8.588767124134e+00
2.301690471186e+01
1.981101890840e+01
1.122824395437e+01
1.572920575970e+01
1.156435381208e+01
1.149523015761e+01
2.163610845119e+01
2.297451483385e+01
2.274188382376e+01
1.678331574514e+01
2.251841280682e+01
1.215128386968e+01
2.236595775594e+01
2.164848131000e+01
1.932482205446e+01
2.176643408972e+01
1.384133937254e+01
1.704527425547e+01
2.221042871753e+01
7.737280796255e+00
1.700383559362e+01
1.918356765549e+01
2.086556519653e+01
2.209615751557e+01
1.681235422059e+01
2.134439280070e+01
1.267708285143e+01
9.859882353827e+00
9.075158759888e+00
2.149974506411e+01
2.193839913703e+01
2.252197051369e+01
8.197967273137e+00
1.814177151505e+01
2.248040016638e+01
2.228833765240e+01
1.450636493992e+01
2.060351402034e+01
1.994275874462e+01
1.244199729572e+01
2.242736202354e+01
2.022027493634e+01
1.181114788710e+01
1.055750816921e+01
2.334621893542e+01
1.919502257663e+01
2.152628022165e+01
1.960424548038e+01
2.040168896405e+01
1.420342256503e+01
2.215338189127e+01
2.222789370289e+01
1.520729933589e+01
2.265901139567e+01
2.269101102028e+01
2.274751734443e+01
2.231856110047e+01
1.391776875667e+01
2.189125226661e+01
2.163735968129e+01
2.050356165321e+01
2.110322221434e+01
2.277569942396e+01
1.184275609156e+01
2.079113560300e+01
2.014567447769e+01
1.835661074877e+01
1.732985097375e+01
2.118366361234e+01
1.764324861532e+01
1.615729818442e+01
2.230965887419e+01
2.248714880977e+01
2.054508545252e+01
-5.685010637794e+01
2.315466514305e+01
2.271061087279e+01
2.171630759575e+01
1.056332513037e+01
2.257767642310e+01
1.915860641140e+01
2.168513117079e+01
1.472040464289e+01
1.891767310208e+01
3.040607921306e+00
1.010536931624e+01
1.884233780939e+01
2.012968348074e+01
2.309946745980e+01
2.210858465447e+01
1.196035649791e+01
1.012878158923e+01
8.761943028841e+00
1.734101763738e+01
2.247191885711e+01
2.090040260946e+01
1.259747260527e+01
1.552312840181e+01
2.022859017168e+01
2.321371094015e+01
2.071388940037e+01
1.432140724390e+01
2.172082532711e+01
2.306276639582e+01
1.775494236854e+01
9.639929044066e+00
2.062287908122e+01
2.210696400976e+01
2.249740763841e+01
1.828232013722e+01
2.288752503153e+01
2.250617414174e+01
2.348424539830e+01
1.960531813150e+01
2.302563399443e+01
1.264002936869e+01
2.351777335951e+01
2.213236459680e+01
1.625883910184e+01
2.188145588727e+01
2.300311944225e+01
2.012628589202e+01
1.691603692556e+01
1.635352635285e+01
1.409636092930e+01
1.615856378325e+01
2.326882557089e+01
1.995417828517e+01
1.533403626894e+01
2.036478605952e+01
1.242716710597e+01
1.761965583051e+01
9.485292411799e+00
2.203570899004e+01
1.638154597487e+01
2.288040695364e+01
9.429325438040e+00
1.487150960280e+01
2.285260859915e+01
2.338517784146e+01
1.663379502494e+01
2.230438462660e+01
1.339838222777e+01
2.321004307125e+01
1.501561048839e+01
1.410947971108e+01
2.134686867221e+01
2.174156587867e+01
2.220173427373e+01
9.430523539294e+00
7.689440805078e+00
2.245659762007e+01
2.252172714203e+01
2.251483597756e+01
7.190144595153e+00
1.963695427690e+01
2.375522865669e+01
2.284816277545e+01
2.184358546272e+01
1.706292252610e+01
1.746534392370e+01
1.631855448090e+01
1.634803507139e+01
1.489205391532e+01
2.225033095839e+01
1.671174834240e+01
1.327995369956e+01
2.208720808071e+01
2.373410387954e+01
1.415672959418e+01
1.608154307282e+01
1.430705995490e+01
1.344282813946e+01
2.199248110824e+01
2.211280028320e+01
2.222506329226e+01
2.259257671853e+01
7.519637188421e+00
2.274852154822e+01
1.364381941214e+01
1.641259599493e+01
2.312650636933e+01
2.371671044245e+01
2.330209882921e+01
1.818560246620e+01
2.307646063556e+01
2.312510635270e+01
1.301406513502e+01
2.248090208295e+01
1.135474517550e+01
3.794602561786e-01
3.390989249874e+00
2.239320411208e+01
2.301159743920e+01
1.766437502320e+01
2.390301817883e+01
2.259987691676e+01
1.155022093892e+01
6.840528140587e+00
2.320711733938e+01
2.337018056512e+01
1.326934005378e+01
2.225435780766e+01
1.682670854434e+01
2.222017313872e+01
2.201973918928e+01
2.336234640562e+01
1.425282214727e+01
2.164354498444e+01
2.181312144841e+01
7.454233883626e+00
1.243811716488e+01
2.195238385894e+01
1.493047660908e+01
2.362199890696e+01
2.326468394537e+01
2.195420797996e+01
4.700682057182e+00
1.562118408718e+01
1.721257470422e+01
7.121061781857e+00
2.130925322660e+01
1.682553490414e+01
1.492340643960e+01
2.028556192781e+01
1.329470220701e+01
2.200127923751e+01
1.711360508460e+01
2.028654744137e+01
1.016905637613e+01
1.573209484702e+01
1.339624072445e+01
2.381171649271e+01
1.867560074132e+01
6.090144320000e+00
2.175790512149e+01
2.338000596165e+01
1.239782636179e+01
1.209746229434e+01
2.168055033651e+01
1.260258527799e+01
1.877448179931e+01
2.317349994753e+01
2.280777473146e+01
2.220337965608e+01
1.879351151987e+01
1.432888161222e+01
2.219900055913e+01
1.246040023617e+01
1.770507516343e+01
1.479332390002e+01
1.546976826138e+01
1.435605683087e+01
2.184161324940e+01
1.410712959262e+01
2.359604693867e+01
4.421787400924e+00
2.174068280976e+01
1.837512391570e+01
1.797714507178e+01
2.269746899168e+01
1.152111475425e+01
2.200100406790e+01
2.304420066789e+01
1.658655439007e+01
1.717850139044e+01
2.288092013934e+01
1.546663420089e+01
2.350254410013e+01
2.036177480796e+01
3.617758204840e+00
1.856236399944e+01
-1.133947243096e+01
-1.095697850809e+01
2.386725869350e+01
-7.397420660235e+00
2.251850846774e+01
2.252039445861e+01
2.330520869426e+01
1.630484580045e+01
2.385845381873e+01
1.614856085022e+01
1.813549445865e+01
2.209358765549e+01
2.233923538315e+01
2.339321912565e+01
1.550117856570e+01
2.388129185843e+01
2.162941332398e+01
1.483765776767e+01
1.489723824678e+01
2.350062650123e+01
2.374046281772e+01
2.055361416174e+01
1.629637703777e+01
1.538163209683e+01
1.730784946346e+01
2.051129979884e+01
2.000263641875e+01
2.144245007977e+01
1.410550876820e+01
2.313429284884e+01
1.991130774215e+01
2.286321525563e+01
1.556007682335e+01
2.029307082906e+01
1.134116670507e+01
2.252179860601e+01
2.338885742762e+01
2.257762679849e+01
2.207982622304e+01
1.658175313050e+01
2.002685529207e+01
2.372493198553e+01
1.669440878073e+01
2.201682752718e+01
2.212842698985e+01
2.289237790397e+01
2.323977327648e+01
2.236480491113e+01
1.562451918058e+01
2.386177585881e+01
1.501836734566e+01
2.136332076980e+01
1.611941079931e+01
2.173665126066e+01
1.368471781426e+01
1.014141796099e+01
1.773652155465e+01
2.259562102499e+01
2.187965045823e+01
1.334067960400e+01
1.720474468599e+01
1.207200359509e+01
2.188844059262e+01
2.158482336425e+01
1.664869910216e+01
2.301543562859e+01
2.263702232477e+01
2.267923617031e+01
1.426566297517e+01
1.833901667620e+01
2.296784937934e+01
1.849500405029e+01
2.294651406307e+01
2.144021162688e+01
2.293647041130e+01
3.745296882465e+00
1.740616404448e+01
1.751392524595e+01
2.359816062998e+01
2.189755629265e+01
1.339262638213e+01
2.206439046119e+01
2.258408120100e+01
-2.423956353740e-01
2.127679165195e+01
2.092827005418e+01
2.270099341143e+01
2.108936599989e+01
-1.253916015669e+01
2.228405557456e+01
1.905857507094e+01
1.144953789800e+01
2.212351451773e+01
2.361763419791e+01
2.152462675331e+01
2.264579903889e+01
2.310957577674e+01
2.051717549526e+01
-3.201837475649e-01
2.081269050180e+01
2.269046187081e+01
1.979606032559e+01
2.092203480483e+01
1.974278810700e+01
2.190793111778e+01
1.714462330097e+01
2.152125281766e+01
2.246332975760e+01
2.296796489547e+01
2.068255873413e+01
2.137801373453e+01
2.143852810495e+01
2.130194179798e+01
1.235518633045e+01
2.169778079041e+01
2.201948771062e+01
-5.112680867587e+00
-5.129205901165e+00
1.538395028550e+01
2.119710626896e+01
2.202724145038e+01
1.757991217297e+01
2.303410690286e+01
2.218250249713e+01
2.346519596320e+01
1.860565376630e+01
6.877849187822e+00
2.248139386363e+01
2.244841146411e+01
1.862017895422e+01
2.204983293032e+01
2.108252611629e+01
1.925521608626e+01
1.253322553662e+01
1.838372945670e+01
1.820514048154e+01
5.379653019146e+00
2.215545239572e+01
1.800819613482e+01
1.617666118934e+01
1.637872118764e+01
2.243016222525e+01
1.339977136376e+01
1.350698568006e+01
2.153996485580e+01
2.173672207479e+01
-1.877503917263e+00
-1.696927720112e+00
1.266566000829e+01
1.014148978981e+01
2.225979756905e+01
2.269268468995e+01
1.455433488034e+01
2.115078953210e+01
1.602012384140e+01
2.172342442980e+01
2.188959971603e+01
-2.527414217738e+00
2.278131212209e+01
2.108303486906e+01
-2.792266550476e+00
1.608259737853e+01
1.104365966977e+01
1.643876579458e+01
1.963600078954e+01
2.311090696458e+01
2.320064671429e+01
1.664454966244e+01
2.300867642355e+01
2.217426907211e+01
2.158557675515e+01
-1.860152228960e-01
8.784867947979e+00
2.133439533934e+01
1.134106391199e+01
2.175194595026e+01
1.986862640658e+01
1.650145430670e+01
2.104098357326e+01
1.201060273900e-01
2.137024264068e+01
2.174404004511e+01
2.170439485223e+01
2.237397960619e+01
2.221849270575e+01
1.741530342488e+01
2.329314184756e+01
2.027625389822e+01
2.358381155045e+01
2.272194538347e+01
2.274811644892e+01
2.149359267481e+01
2.375999121816e+01
2.220480149172e+01
1.709486366976e+01
2.131780500589e+01
1.824871138169e+01
2.237962226688e+01
2.283669366261e+01
2.330001076811e+01
1.171135479216e+01
2.169503420697e+01
2.159066319821e+01
3.189409211577e+00
1.896912545103e+01
2.125834571405e+01
1.167435445800e+01
2.188690838238e+01
-4.500920064871e+00
2.151712959900e+01
2.072503705783e+01
2.149749745409e+01
2.300108277370e+01
1.195726039394e+01
1.087075963983e+01
2.164934204177e+01
6.424103904895e+00
-1.008287042685e+00
2.145786768168e+01
2.282565939994e+01
2.320112580996e+01
2.313559830932e+01
2.382832801581e+01
2.061134793561e+01
-1.066413074975e+01
8.691525284561e+00
-5.027291406633e+00
2.258750561519e+01
2.291512896554e+01
2.199756186156e+01
2.138397860026e+01
2.336430773202e+01
2.106424989742e+01
2.181944945126e+01
2.213751567467e+01
2.169647329568e+01
2.216285429898e+01
2.213404148239e+01
2.105175617000e+01
1.962038590154e+01
2.327918146429e+01
1.894858679189e+01
1.961202512533e+01
2.251655765159e+01
2.370091447065e+01
2.229706908782e+01
1.847525086168e+01
-1.602093593551e+01
2.346799888115e+01
-4.112400646300e+00
6.939643811818e+00
2.214244177861e+01
1.994884016882e+01
1.244856518983e+01
1.130993033962e+01
1.933521397212e+01
-7.031945626145e+00
1.146802283092e+01
2.356426770765e+01
2.171101612346e+01
9.196485462721e+00
2.258454178134e+01
2.293600383963e+01
2.120594076006e+01
2.327969062116e+01
1.858464444826e+01
8.771197115179e+00
2.202770653955e+01
2.188510840162e+01
1.815885607414e+01
1.530334926298e+00
1.284610243495e+01
2.152993579364e+01
-3.423835983244e+00
-2.333015605247e+01
1.295608676723e+01
2.169721001245e+01
2.260987359873e+01
2.155610993874e+01
2.056357723885e+01
2.203319128077e+01
1.509822595807e+01
2.181933565403e+01
2.335849861758e+01
1.930018620655e+01
5.043628405978e+00
2.271859105435e+01
2.167892946321e+01
2.182941476796e+01
9.549488701872e+00
2.277704246647e+01
2.174841788185e+01
1.193048651799e+01
9.716641428170e+00
1.051030308273e+01
2.192861772654e+01
2.114101971064e+01
4.098476832340e+00
2.188726125178e+01
1.170679490915e+01
2.209727200195e+01
2.301207737650e+01
3.793443026190e+00
2.165792218110e+01
1.698196175081e+01
4.209886571826e+00
2.177517262599e+01
2.304542065129e+01
2.194560741805e+01
-1.459916937489e+01
1.616318195637e+01
2.246623064790e+01
2.250384769473e+01
2.210310164757e+01
2.182821796770e+01
2.171833373284e+01
2.294902516327e+01
1.414413824930e+00
-1.312088369016e+01
2.172538897714e+01
2.242969641461e+01
2.064513118928e+01
1.994707151808e+01
1.133112098721e+01
1.872999097339e+01
2.147770590516e+01
-2.286150853682e+01
1.843359718331e+01
2.049254403858e+01
3.369536181514e+00
2.207089272877e+01
2.173233240482e+01
2.232448749548e+01
3.154698599552e+00
-1.106142301352e+01
1.688487452766e+01
1.422738311989e+01
1.787862629872e-01
2.152848179775e+01
1.489880071955e+01
2.160023988346e+01
1.388387212836e+01
2.162833023655e+01
2.218861917354e+01
2.219397773262e+01
6.283759499280e+00
2.153043573328e+01
1.614216003572e+01
2.127423946838e+01
2.269625142105e+01
1.943612299439e+01
-3.369505659515e+01
2.310476079392e+01
1.576672262238e+01
2.094696289534e+01
1.978060852772e+01
2.214840479703e+01
1.128366163568e+01
7.316631762405e+00
1.174122356074e+01
1.981242252588e+01
2.308547474630e+01
2.336274146699e+01
1.962985589074e+01
1.879519258915e+01
5.026567119803e+00
1.370318345040e+01
2.065405598344e+01
2.266118282906e+01
-6.254027465650e-01
1.259531196582e+01
2.294156512303e+01
1.792960007853e+01
2.345802020859e+01
-1.177764052560e-01
2.299658713000e+01
8.098340219204e+00
2.303720910452e+01
2.339805153090e+01
2.259246870332e+01
1.126189122559e+01
1.921039449652e+01
8.157002674755e-01
2.323441303484e+01
9.190239177219e+00
-2.358260599674e+01
1.706328094097e+01
1.616416654423e+01
-2.291273869146e+01
2.281934081753e+01
1.607727325131e+01
1.741695697156e+01
1.987183212331e+01
2.244358134687e+01
2.026731922766e+01
2.235816064041e+01
-5.209192044210e+00
2.093325493435e+01
1.478712303908e+01
2.239487251238e+01
2.280918021690e+01
1.057096351952e+01
1.702288537976e+01
2.348365015483e+01
-5.146781471980e+00
2.237349765978e+01
2.160378614288e+01
1.637901766538e+01
9.013695419918e+00
2.137836513842e+01
1.900338458827e+01
2.220804632807e+01
2.074815687761e+01
1.713032331013e+01
2.331695178369e+01
1.072058424826e+01
-5.733357392575e+00
2.114948356105e+01
1.918487435876e+01
6.257839313871e+00
1.755551661860e+01
1.986972019890e+01
2.316619385008e+01
2.198149121370e+01
2.182311038746e+01
-3.459624442611e+01
1.601830081436e+01
2.156608348294e+01
2.011342675783e+01
2.192549738504e+01
6.293460023206e+00
1.074188625584e+01
5.798658587031e+00
2.215615980055e+01
1.793212637942e+01
2.238014352497e+01
2.091442797592e+01
2.100325676426e+01
2.273003206019e+01
1.278926927503e+00
-2.861072929395e+01
5.377045601472e+00
8.050467221341e+00
6.467453048807e+00
2.275358426719e+01
2.136040086759e+01
2.182000761533e+01
-7.154251665784e+00
1.639082109471e+01
2.138551642478e+01
1.692039078035e+01
1.542343717199e+01
1.827214438575e+01
2.080880856680e+01
6.377328434642e+00
2.153148668287e+01
7.169417560437e+00
2.223115896757e+01
2.051894180949e+01
2.152677943673e-02
2.815217121005e+00
2.227808303499e+01
1.860475481990e+00
1.703261851378e+01
1.917140996348e+01
2.222212784574e+01
1.791967021964e+01
6.948445366105e+00
1.875889597721e+01
1.940463629639e+01
1.278769472245e+01
2.191922191239e+01
-4.531817977419e+00
1.886329947242e+00
6.051177275847e+00
7.161941818920e+00
4.490942390324e+00
1.813144064660e+01
1.772372262557e+01
1.014282628287e+01
2.154640357992e+01
1.870188533740e+01
1.721212395046e+01
1.704128891392e+01
2.057731219643e+01
2.007153914410e+01
2.142242791803e+01
-2.439664768549e+01
1.634825570857e+01
2.111670442784e+01
5.342743894360e+00
1.904675434514e+00
2.208464384463e+01
-7.064211475677e+00
-2.324101800693e+01
1.838807878452e+01
-5.457382335300e+00
1.759622453006e+01
2.171083858270e+01
-5.565039740982e+00
-2.757662006614e+01
1.779871131487e+01
6.990527982133e+00
1.720472192719e+01
2.050667510955e+01
1.823708337613e+01
1.195703464499e+01
6.307305714477e+00
2.056664790256e+01
2.209185956543e+01
2.144055314161e+01
1.449979957166e+01
2.151466972261e+01
-7.273526962211e+00
2.098739008867e+01
1.406044170330e+01
5.389800616152e+00
2.156481690636e+01
1.809196968007e+01
1.798661071194e+01
1.362469094207e+00
7.635004588334e+00
5.022538094773e+00
1.964167368951e+01
1.922874466218e+01
-4.991032908601e+00
2.247837028671e+01
-5.559445593191e+00
1.771345775795e+01
1.823646231732e+01
1.843770816793e+01
8.999999999514e+01
-5.314011425200e+01
-4.082191823715e+00
-5.401769218148e+00
2.049535646165e+01
2.075208438335e+01
-2.386847871464e+01
-3.553214753254e+01
2.104217811186e+01
2.172559637016e+01
9.571693089039e+00
2.109206175306e+01
2.154708212153e+01
2.136272433504e+01
1.142735716160e+01
7.510054744301e+00
2.228676773533e+01
4.912153100411e+00
2.097756326393e+01
1.943995989107e+01
1.669093874229e+01
2.121964160165e+01
8.760503147464e+00
2.122770869566e+01
1.851631133314e+01
1.787523701144e+01
-5.304472018330e+00
2.262108737953e+01
1.794742336331e+01
1.679477082720e+01
-2.230132032425e+01
2.065688657676e+01
2.267182925054e+01
3.407718122215e+00
1.286423115155e+01
2.076380500274e+01
2.139704505612e+01
2.143750457037e+01
2.158468387820e+01
-2.433375558356e+01
8.471450154130e+00
8.548862151076e+00
6.059769566304e+00
2.286216932572e+01
1.723819315390e+01
2.135083449780e+01
-6.237447545879e+00
-6.525567976561e+00
7.238506725107e+00
1.334824348339e+01
1.864868971442e+01
1.750116309545e+01
9.000518214000e+00
2.190869740480e+01
5.615984332390e+00
2.127609199671e+01
2.184095294119e+01
6.511725524348e+00
2.146927230340e+01
1.805621770334e+01
1.770789166275e+01
5.424337592609e+00
1.711705029219e+01
2.087437664181e+01
2.207537223662e+01
2.219875932305e+01
2.053180341767e+01
1.777603013947e+01
-3.173404726868e+01
-1.194879309525e+00
1.854191600218e+01
8.724702156633e+00
2.103095916311e+01
2.164203009537e+01
2.080534955678e+01
1.485885546226e+01
2.125715165419e+01
2.138765798800e+01
2.153900535882e+01
1.891355042345e+01
2.088269741243e+01
1.370642966277e+00
1.698521532351e+01
-5.733002093475e+00
1.626553774891e+01
1.297611009182e+01
-3.102626439837e+00
8.049816792476e+00
1.869804499864e+01
1.786136200770e+01
1.714070036456e+01
2.188224844226e+01
8.554806218059e+00
-2.253718058572e+01
-1.226492579196e+01
-1.726786565850e+01
1.336549467311e+00
-2.385692709796e+01
2.081259773095e+01
2.107054364891e+01
1.825087132065e+01
9.601930193068e+00
2.025496064998e+01
2.139681733489e+01
2.207387881653e+01
2.182256617197e+01
2.077588296277e+01
1.941004055812e+01
-5.962358948270e+00
-1.240459802888e+01
2.111458069306e+01
-2.898079018281e+00
1.578815489480e+00
-1.102358705031e+01
-7.437710086522e+00
2.099247562945e+01
2.037838701806e+01
1.729165505713e+01
2.131579214557e+01
2.200498892166e+01
1.020524725956e+01
1.888707320722e+01
1.335711651816e+01
-5.839104703996e+00
1.517509440163e+00
-2.248035362862e+01
2.084001431480e+01
3.255521733651e+00
4.287716471830e+00
2.082166774601e+01
2.021822027485e+01
1.713415786570e+01
1.838746522515e+01
1.800861727963e+01
-1.209316480524e+01
2.117326540751e+01
1.827536416815e+01
2.082511483081e+01
9.492101832192e-01
2.154509009341e+01
5.243086560302e+00
1.756870529490e+01
-2.463032527493e+01
2.108385982751e+01
1.828035671431e+01
-2.686967675089e+01
2.137331961468e+01
1.415610870438e+01
1.789098409362e+01
2.092166156006e+01
1.192250287093e+01
2.023913022680e+01
1.769599728239e+01
1.304758085704e+01
1.971985719277e+01
1.958453123719e+01
-5.559239312894e+00
2.176919035222e+01
1.786848012267e+01
-5.906887944663e+01
-5.311649665639e+00
2.079294938048e+01
9.759129235788e+00
2.221960530487e+01
1.787337020818e+01
1.770355973723e+01
8.974418059267e+00
-5.321784765701e+00
2.152494777248e+01
1.563302787026e+01
-2.286069361214e+01
1.821316111936e+01
1.128451987957e+01
7.151493142953e+00
9.445081116268e+00
2.160043654834e+01
2.153536647443e+01
-2.007286001328e+01
1.929447804060e+01
2.126865717625e+01
2.151541904891e+01
2.170790042234e+01
2.116044103104e+01
2.127841583795e+01
-8.115085577966e+00
2.123574999777e+01
2.084315193583e+01
1.380441181440e+00
1.786316484977e+01
2.074519230296e+01
1.296329261090e+00
1.124656740835e+01
2.108426029794e+01
2.111059975185e+01
2.136521610418e+01
2.225471679830e+01
3.136446921093e+00
2.074177671718e+01
5.912711174259e+00
1.791739183238e+01
2.196330411110e+01
9.430682987742e+00
1.930621417802e+01
2.186172333189e+01
2.185071438778e+01
-1.993388865824e+01
1.922454319294e+01
1.995728676141e+01
-7.762177373708e+00
2.086476243951e+01
-2.372724852736e+01
1.942350236153e+01
-3.502072138722e+01
-3.677677407714e+01
-3.613446645284e+01
-3.665311812168e+01
-3.632731562773e+01
-3.672893788034e+01
-3.649367989850e+01
-3.705384029741e+01
-3.641247471111e+01
-3.760374801609e+01
-3.660753249533e+01
-3.840580180292e+01
-3.663292833217e+01
-2.665811391722e+01
-3.946035524463e+01
-3.683022753393e+01
-4.547298076528e+01
-4.055844703427e+01
-3.675717254140e+01
-2.175677915674e+01
-4.199653669847e+01
-3.678962712147e+01
-4.377074118210e+01
-3.646243130237e+01
-4.553545220311e+01
-9.055923086821e+00
-3.558079839586e+01
-4.716921299481e+01
-4.836998270789e+01
-3.422898091296e+01
-4.803746639736e+01
-3.209166995600e+01
-4.450264618292e+01
-2.866192477316e+01
-1.393488919250e+01
-3.332093617731e+01
-3.446444418293e+01
-3.712501659512e+01
-3.197556104621e+01
-5.534650266872e+00
-2.068979696298e+01
-1.943314394326e+01
-1.947085375895e+01
-1.932366959669e+01
-1.933248086563e+01
-1.911143083674e+01
-1.912036983544e+01
-1.921519945009e+01
-1.936659639509e+01
-1.912053977886e+01
-1.922519204003e+01
-1.913287788510e+01
-1.194694945186e+01
-1.930513129173e+01
-1.471555414583e+01
-1.901122151144e+01
-1.924755415079e+01
-1.918647298240e+01
-1.943952257535e+01
-1.907177474553e+01
-1.922034033702e+01
-1.907990678072e+01
-1.846951650565e+01
-1.911573928757e+01
-1.927600475809e+01
-1.911783596540e+01
-1.920816502375e+01
-1.752094005787e+01
-1.861171495030e+01
-1.710563625580e+01
-9.194375346693e+00
-1.487415380366e+01
-1.857188043793e+01
-1.978909674233e+01
-1.450380380317e+01
-2.629196052040e+01
-1.165263791973e+01


